coord_x,coord_y,stress_xx,stress_yy,tau_xy,velocity_x,velocity_y,stress_1,eps,damage,lx,ly
4.9990982e+0, 1.2498652e+2, -1873572.5, -1551606.9, 19149.893, 0.0158844, -0.4965753, -1550471.9, 164613.19, 0.0013143772, 9.997873, 10.002144 
4.9988872e+0, 1.3498746e+2, -1839778.0, -1625063.4, -11047.223, -0.013534358, -0.49552608, -1624496.5, -7424.591, 0.0008064585, 9.99804, 10.000885 
4.9990147e+0, 1.4498776e+2, -1749836.1, -1609952.5, -12576.721, -0.015005411, -0.51676404, -1608830.8, -89762.76, 0.00037918316, 9.998326, 10.000174 
4.9994683e+0, 1.5498784e+2, -1593670.4, -1486984.4, 5690.4277, 0.009785049, -0.53118235, -1486681.6, -65612.38, 0.00011767186, 9.998738, 10.000146 
4.999619e+0, 1.6498807e+2, -1461785.9, -1380560.5, 2427.0232, 0.011496365, -0.51713693, -1380488.0, -57420.113, 0.000016018055, 9.999005, 10.000076 
4.9994725e+0, 1.7498833e+2, -1346286.3, -1275535.5, -12226.615, -0.009428569, -0.504746, -1273482.1, -48416.668, 0.00000013955699, 9.999132, 10.000064 
4.9995717e+0, 1.8498817e+2, -1267961.6, -1282106.0, -11259.12, -0.013244658, -0.48221883, -1261737.8, -134669.78, 0.0, 9.999407, 9.999215 
4.999916e+0, 1.9498774e+2, -1110092.8, -1158027.1, -6277.895, 0.000041326966, -0.4501242, -1109284.1, -80209.86, 0.0, 9.99983, 9.99919 
5.000133e+0, 2.0498677e+2, -1006636.56, -1123288.5, -6086.9316, 0.0056710867, -0.43542507, -1006319.8, -75233.99, 0.0, 10.000152, 9.9986 
5.000221e+0, 2.1498528e+2, -877897.0, -1012624.4, -3678.5132, 0.003490563, -0.44871324, -877796.6, -44694.37, 0.0, 10.000372, 9.99858 
5.000316e+0, 2.24984e+2, -749863.25, -915513.4, -1259.8636, -0.0007117885, -0.42530477, -749853.7, -14737.487, 0.0, 10.000644, 9.998443 
5.0004137e+0, 2.3498301e+2, -606164.44, -797412.5, -3320.0938, -0.0069710403, -0.37355766, -606106.8, 31020.195, 0.0, 10.000966, 9.9984255 
5.000597e+0, 2.4498133e+2, -480399.4, -709848.5, -5754.052, -0.0033264789, -0.37189087, -480255.22, 58887.883, 0.0, 10.001259, 9.998214 
5.000868e+0, 2.54979e+2, -345210.16, -597050.56, -6565.71, 0.010326079, -0.42950687, -345039.1, 96124.89, 0.0, 10.001528, 9.998186 
5.0009596e+0, 2.649768e+2, -228422.9, -513777.06, -6173.2925, 0.007919873, -0.45555413, -228289.42, 114894.94, 0.0, 10.00176, 9.9979725 
5.0008714e+0, 2.7497485e+2, -102952.734, -403765.0, -3443.7896, -0.010566685, -0.4533804, -102913.31, 142289.67, 0.0, 10.001954, 9.997961 
5.0009906e+0, 2.84973e+2, 25541.943, -290121.3, -5730.8096, -0.008939265, -0.43555447, 25645.951, 172865.36, 0.000000004221918, 10.002159, 9.99797 
5.0013155e+0, 2.949711e+2, 160727.95, -166094.19, -13659.324, 0.0125627965, -0.42644462, 161297.84, 210532.56, 0.0000065845143, 10.002379, 9.998042 
5.0013834e+0, 3.049674e+2, 231499.64, -112908.0, -14374.733, 0.010473449, -0.5997736, 232098.56, 232098.56, 0.0000754208, 10.002556, 9.997992 
5.0012547e+0, 3.149667e+2, 243617.03, -116164.4, -4077.8271, -0.008563977, -0.4643515, 243663.25, 243663.25, 0.0002698707, 10.002678, 9.9979105 
1.4997293e+1, 1.2498701e+2, -1931709.0, -1671114.0, 22710.357, 0.047536083, -0.49191502, -1669149.6, 45927.645, 0.0012897267, 9.9978695, 10.001325 
1.4996663e+1, 1.3498671e+2, -1897604.4, -1744491.5, -5002.854, -0.040520567, -0.5327266, -1744328.3, -127247.8, 0.0007892631, 9.998039, 10.000067 
1.4997044e+1, 1.4498691e+2, -1715812.1, -1538657.3, 2546.995, -0.045077562, -0.5482478, -1538620.6, -19542.197, 0.00036879338, 9.998323, 10.000665 
1.4998406e+1, 1.5498802e+2, -1559561.9, -1415861.9, 21184.154, 0.029384192, -0.5067071, -1412804.0, 8263.197, 0.00011270428, 9.998737, 10.000635 
1.4998856e+1, 1.6498841e+2, -1488914.6, -1436323.3, 6870.849, 0.034454368, -0.4821338, -1435440.4, -112376.51, 0.000014709239, 9.999003, 9.999695 
1.4998418e+1, 1.7498796e+2, -1373606.6, -1331635.4, -7495.486, -0.028266892, -0.5018632, -1330336.9, -105266.9, 0.00000010097208, 9.99913, 9.9996805 
1.4998715e+1, 1.849875e+2, -1258772.9, -1262328.5, 4566.504, -0.039787892, -0.4971927, -1255650.4, -128574.56, 0.0, 9.999404, 9.9993515 
1.4999749e+1, 1.9498718e+2, -1100356.4, -1137653.6, 9744.785, 0.00009633486, -0.46747726, -1097963.8, -68883.87, 0.0, 9.999829, 9.9993305 
1.5000398e+1, 2.0498645e+2, -1002044.94, -1113409.4, 2046.8115, 0.016997071, -0.43979374, -1002007.3, -70918.664, 0.0, 10.00015, 9.998669 
1.5000664e+1, 2.1498531e+2, -873458.44, -1002843.75, 4731.4707, 0.010493192, -0.42439348, -873285.6, -40183.8, 0.0, 10.00037, 9.998649 
1.5000945e+1, 2.249839e+2, -753190.7, -921854.8, 10818.731, -0.0021774063, -0.41588083, -752499.56, -17382.643, 0.0, 10.000642, 9.998401 
1.5001242e+1, 2.3498231e+2, -609820.94, -804797.5, 8927.93, -0.02088076, -0.4188778, -609413.0, 27720.145, 0.0, 10.000965, 9.998376 
1.500179e+1, 2.4498065e+2, -482106.4, -713164.6, 4195.191, -0.010038317, -0.41171154, -482030.25, 57118.934, 0.0, 10.001258, 9.998192 
1.5002602e+1, 2.5497895e+2, -345844.47, -597945.5, 3659.5247, 0.030946903, -0.40423375, -345791.38, 95373.266, 0.0, 10.001527, 9.99818 
1.5002878e+1, 2.649768e+2, -222527.64, -501109.94, 951.3851, 0.023777349, -0.43082613, -222524.39, 120659.984, 0.0, 10.001759, 9.99806 
1.5002614e+1, 2.7497432e+2, -98435.32, -393898.44, 3983.9617, -0.031736303, -0.49106932, -98381.61, 146825.61, 0.0, 10.001952, 9.998031 
1.5002972e+1, 2.8497228e+2, 10522.291, -320839.9, 2391.598, -0.026753483, -0.48084116, 10539.552, 157765.02, 0.0000000059189293, 10.002157, 9.99776 
1.5003948e+1, 2.9497063e+2, 146728.33, -194662.95, -5023.6006, 0.037626415, -0.4241578, 146802.23, 196042.19, 0.0000065077284, 10.0023775, 9.997847 
1.5004149e+1, 3.0496725e+2, 248611.56, -76803.37, -9721.581, 0.03152239, -0.5701618, 248901.73, 248901.73, 0.000074264535, 10.002554, 9.99824 
1.5003762e+1, 3.1496683e+2, 259834.11, -81659.93, 3212.4082, -0.025982352, -0.42972374, 259864.33, 259864.33, 0.00026634705, 10.002675, 9.998149 
2.4995059e+1, 1.2498657e+2, -1954078.6, -1696103.5, -15918.655, 0.041377556, -0.5135136, -1695124.9, 19956.277, 0.0012539346, 9.99778, 10.001197 
2.4994965e+1, 1.3498649e+2, -1862148.4, -1741938.3, 9928.496, -0.02958962, -0.51793855, -1741123.8, -124040.41, 0.0007642556, 9.998346, 9.999937 
2.4995601e+1, 1.449867e+2, -1673815.9, -1515164.5, 19565.129, -0.03539571, -0.52630407, -1512787.4, 6294.0425, 0.0003536966, 9.998597, 10.000695 
2.4996933e+1, 1.549877e+2, -1586140.3, -1425619.0, 3215.696, 0.017956875, -0.5017728, -1425554.6, -4483.6377, 0.00010549485, 9.998542, 10.000663 
2.4997646e+1, 1.6498801e+2, -1517901.0, -1458842.1, -8592.646, 0.021020675, -0.4823578, -1457617.4, -134549.16, 0.000012859098, 9.998842, 9.999619 
2.4997772e+1, 1.7498754e+2, -1324601.8, -1316706.6, 22.506886, -0.02458016, -0.49523145, -1316706.5, -91631.88, 0.00000006033416, 9.999504, 9.999603 
2.4998398e+1, 1.8498702e+2, -1201685.3, -1237757.6, 10254.788, -0.032086767, -0.4901975, -1198973.8, -71892.85, 0.0, 9.999809, 9.999326 
2.4999528e+1, 1.9498664e+2, -1112377.0, -1146275.6, 3045.0554, -0.0014583032, -0.46565685, -1112105.6, -83019.914, 0.0, 9.99976, 9.999305 
2.5000423e+1, 2.0498589e+2, -1023967.25, -1120678.9, -5887.3633, 0.012711019, -0.44014367, -1023610.1, -92515.66, 0.0, 9.999986, 9.998698 
2.5001082e+1, 2.1498477e+2, -855148.75, -991011.5, -6385.9526, 0.009660196, -0.42477998, -854849.25, -21742.084, 0.0, 10.000483, 9.998676 
2.5001708e+1, 2.2498336e+2, -725180.1, -906930.8, -3090.9302, 0.0007584642, -0.41832083, -725127.56, 9994.487, 0.0, 10.000828, 9.998414 
2.5002307e+1, 2.3498176e+2, -600205.3, -798819.2, -710.0857, -0.0138087105, -0.42299494, -600202.8, 36935.5, 0.0, 10.001026, 9.998387 
2.500305e+1, 2.4498011e+2, -486609.5, -716940.9, -3009.0637, -0.009016948, -0.41482994, -486570.2, 52584.055, 0.0, 10.001234, 9.998178 
2.5003934e+1, 2.5497845e+2, -357310.44, -604751.94, -3298.845, 0.015078003, -0.40487236, -357266.47, 83903.14, 0.0, 10.001453, 9.998169 
2.5004518e+1, 2.6497623e+2, -226187.73, -499512.2, -7884.687, 0.013820515, -0.43659112, -225960.47, 117229.09, 0.0, 10.0017185, 9.998091 
2.500481e+1, 2.7497363e+2, -83588.484, -384042.06, -8900.563, -0.011869917, -0.5089312, -83325.05, 161887.94, 0.0, 10.002043, 9.9980545 
2.5005364e+1, 2.8497162e+2, 20600.68, -321289.44, -9412.655, -0.0077534826, -0.49599373, 20859.625, 168090.89, 0.0000000086392555, 10.00225, 9.997712 
2.5006148e+1, 2.9497015e+2, 135707.81, -205114.45, -5038.9365, 0.022704199, -0.42075458, 135782.3, 185027.4, 0.0000063841276, 10.002324, 9.997801 
2.5006443e+1, 3.0496687e+2, 237101.75, -82228.61, -11887.56, 0.009359007, -0.55562806, 237543.67, 237543.67, 0.00007245599, 10.002476, 9.998241 
2.5006577e+1, 3.1496638e+2, 263677.47, -82881.9, -15631.813, -0.014134368, -0.42015368, 264381.13, 264381.13, 0.00026087384, 10.002716, 9.998121 
3.4992385e+1, 1.24985166e+2, -1914002.5, -1613723.9, 3409.7788, -0.0049397843, -0.562373, -1613685.1, 101411.516, 0.0012062672, 9.997782, 10.001762 
3.4993795e+1, 1.3498682e+2, -1821425.0, -1658755.9, 31485.002, 0.01800357, -0.45210743, -1652874.5, -35793.918, 0.00073077687, 9.998351, 10.000505 
3.499469e+1, 1.449872e+2, -1704197.8, -1578344.4, 17137.057, 0.013115832, -0.45133469, -1576052.6, -56975.61, 0.00033350204, 9.998599, 10.00026 
3.499505e+1, 1.5498684e+2, -1617270.0, -1489363.3, 1017.9352, -0.025069313, -0.51517236, -1489355.3, -68274.62, 0.000095918134, 9.998539, 10.000227 
3.4995988e+1, 1.6498685e+2, -1502015.9, -1425217.0, 16241.385, -0.029672565, -0.51756495, -1421923.5, -98842.61, 0.000010539653, 9.998839, 9.999851 
3.4997532e+1, 1.7498705e+2, -1307953.5, -1282563.0, 25193.807, 0.00048651686, -0.48557562, -1267046.5, -41966.992, 0.000000028001644, 9.999506, 9.999836 
3.499862e+1, 1.8498677e+2, -1214936.9, -1265201.4, 8224.04, 0.008923865, -0.46168852, -1213625.5, -86541.91, 0.0, 9.999809, 9.999137 
3.4999257e+1, 1.9498612e+2, -1126218.3, -1174138.4, 1353.0255, -0.004928349, -0.44420186, -1126180.1, -97088.43, 0.0, 9.999757, 9.999115 
3.5000205e+1, 2.0498508e+2, -1025252.8, -1122563.1, 12913.936, -0.0077763298, -0.43640023, -1023568.2, -92464.89, 0.0, 9.999983, 9.998687 
3.5001472e+1, 2.1498366e+2, -855946.94, -992621.94, 12495.305, 0.00030734166, -0.45003065, -854813.94, -21695.666, 0.0, 10.000482, 9.998666 
3.5002604e+1, 2.249824e+2, -720316.0, -896683.4, 4298.964, 0.0071444726, -0.43278113, -720211.25, 14920.461, 0.0, 10.000827, 9.998485 
3.5003608e+1, 2.3498139e+2, -595149.06, -788115.6, 6888.7065, 0.013636222, -0.3858557, -594903.44, 42239.047, 0.0, 10.001025, 9.998462 
3.5004365e+1, 2.4497972e+2, -487101.56, -717514.0, 5126.5864, -0.0009145534, -0.3814877, -486987.56, 52170.69, 0.0, 10.001233, 9.998174 
3.5004863e+1, 2.5497743e+2, -358335.6, -606355.6, 5008.82, -0.03767048, -0.4311996, -358234.5, 82944.34, 0.0, 10.0014515, 9.998159 
3.5005873e+1, 2.6497513e+2, -228415.27, -503925.4, 4106.3457, -0.022571566, -0.47304565, -228354.08, 114845.84, 0.0, 10.0017185, 9.998061 
3.5007453e+1, 2.7497286e+2, -84934.9, -386343.8, 3615.824, 0.047933023, -0.5068743, -84891.53, 160328.75, 0.0, 10.002041, 9.99804 
3.5008162e+1, 2.8497103e+2, 28211.947, -304721.38, -6693.855, 0.047120165, -0.48107806, 28346.477, 175583.28, 0.000000011844628, 10.002247, 9.997828 
3.5007918e+1, 2.949696e+2, 142792.13, -189458.75, -2225.458, -0.032868724, -0.41581196, 142807.03, 192057.28, 0.0000061783935, 10.002321, 9.99791 
3.5008267e+1, 3.0496615e+2, 219581.6, -118273.055, -3058.8542, -0.05622856, -0.55639833, 219609.28, 219609.28, 0.00006980885, 10.002475, 9.997994 
3.5009688e+1, 3.1496528e+2, 243186.52, -125162.77, -3969.3667, 0.02515356, -0.43630075, 243229.28, 243229.28, 0.00025299258, 10.002715, 9.997831 
4.4990155e+1, 1.24984376e+2, -1865818.8, -1579236.6, 12558.049, -0.020287912, -0.550055, -1578687.4, 136418.81, 0.0011480161, 9.998065, 10.001864 
4.499205e+1, 1.3498622e+2, -1848828.6, -1659908.3, 7282.8267, 0.020226723, -0.42966637, -1659628.0, -42540.305, 0.0006895071, 9.998113, 10.000614 
4.4993237e+1, 1.4498655e+2, -1736525.8, -1605253.1, -13691.809, 0.016034968, -0.43341076, -1603840.3, -84756.04, 0.00030865482, 9.998426, 10.00016 
4.4993678e+1, 1.54986e+2, -1554690.4, -1470674.1, -4629.853, -0.03983301, -0.50799537, -1470419.8, -49329.895, 0.00008435172, 9.999019, 10.000125 
4.499489e+1, 1.6498594e+2, -1434308.8, -1388460.5, 18111.484, -0.04504355, -0.5130475, -1382169.1, -59078.477, 0.000007991499, 9.999287, 9.999888 
4.499692e+1, 1.7498624e+2, -1344707.0, -1296037.3, 12090.783, 0.00222462, -0.47541466, -1293199.1, -68110.96, 0.000000008983813, 9.999236, 9.999874 
4.4998345e+1, 1.8498595e+2, -1266644.5, -1297112.1, -9858.467, 0.016467387, -0.45064083, -1263732.9, -136640.78, 0.0, 9.999485, 9.999075 
4.4999158e+1, 1.9498518e+2, -1090250.6, -1163913.8, -7376.2583, -0.003822233, -0.4374617, -1089519.4, -60418.066, 0.0, 10.000034, 9.999052 
4.5000345e+1, 2.0498408e+2, -969933.0, -1095730.4, 12053.042, -0.010999096, -0.43280807, -968788.56, -37675.168, 0.0, 10.000361, 9.998689 
4.50019e+1, 2.1498266e+2, -857905.0, -993049.25, 12388.496, -0.004319193, -0.44732052, -856778.75, -23650.334, 0.0, 10.000467, 9.99867 
4.5003334e+1, 2.2498141e+2, -744623.1, -910939.7, -700.4285, 0.005135559, -0.4277155, -744620.1, -9478.527, 0.0, 10.000671, 9.998463 
4.500465e+1, 2.3498043e+2, -603984.94, -794860.4, -5259.0024, 0.017721465, -0.37569168, -603840.1, 33312.035, 0.0, 10.000975, 9.998441 
4.5005688e+1, 2.4497874e+2, -477502.25, -708027.4, -8279.655, 0.005941027, -0.37594852, -477205.25, 61962.902, 0.0, 10.001278, 9.998218 
4.500644e+1, 2.5497636e+2, -336201.6, -591236.3, -5273.009, -0.03157744, -0.4390571, -336092.63, 105096.74, 0.0, 10.001584, 9.9981985 
4.5007646e+1, 2.649741e+2, -214176.81, -493460.22, -3013.27, -0.021539096, -0.48010752, -214144.31, 129065.61, 0.0, 10.001801, 9.998094 
4.5009357e+1, 2.7497202e+2, -99760.09, -389435.5, 921.2434, 0.040316552, -0.49997646, -99757.164, 145471.39, 0.0, 10.001922, 9.998076 
4.501031e+1, 2.8497025e+2, 15294.358, -311924.88, -11796.338, 0.04142057, -0.47173798, 15719.067, 162963.94, 0.000000014278152, 10.002163, 9.997818 
4.5010412e+1, 2.9496866e+2, 173692.02, -176195.19, -16803.342, -0.026964922, -0.4149561, 174497.16, 223756.7, 0.0000058442592, 10.002541, 9.997896 
4.5010856e+1, 3.0496523e+2, 256647.4, -99310.87, -16986.262, -0.05664055, -0.5542986, 257456.16, 257456.16, 0.000066210356, 10.002725, 9.998006 
4.5012307e+1, 3.149643e+2, 235170.73, -133857.72, 2849.1333, 0.01718618, -0.4418817, 235192.73, 235192.73, 0.0002424885, 10.002681, 9.997789 
5.498836e+1, 1.249842e+2, -1890912.8, -1632401.1, 11497.168, -0.007064696, -0.4741828, -1631890.8, 83218.76, 0.0010818627, 9.998071, 10.001496 
5.4989725e+1, 1.3498475e+2, -1874694.0, -1712465.5, 8737.292, -0.023445703, -0.4492091, -1711996.3, -94891.88, 0.0006423977, 9.998108, 10.000256 
5.499122e+1, 1.4498481e+2, -1720205.1, -1570714.1, 8838.362, -0.02822051, -0.4726818, -1570193.4, -51090.19, 0.00028050644, 9.998423, 10.000399 
5.4992807e+1, 1.5498516e+2, -1536911.8, -1435438.3, 18141.646, -0.02919363, -0.48133868, -1432292.4, -11193.419, 0.00007169208, 9.999025, 10.000364 
5.499437e+1, 1.649853e+2, -1445212.5, -1411614.9, 15996.584, -0.026663555, -0.46940243, -1405217.0, -82119.44, 0.0000055425044, 9.9992895, 9.999727 
5.499594e+1, 1.7498513e+2, -1356912.0, -1319743.0, 10250.734, -0.019171111, -0.4637643, -1317103.5, -92003.04, 0.00000000116644, 9.999229, 9.999715 
5.4997563e+1, 1.8498461e+2, -1262940.1, -1288214.9, 10998.035, -0.010255368, -0.456592, -1258824.6, -131718.05, 0.0, 9.99948, 9.999139 
5.499923e+1, 1.9498387e+2, -1085477.9, -1154411.5, 13551.637, 0.000043477823, -0.44596133, -1082909.5, -53794.906, 0.0, 10.000036, 9.999116 
5.5000836e+1, 2.0498294e+2, -968525.9, -1092925.9, 15985.03, 0.0016176674, -0.4296109, -966504.7, -35379.72, 0.0, 10.000362, 9.998708 
5.500236e+1, 2.1498181e+2, -856883.7, -990549.75, 16548.63, -0.0051022423, -0.41688132, -854865.4, -21727.934, 0.0, 10.000465, 9.998688 
5.5003893e+1, 2.2498044e+2, -753086.9, -927913.44, 10712.041, -0.0061248667, -0.4033281, -752432.94, -17281.127, 0.0, 10.0006695, 9.998346 
5.500543e+1, 2.3497893e+2, -612029.8, -811440.44, 6369.518, -0.0020845495, -0.39249516, -611826.56, 25340.75, 0.0, 10.000975, 9.998327 
5.5007017e+1, 2.4497718e+2, -471402.47, -695386.4, 3206.7375, 0.010502856, -0.3981429, -471356.6, 67827.336, 0.0, 10.001278, 9.998305 
5.500866e+1, 2.5497523e+2, -330287.2, -578660.25, 6436.341, 0.03152009, -0.42845324, -330120.5, 111080.734, 0.0, 10.001583, 9.998286 
5.500982e+1, 2.6497313e+2, -207657.61, -479289.1, 1481.8307, 0.015581485, -0.45807043, -207649.53, 135570.06, 0.0, 10.001798, 9.998192 
5.501053e+1, 2.7497107e+2, -93459.67, -375653.63, 5391.7876, -0.03508795, -0.48786116, -93356.69, 151881.14, 0.0, 10.001919, 9.998172 
5.501181e+1, 2.8496918e+2, 5622.326, -331832.63, 2179.2205, -0.025395956, -0.4682567, 5636.399, 152891.84, 0.000000014996283, 10.002162, 9.997683 
5.501361e+1, 2.949674e+2, 164160.25, -195449.98, -2105.7302, 0.038683835, -0.418364, 164172.58, 213445.63, 0.0000053587105, 10.002539, 9.997766 
5.501421e+1, 3.0496413e+2, 274714.2, -61131.656, -18569.959, 0.0063924924, -0.55004555, 275737.84, 275737.84, 0.00006167987, 10.002723, 9.998269 
5.5014414e+1, 3.1496343e+2, 249074.0, -104127.78, 3068.7732, -0.040135175, -0.43718565, 249100.66, 249100.66, 0.00022941288, 10.002678, 9.997995 
6.49867e+1, 1.24983616e+2, -1855067.5, -1654908.6, 3688.363, -0.00037129284, -0.4246495, -1654840.8, 60275.582, 0.0010116006, 9.998488, 10.00114 
6.498795e+1, 1.3498332e+2, -1809248.0, -1719660.8, 3483.2961, -0.042062156, -0.4478548, -1719525.5, -102405.4, 0.00059264415, 9.998725, 9.999908 
6.4989686e+1, 1.4498314e+2, -1652272.0, -1526225.6, 6300.1973, -0.04466502, -0.48554462, -1525911.5, -6790.0786, 0.0002512883, 9.998839, 10.000504 
6.499187e+1, 1.5498391e+2, -1554329.1, -1432069.1, 5050.009, -0.017555118, -0.46133786, -1431860.9, -10748.714, 0.000059186506, 9.998856, 10.000469 
6.4993703e+1, 1.6498415e+2, -1487597.5, -1447138.4, -6491.408, -0.010928072, -0.43976277, -1446122.4, -123012.58, 0.0000034805446, 9.999064, 9.999593 
6.499523e+1, 1.749837e+2, -1332046.9, -1322651.0, -10188.253, -0.02416978, -0.44772032, -1316129.8, -91013.805, 0.00000000000024211628, 9.999465, 9.999581 
6.4997065e+1, 1.8498304e+2, -1217595.3, -1255319.3, 668.7441, -0.020789426, -0.45118544, -1217583.4, -90460.36, 0.0, 9.999744, 9.999236 
6.4999205e+1, 1.9498235e+2, -1097163.8, -1148968.0, 5617.8896, -0.000099544675, -0.44809797, -1096561.5, -67431.484, 0.0, 9.999908, 9.999215 
6.500116e+1, 2.0498149e+2, -1001034.2, -1114572.3, 1656.1725, 0.0077884523, -0.4260956, -1001010.06, -69870.586, 0.0, 10.000166, 9.998653 
6.5002924e+1, 2.149805e+2, -853427.9, -994886.44, -3179.8342, 0.0024495346, -0.39360365, -853356.44, -20205.363, 0.0, 10.000516, 9.998633 
6.5004694e+1, 2.2497907e+2, -729175.25, -913185.94, -4089.4407, -0.00073938543, -0.3842613, -729084.44, 6081.5513, 0.0, 10.000819, 9.998375 
6.500645e+1, 2.349773e+2, -595582.94, -800126.2, 2088.8096, -0.0019697093, -0.40311134, -595561.56, 41621.844, 0.0, 10.001073, 9.998357 
6.500827e+1, 2.4497554e+2, -470221.6, -692361.44, 218.51349, 0.00875029, -0.41105062, -470221.4, 68978.52, 0.0, 10.001275, 9.998327 
6.501016e+1, 2.549739e+2, -350709.56, -585677.0, -1376.4437, 0.031366967, -0.41520306, -350701.47, 90513.4, 0.0, 10.0014305, 9.998312 
6.501152e+1, 2.649719e+2, -224173.66, -477420.63, -10045.212, 0.014381223, -0.43901542, -223775.83, 119456.31, 0.0, 10.001642, 9.99828 
6.5012395e+1, 2.749698e+2, -87615.51, -363464.8, -7070.0728, -0.039726485, -0.48435017, -87434.42, 157816.25, 0.0, 10.001919, 9.998256 
6.501391e+1, 2.8496787e+2, -2844.0256, -338171.13, -4576.5386, -0.02851835, -0.47087312, -2781.5767, 144487.03, 0.000000013847158, 10.002114, 9.997663 
6.501601e+1, 2.949661e+2, 115908.04, -220277.4, -159.34581, 0.041155424, -0.41620535, 115908.12, 165194.44, 0.0000047556837, 10.0022135, 9.997751 
6.5016747e+1, 3.04963e+2, 240954.63, -58878.496, -19348.004, 0.003628545, -0.5393947, 242197.98, 242197.98, 0.000056396846, 10.002411, 9.998433 
6.501707e+1, 3.149623e+2, 261553.84, -87315.79, -4043.0193, -0.044491462, -0.44354045, 261600.69, 261600.69, 0.00021408794, 10.002717, 9.998091 
7.498516e+1, 1.2498261e+2, -1878318.6, -1704168.5, 10718.971, -0.004336046, -0.4035854, -1703511.3, 11615.289, 0.00094218313, 9.998491, 10.0008 
7.498672e+1, 1.3498199e+2, -1831218.1, -1767776.6, 12693.637, -0.03934274, -0.42665574, -1765331.1, -148196.34, 0.0005443152, 9.998734, 9.999574 
7.498863e+1, 1.4498153e+2, -1654052.5, -1531093.5, 6755.9434, -0.035621792, -0.47235623, -1530723.5, -11584.356, 0.00022371147, 9.998845, 10.000467 
7.499085e+1, 1.5498227e+2, -1557829.1, -1437904.0, 5756.395, -0.004799173, -0.44748172, -1437628.3, -16498.658, 0.00004811655, 9.99885, 10.000432 
7.499289e+1, 1.6498245e+2, -1495532.4, -1462497.1, 8863.274, 0.0011475922, -0.4236293, -1460269.4, -137141.64, 0.0000019773436, 9.99906, 9.99949 
7.499479e+1, 1.7498195e+2, -1338604.0, -1337391.9, 5263.7095, -0.015551057, -0.4274812, -1332699.5, -107564.734, 0.0, 9.99947, 9.999477 
7.4996847e+1, 1.8498129e+2, -1207763.6, -1235618.8, 6793.4644, -0.017247122, -0.43464682, -1206195.1, -79053.3, 0.0, 9.999747, 9.99937 
7.499907e+1, 1.9498059e+2, -1088269.6, -1129673.4, 11970.503, -0.0042790663, -0.44367787, -1085057.9, -55910.242, 0.0, 9.999906, 9.999349 
7.500132e+1, 2.0497973e+2, -1010286.0, -1133095.6, 14933.592, 0.0072832783, -0.42209244, -1008496.1, -77339.195, 0.0, 10.000163, 9.998528 
7.500359e+1, 2.1497874e+2, -862307.7, -1013210.7, 10268.146, 0.017002046, -0.37750465, -861612.2, -28442.809, 0.0, 10.000515, 9.9985075 
7.500572e+1, 2.2497733e+2, -717142.44, -888163.25, 5483.429, 0.019891506, -0.3705306, -716966.8, 18217.344, 0.0, 10.000819, 9.998548 
7.500771e+1, 2.3497555e+2, -583764.0, -775483.8, 11697.962, 0.016813707, -0.4076642, -583052.9, 54147.758, 0.0, 10.001072, 9.998527 
7.500946e+1, 2.4497385e+2, -473216.44, -698197.4, 5943.751, -0.0001598331, -0.4150858, -473059.53, 66156.73, 0.0, 10.001274, 9.998287 
7.5010955e+1, 2.5497234e+2, -353499.22, -591166.4, 4482.9795, -0.03230683, -0.39926517, -353414.7, 87815.64, 0.0, 10.001429, 9.998275 
7.5012773e+1, 2.649704e+2, -218730.36, -465982.84, 105.91623, -0.02544881, -0.4228469, -218730.31, 124517.23, 0.0, 10.001642, 9.998359 
7.501496e+1, 2.7496815e+2, -82989.4, -353304.97, 3566.6902, 0.024646813, -0.48964587, -82942.35, 162324.73, 0.0, 10.001917, 9.998326 
7.501662e+1, 2.8496626e+2, 3648.8274, -324093.78, -890.7204, 0.030166486, -0.47965896, 3651.248, 150935.6, 0.000000011324871, 10.002111, 9.99776 
7.501761e+1, 2.949648e+2, 123089.695, -205061.13, 3504.494, -0.020316001, -0.40824705, 123127.12, 172426.45, 0.000004098041, 10.002213, 9.997856 
7.501847e+1, 3.0496186e+2, 245784.42, -48646.42, -8122.238, -0.0656283, -0.52189475, 246008.31, 246008.31, 0.000050636394, 10.00241, 9.998504 
7.502025e+1, 3.1496087e+2, 260486.44, -88349.08, 9072.436, 0.0017868668, -0.46018016, 260722.23, 260722.23, 0.00019707165, 10.002712, 9.998085 
8.4983546e+1, 1.2498071e+2, -1873794.9, -1701664.0, -17738.41, -0.01684004, -0.42356917, -1699855.0, 15290.338, 0.00087835814, 9.998521, 10.000804 
8.4985536e+1, 1.3498053e+2, -1816550.8, -1758547.0, 11955.468, -0.035549976, -0.40538633, -1756179.5, -139029.94, 0.0005011039, 9.998826, 9.999593 
8.498764e+1, 1.4498003e+2, -1637379.1, -1545008.6, 6638.6714, -0.028611647, -0.447152, -1544534.0, -25379.262, 0.00020010647, 9.999054, 10.000271 
8.498984e+1, 1.5498039e+2, -1517675.4, -1440532.1, -6361.7646, -0.0096861785, -0.43987912, -1440011.1, -18861.775, 0.000039437622, 9.999221, 10.000235 
8.4992063e+1, 1.6498043e+2, -1438850.0, -1429679.9, 6181.1563, -0.0053594736, -0.4228817, -1426568.9, -103420.266, 0.0000010481418, 9.999426, 9.999537 
8.49944e+1, 1.7498e+2, -1305193.3, -1315961.6, 13530.13, -0.01229597, -0.42299902, -1296015.4, -70861.16, 0.0, 9.999677, 9.999525 
8.4996724e+1, 1.8497933e+2, -1194426.1, -1242013.3, 5480.1294, -0.011319922, -0.42621285, -1193803.3, -66642.086, 0.0, 9.999894, 9.999256 
8.499906e+1, 1.949786e+2, -1071059.1, -1133629.3, -7679.538, -0.0039261994, -0.43077645, -1070130.4, -40962.152, 0.0, 10.000076, 9.999239 
8.500154e+1, 2.0497765e+2, -984530.56, -1113701.9, -1075.3801, 0.005608116, -0.4143463, -984521.6, -53343.484, 0.0, 10.00031, 9.99859 
8.5004145e+1, 2.1497656e+2, -846480.2, -998688.5, 8079.7476, 0.017359834, -0.38504136, -846052.5, -12861.832, 0.0, 10.000594, 9.99857 
8.500653e+1, 2.2497517e+2, -722629.94, -892314.75, -1589.7595, 0.020458033, -0.3782187, -722615.06, 12589.975, 0.0, 10.000788, 9.998534 
8.500869e+1, 2.3497353e+2, -610205.2, -789434.75, -9660.106, 0.015757391, -0.39882302, -609686.0, 27534.541, 0.0, 10.000896, 9.998515 
8.501061e+1, 2.4497189e+2, -491982.38, -697828.4, -15459.332, -0.0036318507, -0.40501523, -490827.84, 48407.914, 0.0, 10.001104, 9.998372 
8.5012305e+1, 2.549703e+2, -350116.75, -580212.8, -7712.695, -0.039609566, -0.40356186, -349858.5, 91391.555, 0.0, 10.001411, 9.998358 
8.501436e+1, 2.6496845e+2, -223100.05, -467797.4, -12471.852, -0.029390678, -0.42677638, -222466.02, 120800.9, 0.0, 10.001611, 9.998362 
8.5016847e+1, 2.749663e+2, -115102.38, -368217.2, -14935.396, 0.03275608, -0.47851425, -114224.15, 131061.36, 0.0, 10.001693, 9.998333 
8.5018724e+1, 2.8496447e+2, -18507.816, -321943.78, -18664.295, 0.04063245, -0.4706971, -17364.09, 129938.25, 0.000000007967864, 10.001904, 9.997876 
8.5019845e+1, 2.9496294e+2, 137335.19, -185268.61, -13004.292, -0.019983256, -0.41620925, 137858.55, 187175.78, 0.0000034232567, 10.0022545, 9.9979725 
8.5020846e+1, 3.0496013e+2, 260978.1, -40066.723, -27080.629, -0.073911496, -0.5222969, 263394.75, 263394.75, 0.00004462947, 10.002508, 9.998516 
8.502292e+1, 3.1495908e+2, 243077.38, -103446.195, -13443.379, 0.0021351315, -0.47506362, 243598.13, 243598.13, 0.00017893763, 10.002621, 9.998026 
9.498184e+1, 1.249779e+2, -1849160.8, -1650653.5, -8344.727, -0.040648762, -0.48435637, -1650303.4, 64869.598, 0.00082284986, 9.998521, 10.001154 
9.4984406e+1, 1.3497889e+2, -1790154.6, -1704277.8, 23443.623, -0.031603213, -0.38505962, -1698294.6, -81129.93, 0.00046510532, 9.998828, 9.999965 
9.498673e+1, 1.4497858e+2, -1661695.5, -1595715.9, 13110.258, -0.025505085, -0.41027388, -1593206.4, -74037.95, 0.00018171112, 9.999055, 9.999923 
9.49888e+1, 1.5497825e+2, -1541751.4, -1491536.5, 270.34985, -0.0353017, -0.43832785, -1491535.1, -70363.88, 0.000033543416, 9.999225, 9.999883 
9.499122e+1, 1.6497803e+2, -1424775.8, -1400988.5, 15717.88, -0.03273019, -0.43780908, -1393171.4, -69998.66, 0.00000057940093, 9.999428, 9.999733 
9.499405e+1, 1.7497782e+2, -1291842.0, -1287777.5, 23153.133, -0.014616918, -0.43476266, -1266567.6, -41393.15, 0.0, 9.999675, 9.99972 
9.49967e+1, 1.8497722e+2, -1219542.6, -1293817.1, 12445.355, -0.003693349, -0.4257878, -1217512.9, -90331.625, 0.0, 9.999893, 9.9989 
9.4999176e+1, 1.9497631e+2, -1095658.5, -1185012.4, -608.12036, -0.00045979276, -0.40897387, -1095654.4, -66462.68, 0.0, 10.000078, 9.998885 
9.500181e+1, 2.0497523e+2, -966980.4, -1077445.8, 9620.248, 0.001721756, -0.40263322, -966148.8, -34945.793, 0.0, 10.00031, 9.998839 
9.5004594e+1, 2.1497397e+2, -829035.7, -962368.56, 18928.059, 0.0027606073, -0.41625848, -826400.75, 6814.1494, 0.0, 10.000593, 9.99882 
9.5007116e+1, 2.2497262e+2, -736872.2, -921620.44, 2364.2366, 0.00014575622, -0.40714514, -736841.94, -1613.3414, 0.0, 10.000787, 9.998333 
9.5009375e+1, 2.3497128e+2, -624372.94, -818469.56, -5520.1533, -0.0053871274, -0.37730533, -624216.06, 13027.194, 0.0, 10.000895, 9.998317 
9.5011735e+1, 2.4496968e+2, -477482.7, -667440.5, -4082.395, -0.0022236984, -0.3809062, -477395.0, 61863.52, 0.0, 10.001102, 9.998581 
9.501419e+1, 2.5496784e+2, -336125.56, -550802.56, 4002.8347, 0.007874386, -0.42819417, -336050.94, 105223.15, 0.0, 10.0014105, 9.998561 
9.501627e+1, 2.64966e+2, -228728.28, -478993.28, -9401.634, 0.0014671102, -0.4505278, -228375.58, 114914.68, 0.0, 10.001608, 9.998285 
9.5018053e+1, 2.7496433e+2, -119650.875, -377525.4, -11906.439, -0.015919369, -0.4509875, -119102.305, 126203.664, 0.0, 10.001692, 9.998269 
9.502024e+1, 2.8496253e+2, -8653.645, -301544.13, -5973.393, 0.0022888558, -0.44400713, -8531.87, 138790.72, 0.0000000042394483, 10.001904, 9.998016 
9.50227e+1, 2.9496062e+2, 145608.31, -167260.44, 438.38727, 0.041079048, -0.44081005, 145608.92, 194948.92, 0.000002739973, 10.002252, 9.998097 
9.5023865e+1, 3.0495793e+2, 257261.67, -46449.043, -22463.234, -0.022362579, -0.54110134, 258914.11, 258914.11, 0.000038513957, 10.002503, 9.998474 
9.502506e+1, 3.1495684e+2, 234847.3, -119681.92, -8190.6343, -0.04603982, -0.4872845, 235036.42, 235036.42, 0.00016010099, 10.002617, 9.997916 
1.04980364e+2, 1.24975525e+2, -1811360.4, -1639074.5, -14351.82, -0.053459093, -0.4850596, -1637887.1, 77309.31, 0.0007762847, 9.99881, 10.001093 
1.0498326e+2, 1.3497645e+2, -1771873.4, -1698929.0, -12507.204, -0.035652366, -0.38992843, -1696844.1, -79655.2, 0.00043669788, 9.998969, 9.999932 
1.0498587e+2, 1.4497608e+2, -1636937.8, -1581630.0, -23313.428, -0.025223564, -0.4189994, -1573114.0, -53921.145, 0.00016867174, 9.999215, 9.999942 
1.0498816e+2, 1.5497588e+2, -1493441.8, -1466600.6, -8698.29, -0.038246263, -0.4341817, -1464028.4, -42834.137, 0.000030278157, 9.999549, 9.999898 
1.0499075e+2, 1.6497566e+2, -1387355.6, -1393524.3, 5977.0835, -0.036847662, -0.4316088, -1383714.0, -60517.99, 0.0000004316036, 9.999729, 9.9996395 
1.0499373e+2, 1.7497529e+2, -1286443.4, -1295334.4, -8097.8125, -0.018106248, -0.43660927, -1281651.0, -56451.645, 0.0, 9.999755, 9.999629 
1.0499659e+2, 1.8497461e+2, -1218116.5, -1300634.4, -13753.83, -0.0058333892, -0.42661673, -1215884.5, -88677.47, 0.0, 9.999935, 9.998834 
1.04999356e+2, 1.9497374e+2, -1071770.6, -1181239.8, -5603.367, -0.00024288992, -0.4004218, -1071484.6, -42267.07, 0.0, 10.000275, 9.9988165 
1.05002195e+2, 2.0497261e+2, -943592.8, -1062604.0, 3281.4463, 0.0019908138, -0.39614317, -943502.4, -12273.323, 0.0, 10.000455, 9.998872 
1.050051e+2, 2.1497124e+2, -844499.06, -965599.1, -3580.042, 0.0006454478, -0.42325243, -844393.3, -11152.064, 0.0, 10.00047, 9.998857 
1.0500779e+2, 2.2496988e+2, -761861.5, -934509.8, -19050.598, -0.0026855718, -0.41669068, -759784.44, -24529.334, 0.0, 10.00062, 9.998325 
1.05010256e+2, 2.3496863e+2, -623709.06, -819323.6, -12504.059, -0.0076821726, -0.37860137, -622913.06, 14356.621, 0.0, 10.000904, 9.998307 
1.0501286e+2, 2.4496709e+2, -478843.3, -657778.25, -9728.744, 0.0026932498, -0.37883857, -478315.9, 60968.402, 0.0, 10.001049, 9.998673 
1.0501562e+2, 2.549653e+2, -381600.47, -562070.6, -10939.908, 0.02699564, -0.42782873, -380939.72, 60359.055, 0.0, 10.001052, 9.998656 
1.05017826e+2, 2.6496357e+2, -278387.63, -499967.38, -20605.492, 0.013351209, -0.44924757, -276487.72, 66826.59, 0.0, 10.001253, 9.998314 
1.05019554e+2, 2.7496195e+2, -123708.586, -376485.4, -15526.991, -0.033135116, -0.44659674, -122758.41, 122571.6, 0.0, 10.001651, 9.998297 
1.0502201e+2, 2.8496018e+2, -818.1035, -286644.7, -8417.636, -0.011167741, -0.44223365, -570.41754, 146775.94, 0.0000000012344323, 10.001908, 9.9981165 
1.05025075e+2, 2.9495832e+2, 118056.414, -169731.64, -4649.1934, 0.06482873, -0.44475114, 118131.5, 167494.44, 0.0000020653147, 10.002013, 9.998198 
1.0502638e+2, 3.049559e+2, 233263.28, -49537.8, -20691.242, -0.010686375, -0.52588093, 234769.14, 234769.14, 0.00003243676, 10.002299, 9.998552 
1.0502742e+2, 3.1495473e+2, 258053.92, -105456.305, 2135.3967, -0.07903213, -0.4904078, 258066.47, 258066.47, 0.00014094144, 10.002762, 9.997945 
1.1497913e+2, 1.2497356e+2, -1844641.5, -1709506.8, -10547.967, -0.05904885, -0.42800725, -1708688.4, 6527.6987, 0.0007384457, 9.9988165, 10.000607 
1.1498208e+2, 1.3497315e+2, -1804033.9, -1764726.4, -6600.7173, -0.050005168, -0.41935587, -1763647.5, -146425.48, 0.00041537013, 9.998964, 9.999483 
1.14985034e+2, 1.449725e+2, -1610487.0, -1525559.8, -10465.454, -0.029966608, -0.4730478, -1524289.0, -5060.6636, 0.00016046493, 9.99921, 10.00033 
1.14987895e+2, 1.549733e+2, -1465863.6, -1410516.9, 4302.52, -0.020261157, -0.42875147, -1410184.4, 11034.244, 0.000029173738, 9.999554, 10.00028 
1.1499067e+2, 1.649733e+2, -1412818.0, -1447488.1, 6875.3135, -0.019166015, -0.4047636, -1411504.4, -88285.98, 0.0000005105562, 9.999734, 9.999268 
1.1499342e+2, 1.7497237e+2, -1312373.9, -1349447.5, -7019.6294, -0.024054155, -0.4275936, -1311089.3, -85860.28, 0.0, 9.999756, 9.999257 
1.14996396e+2, 1.849715e+2, -1203056.3, -1269146.1, -948.7762, -0.018796442, -0.42842427, -1203042.6, -75804.16, 0.0, 9.999934, 9.99905 
1.1499959e+2, 1.9497082e+2, -1056503.0, -1149618.8, 7355.4126, -0.003784912, -0.40568662, -1055925.6, -26679.799, 0.0, 10.000275, 9.999034 
1.1500269e+2, 2.0496976e+2, -956303.4, -1088825.3, 3857.5962, 0.0057545905, -0.39525977, -956191.2, -24934.816, 0.0, 10.000454, 9.998692 
1.1500568e+2, 2.1496838e+2, -856964.2, -991417.94, -2921.126, 0.010414889, -0.4060019, -856900.75, -23630.994, 0.0, 10.00047, 9.998679 
1.15008555e+2, 2.2496694e+2, -748901.3, -907506.6, -8436.734, 0.011384054, -0.40707785, -748453.8, -13169.389, 0.0, 10.000619, 9.998511 
1.1501131e+2, 2.3496555e+2, -610988.8, -792675.9, -1649.8687, 0.008242527, -0.4021828, -610973.8, 26325.842, 0.0, 10.000902, 9.99849 
1.1501399e+2, 2.4496412e+2, -481133.34, -662186.2, -9689.178, 0.0104802875, -0.39822167, -480616.28, 58696.797, 0.0, 10.001047, 9.998644 
1.1501657e+2, 2.5496277e+2, -383137.28, -565041.3, -10830.656, 0.016955351, -0.4029708, -382494.7, 58829.492, 0.0, 10.001051, 9.998636 
1.1501899e+2, 2.649611e+2, -268830.4, -479952.72, -6024.44, 0.005629669, -0.4238131, -268658.63, 74680.61, 0.0, 10.001252, 9.998451 
1.1502134e+2, 2.7495918e+2, -115492.1, -358800.13, -496.18613, -0.019538894, -0.4656671, -115491.09, 129866.54, 0.0, 10.001648, 9.99842 
1.1502403e+2, 2.8495744e+2, 2908.4077, -277940.8, -4491.536, -0.00009525498, -0.4650307, 2980.2212, 150353.75, 0.00000000006210851, 10.0019045, 9.9981785 
1.15026936e+2, 2.9495606e+2, 123108.13, -158848.55, -381.26303, 0.050070666, -0.42758718, 123108.65, 172494.58, 0.0000014487281, 10.002011, 9.998273 
1.1502839e+2, 3.049541e+2, 247271.16, -20112.318, -3491.4026, -0.039996736, -0.47640055, 247316.75, 247316.75, 0.000026628812, 10.002297, 9.998755 
1.1502999e+2, 3.1495267e+2, 268691.13, -81888.08, 19593.857, -0.098564774, -0.48542294, 269782.84, 269782.84, 0.00012196842, 10.002756, 9.99811 
1.2497797e+2, 1.2497083e+2, -1805466.4, -1692823.3, -36884.086, -0.07151101, -0.40522364, -1681820.5, 33423.4, 0.000709113, 9.999096, 10.0005865 
1.2498122e+2, 1.3497025e+2, -1752324.1, -1737895.1, 3329.5425, -0.04965502, -0.4159479, -1737163.9, -119913.58, 0.00040043768, 9.999312, 9.9995 
1.2498443e+2, 1.4496939e+2, -1579134.3, -1522073.3, 1196.1677, -0.02444148, -0.48610848, -1522048.1, -2789.8838, 0.0001562618, 9.9994755, 10.000226 
1.24987476e+2, 1.5497012e+2, -1467288.3, -1422814.0, -21409.58, -0.01977179, -0.4371997, -1414182.8, 7066.959, 0.000029665673, 9.999594, 10.000177 
1.2499045e+2, 1.6497013e+2, -1407071.8, -1448927.4, -27836.357, -0.01717479, -0.40622094, -1393173.8, -69923.99, 0.0000007617598, 9.99979, 9.999231 
1.2499343e+2, 1.7496926e+2, -1270493.4, -1333643.0, -16614.992, -0.014264121, -0.41963065, -1266388.8, -41129.063, 0.0, 10.000061, 9.999219 
1.2499653e+2, 1.8496835e+2, -1158426.3, -1241172.5, -2005.7911, -0.012717768, -0.42472088, -1158377.8, -31108.457, 0.0, 10.000212, 9.999109 
1.24999754e+2, 1.9496754e+2, -1058084.1, -1143636.4, -5512.9316, -0.013100055, -0.41955376, -1057730.3, -28453.158, 0.0, 10.000236, 9.999094 
1.2500301e+2, 2.049665e+2, -970583.9, -1098694.0, -10947.856, -0.0039069117, -0.40966687, -969655.06, -38367.43, 0.0, 10.000369, 9.998665 
1.2500626e+2, 2.1496527e+2, -837293.0, -985257.4, -6650.3965, 0.015198053, -0.40387437, -836994.7, -3694.4236, 0.0, 10.000618, 9.9986515 
1.2500934e+2, 2.2496392e+2, -726097.94, -891829.25, -10957.07, 0.021230906, -0.39818057, -725376.7, 9937.93, 0.0, 10.000754, 9.998554 
1.2501222e+2, 2.3496251e+2, -626170.4, -794809.5, -15030.007, 0.0140217785, -0.39677522, -624841.3, 12488.486, 0.0, 10.000777, 9.998536 
1.2501495e+2, 2.4496114e+2, -498747.56, -665543.9, -26304.13, 0.0092125395, -0.39419457, -494697.7, 44645.293, 0.0, 10.000904, 9.998691 
1.2501754e+2, 2.5495985e+2, -367672.34, -552656.94, -21864.553, 0.005242919, -0.3968317, -365123.16, 76230.38, 0.0, 10.001136, 9.998681 
1.250202e+2, 2.6495823e+2, -259131.05, -474275.56, -14132.547, -0.001329829, -0.412223, -258206.67, 85161.375, 0.0, 10.001314, 9.998461 
1.2502302e+2, 2.749564e+2, -145981.56, -372910.88, -18612.258, -0.0055082766, -0.44673976, -144465.16, 100920.94, 0.0, 10.001434, 9.998426 
1.2502588e+2, 2.8495467e+2, -29732.854, -281200.22, -26989.43, 0.0084909275, -0.45131347, -26868.758, 120533.2, 0.0, 10.001625, 9.998292 
1.2502864e+2, 2.9495326e+2, 112000.695, -151444.77, -19549.549, 0.025249274, -0.42867222, 113443.516, 162857.78, 0.00000094519226, 10.001881, 9.998386 
1.2503031e+2, 3.0495164e+2, 228501.36, -21050.043, -20177.756, -0.06850136, -0.45298615, 230122.33, 230122.33, 0.000021325412, 10.002135, 9.998828 
1.250327e+2, 3.1495014e+2, 216255.94, -99630.195, -7403.633, -0.08322829, -0.47636807, 216429.36, 216429.36, 0.00010374953, 10.002363, 9.9981785 
1.3497685e+2, 1.2496736e+2, -1775307.4, -1627985.1, -28961.97, -0.0920064, -0.41349852, -1622496.0, 92783.93, 0.0006877832, 9.999085, 10.001037 
1.3498066e+2, 1.349677e+2, -1716402.8, -1666063.5, 11892.212, -0.037898034, -0.3804622, -1663395.4, -46121.664, 0.0003909241, 9.999324, 9.999988 
1.3498405e+2, 1.449667e+2, -1619276.4, -1608092.9, 5283.2793, -0.01176729, -0.45951194, -1605991.6, -86708.945, 0.00015498626, 9.999487, 9.999631 
1.3498688e+2, 1.5496635e+2, -1509324.8, -1509309.4, -17095.588, -0.037942015, -0.4585076, -1492221.5, -70934.1, 0.000031126136, 9.99959, 9.999586 
1.349901e+2, 1.6496612e+2, -1386983.3, -1405803.6, -17604.045, -0.031786088, -0.43532056, -1376432.1, -53142.086, 0.0000011270397, 9.999784, 9.99953 
1.3499375e+2, 1.7496592e+2, -1249107.3, -1289928.6, -6175.179, 0.009809431, -0.4138821, -1248193.5, -22901.81, 0.0, 10.000065, 9.999517 
1.3499698e+2, 1.8496513e+2, -1164399.5, -1254381.3, -1084.5764, 0.0112020755, -0.4163709, -1164386.5, -37087.113, 0.0, 10.000215, 9.999018 
1.3499983e+2, 1.9496395e+2, -1064451.9, -1157359.8, -4478.1787, -0.028791158, -0.44164094, -1064236.5, -34924.99, 0.0, 10.0002365, 9.999 
1.3500313e+2, 2.0496283e+2, -961994.5, -1080954.0, -1709.5245, -0.027698403, -0.4391243, -961969.94, -30647.09, 0.0, 10.000369, 9.998787 
1.3500687e+2, 2.1496189e+2, -828995.75, -967609.8, 2836.9995, 0.014478169, -0.41677824, -828937.7, 4395.147, 0.0, 10.000616, 9.998774 
1.3501015e+2, 2.2496076e+2, -733636.7, -906974.1, -10142.241, 0.026172437, -0.3897519, -733045.3, 2300.2383, 0.0, 10.000752, 9.998451 
1.3501294e+2, 2.349595e+2, -632975.94, -808841.2, -14151.916, 0.008378674, -0.3630446, -631844.44, 5515.7466, 0.0, 10.000776, 9.998441 
1.3501574e+2, 2.4495807e+2, -489921.34, -647166.56, -17776.727, -0.0022135698, -0.36758333, -487936.72, 51437.4, 0.0, 10.000904, 9.998817 
1.3501854e+2, 2.549565e+2, -359448.78, -535294.0, -12993.529, -0.008289106, -0.40898976, -358493.84, 82892.9, 0.0, 10.001134, 9.998801 
1.3502146e+2, 2.64955e+2, -268198.63, -492653.75, -9661.548, -0.007474011, -0.4138645, -267783.5, 75617.13, 0.0, 10.001313, 9.998336 
1.3502458e+2, 2.749536e+2, -153903.42, -389127.53, -13862.125, 0.0070591453, -0.38995883, -153089.33, 92326.086, 0.0, 10.001433, 9.998316 
1.3502754e+2, 2.8495187e+2, -18407.13, -257246.14, -17612.893, 0.012592507, -0.40195462, -17115.277, 130316.43, 0.0, 10.001623, 9.998457 
1.3503017e+2, 2.949499e+2, 122141.14, -129324.19, -9566.849, -0.010476542, -0.44850418, 122504.586, 171952.58, 0.0000005800232, 10.001876, 9.998541 
1.3503216e+2, 3.049485e+2, 224099.2, -29159.695, -11623.743, -0.09632331, -0.4559236, 224631.58, 224631.58, 0.000016654767, 10.002131, 9.998774 
1.3503554e+2, 3.1494716e+2, 214685.45, -102050.234, 360.69534, -0.035559148, -0.4620344, 214685.86, 214685.86, 0.00008670888, 10.00236, 9.998162 
1.449762e+2, 1.24963984e+2, -1750841.8, -1619642.1, -20803.7, -0.07485522, -0.40942886, -1616422.4, 98890.64, 0.0006728006, 9.999267, 10.001007 
1.4498016e+2, 1.3496418e+2, -1676747.3, -1644961.5, -16082.012, -0.033247475, -0.39217472, -1638244.4, -20936.98, 0.00038500954, 9.999586, 10.000006 
1.4498371e+2, 1.4496307e+2, -1584931.3, -1611362.0, -31199.682, -0.009609079, -0.4750698, -1564263.5, -44945.95, 0.00015511648, 9.999806, 9.9994545 
1.4498667e+2, 1.5496278e+2, -1475370.4, -1513098.0, -21949.963, -0.03276735, -0.45072702, -1465292.1, -43969.35, 0.00003278088, 9.999909, 9.999406 
1.4499001e+2, 1.6496252e+2, -1344413.8, -1373288.9, -9740.152, -0.030691164, -0.4270458, -1341435.4, -18109.71, 0.0000015078091, 10.000025, 9.999637 
1.4499374e+2, 1.749622e+2, -1228780.9, -1268128.6, -13273.56, 0.000055352066, -0.42727962, -1224721.9, 605.437, 0.0, 10.000152, 9.999625 
1.4499713e+2, 1.8496136e+2, -1164297.9, -1263187.1, -20752.564, 0.0028907405, -0.43575218, -1160119.4, -32784.32, 0.0, 10.000253, 9.9989395 
1.4500017e+2, 1.9496018e+2, -1057035.9, -1162865.6, -23283.268, -0.023548683, -0.45202926, -1052139.9, -22792.143, 0.0, 10.000326, 9.9989195 
1.4500357e+2, 2.0495914e+2, -955477.1, -1072959.0, -18717.943, -0.02198355, -0.44107518, -952566.94, -21208.107, 0.0, 10.000393, 9.998831 
1.4500734e+2, 2.1495831e+2, -849731.2, -972464.1, -20053.46, 0.007741917, -0.41030818, -846537.7, -13169.84, 0.0, 10.000452, 9.998819 
1.4501068e+2, 2.2495721e+2, -762522.9, -923467.5, -34688.953, 0.014989718, -0.38092375, -755364.56, -19984.184, 0.0, 10.000566, 9.998428 
1.4501362e+2, 2.349559e+2, -640160.7, -815173.2, -32970.81, 0.0006807652, -0.35844782, -634155.3, 3240.55, 0.0, 10.000739, 9.998415 
1.4501661e+2, 2.4495448e+2, -489836.66, -644253.9, -34419.55, -0.0038383096, -0.36195445, -482512.0, 56898.105, 0.0, 10.000893, 9.998843 
1.450197e+2, 2.5495303e+2, -373946.03, -539498.56, -37363.33, -0.0011962821, -0.39617273, -365904.2, 75518.17, 0.0, 10.001023, 9.998826 
1.4502275e+2, 2.6495165e+2, -281227.75, -487010.88, -30097.898, -0.0035910008, -0.39338008, -276915.97, 66518.98, 0.0, 10.001172, 9.998442 
1.4502585e+2, 2.7495044e+2, -161959.64, -380531.75, -17171.203, -0.0040204967, -0.36296672, -160618.88, 84828.695, 0.0, 10.001326, 9.998426 
1.4502901e+2, 2.8494865e+2, -29581.438, -261671.81, -13298.188, 0.000811199, -0.38653326, -28821.97, 118642.24, 0.0, 10.001543, 9.998465 
1.4503203e+2, 2.949464e+2, 114919.516, -133467.7, -16988.496, -0.009220834, -0.45989844, 116076.06, 165559.2, 0.00000034163278, 10.001828, 9.998535 
1.450343e+2, 3.0494526e+2, 221150.63, -29950.174, -23866.074, -0.09529888, -0.44200727, 223398.86, 223398.86, 0.000012640429, 10.002108, 9.99878 
1.4503792e+2, 3.1494382e+2, 216427.44, -92323.03, -9614.695, -0.03189446, -0.4561686, 216726.55, 216726.55, 0.000071064576, 10.002334, 9.998242 
1.5497598e+2, 1.2496065e+2, -1785611.4, -1693880.0, -10071.299, -0.0246975, -0.3954806, -1692787.3, 22556.258, 0.0006609735, 9.999276, 10.000493 
1.549797e+2, 1.3495967e+2, -1709401.4, -1711531.4, -4301.147, -0.03655079, -0.45030499, -1706035.3, -88684.12, 0.00037997565, 9.99958, 9.999552 
1.5498343e+2, 1.4495848e+2, -1568621.4, -1575586.1, -27337.453, -0.018578287, -0.53155017, -1544545.4, -25182.557, 0.00015479715, 9.999799, 9.999703 
1.5498686e+2, 1.5495937e+2, -1457778.9, -1477569.9, -17792.775, -0.006332575, -0.4144215, -1447315.0, -25958.96, 0.000033834087, 9.999914, 9.999647 
1.5499018e+2, 1.6495925e+2, -1349526.3, -1385443.4, -5089.969, -0.01592589, -0.38217404, -1348818.9, -25461.947, 0.0000017896223, 10.0000305, 9.999551 
1.5499346e+2, 1.7495808e+2, -1234683.4, -1280492.1, -8420.377, -0.044390332, -0.4592714, -1233184.6, -7818.3354, 0.0, 10.000152, 9.99954 
1.5499698e+2, 1.8495704e+2, -1169340.3, -1273079.5, -18079.596, -0.038488645, -0.48245382, -1166279.8, -38903.28, 0.0, 10.00025, 9.998873 
1.5500075e+2, 1.9495627e+2, -1061564.5, -1172348.5, -20470.26, 0.0017152677, -0.4510687, -1057903.1, -28517.275, 0.0, 10.000326, 9.998854 
1.5500432e+2, 2.0495541e+2, -957838.25, -1077881.4, -16561.041, 0.012622227, -0.41605145, -955595.44, -24199.734, 0.0, 10.000393, 9.998797 
1.5500766e+2, 2.1495456e+2, -851839.3, -977009.6, -17689.602, -0.00607646, -0.38467923, -849387.4, -15982.006, 0.0, 10.000452, 9.998788 
1.5501097e+2, 2.2495332e+2, -758495.44, -915126.06, -28308.68, -0.013401505, -0.3717967, -753536.1, -18116.854, 0.0, 10.000566, 9.998486 
1.5501425e+2, 2.3495172e+2, -636592.94, -807539.06, -26340.81, -0.009045017, -0.38255814, -632626.2, 4810.6753, 0.0, 10.000737, 9.998468 
1.550176e+2, 2.4495038e+2, -495596.88, -655891.25, -29495.268, 0.004079387, -0.37679863, -490341.8, 49109.047, 0.0, 10.000891, 9.998764 
1.5502098e+2, 2.5494936e+2, -379121.56, -550161.44, -32216.611, 0.024322346, -0.35898077, -373254.56, 68205.9, 0.0, 10.001022, 9.998754 
1.5502404e+2, 2.649482e+2, -257650.94, -437711.97, -24309.703, 0.008244721, -0.35171354, -254426.67, 89044.445, 0.0, 10.00117, 9.998781 
1.5502682e+2, 2.7494687e+2, -138607.2, -331372.6, -11279.31, -0.038971763, -0.36525455, -137949.45, 107533.13, 0.0, 10.001323, 9.998765 
1.5503028e+2, 2.84945e+2, -40121.85, -283603.47, -2778.7688, -0.026537735, -0.40440232, -40090.14, 107409.29, 0.0, 10.001543, 9.998315 
1.5503423e+2, 2.9494277e+2, 104184.46, -156189.75, -5536.503, 0.027368963, -0.46284044, 104302.13, 153821.83, 0.00000019535571, 10.00183, 9.99838 
1.5503667e+2, 3.049419e+2, 224864.3, -21257.842, -14893.857, -0.06784424, -0.4120385, 225762.31, 225762.31, 0.000009261703, 10.002104, 9.998841 
1.5503982e+2, 3.149402e+2, 227393.34, -67824.055, -1862.6897, -0.07638031, -0.4598227, 227405.1, 227405.1, 0.000056915687, 10.002327, 9.998413 
1.6497578e+2, 1.2495659e+2, -1750715.1, -1697993.3, -30634.023, 0.0112399645, -0.41724375, -1683939.5, 31442.342, 0.000647907, 9.999605, 10.000306 
1.6497944e+2, 1.3495567e+2, -1699003.9, -1720692.8, 231.52985, -0.02714119, -0.45418963, -1699001.4, -81611.21, 0.00037279638, 9.999712, 9.999425 
1.6498326e+2, 1.4495446e+2, -1550477.0, -1556800.4, -17893.379, -0.017947484, -0.53550994, -1535468.1, -16065.892, 0.0001524271, 9.99988, 9.999792 
1.649869e+2, 1.5495539e+2, -1424972.4, -1451991.3, -21191.543, -0.0030811017, -0.4229439, -1413350.5, 8043.7856, 0.000033788867, 10.000096, 9.999735 
1.6499032e+2, 1.6495527e+2, -1330619.1, -1388442.4, -18768.2, -0.014448011, -0.3906415, -1325061.5, -1666.3857, 0.0000018950186, 10.000213, 9.999443 
1.6499358e+2, 1.7495404e+2, -1232023.9, -1291369.1, -23975.012, -0.04971303, -0.46270433, -1223548.5, 1857.1941, 0.0, 10.000222, 9.999432 
1.6499719e+2, 1.8495296e+2, -1163697.5, -1272717.5, -31000.365, -0.044631436, -0.48260814, -1155499.0, -28082.57, 0.0, 10.000299, 9.998851 
1.6500112e+2, 1.9495216e+2, -1046275.4, -1167363.5, -30329.0, 0.0007779757, -0.44941998, -1039103.6, -9677.729, 0.0, 10.000442, 9.998833 
1.6500477e+2, 2.0495127e+2, -944470.94, -1077221.6, -28349.293, 0.013564953, -0.41475105, -938670.3, -7234.0586, 0.0, 10.000509, 9.998746 
1.6500813e+2, 2.1495035e+2, -847990.6, -980923.75, -31087.008, -0.0067249103, -0.38614532, -841080.0, -7632.9907, 0.0, 10.000503, 9.998736 
1.6501153e+2, 2.2494912e+2, -749285.06, -897152.75, -35012.074, -0.015713776, -0.37444144, -741413.9, -5953.172, 0.0, 10.00057, 9.998607 
1.6501494e+2, 2.3494768e+2, -631598.5, -791504.2, -28098.988, -0.012988651, -0.38404655, -626804.6, 10672.151, 0.0, 10.000713, 9.9985895 
1.6501842e+2, 2.449464e+2, -508161.25, -668259.25, -29297.063, 0.0008293104, -0.37346417, -502968.47, 36521.71, 0.0, 10.000832, 9.998707 
1.6502194e+2, 2.5494543e+2, -397753.78, -565050.2, -30501.92, 0.024082432, -0.34714168, -392366.1, 49134.098, 0.0, 10.00092, 9.9987 
1.6502513e+2, 2.6494426e+2, -264702.2, -425166.7, -27081.748, 0.0063871294, -0.34233025, -260254.83, 83255.79, 0.0, 10.001054, 9.998922 
1.6502802e+2, 2.7494293e+2, -142427.67, -317283.72, -29161.115, -0.046816006, -0.3697168, -137692.63, 107828.7, 0.0, 10.001228, 9.998906 
1.6503169e+2, 2.8494114e+2, -54200.145, -286833.44, -17819.502, -0.03349001, -0.4117374, -52843.1, 94694.33, 0.0, 10.001431, 9.998345 
1.6503596e+2, 2.94939e+2, 80226.28, -164893.8, -6947.506, 0.028437933, -0.45961806, 80423.04, 129979.8, 0.00000010392393, 10.001655, 9.998403 
1.650387e+2, 3.0493838e+2, 196608.13, -50026.75, -14838.076, -0.0671404, -0.38039577, 197497.61, 197497.61, 0.0000064948904, 10.001974, 9.998704 
1.650422e+2, 3.1493625e+2, 233735.0, -62474.543, -19285.242, -0.07088357, -0.45997995, 234985.31, 234985.31, 0.00004432351, 10.00236, 9.998432 
1.7497559e+2, 1.2495181e+2, -1741190.8, -1677341.9, -26049.082, 0.031290717, -0.47352323, -1668062.9, 47365.242, 0.0006289189, 9.999601, 10.000449 
1.7497937e+2, 1.3495214e+2, -1684033.4, -1690486.1, 4888.1626, -0.0072006225, -0.40396893, -1681402.9, -63978.402, 0.00036083558, 9.999716, 9.99963 
1.7498323e+2, 1.4495099e+2, -1555211.5, -1567731.1, -10010.81, -0.009974118, -0.4874639, -1549664.5, -30228.662, 0.00014701553, 9.999885, 9.999715 
1.7498678e+2, 1.5495083e+2, -1430100.8, -1462863.9, -13019.672, -0.02446151, -0.47582233, -1425557.0, -4119.6094, 0.00003249045, 10.000097, 9.99966 
1.749904e+2, 1.6495053e+2, -1339785.5, -1407105.1, -18553.172, -0.027105682, -0.451928, -1335010.9, -11570.47, 0.0000018022155, 10.000211, 9.999316 
1.7499414e+2, 1.7495003e+2, -1241120.0, -1310318.9, -23423.422, -0.01693167, -0.43790966, -1233937.0, -8491.455, 0.0, 10.000223, 9.999302 
1.7499778e+2, 1.849491e+2, -1162064.3, -1269505.3, -25695.04, -0.016795443, -0.43648663, -1156235.4, -28780.365, 0.0, 10.000299, 9.998873 
1.7500128e+2, 1.9494791e+2, -1044542.9, -1163976.3, -24840.152, -0.027025834, -0.4469302, -1039582.56, -10114.804, 0.0, 10.000442, 9.998857 
1.7500494e+2, 2.0494674e+2, -949530.75, -1087690.5, -28652.045, -0.019839864, -0.4369731, -943824.5, -12343.914, 0.0, 10.000509, 9.998674 
1.7500874e+2, 2.1494567e+2, -853213.9, -991489.44, -31264.563, 0.00499717, -0.41478622, -846473.44, -12980.483, 0.0, 10.000502, 9.998665 
1.7501232e+2, 2.2494465e+2, -736555.06, -870360.75, -29702.496, 0.007334071, -0.3889115, -730257.94, 5246.9336, 0.0, 10.000568, 9.998792 
1.7501566e+2, 2.3494373e+2, -618371.56, -764151.8, -22565.172, -0.012346658, -0.3635621, -614958.6, 22557.025, 0.0, 10.000714, 9.998777 
1.750191e+2, 2.4494255e+2, -510579.22, -673231.2, -26041.521, -0.014714799, -0.3523212, -506511.56, 33016.543, 0.0, 10.000832, 9.9986725 
1.750226e+2, 2.5494117e+2, -400305.4, -570240.06, -27035.736, -0.0022099449, -0.3602234, -396107.84, 45433.688, 0.0, 10.00092, 9.998665 
1.7502603e+2, 2.6493987e+2, -268324.56, -432888.88, -20614.553, -0.008966755, -0.36469224, -265781.53, 77771.95, 0.0, 10.001055, 9.99887 
1.7502943e+2, 2.7493867e+2, -145874.64, -324796.97, -22331.367, -0.029015131, -0.37706852, -143129.58, 102434.28, 0.0, 10.001229, 9.998855 
1.7503323e+2, 2.8493705e+2, -40215.438, -257327.75, -9455.569, -0.022129094, -0.40935105, -39804.414, 107773.92, 0.0, 10.0014305, 9.9985485 
1.7503726e+2, 2.949352e+2, 93561.13, -136301.14, 2009.5553, -0.007076506, -0.44963095, 93578.695, 143173.1, 0.00000004563321, 10.001651, 9.9986 
1.7504042e+2, 3.0493474e+2, 173676.5, -97686.7, -91.651596, -0.09390319, -0.34606498, 173676.53, 173676.53, 0.000004309572, 10.001973, 9.998378 
1.750451e+2, 3.1493202e+2, 225577.84, -80277.31, -7342.5796, -0.017070573, -0.45504504, 225754.02, 225754.02, 0.000033325945, 10.002362, 9.998309 
1.8497528e+2, 1.24947295e+2, -1722902.3, -1662216.1, -28679.125, 0.03633443, -0.49242285, -1650807.6, 64664.91, 0.0006001509, 9.999699, 10.000505 
1.8497932e+2, 1.3494813e+2, -1666899.9, -1668589.9, -5865.6313, 0.01416813, -0.3859558, -1661818.8, -44354.688, 0.00034227368, 9.999775, 9.999752 
1.8498333e+2, 1.4494698e+2, -1552384.6, -1568714.5, -17559.625, 0.009170161, -0.47327635, -1541184.5, -21709.617, 0.00013807035, 9.999913, 9.999695 
1.849868e+2, 1.5494642e+2, -1429582.6, -1465035.3, -16442.602, -0.032993354, -0.49910742, -1423130.8, -1650.9401, 0.000029920388, 10.000112, 9.999638 
1.8499056e+2, 1.6494606e+2, -1336778.0, -1413372.9, -23434.068, -0.036103956, -0.4770946, -1330177.3, -6693.689, 0.0000015280342, 10.000265, 9.999247 
1.8499461e+2, 1.7494583e+2, -1225020.6, -1310388.3, -24383.303, 0.0011645389, -0.42736652, -1218547.0, 6939.719, 0.0, 10.000367, 9.999232 
1.8499833e+2, 1.8494493e+2, -1150044.5, -1268482.6, -26712.023, 0.0059372666, -0.41808295, -1144298.6, -16802.328, 0.0, 10.000402, 9.998831 
1.8500175e+2, 1.949435e+2, -1057912.9, -1174997.1, -30817.072, -0.022757977, -0.44888872, -1050297.0, -20785.807, 0.0, 10.00037, 9.998816 
1.8500532e+2, 2.0494227e+2, -962719.9, -1088146.3, -32820.11, -0.026321521, -0.44630525, -954650.94, -23126.35, 0.0, 10.000393, 9.998727 
1.8500914e+2, 2.1494131e+2, -853525.56, -985833.8, -26339.06, -0.004438508, -0.41781437, -848474.94, -14939.018, 0.0, 10.000474, 9.998717 
1.8501282e+2, 2.2494042e+2, -742096.1, -876956.6, -25497.473, 0.0011512085, -0.38109556, -737436.44, -1889.402, 0.0, 10.000547, 9.998756 
1.8501636e+2, 2.349396e+2, -635068.3, -775950.7, -35168.277, -0.008521692, -0.34005186, -626777.25, 10779.952, 0.0, 10.000615, 9.998744 
1.8501994e+2, 2.449384e+2, -509309.66, -659312.25, -38472.203, -0.0114033455, -0.33532605, -500017.97, 39551.652, 0.0, 10.000784, 9.998792 
1.850235e+2, 2.5493687e+2, -372872.0, -543768.8, -28028.418, -0.010341455, -0.37171498, -368392.53, 73191.1, 0.0, 10.001052, 9.998782 
1.8502706e+2, 2.6493555e+2, -252333.7, -441182.84, -20983.264, -0.019308161, -0.37613916, -250030.33, 93565.42, 0.0, 10.001234, 9.998726 
1.8503067e+2, 2.7493447e+2, -143038.31, -339245.03, -29985.436, -0.031785477, -0.36031342, -138558.06, 107047.9, 0.0, 10.001318, 9.998713 
1.8503462e+2, 2.8493285e+2, -31019.068, -240570.06, -21516.512, -0.026500618, -0.39013284, -28832.586, 118788.1, 0.0, 10.00144, 9.998658 
1.8503875e+2, 2.9493093e+2, 93004.87, -125206.68, -16843.564, -0.022570146, -0.45136833, 94297.35, 143934.53, 0.000000013949684, 10.001598, 9.998701 
1.8504228e+2, 3.0493063e+2, 154421.22, -123043.92, -7502.126, -0.1027011, -0.32998148, 154623.92, 154623.92, 0.0000026617806, 10.001911, 9.998233 
1.8504775e+2, 3.149278e+2, 231466.77, -65558.945, -4412.636, 0.010001264, -0.43394226, 231532.31, 231532.31, 0.00002394661, 10.002353, 9.998415 
1.9497488e+2, 1.2494305e+2, -1724971.4, -1667239.9, -24970.215, 0.024170239, -0.47391042, -1657938.3, 57576.89, 0.000559594, 9.9997015, 10.00047 
1.9497932e+2, 1.3494359e+2, -1664197.1, -1663467.8, -2940.2947, 0.036028005, -0.39999616, -1660869.6, -43360.63, 0.00031629903, 9.999776, 9.999786 
1.9498354e+2, 1.4494242e+2, -1549839.0, -1563534.9, -10095.61, 0.03857259, -0.49264333, -1544487.9, -24968.244, 0.00012542125, 9.999914, 9.99973 
1.9498695e+2, 1.5494214e+2, -1427202.8, -1460244.1, -8595.962, -0.0295986, -0.4928663, -1425100.1, -3578.6812, 0.000026112697, 10.000112, 9.99967 
1.9499077e+2, 1.6494185e+2, -1337910.5, -1415658.9, -19658.307, -0.04230339, -0.46606064, -1333222.6, -9698.047, 0.0000011234973, 10.000264, 9.999231 
1.9499502e+2, 1.7494147e+2, -1225767.0, -1312164.5, -20344.83, 0.00392945, -0.4308366, -1221215.9, 4313.45, 0.0, 10.000367, 9.99922 
1.9499892e+2, 1.8494046e+2, -1157468.0, -1283915.4, -27957.037, 0.022740455, -0.4272318, -1151562.6, -24022.271, 0.0, 10.000402, 9.998725 
1.9500245e+2, 1.9493893e+2, -1065394.9, -1190452.0, -31994.227, 0.012902872, -0.45542356, -1057684.9, -28128.504, 0.0, 10.000369, 9.99871 
1.9500592e+2, 2.0493783e+2, -950425.06, -1062466.9, -29831.58, -0.0065554404, -0.44264987, -942977.4, -11408.848, 0.0, 10.000392, 9.998903 
1.9500929e+2, 2.1493725e+2, -841139.6, -959988.25, -23089.063, -0.03596121, -0.39555952, -836811.7, -3235.631, 0.0, 10.000474, 9.998895 
1.95013e+2, 2.2493638e+2, -760229.3, -914497.9, -23089.582, -0.03506049, -0.3510572, -756847.6, -21260.414, 0.0, 10.000547, 9.998499 
1.9501704e+2, 2.3493528e+2, -653110.2, -813343.9, -32492.535, -0.0022239157, -0.31382123, -646772.0, -9170.541, 0.0, 10.000615, 9.998487 
1.9502093e+2, 2.4493396e+2, -490514.13, -620270.6, -28482.037, 0.010178887, -0.3224008, -484537.47, 55077.34, 0.0, 10.000783, 9.99906 
1.9502464e+2, 2.5493246e+2, -353962.16, -504561.2, -17772.36, -0.0013076122, -0.38225555, -351893.25, 89733.38, 0.0, 10.001052, 9.999052 
1.9502825e+2, 2.6493126e+2, -269081.06, -475869.9, -17961.66, -0.025460193, -0.37723, -267532.5, 76105.06, 0.0, 10.001233, 9.998488 
1.9503175e+2, 2.7493036e+2, -159867.17, -374021.9, -26833.217, -0.055887286, -0.31922373, -156556.2, 89091.49, 0.0, 10.001317, 9.998474 
1.9503586e+2, 2.849286e+2, -29879.146, -237809.11, -15621.801, -0.047260087, -0.35341537, -28712.03, 118952.49, 0.0, 10.001439, 9.998678 
1.9504037e+2, 2.9492617e+2, 93444.54, -124294.87, -10231.731, -0.018822791, -0.46536115, 93924.28, 143609.5, 0.0000000023315327, 10.001598, 9.998708 
1.9504428e+2, 3.04926e+2, 156400.42, -118799.625, 9054.076, -0.094153754, -0.33283255, 156697.97, 156697.97, 0.0000014940416, 10.001911, 9.998262 
1.9505008e+2, 3.149236e+2, 253654.19, -18646.057, 9323.557, 0.008272226, -0.39658657, 253973.05, 253973.05, 0.000016254342, 10.00235, 9.998738 
2.0497501e+2, 1.2493893e+2, -1752479.1, -1692608.8, -21760.326, 0.07330655, -0.4335602, -1685535.5, 30021.596, 0.0005079089, 9.999567, 10.0003605 
2.049791e+2, 1.34939e+2, -1643590.3, -1657889.1, -7352.6, 0.027683241, -0.40349963, -1640484.1, -22928.766, 0.00028337847, 9.999938, 9.999746 
2.0498344e+2, 1.4493774e+2, -1513272.9, -1542551.5, -21469.934, 0.025204744, -0.5019975, -1501926.3, 17640.281, 0.00010934245, 10.000151, 9.99976 
2.0498738e+2, 1.5493786e+2, -1413163.3, -1450049.1, -20673.943, -0.0030449892, -0.46699506, -1403901.4, 17663.074, 0.000021261263, 10.000194, 9.9997015 
2.0499133e+2, 1.6493757e+2, -1338740.6, -1417236.4, -32054.518, -0.012219888, -0.44014943, -1327314.3, -3746.966, 0.00000067965186, 10.000263, 9.999222 
2.0499533e+2, 1.7493683e+2, -1227582.4, -1314131.6, -32762.992, -0.00011805727, -0.43980175, -1216579.0, 8996.254, 0.0, 10.00036, 9.99921 
2.0499924e+2, 1.8493576e+2, -1147836.0, -1275200.0, -37521.97, 0.012572619, -0.44347265, -1137603.9, -10017.276, 0.0, 10.000451, 9.998761 
2.0500304e+2, 1.9493447e+2, -1038149.6, -1173113.0, -31013.957, 0.025341406, -0.45130825, -1031363.94, -1763.5995, 0.0, 10.000539, 9.998747 
2.0500655e+2, 2.049335e+2, -931363.1, -1064675.6, -33330.957, 0.009245707, -0.4262427, -923494.1, 8117.652, 0.0, 10.000572, 9.998802 
2.0500982e+2, 2.1493283e+2, -836525.0, -969181.25, -47880.805, -0.03676789, -0.3746675, -821048.56, 12572.022, 0.0, 10.000555, 9.998793 
2.050135e+2, 2.2493187e+2, -747679.0, -907133.1, -44900.63, -0.04332211, -0.33475778, -735904.9, -272.1814, 0.0, 10.0006275, 9.99851 
2.0501769e+2, 2.3493065e+2, -625964.4, -798750.6, -34024.27, -0.008844519, -0.31182548, -619505.9, 18141.73, 0.0, 10.000795, 9.998501 
2.0502172e+2, 2.4492928e+2, -477765.84, -621458.6, -30777.98, 0.0054772976, -0.31952015, -471450.94, 68210.17, 0.0, 10.000903, 9.998994 
2.0502561e+2, 2.549279e+2, -374172.06, -521654.6, -45660.746, -0.0033253909, -0.36270452, -361179.97, 80492.41, 0.0, 10.000945, 9.998986 
2.0502934e+2, 2.649267e+2, -289913.7, -484062.47, -48711.92, -0.030952714, -0.35561803, -278377.38, 65306.098, 0.0, 10.001082, 9.998506 
2.0503291e+2, 2.7492568e+2, -159299.39, -371919.5, -38688.742, -0.07107109, -0.30954733, -152478.34, 93216.04, 0.0, 10.001313, 9.998491 
2.0503724e+2, 2.8492385e+2, -26804.502, -239573.02, -21153.588, -0.05530793, -0.347213, -24721.785, 122989.87, 0.0, 10.001474, 9.99865 
2.0504211e+2, 2.9492152e+2, 84087.04, -133199.47, -19566.45, -0.0019255041, -0.45369107, 85834.914, 135567.38, 0.000000000097020676, 10.001554, 9.998669 
2.0504624e+2, 3.0492133e+2, 129056.75, -137656.31, 4629.623, -0.08072501, -0.31475034, 129137.086, 129137.086, 0.00000072960836, 10.001747, 9.998213 
2.0505214e+2, 3.1491888e+2, 225174.17, -5172.02, -5159.2793, -0.005359241, -0.37997735, 225289.67, 225289.67, 0.000010315381, 10.002036, 9.998983 
2.1497568e+2, 1.24934934e+2, -1765806.8, -1720235.1, -6288.35, 0.18267123, -0.3706429, -1719383.3, -3785.1475, 0.0004482875, 9.999566, 10.000171 
2.1497865e+2, 1.3493432e+2, -1651807.4, -1674978.8, 7263.899, -0.0115947295, -0.39663467, -1649718.5, -32115.195, 0.00024549337, 9.999938, 9.999629 
2.1498302e+2, 1.4493297e+2, -1511552.6, -1539210.1, -20018.842, -0.032140244, -0.50137675, -1501050.5, 18565.066, 0.00009091261, 10.000152, 9.999783 
2.1498807e+2, 1.5493356e+2, -1411096.8, -1445829.1, -18896.324, 0.04611799, -0.42126226, -1402798.6, 18810.23, 0.000015871614, 10.000194, 9.999731 
2.1499225e+2, 1.6493323e+2, -1339136.6, -1418199.1, -28322.893, 0.053504083, -0.3991498, -1330037.6, -6426.0103, 0.00000031009594, 10.000264, 9.999215 
2.149956e+2, 1.7493193e+2, -1228004.1, -1315250.0, -28980.254, -0.011695268, -0.4541855, -1219255.1, 6369.239, 0.0, 10.0003605, 9.999202 
2.1499932e+2, 1.8493086e+2, -1135167.9, -1248998.1, -34317.527, -0.025473898, -0.466839, -1125622.4, 2012.9825, 0.0, 10.000451, 9.998941 
2.1500346e+2, 1.9493014e+2, -1025271.25, -1146493.5, -27589.969, 0.014079786, -0.4366448, -1019287.2, 10355.8, 0.0, 10.000539, 9.99893 
2.1500725e+2, 2.0492919e+2, -958024.8, -1119956.9, -33934.008, 0.020445006, -0.39722317, -951201.25, -19546.693, 0.0, 10.000572, 9.998423 
2.1501066e+2, 2.1492806e+2, -863279.2, -1024661.1, -48325.137, -0.007664698, -0.35492256, -849915.06, -16245.519, 0.0, 10.000554, 9.998412 
2.1501431e+2, 2.2492687e+2, -728268.06, -866677.44, -38684.51, -0.024471039, -0.3319737, -718189.8, 17493.701, 0.0, 10.0006275, 9.998789 
2.1501829e+2, 2.3492567e+2, -606448.56, -758058.94, -27657.002, -0.028862877, -0.33413363, -601560.9, 36134.918, 0.0, 10.000795, 9.99878 
2.1502233e+2, 2.4492443e+2, -505725.38, -679586.06, -29372.959, -0.025755165, -0.32674974, -500897.06, 38811.492, 0.0, 10.000903, 9.998595 
2.1502642e+2, 2.549232e+2, -402148.28, -579595.94, -43944.137, -0.017182337, -0.31335285, -391861.97, 49858.926, 0.0, 10.000944, 9.998589 
2.1503037e+2, 2.6492187e+2, -271669.88, -445819.53, -40061.805, -0.03642173, -0.31070998, -262896.0, 80837.39, 0.0, 10.0010805, 9.998769 
2.1503414e+2, 2.7492046e+2, -140871.94, -333516.22, -29682.896, -0.07832049, -0.33150715, -136402.06, 109344.016, 0.0, 10.001312, 9.998755 
2.1503875e+2, 2.849187e+2, -32275.477, -251116.52, -18572.469, -0.051373895, -0.37196282, -30710.47, 117051.77, 0.0, 10.001474, 9.99857 
2.1504396e+2, 2.9491687e+2, 78229.07, -145667.25, -16523.566, 0.026713401, -0.41642186, 79441.945, 129220.94, 0.0, 10.001554, 9.998583 
2.1504816e+2, 3.0491662e+2, 119819.71, -155950.56, 15743.786, -0.06352329, -0.2749229, 120715.62, 120715.62, 0.0000002906552, 10.001744, 9.998088 
2.150539e+2, 3.149136e+2, 236553.45, 19425.334, 2186.287, -0.032716, -0.3848097, 236575.47, 236575.47, 0.0000060416633, 10.002032, 9.999154 
2.2497559e+2, 1.2493025e+2, -1717758.8, -1708361.9, -8260.056, 0.19811407, -0.36122885, -1703557.5, 12087.794, 0.0003850475, 9.999947, 10.00007 
2.2497883e+2, 1.3492976e+2, -1644732.0, -1675778.6, 8821.24, 0.008828679, -0.37014452, -1642400.8, -24750.904, 0.00020561775, 10.000006, 9.999592 
2.2498335e+2, 1.4492844e+2, -1520577.8, -1542835.5, -21320.895, -0.010786732, -0.4701492, -1507656.0, 12006.104, 0.00007189719, 10.000087, 9.99979 
2.2498834e+2, 1.5492894e+2, -1409490.6, -1444042.1, -22191.004, 0.0547454, -0.39978087, -1398643.6, 23012.457, 0.000010694928, 10.000201, 9.99974 
2.2499263e+2, 1.6492857e+2, -1328098.6, -1409812.3, -29307.17, 0.06118718, -0.38334894, -1318674.4, 4984.6274, 0.000000092361944, 10.000327, 9.999242 
2.2499616e+2, 1.749273e+2, -1210830.0, -1303810.5, -27418.953, 0.006133224, -0.43870756, -1203346.8, 22324.418, 0.0, 10.000465, 9.99923 
2.2499992e+2, 1.8492624e+2, -1128771.6, -1250492.6, -42930.74, -0.013034525, -0.44967717, -1115153.6, 12528.268, 0.0, 10.000515, 9.9989 
2.250039e+2, 1.949255e+2, -1037573.8, -1157065.6, -53389.766, 0.0051254826, -0.41629702, -1017194.56, 12495.291, 0.0, 10.000475, 9.998889 
2.2500771e+2, 2.0492448e+2, -967102.75, -1131791.1, -54188.71, 0.011370251, -0.37883446, -950872.2, -19170.064, 0.0, 10.000542, 9.998356 
2.2501141e+2, 2.1492322e+2, -843537.1, -1022507.3, -44819.47, 0.0047449344, -0.3435081, -832940.4, 777.8406, 0.0, 10.000723, 9.998346 
2.2501518e+2, 2.2492191e+2, -704888.7, -861861.25, -35390.063, -0.010818497, -0.32713276, -697278.8, 38454.31, 0.0, 10.000815, 9.998731 
2.2501902e+2, 2.3492059e+2, -607470.6, -765435.56, -49986.348, -0.03471559, -0.33507293, -592981.9, 44764.195, 0.0, 10.000817, 9.998719 
2.250231e+2, 2.4491931e+2, -510553.16, -687171.1, -50672.684, -0.038495548, -0.32471612, -497047.63, 42711.52, 0.0, 10.000893, 9.9985485 
2.2502735e+2, 2.5491816e+2, -391210.9, -579718.3, -39128.66, -0.023821447, -0.2992902, -383411.63, 58359.707, 0.0, 10.001042, 9.998541 
2.2503147e+2, 2.649168e+2, -261235.14, -436318.25, -29082.676, -0.036753416, -0.29806522, -256530.69, 87253.25, 0.0, 10.001133, 9.998809 
2.2503544e+2, 2.749153e+2, -161476.42, -338834.56, -35694.332, -0.07200709, -0.33414847, -154562.27, 91234.7, 0.0, 10.001151, 9.998796 
2.250402e+2, 2.8491354e+2, -57141.926, -268391.3, -28221.143, -0.047267005, -0.3730656, -53436.8, 94376.125, 0.0, 10.001326, 9.998524 
2.250455e+2, 2.9491186e+2, 89609.805, -147126.84, -24304.297, 0.020133076, -0.39928097, 92079.22, 141908.19, 0.0, 10.001661, 9.998522 
2.2504987e+2, 3.0491138e+2, 127114.97, -161390.17, 8159.6553, -0.07072569, -0.27187654, 127345.56, 127345.56, 0.000000085825576, 10.001832, 9.99801 
2.2505586e+2, 3.1490827e+2, 219692.56, 33986.92, -6241.2607, -0.02819637, -0.38424593, 219902.1, 219902.1, 0.0000031779714, 10.00182, 9.999357 
2.3497471e+2, 1.2492486e+2, -1719417.3, -1712213.5, -3783.9404, 0.115824565, -0.40486056, -1710591.3, 5107.185, 0.00032214387, 9.9999485, 10.000042 
2.3497963e+2, 1.3492532e+2, -1642771.4, -1670645.8, 10714.325, 0.08859208, -0.3229819, -1639129.0, -21434.139, 0.00016659255, 10.000001, 9.999629 
2.3498446e+2, 1.4492416e+2, -1522045.8, -1545117.4, -16920.61, 0.08936781, -0.40754858, -1513102.8, 6603.296, 0.00005400246, 10.000083, 9.999776 
2.3498823e+2, 1.5492399e+2, -1410081.0, -1445920.0, -17640.834, 0.021571737, -0.40260023, -1402854.8, 18851.588, 0.000006396683, 10.000203, 9.999726 
2.3499243e+2, 1.6492358e+2, -1323093.3, -1400004.3, -24327.156, 0.009196154, -0.39300138, -1316044.5, 7664.963, 0.000000013163342, 10.000329, 9.999308 
2.3499712e+2, 1.7492293e+2, -1205919.1, -1293764.1, -22102.244, 0.05290313, -0.3934957, -1200671.6, 25043.969, 0.0, 10.000465, 9.999299 
2.3500107e+2, 1.8492189e+2, -1147489.1, -1289095.5, -44313.89, 0.049373128, -0.3918467, -1134765.0, -7038.618, 0.0, 10.000514, 9.998635 
2.3500429e+2, 1.9492058e+2, -1056120.3, -1195822.3, -54806.4, -0.0020251754, -0.3899679, -1037185.5, -7444.591, 0.0, 10.000476, 9.998622 
2.3500796e+2, 2.0491935e+2, -949835.3, -1095968.3, -47524.316, -0.018691184, -0.37098384, -935739.5, -3984.9485, 0.0, 10.000542, 9.998602 
2.3501208e+2, 2.1491829e+2, -826146.44, -986315.44, -37893.12, -0.00025408473, -0.34071055, -817634.0, 16132.698, 0.0, 10.000722, 9.998594 
2.3501606e+2, 2.2491695e+2, -732474.06, -918830.9, -35309.875, -0.0031891377, -0.32040814, -726008.1, 9773.406, 0.0, 10.000814, 9.998341 
2.350199e+2, 2.3491538e+2, -635007.0, -822430.75, -49671.043, -0.026816372, -0.31447005, -622657.0, 15141.434, 0.0, 10.000816, 9.998328 
2.3502405e+2, 2.4491395e+2, -490131.2, -644740.5, -45045.266, -0.033362314, -0.31307673, -477964.72, 61848.117, 0.0, 10.000893, 9.998839 
2.350284e+2, 2.5491276e+2, -370882.1, -537248.2, -33363.438, -0.024687616, -0.32045224, -364440.7, 77383.125, 0.0, 10.001041, 9.998833 
2.3503263e+2, 2.649115e+2, -273615.22, -461964.9, -28730.826, -0.033058465, -0.3179716, -269330.13, 74505.16, 0.0, 10.001133, 9.998633 
2.3503679e+2, 2.7491018e+2, -173336.8, -363357.9, -35037.527, -0.052844204, -0.31753734, -167082.19, 78764.91, 0.0, 10.001151, 9.998629 
2.3504154e+2, 2.8490838e+2, -58865.883, -271970.06, -15602.433, -0.04323492, -0.350158, -57729.605, 90134.05, 0.0, 10.001326, 9.9985 
2.3504674e+2, 2.9490644e+2, 86840.91, -153065.44, -11331.978, -0.022450976, -0.40206915, 87374.984, 137257.45, 0.0, 10.001661, 9.998482 
2.3505136e+2, 3.049056e+2, 124656.87, -166026.8, 7508.341, -0.10340512, -0.30561388, 124850.68, 124850.68, 0.000000016806371, 10.00183, 9.997978 
2.3505801e+2, 3.1490284e+2, 235804.97, 68514.16, -10434.506, 0.00481776, -0.38083464, 236453.28, 236453.28, 0.0000014346882, 10.001815, 9.999596 
2.4497437e+2, 1.2491962e+2, -1721522.1, -1713934.1, -20520.361, 0.08875335, -0.40762556, -1696860.0, 18890.82, 0.00026278105, 9.999935, 10.000037 
2.4497975e+2, 1.3492033e+2, -1655454.4, -1669828.1, -7760.258, 0.10731082, -0.30715308, -1652064.3, -34319.004, 0.00013053669, 9.999885, 9.999691 
2.449848e+2, 1.4491929e+2, -1532044.3, -1545689.4, -23787.727, 0.12054285, -0.38436744, -1514120.0, 5635.203, 0.000038366878, 9.999997, 9.999814 
2.4498847e+2, 1.5491907e+2, -1395008.0, -1434491.1, -20700.166, 0.021652691, -0.38945544, -1386144.9, 35611.043, 0.000003303544, 10.000289, 9.9997635 
2.4499272e+2, 1.6491865e+2, -1311051.1, -1397469.0, -34705.42, 0.0008493074, -0.38155285, -1298839.1, 24920.02, 0.00000000018007511, 10.000426, 9.999279 
2.449976e+2, 1.7491803e+2, -1217119.3, -1302310.8, -40355.953, 0.058602583, -0.3741856, -1201037.9, 24727.244, 0.0, 10.000403, 9.99927 
2.450017e+2, 1.84917e+2, -1154449.8, -1296147.8, -56636.48, 0.06395397, -0.3693174, -1134594.4, -6818.3877, 0.0, 10.0004835, 9.998603 
2.4500506e+2, 1.9491564e+2, -1029581.06, -1186469.9, -49457.28, 0.016412672, -0.36953247, -1015291.7, 14499.17, 0.0, 10.000673, 9.99859 
2.4500874e+2, 2.049143e+2, -918717.06, -1085509.6, -42867.566, -0.0063152546, -0.35715556, -908344.7, 23460.547, 0.0, 10.000775, 9.998561 
2.450128e+2, 2.149131e+2, -819882.1, -988044.6, -55391.46, -0.0044382694, -0.3376529, -803276.4, 30541.99, 0.0, 10.000786, 9.998552 
2.4501681e+2, 2.249117e+2, -732327.06, -920415.56, -51846.434, -0.009657638, -0.32039204, -718982.4, 16851.02, 0.0, 10.000823, 9.998326 
2.4502082e+2, 2.3491016e+2, -625479.8, -819206.2, -37801.76, -0.020668464, -0.31032568, -618364.9, 19484.879, 0.0, 10.000888, 9.998316 
2.4502502e+2, 2.4490869e+2, -489949.78, -651651.56, -30105.604, -0.02592107, -0.31014046, -484526.63, 55337.938, 0.0, 10.000924, 9.998777 
2.4502935e+2, 2.5490737e+2, -392290.88, -554746.9, -45152.766, -0.027869409, -0.32422525, -380584.7, 61292.27, 0.0, 10.000925, 9.998769 
2.450337e+2, 2.6490602e+2, -284979.94, -473918.0, -45738.094, -0.038634993, -0.32367513, -274490.1, 69399.07, 0.0, 10.001083, 9.998575 
2.4503808e+2, 2.7490467e+2, -141298.23, -354701.66, -44029.29, -0.052499123, -0.31970003, -132571.03, 113329.94, 0.0, 10.0014, 9.998569 
2.4504296e+2, 2.8490287e+2, -36279.35, -268573.84, -23947.041, -0.043124758, -0.34724173, -33836.367, 114081.26, 0.0, 10.0015135, 9.998433 
2.4504822e+2, 2.9490086e+2, 45137.98, -181261.64, -22920.188, -0.027446145, -0.3942671, 47435.063, 97371.85, 0.0, 10.001411, 9.998408 
2.4505302e+2, 3.0489966e+2, 76272.22, -193854.9, -3639.8938, -0.104597434, -0.33094272, 76321.26, 76321.26, 0.0000000018495133, 10.001518, 9.997936 
2.4505989e+2, 3.1489706e+2, 249363.47, 91403.83, -27326.4, 0.010815403, -0.3856366, 253957.23, 253957.23, 0.00000052479436, 10.001838, 9.9997425 
2.549746e+2, 1.2491452e+2, -1719806.0, -1708781.1, -19754.201, 0.116625816, -0.36910874, -1693784.6, 22017.973, 0.00020966213, 9.9999275, 10.000077 
2.549792e+2, 1.3491479e+2, -1647639.6, -1654911.0, -9661.211, 0.061768014, -0.32382843, -1640952.6, -23151.557, 0.00009902935, 9.999889, 9.999791 
2.5498438e+2, 1.4491384e+2, -1525031.4, -1532479.5, -13504.759, 0.07932854, -0.40155452, -1514746.6, 5063.267, 0.000025643241, 10.000003, 9.999903 
2.549891e+2, 1.5491416e+2, -1389074.6, -1421674.6, -10037.813, 0.0545553, -0.35984328, -1386231.8, 35573.09, 0.0000014046367, 10.000287, 9.999853 
2.549935e+2, 1.6491376e+2, -1320667.6, -1416490.1, -35615.535, 0.036080603, -0.3482313, -1308880.0, 14928.221, 0.0, 10.0004225, 9.99915 
2.5499764e+2, 1.7491262e+2, -1225894.6, -1321008.6, -41186.793, 0.021970173, -0.38069502, -1210538.9, 15281.293, 0.0, 10.000405, 9.999142 
2.5500184e+2, 1.8491156e+2, -1139882.9, -1266384.5, -49677.625, 0.029063351, -0.3823326, -1122706.5, 5124.5405, 0.0, 10.000485, 9.998806 
2.5500613e+2, 1.9491066e+2, -1014914.5, -1156219.8, -42195.66, 0.059624486, -0.35528502, -1003273.3, 26566.578, 0.0, 10.000674, 9.998797 
2.5501007e+2, 2.0490934e+2, -941810.7, -1133194.6, -42412.96, 0.04793861, -0.33754328, -932832.7, -978.49615, 0.0, 10.000774, 9.998235 
2.5501356e+2, 2.1490763e+2, -843205.9, -1036234.5, -54818.355, -0.008200342, -0.3340323, -828724.44, 5148.911, 0.0, 10.000785, 9.998222 
2.5501743e+2, 2.2490615e+2, -707484.1, -868604.75, -49427.477, -0.030804604, -0.32717976, -693529.7, 42359.227, 0.0, 10.000821, 9.998682 
2.5502175e+2, 2.349049e+2, -600291.2, -766648.3, -35311.25, -0.01766752, -0.322715, -593106.3, 44793.957, 0.0, 10.000887, 9.998677 
2.5502604e+2, 2.4490348e+2, -518381.0, -710653.44, -30256.063, -0.017692672, -0.31618842, -513732.28, 26182.139, 0.0, 10.000923, 9.998372 
2.550302e+2, 2.5490195e+2, -420512.6, -613441.75, -44917.98, -0.033175066, -0.31059068, -410567.38, 31363.309, 0.0, 10.000926, 9.998365 
2.5503463e+2, 2.6490036e+2, -281707.53, -467492.7, -33805.84, -0.053179346, -0.31500614, -275747.38, 68198.125, 0.0, 10.001084, 9.998619 
2.5503927e+2, 2.7489877e+2, -138461.25, -348948.38, -31891.523, -0.07291368, -0.34045583, -133735.39, 112223.3, 0.0, 10.0014, 9.998609 
2.5504443e+2, 2.8489697e+2, -43911.313, -283900.1, -28086.584, -0.049397215, -0.36437896, -40668.09, 107306.85, 0.0, 10.001512, 9.998329 
2.5504994e+2, 2.9489523e+2, 37691.34, -196000.63, -26878.324, 0.0038000774, -0.37629578, 40742.93, 90734.945, 0.0, 10.001409, 9.998308 
2.5505483e+2, 3.0489355e+2, 72306.875, -202520.53, 8621.614, -0.07457251, -0.34832257, 72577.08, 72577.08, 0.000000000039700524, 10.001519, 9.997878 
2.5506154e+2, 3.1489095e+2, 253887.44, 99780.9, -18203.844, -0.011078927, -0.40139776, 256008.58, 256008.58, 0.00000015406697, 10.001841, 9.9998 
2.649745e+2, 1.2490913e+2, -1755155.1, -1726594.4, -15268.781, 0.12669091, -0.35035935, -1719968.6, -4111.621, 0.00016490842, 9.999688, 10.00007 
2.6497892e+2, 1.3490936e+2, -1613209.4, -1633661.4, -13602.642, 0.03462107, -0.31256002, -1606417.6, 11437.944, 0.000073287774, 10.000105, 9.999833 
2.649843e+2, 1.4490844e+2, -1488744.6, -1513510.6, -26714.883, 0.059467938, -0.3892742, -1471682.4, 48181.508, 0.000016155976, 10.000245, 9.999916 
2.649895e+2, 1.5490878e+2, -1413305.5, -1431264.5, -29022.877, 0.07626216, -0.34849593, -1391904.8, 29953.908, 0.00000046134082, 10.000113, 9.999871 
2.6499408e+2, 1.649084e+2, -1360215.8, -1436987.6, -51182.21, 0.06452555, -0.33561847, -1334624.4, -10762.4, 0.0, 10.000159, 9.999137 
2.6499802e+2, 1.7490728e+2, -1228864.0, -1324076.8, -48594.563, 0.02029891, -0.36330298, -1208442.5, 17431.469, 0.0, 10.000393, 9.999126 
2.6500225e+2, 1.8490621e+2, -1128610.6, -1258636.3, -58493.22, 0.018659161, -0.36642036, -1106169.9, 21714.994, 0.0, 10.000552, 9.998827 
2.6500684e+2, 1.9490525e+2, -1019085.2, -1155878.6, -65204.953, 0.06214894, -0.34779507, -992984.25, 36909.68, 0.0, 10.000636, 9.998818 
2.6501086e+2, 2.0490392e+2, -953921.56, -1138188.3, -64409.89, 0.057032626, -0.3327311, -933639.6, -1731.6199, 0.0, 10.000689, 9.998242 
2.6501438e+2, 2.1490227e+2, -853316.94, -1040191.8, -51440.387, 0.0011227307, -0.3258096, -840092.94, -6166.3057, 0.0, 10.000711, 9.99823 
2.6501828e+2, 2.2490074e+2, -714654.6, -872413.44, -43719.547, -0.024149116, -0.32088184, -703348.9, 32593.283, 0.0, 10.000773, 9.998679 
2.6502264e+2, 2.3489943e+2, -602540.1, -767995.5, -56960.14, -0.017206673, -0.3238952, -584827.1, 53126.883, 0.0, 10.000873, 9.998675 
2.65027e+2, 2.4489796e+2, -511602.38, -721141.06, -53928.4, -0.019344551, -0.31560573, -498537.56, 41431.082, 0.0, 10.001029, 9.998249 
2.650313e+2, 2.548964e+2, -382659.06, -608872.8, -47572.11, -0.03220241, -0.29875588, -373061.94, 68923.38, 0.0, 10.001245, 9.998243 
2.6503587e+2, 2.6489475e+2, -250054.94, -457645.03, -28384.783, -0.05057854, -0.30523333, -246243.72, 97757.43, 0.0, 10.001325, 9.99857 
2.650406e+2, 2.7489296e+2, -161842.77, -365333.6, -33229.18, -0.070021704, -0.34544504, -156554.03, 89461.91, 0.0, 10.001263, 9.998561 
2.650459e+2, 2.848911e+2, -66672.17, -301281.8, -31607.918, -0.045582775, -0.3683452, -62488.39, 85544.05, 0.0, 10.001384, 9.99827 
2.6505154e+2, 2.9488942e+2, 73303.26, -185701.86, -27926.09, 0.009587949, -0.36552417, 76280.055, 126328.67, 0.0, 10.001683, 9.998247 
2.650565e+2, 3.0488744e+2, 102667.16, -190120.53, 9877.455, -0.073806114, -0.3672492, 103000.0, 103000.0, 0.0, 10.001738, 9.997857 
2.6506302e+2, 3.1488523e+2, 213095.78, 81605.33, -18376.281, -0.03184238, -0.37988168, 215615.64, 215615.64, 0.000000038019415, 10.001556, 9.99981 
2.7497408e+2, 1.2490344e+2, -1759412.8, -1736161.9, 3707.6316, 0.11442961, -0.35253644, -1735585.0, -19670.992, 0.00012966055, 9.999692, 10.000002 
2.7497894e+2, 1.3490409e+2, -1615480.4, -1637065.1, 1073.5538, 0.025920441, -0.27151373, -1615427.1, 2481.4956, 0.00005392466, 10.0001, 9.999812 
2.749846e+2, 1.4490317e+2, -1493572.0, -1522143.6, -31918.855, 0.060848895, -0.34583497, -1472887.9, 47029.254, 0.0000098627, 10.000239, 9.99986 
2.749897e+2, 1.5490292e+2, -1416257.6, -1437906.3, -33997.527, 0.08427418, -0.35603932, -1391402.9, 30514.707, 0.00000011248763, 10.000115, 9.999825 
2.7499443e+2, 1.6490255e+2, -1353065.6, -1422952.1, -42798.97, 0.08347128, -0.3445501, -1332756.9, -8836.24, 0.0, 10.000162, 9.999232 
2.7499875e+2, 1.7490205e+2, -1222115.8, -1310138.0, -39878.074, 0.053018384, -0.32161233, -1206736.3, 19190.395, 0.0, 10.000393, 9.999223 
2.7500293e+2, 1.8490098e+2, -1140394.9, -1282496.9, -55444.953, 0.03234522, -0.3210402, -1121321.5, 6616.1006, 0.0, 10.00055, 9.998664 
2.7500707e+2, 1.9489941e+2, -1030803.1, -1180127.1, -62034.633, 0.02337574, -0.34695095, -1008394.44, 21558.586, 0.0, 10.000635, 9.998652 
2.750112e+2, 2.0489806e+2, -930032.94, -1088534.9, -63537.277, 0.020185865, -0.34291774, -907707.8, 24258.979, 0.0, 10.000688, 9.998583 
2.7501532e+2, 2.1489698e+2, -828971.0, -989760.56, -50357.965, 0.022290478, -0.31330198, -814501.44, 19476.99, 0.0, 10.000711, 9.998576 
2.750194e+2, 2.248955e+2, -739774.25, -924368.4, -40070.387, 0.009070151, -0.30181503, -731451.3, 4541.986, 0.0, 10.000772, 9.998323 
2.750235e+2, 2.3489375e+2, -627660.5, -820282.8, -53096.234, -0.019026084, -0.31408083, -613994.1, 24016.926, 0.0, 10.000873, 9.998317 
2.750279e+2, 2.4489215e+2, -501102.3, -699285.06, -45898.023, -0.030809708, -0.30859995, -490988.7, 49038.504, 0.0, 10.001029, 9.9984 
2.7503258e+2, 2.5489077e+2, -372342.94, -587061.3, -39436.46, -0.027455047, -0.28890753, -365328.94, 76712.02, 0.0, 10.001243, 9.998394 
2.7503735e+2, 2.6488912e+2, -259525.28, -476745.16, -30968.488, -0.033479173, -0.29452592, -255196.45, 88859.79, 0.0, 10.001323, 9.998441 
2.7504215e+2, 2.7488717e+2, -170732.72, -383547.66, -35330.71, -0.04384695, -0.3352577, -165020.58, 81052.23, 0.0, 10.001262, 9.998437 
2.7504742e+2, 2.8488526e+2, -68251.96, -304540.22, -20328.932, -0.031263225, -0.3599135, -66515.734, 81574.44, 0.0, 10.001384, 9.998248 
2.75053e+2, 2.9488352e+2, 71603.26, -189628.83, -16676.988, -0.011256022, -0.36178917, 72663.61, 122770.22, 0.0, 10.001684, 9.9982195 
2.7505788e+2, 3.0488127e+2, 103554.92, -188171.58, 3019.2336, -0.10415369, -0.38742945, 103586.164, 103586.164, 0.0, 10.001738, 9.99787 
2.7506435e+2, 3.1487983e+2, 210183.95, 76079.92, -28811.096, -0.054090597, -0.32405013, 216111.75, 216111.75, 0.00000000643165, 10.001554, 9.999773 
2.8497356e+2, 1.24897674e+2, -1706761.1, -1714090.5, -3770.6519, 0.07716079, -0.33987442, -1705167.8, 10803.726, 0.00010364884, 10.000068, 9.999972 
2.84979e+2, 1.3489835e+2, -1648816.0, -1651489.6, -9604.452, 0.033139054, -0.25724098, -1640455.8, -22490.31, 0.000040612387, 9.999865, 9.999827 
2.8498483e+2, 1.4489743e+2, -1557995.5, -1559866.4, -43855.86, 0.08342119, -0.32841972, -1515065.1, 4908.915, 0.0000062724685, 9.999827, 9.999799 
2.849897e+2, 1.5489706e+2, -1438848.5, -1455254.5, -47382.504, 0.081937335, -0.34587267, -1398964.3, 23012.041, 0.000000028346124, 9.999989, 9.999767 
2.8499454e+2, 1.6489668e+2, -1351635.0, -1417515.8, -51997.637, 0.07978599, -0.33453438, -1323021.9, 957.73254, 0.0, 10.000152, 9.999274 
2.8499928e+2, 1.748963e+2, -1229665.9, -1308586.0, -53215.24, 0.071676485, -0.30372968, -1202876.8, 23107.531, 0.0, 10.00032, 9.999268 
2.850036e+2, 1.8489526e+2, -1153033.8, -1284028.1, -67258.34, 0.048645973, -0.30430362, -1124650.4, 3344.3733, 0.0, 10.000445, 9.998703 
2.8500754e+2, 1.9489363e+2, -1043739.94, -1182119.3, -58965.652, 0.012077217, -0.33996618, -1022022.2, 7988.451, 0.0, 10.000529, 9.99869 
2.8501168e+2, 2.0489231e+2, -934462.9, -1083379.8, -63598.137, 0.0037969665, -0.33785537, -910999.0, 21024.932, 0.0, 10.000626, 9.998649 
2.8501606e+2, 2.1489134e+2, -821061.6, -978324.56, -71552.7, 0.023935923, -0.3026291, -793378.94, 40655.152, 0.0, 10.000733, 9.998645 
2.850203e+2, 2.2488989e+2, -737453.7, -931973.7, -60469.867, 0.01850033, -0.29051486, -720188.06, 15860.834, 0.0, 10.000827, 9.998245 
2.8502443e+2, 2.3488802e+2, -628660.2, -829634.56, -52359.063, -0.011964132, -0.30625167, -615837.44, 22230.455, 0.0, 10.000904, 9.998238 
2.8502896e+2, 2.4488634e+2, -504791.94, -700711.44, -36883.977, -0.027743185, -0.30456424, -498078.2, 42006.445, 0.0, 10.001002, 9.998403 
2.8503376e+2, 2.5488493e+2, -389929.56, -595067.1, -41574.676, -0.030200427, -0.28942594, -381824.0, 60274.43, 0.0, 10.001121, 9.998398 
2.8503865e+2, 2.6488325e+2, -275705.25, -492928.94, -41392.973, -0.03415456, -0.29501688, -268084.97, 76029.11, 0.0, 10.001248, 9.998364 
2.8504357e+2, 2.7488127e+2, -158771.89, -385778.97, -42187.324, -0.033727694, -0.32978618, -151185.28, 94945.94, 0.0, 10.001379, 9.998364 
2.850489e+2, 2.848794e+2, -57175.023, -293799.1, -18258.047, -0.024731452, -0.35010886, -55774.51, 92373.63, 0.0, 10.001437, 9.998296 
2.8505448e+2, 2.948777e+2, 37927.2, -200317.02, -9517.661, -0.02254704, -0.35115424, 38306.816, 88470.13, 0.0, 10.001431, 9.998267 
2.8505942e+2, 3.048752e+2, 74352.04, -198006.94, 8072.8286, -0.11663829, -0.41003808, 74591.11, 74591.11, 0.0, 10.001519, 9.997908 
2.8506586e+2, 3.1487408e+2, 220024.14, 67561.945, -26040.322, -0.06512191, -0.31514946, 224349.1, 224349.1, 0.00000000043435586, 10.001678, 9.999655 
2.9497302e+2, 1.2489186e+2, -1705338.5, -1711905.4, -6120.0684, 0.012743291, -0.3112192, -1701676.6, 14352.528, 0.000085497144, 10.000072, 9.999987 
2.9497907e+2, 1.3489215e+2, -1644401.0, -1643067.9, -17523.967, 0.053201664, -0.27135146, -1626197.8, -8171.567, 0.000032281903, 9.999867, 9.999885 
2.949851e+2, 1.4489126e+2, -1563597.8, -1571744.6, -38272.96, 0.12407495, -0.3382796, -1529182.0, -9147.486, 0.0000046245973, 9.999828, 9.999718 
2.9498956e+2, 1.5489122e+2, -1444993.6, -1467729.5, -41515.094, 0.06824901, -0.31649545, -1413318.1, 8716.506, 0.00000001715619, 9.999987, 9.999682 
2.949944e+2, 1.648908e+2, -1352463.9, -1418403.6, -46010.66, 0.05270937, -0.30398142, -1328829.9, -4791.157, 0.0, 10.000149, 9.99927 
2.9499963e+2, 1.7489003e+2, -1230108.0, -1308959.3, -46786.38, 0.074710816, -0.31024864, -1208350.8, 17695.867, 0.0, 10.000318, 9.999267 
2.9500422e+2, 1.8488905e+2, -1136903.9, -1250287.0, -64054.563, 0.066057816, -0.316918, -1108056.4, 19999.791, 0.0, 10.000444, 9.998936 
2.9500824e+2, 1.9488792e+2, -1027116.94, -1147777.6, -55666.04, 0.027389701, -0.32670602, -1005359.2, 24707.555, 0.0, 10.000529, 9.998926 
2.9501235e+2, 2.0488669e+2, -949026.4, -1113521.4, -59598.668, 0.0073948065, -0.31736854, -929702.94, 2376.4224, 0.0, 10.000625, 9.998443 
2.950166e+2, 2.1488537e+2, -835906.2, -1008992.44, -67310.336, 0.0056717717, -0.29415956, -812811.75, 21281.957, 0.0, 10.000732, 9.998435 
2.9502097e+2, 2.2488388e+2, -723790.7, -903310.06, -57591.176, 0.003712887, -0.28716692, -706903.56, 29205.47, 0.0, 10.000825, 9.998443 
2.9502547e+2, 2.3488222e+2, -614844.2, -800649.0, -49356.38, 0.002326918, -0.3005462, -602547.2, 35577.43, 0.0, 10.000903, 9.998437 
2.9503012e+2, 2.4488053e+2, -514779.06, -721118.4, -32567.494, -0.011574651, -0.30349314, -509760.84, 30380.217, 0.0, 10.001001, 9.998263 
2.950348e+2, 2.5487885e+2, -399762.03, -615467.2, -36881.38, -0.040379904, -0.3007834, -393630.34, 48527.434, 0.0, 10.001121, 9.998259 
2.950397e+2, 2.6487708e+2, -277852.94, -497101.0, -36608.098, -0.051986907, -0.30693159, -271901.97, 72272.73, 0.0, 10.001247, 9.998337 
2.9504487e+2, 2.7487522e+2, -160792.2, -389722.3, -37444.15, -0.04147158, -0.32925886, -154823.4, 91367.9, 0.0, 10.001377, 9.998339 
2.950503e+2, 2.848735e+2, -49291.605, -276904.56, -18794.855, -0.028180845, -0.33897004, -47750.082, 100456.37, 0.0, 10.001435, 9.998413 
2.9505587e+2, 2.94872e+2, 46033.742, -182955.53, -9490.146, -0.025079846, -0.33400148, 46426.38, 96645.26, 0.0, 10.001429, 9.998387 
2.9506096e+2, 3.0486912e+2, 78182.59, -189825.05, 14137.114, -0.1115937, -0.43469355, 78926.24, 78926.24, 0.0, 10.001518, 9.997965 
2.9506752e+2, 3.148679e+2, 207337.72, 40141.992, -22179.082, -0.06703879, -0.35515922, 210229.83, 210229.83, 0.0, 10.001682, 9.999465 
3.049729e+2, 1.2488568e+2, -1730892.6, -1723615.8, -18146.393, 0.003842325, -0.2999238, -1708746.6, 7343.2104, 0.000073591786, 9.999896, 9.99999 
3.049788e+2, 1.3488571e+2, -1647087.5, -1639721.1, -38028.477, 0.04275075, -0.29011166, -1605197.9, 12891.099, 0.000027638554, 9.99983, 9.999925 
3.0498493e+2, 1.4488485e+2, -1553764.1, -1571281.0, -44801.555, 0.122140914, -0.35436118, -1516872.9, 3224.1934, 0.000004191702, 9.999915, 9.999679 
3.0498973e+2, 1.5488502e+2, -1423236.3, -1461489.0, -44605.965, 0.07755515, -0.3052109, -1393829.0, 28266.379, 0.000000032166714, 10.000155, 9.999643 
3.0499467e+2, 1.6488463e+2, -1342109.0, -1412173.1, -53108.246, 0.05920983, -0.28929898, -1313519.3, 10580.3955, 0.0, 10.000216, 9.99928 
3.049997e+2, 1.7488366e+2, -1261586.5, -1323233.9, -53685.965, 0.062287483, -0.31669965, -1230504.8, -4394.9365, 0.0, 10.000098, 9.999275 
3.0500442e+2, 1.8488276e+2, -1165943.0, -1248207.1, -67875.33, 0.055588417, -0.3237016, -1127709.4, 409.08798, 0.0, 10.000175, 9.99908 
3.0500886e+2, 1.9488198e+2, -1026603.56, -1130580.9, -66184.734, 0.04088243, -0.3127074, -994430.2, 35694.938, 0.0, 10.000461, 9.999077 
3.0501315e+2, 2.048808e+2, -953991.56, -1121641.0, -72086.56, 0.02677615, -0.30261776, -927258.3, 4878.8325, 0.0, 10.000617, 9.99839 
3.0501732e+2, 2.1487926e+2, -853505.25, -1023767.75, -68317.93, 0.012160798, -0.29877728, -829482.2, 4672.145, 0.0, 10.000638, 9.998379 
3.0502176e+2, 2.2487773e+2, -731727.06, -898529.06, -54732.48, 0.004395341, -0.29414612, -715371.5, 20798.215, 0.0, 10.000733, 9.99852 
3.0502644e+2, 2.3487629e+2, -609304.6, -789248.2, -55816.66, 0.004529389, -0.29261133, -593397.1, 44785.617, 0.0, 10.000903, 9.998516 
3.0503112e+2, 2.448746e+2, -524609.5, -736346.9, -44620.168, -0.007728318, -0.2951048, -515590.7, 24608.3, 0.0, 10.000978, 9.99817 
3.050359e+2, 2.548727e+2, -430089.28, -640492.1, -45702.14, -0.034189343, -0.30628225, -420591.0, 21626.969, 0.0, 10.0009575, 9.998165 
3.0504087e+2, 2.6487082e+2, -302483.9, -507430.03, -36308.133, -0.050977163, -0.31660298, -296241.7, 47994.086, 0.0, 10.001072, 9.99835 
3.0504608e+2, 2.7486905e+2, -166212.22, -390816.16, -34231.6, -0.053947907, -0.33261675, -161110.89, 85141.06, 0.0, 10.001335, 9.998351 
3.0505165e+2, 2.848674e+2, -45040.426, -273590.03, -26158.137, -0.037685, -0.33425897, -42084.777, 106181.41, 0.0, 10.001459, 9.998424 
3.050574e+2, 2.94866e+2, 46182.785, -181279.02, -25245.44, -0.012171142, -0.31976506, 48951.027, 99228.25, 0.0, 10.001424, 9.998402 
3.0506262e+2, 3.04863e+2, 78388.055, -171135.42, 4158.931, -0.09506434, -0.44447526, 78457.35, 78457.35, 0.0, 10.00144, 9.998131 
3.0506894e+2, 3.148618e+2, 174780.94, 11715.083, -27450.342, -0.08328081, -0.38084868, 179277.88, 179277.88, 0.0, 10.001515, 9.99935 
3.1497324e+2, 1.2487914e+2, -1732069.1, -1726479.5, -13673.369, 0.047857895, -0.30714315, -1715318.3, 835.04114, 0.00006650563, 9.999897, 9.9999695 
3.1497818e+2, 1.3487902e+2, -1645391.0, -1637333.1, -40344.48, -0.0008672748, -0.3122869, -1600816.9, 17336.758, 0.000025576577, 9.999835, 9.999939 
3.1498438e+2, 1.4487821e+2, -1552638.9, -1569150.1, -36257.113, 0.07521042, -0.37516224, -1523709.4, -3547.9512, 0.000004447986, 9.999916, 9.999693 
3.1499016e+2, 1.5487853e+2, -1422343.9, -1459227.8, -35403.69, 0.10780087, -0.31334656, -1400866.9, 21291.633, 0.00000006594377, 10.000154, 9.99966 
3.1499526e+2, 1.6487819e+2, -1341887.3, -1411343.8, -57347.008, 0.097556844, -0.29196295, -1309572.8, 14589.705, 0.0, 10.000214, 9.999287 
3.1499952e+2, 1.7487721e+2, -1261112.3, -1322366.9, -58001.836, 0.033441737, -0.3223608, -1226148.1, 25.492538, 0.0, 10.000098, 9.999281 
3.150042e+2, 1.8487638e+2, -1161847.3, -1239629.8, -57463.223, 0.016242892, -0.32374892, -1131351.5, -3169.8418, 0.0, 10.0001745, 9.99914 
3.1500942e+2, 1.948758e+2, -1022505.44, -1121595.8, -55257.58, 0.051741593, -0.29835957, -997833.9, 32352.098, 0.0, 10.000459, 9.99914 
3.1501412e+2, 2.0487466e+2, -947276.4, -1107324.6, -71106.266, 0.061170194, -0.29398334, -920249.3, 11948.102, 0.0, 10.000615, 9.998489 
3.1501827e+2, 2.1487294e+2, -846789.7, -1009559.06, -67269.64, 0.04215913, -0.31626484, -822587.1, 11628.731, 0.0, 10.000637, 9.998477 
3.1502265e+2, 2.2487146e+2, -734776.9, -904830.2, -48254.31, 0.019655863, -0.3112422, -722038.44, 14192.619, 0.0, 10.000733, 9.998477 
3.150272e+2, 2.3487025e+2, -612310.5, -795549.0, -49249.883, -0.0056994855, -0.28289726, -599912.25, 38330.043, 0.0, 10.000903, 9.998472 
3.15032e+2, 2.4486856e+2, -528216.06, -743887.3, -45596.957, -0.016503196, -0.27953067, -518972.22, 21286.252, 0.0, 10.000978, 9.998118 
3.1503704e+2, 2.5486645e+2, -433463.44, -647372.7, -46584.223, -0.0135763455, -0.30633315, -423758.8, 18520.21, 0.0, 10.000957, 9.998118 
3.150421e+2, 2.648645e+2, -298955.9, -499747.8, -26723.324, -0.032643665, -0.32422486, -295460.16, 48837.258, 0.0, 10.001071, 9.998404 
3.1504726e+2, 2.748628e+2, -162731.28, -383059.4, -24011.85, -0.07149372, -0.33972898, -160144.78, 86168.44, 0.0, 10.001332, 9.998405 
3.1505296e+2, 2.8486118e+2, -52396.883, -288239.7, -27560.504, -0.053133667, -0.33555976, -49218.992, 99108.34, 0.0, 10.001456, 9.998324 
3.1505913e+2, 2.948598e+2, 39941.965, -194642.39, -26754.55, 0.013965121, -0.3098602, 42954.652, 93293.14, 0.0, 10.001425, 9.998309 
3.1506434e+2, 3.048568e+2, 97041.484, -132492.8, 6653.298, -0.06875133, -0.4412667, 97234.17, 97234.17, 0.0, 10.00144, 9.998396 
3.1507012e+2, 3.1485575e+2, 171471.5, 5800.828, -27516.4, -0.11588356, -0.3905145, 175922.16, 175922.16, 0.0, 10.001512, 9.9993105 
3.2497305e+2, 1.2487239e+2, -1763127.0, -1747017.9, -2625.8394, 0.04747183, -0.33563194, -1746600.6, -30382.652, 0.00006287029, 9.999709, 9.999919 
3.2497805e+2, 1.348725e+2, -1638730.6, -1636368.1, -40210.016, 0.00039865574, -0.3163281, -1597322.0, 20894.719, 0.000025189593, 9.999891, 9.999918 
3.2498428e+2, 1.4487173e+2, -1552531.8, -1564027.0, -37566.586, 0.07747309, -0.3757061, -1520275.6, -51.41257, 0.0000050024137, 9.999895, 9.999738 
3.249901e+2, 1.5487182e+2, -1480835.0, -1482134.9, -35016.21, 0.10527902, -0.34057584, -1446462.8, -24239.566, 0.000000115129794, 9.99973, 9.999707 
3.2499528e+2, 1.6487157e+2, -1399926.1, -1442591.8, -53239.043, 0.09614765, -0.31314018, -1363904.9, -39678.1, 0.0, 9.999829, 9.999257 
3.2499972e+2, 1.7487095e+2, -1246997.0, -1318573.6, -56618.78, 0.038401563, -0.3027258, -1215804.1, 10431.216, 0.0, 10.000209, 9.999252 
3.250045e+2, 1.8487018e+2, -1132579.6, -1220258.8, -59116.96, 0.019711327, -0.30067644, -1102820.8, 25422.514, 0.0, 10.000354, 9.999186 
3.250097e+2, 1.9486928e+2, -1049014.3, -1129576.3, -58555.63, 0.045234777, -0.3112253, -1018222.6, 12027.499, 0.0, 10.000256, 9.999183 
3.2501456e+2, 2.0486815e+2, -978312.44, -1108591.8, -71987.98, 0.05644038, -0.31273645, -946367.4, -14106.335, 0.0, 10.000342, 9.998612 
3.25019e+2, 2.1486682e+2, -839991.3, -992148.25, -66556.01, 0.05164236, -0.30893898, -814987.5, 19288.225, 0.0, 10.000624, 9.998603 
3.250235e+2, 2.248654e+2, -737851.75, -920226.25, -51659.887, 0.029994706, -0.29707888, -724235.06, 12055.35, 0.0, 10.000772, 9.998353 
3.25028e+2, 2.3486394e+2, -638496.75, -822198.6, -58931.93, -0.008623981, -0.2822666, -621216.7, 17088.076, 0.0, 10.000784, 9.998347 
3.2503286e+2, 2.4486217e+2, -533552.4, -735960.5, -52482.703, -0.024612347, -0.28545356, -520753.4, 19568.238, 0.0, 10.000897, 9.998212 
3.2503802e+2, 2.5486016e+2, -403188.16, -622289.7, -42801.67, -0.018334607, -0.31109238, -395123.66, 47216.79, 0.0, 10.001119, 9.998213 
3.2504326e+2, 2.6485828e+2, -292519.56, -508064.5, -24792.723, -0.028887227, -0.3245783, -289704.6, 54653.83, 0.0, 10.001164, 9.9983015 
3.2504863e+2, 2.7485654e+2, -215081.02, -419494.56, -34206.02, -0.053373806, -0.3315426, -209508.95, 36866.184, 0.0, 10.001021, 9.998305 
3.2505435e+2, 2.848549e+2, -105620.85, -310518.97, -36064.77, -0.04041488, -0.32792458, -99458.32, 48931.586, 0.0, 10.001077, 9.998354 
3.2506037e+2, 2.9485342e+2, 30639.104, -195622.55, -25932.314, 0.00064839644, -0.3122567, 33573.21, 83974.75, 0.0, 10.001347, 9.998341 
3.250657e+2, 3.048506e+2, 108143.836, -115438.11, 1857.1355, -0.07618391, -0.43123177, 108159.266, 108159.266, 0.0, 10.001467, 9.9985 
3.2507175e+2, 3.148497e+2, 142549.75, -28988.787, -46664.926, -0.099617444, -0.37610275, 154422.6, 154422.6, 0.0, 10.001401, 9.9991255 
3.3497226e+2, 1.2486545e+2, -1768358.6, -1759093.8, 13052.755, -0.0019416735, -0.3839222, -1749875.8, -33592.06, 0.000061273975, 9.999714, 9.999834 
3.349784e+2, 1.3486612e+2, -1642997.6, -1644282.8, -33143.5, 0.045706853, -0.30301294, -1610490.4, 7787.552, 0.000025556885, 9.999887, 9.999866 
3.349847e+2, 1.4486541e+2, -1548887.1, -1555584.9, -43241.016, 0.12829994, -0.35716304, -1508865.5, 11419.75, 0.0000055599335, 9.999891, 9.999798 
3.3498943e+2, 1.5486492e+2, -1475838.0, -1472116.1, -40717.87, 0.067521825, -0.38610113, -1433216.6, -10927.25, 0.00000016881297, 9.999731, 9.999775 
3.3499467e+2, 1.6486475e+2, -1404049.4, -1451362.0, -39286.5, 0.052699868, -0.35183704, -1381846.6, -57553.902, 0.0, 9.99983, 9.999197 
3.350003e+2, 1.748649e+2, -1251396.4, -1327391.0, -42041.246, 0.07643542, -0.25832862, -1232725.8, -6430.7285, 0.0, 10.000207, 9.999193 
3.350053e+2, 1.8486412e+2, -1131146.4, -1216883.6, -62475.363, 0.06531045, -0.2552617, -1098246.4, 30056.99, 0.0, 10.000352, 9.99921 
3.3500972e+2, 1.948624e+2, -1047706.94, -1126713.5, -62048.613, 0.020759339, -0.35112244, -1013653.9, 16663.908, 0.0, 10.000255, 9.999204 
3.3501443e+2, 2.0486128e+2, -968303.1, -1087472.1, -61484.64, 0.011995848, -0.35840282, -942268.25, -9940.067, 0.0, 10.00034, 9.998758 
3.350195e+2, 2.1486089e+2, -829726.0, -970594.7, -55701.72, 0.039944652, -0.27707687, -810362.4, 23971.586, 0.0, 10.000622, 9.998752 
3.3502433e+2, 2.2485958e+2, -752241.94, -950076.9, -51217.03, 0.034596425, -0.25167155, -739768.9, -3420.9478, 0.0, 10.0007715, 9.998148 
3.3502883e+2, 2.3485737e+2, -652794.0, -851862.6, -58336.69, -0.005049051, -0.29043752, -636958.25, 1411.9, 0.0, 10.000784, 9.998144 
3.3503368e+2, 2.4485542e+2, -517307.78, -702130.75, -44204.586, -0.032626037, -0.3125532, -507279.38, 33109.156, 0.0, 10.000896, 9.998445 
3.3503884e+2, 2.548538e+2, -386987.1, -588214.3, -34294.77, -0.048760433, -0.3205498, -381302.88, 61099.367, 0.0, 10.001118, 9.998447 
3.3504432e+2, 2.6485208e+2, -310707.8, -545547.6, -30253.0, -0.040083516, -0.3175411, -306873.1, 37545.656, 0.0, 10.001163, 9.998045 
3.3505014e+2, 2.7485022e+2, -232709.98, -456194.8, -39639.742, -0.001980996, -0.30969274, -225887.33, 20550.518, 0.0, 10.001021, 9.998054 
3.3505583e+2, 2.8484848e+2, -95041.3, -288419.22, -26409.057, -0.0013130943, -0.3125061, -91499.555, 56954.48, 0.0, 10.001076, 9.998507 
3.350612e+2, 2.948469e+2, 41104.934, -173036.86, -15399.064, -0.051145513, -0.32503816, 42206.62, 92672.836, 0.0, 10.001343, 9.998497 
3.3506674e+2, 3.0484444e+2, 103899.29, -123679.07, -549.6035, -0.11653959, -0.41338518, 103900.62, 103900.62, 0.0, 10.001464, 9.998445 
3.3507377e+2, 3.1484368e+2, 120698.93, -75301.81, -50150.484, -0.039512336, -0.33892447, 132785.55, 132785.55, 0.0, 10.001404, 9.998806 
3.44972e+2, 1.24858685e+2, -1747979.5, -1749767.9, 10509.571, -0.004777519, -0.39802974, -1738326.1, -21977.41, 0.000060228966, 9.999855, 9.999829 
3.449783e+2, 1.3485938e+2, -1665418.5, -1651504.4, -39431.004, 0.055160962, -0.31794104, -1618421.4, -78.59954, 0.000025763518, 9.999716, 9.999899 
3.449846e+2, 1.4485873e+2, -1573447.5, -1575385.4, -49407.72, 0.13581413, -0.36367443, -1524999.3, -4649.377, 0.000005876301, 9.999757, 9.999726 
3.4498924e+2, 1.5485829e+2, -1442053.8, -1463616.1, -56979.61, 0.06003251, -0.38226917, -1394844.4, 27510.28, 0.0000002059256, 9.999996, 9.999705 
3.4499452e+2, 1.6485812e+2, -1363052.6, -1421770.3, -51338.27, 0.04291412, -0.34645268, -1333271.3, -8913.354, 0.0, 10.00007, 9.999285 
3.450004e+2, 1.748583e+2, -1278654.4, -1330690.5, -43147.953, 0.07591111, -0.2595778, -1254287.1, -27927.754, 0.0, 9.999977, 9.999282 
3.450055e+2, 1.8485758e+2, -1175592.1, -1236521.3, -61036.766, 0.06772219, -0.2564501, -1137839.6, -9472.313, 0.0, 10.000038, 9.999227 
3.4500998e+2, 1.9485594e+2, -1045345.56, -1123408.9, -61230.695, 0.020503065, -0.3452328, -1011764.06, 18617.354, 0.0, 10.000262, 9.999222 
3.4501478e+2, 2.0485489e+2, -958005.94, -1082490.6, -61720.176, 0.00844201, -0.34840098, -932592.75, -201.11734, 0.0, 10.000411, 9.998758 
3.4502e+2, 2.148545e+2, -850378.6, -980787.8, -67092.24, 0.03186932, -0.26628515, -822025.7, 12371.516, 0.0, 10.000481, 9.99875 
3.4502494e+2, 2.2485319e+2, -772520.3, -951825.44, -61221.727, 0.027091675, -0.24364746, -753611.0, -17200.008, 0.0, 10.000598, 9.99822 
3.450296e+2, 2.3485099e+2, -650256.56, -842517.56, -47722.477, -0.006773893, -0.28854877, -639062.75, -629.82404, 0.0, 10.000766, 9.998217 
3.4503457e+2, 2.4484906e+2, -528370.0, -715035.0, -33324.152, -0.031470083, -0.30933613, -522599.22, 17852.123, 0.0, 10.000853, 9.998377 
3.450398e+2, 2.548475e+2, -429884.66, -616460.94, -46484.387, -0.04744899, -0.30807644, -418944.8, 23520.662, 0.0, 10.000855, 9.99838 
3.4504542e+2, 2.6484576e+2, -333978.5, -549736.9, -43903.445, -0.039035153, -0.30164266, -325386.94, 19094.748, 0.0, 10.000973, 9.998108 
3.4505126e+2, 2.7484396e+2, -200530.02, -433976.66, -29404.11, -0.0022336324, -0.29742372, -196883.34, 49616.504, 0.0, 10.001212, 9.998115 
3.4505695e+2, 2.8484213e+2, -79391.51, -287802.56, -13655.609, -0.0016329739, -0.30706415, -78500.56, 70016.08, 0.0, 10.001212, 9.9984455 
3.4506235e+2, 2.948404e+2, -18742.695, -208952.48, -18927.621, -0.048182577, -0.32828528, -16877.514, 33653.387, 0.0, 10.000961, 9.998435 
3.4506813e+2, 3.0483833e+2, 51969.45, -137917.22, 764.8772, -0.10624591, -0.38200483, 51972.53, 51972.53, 0.0, 10.00106, 9.998542 
3.4507522e+2, 3.1483746e+2, 131669.4, -78478.016, -39808.15, -0.0377942, -0.32655668, 138957.48, 138957.48, 0.0, 10.001517, 9.998729 
3.5497233e+2, 1.2485209e+2, -1742908.9, -1738400.8, 15267.619, 0.03818662, -0.37908074, -1725221.8, -8808.435, 0.00005843651, 9.99985, 9.99991 
3.5497773e+2, 1.3485229e+2, -1656426.0, -1633695.5, -44102.324, 0.025272135, -0.36089268, -1599517.5, 18893.725, 0.000025162195, 9.999719, 10.000021 
3.5498396e+2, 1.4485173e+2, -1586786.5, -1603878.1, -40707.074, 0.09654291, -0.39488876, -1553737.9, -33319.855, 0.0000057861466, 9.99976, 9.99953 
3.5498947e+2, 1.5485191e+2, -1456421.8, -1493152.9, -47783.54, 0.0825245, -0.32952887, -1423595.9, -1177.1918, 0.00000020730299, 9.999995, 9.999503 
3.549948e+2, 1.6485173e+2, -1347227.9, -1388844.1, -54484.023, 0.06666137, -0.29754677, -1309713.8, 14708.54, 0.0, 10.000069, 9.999511 
3.5499996e+2, 1.7485118e+2, -1262248.3, -1297004.0, -46298.758, 0.035387143, -0.30648175, -1230173.5, -3744.9358, 0.0, 9.999978, 9.999513 
3.5500512e+2, 1.8485056e+2, -1174730.6, -1234741.5, -52784.953, 0.025340218, -0.30403787, -1144018.9, -15583.842, 0.0, 10.000038, 9.999239 
3.5501048e+2, 1.9484992e+2, -1044263.6, -1121256.6, -52514.598, 0.04356743, -0.29391855, -1017646.7, 12794.566, 0.0, 10.000261, 9.999237 
3.5501558e+2, 2.0484896e+2, -968224.1, -1103703.8, -58987.8, 0.045101255, -0.28295937, -946140.56, -13689.064, 0.0, 10.000411, 9.998613 
3.550204e+2, 2.1484765e+2, -860813.2, -1002307.56, -64194.133, 0.02694644, -0.2763884, -836030.0, -1564.4553, 0.0, 10.00048, 9.998603 
3.5502532e+2, 2.2484626e+2, -748841.7, -902477.7, -54865.066, 0.006823873, -0.27293992, -731260.6, 5219.03, 0.0, 10.000597, 9.998559 
3.550303e+2, 2.348448e+2, -626356.7, -792720.56, -41337.414, -0.014490467, -0.27671245, -616651.5, 21841.703, 0.0, 10.000765, 9.998559 
3.550355e+2, 2.448431e+2, -553868.3, -767703.2, -33410.953, -0.022076173, -0.27603057, -548769.56, -8259.352, 0.0, 10.000852, 9.998016 
3.5504103e+2, 2.5484115e+2, -455523.4, -669337.8, -46405.46, -0.015831828, -0.27435884, -445886.13, -3355.9106, 0.0, 10.000854, 9.998017 
3.550465e+2, 2.6483935e+2, -307889.97, -495283.88, -35090.86, -0.0265203, -0.27734408, -301534.5, 43012.75, 0.0, 10.000971, 9.998483 
3.5505196e+2, 2.748377e+2, -174318.22, -379063.56, -20295.188, -0.05326772, -0.29335248, -172325.88, 74235.18, 0.0, 10.00121, 9.998492 
3.5505778e+2, 2.8483585e+2, -98635.22, -327336.28, -23187.398, -0.041165937, -0.3106543, -96307.99, 52269.652, 0.0, 10.00121, 9.998176 
3.5506386e+2, 2.9483393e+2, -37841.82, -248648.86, -28296.957, 0.005634392, -0.32436407, -34109.555, 16486.223, 0.0, 10.000961, 9.998162 
3.5506973e+2, 3.0483222e+2, 68474.36, -103627.47, 17331.22, -0.048836913, -0.33890384, 70202.32, 70202.32, 0.0, 10.00106, 9.998777 
3.550762e+2, 3.148311e+2, 142104.89, -55733.152, -24173.283, -0.094192475, -0.33243805, 145015.73, 145015.73, 0.0, 10.001512, 9.998888 
3.6497262e+2, 1.2484556e+2, -1715300.4, -1732056.1, 29140.299, 0.07406233, -0.36850545, -1693357.5, 23119.873, 0.000055122826, 10.00007, 9.999847 
3.649774e+2, 1.3484551e+2, -1641335.9, -1629131.0, -51290.26, 0.014095079, -0.37313074, -1583581.4, 34896.266, 0.000023501116, 9.999834, 9.999995 
3.6498344e+2, 1.4484495e+2, -1586786.0, -1607140.5, -33783.19, 0.06880908, -0.40310767, -1561680.4, -41195.87, 0.00000526637, 9.999774, 9.9995 
3.6498934e+2, 1.5484539e+2, -1471977.0, -1503754.5, -28034.73, 0.077322416, -0.30954, -1455641.5, -33158.074, 0.00000017249042, 9.999901, 9.9994755 
3.6499485e+2, 1.648452e+2, -1357305.5, -1383203.5, -41313.227, 0.06798811, -0.28172067, -1326959.5, -2472.5356, 0.0, 9.999953, 9.999605 
3.6499983e+2, 1.7484435e+2, -1261779.4, -1285854.1, -43344.6, 0.024972321, -0.32931247, -1228831.8, -2336.8699, 0.0, 9.999934, 9.99961 
3.6500508e+2, 1.8484378e+2, -1180014.3, -1243437.8, -46988.24, 0.013796852, -0.32549787, -1155038.0, -26537.0, 0.0, 10.000028, 9.999184 
3.6501068e+2, 1.9484353e+2, -1051665.5, -1131315.5, -52028.52, 0.04166028, -0.27117318, -1025969.5, 4535.3135, 0.0, 10.000237, 9.99918 
3.6501595e+2, 2.0484263e+2, -966738.44, -1096006.8, -58447.887, 0.0466281, -0.2544264, -944230.6, -11715.899, 0.0, 10.00039, 9.998676 
3.6502087e+2, 2.1484102e+2, -855581.1, -992180.7, -48016.125, 0.025383132, -0.28334403, -840391.94, -5861.3037, 0.0, 10.0004835, 9.998672 
3.6502585e+2, 2.2483957e+2, -757651.7, -911630.8, -43217.37, 0.0039978935, -0.2865102, -746351.2, -9806.067, 0.0, 10.000558, 9.998515 
3.6503094e+2, 2.3483832e+2, -652121.75, -810373.56, -59176.383, -0.016424049, -0.2656907, -632441.0, 6116.5474, 0.0, 10.000611, 9.998512 
3.6503634e+2, 2.4483672e+2, -571048.3, -770943.2, -51970.406, -0.016860034, -0.25339404, -558344.0, -17770.117, 0.0, 10.000712, 9.998061 
3.6504206e+2, 2.548348e+2, -450323.53, -661722.75, -34254.42, 0.002766739, -0.25417283, -444911.63, -2317.905, 0.0, 10.000867, 9.998063 
3.6504757e+2, 2.64833e+2, -311821.6, -488428.88, -18042.504, -0.012583426, -0.26341504, -309997.2, 34613.184, 0.0, 10.000905, 9.998562 
3.6505288e+2, 2.7483132e+2, -223794.03, -393748.3, -26073.281, -0.06338107, -0.29000786, -219884.0, 26739.607, 0.0, 10.000831, 9.998574 
3.650587e+2, 2.8482944e+2, -141792.06, -355843.3, -34185.68, -0.05591421, -0.31295273, -136464.92, 12175.754, 0.0, 10.000947, 9.998107 
3.6506498e+2, 2.9482746e+2, -823.1841, -239497.45, -24018.98, 0.007898642, -0.3261549, 1569.9697, 52230.297, 0.0, 10.001252, 9.998086 
3.6507103e+2, 3.048261e+2, 101740.49, -75927.07, 25320.016, -0.0350525, -0.30583233, 105278.484, 105278.484, 0.0, 10.001237, 9.998882 
3.6507738e+2, 3.1482458e+2, 61730.773, -79354.33, -27712.719, -0.09520817, -0.3493347, 66979.03, 66979.03, 0.0, 10.000894, 9.999024 
3.7497297e+2, 1.2483908e+2, -1730156.1, -1762337.8, 31030.713, 0.10000267, -0.36563396, -1711292.4, 5248.58, 0.00005010573, 10.000068, 9.99964 
3.749773e+2, 1.3483901e+2, -1653880.4, -1654561.8, -60146.465, 0.021747408, -0.35456505, -1594073.6, 24468.443, 0.000020857056, 9.999831, 9.999822 
3.7498307e+2, 1.4483841e+2, -1577380.8, -1587322.3, -29196.086, 0.05249995, -0.3882395, -1552735.4, -32185.883, 0.000004428325, 9.999772, 9.999638 
3.7498888e+2, 1.5483871e+2, -1461710.6, -1482816.5, -23022.324, 0.042418275, -0.3221995, -1446937.9, -24388.924, 0.00000011962439, 9.999902, 9.999619 
3.7499458e+2, 1.6483854e+2, -1359342.9, -1387838.1, -42117.297, 0.044892825, -0.29884252, -1329128.6, -4576.7314, 0.0, 9.999954, 9.999574 
3.7499994e+2, 1.7483783e+2, -1263891.3, -1290575.6, -43828.86, 0.04422582, -0.32837373, -1231418.8, -4860.4736, 0.0, 9.999935, 9.9995775 
3.7500528e+2, 1.8483722e+2, -1188718.3, -1261666.3, -39090.54, 0.032435734, -0.32100797, -1171728.0, -43162.734, 0.0, 10.000028, 9.999059 
3.7501064e+2, 1.9483674e+2, -1060619.8, -1150023.3, -43884.81, 0.014333998, -0.27716437, -1042678.75, -12106.486, 0.0, 10.000237, 9.999051 
3.7501603e+2, 2.0483586e+2, -947932.9, -1056850.4, -54823.332, 0.012436947, -0.26299253, -925117.1, 7464.2974, 0.0, 10.00039, 9.998945 
3.7502137e+2, 2.148346e+2, -836183.25, -951760.25, -44299.105, 0.026065309, -0.28707698, -821157.44, 13435.136, 0.0, 10.000483, 9.998949 
3.7502655e+2, 2.2483315e+2, -787286.25, -973036.6, -41294.895, 0.017604997, -0.2841059, -778519.6, -41912.07, 0.0, 10.000557, 9.998095 
3.7503162e+2, 2.3483154e+2, -682261.56, -872928.7, -57054.668, -0.013036532, -0.2557884, -666492.8, -27866.777, 0.0, 10.00061, 9.998083 
3.7503707e+2, 2.4482995e+2, -540149.5, -706686.5, -46137.543, -0.016497595, -0.24176715, -528221.8, 12420.651, 0.0, 10.000711, 9.998502 
3.7504297e+2, 2.5482845e+2, -418550.2, -595862.2, -28489.797, 0.007918532, -0.24697134, -414085.0, 28571.037, 0.0, 10.000867, 9.998515 
3.750486e+2, 2.6482674e+2, -326680.5, -519220.2, -21108.67, 0.002103815, -0.25957844, -324393.47, 20277.658, 0.0, 10.000905, 9.99835 
3.7505397e+2, 2.7482483e+2, -238983.06, -424692.84, -28840.61, -0.03471561, -0.28842118, -234607.23, 12080.391, 0.0, 10.000829, 9.9983635 
3.7505972e+2, 2.8482288e+2, -132890.39, -336550.4, -23151.209, -0.047696333, -0.31442797, -130291.82, 18413.951, 0.0, 10.000943, 9.998241 
3.7506577e+2, 2.9482096e+2, 7639.5796, -221326.16, -12716.51, -0.03998883, -0.3317138, 8343.676, 59068.027, 0.0, 10.001249, 9.998212 
3.7507197e+2, 3.0481997e+2, 99663.4, -79503.61, 12627.417, -0.06416082, -0.28156233, 100548.984, 100548.984, 0.0, 10.001234, 9.998859 
3.7507877e+2, 3.148179e+2, 69477.266, -62500.78, -42095.395, -0.04620814, -0.3784125, 81760.68, 81760.68, 0.0, 10.00089, 9.999142 
3.8497323e+2, 1.24832675e+2, -1716081.4, -1762244.1, 40007.26, 0.11522138, -0.36350355, -1692974.8, 23629.607, 0.00004363311, 10.000194, 9.99958 
3.8497743e+2, 1.3483271e+2, -1625031.5, -1642582.9, -51339.156, 0.040627226, -0.34179893, -1581723.4, 36881.39, 0.000017489165, 10.000037, 9.999805 
3.8498288e+2, 1.448321e+2, -1552991.8, -1568895.0, -8731.118, 0.052504078, -0.37475386, -1549134.1, -28522.408, 0.0000034194288, 9.999909, 9.999698 
3.849885e+2, 1.5483232e+2, -1468966.1, -1479539.0, -8775.534, 0.016727423, -0.32527748, -1464007.8, -41396.18, 0.00000006772674, 9.999823, 9.9996805 
3.8499427e+2, 1.6483206e+2, -1375332.1, -1410072.5, -30581.703, 0.020632576, -0.3050627, -1357531.8, -32916.754, 0.0, 9.999907, 9.999444 
3.8500002e+2, 1.7483136e+2, -1237090.0, -1292200.0, -39765.29, 0.048425805, -0.32278305, -1216265.8, 10356.472, 0.0, 10.000181, 9.999448 
3.8500553e+2, 1.8483071e+2, -1149763.8, -1240308.3, -35414.254, 0.041349106, -0.3136543, -1137557.8, -8928.111, 0.0, 10.000283, 9.999083 
3.8501078e+2, 1.9483015e+2, -1063398.4, -1148265.1, -28766.95, 0.0033019776, -0.27943704, -1054566.5, -23929.43, 0.0, 10.000206, 9.999079 
3.8501614e+2, 2.0482928e+2, -964215.9, -1064448.9, -39862.777, -0.007192595, -0.2680623, -950295.7, -17649.49, 0.0, 10.000277, 9.998947 
3.850217e+2, 2.1482806e+2, -833216.25, -950176.6, -50187.023, 0.009971938, -0.2861393, -814633.7, 20022.99, 0.0, 10.000502, 9.998951 
3.8502708e+2, 2.2482663e+2, -775913.2, -972042.9, -47006.766, 0.008565495, -0.28008008, -765229.0, -28557.398, 0.0, 10.000654, 9.9980545 
3.850323e+2, 2.3482497e+2, -667169.3, -870088.0, -33768.125, -0.0114354845, -0.25250027, -661697.44, -23006.523, 0.0, 10.000733, 9.998043 
3.8503787e+2, 2.4482337e+2, -526670.75, -694129.5, -21522.27, -0.010677713, -0.24090345, -523948.9, 16758.568, 0.0, 10.000778, 9.998557 
3.8504383e+2, 2.5482187e+2, -426175.53, -593221.1, -33914.273, 0.011205875, -0.25034687, -419552.7, 23167.885, 0.0, 10.000788, 9.998571 
3.8504952e+2, 2.648202e+2, -334664.47, -528202.94, -36697.727, 0.0046558287, -0.26173186, -327939.72, 16795.756, 0.0, 10.000873, 9.998304 
3.8505498e+2, 2.748183e+2, -213320.14, -417763.94, -31647.496, -0.030992525, -0.28286213, -208533.25, 38218.805, 0.0, 10.001027, 9.998316 
3.8506064e+2, 2.8481635e+2, -131365.9, -324023.5, -23812.254, -0.048011456, -0.31009477, -128466.375, 20303.738, 0.0, 10.000901, 9.998347 
3.8506654e+2, 2.9481447e+2, -95152.25, -259506.58, -16164.684, -0.049095165, -0.33906952, -93577.49, -42788.93, 0.0, 10.000493, 9.998314 
3.8507295e+2, 3.048137e+2, -9625.478, -145682.9, 10405.135, -0.057116218, -0.25990018, -8834.334, -8834.334, 0.0, 10.000541, 9.998738 
3.8508e+2, 3.1481138e+2, 102398.445, -34993.285, -52795.066, -0.019107267, -0.37733465, 120342.3, 120342.3, 0.000000000002787424, 10.001066, 9.999246 
3.949735e+2, 1.2482632e+2, -1710302.4, -1749853.8, 44935.89, 0.11902312, -0.3626282, -1680983.1, 35684.438, 0.0000362571, 10.000191, 9.999667 
3.9497775e+2, 1.3482654e+2, -1614975.0, -1622014.0, -57345.41, 0.06941006, -0.33457866, -1561041.3, 57624.61, 0.000013744367, 10.000037, 9.999947 
3.9498293e+2, 1.4482607e+2, -1554411.8, -1571720.5, -12316.564, 0.067500345, -0.3625619, -1548013.0, -27341.795, 0.0000023661473, 9.999909, 9.999679 
3.9498815e+2, 1.548262e+2, -1470556.4, -1482807.1, -12029.538, -0.00021195096, -0.31943524, -1463182.5, -40511.05, 0.000000028035489, 9.999822, 9.999658 
3.949939e+2, 1.6482581e+2, -1391389.4, -1443359.9, -20580.297, -0.005356258, -0.30051285, -1384226.8, -59550.215, 0.0, 9.999906, 9.999216 
3.950001e+2, 1.7482492e+2, -1253169.4, -1325632.9, -29291.328, 0.03707209, -0.31237817, -1242810.1, -16123.655, 0.0, 10.000181, 9.999219 
3.9500576e+2, 1.8482423e+2, -1137787.0, -1215392.6, -38236.28, 0.039924838, -0.30341744, -1122113.5, 6580.7944, 0.0, 10.000283, 9.999253 
3.95011e+2, 1.9482377e+2, -1050589.4, -1121721.6, -31470.545, 0.0076739774, -0.27816892, -1038665.06, -7965.645, 0.0, 10.000205, 9.999262 
3.950164e+2, 2.0482282e+2, -982752.1, -1102741.3, -31535.725, -0.013044644, -0.26925242, -974968.75, -42259.7, 0.0, 10.000277, 9.998685 
3.9502186e+2, 2.1482141e+2, -852322.56, -989673.06, -41442.098, -0.023445316, -0.2811414, -840787.25, -6064.278, 0.0, 10.000502, 9.99868 
3.950274e+2, 2.2482e+2, -752766.75, -923624.94, -43840.86, -0.023778439, -0.27508408, -742174.25, -5436.7417, 0.0, 10.000652, 9.998387 
3.9503303e+2, 2.3481862e+2, -642969.94, -819901.44, -30711.752, -0.012310372, -0.25554442, -637790.56, 961.6909, 0.0, 10.000733, 9.998388 
3.9503875e+2, 2.4481696e+2, -549675.75, -741721.1, -21323.047, -0.00006951733, -0.25042218, -547336.7, -6567.6323, 0.0, 10.000777, 9.99823 
3.9504462e+2, 2.5481507e+2, -450060.47, -641999.7, -33326.633, 0.011862322, -0.2645474, -444438.6, -1651.1805, 0.0, 10.000785, 9.998239 
3.950503e+2, 2.6481336e+2, -326813.84, -510911.75, -30974.89, -0.0055411714, -0.2700393, -321741.97, 23061.488, 0.0, 10.000868, 9.9984255 
3.9505574e+2, 2.7481177e+2, -204677.98, -399901.78, -25957.889, -0.052504644, -0.27298304, -201285.45, 45531.38, 0.0, 10.001027, 9.998438 
3.9506143e+2, 2.8480995e+2, -126075.26, -313116.63, -39042.91, -0.057608288, -0.29987612, -118252.625, 30581.027, 0.0, 10.000902, 9.998423 
3.950673e+2, 2.9480788e+2, -90274.34, -248611.42, -31490.76, -0.021968864, -0.34881783, -84241.2, -33388.168, 0.0, 10.00049, 9.99839 
3.950739e+2, 3.0480736e+2, -25388.309, -177135.83, 29188.29, -0.016009076, -0.24121718, -19967.643, -19967.643, 0.0, 10.000536, 9.998525 
3.950811e+2, 3.1480494e+2, 107623.62, -23070.43, -32884.703, -0.015430747, -0.34687307, 115431.48, 115431.48, 0.000000001718879, 10.001062, 9.99933 
4.0497383e+2, 1.2482019e+2, -1662800.3, -1739527.8, 63631.96, 0.11903051, -0.35825843, -1626861.9, 89866.17, 0.000028702449, 10.000572, 9.999554 
4.049779e+2, 1.3482034e+2, -1582606.0, -1613820.3, -65968.38, 0.06714799, -0.33033517, -1530423.8, 88303.836, 0.000010028613, 10.000292, 9.999882 
4.0498286e+2, 1.448199e+2, -1513496.3, -1554984.0, -20205.945, 0.055719715, -0.35170493, -1505281.8, 15451.148, 0.0000013962007, 10.000202, 9.999653 
4.049882e+2, 1.5482004e+2, -1399573.6, -1451127.4, -20685.875, -0.0045347726, -0.30345967, -1392299.8, 30432.805, 0.000000006286357, 10.00032, 9.999636 
4.0499395e+2, 1.6481961e+2, -1340161.9, -1424255.1, -21534.273, -0.010047235, -0.28494096, -1334968.3, -10230.345, 0.0, 10.000282, 9.999166 
4.050001e+2, 1.7481862e+2, -1270991.9, -1339993.0, -16887.4, 0.022197835, -0.30308428, -1267080.6, -40331.477, 0.0, 10.000083, 9.999167 
4.0500587e+2, 1.8481785e+2, -1166282.5, -1239201.6, -25511.705, 0.028620955, -0.29562756, -1158243.3, -29485.531, 0.0, 10.000132, 9.999164 
4.0501142e+2, 1.9481733e+2, -1022323.44, -1118083.9, -39454.133, 0.014968149, -0.26637444, -1008162.2, 22601.203, 0.0, 10.000443, 9.999172 
4.0501687e+2, 2.0481634e+2, -945226.44, -1087731.1, -43546.29, -0.0035724505, -0.256048, -932973.25, -199.6611, 0.0, 10.000547, 9.998657 
4.0502223e+2, 2.148149e+2, -864531.6, -998270.94, -35483.973, -0.029841235, -0.27002615, -855700.1, -20911.984, 0.0, 10.000429, 9.998655 
4.050279e+2, 2.2481348e+2, -769290.6, -917251.6, -32044.035, -0.030692589, -0.2679187, -762648.94, -25846.723, 0.0, 10.000478, 9.998515 
4.0503383e+2, 2.3481217e+2, -637948.7, -802512.25, -34934.844, -0.0032089532, -0.25416186, -630839.56, 7975.8193, 0.0, 10.000704, 9.998521 
4.050396e+2, 2.4481052e+2, -549273.75, -749286.75, -29787.64, 0.0067287553, -0.25279894, -544931.8, -4099.892, 0.0, 10.0008135, 9.998161 
4.0504527e+2, 2.5480855e+2, -453626.75, -651716.8, -22329.818, -0.0028270546, -0.2683649, -451140.8, -8289.34, 0.0, 10.000793, 9.998168 
4.0505096e+2, 2.6480687e+2, -340506.88, -512480.34, -10255.429, -0.021203244, -0.26946977, -339897.47, 4969.9883, 0.0, 10.0007515, 9.998471 
4.050567e+2, 2.7480543e+2, -248670.06, -416067.25, -11478.818, -0.047678355, -0.26173106, -247886.6, -1007.1646, 0.0, 10.000703, 9.998484 
4.0506235e+2, 2.8480357e+2, -147248.39, -328978.53, -37827.902, -0.05154872, -0.28996342, -139688.81, 9207.639, 0.0, 10.000781, 9.998371 
4.050679e+2, 2.948013e+2, -24113.135, -222509.44, -39958.527, -0.033845168, -0.35473073, -16367.577, 34550.28, 0.0, 10.000969, 9.998339 
4.0507454e+2, 3.0480087e+2, 4764.911, -176535.72, 24292.125, -0.015738534, -0.23341578, 7963.341, 7963.341, 0.0, 10.000804, 9.9984 
4.0508196e+2, 3.1479853e+2, 11506.03, -45490.188, -31790.902, 0.001714042, -0.31357878, 25702.227, 25702.227, 0.00000001196501, 10.000299, 9.999542 
4.1497436e+2, 1.248143e+2, -1685546.8, -1785977.6, 64556.32, 0.11293837, -0.3509383, -1653975.1, 62810.555, 0.000021697306, 10.00057, 9.999236 
4.1497785e+2, 1.3481411e+2, -1601686.9, -1654124.5, -76586.195, 0.033353362, -0.33025414, -1546955.9, 71834.12, 0.000006740833, 10.000294, 9.999604 
4.149827e+2, 1.448136e+2, -1516156.5, -1560374.9, -16104.318, 0.01594534, -0.34259295, -1510913.1, 9883.655, 0.0000006540361, 10.000201, 9.999616 
4.1498858e+2, 1.5481389e+2, -1401320.3, -1454967.1, -16170.907, 0.0032200678, -0.27665445, -1396822.9, 25971.98, 0.0000000002364484, 10.00032, 9.999609 
4.149944e+2, 1.648135e+2, -1331560.5, -1406081.5, -29123.668, 0.006081244, -0.25802362, -1321529.0, 3270.1938, 0.0, 10.00028, 9.999291 
4.1499996e+2, 1.7481245e+2, -1262146.4, -1321405.5, -24200.018, 0.0030315788, -0.29540014, -1253519.5, -26709.463, 0.0, 10.000082, 9.999295 
4.1500577e+2, 1.8481155e+2, -1191297.6, -1290788.9, -14043.16, 0.0062477677, -0.2904984, -1189353.5, -60533.313, 0.0, 10.00013, 9.99881 
4.1501197e+2, 1.9481084e+2, -1047978.06, -1171243.1, -27380.547, 0.024642099, -0.24426346, -1042169.75, -11340.6045, 0.0, 10.0004425, 9.998807 
4.1501766e+2, 2.0480981e+2, -930916.06, -1057930.3, -47712.38, 0.020638345, -0.22895288, -914990.0, 17849.91, 0.0, 10.000547, 9.998862 
4.1502288e+2, 2.1480848e+2, -849247.8, -966573.9, -39677.363, -0.010362332, -0.2526546, -837089.6, -2237.3406, 0.0, 10.000429, 9.998873 
4.1502854e+2, 2.2480707e+2, -774511.0, -927935.0, -23817.465, -0.013371742, -0.25836873, -770898.6, -34032.797, 0.0, 10.000478, 9.998442 
4.150347e+2, 2.3480563e+2, -643611.06, -813816.6, -26181.428, 0.015040265, -0.24898784, -639674.8, -794.5269, 0.0, 10.000702, 9.998445 
4.1504046e+2, 2.4480401e+2, -536672.1, -722415.2, -30355.531, 0.009079572, -0.24867089, -531837.06, 9059.033, 0.0, 10.00081, 9.998347 
4.1504574e+2, 2.5480226e+2, -440332.78, -624288.0, -23202.396, -0.033747513, -0.26198155, -437451.4, 5461.432, 0.0, 10.000794, 9.998356 
4.150515e+2, 2.6480067e+2, -342623.44, -516881.1, -12421.243, -0.04340412, -0.26022762, -341742.47, 3185.0974, 0.0, 10.0007515, 9.998441 
4.150577e+2, 2.7479926e+2, -251861.36, -421172.6, -12960.853, -0.017980753, -0.24945696, -250874.95, -3934.9312, 0.0, 10.000697, 9.998451 
4.1506332e+2, 2.8479728e+2, -160316.02, -354154.44, -31133.537, -0.030789379, -0.28035545, -155438.22, -6479.6157, 0.0, 10.000772, 9.998202 
4.1506836e+2, 2.9479474e+2, -36296.832, -247401.67, -33573.04, -0.084939204, -0.35668534, -31086.16, 19896.848, 0.0, 10.000968, 9.998169 
4.150749e+2, 3.0479416e+2, 1583.912, -183227.3, 5701.382, -0.056768052, -0.236075, 1759.6312, 1759.6312, 0.0, 10.000804, 9.998353 
4.150825e+2, 3.1479213e+2, 33524.676, 1394.2455, -51065.703, 0.028852055, -0.28368866, 70992.6, 70992.6, 0.000000036873733, 10.000295, 9.9998665 
4.2497495e+2, 1.2480829e+2, -1653708.1, -1785910.5, 64983.793, 0.10134749, -0.35051784, -1627114.9, 89730.67, 0.000015823704, 10.000857, 9.999097 
4.2497817e+2, 1.3480823e+2, -1548384.6, -1638297.4, -75184.69, 0.01765917, -0.3081024, -1505740.8, 113108.34, 0.0000041887733, 10.000705, 9.999514 
4.249828e+2, 1.4480768e+2, -1473297.3, -1548342.0, -2087.3975, -0.012520397, -0.31501657, -1473239.3, 47616.97, 0.00000021832761, 10.000534, 9.999538 
4.249888e+2, 1.5480763e+2, -1404523.9, -1465148.8, -6012.156, -0.009279628, -0.27417898, -1403933.4, 18924.004, 0.0, 10.000338, 9.999531 
4.2499468e+2, 1.6480719e+2, -1317971.4, -1402910.1, -22677.072, 0.0021442089, -0.25730357, -1312296.1, 12566.204, 0.0, 10.000389, 9.999261 
4.250003e+2, 1.7480636e+2, -1171863.5, -1280998.4, -30004.488, -0.0028018344, -0.27123797, -1164158.4, 62712.92, 0.0, 10.000716, 9.999267 
4.2500612e+2, 1.8480542e+2, -1109856.3, -1260655.5, -18293.664, 0.0003757302, -0.2633121, -1107668.8, 21212.8, 0.0, 10.00073, 9.998728 
4.2501232e+2, 1.9480443e+2, -1059934.5, -1186237.3, -10749.499, 0.021307318, -0.23611555, -1059026.1, -28133.135, 0.0, 10.0004015, 9.998724 
4.2501813e+2, 2.0480333e+2, -957323.44, -1072273.4, -24531.322, 0.020400649, -0.22405691, -952307.2, -19402.596, 0.0, 10.000374, 9.998847 
4.2502347e+2, 2.1480212e+2, -815084.0, -951404.0, -33864.793, -0.007189355, -0.23458986, -807134.8, 27781.14, 0.0, 10.00067, 9.99886 
4.250292e+2, 2.248007e+2, -732336.75, -905798.75, -25118.732, -0.011553, -0.23962513, -728772.56, 8156.777, 0.0, 10.000759, 9.998458 
4.250353e+2, 2.3479916e+2, -654230.06, -816922.9, -20893.68, 0.010781439, -0.24184917, -651589.7, -12645.276, 0.0, 10.000621, 9.998463 
4.2504114e+2, 2.4479756e+2, -558106.7, -722260.2, -23706.094, 0.006344022, -0.2463522, -554751.75, -13792.045, 0.0, 10.000618, 9.998441 
4.250466e+2, 2.547959e+2, -437477.25, -612411.06, -23939.904, -0.02685087, -0.25850746, -434260.22, 8714.76, 0.0, 10.000769, 9.998449 
4.2505231e+2, 2.6479432e+2, -345719.63, -526744.6, -24935.582, -0.03587147, -0.25721338, -342347.66, 2642.0232, 0.0, 10.000767, 9.998365 
4.2505828e+2, 2.7479282e+2, -273115.25, -439867.2, -28923.125, -0.019366432, -0.24722849, -268241.0, -21237.549, 0.0, 10.0005865, 9.998376 
4.2506388e+2, 2.8479084e+2, -196678.19, -362111.38, -31228.375, -0.038201366, -0.27782798, -190979.6, -41957.67, 0.0, 10.000482, 9.998288 
4.2506897e+2, 2.9478836e+2, -102116.88, -268968.44, -15262.361, -0.09427097, -0.3567985, -100732.28, -49687.234, 0.0, 10.000471, 9.99826 
4.2507556e+2, 3.0478758e+2, -64198.457, -236460.95, 15686.357, -0.056662407, -0.25369635, -62781.695, -62781.695, 0.0, 10.000444, 9.998161 
4.250828e+2, 3.147856e+2, 57046.49, 26044.932, -51915.56, 0.020843247, -0.27168864, 95725.96, 95725.96, 0.00000007454206, 10.000397, 9.999988 
4.3497562e+2, 1.2480217e+2, -1651491.6, -1781923.6, 70579.62, 0.08195749, -0.35704264, -1620610.8, 96296.65, 0.0000113764345, 10.000859, 9.999124 
4.349789e+2, 1.348027e+2, -1541432.0, -1625265.6, -80571.94, 0.018833198, -0.2630445, -1492525.6, 126378.98, 0.0000025044064, 10.000709, 9.999602 
4.3498313e+2, 1.4480215e+2, -1481770.5, -1565518.0, -9468.506, -0.03052512, -0.26857284, -1480713.4, 40197.945, 0.000000047491298, 10.000533, 9.999421 
4.349888e+2, 1.548013e+2, -1413496.8, -1483679.1, -13183.92, -0.042937662, -0.29730767, -1411101.9, 11818.346, 0.0, 10.000337, 9.999404 
4.3499482e+2, 1.6480066e+2, -1331633.4, -1430814.4, -10613.944, -0.023411129, -0.28415567, -1330510.3, -5582.795, 0.0, 10.000387, 9.99907 
4.350011e+2, 1.7480029e+2, -1185321.4, -1308906.9, -17270.44, 0.0037462593, -0.23045723, -1182953.4, 43979.5, 0.0, 10.000716, 9.999076 
4.3500698e+2, 1.8479945e+2, -1096914.4, -1233287.4, -30333.477, 0.01039807, -0.21377474, -1090471.8, 38470.277, 0.0, 10.000728, 9.998916 
4.3501258e+2, 1.9479811e+2, -1046229.6, -1157548.5, -22974.02, 0.004325951, -0.24159347, -1041674.6, -10719.567, 0.0, 10.000401, 9.99892 
4.3501824e+2, 2.0479688e+2, -973765.8, -1106276.1, -13714.757, -0.0050045154, -0.24122196, -972361.25, -39393.652, 0.0, 10.000373, 9.998613 
4.35024e+2, 2.1479577e+2, -832137.75, -986618.0, -22295.48, -0.02102548, -0.21632425, -828984.3, 5994.936, 0.0, 10.0006695, 9.998619 
4.3502977e+2, 2.2479439e+2, -725298.4, -891017.0, -29975.816, -0.025768846, -0.21204327, -720042.94, 16949.87, 0.0, 10.000758, 9.99856 
4.3503568e+2, 2.3479277e+2, -646550.56, -801301.5, -26072.178, -0.01669297, -0.23283654, -642276.06, -3268.219, 0.0, 10.000622, 9.9985695 
4.3504167e+2, 2.4479114e+2, -557959.44, -721885.8, -18395.79, -0.0024811686, -0.24585743, -555920.44, -14897.488, 0.0, 10.000617, 9.998444 
4.350478e+2, 2.547895e+2, -437941.6, -612363.6, -18026.402, 0.016349059, -0.25781336, -436098.06, 6939.926, 0.0, 10.000764, 9.998451 
4.3505344e+2, 2.6478782e+2, -354646.5, -544239.56, -31473.656, 0.00046290937, -0.26014158, -349558.22, -4504.4663, 0.0, 10.000762, 9.998248 
4.3505856e+2, 2.7478614e+2, -281179.28, -456874.38, -35865.434, -0.052457333, -0.2548338, -274139.94, -27070.186, 0.0, 10.000587, 9.998259 
4.35064e+2, 2.847843e+2, -173638.39, -314031.78, -31871.42, -0.075055644, -0.28214425, -166741.88, -17655.404, 0.0, 10.000481, 9.998619 
4.3506977e+2, 2.9478222e+2, -79017.2, -219410.0, -15653.816, -0.064055145, -0.3551575, -77292.98, -26188.791, 0.0, 10.000464, 9.998603 
4.350764e+2, 3.047811e+2, -88261.29, -284457.38, 13457.988, -0.016975602, -0.2853094, -87342.445, -87342.445, 0.0, 10.000436, 9.997836 
4.3508273e+2, 3.14779e+2, 51771.215, 15700.971, -51091.547, -0.023994543, -0.284798, 87917.38, 87917.38, 0.0000001100893, 10.000395, 9.999917 
4.4497633e+2, 1.2479647e+2, -1593173.5, -1755053.4, 79185.57, 0.04542606, -0.3308356, -1560880.8, 156084.67, 0.000008277144, 10.001266, 9.999113 
4.449797e+2, 1.3479689e+2, -1505457.8, -1603402.3, -86053.086, 0.018898083, -0.2512677, -1455417.8, 163545.11, 0.0000015575915, 10.000936, 9.999643 
4.449837e+2, 1.4479634e+2, -1452667.5, -1561554.4, -10089.655, -0.037412725, -0.25587252, -1451740.4, 69228.94, 0.000000013935479, 10.000776, 9.9993305 
4.4498926e+2, 1.5479538e+2, -1354484.8, -1465627.1, -12073.535, -0.051577996, -0.2854981, -1353188.3, 69791.03, 0.0, 10.000788, 9.9993105 
4.449953e+2, 1.6479465e+2, -1287313.3, -1419783.4, 2978.2751, -0.031392444, -0.2725658, -1287246.3, 37741.344, 0.0, 10.000736, 9.998977 
4.4500172e+2, 1.7479418e+2, -1205836.4, -1329041.9, 4177.8066, -0.0017212627, -0.21826464, -1205694.9, 21298.893, 0.0, 10.00062, 9.998983 
4.450076e+2, 1.8479328e+2, -1112575.3, -1240459.8, -19364.592, 0.0043807686, -0.20456994, -1109707.4, 19296.035, 0.0, 10.000619, 9.998919 
4.4501302e+2, 1.9479187e+2, -996210.6, -1132847.3, -26875.33, -0.0054249126, -0.23974448, -991114.56, 39901.902, 0.0, 10.000741, 9.998925 
4.450187e+2, 2.0479055e+2, -920354.8, -1089063.8, -10971.745, -0.014014071, -0.24437173, -919644.25, 13385.386, 0.0, 10.000776, 9.998537 
4.4502467e+2, 2.1478933e+2, -831289.06, -994809.6, -7464.805, -0.02429954, -0.22172387, -830949.0, 4093.696, 0.0, 10.000713, 9.998542 
4.450305e+2, 2.24788e+2, -724675.75, -884963.1, -15245.162, -0.026647864, -0.21275175, -723238.7, 13817.341, 0.0, 10.000738, 9.998611 
4.4503638e+2, 2.3478654e+2, -608181.7, -776887.75, -15587.743, -0.01907094, -0.22199193, -606753.5, 32315.71, 0.0, 10.00086, 9.998622 
4.4504237e+2, 2.4478492e+2, -535071.8, -713879.0, -13168.685, -0.0033405854, -0.23459473, -534107.2, 6976.8545, 0.0, 10.000788, 9.998416 
4.4504845e+2, 2.5478315e+2, -477556.13, -634051.75, -15265.414, 0.020352874, -0.25824007, -476080.97, -32980.51, 0.0, 10.000504, 9.998428 
4.4505405e+2, 2.6478142e+2, -403985.44, -561537.56, -21969.238, 0.004243406, -0.26696318, -400979.38, -55862.707, 0.0, 10.000395, 9.998306 
4.450591e+2, 2.7477983e+2, -292234.56, -455981.66, -13608.078, -0.05436771, -0.26052675, -291111.38, -43979.387, 0.0, 10.000485, 9.998315 
4.4506443e+2, 2.847781e+2, -180762.81, -317863.22, -17864.9, -0.075844556, -0.27864042, -178473.16, -29325.637, 0.0, 10.000432, 9.998616 
4.4507015e+2, 2.9477614e+2, -117088.54, -237217.11, -27874.803, -0.054886665, -0.33710185, -110935.586, -59771.8, 0.0, 10.0002, 9.998609 
4.450768e+2, 3.0477464e+2, -134544.73, -301633.78, 8130.127, -0.0025945802, -0.3117906, -134150.06, -134150.06, 0.00000000000009396187, 10.000095, 9.997882 
4.4508284e+2, 3.1477275e+2, 33771.645, 30782.355, -25933.688, -0.041983593, -0.29178393, 58253.723, 58253.723, 0.00000013361628, 10.000169, 10.00013 
4.54977e+2, 1.24791175e+2, -1596184.1, -1760730.5, 77768.3, -0.0103671765, -0.271644, -1565246.1, 151773.75, 0.0000061456926, 10.001263, 9.999075 
4.5498064e+2, 1.347908e+2, -1504647.8, -1602559.3, -97798.375, 0.016963415, -0.27464345, -1444236.3, 174787.88, 0.0000010596042, 10.000938, 9.999649 
4.5498452e+2, 1.447902e+2, -1457353.3, -1571571.9, -9508.004, -0.03458574, -0.2791066, -1456567.1, 64463.414, 0.000000007555667, 10.000777, 9.999262 
4.549902e+2, 1.5478987e+2, -1359033.5, -1475469.3, -11221.199, -0.03680373, -0.23801358, -1357961.9, 65072.96, 0.0, 10.000789, 9.999243 
4.5499614e+2, 1.6478916e+2, -1286653.5, -1418152.3, -1413.731, -0.022432521, -0.22139676, -1286638.3, 38404.508, 0.0, 10.000735, 9.998988 
4.5500213e+2, 1.7478803e+2, -1204955.3, -1327122.3, 161.08598, -0.019802386, -0.23465161, -1204955.1, 22099.12, 0.0, 10.00062, 9.998997 
4.5500797e+2, 1.8478687e+2, -1125696.3, -1267362.4, -14711.888, -0.018832305, -0.23652083, -1124184.5, 4881.2314, 0.0, 10.000617, 9.998734 
4.5501372e+2, 1.9478568e+2, -1009515.9, -1160198.4, -21913.012, -0.009125439, -0.23099156, -1006393.9, 24683.428, 0.0, 10.00074, 9.998738 
4.5501956e+2, 2.0478433e+2, -915014.3, -1077785.3, -13301.999, -0.007420574, -0.23367135, -913934.44, 19156.41, 0.0, 10.000776, 9.998614 
4.5502543e+2, 2.147828e+2, -825473.25, -982677.2, -9747.465, -0.017826574, -0.2500839, -824871.2, 10235.017, 0.0, 10.000712, 9.998625 
4.5503137e+2, 2.2478151e+2, -724695.0, -884912.2, -10877.128, -0.014960783, -0.24126202, -723959.94, 13159.079, 0.0, 10.000737, 9.998612 
4.5503744e+2, 2.3478048e+2, -608416.9, -777029.6, -10985.258, 0.0030108143, -0.20940638, -607704.2, 31424.512, 0.0, 10.000858, 9.998622 
4.5504323e+2, 2.4477892e+2, -539216.0, -722239.56, -23612.219, 0.0032985972, -0.21260387, -536218.8, 4924.339, 0.0, 10.000786, 9.99836 
4.5504862e+2, 2.5477684e+2, -481173.4, -641644.9, -26014.078, -0.015288824, -0.26017985, -477061.63, -33899.094, 0.0, 10.000504, 9.998376 
4.5505413e+2, 2.6477513e+2, -388257.94, -528817.75, -19110.111, -0.025038911, -0.2778553, -385706.1, -40527.54, 0.0, 10.000395, 9.998531 
4.5505983e+2, 2.747738e+2, -276837.47, -423371.9, -9989.24, -0.026621679, -0.26469088, -276159.66, -28969.2, 0.0, 10.000482, 9.998541 
4.550652e+2, 2.847722e+2, -204401.94, -365678.34, -26449.883, -0.04206372, -0.26736355, -200174.86, -50969.59, 0.0, 10.000427, 9.99829 
4.5507026e+2, 2.9477015e+2, -139575.16, -284020.53, -37206.668, -0.067447424, -0.30290976, -130554.68, -79330.77, 0.0, 10.000201, 9.998286 
4.5507678e+2, 3.047681e+2, -106690.55, -243300.61, 10372.585, -0.014257793, -0.33315736, -105907.46, -105907.46, 0.00000000000087855477, 10.000093, 9.998283 
4.5508307e+2, 3.1476673e+2, 66016.21, 100364.805, -19884.035, -0.03625863, -0.30335987, 109464.664, 109464.664, 0.00000014519496, 10.000158, 10.000612 
4.649782e+2, 1.2478583e+2, -1576842.0, -1760967.8, 92577.836, -0.029169146, -0.24146985, -1538343.6, 178730.03, 0.000004581255, 10.001439, 9.998988 
4.6498156e+2, 1.3478512e+2, -1485039.1, -1598904.1, -97358.805, 0.0070109665, -0.2732505, -1429188.4, 189892.55, 0.0000007444035, 10.001098, 9.999597 
4.6498516e+2, 1.4478448e+2, -1436517.5, -1573419.0, 1559.9338, -0.056889918, -0.27358836, -1436499.6, 84587.94, 0.0000000034677494, 10.000972, 9.999155 
4.649912e+2, 1.5478423e+2, -1326797.6, -1471895.4, -2917.8755, -0.028000928, -0.21443938, -1326739.0, 96352.26, 0.0, 10.001062, 9.999135 
4.6499717e+2, 1.6478339e+2, -1248405.5, -1406611.9, -3964.943, -0.0078066164, -0.20072073, -1248306.3, 76793.87, 0.0, 10.001028, 9.998927 
4.650028e+2, 1.7478195e+2, -1174045.4, -1319279.4, -8266.912, -0.028124364, -0.23968378, -1173576.3, 53537.727, 0.0, 10.000862, 9.998934 
4.6500856e+2, 1.8478066e+2, -1100537.5, -1262596.0, -12441.529, -0.03289196, -0.24925928, -1099587.9, 29538.775, 0.0, 10.000821, 9.99867 
4.6501455e+2, 1.9477952e+2, -988921.6, -1157534.1, -9900.335, -0.009773081, -0.23223439, -988342.3, 42795.41, 0.0, 10.000913, 9.998673 
4.6502045e+2, 2.0477816e+2, -899983.75, -1072878.5, -7988.9604, -0.0009223, -0.2291079, -899615.4, 33535.793, 0.0, 10.000889, 9.998594 
4.650262e+2, 2.1477662e+2, -823421.6, -984105.5, -12650.977, -0.011604636, -0.2456533, -822431.7, 12735.287, 0.0, 10.000737, 9.998604 
4.6503213e+2, 2.2477528e+2, -735281.2, -887895.5, -10764.746, -0.008113201, -0.24036793, -734525.6, 2654.5283, 0.0, 10.000656, 9.998631 
4.650383e+2, 2.347742e+2, -636219.94, -787761.94, -9342.305, 0.011610646, -0.21603987, -635646.2, 3543.9126, 0.0, 10.000656, 9.998645 
4.6504396e+2, 2.447727e+2, -555523.56, -724892.75, -24839.314, 0.0069686016, -0.21715072, -551955.9, -10751.828, 0.0, 10.000652, 9.998405 
4.650491e+2, 2.547708e+2, -458173.38, -625796.9, -20150.764, -0.023186972, -0.25189367, -455784.97, -12562.981, 0.0, 10.000641, 9.998419 
4.6505454e+2, 2.647691e+2, -375965.5, -522513.78, -16676.787, -0.029367067, -0.26797223, -374091.7, -28853.805, 0.0, 10.000477, 9.998535 
4.650603e+2, 2.747677e+2, -325760.94, -446242.44, -24727.633, -0.011603483, -0.26490846, -320883.3, -73632.445, 0.0, 10.000143, 9.998547 
4.650656e+2, 2.8476617e+2, -246220.02, -380430.0, -29363.697, -0.028283995, -0.26021317, -240076.75, -90812.02, 0.0, 10.000117, 9.998339 
4.6507046e+2, 2.9476443e+2, -103296.664, -259845.33, -12121.623, -0.076056264, -0.2711089, -102363.64, -51083.25, 0.0, 10.000422, 9.998347 
4.6507686e+2, 3.0476207e+2, -88629.46, -228628.06, 22675.863, -0.019504126, -0.3433757, -85048.21, -85048.21, 0.00000000000042122027, 10.000191, 9.998338 
4.6508282e+2, 3.1476104e+2, -47596.703, 44432.88, -31003.867, -0.038525682, -0.28164512, 53903.227, 53903.227, 0.00000014428599, 9.999381, 10.000603 
4.7497976e+2, 1.2478041e+2, -1587614.9, -1782558.8, 88484.18, -0.013929811, -0.24158037, -1553442.5, 163684.58, 0.0000033199578, 10.001435, 9.998841 
4.7498244e+2, 1.3477984e+2, -1492990.6, -1615804.4, -109712.61, -0.012179931, -0.24563977, -1428668.9, 190464.38, 0.00000048107097, 10.001098, 9.999482 
4.7498566e+2, 1.4477919e+2, -1446340.1, -1593750.6, 4974.682, -0.10573703, -0.23739745, -1446172.4, 74968.06, 0.000000000765976, 10.000971, 9.999016 
4.7499228e+2, 1.5477842e+2, -1336103.4, -1491866.4, 907.7327, -0.026755692, -0.2152804, -1336098.1, 87050.625, 0.0, 10.001065, 9.998997 
4.7499838e+2, 1.6477734e+2, -1257783.0, -1426584.3, -9974.064, 0.01096212, -0.21195884, -1257195.6, 67964.07, 0.0, 10.00103, 9.998789 
4.7500366e+2, 1.7477594e+2, -1183777.3, -1339429.5, -14173.086, -0.028184146, -0.23325369, -1182497.3, 44676.164, 0.0, 10.000862, 9.9987955 
4.7500932e+2, 1.847746e+2, -1096628.9, -1254353.8, -9175.185, -0.038988207, -0.24206558, -1096096.9, 33089.29, 0.0, 10.000821, 9.998726 
4.750155e+2, 1.9477336e+2, -984494.06, -1148568.3, -6240.283, -0.007842566, -0.24294068, -984257.06, 46940.64, 0.0, 10.000914, 9.998734 
4.750214e+2, 2.0477208e+2, -908464.4, -1090415.1, -13537.603, 0.0049268566, -0.23075835, -907462.7, 25748.025, 0.0, 10.000889, 9.998474 
4.75027e+2, 2.147708e+2, -832169.8, -1002208.25, -18312.361, -0.006449697, -0.20894682, -830220.0, 5005.0225, 0.0, 10.000736, 9.99848 
4.750328e+2, 2.2476934e+2, -732802.2, -882899.2, -11076.398, -0.006879912, -0.21043392, -731989.25, 5250.1924, 0.0, 10.000656, 9.998665 
4.7503892e+2, 2.3476774e+2, -633371.2, -781517.56, -9259.876, 0.006050387, -0.24185716, -632794.7, 6458.851, 0.0, 10.000654, 9.998689 
4.750446e+2, 2.4476628e+2, -545830.2, -704321.44, -25444.63, 0.007010172, -0.2478956, -541845.4, -578.64746, 0.0, 10.00065, 9.9985485 
4.750499e+2, 2.54765e+2, -448741.16, -605907.5, -20667.047, -0.0044306493, -0.2333477, -446068.9, -2789.9182, 0.0, 10.000639, 9.998556 
4.7505522e+2, 2.6476339e+2, -391115.78, -553690.56, -29110.191, -0.009689182, -0.23723537, -386060.56, -40765.906, 0.0, 10.000476, 9.998322 
4.7506046e+2, 2.747615e+2, -340671.5, -477211.5, -37163.418, -0.009953137, -0.26117343, -331211.75, -83898.46, 0.0, 10.000143, 9.998334 
4.7506565e+2, 2.8476006e+2, -217428.97, -320365.6, -18600.73, -0.03504189, -0.257323, -214170.92, -64844.875, 0.0, 10.000115, 9.998752 
4.7507083e+2, 2.94759e+2, -73497.3, -196709.17, -834.57043, -0.082110114, -0.24301775, -73491.64, -22158.059, 0.0, 10.000415, 9.998784 
4.7507706e+2, 3.047564e+2, -109435.96, -269781.16, -7211.08, -0.019497577, -0.34373668, -109112.31, -109112.31, 0.0, 10.000183, 9.998059 
4.750821e+2, 3.1475556e+2, -80549.96, -24283.922, -55504.453, -0.05059984, -0.23612426, 9810.15, 9810.15, 0.00000012581201, 9.999383, 10.00013 
4.8498097e+2, 1.2477469e+2, -1607705.4, -1804388.1, 76100.93, -0.035247676, -0.25059998, -1581699.0, 135484.17, 0.0000022837717, 10.001351, 9.998731 
4.849839e+2, 1.3477425e+2, -1435179.5, -1597493.0, -127806.92, 0.00008715645, -0.23378941, -1364939.3, 254249.58, 0.0000002759338, 10.001536, 9.999396 
4.8498678e+2, 1.4477362e+2, -1377636.3, -1566792.3, -10917.878, -0.11281072, -0.21475053, -1377008.3, 144187.45, 0.000000000009128432, 10.001469, 9.998961 
4.849933e+2, 1.547725e+2, -1337580.6, -1499120.9, -9020.312, -0.031004816, -0.22164574, -1337078.5, 86128.125, 0.0, 10.001082, 9.9989395 
4.849994e+2, 1.6477126e+2, -1269439.3, -1449301.4, -9465.417, 0.01107492, -0.22467187, -1268942.5, 56276.71, 0.0, 10.001023, 9.998636 
4.8500478e+2, 1.747699e+2, -1127129.5, -1329337.5, -14831.401, -0.02295443, -0.2267585, -1126047.4, 101185.6, 0.0, 10.001325, 9.998642 
4.8501045e+2, 1.8476854e+2, -1025817.4, -1222331.1, -20028.416, -0.033895288, -0.23027705, -1023796.94, 105449.39, 0.0, 10.001315, 9.998708 
4.850164e+2, 1.9476716e+2, -978766.75, -1147477.8, -23193.752, -0.008435449, -0.24125911, -975636.25, 55622.58, 0.0, 10.000959, 9.99872 
4.8502225e+2, 2.047659e+2, -922131.56, -1097683.4, -26072.666, 0.0062963497, -0.2264303, -918341.2, 14930.585, 0.0, 10.000797, 9.998468 
4.8502788e+2, 2.1476479e+2, -816785.6, -995146.2, -21694.648, 0.005171184, -0.18801196, -814184.75, 21099.965, 0.0, 10.000844, 9.998477 
4.8503363e+2, 2.247633e+2, -712541.75, -867760.7, -11116.213, 0.004848766, -0.19358191, -711749.7, 25549.479, 0.0, 10.000772, 9.9987135 
4.8503953e+2, 2.3476149e+2, -642351.0, -780464.4, -9053.666, 0.006624313, -0.25110894, -641760.0, -2445.1824, 0.0, 10.000569, 9.998737 
4.8504514e+2, 2.4476008e+2, -578388.5, -714123.4, -26864.428, 0.008141573, -0.25723255, -573264.94, -31937.266, 0.0, 10.000401, 9.998601 
4.8505053e+2, 2.5475913e+2, -497677.47, -623263.9, -28997.691, 0.009628278, -0.2148048, -491305.28, -47967.816, 0.0, 10.0002775, 9.998611 
4.850557e+2, 2.6475763e+2, -416994.3, -559294.06, -32081.928, 0.004576342, -0.21534042, -410095.78, -64743.34, 0.0, 10.000269, 9.998383 
4.850607e+2, 2.7475557e+2, -302950.4, -452607.34, -19369.156, -0.009042352, -0.26213, -300484.22, -53111.914, 0.0, 10.000375, 9.998391 
4.8506576e+2, 2.8475422e+2, -202500.7, -306080.72, -2898.0884, -0.037273116, -0.2577399, -202419.67, -53035.33, 0.0, 10.000187, 9.998816 
4.850709e+2, 2.947535e+2, -175613.53, -237015.58, -12709.307, -0.076315664, -0.21749933, -173086.86, -121697.87, 0.0, 9.999676, 9.998863 
4.85077e+2, 3.0475077e+2, -186073.06, -295412.2, -21451.787, -0.014842494, -0.34009418, -182014.95, -182014.95, 0.0, 9.999607, 9.99816 
4.8508152e+2, 3.1475028e+2, -23.14253, -4873.956, -34960.14, -0.07826246, -0.20307161, 32595.621, 32595.621, 0.00000009052117, 10.00002, 9.999957 
4.9498168e+2, 1.24768645e+2, -1614788.0, -1817411.4, 89003.16, -0.09686471, -0.2680817, -1581245.6, 135996.36, 0.0000015131136, 10.001345, 9.998645 
4.9498585e+2, 1.3476826e+2, -1438582.9, -1606007.4, -120162.37, 0.04130542, -0.23857854, -1375848.1, 243399.84, 0.00000014199817, 10.001541, 9.999336 
4.949886e+2, 1.4476776e+2, -1374924.9, -1562083.8, -25125.674, -0.08061723, -0.20603564, -1371610.5, 149643.0, 0.0, 10.001472, 9.998993 
4.9499428e+2, 1.547665e+2, -1335502.6, -1494975.3, -23734.434, -0.04154569, -0.23254836, -1332045.3, 91219.93, 0.0, 10.001083, 9.998967 
4.950002e+2, 1.6476515e+2, -1280931.1, -1473239.6, 1256.627, -0.008371497, -0.2376265, -1280922.9, 44355.55, 0.0, 10.001023, 9.998472 
4.9500623e+2, 1.7476381e+2, -1138424.3, -1353407.4, -3144.4385, -0.013819067, -0.22026683, -1138378.3, 88914.63, 0.0, 10.0013275, 9.998475 
4.950119e+2, 1.847624e+2, -1032099.06, -1235482.4, -32852.52, -0.018880157, -0.2142967, -1026924.06, 102383.09, 0.0, 10.001315, 9.998618 
4.9501732e+2, 1.9476093e+2, -984923.56, -1160266.3, -36373.797, -0.012350876, -0.22728229, -977677.5, 53643.69, 0.0, 10.000959, 9.998632 
4.95023e+2, 2.0475964e+2, -914288.4, -1081585.4, -24815.758, 0.0023934196, -0.21593718, -910685.0, 22649.29, 0.0, 10.000797, 9.998579 
4.950289e+2, 2.1475859e+2, -808672.06, -978161.9, -19768.574, 0.022545243, -0.18270712, -806396.9, 28949.059, 0.0, 10.000843, 9.998594 
4.9503464e+2, 2.2475718e+2, -708650.7, -859378.1, -18527.38, 0.026239725, -0.18966195, -706406.7, 30952.625, 0.0, 10.000771, 9.998772 
4.9504012e+2, 2.3475546e+2, -638700.4, -772870.94, -16724.32, 0.012864764, -0.24371353, -636647.06, 2727.0, 0.0, 10.000569, 9.99879 
4.9504557e+2, 2.4475412e+2, -581019.94, -719536.5, -31770.912, 0.009716213, -0.24514681, -574080.44, -32693.555, 0.0, 10.000401, 9.998565 
4.9505088e+2, 2.547532e+2, -500101.7, -628020.94, -33405.45, 0.017996138, -0.19643408, -491903.47, -48505.996, 0.0, 10.000276, 9.99858 
4.9505606e+2, 2.6475176e+2, -394169.34, -511483.47, -28418.16, 0.012580088, -0.20233619, -387647.88, -42236.563, 0.0, 10.000267, 9.998712 
4.9506107e+2, 2.7474985e+2, -280289.4, -404895.03, -15430.86, -0.009770838, -0.2682851, -278406.9, -30978.771, 0.0, 10.000372, 9.998721 
4.95066e+2, 2.8474852e+2, -222793.02, -347308.66, -21692.473, -0.0356855, -0.2615739, -219122.08, -69682.3, 0.0, 10.000183, 9.998534 
4.9507076e+2, 2.947478e+2, -194432.67, -276369.75, -31613.412, -0.058977522, -0.1934192, -183653.47, -132206.89, 0.0, 9.999677, 9.998592 
4.950767e+2, 3.0474502e+2, -153142.72, -226579.38, -6858.3545, -0.0058939024, -0.33183342, -152507.69, -152507.69, 0.0, 9.999606, 9.998633 
4.9508107e+2, 3.1474507e+2, 7588.3857, 13541.0, -12946.512, -0.124904715, -0.19005173, 23848.916, 23848.916, 0.000000050936965, 10.00001, 10.000089 
5.04983e+2, 1.2476277e+2, -1570292.4, -1795328.5, 94096.2, -0.1154456, -0.2731993, -1536132.6, 181166.84, 0.0000009949754, 10.001649, 9.99865 
5.0498754e+2, 1.3476227e+2, -1470551.5, -1620853.0, -113284.93, 0.06534134, -0.25633305, -1409757.0, 209549.17, 0.000000065122016, 10.001319, 9.999342 
5.0499004e+2, 1.4476183e+2, -1397851.4, -1583390.6, -18082.178, -0.07944926, -0.21390508, -1396105.5, 125205.59, 0.0, 10.001359, 9.998901 
5.049957e+2, 1.5476051e+2, -1243892.3, -1461212.4, -27312.213, -0.043796055, -0.23514359, -1240512.4, 182811.16, 0.0, 10.001757, 9.998876 
5.0500154e+2, 1.6475911e+2, -1186390.3, -1432126.0, -7017.596, -0.010682551, -0.23879708, -1186190.0, 139147.42, 0.0, 10.00169, 9.998434 
5.0500745e+2, 1.7475772e+2, -1172909.4, -1374297.5, -1680.3942, -0.01229361, -0.22408152, -1172895.4, 54457.094, 0.0, 10.001108, 9.998439 
5.0501305e+2, 1.8475631e+2, -1090597.9, -1268023.0, -20856.41, -0.0131477555, -0.21581118, -1088179.1, 41187.902, 0.0, 10.000932, 9.99858 
5.0501853e+2, 1.9475487e+2, -952503.8, -1148948.8, -20648.773, -0.0029284046, -0.22045788, -950356.8, 81024.36, 0.0, 10.0012, 9.998595 
5.050241e+2, 2.0475358e+2, -854504.06, -1046787.5, -12718.718, 0.009980124, -0.21057525, -853666.44, 79727.984, 0.0, 10.001182, 9.998633 
5.0502974e+2, 2.1475244e+2, -803832.7, -969486.8, -12561.382, 0.022441233, -0.19029272, -802885.56, 32520.795, 0.0, 10.000848, 9.9986515 
5.050353e+2, 2.2475111e+2, -731407.06, -862903.44, -14977.497, 0.028546114, -0.19669847, -729722.75, 7696.2783, 0.0, 10.000583, 9.998838 
5.0504076e+2, 2.347496e+2, -659988.5, -775760.06, -12432.493, 0.02841875, -0.23561658, -658668.44, -19236.533, 0.0, 10.000392, 9.998856 
5.05046e+2, 2.4474835e+2, -598050.7, -724221.3, -20457.93, 0.023108616, -0.23257269, -594816.44, -53372.418, 0.0, 10.000269, 9.998595 
5.050511e+2, 2.547474e+2, -506851.78, -628084.3, -16998.861, 0.012403046, -0.1901015, -504513.38, -61058.117, 0.0, 10.000216, 9.998609 
5.050562e+2, 2.6474604e+2, -411762.94, -506450.3, -15811.872, 0.0076908534, -0.19669071, -409192.3, -63723.785, 0.0, 10.000089, 9.998832 
5.050614e+2, 2.747443e+2, -342426.88, -421302.72, -19342.143, 0.007285918, -0.25907165, -337939.06, -90455.43, 0.0, 9.999887, 9.998841 
5.050662e+2, 2.8474307e+2, -264311.7, -368979.63, -26561.79, -0.018673578, -0.24873851, -257956.89, -108462.25, 0.0, 9.999906, 9.998519 
5.050706e+2, 2.9474238e+2, -126762.805, -244715.92, -16384.55, -0.064869024, -0.17260611, -124529.164, -73027.64, 0.0, 10.000147, 9.998583 
5.0507635e+2, 3.0473965e+2, -79003.66, -150083.27, 13272.031, -0.0182081, -0.32459897, -76606.34, -76606.34, 0.0, 9.99994, 9.998998 
5.050806e+2, 3.1473988e+2, -104401.195, -41349.1, 4042.6445, -0.13750489, -0.19927496, -41090.96, -41090.96, 0.000000020855737, 9.999245, 10.000079 
5.149848e+2, 1.2475706e+2, -1563466.1, -1780502.5, 83223.984, -0.096964985, -0.26343063, -1535227.5, 182128.0, 0.00000067894854, 10.001646, 9.998753 
5.149889e+2, 1.3475625e+2, -1464565.4, -1609086.3, -125653.125, 0.072277255, -0.2863574, -1391876.6, 227487.0, 0.000000029496794, 10.00132, 9.999423 
5.149911e+2, 1.447558e+2, -1413714.3, -1616000.3, -3625.9136, -0.11071025, -0.23806706, -1413649.3, 107719.45, 0.0, 10.001357, 9.998678 
5.149975e+2, 1.5475455e+2, -1258970.8, -1493193.8, -12336.55, -0.04050996, -0.22948755, -1258322.8, 165059.06, 0.0, 10.00176, 9.998654 
5.150034e+2, 1.6475314e+2, -1179434.3, -1418061.9, -28722.313, 0.0020618897, -0.22780576, -1176025.8, 149370.5, 0.0, 10.001692, 9.99853 
5.150085e+2, 1.7475162e+2, -1165663.9, -1359521.4, -23638.004, -0.018734353, -0.23772396, -1162823.3, 64588.54, 0.0, 10.001109, 9.99854 
5.15014e+2, 1.847502e+2, -1089644.5, -1266228.8, -11511.48, -0.017530808, -0.23430605, -1088897.3, 40528.94, 0.0, 10.000933, 9.998592 
5.150199e+2, 1.9474897e+2, -951801.0, -1147426.0, -10412.056, 0.01898743, -0.22074632, -951248.4, 80190.49, 0.0, 10.0012, 9.998606 
5.1502544e+2, 2.0474768e+2, -854769.56, -1046956.0, -24858.15, 0.028319523, -0.2105337, -851606.4, 81845.84, 0.0, 10.00118, 9.998633 
5.150304e+2, 2.1474636e+2, -803981.44, -969722.44, -25117.523, 0.00435642, -0.21026923, -800258.56, 35207.414, 0.0, 10.000848, 9.998651 
5.150357e+2, 2.2474506e+2, -726170.4, -852272.44, -22406.682, 0.010942563, -0.21422562, -722307.4, 15170.83, 0.0, 10.000583, 9.998912 
5.150414e+2, 2.347439e+2, -654515.25, -764490.4, -19458.537, 0.05229795, -0.22709517, -651173.9, -11685.521, 0.0, 10.000392, 9.998934 
5.150466e+2, 2.4474278e+2, -591376.8, -710225.7, -22756.213, 0.047496267, -0.2198146, -587168.6, -45669.332, 0.0, 10.000268, 9.9986925 
5.1505107e+2, 2.5474176e+2, -500409.2, -614617.6, -19068.209, -0.0072724083, -0.19559513, -497309.66, -53798.78, 0.0, 10.000216, 9.998701 
5.150561e+2, 2.647404e+2, -418203.16, -519924.13, -23294.83, -0.010137989, -0.19829701, -413122.25, -67598.125, 0.0, 10.000089, 9.99874 
5.1506156e+2, 2.7473882e+2, -348490.56, -434265.8, -26567.498, 0.041007593, -0.23445852, -340928.4, -93389.53, 0.0, 9.999888, 9.998752 
5.150664e+2, 2.8473774e+2, -247630.45, -333676.44, -17968.79, 0.01242591, -0.21932596, -244028.83, -94479.8, 0.0, 9.999904, 9.998762 
5.1507044e+2, 2.9473716e+2, -110471.31, -208872.47, -7297.614, -0.09548515, -0.15633745, -109933.05, -58378.883, 0.0, 10.000138, 9.998834 
5.150759e+2, 3.047346e+2, -62136.934, -113588.62, -12446.764, -0.05268561, -0.31977248, -59284.098, -59284.098, 0.0, 9.999933, 9.999252 
5.1508003e+2, 3.1473467e+2, -113762.99, -61351.59, -15773.312, -0.11755127, -0.23079024, -56970.758, -56970.758, 0.0000000053166334, 9.999248, 9.999941 
5.2498645e+2, 1.2475153e+2, -1561488.3, -1779732.0, 93494.23, -0.09646275, -0.24709727, -1526913.4, 190496.66, 0.0000005002885, 10.001663, 9.998748 
5.249907e+2, 1.3475043e+2, -1373171.8, -1568512.9, -125818.35, 0.08282256, -0.29712683, -1311563.3, 307856.88, 0.000000016983103, 10.001963, 9.999392 
5.2499247e+2, 1.4474992e+2, -1341032.3, -1592027.0, -4806.7676, -0.12884767, -0.24702296, -1340940.3, 180485.17, 0.0, 10.001904, 9.99858 
5.2499914e+2, 1.5474862e+2, -1321561.8, -1534397.5, -4462.0835, -0.03186774, -0.23580384, -1321468.3, 101971.64, 0.0, 10.001377, 9.998555 
5.25005e+2, 1.647472e+2, -1238119.5, -1437566.0, -19550.068, 0.019348904, -0.23387831, -1236221.1, 89233.36, 0.0, 10.001251, 9.998609 
5.250099e+2, 1.7474572e+2, -1093409.9, -1315483.1, -16886.379, -0.013733125, -0.24584655, -1092133.3, 135335.88, 0.0, 10.001565, 9.998623 
5.250152e+2, 1.847444e+2, -1004649.5, -1223088.5, -3838.8005, -0.016634842, -0.23928611, -1004582.06, 124900.555, 0.0, 10.001506, 9.998612 
5.2502114e+2, 1.9474326e+2, -975141.0, -1156471.6, -2427.4526, 0.025015201, -0.21734963, -975108.5, 56386.19, 0.0, 10.00103, 9.998626 
5.2502656e+2, 2.04742e+2, -908779.06, -1070479.0, -16896.646, 0.03819705, -0.2061554, -907032.4, 26475.58, 0.0, 10.000798, 9.998655 
5.250314e+2, 2.1474063e+2, -804203.75, -967327.1, -15687.428, 0.016116159, -0.21177502, -802708.8, 32813.277, 0.0, 10.000835, 9.9986725 
5.2503645e+2, 2.2473942e+2, -705295.0, -841194.7, -17449.041, 0.017335217, -0.21304211, -703090.4, 34443.773, 0.0, 10.000722, 9.99892 
5.2504176e+2, 2.3473836e+2, -645436.06, -758951.25, -19729.229, 0.04543748, -0.2146672, -642104.8, -2561.2817, 0.0, 10.000449, 9.998943 
5.2504677e+2, 2.4473728e+2, -587006.7, -698068.44, -20017.44, 0.040716626, -0.20579726, -583508.94, -41955.0, 0.0, 10.000256, 9.998781 
5.2505136e+2, 2.5473627e+2, -503543.3, -605956.44, -17027.045, 0.00042333623, -0.189544, -500786.63, -57221.47, 0.0, 10.000151, 9.998792 
5.2505624e+2, 2.6473498e+2, -422483.8, -523794.22, -20451.059, -0.0043590777, -0.19190124, -418511.22, -72933.1, 0.0, 10.000068, 9.998723 
5.250614e+2, 2.7473345e+2, -334197.66, -429228.53, -18174.463, 0.026896613, -0.2204141, -330840.44, -83247.57, 0.0, 9.999996, 9.998734 
5.250661e+2, 2.8473246e+2, -250761.47, -321792.03, -7102.1875, -0.0010138623, -0.20179708, -250058.3, -100455.7, 0.0, 9.999825, 9.998881 
5.2507037e+2, 2.9473206e+2, -187359.81, -232343.69, -6095.025, -0.0857234, -0.13394393, -186548.61, -134942.23, 0.0, 9.999552, 9.998955 
5.2507573e+2, 3.0472982e+2, -103699.91, -105757.586, -23939.893, -0.040846087, -0.2800669, -80766.76, -80766.76, 0.0, 9.999528, 9.999501 
5.250794e+2, 3.1472978e+2, -44634.69, -36235.086, -20984.568, -0.12917331, -0.23123628, -19034.176, -19034.176, 0.00000000056215, 9.999757, 9.999867 
5.349879e+2, 1.24746196e+2, -1571034.4, -1799770.3, 102164.664, -0.11902945, -0.22617088, -1532047.6, 185415.44, 0.00000041209, 10.001664, 9.99861 
5.3499275e+2, 1.347448e+2, -1383990.6, -1592385.4, -114074.164, 0.09424176, -0.28769064, -1333688.9, 285786.84, 0.000000018082496, 10.001966, 9.999227 
5.349943e+2, 1.4474422e+2, -1338764.6, -1587084.4, -24284.32, -0.13658352, -0.2391122, -1336412.1, 185069.17, 0.0, 10.001903, 9.998614 
5.350007e+2, 1.5474267e+2, -1319176.5, -1529807.4, -24656.906, -0.01821604, -0.25399113, -1316328.6, 107168.875, 0.0, 10.001379, 9.998586 
5.3500646e+2, 1.6474126e+2, -1234204.0, -1429678.8, -8794.855, 0.040310994, -0.25747424, -1233809.0, 91703.18, 0.0, 10.001252, 9.998663 
5.350116e+2, 1.7474003e+2, -1089155.5, -1306844.3, -4944.202, 0.0013014969, -0.2486011, -1089043.3, 138481.06, 0.0, 10.001565, 9.998682 
5.350167e+2, 1.8473887e+2, -1002799.0, -1218924.9, -21412.97, -0.011857612, -0.23083624, -1000697.9, 128838.7, 0.0, 10.001505, 9.998642 
5.35022e+2, 1.9473775e+2, -973038.8, -1152394.9, -20527.7, 0.014563462, -0.21026804, -970719.3, 60829.45, 0.0, 10.001031, 9.998653 
5.350273e+2, 2.0473656e+2, -905528.75, -1063766.9, -16172.249, 0.038712185, -0.19701014, -903892.8, 29668.875, 0.0, 10.000798, 9.998702 
5.350326e+2, 2.147353e+2, -801281.1, -960890.6, -14317.246, 0.056640994, -0.19540113, -800007.0, 35567.844, 0.0, 10.0008335, 9.998718 
5.3503746e+2, 2.247341e+2, -709231.1, -849170.1, -27644.813, 0.04691207, -0.19403225, -703967.9, 33619.06, 0.0, 10.000721, 9.998866 
5.350418e+2, 2.3473296e+2, -649327.8, -767379.8, -30034.88, 0.007918408, -0.19849333, -642125.7, -2528.1782, 0.0, 10.00045, 9.998885 
5.3504664e+2, 2.447319e+2, -581312.06, -686468.6, -24190.719, 0.0022342808, -0.19050369, -576014.0, -34406.004, 0.0, 10.000256, 9.998861 
5.350518e+2, 2.5473097e+2, -497722.3, -593958.4, -20831.691, 0.033792894, -0.17220058, -493406.56, -49788.402, 0.0, 10.000151, 9.998875 
5.350566e+2, 2.6472974e+2, -418840.72, -515719.6, -23406.342, 0.023782076, -0.17769675, -413482.06, -67851.45, 0.0, 10.000066, 9.998779 
5.3506076e+2, 2.7472815e+2, -330937.97, -421711.78, -21050.023, -0.03486985, -0.21722828, -326294.13, -78648.4, 0.0, 9.999992, 9.998787 
5.3506535e+2, 2.847272e+2, -251467.08, -322833.94, -17303.734, -0.058920763, -0.19626573, -247492.89, -97837.375, 0.0, 9.999823, 9.998876 
5.350704e+2, 2.9472703e+2, -187609.02, -233073.83, -15786.291, -0.036871787, -0.104885064, -182665.27, -131007.06, 0.0, 9.999552, 9.99895 
5.3507584e+2, 3.0472535e+2, -87025.664, -70502.6, -16140.886, 0.015625995, -0.20566122, -60631.813, -60631.813, 0.0, 9.999525, 9.999744 
5.3507864e+2, 3.1472513e+2, -46575.594, -37998.797, -5614.414, -0.17527406, -0.19949354, -35222.35, -35222.35, 0.0000000000003731001, 9.999748, 9.99986 
5.4498976e+2, 1.2474081e+2, -1515903.8, -1777756.1, 100194.055, -0.12015673, -0.20829923, -1481964.8, 235551.9, 0.00000036785775, 10.002063, 9.998569 
5.4499495e+2, 1.347391e+2, -1401890.5, -1611214.1, -105003.37, 0.119639136, -0.29002213, -1358296.5, 261235.16, 0.000000024396927, 10.001887, 9.999136 
5.449962e+2, 1.4473848e+2, -1344057.4, -1591512.5, -24338.572, -0.13803917, -0.24024169, -1341686.3, 179851.16, 0.0, 10.001875, 9.998597 
5.4500246e+2, 1.547369e+2, -1231251.3, -1489127.0, -30708.988, -0.008448667, -0.25721112, -1227644.8, 195909.23, 0.0, 10.00199, 9.99857 
5.450081e+2, 1.6473553e+2, -1150302.8, -1386506.4, -13314.063, 0.052101135, -0.25698164, -1149554.8, 176013.72, 0.0, 10.001817, 9.998687 
5.4501307e+2, 1.7473444e+2, -1124140.5, -1320520.4, -11885.359, 0.006460524, -0.23869838, -1123423.8, 104155.67, 0.0, 10.001313, 9.99871 
5.450181e+2, 1.8473329e+2, -1055171.3, -1242017.1, -31765.463, -0.010775484, -0.2200172, -1049918.5, 79673.04, 0.0, 10.001136, 9.998661 
5.450232e+2, 1.9473211e+2, -929773.44, -1129478.6, -32088.658, 0.013678345, -0.20750853, -924744.1, 106860.375, 0.0, 10.001319, 9.9986725 
5.450283e+2, 2.0473097e+2, -841036.94, -1026682.4, -29471.053, 0.03676285, -0.19263075, -836470.75, 97146.234, 0.0, 10.001215, 9.998755 
5.450334e+2, 2.1472989e+2, -803047.0, -955632.25, -27329.838, 0.05490496, -0.17942335, -798299.6, 37328.914, 0.0, 10.000795, 9.998773 
5.450381e+2, 2.2472873e+2, -732729.8, -858553.94, -36269.45, 0.04525588, -0.17649679, -723023.7, 14616.401, 0.0, 10.000551, 9.998883 
5.450423e+2, 2.347275e+2, -640349.06, -761223.6, -33454.51, 0.006148842, -0.19053206, -631707.6, 7943.9854, 0.0, 10.0005045, 9.998901 
5.450468e+2, 2.4472643e+2, -572421.8, -683210.1, -29993.146, -0.0029942456, -0.18514647, -564823.06, -23160.506, 0.0, 10.000322, 9.998851 
5.4505175e+2, 2.5472555e+2, -521915.4, -606694.94, -33667.14, 0.021145323, -0.16107008, -510172.28, -66499.65, 0.0, 9.99999, 9.998863 
5.4505646e+2, 2.6472446e+2, -440791.44, -510383.72, -28670.47, 0.012962545, -0.1594673, -430501.34, -84817.55, 0.0, 9.999847, 9.99892 
5.4506075e+2, 2.7472308e+2, -332398.03, -406323.78, -19953.426, -0.03338528, -0.19246063, -327356.22, -79659.74, 0.0, 9.999913, 9.998931 
5.450652e+2, 2.8472206e+2, -250071.47, -327035.5, -22684.066, -0.05543519, -0.18334366, -243883.22, -94176.22, 0.0, 9.999854, 9.998832 
5.4506993e+2, 2.9472154e+2, -178124.98, -234035.02, -24996.316, -0.04346238, -0.1181011, -168579.36, -116866.055, 0.0, 9.999643, 9.998898 
5.450753e+2, 3.0472043e+2, -80882.375, -58379.613, -20614.465, 0.008474796, -0.16856016, -46145.895, -46145.895, 0.0, 9.999529, 9.9998255 
5.4507846e+2, 3.1472033e+2, -83722.03, -62404.04, -15265.893, -0.16519576, -0.15850432, -54444.184, -54444.184, 0.000000000015387011, 9.99952, 9.999802 
5.54992e+2, 1.24735385e+2, -1510377.5, -1765932.1, 86751.8, -0.105207406, -0.19103205, -1483710.9, 233859.67, 0.0000003291145, 10.002062, 9.99865 
5.549972e+2, 1.3473338e+2, -1401025.9, -1611369.5, -111144.91, 0.15815337, -0.30546716, -1353180.4, 266407.66, 0.000000025104656, 10.001895, 9.999131 
5.549981e+2, 1.4473274e+2, -1348983.8, -1602869.3, -20263.164, -0.13485886, -0.25228202, -1347376.8, 174217.19, 0.0, 10.001879, 9.998517 
5.550045e+2, 1.5473133e+2, -1236121.6, -1499508.5, -26392.994, -0.0041155634, -0.24470763, -1233502.9, 190106.36, 0.0, 10.00199, 9.9985 
5.5500996e+2, 1.6473004e+2, -1151088.5, -1387385.6, -32099.531, 0.053734705, -0.23171769, -1146805.6, 178817.33, 0.0, 10.001814, 9.998682 
5.550144e+2, 1.7472892e+2, -1124536.5, -1321538.4, -30954.824, 0.00109409, -0.21633132, -1119787.1, 107847.22, 0.0, 10.001313, 9.998702 
5.5501914e+2, 1.8472768e+2, -1054520.9, -1240750.0, -25655.143, -0.014286995, -0.20720291, -1051051.3, 78596.06, 0.0, 10.001136, 9.99867 
5.550246e+2, 1.9472636e+2, -929089.6, -1128008.8, -25078.053, 0.021745857, -0.20937392, -925976.7, 105685.1, 0.0, 10.001318, 9.998683 
5.5502945e+2, 2.0472525e+2, -837195.75, -1018500.25, -44864.492, 0.03200221, -0.19378446, -826701.3, 106972.59, 0.0, 10.001214, 9.998812 
5.5503374e+2, 2.1472439e+2, -798818.7, -946969.4, -43130.703, 0.010480243, -0.16374391, -787177.0, 48506.043, 0.0, 10.000795, 9.998833 
5.550383e+2, 2.2472332e+2, -726631.2, -845890.94, -38516.305, 0.011639806, -0.16007048, -715273.56, 22420.156, 0.0, 10.000551, 9.998971 
5.550431e+2, 2.3472203e+2, -634494.3, -748778.7, -35212.684, 0.038861223, -0.19086352, -624516.0, 15189.897, 0.0, 10.000503, 9.998988 
5.5504745e+2, 2.447209e+2, -579427.0, -697458.2, -42338.92, 0.024072085, -0.19003262, -565810.44, -24092.758, 0.0, 10.000321, 9.998754 
5.550512e+2, 2.5472e+2, -528890.94, -621484.56, -46022.34, -0.037078332, -0.15634236, -509907.97, -66179.305, 0.0, 9.999991, 9.998761 
5.550558e+2, 2.6471916e+2, -425330.7, -478584.97, -26555.797, -0.036997076, -0.13739848, -414351.78, -68614.0, 0.0, 9.999848, 9.999139 
5.550613e+2, 2.7471823e+2, -316533.47, -373553.88, -17172.84, 0.028791817, -0.14705102, -311760.97, -64015.664, 0.0, 9.999913, 9.999156 
5.5506575e+2, 2.8471702e+2, -256738.86, -340145.22, -30626.941, 0.006997675, -0.1631976, -246700.72, -96943.48, 0.0, 9.99985, 9.998743 
5.5506897e+2, 2.947157e+2, -186190.13, -249713.73, -33068.215, -0.105387814, -0.1720149, -172100.88, -120329.1, 0.0, 9.999639, 9.998793 
5.550741e+2, 3.04715e+2, -86536.055, -69181.266, -21424.32, -0.062109854, -0.16708693, -54743.758, -54743.758, 0.0, 9.999524, 9.999754 
5.5507857e+2, 3.147154e+2, -90612.03, -76195.664, -9862.216, -0.10339571, -0.104234375, -71188.234, -71188.234, 0.0000000020600701, 9.999517, 9.999708 
5.6499445e+2, 1.2472998e+2, -1507430.5, -1755049.4, 94789.97, -0.063770495, -0.19121276, -1475310.8, 242313.28, 0.00000027083397, 10.002043, 9.998732 
5.649995e+2, 1.34728e+2, -1360778.4, -1592782.4, -96308.87, 0.1857161, -0.30378053, -1326009.5, 293631.56, 0.000000017878008, 10.002173, 9.999125 
5.65e+2, 1.4472738e+2, -1309234.3, -1591178.9, -5371.993, -0.1497827, -0.24443355, -1309131.9, 212514.72, 0.0, 10.002185, 9.99845 
5.650065e+2, 1.5472585e+2, -1237868.5, -1507500.8, -11291.564, -0.0019412459, -0.24342902, -1237396.5, 186266.89, 0.0, 10.002011, 9.998434 
5.6501186e+2, 1.6472447e+2, -1148214.6, -1390475.9, -28916.49, 0.06015058, -0.2328292, -1144811.0, 180866.98, 0.0, 10.001853, 9.998641 
5.650158e+2, 1.7472333e+2, -1070014.6, -1299938.0, -31697.477, -0.0018544373, -0.21512344, -1065724.8, 161964.95, 0.0, 10.001708, 9.99866 
5.650204e+2, 1.8472213e+2, -1006648.25, -1212284.0, -18347.088, -0.017869936, -0.20281143, -1005024.2, 124678.27, 0.0, 10.001442, 9.998717 
5.650258e+2, 1.947209e+2, -965725.06, -1139925.8, -14770.605, 0.026597815, -0.20117249, -964481.5, 67234.21, 0.0, 10.001042, 9.9987335 
5.650305e+2, 2.0471977e+2, -888042.94, -1040052.7, -36838.29, 0.03190479, -0.19112591, -879586.0, 54141.84, 0.0, 10.000853, 9.998838 
5.6503445e+2, 2.1471879e+2, -782117.7, -936006.2, -37963.363, -0.009076677, -0.17670585, -773261.94, 62476.375, 0.0, 10.000897, 9.9988575 
5.650387e+2, 2.2471781e+2, -701399.0, -826409.2, -38166.03, -0.008512878, -0.16934699, -690667.94, 47080.406, 0.0, 10.000694, 9.999036 
5.6504345e+2, 2.3471682e+2, -672009.1, -759344.56, -36681.023, 0.03899891, -0.17484123, -658647.3, -18889.615, 0.0, 10.000214, 9.999054 
5.650477e+2, 2.4471577e+2, -618580.0, -713286.94, -33218.508, 0.029745324, -0.1718916, -608090.44, -66321.58, 0.0, 10.000039, 9.998781 
5.650512e+2, 2.5471467e+2, -496088.7, -602860.7, -27536.283, -0.042303335, -0.16122623, -489405.47, -45623.875, 0.0, 10.000205, 9.998786 
5.6505567e+2, 2.647138e+2, -386893.0, -457542.25, -13572.81, -0.046054482, -0.141843, -384375.16, -38584.62, 0.0, 10.000102, 9.999161 
5.6506103e+2, 2.7471316e+2, -346674.0, -384848.5, -19853.797, 0.023767164, -0.12673971, -338220.44, -90424.52, 0.0, 9.999695, 9.999183 
5.650654e+2, 2.8471202e+2, -290289.97, -348573.84, -28481.266, 0.0003997996, -0.1441844, -278683.47, -128875.89, 0.0, 9.999587, 9.998811 
5.6506854e+2, 2.947105e+2, -157603.77, -230139.11, -18559.441, -0.1198615, -0.17752877, -153130.83, -101307.414, 0.0, 9.999809, 9.998845 
5.6507367e+2, 3.0471012e+2, -60000.184, -71631.11, -9429.211, -0.07154511, -0.1386519, -54737.305, -54737.305, 0.0, 9.999772, 9.999618 
5.650783e+2, 3.1471002e+2, -103968.77, -87356.48, 811.76434, -0.07730068, -0.10987903, -87316.91, -87316.91, 0.000000017271022, 9.999447, 9.999666 
5.749971e+2, 1.2472461e+2, -1500950.1, -1744238.5, 88501.25, -0.0021736347, -0.2123675, -1472162.4, 245514.67, 0.00000019303324, 10.002054, 9.998801 
5.7500184e+2, 1.3472301e+2, -1361458.4, -1595280.9, -90927.45, 0.20174024, -0.28318635, -1330261.4, 289428.88, 0.000000007774616, 10.002176, 9.999107 
5.7500184e+2, 1.4472246e+2, -1313841.0, -1599665.8, -11485.311, -0.18339808, -0.21508963, -1313380.1, 208315.08, 0.0, 10.00218, 9.998394 
5.750085e+2, 1.5472044e+2, -1241997.0, -1516266.8, -17712.994, -0.0034308378, -0.254442, -1240857.8, 182858.44, 0.0, 10.002011, 9.998373 
5.750138e+2, 1.6471882e+2, -1153882.5, -1402484.3, -34515.1, 0.069949284, -0.26140463, -1149179.5, 176553.84, 0.0, 10.001854, 9.998559 
5.750175e+2, 1.747177e+2, -1075314.8, -1311433.1, -36947.34, -0.0030397, -0.23477052, -1069668.4, 158077.34, 0.0, 10.00171, 9.998581 
5.750218e+2, 1.8471664e+2, -1001001.9, -1200627.9, -33275.152, -0.022202497, -0.20690453, -995601.44, 134155.31, 0.0, 10.001443, 9.998797 
5.7502687e+2, 1.9471572e+2, -959676.44, -1127434.3, -29799.627, 0.027491165, -0.18311574, -954540.25, 77226.07, 0.0, 10.001042, 9.998819 
5.750314e+2, 2.0471452e+2, -888616.06, -1040940.0, -35781.367, 0.035751015, -0.18443152, -880629.6, 53149.207, 0.0, 10.000851, 9.998833 
5.7503533e+2, 2.1471305e+2, -782981.94, -937325.44, -36181.313, -0.0047543435, -0.2180838, -774921.25, 60873.13, 0.0, 10.0008955, 9.99885 
5.750393e+2, 2.2471215e+2, -698548.4, -820329.94, -55774.586, -0.015959976, -0.20436098, -676865.0, 60939.098, 0.0, 10.000693, 9.999078 
5.750433e+2, 2.3471187e+2, -668405.25, -752544.06, -54583.98, 0.0066750813, -0.14299165, -641559.94, -1752.8601, 0.0, 10.0002165, 9.9991 
5.7504755e+2, 2.44711e+2, -608074.56, -692077.2, -27792.95, 0.013640278, -0.1310721, -599711.6, -57895.47, 0.0, 10.000041, 9.998925 
5.750519e+2, 2.547095e+2, -486224.47, -582080.94, -21276.678, 0.0033654908, -0.17606808, -481714.03, -37882.445, 0.0, 10.000203, 9.99893 
5.750561e+2, 2.647085e+2, -399157.22, -482568.06, -28573.396, -0.01570184, -0.17245056, -390307.9, -44465.645, 0.0, 10.000099, 9.99899 
5.7506e+2, 2.7470794e+2, -358876.6, -410182.78, -35161.363, -0.04725588, -0.13031755, -341004.94, -93156.58, 0.0, 9.999694, 9.999009 
5.750642e+2, 2.84707e+2, -274965.3, -316235.2, -20901.102, -0.07457358, -0.12545094, -266229.22, -116371.14, 0.0, 9.999585, 9.999035 
5.7506865e+2, 2.9470596e+2, -143026.61, -199430.48, -9998.921, -0.090049475, -0.1373899, -141306.52, -89437.86, 0.0, 9.999806, 9.999057 
5.750739e+2, 3.0470568e+2, -75508.375, -102785.72, -21623.55, -0.023212155, -0.08512632, -63581.617, -63581.617, 0.00000000021282408, 9.999766, 9.999407 
5.7507765e+2, 3.1470424e+2, -105599.23, -89085.87, -6319.7656, -0.08827434, -0.1705217, -86944.84, -86944.84, 0.0000000699572, 9.999439, 9.999658 
5.8499944e+2, 1.2471965e+2, -1442902.3, -1720657.5, 96841.555, 0.0056555606, -0.21511823, -1412471.6, 305254.28, 0.00000011738098, 10.002472, 9.998761 
5.850044e+2, 1.3471806e+2, -1336991.8, -1599107.9, -78946.164, 0.22773142, -0.27072632, -1315050.8, 304689.0, 0.0000000014227642, 10.002412, 9.998967 
5.8500403e+2, 1.4471753e+2, -1298654.1, -1583743.9, -9611.482, -0.18486103, -0.19699131, -1298330.4, 223414.14, 0.0, 10.002249, 9.998469 
5.850104e+2, 1.547155e+2, -1249200.4, -1510613.1, -6821.143, -0.004886589, -0.24821192, -1249022.5, 174742.98, 0.0, 10.001924, 9.998454 
5.8501565e+2, 1.6471389e+2, -1172859.0, -1414532.4, -10170.999, 0.07190366, -0.25681096, -1172431.8, 153350.73, 0.0, 10.001737, 9.998532 
5.8501935e+2, 1.747128e+2, -1078602.9, -1316170.9, -8882.8125, 0.0073856367, -0.22088937, -1078271.1, 149523.25, 0.0, 10.001702, 9.998551 
5.850234e+2, 1.8471172e+2, -986816.6, -1191190.6, -15507.65, -0.015689138, -0.1963594, -985646.6, 144159.17, 0.0, 10.001529, 9.998819 
5.850279e+2, 1.9471066e+2, -935462.6, -1112917.0, -17201.27, 0.016086018, -0.18995552, -933810.6, 98005.55, 0.0, 10.001197, 9.998844 
5.8503217e+2, 2.0470947e+2, -883549.06, -1036705.1, -15824.097, 0.025865031, -0.1927129, -881931.25, 51897.3, 0.0, 10.000878, 9.998849 
5.850362e+2, 2.1470818e+2, -828717.3, -957729.44, -14551.619, 0.008589768, -0.21026029, -827096.4, 8746.387, 0.0, 10.000574, 9.998864 
5.8504003e+2, 2.247073e+2, -734289.0, -842345.2, -38070.594, -0.004397855, -0.19086665, -722223.2, 15629.059, 0.0, 10.000468, 9.999035 
5.8504355e+2, 2.3470692e+2, -618040.9, -733209.9, -43814.0, -0.0117297275, -0.13610896, -603267.6, 36588.73, 0.0, 10.000584, 9.999056 
5.8504754e+2, 2.4470599e+2, -551876.25, -659698.4, -23653.49, -0.008122911, -0.12962213, -546915.5, -5049.6543, 0.0, 10.000405, 9.998972 
5.85052e+2, 2.547045e+2, -527271.06, -595911.75, -24456.855, 0.007813224, -0.17863092, -519448.53, -75567.805, 0.0, 9.999896, 9.998982 
5.85056e+2, 2.6470354e+2, -456680.8, -514947.6, -27513.045, -0.0103491265, -0.17087494, -445742.75, -99851.82, 0.0, 9.999724, 9.998948 
5.8505964e+2, 2.7470306e+2, -328302.84, -400645.4, -24432.127, -0.06837382, -0.11555054, -320824.47, -72927.87, 0.0, 9.999926, 9.998963 
5.850637e+2, 2.847021e+2, -239783.48, -295583.75, -13063.416, -0.094663166, -0.11355581, -236876.64, -86969.81, 0.0, 9.99981, 9.999068 
5.8506835e+2, 2.947009e+2, -210219.75, -229318.5, -17865.414, -0.07961563, -0.14570779, -199511.7, -147592.89, 0.0, 9.999335, 9.999078 
5.8507353e+2, 3.047008e+2, -156026.31, -145954.2, -25384.146, -0.011579764, -0.074027896, -125111.37, -125111.37, 0.000000006848287, 9.999233, 9.999367 
5.8507717e+2, 3.1469926e+2, -70381.1, -45563.098, 8187.0205, -0.08656104, -0.1703424, -43105.67, -43105.67, 0.00000018333391, 9.999567, 9.999895 
5.950014e+2, 1.24715135e+2, -1453092.1, -1742084.3, 80373.69, -0.044029493, -0.19984648, -1432243.0, 285527.63, 0.000000058921596, 10.002474, 9.998613 
5.950071e+2, 1.3471319e+2, -1354347.1, -1636834.5, -80311.11, 0.26159933, -0.2677788, -1333111.1, 286678.1, 0.000000000010343272, 10.0024185, 9.998706 
5.950066e+2, 1.4471261e+2, -1284097.3, -1554298.0, -21387.764, -0.15607083, -0.19178818, -1282414.9, 239379.72, 0.0, 10.002251, 9.998671 
5.950123e+2, 1.5471098e+2, -1233250.6, -1478380.6, -18853.29, -0.0068360907, -0.22437388, -1231809.0, 192001.77, 0.0, 10.001926, 9.998674 
5.9501725e+2, 1.6470964e+2, -1171161.0, -1411433.6, -11968.642, 0.06550407, -0.21901473, -1170566.3, 155258.69, 0.0, 10.001738, 9.998553 
5.9502125e+2, 1.7470868e+2, -1077420.1, -1313834.9, -10137.1, 0.028408587, -0.17396653, -1076986.3, 150849.78, 0.0, 10.001702, 9.998568 
5.9502506e+2, 1.8470737e+2, -989421.9, -1196352.6, -27809.076, 0.0007411268, -0.17138012, -985749.8, 144099.72, 0.0, 10.001528, 9.998785 
5.950288e+2, 1.9470571e+2, -937596.1, -1117960.5, -29595.652, -0.008217744, -0.22127685, -932864.0, 99001.32, 0.0, 10.0012, 9.998809 
5.9503275e+2, 2.0470458e+2, -880686.75, -1031359.8, -27439.752, 0.0015819143, -0.21619126, -875845.1, 58031.78, 0.0, 10.000881, 9.998884 
5.95037e+2, 2.1470413e+2, -825846.3, -952166.2, -25980.928, 0.030089345, -0.15397815, -820711.4, 15172.141, 0.0, 10.000576, 9.998902 
5.950408e+2, 2.2470327e+2, -743229.7, -861097.1, -34336.777, 0.025185285, -0.12953733, -733956.4, 3936.6013, 0.0, 10.000468, 9.998906 
5.9504414e+2, 2.3470196e+2, -627947.3, -753319.6, -39442.484, -0.017226331, -0.15368327, -616570.94, 23334.725, 0.0, 10.000582, 9.998919 
5.9504765e+2, 2.4470074e+2, -555155.7, -666365.06, -42237.332, -0.036042847, -0.16697894, -540932.94, 984.94476, 0.0, 10.000404, 9.998927 
5.950515e+2, 2.5469968e+2, -529406.56, -601144.7, -43454.164, -0.028440958, -0.16866286, -508929.78, -65000.816, 0.0, 9.999899, 9.998945 
5.950555e+2, 2.6469898e+2, -450393.72, -502699.53, -20612.842, -0.030029885, -0.13731275, -443247.03, -97310.516, 0.0, 9.999727, 9.999031 
5.950598e+2, 2.746986e+2, -322823.25, -389299.72, -16678.625, -0.042950325, -0.084215656, -318873.34, -70932.414, 0.0, 9.999926, 9.999042 
5.9506387e+2, 2.846973e+2, -251398.25, -319268.8, -30549.484, -0.063380465, -0.10957964, -239673.11, -89719.05, 0.0, 9.999808, 9.998906 
5.9506756e+2, 2.9469532e+2, -222890.73, -254981.4, -36145.43, -0.08830704, -0.19953345, -199389.33, -147415.61, 0.0, 9.999332, 9.998904 
5.950725e+2, 3.0469546e+2, -147287.31, -126476.016, -13829.492, -0.03533626, -0.101684086, -119574.664, -119574.664, 0.000000033052434, 9.999228, 9.999504 
5.9507686e+2, 3.1469494e+2, -37268.707, 24478.615, 24710.441, -0.07592618, -0.111963175, 33149.723, 33149.723, 0.00000037488923, 9.999561, 10.000379 
6.0500395e+2, 1.2471082e+2, -1446055.5, -1730399.8, 70833.914, -0.039810874, -0.17716452, -1429387.0, 288427.4, 0.000000021349177, 10.002489, 9.998685 
6.050096e+2, 1.3470869e+2, -1376889.8, -1651919.0, -58352.94, 0.2770086, -0.2585922, -1365021.3, 254813.28, 0.0, 10.002283, 9.998668 
6.050088e+2, 1.4470808e+2, -1295378.1, -1557473.9, 678.213, -0.15737604, -0.18646608, -1295376.4, 226464.0, 0.0, 10.002165, 9.99869 
6.0501444e+2, 1.5470667e+2, -1202567.0, -1460709.5, -12164.757, 0.003319263, -0.20031711, -1201995.0, 221859.7, 0.0, 10.002126, 9.998699 
6.050192e+2, 1.6470538e+2, -1143351.8, -1391376.8, -13461.66, 0.075801, -0.19315319, -1142623.3, 183244.9, 0.0, 10.001901, 9.998611 
6.0502285e+2, 1.747043e+2, -1108629.1, -1322337.0, -8810.296, 0.028109968, -0.16600652, -1108266.5, 119613.56, 0.0, 10.00146, 9.998626 
6.050264e+2, 1.8470299e+2, -1031100.9, -1211625.1, -19241.658, -0.0019996485, -0.16743742, -1029072.75, 100820.49, 0.0, 10.001221, 9.998828 
6.0503e+2, 1.9470148e+2, -932997.06, -1111192.9, -15635.812, -0.005121969, -0.20557511, -931635.5, 100272.04, 0.0, 10.001212, 9.998849 
6.050338e+2, 2.0470041e+2, -853582.0, -1028644.94, -18232.229, 0.00095530896, -0.19327436, -851703.3, 82215.516, 0.0, 10.001112, 9.998792 
6.0503757e+2, 2.1469988e+2, -783842.4, -942723.5, -26942.662, 0.01501301, -0.12892973, -779397.9, 56528.69, 0.0, 10.000912, 9.998805 
6.050412e+2, 2.246989e+2, -711829.0, -847259.75, -29254.568, 0.011257504, -0.111603774, -705779.9, 32157.229, 0.0, 10.00069, 9.998894 
6.0504466e+2, 2.346974e+2, -648313.3, -764459.0, -24985.209, -0.012017254, -0.15313858, -643166.56, -3215.6367, 0.0, 10.000447, 9.998907 
6.0504806e+2, 2.4469614e+2, -573672.8, -685113.44, -31056.846, -0.034442287, -0.16593865, -565602.25, -23638.844, 0.0, 10.000319, 9.99884 
6.0505134e+2, 2.546952e+2, -475344.9, -585358.44, -36712.17, -0.056093596, -0.14686559, -464219.03, -20245.326, 0.0, 10.000315, 9.998854 
6.050552e+2, 2.6469442e+2, -390186.34, -474654.22, -12905.207, -0.05550336, -0.118383735, -388258.66, -42276.7, 0.0, 10.000145, 9.9990225 
6.0505974e+2, 2.7469373e+2, -342751.0, -399355.47, -15524.875, -0.03097734, -0.09426028, -338772.63, -90783.95, 0.0, 9.999791, 9.999037 
6.050638e+2, 2.8469238e+2, -271608.34, -328962.78, -29412.879, -0.04365194, -0.1249922, -259206.36, -109204.38, 0.0, 9.999669, 9.998907 
6.050671e+2, 2.946906e+2, -156184.25, -224831.67, -23634.17, -0.09433971, -0.19499454, -148834.34, -96814.72, 0.00000000003092486, 9.999798, 9.998887 
6.050718e+2, 3.0469066e+2, -106896.93, -132283.3, -4880.23, -0.050206874, -0.09273635, -105991.086, -105991.086, 0.00000008707832, 9.999614, 9.999277 
6.050764e+2, 3.146899e+2, -96576.95, 5061.1865, 7637.998, -0.05684446, -0.10369508, 5631.9688, 5631.9688, 0.0000006525611, 9.999115, 10.000461 
6.15007e+2, 1.247067e+2, -1426228.8, -1689579.5, 45541.652, 0.013116371, -0.14959167, -1418575.6, 299281.75, 0.0000000039655865, 10.00249, 9.998964 
6.1501193e+2, 1.3470463e+2, -1364096.9, -1626232.9, -65682.32, 0.27350417, -0.24263747, -1348560.0, 271315.34, 0.0, 10.002286, 9.998843 
6.150106e+2, 1.4470394e+2, -1306854.5, -1581912.5, -1017.3156, -0.18976456, -0.18023911, -1306850.8, 215031.13, 0.0, 10.002167, 9.998522 
6.1501676e+2, 1.5470251e+2, -1214713.0, -1486123.0, -13471.86, 0.024554523, -0.17616513, -1214046.0, 209851.14, 0.0, 10.002126, 9.998526 
6.1502135e+2, 1.6470109e+2, -1136594.5, -1377536.3, -29768.072, 0.10206717, -0.17903231, -1132971.1, 192940.78, 0.0, 10.001901, 9.998707 
6.1502403e+2, 1.7469966e+2, -1100771.3, -1307065.4, -25314.486, 0.0057894215, -0.19659264, -1097710.3, 130216.05, 0.0, 10.001464, 9.998729 
6.150274e+2, 1.8469861e+2, -1022729.06, -1195340.6, -20350.36, -0.025065789, -0.18447009, -1020362.25, 109574.65, 0.0, 10.001225, 9.998939 
6.1503154e+2, 1.9469799e+2, -925150.7, -1094973.9, -16033.285, 0.02441052, -0.14336428, -923650.25, 108292.65, 0.0, 10.001211, 9.9989605 
6.150352e+2, 2.0469695e+2, -869134.8, -1060719.8, -25934.398, 0.023412606, -0.12414581, -865686.25, 68268.09, 0.0, 10.001111, 9.998572 
6.15038e+2, 2.1469545e+2, -799992.94, -976014.7, -34515.223, -0.03687573, -0.13435984, -793467.0, 42504.75, 0.0, 10.000911, 9.998577 
6.150413e+2, 2.2469419e+2, -704843.6, -832605.5, -38463.492, -0.046267986, -0.13634509, -694157.7, 43826.88, 0.0, 10.0006895, 9.998996 
6.150453e+2, 2.3469326e+2, -639880.94, -747478.4, -33998.68, 0.0031622373, -0.1347953, -630038.4, 9953.887, 0.0, 10.000449, 9.9990225 
6.1504865e+2, 2.4469219e+2, -582878.56, -704788.56, -31548.28, -0.0045040776, -0.12709287, -575198.25, -33195.746, 0.0, 10.00032, 9.998704 
6.1505145e+2, 2.5469103e+2, -486197.3, -607469.44, -36849.34, -0.07668478, -0.11406165, -475878.44, -31863.313, 0.0, 10.000312, 9.998703 
6.15055e+2, 2.6468986e+2, -397088.2, -488583.4, -25980.166, -0.087868035, -0.114121474, -390225.78, -44198.48, 0.0, 10.000143, 9.998929 
6.1505955e+2, 2.7468854e+2, -348482.6, -411320.7, -28619.71, -0.031962637, -0.14304906, -337401.72, -89362.15, 0.0, 9.99979, 9.998956 
6.1506355e+2, 2.8468737e+2, -260579.98, -305996.6, -24833.428, -0.034938548, -0.15776664, -249637.64, -99587.2, 0.0, 9.999668, 9.999065 
6.150668e+2, 2.946867e+2, -146303.17, -204144.88, -18832.05, -0.10088105, -0.1354195, -140712.25, -88655.28, 0.0000000010306047, 9.999797, 9.99903 
6.150713e+2, 3.0468637e+2, -148983.02, -219042.67, -23408.805, -0.060150694, -0.0505495, -141881.38, -141881.38, 0.00000016756015, 9.999611, 9.998683 
6.150757e+2, 3.1468418e+2, -120204.83, -42245.78, -8460.782, -0.031576093, -0.14620116, -41338.113, -41338.113, 0.000001002472, 9.999107, 10.000139 
6.250096e+2, 1.2470314e+2, -1437303.6, -1696699.6, 61707.12, 0.029688751, -0.11605655, -1423372.5, 294521.34, 0.00000000008306351, 10.002422, 9.998947 
6.2501436e+2, 1.3470076e+2, -1354401.8, -1634154.6, -53427.258, 0.28498986, -0.23076333, -1344545.5, 275369.5, 0.0, 10.002406, 9.998731 
6.250128e+2, 1.4469984e+2, -1290738.3, -1572762.8, 5207.221, -0.19181322, -0.18314296, -1290642.1, 231281.16, 0.0, 10.002272, 9.998534 
6.250189e+2, 1.5469863e+2, -1233510.6, -1493629.4, 6267.53, 0.033552498, -0.16100696, -1233359.6, 190576.88, 0.0, 10.00199, 9.998539 
6.250233e+2, 1.6469724e+2, -1154297.6, -1385434.6, -10608.234, 0.11188154, -0.1606959, -1153811.9, 172139.08, 0.0, 10.001777, 9.998713 
6.2502563e+2, 1.7469569e+2, -1075123.5, -1294089.0, -14080.942, 0.0069146515, -0.19223116, -1074221.8, 153744.67, 0.0, 10.001637, 9.9987335 
6.2502867e+2, 1.8469457e+2, -994870.94, -1184900.3, -12532.494, -0.026490388, -0.18307647, -994048.0, 135929.28, 0.0, 10.00143, 9.998911 
6.250328e+2, 1.9469403e+2, -936052.44, -1103529.5, -18764.063, 0.025910648, -0.13279404, -933975.9, 98006.695, 0.0, 10.001151, 9.998931 
6.250361e+2, 2.04693e+2, -898012.3, -1079478.1, -28409.252, 0.02437347, -0.10916017, -893668.7, 40325.316, 0.0, 10.000934, 9.9985285 
6.250388e+2, 2.1469143e+2, -820814.2, -991097.25, -23646.059, -0.03986452, -0.120475024, -817591.56, 18420.508, 0.0, 10.00079, 9.998532 
6.250419e+2, 2.2469008e+2, -713795.2, -843709.5, -26739.398, -0.054652136, -0.12741837, -708506.9, 29518.924, 0.0, 10.000656, 9.998935 
6.250456e+2, 2.34689e+2, -632125.06, -750297.0, -35448.56, -0.0131130805, -0.13464937, -622307.06, 17727.404, 0.0, 10.000531, 9.998963 
6.250489e+2, 2.446879e+2, -570983.5, -694599.06, -29851.611, -0.014616554, -0.12941469, -564152.25, -22107.59, 0.0, 10.000383, 9.998744 
6.250518e+2, 2.5468683e+2, -497909.38, -608521.5, -21004.678, -0.06485211, -0.11308939, -494055.0, -49998.88, 0.0, 10.000212, 9.998744 
6.250553e+2, 2.6468554e+2, -413489.22, -509131.25, -7640.956, -0.07799928, -0.11684052, -412882.6, -66813.766, 0.0, 10.000085, 9.998816 
6.2505925e+2, 2.74684e+2, -326177.53, -413807.03, -13215.982, -0.050136097, -0.15494922, -324227.75, -76144.48, 0.0, 10.0, 9.998837 
6.250631e+2, 2.8468287e+2, -231184.94, -293144.4, -9797.274, -0.0528014, -0.1663581, -229672.67, -79578.31, 0.0, 9.999876, 9.999054 
6.250667e+2, 2.946823e+2, -159936.14, -212439.77, -16703.01, -0.08808976, -0.13216172, -155072.88, -102973.4, 0.000000004235602, 9.999711, 9.999014 
6.25071e+2, 3.0468157e+2, -174596.98, -248574.52, -23189.326, -0.04971153, -0.074699305, -167928.97, -167928.97, 0.000000262113, 9.999509, 9.998529 
6.2507486e+2, 3.146794e+2, -90778.19, -22256.363, 25827.53, -0.033771392, -0.1550254, -13611.897, -13611.897, 0.0000013873902, 9.999285, 10.000191 
6.350118e+2, 1.2470013e+2, -1458238.0, -1740716.8, 41319.105, 0.0046589333, -0.07917502, -1452318.1, 265605.84, 0.0, 10.002425, 9.998645 
6.3501704e+2, 1.3469705e+2, -1381598.4, -1690879.6, -53780.56, 0.31112018, -0.22252245, -1372513.4, 247439.66, 0.0, 10.002406, 9.998342 
6.3501537e+2, 1.4469585e+2, -1278073.0, -1546691.5, -5372.911, -0.16406113, -0.19495255, -1277965.6, 243999.0, 0.0, 10.002272, 9.9987135 
6.3502085e+2, 1.5469499e+2, -1219448.4, -1465333.0, -4447.6255, 0.028821656, -0.1550951, -1219368.0, 204605.06, 0.0, 10.001993, 9.998732 
6.35025e+2, 1.6469383e+2, -1159844.6, -1397674.9, -16560.09, 0.10313157, -0.13821639, -1158697.1, 167287.78, 0.0, 10.00178, 9.998628 
6.3502747e+2, 1.7469235e+2, -1081349.0, -1307149.9, -19501.203, 0.030994091, -0.15287837, -1079677.3, 148323.0, 0.0, 10.001637, 9.998644 
6.350303e+2, 1.8469094e+2, -1006596.75, -1209345.1, -23186.092, -0.0065352996, -0.16287728, -1003979.0, 126035.234, 0.0, 10.0014305, 9.998743 
6.350336e+2, 1.9468962e+2, -947461.3, -1127825.5, -29239.363, -0.0011941552, -0.17280011, -942839.6, 89186.92, 0.0, 10.001154, 9.998763 
6.350369e+2, 2.0468856e+2, -888918.3, -1061308.1, -34301.62, 0.0026653896, -0.14765824, -882343.8, 51694.004, 0.0, 10.0009365, 9.998652 
6.3504004e+2, 2.1468784e+2, -811331.2, -971885.9, -29174.264, 0.0045477436, -0.08795221, -806194.3, 29853.42, 0.0, 10.000791, 9.998664 
6.3504297e+2, 2.2468655e+2, -729192.94, -875626.9, -31606.682, -0.015522139, -0.08548813, -722662.1, 15398.744, 0.0, 10.000656, 9.998716 
6.3504565e+2, 2.3468463e+2, -648413.9, -784000.44, -40045.87, -0.06072116, -0.1522304, -637469.6, 2608.0083, 0.0, 10.00053, 9.998733 
6.350488e+2, 2.4468328e+2, -556050.75, -663548.75, -36359.418, -0.064684615, -0.17194813, -544907.8, -2817.9976, 0.0, 10.000382, 9.998958 
6.350525e+2, 2.5468257e+2, -481282.72, -574281.75, -27305.227, -0.021870641, -0.14253137, -473858.4, -29761.775, 0.0, 10.000213, 9.99898 
6.3505584e+2, 2.6468155e+2, -423030.1, -529158.7, -10796.399, -0.027411917, -0.12589888, -421942.94, -75836.39, 0.0, 10.000085, 9.998678 
6.350589e+2, 2.746802e+2, -337373.22, -436850.66, -16175.869, -0.08727105, -0.13198745, -334809.0, -86688.93, 0.0, 9.999999, 9.998681 
6.350625e+2, 2.8467873e+2, -243786.42, -318762.3, -16039.813, -0.09902413, -0.15254174, -240499.11, -90365.1, 0.0, 9.999873, 9.998879 
6.350667e+2, 2.9467738e+2, -172171.4, -236964.28, -22817.852, -0.055984445, -0.18200392, -164942.3, -112795.48, 0.000000008608103, 9.999707, 9.998848 
6.350708e+2, 3.0467635e+2, -156269.0, -209844.28, -31459.033, -0.018462734, -0.16115679, -141737.78, -141737.78, 0.00000035003856, 9.999505, 9.998797 
6.3507384e+2, 3.1467554e+2, -62111.55, 37720.863, 19226.32, -0.066746525, -0.13375594, 41295.582, 41295.582, 0.0000017531552, 9.999282, 10.000605 
6.450139e+2, 1.24696456e+2, -1497257.5, -1746934.0, 13984.741, -0.0077581913, -0.08926123, -1496476.6, 221484.16, 0.0, 10.002101, 9.998758 
6.4501953e+2, 1.3469392e+2, -1393282.1, -1690981.5, -29314.012, 0.32337466, -0.18414551, -1390423.1, 229561.83, 0.0, 10.002302, 9.99839 
6.450178e+2, 1.4469263e+2, -1278629.0, -1549219.1, 15096.029, -0.14826459, -0.16600497, -1277789.4, 244207.81, 0.0, 10.002278, 9.9986925 
6.450229e+2, 1.5469143e+2, -1220895.5, -1468616.0, -1106.5883, 0.034545057, -0.1605316, -1220890.6, 203118.33, 0.0, 10.001995, 9.998709 
6.450268e+2, 1.6469023e+2, -1158825.4, -1398162.0, -12853.987, 0.106107466, -0.14409746, -1158137.0, 167883.89, 0.0, 10.001791, 9.998618 
6.4502925e+2, 1.746891e+2, -1077019.8, -1306482.4, -10270.649, 0.04170952, -0.12196604, -1076560.9, 151472.11, 0.0, 10.001674, 9.9986315 
6.450319e+2, 1.8468767e+2, -999145.6, -1212038.6, -11147.546, 0.004176909, -0.13142045, -998563.5, 131483.72, 0.0, 10.001509, 9.998687 
6.4503485e+2, 1.9468589e+2, -931415.06, -1126448.4, -9469.143, -0.000028491595, -0.18087277, -930956.4, 101107.04, 0.0, 10.001292, 9.998706 
6.4503783e+2, 2.0468467e+2, -868521.9, -1057562.8, -13199.25, 0.00024549072, -0.16699976, -867604.75, 66471.37, 0.0, 10.001103, 9.998597 
6.4504087e+2, 2.146841e+2, -792801.75, -969159.56, -22036.738, 0.0049214275, -0.08718985, -790089.9, 45994.832, 0.0, 10.000945, 9.998608 
6.4504373e+2, 2.2468285e+2, -709979.5, -864529.56, -22881.64, -0.015775988, -0.07818882, -706662.94, 31434.36, 0.0, 10.000781, 9.998732 
6.450461e+2, 2.3468086e+2, -635300.0, -775858.06, -13025.624, -0.06530755, -0.15360186, -634103.1, 6011.2036, 0.0, 10.000612, 9.998749 
6.4504915e+2, 2.4467939e+2, -557245.7, -673124.4, -12325.973, -0.07037517, -0.18045254, -555949.1, -13821.803, 0.0, 10.000413, 9.998878 
6.450526e+2, 2.5467855e+2, -492506.47, -588711.44, -27272.09, -0.025385087, -0.15651298, -485313.22, -41177.715, 0.0, 10.0001745, 9.9988985 
6.450559e+2, 2.646775e+2, -427041.16, -534500.06, -12295.864, -0.028175913, -0.13935687, -425652.16, -79506.27, 0.0, 10.0000725, 9.998647 
6.45059e+2, 2.7467617e+2, -321149.94, -432038.03, -8057.1846, -0.0844796, -0.13671508, -320567.56, -72408.875, 0.0, 10.000124, 9.998652 
6.450625e+2, 2.8467476e+2, -228734.44, -320413.44, -7069.3086, -0.09703577, -0.15069182, -228192.53, -78020.05, 0.0, 10.000015, 9.998799 
6.450664e+2, 2.9467332e+2, -176834.8, -248430.45, -8433.228, -0.059861477, -0.18097974, -175854.86, -123668.48, 0.000000011710588, 9.999715, 9.998765 
6.450702e+2, 3.046719e+2, -152450.56, -202082.66, -18366.71, -0.03139949, -0.19589785, -146393.13, -146393.13, 0.00000040808163, 9.999506, 9.99885 
6.450732e+2, 3.1467152e+2, -35123.277, 57946.527, 15919.914, -0.06875043, -0.13124906, 60594.35, 60594.35, 0.0000020409286, 9.999436, 10.000669 
6.55016e+2, 1.24692164e+2, -1460570.5, -1671401.9, 1044.8579, -0.011106387, -0.14925775, -1460565.3, 257438.84, 0.0, 10.002104, 9.999275 
6.550218e+2, 1.3469137e+2, -1359849.9, -1622175.9, -21857.396, 0.31976435, -0.11659706, -1358041.3, 261969.16, 0.0, 10.002304, 9.998862 
6.5502006e+2, 1.4469023e+2, -1293678.5, -1580196.0, 4051.7002, -0.14687227, -0.09698625, -1293621.3, 228399.8, 0.0, 10.002276, 9.998481 
6.5502506e+2, 1.5468794e+2, -1236713.4, -1501793.4, -11839.273, 0.05061595, -0.176621, -1236185.6, 187858.14, 0.0, 10.001996, 9.998481 
6.5502876e+2, 1.6468649e+2, -1155088.5, -1390615.5, -17650.025, 0.12080755, -0.17776011, -1153773.3, 172285.4, 0.0, 10.001792, 9.998671 
6.550309e+2, 1.7468598e+2, -1072823.0, -1298094.0, -14699.679, 0.037496656, -0.09976964, -1071867.9, 156196.83, 0.0, 10.001675, 9.99869 
6.550334e+2, 1.8468478e+2, -995783.56, -1204936.8, -19777.525, 0.0034231395, -0.089182675, -993929.8, 136146.33, 0.0, 10.001508, 9.998736 
6.5503645e+2, 1.9468288e+2, -928037.4, -1119443.9, -17923.34, 0.028857235, -0.157464, -926373.5, 105719.8, 0.0, 10.001291, 9.998754 
6.5503913e+2, 2.0468134e+2, -884861.06, -1091409.5, -19460.285, 0.016907362, -0.16741747, -883043.56, 51065.348, 0.0, 10.001102, 9.998365 
6.5504146e+2, 2.1468022e+2, -809734.94, -1004343.7, -27894.996, -0.038696993, -0.11753975, -805815.44, 30307.473, 0.0, 10.000945, 9.998366 
6.550441e+2, 2.2467901e+2, -692685.94, -828757.44, -29381.785, -0.05572295, -0.104784355, -686612.6, 51522.313, 0.0, 10.000781, 9.998978 
6.550472e+2, 2.3467769e+2, -616771.4, -737728.75, -19358.773, -0.028478252, -0.13933909, -613748.6, 26396.021, 0.0, 10.000613, 9.99901 
6.550499e+2, 2.4467629e+2, -583689.7, -728110.3, -21301.36, -0.033669934, -0.15582033, -580613.4, -38456.117, 0.0, 10.000413, 9.9985 
6.550523e+2, 2.546748e+2, -520386.75, -646853.4, -36123.316, -0.07550284, -0.15584016, -510796.0, -66623.086, 0.0, 10.000175, 9.998499 
6.5505546e+2, 2.6467338e+2, -421389.63, -522755.5, -10732.477, -0.080066785, -0.15740645, -420265.75, -74078.875, 0.0, 10.0000725, 9.998728 
6.550595e+2, 2.7467206e+2, -314097.66, -416933.94, -5654.5996, -0.042960472, -0.16770777, -313787.7, -65588.75, 0.0, 10.000121, 9.998757 
6.55063e+2, 2.846709e+2, -229041.22, -320326.38, -17680.758, -0.048561867, -0.159573, -225736.33, -75526.63, 0.0, 10.000011, 9.998801 
6.550657e+2, 2.9467002e+2, -177418.75, -249407.17, -19709.568, -0.10107832, -0.13124046, -172375.78, -120157.33, 0.000000011654482, 9.999713, 9.998759 
6.550691e+2, 3.046682e+2, -163792.17, -225147.89, -21443.033, -0.08975155, -0.1818594, -157040.97, -157040.97, 0.00000041978168, 9.999504, 9.9986925 
6.5507287e+2, 3.146673e+2, -54803.832, 18688.645, 13917.733, -0.041685943, -0.14735942, 21236.037, 21236.037, 0.000002202322, 9.99943, 10.000402 
6.6501796e+2, 1.2468868e+2, -1482423.9, -1671456.4, 15351.419, -0.014106227, -0.16140966, -1481185.4, 236852.89, 0.0, 10.001909, 9.999369 
6.650239e+2, 1.3468815e+2, -1394693.5, -1632009.5, -19974.902, 0.31735346, -0.10926632, -1393023.9, 227018.19, 0.0, 10.002036, 9.998924 
6.6502225e+2, 1.4468698e+2, -1330937.0, -1596492.3, -15318.525, -0.14155988, -0.09641032, -1330056.3, 191996.98, 0.0, 10.002014, 9.998495 
6.65027e+2, 1.546848e+2, -1260689.1, -1512217.4, -14277.268, 0.055254333, -0.16608527, -1259881.4, 164193.92, 0.0, 10.001827, 9.99849 
6.6503054e+2, 1.6468337e+2, -1168960.6, -1388560.1, -6530.8223, 0.12639375, -0.16953027, -1168766.6, 157323.14, 0.0, 10.001659, 9.998748 
6.6503257e+2, 1.7468277e+2, -1091006.8, -1297610.3, -2276.2795, 0.047355045, -0.10803059, -1090981.6, 137114.36, 0.0, 10.001512, 9.99877 
6.6503495e+2, 1.8468161e+2, -1023615.44, -1226802.4, -12651.165, 0.015208443, -0.095590346, -1022830.75, 107276.54, 0.0, 10.001355, 9.998658 
6.6503775e+2, 1.9467983e+2, -949382.44, -1139364.8, -21251.336, 0.038802303, -0.1417147, -947034.3, 85089.52, 0.0, 10.001187, 9.998667 
6.6504025e+2, 2.0467828e+2, -889330.56, -1087079.5, -15399.668, 0.022652514, -0.15125728, -888138.5, 46001.133, 0.0, 10.001044, 9.998423 
6.6504234e+2, 2.1467699e+2, -806703.1, -995806.25, -1575.87, -0.039561547, -0.12488218, -806690.0, 29464.459, 0.0, 10.0009365, 9.998428 
6.650448e+2, 2.2467571e+2, -701895.3, -841571.1, -6077.258, -0.057513237, -0.11668002, -701631.4, 36535.367, 0.0, 10.000754, 9.998902 
6.650477e+2, 2.3467448e+2, -640911.0, -758114.2, -21677.232, -0.025002265, -0.13459434, -637030.2, 3145.9226, 0.0, 10.000485, 9.998932 
6.650503e+2, 2.4467307e+2, -591962.4, -745131.44, -20888.627, -0.03058482, -0.14064826, -589164.75, -46975.703, 0.0, 10.000413, 9.998383 
6.650526e+2, 2.546715e+2, -472742.72, -637304.3, -14818.458, -0.07924713, -0.13718495, -471419.0, -27213.129, 0.0, 10.000561, 9.998379 
6.6505575e+2, 2.6466995e+2, -371817.1, -496180.75, 12605.855, -0.08230582, -0.14861365, -370552.2, -24331.146, 0.0, 10.0004015, 9.998752 
6.650596e+2, 2.7466843e+2, -345462.0, -428598.38, 11392.8125, -0.03392307, -0.18264967, -343929.03, -95694.82, 0.0, 9.999892, 9.998787 
6.6506296e+2, 2.8466728e+2, -272620.78, -350735.97, 1688.0078, -0.03748536, -0.17005917, -272584.34, -122339.74, 0.0, 9.999754, 9.998716 
6.650656e+2, 2.9466665e+2, -135694.84, -238609.81, -6681.1636, -0.099596135, -0.108892955, -135262.92, -83011.24, 0.000000008469742, 10.000041, 9.998674 
6.6506875e+2, 3.046646e+2, -105521.49, -183117.58, -15975.303, -0.09634683, -0.1828356, -102361.24, -102361.24, 0.00000038345433, 9.999845, 9.9988165 
6.6507226e+2, 3.146638e+2, -108933.83, -14160.403, 39183.3, -0.030844854, -0.15611786, -58.64902, -58.64902, 0.0000022156387, 9.999087, 10.00034 
6.750198e+2, 1.24686e+2, -1505094.9, -1718652.9, 522.1454, -0.021087606, -0.1298801, -1505093.6, 212969.45, 0.0, 10.00191, 9.999044 
6.7502594e+2, 1.346843e+2, -1416823.4, -1679606.5, -14846.448, 0.3150757, -0.16187695, -1415987.4, 204092.3, 0.0, 10.002043, 9.998594 
6.7502433e+2, 1.4468291e+2, -1314787.6, -1563887.8, -22365.31, -0.13351338, -0.16465734, -1312795.5, 209298.0, 0.0, 10.002018, 9.998717 
6.750288e+2, 1.5468201e+2, -1244437.4, -1478530.9, -21391.984, 0.046462014, -0.12984978, -1242498.5, 181604.55, 0.0, 10.001826, 9.998722 
6.7503214e+2, 1.6468088e+2, -1162298.9, -1373602.1, -12672.025, 0.12066218, -0.12009437, -1161541.6, 164572.5, 0.0, 10.001655, 9.998853 
6.750343e+2, 1.746795e+2, -1083441.8, -1282104.9, -7836.3726, 0.07121755, -0.14612597, -1083133.1, 144993.6, 0.0, 10.001513, 9.998877 
6.7503655e+2, 1.8467814e+2, -1038201.4, -1257354.8, -19150.537, 0.039419364, -0.15038478, -1036540.5, 93599.875, 0.0, 10.001355, 9.998448 
6.750389e+2, 1.9467676e+2, -965171.44, -1171914.5, -27663.291, 0.028792527, -0.13396327, -961533.94, 70621.05, 0.0, 10.001185, 9.998445 
6.7504126e+2, 2.0467551e+2, -866008.75, -1038269.44, -19961.033, 0.016204549, -0.11878931, -863726.0, 70442.125, 0.0, 10.001042, 9.998759 
6.750437e+2, 2.146744e+2, -781782.4, -943947.2, -5901.9546, 0.0009649647, -0.10955471, -781567.9, 54611.516, 0.0, 10.000935, 9.998785 
6.750459e+2, 2.2467299e+2, -729338.4, -898573.75, -16245.338, -0.022475818, -0.11406015, -727793.06, 10399.727, 0.0, 10.000753, 9.998511 
6.7504793e+2, 2.3467128e+2, -669665.8, -818445.9, -31621.973, -0.054591887, -0.13954227, -663223.75, -23015.084, 0.0, 10.000488, 9.998517 
6.750505e+2, 2.4466982e+2, -581925.8, -724802.94, -15813.026, -0.06097457, -0.13481683, -580196.6, -37973.97, 0.0, 10.000415, 9.998521 
6.750536e+2, 2.5466874e+2, -461780.78, -614426.56, -9072.845, -0.038614348, -0.10088903, -461243.4, -17009.002, 0.0, 10.00056, 9.998536 
6.750566e+2, 2.646672e+2, -374995.8, -502365.47, -5783.643, -0.03712204, -0.113248914, -374733.72, -28485.318, 0.0, 10.0004, 9.99871 
6.7505926e+2, 2.746653e+2, -348975.88, -436087.13, -7627.809, -0.057971984, -0.18261182, -348313.0, -100048.32, 0.0, 9.999892, 9.998736 
6.750624e+2, 2.8466392e+2, -284575.0, -375101.7, 11450.092, -0.06405575, -0.18304992, -283149.22, -132871.88, 0.0, 9.999752, 9.998549 
6.750661e+2, 2.946632e+2, -147898.2, -262480.5, 4578.6304, -0.05701668, -0.11284287, -147715.55, -95429.59, 0.0000000040864183, 10.000035, 9.998513 
6.75069e+2, 3.0466115e+2, -78726.27, -126416.39, -42855.766, -0.052896358, -0.19782642, -53528.453, -53528.453, 0.0000003121116, 9.99984, 9.999208 
6.7507124e+2, 3.146609e+2, -98480.84, 6890.5293, 10676.593, -0.039438948, -0.15197267, 7961.435, 7961.435, 0.0000020914758, 9.999089, 10.000484 
6.8502164e+2, 1.2468285e+2, -1520694.3, -1726529.6, -20371.734, -0.018827522, -0.13047428, -1518697.4, 199396.16, 0.0, 10.001804, 9.9990425 
6.8502784e+2, 1.3468117e+2, -1427876.9, -1683992.8, 6628.597, 0.3057327, -0.1614405, -1427705.4, 192404.66, 0.0, 10.001965, 9.998602 
6.8502635e+2, 1.4467964e+2, -1325174.3, -1566805.9, -8936.56, -0.12994568, -0.17929418, -1324844.1, 197281.34, 0.0, 10.001939, 9.998735 
6.850306e+2, 1.546789e+2, -1258780.4, -1483585.6, -24563.61, 0.04954815, -0.1304618, -1256127.8, 168006.28, 0.0, 10.001722, 9.998737 
6.8503374e+2, 1.6467789e+2, -1174629.6, -1369056.6, -22226.152, 0.12544143, -0.11373371, -1172121.3, 154022.63, 0.0, 10.001527, 9.998944 
6.850359e+2, 1.746766e+2, -1101398.5, -1280433.5, -19080.645, 0.08349233, -0.14147577, -1099387.5, 128767.65, 0.0, 10.001345, 9.998968 
6.85038e+2, 1.8467522e+2, -1058657.3, -1265029.1, -21556.432, 0.05186038, -0.15157685, -1056429.6, 73739.125, 0.0, 10.001206, 9.998467 
6.8504006e+2, 1.9467375e+2, -971947.0, -1172628.9, -11952.667, 0.031491417, -0.14604679, -971237.6, 60946.89, 0.0, 10.00113, 9.998466 
6.850423e+2, 2.0467257e+2, -870854.06, -1034622.7, -6402.6206, 0.018360268, -0.12630229, -870604.1, 63592.813, 0.0, 10.000984, 9.998811 
6.850447e+2, 2.1467173e+2, -804211.75, -948966.5, -15310.107, 0.013069729, -0.09507607, -802610.2, 33595.31, 0.0, 10.000756, 9.9988365 
6.8504673e+2, 2.2467037e+2, -744207.7, -912457.4, -22328.21, -0.010680087, -0.096427225, -741295.0, -3076.3787, 0.0, 10.000681, 9.998451 
6.850486e+2, 2.346684e+2, -631650.5, -807187.56, -11955.847, -0.05475863, -0.13945872, -630839.94, 9396.962, 0.0, 10.00078, 9.998453 
6.85051e+2, 2.4466686e+2, -550636.7, -715454.2, 9375.212, -0.059887722, -0.14079048, -550105.06, -7852.925, 0.0, 10.000655, 9.998469 
6.850542e+2, 2.5466576e+2, -506434.3, -641324.9, 364.16162, -0.02140607, -0.1009597, -506433.3, -62169.258, 0.0, 10.000277, 9.998487 
6.850569e+2, 2.646643e+2, -410378.84, -520736.66, -4587.9194, -0.023516363, -0.10512384, -410188.44, -63910.844, 0.0, 10.000163, 9.998697 
6.8505925e+2, 2.7466244e+2, -283719.4, -405981.88, -3997.1445, -0.06948361, -0.16334818, -283588.88, -35296.15, 0.0, 10.000347, 9.998723 
6.850623e+2, 2.84661e+2, -227060.3, -347867.9, 21936.75, -0.071812354, -0.17355129, -223200.27, -72894.21, 0.0, 10.00015, 9.998545 
6.8506616e+2, 2.946599e+2, -222435.3, -298017.6, 26893.654, -0.028713953, -0.13768092, -213842.84, -161525.28, 0.0000000009738006, 9.999522, 9.998516 
6.850688e+2, 3.0465794e+2, -131336.56, -135741.84, -21733.787, -0.033024557, -0.22572906, -111694.086, -111694.086, 0.00000022618863, 9.99941, 9.9993515 
6.850706e+2, 3.1465822e+2, 6265.0806, 43010.14, 10715.568, -0.05715682, -0.13866329, 45906.68, 45906.68, 0.0000018666766, 9.999871, 10.000356 
6.9502354e+2, 1.2467928e+2, -1498467.0, -1682484.9, -31483.156, -0.0122578535, -0.16435905, -1493229.8, 224899.56, 0.0, 10.001812, 9.999341 
6.950296e+2, 1.3467878e+2, -1405545.1, -1636692.3, 12480.042, 0.28841382, -0.1086309, -1404873.3, 215259.95, 0.0, 10.001961, 9.998928 
6.950283e+2, 1.446772e+2, -1338364.4, -1592637.8, -16923.066, -0.13141352, -0.14078239, -1337243.0, 184906.05, 0.0, 10.001932, 9.998561 
6.950325e+2, 1.546755e+2, -1270937.1, -1510203.8, -31794.498, 0.06306425, -0.1681599, -1266784.3, 157383.33, 0.0, 10.001728, 9.998552 
6.9503546e+2, 1.6467442e+2, -1169997.9, -1360492.4, -29117.438, 0.13904855, -0.1516502, -1165646.6, 160531.92, 0.0, 10.001531, 9.9990015 
6.9503725e+2, 1.7467405e+2, -1097442.3, -1271651.4, -26104.006, 0.08273289, -0.09501185, -1093614.9, 134566.36, 0.0, 10.001342, 9.999029 
6.950392e+2, 1.8467286e+2, -1041710.56, -1228880.3, -25015.316, 0.0511201, -0.0995782, -1038424.94, 91767.24, 0.0, 10.001202, 9.998718 
6.950413e+2, 1.9467083e+2, -953710.06, -1134780.9, -14802.835, 0.046470206, -0.17739156, -952507.9, 79704.3, 0.0, 10.00113, 9.998726 
6.950433e+2, 2.046695e+2, -886953.3, -1068400.4, -15229.036, 0.028783236, -0.17350541, -885684.0, 48541.94, 0.0, 10.000985, 9.998579 
6.9504523e+2, 2.1466903e+2, -821574.56, -985291.75, -24054.959, -0.0036205766, -0.08200212, -818113.4, 18119.303, 0.0, 10.000757, 9.998588 
6.950473e+2, 2.2466786e+2, -725711.25, -874389.1, -19083.42, -0.022667475, -0.064140886, -723300.9, 14943.239, 0.0, 10.000682, 9.998713 
6.9504964e+2, 2.3466592e+2, -612284.5, -766967.7, -8280.28, -0.026831834, -0.13409504, -611842.5, 28418.24, 0.0, 10.000779, 9.99873 
6.95052e+2, 2.4466413e+2, -567318.0, -750001.94, -4541.016, -0.0286267, -0.1581742, -567205.2, -24927.594, 0.0, 10.000654, 9.998233 
6.950544e+2, 2.546626e+2, -524018.03, -678162.0, -13753.216, -0.027832571, -0.13704453, -522800.56, -78505.75, 0.0, 10.0002775, 9.998234 
6.95057e+2, 2.646612e+2, -409401.34, -518539.34, 1656.2153, -0.041161872, -0.12426352, -409376.2, -63067.61, 0.0, 10.000163, 9.998713 
6.9505966e+2, 2.7465993e+2, -282517.47, -402700.9, 3109.2026, -0.0695754, -0.12511985, -282437.1, -34118.848, 0.0, 10.000344, 9.998748 
6.950626e+2, 2.8465852e+2, -216602.94, -325896.28, -702.39655, -0.061863717, -0.1415657, -216598.42, -66267.68, 0.0, 10.000148, 9.998697 
6.950658e+2, 2.946568e+2, -211060.38, -274493.47, 3639.9167, -0.015752578, -0.18334146, -210852.19, -158505.58, 0.000000000021633938, 9.999522, 9.998678 
6.950682e+2, 3.046549e+2, -139030.3, -151116.44, -5880.3706, -0.037199605, -0.26730427, -136641.44, -136641.44, 0.00000014519733, 9.999407, 9.999247 
6.9507015e+2, 3.146558e+2, -22928.691, -15252.168, 26635.297, -0.087111555, -0.10807965, 7820.0005, 7820.0005, 0.0000015881137, 9.999862, 9.99996 
7.0502526e+2, 1.2467627e+2, -1541454.4, -1691814.1, -29695.055, -0.0022817664, -0.15830436, -1535802.3, 182356.69, 0.0, 10.00147, 9.999442 
7.0503134e+2, 1.3467592e+2, -1464440.8, -1649358.6, 14635.753, 0.2830883, -0.101755805, -1463289.5, 156871.52, 0.0, 10.00149, 9.999067 
7.0503014e+2, 1.4467429e+2, -1393378.4, -1612135.6, -18075.12, -0.11893845, -0.14869209, -1391895.0, 130282.195, 0.0, 10.001526, 9.998623 
7.0503426e+2, 1.5467276e+2, -1283532.1, -1509975.8, -15021.264, 0.0741822, -0.1643981, -1282540.0, 141654.13, 0.0, 10.001616, 9.998608 
7.0503706e+2, 1.646717e+2, -1165727.8, -1363929.6, -11490.253, 0.14418271, -0.1462371, -1165063.9, 161141.28, 0.0, 10.001585, 9.998951 
7.050385e+2, 1.7467116e+2, -1088988.3, -1273024.3, -17101.264, 0.0769147, -0.10011151, -1087412.6, 140797.05, 0.0, 10.001426, 9.998979 
7.0504034e+2, 1.8467002e+2, -1033443.3, -1215058.4, -25452.229, 0.047081336, -0.10337108, -1029943.8, 100276.625, 0.0, 10.001218, 9.998804 
7.050425e+2, 1.9466822e+2, -974254.06, -1135161.9, -28646.855, 0.058850735, -0.16632216, -969306.1, 62931.797, 0.0, 10.000947, 9.998811 
7.050444e+2, 2.0466693e+2, -907699.4, -1079162.8, -23693.428, 0.039180882, -0.16359392, -904485.56, 29765.68, 0.0, 10.000846, 9.998572 
7.0504594e+2, 2.1466625e+2, -794870.3, -973481.3, -14902.69, -0.016027989, -0.092003115, -793635.44, 42624.48, 0.0, 10.000946, 9.998577 
7.0504797e+2, 2.2466503e+2, -702052.06, -863096.94, -12022.284, -0.03237216, -0.07777375, -701159.5, 37112.34, 0.0, 10.000845, 9.998711 
7.0505047e+2, 2.3466322e+2, -650754.1, -785740.25, -22325.686, -0.0051358724, -0.1327381, -647157.44, -6870.044, 0.0, 10.000517, 9.998728 
7.050528e+2, 2.4466152e+2, -600822.3, -762868.2, -19483.31, -0.0013116837, -0.15147814, -598512.7, -56209.027, 0.0, 10.00041, 9.998261 
7.050549e+2, 2.5465998e+2, -481410.44, -654627.7, -8309.237, -0.024003243, -0.1350334, -481012.75, -36692.043, 0.0, 10.000558, 9.998261 
7.0505726e+2, 2.6465854e+2, -369903.9, -504206.56, 16344.0205, -0.04102634, -0.12454326, -367943.53, -21608.648, 0.0, 10.000454, 9.998671 
7.0506e+2, 2.7465722e+2, -325141.03, -427871.5, 12462.963, -0.050729208, -0.12549995, -323650.7, -75305.05, 0.0, 10.000072, 9.998706 
7.0506275e+2, 2.846558e+2, -246719.05, -335906.63, -3336.2874, -0.046207547, -0.13853353, -246594.42, -96236.625, 0.0, 9.999922, 9.998737 
7.050654e+2, 2.9465428e+2, -132899.13, -231783.81, -7609.9766, -0.028073445, -0.17194521, -132316.9, -79945.18, 0.0, 10.000037, 9.998724 
7.0506763e+2, 3.0465245e+2, -69893.54, -119620.76, -8940.476, -0.054109927, -0.24487014, -68334.98, -68334.98, 0.00000008201181, 9.99989, 9.99923 
7.0507e+2, 3.1465286e+2, -102610.62, -80703.43, 27852.453, -0.06556798, -0.13702066, -61728.1, -61728.1, 0.0000012936833, 9.99943, 9.99972 
7.150269e+2, 1.2467385e+2, -1547648.0, -1705314.5, -42528.92, 0.009731415, -0.113283776, -1536907.9, 181274.36, 0.0, 10.001471, 9.99935 
7.150328e+2, 1.3467261e+2, -1465601.6, -1653901.5, 16170.782, 0.28569385, -0.1416529, -1464223.0, 155970.14, 0.0, 10.001498, 9.999032 
7.150319e+2, 1.4467093e+2, -1373414.6, -1572068.5, -15387.289, -0.09621406, -0.20456164, -1372229.8, 149979.86, 0.0, 10.001532, 9.998895 
7.15036e+2, 1.5467069e+2, -1264818.8, -1470085.8, -11696.551, 0.08254829, -0.11910019, -1264154.4, 160059.17, 0.0, 10.001611, 9.998883 
7.150386e+2, 1.6466975e+2, -1176271.9, -1384963.8, -17081.412, 0.14077811, -0.09703996, -1174883.0, 151340.4, 0.0, 10.00158, 9.998809 
7.1503985e+2, 1.74668e+2, -1099284.8, -1295175.5, -22534.422, 0.06491827, -0.15624624, -1096725.9, 131514.38, 0.0, 10.001429, 9.998826 
7.1504146e+2, 1.8466671e+2, -1039445.9, -1228035.3, -35708.008, 0.038557142, -0.16324058, -1032911.25, 97341.96, 0.0, 10.001219, 9.998714 
7.1504354e+2, 1.9466592e+2, -980616.1, -1148169.4, -38998.066, 0.067736946, -0.113815814, -971984.06, 60277.613, 0.0, 10.000946, 9.998722 
7.1504533e+2, 2.0466484e+2, -893004.94, -1048750.4, -20705.701, 0.048736427, -0.09722764, -890299.2, 43973.566, 0.0, 10.000846, 9.998782 
7.150468e+2, 2.1466339e+2, -779641.7, -941669.06, -11225.841, -0.02478967, -0.12416896, -778867.6, 57419.45, 0.0, 10.000944, 9.998796 
7.150488e+2, 2.246619e+2, -720081.6, -900545.7, -24302.834, -0.04043058, -0.13615878, -716866.1, 21435.6, 0.0, 10.000845, 9.998455 
7.150512e+2, 2.3466037e+2, -669583.3, -825313.9, -34581.855, 0.009858778, -0.13582538, -662249.4, -21932.646, 0.0, 10.000518, 9.998455 
7.150534e+2, 2.4465899e+2, -580924.0, -721976.56, -14461.506, 0.021660494, -0.12138737, -579456.6, -37126.367, 0.0, 10.000412, 9.998542 
7.150555e+2, 2.5465783e+2, -460640.3, -611350.75, -2677.2961, -0.010855907, -0.095416196, -460592.78, -16251.002, 0.0, 10.000557, 9.998559 
7.1505785e+2, 2.6465628e+2, -376692.7, -518229.13, 2415.2175, -0.024163924, -0.10606855, -376651.47, -30294.943, 0.0, 10.000453, 9.998575 
7.150604e+2, 2.7465433e+2, -332991.25, -443848.06, -1767.3925, -0.014446094, -0.16406515, -332963.06, -84588.26, 0.0, 10.00007, 9.998597 
7.1506286e+2, 2.8465295e+2, -252138.92, -346476.97, 229.79955, -0.025949493, -0.16448814, -252138.38, -101751.14, 0.0, 9.999919, 9.998666 
7.150651e+2, 2.9465225e+2, -138117.66, -241588.94, -2861.0183, -0.06562669, -0.103981085, -138038.61, -85645.7, 0.0, 10.000032, 9.998658 
7.1506727e+2, 3.0465066e+2, -64922.156, -109311.04, -25261.633, -0.083931014, -0.15930629, -53490.07, -53490.07, 0.00000004119849, 9.999888, 9.999303 
7.150701e+2, 3.1464946e+2, -110260.945, -95567.57, 8958.568, 0.002902012, -0.21261498, -91328.5, -91328.5, 0.0000010048329, 9.999425, 9.99962 
7.250286e+2, 1.2467097e+2, -1539903.5, -1713976.4, -38991.99, 0.027978478, -0.13338535, -1531568.4, 186640.52, 0.0, 10.001575, 9.999239 
7.2503436e+2, 1.346697e+2, -1456712.3, -1654643.0, 30601.893, 0.28479615, -0.15779242, -1452088.9, 168132.0, 0.0, 10.001582, 9.998985 
7.250336e+2, 1.4466803e+2, -1368508.5, -1557152.9, -8484.294, -0.08302569, -0.22365743, -1368127.6, 154110.02, 0.0, 10.001513, 9.999005 
7.2503734e+2, 1.5466812e+2, -1287766.1, -1468494.0, -16924.406, 0.07672578, -0.11662219, -1286194.9, 138043.22, 0.0, 10.001399, 9.998996 
7.250399e+2, 1.6466728e+2, -1225360.0, -1411713.9, -29444.193, 0.13061157, -0.0900529, -1220818.4, 105428.79, 0.0, 10.001257, 9.998781 
7.2504115e+2, 1.7466536e+2, -1152071.9, -1324558.4, -26542.658, 0.06965265, -0.16214801, -1148079.8, 80186.586, 0.0, 10.001083, 9.998791 
7.2504264e+2, 1.8466407e+2, -1062507.1, -1232003.6, -26746.371, 0.043926053, -0.16817059, -1058386.8, 71892.61, 0.0, 10.00103, 9.998779 
7.250444e+2, 1.9466354e+2, -949927.94, -1125682.0, -18045.81, 0.055832937, -0.10317457, -948094.2, 84191.15, 0.0, 10.001124, 9.998791 
7.2504616e+2, 2.0466247e+2, -871427.25, -1041559.06, -3579.6458, 0.04027859, -0.08628899, -871352.0, 62944.16, 0.0, 10.001008, 9.998753 
7.2504777e+2, 2.1466082e+2, -825292.2, -967535.25, -13405.7295, -0.0058110636, -0.1296829, -824039.8, 12272.6, 0.0, 10.000648, 9.998762 
7.250497e+2, 2.2465932e+2, -762340.56, -921860.2, -24269.75, -0.019378465, -0.1404932, -758729.9, -20402.38, 0.0, 10.000559, 9.9984455 
7.2505176e+2, 2.3465799e+2, -630892.8, -807648.56, -15162.39, 0.0042202603, -0.11963346, -629601.6, 10739.51, 0.0, 10.000788, 9.998446 
7.250539e+2, 2.4465668e+2, -529618.8, -688700.6, 5077.2666, 0.01313809, -0.10297843, -529456.94, 12897.072, 0.0, 10.000728, 9.998619 
7.250562e+2, 2.5465542e+2, -486821.7, -614872.75, 420.39746, 0.0044130445, -0.095290676, -486820.28, -42454.496, 0.0, 10.000339, 9.99864 
7.250584e+2, 2.646539e+2, -426354.25, -552378.9, -4127.1104, -0.0074064573, -0.10397727, -426219.25, -79838.78, 0.0, 10.000156, 9.998484 
7.2506046e+2, 2.7465206e+2, -319749.94, -448881.38, -8062.492, -0.021173282, -0.13775815, -319248.5, -70850.07, 0.0, 10.00021, 9.998496 
7.250628e+2, 2.8465062e+2, -226393.61, -329039.4, 699.1641, -0.034392465, -0.1411818, -226388.84, -75977.13, 0.0, 10.000074, 9.998712 
7.250651e+2, 2.9464966e+2, -176816.11, -253975.25, 6492.275, -0.051590398, -0.11259067, -176273.66, -123854.32, 0.0, 9.999741, 9.998714 
7.2506714e+2, 3.046484e+2, -97874.24, -124583.586, -14494.595, -0.06823623, -0.13732989, -91520.016, -91520.016, 0.000000018939705, 9.999662, 9.999307 
7.250698e+2, 3.146472e+2, -52461.813, -75947.875, 11235.6875, 0.009636669, -0.19503176, -47952.473, -47952.473, 0.0000007295325, 9.999859, 9.999545 
7.3503035e+2, 1.2466764e+2, -1549707.8, -1734387.8, -49541.684, 0.04675486, -0.21894908, -1537257.3, 180981.55, 0.0, 10.001575, 9.9991 
7.350359e+2, 1.3466726e+2, -1461313.9, -1663209.8, 30638.45, 0.2812168, -0.14858939, -1456766.8, 163477.0, 0.0, 10.001579, 9.998928 
7.350352e+2, 1.4466564e+2, -1371295.5, -1563322.5, -12706.022, -0.078480646, -0.20465074, -1370458.5, 151802.42, 0.0, 10.001513, 9.998963 
7.350386e+2, 1.5466508e+2, -1290005.8, -1474497.0, -20406.943, 0.05400849, -0.15747522, -1287775.5, 136491.95, 0.0, 10.001404, 9.998952 
7.3504096e+2, 1.6466431e+2, -1219913.1, -1401243.1, -36075.355, 0.111170486, -0.12606053, -1212999.6, 113276.73, 0.0, 10.00126, 9.998852 
7.350424e+2, 1.7466328e+2, -1146943.6, -1313934.9, -33142.957, 0.090773925, -0.11808579, -1140606.1, 87681.71, 0.0, 10.001082, 9.998864 
7.350439e+2, 1.846622e+2, -1046962.1, -1199850.0, -23775.725, 0.062695384, -0.11825392, -1043350.06, 86948.63, 0.0, 10.001029, 9.999001 
7.3504525e+2, 1.9466107e+2, -934073.3, -1092808.8, -14518.8545, 0.022629261, -0.1332828, -932756.25, 99552.53, 0.0, 10.001123, 9.999017 
7.3504686e+2, 2.0465986e+2, -890299.6, -1080779.6, -16996.082, 0.013091916, -0.12972148, -888794.94, 45526.18, 0.0, 10.001008, 9.998485 
7.350489e+2, 2.1465856e+2, -845128.8, -1008942.75, -27140.49, 0.039692838, -0.10949302, -840749.25, -4413.312, 0.0, 10.000648, 9.998478 
7.3505074e+2, 2.246573e+2, -745943.4, -888392.7, -16597.547, 0.029704718, -0.09208302, -744035.06, -5685.934, 0.0, 10.000561, 9.998675 
7.350522e+2, 2.346561e+2, -613490.25, -771626.75, -6541.3047, -0.022308271, -0.083886355, -613220.1, 27140.344, 0.0, 10.000788, 9.998694 
7.3505425e+2, 2.4465457e+2, -538119.3, -706294.06, -9043.393, -0.027200792, -0.09563435, -537634.4, 4740.5054, 0.0, 10.000727, 9.998499 
7.3505664e+2, 2.546527e+2, -496145.03, -634005.56, -14118.577, 0.020814702, -0.13420837, -494713.97, -50321.297, 0.0, 10.000338, 9.998509 
7.3505867e+2, 2.646513e+2, -432840.2, -565688.56, -2583.2173, 0.008649215, -0.11838452, -432789.97, -86383.305, 0.0, 10.000155, 9.998393 
7.350602e+2, 2.7465045e+2, -326307.8, -462591.94, -5740.1133, -0.07028238, -0.047130235, -326066.47, -77649.984, 0.0, 10.00021, 9.998403 
7.350625e+2, 2.8464887e+2, -214830.67, -305187.13, -11372.311, -0.07172872, -0.06890685, -213421.33, -62990.133, 0.0, 10.000074, 9.998875 
7.350655e+2, 2.946465e+2, -165041.31, -228435.7, -5445.816, 0.010849877, -0.19632088, -164576.9, -112126.07, 0.0, 9.999735, 9.998892 
7.3506737e+2, 3.0464572e+2, -103990.29, -135936.3, -7541.7573, -0.010498308, -0.17789547, -102299.34, -102299.34, 0.0000000073965225, 9.999656, 9.999232 
7.350691e+2, 3.1464604e+2, -59416.336, -88488.02, 16558.662, -0.046531107, -0.07564056, -51918.566, -51918.566, 0.0000004773962, 9.99985, 9.999463 
7.450319e+2, 1.2466499e+2, -1571356.5, -1760832.1, -37401.137, 0.049144298, -0.25362214, -1564241.0, 154022.3, 0.0, 10.001496, 9.998956 
7.450375e+2, 1.34665e+2, -1432873.0, -1657864.6, 48663.7, 0.2704391, -0.13942307, -1422798.5, 197467.44, 0.0, 10.001811, 9.998853 
7.4503684e+2, 1.4466335e+2, -1339987.9, -1549113.3, -10756.473, -0.06859642, -0.19248663, -1339436.1, 182847.72, 0.0, 10.001731, 9.998956 
7.450399e+2, 1.5466261e+2, -1310648.1, -1485244.6, -15445.108, 0.050572164, -0.16379827, -1309292.3, 114999.83, 0.0, 10.001266, 9.998945 
7.45042e+2, 1.6466185e+2, -1238796.6, -1397814.4, -17976.889, 0.10176267, -0.1348288, -1236789.8, 89510.9, 0.0, 10.001078, 9.998963 
7.450435e+2, 1.7466107e+2, -1121215.3, -1289226.6, -12132.28, 0.0841092, -0.111886136, -1120343.8, 107965.64, 0.0, 10.001206, 9.998974 
7.4504495e+2, 1.8466008e+2, -1032983.44, -1193046.0, -12274.332, 0.06077559, -0.10902313, -1032047.6, 98271.75, 0.0, 10.001124, 9.9990015 
7.4504626e+2, 1.9465886e+2, -980662.8, -1115796.3, -20574.852, 0.027556427, -0.13387042, -977599.56, 54731.207, 0.0, 10.000806, 9.999012 
7.450478e+2, 2.0465766e+2, -933773.56, -1101623.6, -21461.443, 0.018227259, -0.12951869, -931072.94, 3270.2925, 0.0, 10.00071, 9.998485 
7.450496e+2, 2.1465647e+2, -812670.75, -993049.8, -10553.805, 0.037057392, -0.0970551, -812055.4, 24301.545, 0.0, 10.00087, 9.99848 
7.450514e+2, 2.2465524e+2, -702522.44, -869936.0, 6391.1895, 0.026930295, -0.07715147, -702278.8, 36091.195, 0.0, 10.00087, 9.998652 
7.4505305e+2, 2.3465393e+2, -630517.4, -782349.7, -3843.5518, -0.016624136, -0.07695989, -630420.1, 9962.24, 0.0, 10.000683, 9.998672 
7.4505484e+2, 2.4465238e+2, -568523.94, -721580.06, -22859.768, -0.023183415, -0.0900839, -565182.6, -22785.51, 0.0, 10.000522, 9.998492 
7.450569e+2, 2.5465056e+2, -489012.34, -631616.6, -19570.25, 0.01188426, -0.12244884, -486375.4, -41960.855, 0.0, 10.000391, 9.9985 
7.450588e+2, 2.646492e+2, -415225.06, -555304.4, 9232.94, -0.0017260789, -0.105473556, -414619.13, -68190.76, 0.0, 10.000268, 9.998411 
7.4506044e+2, 2.7464828e+2, -330836.84, -462413.5, 14266.847, -0.069200896, -0.03943214, -329307.7, -80869.414, 0.0, 10.000169, 9.998423 
7.4506265e+2, 2.8464663e+2, -226737.66, -315228.38, -3391.0115, -0.06403495, -0.06483119, -226607.89, -76154.39, 0.0, 10.000011, 9.9988365 
7.450654e+2, 2.9464427e+2, -161312.67, -231752.77, -14140.464, 0.020000188, -0.19169565, -158580.05, -106106.03, 0.0, 9.999783, 9.998847 
7.4506706e+2, 3.0464378e+2, -108617.61, -137510.47, -9153.262, -0.0073344023, -0.1434261, -105961.945, -105961.945, 0.0000000015345106, 9.999621, 9.999238 
7.450688e+2, 3.1464368e+2, -95339.27, -92285.17, 18998.914, -0.05091664, -0.08129484, -74752.04, -74752.04, 0.00000026410652, 9.999546, 9.999583 
7.5503325e+2, 1.24663115e+2, -1583376.8, -1786901.3, -33557.29, 0.031535286, -0.23380136, -1577986.5, 140295.28, 0.0, 10.0015, 9.998776 
7.5503904e+2, 1.3466287e+2, -1440588.6, -1673633.3, 60159.74, 0.24930692, -0.13165171, -1425974.9, 194312.53, 0.0, 10.001809, 9.998745 
7.550387e+2, 1.4466116e+2, -1337885.6, -1544745.6, -28072.19, -0.056086697, -0.18798734, -1334143.8, 188162.67, 0.0, 10.00173, 9.998986 
7.5504124e+2, 1.546607e+2, -1307547.1, -1479629.0, -32742.855, 0.06626922, -0.13442744, -1301527.5, 122784.31, 0.0, 10.001268, 9.998982 
7.5504315e+2, 1.6465995e+2, -1227911.4, -1376203.6, -13975.696, 0.10212933, -0.11547654, -1226605.8, 99714.055, 0.0, 10.0010805, 9.99911 
7.550444e+2, 1.746588e+2, -1110474.4, -1267444.5, -7180.4507, 0.04892253, -0.14335532, -1110146.6, 118184.164, 0.0, 10.001207, 9.999124 
7.550458e+2, 1.846578e+2, -1048511.6, -1225270.4, -23999.193, 0.036973104, -0.14033115, -1045311.1, 85030.11, 0.0, 10.001124, 9.99878 
7.550475e+2, 1.9465692e+2, -996904.25, -1149905.5, -32650.488, 0.069634385, -0.105778, -990227.94, 42123.19, 0.0, 10.000807, 9.998778 
7.550489e+2, 2.0465589e+2, -915038.6, -1063289.9, -16451.408, 0.054865412, -0.086619325, -913234.94, 21127.416, 0.0, 10.0007105, 9.998748 
7.5505e+2, 2.146546e+2, -792923.44, -952222.75, -4809.8467, -0.013728829, -0.09157673, -792778.3, 43596.836, 0.0, 10.00087, 9.99876 
7.550517e+2, 2.2465315e+2, -721419.3, -909133.06, -530.3864, -0.028006943, -0.0943587, -721417.8, 16972.02, 0.0, 10.000869, 9.998384 
7.5505406e+2, 2.346515e+2, -651051.6, -824624.94, -10911.39, 0.02006102, -0.098796785, -650368.44, -9961.774, 0.0, 10.000681, 9.998383 
7.550559e+2, 2.446501e+2, -561707.56, -707311.56, -27768.045, 0.024069065, -0.08668217, -556591.7, -14171.028, 0.0, 10.000521, 9.99859 
7.550569e+2, 2.5464898e+2, -481298.56, -615686.94, -24325.383, -0.022640994, -0.06046154, -477030.97, -32599.535, 0.0, 10.00039, 9.99861 
7.5505865e+2, 2.646475e+2, -406484.8, -537041.75, 5307.442, -0.039179794, -0.0651207, -406269.4, -59823.855, 0.0, 10.000267, 9.998537 
7.550611e+2, 2.746456e+2, -322228.06, -443591.44, 10968.915, -0.020670371, -0.113569036, -321244.66, -72780.945, 0.0, 10.000164, 9.998555 
7.550631e+2, 2.84644e+2, -244045.3, -350349.34, -11596.555, -0.013927812, -0.12812707, -242794.95, -92316.375, 0.0, 10.000008, 9.998597 
7.550647e+2, 2.9464296e+2, -179620.53, -270246.72, -22098.965, -0.023498233, -0.09904969, -174518.94, -122030.06, 0.0, 9.9997835, 9.998582 
7.5506616e+2, 3.0464253e+2, -102298.945, -124512.31, -11834.393, -0.058567036, -0.033715256, -97175.68, -97175.68, 0.00000000001992495, 9.999621, 9.999327 
7.550687e+2, 3.146402e+2, -76099.664, -50090.92, 14278.563, -0.00921475, -0.20276895, -43782.316, -43782.316, 0.000000109993245, 9.9995365, 9.999878 
7.6503515e+2, 1.2466156e+2, -1521527.5, -1765048.6, -34410.246, 0.052074358, -0.1915134, -1516758.6, 201539.64, 0.0, 10.001957, 9.998707 
7.650405e+2, 1.3466094e+2, -1490154.4, -1696977.3, 72936.59, 0.23125894, -0.1261343, -1467020.6, 153286.61, 0.0, 10.001469, 9.998749 
7.6504016e+2, 1.4465915e+2, -1401533.9, -1570488.9, -11382.746, -0.061675385, -0.19521596, -1400770.5, 121556.484, 0.0, 10.001273, 9.99903 
7.6504254e+2, 1.5465894e+2, -1275825.9, -1460180.1, -15754.02, 0.057216033, -0.118454, -1274489.3, 149840.31, 0.0, 10.001468, 9.999021 
7.650443e+2, 1.6465822e+2, -1185267.1, -1359015.4, -3088.016, 0.09055816, -0.096705586, -1185212.3, 141124.83, 0.0, 10.001387, 9.999082 
7.6504534e+2, 1.7465685e+2, -1142974.6, -1286314.0, -9968.4375, 0.03582161, -0.14309342, -1142284.8, 86065.39, 0.0, 10.0009985, 9.999095 
7.650467e+2, 1.8465577e+2, -1094121.1, -1250252.4, -26042.469, 0.028982338, -0.14449939, -1089891.9, 40469.57, 0.0, 10.000824, 9.998754 
7.650484e+2, 1.94655e+2, -986526.0, -1148222.3, -19360.725, 0.07406638, -0.0993511, -984240.1, 48130.586, 0.0, 10.000893, 9.998749 
7.6504976e+2, 2.0465398e+2, -884708.0, -1049526.9, 2496.7195, 0.06049905, -0.07655802, -884670.2, 49711.62, 0.0, 10.000923, 9.998739 
7.650508e+2, 2.1465264e+2, -788215.8, -951054.75, -7469.8076, -0.019773837, -0.08571688, -787873.9, 48521.105, 0.0, 10.000908, 9.99875 
7.650525e+2, 2.2465116e+2, -736515.4, -914868.3, -16017.1875, -0.035365164, -0.09214481, -735088.3, 3321.5972, 0.0, 10.00076, 9.998397 
7.650547e+2, 2.346495e+2, -682433.8, -838604.94, -4933.854, 0.02315007, -0.099537365, -682278.1, -41851.254, 0.0, 10.000461, 9.998392 
7.650564e+2, 2.4464808e+2, -590551.0, -723936.0, -6564.1553, 0.032720346, -0.086305976, -590228.75, -47787.832, 0.0, 10.000335, 9.998566 
7.6505744e+2, 2.5464702e+2, -479348.72, -617455.3, -13386.976, -0.0143632535, -0.05436451, -478063.06, -33611.54, 0.0, 10.000417, 9.998585 
7.65059e+2, 2.6464555e+2, -397030.53, -522860.78, 2004.0852, -0.032058958, -0.06031024, -396998.63, -50533.332, 0.0, 10.000292, 9.998621 
7.6506114e+2, 2.7464363e+2, -351132.8, -447938.03, 3753.477, -0.014945837, -0.118410915, -350987.5, -102504.61, 0.0, 9.999925, 9.99864 
7.6506305e+2, 2.8464207e+2, -275558.8, -370718.1, -5474.787, -0.014765975, -0.13434951, -275244.88, -124747.234, 0.0, 9.999813, 9.998551 
7.650645e+2, 2.9464102e+2, -150421.25, -261974.89, -859.6553, -0.037250314, -0.09603921, -150414.63, -97906.46, 0.0, 10.00001, 9.99853 
7.6506585e+2, 3.0464065e+2, -77490.16, -132555.14, -2341.2258, -0.06696775, -0.012426335, -77390.79, -77390.79, 0.0, 9.999878, 9.999148 
7.650684e+2, 3.146379e+2, -99392.04, -55720.484, -846.09064, 0.014618991, -0.20791194, -55704.1, -55704.1, 0.000000028836135, 9.999351, 9.999929 
7.7503765e+2, 1.2466037e+2, -1518936.5, -1758824.0, -57210.906, 0.10479385, -0.12527607, -1505990.9, 212321.81, 0.00000000003061157, 10.001953, 9.998752 
7.750419e+2, 1.3465928e+2, -1481055.1, -1678550.8, 54156.11, 0.2152377, -0.12141404, -1467179.6, 153145.36, 0.0, 10.001471, 9.998874 
7.750412e+2, 1.4465731e+2, -1397392.5, -1563377.8, -5555.0547, -0.08615524, -0.21304394, -1397206.8, 125138.336, 0.0, 10.001278, 9.999077 
7.750437e+2, 1.5465736e+2, -1272599.0, -1454330.6, -8254.964, 0.022782993, -0.11665428, -1272224.9, 152120.3, 0.0, 10.00147, 9.99906 
7.750454e+2, 1.6465673e+2, -1199591.1, -1388743.8, -17392.59, 0.066037916, -0.07891741, -1198005.3, 128347.08, 0.0, 10.001386, 9.9988785 
7.7504647e+2, 1.7465529e+2, -1157344.5, -1316556.9, -24562.098, 0.043711495, -0.11147313, -1153641.4, 74725.86, 0.0, 10.000999, 9.998887 
7.750476e+2, 1.8465409e+2, -1082441.1, -1226248.6, -24256.95, 0.035650842, -0.12197236, -1078459.8, 51919.89, 0.0, 10.000825, 9.998919 
7.75049e+2, 1.9465311e+2, -973987.4, -1122653.6, -16885.33, 0.04098013, -0.11367193, -972093.6, 60295.582, 0.0, 10.000894, 9.998924 
7.750504e+2, 2.0465197e+2, -904195.0, -1090135.1, 1615.3804, 0.034809973, -0.09842713, -904181.0, 30220.336, 0.0, 10.000923, 9.998461 
7.7505213e+2, 2.1465062e+2, -809418.1, -994589.2, -8192.384, 0.01746722, -0.07998229, -809056.4, 27359.86, 0.0, 10.000905, 9.998452 
7.7505356e+2, 2.2464927e+2, -716897.4, -873935.3, -27184.348, 0.003457391, -0.07147318, -712324.75, 26105.45, 0.0, 10.000759, 9.998679 
7.750549e+2, 2.3464788e+2, -660880.9, -794209.7, -16176.1455, -0.007454139, -0.079073146, -658946.3, -18503.426, 0.0, 10.000462, 9.998696 
7.750565e+2, 2.4464636e+2, -600601.4, -745132.44, -4151.4883, 0.0023917607, -0.08824695, -600482.25, -58024.543, 0.0, 10.000336, 9.998421 
7.750583e+2, 2.5464466e+2, -490810.22, -641020.6, -10038.826, 0.034757778, -0.103710845, -490142.25, -45667.55, 0.0, 10.000415, 9.998424 
7.750598e+2, 2.646433e+2, -394488.53, -517161.03, -11003.903, 0.018197011, -0.09072524, -393509.28, -47021.805, 0.0, 10.00029, 9.998662 
7.750607e+2, 2.7464238e+2, -348328.16, -442036.84, -9551.049, -0.052059706, -0.05417684, -347364.6, -98868.81, 0.0, 9.999924, 9.998681 
7.750623e+2, 2.846408e+2, -265535.13, -349621.03, 1287.1779, -0.06705088, -0.083587326, -265515.44, -115004.8, 0.0, 9.999811, 9.998697 
7.750646e+2, 2.946385e+2, -140340.34, -240142.94, 7314.0054, -0.024220642, -0.18240336, -139807.19, -87275.3, 0.0, 10.000005, 9.998683 
7.75066e+2, 3.046382e+2, -109142.45, -196764.16, -20576.227, -0.03534017, -0.07849775, -104551.12, -104551.12, 0.0, 9.999871, 9.998711 
7.750678e+2, 3.1463677e+2, -113426.63, -84517.02, -22233.936, 0.017182231, -0.09809054, -72452.23, -72452.23, 0.0000000029769756, 9.999349, 9.999733 
7.850397e+2, 1.2465877e+2, -1496673.1, -1743167.6, -56584.492, 0.10750386, -0.12061101, -1484304.4, 234026.03, 0.0000000009851104, 10.002086, 9.9987955 
7.850434e+2, 1.3465798e+2, -1424704.4, -1639528.8, 54602.16, 0.20484135, -0.097805895, -1411622.8, 208716.23, 0.0, 10.001807, 9.99898 
7.8504264e+2, 1.4465603e+2, -1356618.5, -1542780.5, 7074.8784, -0.079465285, -0.19348454, -1356350.0, 166008.45, 0.0, 10.001553, 9.999087 
7.8504497e+2, 1.5465581e+2, -1284626.0, -1459134.6, 2899.7383, 0.012142134, -0.12604043, -1284577.8, 139783.22, 0.0, 10.001384, 9.999068 
7.850466e+2, 1.646551e+2, -1225581.5, -1408438.3, -11544.71, 0.051824216, -0.09005857, -1224855.5, 101513.19, 0.0, 10.001239, 9.998814 
7.850475e+2, 1.7465392e+2, -1145446.5, -1319076.6, -9112.24, 0.042492203, -0.09234653, -1144969.6, 83412.45, 0.0, 10.001116, 9.998814 
7.8504854e+2, 1.8465275e+2, -1049925.1, -1215195.6, 657.0293, 0.034846965, -0.09413661, -1049922.5, 80471.74, 0.0, 10.001068, 9.998878 
7.850498e+2, 1.9465156e+2, -945200.06, -1113022.8, -8040.1025, 0.02502368, -0.10204368, -944815.75, 87589.81, 0.0, 10.00111, 9.998885 
7.850512e+2, 2.046503e+2, -898977.75, -1089122.4, 2897.4312, 0.019340644, -0.096050374, -898933.6, 35485.04, 0.0, 10.000966, 9.998446 
7.850529e+2, 2.1464893e+2, -854039.1, -1017881.5, 13590.331, 0.02106912, -0.07823565, -852919.44, -16485.713, 0.0, 10.000607, 9.998436 
7.850543e+2, 2.2464766e+2, -751197.44, -885629.0, 2179.0945, 0.01241839, -0.06151599, -751162.1, -12715.337, 0.0, 10.000504, 9.99872 
7.850554e+2, 2.3464651e+2, -622732.44, -770755.0, -6733.828, -0.009531141, -0.051755074, -622426.75, 18030.732, 0.0, 10.000704, 9.99874 
7.850569e+2, 2.4464494e+2, -555433.56, -723466.9, -2893.1836, -0.0012758622, -0.06636519, -555383.75, -12911.389, 0.0, 10.000648, 9.998418 
7.850588e+2, 2.546429e+2, -508690.03, -650447.4, 2324.2788, 0.04065675, -0.11251305, -508651.94, -64160.047, 0.0, 10.000296, 9.998416 
7.850601e+2, 2.6464155e+2, -420282.38, -530678.1, 4321.7163, 0.025741797, -0.104570255, -420113.44, -73608.445, 0.0, 10.000117, 9.9986515 
7.8506076e+2, 2.7464083e+2, -317087.88, -428104.2, 985.1316, -0.05183375, -0.0432834, -317079.13, -68568.016, 0.0, 10.000144, 9.99867 
7.850622e+2, 2.8463924e+2, -243018.97, -337113.3, 7088.2793, -0.06769677, -0.068618886, -242488.0, -91962.33, 0.0, 9.999959, 9.998712 
7.850644e+2, 2.9463682e+2, -209898.08, -272518.3, 2768.253, -0.01751562, -0.18780519, -209775.94, -157227.05, 0.0, 9.999522, 9.9986925 
7.850657e+2, 3.0463648e+2, -184309.27, -241647.69, -18551.852, -0.029747648, -0.08593304, -178830.34, -178830.34, 0.0, 9.9993925, 9.998632 
7.8506726e+2, 3.1463522e+2, -59877.984, -37356.67, 4248.5415, 0.014146138, -0.07841314, -36581.863, -36581.863, 0.0, 9.999625, 9.999923 
7.9504126e+2, 1.24656856e+2, -1494489.4, -1740252.1, -69256.43, 0.055279292, -0.17301461, -1476316.6, 242034.16, 0.0000000034592607, 10.002091, 9.998814 
7.950451e+2, 1.3465706e+2, -1418618.6, -1627935.9, 43867.81, 0.19933394, -0.05612235, -1409796.9, 210552.2, 0.0, 10.001811, 9.999058 
7.950446e+2, 1.446553e+2, -1358128.6, -1546201.9, -451.89902, -0.042909935, -0.13738975, -1358127.5, 164239.1, 0.0, 10.0015545, 9.999063 
7.950465e+2, 1.5465428e+2, -1286024.6, -1461932.1, -3243.3674, 0.023178497, -0.14639834, -1285964.9, 138412.02, 0.0, 10.001384, 9.999049 
7.950477e+2, 1.6465342e+2, -1220742.1, -1398678.4, -16268.436, 0.046224244, -0.12969567, -1219267.0, 107119.14, 0.0, 10.00124, 9.998881 
7.950485e+2, 1.7465276e+2, -1140177.8, -1309381.4, -13527.359, 0.032231916, -0.08530795, -1139103.1, 89290.96, 0.0, 10.001121, 9.9988785 
7.950495e+2, 1.8465176e+2, -1067010.5, -1251285.9, 1741.5009, 0.026021201, -0.061028626, -1066994.1, 63410.973, 0.0, 10.00107, 9.998629 
7.950509e+2, 1.9465037e+2, -963575.1, -1150855.4, -6517.437, 0.024804546, -0.06556019, -963348.6, 69071.01, 0.0, 10.001109, 9.998627 
7.950521e+2, 2.0464897e+2, -881901.06, -1053452.3, -10570.9795, 0.013022338, -0.07040291, -881252.1, 53181.563, 0.0, 10.000965, 9.9986925 
7.9505324e+2, 2.1464758e+2, -835244.8, -979329.44, -225.86581, -0.008944183, -0.07980073, -835244.5, 1202.7946, 0.0, 10.000608, 9.9987 
7.950546e+2, 2.2464637e+2, -764857.3, -914689.6, 8627.422, -0.008865545, -0.061632402, -764362.2, -25902.62, 0.0, 10.000506, 9.99852 
7.950564e+2, 2.3464535e+2, -638099.8, -802545.6, 877.82635, 0.01573369, -0.01814912, -638095.1, 2375.333, 0.0, 10.000702, 9.998523 
7.950577e+2, 2.4464387e+2, -546188.3, -704057.56, -15420.852, 0.02081223, -0.021342168, -544696.1, -2211.2773, 0.0, 10.000646, 9.998552 
7.950587e+2, 2.5464183e+2, -498601.47, -629201.94, -10589.83, 0.00301365, -0.08095506, -497748.38, -53245.348, 0.0, 10.000294, 9.998563 
7.9505986e+2, 2.646402e+2, -424825.22, -540095.6, 4799.0293, -0.01002634, -0.10157435, -424625.78, -78108.0, 0.0, 10.000116, 9.998589 
7.950613e+2, 2.7463898e+2, -321930.06, -438307.44, 2312.2546, -0.016719729, -0.08589189, -321884.13, -73355.2, 0.0, 10.000143, 9.998601 
7.950626e+2, 2.8463754e+2, -251696.94, -354465.78, -8407.919, -0.018833796, -0.08942001, -251013.6, -100470.805, 0.0, 9.999956, 9.998594 
7.950639e+2, 2.9463592e+2, -219420.84, -291300.13, -12957.509, -0.019011842, -0.112320356, -217156.36, -164597.16, 0.0, 9.999517, 9.998566 
7.9506487e+2, 3.046354e+2, -166091.19, -203043.84, -10331.836, -0.051904906, -0.03396513, -163398.63, -163398.63, 0.0, 9.999389, 9.9989 
7.950668e+2, 3.1463322e+2, -21085.37, 43485.504, 11549.128, 0.0012675362, -0.1526182, 45489.01, 45489.01, 0.0, 9.999623, 10.000481 
8.050433e+2, 1.24656074e+2, -1506493.5, -1747351.4, -38275.12, 0.05289323, -0.16042526, -1500557.5, 217802.11, 0.0000000057252847, 10.002011, 9.998805 
8.050467e+2, 1.3465618e+2, -1396132.4, -1612014.1, 72109.97, 0.17053714, -0.059372947, -1374261.5, 246097.17, 0.0, 10.0019455, 9.999103 
8.0504614e+2, 1.4465445e+2, -1341859.4, -1549271.9, 20576.113, -0.05028714, -0.13419554, -1339837.8, 182538.23, 0.0, 10.001715, 9.998963 
8.050479e+2, 1.5465355e+2, -1299351.5, -1480683.5, 11441.3125, 0.02919508, -0.12033194, -1298632.5, 125753.25, 0.0, 10.001345, 9.9989395 
8.0504906e+2, 1.6465266e+2, -1219737.9, -1395832.9, 4945.2246, 0.05240456, -0.10134543, -1219599.1, 106796.16, 0.0, 10.001236, 9.998902 
8.0504966e+2, 1.7465183e+2, -1092338.4, -1283268.4, 4556.696, 0.021924904, -0.07770449, -1092229.6, 136174.78, 0.0, 10.001437, 9.998905 
8.050506e+2, 1.8465072e+2, -1029770.5, -1247106.0, 15873.397, 0.011427475, -0.057276998, -1028617.3, 101798.875, 0.0, 10.001387, 9.998505 
8.050519e+2, 1.9464935e+2, -982873.75, -1175035.3, 17051.896, 0.020681016, -0.04633379, -981372.3, 51058.746, 0.0, 10.00104, 9.998493 
8.0505306e+2, 2.0464796e+2, -893000.25, -1051693.0, 11001.0, 0.0113612395, -0.046687875, -892241.25, 42203.74, 0.0, 10.000859, 9.9987545 
8.0505383e+2, 2.1464658e+2, -792447.5, -950714.5, 6195.0015, -0.018576972, -0.06487502, -792205.4, 44252.42, 0.0, 10.00087, 9.998771 
8.050552e+2, 2.2464524e+2, -732832.0, -908342.06, 17111.605, -0.017066013, -0.057678867, -731179.25, 7291.4834, 0.0, 10.000766, 9.998438 
8.0505705e+2, 2.3464401e+2, -669192.44, -827413.3, 19010.008, 0.02058398, -0.027169852, -666940.5, -26456.531, 0.0, 10.000532, 9.998434 
8.0505836e+2, 2.4464251e+2, -577520.94, -715874.56, -1328.7716, 0.026830774, -0.026195979, -577508.2, -35009.87, 0.0, 10.000418, 9.998581 
8.0505896e+2, 2.5464076e+2, -474490.47, -613855.94, -5990.913, -0.0035858632, -0.062415734, -474233.4, -29719.5, 0.0, 10.000445, 9.998595 
8.0505997e+2, 2.6463914e+2, -399106.9, -530211.1, 6946.833, -0.015151926, -0.0836297, -398739.84, -52211.33, 0.0, 10.000304, 9.998565 
8.0506146e+2, 2.746376e+2, -348028.22, -454030.88, 7570.7344, -0.004319433, -0.09528494, -347490.22, -98947.84, 0.0, 9.999978, 9.998572 
8.050627e+2, 2.8463614e+2, -277871.28, -366555.44, -1016.1807, -0.0039868276, -0.099804685, -277859.63, -127303.14, 0.0, 9.999775, 9.998598 
8.0506355e+2, 2.9463482e+2, -192186.61, -277795.0, 2779.9236, -0.01834181, -0.09482861, -192096.44, -139525.97, 0.0, 9.999704, 9.998569 
8.0506426e+2, 3.0463415e+2, -153842.31, -196686.92, 7282.4595, -0.058546517, -0.030613305, -152638.33, -152638.33, 0.0, 9.999471, 9.998903 
8.0506605e+2, 3.14632e+2, -89566.95, 34906.96, 5664.41, -0.004870396, -0.14674512, 35164.2, 35164.2, 0.0, 9.999048, 10.000698 
8.150457e+2, 1.2465646e+2, -1507786.5, -1750702.1, -40808.168, 0.09251848, -0.08254252, -1501114.3, 217242.36, 0.000000004999778, 10.002014, 9.998781 
8.150481e+2, 1.3465533e+2, -1395722.6, -1609910.3, 69050.87, 0.11713433, -0.106913604, -1375391.5, 244976.0, 0.0, 10.001942, 9.999118 
8.150474e+2, 1.446535e+2, -1354075.9, -1575398.6, 6729.99, -0.10252802, -0.18272623, -1353871.4, 168514.72, 0.0, 10.001716, 9.998784 
8.1504923e+2, 1.5465362e+2, -1311346.1, -1508163.4, -1795.3156, 0.029889163, -0.048298996, -1311329.8, 113057.59, 0.0, 10.001354, 9.998748 
8.150505e+2, 1.6465285e+2, -1221327.9, -1400367.3, 11476.004, 0.06920668, -0.0063173296, -1220595.3, 105800.79, 0.0, 10.001242, 9.998868 
8.1505096e+2, 1.746511e+2, -1094417.0, -1286654.4, 12143.056, 0.010179658, -0.070287846, -1093653.0, 134759.9, 0.0, 10.001433, 9.998883 
8.1505173e+2, 1.8464969e+2, -1030213.6, -1247320.1, 3407.9944, -0.010119827, -0.08275529, -1030160.1, 100267.27, 0.0, 10.001383, 9.998506 
8.1505287e+2, 1.946486e+2, -982515.6, -1175189.5, 3915.7092, 0.012331519, -0.043362282, -982436.06, 50003.59, 0.0, 10.001044, 9.998491 
8.150539e+2, 2.0464733e+2, -901299.44, -1069744.5, 10478.001, 0.0135464035, -0.024715178, -900650.2, 33802.12, 0.0, 10.000862, 9.99863 
8.1505483e+2, 2.1464589e+2, -801444.3, -969457.94, 6401.525, -0.009118029, -0.03398554, -801200.75, 35264.434, 0.0, 10.000869, 9.998642 
8.1505597e+2, 2.246443e+2, -730306.94, -903408.75, 8188.264, -0.0131475115, -0.0498151, -729920.44, 8559.799, 0.0, 10.000767, 9.998472 
8.1505746e+2, 2.346425e+2, -666323.06, -821596.6, 10197.892, 0.004681753, -0.07747837, -665656.1, -25158.412, 0.0, 10.000532, 9.998474 
8.1505865e+2, 2.4464098e+2, -583321.5, -728221.44, -714.6872, 0.015908353, -0.07947245, -583317.94, -40805.355, 0.0, 10.000418, 9.998497 
8.150597e+2, 2.5463971e+2, -480698.94, -626851.25, -4837.723, 0.019269645, -0.05718202, -480538.97, -36014.49, 0.0, 10.000444, 9.998507 
8.1506056e+2, 2.6463833e+2, -398406.34, -528534.25, -4811.9346, 0.009182815, -0.05111265, -398228.66, -51691.38, 0.0, 10.000303, 9.998577 
8.1506133e+2, 2.7463672e+2, -347512.97, -452081.1, -3995.6821, -0.01583405, -0.070997484, -347360.5, -98809.06, 0.0, 9.999973, 9.998588 
8.1506217e+2, 2.846351e+2, -269945.63, -349837.25, -3776.3118, -0.024606759, -0.09895087, -269767.53, -119200.81, 0.0, 9.999772, 9.998715 
8.1506324e+2, 2.9463345e+2, -183423.64, -260018.4, 539.873, -0.018201118, -0.13586764, -183419.84, -130836.93, 0.0, 9.999704, 9.998691 
8.150638e+2, 3.0463272e+2, -172481.8, -234434.84, -7617.7593, -0.05164432, -0.07617489, -171558.86, -171558.86, 0.0, 9.999468, 9.998646 
8.15065e+2, 3.1463146e+2, -97976.34, 19004.707, -11635.501, -0.008536081, -0.07101276, 20150.803, 20150.803, 0.0000000016901937, 9.9990425, 10.000591 
8.250478e+2, 1.24656245e+2, -1443799.8, -1737394.8, -42983.676, 0.07132403, -0.07504722, -1437636.1, 280723.72, 0.0000000017683296, 10.002531, 9.998621 
8.2504994e+2, 1.346552e+2, -1411108.0, -1633524.3, 52557.004, 0.10350991, -0.07383047, -1399314.1, 221056.64, 0.0, 10.001905, 9.998972 
8.25049e+2, 1.4465342e+2, -1367183.6, -1575256.8, 1254.5796, -0.10010897, -0.14257473, -1367176.0, 155213.27, 0.0, 10.001598, 9.998842 
8.2505053e+2, 1.5465334e+2, -1253764.5, -1472523.3, 11809.757, 0.005205103, -0.036629155, -1253128.8, 171262.73, 0.0, 10.001717, 9.9988165 
8.2505167e+2, 1.6465245e+2, -1173289.3, -1393016.5, 33885.117, 0.041466586, -0.0019328175, -1168182.4, 158218.52, 0.0, 10.001641, 9.998725 
8.250523e+2, 1.7465074e+2, -1119149.3, -1316078.8, 25172.418, 0.007592257, -0.04697299, -1115982.5, 112435.42, 0.0, 10.001339, 9.998727 
8.2505304e+2, 1.8464926e+2, -1063716.4, -1264009.5, 6854.5044, -0.006059227, -0.057247177, -1063482.0, 66951.01, 0.0, 10.001155, 9.9985 
8.250538e+2, 1.9464798e+2, -971983.6, -1169898.8, 6732.652, 0.000911788, -0.03590803, -971754.8, 60691.71, 0.0, 10.001116, 9.998491 
8.2505476e+2, 2.046466e+2, -873939.3, -1065412.0, 21580.846, 0.00218519, -0.025510732, -871537.1, 62922.918, 0.0, 10.001089, 9.998549 
8.2505584e+2, 2.1464513e+2, -778137.1, -967443.8, 21373.447, -0.0020967713, -0.031667713, -775754.0, 60719.34, 0.0, 10.001069, 9.998559 
8.250569e+2, 2.2464348e+2, -709194.0, -893023.4, 13909.769, -0.0033308603, -0.04796703, -708147.44, 30341.203, 0.0, 10.000911, 9.998473 
8.250579e+2, 2.3464164e+2, -657387.44, -816750.25, 12119.869, -0.0010655652, -0.07978897, -656471.0, -15964.834, 0.0, 10.000592, 9.998478 
8.2505894e+2, 2.4464008e+2, -588020.9, -728369.2, 12416.781, 0.009125573, -0.08572028, -586930.8, -44409.734, 0.0, 10.000377, 9.998515 
8.250601e+2, 2.546388e+2, -501225.56, -634484.2, 16371.155, 0.027914286, -0.068291225, -499243.78, -54710.55, 0.0, 10.000294, 9.998527 
8.250609e+2, 2.646374e+2, -410679.84, -530586.75, 14118.541, 0.018742397, -0.0618599, -409039.88, -62494.23, 0.0, 10.000203, 9.9986105 
8.2506126e+2, 2.7463597e+2, -328230.44, -438910.3, 15374.664, -0.02129403, -0.07367555, -326134.44, -77575.86, 0.0, 10.000091, 9.998621 
8.250619e+2, 2.8463438e+2, -263848.75, -347392.47, 10774.267, -0.03475545, -0.09791447, -262481.6, -111908.24, 0.0, 9.999817, 9.998709 
8.2506275e+2, 2.946327e+2, -232718.17, -284399.25, 4969.777, -0.021441838, -0.13853139, -232244.6, -179654.38, 0.0, 9.999369, 9.998684 
8.250631e+2, 3.0463168e+2, -217609.1, -260940.33, 2755.1218, -0.053924743, -0.103268266, -217434.61, -217434.61, 0.0, 9.999178, 9.998603 
8.2506406e+2, 3.146309e+2, -63771.227, 41164.406, 12486.029, -0.017816363, -0.04812987, 42629.63, 42629.63, 0.000000023716037, 9.999252, 10.000642 
8.3504945e+2, 1.2465549e+2, -1464672.8, -1781238.6, -64622.848, -0.01653269, -0.13578151, -1451989.0, 266379.3, 0.000000000051048894, 10.00253, 9.9983225 
8.350521e+2, 1.3465591e+2, -1430773.4, -1676829.8, 29450.123, 0.12720913, 0.038506612, -1427297.8, 193070.28, 0.0, 10.001914, 9.998672 
8.350511e+2, 1.4465423e+2, -1346755.5, -1534606.8, 3810.6409, -0.045445584, -0.015727056, -1346678.3, 175706.97, 0.0, 10.001606, 9.999118 
8.350518e+2, 1.546527e+2, -1232486.3, -1427440.4, 16159.987, -0.044769946, -0.08462276, -1231155.9, 193242.14, 0.0, 10.001714, 9.999127 
8.3505255e+2, 1.646515e+2, -1190360.6, -1428441.9, 23156.627, -0.03067894, -0.086171545, -1188129.3, 138280.23, 0.0, 10.001639, 9.998484 
8.350537e+2, 1.7465076e+2, -1137433.6, -1355646.0, 14182.309, 0.0128851645, -0.00762543, -1136515.8, 91903.34, 0.0, 10.001345, 9.998453 
8.350545e+2, 1.846495e+2, -1064786.0, -1266995.4, 4742.9883, 0.021605989, 0.018302126, -1064674.8, 65758.05, 0.0, 10.001159, 9.998478 
8.350548e+2, 1.9464757e+2, -972722.4, -1171192.9, 5075.001, -0.014212817, -0.02414028, -972592.7, 59858.816, 0.0, 10.001115, 9.998484 
8.350556e+2, 2.0464581e+2, -876132.75, -1070089.0, 20407.545, -0.023003723, -0.048630122, -874008.75, 60459.215, 0.0, 10.001088, 9.998518 
8.3505696e+2, 2.1464427e+2, -780433.5, -972420.5, 20204.66, 0.0017919996, -0.05709152, -778330.25, 58151.785, 0.0, 10.001069, 9.998525 
8.35058e+2, 2.2464281e+2, -711825.6, -898658.5, 1838.462, 0.011396217, -0.051949587, -711807.5, 26688.229, 0.0, 10.000911, 9.998435 
8.350585e+2, 2.3464143e+2, -659835.94, -822290.2, -63.328083, 0.0027386413, -0.035042666, -659835.94, -19326.844, 0.0, 10.000593, 9.99844 
8.3505934e+2, 2.4463984e+2, -579570.94, -711332.0, 8721.164, 0.0059405835, -0.045744922, -578996.2, -36472.51, 0.0, 10.000379, 9.9986315 
8.3506036e+2, 2.5463802e+2, -493020.38, -616891.7, 13653.352, 0.021577518, -0.09513505, -491533.3, -46993.313, 0.0, 10.000291, 9.998649 
8.35061e+2, 2.646365e+2, -407842.88, -524237.84, 9991.357, 0.012436512, -0.1145054, -406991.44, -60437.914, 0.0, 10.000199, 9.998656 
8.350613e+2, 2.746353e+2, -325357.22, -432792.28, 11202.213, -0.022642538, -0.10360479, -324201.6, -75637.7, 0.0, 10.000089, 9.998665 
8.350617e+2, 2.8463396e+2, -273199.72, -366495.94, -5422.6357, -0.036016893, -0.09733007, -272885.63, -122308.984, 0.0, 9.999815, 9.998579 
8.350621e+2, 2.946325e+2, -242750.98, -304592.78, -11031.336, -0.029040093, -0.10288172, -240842.14, -188249.66, 0.0, 9.999367, 9.998547 
8.3506215e+2, 3.0463105e+2, -206731.81, -237694.88, 5395.8306, -0.06646156, -0.11124121, -205818.44, -205818.44, 0.0, 9.999174, 9.998765 
8.350631e+2, 3.146301e+2, -49781.848, 71700.836, 14539.51, -0.0381177, -0.08823853, 73416.74, 73416.74, 0.00000010288848, 9.999246, 10.000855 
8.450515e+2, 1.24655485e+2, -1552559.1, -1806837.9, -85629.92, -0.025658773, -0.10004505, -1526411.5, 191959.67, 0.0, 10.001854, 9.998472 
8.450538e+2, 1.3465586e+2, -1412414.5, -1649707.9, 37897.402, 0.10313984, 0.054761585, -1406509.0, 213861.2, 0.0, 10.0019655, 9.998831 
8.4505284e+2, 1.446542e+2, -1303141.0, -1522945.9, 25785.434, -0.052267827, -0.0030992862, -1300156.5, 222230.28, 0.0, 10.001947, 9.999032 
8.450536e+2, 1.5465257e+2, -1223794.0, -1433482.6, 9735.945, -0.03986528, -0.07193577, -1223342.9, 201057.48, 0.0, 10.001818, 9.999036 
8.450542e+2, 1.646513e+2, -1193760.3, -1432873.5, -131.37793, -0.027495168, -0.074230626, -1193760.1, 132652.33, 0.0, 10.001628, 9.998458 
8.450549e+2, 1.7465052e+2, -1134409.6, -1356371.8, 8077.4873, -0.0020681138, 0.0013735235, -1134116.1, 94306.51, 0.0, 10.001375, 9.998432 
8.450555e+2, 1.8464917e+2, -1048762.8, -1262224.5, 19070.764, 0.0065400363, 0.022613948, -1047072.4, 83364.4, 0.0, 10.001281, 9.998451 
8.450561e+2, 1.9464718e+2, -938974.1, -1157532.6, 19037.258, -0.008819946, -0.025845163, -937328.3, 95127.38, 0.0, 10.001357, 9.998461 
8.4505683e+2, 2.0464541e+2, -861092.4, -1067241.3, 25666.49, -0.012551571, -0.047034074, -857944.8, 76527.27, 0.0, 10.001211, 9.998479 
8.4505785e+2, 2.1464399e+2, -821338.2, -996573.3, 24319.97, -0.00027257713, -0.041917693, -818025.56, 18460.188, 0.0, 10.000808, 9.998486 
8.4505874e+2, 2.2464252e+2, -751497.7, -916234.5, 11042.666, 0.009212878, -0.034793206, -750760.75, -12261.195, 0.0, 10.000633, 9.998448 
8.4505934e+2, 2.3464103e+2, -639623.7, -810917.2, 12627.071, 0.014096051, -0.02994264, -638697.9, 1815.7206, 0.0, 10.000725, 9.998454 
8.4505993e+2, 2.4463946e+2, -545023.44, -692173.0, 15562.831, 0.01466741, -0.043591775, -543395.44, -867.43256, 0.0, 10.000606, 9.998653 
8.4506047e+2, 2.5463772e+2, -499226.9, -617426.7, 12194.821, 0.0097251125, -0.084672265, -497981.88, -53438.7, 0.0, 10.000239, 9.99867 
8.4506094e+2, 2.6463616e+2, -440674.28, -528503.4, 8770.909, -0.0032864225, -0.10994275, -439806.97, -93250.484, 0.0, 9.999926, 9.998758 
8.4506124e+2, 2.7463487e+2, -376858.3, -445840.06, 14026.158, -0.023654986, -0.12087814, -374115.44, -125547.71, 0.0, 9.999686, 9.998769 
8.450615e+2, 2.8463364e+2, -305664.4, -386234.2, 2823.9426, -0.031833652, -0.10799408, -305565.56, -154986.0, 0.0, 9.999611, 9.998541 
8.450616e+2, 2.946325e+2, -196766.44, -287241.94, 3621.29, -0.028957948, -0.076589316, -196621.72, -144028.95, 0.0, 9.999703, 9.998503 
8.4506136e+2, 3.0463076e+2, -165596.98, -195113.7, 17636.299, -0.070897885, -0.12012604, -157358.64, -157358.64, 0.00000000024035085, 9.999359, 9.998967 
8.4506184e+2, 3.1462988e+2, -145259.08, 45066.94, 26088.07, -0.05337187, -0.11457237, 48578.07, 48578.07, 0.00000026211356, 9.998506, 10.001028 
8.55054e+2, 1.2465626e+2, -1511174.0, -1722719.6, -77970.02, 0.03364785, 0.02998343, -1485542.1, 232826.02, 0.0, 10.001861, 9.999047 
8.55055e+2, 1.3465515e+2, -1371504.5, -1564476.4, 41470.73, 0.033182986, -0.022470566, -1362969.8, 257407.39, 0.0, 10.001964, 9.999416 
8.5505414e+2, 1.4465338e+2, -1332568.9, -1584483.1, 20822.283, -0.11949375, -0.1016283, -1330859.4, 191534.44, 0.0, 10.001947, 9.9986105 
8.55056e+2, 1.5465298e+2, -1255802.4, -1501737.8, 5641.2085, 0.015964989, 0.0005463694, -1255673.0, 168725.45, 0.0, 10.001823, 9.998565 
8.550566e+2, 1.646519e+2, -1180875.9, -1407254.8, -9467.362, 0.046847537, 0.03170546, -1180480.6, 145929.06, 0.0, 10.001633, 9.998632 
8.55056e+2, 1.7465006e+2, -1119534.6, -1325728.4, -1452.1138, -0.03674665, -0.019082235, -1119524.4, 108903.67, 0.0, 10.001376, 9.998643 
8.550563e+2, 1.8464836e+2, -1049950.9, -1265012.3, 21367.127, -0.05052335, -0.042432617, -1047848.56, 82595.945, 0.0, 10.001281, 9.998433 
8.5505766e+2, 1.9464682e+2, -941031.9, -1162299.1, 21744.629, 0.015412638, -0.040953938, -938915.2, 93543.69, 0.0, 10.001359, 9.998427 
8.5505855e+2, 2.0464544e+2, -864446.7, -1074250.6, 10545.01, 0.03164254, -0.021718856, -863918.0, 70554.22, 0.0, 10.00121, 9.998431 
8.550586e+2, 2.1464424e+2, -824458.44, -1003390.3, 8732.754, -0.008739601, 0.013360104, -824033.2, 12451.145, 0.0, 10.000809, 9.998438 
8.5505915e+2, 2.2464262e+2, -747242.7, -907989.2, 13279.536, -0.0103366105, 0.0035785313, -746153.06, -7653.18, 0.0, 10.000634, 9.998505 
8.550602e+2, 2.3464048e+2, -635270.9, -801907.0, 16156.554, 0.03195781, -0.06376987, -633718.8, 6800.533, 0.0, 10.000724, 9.998516 
8.5506076e+2, 2.4463888e+2, -550828.9, -704096.9, 2321.132, 0.034172155, -0.07846245, -550793.7, -8259.833, 0.0, 10.000604, 9.998572 
8.550605e+2, 2.5463787e+2, -505092.28, -630041.0, -1489.8833, -0.008675173, -0.037683982, -505074.53, -60531.8, 0.0, 10.000239, 9.998584 
8.5506064e+2, 2.6463652e+2, -429560.5, -506066.66, -459.91183, -0.02917262, -0.04941901, -429557.75, -83003.16, 0.0, 9.9999275, 9.998912 
8.5506094e+2, 2.7463466e+2, -365561.84, -422433.38, 5545.915, -0.024839928, -0.12547867, -365026.06, -116456.05, 0.0, 9.999685, 9.998929 
8.550612e+2, 2.8463343e+2, -302986.2, -380315.0, 6248.5293, -0.022993015, -0.12900753, -302484.53, -151902.4, 0.0, 9.999608, 9.998584 
8.5506135e+2, 2.946327e+2, -194294.52, -281212.75, 7770.601, -0.024726918, -0.059708092, -193605.28, -141014.08, 0.0, 9.999699, 9.998548 
8.5506076e+2, 3.0463082e+2, -149776.42, -161333.25, -12651.419, -0.07048372, -0.13061258, -141646.25, -141646.25, 0.0000000059514194, 9.999354, 9.999202 
8.550602e+2, 3.1463003e+2, -135140.89, 65978.984, -6848.3843, -0.06570414, -0.13934608, 66211.914, 66211.914, 0.0000005093443, 9.998507, 10.001172 
8.6505586e+2, 1.2465624e+2, -1509291.6, -1714806.1, -30872.668, 0.032870255, 0.030603554, -1504754.1, 213615.11, 0.00000000000000000000885557, 10.001845, 9.999107 
8.6505675e+2, 1.3465516e+2, -1367646.0, -1556963.4, 44575.25, 0.014082421, -0.023350326, -1357675.8, 262701.6, 0.0, 10.001966, 9.999466 
8.65056e+2, 1.446535e+2, -1343235.8, -1590623.6, 6109.79, -0.12772666, -0.09279858, -1343085.0, 179307.78, 0.0, 10.00188, 9.998601 
8.650577e+2, 1.5465315e+2, -1293517.8, -1521061.5, 23440.701, 0.018892588, 0.0128179025, -1291128.0, 133269.56, 0.0, 10.00157, 9.998554 
8.6505824e+2, 1.6465198e+2, -1210788.8, -1430186.1, 22944.096, 0.055384587, 0.039893042, -1208415.0, 117994.86, 0.0, 10.001463, 9.998557 
8.6505747e+2, 1.7464994e+2, -1093230.0, -1321182.0, 10869.681, -0.030403, -0.021686187, -1092712.9, 135716.81, 0.0, 10.001592, 9.99857 
8.650577e+2, 1.8464825e+2, -1020039.94, -1246184.0, 21383.666, -0.046183694, -0.04469531, -1018035.7, 112410.39, 0.0, 10.001468, 9.998472 
8.6505896e+2, 1.9464687e+2, -983132.3, -1177924.4, 26546.207, 0.018704252, -0.030663796, -979579.4, 52879.324, 0.0, 10.00105, 9.998469 
8.6505955e+2, 2.0464548e+2, -915028.25, -1106951.6, 19210.03, 0.035240978, -0.0108903535, -913124.4, 21347.91, 0.0, 10.000899, 9.998357 
8.6505955e+2, 2.1464407e+2, -794456.8, -997563.94, 14968.896, -0.0044282, 0.011513689, -793359.5, 43127.17, 0.0, 10.001052, 9.998362 
8.650599e+2, 2.2464243e+2, -702531.0, -877787.0, 16053.598, -0.008859157, 0.0006083361, -701072.6, 37429.82, 0.0, 10.000904, 9.998581 
8.6506075e+2, 2.346405e+2, -675352.7, -811597.2, 19685.09, 0.027552692, -0.054953672, -672565.5, -32045.768, 0.0, 10.000408, 9.998601 
8.650611e+2, 2.44639e+2, -608499.56, -722334.56, 14565.495, 0.031076979, -0.06805829, -606665.44, -64132.363, 0.0, 10.000168, 9.998657 
8.6506087e+2, 2.5463796e+2, -501427.44, -618842.06, 22971.98, -0.0029852656, -0.03762097, -497093.03, -52551.17, 0.0, 10.000225, 9.998667 
8.650607e+2, 2.646366e+2, -406146.88, -505102.75, 17815.527, -0.024808442, -0.050623536, -403037.16, -56482.94, 0.0, 10.0001335, 9.998818 
8.650606e+2, 2.7463478e+2, -346478.25, -424617.53, 3834.8887, -0.032352798, -0.11709221, -346290.47, -97719.68, 0.0, 9.999866, 9.998827 
8.650607e+2, 2.8463367e+2, -290696.3, -342545.38, 7663.0283, -0.031969573, -0.11257506, -289587.47, -139006.11, 0.0, 9.999557, 9.998868 
8.650608e+2, 2.946333e+2, -246236.38, -272225.56, 27552.85, -0.024362078, -0.03848659, -228767.58, -176181.72, 0.0, 9.999197, 9.99885 
8.6506e+2, 3.0463132e+2, -198986.63, -199771.67, -3519.2756, -0.06736723, -0.12909144, -195838.05, -195838.05, 0.000000027135602, 9.999081, 9.999069 
8.65059e+2, 3.1463066e+2, -52702.24, 72221.89, -28809.121, -0.0726276, -0.10798185, 78545.54, 78545.54, 0.00000083365, 9.999217, 10.000872 
8.75057e+2, 1.24655485e+2, -1539034.5, -1777719.6, -23293.438, -0.033384945, -0.09466363, -1536782.6, 181591.34, 0.0000000055054987, 10.001848, 9.998675 
8.75059e+2, 1.3465594e+2, -1400019.9, -1624658.3, 49204.355, 0.040786527, 0.05014182, -1389715.0, 230655.44, 0.0, 10.001968, 9.999001 
8.7505835e+2, 1.4465462e+2, -1316511.6, -1536279.3, -4984.5747, -0.08181396, 0.020473978, -1316398.6, 205984.81, 0.0, 10.001883, 9.998972 
8.7505877e+2, 1.5465307e+2, -1263395.9, -1459845.4, 11680.58, -0.029046373, -0.032949924, -1262703.8, 161693.78, 0.0, 10.0015745, 9.998973 
8.750591e+2, 1.6465159e+2, -1231430.4, -1474528.3, 26446.953, 0.00033835295, -0.04602955, -1228586.5, 97825.96, 0.0, 10.001469, 9.998251 
8.7505955e+2, 1.746502e+2, -1116698.8, -1370718.4, 15706.222, 0.014062543, -0.00718966, -1115731.4, 112696.0, 0.0, 10.001595, 9.998229 
8.7505984e+2, 1.846488e+2, -1013648.56, -1233023.8, 6099.005, 0.01621905, 0.013975622, -1013479.1, 116962.24, 0.0, 10.001468, 9.998563 
8.7505984e+2, 1.9464733e+2, -975020.1, -1161769.8, 10432.653, 0.0011362738, 0.005053754, -974439.1, 58015.773, 0.0, 10.001052, 9.998579 
8.7506014e+2, 2.0464556e+2, -921852.2, -1121786.4, 23615.25, -0.0014559528, -0.0136019355, -919100.75, 15371.079, 0.0, 10.000901, 9.998255 
8.750608e+2, 2.146435e+2, -802100.25, -1013508.75, 20408.281, 0.011373767, -0.046669044, -800148.2, 36344.26, 0.0, 10.001051, 9.998252 
8.7506104e+2, 2.2464198e+2, -696120.9, -864461.5, -2193.679, 0.0125192655, -0.043409716, -696092.3, 42414.7, 0.0, 10.000903, 9.998673 
8.750609e+2, 2.3464109e+2, -668101.75, -797119.75, 902.8089, 0.0010393718, -0.0043085576, -668095.44, -27580.768, 0.0, 10.00041, 9.998701 
8.75061e+2, 2.446398e+2, -591132.1, -686625.4, 15716.703, 0.005086842, -0.013160121, -588611.94, -46086.383, 0.0, 10.000169, 9.998902 
8.7506133e+2, 2.5463802e+2, -484093.53, -582678.44, 25333.389, 0.02542312, -0.08329509, -477964.66, -33424.266, 0.0, 10.000224, 9.998917 
8.7506115e+2, 2.6463646e+2, -430453.72, -555339.94, 8441.297, 0.008606028, -0.11201006, -429885.72, -83330.51, 0.0, 10.000132, 9.998475 
8.750603e+2, 2.7463508e+2, -371816.6, -477411.25, -5523.845, -0.048195984, -0.096100785, -371528.4, -122958.36, 0.0, 9.999866, 9.998466 
8.7505996e+2, 2.8463435e+2, -254907.47, -268098.3, -5394.5483, -0.060572732, -0.059903223, -252982.28, -102404.96, 0.0, 9.999556, 9.999379 
8.7505996e+2, 2.9463425e+2, -207790.53, -192113.6, 14626.993, -0.026980229, -0.013409542, -183357.17, -130780.3, 0.0, 9.999195, 9.999401 
8.750591e+2, 3.0463222e+2, -233939.5, -271748.88, 1729.215, -0.060647663, -0.115944594, -233860.58, -233860.58, 0.00000006425192, 9.999078, 9.998577 
8.750582e+2, 3.146316e+2, -103372.02, -31861.547, -23096.057, -0.08022073, -0.032762565, -25050.777, -25050.777, 0.0000011924308, 9.999212, 10.000159 
8.8505864e+2, 1.24655716e+2, -1489656.0, -1751163.5, -35792.758, -0.069084, -0.10254146, -1484845.5, 233525.89, 0.00000006865042, 10.002176, 9.9987 
8.850611e+2, 1.3465619e+2, -1421618.1, -1635549.9, 64994.145, 0.058282267, 0.044959318, -1403420.4, 216947.0, 0.0, 10.001823, 9.998997 
8.850605e+2, 1.4465484e+2, -1348260.9, -1567163.3, 14103.291, -0.048749186, 0.02076779, -1347356.0, 175024.84, 0.0, 10.001732, 9.998833 
8.850604e+2, 1.5465315e+2, -1212347.6, -1450724.0, -9629.474, -0.045562368, -0.03497008, -1211959.3, 212438.11, 0.0, 10.001993, 9.998834 
8.8506055e+2, 1.6465169e+2, -1158587.1, -1423136.9, -6091.8804, -0.023345428, -0.0446656, -1158446.9, 167965.16, 0.0, 10.001901, 9.998395 
8.850612e+2, 1.7465055e+2, -1137661.1, -1364440.4, 18153.0, 0.033124764, 0.0031000033, -1136217.3, 92206.51, 0.0, 10.00138, 9.998376 
8.850614e+2, 1.8464917e+2, -1068475.5, -1274821.3, 21492.355, 0.045849536, 0.025132937, -1066260.8, 64176.902, 0.0, 10.001157, 9.9984255 
8.8506097e+2, 1.9464746e+2, -951227.94, -1166408.9, 6736.363, 0.0022285774, 0.008849883, -951017.25, 81437.02, 0.0, 10.001285, 9.998435 
8.850611e+2, 2.0464565e+2, -875468.5, -1087506.3, 18440.318, -0.008989659, -0.012799491, -873876.75, 60595.25, 0.0, 10.001169, 9.99836 
8.8506174e+2, 2.146437e+2, -835512.6, -1016527.4, 31450.002, 0.019002298, -0.04410243, -830204.1, 6286.6626, 0.0, 10.000767, 9.998368 
8.8506186e+2, 2.246423e+2, -745655.5, -879937.3, 11660.429, 0.023294874, -0.039763425, -744650.5, -6146.516, 0.0, 10.000527, 9.998749 
8.850613e+2, 2.3464149e+2, -653507.75, -782037.75, 11838.636, 0.0003269462, 0.0005575523, -652426.44, -11915.567, 0.0, 10.000476, 9.998773 
8.8506114e+2, 2.4464023e+2, -576821.5, -679544.4, 20503.047, 0.00009105287, -0.009036475, -572880.44, -30358.752, 0.0, 10.000267, 9.998903 
8.850614e+2, 2.5463843e+2, -533974.6, -606682.7, 11062.972, 0.024741955, -0.082680315, -532328.6, -87791.3, 0.0, 9.999882, 9.998916 
8.850611e+2, 2.6463696e+2, -476953.28, -557844.94, 6386.205, 0.009051333, -0.10825364, -476452.2, -129900.984, 0.0, 9.999727, 9.998653 
8.8506013e+2, 2.7463588e+2, -364430.53, -453191.0, 32630.402, -0.050953336, -0.080920294, -353725.84, -105162.8, 0.0, 9.999828, 9.99865 
8.8505954e+2, 2.8463528e+2, -236792.36, -266379.28, 22971.906, -0.065591484, -0.03876427, -224262.67, -73693.32, 0.0, 9.999711, 9.999315 
8.850591e+2, 2.946351e+2, -191941.6, -192701.39, -3744.231, -0.031698897, 0.006623901, -188558.03, -135987.69, 0.0, 9.99934, 9.999328 
8.8505816e+2, 3.0463302e+2, -218624.4, -249333.78, -3873.3845, -0.06542635, -0.102421544, -218143.39, -218143.39, 0.00000010587227, 9.999118, 9.998712 
8.850572e+2, 3.1463286e+2, -132028.78, -52589.71, 19754.389, -0.09458577, 0.008420343, -47948.48, -47948.48, 0.0000015115112, 9.999044, 10.000098 
8.9506066e+2, 1.2465694e+2, -1457837.6, -1684920.9, -44176.996, -0.08621217, 0.0033169673, -1449546.1, 268815.44, 0.00000033535434, 10.002174, 9.999156 
8.95063e+2, 1.34656e+2, -1390772.0, -1573020.4, 51228.117, 0.067835465, -0.035450906, -1377359.4, 243008.06, 0.00000000007521531, 10.001829, 9.999422 
8.9506245e+2, 1.4465429e+2, -1390541.3, -1657946.8, 21474.83, -0.02702443, -0.08689375, -1388827.6, 133556.42, 0.0, 10.001744, 9.998205 
8.950625e+2, 1.546534e+2, -1259048.8, -1548037.0, 170.76428, -0.034134828, 0.005537378, -1259048.6, 165348.16, 0.0, 10.001993, 9.998166 
8.950625e+2, 1.6465232e+2, -1118940.4, -1340535.1, -24275.695, -0.019442623, 0.040972915, -1116312.1, 210096.34, 0.0, 10.001898, 9.998963 
8.9506257e+2, 1.74651e+2, -1093750.1, -1274212.5, -1616.5952, 0.026952595, 0.009751723, -1093735.6, 134682.89, 0.0, 10.001383, 9.998994 
8.950625e+2, 1.8464936e+2, -1093308.3, -1327561.1, 24677.703, 0.042684678, -0.00902964, -1090736.8, 39697.5, 0.0, 10.001162, 9.998062 
8.9506245e+2, 1.9464733e+2, -979074.94, -1224355.9, 11248.637, 0.02088803, -0.018947085, -978560.1, 53896.45, 0.0, 10.001285, 9.998038 
8.9506245e+2, 2.0464575e+2, -854209.2, -1043141.7, 3389.6477, 0.011561386, -0.008995855, -854148.4, 80324.22, 0.0, 10.001167, 9.998666 
8.9506257e+2, 2.1464474e+2, -812044.9, -968309.0, 15697.354, 0.017839907, 0.017935997, -810483.6, 25997.982, 0.0, 10.000768, 9.998699 
8.950624e+2, 2.2464342e+2, -741632.5, -871891.2, 8658.648, 0.022373745, 0.010821102, -741059.44, -2566.172, 0.0, 10.000528, 9.998804 
8.95062e+2, 2.3464175e+2, -650419.8, -775754.3, 9825.767, 0.024017977, -0.03938208, -649654.2, -9146.136, 0.0, 10.000476, 9.9988165 
8.950616e+2, 2.4464034e+2, -593993.56, -715478.9, 6346.8916, 0.015093922, -0.05469489, -593662.9, -51141.773, 0.0, 10.000267, 9.998657 
8.9506096e+2, 2.5463918e+2, -551319.56, -643496.8, -2956.3433, -0.0053004255, -0.037138563, -551224.8, -106692.26, 0.0, 9.999884, 9.998663 
8.950605e+2, 2.6463813e+2, -429054.88, -458161.3, 9631.716, -0.023793707, -0.041183524, -426156.28, -79613.98, 0.0, 9.999725, 9.999338 
8.9506006e+2, 2.746372e+2, -314572.13, -348673.66, 36672.19, -0.04074422, -0.07156746, -291180.6, -42630.723, 0.0, 9.999824, 9.99937 
8.950594e+2, 2.8463647e+2, -281528.84, -359065.47, 10100.609, -0.047403786, -0.04831018, -280234.66, -129677.21, 0.0, 9.999708, 9.998681 
8.950584e+2, 2.9463586e+2, -239425.81, -292095.53, -16596.896, -0.04189115, 0.022278382, -234632.19, -182066.08, 0.0, 9.999341, 9.998645 
8.9505714e+2, 3.046338e+2, -167477.92, -142285.27, -6376.1455, -0.08489066, -0.08867734, -140763.42, -140763.42, 0.00000013409642, 9.999115, 9.999448 
8.9505595e+2, 3.146342e+2, -92803.96, 31346.783, 17106.516, -0.116328284, 0.0057369564, 33660.73, 33660.73, 0.0000016978646, 9.999035, 10.000678 
9.0506303e+2, 1.2465736e+2, -1500674.6, -1704828.8, -29656.627, -0.05237927, 0.020683588, -1496453.8, 221904.25, 0.0000010631732, 10.001875, 9.999166 
9.050649e+2, 1.3465625e+2, -1333857.6, -1547682.1, 27313.695, 0.054636296, -0.032596476, -1330423.8, 289941.2, 0.000000007369457, 10.00223, 9.999403 
9.050642e+2, 1.4465448e+2, -1328210.6, -1631548.0, -3020.2402, -0.04276861, -0.08800836, -1328180.5, 194201.44, 0.0, 10.00219, 9.998171 
9.050645e+2, 1.5465352e+2, -1307979.3, -1575989.4, 21341.072, -0.013923564, 0.0002440992, -1306290.5, 118104.95, 0.0, 10.001677, 9.998127 
9.0506446e+2, 1.646524e+2, -1186899.1, -1369171.3, -1235.2678, 0.0076556946, 0.03383122, -1186890.8, 139516.63, 0.0, 10.001414, 9.999 
9.05064e+2, 1.7465116e+2, -1078498.4, -1261830.9, -21871.89, 0.024015777, 0.004039203, -1075925.1, 152492.03, 0.0, 10.001468, 9.999037 
9.050637e+2, 1.8464965e+2, -1062160.5, -1296999.5, 3547.4985, 0.03273726, -0.010894544, -1062106.9, 68324.836, 0.0, 10.00131, 9.998199 
9.050637e+2, 1.9464782e+2, -1026385.3, -1231645.1, 29873.863, 0.032068547, -0.013867882, -1022125.8, 10325.876, 0.0, 10.000895, 9.998176 
9.050635e+2, 2.0464636e+2, -919851.25, -1071324.1, 32171.61, 0.026371386, -0.001250648, -913301.5, 21165.236, 0.0, 10.000702, 9.998696 
9.050633e+2, 2.1464534e+2, -809805.3, -964443.94, 21211.814, 0.014965662, 0.023395207, -806948.44, 29527.625, 0.0, 10.0007715, 9.998723 
9.050629e+2, 2.2464406e+2, -723777.9, -859403.3, -614.81287, 0.014199858, 0.017299823, -723775.1, 14712.595, 0.0, 10.000635, 9.998838 
9.0506244e+2, 2.3464248e+2, -679034.06, -785591.25, -794.4183, 0.024914727, -0.027822383, -679028.1, -38526.285, 0.0, 10.000263, 9.998851 
9.050618e+2, 2.4464113e+2, -619490.44, -722965.5, 6668.1196, 0.018476311, -0.03916145, -619062.5, -76548.11, 0.0, 10.000072, 9.998699 
9.050609e+2, 2.5464007e+2, -520336.78, -623859.44, 19079.104, -0.0069461726, -0.019020716, -516932.47, -72407.086, 0.0, 10.000077, 9.998704 
9.0506023e+2, 2.6463908e+2, -404001.78, -431612.84, 22235.541, -0.026294775, -0.023971742, -391634.56, -45100.105, 0.0, 9.999836, 9.999467 
9.050597e+2, 2.7463824e+2, -379134.88, -365158.53, 5009.475, -0.039342977, -0.059430674, -363548.5, -115007.26, 0.0, 9.999318, 9.9995 
9.050589e+2, 2.8463763e+2, -344088.9, -383107.66, -10352.861, -0.04611353, -0.03266971, -341512.13, -190964.5, 0.0, 9.999252, 9.998736 
9.050579e+2, 2.946372e+2, -184733.28, -259454.19, 17296.566, -0.045300476, 0.05175055, -180923.66, -128368.92, 0.0, 9.999691, 9.9987 
9.050565e+2, 3.0463514e+2, -79552.695, -80634.516, 22047.143, -0.08656139, -0.06945638, -58039.824, -58039.824, 0.0000001316986, 9.999636, 9.9996195 
9.05055e+2, 3.146354e+2, -99539.28, 23494.92, -2155.2886, -0.11799012, -0.010394964, 23532.664, 23532.664, 0.0000016698094, 9.999007, 10.000638 
9.1506565e+2, 1.2465709e+2, -1525803.9, -1762448.0, -12812.308, 0.023912935, -0.046264015, -1525112.3, 193247.77, 0.0000026057617, 10.001896, 9.998761 
9.150668e+2, 1.3465704e+2, -1364993.8, -1611916.3, 40147.18, 0.016346978, 0.050838288, -1358630.1, 261729.2, 0.00000007607973, 10.002227, 9.998964 
9.150659e+2, 1.4465548e+2, -1291955.5, -1555074.3, -20534.129, -0.09861991, 0.013522559, -1290362.6, 232011.42, 0.0, 10.002184, 9.998698 
9.1506654e+2, 1.5465358e+2, -1267664.6, -1493408.8, 2171.4521, 0.014193808, -0.04910579, -1267643.6, 156749.11, 0.0, 10.001681, 9.998692 
9.1506636e+2, 1.6465205e+2, -1219736.3, -1440017.4, -1008.7058, 0.05705348, -0.061765686, -1219731.6, 106676.7, 0.0, 10.001424, 9.998509 
9.150654e+2, 1.7465106e+2, -1114917.9, -1338128.0, -19964.19, 0.02361911, -0.013611266, -1113146.3, 115272.93, 0.0, 10.00147, 9.998514 
9.150648e+2, 1.8465003e+2, -1018620.1, -1206371.6, -11670.416, 0.015361306, 0.018269224, -1017897.5, 112531.984, 0.0, 10.001308, 9.998823 
9.150646e+2, 1.9464894e+2, -979609.9, -1135171.0, 13660.013, 0.03485166, 0.02311852, -978419.44, 54020.047, 0.0, 10.000896, 9.998837 
9.1506433e+2, 2.0464747e+2, -937127.4, -1107715.1, 33328.715, 0.03407511, 0.010563675, -930847.0, 3607.1013, 0.0, 10.000704, 9.998446 
9.1506404e+2, 2.1464555e+2, -829598.3, -1005426.4, 23390.51, 0.010097566, -0.026516836, -826539.9, 9933.978, 0.0, 10.000771, 9.998444 
9.1506344e+2, 2.2464426e+2, -723506.8, -858573.44, -14501.953, -0.0010846457, -0.019518508, -721967.3, 16519.592, 0.0, 10.000633, 9.998845 
9.150624e+2, 2.3464368e+2, -677227.5, -782687.4, -14796.238, 0.0029255287, 0.03380187, -675190.94, -34698.676, 0.0, 10.000266, 9.99887 
9.150618e+2, 2.4464265e+2, -596613.8, -675738.25, 6396.334, 0.009452683, 0.035856534, -596100.06, -53598.535, 0.0, 10.0000725, 9.999023 
9.150613e+2, 2.5464106e+2, -497356.38, -575686.3, 19443.707, 0.018565798, -0.027531922, -492795.47, -48279.867, 0.0, 10.000075, 9.999036 
9.1506034e+2, 2.6463982e+2, -433568.16, -493258.28, 3638.2522, 0.000306568, -0.055370558, -433347.22, -86819.69, 0.0, 9.999836, 9.999044 
9.150589e+2, 2.7463898e+2, -410005.56, -430488.2, -13713.801, -0.048520308, -0.044822097, -403131.0, -154594.1, 0.0, 9.999321, 9.99905 
9.1505796e+2, 2.8463876e+2, -293895.75, -278101.84, 5062.281, -0.06320227, 0.0073556607, -276618.6, -126078.7, 0.0, 9.999249, 9.999458 
9.150576e+2, 2.9463914e+2, -132140.45, -147692.95, 34134.74, -0.04135633, 0.09479747, -104907.414, -52371.098, 0.0, 9.9996805, 9.999473 
9.150563e+2, 3.0463707e+2, -106940.945, -136512.72, 246.054, -0.070276126, -0.04516, -106938.89, -106938.89, 0.00000009563079, 9.999629, 9.99924 
9.1505414e+2, 3.146363e+2, -142700.55, -67881.484, -24899.87, -0.105962075, -0.049793646, -60352.43, -60352.43, 0.0000014046396, 9.999013, 10.000009 
9.2506826e+2, 1.2465753e+2, -1412872.0, -1719984.6, -3979.948, 0.045316752, -0.050421353, -1412820.5, 305534.63, 0.000005355975, 10.002727, 9.998649 
9.250689e+2, 1.3465731e+2, -1398424.4, -1644743.1, 64746.95, 0.019422092, 0.043372937, -1382442.1, 237914.8, 0.00000033393198, 10.002071, 9.998814 
9.250678e+2, 1.446558e+2, -1342648.6, -1561191.3, 1484.7719, -0.100826494, 0.0102080675, -1342638.5, 179732.73, 0.0, 10.001759, 9.998861 
9.250683e+2, 1.5465406e+2, -1228074.0, -1454193.1, -5423.226, 0.01544098, -0.05300416, -1227944.0, 196443.66, 0.0, 10.001868, 9.998869 
9.25068e+2, 1.6465259e+2, -1177810.5, -1425808.8, -7397.619, 0.061849736, -0.06529618, -1177590.0, 148812.42, 0.0, 10.00174, 9.998453 
9.250669e+2, 1.7465155e+2, -1141112.5, -1358198.9, 7315.4043, 0.032830473, -0.015223629, -1140866.4, 87548.14, 0.0, 10.001323, 9.9984455 
9.250661e+2, 1.8465056e+2, -1041814.94, -1198960.1, 15202.264, 0.024779912, 0.014108513, -1040357.8, 90066.836, 0.0, 10.00107, 9.998988 
9.250656e+2, 1.9464955e+2, -949903.25, -1100981.4, 3562.6975, 0.038303055, 0.011393114, -949819.3, 82613.69, 0.0, 10.001017, 9.999013 
9.2506504e+2, 2.046482e+2, -917533.4, -1094434.8, 17952.195, 0.034144327, -0.00059924566, -915729.94, 18716.404, 0.0, 10.000823, 9.99848 
9.250646e+2, 2.1464641e+2, -872614.25, -1022926.5, 30606.39, 0.010124956, -0.027179431, -866621.1, -30155.914, 0.0, 10.000463, 9.998471 
9.2506385e+2, 2.2464515e+2, -771304.5, -882409.0, 4262.702, -0.0018563017, -0.016176917, -771141.2, -32662.963, 0.0, 10.000309, 9.998837 
9.250627e+2, 2.3464453e+2, -660316.94, -775454.7, 1298.3976, 0.0005704319, 0.032901205, -660302.3, -19817.926, 0.0, 10.000387, 9.998861 
9.250619e+2, 2.4464355e+2, -566447.06, -649793.25, 10829.73, 0.00860281, 0.036790572, -565062.9, -22569.518, 0.0, 10.000231, 9.9991255 
9.250613e+2, 2.5464216e+2, -527584.1, -578512.7, 6212.3003, 0.022327863, -0.016879495, -526837.3, -82331.68, 0.0, 9.999817, 9.999141 
9.250601e+2, 2.6464102e+2, -463228.56, -517995.22, -5036.285, 0.004599582, -0.037343457, -462769.28, -116252.22, 0.0, 9.999678, 9.998951 
9.250585e+2, 2.7464014e+2, -341783.72, -408751.44, 3174.0388, -0.0480003, -0.022718795, -341633.63, -93106.07, 0.0, 9.999839, 9.99895 
9.2505735e+2, 2.8463984e+2, -228877.63, -233527.31, 17115.936, -0.068305515, 0.02379051, -213929.36, -63398.27, 0.0, 9.99964, 9.999576 
9.250569e+2, 2.9464015e+2, -217497.45, -174280.81, -2386.3923, -0.0540797, 0.09509244, -174149.44, -121622.01, 0.0, 9.999032, 9.999602 
9.2505556e+2, 3.046384e+2, -184960.97, -169335.02, -39101.016, -0.076703414, -0.028098485, -137274.05, -137274.05, 0.00000004550982, 9.999075, 9.999282 
9.2505366e+2, 3.1463787e+2, -30363.234, -29808.908, -29835.064, -0.09831978, -0.006620997, -249.71942, -249.71942, 0.0000009683944, 9.999855, 9.999865 
9.350705e+2, 1.246587e+2, -1403233.1, -1698412.8, -23493.922, 0.0017848889, 0.00011669248, -1401374.9, 316968.22, 0.000009813605, 10.002719, 9.998801 
9.350714e+2, 1.3465714e+2, -1389467.4, -1627751.8, 40332.215, 0.061982527, -0.05079993, -1382825.9, 237530.7, 0.0000009955157, 10.002079, 9.998926 
9.350701e+2, 1.4465551e+2, -1354193.5, -1589095.5, 3798.6685, -0.05125492, -0.09208711, -1354132.1, 168240.39, 0.00000000002439963, 10.001773, 9.998664 
9.3506986e+2, 1.54655e+2, -1242256.0, -1484062.4, -1211.6682, -0.010464433, -0.012209998, -1242249.9, 182129.48, 0.0, 10.001868, 9.998666 
9.350693e+2, 1.6465405e+2, -1153012.6, -1373696.6, -22307.576, 0.021876212, 0.020377552, -1150780.3, 175609.16, 0.0, 10.001738, 9.998813 
9.3506837e+2, 1.7465268e+2, -1114477.6, -1303423.0, -8531.26, 0.05026368, -0.0016347017, -1114093.3, 114309.445, 0.0, 10.001325, 9.998821 
9.3506753e+2, 1.8465123e+2, -1061647.3, -1241224.6, 12127.607, 0.05886078, -0.022196706, -1060831.9, 69584.77, 0.0, 10.001074, 9.998697 
9.3506664e+2, 1.9464968e+2, -971054.4, -1145783.1, 1284.584, 0.04225364, -0.047790773, -971044.9, 61386.76, 0.0, 10.0010195, 9.998706 
9.3506587e+2, 2.0464857e+2, -895978.3, -1049993.5, 4125.238, 0.026762346, -0.034357615, -895867.94, 38575.105, 0.0, 10.000824, 9.998785 
9.3506515e+2, 2.1464792e+2, -849496.44, -975495.56, 16400.53, 0.013756489, 0.020076344, -847396.7, -10946.494, 0.0, 10.000464, 9.998796 
9.3506426e+2, 2.2464679e+2, -772940.94, -886142.2, 6038.7886, 0.010134507, 0.0262121, -772619.7, -34158.105, 0.0, 10.00031, 9.998812 
9.350633e+2, 2.3464507e+2, -663312.1, -781287.0, 4051.4814, 0.01701898, -0.029044824, -663173.1, -22695.078, 0.0, 10.000384, 9.998822 
9.3506217e+2, 2.4464393e+2, -575142.25, -667762.25, -4319.5547, 0.01539218, -0.034556523, -574941.2, -32451.666, 0.0, 10.00023, 9.999003 
9.350609e+2, 2.546434e+2, -535453.2, -596151.8, -8944.909, 0.0034338392, 0.011842573, -534162.44, -89667.09, 0.0, 9.999822, 9.999019 
9.350596e+2, 2.6464266e+2, -447094.84, -484782.66, 408.19345, -0.014193929, 0.028163029, -447090.4, -100587.31, 0.0, 9.999679, 9.999179 
9.350584e+2, 2.7464166e+2, -325568.84, -374024.63, 9588.266, -0.038204093, 0.0069018207, -323740.53, -75227.47, 0.0, 9.999834, 9.999191 
9.3505704e+2, 2.8464094e+2, -262761.9, -303813.13, -4510.578, -0.062300898, 0.017501164, -262272.13, -111750.95, 0.0, 9.999638, 9.999095 
9.3505555e+2, 2.946404e+2, -252046.84, -247786.45, -24564.826, -0.08629219, 0.053378895, -225259.64, -172731.77, 0.0, 9.999038, 9.999096 
9.350543e+2, 3.0463907e+2, -153610.73, -103594.914, -11412.045, -0.10844589, -0.018542176, -101114.09, -101114.09, 0.000000010385675, 9.999073, 9.999734 
9.350535e+2, 3.1464013e+2, -9043.421, 18286.256, 573.53815, -0.09759485, 0.10994539, 18298.287, 18298.287, 0.00000050425, 9.99984, 10.000202 
9.450729e+2, 1.246595e+2, -1471895.9, -1721119.1, -7553.558, -0.008260695, -0.009630131, -1471667.3, 246667.67, 0.000016619406, 10.002204, 9.998894 
9.4507384e+2, 1.34658e+2, -1355840.8, -1604446.1, 45650.684, 0.08442932, -0.062413543, -1347723.1, 272624.84, 0.0000023427797, 10.00228, 9.998988 
9.450723e+2, 1.4465645e+2, -1306288.8, -1571527.4, 16881.768, -0.025804365, -0.09491257, -1305218.6, 217144.7, 0.0000000053592455, 10.00213, 9.998611 
9.4507164e+2, 1.5465601e+2, -1268409.5, -1502707.3, 22591.53, -0.013283784, -0.001447543, -1266251.0, 158118.81, 0.0, 10.001717, 9.99861 
9.450708e+2, 1.646551e+2, -1179027.6, -1371525.4, -2469.1604, 0.010314219, 0.03127165, -1178996.0, 147383.5, 0.0, 10.001497, 9.998942 
9.4506985e+2, 1.7465371e+2, -1078899.1, -1270527.5, -7198.1934, 0.050408985, -0.0066626878, -1078629.1, 149763.27, 0.0, 10.001504, 9.99896 
9.450687e+2, 1.8465228e+2, -1029634.5, -1235509.5, 11549.941, 0.061889045, -0.027436791, -1028988.56, 101417.66, 0.0, 10.001338, 9.998609 
9.450676e+2, 1.9465083e+2, -985686.9, -1163749.0, 16195.717, 0.038536582, -0.034249254, -984225.8, 48195.44, 0.0, 10.000967, 9.998607 
9.450666e+2, 2.0464972e+2, -907638.75, -1049427.3, 17380.057, 0.02264632, -0.017443275, -905539.44, 28893.275, 0.0, 10.000717, 9.998839 
9.450657e+2, 2.14649e+2, -824567.56, -956548.56, 9648.596, 0.016108017, 0.022763526, -823865.94, 12574.066, 0.0, 10.000607, 9.9988575 
9.450647e+2, 2.2464785e+2, -754479.6, -870458.8, -3614.588, 0.0159038, 0.020619519, -754367.06, -15915.696, 0.0, 10.000408, 9.998871 
9.450636e+2, 2.3464617e+2, -698774.06, -792021.0, 1110.1711, 0.02282058, -0.035688713, -698760.8, -58293.277, 0.0, 10.000114, 9.9988785 
9.450623e+2, 2.4464509e+2, -614181.75, -697381.06, -4135.419, 0.012898096, -0.03097243, -613976.75, -71497.945, 0.0, 10.000009, 9.998906 
9.450607e+2, 2.5464472e+2, -500858.2, -590808.7, -7800.2524, -0.016650885, 0.038121104, -500186.78, -55702.355, 0.0, 10.000109, 9.998917 
9.4505924e+2, 2.6464403e+2, -391809.97, -444022.03, 505.8998, -0.034431793, 0.057324648, -391805.06, -45312.992, 0.0, 9.999998, 9.999305 
9.4505817e+2, 2.7464294e+2, -342792.94, -367107.63, 1319.534, -0.03887211, 0.016615504, -342721.53, -94219.73, 0.0, 9.999651, 9.999327 
9.450567e+2, 2.8464216e+2, -277368.25, -325699.66, -6071.199, -0.059707087, 0.022587039, -276617.28, -126107.27, 0.0, 9.999602, 9.998961 
9.4505495e+2, 2.9464164e+2, -138826.61, -209101.63, 613.6199, -0.09850328, 0.07206542, -138821.25, -86304.234, 0.0, 9.999885, 9.998953 
9.4505364e+2, 3.0464035e+2, -52342.055, -60721.4, 19994.111, -0.11913467, 0.015002603, -36103.367, -36103.367, 0.00000000032400083, 9.999794, 9.999681 
9.450531e+2, 3.146411e+2, -103952.67, -46715.887, -9161.041, -0.095597975, 0.11657933, -45285.367, -45285.367, 0.00000016973306, 9.999271, 10.000029 
9.550752e+2, 1.24660045e+2, -1466221.4, -1714673.0, 676.21674, 0.0018994545, -0.07604209, -1466219.5, 252109.89, 0.000026449812, 10.002224, 9.998929 
9.550761e+2, 1.3465989e+2, -1355120.1, -1602828.9, 48441.38, 0.0863902, 0.005852265, -1345984.0, 274346.72, 0.0000047469885, 10.002278, 9.9990015 
9.550744e+2, 1.4465863e+2, -1301988.6, -1561239.8, 2241.1733, -0.024893984, -0.0021808809, -1301969.3, 220374.0, 0.000000046136613, 10.002123, 9.998685 
9.5507354e+2, 1.5465717e+2, -1262645.8, -1491421.9, 7355.9624, 0.005431449, -0.020063756, -1262409.5, 161949.02, 0.0, 10.001719, 9.998686 
9.5507246e+2, 1.6465582e+2, -1184885.8, -1385430.9, -2934.4673, 0.024938367, -0.02980843, -1184842.8, 141529.2, 0.0, 10.001503, 9.998845 
9.550711e+2, 1.746547e+2, -1085338.9, -1284819.5, -6845.835, 0.032938514, -0.029395519, -1085104.1, 143278.78, 0.0, 10.001506, 9.998861 
9.550698e+2, 1.8465376e+2, -1022491.56, -1221236.1, -2409.9626, 0.03377716, -0.001909846, -1022462.3, 107930.484, 0.0, 10.001339, 9.998706 
9.550684e+2, 1.9465302e+2, -978186.5, -1148809.6, 1672.2987, 0.026545389, 0.05013441, -978170.1, 54231.46, 0.0, 10.000969, 9.998709 
9.550673e+2, 2.0465167e+2, -920826.56, -1077499.8, 12113.397, 0.020816656, 0.0487193, -919895.5, 14519.667, 0.0, 10.000719, 9.998647 
9.5506626e+2, 2.1464968e+2, -838380.75, -985690.0, 5052.0586, 0.016587717, -0.01826266, -838207.7, -1773.3911, 0.0, 10.000608, 9.998657 
9.5506513e+2, 2.2464836e+2, -744736.8, -850743.06, -15025.098, 0.015138735, -0.031835757, -742648.4, -4201.2544, 0.0, 10.00041, 9.999006 
9.5506364e+2, 2.3464783e+2, -687453.8, -769865.5, -9952.14, 0.016908988, 0.011085198, -686269.0, -45816.28, 0.0, 10.000119, 9.999029 
9.5506215e+2, 2.446471e+2, -619364.56, -708816.25, -828.22815, 0.00011903535, 0.045145176, -619356.9, -76895.85, 0.0, 10.0000105, 9.998827 
9.5506054e+2, 2.5464612e+2, -507360.78, -603690.4, -3679.5247, -0.038029537, 0.062789395, -507220.44, -62747.81, 0.0, 10.000106, 9.99883 
9.550591e+2, 2.6464507e+2, -390548.9, -441263.47, -11885.146, -0.05632187, 0.052045517, -387901.75, -41418.152, 0.0, 9.999996, 9.999325 
9.550577e+2, 2.74644e+2, -340287.7, -363042.84, -11344.035, -0.052239798, 0.005864013, -335598.66, -87104.92, 0.0, 9.999655, 9.999353 
9.5505625e+2, 2.8464356e+2, -262950.72, -295454.28, 3935.1938, -0.06291101, 0.037284452, -262481.06, -111983.38, 0.0, 9.999601, 9.99917 
9.550549e+2, 2.9464385e+2, -124714.914, -178181.05, 12052.512, -0.09135267, 0.14958066, -122123.586, -69628.58, 0.0, 9.999877, 9.999169 
9.550535e+2, 3.0464223e+2, -92815.09, -142707.67, 1855.5283, -0.10971946, 0.072465315, -92746.18, -92746.18, 0.0, 9.9997835, 9.999124 
9.550524e+2, 3.146408e+2, -152114.83, -146092.64, -27345.521, -0.09735632, 0.013566282, -121592.93, -121592.93, 0.000000027453995, 9.999268, 9.999349 
9.650778e+2, 1.24661766e+2, -1381585.1, -1696712.8, 21199.934, 0.008686004, -0.05924261, -1380165.4, 338147.56, 0.00003990401, 10.002907, 9.998722 
9.650783e+2, 1.3466147e+2, -1407791.5, -1655608.5, 42903.65, 0.091583796, 0.032933224, -1400574.0, 219742.98, 0.000008636752, 10.002037, 9.998754 
9.6507627e+2, 1.4466016e+2, -1354690.5, -1563929.8, 3101.8987, -0.025810556, 0.021983441, -1354644.5, 167685.58, 0.00000019058375, 10.001665, 9.998886 
9.650753e+2, 1.5465863e+2, -1228529.9, -1450105.1, 17997.662, 0.0029270535, -0.024074005, -1227077.5, 197266.73, 0.0, 10.001848, 9.998906 
9.650741e+2, 1.646573e+2, -1154530.1, -1382528.3, 10029.619, 0.024280457, -0.040053442, -1154089.8, 172267.6, 0.0, 10.001764, 9.998738 
9.6507263e+2, 1.7465626e+2, -1112240.3, -1310666.4, 4547.567, 0.036291398, -0.020234523, -1112136.0, 116232.484, 0.0, 10.001378, 9.998744 
9.65071e+2, 1.8465534e+2, -1047448.8, -1232108.4, 5322.9155, 0.03500834, 0.016350789, -1047295.5, 83083.055, 0.0, 10.0011635, 9.998715 
9.650694e+2, 1.9465457e+2, -951705.75, -1134191.5, 2479.539, 0.019031314, 0.06566134, -951672.06, 80715.38, 0.0, 10.001144, 9.998723 
9.6506804e+2, 2.046532e+2, -879307.94, -1055092.3, 17116.842, 0.0129835075, 0.058596283, -877656.7, 56744.56, 0.0, 10.000996, 9.998667 
9.6506697e+2, 2.1465112e+2, -824014.2, -976802.5, 25894.21, 0.018013785, -0.017728655, -819744.94, 16675.775, 0.0, 10.000698, 9.998674 
9.6506554e+2, 2.2464985e+2, -739856.6, -859978.06, 5970.1294, 0.014498325, -0.024009109, -739560.6, -1127.1167, 0.0, 10.000493, 9.998903 
9.650638e+2, 2.3464946e+2, -655314.8, -766064.56, -8720.546, 0.00081381865, 0.045412347, -654632.4, -14193.904, 0.0, 10.000391, 9.998923 
9.650621e+2, 2.4464871e+2, -586510.0, -682051.06, -348.41013, -0.015579741, 0.07802265, -586508.75, -44061.69, 0.0, 10.000191, 9.998923 
9.6506053e+2, 2.546475e+2, -533046.1, -604374.3, 10710.84, -0.034676693, 0.06277805, -531472.44, -87012.64, 0.0, 9.999881, 9.998933 
9.65059e+2, 2.6464644e+2, -433096.2, -477361.72, 4267.3223, -0.05396039, 0.050798453, -432688.56, -86217.62, 0.0, 9.999772, 9.999185 
9.6505725e+2, 2.7464554e+2, -317030.47, -368517.38, -8704.855, -0.07377401, 0.039095134, -315598.56, -67118.4, 0.0, 9.999887, 9.999204 
9.6505576e+2, 2.8464505e+2, -224949.05, -266577.47, -524.0742, -0.08263468, 0.06813957, -224942.45, -74457.84, 0.0, 9.999817, 9.999265 
9.650547e+2, 2.9464504e+2, -166577.42, -186244.44, -1857.5857, -0.07969864, 0.13702312, -166403.52, -113919.72, 0.0, 9.999539, 9.999276 
9.650533e+2, 3.0464345e+2, -126236.48, -158387.33, 1082.6809, -0.092782006, 0.058928654, -126200.06, -126200.06, 0.0, 9.999554, 9.999126 
9.6505183e+2, 3.1464216e+2, -65630.234, -111481.125, 15989.576, -0.10839399, 0.015599822, -60604.96, -60604.96, 0.00000000015790982, 9.999892, 9.999286 
9.750806e+2, 1.2466468e+2, -1413909.1, -1761872.3, -3827.033, 0.00021293458, 0.03192692, -1413867.0, 304418.34, 0.000057479218, 10.002897, 9.99828 
9.7508043e+2, 1.3466284e+2, -1442457.9, -1729238.6, 10894.783, 0.09840245, 0.020338563, -1442044.5, 178261.38, 0.000014404859, 10.002044, 9.998246 
9.750779e+2, 1.4466113e+2, -1330874.8, -1516874.3, 9169.123, -0.030839968, -0.019495293, -1330423.8, 191899.0, 0.0000005546723, 10.001674, 9.999206 
9.750769e+2, 1.5466046e+2, -1203733.8, -1398969.1, 25147.098, -0.021214759, -0.013692371, -1200546.8, 223780.05, 0.0, 10.001848, 9.999258 
9.7507566e+2, 1.6465954e+2, -1163174.5, -1400530.4, -4222.765, 0.007843272, -0.00076261687, -1163099.4, 163235.9, 0.0, 10.001763, 9.998615 
9.7507423e+2, 1.7465837e+2, -1121784.0, -1331138.5, -10201.034, 0.059584472, 0.019969987, -1121288.1, 107060.586, 0.0, 10.001381, 9.998603 
9.750725e+2, 1.8465705e+2, -1052219.0, -1243089.9, 3619.7473, 0.064083256, 0.027169928, -1052150.5, 78212.53, 0.0, 10.001167, 9.998639 
9.750705e+2, 1.946556e+2, -956099.1, -1144359.5, 1456.7786, 0.014695059, 0.013673916, -956087.9, 76290.375, 0.0, 10.001148, 9.998652 
9.750689e+2, 2.0465434e+2, -863481.1, -1023188.9, 5457.6655, -0.0018122491, 0.013798109, -863294.8, 71095.6, 0.0, 10.0009985, 9.998884 
9.750677e+2, 2.1465337e+2, -807572.9, -943183.8, 14078.624, 0.019456975, 0.023507755, -806126.75, 30272.445, 0.0, 10.0007, 9.998905 
9.7506607e+2, 2.2465228e+2, -763952.75, -910219.7, 1163.9927, 0.013178727, 0.04257389, -763943.44, -25533.041, 0.0, 10.000493, 9.998558 
9.750639e+2, 2.3465112e+2, -680803.25, -819161.94, -12630.7295, -0.025085177, 0.06815133, -679659.6, -39235.133, 0.0, 10.000392, 9.998559 
9.7506213e+2, 2.4464999e+2, -567542.44, -643415.75, -11898.8125, -0.034113627, 0.06956845, -565720.2, -23283.793, 0.0, 10.000193, 9.999188 
9.750607e+2, 2.5464892e+2, -511944.75, -561826.56, -756.89374, -0.009429373, 0.037205685, -511933.28, -67487.34, 0.0, 9.999885, 9.999224 
9.75059e+2, 2.646481e+2, -454099.25, -521458.13, 8390.802, -0.03001739, 0.051444188, -453069.75, -106615.52, 0.0, 9.999774, 9.998881 
9.750568e+2, 2.7464765e+2, -339670.53, -415771.5, -3554.243, -0.10311664, 0.11556538, -339504.9, -91043.85, 0.0, 9.999887, 9.998879 
9.750553e+2, 2.846467e+2, -227323.97, -271627.94, -10098.191, -0.11862987, 0.11634357, -225130.86, -74660.36, 0.0, 9.999816, 9.999231 
9.750544e+2, 2.9464516e+2, -167971.36, -189120.45, -11783.6875, -0.06744278, 0.03618717, -162713.14, -110229.88, 0.0, 9.999537, 9.999258 
9.750531e+2, 3.0464402e+2, -88011.49, -77058.84, 13367.371, -0.07249205, -0.025374115, -68089.516, -68089.516, 0.0, 9.999544, 9.99969 
9.7505146e+2, 3.1464508e+2, -29117.068, -32915.973, 30458.498, -0.13189076, 0.11049263, -498.85196, -498.85196, 0.0, 9.99988, 9.999832 
9.850835e+2, 1.2466672e+2, -1513258.9, -1794436.3, -11423.507, 0.034459967, 0.045756422, -1512795.5, 205470.83, 0.00007951568, 10.00215, 9.998417 
9.850825e+2, 1.3466479e+2, -1388592.3, -1692769.8, 38145.895, 0.08322919, 0.016665054, -1383881.5, 236405.64, 0.000022398126, 10.002369, 9.998339 
9.850796e+2, 1.4466307e+2, -1262984.3, -1501720.4, 46799.395, -0.058276925, -0.021665292, -1254138.0, 268166.22, 0.0000013019285, 10.002216, 9.999047 
9.850789e+2, 1.5466242e+2, -1244978.3, -1436856.9, 24592.016, -0.00048922515, 0.0017739352, -1241876.6, 182432.17, 0.0, 10.001644, 9.999096 
9.850775e+2, 1.646615e+2, -1210560.5, -1415925.1, -14464.835, 0.033934113, 0.019705415, -1209546.8, 116770.914, 0.0, 10.001407, 9.998682 
9.850755e+2, 1.746603e+2, -1093359.4, -1308908.8, -4929.9814, 0.042710323, 0.029749932, -1093246.6, 135084.33, 0.0, 10.001539, 9.998679 
9.850736e+2, 1.8465893e+2, -1007634.1, -1222406.5, 19184.758, 0.039950628, 0.029366065, -1005933.9, 124411.48, 0.0, 10.001477, 9.998631 
9.850718e+2, 1.9465743e+2, -949218.0, -1142432.8, 21121.07, 0.022851339, 0.012137123, -946936.1, 85424.79, 0.0, 10.001201, 9.99864 
9.8507e+2, 2.0465621e+2, -871172.5, -1031538.56, 14884.93, 0.012246652, 0.018992625, -869802.56, 64570.3, 0.0, 10.000966, 9.998842 
9.850683e+2, 2.1465538e+2, -798732.7, -943301.75, 2720.2065, 0.009100021, 0.04710238, -798681.5, 37699.258, 0.0, 10.00078, 9.998864 
9.850664e+2, 2.2465429e+2, -746303.1, -899827.1, -3556.171, -0.0015573573, 0.06503518, -746220.75, -7828.561, 0.0, 10.000608, 9.998573 
9.850643e+2, 2.3465289e+2, -671137.9, -812964.25, 10362.758, -0.020780597, 0.06778666, -670384.7, -29977.104, 0.0, 10.000452, 9.998572 
9.850624e+2, 2.4465166e+2, -557834.1, -652376.3, 9008.677, -0.027731773, 0.06406268, -556983.4, -14563.09, 0.0, 10.0003195, 9.999065 
9.8506063e+2, 2.546506e+2, -473486.06, -557448.4, -11922.329, -0.021447122, 0.045993414, -471825.94, -27395.951, 0.0, 10.000211, 9.999097 
9.850588e+2, 2.6464972e+2, -411585.84, -509274.78, -3304.441, -0.041824374, 0.062048152, -411474.2, -65035.0, 0.0, 10.000103, 9.998806 
9.850569e+2, 2.7464905e+2, -328843.5, -418366.44, 2815.5034, -0.09279845, 0.114542104, -328755.06, -80307.484, 0.0, 9.999998, 9.998808 
9.850552e+2, 2.8464797e+2, -224942.7, -279723.56, -3606.4736, -0.10728426, 0.11160165, -224706.3, -74248.12, 0.0, 9.999874, 9.999146 
9.850539e+2, 2.946464e+2, -147540.34, -188689.1, -10139.917, -0.078626074, 0.037005614, -145177.34, -92705.74, 0.0, 9.99972, 9.999173 
9.8505247e+2, 3.0464545e+2, -74003.78, -53260.86, 9280.792, -0.08662385, -0.009495274, -49714.695, -49714.695, 0.0, 9.999569, 9.999842 
9.8505116e+2, 3.146467e+2, -86470.13, -45817.82, -6527.371, -0.12950617, 0.12594937, -44795.457, -44795.457, 0.0, 9.999423, 9.999963 
9.950863e+2, 1.2466797e+2, -1463555.6, -1693004.0, 5772.381, 0.100567825, -0.01690044, -1463410.5, 254844.63, 0.00010622788, 10.002156, 9.99911 
9.950845e+2, 1.3466738e+2, -1342217.1, -1595861.8, 46516.88, 0.046518058, 0.021547409, -1333955.3, 286304.94, 0.00003292342, 10.002365, 9.999006 
9.950813e+2, 1.4466602e+2, -1307508.3, -1593089.3, 25792.627, -0.107702106, 0.014075278, -1305197.4, 217076.67, 0.0000026281716, 10.002211, 9.998424 
9.950812e+2, 1.5466455e+2, -1291353.6, -1533868.9, 3337.4878, 0.0627003, 0.021938901, -1291307.6, 132982.2, 0.00000000019976186, 10.001646, 9.998429 
9.950796e+2, 1.6466321e+2, -1192438.3, -1379582.9, -10303.209, 0.10007657, 0.021275086, -1191872.8, 134430.94, 0.0, 10.0014105, 9.99893 
9.950765e+2, 1.7466207e+2, -1072921.5, -1267361.3, -86.11997, -0.014597545, 0.0098700095, -1072921.5, 155393.16, 0.0, 10.001542, 9.998963 
9.950743e+2, 1.8466103e+2, -1003913.56, -1215263.1, 8394.627, -0.037718546, 0.023731379, -1003580.7, 126744.484, 0.0, 10.001479, 9.998679 
9.950732e+2, 1.946601e+2, -946148.5, -1136453.6, 9989.944, 0.043114427, 0.06024524, -945625.56, 86709.66, 0.0, 10.001202, 9.998681 
9.950714e+2, 2.0465884e+2, -891896.56, -1075036.9, 6816.9336, 0.054396324, 0.072848015, -891643.1, 42705.266, 0.0, 10.000967, 9.998544 
9.9506885e+2, 2.146572e+2, -820083.8, -988159.4, -4831.6787, -0.013527339, 0.053169463, -819945.0, 16420.135, 0.0, 10.000782, 9.998556 
9.9506676e+2, 2.2465585e+2, -720566.2, -847325.8, -10125.973, -0.03039069, 0.04478752, -719762.4, 18616.014, 0.0, 10.000611, 9.998933 
9.9506515e+2, 2.3465481e+2, -643803.94, -756707.56, 4301.7856, 0.011536934, 0.044173013, -643640.25, -3252.6062, 0.0, 10.000453, 9.998959 
9.9506307e+2, 2.4465375e+2, -593631.1, -726869.6, 4777.389, 0.0014108691, 0.060318056, -593460.06, -51061.402, 0.0, 10.000319, 9.998555 
9.950604e+2, 2.546526e+2, -510834.5, -636242.44, -15473.428, -0.069490984, 0.08927142, -508953.53, -64541.78, 0.0, 10.000215, 9.998554 
9.950584e+2, 2.6465127e+2, -401284.22, -489421.0, -6980.329, -0.08833676, 0.08464209, -400734.8, -54309.406, 0.0, 10.000108, 9.99894 
9.950573e+2, 2.746498e+2, -317710.63, -394893.03, -700.4951, -0.04723876, 0.037575215, -317704.25, -69264.67, 0.0, 9.999994, 9.998971 
9.950557e+2, 2.8464895e+2, -234674.72, -298439.5, -8714.429, -0.05329058, 0.053415973, -233505.22, -83057.46, 0.0, 9.999867, 9.9990225 
9.9505323e+2, 2.9464883e+2, -156493.53, -208164.02, -14469.321, -0.1128782, 0.13604599, -152717.61, -100268.59, 0.0, 9.9997225, 9.999039 
9.950516e+2, 3.046478e+2, -93061.03, -93619.73, 4887.7305, -0.13453332, 0.10439395, -88444.67, -88444.67, 0.0, 9.999571, 9.999563 
9.950508e+2, 3.1464693e+2, -109706.336, -91213.47, -9932.073, -0.10695887, 0.06000082, -86889.984, -86889.984, 0.0, 9.99941, 9.999658 
1.00508854e+3, 1.2467011e+2, -1392339.4, -1660573.5, 34010.996, 0.078129634, -0.028461529, -1388094.1, 330140.4, 0.00013782152, 10.002653, 9.999094 
1.0050868e+3, 1.3466974e+2, -1410808.0, -1634381.4, 13045.84, 0.07076162, 0.035150483, -1410049.4, 210189.0, 0.000046236724, 10.001917, 9.998958 
1.0050835e+3, 1.4466847e+2, -1394655.9, -1629461.3, -8479.748, -0.08114154, 0.03962591, -1394350.0, 127901.35, 0.00000474816, 10.001588, 9.998474 
1.0050827e+3, 1.5466695e+2, -1281522.5, -1523051.4, 21465.979, 0.05639432, 0.03615069, -1279629.5, 144638.06, 0.000000004412824, 10.001687, 9.998484 
1.005081e+3, 1.6466552e+2, -1166586.5, -1377916.0, 30298.674, 0.08584841, 0.029817397, -1162328.3, 163953.92, 0.0, 10.001635, 9.998833 
1.005078e+3, 1.746643e+2, -1096877.9, -1290046.8, 12134.07, -0.010723568, 0.019919008, -1096118.8, 132175.58, 0.0, 10.001426, 9.998864 
1.00507565e+3, 1.8466328e+2, -1029610.06, -1219883.6, 1528.6874, -0.033024065, 0.037424248, -1029597.75, 100706.73, 0.0, 10.00127, 9.998748 
1.0050742e+3, 1.9466248e+2, -945903.3, -1127701.5, 5188.299, 0.030139014, 0.07920893, -945755.3, 86557.45, 0.0, 10.001167, 9.998757 
1.0050723e+3, 2.0466119e+2, -888302.6, -1082440.6, 12017.775, 0.0413303, 0.09013733, -887561.5, 46764.56, 0.0, 10.001034, 9.99846 
1.00506976e+3, 2.146594e+2, -813575.7, -995384.94, 16130.345, -0.0072603445, 0.061878443, -812155.7, 24189.127, 0.0, 10.000872, 9.998463 
1.0050675e+3, 2.2465792e+2, -706883.8, -838821.5, 6901.971, -0.020761333, 0.046329305, -706523.7, 31835.18, 0.0, 10.000697, 9.998949 
1.0050655e+3, 2.3465684e+2, -633715.8, -749069.2, -6727.4663, 0.005813462, 0.03840857, -633324.8, 7043.018, 0.0, 10.000511, 9.998981 
1.0050633e+3, 2.4465571e+2, -588084.94, -744453.06, -2994.086, -0.009155168, 0.0576591, -588027.6, -45648.39, 0.0, 10.000446, 9.998371 
1.00506075e+3, 2.5465456e+2, -480291.2, -642641.75, 2707.359, -0.07218807, 0.103721246, -480246.06, -35852.684, 0.0, 10.000518, 9.998363 
1.0050587e+3, 2.6465315e+2, -367088.47, -475837.84, 9486.616, -0.08477993, 0.09880316, -366267.13, -19858.926, 0.0, 10.000358, 9.998913 
1.0050574e+3, 2.746514e+2, -329205.5, -402846.63, 1450.3674, -0.03962162, 0.030073164, -329176.97, -80753.22, 0.0, 9.999927, 9.998948 
1.00505546e+3, 2.8465044e+2, -246692.8, -315661.38, -133.61629, -0.051593486, 0.04086951, -246692.53, -96259.805, 0.0, 9.999835, 9.998919 
1.0050531e+3, 2.9465038e+2, -104037.445, -194256.31, -5259.6274, -0.12829992, 0.1389206, -103731.85, -51297.813, 0.0, 10.0001335, 9.998935 
1.0050513e+3, 3.0464938e+2, -33885.125, -76199.78, 4751.036, -0.14604175, 0.1195423, -33358.246, -33358.246, 0.0, 10.000026, 9.999464 
1.0050504e+3, 3.1464827e+2, -113204.68, -105270.26, 3844.4956, -0.091443226, 0.06099955, -103713.08, -103713.08, 0.0, 9.999442, 9.999545 
1.0150899e+3, 1.246731e+2, -1442441.9, -1762165.5, 15082.815, -0.04572787, 0.0030447452, -1441731.9, 276473.1, 0.00017450533, 10.002643, 9.998402 
1.0150896e+3, 1.346719e+2, -1462458.4, -1741774.3, -14035.249, 0.15165958, 0.056954317, -1461754.9, 158465.75, 0.000062540406, 10.001918, 9.99822 
1.015086e+3, 1.4467052e+2, -1344709.6, -1526976.6, -5284.1934, 0.017094096, 0.05478763, -1344556.6, 177678.5, 0.000007860604, 10.001592, 9.999177 
1.0150837e+3, 1.5466967e+2, -1228494.8, -1413430.4, 24974.063, -0.018187104, 0.044759057, -1225181.6, 199059.94, 0.000000028517778, 10.001688, 9.999237 
1.0150816e+3, 1.6466852e+2, -1197266.0, -1442005.3, 21806.936, -0.0075720795, 0.04587812, -1195338.1, 130914.82, 0.0, 10.001636, 9.998393 
1.0150801e+3, 1.7466703e+2, -1130156.1, -1359674.9, 4011.962, 0.05217212, 0.059182815, -1130086.0, 98183.35, 0.0, 10.001428, 9.998385 
1.0150778e+3, 1.8466574e+2, -1023057.5, -1207033.6, -3016.742, 0.051528085, 0.06934993, -1023008.0, 107274.875, 0.0, 10.001271, 9.998836 
1.0150749e+3, 1.9466463e+2, -937729.75, -1111403.8, 803.4364, -0.016503496, 0.06950928, -937726.0, 94567.11, 0.0, 10.001169, 9.998869 
1.0150726e+3, 2.0466338e+2, -879707.75, -1065402.9, 4977.591, -0.027307479, 0.072182186, -879574.44, 54730.79, 0.0, 10.001036, 9.998576 
1.0150709e+3, 2.1466199e+2, -805557.1, -978583.9, 9365.829, 0.026495902, 0.07330632, -805051.6, 31267.742, 0.0, 10.000871, 9.998579 
1.0150687e+3, 2.2466053e+2, -729883.1, -886458.06, -930.4795, 0.025786784, 0.068856105, -729877.6, 8455.855, 0.0, 10.000696, 9.998624 
1.0150656e+3, 2.3465902e+2, -656723.44, -798290.7, -13848.724, -0.037110582, 0.05069576, -655381.44, -15033.701, 0.0, 10.000517, 9.998641 
1.0150633e+3, 2.4465765e+2, -577785.44, -724782.7, -726.7437, -0.058862057, 0.057833217, -577781.9, -35420.332, 0.0, 10.000452, 9.998504 
1.0150616e+3, 2.546565e+2, -470033.7, -620691.94, 5725.616, -0.032935582, 0.089676365, -469816.4, -25441.678, 0.0, 10.000514, 9.998516 
1.0150596e+3, 2.6465523e+2, -380967.63, -503587.1, -5539.5366, -0.034576938, 0.10296471, -380717.88, -34330.3, 0.0, 10.000352, 9.998726 
1.01505704e+3, 2.7465388e+2, -341843.25, -431187.03, -13594.359, -0.06919378, 0.08979696, -339820.53, -91420.55, 0.0, 9.999935, 9.99875 
1.0150549e+3, 2.846525e+2, -252909.75, -331039.78, 10986.336, -0.10128453, 0.073800415, -251394.28, -100981.35, 0.0, 9.999844, 9.998809 
1.0150532e+3, 2.946511e+2, -112946.055, -210402.08, 6975.7534, -0.12914187, 0.04936191, -112449.27, -60022.836, 0.0, 10.000122, 9.998831 
1.0150515e+3, 3.046502e+2, -30252.924, -64441.55, -15263.853, -0.12581456, 0.039570175, -24429.979, -24429.979, 0.0, 10.000008, 9.999554 
1.0150499e+3, 3.1465057e+2, -107081.17, -92651.46, -15890.226, -0.08637372, 0.12109872, -82414.86, -82414.86, 0.0, 9.999442, 9.999631 
1.02509215e+3, 1.24675795e+2, -1522297.3, -1788441.6, -10976.239, -0.055486992, 0.03372404, -1521845.4, 196334.97, 0.0002164286, 10.002043, 9.998509 
1.02509156e+3, 1.3467453e+2, -1472435.1, -1738645.4, 9512.833, 0.15450382, 0.07451494, -1472095.6, 148100.53, 0.00008198819, 10.001815, 9.998292 
1.0250876e+3, 1.4467314e+2, -1340572.5, -1532138.0, 39648.895, 0.019559158, 0.07038807, -1332690.6, 189520.28, 0.000012107449, 10.001651, 9.999112 
1.0250853e+3, 1.5467227e+2, -1251140.3, -1431919.5, 9310.947, -0.019031566, 0.06430437, -1250662.0, 173556.03, 0.00000009714164, 10.001566, 9.999168 
1.0250833e+3, 1.6467114e+2, -1214352.3, -1440132.0, -11498.458, -0.00934499, 0.06776758, -1213768.1, 112460.9, 0.0, 10.001475, 9.998483 
1.0250814e+3, 1.7466976e+2, -1132058.9, -1350177.6, 12353.747, 0.053879008, 0.08056327, -1131361.4, 96882.58, 0.0, 10.001369, 9.998478 
1.0250792e+3, 1.8466842e+2, -1029150.2, -1220955.0, 23725.193, 0.057877883, 0.08686769, -1026259.1, 103998.59, 0.0, 10.001278, 9.998736 
1.0250763e+3, 1.9466713e+2, -936874.9, -1122717.4, 11314.004, -0.0061112354, 0.07985811, -936188.6, 96081.336, 0.0, 10.001226, 9.998763 
1.02507375e+3, 2.0466577e+2, -875826.0, -1059856.0, -1876.1268, -0.01823871, 0.076133184, -875806.9, 58476.004, 0.0, 10.001047, 9.998609 
1.02507174e+3, 2.1466435e+2, -824277.94, -983146.75, -3902.0313, 0.028455943, 0.07081035, -824182.2, 12114.322, 0.0, 10.000724, 9.998618 
1.02506936e+3, 2.2466291e+2, -744814.25, -903185.5, 523.94653, 0.024130236, 0.07035346, -744812.56, -6502.2783, 0.0, 10.000637, 9.998535 
1.0250663e+3, 2.3466149e+2, -618876.75, -790473.75, 5783.5933, -0.038750798, 0.070355974, -618682.06, 21642.158, 0.0, 10.000823, 9.998547 
1.02506384e+3, 2.4466006e+2, -538762.4, -707445.1, 16119.97, -0.056669112, 0.07630219, -537235.7, 5103.0303, 0.0, 10.000728, 9.998489 
1.0250621e+3, 2.5465864e+2, -500703.94, -636546.94, 9252.919, -0.022902323, 0.083165586, -500076.6, -55722.703, 0.0, 10.000308, 9.998506 
1.02506e+3, 2.6465732e+2, -404636.66, -523824.34, 85.29585, -0.029029245, 0.09409936, -404636.6, -58269.4, 0.0, 10.000229, 9.998644 
1.0250571e+3, 2.7465612e+2, -260581.61, -400753.44, -140.16289, -0.08189051, 0.10531906, -260581.47, -12203.216, 0.0, 10.000533, 9.998669 
1.0250548e+3, 2.8465468e+2, -179030.61, -300008.1, 25317.316, -0.110185854, 0.08819208, -173946.06, -23554.277, 0.0, 10.000373, 9.998767 
1.0250532e+3, 2.9465288e+2, -179703.89, -247140.88, 26201.902, -0.10904678, 0.032649405, -170720.2, -118311.984, 0.0, 9.999684, 9.998788 
1.02505155e+3, 3.0465192e+2, -98384.28, -102809.24, 9073.783, -0.106387384, 0.020578064, -91257.13, -91257.13, 0.0, 9.999564, 9.999502 
1.0250495e+3, 3.146524e+2, -18803.43, -57713.695, -4467.93, -0.103242196, 0.1161176, -18296.984, -18296.984, 0.0, 10.000079, 9.999564 
1.0350951e+3, 1.2467826e+2, -1463084.5, -1663666.9, -10984.902, 0.03227954, 0.060400613, -1462484.8, 255675.42, 0.0002637313, 10.002035, 9.99937 
1.03509255e+3, 1.3467771e+2, -1412951.9, -1614871.8, 497.7131, 0.08142869, 0.087867275, -1412950.6, 207213.94, 0.00010469639, 10.001814, 9.999142 
1.0350884e+3, 1.446764e+2, -1397546.1, -1650751.6, 35430.504, -0.071241885, 0.08704135, -1392681.9, 129496.28, 0.000017566988, 10.001652, 9.998299 
1.03508756e+3, 1.546748e+2, -1312093.3, -1558234.5, 6344.807, 0.05023749, 0.094802655, -1311929.8, 112266.63, 0.00000023822265, 10.001564, 9.998302 
1.03508554e+3, 1.6467348e+2, -1172149.1, -1352814.8, -15667.466, 0.076772556, 0.09475046, -1170800.5, 155409.36, 0.0, 10.001475, 9.999083 
1.0350823e+3, 1.7467251e+2, -1086274.6, -1255489.8, 7844.1914, -0.0049779564, 0.0844298, -1085911.8, 142305.75, 0.0, 10.001369, 9.999128 
1.0350797e+3, 1.8467137e+2, -1049419.8, -1263690.8, 20418.268, -0.013825414, 0.09097543, -1047491.4, 82736.984, 0.0, 10.00128, 9.998443 
1.0350781e+3, 1.9467002e+2, -959904.6, -1170206.6, 8570.37, 0.059601914, 0.110409856, -959555.94, 72686.94, 0.0, 10.0012245, 9.998439 
1.0350757e+3, 2.0466843e+2, -879492.1, -1067485.9, -14752.857, 0.066694066, 0.10175903, -878341.44, 55917.168, 0.0, 10.001046, 9.998557 
1.0350721e+3, 2.1466655e+2, -826373.7, -988605.6, -16680.438, -0.0014962172, 0.054768156, -824676.4, 11599.322, 0.0, 10.000728, 9.998579 
1.03506945e+3, 2.2466515e+2, -734255.4, -882665.3, 6217.4185, -0.026019905, 0.052295193, -733995.4, 4293.361, 0.0, 10.000642, 9.998674 
1.0350675e+3, 2.3466429e+2, -609167.0, -769781.9, 12649.218, -0.0009777269, 0.096791714, -608176.94, 32120.098, 0.0, 10.00082, 9.998692 
1.03506505e+3, 2.4466296e+2, -550907.9, -731831.44, 975.60175, -0.004927606, 0.11100836, -550902.6, -8591.902, 0.0, 10.000723, 9.998325 
1.0350622e+3, 2.5466102e+2, -511908.28, -661705.4, -6032.882, -0.042196494, 0.08391122, -511665.72, -67335.12, 0.0, 10.000316, 9.998329 
1.0350597e+3, 2.646594e+2, -402651.38, -521789.25, 11177.292, -0.0679747, 0.074186996, -401611.8, -55265.137, 0.0, 10.000236, 9.998655 
1.0350576e+3, 2.7465817e+2, -260251.97, -398377.66, 12029.715, -0.08019149, 0.07950261, -259212.11, -10853.897, 0.0, 10.0005245, 9.998691 
1.0350555e+3, 2.8465694e+2, -178490.4, -296173.72, 1227.1104, -0.08136821, 0.08514529, -178477.61, -28108.389, 0.0, 10.0003605, 9.998799 
1.03505336e+3, 2.946558e+2, -175922.8, -241075.47, 1896.3447, -0.06985374, 0.08487413, -175867.64, -123487.99, 0.0, 9.999691, 9.998826 
1.0350513e+3, 3.0465457e+2, -111856.195, -133595.16, 28558.951, -0.08899487, 0.058899935, -92168.2, -92168.2, 0.0, 9.999574, 9.999288 
1.035049e+3, 3.1465378e+2, -36826.176, -93279.46, 17082.795, -0.14475429, 0.047733378, -32059.406, -32059.406, 0.0, 10.00007, 9.999326 
1.04509704e+3, 1.24680765e+2, -1542248.4, -1693820.5, 17724.11, 0.060269006, 0.073713884, -1540203.4, 177933.42, 0.00031664252, 10.001455, 9.999442 
1.0450942e+3, 1.3468023e+2, -1403593.3, -1604574.3, -39330.01, 0.06804403, 0.09655889, -1396170.9, 223970.1, 0.00013079311, 10.001852, 9.999194 
1.04508996e+3, 1.4467898e+2, -1376508.9, -1636777.3, -19858.8, -0.0884505, 0.0980887, -1375002.4, 147151.39, 0.000024312307, 10.0017805, 9.998332 
1.0450892e+3, 1.5467742e+2, -1368561.0, -1581846.4, 15765.704, 0.07747698, 0.10610944, -1367402.0, 56769.867, 0.0000004785213, 10.001161, 9.998335 
1.0450871e+3, 1.6467611e+2, -1241139.3, -1383987.9, 25263.363, 0.10882969, 0.105704136, -1236803.0, 89382.266, 0.0, 10.000994, 9.9991 
1.0450835e+3, 1.7467517e+2, -1085914.1, -1252897.1, 2422.4797, -0.015341906, 0.095274724, -1085879.0, 142313.63, 0.0, 10.001363, 9.999148 
1.0450808e+3, 1.8467402e+2, -1042940.2, -1266483.6, -14235.0205, -0.035313763, 0.1036632, -1042037.4, 88166.26, 0.0, 10.001352, 9.998387 
1.0450792e+3, 1.9467266e+2, -1010013.2, -1200766.1, -7027.424, 0.06355404, 0.1267812, -1009754.7, 22464.1, 0.0, 10.000909, 9.99838 
1.0450766e+3, 2.0467106e+2, -913730.6, -1078221.4, -8093.611, 0.081687264, 0.1169515, -913333.4, 20901.113, 0.0, 10.000788, 9.998607 
1.0450731e+3, 2.1466915e+2, -776321.56, -958445.5, -3510.3384, 0.007129981, 0.06430016, -776253.94, 59996.88, 0.0, 10.001046, 9.9986315 
1.0450703e+3, 2.2466771e+2, -695679.5, -872489.94, 9916.548, -0.01963033, 0.057515316, -695125.06, 43139.066, 0.0, 10.000943, 9.998599 
1.0450682e+3, 2.3466675e+2, -671527.75, -808532.1, -1335.3699, 0.008038253, 0.09839458, -671514.75, -31240.691, 0.0, 10.000429, 9.998612 
1.0450657e+3, 2.4466537e+2, -601925.8, -745060.0, -6565.6895, -0.0005597621, 0.10992922, -601625.25, -59337.65, 0.0, 10.000325, 9.998425 
1.0450626e+3, 2.5466356e+2, -450318.34, -620019.1, 7005.954, -0.0510939, 0.0823893, -450029.6, -5724.2217, 0.0, 10.000688, 9.998435 
1.0450601e+3, 2.6466194e+2, -347596.28, -500768.84, 29023.027, -0.07451079, 0.06844084, -342281.4, 4039.7383, 0.0, 10.000639, 9.998605 
1.0450581e+3, 2.7466053e+2, -322558.53, -434789.97, 23659.908, -0.06645012, 0.06445003, -317774.63, -69440.07, 0.0, 10.000124, 9.998633 
1.0450559e+3, 2.8465933e+2, -227795.16, -322340.25, 7293.159, -0.06324806, 0.0756996, -227235.88, -76890.086, 0.0, 10.000033, 9.998776 
1.04505345e+3, 2.946584e+2, -71371.766, -192618.8, 2062.2754, -0.06504952, 0.09934566, -71336.7, -18982.365, 0.0, 10.00042, 9.998807 
1.04505114e+3, 3.046572e+2, -14439.76, -82103.29, 33777.55, -0.08751992, 0.07411985, -464.50363, -464.50363, 0.0, 10.000225, 9.999327 
1.045049e+3, 3.1465614e+2, -134891.39, -136322.92, 42871.934, -0.13596284, 0.030693745, -92729.25, -92729.25, 0.0, 9.99938, 9.99936 
1.0550982e+3, 1.24683365e+2, -1589359.6, -1793106.6, 42029.3, 0.019782005, 0.07167093, -1581030.3, 137079.81, 0.0003754383, 10.001461, 9.998758 
1.0550965e+3, 1.3468218e+2, -1454701.8, -1709637.8, -23822.691, 0.110607654, 0.10156352, -1452494.8, 167629.48, 0.00016041061, 10.001847, 9.998476 
1.0550923e+3, 1.4468099e+2, -1317747.6, -1513803.0, -41881.664, -0.03613227, 0.103718266, -1309175.6, 212961.14, 0.000032450233, 10.001775, 9.999179 
1.0550902e+3, 1.5468018e+2, -1305446.0, -1451119.5, -8119.556, 0.06326862, 0.098401845, -1304994.9, 119148.95, 0.0000008393984, 10.001161, 9.999232 
1.0550879e+3, 1.6467911e+2, -1279395.4, -1464452.3, 37084.49, 0.08684435, 0.101832256, -1272240.4, 53914.06, 0.0, 10.000998, 9.998547 
1.0550852e+3, 1.7467779e+2, -1128281.0, -1340285.8, 16190.985, 0.020732457, 0.11394265, -1127051.6, 101116.95, 0.0, 10.00136, 9.99855 
1.0550824e+3, 1.8467645e+2, -1031028.1, -1241344.1, -30574.791, -0.008255822, 0.1250815, -1026673.5, 103509.25, 0.0, 10.0013485, 9.998563 
1.0550796e+3, 1.9467509e+2, -995488.9, -1171274.4, -24162.094, 0.0063259513, 0.12873283, -992228.25, 39968.805, 0.0, 10.000911, 9.998582 
1.0550769e+3, 2.0467368e+2, -903479.9, -1058075.9, -44.788174, 0.026695566, 0.12203225, -903479.9, 30730.182, 0.0, 10.000792, 9.998744 
1.0550747e+3, 2.1467222e+2, -767330.94, -939311.9, 5662.126, 0.052979007, 0.0988468, -767144.75, 69076.77, 0.0, 10.001043, 9.998765 
1.0550719e+3, 2.2467062e+2, -716134.2, -914778.44, -9333.809, 0.04150159, 0.08513376, -715696.56, 22539.621, 0.0, 10.000941, 9.99831 
1.05506845e+3, 2.3466887e+2, -691605.1, -851835.2, -20769.66, -0.012033053, 0.07603024, -688956.6, -48701.953, 0.0, 10.000435, 9.998313 
1.05506554e+3, 2.446674e+2, -575919.56, -692986.75, 6167.0757, -0.04366343, 0.07539816, -575595.56, -33326.75, 0.0, 10.000332, 9.998779 
1.0550634e+3, 2.5466627e+2, -424027.56, -565042.6, 21148.807, -0.05049902, 0.07935354, -420924.06, 23353.842, 0.0, 10.000685, 9.998816 
1.0550611e+3, 2.646649e+2, -356218.84, -517712.34, 10959.266, -0.05017105, 0.075766474, -355478.5, -9187.923, 0.0, 10.000634, 9.998492 
1.0550585e+3, 2.746632e+2, -330796.3, -453314.78, 5168.8594, -0.04276276, 0.057875667, -330578.63, -82271.31, 0.0, 10.000129, 9.998504 
1.055056e+3, 2.846618e+2, -233835.5, -336419.88, 21582.125, -0.05758122, 0.059126284, -229479.9, -79158.53, 0.0, 10.000038, 9.998677 
1.0550536e+3, 2.9466075e+2, -79352.484, -207643.72, 17686.844, -0.095146775, 0.07943911, -76958.75, -24626.777, 0.0, 10.00041, 9.998709 
1.05505124e+3, 3.0465978e+2, 5033.853, -39015.715, 3750.9988, -0.10292582, 0.06965831, 5350.9824, 5350.9824, 0.0, 10.000214, 9.999628 
1.05504885e+3, 3.1465942e+2, -111424.3, -88949.85, 12642.647, -0.08205309, 0.06440099, -83272.234, -83272.234, 0.0, 9.999386, 9.999683 
1.06509976e+3, 1.2468572e+2, -1491372.0, -1737237.4, 19881.729, -0.0035491695, 0.075836465, -1489774.6, 228312.8, 0.00044023, 10.0021, 9.998833 
1.0650983e+3, 1.3468449e+2, -1565050.5, -1757307.8, -256.8971, 0.13652083, 0.097788624, -1565050.3, 55051.83, 0.0001936281, 10.001065, 9.998526 
1.0650939e+3, 1.4468339e+2, -1452878.5, -1567680.1, -2966.7048, -0.004782929, 0.10165813, -1452801.9, 69311.77, 0.00004209593, 10.0008, 9.999278 
1.0650914e+3, 1.5468276e+2, -1262022.1, -1418876.0, -28123.396, 0.050655074, 0.102950476, -1257132.1, 166986.9, 0.0000013547506, 10.001412, 9.999331 
1.06508896e+3, 1.6468176e+2, -1218491.4, -1438911.8, 134.20772, 0.07006725, 0.11056511, -1218491.3, 107637.945, 0.0, 10.001434, 9.99851 
1.0650866e+3, 1.7468041e+2, -1214082.4, -1386347.9, 19777.717, 0.045915246, 0.12341224, -1211840.9, 16303.184, 0.0, 10.0007925, 9.9985075 
1.06508374e+3, 1.8467912e+2, -1123893.9, -1271649.8, -1849.1167, 0.020578673, 0.13544247, -1123870.8, 6287.1426, 0.0, 10.00065, 9.998691 
1.0650805e+3, 1.946779e+2, -960219.75, -1139056.4, -742.0436, -0.006530905, 0.14107859, -960216.6, 71953.79, 0.0, 10.001088, 9.998716 
1.0650776e+3, 2.0467658e+2, -864234.3, -1044554.75, 9447.648, 0.0055265226, 0.13838714, -863740.6, 70441.95, 0.0, 10.001085, 9.998694 
1.06507555e+3, 2.1467514e+2, -837851.9, -979419.6, 716.3201, 0.06184497, 0.121280655, -837848.25, -1653.8713, 0.0, 10.0005865, 9.99871 
1.0650728e+3, 2.2467348e+2, -781291.4, -944453.44, -8363.406, 0.05759685, 0.10401568, -780863.8, -42654.203, 0.0, 10.000487, 9.998324 
1.0650691e+3, 2.3467161e+2, -630583.8, -820417.4, 3075.989, -0.015227496, 0.08103688, -630534.0, 9694.884, 0.0, 10.000847, 9.99833 
1.06506616e+3, 2.4467008e+2, -498114.38, -654198.94, 31659.578, -0.04851275, 0.07450242, -491937.13, 50305.91, 0.0, 10.000861, 9.998791 
1.0650641e+3, 2.5466898e+2, -452168.63, -577054.4, 18669.588, -0.03697888, 0.0809169, -449437.38, -5185.949, 0.0, 10.000485, 9.998828 
1.0650616e+3, 2.646676e+2, -395088.4, -535041.0, -6904.1704, -0.03253238, 0.07633765, -394748.63, -48484.73, 0.0, 10.000361, 9.998504 
1.06505886e+3, 2.7466592e+2, -272965.63, -423738.13, -2843.7566, -0.03699085, 0.054590855, -272912.0, -24631.234, 0.0, 10.000521, 9.998518 
1.0650562e+3, 2.8466448e+2, -183147.19, -309688.34, 27574.4, -0.057915945, 0.0532314, -177399.56, -27104.623, 0.0, 10.000378, 9.998697 
1.0650537e+3, 2.9466343e+2, -151508.61, -240198.28, 32463.506, -0.0960292, 0.07183636, -140895.78, -88590.11, 0.0, 9.999906, 9.998728 
1.06505126e+3, 3.0466253e+2, -58399.617, -70010.46, 3840.8623, -0.10051528, 0.06688496, -57244.066, -57244.066, 0.0, 9.99978, 9.999623 
1.0650487e+3, 3.1466246e+2, -18374.525, -44247.848, -14319.98, -0.07038238, 0.0898895, -12013.025, -12013.025, 0.0, 10.000027, 9.999681 
1.0751017e+3, 1.246879e+2, -1436981.3, -1621709.8, -8307.446, -0.019322658, 0.085534744, -1436608.4, 281459.75, 0.00051082077, 10.002089, 9.999631 
1.0750995e+3, 1.3468724e+2, -1509175.0, -1642013.5, -39585.344, 0.14581853, 0.08507395, -1498273.4, 121800.48, 0.00023041679, 10.001068, 9.999315 
1.0750947e+3, 1.4468628e+2, -1496105.3, -1659273.3, 17818.053, 0.0049332962, 0.092434056, -1494182.1, 27901.807, 0.000053336094, 10.000808, 9.998646 
1.0750926e+3, 1.5468523e+2, -1309472.3, -1517375.6, -4751.493, 0.038253788, 0.12058078, -1309363.6, 114733.05, 0.0000020676762, 10.001411, 9.998655 
1.07509024e+3, 1.6468415e+2, -1186477.0, -1372408.9, -22858.813, 0.05743333, 0.13189809, -1183707.9, 142400.61, 0.0000000000166348, 10.001432, 9.998968 
1.0750875e+3, 1.7468308e+2, -1178944.4, -1314292.6, -4662.895, 0.05973869, 0.12308562, -1178783.9, 49334.813, 0.0, 10.000794, 9.9990015 
1.0750847e+3, 1.8468207e+2, -1118252.8, -1260871.6, 12410.948, 0.048874255, 0.13504627, -1117180.8, 12948.005, 0.0, 10.000653, 9.998764 
1.07508175e+3, 1.9468115e+2, -956388.4, -1130726.4, 15051.899, 0.023293087, 0.16452825, -955098.4, 77040.17, 0.0, 10.001086, 9.9987755 
1.07507885e+3, 2.0467979e+2, -880599.1, -1078608.4, -9453.559, 0.017158313, 0.16635518, -880148.8, 54003.008, 0.0, 10.001084, 9.998462 
1.07507594e+3, 2.1467793e+2, -854309.9, -1014415.3, -18680.834, 0.03345444, 0.13161068, -852159.1, -15990.169, 0.0, 10.000588, 9.998468 
1.0750729e+3, 2.246763e+2, -759241.56, -899734.0, 3570.9048, 0.02816214, 0.1145994, -759150.9, -20966.938, 0.0, 10.00049, 9.998631 
1.07507005e+3, 2.3467496e+2, -607850.6, -773613.5, 16553.527, -0.002100383, 0.11273438, -606213.75, 33982.605, 0.0, 10.000847, 9.998652 
1.0750673e+3, 2.4467343e+2, -521247.84, -702446.0, 18213.748, -0.016533833, 0.105851345, -519435.16, 22775.053, 0.0, 10.000861, 9.998461 
1.07506484e+3, 2.5467175e+2, -476347.94, -628043.06, 4995.218, -0.012668714, 0.0864493, -476183.63, -31957.861, 0.0, 10.000488, 9.998478 
1.07506216e+3, 2.6467013e+2, -385390.94, -515971.78, -905.719, -0.023008985, 0.07078719, -385384.66, -39143.94, 0.0, 10.000364, 9.998633 
1.0750592e+3, 2.7466863e+2, -262817.16, -402513.56, 4043.696, -0.049104467, 0.055551108, -262700.2, -14445.549, 0.0, 10.000518, 9.998665 
1.0750565e+3, 2.8466743e+2, -174049.14, -289856.44, 10756.091, -0.06489359, 0.058135595, -173058.6, -22792.236, 0.0, 10.000373, 9.998836 
1.0750538e+3, 2.9466644e+2, -141079.38, -219480.98, 15864.902, -0.07022722, 0.07352859, -137990.72, -85715.15, 0.0, 9.999909, 9.998869 
1.0750511e+3, 3.0466545e+2, -80927.97, -117807.55, 13572.363, -0.08245769, 0.063346826, -76471.586, -76471.586, 0.0, 9.999783, 9.999294 
1.07504845e+3, 3.1466526e+2, -42528.082, -94170.95, -3625.215, -0.10224432, 0.1137608, -42274.84, -42274.84, 0.0, 10.000024, 9.999341 
1.0851034e+3, 1.2469056e+2, -1567655.0, -1682164.0, 38762.195, -0.0126397535, 0.08234539, -1555767.8, 162274.48, 0.0005868495, 10.0011835, 9.999651 
1.0851007e+3, 1.3469002e+2, -1437763.6, -1608815.9, -63314.887, 0.14811563, 0.09538377, -1416877.9, 203169.14, 0.00027068684, 10.001565, 9.999304 
1.0850959e+3, 1.4468908e+2, -1392668.3, -1615106.4, -1215.6433, 0.009344243, 0.109572954, -1392661.6, 129395.34, 0.00006622561, 10.001545, 9.998593 
1.085094e+3, 1.546879e+2, -1360886.8, -1548653.8, 21190.912, 0.04842842, 0.12885211, -1358524.9, 65546.48, 0.000003027, 10.001088, 9.998596 
1.0850915e+3, 1.6468681e+2, -1255234.6, -1393311.3, 2636.9128, 0.066478424, 0.13726923, -1255184.3, 70898.98, 0.000000000186287, 10.000909, 9.999076 
1.0850884e+3, 1.746859e+2, -1134719.1, -1279875.6, -7956.7266, 0.05888364, 0.1337165, -1134284.4, 93807.22, 0.0, 10.001045, 9.999116 
1.0850854e+3, 1.8468495e+2, -1076579.6, -1243545.8, 2087.127, 0.049826544, 0.14622512, -1076553.5, 53547.383, 0.0, 10.000953, 9.998737 
1.0850829e+3, 1.9468394e+2, -1027610.2, -1168720.1, -1727.9905, 0.039487295, 0.16998509, -1027589.06, 4522.7393, 0.0, 10.000613, 9.998742 
1.0850798e+3, 2.0468259e+2, -953100.0, -1103184.5, -24132.857, 0.029489193, 0.16904521, -949315.0, -15189.862, 0.0, 10.000543, 9.998554 
1.0850764e+3, 2.1468084e+2, -819818.06, -986778.06, -9351.994, 0.019410575, 0.13562654, -819295.8, 16845.434, 0.0, 10.000779, 9.998567 
1.0850735e+3, 2.2467932e+2, -708502.5, -873269.56, 23675.36, 0.013734517, 0.12394178, -705168.06, 32987.11, 0.0, 10.000831, 9.998648 
1.0850709e+3, 2.3467807e+2, -631713.6, -783180.5, 13341.534, 0.012346009, 0.1315954, -630547.44, 9619.148, 0.0, 10.000675, 9.998668 
1.0850682e+3, 2.4467656e+2, -559613.2, -722326.06, 4520.9355, 0.004579419, 0.12526745, -559487.7, -17307.217, 0.0, 10.000605, 9.998447 
1.08506545e+3, 2.5467476e+2, -457073.66, -620154.2, 15573.445, -0.009917724, 0.09651888, -455599.78, -11402.657, 0.0, 10.000627, 9.998465 
1.0850626e+3, 2.646731e+2, -351298.38, -492609.78, 26615.002, -0.025568383, 0.07548766, -346451.84, -239.52585, 0.0, 10.00057, 9.998694 
1.0850598e+3, 2.746717e+2, -271182.75, -399419.75, 24997.432, -0.042534363, 0.05961819, -266482.25, -18256.646, 0.0, 10.00043, 9.998728 
1.085057e+3, 2.8467053e+2, -180334.38, -297218.56, 12922.975, -0.05196063, 0.06837099, -178922.64, -28686.139, 0.0, 10.000348, 9.998797 
1.0850542e+3, 2.946697e+2, -83763.04, -196381.94, 3352.1406, -0.05295238, 0.09778301, -83663.35, -31418.648, 0.0, 10.000323, 9.998828 
1.0850513e+3, 3.046684e+2, -38381.72, -110537.19, 8090.459, -0.07295991, 0.071551114, -37485.7, -37485.7, 0.0, 10.000133, 9.999175 
1.08504824e+3, 3.1466794e+2, -86288.98, -126590.516, 7547.8022, -0.11456623, 0.1042755, -84921.78, -84921.78, 0.0, 9.999772, 9.999239 
1.09510474e+3, 1.24693744e+2, -1618847.1, -1789050.9, 64498.707, 0.011516215, 0.06487284, -1597166.9, 120842.53, 0.00066827383, 10.001186, 9.998916 
1.0951023e+3, 1.3469292e+2, -1493398.3, -1723944.0, -48794.926, 0.14174622, 0.1296367, -1483496.1, 136524.3, 0.00031450897, 10.001563, 9.998515 
1.0950975e+3, 1.4469193e+2, -1358135.1, -1543244.1, -17651.89, 0.007191555, 0.15343206, -1356466.9, 165564.86, 0.000080840386, 10.001543, 9.999087 
1.0950954e+3, 1.5469082e+2, -1323511.4, -1471684.6, 3924.6533, 0.07995139, 0.12698781, -1323407.5, 100635.22, 0.0000043066148, 10.00109, 9.999125 
1.0950927e+3, 1.646898e+2, -1271198.1, -1427215.4, 6467.334, 0.09491898, 0.12702106, -1270930.5, 55122.582, 0.0000000006358386, 10.000912, 9.998842 
1.09508924e+3, 1.7468895e+2, -1152696.6, -1317628.5, -3172.4817, 0.042984035, 0.15603644, -1152635.6, 75426.34, 0.0, 10.001046, 9.998857 
1.0950862e+3, 1.8468782e+2, -1085151.4, -1262051.8, -11021.3, 0.02360513, 0.16906264, -1084467.4, 45606.58, 0.0, 10.000955, 9.99861 
1.0950835e+3, 1.9468632e+2, -1036069.7, -1186533.6, -14946.821, 0.041801073, 0.15722989, -1034599.25, -2509.5977, 0.0, 10.000613, 9.99862 
1.09508045e+3, 2.0468502e+2, -925109.6, -1045226.2, -16670.773, 0.041186415, 0.14699335, -922838.9, 11263.259, 0.0, 10.000543, 9.998953 
1.0950772e+3, 2.1468388e+2, -790390.6, -926315.56, -1051.8647, 0.01877972, 0.13394476, -790382.5, 45728.367, 0.0, 10.000781, 9.998981 
1.0950742e+3, 2.2468254e+2, -726791.5, -912100.1, 17269.922, 0.013313431, 0.13250448, -725195.75, 12927.344, 0.0, 10.0008335, 9.998381 
1.0950718e+3, 2.3468098e+2, -651779.94, -825141.75, 7341.3843, 0.027031647, 0.13786884, -651469.6, -11330.343, 0.0, 10.000676, 9.998381 
1.095069e+3, 2.446795e+2, -538718.3, -679366.56, 5248.1875, 0.014104757, 0.13294129, -538522.75, 3630.7783, 0.0, 10.000605, 9.998742 
1.0950658e+3, 2.5467807e+2, -434898.4, -574274.6, 16895.03, -0.028766902, 0.11093753, -432879.66, 11285.687, 0.0, 10.000627, 9.99878 
1.095063e+3, 2.6467657e+2, -352282.28, -494572.2, 21823.396, -0.04074525, 0.09012504, -349010.4, -2831.7224, 0.0, 10.000568, 9.998682 
1.0950604e+3, 2.7467504e+2, -272439.6, -402571.97, 20602.736, -0.018838657, 0.066113286, -269255.63, -21062.06, 0.0, 10.000432, 9.998706 
1.09505765e+3, 2.8467387e+2, -195714.66, -329697.4, 12671.548, -0.02021741, 0.08417142, -194526.75, -44321.563, 0.0, 10.000349, 9.998574 
1.0950546e+3, 2.946731e+2, -100103.57, -230201.8, 3610.5608, -0.045544986, 0.14440192, -100003.445, -47790.438, 0.0, 10.000321, 9.998597 
1.0950514e+3, 3.0467147e+2, -32499.469, -97582.9, -4900.5747, -0.0739178, 0.09068051, -32132.54, -32132.54, 0.0, 10.000128, 9.999268 
1.095048e+3, 3.146705e+2, -75747.63, -105673.28, -4555.2505, -0.110362574, 0.06281951, -75069.6, -75069.6, 0.0, 9.999775, 9.999382 
1.10510655e+3, 1.2469677e+2, -1541739.3, -1760951.1, 43510.016, 0.041850027, 0.08564577, -1533419.0, 184560.69, 0.00075577793, 10.001755, 9.998836 
1.10510364e+3, 1.3469547e+2, -1513952.6, -1746879.5, -34664.773, 0.13215949, 0.1132585, -1508903.1, 111092.41, 0.00036234639, 10.001476, 9.9984 
1.1050987e+3, 1.4469449e+2, -1390257.3, -1542968.4, -2335.8418, -0.0066299126, 0.13746338, -1390221.5, 131785.16, 0.00009737699, 10.001255, 9.999228 
1.1050966e+3, 1.5469377e+2, -1311424.3, -1449224.9, -9845.887, 0.08092983, 0.13681118, -1310724.4, 113289.27, 0.0000060098255, 10.001103, 9.999271 
1.1050937e+3, 1.6469285e+2, -1267075.8, -1436169.4, -4243.723, 0.100655146, 0.14394137, -1266969.4, 59053.773, 0.0000000015512864, 10.00099, 9.998742 
1.1050902e+3, 1.7469175e+2, -1175930.6, -1341075.8, -2690.9902, 0.041897807, 0.15803552, -1175886.9, 52148.22, 0.0, 10.000939, 9.998747 
1.105087e+3, 1.846905e+2, -1101708.9, -1263852.8, -9539.648, 0.021271862, 0.16308756, -1101149.5, 28898.695, 0.0, 10.000815, 9.998665 
1.1050841e+3, 1.9468908e+2, -1033097.4, -1178024.6, -901.1229, 0.043873105, 0.15217873, -1033091.8, -1028.8539, 0.0, 10.000605, 9.998682 
1.1050811e+3, 2.0468783e+2, -924154.2, -1041486.6, 7498.739, 0.04898211, 0.14420934, -923676.9, 10397.688, 0.0, 10.000536, 9.9989805 
1.105078e+3, 2.1468675e+2, -810403.0, -932917.0, -5461.483, 0.0337535, 0.13434061, -810160.0, 25922.707, 0.0, 10.000631, 9.999007 
1.1050751e+3, 2.2468548e+2, -750019.7, -917629.56, -795.15216, 0.023779754, 0.13348648, -750015.9, -11921.16, 0.0, 10.000651, 9.99843 
1.1050723e+3, 2.3468395e+2, -661287.44, -824098.0, 13292.294, 0.02002557, 0.13660343, -660209.4, -20098.248, 0.0, 10.000587, 9.99843 
1.10506944e+3, 2.4468255e+2, -536151.3, -659486.4, 23415.209, 0.0051602744, 0.1323706, -531855.56, 10268.723, 0.0, 10.000544, 9.998909 
1.1050664e+3, 2.5468135e+2, -437728.9, -556622.9, 23476.03, -0.022776391, 0.11454839, -433261.34, 10872.263, 0.0, 10.000526, 9.99895 
1.1050636e+3, 2.6468e+2, -365736.72, -502959.56, 18481.482, -0.03262576, 0.100660644, -363291.16, -17145.512, 0.0, 10.000485, 9.998664 
1.1050608e+3, 2.7467856e+2, -276142.9, -406989.3, 16635.07, -0.022308713, 0.08706694, -274061.13, -25900.635, 0.0, 10.000419, 9.998682 
1.105058e+3, 2.846774e+2, -195800.83, -327257.9, 18968.025, -0.020736393, 0.10813257, -193118.64, -42946.56, 0.0, 10.0003395, 9.998595 
1.1050551e+3, 2.9467657e+2, -109141.36, -232170.28, 28372.676, -0.027056746, 0.16235432, -102913.38, -50733.48, 0.0, 10.00025, 9.998618 
1.1050518e+3, 3.0467474e+2, -38855.88, -114069.03, 15419.633, -0.05109898, 0.090401426, -35817.41, -35817.41, 0.0, 10.000144, 9.9991455 
1.105048e+3, 3.146737e+2, -44386.598, -99067.8, -3659.3286, -0.098175116, 0.06994196, -44142.8, -44142.8, 0.0, 10.00003, 9.999303 
1.11510865e+3, 1.2469969e+2, -1503183.9, -1679802.5, 47529.406, 0.07563479, 0.13954373, -1491205.8, 226746.86, 0.00085057894, 10.00175, 9.999394 
1.115105e+3, 1.3469772e+2, -1476635.8, -1669589.9, -45107.992, 0.11844015, 0.047392577, -1466611.4, 153360.48, 0.00041499882, 10.001475, 9.998932 
1.1150997e+3, 1.4469683e+2, -1404086.0, -1571929.6, -8786.82, -0.032524105, 0.06336701, -1403627.3, 118354.125, 0.00011616446, 10.001255, 9.999029 
1.11509725e+3, 1.5469685e+2, -1327110.9, -1481919.4, -15719.225, 0.051072624, 0.15899312, -1325530.9, 98452.37, 0.000008247579, 10.001103, 9.999047 
1.1150945e+3, 1.6469607e+2, -1264970.4, -1432720.0, -6693.989, 0.08301841, 0.1877749, -1264703.6, 61289.016, 0.0000000033697685, 10.000993, 9.998765 
1.1150913e+3, 1.7469436e+2, -1173538.6, -1336399.3, -4583.962, 0.054571614, 0.13970974, -1173409.8, 54600.445, 0.0, 10.00094, 9.998779 
1.115088e+3, 1.8469308e+2, -1085876.6, -1231122.5, -17925.174, 0.04099186, 0.12921624, -1083697.1, 46326.047, 0.0, 10.000814, 9.998891 
1.11508474e+3, 1.9469227e+2, -1015884.9, -1144057.5, -9457.798, 0.044654395, 0.15527664, -1015190.75, 16840.514, 0.0, 10.000611, 9.998913 
1.1150817e+3, 2.046911e+2, -946436.9, -1089846.1, 9598.133, 0.05201223, 0.1604281, -945797.3, -11755.128, 0.0, 10.000544, 9.998646 
1.115079e+3, 2.1468952e+2, -835167.6, -984244.94, -2300.7188, 0.06340668, 0.13612874, -835132.1, 924.342, 0.0, 10.000629, 9.998657 
1.11507595e+3, 2.2468814e+2, -725858.6, -866934.56, -3506.6968, 0.044178475, 0.12642324, -725771.56, 12298.186, 0.0, 10.000648, 9.99878 
1.1150727e+3, 2.3468699e+2, -634884.44, -769667.25, 10784.493, -0.008956517, 0.12838875, -634026.94, 6054.7847, 0.0, 10.000587, 9.998804 
1.1150697e+3, 2.446858e+2, -533733.4, -654733.25, 22578.678, -0.022996638, 0.124591, -529657.44, 12435.007, 0.0, 10.000544, 9.998941 
1.1150672e+3, 2.5468463e+2, -436178.22, -553753.9, 23338.55, 0.006746027, 0.107815154, -431714.97, 12386.701, 0.0, 10.000526, 9.998969 
1.1150643e+3, 2.6468343e+2, -367346.53, -506996.9, 16350.311, -0.0018694571, 0.1069614, -365457.78, -19344.742, 0.0, 10.000487, 9.998636 
1.1150609e+3, 2.7468222e+2, -278641.16, -411706.16, 14904.187, -0.054067284, 0.12086321, -276992.22, -28865.799, 0.0, 10.000416, 9.9986515 
1.115058e+3, 2.8468114e+2, -178098.72, -289478.44, 16200.143, -0.055220354, 0.13906069, -175790.25, -25653.074, 0.0, 10.000334, 9.9988575 
1.1150555e+3, 2.9468018e+2, -89450.63, -192160.72, 26330.178, 0.0016492052, 0.15316023, -83094.164, -30949.07, 0.0, 10.000253, 9.998892 
1.1150524e+3, 3.0467823e+2, -62928.52, -165414.33, 11792.54, -0.004510069, 0.07320849, -61589.113, -61589.113, 0.0, 10.000148, 9.998792 
1.1150482e+3, 3.1467763e+2, -66972.17, -145429.55, -6610.571, -0.08128758, 0.1301843, -66419.08, -66419.08, 0.0, 10.000026, 9.998987 
1.12511046e+3, 1.2470229e+2, -1494399.4, -1651798.9, 81062.77, 0.07995951, 0.11904759, -1460117.6, 257809.5, 0.00095378526, 10.00171, 9.999605 
1.1251063e+3, 1.3470066e+2, -1501094.1, -1659882.6, -51151.5, 0.11768715, 0.042498577, -1486043.0, 133899.25, 0.00047316175, 10.001216, 9.999124 
1.1251009e+3, 1.4469996e+2, -1442726.4, -1593448.6, -7487.3774, -0.025385676, 0.068510264, -1442355.4, 79594.414, 0.00013752929, 10.001004, 9.999002 
1.12509824e+3, 1.5469974e+2, -1325088.9, -1485385.9, -819.17175, 0.0353265, 0.14297116, -1325084.8, 98869.94, 0.00001111389, 10.001136, 9.999008 
1.12509534e+3, 1.6469893e+2, -1249001.6, -1416968.4, 11373.361, 0.06513297, 0.16938272, -1248235.0, 77729.445, 0.0000000061074554, 10.001067, 9.998837 
1.1250923e+3, 1.746975e+2, -1192968.0, -1336983.6, 15890.831, 0.05833245, 0.14058125, -1191235.5, 36743.88, 0.0, 10.00077, 9.998857 
1.12508886e+3, 1.8469636e+2, -1105941.4, -1247803.6, 1155.4855, 0.052264355, 0.14253776, -1105932.0, 24059.398, 0.0, 10.000709, 9.998826 
1.1250854e+3, 1.9469553e+2, -975175.3, -1132146.0, -12603.892, 0.04664332, 0.17292403, -974169.75, 57830.547, 0.0, 10.000925, 9.998843 
1.1250823e+3, 2.046943e+2, -893612.25, -1058779.6, 4198.6323, 0.048195053, 0.1748944, -893505.56, 40506.2, 0.0, 10.000883, 9.998695 
1.1250795e+3, 2.1469267e+2, -842644.1, -981727.4, 21356.203, 0.05779317, 0.13924971, -839438.75, -3412.624, 0.0, 10.000553, 9.998711 
1.1250764e+3, 2.2469132e+2, -757175.56, -879124.94, 29374.88, 0.039608814, 0.12836441, -750468.7, -12429.557, 0.0, 10.000421, 9.998806 
1.1250731e+3, 2.346903e+2, -643856.06, -770778.25, 16938.855, -0.009893644, 0.14137538, -641634.3, -1583.9944, 0.0, 10.000514, 9.998832 
1.12507015e+3, 2.4468921e+2, -534424.3, -645871.3, 13512.271, -0.02040004, 0.14185426, -532809.44, 9250.874, 0.0, 10.000501, 9.999022 
1.1250678e+3, 2.5468805e+2, -453997.2, -553144.9, 18259.797, 0.0128572155, 0.12122702, -450741.25, -6672.2236, 0.0, 10.000366, 9.99905 
1.1250648e+3, 2.6468688e+2, -392659.4, -509771.88, 18108.994, 0.0077760313, 0.11563119, -389923.16, -43843.293, 0.0, 10.000275, 9.998719 
1.12506144e+3, 2.7468574e+2, -299741.28, -412643.6, 24427.455, -0.04077243, 0.12431335, -294682.8, -46590.023, 0.0, 10.000232, 9.9987335 
1.1250584e+3, 2.8468472e+2, -204796.63, -305953.0, 18534.754, -0.04836811, 0.14569725, -201507.48, -51404.277, 0.0, 10.000167, 9.998825 
1.1250557e+3, 2.9468384e+2, -116186.836, -209140.16, 4621.326, -0.009483308, 0.17207651, -115957.64, -63846.582, 0.0, 10.000088, 9.998854 
1.1250525e+3, 3.046819e+2, -65180.016, -158854.25, -4321.731, -0.007271074, 0.090986155, -64981.05, -64981.05, 0.0, 10.000101, 9.998859 
1.1250487e+3, 3.146816e+2, -29105.844, -110662.21, 10569.145, -0.04251598, 0.17162888, -27758.416, -27758.416, 0.0, 10.000215, 9.999136 
1.135112e+3, 1.2470465e+2, -1502979.1, -1669823.9, 74963.0, 0.055108044, 0.026271302, -1474246.5, 243656.0, 0.0010657869, 10.001712, 9.999481 
1.13510765e+3, 1.3470437e+2, -1510993.1, -1680218.5, -70189.96, 0.12772289, 0.09759267, -1485669.8, 134236.5, 0.00053702114, 10.001214, 9.998985 
1.1351023e+3, 1.4470394e+2, -1433480.6, -1574477.5, -3509.6921, 0.011801678, 0.15114711, -1433393.3, 88518.19, 0.00016162105, 10.001004, 9.999133 
1.1350994e+3, 1.5470248e+2, -1315117.1, -1465330.0, 4233.962, 0.03212921, 0.0897848, -1314997.9, 108929.22, 0.000014669085, 10.001138, 9.999145 
1.1350963e+3, 1.6470154e+2, -1240363.5, -1399967.6, 26.041893, 0.04595403, 0.09109245, -1240363.5, 85574.17, 0.000000009421829, 10.00107, 9.998954 
1.1350929e+3, 1.7470121e+2, -1184025.8, -1319882.9, 4117.354, 0.052421343, 0.1606098, -1183901.0, 44041.04, 0.0, 10.000775, 9.998972 
1.1350896e+3, 1.8470037e+2, -1129479.1, -1298267.3, 7641.923, 0.054043207, 0.20153254, -1129133.9, 818.52527, 0.0, 10.000714, 9.998478 
1.1350864e+3, 1.9469889e+2, -1000812.8, -1184961.8, -4841.8677, 0.04971455, 0.20416695, -1000685.56, 31283.914, 0.0, 10.000922, 9.998483 
1.13508314e+3, 2.0469749e+2, -865071.1, -998802.75, -8348.165, 0.03739565, 0.18757221, -864552.0, 69430.69, 0.0, 10.000879, 9.999109 
1.13507956e+3, 2.1469623e+2, -811265.3, -917708.7, 8350.206, 0.016401704, 0.14434646, -810614.2, 25377.15, 0.0, 10.000556, 9.999148 
1.1350765e+3, 2.2469501e+2, -777254.9, -921929.6, 31476.227, 0.008951566, 0.13995051, -770703.4, -32700.766, 0.0, 10.000424, 9.99851 
1.135074e+3, 2.3469388e+2, -666043.0, -817084.7, 20390.125, 0.016455486, 0.17423303, -663338.9, -23322.186, 0.0, 10.000514, 9.998514 
1.1350711e+3, 2.4469276e+2, -525755.25, -628039.25, 8651.821, 0.012164325, 0.18196608, -525028.6, 16999.148, 0.0, 10.000501, 9.999145 
1.135068e+3, 2.546917e+2, -444518.38, -533096.3, 13642.644, -0.0053842654, 0.15392417, -442464.78, 1570.6693, 0.0, 10.000363, 9.999189 
1.135065e+3, 2.6469046e+2, -379797.1, -482368.03, 17025.574, -0.005094491, 0.1275071, -377044.9, -30999.014, 0.0, 10.00027, 9.99891 
1.1350623e+3, 2.7468914e+2, -285542.28, -384156.28, 24049.54, 0.015714552, 0.09995628, -279989.84, -31930.75, 0.0, 10.000236, 9.998928 
1.1350589e+3, 2.8468814e+2, -227565.75, -355155.47, 15980.494, -0.0014627614, 0.1298981, -225594.66, -75524.836, 0.0, 10.000174, 9.998485 
1.1350552e+3, 2.946875e+2, -141915.78, -261947.11, 2639.3015, -0.061958, 0.21563405, -141857.78, -89779.7, 0.0, 10.000084, 9.998494 
1.135052e+3, 3.0468568e+2, -31417.086, -87056.52, 750.71277, -0.061085336, 0.14032696, -31406.959, -31406.959, 0.0, 10.0000925, 9.999357 
1.1350495e+3, 3.1468573e+2, 15807.66, -18343.186, 16866.652, 0.014623124, 0.2055002, 22733.361, 22733.361, 0.0, 10.000217, 9.999769 
1.1451136e+3, 1.2470829e+2, -1495090.3, -1679054.9, 93437.48, 0.048803896, 0.03429921, -1455956.9, 261909.69, 0.001186206, 10.001824, 9.999363 
1.1451089e+3, 1.3470772e+2, -1493027.6, -1684784.3, -63585.742, 0.1166948, 0.090490624, -1473859.0, 146014.4, 0.00060623896, 10.001393, 9.998868 
1.1451035e+3, 1.4470734e+2, -1412776.0, -1562442.5, 19213.236, 0.025890507, 0.15263174, -1410348.9, 111529.52, 0.00018835878, 10.001138, 9.999151 
1.14510044e+3, 1.5470591e+2, -1321170.9, -1465693.9, 18312.523, 0.032911066, 0.09222005, -1318886.6, 105006.82, 0.000018936791, 10.001087, 9.9991665 
1.1450972e+3, 1.64705e+2, -1250729.0, -1408075.8, -3488.2095, 0.0392515, 0.094070695, -1250651.8, 75252.266, 0.000000013934886, 10.001013, 9.998925 
1.14509374e+3, 1.7470464e+2, -1163859.9, -1313669.4, -10428.797, 0.044721548, 0.163582, -1163137.4, 64771.49, 0.0, 10.000929, 9.998941 
1.1450903e+3, 1.8470374e+2, -1116264.5, -1289859.5, 8219.166, 0.0468186, 0.20168205, -1115876.3, 14043.329, 0.0, 10.000797, 9.998495 
1.1450872e+3, 1.9470221e+2, -1044377.3, -1203603.0, 23254.158, 0.04477265, 0.19861285, -1041050.6, -9113.811, 0.0, 10.000614, 9.998503 
1.14508376e+3, 2.0470089e+2, -909724.25, -1019548.1, 15820.913, 0.029690096, 0.18553723, -907490.56, 26459.146, 0.0, 10.00057, 9.999115 
1.1450801e+3, 2.1469976e+2, -792273.4, -907480.75, -149.50157, -0.00040961904, 0.1567068, -792273.2, 43684.273, 0.0, 10.000684, 9.999156 
1.14507705e+3, 2.246986e+2, -743467.25, -899240.3, 19976.398, -0.0016471234, 0.15488753, -740946.25, -2978.0715, 0.0, 10.000631, 9.998566 
1.14507444e+3, 2.3469742e+2, -679891.8, -817464.25, 36284.598, 0.028993899, 0.17789446, -670908.4, -30926.145, 0.0, 10.000393, 9.9985695 
1.1450717e+3, 2.4469629e+2, -560243.75, -650806.1, 33410.22, 0.025791522, 0.18441115, -549252.1, -7258.5723, 0.0, 10.000292, 9.999089 
1.14506826e+3, 2.5469527e+2, -451432.9, -542975.0, 22666.027, -0.014996563, 0.1672, -446128.16, -2126.4836, 0.0, 10.000345, 9.99913 
1.1450652e+3, 2.6469406e+2, -371852.4, -472533.34, 11271.809, -0.015084599, 0.14341727, -370605.9, -24593.787, 0.0, 10.0003, 9.998962 
1.1450625e+3, 2.746927e+2, -294454.47, -382019.4, 7539.1973, 0.029973578, 0.108705446, -293810.13, -45785.195, 0.0, 10.000148, 9.998984 
1.1450593e+3, 2.8469175e+2, -237596.63, -360451.4, 9351.154, 0.018025266, 0.1371083, -236888.94, -86853.586, 0.0, 10.000109, 9.998479 
1.14505544e+3, 2.9469115e+2, -126978.92, -256111.56, 22182.717, -0.057515386, 0.22722027, -123274.58, -71231.07, 0.0, 10.000193, 9.998482 
1.1450521e+3, 3.0468914e+2, -32677.193, -90856.11, 12066.308, -0.063858636, 0.13950711, -30273.916, -30273.916, 0.0, 10.000099, 9.999328 
1.14504956e+3, 3.1468922e+2, -35548.746, -32008.371, -16305.356, 0.015171689, 0.2081258, -17377.395, -17377.395, 0.0, 9.999821, 9.999866 
1.1551155e+3, 1.2471324e+2, -1505297.0, -1696892.3, 87939.516, 0.05762339, 0.13892579, -1471054.1, 246765.03, 0.0013141764, 10.001811, 9.999247 
1.15511e+3, 1.3471085e+2, -1499625.1, -1699326.1, -79847.14, 0.083637014, 0.023703042, -1471625.4, 148217.48, 0.0006802459, 10.001397, 9.998767 
1.1551046e+3, 1.4471029e+2, -1417811.3, -1575467.3, 16201.512, 0.016874358, 0.07681821, -1416163.5, 105685.93, 0.00021757523, 10.001147, 9.999059 
1.15510166e+3, 1.547101e+2, -1327284.9, -1479369.4, 16043.09, 0.03681346, 0.14896636, -1325610.9, 98242.27, 0.000023929451, 10.001089, 9.999072 
1.1550982e+3, 1.6470927e+2, -1262315.9, -1432649.3, -7368.73, 0.04327109, 0.17586862, -1261997.6, 63865.29, 0.000000023716384, 10.001015, 9.998756 
1.1550945e+3, 1.747078e+2, -1175995.0, -1338670.8, -13858.791, 0.03472274, 0.1498778, -1174822.8, 53056.273, 0.0, 10.000927, 9.998771 
1.1550909e+3, 1.8470655e+2, -1090638.0, -1237028.9, 871.9657, 0.030126566, 0.14517362, -1090632.8, 39259.324, 0.0, 10.000797, 9.998858 
1.15508765e+3, 1.9470558e+2, -1016773.94, -1147904.5, 15773.418, 0.03043844, 0.15766191, -1014903.3, 16998.498, 0.0, 10.00062, 9.998883 
1.1550842e+3, 2.047045e+2, -936658.0, -1077026.0, 18652.969, 0.023075769, 0.16950263, -934221.6, -309.14935, 0.0, 10.000576, 9.998718 
1.1550808e+3, 2.147033e+2, -821607.6, -968431.8, 3499.0232, 0.006970753, 0.1754762, -821524.3, 14399.797, 0.0, 10.000684, 9.998739 
1.15507774e+3, 2.247021e+2, -716057.4, -842074.5, 10645.798, 0.007509197, 0.17214748, -715164.4, 22771.178, 0.0, 10.000629, 9.99896 
1.1550748e+3, 2.3470093e+2, -650389.25, -756561.7, 27089.459, 0.026670124, 0.15380782, -643876.94, -3930.2087, 0.0, 10.000394, 9.998987 
1.1550718e+3, 2.4469982e+2, -577003.44, -685659.7, 34951.99, 0.019244492, 0.15159307, -566731.4, -24773.994, 0.0, 10.000291, 9.998851 
1.1550686e+3, 2.546988e+2, -469183.44, -580521.06, 25134.11, -0.017097259, 0.16188589, -463772.47, -19805.035, 0.0, 10.000347, 9.998872 
1.15506545e+3, 2.6469767e+2, -377758.34, -485986.94, 6031.342, -0.023373662, 0.16209725, -377423.28, -31444.791, 0.0, 10.000304, 9.998869 
1.1550624e+3, 2.7469644e+2, -300916.38, -395130.28, 2447.0854, 0.0018683306, 0.14783017, -300852.84, -52862.46, 0.0, 10.000146, 9.998896 
1.15505934e+3, 2.8469548e+2, -214792.56, -311728.66, 13308.725, 0.009546406, 0.16613339, -212998.56, -62998.805, 0.0, 10.000101, 9.998817 
1.1550561e+3, 2.9469475e+2, -102305.555, -205126.42, 27308.44, -0.0003240806, 0.21051094, -95502.73, -43495.914, 0.0, 10.000194, 9.998832 
1.1550526e+3, 3.0469236e+2, -73321.94, -177230.27, 2571.7898, -0.019526472, 0.09230904, -73258.33, -73258.33, 0.0, 10.000106, 9.998733 
1.1550488e+3, 3.1469202e+2, -68348.68, -101617.14, -25816.414, -0.041482393, 0.18274666, -54271.594, -54271.594, 0.0, 9.999825, 9.999386 
1.1651173e+3, 1.2471716e+2, -1546020.9, -1719051.4, 92511.734, 0.075390466, 0.1439107, -1505873.9, 211907.38, 0.0014487223, 10.001543, 9.999224 
1.1651111e+3, 1.3471486e+2, -1466087.0, -1680293.5, -76098.266, 0.053036463, 0.034467094, -1441805.1, 177999.05, 0.0007585872, 10.001615, 9.998793 
1.16510585e+3, 1.4471434e+2, -1382126.3, -1572804.0, 21717.451, 0.008841185, 0.09698344, -1379684.0, 142126.38, 0.00024917058, 10.001455, 9.998927 
1.16510265e+3, 1.5471382e+2, -1341830.8, -1501914.1, 17870.063, 0.034969103, 0.14986448, -1339860.1, 83957.1, 0.000029664654, 10.001057, 9.998934 
1.1650992e+3, 1.6471288e+2, -1288109.8, -1449218.8, 5013.4717, 0.040943395, 0.17382523, -1287953.9, 37874.473, 0.00000004774233, 10.000856, 9.998718 
1.16509534e+3, 1.747115e+2, -1185088.5, -1346875.1, 7926.1475, 0.02616553, 0.16168593, -1184701.1, 43142.617, 0.0, 10.000882, 9.998735 
1.1650917e+3, 1.8471025e+2, -1081138.0, -1226386.6, 13095.893, 0.01889641, 0.15471475, -1079966.8, 49889.816, 0.0, 10.000837, 9.998912 
1.1650881e+3, 1.9470914e+2, -997886.56, -1132187.1, 3864.935, 0.018598365, 0.14819808, -997775.44, 34090.93, 0.0, 10.000722, 9.998941 
1.16508484e+3, 2.04708e+2, -937425.2, -1089954.1, 10868.803, 0.016179245, 0.1567203, -936654.6, -2777.0212, 0.0, 10.000627, 9.998604 
1.16508156e+3, 2.1470682e+2, -847955.94, -994549.5, 17536.533, 0.0116952555, 0.17586431, -845887.3, -9996.933, 0.0, 10.000561, 9.998618 
1.1650783e+3, 2.2470564e+2, -727704.75, -838838.06, 19173.643, 0.009872773, 0.17763673, -724489.75, 13412.053, 0.0, 10.000512, 9.999038 
1.1650752e+3, 2.3470451e+2, -631597.5, -737625.8, 9573.899, 0.011291174, 0.15629712, -630740.0, 9171.605, 0.0, 10.000482, 9.999074 
1.165072e+3, 2.4470341e+2, -568732.3, -688344.44, 13339.971, 0.008816171, 0.15295106, -567262.6, -25340.541, 0.0, 10.000378, 9.99879 
1.165069e+3, 2.5470233e+2, -496790.1, -601130.3, 17555.553, 0.0013604278, 0.16295733, -493915.53, -49981.996, 0.0, 10.000191, 9.998805 
1.1650658e+3, 2.647012e+2, -397671.03, -491807.84, 11919.073, -0.008015897, 0.16636528, -396185.38, -50240.613, 0.0, 10.000153, 9.998901 
1.1650624e+3, 2.7470008e+2, -278674.2, -380748.25, 17048.832, -0.020063542, 0.16035487, -275901.9, -27946.563, 0.0, 10.000283, 9.998928 
1.1650592e+3, 2.846992e+2, -207273.3, -302489.47, 15560.2295, -0.008938123, 0.18102732, -204794.94, -54831.07, 0.0, 10.00013, 9.998867 
1.1650564e+3, 2.9469845e+2, -177120.67, -235458.73, 5372.6426, 0.0293563, 0.21920492, -176630.02, -124659.3, 0.0, 9.999657, 9.998881 
1.1650529e+3, 3.0469587e+2, -135433.08, -222952.64, 757.81256, 0.010946398, 0.085547544, -135426.53, -135426.53, 0.0, 9.999749, 9.998589 
1.16504885e+3, 3.146954e+2, 27828.205, -54168.727, 9353.883, -0.05938674, 0.1743237, 28881.723, 28881.723, 0.0, 10.000482, 9.999396 
1.1751191e+3, 1.2472019e+2, -1540880.0, -1709661.6, 100346.805, 0.09959063, 0.05477084, -1494155.3, 223596.61, 0.001589411, 10.001547, 9.999287 
1.1751124e+3, 1.3471979e+2, -1455692.6, -1659031.6, -74037.61, 0.023662396, 0.119868286, -1431591.5, 188165.63, 0.0008411694, 10.001615, 9.99894 
1.1751072e+3, 1.4471953e+2, -1394678.5, -1598292.0, 6205.7646, 0.00094052794, 0.20950611, -1394489.6, 127271.164, 0.0002831922, 10.001452, 9.9987545 
1.1751036e+3, 1.5471716e+2, -1354300.1, -1527805.6, 2705.5376, 0.026660133, 0.097057104, -1354257.9, 69526.93, 0.000036181405, 10.001057, 9.998755 
1.1751e+3, 1.6471589e+2, -1281810.9, -1437714.3, 5173.289, 0.03125289, 0.09110314, -1281639.4, 44159.742, 0.00000010132158, 10.000861, 9.998796 
1.1750962e+3, 1.7471579e+2, -1178053.1, -1333944.3, 8573.491, 0.017694239, 0.19823389, -1177583.1, 50219.473, 0.0, 10.000888, 9.998822 
1.1750924e+3, 1.8471482e+2, -1097736.8, -1262106.9, 7839.911, 0.011064166, 0.2287209, -1097363.6, 32449.064, 0.0, 10.000841, 9.998665 
1.1750889e+3, 1.9471294e+2, -1015734.3, -1169526.6, -962.74225, 0.009742281, 0.16955204, -1015728.3, 16101.783, 0.0, 10.000722, 9.998685 
1.1750853e+3, 2.0471142e+2, -926267.9, -1067327.9, 7617.919, 0.009400055, 0.14697501, -925857.6, 7986.9272, 0.0, 10.000628, 9.998759 
1.175082e+3, 2.1471033e+2, -836006.25, -970223.44, 14633.428, 0.011814722, 0.15831913, -834429.3, 1426.4819, 0.0, 10.000562, 9.998785 
1.17507875e+3, 2.2470926e+2, -744324.9, -873844.1, 17238.863, 0.0033402431, 0.17218313, -742069.7, -4203.0757, 0.0, 10.000513, 9.998797 
1.1750753e+3, 2.347082e+2, -648549.56, -773618.9, 8200.912, -0.016921747, 0.18423331, -648014.1, -8137.541, 0.0, 10.000484, 9.998827 
1.1750723e+3, 2.447071e+2, -560893.56, -672588.8, 6197.284, -0.0058404054, 0.18636344, -560550.8, -18663.213, 0.0, 10.00038, 9.998898 
1.1750696e+3, 2.5470585e+2, -488605.3, -583809.6, 10882.578, 0.03933759, 0.17017601, -487377.2, -43477.465, 0.0, 10.000189, 9.998926 
1.1750663e+3, 2.647047e+2, -387092.03, -469250.53, 17081.316, 0.030200256, 0.15762134, -383682.22, -37771.668, 0.0, 10.000149, 9.999059 
1.1750625e+3, 2.7470374e+2, -267808.84, -357933.8, 23198.14, -0.039145336, 0.14800832, -262188.2, -14268.761, 0.0, 10.00028, 9.999086 
1.1750591e+3, 2.847029e+2, -225527.23, -341012.03, -969.9358, -0.04151882, 0.18195185, -225519.08, -75591.56, 0.0, 10.000131, 9.998603 
1.175056e+3, 2.947022e+2, -195679.0, -275315.72, -11857.788, 0.031580295, 0.25049213, -193950.89, -142015.34, 0.0, 9.9996605, 9.998607 
1.17505275e+3, 3.0469966e+2, -111361.35, -173675.06, 27993.291, 0.028214347, 0.11678628, -100632.96, -100632.96, 0.0, 9.999751, 9.998927 
1.1750495e+3, 3.1469932e+2, 64740.066, 23184.43, 39697.676, -0.044610683, 0.18857455, 88768.76, 88768.76, 0.0, 10.000478, 9.99993 
1.1851207e+3, 1.2472421e+2, -1524418.8, -1707122.6, 108389.68, 0.09543441, 0.060302198, -1474019.1, 243694.13, 0.0017368259, 10.001686, 9.999236 
1.18511386e+3, 1.3472384e+2, -1475381.1, -1663575.3, -78613.39, 0.010907491, 0.12601285, -1446863.6, 172854.7, 0.00092832, 10.001458, 9.998984 
1.1851088e+3, 1.447237e+2, -1418286.8, -1606732.5, -1442.7872, 0.02344421, 0.22355308, -1418275.8, 103445.086, 0.0003198089, 10.00128, 9.998778 
1.1851048e+3, 1.5472132e+2, -1338278.0, -1517308.8, 8943.933, 0.020316556, 0.10533458, -1337832.3, 85912.72, 0.0000435681, 10.001156, 9.998778 
1.1851007e+3, 1.6471997e+2, -1261471.9, -1438355.9, 21468.72, 0.0142787425, 0.09795655, -1258903.5, 66856.28, 0.00000019883093, 10.001047, 9.998701 
1.185097e+3, 1.7471984e+2, -1173757.1, -1342318.4, 11380.252, 0.011064187, 0.2100307, -1172992.4, 54771.395, 0.0, 10.000964, 9.998728 
1.1850933e+3, 1.8471882e+2, -1095935.0, -1265435.4, 8497.116, 0.0086847525, 0.24067542, -1095510.1, 34264.277, 0.0, 10.000874, 9.998626 
1.1850895e+3, 1.9471681e+2, -1010096.5, -1170957.0, 15167.525, 0.004611728, 0.17513213, -1008678.8, 23113.83, 0.0, 10.000779, 9.998647 
1.1850859e+3, 2.0471525e+2, -921438.25, -1070566.0, 25985.553, 0.0041189734, 0.15166394, -917040.0, 16767.549, 0.0, 10.000686, 9.998709 
1.18508264e+3, 2.1471417e+2, -834942.56, -974596.56, 16493.232, 0.0089422455, 0.16928007, -833021.1, 2797.542, 0.0, 10.000592, 9.998739 
1.1850792e+3, 2.2471303e+2, -752210.6, -888663.94, 17139.836, 0.0041578426, 0.18297014, -750090.6, -12260.388, 0.0, 10.000508, 9.998697 
1.1850758e+3, 2.347118e+2, -662554.06, -791666.94, 18740.611, -0.012103399, 0.18652287, -659888.9, -20046.6, 0.0, 10.000438, 9.998725 
1.18507266e+3, 2.4471065e+2, -568393.44, -672509.2, 14442.705, -0.0060475585, 0.19032268, -566427.1, -24573.658, 0.0, 10.000313, 9.998929 
1.1850696e+3, 2.547096e+2, -493953.94, -582312.5, 11648.406, 0.025256904, 0.18823025, -492444.1, -48580.36, 0.0, 10.000135, 9.998961 
1.18506625e+3, 2.6470846e+2, -413469.13, -480320.16, 14873.601, 0.021519283, 0.17381756, -410309.25, -64434.91, 0.0, 9.999962, 9.999072 
1.18506275e+3, 2.747073e+2, -338915.4, -390458.44, 9309.776, -0.02231919, 0.14325105, -337285.44, -89400.4, 0.0, 9.999787, 9.9991 
1.1850592e+3, 2.8470638e+2, -260796.55, -355621.06, -10199.833, -0.02821209, 0.17038512, -259711.81, -109818.27, 0.0, 9.999881, 9.998621 
1.1850558e+3, 2.9470584e+2, -103144.62, -228834.88, 1273.134, 0.009638028, 0.24917045, -103131.72, -51231.336, 0.0, 10.000289, 9.998623 
1.1850525e+3, 3.047034e+2, -55801.223, -139145.7, 40300.27, 0.009006989, 0.12764291, -39502.027, -39502.027, 0.0, 10.000101, 9.998995 
1.1850496e+3, 3.1470332e+2, -100593.484, -26963.98, 27581.385, -0.013924034, 0.21147127, -17778.094, -17778.094, 0.0, 9.999215, 10.000192 
1.1951221e+3, 1.24729216e+2, -1536957.3, -1731703.8, 101552.76, 0.06271984, 0.15255901, -1493637.5, 224027.89, 0.0018922538, 10.001679, 9.99907 
1.1951154e+3, 1.3472718e+2, -1479972.0, -1672359.3, -87098.74, 0.012955271, 0.05663212, -1446398.9, 173287.67, 0.00102056, 10.001454, 9.998926 
1.1951106e+3, 1.44727e+2, -1403821.6, -1577273.9, -6599.088, 0.073603556, 0.14419346, -1403571.0, 118118.42, 0.0003592124, 10.00128, 9.998981 
1.1951058e+3, 1.5472628e+2, -1322573.6, -1486508.5, 3800.9954, 0.014701654, 0.17272429, -1322485.5, 101211.91, 0.00005194898, 10.001162, 9.998988 
1.1951016e+3, 1.6472518e+2, -1279172.3, -1476666.5, 17486.354, -0.01101969, 0.19210975, -1277635.9, 48073.832, 0.00000035173326, 10.001053, 9.998436 
1.1950979e+3, 1.7472373e+2, -1192709.1, -1382055.3, 7989.5566, 0.006392472, 0.19806534, -1192372.6, 35353.84, 0.0, 10.000964, 9.998455 
1.19509414e+3, 1.8472226e+2, -1084771.5, -1242891.0, 4425.612, 0.011069754, 0.19182727, -1084647.8, 45093.46, 0.0, 10.0008745, 9.99878 
1.1950902e+3, 1.9472082e+2, -997747.2, -1146292.5, 11019.215, 0.0010366966, 0.16478452, -996934.25, 34819.383, 0.0, 10.000782, 9.998816 
1.19508654e+3, 2.0471951e+2, -938743.9, -1107417.6, 21538.793, -0.0020362646, 0.17097093, -936036.94, -2270.7708, 0.0, 10.000688, 9.998455 
1.1950831e+3, 2.1471839e+2, -852872.5, -1012956.6, 12334.184, 0.00361179, 0.20859395, -851927.75, -16149.213, 0.0, 10.000595, 9.998475 
1.1950798e+3, 2.2471698e+2, -749033.25, -883071.94, 13804.912, 0.01227841, 0.209547, -747626.25, -9833.701, 0.0, 10.000511, 9.998734 
1.1950766e+3, 2.347153e+2, -659425.6, -785213.2, 16063.263, 0.024085544, 0.16399626, -657406.7, -17598.521, 0.0, 10.000437, 9.99877 
1.1950731e+3, 2.4471414e+2, -572224.1, -680644.4, 7725.6035, 0.0068417503, 0.16637439, -571676.4, -29857.06, 0.0, 10.000312, 9.998875 
1.1950691e+3, 2.5471357e+2, -497531.03, -590398.94, 5400.0454, -0.04176091, 0.2163405, -497218.06, -53392.688, 0.0, 10.000137, 9.998905 
1.1950657e+3, 2.6471242e+2, -423320.06, -501518.06, 8801.27, -0.03578743, 0.21302259, -422341.7, -76505.53, 0.0, 9.999964, 9.998926 
1.195063e+3, 2.747107e+2, -348626.66, -411601.22, 3271.601, 0.03003847, 0.14589548, -348457.13, -100605.05, 0.0, 9.99979, 9.998954 
1.1950597e+3, 2.847097e+2, -238246.02, -309531.47, 5069.6533, 0.03062885, 0.14735943, -237887.28, -88025.49, 0.0, 9.999883, 9.998938 
1.19505554e+3, 2.9470935e+2, -81627.336, -182650.31, 18373.828, -0.04094699, 0.21601488, -78389.33, -26524.336, 0.0, 10.000281, 9.998943 
1.195052e+3, 3.0470717e+2, -74134.484, -176125.98, 9644.324, -0.05198729, 0.1183458, -73230.52, -73230.52, 0.0, 10.000094, 9.998745 
1.1950492e+3, 3.1470728e+2, -104055.555, -36483.445, -4407.7837, 0.032051887, 0.2484156, -36197.137, -36197.137, 0.0, 9.999225, 10.000123 
1.2051237e+3, 1.2473366e+2, -1543103.5, -1733097.1, 102966.95, 0.056048002, 0.1728127, -1498005.4, 219617.95, 0.0020569195, 10.001633, 9.999083 
1.20511636e+3, 1.3473155e+2, -1517968.4, -1678956.9, -74225.93, -0.009890517, 0.06003787, -1488969.3, 130675.45, 0.0011183886, 10.0011425, 9.99903 
1.2051118e+3, 1.4473139e+2, -1446310.4, -1606507.0, 19450.861, 0.087790966, 0.14651054, -1443982.5, 77664.81, 0.00040151636, 10.001027, 9.998901 
1.2051069e+3, 1.5473078e+2, -1303801.0, -1486526.9, 8208.688, 0.0052631362, 0.19492182, -1303432.9, 120221.805, 0.000061428385, 10.001332, 9.998904 
1.2051025e+3, 1.6472962e+2, -1242850.9, -1458208.3, 8258.194, -0.026493067, 0.21173875, -1242534.8, 83132.81, 0.00000057087306, 10.0013, 9.998443 
1.20509885e+3, 1.7472786e+2, -1201379.4, -1385633.5, 18398.0, 0.0062118825, 0.188457, -1199560.3, 28125.86, 0.0, 10.000903, 9.998459 
1.205095e+3, 1.8472634e+2, -1110293.6, -1264271.5, 26048.02, 0.014783172, 0.18002687, -1106006.5, 23694.68, 0.0, 10.000739, 9.998698 
1.205091e+3, 1.9472511e+2, -997123.44, -1154691.8, 14038.604, -0.005133767, 0.1820258, -995882.44, 35830.05, 0.0, 10.000826, 9.998735 
1.2050873e+3, 2.0472379e+2, -921634.9, -1106651.1, 19215.88, -0.008833609, 0.19369148, -919660.1, 14065.177, 0.0, 10.000839, 9.998386 
1.2050839e+3, 2.1472237e+2, -831676.1, -1010442.3, 24003.127, 0.0059684245, 0.21005459, -828509.25, 7230.6177, 0.0, 10.000774, 9.998406 
1.20508045e+3, 2.2472085e+2, -736356.5, -877623.94, 27290.04, 0.01916333, 0.20340288, -731267.94, 6486.7295, 0.0, 10.000602, 9.998728 
1.2050772e+3, 2.3471926e+2, -677552.9, -793827.94, 24855.264, 0.030792262, 0.1662967, -672462.56, -32693.143, 0.0, 10.000313, 9.99877 
1.2050734e+3, 2.4471807e+2, -595466.7, -702197.8, 18088.197, 0.01152385, 0.1707759, -592484.5, -50703.727, 0.0, 10.000199, 9.99878 
1.2050692e+3, 2.5471732e+2, -484003.13, -594151.0, 12414.799, -0.04216174, 0.21427083, -482621.2, -38832.72, 0.0, 10.000276, 9.998812 
1.2050658e+3, 2.647161e+2, -391780.8, -496370.44, 11520.503, -0.03827731, 0.20982027, -390526.88, -44726.457, 0.0, 10.000226, 9.998835 
1.2050629e+3, 2.7471435e+2, -317431.47, -406539.25, 9760.002, 0.0295428, 0.14852272, -316374.97, -68558.14, 0.0, 10.00005, 9.998863 
1.2050596e+3, 2.8471336e+2, -230876.44, -286409.47, 17062.947, 0.031032838, 0.14950436, -226052.72, -76226.59, 0.0, 9.99985, 9.999111 
1.2050556e+3, 2.947131e+2, -167401.1, -203610.3, 18054.979, -0.041234124, 0.2097806, -159936.98, -108109.016, 0.0, 9.999607, 9.999124 
1.2050518e+3, 3.0471107e+2, -164413.97, -229274.06, -6317.524, -0.058133826, 0.11844079, -163804.36, -163804.36, 0.0, 9.999517, 9.998656 
1.20504856e+3, 3.1471103e+2, -41136.31, 4881.196, -6848.915, 0.020113846, 0.24484025, 5878.9077, 5878.9077, 0.0, 9.999611, 10.00022 
1.2151255e+3, 1.2473768e+2, -1533084.3, -1709999.8, 78583.86, 0.07117708, 0.12714405, -1503219.5, 214366.06, 0.0022312584, 10.001621, 9.999247 
1.21511705e+3, 1.34737e+2, -1499263.9, -1642271.9, -93407.54, -0.05814672, 0.13271402, -1453133.8, 166458.55, 0.0012220372, 10.00115, 9.99928 
1.21511266e+3, 1.4473686e+2, -1469363.6, -1656991.4, 29226.621, 0.06584023, 0.22637746, -1464916.4, 56678.152, 0.0004466493, 10.001037, 9.998551 
1.2151082e+3, 1.5473488e+2, -1329165.4, -1539221.8, 19668.36, -0.007990391, 0.17295225, -1327339.6, 96276.484, 0.00007201624, 10.00133, 9.998545 
1.2151038e+3, 1.6473335e+2, -1225837.5, -1422431.0, -6756.4307, -0.033455934, 0.15866119, -1225605.5, 100026.625, 0.0000008702971, 10.001297, 9.99869 
1.2150998e+3, 1.747323e+2, -1182396.6, -1347472.9, 2935.487, 0.008930946, 0.18129754, -1182344.4, 45297.656, 0.0, 10.000908, 9.998719 
1.2150958e+3, 1.8473111e+2, -1131130.1, -1309019.0, 27917.21, 0.018031072, 0.20578744, -1126851.8, 2802.441, 0.0, 10.000744, 9.998389 
1.2150918e+3, 1.9472973e+2, -1019058.7, -1201675.9, 16812.736, -0.013532907, 0.22662914, -1017523.7, 14144.996, 0.0, 10.000831, 9.998412 
1.215088e+3, 2.047281e+2, -913541.8, -1091066.3, 15877.12, -0.016505046, 0.21896854, -912133.0, 21551.73, 0.0, 10.000843, 9.998492 
1.2150847e+3, 2.147262e+2, -823574.6, -993243.8, 20952.29, 0.014316621, 0.17397036, -821025.56, 14676.782, 0.0, 10.0007715, 9.998527 
1.21508114e+3, 2.247247e+2, -740568.9, -886153.75, 15826.8545, 0.023334902, 0.16549002, -738868.2, -1151.9661, 0.0, 10.0006, 9.998672 
1.2150771e+3, 2.3472367e+2, -681193.25, -802691.5, 13698.931, 0.008094768, 0.19282275, -679667.9, -39942.06, 0.0, 10.000318, 9.998707 
1.2150735e+3, 2.4472246e+2, -604092.06, -721393.9, 20414.879, 0.0072723986, 0.20237431, -600640.6, -58902.836, 0.0, 10.000203, 9.998648 
1.2150702e+3, 2.5472096e+2, -493136.66, -613613.0, 15789.546, 0.022306478, 0.18373409, -491101.66, -47348.94, 0.0, 10.000277, 9.998679 
1.21506654e+3, 2.6471952e+2, -394553.7, -502661.63, 5493.8843, 0.0125144515, 0.16662078, -394275.22, -48508.523, 0.0, 10.000227, 9.998792 
1.2150624e+3, 2.7471817e+2, -320333.84, -412479.84, 4266.828, -0.025978569, 0.15003711, -320136.7, -72357.44, 0.0, 10.000048, 9.998824 
1.2150587e+3, 2.8471738e+2, -230634.47, -285844.44, 9127.452, -0.029548064, 0.17433664, -229164.63, -79377.84, 0.0, 9.999848, 9.999117 
1.21505566e+3, 2.947171e+2, -166006.31, -202126.13, 9346.459, 0.007898956, 0.22999676, -163731.11, -111941.49, 0.0, 9.999612, 9.999132 
1.2150518e+3, 3.0471504e+2, -156168.03, -213778.27, -2638.0112, -0.01042949, 0.1289425, -156047.48, -156047.48, 0.0, 9.999523, 9.99876 
1.2150474e+3, 3.147146e+2, -21556.055, 46545.137, -701.75934, -0.054957036, 0.20585498, 46552.37, 46552.37, 0.0, 9.999605, 10.000509 
1.2251268e+3, 1.2474236e+2, -1645244.3, -1765233.3, 77318.2, 0.08341306, 0.15004824, -1607374.3, 110167.555, 0.002414319, 10.000857, 9.999234 
1.22511804e+3, 1.3474181e+2, -1442840.5, -1607367.8, -101342.414, -0.09587541, 0.16269702, -1394576.0, 224970.66, 0.0013311396, 10.001508, 9.999346 
1.225114e+3, 1.4474155e+2, -1397428.9, -1629695.0, 15391.474, 0.06459681, 0.24379078, -1396413.4, 125136.484, 0.0004943066, 10.001567, 9.998482 
1.2251094e+3, 1.547393e+2, -1386459.1, -1575266.8, 25357.525, 0.0044286535, 0.17246258, -1383112.9, 40460.984, 0.000083587045, 10.000976, 9.9984665 
1.225105e+3, 1.6473773e+2, -1292562.8, -1451174.9, 6475.708, -0.024434004, 0.15641521, -1292298.8, 33291.29, 0.0000012652538, 10.000824, 9.998719 
1.2251007e+3, 1.747369e+2, -1145086.5, -1324820.8, -776.42816, -0.0006728227, 0.1972794, -1145083.1, 82514.33, 0.0, 10.001145, 9.998758 
1.22509666e+3, 1.8473566e+2, -1083584.3, -1311954.4, 16729.684, 0.009964218, 0.22615036, -1082365.3, 47244.992, 0.0, 10.001184, 9.998157 
1.2250928e+3, 1.9473393e+2, -1022753.94, -1230242.8, 11189.43, -0.0005661651, 0.23475945, -1022152.3, 9476.635, 0.0, 10.000921, 9.998171 
1.225089e+3, 2.0473218e+2, -924767.8, -1083263.8, 12995.355, -0.003078144, 0.22151083, -923709.4, 9936.7295, 0.0, 10.00071, 9.9986105 
1.2250853e+3, 2.1473041e+2, -846342.06, -989156.06, 18283.566, 0.0065580574, 0.17865284, -844038.5, -8377.025, 0.0, 10.000552, 9.998659 
1.2250815e+3, 2.2472894e+2, -756552.6, -903428.2, 14102.249, 0.008247692, 0.17068626, -755210.9, -17536.256, 0.0, 10.000532, 9.998584 
1.22507766e+3, 2.3472783e+2, -637366.0, -791868.7, 8969.629, 0.00027311334, 0.19652145, -636847.0, 2838.2478, 0.0, 10.000663, 9.998614 
1.225074e+3, 2.4472648e+2, -558213.5, -700700.7, 14776.107, 0.010977897, 0.20055728, -556697.3, -14999.032, 0.0, 10.000525, 9.998633 
1.2250706e+3, 2.547249e+2, -519112.06, -626882.75, 18328.846, 0.042104837, 0.17314062, -516080.13, -72366.07, 0.0, 10.000103, 9.998671 
1.2250668e+3, 2.6472348e+2, -426070.78, -511840.2, 22777.371, 0.026969044, 0.15711707, -420397.22, -74669.71, 0.0, 9.999986, 9.998843 
1.2250624e+3, 2.7472228e+2, -295396.06, -394206.2, 27532.678, -0.040131312, 0.1510388, -288242.22, -40504.11, 0.0, 10.000193, 9.9988785 
1.2250586e+3, 2.847215e+2, -212900.45, -291981.38, 16485.729, -0.04560542, 0.17798994, -209601.36, -59855.38, 0.0, 10.000036, 9.998982 
1.2250553e+3, 2.9472104e+2, -194147.55, -231456.39, 5484.5283, 0.018911887, 0.2294999, -193358.0, -141606.55, 0.0, 9.999488, 9.998989 
1.2250511e+3, 3.0471903e+2, -182696.23, -212820.03, 6697.5854, -0.004632339, 0.1368197, -181274.25, -181274.25, 0.0, 9.999283, 9.998882 
1.2250467e+3, 3.147184e+2, -25981.408, 76940.164, 9249.692, -0.0827639, 0.17916495, 77764.836, 77764.836, 0.0, 9.999435, 10.000799 
1.2351277e+3, 1.24747716e+2, -1657676.5, -1791819.1, 89605.25, 0.08897601, 0.23508035, -1612820.8, 104671.03, 0.0026041293, 10.000859, 9.999051 
1.23511925e+3, 1.3474609e+2, -1450801.4, -1623292.1, -76833.53, -0.12370707, 0.15164936, -1421540.8, 197966.1, 0.0014447866, 10.001503, 9.999239 
1.23511575e+3, 1.4474556e+2, -1385548.9, -1604561.3, -6556.6836, 0.08273324, 0.20200875, -1385352.8, 136159.33, 0.00054404186, 10.001563, 9.998656 
1.2351107e+3, 1.5474413e+2, -1372951.4, -1549250.9, 2636.3865, 0.039930593, 0.19339041, -1372912.0, 50615.344, 0.00009593835, 10.000982, 9.998643 
1.235106e+3, 1.6474283e+2, -1303607.6, -1476058.0, 17134.979, -0.0020615067, 0.20404041, -1301921.5, 23619.342, 0.0000017602412, 10.000832, 9.998547 
1.2351017e+3, 1.7474173e+2, -1156933.9, -1350676.8, 10926.7, -0.022641212, 0.2346779, -1156319.6, 71232.22, 0.0, 10.001149, 9.998581 
1.23509765e+3, 1.8474005e+2, -1094923.4, -1336231.1, 6210.8833, -0.0102116335, 0.23921059, -1094763.6, 34805.26, 0.0, 10.001186, 9.99799 
1.235094e+3, 1.9473776e+2, -1034179.1, -1254316.3, 847.2474, 0.03199241, 0.2074945, -1034175.9, -2583.2717, 0.0, 10.000921, 9.998007 
1.23509e+3, 2.0473607e+2, -915686.6, -1064877.0, 6334.356, 0.029893614, 0.20308228, -915418.1, 18190.83, 0.0, 10.0007105, 9.998736 
1.2350856e+3, 2.1473508e+2, -836119.44, -969527.0, 11733.225, -0.017765056, 0.22353555, -835095.4, 521.5487, 0.0, 10.000558, 9.998792 
1.2350816e+3, 2.2473364e+2, -763844.06, -920122.9, 17999.063, -0.026654098, 0.21783982, -761797.9, -24168.246, 0.0, 10.000538, 9.998467 
1.23507835e+3, 2.3473175e+2, -646247.1, -810148.7, 14020.628, 0.0064104227, 0.17795357, -645056.44, -5409.038, 0.0, 10.000661, 9.99849 
1.23507455e+3, 2.4473022e+2, -551982.4, -687603.44, -751.45337, 0.021572193, 0.1665583, -551978.25, -10316.382, 0.0, 10.000523, 9.998725 
1.23507045e+3, 2.5472915e+2, -511905.7, -612633.4, 2909.8516, 0.01650358, 0.18109046, -511821.7, -68149.195, 0.0, 10.000105, 9.998768 
1.2350665e+3, 2.64728e+2, -416255.63, -492273.78, 30662.826, 0.004557939, 0.17923991, -405429.25, -59746.25, 0.0, 9.999988, 9.998979 
1.23506285e+3, 2.7472675e+2, -285754.34, -374488.8, 36092.367, -0.01419204, 0.15297417, -272927.97, -25234.5, 0.0, 10.000193, 9.999015 
1.2350588e+3, 2.847257e+2, -231392.97, -330967.44, -3030.016, -0.0194255, 0.16322632, -231300.86, -81597.234, 0.0, 10.000037, 9.998714 
1.2350544e+3, 2.947249e+2, -213881.03, -272618.1, -13742.082, -0.010905917, 0.20750886, -210824.95, -159111.33, 0.0, 9.999488, 9.998707 
1.23505004e+3, 3.0472305e+2, -175181.55, -197652.19, 13161.804, -0.042728715, 0.14053512, -169111.8, -169111.8, 0.0, 9.999283, 9.998987 
1.23504624e+3, 3.1472245e+2, -8630.133, 112692.91, 17499.885, -0.065572076, 0.17166741, 115166.69, 115166.69, 0.0, 9.999435, 10.001045 
1.24512844e+3, 1.24752305e+2, -1640540.6, -1772450.5, 81062.67, 0.06768237, 0.26123834, -1601991.0, 115457.78, 0.0027991196, 10.000932, 9.999148 
1.2451204e+3, 1.3475066e+2, -1516354.6, -1639356.5, -55451.42, -0.1311469, 0.16289322, -1495047.3, 124416.18, 0.0015621701, 10.000986, 9.999377 
1.2451173e+3, 1.447501e+2, -1447593.4, -1630291.8, -918.1084, 0.114811175, 0.20085593, -1447588.8, 73879.85, 0.00059554225, 10.001119, 9.998693 
1.2451118e+3, 1.5474886e+2, -1323420.5, -1520627.4, -3188.2437, 0.033051286, 0.20718537, -1323369.0, 100112.67, 0.00010892916, 10.001305, 9.998683 
1.2451068e+3, 1.6474757e+2, -1250900.0, -1472261.0, 14515.251, -0.019547056, 0.2255585, -1249952.3, 75543.195, 0.0000023447426, 10.001288, 9.99835 
1.2451028e+3, 1.7474625e+2, -1183305.9, -1385997.3, 6137.3735, -0.017476236, 0.25525552, -1183120.1, 44389.207, 0.0, 10.001067, 9.998377 
1.24509886e+3, 1.8474448e+2, -1120486.5, -1330381.3, 4870.0347, 0.0011512021, 0.253207, -1120373.6, 9153.518, 0.0, 10.000933, 9.998151 
1.2450948e+3, 1.9474223e+2, -1028859.9, -1232009.1, 23644.15, 0.031220308, 0.20934576, -1026144.25, 5404.734, 0.0, 10.0008745, 9.998181 
1.2450908e+3, 2.0474054e+2, -911714.06, -1087110.8, 32881.598, 0.02930035, 0.20559385, -905752.44, 27812.9, 0.0, 10.000843, 9.998519 
1.2450864e+3, 2.1473946e+2, -810603.94, -982478.75, 10997.737, -0.005688102, 0.24063443, -809903.06, 25672.236, 0.0, 10.000842, 9.998565 
1.24508254e+3, 2.2473799e+2, -731562.4, -884733.4, 12643.593, -0.011750044, 0.23452187, -730525.7, 7062.6973, 0.0, 10.000674, 9.998644 
1.2450789e+3, 2.3473611e+2, -681194.4, -805099.75, 30872.748, 0.0132927755, 0.17731512, -673928.06, -34323.344, 0.0, 10.000328, 9.998684 
1.24507494e+3, 2.4473463e+2, -599139.06, -717867.6, 21962.057, 0.017834982, 0.16329978, -595206.9, -53588.48, 0.0, 10.000234, 9.998655 
1.2450704e+3, 2.5473362e+2, -472988.53, -602293.6, 11903.044, -0.00022937564, 0.1910729, -471901.94, -28273.059, 0.0, 10.000409, 9.998692 
1.2450665e+3, 2.6473242e+2, -378005.03, -470311.16, 27239.596, -0.006495244, 0.18830101, -370566.1, -24926.334, 0.0, 10.0002365, 9.999008 
1.2450629e+3, 2.7473104e+2, -356687.1, -404574.94, 24664.139, 0.00014267968, 0.14530887, -346256.16, -98605.055, 0.0, 9.999689, 9.999049 
1.24505885e+3, 2.8473e+2, -289501.72, -353272.97, -2962.0994, -0.0057672686, 0.1471114, -289364.44, -139703.05, 0.0, 9.999615, 9.998764 
1.2450541e+3, 2.9472926e+2, -129000.89, -226007.19, 9148.256, -0.02621908, 0.19385794, -128145.695, -76475.19, 0.0, 10.000047, 9.998756 
1.24504946e+3, 3.047276e+2, -107717.41, -188617.17, 26543.637, -0.06224825, 0.15544808, -99785.914, -99785.914, 0.0, 9.999849, 9.998775 
1.2450455e+3, 3.147265e+2, -86765.81, 61047.44, 7169.0527, -0.05477148, 0.16160387, 61394.332, 61394.332, 0.0, 9.99896, 10.000919 
1.255129e+3, 1.247563e+2, -1616022.8, -1723065.9, 67103.21, 0.01934137, 0.23495539, -1583710.8, 133700.1, 0.0029989923, 10.0009365, 9.999486 
1.2551215e+3, 1.347556e+2, -1491181.9, -1588445.5, -53524.4, -0.120668106, 0.19556676, -1467495.6, 151920.23, 0.001683169, 10.000991, 9.999725 
1.2551188e+3, 1.447552e+2, -1453368.0, -1643076.3, 5236.2544, 0.15766361, 0.23722768, -1453223.6, 68195.555, 0.0006488858, 10.001121, 9.998606 
1.2551127e+3, 1.5475355e+2, -1329185.6, -1533414.5, 3473.4382, -0.014796878, 0.21247503, -1329126.6, 94309.625, 0.00012258759, 10.001307, 9.998595 
1.2551075e+3, 1.6475199e+2, -1266885.6, -1506368.1, 5449.9214, -0.07574411, 0.220802, -1266761.6, 58691.375, 0.0000030126384, 10.001291, 9.9981165 
1.2551041e+3, 1.7475055e+2, -1199513.9, -1420778.6, -2407.0208, 0.012908266, 0.26078254, -1199487.8, 27981.68, 0.0, 10.00107, 9.998137 
1.2551002e+3, 1.84749e+2, -1086556.0, -1260559.0, 2114.4749, 0.041911837, 0.26954064, -1086530.3, 42954.16, 0.0, 10.000935, 9.998631 
1.2550955e+3, 1.9474737e+2, -993152.56, -1159336.8, 20695.281, -0.0028084575, 0.23885275, -990614.06, 40883.836, 0.0, 10.000879, 9.998679 
1.2550913e+3, 2.0474559e+2, -950082.44, -1167978.5, 31610.88, -0.0053063, 0.22704838, -945589.2, -12074.118, 0.0, 10.000847, 9.997963 
1.2550877e+3, 2.147436e+2, -851465.6, -1067499.0, 10779.605, 0.04131732, 0.23053339, -850929.06, -15392.919, 0.0, 10.000842, 9.997982 
1.2550837e+3, 2.2474205e+2, -699543.7, -818259.0, -607.8972, 0.051030625, 0.22176091, -699540.56, 38009.965, 0.0, 10.000673, 9.999102 
1.2550792e+3, 2.3474096e+2, -646333.25, -733932.1, 17564.719, 0.019631457, 0.19416247, -642942.5, -3385.2913, 0.0, 10.000332, 9.999172 
1.2550749e+3, 2.447397e+2, -614388.0, -750866.2, 27901.05, -0.0010521702, 0.18962093, -608904.4, -67336.445, 0.0, 10.000237, 9.998428 
1.2550709e+3, 2.547383e+2, -490179.03, -638502.9, 19093.605, -0.008711738, 0.20396662, -487760.56, -44177.523, 0.0, 10.000409, 9.998444 
1.2550668e+3, 2.6473677e+2, -383311.1, -481776.66, 7805.6006, -0.0077398694, 0.18619977, -382696.16, -37098.688, 0.0, 10.0002365, 9.99893 
1.2550627e+3, 2.747352e+2, -361107.2, -414572.4, 5203.8027, 0.0010173578, 0.12766103, -360605.4, -112994.41, 0.0, 9.999691, 9.9989805 
1.2550585e+3, 2.8473425e+2, -265131.66, -303918.94, 13425.838, -0.0055313865, 0.1282242, -260937.86, -111318.35, 0.0, 9.999618, 9.999103 
1.255054e+3, 2.9473397e+2, -104279.625, -174978.81, 26245.855, -0.0278285, 0.18918484, -95601.51, -43979.074, 0.0, 10.000047, 9.999108 
1.2550493e+3, 3.047326e+2, -143366.44, -262808.34, -5180.294, -0.06542164, 0.18314928, -143142.19, -143142.19, 0.0, 9.999848, 9.998266 
1.2550445e+3, 3.1473064e+2, -120875.39, -9307.351, -23074.324, -0.05500027, 0.15556069, -4723.4873, -4723.4873, 0.0, 9.998957, 10.000438 
1.2651299e+3, 1.2476084e+2, -1609177.6, -1729300.6, 91096.67, 0.01823487, 0.21341313, -1560124.5, 157241.56, 0.0032043438, 10.001025, 9.9994 
1.2651221e+3, 1.3476038e+2, -1485684.0, -1595309.0, -43519.59, -0.14639583, 0.20721237, -1470508.3, 148861.42, 0.0018082228, 10.001071, 9.999639 
1.26512e+3, 1.4476e+2, -1451044.6, -1641380.1, 5737.5986, 0.15735593, 0.25440818, -1450871.9, 70501.41, 0.0007044779, 10.001137, 9.998608 
1.265114e+3, 1.5475832e+2, -1343955.0, -1540677.9, 9547.717, -0.014432443, 0.22617403, -1343492.6, 79897.85, 0.00013709594, 10.001206, 9.998592 
1.2651089e+3, 1.6475666e+2, -1284447.3, -1513626.5, 11568.517, -0.0740067, 0.22427179, -1283864.9, 41543.164, 0.0000037895563, 10.001166, 9.998126 
1.2651053e+3, 1.7475504e+2, -1209337.9, -1423590.4, 21384.152, 0.020986589, 0.24667613, -1207224.4, 20200.988, 0.0, 10.000997, 9.998153 
1.2651011e+3, 1.8475352e+2, -1091008.9, -1266605.1, 23985.074, 0.04986286, 0.2598849, -1087791.8, 41648.445, 0.0, 10.000923, 9.998593 
1.2650964e+3, 1.9475216e+2, -984405.8, -1159194.4, 2922.2903, -0.004959941, 0.25758505, -984357.0, 47094.87, 0.0, 10.000959, 9.99864 
1.265092e+3, 2.047504e+2, -938915.1, -1151135.3, 13452.929, -0.0073005836, 0.24683374, -938065.75, -4597.141, 0.0, 10.000876, 9.998063 
1.2650886e+3, 2.1474823e+2, -871379.4, -1065010.8, 42306.535, 0.05198829, 0.22097331, -862539.4, -27048.732, 0.0, 10.000655, 9.998088 
1.2650844e+3, 2.2474661e+2, -725403.5, -844276.75, 34629.598, 0.062340815, 0.20780708, -716051.1, 21454.29, 0.0, 10.000555, 9.99898 
1.2650797e+3, 2.3474562e+2, -618426.8, -734802.44, 6759.948, 0.017552674, 0.20304635, -618035.5, 21476.484, 0.0, 10.0005865, 9.999043 
1.2650754e+3, 2.4474439e+2, -570828.2, -721630.7, 9294.867, -0.004803895, 0.20253128, -570257.44, -28734.754, 0.0, 10.000501, 9.998502 
1.2650713e+3, 2.547429e+2, -501357.5, -634648.06, 23787.799, -0.0019860372, 0.20048639, -497239.4, -53701.316, 0.0, 10.000294, 9.998525 
1.2650669e+3, 2.647414e+2, -401904.8, -494642.3, 14559.606, -0.0035967245, 0.18120396, -399672.7, -54120.367, 0.0, 10.000127, 9.998894 
1.2650624e+3, 2.747399e+2, -319311.47, -398653.4, 13278.876, -0.010874065, 0.13643987, -317148.06, -69582.805, 0.0, 9.999997, 9.998942 
1.2650579e+3, 2.8473893e+2, -234520.94, -283123.53, 28156.025, -0.018949607, 0.13305533, -221629.3, -72055.2, 0.0, 9.999803, 9.999155 
1.2650539e+3, 2.947385e+2, -174219.52, -202438.61, 19133.39, -0.02781705, 0.17242189, -164555.84, -112977.66, 0.0, 9.999539, 9.999164 
1.265049e+3, 3.0473742e+2, -201932.47, -287818.88, -22298.354, -0.06451551, 0.19496547, -196488.33, -196488.33, 0.0, 9.9994335, 9.998294 
1.2650438e+3, 3.147354e+2, -38883.492, 33173.016, 1118.4001, -0.060945053, 0.1566551, 33190.37, 33190.37, 0.0, 9.999507, 10.0004635 
1.2751313e+3, 1.2476597e+2, -1643823.4, -1799850.6, 70649.016, 0.0580091, 0.19757763, -1616587.8, 100726.234, 0.0034160875, 10.001018, 9.99892 
1.2751226e+3, 1.3476509e+2, -1519459.8, -1666705.9, -41544.793, -0.20671546, 0.19868487, -1508546.9, 110777.03, 0.0019378624, 10.001076, 9.999146 
1.2751207e+3, 1.4476459e+2, -1444300.4, -1630452.3, 7857.916, 0.11544063, 0.2539595, -1443969.3, 77360.516, 0.0007627392, 10.001147, 9.998679 
1.2751156e+3, 1.5476319e+2, -1338388.1, -1530670.5, 11788.453, 0.030542025, 0.24901105, -1337668.1, 85675.72, 0.0001526722, 10.001211, 9.99866 
1.2751105e+3, 1.6476159e+2, -1267249.5, -1478334.5, 4597.123, -0.018346578, 0.23578553, -1267149.5, 58210.336, 0.000004722807, 10.001166, 9.998368 
1.2751062e+3, 1.7475975e+2, -1190942.6, -1386564.8, 14289.393, 0.0067547373, 0.21258701, -1189904.3, 37472.81, 0.0, 10.001, 9.998405 
1.2751018e+3, 1.847581e+2, -1128014.9, -1344671.4, 24157.396, 0.024841646, 0.2240628, -1125354.0, 4039.8853, 0.0, 10.000927, 9.998056 
1.2750976e+3, 1.9475663e+2, -1022995.1, -1240163.6, 4101.3286, 0.023494978, 0.26615492, -1022917.7, 8492.461, 0.0, 10.000961, 9.998084 
1.2750933e+3, 2.0475502e+2, -887653.2, -1045228.0, 4824.8677, 0.02217095, 0.26512194, -887505.6, 45919.605, 0.0, 10.000877, 9.998791 
1.275089e+3, 2.1475334e+2, -817706.9, -954383.9, 33184.965, 0.026039999, 0.21197267, -810075.7, 25363.012, 0.0, 10.000657, 9.998848 
1.2750848e+3, 2.2475173e+2, -773325.1, -944233.7, 34582.375, 0.021925652, 0.19261841, -766592.75, -29139.617, 0.0, 10.000556, 9.998294 
1.2750801e+3, 2.3475017e+2, -668983.94, -840294.8, 8092.9097, 0.0074318694, 0.20415844, -668602.5, -29133.895, 0.0, 10.0005865, 9.99832 
1.275076e+3, 2.4474871e+2, -545996.6, -670212.2, 1886.5441, 0.0057002595, 0.20252834, -545967.94, -4485.6177, 0.0, 10.000501, 9.998856 
1.2750718e+3, 2.5474742e+2, -474122.8, -578210.4, 16579.227, 0.017926097, 0.18093802, -471545.84, -28051.9, 0.0, 10.000293, 9.998914 
1.2750672e+3, 2.6474625e+2, -401601.47, -494808.56, 10222.281, 0.004785848, 0.17266986, -400493.53, -54989.05, 0.0, 10.000128, 9.998893 
1.2750621e+3, 2.7474514e+2, -319511.97, -400230.47, 9460.991, -0.035309494, 0.17158207, -318417.88, -70903.914, 0.0, 10.0, 9.998931 
1.2750575e+3, 2.84744e+2, -250058.6, -316186.9, 19141.004, -0.046977602, 0.16226052, -244917.83, -95392.664, 0.0, 9.9998045, 9.998928 
1.2750535e+3, 2.947428e+2, -191144.56, -236748.86, 10443.728, -0.02857014, 0.14474592, -188866.66, -137329.02, 0.0, 9.999535, 9.99893 
1.2750484e+3, 3.047421e+2, -164357.1, -209997.11, -18577.541, -0.061189774, 0.19174898, -157751.31, -157751.31, 0.0, 9.999432, 9.99883 
1.275043e+3, 3.147408e+2, -4033.243, 105180.34, 7837.3765, -0.073808916, 0.17166509, 105739.9, 105739.9, 0.0, 9.999507, 10.000958 
1.285132e+3, 1.2477103e+2, -1695263.5, -1823804.1, 33103.777, 0.060148608, 0.22113712, -1687239.1, 30025.91, 0.0036351434, 10.00066, 9.998928 
1.2851238e+3, 1.347699e+2, -1484269.3, -1648832.6, -21646.11, -0.2230851, 0.19704197, -1481469.6, 137807.44, 0.002072395, 10.001315, 9.999153 
1.2851222e+3, 1.4476928e+2, -1394340.4, -1613389.9, 22530.064, 0.11880042, 0.24411948, -1392047.0, 129236.93, 0.00082385907, 10.001522, 9.998614 
1.285117e+3, 1.5476803e+2, -1345301.4, -1541247.0, 15014.938, 0.04467462, 0.25969622, -1344157.5, 79139.79, 0.00016942424, 10.001197, 9.998593 
1.2851118e+3, 1.6476648e+2, -1274993.1, -1467522.5, 2208.4084, -0.0074072997, 0.25011656, -1274967.8, 50344.586, 0.00000585612, 10.001053, 9.998497 
1.2851071e+3, 1.7476466e+2, -1165713.4, -1359531.4, 2755.1243, 0.0022048969, 0.2142915, -1165674.3, 61654.24, 0.0, 10.00111, 9.998537 
1.2851028e+3, 1.8476294e+2, -1116569.6, -1350338.1, 22882.05, 0.022913937, 0.21738106, -1114350.9, 14994.9, 0.0, 10.001055, 9.997955 
1.2850986e+3, 1.947613e+2, -1043488.44, -1261605.3, 35195.445, 0.043014653, 0.25497767, -1037949.94, -6585.47, 0.0, 10.000873, 9.997979 
1.2850942e+3, 2.0475975e+2, -901786.8, -1043723.0, 26749.549, 0.039107185, 0.25997627, -896912.94, 36466.563, 0.0, 10.000746, 9.998863 
1.2850896e+3, 2.1475834e+2, -808971.44, -940988.5, 4574.4443, 0.013409371, 0.22456698, -808813.1, 26577.01, 0.0, 10.000679, 9.998928 
1.2850851e+3, 2.2475679e+2, -765979.25, -940474.5, 9321.16, 0.004977872, 0.20838954, -765482.75, -28078.951, 0.0, 10.000607, 9.998294 
1.2850808e+3, 2.347551e+2, -677810.94, -844332.75, 35193.414, 0.013806609, 0.20678802, -670678.5, -31257.816, 0.0, 10.000527, 9.99832 
1.2850764e+3, 2.4475358e+2, -568363.6, -678680.6, 35568.094, 0.01618184, 0.19752304, -557890.25, -16455.068, 0.0, 10.000338, 9.998876 
1.2850718e+3, 2.5475228e+2, -511173.72, -593734.3, 22348.367, 0.011253703, 0.17435291, -505512.44, -62065.773, 0.0, 10.000029, 9.998934 
1.2850672e+3, 2.6475126e+2, -425214.34, -501918.7, 13680.207, -0.005426264, 0.17666398, -422847.5, -77391.5, 0.0, 9.999948, 9.99893 
1.2850621e+3, 2.7475044e+2, -299382.6, -386035.0, 16190.126, -0.034366604, 0.19850749, -296456.44, -48993.26, 0.0, 10.000119, 9.998971 
1.2850575e+3, 2.847492e+2, -224100.1, -302914.63, 21460.09, -0.04374421, 0.18236779, -218635.67, -69160.94, 0.0, 9.999981, 9.998935 
1.2850529e+3, 2.9474765e+2, -196146.2, -238271.92, 28986.008, -0.032780975, 0.1278043, -181378.45, -129888.164, 0.0, 9.999497, 9.998938 
1.2850477e+3, 3.0474722e+2, -174423.75, -208733.88, 11581.55, -0.06950777, 0.19736463, -170880.3, -170880.3, 0.0, 9.999339, 9.998882 
1.2850426e+3, 3.1474596e+2, -1767.3362, 99093.945, 2941.7805, -0.07875172, 0.1752564, 99179.67, 99179.67, 0.0, 9.999555, 10.000894 
1.2951325e+3, 1.2477612e+2, -1661641.0, -1757236.6, 34274.79, 0.023680445, 0.28312364, -1650622.3, 66595.664, 0.0038618036, 10.000672, 9.99938 
1.2951252e+3, 1.3477488e+2, -1452508.0, -1581612.3, 2919.8662, -0.19854517, 0.20200416, -1452442.0, 166786.14, 0.0022117733, 10.001309, 9.999619 
1.2951241e+3, 1.4477417e+2, -1408779.9, -1642187.6, 10405.089, 0.1632917, 0.22511657, -1408316.9, 112918.414, 0.000887706, 10.001515, 9.998422 
1.2951179e+3, 1.5477291e+2, -1358479.3, -1569762.8, 2469.7375, 0.028689748, 0.25840142, -1358450.4, 64799.727, 0.0001872894, 10.0012, 9.998397 
1.2951125e+3, 1.6477142e+2, -1273112.3, -1465572.5, 3390.3342, -0.040015195, 0.26727304, -1273052.6, 52212.297, 0.0000072252774, 10.00106, 9.9985075 
1.2951083e+3, 1.7476982e+2, -1164449.0, -1358041.8, 4617.349, 0.0064532673, 0.2502028, -1164338.9, 62940.02, 0.0, 10.001114, 9.998547 
1.295104e+3, 1.847681e+2, -1094530.8, -1305315.8, 15448.081, 0.04229029, 0.2384378, -1093404.6, 35890.75, 0.0, 10.001057, 9.998263 
1.2950996e+3, 1.9476627e+2, -1020884.0, -1215472.8, 27645.701, 0.052838963, 0.22515117, -1017032.5, 14281.924, 0.0, 10.0008745, 9.998296 
1.295095e+3, 2.0476463e+2, -940736.25, -1125100.5, 23228.844, 0.042374447, 0.23269725, -937854.56, -4523.5317, 0.0, 10.000747, 9.998305 
1.2950902e+3, 2.1476324e+2, -849033.56, -1025168.1, 1917.2921, 0.013724563, 0.25716996, -849012.75, -13668.127, 0.0, 10.000682, 9.998349 
1.2950857e+3, 2.2476183e+2, -719393.2, -844476.2, 6041.1094, 0.010643051, 0.25291327, -719102.06, 18254.998, 0.0, 10.000608, 9.998953 
1.2950815e+3, 2.3476042e+2, -629422.06, -743785.9, 32129.34, 0.03466215, 0.21108633, -621013.9, 18354.305, 0.0, 10.0005245, 9.999012 
1.2950768e+3, 2.4475898e+2, -590285.06, -724153.5, 23888.182, 0.024939021, 0.18788707, -586150.06, -44768.83, 0.0, 10.000337, 9.998565 
1.2950715e+3, 2.547575e+2, -534183.44, -642858.4, 11238.235, -0.021072662, 0.18068588, -533033.44, -89637.266, 0.0, 10.000033, 9.998596 
1.2950668e+3, 2.647564e+2, -419612.44, -491674.06, 20434.29, -0.03400143, 0.19309656, -414221.28, -68814.51, 0.0, 9.999952, 9.999 
1.2950625e+3, 2.7475572e+2, -294028.84, -374046.34, 23837.17, -0.010949361, 0.2180534, -287466.03, -40053.28, 0.0, 10.000114, 9.999056 
1.2950577e+3, 2.8475457e+2, -208672.88, -270806.84, 4925.1294, -0.012056674, 0.19396223, -208284.9, -58862.02, 0.0, 9.999978, 9.999157 
1.2950523e+3, 2.9475304e+2, -178820.02, -204249.16, 11827.211, -0.040186375, 0.12144275, -174169.58, -122733.11, 0.0, 9.999504, 9.999169 
1.2950468e+3, 3.0475277e+2, -202546.27, -269022.38, 19693.145, -0.089302, 0.21147661, -197150.28, -197150.28, 0.0, 9.999346, 9.998466 
1.2950422e+3, 3.1475094e+2, -46799.258, 8394.102, 15254.915, -0.07958986, 0.17657779, 12329.773, 12329.773, 0.0, 9.999543, 10.000277 
1.3051331e+3, 1.2478069e+2, -1592979.8, -1715607.4, 36302.703, 0.00798305, 0.27679178, -1583038.6, 134134.84, 0.004094851, 10.001112, 9.999453 
1.3051264e+3, 1.3477975e+2, -1507208.9, -1598125.1, -530.1169, -0.18700522, 0.21725261, -1507205.8, 111974.945, 0.0023553874, 10.000892, 9.999705 
1.3051255e+3, 1.4477913e+2, -1486352.9, -1665556.8, -3370.3237, 0.18252507, 0.23824213, -1486289.5, 34897.254, 0.00095388794, 10.000924, 9.998545 
1.305119e+3, 1.5477775e+2, -1352034.6, -1552643.9, 10692.216, 0.019487523, 0.24929468, -1351466.4, 71735.73, 0.0002061118, 10.001185, 9.998521 
1.3051136e+3, 1.647763e+2, -1249098.6, -1453086.4, 21202.133, -0.052510288, 0.25137013, -1246918.1, 78298.65, 0.000008878666, 10.001222, 9.998514 
1.3051096e+3, 1.7477478e+2, -1177371.3, -1363115.0, 21828.15, 0.020454675, 0.24381098, -1174840.5, 52389.594, 0.0, 10.001021, 9.998555 
1.3051052e+3, 1.8477318e+2, -1111237.8, -1304537.3, 23277.041, 0.0605055, 0.24028939, -1108474.3, 20771.223, 0.0, 10.000906, 9.998342 
1.3051005e+3, 1.9477151e+2, -1015018.94, -1203145.4, 17486.45, 0.049259156, 0.23480481, -1013407.4, 17855.451, 0.0, 10.000875, 9.998379 
1.3050957e+3, 2.0476986e+2, -937815.75, -1131334.3, 22497.158, 0.036586605, 0.24056906, -935234.8, -1955.1263, 0.0, 10.000801, 9.998236 
1.3050911e+3, 2.1476828e+2, -854952.75, -1035955.06, 37650.88, 0.027347822, 0.2526234, -847433.3, -12137.56, 0.0, 10.000677, 9.998278 
1.3050865e+3, 2.247669e+2, -731490.56, -840283.7, 37104.188, 0.026038498, 0.25103962, -720041.06, 17267.133, 0.0, 10.0004835, 9.999042 
1.3050818e+3, 2.3476578e+2, -667990.2, -751640.25, 18252.186, 0.032013837, 0.22804943, -664181.06, -24864.588, 0.0, 10.000216, 9.999106 
1.3050771e+3, 2.4476443e+2, -613529.75, -731608.4, 4004.109, 0.018234877, 0.20835757, -613394.1, -72065.695, 0.0, 10.000161, 9.998597 
1.3050717e+3, 2.5476286e+2, -487519.6, -616763.0, 18039.158, -0.016366513, 0.18783104, -485049.0, -41704.84, 0.0, 10.000339, 9.998628 
1.305067e+3, 2.6476172e+2, -378490.13, -469591.03, 36454.617, -0.029271238, 0.19432445, -365698.63, -20343.57, 0.0, 10.000226, 9.999019 
1.3050623e+3, 2.7476108e+2, -338467.0, -393287.47, 34061.11, -0.01883482, 0.22065799, -322156.75, -74795.914, 0.0, 9.999801, 9.999074 
1.3050576e+3, 2.847599e+2, -251210.3, -298291.0, 4292.4883, -0.021856721, 0.19858436, -250822.13, -101451.03, 0.0, 9.999718, 9.999093 
1.3050522e+3, 2.9475835e+2, -109898.97, -177823.78, -11210.36, -0.040239617, 0.12953718, -108096.625, -56711.543, 0.0, 10.000008, 9.999108 
1.3050465e+3, 3.047582e+2, -113412.93, -223061.27, 184.89531, -0.085105576, 0.23252882, -113412.62, -113412.62, 0.0, 9.999947, 9.998492 
1.3050416e+3, 3.1475604e+2, -64488.305, -22528.691, 31246.535, -0.077748306, 0.16238059, -5872.1025, -5872.1025, 0.0, 9.9995165, 10.000077 
1.3151343e+3, 1.24784894e+2, -1614003.4, -1758627.0, 4814.5786, 0.008802114, 0.20829614, -1613843.3, 103287.12, 0.0043321527, 10.001106, 9.999161 
1.3151275e+3, 1.3478461e+2, -1525100.5, -1637374.0, -7914.97, -0.18867153, 0.2423067, -1524545.3, 94588.49, 0.0025021203, 10.0009, 9.999432 
1.3151263e+3, 1.4478424e+2, -1455375.1, -1604438.4, 6048.8857, 0.17597431, 0.28217757, -1455130.1, 66007.47, 0.0010219518, 10.0009365, 9.99896 
1.3151203e+3, 1.5478268e+2, -1322908.3, -1492175.1, 19904.604, 0.016219962, 0.23249203, -1320599.1, 102553.53, 0.000225761, 10.001184, 9.998938 
1.3151148e+3, 1.6478111e+2, -1249297.3, -1453351.6, 12907.331, -0.046748627, 0.20377651, -1248484.1, 76683.42, 0.000010883995, 10.00122, 9.998514 
1.3151108e+3, 1.7477962e+2, -1176973.5, -1363275.5, 13769.606, 0.042821415, 0.19742048, -1175961.4, 51220.152, 0.0, 10.001024, 9.998554 
1.3151063e+3, 1.8477826e+2, -1120846.8, -1325500.6, 21190.736, 0.07612177, 0.22438022, -1118675.6, 10519.816, 0.0, 10.000909, 9.998197 
1.3151012e+3, 1.9477706e+2, -1024808.4, -1224738.0, 15960.367, 0.03254656, 0.2810745, -1023542.3, 7667.0024, 0.0, 10.000879, 9.99823 
1.3150965e+3, 2.0477547e+2, -909419.5, -1073399.1, 17145.756, 0.021642182, 0.28070068, -907645.94, 25579.342, 0.0, 10.000804, 9.998632 
1.3150918e+3, 2.1477348e+2, -826500.25, -976819.4, 32464.287, 0.05260821, 0.21310176, -819788.6, 15454.59, 0.0, 10.000675, 9.998685 
1.3150872e+3, 2.2477204e+2, -764512.56, -908790.75, 26311.37, 0.049226105, 0.20563008, -759864.06, -22607.24, 0.0, 10.000482, 9.998573 
1.3150819e+3, 2.3477116e+2, -701510.0, -822924.7, 8151.874, 0.0066690114, 0.25690612, -700965.1, -61699.63, 0.0, 10.000221, 9.998615 
1.315077e+3, 2.4476995e+2, -587033.2, -678244.0, 10479.434, -0.0034969738, 0.25682712, -585844.6, -44567.875, 0.0, 10.000167, 9.998961 
1.3150725e+3, 2.5476834e+2, -460540.6, -560258.44, 25329.06, 0.022510545, 0.19600339, -454475.7, -11185.139, 0.0, 10.000336, 9.999018 
1.3150676e+3, 2.6476717e+2, -382017.34, -476401.75, 21433.379, 0.005934903, 0.1809424, -377378.16, -32077.309, 0.0, 10.000222, 9.998975 
1.3150617e+3, 2.7476647e+2, -341558.1, -401428.34, 19047.479, -0.05731303, 0.20686617, -336011.97, -88704.45, 0.0, 9.999806, 9.999016 
1.3150568e+3, 2.8476527e+2, -274233.38, -348372.97, 15300.112, -0.07250371, 0.19677152, -271200.0, -121880.484, 0.0, 9.999725, 9.998746 
1.315052e+3, 2.9476362e+2, -135758.77, -229419.14, 1024.1655, -0.03568744, 0.15322068, -135747.58, -84411.49, 0.0, 9.999997, 9.998759 
1.3150467e+3, 3.047635e+2, -83305.05, -158580.88, -14096.369, -0.06057707, 0.26109165, -80751.914, -80751.914, 0.0, 9.999936, 9.99894 
1.3150413e+3, 3.1476128e+2, -49569.27, 7338.06, 19695.389, -0.07467867, 0.14002244, 13489.588, 13489.588, 0.0, 9.999521, 10.000281 
1.3251354e+3, 1.2478964e+2, -1647754.1, -1781623.6, -327.26526, 0.023651233, 0.18147555, -1647753.4, 69329.09, 0.0045723, 10.000903, 9.999101 
1.3251284e+3, 1.3478948e+2, -1476479.0, -1615453.0, 26933.928, -0.1904218, 0.22912858, -1471441.6, 147643.9, 0.0026508812, 10.001245, 9.999415 
1.3251273e+3, 1.4478919e+2, -1398539.5, -1568846.5, 33735.902, 0.16473314, 0.27424154, -1392100.3, 128988.48, 0.0010914269, 10.001294, 9.99903 
1.3251214e+3, 1.547877e+2, -1347656.5, -1496478.4, 21280.045, 0.022839839, 0.22569057, -1344673.4, 78429.22, 0.00024614425, 10.000983, 9.999004 
1.325116e+3, 1.6478622e+2, -1296579.4, -1470353.4, 3261.8132, -0.03605963, 0.19982412, -1296518.1, 28598.58, 0.000013287297, 10.000872, 9.998565 
1.3251118e+3, 1.7478485e+2, -1180481.4, -1358884.6, 6967.8643, 0.04523505, 0.20096064, -1180209.6, 46920.375, 0.0, 10.000976, 9.998607 
1.3251072e+3, 1.8478352e+2, -1109626.4, -1314547.9, 21986.006, 0.0747204, 0.22567533, -1107294.1, 21849.734, 0.0, 10.000963, 9.998245 
1.325102e+3, 1.9478223e+2, -1028854.44, -1220826.5, 31193.01, 0.030274864, 0.2680884, -1023913.1, 7245.084, 0.0, 10.000827, 9.9982815 
1.3250972e+3, 2.047807e+2, -925393.4, -1075804.4, 24514.096, 0.020386018, 0.26935974, -921498.94, 11674.61, 0.0, 10.000673, 9.998679 
1.3250925e+3, 2.1477897e+2, -849715.56, -982229.44, 12268.241, 0.054829024, 0.22164623, -848589.3, -13399.981, 0.0, 10.000493, 9.998734 
1.3250877e+3, 2.2477755e+2, -771748.25, -918207.2, 10836.589, 0.05182428, 0.2169404, -770950.8, -33747.836, 0.0, 10.00046, 9.998518 
1.3250823e+3, 2.3477645e+2, -652437.56, -805297.7, 24322.518, 0.0058675553, 0.25214234, -648660.8, -9446.7705, 0.0, 10.000586, 9.99856 
1.3250773e+3, 2.4477519e+2, -539667.4, -653865.5, 29286.398, -0.0043319333, 0.2507528, -532594.8, 8631.043, 0.0, 10.000487, 9.998974 
1.3250728e+3, 2.5477377e+2, -487076.5, -570846.4, 15362.92, 0.025069322, 0.20443791, -484347.9, -41109.707, 0.0, 10.000146, 9.999036 
1.3250676e+3, 2.6477268e+2, -419515.78, -494838.53, -5787.209, 0.0071105775, 0.19576983, -419073.75, -73825.79, 0.0, 9.999969, 9.998969 
1.3250616e+3, 2.747719e+2, -318893.75, -391007.6, -4930.2334, -0.062506534, 0.21895939, -318558.22, -71303.125, 0.0, 9.999967, 9.99901 
1.3250566e+3, 2.8477064e+2, -239465.36, -334424.0, 17943.234, -0.07918607, 0.20410289, -236187.95, -86920.1, 0.0, 9.999979, 9.998719 
1.3250521e+3, 2.947689e+2, -135112.61, -230841.47, 26738.695, -0.038203496, 0.15415578, -128150.38, -76865.055, 0.0, 10.0000105, 9.998742 
1.3250466e+3, 3.0476895e+2, -75836.195, -138245.4, -3314.1511, -0.06008356, 0.2716313, -75660.695, -75660.695, 0.0, 9.999918, 9.999088 
1.3250408e+3, 3.1476712e+2, -33785.52, 796.0327, 8755.302, -0.077411704, 0.16999541, 2886.3362, 2886.3362, 0.0, 9.999693, 10.000153 
1.3351366e+3, 1.2479499e+2, -1636641.3, -1761068.3, -9494.012, 0.04829098, 0.1936039, -1635921.0, 81108.05, 0.0048153205, 10.000913, 9.999239 
1.3351296e+3, 1.3479441e+2, -1461943.9, -1584721.8, 39752.195, -0.19123878, 0.18036918, -1450197.0, 168838.17, 0.0028011485, 10.001242, 9.999629 
1.3351285e+3, 1.4479403e+2, -1416564.1, -1606235.8, 21938.44, 0.14814878, 0.21759154, -1414059.6, 106979.97, 0.001161807, 10.001292, 9.9987755 
1.3351224e+3, 1.5479289e+2, -1364946.4, -1534118.1, 9360.165, 0.036841154, 0.2282434, -1364430.0, 58621.555, 0.00026710884, 10.000989, 9.998743 
1.3351169e+3, 1.6479167e+2, -1289647.6, -1457929.5, 6308.3877, -0.022657769, 0.23776565, -1289411.5, 35652.473, 0.000016044773, 10.000878, 9.998648 
1.3351126e+3, 1.7479052e+2, -1173626.5, -1345891.1, 10430.033, 0.02824374, 0.25168407, -1172997.3, 54078.01, 0.00000000003443261, 10.000979, 9.998695 
1.335108e+3, 1.84789e+2, -1092509.5, -1279933.9, 16052.846, 0.056136604, 0.24261387, -1091144.6, 37945.61, 0.0, 10.000965, 9.998483 
1.3351029e+3, 1.947871e+2, -1011856.6, -1186085.0, 25472.584, 0.04116351, 0.19898905, -1008208.8, 22900.121, 0.0, 10.000828, 9.99852 
1.3350978e+3, 2.0478565e+2, -946119.06, -1119163.5, 16841.592, 0.031254705, 0.2097769, -944495.2, -11371.337, 0.0, 10.000673, 9.998382 
1.335093e+3, 2.1478473e+2, -870648.7, -1027285.56, 5066.8574, 0.03399097, 0.27564788, -870485.0, -35350.97, 0.0, 10.000499, 9.998424 
1.3350879e+3, 2.2478342e+2, -746365.56, -866986.7, 14855.648, 0.0338417, 0.28123453, -744562.9, -7416.1743, 0.0, 10.000464, 9.998868 
1.335083e+3, 2.3478168e+2, -627221.1, -752448.8, 29153.787, 0.028013548, 0.21496455, -620766.6, 18395.238, 0.0, 10.000582, 9.998925 
1.335078e+3, 2.4478023e+2, -564322.9, -704143.94, 16798.314, 0.01403741, 0.19253707, -562333.06, -21157.531, 0.0, 10.000482, 9.998632 
1.3350725e+3, 2.547791e+2, -511975.9, -623711.5, 3129.2522, -0.00835406, 0.21380545, -511888.34, -68701.266, 0.0, 10.00015, 9.998672 
1.3350673e+3, 2.647782e+2, -415983.4, -489434.22, -5449.6284, -0.025402639, 0.2382828, -415581.25, -70384.82, 0.0, 9.999975, 9.999004 
1.335062e+3, 2.7477744e+2, -316325.88, -384495.47, -3732.2349, -0.03668917, 0.2559652, -316122.16, -68918.49, 0.0, 9.99996, 9.999059 
1.3350569e+3, 2.847761e+2, -221546.75, -295873.66, 20224.781, -0.044762664, 0.22007991, -216399.86, -67183.66, 0.0, 9.999971, 9.998988 
1.335052e+3, 2.9477426e+2, -114573.48, -189768.13, 29292.414, -0.049097136, 0.13408649, -104509.445, -53276.387, 0.0, 10.000016, 9.9990225 
1.3350464e+3, 3.0477452e+2, -84405.06, -158407.94, -10587.72, -0.08543705, 0.26537296, -82920.06, -82920.06, 0.0, 9.999927, 9.998946 
1.3350403e+3, 3.1477344e+2, -67166.414, -65765.37, 4729.399, -0.08908341, 0.2567365, -61684.895, -61684.895, 0.0, 9.99968, 9.999702 
1.3451375e+3, 1.24800354e+2, -1614179.1, -1767356.9, -2213.005, 0.03563897, 0.18705703, -1614147.1, 102828.36, 0.0050627007, 10.001143, 9.9990835 
1.345131e+3, 1.3479978e+2, -1467487.5, -1597956.9, 44075.76, -0.18437435, 0.18266283, -1453993.3, 164989.1, 0.002953265, 10.00125, 9.999533 
1.3451298e+3, 1.4479928e+2, -1417920.4, -1604027.5, 9470.617, 0.14465962, 0.21281247, -1417439.6, 103548.266, 0.0012327734, 10.001272, 9.9988 
1.3451235e+3, 1.547981e+2, -1340260.6, -1519324.4, 15593.193, 0.04146872, 0.21841794, -1338912.9, 84086.93, 0.00028840025, 10.001148, 9.998768 
1.345118e+3, 1.647969e+2, -1266262.1, -1444893.5, 28808.357, -0.020415692, 0.22776647, -1261731.0, 63280.895, 0.00001901083, 10.001033, 9.998663 
1.3451134e+3, 1.747958e+2, -1178007.8, -1346086.0, 27794.574, 0.017212441, 0.24660085, -1173530.6, 53492.273, 0.0000000014653116, 10.000942, 9.998712 
1.3451087e+3, 1.8479435e+2, -1109363.6, -1283505.4, 18477.104, 0.04715166, 0.24031894, -1107424.8, 21612.701, 0.0, 10.000831, 9.998522 
1.3451038e+3, 1.9479251e+2, -1029320.25, -1189315.0, 12083.269, 0.050590787, 0.19829074, -1028412.9, 2642.8713, 0.0, 10.000688, 9.998565 
1.3450986e+3, 2.0479105e+2, -947672.56, -1117623.5, 11537.976, 0.041885573, 0.20656894, -946892.9, -13822.297, 0.0, 10.000654, 9.998402 
1.3450934e+3, 2.1479009e+2, -833773.5, -1007133.4, 23874.03, 0.026222693, 0.26430503, -830545.8, 4535.3857, 0.0, 10.000742, 9.998445 
1.3450883e+3, 2.2478881e+2, -724135.0, -854470.5, 30700.06, 0.02661386, 0.27283671, -717265.75, 19827.941, 0.0, 10.000611, 9.998883 
1.3450836e+3, 2.3478724e+2, -675599.3, -773307.3, 17696.438, 0.042170227, 0.22181785, -672493.0, -33385.254, 0.0, 10.000242, 9.998944 
1.3450783e+3, 2.4478589e+2, -617366.75, -727778.2, 6149.8677, 0.026219724, 0.20604467, -617025.25, -75904.42, 0.0, 10.000113, 9.998647 
1.3450727e+3, 2.5478476e+2, -497394.7, -614908.0, 19859.777, -0.023574494, 0.2244804, -494129.13, -50996.56, 0.0, 10.000245, 9.998685 
1.3450672e+3, 2.6478377e+2, -383463.06, -479359.38, 22226.678, -0.042015985, 0.24698977, -378561.9, -33419.35, 0.0, 10.000226, 9.998952 
1.345062e+3, 2.7478296e+2, -307477.7, -385562.75, 15152.859, -0.026068361, 0.26345685, -304640.28, -57489.516, 0.0, 10.000047, 9.999008 
1.3450569e+3, 2.847817e+2, -218955.42, -276790.66, 34501.24, -0.031295434, 0.23288652, -202855.67, -53693.453, 0.0, 9.999916, 9.9991455 
1.3450518e+3, 2.947802e+2, -128709.86, -177250.34, 34853.52, -0.059809446, 0.15871271, -110508.79, -59333.07, 0.0, 9.99984, 9.999192 
1.345046e+3, 3.047804e+2, -90836.51, -154235.9, -4436.619, -0.10144741, 0.27210522, -90527.55, -90527.55, 0.0, 9.999853, 9.99901 
1.34504e+3, 3.1477943e+2, -40996.87, -74923.53, 28021.748, -0.09844186, 0.26897857, -25203.938, -25203.938, 0.0, 9.999956, 9.999506 
1.3551381e+3, 1.2480579e+2, -1645047.1, -1831953.8, -16946.715, -0.013657162, 0.16233815, -1643523.0, 73397.89, 0.00531726, 10.0011425, 9.998642 
1.3551323e+3, 1.3480558e+2, -1494228.4, -1653603.9, 48454.086, -0.17277853, 0.23278657, -1480653.4, 138272.89, 0.003108456, 10.00125, 9.999151 
1.3551311e+3, 1.4480497e+2, -1398504.3, -1564500.4, 4990.857, 0.14976922, 0.2568533, -1398354.4, 122578.766, 0.0013043365, 10.001273, 9.999071 
1.3551246e+3, 1.5480343e+2, -1320648.1, -1478624.0, 10193.672, 0.03740351, 0.19765839, -1319993.0, 102953.54, 0.00030973944, 10.001146, 9.999048 
1.3551189e+3, 1.6480199e+2, -1269523.3, -1451889.4, 24043.574, -0.028902782, 0.17249495, -1266406.6, 58553.43, 0.000021994929, 10.001033, 9.998615 
1.3551143e+3, 1.7480081e+2, -1181191.9, -1353727.8, 23902.451, 0.010725511, 0.18762486, -1177941.8, 49030.445, 0.0000000068048798, 10.000945, 9.998658 
1.3551097e+3, 1.8479964e+2, -1119747.6, -1306133.0, 12355.813, 0.045701206, 0.22000308, -1118932.1, 10052.871, 0.0, 10.000834, 9.998366 
1.3551046e+3, 1.9479848e+2, -1039276.94, -1211698.4, 6236.832, 0.057585552, 0.26293775, -1039051.7, -8053.2905, 0.0, 10.000693, 9.998409 
1.3550994e+3, 2.0479697e+2, -923900.4, -1069802.4, 13853.599, 0.05109172, 0.25595334, -922596.6, 10416.998, 0.0, 10.000659, 9.998728 
1.3550942e+3, 2.1479508e+2, -810290.75, -958147.1, 26690.457, 0.030740315, 0.19032252, -805620.2, 29410.299, 0.0, 10.000739, 9.998783 
1.355089e+3, 2.247938e+2, -746949.06, -901322.75, 16602.793, 0.029545248, 0.19538997, -745183.7, -8140.3184, 0.0, 10.0006075, 9.998564 
1.3550839e+3, 2.3479319e+2, -698521.2, -822292.0, 3806.374, 0.04742903, 0.27166116, -698404.25, -59352.773, 0.0, 10.000247, 9.998607 
1.3550785e+3, 2.4479215e+2, -590746.9, -674200.06, 10800.853, 0.031031411, 0.28842062, -589371.6, -48309.61, 0.0, 10.000118, 9.999012 
1.3550729e+3, 2.547907e+2, -470626.22, -558912.75, 25443.012, -0.021867186, 0.2356911, -463818.78, -20743.938, 0.0, 10.000242, 9.999071 
1.3550673e+3, 2.6478946e+2, -395087.44, -502917.56, 16301.096, -0.043811075, 0.22212644, -392677.0, -47590.613, 0.0, 10.000222, 9.998793 
1.355062e+3, 2.7478856e+2, -318922.03, -410656.97, 9517.692, -0.032834318, 0.24396256, -317944.97, -70848.47, 0.0, 10.000051, 9.998836 
1.3550568e+3, 2.8478754e+2, -214486.4, -269415.16, 32316.135, -0.041645568, 0.24503057, -199540.6, -50434.574, 0.0, 9.999923, 9.999193 
1.3550517e+3, 2.947866e+2, -126113.984, -170191.64, 33399.28, -0.071144104, 0.2258421, -108137.54, -57023.617, 0.0, 9.999831, 9.999246 
1.3550459e+3, 3.0478647e+2, -73852.54, -117448.32, 189.36118, -0.108779475, 0.28922394, -73851.72, -73851.72, 0.0, 9.9998455, 9.999268 
1.3550399e+3, 3.14785e+2, -37136.082, -67433.805, 35731.94, -0.110324375, 0.21000259, -13474.382, -13474.382, 0.0, 9.999957, 9.9995575 
1.3651393e+3, 1.2481131e+2, -1615590.6, -1814957.9, -59035.055, -0.022743605, 0.1829882, -1599421.0, 117446.41, 0.005582378, 10.001335, 9.998666 
1.3651337e+3, 1.34811e+2, -1517483.5, -1656203.3, 54845.46, -0.15723035, 0.2372652, -1498419.3, 120453.68, 0.0032685762, 10.001055, 9.999227 
1.365132e+3, 1.4481023e+2, -1449510.4, -1583433.8, 20266.133, 0.14162347, 0.23865303, -1446510.8, 74370.164, 0.0013768864, 10.0009, 9.999121 
1.3651256e+3, 1.5480879e+2, -1359007.4, -1491934.4, 7715.9336, 0.026612097, 0.18550022, -1358561.0, 64332.24, 0.00033094976, 10.000861, 9.999094 
1.3651198e+3, 1.6480744e+2, -1292410.4, -1456537.4, 18326.408, -0.03415542, 0.16303764, -1290389.0, 34516.96, 0.000024852021, 10.000849, 9.998672 
1.3651153e+3, 1.7480631e+2, -1190210.6, -1351389.5, 25598.29, 0.021340435, 0.17788784, -1186242.8, 40674.81, 0.000000016360648, 10.000855, 9.998717 
1.3651104e+3, 1.8480518e+2, -1122309.9, -1312938.6, 20570.902, 0.052995253, 0.2146928, -1120115.4, 8814.851, 0.0, 10.000842, 9.998316 
1.365105e+3, 1.9480406e+2, -1025063.06, -1210719.3, 21929.436, 0.038883977, 0.2657491, -1022507.94, 8435.881, 0.0, 10.000816, 9.998356 
1.3650998e+3, 2.0480259e+2, -916128.25, -1055469.5, 24094.959, 0.03322219, 0.26058793, -912079.4, 20879.523, 0.0, 10.000669, 9.998821 
1.3650948e+3, 2.1480076e+2, -855492.56, -968607.06, 18273.654, 0.04359721, 0.19105297, -852613.7, -17638.771, 0.0, 10.000382, 9.998881 
1.3650896e+3, 2.2479953e+2, -783740.56, -921877.6, 11980.358, 0.044667732, 0.19766378, -782709.25, -45721.883, 0.0, 10.00037, 9.998536 
1.3650842e+3, 2.3479895e+2, -642394.1, -798889.4, 21275.057, 0.033209033, 0.28097498, -639553.44, -557.8579, 0.0, 10.000649, 9.998572 
1.3650787e+3, 2.4479795e+2, -521461.3, -634118.44, 23298.164, 0.01360098, 0.3003636, -516833.25, 24172.734, 0.0, 10.000568, 9.999069 
1.3650732e+3, 2.547965e+2, -487648.56, -559930.6, 12578.519, -0.0138546955, 0.24412315, -485522.2, -42503.813, 0.0, 10.000097, 9.999132 
1.3650675e+3, 2.6479533e+2, -423823.5, -511879.22, 7548.3833, -0.0347388, 0.2268053, -423181.13, -78151.586, 0.0, 10.000007, 9.998833 
1.365062e+3, 2.747944e+2, -275549.47, -384876.78, 15805.048, -0.04995694, 0.2466905, -273310.47, -26271.447, 0.0, 10.000332, 9.998875 
1.3650566e+3, 2.847934e+2, -178562.55, -269868.34, 24510.646, -0.06339364, 0.25311044, -172398.86, -23350.154, 0.0, 10.000248, 9.999032 
1.3650514e+3, 2.9479238e+2, -154288.5, -200837.55, 8259.187, -0.072147876, 0.24270146, -152866.52, -101808.54, 0.0, 9.999713, 9.99909 
1.3650458e+3, 3.047919e+2, -80726.33, -94147.51, -9654.263, -0.09665031, 0.26610705, -75679.51, -75679.51, 0.0, 9.999685, 9.999504 
1.3650401e+3, 3.1479082e+2, 6976.9683, -34885.082, 25568.094, -0.1088197, 0.2000665, 19088.873, 19088.873, 0.0, 10.00021, 9.99966 
1.3751408e+3, 1.2481695e+2, -1584755.6, -1749535.1, -83823.5, 0.0020156724, 0.24482244, -1549610.5, 167203.9, 0.0058605294, 10.001328, 9.99912 
1.3751349e+3, 1.3481614e+2, -1482717.5, -1582652.1, 43899.383, -0.13667434, 0.20004793, -1466172.5, 152648.81, 0.0034352848, 10.001049, 9.999735 
1.3751328e+3, 1.4481518e+2, -1460802.5, -1607787.3, 17741.77, 0.12160262, 0.16264112, -1458691.3, 62139.188, 0.0014510443, 10.000902, 9.998954 
1.3751262e+3, 1.5481427e+2, -1370554.3, -1517522.6, 5880.314, 0.007469679, 0.1803761, -1370319.4, 52519.926, 0.0003520353, 10.000867, 9.998917 
1.3751206e+3, 1.6481328e+2, -1281026.5, -1434376.9, 17935.457, -0.0387286, 0.19658695, -1278956.8, 45892.355, 0.000027536262, 10.000853, 9.998822 
1.3751164e+3, 1.7481235e+2, -1178708.9, -1328218.3, 25193.715, 0.047666814, 0.21585417, -1174577.6, 52280.867, 0.000000027808229, 10.000856, 9.998877 
1.3751115e+3, 1.8481104e+2, -1118933.3, -1306407.4, 18440.621, 0.06746354, 0.22331461, -1117136.5, 11736.031, 0.0, 10.000842, 9.998361 
1.3751055e+3, 1.948093e+2, -1021711.56, -1204428.8, 20432.543, -0.0047160974, 0.20880899, -1019454.56, 11437.049, 0.0, 10.000818, 9.9984 
1.3751002e+3, 2.0480797e+2, -925632.4, -1075672.6, 12766.447, -0.010497822, 0.22288406, -924553.9, 8351.995, 0.0, 10.000669, 9.998683 
1.3750954e+3, 2.1480711e+2, -864736.0, -989226.56, 7135.329, 0.06316999, 0.26381505, -864328.4, -29414.0, 0.0, 10.000387, 9.998738 
1.3750903e+3, 2.2480598e+2, -765478.0, -885025.5, 21585.336, 0.06936233, 0.27549857, -761699.94, -24774.176, 0.0, 10.000373, 9.998788 
1.3750845e+3, 2.3480459e+2, -624229.5, -760932.4, 31873.447, -0.00003822895, 0.25078622, -617163.2, 21776.69, 0.0, 10.000647, 9.998836 
1.3750789e+3, 2.4480331e+2, -539871.56, -672036.9, 6110.737, -0.025263304, 0.24412481, -539589.6, 1362.826, 0.0, 10.000566, 9.998811 
1.3750733e+3, 2.5480226e+2, -506212.6, -599377.0, -4634.4063, -0.0017543624, 0.251682, -505982.63, -63019.598, 0.0, 10.000099, 9.998861 
1.3750677e+3, 2.648013e+2, -406979.44, -478198.75, 19675.14, -0.01776036, 0.26179922, -401905.44, -56933.49, 0.0, 10.0000105, 9.999063 
1.375062e+3, 2.748005e+2, -258714.86, -349947.47, 29156.27, -0.077739164, 0.26878348, -250193.06, -3214.2395, 0.0, 10.000331, 9.999116 
1.3750565e+3, 2.8479922e+2, -204591.4, -324208.88, 5714.106, -0.09672523, 0.25483847, -204319.06, -55328.25, 0.0, 10.000248, 9.99866 
1.3750511e+3, 2.9479754e+2, -180509.39, -255860.83, -10583.581, -0.06832724, 0.2146039, -179051.08, -128043.35, 0.0, 9.999713, 9.9987135 
1.3750456e+3, 3.0479667e+2, -65919.69, -64145.82, 10504.611, -0.0717042, 0.20775676, -54490.766, -54490.766, 0.0, 9.999687, 9.999709 
1.3750404e+3, 3.147967e+2, 16516.99, -13599.024, 48805.105, -0.095792346, 0.23323163, 52534.24, 52534.24, 0.0, 10.000203, 9.999809 
1.385142e+3, 1.2482206e+2, -1662574.3, -1763612.3, -78130.74, 0.022805229, 0.23347232, -1620052.5, 96712.46, 0.006152381, 10.000691, 9.99933 
1.385136e+3, 1.3482162e+2, -1498144.3, -1564438.1, 40324.652, -0.12633882, 0.20209466, -1479091.6, 139675.8, 0.0036092806, 10.000833, 9.999965 
1.3851334e+3, 1.4482065e+2, -1455219.3, -1601176.6, 12984.787, 0.098491184, 0.15282308, -1454073.1, 66703.01, 0.0015272575, 10.000925, 9.998988 
1.3851272e+3, 1.5481989e+2, -1358845.1, -1508345.1, 15210.689, 0.01078358, 0.18039462, -1357313.3, 65470.758, 0.0003731033, 10.000933, 9.998948 
1.3851215e+3, 1.6481896e+2, -1285530.8, -1438276.5, 26092.38, -0.02920745, 0.20225647, -1281196.5, 43596.96, 0.000030085705, 10.000831, 9.998806 
1.385117e+3, 1.7481802e+2, -1212894.5, -1346693.3, 20165.346, 0.040302083, 0.22246394, -1209921.4, 16881.9, 0.000000039188958, 10.000632, 9.9988575 
1.3851121e+3, 1.8481673e+2, -1151736.8, -1307762.5, 13952.394, 0.057611734, 0.22569628, -1150498.9, -21681.78, 0.0, 10.000556, 9.998488 
1.3851063e+3, 1.9481504e+2, -1043304.56, -1199823.3, 21656.418, -0.00088075316, 0.20279077, -1040363.4, -9528.396, 0.0, 10.0006075, 9.998532 
1.3851008e+3, 2.0481375e+2, -938581.8, -1097681.5, 12146.134, -0.0077274265, 0.22213407, -937659.9, -4810.8823, 0.0, 10.000649, 9.99854 
1.3850959e+3, 2.1481295e+2, -832153.7, -990028.7, 5666.579, 0.048005074, 0.2816514, -831950.56, 2907.7817, 0.0, 10.000684, 9.9985895 
1.3850906e+3, 2.2481178e+2, -731606.9, -853672.1, 18878.266, 0.05277328, 0.2919123, -728753.9, 8116.162, 0.0, 10.000542, 9.998921 
1.385085e+3, 2.348103e+2, -677597.1, -770308.0, 19224.205, -0.000053797114, 0.24411352, -673768.94, -34885.094, 0.0, 10.000213, 9.998979 
1.3850792e+3, 2.4480902e+2, -596294.75, -709405.2, -5656.5337, -0.024880977, 0.2339863, -596012.56, -55116.324, 0.0, 10.000224, 9.998717 
1.3850735e+3, 2.5480804e+2, -439387.16, -577951.06, -4209.8706, -0.019105146, 0.25945845, -439259.38, 3647.4116, 0.0, 10.0006075, 9.998762 
1.3850679e+3, 2.6480708e+2, -329734.13, -441989.9, 14972.663, -0.032519527, 0.2719239, -327771.4, 17144.838, 0.0, 10.000548, 9.999051 
1.3850622e+3, 2.7480608e+2, -306404.7, -373604.53, 4895.24, -0.06690065, 0.26388386, -306049.97, -59125.73, 0.0, 10.000007, 9.999108 
1.3850568e+3, 2.8480482e+2, -253080.42, -355518.22, -13414.328, -0.08290901, 0.25175422, -251352.94, -102416.73, 0.0, 9.999951, 9.998587 
1.385051e+3, 2.9480323e+2, -79685.69, -214601.16, -7909.4263, -0.07693748, 0.22912191, -79223.58, -28271.506, 0.0, 10.000442, 9.998645 
1.3850456e+3, 3.0480188e+2, 23201.074, -33277.793, 9476.416, -0.074570216, 0.18450288, 24748.686, 24748.686, 0.0, 10.000354, 9.999599 
1.3850404e+3, 3.1480202e+2, -77203.87, -65626.57, 24867.178, -0.07828384, 0.23633255, -45883.18, -45883.18, 0.0, 9.999593, 9.999744 
1.395143e+3, 1.24826744e+2, -1663358.9, -1766444.8, -81803.24, 0.041098144, 0.1519759, -1618214.5, 98503.88, 0.006457894, 10.000694, 9.9993105 
1.3951367e+3, 1.3482748e+2, -1500659.8, -1569759.8, 45828.82, -0.12814593, 0.24127312, -1477816.5, 140894.14, 0.0037909818, 10.000833, 9.999928 
1.395134e+3, 1.4482673e+2, -1439689.8, -1569591.6, 12782.177, 0.06864083, 0.20492351, -1438443.9, 82273.57, 0.0016060187, 10.000926, 9.999206 
1.3951284e+3, 1.5482572e+2, -1343334.8, -1475869.4, 14561.957, 0.03534248, 0.1862316, -1341753.6, 80973.055, 0.00039434384, 10.00093, 9.999173 
1.3951226e+3, 1.6482456e+2, -1298039.0, -1465085.3, 17508.922, -0.006551709, 0.18273659, -1296223.5, 28514.82, 0.000032562886, 10.000833, 9.998622 
1.3951173e+3, 1.7482339e+2, -1225025.4, -1373886.4, 12224.336, -0.000009149163, 0.1983265, -1224028.1, 2723.1206, 0.00000005013657, 10.000639, 9.998669 
1.3951123e+3, 1.8482229e+2, -1136631.6, -1278127.5, 15030.804, 0.023844082, 0.22168212, -1135052.5, -6289.371, 0.0, 10.000562, 9.99869 
1.3951074e+3, 1.9482127e+2, -1028127.5, -1169502.5, 23068.818, 0.047402494, 0.24574329, -1024458.44, 6315.2754, 0.0, 10.00061, 9.998739 
1.395102e+3, 2.0481993e+2, -948886.9, -1119602.0, 12658.473, 0.037523065, 0.25583735, -947953.4, -15165.178, 0.0, 10.00065, 9.998389 
1.395096e+3, 2.1481828e+2, -842844.9, -1013068.9, 6762.35, -0.0008570262, 0.24637018, -842576.6, -7770.3154, 0.0, 10.000686, 9.998431 
1.3950905e+3, 2.2481698e+2, -730422.3, -852064.1, 6466.4746, -0.0031329542, 0.2494066, -730079.5, 6740.149, 0.0, 10.000545, 9.998932 
1.3950855e+3, 2.3481609e+2, -676062.44, -768361.7, 6940.057, 0.030875754, 0.26085702, -675543.5, -36716.19, 0.0, 10.000216, 9.998991 
1.3950798e+3, 2.4481504e+2, -591024.0, -699303.06, 8190.889, 0.011235895, 0.26825008, -590407.94, -49570.44, 0.0, 10.000226, 9.998787 
1.3950737e+3, 2.5481385e+2, -434393.84, -567903.56, 10762.469, -0.0658535, 0.26609397, -433531.84, 9317.944, 0.0, 10.000607, 9.998833 
1.395068e+3, 2.6481256e+2, -347272.34, -479191.0, -3891.6123, -0.07852245, 0.25667888, -347157.63, -2295.1614, 0.0, 10.000549, 9.998796 
1.3950628e+3, 2.7481118e+2, -324256.53, -411223.13, -14206.922, -0.021559902, 0.2360319, -321994.5, -75119.625, 0.0, 10.000008, 9.998851 
1.3950573e+3, 2.8481013e+2, -238256.22, -325471.34, 5126.5747, -0.027063858, 0.24734229, -237955.9, -89071.22, 0.0, 9.999953, 9.998793 
1.3950513e+3, 2.948093e+2, -65181.895, -185274.31, 12216.782, -0.09881886, 0.28171453, -63951.707, -13059.836, 0.0, 10.000443, 9.998846 
1.3950457e+3, 3.0480742e+2, -4603.278, -92080.65, -17317.396, -0.10556077, 0.19225392, -1299.8033, -1299.8033, 0.0, 10.000357, 9.999195 
1.3950402e+3, 3.1480682e+2, -95748.28, -103866.53, -1594.9147, -0.062260814, 0.20720312, -95446.18, -95446.18, 0.0, 9.99959, 9.999484 
1.4051436e+3, 1.2483266e+2, -1667729.3, -1783178.9, -49971.344, 0.03463712, 0.1508587, -1649104.3, 67555.29, 0.0067786416, 10.000727, 9.999179 
1.4051378e+3, 1.348332e+2, -1518957.0, -1598415.0, 73413.56, -0.10572108, 0.2386809, -1475211.9, 143442.7, 0.0039822184, 10.000793, 9.99975 
1.405135e+3, 1.4483225e+2, -1463246.3, -1576103.1, 22222.238, 0.06273342, 0.19116977, -1459028.3, 61635.41, 0.0016886669, 10.000745, 9.999247 
1.405129e+3, 1.5483157e+2, -1391045.9, -1493632.9, 10570.052, 0.028286474, 0.20107235, -1389968.1, 32701.564, 0.0004161435, 10.000581, 9.999219 
1.4051232e+3, 1.6483048e+2, -1334185.8, -1482438.4, 16335.817, -0.013546662, 0.20107166, -1332407.0, -7726.268, 0.000035020938, 10.000586, 9.998621 
1.405118e+3, 1.7482908e+2, -1205673.5, -1364569.4, 24051.55, -0.005726394, 0.19315328, -1202112.6, 24583.145, 0.00000006103049, 10.000773, 9.998667 
1.4051129e+3, 1.8482791e+2, -1106359.5, -1263222.4, 23880.143, 0.021688523, 0.20960104, -1102804.6, 25903.549, 0.0, 10.00077, 9.998692 
1.405108e+3, 1.94827e+2, -1033326.4, -1171807.8, 16252.247, 0.049968075, 0.24489546, -1031444.6, -727.0731, 0.0, 10.000575, 9.998739 
1.4051026e+3, 2.0482573e+2, -964184.4, -1120975.1, 10679.302, 0.0390281, 0.2585238, -963460.4, -30729.053, 0.0, 10.000521, 9.998442 
1.4050967e+3, 2.1482408e+2, -848375.44, -1009441.5, 19816.027, -0.006390451, 0.24450909, -845973.25, -11223.914, 0.0, 10.000623, 9.998486 
1.4050911e+3, 2.2482271e+2, -724075.2, -862097.6, 12714.447, -0.011328781, 0.24525683, -722913.75, 13849.587, 0.0, 10.000646, 9.998813 
1.4050858e+3, 2.348217e+2, -631593.5, -760646.6, 2431.2197, 0.024145642, 0.25653136, -631547.7, 7224.79, 0.0, 10.000582, 9.998867 
1.4050803e+3, 2.4482065e+2, -550529.06, -672951.9, 9704.002, 0.010297058, 0.26786774, -549764.6, -8982.061, 0.0, 10.000476, 9.998847 
1.4050741e+3, 2.548196e+2, -471377.0, -578695.5, 11314.913, -0.055814985, 0.27257785, -470197.0, -27403.662, 0.0, 10.000322, 9.998895 
1.4050685e+3, 2.6481828e+2, -379759.0, -502167.72, -6553.756, -0.06952963, 0.25798994, -379409.13, -34602.7, 0.0, 10.00036, 9.998729 
1.405063e+3, 2.748167e+2, -241025.97, -378179.2, -4117.1387, -0.027383815, 0.2215227, -240902.48, 5918.4863, 0.0, 10.000612, 9.998785 
1.4050575e+3, 2.8481564e+2, -148102.89, -282341.63, 22674.377, -0.033783622, 0.23900373, -144376.39, 4454.0464, 0.0, 10.000575, 9.998789 
1.4050518e+3, 2.9481506e+2, -99252.05, -202276.69, 14124.557, -0.08962953, 0.29841435, -97350.68, -46515.633, 0.0, 10.000212, 9.99884 
1.4050461e+3, 3.0481285e+2, -54234.227, -135290.56, -27636.73, -0.08964492, 0.18263486, -45708.13, -45708.13, 0.0, 10.000099, 9.999022 
1.40504e+3, 3.1481218e+2, 7860.7876, -48024.04, 3492.8474, -0.0709654, 0.21166305, 8078.247, 8078.247, 0.0, 10.000277, 9.9995365 
1.4151439e+3, 1.24839775e+2, -1685468.5, -1819691.1, -54114.043, 0.0021022547, 0.22369422, -1666369.3, 50219.68, 0.0071187555, 10.000723, 9.998931 
1.415139e+3, 1.3483885e+2, -1541583.5, -1645119.4, 74976.11, -0.059670772, 0.19745407, -1502239.8, 116358.555, 0.0041865646, 10.0007925, 9.99943 
1.4151357e+3, 1.4483735e+2, -1470957.8, -1594273.4, 14944.526, 0.07947425, 0.11691231, -1469172.5, 51441.06, 0.001777482, 10.0007515, 9.999121 
1.4151293e+3, 1.5483753e+2, -1398670.6, -1510972.8, 3867.9968, -0.010595476, 0.22449626, -1398537.5, 24074.797, 0.00043918352, 10.000586, 9.999099 
1.4151233e+3, 1.6483676e+2, -1322055.9, -1458828.1, 22250.828, -0.05063302, 0.255182, -1318527.0, 6093.3325, 0.000037541082, 10.00059, 9.998782 
1.415119e+3, 1.7483512e+2, -1193716.0, -1340315.4, 30410.902, 0.021048658, 0.20600528, -1187657.9, 38978.73, 0.00000007226826, 10.000773, 9.998834 
1.415114e+3, 1.848336e+2, -1119868.0, -1291889.5, 15810.26, 0.048161335, 0.18995696, -1118426.9, 10224.901, 0.0, 10.0007715, 9.998495 
1.4151081e+3, 1.9483228e+2, -1046653.25, -1201178.0, 8636.992, 0.008362798, 0.2017469, -1046172.0, -15506.152, 0.0, 10.000581, 9.998536 
1.4151026e+3, 2.0483117e+2, -946211.06, -1085374.5, 13685.337, -0.001222966, 0.23129086, -944878.0, -12200.103, 0.0, 10.000526, 9.998684 
1.4150977e+3, 2.1483034e+2, -830662.6, -973239.44, 23290.465, 0.02854258, 0.27477106, -826954.5, 7732.9116, 0.0, 10.000623, 9.998734 
1.415092e+3, 2.2482899e+2, -741667.9, -898484.7, 9987.789, 0.024127845, 0.27724406, -741034.3, -4333.056, 0.0, 10.000644, 9.998565 
1.415086e+3, 2.3482716e+2, -648991.06, -797954.25, 269.58997, -0.019471109, 0.23136538, -648990.56, -10271.444, 0.0, 10.000585, 9.9986105 
1.4150803e+3, 2.4482591e+2, -546520.9, -666126.7, 4450.315, -0.026407031, 0.23354357, -546355.5, -5624.1016, 0.0, 10.000481, 9.998893 
1.4150752e+3, 2.5482532e+2, -467646.1, -571327.56, 6225.085, 0.007911825, 0.28057384, -467273.7, -24536.438, 0.0, 10.000322, 9.998946 
1.4150694e+3, 2.6482415e+2, -371925.8, -486691.44, 3250.6956, -0.009484125, 0.27663776, -371833.8, -27085.781, 0.0, 10.0003605, 9.998836 
1.4150631e+3, 2.7482247e+2, -233304.63, -363338.94, 6486.6787, -0.08490051, 0.21784058, -232981.84, 13781.172, 0.0, 10.000615, 9.998887 
1.4150573e+3, 2.848213e+2, -161025.42, -310178.47, 10319.639, -0.10296306, 0.22486667, -160314.81, -11540.879, 0.0, 10.000578, 9.998597 
1.4150523e+3, 2.9482052e+2, -113706.55, -231842.16, 2007.7031, -0.053226408, 0.28265896, -113672.44, -62891.113, 0.0, 10.000208, 9.998641 
1.4150468e+3, 3.0481812e+2, -52349.063, -131451.98, -20250.836, -0.031588648, 0.16019672, -47466.14, -47466.14, 0.0, 10.000097, 9.999049 
1.4150399e+3, 3.1481802e+2, 31009.213, -615.54474, 11521.79, -0.10696992, 0.23958647, 34761.676, 34761.676, 0.0, 10.000278, 9.999862 
1.4251447e+3, 1.2484563e+2, -1703065.5, -1810482.4, -94249.38, 0.008157257, 0.234533, -1648295.6, 68236.586, 0.007483504, 10.000527, 9.999088 
1.42514e+3, 1.3484487e+2, -1553617.0, -1644683.1, 64307.844, -0.040036622, 0.21667098, -1520354.4, 98185.35, 0.004407692, 10.000683, 9.999485 
1.4251365e+3, 1.4484318e+2, -1478308.1, -1608017.5, 10783.823, 0.07050703, 0.12006654, -1477417.8, 43139.03, 0.0018747556, 10.000748, 9.999026 
1.4251299e+3, 1.5484321e+2, -1385394.9, -1514918.8, 845.09204, -0.008875805, 0.22235993, -1385389.4, 37168.055, 0.0004643644, 10.000723, 9.999004 
1.4251241e+3, 1.6484249e+2, -1310331.5, -1443007.6, 21783.52, -0.04274505, 0.25790992, -1306846.5, 17718.525, 0.000040275583, 10.000629, 9.99887 
1.4251198e+3, 1.7484108e+2, -1230639.0, -1347667.8, 23839.652, 0.028589219, 0.22394733, -1225969.0, 609.5664, 0.00000008454083, 10.000478, 9.998925 
1.4251146e+3, 1.8483958e+2, -1160148.3, -1312410.3, 13081.703, 0.051326964, 0.20368439, -1159032.5, -30438.92, 0.0, 10.000502, 9.998483 
1.4251088e+3, 1.9483799e+2, -1026929.5, -1192479.4, 19443.309, 0.0034205418, 0.19107147, -1024676.6, 5933.253, 0.0, 10.000722, 9.998527 
1.4251031e+3, 2.0483682e+2, -918841.25, -1074710.5, 18881.617, -0.0069854064, 0.21727829, -916586.56, 16035.813, 0.0, 10.000728, 9.99866 
1.4250982e+3, 2.1483617e+2, -849804.2, -984981.44, 7809.8975, 0.02871898, 0.2800007, -849354.44, -14724.038, 0.0, 10.000504, 9.998711 
1.4250927e+3, 2.2483489e+2, -763802.7, -908092.4, -1074.0012, 0.024133377, 0.28894848, -763794.7, -27150.836, 0.0, 10.000487, 9.998573 
1.4250866e+3, 2.3483297e+2, -632362.3, -788668.0, 8077.006, -0.025925446, 0.23598629, -631946.06, 6716.35, 0.0, 10.000694, 9.998621 
1.4250807e+3, 2.4483168e+2, -514449.78, -655097.06, 10055.878, -0.030554585, 0.23432426, -513734.47, 26940.588, 0.0, 10.00072, 9.998852 
1.4250757e+3, 2.5483105e+2, -436494.2, -560300.9, 4256.714, 0.014809586, 0.28024858, -436348.0, 6332.9863, 0.0, 10.000555, 9.998909 
1.42507e+3, 2.6482984e+2, -351799.53, -475662.63, 6236.3184, -0.0011045939, 0.27279976, -351486.3, -6794.2983, 0.0, 10.000493, 9.998847 
1.4250636e+3, 2.748281e+2, -242782.83, -366712.56, 2322.4058, -0.085150085, 0.20827213, -242739.31, 3968.0186, 0.0, 10.000544, 9.9988985 
1.4250578e+3, 2.848269e+2, -169704.2, -310396.2, -3380.7488, -0.10665734, 0.21471466, -169623.0, -20905.066, 0.0, 10.000502, 9.9986315 
1.4250526e+3, 2.9482624e+2, -86942.75, -215624.95, 3885.5654, -0.054715786, 0.2763121, -86825.53, -36101.195, 0.0, 10.00038, 9.998668 
1.425047e+3, 3.0482364e+2, -35038.832, -149592.08, -6741.2334, -0.01929307, 0.14626908, -34643.49, -34643.49, 0.0, 10.000331, 9.998812 
1.4250405e+3, 3.1482333e+2, 45849.12, 16268.794, 3689.1794, -0.087184116, 0.22745928, 46302.28, 46302.28, 0.0, 10.000338, 9.9999485 
1.4351456e+3, 1.2485036e+2, -1664710.3, -1732637.9, -89931.336, 0.050633036, 0.18587118, -1602543.0, 113945.055, 0.007877122, 10.000534, 9.999621 
1.4351407e+3, 1.3485128e+2, -1525564.6, -1585308.9, 69199.12, -0.047655765, 0.29413906, -1480065.3, 138412.88, 0.00464788, 10.000678, 9.999895 
1.4351368e+3, 1.4484975e+2, -1483955.4, -1619961.1, 8390.86, 0.034654487, 0.19688062, -1483439.6, 37053.32, 0.0019819823, 10.000747, 9.998946 
1.435131e+3, 1.5484868e+2, -1390294.6, -1526076.6, -852.32385, 0.03135746, 0.19581845, -1390289.3, 32214.973, 0.00049257313, 10.000726, 9.998927 
1.4351252e+3, 1.6484773e+2, -1308033.6, -1440686.9, 15056.121, 0.007197603, 0.21288562, -1306346.1, 18167.898, 0.000043431377, 10.000638, 9.998883 
1.4351201e+3, 1.7484702e+2, -1228653.5, -1345696.3, 17455.277, 0.016793063, 0.24670172, -1226105.8, 415.56577, 0.00000010052836, 10.000485, 9.998936 
1.435115e+3, 1.848458e+2, -1147744.0, -1288502.8, 20224.607, 0.031196965, 0.24907514, -1144895.8, -16362.489, 0.0, 10.000507, 9.998645 
1.4351097e+3, 1.9484414e+2, -1015195.44, -1168683.3, 27170.38, 0.032591645, 0.2114259, -1010527.7, 20021.8, 0.0, 10.000723, 9.998691 
1.4351043e+3, 2.048427e+2, -938692.0, -1116148.3, 10159.985, 0.018499417, 0.21599872, -938112.2, -5547.547, 0.0, 10.000727, 9.998377 
1.4350984e+3, 2.1484159e+2, -869177.06, -1027189.1, -516.67395, -0.0050240736, 0.2604764, -869175.4, -34597.246, 0.0, 10.00051, 9.998419 
1.4350928e+3, 2.2484037e+2, -745130.1, -871083.6, 6428.1133, -0.010032874, 0.28024223, -744802.94, -8212.0205, 0.0, 10.000494, 9.998826 
1.4350875e+3, 2.3483916e+2, -614409.44, -751473.9, 16005.524, 0.002515395, 0.2700387, -612565.25, 26037.068, 0.0, 10.000693, 9.998878 
1.4350818e+3, 2.4483794e+2, -523253.75, -673384.8, 4104.8643, -0.005431177, 0.26937255, -523141.6, 17472.096, 0.0, 10.000718, 9.998729 
1.4350757e+3, 2.5483674e+2, -445262.63, -579586.94, -1334.4078, -0.034751814, 0.27093813, -445249.38, -2624.639, 0.0, 10.000558, 9.998776 
1.43507e+3, 2.6483527e+2, -356323.6, -486193.0, 8907.547, -0.04330889, 0.24651612, -355715.5, -11077.075, 0.0, 10.000497, 9.998774 
1.4350647e+3, 2.748336e+2, -248051.61, -377142.63, 5520.7793, -0.030461553, 0.19447352, -247815.94, -1162.2057, 0.0, 10.00054, 9.998829 
1.435059e+3, 2.8483254e+2, -152908.42, -276156.72, -6897.3403, -0.04893851, 0.20966029, -152523.63, -3861.261, 0.0, 10.000502, 9.998867 
1.4350525e+3, 2.9483214e+2, -71143.91, -184239.97, 833.8119, -0.09676868, 0.2768302, -71137.766, -20473.07, 0.0, 10.000382, 9.998883 
1.4350471e+3, 3.048294e+2, -68308.72, -218944.92, -5981.6396, -0.054381453, 0.13966918, -68071.56, -68071.56, 0.0, 10.000332, 9.998335 
1.4350416e+3, 3.1482813e+2, 34950.598, -5069.3184, 3721.4617, -0.014355266, 0.17501462, 35293.715, 35293.715, 0.0, 10.000332, 9.999805 
1.4451464e+3, 1.24855764e+2, -1637708.9, -1708017.1, -68352.37, 0.06417481, 0.17932872, -1596000.4, 120435.72, 0.008301398, 10.000673, 9.999722 
1.4451413e+3, 1.3485684e+2, -1557939.0, -1604067.1, 57587.42, -0.037071183, 0.3055849, -1518968.8, 99456.055, 0.0049079615, 10.00047, 9.999866 
1.4451373e+3, 1.4485538e+2, -1511697.0, -1612677.8, -4806.202, 0.02113869, 0.20787016, -1511468.8, 8969.987, 0.0020998851, 10.000469, 9.999128 
1.4451319e+3, 1.5485448e+2, -1379902.4, -1499338.5, 4971.47, 0.045216177, 0.2047725, -1379695.9, 42751.84, 0.00052445993, 10.000706, 9.999119 
1.4451261e+3, 1.6485353e+2, -1293630.1, -1444548.5, 18406.57, 0.024559055, 0.2167813, -1291417.6, 33039.777, 0.000047180834, 10.000787, 9.998783 
1.4451206e+3, 1.7485261e+2, -1202631.4, -1344543.9, 11515.531, 0.010248394, 0.2410753, -1201703.0, 24764.164, 0.00000012546444, 10.000715, 9.998831 
1.4451155e+3, 1.8485145e+2, -1126024.8, -1266437.8, 13113.144, 0.022645388, 0.24805747, -1124810.6, 3668.1953, 0.0, 10.000608, 9.998746 
1.4451104e+3, 1.948501e+2, -1044983.4, -1171363.5, 14992.074, 0.04447675, 0.23230167, -1043229.25, -12737.543, 0.0, 10.00047, 9.998793 
1.445105e+3, 2.048487e+2, -967576.44, -1129547.8, 5792.229, 0.033126783, 0.23541458, -967369.56, -34863.3, 0.0, 10.000527, 9.99838 
1.445099e+3, 2.1484731e+2, -827324.0, -1006595.0, 15940.194, -0.00617087, 0.25285527, -825917.7, 8604.225, 0.0, 10.000798, 9.998421 
1.4450935e+3, 2.2484605e+2, -708136.1, -859057.2, 18723.896, -0.011092721, 0.26893726, -705847.9, 30687.432, 0.0, 10.000773, 9.998773 
1.4450882e+3, 2.3484498e+2, -656201.5, -777652.25, 4745.848, 0.017638482, 0.2796317, -656016.3, -17470.71, 0.0, 10.000433, 9.998822 
1.4450826e+3, 2.4484378e+2, -561045.0, -683371.6, -5323.675, 0.0047125593, 0.27995753, -560813.75, -20257.064, 0.0, 10.000423, 9.998801 
1.4450762e+3, 2.5484246e+2, -409324.4, -554013.44, 3548.028, -0.052052014, 0.26129642, -409237.44, 33330.74, 0.0, 10.000769, 9.998851 
1.4450705e+3, 2.6484093e+2, -319254.94, -476407.7, 12470.232, -0.055444904, 0.23327637, -318271.56, 26310.46, 0.0, 10.000787, 9.998701 
1.4450656e+3, 2.748393e+2, -265281.5, -393218.84, 7892.0044, -0.0027677473, 0.19515209, -264796.5, -18199.408, 0.0, 10.000457, 9.998758 
1.4450596e+3, 2.848383e+2, -170471.84, -279131.16, -4953.84, -0.02012037, 0.209767, -170246.45, -21640.459, 0.0, 10.000359, 9.998916 
1.4450529e+3, 2.948378e+2, -48961.242, -169209.9, -11708.837, -0.107655436, 0.26155317, -47831.742, 2777.3447, 0.0, 10.000517, 9.998921 
1.4450476e+3, 3.0483508e+2, -49380.043, -221331.61, -14493.913, -0.058861364, 0.13788901, -48166.9, -48166.9, 0.0, 10.000513, 9.998231 
1.4450422e+3, 3.1483358e+2, 51448.52, 25296.264, 20192.76, 0.020806652, 0.15539989, 62429.254, 62429.254, 0.0, 10.000351, 10.000003 
1.4551468e+3, 1.24861896e+2, -1660333.8, -1755288.3, -76135.53, 0.04853308, 0.21351816, -1618085.3, 98290.57, 0.008755289, 10.000671, 9.999398 
1.4551419e+3, 1.3486166e+2, -1589317.4, -1670583.3, 49448.73, -0.009286822, 0.25423172, -1565948.6, 52429.91, 0.0051877103, 10.000475, 9.999407 
1.4551379e+3, 1.4486018e+2, -1480109.5, -1549955.9, 2457.135, 0.028241688, 0.15722005, -1480023.3, 40369.68, 0.0022286694, 10.00048, 9.999555 
1.4551325e+3, 1.5486066e+2, -1348155.8, -1434419.9, 12910.05, 0.03262757, 0.24781564, -1346265.1, 76122.19, 0.0005603208, 10.000709, 9.999563 
1.4551267e+3, 1.648599e+2, -1308091.1, -1476257.4, 14392.981, 0.00892058, 0.26807976, -1306868.1, 17526.688, 0.00005156165, 10.000792, 9.998564 
1.4551213e+3, 1.7485793e+2, -1217852.9, -1377558.1, 8275.52, 0.008046744, 0.2083836, -1217425.1, 8990.286, 0.00000016567238, 10.00072, 9.998604 
1.4551161e+3, 1.8485655e+2, -1122455.5, -1260696.3, 7266.365, 0.023643347, 0.20344958, -1122074.6, 6355.0093, 0.0, 10.000614, 9.998784 
1.4551109e+3, 1.948559e+2, -1040702.3, -1165246.0, 9570.103, 0.039202936, 0.2528233, -1039971.25, -9534.947, 0.0, 10.00048, 9.998832 
1.4551055e+3, 2.0485483e+2, -947489.2, -1089947.3, 15052.186, 0.036741696, 0.27340338, -945916.2, -13469.113, 0.0, 10.000535, 9.998649 
1.4551e+3, 2.1485336e+2, -808242.25, -966979.25, 25747.424, 0.022870949, 0.25734016, -804170.4, 30291.295, 0.0, 10.000796, 9.998694 
1.4550945e+3, 2.2485189e+2, -733196.25, -910451.0, 5914.6, 0.017832704, 0.255956, -732999.1, 3477.871, 0.0, 10.00077, 9.998423 
1.4550886e+3, 2.3485047e+2, -680374.25, -829453.1, -7573.901, 0.019347012, 0.26493233, -679990.44, -41498.168, 0.0, 10.000439, 9.998466 
1.4550829e+3, 2.4484922e+2, -542029.9, -645632.7, 7777.3154, 0.00041739154, 0.26567447, -541449.25, -945.2137, 0.0, 10.000429, 9.999059 
1.4550771e+3, 2.548482e+2, -390921.03, -515631.34, 17304.434, -0.03903408, 0.25156572, -388564.47, 53946.945, 0.0, 10.000766, 9.999116 
1.4550716e+3, 2.6484686e+2, -325107.25, -488283.03, 1080.0237, -0.040583275, 0.2333525, -325100.1, 19422.854, 0.0, 10.000784, 9.998622 
1.4550659e+3, 2.748453e+2, -271105.1, -406037.2, -3395.5193, -0.0034049358, 0.21003278, -271019.72, -24482.018, 0.0, 10.000458, 9.99867 
1.45506e+3, 2.848441e+2, -178315.72, -296786.9, 1462.1327, -0.020238481, 0.21476063, -178297.67, -29748.574, 0.0, 10.000362, 9.998794 
1.4550535e+3, 2.9484308e+2, -58606.082, -189631.53, -4588.396, -0.088913165, 0.22982468, -58445.598, -7887.904, 0.0, 10.000516, 9.998783 
1.4550482e+3, 3.048408e+2, -31394.215, -184350.77, -19289.42, -0.03654489, 0.14153302, -28999.121, -28999.121, 0.0, 10.000513, 9.998485 
1.4550425e+3, 3.148397e+2, 85190.234, 94893.0, 12607.831, 0.0143345455, 0.17073217, 103550.625, 103550.625, 0.0, 10.000352, 10.000482 
1.4651473e+3, 1.24867804e+2, -1695468.1, -1760263.6, -73910.766, 0.046115156, 0.23412183, -1647166.4, 69152.48, 0.009235504, 10.000379, 9.999505 
1.4651428e+3, 1.3486733e+2, -1565411.9, -1659830.4, 80989.85, 0.014386537, 0.24991384, -1518876.5, 99446.86, 0.0054858825, 10.000646, 9.999397 
1.4651385e+3, 1.4486575e+2, -1448883.3, -1549821.3, 32743.406, 0.030336738, 0.1523845, -1439192.1, 81146.42, 0.002367959, 10.000763, 9.999417 
1.4651331e+3, 1.5486628e+2, -1351063.6, -1450428.3, 997.30566, 0.022922348, 0.25971958, -1351053.6, 71279.83, 0.0006001031, 10.000753, 9.999431 
1.4651275e+3, 1.6486557e+2, -1307558.4, -1460246.5, -12073.864, 0.0014592428, 0.28488675, -1306609.5, 17731.027, 0.00005646771, 10.00073, 9.998702 
1.4651221e+3, 1.7486367e+2, -1211678.4, -1358357.3, 7501.956, 0.015470248, 0.21806748, -1211295.6, 15064.278, 0.00000022299002, 10.000694, 9.998746 
1.4651169e+3, 1.8486232e+2, -1109113.3, -1257240.8, 19029.342, 0.030871337, 0.20957392, -1106707.8, 21666.04, 0.0, 10.000721, 9.998755 
1.4651115e+3, 1.9486162e+2, -992815.1, -1145354.9, 15919.18, 0.03027442, 0.25876284, -991171.5, 39209.43, 0.0, 10.000825, 9.9988 
1.465106e+3, 2.0486057e+2, -916856.8, -1066821.0, 10382.613, 0.030726291, 0.2799363, -916141.4, 16249.996, 0.0, 10.0007105, 9.998722 
1.4651008e+3, 2.1485922e+2, -866338.8, -986640.44, 5846.926, 0.038991563, 0.26640543, -866055.25, -31650.672, 0.0, 10.000363, 9.998767 
1.4650953e+3, 2.2485772e+2, -787565.9, -936407.8, -5073.411, 0.036503624, 0.2583446, -787393.1, -50973.367, 0.0, 10.000396, 9.998424 
1.4650892e+3, 2.3485611e+2, -623085.2, -801503.06, 6740.5947, 0.019854657, 0.24992394, -622830.94, 15605.579, 0.0, 10.000832, 9.9984665 
1.4650835e+3, 2.4485482e+2, -482884.16, -621596.7, 20745.922, 0.0035754929, 0.25032455, -479847.84, 60600.73, 0.0, 10.000856, 9.999018 
1.465078e+3, 2.5485396e+2, -441536.88, -544478.56, 6940.9717, -0.011396579, 0.2540119, -441070.97, 1384.1794, 0.0, 10.00044, 9.999074 
1.4650723e+3, 2.648527e+2, -373923.06, -500566.03, -11797.48, -0.01737057, 0.24096732, -372833.44, -28367.604, 0.0, 10.0004015, 9.998721 
1.4650664e+3, 2.7485117e+2, -218387.11, -369201.56, -3448.3064, -0.014858409, 0.20885621, -218308.31, 28171.346, 0.0, 10.0007715, 9.998772 
1.4650604e+3, 2.8484982e+2, -123884.81, -283951.3, 4368.718, -0.029762095, 0.20386998, -123765.664, 24726.43, 0.0, 10.000794, 9.9986725 
1.4650543e+3, 2.9484862e+2, -77502.06, -213178.73, -2321.929, -0.058024112, 0.21191393, -77462.336, -26958.934, 0.0, 10.00045, 9.9986515 
1.465049e+3, 3.0484667e+2, -57063.38, -206100.61, -23313.018, -0.005203775, 0.17015067, -53501.773, -53501.773, 0.0, 10.000377, 9.998401 
1.4650428e+3, 3.148453e+2, 127215.15, 119490.76, -21621.727, -0.005715838, 0.17886235, 145316.92, 145316.92, 0.0, 10.000622, 10.00052 
1.4751478e+3, 1.2487359e+2, -1657619.8, -1685043.1, -62242.152, 0.057216574, 0.24263357, -1607596.9, 108667.22, 0.00973839, 10.000391, 10.000017 
1.4751437e+3, 1.3487385e+2, -1535391.6, -1599079.4, 89190.86, 0.032661512, 0.29075357, -1472530.5, 145728.25, 0.005800612, 10.000652, 9.999813 
1.4751391e+3, 1.4487214e+2, -1495417.5, -1648988.1, 30508.125, 0.024965711, 0.19240677, -1489578.8, 30696.477, 0.0025169705, 10.0007715, 9.9987335 
1.4751337e+3, 1.548714e+2, -1399244.5, -1551294.6, 284.15112, 0.015094569, 0.24169321, -1399243.9, 23041.205, 0.000643619, 10.000756, 9.998738 
1.4751282e+3, 1.648706e+2, -1273942.3, -1391709.1, -14210.678, 0.00087019394, 0.26928395, -1272251.8, 52042.094, 0.00006177202, 10.000733, 9.999172 
1.4751229e+3, 1.7486982e+2, -1176655.1, -1287715.3, 5506.464, 0.031343, 0.26770714, -1176382.8, 49917.758, 0.0000002932695, 10.000702, 9.9992285 
1.4751177e+3, 1.8486871e+2, -1114853.8, -1270989.9, 21757.564, 0.042438313, 0.26368812, -1111878.6, 16432.568, 0.0, 10.000728, 9.998658 
1.4751121e+3, 1.9486731e+2, -1000283.25, -1161060.8, 19275.936, 0.017097687, 0.25152773, -998004.5, 32320.906, 0.0, 10.000824, 9.998693 
1.4751066e+3, 2.0486599e+2, -925672.94, -1084897.9, -3034.8335, 0.014437632, 0.25752747, -925615.1, 6723.647, 0.0, 10.000709, 9.9986 
1.4751013e+3, 2.1486486e+2, -873756.0, -1004418.2, -7100.498, 0.041851223, 0.2783971, -873371.3, -39020.8, 0.0, 10.000372, 9.998642 
1.4750957e+3, 2.248635e+2, -763415.56, -888197.5, 10844.413, 0.044482324, 0.27343166, -762480.1, -26116.29, 0.0, 10.000402, 9.998753 
1.4750901e+3, 2.3486193e+2, -599823.0, -753168.9, 23458.898, 0.018483752, 0.2354923, -596314.5, 42063.695, 0.0, 10.00083, 9.9988 
1.4750844e+3, 2.4486063e+2, -506883.63, -670690.6, 5654.17, 0.01258588, 0.23511823, -506688.7, 33701.69, 0.0, 10.000853, 9.998683 
1.4750789e+3, 2.5485972e+2, -465443.22, -594781.6, -7947.2427, 0.02939753, 0.26814777, -464956.72, -22557.172, 0.0, 10.000442, 9.998729 
1.475073e+3, 2.6485842e+2, -354116.1, -460979.66, 2559.8152, 0.013737447, 0.25539124, -354054.8, -9644.01, 0.0, 10.000405, 9.998992 
1.475067e+3, 2.7485684e+2, -199268.27, -329261.38, 11693.601, -0.0381567, 0.19143222, -198224.73, 48198.47, 0.0, 10.000768, 9.999048 
1.475061e+3, 2.8485548e+2, -133235.16, -302448.3, -7431.757, -0.051163394, 0.17778607, -132909.39, 15525.869, 0.0, 10.000791, 9.998548 
1.4750554e+3, 2.948544e+2, -87278.445, -234098.23, -14261.312, -0.01662671, 0.20778616, -85906.01, -35459.38, 0.0, 10.000452, 9.9985075 
1.4750499e+3, 3.0485275e+2, -84101.74, -264270.16, -14118.961, 0.03506087, 0.22338155, -83002.02, -83002.02, 0.0, 10.000383, 9.997999 
1.4750431e+3, 3.1485057e+2, 98058.414, 58112.56, -14596.846, -0.04163456, 0.18999845, 102823.836, 102823.836, 0.0, 10.000623, 10.000099 
1.4851484e+3, 1.2487941e+2, -1597603.4, -1670243.4, -38252.824, 0.051186863, 0.24254365, -1581174.8, 135032.31, 0.010262846, 10.000871, 9.9998865 
1.4851445e+3, 1.3487963e+2, -1494410.6, -1603058.4, 63226.535, 0.042404443, 0.30775002, -1465375.8, 152827.05, 0.0061310735, 10.001039, 9.999598 
1.48514e+3, 1.4487791e+2, -1462803.3, -1626870.3, -6090.168, 0.023602381, 0.21658409, -1462577.5, 57642.234, 0.0026753244, 10.00097, 9.998789 
1.4851345e+3, 1.5487692e+2, -1406091.1, -1546959.9, 17882.594, 0.02058102, 0.2358277, -1403856.5, 18374.836, 0.00069087674, 10.000678, 9.998804 
1.4851288e+3, 1.6487615e+2, -1295730.0, -1402672.0, 21982.938, 0.008712799, 0.26231393, -1291387.5, 32852.215, 0.00006744942, 10.000589, 9.999165 
1.4851236e+3, 1.7487566e+2, -1173783.4, -1287038.8, 5313.7007, 0.0340989, 0.28947383, -1173534.6, 52709.55, 0.00000037325287, 10.000727, 9.99922 
1.4851184e+3, 1.8487458e+2, -1125952.4, -1276464.5, 685.1601, 0.045193285, 0.2880727, -1125949.3, 2305.4163, 0.0, 10.000653, 9.998655 
1.4851128e+3, 1.9487293e+2, -1068571.5, -1194026.1, 4960.619, 0.025571259, 0.25278795, -1068375.6, -38104.48, 0.0, 10.000358, 9.998691 
1.4851072e+3, 2.0487154e+2, -966921.0, -1100349.0, -2406.462, 0.021090465, 0.25022468, -966877.6, -34592.61, 0.0, 10.000408, 9.998638 
1.4851019e+3, 2.148705e+2, -805248.94, -966991.8, 4495.3516, 0.037956756, 0.2761583, -805124.1, 29171.574, 0.0, 10.000825, 9.998679 
1.4850964e+3, 2.2486925e+2, -694932.1, -844778.2, 17976.234, 0.040229674, 0.2768328, -692805.8, 43501.73, 0.0, 10.000831, 9.998843 
1.4850909e+3, 2.3486783e+2, -656740.44, -770465.0, 12061.035, 0.024535164, 0.2455387, -655475.4, -17155.338, 0.0, 10.000398, 9.998889 
1.4850852e+3, 2.4486654e+2, -580164.75, -711793.94, -4415.516, 0.02449487, 0.24087048, -580016.8, -39684.402, 0.0, 10.000376, 9.99863 
1.4850795e+3, 2.5486538e+2, -419526.7, -578920.3, 1938.8815, 0.04265001, 0.25823, -419503.1, 22840.87, 0.0, 10.000786, 9.998671 
1.4850737e+3, 2.6486412e+2, -295750.34, -426480.66, 13613.672, 0.02422541, 0.2459385, -294347.72, 50007.582, 0.0, 10.000781, 9.999047 
1.4850676e+3, 2.7486274e+2, -257633.23, -350763.47, 5828.6865, -0.03601303, 0.1971444, -257269.86, -10904.296, 0.0, 10.00034, 9.999105 
1.4850616e+3, 2.8486136e+2, -195397.89, -334417.66, -12080.017, -0.047348395, 0.18016824, -194356.02, -45978.313, 0.0, 10.000373, 9.9985285 
1.4850561e+3, 2.9486006e+2, -23452.383, -206049.39, -12201.273, 0.0011683305, 0.19244058, -22640.691, 27750.344, 0.0, 10.000904, 9.998482 
1.4850505e+3, 3.048587e+2, -10778.052, -241047.22, -4143.795, 0.052111965, 0.24505383, -10703.507, -10703.507, 0.0, 10.000941, 9.9978895 
1.4850436e+3, 3.1485614e+2, 59757.84, 13851.183, 13304.742, -0.042619005, 0.18306527, 63335.086, 63335.086, 0.0, 10.000473, 9.9998665 
1.495149e+3, 1.2488533e+2, -1648668.5, -1779407.1, -29925.252, 0.02760332, 0.23515858, -1642144.4, 74002.36, 0.010811674, 10.000881, 9.999131 
1.4951456e+3, 1.3488476e+2, -1552617.8, -1723533.8, 68972.734, 0.043249607, 0.30200222, -1528256.3, 89898.26, 0.0064788726, 10.001035, 9.998773 
1.495141e+3, 1.4488314e+2, -1409892.6, -1517168.1, -18056.484, 0.025863174, 0.22644153, -1406935.0, 113235.78, 0.00284381, 10.000969, 9.999543 
1.4951354e+3, 1.5488291e+2, -1349975.9, -1432653.9, 5891.1313, 0.037641756, 0.24178481, -1349558.3, 72613.375, 0.00074233697, 10.000686, 9.999586 
1.4951296e+3, 1.6488224e+2, -1326915.3, -1470503.4, 25530.863, 0.022277439, 0.26411143, -1322510.9, 1667.3474, 0.000073667885, 10.000601, 9.998694 
1.4951243e+3, 1.748812e+2, -1207700.4, -1358433.1, 9985.416, 0.023609197, 0.28468484, -1207041.8, 19148.525, 0.00000046463128, 10.000729, 9.99873 
1.4951189e+3, 1.8487991e+2, -1120017.4, -1264666.4, -10770.733, 0.038957763, 0.2849413, -1119219.8, 8984.013, 0.0, 10.000654, 9.998737 
1.4951134e+3, 1.9487847e+2, -1060409.4, -1180181.0, -6349.9116, 0.053751282, 0.26109353, -1060073.6, -29855.781, 0.0, 10.000369, 9.998781 
1.4951079e+3, 2.048772e+2, -952812.7, -1073681.1, 12517.768, 0.048267603, 0.2554923, -951529.9, -19299.799, 0.0, 10.000418, 9.998817 
1.4951023e+3, 2.1487615e+2, -792162.44, -940510.94, 20028.314, 0.02715137, 0.26148185, -789506.0, 44733.887, 0.0, 10.000826, 9.998861 
1.495097e+3, 2.2487499e+2, -705238.7, -865700.7, 1779.9563, 0.023571178, 0.2703152, -705218.94, 31031.871, 0.0, 10.000827, 9.998702 
1.4950913e+3, 2.3487383e+2, -666467.94, -791622.44, -3893.2192, 0.036721986, 0.2782132, -666346.94, -28084.912, 0.0, 10.000401, 9.998743 
1.4950857e+3, 2.4487247e+2, -565443.8, -682229.5, 11074.13, 0.038136356, 0.26529965, -564402.94, -24128.121, 0.0, 10.000379, 9.998832 
1.4950801e+3, 2.5487095e+2, -405298.3, -549224.4, 18307.477, 0.028236454, 0.22541064, -403006.1, 39282.406, 0.0, 10.000783, 9.998877 
1.4950743e+3, 2.6486972e+2, -306967.16, -449122.34, -2000.9592, 0.013227731, 0.21394189, -306939.0, 37360.504, 0.0, 10.000777, 9.998894 
1.4950682e+3, 2.748688e+2, -268463.13, -374033.66, -9697.359, -0.009588499, 0.22515228, -267579.75, -21272.69, 0.0, 10.000343, 9.998945 
1.4950624e+3, 2.8486738e+2, -189181.42, -323369.56, 8252.13, -0.019108584, 0.20971069, -188675.84, -40355.996, 0.0, 10.000379, 9.998603 
1.4950569e+3, 2.948656e+2, -19137.959, -196756.2, 8749.915, -0.0075401124, 0.16608284, -18707.957, 31629.072, 0.0, 10.000899, 9.998549 
1.4950514e+3, 3.0486453e+2, 1248.8375, -214013.06, -20630.135, 0.042126443, 0.23562682, 3208.1418, 3208.1418, 0.0, 10.000932, 9.99808 
1.4950444e+3, 3.1486213e+2, 55422.723, 4578.533, -6420.9805, -0.010005192, 0.1701833, 56221.08, 56221.08, 0.0, 10.000474, 9.999802 
1.50515e+3, 1.24890916e+2, -1592379.1, -1749516.5, -54752.38, 0.020404814, 0.22757266, -1575183.3, 140907.73, 0.011389687, 10.001262, 9.999153 
1.5051465e+3, 1.348901e+2, -1603490.3, -1748866.9, 98332.016, 0.043863952, 0.2690163, -1553897.0, 64204.39, 0.006846775, 10.000689, 9.998765 
1.5051417e+3, 1.4488868e+2, -1467267.6, -1538632.5, 25914.334, 0.017136244, 0.2117057, -1458850.4, 61265.56, 0.0030239136, 10.00055, 9.999597 
1.505136e+3, 1.5488875e+2, -1314443.0, -1408790.1, -2923.3125, 0.03331296, 0.25194326, -1314352.5, 107761.49, 0.000798702, 10.000902, 9.999645 
1.5051304e+3, 1.648881e+2, -1285300.0, -1457423.5, -972.2835, 0.022725824, 0.27449685, -1285294.5, 38826.176, 0.0000807338, 10.0009165, 9.9986315 
1.505125e+3, 1.7488673e+2, -1234719.3, -1378579.9, 13373.143, 0.027732832, 0.27004248, -1233486.8, -7350.6807, 0.00000057502143, 10.000576, 9.998664 
1.5051197e+3, 1.8488543e+2, -1136911.6, -1272060.9, 9833.904, 0.044774726, 0.27047387, -1136199.9, -8049.7617, 0.0, 10.000537, 9.998742 
1.5051141e+3, 1.9488424e+2, -994231.3, -1147567.5, 7253.0405, 0.058652215, 0.27289355, -993889.0, 36272.832, 0.0, 10.000822, 9.998786 
1.5051086e+3, 2.0488302e+2, -893298.3, -1045459.94, 18111.943, 0.05172003, 0.27367207, -891172.1, 41001.453, 0.0, 10.00083, 9.998812 
1.5051031e+3, 2.1488182e+2, -834097.7, -961202.2, 11283.937, 0.028636836, 0.26640207, -833103.75, 1080.9194, 0.0, 10.000542, 9.998856 
1.5050976e+3, 2.2488065e+2, -756151.4, -887006.3, -15329.751, 0.02599721, 0.27086836, -754379.5, -18183.652, 0.0, 10.000465, 9.998729 
1.505092e+3, 2.3487955e+2, -634356.2, -773162.5, -9379.155, 0.043084048, 0.28291547, -633725.3, 4481.0327, 0.0, 10.00061, 9.998768 
1.5050863e+3, 2.4487822e+2, -524473.2, -648640.0, 18539.613, 0.043018915, 0.26653594, -521764.1, 18454.45, 0.0, 10.000602, 9.998954 
1.5050808e+3, 2.5487673e+2, -448024.0, -555855.1, 18550.443, 0.024975166, 0.21500683, -444921.97, -2690.34, 0.0, 10.000432, 9.999 
1.5050751e+3, 2.648756e+2, -358420.72, -480202.03, -9551.817, 0.016212478, 0.21061054, -357676.06, -13434.245, 0.0, 10.000453, 9.998836 
1.505069e+3, 2.7487484e+2, -224927.69, -359771.4, -10544.157, 0.01591664, 0.24741149, -224108.16, 22140.283, 0.0, 10.000673, 9.998883 
1.5050632e+3, 2.8487346e+2, -143283.52, -290348.97, 20285.174, 0.0034653505, 0.23012948, -140536.81, 7724.787, 0.0, 10.000649, 9.998699 
1.5050575e+3, 2.948715e+2, -88549.2, -218459.66, 21570.246, -0.01633524, 0.16090707, -85061.336, -34781.37, 0.0, 10.000374, 9.9986515 
1.505052e+3, 3.0487072e+2, -56486.848, -216101.13, -9530.655, 0.03071609, 0.24287362, -55919.78, -55919.78, 0.0, 10.000424, 9.99831 
1.5050453e+3, 3.148685e+2, 99928.63, 16990.861, 3093.471, 0.016591692, 0.17199942, 100043.86, 100043.86, 0.0, 10.000819, 9.999721 
1.5151514e+3, 1.2489628e+2, -1539267.0, -1639201.6, -74220.26, 0.029161787, 0.223924, -1499761.5, 216276.75, 0.012000226, 10.001262, 9.999917 
1.5151472e+3, 1.348957e+2, -1548481.1, -1636090.5, 74912.164, 0.04273935, 0.21014655, -1505506.3, 112536.77, 0.0072362158, 10.000695, 9.999537 
1.515142e+3, 1.4489456e+2, -1509328.5, -1629242.6, 36805.504, -0.0043392843, 0.1746558, -1498932.9, 21121.744, 0.003216304, 10.000562, 9.99897 
1.5151367e+3, 1.548945e+2, -1359472.0, -1502668.4, 9761.93, 0.007890456, 0.26621827, -1358809.5, 63248.08, 0.00086027547, 10.000902, 9.9990015 
1.5151313e+3, 1.6489373e+2, -1262491.1, -1410390.1, -14345.086, 0.01032621, 0.29408413, -1261112.5, 62953.945, 0.00008890055, 10.0009165, 9.998956 
1.5151258e+3, 1.7489228e+2, -1209971.9, -1329337.8, -68.981125, 0.044548694, 0.24532506, -1209971.8, 16109.355, 0.00000071310234, 10.000583, 9.999 
1.5151203e+3, 1.8489107e+2, -1141160.0, -1283365.1, 19508.258, 0.059936304, 0.24410555, -1138532.4, -10438.786, 0.0, 10.0005455, 9.998661 
1.5151148e+3, 1.9489023e+2, -999799.0, -1160446.6, 17632.74, 0.040957954, 0.28871346, -997886.44, 32216.484, 0.0, 10.000826, 9.998697 
1.5151092e+3, 2.0488904e+2, -906418.0, -1073050.6, 7070.1953, 0.03248419, 0.30554876, -906118.56, 25996.674, 0.0, 10.00083, 9.998623 
1.5151039e+3, 2.1488756e+2, -847279.56, -989271.0, 536.0326, 0.040634144, 0.28899634, -847277.5, -13147.638, 0.0, 10.000544, 9.998663 
1.5150982e+3, 2.2488618e+2, -743321.5, -860997.4, -9960.9375, 0.04511323, 0.27628013, -742484.25, -6341.6006, 0.0, 10.000466, 9.998908 
1.5150926e+3, 2.34885e+2, -620925.8, -746477.56, -3400.8801, 0.043421775, 0.26162466, -620833.75, 17319.074, 0.0, 10.000614, 9.99895 
1.5150867e+3, 2.448838e+2, -521524.44, -643231.0, 12511.849, 0.038705327, 0.24615186, -520251.5, 19911.934, 0.0, 10.000604, 9.998991 
1.5150812e+3, 2.5488263e+2, -445374.03, -550797.75, 12767.654, 0.03184066, 0.22542176, -443849.78, -1676.2177, 0.0, 10.000432, 9.999035 
1.5150757e+3, 2.6488164e+2, -356418.84, -476104.47, -627.9418, 0.032073364, 0.23420872, -356415.53, -12232.976, 0.0, 10.000452, 9.998865 
1.5150698e+3, 2.748809e+2, -223441.03, -356452.94, -888.4306, 0.038404394, 0.2644456, -223435.1, 22754.879, 0.0, 10.00067, 9.998908 
1.5150638e+3, 2.848795e+2, -135032.4, -273202.13, 10776.007, 0.018026903, 0.2425386, -134197.02, 14006.173, 0.0, 10.000648, 9.998818 
1.5150577e+3, 2.948777e+2, -78845.49, -199951.4, 12033.698, -0.025307426, 0.17584856, -77661.34, -27441.04, 0.0, 10.000379, 9.998778 
1.5150523e+3, 3.048772e+2, -36647.914, -176504.45, 5845.1973, 0.01759124, 0.26283693, -36404.043, -36404.043, 0.0, 10.00043, 9.99858 
1.5150464e+3, 3.1487527e+2, 92601.51, 2833.082, 16697.072, 0.031960085, 0.19691707, 95606.59, 95606.59, 0.0, 10.000813, 9.999628 
1.5251525e+3, 1.249017e+2, -1579554.6, -1659650.5, -48866.547, 0.020265274, 0.18694223, -1556422.1, 159561.63, 0.01264397, 10.00099, 9.999905 
1.525148e+3, 1.3490145e+2, -1494022.0, -1607968.9, 41641.89, 0.037197966, 0.20520596, -1480426.1, 137559.42, 0.007646962, 10.001066, 9.999551 
1.5251426e+3, 1.4490049e+2, -1463813.5, -1618787.3, 3046.538, -0.011186556, 0.19037984, -1463753.6, 56242.363, 0.0034202072, 10.000925, 9.998867 
1.5251376e+3, 1.549e+2, -1415568.5, -1541167.8, 14630.267, 0.014658863, 0.24984893, -1413886.8, 8116.522, 0.0009266569, 10.000567, 9.9988985 
1.5251319e+3, 1.6489914e+2, -1320363.9, -1429245.3, -253.99062, 0.021011906, 0.2700438, -1320363.3, 3649.8975, 0.000098221106, 10.000483, 9.999035 
1.5251264e+3, 1.7489794e+2, -1188876.5, -1310334.1, -5393.516, 0.046009775, 0.23955509, -1188637.4, 37387.785, 0.0000008739153, 10.000691, 9.999078 
1.5251209e+3, 1.8489686e+2, -1107578.5, -1268968.5, 13675.99, 0.05342792, 0.24803829, -1106427.8, 21608.736, 0.0, 10.000785, 9.998644 
1.5251154e+3, 1.9489603e+2, -1010751.25, -1167750.1, 16531.525, 0.02877246, 0.29457992, -1009029.44, 21016.623, 0.0, 10.000761, 9.998677 
1.5251099e+3, 2.048948e+2, -931538.44, -1087963.0, 1277.7523, 0.023701593, 0.31073338, -931528.0, 530.90765, 0.0, 10.000671, 9.998596 
1.5251043e+3, 2.1489325e+2, -853077.94, -995242.4, 5589.137, 0.043943908, 0.29028082, -852858.56, -18784.082, 0.0, 10.000519, 9.998633 
1.5250987e+3, 2.2489184e+2, -732092.94, -849290.7, 10422.179, 0.049632993, 0.27414197, -731173.3, 4914.0464, 0.0, 10.000518, 9.998963 
1.525093e+3, 2.348907e+2, -608168.6, -733905.94, 6953.184, 0.037080333, 0.25652936, -607785.25, 30311.605, 0.0, 10.000675, 9.999006 
1.5250874e+3, 2.4488956e+2, -517574.16, -643006.56, 2771.9326, 0.03475763, 0.24491999, -517512.94, 22594.047, 0.0, 10.00064, 9.998974 
1.5250818e+3, 2.548885e+2, -451388.9, -555827.8, -1609.8137, 0.044797976, 0.23607, -451364.1, -9247.391, 0.0, 10.0004015, 9.999015 
1.5250762e+3, 2.6488754e+2, -369171.63, -467963.13, -1154.2397, 0.046926845, 0.24311069, -369158.16, -25032.74, 0.0, 10.000304, 9.998992 
1.5250704e+3, 2.7488673e+2, -261079.47, -359746.06, 5019.677, 0.038856547, 0.2559065, -260824.75, -14692.022, 0.0, 10.00035, 9.99904 
1.5250644e+3, 2.8488544e+2, -176483.05, -297420.1, 5864.697, 0.020116713, 0.23850584, -176199.31, -28054.04, 0.0, 10.000383, 9.998779 
1.5250583e+3, 2.948839e+2, -77794.57, -202688.36, -5070.1577, -0.0053593414, 0.20155762, -77589.08, -27428.193, 0.0, 10.000402, 9.998747 
1.5250528e+3, 3.0488348e+2, -8846.005, -126771.46, -1454.5277, 0.029368473, 0.28124902, -8828.066, -8828.066, 0.0, 10.000467, 9.998903 
1.525047e+3, 3.1488183e+2, 57745.957, -12798.865, 10521.221, 0.024986729, 0.2141074, 59281.688, 59281.688, 0.0, 10.000571, 9.999636 
1.5351532e+3, 1.2490724e+2, -1631684.0, -1770111.6, -46201.527, -0.0055753887, 0.120446704, -1617680.4, 98245.95, 0.013320751, 10.000996, 9.999141 
1.5351489e+3, 1.3490741e+2, -1543471.6, -1712372.4, 43752.223, 0.026465585, 0.2520985, -1532810.9, 85117.43, 0.008079103, 10.00107, 9.998833 
1.5351437e+3, 1.4490648e+2, -1435184.6, -1561280.0, -11536.895, -0.004819914, 0.25693533, -1434137.8, 85801.38, 0.0036348698, 10.000933, 9.999259 
1.5351385e+3, 1.5490527e+2, -1385625.4, -1480781.4, 473.5749, 0.05075665, 0.20355767, -1385623.0, 36327.414, 0.0009972175, 10.000573, 9.999311 
1.5351328e+3, 1.6490434e+2, -1330805.1, -1453575.3, 6475.0474, 0.05128834, 0.2045461, -1330464.6, -6504.4316, 0.000108598695, 10.000491, 9.998864 
1.535127e+3, 1.7490375e+2, -1200337.4, -1336278.9, 2207.3284, 0.032442622, 0.2526318, -1200301.5, 25666.291, 0.0000010362653, 10.000698, 9.998897 
1.5351215e+3, 1.8490282e+2, -1104012.3, -1262921.8, 12260.499, 0.026164962, 0.2823257, -1103071.9, 24906.557, 0.0, 10.000789, 9.998685 
1.5351161e+3, 1.9490165e+2, -1007635.56, -1161758.4, 15416.182, 0.02037575, 0.2899328, -1006108.7, 23882.361, 0.0, 10.000761, 9.998719 
1.5351106e+3, 2.0490031e+2, -923295.7, -1071348.1, -4849.929, 0.022760203, 0.28849885, -923137.0, 8867.574, 0.0, 10.000671, 9.998711 
1.5351048e+3, 2.1489891e+2, -844144.3, -978282.8, -12.627371, 0.038417444, 0.27194253, -844144.3, -10126.068, 0.0, 10.0005245, 9.998748 
1.5350993e+3, 2.2489765e+2, -736265.2, -859200.9, 16042.407, 0.03968172, 0.26604936, -734206.25, 1823.6663, 0.0, 10.000522, 9.998894 
1.5350936e+3, 2.348966e+2, -613425.4, -744905.1, 13352.398, 0.023797927, 0.26607546, -612083.06, 25955.664, 0.0, 10.000674, 9.998932 
1.535088e+3, 2.4489544e+2, -522955.88, -653895.1, -5659.6235, 0.030585391, 0.26101133, -522711.72, 17337.69, 0.0, 10.000638, 9.998901 
1.5350825e+3, 2.548943e+2, -456575.5, -567541.06, -9557.589, 0.062035013, 0.24789159, -455758.3, -13697.247, 0.0, 10.000404, 9.998934 
1.5350765e+3, 2.6489323e+2, -352928.13, -435842.75, 1348.6903, 0.058534663, 0.23787254, -352906.22, -8835.781, 0.0, 10.000309, 9.99921 
1.5350704e+3, 2.748923e+2, -244593.95, -327167.03, 7733.526, 0.017266221, 0.21980554, -243875.9, 2201.2288, 0.0, 10.000355, 9.999262 
1.5350647e+3, 2.848912e+2, -189917.28, -325872.44, 7465.85, 0.009726349, 0.2166137, -189508.53, -41420.25, 0.0, 10.000384, 9.998584 
1.5350592e+3, 2.9489005e+2, -91824.42, -231495.16, -3017.5247, 0.04053309, 0.24003984, -91759.26, -41657.42, 0.0, 10.0004, 9.998552 
1.5350537e+3, 3.048895e+2, 17157.62, -72882.47, 3620.0862, 0.06325285, 0.29865572, 17302.93, 17302.93, 0.0, 10.000465, 9.999275 
1.5350473e+3, 3.148881e+2, 67679.79, 6346.9297, 15338.176, -0.007734327, 0.21962877, 71301.695, 71301.695, 0.0, 10.000575, 9.999766 
1.5451539e+3, 1.2491324e+2, -1634449.0, -1791209.4, -68388.93, -0.032493975, 0.13848712, -1608807.6, 107059.73, 0.014032979, 10.001063, 9.998964 
1.5451501e+3, 1.3491301e+2, -1550602.3, -1728696.9, 62524.492, 0.037423514, 0.24153334, -1530843.6, 87030.164, 0.008535393, 10.001079, 9.998716 
1.5451449e+3, 1.4491208e+2, -1424206.8, -1548041.0, 5595.1655, 0.014200344, 0.25026566, -1423954.4, 95929.98, 0.0038615032, 10.000977, 9.999328 
1.5451391e+3, 1.5491097e+2, -1351320.9, -1456171.8, -7893.308, 0.05254624, 0.19892418, -1350730.0, 71164.35, 0.0010719306, 10.000775, 9.999382 
1.5451333e+3, 1.6491008e+2, -1300508.8, -1444905.4, 6058.2983, 0.046982188, 0.20303008, -1300255.0, 23648.438, 0.000119982535, 10.000727, 9.998811 
1.5451276e+3, 1.7490949e+2, -1183927.0, -1334315.6, 10137.709, 0.032461125, 0.25652692, -1183246.6, 42664.645, 0.0000011877057, 10.000838, 9.998842 
1.5451223e+3, 1.849085e+2, -1108128.5, -1263034.3, 11732.859, 0.027890384, 0.28228468, -1107244.9, 20677.746, 0.0, 10.000754, 9.998699 
1.5451168e+3, 1.9490717e+2, -1049042.9, -1180011.6, 12221.883, 0.020216279, 0.27627194, -1047912.1, -17975.768, 0.0, 10.000471, 9.9987335 
1.5451111e+3, 2.049059e+2, -949600.94, -1077105.5, -2606.0474, 0.02034639, 0.2746542, -949547.7, -17598.24, 0.0, 10.000463, 9.998772 
1.5451054e+3, 2.1490471e+2, -807897.2, -953950.0, -2398.5872, 0.032738894, 0.2725394, -807857.8, 26103.19, 0.0, 10.000745, 9.998808 
1.5450999e+3, 2.2490351e+2, -709237.06, -847141.4, 6811.4663, 0.036424875, 0.27088106, -708901.44, 27070.54, 0.0, 10.000713, 9.998883 
1.5450941e+3, 2.349024e+2, -660960.9, -769503.7, 8129.3545, 0.029675493, 0.26420707, -660355.4, -22373.742, 0.0, 10.000357, 9.998917 
1.5450884e+3, 2.4490118e+2, -573327.25, -679409.75, -2282.147, 0.034770526, 0.25643864, -573278.2, -33285.22, 0.0, 10.0002985, 9.998889 
1.5450828e+3, 2.549e+2, -436059.25, -559116.94, -2671.5217, 0.05158816, 0.24445143, -436001.28, 6003.648, 0.0, 10.000553, 9.9989195 
1.545077e+3, 2.64899e+2, -308269.38, -413980.72, 864.8035, 0.04737828, 0.23775364, -308262.3, 35751.92, 0.0, 10.000617, 9.999212 
1.5450709e+3, 2.7489814e+2, -226046.58, -318550.16, -9706.962, 0.020858875, 0.22600968, -225038.95, 20981.389, 0.0, 10.000485, 9.999258 
1.5450652e+3, 2.8489703e+2, -184699.88, -321927.2, -9136.4795, 0.021546435, 0.22455259, -184094.25, -36063.02, 0.0, 10.000417, 9.998595 
1.5450597e+3, 2.948959e+2, -89509.164, -227583.48, -5318.929, 0.053663068, 0.24404976, -89304.57, -39259.69, 0.0, 10.000407, 9.998574 
1.545054e+3, 3.04895e+2, 6035.2485, -79183.336, -2681.395, 0.06569137, 0.271995, 6119.535, 6119.535, 0.0, 10.000396, 9.999265 
1.5450476e+3, 3.1489423e+2, 28420.852, -27352.854, -20359.877, -0.010536007, 0.25415316, 35062.266, 35062.266, 0.0, 10.000373, 9.999631 
1.5551548e+3, 1.2491971e+2, -1607619.1, -1735671.3, -68101.78, -0.06032331, 0.23789531, -1578172.3, 137633.61, 0.014788676, 10.001065, 9.999347 
1.5551515e+3, 1.3491829e+2, -1519297.3, -1662738.5, 61815.03, 0.06798917, 0.17558348, -1496334.5, 121486.54, 0.009022213, 10.001076, 9.999171 
1.5551461e+3, 1.4491737e+2, -1441489.8, -1585208.5, -3070.6199, 0.043292187, 0.17544796, -1441424.1, 78406.84, 0.0041039125, 10.000979, 9.999072 
1.5551397e+3, 1.5491712e+2, -1368347.3, -1494398.8, -15882.895, 0.020765023, 0.23527238, -1366376.9, 55457.633, 0.0011519974, 10.000786, 9.999116 
1.5551336e+3, 1.6491637e+2, -1294987.4, -1436584.5, 9379.612, 0.009017733, 0.26337597, -1294368.8, 29473.994, 0.00013256267, 10.000738, 9.998863 
1.5551287e+3, 1.7491516e+2, -1179714.9, -1326349.1, 13979.569, 0.044066958, 0.2504616, -1178394.0, 47461.46, 0.0000013544981, 10.00084, 9.998898 
1.5551232e+3, 1.849139e+2, -1108986.0, -1265312.8, 668.1935, 0.054606576, 0.24874787, -1108983.1, 18885.617, 0.0, 10.000754, 9.998685 
1.5551174e+3, 1.949127e+2, -1048691.4, -1181895.5, 1505.132, 0.027752975, 0.25487435, -1048674.4, -18792.713, 0.0, 10.000481, 9.998716 
1.5551116e+3, 2.0491157e+2, -948454.4, -1077200.9, 7503.7974, 0.01655146, 0.27027994, -948018.5, -16125.154, 0.0, 10.000472, 9.998767 
1.555106e+3, 2.1491061e+2, -808459.1, -955074.75, 8167.098, 0.025689721, 0.2907456, -808005.6, 25897.123, 0.0, 10.000743, 9.998802 
1.5551005e+3, 2.2490941e+2, -706461.6, -841094.25, -6413.4194, 0.03800479, 0.28678253, -706156.8, 29756.908, 0.0, 10.0007105, 9.998927 
1.5550947e+3, 2.3490804e+2, -657502.25, -763418.44, -4700.2256, 0.05290549, 0.2520075, -657294.06, -19368.516, 0.0, 10.00036, 9.998958 
1.5550889e+3, 2.4490675e+2, -570333.6, -674577.06, 7578.9165, 0.04520709, 0.23250881, -569785.44, -29847.918, 0.0, 10.000303, 9.998921 
1.555083e+3, 2.5490564e+2, -433196.66, -554041.3, 7770.801, 0.014120904, 0.22479457, -432699.0, 9249.67, 0.0, 10.000556, 9.998954 
1.5550773e+3, 2.649048e+2, -322689.28, -444541.13, -3109.289, 0.014670339, 0.24176367, -322610.0, 21347.182, 0.0, 10.000618, 9.999002 
1.5550716e+3, 2.7490416e+2, -241764.2, -351559.22, -13164.745, 0.04691285, 0.27465737, -240207.78, 5754.7363, 0.0, 10.000485, 9.999033 
1.555066e+3, 2.8490296e+2, -170095.81, -292278.88, -8312.531, 0.051988218, 0.26229903, -169532.88, -21558.56, 0.0, 10.000418, 9.998799 
1.55506e+3, 2.9490128e+2, -73761.57, -196175.22, -4263.0547, 0.031783003, 0.21140127, -73613.29, -23622.633, 0.0, 10.00041, 9.99879 
1.5550542e+3, 3.0489993e+2, -21969.74, -138001.98, -2691.397, 0.034542043, 0.19882417, -21907.346, -21907.346, 0.0, 10.000397, 9.998861 
1.5550482e+3, 3.1489995e+2, 1981.1453, -83111.445, -18506.145, 0.014494328, 0.30620167, 5831.6665, 5831.6665, 0.0, 10.000375, 9.9992485 
1.565156e+3, 1.24925494e+2, -1601350.6, -1716697.0, -52337.293, -0.039636742, 0.24421734, -1581143.1, 134606.61, 0.015601244, 10.001043, 9.999485 
1.5651524e+3, 1.3492411e+2, -1553516.0, -1655017.4, 57943.617, 0.060042236, 0.16506903, -1527240.1, 90523.37, 0.009548585, 10.000735, 9.999387 
1.5651469e+3, 1.4492334e+2, -1484127.5, -1617708.4, -2070.461, 0.029569482, 0.17358221, -1484095.4, 35676.42, 0.0043674232, 10.000738, 9.998964 
1.5651406e+3, 1.5492304e+2, -1333054.9, -1489166.6, -3923.237, 0.023537736, 0.23901486, -1332956.4, 88819.914, 0.0012395727, 10.001082, 9.999007 
1.5651347e+3, 1.649222e+2, -1249507.3, -1416161.9, 15933.06, 0.014795696, 0.26564234, -1247997.6, 75787.9, 0.00014677673, 10.00106, 9.998847 
1.5651295e+3, 1.749209e+2, -1207776.1, -1341826.6, 14226.421, 0.03708634, 0.24572326, -1206283.0, 19515.84, 0.0000015913902, 10.000658, 9.998878 
1.5651238e+3, 1.849196e+2, -1136562.0, -1283789.5, 3207.8794, 0.04505125, 0.24272533, -1136492.1, -8679.682, 0.0, 10.000589, 9.998637 
1.565118e+3, 1.9491841e+2, -995283.9, -1161452.5, 886.46704, 0.026198626, 0.2536643, -995279.1, 34546.27, 0.0, 10.000872, 9.998668 
1.5651122e+3, 2.0491724e+2, -892806.6, -1050102.9, 4240.593, 0.019834308, 0.26788595, -892692.4, 39144.918, 0.0, 10.0008545, 9.998768 
1.5651068e+3, 2.149162e+2, -840337.0, -970938.9, 4711.0576, 0.030332778, 0.28068507, -840167.3, -6319.971, 0.0, 10.000527, 9.998796 
1.5651011e+3, 2.2491497e+2, -751175.8, -860356.4, -14704.86, 0.040588196, 0.27321577, -749230.0, -13371.403, 0.0, 10.000396, 9.998945 
1.565095e+3, 2.3491363e+2, -640439.7, -753166.25, -16510.58, 0.048606616, 0.23985934, -638071.25, -200.97324, 0.0, 10.00047, 9.998974 
1.5650892e+3, 2.4491242e+2, -541399.2, -658125.4, 3825.359, 0.03625675, 0.22531904, -541273.94, -1392.3702, 0.0, 10.000493, 9.998942 
1.5650834e+3, 2.5491142e+2, -445109.2, -557569.2, 2555.0156, 0.0035341335, 0.22561742, -445051.16, -3159.554, 0.0, 10.000466, 9.998972 
1.5650778e+3, 2.6491052e+2, -354336.56, -468001.66, -11691.8125, 0.009387316, 0.24215017, -353146.38, -9245.68, 0.0, 10.000439, 9.998927 
1.5650721e+3, 2.7490973e+2, -259669.56, -368839.63, -12691.837, 0.05412598, 0.26633385, -258213.45, -12305.055, 0.0, 10.000403, 9.998953 
1.5650664e+3, 2.8490856e+2, -173383.5, -286699.13, -4711.041, 0.061544977, 0.26205477, -173187.97, -25268.377, 0.0, 10.000366, 9.998861 
1.5650603e+3, 2.949072e+2, -80135.44, -191368.61, -11533.2, 0.031169653, 0.23616974, -78952.21, -29019.984, 0.0, 10.000335, 9.998858 
1.5650545e+3, 3.0490547e+2, -34831.047, -152749.42, -2195.4414, 0.027624285, 0.18433724, -34790.184, -34790.184, 0.0, 10.000346, 9.998784 
1.5650487e+3, 3.149055e+2, 10183.645, -71318.54, 8151.6367, 0.024575964, 0.29627126, 10990.953, 10990.953, 0.0, 10.000398, 9.999318 
1.5751576e+3, 1.249307e+2, -1608842.8, -1733657.9, -66926.695, 0.0239111, 0.16459292, -1579741.4, 135956.34, 0.016485114, 10.001047, 9.999369 
1.5751526e+3, 1.3493052e+2, -1554551.8, -1659745.3, 44897.81, 0.014188263, 0.20850836, -1537994.9, 79705.78, 0.010123526, 10.000745, 9.999351 
1.5751469e+3, 1.4492999e+2, -1479952.3, -1611851.1, 8899.845, -0.025348486, 0.2415601, -1479354.4, 40352.26, 0.004657013, 10.00075, 9.999001 
1.5751421e+3, 1.5492876e+2, -1330510.4, -1484228.8, 8518.859, 0.058340326, 0.2109461, -1330039.6, 91679.6, 0.00133678, 10.001082, 9.9990425 
1.5751362e+3, 1.6492766e+2, -1255275.5, -1429101.0, 195.74751, 0.059878264, 0.21323825, -1255275.3, 68455.78, 0.00016297578, 10.001061, 9.998757 
1.5751298e+3, 1.7492676e+2, -1212824.5, -1355505.9, -1331.2427, 0.0120019475, 0.24259676, -1212812.1, 12928.954, 0.0000019381066, 10.0006695, 9.998779 
1.575124e+3, 1.8492562e+2, -1141022.8, -1296211.1, 13116.657, 0.00042302077, 0.26324433, -1139921.9, -12168.298, 0.0, 10.000602, 9.998547 
1.5751186e+3, 1.9492428e+2, -1001560.5, -1174953.3, 11281.286, 0.014309301, 0.2713983, -1000829.6, 28937.87, 0.0, 10.000872, 9.998575 
1.5751131e+3, 2.049229e+2, -893138.75, -1050278.5, -8125.334, 0.027726777, 0.26683933, -892719.75, 39061.66, 0.0, 10.00085, 9.99877 
1.5751074e+3, 2.1492149e+2, -840039.06, -971098.25, -7155.9937, 0.045602832, 0.2437361, -839649.44, -5854.926, 0.0, 10.000529, 9.9987955 
1.5751016e+3, 2.249202e+2, -752175.94, -863854.8, -11712.293, 0.043205764, 0.23211013, -750960.8, -15154.4375, 0.0, 10.000401, 9.99892 
1.5750954e+3, 2.3491913e+2, -641656.56, -756696.3, -13134.831, 0.017633045, 0.22734612, -640175.94, -2360.026, 0.0, 10.000472, 9.998949 
1.5750895e+3, 2.4491812e+2, -540483.7, -656948.4, 3416.3691, 0.008487298, 0.23371772, -540383.56, -558.17084, 0.0, 10.000494, 9.99895 
1.575084e+3, 2.5491726e+2, -445053.4, -557424.4, 2691.7168, 0.016901063, 0.2470739, -444988.94, -3155.109, 0.0, 10.0004635, 9.998975 
1.5750784e+3, 2.6491615e+2, -351604.4, -462590.0, -11791.811, 0.027697882, 0.23936376, -350365.4, -6520.3706, 0.0, 10.000438, 9.998966 
1.5750726e+3, 2.7491477e+2, -255936.3, -362606.47, -12722.594, 0.041750662, 0.20068936, -254439.86, -8581.318, 0.0, 10.000407, 9.998995 
1.5750666e+3, 2.8491384e+2, -177666.55, -297196.97, -5139.0693, 0.04983603, 0.22351055, -177446.02, -29578.352, 0.0, 10.000371, 9.998788 
1.5750608e+3, 2.9491365e+2, -85293.086, -203560.02, -11429.841, 0.050121043, 0.31674606, -84198.586, -34328.33, 0.0, 10.000338, 9.998775 
1.575055e+3, 3.0491158e+2, -17974.354, -118059.12, 773.96875, 0.04260519, 0.22788814, -17968.367, -17968.367, 0.0, 10.000347, 9.9990225 
1.575049e+3, 3.149105e+2, 46500.71, 4160.3647, 15460.562, 0.011507977, 0.20762776, 51545.137, 51545.137, 0.0, 10.000396, 9.999839 
1.5851587e+3, 1.2493653e+2, -1660700.6, -1770319.3, -71188.625, 0.03489997, 0.15532373, -1625666.3, 89974.11, 0.017450042, 10.000738, 9.999265 
1.5851535e+3, 1.3493642e+2, -1514768.1, -1642806.0, 42580.766, 0.0067133466, 0.20741569, -1501900.5, 115742.3, 0.010752754, 10.001035, 9.999325 
1.5851478e+3, 1.4493594e+2, -1435526.3, -1585828.4, 7935.452, -0.029280568, 0.24417637, -1435108.5, 84539.78, 0.0049755895, 10.00104, 9.999036 
1.585143e+3, 1.5493454e+2, -1375324.9, -1501982.4, 5774.8696, 0.07017813, 0.19583747, -1375062.1, 46599.92, 0.0014447373, 10.00076, 9.999074 
1.5851372e+3, 1.649334e+2, -1307185.5, -1465770.9, -5905.979, 0.07286161, 0.19654767, -1306965.9, 16708.424, 0.00018110967, 10.000758, 9.9986515 
1.5851305e+3, 1.7493252e+2, -1165064.3, -1344286.8, -9167.251, 0.010548122, 0.2406201, -1164596.5, 61087.813, 0.000002389593, 10.001052, 9.998671 
1.5851246e+3, 1.8493135e+2, -1076559.0, -1265399.0, 8246.037, -0.006854513, 0.26400173, -1076199.6, 51497.508, 0.0, 10.001048, 9.998542 
1.5851194e+3, 1.9492993e+2, -1022472.06, -1185790.6, 12022.95, 0.0097500915, 0.26359135, -1021591.75, 8120.001, 0.0, 10.000734, 9.998567 
1.5851137e+3, 2.0492853e+2, -937765.6, -1069667.0, -10140.815, 0.026254473, 0.25748947, -936990.5, -5264.824, 0.0, 10.000536, 9.998787 
1.5851079e+3, 2.149272e+2, -849139.2, -973262.6, -9386.855, 0.046571307, 0.2398957, -848433.3, -14695.115, 0.0, 10.00046, 9.998813 
1.585102e+3, 2.2492592e+2, -745519.3, -863020.56, -3167.56, 0.041739542, 0.22953872, -745434.0, -9684.108, 0.0, 10.000458, 9.9988985 
1.5850957e+3, 2.349248e+2, -633517.5, -755226.6, -4396.887, 0.0090251565, 0.2213649, -633358.9, 4401.058, 0.0, 10.000541, 9.998925 
1.5850899e+3, 2.4492374e+2, -543662.2, -658670.9, 3877.7063, 0.0033309911, 0.22532728, -543531.6, -3761.8657, 0.0, 10.000476, 9.998945 
1.5850845e+3, 2.5492287e+2, -476287.8, -573123.8, 900.0238, 0.024959086, 0.23786621, -476279.47, -34501.137, 0.0, 10.000255, 9.998966 
1.5850787e+3, 2.6492172e+2, -384836.78, -479878.22, -8705.25, 0.034298193, 0.232027, -384046.0, -40256.453, 0.0, 10.0002165, 9.998953 
1.5850727e+3, 2.749204e+2, -262415.13, -366648.1, -14246.397, 0.032307893, 0.1987843, -260503.03, -14700.138, 0.0, 10.00037, 9.998983 
1.5850669e+3, 2.8491953e+2, -167989.52, -287790.84, -8790.471, 0.03945989, 0.22192693, -167347.95, -19536.068, 0.0, 10.00042, 9.998828 
1.5850611e+3, 2.9491928e+2, -80884.43, -196751.81, -7590.0977, 0.054017846, 0.30930743, -80389.34, -30574.836, 0.0, 10.000352, 9.998812 
1.5850553e+3, 3.0491722e+2, -42929.88, -128918.664, -1791.978, 0.049889375, 0.21458547, -42892.55, -42892.55, 0.0, 10.000172, 9.999031 
1.5850492e+3, 3.1491628e+2, -5215.5786, 15265.395, -112.77574, 0.016164891, 0.2105031, 15266.016, 15266.016, 0.0, 9.999887, 10.000157 
1.595159e+3, 1.2494304e+2, -1665818.3, -1782664.8, -63944.543, -0.003367341, 0.21618451, -1637626.4, 77950.76, 0.01849943, 10.000744, 9.999177 
1.5951549e+3, 1.3494185e+2, -1515246.9, -1645211.5, 52902.027, 0.034540743, 0.16316211, -1496435.9, 121153.1, 0.011438222, 10.00104, 9.999308 
1.5951493e+3, 1.4494123e+2, -1432701.1, -1582455.5, -3955.5364, 0.013104223, 0.18493237, -1432596.8, 86998.81, 0.0053240876, 10.001049, 9.999057 
1.5951437e+3, 1.5494041e+2, -1372778.6, -1499653.1, -5745.1353, 0.05924352, 0.19308254, -1372519.1, 49084.895, 0.0015636364, 10.000771, 9.999086 
1.5951379e+3, 1.649394e+2, -1314834.0, -1484261.9, 3828.8865, 0.054633904, 0.213924, -1314747.5, 8867.538, 0.0002008773, 10.000768, 9.99852 
1.5951319e+3, 1.7493823e+2, -1174266.6, -1363861.0, 1658.6573, 0.030318841, 0.24013552, -1174252.1, 51376.176, 0.000002909139, 10.001052, 9.998536 
1.595126e+3, 1.8493687e+2, -1071372.6, -1254714.3, -3856.3074, 0.019364139, 0.24685067, -1071291.5, 56351.45, 0.0, 10.001046, 9.998616 
1.5951201e+3, 1.9493537e+2, -1016622.2, -1175404.3, 324.78372, 0.0118708955, 0.23075056, -1016621.5, 13036.508, 0.0, 10.00074, 9.998636 
1.5951143e+3, 2.0493415e+2, -935385.7, -1067030.3, -13221.089, 0.015090902, 0.23954983, -934071.0, -2400.8115, 0.0, 10.000545, 9.998802 
1.5951082e+3, 2.1493329e+2, -847361.4, -970953.56, -12229.871, 0.032841798, 0.26812315, -846162.8, -12484.33, 0.0, 10.0004635, 9.998828 
1.5951023e+3, 2.2493207e+2, -746284.94, -865556.56, -248.13191, 0.035135124, 0.26425597, -746284.44, -10594.896, 0.0, 10.00046, 9.99888 
1.5950963e+3, 2.3493059e+2, -635057.5, -758385.7, -334.033, 0.020652708, 0.22194627, -635056.6, 2645.9255, 0.0, 10.000539, 9.998905 
1.5950905e+3, 2.4492925e+2, -546320.9, -664475.3, -3630.3704, 0.018041603, 0.20133162, -546209.44, -6494.625, 0.0, 10.000475, 9.998907 
1.5950847e+3, 2.549282e+2, -477912.22, -578281.5, -6367.504, 0.02761441, 0.19844082, -477509.88, -35784.434, 0.0, 10.00026, 9.99893 
1.5950789e+3, 2.6492727e+2, -388307.66, -489260.63, -2231.0845, 0.029586324, 0.22005506, -388258.38, -44523.598, 0.0, 10.000224, 9.998885 
1.595073e+3, 2.749266e+2, -267545.03, -377717.78, -7305.506, 0.023894323, 0.2591577, -267062.72, -21320.592, 0.0, 10.000369, 9.998909 
1.5950672e+3, 2.8492552e+2, -158304.89, -267598.88, -10073.44, 0.027768472, 0.2559716, -157384.19, -9631.133, 0.0, 10.000418, 9.998968 
1.5950614e+3, 2.949241e+2, -70351.98, -176767.48, -9198.703, 0.03972831, 0.21390797, -69562.69, -19796.852, 0.0, 10.000358, 9.998948 
1.5950555e+3, 3.0492225e+2, -58271.047, -161526.02, -12391.308, 0.046581358, 0.14689448, -56804.824, -56804.824, 0.0, 10.000174, 9.998806 
1.5950494e+3, 3.149226e+2, 1202.9731, 27865.62, -4850.0435, 0.0353488, 0.29192343, 28720.455, 28720.455, 0.0, 9.999888, 10.000245 
1.6051596e+3, 1.2494887e+2, -1647084.4, -1761028.3, -71282.95, -0.017542329, 0.23175234, -1612803.5, 102717.41, 0.019635098, 10.000823, 9.999288 
1.6051559e+3, 1.3494757e+2, -1525206.1, -1631642.4, 58471.516, 0.053097114, 0.15183197, -1499360.5, 118172.38, 0.012182242, 10.000894, 9.999471 
1.6051507e+3, 1.44947e+2, -1452689.3, -1607984.0, -7024.3228, 0.03647861, 0.17845102, -1452372.3, 67166.6, 0.0057041305, 10.000983, 9.998912 
1.6051446e+3, 1.549463e+2, -1331869.1, -1495884.4, -20550.059, 0.041062392, 0.21151814, -1329333.5, 92213.586, 0.0016940435, 10.001124, 9.9989395 
1.6051385e+3, 1.6494524e+2, -1264853.9, -1453022.0, -6796.4546, 0.029317338, 0.23280855, -1264608.8, 58949.94, 0.00022220024, 10.001084, 9.99858 
1.6051328e+3, 1.7494392e+2, -1200157.6, -1369459.4, 3686.7893, 0.032699928, 0.23771764, -1200077.4, 25495.217, 0.000003466771, 10.000848, 9.998595 
1.605127e+3, 1.8494251e+2, -1119738.6, -1277861.3, -4391.535, 0.030182954, 0.23877649, -1119616.8, 7970.53, 0.0, 10.000716, 9.998615 
1.6051209e+3, 1.9494112e+2, -1022961.9, -1178600.1, -6501.3193, 0.010539353, 0.2313204, -1022690.8, 6910.776, 0.0, 10.0007, 9.998632 
1.6051148e+3, 2.0493993e+2, -908458.56, -1054652.8, -17865.117, 0.005518296, 0.24384223, -906307.06, 25306.412, 0.0, 10.000734, 9.998795 
1.6051088e+3, 2.1493906e+2, -795889.9, -947232.1, -18764.12, 0.01925278, 0.27202567, -793598.1, 40023.824, 0.0, 10.000824, 9.998816 
1.6051027e+3, 2.2493786e+2, -712552.1, -844108.8, -11832.346, 0.029120186, 0.26791707, -711496.4, 24136.48, 0.0, 10.000671, 9.998924 
1.6050969e+3, 2.3493642e+2, -671945.6, -771516.3, -9343.992, 0.033340655, 0.22569081, -671076.4, -33431.12, 0.0, 10.000267, 9.998945 
1.605091e+3, 2.4493507e+2, -589713.7, -688887.1, -3084.406, 0.029726572, 0.20325623, -589617.9, -49960.285, 0.0, 10.000194, 9.998875 
1.605085e+3, 2.5493392e+2, -450024.78, -568004.8, -5909.7363, 0.017732533, 0.19659959, -449729.47, -8060.641, 0.0, 10.000468, 9.9988985 
1.6050792e+3, 2.6493296e+2, -347090.66, -467237.7, -1616.1724, 0.017866094, 0.21351081, -347068.9, -3390.467, 0.0, 10.000502, 9.9989 
1.6050735e+3, 2.7493227e+2, -279762.3, -382388.9, -1189.5712, 0.03063675, 0.24706438, -279748.53, -34062.75, 0.0, 10.000283, 9.998916 
1.6050677e+3, 2.8493112e+2, -191557.92, -284037.22, -5267.0176, 0.03344895, 0.24195506, -191258.92, -43562.008, 0.0, 10.000194, 9.998962 
1.6050616e+3, 2.9492974e+2, -91513.24, -187098.52, -16880.883, 0.023747327, 0.20397109, -88619.586, -38909.79, 0.0, 10.0002165, 9.998943 
1.6050555e+3, 3.049281e+2, -76738.03, -189962.27, -30045.424, 0.038525064, 0.16582201, -69259.125, -69259.125, 0.0, 10.000133, 9.99863 
1.6050494e+3, 3.1492797e+2, 17992.19, 39163.23, -14958.677, 0.053104907, 0.28116354, 46902.973, 46902.973, 0.0, 9.999992, 10.000271 
1.6151606e+3, 1.2495411e+2, -1626516.9, -1720594.9, -73980.75, -0.01129185, 0.20319286, -1585887.1, 129583.84, 0.02086322, 10.000833, 9.999563 
1.6151568e+3, 1.3495363e+2, -1502222.6, -1585886.1, 59276.195, 0.06170069, 0.17297186, -1471504.0, 145969.86, 0.0129916845, 10.000901, 9.9997835 
1.6151516e+3, 1.4495331e+2, -1472576.5, -1651234.1, -3524.8281, 0.041054353, 0.22353606, -1472507.0, 46970.52, 0.0061206263, 10.000989, 9.998612 
1.6151454e+3, 1.5495224e+2, -1353047.4, -1540447.8, -15288.576, 0.0146423485, 0.2500849, -1351808.3, 69682.61, 0.0018382268, 10.001125, 9.998634 
1.6151391e+3, 1.6495097e+2, -1248092.5, -1419234.6, -16029.749, -0.0046402877, 0.25348136, -1246604.1, 76900.44, 0.00024563554, 10.001086, 9.998813 
1.6151336e+3, 1.7494962e+2, -1182862.0, -1335818.3, -5516.0005, 0.017898627, 0.23237035, -1182663.4, 42853.902, 0.0000040686878, 10.000855, 9.998824 
1.6151276e+3, 1.8494834e+2, -1124335.6, -1289516.5, -5766.4546, 0.025385689, 0.23811668, -1124134.5, 3395.569, 0.0, 10.000724, 9.998532 
1.6151215e+3, 1.9494717e+2, -1028515.94, -1191427.9, -7222.622, 0.005024248, 0.26498047, -1028196.3, 1346.0437, 0.0, 10.000704, 9.998543 
1.6151154e+3, 2.0494586e+2, -910279.1, -1059094.5, -14877.253, -0.003753735, 0.27103564, -908806.4, 22749.186, 0.0, 10.000735, 9.998764 
1.6151094e+3, 2.1494448e+2, -798123.06, -951981.6, -14710.279, 0.0045675696, 0.25185552, -796729.25, 36839.387, 0.0, 10.000822, 9.998785 
1.6151033e+3, 2.2494325e+2, -706672.06, -832597.1, -26609.543, 0.02191885, 0.24112892, -701280.0, 34299.797, 0.0, 10.000672, 9.999004 
1.6150972e+3, 2.3494223e+2, -665460.1, -759867.3, -24021.504, 0.046927165, 0.23287381, -659699.44, -22111.14, 0.0, 10.000273, 9.999023 
1.6150911e+3, 2.449411e+2, -590870.44, -693210.0, 7363.1978, 0.038196582, 0.23059648, -590343.4, -50744.938, 0.0, 10.000199, 9.998842 
1.6150852e+3, 2.5494e+2, -452521.16, -573172.3, 5596.1313, -0.0059254738, 0.23113456, -452262.16, -10653.109, 0.0, 10.000466, 9.998865 
1.6150795e+3, 2.649387e+2, -341822.16, -456269.13, -8639.374, -0.0028880541, 0.21293756, -341173.66, 2447.427, 0.0, 10.0005, 9.998978 
1.615074e+3, 2.7493724e+2, -273481.13, -371420.5, -8138.842, 0.050382886, 0.16509558, -272809.4, -27175.064, 0.0, 10.00029, 9.998989 
1.615068e+3, 2.849363e+2, -201510.44, -306922.16, -3890.041, 0.0545057, 0.18130106, -201367.08, -53722.92, 0.0, 10.000201, 9.998802 
1.6150615e+3, 2.949361e+2, -102221.22, -210607.48, -16109.608, 0.0047582407, 0.27505627, -99877.51, -50229.758, 0.0, 10.000219, 9.998782 
1.6150555e+3, 3.0493462e+2, -85666.555, -208092.22, -35127.52, 0.024204252, 0.26861265, -76303.516, -76303.516, 0.0, 10.000131, 9.998507 
1.6150495e+3, 3.1493238e+2, 12775.623, 28018.377, -13964.48, 0.061621632, 0.18472217, 36305.867, 36305.867, 0.0, 9.999992, 10.000195 
1.6251616e+3, 1.2495983e+2, -1643707.1, -1740840.5, -55678.754, 0.011893986, 0.20440684, -1618389.8, 97025.664, 0.022194505, 10.000768, 9.999453 
1.6251577e+3, 1.3495952e+2, -1486881.1, -1587134.4, 53314.734, 0.044114638, 0.1987599, -1463829.0, 153588.44, 0.013876058, 10.001049, 9.999702 
1.6251525e+3, 1.4495918e+2, -1455802.8, -1635977.1, -19205.613, 0.02576037, 0.24989818, -1453778.3, 65642.92, 0.0065799933, 10.001077, 9.998673 
1.6251464e+3, 1.5495792e+2, -1387525.6, -1550059.6, -6074.052, 0.018701557, 0.24949151, -1387299.0, 34136.785, 0.0019995468, 10.000861, 9.998694 
1.6251403e+3, 1.6495661e+2, -1290944.9, -1441454.4, -3233.799, 0.0009993807, 0.24838816, -1290875.5, 32573.977, 0.00027234203, 10.000801, 9.9987955 
1.6251343e+3, 1.7495543e+2, -1176409.8, -1334658.5, -11328.297, 0.007441432, 0.24503215, -1175602.9, 49858.023, 0.0000047643325, 10.000911, 9.998803 
1.6251284e+3, 1.8495414e+2, -1092553.3, -1272004.1, -16919.715, 0.014365673, 0.25149253, -1090971.9, 36501.69, 0.0, 10.000935, 9.998549 
1.6251223e+3, 1.9495285e+2, -1004586.94, -1178061.8, -11531.601, 0.009072795, 0.26295352, -1003823.75, 25662.943, 0.0, 10.000862, 9.998557 
1.6251162e+3, 2.0495147e+2, -917184.75, -1061488.1, -16107.3955, 0.006755016, 0.2600526, -915408.7, 16091.699, 0.0, 10.000686, 9.998771 
1.62511e+3, 2.1495005e+2, -859383.75, -980944.94, -14859.033, 0.011885594, 0.2375635, -857593.8, -24080.166, 0.0, 10.0004015, 9.998788 
1.625104e+3, 2.2494885e+2, -749571.6, -855806.5, -28113.096, 0.023667222, 0.23171224, -742590.75, -7066.1216, 0.0, 10.00039, 9.99898 
1.6250977e+3, 2.3494793e+2, -610020.94, -735693.94, -33210.875, 0.04041268, 0.23656282, -601784.3, 35748.133, 0.0, 10.000667, 9.998998 
1.6250916e+3, 2.4494681e+2, -526265.06, -655363.9, -2625.2207, 0.030408012, 0.23233119, -526211.7, 13330.716, 0.0, 10.000617, 9.998899 
1.6250856e+3, 2.549456e+2, -483008.63, -581739.0, 828.63513, -0.0077367956, 0.21734153, -483001.66, -41448.434, 0.0, 10.000233, 9.998918 
1.6250797e+3, 2.6494434e+2, -393303.03, -476412.56, -10004.723, 0.00086318085, 0.19487421, -392115.63, -48550.805, 0.0, 10.000127, 9.999018 
1.6250743e+3, 2.7494296e+2, -269013.16, -364031.56, -12387.96, 0.058564216, 0.15187223, -267424.63, -21847.61, 0.0, 10.000301, 9.999032 
1.6250682e+3, 2.849419e+2, -189182.16, -310539.03, -8445.921, 0.057864003, 0.16440065, -188597.17, -41009.67, 0.0, 10.000329, 9.9987135 
1.6250616e+3, 2.9494154e+2, -112135.18, -224707.27, -17107.256, -0.005478889, 0.25051367, -109592.85, -59999.746, 0.0, 10.000195, 9.998695 
1.6250555e+3, 3.049404e+2, -89597.26, -201652.47, -27106.45, 0.023562795, 0.27578744, -83384.586, -83384.586, 0.0, 10.000068, 9.998581 
1.6250494e+3, 3.149378e+2, 8479.61, 21419.447, 11804.832, 0.056815874, 0.14914395, 28411.1, 28411.1, 0.0, 9.999982, 10.000155 
1.6351627e+3, 1.2496609e+2, -1674438.4, -1809184.6, -51310.56, 0.04761141, 0.23814909, -1657124.4, 58229.324, 0.023638725, 10.000781, 9.998977 
1.6351584e+3, 1.3496529e+2, -1517736.1, -1652981.5, 63655.367, -0.00013129765, 0.22758614, -1492488.9, 124874.09, 0.014842009, 10.001054, 9.9992485 
1.6351531e+3, 1.4496471e+2, -1428215.3, -1579816.8, -28343.62, -0.010044683, 0.25743768, -1423089.4, 96279.555, 0.0070861573, 10.001081, 9.999059 
1.6351476e+3, 1.5496336e+2, -1358956.0, -1493273.9, -14768.371, 0.05083546, 0.21213049, -1357351.4, 64029.996, 0.00218032, 10.00087, 9.999081 
1.6351415e+3, 1.6496222e+2, -1307555.4, -1478276.9, -154.9207, 0.04325794, 0.21946086, -1307555.3, 15837.946, 0.00030356596, 10.00081, 9.99854 
1.6351351e+3, 1.7496136e+2, -1194163.0, -1372985.4, -7298.9424, 0.00009870712, 0.27546453, -1193865.5, 31537.871, 0.000005612588, 10.000916, 9.998539 
1.6351292e+3, 1.8495998e+2, -1084591.6, -1256211.3, -19741.049, -0.0040084235, 0.2791454, -1082350.1, 45067.367, 0.0, 10.0009365, 9.998658 
1.6351233e+3, 1.9495815e+2, -996458.25, -1161946.4, -13927.156, 0.021076897, 0.2258403, -995294.4, 34139.984, 0.0, 10.000864, 9.998668 
1.6351172e+3, 2.049567e+2, -914896.6, -1058016.4, -26748.768, 0.034670193, 0.21106324, -910060.75, 21387.232, 0.0, 10.0006895, 9.998794 
1.6351108e+3, 2.1495573e+2, -857313.4, -978493.06, -25321.475, 0.04014344, 0.23021214, -852235.06, -18777.887, 0.0, 10.000408, 9.998802 
1.6351044e+3, 2.2495465e+2, -756910.9, -872979.6, -17764.242, 0.033718053, 0.24093944, -754252.94, -18785.475, 0.0, 10.000397, 9.99886 
1.6350982e+3, 2.3495351e+2, -618446.44, -753729.3, -21797.137, 0.013261864, 0.23640136, -615021.1, 22456.656, 0.0, 10.000668, 9.998875 
1.6350919e+3, 2.4495216e+2, -517425.75, -637382.7, -15959.2705, 0.005166633, 0.20927534, -515338.8, 24150.828, 0.0, 10.000617, 9.999024 
1.635086e+3, 2.549507e+2, -473637.4, -564114.0, -12364.3125, 0.010786117, 0.15714593, -471978.16, -30476.414, 0.0, 10.000238, 9.999037 
1.6350801e+3, 2.6494974e+2, -392315.44, -476427.2, -2784.2588, 0.027492514, 0.15970987, -392223.38, -48713.17, 0.0, 10.0001335, 9.999016 
1.6350746e+3, 2.7494925e+2, -269080.25, -364871.53, -4832.1895, 0.05505071, 0.20442848, -268837.13, -23322.328, 0.0, 10.000301, 9.999027 
1.6350685e+3, 2.8494793e+2, -191264.4, -314686.97, -12780.579, 0.042641826, 0.18987094, -189954.86, -42426.94, 0.0, 10.000326, 9.998688 
1.6350618e+3, 2.949461e+2, -113077.88, -228150.25, -21779.219, -0.011218107, 0.13451265, -109093.766, -59547.33, 0.0, 10.000198, 9.998671 
1.6350558e+3, 3.049454e+2, -69995.086, -161936.8, -30252.475, 0.033066258, 0.19061892, -60933.848, -60933.848, 0.0, 10.000071, 9.998853 
1.6350491e+3, 3.1494427e+2, 6881.196, 17143.96, 10993.542, 0.038799692, 0.1870558, 24144.729, 24144.729, 0.0, 9.999984, 10.000126 
1.6451639e+3, 1.24971844e+2, -1617819.0, -1784622.1, -74682.9, 0.065814674, 0.2511238, -1589268.1, 126029.766, 0.025201252, 10.001197, 9.998946 
1.6451591e+3, 1.3497086e+2, -1546636.6, -1670677.5, 72664.89, -0.005930027, 0.22613472, -1513123.1, 104185.95, 0.015891703, 10.000871, 9.999214 
1.6451542e+3, 1.4497028e+2, -1457395.1, -1582118.3, -12056.008, -0.011224833, 0.25347072, -1456240.5, 63074.34, 0.007640092, 10.000831, 9.999162 
1.6451485e+3, 1.549691e+2, -1317854.1, -1462320.3, -19489.459, 0.047386907, 0.21403216, -1315271.0, 106054.0, 0.002381096, 10.001106, 9.999179 
1.6451423e+3, 1.6496795e+2, -1265301.9, -1466895.6, -12746.838, 0.04041826, 0.21970068, -1264499.0, 58837.77, 0.00034007852, 10.00114, 9.998458 
1.6451362e+3, 1.7496693e+2, -1199653.4, -1384967.3, -7580.327, 0.0012254481, 0.26745152, -1199343.8, 26005.3, 0.000006640927, 10.000919, 9.998453 
1.64513e+3, 1.849656e+2, -1102606.1, -1252896.1, -14744.891, 0.002389525, 0.27466303, -1101173.1, 26189.773, 0.0, 10.000763, 9.998763 
1.6451243e+3, 1.94964e+2, -1017608.0, -1160713.8, -10482.822, 0.03281476, 0.23573038, -1016844.2, 12533.06, 0.0, 10.000671, 9.998768 
1.645118e+3, 2.049626e+2, -915711.06, -1060010.4, -24627.025, 0.045320686, 0.22104852, -911623.8, 19766.434, 0.0, 10.000692, 9.998777 
1.6451114e+3, 2.1496148e+2, -797074.7, -951678.75, -26594.75, 0.043445405, 0.22674471, -792627.8, 40772.91, 0.0, 10.000833, 9.998781 
1.645105e+3, 2.2496034e+2, -700697.0, -840724.44, -11917.701, 0.031975016, 0.23150092, -699689.9, 35721.37, 0.0, 10.000762, 9.998904 
1.6450986e+3, 2.3495927e+2, -642886.7, -760899.75, -5467.456, 0.008341675, 0.22875574, -642633.94, -5213.0015, 0.0, 10.000481, 9.998915 
1.6450924e+3, 2.4495797e+2, -550021.44, -649984.9, -2571.48, 0.004203127, 0.20238252, -549955.4, -10523.07, 0.0, 10.0003805, 9.999051 
1.6450864e+3, 2.549565e+2, -439349.97, -544541.1, -6737.467, 0.020355672, 0.14933462, -438920.2, 2523.8787, 0.0, 10.000463, 9.999063 
1.6450804e+3, 2.6495555e+2, -371996.4, -477375.38, -2285.1626, 0.034142975, 0.15486997, -371946.88, -28494.125, 0.0, 10.000322, 9.998917 
1.6450746e+3, 2.7495503e+2, -325527.34, -403449.63, -11960.697, 0.045192845, 0.20788842, -323732.78, -78274.78, 0.0, 9.999965, 9.998923 
1.6450685e+3, 2.8495368e+2, -245437.72, -327208.72, -13345.714, 0.030151477, 0.18644583, -243314.7, -95843.195, 0.0, 9.999897, 9.998807 
1.645062e+3, 2.9495174e+2, -118913.51, -215216.28, -12250.676, -0.010431804, 0.1095556, -117379.54, -67889.51, 0.0, 10.0000925, 9.998809 
1.645056e+3, 3.0495122e+2, -56814.535, -148949.3, -26560.088, 0.04941277, 0.17515066, -49706.344, -49706.344, 0.0, 10.000134, 9.99891 
1.645049e+3, 3.1495032e+2, -4978.753, -21986.207, -4099.7505, 0.016634114, 0.187959, -4042.0706, -4042.0706, 0.0, 10.000049, 9.999824 
1.6551651e+3, 1.24977164e+2, -1591396.9, -1729423.0, -91020.14, 0.064944014, 0.24474016, -1546184.4, 169062.53, 0.026885493, 10.001199, 9.999329 
1.6551603e+3, 1.349763e+2, -1520067.3, -1618056.5, 59730.484, 0.023646567, 0.1973408, -1491807.8, 125447.53, 0.017026437, 10.000882, 9.999571 
1.6551553e+3, 1.4497596e+2, -1467966.1, -1607198.0, -3092.3223, 0.019002274, 0.23932147, -1467897.5, 51360.957, 0.008242797, 10.000841, 9.998986 
1.6551493e+3, 1.5497515e+2, -1329644.4, -1488705.4, -9342.222, 0.008438383, 0.25206968, -1329097.6, 92169.07, 0.002602117, 10.001112, 9.998996 
1.655143e+3, 1.6497383e+2, -1259198.1, -1455279.5, -21290.432, -0.0069457414, 0.24706961, -1256913.0, 66367.14, 0.00038217273, 10.0011425, 9.998538 
1.6551371e+3, 1.7497216e+2, -1193414.6, -1373105.6, -15675.451, 0.009776747, 0.22300038, -1192057.5, 33240.19, 0.000007868034, 10.000922, 9.998535 
1.6551311e+3, 1.8497099e+2, -1095911.3, -1240183.9, -18437.676, 0.031181678, 0.23971014, -1093592.3, 33717.5, 0.0, 10.000766, 9.99885 
1.655125e+3, 1.9497041e+2, -1011144.9, -1148817.8, -13949.088, 0.04383998, 0.2915349, -1009745.75, 19569.756, 0.0, 10.000676, 9.998848 
1.6551186e+3, 2.0496915e+2, -918720.0, -1067788.4, -19565.768, 0.03881605, 0.28874683, -916194.7, 15132.739, 0.0, 10.000697, 9.998723 
1.655112e+3, 2.1496728e+2, -801098.94, -960235.2, -20708.654, 0.021251654, 0.22583342, -798448.25, 34896.133, 0.0, 10.000832, 9.998724 
1.6551057e+3, 2.2496593e+2, -687498.0, -813673.8, -22051.725, 0.016909152, 0.20292507, -683755.06, 51601.313, 0.0, 10.000762, 9.999091 
1.6550992e+3, 2.3496518e+2, -629623.1, -734437.56, -15203.977, 0.0246519, 0.21449798, -627462.25, 9899.971, 0.0, 10.0004835, 9.999096 
1.655093e+3, 2.4496417e+2, -554366.0, -660377.75, 994.7527, 0.026020434, 0.21203761, -554356.6, -14985.892, 0.0, 10.000384, 9.998979 
1.6550867e+3, 2.54963e+2, -444071.06, -555350.1, -2666.2336, 0.020618865, 0.19196925, -444007.22, -2626.336, 0.0, 10.000464, 9.998988 
1.6550806e+3, 2.649617e+2, -385678.5, -506875.2, -14806.463, 0.020655232, 0.18008265, -383895.8, -40502.797, 0.0, 10.000324, 9.998714 
1.6550744e+3, 2.749603e+2, -339104.38, -433975.28, -23753.84, 0.026510213, 0.16414006, -333489.22, -88082.164, 0.0, 9.999971, 9.998712 
1.6550682e+3, 2.8495908e+2, -226579.98, -289812.34, -5106.6846, 0.017773509, 0.15500419, -226170.22, -78751.3, 0.0, 9.999903, 9.999063 
1.6550621e+3, 2.9495835e+2, -99044.94, -174524.53, -4373.5435, -0.002807911, 0.17252254, -98792.37, -49367.313, 0.0, 10.000092, 9.99909 
1.6550563e+3, 3.0495778e+2, -67974.64, -171448.58, -29392.303, 0.0725979, 0.22391912, -60208.492, -60208.492, 0.0, 10.00013, 9.998758 
1.6550489e+3, 3.14956e+2, -45093.984, -105826.82, -10359.394, -0.01343832, 0.17220804, -43375.574, -43375.574, 0.0, 10.00005, 9.999248 
1.6651662e+3, 1.2498293e+2, -1626734.3, -1746143.8, -60458.316, 0.058619257, 0.2370323, -1601469.3, 113721.19, 0.028695665, 10.00095, 9.99933 
1.6651614e+3, 1.349821e+2, -1480010.9, -1601988.5, 65305.902, 0.02290215, 0.19507454, -1451643.6, 165554.78, 0.018249702, 10.001181, 9.999537 
1.6651565e+3, 1.4498179e+2, -1422245.9, -1595709.5, -5242.82, 0.03071878, 0.24449345, -1422087.5, 97114.4, 0.008897193, 10.0012045, 9.998889 
1.6651501e+3, 1.5498097e+2, -1347603.6, -1508238.6, -5535.1226, -0.0039233603, 0.26984814, -1347413.1, 73797.414, 0.002844578, 10.001037, 9.998898 
1.665144e+3, 1.6497967e+2, -1283601.1, -1451848.5, -19957.824, -0.01975258, 0.26328796, -1281266.0, 41957.98, 0.00043000115, 10.00091, 9.9986725 
1.665138e+3, 1.74978e+2, -1198634.8, -1361037.6, -11661.755, 0.021327073, 0.22414568, -1197801.6, 27439.287, 0.000009349905, 10.000824, 9.998665 
1.6651319e+3, 1.8497683e+2, -1096460.8, -1247869.8, -13539.265, 0.045302413, 0.23956676, -1095259.6, 31993.16, 0.0, 10.000795, 9.998782 
1.6651258e+3, 1.9497631e+2, -994313.2, -1148327.4, -20569.365, 0.03799288, 0.30396783, -991613.4, 37645.313, 0.0, 10.000826, 9.998778 
1.6651192e+3, 2.0497511e+2, -904027.8, -1043464.0, -25176.514, 0.028764432, 0.30467114, -899621.25, 31648.617, 0.0, 10.000726, 9.998875 
1.6651128e+3, 2.1497335e+2, -840391.4, -962246.1, -12357.974, 0.022355381, 0.2352935, -839150.75, -5865.5293, 0.0, 10.00049, 9.998874 
1.6651063e+3, 2.2497198e+2, -737396.7, -837185.5, -14286.995, 0.024205595, 0.20397213, -735391.44, -94.61694, 0.0, 10.000419, 9.999094 
1.6650999e+3, 2.3497115e+2, -625491.06, -732336.5, -21726.17, 0.032792695, 0.20619433, -621242.2, 16061.348, 0.0, 10.000513, 9.999096 
1.6650935e+3, 2.4497019e+2, -544940.9, -658243.1, -9082.91, 0.032316763, 0.21093185, -544217.4, -4905.4556, 0.0, 10.000461, 9.998956 
1.6650873e+3, 2.5496924e+2, -474644.66, -572964.1, -10152.493, 0.022911629, 0.21532074, -473607.25, -32286.62, 0.0, 10.000268, 9.9989605 
1.665081e+3, 2.6496792e+2, -399133.38, -507829.88, -14684.789, 0.020053994, 0.20069699, -397184.44, -53851.492, 0.0, 10.000209, 9.998763 
1.6650745e+3, 2.7496627e+2, -292085.7, -406019.44, -5319.944, 0.02248883, 0.15456009, -291837.8, -46489.168, 0.0, 10.000274, 9.998758 
1.6650681e+3, 2.8496507e+2, -200132.34, -288382.7, 12737.465, 0.009103839, 0.15123872, -198330.69, -50970.47, 0.0, 10.000134, 9.99896 
1.665062e+3, 2.9496464e+2, -147075.95, -206809.11, -14177.889, -0.014241982, 0.20778672, -143881.61, -94517.2, 0.0, 9.999804, 9.999005 
1.6650565e+3, 3.0496377e+2, -93338.65, -164604.61, -32599.797, 0.080069914, 0.22508526, -80676.125, -80676.125, 0.0, 9.999875, 9.998927 
1.6650489e+3, 3.1496227e+2, -18184.855, -103673.63, 1955.2007, -0.022181641, 0.18536113, -18140.162, -18140.162, 0.0, 10.000284, 9.999148 
1.675167e+3, 1.2498918e+2, -1650190.3, -1798167.0, -57658.992, 0.04235181, 0.22867939, -1630376.5, 84751.516, 0.03063352, 10.000959, 9.998967 
1.6751622e+3, 1.3498825e+2, -1506835.0, -1660521.3, 73424.195, -0.008067345, 0.21722788, -1477395.6, 139742.97, 0.019565674, 10.001189, 9.999132 
1.6751575e+3, 1.4498772e+2, -1423038.5, -1599295.4, -12175.2295, 0.023393748, 0.26782528, -1422201.5, 96943.516, 0.009607708, 10.001211, 9.998862 
1.6751514e+3, 1.5498666e+2, -1348131.8, -1511022.0, -11526.924, 0.008813922, 0.26870558, -1347320.1, 73836.34, 0.0031109226, 10.001041, 9.998877 
1.675145e+3, 1.6498551e+2, -1270620.3, -1426229.0, -23495.316, -0.00052890345, 0.26918676, -1267150.0, 56018.145, 0.00048388963, 10.000914, 9.998847 
1.675139e+3, 1.7498438e+2, -1185712.0, -1336101.0, -15042.195, 0.034047667, 0.26828063, -1184222.3, 40956.836, 0.0000111741165, 10.00083, 9.998834 
1.6751328e+3, 1.8498307e+2, -1110687.8, -1278945.0, -12578.269, 0.043797374, 0.27221468, -1109752.6, 17439.455, 0.0, 10.0008, 9.998569 
1.6751264e+3, 1.9498172e+2, -1009410.2, -1180278.5, -18740.906, 0.015414387, 0.27469978, -1007378.9, 21827.695, 0.0, 10.000827, 9.99856 
1.6751198e+3, 2.0498055e+2, -880057.56, -994043.2, -33848.46, 0.014316233, 0.27103123, -870763.9, 60453.457, 0.0, 10.000726, 9.999215 
1.6751136e+3, 2.1497965e+2, -816538.6, -913459.5, -20787.914, 0.045679986, 0.25595066, -812268.1, 20955.209, 0.0, 10.000492, 9.999208 
1.675107e+3, 2.2497848e+2, -749210.5, -862872.75, -10545.059, 0.052450985, 0.23506233, -748240.5, -13007.469, 0.0, 10.000422, 9.998918 
1.6751003e+3, 2.3497711e+2, -637796.06, -758836.75, -17157.68, 0.031930193, 0.20279247, -635410.94, 1834.4248, 0.0, 10.000515, 9.998914 
1.6750939e+3, 2.4497598e+2, -543427.2, -656064.2, -15637.438, 0.022390762, 0.19895333, -541296.56, -2040.5781, 0.0, 10.000463, 9.998971 
1.6750875e+3, 2.5497523e+2, -473599.28, -572025.75, -16049.894, 0.025943624, 0.22015902, -471048.22, -29784.54, 0.0, 10.000271, 9.998967 
1.6750811e+3, 2.6497415e+2, -378590.2, -466075.63, -11076.717, 0.030589385, 0.21621004, -377209.53, -33936.434, 0.0, 10.000211, 9.99905 
1.6750748e+3, 2.7497283e+2, -271536.25, -364142.1, -1833.7384, 0.03310218, 0.17695038, -271499.97, -26216.31, 0.0, 10.000275, 9.999046 
1.6750683e+3, 2.8497157e+2, -232502.7, -355833.84, 985.68475, 0.004117945, 0.17462035, -232494.83, -85198.586, 0.0, 10.0001335, 9.998498 
1.6750614e+3, 2.9497054e+2, -178858.97, -273389.25, -24351.465, -0.04833363, 0.21910891, -172954.69, -123646.23, 0.0, 9.999804, 9.998549 
1.6750562e+3, 3.049691e+2, -60539.82, -97091.42, -15757.956, 0.068318054, 0.1794419, -54684.35, -54684.35, 0.0, 9.999876, 9.999392 
1.6750494e+3, 3.1496897e+2, 9588.744, -46954.11, 6996.33, -0.005040264, 0.22775334, 10441.572, 10441.572, 0.0, 10.000287, 9.9995365 
1.6851678e+3, 1.24995306e+2, -1585626.3, -1770714.3, -74448.55, 0.018790215, 0.23382929, -1559397.4, 155670.78, 0.032695845, 10.00144, 9.998925 
1.6851634e+3, 1.3499434e+2, -1499383.4, -1668620.8, 79358.91, -0.02148102, 0.22869298, -1467992.8, 149086.31, 0.020976465, 10.001295, 9.999025 
1.6851589e+3, 1.449937e+2, -1433028.9, -1604172.0, -1711.7269, 0.038107917, 0.27422467, -1433011.8, 86074.984, 0.010378638, 10.001143, 9.998861 
1.6851525e+3, 1.5499254e+2, -1352909.0, -1513753.8, -705.38794, 0.020317169, 0.26516348, -1352905.9, 68193.41, 0.0034044879, 10.001011, 9.998873 
1.685146e+3, 1.6499144e+2, -1264806.0, -1422861.3, -13778.797, 0.004544396, 0.27191395, -1263613.9, 59496.824, 0.00054462755, 10.000951, 9.998853 
1.6851398e+3, 1.7499052e+2, -1166710.5, -1326334.9, -17423.557, 0.030418638, 0.29230022, -1164830.9, 60288.742, 0.000013478055, 10.000959, 9.998838 
1.6851336e+3, 1.8498923e+2, -1096858.6, -1262781.5, -12578.835, 0.04153498, 0.29137322, -1095910.4, 31222.012, 0.0, 10.000855, 9.998652 
1.685127e+3, 1.9498765e+2, -1032283.6, -1182485.0, 1906.6989, 0.023354406, 0.26373756, -1032259.4, -3111.1833, 0.0, 10.000631, 9.998638 
1.6851205e+3, 2.0498642e+2, -915119.94, -1016743.25, -17587.441, 0.022604333, 0.25445783, -912162.25, 18997.201, 0.0, 10.000511, 9.999163 
1.685114e+3, 2.1498568e+2, -819745.25, -920567.7, -33802.547, 0.045010477, 0.25894395, -809461.3, 23703.467, 0.0, 10.000496, 9.999157 
1.6851074e+3, 2.249846e+2, -738357.8, -845747.0, -22837.172, 0.052793734, 0.24518594, -733703.06, 1470.5592, 0.0, 10.000447, 9.999022 
1.6851008e+3, 2.349833e+2, -652604.25, -754548.44, -9555.636, 0.042509146, 0.20762393, -651716.3, -14531.38, 0.0, 10.000366, 9.999014 
1.6850944e+3, 2.4498218e+2, -568142.3, -666759.06, -3213.5056, 0.031839937, 0.19971666, -568037.7, -28842.275, 0.0, 10.00029, 9.9989805 
1.6850878e+3, 2.5498137e+2, -481948.03, -575329.06, -4898.5483, 0.023233872, 0.21694614, -481691.78, -40487.848, 0.0, 10.000212, 9.998972 
1.6850813e+3, 2.6498038e+2, -388902.9, -456329.4, -2866.221, 0.027441612, 0.21405673, -388781.28, -45568.652, 0.0, 10.000078, 9.999181 
1.685075e+3, 2.7497932e+2, -317587.5, -371676.16, -5876.497, 0.040797845, 0.18514909, -316956.4, -71735.91, 0.0, 9.999897, 9.999175 
1.6850683e+3, 2.8497818e+2, -286627.4, -388159.44, 1542.6293, 0.005777968, 0.1920426, -286603.97, -139372.08, 0.0, 9.99979, 9.998441 
1.685061e+3, 2.9497707e+2, -190751.19, -285022.9, 6665.8765, -0.066591196, 0.2347942, -190282.17, -141036.86, 0.0, 9.999749, 9.998495 
1.6850561e+3, 3.0497506e+2, -63051.29, -92171.625, 31332.127, 0.059771374, 0.1379301, -43061.484, -43061.484, 0.0, 9.999832, 9.999447 
1.6850494e+3, 3.1497562e+2, -23571.783, -39814.293, 8403.021, -0.0032040072, 0.2494261, -20006.91, -20006.91, 0.0, 9.99996, 9.999743 
1.6951689e+3, 1.2500136e+2, -1569080.5, -1735730.9, -82258.29, -0.015503675, 0.25255957, -1535318.1, 179692.03, 0.03487983, 10.001442, 9.999167 
1.6951647e+3, 1.3500038e+2, -1486482.0, -1642847.5, 73176.45, -0.019223876, 0.2287686, -1457579.1, 159440.72, 0.022483114, 10.001301, 9.999201 
1.6951604e+3, 1.4499973e+2, -1432172.6, -1603944.6, -7936.725, 0.07208995, 0.26311263, -1431806.6, 87220.41, 0.011213223, 10.001148, 9.998861 
1.6951536e+3, 1.5499862e+2, -1351889.5, -1513480.5, -6049.2095, 0.028282914, 0.25960597, -1351663.3, 69375.88, 0.0037287846, 10.001018, 9.998873 
1.6951469e+3, 1.649975e+2, -1274396.1, -1444513.1, -13750.126, -0.005790789, 0.27236658, -1273291.9, 49759.43, 0.0006135235, 10.000957, 9.998702 
1.6951406e+3, 1.749965e+2, -1176557.6, -1348213.9, -16738.834, 0.0113170305, 0.29702073, -1174940.6, 50121.676, 0.000016459384, 10.000963, 9.998687 
1.6951343e+3, 1.8499531e+2, -1071624.1, -1211116.0, -20910.113, 0.038176656, 0.2979163, -1068557.1, 58516.48, 0.0, 10.000856, 9.999007 
1.6951281e+3, 1.9499408e+2, -1007149.56, -1131139.4, -6393.418, 0.059468705, 0.27068436, -1006820.75, 22263.184, 0.0, 10.000633, 9.998991 
1.6951214e+3, 2.0499276e+2, -945004.3, -1079749.8, -18289.695, 0.051457915, 0.25452483, -942565.9, -11469.453, 0.0, 10.000513, 9.99873 
1.6951142e+3, 2.1499142e+2, -849756.7, -983837.4, -33606.42, 0.020147692, 0.24411929, -841805.06, -8695.331, 0.0, 10.000499, 9.998722 
1.6951077e+3, 2.2499035e+2, -711868.5, -791671.6, -25335.287, 0.025167117, 0.23458523, -704504.75, 30614.092, 0.0, 10.000449, 9.999393 
1.6951014e+3, 2.3498964e+2, -626677.06, -701735.4, -11518.914, 0.06412447, 0.22071992, -624949.06, 12173.609, 0.0, 10.000369, 9.999376 
1.6950949e+3, 2.4498871e+2, -568391.8, -667751.5, -5321.6196, 0.059716016, 0.21319406, -568107.6, -28976.871, 0.0, 10.00029, 9.998974 
1.6950879e+3, 2.5498766e+2, -482252.38, -576551.2, -6667.1396, 0.014210711, 0.20593022, -481783.34, -40641.39, 0.0, 10.000213, 9.998964 
1.6950813e+3, 2.6498657e+2, -390581.56, -460619.4, -8844.377, 0.010250777, 0.19529858, -389481.97, -46329.883, 0.0, 10.000079, 9.999151 
1.6950749e+3, 2.749856e+2, -319361.3, -376957.94, -11526.244, 0.043019664, 0.17992589, -317140.3, -71980.53, 0.0, 9.999901, 9.999138 
1.6950682e+3, 2.8498477e+2, -262840.97, -339737.22, 917.17255, 0.011971296, 0.20317073, -262830.03, -115662.1, 0.0, 9.999792, 9.998773 
1.6950607e+3, 2.9498407e+2, -167980.83, -238195.58, 7578.796, -0.06846478, 0.25280684, -167172.11, -117995.95, 0.0, 9.999749, 9.998818 
1.6950558e+3, 3.0498147e+2, -87727.805, -144156.86, 37144.637, 0.053221717, 0.09905174, -69297.03, -69297.03, 0.0, 9.999833, 9.99909 
1.6950493e+3, 3.14982e+2, -18587.143, -30366.166, -2812.7542, -0.01749484, 0.24327973, -17949.945, -17949.945, 0.0, 9.999963, 9.999807 
1.7051703e+3, 1.2500733e+2, -1566552.8, -1721852.4, -77372.52, -0.018691339, 0.2515682, -1534585.0, 180366.84, 0.037186548, 10.001408, 9.999279 
1.7051658e+3, 1.350064e+2, -1482813.5, -1636586.8, 68006.73, -0.037941534, 0.22747634, -1457052.8, 159908.2, 0.02408674, 10.00131, 9.999238 
1.7051615e+3, 1.4500572e+2, -1424354.1, -1594127.9, -16519.438, 0.07290306, 0.25697494, -1422761.8, 96206.31, 0.012113362, 10.001179, 9.998914 
1.7051546e+3, 1.5500471e+2, -1346400.0, -1505327.5, -11175.198, 0.028585328, 0.25889492, -1345618.1, 75360.83, 0.0040865135, 10.001032, 9.998921 
1.7051478e+3, 1.6500361e+2, -1277889.8, -1445171.8, -6986.585, -0.00583733, 0.2695359, -1277598.4, 45392.58, 0.000691961, 10.000929, 9.998711 
1.7051417e+3, 1.7500252e+2, -1189677.1, -1354141.4, 109.35009, 0.012225628, 0.2851953, -1189677.1, 35325.973, 0.000020346932, 10.000871, 9.998691 
1.7051353e+3, 1.850014e+2, -1083323.9, -1210989.4, -16000.004, 0.041153397, 0.28949782, -1081349.3, 45664.707, 0.0, 10.0007515, 9.999059 
1.7051288e+3, 1.9500038e+2, -1012568.3, -1127699.1, -23893.088, 0.06483313, 0.27762082, -1007806.7, 21215.596, 0.0, 10.000572, 9.999043 
1.7051218e+3, 2.0499912e+2, -947300.4, -1080221.5, -23094.14, 0.055830218, 0.2646961, -943402.25, -12368.0205, 0.0, 10.000498, 9.998733 
1.7051147e+3, 2.149977e+2, -847068.8, -982876.0, -7646.5303, 0.019376922, 0.24590053, -846639.6, -13591.247, 0.0, 10.00052, 9.998718 
1.705108e+3, 2.2499658e+2, -711217.0, -791071.75, -1838.3911, 0.021996642, 0.2330072, -711174.75, 23883.352, 0.0, 10.000454, 9.999393 
1.7051019e+3, 2.3499592e+2, -636631.0, -706356.0, -16391.79, 0.061495334, 0.22144791, -632969.7, 4092.2588, 0.0, 10.000302, 9.999375 
1.705095e+3, 2.4499509e+2, -578284.2, -656761.9, -18089.756, 0.061467107, 0.21856453, -574315.06, -35246.25, 0.0, 10.000155, 9.999113 
1.705088e+3, 2.5499424e+2, -501435.72, -569990.0, -9097.791, 0.024113888, 0.2171726, -500248.9, -59171.27, 0.0, 10.000016, 9.999103 
1.7050813e+3, 2.6499316e+2, -416787.16, -476033.56, -6259.7544, 0.015358221, 0.20226438, -416133.0, -73045.22, 0.0, 9.999914, 9.999124 
1.7050748e+3, 2.7499205e+2, -330561.47, -385568.4, -9754.873, 0.029915892, 0.17450291, -328882.78, -83785.2, 0.0, 9.999841, 9.999107 
1.7050678e+3, 2.8499132e+2, -255275.6, -323859.88, -1239.1648, -0.0016825335, 0.20772783, -255253.22, -108148.65, 0.0, 9.999794, 9.99888 
1.7050606e+3, 2.94991e+2, -155944.44, -222504.86, -10496.575, -0.0630793, 0.2817524, -154328.38, -105219.31, 0.0, 9.999791, 9.998905 
1.7050557e+3, 3.0498812e+2, -101619.56, -180319.19, 17347.783, 0.05386308, 0.10967054, -97965.266, -97965.266, 0.0, 9.999866, 9.998826 
1.7050491e+3, 3.1498837e+2, -5359.5957, 7634.7065, -34111.67, -0.023496564, 0.2512332, 35862.46, 35862.46, 0.0, 9.999922, 10.000087 
1.715172e+3, 1.2501325e+2, -1567139.5, -1724497.9, -82611.94, 0.0021979867, 0.23136693, -1531734.8, 183158.53, 0.039617054, 10.001415, 9.99926 
1.7151667e+3, 1.3501243e+2, -1488445.0, -1649744.5, 63804.973, -0.07771221, 0.22758017, -1466257.8, 150644.28, 0.02578764, 10.001316, 9.999146 
1.7151624e+3, 1.4501177e+2, -1416996.8, -1580046.3, -22730.088, 0.040954947, 0.2583551, -1413887.4, 105021.7, 0.013079771, 10.0011835, 9.999009 
1.7151555e+3, 1.5501086e+2, -1338973.4, -1491629.5, -16706.398, 0.021084817, 0.26098546, -1337166.5, 83751.97, 0.0044793175, 10.001039, 9.999013 
1.7151488e+3, 1.6500978e+2, -1266837.6, -1423688.6, -9557.464, 0.003016302, 0.26224983, -1266257.5, 56672.33, 0.0007811272, 10.000933, 9.9988575 
1.7151426e+3, 1.7500864e+2, -1179192.6, -1333125.5, -2230.5366, 0.030643776, 0.25822097, -1179160.3, 45781.684, 0.000025375884, 10.000873, 9.998836 
1.7151362e+3, 1.8500753e+2, -1099892.6, -1246189.1, -22995.36, 0.048207436, 0.2674443, -1096363.4, 30590.121, 0.0, 10.000752, 9.998817 
1.715129e+3, 1.9500655e+2, -1028637.75, -1162724.1, -30145.693, 0.040321697, 0.28399342, -1022172.06, 6791.1807, 0.0, 10.000578, 9.998801 
1.7151222e+3, 2.050055e+2, -917547.94, -1019694.9, -21828.7, 0.036273405, 0.2843535, -913078.75, 17894.162, 0.0, 10.000501, 9.999148 
1.7151155e+3, 2.1500447e+2, -818438.7, -923910.9, -6174.4873, 0.04155353, 0.26387492, -818078.44, 14902.793, 0.0, 10.00052, 9.999125 
1.7151086e+3, 2.2500327e+2, -737373.8, -845456.2, -7186.6245, 0.041644335, 0.2404873, -736898.06, -1906.2922, 0.0, 10.000453, 9.999022 
1.7151017e+3, 2.3500203e+2, -662373.0, -760301.94, -21055.621, 0.034324244, 0.20995346, -658037.75, -21034.59, 0.0, 10.000302, 9.999006 
1.715095e+3, 2.4500126e+2, -558658.0, -616372.1, -22468.799, 0.03663748, 0.21551102, -550942.1, -11932.021, 0.0, 10.000155, 9.999392 
1.7150883e+3, 2.55001e+2, -481777.38, -530416.6, -13153.042, 0.051257733, 0.24975552, -478448.38, -37436.652, 0.0, 10.000019, 9.999373 
1.7150815e+3, 2.6500008e+2, -418362.03, -480738.1, -8199.3, 0.041518264, 0.23368724, -417302.25, -74281.77, 0.0, 9.999918, 9.99909 
1.7150742e+3, 2.7499855e+2, -332723.16, -390839.13, -11766.017, 0.0014846767, 0.16894658, -330431.4, -85396.74, 0.0, 9.999842, 9.999072 
1.7150672e+3, 2.849978e+2, -263624.66, -341213.94, -708.9712, -0.035757415, 0.20576237, -263618.2, -116575.62, 0.0, 9.999793, 9.998762 
1.7150605e+3, 2.9499775e+2, -166190.34, -245418.94, -7929.5815, -0.05360728, 0.32100886, -165404.52, -116359.57, 0.0, 9.999797, 9.998746 
1.7150556e+3, 3.049949e+2, -113868.76, -207512.89, 20337.887, 0.057813983, 0.17180231, -109642.46, -109642.46, 0.0, 9.999871, 9.998638 
1.7150491e+3, 3.1499448e+2, 25666.066, 72884.445, -48930.895, -0.019303361, 0.26216996, 103604.125, 103604.125, 0.0, 9.999917, 10.000539 
1.7251733e+3, 1.2501943e+2, -1527998.1, -1708955.0, -69899.36, -0.0092904, 0.20921716, -1504142.5, 210689.25, 0.042172503, 10.001719, 9.999217 
1.7251678e+3, 1.3501878e+2, -1503061.5, -1669934.4, 72875.01, -0.093249835, 0.23439133, -1475717.0, 141122.63, 0.027585778, 10.001273, 9.999028 
1.7251636e+3, 1.4501807e+2, -1435828.3, -1585127.8, -8359.683, 0.047372654, 0.26386216, -1435361.6, 83485.96, 0.014112073, 10.001037, 9.999044 
1.7251566e+3, 1.5501712e+2, -1333309.1, -1485298.3, -7319.7026, 0.017626124, 0.25882998, -1332957.5, 87899.52, 0.004907627, 10.001064, 9.999043 
1.7251496e+3, 1.6501606e+2, -1265550.3, -1419630.0, -11064.494, -0.0009337317, 0.25771874, -1264759.8, 58108.402, 0.0008819792, 10.000929, 9.998887 
1.7251435e+3, 1.7501494e+2, -1213617.4, -1346590.8, -12624.891, 0.036233548, 0.25484553, -1212429.4, 12450.7, 0.000031776486, 10.000625, 9.998861 
1.7251368e+3, 1.8501389e+2, -1124933.1, -1253217.9, -20405.56, 0.051044237, 0.26691726, -1121765.6, 5125.484, 0.0, 10.000561, 9.99886 
1.7251296e+3, 1.9501302e+2, -1003091.4, -1146284.1, -8192.643, 0.0275241, 0.2902623, -1002624.2, 26275.908, 0.0, 10.000735, 9.998837 
1.7251226e+3, 2.0501201e+2, -892643.44, -1003176.9, -9583.737, 0.023364544, 0.29153046, -891818.6, 39090.676, 0.0, 10.000653, 9.999187 
1.7251158e+3, 2.1501097e+2, -845093.2, -932117.2, -22077.752, 0.043924354, 0.26525283, -839812.56, -6894.96, 0.0, 10.0003195, 9.999163 
1.725109e+3, 2.250098e+2, -778725.1, -863774.1, -19091.514, 0.047141746, 0.2415985, -774636.1, -39708.2, 0.0, 10.000165, 9.999033 
1.725102e+3, 2.3500863e+2, -679315.9, -766920.75, -5513.083, 0.030451614, 0.21700342, -678970.25, -42031.367, 0.0, 10.000183, 9.999017 
1.725095e+3, 2.4500784e+2, -565390.8, -620657.94, -6425.465, 0.032727636, 0.22243105, -564653.56, -25707.496, 0.0, 10.000117, 9.999379 
1.7250884e+3, 2.5500754e+2, -490492.2, -536363.25, -19354.35, 0.05657547, 0.2500435, -483417.22, -42468.645, 0.0, 9.9999695, 9.999355 
1.7250814e+3, 2.6500663e+2, -420616.0, -482433.8, -19944.947, 0.045343585, 0.23975825, -414739.56, -71782.45, 0.0, 9.9999075, 9.9990835 
1.7250739e+3, 2.7500528e+2, -320186.6, -385575.88, -22278.432, -0.006499201, 0.19374637, -313317.75, -68347.96, 0.0, 9.999934, 9.999062 
1.725067e+3, 2.8500444e+2, -249703.48, -336551.1, -7243.3022, -0.04217327, 0.22317292, -249103.52, -102124.945, 0.0, 9.9999, 9.998742 
1.7250603e+3, 2.9500404e+2, -170842.02, -253593.92, -6969.945, -0.045004763, 0.30412203, -170259.06, -121274.88, 0.0, 9.999793, 9.99869 
1.7250551e+3, 3.0500147e+2, -147098.56, -246813.84, 26954.97, 0.039920136, 0.19826195, -140278.56, -140278.56, 0.0, 9.999744, 9.998429 
1.725049e+3, 3.1500065e+2, 11716.468, 92616.01, -59649.24, -0.020517526, 0.2642043, 124237.15, 124237.15, 0.0, 9.999709, 10.000774 
1.7351747e+3, 1.2502593e+2, -1536139.5, -1723632.3, -86716.35, -0.056274716, 0.18839902, -1502182.8, 212584.14, 0.04485813, 10.00171, 9.999125 
1.7351691e+3, 1.3502546e+2, -1512646.5, -1691433.5, 54960.953, -0.087061495, 0.24511033, -1497102.4, 119671.66, 0.029481819, 10.001279, 9.998878 
1.735165e+3, 1.450246e+2, -1436861.8, -1589584.5, -8633.054, 0.08849939, 0.27079716, -1436375.3, 82408.4, 0.015208748, 10.001045, 9.999011 
1.7351575e+3, 1.5502352e+2, -1334676.5, -1489553.5, -6441.5503, 0.016555721, 0.25470796, -1334409.0, 86385.28, 0.0053705308, 10.001068, 9.999013 
1.7351505e+3, 1.6502243e+2, -1270816.0, -1431871.8, -22690.39, -0.01877941, 0.25843298, -1267680.3, 55125.51, 0.0009949692, 10.000933, 9.998802 
1.735144e+3, 1.7502141e+2, -1218595.6, -1359192.9, -23768.715, 0.029126909, 0.27285486, -1214686.1, 10131.196, 0.000039781222, 10.000632, 9.998772 
1.7351374e+3, 1.8502048e+2, -1102919.5, -1209150.9, -13621.035, 0.049206264, 0.28610727, -1101200.9, 25626.086, 0.0, 10.000566, 9.999162 
1.7351303e+3, 1.9501978e+2, -982023.6, -1103090.0, -1316.6571, 0.025176687, 0.2963109, -982009.3, 46823.742, 0.0, 10.000736, 9.999135 
1.7351231e+3, 2.0501864e+2, -915950.56, -1051692.0, -22345.676, 0.015495104, 0.28682995, -912366.7, 18477.008, 0.0, 10.000652, 9.998856 
1.7351161e+3, 2.1501717e+2, -867747.94, -980328.8, -34015.055, 0.0262802, 0.2505283, -858268.8, -25411.139, 0.0, 10.000322, 9.998831 
1.7351091e+3, 2.2501612e+2, -751373.1, -808103.1, -17788.406, 0.038018283, 0.23653683, -746256.8, -11389.932, 0.0, 10.000168, 9.999414 
1.7351024e+3, 2.3501563e+2, -652686.75, -712597.94, -3905.178, 0.04836805, 0.2420245, -652433.3, -15563.542, 0.0, 10.000185, 9.99939 
1.7350954e+3, 2.4501479e+2, -586552.1, -665164.94, -11478.095, 0.04832016, 0.23893203, -584910.5, -46033.156, 0.0, 10.000118, 9.999074 
1.7350882e+3, 2.550137e+2, -511660.1, -581016.94, -23909.377, 0.04017502, 0.2185785, -504216.66, -63327.875, 0.0, 9.99997, 9.999049 
1.7350812e+3, 2.6501277e+2, -420361.94, -482430.63, -18140.63, 0.026482798, 0.2210845, -415448.94, -72550.69, 0.0, 9.999908, 9.9990835 
1.735074e+3, 2.7501214e+2, -319242.34, -385636.9, -20237.113, 0.001998484, 0.2492605, -313560.3, -68656.51, 0.0, 9.999942, 9.999059 
1.735067e+3, 2.8501117e+2, -242836.45, -324707.0, -10903.082, -0.02412996, 0.25929475, -241409.33, -94495.766, 0.0, 9.999908, 9.99882 
1.7350604e+3, 2.950097e+2, -167629.8, -248373.69, -9713.541, -0.03666018, 0.22894053, -166477.69, -117549.664, 0.0, 9.999797, 9.998726 
1.7350544e+3, 3.0500773e+2, -163266.67, -279621.44, 26743.51, -0.001330924, 0.19113152, -157414.19, -157414.19, 0.0, 9.999741, 9.998206 
1.7350486e+3, 3.150069e+2, 8981.776, 87089.66, -70043.77, -0.03267222, 0.2760456, 128231.35, 128231.35, 0.0, 9.999708, 10.000737 
1.7451762e+3, 1.2503268e+2, -1595695.8, -1753151.9, -90365.32, -0.058613036, 0.19555041, -1554573.9, 160126.58, 0.047677938, 10.001289, 9.999123 
1.7451704e+3, 1.3503209e+2, -1502872.9, -1692082.0, 54960.14, -0.09700788, 0.24617486, -1488067.0, 128641.68, 0.031474058, 10.001375, 9.998825 
1.7451663e+3, 1.4503105e+2, -1412474.8, -1581472.5, -4004.2158, 0.101692736, 0.25817373, -1412379.9, 106340.17, 0.016366446, 10.001236, 9.998973 
1.7451587e+3, 1.5503004e+2, -1358253.0, -1505373.6, -3160.0005, 0.02205353, 0.2533566, -1358185.3, 62545.016, 0.005865922, 10.000927, 9.998972 
1.7451514e+3, 1.6502897e+2, -1285325.1, -1433798.1, -13828.543, -0.019687876, 0.25928172, -1284048.1, 38693.188, 0.0011198252, 10.000813, 9.998845 
1.7451447e+3, 1.7502794e+2, -1178053.8, -1335159.9, -6685.6343, 0.024262859, 0.2666109, -1177769.8, 46983.113, 0.00004956382, 10.000893, 9.998811 
1.7451379e+3, 1.8502699e+2, -1075294.0, -1200223.8, -2961.343, 0.047065053, 0.27971148, -1075223.9, 51538.582, 0.0000000000000006446772, 10.000777, 9.999121 
1.745131e+3, 1.9502632e+2, -1024419.2, -1128085.5, -16237.288, 0.030917006, 0.2961746, -1021935.44, 6833.301, 0.0, 10.000468, 9.999091 
1.7451237e+3, 2.0502515e+2, -957999.7, -1074861.1, -39657.117, 0.016717589, 0.28694886, -945812.9, -15032.91, 0.0, 10.000379, 9.998827 
1.7451163e+3, 2.150236e+2, -843748.2, -972199.75, -30060.004, 0.010807034, 0.2460996, -837061.6, -4266.7705, 0.0, 10.000504, 9.998798 
1.7451093e+3, 2.2502258e+2, -711263.2, -784062.2, -16931.447, 0.024224127, 0.23573738, -707518.0, 27285.785, 0.0, 10.000424, 9.999455 
1.7451026e+3, 2.3502225e+2, -655944.44, -709817.2, -28920.652, 0.05385885, 0.25237978, -643359.0, -6553.8374, 0.0, 10.000146, 9.999426 
1.7450954e+3, 2.450214e+2, -603786.56, -677919.7, -36548.926, 0.05462407, 0.25014237, -588797.8, -49984.965, 0.0, 10.000021, 9.999032 
1.7450881e+3, 2.550202e+2, -503959.25, -581893.75, -30129.055, 0.028970426, 0.22110103, -493669.97, -52844.227, 0.0, 10.000047, 9.999005 
1.745081e+3, 2.6501927e+2, -402245.34, -475578.47, -13052.2705, 0.011542393, 0.22773851, -399991.5, -57156.254, 0.0, 10.000044, 9.9990635 
1.745074e+3, 2.750188e+2, -311391.1, -384030.2, -16924.05, -0.0021937331, 0.27044126, -307641.56, -62801.914, 0.0, 10.000009, 9.999036 
1.7450671e+3, 2.8501767e+2, -236444.94, -314113.75, -13993.4375, -0.017207382, 0.26520377, -234000.69, -87150.24, 0.0, 9.999922, 9.998885 
1.7450602e+3, 2.950159e+2, -168485.48, -244055.72, -14668.262, -0.020875635, 0.19816169, -165738.23, -116870.805, 0.0, 9.999773, 9.998765 
1.7450538e+3, 3.0501458e+2, -173093.28, -276850.72, 37692.977, -0.029782731, 0.22088358, -160845.86, -160845.86, 0.0, 9.999642, 9.998272 
1.7450482e+3, 3.150132e+2, -18185.223, 68133.73, -44296.406, -0.026265059, 0.24471743, 86820.125, 86820.125, 0.0, 9.999548, 10.000683 
1.7551777e+3, 1.2503968e+2, -1590817.9, -1742905.4, -84651.86, -0.024836907, 0.22778405, -1553069.8, 161562.58, 0.05062381, 10.001291, 9.999194 
1.7551716e+3, 1.3503878e+2, -1500020.5, -1685607.4, 56567.31, -0.12332621, 0.24073051, -1484137.9, 132504.83, 0.03355527, 10.001374, 9.998872 
1.7551674e+3, 1.450375e+2, -1416634.9, -1590411.0, -16791.143, 0.086927876, 0.23061468, -1415027.3, 103628.805, 0.017580096, 10.001236, 9.998914 
1.7551596e+3, 1.5503672e+2, -1361795.1, -1514400.5, -14943.885, 0.03303383, 0.25306976, -1360345.5, 60319.11, 0.0063910303, 10.000933, 9.998908 
1.7551523e+3, 1.650357e+2, -1273692.9, -1411236.5, -11228.472, -0.0054608984, 0.2586852, -1272782.3, 49892.832, 0.0012556869, 10.000817, 9.999 
1.7551455e+3, 1.7503451e+2, -1166452.4, -1312536.5, -3896.216, 0.020354599, 0.23792498, -1166348.5, 58337.973, 0.00006111771, 10.000897, 9.998965 
1.7551386e+3, 1.8503344e+2, -1100898.6, -1254451.1, -14806.909, 0.042595584, 0.2498412, -1099483.9, 27213.738, 0.0000000010737394, 10.000779, 9.998748 
1.7551316e+3, 1.9503264e+2, -1049861.8, -1182694.1, -27253.0, 0.04379753, 0.2902001, -1044487.7, -15780.597, 0.0, 10.000473, 9.998714 
1.7551242e+3, 2.0503151e+2, -939555.06, -1037882.0, -34429.938, 0.026073398, 0.29197282, -928698.0, 2020.1624, 0.0, 10.000382, 9.99908 
1.7551167e+3, 2.1503021e+2, -825780.8, -935919.8, -24501.572, -0.0033995956, 0.25105485, -820576.1, 12153.437, 0.0, 10.000505, 9.999048 
1.7551094e+3, 2.2502916e+2, -731964.56, -827591.2, -26883.984, 0.0045318287, 0.23839873, -724924.8, 9814.292, 0.0, 10.000425, 9.999157 
1.7551027e+3, 2.3502846e+2, -676577.2, -753648.44, -38289.78, 0.04685214, 0.24820115, -660788.75, -24043.242, 0.0, 10.000148, 9.9991255 
1.7550954e+3, 2.4502766e+2, -589239.06, -648310.44, -34949.617, 0.051260214, 0.25610006, -573016.3, -34263.313, 0.0, 10.000022, 9.999235 
1.755088e+3, 2.5502697e+2, -489120.6, -552331.44, -28118.664, 0.020233499, 0.25736964, -478422.8, -37662.695, 0.0, 10.00005, 9.9992075 
1.7550808e+3, 2.6502606e+2, -404461.84, -481431.8, -13752.024, -0.0020507819, 0.259191, -402078.6, -59309.72, 0.0, 10.000048, 9.9990225 
1.7550738e+3, 2.750251e+2, -314527.97, -391172.28, -17020.563, -0.018083839, 0.25626057, -310918.22, -66140.1, 0.0, 10.000009, 9.998988 
1.755067e+3, 2.8502384e+2, -233869.53, -309066.13, -19146.395, -0.020708263, 0.24084735, -229275.22, -82485.08, 0.0, 9.999922, 9.99892 
1.7550601e+3, 2.9502252e+2, -164709.81, -239136.4, -20412.36, -0.0031262846, 0.2126927, -159479.1, -110675.78, 0.0, 9.9997835, 9.998795 
1.7550534e+3, 3.050219e+2, -146292.28, -223311.48, 34347.543, -0.051941387, 0.2869782, -133200.11, -133200.11, 0.0, 9.99965, 9.998636 
1.755048e+3, 3.1501994e+2, -27133.723, 50352.85, -43214.316, -0.0061074547, 0.21350732, 69648.516, 69648.516, 0.0, 9.999542, 10.000565 
1.765179e+3, 1.2504625e+2, -1590169.9, -1726257.3, -88931.516, -0.014216156, 0.23275162, -1546237.0, 168331.67, 0.053677697, 10.00123, 9.999339 
1.7651728e+3, 1.3504545e+2, -1532006.6, -1685959.5, 50249.043, -0.13012277, 0.24279325, -1517057.4, 99519.67, 0.035715524, 10.001082, 9.999008 
1.7651686e+3, 1.4504409e+2, -1455099.9, -1609797.9, -22298.207, 0.09748438, 0.21554978, -1451950.0, 66641.055, 0.018844124, 10.000973, 9.998906 
1.7651607e+3, 1.5504329e+2, -1355051.5, -1512110.6, -16130.327, 0.03157371, 0.23946443, -1353412.0, 67187.71, 0.0069425246, 10.000987, 9.998897 
1.7651531e+3, 1.6504231e+2, -1257782.6, -1404404.9, -11590.769, -0.009405991, 0.251266, -1256872.0, 65737.64, 0.0014012909, 10.000935, 9.998987 
1.7651464e+3, 1.7504123e+2, -1179935.6, -1320268.6, -17797.377, 0.022684697, 0.24123864, -1177713.6, 46906.48, 0.0000742067, 10.0008135, 9.998951 
1.7651394e+3, 1.8504009e+2, -1115288.8, -1269806.1, -30431.816, 0.042381153, 0.25021714, -1109511.4, 17120.695, 0.000000009428086, 10.000719, 9.998671 
1.765132e+3, 1.9503905e+2, -1029184.06, -1181681.0, -22278.053, 0.032260194, 0.27524018, -1025996.1, 2647.6443, 0.0, 10.000655, 9.998633 
1.7651246e+3, 2.0503789e+2, -913348.75, -1025911.0, -21134.357, 0.018883435, 0.278454, -909511.44, 21143.844, 0.0, 10.0005665, 9.999073 
1.7651173e+3, 2.1503678e+2, -834371.94, -940543.5, -31412.145, 0.008286365, 0.25513533, -825774.5, 6890.754, 0.0, 10.000452, 9.999041 
1.76511e+3, 2.2503573e+2, -753805.44, -845444.3, -43257.402, 0.014038362, 0.24796768, -736612.0, -1937.101, 0.0, 10.000309, 9.999089 
1.7651026e+3, 2.3503488e+2, -683654.56, -764894.3, -38116.414, 0.033785045, 0.25088167, -668571.4, -31888.334, 0.0, 10.000135, 9.999053 
1.7650953e+3, 2.4503404e+2, -586252.6, -642192.6, -24124.316, 0.032896582, 0.2550322, -577286.1, -38595.207, 0.0, 10.000024, 9.999276 
1.765088e+3, 2.5503337e+2, -497517.06, -551974.2, -30103.625, 0.012181305, 0.25763908, -484154.72, -43457.75, 0.0, 9.999975, 9.999246 
1.7650808e+3, 2.650325e+2, -432001.44, -494697.34, -24514.496, -0.007383118, 0.2603153, -423554.22, -80848.94, 0.0, 9.99986, 9.999021 
1.7650735e+3, 2.750315e+2, -362926.97, -414628.84, -24962.158, -0.025567032, 0.25357878, -352842.13, -108127.07, 0.0, 9.999679, 9.998984 
1.7650668e+3, 2.8503022e+2, -272598.0, -335418.4, -23784.434, -0.018855825, 0.23760207, -264608.97, -117881.14, 0.0, 9.99969, 9.998851 
1.7650601e+3, 2.9502892e+2, -155646.72, -241288.88, -33867.46, 0.013681476, 0.2218506, -143872.47, -95131.56, 0.0, 9.999877, 9.9987335 
1.7650527e+3, 3.0502862e+2, -113184.58, -163246.36, 7615.319, -0.07442426, 0.31102318, -112051.78, -112051.78, 0.0, 9.999691, 9.999027 
1.7650476e+3, 3.1502673e+2, -88379.336, 4418.7065, -57902.75, 0.018212644, 0.20406896, 32219.398, 32219.398, 0.0, 9.999195, 10.000415 
1.7751801e+3, 1.250525e+2, -1578844.1, -1700990.9, -87719.55, -0.030894961, 0.21571103, -1533031.1, 181477.06, 0.056830134, 10.001227, 9.999518 
1.7751738e+3, 1.3505214e+2, -1517828.4, -1656808.0, 43131.53, -0.119734086, 0.25105044, -1505530.9, 110980.44, 0.037950285, 10.001088, 9.9992075 
1.77517e+3, 1.4505076e+2, -1451342.6, -1603431.8, -23487.762, 0.1302531, 0.21161936, -1447797.9, 70726.96, 0.020155376, 10.000978, 9.998948 
1.7751615e+3, 1.550498e+2, -1351171.6, -1505838.3, -15621.104, 0.017088715, 0.21411934, -1349609.8, 70925.13, 0.007517709, 10.000993, 9.998938 
1.7751539e+3, 1.6504888e+2, -1269525.0, -1430569.3, -16269.293, -0.03243485, 0.2387741, -1267897.9, 54646.805, 0.0015554583, 10.00094, 9.998807 
1.7751473e+3, 1.7504808e+2, -1192086.5, -1347066.0, -21991.975, 0.030478764, 0.2745454, -1189026.3, 35527.625, 0.000088497945, 10.000818, 9.998766 
1.7751402e+3, 1.850469e+2, -1101392.5, -1241874.5, -32514.469, 0.04550963, 0.27903095, -1094232.0, 32333.793, 0.000000028818846, 10.000721, 9.998862 
1.7751323e+3, 1.9504552e+2, -1014882.4, -1153503.4, -24048.424, -0.0034911965, 0.25101337, -1010828.94, 17750.252, 0.0, 10.00066, 9.998826 
1.7751248e+3, 2.0504425e+2, -931519.94, -1064806.4, -24993.48, -0.005766723, 0.24659936, -926987.4, 3604.291, 0.0, 10.000569, 9.998805 
1.7751181e+3, 2.1504322e+2, -852736.75, -979738.6, -34759.31, 0.04395177, 0.25856507, -843845.8, -11243.585, 0.0, 10.000454, 9.998772 
1.7751107e+3, 2.2504224e+2, -742776.7, -823313.56, -49026.67, 0.050771043, 0.26484147, -719600.94, 15010.522, 0.0, 10.00031, 9.999242 
1.7751025e+3, 2.3504147e+2, -672227.9, -742708.3, -43441.83, 0.013647929, 0.26011783, -651530.06, -14911.908, 0.0, 10.000139, 9.999205 
1.775095e+3, 2.4504046e+2, -594450.94, -660497.8, -25138.256, -0.0015853657, 0.24626844, -585971.6, -47344.43, 0.0, 10.000028, 9.999149 
1.7750879e+3, 2.5503942e+2, -506236.25, -571589.06, -30875.441, 0.005210469, 0.22142129, -493956.7, -53319.74, 0.0, 9.99998, 9.999109 
1.7750807e+3, 2.6503855e+2, -429142.78, -490397.66, -30677.305, -0.004560211, 0.23130715, -416421.2, -73776.05, 0.0, 9.999865, 9.999049 
1.7750733e+3, 2.7503797e+2, -359091.66, -409389.63, -30701.107, -0.030081106, 0.2635922, -344554.0, -99902.88, 0.0, 9.999688, 9.999018 
1.7750664e+3, 2.8503668e+2, -283258.1, -359550.63, -16482.342, -0.017033122, 0.25582552, -279849.53, -133185.33, 0.0, 9.999698, 9.998682 
1.7750601e+3, 2.950351e+2, -165891.14, -263878.25, -26954.818, 0.03165209, 0.22412126, -158965.73, -110284.63, 0.0, 9.999881, 9.998578 
1.7750522e+3, 3.0503467e+2, -84017.9, -102485.1, -11099.884, -0.09459871, 0.28873882, -78813.125, -78813.125, 0.0, 9.999688, 9.999447 
1.7750469e+3, 3.1503385e+2, -98047.17, -18422.79, -53847.0, 0.03163935, 0.25130296, 8731.503, 8731.503, 0.0, 9.999204, 10.000256 
1.7851816e+3, 1.250593e+2, -1587733.1, -1710837.0, -47644.79, -0.008407201, 0.20785405, -1571447.6, 142993.67, 0.060091246, 10.001196, 9.999455 
1.7851748e+3, 1.3505895e+2, -1516405.8, -1659337.5, 57457.28, -0.13171965, 0.24701585, -1496172.6, 120271.67, 0.04026372, 10.001118, 9.999176 
1.7851709e+3, 1.4505753e+2, -1442513.3, -1596229.4, -13175.146, 0.13205266, 0.20230351, -1441392.1, 77066.15, 0.02151503, 10.001033, 9.998969 
1.7851625e+3, 1.5505667e+2, -1344461.5, -1500731.1, -7421.068, 0.019075342, 0.21461014, -1344109.9, 76357.11, 0.008116559, 10.001035, 9.998951 
1.7851548e+3, 1.650557e+2, -1273640.3, -1443798.8, -12068.86, -0.031576995, 0.23892187, -1272788.5, 49688.715, 0.0017178453, 10.000963, 9.998704 
1.7851481e+3, 1.7505468e+2, -1199870.4, -1362413.3, -12880.135, 0.029573906, 0.26386297, -1198856.1, 25632.459, 0.00010376792, 10.000817, 9.99866 
1.785141e+3, 1.8505347e+2, -1098594.3, -1236515.9, -23098.814, 0.043840047, 0.2673055, -1094828.5, 31672.502, 0.0000000562377, 10.000726, 9.998895 
1.7851329e+3, 1.950522e+2, -1008513.6, -1146481.9, -27338.814, -0.00601207, 0.24841498, -1003293.9, 25219.21, 0.0, 10.00069, 9.9988575 
1.7851254e+3, 2.0505093e+2, -935564.4, -1074027.3, -30923.68, -0.004304467, 0.24549322, -928971.9, 1553.6903, 0.0, 10.000575, 9.998738 
1.7851186e+3, 2.1504977e+2, -868138.0, -995134.9, -26640.924, 0.05415144, 0.25189197, -862775.8, -30238.4, 0.0, 10.000384, 9.998699 
1.785111e+3, 2.2504872e+2, -753147.4, -835368.0, -39819.145, 0.058862098, 0.2576795, -737024.6, -2477.155, 0.0, 10.00027, 9.999178 
1.7851028e+3, 2.3504792e+2, -663378.2, -744978.9, -51174.426, 0.008808469, 0.25684878, -638730.1, -2175.576, 0.0, 10.00023, 9.999145 
1.785095e+3, 2.4504685e+2, -580308.25, -656431.2, -36814.59, -0.007419244, 0.24038363, -565417.0, -26852.895, 0.0, 10.000137, 9.999124 
1.7850879e+3, 2.5504568e+2, -507385.56, -575677.25, -35055.914, 0.010199353, 0.2064889, -492594.13, -52019.664, 0.0, 9.999987, 9.999078 
1.7850806e+3, 2.6504475e+2, -427256.84, -504667.1, -35048.934, -0.0023873602, 0.21759163, -413745.94, -71162.44, 0.0, 9.999944, 9.998913 
1.785073e+3, 2.7504414e+2, -322500.25, -407120.66, -47552.547, -0.043627393, 0.26056147, -301159.84, -56569.37, 0.0, 10.000007, 9.998879 
1.7850661e+3, 2.8504285e+2, -258196.63, -344552.94, -34157.383, -0.02197948, 0.25783855, -246319.53, -99715.875, 0.0, 9.999858, 9.998708 
1.78506e+3, 2.9504132e+2, -220512.3, -283825.66, -32426.813, 0.056654498, 0.22933769, -206851.84, -158232.56, 0.0, 9.999478, 9.998634 
1.7850517e+3, 3.050405e+2, -135540.0, -119259.695, -23939.213, -0.10036496, 0.24547505, -102114.516, -102114.516, 0.0, 9.999301, 9.999517 
1.7850463e+3, 3.1504038e+2, -79262.016, -32738.104, -64182.13, 0.028829483, 0.27287832, 12267.533, 12267.533, 0.0, 9.999434, 10.000045 
1.7951834e+3, 1.250667e+2, -1607044.5, -1753315.4, -41851.215, 0.0435778, 0.2098932, -1595916.6, 118451.02, 0.06348081, 10.0012, 9.99916 
1.7951757e+3, 1.3506593e+2, -1531590.4, -1693656.8, 53052.215, -0.16503969, 0.23162301, -1515768.4, 100607.06, 0.042666107, 10.001125, 9.998937 
1.7951716e+3, 1.450644e+2, -1442763.9, -1598602.5, -15042.151, 0.10398163, 0.18852016, -1441325.3, 77065.64, 0.022929061, 10.0010395, 9.998951 
1.7951638e+3, 1.550639e+2, -1345217.0, -1503823.5, -7569.405, 0.035572074, 0.23939084, -1344856.6, 75539.33, 0.008742895, 10.00104, 9.998928 
1.795156e+3, 1.6506277e+2, -1275929.0, -1449931.9, -17693.986, -0.009238261, 0.2511575, -1274148.0, 48259.28, 0.0018895128, 10.000967, 9.998661 
1.7951488e+3, 1.7506106e+2, -1201378.0, -1367767.1, -18005.322, 0.01956087, 0.21112911, -1199451.9, 24972.482, 0.00012002824, 10.000825, 9.998621 
1.7951415e+3, 1.8505979e+2, -1106590.6, -1254976.0, -24328.752, 0.03580313, 0.21701096, -1102703.6, 23734.059, 0.000000085167756, 10.000731, 9.998767 
1.795134e+3, 1.9505908e+2, -1016896.8, -1165417.1, -28121.896, 0.022245033, 0.26697376, -1011750.4, 16695.334, 0.0, 10.000694, 9.998727 
1.7951263e+3, 2.050579e+2, -926629.0, -1056643.0, -37629.46, 0.021502502, 0.27429807, -916523.5, 13933.785, 0.0, 10.000578, 9.9988575 
1.7951187e+3, 2.1505639e+2, -858914.4, -978103.9, -32674.404, 0.039423972, 0.23453158, -850544.8, -18073.65, 0.0, 10.000391, 9.998814 
1.7951111e+3, 2.2505513e+2, -772111.1, -876558.4, -40576.09, 0.038473718, 0.2258773, -758200.6, -23717.154, 0.0, 10.000276, 9.998893 
1.795103e+3, 2.3505421e+2, -682468.6, -786468.44, -51677.23, 0.017973745, 0.24110936, -661157.4, -24664.484, 0.0, 10.000236, 9.998858 
1.7950954e+3, 2.4505316e+2, -574472.44, -645419.9, -41641.664, 0.013439615, 0.2378233, -555243.2, -16740.943, 0.0, 10.00014, 9.999199 
1.795088e+3, 2.5505215e+2, -501168.56, -564051.25, -39421.74, 0.023938768, 0.21367046, -482185.4, -41675.35, 0.0, 9.99999, 9.999157 
1.7950805e+3, 2.6505107e+2, -447592.38, -548321.2, -31809.66, -0.0032156166, 0.21841322, -438388.1, -95867.15, 0.0, 9.999948, 9.998612 
1.7950727e+3, 2.7504992e+2, -343266.16, -452781.16, -43621.355, -0.06410972, 0.24080737, -328015.03, -83480.99, 0.0, 10.000015, 9.998563 
1.7950659e+3, 2.8504863e+2, -242049.36, -313191.4, -47529.74, -0.032191318, 0.24213639, -218253.95, -71706.98, 0.0, 9.999866, 9.99892 
1.7950597e+3, 2.9504758e+2, -202090.27, -247292.4, -46993.742, 0.08017442, 0.24080603, -172545.2, -123989.32, 0.0, 9.999483, 9.998884 
1.7950511e+3, 3.05046e+2, -156215.94, -161988.58, -20348.807, -0.09914726, 0.18069531, -138549.77, -138549.77, 0.0, 9.999299, 9.999225 
1.7950454e+3, 3.1504607e+2, -91984.055, -62511.34, -23901.563, 0.0037902358, 0.26103368, -49168.438, -49168.438, 0.0, 9.999446, 9.999836 
1.8051848e+3, 1.2507388e+2, -1564673.1, -1738514.9, -56878.848, 0.051525097, 0.22785047, -1547717.0, 166581.16, 0.06701591, 10.001546, 9.999097 
1.8051767e+3, 1.3507299e+2, -1503063.3, -1680428.6, 37472.563, -0.17328355, 0.24013565, -1495471.4, 120835.07, 0.04517134, 10.001337, 9.998924 
1.8051729e+3, 1.4507131e+2, -1429019.4, -1598964.3, -19654.594, 0.10812591, 0.18798585, -1426775.9, 91546.945, 0.024407428, 10.00117, 9.998884 
1.8051648e+3, 1.5507078e+2, -1335543.4, -1507078.0, -15510.501, 0.028557684, 0.24039847, -1334152.3, 86176.42, 0.009402774, 10.001144, 9.998855 
1.8051569e+3, 1.6506961e+2, -1256306.9, -1428993.6, -27211.754, -0.018906737, 0.24693501, -1252120.4, 70219.56, 0.0020725057, 10.001056, 9.99876 
1.8051496e+3, 1.750679e+2, -1183027.5, -1347880.0, -18662.46, 0.012803988, 0.19603899, -1180941.3, 43414.777, 0.00013754408, 10.000906, 9.998716 
1.8051423e+3, 1.8506657e+2, -1111631.0, -1276478.8, -18944.305, 0.036816787, 0.20138778, -1109482.0, 16887.855, 0.00000010953618, 10.000782, 9.998593 
1.8051347e+3, 1.9506578e+2, -1030336.1, -1191105.9, -26592.111, 0.036263287, 0.2606787, -1026051.8, 2327.867, 0.0, 10.000687, 9.998553 
1.8051271e+3, 2.050646e+2, -913370.6, -1046141.2, -41329.625, 0.032968517, 0.27301544, -901556.5, 28835.266, 0.0, 10.000654, 9.998892 
1.8051192e+3, 2.1506312e+2, -814628.5, -952489.06, -43634.83, 0.032468937, 0.23407377, -801978.25, 30426.473, 0.0, 10.00068, 9.998849 
1.8051115e+3, 2.2506179e+2, -735945.9, -872839.4, -50316.793, 0.03285191, 0.22320758, -719441.25, 14976.364, 0.0, 10.000586, 9.998769 
1.8051036e+3, 2.350607e+2, -672241.0, -795946.2, -49787.72, 0.032995757, 0.23380733, -654692.4, -18263.324, 0.0, 10.000369, 9.998729 
1.8050957e+3, 2.450596e+2, -570468.2, -651966.8, -39654.945, 0.030355021, 0.23640329, -554357.8, -15918.812, 0.0, 10.000204, 9.999124 
1.805088e+3, 2.5505868e+2, -492364.6, -567796.8, -49491.227, 0.023577617, 0.22787595, -467856.22, -27410.254, 0.0, 10.000087, 9.999084 
1.8050805e+3, 2.650574e+2, -447596.88, -552504.2, -34082.56, -0.0048415624, 0.22222257, -437496.5, -95038.266, 0.0, 9.999967, 9.998574 
1.8050729e+3, 2.750559e+2, -372488.16, -471898.3, -26508.594, -0.04899319, 0.20854361, -365861.2, -121386.2, 0.0, 9.999836, 9.998518 
1.8050659e+3, 2.8505468e+2, -248233.7, -307758.1, -30514.998, -0.019535597, 0.21645576, -235370.16, -88883.38, 0.0, 9.999786, 9.998997 
1.8050593e+3, 2.9505417e+2, -147421.11, -209863.05, -41927.152, 0.06748253, 0.2627419, -126367.46, -77877.65, 0.0, 9.999812, 9.998982 
1.8050502e+3, 3.0505207e+2, -152020.05, -184163.05, -21170.754, -0.10478661, 0.1553163, -141511.6, -141511.6, 0.0, 9.999435, 9.999005 
1.8050447e+3, 3.1505197e+2, -178214.64, -90162.04, 17590.795, 0.022907194, 0.24257922, -86777.88, -86777.88, 0.0, 9.998794, 9.999962 
1.8151858e+3, 1.2508088e+2, -1555740.3, -1718521.9, -50222.92, 0.013744538, 0.26112446, -1541492.1, 172739.78, 0.070709445, 10.001549, 9.999233 
1.8151782e+3, 1.3508017e+2, -1490176.8, -1652279.6, 28097.639, -0.16072012, 0.27079606, -1485444.8, 130792.08, 0.04779401, 10.001338, 9.999117 
1.8151744e+3, 1.4507836e+2, -1437539.9, -1617757.1, -22590.506, 0.1390553, 0.20016862, -1434751.3, 83502.79, 0.025961049, 10.001172, 9.998756 
1.8151656e+3, 1.5507734e+2, -1343651.0, -1525680.9, -16517.883, -0.0012650845, 0.21862033, -1342164.3, 78100.484, 0.010102001, 10.001149, 9.998725 
1.8151575e+3, 1.6507624e+2, -1239790.6, -1396263.5, -33003.03, -0.059689112, 0.2274911, -1233114.6, 89160.29, 0.0022691044, 10.0010605, 9.998983 
1.8151505e+3, 1.7507514e+2, -1166514.1, -1315566.9, -24191.959, 0.008308522, 0.21726437, -1162685.9, 61597.76, 0.00015675182, 10.000913, 9.998936 
1.8151432e+3, 1.8507378e+2, -1126457.5, -1309270.0, -22491.955, 0.04544761, 0.21896066, -1123730.9, 2566.7856, 0.00000012908751, 10.000789, 9.998367 
1.8151353e+3, 1.9507228e+2, -1044641.25, -1223395.8, -29396.63, 0.03627957, 0.22963925, -1039931.0, -11615.778, 0.0, 10.000696, 9.998328 
1.8151277e+3, 2.0507096e+2, -916288.8, -1053935.8, -39672.773, 0.029603098, 0.24207926, -905673.0, 24656.234, 0.0, 10.000659, 9.9988365 
1.81512e+3, 2.150699e+2, -818004.0, -960729.0, -41656.16, 0.03147336, 0.25036, -806735.75, 25602.783, 0.0, 10.000683, 9.998793 
1.8151121e+3, 2.2506864e+2, -733734.9, -868692.5, -57620.277, 0.0399828, 0.24939637, -712481.06, 21869.426, 0.0, 10.000586, 9.998798 
1.8151042e+3, 2.3506734e+2, -669514.6, -791903.7, -56473.445, 0.053170677, 0.2342932, -647438.4, -11074.728, 0.0, 10.000374, 9.998755 
1.8150961e+3, 2.4506612e+2, -585919.44, -685759.25, -43043.688, 0.04297282, 0.23439445, -569924.56, -31549.492, 0.0, 10.00021, 9.99889 
1.815088e+3, 2.5506517e+2, -507742.44, -602129.56, -52636.844, 0.008982268, 0.2471892, -484240.4, -43857.355, 0.0, 10.000094, 9.998846 
1.8150803e+3, 2.6506376e+2, -431557.97, -520433.6, -38091.242, -0.007941468, 0.22844146, -417466.63, -75070.4, 0.0, 9.99997, 9.998794 
1.8150732e+3, 2.75062e+2, -357241.8, -439998.56, -29882.58, -0.0029503983, 0.1664599, -347579.63, -103165.79, 0.0, 9.999833, 9.998739 
1.8150659e+3, 2.850609e+2, -251850.05, -316418.34, -28534.936, 0.011302595, 0.18186727, -241046.97, -94623.18, 0.0, 9.999788, 9.998938 
1.8150587e+3, 2.9506096e+2, -148706.92, -217623.72, -41521.258, 0.020112371, 0.29005828, -129207.97, -80785.516, 0.0, 9.999831, 9.998921 
1.8150496e+3, 3.050586e+2, -161918.75, -206873.2, -47692.28, -0.11288859, 0.1672165, -131672.36, -131672.36, 0.0, 9.999446, 9.998844 
1.815044e+3, 3.1505764e+2, -146009.94, -23156.363, 30627.385, 0.06886394, 0.18803233, -15944.336, -15944.336, 0.0, 9.998791, 10.000424 
1.8251877e+3, 1.2508778e+2, -1542023.3, -1708478.5, -36753.613, 0.023611134, 0.2789032, -1534269.3, 179896.3, 0.07457094, 10.001646, 9.999252 
1.8251796e+3, 1.3508698e+2, -1471546.6, -1636162.6, 13508.44, -0.16384897, 0.27493882, -1470445.5, 145724.92, 0.050543215, 10.001449, 9.999172 
1.8251756e+3, 1.4508516e+2, -1427042.4, -1603753.1, -30660.799, 0.1427135, 0.19742414, -1421873.8, 96313.52, 0.02759675, 10.001212, 9.998832 
1.8251666e+3, 1.5508418e+2, -1353941.9, -1522799.8, -9866.184, -0.004941377, 0.21224332, -1353367.4, 66829.875, 0.010844452, 10.001047, 9.998793 
1.8251586e+3, 1.650831e+2, -1252919.6, -1406392.5, -27403.113, -0.062472, 0.2207334, -1248173.4, 74033.85, 0.0024812517, 10.00099, 9.998947 
1.8251514e+3, 1.75082e+2, -1153014.5, -1313327.3, -38588.375, 0.012703013, 0.21407892, -1144209.6, 80006.66, 0.00017806876, 10.001026, 9.998895 
1.825144e+3, 1.8508062e+2, -1093678.0, -1288718.9, -38086.02, 0.050101604, 0.21457516, -1086504.6, 39725.6, 0.00000015151502, 10.000996, 9.998406 
1.8251362e+3, 1.9507912e+2, -1012080.7, -1203457.0, -26897.861, 0.03432172, 0.21987408, -1008372.06, 19875.52, 0.0, 10.000904, 9.9983635 
1.8251283e+3, 2.0507774e+2, -907072.06, -1059649.6, -28742.29, 0.028765036, 0.23180224, -901837.25, 28424.723, 0.0, 10.000769, 9.998744 
1.8251206e+3, 2.1507664e+2, -838759.7, -980871.56, -34042.574, 0.039130807, 0.24433859, -831025.75, 1246.424, 0.0, 10.000586, 9.998699 
1.8251127e+3, 2.250754e+2, -746347.56, -874469.25, -53140.555, 0.046869587, 0.24808635, -727175.5, 7108.726, 0.0, 10.000499, 9.9988 
1.8251045e+3, 2.3507412e+2, -651176.4, -782529.8, -55110.41, 0.049931604, 0.23770188, -631117.5, 5179.22, 0.0, 10.000501, 9.998757 
1.8250963e+3, 2.4507281e+2, -562623.0, -685872.3, -38976.89, 0.041322034, 0.23482221, -551331.3, -13022.282, 0.0, 10.000421, 9.998787 
1.8250884e+3, 2.5507167e+2, -491691.53, -606299.7, -38951.746, 0.02102953, 0.2368884, -479706.38, -39386.926, 0.0, 10.000257, 9.998739 
1.8250805e+3, 2.650703e+2, -415695.84, -493754.53, -25497.596, 0.009756432, 0.21778718, -408105.28, -65773.24, 0.0, 9.999998, 9.998963 
1.825073e+3, 2.7506876e+2, -373799.38, -428733.1, -21636.354, 0.010662704, 0.16635671, -366301.13, -121955.266, 0.0, 9.999639, 9.99891 
1.8250656e+3, 2.8506768e+2, -295733.78, -348030.1, -10887.106, 0.013622969, 0.17541574, -293557.84, -147201.8, 0.0, 9.999533, 9.998843 
1.8250583e+3, 2.9506737e+2, -182213.11, -243652.36, -28664.066, 0.00989616, 0.25845885, -170916.97, -122557.92, 0.0, 9.999644, 9.998833 
1.8250494e+3, 3.0506527e+2, -180488.02, -222534.53, -58146.695, -0.0717815, 0.16904157, -139680.73, -139680.73, 0.0, 9.999349, 9.998782 
1.8250427e+3, 3.1506422e+2, -115463.31, 34809.82, 57479.063, 0.06096059, 0.18376072, 54274.24, 54274.24, 0.0, 9.998814, 10.000812 
1.8351898e+3, 1.250946e+2, -1548851.8, -1723089.1, -26740.51, 0.06663454, 0.28217295, -1544840.3, 169258.52, 0.078607194, 10.00165, 9.999148 
1.835181e+3, 1.350935e+2, -1476068.9, -1646941.1, 5087.5176, -0.18085773, 0.2547403, -1475917.5, 140189.36, 0.053423084, 10.001455, 9.999096 
1.8351765e+3, 1.450918e+2, -1408348.3, -1566135.5, -38253.777, 0.121684186, 0.18227014, -1399563.1, 118558.875, 0.029318087, 10.001221, 9.999088 
1.8351679e+3, 1.5509132e+2, -1335123.9, -1485575.6, -15838.136, 0.0142282555, 0.22023359, -1333474.8, 86651.76, 0.011632793, 10.001055, 9.999046 
1.8351598e+3, 1.6509016e+2, -1272742.4, -1449709.1, -25894.87, -0.032038078, 0.22529104, -1269031.1, 53106.17, 0.0027105468, 10.000997, 9.998648 
1.8351527e+3, 1.7508845e+2, -1172344.8, -1355970.8, -36716.348, 0.024503198, 0.18690956, -1165275.5, 58878.176, 0.00020187897, 10.001035, 9.998599 
1.8351452e+3, 1.8508708e+2, -1072893.9, -1247636.4, -41215.43, 0.04982119, 0.18959059, -1063660.5, 62506.914, 0.00000018976193, 10.001002, 9.998687 
1.8351372e+3, 1.9508621e+2, -991676.75, -1163304.0, -29733.6, 0.029512567, 0.23112285, -986671.5, 41505.53, 0.0, 10.000912, 9.998636 
1.8351291e+3, 2.050849e+2, -915651.5, -1078977.4, -35101.52, 0.029468367, 0.24151999, -908427.2, 21763.307, 0.0, 10.000773, 9.99861 
1.8351214e+3, 2.1508329e+2, -847072.2, -999975.1, -39747.84, 0.05472895, 0.21585283, -837356.9, -5150.5977, 0.0, 10.000591, 9.998567 
1.8351133e+3, 2.2508194e+2, -748381.6, -879755.7, -52172.95, 0.052810863, 0.21882275, -730183.06, 4036.4614, 0.0, 10.000502, 9.998763 
1.8351047e+3, 2.3508099e+2, -653081.1, -788090.06, -53807.305, 0.022835886, 0.24401055, -634260.2, 1968.6935, 0.0, 10.0005045, 9.998718 
1.8350966e+3, 2.4507965e+2, -560896.06, -682634.7, -44212.824, 0.024731666, 0.23794308, -546533.44, -8291.877, 0.0, 10.000421, 9.99881 
1.835089e+3, 2.550781e+2, -489848.03, -602704.06, -43755.105, 0.057516806, 0.19808914, -474871.38, -34615.47, 0.0, 10.000257, 9.998765 
1.835081e+3, 2.650769e+2, -407783.9, -478571.97, -38044.01, 0.046351146, 0.19031346, -391215.6, -48949.12, 0.0, 10.000001, 9.999067 
1.8350725e+3, 2.7507615e+2, -365109.72, -414206.4, -33736.996, -0.007487635, 0.20595537, -347935.1, -103662.86, 0.0, 9.99965, 9.999005 
1.8350649e+3, 2.8507486e+2, -302767.25, -365033.4, -6429.2886, -0.012247964, 0.19455078, -302110.3, -155825.53, 0.0, 9.999541, 9.998722 
1.8350582e+3, 2.9507333e+2, -190615.89, -261019.98, -25739.836, 0.030599793, 0.16790885, -182209.19, -133908.58, 0.0, 9.999642, 9.998715 
1.8350497e+3, 3.0507204e+2, -178421.53, -218578.03, -79942.53, 0.014512716, 0.16567701, -116074.39, -116074.39, 0.0, 9.999348, 9.998811 
1.8350409e+3, 3.1507155e+2, -97661.14, 64859.266, 55991.363, 0.0014257913, 0.23537627, 82281.65, 82281.65, 0.0, 9.998839, 10.001008 
1.8451917e+3, 1.251014e+2, -1476068.0, -1687486.6, 3788.7363, 0.07603244, 0.24890019, -1476000.1, 238030.36, 0.08282543, 10.002206, 9.999138 
1.8451825e+3, 1.3510053e+2, -1467993.0, -1643221.4, 20533.764, -0.1660593, 0.24446198, -1465619.0, 150417.95, 0.056440935, 10.001522, 9.999088 
1.8451779e+3, 1.4509895e+2, -1411009.3, -1570759.9, -14412.097, 0.13263455, 0.18530776, -1409719.4, 108331.97, 0.031130945, 10.001221, 9.999053 
1.845169e+3, 1.5509838e+2, -1294046.1, -1469765.6, -13127.257, 0.011440387, 0.21745704, -1293070.9, 126986.13, 0.012470454, 10.001362, 9.999005 
1.845161e+3, 1.6509718e+2, -1224868.1, -1427753.8, -25886.121, -0.033859856, 0.2218598, -1221617.4, 100451.02, 0.0029586433, 10.001333, 9.998634 
1.8451539e+3, 1.7509551e+2, -1158155.8, -1350971.8, -16856.145, 0.032121155, 0.18945478, -1156693.3, 67391.12, 0.00022870715, 10.0011425, 9.998581 
1.8451463e+3, 1.8509415e+2, -1070715.9, -1248490.6, -21986.041, 0.059075326, 0.1933099, -1068037.1, 58061.168, 0.00000025167606, 10.001028, 9.998667 
1.845138e+3, 1.9509321e+2, -982234.5, -1160874.0, -33194.02, 0.03435526, 0.23113413, -976265.94, 51842.355, 0.0, 10.000988, 9.998615 
1.84513e+3, 2.050919e+2, -898982.2, -1066802.6, -47700.45, 0.029470697, 0.23966584, -886371.7, 43750.055, 0.0, 10.000872, 9.998645 
1.845122e+3, 2.1509032e+2, -831816.9, -988967.75, -40856.406, 0.04877144, 0.21431452, -821829.6, 10307.403, 0.0, 10.000683, 9.998597 
1.8451138e+3, 2.2508892e+2, -740452.7, -878577.4, -40863.293, 0.049149495, 0.21366455, -729269.06, 4881.4453, 0.0, 10.000569, 9.998737 
1.8451053e+3, 2.3508789e+2, -652854.56, -791168.56, -42455.69, 0.029359385, 0.23155251, -640862.5, -4701.6763, 0.0, 10.000523, 9.998688 
1.8450971e+3, 2.4508655e+2, -567069.44, -680987.8, -39437.066, 0.03326471, 0.2256544, -554749.25, -16575.791, 0.0, 10.00036, 9.998849 
1.845089e+3, 2.550851e+2, -513548.06, -609414.75, -38721.977, 0.06142675, 0.1924739, -499861.66, -59674.773, 0.0, 10.000076, 9.998804 
1.845081e+3, 2.6508397e+2, -420409.6, -488745.72, -35803.152, 0.057563115, 0.19172052, -405087.03, -62890.15, 0.0, 9.999934, 9.999028 
1.8450725e+3, 2.7508324e+2, -326475.53, -400055.78, -42000.477, 0.019152125, 0.2152862, -307430.6, -63228.137, 0.0, 9.999937, 9.998962 
1.8450646e+3, 2.8508192e+2, -275515.47, -343072.13, -13357.84, -0.004431754, 0.19593625, -272970.16, -126754.484, 0.0, 9.999692, 9.9988 
1.8450573e+3, 2.9508024e+2, -251683.5, -281068.9, -20451.602, -0.0021684256, 0.1446089, -241194.0, -192960.9, 0.0, 9.999185, 9.998796 
1.8450493e+3, 3.0507955e+2, -216916.05, -235912.75, -63862.855, 0.05953066, 0.19949327, -161849.06, -161849.06, 0.0, 9.999081, 9.998819 
1.8450397e+3, 3.1507856e+2, -27979.271, 83524.85, 71803.76, -0.022277992, 0.21728, 118679.734, 118679.734, 0.0, 9.999384, 10.000874 
1.8551937e+3, 1.2510829e+2, -1471511.5, -1677529.0, -1793.6747, 0.050576475, 0.18446368, -1471495.9, 242464.45, 0.08723424, 10.002212, 9.999212 
1.8551844e+3, 1.3510811e+2, -1463580.3, -1634108.3, -5220.253, -0.12506609, 0.24191074, -1463420.5, 152540.27, 0.059608437, 10.001528, 9.999148 
1.8551794e+3, 1.451066e+2, -1432622.6, -1618488.6, -10822.171, 0.16864727, 0.20305015, -1431994.6, 85980.9, 0.033044614, 10.001226, 9.998724 
1.8551701e+3, 1.5510538e+2, -1316224.0, -1517959.4, -7953.128, -0.012592818, 0.20482096, -1315911.0, 104077.695, 0.01336274, 10.001368, 9.9986725 
1.855162e+3, 1.651042e+2, -1206093.5, -1390994.0, -33203.746, -0.065986104, 0.21362442, -1200311.6, 121688.54, 0.0032280337, 10.001341, 9.998885 
1.8551551e+3, 1.7510317e+2, -1139386.1, -1314792.3, -23880.328, 0.0352195, 0.22044188, -1136193.1, 87815.89, 0.000259364, 10.001152, 9.998826 
1.8551473e+3, 1.8510175e+2, -1091976.3, -1294484.6, -23302.182, 0.075920105, 0.22317228, -1089329.5, 36694.02, 0.0000003514084, 10.001034, 9.99835 
1.8551391e+3, 1.951001e+2, -1003385.06, -1206302.1, -33840.87, 0.047558878, 0.21947634, -997890.1, 30151.543, 0.0, 10.000992, 9.998302 
1.8551308e+3, 2.0509869e+2, -885397.0, -1039637.7, -54106.33, 0.0280069, 0.2265003, -868309.9, 61746.055, 0.0, 10.0008745, 9.998832 
1.8551223e+3, 2.1509767e+2, -818282.3, -962488.75, -46733.316, 0.021107906, 0.23878005, -804461.9, 27603.133, 0.0, 10.000688, 9.998778 
1.8551141e+3, 2.250963e+2, -741862.44, -882139.2, -41762.93, 0.035462268, 0.23162393, -730370.3, 3707.6138, 0.0, 10.00057, 9.9987135 
1.8551062e+3, 2.3509473e+2, -654368.75, -795192.94, -42903.895, 0.06791799, 0.2003345, -642327.2, -6233.9844, 0.0, 10.0005245, 9.99866 
1.8550977e+3, 2.4509344e+2, -563891.75, -675069.06, -49219.254, 0.065146916, 0.19744004, -545233.3, -7127.7734, 0.0, 10.0003605, 9.99889 
1.8550889e+3, 2.5509256e+2, -509605.1, -603426.6, -48370.01, 0.032165565, 0.21889882, -489134.25, -49020.91, 0.0, 10.000083, 9.998843 
1.8550809e+3, 2.650914e+2, -432580.44, -515392.56, -35191.46, 0.043671478, 0.220822, -419645.9, -77521.58, 0.0, 9.999939, 9.998844 
1.8550731e+3, 2.7509e+2, -338975.4, -426501.9, -40790.355, 0.08833084, 0.19468042, -322913.28, -78775.89, 0.0, 9.999938, 9.998782 
1.8550646e+3, 2.8508872e+2, -257060.5, -305796.1, -31994.225, 0.03381363, 0.18015552, -241211.14, -95061.5, 0.0, 9.999694, 9.999056 
1.8550555e+3, 2.950879e+2, -231926.05, -243315.44, -39236.89, -0.089715436, 0.18734565, -197972.75, -149814.89, 0.0, 9.999196, 9.999052 
1.8550484e+3, 3.050876e+2, -214216.75, -233917.78, -52723.81, 0.06403981, 0.2663882, -170431.14, -170431.14, 0.0, 9.999095, 9.998827 
1.8550394e+3, 3.1508565e+2, -65663.31, 2974.3232, 64216.766, -0.00044495577, 0.19211338, 41467.414, 41467.414, 0.0, 9.999393, 10.000316 
1.8651958e+3, 1.2511568e+2, -1512051.3, -1716935.0, 16511.895, 0.045807917, 0.15774134, -1510729.0, 203156.86, 0.09184, 10.002009, 9.999015 
1.8651862e+3, 1.3511547e+2, -1409569.4, -1631286.3, -27767.668, -0.12431265, 0.23631394, -1406144.8, 209743.33, 0.06293432, 10.002037, 9.998923 
1.8651809e+3, 1.4511392e+2, -1350462.6, -1579568.5, -25910.076, 0.16322921, 0.20459603, -1347568.9, 170334.98, 0.035067134, 10.001823, 9.998702 
1.8651716e+3, 1.5511265e+2, -1311343.4, -1518614.8, -1264.4213, -0.0026011823, 0.20443472, -1311335.6, 108581.6, 0.0143153975, 10.001417, 9.998644 
1.8651634e+3, 1.651115e+2, -1216367.9, -1395884.1, -21070.555, -0.053259373, 0.21598415, -1213927.9, 108000.87, 0.0035219262, 10.001272, 9.998882 
1.8651563e+3, 1.7511053e+2, -1105472.9, -1298686.6, -31611.213, 0.032803025, 0.22948702, -1100432.5, 123504.57, 0.00029482722, 10.001388, 9.998821 
1.8651484e+3, 1.8510908e+2, -1056223.1, -1274390.1, -33689.305, 0.07074601, 0.22984044, -1051139.4, 74812.34, 0.00000050835786, 10.001268, 9.998374 
1.8651402e+3, 1.9510736e+2, -1012498.2, -1208328.5, -20207.871, 0.052823544, 0.21591069, -1010434.7, 17535.7, 0.0, 10.000921, 9.998322 
1.8651317e+3, 2.0510595e+2, -904361.44, -1048311.9, -31614.365, 0.03584966, 0.22055735, -897724.3, 32260.445, 0.0, 10.000744, 9.998834 
1.865123e+3, 2.1510498e+2, -812244.3, -959490.06, -38917.016, 0.023237346, 0.23825978, -802591.4, 29402.063, 0.0, 10.000731, 9.998776 
1.8651147e+3, 2.2510366e+2, -735996.94, -874074.44, -40073.805, 0.039270177, 0.23556104, -725209.25, 8796.572, 0.0, 10.00059, 9.998758 
1.8651067e+3, 2.3510219e+2, -680952.2, -803125.3, -36729.766, 0.07986572, 0.20810544, -670760.1, -34739.81, 0.0, 10.000323, 9.998701 
1.8650982e+3, 2.4510087e+2, -584059.8, -686672.44, -40213.594, 0.07003112, 0.20362915, -570178.1, -32145.41, 0.0, 10.000234, 9.998871 
1.865089e+3, 2.5509992e+2, -478919.47, -591254.56, -44881.418, 0.017444164, 0.21761242, -463190.3, -23148.773, 0.0, 10.000308, 9.9988165 
1.8650807e+3, 2.6509872e+2, -404865.5, -499055.1, -31073.55, 0.03583702, 0.21769994, -395537.9, -53485.03, 0.0, 10.000118, 9.998868 
1.8650731e+3, 2.750974e+2, -377160.53, -440939.22, -22087.707, 0.10832921, 0.19698146, -370258.16, -126192.76, 0.0, 9.999661, 9.998815 
1.8650644e+3, 2.8509626e+2, -301032.0, -316393.28, -14066.422, 0.04234019, 0.18771468, -292685.9, -146609.6, 0.0, 9.99935, 9.999147 
1.8650545e+3, 2.950955e+2, -222564.38, -229097.45, -31891.42, -0.11616522, 0.19338456, -193772.64, -145689.38, 0.0, 9.999222, 9.999135 
1.8650481e+3, 3.0509508e+2, -183341.1, -211902.44, -33856.535, 0.10413132, 0.25412345, -160876.66, -160876.66, 0.0, 9.999277, 9.998889 
1.8650386e+3, 3.150931e+2, -107303.65, -55800.293, 51784.043, -0.017287169, 0.17294836, -23718.28, -23718.28, 0.0, 9.999277, 9.999965 
1.8751979e+3, 1.2512356e+2, -1542163.5, -1786064.4, 34971.727, 0.05211868, 0.1636443, -1537248.1, 176559.33, 0.09664733, 10.002019, 9.998539 
1.8751879e+3, 1.3512273e+2, -1442965.0, -1705310.8, -28391.324, -0.16153714, 0.23014691, -1439927.6, 175890.25, 0.06642349, 10.002044, 9.998411 
1.8751822e+3, 1.4512102e+2, -1331569.6, -1540792.8, -41098.21, 0.11825301, 0.19590522, -1323786.1, 194049.31, 0.03720382, 10.001832, 9.998967 
1.8751734e+3, 1.5512021e+2, -1292603.0, -1480501.6, -16238.641, 0.037729204, 0.2145565, -1291210.0, 128632.91, 0.015333298, 10.001422, 9.998904 
1.8751651e+3, 1.6511904e+2, -1234088.3, -1433762.3, -17001.47, -0.00071924285, 0.22525902, -1232651.0, 89203.336, 0.003843571, 10.001274, 9.998623 
1.8751575e+3, 1.751176e+2, -1122897.3, -1336246.8, -26880.607, 0.024182774, 0.21766968, -1119562.6, 104305.91, 0.00033613745, 10.001391, 9.998563 
1.8751496e+3, 1.851162e+2, -1031447.8, -1224387.5, -46343.29, 0.043743856, 0.21670677, -1020893.7, 104988.96, 0.000000733184, 10.001272, 9.998716 
1.8751411e+3, 1.9511497e+2, -987985.6, -1159463.1, -32626.975, 0.04975247, 0.22032687, -981987.56, 45907.305, 0.0, 10.000928, 9.998655 
1.8751326e+3, 2.0511359e+2, -916935.3, -1075642.4, -31557.457, 0.051641826, 0.22092927, -910890.6, 19018.135, 0.0, 10.000748, 9.998646 
1.8751241e+3, 2.1511218e+2, -825296.56, -987148.2, -38205.21, 0.053281978, 0.21328864, -816731.44, 15191.385, 0.0, 10.000731, 9.998588 
1.8751156e+3, 2.2511098e+2, -728570.75, -858759.0, -49179.332, 0.05882039, 0.22572728, -712081.44, 21853.295, 0.0, 10.000589, 9.998865 
1.875107e+3, 2.3511015e+2, -672863.3, -787811.06, -45305.44, 0.06489594, 0.25323167, -657153.6, -21210.7, 0.0, 10.000327, 9.998805 
1.8750982e+3, 2.4510878e+2, -589705.75, -699614.9, -36409.82, 0.048377097, 0.24233268, -578738.56, -40782.59, 0.0, 10.0002365, 9.998781 
1.8750893e+3, 2.5510705e+2, -485211.66, -605579.6, -40905.895, 0.016108, 0.18895261, -472626.1, -32653.94, 0.0, 10.000312, 9.998717 
1.8750808e+3, 2.6510587e+2, -389261.97, -467466.13, -47564.92, 0.03260221, 0.1830965, -366789.75, -24806.404, 0.0, 10.00012, 9.999085 
1.8750726e+3, 2.7510536e+2, -360184.75, -407885.06, -39139.69, 0.07855015, 0.22093083, -338201.03, -94213.33, 0.0, 9.999668, 9.999039 
1.8750635e+3, 2.8510433e+2, -305247.94, -326500.75, -19151.547, 0.021253198, 0.21830526, -293972.22, -147975.3, 0.0, 9.999354, 9.999077 
1.8750541e+3, 2.9510292e+2, -228882.16, -242434.8, -33131.434, -0.08271179, 0.16587906, -201841.17, -153831.06, 0.0, 9.999221, 9.999045 
1.8750481e+3, 3.0510184e+2, -174803.05, -197224.05, -30700.912, 0.17575528, 0.15914099, -153329.89, -153329.89, 0.0, 9.999286, 9.998988 
1.8750374e+3, 3.1510136e+2, -112055.195, -72037.98, 3806.957, -0.05495648, 0.21665855, -71679.03, -71679.03, 0.0, 9.999303, 9.999842 
1.8852001e+3, 1.2513126e+2, -1453863.3, -1737462.6, 17554.535, 0.043355796, 0.19388688, -1452780.8, 260952.3, 0.1016649, 10.002698, 9.998543 
1.88519e+3, 1.3513018e+2, -1434098.3, -1701551.9, -30248.0, -0.15769903, 0.23599888, -1430720.0, 185025.72, 0.07008103, 10.00212, 9.998401 
1.8851839e+3, 1.4512837e+2, -1337303.9, -1538236.5, -32450.59, 0.10670977, 0.18967555, -1332193.1, 185570.89, 0.039458163, 10.001774, 9.999011 
1.8851751e+3, 1.5512778e+2, -1254335.0, -1457350.3, -24411.486, 0.052807666, 0.2248436, -1251440.9, 168328.1, 0.016419558, 10.001673, 9.998941 
1.8851668e+3, 1.6512658e+2, -1199069.4, -1417133.6, -16331.402, 0.020150455, 0.23100431, -1197853.1, 123927.34, 0.004195435, 10.001519, 9.998618 
1.8851589e+3, 1.751249e+2, -1135651.8, -1343360.4, -8720.923, 0.023837306, 0.20025614, -1135286.1, 88510.69, 0.00038428378, 10.00131, 9.998553 
1.8851507e+3, 1.8512352e+2, -1044033.8, -1221089.1, -35635.414, 0.03335386, 0.19940107, -1037130.75, 88679.85, 0.0000010250507, 10.001148, 9.998797 
1.885142e+3, 1.951226e+2, -966449.94, -1140271.8, -41848.867, 0.041473027, 0.22510166, -956899.25, 70920.625, 0.0, 10.0010395, 9.998732 
1.8851334e+3, 2.0512132e+2, -904974.2, -1062173.6, -39592.008, 0.054190237, 0.23037326, -895565.7, 34266.914, 0.0, 10.000798, 9.998713 
1.8851249e+3, 2.1511987e+2, -864966.94, -999030.1, -28630.664, 0.07420195, 0.21081407, -859108.5, -27261.332, 0.0, 10.00043, 9.998651 
1.8851162e+3, 2.2511867e+2, -771160.9, -880909.75, -30425.15, 0.07430539, 0.21979488, -763290.6, -29431.268, 0.0, 10.000306, 9.998848 
1.8851072e+3, 2.3511787e+2, -661380.2, -783827.8, -36224.793, 0.052396614, 0.2526132, -651466.2, -15598.634, 0.0, 10.000416, 9.998789 
1.8850982e+3, 2.451166e+2, -578152.94, -681912.7, -27697.557, 0.032244347, 0.2473961, -571222.3, -33342.535, 0.0, 10.000266, 9.998887 
1.8850894e+3, 2.5511503e+2, -543013.8, -621920.44, -18234.908, 0.02028218, 0.1985919, -539003.6, -99109.016, 0.0, 9.999867, 9.998818 
1.8850806e+3, 2.651139e+2, -451113.84, -484753.5, -24470.838, 0.03915565, 0.18906021, -438239.75, -96334.62, 0.0, 9.999644, 9.999195 
1.885072e+3, 2.7511343e+2, -365784.78, -397953.38, -25520.254, 0.067571275, 0.21964101, -351703.06, -107793.98, 0.0, 9.999578, 9.999149 
1.8850626e+3, 2.8511262e+2, -312055.25, -322410.72, -6134.145, 0.013881449, 0.22672746, -309205.72, -163289.1, 0.0, 9.999279, 9.99914 
1.8850534e+3, 2.951114e+2, -288863.66, -267968.75, -6581.9487, -0.055378735, 0.1889267, -266068.28, -218140.3, 0.0, 9.998797, 9.999072 
1.8850474e+3, 3.0510983e+2, -220628.83, -216231.38, 16620.99, 0.20047633, 0.13394643, -201664.31, -201664.31, 0.0, 9.998959, 9.999015 
1.8850367e+3, 3.1510973e+2, -82055.62, -33998.094, -6589.389, -0.07770937, 0.22634445, -33110.97, -33110.97, 0.0, 9.999413, 10.000048 
1.8952025e+3, 1.2513892e+2, -1427143.9, -1678202.5, 12166.386, 0.012575242, 0.25096416, -1426555.6, 287105.8, 0.10690314, 10.002707, 9.998975 
1.8951926e+3, 1.3513786e+2, -1406690.8, -1638072.1, -49774.47, -0.116685174, 0.25130814, -1396437.6, 219233.58, 0.07391051, 10.002115, 9.998842 
1.8951859e+3, 1.4513597e+2, -1349238.6, -1563439.0, -36749.99, 0.12458735, 0.1823175, -1343108.9, 174580.69, 0.04183094, 10.001773, 9.99884 
1.8951768e+3, 1.5513538e+2, -1265080.6, -1482948.3, -27902.578, 0.042610597, 0.2364204, -1261563.9, 158131.48, 0.017575104, 10.001684, 9.998761 
1.8951683e+3, 1.6513415e+2, -1181555.9, -1383935.8, -23844.838, 0.009062679, 0.23794428, -1178784.4, 142922.27, 0.004578995, 10.001532, 9.998841 
1.8951602e+3, 1.751324e+2, -1119720.9, -1311615.3, -16272.57, 0.030393153, 0.1770044, -1118350.8, 105371.62, 0.00044013254, 10.001314, 9.99877 
1.8951517e+3, 1.8513103e+2, -1056326.3, -1246946.1, -39641.984, 0.03755159, 0.17586967, -1048410.9, 77325.1, 0.0000013628122, 10.001147, 9.998622 
1.8951428e+3, 1.9513021e+2, -978078.1, -1165476.8, -45126.996, 0.02765889, 0.23006918, -967777.44, 59968.32, 0.0, 10.001041, 9.998559 
1.895134e+3, 2.0512915e+2, -883717.7, -1019127.0, -52680.695, 0.04324905, 0.24920493, -865636.7, 64119.953, 0.0, 10.000801, 9.999008 
1.8951255e+3, 2.1512799e+2, -844317.75, -957462.4, -41202.543, 0.08506812, 0.22968054, -830903.8, 863.40265, 0.0, 10.000434, 9.998936 
1.8951166e+3, 2.2512664e+2, -779969.1, -900297.2, -25695.414, 0.08485769, 0.2170181, -774711.7, -40931.22, 0.0, 10.000308, 9.998715 
1.8951075e+3, 2.3512529e+2, -670557.94, -803773.3, -31030.48, 0.041681897, 0.20813237, -663684.5, -27889.885, 0.0, 10.000417, 9.998652 
1.8950984e+3, 2.4512428e+2, -558056.56, -640781.75, -41728.688, 0.020767119, 0.22079062, -540664.2, -2859.429, 0.0, 10.000267, 9.99917 
1.8950893e+3, 2.551237e+2, -522326.25, -580364.3, -31989.973, 0.028778367, 0.2448343, -508154.28, -68344.41, 0.0, 9.999871, 9.999104 
1.8950805e+3, 2.651227e+2, -450115.4, -484078.4, -26187.486, 0.05433231, 0.23286824, -435885.44, -94065.99, 0.0, 9.999648, 9.999199 
1.8950717e+3, 2.751215e+2, -365490.72, -399388.88, -28354.152, 0.07247137, 0.19287552, -349406.06, -105575.47, 0.0, 9.999585, 9.999138 
1.895062e+3, 2.851209e+2, -298097.5, -294620.16, -24249.576, 0.018706147, 0.21333957, -272047.0, -126210.64, 0.0, 9.999283, 9.99933 
1.8950523e+3, 2.9512075e+2, -278625.34, -249416.61, -19374.998, -0.033330847, 0.26126644, -239758.3, -191920.19, 0.0, 9.998806, 9.999197 
1.8950461e+3, 3.051189e+2, -223509.03, -225864.45, 37728.38, 0.17420217, 0.17824244, -186939.98, -186939.98, 0.0, 9.998971, 9.998944 
1.895036e+3, 3.1511825e+2, -40438.066, 51662.496, -39305.426, -0.07900581, 0.21299894, 66155.96, 66155.96, 0.0, 9.999416, 10.000635 
1.9052052e+3, 1.2514675e+2, -1405416.9, -1672179.8, 53212.586, 0.006123984, 0.24691236, -1395194.0, 318391.44, 0.11235553, 10.002913, 9.998922 
1.9051951e+3, 1.351459e+2, -1395551.5, -1630364.0, -48034.293, -0.0841386, 0.26720467, -1386105.4, 229487.69, 0.07790365, 10.0022, 9.998854 
1.9051878e+3, 1.451439e+2, -1328252.8, -1557371.9, -20265.479, 0.12222317, 0.18917276, -1326474.1, 191138.22, 0.04431639, 10.001948, 9.9987955 
1.9051786e+3, 1.5514316e+2, -1213296.4, -1463492.6, -4152.2534, 0.0322946, 0.23497826, -1213227.5, 206391.88, 0.018797748, 10.002076, 9.998705 
1.9051698e+3, 1.6514194e+2, -1132479.3, -1359476.5, -17632.133, 0.0006314363, 0.23988025, -1131117.9, 190512.78, 0.004994357, 10.00187, 9.998845 
1.9051614e+3, 1.7514032e+2, -1110930.9, -1307021.4, -26784.717, 0.025498642, 0.19097626, -1107338.0, 116307.03, 0.0005042276, 10.001374, 9.998772 
1.9051528e+3, 1.8513891e+2, -1067585.9, -1249040.1, -41632.766, 0.03524291, 0.18479879, -1058489.6, 67169.375, 0.000001731659, 10.001058, 9.99865 
1.9051439e+3, 1.9513793e+2, -996463.5, -1171505.4, -33587.195, 0.028922943, 0.21960993, -990240.0, 37430.152, 0.0, 10.000905, 9.998583 
1.9051349e+3, 2.051369e+2, -888695.44, -1017795.56, -48867.438, 0.044349838, 0.2398805, -872284.1, 57396.598, 0.0, 10.000752, 9.999039 
1.905126e+3, 2.1513598e+2, -817119.56, -940590.56, -57301.543, 0.08141109, 0.24005653, -794624.75, 37064.54, 0.0, 10.000606, 9.998967 
1.9051169e+3, 2.251347e+2, -760763.3, -874457.5, -34778.203, 0.082019985, 0.22608301, -750968.7, -17267.012, 0.0, 10.000371, 9.99886 
1.9051076e+3, 2.3513329e+2, -713743.06, -808695.06, -20171.588, 0.044893276, 0.19626118, -709635.5, -73919.58, 0.0, 10.000054, 9.998793 
1.9050984e+3, 2.4513242e+2, -617955.1, -661416.0, -34734.766, 0.025967836, 0.21184155, -598713.44, -60988.4, 0.0, 9.999823, 9.999242 
1.9050892e+3, 2.5513217e+2, -546912.8, -583748.44, -41323.46, 0.03298041, 0.26144212, -520088.56, -80360.57, 0.0, 9.999668, 9.999176 
1.9050801e+3, 2.6513135e+2, -477545.28, -479144.94, -36007.06, 0.05875851, 0.2575912, -442329.16, -100593.266, 0.0, 9.999384, 9.999358 
1.905071e+3, 2.7513024e+2, -444321.44, -419607.2, -26892.05, 0.07803896, 0.20768951, -402369.03, -158622.97, 0.0, 9.99897, 9.999293 
1.9050612e+3, 2.851297e+2, -348941.0, -303797.6, -14089.342, 0.02734954, 0.21942407, -299761.2, -154009.89, 0.0, 9.99887, 9.999465 
1.9050513e+3, 2.9512963e+2, -235212.33, -219960.13, -10815.086, -0.01959483, 0.26524836, -214352.81, -166600.4, 0.0, 9.999071, 9.99927 
1.9050446e+3, 3.0512822e+2, -212152.64, -214209.22, 55395.44, 0.12241239, 0.21944684, -157775.94, -157775.94, 0.0, 9.999024, 9.998999 
1.9050352e+3, 3.151273e+2, -137555.33, 55321.3, -51809.6, -0.05007658, 0.21981822, 68357.11, 68357.11, 0.0, 9.998536, 10.001081 
1.9152083e+3, 1.2515473e+2, -1438748.5, -1740072.8, 37209.51, 0.017293034, 0.18435268, -1434221.6, 279283.8, 0.117977716, 10.002906, 9.99843 
1.9151974e+3, 1.351543e+2, -1418875.0, -1685805.5, -72688.19, -0.06257775, 0.2855408, -1400364.8, 215146.1, 0.08203135, 10.002221, 9.998467 
1.9151895e+3, 1.451522e+2, -1321865.8, -1547861.1, -15005.787, 0.097130336, 0.21272446, -1320873.8, 196658.0, 0.046899557, 10.00197, 9.998851 
1.9151805e+3, 1.5515114e+2, -1210509.5, -1456848.3, -67.40914, 0.021542488, 0.22036026, -1210509.5, 209031.72, 0.02008164, 10.002073, 9.998753 
1.9151716e+3, 1.6514991e+2, -1148033.9, -1390562.8, -36588.76, -0.0055196267, 0.2342536, -1142634.3, 178918.48, 0.005439926, 10.001863, 9.998637 
1.9151627e+3, 1.7514864e+2, -1124305.5, -1336944.4, -44390.625, 0.008660908, 0.24010386, -1115410.6, 108154.695, 0.0005767601, 10.001381, 9.998564 
1.9151539e+3, 1.8514715e+2, -1051618.9, -1218455.5, -46620.496, 0.02450388, 0.22643565, -1039475.3, 86104.34, 0.0000021934447, 10.001066, 9.998857 
1.9151449e+3, 1.9514573e+2, -981971.0, -1142736.9, -38711.574, 0.04331382, 0.19491303, -973135.1, 54458.402, 0.0, 10.000909, 9.998779 
1.9151357e+3, 2.0514455e+2, -904404.1, -1051100.1, -53658.754, 0.056138184, 0.2032953, -886872.0, 42733.36, 0.0, 10.000753, 9.998811 
1.9151263e+3, 2.1514378e+2, -832049.0, -972697.2, -61425.05, 0.06327154, 0.24220537, -809000.06, 22613.814, 0.0, 10.000608, 9.998746 
1.915117e+3, 2.2514279e+2, -731605.56, -814916.7, -45622.863, 0.06567384, 0.24662688, -711482.2, 22141.3, 0.0, 10.000373, 9.99927 
1.915108e+3, 2.3514177e+2, -685124.0, -750166.44, -30927.766, 0.060623817, 0.2153303, -672765.9, -37133.453, 0.0, 10.000056, 9.999195 
1.9150986e+3, 2.451409e+2, -627662.0, -682305.44, -39710.848, 0.04643338, 0.2185391, -606781.75, -69140.14, 0.0, 9.999824, 9.999099 
1.9150889e+3, 2.5514033e+2, -556357.4, -604670.44, -46208.316, 0.030996319, 0.24954559, -528372.3, -88722.7, 0.0, 9.999672, 9.999032 
1.9150794e+3, 2.651398e+2, -454913.75, -433883.66, -50991.395, 0.051228832, 0.26550016, -392334.44, -50679.34, 0.0, 9.999389, 9.999668 
1.91507e+3, 2.7513945e+2, -420609.53, -373456.66, -41414.14, 0.08374143, 0.2628109, -349378.3, -105721.75, 0.0, 9.9989805, 9.999607 
1.9150601e+3, 2.851388e+2, -341976.1, -291835.5, -6379.556, 0.039536558, 0.24223524, -291036.53, -145373.88, 0.0, 9.9988785, 9.999543 
1.9150506e+3, 2.9513788e+2, -232556.11, -218143.5, -1255.0143, -0.016004896, 0.19800659, -218035.03, -170362.86, 0.0, 9.999084, 9.999278 
1.9150428e+3, 3.0513763e+2, -198233.77, -188235.22, 40852.605, 0.041112166, 0.2622695, -152077.14, -152077.14, 0.0, 9.999034, 9.999174 
1.9150344e+3, 3.1513703e+2, -118842.84, 93227.35, -84338.05, -0.009823154, 0.26650366, 122677.86, 122677.86, 0.0, 9.998537, 10.001344 
1.9252111e+3, 1.2516327e+2, -1488963.9, -1787235.4, 31106.35, 0.015918316, 0.1896264, -1485754.4, 227667.56, 0.123685755, 10.002616, 9.998243 
1.9252001e+3, 1.3516274e+2, -1319579.5, -1637995.5, -61798.098, -0.05438872, 0.2841151, -1308006.4, 307422.2, 0.0862435, 10.0029955, 9.998419 
1.9251916e+3, 1.4516051e+2, -1222951.9, -1514110.0, -9373.339, 0.068881206, 0.21036135, -1222650.4, 294800.34, 0.049555115, 10.002764, 9.9987 
1.9251825e+3, 1.5515935e+2, -1244878.1, -1491459.5, -10791.344, 0.025684057, 0.2249896, -1244406.8, 175054.58, 0.021415824, 10.001912, 9.998592 
1.9251734e+3, 1.6515811e+2, -1193412.4, -1408299.6, -39169.87, 0.009350244, 0.24376783, -1186495.1, 134978.1, 0.005912063, 10.001533, 9.998673 
1.9251642e+3, 1.7515692e+2, -1091384.1, -1317129.8, -30779.438, 0.006206224, 0.25437415, -1087262.6, 136222.31, 0.0006577095, 10.001594, 9.998597 
1.9251549e+3, 1.8515545e+2, -1003428.1, -1196919.3, -35968.16, 0.017007345, 0.2417463, -996958.3, 128540.76, 0.000002911813, 10.001407, 9.998839 
1.9251458e+3, 1.9515397e+2, -970868.1, -1139829.1, -44863.414, 0.0444448, 0.2065201, -959694.7, 67818.62, 0.0, 10.000998, 9.998756 
1.9251364e+3, 2.0515272e+2, -906561.3, -1047751.25, -52522.91, 0.055369224, 0.20640194, -889165.9, 40359.824, 0.0, 10.000722, 9.998848 
1.9251268e+3, 2.1515186e+2, -834861.3, -970123.44, -42592.516, 0.049370483, 0.23321542, -822566.9, 8968.11, 0.0, 10.000575, 9.998779 
1.9251174e+3, 2.2515099e+2, -736195.06, -811211.9, -38089.43, 0.05125808, 0.24512136, -720246.2, 13297.427, 0.0, 10.000319, 9.999321 
1.9251078e+3, 2.3515023e+2, -695382.4, -749581.0, -49918.08, 0.058656752, 0.23762867, -665682.1, -30132.068, 0.0, 9.999963, 9.999243 
1.9250983e+3, 2.4514943e+2, -651143.8, -682786.4, -58983.19, 0.051350325, 0.2394142, -605896.9, -68337.92, 0.0, 9.999618, 9.999193 
1.9250883e+3, 2.5514874e+2, -607257.06, -618976.6, -48681.707, 0.035881255, 0.24954112, -564083.75, -124515.67, 0.0, 9.999281, 9.999121 
1.9250786e+3, 2.6514834e+2, -481884.97, -433519.72, -49093.117, 0.048111927, 0.26853815, -402976.34, -61404.188, 0.0, 9.999149, 9.999785 
1.925069e+3, 2.751483e+2, -379239.7, -340042.1, -54198.297, 0.069720834, 0.28415522, -302007.84, -58437.35, 0.0, 9.999209, 9.999725 
1.9250591e+3, 2.8514758e+2, -318495.3, -275431.72, -26982.445, 0.04276784, 0.24921606, -262442.94, -116865.734, 0.0, 9.999021, 9.999586 
1.9250497e+3, 2.9514647e+2, -305558.53, -248353.83, -23100.049, 0.02085685, 0.17885189, -240190.61, -192601.66, 0.0, 9.998566, 9.999319 
1.9250411e+3, 3.0514693e+2, -271362.3, -183598.34, 28001.46, -0.0024273403, 0.297783, -175425.44, -175425.44, 0.0, 9.998363, 9.999528 
1.925033e+3, 3.151461e+2, -155789.17, 58815.188, -86139.625, 0.018693963, 0.24155799, 89113.125, 89113.125, 0.0, 9.998357, 10.001193 
1.9352135e+3, 1.2517227e+2, -1483246.5, -1773549.6, 44229.844, -0.0021726522, 0.2528065, -1476657.4, 236677.94, 0.12938987, 10.002628, 9.998336 
1.9352031e+3, 1.3517116e+2, -1306235.8, -1602535.9, -48376.645, -0.059259783, 0.26419523, -1298537.4, 316808.53, 0.09048304, 10.002985, 9.99867 
1.935194e+3, 1.4516881e+2, -1248375.6, -1566160.4, -39803.66, 0.03694801, 0.18345426, -1243465.9, 273903.28, 0.052251335, 10.002753, 9.998349 
1.9351846e+3, 1.551678e+2, -1267412.1, -1542098.6, -41094.574, 0.041465696, 0.24808672, -1261395.9, 157983.95, 0.022785332, 10.0019245, 9.99824 
1.9351754e+3, 1.6516656e+2, -1173901.6, -1371490.0, -36321.164, 0.04032001, 0.26947758, -1167436.6, 153955.36, 0.006405909, 10.001548, 9.9989195 
1.9351658e+3, 1.7516516e+2, -1074062.8, -1282312.8, -28401.691, 0.016445559, 0.23613454, -1070258.8, 153145.75, 0.00074702007, 10.001596, 9.998836 
1.9351564e+3, 1.8516377e+2, -1020080.94, -1231578.4, -51199.086, 0.012392835, 0.23108114, -1008338.6, 117079.22, 0.0000041218373, 10.001405, 9.998603 
1.9351467e+3, 1.951626e+2, -985854.1, -1172554.0, -58896.066, 0.032242272, 0.25145814, -968827.6, 58602.5, 0.0, 10.001002, 9.99853 
1.935137e+3, 2.0516133e+2, -886840.06, -1008432.4, -57074.45, 0.04126137, 0.24677174, -864247.56, 65194.867, 0.0, 10.000727, 9.999117 
1.9351274e+3, 2.1516015e+2, -816551.1, -932650.4, -46919.484, 0.038315553, 0.21458994, -799960.3, 31492.775, 0.0, 10.000575, 9.999037 
1.9351174e+3, 2.2515921e+2, -756799.1, -854621.06, -50518.605, 0.037712205, 0.223114, -735393.56, -1931.035, 0.0, 10.0003195, 9.999023 
1.9351077e+3, 2.3515867e+2, -715101.25, -791619.3, -61658.754, 0.038292818, 0.26324525, -680796.1, -45326.613, 0.0, 9.999966, 9.998954 
1.9350977e+3, 2.4515794e+2, -628778.44, -638038.8, -70624.85, 0.040194627, 0.2745746, -562632.1, -25154.596, 0.0, 9.999622, 9.9995 
1.9350877e+3, 2.5515732e+2, -584461.94, -574329.25, -60192.406, 0.047344413, 0.25936165, -518990.34, -79505.85, 0.0, 9.99929, 9.999425 
1.9350778e+3, 2.651569e+2, -486227.72, -444231.78, -46321.535, 0.049178153, 0.2646859, -414371.13, -72882.83, 0.0, 9.999155, 9.999709 
1.9350678e+3, 2.751567e+2, -384983.0, -353250.34, -51060.22, 0.033007354, 0.27314913, -315648.13, -72159.4, 0.0, 9.999212, 9.999634 
1.9350581e+3, 2.8515595e+2, -317025.7, -274874.94, -43965.33, 0.03410423, 0.24201807, -247194.6, -101698.79, 0.0, 9.999028, 9.999589 
1.9350491e+3, 2.9515517e+2, -297031.84, -236579.73, -39783.992, 0.08982655, 0.20640558, -216842.0, -169337.92, 0.0, 9.998587, 9.999392 
1.9350395e+3, 3.05156e+2, -230587.9, -101928.945, 29242.568, -0.007600552, 0.3231328, -95594.36, -95594.36, 0.0, 9.998375, 10.000083 
1.9350311e+3, 3.151549e+2, -193345.97, -21798.742, -57263.223, 0.0035673515, 0.1928094, -4440.4517, -4440.4517, 0.0, 9.998364, 10.000637 
1.9452164e+3, 1.2518093e+2, -1419874.9, -1739085.1, 42582.063, -0.005378691, 0.2730243, -1414292.1, 298959.88, 0.13503861, 10.003152, 9.998319 
1.9452062e+3, 1.3517986e+2, -1361631.5, -1617862.4, -55696.188, -0.027590746, 0.27692154, -1350048.6, 265213.34, 0.09470778, 10.002519, 9.998788 
1.9451964e+3, 1.4517765e+2, -1309361.5, -1594067.8, -47125.668, 0.03097279, 0.2024839, -1301763.9, 215519.58, 0.054959312, 10.002305, 9.998374 
1.9451867e+3, 1.5517643e+2, -1203112.3, -1507417.9, -24485.268, 0.038053658, 0.24547191, -1201154.8, 218140.72, 0.024175247, 10.00237, 9.998261 
1.9451773e+3, 1.651751e+2, -1099669.0, -1345807.3, -14726.417, 0.045033026, 0.2620365, -1098791.0, 222517.38, 0.006916625, 10.002111, 9.998822 
1.9451676e+3, 1.7517371e+2, -1084134.8, -1297906.9, -31811.215, 0.02936636, 0.24045822, -1079501.4, 143819.81, 0.00084444886, 10.001576, 9.998736 
1.9451576e+3, 1.8517232e+2, -1038321.0, -1236191.6, -56599.1, 0.019935593, 0.23735352, -1023275.4, 102059.38, 0.0000060577904, 10.001264, 9.998638 
1.9451477e+3, 1.9517112e+2, -961235.1, -1156568.0, -45923.3, 0.022588078, 0.25063616, -950977.1, 76369.836, 0.0, 10.001157, 9.998564 
1.9451377e+3, 2.0516989e+2, -857461.75, -992746.4, -44607.836, 0.029117793, 0.24844533, -844077.25, 85281.445, 0.0, 10.000924, 9.999127 
1.9451278e+3, 2.1516882e+2, -815337.3, -931266.2, -54241.94, 0.036733013, 0.2270432, -793916.25, 37452.133, 0.0, 10.000582, 9.9990425 
1.9451177e+3, 2.2516786e+2, -774326.6, -864974.06, -61029.348, 0.03730078, 0.23368074, -743631.75, -10253.508, 0.0, 10.000209, 9.999003 
1.9451074e+3, 2.3516715e+2, -738985.8, -804802.4, -52414.535, 0.030872548, 0.2605148, -710005.2, -74618.22, 0.0, 9.999812, 9.998935 
1.9450973e+3, 2.4516648e+2, -626443.9, -623353.25, -51974.945, 0.035287805, 0.27023768, -572900.6, -35506.223, 0.0, 9.999584, 9.999618 
1.9450872e+3, 2.5516605e+2, -544439.44, -542458.9, -55547.613, 0.052450042, 0.26358715, -487892.75, -48493.996, 0.0, 9.999513, 9.999536 
1.945077e+3, 2.6516563e+2, -468955.53, -443233.47, -46531.184, 0.049926143, 0.26676953, -407818.66, -66416.01, 0.0, 9.999307, 9.999642 
1.9450668e+3, 2.7516526e+2, -427665.03, -381812.84, -50971.953, 0.020510266, 0.26259458, -348848.47, -105442.68, 0.0, 9.998958, 9.999558 
1.9450569e+3, 2.8516462e+2, -360368.1, -289362.84, -46286.613, 0.0336359, 0.24455352, -266531.2, -121119.35, 0.0, 9.998706, 9.999642 
1.9450478e+3, 2.9516438e+2, -292057.53, -217833.34, -38183.344, 0.11305826, 0.25402573, -201698.14, -154283.5, 0.0, 9.998554, 9.999534 
1.9450375e+3, 3.0516464e+2, -209912.0, -65552.43, 28696.156, -0.021983882, 0.29451963, -60057.313, -60057.313, 0.0, 9.998406, 10.000317 
1.9450296e+3, 3.1516412e+2, -243670.78, -91983.14, -48716.305, 0.018681202, 0.20970003, -77685.055, -77685.055, 0.0, 9.9982195, 10.000223 
1.9552195e+3, 1.2518923e+2, -1429980.3, -1758170.6, 15863.154, -0.002240025, 0.24932553, -1429215.3, 283956.75, 0.14063205, 10.003149, 9.998186 
1.9552092e+3, 1.3518882e+2, -1361726.6, -1619063.4, -74845.91, 0.036122594, 0.32007992, -1341541.1, 273635.28, 0.09890805, 10.00253, 9.998781 
1.955199e+3, 1.4518696e+2, -1284651.9, -1542160.5, -43080.9, 0.04739909, 0.2644471, -1277635.8, 239557.9, 0.057666935, 10.002318, 9.998725 
1.9551888e+3, 1.5518522e+2, -1179335.5, -1457363.5, -22547.277, 0.015924662, 0.21900186, -1177518.9, 241689.58, 0.02557713, 10.002374, 9.998604 
1.9551791e+3, 1.6518372e+2, -1128719.0, -1407120.4, -34926.656, 0.024842177, 0.22361082, -1124404.1, 196818.77, 0.0074404846, 10.002112, 9.998403 
1.9551693e+3, 1.7518255e+2, -1111682.5, -1357671.4, -50673.895, 0.04386739, 0.26527894, -1101652.5, 121583.26, 0.00094927935, 10.001585, 9.998323 
1.9551592e+3, 1.8518108e+2, -1017604.56, -1195219.0, -59409.22, 0.036555283, 0.25943744, -999565.25, 125684.96, 0.000008849083, 10.00127, 9.998918 
1.9551489e+3, 1.9517949e+2, -941952.75, -1117411.9, -48936.066, 0.01410467, 0.20801826, -929227.3, 98036.76, 0.0, 10.001158, 9.998833 
1.9551386e+3, 2.0517837e+2, -874816.2, -1029440.9, -56703.473, 0.018203348, 0.21411434, -856251.1, 73023.86, 0.0, 10.000925, 9.998877 
1.9551285e+3, 2.1517779e+2, -831892.44, -966558.9, -65705.445, 0.043220233, 0.2681646, -805146.06, 26135.588, 0.0, 10.000584, 9.9988 
1.955118e+3, 2.2517684e+2, -756749.5, -829826.2, -74822.46, 0.048350446, 0.27426153, -710020.5, 23271.158, 0.0, 10.000213, 9.999245 
1.9551073e+3, 2.3517565e+2, -721625.5, -770469.56, -65789.48, 0.0354653, 0.23060697, -675871.4, -40568.21, 0.0, 9.999818, 9.999169 
1.9550969e+3, 2.4517494e+2, -630736.44, -634079.56, -53676.71, 0.035629522, 0.2279359, -578705.25, -41394.844, 0.0, 9.99959, 9.999542 
1.9550867e+3, 2.5517488e+2, -549332.94, -554242.0, -57236.742, 0.04855541, 0.26347777, -494498.13, -55186.44, 0.0, 9.999517, 9.999454 
1.9550763e+3, 2.6517445e+2, -473551.44, -454119.7, -59079.07, 0.04830228, 0.27593198, -403962.9, -62646.758, 0.0, 9.9993105, 9.999567 
1.9550657e+3, 2.7517375e+2, -430921.38, -392530.94, -63650.098, 0.03204401, 0.24931683, -345244.66, -101921.43, 0.0, 9.998972, 9.99948 
1.9550556e+3, 2.8517336e+2, -351569.16, -274029.72, -53041.094, 0.04101762, 0.25511315, -247099.75, -101772.93, 0.0, 9.998717, 9.999743 
1.9550462e+3, 2.9517385e+2, -277689.88, -189290.6, -43608.465, 0.08575009, 0.32509255, -171399.13, -124077.45, 0.0, 9.998557, 9.99973 
1.9550358e+3, 3.0517256e+2, -217582.2, -82491.664, 20835.133, -0.04625563, 0.20518732, -79351.24, -79351.24, 0.0, 9.998409, 10.000199 
1.9550282e+3, 3.1517312e+2, -249122.11, -112887.45, -13503.511, 0.047153063, 0.24571125, -111561.89, -111561.89, 0.0, 9.998256, 10.000065 
1.965223e+3, 1.2519868e+2, -1442985.0, -1770211.5, 35384.18, 0.028652705, 0.27540827, -1439202.5, 273878.13, 0.14620131, 10.003083, 9.998137 
1.9652122e+3, 1.351978e+2, -1319264.6, -1597619.6, -44768.363, 0.06425115, 0.30319482, -1312241.8, 302847.3, 0.10310407, 10.002876, 9.998759 
1.9652013e+3, 1.451962e+2, -1231726.6, -1507118.0, -12315.203, 0.035682313, 0.2695641, -1231177.0, 285926.53, 0.060382523, 10.002684, 9.998788 
1.9651912e+3, 1.5519461e+2, -1170027.5, -1446567.8, -14588.418, 0.021798179, 0.23260982, -1169260.0, 249856.97, 0.026990993, 10.0024185, 9.998655 
1.9651812e+3, 1.6519304e+2, -1134374.8, -1424924.3, -37597.56, 0.0353601, 0.23624942, -1129588.4, 191543.69, 0.007974863, 10.002141, 9.998265 
1.965171e+3, 1.7519167e+2, -1081195.0, -1357175.5, -33966.074, 0.04251018, 0.26964274, -1077076.1, 146071.22, 0.0010600544, 10.00186, 9.998193 
1.9651605e+3, 1.851901e+2, -979512.9, -1173982.3, -37261.32, 0.0319152, 0.26097962, -972617.9, 152544.48, 0.000012480936, 10.001524, 9.9989395 
1.96515e+3, 1.9518855e+2, -944043.56, -1116485.1, -46111.36, 0.015839892, 0.21182309, -932487.6, 94687.71, 0.0, 10.001139, 9.998848 
1.9651394e+3, 2.051874e+2, -896910.0, -1046473.9, -57765.93, 0.021692844, 0.21795595, -877197.25, 51989.26, 0.0, 10.000803, 9.9988165 
1.9651291e+3, 2.1518674e+2, -845727.2, -979321.0, -53936.62, 0.043162666, 0.26944178, -826669.6, 4524.8384, 0.0, 10.000518, 9.998743 
1.9651183e+3, 2.251858e+2, -742310.8, -811422.2, -61320.79, 0.046131168, 0.2738549, -706479.44, 26724.86, 0.0, 10.000266, 9.999344 
1.9651072e+3, 2.3518471e+2, -681773.2, -740769.7, -63468.13, 0.03315155, 0.22979006, -641283.2, -6068.8945, 0.0, 10.000048, 9.999262 
1.9650964e+3, 2.4518402e+2, -611543.3, -631584.06, -52618.168, 0.033128887, 0.22822842, -567999.9, -30778.79, 0.0, 9.999752, 9.99948 
1.965086e+3, 2.5518388e+2, -574344.6, -572339.94, -55781.215, 0.04503412, 0.2658673, -517552.06, -78329.14, 0.0, 9.999376, 9.999393 
1.9650754e+3, 2.651834e+2, -498696.56, -464211.88, -53490.938, 0.043885384, 0.2726264, -425253.0, -84024.63, 0.0, 9.999134, 9.99958 
1.9650649e+3, 2.7518263e+2, -427029.34, -389445.2, -52101.035, 0.030301986, 0.23804307, -352850.8, -109614.52, 0.0, 9.998997, 9.999487 
1.9650544e+3, 2.8518248e+2, -344473.5, -274288.47, -42238.785, 0.03991227, 0.26654455, -254466.5, -109228.47, 0.0, 9.998784, 9.999708 
1.9650446e+3, 2.9518327e+2, -283048.53, -190739.14, -42116.074, 0.07417948, 0.3719363, -174411.69, -127181.73, 0.0, 9.998519, 9.999737 
1.9650342e+3, 3.05181e+2, -275263.0, -138355.13, 507.7609, -0.031676304, 0.16168801, -138353.23, -138353.23, 0.0, 9.9981365, 9.999947 
1.9650261e+3, 3.1518233e+2, -306600.0, -82834.38, -5075.1255, 0.04714355, 0.31398195, -82719.336, -82719.336, 0.0, 9.997615, 10.000579 
1.9752266e+3, 1.2520912e+2, -1441384.4, -1764128.3, 15619.835, 0.08379799, 0.34023824, -1440630.3, 272349.0, 0.15179218, 10.003091, 9.998174 
1.9752151e+3, 1.3520686e+2, -1322055.9, -1601525.6, -50230.867, 0.056988977, 0.23157424, -1313301.8, 301697.56, 0.10732764, 10.00288, 9.998729 
1.9752036e+3, 1.4520538e+2, -1247177.0, -1540493.3, -19937.08, -0.0053287405, 0.22353415, -1245828.0, 271184.88, 0.06312284, 10.002687, 9.998554 
1.975194e+3, 1.5520453e+2, -1184830.6, -1479835.9, -23522.777, 0.05268539, 0.28354055, -1182966.8, 236054.61, 0.028421657, 10.002426, 9.998425 
1.9751838e+3, 1.65203e+2, -1125453.9, -1408059.0, -48190.016, 0.07277752, 0.29658252, -1117462.4, 203573.89, 0.00851848, 10.002148, 9.99838 
1.9751728e+3, 1.7520098e+2, -1072458.8, -1340916.4, -43963.203, 0.025175499, 0.2554584, -1065442.6, 157613.45, 0.001174899, 10.001866, 9.998302 
1.9751617e+3, 1.8519932e+2, -994643.0, -1207125.0, -50966.25, 0.0066979276, 0.24367446, -983050.6, 142021.2, 0.000016759132, 10.001529, 9.998711 
1.9751512e+3, 1.951982e+2, -958573.2, -1148806.3, -59298.53, 0.026576674, 0.25852057, -941602.8, 85478.945, 0.0, 10.001145, 9.998623 
1.9751404e+3, 2.0519692e+2, -887990.0, -1029754.0, -67363.26, 0.037652645, 0.2566406, -861086.2, 68008.016, 0.0, 10.000809, 9.998931 
1.9751294e+3, 2.1519563e+2, -837738.0, -963543.06, -63027.695, 0.035849214, 0.23369034, -811594.4, 19512.943, 0.0, 10.000519, 9.998852 
1.9751184e+3, 2.2519468e+2, -745561.0, -819232.8, -68312.55, 0.030172326, 0.23551278, -704785.75, 28331.094, 0.0, 10.000268, 9.99929 
1.9751072e+3, 2.3519418e+2, -684998.5, -748994.5, -70309.61, 0.022516891, 0.2564487, -639748.1, -4626.706, 0.0, 10.0000515, 9.999205 
1.9750962e+3, 2.4519359e+2, -614873.1, -640075.0, -66090.43, 0.02689035, 0.2695493, -560193.1, -23065.545, 0.0, 9.999756, 9.999421 
1.9750853e+3, 2.5519302e+2, -576795.7, -580256.6, -69004.695, 0.04130171, 0.26991096, -509499.78, -70366.12, 0.0, 9.999387, 9.999336 
1.9750746e+3, 2.6519236e+2, -490545.25, -449993.0, -58792.31, 0.035844397, 0.25622603, -408078.63, -66938.055, 0.0, 9.999144, 9.999675 
1.9750635e+3, 2.7519175e+2, -420203.44, -377267.72, -57828.12, 0.013056058, 0.228454, -337051.22, -93904.99, 0.0, 9.999002, 9.999569 
1.9750531e+3, 2.8519174e+2, -356805.2, -300764.56, -52791.652, 0.02804216, 0.27960163, -269017.84, -123871.086, 0.0, 9.998786, 9.999527 
1.9750431e+3, 2.9519245e+2, -294336.4, -219245.11, -51097.195, 0.075197466, 0.3920881, -193382.56, -146241.28, 0.0, 9.998538, 9.999534 
1.9750328e+3, 3.051897e+2, -303330.78, -201214.55, -23751.662, 0.022881085, 0.1666525, -195960.38, -195960.38, 0.0, 9.998154, 9.999507 
1.9750234e+3, 3.1519055e+2, -224905.9, 83051.734, -7095.4043, 0.018631509, 0.31031415, 83215.13, 83215.13, 0.0, 9.997628, 10.001715 
1.9852298e+3, 1.2521927e+2, -1429959.9, -1729930.3, 21427.197, 0.104591735, 0.3430983, -1428437.1, 284443.38, 0.1574539, 10.003088, 9.998409 
1.9852182e+3, 1.3521694e+2, -1282151.0, -1574980.5, -24118.77, 0.076756224, 0.21871525, -1280177.8, 334722.47, 0.111606, 10.003168, 9.9987955 
1.9852065e+3, 1.4521557e+2, -1221415.9, -1560442.3, -2482.597, -0.010646165, 0.23545076, -1221397.8, 295515.13, 0.06590016, 10.003029, 9.998253 
1.9851965e+3, 1.5521443e+2, -1187390.5, -1512805.9, -12522.937, 0.05513173, 0.297725, -1186909.3, 232016.27, 0.029873334, 10.002553, 9.998135 
1.985186e+3, 1.6521278e+2, -1107448.5, -1385912.3, -34024.688, 0.07746981, 0.30587593, -1103351.4, 217590.45, 0.009071207, 10.002222, 9.998492 
1.9851747e+3, 1.7521077e+2, -1039765.3, -1313232.0, -31061.285, 0.02534947, 0.2550339, -1036281.7, 186678.64, 0.0012922568, 10.002044, 9.998405 
1.9851634e+3, 1.852091e+2, -974248.9, -1214628.3, -41805.094, 0.008724103, 0.24371031, -967186.0, 157790.0, 0.000021359581, 10.001746, 9.998553 
1.9851525e+3, 1.9520788e+2, -940908.56, -1157101.3, -45576.68, 0.035733044, 0.26714048, -931693.1, 95294.03, 0.0, 10.001342, 9.99847 
1.9851413e+3, 2.0520651e+2, -870809.0, -1022500.4, -54850.402, 0.04527037, 0.26419145, -853053.75, 75946.875, 0.0, 10.000935, 9.998919 
1.9851299e+3, 2.152051e+2, -838321.5, -965295.5, -60677.086, 0.034066733, 0.23168099, -813988.75, 17025.748, 0.0, 10.000524, 9.9988365 
1.9851185e+3, 2.2520411e+2, -756369.0, -828062.8, -64734.363, 0.02832336, 0.2312564, -718219.0, 14805.239, 0.0, 10.000211, 9.999256 
1.9851074e+3, 2.3520364e+2, -697066.8, -757994.5, -65358.71, 0.029699532, 0.25721818, -655421.0, -20392.506, 0.0, 9.999987, 9.999172 
1.9850959e+3, 2.45203e+2, -616958.56, -648321.9, -62840.74, 0.02931651, 0.27235502, -567872.4, -30837.438, 0.0, 9.999778, 9.9993515 
1.9850847e+3, 2.5520235e+2, -552478.9, -576059.25, -66202.336, 0.025652168, 0.26999533, -497025.06, -57982.867, 0.0, 9.999588, 9.999267 
1.9850735e+3, 2.6520163e+2, -474810.2, -440792.66, -60808.973, 0.021590216, 0.25504813, -394658.5, -53609.105, 0.0, 9.999247, 9.999687 
1.9850625e+3, 2.752011e+2, -456176.9, -392615.13, -66845.34, 0.02068828, 0.23295769, -350380.3, -107326.28, 0.0, 9.998753, 9.999581 
1.9850518e+3, 2.85201e+2, -399845.9, -321883.16, -51501.684, 0.028550671, 0.27466896, -296273.75, -151218.16, 0.0, 9.998496, 9.999519 
1.9850412e+3, 2.9520133e+2, -316592.34, -236840.03, -37570.242, 0.039088994, 0.3524193, -221929.05, -174874.88, 0.0, 9.998419, 9.999468 
1.9850312e+3, 3.0519924e+2, -346371.53, -255843.44, -17685.258, 0.052396897, 0.21465021, -252511.16, -252511.16, 0.0, 9.998005, 9.999203 
1.9850208e+3, 3.15199e+2, -218835.48, 155896.8, 11609.4375, 0.010066484, 0.2664938, 156256.13, 156256.13, 0.0, 9.99737, 10.002338 
1.9952329e+3, 1.2522915e+2, -1410826.5, -1683415.3, 9380.08, 0.08380373, 0.28699905, -1410504.1, 302279.63, 0.16321985, 10.003087, 9.998767 
1.995222e+3, 1.3522795e+2, -1274233.8, -1558443.1, -19892.656, 0.12003853, 0.2616083, -1272848.1, 341943.84, 0.11595934, 10.003181, 9.9989195 
1.9952098e+3, 1.452267e+2, -1244225.8, -1613556.4, -18876.895, 0.016614107, 0.30276504, -1243263.4, 273540.44, 0.068724915, 10.003044, 9.997883 
1.9951989e+3, 1.5522434e+2, -1209877.4, -1562695.1, -29577.8, 0.030348543, 0.27729252, -1207415.0, 211414.61, 0.031350326, 10.002562, 9.99779 
1.995188e+3, 1.6522238e+2, -1100396.5, -1372484.3, -39742.0, 0.050156545, 0.2677611, -1094710.4, 226138.38, 0.009633983, 10.002227, 9.998584 
1.9951768e+3, 1.7522098e+2, -1032962.3, -1300901.9, -36763.13, 0.041090913, 0.26742023, -1028009.7, 194850.8, 0.0014115352, 10.002049, 9.998488 
1.9951653e+3, 1.8521932e+2, -980063.44, -1228106.3, -56331.566, 0.03473914, 0.25935555, -967869.75, 157005.78, 0.000025947349, 10.00175, 9.998461 
1.9951539e+3, 1.952176e+2, -946671.3, -1170839.6, -59368.84, 0.042478625, 0.24046989, -931918.9, 94973.03, 0.0, 10.001348, 9.998375 
1.9951424e+3, 2.0521614e+2, -880235.44, -1044297.44, -69150.805, 0.04426215, 0.24324182, -854977.5, 73928.7, 0.0, 10.000941, 9.998767 
1.9951305e+3, 2.152151e+2, -847682.44, -986941.8, -74230.37, 0.0363563, 0.26172674, -815535.7, 15381.232, 0.0, 10.000531, 9.998686 
1.9951189e+3, 2.25214e+2, -755889.56, -829366.1, -71992.75, 0.03909874, 0.25889078, -711803.0, 21124.535, 0.0, 10.000218, 9.999245 
1.9951074e+3, 2.35213e+2, -697339.7, -760556.06, -72203.53, 0.053463295, 0.23302515, -650128.94, -15192.669, 0.0, 9.999992, 9.999153 
1.9950958e+3, 2.452122e+2, -622621.0, -661701.6, -69283.71, 0.03879267, 0.23806629, -570174.8, -33230.69, 0.0, 9.999783, 9.999258 
1.995084e+3, 2.5521174e+2, -557864.1, -588794.4, -72647.01, -0.0037812905, 0.26502958, -499054.34, -60104.67, 0.0, 9.999592, 9.999179 
1.9950727e+3, 2.6521116e+2, -480100.5, -453270.34, -79372.55, 0.0009841908, 0.26935396, -386187.2, -45231.285, 0.0, 9.99925, 9.9996 
1.9950616e+3, 2.7521056e+2, -460059.97, -405108.5, -84804.4, 0.051190864, 0.25261223, -343439.97, -100479.08, 0.0, 9.998769, 9.99949 
1.9950503e+3, 2.8521007e+2, -386559.28, -297569.13, -55564.875, 0.03856079, 0.25053045, -270879.47, -125913.3, 0.0, 9.998508, 9.9996805 
1.9950388e+3, 2.9520974e+2, -310639.06, -226783.88, -43557.848, -0.036556847, 0.24717224, -208253.14, -161282.31, 0.0, 9.998427, 9.999534 
1.9950293e+3, 3.0520964e+2, -356284.53, -277936.63, -44127.156, 0.05592556, 0.3125821, -258103.75, -258103.75, 0.0, 9.99801, 9.99905 
1.9950187e+3, 3.1520826e+2, -228637.4, 133826.92, -41097.547, 0.054345295, 0.26301408, 138428.3, 138428.3, 0.0, 9.997378, 10.002182 
2.005236e+3, 1.2523998e+2, -1359986.5, -1666523.5, 31158.361, 0.0767769, 0.2616667, -1356851.4, 355825.47, 0.16910687, 10.003569, 9.998676 
2.0052253e+3, 1.3523889e+2, -1273486.3, -1589333.6, -8968.853, 0.125443, 0.27949324, -1273231.8, 341453.75, 0.12040815, 10.003359, 9.998593 
2.0052128e+3, 1.4523755e+2, -1224790.8, -1596894.6, -18386.645, 0.018091384, 0.3261429, -1223884.4, 292814.0, 0.07161315, 10.003174, 9.997931 
2.0052016e+3, 1.5523495e+2, -1156726.9, -1530818.0, -4096.2393, 0.026105158, 0.27312315, -1156682.0, 262043.42, 0.032860015, 10.002922, 9.997833 
2.0051904e+3, 1.652329e+2, -1063645.6, -1373268.3, -8215.091, 0.049386397, 0.25908887, -1063427.9, 257317.86, 0.010208714, 10.002564, 9.998415 
2.0051791e+3, 1.7523146e+2, -1033092.5, -1319281.8, -24492.2, 0.053116795, 0.27339664, -1031011.56, 191746.61, 0.0015329993, 10.0021305, 9.998322 
2.0051673e+3, 1.8522973e+2, -973167.2, -1223805.0, -50097.727, 0.046263542, 0.2675916, -963524.56, 161249.28, 0.000030288733, 10.001797, 9.998466 
2.0051554e+3, 1.9522795e+2, -917725.4, -1156472.4, -46889.543, 0.040769625, 0.24134508, -908846.56, 117944.06, 0.0, 10.001548, 9.998375 
2.0051433e+3, 2.052264e+2, -848178.4, -1038603.6, -54393.44, 0.04110549, 0.23953775, -833736.6, 95068.945, 0.0, 10.001206, 9.998677 
2.0051312e+3, 2.1522525e+2, -817861.0, -982488.1, -55647.375, 0.04258208, 0.25506166, -800815.9, 30001.38, 0.0, 10.000781, 9.998595 
2.0051193e+3, 2.252241e+2, -728289.5, -820411.75, -46203.707, 0.04560287, 0.25317916, -709109.44, 23718.838, 0.0, 10.00043, 9.999204 
2.0051076e+3, 2.3522308e+2, -677328.94, -755928.3, -49334.266, 0.05172595, 0.23182528, -653554.56, -18717.62, 0.0, 10.000153, 9.999106 
2.0050956e+3, 2.4522215e+2, -629484.1, -671561.25, -49261.3, 0.037084557, 0.22841972, -596956.9, -60110.906, 0.0, 9.999764, 9.999199 
2.0050836e+3, 2.5522146e+2, -610408.4, -619850.75, -50719.914, 0.00310609, 0.2370453, -564190.4, -125336.82, 0.0, 9.999259, 9.999124 
2.0050718e+3, 2.6522085e+2, -523634.2, -480548.13, -52419.734, 0.008369636, 0.24921334, -445417.25, -104557.586, 0.0, 9.998982, 9.999539 
2.0050605e+3, 2.752205e+2, -442553.13, -402928.5, -54901.863, 0.051170524, 0.26019534, -364373.5, -121510.516, 0.0, 9.9989195, 9.999431 
2.0050487e+3, 2.8521988e+2, -373095.63, -277027.28, -30600.29, 0.028067691, 0.23927356, -268108.34, -123238.71, 0.0, 9.998544, 9.999804 
2.0050368e+3, 2.9521918e+2, -393565.75, -257109.58, -23782.44, -0.057918202, 0.18825036, -253083.42, -206206.31, 0.0, 9.99782, 9.999616 
2.0050271e+3, 3.0522013e+2, -408421.53, -280973.06, 541.9352, 0.06552232, 0.3502461, -280970.75, -280970.75, 0.0, 9.997558, 9.999248 
2.005016e+3, 3.1521785e+2, -207848.14, 86871.17, -12153.551, 0.041846707, 0.1875715, 87371.51, 87371.51, 0.0, 9.997773, 10.001666 
2.0152394e+3, 1.2525177e+2, -1388708.6, -1727709.1, 8440.248, 0.077268675, 0.2722234, -1388498.6, 324061.16, 0.17515457, 10.003588, 9.998184 
2.0152283e+3, 1.3524973e+2, -1318576.8, -1689944.0, -14480.753, 0.09475551, 0.27084878, -1318013.0, 296567.63, 0.12498782, 10.003363, 9.997879 
2.0152158e+3, 1.4524814e+2, -1199675.6, -1539032.4, -25073.342, -0.006489585, 0.3058535, -1197833.1, 318763.16, 0.07458999, 10.003173, 9.99833 
2.0152046e+3, 1.5524627e+2, -1130626.9, -1475565.8, -13068.836, 0.0390814, 0.28550586, -1130132.5, 288481.28, 0.034415293, 10.002927, 9.998212 
2.0151933e+3, 1.6524427e+2, -1092234.0, -1434739.6, -24750.256, 0.07124786, 0.28002802, -1090454.8, 230178.53, 0.010800258, 10.00257, 9.997992 
2.0151813e+3, 1.7524219e+2, -1061252.9, -1379490.1, -39685.97, 0.061186764, 0.27305692, -1056378.5, 166275.34, 0.0016580658, 10.002135, 9.997907 
2.0151691e+3, 1.8524033e+2, -966188.9, -1210436.3, -58196.113, 0.04356011, 0.2688521, -953031.44, 171639.95, 0.00003433834, 10.0018, 9.998557 
2.0151567e+3, 1.9523889e+2, -911314.6, -1144194.6, -55050.496, 0.030244695, 0.26863495, -898957.0, 127726.984, 0.0, 10.001551, 9.99846 
2.0151444e+3, 2.0523721e+2, -850160.0, -1044190.44, -69053.88, 0.03485062, 0.2514313, -828093.8, 100605.75, 0.0, 10.00121, 9.998638 
2.015132e+3, 2.1523549e+2, -819839.2, -988583.44, -69710.88, 0.05173544, 0.21301898, -794766.06, 35950.113, 0.0, 10.000787, 9.998551 
2.0151198e+3, 2.252343e+2, -733138.3, -832512.75, -55298.55, 0.046959076, 0.2161387, -708483.44, 24243.873, 0.0, 10.000436, 9.999119 
2.0151074e+3, 2.352338e+2, -682453.0, -768092.9, -58539.04, 0.023980469, 0.2529353, -652744.56, -18012.928, 0.0, 10.000157, 9.9990225 
2.0150952e+3, 2.4523275e+2, -630758.75, -676158.94, -67247.195, 0.024122007, 0.24262184, -582483.6, -45741.973, 0.0, 9.99977, 9.9991665 
2.0150831e+3, 2.5523135e+2, -611688.56, -626001.4, -68744.484, 0.044291593, 0.18685563, -549729.0, -110974.05, 0.0, 9.999271, 9.999078 
2.015071e+3, 2.652307e+2, -524945.2, -485819.63, -55157.844, 0.04128571, 0.1958038, -446858.16, -106096.31, 0.0, 9.998992, 9.999499 
2.0150591e+3, 2.7523077e+2, -442991.94, -406449.06, -57018.504, 0.018683752, 0.25306466, -364846.0, -122084.125, 0.0, 9.998928, 9.999403 
2.0150469e+3, 2.8523022e+2, -367278.3, -266868.94, -58479.254, -0.0025880483, 0.23989086, -240000.08, -95232.695, 0.0, 9.998549, 9.999871 
2.0150349e+3, 2.952295e+2, -386103.0, -244611.95, -53096.887, -0.025491584, 0.1801583, -226902.92, -180128.88, 0.0, 9.997829, 9.999699 
2.0150247e+3, 3.0523056e+2, -366979.2, -197537.64, 8593.963, 0.07404315, 0.32038566, -197102.88, -197102.88, 0.0, 9.997566, 9.999817 
2.0150137e+3, 3.152293e+2, -265812.4, -35346.176, -51253.063, 0.023980739, 0.20461968, -24462.094, -24462.094, 0.0, 9.997784, 10.00082 
2.0252432e+3, 1.2526345e+2, -1364133.8, -1717103.9, -8076.9673, 0.06642888, 0.27335823, -1363949.0, 348496.03, 0.18144545, 10.003839, 9.998135 
2.0252317e+3, 1.352613e+2, -1292319.8, -1696034.9, 13644.215, 0.08128611, 0.27932072, -1291859.3, 322608.53, 0.12975298, 10.003676, 9.997685 
2.025219e+3, 1.4525935e+2, -1171983.9, -1531428.9, 918.60925, -0.0067153643, 0.2930444, -1171981.5, 344505.4, 0.077687964, 10.003421, 9.998261 
2.0252076e+3, 1.552576e+2, -1124757.8, -1481150.0, -20553.273, 0.03936053, 0.29221565, -1123576.3, 294926.72, 0.03603443, 10.003012, 9.998132 
2.0251958e+3, 1.6525559e+2, -1085282.6, -1434165.0, -36213.043, 0.06905279, 0.29269573, -1081563.4, 238958.95, 0.011417583, 10.002635, 9.997961 
2.0251834e+3, 1.7525342e+2, -1040546.4, -1372406.1, -23781.295, 0.056503993, 0.27807587, -1038850.8, 183693.28, 0.0017896852, 10.002294, 9.997877 
2.0251709e+3, 1.852515e+2, -953464.7, -1205105.9, -31228.2, 0.04262865, 0.27018413, -949647.25, 174915.0, 0.000038280064, 10.001893, 9.998548 
2.0251583e+3, 1.9525005e+2, -928116.2, -1153605.0, -36399.41, 0.036784187, 0.26956695, -922386.06, 104188.85, 0.0, 10.001442, 9.9984455 
2.0251456e+3, 2.0524837e+2, -852860.3, -1040124.8, -47676.945, 0.03948086, 0.25015175, -841420.75, 87169.48, 0.0, 10.00117, 9.998684 
2.0251329e+3, 2.1524665e+2, -777620.44, -963161.25, -43350.67, 0.046595708, 0.20802371, -767991.44, 62614.836, 0.0, 10.001058, 9.998594 
2.0251203e+3, 2.2524543e+2, -709464.1, -834362.5, -34546.402, 0.041360524, 0.21369429, -700545.56, 32072.078, 0.0, 10.000657, 9.998999 
2.0251074e+3, 2.3524489e+2, -714868.94, -796580.1, -40474.81, 0.0265088, 0.25792235, -698214.6, -63591.574, 0.0, 9.999992, 9.998905 
2.025095e+3, 2.4524376e+2, -649230.2, -682015.44, -41015.367, 0.028721092, 0.24572907, -621452.94, -84819.305, 0.0, 9.999633, 9.99919 
2.0250826e+3, 2.5524232e+2, -569049.75, -603243.4, -38530.906, 0.045154005, 0.18138857, -543992.9, -105346.0, 0.0, 9.999557, 9.999095 
2.02507e+3, 2.652416e+2, -499948.25, -475469.34, -24125.219, 0.03579024, 0.18675269, -460656.44, -120002.33, 0.0, 9.999172, 9.999484 
2.0250577e+3, 2.7524167e+2, -508232.13, -439004.3, -24195.03, 0.0065370435, 0.24235821, -431386.47, -188731.58, 0.0, 9.9984865, 9.999391 
2.0250455e+3, 2.8524122e+2, -424469.03, -290599.16, -26536.094, 0.00030384833, 0.23869418, -285530.97, -140871.67, 0.0, 9.998142, 9.999903 
2.0250332e+3, 2.952408e+2, -339467.4, -213271.13, -24371.37, 0.008924993, 0.20572555, -208728.02, -162065.56, 0.0, 9.998115, 9.999775 
2.025022e+3, 3.0524132e+2, -315778.4, -144659.2, 33933.934, 0.03777666, 0.26955664, -138175.56, -138175.56, 0.0, 9.997796, 10.00007 
2.0250112e+3, 3.1524122e+2, -382787.5, -132593.19, -75801.18, 0.023716109, 0.25259924, -111419.65, -111419.65, 0.0, 9.997161, 10.00045 
2.0352466e+3, 1.2527512e+2, -1348511.6, -1678738.8, -23132.193, 0.03945252, 0.26975012, -1346899.1, 365432.5, 0.18806443, 10.003841, 9.99845 
2.0352352e+3, 1.3527355e+2, -1278037.6, -1658848.5, 9071.811, 0.079388864, 0.30807894, -1277821.6, 336525.4, 0.13476092, 10.00368, 9.997939 
2.0352226e+3, 1.452712e+2, -1204980.6, -1605389.0, -12775.265, 0.011559858, 0.2932289, -1204573.4, 311797.03, 0.080942936, 10.0034275, 9.997752 
2.0352104e+3, 1.5526891e+2, -1158322.3, -1553912.1, -34767.4, 0.027421383, 0.29096004, -1155289.9, 263103.66, 0.03773951, 10.0030155, 9.997631 
2.035198e+3, 1.6526686e+2, -1062474.1, -1386467.5, -47750.0, 0.044004414, 0.2943569, -1055583.4, 264830.1, 0.012072378, 10.002635, 9.998291 
2.0351855e+3, 1.7526509e+2, -1018128.06, -1326299.6, -35591.086, 0.038818642, 0.28848097, -1014071.0, 208358.61, 0.0019321509, 10.002294, 9.998196 
2.0351727e+3, 1.852632e+2, -961381.1, -1222439.1, -47523.895, 0.041551597, 0.27215722, -952998.9, 171448.27, 0.000042609576, 10.001895, 9.998428 
2.03516e+3, 1.9526137e+2, -935049.4, -1170228.1, -51710.773, 0.05867293, 0.24586163, -924181.5, 102282.45, 0.0, 10.00145, 9.998329 
2.035147e+3, 2.0525979e+2, -843525.6, -1022753.2, -50863.49, 0.05385722, 0.23702079, -830097.06, 98381.125, 0.0, 10.001177, 9.998802 
2.0351338e+3, 2.1525863e+2, -769715.0, -947249.2, -46535.902, 0.026629865, 0.23915641, -758256.4, 72232.15, 0.0, 10.001058, 9.998705 
2.0351207e+3, 2.2525738e+2, -719967.06, -857229.0, -58532.477, 0.028164793, 0.24407023, -698396.8, 34103.61, 0.0, 10.000659, 9.998841 
2.0351078e+3, 2.3525625e+2, -724092.4, -818293.0, -63544.31, 0.057591055, 0.24648476, -692095.75, -57583.637, 0.0, 10.000001, 9.998754 
2.0350948e+3, 2.4525513e+2, -643375.4, -672240.4, -43262.418, 0.049598046, 0.23833136, -612201.56, -75678.73, 0.0, 9.999641, 9.999255 
2.0350818e+3, 2.552542e+2, -563206.3, -592981.4, -41071.766, 0.0053226487, 0.21899, -534407.1, -95876.41, 0.0, 9.999562, 9.999165 
2.0350689e+3, 2.6525348e+2, -498086.88, -473864.34, -49992.613, -0.007951491, 0.2194527, -434536.88, -93999.08, 0.0, 9.999179, 9.999493 
2.0350562e+3, 2.752531e+2, -506361.13, -438805.8, -49680.496, 0.012229988, 0.22747214, -412507.84, -169964.64, 0.0, 9.998499, 9.999388 
2.0350438e+3, 2.8525275e+2, -424346.34, -292221.8, -28360.373, 0.035241913, 0.2376144, -286391.56, -141845.22, 0.0, 9.998149, 9.999889 
2.0350316e+3, 2.9525292e+2, -333715.66, -204682.13, -26216.697, 0.046246156, 0.26588568, -199558.9, -153015.42, 0.0, 9.998127, 9.999828 
2.0350191e+3, 3.0525208e+2, -319891.38, -155734.33, 9033.101, -0.049344294, 0.19104078, -155238.75, -155238.75, 0.0, 9.997805, 9.99999 
2.0350084e+3, 3.1525263e+2, -352745.72, -72665.984, -92404.83, 0.042474613, 0.25103107, -44926.785, -44926.785, 0.0, 9.997167, 10.000861 
2.0452507e+3, 1.252873e+2, -1319072.1, -1680566.6, -10277.512, 0.0399609, 0.26749253, -1318780.3, 393432.1, 0.19504344, 10.004211, 9.998258 
2.0452389e+3, 1.352858e+2, -1269231.0, -1666801.6, 5841.6714, 0.063667424, 0.32658026, -1269145.3, 345081.97, 0.14004281, 10.003828, 9.997813 
2.0452261e+3, 1.4528309e+2, -1206752.6, -1613430.3, -17796.197, 0.016923688, 0.28571665, -1205975.4, 310278.78, 0.08438114, 10.003457, 9.997682 
2.0452134e+3, 1.5528077e+2, -1157072.3, -1560990.0, -11334.064, 0.0334764, 0.2879922, -1156754.4, 261523.17, 0.039549183, 10.003064, 9.997559 
2.0452008e+3, 1.6527872e+2, -1060276.8, -1383514.4, -19752.28, 0.04703948, 0.2945013, -1059074.1, 261223.31, 0.012775173, 10.0026455, 9.998305 
2.0451878e+3, 1.7527696e+2, -1028858.8, -1330206.8, -30798.588, 0.039142266, 0.289202, -1025743.3, 196570.1, 0.0020902138, 10.002215, 9.998206 
2.0451747e+3, 1.8527506e+2, -954914.9, -1218358.9, -45589.13, 0.04142061, 0.27216566, -947248.75, 177082.13, 0.00004822457, 10.001936, 9.998436 
2.0451616e+3, 1.9527324e+2, -885662.06, -1144813.8, -41049.938, 0.05901487, 0.24462603, -879315.1, 147032.5, 0.0, 10.001784, 9.998342 
2.0451483e+3, 2.052717e+2, -812786.94, -1005855.2, -42631.266, 0.0574049, 0.23984644, -803792.56, 124568.86, 0.0, 10.001382, 9.998817 
2.0451348e+3, 2.1527064e+2, -812774.5, -966376.8, -46589.453, 0.03563959, 0.25066036, -799748.06, 30622.813, 0.0, 10.000756, 9.998717 
2.0451213e+3, 2.2526939e+2, -757606.94, -874307.2, -56276.875, 0.03505656, 0.25226647, -734890.3, -2507.2725, 0.0, 10.000399, 9.998849 
2.045108e+3, 2.3526813e+2, -682429.94, -796853.06, -49798.37, 0.05633372, 0.24092716, -663792.75, -29396.855, 0.0, 10.000283, 9.998763 
2.0450947e+3, 2.4526706e+2, -604141.75, -646983.4, -23293.91, 0.05023457, 0.23463377, -593916.75, -57510.727, 0.0, 9.999885, 9.9993105 
2.0450811e+3, 2.5526634e+2, -607675.75, -607782.9, -21547.371, 0.016468959, 0.23044057, -586181.9, -147770.05, 0.0, 9.999229, 9.999222 
2.0450678e+3, 2.6526564e+2, -541575.3, -488185.0, -30382.379, -0.006615192, 0.22809817, -474436.13, -134017.64, 0.0, 9.998854, 9.99955 
2.0450546e+3, 2.752651e+2, -470304.4, -415139.47, -26630.48, -0.011605114, 0.22042656, -404381.7, -161957.08, 0.0, 9.998723, 9.999441 
2.0450419e+3, 2.8526485e+2, -389541.66, -277538.2, 1991.186, 0.02796199, 0.23463693, -277502.8, -133075.53, 0.0, 9.998399, 9.999869 
2.04503e+3, 2.9526517e+2, -370131.03, -220645.73, 2406.0674, 0.08543263, 0.2784872, -220607.02, -174183.56, 0.0, 9.997872, 9.999842 
2.0450163e+3, 3.05264e+2, -390319.97, -188960.9, 28110.611, -0.08406168, 0.17101087, -185110.19, -185110.19, 0.0, 9.997321, 9.999993 
2.0450057e+3, 3.1526506e+2, -355104.8, -10115.544, -32027.195, 0.06433113, 0.28310296, -7167.481, -7167.481, 0.0, 9.996878, 10.001429 
2.0552552e+3, 1.2530005e+2, -1359870.4, -1769070.1, -26921.316, 0.05722385, 0.28037733, -1358106.8, 353979.63, 0.20234902, 10.004207, 9.997604 
2.0552424e+3, 1.3529795e+2, -1299007.3, -1734620.8, -5375.7495, 0.034416378, 0.32921377, -1298940.9, 315167.88, 0.14558806, 10.003831, 9.997347 
2.0552295e+3, 1.4529495e+2, -1186224.4, -1565965.6, -30315.201, 0.010038863, 0.26446167, -1183819.5, 332319.2, 0.08800701, 10.003462, 9.998009 
2.0552167e+3, 1.5529314e+2, -1135932.0, -1515910.6, -24779.25, 0.054211188, 0.28556532, -1134322.9, 283832.7, 0.041472405, 10.003068, 9.997868 
2.0552036e+3, 1.6529113e+2, -1079757.8, -1425664.0, -35117.336, 0.07310855, 0.296963, -1076228.5, 243946.3, 0.013533407, 10.002649, 9.998014 
2.0551902e+3, 1.75289e+2, -1047851.06, -1371840.3, -45420.8, 0.05493926, 0.28078416, -1041603.9, 180592.06, 0.002268335, 10.002222, 9.997918 
2.0551765e+3, 1.8528707e+2, -945252.1, -1199598.4, -50002.566, 0.04162146, 0.26932824, -935775.1, 188438.8, 0.000056267494, 10.001939, 9.998565 
2.0551631e+3, 1.952856e+2, -877284.8, -1127304.9, -45812.234, 0.03832308, 0.2642704, -869154.8, 157071.97, 0.0, 10.001781, 9.998465 
2.0551497e+3, 2.0528406e+2, -819059.56, -1019414.8, -65066.535, 0.049915563, 0.25744644, -799783.4, 128457.3, 0.0, 10.001382, 9.998725 
2.055136e+3, 2.1528265e+2, -818079.75, -979145.94, -67909.84, 0.07156016, 0.24328116, -793269.0, 36984.965, 0.0, 10.000762, 9.998629 
2.0551218e+3, 2.2528137e+2, -745735.6, -851825.2, -59276.094, 0.060431488, 0.23968464, -719235.44, 13030.558, 0.0, 10.000406, 9.9990015 
2.055108e+3, 2.3528041e+2, -671322.06, -775064.56, -53274.1, 0.022467716, 0.24175839, -648837.75, -14562.592, 0.0, 10.000286, 9.998913 
2.0550942e+3, 2.4527942e+2, -600580.1, -640906.2, -47567.195, 0.030518178, 0.23463799, -569079.0, -32794.832, 0.0, 9.999888, 9.9993515 
2.0550811e+3, 2.552786e+2, -603409.4, -601405.25, -45425.99, 0.076151416, 0.21555759, -556970.25, -118678.87, 0.0, 9.999238, 9.999263 
2.0550671e+3, 2.6527798e+2, -534231.44, -474821.88, -35614.242, 0.037869338, 0.21415298, -458150.5, -117853.33, 0.0, 9.998859, 9.99964 
2.0550527e+3, 2.752777e+2, -462205.13, -400738.8, -31897.018, -0.066105254, 0.22212334, -387178.13, -144877.81, 0.0, 9.998731, 9.999538 
2.05504e+3, 2.8527737e+2, -390082.56, -281492.4, -18839.232, -0.022528218, 0.22744267, -278316.84, -134013.2, 0.0, 9.998408, 9.999839 
2.0550284e+3, 2.9527733e+2, -369864.4, -225051.8, -19216.307, 0.12405226, 0.23642756, -222545.22, -176240.88, 0.0, 9.99789, 9.9998045 
2.0550136e+3, 3.0527708e+2, -386657.88, -180308.64, 5490.0596, -0.063616864, 0.21985124, -180162.67, -180162.67, 0.0, 9.997318, 10.000053 
2.0550022e+3, 3.1527737e+2, -317605.4, 66962.24, 10549.917, 0.01911149, 0.24872528, 67251.44, 67251.44, 0.0, 9.996874, 10.001964 
2.065259e+3, 1.2531257e+2, -1377751.3, -1775603.5, -46884.8, 0.03419829, 0.2876576, -1372300.9, 339663.44, 0.20990813, 10.004069, 9.997631 
2.0652464e+3, 1.3531055e+2, -1282679.3, -1700060.5, 16607.967, 0.035132788, 0.32403886, -1282019.4, 331965.5, 0.15135102, 10.003877, 9.997562 
2.0652334e+3, 1.4530751e+2, -1172666.5, -1560180.4, -354.6373, 0.036743004, 0.24783902, -1172666.1, 343348.6, 0.091801174, 10.003586, 9.997986 
2.06522e+3, 1.5530582e+2, -1112507.0, -1507224.8, -18793.398, 0.05258701, 0.2825748, -1111614.3, 306416.72, 0.043505892, 10.003256, 9.997837 
2.0652063e+3, 1.6530383e+2, -1049449.6, -1414940.3, -33561.785, 0.06576355, 0.29910174, -1046393.3, 273656.88, 0.014349492, 10.002879, 9.997978 
2.0651926e+3, 1.7530166e+2, -1017043.44, -1360532.6, -25234.686, 0.06604022, 0.28245324, -1015199.44, 206872.39, 0.0024691073, 10.002451, 9.997885 
2.0651788e+3, 1.8529968e+2, -939037.3, -1198791.5, -22781.727, 0.056400836, 0.27020264, -937054.4, 187035.86, 0.00006770486, 10.001994, 9.998543 
2.0651647e+3, 1.9529815e+2, -918543.94, -1149721.0, -30817.523, 0.041195158, 0.2637321, -914506.3, 111597.266, 0.0, 10.001511, 9.99844 
2.0651509e+3, 2.052966e+2, -847317.9, -1035234.8, -54656.926, 0.047237907, 0.25606647, -832576.9, 95541.0, 0.0, 10.0012, 9.998704 
2.0651367e+3, 2.1529517e+2, -778972.44, -961890.7, -53323.43, 0.07085021, 0.24062265, -764562.94, 65568.69, 0.0, 10.00104, 9.998611 
2.0651226e+3, 2.252939e+2, -699198.75, -817994.0, -41961.26, 0.060006525, 0.23447894, -685872.06, 46271.25, 0.0, 10.000679, 9.9991 
2.065108e+3, 2.35293e+2, -685880.5, -771460.9, -40826.105, 0.020065052, 0.23444024, -669528.7, -35377.39, 0.0, 10.000143, 9.999005 
2.065094e+3, 2.4529207e+2, -624571.0, -650331.5, -43158.793, 0.029179584, 0.22763346, -592411.44, -56251.65, 0.0, 9.999716, 9.999369 
2.0650803e+3, 2.5529128e+2, -581749.1, -588750.5, -43007.184, 0.07924517, 0.21033429, -542100.4, -103933.305, 0.0, 9.99938, 9.99928 
2.0650661e+3, 2.652907e+2, -517296.6, -461469.63, -29110.008, 0.045939017, 0.21092537, -449052.53, -108880.23, 0.0, 9.998956, 9.999685 
2.0650515e+3, 2.752905e+2, -500200.38, -414310.2, -28856.871, -0.051952843, 0.22228795, -405515.56, -163341.31, 0.0, 9.99845, 9.999579 
2.0650381e+3, 2.8529012e+2, -437724.1, -310595.38, -20614.799, -0.02322567, 0.22269666, -307336.1, -163157.89, 0.0, 9.998109, 9.999783 
2.0650259e+3, 2.9528987e+2, -375236.9, -233097.83, -25404.82, 0.08995094, 0.21679685, -228693.63, -182512.13, 0.0, 9.997881, 9.999751 
2.0650113e+3, 3.0529004e+2, -367719.38, -151729.0, -5175.063, -0.05085607, 0.23633932, -151605.08, -151605.08, 0.0, 9.997368, 10.000224 
2.064999e+3, 3.1528965e+2, -339951.56, 54405.965, 52497.984, 0.016963191, 0.1785681, 61274.996, 61274.996, 0.0, 9.996727, 10.00195 
2.0752625e+3, 1.2532483e+2, -1344887.4, -1685830.3, -47465.91, -0.028521974, 0.29003403, -1338402.5, 373443.03, 0.21764491, 10.004065, 9.998291 
2.0752504e+3, 1.3532358e+2, -1235428.3, -1584044.1, 9853.826, 0.059773378, 0.3162677, -1235149.9, 378705.5, 0.15727735, 10.003877, 9.998397 
2.0752373e+3, 1.4532079e+2, -1197065.9, -1613884.9, -12648.364, 0.08951623, 0.24145488, -1196682.4, 319200.13, 0.09573282, 10.003588, 9.997619 
2.0752229e+3, 1.553187e+2, -1137174.5, -1559707.8, -30294.22, 0.028116988, 0.27703893, -1135013.6, 282890.7, 0.04563651, 10.003255, 9.9974785 
2.0752087e+3, 1.6531672e+2, -1035118.5, -1384852.3, -48554.688, 0.026583767, 0.29754692, -1028502.6, 291421.66, 0.015219454, 10.002879, 9.998186 
2.075195e+3, 1.7531484e+2, -1002462.0, -1331196.4, -40460.945, 0.07234607, 0.29268146, -997555.3, 224386.53, 0.0026920678, 10.002453, 9.998087 
2.0751809e+3, 1.8531284e+2, -951053.9, -1224935.3, -40238.98, 0.08338702, 0.27496535, -945264.3, 178696.3, 0.00008301991, 10.001997, 9.998363 
2.0751666e+3, 1.9531092e+2, -930138.2, -1175461.0, -47324.934, 0.06485312, 0.24548604, -921325.4, 104653.055, 0.0, 10.001515, 9.998262 
2.0751521e+3, 2.0530929e+2, -843579.94, -1028942.25, -59310.004, 0.048464265, 0.23738843, -826227.1, 101766.49, 0.0, 10.001204, 9.998746 
2.0751375e+3, 2.1530807e+2, -776720.9, -956709.1, -58033.094, 0.0340861, 0.2426045, -759631.94, 70372.875, 0.0, 10.001036, 9.99865 
2.0751227e+3, 2.2530687e+2, -696831.94, -813188.0, -60868.58, 0.034043446, 0.23688488, -670809.8, 61206.246, 0.0, 10.000678, 9.999135 
2.0751084e+3, 2.3530582e+2, -683323.7, -767256.44, -59422.25, 0.047164295, 0.2185338, -652542.7, -18517.234, 0.0, 10.000146, 9.999034 
2.075094e+3, 2.453049e+2, -624806.0, -652326.25, -55215.605, 0.044647086, 0.21345589, -581661.75, -45627.813, 0.0, 9.999721, 9.999354 
2.0750791e+3, 2.5530428e+2, -581965.1, -591192.2, -55770.965, 0.025386246, 0.21502072, -530617.2, -92577.21, 0.0, 9.999387, 9.999262 
2.075065e+3, 2.6530373e+2, -517096.1, -462996.25, -48656.86, 0.018423913, 0.21807672, -434375.8, -94330.68, 0.0, 9.998961, 9.999673 
2.0750508e+3, 2.753034e+2, -499591.16, -416157.56, -47616.473, 0.030244268, 0.21883152, -394568.6, -152520.72, 0.0, 9.998462, 9.999562 
2.0750366e+3, 2.8530297e+2, -443792.28, -325846.1, -30913.041, 0.022949737, 0.22031757, -318235.1, -174182.72, 0.0, 9.998117, 9.999676 
2.0750228e+3, 2.953027e+2, -380488.28, -246788.44, -37783.848, -0.02392109, 0.22295706, -236849.48, -190793.3, 0.0, 9.9978895, 9.999655 
2.0750087e+3, 3.053027e+2, -345394.34, -105199.17, -34268.082, -0.04004548, 0.21439974, -100405.875, -100405.875, 0.0, 9.997368, 10.000544 
2.0749958e+3, 3.1530333e+2, -390031.56, -55228.176, 42040.83, 0.043191053, 0.22759037, -50029.875, -50029.875, 0.0, 9.996747, 10.001189 
2.0852666e+3, 1.2533754e+2, -1350301.9, -1692477.3, -4407.8853, -0.030310728, 0.25929713, -1350245.0, 361474.4, 0.22550388, 10.004081, 9.998226 
2.0852542e+3, 1.3533653e+2, -1239470.4, -1576573.6, 1201.7548, 0.053857088, 0.3008202, -1239466.1, 374261.25, 0.16332443, 10.003824, 9.998484 
2.085241e+3, 1.4533404e+2, -1210327.1, -1612633.9, -35878.44, 0.09783674, 0.24828395, -1207152.5, 308599.22, 0.09977023, 10.003465, 9.997687 
2.085226e+3, 1.5533192e+2, -1157806.8, -1561825.9, -23075.984, 0.028417917, 0.27150157, -1156493.0, 261281.11, 0.04784339, 10.0030775, 9.997548 
2.0852117e+3, 1.6532986e+2, -1054163.4, -1397910.1, -34417.16, 0.025061605, 0.28667217, -1050751.3, 269043.44, 0.016132781, 10.002767, 9.99815 
2.0851976e+3, 1.7532803e+2, -996526.4, -1332303.6, -45906.074, 0.07611398, 0.2875905, -990363.4, 231449.17, 0.002933817, 10.002513, 9.998051 
2.0851831e+3, 1.8532608e+2, -924699.8, -1209529.1, -50522.76, 0.08728013, 0.27686155, -916003.6, 207827.31, 0.00010212097, 10.002166, 9.998387 
2.0851682e+3, 1.9532423e+2, -895299.9, -1155341.0, -43070.887, 0.064224645, 0.25350246, -888351.7, 137496.42, 0.0, 10.001742, 9.99829 
2.0851533e+3, 2.0532265e+2, -832406.06, -1014974.25, -43977.09, 0.04768885, 0.24366325, -822365.06, 105497.77, 0.0, 10.001246, 9.998819 
2.0851381e+3, 2.1532144e+2, -822757.1, -970689.7, -41341.027, 0.036495175, 0.24196893, -811988.0, 17885.787, 0.0, 10.000688, 9.99872 
2.0851234e+3, 2.2532025e+2, -756418.9, -839849.8, -45395.613, 0.040367477, 0.23429914, -736482.56, -4597.679, 0.0, 10.000262, 9.999151 
2.0851086e+3, 2.3531923e+2, -709974.44, -778025.56, -45741.45, 0.058583874, 0.21677367, -686991.06, -53096.74, 0.0, 9.999957, 9.999049 
2.0850936e+3, 2.453184e+2, -629895.0, -648681.2, -35130.586, 0.04899479, 0.2168441, -602923.44, -67021.28, 0.0, 9.999662, 9.999407 
2.0850784e+3, 2.5531793e+2, -580169.0, -585104.56, -30812.0, 0.01360356, 0.22932518, -551726.1, -113819.414, 0.0, 9.999378, 9.999307 
2.0850638e+3, 2.6531732e+2, -511780.34, -466708.4, -28170.766, 0.012602037, 0.22708946, -453168.6, -113256.08, 0.0, 9.999026, 9.999616 
2.0850493e+3, 2.7531675e+2, -482950.03, -414512.7, -30501.523, 0.04669115, 0.2088528, -402891.84, -160974.08, 0.0, 9.998606, 9.999504 
2.0850348e+3, 2.8531644e+2, -446048.56, -326249.7, -8371.813, 0.0233744, 0.22444078, -325667.5, -181746.36, 0.0, 9.998099, 9.999681 
2.08502e+3, 2.9531655e+2, -434797.78, -273665.16, -7009.4136, -0.06226202, 0.26832092, -273360.8, -227440.0, 0.0, 9.9975195, 9.999649 
2.0850064e+3, 3.053157e+2, -356829.6, -109453.805, -10881.153, -0.002114457, 0.17603293, -108976.11, -108976.11, 0.0, 9.997283, 10.000556 
2.0849924e+3, 3.1531695e+2, -348450.06, -83485.805, 25232.533, -0.0049840836, 0.2505039, -81104.31, -81104.31, 0.0, 9.997243, 10.000754 
2.095271e+3, 1.2535068e+2, -1393872.0, -1795760.9, -5673.766, 0.019216321, 0.1973739, -1393792.0, 317794.8, 0.23346545, 10.004083, 9.997479 
2.0952576e+3, 1.353494e+2, -1279524.0, -1661859.8, -7364.0474, 0.017810607, 0.27669224, -1279382.3, 334218.78, 0.1694714, 10.003819, 9.997853 
2.0952441e+3, 1.4534722e+2, -1181322.0, -1542744.8, -48489.496, 0.063731626, 0.26441535, -1174929.6, 340693.13, 0.10388889, 10.003463, 9.998172 
2.0952295e+3, 1.553454e+2, -1126757.6, -1493273.8, -35903.32, 0.05061538, 0.26625526, -1123273.8, 294366.84, 0.050104514, 10.0030775, 9.99802 
2.0952149e+3, 1.6534331e+2, -1074406.0, -1440289.9, -43304.03, 0.05624301, 0.26896635, -1069350.6, 250311.17, 0.017076368, 10.002765, 9.997862 
2.0952001e+3, 1.7534117e+2, -1015975.25, -1373044.3, -54467.17, 0.07530754, 0.26956528, -1007851.7, 213832.47, 0.0031894369, 10.002512, 9.997772 
2.095185e+3, 1.8533939e+2, -909445.6, -1178081.1, -65186.883, 0.06843912, 0.27630195, -894463.06, 229238.6, 0.00012447778, 10.002165, 9.998605 
2.0951697e+3, 1.9533807e+2, -881320.3, -1125508.5, -57669.49, 0.040281765, 0.2851153, -868385.75, 157327.5, 0.0, 10.001737, 9.998499 
2.0951545e+3, 2.0533662e+2, -826022.94, -1001695.5, -63962.33, 0.044271186, 0.2732868, -805202.0, 122524.484, 0.0, 10.001244, 9.998913 
2.0951395e+3, 2.1533518e+2, -816040.4, -957657.5, -60274.348, 0.07500409, 0.23921438, -793860.5, 35878.914, 0.0, 10.000689, 9.998811 
2.095124e+3, 2.2533399e+2, -756569.25, -841683.94, -55683.832, 0.07675165, 0.22686552, -729042.25, 2708.4844, 0.0, 10.000266, 9.999137 
2.0951083e+3, 2.3533313e+2, -710434.9, -780222.2, -55863.414, 0.053606912, 0.22870108, -679462.8, -45703.848, 0.0, 9.99996, 9.999034 
2.0950933e+3, 2.4533245e+2, -621601.06, -633034.9, -45658.91, 0.04199228, 0.23847443, -581302.5, -45537.035, 0.0, 9.999666, 9.999513 
2.0950781e+3, 2.553321e+2, -571999.6, -570280.7, -41631.2, 0.041197438, 0.25250092, -529500.06, -91731.54, 0.0, 9.999385, 9.999407 
2.095063e+3, 2.6533136e+2, -518047.84, -481968.56, -44941.76, 0.026086448, 0.23674129, -451581.03, -111805.18, 0.0, 9.999034, 9.999508 
2.0950475e+3, 2.753304e+2, -488434.03, -429192.34, -47487.69, -0.003284447, 0.19056378, -402844.7, -161059.39, 0.0, 9.998617, 9.999398 
2.0950325e+3, 2.8533038e+2, -437252.47, -309281.16, -31788.889, -0.021113535, 0.23606248, -301819.66, -158034.05, 0.0, 9.998104, 9.999797 
2.0950179e+3, 2.953314e+2, -428619.7, -261805.95, -28454.926, -0.024870105, 0.35575318, -257085.7, -211309.42, 0.0, 9.997521, 9.999731 
2.0950042e+3, 3.0532885e+2, -379710.88, -159442.06, -11864.639, 0.05856278, 0.11028469, -158804.83, -158804.83, 0.0, 9.997292, 10.00021 
2.094989e+3, 3.1533068e+2, -334188.34, -58765.926, -34200.164, -0.069262974, 0.27669626, -54582.707, -54582.707, 0.0, 9.997265, 10.000914 
2.1052754e+3, 1.2536447e+2, -1397472.1, -1802116.1, -12509.436, 0.03216169, 0.2129526, -1397085.8, 314365.13, 0.24155074, 10.004108, 9.997423 
2.1052612e+3, 1.3536258e+2, -1283658.8, -1673078.3, 10718.698, 0.0012801972, 0.24119627, -1283363.9, 330107.13, 0.17571339, 10.003851, 9.99776 
2.1052474e+3, 1.4536057e+2, -1181756.1, -1534082.3, -32150.426, 0.045729935, 0.24535353, -1178846.4, 336645.2, 0.10806762, 10.00344, 9.998239 
2.1052325e+3, 1.5535907e+2, -1142564.0, -1491829.4, -48702.77, 0.055494156, 0.2727597, -1135899.9, 281606.8, 0.05239727, 10.00293, 9.998101 
2.1052176e+3, 1.6535711e+2, -1095860.4, -1438975.5, -48182.22, 0.066386186, 0.27910563, -1089222.8, 230303.97, 0.018035803, 10.002566, 9.997966 
2.1052024e+3, 1.7535493e+2, -1033890.44, -1369903.1, -31627.422, 0.075597756, 0.26551762, -1030939.4, 190609.66, 0.0034529725, 10.002339, 9.997876 
2.105187e+3, 1.8535319e+2, -938598.5, -1186707.0, -44616.367, 0.06662596, 0.27015546, -930819.2, 192747.05, 0.00014922666, 10.001944, 9.998651 
2.1051711e+3, 1.9535202e+2, -927448.25, -1142187.8, -50259.73, 0.042281125, 0.28734648, -916267.1, 109310.055, 0.0, 10.001397, 9.998547 
2.1051556e+3, 2.053507e+2, -856737.2, -1005894.0, -59407.78, 0.048806444, 0.28335837, -835967.7, 91621.63, 0.0, 10.000989, 9.999006 
2.1051401e+3, 2.1534942e+2, -807274.0, -942997.5, -56625.42, 0.082103215, 0.25555634, -786752.2, 42848.57, 0.0, 10.000706, 9.998902 
2.1051243e+3, 2.253483e+2, -738132.2, -822032.0, -46111.05, 0.08265268, 0.24186845, -717744.1, 13867.073, 0.0, 10.000349, 9.999231 
2.1051084e+3, 2.353475e+2, -709302.9, -769318.5, -38737.242, 0.054654613, 0.23761357, -690310.25, -56691.324, 0.0, 9.999926, 9.999124 
2.1050927e+3, 2.4534684e+2, -638118.2, -639608.8, -25527.824, 0.043020673, 0.24784838, -613324.8, -77699.83, 0.0, 9.999549, 9.999523 
2.1050774e+3, 2.5534657e+2, -597331.2, -581549.9, -28843.404, 0.04751943, 0.26760882, -559537.25, -121909.58, 0.0, 9.999209, 9.999413 
2.1050617e+3, 2.6534584e+2, -543914.44, -490913.28, -33174.97, 0.027018951, 0.25391954, -474953.78, -135318.95, 0.0, 9.998842, 9.999538 
2.1050459e+3, 2.753449e+2, -510153.1, -435666.7, -26114.688, -0.018394358, 0.20546095, -427423.25, -185778.95, 0.0, 9.998452, 9.9994335 
2.1050306e+3, 2.8534493e+2, -435945.88, -296377.16, -7600.2314, -0.031179318, 0.24774286, -295964.5, -152320.39, 0.0, 9.99806, 9.999906 
2.1050157e+3, 2.9534608e+2, -401470.6, -240218.92, -4048.354, -0.004610723, 0.37055504, -240117.34, -194484.17, 0.0, 9.997673, 9.999805 
2.1050015e+3, 3.0534348e+2, -380422.06, -165152.67, 34202.824, 0.04090058, 0.11779777, -159849.06, -159849.06, 0.0, 9.99731, 10.000161 
2.1049859e+3, 3.1534588e+2, -393755.13, -68244.78, -12524.151, -0.08822733, 0.34460095, -67763.625, -67763.625, 0.0, 9.996777, 10.001081 
2.1152793e+3, 1.2537882e+2, -1369370.1, -1717376.6, -11083.724, 0.0127974115, 0.29534006, -1369017.5, 342295.0, 0.24979426, 10.004118, 9.998 
2.1152651e+3, 1.353761e+2, -1263840.5, -1615721.9, 2878.1877, 0.00023694977, 0.19587159, -1263817.0, 349520.5, 0.18204187, 10.003847, 9.998156 
2.1152507e+3, 1.4537407e+2, -1204757.3, -1584440.1, -49660.477, 0.03931736, 0.19617832, -1198369.4, 316988.84, 0.112278216, 10.003438, 9.997898 
2.1152353e+3, 1.5537289e+2, -1162122.4, -1535829.9, -65848.79, 0.04216126, 0.29075822, -1150859.0, 266513.66, 0.05469548, 10.002938, 9.997798 
2.11522e+3, 1.653712e+2, -1062622.8, -1370211.0, -54993.098, 0.0557115, 0.31452322, -1053086.4, 266303.6, 0.01899568, 10.002573, 9.998436 
2.1152048e+3, 1.7536923e+2, -1002851.5, -1304630.1, -39055.44, 0.07665968, 0.2734846, -997879.0, 223529.14, 0.0037182553, 10.002336, 9.998326 
2.1151891e+3, 1.8536745e+2, -947850.06, -1205285.5, -64126.637, 0.07972631, 0.25850904, -932760.7, 190664.81, 0.00017539466, 10.001939, 9.998527 
2.1151729e+3, 1.9536601e+2, -935023.8, -1158934.3, -68727.71, 0.06713852, 0.263146, -915611.3, 109829.055, 0.00000000000010610821, 10.0014, 9.998432 
2.1151568e+3, 2.0536485e+2, -849918.7, -993512.94, -68471.6, 0.060173236, 0.27546036, -822503.0, 104948.84, 0.0, 10.000994, 9.99909 
2.1151406e+3, 2.1536408e+2, -801534.06, -931111.3, -65404.78, 0.05824027, 0.29009444, -774261.0, 55197.67, 0.0, 10.000704, 9.998986 
2.1151245e+3, 2.2536314e+2, -725176.56, -795675.25, -60668.926, 0.05847899, 0.27960578, -690260.2, 41206.984, 0.0, 10.000349, 9.9994135 
2.1151084e+3, 2.3536219e+2, -695802.94, -743096.75, -53432.855, 0.06039113, 0.24343002, -661018.3, -27543.025, 0.0, 9.999931, 9.999303 
2.1150926e+3, 2.4536149e+2, -643476.8, -652229.2, -38237.51, 0.050936144, 0.24358328, -609365.9, -73883.95, 0.0, 9.999554, 9.999435 
2.1150765e+3, 2.5536123e+2, -602841.75, -594956.3, -41960.867, 0.032207165, 0.27349424, -556753.3, -119267.94, 0.0, 9.999216, 9.999318 
2.1150605e+3, 2.6536074e+2, -531956.5, -468126.53, -48736.254, 0.015435266, 0.28018358, -441785.28, -102294.805, 0.0, 9.998849, 9.999693 
2.1150444e+3, 2.7536017e+2, -496624.66, -410076.84, -41977.223, -0.002222083, 0.25525674, -393062.13, -151566.25, 0.0, 9.99846, 9.999606 
2.1150288e+3, 2.8535995e+2, -428315.4, -281831.75, -23732.531, -0.009515727, 0.25650233, -278082.7, -134584.58, 0.0, 9.998065, 10.000005 
2.1150132e+3, 2.9536042e+2, -394727.6, -230091.9, -18395.465, 0.00085259724, 0.3019554, -228061.55, -182567.83, 0.0, 9.997686, 9.999869 
2.1149975e+3, 3.0535963e+2, -362311.75, -129584.33, 16310.375, -0.061062112, 0.21725447, -128446.8, -128446.8, 0.0, 9.997316, 10.000403 
2.1149829e+3, 3.1536114e+2, -386185.34, -50274.21, -56701.54, -0.052108925, 0.32932642, -40961.234, -40961.234, 0.0, 9.996767, 10.001209 
2.1252836e+3, 1.2539327e+2, -1295211.6, -1664643.8, 22271.2, 0.0053482144, 0.29852557, -1293873.9, 417298.16, 0.25818095, 10.004761, 9.998161 
2.1252687e+3, 1.353907e+2, -1283400.8, -1622581.5, 8528.476, 0.0053762803, 0.21194875, -1283186.4, 330008.2, 0.18841554, 10.003693, 9.998181 
2.125254e+3, 1.4538865e+2, -1238221.1, -1602406.1, -28455.309, 0.03499926, 0.20933875, -1236011.1, 279204.13, 0.11647622, 10.003195, 9.997887 
2.1252383e+3, 1.5538728e+2, -1124796.4, -1515642.5, -21148.252, 0.042262718, 0.28456992, -1123655.4, 293576.56, 0.05696869, 10.003215, 9.997799 
2.1252227e+3, 1.6538563e+2, -1017346.44, -1328994.5, -19737.107, 0.053299487, 0.30455354, -1016101.44, 303147.25, 0.019941026, 10.002814, 9.9986 
2.125207e+3, 1.7538391e+2, -1032553.44, -1300947.9, -26399.723, 0.065307245, 0.27288508, -1029981.4, 191282.72, 0.0039799227, 10.002056, 9.998486 
2.125191e+3, 1.8538228e+2, -993980.56, -1222379.8, -50168.875, 0.07074812, 0.26240495, -983446.56, 139833.52, 0.00020211155, 10.001601, 9.998571 
2.1251743e+3, 1.9538088e+2, -929644.9, -1151258.9, -43735.875, 0.070538536, 0.26612642, -921325.8, 103969.2, 0.0000000000129771185, 10.001416, 9.998476 
2.1251577e+3, 2.0537972e+2, -835889.94, -981482.6, -40487.99, 0.06287918, 0.27587277, -825388.1, 101918.41, 0.0, 10.00107, 9.999135 
2.1251412e+3, 2.1537898e+2, -815897.4, -932952.94, -41090.453, 0.04840427, 0.28870293, -802913.44, 26399.787, 0.0, 10.000586, 9.999029 
2.1251245e+3, 2.2537813e+2, -744894.5, -801279.75, -42002.137, 0.04859219, 0.28465053, -722500.5, 8820.219, 0.0, 10.000199, 9.999446 
2.1251084e+3, 2.3537733e+2, -698476.56, -740841.0, -46292.316, 0.06209404, 0.25950933, -668750.44, -35422.902, 0.0, 9.9999, 9.999332 
2.125092e+3, 2.4537659e+2, -651942.8, -653450.44, -34091.984, 0.054988887, 0.2529085, -618596.3, -83261.734, 0.0, 9.999485, 9.999458 
2.1250758e+3, 2.5537613e+2, -637193.5, -607941.4, -29354.43, 0.030326124, 0.26360735, -589771.06, -152431.34, 0.0, 9.998967, 9.999348 
2.125059e+3, 2.6537582e+2, -564007.7, -469488.88, -28961.973, 0.009653071, 0.27846295, -461320.44, -121977.29, 0.0, 9.99857, 9.999817 
2.1250427e+3, 2.7537566e+2, -516174.38, -406332.2, -25172.273, -0.008108301, 0.28089237, -400838.28, -159493.78, 0.0, 9.998272, 9.999722 
2.1250269e+3, 2.8537527e+2, -448885.84, -294423.94, -14731.092, -0.001176405, 0.26339307, -293031.56, -149683.19, 0.0, 9.997937, 9.999978 
2.1250112e+3, 2.953753e+2, -408239.28, -233594.55, -17839.314, 0.030255044, 0.2651866, -231790.95, -186441.94, 0.0, 9.997585, 9.999892 
2.1249941e+3, 3.0537573e+2, -351313.88, -56772.445, 24474.379, -0.124834865, 0.27093813, -54752.645, -54752.645, 0.0, 9.997103, 10.001006 
2.12498e+3, 3.1537682e+2, -443586.8, -86672.86, -15670.726, -0.0071039763, 0.2857093, -85986.14, -85986.14, 0.0, 9.99641, 10.001131 
2.1352883e+3, 1.2540783e+2, -1313038.6, -1691022.9, -4644.334, 0.008807146, 0.23132075, -1312981.6, 398047.84, 0.26660156, 10.004752, 9.997923 
2.1352728e+3, 1.3540632e+2, -1304405.8, -1673084.6, -22925.373, 0.014791703, 0.2853508, -1302985.8, 310057.44, 0.1947492, 10.003703, 9.997832 
2.1352571e+3, 1.454042e+2, -1219222.0, -1557528.8, -26502.979, 0.03159336, 0.2792146, -1217158.4, 297905.56, 0.120605916, 10.003205, 9.998191 
2.1352416e+3, 1.5540214e+2, -1107209.9, -1474730.5, -20357.84, 0.053656444, 0.25543085, -1106085.6, 310999.7, 0.05918826, 10.00321, 9.998083 
2.1352254e+3, 1.6540034e+2, -1027716.1, -1349750.5, -46806.99, 0.056872938, 0.25314087, -1021050.8, 298052.7, 0.020860394, 10.00281, 9.998462 
2.1352087e+3, 1.7539893e+2, -1040627.25, -1319173.0, -52629.156, 0.04072033, 0.26562828, -1031015.06, 190102.22, 0.0042342423, 10.00206, 9.99836 
2.1351922e+3, 1.853976e+2, -979548.4, -1194344.4, -55784.004, 0.04012904, 0.28111625, -965924.94, 157205.73, 0.00022873028, 10.001608, 9.998762 
2.1351755e+3, 1.9539648e+2, -916968.06, -1124986.4, -49326.926, 0.053486444, 0.29462895, -905864.0, 119278.15, 0.0000000000136278775, 10.001414, 9.998658 
2.1351586e+3, 2.0539522e+2, -836054.7, -982069.3, -57358.813, 0.05678722, 0.28473127, -816217.5, 110936.79, 0.0, 10.001068, 9.999133 
2.1351416e+3, 2.1539403e+2, -815592.5, -933644.5, -57206.773, 0.050927017, 0.25295112, -792419.44, 36745.746, 0.0, 10.000589, 9.999024 
2.1351248e+3, 2.2539319e+2, -752470.56, -818803.6, -52054.105, 0.05158227, 0.25714558, -723914.7, 7258.2397, 0.0, 10.000205, 9.999324 
2.1351081e+3, 2.353928e+2, -706204.44, -758268.06, -56588.88, 0.05879196, 0.28566712, -669946.94, -36770.344, 0.0, 9.999903, 9.999212 
2.1350913e+3, 2.4539204e+2, -642548.06, -635496.2, -53444.12, 0.054543026, 0.2772458, -585461.8, -50278.004, 0.0, 9.99949, 9.99958 
2.1350747e+3, 2.5539124e+2, -626588.5, -588353.9, -48667.984, 0.03972151, 0.23827928, -555183.1, -117991.39, 0.0, 9.998975, 9.999479 
2.1350576e+3, 2.6539096e+2, -556334.56, -455442.4, -41352.902, 0.007700932, 0.24765716, -440659.13, -101464.95, 0.0, 9.998577, 9.999911 
2.1350408e+3, 2.753912e+2, -509931.06, -396474.3, -37843.992, -0.036505613, 0.2806791, -385009.75, -143818.16, 0.0, 9.998283, 9.999784 
2.1350247e+3, 2.853908e+2, -460544.63, -321421.66, -30319.379, -0.0054485356, 0.26845098, -315101.22, -171904.97, 0.0, 9.997947, 9.999789 
2.1350093e+3, 2.9539052e+2, -409124.22, -238725.94, -32093.145, 0.07996976, 0.2598907, -232881.88, -187681.22, 0.0, 9.997596, 9.999854 
2.134991e+3, 3.0539164e+2, -278634.6, 94878.57, -2821.57, -0.15326698, 0.2746994, 94899.88, 94899.88, 0.0, 9.997099, 10.00205 
2.1349764e+3, 3.153933e+2, -472082.8, -149368.31, 13235.378, -0.019093562, 0.25511196, -148826.4, -148826.4, 0.0, 9.996421, 10.000698 
2.1452929e+3, 1.2542385e+2, -1327265.5, -1695833.0, 1238.2681, 0.009500847, 0.2604141, -1327261.3, 383612.38, 0.27486613, 10.00466, 9.997923 
2.1452767e+3, 1.354221e+2, -1253645.5, -1645133.4, 1517.7863, 0.022715505, 0.29444402, -1253639.6, 359249.38, 0.20092347, 10.004179, 9.997792 
2.1452606e+3, 1.454197e+2, -1169488.3, -1526248.9, 13995.072, 0.02377495, 0.26258603, -1168940.1, 345971.78, 0.124604054, 10.003596, 9.998214 
2.1452446e+3, 1.5541779e+2, -1143908.8, -1489947.8, 2505.589, 0.05709157, 0.24866326, -1143890.6, 273041.1, 0.06132597, 10.002935, 9.998109 
2.1452281e+3, 1.6541609e+2, -1078077.0, -1375171.1, -34077.273, 0.062085982, 0.25650173, -1074218.4, 244730.66, 0.021743631, 10.002463, 9.998452 
2.1452107e+3, 1.7541474e+2, -1026982.5, -1313492.9, -31303.266, 0.037100554, 0.27694976, -1023602.3, 197360.69, 0.004478461, 10.002161, 9.998348 
2.1451937e+3, 1.854134e+2, -948187.9, -1167817.8, -26804.688, 0.03210108, 0.289599, -944963.8, 178012.38, 0.00025483372, 10.001777, 9.998861 
2.1451768e+3, 1.954123e+2, -923168.5, -1117239.9, -27914.96, 0.04581413, 0.2927301, -919233.06, 105754.055, 0.000000000027357056, 10.001328, 9.998752 
2.1451597e+3, 2.0541106e+2, -860109.7, -997271.7, -43915.688, 0.055821124, 0.28193736, -847253.94, 79745.01, 0.0, 10.000921, 9.999099 
2.1451424e+3, 2.1540986e+2, -824417.8, -942195.4, -46922.527, 0.061883412, 0.25509283, -808009.75, 21000.148, 0.0, 10.000548, 9.998983 
2.1451253e+3, 2.2540897e+2, -754761.1, -825424.3, -35771.7, 0.060024373, 0.25806373, -739814.2, -8795.667, 0.0, 10.000215, 9.999273 
2.145108e+3, 2.3540848e+2, -708269.25, -764237.25, -35646.46, 0.05288713, 0.28259093, -690934.7, -57911.348, 0.0, 9.999912, 9.999166 
2.1450908e+3, 2.4540776e+2, -643332.6, -632476.94, -41056.05, 0.047216274, 0.277187, -596491.5, -61461.176, 0.0, 9.999472, 9.99961 
2.1450734e+3, 2.5540704e+2, -633256.25, -587706.56, -42769.65, 0.040931314, 0.24435769, -562025.9, -124988.734, 0.0, 9.998915, 9.999513 
2.1450564e+3, 2.6540676e+2, -560377.3, -457106.75, -32076.926, 0.009110752, 0.2511992, -447954.44, -108914.68, 0.0, 9.998549, 9.999912 
2.145039e+3, 2.7540696e+2, -503571.0, -393864.38, -35917.344, -0.036948368, 0.27938604, -383151.38, -142113.44, 0.0, 9.998331, 9.999779 
2.1450227e+3, 2.8540665e+2, -473032.84, -323791.66, -30973.676, 0.0034817897, 0.276288, -317618.7, -174577.0, 0.0, 9.997848, 9.99982 
2.1450068e+3, 2.9540646e+2, -468877.4, -260802.22, -16366.254, 0.09527962, 0.27530283, -259522.78, -214477.77, 0.0, 9.997159, 9.999911 
2.144988e+3, 3.054075e+2, -326257.53, 70991.4, -25182.318, -0.14480917, 0.2759413, 72581.39, 72581.39, 0.0, 9.996779, 10.002037 
2.1449728e+3, 3.1540924e+2, -430383.06, -130611.94, -23351.992, -0.008640819, 0.26724255, -128803.74, -128803.74, 0.0, 9.996718, 10.000681 
2.1552978e+3, 1.254412e+2, -1321898.1, -1674479.9, -13409.753, 0.010582613, 0.3745826, -1321388.9, 389317.16, 0.28277588, 10.004648, 9.998134 
2.155281e+3, 1.3543804e+2, -1242990.6, -1611731.9, -12790.675, 0.026169933, 0.24487706, -1242547.4, 370184.9, 0.20681266, 10.004183, 9.998021 
2.1552639e+3, 1.454352e+2, -1184197.9, -1561178.4, -7362.0093, 0.008828365, 0.16853866, -1184054.3, 330704.88, 0.12840414, 10.003609, 9.99797 
2.1552476e+3, 1.5543412e+2, -1157782.0, -1522311.5, -19466.643, 0.05244835, 0.26358542, -1156745.4, 260026.23, 0.06335221, 10.002946, 9.997884 
2.1552306e+3, 1.6543275e+2, -1070611.0, -1360887.5, -44323.195, 0.06839415, 0.31028768, -1063994.0, 254792.27, 0.022580506, 10.00247, 9.9985485 
2.1552132e+3, 1.7543122e+2, -1019815.7, -1299936.8, -41651.27, 0.052400656, 0.30536816, -1013753.75, 207048.25, 0.004710469, 10.002166, 9.998441 
2.1551956e+3, 1.8542966e+2, -947499.6, -1168055.5, -42371.59, 0.044029932, 0.28863248, -939639.6, 183177.84, 0.00028024003, 10.001781, 9.998858 
2.1551782e+3, 1.9542825e+2, -922081.4, -1116978.0, -43084.3, 0.045720875, 0.26233467, -912981.9, 111848.734, 0.00000000007381513, 10.001334, 9.998752 
2.1551606e+3, 2.0542714e+2, -864122.5, -1007958.7, -56764.684, 0.058777716, 0.26773652, -844419.44, 82421.8, 0.0, 10.000929, 9.9990225 
2.155143e+3, 2.154264e+2, -828913.4, -953154.44, -58938.65, 0.080048025, 0.29396814, -805402.56, 23445.752, 0.0, 10.000553, 9.998908 
2.1551254e+3, 2.2542536e+2, -753858.8, -824789.75, -45537.246, 0.07289933, 0.28740156, -731605.6, -747.4182, 0.0, 10.000217, 9.999277 
2.1551079e+3, 2.3542428e+2, -707199.0, -763381.94, -46370.992, 0.04345099, 0.25077522, -681074.25, -48205.605, 0.0, 9.999916, 9.999171 
2.1550901e+3, 2.454236e+2, -647091.1, -641769.4, -62245.27, 0.03223465, 0.2520275, -582128.1, -47252.85, 0.0, 9.9994755, 9.999545 
2.1550725e+3, 2.5542343e+2, -636673.1, -597658.1, -63300.953, 0.03249909, 0.28103378, -550927.0, -114049.83, 0.0, 9.998924, 9.999441 
2.155055e+3, 2.6542306e+2, -564824.0, -469134.66, -41114.586, 0.013432028, 0.28820273, -453895.88, -115014.84, 0.0, 9.998559, 9.9998255 
2.1550377e+3, 2.7542275e+2, -507550.38, -404330.66, -46324.19, -0.010889062, 0.2742227, -386589.9, -145705.13, 0.0, 9.998338, 9.999704 
2.1550207e+3, 2.854227e+2, -455948.56, -289011.2, -58779.176, 0.022779295, 0.28818175, -270391.63, -127505.93, 0.0, 9.9978485, 10.000059 
2.1550037e+3, 2.954231e+2, -458296.53, -240889.27, -42153.133, 0.072039, 0.31915393, -233002.31, -188119.81, 0.0, 9.997166, 10.000046 
2.1549854e+3, 3.054229e+2, -405096.1, -95109.93, -33819.06, -0.09308221, 0.25669825, -91463.22, -91463.22, 0.0, 9.996787, 10.000895 
2.1549694e+3, 3.154244e+2, -382669.72, -40558.89, 26541.07, -0.02538946, 0.3256283, -38512.074, -38512.074, 0.0, 9.996749, 10.001289 
2.1653022e+3, 1.2545772e+2, -1333424.5, -1682783.8, 3948.9575, -0.00782217, 0.35326797, -1333379.9, 377163.78, 0.29017854, 10.004603, 9.998077 
2.1652853e+3, 1.3545497e+2, -1205882.1, -1588641.3, -1728.3704, 0.05113985, 0.25972283, -1205874.4, 406692.13, 0.21230853, 10.004507, 9.998065 
2.1652678e+3, 1.4545207e+2, -1132429.1, -1535493.5, -7558.8667, 0.017558608, 0.17661758, -1132287.5, 382306.44, 0.1319426, 10.004048, 9.997932 
2.1652505e+3, 1.5545082e+2, -1116866.9, -1505670.9, -7287.5576, 0.034172747, 0.26008618, -1116730.3, 299877.47, 0.06523756, 10.003273, 9.997839 
2.1652329e+3, 1.6544941e+2, -1036802.44, -1345161.5, -16155.688, 0.05139515, 0.30538237, -1035958.3, 282664.56, 0.023361197, 10.002717, 9.998535 
2.1652153e+3, 1.7544794e+2, -993356.75, -1287998.4, -21535.785, 0.05938413, 0.30478278, -991791.0, 228847.53, 0.0049284077, 10.002356, 9.998429 
2.1651976e+3, 1.854464e+2, -928475.94, -1162009.8, -31504.139, 0.053541835, 0.29325837, -924300.6, 198353.23, 0.00030483707, 10.001928, 9.998828 
2.1651794e+3, 1.9544502e+2, -907671.75, -1113789.6, -35030.87, 0.039549656, 0.27385738, -901880.75, 122786.08, 0.000000000201105, 10.0014515, 9.998716 
2.1651617e+3, 2.0544384e+2, -838644.2, -999520.06, -42424.668, 0.049226284, 0.27782258, -828141.94, 98536.03, 0.0, 10.001122, 9.998986 
2.1651438e+3, 2.1544302e+2, -777720.56, -931330.06, -42998.832, 0.07754567, 0.29579264, -766503.3, 62182.824, 0.0, 10.000919, 9.998879 
2.1651258e+3, 2.2544198e+2, -725455.7, -810987.06, -36738.973, 0.07404359, 0.29059666, -711841.8, 18854.338, 0.0, 10.000415, 9.999276 
2.1651077e+3, 2.3544097e+2, -745252.2, -781679.2, -37436.33, 0.045965802, 0.26303846, -721833.9, -89127.96, 0.0, 9.999657, 9.999169 
2.1650895e+3, 2.4544027e+2, -677072.8, -654921.44, -42047.17, 0.03232459, 0.2634108, -622515.7, -87803.2, 0.0, 9.999266, 9.999556 
2.1650712e+3, 2.5544003e+2, -599435.7, -578483.0, -37628.2, 0.026974916, 0.28272843, -549900.0, -113185.16, 0.0, 9.999176, 9.999451 
2.1650535e+3, 2.6543963e+2, -545828.06, -468047.84, -17935.496, 0.014543873, 0.2897108, -464111.3, -125392.18, 0.0, 9.998726, 9.999752 
2.1650359e+3, 2.7543932e+2, -563603.7, -439023.6, -21570.074, 0.008326702, 0.28679737, -435394.63, -194671.52, 0.0, 9.997988, 9.999635 
2.1650186e+3, 2.854393e+2, -466039.56, -290503.44, -33871.18, 0.022547381, 0.3038054, -284194.47, -141470.55, 0.0, 9.997766, 10.000088 
2.1650007e+3, 2.9543954e+2, -358635.56, -200407.34, -36082.145, 0.019415257, 0.31979638, -192567.66, -147846.11, 0.0, 9.997884, 9.999977 
2.1649829e+3, 3.054391e+2, -394549.1, -171127.4, -30915.23, -0.029176729, 0.27498978, -166928.52, -166928.52, 0.0, 9.997212, 10.000165 
2.1649659e+3, 3.1543973e+2, -442562.78, -23526.115, 82391.95, -0.047463056, 0.32024777, -7908.119, -7908.119, 0.0, 9.996142, 10.001698 
2.1753064e+3, 1.2547356e+2, -1351608.3, -1716690.5, -4633.5845, -0.044608142, 0.20961984, -1351549.5, 358836.4, 0.29698062, 10.004611, 9.997765 
2.1752906e+3, 1.3547282e+2, -1215986.4, -1603461.8, -4174.957, 0.09460394, 0.33299348, -1215941.4, 396450.88, 0.21733916, 10.0045, 9.99794 
2.1752723e+3, 1.4547022e+2, -1126705.6, -1517336.8, -31928.03, 0.046753384, 0.27612025, -1124113.1, 390304.4, 0.13517474, 10.00404, 9.998066 
2.1752535e+3, 1.5546788e+2, -1109893.8, -1489891.1, -33198.35, 0.0019831015, 0.23966566, -1107015.3, 309425.28, 0.0669618, 10.003275, 9.997948 
2.1752353e+3, 1.6546609e+2, -1044317.06, -1362813.5, -28566.4, 0.011449447, 0.24743192, -1041775.2, 276683.72, 0.024079818, 10.002724, 9.998413 
2.1752177e+3, 1.754648e+2, -1000522.44, -1304834.8, -33963.31, 0.05811059, 0.27774101, -996777.94, 223695.0, 0.005131369, 10.002361, 9.998313 
2.1751994e+3, 1.8546353e+2, -932175.2, -1171261.5, -48014.742, 0.060066298, 0.30284843, -922893.0, 199593.17, 0.00032857415, 10.001933, 9.998763 
2.1751806e+3, 1.954625e+2, -912176.0, -1124362.0, -50618.957, 0.027233297, 0.32515824, -900719.0, 123777.61, 0.0000000007393769, 10.001455, 9.998643 
2.1751623e+3, 2.054611e+2, -838975.94, -1001275.6, -48262.78, 0.027410302, 0.31122282, -825708.7, 100801.336, 0.0, 10.001125, 9.998974 
2.1751446e+3, 2.1545959e+2, -778445.8, -933102.7, -49584.168, 0.054177273, 0.26188734, -763914.2, 64610.07, 0.0, 10.000918, 9.998869 
2.175126e+3, 2.2545867e+2, -725346.75, -811683.75, -63903.645, 0.06290179, 0.2684582, -691397.2, 39136.074, 0.0, 10.000416, 9.999271 
2.1751074e+3, 2.3545842e+2, -744655.44, -782490.94, -63716.87, 0.058852166, 0.31833223, -697107.25, -64571.01, 0.0, 9.999662, 9.999163 
2.1750888e+3, 2.4545768e+2, -670521.3, -643427.6, -45175.027, 0.046359885, 0.31022802, -609812.0, -75269.03, 0.0, 9.999272, 9.999632 
2.1750705e+3, 2.554567e+2, -593310.8, -567686.7, -42706.625, 0.022971023, 0.24966273, -535911.7, -99360.586, 0.0, 9.999182, 9.999523 
2.1750523e+3, 2.654563e+2, -549675.8, -477546.63, -46860.42, 0.011276977, 0.25639844, -454479.56, -115924.445, 0.0, 9.99873, 9.999686 
2.175034e+3, 2.754566e+2, -565870.4, -447127.47, -47089.438, 0.018711854, 0.31707856, -430720.4, -190166.38, 0.0, 9.997999, 9.999575 
2.1750161e+3, 2.854563e+2, -477171.63, -316717.8, -30970.344, 0.0013438243, 0.3202959, -310947.53, -168389.77, 0.0, 9.997777, 9.999904 
2.1749978e+3, 2.9545572e+2, -377234.1, -241294.7, -39712.58, -0.06510054, 0.27200872, -230543.58, -185979.81, 0.0, 9.997891, 9.999694 
2.174981e+3, 3.0545604e+2, -419556.63, -223441.97, -76271.01, 0.047483824, 0.3427021, -197271.66, -197271.66, 0.0, 9.997212, 9.999807 
2.1749622e+3, 3.154562e+2, -427917.97, 6067.99, 12979.362, -0.024607033, 0.36338842, 6455.822, 6455.822, 0.0, 9.996146, 10.001899 
2.1853115e+3, 1.2549132e+2, -1304277.8, -1713255.4, 9322.032, -0.027321143, 0.18864456, -1304065.4, 406144.84, 0.30314088, 10.005243, 9.997484 
2.1852946e+3, 1.3549058e+2, -1242687.6, -1631545.8, 19135.959, 0.088709235, 0.32765508, -1241748.3, 370470.0, 0.22187501, 10.004351, 9.997805 
2.1852759e+3, 1.4548805e+2, -1162235.0, -1536664.9, -12213.388, 0.031706788, 0.28519297, -1161837.0, 352406.47, 0.13808174, 10.003773, 9.998056 
2.1852568e+3, 1.5548566e+2, -1087410.9, -1479665.8, -21990.871, 0.0047596456, 0.24392296, -1086181.9, 330085.06, 0.06851581, 10.003454, 9.99793 
2.1852383e+3, 1.6548382e+2, -1005911.94, -1344054.4, -13859.153, 0.015341556, 0.24852142, -1005344.9, 312940.56, 0.024733841, 10.002998, 9.998407 
2.18522e+3, 1.7548251e+2, -990827.94, -1300888.4, -11604.561, 0.04911127, 0.2786796, -990394.2, 229904.98, 0.0053191404, 10.002434, 9.998303 
2.1852013e+3, 1.8548119e+2, -930888.94, -1179527.9, -21359.014, 0.04957435, 0.30206287, -929067.44, 193245.64, 0.0003514255, 10.001983, 9.998681 
2.1851824e+3, 1.9548002e+2, -892176.7, -1122534.5, -25622.158, 0.024608316, 0.32037032, -889361.2, 134963.9, 0.000000002893483, 10.001629, 9.99857 
2.1851636e+3, 2.0547867e+2, -836382.44, -996481.7, -21201.873, 0.025397362, 0.31104448, -833622.25, 92716.17, 0.0, 10.00113, 9.999003 
2.185145e+3, 2.1547727e+2, -835399.9, -957596.4, -20304.83, 0.046724293, 0.27413252, -832114.25, -3763.0999, 0.0, 10.000517, 9.998893 
2.1851262e+3, 2.2547634e+2, -766321.1, -837889.94, -36441.883, 0.054126434, 0.28023916, -751031.7, -20671.188, 0.0, 10.000164, 9.999211 
2.1851072e+3, 2.3547593e+2, -695931.3, -764706.56, -40233.86, 0.052498225, 0.31873134, -677391.94, -45026.56, 0.0, 10.000024, 9.999109 
2.1850881e+3, 2.4547517e+2, -616850.25, -610755.25, -20211.947, 0.041452255, 0.30965152, -593362.4, -58990.36, 0.0, 9.999614, 9.999692 
2.1850696e+3, 2.5547433e+2, -620125.3, -575083.8, -19337.54, 0.019714007, 0.25805116, -567920.8, -131542.5, 0.0, 9.998976, 9.999571 
2.1850508e+3, 2.654739e+2, -573230.3, -496567.2, -26770.139, 0.013448749, 0.26186487, -488144.6, -149762.05, 0.0, 9.998603, 9.999617 
2.1850322e+3, 2.7547395e+2, -505420.22, -425945.13, -26366.232, 0.027805159, 0.30474362, -417993.56, -177609.77, 0.0, 9.99845, 9.999503 
2.1850139e+3, 2.8547361e+2, -455725.47, -308980.78, -2098.313, -0.0025454536, 0.30770272, -308950.78, -166562.84, 0.0, 9.997937, 9.999879 
2.1849948e+3, 2.954733e+2, -492045.34, -297496.3, -2502.2957, -0.09199709, 0.29116887, -297464.13, -253073.06, 0.0, 9.997109, 9.999684 
2.1849783e+3, 3.054732e+2, -475976.0, -257883.27, -13790.435, 0.08585087, 0.3214062, -257014.72, -257014.72, 0.0, 9.996855, 9.999744 
2.1849583e+3, 3.154731e+2, -319544.03, 35466.14, 40101.66, -0.0565621, 0.32700846, 39939.62, 39939.62, 0.0, 9.996989, 10.001694 
2.1953174e+3, 1.2551072e+2, -1323643.9, -1753477.4, -23203.87, 0.033014257, 0.26802057, -1322394.9, 387624.53, 0.30868644, 10.005206, 9.997229 
2.1952985e+3, 1.3550828e+2, -1253649.3, -1653047.6, -5713.4443, 0.03627909, 0.25230062, -1253567.6, 358476.7, 0.22593851, 10.00434, 9.997661 
2.195279e+3, 1.4550565e+2, -1172113.6, -1559449.6, -21907.535, -0.025121896, 0.21461987, -1170878.5, 343192.78, 0.14067538, 10.003776, 9.997902 
2.1952605e+3, 1.5550408e+2, -1096764.0, -1500508.0, -32291.275, 0.038402066, 0.27049932, -1094197.8, 321889.94, 0.06990269, 10.003456, 9.997787 
2.1952417e+3, 1.6550249e+2, -999286.4, -1330315.5, -33390.9, 0.058024317, 0.30261323, -995951.8, 322151.75, 0.025323704, 10.002999, 9.998503 
2.1952222e+3, 1.75501e+2, -984862.5, -1289308.6, -30942.104, 0.032092117, 0.30557662, -981749.56, 238368.5, 0.0054919836, 10.002436, 9.9983835 
2.1952032e+3, 1.8549928e+2, -937820.0, -1195125.1, -33144.1, 0.022487612, 0.29210353, -933619.25, 188516.08, 0.00037343724, 10.001986, 9.998574 
2.1951838e+3, 1.9549756e+2, -897977.1, -1135619.1, -37663.824, 0.029864106, 0.26330313, -892150.6, 132002.27, 0.000000010094747, 10.001631, 9.998481 
2.1951649e+3, 2.0549645e+2, -831048.4, -986817.7, -43058.313, 0.041035526, 0.27976015, -819938.44, 106225.586, 0.0, 10.001134, 9.999069 
2.1951458e+3, 2.15496e+2, -831265.44, -950346.0, -40628.652, 0.05384724, 0.3305824, -818724.3, 9443.765, 0.0, 10.000521, 9.998942 
2.1951263e+3, 2.2549489e+2, -773913.5, -855301.8, -40139.184, 0.04724352, 0.3240353, -757448.5, -27269.441, 0.0, 10.00017, 9.999091 
2.1951069e+3, 2.3549339e+2, -703028.3, -781085.8, -45099.508, 0.02624042, 0.26571223, -682414.7, -50220.51, 0.0, 10.000029, 9.998996 
2.1950877e+3, 2.4549268e+2, -613405.56, -605417.0, -44418.656, 0.016971974, 0.26356792, -564813.4, -30612.842, 0.0, 9.9996195, 9.999726 
2.1950683e+3, 2.5549284e+2, -617081.1, -571583.7, -43158.04, 0.015408457, 0.3070592, -545545.94, -109348.3, 0.0, 9.998985, 9.999592 
2.1950495e+3, 2.6549232e+2, -577310.75, -507320.8, -33720.69, 0.020071784, 0.30479002, -493718.13, -155515.52, 0.0, 9.9986105, 9.99954 
2.1950307e+3, 2.7549127e+2, -510304.13, -437529.13, -34011.207, 0.035049427, 0.25037402, -424108.88, -183895.53, 0.0, 9.998454, 9.999423 
2.195012e+3, 2.8549108e+2, -448041.25, -294018.7, -34912.137, 0.010468264, 0.2665739, -286474.7, -144259.16, 0.0, 9.997939, 9.999983 
2.1949925e+3, 2.9549214e+2, -471595.4, -258861.8, -33482.41, -0.06192959, 0.37450874, -253716.42, -209511.34, 0.0, 9.997123, 9.999945 
2.1949752e+3, 3.054904e+2, -451973.72, -212390.98, -6782.018, 0.07601663, 0.20689994, -212199.16, -212199.16, 0.0, 9.996871, 10.000051 
2.1949553e+3, 3.1549084e+2, -359394.06, -46910.617, -20451.242, -0.043298848, 0.25345948, -45577.82, -45577.82, 0.0, 9.996991, 10.001126 
2.2053225e+3, 1.2552957e+2, -1384417.9, -1784004.9, -37698.355, 0.06853446, 0.28487435, -1380892.4, 328943.22, 0.31372818, 10.004582, 9.997325 
2.2053027e+3, 1.3552716e+2, -1228046.8, -1625144.5, -244.15057, 0.006580837, 0.26013947, -1228046.6, 383813.7, 0.22960626, 10.004535, 9.99776 
2.2052827e+3, 1.4552468e+2, -1131272.4, -1537729.5, -6570.067, -0.051692534, 0.23525794, -1131166.3, 382719.4, 0.14299609, 10.00412, 9.997883 
2.2052641e+3, 1.55523e+2, -1105257.0, -1506686.6, -7528.8765, 0.05508894, 0.28210464, -1105115.9, 310787.2, 0.07113626, 10.0034075, 9.997767 
2.2052446e+3, 1.6552134e+2, -1016737.56, -1337384.6, -5447.082, 0.07757966, 0.30629754, -1016645.0, 301274.53, 0.025851302, 10.002874, 9.998513 
2.2052246e+3, 1.755198e+2, -976730.7, -1284365.1, -9256.838, 0.02211662, 0.30323002, -976452.4, 243481.7, 0.005649629, 10.00249, 9.99839 
2.2052048e+3, 1.8551806e+2, -932911.8, -1197800.4, -9684.556, 0.008875504, 0.29046422, -932558.2, 189393.13, 0.00039457594, 10.002043, 9.998528 
2.2051856e+3, 1.9551635e+2, -913107.2, -1147514.3, -10599.955, 0.03336987, 0.26791635, -912628.8, 111340.08, 0.000000028477277, 10.001549, 9.998438 
2.205166e+3, 2.0551518e+2, -839636.25, -994806.44, -21779.826, 0.04594042, 0.28333408, -836637.1, 89343.45, 0.0, 10.001094, 9.999033 
2.2051463e+3, 2.1551463e+2, -811566.2, -943904.2, -27272.469, 0.048070937, 0.3273027, -806166.2, 21819.672, 0.0, 10.000671, 9.998913 
2.2051264e+3, 2.255135e+2, -752322.75, -837948.0, -12528.356, 0.039398987, 0.31876123, -750527.3, -20530.684, 0.0, 10.00029, 9.999151 
2.2051069e+3, 2.3551208e+2, -711503.56, -778987.6, -4095.7783, 0.023151482, 0.26257846, -711255.9, -79245.6, 0.0, 9.999947, 9.999048 
2.2050871e+3, 2.4551135e+2, -624750.4, -627953.2, -12589.138, 0.014001782, 0.2635827, -613661.2, -79644.04, 0.0, 9.999617, 9.999572 
2.2050676e+3, 2.5551137e+2, -582012.4, -570333.75, -24850.014, 0.009615386, 0.31052446, -550646.25, -114629.8, 0.0, 9.999296, 9.99945 
2.205048e+3, 2.6551077e+2, -531942.56, -469992.53, -8619.458, 0.015920386, 0.30189753, -468815.63, -130793.805, 0.0, 9.9988575, 9.999677 
2.2050293e+3, 2.7550977e+2, -525379.6, -430205.0, 5455.9634, 0.036180053, 0.23603961, -429893.25, -189861.97, 0.0, 9.99829, 9.999551 
2.2050098e+3, 2.855097e+2, -482636.03, -310345.9, -1226.6179, 0.023554938, 0.25920984, -310337.2, -168305.3, 0.0, 9.997702, 9.999985 
2.2049898e+3, 2.955109e+2, -457375.8, -243579.67, -5165.179, -0.02949033, 0.3793624, -243454.95, -199434.52, 0.0, 9.997185, 10.000019 
2.2049715e+3, 3.0550888e+2, -457149.6, -198968.14, 21863.816, 0.029937405, 0.16746856, -197129.72, -197129.72, 0.0, 9.996768, 10.000192 
2.2049524e+3, 3.1551063e+2, -448744.3, -46528.777, -33122.15, -0.00408794, 0.34037626, -43819.44, -43819.44, 0.0, 9.996195, 10.00151 
2.2153272e+3, 1.2554796e+2, -1370188.4, -1731857.3, -43083.67, 0.07542979, 0.24387302, -1365126.9, 344531.1, 0.31843644, 10.004569, 9.997695 
2.215307e+3, 1.355471e+2, -1216687.5, -1590344.6, -1490.8745, -0.0056465785, 0.34306985, -1216681.5, 394985.66, 0.23298974, 10.00451, 9.998054 
2.2152868e+3, 1.4554502e+2, -1127871.4, -1524873.3, -29124.8, -0.05467907, 0.3380428, -1125746.1, 387941.84, 0.14510393, 10.004105, 9.997983 
2.2152676e+3, 1.5554237e+2, -1100024.3, -1494317.0, -31122.08, 0.055148676, 0.28042325, -1097582.9, 318130.75, 0.072240174, 10.003405, 9.997856 
2.2152476e+3, 1.6554031e+2, -1022048.94, -1349624.0, -18402.217, 0.07548565, 0.26505873, -1021018.4, 296715.16, 0.026320893, 10.002877, 9.998429 
2.215227e+3, 1.7553882e+2, -981214.1, -1295369.9, -22654.852, 0.01769538, 0.27454042, -979588.8, 240158.86, 0.005791282, 10.002496, 9.998313 
2.2152068e+3, 1.855374e+2, -931236.0, -1196152.1, -27237.602, 0.006500292, 0.29679453, -928464.56, 193297.39, 0.00041450874, 10.0020485, 9.998537 
2.215187e+3, 1.9553626e+2, -912834.44, -1148248.9, -27457.215, 0.034555692, 0.33015132, -909674.44, 114099.766, 0.00000006498394, 10.001553, 9.998432 
2.215167e+3, 2.0553474e+2, -848999.2, -1016201.25, -36315.97, 0.04058168, 0.3192534, -841452.06, 84337.18, 0.0, 10.001101, 9.998884 
2.2151467e+3, 2.155331e+2, -819294.75, -962027.8, -41186.652, 0.02854429, 0.26733407, -808262.7, 19542.328, 0.0, 10.000678, 9.998787 
2.2151268e+3, 2.2553213e+2, -734962.7, -803747.9, -24278.934, 0.029530613, 0.26785848, -727256.44, 2557.295, 0.0, 10.000296, 9.999384 
2.215107e+3, 2.355319e+2, -696787.9, -749691.3, -16326.706, 0.041721515, 0.30784884, -692154.94, -60340.094, 0.0, 9.999949, 9.999249 
2.215087e+3, 2.4553105e+2, -648535.2, -678434.2, -25039.352, 0.031788174, 0.307258, -634322.1, -100498.96, 0.0, 9.99962, 9.999225 
2.2150667e+3, 2.5552988e+2, -602978.0, -615592.44, -37502.32, 0.0017018557, 0.26884884, -571256.2, -135420.56, 0.0, 9.999301, 9.999138 
2.2150469e+3, 2.6552927e+2, -507280.5, -420298.38, -30983.727, -0.00009535788, 0.2540852, -410390.34, -72549.14, 0.0, 9.998861, 10.000017 
2.2150274e+3, 2.7552933e+2, -501093.0, -382275.9, -18969.693, 0.027132953, 0.26079, -379320.78, -139481.98, 0.0, 9.998298, 9.999877 
2.2150075e+3, 2.8552938e+2, -488919.7, -324522.25, -23229.695, 0.035261404, 0.28550714, -321302.88, -179464.77, 0.0, 9.9977045, 9.9998865 
2.2149873e+3, 2.9552945e+2, -465344.66, -260624.98, -21598.254, 0.009708239, 0.30446953, -258371.16, -214532.75, 0.0, 9.997185, 9.999904 
2.2149673e+3, 3.055285e+2, -458860.56, -203981.25, 369.48108, -0.056723084, 0.2056573, -203980.72, -203980.72, 0.0, 9.996771, 10.000158 
2.2149487e+3, 3.155297e+2, -368650.56, 113646.35, -46994.41, 0.010732015, 0.324783, 118182.76, 118182.76, 0.0, 9.996217, 10.002602 
2.2253315e+3, 1.2556773e+2, -1315561.0, -1681139.6, -21827.742, 0.037029114, 0.26026574, -1314262.4, 395204.06, 0.3229686, 10.005051, 9.997889 
2.2253115e+3, 1.3556692e+2, -1261389.1, -1604663.8, 14745.589, 0.013705446, 0.3569389, -1260756.9, 350717.34, 0.23619203, 10.004085, 9.998131 
2.225291e+3, 1.4556493e+2, -1186929.8, -1542864.4, -12654.684, -0.019126223, 0.35084838, -1186480.4, 327013.16, 0.1470568, 10.003577, 9.99811 
2.2252707e+3, 1.5556234e+2, -1086259.5, -1473108.3, -12358.426, 0.0357464, 0.28602928, -1085865.1, 329653.3, 0.07323992, 10.003452, 9.997977 
2.2252503e+3, 1.6556029e+2, -996021.4, -1344649.0, 587.8004, 0.048724018, 0.26976043, -996020.4, 321517.8, 0.026738461, 10.003098, 9.998357 
2.2252294e+3, 1.7555878e+2, -977002.4, -1300574.5, -2830.486, 0.023596063, 0.28493083, -976977.6, 242574.84, 0.0059161475, 10.002558, 9.998247 
2.225209e+3, 1.8555725e+2, -931891.1, -1199418.5, -9313.128, 0.019091541, 0.3018209, -931567.3, 190000.17, 0.00043255757, 10.002059, 9.998508 
2.2251888e+3, 1.9555594e+2, -908272.0, -1149110.6, -13052.35, 0.032320242, 0.3208227, -907566.7, 116014.336, 0.000000118630574, 10.001598, 9.998404 
2.2251679e+3, 2.055544e+2, -835508.3, -1016789.0, -15234.635, 0.035991315, 0.31213427, -834236.94, 91359.516, 0.0, 10.001225, 9.998818 
2.2251475e+3, 2.1555284e+2, -787631.6, -952935.1, -14954.92, 0.03176858, 0.27519423, -786289.56, 41322.273, 0.0, 10.000925, 9.998729 
2.2251269e+3, 2.2555181e+2, -711600.94, -794207.4, -9009.241, 0.03335211, 0.27435824, -710629.8, 18991.12, 0.0, 10.000466, 9.999366 
2.225107e+3, 2.3555143e+2, -708146.5, -756532.5, -19106.547, 0.041217685, 0.30142123, -701511.56, -69888.48, 0.0, 9.999881, 9.999234 
2.2250864e+3, 2.4555059e+2, -677559.25, -693410.4, -16658.996, 0.035553046, 0.30041885, -667036.6, -133404.97, 0.0, 9.999428, 9.999213 
2.225066e+3, 2.5554946e+2, -636418.6, -631493.94, -4420.3145, 0.016417803, 0.2693334, -628896.4, -193252.33, 0.0, 9.999075, 9.999136 
2.2250457e+3, 2.6554894e+2, -544109.6, -433789.0, -7085.5684, 0.0039363685, 0.26334986, -433335.75, -95687.01, 0.0, 9.998593, 10.0000515 
2.2250254e+3, 2.7554923e+2, -539086.25, -395516.4, -18726.863, 0.0048284163, 0.28588656, -393113.94, -153469.58, 0.0, 9.998019, 9.999919 
2.2250052e+3, 2.855491e+2, -488059.97, -317265.84, -18409.994, 0.02757989, 0.28834456, -315303.94, -173658.73, 0.0, 9.9976845, 9.999944 
2.224985e+3, 2.9554853e+2, -421602.22, -241023.92, -6235.1743, 0.04515466, 0.23831543, -240808.88, -197157.28, 0.0, 9.997497, 9.999886 
2.2249639e+3, 3.0554894e+2, -461088.9, -201890.69, 1931.5195, -0.076016806, 0.2819882, -201876.3, -201876.3, 0.0, 9.996747, 10.000181 
2.2249448e+3, 3.155484e+2, -425920.38, 116615.016, -15550.894, 0.036667243, 0.21106462, 117060.39, 117060.39, 0.0, 9.995696, 10.0028715 
2.2353357e+3, 1.2558886e+2, -1319942.5, -1679414.9, -49648.473, -0.052952114, 0.33979145, -1313211.3, 396050.0, 0.32740155, 10.005014, 9.997924 
2.2353162e+3, 1.3558666e+2, -1268827.6, -1618155.3, -10305.516, 0.06017728, 0.3087923, -1268523.9, 342757.25, 0.23927876, 10.00408, 9.998027 
2.2352952e+3, 1.455845e+2, -1177772.6, -1522818.3, -15793.929, 0.05019986, 0.28421694, -1177051.3, 336250.56, 0.14890121, 10.00359, 9.998243 
2.2352739e+3, 1.5558286e+2, -1077571.8, -1454729.4, -16770.514, -0.003807169, 0.2991412, -1076827.5, 338490.56, 0.07416081, 10.003457, 9.998102 
2.2352529e+3, 1.6558117e+2, -999908.0, -1353458.8, -18699.469, -0.0034525394, 0.31682286, -998921.75, 318412.63, 0.027113434, 10.0030985, 9.998298 
2.2352321e+3, 1.7557958e+2, -980812.5, -1309688.6, -21792.268, 0.037976656, 0.33110353, -979374.75, 239974.5, 0.0060258666, 10.002561, 9.998184 
2.2352114e+3, 1.8557756e+2, -936105.9, -1210498.6, -25564.451, 0.04534591, 0.30537826, -933744.44, 187624.16, 0.00044846584, 10.002067, 9.99843 
2.2351901e+3, 1.9557537e+2, -911803.2, -1159207.9, -28614.725, 0.025959106, 0.2453776, -908536.75, 114852.94, 0.0000001807627, 10.001608, 9.998331 
2.2351693e+3, 2.0557411e+2, -833643.0, -1014860.06, -25485.28, 0.031392206, 0.26615644, -830127.1, 95275.49, 0.0, 10.001231, 9.99883 
2.2351487e+3, 2.1557373e+2, -788026.2, -953931.75, -25199.217, 0.05590561, 0.34758574, -784283.1, 43124.203, 0.0, 10.000923, 9.998724 
2.2351277e+3, 2.2557245e+2, -730252.9, -833503.56, -29881.133, 0.04982782, 0.334613, -722228.75, 7190.724, 0.0, 10.000467, 9.999097 
2.2351064e+3, 2.3557064e+2, -723786.75, -790725.3, -39740.027, 0.020837532, 0.24454221, -705299.7, -73864.03, 0.0, 9.999886, 9.998999 
2.2350857e+3, 2.4556984e+2, -655087.06, -648196.75, -30215.127, 0.024860997, 0.24525486, -621231.0, -87787.66, 0.0, 9.999432, 9.999522 
2.2350654e+3, 2.5557e+2, -615641.56, -589896.2, -19275.654, 0.05175747, 0.31163895, -579590.06, -144147.22, 0.0, 9.999079, 9.999421 
2.2350444e+3, 2.6556972e+2, -563279.0, -474394.75, -30455.217, 0.02717567, 0.32849914, -464960.88, -127515.05, 0.0, 9.998595, 9.999773 
2.235023e+3, 2.7556926e+2, -555612.06, -431089.44, -40180.426, -0.02964068, 0.3097014, -419249.9, -179800.56, 0.0, 9.998022, 9.999675 
2.2350027e+3, 2.8556868e+2, -473483.13, -288571.38, -27488.387, -0.0005593319, 0.26664993, -284571.56, -143117.02, 0.0, 9.997689, 10.00014 
2.2349827e+3, 2.9556796e+2, -416043.38, -233029.55, -19194.055, 0.069333285, 0.18211752, -231038.19, -187576.83, 0.0, 9.997508, 9.999936 
2.2349612e+3, 3.055701e+2, -457375.94, -194215.19, -44198.316, -0.024294313, 0.3955093, -186990.34, -186990.34, 0.0, 9.996746, 10.000235 
2.2349402e+3, 3.1556925e+2, -471575.88, 17643.672, -17525.145, -0.002007645, 0.27667224, 18270.666, 18270.666, 0.0, 9.995707, 10.002191 
2.2453406e+3, 1.256101e+2, -1350348.8, -1688595.8, -27341.611, -0.049293347, 0.35525852, -1348152.9, 360901.63, 0.331708, 10.004698, 9.997985 
2.2453204e+3, 1.3560764e+2, -1222480.4, -1593056.5, 19977.787, 0.060191218, 0.2995462, -1221406.5, 389669.2, 0.24226092, 10.004511, 9.998031 
2.2452994e+3, 1.4560527e+2, -1117610.8, -1505589.5, 19184.906, 0.065864615, 0.26236743, -1116664.4, 396433.88, 0.15066284, 10.004154, 9.998097 
2.2452773e+3, 1.5560387e+2, -1058952.9, -1459880.6, 2676.2585, -0.0051035737, 0.31643867, -1058935.0, 356177.78, 0.07502348, 10.003665, 9.997966 
2.2452559e+3, 1.6560213e+2, -990865.44, -1351105.6, -12114.9375, -0.008158401, 0.33739257, -990458.44, 326671.1, 0.02745635, 10.003175, 9.998276 
2.2452348e+3, 1.7560026e+2, -963708.75, -1303530.6, -13580.168, 0.042849705, 0.32508203, -963166.9, 255979.94, 0.006124547, 10.00269, 9.998163 
2.2452137e+3, 1.8559818e+2, -907115.25, -1195745.3, -9884.558, 0.051604178, 0.29359883, -906777.1, 214389.42, 0.00046284508, 10.002264, 9.998436 
2.245192e+3, 1.955961e+2, -871599.5, -1139966.6, -7600.9355, 0.026092911, 0.24453968, -871384.4, 151802.03, 0.0000002419392, 10.001887, 9.998327 
2.2451705e+3, 2.0559482e+2, -823420.56, -1022506.0, -9292.839, 0.031809308, 0.2700735, -822987.7, 102211.96, 0.0, 10.001359, 9.998715 
2.2451495e+3, 2.1559434e+2, -825918.8, -984103.75, -19123.514, 0.062443305, 0.35186517, -823639.75, 3566.1526, 0.0, 10.000716, 9.998616 
2.2451279e+3, 2.25593e+2, -760147.6, -848149.3, -15554.151, 0.055933576, 0.34031653, -757479.4, -28260.66, 0.0, 10.000265, 9.999093 
2.2451064e+3, 2.355912e+2, -712825.44, -784928.56, -5811.839, 0.021434223, 0.2518845, -712360.0, -81125.02, 0.0, 9.999962, 9.999 
2.2450852e+3, 2.4559042e+2, -643990.75, -633859.5, 1238.6084, 0.023170974, 0.25086957, -633710.25, -100468.06, 0.0, 9.999473, 9.999599 
2.2450645e+3, 2.5559065e+2, -647259.1, -596624.5, -5140.539, 0.051308677, 0.3152621, -596107.9, -160867.27, 0.0, 9.998829, 9.999494 
2.2450429e+3, 2.655904e+2, -598421.0, -494578.47, -11340.013, 0.031656485, 0.33531928, -493354.5, -156111.23, 0.0, 9.998372, 9.999741 
2.245021e+3, 2.7558997e+2, -551584.7, -431568.03, -2205.6685, -0.017437818, 0.31843972, -431527.53, -192280.02, 0.0, 9.998065, 9.999648 
2.2450003e+3, 2.855894e+2, -483922.47, -285598.1, 12944.856, 0.004016475, 0.27426326, -284756.72, -143504.14, 0.0, 9.997586, 10.000208 
2.2449797e+3, 2.9558885e+2, -497254.7, -267321.0, 8807.344, 0.05642628, 0.20137022, -266984.13, -223727.02, 0.0, 9.996934, 9.999976 
2.2449578e+3, 3.055907e+2, -493087.22, -205625.14, -20457.164, -0.0024008977, 0.3846816, -204176.61, -204176.61, 0.0, 9.996479, 10.000283 
2.2449361e+3, 3.1558996e+2, -429367.4, -12405.252, 21107.6, -0.01716063, 0.27157092, -11339.46, -11339.46, 0.0, 9.996216, 10.001738 
2.2553459e+3, 1.2563169e+2, -1349446.8, -1681751.8, -30298.285, 0.028575407, 0.33814713, -1346706.9, 362136.56, 0.335784, 10.004694, 9.998057 
2.2553244e+3, 1.3562977e+2, -1221280.0, -1587278.4, 14072.532, 0.0125867035, 0.32677954, -1220739.6, 390119.2, 0.245095, 10.004508, 9.998085 
2.255303e+3, 1.4562714e+2, -1141595.1, -1561779.1, 3044.625, 0.02763226, 0.2819406, -1141573.0, 371311.03, 0.15233934, 10.004153, 9.9977045 
2.2552812e+3, 1.5562536e+2, -1083091.6, -1514066.8, -13811.021, 0.027573533, 0.33718404, -1082649.5, 332253.5, 0.07583906, 10.003665, 9.997595 
2.2552595e+3, 1.6562319e+2, -990690.2, -1352231.3, -28864.389, 0.030705338, 0.3331778, -988400.25, 328523.63, 0.027775645, 10.00318, 9.998267 
2.2552375e+3, 1.7562082e+2, -962782.1, -1303737.0, -30280.996, 0.037651025, 0.27181575, -960113.7, 258831.58, 0.006216347, 10.002697, 9.998159 
2.2552156e+3, 1.8561907e+2, -901273.2, -1184545.0, -22965.355, 0.03751751, 0.26933363, -899423.44, 221538.31, 0.0004765749, 10.002266, 9.998513 
2.2551939e+3, 1.95618e+2, -867785.1, -1131442.6, -21061.053, 0.031090077, 0.3134277, -866113.4, 156858.95, 0.00000029306102, 10.001882, 9.99839 
2.2551718e+3, 2.0561641e+2, -841025.1, -1059851.1, -31936.928, 0.03659336, 0.31946138, -836459.3, 88529.39, 0.0, 10.00136, 9.99846 
2.25515e+3, 2.1561457e+2, -839977.25, -1015828.4, -40386.645, 0.051243935, 0.29102436, -831145.5, -4137.5317, 0.0, 10.000725, 9.998395 
2.2551282e+3, 2.2561343e+2, -742060.56, -812414.94, -25357.275, 0.051600605, 0.29509583, -733873.9, -4854.822, 0.0, 10.000271, 9.999336 
2.2551064e+3, 2.35613e+2, -696880.1, -752933.4, -17264.99, 0.041560106, 0.32110116, -691989.1, -60966.98, 0.0, 9.999965, 9.99922 
2.2550847e+3, 2.456122e+2, -655075.9, -657625.5, -23452.275, 0.029559694, 0.31448963, -632863.75, -99834.195, 0.0, 9.999475, 9.999436 
2.2550628e+3, 2.5561127e+2, -656276.0, -617676.56, -29605.883, 0.013828345, 0.280274, -601635.25, -166596.7, 0.0, 9.9988365, 9.999346 
2.255041e+3, 2.656109e+2, -583341.6, -464858.25, -24687.533, 0.016663376, 0.28472266, -459920.1, -122877.95, 0.0, 9.998377, 9.999943 
2.2550198e+3, 2.756111e+2, -538837.75, -406425.63, -15592.492, 0.03978517, 0.31216732, -404614.25, -165574.14, 0.0, 9.998068, 9.999821 
2.2549981e+3, 2.85611e+2, -488616.13, -296374.4, -13733.946, 0.040056683, 0.31145015, -295398.2, -154357.5, 0.0, 9.997588, 10.000134 
2.2549763e+3, 2.95611e+2, -494332.97, -263920.56, -18291.855, 0.004378573, 0.2975631, -262477.47, -219437.3, 0.0, 9.996942, 9.999997 
2.2549543e+3, 3.0561048e+2, -491134.38, -203156.6, -32683.072, -0.008956436, 0.23984982, -199493.92, -199493.92, 0.0, 9.996484, 10.0002985 
2.2549327e+3, 3.1561098e+2, -408354.1, 27170.922, 12745.367, 0.013170886, 0.25866017, 27543.59, 27543.59, 0.0, 9.996228, 10.002006 
2.2653513e+3, 1.2565394e+2, -1333506.1, -1701802.8, -5139.8022, 0.075748324, 0.33495554, -1333434.4, 375191.06, 0.33948192, 10.005064, 9.997671 
2.265329e+3, 1.3565205e+2, -1174229.8, -1584957.1, 19462.39, -0.0020492063, 0.3541752, -1173309.6, 437331.8, 0.24769393, 10.00507, 9.997835 
2.2653073e+3, 1.4564908e+2, -1093296.9, -1542636.0, -6100.8154, 0.022485038, 0.29215375, -1093214.0, 419456.1, 0.15389699, 10.004592, 9.997623 
2.2652851e+3, 1.5564711e+2, -1073826.4, -1517052.0, -4444.1304, 0.04665885, 0.33742443, -1073781.9, 340908.63, 0.07660358, 10.003773, 9.997521 
2.2652628e+3, 1.656449e+2, -980849.94, -1341942.3, 627.82965, 0.04698426, 0.32959685, -980848.9, 335862.56, 0.02807403, 10.003229, 9.998312 
2.2652403e+3, 1.7564258e+2, -930425.3, -1283850.1, 2756.2085, 0.03095621, 0.26863244, -930403.8, 288328.13, 0.0063027926, 10.002905, 9.998195 
2.2652178e+3, 1.8564086e+2, -895652.25, -1193783.8, -1085.097, 0.032645974, 0.27370805, -895648.3, 225100.13, 0.0004899323, 10.002359, 9.998404 
2.2651955e+3, 1.9563982e+2, -909439.7, -1161528.0, -13867.487, 0.047199715, 0.33125576, -908679.1, 114080.516, 0.00000031998934, 10.001641, 9.998299 
2.2651733e+3, 2.0563817e+2, -849843.94, -1048226.75, -9529.713, 0.051631644, 0.3284596, -849387.25, 75388.95, 0.0, 10.001232, 9.998599 
2.2651508e+3, 2.156362e+2, -781698.94, -973338.3, 9607.143, 0.048552934, 0.27416345, -781218.56, 45576.797, 0.0, 10.001066, 9.998521 
2.2651286e+3, 2.2563511e+2, -708395.94, -810569.7, 17222.236, 0.0467823, 0.28425315, -705571.1, 23235.082, 0.0, 10.0005665, 9.999206 
2.2651064e+3, 2.3563488e+2, -728820.6, -781208.7, -1724.055, 0.04719026, 0.3417288, -728763.94, -97955.17, 0.0, 9.999803, 9.999103 
2.2650842e+3, 2.4563403e+2, -679561.7, -660104.56, -7521.06, 0.03813706, 0.333183, -657536.3, -124719.766, 0.0, 9.999268, 9.999517 
2.2650617e+3, 2.556329e+2, -641138.06, -602229.0, 4545.873, 0.019703487, 0.2714271, -601705.0, -166878.52, 0.0, 9.998908, 9.999416 
2.2650395e+3, 2.6563248e+2, -575340.56, -464739.4, 9873.288, 0.022360336, 0.2693637, -463864.94, -127034.625, 0.0, 9.99845, 9.999907 
2.2650178e+3, 2.756327e+2, -568839.5, -424988.6, 395.8956, 0.048926808, 0.3057979, -424987.5, -186159.38, 0.0, 9.997883, 9.999781 
2.2649956e+3, 2.856327e+2, -517033.06, -310572.8, -4521.2314, 0.03954207, 0.31366354, -310473.84, -169645.47, 0.0, 9.997398, 10.000127 
2.2649729e+3, 2.956328e+2, -478338.5, -249156.83, -5017.224, -0.016102843, 0.31354412, -249047.05, -206220.33, 0.0, 9.997026, 10.000054 
2.2649507e+3, 3.0563208e+2, -479898.72, -180886.14, -12777.786, -0.0032878611, 0.2233001, -180341.1, -180341.1, 0.0, 9.996492, 10.000445 
2.2649285e+3, 3.156339e+2, -479267.13, 9078.27, 48024.883, 0.022961054, 0.36342615, 13756.322, 13756.322, 0.0, 9.995674, 10.002147 
2.2753565e+3, 1.2567696e+2, -1368328.6, -1804734.6, -1656.6891, 0.08433831, 0.3652361, -1368322.4, 340076.66, 0.3426455, 10.005072, 9.996939 
2.2753343e+3, 1.356745e+2, -1203543.8, -1651451.3, 18889.883, 0.011202392, 0.38178238, -1202748.5, 407674.66, 0.24995732, 10.005056, 9.99733 
2.275312e+3, 1.4567113e+2, -1085006.6, -1519147.9, -31867.842, 0.046328206, 0.29312676, -1082679.9, 429776.2, 0.1552879, 10.004581, 9.997794 
2.275289e+3, 1.5566914e+2, -1062922.4, -1493018.1, -31329.44, 0.05093355, 0.3194963, -1060652.3, 353822.94, 0.07730401, 10.003775, 9.997687 
2.2752659e+3, 1.6566722e+2, -974361.94, -1328692.3, -10629.924, 0.039761946, 0.32817775, -974043.3, 342449.38, 0.028350487, 10.00323, 9.9984045 
2.2752431e+3, 1.7566544e+2, -926442.2, -1274288.3, -9418.707, 0.0218417, 0.31120995, -926187.4, 292320.6, 0.00638387, 10.002897, 9.998265 
2.2752202e+3, 1.8566343e+2, -917518.7, -1239614.0, -27183.44, 0.03613812, 0.30262986, -915240.6, 205287.0, 0.00050285814, 10.002358, 9.998091 
2.2751975e+3, 1.9566149e+2, -925965.94, -1199027.5, -37866.902, 0.072733164, 0.3009756, -920812.06, 101736.68, 0.00000031187102, 10.001653, 9.998036 
2.2751749e+3, 2.0566002e+2, -812486.06, -972724.75, -14427.496, 0.075387634, 0.30118003, -811197.4, 113365.234, 0.0, 10.001239, 9.999116 
2.2751519e+3, 2.1565908e+2, -750702.7, -908623.25, 3503.7515, 0.052783825, 0.29841718, -750625.0, 75944.4, 0.0, 10.001061, 9.998968 
2.2751291e+3, 2.256579e+2, -744353.94, -884973.1, -10576.21, 0.040650744, 0.30516684, -743562.94, -14981.536, 0.0, 10.000564, 9.998697 
2.2751062e+3, 2.356567e+2, -758989.44, -846013.0, -28644.99, 0.037031066, 0.31530988, -750407.0, -119811.23, 0.0, 9.999809, 9.998655 
2.2750835e+3, 2.4565582e+2, -656743.44, -614712.0, -21510.625, 0.048002336, 0.30871844, -605655.06, -73051.14, 0.0, 9.999274, 9.999827 
2.275061e+3, 2.556554e+2, -620968.56, -562651.4, -9889.674, 0.06712537, 0.2871574, -561019.9, -126414.36, 0.0, 9.998915, 9.999685 
2.2750384e+3, 2.65655e+2, -594662.9, -506202.8, -13197.33, 0.048091337, 0.28825715, -504275.88, -167666.8, 0.0, 9.998454, 9.999621 
2.2750151e+3, 2.7565473e+2, -585613.3, -462185.0, -23297.781, 0.0076504047, 0.30119407, -457933.84, -219321.23, 0.0, 9.99789, 9.999522 
2.2749926e+3, 2.856543e+2, -513692.4, -304647.9, -21320.621, 0.00065124815, 0.28017572, -302495.56, -161878.53, 0.0, 9.997401, 10.000167 
2.27497e+3, 2.9565406e+2, -473337.8, -238882.69, -20323.904, -0.006164995, 0.23878323, -237133.94, -194514.67, 0.0, 9.997024, 10.000128 
2.2749475e+3, 3.056556e+2, -456941.47, -134380.08, -42995.266, 0.013449042, 0.35569203, -128747.45, -128747.45, 0.0, 9.996494, 10.000766 
2.2749238e+3, 3.1565562e+2, -520010.6, -76945.79, 12511.366, -0.0036013601, 0.2887802, -76592.766, -76592.766, 0.0, 9.99568, 10.001554 
2.285362e+3, 1.256998e+2, -1291301.9, -1771034.6, -4722.4683, 0.089562505, 0.36794493, -1291255.4, 416919.75, 0.34515098, 10.005997, 9.996724 
2.2853394e+3, 1.3569723e+2, -1227340.0, -1665441.5, 36504.727, 0.034902453, 0.3737843, -1224319.1, 385881.47, 0.2517973, 10.004841, 9.997342 
2.2853166e+3, 1.4569391e+2, -1129565.3, -1542547.3, 570.50854, 0.07462742, 0.28925574, -1129564.4, 382668.7, 0.1564592, 10.00422, 9.997802 
2.2852927e+3, 1.5569201e+2, -1022669.56, -1471240.5, -6971.5825, 0.047037866, 0.3250944, -1022561.25, 391690.1, 0.077916935, 10.004077, 9.997688 
2.2852693e+3, 1.6569011e+2, -939874.6, -1321785.9, -2550.7654, 0.03160113, 0.3408222, -939857.56, 376411.4, 0.02859866, 10.003522, 9.998309 
2.2852458e+3, 1.756883e+2, -969162.6, -1304028.8, -15398.383, 0.03205067, 0.3304005, -968456.0, 249829.13, 0.006458756, 10.002645, 9.998181 
2.2852227e+3, 1.8568628e+2, -934836.9, -1235684.8, -15612.322, 0.04918398, 0.3185999, -934028.9, 186275.98, 0.00051549356, 10.00219, 9.998197 
2.2851995e+3, 1.9568433e+2, -859192.8, -1155623.6, 2572.6, 0.07594596, 0.30591878, -859170.44, 163154.78, 0.00000027835299, 10.002067, 9.998133 
2.285176e+3, 2.0568284e+2, -771555.8, -961762.94, 11963.305, 0.073430404, 0.30396238, -770806.3, 153532.9, 0.0, 10.001561, 9.999034 
2.2851528e+3, 2.1568188e+2, -799654.1, -939938.06, -14289.024, 0.049444094, 0.30662954, -798213.44, 28133.139, 0.0, 10.000761, 9.998898 
2.2851294e+3, 2.256807e+2, -777812.0, -889482.2, -21649.195, 0.035105918, 0.3116748, -773761.8, -45403.277, 0.0, 10.000285, 9.998799 
2.2851059e+3, 2.3567952e+2, -717054.25, -815280.4, 4442.8643, 0.029781094, 0.31502262, -716853.7, -86481.336, 0.0, 10.000055, 9.998747 
2.2850828e+3, 2.4567866e+2, -622428.9, -606396.3, 13816.059, 0.048341896, 0.3099786, -598439.4, -66058.96, 0.0, 9.999547, 9.999752 
2.28506e+3, 2.5567827e+2, -639452.1, -577764.75, -1973.4785, 0.08214944, 0.29591125, -577701.7, -143319.38, 0.0, 9.998817, 9.999628 
2.2850366e+3, 2.6567784e+2, -604114.94, -504980.56, 2419.5479, 0.057046097, 0.2969195, -504921.56, -168535.75, 0.0, 9.998366, 9.999671 
2.2850132e+3, 2.756776e+2, -548378.7, -439324.3, 15982.311, -0.001966871, 0.3072961, -437030.3, -198641.61, 0.0, 9.998126, 9.999565 
2.28499e+3, 2.856771e+2, -501878.53, -305805.97, 15547.907, -0.009668461, 0.28019002, -304580.75, -164186.47, 0.0, 9.997514, 10.000104 
2.2849669e+3, 2.9567653e+2, -544974.0, -279868.3, 7848.6543, -0.011330305, 0.21810053, -279636.16, -237236.05, 0.0, 9.996562, 10.000068 
2.284944e+3, 3.0567908e+2, -513738.34, -149597.38, -19773.328, 0.045044415, 0.42855772, -148526.8, -148526.8, 0.0, 9.996054, 10.000873 
2.2849196e+3, 3.1567752e+2, -476266.44, -79482.51, 10418.189, -0.012498568, 0.1917247, -79209.15, -79209.15, 0.0, 9.996088, 10.001336 
2.2953679e+3, 1.2572256e+2, -1281280.5, -1734367.1, -26050.564, 0.08003498, 0.34976408, -1279787.6, 428164.8, 0.34692731, 10.00599, 9.996984 
2.2953445e+3, 1.3572027e+2, -1205025.9, -1602191.4, 4644.0454, 0.06582749, 0.33544698, -1204971.6, 405002.03, 0.25314948, 10.004836, 9.997788 
2.2953212e+3, 1.4571738e+2, -1138376.3, -1564406.0, -4626.364, 0.10444914, 0.28225288, -1138326.1, 373675.8, 0.15735666, 10.004221, 9.997654 
2.295297e+3, 1.5571569e+2, -1033463.9, -1494372.6, -13101.539, 0.033848956, 0.35123524, -1033091.75, 380927.84, 0.0784071, 10.00407, 9.997535 
2.2952725e+3, 1.6571353e+2, -959891.44, -1364566.9, -33615.266, 0.021454018, 0.36450067, -957118.1, 358922.8, 0.028805118, 10.00352, 9.998018 
2.2952488e+3, 1.7571117e+2, -984112.56, -1337956.1, -44632.164, 0.0590065, 0.3285127, -978569.7, 239493.89, 0.006525448, 10.002654, 9.997946 
2.2952251e+3, 1.8570939e+2, -899768.44, -1164681.1, -18743.09, 0.069761485, 0.32418925, -898448.9, 221631.33, 0.0005282491, 10.002195, 9.998683 
2.2952011e+3, 1.9570822e+2, -831087.7, -1096182.1, -2278.6611, 0.05755487, 0.3421709, -831068.1, 191022.34, 0.0000002503307, 10.002059, 9.998546 
2.2951774e+3, 2.0570649e+2, -818470.9, -1058618.9, -16756.764, 0.046836935, 0.33308604, -817307.25, 106799.96, 0.0, 10.001556, 9.998372 
2.2951533e+3, 2.1570452e+2, -838294.1, -1021940.9, -40457.78, 0.037438046, 0.2991186, -829776.25, -3648.8582, 0.0, 10.000766, 9.998333 
2.2951296e+3, 2.2570345e+2, -729914.56, -791491.3, -28449.188, 0.029280681, 0.30509305, -718783.0, 9355.098, 0.0, 10.000289, 9.999472 
2.2951059e+3, 2.3570323e+2, -675078.44, -729057.06, -4881.843, 0.024272779, 0.3387787, -674640.5, -44500.68, 0.0, 10.000056, 9.999339 
2.2950822e+3, 2.4570242e+2, -654058.06, -672659.2, -14638.581, 0.039029263, 0.33556452, -646015.4, -113867.98, 0.0, 9.999548, 9.999297 
2.2950587e+3, 2.5570133e+2, -665031.1, -632965.5, -29184.281, 0.0626224, 0.29876864, -615700.06, -181542.27, 0.0, 9.998824, 9.999247 
2.295035e+3, 2.657009e+2, -576555.7, -449595.47, -7931.0405, 0.047588453, 0.29529008, -449101.94, -112940.484, 0.0, 9.998371, 10.000051 
2.2950114e+3, 2.7570117e+2, -523100.22, -389331.16, 4844.75, 0.019029565, 0.3203108, -389155.94, -150998.06, 0.0, 9.998135, 9.999907 
2.2949876e+3, 2.8570095e+2, -514449.1, -332719.16, -22456.207, 0.009323436, 0.31440207, -329985.4, -189824.34, 0.0, 9.997515, 9.99992 
2.2949632e+3, 2.9570034e+2, -560846.2, -312537.84, -30598.342, -0.033990826, 0.26401195, -308822.88, -266653.75, 0.0, 9.996559, 9.999846 
2.2949405e+3, 3.0570215e+2, -521989.6, -167137.3, -23568.258, 0.08775182, 0.41808704, -165578.81, -165578.81, 0.0, 9.996052, 10.000754 
2.294916e+3, 3.1570187e+2, -440849.84, -10618.747, -20683.64, 0.005722951, 0.31404036, -9626.655, -9626.655, 0.0, 9.996106, 10.001801 
2.305374e+3, 1.2574644e+2, -1251387.6, -1727473.1, -1129.6843, 0.0845076, 0.34630188, -1251384.9, 456333.25, 0.34789595, 10.006375, 9.996842 
2.3053494e+3, 1.3574408e+2, -1154723.6, -1575125.6, 2225.179, 0.063339494, 0.3238864, -1154711.8, 455028.38, 0.25394124, 10.005289, 9.997818 
2.3053257e+3, 1.457415e+2, -1109900.1, -1549290.9, 8304.555, 0.10481166, 0.29908818, -1109743.3, 402022.47, 0.15791403, 10.004466, 9.997636 
2.3053008e+3, 1.5573967e+2, -1058286.1, -1509170.4, 7993.41, 0.04109277, 0.35769856, -1058144.4, 355640.4, 0.07872584, 10.003898, 9.997514 
2.3052761e+3, 1.6573742e+2, -973981.75, -1374967.4, -6930.8516, 0.03238336, 0.365146, -973862.0, 341945.13, 0.028947022, 10.003439, 9.997983 
2.3052517e+3, 1.7573503e+2, -926813.3, -1312979.8, 87.31611, 0.069714665, 0.32999277, -926813.25, 291016.94, 0.0065782, 10.003066, 9.997916 
2.3052274e+3, 1.8573323e+2, -856686.94, -1144323.5, 19980.662, 0.07243679, 0.32636136, -855305.6, 264541.34, 0.00054095313, 10.002497, 9.998674 
2.3052031e+3, 1.9573207e+2, -872110.56, -1116004.0, -571.67633, 0.046726547, 0.34450445, -872109.2, 149747.95, 0.00000026008487, 10.0017805, 9.998543 
2.3051786e+3, 2.0573038e+2, -853976.7, -1069927.0, -5654.0303, 0.033268727, 0.33555427, -853828.75, 70044.92, 0.0, 10.00129, 9.998422 
2.3051544e+3, 2.1572843e+2, -805612.44, -1000564.7, 21184.518, 0.030143192, 0.3022258, -803337.0, 22556.398, 0.0, 10.00097, 9.99838 
2.3051299e+3, 2.2572738e+2, -713552.8, -786472.1, 28910.994, 0.02989332, 0.3108618, -703481.3, 24422.621, 0.0, 10.000417, 9.999443 
2.3051059e+3, 2.3572719e+2, -730677.25, -758011.6, 2280.332, 0.034104038, 0.3497427, -730488.3, -100582.73, 0.0, 9.999686, 9.999318 
2.3050818e+3, 2.457264e+2, -688057.5, -682225.7, -5428.7896, 0.03893856, 0.34521875, -678979.25, -147066.11, 0.0, 9.999287, 9.999357 
2.3050573e+3, 2.5572532e+2, -617906.94, -603673.94, 16851.867, 0.039422102, 0.30284226, -592497.56, -158573.97, 0.0, 9.999121, 9.999305 
2.3050332e+3, 2.65725e+2, -549646.75, -430233.66, 35793.914, 0.03413547, 0.3029975, -420326.44, -84399.98, 0.0, 9.99853, 10.000106 
2.3050095e+3, 2.757254e+2, -592750.94, -416036.5, 25244.219, 0.04123555, 0.3366173, -412501.0, -174579.33, 0.0, 9.997629, 9.999965 
2.3049851e+3, 2.8572533e+2, -567801.8, -352093.75, -4115.4307, 0.02313688, 0.34024888, -352015.25, -212091.64, 0.0, 9.997123, 9.999975 
2.3049594e+3, 2.9572493e+2, -517828.94, -288786.1, 2641.9016, -0.060545858, 0.3052798, -288755.63, -246825.64, 0.0, 9.996841, 9.999873 
2.3049368e+3, 3.0572605e+2, -504032.7, -180090.98, 28848.602, 0.10192686, 0.40526605, -177541.94, -177541.94, 0.0, 9.996266, 10.000563 
2.3049116e+3, 3.1572616e+2, -483491.06, 1083.6564, -22695.037, -0.013996599, 0.3546054, 2144.2563, 2144.2563, 0.0, 9.995681, 10.002083 
2.3153806e+3, 1.257712e+2, -1275241.1, -1794062.1, -23486.357, 0.0950984, 0.34168562, -1274180.1, 433294.97, 0.34789336, 10.006334, 9.9964075 
2.3153542e+3, 1.3576865e+2, -1172788.8, -1612133.6, -26960.627, 0.027053937, 0.33624172, -1171140.4, 438360.1, 0.2540447, 10.0052805, 9.997492 
2.3153298e+3, 1.4576618e+2, -1104569.9, -1538739.8, -9293.662, 0.07627647, 0.3360738, -1104371.0, 407153.94, 0.1580371, 10.004475, 9.997706 
2.3153049e+3, 1.5576397e+2, -1052651.6, -1497068.1, -10355.32, 0.06615545, 0.34743506, -1052410.5, 361136.56, 0.078812025, 10.003898, 9.997598 
2.3152798e+3, 1.6576178e+2, -961425.44, -1347978.9, -19597.084, 0.06130018, 0.3459797, -960434.44, 355133.56, 0.02899366, 10.003436, 9.998172 
2.3152547e+3, 1.7575978e+2, -917688.25, -1293386.3, -13725.398, 0.06466597, 0.33263314, -917187.5, 300398.78, 0.00660685, 10.003061, 9.9980545 
2.3152298e+3, 1.8575774e+2, -890698.06, -1215405.4, -5765.8804, 0.057587903, 0.32386836, -890595.75, 229010.5, 0.000552297, 10.002496, 9.998189 
2.3152049e+3, 1.9575582e+2, -899575.56, -1174211.4, -24375.313, 0.041206095, 0.3164923, -897428.9, 124196.75, 0.0000003305962, 10.001783, 9.998143 
2.31518e+3, 2.0575441e+2, -803556.9, -966402.75, -15823.474, 0.03128269, 0.31501147, -802033.56, 121605.34, 0.0, 10.001292, 9.999132 
2.315155e+3, 2.1575351e+2, -763060.8, -912270.06, 9584.381, 0.026618242, 0.31335828, -762447.7, 63198.37, 0.0, 10.000967, 9.998988 
2.3151304e+3, 2.2575241e+2, -763231.75, -890066.94, 2509.9844, 0.03610012, 0.32704735, -763182.1, -35524.582, 0.0, 10.000417, 9.998733 
2.3151056e+3, 2.3575133e+2, -772365.44, -846609.94, -22675.514, 0.056434274, 0.34838736, -765987.8, -136317.17, 0.0, 9.999693, 9.998708 
2.315081e+3, 2.4575052e+2, -648650.56, -602255.1, -11799.369, 0.04639726, 0.3396623, -599426.7, -67748.19, 0.0, 9.999292, 9.999905 
2.3150562e+3, 2.557501e+2, -583228.6, -533928.7, 7472.28, 0.011152974, 0.3077132, -532821.06, -99140.31, 0.0, 9.999127, 9.999781 
2.3150314e+3, 2.657499e+2, -568749.25, -470613.06, -662.2444, 0.016943282, 0.32007328, -470608.6, -134926.64, 0.0, 9.998531, 9.999829 
2.3150073e+3, 2.757501e+2, -608523.9, -448593.3, -7588.1797, 0.06155111, 0.35763222, -448234.1, -210552.94, 0.0, 9.997626, 9.999744 
2.3149821e+3, 2.8575003e+2, -546451.75, -308187.88, -15280.003, 0.028907863, 0.35695878, -307211.94, -167528.9, 0.0, 9.997122, 10.000278 
2.314956e+3, 2.9575008e+2, -495818.7, -247551.8, -12387.831, -0.08999369, 0.33636424, -246935.2, -205251.19, 0.0, 9.996858, 10.00015 
2.3149328e+3, 3.0575082e+2, -525679.75, -226865.3, 101.48958, 0.08471559, 0.3971293, -226865.27, -226865.27, 0.0, 9.996272, 10.00024 
2.3149075e+3, 3.1575066e+2, -465000.25, 43053.543, -102969.68, 0.01360542, 0.35583255, 63129.582, 63129.582, 0.0, 9.995663, 10.002382 
2.3253864e+3, 1.2579642e+2, -1322171.3, -1817364.9, -16015.999, 0.08437097, 0.34843817, -1321653.9, 385574.6, 0.3466482, 10.005781, 9.996512 
2.3253596e+3, 1.3579388e+2, -1147253.5, -1595519.4, -5176.5313, 0.030095037, 0.3388698, -1147193.8, 462059.84, 0.25325343, 10.005489, 9.997534 
2.3253344e+3, 1.4579163e+2, -1063248.6, -1523409.3, 19025.39, 0.0772603, 0.36329558, -1062463.4, 448812.5, 0.1575888, 10.004847, 9.997631 
2.3253088e+3, 1.55789e+2, -1043173.5, -1497850.6, 11462.957, 0.06267071, 0.34017012, -1042884.7, 370417.44, 0.07858742, 10.003997, 9.997542 
2.3252831e+3, 1.6578674e+2, -963802.3, -1343527.6, 3684.0198, 0.05730735, 0.33221272, -963766.56, 351557.03, 0.02890761, 10.0034, 9.998217 
2.3252575e+3, 1.7578498e+2, -926145.3, -1292153.0, -1144.7053, 0.06263918, 0.33703074, -926141.75, 291197.56, 0.006598296, 10.002984, 9.998097 
2.3252322e+3, 1.8578294e+2, -898922.5, -1223185.6, 11899.783, 0.055014364, 0.33023474, -898486.4, 220872.8, 0.0005600253, 10.00246, 9.998151 
2.3252065e+3, 1.9578089e+2, -890649.1, -1172447.3, 25091.197, 0.03648383, 0.3116786, -888432.44, 132947.98, 0.000000474156, 10.00186, 9.9981165 
2.3251812e+3, 2.0577951e+2, -791557.4, -952545.1, 30080.486, 0.029095892, 0.31237096, -786120.5, 137272.84, 0.0, 10.001344, 9.999201 
2.325156e+3, 2.1577881e+2, -769397.5, -907500.8, 7948.776, 0.030556355, 0.3246773, -768941.5, 56456.684, 0.0, 10.000893, 9.999056 
2.3251309e+3, 2.257777e+2, -760461.4, -889771.1, 3698.8162, 0.0382654, 0.33385083, -760355.6, -32945.957, 0.0, 10.000442, 9.998722 
2.3251055e+3, 2.3577641e+2, -731199.1, -827129.06, 29977.36, 0.052220035, 0.3364661, -722601.94, -93177.336, 0.0, 9.999979, 9.998702 
2.3250803e+3, 2.4577563e+2, -641484.0, -595282.9, 45477.055, 0.044352844, 0.32966158, -567375.6, -35943.24, 0.0, 9.999329, 9.999933 
2.3250552e+3, 2.557754e+2, -667542.06, -571579.44, 26753.951, 0.019810118, 0.31713128, -564624.56, -131191.84, 0.0, 9.998539, 9.9998045 
2.32503e+3, 2.6577526e+2, -630804.0, -497090.53, 12747.01, 0.02330792, 0.3301476, -495886.2, -160452.38, 0.0, 9.998093, 9.999857 
2.325005e+3, 2.757753e+2, -572965.1, -428434.4, 27092.541, 0.05212019, 0.34908888, -423522.78, -186088.19, 0.0, 9.997859, 9.999769 
2.3249793e+3, 2.8577527e+2, -522348.22, -289687.63, 19258.121, 0.021024154, 0.34847483, -288104.34, -148668.23, 0.0, 9.997261, 10.000337 
2.324953e+3, 2.9577568e+2, -549114.56, -264178.3, 2795.0908, -0.06613861, 0.35924646, -264150.88, -222717.55, 0.0, 9.996458, 10.000226 
2.3249286e+3, 3.0577615e+2, -528086.8, -212162.2, 34281.36, 0.065961115, 0.38271528, -208485.1, -208485.1, 0.0, 9.996189, 10.0003805 
2.3249036e+3, 3.157764e+2, -417118.16, 51415.883, -78676.414, 0.027717458, 0.3721055, 64274.363, 64274.363, 0.0, 9.996055, 10.002251 
2.3353918e+3, 1.2582187e+2, -1298214.1, -1741458.4, -16363.541, 0.04775917, 0.34228197, -1297610.9, 409369.56, 0.34384933, 10.005758, 9.997044 
2.3353654e+3, 1.3581976e+2, -1130589.9, -1558939.4, -14226.056, 0.06597891, 0.3338043, -1130117.9, 478881.8, 0.25132197, 10.0054655, 9.997878 
2.3353393e+3, 1.458178e+2, -1076422.0, -1556151.4, -8581.024, 0.10223224, 0.38280398, -1076268.5, 434750.5, 0.15641049, 10.004837, 9.997413 
2.3353125e+3, 1.5581469e+2, -1055236.3, -1527079.3, -16680.158, 0.031916022, 0.33485943, -1054647.4, 358403.34, 0.07796949, 10.004, 9.997343 
2.3352861e+3, 1.6581225e+2, -969085.1, -1356952.8, -10021.899, 0.022681978, 0.32309186, -968826.4, 346248.06, 0.028653929, 10.003406, 9.998123 
2.3352605e+3, 1.7581058e+2, -929492.0, -1300067.6, -15283.714, 0.062503725, 0.3446957, -928862.75, 288226.88, 0.006540823, 10.002985, 9.998044 
2.3352346e+3, 1.858088e+2, -872952.5, -1170055.9, -9428.783, 0.06302622, 0.34579802, -872653.56, 246452.86, 0.0005615798, 10.0024605, 9.998517 
2.3352082e+3, 1.9580708e+2, -869440.1, -1129441.9, 4113.059, 0.031983994, 0.32545573, -869375.06, 151748.06, 0.0000006857514, 10.001861, 9.998412 
2.3351824e+3, 2.0580553e+2, -829016.3, -1031599.44, 14297.354, 0.0259822, 0.32480717, -828012.25, 95126.04, 0.0, 10.001347, 9.998658 
2.335157e+3, 2.158043e+2, -800749.0, -973195.2, -6406.324, 0.039082106, 0.3367129, -800511.4, 24639.1, 0.0, 10.000893, 9.998606 
2.3351312e+3, 2.258032e+2, -714715.4, -795496.06, -12228.143, 0.035593454, 0.33320972, -712904.94, 14256.0205, 0.0, 10.0004425, 9.99937 
2.3351052e+3, 2.3580234e+2, -691486.4, -745608.9, 11884.998, 0.021103868, 0.3138128, -688991.5, -59822.73, 0.0, 9.999981, 9.999262 
2.3350796e+3, 2.4580163e+2, -674879.1, -665610.2, 14460.0205, 0.03303804, 0.31479034, -655060.1, -123884.164, 0.0, 9.999331, 9.99945 
2.335054e+3, 2.558012e+2, -696129.56, -632496.56, -1829.0316, 0.06248544, 0.33080658, -632444.0, -199263.34, 0.0, 9.998544, 9.999385 
2.3350284e+3, 2.6580095e+2, -607903.0, -450758.16, 2716.799, 0.051176343, 0.33321914, -450711.2, -115528.17, 0.0, 9.9980955, 10.000175 
2.3350024e+3, 2.7580088e+2, -552668.0, -389683.22, 13950.335, 0.011070294, 0.31148866, -388497.78, -151314.78, 0.0, 9.99787, 10.000031 
2.3349763e+3, 2.8580087e+2, -537619.5, -323074.97, -14433.736, -0.0009488109, 0.31387106, -322108.28, -182924.22, 0.0, 9.997266, 10.000107 
2.33495e+3, 2.9580155e+2, -560455.0, -286587.34, -25102.506, 0.008931452, 0.37045267, -284305.47, -243125.53, 0.0, 9.99645, 10.000077 
2.3349248e+3, 3.0580205e+2, -479809.16, -111619.76, 32586.512, 0.04467016, 0.36752775, -108757.94, -108757.94, 0.0, 9.996185, 10.001074 
2.3348992e+3, 3.1580222e+2, -494059.06, -112837.82, -96474.805, -0.018566707, 0.29049805, -89813.71, -89813.71, 0.0, 9.99607, 10.001117 
2.3453978e+3, 1.2584865e+2, -1264039.8, -1702956.3, 22682.498, 0.057266105, 0.35904005, -1262870.6, 443848.1, 0.3392657, 10.006007, 9.997199 
2.3453708e+3, 1.3584618e+2, -1166922.3, -1581396.9, 2897.8774, 0.061400134, 0.3191915, -1166901.9, 441838.97, 0.24805866, 10.005139, 9.997828 
2.345344e+3, 1.458443e+2, -1117297.0, -1590396.9, 4575.0845, 0.09255269, 0.3848256, -1117252.8, 393506.8, 0.15437876, 10.004548, 9.997313 
2.3453167e+3, 1.558412e+2, -1036211.4, -1526629.4, 3740.254, 0.040717736, 0.34762126, -1036182.8, 376609.03, 0.07689873, 10.004183, 9.997255 
2.3452897e+3, 1.6583873e+2, -930777.06, -1332911.4, 21315.57, 0.030699521, 0.33502096, -929650.4, 385165.5, 0.028210392, 10.003656, 9.998166 
2.3452634e+3, 1.7583703e+2, -922152.06, -1292246.9, 25015.084, 0.05499306, 0.34928858, -920468.94, 296362.03, 0.006426766, 10.003021, 9.998078 
2.345237e+3, 1.8583526e+2, -871562.5, -1172555.3, 18379.393, 0.055820614, 0.35283777, -870444.4, 248403.14, 0.00055449124, 10.002487, 9.998485 
2.3452102e+3, 1.9583361e+2, -847703.7, -1121107.5, 2880.9316, 0.03727726, 0.3412557, -847673.3, 173190.58, 0.0000009107791, 10.002023, 9.998389 
2.3451838e+3, 2.05832e+2, -811764.2, -1020710.2, 23916.766, 0.031822577, 0.33636048, -809061.56, 113817.91, 0.0, 10.001457, 9.998679 
2.3451577e+3, 2.1583065e+2, -810689.94, -974896.75, 42664.26, 0.037701868, 0.33599642, -800266.56, 24626.008, 0.0, 10.000814, 9.998631 
2.3451313e+3, 2.2582956e+2, -737774.0, -798278.25, 32619.617, 0.033184756, 0.32962996, -723537.6, 3365.0093, 0.0, 10.000251, 9.999441 
2.345105e+3, 2.3582883e+2, -721241.4, -752209.7, 15186.273, 0.022614043, 0.3147884, -715037.25, -86128.36, 0.0, 9.999745, 9.999329 
2.3450789e+3, 2.4582814e+2, -683839.5, -675146.94, 15244.736, 0.03392056, 0.317704, -663641.06, -132725.06, 0.0, 9.999294, 9.999402 
2.3450528e+3, 2.5582767e+2, -651548.75, -614791.7, 31333.17, 0.061582174, 0.33295003, -596844.75, -163922.94, 0.0, 9.998869, 9.999349 
2.3450264e+3, 2.6582742e+2, -582141.3, -435374.5, 41625.984, 0.048056442, 0.33666006, -424390.6, -89466.33, 0.0, 9.998263, 10.000198 
2.345e+3, 2.7582744e+2, -601831.8, -408987.34, 29714.8, 0.005722298, 0.32105756, -404512.53, -167589.3, 0.0, 9.997519, 10.000067 
2.3449734e+3, 2.858274e+2, -571008.1, -334335.7, 2324.6814, 0.0062206527, 0.31478122, -334312.84, -195388.31, 0.0, 9.997019, 10.000147 
2.344947e+3, 2.9582778e+2, -530690.75, -274487.75, 13443.9, 0.040867634, 0.34254113, -273784.22, -232861.5, 0.0, 9.996666, 10.000056 
2.3449206e+3, 3.0582887e+2, -467000.6, -92973.95, 59230.465, 0.030983698, 0.39502558, -83818.39, -83818.39, 0.0, 9.996223, 10.001182 
2.3448955e+3, 3.1582966e+2, -545752.8, -134193.75, -94821.67, 0.040774718, 0.36124092, -113397.99, -113397.99, 0.0, 9.995708, 10.001141 
2.3554043e+3, 1.2587644e+2, -1270783.8, -1727257.8, 2002.2542, 0.09754785, 0.38220167, -1270774.9, 435671.63, 0.33288595, 10.005971, 9.997037 
2.3553754e+3, 1.3587311e+2, -1185027.6, -1626989.5, -20349.848, 0.018869705, 0.2948546, -1184092.6, 424384.66, 0.24343805, 10.005126, 9.997462 
2.3553482e+3, 1.4587113e+2, -1117520.6, -1595624.6, -6620.2886, 0.05207136, 0.37148058, -1117429.0, 393068.22, 0.15147234, 10.004551, 9.997277 
2.3553213e+3, 1.5586846e+2, -1036388.56, -1528321.0, -8827.932, 0.08432384, 0.37697896, -1036230.25, 376295.84, 0.07536514, 10.00418, 9.997247 
2.355294e+3, 1.6586608e+2, -920786.7, -1311751.0, -1112.317, 0.0754265, 0.3659874, -920783.5, 393765.25, 0.027573023, 10.003652, 9.998316 
2.3552664e+3, 1.7586419e+2, -915533.7, -1278464.9, 2478.976, 0.03914837, 0.34972152, -915516.75, 301047.63, 0.0062531917, 10.003018, 9.998176 
2.3552392e+3, 1.8586224e+2, -900091.0, -1232333.6, 1821.1924, 0.033982053, 0.3516426, -900081.0, 218502.27, 0.0005369736, 10.002487, 9.998076 
2.3552124e+3, 1.9586039e+2, -870543.2, -1168917.6, -13012.879, 0.050380155, 0.3598984, -869976.7, 150626.38, 0.0000010540285, 10.002023, 9.998063 
2.3551853e+3, 2.0585886e+2, -773768.94, -942572.75, 1343.2583, 0.04549611, 0.34850872, -773758.25, 148859.05, 0.0, 10.001458, 9.999216 
2.3551585e+3, 2.1585777e+2, -779385.1, -909994.8, 20137.63, 0.02561022, 0.32147852, -776350.75, 48275.023, 0.0, 10.000813, 9.999079 
2.3551317e+3, 2.258567e+2, -771075.0, -868445.2, 14443.446, 0.030597929, 0.3223467, -768977.7, -42341.715, 0.0, 10.000254, 9.99896 
2.355105e+3, 2.358558e+2, -749119.06, -812053.0, -2911.0085, 0.0530839, 0.3387312, -748984.75, -120338.83, 0.0, 9.999752, 9.998917 
2.3550782e+3, 2.458551e+2, -657361.5, -621864.1, -1300.6556, 0.045125764, 0.33883584, -621816.56, -91163.3, 0.0, 9.999299, 9.999766 
2.355051e+3, 2.558547e+2, -627740.25, -567726.2, 13307.232, 0.015006456, 0.32440817, -564907.9, -132250.72, 0.0, 9.998877, 9.999669 
2.3550242e+3, 2.6585457e+2, -601352.5, -476372.84, 11308.161, 0.013779268, 0.33988947, -475357.94, -140699.28, 0.0, 9.998267, 9.999916 
2.3549978e+3, 2.758548e+2, -615903.75, -438110.25, 1381.3252, 0.036392625, 0.3754568, -438099.5, -201442.86, 0.0, 9.997517, 9.999868 
2.3549707e+3, 2.858547e+2, -548333.9, -287076.1, -12438.655, 0.04197251, 0.35318244, -286485.22, -147826.89, 0.0, 9.997015, 10.000475 
2.3549433e+3, 2.9585442e+2, -522005.84, -260570.52, -1322.2036, 0.022350002, 0.2820548, -260563.83, -219901.97, 0.0, 9.99668, 10.000146 
2.354917e+3, 3.058563e+2, -506529.3, -177165.11, 37329.098, 0.026067605, 0.44983926, -172987.34, -172987.34, 0.0, 9.996231, 10.000601 
2.3548913e+3, 3.1585732e+2, -452182.97, 60102.62, -92279.17, 0.04631746, 0.4718327, 76218.12, 76218.12, 0.0, 9.995705, 10.002479 
2.3654099e+3, 1.259043e+2, -1306128.8, -1734460.5, 1121.1869, 0.10906349, 0.39851505, -1306125.9, 400048.84, 0.32495216, 10.005464, 9.997232 
2.3653807e+3, 1.3590099e+2, -1167809.9, -1620005.8, -6485.0815, 0.011986234, 0.31306225, -1167717.0, 440488.47, 0.23762932, 10.00526, 9.997444 
2.3653525e+3, 1.4589895e+2, -1085496.9, -1575582.0, 20748.342, 0.040468164, 0.38287032, -1084620.1, 425605.34, 0.14778465, 10.0047865, 9.9973 
2.3653254e+3, 1.5589617e+2, -1039810.7, -1528838.5, 23278.76, 0.097480066, 0.37872863, -1038705.1, 373549.13, 0.07340685, 10.004146, 9.997257 
2.3652977e+3, 1.658937e+2, -944499.75, -1339130.9, 18580.957, 0.09419221, 0.36551982, -943626.8, 370651.13, 0.026751881, 10.003553, 9.998172 
2.3652692e+3, 1.7589171e+2, -927745.1, -1297299.9, 2182.1628, 0.047837894, 0.3519799, -927732.2, 288563.13, 0.006020617, 10.002993, 9.998056 
2.3652416e+3, 1.858897e+2, -897871.5, -1220111.8, 17264.094, 0.036832273, 0.35011572, -896949.2, 221365.23, 0.00050837, 10.002458, 9.998173 
2.3652144e+3, 1.9588788e+2, -876847.1, -1162783.8, 36263.902, 0.051347032, 0.35202718, -872319.6, 148013.55, 0.0000010408802, 10.001943, 9.998142 
2.3651868e+3, 2.0588638e+2, -791847.6, -962197.9, 34225.867, 0.04816564, 0.34554797, -785228.3, 137119.1, 0.0, 10.001383, 9.999116 
2.3651592e+3, 2.1588533e+2, -787863.1, -922066.25, 7480.748, 0.033066086, 0.33084658, -787447.4, 36909.164, 0.0, 10.000791, 9.999004 
2.3651318e+3, 2.2588427e+2, -757740.25, -846557.9, 14509.364, 0.03505099, 0.3297574, -755430.06, -29063.62, 0.0, 10.00028, 9.999096 
2.3651047e+3, 2.3588338e+2, -729932.7, -788812.2, 42430.344, 0.05099057, 0.33490413, -707729.06, -79353.84, 0.0, 9.999826, 9.999039 
2.3650774e+3, 2.4588272e+2, -663667.6, -631238.25, 43953.016, 0.04116476, 0.33775303, -600604.44, -70222.2, 0.0, 9.999287, 9.999706 
2.3650499e+3, 2.558824e+2, -661425.7, -589106.25, 26987.994, 0.011353535, 0.33691037, -580145.3, -147759.23, 0.0, 9.998671, 9.99962 
2.3650225e+3, 2.6588225e+2, -621808.3, -485628.38, 20651.46, 0.010616344, 0.35372952, -482565.5, -148177.58, 0.0, 9.998127, 9.999919 
2.3649953e+3, 2.7588242e+2, -597678.7, -427596.13, 32345.713, 0.040999558, 0.37985057, -421652.44, -185265.63, 0.0, 9.997639, 9.99988 
2.364968e+3, 2.8588238e+2, -511952.3, -258052.67, 22898.111, 0.04689719, 0.35964504, -256004.13, -117616.625, 0.0, 9.997221, 10.000572 
2.3649399e+3, 2.9588234e+2, -500644.94, -241020.11, 14736.349, 0.008239653, 0.30438545, -240186.34, -199798.27, 0.0, 9.996794, 10.000223 
2.3649131e+3, 3.0588362e+2, -549703.75, -240671.61, 61372.57, 0.03734012, 0.42784354, -228929.42, -228929.42, 0.0, 9.9961195, 10.000218 
2.3648863e+3, 3.1588295e+2, -482509.13, 54865.72, -57999.56, -0.018633382, 0.31638038, 61054.414, 61054.414, 0.0, 9.995459, 10.002561 
2.3754153e+3, 1.259323e+2, -1282987.8, -1685350.0, -3348.843, 0.09336084, 0.40448794, -1282959.9, 422942.78, 0.31586787, 10.005446, 9.997641 
2.375386e+3, 1.3592975e+2, -1154333.5, -1592403.8, -13618.19, 0.030499486, 0.37070203, -1153910.5, 454014.97, 0.23091942, 10.005234, 9.997678 
2.3753574e+3, 1.4592765e+2, -1080170.5, -1566414.6, -982.3549, 0.048472524, 0.41903234, -1080168.5, 429776.5, 0.1434804, 10.004776, 9.99737 
2.3753293e+3, 1.5592436e+2, -1037546.9, -1526275.5, 1193.6654, 0.082485996, 0.35574898, -1037543.94, 374432.9, 0.071096055, 10.004145, 9.997277 
2.375301e+3, 1.659216e+2, -972353.2, -1399916.8, -1278.6865, 0.09042669, 0.33610854, -972349.4, 341654.3, 0.02577075, 10.003554, 9.997755 
2.3752727e+3, 1.759195e+2, -950143.2, -1345215.3, -17004.305, 0.078739546, 0.35491914, -949412.7, 266611.4, 0.0057346774, 10.0029955, 9.997728 
2.3752443e+3, 1.8591762e+2, -859343.56, -1141275.6, -848.1117, 0.0611252, 0.34848407, -859341.0, 258700.39, 0.00046961068, 10.0024605, 9.9987135 
2.375216e+3, 1.95916e+2, -847275.94, -1101672.3, 17470.328, 0.039250538, 0.31887537, -846081.8, 173973.44, 0.00000087333115, 10.001942, 9.998564 
2.375188e+3, 2.0591448e+2, -840021.0, -1063276.6, 12631.445, 0.04006508, 0.3285584, -839308.6, 82762.14, 0.0, 10.001385, 9.998423 
2.3751602e+3, 2.1591322e+2, -827265.6, -1005289.8, -12223.583, 0.056501657, 0.36315715, -826430.25, -2344.6414, 0.0, 10.000794, 9.998433 
2.3751323e+3, 2.2591221e+2, -706234.25, -741546.0, -1305.3726, 0.04492655, 0.35212514, -706186.06, 19908.453, 0.0, 10.000286, 9.999816 
2.3751043e+3, 2.359115e+2, -686407.7, -699789.56, 25009.799, 0.015975267, 0.30355257, -667209.25, -39111.344, 0.0, 9.999829, 9.99965 
2.3750764e+3, 2.4591093e+2, -696868.94, -701064.56, 19523.541, 0.02267445, 0.3146568, -679330.8, -149226.89, 0.0, 9.999289, 9.999227 
2.3750488e+3, 2.559107e+2, -689810.94, -649734.0, 2755.6384, 0.048505872, 0.37073806, -649545.4, -217435.83, 0.0, 9.998676, 9.999203 
2.3750207e+3, 2.6591042e+2, -602046.8, -445633.06, 357.05927, 0.036909968, 0.37872234, -445632.22, -111519.27, 0.0, 9.998129, 10.000194 
2.3749927e+3, 2.7591014e+2, -582493.0, -398213.56, 13807.827, 0.013355756, 0.33324435, -397184.72, -161069.89, 0.0, 9.997645, 10.00008 
2.3749648e+3, 2.8591028e+2, -522535.63, -281504.34, 4573.501, 0.018347662, 0.33165783, -281417.6, -143304.16, 0.0, 9.997226, 10.00041 
2.3749368e+3, 2.9591143e+2, -496050.44, -231708.0, -7366.482, 0.0044733323, 0.41134456, -231502.88, -191400.28, 0.0, 9.996792, 10.000289 
2.3749094e+3, 3.059107e+2, -560444.2, -260677.38, 31091.418, 0.061668094, 0.32796144, -257486.56, -257486.56, 0.0, 9.996108, 10.000088 
2.3748818e+3, 3.1590977e+2, -492949.6, 31853.156, -85808.22, 0.003414507, 0.22371686, 45527.01, 45527.01, 0.0, 9.995463, 10.002401 
2.3854204e+3, 1.2596102e+2, -1274103.1, -1688690.8, 23728.209, 0.080245346, 0.40550908, -1272749.5, 432872.2, 0.30607098, 10.005502, 9.99758 
2.3853913e+3, 1.3595858e+2, -1169697.8, -1615759.4, -3223.8042, 0.059510823, 0.40163323, -1169674.4, 437970.06, 0.22361267, 10.005127, 9.997537 
2.3853622e+3, 1.4595638e+2, -1080195.8, -1548640.1, -4348.7583, 0.06822482, 0.43552676, -1080155.4, 429509.4, 0.13873766, 10.004679, 9.997535 
2.3853332e+3, 1.5595302e+2, -1026190.9, -1505070.1, 1802.7256, 0.071020305, 0.35019937, -1026184.1, 385511.75, 0.068519585, 10.004154, 9.997416 
2.3853044e+3, 1.6595021e+2, -963515.5, -1406705.5, 16780.475, 0.07772646, 0.3247885, -962881.06, 350841.88, 0.02466565, 10.003664, 9.997655 
2.3852758e+3, 1.7594805e+2, -925580.3, -1343372.0, 22000.941, 0.08510846, 0.3481478, -924424.94, 291319.56, 0.0054073776, 10.003211, 9.997636 
2.3852468e+3, 1.8594618e+2, -833026.56, -1127639.3, 22117.43, 0.07217602, 0.34826267, -831375.44, 286386.38, 0.00042333477, 10.002641, 9.998718 
2.385218e+3, 1.9594464e+2, -840769.06, -1098145.9, 2454.769, 0.04572168, 0.32584614, -840745.7, 179029.19, 0.00000061647575, 10.001987, 9.998564 
2.3851894e+3, 2.0594308e+2, -834757.5, -1062826.3, 12178.952, 0.04336254, 0.3327981, -834109.0, 87681.78, 0.0, 10.001432, 9.998402 
2.385161e+3, 2.1594173e+2, -806268.4, -996692.06, 33898.246, 0.057733856, 0.35944718, -800413.94, 23392.824, 0.0, 10.000948, 9.998417 
2.3851326e+3, 2.2594075e+2, -688588.75, -728181.94, 36208.484, 0.04234699, 0.35125044, -667118.44, 58696.87, 0.0, 10.000389, 9.999857 
2.385104e+3, 2.3594019e+2, -692667.9, -698560.94, 13912.567, 0.009722757, 0.31367362, -681393.25, -53576.184, 0.0, 9.99977, 9.999685 
2.3850754e+3, 2.459396e+2, -707758.7, -704834.06, 9274.654, 0.017001184, 0.31986928, -696907.1, -167084.03, 0.0, 9.99921, 9.999238 
2.3850474e+3, 2.559392e+2, -686944.9, -647074.6, 28387.352, 0.04882113, 0.3588159, -632321.9, -200491.8, 0.0, 9.998694, 9.99921 
2.3850188e+3, 2.6593888e+2, -590497.75, -437186.63, 32202.893, 0.036536753, 0.36217, -430697.13, -96863.43, 0.0, 9.9982, 10.000216 
2.3849903e+3, 2.759387e+2, -575486.6, -393804.78, 26680.77, 0.0067509017, 0.32446063, -389967.63, -154132.97, 0.0, 9.997692, 10.000086 
2.3849618e+3, 2.8593886e+2, -527629.1, -291808.03, 18571.268, 0.014921493, 0.33163166, -290354.47, -152521.64, 0.0, 9.997228, 10.000337 
2.3849335e+3, 2.9593998e+2, -493229.47, -231938.14, 9417.513, 0.014213375, 0.41064385, -231599.14, -191776.34, 0.0, 9.996823, 10.00027 
2.3849052e+3, 3.0593908e+2, -542751.94, -233513.02, 35479.3, 0.033219643, 0.30475613, -229494.66, -229494.66, 0.0, 9.996151, 10.000253 
2.3848772e+3, 3.1594178e+2, -454888.38, 174136.77, -37307.31, 0.00982956, 0.5538293, 176341.72, 176341.72, 0.0, 9.995195, 10.003506 
2.3954257e+3, 1.2599035e+2, -1288313.1, -1739700.3, 11784.859, 0.057740804, 0.40269533, -1288005.6, 417327.34, 0.29597142, 10.005494, 9.997182 
2.3953967e+3, 1.359875e+2, -1191191.0, -1680165.8, -13031.133, 0.09816109, 0.40465432, -1190843.9, 416518.3, 0.21598852, 10.00511, 9.997104 
2.3953672e+3, 1.4598511e+2, -1066099.0, -1518434.0, -20361.807, 0.09913474, 0.4293175, -1065184.3, 444200.5, 0.13372327, 10.004664, 9.997752 
2.3953374e+3, 1.5598212e+2, -1012247.25, -1474624.9, -16085.597, 0.060314648, 0.35938781, -1011688.3, 399723.13, 0.06576675, 10.004144, 9.997632 
2.3953079e+3, 1.6597947e+2, -952240.1, -1382299.1, 519.6936, 0.054173432, 0.3311736, -952239.5, 361196.6, 0.023479031, 10.003655, 9.997828 
2.3952788e+3, 1.7597729e+2, -919735.5, -1329823.9, 5126.3037, 0.06737385, 0.33469087, -919671.4, 295785.7, 0.0050551225, 10.0032015, 9.997734 
2.3952495e+3, 1.8597536e+2, -867767.1, -1199113.5, -1605.5591, 0.070870295, 0.3501174, -867759.3, 249716.92, 0.00037348678, 10.002636, 9.998231 
2.3952202e+3, 1.9597372e+2, -867913.4, -1154813.3, -19686.006, 0.06847094, 0.36851063, -866568.9, 152923.72, 0.00000034817865, 10.0019865, 9.998177 
2.3951909e+3, 2.0597214e+2, -792789.0, -976857.44, -4620.3115, 0.056395065, 0.3563527, -792673.1, 128834.914, 0.0, 10.001436, 9.998991 
2.3951618e+3, 2.1597074e+2, -772963.9, -927867.44, 16731.277, 0.036901243, 0.32054216, -771177.3, 52343.746, 0.0, 10.000947, 9.998892 
2.3951328e+3, 2.259698e+2, -730802.44, -816585.3, 13675.355, 0.028000694, 0.32856357, -728675.1, -3145.4487, 0.0, 10.00039, 9.99925 
2.3951037e+3, 2.3596938e+2, -727968.56, -773376.06, -8875.896, 0.027788088, 0.3648199, -726295.2, -98761.87, 0.0, 9.999775, 9.999171 
2.3950747e+3, 2.4596862e+2, -673593.2, -635562.9, -11209.347, 0.021906504, 0.35282794, -632504.8, -102964.44, 0.0, 9.999215, 9.999713 
2.3950456e+3, 2.5596777e+2, -657736.8, -588436.3, 8062.2007, 0.010151174, 0.30050942, -587510.75, -155962.19, 0.0, 9.9987, 9.999611 
2.3950168e+3, 2.6596752e+2, -607122.06, -472531.16, 11302.58, 0.009099494, 0.30454013, -471588.6, -138037.42, 0.0, 9.998202, 9.999972 
2.3949881e+3, 2.75968e+2, -587619.56, -420575.28, 5603.1934, 0.021701468, 0.35831788, -420387.53, -184840.66, 0.0, 9.997698, 9.999901 
2.3949595e+3, 2.8596804e+2, -528491.0, -293709.94, 758.0422, 0.038011417, 0.35962316, -293707.5, -156160.77, 0.0, 9.997227, 10.000325 
2.3949304e+3, 2.9596755e+2, -502899.22, -252159.44, -7247.114, 0.034138545, 0.28181678, -251950.16, -212398.13, 0.0, 9.996821, 10.0001335 
2.3949003e+3, 3.059689e+2, -507594.97, -159978.53, -4167.6396, -0.06182619, 0.3841511, -159928.58, -159928.58, 0.0, 9.996146, 10.000762 
2.3948726e+3, 3.1597105e+2, -519765.03, 38704.844, -37176.598, 0.04833168, 0.5151034, 41168.77, 41168.77, 0.0, 9.995194, 10.002578 
2.4054314e+3, 1.260199e+2, -1265052.9, -1725759.4, 7289.152, 0.06577695, 0.39663473, -1264937.5, 440105.16, 0.285895, 10.005647, 9.997207 
2.4054019e+3, 1.3601696e+2, -1218667.1, -1701615.5, 9823.105, 0.105378814, 0.39332294, -1218467.4, 388605.94, 0.20827854, 10.004844, 9.997086 
2.4053718e+3, 1.4601454e+2, -1100951.1, -1540932.1, 13811.809, 0.102270216, 0.4178058, -1100518.0, 408578.56, 0.12858318, 10.004379, 9.997734 
2.4053416e+3, 1.5601182e+2, -1013210.7, -1476378.6, 4540.783, 0.0652616, 0.37764364, -1013166.2, 397954.88, 0.062919684, 10.004133, 9.997623 
2.4053115e+3, 1.6600928e+2, -944887.1, -1365857.4, 7577.527, 0.054638382, 0.35221502, -944750.8, 368393.94, 0.022250766, 10.00365, 9.997941 
2.4052818e+3, 1.7600703e+2, -940183.4, -1329340.1, 7772.828, 0.059509452, 0.3387571, -940028.2, 275137.63, 0.0046938765, 10.0030155, 9.997826 
2.405252e+3, 1.8600509e+2, -894527.0, -1220451.3, 16236.358, 0.0635643, 0.35381284, -893720.1, 223465.14, 0.000324155, 10.00249, 9.998154 
2.4052222e+3, 1.9600353e+2, -865551.9, -1160440.9, 25957.77, 0.06730202, 0.38606578, -863284.3, 155917.58, 0.0000001406684, 10.002036, 9.998113 
2.4051924e+3, 2.0600194e+2, -778532.06, -961277.25, 31349.477, 0.05846769, 0.37487602, -773303.75, 147913.2, 0.0, 10.001499, 9.999066 
2.4051629e+3, 2.160005e+2, -775451.2, -922904.5, 15129.543, 0.041822996, 0.32955465, -773914.8, 49314.453, 0.0, 10.000906, 9.998943 
2.4051331e+3, 2.2599946e+2, -747605.5, -840004.9, 15993.132, 0.032661565, 0.3314323, -744915.56, -19676.541, 0.0, 10.000343, 9.999111 
2.4051034e+3, 2.3599887e+2, -732830.4, -788770.5, 27942.162, 0.030945823, 0.36638856, -721264.5, -94019.49, 0.0, 9.9998, 9.999052 
2.405074e+3, 2.4599814e+2, -651525.44, -611173.4, 27960.07, 0.022176038, 0.35452554, -596869.9, -67618.14, 0.0, 9.99931, 9.999834 
2.4050444e+3, 2.559974e+2, -632316.44, -565488.0, 20872.834, 0.007841767, 0.29972574, -559504.44, -128246.375, 0.0, 9.99883, 9.999706 
2.405015e+3, 2.659971e+2, -601990.56, -479534.63, 18677.535, 0.00400052, 0.3032131, -476749.2, -143488.52, 0.0, 9.998281, 9.999886 
2.4049856e+3, 2.7599758e+2, -593127.94, -430369.94, 23787.178, 0.014235395, 0.3668895, -426964.7, -191707.9, 0.0, 9.997695, 9.999832 
2.4049565e+3, 2.8599754e+2, -527387.9, -287887.97, 29277.51, 0.041744653, 0.35736045, -284360.9, -147103.17, 0.0, 9.997215, 10.000369 
2.4049275e+3, 2.9599652e+2, -504353.34, -249921.92, 27235.94, 0.06440131, 0.22507882, -247039.08, -207771.38, 0.0, 9.9968, 10.000159 
2.4048962e+3, 3.0599922e+2, -467230.25, -123034.98, 9975.943, -0.10813389, 0.4515008, -122746.08, -122746.08, 0.0, 9.996351, 10.000915 
2.4048685e+3, 3.15997e+2, -534808.0, -109495.93, -11792.959, 0.09212365, 0.13566631, -109169.19, -109169.19, 0.0, 9.995708, 10.001307 
2.4154373e+3, 1.260495e+2, -1246974.5, -1682771.9, -17064.2, 0.09371045, 0.37238672, -1246307.4, 458444.88, 0.2760317, 10.005576, 9.99759 
2.4154063e+3, 1.3604702e+2, -1196889.0, -1655477.3, -12588.487, 0.08127672, 0.37657428, -1196543.6, 410233.8, 0.20064229, 10.004846, 9.997401 
2.415376e+3, 1.460447e+2, -1110221.8, -1573162.8, 5606.9985, 0.07748341, 0.4099815, -1110153.9, 398646.38, 0.12343628, 10.0043955, 9.997507 
2.4153458e+3, 1.5604211e+2, -1026592.5, -1507286.3, -4950.3267, 0.081817925, 0.4042794, -1026541.5, 384283.63, 0.060052056, 10.004125, 9.9974165 
2.4153154e+3, 1.6603954e+2, -942795.0, -1359769.8, -15009.496, 0.07585441, 0.38356948, -942255.4, 370594.13, 0.021016859, 10.003636, 9.997991 
2.4152847e+3, 1.760372e+2, -935860.44, -1319025.1, -14228.196, 0.060378335, 0.35475495, -935332.8, 279538.56, 0.00433748, 10.003007, 9.997902 
2.4152541e+3, 1.8603532e+2, -875315.0, -1179750.4, -238.3802, 0.049696777, 0.35840008, -875314.8, 241574.7, 0.00027860896, 10.002484, 9.998437 
2.4152239e+3, 1.9603394e+2, -851762.06, -1130758.9, 9052.167, 0.042261567, 0.38143516, -851468.7, 167434.9, 0.00000003428923, 10.002029, 9.998322 
2.4151939e+3, 2.0603243e+2, -807652.0, -1021673.9, 9591.164, 0.050095964, 0.39008102, -807223.06, 113695.28, 0.0, 10.001497, 9.998653 
2.4151638e+3, 2.1603097e+2, -800106.2, -973939.2, -5377.5474, 0.06817548, 0.3843273, -799940.0, 22992.172, 0.0, 10.000902, 9.998596 
2.4151336e+3, 2.2602966e+2, -726253.7, -796997.1, -3345.9006, 0.0536705, 0.35881817, -726095.8, -1151.7333, 0.0, 10.000347, 9.999406 
2.4151033e+3, 2.3602863e+2, -715066.06, -754123.0, 8088.753, 0.018678667, 0.31918418, -713457.2, -86504.234, 0.0, 9.999807, 9.999288 
2.4150732e+3, 2.4602805e+2, -667104.8, -644557.2, 8700.368, 0.018365856, 0.3257658, -641590.4, -112632.32, 0.0, 9.999312, 9.999604 
2.4150434e+3, 2.5602794e+2, -645992.75, -595460.5, 896.26843, 0.038720056, 0.35688, -595444.6, -164485.19, 0.0, 9.998835, 9.999499 
2.4150132e+3, 2.6602757e+2, -597920.94, -472191.53, -5336.5913, 0.019746896, 0.35760075, -471965.4, -139002.28, 0.0, 9.998282, 9.999936 
2.4149829e+3, 2.7602735e+2, -591111.9, -426916.88, 744.0675, -0.01955638, 0.34741712, -426913.5, -191947.95, 0.0, 9.997696, 9.999857 
2.4149536e+3, 2.8602722e+2, -518776.66, -269847.7, 11729.343, 0.023274777, 0.3241247, -269296.22, -132329.44, 0.0, 9.997212, 10.000495 
2.4149248e+3, 2.9602695e+2, -489116.94, -219748.8, 12327.638, 0.10492896, 0.25292584, -219185.8, -180216.64, 0.0, 9.996804, 10.000365 
2.4148926e+3, 3.060297e+2, -493263.47, -178621.31, -13614.133, -0.09439676, 0.49056184, -178033.36, -178033.36, 0.0, 9.996355, 10.000532 
2.4148633e+3, 3.1602827e+2, -466236.22, 26357.295, 28702.05, 0.00014206595, 0.3025699, 28024.043, 28024.043, 0.0, 9.9957285, 10.0022335 
2.4254426e+3, 1.260799e+2, -1320274.1, -1730660.3, 7670.542, 0.118710384, 0.36715636, -1320130.8, 384323.22, 0.26642242, 10.004847, 9.997559 
2.4254112e+3, 1.3607745e+2, -1156758.3, -1637428.9, -7915.2544, 0.06477101, 0.3789124, -1156627.9, 449851.13, 0.19315244, 10.005169, 9.99737 
2.4253802e+3, 1.4607506e+2, -1056234.6, -1537692.8, -1910.836, 0.05797707, 0.40288255, -1056227.0, 452275.63, 0.11836083, 10.004767, 9.997569 
2.4253498e+3, 1.5607257e+2, -1052864.6, -1514884.5, 5171.2295, 0.089337826, 0.40149733, -1052806.8, 357720.03, 0.057221685, 10.003898, 9.997473 
2.4253188e+3, 1.660701e+2, -984384.2, -1374765.5, 6349.33, 0.08519202, 0.3871154, -984281.0, 328269.28, 0.019807167, 10.00332, 9.998039 
2.4252877e+3, 1.7606787e+2, -943416.06, -1317411.0, 7136.7734, 0.05416584, 0.3648461, -943279.94, 271291.38, 0.0039967997, 10.002935, 9.997946 
2.4252565e+3, 1.86066e+2, -878885.06, -1182676.0, 8855.91, 0.043512587, 0.36741596, -878627.1, 237962.36, 0.00023879341, 10.002468, 9.998424 
2.4252258e+3, 1.9606452e+2, -864421.25, -1138588.4, -4006.625, 0.047891878, 0.38286313, -864362.75, 154241.53, 0.000000003872902, 10.001949, 9.998305 
2.4251953e+3, 2.0606297e+2, -819463.0, -1027251.75, 2873.3584, 0.054790497, 0.38928324, -819423.25, 101195.984, 0.0, 10.001417, 9.998653 
2.4251646e+3, 2.1606156e+2, -804917.3, -976363.8, 16149.846, 0.0638627, 0.38834465, -803409.3, 19223.2, 0.0, 10.000874, 9.998591 
2.4251337e+3, 2.2606024e+2, -724194.7, -799305.25, 18539.006, 0.049901325, 0.36399233, -719868.06, 4776.5815, 0.0, 10.000378, 9.999373 
2.425103e+3, 2.3605913e+2, -702500.6, -750956.8, 6777.3423, 0.023127638, 0.32015976, -701570.56, -74916.164, 0.0, 9.999908, 9.999259 
2.4250725e+3, 2.4605854e+2, -660223.0, -642166.1, 7700.7085, 0.022944178, 0.3265006, -639328.06, -110668.34, 0.0, 9.999366, 9.999593 
2.4250422e+3, 2.5605845e+2, -655053.25, -600497.5, 15903.059, 0.03965063, 0.36429992, -596200.25, -165539.77, 0.0, 9.998779, 9.999489 
2.4250115e+3, 2.6605812e+2, -598418.6, -473247.4, 13788.007, 0.01660358, 0.36852717, -471746.6, -139082.53, 0.0, 9.998285, 9.9999275 
2.4249804e+3, 2.760578e+2, -577736.75, -424336.56, 14176.774, -0.02577568, 0.34780076, -423037.4, -188369.52, 0.0, 9.997804, 9.999824 
2.4249507e+3, 2.8605765e+2, -512500.03, -272617.06, 19341.986, 0.019451829, 0.32856756, -271067.5, -134398.44, 0.0, 9.997282, 10.000442 
2.4249214e+3, 2.960578e+2, -490299.47, -218534.73, 6938.6978, 0.106287695, 0.3056639, -218357.69, -179690.95, 0.0, 9.996795, 10.000376 
2.4248889e+3, 3.0605936e+2, -495141.16, -174235.58, -15677.393, -0.0999297, 0.41652948, -173471.5, -173471.5, 0.0, 9.996322, 10.000578 
2.4248587e+3, 3.1605908e+2, -433456.88, 102387.87, 102637.53, -0.027263846, 0.34694558, 121374.65, 121374.65, 0.0, 9.99569, 10.002777 
2.4354476e+3, 1.2611109e+2, -1336326.4, -1791362.0, 14802.862, 0.13411076, 0.38719416, -1335845.3, 368302.63, 0.25700372, 10.004859, 9.997135 
2.4354163e+3, 1.3610815e+2, -1176424.5, -1689911.8, -1471.3815, 0.05068606, 0.38922182, -1176420.3, 429758.47, 0.18581143, 10.005135, 9.9970255 
2.4353848e+3, 1.4610551e+2, -1038873.8, -1497759.8, -30654.426, 0.040745396, 0.3877156, -1036835.1, 471369.4, 0.113393456, 10.004735, 9.99787 
2.4353537e+3, 1.5610318e+2, -1034908.94, -1475472.4, -23379.164, 0.08852882, 0.3724621, -1033671.75, 376554.38, 0.054464586, 10.003884, 9.997752 
2.435322e+3, 1.6610098e+2, -981433.7, -1368508.3, -7053.121, 0.08284534, 0.36908942, -981305.2, 330941.84, 0.018641684, 10.003314, 9.998087 
2.4352902e+3, 1.7609905e+2, -943764.75, -1317261.9, -7010.265, 0.038658787, 0.37290218, -943633.25, 270632.53, 0.0036784138, 10.002929, 9.9979515 
2.435259e+3, 1.8609707e+2, -900485.9, -1227181.3, -9653.386, 0.04318468, 0.38123947, -900200.94, 216084.58, 0.00020527234, 10.002464, 9.998121 
2.4352282e+3, 1.960952e+2, -881327.94, -1173006.1, -21546.121, 0.08055909, 0.38809112, -879744.94, 138559.52, 0.0000000002134854, 10.001944, 9.998073 
2.4351968e+3, 2.0609355e+2, -793401.5, -973230.9, -16334.542, 0.07053357, 0.37306288, -791929.8, 128389.99, 0.0, 10.001415, 9.999026 
2.435165e+3, 2.1609223e+2, -784582.9, -934627.56, -2782.6924, 0.029082434, 0.34338322, -784531.3, 37799.76, 0.0, 10.000874, 9.99888 
2.435134e+3, 2.2609113e+2, -748256.0, -850067.94, 1535.3103, 0.02272181, 0.3479581, -748232.9, -23891.316, 0.0, 10.00038, 9.999025 
2.435103e+3, 2.3609032e+2, -723040.3, -793704.4, -11304.858, 0.040643204, 0.3694787, -721275.8, -94925.695, 0.0, 9.999907, 9.998968 
2.435072e+3, 2.460895e+2, -646332.06, -613949.1, -15560.304, 0.03377836, 0.35657448, -607684.3, -79326.836, 0.0, 9.999367, 9.999787 
2.4350408e+3, 2.560889e+2, -642355.0, -576271.44, -6198.7925, 0.008410479, 0.32305196, -575695.0, -145332.98, 0.0, 9.998786, 9.999654 
2.4350095e+3, 2.6608872e+2, -603047.75, -484026.13, -5688.72, -0.005202466, 0.33676922, -483754.84, -151390.58, 0.0, 9.998287, 9.999853 
2.4349785e+3, 2.7608883e+2, -583151.3, -437822.94, -6290.9272, -0.003463573, 0.36999828, -437551.13, -203186.7, 0.0, 9.99781, 9.999728 
2.434948e+3, 2.8608868e+2, -532526.94, -315809.1, -2249.1118, 0.029259454, 0.37018403, -315785.75, -179420.02, 0.0, 9.997287, 10.000144 
2.4349177e+3, 2.9608884e+2, -506814.3, -252554.94, -12675.999, 0.05806146, 0.3769104, -251924.55, -213561.72, 0.0, 9.996791, 10.000145 
2.4348848e+3, 3.0608803e+2, -454037.88, -85504.17, -40374.402, -0.12213944, 0.23085459, -81132.836, -81132.836, 0.0, 9.996305, 10.001196 
2.434855e+3, 3.1608966e+2, -557826.8, -149788.9, 58333.766, 0.051641855, 0.29279387, -141613.23, -141613.23, 0.0, 9.9956665, 10.001055 
2.4454524e+3, 1.2614228e+2, -1252071.6, -1717579.6, -82.53671, 0.093578674, 0.4159395, -1252071.6, 451772.1, 0.24767078, 10.005485, 9.997339 
2.445421e+3, 1.3613914e+2, -1223050.8, -1695126.3, 20534.803, 0.070393935, 0.37711847, -1222159.3, 383715.5, 0.17858365, 10.004606, 9.997246 
2.4453893e+3, 1.461366e+2, -1117529.1, -1523099.1, -4942.865, 0.060512997, 0.36630514, -1117468.9, 390430.3, 0.10853762, 10.004042, 9.998018 
2.4453571e+3, 1.5613459e+2, -1048492.1, -1469017.1, -7214.254, 0.07183586, 0.37041417, -1048368.4, 361549.4, 0.051792882, 10.003722, 9.997872 
2.4453253e+3, 1.661325e+2, -981905.06, -1377113.6, 5322.168, 0.06653597, 0.37572318, -981833.4, 330104.9, 0.017527197, 10.003343, 9.9980135 
2.4452932e+3, 1.7613049e+2, -948625.25, -1326596.1, -4295.1245, 0.046988815, 0.38081706, -948576.44, 265381.84, 0.0033834113, 10.002923, 9.997891 
2.4452615e+3, 1.8612848e+2, -899108.9, -1212942.1, 3081.6794, 0.0547962, 0.38110095, -899078.6, 216899.45, 0.00017744735, 10.002417, 9.998241 
2.44523e+3, 1.9612661e+2, -887150.06, -1163312.4, 20329.822, 0.08188863, 0.37569827, -885661.5, 132334.6, 0.00000000008671795, 10.001857, 9.9981785 
2.445198e+3, 2.0612496e+2, -809723.0, -989871.7, 19195.297, 0.06863166, 0.36021122, -807700.4, 112311.17, 0.0, 10.001346, 9.998944 
2.445166e+3, 2.161236e+2, -791487.75, -945989.25, 334.92935, 0.029552864, 0.33626673, -791487.0, 30536.727, 0.0, 10.000862, 9.998807 
2.4451342e+3, 2.2612253e+2, -753685.9, -850242.94, 7596.039, 0.022402305, 0.34707883, -753092.0, -29057.904, 0.0, 10.000334, 9.999045 
2.4451028e+3, 2.361218e+2, -740860.6, -799742.8, 21396.99, 0.038834054, 0.37662178, -733906.56, -107864.79, 0.0, 9.999777, 9.998987 
2.4450713e+3, 2.4612099e+2, -655095.2, -617612.1, 20521.734, 0.02872418, 0.3607278, -608561.8, -80512.516, 0.0, 9.999305, 9.999792 
2.4450393e+3, 2.5612026e+2, -630970.44, -570878.6, 15679.06, 0.0003032479, 0.31622368, -567033.7, -136978.88, 0.0, 9.998865, 9.999653 
2.4450079e+3, 2.6612005e+2, -595761.2, -486323.28, 12015.716, -0.013029536, 0.33269662, -485019.56, -152962.33, 0.0, 9.998364, 9.9998 
2.4449763e+3, 2.7612025e+2, -580775.75, -441293.1, 12917.779, -0.007285848, 0.3755114, -440106.84, -206049.61, 0.0, 9.99785, 9.999683 
2.4449453e+3, 2.861201e+2, -530213.94, -319699.56, 27271.127, 0.023936832, 0.38117632, -316224.1, -180165.58, 0.0, 9.997324, 10.000099 
2.4449143e+3, 2.961203e+2, -529788.0, -275345.9, 34556.805, 0.04651381, 0.39673626, -270736.13, -232680.83, 0.0, 9.996678, 10.000045 
2.444881e+3, 3.0611908e+2, -474208.34, -98724.52, -10233.336, -0.13002913, 0.21906605, -98445.836, -98445.836, 0.0, 9.9961815, 10.001165 
2.4448511e+3, 3.1612268e+2, -532494.56, -196192.06, 22774.69, 0.05536134, 0.47515446, -194656.77, -194656.77, 0.0, 9.996099, 10.0005245 
2.4554569e+3, 1.2617339e+2, -1205294.6, -1623066.8, -23739.785, 0.0036613187, 0.4441694, -1203949.9, 499591.7, 0.2383465, 10.005454, 9.998173 
2.4554263e+3, 1.3617057e+2, -1180480.9, -1592890.0, -4548.2236, 0.115217, 0.3523495, -1180430.8, 425135.28, 0.17143284, 10.004579, 9.997976 
2.4553938e+3, 1.4616837e+2, -1117884.6, -1528724.9, -15289.732, 0.10787961, 0.3465591, -1117316.4, 390270.03, 0.10378068, 10.004036, 9.997985 
2.4553606e+3, 1.5616676e+2, -1050051.1, -1475659.6, -18434.457, 0.037441466, 0.3923382, -1049254.1, 360348.3, 0.04920149, 10.003723, 9.9978285 
2.4553281e+3, 1.6616456e+2, -995566.44, -1406606.3, -9604.487, 0.036119588, 0.4017694, -995342.1, 316282.63, 0.016460055, 10.00334, 9.997814 
2.4552964e+3, 1.7616217e+2, -958683.1, -1345847.0, -19367.72, 0.07606423, 0.385982, -957716.6, 255932.72, 0.0031088777, 10.0029125, 9.997766 
2.4552642e+3, 1.8616019e+2, -864924.56, -1140716.5, -17209.463, 0.07646798, 0.36832836, -863854.8, 251812.75, 0.0001540495, 10.002408, 9.998742 
2.4552314e+3, 1.9615868e+2, -860476.06, -1107275.3, 108.131676, 0.052343667, 0.34834188, -860476.06, 157203.9, 0.00000000016280782, 10.001851, 9.998568 
2.4551992e+3, 2.0615709e+2, -845347.6, -1063975.0, 1614.7438, 0.05027585, 0.3514826, -845335.7, 74359.56, 0.0, 10.001344, 9.998437 
2.455167e+3, 2.161556e+2, -820958.75, -1006481.75, -16087.314, 0.061391465, 0.3655024, -819574.06, 2137.0347, 0.0, 10.000856, 9.998396 
2.4551348e+3, 2.261544e+2, -729127.56, -799856.9, -11890.349, 0.04609813, 0.36087614, -727182.2, -3459.3972, 0.0, 10.000335, 9.999392 
2.4551024e+3, 2.3615354e+2, -719841.2, -758584.7, 1143.8003, 0.015666641, 0.34236735, -719807.44, -94077.3, 0.0, 9.999784, 9.999268 
2.4550703e+3, 2.4615286e+2, -667119.06, -644012.7, 2382.4473, 0.008126399, 0.33932343, -643769.56, -116033.375, 0.0, 9.99931, 9.99961 
2.4550383e+3, 2.5615245e+2, -642233.9, -595266.5, -3272.9392, 0.013182532, 0.34532848, -595039.5, -165299.83, 0.0, 9.998867, 9.999485 
2.4550061e+3, 2.661521e+2, -598515.2, -492462.44, -9390.429, -0.008484101, 0.3549156, -491637.38, -159893.5, 0.0, 9.9983635, 9.999759 
2.4549736e+3, 2.7615187e+2, -580434.1, -441085.38, -6088.528, -0.041144334, 0.360316, -440819.84, -207072.33, 0.0, 9.99785, 9.999686 
2.4549423e+3, 2.8615186e+2, -511893.56, -282155.94, 2721.5745, 0.003179254, 0.36457422, -282123.72, -146376.11, 0.0, 9.997323, 10.00036 
2.4549112e+3, 2.9615232e+2, -523493.7, -264837.78, 8082.204, 0.07702053, 0.3812782, -264585.5, -226843.08, 0.0, 9.996687, 10.000114 
2.4548772e+3, 3.0615222e+2, -531154.8, -217680.05, -19230.285, -0.13048911, 0.3626649, -216504.77, -216504.77, 0.0, 9.996182, 10.000349 
2.4548465e+3, 3.161527e+2, -420240.56, 35365.84, -12104.205, 0.0031765986, 0.36748198, 35687.188, 35687.188, 0.0, 9.996103, 10.002113 
2.4654621e+3, 1.2620534e+2, -1220468.9, -1622677.4, 22494.705, 0.002383247, 0.42705458, -1219214.8, 484014.25, 0.22899245, 10.005206, 9.998288 
2.4654303e+3, 1.3620292e+2, -1177091.5, -1583375.4, 3587.7002, 0.09452762, 0.3655482, -1177059.9, 428189.25, 0.16431947, 10.004525, 9.998079 
2.4653977e+3, 1.4620079e+2, -1112636.4, -1532956.8, -8990.564, 0.09062481, 0.36511022, -1112444.1, 394824.8, 0.099088795, 10.0040865, 9.9979315 
2.4653642e+3, 1.5619901e+2, -1037595.1, -1473986.8, -13928.984, 0.039204303, 0.39926586, -1037150.94, 372136.34, 0.04666675, 10.003825, 9.99779 
2.4653316e+3, 1.6619681e+2, -988454.94, -1390421.9, -399.73404, 0.04230805, 0.40307963, -988454.56, 322855.03, 0.015427558, 10.003335, 9.997926 
2.4652994e+3, 1.7619449e+2, -981332.9, -1343099.3, 11475.074, 0.077117994, 0.3853849, -980969.25, 232363.53, 0.0028494168, 10.002703, 9.997882 
2.4652663e+3, 1.8619265e+2, -890454.0, -1146993.0, 5053.124, 0.07018305, 0.37226975, -890354.5, 224995.23, 0.00013361072, 10.00221, 9.998794 
2.4652332e+3, 1.9619125e+2, -863835.4, -1105304.3, -9924.769, 0.03764143, 0.3610968, -863428.1, 153932.94, 0.00000000021615258, 10.00181, 9.998603 
2.4652004e+3, 2.0618965e+2, -849550.2, -1067339.4, -1465.8815, 0.041507017, 0.36111507, -849540.3, 69836.36, 0.0, 10.001321, 9.998425 
2.465168e+3, 2.1618804e+2, -832218.44, -1010581.5, 13599.707, 0.068767756, 0.36530158, -831187.44, -9793.946, 0.0, 10.000779, 9.998403 
2.465135e+3, 2.2618689e+2, -738541.3, -796132.7, 19298.885, 0.051500484, 0.36122116, -732672.3, -9267.7, 0.0, 10.0002365, 9.999463 
2.4651021e+3, 2.3618618e+2, -730458.94, -757461.8, 14903.977, 0.00886648, 0.34908682, -723850.25, -98439.68, 0.0, 9.999687, 9.999321 
2.4650693e+3, 2.4618547e+2, -688272.7, -666438.56, 16560.707, 0.0007924285, 0.34849036, -657520.3, -130103.35, 0.0, 9.999219, 9.999497 
2.4650371e+3, 2.5618497e+2, -658378.8, -613461.9, 15170.325, 0.012893226, 0.35320663, -608818.3, -179396.27, 0.0, 9.998803, 9.99939 
2.4650043e+3, 2.661845e+2, -600591.2, -490997.56, 10840.668, -0.009714093, 0.35929653, -489935.53, -158508.66, 0.0, 9.998339, 9.999781 
2.4649714e+3, 2.7618426e+2, -585261.7, -442323.94, 18673.502, -0.04501786, 0.3633552, -439924.7, -206494.55, 0.0, 9.99781, 9.999699 
2.4649395e+3, 2.8618425e+2, -511279.88, -284126.47, 13824.163, -0.0057497825, 0.36806574, -283288.22, -147857.84, 0.0, 9.997337, 10.000339 
2.4649078e+3, 2.9618457e+2, -493789.8, -253010.25, -4231.6396, 0.057272542, 0.3719907, -252935.89, -215508.81, 0.0, 9.996907, 10.000086 
2.4648738e+3, 3.061848e+2, -524503.44, -242049.17, -376.08774, -0.08977905, 0.39780656, -242048.67, -242048.67, 0.0, 9.996353, 10.000096 
2.4648425e+3, 3.161843e+2, -446615.94, 76367.7, 16898.414, 0.023350917, 0.3331906, 76913.15, 76913.15, 0.0, 9.995691, 10.002594 
2.475468e+3, 1.2623808e+2, -1248063.8, -1685717.9, 2691.7327, 0.06869471, 0.37490267, -1248047.3, 454859.28, 0.21955363, 10.005179, 9.997736 
2.4754341e+3, 1.3623609e+2, -1203048.9, -1651058.0, -16409.605, 0.012144137, 0.41095257, -1202448.8, 402476.38, 0.15716945, 10.004521, 9.997588 
2.4754009e+3, 1.4623375e+2, -1113328.1, -1542034.8, -17808.115, 0.015975116, 0.4151188, -1112589.6, 394358.25, 0.09439593, 10.004093, 9.997869 
2.4753684e+3, 1.5623136e+2, -1038825.6, -1477253.8, -24078.172, 0.07259926, 0.39413393, -1037507.25, 371464.75, 0.044146784, 10.003815, 9.997775 
2.4753352e+3, 1.6622923e+2, -962922.06, -1335029.8, -23063.908, 0.07947787, 0.3850114, -961497.94, 349494.53, 0.014410535, 10.003323, 9.998314 
2.4753015e+3, 1.7622745e+2, -960047.56, -1297999.8, -10728.988, 0.050802037, 0.38153344, -959707.25, 253301.8, 0.0025988773, 10.002696, 9.998197 
2.4752681e+3, 1.8622577e+2, -916638.7, -1201497.4, -9241.956, 0.037693914, 0.39140952, -916339.2, 198686.19, 0.00011496107, 10.002207, 9.998423 
2.4752349e+3, 1.9622429e+2, -884725.06, -1147913.0, -24010.664, 0.03534959, 0.40866575, -882552.5, 134487.48, 0.00000000023303823, 10.001803, 9.998314 
2.4752016e+3, 2.0622256e+2, -820320.9, -1006452.25, -20971.31, 0.04069102, 0.3869622, -817987.3, 101068.81, 0.0, 10.001318, 9.998845 
2.4751684e+3, 2.1622087e+2, -807992.2, -960094.2, -5853.0386, 0.050389484, 0.33804166, -807767.25, 13304.342, 0.0, 10.000775, 9.998753 
2.475135e+3, 2.2621992e+2, -750147.4, -821302.7, -1063.8965, 0.039304256, 0.3497391, -750131.44, -27050.984, 0.0, 10.000239, 9.99929 
2.4751018e+3, 2.3621961e+2, -741138.1, -780823.06, -5367.9893, 0.017119642, 0.396519, -740424.9, -115341.19, 0.0, 9.99969, 9.999161 
2.4750686e+3, 2.4621873e+2, -691553.6, -674661.94, -113.23794, 0.005687235, 0.38675365, -674661.1, -147568.88, 0.0, 9.999223, 9.99944 
2.4750356e+3, 2.5621763e+2, -660389.56, -620257.5, -1596.7477, -0.0038093044, 0.33904156, -620194.06, -191091.23, 0.0, 9.998812, 9.99934 
2.4750027e+3, 2.6621723e+2, -594887.9, -479801.34, -10771.806, -0.017060868, 0.346987, -478801.8, -147694.84, 0.0, 9.99834, 9.999859 
2.4749695e+3, 2.7621743e+2, -584643.5, -441349.25, -2333.054, -0.01862066, 0.3905012, -441311.28, -208205.97, 0.0, 9.997809, 9.999706 
2.4749367e+3, 2.8621715e+2, -536161.9, -336489.9, -5125.723, -0.004845354, 0.3878559, -336358.4, -201250.05, 0.0, 9.997338, 9.99998 
2.4749038e+3, 2.962167e+2, -503619.66, -274366.5, -24376.906, -0.021446709, 0.34853122, -271803.13, -234690.16, 0.0, 9.996909, 9.99994 
2.4748708e+3, 3.0621696e+2, -496548.22, -181077.89, -27092.2, 0.0031215402, 0.35570228, -178768.16, -178768.16, 0.0, 9.99634, 10.000521 
2.4748379e+3, 3.162183e+2, -488694.8, -18444.406, 12216.474, -0.016635666, 0.44809607, -18127.254, -18127.254, 0.0, 9.995706, 10.001946 
2.4854732e+3, 1.2627144e+2, -1260066.4, -1710980.0, -6279.3003, 0.07172689, 0.38119158, -1259978.9, 442600.84, 0.20991535, 10.005103, 9.99757 
2.4854384e+3, 1.3626933e+2, -1151816.4, -1639582.6, -2817.0715, -0.019928476, 0.42169654, -1151800.1, 452799.9, 0.14986722, 10.004974, 9.997447 
2.4854048e+3, 1.4626694e+2, -1075450.8, -1526591.4, 2158.8877, -0.012903249, 0.42779964, -1075440.5, 431183.4, 0.089613035, 10.004384, 9.99783 
2.4853721e+3, 1.5626451e+2, -1077112.3, -1497918.4, -2941.348, 0.07280946, 0.40778866, -1077091.8, 331556.78, 0.04159139, 10.00354, 9.997764 
2.4853384e+3, 1.6626243e+2, -998256.0, -1333840.9, -7655.576, 0.079550795, 0.39527208, -998081.44, 312586.75, 0.013389065, 10.002994, 9.99848 
2.485304e+3, 1.7626077e+2, -958932.6, -1283154.3, -11071.417, 0.032118853, 0.3873212, -958555.0, 254127.98, 0.0023520829, 10.00264, 9.998327 
2.4852702e+3, 1.8625914e+2, -926912.44, -1216009.9, -3278.6108, 0.02525737, 0.40307298, -926875.25, 187823.73, 0.00009743898, 10.002179, 9.998336 
2.4852365e+3, 1.962577e+2, -909773.2, -1163895.9, 846.95825, 0.045332786, 0.4310736, -909770.3, 106944.07, 0.00000000017417703, 10.001656, 9.998272 
2.4852028e+3, 2.0625603e+2, -828997.0, -987119.6, 1858.4055, 0.0443947, 0.40419653, -828975.1, 89754.516, 0.0, 10.001161, 9.999052 
2.4851689e+3, 2.1625437e+2, -810033.9, -942819.44, 2619.9739, 0.030611092, 0.34080553, -809982.2, 10761.113, 0.0, 10.000683, 9.998915 
2.4851352e+3, 2.2625339e+2, -755402.7, -839921.8, 4041.5688, 0.025616664, 0.35034513, -755209.9, -32457.346, 0.0, 10.000275, 9.999145 
2.4851015e+3, 2.3625301e+2, -718099.44, -782671.8, 267.99033, 0.029076608, 0.40369183, -718098.4, -93340.95, 0.0, 9.999907, 9.9990425 
2.4850681e+3, 2.4625215e+2, -669780.2, -657698.56, 9396.538, 0.021165112, 0.40017074, -652568.56, -125802.82, 0.0, 9.999346, 9.999497 
2.4850345e+3, 2.5625116e+2, -680596.1, -625528.4, 17384.684, 0.0027230303, 0.35695022, -620499.4, -191724.42, 0.0, 9.998656, 9.999378 
2.485001e+3, 2.662506e+2, -615659.8, -500371.38, 8965.303, -0.0109761655, 0.3564516, -499678.38, -168898.08, 0.0, 9.998245, 9.999762 
2.4849676e+3, 2.762506e+2, -564364.06, -440621.8, 3018.088, -0.006147866, 0.3844914, -440548.25, -207767.03, 0.0, 9.997992, 9.999621 
2.484934e+3, 2.8625038e+2, -522143.3, -332372.72, 7335.9556, -0.005384488, 0.39615613, -332089.56, -197306.25, 0.0, 9.997448, 9.999954 
2.4849004e+3, 2.962502e+2, -526744.6, -284874.97, 12964.6045, -0.0501605, 0.38379917, -284182.03, -247396.6, 0.0, 9.996747, 9.999948 
2.4848674e+3, 3.0624983e+2, -492622.84, -166807.31, -2978.7146, 0.021745257, 0.32387018, -166780.08, -166780.08, 0.0, 9.996317, 10.000628 
2.4848327e+3, 3.1625062e+2, -469066.34, -11227.608, 26529.438, -0.07929671, 0.35637847, -9695.489, -9695.489, 0.0, 9.9958515, 10.001924 
2.4954775e+3, 1.2630537e+2, -1244415.3, -1682843.8, -10553.647, 0.021844955, 0.44089344, -1244161.4, 458087.75, 0.19994354, 10.005076, 9.9978075 
2.4954434e+3, 1.3630274e+2, -1140555.4, -1613530.4, -9749.436, -0.012546026, 0.40503463, -1140354.5, 463918.75, 0.14230329, 10.004937, 9.997644 
2.4954093e+3, 1.4630039e+2, -1079440.1, -1536090.8, -26639.04, -0.0064902795, 0.4101743, -1077891.4, 428405.16, 0.08466737, 10.004359, 9.997781 
2.4953753e+3, 1.5629838e+2, -1080227.5, -1504354.4, -30599.521, 0.041863795, 0.43711415, -1078031.1, 330286.5, 0.038965166, 10.003528, 9.997726 
2.4953409e+3, 1.6629633e+2, -1001055.56, -1340579.8, -19785.682, 0.0465768, 0.42948878, -999906.44, 310431.06, 0.012352099, 10.002992, 9.998436 
2.4953064e+3, 1.762944e+2, -960955.1, -1288197.3, -23997.246, 0.019538863, 0.4014407, -959204.75, 253150.1, 0.0021068347, 10.002641, 9.998293 
2.4952722e+3, 1.8629277e+2, -915275.5, -1192683.3, -22150.463, 0.030070208, 0.40875202, -913517.94, 200852.84, 0.00008074701, 10.00218, 9.998496 
2.4952385e+3, 1.9629145e+2, -898912.5, -1141374.9, -17694.287, 0.064961016, 0.4330142, -897628.06, 118756.55, 0.00000000005180779, 10.001653, 9.99843 
2.495204e+3, 2.0628995e+2, -827315.0, -984648.75, -15308.455, 0.051802766, 0.41474426, -825839.4, 92558.484, 0.0, 10.001163, 9.999069 
2.4951695e+3, 2.1628848e+2, -809976.56, -944071.3, -13125.472, 0.008444572, 0.36924124, -808703.9, 11705.361, 0.0, 10.000686, 9.998906 
2.4951352e+3, 2.2628723e+2, -765264.56, -862096.56, -8636.056, 0.009947007, 0.36041898, -764500.44, -42079.016, 0.0, 10.000279, 9.998991 
2.4951015e+3, 2.3628628e+2, -725520.56, -799899.2, -15134.77, 0.040936545, 0.37274513, -722558.9, -98126.51, 0.0, 9.999912, 9.998922 
2.4950676e+3, 2.4628569e+2, -656729.1, -631694.5, -18328.006, 0.045982257, 0.39095858, -622017.25, -95579.28, 0.0, 9.999349, 9.999675 
2.4950331e+3, 2.562855e+2, -671660.9, -608191.94, -7740.028, 0.031217875, 0.40884778, -607261.7, -178822.67, 0.0, 9.998659, 9.999496 
2.4949993e+3, 2.6628464e+2, -634656.94, -541449.56, -1761.4713, 0.0077869785, 0.3865343, -541416.3, -210968.58, 0.0, 9.998249, 9.999478 
2.4949653e+3, 2.762836e+2, -575236.5, -466204.84, -10423.812, -0.01007488, 0.34183854, -465217.25, -232758.2, 0.0, 9.998002, 9.999442 
2.4949317e+3, 2.8628394e+2, -500123.53, -286258.66, -21541.51, -0.0070599397, 0.39461008, -284110.47, -149654.66, 0.0, 9.997444, 10.000274 
2.4948972e+3, 2.962851e+2, -518774.13, -264358.22, -10642.443, -0.026343174, 0.4905546, -263913.8, -227470.19, 0.0, 9.996727, 10.000098 
2.494863e+3, 3.062831e+2, -513517.13, -211567.36, -17586.377, -0.04580164, 0.2806146, -210546.53, -210546.53, 0.0, 9.99632, 10.000321 
2.4948296e+3, 3.1628484e+2, -465933.38, -6894.9087, -27438.541, 0.019712355, 0.42705694, -5260.617, -5260.617, 0.0, 9.995867, 10.001943 
2.5054818e+3, 1.2633939e+2, -1243312.1, -1671148.1, 6400.9297, -0.027788954, 0.4595994, -1243216.4, 458700.56, 0.18955764, 10.004958, 9.99796 
2.5054482e+3, 1.3633676e+2, -1205384.0, -1635421.9, 296.28973, 0.01803571, 0.4100277, -1205383.8, 398556.9, 0.13443096, 10.004315, 9.997794 
2.5054133e+3, 1.4633448e+2, -1144183.9, -1556596.6, -17185.508, 0.018561432, 0.40974542, -1143469.0, 362493.88, 0.079537325, 10.003798, 9.99791 
2.505378e+3, 1.563326e+2, -1093973.4, -1499179.5, -7746.8213, 0.010087812, 0.43610543, -1093825.3, 314157.25, 0.03626245, 10.003372, 9.997835 
2.5053436e+3, 1.663306e+2, -1001759.9, -1344435.9, 17544.426, 0.014190846, 0.43408808, -1000863.94, 309137.7, 0.011300906, 10.003003, 9.998402 
2.505309e+3, 1.7632875e+2, -958292.0, -1288530.3, 13131.302, 0.02089781, 0.4139803, -957770.7, 254248.19, 0.0018639815, 10.002669, 9.998274 
2.5052744e+3, 1.8632706e+2, -906767.75, -1180211.5, 5446.147, 0.030838858, 0.41359738, -906659.3, 207375.92, 0.00006485423, 10.002205, 9.998569 
2.5052398e+3, 1.9632566e+2, -892097.25, -1130689.5, 3699.7266, 0.044695888, 0.4226001, -892039.94, 124009.62, 0.0000000000010010511, 10.001667, 9.998496 
2.505205e+3, 2.0632422e+2, -813253.75, -976406.9, 6812.313, 0.035604086, 0.40765968, -812969.8, 105092.3, 0.0, 10.001254, 9.999081 
2.50517e+3, 2.1632291e+2, -776233.7, -926149.4, 6352.4634, 0.012555663, 0.37677398, -775965.0, 44107.07, 0.0, 10.000916, 9.998917 
2.5051355e+3, 2.2632164e+2, -745901.3, -855539.7, 14785.808, 0.01571088, 0.36674303, -743942.3, -21857.81, 0.0, 10.000427, 9.998963 
2.5051013e+3, 2.3632053e+2, -737781.3, -808590.9, 19197.71, 0.03781109, 0.36665714, -732911.4, -108814.45, 0.0, 9.999843, 9.998895 
2.505067e+3, 2.463199e+2, -652926.75, -636713.75, 7669.917, 0.046879984, 0.38603193, -633660.4, -107557.28, 0.0, 9.999407, 9.999611 
2.505032e+3, 2.5631973e+2, -619748.4, -588570.9, -286.0205, 0.046060324, 0.41566053, -588568.25, -160464.34, 0.0, 9.999042, 9.999446 
2.5049976e+3, 2.6631892e+2, -604400.6, -524217.56, 14826.896, 0.01698694, 0.39785478, -521563.72, -191451.5, 0.0, 9.998447, 9.999501 
2.5049633e+3, 2.7631786e+2, -614522.94, -482811.97, 28015.627, -0.020013845, 0.34847263, -477100.56, -244976.95, 0.0, 9.997724, 9.999462 
2.504929e+3, 2.8631812e+2, -516182.84, -299556.28, 8547.893, -0.0054270197, 0.3947873, -299219.5, -165098.2, 0.0, 9.997359, 10.000222 
2.5048944e+3, 2.9631928e+2, -456478.13, -244102.58, -7953.974, 0.014788495, 0.49584508, -243805.11, -207695.66, 0.0, 9.997199, 10.000009 
2.504859e+3, 3.0631727e+2, -477645.13, -198934.0, -16093.504, -0.082995415, 0.29403996, -198007.8, -198007.8, 0.0, 9.996586, 10.000279 
2.5048256e+3, 3.163189e+2, -490909.8, -20426.549, 1487.6537, 0.03704554, 0.43035725, -20421.844, -20421.844, 0.0, 9.99571, 10.001921 
2.5154862e+3, 1.263735e+2, -1238362.4, -1666439.8, -13001.01, -0.08475979, 0.44138032, -1237967.9, 463615.22, 0.17876825, 10.004927, 9.998008 
2.515453e+3, 1.3637136e+2, -1201119.5, -1626254.3, -18881.098, 0.06899466, 0.43446207, -1200282.5, 403320.2, 0.1262867, 10.004282, 9.997873 
2.5154176e+3, 1.463692e+2, -1124686.5, -1516635.1, -31656.74, 0.06038018, 0.42573377, -1122146.1, 383477.28, 0.07425927, 10.003789, 9.998191 
2.515381e+3, 1.5636717e+2, -1074590.9, -1463634.8, -22555.729, -0.024569103, 0.41034466, -1073287.5, 334355.78, 0.033506654, 10.0033865, 9.998074 
2.515346e+3, 1.6636533e+2, -1002557.7, -1348990.0, 5321.341, -0.01929558, 0.41366583, -1002476.0, 307184.88, 0.0102464175, 10.00301, 9.998368 
2.5153118e+3, 1.7636374e+2, -961688.44, -1292742.9, -97.80642, 0.033904925, 0.4255091, -961688.4, 249987.25, 0.0016265179, 10.002654, 9.998254 
2.5152767e+3, 1.8636197e+2, -909325.56, -1183662.9, -14243.543, 0.027175358, 0.4171608, -908588.0, 205104.92, 0.000050066847, 10.002194, 9.998551 
2.515241e+3, 1.9636025e+2, -893435.44, -1134452.1, -14275.054, -0.013572888, 0.39804083, -892592.9, 123117.04, 0.0, 10.001669, 9.998471 
2.5152057e+3, 2.0635879e+2, -813738.06, -979031.06, -5160.863, -0.002485825, 0.38351518, -813577.06, 104145.79, 0.0, 10.001259, 9.999062 
2.5151712e+3, 2.1635763e+2, -776996.4, -927124.0, -6725.931, 0.039020874, 0.36833376, -776695.6, 43036.34, 0.0, 10.00091, 9.998914 
2.5151363e+3, 2.2635655e+2, -738123.4, -839878.4, -6709.6113, 0.04057821, 0.37208718, -737682.9, -15940.569, 0.0, 10.000427, 9.999072 
2.5151008e+3, 2.3635566e+2, -732513.44, -800096.75, -1567.0583, 0.01886543, 0.3834823, -732477.1, -108725.18, 0.0, 9.99985, 9.998951 
2.515066e+3, 2.4635468e+2, -674476.75, -683282.4, -6795.9707, 0.02451512, 0.38281488, -670782.06, -145020.02, 0.0, 9.999413, 9.9992895 
2.5150314e+3, 2.5635386e+2, -635113.94, -622466.5, -17071.49, 0.04499191, 0.37707403, -610585.1, -182814.8, 0.0, 9.999047, 9.999211 
2.5149962e+3, 2.6635343e+2, -581514.75, -476722.1, -14513.39, 0.015568782, 0.39108887, -474749.2, -144974.77, 0.0, 9.9984455, 9.999828 
2.5149605e+3, 2.7635336e+2, -600396.9, -452100.13, 2414.824, -0.039111093, 0.40653515, -452060.8, -220285.55, 0.0, 9.997715, 9.999678 
2.5149262e+3, 2.8635287e+2, -547013.75, -363577.4, 2119.2454, -0.0005393569, 0.3960706, -363552.94, -229772.5, 0.0, 9.997356, 9.999785 
2.5148922e+3, 2.9635257e+2, -475950.94, -289154.88, -17144.105, 0.0797534, 0.3968783, -287594.44, -251810.6, 0.0, 9.997216, 9.999693 
2.5148556e+3, 3.0635232e+2, -461529.4, -166670.67, -53670.027, -0.099321835, 0.36757562, -157205.52, -157205.52, 0.0, 9.996588, 10.000502 
2.5148207e+3, 3.1635207e+2, -460370.2, 45518.676, 48056.234, -0.026507588, 0.29504916, 50043.246, 50043.246, 0.0, 9.995697, 10.002381 
2.5254914e+3, 1.2640867e+2, -1211444.1, -1651819.6, 7808.42, -0.058037918, 0.43949857, -1211305.6, 489933.3, 0.16765177, 10.005072, 9.998057 
2.525457e+3, 1.3640663e+2, -1252739.5, -1651095.5, 8034.399, 0.060390346, 0.44018847, -1252577.6, 350679.94, 0.1179515, 10.003825, 9.997922 
2.525421e+3, 1.464045e+2, -1155628.3, -1528328.6, 14907.831, 0.04496715, 0.4310553, -1155032.9, 350244.63, 0.06889525, 10.003527, 9.998231 
2.5253847e+3, 1.5640247e+2, -1014971.1, -1430570.8, 5364.566, -0.030122107, 0.41043875, -1014901.9, 392395.4, 0.03073253, 10.003789, 9.998104 
2.5253493e+3, 1.6640058e+2, -968581.0, -1333861.1, 7910.481, -0.02111757, 0.40935853, -968409.75, 340905.47, 0.009202718, 10.003251, 9.998354 
2.525314e+3, 1.7639896e+2, -1018775.44, -1319268.8, 5474.4473, 0.03289694, 0.41845116, -1018675.75, 192654.86, 0.001398367, 10.002259, 9.9982605 
2.5252786e+3, 1.8639727e+2, -952413.8, -1194572.1, 8957.682, 0.0236125, 0.4133765, -952082.9, 161264.05, 0.00003693245, 10.00186, 9.998636 
2.5252426e+3, 1.9639568e+2, -869572.7, -1116181.1, 14019.995, -0.021741781, 0.39925367, -868778.2, 146584.16, 0.0, 10.001807, 9.998528 
2.525207e+3, 2.063942e+2, -802256.3, -987027.9, 14739.199, -0.008526555, 0.38692722, -801087.94, 116288.04, 0.0, 10.001399, 9.998938 
2.5251722e+3, 2.1639293e+2, -802439.75, -949431.94, 5697.6167, 0.040390823, 0.37312967, -802219.25, 17167.822, 0.0, 10.00078, 9.998822 
2.5251365e+3, 2.2639188e+2, -745985.1, -833348.4, 2743.4602, 0.042836607, 0.3794361, -745899.06, -24502.15, 0.0, 10.000331, 9.999163 
2.5251007e+3, 2.3639111e+2, -708931.0, -780103.94, 6489.898, 0.01915876, 0.39508048, -708344.06, -84939.42, 0.0, 9.999979, 9.999024 
2.5250655e+3, 2.4639004e+2, -662301.44, -685796.6, 13802.247, 0.022298608, 0.38663203, -655924.25, -130508.87, 0.0, 9.999535, 9.999213 
2.52503e+3, 2.5638893e+2, -641636.6, -632703.0, 20646.33, 0.040591236, 0.36426884, -616045.8, -188619.58, 0.0, 9.999036, 9.9991455 
2.5249943e+3, 2.6638854e+2, -561231.8, -470452.47, 8107.86, 0.018016212, 0.38415018, -469734.03, -140303.6, 0.0, 9.998603, 9.999794 
2.5249586e+3, 2.7638867e+2, -535095.75, -424238.38, -1836.5946, -0.023110798, 0.42243165, -424207.94, -192778.31, 0.0, 9.998182, 9.999642 
2.5249237e+3, 2.8638813e+2, -504700.97, -344910.06, 15153.873, 0.0067115547, 0.4096161, -343485.66, -210050.48, 0.0, 9.997659, 9.999765 
2.5248894e+3, 2.9638755e+2, -498320.0, -301928.13, 24873.9, 0.06718553, 0.38128173, -298826.72, -263385.44, 0.0, 9.997077, 9.999669 
2.5248522e+3, 3.063873e+2, -476169.66, -180484.81, -29035.895, -0.06380655, 0.35906914, -177660.5, -177660.5, 0.0, 9.996522, 10.000436 
2.524817e+3, 3.1638882e+2, -411550.2, 93921.96, 73964.16, 0.04875631, 0.47024918, 104522.59, 104522.59, 0.0, 9.995923, 10.002606 
2.5354975e+3, 1.2644476e+2, -1209365.4, -1646449.9, -32066.725, 0.033771504, 0.45251992, -1207025.4, 493860.22, 0.15631132, 10.005003, 9.998126 
2.5354603e+3, 1.3644256e+2, -1242610.1, -1643848.6, -26694.594, -0.001902696, 0.4297311, -1240842.0, 362063.47, 0.10950732, 10.003862, 9.997955 
2.535424e+3, 1.4644042e+2, -1161129.1, -1554208.8, 24470.922, -0.020390395, 0.42726365, -1159611.6, 345314.2, 0.06350247, 10.003562, 9.998038 
2.5353888e+3, 1.5643843e+2, -1029855.56, -1456944.4, 8656.972, -0.0110416, 0.43252367, -1029680.1, 377264.9, 0.027972592, 10.003753, 9.997942 
2.5353524e+3, 1.6643636e+2, -972475.8, -1336783.1, -28940.945, 0.0041067353, 0.41876674, -970191.06, 338773.97, 0.008183738, 10.003222, 9.998349 
2.535316e+3, 1.7643438e+2, -1015202.56, -1315867.5, -26301.205, 0.018149624, 0.39491206, -1012919.1, 198064.53, 0.0011838797, 10.002274, 9.998279 
2.5352803e+3, 1.8643294e+2, -939008.75, -1170498.9, 7561.5513, 0.019585127, 0.4035933, -938762.0, 174235.4, 0.000025994234, 10.001873, 9.9987955 
2.5352445e+3, 1.9643189e+2, -863315.44, -1101129.5, 9296.814, 0.014284448, 0.42704368, -862952.56, 152054.69, 0.0, 10.001796, 9.998637 
2.5352085e+3, 2.0643036e+2, -818522.2, -1019655.5, -8438.1455, 0.014018776, 0.41712248, -818168.8, 98853.21, 0.0, 10.001391, 9.998719 
2.5351727e+3, 2.164287e+2, -814419.1, -976099.94, -14900.188, 0.016225673, 0.38668162, -813057.44, 5980.663, 0.0, 10.000786, 9.998638 
2.5351366e+3, 2.2642754e+2, -741242.9, -825764.1, -9591.358, 0.023775907, 0.3866901, -740168.1, -19119.1, 0.0, 10.000339, 9.999211 
2.535101e+3, 2.3642683e+2, -703642.8, -770525.0, -7969.3594, 0.0362941, 0.40312597, -702706.4, -79650.98, 0.0, 9.999982, 9.99909 
2.5350648e+3, 2.4642593e+2, -650367.2, -661728.5, -6327.9707, 0.03854953, 0.39911127, -647544.1, -122480.43, 0.0, 9.9995365, 9.999378 
2.535029e+3, 2.5642502e+2, -634736.6, -619897.75, 1628.1522, 0.030462585, 0.37816566, -619721.2, -192649.13, 0.0, 9.999041, 9.999232 
2.5349933e+3, 2.664242e+2, -590344.44, -531708.6, -8712.1045, 0.024774974, 0.37597853, -530441.56, -201360.48, 0.0, 9.998604, 9.999374 
2.5349572e+3, 2.7642366e+2, -555546.44, -468558.78, -19817.0, 0.030044237, 0.39391145, -464256.94, -233169.08, 0.0, 9.998188, 9.999336 
2.5349215e+3, 2.864238e+2, -478105.6, -290648.22, -9936.227, 0.013062893, 0.4365153, -290123.0, -157036.6, 0.0, 9.997661, 10.000138 
2.534885e+3, 2.9642397e+2, -482164.75, -266980.1, 358.0697, -0.03992475, 0.45121095, -266979.5, -231896.75, 0.0, 9.997068, 9.999914 
2.53485e+3, 3.0642202e+2, -499296.66, -225762.67, -51076.86, 0.049668707, 0.2665699, -216536.33, -216536.33, 0.0, 9.996508, 10.000133 
2.5348127e+3, 3.164255e+2, -455261.78, -6963.877, 3640.9922, 0.022033539, 0.59886354, -6934.3076, -6934.3076, 0.0, 9.995951, 10.001908 
2.5455025e+3, 1.2648134e+2, -1309729.5, -1718916.1, 3802.0947, 0.08641748, 0.44995156, -1309694.1, 390832.22, 0.14484853, 10.004237, 9.997931 
2.545464e+3, 1.3647899e+2, -1097365.3, -1589019.6, -7378.6904, -0.041238092, 0.43272534, -1097254.5, 505293.9, 0.101022206, 10.005029, 9.997779 
2.5454274e+3, 1.4647675e+2, -1055577.3, -1511367.4, 25443.795, -0.056552228, 0.43220922, -1054161.4, 450408.8, 0.05812608, 10.004366, 9.997943 
2.5453922e+3, 1.5647466e+2, -1155163.0, -1527350.1, 16950.998, 0.010750095, 0.43825075, -1154392.6, 252197.69, 0.025253745, 10.0029, 9.997869 
2.5453556e+3, 1.6647258e+2, -1069580.3, -1378911.8, -5221.829, 0.021643665, 0.42472616, -1069492.1, 239118.14, 0.0072019408, 10.002528, 9.998394 
2.5453183e+3, 1.7647065e+2, -939573.8, -1276550.0, -1078.901, -0.004013565, 0.40067557, -939570.4, 271058.16, 0.0009868774, 10.002783, 9.9983015 
2.5452822e+3, 1.8646917e+2, -881361.44, -1151387.4, 17663.902, 0.006422185, 0.40868735, -880210.8, 232432.0, 0.000017543054, 10.002309, 9.998715 
2.5452465e+3, 1.9646803e+2, -921205.25, -1134415.5, 3212.8933, 0.038960926, 0.43223, -921156.9, 93496.71, 0.0, 10.001425, 9.998587 
2.5452098e+3, 2.0646656e+2, -865028.44, -1032403.0, -2645.2476, 0.033828862, 0.42579955, -864986.6, 51681.188, 0.0, 10.001034, 9.998802 
2.5451732e+3, 2.1646503e+2, -789170.56, -955646.6, 10796.3545, 0.006909377, 0.40099117, -788473.3, 30209.375, 0.0, 10.000927, 9.998709 
2.545137e+3, 2.2646384e+2, -707071.56, -813405.6, 18088.857, 0.011334595, 0.39685982, -704078.7, 16615.2, 0.0, 10.000594, 9.999172 
2.5451007e+3, 2.36463e+2, -685686.25, -764720.75, 13435.444, 0.036546227, 0.4034804, -683464.75, -60763.316, 0.0, 10.00012, 9.999062 
2.5450644e+3, 2.464621e+2, -636794.6, -651106.06, 3585.753, 0.039252616, 0.40062895, -635946.5, -111237.03, 0.0, 9.999614, 9.999413 
2.545028e+3, 2.564613e+2, -627727.7, -613176.5, 1823.6757, 0.026073484, 0.38788185, -612951.44, -186234.81, 0.0, 9.999077, 9.999259 
2.5449917e+3, 2.6646045e+2, -591585.3, -535766.5, 9359.748, 0.026524287, 0.38159773, -534238.8, -205512.78, 0.0, 9.998612, 9.999341 
2.5449556e+3, 2.7645975e+2, -557804.4, -472146.9, 25905.7, 0.045260042, 0.3866056, -464921.63, -234187.19, 0.0, 9.998185, 9.999311 
2.544919e+3, 2.864599e+2, -476738.72, -287559.72, 24089.594, 0.01446998, 0.4331426, -284540.4, -151807.95, 0.0, 9.997661, 10.000159 
2.544882e+3, 2.964603e+2, -477254.53, -260473.92, 8801.996, -0.070183106, 0.465321, -260117.11, -225390.45, 0.0, 9.997084, 9.999951 
2.5448465e+3, 3.064581e+2, -468368.94, -202300.42, -29235.643, 0.07732064, 0.25098857, -199125.88, -199125.88, 0.0, 9.996686, 10.000206 
2.5448078e+3, 3.164593e+2, -464192.3, -84181.375, 41888.38, -0.056645725, 0.35242856, -79618.82, -79618.82, 0.0, 9.996213, 10.0012455 
2.5555068e+3, 1.2651843e+2, -1325740.5, -1776534.5, 29690.666, 0.102891356, 0.43797633, -1323793.4, 376368.0, 0.13336298, 10.00427, 9.997519 
2.5554687e+3, 1.3651595e+2, -1122652.5, -1642922.0, 9189.225, -0.06343494, 0.4474833, -1122490.3, 479696.34, 0.09256305, 10.004972, 9.997425 
2.5554317e+3, 1.4651349e+2, -1059062.9, -1518615.0, -27284.4, -0.06945533, 0.44408566, -1057448.6, 446762.16, 0.052809723, 10.004334, 9.997911 
2.555395e+3, 1.5651119e+2, -1150745.6, -1527170.8, -27730.787, 0.03324288, 0.42996126, -1148713.8, 257519.19, 0.022601388, 10.00293, 9.997857 
2.555358e+3, 1.6650926e+2, -1060388.4, -1366469.8, 5488.1235, 0.031219874, 0.4290586, -1060290.0, 247961.19, 0.006268432, 10.002554, 9.998467 
2.555321e+3, 1.7650771e+2, -940263.8, -1275551.0, 2714.8865, -0.03395368, 0.43424946, -940241.8, 270023.9, 0.0008097287, 10.002769, 9.998316 
2.5552842e+3, 1.8650588e+2, -903614.94, -1196364.9, -15358.38, -0.015202437, 0.42737758, -902811.44, 209472.08, 0.000011470139, 10.0023, 9.998413 
2.5552478e+3, 1.9650409e+2, -933596.75, -1163598.4, -24599.174, 0.05179248, 0.41391382, -930995.2, 83306.2, 0.0, 10.001437, 9.998382 
2.5552112e+3, 2.065028e+2, -838894.56, -981322.25, -5510.0933, 0.050746955, 0.41396633, -838681.7, 77631.8, 0.0, 10.001045, 9.999148 
2.555174e+3, 2.165019e+2, -769901.1, -915152.1, 5836.026, 0.010360915, 0.41825816, -769667.06, 48654.016, 0.0, 10.000922, 9.99899 
2.5551376e+3, 2.2650073e+2, -716466.7, -832165.7, 785.7795, 0.0041846386, 0.41141653, -716461.3, 3870.5796, 0.0, 10.000589, 9.999046 
2.555101e+3, 2.3649955e+2, -693860.75, -782959.25, -4766.398, 0.018244147, 0.39538336, -693606.5, -71263.16, 0.0, 10.000124, 9.998937 
2.555064e+3, 2.4649853e+2, -644018.4, -666987.6, -17432.148, 0.025050264, 0.39007354, -634627.75, -110274.4, 0.0, 9.999616, 9.999304 
2.555027e+3, 2.5649777e+2, -630358.8, -619859.1, -18763.395, 0.02616486, 0.3921881, -605625.0, -179264.28, 0.0, 9.99908, 9.999213 
2.5549904e+3, 2.6649722e+2, -566778.4, -484886.72, -7993.1987, 0.02127543, 0.40218237, -484113.8, -155747.94, 0.0, 9.998613, 9.999691 
2.5549534e+3, 2.764969e+2, -539150.56, -434652.5, 8028.384, 0.01807873, 0.40506175, -434039.3, -203669.94, 0.0, 9.998189, 9.999569 
2.5549164e+3, 2.8649637e+2, -499914.6, -335792.44, 1231.8928, 0.013394984, 0.39590377, -335783.2, -203409.19, 0.0, 9.997658, 9.99983 
2.5548798e+3, 2.9649627e+2, -489459.6, -285194.4, -10415.631, -0.01109332, 0.4120573, -284664.7, -250290.2, 0.0, 9.997078, 9.999786 
2.5548422e+3, 3.0649558e+2, -445122.34, -156778.4, -45102.734, -0.011205907, 0.32921723, -149888.1, -149888.1, 0.0, 9.996695, 10.000516 
2.5548047e+3, 3.1649584e+2, -438792.5, -30719.219, 61550.887, 0.005850015, 0.31957617, -21637.436, -21637.436, 0.0, 9.996215, 10.00161 
2.565511e+3, 1.2655537e+2, -1186697.0, -1697752.6, 14250.492, 0.015727816, 0.4280341, -1186300.0, 513499.16, 0.121977895, 10.005289, 9.997572 
2.5654736e+3, 1.3655305e+2, -1227243.5, -1694055.5, 19266.07, -0.020924628, 0.44867235, -1226449.8, 375373.03, 0.08421399, 10.0041275, 9.997482 
2.565436e+3, 1.4655066e+2, -1137759.1, -1553262.0, -14786.59, -0.024121936, 0.44546685, -1137233.6, 366612.75, 0.04760453, 10.003725, 9.997966 
2.5653982e+3, 1.5654834e+2, -1029360.56, -1463780.8, -8275.914, 0.009724047, 0.42534605, -1029202.94, 376665.6, 0.020041786, 10.00376, 9.997891 
2.565361e+3, 1.665464e+2, -969901.44, -1333319.3, 29912.154, 0.008217791, 0.42751774, -967455.9, 340431.22, 0.0053926096, 10.003224, 9.998372 
2.5653234e+3, 1.7654483e+2, -1001862.44, -1312940.4, 14886.232, -0.017828044, 0.44072786, -1001151.7, 208750.53, 0.00065313, 10.00238, 9.998246 
2.5652865e+3, 1.8654297e+2, -946398.5, -1209943.1, 3519.1924, -0.007190065, 0.42929322, -946351.5, 165568.81, 0.000007326987, 10.001979, 9.998474 
2.565249e+3, 1.9654112e+2, -873118.0, -1128104.9, 19208.404, 0.026290325, 0.40496048, -871679.1, 142259.31, 0.0, 10.001827, 9.998437 
2.5652122e+3, 2.0653985e+2, -794009.3, -959483.6, 34789.43, 0.03559758, 0.40666598, -786992.7, 128957.43, 0.0, 10.001355, 9.999147 
2.565175e+3, 2.1653904e+2, -801531.06, -929350.6, 20380.896, 0.029877793, 0.42014268, -798360.0, 19596.951, 0.0, 10.000703, 9.998997 
2.565138e+3, 2.2653788e+2, -768967.7, -851703.7, 13121.376, 0.020371241, 0.4102847, -766936.56, -46968.836, 0.0, 10.000206, 9.999096 
2.5651005e+3, 2.3653664e+2, -737909.94, -798135.2, 20710.604, 0.011553984, 0.3852498, -731475.3, -109495.86, 0.0, 9.999799, 9.998987 
2.5650632e+3, 2.4653567e+2, -666382.4, -676314.4, 19404.504, 0.019639947, 0.38425016, -651318.5, -127329.61, 0.0, 9.999459, 9.999313 
2.565026e+3, 2.5653505e+2, -620745.56, -613948.8, 26023.809, 0.03502199, 0.39898244, -591102.44, -165107.19, 0.0, 9.999144, 9.999222 
2.5649887e+3, 2.6653448e+2, -554514.4, -478902.0, 21600.727, 0.022273097, 0.4060266, -473166.25, -145165.7, 0.0, 9.998699, 9.99969 
2.5649515e+3, 2.76534e+2, -540091.7, -432967.44, 10345.122, 0.0018036937, 0.39487273, -431977.53, -201972.5, 0.0, 9.998176, 9.999586 
2.564914e+3, 2.8653345e+2, -492982.63, -320862.6, 11899.765, 0.011121676, 0.3746699, -320043.78, -188033.72, 0.0, 9.99766, 9.99993 
2.564877e+3, 2.9653347e+2, -477695.66, -269645.0, 32286.158, 0.01635809, 0.39263308, -264749.9, -230740.39, 0.0, 9.997122, 9.999869 
2.5648385e+3, 3.0653334e+2, -473507.2, -177148.73, -8586.085, -0.029193865, 0.36701876, -176900.19, -176900.19, 0.0, 9.9965315, 10.000454 
2.5648016e+3, 3.165355e+2, -417859.6, 46109.11, 71922.26, 0.06765793, 0.5496817, 57002.402, 57002.402, 0.0, 9.99607, 10.002209 
2.575514e+3, 1.2659222e+2, -1159308.1, -1640476.0, -23132.736, -0.15781225, 0.4172224, -1158198.6, 541240.3, 0.110854454, 10.005228, 9.99804 
2.575479e+3, 1.365904e+2, -1198813.1, -1636702.9, -14237.815, 0.07382642, 0.4419448, -1198350.6, 403105.72, 0.0760827, 10.004124, 9.997878 
2.5754407e+3, 1.4658827e+2, -1126570.9, -1536447.5, -12985.617, 0.06672316, 0.44201228, -1126159.9, 377316.97, 0.04257223, 10.003736, 9.998078 
2.575401e+3, 1.5658611e+2, -1025926.1, -1456644.3, -11460.759, -0.05469952, 0.42485827, -1025621.44, 379876.22, 0.01760347, 10.00375, 9.997947 
2.5753632e+3, 1.6658397e+2, -988321.75, -1371135.0, -1452.8512, -0.042686697, 0.41968656, -988316.25, 319202.34, 0.0045827646, 10.003217, 9.998117 
2.5753266e+3, 1.7658204e+2, -1011458.4, -1334355.5, -12001.101, 0.03744194, 0.4211352, -1011012.94, 198525.08, 0.0005169369, 10.002384, 9.998098 
2.5752887e+3, 1.8658039e+2, -918742.6, -1154412.0, -884.697, 0.025621051, 0.41629776, -918739.3, 192814.08, 0.0000045842844, 10.001984, 9.998854 
2.5752503e+3, 1.9657905e+2, -854695.9, -1089556.0, 11642.646, -0.03470613, 0.40686315, -854120.1, 159445.14, 0.0, 10.001823, 9.998704 
2.575213e+3, 2.0657769e+2, -817729.4, -1008810.4, 10504.037, -0.008758062, 0.40524617, -817153.7, 98424.62, 0.0, 10.001354, 9.998811 
2.575176e+3, 2.1657641e+2, -818826.7, -966365.0, -1793.3899, 0.062425517, 0.40533885, -818804.94, -1214.1578, 0.0, 10.000706, 9.998743 
2.5751385e+3, 2.2657524e+2, -753547.06, -821420.2, -1362.9357, 0.058040112, 0.393329, -753519.7, -33918.06, 0.0, 10.000211, 9.999303 
2.5751004e+3, 2.3657425e+2, -723744.56, -769815.94, 5784.325, 0.014873456, 0.3728308, -723029.44, -101419.12, 0.0, 9.999802, 9.999182 
2.5750628e+3, 2.4657357e+2, -658220.2, -659335.56, 6541.248, 0.021839237, 0.38406888, -652212.94, -128596.234, 0.0, 9.999458, 9.999432 
2.5750253e+3, 2.5657314e+2, -616341.7, -606092.56, 12112.455, 0.050302263, 0.40989962, -598065.2, -172444.58, 0.0, 9.999146, 9.999276 
2.5749874e+3, 2.6657218e+2, -579759.75, -532011.94, 572.1409, 0.030264916, 0.3914183, -532005.06, -204374.23, 0.0, 9.9987, 9.999327 
2.5749496e+3, 2.7657098e+2, -556376.9, -466714.1, -10019.085, -0.0032329191, 0.3499499, -465608.2, -235965.47, 0.0, 9.998173, 9.999357 
2.5749117e+3, 2.8657112e+2, -457097.3, -246818.3, -9705.699, 0.0034653966, 0.37389696, -246371.27, -114730.445, 0.0, 9.99766, 10.000441 
2.574874e+3, 2.9657197e+2, -454188.4, -223176.81, 8817.342, 0.0006946156, 0.42429316, -222840.75, -189209.92, 0.0, 9.997129, 10.000186 
2.574836e+3, 3.065711e+2, -498336.66, -226279.22, -31569.855, 0.047243293, 0.3393854, -222663.86, -222663.86, 0.0, 9.99652, 10.000123 
2.574797e+3, 3.1657234e+2, -451325.2, -20743.51, -11934.043, 0.027419753, 0.4515826, -20412.998, -20412.998, 0.0, 9.99605, 10.001763 
2.5855196e+3, 1.2663035e+2, -1172628.9, -1649275.0, 14819.398, -0.14431003, 0.4229899, -1172168.5, 526896.9, 0.100152895, 10.00507, 9.998049 
2.5854826e+3, 1.3662837e+2, -1162570.4, -1616084.6, 444.23035, 0.05989466, 0.4326712, -1162570.0, 438514.03, 0.06827892, 10.004349, 9.997911 
2.5854442e+3, 1.4662628e+2, -1103266.1, -1516690.4, 13763.192, 0.048491124, 0.43006748, -1102808.5, 400295.44, 0.03777608, 10.003852, 9.998157 
2.5854045e+3, 1.5662423e+2, -1056071.3, -1463369.8, 10452.568, -0.06586951, 0.41812027, -1055803.3, 349320.13, 0.015314514, 10.003498, 9.998021 
2.5853664e+3, 1.6662215e+2, -1013331.5, -1375620.5, 17796.25, -0.048461992, 0.411439, -1012459.4, 294684.25, 0.0038459566, 10.003012, 9.998185 
2.5853288e+3, 1.7662022e+2, -996591.6, -1319800.4, 30938.766, 0.037456457, 0.40755975, -993656.7, 215506.22, 0.00040077142, 10.002457, 9.998163 
2.5852907e+3, 1.8661863e+2, -912005.3, -1149751.0, 46013.195, 0.0309766, 0.40478295, -903410.6, 207767.17, 0.00000279495, 10.002027, 9.998864 
2.585252e+3, 1.9661735e+2, -877625.44, -1100978.8, 30033.006, -0.025672967, 0.40128946, -873657.56, 139531.53, 0.0, 10.001669, 9.9987 
2.585214e+3, 2.0661597e+2, -839270.7, -1025344.06, 23438.639, -0.0068221255, 0.40195814, -836363.7, 78838.875, 0.0, 10.001234, 9.9987545 
2.5851765e+3, 2.1661465e+2, -813272.0, -966874.8, 31132.406, 0.053840738, 0.40323722, -807201.94, 10013.856, 0.0, 10.000762, 9.998711 
2.5851384e+3, 2.2661343e+2, -738004.94, -809592.75, 34721.035, 0.05765845, 0.38738948, -723931.5, -4704.56, 0.0, 10.000303, 9.999338 
2.5851002e+3, 2.3661242e+2, -715284.6, -762399.8, 30306.121, 0.031893756, 0.3620333, -700457.06, -79221.53, 0.0, 9.999847, 9.999209 
2.5850624e+3, 2.4661179e+2, -662926.8, -661760.2, 23525.072, 0.034119643, 0.37769032, -638811.2, -115569.766, 0.0, 9.999428, 9.999429 
2.5850245e+3, 2.5661147e+2, -634295.1, -613745.56, 19109.178, 0.04850123, 0.4115551, -602324.0, -177079.11, 0.0, 9.999022, 9.999282 
2.584986e+3, 2.666104e+2, -597842.9, -538255.94, 17615.549, 0.031982914, 0.38701984, -533437.9, -206182.38, 0.0, 9.998568, 9.999346 
2.5849476e+3, 2.7660915e+2, -570487.2, -471461.94, 34998.516, 0.010816233, 0.3351911, -460341.28, -231073.2, 0.0, 9.998069, 9.999373 
2.5849092e+3, 2.8660935e+2, -468059.75, -251235.66, 20915.29, 0.0063561727, 0.36774704, -249236.56, -117971.18, 0.0, 9.997581, 10.000448 
2.5848705e+3, 2.966103e+2, -458206.3, -226001.11, 1385.3752, -0.015865907, 0.42548686, -225992.84, -192738.02, 0.0, 9.997105, 10.000179 
2.5848326e+3, 3.0660936e+2, -468981.13, -208988.38, -32256.805, 0.065083414, 0.33414212, -205046.11, -205046.11, 0.0, 9.996711, 10.00015 
2.5847927e+3, 3.1660897e+2, -459637.63, -74804.78, 3542.3193, -0.01953183, 0.28221515, -74772.18, -74772.18, 0.0, 9.996218, 10.0013075 
2.595526e+3, 1.266696e+2, -1197728.6, -1700355.1, -11399.062, 0.012477306, 0.4468393, -1197470.3, 501209.78, 0.08998167, 10.005015, 9.997683 
2.5954857e+3, 1.366669e+2, -1179269.9, -1659108.9, -24184.088, -0.04749574, 0.41841975, -1178054.0, 422652.38, 0.060887903, 10.004343, 9.997619 
2.5954467e+3, 1.4666463e+2, -1097315.5, -1510639.6, 302.2595, -0.059721697, 0.40819877, -1097315.3, 405412.78, 0.033270195, 10.0038595, 9.998197 
2.5954086e+3, 1.5666272e+2, -1050299.3, -1450507.3, -3741.0479, -0.03347425, 0.40620118, -1050264.3, 354481.4, 0.013199586, 10.003486, 9.998117 
2.5953695e+3, 1.6666093e+2, -989785.5, -1325867.0, -2972.4766, -0.017979423, 0.4038988, -989759.2, 317003.28, 0.003187757, 10.003004, 9.998531 
2.5953305e+3, 1.7665933e+2, -979393.4, -1286351.8, 11125.133, -0.011295648, 0.40140864, -978990.75, 229786.72, 0.00030400298, 10.002464, 9.99839 
2.5952923e+3, 1.8665761e+2, -935093.7, -1200389.9, 32292.023, 0.012382398, 0.39576057, -931219.7, 179574.45, 0.0000016192165, 10.002036, 9.998514 
2.5952545e+3, 1.9665596e+2, -895179.5, -1138084.4, 16100.669, 0.04453745, 0.38690615, -894116.94, 118693.47, 0.0, 10.00167, 9.998446 
2.5952157e+3, 2.0665467e+2, -824348.2, -995782.44, 5944.571, 0.03587331, 0.39595988, -824142.3, 90680.836, 0.0, 10.001238, 9.998957 
2.5951767e+3, 2.1665369e+2, -802384.75, -945265.6, 14151.595, 0.006243116, 0.41225478, -800996.56, 15836.009, 0.0, 10.000764, 9.998859 
2.5951385e+3, 2.2665241e+2, -747806.56, -830245.94, 17813.252, 0.021570621, 0.39295536, -744122.2, -25278.01, 0.0, 10.000303, 9.999197 
2.5951004e+3, 2.3665112e+2, -724153.25, -782227.5, 13153.859, 0.0601715, 0.3526648, -721312.8, -100457.2, 0.0, 9.999851, 9.999073 
2.5950617e+3, 2.4665031e+2, -671319.6, -680447.4, 7491.1836, 0.055727016, 0.36416715, -667111.56, -144247.88, 0.0, 9.999431, 9.999301 
2.5950232e+3, 2.566499e+2, -637353.6, -621379.2, 2757.1177, 0.027596237, 0.40240148, -620916.7, -196048.11, 0.0, 9.999025, 9.999229 
2.5949845e+3, 2.6664922e+2, -570439.75, -481093.2, -2190.695, 0.025443666, 0.3945495, -481039.5, -154164.61, 0.0, 9.998566, 9.999741 
2.5949457e+3, 2.766485e+2, -552965.8, -435579.4, 15218.05, 0.040370084, 0.35667455, -433638.63, -204757.58, 0.0, 9.998069, 9.99962 
2.594907e+3, 2.8664812e+2, -503262.03, -324249.1, 1683.6287, 0.022539621, 0.35239738, -324233.28, -193348.66, 0.0, 9.997579, 9.999949 
2.5948676e+3, 2.966483e+2, -481964.66, -273469.25, -15617.568, -0.024067104, 0.38077283, -272305.88, -239422.23, 0.0, 9.997095, 9.99986 
2.5948286e+3, 3.066483e+2, -444251.22, -160555.88, -48185.895, -0.0031158542, 0.37564862, -152594.86, -152594.86, 0.0, 9.996718, 10.000481 
2.594789e+3, 3.1664842e+2, -426665.03, -12549.339, 69379.63, 0.012430823, 0.34752598, -1234.831, -1234.831, 0.0, 9.996243, 10.001724 
2.6055312e+3, 1.2670887e+2, -1214620.0, -1715878.6, -8073.163, 0.0569469, 0.45018497, -1214490.0, 483805.22, 0.08039065, 10.00486, 9.997654 
2.60549e+3, 1.3670616e+2, -1135583.9, -1639744.0, -278.9862, -0.08631595, 0.42398232, -1135583.8, 464738.03, 0.053961683, 10.004643, 9.997607 
2.6054505e+3, 1.4670382e+2, -1068189.8, -1495865.3, 25868.322, -0.09499557, 0.40890214, -1066630.8, 435712.94, 0.029092481, 10.004053, 9.998204 
2.605412e+3, 1.5670185e+2, -1077582.3, -1461819.4, 18412.895, -0.014610306, 0.3984218, -1076701.9, 327660.2, 0.011276651, 10.003284, 9.998136 
2.6053727e+3, 1.667001e+2, -1004251.75, -1324357.3, 11795.531, 0.0035073347, 0.3960292, -1003817.7, 302560.53, 0.002611381, 10.002869, 9.998606 
2.605333e+3, 1.7669861e+2, -950022.44, -1266400.0, 6278.238, -0.016367769, 0.3971456, -949897.9, 258494.02, 0.00022568276, 10.002643, 9.998441 
2.6052943e+3, 1.8669692e+2, -913055.0, -1194177.3, 32923.176, 0.0033139884, 0.3941956, -909250.75, 201157.7, 0.00000086705097, 10.002211, 9.998471 
2.6052558e+3, 1.9669522e+2, -897002.4, -1141728.1, 37769.49, 0.04610316, 0.38735464, -891305.9, 121119.36, 0.0, 10.001674, 9.998417 
2.605217e+3, 2.0669384e+2, -829797.8, -1000865.0, 24296.81, 0.042131312, 0.39117372, -826413.9, 88025.01, 0.0, 10.001215, 9.998932 
2.6051775e+3, 2.1669278e+2, -798495.1, -945526.56, 14977.859, 0.012061163, 0.40057367, -796984.9, 19464.523, 0.0, 10.0008, 9.99884 
2.6051387e+3, 2.2669162e+2, -727282.25, -816733.25, 22712.564, 0.023436556, 0.3914088, -721845.75, -3385.7744, 0.0, 10.000429, 9.9992285 
2.6051e+3, 2.3669054e+2, -689858.0, -761548.94, 30464.924, 0.059558157, 0.36966455, -678660.8, -58191.516, 0.0, 10.0000725, 9.999106 
2.6050612e+3, 2.4668963e+2, -654066.8, -673056.56, 31855.102, 0.053952146, 0.37001744, -630321.6, -107843.23, 0.0, 9.999557, 9.9992895 
2.605022e+3, 2.5668895e+2, -649354.44, -625996.6, 35749.105, 0.02481257, 0.3833452, -600067.06, -175581.27, 0.0, 9.99894, 9.999237 
2.604983e+3, 2.6668844e+2, -573473.1, -471021.1, 22388.135, 0.02370592, 0.3860812, -466342.44, -139851.89, 0.0, 9.998497, 9.999842 
2.6049438e+3, 2.7668807e+2, -538679.94, -420035.66, 17028.842, 0.044513065, 0.37523463, -417639.9, -189146.75, 0.0, 9.998132, 9.999696 
2.6049045e+3, 2.8668764e+2, -514497.28, -338173.0, 11428.76, 0.033178963, 0.36487785, -337435.3, -206937.72, 0.0, 9.997542, 9.999869 
2.6048645e+3, 2.966875e+2, -525809.9, -298819.72, 27797.791, -0.012595976, 0.37390548, -295465.1, -262965.6, 0.0, 9.996817, 9.999817 
2.6048252e+3, 3.0668756e+2, -449250.6, -157713.67, 5920.8813, -0.0044647446, 0.36808378, -157593.47, -157593.47, 0.0, 9.996663, 10.000526 
2.604786e+3, 3.166887e+2, -361328.2, 19107.96, 88404.22, 0.05596476, 0.44201007, 38647.414, 38647.414, 0.0, 9.996693, 10.001723 
2.6155356e+3, 1.2674819e+2, -1193487.6, -1675042.4, -16080.2705, 0.01239787, 0.433022, -1192951.3, 504959.1, 0.071401596, 10.004841, 9.997952 
2.6154947e+3, 1.3674617e+2, -1124501.0, -1609641.1, -11466.039, -0.0747298, 0.44700047, -1124230.1, 475699.53, 0.0475258, 10.004589, 9.99784 
2.6154545e+3, 1.4674386e+2, -1074254.9, -1507801.1, -3259.5955, -0.07417107, 0.4296416, -1074230.4, 427720.84, 0.025261661, 10.00403, 9.998135 
2.6154152e+3, 1.5674157e+2, -1080426.4, -1473497.5, -7267.5137, -0.007446845, 0.39495304, -1080292.0, 323680.53, 0.00955357, 10.003303, 9.998048 
2.6153755e+3, 1.6673964e+2, -1014250.44, -1349928.5, 3390.5315, 0.017568476, 0.3883934, -1014216.2, 291774.6, 0.0021165798, 10.002885, 9.998424 
2.615336e+3, 1.7673804e+2, -957796.44, -1282165.6, -3935.6038, 0.014012564, 0.39470753, -957748.7, 250257.4, 0.00016455278, 10.002639, 9.998336 
2.6152962e+3, 1.867365e+2, -896070.06, -1159304.3, 13086.426, 0.000765443, 0.39832658, -895421.06, 214599.72, 0.00000042407203, 10.00221, 9.998712 
2.615257e+3, 1.9673513e+2, -885722.0, -1119294.8, 18877.496, -0.013946722, 0.3998121, -884206.2, 127827.66, 0.0, 10.001677, 9.998571 
2.615218e+3, 2.0673352e+2, -848182.94, -1039623.75, 9179.616, 0.015789723, 0.38852987, -847743.8, 66306.14, 0.0, 10.001215, 9.998667 
2.6151788e+3, 2.167319e+2, -811586.3, -972509.4, 1068.0872, 0.0651818, 0.36913508, -811579.25, 4487.1113, 0.0, 10.000797, 9.998657 
2.6151395e+3, 2.2673102e+2, -713435.6, -788714.56, 10374.255, 0.059525978, 0.38289344, -712032.1, 6042.364, 0.0, 10.000431, 9.999421 
2.6150998e+3, 2.367306e+2, -677148.8, -736224.94, 15415.433, 0.028959729, 0.41061145, -673368.25, -53291.008, 0.0, 10.000074, 9.999281 
2.6150605e+3, 2.4672967e+2, -647800.75, -659331.06, 7569.721, 0.029028406, 0.39484587, -644050.75, -121964.65, 0.0, 9.999552, 9.999386 
2.615021e+3, 2.567286e+2, -645002.3, -617783.56, 13318.996, 0.038056526, 0.3556482, -612350.6, -188253.63, 0.0, 9.998942, 9.999294 
2.6149815e+3, 2.6672798e+2, -587383.6, -500291.3, 7868.9546, 0.027266094, 0.3603691, -499586.06, -173482.97, 0.0, 9.998496, 9.999642 
2.6149416e+3, 2.7672783e+2, -545515.2, -434476.25, 662.77686, 0.022904847, 0.38840234, -434472.3, -206367.05, 0.0, 9.998131, 9.9995985 
2.614902e+3, 2.8672785e+2, -491655.75, -290480.2, -17616.746, 0.034659375, 0.4091304, -288949.16, -158844.67, 0.0, 9.997539, 10.000199 
2.6148614e+3, 2.9672801e+2, -511124.44, -268578.25, 3865.4827, 0.006693401, 0.41767606, -268516.66, -236415.08, 0.0, 9.996816, 10.000027 
2.6148224e+3, 3.067268e+2, -466333.9, -191897.48, 11514.447, 0.084964916, 0.29044574, -191415.22, -191415.22, 0.0, 9.996656, 10.000296 
2.614782e+3, 3.1672826e+2, -446222.84, -154634.06, -47234.527, -0.035997283, 0.42241406, -147173.42, -147173.42, 0.0, 9.996677, 10.00054 
2.62554e+3, 1.2678818e+2, -1183168.9, -1671673.1, 16119.11, -0.034256764, 0.41575116, -1182637.5, 514880.16, 0.06302838, 10.004876, 9.997961 
2.6254994e+3, 1.3678637e+2, -1165441.3, -1630909.1, 1240.2007, -0.04059338, 0.45066696, -1165438.0, 434097.8, 0.04158586, 10.00427, 9.997848 
2.6254588e+3, 1.4678416e+2, -1087111.4, -1511618.9, 7372.715, -0.038584847, 0.43860906, -1086983.4, 414573.47, 0.021777852, 10.003921, 9.998158 
2.6254186e+3, 1.5678181e+2, -1020032.3, -1442716.8, 9045.028, -0.008894156, 0.39978597, -1019838.8, 383739.38, 0.008026962, 10.003715, 9.998058 
2.6253784e+3, 1.6677983e+2, -964237.7, -1330440.6, 29038.693, 0.011483022, 0.38991365, -961949.4, 343647.56, 0.0016990979, 10.003254, 9.998378 
2.6253387e+3, 1.7677815e+2, -955437.75, -1283148.1, 29865.254, 0.020268235, 0.39331138, -952738.25, 254874.7, 0.00011854705, 10.002669, 9.998312 
2.6252985e+3, 1.8677662e+2, -906558.06, -1160716.8, 35897.652, 0.008643902, 0.39753783, -901585.1, 208042.53, 0.00000019125741, 10.002126, 9.998741 
2.6252586e+3, 1.9677532e+2, -892963.2, -1119201.9, 26286.371, -0.010852267, 0.40314475, -889949.2, 121691.13, 0.0, 10.001612, 9.998602 
2.625219e+3, 2.0677373e+2, -838828.4, -1027261.56, 32781.31, 0.016689774, 0.39011338, -833288.4, 80367.44, 0.0, 10.001247, 9.998734 
2.6251796e+3, 2.1677212e+2, -784458.94, -951968.0, 46665.234, 0.06768106, 0.36519814, -772336.1, 43335.45, 0.0, 10.000957, 9.998719 
2.6251397e+3, 2.2677124e+2, -720185.0, -794385.75, 48284.6, 0.0604213, 0.3780578, -696393.3, 21286.617, 0.0, 10.000398, 9.999397 
2.6250997e+3, 2.3677085e+2, -731619.1, -762337.25, 38848.176, 0.026699878, 0.40994152, -705204.0, -85520.87, 0.0, 9.999702, 9.99928 
2.6250598e+3, 2.4676998e+2, -675676.2, -660068.75, 29892.414, 0.029995197, 0.39372492, -636978.25, -115286.86, 0.0, 9.999307, 9.999498 
2.62502e+3, 2.567689e+2, -621568.6, -594190.2, 36282.297, 0.046682406, 0.35014442, -569100.5, -145399.4, 0.0, 9.999052, 9.999402 
2.6249796e+3, 2.667685e+2, -576359.4, -488562.53, 40936.945, 0.032236762, 0.36170235, -472436.75, -146730.77, 0.0, 9.998548, 9.999697 
2.6249397e+3, 2.7676854e+2, -576548.4, -443358.72, 51116.93, 0.022618867, 0.4032897, -426002.28, -198295.48, 0.0, 9.997896, 9.999649 
2.6248994e+3, 2.8676847e+2, -514418.78, -298790.53, 19664.775, 0.034258127, 0.41306573, -297011.84, -167304.81, 0.0, 9.997374, 10.00022 
2.624858e+3, 2.967684e+2, -494211.38, -255580.67, 21809.799, 0.000504369, 0.3937741, -253603.73, -221897.05, 0.0, 9.996913, 10.000068 
2.6248196e+3, 3.0676788e+2, -453237.2, -170665.05, 61469.496, 0.12760739, 0.329486, -157872.39, -157872.39, 0.0, 9.996688, 10.000424 
2.6247773e+3, 3.167685e+2, -474976.63, -180011.28, -60655.582, -0.12576406, 0.3645819, -168025.33, -168025.33, 0.0, 9.996535, 10.000432 
2.6355442e+3, 1.2682886e+2, -1201384.4, -1709510.1, -6469.071, -0.08606594, 0.40026292, -1201302.0, 495815.28, 0.055278078, 10.004838, 9.997705 
2.635504e+3, 1.3682687e+2, -1177610.1, -1660738.9, -18460.383, 0.007876836, 0.44202393, -1176905.8, 422233.25, 0.036137134, 10.004264, 9.997646 
2.6354632e+3, 1.468247e+2, -1078100.9, -1497719.9, -339.95657, 0.0067166155, 0.4394686, -1078100.6, 423059.22, 0.018632233, 10.003925, 9.998254 
2.635422e+3, 1.5682259e+2, -1014923.94, -1430138.5, -1199.4995, -0.01996395, 0.41167888, -1014920.44, 388258.47, 0.006687645, 10.003698, 9.998154 
2.6353812e+3, 1.6682063e+2, -961391.44, -1322089.9, 7181.491, -0.013101164, 0.3975614, -961248.5, 343948.38, 0.0013522495, 10.003241, 9.998443 
2.635341e+3, 1.768189e+2, -954393.8, -1280567.4, 8521.105, 0.0052262433, 0.3907201, -954171.3, 253041.56, 0.00008496919, 10.0026655, 9.998333 
2.6353008e+3, 1.8681727e+2, -920440.1, -1189760.0, 16980.1, 0.02549455, 0.39366102, -919373.75, 189855.48, 0.00000008629741, 10.002124, 9.998544 
2.6352608e+3, 1.9681577e+2, -900142.3, -1133332.8, 9302.516, 0.04686428, 0.39996246, -899771.8, 111472.79, 0.0, 10.001607, 9.998509 
2.6352206e+3, 2.0681447e+2, -812187.6, -972174.44, 22662.516, 0.04086958, 0.39560157, -809039.4, 104217.35, 0.0, 10.001247, 9.999114 
2.63518e+3, 2.1681337e+2, -765759.0, -912994.25, 33877.12, 0.021384945, 0.38346788, -758338.3, 56927.85, 0.0, 10.000953, 9.998989 
2.6351395e+3, 2.2681224e+2, -737656.8, -829962.56, 22222.21, 0.028534835, 0.37583995, -732585.56, -15308.53, 0.0, 10.000393, 9.999156 
2.6350996e+3, 2.3681124e+2, -743482.3, -787453.9, 15429.969, 0.05019772, 0.36918133, -738608.1, -119320.73, 0.0, 9.9997015, 9.999108 
2.6350594e+3, 2.468105e+2, -667050.0, -642699.4, 20151.389, 0.055737358, 0.36738068, -631330.75, -110036.27, 0.0, 9.999309, 9.999618 
2.635019e+3, 2.5681004e+2, -610106.7, -572409.2, 23764.24, 0.04752586, 0.3675085, -560926.2, -137627.6, 0.0, 9.999059, 9.99955 
2.6349783e+3, 2.6680994e+2, -555243.2, -444799.88, 15215.729, 0.03687994, 0.39092562, -442741.97, -117442.43, 0.0, 9.998546, 9.999999 
2.6349378e+3, 2.7681014e+2, -564172.94, -417406.94, 26946.857, 0.04074983, 0.42187724, -412615.78, -185317.78, 0.0, 9.997892, 9.99983 
2.6348963e+3, 2.8680938e+2, -536039.7, -343331.13, 1109.5203, 0.033053406, 0.37277445, -343324.75, -214018.63, 0.0, 9.99737, 9.999917 
2.6348546e+3, 2.9680845e+2, -503156.06, -274302.5, 5868.6313, -0.026256992, 0.2944298, -274152.1, -242835.88, 0.0, 9.996911, 9.999942 
2.634816e+3, 3.0681092e+2, -418678.9, -101360.14, 57022.453, 0.10520508, 0.50614345, -91424.27, -91424.27, 0.0, 9.996694, 10.000899 
2.6347744e+3, 3.168098e+2, -368211.0, 37486.723, -82504.64, -0.04722743, 0.31914344, 53623.426, 53623.426, 0.0, 9.996546, 10.0019245 
2.6455492e+3, 1.2686996e+2, -1199431.9, -1717782.9, 3217.9802, -0.07264318, 0.39073727, -1199411.9, 497302.0, 0.048147183, 10.004852, 9.997643 
2.6455083e+3, 1.368679e+2, -1153714.3, -1653429.1, 5715.081, 0.014322317, 0.4310732, -1153648.9, 445087.63, 0.031173248, 10.004434, 9.997614 
2.645467e+3, 1.468658e+2, -1067866.8, -1487920.4, 30995.99, 0.007870781, 0.43317255, -1065591.9, 435165.03, 0.015815973, 10.003971, 9.998297 
2.6454255e+3, 1.568638e+2, -1038340.0, -1436667.1, 23984.877, -0.022841256, 0.41377026, -1036900.94, 365874.0, 0.005525461, 10.003516, 9.998195 
2.6453847e+3, 1.6686188e+2, -989013.1, -1331075.3, 23648.611, -0.014040993, 0.39906022, -987385.9, 317406.84, 0.0010684335, 10.003035, 9.998479 
2.6453435e+3, 1.7686014e+2, -970219.56, -1284695.5, 22447.273, 0.009563509, 0.387888, -968625.4, 238183.6, 0.000061065744, 10.002545, 9.998361 
2.645303e+3, 1.8685849e+2, -923622.0, -1191786.1, 40434.496, 0.033421207, 0.39106402, -917657.8, 191167.42, 0.000000036839044, 10.002109, 9.998535 
2.6452625e+3, 1.96857e+2, -885020.44, -1122946.0, 45150.492, 0.058188967, 0.39862102, -876740.44, 134100.02, 0.0, 10.001702, 9.998531 
2.6452214e+3, 2.0685577e+2, -817961.8, -960024.25, 51128.62, 0.04586733, 0.39370328, -801474.06, 111377.59, 0.0, 10.001146, 9.999244 
2.6451805e+3, 2.1685481e+2, -822488.2, -929511.7, 44139.496, 0.015593734, 0.3834731, -806632.8, 8226.611, 0.0, 10.000519, 9.999084 
2.64514e+3, 2.2685367e+2, -771724.8, -854690.75, 35577.07, 0.024491107, 0.37473062, -758558.3, -41687.555, 0.0, 10.000196, 9.999081 
2.6450995e+3, 2.3685256e+2, -700444.44, -769560.6, 40742.332, 0.05598263, 0.3644136, -681577.8, -62695.09, 0.0, 10.000012, 9.999081 
2.6450586e+3, 2.4685189e+2, -630499.2, -607399.4, 50182.227, 0.061590314, 0.36399534, -567455.06, -46566.31, 0.0, 9.999485, 9.999774 
2.6450178e+3, 2.568516e+2, -643690.1, -574249.1, 55939.86, 0.050772194, 0.36948103, -543130.56, -120240.1, 0.0, 9.998769, 9.999675 
2.6449767e+3, 2.668516e+2, -592844.25, -464673.9, 31369.076, 0.044716954, 0.3948848, -457408.34, -132517.23, 0.0, 9.998297, 9.999982 
2.6449355e+3, 2.7685174e+2, -558245.9, -412558.06, 20471.607, 0.055518232, 0.42236948, -409736.13, -182845.5, 0.0, 9.997926, 9.999846 
2.644894e+3, 2.8685102e+2, -499917.9, -309815.5, 13622.344, 0.038170673, 0.36618698, -308844.3, -179945.7, 0.0, 9.997552, 10.000058 
2.6448518e+3, 2.9685017e+2, -457597.84, -240253.31, 50632.547, -0.03050147, 0.28753117, -229036.81, -198129.47, 0.0, 9.997175, 10.000046 
2.6448122e+3, 3.0685318e+2, -432070.97, -112833.18, 83761.83, 0.07609369, 0.5480775, -92190.5, -92190.5, 0.0, 9.996627, 10.000851 
2.6447713e+3, 3.1685153e+2, -413458.03, 93004.3, -93053.25, 0.031868577, 0.3056407, 109559.95, 109559.95, 0.0, 9.995908, 10.00261 
2.6555544e+3, 1.269115e+2, -1189424.8, -1698841.3, -12211.237, -0.015164427, 0.38746455, -1189132.1, 507174.84, 0.041621216, 10.004837, 9.997778 
2.6555124e+3, 1.3690946e+2, -1147118.8, -1637997.6, -9698.03, -0.0151843885, 0.41572925, -1146927.1, 451401.28, 0.026684038, 10.004408, 9.997731 
2.6554704e+3, 1.4690739e+2, -1070769.3, -1494075.8, 14064.498, -0.027044881, 0.41924807, -1070302.4, 430045.9, 0.013317724, 10.003959, 9.998261 
2.655429e+3, 1.5690544e+2, -1040887.2, -1441261.5, 6905.9624, -0.021359803, 0.40770298, -1040768.06, 361598.22, 0.0045283283, 10.003508, 9.998169 
2.6553878e+3, 1.6690356e+2, -990024.2, -1332648.4, 5600.52, 0.0025897427, 0.39754748, -989932.7, 314451.6, 0.00083937054, 10.003029, 9.998471 
2.655346e+3, 1.7690183e+2, -969629.1, -1282701.9, 5147.648, 0.029032882, 0.38769633, -969544.5, 236856.47, 0.000044250475, 10.00254, 9.998379 
2.655305e+3, 1.8690026e+2, -912640.44, -1169879.0, 25660.58, 0.032303005, 0.388597, -910105.7, 198310.28, 0.000000014947995, 10.0021105, 9.998686 
2.6552635e+3, 1.9689889e+2, -877005.56, -1107195.5, 28711.547, 0.026268227, 0.39342654, -873478.44, 136950.61, 0.0, 10.001704, 9.99864 
2.6552224e+3, 2.068976e+2, -825989.6, -976625.75, 27602.773, 0.033667717, 0.3844383, -821091.0, 91350.04, 0.0, 10.001144, 9.999132 
2.6551813e+3, 2.1689646e+2, -829012.6, -941260.8, 24404.666, 0.045908637, 0.36757833, -823936.2, -9484.82, 0.0, 10.000509, 9.999009 
2.6551402e+3, 2.268955e+2, -766936.56, -844546.4, 29860.117, 0.04560255, 0.37572065, -756777.7, -40316.47, 0.0, 10.000195, 9.999151 
2.655099e+3, 2.3689473e+2, -692881.3, -755532.0, 30456.025, 0.040848948, 0.39388347, -680516.3, -62046.582, 0.0, 10.000017, 9.999175 
2.655058e+3, 2.4689414e+2, -616934.44, -579249.94, 22074.518, 0.046979632, 0.3821798, -569069.5, -48594.703, 0.0, 9.999483, 9.9999695 
2.6550165e+3, 2.5689372e+2, -636629.56, -560256.7, 30855.836, 0.054630958, 0.35607725, -549348.44, -126871.32, 0.0, 9.99877, 9.999771 
2.654975e+3, 2.6689345e+2, -617376.3, -515674.1, 16917.344, 0.056759614, 0.37222815, -512933.88, -188452.64, 0.0, 9.998296, 9.999633 
2.6549336e+3, 2.7689332e+2, -567965.94, -434006.8, 5508.03, 0.06592617, 0.4054851, -433780.72, -207295.56, 0.0, 9.99793, 9.999699 
2.6548916e+3, 2.8689337e+2, -458011.7, -223288.7, -1599.632, 0.04661058, 0.39765698, -223277.8, -94793.28, 0.0, 9.997551, 10.000654 
2.654849e+3, 2.9689375e+2, -435733.06, -194162.34, 35389.184, -0.020226855, 0.38184127, -189084.7, -158605.34, 0.0, 9.9971695, 10.000367 
2.6548085e+3, 3.0689442e+2, -475022.7, -202264.6, 56927.83, 0.05156886, 0.43569157, -190859.94, -190859.94, 0.0, 9.996624, 10.000239 
2.654767e+3, 3.1689397e+2, -449496.34, 21239.295, -108104.67, 0.031170709, 0.36821747, 44878.48, 44878.48, 0.0, 9.9958935, 10.002125 
2.6655594e+3, 1.269537e+2, -1183807.3, -1680489.8, 7172.0483, -0.0038617887, 0.40281186, -1183703.8, 512190.66, 0.03567607, 10.004775, 9.997941 
2.6655167e+3, 1.3695171e+2, -1147494.8, -1624024.1, 10567.44, -0.018300803, 0.42186868, -1147260.6, 450653.34, 0.022646183, 10.004327, 9.997867 
2.6654744e+3, 1.4694959e+2, -1086269.1, -1503734.4, 35219.668, -0.025280474, 0.4128636, -1083318.8, 416615.6, 0.011115643, 10.003856, 9.998242 
2.6654327e+3, 1.5694746e+2, -1059253.0, -1450885.8, 28276.086, -0.003383885, 0.38742006, -1057222.0, 344732.06, 0.0036790885, 10.003385, 9.99816 
2.6653907e+3, 1.6694574e+2, -997367.9, -1333440.9, 28622.182, 0.016979204, 0.39255577, -994947.7, 309023.2, 0.00065566646, 10.00297, 9.998492 
2.6653486e+3, 1.769443e+2, -960341.94, -1274090.6, 29229.184, 0.030253172, 0.41025335, -957642.1, 248343.03, 0.000032246808, 10.002588, 9.998412 
2.665307e+3, 1.8694265e+2, -906550.9, -1156243.4, 47163.316, 0.028153334, 0.39794058, -897939.4, 210061.0, 0.0000000057994387, 10.00211, 9.998777 
2.6652652e+3, 1.9694111e+2, -889654.9, -1105772.8, 45311.805, 0.021320498, 0.37355524, -880539.2, 129475.37, 0.0, 10.001588, 9.998704 
2.6652238e+3, 2.0693983e+2, -836309.56, -992512.1, 40344.32, 0.036642224, 0.3707561, -826504.8, 85521.875, 0.0, 10.001122, 9.999032 
2.665182e+3, 2.1693881e+2, -806837.94, -935618.2, 38064.85, 0.0617587, 0.37546822, -796428.2, 17608.646, 0.0, 10.000686, 9.998961 
2.6651403e+3, 2.269379e+2, -756001.06, -820035.6, 54754.855, 0.05392007, 0.38177103, -724589.6, -8543.788, 0.0, 10.000188, 9.999321 
2.665099e+3, 2.369372e+2, -736375.7, -761722.2, 61749.855, 0.034126908, 0.38882995, -686012.0, -67958.875, 0.0, 9.999658, 9.999305 
2.6650572e+3, 2.4693665e+2, -655096.4, -605259.75, 37159.59, 0.040636934, 0.38221395, -585437.06, -65379.098, 0.0, 9.999255, 9.9999 
2.6650155e+3, 2.5693628e+2, -620585.44, -555936.5, 27920.994, 0.05714438, 0.36722028, -545547.4, -123486.71, 0.0, 9.998897, 9.99974 
2.6649734e+3, 2.6693594e+2, -586151.6, -491610.3, 33180.863, 0.058868807, 0.37341636, -481127.3, -157061.89, 0.0, 9.998473, 9.999711 
2.6649314e+3, 2.769357e+2, -551003.5, -417732.28, 52774.227, 0.06634001, 0.38726577, -399365.4, -173295.23, 0.0, 9.998014, 9.999768 
2.664889e+3, 2.869361e+2, -426784.1, -206107.97, 28708.396, 0.059096336, 0.40918058, -202434.38, -74368.3, 0.0, 9.997759, 10.00067 
2.6648465e+3, 2.9693696e+2, -380197.6, -166165.69, 19769.74, 0.008060292, 0.44071588, -164354.9, -134298.86, 0.0, 9.997547, 10.000377 
2.664805e+3, 3.069363e+2, -458179.47, -196637.98, 43150.816, 0.047964536, 0.3621288, -189702.58, -189702.58, 0.0, 9.996754, 10.000215 
2.6647627e+3, 3.1693697e+2, -457261.1, -16941.463, -45161.27, -0.0004209678, 0.4132468, -12357.235, -12357.235, 0.0, 9.995994, 10.001811 
2.6755637e+3, 1.2699655e+2, -1171349.4, -1654445.5, -8056.078, -0.029111689, 0.4326428, -1171215.1, 524261.34, 0.030278023, 10.004753, 9.998133 
2.675521e+3, 1.3699472e+2, -1138470.9, -1604707.3, -4735.465, -0.005419354, 0.44905183, -1138422.9, 459069.94, 0.019022185, 10.004311, 9.998007 
2.6754782e+3, 1.4699237e+2, -1087161.1, -1507239.4, 17874.309, 0.0016779825, 0.41469726, -1086401.9, 413112.84, 0.009178039, 10.003851, 9.998222 
2.675436e+3, 1.569899e+2, -1060264.4, -1452865.5, 11435.998, 0.027522525, 0.35563838, -1059931.5, 341606.6, 0.0029566458, 10.003379, 9.998151 
2.6753935e+3, 1.669884e+2, -995727.8, -1330244.6, 14431.41, 0.029671647, 0.38315824, -995106.4, 308446.5, 0.0005076618, 10.002968, 9.998516 
2.6753512e+3, 1.7698747e+2, -958014.0, -1269042.1, 13745.504, 0.01382646, 0.44917017, -957407.75, 248154.84, 0.000023462153, 10.002585, 9.998449 
2.675309e+3, 1.8698569e+2, -904156.1, -1150758.0, 27798.78, 0.020590646, 0.41789892, -901061.25, 206517.55, 0.000000001728097, 10.002105, 9.998819 
2.675267e+3, 1.9698364e+2, -890448.75, -1105506.5, 27066.291, 0.039506454, 0.34252164, -887094.56, 122502.32, 0.0, 10.001577, 9.998713 
2.6752245e+3, 2.0698246e+2, -844472.9, -1009450.7, 24409.504, 0.05226365, 0.35390747, -840937.1, 70671.53, 0.0, 10.0011215, 9.998918 
2.6751825e+3, 2.1698177e+2, -808906.44, -940738.75, 21705.975, 0.059936248, 0.40300414, -805424.56, 8191.9766, 0.0, 10.000688, 9.998926 
2.6751405e+3, 2.2698085e+2, -736750.0, -780526.56, 34828.574, 0.049556557, 0.39119607, -717502.8, -1877.6935, 0.0, 10.000189, 9.999593 
2.6750985e+3, 2.3697992e+2, -725652.1, -739293.9, 42743.59, 0.034295697, 0.35052958, -689188.6, -71555.55, 0.0, 9.999655, 9.999461 
2.6750565e+3, 2.4697945e+2, -679101.06, -655027.75, 23629.473, 0.04277746, 0.36497456, -640545.9, -120907.46, 0.0, 9.999254, 9.999558 
2.675014e+3, 2.5697932e+2, -630643.25, -579423.0, 13309.938, 0.054225035, 0.4054347, -576170.8, -154529.55, 0.0, 9.998906, 9.999574 
2.6749718e+3, 2.669791e+2, -550000.4, -417326.38, 14620.811, 0.04788985, 0.3993382, -415734.25, -92090.35, 0.0, 9.998474, 10.000221 
2.6749292e+3, 2.7697888e+2, -531986.75, -378215.5, 37815.04, 0.052206654, 0.36833045, -369419.28, -143773.6, 0.0, 9.998012, 10.000042 
2.6748872e+3, 2.869791e+2, -468126.7, -293448.38, 21087.559, 0.07914812, 0.39758775, -290938.7, -163294.66, 0.0, 9.997763, 10.000071 
2.6748446e+3, 2.969797e+2, -399717.1, -210557.2, 3504.637, 0.06391756, 0.46190858, -210492.3, -180853.75, 0.0, 9.997561, 10.000066 
2.6748016e+3, 3.0697882e+2, -417615.25, -110524.32, 1721.3857, 0.046246704, 0.33582994, -110514.67, -110514.67, 0.0, 9.996742, 10.000813 
2.6747584e+3, 3.1698024e+2, -463456.53, -33548.52, -4341.3643, -0.016696258, 0.411591, -33504.684, -33504.684, 0.0, 9.996002, 10.001697 
2.6855683e+3, 1.2703992e+2, -1167819.4, -1650336.5, 22860.488, -0.014895745, 0.4427445, -1166738.6, 528313.3, 0.025382692, 10.004736, 9.99817 
2.685525e+3, 1.370379e+2, -1147459.5, -1607122.0, 17635.709, 0.00008025826, 0.43780535, -1146783.9, 450285.63, 0.01577001, 10.004225, 9.998033 
2.6854822e+3, 1.4703563e+2, -1103477.6, -1519689.1, 37618.34, 0.0069035045, 0.41281328, -1100104.9, 398985.9, 0.007471862, 10.003754, 9.998182 
2.6854396e+3, 1.5703334e+2, -1072593.3, -1462121.4, 29770.012, 0.03628742, 0.3767921, -1070331.3, 330781.53, 0.0023404865, 10.003308, 9.998119 
2.6853964e+3, 1.670317e+2, -1010688.94, -1338044.9, 33572.977, 0.034256153, 0.39263108, -1007281.25, 295847.53, 0.00038708578, 10.00287, 9.998508 
2.6853535e+3, 1.770305e+2, -977053.44, -1276134.4, 30218.783, 0.011450727, 0.43256107, -974030.7, 231109.97, 0.000016815515, 10.002448, 9.998465 
2.6853108e+3, 1.8702887e+2, -913915.7, -1148974.3, 39943.848, 0.023798889, 0.41045415, -907313.4, 199842.33, 0.0000000002885943, 10.002012, 9.998875 
2.6852685e+3, 1.970271e+2, -889445.5, -1100837.6, 38693.117, 0.05433917, 0.35850632, -882585.75, 126585.55, 0.0, 10.001568, 9.998747 
2.685226e+3, 2.0702586e+2, -847349.6, -1011888.4, 43367.695, 0.057940684, 0.36342698, -836618.94, 74564.66, 0.0, 10.001108, 9.998905 
2.685183e+3, 2.1702497e+2, -814724.6, -941608.75, 48094.293, 0.04904063, 0.39447945, -798555.44, 14637.627, 0.0, 10.000643, 9.99894 
2.6851407e+3, 2.270241e+2, -728635.4, -769227.5, 52006.668, 0.042600743, 0.38379112, -693104.7, 22096.43, 0.0, 10.000215, 9.999657 
2.685098e+3, 2.3702331e+2, -703467.7, -723834.1, 45727.77, 0.04187448, 0.352246, -666803.0, -49595.387, 0.0, 9.999789, 9.999501 
2.6850557e+3, 2.4702287e+2, -675642.3, -663085.25, 36640.0, 0.052159812, 0.3726733, -632189.75, -112976.45, 0.0, 9.999322, 9.99947 
2.6850128e+3, 2.570227e+2, -645714.44, -592455.9, 44133.457, 0.061885033, 0.41738293, -567540.2, -146322.84, 0.0, 9.99883, 9.99952 
2.68497e+3, 2.6702252e+2, -537375.1, -400572.63, 30734.764, 0.048490442, 0.41431955, -393984.8, -70765.66, 0.0, 9.998517, 10.000315 
2.6849273e+3, 2.770224e+2, -492950.1, -353049.88, 24497.63, 0.044795096, 0.38364863, -348884.2, -123664.805, 0.0, 9.998254, 10.000096 
2.684885e+3, 2.8702247e+2, -470151.06, -307935.63, 24157.39, 0.089440905, 0.40310094, -304414.5, -177195.3, 0.0, 9.99781, 9.999947 
2.6848423e+3, 2.970228e+2, -442613.22, -235773.92, 37408.48, 0.10473883, 0.45070824, -229216.22, -199999.31, 0.0, 9.997291, 10.000021 
2.6847982e+3, 3.0702236e+2, -370640.5, -61101.26, 14590.934, -0.0036835154, 0.3562335, -60415.0, -60415.0, 0.0, 9.996954, 10.001047 
2.684755e+3, 3.1702393e+2, -394272.4, -39060.49, 21749.803, 0.022843301, 0.43030408, -37733.69, -37733.69, 0.0, 9.996649, 10.001345 
2.6955736e+3, 1.2708376e+2, -1175626.6, -1662334.3, 3169.55, 0.023447094, 0.4379283, -1175606.0, 519015.8, 0.020944616, 10.004701, 9.998099 
2.6955292e+3, 1.370813e+2, -1150696.8, -1616876.0, -781.2144, -0.0003953401, 0.39512244, -1150695.4, 445948.6, 0.012853387, 10.004225, 9.997965 
2.6954857e+3, 1.4707935e+2, -1105877.4, -1529113.3, 20625.494, -0.005142301, 0.40775985, -1104874.6, 393788.13, 0.005969769, 10.003764, 9.998115 
2.6954427e+3, 1.570777e+2, -1075571.4, -1469271.8, 13089.298, 0.023557562, 0.44223803, -1075136.8, 325542.28, 0.0018140902, 10.003309, 9.998072 
2.6953992e+3, 1.6707562e+2, -1012633.2, -1342574.3, 18335.15, 0.030217519, 0.4176134, -1011617.44, 291081.34, 0.0002879219, 10.00287, 9.998479 
2.695356e+3, 1.7707351e+2, -978675.4, -1279520.8, 15075.97, 0.020387435, 0.3680714, -977921.8, 226796.95, 0.000011615146, 10.002446, 9.998444 
2.6953128e+3, 1.870722e+2, -911672.25, -1144855.6, 23650.635, 0.035325263, 0.37964886, -909297.6, 197433.23, 0.000000000007316074, 10.002012, 9.998903 
2.69527e+3, 1.9707134e+2, -886223.8, -1093944.0, 21814.088, 0.062829725, 0.41601726, -883957.7, 124781.01, 0.0, 10.001566, 9.998796 
2.6952267e+3, 2.0706993e+2, -840187.56, -997424.06, 26006.041, 0.05429936, 0.3961428, -835997.94, 74754.055, 0.0, 10.001108, 9.999005 
2.6951835e+3, 2.1706839e+2, -811927.5, -934470.7, 31959.383, 0.028570756, 0.35158896, -804093.3, 8673.226, 0.0, 10.000635, 9.998994 
2.6951405e+3, 2.2706766e+2, -739657.0, -792119.56, 37055.723, 0.032731555, 0.3612582, -720487.75, -5713.8647, 0.0, 10.000214, 9.9995 
2.695098e+3, 2.3706739e+2, -708239.5, -735776.3, 29146.848, 0.05130088, 0.39451894, -689772.7, -72995.664, 0.0, 9.999796, 9.999416 
2.695055e+3, 2.470669e+2, -663603.4, -639078.8, 16820.34, 0.06680189, 0.40428162, -630525.5, -111742.57, 0.0, 9.999324, 9.999635 
2.6950118e+3, 2.570664e+2, -642341.7, -585836.1, 27320.246, 0.07796616, 0.4036178, -574787.3, -153998.22, 0.0, 9.998829, 9.999567 
2.6949686e+3, 2.670662e+2, -561632.44, -450990.0, 21114.563, 0.0625968, 0.41785327, -447097.53, -124305.86, 0.0, 9.998516, 9.9999695 
2.6949254e+3, 2.770663e+2, -503912.06, -377959.38, 11727.859, 0.04406816, 0.43780673, -376876.66, -152085.3, 0.0, 9.998261, 9.999923 
2.6948825e+3, 2.8706622e+2, -443061.06, -252391.64, 2747.0283, 0.084128335, 0.4277008, -252352.08, -125560.27, 0.0, 9.997809, 10.000329 
2.6948395e+3, 2.970662e+2, -429365.03, -206066.5, 20026.506, 0.11682602, 0.40488997, -204284.66, -175493.25, 0.0, 9.997278, 10.000233 
2.6947942e+3, 3.070669e+2, -384226.4, -91912.67, 3982.6907, -0.08599121, 0.42878777, -91858.42, -91858.42, 0.0, 9.9969635, 10.000832 
2.6947522e+3, 3.1706777e+2, -438480.1, -135871.2, -6235.9565, 0.08751286, 0.46100616, -135742.75, -135742.75, 0.0, 9.996664, 10.000676 
2.7055782e+3, 1.2712821e+2, -1224060.8, -1704020.9, 22454.93, 0.0501252, 0.4514071, -1223012.4, 471173.34, 0.016935596, 10.004419, 9.997946 
2.7055335e+3, 1.3712545e+2, -1154015.6, -1630418.3, 12808.005, 0.007976099, 0.39166734, -1153671.5, 442540.44, 0.01024836, 10.004242, 9.997864 
2.7054894e+3, 1.4712349e+2, -1092807.3, -1518428.8, 32743.516, -0.0014431151, 0.40644348, -1090303.0, 407927.7, 0.004652679, 10.003835, 9.998151 
2.705446e+3, 1.5712199e+2, -1067863.1, -1461575.4, 31272.19, 0.028595509, 0.4512971, -1065394.6, 334850.72, 0.0013661424, 10.0033455, 9.998105 
2.705402e+3, 1.6711983e+2, -1008251.25, -1338950.3, 40789.13, 0.035180267, 0.4179108, -1003294.56, 298970.88, 0.00020647723, 10.002895, 9.998489 
2.7053583e+3, 1.7711754e+2, -976294.25, -1277428.4, 39005.98, 0.025350837, 0.35055202, -971323.8, 232962.9, 0.0000075413723, 10.0024605, 9.998449 
2.7053148e+3, 1.8711634e+2, -919640.6, -1149982.1, 45612.96, 0.036843613, 0.37367177, -910937.06, 195361.1, 0.0, 10.0019655, 9.998889 
2.7052715e+3, 1.9711572e+2, -901115.4, -1098115.6, 42591.746, 0.06017435, 0.43511492, -892301.3, 116002.96, 0.0, 10.001452, 9.998821 
2.7052277e+3, 2.0711423e+2, -833580.5, -981362.3, 48869.355, 0.05024284, 0.39950565, -818882.0, 91435.875, 0.0, 10.001101, 9.999118 
2.7051842e+3, 2.1711247e+2, -780998.0, -911835.6, 52981.848, 0.025528513, 0.32199553, -762234.3, 50099.375, 0.0, 10.000815, 9.999061 
2.7051407e+3, 2.2711185e+2, -727318.0, -798554.9, 57937.125, 0.032020196, 0.34816426, -694926.25, 19414.082, 0.0, 10.000354, 9.999388 
2.7050978e+3, 2.3711184e+2, -710929.75, -745753.1, 54401.23, 0.05597351, 0.4188852, -671221.75, -54879.734, 0.0, 9.999818, 9.999336 
2.7050543e+3, 2.4711125e+2, -640879.0, -624449.2, 38386.637, 0.06921404, 0.4207836, -593408.3, -75059.555, 0.0, 9.999467, 9.999665 
2.7050108e+3, 2.571105e+2, -591557.06, -559290.6, 40309.285, 0.07585863, 0.39025986, -532005.9, -111648.96, 0.0, 9.999172, 9.999582 
2.704967e+3, 2.671103e+2, -533440.3, -447751.53, 45893.266, 0.05767488, 0.40689054, -427811.88, -105452.03, 0.0, 9.998757, 9.999874 
2.7049235e+3, 2.771104e+2, -505833.16, -386250.53, 52326.15, 0.03989878, 0.44374263, -366587.3, -142227.95, 0.0, 9.998283, 9.999854 
2.7048802e+3, 2.871104e+2, -431964.84, -243524.28, 26121.086, 0.07860525, 0.438966, -239970.47, -113610.97, 0.0, 9.997873, 10.000359 
2.7048367e+3, 2.9711038e+2, -402272.75, -195643.98, 19159.791, 0.10736065, 0.41468558, -193882.39, -165523.48, 0.0, 9.997478, 10.000207 
2.704791e+3, 3.071108e+2, -372610.2, -108743.055, 3986.5696, -0.066519596, 0.42254195, -108682.836, -108682.836, 0.0, 9.997141, 10.00063 
2.7047494e+3, 3.1711152e+2, -425594.2, -121175.2, 78.71147, 0.115144685, 0.45438355, -121175.18, -121175.18, 0.0, 9.996718, 10.000749 
2.7155828e+3, 1.2717323e+2, -1238701.5, -1733558.9, 14965.22, 0.06607809, 0.47929528, -1238249.4, 455495.13, 0.0133525925, 10.004403, 9.997748 
2.7155378e+3, 1.3717027e+2, -1165153.0, -1650715.0, 3794.8389, 0.019930514, 0.42048648, -1165123.4, 430650.44, 0.007946673, 10.00422, 9.997735 
2.715493e+3, 1.4716804e+2, -1086053.8, -1503724.8, 14075.704, 0.012721793, 0.40779266, -1085579.9, 412214.84, 0.003511647, 10.003824, 9.998259 
2.7154493e+3, 1.5716626e+2, -1062364.9, -1449407.0, 13353.977, 0.047610242, 0.41306794, -1061904.8, 337906.38, 0.0009908006, 10.003339, 9.998193 
2.715405e+3, 1.6716436e+2, -1006815.25, -1335615.5, 24505.322, 0.04698319, 0.3984228, -1004998.9, 296829.7, 0.00014094682, 10.002892, 9.998514 
2.7153605e+3, 1.7716253e+2, -975339.7, -1275043.0, 21964.797, 0.024891278, 0.37487423, -973738.5, 230107.08, 0.0000045032148, 10.002458, 9.998467 
2.7153164e+3, 1.871612e+2, -922053.3, -1155920.3, 26451.016, 0.029229932, 0.38851327, -919098.94, 186759.31, 0.0, 10.001967, 9.998849 
2.7152726e+3, 1.9716023e+2, -901560.25, -1098967.0, 25533.766, 0.046148177, 0.41670325, -898311.0, 109557.055, 0.0, 10.001451, 9.998817 
2.7152288e+3, 2.0715876e+2, -827311.75, -968349.2, 38641.836, 0.044714294, 0.37622815, -817418.5, 92462.69, 0.0, 10.001099, 9.999208 
2.7151847e+3, 2.1715716e+2, -777189.06, -903261.8, 40334.7, 0.033897407, 0.3076126, -765389.1, 46505.656, 0.0, 10.000812, 9.999123 
2.7151412e+3, 2.2715662e+2, -730913.8, -806734.5, 37164.0, 0.039199207, 0.34463975, -715735.94, -1835.2023, 0.0, 10.000355, 9.999331 
2.7150974e+3, 2.3715666e+2, -716522.3, -757059.94, 36199.645, 0.05450732, 0.4258635, -695303.3, -79400.59, 0.0, 9.999814, 9.999261 
2.7150536e+3, 2.4715592e+2, -649326.9, -641656.3, 28024.125, 0.05967457, 0.4214827, -617206.25, -99295.3, 0.0, 9.999465, 9.999548 
2.7150095e+3, 2.5715497e+2, -592113.4, -563277.3, 27724.725, 0.051456682, 0.38082093, -546445.7, -126525.02, 0.0, 9.999183, 9.999551 
2.7149656e+3, 2.671547e+2, -521290.78, -424032.84, 26757.354, 0.03112189, 0.382024, -417157.44, -95233.56, 0.0, 9.99876, 10.000037 
2.7149215e+3, 2.7715477e+2, -503755.13, -381593.88, 35193.047, 0.027710736, 0.39974588, -372180.6, -148256.97, 0.0, 9.99828, 9.999889 
2.714878e+3, 2.8715494e+2, -458125.1, -297638.66, 11070.188, 0.07581116, 0.435555, -296878.63, -170955.94, 0.0, 9.997871, 9.999989 
2.7148336e+3, 2.9715532e+2, -420348.5, -234888.36, 4368.1934, 0.083363354, 0.4859158, -234785.53, -206865.98, 0.0, 9.997482, 9.999937 
2.7147892e+3, 3.0715394e+2, -378253.06, -122103.914, -9110.342, 0.044645242, 0.32991233, -121780.305, -121780.305, 0.0, 9.997144, 10.000539 
2.714745e+3, 3.171555e+2, -368319.06, 2930.694, 9224.493, 0.05323183, 0.4465549, 3159.755, 3159.755, 0.0, 9.996701, 10.001606 
2.725587e+3, 1.2721804e+2, -1242804.1, -1737967.8, 19847.371, 0.06226357, 0.4672974, -1242009.9, 451294.97, 0.010208339, 10.004369, 9.997737 
2.7255422e+3, 1.3721529e+2, -1204877.1, -1667587.4, 18753.787, 0.05811653, 0.43172395, -1204118.3, 391214.5, 0.0059534702, 10.003927, 9.99776 
2.7254972e+3, 1.4721312e+2, -1123185.0, -1509342.1, 29399.809, 0.03988323, 0.415328, -1120959.4, 376393.88, 0.0025472231, 10.003514, 9.998367 
2.7254525e+3, 1.5721126e+2, -1086223.3, -1449826.0, 28641.924, 0.041806683, 0.4053214, -1083980.9, 315388.97, 0.00068596756, 10.003128, 9.99829 
2.7254078e+3, 1.6720946e+2, -1022136.9, -1337594.0, 42268.688, 0.042009797, 0.3940969, -1016571.44, 284814.9, 0.000090375084, 10.002767, 9.998561 
2.725363e+3, 1.772078e+2, -978601.7, -1272386.5, 40094.85, 0.035407953, 0.38348836, -973227.94, 230173.75, 0.0000024128854, 10.002419, 9.998505 
2.7253184e+3, 1.872064e+2, -920217.7, -1157910.5, 42042.016, 0.031166526, 0.3896401, -913000.6, 192414.52, 0.0, 10.001995, 9.998819 
2.725274e+3, 1.9720523e+2, -888947.2, -1094155.9, 41553.977, 0.030382745, 0.4014267, -880852.0, 126574.86, 0.0, 10.001546, 9.998802 
2.7252296e+3, 2.0720388e+2, -826265.9, -966157.7, 54848.03, 0.03187966, 0.37259403, -807325.7, 102113.3, 0.0, 10.0011015, 9.999221 
2.7251855e+3, 2.1720251e+2, -798546.4, -911449.7, 51329.555, 0.034832697, 0.32698405, -778699.25, 32751.166, 0.0, 10.000658, 9.99914 
2.7251413e+3, 2.2720188e+2, -738620.7, -809151.56, 47019.01, 0.0421008, 0.35083362, -715111.7, -1654.2704, 0.0, 10.0002985, 9.999341 
2.7250972e+3, 2.3720163e+2, -693745.9, -743841.06, 51709.242, 0.055362243, 0.40340397, -661337.2, -45875.42, 0.0, 9.999964, 9.999278 
2.7250528e+3, 2.4720094e+2, -633593.2, -633104.2, 54609.95, 0.053357534, 0.40374318, -578738.2, -61269.004, 0.0, 9.999571, 9.999554 
2.7250084e+3, 2.5720015e+2, -599060.9, -568398.3, 61133.113, 0.03804859, 0.38216794, -520703.34, -101226.43, 0.0, 9.999146, 9.999532 
2.724964e+3, 2.6719987e+2, -536682.75, -444011.25, 43032.2, 0.026521787, 0.38898805, -427111.16, -105630.42, 0.0, 9.9987135, 9.999921 
2.72492e+3, 2.771998e+2, -513429.8, -395666.6, 33435.793, 0.0417777, 0.40146956, -386835.63, -163352.94, 0.0, 9.998258, 9.999801 
2.7248758e+3, 2.8719977e+2, -443253.97, -291024.78, 27784.621, 0.07426422, 0.4238944, -286112.13, -160628.92, 0.0, 9.99798, 9.999979 
2.724831e+3, 2.9720005e+2, -382519.7, -218320.78, 45804.52, 0.04878618, 0.46405056, -206407.61, -178926.9, 0.0, 9.997756, 9.999915 
2.7247873e+3, 3.0719903e+2, -362438.88, -127104.1, 33203.46, 0.12606351, 0.35329658, -122509.13, -122509.13, 0.0, 9.997312, 10.000421 
2.724741e+3, 3.1720015e+2, -332628.03, 45176.008, 21986.506, 0.0020107473, 0.43341613, 46451.22, 46451.22, 0.0, 9.996844, 10.001825 
2.735591e+3, 1.2726277e+2, -1233436.9, -1716428.0, 3642.5652, 0.037983008, 0.4255844, -1233409.4, 459456.22, 0.0075190556, 10.004355, 9.997889 
2.7355465e+3, 1.3726056e+2, -1196974.0, -1648328.9, 3376.3728, 0.11623385, 0.4289223, -1196948.8, 397939.75, 0.00427935, 10.00391, 9.9979 
2.735501e+3, 1.4725865e+2, -1117117.8, -1496342.0, 14706.287, 0.076777905, 0.4277075, -1116548.3, 380358.47, 0.0017629216, 10.003508, 9.998461 
2.735455e+3, 1.5725695e+2, -1080259.3, -1436514.6, 14317.466, 0.013090488, 0.42271885, -1079684.9, 319237.3, 0.00044961544, 10.003122, 9.998385 
2.73541e+3, 1.6725513e+2, -1018845.3, -1330121.5, 29378.996, 0.021810478, 0.4021976, -1016096.75, 284842.16, 0.000053713382, 10.002762, 9.998615 
2.7353653e+3, 1.7725335e+2, -976877.0, -1267038.8, 25726.098, 0.053946637, 0.37712628, -974613.75, 228341.38, 0.0000011019603, 10.00241, 9.998546 
2.7353203e+3, 1.8725194e+2, -923753.44, -1163980.3, 24806.084, 0.04041654, 0.37916905, -921218.6, 183750.19, 0.0, 10.001988, 9.998781 
2.735275e+3, 1.9725074e+2, -892370.4, -1100517.5, 24837.889, 0.010231299, 0.39225075, -889447.56, 117533.14, 0.0, 10.001542, 9.998761 
2.7352303e+3, 2.0724957e+2, -829290.0, -973359.7, 38161.285, 0.012380518, 0.38804492, -819806.1, 89185.3, 0.0, 10.001104, 9.999171 
2.735186e+3, 2.1724848e+2, -801323.25, -915454.75, 35970.01, 0.027082622, 0.37473974, -790932.8, 20068.182, 0.0, 10.0006485, 9.999118 
2.7351415e+3, 2.2724752e+2, -735783.8, -802221.2, 35270.44, 0.04005742, 0.36393508, -720551.6, -7541.1494, 0.0, 10.000294, 9.999392 
2.7350968e+3, 2.3724674e+2, -687082.56, -731369.4, 38184.813, 0.053590044, 0.3562318, -665085.2, -50066.32, 0.0, 9.999969, 9.999363 
2.735052e+3, 2.4724631e+2, -623454.0, -613336.0, 37597.582, 0.04953813, 0.37032872, -580458.56, -63435.152, 0.0, 9.999575, 9.99969 
2.7350077e+3, 2.5724614e+2, -599388.4, -569262.5, 45027.254, 0.032984633, 0.39575016, -536845.5, -117819.91, 0.0, 9.9991455, 9.999527 
2.734963e+3, 2.672458e+2, -566988.3, -505890.53, 25949.67, 0.0446944, 0.4267903, -496356.75, -175326.06, 0.0, 9.998709, 9.999498 
2.7349186e+3, 2.772455e+2, -528710.25, -428384.8, 17925.973, 0.083162025, 0.4534233, -425278.03, -202241.55, 0.0, 9.9982605, 9.999576 
2.7348736e+3, 2.872449e+2, -416387.53, -237098.25, 18866.494, 0.06999968, 0.40427804, -235134.45, -110093.12, 0.0, 9.997985, 10.00035 
2.734828e+3, 2.972445e+2, -365347.97, -183717.13, 34059.055, -0.009056806, 0.34230536, -177540.48, -150497.48, 0.0, 9.997758, 10.000154 
2.734785e+3, 3.072461e+2, -381215.63, -162783.83, 12403.726, 0.19047375, 0.5019974, -162081.73, -162081.73, 0.0, 9.997298, 10.000182 
2.7347386e+3, 3.1724465e+2, -364749.28, -35124.895, -48319.105, 0.035728723, 0.35482684, -28187.867, -28187.867, 0.0, 9.996881, 10.001267 
2.7455953e+3, 1.2730828e+2, -1232518.5, -1700706.3, 21505.146, 0.049169872, 0.4074562, -1231532.8, 460885.56, 0.0052940873, 10.004279, 9.998036 
2.7455503e+3, 1.3730618e+2, -1233033.8, -1651097.9, 23585.979, 0.11475827, 0.40729386, -1231707.4, 362732.56, 0.0029285974, 10.003594, 9.998034 
2.745504e+3, 1.473044e+2, -1155217.9, -1512387.8, 39911.832, 0.07615124, 0.412753, -1150812.3, 345645.06, 0.0011556303, 10.003238, 9.99848 
2.7454582e+3, 1.5730283e+2, -1092017.8, -1439032.8, 32674.729, 0.019745607, 0.41865653, -1088968.0, 309504.2, 0.00027635533, 10.003031, 9.998411 
2.745413e+3, 1.6730112e+2, -1041313.3, -1340123.9, 39928.637, 0.02632472, 0.4079174, -1036069.8, 264418.4, 0.000029153769, 10.002605, 9.99862 
2.7453676e+3, 1.7729943e+2, -1020100.1, -1285573.4, 33613.543, 0.05323733, 0.38968167, -1015910.2, 186593.78, 0.00000039166414, 10.002106, 9.998564 
2.7453223e+3, 1.8729793e+2, -949135.56, -1172973.0, 36963.043, 0.03980055, 0.3821397, -943189.7, 161328.61, 0.0, 10.001803, 9.998808 
2.7452767e+3, 1.9729662e+2, -886560.56, -1095676.0, 39778.93, 0.0119380625, 0.38154674, -879249.25, 127281.74, 0.0, 10.0015745, 9.998778 
2.7452314e+3, 2.0729555e+2, -830865.2, -976986.25, 50089.38, 0.012418565, 0.38855195, -815343.6, 93197.5, 0.0, 10.001107, 9.999145 
2.7451864e+3, 2.1729463e+2, -815904.5, -922622.2, 50070.9, 0.025539951, 0.39536667, -796090.5, 14459.128, 0.0, 10.000551, 9.999113 
2.7451417e+3, 2.2729361e+2, -755927.0, -808451.25, 54389.574, 0.03298593, 0.37539566, -721791.06, -9231.633, 0.0, 10.000142, 9.999421 
2.7450967e+3, 2.372926e+2, -709509.56, -738228.6, 56032.59, 0.041732196, 0.34539008, -666025.8, -51456.984, 0.0, 9.9998, 9.999395 
2.7450517e+3, 2.4729219e+2, -627650.3, -612475.1, 47852.86, 0.04547401, 0.35819188, -571612.06, -55039.02, 0.0, 9.999536, 9.999713 
2.7450067e+3, 2.572921e+2, -581317.2, -562501.0, 47323.887, 0.043153718, 0.38970566, -523659.06, -105084.52, 0.0, 9.999281, 9.999507 
2.7449617e+3, 2.672917e+2, -537815.44, -511470.6, 38268.426, 0.05350313, 0.4264916, -484170.97, -163590.39, 0.0, 9.998998, 9.999319 
2.7449167e+3, 2.7729127e+2, -476400.63, -417608.53, 46965.797, 0.084459715, 0.4597601, -391597.78, -169009.86, 0.0, 9.998688, 9.999441 
2.7448717e+3, 2.8729054e+2, -377438.25, -217663.8, 34111.57, 0.06457446, 0.40339717, -210685.8, -86092.23, 0.0, 9.998254, 10.000352 
2.7448258e+3, 2.9728994e+2, -364470.63, -185520.44, 21872.469, -0.013649449, 0.32290614, -182885.83, -156289.53, 0.0, 9.997776, 10.000131 
2.7447826e+3, 3.072918e+2, -357756.5, -158859.16, -3067.584, 0.19632658, 0.5104205, -158811.86, -158811.86, 0.0, 9.997495, 10.0001135 
2.7447358e+3, 3.1728992e+2, -340318.34, -86792.52, -5187.6084, 0.084803835, 0.33185533, -86686.414, -86686.414, 0.0, 9.997326, 10.000697 
2.7556e+3, 1.2735447e+2, -1227065.3, -1679073.5, -4984.151, 0.08568083, 0.4054501, -1227010.4, 464953.97, 0.003526922, 10.004232, 9.998206 
2.755553e+3, 1.373522e+2, -1224759.1, -1634247.9, 1660.4767, 0.060474407, 0.37104723, -1224752.4, 369234.6, 0.0018890937, 10.0035925, 9.99815 
2.755507e+3, 1.4735043e+2, -1158430.9, -1521092.6, 32296.963, 0.042937376, 0.37692755, -1155577.1, 340427.53, 0.00070998265, 10.003243, 9.998419 
2.7554613e+3, 1.5734896e+2, -1096520.5, -1446111.4, 22248.963, 0.055029348, 0.39826277, -1095110.1, 302909.28, 0.0001569409, 10.003019, 9.998368 
2.7554154e+3, 1.6734743e+2, -1045626.4, -1346805.5, 20757.28, 0.051369086, 0.4108023, -1044202.5, 255831.78, 0.000014099469, 10.002595, 9.99858 
2.7553695e+3, 1.7734596e+2, -1021887.7, -1288407.4, 17523.383, 0.034906372, 0.41760153, -1020740.5, 181308.03, 0.00000009505926, 10.002101, 9.998547 
2.7553236e+3, 1.8734436e+2, -944292.25, -1163007.0, 29336.244, 0.029728489, 0.39680317, -940425.7, 163637.89, 0.0, 10.001803, 9.998878 
2.7552783e+3, 1.9734283e+2, -884038.94, -1088045.1, 28581.102, 0.030948019, 0.36746627, -880110.4, 125967.61, 0.0, 10.001563, 9.9988365 
2.7552328e+3, 2.0734178e+2, -832975.3, -980272.94, 29095.174, 0.02941897, 0.37471938, -827436.5, 80651.63, 0.0, 10.0011015, 9.9991255 
2.755187e+3, 2.17341e+2, -815940.94, -923188.1, 31119.412, 0.025510885, 0.3957828, -807565.3, 2530.5623, 0.0, 10.000552, 9.999109 
2.7551413e+3, 2.273401e+2, -753257.7, -805460.0, 41378.69, 0.020561105, 0.3880578, -730435.8, -18331.697, 0.0, 10.000152, 9.999437 
2.7550963e+3, 2.3733921e+2, -710841.5, -740969.94, 43960.21, 0.018556735, 0.36877915, -679436.06, -65324.203, 0.0, 9.999798, 9.999379 
2.755051e+3, 2.4733856e+2, -635596.4, -627925.3, 38906.145, 0.040901832, 0.36370158, -592666.1, -76547.71, 0.0, 9.999531, 9.999609 
2.755006e+3, 2.5733808e+2, -583467.3, -569177.44, 37361.348, 0.06528425, 0.36671373, -538284.0, -120160.33, 0.0, 9.999289, 9.999457 
2.7549607e+3, 2.6733756e+2, -532279.1, -501933.44, 26057.303, 0.05128395, 0.38929108, -486953.38, -166822.88, 0.0, 9.999003, 9.999384 
2.754915e+3, 2.7733713e+2, -478378.9, -422742.97, 33619.215, 0.038639005, 0.41896117, -406925.06, -184787.9, 0.0, 9.998691, 9.999406 
2.7548698e+3, 2.8733677e+2, -406619.9, -276553.94, 15070.265, 0.059926055, 0.42088476, -274830.63, -150690.48, 0.0, 9.998247, 9.99995 
2.754824e+3, 2.973365e+2, -388574.56, -232252.08, 6571.6396, 0.04783149, 0.41216603, -231976.3, -205835.67, 0.0, 9.997762, 9.999818 
2.7547792e+3, 3.0733597e+2, -347046.78, -141845.89, -13228.357, 0.12010373, 0.36925027, -140996.63, -140996.63, 0.0, 9.997512, 10.000225 
2.7547333e+3, 3.1733662e+2, -386739.75, -176782.67, 106765.164, 0.103930496, 0.43393272, -132030.47, -132030.47, 0.0, 9.997314, 10.000075 
2.7656037e+3, 1.2740073e+2, -1313246.3, -1709156.0, 16657.283, 0.07747786, 0.3662284, -1312546.6, 378963.2, 0.0021918397, 10.00358, 9.998315 
2.7655563e+3, 1.3739897e+2, -1214080.9, -1620344.0, 17261.559, 0.04601605, 0.37435353, -1213348.8, 380178.75, 0.0011311196, 10.003626, 9.998229 
2.76551e+3, 1.4739725e+2, -1170828.8, -1532731.5, 42670.8, 0.041298755, 0.38473722, -1165865.6, 329679.56, 0.00040111932, 10.003183, 9.998367 
2.7654645e+3, 1.573956e+2, -1164556.6, -1481531.4, 33336.637, 0.07620785, 0.39463815, -1161088.5, 236473.58, 0.000080078404, 10.002563, 9.998344 
2.765418e+3, 1.6739404e+2, -1080502.6, -1355481.0, 41217.824, 0.061305545, 0.39978987, -1074457.3, 225120.13, 0.000005757098, 10.002323, 9.998651 
2.7653715e+3, 1.773926e+2, -997889.94, -1268225.8, 44512.227, 0.01921647, 0.40357935, -990749.4, 210841.69, 0.00000000965895, 10.0022335, 9.998621 
2.7653253e+3, 1.8739115e+2, -942555.1, -1159053.3, 53359.25, 0.02029822, 0.39267626, -930118.4, 173486.53, 0.0, 10.001803, 9.998903 
2.7652794e+3, 1.9738974e+2, -927123.94, -1105312.9, 49600.523, 0.0428474, 0.37389618, -914247.6, 91370.63, 0.0, 10.001253, 9.998867 
2.7652335e+3, 2.0738867e+2, -853055.94, -989160.0, 51339.703, 0.03801141, 0.37784082, -835862.2, 71766.44, 0.0, 10.000962, 9.99913 
2.7651876e+3, 2.1738783e+2, -783353.06, -905837.1, 54903.613, 0.020812346, 0.3920836, -762345.5, 47291.383, 0.0, 10.000772, 9.999123 
2.7651417e+3, 2.2738692e+2, -712543.06, -784246.75, 64019.46, 0.014704507, 0.38256162, -675020.2, 36624.805, 0.0, 10.000427, 9.99945 
2.7650958e+3, 2.3738603e+2, -681219.2, -728700.4, 67442.875, 0.018317236, 0.3624865, -633460.44, -19807.832, 0.0, 10.000012, 9.999359 
2.7650505e+3, 2.473853e+2, -626881.7, -640039.3, 63311.6, 0.037418693, 0.36120173, -569808.0, -54148.008, 0.0, 9.999664, 9.99946 
2.7650052e+3, 2.5738472e+2, -582554.25, -578227.9, 57923.82, 0.05778416, 0.36856282, -522426.88, -104760.24, 0.0, 9.999341, 9.999369 
2.7649593e+3, 2.6738414e+2, -519569.66, -487758.47, 44792.316, 0.0443261, 0.38404006, -456131.56, -136457.86, 0.0, 9.999059, 9.999453 
2.7649134e+3, 2.7738363e+2, -465074.56, -413221.78, 51765.844, 0.0344691, 0.40041605, -381252.75, -159572.31, 0.0, 9.998771, 9.999432 
2.7648678e+3, 2.8738332e+2, -393891.88, -284494.47, 42164.547, 0.06263724, 0.41617456, -270129.44, -146446.42, 0.0, 9.998401, 9.999819 
2.7648216e+3, 2.973832e+2, -372147.8, -245527.08, 55047.066, 0.05959899, 0.43366143, -224942.38, -199259.38, 0.0, 9.997971, 9.999623 
2.7647763e+3, 3.0738178e+2, -352649.94, -193852.36, 22714.924, 0.10540247, 0.33639458, -190667.03, -190667.03, 0.0, 9.997687, 9.999782 
2.7647302e+3, 3.1738272e+2, -348594.7, -87105.805, 94971.3, 0.086088754, 0.46357623, -56253.04, -56253.04, 0.0, 9.997277, 10.000706 
2.7756065e+3, 1.2744711e+2, -1306757.6, -1699119.0, 19535.914, 0.03274575, 0.30059996, -1305787.4, 385266.6, 0.0012455386, 10.003596, 9.998374 
2.77556e+3, 1.3744645e+2, -1215532.6, -1616960.5, 13844.022, 0.060568914, 0.41005647, -1215055.8, 378006.22, 0.000614039, 10.003597, 9.998266 
2.7755135e+3, 1.4744475e+2, -1177643.9, -1543047.1, 18780.242, 0.064351216, 0.42567128, -1176681.3, 318398.6, 0.00020190683, 10.003164, 9.998307 
2.7754667e+3, 1.574427e+2, -1165204.5, -1482921.6, 14802.498, 0.08581465, 0.40194494, -1164516.4, 232584.38, 0.00003484893, 10.0025625, 9.998337 
2.7754202e+3, 1.6744095e+2, -1069151.1, -1332293.1, 39240.816, 0.05680827, 0.37821963, -1063424.0, 235693.28, 0.0000017161015, 10.002325, 9.998809 
2.7753735e+3, 1.7743942e+2, -990467.8, -1250149.3, 37301.0, 0.002008676, 0.35691112, -985216.06, 215914.92, 0.00000000000031198744, 10.002221, 9.998752 
2.775327e+3, 1.8743828e+2, -944922.8, -1162004.3, 32421.28, 0.010960106, 0.37259284, -940184.06, 162958.08, 0.0, 10.001794, 9.998889 
2.7752808e+3, 1.9743732e+2, -927744.3, -1105956.1, 32215.877, 0.04721574, 0.40038377, -922099.4, 83052.58, 0.0, 10.001249, 9.998865 
2.7752343e+3, 2.0743619e+2, -851175.7, -985927.7, 44761.227, 0.038199905, 0.39666134, -837662.3, 69500.45, 0.0, 10.000965, 9.999151 
2.775188e+3, 2.1743508e+2, -783390.1, -904122.5, 46081.813, 0.009884523, 0.3814116, -767811.56, 41361.676, 0.0, 10.000763, 9.999139 
2.775142e+3, 2.2743404e+2, -713213.1, -784961.5, 48829.055, 0.014888857, 0.35776013, -688496.6, 22685.885, 0.0, 10.000423, 9.999448 
2.775096e+3, 2.3743309e+2, -683543.6, -734311.1, 52378.098, 0.035127625, 0.33210003, -650722.56, -37531.895, 0.0, 10.000014, 9.99932 
2.77505e+3, 2.4743247e+2, -639950.3, -668121.7, 50464.56, 0.033847105, 0.35409456, -601642.5, -86444.87, 0.0, 9.999667, 9.999268 
2.7750042e+3, 2.5743204e+2, -591561.7, -597127.06, 46185.5, 0.01838367, 0.39641577, -548075.1, -130871.68, 0.0, 9.99934, 9.99924 
2.7749583e+3, 2.6743144e+2, -516143.72, -479309.25, 34307.652, 0.032922246, 0.40906492, -458787.97, -139577.45, 0.0, 9.999054, 9.999514 
2.7749127e+3, 2.7743077e+2, -459542.56, -401418.72, 40177.72, 0.07434494, 0.40548486, -380893.9, -159676.16, 0.0, 9.998769, 9.999514 
2.7748662e+3, 2.8743026e+2, -384054.3, -265334.9, 25852.016, 0.070774555, 0.3895336, -259949.72, -136727.38, 0.0, 9.998403, 9.999951 
2.7748194e+3, 2.9743e+2, -373485.28, -252280.72, 39742.625, 0.006719597, 0.38449556, -240411.53, -215187.84, 0.0, 9.997986, 9.999571 
2.7747747e+3, 3.0742928e+2, -424470.3, -339680.44, 15578.895, 0.16694395, 0.41529378, -336908.63, -336908.63, 0.0, 9.997674, 9.998787 
2.7747273e+3, 3.17428e+2, -203674.39, 210866.38, -53851.965, 0.06450401, 0.38860166, 217747.92, 217747.92, 0.0, 9.997268, 10.0027685 
2.78561e+3, 1.2749471e+2, -1291915.6, -1684387.5, 29603.379, 0.030978402, 0.3237267, -1289695.3, 400892.56, 0.0006298635, 10.003659, 9.998447 
2.7855635e+3, 1.3749386e+2, -1289165.4, -1644045.0, 25070.883, 0.0652391, 0.40865356, -1287403.0, 305194.1, 0.00029206782, 10.003054, 9.998343 
2.785516e+3, 1.4749216e+2, -1230479.3, -1563028.6, 35361.734, 0.059651546, 0.41691285, -1226760.6, 267854.22, 0.00008601583, 10.002781, 9.998353 
2.7854693e+3, 1.5749016e+2, -1147413.9, -1466143.8, 39166.85, 0.06820694, 0.39283788, -1142671.4, 253963.78, 0.000011710244, 10.002653, 9.998407 
2.7854225e+3, 1.6748853e+2, -1073851.4, -1326061.8, 62927.03, 0.052926272, 0.37304786, -1059022.9, 239627.75, 0.00000025139548, 10.002255, 9.998885 
2.7853754e+3, 1.774871e+2, -1051301.8, -1272012.1, 54034.113, 0.023193408, 0.3553132, -1038783.25, 161880.08, 0.0, 10.001768, 9.998821 
2.7853286e+3, 1.8748602e+2, -977697.25, -1169573.9, 50801.39, 0.02302314, 0.37076148, -965077.1, 137596.75, 0.0, 10.001536, 9.9989605 
2.7852818e+3, 1.9748513e+2, -901255.25, -1085426.6, 57034.574, 0.035522826, 0.39975682, -885023.25, 119659.58, 0.0, 10.001405, 9.998929 
2.785235e+3, 2.0748393e+2, -840921.56, -983733.44, 69155.57, 0.028798515, 0.38739416, -812922.75, 93771.55, 0.0, 10.00105, 9.999125 
2.7851886e+3, 2.1748266e+2, -807144.2, -918158.56, 66966.484, 0.015979188, 0.3584791, -775671.2, 33035.023, 0.0, 10.000611, 9.999116 
2.785142e+3, 2.2748171e+2, -737401.44, -800957.06, 65995.695, 0.01489463, 0.3486389, -695931.3, 14783.44, 0.0, 10.0002775, 9.999407 
2.7850956e+3, 2.3748095e+2, -689428.9, -740509.3, 68138.2, 0.022285406, 0.34617874, -642201.56, -29479.994, 0.0, 9.999992, 9.999287 
2.7850497e+3, 2.4748021e+2, -624217.5, -665347.0, 75527.6, 0.025900722, 0.3609821, -566505.0, -51775.508, 0.0, 9.999798, 9.999223 
2.7850035e+3, 2.5747952e+2, -555055.75, -584690.8, 80375.07, 0.021607237, 0.38420978, -488143.75, -71406.49, 0.0, 9.999614, 9.999193 
2.7849573e+3, 2.6747888e+2, -495655.2, -475788.5, 60815.008, 0.029391058, 0.3974783, -424100.94, -105356.17, 0.0, 9.999226, 9.999453 
2.784911e+3, 2.7747828e+2, -465090.72, -407194.63, 57704.723, 0.06361649, 0.40215528, -371583.97, -150832.19, 0.0, 9.99875, 9.99948 
2.7848646e+3, 2.874778e+2, -371382.53, -256885.92, 37236.26, 0.075484216, 0.3897025, -245841.42, -123085.44, 0.0, 9.998482, 9.99997 
2.7848175e+3, 2.9747754e+2, -330753.7, -229767.5, 42684.29, 0.025346404, 0.38457692, -214143.27, -189386.14, 0.0, 9.998273, 9.999586 
2.784772e+3, 3.0747637e+2, -402215.44, -329310.28, 61598.8, 0.12924846, 0.37315294, -294186.3, -294186.3, 0.0, 9.997833, 9.998779 
2.7847245e+3, 3.1747523e+2, -191797.03, 264028.78, -30558.25, 0.09845532, 0.35609794, 266068.25, 266068.25, 0.0, 9.99715, 10.003187 
2.7956137e+3, 1.2754329e+2, -1289391.3, -1670410.6, 6285.094, 0.05980517, 0.41486165, -1289287.6, 400825.7, 0.00027310598, 10.003624, 9.998559 
2.7955663e+3, 1.3754132e+2, -1278080.6, -1624985.6, 6640.17, 0.060969092, 0.3778195, -1277953.6, 314178.4, 0.00011560371, 10.00307, 9.9984665 
2.7955186e+3, 1.475396e+2, -1217908.4, -1541719.9, 31295.434, 0.03022071, 0.37047482, -1214911.5, 279237.72, 0.00002830601, 10.0028, 9.998491 
2.7954713e+3, 1.57538e+2, -1140524.4, -1449801.0, 31932.04, 0.022089405, 0.3732978, -1137261.9, 258903.52, 0.000002446046, 10.002644, 9.998525 
2.7954245e+3, 1.6753668e+2, -1076784.9, -1329388.1, 44399.16, 0.049346447, 0.38058186, -1069208.3, 228969.88, 0.0000000042322403, 10.002242, 9.99887 
2.7953777e+3, 1.775355e+2, -1051086.1, -1269393.3, 38419.598, 0.0801296, 0.38930303, -1044522.0, 155667.11, 0.0, 10.001758, 9.998844 
2.7953303e+3, 1.8753432e+2, -967730.56, -1148268.0, 46236.305, 0.052275617, 0.3845249, -956578.2, 145622.11, 0.0, 10.0015335, 9.999107 
2.795283e+3, 1.975332e+2, -895634.9, -1071503.5, 49088.855, 0.0052753217, 0.37492496, -882860.9, 121350.016, 0.0, 10.001394, 9.99903 
2.795236e+3, 2.0753188e+2, -846251.94, -994133.5, 52477.004, 0.010615537, 0.35279942, -829522.56, 76700.61, 0.0, 10.001046, 9.999056 
2.7951893e+3, 2.1753058e+2, -812194.7, -928263.06, 51926.586, 0.034019638, 0.32807234, -792355.0, 15880.379, 0.0, 10.000608, 9.999048 
2.7951422e+3, 2.2752994e+2, -742696.7, -813019.75, 55308.086, 0.013422495, 0.35651848, -712319.5, -2077.7979, 0.0, 10.000281, 9.999323 
2.795095e+3, 2.375296e+2, -691955.94, -746215.44, 58514.55, -0.019779127, 0.40241852, -654587.8, -42342.28, 0.0, 9.999992, 9.9992485 
2.7950493e+3, 2.4752851e+2, -618207.56, -652326.44, 69186.0, 0.014169725, 0.37833288, -564008.9, -49752.88, 0.0, 9.999795, 9.999314 
2.7950034e+3, 2.5752723e+2, -552494.0, -580929.3, 70826.71, 0.063069604, 0.33240375, -494472.0, -78203.83, 0.0, 9.9996195, 9.999217 
2.7949563e+3, 2.675265e+2, -509352.47, -504933.8, 42021.82, 0.031985033, 0.35074708, -465063.28, -146786.78, 0.0, 9.999227, 9.999253 
2.7949092e+3, 2.7752605e+2, -475574.72, -429397.34, 42013.156, -0.0043136617, 0.39125285, -404546.56, -184263.8, 0.0, 9.998751, 9.999329 
2.794863e+3, 2.8752586e+2, -379373.25, -271916.53, 29228.873, 0.07729829, 0.41741505, -264480.66, -142196.52, 0.0, 9.998476, 9.99987 
2.7948168e+3, 2.9752576e+2, -327864.75, -220278.22, 31519.955, 0.12729962, 0.43650922, -211723.88, -187440.61, 0.0, 9.998257, 9.99966 
2.7947682e+3, 3.0752298e+2, -333936.38, -187281.0, 40684.777, -0.028104706, 0.20228589, -176750.47, -176750.47, 0.0, 9.9978285, 9.999759 
2.7947223e+3, 3.175248e+2, -311413.53, 21870.814, -73572.14, 0.17595255, 0.40670165, 37389.21, 37389.21, 0.0, 9.997131, 10.001529 
2.805617e+3, 1.275914e+2, -1320836.8, -1685858.6, 21024.385, 0.037921797, 0.42079473, -1319629.8, 370011.78, 0.00009545869, 10.003406, 9.99856 
2.8055695e+3, 1.3758923e+2, -1274289.6, -1617688.0, 14050.025, 0.07992587, 0.36242494, -1273715.6, 317946.63, 0.0000345017, 10.003072, 9.998516 
2.8055212e+3, 1.4758769e+2, -1219185.6, -1520491.0, 42729.96, 0.04142153, 0.36003357, -1213243.0, 280434.5, 0.0000060034013, 10.002697, 9.998686 
2.8054735e+3, 1.5758644e+2, -1176679.0, -1451447.1, 44211.55, 0.010393178, 0.37773687, -1169740.4, 225949.7, 0.00000016363987, 10.002326, 9.998668 
2.805426e+3, 1.6758513e+2, -1110007.5, -1343458.0, 57177.996, 0.044412225, 0.3812671, -1096755.4, 200947.27, 0.0, 10.002009, 9.998885 
2.8053793e+3, 1.7758387e+2, -1053430.1, -1265304.9, 56528.16, 0.09056924, 0.38020584, -1039291.9, 160422.64, 0.0, 10.001727, 9.998884 
2.8053316e+3, 1.8758276e+2, -983011.5, -1156182.1, 61707.58, 0.057116177, 0.3800109, -963272.56, 138452.8, 0.0, 10.001431, 9.999103 
2.805284e+3, 1.9758172e+2, -931550.6, -1087858.6, 53219.496, 0.00062527624, 0.37879705, -915151.1, 88584.4, 0.0, 10.001139, 9.9990425 
2.805237e+3, 2.0758045e+2, -860802.25, -992588.5, 57589.043, 0.0037926566, 0.3540266, -839183.06, 66564.29, 0.0, 10.00091, 9.999131 
2.8051898e+3, 2.1757913e+2, -794968.0, -913918.25, 67139.414, 0.027281348, 0.3234778, -764749.25, 43009.902, 0.0, 10.000706, 9.999098 
2.8051427e+3, 2.2757849e+2, -714876.0, -805681.2, 76316.516, 0.012223901, 0.3522125, -671477.7, 38287.895, 0.0, 10.000501, 9.999267 
2.8050953e+3, 2.3757811e+2, -653888.7, -732906.0, 81216.64, -0.011867034, 0.40085983, -603080.8, 8688.944, 0.0, 10.000277, 9.999203 
2.805049e+3, 2.4757695e+2, -609781.1, -650748.1, 83718.82, 0.01528028, 0.37376714, -544076.4, -30295.723, 0.0, 9.999866, 9.99929 
2.8050026e+3, 2.575756e+2, -589275.9, -599705.7, 77826.875, 0.05525797, 0.32105064, -516489.4, -100695.94, 0.0, 9.999375, 9.999205 
2.8049552e+3, 2.675748e+2, -505268.25, -504918.16, 59708.184, 0.021681342, 0.33415002, -445384.78, -127582.664, 0.0, 9.999263, 9.999236 
2.804908e+3, 2.7757427e+2, -403681.22, -401153.78, 71589.13, -0.01548863, 0.37015954, -330817.22, -111008.41, 0.0, 9.999268, 9.999275 
2.804862e+3, 2.8757396e+2, -330858.63, -268264.1, 52687.434, 0.083216876, 0.4008181, -238279.34, -116468.0, 0.0, 9.998896, 9.999692 
2.8048152e+3, 2.975738e+2, -316468.03, -221364.72, 48618.957, 0.1561734, 0.4261767, -200909.3, -177097.19, 0.0, 9.998366, 9.999598 
2.8047654e+3, 3.0757138e+2, -270039.34, -119384.47, 26210.33, -0.08560017, 0.21276174, -114954.74, -114954.74, 0.0, 9.998105, 10.000092 
2.8047204e+3, 3.1757367e+2, -207378.25, -35917.477, -90525.8, 0.20388198, 0.44603324, 3030.197, 3030.197, 0.0, 9.998313, 10.000561 
2.8156197e+3, 1.2763928e+2, -1329153.8, -1701855.5, 8483.585, -0.029431222, 0.36031425, -1328960.8, 360210.34, 0.000023604834, 10.003405, 9.998448 
2.8155726e+3, 1.3763757e+2, -1283040.8, -1624607.9, 2278.0747, 0.114385, 0.3585744, -1283025.6, 308162.8, 0.0000064184533, 10.003024, 9.998491 
2.8155243e+3, 1.4763637e+2, -1208351.9, -1492170.1, 28891.05, 0.085486375, 0.37792984, -1205440.9, 287759.56, 0.00000052844416, 10.002669, 9.998896 
2.8154758e+3, 1.5763538e+2, -1164499.6, -1425679.0, 30382.53, 0.029300716, 0.40233374, -1161011.9, 234198.28, 0.0000000005064632, 10.002323, 9.998846 
2.815428e+3, 1.676339e+2, -1104473.5, -1333004.8, 46739.03, 0.03528831, 0.37698853, -1095284.0, 201940.02, 0.0, 10.002013, 9.998956 
2.8153807e+3, 1.776323e+2, -1052570.5, -1262432.3, 46164.508, 0.053941127, 0.33516827, -1042864.3, 156374.6, 0.0, 10.00172, 9.998908 
2.815333e+3, 1.8763137e+2, -994446.0, -1178842.4, 51121.527, 0.040315207, 0.35992885, -981221.6, 120027.25, 0.0, 10.001425, 9.998951 
2.815285e+3, 1.9763067e+2, -936785.94, -1097209.9, 43466.727, 0.01871224, 0.4081825, -925765.7, 77491.02, 0.0, 10.001132, 9.998982 
2.8152376e+3, 2.0762953e+2, -847122.44, -964169.3, 50417.918, 0.0063594994, 0.3876148, -828399.8, 76867.234, 0.0, 10.00091, 9.999327 
2.81519e+3, 2.1762827e+2, -786315.7, -894185.4, 59420.152, -0.0040033986, 0.3414378, -760002.6, 47275.145, 0.0, 10.000697, 9.999238 
2.815143e+3, 2.2762729e+2, -716924.94, -810176.1, 68499.484, 0.011573564, 0.33481693, -680688.44, 28598.121, 0.0, 10.000502, 9.999236 
2.815096e+3, 2.376265e+2, -656918.9, -740585.1, 70360.33, 0.03761055, 0.3451758, -616894.9, -5600.8594, 0.0, 10.000281, 9.999148 
2.8150487e+3, 2.4762554e+2, -619696.7, -671629.4, 64511.793, 0.027064385, 0.35019118, -576121.5, -62818.176, 0.0, 9.999865, 9.999148 
2.8150016e+3, 2.576246e+2, -593119.4, -607846.94, 63939.695, -0.0028034016, 0.35237274, -536120.8, -120807.87, 0.0, 9.999374, 9.999149 
2.8149542e+3, 2.6762372e+2, -494105.25, -481503.44, 60872.074, -0.0010430646, 0.3469799, -426607.03, -109285.305, 0.0, 9.999262, 9.999398 
2.8149074e+3, 2.776229e+2, -399419.72, -393886.94, 67287.79, 0.031364515, 0.3389738, -329308.7, -109978.87, 0.0, 9.999274, 9.999323 
2.8148606e+3, 2.8762212e+2, -349618.88, -308251.22, 32086.44, 0.09122257, 0.33701584, -290759.66, -169421.75, 0.0, 9.998898, 9.999418 
2.8148127e+3, 2.9762152e+2, -328908.7, -249194.53, 32394.72, 0.097915396, 0.34646532, -237690.11, -214345.72, 0.0, 9.998374, 9.999404 
2.8147638e+3, 3.0762187e+2, -292316.5, -167539.42, 19802.754, -0.028084112, 0.4320287, -164472.03, -164472.03, 0.0, 9.998113, 9.999758 
2.8147182e+3, 3.1762096e+2, -203688.3, -39123.49, 28615.344, 0.16349973, 0.38798338, -34289.695, -34289.695, 0.0, 9.99835, 10.000525 
2.825623e+3, 1.2768787e+2, -1375656.4, -1709989.3, 9315.371, -0.021472393, 0.3496864, -1375397.0, 313297.4, 0.0000033256797, 10.00302, 9.998579 
2.8255755e+3, 1.376864e+2, -1334163.1, -1636026.4, 19798.87, 0.10500163, 0.35764357, -1332870.0, 257839.25, 0.00000050691085, 10.002616, 9.99861 
2.8255266e+3, 1.4768526e+2, -1258219.5, -1511455.5, 48024.9, 0.084156945, 0.37609112, -1249417.8, 243303.08, 0.0000000023756648, 10.002311, 9.998934 
2.8254783e+3, 1.5768425e+2, -1195452.8, -1431514.9, 38607.74, 0.045000535, 0.39445758, -1189298.9, 205432.0, 0.0, 10.002074, 9.998925 
2.82543e+3, 1.676829e+2, -1132308.3, -1336083.6, 51035.047, 0.039001375, 0.3735588, -1120241.3, 176502.33, 0.0, 10.001776, 9.99905 
2.825382e+3, 1.776815e+2, -1084505.3, -1269813.6, 52122.89, 0.038362216, 0.34095773, -1070850.5, 127906.375, 0.0, 10.001462, 9.998984 
2.825334e+3, 1.8768051e+2, -1012734.56, -1179432.6, 71713.15, 0.029258031, 0.35591796, -986129.8, 114637.125, 0.0, 10.001267, 9.999022 
2.825286e+3, 1.9767974e+2, -933488.4, -1086744.6, 79714.99, 0.018619789, 0.38856584, -899543.7, 103231.555, 0.0, 10.001123, 9.999054 
2.8252384e+3, 2.0767878e+2, -840505.94, -960163.56, 81756.74, 0.008774725, 0.38331378, -799025.06, 105758.93, 0.0, 10.000955, 9.999331 
2.8251907e+3, 2.1767777e+2, -775293.4, -889166.0, 78040.46, 0.000600498, 0.36250895, -735627.06, 71165.695, 0.0, 10.000774, 9.999235 
2.8251433e+3, 2.276766e+2, -721751.4, -817745.75, 80051.17, 0.011738191, 0.33994833, -676410.9, 32392.26, 0.0, 10.000491, 9.999188 
2.8250962e+3, 2.3767546e+2, -675640.94, -752333.4, 79785.35, 0.03407828, 0.32008255, -625465.25, -14651.687, 0.0, 10.000167, 9.999121 
2.8250486e+3, 2.4767458e+2, -606810.56, -664510.7, 79178.06, 0.025726289, 0.33182752, -551390.25, -38568.14, 0.0, 9.99995, 9.999155 
2.825001e+3, 2.5767383e+2, -537032.06, -582360.9, 90555.914, -0.0014453335, 0.35394308, -466347.4, -51517.56, 0.0, 9.999764, 9.999138 
2.8249535e+3, 2.6767284e+2, -469004.06, -474513.75, 82926.51, -0.0022104296, 0.34420708, -388786.66, -71947.49, 0.0, 9.999457, 9.9993515 
2.8249064e+3, 2.7767187e+2, -429181.75, -411938.75, 73284.55, 0.032046217, 0.32239434, -346770.3, -127921.6, 0.0, 9.999091, 9.999285 
2.8248593e+3, 2.87671e+2, -345610.47, -314135.78, 43341.5, 0.09522269, 0.31754005, -283762.94, -162904.95, 0.0, 9.998959, 9.999349 
2.8248113e+3, 2.9767033e+2, -264506.38, -236747.23, 58406.69, 0.10470516, 0.3315383, -190593.61, -167728.11, 0.0, 9.998892, 9.999243 
2.8247622e+3, 3.0767077e+2, -239929.89, -198806.61, 38084.82, -0.03482072, 0.4622754, -176087.38, -176087.38, 0.0, 9.998718, 9.999251 
2.8247163e+3, 3.1766865e+2, -184831.1, 17852.688, 72356.63, 0.14451917, 0.33089146, 41032.527, 41032.527, 0.0, 9.998281, 10.000947 
2.8356266e+3, 1.277371e+2, -1357223.5, -1660362.1, -5312.3887, 0.050557896, 0.3812052, -1357130.4, 331082.06, 0.00000016214108, 10.0029745, 9.99894 
2.8355774e+3, 1.3773574e+2, -1317078.5, -1599838.4, 6635.154, 0.049734283, 0.36372098, -1316922.9, 273302.13, 0.0000000020979667, 10.002614, 9.998858 
2.8355283e+3, 1.4773437e+2, -1263787.1, -1525198.8, 39794.656, 0.037354942, 0.35845262, -1257863.5, 234375.1, 0.0, 10.002318, 9.998837 
2.8354803e+3, 1.577331e+2, -1199319.1, -1437487.9, 30056.563, 0.05452811, 0.35704055, -1195584.6, 198667.33, 0.0, 10.002064, 9.99889 
2.835432e+3, 1.6773215e+2, -1128125.4, -1324868.5, 39622.71, 0.0554741, 0.37142134, -1120445.4, 175816.05, 0.0, 10.001764, 9.999133 
2.8353834e+3, 1.7773135e+2, -1076231.5, -1250485.0, 41782.254, 0.04334751, 0.39154094, -1066731.0, 131538.17, 0.0, 10.001453, 9.999122 
2.835335e+3, 1.8773018e+2, -992583.4, -1138230.1, 66589.19, 0.021390103, 0.36503562, -966728.7, 133551.16, 0.0, 10.001269, 9.999304 
2.8352872e+3, 1.9772895e+2, -922785.06, -1062999.5, 73774.305, -0.0017487324, 0.3239661, -891119.6, 111171.42, 0.0, 10.001116, 9.999222 
2.8352392e+3, 2.077282e+2, -852460.44, -984490.1, 75218.82, 0.010589217, 0.3453477, -818396.2, 85902.1, 0.0, 10.000951, 9.9991665 
2.8351918e+3, 2.1772765e+2, -785723.44, -909109.9, 70381.45, 0.032566406, 0.3868869, -753823.9, 52480.14, 0.0, 10.000767, 9.999103 
2.8351438e+3, 2.2772643e+2, -727333.6, -828707.3, 68201.24, 0.011220822, 0.3667743, -693046.56, 15268.805, 0.0, 10.000488, 9.999115 
2.8350958e+3, 2.3772499e+2, -677199.75, -754890.0, 69040.04, -0.019543767, 0.32516637, -636827.06, -26498.773, 0.0, 10.000164, 9.999105 
2.8350484e+3, 2.4772401e+2, -597032.7, -644732.0, 72505.24, 0.011979295, 0.317832, -544555.3, -32218.049, 0.0, 9.999952, 9.99929 
2.835001e+3, 2.5772324e+2, -532876.0, -576668.06, 81551.78, 0.05260257, 0.3266357, -470331.94, -55987.62, 0.0, 9.999776, 9.999172 
2.834953e+3, 2.6772222e+2, -486443.13, -511343.88, 68357.8, 0.016436797, 0.32648963, -429411.13, -113056.64, 0.0, 9.999457, 9.9991 
2.834905e+3, 2.7772117e+2, -436870.22, -428377.06, 62379.094, -0.019129729, 0.31980568, -370100.2, -151734.6, 0.0, 9.999093, 9.999171 
2.8348583e+3, 2.8772068e+2, -335112.75, -292197.47, 41852.86, 0.09430327, 0.34609845, -266622.22, -146251.14, 0.0, 9.998958, 9.9995 
2.834811e+3, 2.9772043e+2, -274110.25, -256784.61, 54849.02, 0.18376912, 0.3914662, -209918.52, -187544.39, 0.0, 9.998892, 9.999105 
2.83476e+3, 3.0771783e+2, -290997.3, -304519.44, 29663.322, -0.11377817, 0.2717775, -267334.28, -267334.28, 0.0, 9.998715, 9.998528 
2.8347147e+3, 3.1771767e+2, -131443.06, 133202.84, -26229.867, 0.15660097, 0.38803992, 135777.52, 135777.52, 0.0, 9.99826, 10.00175 
2.8456295e+3, 1.2778638e+2, -1418033.6, -1671295.1, 13999.577, 0.08080039, 0.3739109, -1417262.1, 270467.06, 0.00000000032983427, 10.002473, 9.999109 
2.8455794e+3, 1.3778518e+2, -1349072.6, -1598718.3, 11934.543, 0.03417227, 0.35832003, -1348503.4, 241236.22, 0.0, 10.002321, 9.999009 
2.8455302e+3, 1.477839e+2, -1305600.5, -1539247.0, 47756.523, 0.0172606, 0.35079575, -1296216.1, 195536.47, 0.0, 10.002005, 9.998893 
2.845482e+3, 1.5778266e+2, -1254694.5, -1457233.4, 48629.086, 0.047080405, 0.34754655, -1243623.9, 150142.22, 0.0, 10.001654, 9.998952 
2.8454334e+3, 1.6778187e+2, -1166801.1, -1331797.4, 65158.555, 0.055310145, 0.37025234, -1144172.8, 151601.3, 0.0, 10.0014515, 9.999233 
2.8453848e+3, 1.7778127e+2, -1087866.9, -1241359.5, 70524.4, 0.04540603, 0.3985834, -1060384.1, 137395.92, 0.0, 10.001315, 9.999248 
2.8453362e+3, 1.8778014e+2, -1002854.6, -1131769.9, 87287.81, 0.02322609, 0.36439484, -958804.44, 140985.64, 0.0, 10.00115, 9.999406 
2.8452882e+3, 1.9777887e+2, -937408.0, -1062187.6, 82341.195, 0.0031032246, 0.31248114, -896489.75, 105311.37, 0.0, 10.000978, 9.999295 
2.84524e+3, 2.0777819e+2, -877644.4, -996680.0, 87717.734, 0.01279615, 0.33566636, -831158.56, 72649.44, 0.0, 10.000779, 9.9991665 
2.8451923e+3, 2.177777e+2, -813575.7, -922099.94, 94343.64, 0.03019873, 0.38425568, -759002.6, 46810.72, 0.0, 10.000575, 9.9991045 
2.845144e+3, 2.2777642e+2, -725308.5, -829777.7, 97872.08, 0.007697689, 0.36250755, -666604.4, 41220.59, 0.0, 10.000513, 9.999095 
2.8450957e+3, 2.3777494e+2, -632746.5, -736147.44, 102261.13, -0.022148108, 0.31658605, -569859.5, 39979.02, 0.0, 10.000481, 9.999081 
2.8450483e+3, 2.4777396e+2, -556390.75, -630165.06, 94702.47, 0.01214111, 0.31381172, -491645.13, 20202.348, 0.0, 10.000253, 9.999246 
2.845001e+3, 2.577732e+2, -515697.03, -572068.8, 90873.06, 0.06192455, 0.3291148, -448739.03, -34884.684, 0.0, 9.999913, 9.999137 
2.8449526e+3, 2.677721e+2, -460014.22, -504192.06, 84464.23, 0.025376352, 0.3233546, -394798.34, -78932.94, 0.0, 9.999661, 9.999052 
2.8449044e+3, 2.7777088e+2, -390690.25, -412116.03, 92569.4, -0.01482636, 0.3079387, -308215.9, -90338.07, 0.0, 9.999428, 9.999126 
2.8448573e+3, 2.877705e+2, -312378.25, -286379.97, 66913.19, 0.101557754, 0.3514696, -231214.94, -111332.7, 0.0, 9.999135, 9.999456 
2.84481e+3, 2.9777044e+2, -284994.75, -268726.06, 69849.27, 0.1927028, 0.41871232, -206539.08, -184655.3, 0.0, 9.998853, 9.99904 
2.844759e+3, 3.0776703e+2, -270961.78, -310812.94, 80856.93, -0.09265918, 0.2288438, -207611.48, -207611.48, 0.0, 9.998925, 9.998383 
2.844713e+3, 3.1776744e+2, -35346.492, 187379.84, -9964.563, 0.15486729, 0.41284016, 187824.75, 187824.75, 0.0, 9.998885, 10.001823 
2.8556314e+3, 1.2783569e+2, -1424364.0, -1673751.8, 8198.088, 0.060279462, 0.33486223, -1424094.8, 263150.2, 0.0, 10.002433, 9.999108 
2.8555816e+3, 1.3783474e+2, -1347487.1, -1590909.1, 4437.7847, 0.05793636, 0.34359622, -1347406.3, 241846.95, 0.0, 10.002303, 9.99907 
2.8555322e+3, 1.4783378e+2, -1294883.5, -1514473.5, 33884.813, 0.025603974, 0.35433802, -1289773.6, 201489.73, 0.0, 10.001992, 9.999069 
2.8554833e+3, 1.5783286e+2, -1245545.1, -1433883.3, 37019.523, 0.023883702, 0.36547577, -1238530.0, 154744.08, 0.0, 10.001635, 9.999122 
2.8554344e+3, 1.6783203e+2, -1157632.4, -1311906.8, 60356.832, 0.035271283, 0.3677702, -1136825.3, 158456.94, 0.0, 10.001448, 9.9993725 
2.8553858e+3, 1.7783123e+2, -1081985.5, -1228874.0, 65569.96, 0.039269347, 0.36468077, -1056974.3, 140315.13, 0.0, 10.001313, 9.999335 
2.8553373e+3, 1.8783036e+2, -1008371.1, -1142787.4, 81285.48, 0.03363083, 0.35617757, -970107.7, 129189.97, 0.0, 10.001146, 9.999333 
2.855289e+3, 1.9782947e+2, -939829.5, -1064228.3, 75521.81, 0.02860388, 0.34784028, -904190.7, 97115.195, 0.0, 10.000966, 9.999288 
2.8552407e+3, 2.0782866e+2, -867576.4, -975626.44, 80107.23, 0.014749304, 0.35073847, -824979.1, 78334.28, 0.0, 10.000778, 9.999311 
2.8551924e+3, 2.1782789e+2, -806781.7, -906088.2, 88480.445, -0.0038063875, 0.35613373, -754974.44, 50346.17, 0.0, 10.0005665, 9.999219 
2.855144e+3, 2.2782664e+2, -723242.5, -826427.0, 97434.57, 0.0004997699, 0.3299722, -664583.9, 42748.105, 0.0, 10.000516, 9.999117 
2.8550965e+3, 2.3782527e+2, -633299.25, -740333.9, 98518.81, 0.013983733, 0.29595634, -574700.3, 34644.152, 0.0, 10.000493, 9.999047 
2.8550485e+3, 2.4782442e+2, -570821.9, -659972.3, 82104.336, 0.024239311, 0.31968758, -521972.94, -10620.091, 0.0, 10.000251, 9.9990425 
2.8550002e+3, 2.5782374e+2, -522460.38, -586845.06, 79492.28, 0.027263185, 0.36027238, -468889.25, -55529.426, 0.0, 9.999915, 9.999035 
2.8549522e+3, 2.6782247e+2, -450411.7, -484707.94, 76469.336, 0.024843154, 0.33459657, -389191.34, -73819.46, 0.0, 9.999663, 9.999186 
2.854904e+3, 2.7782106e+2, -388414.38, -408828.9, 82144.16, 0.044808142, 0.28975362, -315845.75, -98460.6, 0.0, 9.999433, 9.999147 
2.8548566e+3, 2.8782052e+2, -331234.47, -324238.03, 55020.418, 0.11631051, 0.33216545, -272604.75, -153213.16, 0.0, 9.999128, 9.9992 
2.854808e+3, 2.9782033e+2, -282159.16, -263155.1, 64958.004, 0.11959558, 0.4067598, -207007.83, -185612.66, 0.0, 9.998855, 9.999077 
2.8547588e+3, 3.0781865e+2, -232699.92, -234365.42, 89259.53, 0.028546087, 0.35212472, -144269.25, -144269.25, 0.0, 9.998939, 9.998903 
2.854711e+3, 3.178171e+2, -91995.35, 73881.64, -23307.135, 0.10511242, 0.30529854, 77094.27, 77094.27, 0.0, 9.99887, 10.001049 
2.8656334e+3, 1.2788565e+2, -1474603.6, -1681061.5, 17237.871, 0.039974328, 0.33653507, -1473174.3, 213581.05, 0.0, 10.002008, 9.999267 
2.8655836e+3, 1.3788478e+2, -1428203.9, -1612757.3, 23038.273, 0.06536918, 0.33732754, -1425371.4, 163391.23, 0.0, 10.001674, 9.999224 
2.8655338e+3, 1.47884e+2, -1371353.6, -1538955.5, 49663.6, 0.031047426, 0.35350025, -1357742.6, 133028.53, 0.0, 10.001416, 9.999177 
2.8654844e+3, 1.5788326e+2, -1299905.8, -1444563.4, 50545.37, 0.017952094, 0.3724252, -1283994.5, 108785.62, 0.0, 10.001196, 9.999258 
2.8654355e+3, 1.6788246e+2, -1196410.4, -1312553.3, 78343.24, 0.025367575, 0.36347646, -1156962.8, 137824.83, 0.0, 10.001103, 9.999534 
2.8653866e+3, 1.778817e+2, -1111586.8, -1232379.3, 83146.875, 0.032030717, 0.34770557, -1069215.8, 127578.45, 0.0, 10.001061, 9.9994335 
2.8653383e+3, 1.8788096e+2, -1040715.3, -1163655.5, 98583.6, 0.03171655, 0.35445887, -986007.5, 112793.95, 0.0, 10.000948, 9.999285 
2.8652897e+3, 1.9788025e+2, -960491.4, -1072712.8, 96041.766, 0.030076649, 0.36736867, -905370.6, 95438.164, 0.0, 10.00082, 9.999297 
2.8652415e+3, 2.0787938e+2, -863912.44, -961800.7, 99067.164, 0.0185883, 0.3565624, -802358.44, 100458.19, 0.0, 10.000753, 9.999416 
2.865193e+3, 2.1787846e+2, -779942.6, -882790.56, 105544.016, 0.0052823704, 0.33924848, -713961.44, 90863.1, 0.0, 10.000707, 9.9993105 
2.865145e+3, 2.278774e+2, -717193.75, -819337.06, 114977.336, 0.010010524, 0.3247455, -642455.6, 64378.625, 0.0, 10.00054, 9.999154 
2.865097e+3, 2.378763e+2, -656342.9, -749225.25, 116996.12, 0.026049174, 0.31386802, -576907.7, 31936.713, 0.0, 10.000328, 9.999065 
2.865049e+3, 2.4787529e+2, -578622.9, -671974.7, 104747.49, 0.031930085, 0.32676297, -510622.38, 231.77928, 0.0, 10.000235, 9.998967 
2.8650004e+3, 2.5787434e+2, -492737.9, -579328.1, 110275.17, 0.02622054, 0.34601426, -417563.28, -4699.398, 0.0, 10.000147, 9.998976 
2.8649518e+3, 2.6787305e+2, -412635.1, -467508.3, 99464.92, 0.022973277, 0.32412687, -336892.06, -22016.287, 0.0, 9.9999275, 9.999176 
2.8649035e+3, 2.7787176e+2, -363960.44, -399800.66, 94357.12, 0.052495144, 0.29245403, -285836.8, -68949.02, 0.0, 9.9996195, 9.999116 
2.8648558e+3, 2.8787118e+2, -303011.3, -323988.8, 74980.14, 0.1313045, 0.3362827, -237789.86, -118895.16, 0.0, 9.999382, 9.999079 
2.864807e+3, 2.9787078e+2, -235642.98, -239698.86, 94473.766, 0.13762313, 0.40330833, -143175.39, -122275.54, 0.0, 9.999167, 9.999091 
2.8647572e+3, 3.07869e+2, -209502.94, -189998.36, 114101.74, -0.0047144834, 0.31788304, -85232.9, -85232.9, 0.0, 9.998957, 9.9992 
2.86471e+3, 3.178676e+2, -78809.17, 54013.09, -17299.154, 0.10743354, 0.26831886, 56229.207, 56229.207, 0.0, 9.999083, 10.000805 
2.875635e+3, 1.2793618e+2, -1456948.1, -1635935.0, 4682.3745, 0.024648758, 0.37352183, -1456825.8, 229435.25, 0.0, 10.001976, 9.999588 
2.8755853e+3, 1.3793524e+2, -1415717.8, -1579894.8, 11883.761, 0.050401185, 0.33603755, -1414862.1, 173406.3, 0.0, 10.001644, 9.999462 
2.8755352e+3, 1.479345e+2, -1369524.8, -1533824.6, 41199.7, 0.025726033, 0.34476313, -1359772.5, 130503.97, 0.0, 10.00141, 9.999216 
2.8754857e+3, 1.5793382e+2, -1293632.5, -1432866.3, 44792.44, 0.022419993, 0.36679086, -1280467.4, 111817.336, 0.0, 10.001202, 9.999336 
2.8754365e+3, 1.679332e+2, -1185409.5, -1290068.4, 77181.95, 0.026226792, 0.36005706, -1144489.8, 149800.63, 0.0, 10.001103, 9.999689 
2.8753877e+3, 1.779326e+2, -1106370.4, -1218040.5, 79790.47, 0.025600508, 0.34809655, -1064819.3, 131475.61, 0.0, 10.001046, 9.999539 
2.8753388e+3, 1.8793193e+2, -1042381.75, -1166268.9, 93341.22, 0.01695217, 0.35750705, -992300.4, 106001.5, 0.0, 10.000944, 9.999269 
2.8752902e+3, 1.979312e+2, -960931.5, -1071469.4, 92235.586, 0.0064118304, 0.3706638, -908673.4, 91636.516, 0.0, 10.000811, 9.999311 
2.8752422e+3, 2.0793033e+2, -859258.25, -952361.5, 97928.086, 0.02294251, 0.35447153, -797380.4, 104937.445, 0.0, 10.000752, 9.999484 
2.875194e+3, 2.1792942e+2, -776497.75, -873219.2, 102167.54, 0.04593423, 0.33109748, -711823.25, 92502.164, 0.0, 10.000696, 9.999382 
2.8751454e+3, 2.2792871e+2, -713393.0, -810543.94, 107177.21, 0.03507666, 0.3445847, -644297.2, 62034.676, 0.0, 10.000537, 9.999216 
2.875097e+3, 2.3792799e+2, -651795.44, -740112.0, 111120.914, 0.017855827, 0.36700684, -576380.25, 31958.172, 0.0, 10.000329, 9.999127 
2.8750488e+3, 2.479266e+2, -576111.44, -668302.4, 102303.086, 0.03388946, 0.33494267, -509998.56, 352.8788, 0.0, 10.000239, 9.998991 
2.8750005e+3, 2.5792497e+2, -492275.75, -581830.4, 104829.67, 0.048094925, 0.28935948, -423060.66, -10694.379, 0.0, 10.00016, 9.998952 
2.8749517e+3, 2.679239e+2, -423082.47, -488422.22, 87980.0, 0.017595617, 0.2928665, -361902.47, -47525.414, 0.0, 9.999924, 9.999033 
2.8749025e+3, 2.7792302e+2, -367092.66, -409232.34, 83262.09, 0.002156138, 0.31361744, -302275.88, -85889.92, 0.0, 9.99963, 9.999046 
2.874855e+3, 2.8792244e+2, -299918.22, -320737.8, 68684.23, 0.14304678, 0.36367908, -240859.4, -122467.984, 0.0, 9.9993925, 9.999098 
2.8748068e+3, 2.9792187e+2, -236231.13, -241226.66, 83879.39, 0.25006256, 0.41069287, -154812.31, -134415.11, 0.0, 9.999172, 9.999078 
2.8747544e+3, 3.0791804e+2, -211592.73, -185765.44, 109394.51, -0.19669323, 0.11997611, -88525.01, -88525.01, 0.0, 9.998928, 9.999239 
2.8747103e+3, 3.1792012e+2, -52291.344, 100114.28, -13485.642, 0.22340803, 0.4033596, 101298.36, 101298.36, 0.0, 9.999105, 10.00112 
2.8856367e+3, 1.2798695e+2, -1546022.0, -1676846.3, 28602.07, 0.033410545, 0.38352874, -1540042.0, 145721.52, 0.0, 10.00135, 9.999612 
2.8855863e+3, 1.3798593e+2, -1486576.5, -1603546.4, 20145.71, 0.038430586, 0.33567962, -1483204.0, 104568.05, 0.0, 10.001112, 9.999556 
2.8855363e+3, 1.4798535e+2, -1407357.9, -1529327.1, 57113.996, 0.01541944, 0.3445786, -1384789.3, 104988.98, 0.0, 10.001054, 9.999416 
2.8854865e+3, 1.5798491e+2, -1306594.6, -1426397.0, 69331.38, 0.021781754, 0.37099382, -1274871.6, 116912.18, 0.0, 10.001058, 9.99945 
2.8854373e+3, 1.6798423e+2, -1216023.5, -1316347.1, 91043.086, 0.027004912, 0.363995, -1162238.0, 131552.05, 0.0, 10.000943, 9.999585 
2.8853884e+3, 1.7798352e+2, -1144992.5, -1237405.8, 78756.69, 0.02228805, 0.34731984, -1099888.3, 95908.04, 0.0, 10.000785, 9.999531 
2.8853396e+3, 1.8798298e+2, -1068560.9, -1156396.6, 97693.016, 0.013624084, 0.3572318, -1005368.06, 92434.0, 0.0, 10.0006695, 9.999468 
2.885291e+3, 1.9798249e+2, -984480.94, -1067002.6, 111164.695, 0.009250786, 0.3756764, -907166.7, 92640.81, 0.0, 10.00058, 9.999454 
2.8852427e+3, 2.0798169e+2, -887250.56, -964450.5, 119901.125, 0.025563193, 0.36146683, -799889.25, 101925.414, 0.0, 10.000554, 9.999497 
2.8851944e+3, 2.1798082e+2, -794634.0, -877061.8, 120046.305, 0.04678026, 0.33920678, -708923.9, 94898.27, 0.0, 10.000551, 9.999426 
2.885146e+3, 2.2798015e+2, -713472.56, -798618.06, 121937.49, 0.03775059, 0.3492331, -626889.7, 78938.57, 0.0, 10.000485, 9.999323 
2.8850973e+3, 2.3797949e+2, -635374.9, -720070.7, 130826.63, 0.023751903, 0.36789402, -540212.94, 67621.125, 0.0, 10.000389, 9.999236 
2.885049e+3, 2.4797817e+2, -558699.44, -650536.2, 127430.57, 0.03778861, 0.33403906, -469166.53, 40679.504, 0.0, 10.00032, 9.999073 
2.8850007e+3, 2.5797662e+2, -476485.0, -568680.5, 133478.06, 0.05620304, 0.28787982, -381368.78, 30491.102, 0.0, 10.000252, 9.998994 
2.8849515e+3, 2.6797545e+2, -412070.1, -496110.4, 111598.5, 0.034705922, 0.29041457, -334842.94, -20971.441, 0.0, 10.00006, 9.998912 
2.8849024e+3, 2.7797443e+2, -364530.13, -414276.97, 106551.68, 0.023337416, 0.30849892, -279987.16, -64104.97, 0.0, 9.999675, 9.998989 
2.8848544e+3, 2.879738e+2, -271293.44, -320909.53, 103962.37, 0.1183151, 0.35827658, -189220.19, -71332.54, 0.0, 9.999653, 9.998969 
2.8848058e+3, 2.979731e+2, -138734.14, -233623.11, 103796.52, 0.18662466, 0.40889147, -72052.83, -52159.047, 0.0, 10.000016, 9.998723 
2.8847548e+3, 3.079681e+2, -124513.05, -250066.83, 60085.633, -0.07612278, 0.0779278, -100392.17, -100392.17, 0.0, 9.999994, 9.998291 
2.8847092e+3, 3.1797048e+2, 52690.58, 153694.98, -55328.414, 0.20928606, 0.47198826, 178104.1, 178104.1, 0.0, 9.999811, 10.001163 
2.895638e+3, 1.280379e+2, -1561722.6, -1707275.6, 18798.129, 0.05583336, 0.36898997, -1559334.0, 125929.49, 0.0, 10.001348, 9.999401 
2.895587e+3, 1.3803688e+2, -1489609.9, -1609402.5, 14823.183, 0.026995769, 0.33878812, -1487803.0, 99470.49, 0.0, 10.001112, 9.999515 
2.8955367e+3, 1.4803657e+2, -1384396.4, -1483425.0, 57322.72, 0.0029226774, 0.3550664, -1358164.0, 131112.63, 0.0, 10.00106, 9.999729 
2.8954872e+3, 1.5803647e+2, -1297229.9, -1406991.3, 67376.5, 0.01859632, 0.38602197, -1265211.4, 126066.63, 0.0, 10.001058, 9.999583 
2.8954384e+3, 1.6803555e+2, -1237917.0, -1361910.4, 85086.01, 0.024065226, 0.3702537, -1194636.8, 98650.52, 0.0, 10.000943, 9.999272 
2.8953892e+3, 1.7803441e+2, -1153616.8, -1253960.3, 74320.48, 0.015487487, 0.34085146, -1114118.3, 81180.57, 0.0, 10.000778, 9.99942 
2.8953403e+3, 1.8803412e+2, -1042275.94, -1102078.5, 94951.516, 0.020110702, 0.3542544, -972628.8, 124672.914, 0.0, 10.000668, 9.999843 
2.8952917e+3, 1.9803408e+2, -968625.5, -1031477.25, 108498.08, 0.032718305, 0.3817581, -887093.75, 112208.02, 0.0, 10.000568, 9.999703 
2.8952432e+3, 2.0803343e+2, -889446.0, -968760.7, 120056.0, 0.02602509, 0.37672225, -802667.0, 98640.59, 0.0, 10.000553, 9.999468 
2.8951946e+3, 2.180326e+2, -794719.4, -875657.94, 119466.945, 0.010253151, 0.36020273, -709053.3, 94261.914, 0.0, 10.000544, 9.999439 
2.895146e+3, 2.2803171e+2, -703517.2, -777942.0, 119105.13, 0.016628237, 0.3400525, -615946.6, 89376.6, 0.0, 10.0004835, 9.999466 
2.8950977e+3, 2.3803082e+2, -624621.8, -698486.1, 126992.055, 0.03228597, 0.31952155, -529300.56, 78030.58, 0.0, 10.000392, 9.999383 
2.8950495e+3, 2.4803e+2, -549295.6, -629816.0, 124962.195, 0.043865174, 0.32459906, -458268.2, 51069.875, 0.0, 10.000318, 9.999217 
2.895001e+3, 2.580292e+2, -467318.13, -552594.94, 131220.42, 0.049439892, 0.339004, -371982.47, 39362.406, 0.0, 10.000264, 9.999099 
2.894952e+3, 2.680278e+2, -418887.53, -511694.2, 99085.26, 0.073075816, 0.31659412, -355878.06, -42519.0, 0.0, 10.000064, 9.998803 
2.8949028e+3, 2.780261e+2, -366261.22, -421235.28, 90614.27, 0.11403515, 0.27709752, -299056.75, -83680.45, 0.0, 9.999687, 9.998936 
2.894853e+3, 2.880252e+2, -293579.2, -361387.13, 117708.09, 0.05415161, 0.31680432, -204989.6, -87605.98, 0.0, 9.999636, 9.998693 
2.8948033e+3, 2.980244e+2, -188809.42, -336808.0, 117279.84, -0.069717556, 0.38949183, -124134.79, -104744.65, 0.0, 10.000015, 9.998013 
2.8947592e+3, 3.0801892e+2, -265677.38, -548292.56, 45844.297, 0.38096407, 0.16140239, -258426.78, -258426.78, 0.0, 10.00002, 9.996233 
2.8947064e+3, 3.1801736e+2, 35733.77, 118403.914, 101034.13, -0.055545628, 0.35404825, 186231.5, 186231.5, 0.0, 9.999818, 10.0009165 
2.905639e+3, 1.2808907e+2, -1570973.8, -1710583.4, 11816.981, 0.047983654, 0.37089196, -1569980.6, 114781.39, 0.0, 10.001272, 9.999418 
2.9055882e+3, 1.38088e+2, -1508557.1, -1614790.9, 25157.637, 0.021275917, 0.33401492, -1502900.6, 83872.24, 0.0, 10.000963, 9.999551 
2.9055378e+3, 1.4808777e+2, -1402336.6, -1485603.9, 65561.625, 0.0038644024, 0.35253468, -1366306.3, 122469.0, 0.0, 10.000908, 9.999787 
2.9054883e+3, 1.5808775e+2, -1314485.3, -1408632.5, 58171.863, 0.026478168, 0.3863962, -1286726.5, 104049.055, 0.0, 10.000909, 9.999642 
2.9054388e+3, 1.6808696e+2, -1258776.3, -1362045.8, 86007.04, 0.026318789, 0.37643635, -1210094.6, 82688.96, 0.0, 10.000758, 9.999361 
2.9053897e+3, 1.7808598e+2, -1178867.5, -1257098.9, 101510.58, 0.01138628, 0.354082, -1109197.0, 85596.86, 0.0, 10.000566, 9.999502 
2.9053405e+3, 1.8808566e+2, -1063669.3, -1106265.6, 114921.36, 0.01798852, 0.3601164, -968089.2, 128707.62, 0.0, 10.000493, 9.999899 
2.905292e+3, 1.9808558e+2, -977737.75, -1025508.4, 109579.92, 0.033744525, 0.3752467, -889470.2, 109327.08, 0.0, 10.000459, 9.999798 
2.9052433e+3, 2.0808509e+2, -894326.94, -949714.3, 128230.71, 0.023991395, 0.3699512, -790833.5, 109967.92, 0.0, 10.000426, 9.99966 
2.9051948e+3, 2.1808448e+2, -805062.2, -863738.3, 142113.36, 0.004779439, 0.35895658, -689290.2, 113516.43, 0.0, 10.000399, 9.999592 
2.9051462e+3, 2.2808371e+2, -718953.94, -775073.4, 140392.78, 0.011527359, 0.33936238, -603844.25, 100969.48, 0.0, 10.000332, 9.999559 
2.905098e+3, 2.3808292e+2, -635853.1, -688635.56, 146175.61, 0.03416949, 0.3186861, -513705.44, 93115.6, 0.0, 10.000251, 9.999518 
2.9050496e+3, 2.4808238e+2, -540916.94, -591079.6, 151515.34, 0.048986055, 0.32793954, -412421.0, 96404.18, 0.0, 10.000226, 9.999527 
2.905001e+3, 2.5808194e+2, -466964.88, -520641.8, 168365.92, 0.053726576, 0.3485468, -323311.75, 87516.43, 0.0, 10.00013, 9.999382 
2.904952e+3, 2.680807e+2, -430432.0, -491144.66, 147064.39, 0.08017145, 0.32292253, -310623.63, 2216.9353, 0.0, 9.999871, 9.999035 
2.9049027e+3, 2.780792e+2, -349078.2, -378461.22, 164252.48, 0.13693781, 0.27948803, -198861.48, 15994.779, 0.0, 9.999667, 9.999234 
2.9048517e+3, 2.8807896e+2, -437149.5, -338668.84, 208320.52, 0.04992867, 0.32525152, -173848.31, -56990.617, 0.0, 9.998259, 9.999514 
2.9156402e+3, 1.2814043e+2, -1563816.4, -1682472.0, -986.7385, 0.014654089, 0.38896987, -1563808.3, 120450.695, 0.0, 10.001221, 9.999633 
2.915589e+3, 1.3813928e+2, -1500531.8, -1599689.6, 17930.94, 0.017777609, 0.32266507, -1497388.9, 88881.79, 0.0, 10.000972, 9.99965 
2.9155385e+3, 1.4813893e+2, -1411851.9, -1508106.5, 66107.06, 0.0127326, 0.33679277, -1378208.9, 110065.34, 0.0, 10.000918, 9.999629 
2.9154894e+3, 1.581388e+2, -1315475.1, -1408185.6, 56953.44, 0.03976203, 0.37353173, -1288396.6, 101879.18, 0.0, 10.000897, 9.999652 
2.9154396e+3, 1.6813852e+2, -1229748.3, -1301433.9, 79110.3, 0.03386517, 0.38461497, -1178739.8, 113538.914, 0.0, 10.000754, 9.999779 
2.9153898e+3, 1.7813817e+2, -1163626.0, -1224774.5, 95544.27, 0.009274745, 0.38668302, -1093883.3, 100398.78, 0.0, 10.000563, 9.999725 
2.915341e+3, 1.8813759e+2, -1079344.3, -1138757.1, 113381.97, 0.006293099, 0.3726384, -991841.7, 104446.17, 0.0, 10.000492, 9.999676 
2.9152924e+3, 1.9813696e+2, -982137.6, -1032171.4, 108625.69, 0.011923972, 0.35453507, -895685.3, 102608.69, 0.0, 10.000447, 9.999758 
2.9152435e+3, 2.0813666e+2, -867537.8, -893283.7, 127176.5, 0.017955324, 0.3437764, -752584.4, 147711.52, 0.0, 10.000422, 10.000051 
2.9151952e+3, 2.1813647e+2, -787724.0, -824761.7, 139889.11, 0.021309594, 0.33678636, -665133.25, 137163.14, 0.0, 10.000385, 9.9998665 
2.9151466e+3, 2.281361e+2, -715464.3, -767697.8, 137153.45, 0.022385046, 0.34699085, -601963.2, 102336.84, 0.0, 10.000332, 9.999611 
2.915098e+3, 2.3813573e+2, -625900.06, -669836.25, 144232.19, 0.027750922, 0.3618394, -501972.56, 104331.63, 0.0, 10.000259, 9.999642 
2.9150495e+3, 2.4813527e+2, -508830.6, -522796.72, 150719.22, 0.049106054, 0.3442709, -364932.75, 143374.52, 0.0, 10.00022, 9.999996 
2.915001e+3, 2.581348e+2, -434262.72, -457448.2, 160011.69, 0.059838563, 0.31723014, -285424.38, 124885.266, 0.0, 10.000146, 9.99981 
2.9149514e+3, 2.6813424e+2, -391295.56, -412612.84, 135520.44, 0.052404534, 0.309827, -266015.25, 46300.95, 0.0, 9.999878, 9.999575 
2.9149017e+3, 2.7813378e+2, -307802.25, -290361.63, 157235.52, 0.07316347, 0.31828213, -141604.8, 72717.49, 0.0, 9.999665, 9.99984 
2.9148507e+3, 2.8813508e+2, -307712.22, -64476.26, 108664.414, 0.11101153, 0.38872474, -23002.588, 93306.73, 0.0, 9.998252, 10.001396 
2.9256406e+3, 1.2819146e+2, -1663015.1, -1724250.1, 8935.991, -0.004270891, 0.3642235, -1661737.8, 22020.82, 0.0, 10.000514, 9.999686 
2.9255897e+3, 1.3819095e+2, -1493987.0, -1591364.1, 14462.922, 0.009556002, 0.35932305, -1491884.3, 93880.62, 0.0, 10.000992, 9.999699 
2.9255393e+3, 1.4819056e+2, -1414181.5, -1501788.9, 61645.973, 0.0072159213, 0.36178115, -1382361.3, 105407.65, 0.0, 10.000871, 9.999696 
2.9254898e+3, 1.5819018e+2, -1359798.9, -1421817.8, 67165.72, 0.03653832, 0.36829504, -1316829.8, 72942.44, 0.0, 10.000558, 9.999723 
2.92544e+3, 1.6818993e+2, -1261721.0, -1306418.1, 77327.695, 0.033189066, 0.375148, -1203577.1, 88197.57, 0.0, 10.000487, 9.999875 
2.9253903e+3, 1.7818974e+2, -1171545.5, -1219575.5, 73881.266, 0.011662689, 0.38242826, -1117874.3, 75902.484, 0.0, 10.0004635, 9.999811 
2.9253414e+3, 1.8818928e+2, -1096636.1, -1136996.3, 102363.164, 0.011290139, 0.3739107, -1012482.8, 83298.305, 0.0, 10.000328, 9.999768 
2.9252926e+3, 1.9818881e+2, -1016113.9, -1039075.25, 119386.43, 0.019545691, 0.3602787, -907657.4, 90128.41, 0.0, 10.000172, 9.999844 
2.925244e+3, 2.0818855e+2, -903034.4, -901954.2, 128061.92, 0.02558057, 0.34792122, -774431.25, 125356.02, 0.0, 10.00014, 10.000127 
2.9251957e+3, 2.1818845e+2, -813985.0, -824867.8, 121803.35, 0.031444497, 0.33886927, -697501.56, 104285.7, 0.0, 10.00015, 9.999979 
2.925147e+3, 2.2818825e+2, -720225.9, -745119.94, 122247.74, 0.028429711, 0.34790283, -609793.1, 93996.0, 0.0, 10.000191, 9.999834 
2.9250982e+3, 2.3818807e+2, -616708.7, -644044.3, 139323.42, 0.026486022, 0.36277205, -490384.25, 115406.79, 0.0, 10.000227, 9.999838 
2.9250497e+3, 2.4818784e+2, -525568.8, -504761.53, 129654.586, 0.053126868, 0.34676087, -385093.84, 122698.445, 0.0, 9.999988, 10.000235 
2.925001e+3, 2.581877e+2, -491432.44, -451665.1, 122237.25, 0.07637705, 0.3237051, -347704.9, 62087.336, 0.0, 9.999603, 10.000115 
2.924951e+3, 2.6818767e+2, -411504.53, -349771.56, 101912.44, 0.055027228, 0.31997785, -274153.84, 37639.418, 0.0, 9.999423, 10.000227 
2.924901e+3, 2.781878e+2, -317796.94, -237489.11, 133361.05, 0.060566228, 0.32314277, -138368.1, 75425.03, 0.0, 9.9993305, 10.000378 
2.9248497e+3, 2.8818932e+2, -77652.2, 83588.82, -24729.918, 0.12528034, 0.3793696, 87296.45, 203074.14, 0.0, 9.99966, 10.001748 
2.9356408e+3, 1.2824215e+2, -1666179.3, -1733606.4, 27515.592, -0.014067627, 0.30420268, -1656376.0, 26884.713, 0.0, 10.000532, 9.999611 
2.9355904e+3, 1.382429e+2, -1497624.0, -1591227.6, 24837.396, -0.0039648283, 0.43238512, -1491441.8, 93814.79, 0.0, 10.00096, 9.999714 
2.93554e+3, 1.482425e+2, -1399970.1, -1467931.4, 48954.36, -0.010617394, 0.4175115, -1374358.8, 112901.305, 0.0, 10.000851, 9.999938 
2.93549e+3, 1.582418e+2, -1353501.8, -1407253.9, 58301.78, 0.018054362, 0.3676827, -1316179.5, 73086.09, 0.0, 10.000551, 9.999826 
2.9354405e+3, 1.682412e+2, -1274999.5, -1333735.6, 76606.24, 0.023477558, 0.34811503, -1222324.9, 68947.05, 0.0, 10.000485, 9.999688 
2.9353908e+3, 1.7824073e+2, -1173175.9, -1222238.3, 71112.06, 0.016496329, 0.34521696, -1122482.8, 70794.52, 0.0, 10.00046, 9.999794 
2.9353416e+3, 1.8824083e+2, -1069551.5, -1083088.0, 95446.11, 0.029785056, 0.3662116, -980633.94, 114642.15, 0.0, 10.000337, 10.000134 
2.9352927e+3, 1.9824104e+2, -1002627.75, -1011676.5, 114293.305, 0.04795996, 0.38861084, -892769.3, 104503.99, 0.0, 10.000175, 10.0000305 
2.935244e+3, 2.0824075e+2, -916066.75, -930236.7, 127577.03, 0.045620065, 0.37841192, -795378.1, 103897.79, 0.0, 10.000145, 9.99993 
2.9351956e+3, 2.1824037e+2, -816454.8, -829305.0, 122677.25, 0.035246238, 0.36083815, -700034.5, 101244.77, 0.0, 10.000147, 9.99995 
2.935147e+3, 2.2824016e+2, -695453.0, -690578.3, 123841.72, 0.026529672, 0.34376568, -569149.94, 134130.78, 0.0, 10.000178, 10.000214 
2.935098e+3, 2.3824e+2, -599796.7, -609228.6, 136706.9, 0.025201853, 0.32478863, -467724.4, 137557.05, 0.0, 10.000226, 10.000079 
2.9350495e+3, 2.4824011e+2, -523940.13, -504563.66, 116617.04, 0.062020194, 0.33702037, -397233.1, 110047.15, 0.0, 9.999999, 10.000234 
2.9350004e+3, 2.5824058e+2, -471810.66, -415757.63, 109751.74, 0.09508685, 0.36997238, -330510.44, 78765.375, 0.0, 9.999625, 10.000349 
2.9349503e+3, 2.6824102e+2, -358098.03, -239361.97, 97674.94, 0.083918884, 0.35507903, -184427.95, 126843.336, 0.0, 9.999429, 10.000978 
2.9349005e+3, 2.7824116e+2, -277036.56, -175446.02, 127724.64, 0.08517309, 0.29045525, -88786.77, 124483.02, 0.0, 9.999416, 10.000768 
2.9348487e+3, 2.8824216e+2, -129876.43, -38553.426, 997.3908, 0.07091041, 0.33526358, -38542.535, 76716.68, 0.0, 9.999712, 10.000887 
2.9456413e+3, 1.2829314e+2, -1629830.0, -1713670.5, 7369.0957, -0.017809846, 0.30019754, -1629187.3, 53573.58, 0.0, 10.000762, 9.999643 
2.945591e+3, 1.3829382e+2, -1576665.0, -1617621.1, 14414.99, -0.010966112, 0.4161779, -1572100.3, 12657.096, 0.0, 10.000366, 9.99982 
2.9455402e+3, 1.4829357e+2, -1467958.8, -1487351.5, 29415.814, -0.024127513, 0.40216336, -1446682.4, 40077.1, 0.0, 10.000324, 10.00006 
2.9454902e+3, 1.582929e+2, -1378997.0, -1414727.3, 32836.8, -0.003109559, 0.34861442, -1359480.0, 29284.406, 0.0, 10.000354, 9.999872 
2.9454404e+3, 1.6829248e+2, -1292151.4, -1343977.6, 60272.375, 0.009569479, 0.34643832, -1252457.8, 38311.48, 0.0, 10.000375, 9.999674 
2.945391e+3, 1.7829217e+2, -1191348.8, -1229906.6, 64001.727, 0.010230007, 0.3599189, -1143785.4, 48988.03, 0.0, 10.000329, 9.999806 
2.9453418e+3, 1.8829222e+2, -1062592.3, -1072684.9, 74137.234, 0.01984935, 0.3713488, -993329.75, 101442.78, 0.0, 10.000349, 10.000202 
2.9452926e+3, 1.9829239e+2, -964604.75, -985960.4, 75674.83, 0.036566976, 0.38126355, -898858.1, 97911.75, 0.0, 10.000396, 10.000104 
2.945244e+3, 2.0829217e+2, -888876.44, -915274.94, 95423.49, 0.04100099, 0.37395245, -805743.6, 93028.266, 0.0, 10.000318, 9.999952 
2.9451954e+3, 2.1829191e+2, -800283.44, -817921.3, 104440.7, 0.036734354, 0.36683366, -704290.0, 96484.41, 0.0, 10.000236, 9.9999895 
2.945147e+3, 2.2829185e+2, -700744.75, -677508.0, 93350.695, 0.03272127, 0.3540776, -595055.44, 107718.82, 0.0, 10.000067, 10.00036 
2.9450983e+3, 2.3829181e+2, -650333.8, -619943.2, 91779.2, 0.038210247, 0.33011913, -542109.9, 62663.98, 0.0, 9.999817, 10.000202 
2.9450494e+3, 2.4829194e+2, -549653.75, -505932.97, 73064.75, 0.058603674, 0.33259946, -451528.47, 55244.223, 0.0, 9.999771, 10.000335 
2.945e+3, 2.5829256e+2, -435296.6, -377534.34, 69094.47, 0.07218415, 0.3674814, -331527.78, 77239.32, 0.0, 9.999789, 10.000535 
2.94495e+3, 2.682934e+2, -328989.25, -205885.28, 28336.61, 0.084759384, 0.3747442, -199675.84, 111082.55, 0.0, 9.999537, 10.001163 
2.9448998e+3, 2.7829346e+2, -297235.72, -187263.44, 30561.822, 0.10996057, 0.29505724, -179340.9, 33416.38, 0.0, 9.999289, 10.000741 
2.9448485e+3, 2.882944e+2, -16846.463, 8966.625, -40090.914, 0.060267843, 0.34778652, 38177.3, 152924.14, 0.0, 10.000509, 10.00082 
2.9556417e+3, 1.2834439e+2, -1628644.5, -1694589.9, -9468.146, -0.022609485, 0.3478972, -1627312.0, 54946.953, 0.0, 10.000695, 9.9998045 
2.955591e+3, 1.38344e+2, -1567136.0, -1594514.3, 6899.6855, -0.014925844, 0.3389986, -1565495.4, 18769.035, 0.0, 10.000354, 9.999984 
2.9555404e+3, 1.4834394e+2, -1466602.9, -1485620.4, 30295.83, -0.034236062, 0.337911, -1444358.6, 41906.402, 0.0, 10.000329, 10.00007 
2.9554904e+3, 1.5834364e+2, -1378028.5, -1413217.5, 34054.105, -0.026127217, 0.32168272, -1357292.3, 30974.988, 0.0, 10.000356, 9.999882 
2.9554406e+3, 1.6834381e+2, -1281407.9, -1322964.8, 59964.117, -0.009391442, 0.36724436, -1238724.1, 51542.363, 0.0, 10.000379, 9.999816 
2.955391e+3, 1.7834398e+2, -1191290.9, -1228601.4, 61502.563, -0.0095715355, 0.4167072, -1145676.5, 46589.508, 0.0, 10.000325, 9.999817 
2.9553416e+3, 1.8834348e+2, -1076984.4, -1100939.8, 76276.36, -0.014458876, 0.38659176, -1011751.0, 82519.43, 0.0, 10.000342, 10.000011 
2.9552928e+3, 1.98343e+2, -967611.1, -989595.06, 76355.04, -0.007750125, 0.34481004, -901460.9, 94813.27, 0.0, 10.000384, 10.000085 
2.9552442e+3, 2.0834294e+2, -875239.8, -885904.94, 90707.68, 0.01208961, 0.34215558, -789708.06, 108566.21, 0.0, 10.000312, 10.000157 
2.955196e+3, 2.1834311e+2, -795993.4, -805497.8, 100402.27, 0.028656263, 0.35949862, -700230.94, 100041.586, 0.0, 10.00022, 10.000082 
2.955147e+3, 2.2834335e+2, -706233.25, -687398.8, 84666.19, 0.04711178, 0.3784236, -611627.75, 90642.086, 0.0, 10.000062, 10.000294 
2.9550982e+3, 2.3834349e+2, -645127.9, -612108.9, 84126.69, 0.064003, 0.37758806, -542887.06, 61381.082, 0.0, 9.999828, 10.000251 
2.9550487e+3, 2.4834332e+2, -533391.94, -472545.6, 73725.5, 0.038744368, 0.33341902, -423212.75, 83056.59, 0.0, 9.999772, 10.000565 
2.954999e+3, 2.5834367e+2, -425370.5, -359770.4, 66148.4, 0.002841507, 0.3188675, -318736.5, 89529.32, 0.0, 9.9998, 10.000652 
2.9549488e+3, 2.683449e+2, -350820.06, -256364.22, 21175.477, 0.055084642, 0.3809324, -251834.27, 58419.79, 0.0, 9.999559, 10.000806 
2.954899e+3, 2.7834493e+2, -318734.4, -246357.31, 36618.715, 0.119612806, 0.34380716, -231062.45, -18808.287, 0.0, 9.999342, 10.000313 
2.954849e+3, 2.8834507e+2, 31272.43, 94276.28, 30178.24, 0.058200147, 0.31907716, 106398.87, 220649.95, 0.0, 10.0005665, 10.001381 
2.965642e+3, 1.2839529e+2, -1688274.1, -1694531.6, -17890.137, -0.06576157, 0.36065, -1673241.3, 8519.495, 0.0, 10.000163, 10.00006 
2.9655913e+3, 1.3839516e+2, -1575132.9, -1595123.6, 4982.0156, -0.015364426, 0.35795933, -1573960.0, 9802.684, 0.0, 10.000281, 10.000018 
2.965541e+3, 1.4839499e+2, -1465991.4, -1496590.9, 21494.514, -0.024944622, 0.35405183, -1454907.5, 30856.986, 0.0, 10.000381, 9.99997 
2.9654908e+3, 1.5839486e+2, -1367941.3, -1403286.8, 24480.773, -0.008785424, 0.35729945, -1355420.6, 32345.086, 0.0, 10.0004, 9.999931 
2.965441e+3, 1.6839477e+2, -1281369.3, -1309095.4, 46488.273, 0.0031977296, 0.36969525, -1246721.0, 43045.727, 0.0, 10.000315, 9.999945 
2.9653913e+3, 1.7839478e+2, -1208044.5, -1227278.8, 49595.254, 0.0055763563, 0.38869134, -1167142.5, 24624.584, 0.0, 10.000162, 9.999908 
2.965342e+3, 1.8839444e+2, -1094088.5, -1113374.0, 78760.96, 0.0020079708, 0.3739773, -1024382.2, 69387.8, 0.0, 10.00024, 9.999977 
2.965293e+3, 1.98394e+2, -980465.25, -1011150.6, 78545.484, -0.002907739, 0.34521013, -915778.0, 79995.83, 0.0, 10.000362, 9.999948 
2.965244e+3, 2.0839378e+2, -888418.94, -900389.8, 71278.336, 0.0028550848, 0.33593732, -822875.2, 74900.37, 0.0, 10.000256, 10.000086 
2.9651955e+3, 2.183938e+2, -805062.75, -809023.1, 70105.53, 0.017531745, 0.3423413, -736909.44, 62865.742, 0.0, 10.000152, 10.000092 
2.965147e+3, 2.2839414e+2, -682728.56, -669102.06, 58233.547, 0.048492, 0.3644222, -617284.56, 84486.805, 0.0, 10.000186, 10.000363 
2.965098e+3, 2.3839448e+2, -587659.75, -574162.44, 63726.85, 0.075553596, 0.3745749, -516827.88, 86939.59, 0.0, 10.000171, 10.000353 
2.9650486e+3, 2.4839436e+2, -515851.44, -470998.1, 41177.41, 0.035570942, 0.33241144, -446536.25, 59232.496, 0.0, 9.999911, 10.000515 
2.9649982e+3, 2.5839454e+2, -444474.5, -380865.88, 19156.459, -0.012624059, 0.3109767, -375542.22, 32224.738, 0.0, 9.999713, 10.000554 
2.9649487e+3, 2.6839563e+2, -267345.6, -244438.88, -17402.734, 0.04655961, 0.37458014, -235058.73, 74698.234, 0.0, 10.000257, 10.000552 
2.964899e+3, 2.7839553e+2, -123166.07, -180332.64, 7221.417, 0.11283816, 0.34882912, -122267.95, 89490.6, 0.0, 10.000819, 10.000059 
2.964849e+3, 2.8839558e+2, -97569.55, 9491.03, -17061.246, 0.043218262, 0.34845304, 12144.173, 125902.0, 0.0, 9.99981, 10.001164 
2.9756412e+3, 1.2844566e+2, -1682523.1, -1663796.9, -24088.56, -0.13337891, 0.31886286, -1647315.8, 33952.484, 0.0, 10.000085, 10.000306 
2.9755914e+3, 1.3844669e+2, -1575349.4, -1601395.4, 7619.9277, -0.01575506, 0.42153564, -1573283.9, 9973.692, 0.0, 10.000308, 9.999961 
2.9755414e+3, 1.4844632e+2, -1462217.8, -1512918.8, 19172.145, -0.0037633113, 0.41082647, -1455784.4, 29477.3, 0.0, 10.000486, 9.999807 
2.9754916e+3, 1.5844625e+2, -1347454.8, -1383719.6, 21516.256, 0.035944264, 0.4273101, -1337449.5, 49813.19, 0.0, 10.000501, 10.000015 
2.9754415e+3, 1.6844542e+2, -1267175.4, -1288871.0, 39199.043, 0.04067212, 0.35085356, -1237350.8, 51919.168, 0.0, 10.000355, 10.000064 
2.9753917e+3, 1.7844477e+2, -1196928.0, -1205093.8, 45602.47, 0.051782053, 0.292855, -1155226.0, 36048.85, 0.0, 10.000166, 10.000058 
2.975343e+3, 1.8844515e+2, -1088422.3, -1102710.8, 82848.305, 0.0578047, 0.33596453, -1012410.7, 80860.54, 0.0, 10.000245, 10.000048 
2.9752937e+3, 1.9844523e+2, -997914.4, -1047683.25, 77423.65, 0.03527094, 0.36961606, -941474.4, 53796.11, 0.0, 10.000364, 9.999696 
2.9752445e+3, 2.0844461e+2, -908587.7, -942380.0, 64534.664, 0.011377708, 0.34688166, -858774.0, 38502.457, 0.0, 10.000257, 9.999797 
2.9751956e+3, 2.1844402e+2, -809740.2, -817278.56, 69870.086, 0.007107096, 0.31374714, -743537.7, 55744.445, 0.0, 10.000145, 10.000039 
2.975147e+3, 2.2844431e+2, -668630.56, -639862.2, 60399.324, 0.03646865, 0.3184108, -592157.9, 109120.06, 0.0, 10.000184, 10.000566 
2.9750982e+3, 2.384449e+2, -580847.0, -557383.75, 57699.766, 0.067229725, 0.33082882, -510235.06, 93035.74, 0.0, 10.000159, 10.000473 
2.9750484e+3, 2.4844505e+2, -540213.7, -522434.8, 31182.984, 0.0481211, 0.33458087, -498898.97, 6371.403, 0.0, 9.999916, 10.000159 
2.9749984e+3, 2.5844523e+2, -462338.16, -422112.56, 22101.62, 0.022173703, 0.3475842, -412342.16, -5071.8223, 0.0, 9.99973, 10.000262 
2.974949e+3, 2.6844555e+2, -272426.06, -260422.84, 12131.941, 0.053815667, 0.3519844, -252889.19, 56378.277, 0.0, 10.000278, 10.000434 
2.9748994e+3, 2.7844536e+2, -121500.74, -185938.16, 857.6358, 0.0760489, 0.3155056, -121489.33, 89780.52, 0.0, 10.000872, 9.999993 
2.9748484e+3, 2.8844622e+2, -185717.34, -170040.1, -64646.445, 0.041924454, 0.45683783, -112758.77, 505.11136, 0.0, 9.999823, 9.999914 
2.9856426e+3, 1.2849668e+2, -1580425.0, -1632214.1, -25268.795, -0.013391538, 0.36502257, -1570138.9, 110629.9, 0.0, 10.000858, 10.000159 
2.9855922e+3, 1.3849594e+2, -1471597.8, -1537136.8, 8125.413, 0.00888869, 0.29365376, -1470605.5, 112169.09, 0.0, 10.000964, 10.000086 
2.985541e+3, 1.4849624e+2, -1453078.0, -1524023.6, -2957.036, -0.058893915, 0.3523089, -1452955.0, 31816.822, 0.0, 10.000624, 9.999662 
2.9854897e+3, 1.5849587e+2, -1511549.8, -1492446.3, -29701.973, -0.110720664, 0.362129, -1470797.9, -84021.98, 0.0, 9.999515, 9.999739 
2.9854396e+3, 1.6849558e+2, -1450938.1, -1377214.9, -13878.968, -0.09586365, 0.34890327, -1374688.6, -85910.83, 0.0, 9.999105, 10.000053 
2.9853895e+3, 1.7849489e+2, -1363229.5, -1288825.5, -12602.769, -0.102639675, 0.28770652, -1286748.8, -95965.95, 0.0, 9.999051, 10.000015 
2.985341e+3, 1.8849501e+2, -1213297.6, -1166196.3, 25009.563, -0.084444605, 0.31151435, -1155394.1, -62613.1, 0.0, 9.999406, 10.000016 
2.985293e+3, 1.9849569e+2, -1033024.5, -1046173.44, 34080.133, -0.02597499, 0.3929368, -1004890.5, -10116.276, 0.0, 10.000041, 9.999866 
2.9852447e+3, 2.0849507e+2, -903521.94, -941079.44, 29091.676, 0.013051707, 0.36464462, -887674.6, 9105.603, 0.0, 10.000293, 9.999792 
2.9851958e+3, 2.1849422e+2, -812059.2, -821265.75, 44168.938, 0.028097738, 0.31112888, -772254.3, 26534.086, 0.0, 10.000137, 10.000017 
2.985147e+3, 2.2849442e+2, -685551.5, -640573.25, 35462.473, 0.043564256, 0.3014483, -621070.1, 79715.14, 0.0, 10.000037, 10.000633 
2.985098e+3, 2.3849492e+2, -589438.8, -566387.06, 16271.993, 0.054250717, 0.30354902, -557972.44, 44806.547, 0.0, 10.000123, 10.000428 
2.9850483e+3, 2.4849512e+2, -510697.44, -519219.28, -5897.014, 0.04911732, 0.31789857, -507683.06, -2904.5693, 0.0, 10.000167, 10.000059 
2.9849985e+3, 2.5849527e+2, -397988.72, -401783.7, 12918.567, 0.05433497, 0.33842683, -386829.03, 19950.123, 0.0, 10.000211, 10.000176 
2.9849494e+3, 2.6849544e+2, -301905.94, -282668.94, 19368.934, 0.074963115, 0.33443975, -270661.75, 38115.906, 0.0, 10.000093, 10.0003805 
2.9848993e+3, 2.784956e+2, -236846.11, -225756.7, 1368.39, 0.05427859, 0.32846197, -225590.34, -14813.915, 0.0, 10.000009, 10.000158 
2.9848486e+3, 2.8849572e+2, -96287.05, -204228.56, -32264.887, 0.06411338, 0.40661943, -87378.04, 25400.541, 0.0, 10.000705, 9.999335 
2.9956433e+3, 1.2854783e+2, -1867575.0, -1800421.3, -15791.425, -0.01594892, 0.44076097, -1796893.3, -116625.54, 0.0, 9.999019, 9.999891 
2.995592e+3, 1.3854626e+2, -1504880.0, -1521658.0, 29844.225, -0.081469685, 0.2807401, -1482268.1, 100012.96, 0.0, 10.00059, 10.000378 
2.9955426e+3, 1.4854693e+2, -1343703.9, -1493788.1, 17898.072, 0.06924495, 0.37555975, -1341599.0, 142675.06, 0.0, 10.001444, 9.999487 
2.99549e+3, 1.585457e+2, -1319666.9, -1467531.0, 93740.055, -0.0077355346, 0.34271958, -1274212.4, 112073.89, 0.0, 10.001091, 9.999165 
2.9954398e+3, 1.6854505e+2, -1157387.8, -1265951.6, 102589.58, 0.006737699, 0.33296838, -1095604.4, 192687.63, 0.0, 10.001222, 9.99981 
2.99539e+3, 1.7854553e+2, -1058069.5, -1172956.1, 19268.016, 0.018998474, 0.41148242, -1054924.0, 135362.63, 0.0, 10.001256, 9.99976 
2.9953408e+3, 1.885436e+2, -990788.75, -1069363.8, 61607.566, -0.0218804, 0.24775329, -957007.8, 135295.89, 0.0, 10.000955, 9.999945 
2.9952937e+3, 1.9854407e+2, -968359.8, -963788.06, 48974.824, 0.04328674, 0.28093982, -917045.8, 77251.46, 0.0, 10.000248, 10.000339 
2.9952455e+3, 2.0854399e+2, -878753.7, -904263.9, 19518.955, 0.10499161, 0.2747067, -868191.75, 28106.201, 0.0, 10.000348, 10.00002 
2.9951957e+3, 2.1854372e+2, -734645.94, -784827.8, 8879.274, 0.014489364, 0.26386112, -733121.1, 65179.98, 0.0, 10.000673, 10.000008 
2.9951465e+3, 2.285442e+2, -724503.94, -663683.4, -13826.935, -0.004334004, 0.28749153, -660687.56, 39608.246, 0.0, 9.999791, 10.00059 
2.9950976e+3, 2.3854433e+2, -598594.1, -589962.06, -4761.1753, 0.015874673, 0.26781577, -587851.8, 14442.255, 0.0, 10.000145, 10.000252 
2.9950485e+3, 2.4854456e+2, -489263.34, -487277.44, -5623.1196, 0.03507011, 0.2772282, -482560.28, 21732.576, 0.0, 10.000224, 10.000246 
2.994999e+3, 2.5854474e+2, -386657.5, -386812.1, 14385.416, 0.08696304, 0.28269342, -372349.16, 33943.426, 0.0, 10.000238, 10.00027 
2.9949495e+3, 2.685454e+2, -299866.47, -289702.38, 17059.736, 0.10449423, 0.32450262, -276983.8, 31303.229, 0.0, 10.000127, 10.000325 
2.994899e+3, 2.7854627e+2, -222387.17, -169535.3, 6771.026, 0.026683034, 0.3810187, -168681.64, 41597.082, 0.0, 9.999939, 10.000556 
2.9948494e+3, 2.885452e+2, -74101.4, -111279.74, 25805.854, 0.08935578, 0.26502478, -60886.492, 51403.97, 0.0, 10.000563, 10.000014 
