coord_x,coord_y,stress_xx,stress_yy,tau_xy,velocity_x,velocity_y,stress_1,eps,damage,lx,ly
5.0007015e+0, 1.2417762e+2, -1595859.3, -1789521.3, 10666.51, 0.0006758987, 0.14301866, -1595273.5, 127799.04, 0.0013801174, 10.00138, 9.998817 
5.0005466e+0, 1.3417798e+2, -1416407.8, -1472079.1, -10199.664, -0.0038924578, 0.14780326, -1414597.9, 210467.89, 0.0008364695, 10.001165, 10.000427 
5.0004584e+0, 1.4417726e+2, -1445362.0, -1591800.0, -12109.18, -0.0028976537, 0.09232006, -1444367.4, 82704.22, 0.00038681776, 10.000969, 9.999022 
5.0003976e+0, 1.5417574e+2, -1392143.8, -1547124.0, 6910.7134, -0.00037407005, 0.058364328, -1391836.1, 37252.27, 0.00011816065, 10.000798, 9.998737 
5.0003433e+0, 1.6417511e+2, -1264833.1, -1357747.1, 17598.35, 0.00083230867, 0.09023881, -1261611.6, 69484.0, 0.000016018055, 10.000667, 9.99943 
5.000298e+0, 1.7417519e+2, -1173653.9, -1257057.3, 9445.513, -0.00009161428, 0.14194006, -1172597.5, 60496.785, 0.00000013955699, 10.000595, 9.999483 
5.000248e+0, 1.8417469e+2, -1097865.3, -1189371.8, -1526.9039, -0.001738965, 0.15186419, -1097839.8, 37258.938, 0.0, 10.000527, 9.99931 
5.000195e+0, 1.9417356e+2, -1012410.06, -1102546.8, -18159.463, -0.0037687873, 0.10439705, -1008889.1, 28220.248, 0.0, 10.0004635, 9.999264 
5.0001603e+0, 2.0417252e+2, -962940.8, -1089980.5, -13551.628, -0.003980899, 0.10229323, -961511.3, -22391.219, 0.0, 10.000398, 9.998707 
5.0001436e+0, 2.1417162e+2, -879720.2, -1006940.25, 17340.678, -0.0022247536, 0.1401122, -877398.94, -36267.863, 0.0, 10.00033, 9.998637 
5.000113e+0, 2.2417058e+2, -743060.25, -807187.6, 23737.416, -0.0006429437, 0.13965832, -735229.75, 7910.926, 0.0, 10.000237, 9.99938 
5.000057e+0, 2.3416938e+2, -660018.94, -710503.44, -4615.773, 0.00018134947, 0.06750332, -659600.4, -14452.295, 0.0, 10.000109, 9.999433 
5.000034e+0, 2.4416815e+2, -654736.6, -781317.3, -8531.262, 0.0029145735, 0.055140752, -654164.2, -107005.49, 0.0, 10.000008, 9.998324 
5.0000584e+0, 2.5416696e+2, -574450.7, -706767.6, 16621.88, 0.008266702, 0.1074662, -572394.56, -123221.016, 0.0, 9.999949, 9.99819 
5.000045e+0, 2.6416546e+2, -433814.6, -511574.03, 27730.805, 0.008758986, 0.10806499, -424938.38, -73749.734, 0.0, 9.999912, 9.998875 
4.999977e+0, 2.7416363e+2, -334157.47, -406393.03, 13441.577, 0.0027897097, 0.027456937, -331737.38, -78534.664, 0.0, 9.999896, 9.998931 
4.999865e+0, 2.8416258e+2, -247173.06, -300275.8, -6084.11, -0.0017107244, 0.02160525, -246484.9, -91274.34, 0.000000004221918, 9.999763, 9.999051 
4.999693e+0, 2.9416227e+2, -187300.55, -214965.11, -22259.596, -0.004650236, 0.0788168, -174925.55, -117713.41, 0.0000065845143, 9.999476, 9.999102 
4.9995947e+0, 3.0416036e+2, -241247.06, -335430.56, -21683.107, -0.004817456, 0.028827641, -236494.9, -236494.9, 0.00007542163, 9.999284, 9.998037 
4.9996096e+0, 3.1415814e+2, -52624.574, 72633.93, -9398.197, 0.00009487204, 0.006703409, 73335.16, 73335.16, 0.00027006015, 9.999211, 10.000875 
1.5002097e+1, 1.2417762e+2, -1634761.8, -1868425.3, 1006.2929, 0.0015136056, 0.10509052, -1634757.4, 88312.47, 0.00135349, 10.001373, 9.998281 
1.5001643e+1, 1.3417754e+2, -1453890.9, -1548913.5, -18150.654, -0.011537784, 0.11937161, -1450541.9, 174528.98, 0.0008181531, 10.001163, 9.999902 
1.5001373e+1, 1.44177e+2, -1415355.6, -1527870.6, -19412.637, -0.008731714, 0.09183669, -1412100.5, 114975.48, 0.00037595516, 10.000962, 9.999463 
1.5001193e+1, 1.5417652e+2, -1355638.8, -1470118.8, 823.52997, -0.0010446254, 0.10815612, -1355632.9, 73448.33, 0.00011312574, 10.000793, 9.999269 
1.500103e+1, 1.6417605e+2, -1275166.8, -1377951.8, 13757.098, 0.0025078075, 0.13292778, -1273357.3, 57728.37, 0.000014709239, 10.000662, 9.999294 
1.5000895e+1, 1.7417513e+2, -1188846.0, -1287645.8, 6964.5156, -0.0002229171, 0.10637169, -1188357.5, 44736.285, 0.00000010097208, 10.000591, 9.999275 
1.5000743e+1, 1.8417409e+2, -1127384.1, -1249186.1, -4272.722, -0.005268301, 0.09357011, -1127234.5, 7869.6206, 0.0, 10.000522, 9.998901 
1.5000586e+1, 1.9417308e+2, -1042387.1, -1163980.9, -20019.992, -0.011202228, 0.10220158, -1039175.75, -2060.1938, 0.0, 10.000461, 9.998844 
1.5000479e+1, 2.0417237e+2, -911674.4, -982242.7, -16600.746, -0.01205234, 0.120546244, -907964.2, 31158.703, 0.0, 10.000393, 9.99945 
1.5000433e+1, 2.1417204e+2, -821391.2, -884765.94, 15460.138, -0.0063913832, 0.13319662, -817820.9, 23303.963, 0.0, 10.000326, 9.999478 
1.5000337e+1, 2.2417115e+2, -785461.94, -893718.06, 18620.172, -0.002225673, 0.12764491, -782348.75, -39215.83, 0.0, 10.000232, 9.998789 
1.5000173e+1, 2.3416951e+2, -712126.3, -817983.56, -8819.461, 0.00071736454, 0.08707264, -711396.56, -66247.71, 0.0, 10.000107, 9.998696 
1.5000099e+1, 2.441682e+2, -616017.2, -699974.75, -11470.426, 0.00844517, 0.08067068, -614478.3, -67317.13, 0.0, 10.000004, 9.998884 
1.5000175e+1, 2.5416738e+2, -526041.44, -605302.6, 14967.6, 0.024713505, 0.1028731, -523309.2, -74140.8, 0.0, 9.999946, 9.998889 
1.5000133e+1, 2.641661e+2, -452859.34, -549972.7, 26632.482, 0.026267206, 0.0968085, -446035.16, -94855.11, 0.0, 9.999908, 9.998614 
1.4999929e+1, 2.7416426e+2, -361520.03, -462018.38, 13283.339, 0.008072367, 0.049846597, -359793.97, -106597.45, 0.0, 9.999892, 9.998552 
1.4999595e+1, 2.8416276e+2, -276540.66, -360032.03, -16735.34, -0.004839268, 0.041013215, -273311.06, -118100.97, 0.0000000059189293, 9.999758, 9.998643 
1.4999074e+1, 2.9416156e+2, -215116.83, -271298.8, -32140.754, -0.014482118, 0.05266125, -200521.39, -143300.52, 0.0000065077284, 9.999471, 9.998717 
1.4998789e+1, 3.0415955e+2, -225187.34, -300742.1, -25546.219, -0.013862816, -0.0010811122, -217360.55, -217360.55, 0.000074265045, 9.999279, 9.998279 
1.4998819e+1, 3.141582e+2, -33767.023, 114216.05, -6981.4893, -0.00060144055, 0.037716612, 114544.69, 114544.69, 0.00026651216, 9.999203, 10.001165 
2.5003275e+1, 1.2417771e+2, -1636985.4, -1874455.6, -5811.8223, -0.018692926, 0.07496218, -1636843.3, 86224.375, 0.0013145427, 10.001383, 9.998235 
2.5002703e+1, 1.3417782e+2, -1468334.8, -1560272.0, 10050.692, -0.018008716, 0.112348355, -1467248.9, 157819.0, 0.0007913486, 10.001084, 9.999864 
2.5002322e+1, 1.4417748e+2, -1425148.6, -1526626.1, 21945.096, -0.005514213, 0.10362554, -1420606.1, 106465.46, 0.00036019128, 10.000869, 9.999519 
2.5001934e+1, 1.5417708e+2, -1352884.4, -1461669.5, 7150.184, -0.005747969, 0.12133076, -1352416.5, 76659.08, 0.00010584406, 10.000782, 9.999332 
2.5001657e+1, 1.6417651e+2, -1268064.4, -1384334.9, 8303.142, -0.0059194677, 0.13861232, -1267474.4, 63606.25, 0.000012859098, 10.000753, 9.999207 
2.5001538e+1, 1.7417529e+2, -1164264.4, -1287390.8, 8531.045, -0.0059236838, 0.09248983, -1163676.1, 69415.76, 0.00000006033416, 10.000811, 9.999172 
2.500137e+1, 1.8417415e+2, -1098642.8, -1237580.8, 10873.526, -0.0050718235, 0.075125754, -1097796.9, 37306.49, 0.0, 10.000729, 9.998882 
2.5001132e+1, 1.941733e+2, -1043487.0, -1165405.6, 25220.324, -0.0023731026, 0.1009772, -1038475.9, -1362.501, 0.0, 10.000458, 9.998836 
2.5000918e+1, 2.0417266e+2, -926831.4, -978133.5, 26407.045, 0.00033263903, 0.12066158, -915667.94, 23451.992, 0.0, 10.000239, 9.999553 
2.5000724e+1, 2.1417223e+2, -847677.25, -884739.4, 2988.7627, 0.0017896286, 0.11111032, -847437.75, -6315.564, 0.0, 10.000091, 9.999592 
2.50005e+1, 2.2417139e+2, -823164.1, -920434.06, -2513.3784, 0.002400737, 0.11041809, -823099.2, -79969.36, 0.0, 10.000009, 9.9987135 
2.5000253e+1, 2.3417014e+2, -731065.8, -837185.4, 17233.621, 0.0024654674, 0.11499046, -728337.3, -83193.38, 0.0, 10.000021, 9.998606 
2.5000137e+1, 2.441689e+2, -600700.0, -680800.6, 28925.79, 0.009276488, 0.11725787, -591346.56, -44190.816, 0.0, 10.000057, 9.998991 
2.500022e+1, 2.5416777e+2, -491668.78, -574010.4, 13355.086, 0.025859188, 0.09495406, -489556.84, -40392.324, 0.0, 10.000118, 9.999021 
2.5000072e+1, 2.641664e+2, -443884.66, -552135.7, 3033.9978, 0.02495707, 0.07798156, -443799.72, -92623.39, 0.0, 9.999998, 9.998556 
2.4999632e+1, 2.7416486e+2, -402779.22, -491304.22, 10260.918, 0.0013992351, 0.066400595, -401605.44, -148414.36, 0.0, 9.999649, 9.998468 
2.4999207e+1, 2.8416333e+2, -316902.6, -392401.56, 8941.214, -0.0082719745, 0.06581925, -315858.16, -160652.81, 0.0000000086392555, 9.9995365, 9.998528 
2.4998765e+1, 2.941617e+2, -188814.73, -272220.16, 14145.638, -0.004369004, 0.04706213, -186480.92, -129260.91, 0.0000063841276, 9.99971, 9.998597 
2.4998295e+1, 3.0415952e+2, -186065.7, -278494.7, 15566.703, -0.0038698332, -0.02017379, -183514.4, -183514.4, 0.00007245626, 9.999536, 9.998308 
2.4997784e+1, 3.141585e+2, -71787.73, 98892.695, 17517.857, -0.010659573, 0.04938899, 100672.1, 100672.1, 0.0002610093, 9.998931, 10.001191 
3.500423e+1, 1.2417788e+2, -1606286.0, -1810081.3, -19299.607, -0.063822865, 0.0489856, -1604474.4, 118591.59, 0.0012623775, 10.001381, 9.998677 
3.5003716e+1, 1.3417882e+2, -1436377.3, -1494204.5, -493.9378, -0.02594103, 0.1257791, -1436373.1, 188683.95, 0.000755357, 10.001085, 10.000317 
3.5003296e+1, 1.4417867e+2, -1447513.9, -1572961.1, 16809.629, 0.0036715604, 0.1268087, -1445300.5, 81758.07, 0.00033918672, 10.000869, 9.999202 
3.5002625e+1, 1.5417743e+2, -1380920.8, -1519345.5, 4083.0703, -0.016163254, 0.09971075, -1380800.4, 48271.09, 0.00009620481, 10.00078, 9.998939 
3.5002214e+1, 1.6417654e+2, -1270988.5, -1389131.1, 9609.352, -0.026596535, 0.10678447, -1270212.0, 60868.594, 0.000010539653, 10.000749, 9.999176 
3.5002223e+1, 1.7417572e+2, -1164364.4, -1286802.8, 11283.352, -0.01924444, 0.09970774, -1163333.3, 69755.375, 0.000000028001644, 10.000808, 9.999178 
3.500212e+1, 1.8417488e+2, -1072562.3, -1182465.1, 1082.0519, -0.0034818593, 0.095547125, -1072551.6, 62545.094, 0.0, 10.000725, 9.999263 
3.5001835e+1, 1.9417424e+2, -1015524.1, -1106539.9, 15456.712, 0.021650463, 0.1012377, -1012970.9, 24131.92, 0.0, 10.000454, 9.999241 
3.5001472e+1, 2.0417337e+2, -965075.75, -1055693.1, 20154.213, 0.031172678, 0.102108136, -960795.44, -21684.268, 0.0, 10.000234, 9.9990225 
3.5001007e+1, 2.1417214e+2, -891343.5, -974577.1, -1966.6696, 0.020805538, 0.07369737, -891297.06, -50173.79, 0.0, 10.000088, 9.998978 
3.50006e+1, 2.2417133e+2, -791688.5, -853813.6, -3058.844, 0.010918055, 0.08642232, -791538.25, -48406.74, 0.0, 10.000004, 9.999174 
3.5000297e+1, 2.341712e+2, -692382.6, -756636.25, 18327.11, 0.004305443, 0.15126549, -687522.75, -42389.4, 0.0, 10.000019, 9.999161 
3.5000142e+1, 2.4417025e+2, -624834.9, -729382.9, 30707.193, 0.0035759157, 0.16345675, -616482.94, -69340.36, 0.0, 10.000052, 9.998659 
3.5000184e+1, 2.541681e+2, -522342.1, -636442.44, 15987.863, 0.009923048, 0.084422, -520144.2, -70982.27, 0.0, 10.0001135, 9.998594 
3.499985e+1, 2.641664e+2, -433707.75, -529906.7, -9470.54, 0.0025904234, 0.05050543, -432784.25, -81606.72, 0.0, 9.999994, 9.998711 
3.4999076e+1, 2.7416542e+2, -387611.4, -458378.7, -2140.8074, -0.019578049, 0.07823845, -387546.7, -134360.33, 0.0, 9.999643, 9.998697 
3.4998694e+1, 2.841643e+2, -305147.5, -366710.94, 13719.71, -0.013552859, 0.09512395, -302228.4, -147032.11, 0.000000011844628, 9.999532, 9.998707 
3.4998754e+1, 2.9416275e+2, -178640.5, -249154.44, 21078.396, 0.022858065, 0.062602594, -172820.06, -115610.445, 0.0000061783935, 9.999703, 9.998758 
3.4998113e+1, 3.0416027e+2, -199320.52, -304918.7, -6112.101, 0.023932714, -0.028994942, -198967.92, -198967.92, 0.00006980898, 9.999532, 9.998129 
3.4996495e+1, 3.1415913e+2, -88012.65, 66889.625, -168.848, -0.034355026, 0.04442812, 66889.805, 66889.805, 0.00025310565, 9.998926, 10.000974 
4.500508e+1, 1.2417882e+2, -1677192.3, -1840628.8, 11980.826, -0.09102972, 0.056070805, -1676318.8, 46737.875, 0.0011988538, 10.000877, 9.9987135 
4.5004603e+1, 1.3417962e+2, -1441726.3, -1492855.6, -1618.6554, -0.04280943, 0.11608907, -1441675.1, 183373.83, 0.0007112032, 10.001034, 10.000352 
4.5004255e+1, 1.441795e+2, -1416507.5, -1558569.3, 10886.459, 0.0017510903, 0.11558049, -1415678.0, 111372.195, 0.00031351, 10.001085, 9.999196 
4.500358e+1, 1.5417817e+2, -1345885.5, -1504011.9, 25107.35, -0.010279652, 0.082839325, -1341994.8, 87068.78, 0.000084590996, 10.001028, 9.998926 
4.5003083e+1, 1.6417728e+2, -1261319.0, -1389070.4, 44620.727, -0.018387578, 0.092388466, -1247277.4, 83795.26, 0.000007991499, 10.000835, 9.999136 
4.5002887e+1, 1.7417656e+2, -1217277.6, -1316548.0, 42307.848, -0.016097188, 0.100280434, -1201693.1, 31387.025, 0.000000008983813, 10.0004635, 9.99914 
4.5002663e+1, 1.8417583e+2, -1118858.4, -1198215.6, 26228.402, -0.0044051236, 0.10628727, -1110973.1, 24114.418, 0.0, 10.00038, 9.999321 
4.500235e+1, 1.9417529e+2, -975282.5, -1079806.8, 14414.939, 0.01556422, 0.11491337, -973331.0, 63761.5, 0.0, 10.000699, 9.999308 
4.50019e+1, 2.0417434e+2, -898188.8, -1040557.94, 11303.036, 0.024397384, 0.11093614, -897297.0, 41804.637, 0.0, 10.000765, 9.998872 
4.5001277e+1, 2.1417281e+2, -847161.56, -971478.7, 21060.377, 0.019867051, 0.06875957, -843690.6, -2573.854, 0.0, 10.00047, 9.998815 
4.5000798e+1, 2.2417186e+2, -747669.56, -827667.44, 32427.873, 0.016038215, 0.07628444, -736175.94, 6950.2627, 0.0, 10.000285, 9.999218 
4.5000538e+1, 2.3417185e+2, -653839.94, -730281.8, 17197.285, 0.014995884, 0.146629, -650149.2, -5022.386, 0.0, 10.000251, 9.99923 
4.5000267e+1, 2.4417101e+2, -624073.56, -730365.2, 16423.38, 0.010652018, 0.16551636, -621593.8, -74458.69, 0.0, 10.000063, 9.998648 
4.4999972e+1, 2.5416896e+2, -588767.56, -670718.94, 30332.775, -0.000114119604, 0.09450566, -578762.0, -129607.99, 0.0, 9.999667, 9.998574 
4.4999513e+1, 2.6416722e+2, -496617.1, -560089.4, 21881.055, -0.008887698, 0.059932698, -489805.03, -138635.0, 0.0, 9.99956, 9.998713 
4.4998908e+1, 2.741661e+2, -359733.72, -443919.97, 13669.272, -0.009891397, 0.07303723, -357569.88, -104389.45, 0.0, 9.99983, 9.998708 
4.499851e+1, 2.841651e+2, -258212.75, -323621.44, 17513.521, 0.0031507304, 0.09239312, -253818.61, -98629.53, 0.000000014278152, 9.999766, 9.99889 
4.4998276e+1, 2.9416397e+2, -226246.14, -251538.81, 25822.115, 0.026184244, 0.083652936, -210139.89, -152942.34, 0.0000058442592, 9.999288, 9.998943 
4.4997403e+1, 3.0416146e+2, -259742.67, -340864.56, 5082.9644, 0.019531928, -0.017626917, -259425.42, -259425.42, 0.00006621042, 9.999146, 9.998068 
4.4995648e+1, 3.141601e+2, -25718.197, 83292.35, 21482.645, -0.03529369, 0.04165543, 87373.16, 87373.16, 0.0002425997, 9.999409, 10.000855 
5.5005795e+1, 1.2418054e+2, -1701341.5, -1892850.5, 16513.21, -0.109293714, 0.09817597, -1699928.1, 23111.291, 0.0011275938, 10.000886, 9.998352 
5.500537e+1, 1.3418025e+2, -1467769.8, -1547171.9, 4003.7976, -0.070391566, 0.08648416, -1467568.4, 157474.98, 0.00066134764, 10.001035, 9.999979 
5.5005187e+1, 1.4417988e+2, -1394794.1, -1512682.4, 9099.827, -0.01423919, 0.06918104, -1394095.8, 132950.83, 0.00028458898, 10.001082, 9.999514 
5.5004793e+1, 1.5417926e+2, -1319665.6, -1449871.9, 23739.414, 0.006483831, 0.069561504, -1315472.5, 113579.14, 0.00007188515, 10.001029, 9.999297 
5.500425e+1, 1.6417871e+2, -1264106.6, -1394940.6, 30887.81, 0.013598875, 0.094767325, -1257181.0, 73875.82, 0.0000055425044, 10.000836, 9.999095 
5.500354e+1, 1.7417784e+2, -1223253.0, -1328225.0, 28397.508, 0.002006191, 0.09538613, -1216063.3, 17003.3, 0.00000000116644, 10.000461, 9.999062 
5.500298e+1, 1.8417701e+2, -1137982.1, -1236548.5, 35990.367, -0.011082203, 0.10765469, -1126239.6, 8836.208, 0.0, 10.000374, 9.999061 
5.500266e+1, 1.9417644e+2, -994973.1, -1120174.6, 27144.33, -0.023950422, 0.14104196, -989341.44, 47741.305, 0.0, 10.000697, 9.999031 
5.5002195e+1, 2.0417553e+2, -881434.1, -1005024.1, 1804.0819, -0.023097487, 0.14589702, -881407.8, 57683.71, 0.0, 10.000762, 9.999117 
5.500152e+1, 2.1417421e+2, -827578.75, -930182.9, 10481.676, -0.003469617, 0.095769346, -826518.94, 14583.961, 0.0, 10.000467, 9.9991 
5.5001074e+1, 2.2417302e+2, -773719.6, -880071.7, 30092.967, 0.014793919, 0.078931846, -765795.1, -22681.006, 0.0, 10.000279, 9.998861 
5.5000967e+1, 2.3417212e+2, -683413.7, -791441.7, 16438.355, 0.031851612, 0.1014184, -680967.7, -35843.375, 0.0, 10.00025, 9.998811 
5.50005e+1, 2.4417119e+2, -601720.0, -683505.7, 2206.7183, 0.02719331, 0.12203392, -601660.5, -54527.07, 0.0, 10.000061, 9.998971 
5.499958e+1, 2.5417024e+2, -562181.8, -614734.06, 15944.349, -0.0070554637, 0.12510064, -557722.6, -108581.7, 0.0, 9.999663, 9.998961 
5.499905e+1, 2.6416883e+2, -507148.34, -580755.25, 29940.273, -0.011742573, 0.1048029, -496508.0, -145353.98, 0.0, 9.999557, 9.998572 
5.4999113e+1, 2.7416688e+2, -374059.6, -472446.94, 23977.918, 0.027099332, 0.051383883, -368527.06, -115353.82, 0.0, 9.999826, 9.998513 
5.4998624e+1, 2.8416568e+2, -245584.1, -297184.5, 955.65564, 0.037735235, 0.05743755, -245566.4, -90382.734, 0.000000014996283, 9.999765, 9.999072 
5.499733e+1, 2.941654e+2, -210741.17, -218080.4, 8907.582, 0.0022089907, 0.11210681, -204776.94, -147593.34, 0.0000053587105, 9.999282, 9.999175 
5.499615e+1, 3.041631e+2, -256786.3, -334077.63, 12708.4, -0.020672657, 0.0130997235, -254750.39, -254750.39, 0.000061679886, 9.999144, 9.9981165 
5.499522e+1, 3.141614e+2, -27138.682, 81106.41, 36616.04, -0.020653056, 0.038495112, 92328.98, 92328.98, 0.00022953504, 9.999407, 10.000842 
6.500689e+1, 1.2418201e+2, -1679411.9, -1892406.1, 17440.2, -0.09789777, 0.11518124, -1677993.3, 45031.72, 0.001052614, 10.001081, 9.998259 
6.500639e+1, 1.3418142e+2, -1483925.5, -1564408.3, 25042.336, -0.06867488, 0.08233483, -1476769.8, 148262.16, 0.00060904585, 10.000964, 9.999893 
6.5006095e+1, 1.4418104e+2, -1430994.9, -1529395.5, 28942.434, -0.0184608, 0.06830467, -1423113.4, 103921.87, 0.000254567, 10.000831, 9.999519 
6.500551e+1, 1.5418048e+2, -1366724.5, -1470663.8, 16151.574, -0.007870004, 0.07224819, -1364272.4, 64767.105, 0.00005931439, 10.000699, 9.999313 
6.5004927e+1, 1.641799e+2, -1279475.9, -1404835.4, 12380.666, 0.00273729, 0.09559586, -1278264.9, 52779.984, 0.0000034805446, 10.000742, 9.999072 
6.5004367e+1, 1.7417893e+2, -1140508.5, -1291315.5, 13338.597, 0.009395417, 0.08733833, -1139337.9, 93717.61, 0.00000000000024211628, 10.001042, 9.999034 
6.500375e+1, 1.8417804e+2, -1056798.0, -1204294.0, 27416.719, -0.00024486092, 0.098469235, -1051866.6, 83198.71, 0.0, 10.000962, 9.998998 
6.5003145e+1, 1.9417748e+2, -1048846.1, -1152868.3, 33852.36, -0.028425818, 0.13992912, -1038799.7, -1727.2151, 0.0, 10.000358, 9.99897 
6.500258e+1, 2.0417665e+2, -962118.4, -1034983.25, 18870.703, -0.03103667, 0.1512968, -957521.2, -18440.486, 0.0, 10.000171, 9.999196 
6.500206e+1, 2.1417546e+2, -806608.3, -909469.5, 12986.632, -0.00043328834, 0.10627359, -804994.0, 36096.563, 0.0, 10.0005665, 9.999193 
6.500156e+1, 2.2417423e+2, -739521.2, -878029.5, 22088.707, 0.0205481, 0.08638499, -736083.9, 7018.2124, 0.0, 10.000575, 9.998733 
6.500108e+1, 2.3417301e+2, -723823.8, -826785.75, 27363.482, 0.02926971, 0.09242423, -717003.44, -71888.266, 0.0, 10.000041, 9.998669 
6.500043e+1, 2.4417199e+2, -633688.7, -696452.7, 21810.879, 0.025973713, 0.10902343, -626853.6, -79728.26, 0.0, 9.99983, 9.998994 
6.499958e+1, 2.5417122e+2, -500486.56, -580043.94, 9975.306, 0.00694511, 0.12486088, -499254.88, -50123.406, 0.0, 10.000066, 9.999005 
6.4998984e+1, 2.6416987e+2, -442997.78, -545808.8, 15367.509, 0.0056601963, 0.10929677, -440749.88, -89606.21, 0.0, 9.99998, 9.998609 
6.499881e+1, 2.7416787e+2, -424671.56, -493566.06, 25572.576, 0.032402817, 0.04864299, -416216.97, -163053.97, 0.0, 9.999464, 9.998543 
6.499816e+1, 2.841667e+2, -317545.78, -342160.2, 4625.992, 0.0373345, 0.05538496, -316705.1, -161531.3, 0.000000013847158, 9.999316, 9.99898 
6.4996797e+1, 2.9416642e+2, -165056.78, -206643.53, -12352.941, 0.0023791469, 0.120186776, -161664.22, -104489.79, 0.0000047556837, 9.999641, 9.999081 
6.49955e+1, 3.0416393e+2, -184614.86, -288046.88, -20662.639, -0.021869019, 0.0077965553, -180639.84, -180639.84, 0.000056396846, 9.999591, 9.998217 
6.499445e+1, 3.141625e+2, -73683.484, 63526.668, 11753.724, -0.021058539, 0.049291443, 64526.24, 64526.24, 0.00021421611, 9.999067, 10.000883 
7.5008345e+1, 1.2418317e+2, -1666145.6, -1866045.0, 11578.599, -0.06251095, 0.10185209, -1665477.3, 57536.594, 0.0009783517, 10.001085, 9.998437 
7.5007594e+1, 1.3418311e+2, -1468838.9, -1535108.8, 21209.69, -0.045581605, 0.10098864, -1462632.0, 162382.86, 0.00055803865, 10.000972, 10.000091 
7.5006944e+1, 1.4418295e+2, -1451226.5, -1572275.0, 23596.502, -0.018356293, 0.11160682, -1446789.4, 80226.75, 0.00022607559, 10.000834, 9.999224 
7.500575e+1, 1.5418181e+2, -1390617.5, -1520037.1, 11411.857, -0.053809665, 0.09186067, -1389619.0, 39408.21, 0.000048170983, 10.000698, 9.998976 
7.500512e+1, 1.6418085e+2, -1279741.4, -1404374.3, 22167.578, -0.052741338, 0.09492963, -1275916.0, 55120.547, 0.0000019773436, 10.000738, 9.999077 
7.5005335e+1, 1.7417978e+2, -1138340.0, -1287013.1, 25421.434, 0.0014003296, 0.075493105, -1134113.4, 98933.85, 0.0, 10.001043, 9.999063 
7.500496e+1, 1.8417889e+2, -1046915.2, -1183756.0, 7243.471, 0.02313029, 0.07784528, -1046532.8, 88523.58, 0.0, 10.000962, 9.999139 
7.500379e+1, 1.9417842e+2, -1038607.5, -1130855.8, 11174.078, 0.00040896138, 0.1123139, -1037273.25, -211.55852, 0.0, 10.000355, 9.999123 
7.500305e+1, 2.0417768e+2, -968526.1, -1047080.8, 30620.229, -0.001341599, 0.12721312, -958000.75, -18931.45, 0.0, 10.000166, 9.999114 
7.5002897e+1, 2.1417657e+2, -814381.9, -924961.1, 28558.387, 0.025751004, 0.10037768, -807441.9, 33638.168, 0.0, 10.000565, 9.999087 
7.5002235e+1, 2.241755e+2, -731801.44, -861527.2, 4492.1133, 0.030343872, 0.09783863, -731646.06, 11444.3, 0.0, 10.000573, 9.998847 
7.500088e+1, 2.3417458e+2, -714962.4, -807948.44, 7421.3335, 0.005222174, 0.11902703, -714373.8, -69274.336, 0.0, 10.000039, 9.998799 
7.500006e+1, 2.441734e+2, -652932.06, -735511.75, 28114.793, 0.0053230696, 0.12456254, -644269.0, -97157.97, 0.0, 9.999827, 9.998727 
7.499997e+1, 2.5417185e+2, -521874.38, -624138.44, 18997.563, 0.03849174, 0.09433099, -518459.28, -69333.64, 0.0, 10.000065, 9.998704 
7.499932e+1, 2.6417038e+2, -427765.13, -513958.7, -2430.2847, 0.04005437, 0.07388084, -427696.66, -76557.59, 0.0, 9.999979, 9.998827 
7.4998003e+1, 2.7416918e+2, -407496.4, -456565.7, 6843.515, 0.00408778, 0.064697124, -406559.84, -153410.2, 0.0, 9.999459, 9.998798 
7.4997103e+1, 2.841681e+2, -343944.25, -396169.6, 14115.412, -0.00073492056, 0.0854399, -340373.3, -185213.84, 0.000000011324871, 9.999313, 9.9986105 
7.499665e+1, 2.9416695e+2, -194415.48, -267460.22, 119.85517, 0.023210447, 0.10721792, -194415.28, -137245.22, 0.000004098041, 9.999641, 9.998664 
7.499542e+1, 3.0416405e+2, -173878.23, -265837.78, -38724.45, 0.0104822265, -0.03275753, -159743.77, -159743.77, 0.000050636394, 9.999592, 9.998368 
7.4993306e+1, 3.141635e+2, -66474.805, 79934.33, -3444.7185, -0.04297416, 0.075398706, 80015.33, 80015.33, 0.00019719645, 9.999062, 10.0009985 
8.5009706e+1, 1.2418436e+2, -1666089.9, -1861739.1, 1465.5748, -0.034464564, 0.097961806, -1666078.9, 56923.098, 0.00090933184, 10.001066, 9.998477 
8.5008544e+1, 1.3418432e+2, -1465312.0, -1530623.8, -2815.363, -0.047360092, 0.09662752, -1465190.9, 159811.9, 0.0005120121, 10.000984, 10.000115 
8.500777e+1, 1.4418425e+2, -1439526.8, -1582233.0, 3092.2224, -0.026810536, 0.12027639, -1439459.8, 87543.555, 0.00020159004, 10.000983, 9.999084 
8.500666e+1, 1.5418288e+2, -1336641.1, -1511421.6, 4358.691, -0.055048477, 0.093586646, -1336532.5, 92484.61, 0.000039447743, 10.001145, 9.998818 
8.5005975e+1, 1.6418181e+2, -1243204.1, -1387024.4, 17623.229, -0.05414682, 0.0951802, -1241076.1, 89951.58, 0.0000010481418, 10.000991, 9.999074 
8.5005975e+1, 1.7418085e+2, -1231225.6, -1330448.9, 17885.781, -0.0067849234, 0.084882624, -1228100.0, 4937.2476, 0.0, 10.000401, 9.999074 
8.500552e+1, 1.8417995e+2, -1139935.5, -1217274.5, 1871.6263, 0.017937446, 0.08027919, -1139890.3, -4844.169, 0.0, 10.000275, 9.999241 
8.500443e+1, 1.941793e+2, -965752.9, -1082876.6, 2958.655, 0.0074310834, 0.08569921, -965678.2, 71374.05, 0.0, 10.0008, 9.999237 
8.500366e+1, 2.0417856e+2, -881482.0, -1015561.56, 16944.758, 0.011023907, 0.10033152, -879373.7, 59685.984, 0.0, 10.000809, 9.999022 
8.500333e+1, 2.1417771e+2, -889986.5, -974161.4, 13106.767, 0.03575225, 0.11325025, -887992.9, -46923.83, 0.0, 10.000099, 9.998975 
8.500254e+1, 2.241768e+2, -815759.0, -882138.4, -2970.8901, 0.036316868, 0.12050851, -815626.25, -72547.84, 0.0, 9.999911, 9.999024 
8.500112e+1, 2.3417577e+2, -640815.1, -748886.8, 5015.274, 0.004810425, 0.111587785, -640582.9, 4504.1606, 0.0, 10.000448, 9.999007 
8.5000205e+1, 2.441745e+2, -564322.4, -709245.9, 27505.371, 0.003154147, 0.104937755, -559277.7, -12178.7705, 0.0, 10.000505, 9.99858 
8.499996e+1, 2.5417292e+2, -557617.9, -661557.5, 26766.95, 0.03976203, 0.088286616, -551129.75, -102014.734, 0.0, 9.999907, 9.998524 
8.4999144e+1, 2.6417148e+2, -468979.4, -526402.7, 6598.1255, 0.040738262, 0.07619451, -468231.0, -117102.24, 0.0, 9.999663, 9.998895 
8.499764e+1, 2.7417037e+2, -335523.16, -411311.78, 2095.7258, 0.0007550337, 0.069295645, -335465.25, -82327.414, 0.0, 9.999907, 9.998895 
8.4996635e+1, 2.841693e+2, -272337.4, -375266.6, 15904.741, -0.0058671134, 0.0895395, -269935.8, -114788.15, 0.000000007967864, 9.999862, 9.998491 
8.499612e+1, 2.9416797e+2, -234837.84, -302513.38, 22579.42, 0.016971858, 0.10745969, -227996.08, -170835.63, 0.0000034232567, 9.999431, 9.998525 
8.499483e+1, 3.0416486e+2, -215660.72, -272736.06, -10981.633, 0.009265224, -0.052426558, -213620.7, -213620.7, 0.00004462947, 9.999247, 9.998487 
8.4992707e+1, 3.141647e+2, -21693.205, 102608.414, 20990.402, -0.02431484, 0.082942605, 106057.305, 106057.305, 0.00017905688, 9.999363, 10.001009 
9.5010895e+1, 1.2418557e+2, -1673003.1, -1876371.4, -3328.5696, -0.02310873, 0.10403345, -1672948.6, 50041.234, 0.0008487081, 10.001067, 9.998377 
9.5009285e+1, 1.3418503e+2, -1475387.1, -1553000.6, -5760.974, -0.07355903, 0.0689554, -1474961.9, 150033.83, 0.00047347447, 10.00099, 9.99996 
9.5008576e+1, 1.441849e+2, -1437177.6, -1577878.8, 7685.52, -0.04530507, 0.094616346, -1436759.0, 90237.81, 0.00018256163, 10.000985, 9.999113 
9.5008177e+1, 1.5418366e+2, -1334037.8, -1506786.4, 11303.547, -0.01864319, 0.07644875, -1333301.3, 95708.11, 0.00003354367, 10.001147, 9.99885 
9.5007426e+1, 1.6418278e+2, -1244775.9, -1390024.5, -2271.5823, -0.008637574, 0.095521465, -1244740.4, 86278.04, 0.00000057940093, 10.00099, 9.999053 
9.500628e+1, 1.741821e+2, -1232610.4, -1333057.0, -4165.926, -0.016174383, 0.11545925, -1232437.9, 587.80505, 0.0, 10.0004, 9.999057 
9.500545e+1, 1.8418117e+2, -1134842.0, -1206642.5, 17923.443, -0.017380668, 0.10648889, -1130616.5, 4418.1226, 0.0, 10.000275, 9.999313 
9.5005065e+1, 1.9418009e+2, -960373.8, -1071629.5, 23375.072, -0.010436013, 0.0598466, -955662.2, 81381.82, 0.0, 10.0008, 9.999313 
9.500439e+1, 2.041793e+2, -889545.75, -1031645.06, -6314.984, 0.003424473, 0.07077734, -889265.6, 49786.254, 0.0, 10.000806, 9.998913 
9.500334e+1, 2.1417895e+2, -898856.1, -992078.5, -13433.918, 0.027108004, 0.14475867, -896958.9, -55901.15, 0.0, 10.000097, 9.998853 
9.500245e+1, 2.2417809e+2, -799485.0, -847623.06, 13213.017, 0.036054417, 0.15436421, -796096.75, -53030.41, 0.0, 9.999908, 9.999263 
9.500179e+1, 2.3417658e+2, -621863.44, -708985.7, 25615.748, 0.026003776, 0.06976913, -614890.0, 30187.791, 0.0, 10.000445, 9.999283 
9.5000863e+1, 2.4417533e+2, -566123.0, -712629.75, 7721.438, 0.017433167, 0.051176175, -565717.2, -18628.262, 0.0, 10.0005045, 9.998557 
9.4999564e+1, 2.541744e+2, -562227.8, -670265.44, 4425.547, 0.0086779045, 0.105472855, -562046.9, -112947.09, 0.0, 9.999903, 9.998466 
9.4998467e+1, 2.6417312e+2, -476005.47, -540122.9, 12906.495, 0.006397547, 0.115246736, -473505.0, -122392.04, 0.0, 9.99966, 9.998802 
9.499774e+1, 2.7417147e+2, -340993.78, -422826.94, 11441.367, 0.018856758, 0.06273027, -339424.22, -86296.64, 0.0, 9.9999075, 9.998816 
9.499673e+1, 2.8417027e+2, -262667.2, -355106.44, 723.67505, 0.017740643, 0.0694126, -262661.53, -107523.266, 0.0000000042394483, 9.999863, 9.99863 
9.49952e+1, 2.9416943e+2, -226062.17, -282707.34, 7013.1567, -0.018502492, 0.11970797, -225206.8, -168061.14, 0.000002739973, 9.999424, 9.998664 
9.4993705e+1, 3.041663e+2, -211022.39, -261156.05, -8448.441, -0.027657654, -0.05249588, -209636.95, -209636.95, 0.000038513957, 9.999239, 9.9985695 
9.499262e+1, 3.1416607e+2, -28578.527, 88516.94, 29999.61, 0.029045643, 0.06868387, 95755.33, 95755.33, 0.00016021931, 9.999362, 10.000914 
1.05011754e+2, 1.24186486e+2, -1711683.0, -1893955.9, -12902.079, -0.030031366, 0.10005423, -1710774.3, 12206.343, 0.00079770345, 10.000798, 9.998384 
1.05010405e+2, 1.3418587e+2, -1453783.0, -1544511.4, -6123.513, -0.068108216, 0.058340393, -1453371.5, 171615.84, 0.0004431459, 10.001148, 9.999941 
1.0500981e+2, 1.441859e+2, -1408019.5, -1557203.8, 4944.037, -0.02886911, 0.09790495, -1407855.9, 119131.26, 0.00016917764, 10.001156, 9.999173 
1.0500923e+2, 1.541847e+2, -1393718.0, -1528625.6, 8568.497, -0.0056506796, 0.07819029, -1393175.9, 35823.363, 0.000030278157, 10.000707, 9.998913 
1.05008304e+2, 1.6418383e+2, -1301096.8, -1414782.1, 151.59023, 0.00028975058, 0.0945079, -1301096.5, 29911.617, 0.0000004316036, 10.000592, 9.999077 
1.0500695e+2, 1.7418315e+2, -1151302.9, -1291170.6, 1323.5122, -0.016395181, 0.11340687, -1151290.4, 81724.94, 0.0, 10.000946, 9.999081 
1.0500597e+2, 1.8418229e+2, -1051065.1, -1168874.0, 23700.846, -0.021636821, 0.109692775, -1046475.8, 88547.82, 0.0, 10.000861, 9.99929 
1.0500556e+2, 1.941813e+2, -1053440.3, -1120136.0, 20043.926, -0.009439587, 0.07583984, -1047880.06, -10847.864, 0.0, 10.000175, 9.999283 
1.0500482e+2, 2.0418046e+2, -1003637.1, -1084138.9, -8737.444, 0.004116547, 0.08176082, -1002699.7, -63659.293, 0.0, 10.0000105, 9.998937 
1.0500358e+2, 2.1417986e+2, -829643.3, -954806.44, -4783.26, 0.017930066, 0.12629995, -829460.75, 11587.292, 0.0, 10.000557, 9.998887 
1.0500262e+2, 2.2417888e+2, -706016.8, -812245.7, 18068.795, 0.027384436, 0.12810376, -703027.5, 40030.133, 0.0, 10.000592, 9.999176 
1.0500203e+2, 2.341775e+2, -705273.3, -760787.4, 2095.7566, 0.031661496, 0.06639098, -705194.3, -60125.383, 0.0, 9.999922, 9.99918 
1.0500102e+2, 2.4417642e+2, -677648.8, -745977.9, -27050.695, 0.025035696, 0.06122892, -668236.4, -121157.56, 0.0, 9.999651, 9.99874 
1.0499941e+2, 2.541757e+2, -543633.5, -637766.0, -12421.34, 0.0014997076, 0.114140354, -542022.06, -92934.99, 0.0, 9.999928, 9.998676 
1.0499818e+2, 2.641744e+2, -438724.56, -530946.25, 12949.136, -0.0033958843, 0.116931826, -436940.84, -85840.805, 0.0, 9.999951, 9.998726 
1.04997545e+2, 2.741725e+2, -392187.4, -459319.25, 10275.222, 0.023519158, 0.051169723, -390649.9, -137532.27, 0.0, 9.999606, 9.998712 
1.0499651e+2, 2.8417137e+2, -301568.97, -351317.4, -1296.5974, 0.027746497, 0.06218929, -301535.2, -146407.63, 0.0000000012344323, 9.999497, 9.998832 
1.04994796e+2, 2.941711e+2, -167674.25, -228848.8, 10074.566, -0.015815329, 0.14155957, -166057.83, -108928.83, 0.0000020653147, 9.999711, 9.998898 
1.0499313e+2, 3.041679e+2, -147402.2, -238485.14, -4480.572, -0.032640543, -0.045708995, -147182.33, -147182.33, 0.00003243676, 9.999707, 9.998503 
1.04992025e+2, 3.141674e+2, -47959.227, 45126.613, 21975.006, 0.03346088, 0.05893863, 50053.53, 50053.53, 0.00014106146, 9.999375, 10.000609 
1.1501229e+2, 1.2418708e+2, -1702441.5, -1876496.8, -1147.448, -0.059215862, 0.08347087, -1702433.9, 20540.682, 0.0007564602, 10.000806, 9.998501 
1.15011856e+2, 1.341868e+2, -1445659.8, -1527383.8, 7315.227, -0.0385256, 0.06422169, -1445010.1, 179967.83, 0.00042056636, 10.001146, 10.00006 
1.1501141e+2, 1.4418718e+2, -1403374.4, -1546252.8, -9412.783, 0.014280893, 0.12936133, -1402757.0, 124217.41, 0.00016082273, 10.001151, 9.99925 
1.1500984e+2, 1.5418595e+2, -1387387.0, -1516720.0, -7675.4463, -0.017309567, 0.097996615, -1386933.1, 42053.92, 0.000029173776, 10.000712, 9.998992 
1.1500862e+2, 1.6418496e+2, -1294415.1, -1402140.3, 10286.756, -0.028485352, 0.09247553, -1293441.6, 37555.43, 0.0000005105562, 10.000597, 9.999161 
1.1500795e+2, 1.7418404e+2, -1145868.6, -1280091.0, 15174.116, -0.011400295, 0.0791671, -1144174.5, 88831.33, 0.0, 10.000947, 9.999157 
1.15007065e+2, 1.8418328e+2, -1060657.1, -1187997.1, 849.3736, 0.00078459305, 0.08969665, -1060651.4, 74361.78, 0.0, 10.000857, 9.999161 
1.1500592e+2, 1.9418292e+2, -1063400.0, -1140787.4, -5496.634, 0.008499523, 0.13315302, -1063011.5, -25994.752, 0.0, 10.0001745, 9.999141 
1.150049e+2, 2.0418203e+2, -993042.75, -1061442.1, 7854.0234, 0.011123059, 0.13339539, -992152.5, -53127.285, 0.0, 10.000008, 9.999093 
1.15004025e+2, 2.1418041e+2, -816706.94, -927438.7, 16315.677, 0.006529173, 0.05745988, -814352.94, 26687.256, 0.0, 10.000554, 9.999076 
1.1500302e+2, 2.2417916e+2, -735764.6, -872951.1, -3847.9658, 0.008459125, 0.041446563, -735656.8, 7395.779, 0.0, 10.000587, 9.998762 
1.1500184e+2, 2.3417854e+2, -738732.75, -829821.7, -22833.82, 0.020009462, 0.10144445, -733329.44, -88269.055, 0.0, 9.99992, 9.998707 
1.15000665e+2, 2.4417774e+2, -651717.4, -691328.7, -19767.725, 0.024089443, 0.13504209, -643540.4, -96471.93, 0.0, 9.999647, 9.999117 
1.1499948e+2, 2.5417674e+2, -510798.38, -569229.7, -1522.4917, 0.015496417, 0.11443722, -510758.75, -61681.797, 0.0, 9.9999275, 9.999147 
1.1499825e+2, 2.6417536e+2, -443053.03, -539372.94, 1172.852, 0.009218327, 0.08177673, -443038.75, -91948.66, 0.0, 9.999949, 9.99867 
1.14997044e+2, 2.7417353e+2, -401530.4, -477593.97, -2512.3142, 0.012990432, 0.0329174, -401447.53, -148339.34, 0.0, 9.999601, 9.998589 
1.14995964e+2, 2.8417262e+2, -284055.88, -313032.78, 4541.274, 0.023192499, 0.06601483, -283360.84, -128245.11, 0.00000000006210851, 9.99949, 9.999099 
1.1499488e+2, 2.9417294e+2, -145080.11, -181822.2, 19128.39, 0.020875096, 0.17369658, -136929.64, -79819.26, 0.0000014487281, 9.999711, 9.99922 
1.1499307e+2, 3.0416968e+2, -162503.97, -268787.34, -15916.218, -0.008712693, -0.030645547, -160171.64, -160171.64, 0.000026628812, 9.999703, 9.998296 
1.1499093e+2, 3.141687e+2, -85708.45, -30392.96, 12909.856, -0.015781865, 0.051086783, -27528.332, -27528.332, 0.00012208533, 9.999364, 10.000096 
1.2501353e+2, 1.241879e+2, -1598495.3, -1821171.1, 2623.9153, -0.050513353, 0.07710919, -1598464.4, 124501.66, 0.0007247361, 10.001498, 9.998548 
1.250129e+2, 1.3418764e+2, -1483284.4, -1546261.9, 16.303095, -0.034808736, 0.06007196, -1483284.4, 141685.19, 0.00040489552, 10.000893, 10.000052 
1.2501234e+2, 1.4418817e+2, -1474220.1, -1573946.0, -19580.111, 0.01918529, 0.138864, -1470513.5, 56451.055, 0.00015657058, 10.000635, 9.99931 
1.2501061e+2, 1.5418692e+2, -1358489.6, -1495161.3, -19085.818, -0.019119054, 0.09936841, -1355874.4, 73102.914, 0.000029665785, 10.000877, 9.99906 
1.2500931e+2, 1.6418594e+2, -1253075.8, -1378207.1, 405.36966, -0.0317951, 0.089981325, -1253074.5, 77912.58, 0.0000007617598, 10.000862, 9.999198 
1.250087e+2, 1.741851e+2, -1210314.4, -1307897.3, 473.83908, -0.008152104, 0.0810284, -1210312.0, 22682.965, 0.0, 10.000488, 9.999188 
1.2500775e+2, 1.8418434e+2, -1131275.1, -1223530.5, -17532.486, 0.006937583, 0.08935235, -1128055.6, 6946.827, 0.0, 10.000378, 9.999149 
1.2500633e+2, 1.9418386e+2, -998617.44, -1110807.0, -14907.242, 0.010007435, 0.12225921, -996670.4, 40336.81, 0.0, 10.000626, 9.999129 
1.250052e+2, 2.0418294e+2, -906355.2, -1014020.2, 10046.885, 0.011834766, 0.11753581, -905425.7, 33590.12, 0.0, 10.000579, 9.999144 
1.2500441e+2, 2.141814e+2, -875256.2, -949889.7, 8388.143, 0.011693159, 0.044825736, -874325.0, -33295.543, 0.0, 10.000126, 9.999129 
1.250033e+2, 2.2418022e+2, -839242.75, -929804.06, -15981.933, 0.010653834, 0.035731208, -836505.06, -93463.84, 0.0, 9.999906, 9.998701 
1.2500168e+2, 2.3417965e+2, -731635.9, -834152.0, -6840.5225, 0.008540374, 0.10729027, -731181.44, -86131.914, 0.0, 10.000003, 9.998637 
1.2500036e+2, 2.4417885e+2, -605703.8, -670157.1, 11298.95, 0.012778419, 0.14350548, -603780.44, -56722.152, 0.0, 9.999967, 9.999109 
1.2499938e+2, 2.5417778e+2, -539585.3, -583849.1, -4586.496, 0.022515122, 0.11510501, -539115.06, -90047.555, 0.0, 9.999732, 9.999142 
1.24998115e+2, 2.641764e+2, -482193.2, -542022.94, -20041.023, 0.017111285, 0.081789, -476100.53, -125020.65, 0.0, 9.999612, 9.998814 
1.24996535e+2, 2.741748e+2, -383070.75, -451750.53, -5732.4067, -0.00058495114, 0.040287334, -382595.6, -129500.22, 0.0, 9.999654, 9.998741 
1.2499538e+2, 2.84174e+2, -266358.78, -313608.13, 9883.217, 0.008941796, 0.07415131, -264374.8, -109272.36, 0.0, 9.999648, 9.99902 
1.2499462e+2, 2.941741e+2, -178396.63, -208992.69, -6965.8315, 0.033413205, 0.17510214, -176885.36, -119786.01, 0.00000094519226, 9.999531, 9.999121 
1.2499276e+2, 3.0417088e+2, -181767.08, -252353.0, -51473.316, 0.0028281293, -0.033654366, -154649.33, -154649.33, 0.000021325412, 9.999461, 9.998527 
1.2499025e+2, 3.1417042e+2, -74557.76, -28754.246, 16708.576, -0.023559524, 0.07755179, -23306.98, -23306.98, 0.000103857135, 9.999455, 10.000065 
1.3501543e+2, 1.2418898e+2, -1603252.0, -1828743.6, -21868.438, -0.011520055, 0.084629916, -1601150.8, 121804.03, 0.0007016644, 10.001489, 9.998501 
1.3501357e+2, 1.3418834e+2, -1492466.6, -1568174.3, -22042.057, -0.0591725, 0.045332987, -1486516.8, 138445.7, 0.00039489288, 10.000904, 9.999897 
1.3501264e+2, 1.4418884e+2, -1468770.1, -1564783.6, -14429.264, -0.016820706, 0.12561108, -1466648.5, 60309.434, 0.00015526546, 10.000646, 9.999368 
1.3501152e+2, 1.5418762e+2, -1354125.0, -1485222.0, -9513.92, -0.016483372, 0.083218664, -1353438.1, 75531.914, 0.000031126172, 10.000874, 9.99913 
1.3501035e+2, 1.6418682e+2, -1255177.0, -1381580.3, -12049.358, -0.015462207, 0.087409966, -1254038.6, 76939.56, 0.0000011270397, 10.000858, 9.999177 
1.3500918e+2, 1.7418633e+2, -1211443.1, -1310934.8, -13179.443, -0.008715184, 0.117770515, -1209726.9, 23255.963, 0.0, 10.000491, 9.9991665 
1.35008e+2, 1.8418545e+2, -1122781.4, -1206192.9, -10538.712, -0.0049673696, 0.10827985, -1121470.5, 13520.854, 0.0, 10.000379, 9.999268 
1.3500679e+2, 1.9418411e+2, -989937.56, -1092651.6, -5135.466, -0.006853889, 0.042891152, -989681.44, 47322.09, 0.0, 10.000625, 9.999255 
1.350057e+2, 2.0418318e+2, -911278.3, -1023237.3, -5237.9424, 0.0037688008, 0.034008518, -911033.8, 27978.426, 0.0, 10.000574, 9.999083 
1.3500474e+2, 2.1418282e+2, -881254.75, -961620.3, -8130.8984, 0.031563155, 0.08795483, -880440.3, -39424.46, 0.0, 10.000122, 9.99905 
1.350034e+2, 2.2418207e+2, -820082.5, -888665.8, -14219.4795, 0.031329475, 0.111374244, -817251.25, -74227.56, 0.0, 9.9999, 9.998986 
1.3500156e+2, 2.3418082e+2, -708450.9, -786039.94, -2624.1782, -0.005183241, 0.082989454, -708362.2, -63325.64, 0.0, 10.000003, 9.998968 
1.350001e+2, 2.4417967e+2, -633536.1, -727234.94, 3110.6062, -0.0113021415, 0.08517049, -633433.0, -86384.51, 0.0, 9.999965, 9.998719 
1.349991e+2, 2.541787e+2, -572643.3, -651865.8, -13118.224, 0.020635996, 0.11548456, -570527.56, -121468.78, 0.0, 9.999729, 9.998676 
1.3499774e+2, 2.6417762e+2, -459318.2, -493318.7, -19670.467, 0.018637605, 0.116380215, -450319.7, -99250.22, 0.0, 9.999606, 9.999151 
1.3499598e+2, 2.7417642e+2, -352667.44, -388673.66, -3192.4622, -0.021557912, 0.07411573, -352386.56, -99307.414, 0.0, 9.999654, 9.999174 
1.3499476e+2, 2.8417543e+2, -296725.2, -376018.84, 5606.177, -0.01855826, 0.08691318, -296330.78, -141243.06, 0.0, 9.999645, 9.998592 
1.3499402e+2, 2.9417458e+2, -215629.4, -284739.53, -10739.126, 0.018514255, 0.1435984, -213999.1, -156902.92, 0.0000005800232, 9.999524, 9.998604 
1.349922e+2, 3.0417147e+2, -136382.22, -155102.27, -52896.457, -0.00010936465, -0.058005925, -92024.04, -92024.04, 0.000016654767, 9.99945, 9.999199 
1.3498998e+2, 3.1417263e+2, -41972.496, 40189.91, 19530.965, 0.002694528, 0.13783218, 44596.33, 44596.33, 0.000086807726, 9.999452, 10.00054 
1.4501673e+2, 1.2419014e+2, -1687890.3, -1873402.4, -16259.698, -0.0015377819, 0.0863504, -1686475.9, 36466.836, 0.0006852014, 10.000923, 9.998466 
1.4501457e+2, 1.3418911e+2, -1449131.6, -1560155.8, -13950.693, -0.06676276, 0.020617226, -1447405.4, 177548.75, 0.00038852147, 10.001257, 9.999782 
1.4501357e+2, 1.4418964e+2, -1370568.3, -1520025.8, -3583.4692, -0.022930648, 0.108862124, -1370482.4, 156467.47, 0.00015533686, 10.001329, 9.999345 
1.4501251e+2, 1.5418857e+2, -1333076.9, -1477093.5, -6609.1587, -0.0113125965, 0.083533995, -1332774.3, 96186.31, 0.00003278088, 10.001026, 9.999113 
1.4501126e+2, 1.6418779e+2, -1267288.1, -1381852.6, -17719.262, -0.0042743576, 0.089787245, -1264610.1, 66358.17, 0.0000015078091, 10.00075, 9.999228 
1.4500977e+2, 1.7418723e+2, -1202453.0, -1300214.8, -14144.604, -0.0011749546, 0.105878465, -1200447.6, 32525.795, 0.0, 10.0005245, 9.999224 
1.4500839e+2, 1.8418632e+2, -1127745.5, -1209600.9, 915.50525, -0.0033474048, 0.09321292, -1127735.3, 7246.7544, 0.0, 10.000348, 9.999259 
1.4500716e+2, 1.9418508e+2, -1047455.2, -1122553.9, -4457.223, -0.014042204, 0.037193745, -1047191.56, -10197.697, 0.0, 10.000237, 9.999237 
1.4500597e+2, 2.0418423e+2, -969039.9, -1042793.94, -16396.244, -0.0049091056, 0.03573963, -965559.06, -26557.291, 0.0, 10.000141, 9.999157 
1.4500482e+2, 2.1418405e+2, -883823.9, -953337.9, -9033.733, 0.030649366, 0.09735242, -882669.1, -41665.332, 0.0, 10.000065, 9.999135 
1.4500341e+2, 2.2418334e+2, -796217.3, -869566.94, -3734.6873, 0.034004748, 0.11817428, -796027.7, -53016.83, 0.0, 10.0000305, 9.999054 
1.4500159e+2, 2.3418197e+2, -696909.8, -772978.44, -10764.178, -0.00500276, 0.071977146, -695415.94, -50391.54, 0.0, 10.00005, 9.999035 
1.4499998e+2, 2.4418078e+2, -642526.56, -736980.3, -14802.338, -0.015924443, 0.06698323, -640261.1, -93224.42, 0.0, 9.999926, 9.998671 
1.4499864e+2, 2.5417987e+2, -594499.2, -669609.06, -3186.7957, 0.0073644067, 0.10599476, -594364.2, -145317.14, 0.0, 9.999611, 9.998611 
1.4499718e+2, 2.6417872e+2, -475882.5, -508402.38, 7706.0596, 0.0063989926, 0.111805625, -474148.88, -123090.83, 0.0, 9.999522, 9.999088 
1.449957e+2, 2.7417743e+2, -349138.53, -393576.7, -10962.149, -0.018236008, 0.06688421, -346581.5, -93512.86, 0.0, 9.999707, 9.999114 
1.4499448e+2, 2.8417644e+2, -292496.13, -372788.84, -18049.27, -0.012370115, 0.080192424, -288625.38, -133547.78, 0.0, 9.99967, 9.998602 
1.4499335e+2, 2.9417568e+2, -240280.45, -296467.1, 2729.6326, 0.00906263, 0.14457218, -240148.16, -183062.67, 0.00000034163278, 9.999352, 9.998607 
1.449914e+2, 3.0417272e+2, -140744.55, -133762.66, -20164.914, -0.017875964, -0.051931065, -116788.74, -116788.74, 0.000012640429, 9.999317, 9.999411 
1.4498955e+2, 3.1417388e+2, -33522.523, 33143.96, 10057.642, 0.010568458, 0.12385623, 34628.258, 34628.258, 0.00007115946, 9.9995575, 10.000441 
1.550174e+2, 1.24191314e+2, -1686650.8, -1873545.3, -5612.05, -0.028308189, 0.07839745, -1686482.4, 36447.78, 0.0006719969, 10.000935, 9.998459 
1.5501586e+2, 1.3418998e+2, -1453972.5, -1569686.6, -1204.1649, -0.06377804, -0.013178496, -1453959.9, 170984.88, 0.00038301162, 10.001254, 9.999718 
1.5501508e+2, 1.4419055e+2, -1379054.6, -1536200.9, -13490.5, -0.005192918, 0.08987001, -1377904.9, 149035.17, 0.00015494693, 10.001324, 9.999237 
1.550136e+2, 1.5418974e+2, -1340127.0, -1492733.0, -17618.33, -0.006274904, 0.09970573, -1338119.4, 90829.55, 0.000033834087, 10.00103, 9.999003 
1.5501206e+2, 1.6418886e+2, -1257453.6, -1362769.8, -27253.975, -0.0010650352, 0.096154235, -1250818.8, 80138.85, 0.0000017896223, 10.000755, 9.999355 
1.5501042e+2, 1.741878e+2, -1192301.4, -1278923.0, -22330.885, 0.011052381, 0.046190456, -1186883.5, 46083.31, 0.0, 10.0005245, 9.99937 
1.5500885e+2, 1.8418701e+2, -1137614.8, -1229817.9, -3911.759, 0.007749327, 0.044800136, -1137449.1, -2474.8447, 0.0, 10.000346, 9.999122 
1.550074e+2, 1.9418675e+2, -1058716.0, -1145869.5, -8238.975, -0.014024443, 0.104431204, -1057944.0, -20965.715, 0.0, 10.000237, 9.999078 
1.5500599e+2, 2.0418613e+2, -954832.44, -1012700.1, -19745.238, -0.0165544, 0.12257162, -948737.1, -9752.571, 0.0, 10.000138, 9.999366 
1.5500465e+2, 2.1418504e+2, -866873.1, -918113.4, -11381.762, 0.0064434935, 0.07165936, -864458.75, -23465.375, 0.0, 10.000064, 9.999377 
1.5500325e+2, 2.2418402e+2, -806750.44, -890665.25, -3654.1113, 0.015979346, 0.054779034, -806591.6, -63588.695, 0.0, 10.000028, 9.998911 
1.5500177e+2, 2.3418313e+2, -710094.06, -799835.2, -9657.218, 0.007724825, 0.0741622, -709066.6, -64053.566, 0.0, 10.000047, 9.998853 
1.5500003e+2, 2.4418217e+2, -622930.1, -695404.25, -25958.273, -0.0033645772, 0.08935782, -614591.9, -67568.914, 0.0, 9.999922, 9.998958 
1.5499797e+2, 2.5418115e+2, -570668.3, -620282.2, -14397.668, -0.021458842, 0.086466804, -566792.9, -117760.53, 0.0, 9.999611, 9.99895 
1.5499641e+2, 2.6417974e+2, -508551.78, -575826.56, 13096.27, -0.02298386, 0.06669303, -506092.28, -155046.44, 0.0, 9.999521, 9.998626 
1.5499566e+2, 2.7417788e+2, -387381.16, -471968.22, -3741.5024, 0.0068174615, 0.017458, -387216.0, -134151.98, 0.0, 9.999703, 9.998577 
1.5499453e+2, 2.8417704e+2, -261995.66, -308740.0, -29162.057, 0.025378581, 0.05247294, -247995.6, -92923.42, 0.0, 9.999666, 9.999044 
1.5499263e+2, 2.9417744e+2, -201991.17, -217945.56, -7498.8896, 0.00040323287, 0.17896095, -199019.9, -141952.69, 0.00000019535571, 9.999356, 9.999145 
1.5499033e+2, 3.0417466e+2, -159428.2, -172142.77, -12401.082, -0.0559304, -0.01462439, -151849.86, -151849.86, 0.000009261703, 9.999315, 9.999146 
1.5498891e+2, 3.1417423e+2, -81590.234, -64850.55, 21788.05, -0.009872877, 0.034552902, -49880.01, -49880.01, 0.00005700469, 9.99955, 9.999769 
1.6501847e+2, 1.2419251e+2, -1605976.5, -1826160.9, -7219.166, -0.04217525, 0.0739977, -1605740.0, 117178.17, 0.00065754744, 10.00145, 9.998536 
1.650171e+2, 1.341913e+2, -1482266.0, -1584633.8, -10.21203, -0.055021137, -0.0052293134, -1482266.0, 142665.53, 0.00037533476, 10.001064, 9.999705 
1.6501637e+2, 1.4419195e+2, -1448254.6, -1562473.3, -8040.5796, 0.017890705, 0.104748, -1447691.4, 79234.47, 0.00015252095, 10.000817, 9.9993 
1.6501455e+2, 1.5419097e+2, -1375440.8, -1501428.3, -39.356598, 0.0000735845, 0.09094939, -1375440.8, 53495.156, 0.000033788867, 10.0007515, 9.999078 
1.6501276e+2, 1.6419002e+2, -1264533.8, -1368281.1, -4135.37, -0.004795671, 0.0763493, -1264369.1, 66576.06, 0.0000018950186, 10.000716, 9.999336 
1.6501099e+2, 1.7418902e+2, -1166322.3, -1269945.9, -13486.781, 0.004872927, 0.034420907, -1164595.8, 68358.3, 0.0, 10.000717, 9.999338 
1.650093e+2, 1.841883e+2, -1095744.6, -1204395.6, 2703.9114, 0.0049024587, 0.039948795, -1095677.4, 39283.33, 0.0, 10.000612, 9.999167 
1.6500777e+2, 1.9418816e+2, -1035273.5, -1128549.9, 13506.515, -0.0071725575, 0.1059434, -1033357.1, 3606.2751, 0.0, 10.000372, 9.999131 
1.6500622e+2, 2.0418748e+2, -950094.25, -1019915.7, 5319.0537, -0.010284127, 0.12128904, -949691.4, -10721.281, 0.0, 10.000212, 9.999281 
1.6500469e+2, 2.1418616e+2, -859560.1, -925413.1, -11991.237, -0.0023480956, 0.054520406, -857444.56, -16462.674, 0.0, 10.00016, 9.999281 
1.6500315e+2, 2.2418508e+2, -816370.8, -896617.8, -16755.646, 0.0051557273, 0.03696964, -813012.75, -70020.33, 0.0, 9.999968, 9.9988985 
1.6500163e+2, 2.341844e+2, -777363.75, -832859.0, -10976.961, 0.012625044, 0.07838834, -775271.4, -130270.85, 0.0, 9.999588, 9.998846 
1.649999e+2, 2.4418353e+2, -672116.25, -715884.75, -19217.533, 0.009217137, 0.10137885, -664876.06, -117866.42, 0.0, 9.99957, 9.998987 
1.6499788e+2, 2.5418243e+2, -506852.84, -585391.56, -29443.588, -0.012674041, 0.087080464, -497040.56, -48020.855, 0.0, 10.000031, 9.998987 
1.649962e+2, 2.6418096e+2, -433806.16, -541274.0, -8025.797, -0.022886094, 0.06171781, -433210.1, -82176.695, 0.0, 10.000042, 9.998611 
1.6499509e+2, 2.741791e+2, -427856.56, -494214.1, 11627.204, -0.007413027, 0.012674773, -425878.22, -172826.77, 0.0, 9.999437, 9.998552 
1.6499384e+2, 2.8417817e+2, -325166.84, -338254.34, 406.05252, 0.011459854, 0.042294092, -325154.25, -170094.05, 0.0, 9.999229, 9.999051 
1.6499212e+2, 2.941785e+2, -175772.83, -204382.98, -17410.703, 0.0061499407, 0.16196314, -167544.2, -110488.125, 0.00000010392393, 9.999534, 9.99915 
1.6498977e+2, 3.0417603e+2, -119615.18, -131652.83, -32254.76, -0.05114906, -0.012571133, -92822.484, -92822.484, 0.0000064948904, 9.999497, 9.999335 
1.649882e+2, 3.1417552e+2, -173442.19, -119998.72, 39926.992, -0.007225537, 0.0069250735, -98676.555, -98676.555, 0.000044405664, 9.998964, 9.999672 
1.7501985e+2, 1.2419376e+2, -1595170.8, -1803299.9, -23534.146, -0.050262906, 0.075351626, -1592542.9, 130363.69, 0.0006370072, 10.001448, 9.998693 
1.750183e+2, 1.3419305e+2, -1478930.8, -1579356.6, -13668.021, -0.043164525, 0.04308243, -1477103.8, 147810.98, 0.00036284848, 10.00107, 9.999739 
1.7501746e+2, 1.4419383e+2, -1430784.6, -1527441.5, -12365.943, 0.042954843, 0.15147747, -1429227.8, 97679.586, 0.00014707113, 10.000822, 9.999537 
1.7501535e+2, 1.5419233e+2, -1357279.6, -1463772.0, -2176.1155, 0.0034045975, 0.058498736, -1357235.1, 71686.38, 0.00003249045, 10.0007515, 9.999336 
1.7501333e+2, 1.641913e+2, -1276315.5, -1392750.9, -4813.275, -0.019737044, 0.031757724, -1276116.9, 54814.33, 0.0000018022155, 10.000716, 9.999169 
1.7501144e+2, 1.7419088e+2, -1180850.1, -1300100.6, -13033.832, -0.021756232, 0.07013401, -1179442.1, 53493.223, 0.0, 10.000717, 9.999132 
1.7500971e+2, 1.8419018e+2, -1079762.1, -1171381.6, -5964.8936, -0.0150438, 0.07840128, -1079375.4, 55566.18, 0.0, 10.000612, 9.999394 
1.7500827e+2, 1.9418928e+2, -1016691.9, -1089709.8, 4821.194, 0.004821563, 0.0415722, -1016374.94, 20574.37, 0.0, 10.000371, 9.999398 
1.7500667e+2, 2.0418833e+2, -976823.25, -1074812.4, 2517.4377, 0.011967964, 0.032111973, -976758.6, -37800.06, 0.0, 10.000209, 9.998905 
1.7500488e+2, 2.141874e+2, -890574.5, -988877.75, -13457.188, 0.0017767613, 0.04584574, -888765.6, -47796.168, 0.0, 10.000156, 9.998848 
1.7500305e+2, 2.241865e+2, -808625.5, -879643.8, -30524.715, -0.0012163968, 0.065263286, -797308.8, -54329.55, 0.0, 9.999964, 9.999018 
1.7500117e+2, 2.3418574e+2, -765368.6, -808243.3, -24808.895, 0.007133582, 0.08322555, -754018.1, -109031.055, 0.0, 9.999589, 9.999015 
1.749996e+2, 2.4418482e+2, -688282.0, -749232.1, -4614.8613, 0.019308824, 0.10140413, -687934.56, -140937.64, 0.0, 9.999569, 9.998758 
1.7499836e+2, 2.5418365e+2, -525463.2, -623369.6, -11712.441, 0.03184203, 0.10781603, -524081.56, -75072.45, 0.0, 10.00003, 9.998727 
1.7499653e+2, 2.641824e+2, -403693.5, -478614.47, -28045.148, 0.0053364495, 0.09694691, -394358.5, -43337.777, 0.0, 10.00004, 9.9990425 
1.7499396e+2, 2.7418107e+2, -392890.88, -421971.28, -10457.339, -0.06445269, 0.052351564, -389520.94, -136489.88, 0.0, 9.999438, 9.999048 
1.7499237e+2, 2.8417987e+2, -356161.4, -402500.13, 8853.3545, -0.058673467, 0.049824808, -354527.53, -199485.73, 0.0, 9.9992285, 9.9986105 
1.7499183e+2, 2.9417896e+2, -213711.4, -281953.4, -5063.587, 0.022292718, 0.09292495, -213337.73, -156285.34, 0.00000004563321, 9.999529, 9.99862 
1.7498973e+2, 3.041768e+2, -74093.4, -36935.88, -49959.3, -0.0074260547, -0.04647969, -2212.6484, -2212.6484, 0.000004309572, 9.9994955, 9.999987 
1.7498738e+2, 3.1417778e+2, -137786.16, -47260.69, 20482.008, 0.012213846, 0.04681201, -42842.164, -42842.164, 0.000033397264, 9.998969, 10.00017 
1.8502137e+2, 1.24195315e+2, -1611458.3, -1796589.8, -5529.09, -0.032903686, 0.068244256, -1611293.3, 111597.48, 0.0006065531, 10.001273, 9.998823 
1.8501934e+2, 1.3419448e+2, -1485187.3, -1579740.1, 3208.304, -0.04308843, 0.019247402, -1485078.5, 139821.08, 0.00034376056, 10.001017, 9.999762 
1.8501832e+2, 1.4419526e+2, -1422288.0, -1523410.4, 6520.083, 0.04360871, 0.12729388, -1421869.4, 105022.56, 0.00013809917, 10.000881, 9.999537 
1.8501619e+2, 1.5419385e+2, -1335966.5, -1453195.6, -2829.1143, 0.005342916, 0.045113217, -1335898.3, 93007.15, 0.000029920388, 10.000897, 9.999338 
1.8501416e+2, 1.641929e+2, -1252729.6, -1378666.0, -9154.432, -0.015998704, 0.024293011, -1252067.6, 78846.86, 0.0000015280342, 10.000866, 9.999193 
1.8501222e+2, 1.7419253e+2, -1170990.1, -1292119.1, -1018.3842, -0.01792439, 0.06617762, -1170981.5, 61936.33, 0.0, 10.0007715, 9.999161 
1.8501037e+2, 1.8419181e+2, -1088839.0, -1183858.5, -1836.5552, -0.010343424, 0.07012908, -1088803.5, 46121.094, 0.0, 10.000585, 9.999322 
1.8500865e+2, 1.9419064e+2, -1035596.75, -1107588.9, -18287.316, 0.01067279, 0.016757647, -1031217.75, 5716.79, 0.0, 10.000278, 9.99932 
1.8500689e+2, 2.0418963e+2, -1000675.0, -1095920.3, -15664.993, 0.01835783, 0.007728042, -998164.75, -59219.96, 0.0, 10.000087, 9.998819 
1.8500504e+2, 2.1418883e+2, -910809.0, -1008339.3, -5976.344, 0.006786258, 0.046331123, -910444.1, -69489.23, 0.0, 10.000059, 9.998761 
1.8500313e+2, 2.2418797e+2, -782583.94, -864548.3, -12749.373, 0.002041165, 0.07285737, -780646.6, -37681.984, 0.0, 10.000132, 9.99904 
1.8500115e+2, 2.3418708e+2, -653626.2, -750704.94, -17818.703, 0.008538995, 0.07426356, -650458.94, -5485.7397, 0.0, 10.00034, 9.999048 
1.8499945e+2, 2.4418607e+2, -602776.44, -718323.6, 2676.9229, 0.01820286, 0.08776464, -602714.5, -55730.8, 0.0, 10.000201, 9.998665 
1.8499811e+2, 2.5418496e+2, -597071.3, -669789.0, 6317.758, 0.026973095, 0.10676287, -596526.5, -147530.2, 0.0, 9.999589, 9.99862 
1.8499617e+2, 2.641838e+2, -495051.63, -509257.53, -17169.127, 0.0004376139, 0.104707085, -483574.2, -132566.94, 0.0, 9.999356, 9.999161 
1.849935e+2, 2.7418262e+2, -354856.13, -387792.47, -27049.246, -0.06357924, 0.061166022, -339656.3, -86640.64, 0.0, 9.999632, 9.999189 
1.8499182e+2, 2.8418136e+2, -308618.84, -385705.84, -5571.7617, -0.054362807, 0.048237078, -308218.22, -153191.38, 0.0, 9.999582, 9.998554 
1.8499117e+2, 2.9418018e+2, -283445.28, -324573.9, 13284.321, 0.025632028, 0.07354698, -279527.66, -222487.23, 0.000000013949684, 9.99909, 9.998538 
1.8498893e+2, 3.0417854e+2, -128279.47, -41675.957, -25635.975, -0.012057696, -0.022612728, -34656.293, -34656.293, 0.0000026617806, 9.999031, 10.000178 
1.8498668e+2, 3.1417957e+2, -57096.367, -2197.8594, 1120.5426, 0.019228313, 0.05672041, -2174.9973, -2174.9973, 0.000023992492, 9.999498, 10.000223 
1.9502306e+2, 1.2419717e+2, -1603940.1, -1781631.9, -17403.043, 0.0058596134, 0.052244376, -1602251.8, 120619.05, 0.0005643703, 10.001275, 9.998925 
1.9502021e+2, 1.3419555e+2, -1484204.0, -1577906.0, -5898.432, -0.057940885, -0.075246476, -1483834.1, 141052.02, 0.00031730495, 10.001018, 9.999774 
1.9501893e+2, 1.4419624e+2, -1438712.1, -1558071.3, 6052.494, 0.015708404, 0.033825576, -1438406.0, 88473.59, 0.00012543245, 10.000883, 9.999298 
1.9501708e+2, 1.5419559e+2, -1353418.1, -1490255.6, -1501.3629, 0.0039926213, 0.050265603, -1353401.8, 75485.79, 0.000026112697, 10.0009, 9.999083 
1.9501522e+2, 1.6419482e+2, -1237651.4, -1347360.9, -12807.826, 0.0036741134, 0.05300192, -1236176.0, 94719.06, 0.0000011234973, 10.000866, 9.999409 
1.9501331e+2, 1.74194e+2, -1152912.0, -1254303.3, -4198.405, 0.014647607, 0.023060871, -1152738.4, 80163.27, 0.0, 10.00077, 9.999421 
1.9501123e+2, 1.8419312e+2, -1114657.6, -1237169.8, -13041.618, 0.016200015, 0.01581518, -1113284.8, 21625.086, 0.0, 10.000584, 9.998957 
1.950089e+2, 1.9419225e+2, -1065652.8, -1169636.5, -29607.98, 0.008476092, 0.03175345, -1057813.4, -20894.186, 0.0, 10.000277, 9.998896 
1.9500685e+2, 2.0419134e+2, -986577.8, -1066223.5, -17861.586, 0.0062546707, 0.048709232, -982755.5, -43826.7, 0.0, 10.000085, 9.999024 
1.9500515e+2, 2.141905e+2, -892543.4, -970103.8, -6297.4097, 0.0106217405, 0.054821707, -892035.4, -51096.906, 0.0, 10.000057, 9.999024 
1.9500338e+2, 2.2418952e+2, -788347.56, -876025.75, -6000.8584, 0.013042082, 0.059259027, -787938.75, -44990.113, 0.0, 10.00013, 9.998962 
1.9500156e+2, 2.3418845e+2, -661239.0, -765983.3, -9518.943, 0.014941441, 0.05155386, -660381.0, -15422.013, 0.0, 10.000339, 9.998944 
1.9499953e+2, 2.4418734e+2, -600164.25, -712654.9, -18447.469, 0.0040410883, 0.060862064, -597216.25, -50246.29, 0.0, 10.0002, 9.998705 
1.9499715e+2, 2.541863e+2, -593673.75, -662700.3, -16441.37, -0.029747702, 0.08337271, -589957.7, -140976.33, 0.0, 9.999589, 9.998669 
1.9499514e+2, 2.6418513e+2, -509467.25, -539020.5, -9881.301, -0.04018585, 0.08474225, -506467.8, -155474.7, 0.0, 9.999355, 9.998958 
1.9499372e+2, 2.741837e+2, -370408.75, -419706.25, -16420.695, -0.007102531, 0.038994323, -365439.94, -112434.51, 0.0, 9.99963, 9.998971 
1.9499217e+2, 2.8418258e+2, -285602.56, -337389.7, -22282.639, 0.022139765, 0.037960906, -277334.88, -122319.34, 0.0, 9.99958, 9.998887 
1.9499016e+2, 2.9418218e+2, -257605.69, -271267.16, -4021.0884, 0.013683241, 0.103820994, -256510.0, -199489.63, 0.0000000023315327, 9.999091, 9.998904 
1.9498742e+2, 3.0418113e+2, -147551.44, -81700.42, -11244.371, -0.068225764, 0.059568774, -79833.336, -79833.336, 0.0000014940416, 9.999032, 9.999903 
1.9498608e+2, 3.141809e+2, -86190.445, -62172.23, 17711.195, 0.0059560738, 0.043959804, -52782.62, -52782.62, 0.00001627015, 9.999496, 9.999812 
2.0502433e+2, 1.2419932e+2, -1638837.6, -1797537.5, 6965.771, 0.01761818, 0.034803707, -1638532.4, 84316.0, 0.0005112227, 10.001035, 9.998932 
2.0502143e+2, 1.3419771e+2, -1452693.9, -1573830.5, 8941.977, -0.05341132, -0.084846705, -1452037.4, 172826.61, 0.00028397882, 10.001283, 9.999675 
2.050201e+2, 1.441983e+2, -1388833.0, -1546783.3, 15798.652, 0.023617946, 0.025844658, -1387268.3, 139590.06, 0.000109345056, 10.00128, 9.999186 
2.05018e+2, 1.5419745e+2, -1357826.0, -1503713.4, 17825.596, 0.0053372416, 0.034446273, -1355679.5, 73188.67, 0.000021261263, 10.000919, 9.998981 
2.0501605e+2, 1.6419661e+2, -1269972.1, -1363642.5, 8053.3315, 0.009602366, 0.034712188, -1269284.8, 61591.84, 0.00000067965186, 10.000648, 9.999403 
2.0501418e+2, 1.7419587e+2, -1190222.5, -1271929.1, -3118.5469, 0.036743138, 0.01212, -1190103.6, 42778.76, 0.0, 10.000512, 9.999425 
2.0501198e+2, 1.8419497e+2, -1132858.5, -1255043.3, -10536.757, 0.036667425, 0.0063746586, -1131956.5, 2934.2065, 0.0, 10.000498, 9.998876 
2.0500931e+2, 1.9419393e+2, -1017526.6, -1155935.6, -2499.9434, 0.0027383035, 0.015096571, -1017481.5, 19420.145, 0.0, 10.0006485, 9.998811 
2.0500705e+2, 2.04193e+2, -911219.56, -1027625.94, 13986.427, -0.007237433, 0.031248605, -909562.6, 29349.129, 0.0, 10.000592, 9.999044 
2.0500532e+2, 2.1419224e+2, -861070.9, -951505.06, 7094.7437, 0.013731122, 0.0461462, -860517.6, -19597.43, 0.0, 10.000258, 9.999055 
2.0500353e+2, 2.2419131e+2, -809725.9, -896326.6, 6838.819, 0.02091348, 0.057049576, -809189.2, -66259.03, 0.0, 10.000026, 9.998873 
2.0500165e+2, 2.3419015e+2, -727032.5, -808666.75, 3563.0845, 0.010876076, 0.051238738, -726877.25, -81935.61, 0.0, 9.999934, 9.998846 
2.0499948e+2, 2.4418896e+2, -640087.6, -724572.56, -15732.62, -0.0048315413, 0.051535416, -637253.06, -90299.375, 0.0, 9.999895, 9.99877 
2.0499685e+2, 2.5418776e+2, -539016.2, -627570.3, -13317.514, -0.03333021, 0.052517656, -537056.75, -88091.19, 0.0, 9.999927, 9.998748 
2.0499472e+2, 2.641866e+2, -455323.97, -526735.8, 6284.9043, -0.03711975, 0.055768434, -454775.06, -103797.85, 0.0, 9.999786, 9.998835 
2.0499335e+2, 2.7418533e+2, -414097.97, -456675.53, 5044.3486, 0.0051530795, 0.04274947, -413508.5, -160519.63, 0.0, 9.999399, 9.998829 
2.049917e+2, 2.8418425e+2, -326968.0, -346577.97, -8987.038, 0.033810046, 0.042990644, -323472.44, -168473.11, 0.0, 9.999249, 9.998984 
2.0498937e+2, 2.9418358e+2, -201226.63, -231564.9, -10751.258, 0.010782388, 0.074398726, -197802.97, -140797.75, 0.000000000097020676, 9.999425, 9.999016 
2.0498654e+2, 3.0418286e+2, -100801.79, -88267.28, -15703.956, -0.08029026, 0.06873136, -77626.17, -77626.17, 0.00000072960836, 9.999477, 9.999644 
2.0498559e+2, 3.1418216e+2, -136292.78, -116577.13, 11750.195, 0.020622063, 0.03317242, -111097.3, -111097.3, 0.00001031642, 9.999281, 9.999544 
2.1502519e+2, 1.2420181e+2, -1645508.5, -1812419.6, 15087.507, -0.0030332957, 0.017029596, -1644155.8, 78667.8, 0.00045034575, 10.001038, 9.998828 
2.1502294e+2, 1.342009e+2, -1467795.5, -1606095.6, 19291.959, -0.03143023, -0.010799299, -1465154.8, 159678.28, 0.0002457903, 10.001286, 9.999453 
2.1502179e+2, 1.442014e+2, -1387475.5, -1544242.4, 3445.181, 0.063972846, 0.10266398, -1387399.9, 139428.5, 0.00009091271, 10.001282, 9.999202 
2.1501896e+2, 1.5419947e+2, -1354370.1, -1496228.6, 4618.787, 0.007303325, -0.0017947628, -1354220.0, 74627.41, 0.000015871614, 10.000917, 9.999034 
2.150166e+2, 1.6419828e+2, -1285724.9, -1396418.4, 2006.5673, -0.0011233798, -0.029851913, -1285688.5, 45170.484, 0.00000031009594, 10.000648, 9.999177 
2.150148e+2, 1.7419814e+2, -1207714.1, -1309113.0, -7772.3926, 0.04656239, 0.033343118, -1207121.8, 25738.475, 0.0, 10.000515, 9.999168 
2.150126e+2, 1.8419732e+2, -1118003.3, -1224410.9, -5837.161, 0.047921926, 0.04157925, -1117684.0, 17183.54, 0.0, 10.000499, 9.999085 
2.1500985e+2, 1.9419569e+2, -999857.7, -1118904.0, 3743.8962, -0.00810185, -0.03362041, -999740.06, 37142.16, 0.0, 10.000648, 9.999065 
2.1500748e+2, 2.0419455e+2, -923365.94, -1052079.3, 2589.8794, -0.023791345, -0.04487525, -923313.8, 15579.851, 0.0, 10.000589, 9.9988785 
2.150056e+2, 2.141941e+2, -875722.6, -981389.1, -5001.972, 0.014252746, 0.021064809, -875486.4, -34586.19, 0.0, 10.000257, 9.998851 
2.1500358e+2, 2.2419338e+2, -817232.7, -911144.9, 2195.3325, 0.023394886, 0.066518135, -817181.4, -74272.12, 0.0, 10.000023, 9.998773 
2.1500142e+2, 2.3419225e+2, -733989.3, -822394.94, 547.80457, -0.005561498, 0.07262916, -733985.94, -89064.484, 0.0, 9.999931, 9.998753 
2.1499933e+2, 2.441909e+2, -634235.3, -712242.0, -15521.661, -0.010082524, 0.060145486, -631260.3, -84325.52, 0.0, 9.999894, 9.998856 
2.1499726e+2, 2.5418934e+2, -531289.4, -611305.9, -11764.082, 0.01411601, 0.013699913, -529595.6, -80646.68, 0.0, 9.999926, 9.99886 
2.1499497e+2, 2.641882e+2, -459266.34, -534422.4, -7353.0273, 0.00773112, 0.017817969, -458553.7, -107594.01, 0.0, 9.9997835, 9.998783 
2.149924e+2, 2.7418756e+2, -419357.5, -467448.72, -9104.762, -0.02941277, 0.071795136, -417691.47, -164725.33, 0.0, 9.999398, 9.998755 
2.149904e+2, 2.8418624e+2, -337124.34, -367165.78, -5153.1543, -0.02184718, 0.06317017, -336264.97, -181286.56, 0.0, 9.999248, 9.998844 
2.1498883e+2, 2.941844e+2, -211084.42, -252628.02, -3603.2107, 0.0128602125, -0.01571444, -210774.22, -153778.98, 0.0, 9.999426, 9.998872 
2.1498631e+2, 3.0418372e+2, -117923.195, -122170.125, -21495.129, -0.05147561, 0.0043193814, -98446.9, -98446.9, 0.0000002906552, 9.999473, 9.9994135 
2.1498528e+2, 3.141834e+2, -145406.4, -134994.67, 1625.166, 0.057368502, 0.031621173, -134746.89, -134746.89, 0.0000060416633, 9.99928, 9.999418 
2.250265e+2, 1.2420435e+2, -1596701.1, -1780475.8, -12026.168, 0.009806212, 0.039581444, -1595917.4, 126881.75, 0.0003861587, 10.00134, 9.998902 
2.2502418e+2, 1.3420326e+2, -1505928.1, -1626925.1, 6954.7637, -0.021973046, -0.0056091053, -1505529.8, 119280.24, 0.00020573656, 10.001038, 9.999429 
2.2502306e+2, 1.4420366e+2, -1446261.5, -1569950.5, -4554.0654, 0.08248661, 0.09841246, -1446094.1, 80711.86, 0.00007189719, 10.000867, 9.999226 
2.2501999e+2, 1.5420187e+2, -1354022.0, -1491715.0, -6295.7983, 0.020210216, 0.003376467, -1353734.8, 75089.016, 0.000010694928, 10.000902, 9.999073 
2.2501743e+2, 1.6420063e+2, -1253481.8, -1394808.0, -1541.5638, 0.0033370818, -0.022860127, -1253465.0, 77370.71, 0.000000092361944, 10.000929, 9.999054 
2.2501543e+2, 1.742003e+2, -1155933.4, -1298840.9, -2836.1907, 0.0362116, 0.033498686, -1155877.1, 76961.96, 0.0, 10.000935, 9.999037 
2.2501314e+2, 1.8419944e+2, -1076510.1, -1192974.9, -2200.8596, 0.041128978, 0.038764443, -1076468.5, 58378.285, 0.0, 10.000734, 9.999188 
2.2501051e+2, 1.9419794e+2, -1046640.7, -1127604.5, -3340.1992, 0.012646056, -0.035425704, -1046503.1, -9643.512, 0.0, 10.000266, 9.99919 
2.2500809e+2, 2.0419678e+2, -1003016.9, -1105945.1, -3470.2402, 0.0019304296, -0.048113883, -1002900.06, -64029.043, 0.0, 10.000109, 9.99874 
2.2500591e+2, 2.1419613e+2, -869386.9, -996253.75, -8030.714, 0.013560281, 0.013232199, -868880.56, -28000.682, 0.0, 10.000378, 9.998691 
2.2500366e+2, 2.241953e+2, -770441.3, -889586.3, -3117.983, 0.012662126, 0.05843569, -770359.8, -27469.703, 0.0, 10.000349, 9.998763 
2.2500136e+2, 2.3419425e+2, -736785.75, -823735.9, 996.38336, -0.0038458821, 0.07092021, -736774.4, -91872.67, 0.0, 9.999912, 9.998754 
2.2499925e+2, 2.4419294e+2, -653440.6, -718564.44, 1343.0117, 0.00040028308, 0.062268853, -653412.94, -106498.45, 0.0, 9.999749, 9.998882 
2.2499734e+2, 2.5419143e+2, -524932.7, -605346.2, -989.1774, 0.027984735, 0.015651662, -524920.5, -75992.3, 0.0, 9.999957, 9.998886 
2.2499493e+2, 2.641903e+2, -427669.66, -525921.0, -12652.766, 0.013380643, 0.020062061, -426066.38, -75127.445, 0.0, 10.0000305, 9.998723 
2.2499189e+2, 2.7418956e+2, -348500.47, -440883.0, -15831.871, -0.047110405, 0.07506051, -345862.63, -92916.61, 0.0, 9.999918, 9.998688 
2.2498967e+2, 2.841881e+2, -269918.22, -335293.72, -80.48088, -0.042701572, 0.052259378, -269918.13, -114958.24, 0.0, 9.99971, 9.99884 
2.2498827e+2, 2.9418588e+2, -223594.22, -260157.33, 10897.2, 0.017361758, -0.05779709, -220592.83, -163613.61, 0.0, 9.999347, 9.998858 
2.2498572e+2, 3.0418548e+2, -173424.36, -155841.77, 4339.597, -0.040683225, -0.0057436773, -154829.03, -154829.03, 0.000000085825576, 9.99912, 9.999353 
2.2498457e+2, 3.1418508e+2, -166596.66, -126051.05, 35120.133, 0.071761765, 0.01703567, -105772.516, -105772.516, 0.0000031779714, 9.999052, 9.999589 
2.3502824e+2, 1.2420698e+2, -1579035.9, -1744024.4, -26139.31, 0.04870926, 0.106123425, -1574993.6, 147781.61, 0.00032267286, 10.001341, 9.999151 
2.3502518e+2, 1.3420479e+2, -1494660.6, -1602483.6, -4169.5703, -0.027411705, -0.06786527, -1494499.6, 130295.01, 0.0001666326, 10.001033, 9.999599 
2.3502389e+2, 1.4420508e+2, -1444602.6, -1565991.3, -4582.038, 0.07662921, 0.013763761, -1444429.9, 82361.31, 0.00005400246, 10.000865, 9.999254 
2.3502111e+2, 1.5420459e+2, -1352287.0, -1489506.5, -4386.447, 0.041551366, 0.04956455, -1352146.9, 76650.52, 0.000006396683, 10.000907, 9.999086 
2.3501852e+2, 1.6420369e+2, -1253783.5, -1396298.1, -1640.8718, 0.018919807, 0.055135675, -1253764.6, 77042.125, 0.000000013163342, 10.000933, 9.999042 
2.3501603e+2, 1.7420235e+2, -1156393.3, -1299797.3, -2223.3345, 0.003619506, 0.012358569, -1156358.8, 76460.31, 0.0, 10.000934, 9.99903 
2.350136e+2, 1.842013e+2, -1077335.0, -1193980.5, -18771.025, 0.014129722, -0.002229239, -1074388.8, 60439.902, 0.0, 10.000731, 9.999183 
2.350113e+2, 1.9420065e+2, -1047031.8, -1128695.3, -20768.797, 0.06327357, 0.01057325, -1042053.4, -5219.4487, 0.0, 10.000267, 9.999182 
2.3500885e+2, 2.0419967e+2, -1010669.25, -1121324.9, 4239.995, 0.06736175, 0.021736661, -1010507.06, -71663.23, 0.0, 10.000107, 9.998635 
2.3500624e+2, 2.1419832e+2, -877947.4, -1013056.5, 2813.3972, 0.009078345, 0.02197075, -877888.8, -37029.402, 0.0, 10.000374, 9.998576 
2.3500375e+2, 2.241971e+2, -765403.44, -878349.6, -17883.578, -0.013475594, 0.03272758, -762639.44, -19766.758, 0.0, 10.000345, 9.998842 
2.3500146e+2, 2.3419616e+2, -729464.4, -808388.7, -15021.585, 0.014629955, 0.046521828, -726702.0, -81819.62, 0.0, 9.999911, 9.998859 
2.3499925e+2, 2.441951e+2, -656647.7, -725278.94, 6935.284, 0.024838533, 0.057591885, -655953.9, -109061.07, 0.0, 9.999749, 9.9988365 
2.3499708e+2, 2.54194e+2, -529967.94, -615237.7, 7237.526, 0.005316225, 0.058268692, -529358.0, -80454.63, 0.0, 9.999954, 9.998819 
2.349946e+2, 2.6419276e+2, -432728.06, -535721.56, -16797.361, -0.022716267, 0.0631843, -430057.78, -79142.76, 0.0, 10.000028, 9.998657 
2.3499176e+2, 2.7419135e+2, -351922.22, -447760.9, -19711.688, -0.051001236, 0.05185982, -348026.38, -95097.75, 0.0, 9.999917, 9.998641 
2.3498951e+2, 2.841897e+2, -261558.66, -317723.1, -13001.328, -0.031057525, 0.009604038, -258695.03, -103751.27, 0.0, 9.999709, 9.998963 
2.3498766e+2, 2.941881e+2, -215173.9, -243283.27, -2147.124, 0.021345945, -0.052494805, -215010.84, -158053.55, 0.0, 9.999348, 9.998975 
2.3498474e+2, 3.041882e+2, -166317.2, -139121.06, 237.69829, -0.049902283, 0.036994282, -139118.98, -139118.98, 0.000000016806371, 9.999112, 9.999471 
2.3498347e+2, 3.141873e+2, -135005.27, -58561.688, 28576.926, 0.05518237, -0.005771368, -49059.836, -49059.836, 0.0000014346882, 9.999045, 10.000055 
2.450295e+2, 1.24209054e+2, -1619679.1, -1740804.0, -17750.158, 0.059138514, 0.09915007, -1617131.5, 105624.016, 0.00026299746, 10.000961, 9.999357 
2.4502619e+2, 1.3420697e+2, -1479571.8, -1580338.3, 78.20788, -0.030337464, -0.077572726, -1479571.8, 145201.23, 0.0001305452, 10.001071, 9.999733 
2.4502492e+2, 1.442073e+2, -1415751.1, -1558031.1, -1485.9952, 0.08344416, 0.003943156, -1415735.6, 111033.21, 0.000038366878, 10.001088, 9.999203 
2.450222e+2, 1.5420693e+2, -1349912.3, -1494581.0, -7570.961, 0.055943485, 0.05677291, -1349517.1, 79257.555, 0.000003303544, 10.000951, 9.999031 
2.4501954e+2, 1.6420604e+2, -1271091.6, -1393983.4, -4996.975, 0.035875868, 0.061255846, -1270888.8, 59895.246, 0.00000000018007511, 10.000768, 9.999137 
2.4501686e+2, 1.7420457e+2, -1204624.3, -1310583.6, 1876.2294, 0.012190535, -0.0047076433, -1204591.1, 28205.72, 0.0, 10.00055, 9.999142 
2.4501425e+2, 1.8420355e+2, -1117238.8, -1228503.3, -14113.904, 0.016113805, -0.0147711355, -1115476.4, 19329.752, 0.0, 10.000524, 9.999046 
2.4501179e+2, 1.9420317e+2, -987735.8, -1117313.8, -27612.166, 0.062193, 0.039459225, -982097.2, 54713.027, 0.0, 10.00075, 9.999027 
2.4500924e+2, 2.042022e+2, -928526.2, -1077684.4, -3344.5361, 0.06894242, 0.058976755, -928451.25, 10369.111, 0.0, 10.000654, 9.9986725 
2.4500659e+2, 2.1420053e+2, -911030.8, -1023281.75, 6523.282, 0.020231646, 0.022700937, -910653.0, -69815.05, 0.0, 10.000122, 9.99863 
2.4500403e+2, 2.2419919e+2, -823406.75, -905929.1, -6207.838, -0.00063455105, 0.016853642, -822942.4, -80090.484, 0.0, 9.999946, 9.998847 
2.4500158e+2, 2.3419832e+2, -679205.3, -784247.3, -11392.432, 0.01857438, 0.03912954, -677983.94, -33123.375, 0.0, 10.000257, 9.998858 
2.4499917e+2, 2.4419731e+2, -595672.8, -703514.06, 2390.7358, 0.020357067, 0.05716802, -595619.9, -48749.17, 0.0, 10.000201, 9.998768 
2.4499677e+2, 2.541962e+2, -579707.2, -647747.75, 937.1894, -0.0071299127, 0.06444542, -579694.25, -130812.43, 0.0, 9.999649, 9.998744 
2.4499424e+2, 2.641949e+2, -521911.5, -572221.8, -11772.013, -0.030698555, 0.06710275, -519293.25, -168399.22, 0.0, 9.999388, 9.998714 
2.449916e+2, 2.741934e+2, -407034.25, -466999.8, -6191.3813, -0.037726514, 0.040347226, -406401.7, -153493.55, 0.0, 9.999507, 9.998707 
2.449893e+2, 2.8419188e+2, -289596.8, -320879.5, -5762.515, -0.008417242, -0.0009892677, -288569.06, -133646.8, 0.0, 9.999472, 9.999056 
2.4498712e+2, 2.9419062e+2, -224671.06, -238398.94, 814.0592, 0.038449842, -0.039108343, -224622.95, -167690.2, 0.0, 9.999244, 9.999059 
2.4498387e+2, 3.0419078e+2, -169918.67, -148122.42, 5868.2935, -0.048244067, 0.062145784, -146642.9, -146642.9, 0.0000000018495133, 9.99912, 9.999405 
2.4498239e+2, 3.1418946e+2, -112200.98, -17038.24, 11094.606, 0.04168386, -0.021203391, -15761.889, -15761.889, 0.00000052479436, 9.999069, 10.00033 
2.5503024e+2, 1.2421053e+2, -1608852.3, -1716980.5, -14909.392, 0.037714016, 0.016934713, -1606834.1, 115906.31, 0.000209724, 10.000955, 9.999524 
2.5502723e+2, 1.3420978e+2, -1471857.8, -1566717.3, 4839.3926, -0.03521805, -0.036126204, -1471611.5, 153133.75, 0.00009902971, 10.0010805, 9.999823 
2.5502616e+2, 1.4421031e+2, -1423292.8, -1575414.3, -6826.5796, 0.09737308, 0.06850503, -1422987.0, 103752.305, 0.000025643241, 10.001096, 9.99908 
2.5502318e+2, 1.5420887e+2, -1358626.3, -1512087.1, -12911.388, 0.060446985, 0.025523528, -1357547.6, 71207.914, 0.0000014046367, 10.000948, 9.998913 
2.5502047e+2, 1.6420767e+2, -1257927.8, -1365575.6, -13561.6045, 0.052108444, -0.003593552, -1256245.5, 74521.93, 0.0, 10.000764, 9.999334 
2.550179e+2, 1.7420694e+2, -1188732.8, -1278632.6, -5993.8174, 0.059416357, -0.017407464, -1188334.9, 44437.414, 0.0, 10.000555, 9.999359 
2.5501508e+2, 1.842062e+2, -1134904.6, -1265673.4, -7152.018, 0.04378531, 0.00086130615, -1134514.6, 264.59814, 0.0, 10.000525, 9.99879 
2.55012e+2, 1.942055e+2, -1008511.94, -1160155.8, -18653.604, 0.007165331, 0.05045335, -1006251.1, 30537.62, 0.0, 10.000749, 9.9987335 
2.5500926e+2, 2.0420438e+2, -917131.4, -1052843.5, -21361.076, 0.0049153543, 0.06280937, -913848.56, 24952.227, 0.0, 10.000649, 9.998845 
2.5500697e+2, 2.1420282e+2, -896154.94, -991685.44, -13119.53, 0.04555597, 0.016718952, -894386.0, -53570.363, 0.0, 10.000119, 9.998847 
2.5500447e+2, 2.2420156e+2, -828586.6, -916427.6, 2613.9497, 0.049344677, 0.010978386, -828508.9, -85681.03, 0.0, 9.999944, 9.9987755 
2.5500172e+2, 2.3420075e+2, -686855.4, -799222.06, 859.61816, 0.0051869573, 0.048978653, -686848.8, -42012.57, 0.0, 10.000253, 9.998757 
2.54999e+2, 2.4419959e+2, -602141.94, -716389.06, -16382.648, -0.016344156, 0.061699647, -599839.2, -52991.043, 0.0, 10.000198, 9.99868 
2.5499636e+2, 2.54198e+2, -584881.0, -658169.25, -19424.49, -0.011069787, 0.03382166, -580051.0, -131187.34, 0.0, 9.999648, 9.9986725 
2.549938e+2, 2.6419675e+2, -510070.06, -548200.56, -9210.091, -0.01199152, 0.030679481, -507961.97, -157085.94, 0.0, 9.99939, 9.998879 
2.5499138e+2, 2.7419576e+2, -394831.47, -441815.6, -1258.729, -0.010814449, 0.040482756, -394797.75, -141913.14, 0.0, 9.999507, 9.998881 
2.549891e+2, 2.8419456e+2, -285750.97, -311560.03, -14418.109, 0.021408226, 0.020810787, -279305.84, -124410.375, 0.0, 9.999467, 9.999122 
2.5498664e+2, 2.9419336e+2, -220750.03, -228824.89, -7152.201, 0.06460546, -0.01810073, -216574.38, -159668.75, 0.0, 9.999239, 9.9991255 
2.549831e+2, 3.0419332e+2, -188688.34, -186697.55, 4368.4883, -0.038639046, 0.0687675, -183212.48, -183212.48, 0.000000000039700524, 9.999117, 9.999143 
2.549813e+2, 3.1419152e+2, -106136.48, -5792.24, 5240.825, 0.025154999, -0.03210196, -5519.2627, -5519.2627, 0.00000015406697, 9.999073, 10.000406 
2.650314e+2, 1.2421287e+2, -1594090.4, -1711934.4, 5063.74, 0.052082453, -0.0009335092, -1593873.3, 128843.695, 0.0001649167, 10.001063, 9.999507 
2.6502833e+2, 1.3421237e+2, -1477074.8, -1580525.6, 10292.921, -0.035925683, -0.02007357, -1476060.6, 148659.16, 0.000073287774, 10.001092, 9.9997225 
2.6502725e+2, 1.4421284e+2, -1432210.6, -1581980.9, -11128.088, 0.09984156, 0.08457305, -1431388.4, 95326.36, 0.000016155976, 10.001045, 9.99906 
2.65024e+2, 1.5421112e+2, -1361513.3, -1513498.8, -10792.608, 0.048722878, 0.014961671, -1360750.8, 67982.61, 0.00000046134082, 10.000929, 9.998912 
2.6502118e+2, 1.6420987e+2, -1246495.3, -1357260.4, -12485.083, 0.043965034, -0.02047877, -1245105.4, 85640.23, 0.0, 10.000831, 9.999359 
2.650187e+2, 1.742094e+2, -1159711.5, -1261657.6, -20253.621, 0.0750151, -0.012321765, -1155835.1, 76913.04, 0.0, 10.000742, 9.999386 
2.6501584e+2, 1.8420869e+2, -1122208.0, -1263041.4, -13786.126, 0.064857595, 0.009978431, -1120871.1, 13883.646, 0.0, 10.000628, 9.998758 
2.6501262e+2, 1.9420773e+2, -1047396.2, -1182883.8, -6295.612, 0.00896846, 0.038747486, -1047104.3, -10337.348, 0.0, 10.000499, 9.998698 
2.650097e+2, 2.042066e+2, -947885.6, -1062391.9, -13396.047, -0.003740064, 0.048691913, -946339.3, -7560.0376, 0.0, 10.000415, 9.998893 
2.6500714e+2, 2.1420531e+2, -852469.75, -964508.9, -18211.963, 0.037936516, 0.024577841, -849583.75, -8792.509, 0.0, 10.000393, 9.998902 
2.6500455e+2, 2.2420412e+2, -779743.94, -893248.94, 5086.4214, 0.04443734, 0.022735015, -779516.44, -36713.813, 0.0, 10.000281, 9.998772 
2.6500186e+2, 2.3420312e+2, -716927.9, -814757.3, 10054.017, 0.00459782, 0.04118031, -715905.3, -71092.45, 0.0, 10.000051, 9.998749 
2.6499912e+2, 2.4420187e+2, -643015.5, -735904.56, -10307.8, -0.01243574, 0.047189064, -641885.4, -95059.99, 0.0, 9.999918, 9.998682 
2.6499626e+2, 2.542004e+2, -545606.44, -638617.56, -8799.644, -0.002363789, 0.027675668, -544781.2, -95940.95, 0.0, 9.999916, 9.998677 
2.6499346e+2, 2.641992e+2, -446467.63, -510373.47, 8696.983, -0.005482822, 0.029211119, -445305.2, -94453.37, 0.0, 9.999795, 9.998944 
2.6499084e+2, 2.7419832e+2, -387454.16, -430342.63, 8575.783, -0.016228318, 0.041884333, -385802.97, -132943.8, 0.0, 9.999524, 9.998951 
2.6498842e+2, 2.8419715e+2, -302574.25, -324882.16, -13400.77, 0.01364578, 0.023727063, -296292.84, -141423.22, 0.0, 9.999376, 9.999073 
2.6498595e+2, 2.9419583e+2, -209406.48, -230531.88, -17414.494, 0.06821599, -0.020841192, -199601.69, -142720.64, 0.0, 9.999348, 9.999062 
2.6498237e+2, 3.0419543e+2, -190336.67, -216717.22, -9364.775, -0.029246395, 0.044763908, -187350.34, -187350.34, 0.0, 9.999232, 9.99888 
2.6498047e+2, 3.1419364e+2, -107356.09, -912.10455, -15347.057, 0.036307387, -0.026370868, 1256.4492, 1256.4492, 0.000000038019415, 9.999045, 10.000451 
2.7503294e+2, 1.2421607e+2, -1606424.3, -1738635.6, 2909.9385, 0.095036164, 0.046227083, -1606360.3, 116324.77, 0.00012966055, 10.001069, 9.99932 
2.750294e+2, 1.3421476e+2, -1497298.1, -1621232.9, 10607.87, -0.036034614, -0.0282025, -1496396.6, 128299.95, 0.00005392466, 10.001087, 9.999446 
2.7502817e+2, 1.4421488e+2, -1427452.6, -1570752.3, -15954.206, 0.087434426, 0.053173788, -1425697.9, 100997.3, 0.0000098627, 10.0010395, 9.99914 
2.7502462e+2, 1.5421368e+2, -1353132.0, -1496942.4, -14769.867, 0.017521856, 0.024197688, -1351630.8, 77077.46, 0.00000011248763, 10.000933, 9.999024 
2.7502167e+2, 1.6421263e+2, -1256193.6, -1378466.5, -16575.004, 0.0081483405, 0.009513568, -1253986.6, 76732.04, 0.0, 10.000835, 9.999212 
2.7501926e+2, 1.7421192e+2, -1170935.1, -1284992.0, -23629.838, 0.056506183, 0.0105839465, -1166233.4, 66490.81, 0.0, 10.000742, 9.999226 
2.750166e+2, 1.8421102e+2, -1109581.0, -1236066.0, -19068.037, 0.0765908, 0.01284499, -1106768.9, 27963.813, 0.0, 10.000626, 9.998945 
2.7501372e+2, 1.942099e+2, -1032520.0, -1151815.9, -10932.237, 0.06555014, 0.0052722897, -1031526.44, 5218.4663, 0.0, 10.000498, 9.998912 
2.7501056e+2, 2.0420888e+2, -953119.25, -1072535.3, -14786.593, 0.040763725, 0.016984932, -951315.56, -12559.584, 0.0, 10.000412, 9.998824 
2.750071e+2, 2.1420802e+2, -859499.75, -978414.75, -18453.504, -0.0049751704, 0.045832317, -856701.9, -15936.893, 0.0, 10.000389, 9.998809 
2.7500418e+2, 2.2420688e+2, -776416.7, -885138.3, -3134.323, -0.018253742, 0.051367395, -776326.44, -33550.06, 0.0, 10.000277, 9.99883 
2.75002e+2, 2.342054e+2, -711503.56, -803285.06, 1882.6544, 0.0159239, 0.015543686, -711464.94, -66674.51, 0.0, 10.000051, 9.998828 
2.7499947e+2, 2.4420416e+2, -636700.4, -723093.2, -11512.706, 0.030660676, 0.012861204, -635192.5, -88389.87, 0.0, 9.999919, 9.99877 
2.7499634e+2, 2.5420332e+2, -540315.1, -627089.06, -8633.755, 0.015026357, 0.04635715, -539464.4, -90652.75, 0.0, 9.999913, 9.998758 
2.7499315e+2, 2.642023e+2, -449020.1, -514593.6, -1436.4663, -0.015549951, 0.06377581, -448988.66, -98167.336, 0.0, 9.999791, 9.998917 
2.7499e+2, 2.742011e+2, -389808.22, -434167.5, -852.43774, -0.05613565, 0.0442665, -389791.84, -136960.08, 0.0, 9.99952, 9.998926 
2.7498734e+2, 2.841996e+2, -314984.94, -350641.13, -14941.89, -0.03357737, 0.0061967964, -309551.47, -154706.61, 0.0, 9.999375, 9.998898 
2.7498507e+2, 2.9419798e+2, -223041.77, -259787.2, -18128.682, 0.045281295, -0.048352815, -215603.53, -158744.31, 0.0, 9.999351, 9.99886 
2.7498162e+2, 3.0419704e+2, -209149.39, -255817.53, -17084.494, -0.025407404, -0.009903685, -203563.6, -203563.6, 0.0, 9.999232, 9.998611 
2.7497986e+2, 3.1419575e+2, -108283.57, -1216.6921, -27916.291, 0.066634014, -0.010138425, 5624.933, 5624.933, 0.00000000643165, 9.999039, 10.000452 
2.8503406e+2, 1.2421875e+2, -1560543.3, -1723590.5, -20954.623, 0.085223645, 0.07025132, -1557893.3, 164765.6, 0.00010364884, 10.001416, 9.999256 
2.8503045e+2, 1.3421705e+2, -1496283.5, -1635932.4, -5059.628, -0.040716235, -0.028834486, -1496100.5, 128574.09, 0.000040612387, 10.00116, 9.9993105 
2.8502935e+2, 1.4421704e+2, -1425648.9, -1556382.9, -22735.545, 0.10310684, 0.0389069, -1421807.9, 104866.734, 0.0000062724685, 10.000995, 9.99926 
2.8502563e+2, 1.5421617e+2, -1344927.5, -1476107.8, -19933.154, 0.024582062, 0.029492699, -1341965.5, 86718.15, 0.000000028346124, 10.000917, 9.999175 
2.850225e+2, 1.6421525e+2, -1260767.8, -1389610.9, -15930.519, 0.00575478, 0.023754662, -1258827.3, 71865.58, 0.0, 10.000844, 9.999131 
2.850199e+2, 1.742144e+2, -1168508.5, -1294638.5, -19161.547, 0.042210452, 0.020049257, -1165661.8, 67038.9, 0.0, 10.000806, 9.999128 
2.8501713e+2, 1.8421346e+2, -1090158.5, -1208661.1, -16725.969, 0.06313559, 0.016527269, -1087842.9, 46866.69, 0.0, 10.000682, 9.999105 
2.8501418e+2, 1.9421247e+2, -1028575.75, -1129774.0, -12307.562, 0.06897136, 0.003317188, -1027100.44, 9619.227, 0.0, 10.000439, 9.999092 
2.8501102e+2, 2.0421153e+2, -965570.7, -1078241.1, -7428.3467, 0.049801573, 0.014225973, -965083.06, -26353.553, 0.0, 10.000325, 9.998828 
2.850075e+2, 2.1421072e+2, -860538.25, -979741.56, -5175.634, -0.0057861726, 0.048371065, -860313.94, -19575.385, 0.0, 10.000386, 9.9988 
2.8500444e+2, 2.2420965e+2, -774738.4, -876223.5, 3455.6357, -0.022395305, 0.0579135, -774620.8, -31871.35, 0.0, 10.000253, 9.998903 
2.85002e+2, 2.3420827e+2, -734369.7, -805313.4, 7609.33, 0.017250968, 0.02459218, -733562.7, -88800.29, 0.0, 9.999854, 9.998909 
2.849993e+2, 2.4420705e+2, -665715.06, -729615.25, 8023.3804, 0.03365064, 0.017047305, -664723.0, -117949.04, 0.0, 9.999687, 9.9988365 
2.8499618e+2, 2.5420612e+2, -546465.2, -622641.94, 9820.64, 0.013682907, 0.036211595, -545219.5, -96436.36, 0.0, 9.999839, 9.998824 
2.8499296e+2, 2.6420504e+2, -447271.97, -519899.28, 4395.64, -0.015986389, 0.047291882, -447006.88, -96213.7, 0.0, 9.999831, 9.99886 
2.8498963e+2, 2.7420384e+2, -385054.78, -438615.8, 456.11975, -0.04762552, 0.033163965, -385050.9, -132246.67, 0.0, 9.999583, 9.998865 
2.849868e+2, 2.842024e+2, -311171.44, -356575.56, -1554.9772, -0.029013304, 0.006046589, -311118.22, -156301.1, 0.0, 9.999435, 9.998827 
2.8498432e+2, 2.9420084e+2, -212696.23, -262553.28, 4331.742, 0.029252168, -0.03502168, -212322.69, -155491.73, 0.0, 9.999458, 9.998788 
2.849808e+2, 3.0419946e+2, -195616.56, -263699.5, 9077.83, -0.038025416, -0.034167986, -194426.95, -194426.95, 0.0, 9.999389, 9.998481 
2.849791e+2, 3.1419837e+2, -94968.195, 2492.1877, -943.0217, 0.08317556, 0.0024221588, 2501.3115, 2501.3115, 0.00000000043435586, 9.99914, 10.000429 
2.9503483e+2, 1.2422094e+2, -1557007.4, -1716653.5, -30786.563, 0.015881516, 0.071038455, -1551276.1, 171361.78, 0.000085497144, 10.001417, 9.999304 
2.9503152e+2, 1.342193e+2, -1496300.9, -1636434.9, -14358.596, -0.052528474, -0.023154045, -1494844.9, 129808.6, 0.000032281903, 10.001162, 9.999306 
2.9503077e+2, 1.442193e+2, -1414505.4, -1533649.9, -26482.447, 0.14416996, 0.041287847, -1408884.4, 117768.664, 0.0000046245973, 10.000996, 9.999415 
2.9502696e+2, 1.5421864e+2, -1332274.5, -1449217.9, -22859.63, 0.06509126, 0.032888416, -1327964.9, 100694.586, 0.00000001715619, 10.000915, 9.999361 
2.950236e+2, 1.6421779e+2, -1262314.5, -1392018.4, -18251.809, 0.031735547, 0.024486946, -1259795.0, 70872.766, 0.0, 10.00084, 9.999117 
2.9502058e+2, 1.7421682e+2, -1171504.3, -1299971.4, -20128.063, 0.0301638, 0.015206321, -1168424.5, 64252.965, 0.0, 10.000803, 9.999093 
2.950174e+2, 1.8421602e+2, -1081949.4, -1190747.5, -25408.16, 0.022783803, 0.02010974, -1076308.1, 58377.355, 0.0, 10.000678, 9.99923 
2.9501414e+2, 1.9421542e+2, -1018710.4, -1109182.5, -21126.852, 0.017750373, 0.03232252, -1014020.0, 22671.201, 0.0, 10.000438, 9.999234 
2.9501107e+2, 2.0421457e+2, -960939.7, -1067698.5, -6182.03, 0.021348184, 0.039944846, -960582.9, -21882.982, 0.0, 10.000321, 9.998902 
2.9500827e+2, 2.1421342e+2, -856063.3, -969834.1, -2259.0115, 0.03365915, 0.03204593, -856018.44, -15306.419, 0.0, 10.000383, 9.998871 
2.950052e+2, 2.2421242e+2, -768865.94, -863115.5, -10703.397, 0.029400915, 0.042334285, -767665.7, -24943.611, 0.0, 10.000249, 9.998995 
2.9500175e+2, 2.3421173e+2, -728340.25, -792210.25, -7070.883, 0.005928892, 0.06826967, -727566.8, -82837.98, 0.0, 9.999851, 9.999001 
2.949986e+2, 2.4421057e+2, -662852.44, -722802.94, 11878.997, -0.0063892906, 0.05981841, -660584.5, -113845.01, 0.0, 9.999684, 9.998884 
2.949958e+2, 2.5420886e+2, -543440.6, -615961.1, 16288.772, -0.007851755, -0.0036461072, -539950.0, -91195.19, 0.0, 9.999838, 9.998871 
2.949929e+2, 2.6420748e+2, -454077.88, -533691.1, -4210.7183, -0.007639985, -0.02153774, -453855.78, -103088.19, 0.0, 9.999829, 9.998767 
2.9498973e+2, 2.742066e+2, -392416.22, -453739.88, -8885.196, 0.005059592, 0.008435493, -391154.78, -138378.19, 0.0, 9.999582, 9.998762 
2.9498672e+2, 2.8420553e+2, -308752.94, -351253.97, -2454.457, 0.02250068, 0.02423315, -308611.66, -153825.17, 0.0, 9.999434, 9.998863 
2.9498369e+2, 2.942044e+2, -209731.64, -254813.69, 5993.184, 0.01736246, 0.01935006, -208948.52, -152152.19, 0.0, 9.999452, 9.998844 
2.949799e+2, 3.042026e+2, -196097.17, -263449.03, 613.0908, -0.06872946, -0.027722564, -196091.6, -196091.6, 0.0, 9.999383, 9.998486 
2.949782e+2, 3.1420135e+2, -96027.34, -1152.2229, -14340.8, 0.078779906, -0.0038571435, 968.0687, 968.0687, 0.0, 9.999146, 10.0004015 
3.0503595e+2, 1.242231e+2, -1566358.3, -1707367.1, -19812.225, -0.006898996, 0.04475779, -1563627.5, 158989.13, 0.000073591786, 10.001298, 9.999424 
3.0503243e+2, 1.3422188e+2, -1513403.0, -1638994.1, -2151.0935, -0.069688, -0.0131760985, -1513366.3, 111262.016, 0.000027638554, 10.00102, 9.999357 
3.050318e+2, 1.4422196e+2, -1431549.6, -1534280.9, -5786.5635, 0.1552449, 0.053359378, -1431224.8, 95402.336, 0.000004191702, 10.000848, 9.999482 
3.0502796e+2, 1.5422118e+2, -1342364.3, -1446115.3, -12008.75, 0.07901158, 0.02690256, -1340992.5, 87641.766, 0.000000032166714, 10.000812, 9.999432 
3.050245e+2, 1.6422033e+2, -1276401.5, -1386027.1, -9863.518, 0.04566067, 0.010868994, -1275521.0, 55121.27, 0.0, 10.0006895, 9.999229 
3.050212e+2, 1.7421958e+2, -1213770.8, -1307512.9, -1944.2273, 0.032340206, 0.009085058, -1213730.4, 18919.754, 0.0, 10.000458, 9.999208 
3.0501783e+2, 1.8421888e+2, -1123047.8, -1215293.1, -1593.2117, 0.012291729, 0.021828406, -1123020.3, 11636.98, 0.0, 10.000417, 9.999188 
3.0501446e+2, 1.9421832e+2, -991281.2, -1101011.6, -11990.385, -0.004047315, 0.042347666, -989986.25, 46676.758, 0.0, 10.00065, 9.9991865 
3.0501136e+2, 2.0421745e+2, -915882.06, -1032114.06, -10109.974, 0.0048096296, 0.04613126, -915009.25, 23662.441, 0.0, 10.000572, 9.999024 
3.0500862e+2, 2.1421625e+2, -891873.06, -971839.6, -2479.9832, 0.042544447, 0.020101205, -891796.25, -51112.7, 0.0, 10.000072, 9.999007 
3.050054e+2, 2.242153e+2, -818910.56, -885690.3, -4380.61, 0.044345364, 0.025425311, -818624.44, -75931.42, 0.0, 9.999897, 9.99901 
3.0500168e+2, 2.3421474e+2, -682221.94, -769089.25, -7887.4175, 0.00033961548, 0.06379002, -681511.56, -36812.684, 0.0, 10.000164, 9.999008 
3.0499837e+2, 2.4421369e+2, -593264.94, -682257.44, 5955.571, -0.018354943, 0.061829288, -592868.1, -46159.465, 0.0, 10.000132, 9.998948 
3.049956e+2, 2.54212e+2, -559914.44, -616094.25, 11431.788, -0.005942532, -0.003873746, -557677.3, -108954.0, 0.0, 9.999691, 9.998941 
3.0499262e+2, 2.642106e+2, -508778.34, -561753.7, -2205.9417, 0.00068849523, -0.026843704, -508686.66, -157950.42, 0.0, 9.999462, 9.998751 
3.049893e+2, 2.7420965e+2, -402092.25, -461028.16, -1905.8579, 0.009007499, -0.0026934515, -402030.7, -149284.28, 0.0, 9.999529, 9.998736 
3.0498627e+2, 2.842087e+2, -297423.4, -342957.56, 8000.8545, 0.028177207, 0.020945968, -296058.47, -141302.66, 0.0, 9.999501, 9.998889 
3.0498326e+2, 2.9420775e+2, -226745.45, -259507.98, 13792.885, 0.036425766, 0.03613972, -221712.02, -164948.42, 0.0, 9.999319, 9.998877 
3.049793e+2, 3.0420575e+2, -206429.0, -236749.39, 15961.132, -0.0550153, -0.045588605, -199575.81, -199575.81, 0.0, 9.999176, 9.998769 
3.0497703e+2, 3.1420508e+2, -95033.35, 15899.127, 15547.629, 0.04826383, 0.0071618026, 18036.988, 18036.988, 0.0, 9.999083, 10.000549 
3.150375e+2, 1.24225244e+2, -1553172.4, -1680396.6, -27871.328, 0.013734061, -0.0073286532, -1547334.4, 175260.14, 0.00006650563, 10.001299, 9.99961 
3.1503314e+2, 1.3422482e+2, -1504193.6, -1621258.3, -11713.797, -0.10048954, 0.0034138886, -1503033.1, 121565.49, 0.000025576577, 10.001026, 9.999476 
3.150324e+2, 1.4422503e+2, -1433170.9, -1538794.5, -8330.522, 0.12775232, 0.07738907, -1432517.9, 94078.516, 0.000004447986, 10.000853, 9.99945 
3.1502864e+2, 1.542238e+2, -1346302.9, -1453099.4, -12825.868, 0.06538248, 0.00996961, -1344784.1, 83824.0, 0.00000006594377, 10.000807, 9.999386 
3.150252e+2, 1.6422291e+2, -1261107.3, -1353094.1, -18479.42, 0.046542488, -0.018132957, -1257533.8, 73082.6, 0.0, 10.000685, 9.999458 
3.150218e+2, 1.7422265e+2, -1195913.6, -1270632.4, -10422.772, 0.04499965, 0.0028153278, -1194486.9, 38131.773, 0.0, 10.000458, 9.999461 
3.1501842e+2, 1.8422207e+2, -1137367.9, -1245243.5, 5341.514, 0.026551135, 0.023814386, -1137104.0, -2479.4204, 0.0, 10.000418, 9.998982 
3.1501517e+2, 1.9422114e+2, -1008705.8, -1136558.6, -2652.44, 0.0015758647, 0.032357085, -1008650.8, 27984.438, 0.0, 10.000647, 9.998945 
3.1501183e+2, 2.0422019e+2, -905031.56, -1007772.8, -27051.775, -0.0020376688, 0.03197028, -898344.06, 40300.926, 0.0, 10.000565, 9.999196 
3.1500843e+2, 2.1421924e+2, -878063.94, -942442.4, -20816.428, 0.018725393, 0.011998642, -871919.5, -31266.334, 0.0, 10.000069, 9.99921 
3.1500506e+2, 2.2421826e+2, -823623.0, -894860.1, 3360.23, 0.020167276, 0.006739567, -823464.9, -80802.484, 0.0, 9.999895, 9.998948 
3.1500185e+2, 2.3421727e+2, -688157.5, -781356.7, 2799.7222, -0.0011986698, 0.010695702, -688073.5, -43400.777, 0.0, 10.000164, 9.998924 
3.1499866e+2, 2.4421635e+2, -588206.0, -671197.06, -9289.218, -0.004146188, 0.022580003, -587178.94, -40497.152, 0.0, 10.00013, 9.999025 
3.1499553e+2, 2.5421557e+2, -553213.25, -601637.2, -5114.651, 0.015448301, 0.035304084, -552678.9, -103990.29, 0.0, 9.999688, 9.999042 
3.1499213e+2, 2.6421446e+2, -504902.28, -553197.44, -1599.5763, 0.0055887294, 0.031769432, -504849.34, -154150.31, 0.0, 9.99946, 9.99881 
3.1498837e+2, 2.7421296e+2, -399036.1, -453588.6, 1411.473, -0.038246028, -0.00044576012, -398999.6, -146285.92, 0.0, 9.999524, 9.99879 
3.1498536e+2, 2.8421172e+2, -298252.25, -342825.4, 1244.7631, -0.013026775, -0.004393839, -298217.5, -143492.2, 0.0, 9.999494, 9.998894 
3.1498304e+2, 2.9421088e+2, -225590.2, -257631.14, 7279.794, 0.082005404, 0.014011586, -224013.78, -167280.84, 0.0, 9.999322, 9.998888 
3.1497905e+2, 3.042089e+2, -166992.64, -156156.63, 11524.769, -0.0012945876, -0.088790655, -148839.84, -148839.84, 0.0, 9.999181, 9.99932 
3.1497547e+2, 3.1420946e+2, -72260.98, 65091.816, 7323.5107, -0.016134933, 0.0256586, 65481.195, 65481.195, 0.0, 9.999074, 10.000892 
3.250388e+2, 1.2422814e+2, -1583604.3, -1694813.3, 4223.2188, 0.02788022, -0.023998575, -1583444.1, 139120.77, 0.00006287029, 10.001092, 9.999608 
3.250341e+2, 1.3422778e+2, -1488972.4, -1621235.3, 1907.1589, -0.1118991, -0.002733034, -1488944.9, 135624.1, 0.000025189593, 10.001163, 9.999411 
3.250333e+2, 1.442279e+2, -1400303.5, -1521916.5, -3671.553, 0.124118954, 0.06602576, -1400192.8, 126375.21, 0.0000050024137, 10.001075, 9.999457 
3.250292e+2, 1.5422674e+2, -1356273.0, -1455347.9, -5375.556, 0.04613132, 0.0032865256, -1355982.1, 72596.84, 0.000000115129794, 10.000728, 9.999409 
3.2502565e+2, 1.6422592e+2, -1270390.4, -1352800.6, -6937.71, 0.025985742, -0.021676145, -1269810.4, 60776.137, 0.0, 10.000601, 9.999499 
3.2502237e+2, 1.742257e+2, -1144105.8, -1240055.9, -14777.632, 0.04055097, 0.0017366458, -1141881.4, 90706.805, 0.0, 10.000792, 9.999509 
3.25019e+2, 1.8422514e+2, -1095791.5, -1222252.8, -2499.348, 0.033416916, 0.019520711, -1095742.1, 38851.805, 0.0, 10.000691, 9.999008 
3.2501566e+2, 1.9422415e+2, -1070976.3, -1164297.8, 7823.6484, 0.009449846, 0.019014878, -1070324.9, -33719.824, 0.0, 10.000208, 9.998966 
3.2501218e+2, 2.0422319e+2, -984042.3, -1045678.44, -11606.105, 0.0003134184, 0.01824799, -981929.3, -43314.527, 0.0, 10.000019, 9.999199 
3.2500845e+2, 2.1422237e+2, -854925.6, -930159.06, -21317.197, 0.007411913, 0.00952923, -849305.3, -8683.304, 0.0, 10.000223, 9.99922 
3.25005e+2, 2.242214e+2, -778942.6, -869920.56, 2397.068, 0.008765027, 0.0020716812, -778879.56, -36248.434, 0.0, 10.000188, 9.998978 
3.250019e+2, 2.3422024e+2, -734514.7, -800057.06, 10341.897, 0.0049432386, -0.013394539, -732921.56, -88279.1, 0.0, 9.99983, 9.998958 
3.2499865e+2, 2.4421932e+2, -655024.9, -707422.8, -3332.944, 0.0062061213, -0.0017593752, -654813.7, -108162.02, 0.0, 9.999688, 9.998989 
3.2499525e+2, 2.5421873e+2, -534661.7, -597558.5, -10980.867, 0.011443915, 0.036903474, -532799.75, -84142.266, 0.0, 9.999837, 9.998999 
3.2499167e+2, 2.6421773e+2, -450339.6, -515074.9, -10840.74, -0.0011818202, 0.04287507, -448572.4, -97905.31, 0.0, 9.9997835, 9.998917 
3.2498795e+2, 2.7421623e+2, -400247.94, -440691.4, -3485.7227, -0.03135247, -0.0017462283, -399949.7, -147268.4, 0.0, 9.999457, 9.998911 
3.249848e+2, 2.842151e+2, -322628.97, -340570.44, 6250.9517, -0.0049138474, -0.01095472, -320665.88, -165974.08, 0.0, 9.999266, 9.999019 
3.2498223e+2, 2.942144e+2, -229427.2, -245744.31, 19888.234, 0.07678445, 0.01147808, -216089.16, -159391.56, 0.0, 9.999237, 9.999011 
3.2497817e+2, 3.0421242e+2, -160781.52, -143096.58, 13155.56, -0.003147251, -0.102247976, -136087.92, -136087.92, 0.0, 9.99918, 9.999411 
3.2497457e+2, 3.1421322e+2, -89217.266, 29009.834, -35874.508, -0.011830028, 0.029367935, 39043.895, 39043.895, 0.0, 9.999075, 10.000644 
3.3503985e+2, 1.2423185e+2, -1596408.1, -1724423.8, 9832.301, 0.021657316, -0.0032309277, -1595657.4, 126869.695, 0.000061273975, 10.001104, 9.999399 
3.3503538e+2, 1.3423075e+2, -1507926.8, -1659141.5, 5842.886, -0.10331682, -0.031572852, -1507701.4, 116837.99, 0.000025556885, 10.001156, 9.999153 
3.3503458e+2, 1.4423056e+2, -1397829.8, -1515490.8, -15121.061, 0.14457273, 0.019592116, -1395917.6, 130624.086, 0.0000055599335, 10.001068, 9.999505 
3.350296e+2, 1.5423e+2, -1349781.0, -1442248.5, -17605.736, 0.013298556, 0.008433812, -1346542.3, 82004.47, 0.00000016881297, 10.00073, 9.999497 
3.3502573e+2, 1.6422935e+2, -1279602.5, -1373190.1, -1711.6266, -0.024874704, 0.002689394, -1279571.3, 50981.477, 0.0, 10.000606, 9.999358 
3.3502296e+2, 1.7422876e+2, -1155683.0, -1263508.4, -6862.0776, 0.018673802, 0.004076766, -1155248.0, 77310.63, 0.0, 10.000788, 9.999351 
3.3501968e+2, 1.8422809e+2, -1079366.3, -1186564.9, -19034.97, 0.03155218, 0.007579311, -1076086.6, 58478.664, 0.0, 10.000684, 9.999256 
3.3501595e+2, 1.9422732e+2, -1051924.3, -1124598.6, -9871.384, 0.016832402, 0.0022474541, -1050607.3, -14034.652, 0.0, 10.000207, 9.99924 
3.3501226e+2, 2.0422648e+2, -995806.94, -1069262.3, -6072.0405, 0.008469124, 0.0059709144, -995308.4, -56727.367, 0.0, 10.000016, 9.999039 
3.3500868e+2, 2.1422562e+2, -868744.56, -958530.06, -12889.557, 0.0062096254, 0.012080728, -866930.75, -26340.635, 0.0, 10.000221, 9.999026 
3.3500516e+2, 2.2422466e+2, -770889.06, -852285.56, -9956.71, 0.0074491687, 0.011061892, -769688.8, -27089.457, 0.0, 10.000184, 9.999102 
3.3500183e+2, 2.342236e+2, -723687.6, -777410.75, -2758.627, 0.016544314, -0.008798213, -723546.4, -78938.18, 0.0, 9.999829, 9.999113 
3.3499837e+2, 2.4422255e+2, -666235.0, -730236.06, 602.2315, 0.010217035, -0.011188401, -666229.3, -119610.984, 0.0, 9.999686, 9.998833 
3.3499476e+2, 2.5422153e+2, -548159.1, -624886.75, -4737.899, -0.02029636, 0.0010433948, -547867.6, -99237.77, 0.0, 9.999834, 9.998812 
3.3499128e+2, 2.6422048e+2, -440430.13, -493504.4, -22580.803, -0.020644985, 0.006092317, -432123.16, -81482.63, 0.0, 9.999779, 9.999067 
3.3498797e+2, 2.7421948e+2, -386407.03, -411868.56, -15620.375, 0.0260918, -0.007850381, -378986.66, -126337.27, 0.0, 9.999457, 9.999109 
3.3498463e+2, 2.8421876e+2, -305983.56, -305744.94, 3908.858, 0.0485768, 0.00069898186, -301953.6, -147298.22, 0.0, 9.999265, 9.999258 
3.349809e+2, 2.9421836e+2, -213411.8, -210708.97, 19748.025, 0.016957048, 0.029277755, -192266.17, -135608.69, 0.0, 9.999229, 9.999254 
3.3497676e+2, 3.042163e+2, -189353.95, -200286.2, 8384.425, -0.06281882, -0.08592485, -184811.23, -184811.23, 0.0, 9.999171, 9.9990225 
3.3497435e+2, 3.1421638e+2, -146384.22, -89712.67, -42257.086, 0.054408763, 0.01291416, -67170.38, -67170.38, 0.0, 9.999076, 9.999827 
3.4504113e+2, 1.242355e+2, -1547866.0, -1707687.1, 7707.5137, 0.02337183, 0.009377875, -1547495.1, 174995.9, 0.000060228966, 10.001468, 9.999338 
3.450363e+2, 1.342342e+2, -1557094.6, -1696314.6, 7394.522, -0.11465657, -0.026903976, -1556703.0, 67802.39, 0.000025763518, 10.000874, 9.999035 
3.450355e+2, 1.4423382e+2, -1451528.3, -1533367.5, 3297.9187, 0.14911568, 0.0075948024, -1451395.6, 75113.96, 0.000005876301, 10.000666, 9.999575 
3.4503037e+2, 1.542334e+2, -1315363.5, -1415504.6, -223.77223, 0.007658241, 0.0021597587, -1315363.0, 113149.95, 0.0000002059256, 10.000922, 9.999587 
3.4502637e+2, 1.6423285e+2, -1241263.1, -1357483.4, 18063.746, -0.035993535, 0.00097230804, -1238520.3, 91997.69, 0.0, 10.000881, 9.999333 
3.450234e+2, 1.7423227e+2, -1203979.3, -1290454.9, 20914.035, 0.000031315383, 0.0068403035, -1199186.8, 33337.15, 0.0, 10.000472, 9.999318 
3.4502003e+2, 1.8423155e+2, -1132871.6, -1207036.4, 5827.0596, 0.0155139975, 0.0052584307, -1132416.6, 2114.171, 0.0, 10.000293, 9.999304 
3.450163e+2, 1.9423066e+2, -1016427.56, -1100236.4, -2225.722, 0.019880233, -0.016955532, -1016368.5, 20170.328, 0.0, 10.000422, 9.999302 
3.4501258e+2, 2.0422983e+2, -948894.3, -1055512.8, 1590.3848, 0.020781234, -0.013464902, -948870.6, -10323.336, 0.0, 10.000377, 9.998959 
3.4500888e+2, 2.1422909e+2, -892431.0, -980276.75, 2028.6611, 0.011474261, 0.014898973, -892384.2, -51828.32, 0.0, 10.000103, 9.998935 
3.4500524e+2, 2.2422817e+2, -805012.94, -866433.75, 1154.4619, 0.007852145, 0.022486284, -804991.25, -62426.355, 0.0, 9.999939, 9.999123 
3.4500167e+2, 2.3422705e+2, -707803.94, -766129.25, -2237.2288, 0.015291801, -0.0073400466, -707718.25, -63144.266, 0.0, 9.999923, 9.9991455 
3.4499815e+2, 2.4422593e+2, -657152.8, -725370.9, 4546.0977, 0.012588102, -0.018264912, -656851.2, -110266.59, 0.0, 9.999746, 9.998837 
3.449945e+2, 2.5422487e+2, -617538.06, -658011.94, 12895.312, -0.0069621596, -0.012569785, -613778.7, -165181.8, 0.0, 9.999356, 9.998815 
3.4499094e+2, 2.6422384e+2, -510075.06, -516432.03, 5672.4478, -0.004648434, -0.008355249, -506751.28, -156144.14, 0.0, 9.999255, 9.999162 
3.4498754e+2, 2.7422303e+2, -369683.66, -393216.63, 5453.6367, 0.033264544, -0.016527522, -368481.22, -115866.984, 0.0, 9.999525, 9.999206 
3.44984e+2, 2.8422233e+2, -273877.1, -298995.97, 4807.3784, 0.050193574, -0.0044955392, -272988.47, -118368.66, 0.0, 9.999522, 9.999181 
3.4498012e+2, 2.9422185e+2, -226705.25, -227944.34, -6177.2666, 0.019584542, 0.026885975, -221116.55, -164493.47, 0.0, 9.999184, 9.999159 
3.4497598e+2, 3.0422e+2, -187596.98, -185605.6, -2983.5618, -0.053804245, -0.0716053, -183455.97, -183455.97, 0.0, 9.999125, 9.999144 
3.449735e+2, 3.1421983e+2, -121002.91, -98765.8, -16459.164, 0.053327814, -0.0065314877, -90021.664, -90021.664, 0.0, 9.999345, 9.999635 
3.550427e+2, 1.24239095e+2, -1542041.5, -1695247.5, -7385.664, 0.03090485, 0.013245579, -1541686.3, 180770.7, 0.00005843651, 10.001465, 9.999425 
3.5503674e+2, 1.3423817e+2, -1554036.4, -1691510.8, -13198.483, -0.15592849, 0.012055633, -1552780.6, 71686.336, 0.000025162195, 10.000879, 9.999065 
3.5503596e+2, 1.4423771e+2, -1444204.8, -1520296.3, 11276.019, 0.12649874, 0.031753995, -1442569.0, 83902.586, 0.0000057861466, 10.000674, 9.999661 
3.5503152e+2, 1.5423696e+2, -1309480.6, -1402653.4, 10171.558, 0.029755127, -0.0159156, -1308383.1, 120094.51, 0.00000020730299, 10.000919, 9.999678 
3.5502753e+2, 1.642364e+2, -1235759.3, -1345342.5, 3936.173, -0.007938212, -0.026497122, -1235618.0, 94864.18, 0.0, 10.000877, 9.999418 
3.5502368e+2, 1.7423621e+2, -1197790.5, -1278185.5, 6100.417, -0.020738985, 0.010446867, -1197330.3, 35153.67, 0.0, 10.000474, 9.999401 
3.5501996e+2, 1.8423551e+2, -1142675.8, -1227490.6, 8989.473, -0.02092663, 0.013598334, -1141733.4, -7242.7725, 0.0, 10.000293, 9.999164 
3.5501668e+2, 1.9423418e+2, -1027233.1, -1122501.3, 3270.522, 0.016900294, -0.039683808, -1027121.0, 9382.742, 0.0, 10.00042, 9.99915 
3.5501313e+2, 2.042332e+2, -949561.06, -1055678.9, -7909.169, 0.035488248, -0.041061275, -948974.8, -10461.052, 0.0, 10.000372, 9.9989605 
3.550091e+2, 2.1423279e+2, -892224.4, -978993.25, -7674.93, 0.020833474, 0.018162427, -891550.75, -51031.477, 0.0, 10.000099, 9.998945 
3.5500515e+2, 2.2423193e+2, -811487.3, -878974.0, -532.8673, 0.007217029, 0.036423594, -811483.06, -68955.31, 0.0, 9.999935, 9.999038 
3.5500148e+2, 2.3423058e+2, -714648.56, -780089.8, -2425.2693, -0.0009074152, -0.008985345, -714558.8, -70018.875, 0.0, 9.999922, 9.99905 
3.5499787e+2, 2.4422945e+2, -645687.0, -701056.4, -9722.145, 0.011527446, -0.023237249, -644029.56, -97479.01, 0.0, 9.999743, 9.999006 
3.5499442e+2, 2.5422868e+2, -603634.2, -628523.06, -1690.9473, 0.04885553, -0.0045090974, -603519.8, -154961.2, 0.0, 9.999353, 9.999019 
3.5499066e+2, 2.642278e+2, -508121.72, -511394.84, 13953.131, 0.043712396, -0.0009930315, -495709.5, -145142.44, 0.0, 9.99925, 9.999199 
3.549866e+2, 2.742268e+2, -369142.1, -391498.3, 16452.719, -0.01316067, -0.027234148, -360429.47, -107853.66, 0.0, 9.999522, 9.999218 
3.54983e+2, 2.8422582e+2, -302971.3, -358768.7, -7355.0425, -0.002665691, -0.026298916, -302018.06, -147433.02, 0.0, 9.999519, 9.998773 
3.5497993e+2, 2.942249e+2, -257212.86, -290725.9, -18286.979, 0.08152835, 0.0036376587, -249166.27, -192571.83, 0.0, 9.999181, 9.998729 
3.5497585e+2, 3.0422345e+2, -144528.67, -95490.48, 4168.819, 0.01945534, -0.06025396, -95138.6, -95138.6, 0.0, 9.999121, 9.999765 
3.5497206e+2, 3.142237e+2, -90576.24, -34469.875, -10500.805, -0.02650286, -0.025184708, -32568.96, -32568.96, 0.0, 9.999339, 10.000079 
3.6504418e+2, 1.2424299e+2, -1558587.5, -1693594.9, 18952.348, 0.041914932, 0.0047143176, -1555977.5, 166441.03, 0.000055122826, 10.00131, 9.99951 
3.6503753e+2, 1.3424212e+2, -1502076.1, -1662145.5, 5817.7046, -0.18166637, 0.0034129166, -1501865.0, 122562.56, 0.000023501116, 10.001217, 9.9991045 
3.650367e+2, 1.4424154e+2, -1397761.9, -1508821.9, 35502.777, 0.11523865, 0.015553646, -1387382.6, 139050.42, 0.00000526637, 10.0010395, 9.999564 
3.6503226e+2, 1.5424089e+2, -1349597.0, -1433424.4, 18615.299, 0.025096554, -0.011677011, -1345649.0, 82789.72, 0.00000017249042, 10.000691, 9.999576 
3.650283e+2, 1.6424032e+2, -1284882.0, -1363276.1, 668.19617, -0.0030799801, -0.021171868, -1284876.4, 45567.32, 0.0, 10.000515, 9.999469 
3.6502433e+2, 1.7423993e+2, -1178847.9, -1261517.6, 212.02362, -0.0064848275, -0.009490944, -1178847.4, 53599.277, 0.0, 10.000572, 9.999468 
3.6502045e+2, 1.8423921e+2, -1121520.9, -1225334.8, 8913.753, -0.009496307, -0.008984717, -1120761.1, 13692.316, 0.0, 10.000472, 9.999093 
3.6501688e+2, 1.9423808e+2, -1067930.1, -1151216.8, 8009.148, 0.0068136295, -0.03407756, -1067166.9, -30701.578, 0.0, 10.000177, 9.999071 
3.6501312e+2, 2.0423716e+2, -990407.44, -1067499.8, 3049.162, 0.017088605, -0.028940637, -990287.0, -51812.133, 0.0, 10.000055, 9.999032 
3.6500913e+2, 2.142366e+2, -877508.4, -961957.44, 8164.9023, 0.011959015, 0.0076945405, -876726.2, -36245.223, 0.0, 10.000156, 9.999035 
3.6500517e+2, 2.2423568e+2, -796785.75, -883592.7, 16337.972, 0.0062531307, 0.018552637, -793812.6, -51322.355, 0.0, 10.000087, 9.998933 
3.6500135e+2, 2.3423435e+2, -742543.94, -807118.5, 11314.2705, 0.003393266, -0.013408419, -740618.94, -96115.664, 0.0, 9.999789, 9.998929 
3.6499766e+2, 2.4423328e+2, -651591.0, -692920.25, 1886.7196, 0.02081106, -0.019491335, -651505.0, -104991.516, 0.0, 9.999656, 9.999104 
3.6499408e+2, 2.5423265e+2, -538472.1, -584397.75, 3058.6785, 0.062280204, 0.000056657955, -538269.3, -89749.81, 0.0, 9.999745, 9.999133 
3.6499023e+2, 2.6423177e+2, -459672.4, -503437.56, 14016.728, 0.054858785, 0.0049885134, -455568.13, -105040.44, 0.0, 9.999648, 9.999063 
3.6498603e+2, 2.7423063e+2, -409501.13, -428604.16, 2528.2083, -0.013908147, -0.020009087, -409172.2, -156633.38, 0.0, 9.99932, 9.999061 
3.6498234e+2, 2.8422952e+2, -341044.97, -365750.9, -11704.068, -0.0072578844, -0.026108868, -336380.84, -181831.39, 0.0, 9.9992075, 9.998875 
3.6497924e+2, 2.9422858e+2, -225924.5, -262153.2, 18783.303, 0.08709115, -0.010819848, -217943.98, -161385.4, 0.0, 9.999336, 9.998851 
3.6497524e+2, 3.0422762e+2, -117957.89, -78483.03, 48411.625, 0.038553808, -0.03442766, -45939.953, -45939.953, 0.0, 9.999285, 9.999804 
3.6497134e+2, 3.1422758e+2, -143068.88, -71855.25, -22142.557, -0.017627597, -0.030022485, -65531.91, -65531.91, 0.0, 9.999028, 9.999973 
3.7504557e+2, 1.2424718e+2, -1554288.3, -1683763.5, 22251.426, 0.046859924, -0.014952723, -1550570.9, 171804.97, 0.00005010573, 10.001307, 9.999579 
3.7503865e+2, 1.34246e+2, -1498940.9, -1656065.9, 3589.8042, -0.19137873, -0.05119145, -1498858.9, 125528.19, 0.000020857056, 10.001218, 9.999146 
3.7503773e+2, 1.4424533e+2, -1416985.5, -1548815.0, 23060.836, 0.11438491, -0.03985734, -1413067.9, 113326.19, 0.000004428325, 10.0010395, 9.9992895 
3.750326e+2, 1.542452e+2, -1369803.4, -1475615.3, 6015.3604, -0.012574024, 0.014465346, -1369462.5, 58934.035, 0.00000011962439, 10.000692, 9.999286 
3.7502855e+2, 1.6424458e+2, -1283194.1, -1360005.1, 1486.4768, -0.028675677, 0.01726031, -1283165.4, 47236.934, 0.0, 10.000516, 9.999492 
3.750254e+2, 1.7424344e+2, -1175317.8, -1254477.4, 2985.772, 0.041593645, -0.053239636, -1175205.4, 57206.637, 0.0, 10.000572, 9.999516 
3.750215e+2, 1.8424265e+2, -1122001.4, -1226097.6, -1748.1506, 0.04734933, -0.062368706, -1121972.0, 12447.301, 0.0, 10.000471, 9.999088 
3.7501687e+2, 1.9424237e+2, -1068863.5, -1152880.3, -2619.749, -0.013134487, 0.0002631365, -1068781.9, -32358.297, 0.0, 10.000176, 9.999061 
3.7501267e+2, 2.042417e+2, -980456.5, -1046052.6, 5565.4956, -0.037138097, 0.022854907, -979987.6, -41556.902, 0.0, 10.0000515, 9.999181 
3.7500897e+2, 2.1424054e+2, -866401.06, -937993.44, 12622.833, -0.017497605, -0.01719944, -864240.6, -23799.383, 0.0, 10.000153, 9.999201 
3.7500522e+2, 2.242394e+2, -806121.25, -902184.56, 5713.7695, 0.0026351137, -0.03142975, -805782.6, -63330.176, 0.0, 10.000083, 9.998808 
3.7500137e+2, 2.3423833e+2, -753062.44, -828334.3, 296.90988, 0.026255596, -0.020598518, -753061.3, -108597.18, 0.0, 9.999786, 9.998784 
3.749975e+2, 2.442374e+2, -650210.7, -689158.3, 3953.3284, 0.037762597, -0.0074285422, -649813.44, -103339.88, 0.0, 9.999652, 9.999131 
3.7499353e+2, 2.5423667e+2, -535902.06, -579083.5, 6904.619, 0.0311255, 0.0010337326, -534824.9, -86345.32, 0.0, 9.999745, 9.999169 
3.749896e+2, 2.642357e+2, -481896.8, -549611.1, 2032.9772, 0.026919382, 0.009565894, -481835.8, -131346.72, 0.0, 9.999648, 9.998746 
3.7498575e+2, 2.7423444e+2, -433548.7, -477295.75, -9528.232, 0.02872136, 0.0048733354, -431563.5, -179060.1, 0.0, 9.999314, 9.99873 
3.7498194e+2, 2.8423342e+2, -298150.2, -274885.97, -8068.252, 0.03282152, -0.003981307, -272361.72, -117848.62, 0.0, 9.9992, 9.999502 
3.7497804e+2, 2.9423293e+2, -177076.44, -160962.31, 24471.6, 0.03148947, -0.015596562, -143255.53, -86740.27, 0.0, 9.999337, 9.999545 
3.7497416e+2, 3.0423254e+2, -156199.23, -158622.58, 38872.258, -0.0009342063, 0.006057043, -118519.77, -118519.77, 0.0, 9.999288, 9.999252 
3.749713e+2, 3.142316e+2, -190610.64, -167697.39, -33681.664, 0.07436651, -0.014329104, -143577.22, -143577.22, 0.0, 9.999017, 9.999321 
3.8504696e+2, 1.24251336e+2, -1542808.0, -1684115.3, 20014.896, 0.049899347, -0.030114569, -1540027.8, 182306.92, 0.00004363311, 10.001412, 9.999524 
3.8503978e+2, 1.3425028e+2, -1503159.9, -1668932.4, -17744.102, -0.20451878, -0.04532433, -1501281.9, 123063.26, 0.000017489165, 10.001233, 9.999051 
3.8503882e+2, 1.442495e+2, -1413074.3, -1546076.5, 1478.5624, 0.1184206, -0.040301368, -1413057.8, 113295.53, 0.0000034194288, 10.001062, 9.999297 
3.8503322e+2, 1.5424936e+2, -1355079.1, -1466605.3, 4292.551, -0.021414852, 0.011515971, -1354914.3, 73441.43, 0.00000006772674, 10.000786, 9.999303 
3.8502896e+2, 1.6424873e+2, -1275769.3, -1367017.1, 21177.045, -0.044316363, 0.016055778, -1271093.9, 59267.754, 0.0, 10.000611, 9.999398 
3.850258e+2, 1.7424756e+2, -1176247.0, -1265992.4, 11892.625, 0.022494575, -0.047163192, -1174697.8, 57674.33, 0.0, 10.000612, 9.999418 
3.8502187e+2, 1.8424675e+2, -1105415.8, -1213627.4, -4653.81, 0.032561976, -0.054489147, -1105216.0, 29163.75, 0.0, 10.000565, 9.999129 
3.8501716e+2, 1.9424647e+2, -1026593.8, -1126385.3, -2264.2222, -0.0136840185, 0.0028916565, -1026542.44, 9841.183, 0.0, 10.000441, 9.999115 
3.8501284e+2, 2.042458e+2, -949815.56, -1026266.2, 9877.116, -0.030756945, 0.020825895, -948560.1, -10169.616, 0.0, 10.000241, 9.999225 
3.8500905e+2, 2.1424466e+2, -892751.06, -945688.75, 7222.6934, -0.014225297, -0.022540428, -891783.3, -51382.496, 0.0, 9.99995, 9.999246 
3.8500518e+2, 2.242436e+2, -840525.9, -911963.4, 2463.7986, 0.0051474776, -0.034592446, -840441.0, -98029.875, 0.0, 9.999818, 9.998868 
3.8500124e+2, 2.3424268e+2, -731918.2, -811167.5, 11961.868, 0.030088251, -0.015295485, -730152.06, -85730.734, 0.0, 9.999901, 9.998848 
3.8499725e+2, 2.442417e+2, -626973.3, -692846.25, 21705.904, 0.039451845, -0.0022078096, -620464.2, -74033.055, 0.0, 9.999875, 9.999 
3.849932e+2, 2.5424075e+2, -551377.1, -603171.25, 9761.358, 0.025703168, -0.0037448332, -549598.56, -101158.695, 0.0, 9.999711, 9.999021 
3.849892e+2, 2.6423973e+2, -497954.03, -561634.9, 573.07214, 0.024790574, 0.006377887, -497948.88, -147498.48, 0.0, 9.999556, 9.998708 
3.8498527e+2, 2.7423856e+2, -423373.7, -475307.8, 11500.941, 0.044129103, 0.016658802, -420940.75, -168477.17, 0.0, 9.999396, 9.998704 
3.849813e+2, 2.842375e+2, -293072.28, -268596.16, 14308.874, 0.048629396, 0.0071525187, -262005.67, -107532.2, 0.0, 9.999217, 9.999538 
3.8497713e+2, 2.9423687e+2, -217132.3, -176989.42, -4438.842, 0.025593206, -0.021853525, -176504.45, -120027.16, 0.0, 9.999046, 9.999576 
3.8497332e+2, 3.0423692e+2, -181342.23, -175675.14, 4109.046, -0.002834893, 0.04083663, -173517.36, -173517.36, 0.0, 9.999135, 9.999208 
3.8497064e+2, 3.1423563e+2, -112776.64, -120873.016, -26022.334, 0.08303182, -0.009446401, -90489.5, -90489.5, 0.000000000002787424, 9.999509, 9.999406 
3.9504838e+2, 1.2425545e+2, -1555946.3, -1710388.3, 21341.162, 0.047069665, -0.041615143, -1553051.5, 169243.63, 0.0000362571, 10.00141, 9.999345 
3.950408e+2, 1.3425495e+2, -1518440.0, -1701035.1, -23106.514, -0.22530039, 0.019306738, -1515561.4, 108740.4, 0.000013744367, 10.001233, 9.998831 
3.9503992e+2, 1.4425406e+2, -1394795.0, -1506947.8, -7633.922, 0.121261105, 0.013645629, -1394277.8, 132033.08, 0.0000023661473, 10.001057, 9.999569 
3.9503422e+2, 1.5425338e+2, -1332454.4, -1420464.4, -5691.0664, -0.0044005234, -0.020105237, -1332087.9, 96228.19, 0.000000028035489, 10.000789, 9.999619 
3.950295e+2, 1.6425273e+2, -1290019.8, -1397037.4, 19432.406, -0.053167365, -0.023979519, -1286600.4, 43721.383, 0.0, 10.000612, 9.999192 
3.9502552e+2, 1.7425227e+2, -1193450.4, -1301259.8, 12438.659, -0.06541912, 0.008492203, -1192033.9, 40293.215, 0.0, 10.00061, 9.999178 
3.9502156e+2, 1.8425152e+2, -1099621.5, -1200989.5, -9078.65, -0.056352116, 0.014226567, -1098814.8, 35519.953, 0.0, 10.000562, 9.999217 
3.9501777e+2, 1.9425036e+2, -1018850.1, -1109550.5, -6492.299, 0.0028120796, -0.026360206, -1018387.75, 17957.771, 0.0, 10.000437, 9.999232 
3.9501372e+2, 2.0424949e+2, -954586.75, -1035317.0, -1016.058, 0.033338383, -0.03461946, -954574.0, -16219.781, 0.0, 10.000237, 9.999165 
3.9500934e+2, 2.1424894e+2, -898533.56, -956801.9, -3183.905, 0.019110218, -0.0075851013, -898360.1, -58000.457, 0.0, 9.999947, 9.999171 
3.9500508e+2, 2.2424825e+2, -823575.3, -875951.75, 4292.1416, 0.010920489, 0.009136893, -823225.9, -80859.38, 0.0, 9.999814, 9.999117 
3.9500096e+2, 2.3424733e+2, -712709.06, -771041.7, 15550.012, 0.013481125, 0.0017513294, -708822.75, -64447.742, 0.0, 9.999899, 9.999124 
3.9499697e+2, 2.4424618e+2, -648138.2, -736411.9, 15697.094, 0.024104752, -0.004149646, -645430.0, -99043.734, 0.0, 9.999874, 9.998701 
3.9499307e+2, 2.542448e+2, -576049.2, -652948.94, 3891.3958, 0.043215096, -0.014231445, -575852.75, -127452.3, 0.0, 9.999705, 9.998682 
3.9498895e+2, 2.6424372e+2, -481258.78, -525404.6, -5660.127, 0.045488164, -0.004565804, -480544.63, -130132.96, 0.0, 9.999549, 9.99896 
3.949845e+2, 2.742429e+2, -402475.6, -432438.06, 5853.0117, 0.029407056, 0.01552851, -401372.84, -148953.6, 0.0, 9.999399, 9.998998 
3.949804e+2, 2.8424183e+2, -332529.44, -350989.53, 7025.43, 0.037140198, 0.0070072613, -330159.9, -175729.39, 0.0, 9.999219, 9.998971 
3.9497662e+2, 2.9424047e+2, -263817.06, -270757.9, -10241.365, 0.06638385, -0.029405257, -256474.1, -200029.36, 0.0, 9.999033, 9.998939 
3.949728e+2, 3.0424073e+2, -149948.31, -107254.8, 16753.508, 0.030044414, 0.07015425, -101465.53, -101465.53, 0.0, 9.999123, 9.999684 
3.9496934e+2, 3.142397e+2, -55402.13, -1096.0486, -11873.166, -0.0016189076, -0.009229628, 1386.3573, 1386.3573, 0.000000001718879, 9.999508, 10.000228 
4.0504983e+2, 1.2426008e+2, -1520145.6, -1690892.1, 21005.82, 0.040614463, -0.0064110556, -1517599.4, 204651.94, 0.000028702449, 10.001647, 9.999365 
4.050418e+2, 1.3425946e+2, -1548715.8, -1715814.3, -17637.613, -0.23528801, 0.04297817, -1546874.4, 77384.34, 0.000010028613, 10.001026, 9.998831 
4.0504095e+2, 1.4425835e+2, -1428053.3, -1517752.5, 14630.41, 0.13071835, 0.01263578, -1425727.3, 100542.39, 0.0000013962007, 10.000804, 9.999617 
4.0503496e+2, 1.5425768e+2, -1291194.8, -1394296.1, -4690.8813, -0.01950857, -0.023533592, -1290981.8, 137292.36, 0.000000006286357, 10.001044, 9.999676 
4.050301e+2, 1.6425715e+2, -1228122.3, -1368149.3, 12327.01, -0.07443107, -0.021528192, -1227045.4, 103233.516, 0.0, 10.001041, 9.999184 
4.0502608e+2, 1.7425682e+2, -1180987.0, -1296963.4, 21220.197, -0.073150046, 0.026152138, -1177226.3, 55056.832, 0.0, 10.000703, 9.999163 
4.0502203e+2, 1.8425605e+2, -1117757.4, -1212525.3, 7904.3755, -0.05722756, 0.03209931, -1117102.5, 17188.441, 0.0, 10.00045, 9.999191 
4.0501812e+2, 1.9425468e+2, -1034739.56, -1119931.5, -883.3221, 0.001421966, -0.02842057, -1034730.4, 1573.2887, 0.0, 10.0003395, 9.9992075 
4.0501398e+2, 2.0425373e+2, -961968.75, -1039745.8, -3109.181, 0.0349615, -0.038870513, -961844.7, -23531.98, 0.0, 10.000192, 9.999157 
4.050094e+2, 2.1425341e+2, -892169.94, -954224.7, -1203.9348, 0.025826013, 0.009090555, -892146.6, -51830.195, 0.0, 9.999993, 9.9991665 
4.05005e+2, 2.2425275e+2, -809136.06, -871094.75, 12484.476, 0.01630231, 0.029450066, -806715.06, -64392.098, 0.0, 9.999923, 9.999098 
4.0500093e+2, 2.3425163e+2, -695851.1, -764845.75, 1753.908, 0.009497381, 0.0030576363, -695806.56, -51473.46, 0.0, 10.000024, 9.999105 
4.049969e+2, 2.442504e+2, -631669.56, -728174.2, -8684.547, 0.021415265, -0.01099005, -630894.3, -84549.26, 0.0, 9.999985, 9.998704 
4.0499294e+2, 2.5424907e+2, -567247.94, -647825.0, 4218.5747, 0.05647452, -0.015302724, -567027.7, -118668.96, 0.0, 9.999761, 9.998691 
4.0498868e+2, 2.64248e+2, -467132.28, -511640.03, 7214.479, 0.05977772, -0.004635602, -465992.06, -115622.75, 0.0, 9.999616, 9.9990225 
4.0498394e+2, 2.7424726e+2, -368627.13, -409233.5, 443.91632, 0.023762729, 0.011034143, -368622.25, -116246.11, 0.0, 9.999601, 9.99906 
4.0497968e+2, 2.8424606e+2, -300596.22, -359265.25, 2169.152, 0.026726494, -0.0005103626, -300516.13, -146127.56, 0.0, 9.999539, 9.99876 
4.049759e+2, 2.9424444e+2, -229309.34, -279792.47, 14637.54, 0.07478609, -0.040403783, -225372.25, -168965.77, 0.0, 9.99938, 9.99871 
4.0497217e+2, 3.042448e+2, -132809.55, -105051.914, 55151.508, 0.047072355, 0.081672944, -62059.74, -62059.74, 0.0, 9.999266, 9.999631 
4.049685e+2, 3.142436e+2, -70658.82, 23935.38, -22406.057, -0.023770886, -0.009937594, 28974.186, 28974.186, 0.00000001196501, 9.999263, 10.000519 
4.1505134e+2, 1.242652e+2, -1505803.5, -1659567.1, 8115.0674, 0.024234042, 0.07103689, -1505376.4, 216827.47, 0.000021697306, 10.001641, 9.999581 
4.1504282e+2, 1.3426384e+2, -1532114.3, -1683712.6, -39822.848, -0.23775192, 0.024819966, -1522290.0, 101926.09, 0.000006740833, 10.001034, 9.999048 
4.1504186e+2, 1.4426239e+2, -1440510.5, -1543733.8, 21835.693, 0.14252672, -0.0433107, -1436081.5, 90148.2, 0.0000006540361, 10.000806, 9.999438 
4.1503555e+2, 1.5426233e+2, -1305570.1, -1423424.8, 4913.387, -0.06739946, 0.0010172873, -1305365.6, 122864.21, 0.0000000002364484, 10.001041, 9.999476 
4.1503078e+2, 1.6426197e+2, -1216026.6, -1341844.4, 732.9451, -0.11016212, 0.02310097, -1216022.4, 114210.71, 0.0, 10.001037, 9.999367 
4.150275e+2, 1.7426121e+2, -1166306.8, -1265997.4, 8823.281, -0.00479956, 0.006539439, -1165531.9, 66708.32, 0.0, 10.000701, 9.999376 
4.1502333e+2, 1.8426035e+2, -1127717.8, -1232992.8, 2579.8198, 0.025245577, -0.00031698187, -1127654.6, 6593.8896, 0.0, 10.00045, 9.999051 
4.150183e+2, 1.942594e+2, -1046996.44, -1144535.3, -4531.979, -0.01926076, -0.0027300199, -1046786.3, -10528.111, 0.0, 10.000337, 9.99904 
4.1501355e+2, 2.042586e+2, -959269.3, -1033292.0, -10624.6455, -0.027277349, 0.008123639, -957774.56, -19508.506, 0.0, 10.000188, 9.999203 
4.1500914e+2, 2.1425806e+2, -888107.75, -944832.25, -8235.81, 0.004002957, 0.027063899, -886936.2, -46664.957, 0.0, 9.9999895, 9.999232 
4.1500494e+2, 2.2425708e+2, -829616.75, -913053.3, 15171.483, 0.019078596, 0.025979055, -826943.7, -84662.984, 0.0, 9.999921, 9.998812 
4.1500098e+2, 2.3425554e+2, -718321.06, -810711.75, 6023.2876, 0.015604132, -0.010645653, -717930.06, -73634.41, 0.0, 10.000021, 9.998793 
4.1499695e+2, 2.442543e+2, -610157.7, -682851.7, -16610.67, 0.028758364, -0.022132166, -606541.94, -60234.453, 0.0, 9.999982, 9.999017 
4.1499278e+2, 2.5425354e+2, -541904.75, -595179.25, -4042.6643, 0.063572265, -0.0077332426, -541599.75, -93285.01, 0.0, 9.99976, 9.999052 
4.1498834e+2, 2.6425263e+2, -476754.2, -531074.25, 5576.7334, 0.065819874, 0.005453259, -476187.56, -125864.11, 0.0, 9.999614, 9.99889 
4.1498357e+2, 2.7425152e+2, -382099.63, -434956.75, 848.2294, 0.024160437, 0.0032133698, -382086.03, -129751.63, 0.0, 9.999592, 9.998888 
4.149791e+2, 2.8425023e+2, -290855.3, -337165.97, -3750.1187, 0.014330863, -0.015485391, -290553.6, -136205.98, 0.0, 9.999532, 9.998917 
4.1497502e+2, 2.9424882e+2, -216012.89, -252372.25, 8545.025, 0.046994086, -0.053971276, -214104.81, -157742.4, 0.0, 9.999381, 9.998898 
4.149714e+2, 3.0424905e+2, -173918.4, -190809.58, 53966.8, 0.044327024, 0.07638355, -127740.336, -127740.336, 0.0, 9.999269, 9.99904 
4.149681e+2, 3.1424728e+2, -90585.22, -14347.126, -22881.893, 0.00886235, -0.014566259, -8006.7227, -8006.7227, 0.000000036873733, 9.99925, 10.00026 
4.25053e+2, 1.2426971e+2, -1526918.1, -1660228.8, 23181.963, 0.03955711, 0.066214465, -1523001.9, 199158.58, 0.000015823704, 10.001458, 9.999664 
4.250438e+2, 1.3426857e+2, -1482733.3, -1651543.4, -48145.242, -0.25947225, 0.033499807, -1469967.5, 154202.77, 0.0000041887733, 10.001338, 9.999124 
4.2504275e+2, 1.442671e+2, -1393489.3, -1525986.6, 23757.805, 0.1317883, -0.038067, -1389358.1, 136825.88, 0.00000021832761, 10.00115, 9.999393 
4.250363e+2, 1.5426713e+2, -1352939.0, -1451933.8, 16671.68, -0.078840174, 0.021582494, -1350206.8, 77976.89, 0.0, 10.000742, 9.999426 
4.2503154e+2, 1.6426675e+2, -1286251.8, -1369997.4, 14105.394, -0.11243027, 0.042829964, -1283939.8, 46247.242, 0.0, 10.000531, 9.999416 
4.2502832e+2, 1.7426582e+2, -1172754.8, -1262774.4, 8956.437, 0.012019413, 0.002706463, -1171872.3, 60323.145, 0.0, 10.00063, 9.999433 
4.2502406e+2, 1.8426494e+2, -1097919.9, -1212978.0, 3243.5476, 0.044622984, -0.01221742, -1097828.5, 36375.016, 0.0, 10.00063, 9.999101 
4.2501867e+2, 1.9426417e+2, -1020670.3, -1126351.1, 11881.1455, -0.020883774, -0.0011524673, -1019351.0, 16860.076, 0.0, 10.000494, 9.999088 
4.2501372e+2, 2.0426339e+2, -930639.1, -1035115.5, 11245.032, -0.039522044, 0.013336244, -929442.5, 8776.377, 0.0, 10.000453, 9.999063 
4.2500934e+2, 2.1426257e+2, -819135.8, -928948.25, -3343.6062, -0.004183264, 0.02162968, -819034.1, 21192.74, 0.0, 10.000538, 9.999078 
4.250051e+2, 2.2426142e+2, -762145.3, -885818.44, 16777.82, 0.018286487, 0.014769838, -759909.6, -17671.527, 0.0, 10.000407, 9.998763 
4.2500108e+2, 2.3425987e+2, -725053.94, -818159.56, 27025.73, 0.026012598, -0.019355606, -717777.8, -73524.58, 0.0, 9.999993, 9.9987545 
4.249969e+2, 2.4425869e+2, -628797.8, -682032.9, 12367.523, 0.036572207, -0.02790692, -626064.9, -79800.33, 0.0, 9.999812, 9.999104 
4.249925e+2, 2.5425804e+2, -507605.78, -568099.9, 4285.813, 0.05028082, -0.011049163, -507303.66, -59033.227, 0.0, 9.99995, 9.999146 
4.2498794e+2, 2.642572e+2, -437344.34, -518480.94, 2588.5767, 0.05024619, 0.0069502234, -437261.84, -86983.26, 0.0, 9.999911, 9.998834 
4.2498323e+2, 2.7425614e+2, -381932.1, -441654.63, 4920.239, 0.031877965, 0.01295408, -381529.44, -129239.555, 0.0, 9.999621, 9.998827 
4.2497864e+2, 2.8425485e+2, -291324.9, -324551.34, 8747.481, 0.02089171, -0.005131727, -289162.7, -134859.97, 0.0, 9.999473, 9.999031 
4.249742e+2, 2.9425344e+2, -185960.77, -223178.67, 15268.163, 0.021722399, -0.056292333, -180498.78, -124182.34, 0.0, 9.999523, 9.99903 
4.2497066e+2, 3.0425346e+2, -171715.08, -223212.02, 66541.73, 0.03469241, 0.060511146, -126113.81, -126113.81, 0.0, 9.999427, 9.998741 
4.2496762e+2, 3.1425148e+2, -102720.13, -15073.209, 12418.087, 0.041332208, -0.016264686, -13347.744, -13347.744, 0.00000007454206, 9.999144, 10.000308 
4.350549e+2, 1.2427365e+2, -1531442.8, -1669750.5, 29439.678, 0.08015361, -0.017727071, -1525437.1, 196683.86, 0.0000113764345, 10.00146, 9.999598 
4.350447e+2, 1.3427362e+2, -1487447.4, -1662621.3, -50736.906, -0.30197862, 0.06935279, -1473813.3, 150307.95, 0.0000025044064, 10.001342, 9.999046 
4.3504354e+2, 1.4427246e+2, -1386945.5, -1512087.0, 10105.264, 0.095670775, 0.027679315, -1386134.8, 139997.84, 0.000000047491298, 10.001149, 9.99949 
4.3503726e+2, 1.5427211e+2, -1345747.1, -1436724.9, 1698.5657, -0.058254365, 0.03675161, -1345715.4, 82420.24, 0.0, 10.00074, 9.999531 
4.3503234e+2, 1.6427153e+2, -1293451.4, -1384176.3, 16098.771, -0.08608267, 0.03677939, -1290679.4, 39461.453, 0.0, 10.000528, 9.99932 
4.3502858e+2, 1.7427066e+2, -1180578.9, -1278419.6, 13471.624, -0.023926705, 0.01483566, -1178757.9, 53390.89, 0.0, 10.0006275, 9.999326 
4.3502423e+2, 1.842698e+2, -1081887.6, -1178752.1, -1628.3121, -0.0010838294, -0.0026793682, -1081860.3, 52295.85, 0.0, 10.000627, 9.999338 
4.350193e+2, 1.9426899e+2, -1002507.56, -1087922.8, 7055.2773, -0.0059003797, -0.023147572, -1001928.75, 34233.75, 0.0, 10.000491, 9.999353 
4.3501455e+2, 2.0426804e+2, -954206.8, -1082976.8, 13674.879, -0.004312657, -0.02342078, -952770.6, -14599.204, 0.0, 10.000448, 9.998736 
4.3500993e+2, 2.1426694e+2, -845915.2, -983569.3, 494.309, -0.001318872, -0.0066533964, -845913.4, -5730.053, 0.0, 10.000534, 9.998705 
4.3500543e+2, 2.2426578e+2, -749248.94, -858424.44, 2161.9248, 0.011213118, -0.0031803313, -749206.2, -7011.069, 0.0, 10.000403, 9.998953 
4.3500122e+2, 2.3426458e+2, -708773.44, -783914.2, 11671.745, 0.039133564, -0.024027731, -707002.2, -62796.133, 0.0, 9.999991, 9.998991 
4.3499678e+2, 2.442635e+2, -639224.7, -703083.2, 15768.77, 0.043218844, -0.029325807, -635543.1, -89326.68, 0.0, 9.999809, 9.9989605 
4.349921e+2, 2.5426257e+2, -520309.6, -593689.4, 10121.625, 0.01329296, -0.024492862, -518939.06, -70713.2, 0.0, 9.999947, 9.998973 
4.3498746e+2, 2.6426172e+2, -435886.9, -514722.6, -7628.6553, 0.01000657, 0.00059274613, -435155.5, -84920.78, 0.0, 9.9999075, 9.998861 
4.3498302e+2, 2.7426103e+2, -379014.5, -435049.75, -6085.959, 0.04432931, 0.04090858, -378361.13, -126118.43, 0.0, 9.999619, 9.998874 
4.3497837e+2, 2.842599e+2, -286600.38, -313410.84, 9300.546, 0.0436077, 0.03100424, -283689.94, -129436.05, 0.0, 9.999468, 9.99911 
4.3497348e+2, 2.9425827e+2, -181251.97, -212138.39, 18104.398, -0.004881145, -0.048026934, -172898.92, -116630.2, 0.0, 9.999518, 9.999107 
4.3496987e+2, 3.04258e+2, -172302.77, -223209.81, 55777.684, 0.014457027, 0.033308484, -136445.34, -136445.34, 0.0, 9.999423, 9.998743 
4.34967e+2, 3.1425625e+2, -78890.81, 36219.566, 4317.3687, 0.066016756, -0.021085996, 36381.27, 36381.27, 0.0000001100893, 9.999137, 10.000664 
4.4505644e+2, 1.2427851e+2, -1487197.0, -1655976.0, 49451.69, 0.07135663, -0.03857484, -1473775.1, 248297.88, 0.000008277144, 10.001799, 9.999528 
4.450458e+2, 1.3427874e+2, -1512658.1, -1682864.9, -42316.605, -0.32022327, 0.08170927, -1502717.9, 121353.336, 0.0000015575915, 10.001202, 9.998977 
4.450446e+2, 1.4427751e+2, -1429856.0, -1534309.9, 20775.15, 0.10301945, 0.038179312, -1425875.6, 100207.88, 0.000000013935479, 10.000861, 9.999476 
4.450381e+2, 1.5427704e+2, -1341431.6, -1435706.9, 217.47636, -0.048026733, 0.03610929, -1341431.1, 86656.43, 0.0, 10.000775, 9.99952 
4.4503295e+2, 1.6427639e+2, -1270473.4, -1370187.3, 23469.807, -0.08506989, 0.0296338, -1265225.4, 64867.73, 0.0, 10.000674, 9.999346 
4.4502893e+2, 1.7427556e+2, -1187632.3, -1278126.0, 31933.572, -0.049935076, 0.0073358417, -1177498.3, 54602.145, 0.0, 10.000565, 9.999358 
4.4502458e+2, 1.8427473e+2, -1093068.5, -1186495.9, 14667.817, -0.027373862, -0.008352977, -1090819.9, 43287.45, 0.0, 10.000561, 9.999315 
4.4502e+2, 1.9427392e+2, -974041.25, -1077132.1, 738.2623, 0.0028968623, -0.024586668, -974035.94, 62077.652, 0.0, 10.0007, 9.999327 
4.450153e+2, 2.0427296e+2, -925331.94, -1066895.4, 3868.9692, 0.018047174, -0.027922977, -925226.3, 12896.465, 0.0, 10.000637, 9.9987545 
4.4501036e+2, 2.1427174e+2, -877541.8, -996342.6, 19412.201, 0.0054535917, -0.023278464, -874450.25, -34314.81, 0.0, 10.000306, 9.998726 
4.450057e+2, 2.2427061e+2, -788151.06, -873288.3, 29342.857, 0.013479128, -0.019517217, -779017.75, -36870.93, 0.0, 10.000121, 9.998987 
4.450014e+2, 2.342696e+2, -686180.2, -769475.5, 22702.84, 0.050855786, -0.025411643, -680394.25, -36238.164, 0.0, 10.000131, 9.9990225 
4.4499683e+2, 2.4426857e+2, -606473.5, -698010.5, 28186.559, 0.052086443, -0.023537409, -598490.4, -52324.164, 0.0, 10.00008, 9.998865 
4.4499195e+2, 2.542675e+2, -527089.7, -607791.0, 27639.543, 0.0037341749, -0.021605771, -518531.03, -70353.77, 0.0, 9.999948, 9.998875 
4.4498718e+2, 2.6426652e+2, -449053.6, -527047.56, 4793.221, -0.0042451634, -0.0028688794, -448760.13, -98572.52, 0.0, 9.999844, 9.998807 
4.449827e+2, 2.7426568e+2, -358128.13, -431075.63, -2295.5776, 0.043473434, 0.030282289, -358055.97, -105859.266, 0.0, 9.999788, 9.99882 
4.4497797e+2, 2.842646e+2, -252745.66, -304292.9, 10486.274, 0.04524343, 0.02943572, -250694.08, -96486.33, 0.0, 9.99973, 9.999047 
4.4497296e+2, 2.9426315e+2, -167968.77, -211593.33, 7422.169, -0.012338256, -0.02614838, -166740.56, -110519.305, 0.0, 9.999635, 9.999056 
4.4496933e+2, 3.042625e+2, -168993.61, -218568.33, 32997.887, 0.01717624, 0.019712636, -152510.23, -152510.23, 0.00000000000009396187, 9.999431, 9.998772 
4.4496614e+2, 3.1426093e+2, -60539.87, 77750.51, -17249.0, 0.065161794, -0.023295471, 79869.516, 79869.516, 0.00000013361628, 9.999123, 10.000956 
4.5505762e+2, 1.24284215e+2, -1490437.3, -1663083.6, 39087.02, 0.0074530635, -0.0014164064, -1482000.3, 240016.94, 0.0000061456926, 10.001801, 9.999478 
4.5504704e+2, 1.342839e+2, -1516187.1, -1690519.3, -63167.094, -0.31658542, 0.06897605, -1495705.5, 128315.06, 0.0000010596042, 10.001201, 9.998925 
4.5504597e+2, 1.4428225e+2, -1439885.0, -1554407.1, 17712.47, 0.1499436, -0.006240372, -1437208.1, 88828.74, 0.000000007555667, 10.000858, 9.999339 
4.5503888e+2, 1.5428196e+2, -1351306.0, -1456088.6, -1982.5791, -0.05177213, 0.021818742, -1351268.5, 76770.95, 0.0, 10.000775, 9.99938 
4.5503336e+2, 1.6428138e+2, -1259098.0, -1347000.5, 18907.225, -0.11287069, 0.023684835, -1255203.6, 74840.21, 0.0, 10.000676, 9.999504 
4.5502934e+2, 1.7428052e+2, -1175406.3, -1252314.0, 28443.498, -0.067446396, -0.02012047, -1166029.9, 66020.65, 0.0, 10.000564, 9.999536 
4.5502502e+2, 1.8427971e+2, -1113861.0, -1228026.4, 19253.035, -0.03640591, -0.030568516, -1110701.6, 23355.885, 0.0, 10.000554, 9.999033 
4.550207e+2, 1.9427899e+2, -996848.7, -1123414.0, 6491.669, 0.002775882, -0.0057474584, -996516.56, 39547.883, 0.0, 10.000696, 9.999011 
4.5501602e+2, 2.0427811e+2, -900662.25, -1014536.8, -7775.9937, 0.024478137, 0.000069293244, -900133.7, 37939.27, 0.0, 10.000632, 9.999117 
4.550108e+2, 2.14277e+2, -848455.44, -935450.94, 7381.978, 0.014689149, -0.028051047, -847833.5, -7750.2754, 0.0, 10.000304, 9.999145 
4.5500594e+2, 2.2427593e+2, -797775.0, -892699.06, 28490.135, 0.023740053, -0.034743834, -789880.6, -47787.207, 0.0, 10.000119, 9.998856 
4.5500162e+2, 2.3427492e+2, -698594.8, -795017.1, 23363.389, 0.059269097, -0.022668952, -693232.06, -49128.723, 0.0, 10.00013, 9.998848 
4.54997e+2, 2.4427389e+2, -609847.3, -704581.5, 22993.729, 0.060994543, -0.009205894, -604561.25, -58447.43, 0.0, 10.000078, 9.998821 
4.5499203e+2, 2.5427282e+2, -529860.7, -611978.44, 22630.793, 0.019310754, -0.003173069, -524036.88, -75912.164, 0.0, 9.999941, 9.99885 
4.549871e+2, 2.6427156e+2, -459307.2, -547366.7, 2158.6719, 0.005786817, -0.0042010625, -459254.3, -109116.85, 0.0, 9.99984, 9.99867 
4.549823e+2, 2.7427012e+2, -368648.22, -453238.66, -3465.33, 0.025801217, -0.02017656, -368506.5, -116354.29, 0.0, 9.999789, 9.998668 
4.5497748e+2, 2.8426892e+2, -267797.38, -334601.9, 6426.927, 0.02236159, -0.011097492, -267184.72, -113020.234, 0.0, 9.999726, 9.99884 
4.5497268e+2, 2.9426804e+2, -182377.45, -239780.17, 3372.5513, -0.0043412736, 0.01037836, -182179.98, -126005.89, 0.0, 9.999628, 9.998865 
4.54969e+2, 3.0426696e+2, -166796.13, -211681.9, 20998.941, 0.039741512, 0.021146812, -158504.05, -158504.05, 0.00000000000087855477, 9.999422, 9.998823 
4.5496494e+2, 3.142653e+2, -45238.418, 110455.55, -25261.713, 0.031587526, -0.034398887, 114451.75, 114451.75, 0.00000014519496, 9.999119, 10.001182 
4.6505892e+2, 1.24289826e+2, -1560556.3, -1696570.6, 35953.02, -0.015385913, 0.031092709, -1551637.5, 170325.67, 0.000004581255, 10.001324, 9.999475 
4.6504822e+2, 1.3428934e+2, -1511110.0, -1686447.3, -76027.68, -0.3198106, 0.081645794, -1482735.5, 141232.6, 0.0000007444035, 10.001228, 9.99894 
4.6504715e+2, 1.4428744e+2, -1407931.1, -1544216.0, 18337.465, 0.1720766, -0.017634047, -1405506.9, 120479.58, 0.0000000034677494, 10.0011015, 9.999292 
4.650396e+2, 1.542871e+2, -1343525.8, -1457620.4, 4273.18, -0.05806301, 0.012253492, -1343365.9, 84622.93, 0.0, 10.000853, 9.999333 
4.6503395e+2, 1.6428655e+2, -1259733.5, -1352797.3, 26356.951, -0.12285164, 0.021025931, -1252787.3, 77205.57, 0.0, 10.000695, 9.999455 
4.6503013e+2, 1.7428577e+2, -1163170.9, -1252081.9, 18162.842, -0.049263086, -0.009192605, -1159603.6, 72395.414, 0.0, 10.00067, 9.999486 
4.650258e+2, 1.842849e+2, -1116289.6, -1231816.3, 10315.092, -0.013850597, -0.021853296, -1115375.9, 18630.705, 0.0, 10.000548, 9.99901 
4.6502116e+2, 1.9428395e+2, -1054136.9, -1153427.8, 19965.479, -0.0019307691, -0.018743137, -1050272.6, -14257.249, 0.0, 10.000313, 9.998989 
4.6501637e+2, 2.0428303e+2, -958153.3, -1036878.7, 4383.8096, 0.015833704, -0.01604795, -957909.94, -19885.957, 0.0, 10.000215, 9.999164 
4.6501124e+2, 2.1428218e+2, -846904.5, -929177.75, -9372.404, 0.030605922, -0.022917166, -845850.3, -5818.306, 0.0, 10.000291, 9.999194 
4.6500632e+2, 2.2428119e+2, -768266.5, -879324.3, 6111.454, 0.03858249, -0.024312926, -767931.2, -25889.72, 0.0, 10.000324, 9.998848 
4.650016e+2, 2.3428003e+2, -674886.5, -784331.8, 13179.751, 0.039363656, -0.026942005, -673321.75, -29269.186, 0.0, 10.000297, 9.99884 
4.649969e+2, 2.4427892e+2, -596967.94, -707552.2, 13861.169, 0.037642356, -0.017613785, -595256.94, -49193.09, 0.0, 10.000207, 9.998738 
4.6499217e+2, 2.5427783e+2, -521582.97, -618735.2, 7616.879, 0.034027413, -0.0028017412, -520989.4, -72914.07, 0.0, 10.000043, 9.9987545 
4.6498722e+2, 2.6427653e+2, -440935.66, -529331.3, -3896.8306, 0.02652288, -0.008754391, -440764.2, -90675.61, 0.0, 9.999926, 9.998753 
4.6498197e+2, 2.7427498e+2, -351084.7, -433600.7, 7934.1685, 0.009954975, -0.04534928, -350328.72, -98225.22, 0.0, 9.999863, 9.998767 
4.6497694e+2, 2.842738e+2, -271156.2, -347246.03, 29849.34, -0.003366336, -0.033030715, -260844.1, -106728.945, 0.0, 9.999751, 9.998741 
4.649723e+2, 2.942731e+2, -200260.48, -260006.9, 32078.102, -0.001301324, 0.01760454, -186299.77, -130175.98, 0.0, 9.999555, 9.998762 
4.6496856e+2, 3.042716e+2, -181595.03, -230499.77, 46785.277, 0.059752055, -0.004397536, -153257.42, -153257.42, 0.00000000000042122027, 9.999369, 9.99872 
4.6496397e+2, 3.1427038e+2, -36100.016, 104955.57, -11143.186, 0.017342359, -0.00558774, 105830.445, 105830.445, 0.00000014428599, 9.999223, 10.001096 
4.7506037e+2, 1.24295324e+2, -1559872.3, -1693681.6, 44834.152, -0.0067650657, 0.058334507, -1546239.1, 175671.88, 0.0000033199578, 10.001316, 9.999498 
4.750493e+2, 1.3429505e+2, -1506041.0, -1677200.1, -77693.54, -0.3357752, 0.12295733, -1476034.5, 147879.19, 0.00000048107097, 10.001231, 9.999003 
4.7504818e+2, 1.4429304e+2, -1402965.4, -1535860.1, 9883.458, 0.16347517, 0.0074011898, -1402234.3, 123698.03, 0.000000000765976, 10.001109, 9.999347 
4.7504038e+2, 1.5429243e+2, -1340188.6, -1450010.5, -4489.8086, -0.067648254, 0.0057902345, -1340005.4, 87930.59, 0.0, 10.00085, 9.999387 
4.7503468e+2, 1.6429187e+2, -1278453.1, -1390607.9, 24910.848, -0.11672531, 0.020667972, -1273169.1, 56771.152, 0.0, 10.00069, 9.999198 
4.750313e+2, 1.7429131e+2, -1182714.4, -1292449.8, 18063.504, -0.0010054681, 0.040340032, -1179817.5, 52128.535, 0.0, 10.00067, 9.999208 
4.7502682e+2, 1.8429032e+2, -1099454.1, -1196719.9, 1585.9957, 0.03400742, 0.01925351, -1099428.3, 34526.234, 0.0, 10.000547, 9.999252 
4.7502136e+2, 1.9428879e+2, -1034374.4, -1112476.8, 11693.975, -0.011870296, -0.06348329, -1032661.06, 3305.387, 0.0, 10.000313, 9.99927 
4.7501633e+2, 2.0428774e+2, -978917.9, -1078356.9, 6229.819, -0.008859206, -0.07646085, -978529.06, -40553.21, 0.0, 10.000208, 9.998882 
4.7501174e+2, 2.1428733e+2, -869781.4, -976291.3, -6196.428, 0.050674636, -0.0077430187, -869422.1, -29440.297, 0.0, 10.00029, 9.998871 
4.7500682e+2, 2.2428642e+2, -760281.0, -862031.1, 4739.7173, 0.05466873, 0.012191685, -760060.7, -18069.717, 0.0, 10.00032, 9.998969 
4.7500142e+2, 2.3428494e+2, -663810.94, -760622.56, 12484.711, -0.01094019, -0.03934096, -662226.8, -18222.957, 0.0, 10.000293, 9.999005 
4.7499654e+2, 2.4428365e+2, -606862.75, -727617.3, 7613.589, -0.02009175, -0.05010182, -606384.6, -60368.047, 0.0, 10.000205, 9.998602 
4.7499233e+2, 2.5428256e+2, -532955.6, -642727.94, 1718.5396, 0.045096774, -0.020251304, -532928.75, -84899.555, 0.0, 10.000045, 9.9985895 
4.7498742e+2, 2.642814e+2, -420099.25, -485779.16, -7000.531, 0.055705454, -0.015454417, -419361.4, -69320.4, 0.0, 9.999925, 9.999052 
4.7498167e+2, 2.7428025e+2, -327955.88, -383689.7, 5800.125, -0.007435555, -0.04430755, -327358.66, -75308.055, 0.0, 9.999855, 9.999113 
4.749764e+2, 2.8427926e+2, -271379.4, -346112.6, 22608.252, -0.03467971, -0.035607915, -265072.25, -111012.36, 0.0, 9.999744, 9.998753 
4.749718e+2, 2.9427832e+2, -200508.38, -260697.23, 25428.44, -0.0073483116, -0.0072240275, -191203.81, -135133.2, 0.0, 9.999556, 9.998757 
4.7496808e+2, 3.042764e+2, -201225.92, -269630.66, 39880.82, 0.074011594, -0.060264565, -182889.9, -182889.9, 0.0, 9.999363, 9.998454 
4.7496316e+2, 3.1427604e+2, -64555.957, 48732.355, -9969.133, 0.014237406, 0.05426008, 49602.93, 49602.93, 0.00000012581201, 9.999211, 10.000713 
4.8506165e+2, 1.24300465e+2, -1592953.0, -1702884.6, 51461.758, 0.0013567425, 0.053314053, -1572622.4, 149238.63, 0.0000022837717, 10.001064, 9.999556 
4.8505023e+2, 1.3430046e+2, -1541641.6, -1684738.6, -83911.2, -0.348632, 0.13659412, -1502916.5, 120944.58, 0.0000002759338, 10.000944, 9.999091 
4.850492e+2, 1.4429848e+2, -1420099.6, -1536805.1, 7178.7036, 0.1611939, 0.015454229, -1419659.8, 106219.37, 0.000000000009128432, 10.00096, 9.999412 
4.8504135e+2, 1.542978e+2, -1311621.5, -1429852.1, -9842.773, -0.06360044, 0.00065514905, -1310807.8, 117074.84, 0.0, 10.001017, 9.999445 
4.850356e+2, 1.6429716e+2, -1262309.8, -1398899.3, 21815.531, -0.10713977, 0.011935075, -1258910.0, 70977.42, 0.0, 10.000871, 9.999055 
4.8503202e+2, 1.7429654e+2, -1216834.9, -1326525.0, 23078.648, 0.014612952, 0.041418325, -1212176.9, 19717.596, 0.0, 10.000512, 9.999051 
4.8502746e+2, 1.842955e+2, -1124689.6, -1202853.8, 9465.817, 0.052533504, 0.02181602, -1123559.6, 10343.948, 0.0, 10.000347, 9.999308 
4.8502186e+2, 1.9429398e+2, -1014304.2, -1094782.9, 3224.3914, 0.0014370688, -0.06817274, -1014175.25, 21739.635, 0.0, 10.000415, 9.999344 
4.850167e+2, 2.0429282e+2, -957190.5, -1082252.0, -1288.217, -0.0025224485, -0.089075156, -957177.25, -19252.219, 0.0, 10.000418, 9.998756 
4.8501202e+2, 2.1429217e+2, -873849.6, -993888.1, -35.407345, 0.048741423, -0.028767478, -873849.6, -33916.273, 0.0, 10.000329, 9.998733 
4.8500705e+2, 2.2429125e+2, -765048.25, -857334.1, 15675.716, 0.05130775, -0.0075167976, -762458.25, -20515.26, 0.0, 10.000258, 9.999031 
4.8500168e+2, 2.3428997e+2, -670118.4, -755543.56, 15552.37, -0.009384556, -0.04519202, -667375.06, -23421.059, 0.0, 10.000214, 9.999078 
4.8499668e+2, 2.4428879e+2, -623870.94, -730404.3, 7463.573, -0.02036307, -0.050931413, -623350.6, -77384.98, 0.0, 10.000064, 9.998651 
4.8499212e+2, 2.5428766e+2, -569600.4, -654663.9, 15895.818, 0.03379527, -0.028821874, -566727.0, -118748.625, 0.0, 9.999769, 9.998639 
4.8498714e+2, 2.6428652e+2, -459166.28, -501814.53, 15181.365, 0.04770982, -0.026282765, -454314.22, -104324.16, 0.0, 9.999646, 9.999076 
4.849816e+2, 2.7428547e+2, -343951.7, -389509.94, 4192.5093, 0.0067853527, -0.04905238, -343569.1, -91569.77, 0.0, 9.999738, 9.99913 
4.8497623e+2, 2.8428462e+2, -265482.34, -333918.75, 5632.8984, -0.023745967, -0.031855088, -265021.8, -111014.54, 0.0, 9.999744, 9.9988365 
4.8497114e+2, 2.9428384e+2, -181797.25, -240748.16, 13645.042, -0.032318603, 0.0061546187, -178792.11, -122776.43, 0.0, 9.999637, 9.998856 
4.8496726e+2, 3.0428162e+2, -183585.27, -260267.45, 41265.242, 0.049807455, -0.08201379, -165598.22, -165598.22, 0.0, 9.999479, 9.998463 
4.8496237e+2, 3.1428164e+2, -75729.14, 18429.988, 16243.871, 0.013334182, 0.07267685, 21153.523, 21153.523, 0.00000009052117, 9.999242, 10.000491 
4.9506268e+2, 1.2430523e+2, -1586718.4, -1690312.9, 60571.43, -0.0024976172, 0.016550666, -1558817.1, 162996.58, 0.0000015131136, 10.001066, 9.99964 
4.950511e+2, 1.3430554e+2, -1534063.9, -1668610.0, -86613.086, -0.3593067, 0.12139001, -1491667.0, 132143.52, 0.00000014199817, 10.000941, 9.999204 
4.9505016e+2, 1.4430371e+2, -1415499.5, -1526717.6, 10273.419, 0.16253304, 0.006488892, -1414558.5, 111268.32, 0.0, 10.000957, 9.999483 
4.9504247e+2, 1.543032e+2, -1306789.1, -1420180.0, -7145.031, -0.052792445, -0.00031188104, -1306340.8, 121487.94, 0.0, 10.001019, 9.999511 
4.9503654e+2, 1.6430245e+2, -1263525.0, -1402949.5, 8234.034, -0.101496935, -0.0006104781, -1263040.4, 66793.83, 0.0, 10.000877, 9.999024 
4.9503237e+2, 1.7430143e+2, -1219418.3, -1332148.1, 10211.911, -0.0024067704, -0.0058393693, -1218500.6, 13344.109, 0.0, 10.000513, 9.999012 
4.9502772e+2, 1.8430045e+2, -1134675.8, -1222220.8, 10934.125, 0.040881645, -0.013874371, -1133330.8, 523.08954, 0.0, 10.000341, 9.999177 
4.9502262e+2, 1.9429949e+2, -1023633.94, -1114344.4, 6360.1685, 0.034700647, -0.03354033, -1023190.1, 12670.71, 0.0, 10.000416, 9.999209 
4.9501744e+2, 2.0429827e+2, -955319.9, -1077556.8, -4717.0664, 0.030267496, -0.054492854, -955138.1, -17266.658, 0.0, 10.000414, 9.998791 
4.9501207e+2, 2.1429676e+2, -870606.44, -986817.94, -2649.502, 0.023342717, -0.087315254, -870546.06, -30659.447, 0.0, 10.000326, 9.998783 
4.9500704e+2, 2.2429566e+2, -766797.9, -859850.4, 13546.278, 0.025918921, -0.08482203, -764865.94, -22968.291, 0.0, 10.000254, 9.999016 
4.9500242e+2, 2.3429516e+2, -671586.8, -758919.56, 14181.841, 0.04279019, -0.043313913, -669341.56, -25438.705, 0.0, 10.000215, 9.999055 
4.949973e+2, 2.4429438e+2, -607842.56, -696613.94, -3512.5376, 0.035191886, -0.018502913, -607703.8, -61792.87, 0.0, 10.000062, 9.998884 
4.949915e+2, 2.542932e+2, -551725.44, -616683.44, 5149.8574, -0.002764133, -0.028574342, -551319.7, -103396.78, 0.0, 9.999765, 9.998902 
4.949863e+2, 2.642919e+2, -477843.78, -539964.5, 17261.127, -0.00076332403, -0.04223847, -473369.75, -123433.695, 0.0, 9.999643, 9.998816 
4.949818e+2, 2.742906e+2, -365406.38, -434029.66, 8191.4116, 0.04989572, -0.06107801, -364442.16, -112492.375, 0.0, 9.999738, 9.998824 
4.949765e+2, 2.8428987e+2, -256042.45, -313175.97, 1619.6807, 0.027595907, -0.022179116, -255996.56, -102039.19, 0.0, 9.99974, 9.998981 
4.949703e+2, 2.942897e+2, -168423.84, -211313.16, 10421.124, -0.07968626, 0.060369566, -166025.83, -110067.0, 0.0, 9.99963, 9.999061 
4.949661e+2, 3.0428734e+2, -165565.67, -220936.16, 32287.643, -0.016047163, -0.06725805, -150718.98, -150718.98, 0.0, 9.999472, 9.998736 
4.9496156e+2, 3.1428716e+2, -79292.6, 12848.935, 14514.391, 0.00679653, 0.041560132, 15081.202, 15081.202, 0.000000050936965, 9.999235, 10.000455 
5.0506395e+2, 1.2431079e+2, -1547320.5, -1682020.6, 111896.34, 0.0053975466, -0.0033336803, -1484068.8, 237688.13, 0.0000009949754, 10.001387, 9.999542 
5.050521e+2, 1.3431083e+2, -1522643.5, -1671379.1, -62924.99, -0.35787177, 0.082213886, -1499594.0, 124162.16, 0.000000065122016, 10.001052, 9.999133 
5.050512e+2, 1.4430891e+2, -1436553.6, -1547081.4, 31173.086, 0.17605639, -0.034025576, -1428367.9, 97405.79, 0.0, 10.000856, 9.999392 
5.0504357e+2, 1.543086e+2, -1343081.8, -1448474.5, -748.151, -0.035953313, -0.009336499, -1343076.5, 84697.75, 0.0, 10.000815, 9.999414 
5.050374e+2, 1.6430783e+2, -1276674.5, -1410073.8, 2839.5935, -0.09206363, -0.007976164, -1276614.0, 53166.28, 0.0, 10.00079, 9.999018 
5.050329e+2, 1.7430647e+2, -1184672.3, -1315384.6, 6241.9004, -0.012922442, -0.048044894, -1184374.9, 47418.625, 0.0, 10.000751, 9.999014 
5.0502807e+2, 1.8430541e+2, -1096978.6, -1215757.5, 16421.729, 0.028524704, -0.055362925, -1094750.1, 39053.02, 0.0, 10.000649, 9.999073 
5.050231e+2, 1.9430484e+2, -1020144.5, -1125144.5, 13346.828, 0.04215262, -0.02665285, -1018474.5, 17333.352, 0.0, 10.000493, 9.999098 
5.0501794e+2, 2.0430376e+2, -948950.56, -1060157.4, 6526.655, 0.04041104, -0.034820843, -948568.8, -10751.371, 0.0, 10.000395, 9.9989195 
5.0501233e+2, 2.1430205e+2, -854636.7, -962491.2, 14628.196, 0.010996382, -0.10190018, -852687.94, -12854.622, 0.0, 10.000364, 9.998931 
5.0500715e+2, 2.2430088e+2, -784578.7, -880280.44, 27412.998, 0.014805945, -0.11059606, -777282.7, -35437.742, 0.0, 10.000182, 9.998911 
5.050027e+2, 2.3430043e+2, -741769.5, -806471.4, 19275.637, 0.064117245, -0.050254118, -736462.4, -92611.61, 0.0, 9.999793, 9.998932 
5.049975e+2, 2.442997e+2, -653218.06, -710037.9, 746.0022, 0.062742166, -0.016839834, -653208.25, -107349.56, 0.0, 9.999715, 9.998959 
5.049914e+2, 2.5429857e+2, -504503.78, -584174.06, -3171.981, -0.004276313, -0.032201942, -504377.72, -56508.04, 0.0, 10.000048, 9.998989 
5.04986e+2, 2.6429728e+2, -426408.94, -527093.4, 1126.7029, -0.015610821, -0.04603512, -426396.34, -76513.53, 0.0, 10.000049, 9.998708 
5.0498134e+2, 2.7429587e+2, -392707.34, -461306.03, 3221.9473, 0.041223228, -0.059408102, -392556.34, -140658.25, 0.0, 9.999611, 9.998697 
5.0497603e+2, 2.8429514e+2, -299866.5, -331376.7, 6568.5493, 0.024882706, -0.015245178, -298552.06, -144645.9, 0.0, 9.999427, 9.999007 
5.0496995e+2, 2.942951e+2, -177219.63, -210075.6, 4048.2922, -0.074480765, 0.07465858, -176728.17, -120821.88, 0.0, 9.999547, 9.999108 
5.049656e+2, 3.0429265e+2, -146897.61, -176020.45, 11249.027, -0.013208877, -0.07838309, -143058.61, -143058.61, 0.0, 9.999446, 9.999057 
5.049604e+2, 3.1429267e+2, -107778.89, -5830.284, 142.23427, -0.024093933, 0.016755747, -5830.086, -5830.086, 0.000000020855737, 9.999062, 10.000411 
5.150655e+2, 1.2431705e+2, -1567547.5, -1722435.4, 109734.555, 0.01557084, -0.010531489, -1510681.3, 211010.4, 0.00000067894854, 10.001379, 9.999269 
5.150532e+2, 1.3431634e+2, -1538521.9, -1705914.9, -74703.42, -0.35066682, 0.02401841, -1510032.3, 113665.57, 0.000000029496794, 10.001058, 9.998894 
5.1505226e+2, 1.443141e+2, -1453990.8, -1585428.1, 28195.39, 0.19293281, -0.099299826, -1448197.8, 77521.49, 0.0, 10.000865, 9.9991255 
5.1504457e+2, 1.54314e+2, -1361647.0, -1486808.4, -1858.2848, -0.015566731, -0.026874002, -1361619.5, 66100.22, 0.0, 10.000814, 9.999152 
5.150383e+2, 1.6431324e+2, -1275078.9, -1406032.1, 893.4538, -0.08098167, -0.010590747, -1275072.8, 54653.348, 0.0, 10.000786, 9.999047 
5.1503354e+2, 1.743116e+2, -1180577.4, -1307656.6, 5207.155, -0.021049041, -0.08568352, -1180364.4, 51376.605, 0.0, 10.000753, 9.999065 
5.150285e+2, 1.8431045e+2, -1102388.4, -1227564.9, 10094.403, 0.009414605, -0.10166895, -1101579.5, 32171.965, 0.0, 10.000652, 9.998991 
5.150234e+2, 1.9431002e+2, -1026672.9, -1138561.1, 7891.4004, 0.022710558, -0.047660805, -1026119.0, 9636.858, 0.0, 10.000491, 9.999007 
5.1501817e+2, 2.0430927e+2, -934698.94, -1028620.5, 4612.47, 0.025939817, -0.030489773, -934472.94, 3289.9883, 0.0, 10.000386, 9.99914 
5.150127e+2, 2.1430804e+2, -837658.4, -927236.8, 13921.894, 0.009840845, -0.07240668, -835544.56, 4228.805, 0.0, 10.000363, 9.999174 
5.150073e+2, 2.2430687e+2, -798611.56, -908580.3, 13248.488, 0.015210886, -0.08515242, -797038.0, -55253.0, 0.0, 10.000178, 9.998718 
5.150023e+2, 2.3430577e+2, -757520.2, -839044.75, 5189.0723, 0.052268688, -0.06735239, -757191.25, -113393.47, 0.0, 9.999792, 9.998709 
5.149971e+2, 2.4430473e+2, -660000.94, -723607.0, 10837.738, 0.05874039, -0.048320375, -658205.0, -112395.92, 0.0, 9.999713, 9.998867 
5.1499176e+2, 2.5430375e+2, -510580.94, -596624.9, 9739.748, 0.027437981, -0.039843157, -509492.22, -61673.625, 0.0, 10.000047, 9.998904 
5.149862e+2, 2.643026e+2, -424198.13, -521898.25, -13593.678, 0.0018936535, -0.03672486, -422342.0, -72511.69, 0.0, 10.000046, 9.998746 
5.149804e+2, 2.743013e+2, -389444.22, -454050.4, -12546.922, -0.022102958, -0.043066178, -387093.1, -135248.84, 0.0, 9.999609, 9.998749 
5.1497483e+2, 2.8430045e+2, -308006.88, -346834.34, 9488.783, -0.03594387, -0.011169367, -305812.03, -151958.33, 0.0, 9.99942, 9.998903 
5.1497e+2, 2.943e+2, -185723.33, -225946.5, 9435.271, -0.020843234, 0.04649064, -183620.05, -127761.62, 0.0, 9.999539, 9.999002 
5.149657e+2, 3.0429757e+2, -122871.39, -124164.36, -3211.2957, 0.0553629, -0.11767434, -120242.15, -120242.15, 0.0, 9.999437, 9.999418 
5.1495886e+2, 3.1429812e+2, -110357.914, -9462.124, -6882.9204, -0.08460548, -0.0016091685, -8994.75, -8994.75, 0.0000000053166334, 9.999055, 10.000389 
5.2506685e+2, 1.2432261e+2, -1597337.4, -1734041.9, 71419.42, 0.022035224, -0.022812514, -1566832.3, 154803.28, 0.0000005002885, 10.001167, 9.999289 
5.2505445e+2, 1.3432193e+2, -1503713.0, -1683012.1, -106263.055, -0.34074727, 0.008950026, -1454334.3, 169306.94, 0.000000016983103, 10.001269, 9.998949 
5.250534e+2, 1.4431962e+2, -1414035.9, -1582986.9, 10430.656, 0.20787165, -0.1155308, -1413394.4, 112268.82, 0.0, 10.001212, 9.998974 
5.2504545e+2, 1.5431935e+2, -1373477.5, -1511129.5, -14488.607, -0.008157946, -0.04551354, -1371969.0, 55697.105, 0.0, 10.0008135, 9.998985 
5.250391e+2, 1.6431858e+2, -1294245.9, -1407914.4, 4087.6084, -0.076833256, -0.02597099, -1294099.0, 35573.99, 0.0, 10.000621, 9.999115 
5.250344e+2, 1.743171e+2, -1175832.3, -1296554.5, 9760.854, -0.009971081, -0.089849696, -1175048.1, 56637.457, 0.0, 10.000746, 9.999146 
5.250293e+2, 1.8431596e+2, -1092579.4, -1227513.9, 10072.82, 0.018121332, -0.10838027, -1091831.6, 41864.31, 0.0, 10.000739, 9.99895 
5.250239e+2, 1.943153e+2, -1023251.3, -1142047.3, 9344.041, 0.01294822, -0.07384493, -1022520.8, 13182.034, 0.0, 10.000538, 9.9989605 
5.2501845e+2, 2.0431449e+2, -943840.94, -1032938.9, 3262.8096, 0.015646474, -0.05773144, -943721.6, -6011.036, 0.0, 10.000323, 9.999141 
5.25013e+2, 2.1431352e+2, -876879.9, -945529.3, -6199.8047, 0.02271855, -0.07511972, -876324.5, -36605.35, 0.0, 10.0000925, 9.999179 
5.250076e+2, 2.2431245e+2, -801185.94, -905515.2, -2611.1235, 0.025076753, -0.07807542, -801120.6, -59390.918, 0.0, 10.000142, 9.998757 
5.250022e+2, 2.343113e+2, -642559.75, -778718.3, 8733.635, 0.023524955, -0.07198602, -642001.8, 1740.9794, 0.0, 10.000561, 9.998753 
5.249969e+2, 2.4431017e+2, -544513.0, -682138.0, 20606.668, 0.02182862, -0.05851884, -541493.8, 4261.215, 0.0, 10.0005665, 9.99874 
5.2499175e+2, 2.543091e+2, -523751.38, -618483.6, 13653.778, 0.02146264, -0.046152588, -521822.72, -74056.7, 0.0, 10.000024, 9.998765 
5.249862e+2, 2.643079e+2, -461761.1, -535527.6, -13362.559, 0.0077495286, -0.041545697, -459415.13, -109636.85, 0.0, 9.999767, 9.998786 
5.2498e+2, 2.743066e+2, -346591.34, -426692.13, -12170.852, -0.029088799, -0.05326825, -344782.88, -92991.086, 0.0, 9.999875, 9.998808 
5.2497435e+2, 2.843057e+2, -269386.66, -335369.47, 11811.221, -0.04237965, -0.02415462, -267336.13, -113534.734, 0.0, 9.999717, 9.998839 
5.249695e+2, 2.9430526e+2, -239293.6, -260820.64, 12902.198, -0.009832043, 0.04134272, -233254.73, -177448.39, 0.0, 9.999209, 9.998922 
5.249651e+2, 3.04303e+2, -159315.8, -133051.22, 594.55005, 0.0691964, -0.107610635, -133037.77, -133037.77, 0.0, 9.999149, 9.9994955 
5.2495813e+2, 3.1430337e+2, -44573.43, -9464.008, -19923.41, -0.093580745, -0.015508019, -464.80777, -464.80777, 0.00000000056215, 9.999641, 10.000108 
5.3506786e+2, 1.2432753e+2, -1576584.8, -1693444.8, 84701.84, 0.010497698, -0.037212655, -1532114.5, 189473.55, 0.00000041209, 10.001177, 9.999562 
5.350559e+2, 1.3432756e+2, -1480946.1, -1636559.3, -101582.766, -0.3312187, 0.035115883, -1430795.9, 192790.22, 0.000000018082496, 10.00127, 9.999269 
5.3505474e+2, 1.4432546e+2, -1416550.0, -1586966.0, -3361.154, 0.21752588, -0.08485985, -1416483.8, 109121.93, 0.0, 10.001206, 9.99895 
5.350462e+2, 1.5432464e+2, -1376884.8, -1518889.6, -29521.268, -0.017587448, -0.06479284, -1370992.1, 56621.53, 0.0, 10.000817, 9.99893 
5.350396e+2, 1.643238e+2, -1287153.5, -1394592.6, 6495.0215, -0.085440174, -0.051427677, -1286762.3, 42858.688, 0.0, 10.000627, 9.999204 
5.350355e+2, 1.74323e+2, -1168459.9, -1281507.0, 15062.549, 0.017803205, -0.060744777, -1166487.4, 65139.938, 0.0, 10.000747, 9.999249 
5.350304e+2, 1.8432193e+2, -1092987.6, -1227320.4, 2835.9949, 0.05143122, -0.07619408, -1092927.9, 40708.66, 0.0, 10.000734, 9.998954 
5.3502434e+2, 1.9432062e+2, -1023673.44, -1143073.4, 1918.0898, 0.010233063, -0.106512174, -1023642.6, 12006.273, 0.0, 10.000538, 9.998954 
5.350187e+2, 2.0431945e+2, -959633.2, -1064794.1, -5792.0117, 0.0063031903, -0.11690267, -959315.1, -21654.66, 0.0, 10.0003195, 9.998923 
5.350134e+2, 2.1431847e+2, -893781.2, -980020.0, -14435.914, 0.04717363, -0.11065171, -891428.9, -51758.207, 0.0, 10.000089, 9.998944 
5.3500795e+2, 2.2431764e+2, -782763.3, -866458.06, 10932.363, 0.041204784, -0.090965256, -781358.9, -39679.543, 0.0, 10.000138, 9.999027 
5.350023e+2, 2.3431699e+2, -620832.2, -734214.4, 25002.918, -0.02384462, -0.06422564, -615563.4, 28122.441, 0.0, 10.000563, 9.999058 
5.3499675e+2, 2.4431598e+2, -556206.1, -706028.75, 2465.4207, -0.050174702, -0.047791578, -556165.56, -10469.118, 0.0, 10.000565, 9.998577 
5.349913e+2, 2.543145e+2, -537903.0, -647958.7, -6347.5903, -0.024976814, -0.05175682, -537538.1, -89826.12, 0.0, 10.000024, 9.998564 
5.3498584e+2, 2.6431307e+2, -459254.25, -529578.3, -11277.289, -0.0010823528, -0.06231463, -457490.06, -107763.08, 0.0, 9.999764, 9.998828 
5.3498036e+2, 2.7431172e+2, -342537.6, -417424.6, -7655.985, 0.01746797, -0.09130808, -341762.9, -90021.914, 0.0, 9.999871, 9.998874 
5.349746e+2, 2.843109e+2, -271822.63, -339106.97, -6273.2, 0.0027702407, -0.05410419, -271242.72, -117493.46, 0.0, 9.999711, 9.9988165 
5.349684e+2, 2.9431093e+2, -242461.52, -266702.34, -5104.8833, -0.04341663, 0.060776312, -241430.34, -185680.45, 0.0, 9.999207, 9.998884 
5.349638e+2, 3.043089e+2, -175855.69, -165688.48, 16416.068, 0.02515817, -0.0482992, -153586.9, -153586.9, 0.0, 9.999142, 9.999274 
5.349581e+2, 3.143084e+2, -83670.3, -88323.82, 6884.887, -0.05932888, -0.024881931, -78729.63, -78729.63, 0.0000000000003731001, 9.999632, 9.99957 
5.450693e+2, 1.24332845e+2, -1538917.6, -1676205.8, 118216.27, 0.017216472, -0.052854072, -1470861.0, 250674.38, 0.00000036785775, 10.001439, 9.999555 
5.4505706e+2, 1.3433303e+2, -1540640.4, -1662076.3, -99969.305, -0.31366715, 0.03152052, -1484394.5, 139137.81, 0.000000024396927, 10.000846, 9.999298 
5.4505587e+2, 1.4433108e+2, -1471790.0, -1590821.9, 7560.0786, 0.2346651, -0.08358421, -1471311.8, 54238.285, 0.0, 10.0007305, 9.999152 
5.450473e+2, 1.5433027e+2, -1299316.5, -1458074.1, -1787.2317, -0.011127941, -0.0846837, -1299296.4, 128260.59, 0.0, 10.001248, 9.99914 
5.450406e+2, 1.6432945e+2, -1198450.9, -1368840.5, 27193.313, -0.08645998, -0.07256571, -1194216.3, 135347.69, 0.0, 10.00131, 9.99905 
5.450362e+2, 1.7432871e+2, -1180996.0, -1306660.4, 13626.876, 0.018925667, -0.056322645, -1179535.3, 52035.473, 0.0, 10.000747, 9.999075 
5.45031e+2, 1.843276e+2, -1134939.0, -1246534.4, -3473.262, 0.053857848, -0.06828678, -1134831.0, -1250.0939, 0.0, 10.0004425, 9.998962 
5.4502493e+2, 1.9432606e+2, -1028592.7, -1143163.8, -3253.392, 0.009926376, -0.1235839, -1028500.4, 7094.5757, 0.0, 10.000495, 9.998974 
5.4501903e+2, 2.0432483e+2, -931931.5, -1061106.8, -5133.7485, 0.0027175557, -0.13581084, -931727.8, 5879.095, 0.0, 10.000551, 9.998838 
5.450136e+2, 2.1432406e+2, -824731.5, -956833.8, -3864.9937, 0.039960373, -0.102150574, -824618.5, 14997.565, 0.0, 10.000607, 9.998854 
5.450082e+2, 2.243232e+2, -737185.0, -848971.44, 21109.164, 0.035190124, -0.07724923, -733331.7, 8293.368, 0.0, 10.00047, 9.998987 
5.4500264e+2, 2.3432228e+2, -692648.06, -772601.7, 8683.059, -0.022876574, -0.07410324, -691715.94, -48082.242, 0.0, 10.000086, 9.999023 
5.44997e+2, 2.4432121e+2, -644286.7, -738912.0, -26454.225, -0.051869877, -0.064621806, -637393.1, -91748.56, 0.0, 9.99992, 9.998661 
5.4499114e+2, 2.5432e+2, -529836.5, -633381.3, -14074.359, -0.04192672, -0.05380127, -527957.5, -80299.48, 0.0, 10.000034, 9.998657 
5.449856e+2, 2.643187e+2, -426301.25, -517625.88, -3210.127, -0.015449152, -0.054855864, -426188.53, -76516.72, 0.0, 10.000009, 9.998793 
5.449803e+2, 2.7431726e+2, -357891.63, -430307.0, -8858.782, 0.02882985, -0.08376032, -356823.66, -105137.49, 0.0, 9.999789, 9.998824 
5.449743e+2, 2.843163e+2, -267616.3, -335742.38, -14746.062, 0.011250922, -0.060708575, -264561.47, -110865.62, 0.0, 9.999734, 9.998829 
5.449676e+2, 2.943161e+2, -142712.78, -216396.89, -10884.917, -0.075697176, 0.029223092, -141138.45, -85440.086, 0.0, 9.999884, 9.998902 
5.449629e+2, 3.0431455e+2, -102793.29, -129779.234, 23535.006, -0.004370452, -0.036558527, -89157.734, -89157.734, 0.0, 9.9996395, 9.999281 
5.449577e+2, 3.1431407e+2, -208891.19, -171545.5, 37692.547, -0.024406945, -0.009340799, -148154.08, -148154.08, 0.000000000015387011, 9.99887, 9.999365 
5.5507094e+2, 1.24338515e+2, -1556716.5, -1712820.1, 103923.41, 0.0366657, -0.073357105, -1504798.5, 216679.58, 0.0000003291145, 10.001439, 9.999303 
5.550581e+2, 1.3433836e+2, -1554863.6, -1693700.1, -122117.67, -0.29164138, -0.00016415674, -1483812.6, 139666.7, 0.000000025104656, 10.000855, 9.999077 
5.550568e+2, 1.4433655e+2, -1442522.9, -1532203.5, 23929.764, 0.25346595, -0.109406136, -1436537.1, 88958.555, 0.0, 10.000738, 9.999552 
5.550487e+2, 1.5433621e+2, -1267720.1, -1392464.0, 18329.826, 0.0077651436, -0.10486893, -1265082.5, 162413.58, 0.0, 10.001246, 9.999592 
5.550419e+2, 1.643355e+2, -1226664.3, -1425341.0, 7799.7134, -0.083078615, -0.08985283, -1226358.5, 103143.69, 0.0, 10.001302, 9.998667 
5.5503666e+2, 1.743343e+2, -1212406.3, -1371632.5, -7610.759, -0.008651848, -0.07673373, -1212043.4, 19472.65, 0.0, 10.000746, 9.99863 
5.550311e+2, 1.84333e+2, -1134315.8, -1245362.3, -3439.208, 0.022660328, -0.08450401, -1134209.4, -680.1874, 0.0, 10.0004425, 9.998971 
5.550254e+2, 1.9433163e+2, -1025901.3, -1137295.3, -774.78455, 0.010259131, -0.12532881, -1025895.94, 9645.082, 0.0, 10.000492, 9.999016 
5.550196e+2, 2.0433067e+2, -928894.5, -1053773.4, -3403.7844, 0.0026316985, -0.1156894, -928801.8, 8748.251, 0.0, 10.000546, 9.998891 
5.5501384e+2, 2.1433024e+2, -821586.6, -949657.25, -1357.6774, -0.001332411, -0.05040711, -821572.2, 17983.21, 0.0, 10.000604, 9.998905 
5.550083e+2, 2.2432914e+2, -762283.06, -900046.75, 7331.5815, 0.004847839, -0.037604816, -761894.0, -20326.998, 0.0, 10.000466, 9.998638 
5.5500317e+2, 2.3432718e+2, -719544.2, -828168.0, -5569.8154, 0.02457046, -0.10178059, -719259.3, -75672.84, 0.0, 10.000085, 9.998643 
5.5499756e+2, 2.4432588e+2, -621035.1, -690186.3, -23817.69, 0.0148267355, -0.109902814, -613625.56, -68025.97, 0.0, 9.999918, 9.998997 
5.549913e+2, 2.5432554e+2, -502436.56, -576359.4, -9241.188, -0.031682525, -0.052710366, -501298.84, -53694.637, 0.0, 10.000033, 9.999049 
5.549854e+2, 2.6432472e+2, -434789.56, -534762.2, -10898.738, -0.03810444, -0.019280156, -433615.2, -84002.32, 0.0, 10.000006, 9.998675 
5.549798e+2, 2.743233e+2, -369616.3, -454610.0, -16586.182, 0.0026819708, -0.031320434, -366494.25, -114866.83, 0.0, 9.999788, 9.998658 
5.549738e+2, 2.843219e+2, -265779.0, -330756.28, -10361.6, -0.019281732, -0.0451816, -264166.7, -110525.39, 0.0, 9.999729, 9.998865 
5.5496716e+2, 2.9432076e+2, -139660.84, -208567.13, -4753.25, -0.111290626, -0.053478833, -139334.5, -83682.42, 0.0, 9.999877, 9.99896 
5.5496234e+2, 3.0431983e+2, -86141.305, -92833.38, -4247.5034, -0.02405256, -0.07156992, -84080.195, -84080.195, 0.0, 9.99963, 9.999539 
5.549569e+2, 3.1432047e+2, -198882.48, -148538.02, 15500.685, 0.0062057595, 0.03654277, -144148.23, -144148.23, 0.0000000020600701, 9.998861, 9.999527 
5.6507283e+2, 1.2434479e+2, -1565157.8, -1729696.9, 143102.0, 0.086466454, -0.08092545, -1482362.4, 239052.47, 0.00000027083397, 10.001439, 9.999185 
5.650594e+2, 1.3434428e+2, -1460661.9, -1659612.5, -86139.01, -0.28253335, -0.03439316, -1428549.8, 194869.95, 0.000000017878008, 10.001549, 9.998978 
5.6505775e+2, 1.4434247e+2, -1364665.9, -1503770.4, 54751.49, 0.24259111, -0.13397743, -1345701.3, 179735.17, 0.0, 10.001311, 9.99947 
5.650498e+2, 1.5434232e+2, -1361837.6, -1446243.9, 10214.244, 0.020677783, -0.1026162, -1360619.1, 66816.445, 0.0, 10.000639, 9.999514 
5.65043e+2, 1.6434164e+2, -1344755.6, -1478874.4, -3958.925, -0.06639734, -0.08315691, -1344638.9, -15197.087, 0.0, 10.000479, 9.998694 
5.6503755e+2, 1.7434022e+2, -1175048.8, -1350332.3, 14228.078, -0.008789475, -0.09316124, -1173901.4, 57556.07, 0.0, 10.000988, 9.998659 
5.650319e+2, 1.8433891e+2, -1034877.56, -1203078.8, 32481.81, 0.01756836, -0.100627296, -1028822.8, 104647.85, 0.0, 10.00115, 9.99892 
5.6502604e+2, 1.943378e+2, -976149.25, -1119181.1, 27086.033, 0.012608604, -0.11122879, -971191.75, 64288.684, 0.0, 10.00086, 9.998962 
5.650202e+2, 2.0433682e+2, -921667.7, -1066654.9, 18597.145, 0.0016457228, -0.094043344, -919320.3, 18169.682, 0.0, 10.000667, 9.998744 
5.6501424e+2, 2.1433602e+2, -831970.44, -971481.8, 4692.468, -0.019257333, -0.050318744, -831812.8, 7686.3145, 0.0, 10.000606, 9.998754 
5.650086e+2, 2.2433476e+2, -760711.5, -895281.3, 8581.332, -0.0135667985, -0.04745115, -760166.5, -18654.295, 0.0, 10.00046, 9.998673 
5.6500334e+2, 2.3433289e+2, -698466.44, -812531.75, 26504.342, 0.027342943, -0.10644407, -692608.7, -49078.39, 0.0, 10.000206, 9.998692 
5.649977e+2, 2.4433161e+2, -603102.25, -692188.7, 25546.266, 0.026845878, -0.11089253, -596296.56, -50753.293, 0.0, 10.000086, 9.998902 
5.649915e+2, 2.543312e+2, -493917.97, -584067.4, 2747.8923, -0.02632911, -0.051051136, -493834.28, -46285.03, 0.0, 10.000142, 9.998944 
5.6498533e+2, 2.6433042e+2, -421531.03, -524561.2, -24201.283, -0.04254508, -0.011418859, -416129.44, -66571.625, 0.0, 10.000081, 9.998709 
5.6497943e+2, 2.743291e+2, -355591.25, -442122.47, -16037.477, -0.0153331505, -0.016413502, -352714.56, -101143.93, 0.0, 9.999863, 9.998707 
5.649733e+2, 2.8432757e+2, -288258.88, -347066.16, 1760.1797, -0.03404777, -0.043295443, -288206.22, -134620.69, 0.0, 9.9995985, 9.998816 
5.649668e+2, 2.9432607e+2, -231984.89, -261465.22, -1883.8677, -0.100294635, -0.08052951, -231865.0, -176264.94, 0.0, 9.999278, 9.998884 
5.6496185e+2, 3.0432555e+2, -141658.23, -94896.95, -16122.365, -0.014012402, -0.062745504, -89877.15, -89877.15, 0.0, 9.999142, 9.999761 
5.6495583e+2, 3.143261e+2, -124955.484, -82627.805, 4534.062, -0.0060004834, 0.013188596, -82147.57, -82147.57, 0.000000017271022, 9.999237, 9.999799 
5.7507503e+2, 1.24351725e+2, -1565312.6, -1734082.3, 150940.86, 0.15720998, -0.07649131, -1476769.9, 244575.27, 0.00000019303324, 10.001454, 9.999148 
5.750609e+2, 1.3435079e+2, -1460110.9, -1659578.4, -82268.74, -0.28911698, -0.07074341, -1430558.3, 192795.13, 0.000000007774616, 10.001552, 9.998978 
5.750586e+2, 1.4434884e+2, -1404282.5, -1584322.5, 30082.56, 0.199113, -0.15716906, -1399389.0, 125983.07, 0.0, 10.001306, 9.9989195 
5.750505e+2, 1.543486e+2, -1402342.3, -1530917.6, -14817.896, 0.02460938, -0.078406595, -1400656.6, 26718.572, 0.0, 10.000642, 9.998931 
5.750437e+2, 1.6434787e+2, -1314625.1, -1417467.3, 12143.647, -0.040140092, -0.05304225, -1313210.6, 16171.862, 0.0, 10.000483, 9.999115 
5.7503873e+2, 1.7434649e+2, -1140492.6, -1279042.3, 34064.875, 0.016114904, -0.105939694, -1132570.3, 98824.82, 0.0, 10.000989, 9.999149 
5.750332e+2, 1.8434536e+2, -1043516.0, -1219720.1, 22874.443, 0.03506213, -0.11690408, -1040594.94, 92810.68, 0.0, 10.001144, 9.998808 
5.750269e+2, 1.9434457e+2, -987420.9, -1141639.5, 16185.04, 0.0142852655, -0.08147491, -985740.6, 49672.723, 0.0, 10.000856, 9.99881 
5.750208e+2, 2.0434326e+2, -946352.7, -1117006.3, 15123.562, -0.002379696, -0.070967935, -945022.75, -7596.0576, 0.0, 10.000663, 9.998401 
5.750149e+2, 2.1434139e+2, -857389.94, -1023435.5, 2725.7427, -0.016385946, -0.10132979, -857345.25, -17898.102, 0.0, 10.000602, 9.998399 
5.75009e+2, 2.2434004e+2, -731488.7, -833879.5, -850.785, -0.022416182, -0.10650223, -731481.6, 9979.043, 0.0, 10.000457, 9.999097 
5.750031e+2, 2.3433942e+2, -665078.75, -742746.25, 17413.629, -0.016539935, -0.08886952, -661353.2, -17887.951, 0.0, 10.000204, 9.999172 
5.749973e+2, 2.4433841e+2, -640471.94, -769499.75, 26482.998, -0.018084921, -0.068557635, -635247.8, -89772.1, 0.0, 10.000084, 9.998372 
5.749916e+2, 2.5433695e+2, -536910.94, -672955.44, 5159.6343, -0.028173497, -0.049090702, -536715.5, -89222.23, 0.0, 10.00014, 9.998335 
5.749856e+2, 2.6433572e+2, -408976.97, -498159.2, -32205.287, -0.030409265, -0.031196428, -398563.13, -49056.395, 0.0, 10.000079, 9.998892 
5.749792e+2, 2.7433464e+2, -338315.5, -405370.53, -24002.152, -0.02816896, -0.03840042, -330609.56, -79093.734, 0.0, 9.999858, 9.998961 
5.7497287e+2, 2.843333e+2, -298203.78, -366162.94, -10677.067, -0.036415227, -0.054189622, -296565.78, -143037.16, 0.0, 9.999592, 9.998688 
5.7496667e+2, 2.9433203e+2, -245708.08, -289309.4, -13172.506, -0.045353435, -0.05348501, -242037.5, -186495.0, 0.0, 9.999275, 9.998694 
5.7496136e+2, 3.043317e+2, -130899.06, -71447.54, -14042.251, 0.023432616, -0.0119914245, -68297.695, -68297.695, 0.00000000021282408, 9.999136, 9.999925 
5.749544e+2, 3.1433108e+2, -101781.19, -31489.94, 14524.353, -0.06885721, -0.07654134, -28606.998, -28606.998, 0.0000000699572, 9.999224, 10.000156 
5.850765e+2, 1.2435838e+2, -1561818.4, -1738134.4, 122740.13, 0.16256243, -0.056910615, -1498857.3, 222422.64, 0.00000011738098, 10.001506, 9.999095 
5.850625e+2, 1.3435717e+2, -1516689.6, -1690654.4, -119962.484, -0.267195, -0.07572761, -1455493.4, 167797.42, 0.0000000014227642, 10.0011835, 9.99894 
5.850599e+2, 1.443552e+2, -1441794.1, -1612613.8, 5319.6094, 0.21014126, -0.15723361, -1441628.6, 83681.13, 0.0, 10.001093, 9.998827 
5.8505154e+2, 1.5435487e+2, -1306066.9, -1495394.5, -5602.195, 0.032189634, -0.07663532, -1305901.3, 121412.88, 0.0, 10.00135, 9.998834 
5.850446e+2, 1.643541e+2, -1194009.1, -1352718.1, 36090.137, -0.036404274, -0.05250306, -1186187.8, 143134.0, 0.0, 10.001281, 9.999175 
5.8503973e+2, 1.7435275e+2, -1162413.3, -1281585.1, 26916.334, 0.022433812, -0.11149504, -1156616.0, 74717.36, 0.0, 10.000804, 9.99922 
5.850342e+2, 1.8435165e+2, -1125332.0, -1267649.4, -1097.268, 0.0428521, -0.11930278, -1125323.5, 8019.9585, 0.0, 10.00062, 9.998732 
5.850278e+2, 1.943509e+2, -1000790.94, -1157668.5, -3884.4058, 0.018626388, -0.069387704, -1000694.8, 34656.67, 0.0, 10.000807, 9.998724 
5.8502156e+2, 2.0434955e+2, -940425.5, -1112063.0, 3221.7773, 0.003322113, -0.060576096, -940365.06, -2999.3523, 0.0, 10.000695, 9.998419 
5.850154e+2, 2.1434747e+2, -913549.0, -1047808.25, 17893.957, -0.0024745883, -0.113208234, -911205.06, -71817.47, 0.0, 10.000204, 9.998423 
5.850093e+2, 2.2434615e+2, -793290.7, -868220.3, 24236.912, -0.013859504, -0.117066115, -786134.4, -44733.43, 0.0, 10.0000515, 9.999057 
5.8500326e+2, 2.3434578e+2, -648815.2, -739908.5, 2981.929, -0.031367738, -0.06859943, -648717.7, -5314.2856, 0.0, 10.000338, 9.999127 
5.849973e+2, 2.4434477e+2, -603550.75, -756761.6, 3495.2922, -0.03742941, -0.042354498, -603471.06, -58057.273, 0.0, 10.0003605, 9.998326 
5.8499163e+2, 2.5434303e+2, -554686.06, -686357.6, 23325.158, -0.028473869, -0.048917267, -550676.25, -103242.35, 0.0, 10.00004, 9.998291 
5.849856e+2, 2.6434162e+2, -447857.16, -522021.88, 1437.339, -0.025515398, -0.043799642, -447829.28, -98380.51, 0.0, 9.999834, 9.998845 
5.8497894e+2, 2.743405e+2, -351876.3, -417492.1, -13242.922, -0.034691814, -0.04633619, -349304.38, -97846.36, 0.0, 9.999787, 9.998913 
5.849725e+2, 2.843392e+2, -279331.84, -354529.66, -9578.315, -0.038594414, -0.05892265, -278131.0, -124660.3, 0.0, 9.99971, 9.998711 
5.849663e+2, 2.94338e+2, -201355.66, -266421.63, 216.60698, -0.024418335, -0.055670734, -201354.92, -145870.92, 0.0, 9.999574, 9.998708 
5.8496076e+2, 3.043378e+2, -116666.65, -84619.76, -134.58078, 0.0392481, 0.008424516, -84619.195, -84619.195, 0.000000006848287, 9.999321, 9.999745 
5.849535e+2, 3.1433648e+2, -137420.19, -42931.375, 3797.1226, -0.07268821, -0.10802965, -42779.03, -42779.03, 0.00000018333391, 9.998955, 10.000207 
5.9507746e+2, 1.2436481e+2, -1565862.5, -1747963.5, 113847.6, 0.101255685, -0.02014167, -1511134.1, 210084.38, 0.000000058921596, 10.001511, 9.999025 
5.9506416e+2, 1.343634e+2, -1520780.1, -1700495.5, -132411.4, -0.22034486, -0.051599383, -1450615.4, 172616.3, 0.000000000010343272, 10.001187, 9.998871 
5.950616e+2, 1.4436154e+2, -1417695.9, -1562697.9, 13045.877, 0.2706611, -0.13636453, -1416531.5, 108717.76, 0.0, 10.001093, 9.99917 
5.9505296e+2, 1.5436116e+2, -1280149.4, -1441460.9, 4846.9507, 0.041162502, -0.09719686, -1280003.9, 147248.22, 0.0, 10.0013485, 9.999205 
5.950457e+2, 1.6436034e+2, -1215789.9, -1396980.6, 19180.861, -0.058108065, -0.081440665, -1213781.8, 115477.625, 0.0, 10.001277, 9.998873 
5.950404e+2, 1.7435898e+2, -1185994.0, -1331181.4, 9271.809, 0.0077511007, -0.10986866, -1185404.3, 45867.965, 0.0, 10.000806, 9.9988785 
5.950347e+2, 1.8435778e+2, -1127967.5, -1273264.4, 4167.1406, 0.03782354, -0.10836495, -1127848.1, 5436.1426, 0.0, 10.00062, 9.998693 
5.950287e+2, 1.9435684e+2, -1002121.4, -1160459.3, 3592.1802, 0.02354248, -0.074637026, -1002039.94, 33254.895, 0.0, 10.000806, 9.998706 
5.950224e+2, 2.0435569e+2, -915007.1, -1058178.4, -14135.934, 0.016617969, -0.06258405, -913624.75, 23682.123, 0.0, 10.00069, 9.998791 
5.950159e+2, 2.1435429e+2, -886093.5, -989739.7, -277.13803, 0.020424103, -0.086776115, -886092.75, -46772.188, 0.0, 10.0002, 9.998823 
5.9500957e+2, 2.2435305e+2, -829303.75, -942130.2, 32496.908, 0.009969895, -0.080121994, -820613.2, -79279.9, 0.0, 10.000048, 9.998552 
5.950037e+2, 2.3435198e+2, -689037.2, -823092.1, 14130.448, -0.019626936, -0.0446819, -687563.94, -44219.168, 0.0, 10.000336, 9.998557 
5.9499776e+2, 2.4435076e+2, -572818.8, -692739.2, -7361.388, -0.034033526, -0.030992048, -572368.6, -27011.217, 0.0, 10.00036, 9.998767 
5.949917e+2, 2.543494e+2, -518551.34, -610667.06, 11620.881, -0.028901534, -0.050209604, -517107.9, -69736.95, 0.0, 10.000037, 9.998813 
5.949854e+2, 2.643481e+2, -467880.56, -562887.4, -1238.9098, -0.029329512, -0.049327325, -467864.4, -118480.375, 0.0, 9.999831, 9.998567 
5.949787e+2, 2.7434677e+2, -376547.06, -468318.84, -14241.165, -0.038752925, -0.041661017, -374387.94, -122990.57, 0.0, 9.999785, 9.998565 
5.9497213e+2, 2.8434527e+2, -268477.25, -331261.56, -14933.854, -0.04491608, -0.058791213, -265106.1, -111694.21, 0.0, 9.999706, 9.998873 
5.949657e+2, 2.9434398e+2, -188686.81, -237988.47, -5103.849, -0.040889982, -0.08490015, -188164.0, -132739.56, 0.0, 9.999564, 9.998908 
5.9496e+2, 3.043439e+2, -154375.44, -159798.86, -14048.614, 0.031596106, 0.002326785, -142779.22, -142779.22, 0.000000033052434, 9.999308, 9.999235 
5.9495294e+2, 3.1434238e+2, -156010.48, -78769.555, -4199.462, -0.022701092, -0.080781415, -78541.91, -78541.91, 0.00000037488923, 9.998944, 9.999966 
6.050789e+2, 1.2437061e+2, -1598361.8, -1736756.1, 102845.41, 0.10741324, -0.031599533, -1543601.5, 177561.58, 0.000000021349177, 10.001172, 9.999266 
6.050656e+2, 1.3436976e+2, -1500505.5, -1661062.3, -125672.62, -0.1946058, -0.034332085, -1431659.0, 191511.39, 0.0, 10.001201, 9.999135 
6.050628e+2, 1.4436826e+2, -1414313.3, -1553600.8, 31130.537, 0.28395957, -0.10025083, -1407672.3, 117512.0, 0.0, 10.001085, 9.999236 
6.0505426e+2, 1.5436758e+2, -1338198.9, -1462697.3, -238.83672, 0.055961333, -0.09627862, -1338198.4, 88991.33, 0.0, 10.000923, 9.999264 
6.0504687e+2, 1.6436666e+2, -1267516.9, -1425868.9, 6023.8877, -0.049714327, -0.09277793, -1267288.0, 61909.816, 0.0, 10.000938, 9.998837 
6.050413e+2, 1.7436543e+2, -1138570.8, -1312800.5, 17069.666, 0.004237396, -0.10270871, -1136914.1, 94295.35, 0.0, 10.001152, 9.998837 
6.050355e+2, 1.8436421e+2, -1068973.3, -1245820.8, 23872.795, 0.029002829, -0.099406, -1065807.4, 67414.38, 0.0, 10.00103, 9.998684 
6.050292e+2, 1.9436307e+2, -1047706.3, -1183440.3, 23078.49, 0.014914704, -0.08565869, -1043889.7, -8655.33, 0.0, 10.000498, 9.998696 
6.0502285e+2, 2.0436199e+2, -966491.1, -1077187.5, -2803.9714, 0.011818441, -0.06981013, -966420.2, -29174.307, 0.0, 10.000312, 9.998842 
6.050163e+2, 2.1436098e+2, -829941.0, -956643.4, -15245.02, 0.024411535, -0.06004172, -828132.5, 11123.302, 0.0, 10.00056, 9.998878 
6.0501e+2, 2.2435975e+2, -767065.1, -925350.1, 20853.328, 0.019274816, -0.047915086, -764363.9, -23095.547, 0.0, 10.000533, 9.998433 
6.05004e+2, 2.3435825e+2, -725038.7, -855439.0, 34285.27, -0.010413383, -0.04361395, -716573.8, -73289.56, 0.0, 10.000154, 9.998423 
6.0499793e+2, 2.4435687e+2, -635649.44, -712433.94, 12431.303, -0.027642017, -0.043046027, -633687.0, -88388.65, 0.0, 9.999883, 9.998861 
6.0499156e+2, 2.5435573e+2, -552246.8, -614912.2, -756.25214, -0.028637724, -0.05106096, -552237.7, -104928.36, 0.0, 9.999754, 9.9989195 
6.049852e+2, 2.6435462e+2, -486143.88, -565226.44, -11066.7, -0.024869783, -0.039978154, -484624.4, -135304.02, 0.0, 9.999677, 9.998626 
6.049786e+2, 2.743534e+2, -392654.63, -469828.97, 5307.5264, -0.016881477, -0.023786107, -392291.3, -140958.84, 0.0, 9.999648, 9.998621 
6.04972e+2, 2.843519e+2, -284254.28, -336802.28, 14562.006, -0.02367959, -0.049351867, -280488.72, -127141.48, 0.0, 9.999589, 9.998892 
6.049652e+2, 2.9435027e+2, -197323.9, -242341.0, 8710.933, -0.044457994, -0.10629972, -195697.11, -140335.16, 0.00000000003092486, 9.999505, 9.998908 
6.049592e+2, 3.0435017e+2, -159042.45, -188970.4, -2475.8203, 0.017285695, -0.012974845, -158839.03, -158839.03, 0.00000008707832, 9.9993925, 9.998995 
6.049522e+2, 3.1434882e+2, -105415.22, -47644.996, 30326.986, -0.0043667755, -0.053161122, -34648.42, -34648.42, 0.0000006525611, 9.999264, 10.000027 
6.150808e+2, 1.2437586e+2, -1560440.0, -1659139.4, 103616.09, 0.17886625, -0.088013455, -1495021.8, 226091.23, 0.0000000039655865, 10.001176, 9.999797 
6.150668e+2, 1.3437627e+2, -1460366.6, -1577152.1, -125314.71, -0.19239898, -0.022584962, -1380507.8, 242599.03, 0.0, 10.001199, 9.999711 
6.1506355e+2, 1.4437534e+2, -1428894.5, -1584343.4, 23600.6, 0.24740346, -0.049049325, -1425390.4, 99724.29, 0.0, 10.001086, 9.999024 
6.150554e+2, 1.5437414e+2, -1355623.8, -1500040.6, -5604.253, 0.07390394, -0.07530468, -1355406.6, 71720.26, 0.0, 10.000926, 9.999007 
6.150482e+2, 1.6437303e+2, -1251507.3, -1392445.4, 13077.56, -0.015468956, -0.08714813, -1250304.0, 78833.11, 0.0, 10.000937, 9.999067 
6.1504257e+2, 1.7437212e+2, -1120514.6, -1275196.4, 25449.258, 0.00979635, -0.09025942, -1116435.1, 114709.85, 0.0, 10.001151, 9.999097 
6.1503637e+2, 1.8437098e+2, -1069033.5, -1245135.1, 4681.8555, 0.013724352, -0.09276084, -1068909.1, 64246.656, 0.0, 10.001026, 9.998691 
6.1502945e+2, 1.943696e+2, -1048116.94, -1184334.6, 3238.4453, -0.009030596, -0.10305549, -1048040.0, -12869.867, 0.0, 10.000498, 9.998691 
6.150229e+2, 2.0436843e+2, -985750.56, -1116073.1, 4163.026, -0.013334145, -0.08281407, -985617.75, -48434.94, 0.0, 10.000307, 9.998578 
6.1501664e+2, 2.1436755e+2, -849896.1, -997586.56, -5534.748, 0.0066223, -0.03210908, -849689.0, -10495.924, 0.0, 10.000558, 9.998597 
6.1501044e+2, 2.243663e+2, -749777.44, -888568.6, 7486.969, 0.011038362, -0.019259362, -749374.75, -8168.858, 0.0, 10.000528, 9.998688 
6.150042e+2, 2.3436458e+2, -704222.5, -811865.7, 20346.373, -0.0044884435, -0.06595543, -700505.06, -57283.152, 0.0, 10.000152, 9.998722 
6.1499786e+2, 2.443631e+2, -654482.1, -750955.8, 6400.3643, -0.01908536, -0.07909939, -654059.4, -108822.64, 0.0, 9.99988, 9.998599 
6.149913e+2, 2.5436202e+2, -574229.06, -659984.75, -5159.765, -0.031278096, -0.052104376, -573919.7, -126670.56, 0.0, 9.999752, 9.998611 
6.149849e+2, 2.6436117e+2, -458479.4, -507306.47, -12534.518, -0.016263584, -0.015870543, -455449.66, -106191.7, 0.0, 9.999674, 9.999025 
6.1497873e+2, 2.743605e+2, -360890.4, -402996.03, 4599.4473, 0.029911848, 0.009784062, -360393.8, -109130.69, 0.0, 9.999643, 9.999083 
6.1497205e+2, 2.8435907e+2, -293785.44, -355343.25, 11314.743, 0.024912039, -0.028036635, -291771.6, -138495.13, 0.0, 9.999583, 9.998767 
6.149647e+2, 2.9435694e+2, -211247.08, -270168.53, 6395.65, -0.03976111, -0.12210917, -210560.86, -155264.14, 0.0000000010306047, 9.999499, 9.998719 
6.149583e+2, 3.0435655e+2, -159644.73, -188554.34, -7720.6123, -0.009837379, -0.041018624, -157712.08, -157712.08, 0.00000016756015, 9.999385, 9.999001 
6.149513e+2, 3.1435576e+2, -83753.555, 1299.4915, 29408.6, -0.024051378, -0.027816812, 10477.618, 10477.618, 0.000001002472, 9.999247, 10.00037 
6.2508196e+2, 1.2438223e+2, -1544997.3, -1661691.9, 162046.64, 0.17873344, -0.10974275, -1431113.6, 289936.25, 0.00000000008306351, 10.001322, 9.99971 
6.2506807e+2, 1.3438275e+2, -1455148.3, -1583589.9, -118318.48, -0.18930277, -0.02388782, -1384745.3, 238298.17, 0.0, 10.001272, 9.999631 
6.2506443e+2, 1.4438206e+2, -1429131.6, -1583494.3, 7581.8794, 0.22977212, -0.024575893, -1428760.1, 96289.66, 0.0, 10.001079, 9.999035 
6.2505627e+2, 1.5438075e+2, -1367832.0, -1503325.6, -1341.4791, 0.0762758, -0.062148683, -1367818.8, 59244.12, 0.0, 10.000831, 9.99903 
6.2504905e+2, 1.6437967e+2, -1287503.0, -1403844.9, 33078.46, -0.0047421157, -0.07619304, -1278755.8, 50317.414, 0.0, 10.000667, 9.99912 
6.250435e+2, 1.743789e+2, -1193714.6, -1304404.4, 29586.041, 0.018826006, -0.069793575, -1186303.0, 44776.94, 0.0, 10.000623, 9.99915 
6.2503725e+2, 1.8437785e+2, -1115942.5, -1257993.4, -5576.6357, 0.021192884, -0.07094472, -1115723.9, 17365.846, 0.0, 10.000661, 9.998779 
6.2503016e+2, 1.9437645e+2, -999006.56, -1150697.9, -1286.5842, -0.006352565, -0.090702765, -998995.6, 36107.92, 0.0, 10.000792, 9.99878 
6.2502337e+2, 2.0437522e+2, -933882.25, -1099403.4, 15883.42, -0.014386277, -0.07748311, -932371.9, 4744.6865, 0.0, 10.000699, 9.998504 
6.2501705e+2, 2.1437421e+2, -889046.8, -1026181.25, 20094.092, 0.002460174, -0.03096358, -886163.06, -47034.68, 0.0, 10.000331, 9.99851 
6.2501067e+2, 2.2437297e+2, -807904.44, -906264.0, 29432.945, 0.0066105067, -0.018775215, -799769.75, -58628.457, 0.0, 10.000085, 9.998779 
6.250043e+2, 2.343714e+2, -721231.25, -808639.0, 26551.918, -0.005991001, -0.06080118, -713797.7, -70642.18, 0.0, 9.999986, 9.998824 
6.249978e+2, 2.4436997e+2, -650565.25, -753505.8, 19309.467, -0.016101958, -0.07187768, -647062.4, -101892.734, 0.0, 9.999926, 9.998559 
6.2499124e+2, 2.5436878e+2, -555376.6, -656758.06, 26033.771, -0.02288713, -0.048764087, -549082.2, -101899.08, 0.0, 9.999907, 9.998559 
6.2498474e+2, 2.643679e+2, -437769.38, -490171.5, 15592.83, -0.006253508, -0.016294815, -433480.6, -84288.23, 0.0, 9.999785, 9.999089 
6.249784e+2, 2.7436733e+2, -370237.3, -399434.28, 2966.2092, 0.037606604, 0.008808161, -369939.03, -118742.2, 0.0, 9.999544, 9.999155 
6.249716e+2, 2.84366e+2, -310684.9, -353892.9, 5781.0044, 0.03298424, -0.023104263, -309924.8, -156716.25, 0.0, 9.999426, 9.998853 
6.249643e+2, 2.94364e+2, -213163.34, -262409.97, 18439.482, -0.028868914, -0.10954897, -207024.3, -151797.48, 0.000000004235602, 9.99945, 9.998796 
6.249577e+2, 3.0436334e+2, -174719.95, -209891.77, 6776.4263, -0.007492869, -0.055527467, -173459.53, -173459.53, 0.000000262113, 9.999341, 9.998876 
6.249505e+2, 3.1436253e+2, -95508.484, 8440.01, 32293.266, -0.017994393, -0.038913883, 17655.447, 17655.447, 0.0000013873902, 9.999109, 10.000485 
6.3508266e+2, 1.243897e+2, -1591588.4, -1760539.5, 155724.2, 0.108837955, -0.09822056, -1498902.6, 222071.44, 0.0, 10.001328, 9.999029 
6.350693e+2, 1.3438925e+2, -1505592.6, -1688708.9, -121331.72, -0.18816112, -0.039171737, -1445149.9, 177830.52, 0.0, 10.001273, 9.998909 
6.350655e+2, 1.4438841e+2, -1413020.1, -1550357.9, -3638.9285, 0.22716232, -0.02619239, -1412923.9, 112065.516, 0.0, 10.0010805, 9.999262 
6.35057e+2, 1.5438746e+2, -1347075.0, -1460737.9, -10586.597, 0.060842868, -0.056567002, -1346097.4, 80900.375, 0.0, 10.000833, 9.999322 
6.3504964e+2, 1.6438659e+2, -1296189.9, -1422236.0, 30018.908, -0.021116994, -0.060301438, -1289405.8, 39600.23, 0.0, 10.000667, 9.998994 
6.350443e+2, 1.7438577e+2, -1204020.5, -1326576.6, 28217.129, 0.02882249, -0.042087607, -1197835.9, 33178.26, 0.0, 10.000626, 9.998998 
6.350382e+2, 1.8438481e+2, -1104737.5, -1233981.6, -1594.6956, 0.047827996, -0.034505278, -1104717.9, 28305.781, 0.0, 10.000658, 9.998945 
6.350312e+2, 1.9438367e+2, -985818.7, -1123384.0, 3792.9165, 0.020476393, -0.04838293, -985714.2, 49320.35, 0.0, 10.000791, 9.998967 
6.350243e+2, 2.043824e+2, -927179.9, -1084689.8, 2299.532, 0.0054493225, -0.05377262, -927146.3, 9900.806, 0.0, 10.000695, 9.998607 
6.3501745e+2, 2.14381e+2, -882112.9, -1011627.8, 6495.5303, 0.010072815, -0.058131076, -881787.9, -42726.1, 0.0, 10.00033, 9.998611 
6.350107e+2, 2.2437973e+2, -814118.94, -917691.9, 24539.004, 0.0037208202, -0.04815888, -808599.25, -67524.58, 0.0, 10.000079, 9.998704 
6.3500416e+2, 2.343787e+2, -727460.6, -821304.1, 23373.176, -0.01763428, -0.02820751, -721961.44, -78876.43, 0.0, 9.999985, 9.998738 
6.3499767e+2, 2.443775e+2, -638649.4, -728273.1, 18073.824, -0.022206023, -0.021162907, -635141.8, -90044.78, 0.0, 9.999923, 9.9987335 
6.3499135e+2, 2.5437608e+2, -541271.06, -627473.2, 25694.941, -0.004922605, -0.03975764, -534193.1, -87082.01, 0.0, 9.999906, 9.99876 
6.349847e+2, 2.6437485e+2, -457663.84, -531290.44, 6755.1104, 0.0040686596, -0.039918873, -457049.2, -107925.7, 0.0, 9.999784, 9.998808 
6.349776e+2, 2.7437383e+2, -393277.44, -446090.0, -5388.8145, 0.0015289905, -0.028424392, -392733.2, -141599.45, 0.0, 9.999538, 9.998837 
6.349707e+2, 2.8437272e+2, -290719.7, -310954.94, 6104.817, -0.0048084874, -0.037553497, -289020.56, -135876.72, 0.0, 9.999419, 9.99915 
6.349639e+2, 2.9437163e+2, -190158.17, -213046.38, 19851.803, -0.013035199, -0.06671753, -178688.05, -123535.945, 0.000000008608103, 9.999443, 9.999139 
6.349573e+2, 3.043706e+2, -193510.16, -247625.44, -1773.7695, 0.023872957, -0.052109655, -193452.08, -193452.08, 0.00000035003856, 9.999335, 9.99862 
6.3494986e+2, 3.14369e+2, -104241.83, -7286.7466, 27038.156, 0.0064768787, -0.08749185, -256.32492, -256.32492, 0.0000017531552, 9.999099, 10.000382 
6.4508367e+2, 1.24397025e+2, -1562966.0, -1756876.0, 109308.36, 0.06936962, -0.052173954, -1513809.5, 207093.19, 0.0, 10.001568, 9.9989395 
6.450707e+2, 1.3439587e+2, -1524444.5, -1708299.4, -121673.42, -0.17577471, -0.053913847, -1463875.9, 159039.9, 0.0, 10.001193, 9.998812 
6.450666e+2, 1.4439495e+2, -1430040.4, -1560908.3, 19120.28, 0.22904329, -0.04321903, -1427304.1, 97621.48, 0.0, 10.000975, 9.99924 
6.4505786e+2, 1.5439424e+2, -1307184.5, -1443228.1, -10803.154, 0.055081375, -0.046540234, -1306331.9, 120599.88, 0.0, 10.001115, 9.999306 
6.4505035e+2, 1.6439345e+2, -1242110.5, -1393871.5, 18154.943, -0.028580226, -0.041700047, -1239968.9, 88970.586, 0.0, 10.001027, 9.999015 
6.4504486e+2, 1.7439252e+2, -1200412.4, -1322266.8, 27941.043, 0.031068584, -0.038682006, -1194311.0, 36637.75, 0.0, 10.000638, 9.999022 
6.4503884e+2, 1.8439157e+2, -1135686.0, -1242862.8, 12002.314, 0.05578806, -0.0336807, -1134358.4, -1400.1343, 0.0, 10.000421, 9.998998 
6.4503187e+2, 1.9439062e+2, -1034354.44, -1140243.6, 7218.1465, 0.026260994, -0.033048384, -1033864.6, 1102.7684, 0.0, 10.000432, 9.999023 
6.450249e+2, 2.043895e+2, -957619.44, -1081881.3, -7121.79, 0.010990628, -0.03436911, -957212.56, -20234.064, 0.0, 10.000412, 9.998762 
6.4501786e+2, 2.1438813e+2, -869101.56, -987671.2, -67.653275, 0.017923256, -0.048752915, -869101.56, -30109.477, 0.0, 10.000343, 9.998769 
6.45011e+2, 2.2438689e+2, -796654.1, -912724.7, 25202.59, 0.01216284, -0.046138644, -791418.06, -50413.344, 0.0, 10.000214, 9.998673 
6.450042e+2, 2.3438576e+2, -727387.75, -826246.75, 25979.143, -0.011609727, -0.029986823, -720976.5, -77960.445, 0.0, 10.000007, 9.9986925 
6.449976e+2, 2.4438462e+2, -636489.9, -713678.75, 25628.445, -0.016855031, -0.020433363, -628755.6, -83728.195, 0.0, 9.99988, 9.998854 
6.449913e+2, 2.5438344e+2, -539976.75, -612134.25, 27901.637, 0.0010192716, -0.029150574, -530446.56, -83407.7, 0.0, 9.999851, 9.998892 
6.449844e+2, 2.643822e+2, -470218.13, -544991.75, 6290.741, 0.0054848534, -0.03305089, -469692.6, -120641.414, 0.0, 9.999733, 9.998737 
6.44977e+2, 2.743809e+2, -406018.75, -461444.5, 9872.648, -0.0073442776, -0.041044112, -404312.72, -153248.17, 0.0, 9.999493, 9.998754 
6.4497006e+2, 2.8437978e+2, -285396.72, -301124.13, 34933.168, -0.009466306, -0.046422176, -257453.11, -104378.47, 0.0, 9.999425, 9.999215 
6.449636e+2, 2.9437906e+2, -165646.33, -192791.45, 28107.227, 0.0038870182, -0.04866533, -148006.22, -92926.73, 0.000000011710588, 9.999575, 9.999214 
6.449568e+2, 3.0437782e+2, -181679.34, -233248.22, -9219.324, 0.038272202, -0.061954882, -180080.69, -180080.69, 0.00000040808163, 9.999377, 9.998698 
6.4494884e+2, 3.143765e+2, -142601.55, -10665.43, 45659.215, 0.0143478345, -0.076605864, 3594.6145, 3594.6145, 0.0000020409286, 9.998769, 10.000519 
6.550852e+2, 1.2440422e+2, -1528747.5, -1687103.6, 88843.1, 0.061999567, 0.026153602, -1488920.3, 231915.06, 0.0, 10.001571, 9.999418 
6.550721e+2, 1.3440263e+2, -1489730.3, -1635389.1, -137828.33, -0.15675746, -0.06847274, -1406672.6, 216176.55, 0.0, 10.001189, 9.999314 
6.5506756e+2, 1.4440165e+2, -1449492.4, -1600516.8, 20410.83, 0.23097207, -0.07649431, -1446782.5, 78075.91, 0.0, 10.000971, 9.99897 
6.55059e+2, 1.5440112e+2, -1329724.1, -1490313.1, -4993.7964, 0.05581238, -0.03223136, -1329569.0, 97296.04, 0.0, 10.001116, 9.998982 
6.550514e+2, 1.644003e+2, -1230764.6, -1370465.6, 3836.2473, -0.030313585, -0.020133892, -1230659.3, 98213.945, 0.0, 10.001028, 9.999176 
6.5504545e+2, 1.7439914e+2, -1186708.6, -1294306.4, 13132.178, 0.023467844, -0.059708074, -1185129.0, 45754.56, 0.0, 10.00064, 9.999213 
6.550391e+2, 1.8439811e+2, -1140425.5, -1252047.8, 10509.811, 0.041808393, -0.068562455, -1139444.5, -6551.1206, 0.0, 10.000418, 9.998937 
6.5503216e+2, 1.9439732e+2, -1039972.4, -1151632.3, 7880.2275, 0.009360893, -0.045804568, -1039419.0, -4516.7764, 0.0, 10.00043, 9.998946 
6.550252e+2, 2.0439652e+2, -944305.7, -1053087.3, -10008.014, 0.00044782762, -0.020688292, -943392.56, -6481.791, 0.0, 10.000407, 9.998962 
6.5501827e+2, 2.1439569e+2, -854115.75, -956287.6, -2344.6067, 0.02405928, -0.0029150129, -854062.0, -15142.887, 0.0, 10.000341, 9.998985 
6.5501136e+2, 2.2439443e+2, -796674.1, -912040.75, 17024.723, 0.028950203, -0.012453407, -794214.2, -53282.793, 0.0, 10.00021, 9.99868 
6.5500444e+2, 2.343926e+2, -727576.3, -827069.56, 18502.758, 0.01042863, -0.06667054, -724246.75, -81298.055, 0.0, 10.000009, 9.998687 
6.549977e+2, 2.4439134e+2, -632820.8, -705566.3, 23720.8, -0.0025515629, -0.0703706, -625769.44, -80808.484, 0.0, 9.999878, 9.998911 
6.5499103e+2, 2.5439084e+2, -536007.6, -602907.94, 27370.895, -0.007992163, -0.01785179, -526236.5, -79270.086, 0.0, 9.999847, 9.998958 
6.5498406e+2, 2.6438996e+2, -461115.84, -525273.7, -2405.862, -0.00444045, 0.002882896, -461025.78, -112050.336, 0.0, 9.999729, 9.998875 
6.5497667e+2, 2.7438858e+2, -396233.13, -440458.7, 1571.0352, 0.00943587, -0.027507761, -396177.38, -145188.39, 0.0, 9.99949, 9.9988985 
6.5496975e+2, 2.8438732e+2, -298246.22, -327445.4, 39677.625, 0.016842265, -0.04626629, -270567.4, -117566.85, 0.0, 9.999423, 9.999036 
6.549633e+2, 2.9438633e+2, -180583.38, -222142.3, 34368.72, 0.017590838, -0.055835053, -161200.72, -106191.64, 0.000000011654482, 9.999567, 9.999016 
6.549561e+2, 3.04385e+2, -153612.0, -172539.89, -30843.7, 0.031573754, -0.08772897, -130812.97, -130812.97, 0.00000041978168, 9.999368, 9.99912 
6.549475e+2, 3.1438506e+2, -117126.875, 45894.1, 24600.389, 0.0011527339, -0.008145319, 49525.49, 49525.49, 0.000002202322, 9.9987545, 10.000914 
6.6508657e+2, 1.2441058e+2, -1634230.1, -1708722.1, 85800.836, 0.08027041, 0.021744823, -1577939.8, 142834.69, 0.0, 10.00072, 9.9996805 
6.650733e+2, 1.3440934e+2, -1480417.0, -1601101.4, -156618.08, -0.14807002, -0.06471944, -1372918.8, 249865.13, 0.0, 10.001128, 9.9995775 
6.6506845e+2, 1.4440861e+2, -1422423.0, -1585827.4, 596.89606, 0.21103033, -0.061554465, -1422420.8, 102369.234, 0.0, 10.00115, 9.998984 
6.6506004e+2, 1.544079e+2, -1368569.8, -1509073.0, -704.7716, 0.06819119, -0.034974653, -1368566.3, 58232.17, 0.0, 10.00085, 9.998982 
6.650524e+2, 1.6440703e+2, -1274378.5, -1387347.8, 14591.407, -0.014043903, -0.030592617, -1272524.3, 56283.047, 0.0, 10.000712, 9.999211 
6.6504604e+2, 1.7440595e+2, -1163543.6, -1278585.5, 10742.076, 0.0100621, -0.065499134, -1162549.1, 68267.805, 0.0, 10.000782, 9.99925 
6.650394e+2, 1.8440503e+2, -1091878.8, -1219555.8, 9653.869, 0.01825304, -0.07025147, -1091152.9, 41672.906, 0.0, 10.000713, 9.999016 
6.6503245e+2, 1.9440433e+2, -1027929.06, -1137254.0, 17369.146, -0.0018501036, -0.044799387, -1025235.9, 9597.671, 0.0, 10.000476, 9.999023 
6.6502553e+2, 2.0440355e+2, -968298.1, -1071317.6, -2846.954, -0.0013414235, -0.017822294, -968219.5, -31377.389, 0.0, 10.000271, 9.998902 
6.6501856e+2, 2.1440269e+2, -891911.56, -981306.1, -17233.178, 0.027305217, 0.001981235, -888704.44, -49852.863, 0.0, 10.0001135, 9.998922 
6.650115e+2, 2.2440152e+2, -801651.44, -888473.5, 1686.6619, 0.036175992, -0.006301112, -801618.7, -60755.773, 0.0, 10.000065, 9.998911 
6.6500455e+2, 2.3439993e+2, -689169.0, -780849.1, 21702.863, 0.019260725, -0.060852326, -684290.94, -41414.207, 0.0, 10.000153, 9.998935 
6.649977e+2, 2.4439873e+2, -619268.4, -704095.6, 27339.176, 0.0051130773, -0.06901464, -611220.7, -66332.75, 0.0, 9.999992, 9.998866 
6.649907e+2, 2.5439808e+2, -588657.9, -635537.4, 19531.795, -0.0051271035, -0.027025383, -581586.75, -134691.34, 0.0, 9.9995165, 9.998892 
6.6498363e+2, 2.6439717e+2, -499205.25, -532730.75, -4926.577, -0.0008041403, -0.008570284, -498496.28, -149591.53, 0.0, 9.999421, 9.998971 
6.649764e+2, 2.74396e+2, -343582.75, -402916.9, -3755.2422, 0.02067378, -0.029040638, -343346.03, -92429.88, 0.0, 9.9998, 9.999006 
6.6496944e+2, 2.8439492e+2, -256949.73, -304551.94, 28763.463, 0.032325923, -0.037764397, -243416.81, -90490.82, 0.0, 9.999696, 9.999061 
6.649627e+2, 2.94394e+2, -262453.9, -258751.08, 37526.105, 0.031982824, -0.042583812, -223030.75, -168096.86, 0.000000008469742, 9.998995, 9.999039 
6.649552e+2, 3.0439243e+2, -218732.11, -202633.88, -21274.11, 0.02739032, -0.10126911, -187937.1, -187937.1, 0.00000038345433, 9.998916, 9.999129 
6.649465e+2, 3.1439278e+2, -4663.7925, 82953.16, -911.5746, -0.017780283, 0.0073030177, 82962.64, 82962.64, 0.0000022156387, 9.999599, 10.000761 
6.750877e+2, 1.2441617e+2, -1630276.4, -1702019.0, 91069.24, 0.12230073, -0.06297423, -1568268.4, 152451.0, 0.0, 10.000724, 9.999726 
6.750744e+2, 1.3441601e+2, -1477523.4, -1596220.1, -142082.19, -0.15396982, -0.04279462, -1382892.6, 239826.64, 0.0, 10.001134, 9.999608 
6.7506915e+2, 1.4441584e+2, -1401120.4, -1543516.3, -12028.807, 0.16631152, 0.0003918568, -1400111.5, 124608.54, 0.0, 10.001158, 9.999271 
6.7506117e+2, 1.5441462e+2, -1346760.4, -1464063.0, -12007.923, 0.088519014, -0.055700865, -1345543.8, 81188.07, 0.0, 10.000849, 9.999291 
6.750534e+2, 1.6441365e+2, -1281438.1, -1400508.8, 15630.962, 0.015531012, -0.07355992, -1279420.4, 49321.184, 0.0, 10.000706, 9.999124 
6.7504656e+2, 1.7441298e+2, -1171682.8, -1295031.3, 13947.452, -0.011263635, -0.056371886, -1170125.4, 60623.14, 0.0, 10.00078, 9.999139 
6.7503977e+2, 1.844123e+2, -1077883.8, -1190064.6, 699.56836, -0.01732981, -0.03939454, -1077879.4, 54875.816, 0.0, 10.000711, 9.99922 
6.750329e+2, 1.9441167e+2, -1012948.94, -1105483.6, 8338.259, -0.009452338, -0.029967073, -1012203.6, 22557.688, 0.0, 10.000472, 9.999244 
6.750258e+2, 2.0441064e+2, -991017.0, -1117244.4, -9837.181, 0.0027687107, -0.02531488, -990254.94, -53482.605, 0.0, 10.000265, 9.99859 
6.750186e+2, 2.1440913e+2, -916301.9, -1031601.56, -22871.273, 0.025937002, -0.03490966, -911930.75, -73141.31, 0.0, 10.000112, 9.998578 
6.750116e+2, 2.2440813e+2, -770186.94, -822595.06, 4020.785, 0.0312648, -0.028715266, -769880.25, -29080.932, 0.0, 10.000062, 9.999365 
6.750047e+2, 2.3440777e+2, -653928.25, -707496.56, 25585.322, 0.013570956, -0.012889736, -643671.9, -871.79645, 0.0, 10.000152, 9.999439 
6.749976e+2, 2.444068e+2, -630208.3, -726591.25, 10241.667, 0.0044013234, -0.01699809, -629132.06, -84323.77, 0.0, 9.999991, 9.998713 
6.7499036e+2, 2.544051e+2, -602716.94, -664595.56, 1988.5217, 0.007169961, -0.056208055, -602653.1, -155827.34, 0.0, 9.999516, 9.998693 
6.749832e+2, 2.6440388e+2, -495943.47, -525409.06, 7325.53, 0.013167089, -0.06615301, -494222.72, -145383.81, 0.0, 9.999418, 9.9990225 
6.749762e+2, 2.7440315e+2, -339394.22, -392773.84, 11211.152, 0.023555545, -0.04643788, -337135.2, -86289.09, 0.0, 9.999793, 9.99908 
6.749692e+2, 2.8440255e+2, -241814.31, -271506.66, 4332.947, 0.034803245, -0.022701895, -241194.94, -88343.89, 0.0, 9.999688, 9.99929 
6.7496186e+2, 2.9440206e+2, -247120.45, -224553.83, 11920.409, 0.04471834, -0.00801458, -219423.44, -164569.7, 0.0000000040864183, 9.998984, 9.999278 
6.749541e+2, 3.044001e+2, -248407.66, -262814.38, 1902.3008, 0.022841671, -0.10121883, -248160.7, -248160.7, 0.0000003121116, 9.99891, 9.998719 
6.749458e+2, 3.1439963e+2, -54069.816, -18504.412, 26683.021, -0.04954177, -0.025451766, -4221.4287, -4221.4287, 0.0000020914758, 9.999595, 10.000066 
6.8508846e+2, 1.2442297e+2, -1570819.5, -1679678.6, 134406.03, 0.10335548, -0.083612196, -1480240.3, 240411.67, 0.0, 10.00116, 9.99967 
6.850757e+2, 1.344229e+2, -1474831.9, -1603595.3, -100832.7, -0.13882458, -0.046680145, -1419579.8, 203071.88, 0.0, 10.001192, 9.999529 
6.850702e+2, 1.4442289e+2, -1403218.1, -1533718.5, 4397.1167, 0.16072491, 0.011043385, -1403070.1, 121581.09, 0.0, 10.001098, 9.999367 
6.85062e+2, 1.5442155e+2, -1316744.1, -1437719.1, -11362.08, 0.08276814, -0.064409316, -1315686.3, 110977.41, 0.0, 10.001006, 9.999396 
6.850541e+2, 1.6442065e+2, -1258605.9, -1381190.4, 18590.281, 0.010090677, -0.08331234, -1255848.6, 72823.79, 0.0, 10.00083, 9.999195 
6.8504727e+2, 1.7442027e+2, -1200763.1, -1301441.1, 28667.695, -0.013554386, -0.04493362, -1193172.4, 37504.652, 0.0, 10.000548, 9.999206 
6.8504035e+2, 1.8441969e+2, -1131808.4, -1216633.1, 13416.339, -0.013505407, -0.022455333, -1129737.0, 2946.046, 0.0, 10.000343, 9.999214 
6.850333e+2, 1.9441892e+2, -1045837.8, -1121002.6, 3966.7715, 0.0014625764, -0.026853645, -1045629.0, -10938.543, 0.0, 10.000248, 9.999243 
6.8502617e+2, 2.0441782e+2, -984340.3, -1101065.8, -994.41223, 0.016129855, -0.033052474, -984331.8, -47630.16, 0.0, 10.000257, 9.998704 
6.8501896e+2, 2.1441637e+2, -865917.56, -994280.7, 19672.705, 0.034954708, -0.050012756, -862970.25, -24252.76, 0.0, 10.000401, 9.998695 
6.850118e+2, 2.2441542e+2, -744264.94, -821924.25, 40225.03, 0.03313548, -0.040818803, -727185.8, 13541.218, 0.0, 10.000291, 9.99926 
6.8500465e+2, 2.3441508e+2, -703220.75, -743673.25, 13603.806, 0.0044817645, -0.008697021, -699071.5, -56342.836, 0.0, 9.999867, 9.999327 
6.849974e+2, 2.4441418e+2, -665614.9, -733260.7, -16338.828, -0.005927196, -0.0059060734, -661875.2, -117138.5, 0.0, 9.999704, 9.998804 
6.8499005e+2, 2.5441256e+2, -544144.25, -624400.1, -2309.0684, 0.0065160426, -0.050932735, -544077.9, -97324.98, 0.0, 9.999867, 9.998799 
6.8498284e+2, 2.644112e+2, -451878.28, -513222.13, 16016.186, 0.019613441, -0.06917831, -447948.4, -99181.99, 0.0, 9.999761, 9.998941 
6.84976e+2, 2.744103e+2, -414212.4, -439363.9, 6487.9727, 0.03506775, -0.06086445, -412637.44, -161861.38, 0.0, 9.999325, 9.998985 
6.8496877e+2, 2.8440976e+2, -297907.13, -290238.38, -16414.502, 0.043841902, -0.029865423, -277216.34, -124435.74, 0.0, 9.999269, 9.999364 
6.8496114e+2, 2.9440963e+2, -140044.38, -162563.5, -21492.555, 0.040397342, 0.013550076, -127040.64, -72261.21, 0.0000000009738006, 9.999676, 9.999372 
6.849533e+2, 3.0440763e+2, -143800.39, -215587.64, -14855.0, 0.010427668, -0.09064906, -140847.88, -140847.88, 0.00000022618863, 9.999642, 9.998691 
6.849452e+2, 3.1440678e+2, -154570.7, -101096.74, 38670.61, -0.038609903, -0.049390994, -80820.086, -80820.086, 0.0000018666766, 9.999054, 9.999759 
6.9508886e+2, 1.24430925e+2, -1580757.1, -1705148.9, 125929.77, 0.025868664, -0.045763884, -1502501.5, 218070.94, 0.0, 10.001178, 9.999488 
6.950772e+2, 1.3442999e+2, -1488833.0, -1631013.0, -101151.51, -0.107367426, -0.07692648, -1436288.8, 186292.13, 0.0, 10.001186, 9.999343 
6.950716e+2, 1.4442971e+2, -1410951.5, -1547402.3, -892.4816, 0.18890104, -0.0298153, -1410945.6, 113637.695, 0.0, 10.001088, 9.999277 
6.950627e+2, 1.5442875e+2, -1322028.8, -1449512.5, -13406.539, 0.04856762, -0.06097271, -1320634.1, 105959.07, 0.0, 10.00101, 9.999313 
6.950546e+2, 1.644281e+2, -1244055.1, -1351705.6, 7576.9673, -0.033569757, -0.0603957, -1243524.4, 85075.35, 0.0, 10.000833, 9.999396 
6.950479e+2, 1.7442784e+2, -1185853.9, -1269710.6, 17776.23, -0.0004680866, -0.03130766, -1182241.3, 48361.21, 0.0, 10.000545, 9.999426 
6.9504106e+2, 1.8442719e+2, -1146107.3, -1244789.6, 8533.262, 0.025137385, -0.019413562, -1145374.8, -12765.498, 0.0, 10.000337, 9.999024 
6.9503385e+2, 1.9442606e+2, -1061108.9, -1152333.9, 830.3987, 0.029360104, -0.036447898, -1061101.4, -26480.305, 0.0, 10.000246, 9.999029 
6.950267e+2, 2.0442513e+2, -947441.6, -1024334.94, 3238.5283, 0.036538966, -0.042084023, -947305.44, -10675.509, 0.0, 10.000256, 9.999231 
6.9501954e+2, 2.144244e+2, -826531.5, -911737.8, 25293.27, 0.05181922, -0.04284077, -819588.94, 19046.605, 0.0, 10.000397, 9.999265 
6.950121e+2, 2.2442335e+2, -790855.25, -917885.4, 24750.736, 0.03877026, -0.042040177, -786203.1, -45557.15, 0.0, 10.000287, 9.998603 
6.9500434e+2, 2.3442191e+2, -754951.44, -851054.25, -2119.5835, -0.009838983, -0.04803706, -754904.7, -112242.25, 0.0, 9.9998665, 9.99859 
6.949969e+2, 2.4442087e+2, -641201.9, -682484.7, -11803.873, -0.028377362, -0.03575817, -638065.1, -93391.95, 0.0, 9.999703, 9.999153 
6.9498974e+2, 2.5442034e+2, -515295.34, -563693.9, 4435.36, -0.009026225, -0.0115406215, -514892.25, -68215.484, 0.0, 9.999864, 9.999218 
6.949826e+2, 2.6441926e+2, -467874.3, -545476.06, 617.09937, 0.01672786, -0.0187207, -467869.4, -119182.2, 0.0, 9.999757, 9.998722 
6.949754e+2, 2.7441746e+2, -433848.28, -478847.7, -9390.606, 0.05256463, -0.07183042, -431967.25, -181261.31, 0.0, 9.999319, 9.998716 
6.9496816e+2, 2.8441656e+2, -304245.63, -302271.63, -2766.9019, 0.056117162, -0.058554355, -300320.94, -147606.39, 0.0, 9.999264, 9.999284 
6.949606e+2, 2.9441673e+2, -144535.19, -171040.95, -5071.4873, 0.015462039, 0.021790434, -143597.97, -88886.945, 0.000000000021633938, 9.999672, 9.999314 
6.949526e+2, 3.04415e+2, -119515.375, -163808.73, -35649.637, -0.012233101, -0.07024846, -99693.35, -99693.35, 0.00000014519733, 9.999637, 9.999048 
6.9494474e+2, 3.144142e+2, -151657.27, -90761.14, 16247.937, 0.009486886, -0.055357594, -86697.17, -86697.17, 0.0000015881137, 9.999036, 9.999838 
7.050903e+2, 1.2443883e+2, -1526967.6, -1690405.5, 114938.77, 0.027949216, -0.01908762, -1467658.5, 252836.05, 0.0, 10.0015955, 9.999388 
7.0507854e+2, 1.344374e+2, -1500537.3, -1649436.6, -101003.01, -0.086077414, -0.0886486, -1449510.4, 172997.53, 0.0, 10.001164, 9.999225 
7.050725e+2, 1.4443699e+2, -1446731.6, -1569322.5, 11547.777, 0.18234996, -0.04719771, -1445653.4, 78858.42, 0.0, 10.000864, 9.999234 
7.0506346e+2, 1.5443613e+2, -1343418.9, -1464557.0, 2734.3203, 0.03392125, -0.0629348, -1343357.1, 83163.68, 0.0, 10.000884, 9.99927 
7.0505524e+2, 1.6443554e+2, -1245890.3, -1351055.0, 12201.88, -0.043017495, -0.055262614, -1244493.1, 84033.9, 0.0, 10.000813, 9.99941 
7.0504856e+2, 1.7443526e+2, -1172684.9, -1260570.3, 6712.9575, 0.009707532, -0.029996196, -1172175.1, 58354.594, 0.0, 10.000625, 9.999449 
7.0504165e+2, 1.8443455e+2, -1114674.3, -1225435.9, 6432.206, 0.039309267, -0.024566302, -1114302.0, 18234.654, 0.0, 10.000537, 9.99906 
7.0503426e+2, 1.9443336e+2, -1010827.1, -1124924.3, 15734.097, 0.027305262, -0.051770713, -1008697.1, 25851.545, 0.0, 10.000576, 9.999059 
7.050269e+2, 2.0443246e+2, -911281.0, -999836.4, 10627.716, 0.025668617, -0.058883764, -910023.44, 26533.596, 0.0, 10.000472, 9.999296 
7.050197e+2, 2.144319e+2, -850600.06, -914945.9, -5645.3887, 0.041255523, -0.051285356, -850108.5, -11547.819, 0.0, 10.000196, 9.999338 
7.0501226e+2, 2.2443084e+2, -830978.1, -950901.0, -9688.721, 0.034707077, -0.048234746, -830200.44, -89629.12, 0.0, 10.000072, 9.99848 
7.050044e+2, 2.3442921e+2, -725554.5, -852084.2, 7397.9175, -0.00074317557, -0.0587728, -725123.44, -82533.02, 0.0, 10.0001335, 9.998455 
7.049968e+2, 2.4442816e+2, -594092.9, -659912.0, 13859.903, -0.01969826, -0.041520324, -591293.4, -46691.406, 0.0, 10.000028, 9.999152 
7.0498943e+2, 2.5442782e+2, -535235.4, -572441.1, -1963.5088, -0.0177144, -0.0003589933, -535132.0, -88527.83, 0.0, 9.999723, 9.999226 
7.0498216e+2, 2.644268e+2, -490591.06, -549789.3, -16376.055, 0.0065440573, -0.0028955727, -486362.9, -137749.39, 0.0, 9.999572, 9.998781 
7.0497495e+2, 2.7442497e+2, -387559.5, -449078.6, -2440.295, 0.060201388, -0.0674724, -387462.84, -136831.25, 0.0, 9.999606, 9.998783 
7.049677e+2, 2.8442386e+2, -288020.5, -319829.75, 22703.826, 0.0704825, -0.06687623, -276204.72, -123562.56, 0.0, 9.999484, 9.999057 
7.049601e+2, 2.9442367e+2, -231407.56, -239773.63, 6577.5405, 0.023218527, 0.0018278966, -227795.61, -173151.92, 0.0, 9.999191, 9.999075 
7.0495206e+2, 3.0442214e+2, -161862.5, -144754.72, -38292.215, -0.011142636, -0.07034161, -114072.625, -114072.625, 0.00000008201181, 9.999175, 9.999402 
7.0494413e+2, 3.144218e+2, -80423.48, -41020.66, 9697.041, 0.023633858, -0.05248505, -38763.516, -38763.516, 0.0000012936833, 9.999457, 9.999977 
7.1509266e+2, 1.244467e+2, -1529425.1, -1694736.6, 87417.42, 0.10452691, -0.0051900935, -1491773.9, 228644.11, 0.0, 10.00159, 9.999363 
7.1507984e+2, 1.3444515e+2, -1501938.4, -1654919.6, -117162.9, -0.07908766, -0.0824538, -1438507.6, 183924.48, 0.0, 10.001176, 9.999182 
7.150729e+2, 1.444447e+2, -1447203.0, -1572184.6, 8963.155, 0.13671888, -0.04195773, -1446563.5, 77872.664, 0.0, 10.000873, 9.99921 
7.1506435e+2, 1.544437e+2, -1345291.4, -1467858.9, 3920.115, 0.03485671, -0.07073626, -1345166.1, 81280.34, 0.0, 10.000881, 9.9992485 
7.150563e+2, 1.6444296e+2, -1257102.0, -1373106.6, 5434.0684, -0.022844924, -0.0687408, -1256848.0, 71605.98, 0.0, 10.000808, 9.999262 
7.1504927e+2, 1.7444253e+2, -1183322.1, -1283406.3, 569.34973, 0.0151434215, -0.041571613, -1183318.9, 47139.504, 0.0, 10.0006275, 9.99929 
7.1504205e+2, 1.8444185e+2, -1098187.1, -1191111.8, 6939.613, 0.026173552, -0.038402323, -1097671.8, 34792.984, 0.0, 10.000536, 9.999296 
7.150345e+2, 1.9444086e+2, -993531.2, -1087773.1, 17399.05, -0.007439792, -0.07152271, -990421.56, 44051.746, 0.0, 10.00057, 9.999317 
7.15027e+2, 2.0443986e+2, -939231.0, -1056655.1, 21.691916, -0.018920364, -0.08243033, -939231.0, -2748.3347, 0.0, 10.000467, 9.998909 
7.150195e+2, 2.1443886e+2, -880844.75, -977314.44, -15861.136, 0.002051595, -0.07586566, -878303.8, -39810.89, 0.0, 10.000194, 9.998912 
7.1501213e+2, 2.244379e+2, -801377.56, -889365.1, -8718.662, 0.019018246, -0.06006531, -800522.0, -60019.082, 0.0, 10.000071, 9.998902 
7.1500486e+2, 2.3443705e+2, -693048.1, -783839.4, 10302.386, 0.029686026, -0.040795263, -691893.75, -49381.438, 0.0, 10.000131, 9.998925 
7.149972e+2, 2.4443609e+2, -619876.6, -712676.44, 2682.0881, 0.017493991, -0.022917027, -619799.2, -75276.19, 0.0, 10.000025, 9.998792 
7.149891e+2, 2.5443497e+2, -564544.06, -633251.4, -13055.353, -0.02172191, -0.01658395, -562146.94, -115611.836, 0.0, 9.9997225, 9.998809 
7.1498156e+2, 2.6443386e+2, -465694.2, -498246.2, -15949.609, -0.01324249, -0.021598168, -459182.06, -110636.71, 0.0, 9.999572, 9.999135 
7.1497446e+2, 2.744328e+2, -359687.47, -390262.25, -532.4283, 0.05513777, -0.048686177, -359678.22, -109125.266, 0.0, 9.999601, 9.999189 
7.149673e+2, 2.8443167e+2, -315408.25, -375326.03, 11902.368, 0.08427121, -0.05531847, -313130.5, -160567.17, 0.0, 9.999478, 9.998678 
7.149597e+2, 2.9443046e+2, -262774.38, -302611.8, -3415.9385, 0.061224803, -0.04558385, -262483.6, -207906.28, 0.0, 9.999182, 9.998648 
7.1495146e+2, 3.0442917e+2, -138365.47, -93946.31, -28424.52, 0.0111709945, -0.09134115, -80083.484, -80083.484, 0.00000004119849, 9.9991665, 9.999756 
7.1494335e+2, 3.1442964e+2, -68362.72, -13929.164, 20111.611, -0.004226876, -0.030495433, -7304.6953, -7304.6953, 0.0000010048329, 9.999449, 10.000168 
7.2509396e+2, 1.2445439e+2, -1639183.6, -1738501.1, 89971.625, 0.11941781, -0.020178426, -1586076.3, 134266.5, 0.0, 10.000793, 9.999447 
7.250811e+2, 1.344529e+2, -1451842.3, -1623101.9, -98165.12, -0.080111004, -0.09632878, -1407207.6, 215148.48, 0.0, 10.00149, 9.999248 
7.250739e+2, 1.4445259e+2, -1340865.3, -1523434.9, 20865.572, 0.10917207, -0.043622024, -1338510.9, 185847.63, 0.0, 10.001614, 9.9991865 
7.250654e+2, 1.544517e+2, -1306251.9, -1452314.1, 14969.434, 0.043388296, -0.060243897, -1304733.5, 121634.42, 0.0, 10.001164, 9.999218 
7.250573e+2, 1.6445084e+2, -1252599.0, -1382949.6, 22396.332, -0.0042910906, -0.06262337, -1248858.4, 79518.12, 0.0, 10.00089, 9.999154 
7.250499e+2, 1.7445004e+2, -1160652.6, -1285683.0, 19383.416, 0.01088651, -0.06083313, -1157716.6, 72667.89, 0.0, 10.000839, 9.999174 
7.2504246e+2, 1.8444927e+2, -1076237.1, -1180039.0, 19792.781, 0.011457903, -0.06183112, -1072591.1, 59800.52, 0.0, 10.000684, 9.999301 
7.2503483e+2, 1.944485e+2, -1016798.3, -1096730.4, 11880.112, -0.01850799, -0.07390886, -1015069.94, 19327.77, 0.0, 10.000403, 9.999334 
7.250272e+2, 2.0444751e+2, -972356.0, -1088349.8, -3063.8918, -0.029628158, -0.07754505, -972275.1, -35867.918, 0.0, 10.000308, 9.998768 
7.2501963e+2, 2.1444628e+2, -855652.1, -982305.1, 610.2486, -0.013011687, -0.07990954, -855649.2, -17228.285, 0.0, 10.00044, 9.998759 
7.2501224e+2, 2.244453e+2, -751227.3, -844696.2, 7158.8965, 0.008333338, -0.0669797, -750682.2, -10251.202, 0.0, 10.000326, 9.999086 
7.25005e+2, 2.3444468e+2, -708878.94, -768377.75, 4550.0425, 0.03452091, -0.044487942, -708533.0, -66096.36, 0.0, 9.999922, 9.999131 
7.249973e+2, 2.4444374e+2, -672482.6, -758344.1, -3574.6965, 0.033990834, -0.02589292, -672334.06, -127887.336, 0.0, 9.99975, 9.9986105 
7.249891e+2, 2.5444242e+2, -558545.06, -652743.8, -3583.1792, 0.00082286913, -0.021403374, -558408.94, -111946.72, 0.0, 9.999861, 9.998609 
7.2498137e+2, 2.6444122e+2, -422514.6, -464363.5, -5817.24, -0.0004294715, -0.029124336, -421721.03, -73247.555, 0.0, 9.999813, 9.999252 
7.249739e+2, 2.7444026e+2, -352940.72, -372053.78, -11844.374, 0.03896192, -0.060664408, -347278.3, -96799.12, 0.0, 9.999583, 9.999324 
7.249665e+2, 2.844392e+2, -321100.03, -377999.4, 1612.0383, 0.06768445, -0.06785064, -321054.4, -168565.81, 0.0, 9.999438, 9.99868 
7.2495914e+2, 2.9443806e+2, -231230.72, -287863.84, 17538.1, 0.07899545, -0.05153256, -226239.44, -171736.97, 0.0, 9.999399, 9.998645 
7.249509e+2, 3.04437e+2, -109988.695, -81849.3, 7985.3096, 0.03176066, -0.07108428, -79741.19, -79741.19, 0.000000018939705, 9.999369, 9.999742 
7.2494274e+2, 3.1443685e+2, -94173.43, -40539.375, 22222.367, -0.00416686, -0.067900136, -32528.443, -32528.443, 0.0000007295325, 9.999331, 10.000043 
7.3509425e+2, 1.2446189e+2, -1625861.1, -1713213.3, 104608.97, 0.068774246, -0.06409427, -1556176.5, 164092.13, 0.0, 10.000802, 9.999618 
7.350825e+2, 1.3446066e+2, -1441107.5, -1599049.5, -72756.77, -0.09195783, -0.13031001, -1412700.8, 209578.66, 0.0, 10.001483, 9.999414 
7.350753e+2, 1.444607e+2, -1342273.0, -1524894.1, 4697.113, 0.09507609, -0.053471852, -1342152.3, 182126.55, 0.0, 10.001607, 9.99918 
7.350668e+2, 1.5446013e+2, -1307313.6, -1456119.6, -803.3244, 0.055994682, -0.032489877, -1307309.3, 118975.73, 0.0, 10.00117, 9.999189 
7.3505837e+2, 1.644592e+2, -1258715.9, -1395980.1, 19072.83, 0.008491418, -0.038042072, -1256114.9, 72179.39, 0.0, 10.000892, 9.9990635 
7.350507e+2, 1.744578e+2, -1167328.8, -1298945.3, 17687.15, -0.005155847, -0.08672351, -1164993.3, 65314.383, 0.0, 10.000836, 9.999084 
7.3504305e+2, 1.8445681e+2, -1091511.8, -1210746.1, 9018.799, -0.0073784, -0.094513565, -1090833.5, 41483.7, 0.0, 10.000679, 9.999093 
7.3503536e+2, 1.944563e+2, -1032040.44, -1128310.3, 1502.447, -0.008366744, -0.060113925, -1032017.0, 2304.8196, 0.0, 10.0004015, 9.999119 
7.3502773e+2, 2.0445545e+2, -965473.5, -1073503.3, 398.78732, -0.009769924, -0.04528787, -965472.0, -29141.475, 0.0, 10.000305, 9.998871 
7.350202e+2, 2.1445416e+2, -848051.75, -965308.7, 5918.279, -0.006720569, -0.06299092, -847753.8, -9409.487, 0.0, 10.000434, 9.998879 
7.3501253e+2, 2.2445303e+2, -755947.25, -853507.0, -7870.649, 0.00049225875, -0.06853626, -755316.3, -14960.934, 0.0, 10.000321, 9.999028 
7.3500466e+2, 2.3445211e+2, -713663.7, -778477.6, -10477.199, 0.012050515, -0.0695155, -712012.1, -69648.94, 0.0, 9.999923, 9.999063 
7.34997e+2, 2.4445114e+2, -671498.7, -756425.94, -864.39777, 0.027521383, -0.05065286, -671489.9, -127116.74, 0.0, 9.99975, 9.998624 
7.3498946e+2, 2.5445014e+2, -557744.44, -649893.0, 1027.9655, 0.0472709, -0.015409563, -557733.0, -111347.5, 0.0, 9.999855, 9.998631 
7.3498166e+2, 2.6444888e+2, -432257.22, -483445.63, -14035.325, 0.042428575, -0.025882993, -428661.47, -80263.68, 0.0, 9.999808, 9.999124 
7.349732e+2, 2.7444732e+2, -363724.66, -393830.84, -19878.303, 0.00958226, -0.10209744, -353842.97, -103432.8, 0.0, 9.99958, 9.999176 
7.349655e+2, 2.8444645e+2, -293047.47, -319504.66, -203.43423, 0.018160474, -0.10371889, -293045.9, -140628.13, 0.0, 9.999436, 9.999083 
7.349584e+2, 2.944464e+2, -201154.69, -224011.19, 17528.26, 0.07264265, -0.016923046, -191658.2, -137239.22, 0.0, 9.999393, 9.999086 
7.349504e+2, 3.0444568e+2, -139324.0, -141227.13, 6954.6885, 0.04650658, -0.010231676, -133256.08, -133256.08, 0.0000000073965225, 9.999362, 9.999337 
7.3494226e+2, 3.1444365e+2, -130647.3, -111842.74, 19720.443, 0.016997784, -0.15188457, -99397.85, -99397.85, 0.0000004773962, 9.999313, 9.999561 
7.4509525e+2, 1.24470346e+2, -1502851.9, -1665036.5, 126739.65, 0.043547828, -0.054249708, -1433481.9, 286704.03, 0.0, 10.001697, 9.9995165 
7.4508387e+2, 1.3446908e+2, -1517753.1, -1649037.8, -64940.133, -0.078485526, -0.11422717, -1491058.4, 131139.58, 0.0, 10.001016, 9.999296 
7.4507654e+2, 1.4446904e+2, -1465183.1, -1581711.3, 2380.9138, 0.09485501, -0.038065173, -1465134.5, 59063.637, 0.0, 10.0007515, 9.999204 
7.4506783e+2, 1.544684e+2, -1309959.4, -1453983.6, 1338.0951, 0.04568116, -0.028687563, -1309947.0, 116257.695, 0.0, 10.001137, 9.99922 
7.4505925e+2, 1.6446742e+2, -1224952.4, -1386042.6, 18356.768, -0.0020786745, -0.03689547, -1222887.1, 105327.07, 0.0, 10.001151, 9.999007 
7.450514e+2, 1.7446604e+2, -1191101.6, -1317371.9, 17834.326, -0.005505616, -0.07812073, -1188631.0, 41596.266, 0.0, 10.000704, 9.999021 
7.4504364e+2, 1.8446498e+2, -1118216.4, -1229916.9, 23429.932, -0.0028239873, -0.086078905, -1113500.9, 18736.297, 0.0, 10.000522, 9.999038 
7.450359e+2, 1.9446431e+2, -997217.2, -1118261.5, 27065.941, -0.0071384143, -0.06115409, -991440.8, 42802.387, 0.0, 10.000669, 9.999061 
7.450282e+2, 2.044634e+2, -925814.94, -1058824.8, 26402.916, -0.0076266835, -0.04564774, -920765.56, 15486.837, 0.0, 10.000596, 9.998832 
7.450206e+2, 2.1446222e+2, -876368.3, -982786.56, 18865.703, 0.001288098, -0.051056005, -873122.8, -34857.086, 0.0, 10.0002575, 9.998844 
7.4501276e+2, 2.244611e+2, -782115.3, -870070.4, 964.59204, 0.0033721006, -0.054222584, -782104.75, -41827.75, 0.0, 10.000158, 9.998994 
7.450046e+2, 2.3446004e+2, -654117.5, -753428.44, 136.09247, -0.004083157, -0.06448438, -654117.3, -11831.643, 0.0, 10.000347, 9.99903 
7.449968e+2, 2.4445893e+2, -594397.9, -715387.3, 10850.23, 0.010508748, -0.05983605, -593432.56, -49136.117, 0.0, 10.000264, 9.998657 
7.449894e+2, 2.5445777e+2, -555378.2, -644891.3, 12636.557, 0.051601287, -0.044250045, -553628.5, -107318.94, 0.0, 9.999855, 9.998666 
7.4498147e+2, 2.6445654e+2, -471305.72, -518251.88, -1340.8079, 0.059543114, -0.045982294, -471267.44, -122945.68, 0.0, 9.999607, 9.998982 
7.4497294e+2, 2.7445525e+2, -376419.6, -417079.4, -8552.795, 0.029050518, -0.08034805, -374693.78, -124360.695, 0.0, 9.999566, 9.999023 
7.449651e+2, 2.844543e+2, -283397.25, -310881.72, 586.5476, 0.030951377, -0.08140374, -283384.75, -131043.0, 0.0, 9.999486, 9.999118 
7.4495775e+2, 2.9445386e+2, -202012.27, -219322.56, -12301.053, 0.068041846, -0.04118213, -195626.55, -141280.31, 0.0, 9.999365, 9.999132 
7.449497e+2, 3.0445346e+2, -143270.0, -146400.05, -19373.725, 0.03642879, -0.0026927602, -125398.195, -125398.195, 0.0000000015345106, 9.99935, 9.999307 
7.449418e+2, 3.1445155e+2, -103938.734, -94186.836, 20584.842, 0.026276752, -0.13053158, -77908.34, -77908.34, 0.00000026410652, 9.9994755, 9.999604 
7.5509685e+2, 1.24479756e+2, -1531825.8, -1723773.8, 90182.57, 0.032598067, 0.0077101677, -1496103.5, 223991.05, 0.0, 10.001689, 9.999117 
7.5508523e+2, 1.344781e+2, -1546571.0, -1708762.4, -91291.766, -0.04385494, -0.05036938, -1505557.4, 116554.34, 0.0, 10.001015, 9.998885 
7.550774e+2, 1.4447764e+2, -1460913.3, -1573523.0, 13173.511, 0.10490352, 0.0014884477, -1459392.8, 64723.668, 0.0, 10.000755, 9.999258 
7.550686e+2, 1.544765e+2, -1303472.0, -1440634.9, 16633.121, 0.010915841, -0.047355685, -1301483.8, 124643.03, 0.0, 10.001138, 9.999312 
7.5506e+2, 1.6447553e+2, -1226118.0, -1388521.6, 2575.9622, -0.039209686, -0.05893922, -1226077.3, 102058.49, 0.0, 10.00115, 9.998991 
7.5505227e+2, 1.7447475e+2, -1192596.9, -1322027.9, 1263.3276, 0.006670168, -0.036871713, -1192584.5, 37558.69, 0.0, 10.000709, 9.998987 
7.5504446e+2, 1.8447378e+2, -1112144.6, -1216858.0, 27155.756, 0.020746667, -0.038530916, -1105521.1, 26630.646, 0.0, 10.00052, 9.999128 
7.550365e+2, 1.9447258e+2, -991049.75, -1104581.4, 32848.367, -0.016045513, -0.07654258, -982230.7, 51930.953, 0.0, 10.000665, 9.999156 
7.550286e+2, 2.0447147e+2, -939476.8, -1086220.3, 13617.766, -0.024067016, -0.07802264, -938223.75, -2051.1067, 0.0, 10.000591, 9.998647 
7.550209e+2, 2.1447048e+2, -890541.8, -1011798.3, 5997.8403, 0.0081092585, -0.044194564, -890245.9, -52060.805, 0.0, 10.000255, 9.998647 
7.55013e+2, 2.2446947e+2, -782968.56, -870792.7, 6348.8667, 0.013210767, -0.02418803, -782512.0, -42316.383, 0.0, 10.000154, 9.998991 
7.550048e+2, 2.3446846e+2, -654500.56, -753052.7, 7500.278, -0.015838731, -0.029707272, -653933.06, -11729.154, 0.0, 10.000342, 9.999035 
7.549968e+2, 2.4446708e+2, -591565.06, -708643.8, -3852.09, -0.018355008, -0.05340024, -591438.5, -47221.95, 0.0, 10.00026, 9.998706 
7.5498885e+2, 2.5446528e+2, -552523.06, -638573.1, -2391.1868, 0.011533618, -0.10706374, -552456.7, -106222.28, 0.0, 9.999853, 9.99871 
7.54981e+2, 2.6446423e+2, -481887.1, -539874.4, -3745.9248, 0.04844244, -0.08881403, -481646.13, -133400.92, 0.0, 9.999605, 9.998835 
7.5497323e+2, 2.7446404e+2, -387842.0, -439269.56, -9036.051, 0.09484424, 0.003404077, -386300.53, -136052.7, 0.0, 9.999559, 9.998875 
7.5496525e+2, 2.844628e+2, -308855.8, -362548.2, -3783.1072, 0.103696376, -0.0012638589, -308590.56, -156330.19, 0.0, 9.99948, 9.998767 
7.549571e+2, 2.9446042e+2, -228866.17, -273731.38, -15950.553, 0.06174785, -0.12073387, -223773.48, -169489.53, 0.0, 9.999358, 9.998762 
7.549487e+2, 3.0446035e+2, -117386.305, -91399.97, -15247.785, -0.0023944597, -0.044613272, -84360.23, -84360.23, 0.00000000001992495, 9.999345, 9.999686 
7.5494117e+2, 3.1446064e+2, -65621.02, -11003.732, 25221.725, 0.017458657, 0.004259279, -1138.4967, -1138.4967, 0.000000109993245, 9.999461, 10.000182 
7.650982e+2, 1.2448844e+2, -1673932.9, -1781665.3, 57839.625, 0.05331715, 0.026801996, -1648761.1, 71249.69, 0.0, 10.000664, 9.999216 
7.650865e+2, 1.344868e+2, -1496240.3, -1673600.6, -78459.83, -0.03468448, -0.0386517, -1466513.9, 155513.33, 0.0, 10.001314, 9.998982 
7.650782e+2, 1.444863e+2, -1373743.3, -1540567.6, 41221.453, 0.08259499, 0.0075624576, -1364113.5, 159918.47, 0.0, 10.001392, 9.999177 
7.650694e+2, 1.5448503e+2, -1344390.9, -1470728.0, 31492.828, -0.010861774, -0.04301397, -1336975.6, 89068.15, 0.0, 10.0009, 9.999221 
7.6506084e+2, 1.6448405e+2, -1274429.5, -1410696.8, 13818.18, -0.05550143, -0.053194165, -1273042.4, 55010.527, 0.0, 10.000812, 9.999002 
7.650531e+2, 1.7448334e+2, -1116308.9, -1282966.5, 15151.053, -0.0025712035, -0.025794802, -1114942.8, 115116.69, 0.0, 10.001223, 9.999008 
7.650452e+2, 1.8448235e+2, -1027649.4, -1186177.6, 28462.684, 0.020723084, -0.026872516, -1022694.0, 109374.16, 0.0, 10.001143, 9.999039 
7.650372e+2, 1.9448099e+2, -1027466.9, -1132837.3, 18698.002, -0.0036153249, -0.071186624, -1024247.25, 9832.49, 0.0, 10.000462, 9.99906 
7.6502913e+2, 2.0447974e+2, -995541.1, -1112852.1, 8304.343, -0.013679955, -0.081456706, -994956.2, -58864.34, 0.0, 10.000205, 9.99865 
7.650212e+2, 2.1447863e+2, -859647.6, -996183.44, 15781.792, -0.0028263817, -0.059779465, -857847.2, -19742.709, 0.0, 10.0004635, 9.998652 
7.6501316e+2, 2.2447762e+2, -746584.4, -867395.3, 19416.127, 0.0014550796, -0.03544986, -743540.6, -3425.307, 0.0, 10.000466, 9.998862 
7.650052e+2, 2.344767e+2, -691725.1, -786753.0, 8223.305, -0.003912594, -0.016872978, -691018.75, -48894.76, 0.0, 10.000155, 9.998894 
7.6499707e+2, 2.4447535e+2, -624556.5, -716227.56, -11805.835, -0.001686501, -0.034596473, -623060.5, -78923.695, 0.0, 9.999997, 9.99878 
7.649887e+2, 2.5447348e+2, -520309.56, -613340.3, -8612.21, 0.009321689, -0.10496313, -519519.03, -73364.51, 0.0, 10.000032, 9.998796 
7.649807e+2, 2.6447245e+2, -434354.75, -524731.6, -2399.9705, 0.038296863, -0.08595854, -434291.06, -86126.16, 0.0, 9.999967, 9.998764 
7.6497287e+2, 2.744724e+2, -362099.1, -435947.38, -3418.1135, 0.09097083, 0.02840434, -361941.25, -111774.46, 0.0, 9.999775, 9.998793 
7.649648e+2, 2.84471e+2, -297329.22, -362219.22, 15538.38, 0.10472211, 0.01542679, -293800.34, -141619.52, 0.0, 9.999581, 9.99872 
7.649565e+2, 2.9446813e+2, -225088.84, -277608.34, 26244.729, 0.06572938, -0.1486102, -214222.31, -160013.72, 0.0, 9.999408, 9.998712 
7.6494795e+2, 3.0446824e+2, -132919.58, -105176.67, 29686.377, -0.0021227384, -0.05163523, -86280.79, -86280.79, 0.0, 9.999264, 9.999632 
7.649404e+2, 3.1446877e+2, -102222.45, -8675.07, 30279.094, 0.01413743, 0.031621985, 270.19125, 270.19125, 0.000000028836135, 9.999122, 10.000361 
7.7509934e+2, 1.24496475e+2, -1632608.5, -1696023.6, 71259.09, 0.097953305, 0.009160882, -1586321.0, 133613.14, 0.00000000003061157, 10.000664, 9.9998045 
7.750876e+2, 1.3449521e+2, -1455277.5, -1587443.0, -54420.805, -0.054601897, -0.0770278, -1435753.3, 186190.83, 0.0, 10.00131, 9.999575 
7.75079e+2, 1.4449504e+2, -1388232.5, -1570939.5, 22644.525, 0.022798613, -0.019268665, -1385467.9, 138477.06, 0.0, 10.001392, 9.998969 
7.750702e+2, 1.5449403e+2, -1362458.4, -1509885.6, 13248.655, -0.02237849, -0.01807112, -1361277.3, 64678.41, 0.0, 10.000906, 9.99895 
7.7506167e+2, 1.6449298e+2, -1271675.6, -1404703.3, 26782.559, -0.05416189, -0.021801261, -1266485.9, 61479.918, 0.0, 10.000812, 9.999043 
7.7505404e+2, 1.7449185e+2, -1112268.0, -1273475.3, 30837.246, -0.034847643, -0.043870844, -1106570.5, 123405.14, 0.0, 10.001219, 9.999076 
7.7504617e+2, 1.8449071e+2, -1047135.0, -1225042.4, 4115.7534, -0.005432142, -0.050529044, -1047039.8, 84946.24, 0.0, 10.001136, 9.9987755 
7.7503794e+2, 1.9448957e+2, -1047595.75, -1174546.4, -6979.3223, 0.027367366, -0.045323655, -1047213.2, -13215.902, 0.0, 10.00046, 9.9987755 
7.7502966e+2, 2.0448823e+2, -982675.8, -1084938.6, 15395.944, 0.019478474, -0.056811344, -980408.2, -44398.44, 0.0, 10.0002, 9.998843 
7.750214e+2, 2.1448672e+2, -845326.56, -965355.75, 25617.023, -0.0330546, -0.09771291, -840087.94, -2064.1936, 0.0, 10.00046, 9.998866 
7.750133e+2, 2.2448553e+2, -765594.2, -906178.3, 7982.8774, -0.033180464, -0.088100195, -765142.4, -25106.434, 0.0, 10.0004635, 9.998598 
7.750057e+2, 2.3448479e+2, -712176.3, -828887.1, -3180.024, 0.029338636, -0.025666516, -712089.7, -70043.85, 0.0, 10.000153, 9.998606 
7.749976e+2, 2.4448374e+2, -618050.75, -701686.56, -11613.002, 0.057330534, -0.0033945064, -616468.25, -72411.11, 0.0, 9.999992, 9.998882 
7.7498907e+2, 2.5448233e+2, -511989.1, -594941.8, -6678.4077, 0.042780723, -0.038804833, -511454.84, -65384.96, 0.0, 10.000028, 9.998925 
7.7498055e+2, 2.6448116e+2, -435048.2, -525550.94, -9239.074, 0.027428513, -0.037191655, -434114.66, -86033.91, 0.0, 9.999963, 9.99876 
7.749718e+2, 2.744803e+2, -363866.7, -438849.16, -9780.148, 0.012847905, -0.0022600829, -362612.03, -112522.43, 0.0, 9.999771, 9.998775 
7.749636e+2, 2.8447893e+2, -277828.44, -321063.13, 8749.012, 0.02900419, -0.029431503, -276125.06, -124022.32, 0.0, 9.999578, 9.999004 
7.74956e+2, 2.94477e+2, -205521.48, -235422.72, 21733.408, 0.07785854, -0.12983835, -194092.9, -139972.69, 0.0, 9.999401, 9.999005 
7.749476e+2, 3.0447704e+2, -170888.8, -182039.06, 25569.273, 0.035632454, -0.026444197, -150293.9, -150293.9, 0.0, 9.999254, 9.999108 
7.749395e+2, 3.1447607e+2, -123714.414, -50498.42, 24311.207, 0.005563843, -0.0421784, -43161.223, -43161.223, 0.0000000029769756, 9.999109, 10.000081 
7.851001e+2, 1.2450496e+2, -1556022.5, -1655702.3, 114188.66, 0.0830478, -0.019663466, -1481270.8, 238580.1, 0.0000000009851104, 10.001174, 9.999836 
7.850887e+2, 1.3450405e+2, -1498773.9, -1605151.3, -46370.96, -0.054772057, -0.07370982, -1481398.4, 140459.25, 0.0, 10.000999, 9.999603 
7.850801e+2, 1.4450392e+2, -1453481.0, -1612148.4, 2395.9714, 0.012788464, -0.008488183, -1453444.9, 70413.19, 0.0, 10.000984, 9.998884 
7.8507125e+2, 1.5450273e+2, -1318054.0, -1498496.4, 5086.9116, -0.022580713, -0.016748087, -1317910.6, 107960.16, 0.0, 10.001254, 9.998861 
7.850627e+2, 1.6450159e+2, -1227334.8, -1386362.0, 25078.11, -0.049632374, -0.024713444, -1223473.8, 104408.23, 0.0, 10.001129, 9.999017 
7.8505486e+2, 1.7450045e+2, -1213130.6, -1325076.6, 21498.383, -0.033301894, -0.043308966, -1209144.0, 20747.443, 0.0, 10.000538, 9.999049 
7.850469e+2, 1.8449926e+2, -1160478.8, -1292659.5, -3171.692, -0.0063309604, -0.047141157, -1160402.8, -28500.268, 0.0, 10.000413, 9.99866 
7.850386e+2, 1.9449802e+2, -998440.75, -1164087.8, -3047.5286, 0.022701813, -0.03996274, -998384.7, 35530.773, 0.0, 10.0008545, 9.998657 
7.850301e+2, 2.0449674e+2, -874796.9, -1021047.06, 24029.16, 0.015186874, -0.04811984, -870950.06, 64977.684, 0.0, 10.00089, 9.998949 
7.850218e+2, 2.1449538e+2, -841094.4, -950545.06, 25931.07, -0.0318476, -0.08401484, -835261.6, 2677.5544, 0.0, 10.000433, 9.9989805 
7.850137e+2, 2.2449416e+2, -816988.4, -941160.44, 8492.279, -0.029308844, -0.07963423, -816410.3, -76458.76, 0.0, 10.000155, 9.998506 
7.850058e+2, 2.3449312e+2, -726487.25, -847120.44, 9623.355, 0.03143215, -0.035917073, -725724.4, -83759.34, 0.0, 10.000106, 9.998503 
7.849977e+2, 2.4449211e+2, -609897.56, -692010.2, 12350.494, 0.061411, -0.006552027, -608080.1, -64103.863, 0.0, 10.000026, 9.998932 
7.849891e+2, 2.5449115e+2, -526203.3, -595681.94, 11185.128, 0.053115353, -0.0025375776, -524447.06, -78462.33, 0.0, 9.999905, 9.99898 
7.849804e+2, 2.6448998e+2, -460160.06, -536898.56, 3146.0715, 0.031420488, -0.0053514824, -460031.3, -112035.93, 0.0, 9.999787, 9.998767 
7.8497136e+2, 2.7448857e+2, -375067.38, -444128.25, 2595.7048, -0.0050737793, -0.028805261, -374969.94, -124960.85, 0.0, 9.999694, 9.998776 
7.84963e+2, 2.8448713e+2, -262670.7, -307348.06, 16201.765, 0.006444013, -0.06053091, -257413.83, -105391.79, 0.0, 9.999655, 9.999062 
7.849555e+2, 2.9448584e+2, -164097.8, -208767.8, 9960.414, 0.07330418, -0.09976293, -161977.48, -107944.38, 0.0, 9.999658, 9.999064 
7.8494704e+2, 3.044858e+2, -149880.64, -201565.4, 11901.948, 0.040315565, 0.0015450238, -147271.58, -147271.58, 0.0, 9.999528, 9.998842 
7.8493863e+2, 3.1448373e+2, -100042.99, -39413.93, 26050.436, 0.011597941, -0.09471473, -29758.521, -29758.521, 0.0, 9.999273, 10.000078 
7.9510045e+2, 1.2451393e+2, -1591495.6, -1730341.9, 97435.48, -0.002527549, -0.057512555, -1541280.8, 178480.03, 0.0000000034592607, 10.001176, 9.999324 
7.950899e+2, 1.3451329e+2, -1534478.3, -1680764.8, -53481.54, -0.037003342, -0.031299032, -1517011.3, 104756.38, 0.0, 10.001005, 9.999083 
7.950815e+2, 1.4451295e+2, -1450257.1, -1605663.9, 9904.692, 0.048976827, 0.0379486, -1449628.5, 74142.85, 0.0, 10.000986, 9.998927 
7.9507256e+2, 1.5451117e+2, -1312755.5, -1486104.1, 15678.759, -0.016727062, -0.038090862, -1311348.8, 114439.92, 0.0, 10.001248, 9.998948 
7.9506385e+2, 1.6450989e+2, -1234559.5, -1400673.9, 3600.1384, -0.047055632, -0.060680237, -1234481.5, 93319.305, 0.0, 10.001124, 9.998921 
7.9505575e+2, 1.7450918e+2, -1220529.6, -1341715.0, -482.20953, -0.000048350343, -0.024605123, -1220527.8, 9278.715, 0.0, 10.000543, 9.998934 
7.9504746e+2, 1.8450806e+2, -1158432.5, -1288243.5, 10828.913, 0.014760673, -0.01807696, -1157535.4, -25718.285, 0.0, 10.000412, 9.998691 
7.95039e+2, 1.9450639e+2, -996367.2, -1158812.5, 13675.238, -0.019562159, -0.05614753, -995224.0, 38610.098, 0.0, 10.00085, 9.998695 
7.9503065e+2, 2.0450522e+2, -874415.0, -1018812.25, 7634.617, -0.02839051, -0.056089696, -874012.5, 61833.13, 0.0, 10.000883, 9.998968 
7.9502255e+2, 2.1450461e+2, -840581.5, -948330.75, 8751.575, -0.001641661, -0.018454699, -839875.3, -2024.8328, 0.0, 10.000427, 9.998999 
7.950142e+2, 2.2450347e+2, -812664.75, -930988.56, 4849.069, 0.009478876, -0.010258317, -812466.4, -72604.445, 0.0, 10.00015, 9.998579 
7.950056e+2, 2.3450169e+2, -721438.4, -836176.06, 7999.0117, 0.0008200046, -0.047696117, -720883.4, -79002.1, 0.0, 10.000103, 9.998579 
7.949972e+2, 2.4450047e+2, -610536.6, -693128.94, 7604.7915, 0.008672607, -0.0436684, -609842.25, -65948.11, 0.0, 10.000024, 9.998926 
7.949889e+2, 2.5449994e+2, -527729.2, -598117.3, 7233.855, 0.036470037, 0.005031315, -526993.44, -81094.66, 0.0, 9.9999, 9.998965 
7.9498035e+2, 2.6449886e+2, -459296.03, -534175.4, -865.72205, 0.04666148, 0.009264782, -459286.03, -111377.4, 0.0, 9.999783, 9.998789 
7.949715e+2, 2.7449703e+2, -374215.9, -441145.94, 85.6087, 0.036385596, -0.054967377, -374215.78, -124290.43, 0.0, 9.999688, 9.9988 
7.9496294e+2, 2.844956e+2, -276919.28, -335768.6, 16939.26, 0.035750497, -0.07874634, -272391.78, -120453.13, 0.0, 9.999649, 9.99887 
7.9495484e+2, 2.944948e+2, -178738.8, -238093.08, 11389.631, 0.04413843, -0.05077572, -176628.25, -122681.6, 0.0, 9.999652, 9.998866 
7.949462e+2, 3.0449456e+2, -148493.58, -198236.47, 2038.8743, 0.0035563423, 0.038934473, -148410.16, -148410.16, 0.0, 9.999526, 9.998866 
7.949381e+2, 3.1449172e+2, -80834.34, 2803.8203, 16374.426, 0.028095214, -0.13706589, 5895.2876, 5895.2876, 0.0, 9.999264, 10.000373 
8.051014e+2, 1.2452313e+2, -1633532.9, -1763745.4, 58513.477, -0.013314165, -0.025414035, -1611102.6, 108568.67, 0.0000000057252847, 10.000943, 9.9992075 
8.0509096e+2, 1.3452221e+2, -1523185.9, -1687813.3, -57403.88, -0.038500983, -0.015200924, -1505146.5, 116534.65, 0.0, 10.001139, 9.998969 
8.050824e+2, 1.445217e+2, -1434661.8, -1600674.1, 21171.195, 0.041966222, 0.04169264, -1432004.4, 91682.28, 0.0, 10.001106, 9.998903 
8.050737e+2, 1.5451996e+2, -1364268.8, -1513732.9, 18949.434, -0.00980833, -0.027090723, -1361903.8, 63799.746, 0.0, 10.000907, 9.998923 
8.050649e+2, 1.6451861e+2, -1265328.6, -1420586.4, -288.88504, -0.036296714, -0.051836267, -1265328.0, 62387.9, 0.0, 10.000935, 9.998877 
8.0505663e+2, 1.7451774e+2, -1122466.3, -1299702.6, -971.89624, -0.0019647188, -0.029323833, -1122460.9, 107262.42, 0.0, 10.001239, 9.998887 
8.0504817e+2, 1.8451665e+2, -1043714.44, -1221397.3, 19230.791, 0.0044013993, -0.021823285, -1041656.94, 90076.68, 0.0, 10.001151, 9.998793 
8.050395e+2, 1.9451527e+2, -1024832.3, -1160358.9, 26850.979, -0.032330144, -0.041355573, -1019706.4, 14041.145, 0.0, 10.000604, 9.998803 
8.050311e+2, 2.0451416e+2, -967152.56, -1075807.6, 13636.37, -0.03681408, -0.035011675, -965467.3, -29708.691, 0.0, 10.0003, 9.998857 
8.050229e+2, 2.1451333e+2, -868887.8, -975210.3, 2834.5464, 0.00058254047, -0.006415717, -868812.3, -31045.764, 0.0, 10.000292, 9.9988785 
8.0501443e+2, 2.2451223e+2, -780306.9, -894449.56, 5610.945, 0.010160596, 0.0017982394, -780031.75, -40254.15, 0.0, 10.000282, 9.998765 
8.050056e+2, 2.3451078e+2, -683340.25, -795182.5, 17732.258, -0.014261795, -0.023535427, -680596.2, -38803.617, 0.0, 10.000267, 9.998781 
8.049971e+2, 2.4450953e+2, -602517.9, -706412.06, 12338.222, -0.0072537004, -0.024210358, -601072.7, -57267.453, 0.0, 10.000154, 9.998773 
8.049888e+2, 2.5450858e+2, -535594.25, -621245.6, -1647.6012, 0.036759727, -0.0021085618, -535562.56, -89747.55, 0.0, 9.99993, 9.998792 
8.049802e+2, 2.6450738e+2, -449850.4, -524753.1, -9566.945, 0.055984676, -0.00014453715, -448647.75, -100821.75, 0.0, 9.999827, 9.998832 
8.049714e+2, 2.745059e+2, -345619.5, -421192.8, -7088.399, 0.046919584, -0.036084604, -344960.4, -95121.414, 0.0, 9.999858, 9.998855 
8.049627e+2, 2.8450453e+2, -276540.78, -351191.9, 9686.654, 0.043325786, -0.05119305, -275304.3, -123452.4, 0.0, 9.99972, 9.99873 
8.0495435e+2, 2.9450342e+2, -227174.3, -278403.3, 5964.858, 0.042485364, -0.040419687, -226488.94, -172625.0, 0.0, 9.9993925, 9.9987135 
8.0494547e+2, 3.045029e+2, -190383.95, -202942.42, 2032.1252, 0.00086375163, 0.024068885, -190063.33, -190063.33, 0.0, 9.999172, 9.999004 
8.0493736e+2, 3.1450048e+2, -84825.06, 44168.293, 21680.11, 0.037030492, -0.1250521, 47714.61, 47714.61, 0.0, 9.99905, 10.00076 
8.151028e+2, 1.2453267e+2, -1614321.9, -1724638.5, 56967.426, 0.034464695, 0.07953062, -1590185.0, 129396.2, 0.000000004999778, 10.000947, 9.999475 
8.1509185e+2, 1.3453089e+2, -1505345.5, -1648483.4, -50734.016, -0.064402185, -0.024066962, -1489187.4, 132410.03, 0.0, 10.001131, 9.999241 
8.15083e+2, 1.4453019e+2, -1441126.8, -1614364.3, 12756.394, -0.012652134, 0.005946945, -1440192.4, 83411.234, 0.0, 10.001105, 9.998811 
8.150746e+2, 1.5452911e+2, -1371511.9, -1531273.4, 12513.42, -0.003210493, 0.015519033, -1370537.6, 55077.03, 0.0, 10.000916, 9.998799 
8.1506604e+2, 1.6452779e+2, -1265001.5, -1420630.5, 9697.137, -0.020156734, -0.00081860274, -1264399.6, 63227.637, 0.0, 10.000938, 9.998875 
8.1505746e+2, 1.7452611e+2, -1122979.6, -1298494.3, 10633.045, -0.0422859, -0.058958083, -1122337.8, 107304.24, 0.0, 10.001229, 9.998899 
8.150489e+2, 1.8452506e+2, -1032924.4, -1196938.0, -567.6847, -0.04079951, -0.057971925, -1032922.4, 98729.164, 0.0, 10.001142, 9.998966 
8.1504035e+2, 1.9452469e+2, -1012619.94, -1134678.4, 6252.6294, -0.017737761, 0.005772291, -1012300.5, 21354.744, 0.0, 10.000601, 9.9989805 
8.1503165e+2, 2.0452358e+2, -984585.56, -1111397.5, 11461.142, -0.012902379, 0.0152085945, -983558.06, -47891.49, 0.0, 10.000298, 9.998614 
8.150229e+2, 2.1452157e+2, -887862.4, -1013947.5, 2568.8728, -0.02762253, -0.048451517, -887810.06, -50122.945, 0.0, 10.000289, 9.998614 
8.150143e+2, 2.2452044e+2, -759058.75, -850007.9, 4311.3906, -0.029748745, -0.04358623, -758854.9, -19156.42, 0.0, 10.000279, 9.999071 
8.1500584e+2, 2.3452039e+2, -660255.4, -746881.9, 17478.303, -0.016231379, 0.03641874, -656861.8, -15163.15, 0.0, 10.000265, 9.999114 
8.1499743e+2, 2.4451932e+2, -624699.56, -751985.1, 3626.4556, 0.01072103, 0.050740972, -624596.4, -80886.87, 0.0, 10.00015, 9.998462 
8.149889e+2, 2.5451702e+2, -559979.56, -671147.3, -9712.936, 0.05288877, -0.024835061, -559137.3, -113403.93, 0.0, 9.999926, 9.998451 
8.149801e+2, 2.6451564e+2, -446184.16, -516256.56, -8668.755, 0.057760835, -0.032309417, -445127.66, -97380.35, 0.0, 9.999823, 9.998892 
8.1497097e+2, 2.745152e+2, -340639.44, -409879.6, -4762.1885, 0.019920355, 0.032846894, -340313.44, -90563.92, 0.0, 9.999853, 9.998935 
8.149622e+2, 2.8451392e+2, -281950.63, -362060.7, -2699.6702, 0.022211418, 0.02407812, -281859.75, -130098.09, 0.0, 9.999717, 9.998656 
8.14954e+2, 2.945116e+2, -234948.45, -293157.22, -5148.83, 0.0677256, -0.07616043, -234496.53, -180711.02, 0.0, 9.999386, 9.998616 
8.14945e+2, 3.0451074e+2, -174961.44, -168440.2, -1559.9093, 0.031789556, -0.047871526, -168086.27, -168086.27, 0.0, 9.999163, 9.999245 
8.149363e+2, 3.1451002e+2, -54058.24, 110864.37, 17202.406, 0.02520492, -0.058951646, 112639.57, 112639.57, 0.0000000016901937, 9.999039, 10.001224 
8.2510376e+2, 1.2454113e+2, -1612213.3, -1711497.5, 58684.305, 0.037297007, 0.076462716, -1584990.6, 134508.47, 0.0000000017683296, 10.00091, 9.999581 
8.25093e+2, 1.3453951e+2, -1511777.6, -1639591.5, -55657.574, -0.058498476, -0.02154182, -1490938.8, 130574.68, 0.0, 10.001034, 9.99935 
8.25084e+2, 1.4453892e+2, -1440764.9, -1602821.5, 421.76456, -0.01910973, 0.008370253, -1440763.8, 82754.734, 0.0, 10.001059, 9.998913 
8.2507557e+2, 1.5453805e+2, -1346006.1, -1507449.9, 14838.836, -0.008699407, 0.027333394, -1344653.6, 80873.93, 0.0, 10.001042, 9.998902 
8.25067e+2, 1.645368e+2, -1270927.4, -1419164.5, 26195.803, -0.02375948, 0.012655709, -1266434.4, 61104.777, 0.0, 10.00088, 9.998911 
8.250583e+2, 1.7453511e+2, -1217606.1, -1340746.8, 28658.906, -0.04505992, -0.051402744, -1211263.0, 18291.12, 0.0, 10.000566, 9.998929 
8.250497e+2, 1.8453401e+2, -1136527.8, -1249673.4, 5262.1177, -0.03886699, -0.053232256, -1136283.5, -4719.435, 0.0, 10.000443, 9.9989395 
8.25041e+2, 1.9453363e+2, -1021353.5, -1142157.6, -4782.5605, -0.0073354254, 0.010543353, -1021164.5, 12403.778, 0.0, 10.000556, 9.998951 
8.250322e+2, 2.0453249e+2, -946831.75, -1087009.0, 7715.443, -0.005428147, 0.015354406, -946408.4, -10828.547, 0.0, 10.00053, 9.998669 
8.250231e+2, 2.1453044e+2, -875791.7, -1001461.9, 22638.596, -0.036521077, -0.05726307, -871837.94, -34237.74, 0.0, 10.000343, 9.998673 
8.250145e+2, 2.2452933e+2, -775092.8, -859667.0, 26782.86, -0.038414035, -0.05436122, -767324.75, -27713.443, 0.0, 10.000178, 9.999055 
8.250062e+2, 2.3452929e+2, -694979.0, -765907.25, 12025.938, -0.005751124, 0.031018402, -692995.44, -51384.094, 0.0, 10.000037, 9.999093 
8.249976e+2, 2.4452823e+2, -649012.8, -763177.0, -4059.2256, 0.021576151, 0.04646972, -648868.7, -105246.42, 0.0, 9.999981, 9.998466 
8.249888e+2, 2.545259e+2, -543796.25, -662342.06, 7839.614, 0.04212471, -0.032423157, -543280.06, -97633.72, 0.0, 10.000033, 9.998459 
8.249798e+2, 2.6452455e+2, -411875.56, -495803.16, 25169.938, 0.03761955, -0.036454484, -404905.88, -57246.016, 0.0, 10.000043, 9.998925 
8.249707e+2, 2.745243e+2, -316282.72, -394066.03, 24478.77, 0.005015724, 0.04113593, -309220.38, -59559.52, 0.0, 10.000005, 9.998969 
8.249619e+2, 2.845231e+2, -261593.95, -348897.2, 17208.188, 0.01451379, 0.036993496, -258324.52, -106652.09, 0.0, 9.999843, 9.998686 
8.249535e+2, 2.9452074e+2, -211936.9, -278169.38, 22028.082, 0.07045494, -0.07100943, -205279.77, -151582.95, 0.0, 9.999528, 9.998651 
8.2494426e+2, 3.0451968e+2, -159747.1, -172347.39, 28107.787, 0.037703607, -0.05924896, -137242.05, -137242.05, 0.0, 9.999314, 9.999146 
8.2493544e+2, 3.1451958e+2, -29174.125, 124503.21, 13627.108, 0.02441604, 0.0057129953, 125702.22, 125702.22, 0.000000023716037, 9.999203, 10.001238 
8.3510417e+2, 1.24548614e+2, -1615071.5, -1717881.1, 56349.14, -0.016610295, -0.028870339, -1590202.6, 129221.414, 0.000000000051048894, 10.000909, 9.999539 
8.3509433e+2, 1.3454816e+2, -1512807.0, -1644057.0, -50006.96, -0.024595525, -0.008587015, -1495925.4, 125503.414, 0.0, 10.001042, 9.999315 
8.3508545e+2, 1.4454791e+2, -1421669.3, -1563984.0, -1374.1288, 0.0173935, 0.045440275, -1421656.0, 101775.11, 0.0, 10.001062, 9.999177 
8.350764e+2, 1.5454677e+2, -1326473.0, -1464390.8, 14230.167, -0.028868852, 0.008413673, -1325020.1, 100421.54, 0.0, 10.001032, 9.999202 
8.350676e+2, 1.6454571e+2, -1265316.4, -1406764.9, 14221.167, -0.05000593, -0.0085126525, -1263900.8, 63550.395, 0.0, 10.000875, 9.999 
8.350592e+2, 1.7454475e+2, -1212120.8, -1330921.8, 17343.266, -0.013225524, -0.0049628136, -1209640.6, 19818.799, 0.0, 10.000571, 9.998994 
8.350506e+2, 1.8454356e+2, -1152657.8, -1283622.9, 8165.337, 0.006188353, -0.008060346, -1152150.6, -20679.738, 0.0, 10.000445, 9.998706 
8.350416e+2, 1.945421e+2, -1039323.06, -1178191.5, -562.2533, -0.0037985675, -0.02856988, -1039320.75, -5834.31, 0.0, 10.00055, 9.998706 
8.350325e+2, 2.0454088e+2, -922543.5, -1035885.56, 272.0849, -0.016576277, -0.03461054, -922542.8, 12955.342, 0.0, 10.000526, 9.999022 
8.350236e+2, 2.1453997e+2, -849213.75, -945895.6, 15259.326, -0.028395925, -0.032316614, -846862.5, -9357.082, 0.0, 10.000341, 9.999056 
8.350148e+2, 2.2453888e+2, -799772.06, -910632.2, 20308.58, -0.018277723, -0.030820932, -796168.8, -56652.836, 0.0, 10.000176, 9.998706 
8.350064e+2, 2.3453753e+2, -721906.3, -821689.0, 6701.963, 0.01594373, -0.039289482, -721458.2, -79927.7, 0.0, 10.000035, 9.998712 
8.349976e+2, 2.445363e+2, -626580.56, -716268.4, -2963.3787, 0.023775486, -0.035273217, -626482.75, -82939.57, 0.0, 9.999979, 9.998789 
8.349884e+2, 2.5453523e+2, -519507.7, -611028.06, 10514.416, -0.00017196742, -0.024289418, -518315.25, -72761.58, 0.0, 10.00003, 9.998814 
8.3497936e+2, 2.645342e+2, -411681.66, -495749.06, 23583.693, -0.00905889, -0.014061882, -405517.63, -57953.977, 0.0, 10.000043, 9.998926 
8.349707e+2, 2.7453318e+2, -317882.16, -397054.9, 23690.209, 0.0011772065, -0.015001185, -311334.94, -61761.668, 0.0, 10.000002, 9.998951 
8.3496183e+2, 2.8453204e+2, -253439.4, -330423.6, 6349.6895, 0.019258145, -0.013479662, -252919.2, -101334.945, 0.0, 9.999837, 9.998816 
8.349528e+2, 2.9453084e+2, -203103.83, -257704.73, 11788.137, 0.04328993, -0.0193157, -200667.53, -147070.31, 0.0, 9.999519, 9.998795 
8.349433e+2, 3.045297e+2, -190592.06, -236322.52, 23734.008, 0.011154519, -0.0053792614, -180500.92, -180500.92, 0.0, 9.999312, 9.998708 
8.349347e+2, 3.1452906e+2, -60477.49, 60163.613, 9561.681, 0.028450867, 0.05211736, 60916.746, 60916.746, 0.00000010288848, 9.999198, 10.000799 
8.4510493e+2, 1.2455725e+2, -1653435.0, -1737973.6, 74598.41, -0.019000662, -0.04421025, -1609962.8, 109375.8, 0.0, 10.000651, 9.999525 
8.450953e+2, 1.3455695e+2, -1557248.0, -1666087.0, -27268.418, -0.019324075, -0.0076874034, -1550798.4, 70543.914, 0.0, 10.000743, 9.999306 
8.4508634e+2, 1.4455666e+2, -1460720.3, -1572488.5, 12022.615, 0.020243289, 0.038620766, -1459441.6, 63903.418, 0.0, 10.0007515, 9.999267 
8.4507734e+2, 1.5455547e+2, -1364457.5, -1471895.4, 13626.694, -0.025855986, -0.013361065, -1362756.1, 62599.492, 0.0, 10.000726, 9.999297 
8.4506834e+2, 1.6455452e+2, -1279000.1, -1404230.8, 3517.881, -0.04759055, -0.026891511, -1278901.4, 48462.62, 0.0, 10.000743, 9.99908 
8.450599e+2, 1.745539e+2, -1170296.6, -1302013.8, 5588.998, -0.01526612, 0.0010356072, -1170059.9, 59309.7, 0.0, 10.00082, 9.999072 
8.4505117e+2, 1.8455279e+2, -1109111.3, -1267021.4, 6454.8096, 0.0031128963, 0.005218606, -1108847.8, 22532.852, 0.0, 10.000761, 9.998668 
8.450421e+2, 1.9455117e+2, -1043543.8, -1184610.6, 12940.373, -0.004414448, -0.02760458, -1042366.56, -8968.276, 0.0, 10.00054, 9.998668 
8.450331e+2, 2.0454997e+2, -939650.7, -1039642.8, 9493.997, -0.0119773615, -0.031782657, -938757.25, -3347.3284, 0.0, 10.00039, 9.999063 
8.45024e+2, 2.1454929e+2, -848557.94, -940869.75, -1726.5576, -0.01539558, -0.01211996, -848525.7, -11111.038, 0.0, 10.000324, 9.999099 
8.450151e+2, 2.2454816e+2, -799973.7, -917357.7, -160.07434, -0.0050748778, -0.012694478, -799973.5, -60548.027, 0.0, 10.000205, 9.998645 
8.4500647e+2, 2.345465e+2, -727581.9, -831853.5, 8377.992, 0.019570678, -0.04496521, -726913.06, -85469.58, 0.0, 10.00003, 9.998644 
8.449975e+2, 2.4454531e+2, -612520.8, -683613.4, 15771.681, 0.018833008, -0.045229815, -609179.0, -65723.49, 0.0, 9.999966, 9.999019 
8.449883e+2, 2.5454468e+2, -501906.56, -575244.2, 20057.225, -0.012472323, -0.016489167, -496779.53, -51319.02, 0.0, 10.000033, 9.999057 
8.449792e+2, 2.6454368e+2, -437409.56, -517149.3, 17334.81, -0.019683177, -0.009887823, -433804.13, -86334.43, 0.0, 9.999907, 9.998844 
8.4497046e+2, 2.7454227e+2, -388727.28, -441800.34, 9548.966, 0.003564195, -0.038582478, -387061.5, -137577.4, 0.0, 9.999563, 9.998854 
8.4496146e+2, 2.8454122e+2, -289762.66, -342128.78, -4878.2686, 0.016739525, -0.02573019, -289312.1, -137817.42, 0.0, 9.999564, 9.998865 
8.449522e+2, 2.945406e+2, -136270.13, -218632.69, -6742.6953, 0.016255528, 0.023365185, -135721.78, -82220.38, 0.0, 9.999949, 9.998855 
8.4494275e+2, 3.045391e+2, -118655.164, -232247.58, -3148.06, -0.01024339, 0.011667049, -118567.984, -118567.984, 0.00000000024035085, 9.999939, 9.998432 
8.4493417e+2, 3.1453803e+2, -45207.14, 30846.162, -7970.498, 0.04397472, 0.052524697, 31672.504, 31672.504, 0.00000026211356, 9.99946, 10.00047 
8.551059e+2, 1.2456703e+2, -1653143.4, -1739289.8, 70982.2, 0.012914871, 0.027946796, -1613187.8, 106054.66, 0.0, 10.000659, 9.999513 
8.550958e+2, 1.3456589e+2, -1559571.6, -1670074.9, -24418.377, -0.041947965, -0.017261337, -1554416.3, 66837.47, 0.0, 10.000739, 9.99928 
8.550868e+2, 1.4456521e+2, -1464018.6, -1579629.8, 10052.533, -0.011202665, -0.0075150486, -1463151.0, 60108.92, 0.0, 10.000751, 9.99922 
8.550782e+2, 1.5456417e+2, -1368229.0, -1481851.1, 13789.836, -0.004773669, -0.036672615, -1366579.4, 58689.66, 0.0, 10.000733, 9.999226 
8.550694e+2, 1.6456328e+2, -1275449.1, -1397391.1, 5998.926, -0.022227848, -0.043755382, -1275154.8, 52122.49, 0.0, 10.000746, 9.9991255 
8.550603e+2, 1.7456253e+2, -1166597.5, -1292540.0, 8540.031, -0.051677324, -0.034120426, -1166021.0, 63263.3, 0.0, 10.000813, 9.999141 
8.550514e+2, 1.8456174e+2, -1098139.4, -1242914.8, -2128.5303, -0.048958905, -0.012544338, -1098108.1, 33184.86, 0.0, 10.000754, 9.998837 
8.550426e+2, 1.9456087e+2, -1031630.5, -1159903.5, 4393.8403, -0.011190398, 0.014533628, -1031480.1, 1823.2896, 0.0, 10.000539, 9.998837 
8.5503364e+2, 2.0455977e+2, -958681.3, -1078775.5, 5763.9946, 0.0060359435, 0.023662623, -958405.3, -23090.459, 0.0, 10.000387, 9.9987955 
8.5502446e+2, 2.145584e+2, -869404.2, -983173.9, -4311.2217, 0.00037681396, 0.003315483, -869241.06, -31913.656, 0.0, 10.0003195, 9.998811 
8.550154e+2, 2.2455719e+2, -785149.7, -886166.4, -7695.4873, -0.00091942435, 0.0013593597, -784566.8, -45227.594, 0.0, 10.000202, 9.998861 
8.550063e+2, 2.3455621e+2, -710754.06, -796702.25, 1997.4542, 0.0023245825, 0.013121488, -710707.7, -69357.69, 0.0, 10.000028, 9.998886 
8.5499734e+2, 2.4455523e+2, -603543.8, -665182.44, 17503.371, 0.0038432095, 0.014376868, -598920.25, -55561.086, 0.0, 9.999966, 9.999146 
8.5498846e+2, 2.545542e+2, -493560.63, -557399.0, 22909.082, 0.003978484, -0.008509163, -486190.34, -40823.754, 0.0, 10.0000305, 9.999182 
8.5497946e+2, 2.64553e+2, -449729.06, -542110.75, 4487.7974, 0.0054250266, -0.021198679, -449511.56, -102133.87, 0.0, 9.999903, 9.998675 
8.549701e+2, 2.7455163e+2, -402937.53, -469462.0, -2578.65, 0.007587077, -0.027405621, -402837.75, -153444.69, 0.0, 9.999555, 9.998668 
8.549609e+2, 2.8455067e+2, -292675.06, -347423.38, 8887.5, 0.0020877204, 0.0008219997, -291268.47, -139864.78, 0.0, 9.999559, 9.998832 
8.5495186e+2, 2.945501e+2, -138452.95, -222693.33, 9152.366, -0.014474402, 0.054911867, -137470.06, -84060.47, 0.0, 9.999947, 9.998828 
8.549425e+2, 3.0454797e+2, -126764.17, -248924.47, -19748.379, -0.028396277, -0.010418662, -123650.99, -123650.99, 0.0000000059514194, 9.999938, 9.998319 
8.5493386e+2, 3.1454638e+2, -61346.402, 95.020065, -25728.498, 0.063969366, -0.0040595867, 9445.716, 9445.716, 0.0000005093443, 9.99945, 10.000264 
8.651067e+2, 1.24576055e+2, -1627738.9, -1726626.8, 63170.76, 0.016436614, 0.034804944, -1596962.9, 122190.87, 0.00000000000000000000885557, 10.000834, 9.999513 
8.650967e+2, 1.3457476e+2, -1535043.1, -1659478.4, -27690.145, -0.037597187, -0.025211997, -1529159.5, 92006.68, 0.0, 10.000914, 9.999269 
8.6508757e+2, 1.4457397e+2, -1444666.0, -1569947.6, 4264.5693, -0.011847405, -0.025171403, -1444521.0, 78652.266, 0.0, 10.000883, 9.999222 
8.65079e+2, 1.5457305e+2, -1363704.0, -1479960.3, 10466.777, -0.0073904134, -0.041473825, -1362769.3, 62412.145, 0.0, 10.000765, 9.999224 
8.6507004e+2, 1.645722e+2, -1302465.0, -1409034.8, 2955.059, -0.01873556, -0.04675156, -1302383.1, 24806.404, 0.0, 10.000552, 9.999141 
8.65061e+2, 1.7457137e+2, -1250128.3, -1330008.1, 2676.5237, -0.036412515, -0.046661284, -1250038.6, -20840.975, 0.0, 10.000227, 9.999166 
8.650519e+2, 1.8457067e+2, -1181598.6, -1273969.4, -7251.3276, -0.035353396, -0.020622013, -1181032.9, -49827.4, 0.0, 10.000143, 9.998918 
8.65043e+2, 1.9457008e+2, -1054116.6, -1161958.0, -8207.027, -0.014076919, 0.026631998, -1053495.6, -20282.258, 0.0, 10.000346, 9.998917 
8.650339e+2, 2.0456906e+2, -954294.8, -1073783.5, -2162.1487, -0.00042826508, 0.038108684, -954255.7, -19031.547, 0.0, 10.000405, 9.998821 
8.6502486e+2, 2.1456754e+2, -871953.9, -981634.1, 10084.159, 0.003560673, 0.0007431629, -871034.44, -33796.188, 0.0, 10.000291, 9.998836 
8.650156e+2, 2.2456639e+2, -782003.2, -881938.9, 12193.741, 0.0032911792, 0.0013088838, -780536.9, -41287.168, 0.0, 10.000213, 9.998885 
8.650063e+2, 2.3456568e+2, -687573.94, -782471.44, 4284.656, -0.0019523755, 0.03639151, -687380.9, -46122.785, 0.0, 10.0001745, 9.998912 
8.649973e+2, 2.4456473e+2, -595123.8, -660726.75, 7686.575, 0.004474838, 0.04024309, -594235.25, -50968.418, 0.0, 10.000023, 9.999148 
8.6498857e+2, 2.5456348e+2, -534262.94, -577092.25, 2594.3657, 0.02449959, -0.0033018668, -534106.4, -88830.29, 0.0, 9.999752, 9.99918 
8.6497945e+2, 2.645622e+2, -471444.66, -553570.44, -11385.983, 0.023375392, -0.025417833, -469895.3, -122607.37, 0.0, 9.99976, 9.998665 
8.649698e+2, 2.7456084e+2, -326996.88, -434421.78, -6338.1074, -0.0022111153, -0.027531853, -326624.2, -77321.3, 0.0, 10.000083, 9.998654 
8.6496055e+2, 2.8455988e+2, -214788.4, -314645.97, 14728.18, -0.01247549, 0.004465526, -212661.42, -61348.063, 0.0, 10.000115, 9.998788 
8.649518e+2, 2.9455927e+2, -158937.25, -237055.9, 11954.068, -0.007539919, 0.06028242, -157148.92, -103829.445, 0.0, 9.999826, 9.998787 
8.649424e+2, 3.045569e+2, -146968.38, -243229.78, -16152.017, -0.020052692, -0.033160087, -144330.47, -144330.47, 0.000000027135602, 9.999734, 9.998456 
8.6493325e+2, 3.145557e+2, -8704.311, 25094.324, -6283.806, 0.045831542, -0.008652011, 26224.793, 26224.793, 0.00000083365, 9.999811, 10.000261 
8.7510717e+2, 1.24584384e+2, -1625300.3, -1721308.8, 62292.184, -0.019025749, -0.019786263, -1594661.5, 124409.984, 0.0000000055054987, 10.000833, 9.999551 
8.7509775e+2, 1.3458359e+2, -1532774.6, -1654643.8, -24090.404, -0.013509574, -0.03253751, -1528185.4, 92893.76, 0.0, 10.000914, 9.999302 
8.750887e+2, 1.4458296e+2, -1444198.4, -1569462.9, -308.88922, 0.010086646, -0.017386513, -1444197.5, 78887.33, 0.0, 10.000884, 9.999225 
8.7507945e+2, 1.5458214e+2, -1362016.4, -1476174.9, 6473.5454, -0.032732617, -0.027829925, -1361650.4, 63442.047, 0.0, 10.000763, 9.999251 
8.7507045e+2, 1.6458128e+2, -1301553.6, -1407214.5, -9850.163, -0.036582876, -0.033651575, -1300643.3, 26457.424, 0.0, 10.000551, 9.999154 
8.750618e+2, 1.7458044e+2, -1249877.1, -1330118.9, -9365.577, 0.026186539, -0.035629537, -1248798.5, -19689.508, 0.0, 10.00023, 9.999164 
8.7505287e+2, 1.8457964e+2, -1182769.9, -1276275.1, -1046.5675, 0.03838765, -0.019068006, -1182758.1, -51640.31, 0.0, 10.000142, 9.998903 
8.7504333e+2, 1.9457884e+2, -1055290.6, -1163882.5, -512.7229, -0.01503208, 0.008549619, -1055288.3, -22160.494, 0.0, 10.000343, 9.998905 
8.75034e+2, 2.045779e+2, -932745.9, -1028284.5, -6877.9536, -0.033316005, 0.012172759, -932253.25, 2884.1575, 0.0, 10.000401, 9.999136 
8.7502503e+2, 2.1457675e+2, -848809.06, -933338.25, 5560.371, -0.0079889335, -0.01991745, -848444.9, -11298.016, 0.0, 10.000289, 9.999168 
8.7501585e+2, 2.2457576e+2, -794263.3, -907155.06, 9546.958, 0.0054013366, -0.014031515, -793461.6, -54304.863, 0.0, 10.000211, 9.9987135 
8.750066e+2, 2.3457488e+2, -701601.5, -811050.25, 2903.357, 0.0056267977, 0.026449164, -701524.56, -60357.133, 0.0, 10.000172, 9.998718 
8.749975e+2, 2.4457383e+2, -603759.06, -678670.9, -3055.1094, 0.018913139, 0.035491478, -603634.6, -60456.656, 0.0, 10.000022, 9.999026 
8.749885e+2, 2.5457257e+2, -543319.8, -595251.25, -7092.188, 0.045517616, -0.0009044249, -542368.7, -97180.016, 0.0, 9.999749, 9.999057 
8.7497926e+2, 2.6457125e+2, -462012.7, -533662.3, 299.95334, 0.030870147, -0.024373565, -462011.44, -114810.98, 0.0, 9.999758, 9.998803 
8.749696e+2, 2.7456993e+2, -316186.25, -411696.94, 6946.0767, -0.029233387, -0.03960846, -315683.72, -66470.125, 0.0, 10.000081, 9.998812 
8.7496054e+2, 2.8456894e+2, -218976.64, -323674.56, 4218.3784, -0.029747847, -0.014132998, -218806.95, -67583.414, 0.0, 10.000116, 9.998727 
8.74952e+2, 2.9456824e+2, -164856.83, -247295.92, 2164.6497, 0.03538376, 0.040034823, -164800.03, -111569.06, 0.0, 9.999818, 9.998721 
8.749424e+2, 3.0456603e+2, -120849.28, -186364.67, -12414.603, 0.013071975, -0.056032397, -118575.72, -118575.72, 0.00000006425192, 9.9997225, 9.998851 
8.7493235e+2, 3.145658e+2, 6136.2876, 58065.77, -1482.2397, -0.022016509, 0.02913386, 58108.043, 58108.043, 0.0000011924308, 9.9998045, 10.00049 
8.851082e+2, 1.2459321e+2, -1622944.8, -1712060.0, 68018.27, -0.00097629824, -0.03333494, -1586189.0, 132795.9, 0.00000006865043, 10.000814, 9.999624 
8.850986e+2, 1.3459264e+2, -1553958.5, -1658226.1, -15957.758, -0.016585106, -0.030611305, -1551570.9, 69419.76, 0.0, 10.00074, 9.999362 
8.850894e+2, 1.4459209e+2, -1476742.5, -1577450.6, 8846.528, 0.0061580157, -0.0149602415, -1475971.4, 47024.504, 0.0, 10.0006275, 9.999294 
8.8508034e+2, 1.5459138e+2, -1392171.9, -1482032.3, 19509.441, -0.014539831, -0.01998128, -1388119.0, 36883.12, 0.0, 10.000521, 9.999327 
8.850711e+2, 1.6459058e+2, -1316402.0, -1415687.1, 3211.505, -0.01821634, -0.023623584, -1316298.3, 10711.574, 0.0, 10.000458, 9.99914 
8.850621e+2, 1.745897e+2, -1220708.8, -1319364.9, 68.332634, 0.019238526, -0.027564742, -1220708.6, 8309.987, 0.0, 10.0004425, 9.999136 
8.85053e+2, 1.8458879e+2, -1145812.9, -1250682.1, 18271.84, 0.026344333, -0.022916147, -1142720.5, -11692.251, 0.0, 10.000361, 9.998974 
8.850436e+2, 1.9458784e+2, -1069718.3, -1161474.9, 25073.523, -0.012042755, -0.017482983, -1063313.6, -30274.975, 0.0, 10.000205, 9.998988 
8.8503444e+2, 2.0458697e+2, -968646.4, -1036576.56, 11892.393, -0.020433424, -0.013503727, -966624.56, -31577.19, 0.0, 10.000117, 9.999214 
8.850254e+2, 2.1458618e+2, -869879.56, -934649.94, 4401.5728, 0.009814338, -0.02003067, -869581.8, -32527.797, 0.0, 10.000108, 9.999246 
8.850162e+2, 2.2458525e+2, -813396.9, -911586.25, 7029.6777, 0.0251104, -0.012238271, -812896.2, -73833.086, 0.0, 10.000059, 9.998755 
8.8500684e+2, 2.345842e+2, -728347.75, -819718.5, 16391.254, 0.02208571, 0.0045232116, -725496.25, -84421.25, 0.0, 9.9999695, 9.998756 
8.849975e+2, 2.4458306e+2, -621213.3, -701920.94, 18713.992, 0.022362709, 0.009704207, -617085.2, -73998.61, 0.0, 9.999967, 9.998893 
8.8498825e+2, 2.545818e+2, -506775.8, -593115.0, 11959.475, 0.025110262, -0.008927976, -505149.84, -60051.9, 0.0, 10.000067, 9.998919 
8.84979e+2, 2.6458055e+2, -401738.66, -499071.3, 26563.082, 0.0133452825, -0.022965461, -394961.22, -47851.582, 0.0, 10.000148, 9.998853 
8.849699e+2, 2.745793e+2, -292448.13, -393582.13, 25323.197, -0.0139494855, -0.03766954, -286461.75, -37340.168, 0.0, 10.0002165, 9.99887 
8.849609e+2, 2.8457826e+2, -220889.7, -326835.47, 2637.1743, -0.009025076, -0.016707093, -220824.1, -69692.8, 0.0, 10.000114, 9.998705 
8.849518e+2, 2.9457745e+2, -170742.19, -253110.8, 1891.5554, 0.03156809, 0.027057122, -170698.77, -117559.07, 0.0, 9.999788, 9.998695 
8.849421e+2, 3.0457515e+2, -108014.94, -182395.7, -4384.93, 0.0046091625, -0.07869725, -107757.33, -107757.33, 0.00000010587227, 9.99982, 9.998832 
8.8493246e+2, 3.145752e+2, 57542.79, 57826.414, -29106.521, -0.021313123, 0.0387506, 86791.47, 86791.47, 0.0000015115112, 10.000265, 10.000267 
8.951095e+2, 1.2460257e+2, -1617790.6, -1700815.5, 60202.832, 0.049194966, -0.008106519, -1586175.4, 132718.36, 0.00000033567557, 10.000812, 9.999703 
8.9509904e+2, 1.3460194e+2, -1550513.0, -1650949.5, -18567.813, -0.044973817, -0.016502142, -1547190.3, 73709.96, 0.00000000007521531, 10.000739, 9.999412 
8.950898e+2, 1.4460136e+2, -1464040.5, -1553098.6, 2726.0203, -0.021610094, -0.013049487, -1463957.1, 58948.305, 0.0, 10.000634, 9.999459 
8.9508134e+2, 1.5460081e+2, -1381845.4, -1460378.3, 15547.353, 0.040682316, -0.017708987, -1378879.4, 46030.59, 0.0, 10.000519, 9.999476 
8.9507204e+2, 1.646001e+2, -1321256.9, -1425308.5, 2192.495, 0.0285624, -0.018132122, -1321210.8, 5706.003, 0.0, 10.000455, 9.999075 
8.950618e+2, 1.7459914e+2, -1225040.8, -1328513.0, -304.64124, -0.05757264, -0.02303661, -1225039.9, 3886.4658, 0.0, 10.000443, 9.999073 
8.950524e+2, 1.8459815e+2, -1134708.9, -1227894.6, 11565.357, -0.0720714, -0.03105, -1133294.9, -2358.8442, 0.0, 10.000361, 9.99913 
8.950439e+2, 1.9459713e+2, -1057801.0, -1137142.6, 18736.98, -0.0066972366, -0.050894875, -1053598.8, -20652.793, 0.0, 10.000206, 9.999155 
8.950351e+2, 2.0459634e+2, -979845.06, -1059475.5, 9861.652, 0.035864994, -0.039021917, -978641.94, -43688.098, 0.0, 10.000115, 9.999059 
8.9502597e+2, 2.1459584e+2, -882369.2, -959858.2, 3670.3623, 0.05411805, 0.0008832561, -882195.7, -45236.36, 0.0, 10.000104, 9.999075 
8.950166e+2, 2.2459494e+2, -795928.44, -874923.3, 2687.21, 0.058547225, 0.008028078, -795837.1, -56869.008, 0.0, 10.000056, 9.999009 
8.95007e+2, 2.3459361e+2, -709423.25, -780452.6, 13243.324, 0.044882298, -0.029888479, -707034.4, -66053.79, 0.0, 9.999969, 9.999026 
8.9499736e+2, 2.445924e+2, -632130.94, -724705.56, 21871.041, 0.0126990285, -0.039018832, -627223.94, -84231.56, 0.0, 9.999966, 9.998737 
8.9498764e+2, 2.545913e+2, -518866.25, -617647.3, 16428.643, -0.039303564, -0.026860291, -516205.63, -71201.88, 0.0, 10.000064, 9.998752 
8.949787e+2, 2.6459014e+2, -404260.03, -504287.03, 28582.115, -0.032434605, -0.018973319, -396668.94, -49653.805, 0.0, 10.000147, 9.998817 
8.949707e+2, 2.7458897e+2, -295593.72, -399029.9, 28757.096, 0.04228121, -0.020634415, -288136.38, -39109.832, 0.0, 10.000212, 9.998836 
8.9496154e+2, 2.8458792e+2, -220690.28, -325263.6, -8096.7593, 0.048270255, -0.0028059655, -220067.1, -69030.69, 0.0, 10.000108, 9.998719 
8.9495105e+2, 2.9458693e+2, -169963.47, -250665.95, -8468.075, -0.026341872, 0.022089332, -169084.48, -116039.08, 0.0, 9.999784, 9.998714 
8.949414e+2, 3.0458423e+2, -140484.84, -249553.31, 10986.722, -0.052879028, -0.100917704, -139389.14, -139389.14, 0.00000013409642, 9.999818, 9.998372 
8.9493334e+2, 3.1458375e+2, 7532.7925, -43238.734, -11325.973, 0.04518721, 0.009678756, 9944.774, 9944.774, 0.0000016978646, 10.000254, 9.9995775 
9.051103e+2, 1.246119e+2, -1647964.8, -1721162.0, 73970.07, 0.056037113, -0.007874779, -1602034.4, 116767.6, 0.0000010657902, 10.000625, 9.999656 
9.0509975e+2, 1.3461128e+2, -1575880.6, -1670101.4, -10743.845, -0.040373653, -0.0071286806, -1574671.1, 46137.734, 0.000000007369457, 10.000594, 9.999351 
9.050904e+2, 1.4461072e+2, -1477617.1, -1552005.5, 1241.8293, -0.016636694, -0.0055346014, -1477596.4, 45218.16, 0.0, 10.000511, 9.999525 
9.0508187e+2, 1.5461025e+2, -1397833.0, -1461345.9, 5706.0864, 0.040980533, -0.007840529, -1397324.5, 27493.75, 0.0, 10.000379, 9.999539 
9.0507245e+2, 1.6460954e+2, -1333188.0, -1426982.4, 457.1126, 0.029661449, -0.010774605, -1333185.9, -6361.1665, 0.0, 10.000356, 9.999112 
9.0506226e+2, 1.7460856e+2, -1217075.1, -1319343.3, 4796.279, -0.05459452, -0.02324753, -1216850.8, 11983.595, 0.0, 10.000478, 9.999118 
9.050528e+2, 1.8460761e+2, -1122639.0, -1222928.3, 7362.183, -0.065273225, -0.029827736, -1122101.4, 8742.127, 0.0, 10.000451, 9.99912 
9.0504426e+2, 1.9460668e+2, -1052634.4, -1136762.3, 132.61841, 0.008260197, -0.037500408, -1052634.1, -19781.81, 0.0, 10.000251, 9.999135 
9.050354e+2, 2.0460585e+2, -981216.9, -1069853.6, -6290.772, 0.052307155, -0.025453221, -980772.7, -45911.83, 0.0, 10.000148, 9.998972 
9.0502614e+2, 2.1460512e+2, -880947.6, -969238.9, -7872.89, 0.061889242, 0.0015716443, -880251.1, -43382.29, 0.0, 10.000157, 9.998985 
9.0501666e+2, 2.2460416e+2, -772122.2, -849412.6, -11747.582, 0.058031846, 0.0009158896, -770376.06, -31498.09, 0.0, 10.000159, 9.999134 
9.05007e+2, 2.3460294e+2, -672311.2, -747458.8, -12592.823, 0.0371235, -0.040133532, -670257.1, -29368.63, 0.0, 10.000159, 9.999161 
9.049974e+2, 2.4460179e+2, -600139.56, -714523.44, 889.52356, 0.010509771, -0.047042754, -600132.7, -57233.348, 0.0, 10.000209, 9.99869 
9.04988e+2, 2.546007e+2, -485884.28, -608020.5, 3143.2556, -0.021876156, -0.025808653, -485803.44, -40892.57, 0.0, 10.000318, 9.998695 
9.04979e+2, 2.645996e+2, -405208.7, -504707.3, 9736.04, -0.014143569, -0.014146598, -404264.97, -57342.45, 0.0, 10.000141, 9.998817 
9.049706e+2, 2.745984e+2, -379619.06, -439378.78, 10647.065, 0.040417727, -0.018339034, -377778.8, -128844.68, 0.0, 9.999633, 9.9988365 
9.0496135e+2, 2.8459725e+2, -276478.34, -356614.6, -8734.198, 0.037848294, -0.0048580286, -275537.44, -124592.93, 0.0, 9.999743, 9.99868 
9.049511e+2, 2.9459617e+2, -58645.88, -200681.17, -14068.06, -0.03251468, 0.013370844, -57265.9, -4311.552, 0.0, 10.0005665, 9.998681 
9.049417e+2, 3.0459344e+2, -10012.119, -183563.72, 9953.175, -0.049880575, -0.11231183, -9443.171, -9443.171, 0.0000001316986, 10.000702, 9.998399 
9.049336e+2, 3.1459302e+2, -39723.582, -88150.63, 22454.213, 0.05504104, 0.0044951295, -30914.594, -30914.594, 0.0000016698094, 10.00002, 9.999383 
9.1511047e+2, 1.24621265e+2, -1653125.3, -1737155.8, 68060.76, 0.010054543, -0.029133579, -1615155.9, 103553.54, 0.000002613721, 10.000646, 9.9995365 
9.1510063e+2, 1.3462076e+2, -1586668.9, -1691029.1, -12432.807, -0.00978692, -0.0033647523, -1585208.1, 35507.887, 0.00000007607973, 10.000587, 9.99921 
9.1509116e+2, 1.4462015e+2, -1482140.3, -1560027.6, -3628.234, 0.011641478, 0.0052291513, -1481971.5, 40751.082, 0.0, 10.0005045, 9.999473 
9.150817e+2, 1.5461974e+2, -1400303.9, -1466913.5, 1431.432, -0.014217325, 0.010389517, -1400273.1, 24453.201, 0.0, 10.0003805, 9.999499 
9.150724e+2, 1.6461901e+2, -1322459.4, -1406784.0, 3388.8237, -0.015174141, 0.0017980312, -1322323.5, 4409.31, 0.0, 10.000362, 9.9992485 
9.1506356e+2, 1.7461799e+2, -1207341.0, -1298895.8, 9074.257, 0.02407159, -0.027137447, -1206450.3, 22291.768, 0.0, 10.000476, 9.99926 
9.150543e+2, 1.8461718e+2, -1135743.5, -1248891.6, -796.9071, 0.041277982, -0.019627672, -1135737.9, -4987.5684, 0.0, 10.000445, 9.998945 
9.150447e+2, 1.9461656e+2, -1066451.3, -1164807.4, -7658.6333, 0.02970845, 0.02146818, -1065858.4, -33100.984, 0.0, 10.000248, 9.998945 
9.150353e+2, 2.0461553e+2, -983942.3, -1075221.9, -7277.0156, 0.025889175, 0.02689681, -983365.8, -48597.906, 0.0, 10.000145, 9.998938 
9.1502595e+2, 2.1461408e+2, -882701.0, -972712.8, -7802.1875, 0.031640884, -0.01812156, -882029.7, -45247.574, 0.0, 10.000156, 9.998962 
9.150165e+2, 2.2461295e+2, -772786.1, -850727.94, -12976.953, 0.022675535, -0.03402686, -770682.3, -31889.86, 0.0, 10.000158, 9.999126 
9.1500676e+2, 2.346122e+2, -672962.56, -748286.8, -12480.2705, -0.002934037, -0.025399381, -670948.6, -30150.246, 0.0, 10.000156, 9.999158 
9.149977e+2, 2.4461128e+2, -595748.06, -705259.1, 4366.0854, 0.012426336, -0.012990657, -595574.25, -52767.277, 0.0, 10.000208, 9.9987545 
9.149893e+2, 2.5461012e+2, -482089.97, -599731.6, 7790.513, 0.0751706, -0.005106114, -481576.3, -36757.293, 0.0, 10.000316, 9.9987545 
9.1498e+2, 2.646089e+2, -403499.0, -500846.25, -8447.832, 0.06635961, -0.0088159, -402771.34, -55939.86, 0.0, 10.000138, 9.998845 
9.149696e+2, 2.7460754e+2, -378062.16, -435192.7, -7379.873, -0.024854386, -0.031603068, -377124.25, -128280.016, 0.0, 9.999628, 9.998869 
9.1496027e+2, 2.8460637e+2, -284159.2, -371108.66, 19985.018, -0.04629326, -0.022913365, -279785.7, -128930.16, 0.0, 9.999737, 9.998584 
9.1495216e+2, 2.946052e+2, -66172.42, -214953.88, 18266.424, 0.01250487, 0.0018367702, -63962.613, -11096.268, 0.0, 10.000561, 9.998586 
9.14943e+2, 3.046028e+2, 27254.453, -105894.29, -13279.987, 0.013727172, -0.112023085, 28566.053, 28566.053, 0.00000009563079, 10.000699, 9.998934 
9.14933e+2, 3.1460303e+2, -16679.908, -38336.64, -698.9621, -0.0048045493, 0.01364423, -16657.373, -16657.373, 0.0000014046396, 10.000012, 9.999729 
9.251112e+2, 1.2463065e+2, -1604747.0, -1703277.0, 38435.207, 0.0017829781, -0.018703872, -1591527.6, 127090.52, 0.0000053718704, 10.000937, 9.999625 
9.251013e+2, 1.3463014e+2, -1598232.4, -1689178.9, -26342.043, -0.0018141781, -0.0010758403, -1591153.5, 29470.875, 0.00000033393198, 10.000477, 9.999276 
9.2509174e+2, 1.4462946e+2, -1513141.1, -1580044.0, 3470.4707, 0.025098585, -0.0006215638, -1512961.5, 9670.078, 0.0, 10.000315, 9.999427 
9.25082e+2, 1.5462908e+2, -1383495.6, -1463329.1, 6535.8857, -0.019726329, 0.011560021, -1382964.1, 41671.305, 0.0, 10.000519, 9.999455 
9.250727e+2, 1.646284e+2, -1310588.4, -1397508.0, -1544.2555, -0.018364938, 0.008965161, -1310561.0, 16080.535, 0.0, 10.000433, 9.999275 
9.25064e+2, 1.7462747e+2, -1271439.1, -1326959.6, -5077.3677, 0.047707945, -0.013568278, -1270978.6, -42328.625, 0.0, 10.000024, 9.999285 
9.250548e+2, 1.8462665e+2, -1207052.9, -1284447.4, -4823.9277, 0.069169156, -0.0071048434, -1206753.4, -76095.15, 0.0, 9.999961, 9.998935 
9.250451e+2, 1.9462593e+2, -1059679.5, -1162415.8, 300.6375, 0.033218972, 0.025066784, -1059678.6, -27012.344, 0.0, 10.0003, 9.998936 
9.250355e+2, 2.0462486e+2, -941083.0, -1053564.0, 6059.0986, 0.020674523, 0.025299711, -940757.56, -6080.573, 0.0, 10.000437, 9.998944 
9.2502624e+2, 2.1462338e+2, -855094.9, -958870.44, 6826.961, 0.036202583, -0.020553509, -854647.7, -17956.77, 0.0, 10.000343, 9.998967 
9.2501676e+2, 2.2462223e+2, -757470.3, -857776.2, 2123.6814, 0.029206662, -0.0311184, -757425.4, -18723.88, 0.0, 10.000327, 9.998996 
9.2500705e+2, 2.346215e+2, -647423.6, -751016.06, -9065.562, -0.0036155132, -0.009962928, -646636.3, -5927.9736, 0.0, 10.000398, 9.9990225 
9.2499787e+2, 2.4462055e+2, -584487.8, -691216.3, -3121.7737, 0.011728196, 0.0025988317, -584396.56, -41679.34, 0.0, 10.000248, 9.998832 
9.2498946e+2, 2.5461936e+2, -542536.2, -619270.0, 723.6821, 0.08236037, -0.0025438059, -542529.4, -97800.625, 0.0, 9.999859, 9.99884 
9.2498004e+2, 2.64618e+2, -442300.97, -530749.56, -11630.403, 0.07249259, -0.0142591605, -440797.22, -94055.44, 0.0, 9.99992, 9.998746 
9.2496955e+2, 2.7461654e+2, -260068.86, -390002.6, -21721.93, -0.030599197, -0.039677426, -256533.63, -7777.223, 0.0, 10.000489, 9.998764 
9.249603e+2, 2.846154e+2, -176740.25, -310388.7, 8180.2173, -0.04756544, -0.025291441, -176241.44, -25473.865, 0.0, 10.000437, 9.998664 
9.249525e+2, 2.946145e+2, -188832.66, -264186.53, 18344.59, 0.03635844, 0.016236736, -184604.03, -131828.22, 0.0, 9.999675, 9.998674 
9.2494345e+2, 3.0461234e+2, -100968.66, -147493.95, -13400.953, 0.030690158, -0.087729774, -97384.766, -97384.766, 0.00000004550982, 9.999731, 9.999115 
9.24933e+2, 3.1461248e+2, 87188.805, 11963.518, -30526.174, -0.040784158, 0.010981193, 98017.445, 98017.445, 0.0000009683944, 10.000725, 9.999732 
9.3511224e+2, 1.246401e+2, -1588869.8, -1665878.1, 17774.635, 0.011950293, 0.015257718, -1584965.0, 133562.78, 0.000009857008, 10.000918, 9.999891 
9.3510157e+2, 1.3463953e+2, -1580720.4, -1653531.4, -42776.402, -0.018088471, 0.0027643687, -1560954.9, 59578.07, 0.0000009955157, 10.000481, 9.999518 
9.3509203e+2, 1.4463876e+2, -1513207.9, -1584680.4, 9031.369, 0.022240743, -0.017366484, -1512084.4, 10455.978, 0.00000000002439963, 10.000332, 9.999388 
9.35083e+2, 1.5463832e+2, -1387814.5, -1471739.3, 14255.753, 0.020134466, -0.0028648572, -1385459.1, 39085.617, 0.0, 10.000515, 9.999401 
9.350735e+2, 1.6463776e+2, -1317061.3, -1409520.8, -16811.854, 0.01469738, 0.0105657345, -1314099.3, 12451.219, 0.0, 10.000427, 9.999196 
9.350637e+2, 1.7463703e+2, -1277325.3, -1339273.8, -20345.621, 0.014736696, 0.016499503, -1271240.9, -42683.09, 0.0, 10.000025, 9.9992 
9.3505424e+2, 1.8463607e+2, -1197238.9, -1264710.3, 6116.9897, 0.016511532, 0.008363985, -1196688.8, -66121.875, 0.0, 9.999962, 9.99907 
9.350452e+2, 1.9463484e+2, -1048681.4, -1139843.3, 12767.918, 0.017683327, -0.025501927, -1046926.9, -14348.591, 0.0, 10.0003, 9.999091 
9.3503606e+2, 2.0463385e+2, -937946.9, -1047036.4, 1614.5222, 0.035229567, -0.0291566, -937923.0, -3335.2915, 0.0, 10.000436, 9.998991 
9.35027e+2, 2.146331e+2, -852867.44, -953610.75, 2996.552, 0.07278356, -0.005118781, -852778.44, -16183.598, 0.0, 10.0003395, 9.999005 
9.350176e+2, 2.2463213e+2, -776377.06, -896242.44, 3430.697, 0.07392396, 0.010177924, -776278.94, -37674.188, 0.0, 10.000323, 9.998734 
9.350078e+2, 2.3463084e+2, -667316.4, -791452.2, -6413.628, 0.03271425, 0.006432477, -666985.9, -26367.912, 0.0, 10.000393, 9.998747 
9.349981e+2, 2.446296e+2, -578485.25, -678700.7, -17897.938, 0.0062349136, 0.00007035068, -575384.75, -32754.984, 0.0, 10.000247, 9.998919 
9.3498844e+2, 2.5462836e+2, -535062.9, -603674.7, -13247.339, -0.0034661053, -0.019082515, -532593.94, -87954.08, 0.0, 9.999857, 9.998949 
9.3497926e+2, 2.6462698e+2, -458419.34, -563408.56, 8499.614, 0.00069095124, -0.031447507, -457735.7, -111082.43, 0.0, 9.999916, 9.998523 
9.3497056e+2, 2.7462542e+2, -277564.2, -425704.4, 727.256, 0.021129785, -0.04224368, -277560.6, -28890.252, 0.0, 10.000486, 9.998521 
9.3496156e+2, 2.8462446e+2, -158672.56, -273103.13, -19173.195, 0.031946078, -0.010706761, -155545.48, -4865.2065, 0.0, 10.000437, 9.99892 
9.3495214e+2, 2.946241e+2, -170388.69, -224478.83, -9264.122, 0.0318955, 0.057636607, -168846.0, -116163.63, 0.0, 9.999667, 9.998952 
9.349427e+2, 3.0462205e+2, -116306.63, -176092.84, 21535.4, -0.0065055112, -0.039295707, -109357.22, -109357.22, 0.000000010385675, 9.999718, 9.998924 
9.349336e+2, 3.1462127e+2, 60696.563, -39635.75, 9605.694, -0.05948947, -0.012517396, 61607.92, 61607.92, 0.00000050425, 10.000711, 9.999384 
9.451128e+2, 1.24649405e+2, -1728919.4, -1717122.0, 30238.297, 0.037981033, 0.020913722, -1692212.4, 26225.402, 0.000016753027, 9.9998865, 10.000038 
9.4510204e+2, 1.3464905e+2, -1585810.6, -1642338.9, -38153.37, -0.014201761, 0.018227208, -1566592.8, 53847.65, 0.000002343361, 10.000388, 9.999639 
9.4509256e+2, 1.4464831e+2, -1486950.6, -1570028.1, 8054.1646, 0.029783571, -0.005813178, -1486177.0, 36270.176, 0.0000000053592455, 10.000507, 9.999402 
9.4508344e+2, 1.5464778e+2, -1432514.5, -1492226.3, 16889.912, 0.03491511, -0.0018523752, -1428068.1, -3615.7837, 0.0, 10.000205, 9.999409 
9.450739e+2, 1.6464716e+2, -1352197.3, -1437429.9, -9142.321, 0.023329819, 0.01090631, -1351227.6, -24768.783, 0.0, 10.000234, 9.999098 
9.450638e+2, 1.7464644e+2, -1194980.0, -1310416.5, -15342.877, -0.00031130467, 0.02673783, -1192975.5, 35491.2, 0.0, 10.000638, 9.999102 
9.450544e+2, 1.8464544e+2, -1088957.8, -1203805.5, 8664.686, -0.002320855, 0.017114533, -1088307.6, 42168.484, 0.0, 10.000671, 9.9991455 
9.450455e+2, 1.9464417e+2, -1045436.6, -1129410.0, 9436.844, 0.017527992, -0.030492619, -1044389.2, -11901.921, 0.0, 10.000285, 9.999169 
9.450364e+2, 2.0464319e+2, -976947.2, -1065819.4, -2971.369, 0.042396672, -0.034433126, -976847.94, -42352.03, 0.0, 10.000169, 9.99899 
9.4502735e+2, 2.1464261e+2, -850225.8, -952597.1, -6239.01, 0.07363079, 0.0049435506, -849847.0, -13345.308, 0.0, 10.0003605, 9.9990015 
9.4501793e+2, 2.246416e+2, -773954.06, -907140.8, -4449.6426, 0.07496029, 0.023168579, -773805.56, -35293.49, 0.0, 10.000393, 9.998626 
9.4500816e+2, 2.346401e+2, -696766.44, -818629.94, -3342.38, 0.04100822, 0.008839762, -696674.9, -56147.043, 0.0, 10.000247, 9.998631 
9.449984e+2, 2.4463874e+2, -567563.1, -673548.75, -10617.05, 0.007994589, -0.0023158258, -566510.0, -23969.322, 0.0, 10.000322, 9.998919 
9.449885e+2, 2.5463754e+2, -420252.28, -547615.94, -15372.818, -0.023849955, -0.020749096, -418423.03, 26127.426, 0.0, 10.000643, 9.998955 
9.4497937e+2, 2.6463616e+2, -373167.38, -531122.8, 8955.3, -0.012731874, -0.027622744, -372661.28, -26097.643, 0.0, 10.00054, 9.998445 
9.449711e+2, 2.7463463e+2, -358682.97, -473633.38, 12472.868, 0.048716716, -0.026455315, -357345.16, -108764.54, 0.0, 9.999968, 9.998442 
9.4496197e+2, 2.8463358e+2, -240045.05, -317290.75, -15762.379, 0.058890108, 0.0036239855, -236952.45, -86361.05, 0.0, 9.999899, 9.998877 
9.4495195e+2, 2.9463303e+2, -68494.836, -179934.11, -31360.363, 0.009954728, 0.056745715, -60275.83, -7680.4995, 0.0, 10.000386, 9.998912 
9.4494253e+2, 3.0463108e+2, -12223.207, -122732.21, 11560.206, -0.034723986, -0.030926332, -11026.859, -11026.859, 0.00000000032400083, 10.00042, 9.998954 
9.44934e+2, 3.1463027e+2, -56833.11, -106578.67, 14604.209, -0.04925677, -0.011377567, -52862.555, -52862.555, 0.00000016973306, 9.9999485, 9.999291 
9.5511305e+2, 1.2465868e+2, -1722009.1, -1709785.1, 42949.4, 0.06102467, 0.0027213441, -1672515.0, 45832.055, 0.00002677623, 9.999914, 10.000076 
9.551026e+2, 1.3465878e+2, -1586425.3, -1643032.9, -19010.639, 0.0065995897, 0.045146525, -1580633.5, 39712.438, 0.0000047533053, 10.000384, 9.999637 
9.5509315e+2, 1.4465818e+2, -1483963.4, -1561930.4, -2689.7266, 0.043747067, 0.031707812, -1483870.6, 38480.887, 0.000000046136613, 10.000499, 9.999461 
9.5508355e+2, 1.5465748e+2, -1427951.3, -1483169.5, 6042.0015, 0.022225885, 0.013921081, -1427297.9, -2940.2878, 0.0, 10.000207, 9.99947 
9.5507395e+2, 1.6465668e+2, -1359965.6, -1454788.5, 4736.1226, 0.0042977976, 0.011247074, -1359729.6, -33363.785, 0.0, 10.000237, 9.998978 
9.5506454e+2, 1.7465575e+2, -1203512.0, -1327993.6, 142.76378, 0.00043737428, 0.018316679, -1203511.9, 24864.592, 0.0, 10.000637, 9.998982 
9.550552e+2, 1.8465483e+2, -1088653.0, -1202490.1, -5962.5356, 0.00932348, 0.020321107, -1088341.6, 42043.938, 0.0, 10.000668, 9.999156 
9.550458e+2, 1.9465391e+2, -1045161.6, -1128317.0, -5474.6406, 0.030097323, 0.010192052, -1044802.75, -12410.01, 0.0, 10.000282, 9.999178 
9.550366e+2, 2.0465295e+2, -981351.1, -1074554.3, 2214.0562, 0.03926302, 0.009085524, -981298.56, -46897.4, 0.0, 10.000166, 9.998932 
9.550273e+2, 2.1465193e+2, -854452.5, -960627.4, 630.6529, 0.036687076, 0.009282902, -854448.75, -18037.605, 0.0, 10.000357, 9.998948 
9.5501786e+2, 2.2465071e+2, -771379.56, -901308.6, -10866.1, 0.030406097, 0.008111275, -770477.06, -32053.902, 0.0, 10.000389, 9.998668 
9.5500827e+2, 2.3464929e+2, -693297.4, -811488.56, -8592.351, 0.019140044, -0.0033655218, -692676.0, -52238.516, 0.0, 10.000246, 9.998681 
9.549988e+2, 2.4464801e+2, -574671.9, -688093.7, 567.173, 0.0146473395, -0.005530856, -574669.0, -32219.168, 0.0, 10.000321, 9.998819 
9.5498955e+2, 2.5464687e+2, -428590.4, -564062.56, -2762.822, 0.018324837, -0.0059975986, -428534.06, 15926.003, 0.0, 10.000639, 9.998844 
9.549804e+2, 2.646456e+2, -368025.44, -520691.5, -12010.366, 0.02925367, -0.000068329246, -367086.34, -20613.912, 0.0, 10.00054, 9.998517 
9.54971e+2, 2.7464423e+2, -352883.38, -461327.2, -8301.25, 0.047868807, 0.007620506, -352251.63, -103764.625, 0.0, 9.999965, 9.9985285 
9.549616e+2, 2.8464282e+2, -265760.25, -368775.38, 1586.9818, 0.02894046, 0.015721329, -265735.8, -115234.875, 0.0, 9.999891, 9.998527 
9.549519e+2, 2.9464132e+2, -95208.79, -233689.73, -11273.25, -0.033683177, 0.011056125, -94297.07, -41782.332, 0.0, 10.00038, 9.998546 
9.5494276e+2, 3.0463946e+2, 4606.957, -87098.125, -5523.1387, -0.057443526, -0.06323646, 4938.402, 4938.402, 0.0, 10.000415, 9.999202 
9.5493424e+2, 3.146395e+2, -47070.88, -82635.19, -594.12366, -0.019560095, 0.015533546, -47060.957, -47060.957, 0.000000027453995, 9.999932, 9.999464 
9.651133e+2, 1.2466827e+2, -1622928.4, -1675291.3, 61652.51, 0.06114553, -0.007610379, -1582128.5, 136123.86, 0.000040530904, 10.000656, 9.999953 
9.65103e+2, 1.3466826e+2, -1599618.9, -1665558.0, -7246.6533, 0.004842498, 0.038742375, -1598831.9, 21421.18, 0.000008656152, 10.000365, 9.99949 
9.650936e+2, 1.4466761e+2, -1510497.4, -1577788.5, -2178.5593, 0.050885126, 0.030592404, -1510426.9, 11832.591, 0.00000019058375, 10.000332, 9.999433 
9.6508384e+2, 1.54667e+2, -1379345.3, -1462244.1, -2369.0222, 0.018786471, 0.023568917, -1379277.6, 44987.383, 0.0, 10.000552, 9.999447 
9.650743e+2, 1.6466624e+2, -1323502.4, -1439847.9, -222.41016, 0.0031945852, 0.025092967, -1323502.0, 2771.18, 0.0, 10.000501, 9.998952 
9.6506506e+2, 1.7466526e+2, -1274533.0, -1364398.3, 2042.3779, 0.014398542, 0.029910645, -1274486.6, -46202.39, 0.0, 10.00016, 9.998961 
9.650557e+2, 1.8466432e+2, -1175186.1, -1249615.0, -4995.478, 0.026777338, 0.03442616, -1174852.3, -44558.92, 0.0, 10.000097, 9.999107 
9.650463e+2, 1.9466344e+2, -1038526.94, -1130531.8, -10029.09, 0.037145946, 0.03209902, -1037446.4, -5145.988, 0.0, 10.000353, 9.999129 
9.6503687e+2, 2.0466238e+2, -946983.0, -1063826.4, 362.61948, 0.036692142, 0.02728444, -946981.9, -12672.141, 0.0, 10.000429, 9.998878 
9.650275e+2, 2.1466114e+2, -866058.94, -972509.94, -2129.3374, 0.024648044, 0.010328037, -866016.4, -29694.547, 0.0, 10.000304, 9.998892 
9.650181e+2, 2.2465985e+2, -779785.8, -895018.25, -12884.189, 0.014538912, 0.00033223216, -778362.8, -40028.723, 0.0, 10.000287, 9.99876 
9.6500844e+2, 2.3465852e+2, -665328.75, -786590.6, -8796.971, 0.005558515, -0.01134943, -664693.9, -24347.125, 0.0, 10.00039, 9.998782 
9.649991e+2, 2.446573e+2, -578251.6, -707767.06, 4069.878, 0.0125548765, -0.0058481363, -578123.9, -35765.0, 0.0, 10.000376, 9.998656 
9.649902e+2, 2.5465617e+2, -499808.28, -617376.94, -4430.455, 0.038133606, 0.012185851, -499641.56, -55271.207, 0.0, 10.000234, 9.9986725 
9.6498084e+2, 2.6465493e+2, -400058.03, -518205.2, -22440.865, 0.04338002, 0.022354404, -395939.2, -49556.645, 0.0, 10.000244, 9.998676 
9.64971e+2, 2.7465358e+2, -276781.16, -405360.4, -14016.488, 0.025346871, 0.017012948, -275270.94, -26875.508, 0.0, 10.000405, 9.998701 
9.6496147e+2, 2.8465205e+2, -199621.36, -350503.28, 21618.79, 0.003225541, 0.012035963, -196584.88, -46174.79, 0.0, 10.000404, 9.998405 
9.6495235e+2, 2.9465032e+2, -123619.945, -261980.78, 24835.586, -0.023449978, -0.0056010243, -119297.055, -66869.805, 0.0, 10.000248, 9.998415 
9.649431e+2, 3.046486e+2, -41041.082, -95230.44, 16149.161, -0.043650433, -0.061931174, -36593.453, -36593.453, 0.0, 10.000044, 9.999324 
9.649339e+2, 3.1464902e+2, -69368.42, -85882.56, 8925.511, -0.042373195, 0.039679434, -65466.387, -65466.387, 0.00000000015790982, 9.999747, 9.999531 
9.751136e+2, 1.2467817e+2, -1643492.9, -1715669.3, 46313.25, 0.021400817, -0.016602576, -1620867.5, 97286.17, 0.000058506626, 10.000645, 9.999681 
9.751031e+2, 1.3467759e+2, -1618887.6, -1706794.5, -16777.979, -0.02284007, 0.0007748761, -1615794.3, 4366.5454, 0.00001444443, 10.000371, 9.999205 
9.7509396e+2, 1.4467674e+2, -1518443.3, -1595810.0, 5717.1924, 0.046152562, -0.006288122, -1518023.0, 4147.0747, 0.0000005546723, 10.000338, 9.999307 
9.750845e+2, 1.5467644e+2, -1388163.3, -1479829.3, 6376.473, 0.022300636, 0.028004736, -1387721.9, 36452.01, 0.0, 10.000548, 9.999328 
9.7507495e+2, 1.6467586e+2, -1319020.3, -1430117.3, -13385.06, 0.016616888, 0.053058546, -1317430.4, 8749.897, 0.0, 10.000498, 9.999022 
9.750654e+2, 1.7467499e+2, -1269262.1, -1353846.3, -10850.356, 0.038846917, 0.061690103, -1267892.4, -39702.89, 0.0, 10.00016, 9.999034 
9.75056e+2, 1.8467396e+2, -1182553.5, -1265183.9, 2936.552, 0.04635526, 0.05889449, -1182449.4, -52250.01, 0.0, 10.000097, 9.999001 
9.750466e+2, 1.9467276e+2, -1046268.8, -1146428.4, -623.6308, 0.036705084, 0.034791473, -1046264.94, -14055.093, 0.0, 10.000351, 9.999021 
9.750372e+2, 2.0467153e+2, -951105.06, -1072046.3, -5271.9585, 0.032216724, 0.020291002, -950875.7, -16654.611, 0.0, 10.000426, 9.998823 
9.750279e+2, 2.1467027e+2, -870174.56, -980511.9, -7191.8477, 0.034770083, 0.008732515, -869707.75, -33474.703, 0.0, 10.000301, 9.998839 
9.7501844e+2, 2.2466904e+2, -770871.2, -875986.75, -10555.314, 0.024211202, -0.000033791257, -769821.75, -31577.303, 0.0, 10.000284, 9.998893 
9.750087e+2, 2.3466784e+2, -656289.9, -766734.7, -4969.265, -0.0018148635, -0.013889775, -656066.75, -15811.567, 0.0, 10.000385, 9.99892 
9.749993e+2, 2.4466664e+2, -594080.8, -740288.06, -1747.8976, -0.00037045043, -0.0010490512, -594059.94, -51792.61, 0.0, 10.000373, 9.998435 
9.7499037e+2, 2.5466543e+2, -515790.9, -650593.6, -9239.407, 0.032363623, 0.032304306, -515160.56, -70879.41, 0.0, 10.000233, 9.9984455 
9.749809e+2, 2.646641e+2, -383823.97, -483645.22, -16244.393, 0.02669551, 0.03634163, -381246.97, -34952.883, 0.0, 10.000239, 9.998916 
9.749709e+2, 2.7466276e+2, -259489.02, -368777.34, -6580.547, -0.02297471, 0.0004260794, -259094.2, -10788.399, 0.0, 10.0004015, 9.998954 
9.7496164e+2, 2.846614e+2, -192665.77, -336240.44, 15824.581, -0.02214565, -0.0058511696, -190942.28, -40623.836, 0.0, 10.000403, 9.998504 
9.749531e+2, 2.946601e+2, -117290.54, -247983.03, 20387.668, 0.0361833, 0.011234676, -114183.96, -61851.652, 0.0, 10.000243, 9.998514 
9.749436e+2, 3.0465862e+2, -43541.438, -97455.39, 5598.274, 0.002564803, -0.024497066, -42966.266, -42966.266, 0.0, 10.0000305, 9.999315 
9.7493273e+2, 3.1465873e+2, -75475.234, -93191.625, 1023.1846, -0.12834027, 0.047760647, -75416.336, -75416.336, 0.0, 9.999724, 9.999492 
9.85114e+2, 1.2468783e+2, -1710301.5, -1745080.3, 14576.856, 0.021343289, -0.0043115052, -1705000.0, 13059.411, 0.00008108169, 10.000174, 9.999706 
9.8510355e+2, 1.346872e+2, -1584852.6, -1690381.1, -24692.703, -0.019895284, 0.0075744973, -1579360.6, 40706.04, 0.000022462764, 10.000603, 9.999206 
9.850946e+2, 1.4468625e+2, -1477678.5, -1595236.0, 3465.9312, 0.061679307, -0.0013575491, -1477576.5, 44500.74, 0.0000013019285, 10.000699, 9.999136 
9.8508495e+2, 1.5468581e+2, -1423208.3, -1515396.4, -790.149, 0.025145033, 0.03717206, -1423201.5, 881.50446, 0.0, 10.00039, 9.99916 
9.850753e+2, 1.6468519e+2, -1333518.3, -1425166.3, -19304.557, 0.015563704, 0.061877564, -1329618.0, -3528.1963, 0.0, 10.000348, 9.999126 
9.850659e+2, 1.7468438e+2, -1195639.9, -1305599.6, -14917.878, 0.044255976, 0.063463666, -1193651.9, 34445.688, 0.0, 10.000611, 9.999147 
9.850564e+2, 1.8468331e+2, -1113106.3, -1243801.4, 2901.6055, 0.0503164, 0.056470945, -1113041.9, 17065.719, 0.0, 10.000626, 9.998893 
9.8504686e+2, 1.9468199e+2, -1051895.3, -1161779.0, -1843.0519, 0.027561866, 0.031583697, -1051864.3, -19744.438, 0.0, 10.000366, 9.998909 
9.8503745e+2, 2.0468074e+2, -980939.75, -1084251.9, -5456.17, 0.023300968, 0.020844074, -980652.44, -46520.945, 0.0, 10.000212, 9.998843 
9.850282e+2, 2.146796e+2, -885259.3, -984821.2, -2578.4014, 0.040369026, 0.017100928, -885192.56, -49050.254, 0.0, 10.000186, 9.998865 
9.8501873e+2, 2.246784e+2, -785031.44, -889725.44, -2657.048, 0.03418631, 0.013515842, -784964.06, -46810.55, 0.0, 10.000219, 9.998828 
9.850091e+2, 2.3467715e+2, -670434.06, -781397.75, -13691.527, 0.0011747078, 0.0035375431, -668769.7, -28604.795, 0.0, 10.000323, 9.99885 
9.8499966e+2, 2.4467593e+2, -590150.4, -726502.8, -13266.578, -0.006053298, 0.012490097, -588871.56, -46694.33, 0.0, 10.00035, 9.998541 
9.849904e+2, 2.546747e+2, -501040.9, -631132.3, 2608.5474, 0.015316386, 0.03138337, -500988.6, -56797.61, 0.0, 10.000281, 9.998556 
9.8498094e+2, 2.646734e+2, -387537.38, -485923.1, 5669.51, 0.010683418, 0.030757817, -387211.75, -41007.88, 0.0, 10.000217, 9.998911 
9.8497117e+2, 2.746721e+2, -293364.97, -385680.72, -5818.3257, -0.023718609, 0.0022674624, -292999.72, -44784.215, 0.0, 10.0001745, 9.998946 
9.8496187e+2, 2.8467095e+2, -236522.97, -338287.56, -854.3073, -0.017943943, 0.01036577, -236515.8, -86289.484, 0.0, 10.000022, 9.998673 
9.849531e+2, 2.9467008e+2, -183328.25, -260336.38, 8822.073, 0.03519217, 0.050598074, -182330.53, -130094.18, 0.0, 9.999707, 9.998687 
9.8494345e+2, 3.0466872e+2, -78032.68, -98779.93, 14867.914, -0.0009914942, 0.01353262, -70277.125, -70277.125, 0.0, 9.999729, 9.999451 
9.849326e+2, 3.146684e+2, -3817.7737, -47681.418, 17141.977, -0.13393202, 0.028594078, 2086.57, 2086.57, 0.0, 10.000169, 9.999591 
9.951144e+2, 1.246973e+2, -1689398.3, -1702750.1, 22810.227, 0.04354167, 0.025032036, -1672307.1, 45661.742, 0.000108580556, 10.000179, 9.999994 
9.951045e+2, 1.3469712e+2, -1567173.9, -1652913.6, -7659.151, 0.010736235, 0.058010105, -1566495.0, 53475.117, 0.000033028722, 10.0006, 9.999464 
9.950956e+2, 1.4469616e+2, -1492509.6, -1625372.6, -8043.698, 0.09338237, 0.04492772, -1492024.5, 29955.824, 0.0000026281716, 10.000695, 9.998932 
9.950853e+2, 1.5469518e+2, -1438065.3, -1546462.8, -11988.512, 0.023711959, 0.050665192, -1436755.1, -12763.354, 0.00000000019976186, 10.00039, 9.998947 
9.950755e+2, 1.646943e+2, -1323982.4, -1405215.1, -10724.005, -0.0037674955, 0.050833743, -1322590.5, 3410.588, 0.0, 10.000346, 9.999265 
9.9506634e+2, 1.7469345e+2, -1185193.6, -1283848.1, -5011.04, 0.028810894, 0.035715513, -1184939.8, 43068.246, 0.0, 10.00061, 9.999298 
9.9505687e+2, 1.8469241e+2, -1121231.5, -1260181.0, -7531.061, 0.0352052, 0.028408336, -1120824.5, 9193.011, 0.0, 10.000623, 9.998782 
9.95047e+2, 1.9469118e+2, -1060521.0, -1179284.9, -12213.661, 0.0078471545, 0.024274243, -1059277.9, -27248.123, 0.0, 10.000363, 9.99879 
9.9503756e+2, 2.0469008e+2, -974540.7, -1070592.4, -8341.481, 0.007546837, 0.029528037, -973821.7, -39781.29, 0.0, 10.00021, 9.998938 
9.950284e+2, 2.1468912e+2, -878536.44, -969893.56, -4140.102, 0.039830398, 0.03533786, -878349.25, -42300.03, 0.0, 10.000181, 9.998969 
9.95019e+2, 2.2468795e+2, -803886.1, -928408.5, -233.39226, 0.04246075, 0.041249517, -803885.7, -65824.875, 0.0, 10.0002165, 9.998565 
9.9500954e+2, 2.3468652e+2, -689691.9, -821200.56, -9711.878, 0.011738449, 0.039660413, -688978.56, -48902.96, 0.0, 10.000321, 9.998578 
9.9499995e+2, 2.4468522e+2, -561170.94, -665763.06, -15945.638, -0.007942427, 0.032776825, -558793.94, -16705.475, 0.0, 10.000347, 9.99896 
9.949904e+2, 2.54684e+2, -470378.03, -566989.5, 853.9189, -0.015453925, 0.010348289, -470370.5, -26271.1, 0.0, 10.000278, 9.998998 
9.94981e+2, 2.646828e+2, -406174.94, -525096.1, 3751.2534, -0.00651236, 0.009594624, -406056.72, -59945.484, 0.0, 10.000218, 9.998642 
9.949718e+2, 2.7468163e+2, -313976.38, -427918.38, -6546.6035, 0.019496828, 0.025314704, -313601.47, -65477.336, 0.0, 10.000171, 9.998658 
9.949622e+2, 2.8468075e+2, -220408.58, -302186.84, -11718.588, 0.011495348, 0.060174357, -218762.48, -68628.75, 0.0, 10.0000105, 9.998926 
9.9495214e+2, 2.946802e+2, -165193.63, -220288.0, -792.1789, -0.032851018, 0.10838105, -165182.23, -113042.766, 0.0, 9.999697, 9.998966 
9.9494255e+2, 3.0467892e+2, -61434.87, -63744.063, 31240.635, -0.05952509, 0.04901953, -31327.504, -31327.504, 0.0, 9.999725, 9.999694 
9.9493355e+2, 3.14678e+2, 9466.103, -17105.502, 37471.402, -0.06471085, -0.01708849, 35937.297, 35937.297, 0.0, 10.000155, 9.999807 
1.00511484e+3, 1.2470633e+2, -1617414.8, -1664655.8, 4690.212, 0.05020171, 0.03459518, -1616953.6, 100927.9, 0.00014134821, 10.000656, 10.000029 
1.005105e+3, 1.3470624e+2, -1582549.4, -1658214.6, -35562.06, 0.005759971, 0.07327004, -1568459.3, 51422.813, 0.000046426092, 10.000485, 9.999484 
1.0050963e+3, 1.4470533e+2, -1515526.6, -1618539.6, -38459.258, 0.101328366, 0.05675105, -1502752.1, 19139.084, 0.00000474816, 10.000461, 9.999091 
1.00508586e+3, 1.5470435e+2, -1402980.6, -1512061.9, -18010.998, 0.034806535, 0.044573948, -1400083.6, 23818.398, 0.000000004412824, 10.000553, 9.999105 
1.005076e+3, 1.6470346e+2, -1303850.1, -1401197.0, -3225.957, 0.002839923, 0.041475624, -1303743.3, 22167.656, 0.0, 10.000507, 9.999216 
1.0050667e+3, 1.7470272e+2, -1232207.5, -1311920.5, -13010.506, 0.02167939, 0.04050519, -1230137.8, -2220.1948, 0.0, 10.000311, 9.999249 
1.00505725e+3, 1.8470171e+2, -1173682.4, -1278691.8, -20804.363, 0.030438436, 0.036978044, -1169710.8, -39783.883, 0.0, 10.000235, 9.998842 
1.0050475e+3, 1.9470045e+2, -1065356.8, -1174550.6, -12630.874, 0.022524742, 0.024240335, -1063914.8, -31975.6, 0.0, 10.0003, 9.998853 
1.0050379e+3, 2.0469937e+2, -962440.7, -1071533.3, -3593.9536, 0.021838473, 0.030366922, -962322.4, -28372.637, 0.0, 10.000323, 9.998876 
1.00502856e+3, 2.1469846e+2, -865592.06, -971288.25, -13216.98, 0.031053664, 0.048880223, -863964.4, -28005.867, 0.0, 10.000303, 9.9989 
1.0050192e+3, 2.2469729e+2, -799196.2, -919160.5, -3349.523, 0.031308297, 0.056219146, -799102.75, -61132.418, 0.0, 10.000219, 9.998627 
1.0050098e+3, 2.346958e+2, -722680.06, -829665.94, 10852.855, 0.020086491, 0.040706567, -721590.25, -81604.53, 0.0, 10.000064, 9.998643 
1.00500025e+3, 2.4469456e+2, -596587.25, -669622.4, 9272.595, 0.0035844347, 0.032823555, -595428.4, -53430.63, 0.0, 10.000049, 9.999075 
1.00499064e+3, 2.5469363e+2, -474502.5, -555381.7, 526.5082, -0.019089235, 0.02713147, -474499.1, -30493.305, 0.0, 10.000195, 9.999116 
1.0049812e+3, 2.646926e+2, -412151.44, -531433.75, -5627.8164, -0.013915252, 0.035652395, -411886.5, -65870.055, 0.0, 10.000195, 9.998608 
1.0049719e+3, 2.7469137e+2, -340591.38, -445336.9, 1831.7607, 0.021766013, 0.050720204, -340559.34, -92529.16, 0.0, 10.000009, 9.998616 
1.0049622e+3, 2.846904e+2, -225274.1, -304094.3, -751.3157, 0.010471389, 0.08025494, -225266.94, -75226.13, 0.0, 9.999976, 9.998929 
1.0049518e+3, 2.9468977e+2, -100996.79, -188775.39, -14116.691, -0.052438878, 0.1178778, -98782.39, -46734.695, 0.0, 10.000136, 9.998971 
1.00494236e+3, 3.0468863e+2, -23427.105, -43181.36, 89.88309, -0.070987836, 0.0696756, -23426.695, -23426.695, 0.0, 9.999977, 9.999714 
1.0049336e+3, 3.1468788e+2, -97980.35, -68584.08, -9948.845, -0.03684828, 0.017249765, -65533.56, -65533.56, 0.0, 9.999416, 9.999809 
1.0151152e+3, 1.2471495e+2, -1631303.6, -1691344.4, -9661.91, 0.020398334, 0.021376252, -1629787.1, 88010.02, 0.0001798155, 10.000648, 9.999849 
1.015105e+3, 1.3471462e+2, -1596193.1, -1685507.8, -39894.824, -0.038116116, 0.05385288, -1580968.3, 38833.19, 0.000062927356, 10.000482, 9.999298 
1.0150965e+3, 1.4471382e+2, -1481135.4, -1547463.9, -34950.87, 0.082319155, 0.03409093, -1466118.4, 55690.82, 0.000007860604, 10.000461, 9.99958 
1.0150867e+3, 1.5471332e+2, -1367030.5, -1438232.6, -14129.272, 0.054870244, 0.020133922, -1364329.1, 59483.867, 0.000000028517778, 10.000555, 9.999612 
1.0150768e+3, 1.6471277e+2, -1319967.6, -1435190.0, -11291.22, 0.030114288, 0.036135413, -1318871.5, 6947.0293, 0.0, 10.000508, 9.998981 
1.015067e+3, 1.747122e+2, -1249636.5, -1348196.9, -20558.227, 0.020114709, 0.07763323, -1245520.3, -17694.496, 0.0, 10.000311, 9.999001 
1.0150575e+3, 1.8471125e+2, -1157697.8, -1245429.5, -19852.982, 0.03319591, 0.08018375, -1153414.4, -23579.063, 0.0, 10.000234, 9.999072 
1.01504825e+3, 1.9470985e+2, -1048013.75, -1138667.5, -10537.947, 0.06874006, 0.030160695, -1046804.9, -14957.385, 0.0, 10.0003, 9.9991 
1.01503864e+3, 2.0470867e+2, -978443.06, -1104458.0, -5624.1855, 0.062372528, 0.023204654, -978192.56, -44333.496, 0.0, 10.000321, 9.998651 
1.01502866e+3, 2.1470769e+2, -882820.9, -1006434.9, -14300.783, 0.011127073, 0.058244467, -881188.0, -45318.293, 0.0, 10.0003, 9.998662 
1.01501904e+3, 2.2470652e+2, -773639.1, -864962.3, -10310.817, -0.0026720557, 0.058481537, -772489.44, -34608.027, 0.0, 10.000214, 9.9990015 
1.0150099e+3, 2.3470505e+2, -694946.0, -771998.9, 5075.7056, 0.025338667, 0.0077236746, -694613.1, -54718.414, 0.0, 10.000063, 9.999039 
1.0150006e+3, 2.4470408e+2, -610225.3, -698180.9, 13751.339, 0.027107578, 0.015563213, -608125.5, -66221.15, 0.0, 10.000049, 9.99888 
1.01499096e+3, 2.5470367e+2, -489735.6, -586626.3, 6584.951, 0.00024638275, 0.08178468, -489290.13, -45380.246, 0.0, 10.000192, 9.998903 
1.01498134e+3, 2.6470277e+2, -398609.34, -501590.0, -11876.949, -0.016322909, 0.106054366, -397257.28, -51337.84, 0.0, 10.000187, 9.9988165 
1.0149715e+3, 2.7470133e+2, -324854.3, -412366.6, -3302.3347, -0.021427017, 0.07583834, -324729.88, -76796.4, 0.0, 10.000007, 9.998843 
1.0149618e+3, 2.8469998e+2, -245428.9, -347274.25, 5465.53, -0.025071599, 0.0708453, -245136.44, -95189.27, 0.0, 9.99998, 9.9986315 
1.0149523e+3, 2.946988e+2, -124447.48, -235688.73, -6412.7847, -0.027447203, 0.08534153, -124079.016, -72118.5, 0.0, 10.000128, 9.998653 
1.0149426e+3, 3.046978e+2, -38735.504, -71199.5, -19834.877, -0.03986815, 0.08092119, -29337.44, -29337.44, 0.0, 9.99996, 9.999529 
1.0149328e+3, 3.1469783e+2, -113275.88, -95391.68, -28027.14, -0.06365612, 0.12396431, -74914.71, -74914.71, 0.0, 9.999397, 9.999633 
1.02511585e+3, 1.2472409e+2, -1644756.4, -1694832.6, 15529.801, 0.027964735, 0.012289647, -1640331.3, 77376.2, 0.00022439056, 10.000545, 9.999873 
1.0251055e+3, 1.3472377e+2, -1598807.6, -1685385.1, 6517.1855, -0.036854293, 0.046651818, -1598319.8, 21391.904, 0.0000828242, 10.000457, 9.999311 
1.0250971e+3, 1.4472306e+2, -1471523.8, -1536161.9, 13462.674, 0.08929923, 0.029687013, -1468831.9, 52886.926, 0.000012107546, 10.000496, 9.999641 
1.0250872e+3, 1.5472263e+2, -1354292.8, -1424585.1, 553.299, 0.05116696, 0.017331678, -1354288.4, 69433.02, 0.00000009714164, 10.000611, 9.999678 
1.02507725e+3, 1.6472208e+2, -1305553.5, -1429823.9, -13502.919, 0.02726655, 0.03258276, -1304103.3, 21623.473, 0.0, 10.000617, 9.998965 
1.0250675e+3, 1.7472146e+2, -1221965.8, -1337605.1, -7126.5313, 0.03237971, 0.07001849, -1221528.1, 6206.7915, 0.0, 10.000512, 9.998977 
1.02505796e+3, 1.8472059e+2, -1127210.4, -1224163.3, 2567.4731, 0.045319714, 0.07942271, -1127142.5, 2601.565, 0.0, 10.000415, 9.99913 
1.0250485e+3, 1.9471946e+2, -1037710.4, -1126583.4, -2785.31, 0.06204265, 0.049158327, -1037623.2, -5869.2134, 0.0, 10.000341, 9.999162 
1.0250388e+3, 2.0471832e+2, -986393.94, -1100695.9, 3357.4639, 0.054006785, 0.040898327, -986295.4, -52530.445, 0.0, 10.000235, 9.998718 
1.0250289e+3, 2.1471716e+2, -907725.25, -1010721.8, 16702.623, 0.01890247, 0.049968842, -905084.3, -69307.26, 0.0, 10.000096, 9.99873 
1.0250193e+3, 2.2471601e+2, -793326.6, -866761.25, 23353.129, 0.008237535, 0.04586796, -786529.25, -48740.805, 0.0, 10.000047, 9.999068 
1.02501e+3, 2.3471485e+2, -685155.4, -759453.7, 12909.195, 0.02461524, 0.01833828, -682976.3, -43177.414, 0.0, 10.000098, 9.999106 
1.0250006e+3, 2.4471398e+2, -611842.0, -710599.0, 15469.437, 0.023153739, 0.03783578, -609475.56, -67667.58, 0.0, 10.000089, 9.998775 
1.0249911e+3, 2.547134e+2, -525443.2, -616430.94, 14546.703, 0.0015389331, 0.09984344, -523174.13, -79358.45, 0.0, 10.000001, 9.998791 
1.0249813e+3, 2.647124e+2, -411692.5, -493396.84, -3635.688, -0.019466428, 0.1141992, -411531.06, -65704.84, 0.0, 10.000034, 9.998945 
1.02497146e+3, 2.7471092e+2, -286732.13, -377877.72, -4058.1396, -0.039769292, 0.0686289, -286551.78, -38712.184, 0.0, 10.000201, 9.998984 
1.0249618e+3, 2.8470966e+2, -221862.31, -341913.56, 8697.488, -0.035534963, 0.06386038, -221235.47, -71382.89, 0.0, 10.000171, 9.998575 
1.0249525e+3, 2.9470858e+2, -160077.0, -260006.64, 16209.517, -0.0034489825, 0.09470931, -157513.44, -105648.164, 0.0, 9.999914, 9.998589 
1.0249426e+3, 3.0470765e+2, -69650.195, -91522.6, 11347.566, -0.016224777, 0.100502364, -64826.71, -64826.71, 0.0, 9.999773, 9.999478 
1.0249321e+3, 3.1470746e+2, -68068.83, -81401.625, 7351.9287, -0.08117444, 0.12834676, -64810.93, -64810.93, 0.0, 9.999739, 9.999565 
1.0351167e+3, 1.2473376e+2, -1632856.6, -1669174.6, 687.61487, 0.05597916, 0.004239639, -1632843.6, 84768.33, 0.00027553758, 10.00054, 10.0000515 
1.0351063e+3, 1.3473378e+2, -1585313.6, -1657668.6, 4249.7524, 0.003833823, 0.05226614, -1585064.9, 34547.38, 0.000106410545, 10.000458, 9.9995 
1.0350979e+3, 1.4473307e+2, -1495911.8, -1587211.8, 17283.92, 0.11641191, 0.045531332, -1492749.4, 28870.021, 0.000017580353, 10.000498, 9.99929 
1.03508756e+3, 1.5473232e+2, -1379789.8, -1476655.6, 5269.7114, 0.022149237, 0.034947045, -1379503.9, 44122.652, 0.00000023822265, 10.000608, 9.999322 
1.03507765e+3, 1.6473149e+2, -1292186.3, -1402587.6, -18215.568, -0.0067898487, 0.028719615, -1289258.5, 36376.45, 0.0, 10.000617, 9.999153 
1.03506826e+3, 1.7473057e+2, -1207653.5, -1308259.9, -11173.759, 0.055199012, 0.018037524, -1206427.5, 21217.107, 0.0, 10.000512, 9.999179 
1.0350585e+3, 1.8472984e+2, -1135983.9, -1242253.4, -1486.1896, 0.061949532, 0.037259873, -1135963.1, -6310.738, 0.0, 10.000414, 9.999006 
1.0350482e+3, 1.9472934e+2, -1047314.44, -1145818.4, -6072.3877, 0.0016125881, 0.0825403, -1046941.56, -15283.685, 0.0, 10.000338, 9.999032 
1.03503846e+3, 2.047284e+2, -962062.5, -1049453.0, -3265.091, -0.004047794, 0.08311015, -961940.7, -28273.69, 0.0, 10.000231, 9.999072 
1.0350293e+3, 2.1472691e+2, -881691.94, -956767.6, 11004.113, 0.05296718, 0.022925273, -880112.3, -44431.93, 0.0, 10.000095, 9.999101 
1.0350199e+3, 2.2472583e+2, -810303.75, -902048.1, 23729.455, 0.06110477, 0.019097181, -804529.56, -66838.73, 0.0, 10.000046, 9.998827 
1.03501e+3, 2.347252e+2, -703764.06, -797957.25, 14971.768, 0.015313314, 0.07174817, -701441.56, -61743.594, 0.0, 10.000096, 9.998844 
1.0350004e+3, 2.4472424e+2, -613842.0, -713529.9, 12046.246, -0.01191523, 0.09656641, -612407.0, -70698.51, 0.0, 10.000083, 9.998757 
1.03499085e+3, 2.547229e+2, -525678.3, -617590.94, 12270.402, -0.017516738, 0.08040673, -524068.4, -80345.61, 0.0, 10.000003, 9.998781 
1.0349813e+3, 2.6472157e+2, -409737.34, -489848.53, 2678.9084, -0.02543105, 0.062476277, -409647.88, -63911.816, 0.0, 10.000036, 9.99897 
1.0349717e+3, 2.747203e+2, -286091.1, -375012.88, 3201.9912, -0.0364185, 0.033203952, -285975.94, -38227.855, 0.0, 10.000194, 9.999008 
1.034962e+3, 2.8471944e+2, -208056.19, -310675.25, -193.75658, -0.024774551, 0.06001909, -208055.83, -58298.95, 0.0, 10.000159, 9.9987955 
1.0349526e+3, 2.9471913e+2, -143676.06, -225550.02, 9366.422, 0.013787697, 0.14226238, -142618.22, -90856.414, 0.0, 9.999912, 9.998825 
1.0349425e+3, 3.0471808e+2, -65974.54, -85308.23, 11814.524, -0.005520153, 0.12472393, -60376.035, -60376.035, 0.0, 9.999777, 9.99952 
1.0349318e+3, 3.1471673e+2, -68453.91, -79734.83, 9788.563, -0.09411511, 0.0324984, -62796.99, -62796.99, 0.0, 9.999727, 9.999582 
1.04511745e+3, 1.2474371e+2, -1659270.0, -1695117.4, 263.96426, 0.07710815, 0.018841276, -1659268.1, 58246.1, 0.0003338259, 10.000412, 9.999935 
1.04510695e+3, 1.3474338e+2, -1549781.6, -1653570.8, -7818.96, 0.0065986617, 0.044488654, -1549195.9, 70322.12, 0.00013404706, 10.000756, 9.999385 
1.0450985e+3, 1.4474262e+2, -1449910.5, -1564275.6, -550.1955, 0.11617074, 0.038243365, -1449907.8, 71617.82, 0.000024406929, 10.000813, 9.999294 
1.045088e+3, 1.5474203e+2, -1396893.0, -1484877.1, 10816.814, 0.019863438, 0.044098847, -1395582.6, 27948.752, 0.0000004785213, 10.000489, 9.999323 
1.04507804e+3, 1.6474122e+2, -1325659.6, -1415930.0, 483.57236, -0.011857804, 0.037539102, -1325657.0, -117.39645, 0.0, 10.000375, 9.999178 
1.0450687e+3, 1.7474014e+2, -1205323.3, -1303486.3, -6193.3184, 0.046915155, 0.009471789, -1204934.0, 22616.38, 0.0, 10.000514, 9.999209 
1.045059e+3, 1.8473937e+2, -1127355.6, -1239925.4, -4442.9756, 0.057132788, 0.023061663, -1127180.5, 2378.0898, 0.0, 10.0004835, 9.998987 
1.0450486e+3, 1.9473892e+2, -1058355.1, -1153413.4, -1600.9373, 0.0054388563, 0.07608994, -1058328.1, -26764.355, 0.0, 10.000273, 9.99901 
1.0450387e+3, 2.0473805e+2, -960021.44, -1039404.75, 1364.9199, -0.0015074766, 0.081966974, -959998.0, -26425.775, 0.0, 10.000207, 9.999151 
1.0450294e+3, 2.147367e+2, -844440.94, -929280.6, -6861.2617, 0.043365624, 0.025974467, -843889.6, -8305.375, 0.0, 10.000312, 9.999184 
1.0450199e+3, 2.2473568e+2, -778367.1, -895269.6, 359.8987, 0.048975337, 0.0279257, -778366.06, -40771.664, 0.0, 10.000302, 9.99875 
1.04501e+3, 2.3473504e+2, -699493.6, -804986.4, 3326.35, 0.010317253, 0.08649571, -699388.9, -59786.55, 0.0, 10.000164, 9.998763 
1.0450003e+3, 2.4473397e+2, -608941.94, -699158.25, 11746.271, -0.0116671035, 0.099934705, -607437.7, -65823.984, 0.0, 10.000064, 9.998864 
1.04499094e+3, 2.5473246e+2, -517458.4, -600129.4, 19899.783, -0.014602766, 0.055310648, -512917.7, -69288.945, 0.0, 10.000003, 9.998899 
1.0449815e+3, 2.6473126e+2, -428566.16, -491335.13, 18883.729, -0.015413415, 0.04087171, -423323.03, -77682.44, 0.0, 9.999876, 9.999036 
1.0449718e+3, 2.747304e+2, -356788.34, -402067.34, 22045.355, -0.014464228, 0.048323665, -347828.1, -100178.97, 0.0, 9.999678, 9.999071 
1.044962e+3, 2.8472972e+2, -260970.83, -311199.7, 21593.705, -0.014429692, 0.07467152, -252963.92, -103307.46, 0.0, 9.999687, 9.999018 
1.0449523e+3, 2.9472917e+2, -128607.9, -192310.39, 27433.361, -0.012579687, 0.11637479, -118422.36, -66760.31, 0.0, 9.999905, 9.999057 
1.04494214e+3, 3.0472824e+2, -43594.703, -71891.82, 25331.523, -0.024992399, 0.09335642, -28728.305, -28728.305, 0.0, 9.99992, 9.999543 
1.0449318e+3, 3.147272e+2, -67764.91, -78549.4, 22028.87, -0.05888833, 0.028349197, -50477.92, -50477.92, 0.0, 9.999729, 9.999589 
1.0551178e+3, 1.2475392e+2, -1685573.0, -1750107.4, 1796.5232, 0.07218735, 0.052039236, -1685523.0, 31890.945, 0.00039971265, 10.000413, 9.9995575 
1.0551074e+3, 1.3475266e+2, -1577422.1, -1710813.9, 7147.892, -0.02795581, 0.023517082, -1577040.1, 42387.473, 0.00016604259, 10.000755, 9.998992 
1.055099e+3, 1.4475177e+2, -1426417.3, -1516249.4, -11849.58, 0.08780123, 0.00811507, -1424880.5, 96556.086, 0.000032768716, 10.000814, 9.999623 
1.0550887e+3, 1.5475185e+2, -1373401.9, -1435406.1, -1283.1722, 0.03935793, 0.045929316, -1373375.4, 50059.797, 0.0000008393984, 10.000485, 9.999664 
1.0550786e+3, 1.6475134e+2, -1335787.9, -1436925.5, 4153.6133, 0.005460392, 0.061855264, -1335617.5, -10177.433, 0.0, 10.000374, 9.999035 
1.0550688e+3, 1.7475024e+2, -1215958.1, -1325315.4, -1143.8992, 0.0066408585, 0.04420619, -1215946.3, 11505.6875, 0.0, 10.000513, 9.999061 
1.05505906e+3, 1.847492e+2, -1121512.5, -1227924.1, -13262.301, 0.029616298, 0.035314467, -1119884.5, 9577.938, 0.0, 10.000483, 9.999071 
1.05504945e+3, 1.9474825e+2, -1051968.5, -1140396.0, -9918.092, 0.070290454, 0.028196093, -1050869.6, -19398.246, 0.0, 10.000273, 9.9991 
1.05503954e+3, 2.0474738e+2, -973974.4, -1068326.3, 3722.449, 0.0570321, 0.038406964, -973827.75, -40347.71, 0.0, 10.000206, 9.998954 
1.0550292e+3, 2.1474656e+2, -859495.5, -959891.25, -3096.3896, -0.012329874, 0.059562854, -859400.06, -23911.857, 0.0, 10.000308, 9.998977 
1.0550194e+3, 2.2474559e+2, -773042.94, -883508.06, -5733.622, -0.030545078, 0.07102402, -772746.1, -35247.56, 0.0, 10.0002985, 9.998833 
1.0550101e+3, 2.3474437e+2, -692515.4, -791312.2, -1788.6693, 0.007856664, 0.061861444, -692483.0, -52971.49, 0.0, 10.000166, 9.998857 
1.0550007e+3, 2.4474321e+2, -592667.44, -665622.25, 8918.604, 0.021411788, 0.049695507, -591593.0, -50069.89, 0.0, 10.000064, 9.999095 
1.0549912e+3, 2.5474212e+2, -501450.38, -566355.06, 18207.457, 0.007871423, 0.02534641, -496691.63, -53158.47, 0.0, 9.999999, 9.999135 
1.0549816e+3, 2.6474145e+2, -420987.13, -474102.34, 11534.405, 0.00796565, 0.04689771, -418590.47, -73050.7, 0.0, 9.999868, 9.999158 
1.0549718e+3, 2.747413e+2, -348298.13, -384578.22, 16238.021, 0.021927644, 0.1116439, -342092.03, -94549.625, 0.0, 9.999678, 9.999191 
1.05496176e+3, 2.8474045e+2, -247665.72, -283597.4, 30540.455, -0.008873512, 0.107454315, -230198.66, -80647.766, 0.0, 9.999686, 9.999208 
1.0549514e+3, 2.9473883e+2, -116655.375, -165617.56, 37431.2, -0.08626811, 0.019816155, -96410.43, -44844.855, 0.0, 9.999895, 9.999245 
1.0549416e+3, 3.0473813e+2, -43180.54, -68743.414, 18600.412, -0.07834517, 0.009111538, -33393.406, -33393.406, 0.0, 9.999909, 9.99957 
1.05493225e+3, 3.1473884e+2, -65025.99, -73329.73, 18229.719, 0.016043285, 0.118235834, -50481.316, -50481.316, 0.0, 9.999731, 9.999624 
1.0651184e+3, 1.24763556e+2, -1612509.0, -1701654.1, -22907.61, 0.072964974, 0.05615726, -1606967.0, 110353.24, 0.00047318285, 10.000862, 9.999673 
1.065108e+3, 1.3476229e+2, -1582068.8, -1700366.1, 28970.758, -0.036211446, 0.015466407, -1575354.9, 43978.02, 0.00020250746, 10.000668, 9.999107 
1.06509976e+3, 1.4476144e+2, -1458921.1, -1539375.0, 7851.7373, 0.08275627, 0.0015159686, -1458162.0, 63179.38, 0.000042863663, 10.000624, 9.999557 
1.0650893e+3, 1.5476155e+2, -1352988.0, -1433082.8, -14207.645, 0.046887856, 0.050263066, -1350542.5, 72798.016, 0.0000013547858, 10.000661, 9.999595 
1.0650791e+3, 1.6476111e+2, -1302701.1, -1417679.1, -12070.091, 0.013480643, 0.073447004, -1301447.8, 23897.582, 0.0, 10.00059, 9.999061 
1.0650692e+3, 1.7476006e+2, -1226521.9, -1327327.0, -4905.6113, 0.0013273873, 0.0584945, -1226283.8, 1072.6747, 0.0, 10.000427, 9.999087 
1.06505945e+3, 1.84759e+2, -1133626.0, -1226133.1, -11998.55, 0.019422533, 0.043338515, -1132095.1, -2728.4355, 0.0, 10.000367, 9.999138 
1.0650498e+3, 1.9475797e+2, -1023162.3, -1118681.1, -11320.545, 0.06343669, 0.021465018, -1021839.0, 9536.796, 0.0, 10.000438, 9.999168 
1.0650398e+3, 2.0475703e+2, -960773.56, -1074129.3, 4847.5845, 0.05585157, 0.027624045, -960566.6, -27181.646, 0.0, 10.00035, 9.998845 
1.0650294e+3, 2.1475619e+2, -899028.4, -991424.94, 3818.8967, -0.006237945, 0.056419373, -898870.8, -63476.555, 0.0, 10.000092, 9.998864 
1.0650197e+3, 2.247552e+2, -812308.9, -890673.25, 8189.3057, -0.022992156, 0.06850062, -811462.2, -74057.37, 0.0, 9.999978, 9.998938 
1.0650103e+3, 2.3475404e+2, -704355.1, -784016.8, 12547.181, 0.0101197, 0.05351174, -702425.6, -63008.77, 0.0, 10.0000305, 9.998971 
1.06500074e+3, 2.4475303e+2, -598349.25, -660991.0, 16307.8, 0.020024573, 0.04803429, -594358.06, -52931.344, 0.0, 9.999995, 9.99916 
1.06499106e+3, 2.547522e+2, -516704.72, -566623.75, 11350.745, 0.004366738, 0.042267203, -514244.97, -70810.57, 0.0, 9.999864, 9.999198 
1.0649813e+3, 2.6475155e+2, -425241.78, -469893.28, -3449.752, 0.00613654, 0.06052562, -424976.8, -79536.11, 0.0, 9.999811, 9.999215 
1.0649715e+3, 2.7475122e+2, -323079.06, -365470.53, -4966.0586, 0.027103214, 0.09986633, -322505.06, -75059.914, 0.0, 9.999822, 9.999253 
1.06496155e+3, 2.8475046e+2, -228246.06, -263502.8, 9601.481, -0.0052605793, 0.097107574, -225800.88, -76348.234, 0.0, 9.999775, 9.999303 
1.06495105e+3, 2.9474923e+2, -139245.94, -165808.98, 9010.849, -0.09526208, 0.03795352, -136477.72, -85014.17, 0.0, 9.999695, 9.999339 
1.0649413e+3, 3.0474854e+2, -74111.15, -85153.055, -18013.758, -0.082620084, 0.025034236, -60791.28, -60791.28, 0.0, 9.999704, 9.999555 
1.0649323e+3, 3.1474903e+2, -64507.188, -74905.32, -26515.516, 0.03948309, 0.115367375, -42685.84, -42685.84, 0.0, 9.999743, 9.999607 
1.0751192e+3, 1.2477275e+2, -1574265.4, -1620749.6, -42208.563, 0.06665952, 0.03376427, -1549322.9, 167908.66, 0.00055371417, 10.000856, 10.000231 
1.0751088e+3, 1.3477235e+2, -1542368.1, -1615705.4, 23369.078, -0.023178572, 0.020978916, -1535554.5, 83678.66, 0.00024334127, 10.000659, 9.999693 
1.07510045e+3, 1.447717e+2, -1491164.8, -1605229.0, 9240.544, 0.09411123, 0.019028347, -1490421.0, 30818.455, 0.00005483326, 10.000618, 9.999107 
1.07508995e+3, 1.5477124e+2, -1385923.8, -1501729.3, -12347.083, 0.041296687, 0.05761052, -1384622.0, 38624.55, 0.000002073113, 10.000661, 9.999124 
1.07507974e+3, 1.6477056e+2, -1288966.3, -1390049.8, -18941.748, 0.010615199, 0.07195754, -1285533.4, 39721.1, 0.0000000000166348, 10.000593, 9.999249 
1.07507e+3, 1.7476965e+2, -1212799.1, -1298271.1, -10921.684, 0.027538272, 0.051890306, -1211425.6, 15837.555, 0.0, 10.000424, 9.999289 
1.07505985e+3, 1.8476884e+2, -1130965.9, -1220319.1, -10767.07, 0.0213952, 0.0486434, -1129686.8, -416.2296, 0.0, 10.000364, 9.99918 
1.0750494e+3, 1.9476815e+2, -1020969.6, -1113716.6, -9048.063, -0.016138516, 0.05674537, -1020095.2, 11181.107, 0.0, 10.000436, 9.999205 
1.0750396e+3, 2.0476708e+2, -962653.5, -1078005.0, -6066.832, -0.006137328, 0.04924788, -962335.3, -29048.674, 0.0, 10.000348, 9.998819 
1.0750301e+3, 2.147656e+2, -900814.8, -995286.3, -6509.3857, 0.05896456, 0.015577467, -900368.4, -65066.29, 0.0, 10.000091, 9.998838 
1.0750205e+3, 2.2476459e+2, -802942.75, -871443.6, 8523.185, 0.06811592, 0.021339808, -801898.2, -64585.46, 0.0, 9.999978, 9.99907 
1.0750104e+3, 2.3476411e+2, -695014.25, -764676.7, 14731.738, 0.015173307, 0.061849117, -692026.94, -52709.043, 0.0, 10.00003, 9.999105 
1.0750004e+3, 2.4476351e+2, -605808.06, -676186.6, 11131.366, -0.01800377, 0.0932155, -604089.44, -62765.11, 0.0, 9.999992, 9.999057 
1.0749906e+3, 2.5476274e+2, -524287.22, -582757.56, 7133.8994, -0.028938564, 0.105206124, -523429.4, -80097.29, 0.0, 9.999865, 9.999087 
1.0749809e+3, 2.6476163e+2, -426372.47, -472316.2, -2647.1108, -0.024144229, 0.082252234, -426220.44, -80877.42, 0.0, 9.99981, 9.999199 
1.0749712e+3, 2.747602e+2, -324275.25, -367336.6, -3480.5122, -0.001744952, 0.012941243, -323995.75, -76638.67, 0.0, 9.999817, 9.999243 
1.0749613e+3, 2.8475973e+2, -228703.2, -262803.8, 6126.632, -0.0062044268, 0.04251012, -227635.88, -78274.266, 0.0, 9.999767, 9.999311 
1.0749513e+3, 2.9476038e+2, -138214.48, -163777.25, 7901.3467, -0.042897135, 0.17093702, -135969.39, -84613.74, 0.0, 9.999695, 9.999353 
1.0749414e+3, 3.047595e+2, -80243.18, -97833.74, -14852.086, -0.040671438, 0.14157419, -71777.48, -71777.48, 0.0, 9.999703, 9.999469 
1.0749316e+3, 3.1475782e+2, -71040.44, -87609.766, -22483.549, 0.0041819466, 0.022568487, -55363.76, -55363.76, 0.0, 9.999739, 9.999523 
1.08512e+3, 1.24782585e+2, -1606356.1, -1638306.9, -14900.829, 0.07402433, 0.02084209, -1600485.5, 116649.4, 0.00064071716, 10.000647, 10.000212 
1.0851096e+3, 1.3478234e+2, -1536993.4, -1612732.9, 20278.0, -0.013568299, 0.025975574, -1531906.0, 87228.92, 0.00028839763, 10.000696, 9.999694 
1.0851011e+3, 1.4478174e+2, -1482027.4, -1605304.6, 2355.076, 0.09526636, 0.028987234, -1481982.4, 39158.695, 0.00006873226, 10.000704, 9.999064 
1.0850905e+3, 1.5478104e+2, -1400506.5, -1514242.5, 8667.153, 0.03382557, 0.047970656, -1399849.8, 23300.826, 0.0000030594845, 10.000586, 9.999073 
1.0850802e+3, 1.6478027e+2, -1300574.4, -1394708.9, 10251.47, 0.005301347, 0.0569435, -1299470.9, 25688.47, 0.000000000186287, 10.00051, 9.999257 
1.08507045e+3, 1.7477947e+2, -1202660.1, -1291905.4, 3060.0115, 0.03709889, 0.047809314, -1202555.4, 24611.383, 0.0, 10.00049, 9.999299 
1.0850603e+3, 1.8477875e+2, -1118869.8, -1220041.0, -1581.481, 0.029968506, 0.0530799, -1118845.1, 10328.562, 0.0, 10.000474, 9.999128 
1.08504966e+3, 1.9477804e+2, -1018812.4, -1118367.0, -7154.614, -0.02854842, 0.0660364, -1018300.8, 12879.101, 0.0, 10.000476, 9.999153 
1.0850397e+3, 2.0477699e+2, -958288.7, -1071709.3, -14318.509, -0.021248588, 0.0621114, -956509.0, -23318.771, 0.0, 10.0003605, 9.998857 
1.0850303e+3, 2.1477559e+2, -892311.56, -986661.6, -10902.6875, 0.060511176, 0.031655453, -891068.06, -55863.156, 0.0, 10.000131, 9.9988785 
1.0850205e+3, 2.2477458e+2, -795146.75, -866862.1, 13430.704, 0.07417899, 0.034439836, -792714.0, -55498.742, 0.0, 10.000029, 9.999077 
1.0850104e+3, 2.3477402e+2, -688192.44, -760719.7, 8154.9785, 0.011635679, 0.06492569, -687286.8, -48066.047, 0.0, 10.000073, 9.999111 
1.0850003e+3, 2.4477333e+2, -600422.75, -676836.0, -3653.2522, -0.024087727, 0.09054898, -600248.5, -59020.82, 0.0, 10.000043, 9.999028 
1.0849905e+3, 2.547725e+2, -517734.97, -582449.94, -2320.5315, -0.029443465, 0.10248921, -517651.88, -74415.86, 0.0, 9.999923, 9.999062 
1.0849806e+3, 2.6477143e+2, -426739.4, -473001.2, -4776.32, -0.029742192, 0.08038313, -426251.4, -81004.45, 0.0, 9.999811, 9.999193 
1.0849707e+3, 2.7476996e+2, -337839.53, -374855.88, -6088.9614, -0.024951898, 0.011695058, -336863.66, -89602.91, 0.0, 9.999728, 9.999233 
1.0849609e+3, 2.8476948e+2, -249212.45, -278564.1, -24.475433, -0.018697098, 0.03908487, -249212.44, -99946.734, 0.0, 9.999652, 9.999259 
1.0849513e+3, 2.9477006e+2, -164765.14, -182758.38, -5407.0835, -0.010497896, 0.164986, -163265.3, -112004.68, 0.0, 9.999539, 9.999297 
1.08494155e+3, 3.04769e+2, -79820.45, -102774.586, -14342.9795, -0.0036693749, 0.1259232, -72927.87, -72927.87, 0.0, 9.999728, 9.999422 
1.08493164e+3, 3.147674e+2, 7911.496, -52337.74, -20314.873, 0.00019838143, 0.018738864, 14121.252, 14121.252, 0.0, 10.000295, 9.9994955 
1.09512076e+3, 1.2479307e+2, -1646152.0, -1718817.4, -26904.965, 0.08260175, 0.014987825, -1637274.8, 79755.62, 0.000734217, 10.000638, 9.999662 
1.0951103e+3, 1.3479239e+2, -1575285.5, -1693213.6, 24428.47, -0.010238197, 0.031600337, -1570425.5, 48611.86, 0.00033773432, 10.0007, 9.999141 
1.0951017e+3, 1.4479166e+2, -1457670.6, -1555160.4, -1634.3475, 0.0830451, 0.03225089, -1457643.3, 63401.92, 0.0000845864, 10.000706, 9.999408 
1.09509096e+3, 1.5479098e+2, -1376755.4, -1463873.0, 4583.5073, 0.021396382, 0.02154559, -1376514.9, 46537.363, 0.0000043925156, 10.000581, 9.999422 
1.0950806e+3, 1.6479032e+2, -1313011.3, -1419987.9, 8310.809, -0.007090831, 0.029283494, -1312369.5, 12689.832, 0.0000000006358386, 10.000506, 9.999085 
1.0950708e+3, 1.7478961e+2, -1215372.1, -1318851.1, 2141.6184, 0.027890535, 0.047276977, -1215327.8, 11738.679, 0.0, 10.000491, 9.999114 
1.0950609e+3, 1.8478875e+2, -1128780.0, -1240796.3, -2938.4446, 0.041352212, 0.05649547, -1128703.0, 372.39917, 0.0, 10.000474, 9.998986 
1.0950508e+3, 1.9478771e+2, -1029052.8, -1138881.5, -7645.804, 0.02339333, 0.048833862, -1028523.06, 2563.2112, 0.0, 10.000472, 9.999014 
1.0950403e+3, 2.0478687e+2, -951549.56, -1057281.5, -24371.93, 0.0071809166, 0.06690853, -946202.1, -13106.91, 0.0, 10.000358, 9.998958 
1.0950298e+3, 2.1478625e+2, -885226.2, -971890.44, -19852.18, -0.0035538615, 0.104927234, -880895.06, -45792.97, 0.0, 10.000129, 9.998981 
1.0950198e+3, 2.2478522e+2, -804145.5, -885727.75, 13591.736, -0.006773545, 0.10744506, -801940.7, -64828.715, 0.0, 10.000029, 9.998948 
1.0950103e+3, 2.3478375e+2, -697652.8, -780393.9, 9763.18, -0.0026787198, 0.06201999, -696516.44, -57391.305, 0.0, 10.000073, 9.998977 
1.0950006e+3, 2.4478255e+2, -596853.75, -669569.75, -8402.34, -0.0004681626, 0.039904315, -595895.5, -54759.055, 0.0, 10.000043, 9.99908 
1.09499075e+3, 2.547816e+2, -513977.47, -573968.1, -6242.2173, 0.0007218283, 0.033918634, -513334.84, -70189.14, 0.0, 9.999919, 9.999123 
1.0949806e+3, 2.6478097e+2, -427282.13, -473195.28, -8078.236, -0.012971783, 0.05468011, -425902.25, -80750.016, 0.0, 9.999806, 9.999194 
1.0949702e+3, 2.7478063e+2, -338156.72, -375270.8, -7753.961, -0.04558988, 0.09712226, -336601.88, -89446.21, 0.0, 9.999727, 9.999231 
1.09496035e+3, 2.8477973e+2, -258751.11, -298038.88, -3001.1091, -0.044827584, 0.088018216, -258523.17, -109358.8, 0.0, 9.999649, 9.999127 
1.09495096e+3, 2.9477817e+2, -174795.17, -202522.78, -7771.0386, -0.003023595, 0.015506193, -172765.77, -121587.14, 0.0, 9.999534, 9.999166 
1.0949415e+3, 3.04777e+2, -82132.89, -105730.36, 5631.678, 0.022446692, -0.02668648, -80857.76, -80857.76, 0.0, 9.99972, 9.999407 
1.0949321e+3, 3.1477782e+2, 10302.158, -47714.723, 3967.7908, 0.021737454, 0.10897733, 10572.259, 10572.259, 0.0, 10.000296, 9.999527 
1.1051216e+3, 1.248033e+2, -1614996.4, -1713691.0, -66807.09, 0.09209371, 0.026550585, -1581287.4, 135643.08, 0.00083503575, 10.000895, 9.999574 
1.1051111e+3, 1.3480249e+2, -1564360.9, -1696065.3, 31096.324, -0.010234952, 0.035740383, -1557388.0, 61551.21, 0.0003918232, 10.000807, 9.999071 
1.1051023e+3, 1.4480175e+2, -1451202.4, -1550273.8, 7713.3384, 0.0699622, 0.039587755, -1450605.5, 70341.47, 0.000102570426, 10.000742, 9.999424 
1.1050916e+3, 1.5480112e+2, -1376476.9, -1461476.4, -13177.92, 0.020321308, 0.030233402, -1374480.8, 48472.805, 0.0000061708192, 10.000575, 9.99944 
1.1050811e+3, 1.6480044e+2, -1305981.3, -1414226.4, -5389.5938, -0.008524199, 0.035783987, -1305713.6, 19246.758, 0.0000000015512864, 10.000548, 9.9991045 
1.1050713e+3, 1.747997e+2, -1183300.8, -1301288.1, 2403.6423, 0.010247325, 0.047412444, -1183251.9, 43715.668, 0.0, 10.000704, 9.999132 
1.1050614e+3, 1.8479875e+2, -1122938.9, -1254419.4, -4125.433, 0.034603935, 0.05474486, -1122809.5, 6167.809, 0.0, 10.000585, 9.998839 
1.1050514e+3, 1.9479759e+2, -1082529.0, -1181278.9, -10539.287, 0.055850074, 0.05087368, -1081416.6, -50426.73, 0.0, 10.000177, 9.998865 
1.1050409e+3, 2.0479669e+2, -988762.3, -1082964.9, -23200.23, 0.036382042, 0.07516067, -983358.56, -50358.793, 0.0, 10.000137, 9.998887 
1.1050299e+3, 2.1479608e+2, -836240.06, -955647.7, -33011.49, -0.024656454, 0.12139879, -827721.44, 7285.1797, 0.0, 10.000498, 9.998915 
1.10501975e+3, 2.24795e+2, -742221.2, -857419.4, -11334.4795, -0.036922257, 0.12128329, -741116.56, -4099.678, 0.0, 10.000462, 9.998934 
1.10501036e+3, 2.3479338e+2, -710218.7, -787929.0, -6938.7246, 0.002688575, 0.061367404, -709604.0, -70573.01, 0.0, 9.999994, 9.998962 
1.10500075e+3, 2.4479209e+2, -640626.9, -685933.5, -15570.208, 0.021104874, 0.028992005, -635791.94, -94749.23, 0.0, 9.999723, 9.999121 
1.1049906e+3, 2.5479114e+2, -546360.25, -585236.94, -16297.946, 0.016466387, 0.017391862, -540431.8, -97380.14, 0.0, 9.999678, 9.999161 
1.1049805e+3, 2.6479053e+2, -438998.13, -475179.94, -14166.822, 0.00036788193, 0.036854096, -434111.22, -89053.555, 0.0, 9.99971, 9.999227 
1.1049701e+3, 2.7479026e+2, -323857.34, -364724.38, -12385.07, -0.028994251, 0.084166855, -320396.97, -73336.95, 0.0, 9.99981, 9.999264 
1.1049601e+3, 2.8478932e+2, -236797.95, -290502.34, -5521.668, -0.03276, 0.075572856, -236236.13, -87167.66, 0.0, 9.999814, 9.999099 
1.10495046e+3, 2.9478768e+2, -147894.28, -193266.75, -3846.5513, -0.005873685, -0.003616041, -147570.48, -96486.88, 0.0, 9.999736, 9.999131 
1.10494114e+3, 3.0478632e+2, -81382.87, -108793.18, 29695.893, 0.018178932, -0.0655545, -62382.1, -62382.1, 0.0, 9.99974, 9.999376 
1.10493235e+3, 3.1478718e+2, -59983.64, -80213.45, 22778.26, 0.03482265, 0.07795607, -45175.457, -45175.457, 0.0, 9.999805, 9.99954 
1.1151226e+3, 1.24813326e+2, -1592743.8, -1664459.6, -84393.36, 0.09409194, 0.049111735, -1536906.4, 179928.53, 0.000944546, 10.000882, 9.999917 
1.1151118e+3, 1.3481267e+2, -1538351.6, -1641201.6, 30167.777, -0.017154766, 0.037311126, -1530155.9, 88684.055, 0.00045159098, 10.000802, 9.99945 
1.1151028e+3, 1.4481208e+2, -1471709.0, -1592365.1, 1497.8932, 0.052337248, 0.04984593, -1471690.4, 49155.652, 0.00012308804, 10.000739, 9.999137 
1.1150922e+3, 1.5481147e+2, -1397266.4, -1504983.3, -19472.807, 0.026232438, 0.07409798, -1393854.3, 28999.492, 0.000008505592, 10.000576, 9.999142 
1.1150817e+3, 1.6481072e+2, -1291997.4, -1385319.5, -1099.5742, -0.004412278, 0.07606965, -1291984.4, 32877.28, 0.0000000033697685, 10.000548, 9.999303 
1.1150716e+3, 1.7480978e+2, -1168979.4, -1270732.5, 8012.6826, -0.017423898, 0.047665484, -1168352.3, 58517.08, 0.0, 10.0007, 9.999344 
1.11506164e+3, 1.8480879e+2, -1134209.4, -1276944.6, -20635.71, 0.007417524, 0.04849189, -1131285.9, -2407.0571, 0.0, 10.00058, 9.998688 
1.11505166e+3, 1.9480775e+2, -1093823.8, -1205280.1, -26282.33, 0.06653312, 0.072485164, -1087937.1, -57046.84, 0.0, 10.000178, 9.9987 
1.1150412e+3, 2.0480655e+2, -1005988.5, -1119112.9, -11631.944, 0.0629674, 0.08659966, -1004804.8, -71901.54, 0.0, 10.000137, 9.998639 
1.11503065e+3, 2.1480517e+2, -853994.7, -991726.56, -19977.373, -0.00491796, 0.081159316, -851155.6, -16237.623, 0.0, 10.000494, 9.99867 
1.1150204e+3, 2.2480397e+2, -735295.44, -842133.1, -29599.516, -0.018768916, 0.076219924, -727643.0, 9286.611, 0.0, 10.000457, 9.999042 
1.1150106e+3, 2.3480295e+2, -702529.6, -771463.9, -24418.977, 0.02570254, 0.06389265, -694756.1, -55818.29, 0.0, 9.999991, 9.999078 
1.1150006e+3, 2.4480198e+2, -639549.0, -683103.4, -18022.584, 0.038044076, 0.05893165, -633058.56, -92112.71, 0.0, 9.99972, 9.999142 
1.11499034e+3, 2.5480112e+2, -545572.3, -583516.1, -17183.855, 0.015229899, 0.05295941, -538947.0, -95993.37, 0.0, 9.999677, 9.999173 
1.1149802e+3, 2.6480004e+2, -435071.66, -467071.9, -10153.875, 0.008656226, 0.025938945, -432121.72, -87158.68, 0.0, 9.99971, 9.999283 
1.11497045e+3, 2.7479884e+2, -320477.0, -356266.3, -7458.449, 0.021086004, -0.030395895, -318984.88, -72011.016, 0.0, 9.9998045, 9.999325 
1.11496046e+3, 2.8479838e+2, -232232.23, -279356.0, -8517.904, 0.012423508, 0.00032769554, -230739.83, -81762.01, 0.0, 9.999806, 9.99918 
1.1149501e+3, 2.9479873e+2, -141736.6, -181321.53, -4428.898, -0.021768872, 0.112333454, -141247.13, -90272.44, 0.0, 9.999738, 9.999213 
1.1149406e+3, 3.04797e+2, -85921.03, -118485.305, 33251.547, -0.018030668, 0.014334748, -65179.21, -65179.21, 0.0, 9.999741, 9.99931 
1.11493215e+3, 3.1479546e+2, -61823.15, -81409.3, 28168.393, 0.03047488, -0.071869254, -41794.04, -41794.04, 0.0, 9.999794, 9.999538 
1.12512305e+3, 1.2482329e+2, -1683241.1, -1685905.9, -91582.54, 0.09949418, 0.07413248, -1592981.3, 123758.35, 0.0010643419, 10.000166, 10.000115 
1.1251127e+3, 1.3482277e+2, -1537007.0, -1614157.6, 25956.824, -0.007295922, 0.05173755, -1529087.0, 89655.34, 0.00051804923, 10.000699, 9.999685 
1.1251035e+3, 1.4482222e+2, -1450260.1, -1595288.0, -15023.432, 0.0430316, 0.06305673, -1448720.3, 72027.24, 0.00014661087, 10.000946, 9.999017 
1.1250928e+3, 1.5482149e+2, -1379036.8, -1511310.0, -27478.95, 0.024778808, 0.08699855, -1373555.4, 49201.508, 0.00001150662, 10.000766, 9.999007 
1.1250823e+3, 1.6482066e+2, -1294659.3, -1389516.9, -5418.9033, 0.00550449, 0.09276644, -1294350.8, 30414.748, 0.0000000061074554, 10.000541, 9.999278 
1.1250724e+3, 1.7481981e+2, -1231088.8, -1303130.3, -14343.419, 0.005944818, 0.07264407, -1228338.0, -1565.0604, 0.0, 10.000284, 9.999322 
1.12506226e+3, 1.8481883e+2, -1166862.4, -1277991.8, -40210.664, 0.022336138, 0.06868923, -1153839.0, -25057.158, 0.0, 10.000294, 9.998817 
1.1250519e+3, 1.9481772e+2, -1023742.8, -1156453.4, -25322.332, 0.047967006, 0.07328215, -1019075.3, 11717.109, 0.0, 10.000596, 9.998834 
1.1250415e+3, 2.0481637e+2, -953911.94, -1106007.0, 7688.343, 0.047095697, 0.07168031, -953524.25, -20718.15, 0.0, 10.000547, 9.998531 
1.1250311e+3, 2.1481477e+2, -914957.56, -1033571.56, 8831.638, 0.019791463, 0.05451168, -914303.56, -79480.38, 0.0, 10.00013, 9.998557 
1.1250209e+3, 2.2481355e+2, -800820.5, -876985.25, -3081.764, 0.012446093, 0.05514049, -800696.0, -63860.7, 0.0, 10.000021, 9.999012 
1.1250108e+3, 2.3481275e+2, -666995.3, -757077.44, -11069.301, 0.02579234, 0.06840066, -665655.06, -26813.281, 0.0, 10.000248, 9.999053 
1.1250005e+3, 2.4481186e+2, -565177.5, -657712.06, -14077.418, 0.02556639, 0.07526405, -563083.3, -22233.896, 0.0, 10.000277, 9.999048 
1.1249901e+3, 2.5481084e+2, -493290.5, -568656.56, -22064.463, 0.010327731, 0.06549642, -487306.0, -44447.676, 0.0, 10.000082, 9.99908 
1.1249801e+3, 2.648096e+2, -413624.3, -459814.97, -19499.785, 0.015744742, 0.025211193, -406493.25, -61623.89, 0.0, 9.999873, 9.999253 
1.1249705e+3, 2.748081e+2, -344552.88, -371692.03, -25021.07, 0.044505853, -0.05429218, -329658.66, -82776.33, 0.0, 9.999656, 9.99929 
1.1249603e+3, 2.8480768e+2, -262129.9, -300556.5, -30066.709, 0.03572399, -0.016479, -245661.86, -96775.73, 0.0, 9.99963, 9.99912 
1.12495e+3, 2.948084e+2, -136124.33, -185488.36, -39155.91, -0.014895611, 0.1372014, -114520.414, -63640.246, 0.0, 9.999807, 9.99915 
1.12494044e+3, 3.0480662e+2, -65372.188, -95811.49, -3170.448, -0.017501822, 0.03147666, -65045.473, -65045.473, 0.0, 9.999828, 9.999422 
1.1249319e+3, 3.1480503e+2, -64073.11, -58869.336, 4658.3076, 0.038090013, -0.07379403, -56135.527, -56135.527, 0.0, 9.999679, 9.999748 
1.1351233e+3, 1.2483327e+2, -1677711.6, -1674582.0, -85123.63, 0.10290042, 0.102646336, -1591008.9, 125635.05, 0.0011953667, 10.000168, 10.000192 
1.13511354e+3, 1.3483286e+2, -1529383.5, -1597926.3, 48331.25, 0.013404196, 0.08018288, -1504406.0, 114239.4, 0.00059164723, 10.000696, 9.999798 
1.1351045e+3, 1.4483227e+2, -1449436.8, -1592002.6, -20628.057, 0.035367355, 0.08047098, -1446512.0, 74138.37, 0.00017336896, 10.000938, 9.999043 
1.1350935e+3, 1.548312e+2, -1377613.8, -1508365.8, -33846.254, 0.013641647, 0.068939134, -1369371.9, 53290.273, 0.000015247707, 10.000765, 9.999028 
1.135083e+3, 1.648304e+2, -1311949.0, -1425451.5, -16229.457, 0.017976427, 0.08594982, -1309674.0, 14997.162, 0.000000009421829, 10.000541, 9.999032 
1.1350734e+3, 1.7482984e+2, -1248247.0, -1339454.9, -23993.04, 0.07559198, 0.122166924, -1242320.5, -15642.962, 0.0, 10.000287, 9.999071 
1.1350631e+3, 1.8482889e+2, -1138360.9, -1219376.4, -30605.703, 0.07342361, 0.11458021, -1128098.8, 586.9825, 0.0, 10.000295, 9.99922 
1.135052e+3, 1.9482754e+2, -994729.3, -1095662.5, -14638.197, -0.0010003124, 0.053640332, -992649.25, 38046.473, 0.0, 10.000592, 9.999253 
1.1350414e+3, 2.0482624e+2, -952213.56, -1101455.6, -9165.126, -0.0125452215, 0.03140547, -951652.8, -18945.225, 0.0, 10.000543, 9.998566 
1.1350315e+3, 2.1482493e+2, -913379.9, -1030411.06, -7278.7905, 0.046724934, 0.04210286, -912928.94, -78207.23, 0.0, 10.000129, 9.998579 
1.1350214e+3, 2.2482379e+2, -813422.44, -903008.6, 3611.763, 0.052868683, 0.058568213, -813277.06, -76543.62, 0.0, 10.00002, 9.998835 
1.1350107e+3, 2.3482282e+2, -679940.2, -783725.25, -2667.4434, 0.0012175979, 0.0739506, -679871.7, -41129.066, 0.0, 10.000246, 9.998871 
1.1350004e+3, 2.4482168e+2, -579905.0, -687582.4, -21673.773, -0.0181681, 0.07611312, -575706.2, -34952.906, 0.0, 10.000274, 9.998844 
1.1349901e+3, 2.5482038e+2, -508026.97, -598028.3, -28744.059, -0.0015959383, 0.05477313, -499630.25, -56864.758, 0.0, 10.000076, 9.99888 
1.13497995e+3, 2.6481918e+2, -422464.2, -476758.8, -27501.822, 0.017687023, 0.03659567, -410967.9, -66191.87, 0.0, 9.9998665, 9.999141 
1.13497e+3, 2.7481815e+2, -352099.13, -388186.63, -31280.396, 0.037876464, 0.015047, -334031.38, -87246.695, 0.0, 9.999658, 9.999177 
1.13496e+3, 2.8481728e+2, -278818.94, -335354.63, -23365.738, 0.034466263, 0.026290871, -270412.13, -121619.2, 0.0, 9.999631, 9.99888 
1.1349499e+3, 2.9481658e+2, -154363.31, -221011.44, -31055.02, 0.009355214, 0.06482487, -142136.22, -91335.61, 0.0, 9.999797, 9.998912 
1.1349405e+3, 3.0481508e+2, -45182.88, -50309.31, -8654.867, 0.013677588, -0.018214682, -38719.645, -38719.645, 0.0, 9.999812, 9.999743 
1.13493174e+3, 3.148159e+2, -31097.96, 8692.691, 2631.5813, 0.050354984, 0.086395346, 8865.979, 8865.979, 0.0, 9.9996805, 10.000213 
1.14512354e+3, 1.2484333e+2, -1595245.9, -1660821.4, -55500.527, 0.079130396, 0.09526159, -1563571.8, 152973.14, 0.0013373722, 10.000848, 9.999958 
1.1451144e+3, 1.348429e+2, -1553985.3, -1632464.6, 66295.21, 0.02810038, 0.09157731, -1516187.3, 102360.914, 0.000672049, 10.000624, 9.9995985 
1.1451052e+3, 1.4484236e+2, -1486259.5, -1588889.1, -14951.72, 0.035208173, 0.097787894, -1484125.6, 36427.227, 0.0002032588, 10.000594, 9.999231 
1.14509426e+3, 1.548413e+2, -1380351.3, -1487725.6, -18090.451, 0.019071577, 0.06803972, -1377385.3, 45177.754, 0.000019742625, 10.000652, 9.999224 
1.1450836e+3, 1.6484044e+2, -1301756.6, -1437861.1, 8713.331, 0.026693454, 0.07620118, -1301201.0, 23371.297, 0.000000013934886, 10.000685, 9.998878 
1.145074e+3, 1.7483972e+2, -1199110.6, -1334343.9, 6389.6563, 0.08067604, 0.11355911, -1198809.4, 27771.318, 0.0, 10.000703, 9.998907 
1.1450636e+3, 1.8483874e+2, -1093779.5, -1199473.8, -4872.5317, 0.07672519, 0.11166874, -1093555.4, 35034.266, 0.0, 10.000609, 9.999205 
1.1450525e+3, 1.948375e+2, -1021851.0, -1110053.8, -21655.533, 0.0022742988, 0.06122325, -1016821.0, 13777.95, 0.0, 10.000413, 9.999241 
1.1450419e+3, 2.0483626e+2, -976578.06, -1103964.0, -38370.164, -0.01324623, 0.043559175, -965913.4, -33303.484, 0.0, 10.000337, 9.998647 
1.14503175e+3, 2.1483503e+2, -869846.4, -999631.5, -33813.188, 0.03671882, 0.053402018, -861565.3, -26942.813, 0.0, 10.000387, 9.998666 
1.1450215e+3, 2.2483382e+2, -776356.4, -899495.44, -10168.861, 0.04577652, 0.06467073, -775522.3, -38887.51, 0.0, 10.000339, 9.998704 
1.145011e+3, 2.3483261e+2, -698861.0, -807769.6, -13132.499, 0.008985738, 0.068874754, -697299.8, -58653.16, 0.0, 10.000182, 9.998735 
1.1450006e+3, 2.4483132e+2, -604080.9, -702803.25, -27571.484, -0.00439348, 0.06531857, -596902.56, -56243.82, 0.0, 10.000124, 9.998812 
1.1449903e+3, 2.5483e+2, -496913.88, -596634.94, -24130.117, 0.0087724505, 0.045699663, -491381.84, -48710.887, 0.0, 10.00017, 9.998845 
1.1449801e+3, 2.6482886e+2, -384529.0, -479713.22, -19521.828, 0.019948684, 0.0434324, -380680.75, -35999.348, 0.0, 10.0002165, 9.998953 
1.1449698e+3, 2.7482793e+2, -276895.06, -372842.34, -30222.676, 0.026701717, 0.051941615, -268168.78, -21478.9, 0.0, 10.000266, 9.998989 
1.14495985e+3, 2.8482684e+2, -213235.66, -308303.4, -18367.506, 0.031723667, 0.05051836, -209810.38, -61110.066, 0.0, 10.000103, 9.998837 
1.14494994e+3, 2.948255e+2, -173605.14, -235760.34, -11743.038, 0.039498553, 0.029333815, -171460.52, -120747.59, 0.0, 9.999689, 9.998863 
1.1449404e+3, 3.0482382e+2, -103255.47, -96804.89, 4383.1567, 0.039968513, -0.060115736, -94588.25, -94588.25, 0.0, 9.999494, 9.9995775 
1.14493124e+3, 3.148254e+2, -50614.18, -1849.4325, -27662.094, 0.03746798, 0.13338745, 10642.19, 10642.19, 0.0, 9.999556, 10.000198 
1.1551239e+3, 1.24853544e+2, -1636457.4, -1741374.0, -77164.24, 0.022379773, 0.054724734, -1595608.8, 120833.125, 0.001489488, 10.000828, 9.999414 
1.155115e+3, 1.3485293e+2, -1589877.4, -1707323.8, 60024.574, 0.034528483, 0.08526792, -1564628.1, 53822.074, 0.00075867696, 10.000625, 9.9990835 
1.1551058e+3, 1.4485253e+2, -1460540.3, -1537012.0, -12851.15, 0.039528847, 0.113793574, -1458438.4, 62016.016, 0.0002361324, 10.0006, 9.999585 
1.1550951e+3, 1.5485187e+2, -1354241.5, -1433629.9, -16084.706, 0.036916714, 0.0847237, -1351106.4, 71352.71, 0.000024990082, 10.000651, 9.999596 
1.1550844e+3, 1.6485086e+2, -1307349.6, -1448616.4, 7843.063, 0.02650768, 0.064554416, -1306915.6, 17552.68, 0.000000023716384, 10.000681, 9.998806 
1.15507394e+3, 1.7484955e+2, -1205101.8, -1346215.5, 6608.2266, 0.020688683, 0.048669375, -1204792.9, 21688.87, 0.0, 10.0007, 9.998827 
1.1550637e+3, 1.8484846e+2, -1124069.0, -1262148.5, -13503.149, 0.030440385, 0.06151135, -1122760.9, 5732.0605, 0.0, 10.000607, 9.998776 
1.15505345e+3, 1.9484761e+2, -1052137.8, -1173533.4, -29304.002, 0.054194666, 0.095385626, -1045434.2, -14932.674, 0.0, 10.000414, 9.998805 
1.1550427e+3, 2.0484652e+2, -968001.56, -1086376.3, -38052.668, 0.04026517, 0.10697424, -956824.5, -24312.207, 0.0, 10.000337, 9.998768 
1.1550316e+3, 2.1484512e+2, -860877.25, -980339.75, -32582.486, -0.011631562, 0.08771557, -852568.5, -18043.26, 0.0, 10.000383, 9.9988 
1.1550213e+3, 2.248437e+2, -782580.25, -910833.2, -17305.643, -0.010201827, 0.07269993, -780286.2, -43747.33, 0.0, 10.000332, 9.99863 
1.1550116e+3, 2.3484217e+2, -704818.94, -819632.56, -18913.914, 0.04676704, 0.05356348, -701783.4, -63230.105, 0.0, 10.00018, 9.998656 
1.15500145e+3, 2.4484085e+2, -595662.5, -684564.56, -26195.117, 0.0634048, 0.04402513, -588518.2, -47952.945, 0.0, 10.00012, 9.998939 
1.1549907e+3, 2.5483978e+2, -487578.9, -577858.6, -21568.443, 0.038114652, 0.037818696, -482690.75, -40116.387, 0.0, 10.000172, 9.998974 
1.1549802e+3, 2.6483864e+2, -404225.66, -520757.34, -17747.957, 0.019724943, 0.04326004, -401582.56, -56997.258, 0.0, 10.000217, 9.998672 
1.15497e+3, 2.7483746e+2, -297649.4, -414569.44, -27568.846, 0.007567509, 0.054061137, -291474.97, -44876.984, 0.0, 10.000259, 9.998706 
1.1549599e+3, 2.8483632e+2, -200908.75, -280321.16, -32940.484, 0.023412796, 0.05530254, -189023.7, -40415.63, 0.0, 10.000092, 9.999037 
1.15495e+3, 2.948352e+2, -158919.25, -206297.38, -24184.037, 0.0688796, 0.033164524, -148755.11, -98139.086, 0.0, 9.999692, 9.999064 
1.15494005e+3, 3.0483285e+2, -155468.8, -205526.39, 6653.601, 0.056125864, -0.09361187, -154599.52, -154599.52, 0.0, 9.999495, 9.998831 
1.1549303e+3, 3.1483334e+2, -92707.66, -87135.28, -23356.564, -0.0076111187, 0.06655127, -66399.31, -66399.31, 0.0, 9.999546, 9.999618 
1.1651244e+3, 1.24863684e+2, -1704879.6, -1776536.6, -119985.02, 0.022417895, 0.06353504, -1615488.0, 100854.72, 0.0016512593, 10.000367, 9.999395 
1.16511576e+3, 1.3486293e+2, -1572718.9, -1698028.6, 63782.973, 0.043390766, 0.07847287, -1545965.1, 72387.34, 0.0008513687, 10.000737, 9.999094 
1.1651063e+3, 1.4486256e+2, -1426624.6, -1529243.1, -9776.986, 0.016622465, 0.11293626, -1425701.4, 94655.18, 0.00027198074, 10.00087, 9.999508 
1.1650957e+3, 1.54862e+2, -1359270.6, -1444779.1, -49156.13, 0.041141197, 0.10267953, -1336876.9, 85483.65, 0.00003101119, 10.000654, 9.999519 
1.16508506e+3, 1.64861e+2, -1306365.8, -1430812.3, -26019.129, 0.03205665, 0.07913927, -1301144.8, 23224.62, 0.00000004774233, 10.000614, 9.9989605 
1.1650745e+3, 1.7485957e+2, -1181025.0, -1316780.3, -10638.5625, -0.005713132, 0.036337122, -1180196.4, 46186.473, 0.0, 10.00079, 9.998985 
1.16506405e+3, 1.8485846e+2, -1110812.9, -1278355.4, -22610.662, 0.0043607163, 0.048598412, -1107815.1, 20579.268, 0.0, 10.000794, 9.998574 
1.1650539e+3, 1.948577e+2, -1035936.1, -1188541.5, -22424.982, 0.06246052, 0.11037196, -1032709.06, -2305.343, 0.0, 10.000624, 9.9986 
1.16504334e+3, 2.0485654e+2, -946777.4, -1083941.6, -21550.732, 0.05658542, 0.13224053, -943471.06, -11055.499, 0.0, 10.000518, 9.998696 
1.165032e+3, 2.14855e+2, -850790.56, -983452.7, -31695.428, -0.016064486, 0.10351276, -843606.94, -9176.902, 0.0, 10.000487, 9.998729 
1.1650215e+3, 2.2485349e+2, -768378.4, -891816.6, -23568.016, -0.020669036, 0.080368735, -764031.6, -27587.715, 0.0, 10.000377, 9.998738 
1.16501175e+3, 2.3485203e+2, -697148.94, -803465.5, -13190.599, 0.046410758, 0.05617206, -695536.9, -57079.81, 0.0, 10.000179, 9.998767 
1.1650016e+3, 2.4485077e+2, -600927.94, -686171.1, -9907.449, 0.07323507, 0.045923617, -599791.56, -59323.473, 0.0, 10.00008, 9.998947 
1.1649911e+3, 2.5484973e+2, -499535.7, -582486.7, -14779.349, 0.05647274, 0.04214082, -496981.13, -54504.2, 0.0, 10.000087, 9.998982 
1.16498046e+3, 2.648485e+2, -436782.66, -539010.8, -9189.15, 0.03553794, 0.03921437, -435963.25, -91474.52, 0.0, 10.000008, 9.998646 
1.16496995e+3, 2.7484712e+2, -364485.97, -450878.75, -723.1152, 0.011519061, 0.031710032, -364479.94, -117976.53, 0.0, 9.999818, 9.99867 
1.1649598e+3, 2.848461e+2, -231447.08, -287591.0, -351.0616, 0.027116882, 0.04323592, -231444.88, -82932.59, 0.0, 9.999848, 9.9991045 
1.16495006e+3, 2.9484543e+2, -90130.984, -165367.78, -5025.9077, 0.08366823, 0.05998037, -89796.734, -39281.043, 0.0, 10.000133, 9.999133 
1.1649399e+3, 3.0484283e+2, -97622.11, -203725.84, 33203.35, 0.06161074, -0.08183715, -88088.33, -88088.33, 0.0, 10.000005, 9.998597 
1.1649296e+3, 3.1484252e+2, -119884.945, -106699.18, 43796.004, -0.025860598, 0.023254912, -69002.61, -69002.61, 0.0, 9.999384, 9.999564 
1.1751254e+3, 1.2487385e+2, -1669585.3, -1705168.6, -113361.266, 0.072938815, 0.12192779, -1572628.0, 143618.28, 0.0018234614, 10.000375, 9.999882 
1.1751166e+3, 1.3487297e+2, -1536583.4, -1622713.9, 79411.305, 0.049933154, 0.072141826, -1489311.6, 128942.28, 0.0009506097, 10.000733, 9.999614 
1.1751067e+3, 1.4487253e+2, -1462826.1, -1602553.8, -17741.357, -0.037902858, 0.09740447, -1460608.6, 59649.656, 0.00031097958, 10.000861, 9.999009 
1.1750963e+3, 1.5487179e+2, -1395340.6, -1519573.9, -57151.695, 0.029700005, 0.121324874, -1373048.8, 49217.95, 0.00003785508, 10.000654, 9.999005 
1.1750857e+3, 1.6487089e+2, -1279840.3, -1376724.0, -20552.46, 0.039560817, 0.117343724, -1275660.6, 48614.418, 0.00000010132158, 10.000616, 9.999331 
1.1750753e+3, 1.7486987e+2, -1154230.4, -1260736.6, -4082.6426, -0.0019026587, 0.0746753, -1154074.1, 72209.2, 0.0, 10.000786, 9.9993725 
1.1750648e+3, 1.8486883e+2, -1110425.6, -1275979.4, -30343.195, -0.006158078, 0.07280958, -1105039.5, 23253.787, 0.0, 10.000788, 9.998594 
1.1750543e+3, 1.948678e+2, -1035587.1, -1186758.1, -29312.709, 0.026134124, 0.10722729, -1030102.25, 202.58043, 0.0, 10.000619, 9.998615 
1.1750436e+3, 2.0486644e+2, -965553.5, -1122323.1, -23956.625, 0.03436054, 0.120105654, -961974.3, -29655.156, 0.0, 10.000514, 9.998435 
1.17503285e+3, 2.1486472e+2, -869601.56, -1022328.8, -32917.438, 0.019689245, 0.100223154, -862808.94, -28472.543, 0.0, 10.000485, 9.998464 
1.1750221e+3, 2.248633e+2, -749679.44, -852343.7, -31989.586, 0.009700114, 0.087807916, -740527.5, -4178.182, 0.0, 10.000373, 9.999011 
1.1750115e+3, 2.3486225e+2, -677269.3, -762110.3, -20783.648, 0.005874794, 0.07596533, -672451.5, -34093.938, 0.0, 10.000177, 9.999052 
1.1750012e+3, 2.4486113e+2, -609003.6, -702310.94, -10621.958, 0.023230813, 0.069703415, -607809.75, -67442.586, 0.0, 10.000077, 9.998838 
1.1749912e+3, 2.548599e+2, -508001.38, -599146.7, -13987.459, 0.0616601, 0.05874281, -505903.1, -63524.82, 0.0, 10.000082, 9.99887 
1.17498085e+3, 2.6485848e+2, -420337.9, -503887.97, -15510.897, 0.065060504, 0.032097872, -417551.28, -73160.17, 0.0, 10.000001, 9.99889 
1.17497e+3, 2.7485695e+2, -347121.22, -414788.25, -5740.193, 0.03174793, -0.015442106, -346637.75, -100232.3, 0.0, 9.999816, 9.998919 
1.1749597e+3, 2.8485617e+2, -240391.05, -306252.88, 10381.306, 0.036424913, 0.012905413, -238793.48, -90381.03, 0.0, 9.999847, 9.998977 
1.1749502e+3, 2.9485616e+2, -99730.734, -184098.9, 6765.5767, 0.08078764, 0.10916475, -99191.64, -48779.613, 0.0, 10.000127, 9.999007 
1.1749398e+3, 3.048538e+2, -72381.57, -149401.47, 11655.204, 0.0536237, -0.025315298, -70656.46, -70656.46, 0.0, 9.999995, 9.998976 
1.1749289e+3, 3.148532e+2, -78568.766, -20247.7, 25700.662, -0.030315513, 0.010142337, -10538.44, -10538.44, 0.0, 9.999381, 10.000159 
1.1851257e+3, 1.24883786e+2, -1582085.4, -1658765.4, -83782.76, 0.05225872, 0.12421423, -1528286.9, 187862.86, 0.0020081834, 10.000961, 9.999916 
1.1851176e+3, 1.3488308e+2, -1532040.5, -1612151.9, 77370.36, 0.07373588, 0.08302143, -1484972.0, 133183.28, 0.0010574218, 10.00073, 9.999688 
1.1851073e+3, 1.4488263e+2, -1490228.4, -1620477.9, -22330.605, -0.05374699, 0.10762217, -1486506.3, 33653.098, 0.00035351914, 10.000695, 9.998965 
1.18509665e+3, 1.5488161e+2, -1374267.4, -1513712.4, -29121.506, 0.0015015245, 0.10690107, -1368430.0, 53740.746, 0.00004562391, 10.000818, 9.998965 
1.1850863e+3, 1.6488075e+2, -1274005.3, -1376806.3, 8549.576, 0.026558103, 0.1086312, -1273299.0, 50880.355, 0.00000019883093, 10.000669, 9.999306 
1.185076e+3, 1.7488007e+2, -1234743.3, -1301949.6, -6235.964, 0.022863366, 0.1045343, -1234169.5, -7984.5757, 0.0, 10.000244, 9.999351 
1.1850656e+3, 1.8487917e+2, -1181365.1, -1279596.5, -30476.748, 0.014720746, 0.10462462, -1172677.9, -44484.652, 0.0, 10.000171, 9.998866 
1.18505456e+3, 1.9487806e+2, -1037278.25, -1156865.6, -11127.735, 0.000052674717, 0.101710185, -1036251.6, -6047.288, 0.0, 10.000475, 9.99889 
1.1850438e+3, 2.0487668e+2, -958976.0, -1114251.8, 9553.438, 0.003751695, 0.09808943, -958390.44, -26172.463, 0.0, 10.000537, 9.99848 
1.1850333e+3, 2.1487507e+2, -887322.06, -1025365.4, 22332.604, 0.027214598, 0.08506135, -883799.06, -49564.805, 0.0, 10.000342, 9.99851 
1.1850226e+3, 2.2487375e+2, -774335.25, -873702.3, 23157.148, 0.027423019, 0.083201334, -769203.56, -32956.797, 0.0, 10.000245, 9.998926 
1.1850117e+3, 2.3487276e+2, -672911.6, -769592.9, 5774.5703, 0.003075133, 0.08495197, -672567.94, -34312.652, 0.0, 10.000249, 9.998966 
1.1850012e+3, 2.4487165e+2, -592176.25, -700889.56, 6632.3643, 0.011418471, 0.08744221, -591773.06, -51507.83, 0.0, 10.000222, 9.998777 
1.1849912e+3, 2.5487038e+2, -500915.2, -603087.06, 5380.9375, 0.05443235, 0.08102028, -500632.6, -58355.668, 0.0, 10.000162, 9.998805 
1.1849809e+3, 2.6486894e+2, -395910.66, -476532.13, -1672.2969, 0.06757025, 0.047802087, -395876.0, -51586.363, 0.0, 10.000102, 9.99903 
1.1849701e+3, 2.7486736e+2, -302015.7, -376617.2, -1975.0311, 0.047598466, -0.019821689, -301963.44, -55660.125, 0.0, 10.000058, 9.9990635 
1.1849597e+3, 2.848666e+2, -244883.25, -321000.28, 14849.252, 0.047738582, 0.010364437, -242088.97, -93778.82, 0.0, 9.999874, 9.998861 
1.1849498e+3, 2.9486674e+2, -196661.72, -245260.69, 12247.36, 0.07149868, 0.13286401, -193749.77, -143439.7, 0.0, 9.999522, 9.9988785 
1.18493944e+3, 3.048645e+2, -156128.06, -164840.4, 1001.97076, 0.048633676, 0.0071486845, -156014.31, -156014.31, 0.0, 9.999314, 9.999197 
1.1849286e+3, 3.1486383e+2, -62323.73, 37690.676, -2973.7295, -0.00079718546, 0.015527021, 37779.016, 37779.016, 0.0, 9.999278, 10.000606 
1.1951257e+3, 1.24893636e+2, -1612856.3, -1720076.5, -93041.945, -0.04409591, 0.07455704, -1559084.6, 156967.47, 0.0022081332, 10.00095, 9.999501 
1.19511865e+3, 1.3489331e+2, -1557882.6, -1665899.5, 70111.29, 0.111641616, 0.11003603, -1523389.6, 94666.33, 0.0011730703, 10.000729, 9.99932 
1.19510815e+3, 1.4489296e+2, -1461381.8, -1561559.9, -18133.436, -0.035612993, 0.1413662, -1458200.5, 61858.746, 0.00040013902, 10.000697, 9.99937 
1.19509704e+3, 1.5489155e+2, -1345176.1, -1453245.9, -24470.965, -0.045703746, 0.061001834, -1339893.3, 82178.77, 0.00005450229, 10.000816, 9.999382 
1.19508654e+3, 1.6489065e+2, -1303551.4, -1437650.0, -8206.927, -0.01032489, 0.05677022, -1303050.9, 21030.479, 0.00000035173326, 10.000667, 9.998889 
1.1950768e+3, 1.7489026e+2, -1264442.8, -1364075.0, -22164.23, 0.065891705, 0.1264287, -1259734.6, -33647.695, 0.0, 10.000246, 9.998923 
1.1950662e+3, 1.8488955e+2, -1145088.3, -1204902.8, -20207.787, 0.06248087, 0.14208493, -1138901.1, -10807.543, 0.0, 10.000172, 9.999379 
1.1950548e+3, 1.9488849e+2, -1000552.1, -1080538.4, -21.21723, -0.018999882, 0.09231822, -1000552.1, 29549.547, 0.0, 10.000473, 9.999415 
1.1950439e+3, 2.0488735e+2, -935911.1, -1065031.0, 962.21924, -0.038740356, 0.0671366, -935903.94, -3792.4568, 0.0, 10.00053, 9.998821 
1.1950334e+3, 2.1488613e+2, -863757.7, -976164.25, 14280.891, 0.0058467104, 0.058455653, -861971.75, -27848.592, 0.0, 10.0003395, 9.99885 
1.1950228e+3, 2.2488485e+2, -805337.9, -937622.2, 21861.893, 0.03094964, 0.06627736, -801818.5, -65682.63, 0.0, 10.000242, 9.998488 
1.1950122e+3, 2.3488356e+2, -704271.9, -834856.44, 5991.9414, 0.03596921, 0.08292057, -703997.5, -65847.83, 0.0, 10.000249, 9.998519 
1.1950017e+3, 2.4488235e+2, -594131.8, -704752.3, 3976.4756, 0.03507821, 0.09978619, -593989.06, -53827.17, 0.0, 10.00022, 9.998752 
1.19499125e+3, 2.5488123e+2, -502608.75, -605927.3, 3825.4558, 0.029577686, 0.10879604, -502467.3, -60294.99, 0.0, 10.000158, 9.998788 
1.19498074e+3, 2.648799e+2, -396014.1, -476476.47, -3445.8667, 0.03829591, 0.08526559, -395866.78, -51682.848, 0.0, 10.0001, 9.999032 
1.1949702e+3, 2.7487832e+2, -301995.84, -375938.28, -2824.6987, 0.05857953, 0.01969431, -301888.1, -55691.35, 0.0, 10.000054, 9.99907 
1.1949597e+3, 2.8487742e+2, -249115.39, -329386.94, 2348.3723, 0.059934374, 0.036684927, -249046.75, -100841.63, 0.0, 9.999871, 9.998806 
1.1949491e+3, 2.948772e+2, -202706.47, -255546.83, 1703.3937, 0.044599008, 0.12979707, -202651.61, -152442.45, 0.0, 9.999513, 9.998813 
1.1949386e+3, 3.04875e+2, -160507.23, -172353.56, 138.77428, 0.03619854, 0.0148648145, -160505.61, -160505.61, 0.0, 9.999306, 9.999149 
1.19492844e+3, 3.1487456e+2, -51121.734, 63062.63, -1770.7599, 0.061872363, 0.050273813, 63090.082, 63090.082, 0.0, 9.9992695, 10.000784 
1.2051265e+3, 1.2490415e+2, -1644852.9, -1743279.1, -84177.7, -0.05552095, 0.080612436, -1596558.0, 119390.89, 0.0024257244, 10.000766, 9.99943 
1.2051193e+3, 1.3490361e+2, -1573472.9, -1675601.6, 100483.64, 0.11233675, 0.09791859, -1511822.9, 106131.914, 0.0012988481, 10.00063, 9.999301 
1.20510854e+3, 1.4490333e+2, -1473113.9, -1559827.3, 23527.07, -0.060168, 0.13411546, -1467141.8, 52815.535, 0.00045139206, 10.000586, 9.999434 
1.2050979e+3, 1.5490213e+2, -1370217.4, -1457352.4, -10420.773, -0.025234537, 0.0673726, -1368988.4, 52979.754, 0.00006471426, 10.000611, 9.999452 
1.2050874e+3, 1.6490126e+2, -1307945.4, -1437307.3, -154.98164, 0.013174739, 0.0635318, -1307945.3, 16031.882, 0.00000057087306, 10.0006275, 9.998909 
1.2050769e+3, 1.7490079e+2, -1203051.6, -1332683.1, 17530.145, 0.040403113, 0.12013435, -1200722.9, 25260.828, 0.0, 10.00066, 9.998939 
1.20506614e+3, 1.8490006e+2, -1095082.4, -1176809.3, 25383.531, 0.03189996, 0.13078523, -1087840.3, 40150.465, 0.0, 10.000498, 9.999414 
1.2050552e+3, 1.9489907e+2, -1048762.8, -1098864.0, 8707.832, -0.0078083077, 0.08480987, -1047292.4, -17294.328, 0.0, 10.000123, 9.999456 
1.2050443e+3, 2.0489812e+2, -994681.44, -1073914.9, -11651.315, -0.020319195, 0.06891185, -993003.6, -60997.703, 0.0, 10.000045, 9.998994 
1.2050336e+3, 2.1489722e+2, -860693.2, -955324.56, -11574.897, -0.006040625, 0.07527153, -859298.0, -25283.611, 0.0, 10.0002775, 9.999023 
1.2050231e+3, 2.2489598e+2, -791816.56, -938983.8, 2105.5117, 0.016945204, 0.08150411, -791786.44, -55759.6, 0.0, 10.000369, 9.998418 
1.2050127e+3, 2.3489442e+2, -699451.9, -840189.8, 12757.249, 0.04949247, 0.07984013, -698304.8, -60261.434, 0.0, 10.000317, 9.998448 
1.2050021e+3, 2.4489313e+2, -586769.94, -698929.6, 25683.457, 0.054270085, 0.09060475, -581168.44, -41111.945, 0.0, 10.000262, 9.998771 
1.20499134e+3, 2.5489208e+2, -494204.13, -599018.44, 27101.584, 0.030118966, 0.10473564, -487611.22, -45545.074, 0.0, 10.000205, 9.998812 
1.2049807e+3, 2.6489085e+2, -401677.72, -489182.84, 17046.777, 0.031189365, 0.0918509, -398474.16, -54396.914, 0.0, 10.000107, 9.99894 
1.2049702e+3, 2.7488932e+2, -321729.1, -396272.1, 9686.779, 0.05810425, 0.043270756, -320490.88, -74401.055, 0.0, 9.999965, 9.998974 
1.2049596e+3, 2.848883e+2, -253894.95, -326650.72, 8750.107, 0.059916917, 0.050598644, -252857.4, -104757.97, 0.0, 9.999817, 9.99885 
1.2049486e+3, 2.9488772e+2, -176811.84, -237953.42, 12349.203, 0.036816105, 0.10486406, -174411.8, -124305.36, 0.0, 9.99967, 9.998857 
1.20493785e+3, 3.0488566e+2, -151108.4, -185791.7, 15421.766, 0.027611084, 0.007936515, -145243.08, -145243.08, 0.0, 9.99945, 9.998987 
1.2049277e+3, 3.1488538e+2, -69373.81, 57002.22, 5780.0757, 0.06822344, 0.07287869, 57266.03, 57266.03, 0.0, 9.999131, 10.00081 
1.2151279e+3, 1.249154e+2, -1628185.8, -1708171.3, -88304.516, 0.00968624, 0.14106342, -1571239.8, 144599.52, 0.0026624324, 10.000762, 9.999673 
1.2151195e+3, 1.3491406e+2, -1550904.0, -1630231.9, 95329.46, 0.07295882, 0.048261773, -1487316.1, 130534.91, 0.0014356553, 10.000635, 9.999611 
1.2151084e+3, 1.4491385e+2, -1491262.9, -1597963.0, 23266.863, -0.13064888, 0.08789629, -1486410.1, 33443.066, 0.0005075534, 10.0005865, 9.999172 
1.2150994e+3, 1.5491341e+2, -1389543.6, -1496764.3, -9375.464, 0.058515973, 0.123338856, -1388730.0, 33128.855, 0.000076397075, 10.0006075, 9.999184 
1.2150889e+3, 1.6491266e+2, -1278399.0, -1375130.1, -510.30533, 0.091138154, 0.12484933, -1278396.3, 45469.94, 0.0000008702971, 10.000622, 9.999339 
1.2150767e+3, 1.7491166e+2, -1172649.6, -1269423.5, 18210.406, -0.05456643, 0.086252555, -1169336.4, 56538.574, 0.0, 10.000658, 9.999374 
1.2150656e+3, 1.8491071e+2, -1125701.0, -1239469.4, 10065.096, -0.07807606, 0.07449571, -1124817.4, 3066.374, 0.0, 10.000493, 9.998987 
1.2150558e+3, 1.9490981e+2, -1079258.9, -1162699.5, -5765.3105, 0.032017156, 0.079537414, -1078862.4, -48969.48, 0.0, 10.000124, 9.999019 
1.21504515e+3, 2.0490901e+2, -993820.2, -1072844.6, -4487.2256, 0.055380914, 0.10138949, -993566.2, -61665.31, 0.0, 10.000047, 9.999001 
1.2150338e+3, 2.1490839e+2, -860054.5, -953821.0, -3221.8403, -0.011819948, 0.13375595, -859943.94, -26036.535, 0.0, 10.000275, 9.999036 
1.2150231e+3, 2.2490719e+2, -772849.8, -898297.94, -1109.0435, -0.017588044, 0.1285494, -772840.0, -36920.938, 0.0, 10.000363, 9.9987 
1.215013e+3, 2.349054e+2, -679578.94, -798486.9, 10730.092, 0.041475166, 0.075552836, -678618.44, -40682.492, 0.0, 10.000314, 9.998736 
1.2150025e+3, 2.4490403e+2, -582676.5, -690297.06, 22917.135, 0.06667561, 0.05897904, -577999.7, -38050.797, 0.0, 10.00026, 9.998833 
1.2149918e+3, 2.54903e+2, -489890.56, -590425.4, 25686.186, 0.055004578, 0.06935431, -483708.06, -41750.07, 0.0, 10.000205, 9.998871 
1.2149809e+3, 2.649018e+2, -414475.8, -516045.56, 11938.477, 0.045308232, 0.06844206, -413091.44, -69122.336, 0.0, 10.000107, 9.998756 
1.21497e+3, 2.749004e+2, -335992.06, -423692.13, 6052.457, 0.038185667, 0.05024127, -335576.3, -89594.305, 0.0, 9.999955, 9.998791 
1.21495925e+3, 2.848993e+2, -248273.77, -313734.75, 3770.9824, 0.03921146, 0.05125081, -248057.25, -100064.445, 0.0, 9.99981, 9.998943 
1.2149484e+3, 2.9489833e+2, -170215.56, -223954.06, 8035.7397, 0.048178256, 0.059540644, -169039.69, -119037.81, 0.0, 9.999668, 9.998954 
1.2149373e+3, 3.0489647e+2, -165761.48, -216722.63, 4367.995, 0.022063673, -0.011975885, -165389.8, -165389.8, 0.0, 9.999451, 9.998775 
1.21492624e+3, 3.1489632e+2, -74810.49, 49269.55, -1139.305, 0.0028703716, 0.0877684, 49280.01, 49280.01, 0.0, 9.999117, 10.000763 
1.22512855e+3, 1.2492596e+2, -1646510.4, -1722481.0, -81673.414, 0.0038856405, 0.1427207, -1594421.1, 121314.555, 0.0029179724, 10.000662, 9.99962 
1.2251205e+3, 1.3492468e+2, -1517189.0, -1610252.8, 72527.6, 0.0872266, 0.0518988, -1477549.6, 140197.73, 0.0015834377, 10.000853, 9.999642 
1.2251089e+3, 1.449246e+2, -1463450.0, -1578022.1, -5125.297, -0.14477432, 0.09893971, -1463221.1, 56527.31, 0.00056846405, 10.000752, 9.9992285 
1.2251e+3, 1.549242e+2, -1417174.8, -1503885.3, -15666.711, 0.06424706, 0.13400821, -1414430.9, 7322.5557, 0.00008951281, 10.000393, 9.999237 
1.22508936e+3, 1.6492349e+2, -1321838.4, -1382681.0, 4091.3318, 0.10255191, 0.13154171, -1321564.5, 2195.6199, 0.0000012652538, 10.000266, 9.999457 
1.22507714e+3, 1.7492256e+2, -1206457.1, -1271592.9, -1522.9246, -0.056623045, 0.086802475, -1206421.5, 19346.28, 0.0, 10.000366, 9.999498 
1.2250659e+3, 1.8492164e+2, -1148818.1, -1259178.1, -18626.248, -0.08413018, 0.075089015, -1145759.3, -17982.768, 0.0, 10.000373, 9.998909 
1.2250559e+3, 1.949207e+2, -1059581.8, -1162187.1, -9215.411, 0.030443102, 0.08548639, -1058760.6, -28974.168, 0.0, 10.0002985, 9.998938 
1.2250454e+3, 2.0491983e+2, -968690.44, -1067503.0, 15637.573, 0.060756188, 0.10748392, -966274.75, -34479.08, 0.0, 10.000249, 9.9989395 
1.22503415e+3, 2.149191e+2, -872314.0, -965716.56, 10864.873, 0.0029582162, 0.13542332, -871066.8, -37263.266, 0.0, 10.000218, 9.99898 
1.2250234e+3, 2.2491802e+2, -782605.0, -878326.44, 3770.0735, -0.007279415, 0.13382402, -782456.75, -46642.773, 0.0, 10.000192, 9.9989195 
1.22501306e+3, 2.3491658e+2, -686422.1, -777053.7, 8775.3125, 0.032535877, 0.09222647, -685580.25, -47753.05, 0.0, 10.00016, 9.998957 
1.22500256e+3, 2.4491534e+2, -605146.3, -689688.25, 17588.61, 0.054547187, 0.073845, -601633.06, -61794.7, 0.0, 10.000057, 9.998934 
1.2249918e+3, 2.5491425e+2, -528041.0, -597258.44, 22318.582, 0.056844495, 0.069612384, -521468.6, -79621.07, 0.0, 9.999894, 9.998974 
1.22498095e+3, 2.6491308e+2, -447596.2, -530405.44, 21160.498, 0.04975424, 0.06434439, -442502.3, -98643.79, 0.0, 9.999873, 9.99877 
1.22497e+3, 2.7491173e+2, -331775.78, -420177.34, 27487.24, 0.03321043, 0.050917048, -323926.03, -78054.71, 0.0, 9.999979, 9.998801 
1.224959e+3, 2.8491062e+2, -226661.42, -304546.63, 25836.828, 0.033487532, 0.05277563, -218870.0, -70987.94, 0.0, 9.999966, 9.998929 
1.2249481e+3, 2.9490966e+2, -145817.27, -214098.4, 21198.043, 0.05107428, 0.059896395, -139771.58, -89880.58, 0.0, 9.999844, 9.998937 
1.2249368e+3, 3.0490795e+2, -146211.92, -223689.34, 9938.58, 0.017043944, 0.015327194, -144957.34, -144957.34, 0.0, 9.999656, 9.998628 
1.22492515e+3, 3.1490737e+2, -38493.07, 64753.78, 5848.742, -0.020518793, 0.08718403, 65084.047, 65084.047, 0.0, 9.999374, 10.000745 
1.2351284e+3, 1.24935985e+2, -1670914.8, -1773126.3, -66886.33, -0.077468455, 0.08789511, -1637844.6, 77792.22, 0.0031899144, 10.000662, 9.999273 
1.2351219e+3, 1.3493553e+2, -1535535.4, -1646460.0, 80196.01, 0.15149783, 0.10608012, -1493491.5, 124151.56, 0.0017411282, 10.000843, 9.999398 
1.2351101e+3, 1.4493561e+2, -1440608.1, -1528233.9, -20257.402, -0.10856999, 0.16455851, -1436151.6, 83490.81, 0.0006337289, 10.000741, 9.999576 
1.2350996e+3, 1.5493459e+2, -1391242.6, -1452365.8, -29093.37, -0.009328731, 0.101393566, -1379609.0, 42042.133, 0.00010392506, 10.000401, 9.999587 
1.2350891e+3, 1.6493386e+2, -1333911.3, -1408576.8, 7034.131, 0.045731824, 0.08651138, -1333254.4, -9596.554, 0.0000017603737, 10.00027, 9.999279 
1.23507835e+3, 1.7493352e+2, -1219686.9, -1298746.1, 2277.6726, 0.030228449, 0.119844384, -1219621.3, 6040.5034, 0.0, 10.000364, 9.999314 
1.23506725e+3, 1.8493283e+2, -1131602.3, -1222463.6, -23015.318, 0.007052995, 0.12846771, -1126105.0, 1563.5587, 0.0, 10.000367, 9.999164 
1.2350558e+3, 1.9493178e+2, -1041304.2, -1124098.3, -12581.254, -0.014671639, 0.10207206, -1039434.56, -9756.096, 0.0, 10.000297, 9.999201 
1.2350449e+3, 2.0493063e+2, -978173.94, -1086601.1, 13310.311, -0.004703576, 0.08897453, -976563.94, -44874.215, 0.0, 10.000245, 9.99881 
1.2350348e+3, 2.1492942e+2, -881517.94, -984999.5, 9441.263, 0.036072597, 0.081037864, -880663.6, -46961.402, 0.0, 10.000218, 9.998848 
1.2350242e+3, 2.2492853e+2, -771636.56, -855818.94, 1555.6816, 0.04452797, 0.09729137, -771607.9, -35896.617, 0.0, 10.000191, 9.999075 
1.2350131e+3, 2.3492798e+2, -675818.56, -754921.7, 7851.084, 0.020650748, 0.12981312, -675046.9, -37330.145, 0.0, 10.000158, 9.99911 
1.2350022e+3, 2.449271e+2, -596112.3, -670823.8, 10794.039, 0.016158205, 0.13532971, -594584.06, -54859.555, 0.0, 10.000055, 9.999064 
1.2349915e+3, 2.549259e+2, -519348.8, -577949.3, 17013.924, 0.03105725, 0.1051561, -514767.22, -73032.74, 0.0, 9.999888, 9.999109 
1.23498075e+3, 2.6492468e+2, -434579.53, -502453.2, 25589.863, 0.03994319, 0.07896715, -426012.84, -82267.49, 0.0, 9.9998665, 9.998965 
1.23496994e+3, 2.7492338e+2, -317841.0, -391977.44, 32970.67, 0.041870028, 0.046545822, -305299.56, -59542.07, 0.0, 9.999981, 9.998996 
1.234959e+3, 2.8492236e+2, -233952.67, -320372.03, 21485.527, 0.04084572, 0.057077404, -228905.7, -81138.74, 0.0, 9.999969, 9.998819 
1.2349479e+3, 2.9492173e+2, -155419.02, -231553.86, 18890.195, 0.037700858, 0.1051934, -150989.75, -101216.1, 0.0, 9.999832, 9.998822 
1.2349363e+3, 3.049202e+2, -156518.48, -242924.47, 826.19257, 0.0040216097, 0.089255445, -156510.58, -156510.58, 0.0, 9.999645, 9.998501 
1.2349248e+3, 3.149187e+2, -42962.625, 55784.875, -60.632774, -0.005828966, 0.08428258, 55784.91, 55784.91, 0.0, 9.999372, 10.000685 
1.2451292e+3, 1.2494664e+2, -1608239.8, -1748023.9, -46930.66, -0.0969802, 0.07446955, -1593945.1, 121586.8, 0.003475539, 10.001119, 9.999224 
1.2451229e+3, 1.3494636e+2, -1608831.3, -1675864.0, 108855.18, 0.18899553, 0.105706245, -1528449.4, 89087.15, 0.0019075654, 10.000315, 9.999451 
1.2451106e+3, 1.4494646e+2, -1515262.6, -1556521.6, 27768.898, -0.10151658, 0.16023315, -1501298.9, 18236.613, 0.0007030745, 10.000195, 9.999644 
1.2450998e+3, 1.5494524e+2, -1324918.5, -1411832.5, -2601.4165, -0.041497562, 0.070956506, -1324840.6, 96704.83, 0.00011956255, 10.000822, 9.999661 
1.2450893e+3, 1.6494451e+2, -1265899.9, -1384126.8, 10286.1875, 0.024202468, 0.056918345, -1265011.6, 58540.777, 0.0000023468863, 10.000774, 9.999203 
1.2450789e+3, 1.7494439e+2, -1272172.1, -1332975.5, 12066.816, 0.0631804, 0.117732055, -1269864.9, -44309.48, 0.0, 10.000044, 9.999232 
1.2450677e+3, 1.8494385e+2, -1194091.0, -1236474.9, 5427.642, 0.04425711, 0.13944024, -1193407.0, -65845.92, 0.0, 9.99987, 9.999307 
1.24505594e+3, 1.9494294e+2, -1038877.56, -1106474.6, 6374.0767, -0.022574417, 0.11214506, -1038281.8, -8712.392, 0.0, 10.000244, 9.999346 
1.2450451e+3, 2.0494184e+2, -957871.4, -1067477.9, 26988.79, -0.024775617, 0.09152331, -951586.25, -20006.396, 0.0, 10.000345, 9.998893 
1.2450349e+3, 2.1494053e+2, -882424.1, -976174.6, 37442.742, 0.0348697, 0.068271905, -869305.6, -35713.152, 0.0, 10.000173, 9.99893 
1.2450243e+3, 2.2493967e+2, -797304.3, -867279.3, 32926.46, 0.050293356, 0.08135024, -784247.25, -48645.926, 0.0, 10.000011, 9.999083 
1.245013e+3, 2.349392e+2, -716955.06, -772986.9, 27283.607, 0.021600885, 0.12313275, -705864.9, -68258.64, 0.0, 9.99987, 9.999125 
1.2450022e+3, 2.4493843e+2, -610992.6, -669732.2, 27978.748, 0.012725753, 0.13375154, -599798.94, -60185.617, 0.0, 9.99992, 9.999136 
1.2449914e+3, 2.5493732e+2, -475989.06, -549056.56, 27576.553, 0.02397882, 0.10388395, -466749.66, -25127.06, 0.0, 10.000152, 9.99918 
1.2449807e+3, 2.649362e+2, -393251.6, -475260.16, 24936.646, 0.03281557, 0.082136065, -386264.34, -42631.94, 0.0, 10.000121, 9.999028 
1.2449698e+3, 2.7493504e+2, -333223.1, -391854.9, 21641.857, 0.038282715, 0.05833187, -326100.13, -80457.086, 0.0, 9.999844, 9.999062 
1.24495886e+3, 2.84934e+2, -251282.31, -326593.16, 15444.087, 0.037146352, 0.062408138, -248238.22, -100585.52, 0.0, 9.999841, 9.998838 
1.24494776e+3, 2.9493317e+2, -118547.11, -211436.14, 19698.723, 0.030758208, 0.0895716, -114542.31, -64881.145, 0.0, 10.000076, 9.998841 
1.2449361e+3, 3.0493185e+2, -122770.08, -235565.13, -6435.508, -0.0017664143, 0.09850965, -122404.086, -122404.086, 0.0, 9.999916, 9.99842 
1.2449242e+3, 3.1493002e+2, -47834.492, 46155.27, -2779.648, 0.0014233263, 0.065350525, 46237.406, 46237.406, 0.0, 9.999371, 10.000618 
1.2551305e+3, 1.2495801e+2, -1594142.1, -1717118.1, -68185.13, -0.0644743, 0.10166533, -1563815.1, 151605.22, 0.0037739007, 10.001109, 9.999442 
1.2551233e+3, 1.3495725e+2, -1584295.1, -1628094.8, 77677.03, 0.19611043, 0.05248212, -1525489.8, 91937.52, 0.0020822603, 10.000326, 9.999775 
1.2551105e+3, 1.4495721e+2, -1528797.4, -1585661.9, 48880.33, -0.12724487, 0.08668528, -1500681.6, 18745.527, 0.0007764397, 10.000199, 9.999442 
1.2551007e+3, 1.5495622e+2, -1339884.0, -1441178.4, 21073.863, -0.034970876, 0.04101457, -1335674.6, 85761.65, 0.00013646827, 10.0008135, 9.999465 
1.2550902e+3, 1.6495554e+2, -1267005.1, -1383554.4, -18725.84, 0.03362072, 0.04047108, -1264070.4, 59373.004, 0.0000030208696, 10.000761, 9.999213 
1.2550788e+3, 1.7495523e+2, -1270295.9, -1330433.6, -15711.804, 0.04055291, 0.08244304, -1266438.4, -40990.316, 0.0, 10.000049, 9.9992485 
1.2550674e+3, 1.8495479e+2, -1191441.3, -1231867.9, 18474.443, 0.025907842, 0.11054307, -1184270.6, -56817.44, 0.0, 9.999873, 9.999337 
1.2550566e+3, 1.9495422e+2, -1036770.94, -1102363.5, 20185.281, 0.004027089, 0.11519503, -1031056.94, -1598.168, 0.0, 10.000244, 9.999375 
1.2550455e+3, 2.0495346e+2, -938619.9, -1026790.2, 19027.238, -0.003697724, 0.11311967, -934689.06, -3223.262, 0.0, 10.000341, 9.999174 
1.2550348e+3, 2.1495251e+2, -863036.7, -935106.4, 30455.117, -0.002181622, 0.096638046, -851890.75, -18416.732, 0.0, 10.000169, 9.999214 
1.255024e+3, 2.2495148e+2, -807336.6, -887759.6, 26144.0, 0.009076264, 0.08578654, -799584.9, -64100.926, 0.0, 10.000009, 9.998944 
1.255013e+3, 2.3495033e+2, -726652.56, -792932.9, 21966.453, 0.032878134, 0.07238131, -720033.5, -82538.055, 0.0, 9.999867, 9.998989 
1.2550023e+3, 2.4494937e+2, -610213.75, -667938.7, 36424.91, 0.040897965, 0.06935156, -592602.4, -53097.81, 0.0, 9.999917, 9.99915 
1.2549917e+3, 2.5494853e+2, -475154.25, -547802.5, 37312.844, 0.032998048, 0.06683544, -459404.47, -17892.97, 0.0, 10.000153, 9.999188 
1.2549807e+3, 2.6494765e+2, -398456.0, -486709.9, 14534.133, 0.025687724, 0.074862055, -396124.03, -52604.727, 0.0, 10.000122, 9.99895 
1.2549695e+3, 2.7494678e+2, -339185.25, -402688.44, 12613.449, 0.017720532, 0.085386425, -336771.63, -91243.65, 0.0, 9.999836, 9.998991 
1.2549585e+3, 2.8494555e+2, -243265.9, -308067.78, 25436.984, 0.01778924, 0.067109615, -234473.88, -86934.45, 0.0, 9.999831, 9.99897 
1.2549478e+3, 2.9494402e+2, -108856.836, -192052.98, 30495.445, 0.026034327, 0.01341673, -98876.12, -49322.47, 0.0, 10.000078, 9.998974 
1.2549359e+3, 3.04943e+2, -123130.63, -237169.72, -26967.525, -0.004791626, 0.043660674, -117075.016, -117075.016, 0.0, 9.999919, 9.998408 
1.2549235e+3, 3.1494144e+2, -54497.504, 35348.766, -18278.625, -0.008033253, 0.03695669, 38925.08, 38925.08, 0.0, 9.999356, 10.000551 
1.2651315e+3, 1.2496915e+2, -1683614.1, -1755298.4, -59085.55, -0.033383615, 0.108498715, -1650349.4, 64962.055, 0.004085261, 10.000471, 9.999488 
1.265124e+3, 1.3496834e+2, -1487911.5, -1565231.5, 58785.305, 0.1915103, 0.0399552, -1456213.1, 161104.89, 0.0022650692, 10.000919, 9.999919 
1.2651107e+3, 1.4496838e+2, -1453779.4, -1556345.4, 33521.457, -0.1528378, 0.076672696, -1443795.5, 75521.78, 0.00085386867, 10.000746, 9.999379 
1.2651014e+3, 1.5496765e+2, -1461926.0, -1508136.9, 14886.524, -0.00758742, 0.06563541, -1457545.6, -36220.84, 0.00015477135, 10.000011, 9.999391 
1.2650909e+3, 1.6496699e+2, -1384529.8, -1426687.1, -16458.44, 0.06076712, 0.06371708, -1378865.4, -55533.605, 0.0000038088367, 9.999897, 9.999332 
1.2650786e+3, 1.749664e+2, -1210530.5, -1287838.1, -7133.0884, 0.012123416, 0.0675654, -1209877.8, 15460.039, 0.0, 10.0004015, 9.99937 
1.2650673e+3, 1.8496591e+2, -1111712.4, -1199737.1, 31189.99, -0.004074531, 0.08675013, -1101781.3, 25562.092, 0.0, 10.000449, 9.999279 
1.2650567e+3, 1.9496547e+2, -1071007.3, -1125245.8, 25039.096, 0.024658253, 0.110613026, -1061215.6, -31867.27, 0.0, 10.000038, 9.999315 
1.265046e+3, 2.0496485e+2, -1002842.94, -1044758.8, 13290.762, 0.024593255, 0.11855821, -998983.94, -67629.62, 0.0, 9.9998455, 9.999289 
1.2650347e+3, 2.1496403e+2, -899346.06, -939277.3, 11054.438, -0.009191089, 0.10291855, -896490.06, -63129.047, 0.0, 9.999863, 9.999331 
1.2650236e+3, 2.24963e+2, -810680.44, -887891.0, 11505.607, -0.008640735, 0.08680023, -809002.4, -73631.9, 0.0, 9.99998, 9.998956 
1.265013e+3, 2.3496176e+2, -677598.44, -768024.56, 16838.2, 0.028657913, 0.06159921, -674564.8, -37182.23, 0.0, 10.000199, 9.999001 
1.2650025e+3, 2.449607e+2, -584228.3, -664378.0, 29991.215, 0.045964822, 0.053318184, -574248.5, -34855.918, 0.0, 10.000134, 9.99907 
1.2649918e+3, 2.5495982e+2, -533245.44, -584311.1, 22713.293, 0.041751172, 0.05230253, -524604.9, -83204.234, 0.0, 9.999791, 9.999112 
1.2649807e+3, 2.6495898e+2, -445872.7, -502805.47, 4080.3147, 0.02793208, 0.065088116, -445581.75, -102173.38, 0.0, 9.999767, 9.99901 
1.2649694e+3, 2.7495822e+2, -305014.97, -379463.06, 10832.589, 0.0048673777, 0.08332077, -303470.78, -58055.04, 0.0, 10.000041, 9.999052 
1.2649582e+3, 2.8495705e+2, -218660.45, -282726.6, 26062.277, 0.004712265, 0.061119113, -209397.52, -61970.83, 0.0, 9.999942, 9.99909 
1.2649477e+3, 2.949555e+2, -186236.95, -215950.22, 28739.904, 0.027509984, -0.0069327774, -168740.81, -119299.766, 0.0, 9.99949, 9.999093 
1.2649357e+3, 3.0495486e+2, -161992.22, -244291.47, -19044.834, -0.0007857319, 0.05002408, -157798.73, -157798.73, 0.0, 9.999602, 9.998511 
1.2649232e+3, 3.1495312e+2, 73971.64, 94747.766, -2131.2502, -0.008585288, 0.01645977, 94964.14, 94964.14, 0.0, 10.000249, 10.000528 
1.2751323e+3, 1.2498018e+2, -1691498.8, -1772803.1, -31534.113, -0.01067433, 0.09746971, -1680702.0, 34501.938, 0.0044096503, 10.000475, 9.999366 
1.2751247e+3, 1.349797e+2, -1490321.9, -1568970.5, 74897.086, 0.17453654, 0.065869294, -1445053.3, 172154.47, 0.0024558255, 10.000915, 9.999896 
1.2751111e+3, 1.4498e+2, -1450419.9, -1547883.0, 3692.2498, -0.18130368, 0.12718667, -1450280.3, 68924.75, 0.00093550276, 10.000737, 9.999442 
1.2751019e+3, 1.549796e+2, -1457667.9, -1501149.4, -12628.749, 0.03539371, 0.14276884, -1454266.1, -33055.81, 0.00017466526, 10.000017, 9.999436 
1.2750912e+3, 1.6497889e+2, -1369499.9, -1396147.9, 1345.4713, 0.100855105, 0.12489055, -1369432.1, -46215.02, 0.0000047674703, 9.999899, 9.999542 
1.2750788e+3, 1.7497797e+2, -1195673.1, -1256476.0, 11470.017, -0.02392002, 0.07176669, -1193581.4, 31642.936, 0.0, 10.000398, 9.999587 
1.2750673e+3, 1.8497726e+2, -1123281.9, -1222221.9, 14240.235, -0.048891865, 0.06646588, -1121273.1, 5958.0146, 0.0, 10.000442, 9.999129 
1.275057e+3, 1.9497676e+2, -1081312.6, -1146925.6, 9210.871, 0.037880883, 0.099238776, -1080044.1, -50806.63, 0.0, 10.000039, 9.999167 
1.2750462e+3, 2.0497604e+2, -1006236.06, -1052297.4, 12810.419, 0.058665432, 0.108770035, -1002913.0, -71668.11, 0.0, 9.999847, 9.999237 
1.2750348e+3, 2.1497513e+2, -903101.0, -947113.9, 11358.951, 0.01066101, 0.08729251, -900342.4, -67089.36, 0.0, 9.999862, 9.999279 
1.2750237e+3, 2.2497427e+2, -799893.2, -864779.5, 18460.732, -0.0072991615, 0.08447084, -795008.6, -59748.15, 0.0, 9.999976, 9.999117 
1.2750131e+3, 2.349735e+2, -666624.75, -745063.6, 25224.533, 0.0071091186, 0.091133006, -659213.25, -21946.023, 0.0, 10.000197, 9.99916 
1.2750024e+3, 2.4497245e+2, -597157.75, -691262.75, 16635.14, 0.025735272, 0.085689016, -594303.7, -55026.574, 0.0, 10.000133, 9.998887 
1.2749916e+3, 2.5497115e+2, -546073.9, -610348.56, 10657.954, 0.04739567, 0.059935488, -544352.7, -103062.81, 0.0, 9.999787, 9.998936 
1.2749806e+3, 2.6497012e+2, -432579.72, -474299.13, 14948.263, 0.03712242, 0.052218113, -427776.66, -84477.14, 0.0, 9.999763, 9.999208 
1.2749693e+3, 2.749694e+2, -290759.53, -350408.63, 22896.596, -0.0046999883, 0.052678913, -282984.13, -37677.94, 0.0, 10.000043, 9.999251 
1.2749581e+3, 2.8496853e+2, -211111.55, -267897.8, 9006.62, -0.006883702, 0.045588754, -209717.28, -62403.023, 0.0, 9.999944, 9.999192 
1.2749471e+3, 2.9496762e+2, -181026.63, -201652.05, 13192.107, 0.03055456, 0.029186815, -174594.67, -125271.47, 0.0, 9.999474, 9.9992 
1.2749355e+3, 3.049674e+2, -149583.55, -215677.77, 7378.2485, 0.0073212134, 0.11754461, -148769.9, -148769.9, 0.0, 9.999589, 9.998714 
1.2749235e+3, 3.1496522e+2, 74657.016, 96058.31, 29317.48, -0.0085515985, 0.015951121, 116566.93, 116566.93, 0.0, 10.00025, 10.000537 
1.2851334e+3, 1.2499158e+2, -1573997.4, -1738700.5, -14096.116, -0.009064007, 0.110879645, -1572799.6, 142292.53, 0.0047468157, 10.001385, 9.999159 
1.2851253e+3, 1.3499092e+2, -1579210.0, -1625933.9, 69374.95, 0.19428796, 0.073793195, -1529369.0, 87729.59, 0.0026545508, 10.000364, 9.999769 
1.2851116e+3, 1.4499116e+2, -1544651.9, -1575500.9, 3747.4468, -0.1759183, 0.1276368, -1544203.1, -25106.447, 0.0010215283, 10.000014, 9.9996 
1.285102e+3, 1.5499105e+2, -1385146.9, -1448795.4, -5282.5107, 0.028519543, 0.1556172, -1384711.5, 36387.49, 0.00019628371, 10.000442, 9.999591 
1.2850913e+3, 1.6499047e+2, -1284528.3, -1348012.3, 15501.791, 0.09601536, 0.13901341, -1280945.3, 42158.906, 0.0000059623408, 10.000453, 9.999604 
1.285079e+3, 1.7498949e+2, -1245128.0, -1273392.1, 13270.229, -0.015910013, 0.07627739, -1239874.1, -14762.808, 0.0, 10.0000305, 9.999647 
1.2850675e+3, 1.8498877e+2, -1197850.1, -1254153.1, 12692.312, -0.041828882, 0.06484536, -1195121.3, -68003.31, 0.0, 9.999914, 9.999164 
1.285057e+3, 1.9498828e+2, -1069735.1, -1137460.9, 20021.22, 0.031344965, 0.09492873, -1064259.1, -35135.15, 0.0, 10.000102, 9.999201 
1.2850462e+3, 2.049875e+2, -963416.0, -1047301.25, 32378.893, 0.054866143, 0.103434354, -952372.06, -21239.9, 0.0, 10.00021, 9.999096 
1.2850349e+3, 2.1498644e+2, -858383.75, -940769.6, 23127.592, 0.023712445, 0.08236477, -852335.4, -19193.217, 0.0, 10.0002365, 9.999142 
1.285024e+3, 2.2498558e+2, -780204.06, -857161.1, 19495.346, 0.0069024176, 0.08489704, -775547.2, -40397.0, 0.0, 10.00012, 9.9991 
1.2850131e+3, 2.3498489e+2, -717338.44, -770865.94, 11543.726, 0.0064872694, 0.10160054, -714955.06, -77798.82, 0.0, 9.999857, 9.9991455 
1.2850022e+3, 2.4498388e+2, -638330.75, -703154.6, 4132.657, 0.017684266, 0.096630625, -638068.3, -98902.695, 0.0, 9.999817, 9.998958 
1.2849914e+3, 2.5498256e+2, -510307.28, -585232.5, 15702.898, 0.039749674, 0.062280063, -507149.34, -65971.14, 0.0, 9.999999, 9.999006 
1.2849803e+3, 2.6498157e+2, -401463.72, -458731.63, 26816.889, 0.03230087, 0.05328313, -390866.97, -47679.367, 0.0, 9.999973, 9.999214 
1.2849692e+3, 2.7498087e+2, -332852.6, -370131.22, 18715.645, -0.00483373, 0.05835449, -325077.9, -79883.76, 0.0, 9.99975, 9.999257 
1.284958e+3, 2.8498006e+2, -226249.64, -272357.63, -8113.1455, -0.008930707, 0.055528678, -224863.72, -77661.74, 0.0, 9.999828, 9.999217 
1.284947e+3, 2.949792e+2, -75420.25, -147915.42, -11703.636, 0.021206612, 0.044001028, -73577.64, -24367.217, 0.0, 10.000185, 9.999227 
1.2849352e+3, 3.0497935e+2, -69448.42, -163184.25, -16557.24, 0.0042029396, 0.15668236, -66609.76, -66609.76, 0.0, 10.000082, 9.9988365 
1.2849236e+3, 3.1497708e+2, -35078.734, 28914.443, -1010.91046, 0.009061405, 0.03962057, 28930.408, 28930.408, 0.0, 9.999558, 10.000409 
1.2951344e+3, 1.2500344e+2, -1597148.4, -1785357.0, -41425.72, -0.03529189, 0.14759707, -1588433.9, 126541.65, 0.0050962004, 10.001376, 9.998845 
1.2951264e+3, 1.3500209e+2, -1596085.9, -1660008.3, 30205.523, 0.24533205, 0.06403481, -1584071.0, 32918.934, 0.0028611089, 10.00036, 9.999537 
1.2951119e+3, 1.4500195e+2, -1528238.4, -1541083.4, 17573.281, -0.14358033, 0.079857826, -1515950.8, 3040.7573, 0.00111182, 10.000011, 9.999839 
1.295102e+3, 1.5500207e+2, -1366987.4, -1411507.3, 11110.203, -0.028650118, 0.10693491, -1364368.8, 56621.06, 0.000219555, 10.0004425, 9.999846 
1.2950912e+3, 1.6500175e+2, -1290168.3, -1359788.9, -1468.8176, 0.04489622, 0.10738852, -1290137.3, 32854.984, 0.0000074533, 10.000451, 9.999526 
1.2950794e+3, 1.7500107e+2, -1250692.5, -1286091.6, -2902.9604, 0.032559782, 0.08088812, -1250456.0, -25457.908, 0.0, 10.000033, 9.999559 
1.295068e+3, 1.8500052e+2, -1183528.5, -1225039.5, 18552.455, 0.012755277, 0.08123121, -1176445.4, -49442.348, 0.0, 9.999915, 9.999363 
1.2950568e+3, 1.950001e+2, -1055560.4, -1107986.0, 26645.824, 0.0027460523, 0.09779165, -1044395.3, -15387.9375, 0.0, 10.000101, 9.999405 
1.2950459e+3, 2.0499925e+2, -980093.75, -1081137.5, 31861.293, 0.01007676, 0.10254789, -970886.25, -39870.453, 0.0, 10.000205, 9.998867 
1.2950352e+3, 2.1499804e+2, -874400.9, -974163.6, 23677.041, 0.028554132, 0.08757709, -869066.75, -36038.668, 0.0, 10.000236, 9.998914 
1.2950243e+3, 2.2499694e+2, -794039.5, -885814.8, 8489.006, 0.0323552, 0.08759263, -793260.9, -58221.625, 0.0, 10.000119, 9.998904 
1.2950131e+3, 2.3499595e+2, -731191.7, -799531.7, 1884.8118, 0.024349585, 0.092984974, -731139.75, -94090.49, 0.0, 9.999854, 9.998951 
1.2950021e+3, 2.4499497e+2, -616148.25, -656536.2, 10669.037, 0.018540222, 0.08622091, -613503.1, -74445.14, 0.0, 9.999813, 9.99928 
1.2949911e+3, 2.5499403e+2, -487873.38, -538718.6, 23452.516, 0.015412854, 0.05995095, -478708.0, -37642.68, 0.0, 9.999998, 9.999327 
1.29498e+3, 2.6499328e+2, -414921.72, -487447.6, 18612.74, 0.009916752, 0.06852373, -410423.97, -67351.55, 0.0, 9.999975, 9.999017 
1.294969e+3, 2.7499267e+2, -347614.72, -398734.4, 11912.926, 0.00092189806, 0.10126593, -344974.88, -99895.45, 0.0, 9.99974, 9.999065 
1.2949578e+3, 2.8499168e+2, -231743.67, -282201.56, 6689.6353, -0.0042787385, 0.09140382, -230871.83, -83782.12, 0.0, 9.999821, 9.999154 
1.2949468e+3, 2.9499036e+2, -79009.18, -155764.84, 4032.3838, -0.005929734, 0.03922604, -78797.92, -29695.39, 0.0, 10.000188, 9.999171 
1.294935e+3, 3.0499065e+2, -66350.09, -159197.64, -37027.49, -0.01554198, 0.1688005, -53392.04, -53392.04, 0.0, 10.00009, 9.998861 
1.2949234e+3, 3.1498888e+2, -57925.137, -12373.044, -15884.99, 0.035957538, 0.09808396, -7380.741, -7380.741, 0.0, 9.999532, 10.000138 
1.3051353e+3, 1.2501496e+2, -1719176.5, -1831036.8, -34521.25, -0.034398615, 0.13912809, -1709380.6, 5481.941, 0.0054552136, 10.000478, 9.998964 
1.305127e+3, 1.3501383e+2, -1548620.9, -1620462.8, 49069.094, 0.25968713, 0.06601172, -1523729.9, 93144.44, 0.003073975, 10.000616, 9.999685 
1.3051122e+3, 1.4501363e+2, -1454133.9, -1507959.3, 63203.043, -0.13488081, 0.06718551, -1412352.3, 106524.06, 0.0012055306, 10.000533, 9.999814 
1.3051021e+3, 1.5501355e+2, -1389864.3, -1425333.9, 36458.09, -0.036235858, 0.077618346, -1367056.3, 53819.684, 0.000244213, 10.0002985, 9.999821 
1.3050914e+3, 1.650132e+2, -1325957.3, -1384926.9, 5362.548, 0.039783336, 0.0802459, -1325473.6, -2594.7507, 0.000009295233, 10.000241, 9.999453 
1.3050799e+3, 1.7501265e+2, -1205704.1, -1272379.0, 3973.291, 0.0488988, 0.07474746, -1205468.1, 19416.055, 0.0, 10.000378, 9.999487 
1.3050684e+3, 1.8501213e+2, -1116192.5, -1195221.1, 25106.066, 0.03387098, 0.08318603, -1108891.4, 17997.814, 0.0, 10.00039, 9.999339 
1.305057e+3, 1.9501165e+2, -1032696.06, -1099093.3, 15190.068, 0.0089934645, 0.09491244, -1029385.94, -492.26556, 0.0, 10.000269, 9.999384 
1.3050461e+3, 2.0501074e+2, -991869.6, -1094599.8, 16392.94, 0.006620046, 0.0982539, -989317.2, -58414.57, 0.0, 10.000159, 9.9987955 
1.3050354e+3, 2.1500948e+2, -905385.1, -996909.9, 18694.063, 0.020898256, 0.086113386, -901714.06, -68798.516, 0.0, 10.000057, 9.998842 
1.3050243e+3, 2.2500831e+2, -811586.5, -896846.75, 12843.792, 0.030032564, 0.08524102, -809693.7, -74766.24, 0.0, 10.00001, 9.99888 
1.3050131e+3, 2.3500726e+2, -708757.8, -790803.56, 17569.729, 0.03575491, 0.085985735, -705153.6, -68215.445, 0.0, 10.000019, 9.998931 
1.3050021e+3, 2.4500631e+2, -584804.94, -638471.44, 30205.541, 0.024084274, 0.07906819, -571235.25, -32288.348, 0.0, 10.000016, 9.999307 
1.304991e+3, 2.5500542e+2, -486228.28, -534936.8, 19597.11, -0.0044147703, 0.056409106, -479322.72, -38369.26, 0.0, 9.999997, 9.999353 
1.3049799e+3, 2.650047e+2, -408859.66, -489176.47, 4082.183, -0.0136321755, 0.06875669, -408652.7, -65692.43, 0.0, 10.000038, 9.998974 
1.3049689e+3, 2.750041e+2, -292137.8, -376758.47, 7070.9155, -0.0038928117, 0.10497267, -291551.03, -46583.547, 0.0, 10.000142, 9.9990225 
1.3049577e+3, 2.8500298e+2, -202821.56, -281050.56, 12071.533, -0.0034680748, 0.09410584, -201001.16, -54022.234, 0.0, 10.000075, 9.999039 
1.3049468e+3, 2.950015e+2, -135921.73, -195851.22, 3340.7866, -0.01255388, 0.035923567, -135736.08, -86742.266, 0.0, 9.999851, 9.999059 
1.304935e+3, 3.0500177e+2, -87522.59, -169129.98, -45669.918, -0.02110718, 0.16740054, -67083.47, -67083.47, 0.0, 9.999945, 9.998863 
1.3049233e+3, 3.1500012e+2, 40854.97, 274.53757, -26056.865, 0.035195604, 0.10898479, 53589.79, 53589.79, 0.0, 10.000357, 9.99983 
1.315136e+3, 1.2502627e+2, -1684631.4, -1756923.3, -19477.004, -0.01768952, 0.09320469, -1679717.8, 35034.15, 0.005819013, 10.000466, 9.999479 
1.3151273e+3, 1.3502623e+2, -1512898.3, -1547117.8, 53090.08, 0.23678562, 0.07870783, -1474229.0, 142522.11, 0.0032902497, 10.000619, 10.000188 
1.3151127e+3, 1.4502622e+2, -1472778.3, -1547847.3, 51658.375, -0.15321372, 0.08711571, -1446458.0, 72292.53, 0.0013013786, 10.000537, 9.999539 
1.3151029e+3, 1.5502553e+2, -1411088.1, -1468762.8, 27112.31, 0.00068778254, 0.0665263, -1400344.3, 20412.621, 0.00026992275, 10.000296, 9.999525 
1.315092e+3, 1.6502488e+2, -1331938.4, -1396905.0, 8706.532, 0.0750846, 0.057383772, -1330791.8, -8028.3457, 0.00001153221, 10.000238, 9.999373 
1.3150801e+3, 1.7502432e+2, -1209878.0, -1281494.8, 8613.828, 0.031261716, 0.059018563, -1208856.5, 15912.626, 0.0, 10.000379, 9.999425 
1.3150686e+3, 1.850237e+2, -1133333.4, -1230594.6, 19148.564, 0.018100591, 0.071742885, -1129699.3, -2923.7837, 0.0, 10.000387, 9.999098 
1.3150577e+3, 1.9502299e+2, -1049307.0, -1134625.6, 10049.381, 0.047786076, 0.08515267, -1048139.3, -19356.813, 0.0, 10.000272, 9.999139 
1.3150465e+3, 2.0502202e+2, -986177.94, -1083249.1, 11169.449, 0.042059552, 0.089820355, -984909.3, -54117.094, 0.0, 10.00016, 9.998874 
1.3150351e+3, 2.1502084e+2, -900118.0, -985922.3, 14683.732, -0.0017382833, 0.07814148, -897674.7, -64870.563, 0.0, 10.000056, 9.9989195 
1.3150239e+3, 2.250198e+2, -802228.2, -876477.06, 11895.122, -0.003612906, 0.0783778, -800369.06, -65554.695, 0.0, 10.000005, 9.999023 
1.3150132e+3, 2.350189e+2, -698850.94, -770484.25, 17946.299, 0.03863627, 0.08049887, -694606.4, -57783.543, 0.0, 10.000019, 9.999071 
1.3150021e+3, 2.4501787e+2, -603503.75, -677511.56, 29175.215, 0.032246947, 0.07428337, -593385.7, -54553.45, 0.0, 10.000016, 9.999039 
1.3149907e+3, 2.5501674e+2, -505443.25, -573911.94, 19927.084, -0.022637013, 0.05207269, -500065.97, -59223.65, 0.0, 9.999991, 9.999089 
1.3149796e+3, 2.6501584e+2, -402477.06, -475398.22, 8704.658, -0.04111668, 0.054210845, -401452.38, -58601.414, 0.0, 10.000034, 9.999071 
1.3149688e+3, 2.7501512e+2, -285180.5, -362905.8, 12867.097, -0.023133207, 0.07020763, -283105.78, -38247.56, 0.0, 10.000144, 9.999117 
1.3149577e+3, 2.8501403e+2, -213913.38, -305812.06, 3576.9314, -0.010680108, 0.06421086, -213774.36, -66904.84, 0.0, 10.00008, 9.998867 
1.3149467e+3, 2.9501265e+2, -150067.72, -221406.89, -3202.2817, -0.004107112, 0.03524314, -149924.27, -101040.17, 0.0, 9.999833, 9.998893 
1.314935e+3, 3.0501267e+2, -91705.94, -175087.6, -28420.82, -0.018417152, 0.15305683, -82940.164, -82940.164, 0.0, 9.999931, 9.998829 
1.3149233e+3, 3.1501085e+2, 18205.418, -46818.13, -3553.8452, -0.0010649322, 0.07973186, 18399.076, 18399.076, 0.0, 10.000359, 9.999505 
1.3251366e+3, 1.250378e+2, -1661924.6, -1741705.4, -6834.092, -0.0054527023, 0.07494337, -1661343.4, 53295.418, 0.006183249, 10.000603, 9.999519 
1.3251278e+3, 1.35038e+2, -1532321.6, -1551419.3, 18554.682, 0.23583975, 0.08023982, -1521002.9, 95632.81, 0.0035072896, 10.000465, 10.000232 
1.3251132e+3, 1.4503802e+2, -1496936.6, -1566223.4, 5584.158, -0.14884108, 0.093471624, -1496489.5, 22145.23, 0.0013982238, 10.0004015, 9.999477 
1.3251033e+3, 1.550373e+2, -1385552.4, -1464465.3, -2554.1262, 0.019766897, 0.074526995, -1385469.9, 35171.867, 0.00029637254, 10.000505, 9.999454 
1.3250925e+3, 1.6503654e+2, -1302283.0, -1398979.1, -9989.432, 0.08898623, 0.06813014, -1301261.8, 21387.545, 0.000014169166, 10.000512, 9.999227 
1.3250804e+3, 1.7503592e+2, -1216064.0, -1300662.1, -17910.9, 0.021526758, 0.075460054, -1212428.1, 12228.232, 0.0, 10.000406, 9.99928 
1.3250689e+3, 1.8503515e+2, -1141790.9, -1241470.5, -5401.9497, 0.0062370645, 0.08457073, -1141498.9, -14834.796, 0.0, 10.0003605, 9.999036 
1.325058e+3, 1.9503424e+2, -1037052.4, -1135565.1, -1744.5739, 0.052704785, 0.08504546, -1037021.5, -8348.786, 0.0, 10.000387, 9.999078 
1.325047e+3, 2.050332e+2, -948400.0, -1059822.1, 4941.195, 0.057057116, 0.08321676, -948181.3, -17498.6, 0.0, 10.000398, 9.9989195 
1.3250355e+3, 2.1503207e+2, -848816.25, -955288.2, 4388.415, 0.015758382, 0.07183968, -848635.7, -15941.964, 0.0, 10.000385, 9.99897 
1.3250242e+3, 2.2503106e+2, -752119.7, -858670.8, -3934.8176, 0.0004301441, 0.07703797, -751974.6, -17271.168, 0.0, 10.000378, 9.998965 
1.325013e+3, 2.3503022e+2, -651904.25, -753948.06, -14022.6045, 0.013229856, 0.08872492, -650012.4, -13300.534, 0.0, 10.000368, 9.999016 
1.325002e+3, 2.4502912e+2, -575380.56, -675089.5, -8055.7095, 0.006069274, 0.0848055, -574733.94, -36011.797, 0.0, 10.000258, 9.998939 
1.3249907e+3, 2.5502786e+2, -503285.2, -583154.6, -6684.0522, -0.022000253, 0.05747675, -502729.7, -61995.71, 0.0, 10.000053, 9.998995 
1.3249797e+3, 2.650269e+2, -418770.5, -478734.63, -8831.833, -0.032336432, 0.05694781, -417496.75, -74753.68, 0.0, 9.999905, 9.99911 
1.3249688e+3, 2.750262e+2, -331445.94, -380931.94, -10111.201, -0.023641158, 0.071814306, -329459.7, -84710.0, 0.0, 9.999809, 9.999155 
1.3249578e+3, 2.8502512e+2, -253088.45, -332880.63, -18825.56, -0.0151821235, 0.06830618, -248869.92, -102109.1, 0.0, 9.999849, 9.998792 
1.3249466e+3, 2.9502374e+2, -126893.03, -217249.23, -20783.541, -0.0069345618, 0.045245424, -122341.7, -73566.01, 0.0, 10.000024, 9.998829 
1.3249351e+3, 3.050235e+2, -39810.094, -123727.69, -17898.459, -0.020567536, 0.12813269, -36152.06, -36152.06, 0.0, 10.000176, 9.999063 
1.3249236e+3, 3.1502184e+2, 11108.166, -52145.094, 27834.145, -0.015371548, 0.05176389, 21612.088, 21612.088, 0.0, 10.0003195, 9.999487 
1.3351372e+3, 1.2504964e+2, -1690466.9, -1802907.5, -4336.828, -0.008138909, 0.08355156, -1690299.8, 24222.893, 0.0065457188, 10.000608, 9.999098 
1.3351284e+3, 1.3504927e+2, -1561391.4, -1609789.1, 12114.591, 0.2543508, 0.072186396, -1558528.3, 57998.57, 0.0037237175, 10.000458, 9.999834 
1.3351138e+3, 1.4504918e+2, -1488002.6, -1546214.9, 7062.3438, -0.12682424, 0.08803953, -1487158.1, 31369.45, 0.0014951822, 10.000394, 9.9996195 
1.3351038e+3, 1.5504892e+2, -1374204.5, -1441792.1, 1561.9418, 0.017961172, 0.10062543, -1374168.4, 46361.0, 0.00032323142, 10.000508, 9.999608 
1.3350931e+3, 1.6504832e+2, -1317934.1, -1432113.6, -14992.169, 0.07675763, 0.11125796, -1315998.5, 6537.3677, 0.000017128494, 10.000514, 9.999 
1.3350807e+3, 1.7504749e+2, -1231891.6, -1334620.8, -22329.88, 0.017409362, 0.122549966, -1227247.9, -2702.351, 0.00000000003443261, 10.00041, 9.999045 
1.3350691e+3, 1.8504654e+2, -1133680.5, -1225452.0, -5973.887, -0.004551317, 0.12049538, -1133293.3, -6738.535, 0.0, 10.000362, 9.9991455 
1.335058e+3, 1.9504549e+2, -1028740.9, -1119017.6, -1132.5868, 0.022085354, 0.094172806, -1028726.6, -162.89534, 0.0, 10.000388, 9.999191 
1.3350472e+3, 2.0504437e+2, -948330.6, -1059072.8, 3080.3093, 0.048210245, 0.07874215, -948245.0, -17671.434, 0.0, 10.000394, 9.998927 
1.3350363e+3, 2.1504323e+2, -848369.1, -954662.0, 3395.1316, 0.07056959, 0.06641654, -848260.8, -15676.93, 0.0, 10.000385, 9.998976 
1.3350248e+3, 2.250422e+2, -769821.9, -895379.44, -5327.297, 0.039485928, 0.0800443, -769596.25, -35001.83, 0.0, 10.000377, 9.998714 
1.3350129e+3, 2.3504128e+2, -669864.44, -790858.44, -13944.185, -0.042131472, 0.110527135, -668278.2, -31673.299, 0.0, 10.000365, 9.998765 
1.3350016e+3, 2.4504013e+2, -572293.6, -667906.06, -16026.875, -0.056490857, 0.11071932, -569678.6, -31062.367, 0.0, 10.000254, 9.99899 
1.334991e+3, 2.5503883e+2, -500027.7, -576506.9, -13638.945, -0.0055228113, 0.073364176, -497668.2, -57039.98, 0.0, 10.000052, 9.999042 
1.33498e+3, 2.650379e+2, -419455.38, -480674.5, -12219.609, 0.009868751, 0.07727759, -417106.44, -74469.8, 0.0, 9.999907, 9.999097 
1.3349688e+3, 2.7503738e+2, -333576.56, -383190.8, -11932.327, -0.009716679, 0.11027, -330856.0, -86214.26, 0.0, 9.999799, 9.999145 
1.3349575e+3, 2.8503633e+2, -254044.13, -333343.78, -11044.092, -0.021332629, 0.1071313, -252534.75, -105882.016, 0.0, 9.999841, 9.998794 
1.3349465e+3, 2.950348e+2, -125801.945, -215790.02, -11782.423, -0.024225732, 0.069175065, -124284.81, -75616.3, 0.0, 10.000027, 9.998838 
1.3349351e+3, 3.0503422e+2, -2704.376, -48071.71, -11906.307, -0.031800024, 0.094964355, 230.48344, 230.48344, 0.0, 10.000181, 9.99958 
1.3349238e+3, 3.1503317e+2, 31041.742, -6422.69, 38722.62, -0.01722005, 0.026811382, 55325.074, 55325.074, 0.0, 10.000301, 9.999809 
1.3451378e+3, 1.2506153e+2, -1697669.6, -1818931.9, -210.3053, -0.002723345, 0.10986215, -1697669.3, 16737.639, 0.0069055543, 10.000616, 9.998983 
1.345129e+3, 1.3506085e+2, -1522399.3, -1605303.5, 25294.25, 0.25342357, 0.081862, -1515291.4, 101122.88, 0.0039389143, 10.00079, 9.999704 
1.3451144e+3, 1.4506063e+2, -1447330.1, -1537972.8, 20046.984, -0.122526005, 0.09492722, -1443094.4, 75322.3, 0.0015916337, 10.000723, 9.999517 
1.3451044e+3, 1.5506037e+2, -1388827.1, -1460648.1, -6127.8833, 0.012768281, 0.11772727, -1388308.1, 32110.855, 0.0003501717, 10.00046, 9.999501 
1.3450934e+3, 1.6505967e+2, -1326575.3, -1440231.3, -17824.484, 0.07277697, 0.12802106, -1323845.5, -1419.4591, 0.000020254476, 10.000472, 9.998963 
1.3450813e+3, 1.7505872e+2, -1181468.4, -1314150.1, -10855.172, 0.02618816, 0.12937684, -1180586.1, 43850.316, 0.0000000014653116, 10.000773, 9.999011 
1.3450697e+3, 1.8505773e+2, -1070055.1, -1200750.4, 681.4207, 0.0039058565, 0.12703319, -1070051.6, 56394.42, 0.0, 10.000826, 9.999092 
1.3450585e+3, 1.950567e+2, -998925.6, -1110139.6, -8528.652, 0.015234931, 0.11018418, -998275.4, 30179.56, 0.0, 10.000618, 9.999141 
1.3450477e+3, 2.050556e+2, -930451.3, -1045315.4, -5300.8354, 0.035964143, 0.094953075, -930207.2, 257.38382, 0.0, 10.000496, 9.998973 
1.3450368e+3, 2.1505441e+2, -834080.5, -942686.44, -3034.0527, 0.061925896, 0.07356011, -833995.8, -1521.2063, 0.0, 10.000461, 9.999022 
1.3450253e+3, 2.2505328e+2, -776636.9, -908391.25, -5597.4326, 0.038152058, 0.080771595, -776399.5, -41913.727, 0.0, 10.000374, 9.998626 
1.3450134e+3, 2.3505224e+2, -694380.4, -811150.56, -4064.1843, -0.033205006, 0.107747145, -694239.06, -57741.195, 0.0, 10.000237, 9.998686 
1.3450018e+3, 2.4505113e+2, -585322.75, -670485.44, -1902.8096, -0.049729396, 0.11268247, -585280.25, -46771.094, 0.0, 10.000153, 9.99902 
1.344991e+3, 2.5504994e+2, -489548.56, -568095.0, -2031.8269, -0.012401194, 0.087345466, -489496.03, -48976.582, 0.0, 10.000113, 9.999069 
1.34498e+3, 2.6504898e+2, -393911.9, -476352.66, 191.7, 0.0014715861, 0.088331, -393911.47, -51383.074, 0.0, 10.000119, 9.999023 
1.3449687e+3, 2.7504823e+2, -283663.97, -366256.1, -6407.8535, -0.008084885, 0.10407905, -283169.75, -38633.77, 0.0, 10.000176, 9.999078 
1.3449575e+3, 2.850472e+2, -203988.81, -301612.88, -1921.4152, -0.022250317, 0.10557847, -203951.02, -57404.62, 0.0, 10.000155, 9.998858 
1.3449463e+3, 2.95046e+2, -115792.086, -202714.77, 916.4022, -0.039934754, 0.0927895, -115782.43, -67223.77, 0.0, 10.000064, 9.998909 
1.344935e+3, 3.050452e+2, -32969.59, -59433.613, -17230.592, -0.040773537, 0.089703955, -24476.514, -24476.514, 0.0, 9.999963, 9.999608 
1.344924e+3, 3.1504458e+2, -41352.3, -47634.414, -4621.395, -0.013165485, 0.06272983, -38905.555, -38905.555, 0.0, 9.999833, 9.999752 
1.3551386e+3, 1.2507355e+2, -1688627.4, -1797142.0, 10927.581, 0.004849947, 0.15463145, -1687537.9, 26752.635, 0.0072628423, 10.000602, 9.999141 
1.3551296e+3, 1.3507283e+2, -1513538.4, -1585913.1, 30851.951, 0.22968695, 0.10704137, -1502171.9, 114125.58, 0.004152666, 10.000787, 9.999839 
1.3551149e+3, 1.450724e+2, -1472369.0, -1590951.5, 8411.818, -0.14301507, 0.11170794, -1471775.3, 46526.582, 0.0016872559, 10.000726, 9.999153 
1.3551047e+3, 1.5507169e+2, -1414603.3, -1515152.1, -16335.074, 0.0024616015, 0.12730299, -1412016.1, 8293.466, 0.0003769789, 10.000463, 9.999126 
1.3550939e+3, 1.6507073e+2, -1315560.1, -1417385.5, -8228.363, 0.07487032, 0.12028086, -1314899.5, 7419.5283, 0.000023370363, 10.000472, 9.999122 
1.3550822e+3, 1.7506967e+2, -1169796.9, -1289968.8, 177.1324, 0.044682328, 0.0963866, -1169796.6, 54531.97, 0.0000000068048798, 10.000772, 9.999178 
1.3550708e+3, 1.8506877e+2, -1086115.9, -1233495.0, -8290.392, 0.025507273, 0.10515995, -1085651.0, 40686.477, 0.0, 10.000821, 9.99887 
1.3550593e+3, 1.9506797e+2, -1014066.1, -1142071.8, -16672.154, 0.029498046, 0.13274841, -1011930.25, 16415.535, 0.0, 10.000618, 9.998922 
1.3550478e+3, 2.0506692e+2, -924642.25, -1033600.75, -7931.6133, 0.018517302, 0.1305468, -924067.9, 6287.3784, 0.0, 10.000496, 9.999054 
1.3550365e+3, 2.1506566e+2, -828500.5, -930759.56, -4663.0244, -0.011496126, 0.092903554, -828288.3, 4077.077, 0.0, 10.000459, 9.999105 
1.3550253e+3, 2.250644e+2, -772842.5, -899479.25, -11927.613, -0.005466419, 0.07930174, -771728.9, -37351.688, 0.0, 10.000368, 9.998691 
1.3550143e+3, 2.3506317e+2, -690311.3, -802497.25, -9141.302, 0.037002694, 0.08067837, -689571.3, -53180.81, 0.0, 10.000236, 9.998747 
1.3550028e+3, 2.4506213e+2, -584359.2, -668206.44, -3769.0256, 0.023086023, 0.090022735, -584190.06, -45789.438, 0.0, 10.000151, 9.999037 
1.3549908e+3, 2.550613e+2, -489012.6, -565847.25, -2412.934, -0.04583977, 0.098892815, -488936.88, -48529.35, 0.0, 10.000107, 9.999088 
1.3549794e+3, 2.650602e+2, -405792.44, -500113.63, 3041.9844, -0.06023291, 0.08962369, -405694.44, -63276.207, 0.0, 10.0001135, 9.998863 
1.3549687e+3, 2.7505875e+2, -294866.13, -389634.75, -2513.6052, -0.022145981, 0.05482127, -294799.5, -50367.117, 0.0, 10.000175, 9.998919 
1.3549577e+3, 2.850578e+2, -194121.23, -281882.6, -4776.8384, -0.02239127, 0.06488977, -193861.98, -47420.063, 0.0, 10.000157, 9.998994 
1.3549462e+3, 2.9505736e+2, -107974.93, -184524.53, -158.72598, -0.059988648, 0.11405999, -107974.6, -59528.05, 0.0, 10.000054, 9.999039 
1.3549349e+3, 3.0505636e+2, -68487.95, -130908.98, -20813.484, -0.05298324, 0.1107854, -62184.504, -62184.504, 0.0, 9.999951, 9.999124 
1.3549238e+3, 3.15056e+2, -73483.15, -111289.67, -5063.2813, -0.008609996, 0.1556031, -72816.79, -72816.79, 0.0, 9.99982, 9.999322 
1.3651392e+3, 1.250848e+2, -1672651.8, -1778180.3, -4424.54, 0.007560471, 0.15538527, -1672466.5, 41714.367, 0.0076198755, 10.000661, 9.999244 
1.36513e+3, 1.3508427e+2, -1556038.9, -1595093.3, 5075.679, 0.21162115, 0.11815151, -1555390.0, 60795.58, 0.004366158, 10.000446, 9.99994 
1.3651155e+3, 1.45084e+2, -1514024.4, -1614565.9, -4490.167, -0.14919768, 0.13316931, -1513824.3, 4364.3477, 0.0017823466, 10.000455, 9.999122 
1.3651054e+3, 1.5508313e+2, -1375438.8, -1500724.4, -4306.216, 0.009145869, 0.1361404, -1375290.9, 44907.11, 0.0004035849, 10.000751, 9.999087 
1.3650946e+3, 1.6508205e+2, -1272205.9, -1394324.0, 11628.277, 0.084780835, 0.119214036, -1271108.4, 51100.04, 0.000026350568, 10.00076, 9.999141 
1.365083e+3, 1.7508096e+2, -1212117.4, -1308319.0, 7528.196, 0.052471306, 0.08927723, -1211531.9, 12686.121, 0.000000016360648, 10.000473, 9.999196 
1.3650714e+3, 1.8508005e+2, -1150627.1, -1268054.6, 177.90353, 0.033927448, 0.099160336, -1150626.9, -24400.172, 0.0, 10.000394, 9.998839 
1.3650599e+3, 1.9507928e+2, -1028502.3, -1152420.9, 5165.7974, 0.03723049, 0.13333015, -1028287.3, -52.41041, 0.0, 10.000534, 9.998892 
1.3650484e+3, 2.0507821e+2, -927670.75, -1043314.3, 12674.926, 0.018427435, 0.13462073, -926297.8, 3947.1292, 0.0, 10.000512, 9.998979 
1.3650368e+3, 2.1507691e+2, -852377.06, -949904.8, 3036.8967, -0.025385901, 0.0985142, -852282.6, -20026.451, 0.0, 10.00033, 9.999034 
1.3650253e+3, 2.2507565e+2, -775031.44, -882448.9, -2827.2722, -0.01704102, 0.08135369, -774957.06, -40689.477, 0.0, 10.0002775, 9.998849 
1.3650145e+3, 2.3507448e+2, -663514.94, -772539.75, 5711.9624, 0.042691253, 0.07318768, -663216.44, -26937.396, 0.0, 10.000347, 9.9988985 
1.365003e+3, 2.4507341e+2, -552559.5, -663924.2, 12158.325, 0.029800493, 0.07740827, -551247.56, -12958.396, 0.0, 10.000418, 9.998937 
1.3649909e+3, 2.550725e+2, -439302.13, -551963.8, 2689.056, -0.05408288, 0.0849933, -439238.0, 1059.5322, 0.0, 10.000495, 9.998994 
1.3649796e+3, 2.6507133e+2, -356481.84, -478886.34, 7291.901, -0.07444355, 0.07772236, -356048.97, -13740.086, 0.0, 10.000467, 9.9988365 
1.3649689e+3, 2.7506992e+2, -274311.7, -382542.94, 10334.001, -0.03327393, 0.049062382, -273333.84, -29010.97, 0.0, 10.000333, 9.998889 
1.3649577e+3, 2.8506902e+2, -201792.39, -286933.78, 1454.3151, -0.02932868, 0.06723186, -201767.56, -55435.79, 0.0, 10.0001135, 9.99898 
1.364946e+3, 2.950686e+2, -145286.63, -203173.13, -6863.196, -0.059907362, 0.12259747, -144484.03, -96148.44, 0.0, 9.999803, 9.999031 
1.3649347e+3, 3.050672e+2, -111921.41, -167072.6, -10274.57, -0.047633126, 0.083798006, -110069.46, -110069.46, 0.0, 9.99972, 9.998985 
1.3649236e+3, 3.1506714e+2, -66749.06, -105803.57, 29457.945, -0.021829905, 0.17336233, -50933.93, -50933.93, 0.0, 9.999855, 9.999342 
1.3751398e+3, 1.2509534e+2, -1670020.4, -1772810.0, -11402.362, -0.0030897825, 0.1085608, -1668770.6, 45306.89, 0.0079810945, 10.000659, 9.999283 
1.3751304e+3, 1.3509533e+2, -1551856.4, -1586012.3, -4080.7231, 0.19876164, 0.1182819, -1551375.6, 64702.09, 0.0045821774, 10.000444, 10.000003 
1.375116e+3, 1.450955e+2, -1493617.0, -1571999.4, 4132.7886, -0.14326529, 0.16147773, -1493399.8, 24676.27, 0.0018779465, 10.000454, 9.999415 
1.3751063e+3, 1.5509471e+2, -1355180.8, -1458127.0, 6386.559, 0.028140476, 0.14256328, -1354786.0, 65297.863, 0.00043006244, 10.000748, 9.999381 
1.3750954e+3, 1.6509369e+2, -1281741.6, -1413622.5, -332.7084, 0.09596124, 0.12317236, -1281740.8, 40352.992, 0.000029160963, 10.000756, 9.999011 
1.3750835e+3, 1.7509262e+2, -1220694.1, -1327095.6, -3782.1165, 0.04842916, 0.10813152, -1220559.9, 3544.0835, 0.000000027808229, 10.000476, 9.999067 
1.3750717e+3, 1.8509163e+2, -1139911.9, -1246482.1, 3593.9004, 0.027667979, 0.10850345, -1139790.9, -13677.601, 0.0, 10.000395, 9.998987 
1.3750605e+3, 1.9509071e+2, -1017887.2, -1130743.3, 9690.397, 0.036502, 0.11170333, -1017061.2, 11060.681, 0.0, 10.000534, 9.999042 
1.375049e+3, 2.0508954e+2, -944086.25, -1076873.9, 4369.264, 0.03267639, 0.10789137, -943942.7, -13809.516, 0.0, 10.000509, 9.998751 
1.3750374e+3, 2.1508817e+2, -868505.1, -982878.94, -4032.8489, 0.016594345, 0.09103301, -868363.1, -36216.582, 0.0, 10.000327, 9.99881 
1.3750258e+3, 2.2508708e+2, -758306.9, -847171.6, -1175.8633, -0.0002520262, 0.086257346, -758291.3, -24134.682, 0.0, 10.000275, 9.999094 
1.3750143e+3, 2.3508622e+2, -646769.75, -737384.44, 8572.311, -0.01752879, 0.08510854, -645965.9, -9802.571, 0.0, 10.000344, 9.999142 
1.3750029e+3, 2.45085e+2, -569206.75, -697916.3, 14857.257, -0.03071615, 0.074418, -567514.0, -29339.633, 0.0, 10.000414, 9.998706 
1.3749915e+3, 2.550835e+2, -455820.6, -585593.2, 6446.2827, -0.04062153, 0.04705362, -455501.16, -15311.952, 0.0, 10.000491, 9.998766 
1.3749804e+3, 2.650824e+2, -349041.56, -463461.25, 2516.3323, -0.04474524, 0.05362696, -348986.25, -6785.8896, 0.0, 10.000466, 9.998943 
1.3749692e+3, 2.7508172e+2, -267329.9, -367549.84, 6977.165, -0.045662038, 0.08512513, -266846.5, -22638.816, 0.0, 10.000329, 9.998995 
1.3749577e+3, 2.8508088e+2, -214840.67, -312959.53, -9248.541, -0.04746913, 0.11120646, -213976.53, -67760.336, 0.0, 10.000108, 9.998803 
1.3749461e+3, 2.9507986e+2, -159087.8, -228645.33, -15853.314, -0.045202028, 0.12390306, -155644.97, -107419.45, 0.0, 9.999788, 9.998863 
1.3749348e+3, 3.0507776e+2, -97685.625, -136798.72, -3645.9685, -0.0313173, 0.012416501, -97348.664, -97348.664, 0.0, 9.999715, 9.999197 
1.374923e+3, 3.1507784e+2, -34126.03, -37014.496, 38185.28, -0.06166669, 0.09689971, 2642.318, 2642.318, 0.0, 9.999849, 9.999819 
1.3851401e+3, 1.2510626e+2, -1660281.0, -1771981.5, -3615.4705, -0.037115432, 0.09424589, -1660164.1, 53805.95, 0.008351057, 10.000746, 9.999245 
1.385131e+3, 1.3510619e+2, -1509229.0, -1567453.8, -6204.44, 0.19786012, 0.100632094, -1508575.1, 107395.766, 0.004803759, 10.000749, 9.999984 
1.3851167e+3, 1.4510654e+2, -1466510.6, -1553490.3, -4169.3135, -0.11807914, 0.15939657, -1466311.3, 51656.453, 0.0019753822, 10.000617, 9.999463 
1.3851069e+3, 1.5510574e+2, -1405703.3, -1477677.1, -22002.842, 0.03427243, 0.13596524, -1399509.9, 20465.86, 0.00045665295, 10.00038, 9.999425 
1.385096e+3, 1.6510484e+2, -1334742.8, -1436525.9, -32501.668, 0.08763169, 0.12543097, -1325249.6, -3264.9453, 0.00003186285, 10.000381, 9.999034 
1.3850838e+3, 1.7510402e+2, -1195635.1, -1312286.0, -25347.568, 0.031796027, 0.13299167, -1190365.4, 33627.66, 0.000000039188958, 10.000637, 9.99909 
1.3850722e+3, 1.8510306e+2, -1096146.3, -1221083.9, -15938.938, 0.011000323, 0.13369298, -1094145.0, 31857.191, 0.0, 10.000679, 9.999023 
1.3850608e+3, 1.9510198e+2, -1018930.6, -1127042.3, -19521.979, 0.026406424, 0.116709344, -1015513.5, 12498.637, 0.0, 10.00051, 9.999077 
1.3850495e+3, 2.0510085e+2, -957118.5, -1076681.0, -21683.41, 0.0364848, 0.11182175, -953307.56, -23284.416, 0.0, 10.000392, 9.998807 
1.3850379e+3, 2.1509972e+2, -864789.06, -975187.5, -9942.901, 0.040134817, 0.11104744, -863900.75, -31865.855, 0.0, 10.000326, 9.998863 
1.3850263e+3, 2.2509868e+2, -747879.4, -838157.4, 3219.7854, 0.013667613, 0.11076619, -747764.7, -13720.524, 0.0, 10.00033, 9.999128 
1.3850144e+3, 2.350978e+2, -635122.25, -726851.2, -4332.1313, -0.04172634, 0.102951504, -634918.06, 1132.7134, 0.0, 10.000405, 9.999183 
1.385003e+3, 2.4509656e+2, -581111.4, -699459.9, -1245.4269, -0.05075902, 0.08577651, -581098.3, -43036.453, 0.0, 10.000319, 9.998738 
1.384992e+3, 2.5509503e+2, -514983.6, -610547.25, 9216.959, -0.016210431, 0.05242574, -514102.75, -74025.97, 0.0, 10.000072, 9.998795 
1.3849808e+3, 2.6509398e+2, -422237.2, -494657.72, 13065.436, -0.015197349, 0.060790997, -419952.16, -77864.695, 0.0, 9.999948, 9.998978 
1.3849692e+3, 2.750934e+2, -320878.9, -389177.94, 10131.832, -0.04759854, 0.10017415, -319407.6, -75313.734, 0.0, 9.999945, 9.99903 
1.3849576e+3, 2.8509256e+2, -234528.78, -316723.4, -2245.428, -0.05795462, 0.12400413, -234467.48, -88365.58, 0.0, 9.999951, 9.998852 
1.384946e+3, 2.9509148e+2, -128544.61, -207503.28, 5464.558, -0.042545136, 0.12450058, -128168.22, -80057.016, 0.0, 9.999974, 9.998917 
1.3849345e+3, 3.0508906e+2, -76851.88, -135669.92, 20623.072, -0.025384638, -0.02045904, -70341.52, -70341.52, 0.0, 9.999899, 9.999115 
1.3849226e+3, 3.1508908e+2, -35995.832, -7724.016, 38856.953, -0.07865148, 0.06686027, 19488.436, 19488.436, 0.0, 9.99971, 10.000085 
1.3951403e+3, 1.2511759e+2, -1668561.5, -1788736.8, -3920.1619, -0.097213484, 0.10841103, -1668433.8, 45424.09, 0.008733579, 10.000741, 9.999134 
1.3951316e+3, 1.3511693e+2, -1516886.5, -1582245.0, -6646.831, 0.2038417, 0.06472381, -1516217.4, 99647.086, 0.005033633, 10.000744, 9.999884 
1.3951176e+3, 1.4511716e+2, -1481069.8, -1583638.0, -14701.553, -0.08167956, 0.1260255, -1479004.1, 38858.78, 0.002076125, 10.000615, 9.999258 
1.3951072e+3, 1.551163e+2, -1420009.8, -1507642.6, -31063.13, 0.02681568, 0.11810368, -1410115.9, 9756.622, 0.00048381835, 10.0003805, 9.999219 
1.395096e+3, 1.6511558e+2, -1322545.4, -1412089.3, -24430.8, 0.058568478, 0.12798944, -1316313.4, 5566.939, 0.000034571214, 10.000383, 9.999202 
1.3950841e+3, 1.751152e+2, -1183322.5, -1287135.4, -16114.076, -0.000061619576, 0.16296805, -1180878.8, 43005.86, 0.00000005013657, 10.000637, 9.999264 
1.3950725e+3, 1.851144e+2, -1102185.6, -1232910.1, -23298.53, -0.020161286, 0.17366597, -1098157.4, 27735.566, 0.0, 10.000674, 9.998945 
1.3950612e+3, 1.9511314e+2, -1024472.2, -1138447.3, -25932.977, 0.0049557225, 0.14790708, -1018849.06, 9056.078, 0.0, 10.000508, 9.999001 
1.3950498e+3, 2.0511217e+2, -934429.1, -1029120.6, -25081.795, 0.026805418, 0.14520866, -928195.8, 1718.7509, 0.0, 10.000389, 9.999136 
1.3950384e+3, 2.151115e+2, -841988.1, -927949.3, -12405.679, 0.04366474, 0.15829127, -840233.56, -8312.692, 0.0, 10.000325, 9.999188 
1.3950267e+3, 2.2511052e+2, -760442.44, -864430.0, 5124.1567, 0.022921668, 0.1548859, -760190.5, -26260.635, 0.0, 10.000329, 9.998949 
1.3950148e+3, 2.3510925e+2, -647674.6, -752494.8, -1364.6201, -0.03310009, 0.12770696, -647656.9, -11715.692, 0.0, 10.000402, 9.999009 
1.3950035e+3, 2.4510811e+2, -560511.5, -656319.75, -10773.428, -0.034298237, 0.111998886, -559315.0, -21363.639, 0.0, 10.000315, 9.999038 
1.3949926e+3, 2.5510707e+2, -494503.66, -567698.3, 895.3961, 0.01620388, 0.099925116, -494492.7, -54532.563, 0.0, 10.000069, 9.999091 
1.3949811e+3, 2.6510605e+2, -426072.63, -502452.3, 13656.293, 0.011560353, 0.09795628, -423704.38, -81734.23, 0.0, 9.999946, 9.998925 
1.3949691e+3, 2.7510503e+2, -325138.8, -396271.47, 12074.826, -0.044540845, 0.09812621, -323145.0, -79164.055, 0.0, 9.999936, 9.998986 
1.3949575e+3, 2.851042e+2, -216179.3, -279119.5, -390.97394, -0.06670847, 0.109125584, -216176.88, -70188.21, 0.0, 9.99995, 9.999111 
1.3949457e+3, 2.9510346e+2, -111525.914, -172635.63, 8719.946, -0.05765625, 0.119861096, -110305.99, -62312.625, 0.0, 9.999974, 9.999158 
1.3949344e+3, 3.05101e+2, -101697.55, -187810.61, 14284.095, -0.03539658, -0.017645935, -99389.99, -99389.99, 0.0, 9.999901, 9.998755 
1.3949223e+3, 3.151008e+2, -35055.063, -1105.852, 33714.76, -0.0829136, 0.07753636, 19666.363, 19666.363, 0.0, 9.99969, 10.000139 
1.4051409e+3, 1.2512876e+2, -1664202.0, -1793026.1, -5603.094, -0.11162557, 0.11571752, -1663958.8, 49789.594, 0.009133226, 10.000799, 9.999077 
1.4051323e+3, 1.3512796e+2, -1499167.3, -1578852.9, -6595.672, 0.18521038, 0.062859826, -1498625.0, 117131.586, 0.005275387, 10.00089, 9.999837 
1.4051184e+3, 1.4512825e+2, -1459809.4, -1573392.3, -15638.066, -0.081870206, 0.13358736, -1457695.6, 60058.566, 0.0021822979, 10.000764, 9.999256 
1.4051077e+3, 1.551272e+2, -1408484.1, -1502369.6, -17392.121, 0.029983079, 0.10661257, -1405365.9, 14399.48, 0.00051218417, 10.000463, 9.999215 
1.4050965e+3, 1.6512644e+2, -1326284.5, -1408168.9, 8483.945, 0.05714611, 0.11153436, -1325414.8, -3641.2495, 0.000037386584, 10.000336, 9.99925 
1.4050846e+3, 1.7512622e+2, -1216113.3, -1297328.5, 5911.2373, -0.0100094415, 0.15602748, -1215685.3, 8091.323, 0.00000006103049, 10.000389, 9.999313 
1.405073e+3, 1.8512553e+2, -1144436.5, -1240422.6, -9806.982, -0.023684457, 0.17066127, -1143444.8, -17661.004, 0.0, 10.00033, 9.999059 
1.4050616e+3, 1.9512439e+2, -1065579.3, -1145394.3, 672.8537, 0.017767267, 0.14333707, -1065573.5, -37778.242, 0.0, 10.000173, 9.999114 
1.4050502e+3, 2.0512353e+2, -957842.2, -1030486.0, 8339.201, 0.036077924, 0.143954, -956897.2, -27093.701, 0.0, 10.000187, 9.999223 
1.4050385e+3, 2.1512303e+2, -828833.6, -911349.5, 2302.4268, 0.031086052, 0.1649209, -828769.44, 3038.6052, 0.0, 10.000375, 9.999277 
1.4050269e+3, 2.2512211e+2, -759199.5, -863938.56, 12493.537, 0.012452676, 0.16365418, -757729.8, -23913.12, 0.0, 10.0003395, 9.998946 
1.4050153e+3, 2.3512082e+2, -693688.4, -775346.6, 17824.031, -0.020465242, 0.13354804, -689967.4, -54138.43, 0.0, 10.00009, 9.999002 
1.4050038e+3, 2.451198e+2, -596495.5, -655854.1, 9744.351, -0.02399737, 0.12378925, -594936.8, -57098.89, 0.0, 9.999991, 9.999197 
1.4049925e+3, 2.5511906e+2, -486874.2, -546313.0, 9460.692, 0.00006667536, 0.12384934, -485404.7, -45561.145, 0.0, 10.000045, 9.999249 
1.404981e+3, 2.65118e+2, -417388.28, -497271.97, 20178.342, 0.00322408, 0.111586735, -412580.63, -70727.35, 0.0, 10.000002, 9.998933 
1.4049694e+3, 2.7511674e+2, -334555.88, -399042.97, 20911.998, -0.013109515, 0.082766145, -328368.22, -84502.02, 0.0, 9.9998665, 9.998999 
1.4049576e+3, 2.8511587e+2, -234666.6, -290773.97, 5489.205, -0.03714533, 0.09541467, -234134.61, -88260.71, 0.0, 9.999837, 9.999084 
1.4049456e+3, 2.9511538e+2, -122064.66, -181432.78, -7563.3994, -0.068377554, 0.13269699, -121116.24, -73239.22, 0.0, 9.999917, 9.999125 
1.4049341e+3, 3.0511305e+2, -117328.28, -222409.89, -14021.79, -0.048203364, 0.018777827, -115489.43, -115489.43, 0.0, 9.99991, 9.998513 
1.4049222e+3, 3.1511238e+2, -8567.242, 26090.074, 7377.1494, -0.07880053, 0.0945312, 27595.021, 27595.021, 0.0, 9.999809, 10.00027 
1.415142e+3, 1.251398e+2, -1666063.8, -1796369.5, -6852.3613, -0.08936035, 0.11200039, -1665704.4, 47936.65, 0.009556688, 10.000794, 9.999057 
1.4151329e+3, 1.3513935e+2, -1501223.3, -1580987.6, -3738.8818, 0.14223926, 0.0957053, -1501048.4, 114597.98, 0.0055341963, 10.000881, 9.9998255 
1.4151187e+3, 1.451399e+2, -1445545.8, -1544404.6, -28601.938, -0.119077876, 0.18322715, -1437867.0, 79773.82, 0.0022969088, 10.000764, 9.999455 
1.4151081e+3, 1.5513851e+2, -1394355.8, -1473771.9, -28493.137, 0.03890738, 0.10095432, -1385190.6, 34463.273, 0.0005425403, 10.0004635, 9.999412 
1.415097e+3, 1.6513751e+2, -1332071.5, -1420788.8, 9014.139, 0.07693739, 0.07649912, -1331164.9, -9501.285, 0.000040406845, 10.000337, 9.999164 
1.415085e+3, 1.7513712e+2, -1221635.9, -1309334.5, 7606.175, -0.0003180036, 0.113159254, -1220981.1, 2687.0356, 0.00000007226826, 10.00039, 9.99923 
1.4150734e+3, 1.8513653e+2, -1123850.0, -1197945.4, -16793.514, -0.0039088363, 0.12618327, -1120221.5, 5452.875, 0.0, 10.00033, 9.9993515 
1.4150622e+3, 1.9513573e+2, -1044712.06, -1103337.1, -5299.5435, 0.062298972, 0.10423554, -1044236.8, -16554.498, 0.0, 10.000176, 9.999402 
1.4150506e+3, 2.0513497e+2, -968192.1, -1052489.0, 14187.33, 0.06181235, 0.10889863, -965868.44, -36178.676, 0.0, 10.000188, 9.999072 
1.4150386e+3, 2.1513434e+2, -839507.3, -933011.06, 9160.072, -0.0002207119, 0.13160263, -838618.44, -6922.266, 0.0, 10.000371, 9.999131 
1.415027e+3, 2.251335e+2, -748601.9, -840683.5, 2424.2817, -0.021709805, 0.13743615, -748538.1, -14833.743, 0.0, 10.000333, 9.99911 
1.4150155e+3, 2.351325e+2, -682164.9, -751798.94, 8978.765, -0.0049222796, 0.12018833, -681025.8, -45311.86, 0.0, 10.00009, 9.999165 
1.4150038e+3, 2.4513167e+2, -595247.9, -653978.44, 11809.0625, -0.021500226, 0.12018756, -592962.3, -55240.945, 0.0, 9.999992, 9.999209 
1.4149918e+3, 2.55131e+2, -486417.2, -544720.56, 12473.126, -0.068551056, 0.12677045, -483860.84, -44134.26, 0.0, 10.00004, 9.999264 
1.4149804e+3, 2.651299e+2, -413615.38, -489670.25, 15688.382, -0.04495627, 0.10449043, -410506.3, -68769.82, 0.0, 10.000001, 9.998986 
1.4149699e+3, 2.7512842e+2, -331271.47, -392379.63, 17450.527, 0.04333377, 0.05114346, -326639.28, -82889.336, 0.0, 9.999866, 9.999046 
1.4149581e+3, 2.8512758e+2, -254961.81, -333115.53, 9115.26, 0.027531099, 0.08006256, -253912.77, -108154.75, 0.0, 9.999837, 9.998795 
1.4149453e+3, 2.9512736e+2, -143981.2, -225171.83, -1931.4406, -0.0809404, 0.16916634, -143935.28, -96173.78, 0.0, 9.999908, 9.998829 
1.4149337e+3, 3.0512518e+2, -127914.07, -245081.27, -15974.073, -0.070743054, 0.09678432, -125775.28, -125775.28, 0.0, 9.999911, 9.998359 
1.414922e+3, 3.1512374e+2, 1337.5258, 46374.36, 3250.5835, -0.07343786, 0.10886898, 46607.766, 46607.766, 0.0, 9.999809, 10.00041 
1.425143e+3, 1.2515144e+2, -1622926.5, -1768935.5, 10508.03, -0.06809456, 0.13362038, -1622174.1, 91353.23, 0.010011913, 10.001066, 9.999114 
1.4251335e+3, 1.3515067e+2, -1544892.6, -1597398.6, 20311.303, 0.12708557, 0.08232994, -1537952.8, 77582.414, 0.0058154534, 10.00056, 9.999867 
1.4251192e+3, 1.4515142e+2, -1487164.4, -1561436.1, -164.49341, -0.12692554, 0.18607335, -1487164.0, 30363.701, 0.002423067, 10.000467, 9.99948 
1.4251089e+3, 1.5515018e+2, -1342735.9, -1446386.9, -14679.488, 0.045663778, 0.11788768, -1340697.0, 78842.445, 0.00057589856, 10.000809, 9.9994335 
1.4250976e+3, 1.6514912e+2, -1271673.6, -1382594.6, 14563.392, 0.09154137, 0.081201605, -1269793.4, 51756.098, 0.00004378684, 10.000714, 9.999243 
1.4250855e+3, 1.7514844e+2, -1242671.9, -1310235.4, 24116.309, 0.017600147, 0.08065985, -1234947.0, -11391.159, 0.00000008454083, 10.000209, 9.9993105 
1.4250737e+3, 1.851479e+2, -1152142.9, -1210114.6, 7559.9634, 0.0019851846, 0.09629485, -1151173.1, -25611.697, 0.0, 10.000132, 9.999362 
1.4250624e+3, 1.9514753e+2, -999397.25, -1079532.8, -2663.7344, 0.040404294, 0.11564966, -999308.8, 28257.547, 0.0, 10.000482, 9.999416 
1.4250508e+3, 2.0514688e+2, -929003.56, -1024806.56, 7234.949, 0.042263452, 0.124698155, -928460.25, 1112.8242, 0.0, 10.000421, 9.999149 
1.4250389e+3, 2.1514602e+2, -892900.2, -950316.4, 17755.143, 0.009056016, 0.11771618, -887853.25, -56272.25, 0.0, 9.999969, 9.999206 
1.4250273e+3, 2.2514515e+2, -813794.1, -863891.3, 20898.383, -0.0015977373, 0.11301922, -806221.06, -72631.8, 0.0, 9.999849, 9.999184 
1.4250158e+3, 2.3514429e+2, -682439.7, -743200.25, 19305.807, 0.009279653, 0.10218584, -676824.44, -41226.992, 0.0, 10.000051, 9.999242 
1.4250039e+3, 2.4514352e+2, -584694.9, -658305.6, 15344.58, -0.012668881, 0.109771565, -581624.3, -44019.58, 0.0, 10.000106, 9.999125 
1.4249918e+3, 2.551429e+2, -494977.88, -557567.8, 7707.732, -0.0657353, 0.1262863, -494042.7, -54432.0, 0.0, 10.00002, 9.999185 
1.4249803e+3, 2.6514176e+2, -412304.5, -484480.72, 6841.782, -0.05195198, 0.105777934, -411661.7, -70041.15, 0.0, 9.99999, 9.999027 
1.4249694e+3, 2.7514026e+2, -305047.6, -375911.4, 6457.0034, 0.02341652, 0.044533, -304464.06, -60830.67, 0.0, 10.000026, 9.999083 
1.4249578e+3, 2.851393e+2, -236410.03, -342593.1, 6311.1846, 0.017201727, 0.06492682, -236036.23, -90393.24, 0.0, 10.000043, 9.998631 
1.4249456e+3, 2.951388e+2, -136148.7, -239398.92, 2180.316, -0.06001564, 0.1463813, -136102.69, -88452.88, 0.0, 10.000041, 9.998667 
1.4249338e+3, 3.0513704e+2, -129446.23, -248406.17, -8201.002, -0.048261926, 0.122378215, -128883.516, -128883.516, 0.0, 9.999912, 9.998334 
1.4249215e+3, 3.151353e+2, -9128.068, 58627.37, 16706.086, -0.08752536, 0.1085626, 62522.57, 62522.57, 0.0, 9.999662, 10.000565 
1.4351442e+3, 1.2516366e+2, -1614992.0, -1749674.3, -13728.407, -0.049186546, 0.1758527, -1613606.9, 99800.4, 0.010506618, 10.001053, 9.999253 
1.435134e+3, 1.35162e+2, -1538494.0, -1582907.5, 1627.1201, 0.13225408, 0.0252661, -1538434.5, 76987.7, 0.006123269, 10.000556, 9.999969 
1.4351198e+3, 1.4516287e+2, -1498276.9, -1585822.5, 10592.574, -0.114301436, 0.14454229, -1497013.4, 20400.602, 0.002563054, 10.00047, 9.999312 
1.4351097e+3, 1.5516227e+2, -1353672.4, -1469056.1, -2512.8782, 0.048278444, 0.15658258, -1353617.6, 65803.95, 0.0006133788, 10.000807, 9.999279 
1.4350984e+3, 1.6516131e+2, -1255506.0, -1349054.1, -5930.408, 0.0987074, 0.12559879, -1255131.6, 66299.06, 0.000047750204, 10.000712, 9.999475 
1.435086e+3, 1.751602e+2, -1226416.0, -1277474.5, 5185.4414, 0.04090127, 0.058453314, -1225894.8, -2455.3557, 0.00000010052836, 10.000212, 9.999534 
1.4350739e+3, 1.8515971e+2, -1170516.9, -1249072.6, 19199.23, -0.009317768, 0.08121611, -1166075.6, -40630.867, 0.0, 10.0001335, 9.999095 
1.435062e+3, 1.9515982e+2, -1017336.06, -1117157.9, 9969.69, -0.04918461, 0.17535543, -1016350.06, 11097.189, 0.0, 10.000481, 9.99916 
1.4350505e+3, 2.0515925e+2, -909144.75, -982673.0, -10580.221, -0.025602713, 0.18978189, -907652.6, 21800.768, 0.0, 10.000416, 9.999441 
1.4350393e+3, 2.1515808e+2, -872486.94, -908745.75, 1212.2192, 0.057235766, 0.122823946, -872446.44, -40983.973, 0.0, 9.99997, 9.999491 
1.4350279e+3, 2.2515705e+2, -814748.56, -866649.25, 27742.318, 0.070707016, 0.08994603, -802711.3, -69240.1, 0.0, 9.999851, 9.999165 
1.4350158e+3, 2.351562e+2, -684244.06, -746901.4, 27168.643, 0.019192884, 0.08050701, -674104.44, -38625.137, 0.0, 10.000049, 9.999219 
1.4350042e+3, 2.4515538e+2, -597803.94, -684864.25, 12081.356, -0.0015780204, 0.09395134, -596158.5, -58670.824, 0.0, 10.000101, 9.998945 
1.4349926e+3, 2.5515467e+2, -507475.9, -583571.56, 5502.2617, 0.006552821, 0.120902926, -507080.13, -67584.22, 0.0, 10.000018, 9.999007 
1.4349808e+3, 2.6515362e+2, -409271.9, -478702.3, 8888.464, -0.019352952, 0.113524064, -408152.06, -66646.555, 0.0, 9.999991, 9.999067 
1.4349686e+3, 2.751523e+2, -302798.25, -370872.28, 9907.431, -0.077347614, 0.06665783, -301385.66, -57869.72, 0.0, 10.000023, 9.99912 
1.4349571e+3, 2.8515097e+2, -240863.31, -352252.16, 7560.2046, -0.07383242, 0.053551897, -240352.53, -94824.17, 0.0, 10.000043, 9.998565 
1.434946e+3, 2.9514965e+2, -141991.3, -251107.83, 4169.8794, -0.010635795, 0.059419833, -141832.17, -94289.59, 0.0, 10.000037, 9.998589 
1.4349344e+3, 3.0514848e+2, -118917.19, -226223.97, -17103.6, 0.015832273, 0.09103567, -116257.0, -116257.0, 0.0, 9.99991, 9.998488 
1.4349207e+3, 3.1514722e+2, 2391.6511, 83742.72, 7148.2256, -0.12753871, 0.10634076, 84366.05, 84366.05, 0.0, 9.999657, 10.00074 
1.4451449e+3, 1.251753e+2, -1673500.3, -1769176.4, -10619.331, -0.06694717, 0.14824666, -1672335.8, 40955.723, 0.011047917, 10.000612, 9.99933 
1.4451347e+3, 1.351737e+2, -1498120.3, -1561491.0, 714.38513, 0.14395973, -0.000023027098, -1498112.3, 117193.85, 0.00646129, 10.000828, 9.999985 
1.4451209e+3, 1.4517467e+2, -1456754.8, -1574174.0, 17266.814, -0.08648821, 0.13340579, -1454268.3, 63028.887, 0.0027186894, 10.000795, 9.999234 
1.4451103e+3, 1.5517388e+2, -1399398.9, -1498815.6, 9465.341, 0.049020253, 0.13545957, -1398505.6, 20801.563, 0.0006559602, 10.000528, 9.999207 
1.4450988e+3, 1.6517307e+2, -1284711.8, -1353802.8, -3066.6597, 0.08625206, 0.11697722, -1284575.9, 36739.57, 0.000052490832, 10.000477, 9.999554 
1.4450863e+3, 1.7517234e+2, -1157311.3, -1235816.9, -5225.0024, 0.029897286, 0.083215, -1156965.0, 66355.195, 0.00000012546444, 10.000652, 9.999606 
1.4450741e+3, 1.8517183e+2, -1120477.3, -1234480.5, 15238.42, -0.008635438, 0.103260845, -1118475.6, 6850.4946, 0.0, 10.00052, 9.999008 
1.4450623e+3, 1.951715e+2, -1079726.8, -1156546.0, 17619.432, -0.031229733, 0.16268842, -1075878.3, -48545.492, 0.0, 10.000094, 9.999075 
1.4450508e+3, 2.0517087e+2, -958637.2, -996713.3, -5158.9478, -0.013788308, 0.1705851, -957950.56, -28610.996, 0.0, 10.000034, 9.999528 
1.4450394e+3, 2.1516998e+2, -815029.56, -871031.75, -9715.4375, 0.042318493, 0.12323989, -813392.0, 17953.936, 0.0, 10.000324, 9.999578 
1.4450277e+3, 2.2516912e+2, -744368.06, -829019.25, 13141.011, 0.05119998, 0.10118154, -742375.0, -9021.986, 0.0, 10.0003195, 9.999196 
1.4450158e+3, 2.3516832e+2, -684055.44, -743769.94, 15142.05, 0.013769996, 0.09484057, -680435.3, -45074.836, 0.0, 10.000037, 9.999245 
1.4450043e+3, 2.4516743e+2, -634507.1, -712239.2, 6188.506, 0.009973507, 0.10393247, -634017.5, -96647.77, 0.0, 9.99989, 9.998859 
1.4449929e+3, 2.551665e+2, -534693.6, -606394.44, 4908.981, 0.037928388, 0.11814291, -534359.06, -94978.73, 0.0, 9.999872, 9.998921 
1.4449808e+3, 2.651655e+2, -419057.7, -483971.7, 14459.593, 0.0038085356, 0.12117808, -415982.5, -74592.6, 0.0, 9.999926, 9.999063 
1.4449684e+3, 2.751645e+2, -300135.28, -369120.44, 10920.807, -0.088566564, 0.107668184, -298447.72, -55049.996, 0.0, 10.00004, 9.999123 
1.444957e+3, 2.8516313e+2, -237431.63, -334992.78, 10636.504, -0.08951063, 0.08263666, -236285.47, -90875.336, 0.0, 10.0, 9.998703 
1.4449461e+3, 2.9516143e+2, -164316.9, -247921.95, 21608.797, -0.0023213255, 0.03244338, -159062.13, -111635.22, 0.0, 9.999823, 9.9987135 
1.4449345e+3, 3.051605e+2, -129710.18, -240762.9, 3901.4976, 0.03031675, 0.09069896, -129573.28, -129573.28, 0.0, 9.999877, 9.998404 
1.4449207e+3, 3.1515887e+2, 59865.797, 90049.05, 3325.525, -0.123256706, 0.074979134, 90411.1, 90411.1, 0.0, 10.000145, 10.000547 
1.455145e+3, 1.2518646e+2, -1673599.5, -1770427.6, -11794.425, -0.12640104, 0.054130957, -1672183.6, 40995.543, 0.011640448, 10.000614, 9.999322 
1.4551358e+3, 1.3518576e+2, -1505183.3, -1575182.1, 8360.93, 0.16112706, 0.005064551, -1504198.4, 110987.664, 0.0068325973, 10.000823, 9.999893 
1.455122e+3, 1.4518684e+2, -1456615.5, -1572927.1, 5077.215, -0.045323417, 0.15293777, -1456394.4, 60782.28, 0.0028915813, 10.000791, 9.999246 
1.4551109e+3, 1.551851e+2, -1398699.3, -1496727.8, -403.93433, 0.04351922, 0.0571667, -1398697.5, 20498.113, 0.00070428615, 10.000526, 9.999222 
1.455099e+3, 1.6518444e+2, -1290214.3, -1367082.3, 1972.4679, 0.048666038, 0.058967274, -1290163.6, 31039.418, 0.000058062662, 10.000482, 9.999462 
1.4550865e+3, 1.7518492e+2, -1162667.8, -1248183.6, 959.88153, -0.017282503, 0.15267669, -1162657.0, 60541.203, 0.00000016567238, 10.000655, 9.999521 
1.4550747e+3, 1.8518429e+2, -1115239.9, -1223206.4, -2008.8505, -0.00040346727, 0.16098273, -1115202.5, 10002.451, 0.0, 10.000517, 9.999087 
1.4550637e+3, 1.9518262e+2, -1073958.1, -1145608.5, 2084.195, 0.0904326, 0.079180695, -1073897.5, -46674.98, 0.0, 10.000098, 9.999148 
1.4550517e+3, 2.0518176e+2, -966824.7, -1014554.3, 4550.0195, 0.07402434, 0.06913948, -966394.8, -37163.53, 0.0, 10.000036, 9.999406 
1.4550388e+3, 2.1518174e+2, -823065.25, -888078.56, 962.6655, -0.03880676, 0.11870739, -823051.0, 8180.2617, 0.0, 10.000323, 9.999462 
1.4550269e+3, 2.2518136e+2, -739624.56, -818131.3, 1802.1854, -0.06357898, 0.14598925, -739583.2, -6348.551, 0.0, 10.000314, 9.999274 
1.4550157e+3, 2.3518068e+2, -678294.5, -732212.75, 5301.1577, -0.008133559, 0.14443395, -677778.25, -42537.395, 0.0, 10.000038, 9.999325 
1.4550042e+3, 2.4517968e+2, -634269.8, -712367.56, 5603.565, 0.020943614, 0.13849495, -633869.8, -96619.04, 0.0, 9.999891, 9.998859 
1.4549926e+3, 2.5517842e+2, -535265.0, -607214.2, 5577.861, 0.0254719, 0.11922274, -534835.1, -95571.36, 0.0, 9.999868, 9.998919 
1.4549808e+3, 2.6517746e+2, -423659.06, -492652.34, 19525.457, 0.014160239, 0.13057773, -418516.56, -77243.04, 0.0, 9.999921, 9.999006 
1.4549692e+3, 2.751769e+2, -304055.63, -376354.3, 16639.006, -0.01292795, 0.16676812, -300410.1, -57131.05, 0.0, 10.000035, 9.999076 
1.4549576e+3, 2.851758e+2, -211415.95, -281190.13, 4759.9053, -0.03179804, 0.15094729, -211092.73, -65804.2, 0.0, 9.999999, 9.999074 
1.4549455e+3, 2.9517412e+2, -140585.67, -198396.0, 17593.307, -0.039616827, 0.06860986, -135652.5, -88350.2, 0.0, 9.99982, 9.999057 
1.454934e+3, 3.051732e+2, -153843.3, -291670.88, 15879.704, -0.010441741, 0.12476983, -152037.39, -152037.39, 0.0, 9.999879, 9.998053 
1.4549212e+3, 3.1517044e+2, 14779.824, -3199.9905, 12235.718, -0.081385694, 0.031698402, 20973.172, 20973.172, 0.0, 10.000142, 9.999908 
1.465146e+3, 1.251983e+2, -1666916.6, -1762059.9, -11375.738, -0.10010788, 0.028421894, -1665575.4, 47486.49, 0.012283001, 10.000639, 9.999367 
1.4651364e+3, 1.3519767e+2, -1544450.6, -1600677.0, 17008.957, 0.15264316, -0.009432465, -1539705.6, 75363.18, 0.00723705, 10.000581, 9.999832 
1.4651226e+3, 1.4519887e+2, -1478160.0, -1571429.6, 13072.106, -0.055571932, 0.14865564, -1476362.5, 40695.695, 0.0030819494, 10.000595, 9.999348 
1.4651114e+3, 1.551972e+2, -1367927.4, -1470650.6, 12083.134, 0.032342672, 0.04905937, -1366525.3, 52550.58, 0.0007585455, 10.00069, 9.999321 
1.4650993e+3, 1.6519646e+2, -1286201.0, -1389793.5, 15759.932, 0.041742813, 0.050422937, -1283856.4, 37227.914, 0.00006440502, 10.000617, 9.999239 
1.4650871e+3, 1.7519675e+2, -1216071.5, -1297468.3, 3157.2358, -0.014065926, 0.14621365, -1215949.1, 7133.723, 0.00000022299002, 10.000394, 9.999307 
1.4650752e+3, 1.8519612e+2, -1135787.3, -1212635.5, -6561.299, 0.0033240018, 0.15757746, -1135231.0, -10141.507, 0.0, 10.000291, 9.999267 
1.4650638e+3, 1.9519469e+2, -1030999.6, -1105515.4, 4183.868, 0.08423782, 0.08068116, -1030765.44, -3661.893, 0.0, 10.000312, 9.999319 
1.4650519e+3, 2.0519382e+2, -944919.5, -1023661.94, 19500.84, 0.06956817, 0.06927412, -940354.7, -11242.386, 0.0, 10.000273, 9.9992285 
1.4650393e+3, 2.1519354e+2, -857710.9, -924373.9, 10200.596, -0.032827444, 0.11196638, -856184.94, -25069.34, 0.0, 10.000171, 9.999287 
1.465027e+3, 2.2519313e+2, -762320.7, -828902.2, -661.2947, -0.058212258, 0.14577879, -762314.1, -29194.299, 0.0, 10.000158, 9.999276 
1.4650157e+3, 2.3519264e+2, -650792.0, -718471.3, -4876.717, -0.012856254, 0.1621756, -650442.4, -15317.861, 0.0, 10.000226, 9.999328 
1.4650041e+3, 2.4519166e+2, -577289.5, -672380.44, -643.536, 0.008927821, 0.15211007, -577285.1, -40151.26, 0.0, 10.00023, 9.998969 
1.4649925e+3, 2.5519025e+2, -483948.3, -570294.1, 6695.946, 0.00827387, 0.10863483, -483432.16, -44285.043, 0.0, 10.000171, 9.999025 
1.4649808e+3, 2.651893e+2, -427106.1, -504769.13, 20751.469, 0.0154143935, 0.119027734, -421909.1, -80752.09, 0.0, 9.999944, 9.998911 
1.4649695e+3, 2.7518883e+2, -379321.5, -422954.03, 13211.394, 0.029241202, 0.17470829, -375633.06, -132470.22, 0.0, 9.999563, 9.998983 
1.4649576e+3, 2.8518784e+2, -255169.36, -288001.5, 1689.9843, 0.0071469364, 0.1653195, -255082.61, -109910.734, 0.0, 9.999638, 9.999202 
1.4649454e+3, 2.9518625e+2, -85597.945, -157777.97, -5381.7563, -0.04488084, 0.079643354, -85198.89, -38014.76, 0.0, 10.000138, 9.999181 
1.4649339e+3, 3.051856e+2, -87927.7, -240039.84, 1397.1614, -0.01509291, 0.14991522, -87914.875, -87914.875, 0.0, 10.000247, 9.998229 
1.4649218e+3, 3.1518272e+2, -17983.828, -38959.754, 31026.334, -0.031906947, 0.025438074, 4279.2505, 4279.2505, 0.0, 10.000004, 9.999727 
1.4751476e+3, 1.252109e+2, -1660394.5, -1747295.6, -22011.68, 0.0068438244, 0.07018988, -1655137.1, 57801.816, 0.012969934, 10.000632, 9.999473 
1.4751366e+3, 1.352095e+2, -1545730.3, -1603113.4, 14946.999, 0.11319226, -0.042632394, -1542070.3, 72883.09, 0.0076708426, 10.000581, 9.999816 
1.4751226e+3, 1.4521085e+2, -1465238.0, -1547142.5, 15159.7705, -0.12301187, 0.12330195, -1462522.1, 54418.715, 0.0032881629, 10.000604, 9.999512 
1.4751118e+3, 1.5521021e+2, -1356195.3, -1446715.3, 15163.166, 0.013977984, 0.108145356, -1353722.9, 65224.61, 0.00081847684, 10.00069, 9.999486 
1.4751002e+3, 1.6520917e+2, -1311163.8, -1441886.4, 5203.803, 0.061566226, 0.09009715, -1310956.9, 10002.028, 0.000071419374, 10.000617, 9.998882 
1.4750879e+3, 1.752079e+2, -1239585.8, -1347618.9, -5346.9507, 0.035082035, 0.06646495, -1239321.8, -16348.071, 0.0000002932695, 10.000399, 9.998961 
1.4750755e+3, 1.8520743e+2, -1115805.8, -1173126.9, -6815.2495, -0.0018759996, 0.09595522, -1115006.6, 9972.61, 0.0, 10.000298, 9.9995365 
1.4750628e+3, 1.9520772e+2, -1011766.56, -1067581.3, 4704.624, -0.050215382, 0.16479023, -1011372.75, 15603.001, 0.0, 10.000319, 9.9995775 
1.4750512e+3, 2.05207e+2, -961867.7, -1058727.5, 14523.969, -0.028818704, 0.16784923, -959736.75, -30753.936, 0.0, 10.000271, 9.998989 
1.4750402e+3, 2.1520542e+2, -874169.56, -958811.7, 6595.6235, 0.057585288, 0.10294446, -873658.7, -42659.85, 0.0, 10.000171, 9.99905 
1.4750285e+3, 2.2520448e+2, -768727.06, -842169.6, 1255.749, 0.064211495, 0.10112218, -768705.56, -35697.26, 0.0, 10.000156, 9.9991865 
1.4750162e+3, 2.3520422e+2, -656770.7, -730819.75, -1748.0887, -0.0034349153, 0.14870879, -656729.44, -21718.035, 0.0, 10.000224, 9.999245 
1.475004e+3, 2.4520338e+2, -562542.9, -641076.8, -2805.418, -0.029292036, 0.14493488, -562442.8, -25423.785, 0.0, 10.000226, 9.9991865 
1.4749923e+3, 2.5520205e+2, -469350.03, -539445.1, 5443.266, -0.01684872, 0.086049385, -468929.84, -29899.578, 0.0, 10.000168, 9.999239 
1.4749807e+3, 2.6520103e+2, -436343.28, -524466.25, 7243.8184, 0.005107304, 0.085683085, -435751.8, -94711.35, 0.0, 9.999944, 9.998777 
1.4749691e+3, 2.752003e+2, -389725.47, -443725.75, 1346.148, 0.03464318, 0.13175611, -389691.94, -146642.84, 0.0, 9.9995575, 9.998844 
1.4749575e+3, 2.851992e+2, -265087.8, -307873.94, 21475.865, 0.023708219, 0.12662895, -256167.89, -111107.76, 0.0, 9.999633, 9.999067 
1.4749458e+3, 2.9519773e+2, -94854.305, -176258.33, 14965.284, -0.0217853, 0.06463384, -92190.28, -45117.367, 0.0, 10.000134, 9.999056 
1.4749345e+3, 3.0519766e+2, -35774.684, -132652.22, -7299.7324, 0.013995224, 0.16466716, -35227.734, -35227.734, 0.0, 10.000249, 9.998967 
1.4749223e+3, 3.1519595e+2, 2358.1023, 3354.3315, 21363.984, 0.017336832, 0.08212354, 24226.008, 24226.008, 0.0, 10.000002, 10.00002 
1.4851485e+3, 1.2522358e+2, -1682184.5, -1757525.3, -11737.146, 0.045920048, 0.10208657, -1680398.4, 32417.37, 0.013700743, 10.000483, 9.999473 
1.485137e+3, 1.3522193e+2, -1553757.0, -1619547.8, 24733.879, 0.10219475, -0.026261924, -1545495.8, 69336.81, 0.00813248, 10.00058, 9.999703 
1.4851229e+3, 1.4522302e+2, -1461791.3, -1553471.0, 15051.847, -0.13825768, 0.12520775, -1459383.3, 57438.824, 0.0035089266, 10.000663, 9.999439 
1.4851125e+3, 1.5522234e+2, -1357179.4, -1453419.0, -3578.0613, 0.0077062757, 0.1114202, -1357046.5, 61782.453, 0.0008836724, 10.000712, 9.999429 
1.4851008e+3, 1.6522127e+2, -1297504.3, -1427458.1, -12872.029, 0.058443107, 0.08982156, -1296241.5, 24598.715, 0.00007901186, 10.000681, 9.998949 
1.4850883e+3, 1.7521997e+2, -1207004.1, -1325438.0, 6216.184, 0.029109305, 0.057078023, -1206678.8, 16175.801, 0.00000037325287, 10.000595, 9.999019 
1.4850757e+3, 1.8521942e+2, -1088156.3, -1183192.6, 8772.924, -0.014479414, 0.087708764, -1087353.3, 37507.605, 0.0, 10.000588, 9.999327 
1.4850631e+3, 1.9521964e+2, -977317.0, -1073256.3, -16616.021, -0.07493243, 0.16914156, -974520.75, 52338.38, 0.0, 10.000653, 9.999376 
1.4850512e+3, 2.0521888e+2, -926317.75, -1037381.56, -22555.982, -0.045756523, 0.17785755, -921911.7, 6954.8374, 0.0, 10.000499, 9.999025 
1.4850403e+3, 2.1521732e+2, -875864.06, -956236.0, -11228.317, 0.06693853, 0.111046255, -874324.9, -43443.05, 0.0, 10.000146, 9.99908 
1.4850289e+3, 2.2521624e+2, -799463.3, -863847.94, 4276.222, 0.08549567, 0.09564386, -799180.5, -66287.984, 0.0, 9.999977, 9.999123 
1.4850163e+3, 2.3521566e+2, -697960.3, -758110.6, 1417.7042, 0.015174975, 0.11914001, -697926.9, -63028.35, 0.0, 9.999975, 9.999177 
1.4850043e+3, 2.4521486e+2, -593155.44, -650692.3, -6781.196, -0.016304579, 0.120579176, -592367.0, -55460.98, 0.0, 9.999996, 9.99923 
1.4849925e+3, 2.552139e+2, -485972.47, -542719.94, -14001.241, -0.011794414, 0.09342323, -482706.0, -43791.742, 0.0, 10.000034, 9.99928 
1.4849807e+3, 2.6521292e+2, -401040.75, -501395.1, -14025.689, 0.0016020909, 0.09400698, -399117.38, -58193.68, 0.0, 10.000162, 9.998829 
1.4849688e+3, 2.7521202e+2, -267243.3, -379222.16, -6377.034, 0.021617232, 0.1115902, -266881.34, -23947.586, 0.0, 10.000377, 9.998891 
1.4849573e+3, 2.852108e+2, -185051.36, -285379.1, 25939.729, 0.019190604, 0.10349346, -178741.48, -33795.703, 0.0, 10.000255, 9.998921 
1.484946e+3, 2.952094e+2, -150734.05, -219157.47, 15869.19, -0.00012099094, 0.06453327, -147232.73, -100273.79, 0.0, 9.999821, 9.998912 
1.4849347e+3, 3.052094e+2, -86669.5, -128183.65, -24317.957, 0.036008067, 0.16526552, -75454.414, -75454.414, 0.0, 9.999777, 9.999225 
1.4849226e+3, 3.1520838e+2, 9497.47, -3464.0103, -36066.996, 0.037245728, 0.12487339, 39661.35, 39661.35, 0.0, 10.000097, 9.999927 
1.4951487e+3, 1.2523642e+2, -1692387.9, -1776780.8, -20261.938, 0.018319866, 0.12736663, -1687775.3, 24915.922, 0.014485369, 10.000473, 9.999346 
1.4951378e+3, 1.3523495e+2, -1570481.1, -1653798.9, 28173.576, 0.118327215, 0.038141564, -1561848.8, 52857.23, 0.008627366, 10.000578, 9.999469 
1.495124e+3, 1.4523545e+2, -1480593.8, -1594562.5, 14848.341, -0.105123386, 0.15476291, -1478691.0, 38010.586, 0.0037456865, 10.000669, 9.999155 
1.4951132e+3, 1.5523367e+2, -1374934.4, -1491640.5, -2382.1975, 0.0084901275, 0.06141101, -1374885.8, 43833.48, 0.0009542572, 10.000717, 9.999165 
1.4951012e+3, 1.6523284e+2, -1264506.0, -1360324.9, -17683.656, 0.027298378, 0.052300498, -1261346.6, 59380.58, 0.00008722728, 10.000685, 9.999409 
1.4950882e+3, 1.7523296e+2, -1176577.1, -1262761.0, 2436.7607, -0.03169164, 0.115313455, -1176508.3, 46216.99, 0.0000004647829, 10.000595, 9.999449 
1.4950761e+3, 1.8523212e+2, -1136293.9, -1282722.9, 9610.862, -0.0366446, 0.13111086, -1135665.8, -10931.38, 0.0, 10.000586, 9.998646 
1.4950646e+3, 1.9523048e+2, -1023116.6, -1168969.0, -14631.533, 0.0054438086, 0.09552334, -1021663.3, 5089.649, 0.0, 10.000654, 9.998719 
1.4950524e+3, 2.0522954e+2, -905874.94, -994825.75, -36621.504, 0.014018134, 0.101277694, -892737.9, 36025.03, 0.0, 10.000498, 9.999319 
1.4950399e+3, 2.1522927e+2, -855214.0, -914069.4, -24075.086, -0.0064204303, 0.13613948, -846620.6, -15856.26, 0.0, 10.000148, 9.999369 
1.495028e+3, 2.252284e+2, -803208.3, -871653.2, 3499.8079, 0.0037991393, 0.12805867, -803029.8, -70257.39, 0.0, 9.999976, 9.99907 
1.4950167e+3, 2.3522699e+2, -701467.94, -765333.4, 1891.4362, 0.040798288, 0.07375111, -701412.0, -66626.14, 0.0, 9.999974, 9.999128 
1.4950049e+3, 2.4522611e+2, -603824.94, -672865.06, -5059.368, 0.045568302, 0.079615824, -603456.2, -66661.44, 0.0, 9.999994, 9.99908 
1.4949928e+3, 2.552258e+2, -496634.84, -564273.56, -11106.256, 0.02142026, 0.13165025, -494857.88, -56058.83, 0.0, 10.0000305, 9.999134 
1.4949809e+3, 2.65225e+2, -384147.66, -466054.88, -5345.8086, 0.0022333309, 0.1445225, -383800.25, -42993.45, 0.0, 10.000159, 9.999073 
1.494969e+3, 2.7522385e+2, -250337.73, -344417.38, 2988.5967, -0.013947541, 0.114052564, -250242.9, -7425.9536, 0.0, 10.000378, 9.99913 
1.4949572e+3, 2.8522256e+2, -196377.61, -310518.7, 10489.486, -0.009961055, 0.09540409, -195421.64, -50592.58, 0.0, 10.000259, 9.998748 
1.494946e+3, 2.9522124e+2, -164868.22, -247092.66, 1882.0559, 0.015244588, 0.08050101, -164825.16, -117982.77, 0.0, 9.999812, 9.998725 
1.4949346e+3, 3.0522072e+2, -103950.71, -162439.19, -11897.906, 0.045649543, 0.15254074, -101623.03, -101623.03, 0.0, 9.999768, 9.998993 
1.4949226e+3, 3.1522e+2, -24112.447, -72729.586, -22647.87, 0.019426897, 0.16380413, -15197.04, -15197.04, 0.0, 10.000095, 9.999452 
1.5051489e+3, 1.2524864e+2, -1748790.5, -1794558.3, -53142.492, 0.017418295, 0.14794454, -1713814.3, -1241.5635, 0.015336017, 10.000042, 9.999432 
1.5051386e+3, 1.3524702e+2, -1535741.0, -1637400.4, 21121.117, 0.13129435, 0.044113457, -1531527.4, 83060.3, 0.009162785, 10.000821, 9.999463 
1.505125e+3, 1.4524725e+2, -1438385.4, -1595714.8, -73.902016, -0.082383, 0.14507948, -1438385.3, 78200.64, 0.0040015904, 10.001055, 9.9989605 
1.5051138e+3, 1.5524547e+2, -1376033.4, -1512366.9, -12820.367, 0.0073825005, 0.068008766, -1374838.3, 43766.54, 0.001031135, 10.000796, 9.998984 
1.5051016e+3, 1.6524464e+2, -1271551.3, -1362061.6, -40625.12, 0.013953093, 0.06850366, -1255991.8, 64620.906, 0.000096309515, 10.0006275, 9.999425 
1.5050888e+3, 1.7524481e+2, -1184872.3, -1264574.1, -53689.953, -0.045011915, 0.13395569, -1157859.9, 64749.71, 0.000000575819, 10.00053, 9.999468 
1.5050766e+3, 1.8524384e+2, -1168051.5, -1294542.3, -33463.5, -0.0338679, 0.13413772, -1159744.3, -35124.824, 0.0, 10.000355, 9.998673 
1.5050651e+3, 1.9524191e+2, -1098605.5, -1202688.8, -7077.915, 0.036443874, 0.066516295, -1098126.4, -71485.94, 0.0, 10.000126, 9.998742 
1.505053e+3, 2.0524098e+2, -952071.1, -1015493.56, -12515.2705, 0.03701188, 0.071124494, -949690.8, -21040.553, 0.0, 10.0001745, 9.999332 
1.50504e+3, 2.15241e+2, -807668.1, -889536.3, -22357.818, -0.024989378, 0.13359714, -801960.25, 28688.969, 0.0, 10.000469, 9.999382 
1.5050279e+3, 2.2524019e+2, -725604.06, -834470.75, -5001.0137, -0.0255438, 0.1325039, -725374.8, 7281.725, 0.0, 10.000512, 9.999066 
1.5050165e+3, 2.3523864e+2, -651312.4, -742157.2, -4965.804, 0.028927114, 0.06575541, -651041.75, -16370.912, 0.0, 10.000324, 9.999118 
1.505005e+3, 2.4523777e+2, -587415.1, -677740.7, -6961.904, 0.049060386, 0.0757427, -586881.7, -50201.34, 0.0, 10.000164, 9.998963 
1.504993e+3, 2.552375e+2, -504175.47, -580473.94, -12058.775, 0.037001483, 0.14663784, -502314.97, -63630.043, 0.0, 10.000035, 9.999021 
1.504981e+3, 2.652367e+2, -411497.78, -470397.66, -6598.9243, 0.019462822, 0.15899056, -410767.53, -70074.59, 0.0, 9.999936, 9.99915 
1.5049691e+3, 2.752354e+2, -320230.4, -369540.8, -12712.968, -0.003909135, 0.10999978, -317145.75, -74442.45, 0.0, 9.999863, 9.999205 
1.5049575e+3, 2.852342e+2, -237053.95, -326055.38, -8808.8, -0.006511644, 0.09297639, -236190.48, -91476.23, 0.0, 9.999964, 9.998782 
1.5049459e+3, 2.9523316e+2, -102562.52, -213415.88, -2632.9084, 0.012825734, 0.10094325, -102500.02, -55775.105, 0.0, 10.000226, 9.998757 
1.5049346e+3, 3.0523205e+2, -37870.207, -143246.67, 5317.5225, 0.038898442, 0.118466474, -37602.555, -37602.555, 0.0, 10.0002775, 9.99888 
1.5049228e+3, 3.1523138e+2, -29639.91, -96691.64, 1235.871, 0.03623611, 0.14655963, -29617.139, -29617.139, 0.0, 10.000148, 9.999263 
1.5151493e+3, 1.252604e+2, -1725178.6, -1748331.4, -37310.15, 0.042433873, 0.17319404, -1697690.1, 14768.357, 0.01625663, 10.000053, 9.999744 
1.5151393e+3, 1.3525827e+2, -1520378.8, -1604990.1, 48909.59, 0.13636069, -0.005868521, -1498016.6, 116460.08, 0.0097409645, 10.000819, 9.999689 
1.5151262e+3, 1.4525856e+2, -1448205.5, -1615074.5, -11395.371, -0.075301915, 0.09854378, -1447431.0, 69043.28, 0.0042781597, 10.001049, 9.998831 
1.5151148e+3, 1.5525773e+2, -1385288.9, -1531601.4, -22542.938, 0.0035569356, 0.12935211, -1381894.4, 36590.8, 0.0011151112, 10.000795, 9.998854 
1.5151024e+3, 1.6525672e+2, -1298799.3, -1419509.1, -45580.832, 0.015393912, 0.13700922, -1283521.4, 36974.81, 0.000106548556, 10.00063, 9.99903 
1.5150894e+3, 1.752556e+2, -1210298.8, -1318471.8, -57448.9, -0.016112115, 0.11405707, -1185482.0, 37024.563, 0.0000007145684, 10.000533, 9.999097 
1.5150772e+3, 1.8525465e+2, -1118707.4, -1192833.1, -42893.375, -0.011897309, 0.098029576, -1099082.5, 25432.531, 0.0, 10.000357, 9.9993725 
1.5150651e+3, 1.9525394e+2, -1050503.8, -1104373.5, -15416.8545, 0.017725345, 0.081276014, -1046403.75, -19882.504, 0.0, 10.000131, 9.999416 
1.5150529e+3, 2.0525318e+2, -970607.6, -1054662.9, -2451.407, 0.022436835, 0.086222984, -970536.2, -42007.64, 0.0, 10.000175, 9.9990635 
1.5150408e+3, 2.152525e+2, -826375.5, -928069.7, -11592.554, 0.007904611, 0.10384996, -825070.75, 5465.392, 0.0, 10.000466, 9.999119 
1.5150286e+3, 2.2525163e+2, -724384.1, -830658.9, -12667.042, -0.0065872106, 0.109439015, -722895.2, 9649.46, 0.0, 10.000505, 9.999097 
1.5150164e+3, 2.3525065e+2, -649477.75, -738524.75, -11273.879, -0.021775901, 0.09533008, -648072.6, -13519.139, 0.0, 10.000324, 9.999144 
1.5150045e+3, 2.4524978e+2, -593720.44, -691173.75, -11704.574, -0.008117065, 0.108433954, -592334.4, -55771.61, 0.0, 10.000164, 9.998872 
1.5149929e+3, 2.55249e+2, -510596.38, -593347.5, -15687.477, 0.03164857, 0.13805364, -507722.25, -69150.305, 0.0, 10.000031, 9.998935 
1.5149814e+3, 2.6524794e+2, -419472.38, -486399.47, -8509.044, 0.05073856, 0.13741554, -418407.5, -77825.3, 0.0, 9.999933, 9.9990425 
1.5149696e+3, 2.752467e+2, -328417.47, -385521.1, -13309.308, 0.050069105, 0.10053597, -325467.78, -82874.82, 0.0, 9.999858, 9.999098 
1.5149577e+3, 2.8524572e+2, -219116.78, -288815.63, 1581.7262, 0.026978958, 0.097756006, -219080.9, -74479.4, 0.0, 9.999963, 9.99904 
1.5149459e+3, 2.952451e+2, -84174.06, -176338.42, 8661.21, -0.012867563, 0.12551995, -83367.18, -36760.477, 0.0, 10.00023, 9.999011 
1.5149346e+3, 3.052433e+2, -36523.266, -143081.89, 1464.6931, 0.010846625, 0.060207117, -36503.137, -36503.137, 0.0, 10.000287, 9.9988785 
1.5149234e+3, 3.152424e+2, -20223.584, -75948.13, 1128.4459, 0.08056092, 0.063724436, -20200.742, -20200.742, 0.0, 10.000141, 9.999409 
1.52515e+3, 1.2527138e+2, -1575908.8, -1671382.8, -45922.766, 0.045065362, 0.13522483, -1557405.9, 154944.83, 0.017243471, 10.001076, 9.9997835 
1.5251401e+3, 1.3526985e+2, -1544671.6, -1617519.8, 30877.568, 0.12751104, 0.01435195, -1533345.0, 81019.14, 0.010359546, 10.000653, 9.999682 
1.5251271e+3, 1.4527023e+2, -1511553.1, -1632094.1, -35350.27, -0.07117903, 0.12112941, -1501951.1, 14409.828, 0.0045741852, 10.000552, 9.998955 
1.5251155e+3, 1.5526941e+2, -1392732.1, -1520924.3, -29278.79, 0.0040725046, 0.13958481, -1386361.5, 32009.688, 0.0012060112, 10.000683, 9.998981 
1.525103e+3, 1.652683e+2, -1298650.4, -1429429.3, -32694.291, 0.018453827, 0.13592577, -1290932.4, 29450.715, 0.000118081814, 10.000677, 9.998939 
1.5250902e+3, 1.7526697e+2, -1210754.5, -1328537.6, -23964.623, -0.0052322727, 0.1017756, -1206065.3, 16330.672, 0.0000008766353, 10.000574, 9.999008 
1.5250777e+3, 1.8526609e+2, -1088678.6, -1165284.3, -21785.066, -0.006339423, 0.09220386, -1082916.8, 41486.78, 0.0, 10.000505, 9.99949 
1.5250653e+3, 1.9526573e+2, -993696.3, -1064240.6, -37311.73, 0.0049309633, 0.0995495, -977623.7, 48782.047, 0.0, 10.000466, 9.99953 
1.5250532e+3, 2.0526502e+2, -941204.06, -1048847.0, -27838.19, 0.012189307, 0.10536084, -934430.9, -6018.1587, 0.0, 10.000416, 9.998986 
1.5250413e+3, 2.1526404e+2, -846935.94, -946919.1, -24830.615, 0.0184752, 0.10246477, -841108.94, -10685.44, 0.0, 10.000365, 9.999039 
1.5250291e+3, 2.2526318e+2, -755993.94, -840878.06, -28333.404, 0.006647189, 0.11085131, -747405.5, -14973.393, 0.0, 10.000268, 9.99914 
1.5250166e+3, 2.352625e+2, -675248.2, -745942.44, -27500.705, -0.023694973, 0.120717324, -665810.2, -31371.945, 0.0, 10.000128, 9.9991865 
1.5250047e+3, 2.4526155e+2, -594805.1, -686180.0, -15615.108, -0.017245073, 0.12399632, -592210.4, -55762.87, 0.0, 10.000135, 9.9989195 
1.524993e+3, 2.5526044e+2, -472479.16, -570156.1, -10714.953, 0.022729298, 0.11401616, -471317.56, -32858.668, 0.0, 10.000275, 9.998977 
1.5249813e+3, 2.652593e+2, -377114.22, -470512.4, -737.23425, 0.048360586, 0.10448453, -377108.4, -36638.742, 0.0, 10.000245, 9.9990015 
1.5249696e+3, 2.7525818e+2, -302318.25, -377622.25, -1937.2711, 0.059945315, 0.08450182, -302268.44, -59788.92, 0.0, 10.000058, 9.999056 
1.5249579e+3, 2.8525728e+2, -237663.02, -304693.6, 10298.548, 0.041759323, 0.09631176, -236116.44, -91628.766, 0.0, 9.999867, 9.998977 
1.5249461e+3, 2.9525673e+2, -168119.78, -222635.08, -8641.519, -0.0014212551, 0.13895, -166782.77, -120290.12, 0.0, 9.9996805, 9.998957 
1.5249346e+3, 3.0525458e+2, -110518.51, -165479.67, -20981.62, 0.01408299, 0.03118786, -103424.375, -103424.375, 0.0, 9.999725, 9.998994 
1.5249237e+3, 3.1525388e+2, -17740.904, -31329.867, -11078.962, 0.09750047, 0.047230948, -11538.91, -11538.91, 0.0, 9.999974, 9.999796 
1.5351507e+3, 1.2528177e+2, -1594411.4, -1707891.1, -74556.49, 0.026403671, 0.040534064, -1557459.8, 154788.1, 0.018292114, 10.001065, 9.999538 
1.5351406e+3, 1.3528182e+2, -1560868.0, -1653390.6, 16331.915, 0.10259949, 0.1016816, -1558069.8, 56179.61, 0.011016453, 10.00066, 9.9994335 
1.5351276e+3, 1.4528225e+2, -1483820.6, -1576204.1, -31470.2, -0.07319104, 0.21014377, -1474119.1, 42126.453, 0.0048880493, 10.000561, 9.999335 
1.5351161e+3, 1.5528055e+2, -1366087.1, -1465413.5, -24965.285, 0.0050568166, 0.10004277, -1360165.3, 58096.867, 0.0013030368, 10.000682, 9.999363 
1.5351038e+3, 1.6527943e+2, -1285574.8, -1403036.8, -37986.363, 0.01783655, 0.06833522, -1274360.8, 45911.984, 0.00013086536, 10.000678, 9.999121 
1.5350907e+3, 1.7527893e+2, -1198096.1, -1304166.6, -27957.787, -0.013179188, 0.09769793, -1191178.3, 31099.271, 0.0000010420176, 10.00058, 9.999174 
1.535078e+3, 1.8527819e+2, -1119218.1, -1229612.3, -24430.855, -0.018680964, 0.11658572, -1114053.1, 10231.732, 0.0, 10.000508, 9.999048 
1.5350656e+3, 1.9527735e+2, -1024069.4, -1127391.0, -38787.03, -0.005152768, 0.12057566, -1011129.3, 15164.269, 0.0, 10.000465, 9.999097 
1.5350534e+3, 2.0527647e+2, -934735.2, -1035352.5, -30510.297, 0.0018907435, 0.12763496, -926206.44, 2096.063, 0.0, 10.000414, 9.999082 
1.5350415e+3, 2.1527565e+2, -840191.6, -933399.44, -26285.89, 0.005379378, 0.12902263, -833289.7, -2978.6355, 0.0, 10.000365, 9.999132 
1.5350294e+3, 2.2527486e+2, -752744.3, -834132.9, -34079.395, 0.012078854, 0.13679087, -740359.1, -8040.366, 0.0, 10.000267, 9.999188 
1.5350172e+3, 2.3527415e+2, -672038.7, -738879.4, -31672.084, 0.020938646, 0.14196183, -659415.1, -25090.066, 0.0, 10.000124, 9.999237 
1.5350051e+3, 2.452731e+2, -582831.0, -660486.7, -10268.118, 0.018900555, 0.122297324, -581496.2, -45161.727, 0.0, 10.000131, 9.999099 
1.5349932e+3, 2.552718e+2, -460800.9, -546093.3, -4230.226, 0.008096582, 0.07505542, -460591.6, -22245.771, 0.0, 10.000275, 9.999143 
1.5349811e+3, 2.6527068e+2, -374669.6, -466386.63, -6932.698, 0.008826457, 0.05999547, -374148.53, -33793.14, 0.0, 10.000247, 9.999029 
1.5349692e+3, 2.752698e+2, -300611.5, -374803.9, -7134.7837, 0.020081207, 0.059547074, -299931.6, -57568.395, 0.0, 10.00006, 9.999076 
1.5349576e+3, 2.8526887e+2, -266432.56, -364258.56, 4131.8545, 0.032842357, 0.086809374, -266258.38, -121885.34, 0.0, 9.999866, 9.998569 
1.5349461e+3, 2.9526806e+2, -196491.39, -280045.0, -13319.485, 0.046000544, 0.1447244, -194419.48, -148036.77, 0.0, 9.999674, 9.998567 
1.5349346e+3, 3.0526584e+2, -93410.805, -129621.69, -10922.666, 0.048028428, 0.034902614, -90371.23, -90371.23, 0.0, 9.999721, 9.999243 
1.5349235e+3, 3.1526557e+2, 29218.629, 65962.15, 5546.397, 0.073407866, 0.06963106, 66781.12, 66781.12, 0.0, 9.999973, 10.000464 
1.5451518e+3, 1.2529346e+2, -1672482.0, -1761061.4, -63944.25, 0.046573084, 0.046846576, -1638987.0, 73146.35, 0.019402182, 10.000588, 9.999402 
1.545141e+3, 1.3529338e+2, -1534525.1, -1657794.5, 46217.977, 0.080014706, 0.11280983, -1519121.4, 95015.82, 0.011713042, 10.00092, 9.999278 
1.5451282e+3, 1.452937e+2, -1415479.6, -1529975.8, -8155.3057, -0.08417919, 0.21026923, -1414901.6, 101233.17, 0.005220401, 10.0009775, 9.999451 
1.5451168e+3, 1.5529212e+2, -1345977.3, -1441975.6, -23084.506, -0.0019410508, 0.10242388, -1340714.6, 77434.43, 0.0014059248, 10.000762, 9.999486 
1.5451044e+3, 1.6529116e+2, -1279277.4, -1394104.5, -47795.652, 0.013484998, 0.07538075, -1261986.6, 58171.543, 0.00014487762, 10.000695, 9.999174 
1.5450913e+3, 1.7529078e+2, -1167826.8, -1284551.3, -48084.145, -0.0141436905, 0.11186052, -1150570.0, 71591.914, 0.000001197513, 10.000766, 9.999219 
1.5450786e+3, 1.8529001e+2, -1103058.9, -1243528.8, -42748.008, -0.017703941, 0.13561112, -1091072.5, 33097.47, 0.0, 10.000715, 9.998852 
1.5450661e+3, 1.95289e+2, -1023315.44, -1148244.0, -40407.63, -0.006592932, 0.14248388, -1011385.06, 14795.96, 0.0, 10.000564, 9.998906 
1.5450539e+3, 2.0528801e+2, -937820.1, -1029553.94, -25632.137, -0.00086282415, 0.14434882, -931143.94, -2953.0625, 0.0, 10.000362, 9.9991455 
1.5450418e+3, 2.1528712e+2, -870839.1, -940970.06, -24590.053, 0.0019028801, 0.13368203, -863076.4, -32877.457, 0.0, 10.000126, 9.999194 
1.5450297e+3, 2.2528628e+2, -777558.75, -847938.7, -29793.33, 0.014624454, 0.13332112, -766640.4, -34433.527, 0.0, 10.000106, 9.99917 
1.5450175e+3, 2.352855e+2, -650511.6, -730617.0, -33607.426, 0.035248477, 0.13387746, -638279.7, -4065.5156, 0.0, 10.000282, 9.999218 
1.5450054e+3, 2.4528453e+2, -557186.56, -633955.0, -18296.342, 0.033536598, 0.11715502, -553048.94, -16826.383, 0.0, 10.000247, 9.999225 
1.5449932e+3, 2.5528345e+2, -488972.28, -546135.6, -18102.715, 0.011296097, 0.079200596, -483721.72, -45490.727, 0.0, 10.000024, 9.999263 
1.5449813e+3, 2.652824e+2, -429364.9, -502401.97, -28310.28, 0.00789538, 0.065781586, -419676.56, -79436.35, 0.0, 9.999915, 9.998941 
1.5449692e+3, 2.7528134e+2, -328399.88, -397997.8, -38517.62, 0.021763502, 0.060094252, -311289.53, -69039.45, 0.0, 9.999913, 9.998986 
1.5449575e+3, 2.852803e+2, -255573.88, -360589.3, -13992.76, 0.037427384, 0.08074164, -253741.39, -109480.164, 0.0, 9.999949, 9.998553 
1.544946e+3, 2.952794e+2, -150136.0, -259467.39, -3986.0574, 0.054831516, 0.13183992, -149990.86, -103719.33, 0.0, 10.000001, 9.99855 
1.5449345e+3, 3.052773e+2, -82884.22, -136082.92, 712.78186, 0.051203724, 0.039824747, -82874.67, -82874.67, 0.0, 9.999846, 9.999137 
1.544923e+3, 3.1527707e+2, -17861.758, 75064.98, -7717.9927, 0.06865449, 0.0915014, 75701.625, 75701.625, 0.0, 9.9995165, 10.000747 
1.555153e+3, 1.2530649e+2, -1674954.6, -1765385.1, -67592.42, 0.103670724, 0.15549041, -1638848.5, 73158.28, 0.020579461, 10.0005865, 9.9993725 
1.5551417e+3, 1.3530466e+2, -1538986.4, -1667397.0, 57914.996, 0.056931168, 0.050815266, -1516725.1, 97301.695, 0.012454377, 10.000923, 9.999211 
1.5551288e+3, 1.4530464e+2, -1425084.4, -1551866.9, -17493.643, -0.10753805, 0.12683731, -1422714.8, 93312.9, 0.005574592, 10.000982, 9.999299 
1.5551174e+3, 1.553042e+2, -1354842.4, -1462670.5, -31044.006, -0.01995463, 0.1456355, -1346543.4, 71488.36, 0.001515748, 10.000769, 9.999342 
1.555105e+3, 1.6530348e+2, -1283520.1, -1403659.9, -46420.06, 0.0022535876, 0.15441224, -1267674.3, 52364.75, 0.00016035176, 10.000697, 9.999107 
1.555092e+3, 1.7530254e+2, -1173227.3, -1294968.8, -45753.836, -0.0114197675, 0.14250784, -1157949.0, 64099.453, 0.0000013687348, 10.000762, 9.999149 
1.5550795e+3, 1.8530159e+2, -1101400.3, -1239697.3, -49259.57, -0.009270973, 0.14935178, -1085648.6, 38409.734, 0.0, 10.000711, 9.99888 
1.5550667e+3, 1.953007e+2, -1020394.9, -1143519.3, -45837.508, -0.00086914253, 0.1663692, -1005204.3, 20863.463, 0.0, 10.000567, 9.998938 
1.5550542e+3, 2.0529963e+2, -935490.75, -1025578.0, -35229.254, 0.002508797, 0.1566538, -923350.2, 4727.3823, 0.0, 10.000365, 9.999172 
1.5550418e+3, 2.1529847e+2, -869817.6, -938253.56, -32786.836, 0.005022604, 0.11636553, -856645.25, -26558.275, 0.0, 10.000122, 9.999216 
1.5550296e+3, 2.2529744e+2, -783963.8, -860603.56, -23580.0, 0.01019161, 0.09992033, -777290.0, -45193.52, 0.0, 10.000101, 9.999085 
1.5550175e+3, 2.3529655e+2, -656337.44, -743237.9, -26310.578, 0.017693374, 0.09659538, -648992.3, -14886.724, 0.0, 10.000282, 9.999132 
1.5550056e+3, 2.4529585e+2, -552821.8, -625092.75, -26188.63, 0.023816843, 0.10843647, -544329.75, -8218.042, 0.0, 10.000247, 9.999287 
1.5549935e+3, 2.5529537e+2, -485162.47, -538349.44, -24872.79, 0.028936012, 0.12541634, -475343.47, -37228.92, 0.0, 10.000023, 9.999317 
1.5549816e+3, 2.652943e+2, -443803.47, -532195.4, -27683.281, 0.04308909, 0.121601164, -435849.2, -95724.805, 0.0, 9.999913, 9.998739 
1.5549695e+3, 2.752928e+2, -342198.47, -427172.1, -36367.12, 0.06379623, 0.08917402, -328759.47, -86619.33, 0.0, 9.999914, 9.998787 
1.5549576e+3, 2.8529152e+2, -228215.95, -304584.8, -10780.379, 0.05270418, 0.07935804, -226723.34, -82570.97, 0.0, 9.999951, 9.998938 
1.5549457e+3, 2.952907e+2, -124196.05, -206514.34, -287.74954, 0.015843133, 0.09435796, -124195.04, -78035.37, 0.0, 10.000003, 9.998914 
1.554934e+3, 3.0528888e+2, -118669.7, -210379.0, -10753.01, 0.014613375, 0.041047797, -117425.77, -117425.77, 0.0, 9.999845, 9.998629 
1.5549228e+3, 3.1528822e+2, -28400.03, 52958.0, -12049.563, 0.07860372, 0.09857441, 54705.086, 54705.086, 0.0, 9.9995165, 10.000596 
1.5651532e+3, 1.2531844e+2, -1618480.0, -1739199.0, -83021.766, 0.059509072, 0.18137409, -1576195.0, 135695.86, 0.02183582, 10.000989, 9.99936 
1.5651429e+3, 1.353164e+2, -1505902.9, -1658362.9, 51504.887, 0.059242465, 0.06298791, -1490134.1, 123778.35, 0.013248415, 10.001183, 9.999149 
1.5651304e+3, 1.453163e+2, -1406411.3, -1547714.5, -37444.066, -0.06887128, 0.13434242, -1397102.1, 118812.3, 0.0059555885, 10.001134, 9.999254 
1.565118e+3, 1.55316e+2, -1342661.9, -1460968.5, -45193.586, -0.027653163, 0.17093962, -1327373.5, 90544.125, 0.0016345053, 10.000873, 9.999302 
1.5651055e+3, 1.6531524e+2, -1289145.5, -1410861.0, -48066.273, -0.013804141, 0.18186471, -1272453.1, 47472.047, 0.00017771397, 10.000682, 9.999064 
1.565093e+3, 1.7531416e+2, -1207348.6, -1315718.6, -46969.844, 0.00062025053, 0.15959454, -1189824.6, 32111.33, 0.0000016137079, 10.000549, 9.999108 
1.5650801e+3, 1.8531314e+2, -1122560.9, -1241457.8, -46263.973, 0.0122375265, 0.15764198, -1106680.3, 17266.014, 0.0, 10.000531, 9.998955 
1.5650675e+3, 1.9531228e+2, -1006418.94, -1128716.6, -41383.996, 0.012037594, 0.16804834, -993731.3, 32223.73, 0.0, 10.000629, 9.999008 
1.5650547e+3, 2.0531121e+2, -902004.8, -1007376.06, -36104.434, 0.0036717434, 0.15445152, -890821.0, 37143.383, 0.0, 10.0005865, 9.99919 
1.565042e+3, 2.1531004e+2, -826115.5, -915744.0, -35013.7, -0.008573088, 0.11257927, -814059.06, 15914.441, 0.0, 10.000417, 9.9992285 
1.5650296e+3, 2.2530897e+2, -762474.4, -851394.7, -14382.059, -0.004891299, 0.09476224, -760206.1, -28223.078, 0.0, 10.000257, 9.999073 
1.5650177e+3, 2.3530808e+2, -682719.2, -757159.5, -14076.896, 0.011794481, 0.090395726, -680146.1, -46153.887, 0.0, 10.000109, 9.999119 
1.5650058e+3, 2.4530736e+2, -584005.2, -640255.3, -18107.223, 0.025063451, 0.101994656, -578680.44, -42681.844, 0.0, 10.000034, 9.999285 
1.5649937e+3, 2.553069e+2, -484959.06, -538583.6, -22444.766, 0.036014654, 0.119345166, -476804.7, -38803.03, 0.0, 10.000028, 9.999312 
1.5649816e+3, 2.653059e+2, -431518.94, -528053.6, -16152.605, 0.05249313, 0.1241876, -428887.9, -88876.72, 0.0, 10.000007, 9.998722 
1.5649696e+3, 2.7530453e+2, -336769.9, -426165.47, -12297.002, 0.07279268, 0.10752742, -335109.2, -93083.15, 0.0, 9.99996, 9.998771 
1.5649576e+3, 2.8530326e+2, -236139.38, -292331.66, 9543.6875, 0.060245313, 0.08952583, -234562.7, -90524.53, 0.0, 9.999828, 9.999081 
1.5649456e+3, 2.9530227e+2, -169542.86, -212837.03, 448.29233, 0.019523978, 0.07569001, -169538.22, -123492.36, 0.0, 9.999627, 9.99905 
1.5649337e+3, 3.0530077e+2, -182881.48, -269690.8, -10448.777, 0.020546744, 0.06288252, -181641.53, -181641.53, 0.0, 9.999526, 9.998375 
1.5649222e+3, 3.1529963e+2, -40100.81, 33984.188, 8880.069, 0.08111782, 0.09642378, 35033.715, 35033.715, 0.0, 9.999492, 10.000478 
1.5751529e+3, 1.2532945e+2, -1617813.8, -1740894.1, -88585.305, -0.07967886, 0.13133977, -1571490.4, 140293.9, 0.023184983, 10.001001, 9.999344 
1.5751442e+3, 1.353287e+2, -1510488.5, -1668619.5, 58298.742, 0.0820423, 0.14629062, -1491319.1, 122474.62, 0.014104312, 10.0011835, 9.99908 
1.5751325e+3, 1.4532867e+2, -1404251.3, -1541789.5, -48684.098, 0.024941439, 0.22898293, -1388762.9, 127032.05, 0.006368667, 10.001127, 9.999299 
1.5751189e+3, 1.5532756e+2, -1339547.9, -1454386.3, -54542.074, -0.02787843, 0.17831624, -1317772.4, 100033.72, 0.00176415, 10.000872, 9.999349 
1.5751058e+3, 1.6532654e+2, -1289757.5, -1413524.1, -53723.406, -0.038814776, 0.1609839, -1269691.1, 50124.76, 0.00019721544, 10.000686, 9.999044 
1.5750936e+3, 1.7532568e+2, -1207953.9, -1318719.9, -51374.5, 0.01990704, 0.16398978, -1187794.8, 34029.33, 0.0000019795527, 10.000555, 9.999085 
1.575081e+3, 1.853247e+2, -1114833.6, -1226326.6, -43208.113, 0.0447662, 0.16072793, -1100049.3, 23784.219, 0.0, 10.000533, 9.999058 
1.5750682e+3, 1.9532369e+2, -1000060.56, -1115064.8, -37873.832, 0.02846493, 0.14694639, -988708.4, 37134.55, 0.0, 10.000627, 9.9991045 
1.5750553e+3, 2.0532271e+2, -901904.6, -1006331.0, -42875.01, -0.0020899966, 0.13742028, -886556.8, 41294.57, 0.0, 10.000581, 9.9992 
1.5750422e+3, 2.1532182e+2, -825569.75, -914761.0, -40550.836, -0.040221363, 0.122368306, -809889.8, 19968.604, 0.0, 10.000415, 9.999236 
1.5750296e+3, 2.2532092e+2, -759598.25, -845580.06, -19988.084, -0.032104943, 0.117893524, -755178.8, -23312.441, 0.0, 10.000256, 9.999115 
1.575018e+3, 2.3532006e+2, -680034.1, -751576.8, -18642.188, 0.015256615, 0.1146631, -675467.9, -41593.508, 0.0, 10.000107, 9.999159 
1.5750058e+3, 2.4531904e+2, -588465.2, -649466.94, -17954.264, 0.03486363, 0.09732729, -583573.1, -47689.72, 0.0, 10.000032, 9.999223 
1.5749936e+3, 2.55318e+2, -489186.53, -547585.0, -21123.398, 0.029710166, 0.06169904, -482347.0, -44454.547, 0.0, 10.000027, 9.999252 
1.5749814e+3, 2.6531714e+2, -419912.25, -504241.28, -16587.408, 0.032411203, 0.07271973, -416766.84, -76866.055, 0.0, 10.000007, 9.998886 
1.5749693e+3, 2.7531648e+2, -325022.22, -403038.88, -12097.785, 0.043108016, 0.11061549, -323189.3, -81280.8, 0.0, 9.999964, 9.998929 
1.5749574e+3, 2.8531533e+2, -243466.36, -308334.6, 2943.4343, 0.055328317, 0.10843953, -243333.08, -99413.87, 0.0, 9.99983, 9.998971 
1.5749457e+3, 2.953141e+2, -176123.6, -227920.9, -4768.605, 0.06524862, 0.0806544, -175688.25, -129758.13, 0.0, 9.999631, 9.998946 
1.5749335e+3, 3.05313e+2, -181720.31, -267535.97, -10504.161, 0.06753383, 0.10888784, -180453.27, -180453.27, 0.0, 9.999526, 9.99839 
1.5749215e+3, 3.1531122e+2, -46511.72, 20285.998, 13943.294, 0.060690105, 0.0785021, 23079.668, 23079.668, 0.0, 9.999492, 10.000383 
1.5851542e+3, 1.2534139e+2, -1519402.6, -1687460.3, -68631.84, -0.06471689, 0.1244684, -1494936.4, 216730.78, 0.024637632, 10.001677, 9.999382 
1.5851448e+3, 1.3534056e+2, -1554751.5, -1696277.4, 86422.71, 0.046767555, 0.13648804, -1513817.3, 99859.67, 0.01502948, 10.000907, 9.999021 
1.5851334e+3, 1.4534041e+2, -1479702.0, -1582229.0, -13324.302, 0.031027583, 0.2117681, -1477998.8, 37680.727, 0.0068178168, 10.0006275, 9.99926 
1.58512e+3, 1.5533938e+2, -1357453.8, -1466534.3, -27352.594, -0.0082353065, 0.17323951, -1350979.3, 66711.23, 0.0019058621, 10.000767, 9.999313 
1.5851068e+3, 1.6533838e+2, -1263307.6, -1398197.3, -26100.088, -0.02284329, 0.15910001, -1258433.6, 61266.516, 0.0002187055, 10.000858, 9.999066 
1.5850943e+3, 1.753375e+2, -1152359.5, -1289634.1, -22269.477, 0.021833021, 0.15663916, -1148837.1, 72870.86, 0.000002466339, 10.000929, 9.9991045 
1.5850817e+3, 1.8533647e+2, -1080417.4, -1208171.3, -19903.186, 0.042468093, 0.14904943, -1077388.4, 46329.008, 0.0, 10.000766, 9.99907 
1.5850687e+3, 1.9533543e+2, -1033100.8, -1129815.6, -21898.3, 0.027453473, 0.13290592, -1028373.6, -2646.573, 0.0, 10.000397, 9.999112 
1.5850556e+3, 2.0533451e+2, -953648.44, -1037342.25, -28880.672, 0.00024774164, 0.13178274, -944649.94, -16914.553, 0.0, 10.000256, 9.999143 
1.5850425e+3, 2.1533376e+2, -843632.3, -929548.75, -33888.934, -0.032337837, 0.13456906, -831874.25, -2132.2537, 0.0, 10.0003195, 9.999179 
1.58503e+3, 2.2533289e+2, -758477.44, -840927.7, -19697.682, -0.024345586, 0.13411142, -754013.3, -22263.65, 0.0, 10.000246, 9.999151 
1.5850179e+3, 2.3533198e+2, -685490.1, -750557.75, -19034.049, 0.017940618, 0.123035476, -680331.1, -46573.637, 0.0, 10.000055, 9.99919 
1.5850058e+3, 2.4533087e+2, -604890.7, -667674.56, -13427.615, 0.037036832, 0.09876191, -602139.5, -66371.91, 0.0, 9.999967, 9.999128 
1.5849936e+3, 2.5532964e+2, -504562.56, -564861.56, -21126.795, 0.034472752, 0.057424225, -497897.22, -60118.523, 0.0, 9.999966, 9.999162 
1.5849814e+3, 2.6532885e+2, -422698.78, -484037.4, -19045.582, 0.032575015, 0.06957153, -417266.28, -77480.09, 0.0, 9.999896, 9.999078 
1.584969e+3, 2.7532846e+2, -341311.03, -389861.25, -13780.205, 0.03373077, 0.11483944, -337672.44, -95882.016, 0.0, 9.999764, 9.999114 
1.5849571e+3, 2.853274e+2, -266206.38, -326696.56, 4261.018, 0.048517693, 0.1102438, -265907.7, -122106.82, 0.0, 9.999709, 9.998902 
1.5849453e+3, 2.9532596e+2, -169443.56, -231081.83, -2355.5242, 0.07097521, 0.072197326, -169353.69, -123539.3, 0.0, 9.999707, 9.998886 
1.5849334e+3, 3.0532527e+2, -156011.97, -228224.5, 2038.1411, 0.08356247, 0.13152385, -155954.5, -155954.5, 0.0, 9.999589, 9.998629 
1.5849209e+3, 3.1532332e+2, -66084.86, 11132.254, 42302.707, 0.054563224, 0.06565962, 29796.201, 29796.201, 0.0, 9.999359, 10.000382 
1.5951575e+3, 1.2535433e+2, -1517628.6, -1679844.5, -106875.695, 0.09214389, 0.16467848, -1464569.0, 246969.9, 0.026202215, 10.001658, 9.999448 
1.5951449e+3, 1.3535205e+2, -1557310.5, -1704559.1, 59089.54, -0.04630081, 0.03700162, -1536530.9, 77030.625, 0.016029086, 10.000917, 9.99896 
1.5951332e+3, 1.4535159e+2, -1486537.1, -1599570.5, -9890.201, -0.049749807, 0.088905506, -1485678.3, 29889.092, 0.007305444, 10.000639, 9.999136 
1.595121e+3, 1.5535147e+2, -1365853.3, -1484703.1, -22453.656, 0.02807259, 0.15654027, -1361752.6, 55818.094, 0.002060233, 10.000769, 9.999189 
1.5951082e+3, 1.6535078e+2, -1259895.8, -1391318.3, -24697.963, 0.029230984, 0.17543007, -1255407.6, 64170.184, 0.00024185247, 10.000857, 9.999114 
1.5950951e+3, 1.7534958e+2, -1149528.8, -1283829.6, -20005.162, 0.0030115105, 0.13749729, -1146612.3, 74975.85, 0.0000030340082, 10.000927, 9.9991455 
1.595082e+3, 1.8534848e+2, -1085527.4, -1218752.8, -34467.863, 0.0012373104, 0.12390806, -1077138.1, 46460.117, 0.0, 10.000764, 9.998999 
1.595069e+3, 1.9534758e+2, -1038042.2, -1141106.4, -34740.363, 0.008266946, 0.1263865, -1027425.7, -1818.2179, 0.0, 10.0004, 9.999034 
1.595056e+3, 2.0534666e+2, -963497.06, -1058937.4, -26880.88, 0.009511578, 0.1378108, -956446.8, -28830.473, 0.0, 10.000258, 9.998995 
1.5950432e+3, 2.1534584e+2, -853946.3, -950512.3, -31236.87, 0.010944704, 0.1488537, -844722.9, -15098.529, 0.0, 10.000317, 9.999038 
1.5950306e+3, 2.2534487e+2, -756256.3, -835721.4, -27173.475, 0.014083453, 0.14335777, -747852.9, -16219.778, 0.0, 10.000241, 9.999189 
1.595018e+3, 2.3534384e+2, -683299.0, -746020.9, -24641.805, 0.017120792, 0.11564785, -674776.0, -41134.28, 0.0, 10.000053, 9.999223 
1.5950057e+3, 2.4534282e+2, -615335.56, -689612.06, -12869.797, 0.028661123, 0.10638249, -613168.8, -77517.56, 0.0, 9.999966, 9.99898 
1.5949936e+3, 2.5534183e+2, -513611.5, -584466.75, -19689.69, 0.04767972, 0.10542204, -508507.66, -70846.78, 0.0, 9.999968, 9.999028 
1.5949814e+3, 2.6534107e+2, -407282.7, -452801.34, -23156.107, 0.05128245, 0.11477926, -397573.7, -57905.88, 0.0, 9.999897, 9.999292 
1.5949689e+3, 2.7534053e+2, -326966.5, -360563.0, -16663.328, 0.04107239, 0.12278858, -320103.66, -78431.67, 0.0, 9.999764, 9.999316 
1.5949567e+3, 2.853393e+2, -268086.3, -331143.0, 5432.1475, 0.034708958, 0.09538195, -267621.78, -123938.06, 0.0, 9.999709, 9.998872 
1.5949447e+3, 2.953377e+2, -169622.42, -233273.27, -524.8233, 0.028913511, 0.043732528, -169618.1, -123918.18, 0.0, 9.999713, 9.99887 
1.5949327e+3, 3.0533743e+2, -125089.305, -164074.14, -5665.582, 0.06163266, 0.12610179, -124282.63, -124282.63, 0.0, 9.999588, 9.99907 
1.5949203e+3, 3.1533614e+2, -62139.4, 18231.516, 35132.848, 0.058943063, 0.07812873, 31423.842, 31423.842, 0.0, 9.999363, 10.000431 
1.6051589e+3, 1.2536669e+2, -1616929.4, -1715613.6, -111667.74, 0.10314723, 0.14126383, -1544188.3, 167229.36, 0.027890507, 10.00091, 9.999563 
1.6051458e+3, 1.353648e+2, -1516537.8, -1683696.3, 59781.832, -0.060266808, 0.052906595, -1497358.3, 116077.6, 0.017110147, 10.001199, 9.998967 
1.6051345e+3, 1.4536409e+2, -1419983.5, -1584202.8, -1197.2435, -0.018848903, 0.08824358, -1419974.8, 95469.35, 0.007835286, 10.001176, 9.998981 
1.605122e+3, 1.5536372e+2, -1352585.5, -1494083.1, -16863.957, 0.030106625, 0.14497055, -1350603.4, 66846.836, 0.0022287087, 10.000931, 9.999044 
1.6051088e+3, 1.6536297e+2, -1270992.5, -1390814.6, -17399.668, 0.021037828, 0.1633173, -1268517.0, 50940.84, 0.00026665046, 10.00076, 9.999162 
1.605096e+3, 1.7536192e+2, -1186208.1, -1296520.5, -14583.194, 0.005552571, 0.13450937, -1184312.9, 37153.816, 0.0000036433328, 10.000658, 9.999186 
1.6050828e+3, 1.8536083e+2, -1113871.9, -1249722.4, -36605.91, 0.007913392, 0.12937132, -1104636.1, 18840.912, 0.0, 10.000647, 9.998841 
1.6050696e+3, 1.9535984e+2, -1002690.6, -1141173.3, -44681.76, 0.010235706, 0.13952403, -989525.5, 35962.176, 0.0, 10.000719, 9.9988785 
1.6050564e+3, 2.0535886e+2, -920129.2, -1031365.8, -32516.578, 0.009362171, 0.14764091, -911321.4, 16176.028, 0.0, 10.000529, 9.999052 
1.6050434e+3, 2.1535797e+2, -879745.3, -957174.1, -22042.8, 0.0115352115, 0.14664184, -873909.8, -44404.254, 0.0, 10.000116, 9.999088 
1.6050307e+3, 2.2535694e+2, -794040.44, -863912.94, -8988.82, 0.017869238, 0.1375131, -792902.6, -61387.824, 0.0, 10.000028, 9.999098 
1.6050182e+3, 2.3535587e+2, -666053.0, -748184.3, -19017.982, 0.024387306, 0.11368794, -661863.06, -28338.963, 0.0, 10.000219, 9.999127 
1.6050059e+3, 2.4535485e+2, -583011.0, -677623.9, -10642.757, 0.032314483, 0.11259886, -581828.6, -46294.902, 0.0, 10.000204, 9.998946 
1.6049936e+3, 2.55354e+2, -509718.78, -585854.06, -9984.556, 0.042784523, 0.12383602, -508431.16, -70888.27, 0.0, 10.0000105, 9.998996 
1.6049813e+3, 2.653531e+2, -416845.47, -455208.22, -19193.826, 0.04811808, 0.1267739, -408891.47, -69340.97, 0.0, 9.999826, 9.999308 
1.6049686e+3, 2.7535236e+2, -342735.97, -366440.78, -29399.932, 0.047602434, 0.11254208, -322889.22, -81332.88, 0.0, 9.999651, 9.999329 
1.6049562e+3, 2.8535125e+2, -292960.06, -323877.44, -3931.8042, 0.03735049, 0.087033466, -292467.88, -148901.03, 0.0, 9.999457, 9.9990425 
1.604944e+3, 2.9535007e+2, -227972.52, -241266.64, 3367.796, 0.017116236, 0.058039065, -227168.03, -181588.72, 0.0, 9.9992285, 9.999046 
1.6049321e+3, 3.0534995e+2, -165384.81, -163117.34, 836.4918, 0.05941467, 0.13639767, -162842.16, -162842.16, 0.0, 9.999225, 9.99925 
1.6049197e+3, 3.1534883e+2, -61881.56, 3455.3428, 14319.206, 0.05864269, 0.09347124, 6455.749, 6455.749, 0.0, 9.999432, 10.000295 
1.6151586e+3, 1.2537858e+2, -1605387.0, -1694206.5, -102175.9, -0.026558042, 0.06416201, -1538387.0, 172914.48, 0.029721467, 10.000921, 9.999706 
1.6151476e+3, 1.3537881e+2, -1512327.9, -1676063.6, 68545.68, -0.0010969369, 0.17983744, -1487421.0, 125878.945, 0.018286213, 10.001204, 9.99902 
1.615137e+3, 1.4537793e+2, -1433325.3, -1611531.6, -12814.533, 0.11396205, 0.20479493, -1432408.5, 82901.22, 0.008415702, 10.001172, 9.998796 
1.6151226e+3, 1.5537614e+2, -1364940.4, -1520211.8, -25511.588, -0.004495575, 0.13721111, -1360856.1, 56472.586, 0.0024150638, 10.000932, 9.998865 
1.615109e+3, 1.6537501e+2, -1267400.0, -1384161.5, -22339.105, -0.049248207, 0.12452153, -1263272.0, 56067.773, 0.0002938315, 10.000762, 9.9992075 
1.6150968e+3, 1.7537451e+2, -1183858.9, -1292757.5, -18144.03, 0.027650947, 0.14747538, -1180915.4, 40428.19, 0.000004294035, 10.000661, 9.999211 
1.615084e+3, 1.8537353e+2, -1131588.3, -1286741.1, -34785.71, 0.058551442, 0.16450939, -1124146.1, -792.54694, 0.0, 10.000647, 9.998588 
1.6150704e+3, 1.9537225e+2, -1019722.2, -1176223.0, -42156.98, 0.029150158, 0.17146155, -1009088.8, 16279.068, 0.0, 10.000716, 9.99864 
1.6150567e+3, 2.0537111e+2, -902071.3, -993743.5, -48494.863, -0.004227993, 0.16152881, -881178.8, 46199.8, 0.0, 10.000526, 9.999312 
1.6150433e+3, 2.1537015e+2, -862406.4, -921758.5, -35769.285, -0.031971604, 0.12823473, -845605.44, -16219.782, 0.0, 10.000117, 9.999331 
1.6150305e+3, 2.253691e+2, -811143.1, -900159.4, -1889.5422, -0.015025087, 0.11756517, -811103.0, -79708.33, 0.0, 10.000029, 9.99885 
1.6150185e+3, 2.3536801e+2, -682298.94, -782659.44, -11277.894, 0.037815154, 0.11748749, -681047.2, -47642.38, 0.0, 10.00022, 9.998891 
1.6150062e+3, 2.4536693e+2, -577709.2, -666475.6, -17578.22, 0.04589194, 0.11755999, -574354.94, -38939.645, 0.0, 10.000202, 9.999024 
1.6149934e+3, 2.5536597e+2, -505168.2, -576012.44, -15448.097, 0.015456654, 0.112866335, -501946.16, -64521.043, 0.0, 10.000008, 9.999065 
1.6149807e+3, 2.6536494e+2, -430939.4, -484996.53, -24730.156, 0.018158667, 0.10538751, -421332.97, -81898.164, 0.0, 9.999826, 9.9991045 
1.6149683e+3, 2.753639e+2, -354806.5, -393525.9, -33944.695, 0.05018381, 0.082279906, -335088.84, -93644.54, 0.0, 9.999657, 9.999141 
1.6149558e+3, 2.8536317e+2, -267274.56, -271393.9, -11829.73, 0.05432621, 0.08467346, -257326.53, -113875.42, 0.0, 9.999459, 9.999402 
1.6149433e+3, 2.9536295e+2, -203280.53, -190356.92, -3314.7024, 0.031126998, 0.11764825, -189556.34, -144103.19, 0.0, 9.999228, 9.999397 
1.6149314e+3, 3.0536264e+2, -171236.28, -175705.67, 9198.733, 0.071386956, 0.16440327, -164004.69, -164004.69, 0.0, 9.999226, 9.999165 
1.614919e+3, 3.1536147e+2, -83571.72, -42355.34, 17391.672, 0.04732592, 0.12180625, -35997.48, -35997.48, 0.0, 9.9994335, 9.999979 
1.6251595e+3, 1.2539129e+2, -1540048.3, -1677430.3, -94716.99, -0.04349029, 0.07629105, -1491736.0, 219441.88, 0.031719536, 10.001454, 9.999562 
1.6251487e+3, 1.3539147e+2, -1510270.0, -1689296.0, 49714.42, -0.014458432, 0.20134719, -1497391.1, 115785.83, 0.019575521, 10.00128, 9.99889 
1.6251385e+3, 1.4539024e+2, -1447348.8, -1606002.1, -35679.594, 0.16401383, 0.19273731, -1439694.1, 75495.55, 0.009057564, 10.001024, 9.998904 
1.6251235e+3, 1.5538865e+2, -1376244.1, -1514536.6, -28066.865, 0.0059118145, 0.13453484, -1370765.0, 46440.49, 0.002624381, 10.000809, 9.998961 
1.6251096e+3, 1.6538757e+2, -1282764.3, -1414770.8, -16350.045, -0.054890383, 0.13239498, -1280769.3, 38447.008, 0.00032476612, 10.000759, 9.998998 
1.6250975e+3, 1.7538697e+2, -1170546.1, -1308355.5, -31934.953, 0.033079237, 0.16531071, -1163505.5, 57717.168, 0.000005034694, 10.00085, 9.999012 
1.6250847e+3, 1.8538591e+2, -1112348.0, -1257630.6, -44748.02, 0.0675118, 0.17606826, -1099671.4, 23561.818, 0.0, 10.000695, 9.998763 
1.625071e+3, 1.953846e+2, -1064284.8, -1179102.8, -21577.996, 0.031644452, 0.16369209, -1060363.5, -35117.098, 0.0, 10.000333, 9.998804 
1.6250573e+3, 2.0538346e+2, -937396.0, -1025654.3, -24075.375, -0.003442998, 0.1530725, -931255.8, -3998.8943, 0.0, 10.00035, 9.999178 
1.6250436e+3, 2.1538253e+2, -788773.56, -900765.75, -42817.363, -0.029060138, 0.1345008, -774279.3, 54985.184, 0.0, 10.000687, 9.9992 
1.6250308e+3, 2.2538142e+2, -721091.4, -850309.5, -12670.062, -0.014690284, 0.12289868, -719860.75, 11413.162, 0.0, 10.000621, 9.998906 
1.6250187e+3, 2.3538026e+2, -680064.5, -775840.06, -514.4241, 0.03124789, 0.10917617, -680061.75, -46777.492, 0.0, 10.000213, 9.99894 
1.6250062e+3, 2.4537916e+2, -623668.8, -691921.06, -4040.294, 0.042882986, 0.107321136, -623430.5, -88135.586, 0.0, 9.999903, 9.998992 
1.6249932e+3, 2.5537828e+2, -555538.9, -603829.56, -12222.001, 0.023359125, 0.11148285, -552621.75, -115317.19, 0.0, 9.999679, 9.999032 
1.6249804e+3, 2.6537728e+2, -452863.1, -494470.56, -8743.298, 0.021775791, 0.109104544, -451100.47, -111786.33, 0.0, 9.999671, 9.999113 
1.6249679e+3, 2.7537623e+2, -328203.47, -379042.66, -3362.4534, 0.038294885, 0.08652616, -327982.06, -86658.47, 0.0, 9.999835, 9.999153 
1.6249554e+3, 2.853755e+2, -239854.16, -259976.31, -909.11835, 0.040065765, 0.09133035, -239813.17, -96483.03, 0.0, 9.999658, 9.999383 
1.6249426e+3, 2.9537538e+2, -211127.61, -195828.1, -22852.727, 0.024249902, 0.13080277, -179378.77, -134047.17, 0.0, 9.999184, 9.999379 
1.6249305e+3, 3.0537468e+2, -186909.33, -185544.73, 2979.435, 0.06798196, 0.14245774, -183170.47, -183170.47, 0.0, 9.999127, 9.999145 
1.6249184e+3, 3.1537396e+2, -84659.586, -45474.637, 7147.04, 0.0479675, 0.14718889, -44211.773, -44211.773, 0.0, 9.999434, 9.999959 
1.635162e+3, 1.2540491e+2, -1567905.1, -1736157.3, -89891.64, 0.036238436, 0.18285958, -1528914.6, 182130.98, 0.03390636, 10.001456, 9.999155 
1.6351491e+3, 1.3540289e+2, -1530658.8, -1733614.6, 42793.89, -0.10116802, 0.12041439, -1522004.6, 91061.555, 0.020992927, 10.001285, 9.998585 
1.6351391e+3, 1.4540116e+2, -1420756.3, -1550956.5, -46215.496, 0.1299095, 0.05801811, -1406019.8, 109063.08, 0.009768749, 10.001026, 9.999283 
1.6351247e+3, 1.5540132e+2, -1351535.8, -1465372.1, -35363.984, 0.05744654, 0.13826372, -1341444.3, 75635.89, 0.0028602842, 10.000816, 9.999297 
1.635111e+3, 1.6540067e+2, -1314075.4, -1480575.3, -13687.592, -0.0016239262, 0.1856877, -1312957.8, 6129.7915, 0.00036087315, 10.000762, 9.998546 
1.6350983e+3, 1.7539929e+2, -1200229.0, -1369833.3, -28543.84, 0.019346569, 0.18728079, -1195554.0, 25549.727, 0.000005927034, 10.000848, 9.998591 
1.635085e+3, 1.8539801e+2, -1071168.5, -1171986.3, -58675.27, 0.032156415, 0.16455317, -1044222.06, 78893.74, 0.0, 10.000692, 9.999352 
1.6350712e+3, 1.9539696e+2, -1025545.44, -1099808.9, -33570.39, 0.016150635, 0.11751951, -1012619.8, 12503.315, 0.0, 10.000336, 9.999348 
1.6350578e+3, 2.0539595e+2, -974586.9, -1103456.8, -11793.789, 0.008633621, 0.12333915, -973516.44, -46384.113, 0.0, 10.000351, 9.998644 
1.6350447e+3, 2.1539508e+2, -824377.1, -974628.3, -30371.184, 0.017016914, 0.16499187, -818470.2, 10672.141, 0.0, 10.000685, 9.998695 
1.6350317e+3, 2.2539392e+2, -696671.1, -798904.25, -28220.154, 0.015303951, 0.15329222, -689398.6, 41754.125, 0.0, 10.000616, 9.999262 
1.6350187e+3, 2.353926e+2, -656841.25, -727515.5, -14275.432, 0.0017003758, 0.08834052, -654066.7, -20904.021, 0.0, 10.000211, 9.999274 
1.6350059e+3, 2.4539155e+2, -635106.94, -715888.6, -11905.991, 0.019584352, 0.08240732, -633388.75, -98216.09, 0.0, 9.999902, 9.99883 
1.6349934e+3, 2.5539082e+2, -565324.1, -625664.44, -18366.559, 0.06440907, 0.120072566, -560173.4, -122991.6, 0.0, 9.999682, 9.998881 
1.6349806e+3, 2.6539007e+2, -437202.4, -462735.97, -1646.3639, 0.057035115, 0.13818014, -437096.7, -97907.61, 0.0, 9.999673, 9.9993305 
1.6349675e+3, 2.7538934e+2, -314113.97, -350780.7, 3815.5984, 0.0066305567, 0.12588565, -313721.1, -72526.42, 0.0, 9.999838, 9.999347 
1.6349545e+3, 2.8538826e+2, -267582.13, -319150.25, -17982.168, -0.011761049, 0.1066632, -261930.9, -118726.2, 0.0, 9.999662, 9.998976 
1.6349413e+3, 2.953872e+2, -237664.64, -253144.97, -37748.4, -0.008868006, 0.09585185, -206871.03, -161655.39, 0.0, 9.99919, 9.998983 
1.6349295e+3, 3.0538598e+2, -183775.75, -179311.6, 14653.285, 0.045113593, 0.07017359, -166721.36, -166721.36, 0.0, 9.999127, 9.999187 
1.634918e+3, 3.1538618e+2, -64037.824, -2900.355, 12875.326, 0.0575806, 0.16279335, -299.50192, -299.50192, 0.0, 9.999435, 10.000251 
1.6451639e+3, 1.2541758e+2, -1541186.9, -1724908.6, -77901.99, 0.095422074, 0.19805352, -1512602.1, 198320.36, 0.036291655, 10.00166, 9.999132 
1.6451497e+3, 1.3541563e+2, -1524193.1, -1714509.8, 63605.438, -0.15752949, 0.12978552, -1504892.9, 108048.55, 0.022544228, 10.001264, 9.998726 
1.6451402e+3, 1.4541368e+2, -1408322.5, -1547676.8, -13025.058, 0.11644327, 0.039298657, -1407115.5, 107844.35, 0.010552243, 10.001125, 9.999256 
1.645126e+3, 1.5541402e+2, -1276850.8, -1432611.6, -31418.754, 0.07691504, 0.13955814, -1270752.0, 146203.42, 0.0031239854, 10.001346, 9.999266 
1.645112e+3, 1.6541333e+2, -1262754.6, -1456158.8, -14738.47, 0.017985199, 0.18510692, -1261637.9, 57325.082, 0.0004029895, 10.001117, 9.998542 
1.6450989e+3, 1.7541173e+2, -1251073.9, -1394619.8, 2695.0125, 0.01669854, 0.16525969, -1251023.4, -30042.26, 0.0000070009137, 10.000502, 9.998587 
1.6450855e+3, 1.8541043e+2, -1114827.3, -1197725.0, -26761.814, 0.025196651, 0.14335184, -1106938.5, 16054.65, 0.0, 10.000415, 9.999309 
1.6450717e+3, 1.9540954e+2, -965388.1, -1076098.5, -49775.48, 0.016447663, 0.11618735, -946300.06, 78698.914, 0.0, 10.000772, 9.999299 
1.6450582e+3, 2.054085e+2, -928453.7, -1087701.6, -31843.746, 0.014334118, 0.12252394, -922322.2, 4686.5864, 0.0, 10.000697, 9.998585 
1.6450453e+3, 2.154074e+2, -890998.75, -1013300.75, -16946.406, 0.027232856, 0.14874347, -888694.06, -59672.938, 0.0, 10.0002575, 9.998634 
1.6450322e+3, 2.2540626e+2, -778975.44, -836287.44, -17061.799, 0.025266739, 0.14209856, -774280.75, -43249.156, 0.0, 10.000042, 9.999281 
1.6450188e+3, 2.3540518e+2, -683682.9, -738262.3, -30083.875, 0.0061023934, 0.09965986, -670355.25, -37315.73, 0.0, 10.000018, 9.999292 
1.6450058e+3, 2.4540417e+2, -609541.4, -697685.3, -24731.727, 0.015565273, 0.09449493, -603076.25, -68027.33, 0.0, 10.000052, 9.99888 
1.6449931e+3, 2.554033e+2, -497415.53, -587619.06, -16527.045, 0.05037242, 0.114155345, -494482.78, -57424.145, 0.0, 10.000127, 9.998927 
1.6449802e+3, 2.6540256e+2, -410607.84, -447595.47, -4717.4688, 0.046008807, 0.1268747, -410015.66, -70949.59, 0.0, 9.999847, 9.99935 
1.644967e+3, 2.754019e+2, -395639.25, -388727.25, -15751.056, 0.008692987, 0.12049631, -376057.5, -134986.28, 0.0, 9.999273, 9.999357 
1.6449538e+3, 2.8540084e+2, -323896.75, -352845.1, -21477.959, -0.009474739, 0.10702315, -312471.03, -169389.94, 0.0, 9.999305, 9.998916 
1.6449408e+3, 2.9539979e+2, -150187.23, -216522.27, -17135.002, -0.014322129, 0.10134646, -146022.56, -100930.484, 0.0, 9.999817, 9.998932 
1.6449286e+3, 3.0539826e+2, -122722.79, -163762.17, 33999.547, 0.025183689, 0.054616768, -103530.68, -103530.68, 0.0, 9.999608, 9.999061 
1.6449173e+3, 3.1539822e+2, -139829.45, -17013.826, 11197.153, 0.062283292, 0.13664714, -16001.325, -16001.325, 0.0, 9.998818, 10.00045 
1.6551659e+3, 1.2542945e+2, -1516975.9, -1674732.6, -67450.3, 0.12227254, 0.1316496, -1492069.1, 218738.0, 0.038870342, 10.001667, 9.999478 
1.6551508e+3, 1.3542973e+2, -1485179.6, -1635059.6, 47246.703, -0.18655294, 0.2267437, -1471529.3, 141273.73, 0.024226949, 10.001275, 9.999268 
1.6551413e+3, 1.4542776e+2, -1437367.8, -1607916.9, -8257.8545, 0.1194172, 0.13023861, -1436968.9, 77852.586, 0.011408221, 10.0011215, 9.998845 
1.6551273e+3, 1.5542674e+2, -1304690.4, -1489638.6, -24253.525, 0.06163542, 0.13694122, -1301562.8, 115268.58, 0.0034157853, 10.001341, 9.998878 
1.6551131e+3, 1.6542558e+2, -1232694.1, -1393812.4, -38663.957, 0.00080912875, 0.13218446, -1223896.3, 94946.195, 0.00045137366, 10.001115, 9.998971 
1.6550995e+3, 1.7542431e+2, -1223147.8, -1338702.8, -18685.441, 0.022279687, 0.101691216, -1220201.5, 653.1257, 0.000008273259, 10.000508, 9.998969 
1.6550861e+3, 1.8542318e+2, -1160384.8, -1293852.1, -13892.105, 0.041955046, 0.113864355, -1158954.1, -36088.727, 0.0, 10.000421, 9.998647 
1.6550726e+3, 1.9542234e+2, -1009015.9, -1167166.4, -36975.383, 0.03017395, 0.15840197, -1000798.1, 24075.865, 0.0, 10.000773, 9.998674 
1.655059e+3, 2.0542105e+2, -900179.94, -1029303.06, -48559.402, 0.011405063, 0.1494173, -883956.56, 42929.68, 0.0, 10.000697, 9.998986 
1.6550453e+3, 2.1541947e+2, -865001.5, -959766.8, -31999.85, -0.0010879481, 0.08605951, -855208.06, -26307.17, 0.0, 10.0002575, 9.999002 
1.655032e+3, 2.2541845e+2, -801627.7, -883532.3, -18172.785, 0.0117563, 0.09036115, -797776.6, -66866.07, 0.0, 10.000041, 9.998959 
1.6550192e+3, 2.3541798e+2, -704175.2, -781982.8, -29508.154, 0.042045545, 0.14288364, -694250.4, -61335.16, 0.0, 10.000021, 9.998992 
1.655006e+3, 2.4541703e+2, -590912.4, -659529.2, -21190.994, 0.027989017, 0.14274873, -584895.5, -49971.38, 0.0, 10.000053, 9.999144 
1.6549926e+3, 2.5541574e+2, -479959.6, -552320.5, -12912.346, -0.02262577, 0.09271148, -477724.5, -40788.816, 0.0, 10.000129, 9.999169 
1.6549794e+3, 2.6541469e+2, -424055.78, -476555.47, -25474.021, -0.014813349, 0.07506266, -413727.22, -74781.67, 0.0, 9.999849, 9.999151 
1.6549666e+3, 2.7541384e+2, -407841.47, -415743.56, -33444.563, 0.041375317, 0.07149918, -378115.38, -137161.61, 0.0, 9.999278, 9.99917 
1.6549538e+3, 2.854132e+2, -303160.78, -311172.88, -1172.0603, 0.044605043, 0.09275716, -302992.84, -160032.86, 0.0, 9.999309, 9.999201 
1.6549408e+3, 2.9541302e+2, -129053.12, -175274.36, 1642.1652, 0.0027239928, 0.14646553, -128994.85, -84033.11, 0.0, 9.999826, 9.999211 
1.654928e+3, 3.0541143e+2, -142249.75, -204948.16, 4532.815, 0.0031553044, 0.09468094, -141923.75, -141923.75, 0.0, 9.999611, 9.998777 
1.654916e+3, 3.154099e+2, -134283.08, -4346.8013, -18365.287, 0.055395216, 0.058107577, -1800.9205, -1800.9205, 0.0, 9.998814, 10.000539 
1.6651675e+3, 1.2544188e+2, -1508643.0, -1691682.3, -38957.6, 0.10494684, 0.114646904, -1500696.4, 209988.86, 0.04162856, 10.001829, 9.999277 
1.6651523e+3, 1.3544251e+2, -1431354.1, -1599872.8, 1637.4269, -0.16833499, 0.2393685, -1431338.3, 181339.5, 0.026035924, 10.001623, 9.999339 
1.6651428e+3, 1.4544061e+2, -1424617.6, -1602061.1, -45728.492, 0.16565616, 0.1465525, -1413526.4, 101169.36, 0.012337034, 10.001213, 9.99884 
1.665128e+3, 1.5543951e+2, -1378655.8, -1526016.8, -31174.303, 0.03528489, 0.14583488, -1372332.1, 44374.504, 0.003736676, 10.000834, 9.998872 
1.6651137e+3, 1.654383e+2, -1266939.9, -1404512.4, -47539.254, -0.034893718, 0.13305904, -1252110.8, 66607.04, 0.00050616945, 10.0008545, 9.9990225 
1.6651005e+3, 1.7543702e+2, -1120525.6, -1284465.4, -56797.88, 0.033592086, 0.09658671, -1102770.6, 117958.41, 0.000009797576, 10.001192, 9.999011 
1.665087e+3, 1.8543582e+2, -1062452.0, -1257653.9, -37276.234, 0.06223957, 0.10379426, -1055575.9, 67164.51, 0.0, 10.001141, 9.9985485 
1.6650733e+3, 1.9543481e+2, -1016684.8, -1180905.3, -20018.404, 0.025436392, 0.14302637, -1014279.8, 10471.032, 0.0, 10.000766, 9.998582 
1.6650595e+3, 2.0543352e+2, -915507.3, -1034092.0, -34884.016, 0.0014168855, 0.13618663, -906006.7, 20756.658, 0.0, 10.000583, 9.999007 
1.6650456e+3, 2.1543203e+2, -821010.0, -936754.5, -47556.824, 0.00016392689, 0.08165305, -803976.7, 24800.05, 0.0, 10.000553, 9.999018 
1.6650322e+3, 2.25431e+2, -748514.3, -868239.8, -31389.254, 0.011219987, 0.08807586, -740783.9, -9997.059, 0.0, 10.000451, 9.998865 
1.6650191e+3, 2.3543042e+2, -672044.5, -776089.25, -27430.22, 0.028182177, 0.13775504, -665255.8, -32462.535, 0.0, 10.000283, 9.998905 
1.6650058e+3, 2.4542944e+2, -585775.7, -637381.8, -16315.572, 0.013336553, 0.1316921, -581050.1, -46248.043, 0.0, 10.000004, 9.999318 
1.6649923e+3, 2.5542822e+2, -540362.06, -563221.94, -16449.67, -0.027654484, 0.073194996, -531761.1, -94949.27, 0.0, 9.999637, 9.9993305 
1.6649792e+3, 2.6542732e+2, -463870.84, -502654.88, -26871.152, -0.01961116, 0.063007176, -450125.13, -111304.55, 0.0, 9.999607, 9.999087 
1.664966e+3, 2.754266e+2, -330539.8, -385433.13, -25610.86, 0.029960155, 0.07966141, -320446.7, -79618.44, 0.0, 9.99984, 9.999106 
1.6649532e+3, 2.854259e+2, -267375.44, -288824.2, 4909.35, 0.050771456, 0.09393283, -266305.16, -123469.69, 0.0, 9.999535, 9.999245 
1.6649406e+3, 2.9542544e+2, -276759.53, -239814.47, -13167.327, 0.047208805, 0.11744887, -235601.92, -190762.44, 0.0, 9.998785, 9.999269 
1.6649273e+3, 3.0542427e+2, -263510.25, -246692.17, -2358.1409, 0.013166303, 0.09757332, -246367.78, -246367.78, 0.0, 9.998707, 9.998925 
1.6649148e+3, 3.1542253e+2, -64452.223, 59211.895, 6176.183, 0.040370874, 0.025258476, 59519.586, 59519.586, 0.0, 9.999167, 10.000805 
1.6751686e+3, 1.2545474e+2, -1553229.6, -1790521.3, -10482.693, 0.035072707, 0.13528612, -1552767.5, 157790.1, 0.04455171, 10.001844, 9.998588 
1.6751546e+3, 1.3545407e+2, -1456265.6, -1653885.6, -8891.315, -0.110456035, 0.17146677, -1455866.5, 156698.44, 0.027968736, 10.001629, 9.998965 
1.6751449e+3, 1.4545232e+2, -1398178.3, -1546551.0, -62331.645, 0.24670798, 0.09106173, -1375468.5, 139113.48, 0.013341848, 10.001212, 9.999224 
1.6751285e+3, 1.5545236e+2, -1353049.1, -1474794.4, -43231.035, -0.0040617664, 0.16656, -1339259.8, 77321.28, 0.004089343, 10.000842, 9.99922 
1.6751139e+3, 1.6545148e+2, -1288009.5, -1450450.8, -35335.688, -0.09095676, 0.18628804, -1280655.9, 37933.246, 0.0005678562, 10.000862, 9.998705 
1.6751018e+3, 1.7544985e+2, -1140514.9, -1326728.0, -44876.33, 0.04774735, 0.14770095, -1130264.3, 90340.17, 0.000011659807, 10.001193, 9.998722 
1.6750884e+3, 1.8544832e+2, -1031196.5, -1192227.5, -51698.96, 0.08276543, 0.11170263, -1016027.5, 106590.59, 0.0, 10.001137, 9.999 
1.6750738e+3, 1.9544698e+2, -987818.94, -1121159.5, -32940.594, 0.000045724082, 0.071468644, -980125.2, 44504.363, 0.0, 10.000765, 9.998994 
1.6750598e+3, 2.0544587e+2, -940084.9, -1085249.0, -36455.023, -0.018836288, 0.084570765, -931444.25, -4804.188, 0.0, 10.000582, 9.998657 
1.6750465e+3, 2.154451e+2, -844574.5, -985846.56, -47958.336, 0.028610634, 0.13435102, -829832.25, -1183.3817, 0.0, 10.000552, 9.998682 
1.6750328e+3, 2.254439e+2, -739732.06, -849694.0, -37440.97, 0.021060955, 0.13394336, -728194.4, 2466.3096, 0.0, 10.000448, 9.998994 
1.6750188e+3, 2.3544244e+2, -663301.8, -758314.8, -32617.172, -0.037306417, 0.08400125, -653182.4, -20508.389, 0.0, 10.000283, 9.999028 
1.6750054e+3, 2.454414e+2, -580415.8, -626776.5, -29721.23, -0.03066413, 0.06206955, -565904.25, -31221.162, 0.0, 10.000004, 9.9993925 
1.6749926e+3, 2.554408e+2, -534898.75, -553067.6, -27402.072, 0.031717055, 0.056586977, -515114.53, -78426.95, 0.0, 9.9996395, 9.9994 
1.6749792e+3, 2.6544037e+2, -458635.5, -492797.0, -16812.225, 0.028373359, 0.09020274, -451749.53, -113057.766, 0.0, 9.99961, 9.999155 
1.6749653e+3, 2.7544013e+2, -325321.47, -376510.88, -16313.18, -0.029754315, 0.14354353, -320564.75, -79869.36, 0.0, 9.999846, 9.9991665 
1.6749522e+3, 2.8543884e+2, -281567.66, -319543.5, -22808.715, 0.0052530128, 0.11000675, -270877.66, -128169.47, 0.0, 9.999537, 9.999033 
1.67494e+3, 2.95437e+2, -288942.34, -264992.75, -37094.24, 0.11506692, 0.017644119, -237988.33, -193262.61, 0.0, 9.998782, 9.999098 
1.6749264e+3, 3.0543676e+2, -223765.88, -164170.75, 16143.479, 0.05224554, 0.06390561, -160078.69, -160078.69, 0.0, 9.998705, 9.999494 
1.6749136e+3, 3.1543615e+2, -36531.613, 114386.08, 34349.33, 0.005130845, 0.05232177, 121836.305, 121836.305, 0.0, 9.999179, 10.001179 
1.6851708e+3, 1.2546743e+2, -1448629.4, -1764399.5, 10884.025, 0.03326892, 0.13618587, -1448254.6, 262177.88, 0.04763037, 10.002722, 9.9983425 
1.6851561e+3, 1.3546652e+2, -1464328.6, -1663300.9, -6684.022, -0.12219102, 0.15266556, -1464104.3, 148338.28, 0.030026976, 10.001597, 9.998916 
1.685146e+3, 1.4546494e+2, -1402508.3, -1549452.4, -37261.563, 0.24194258, 0.090866975, -1393599.6, 120858.664, 0.014428621, 10.001186, 9.999216 
1.6851297e+3, 1.5546486e+2, -1246461.1, -1423719.8, -45794.176, -0.00085976504, 0.15609369, -1235329.5, 181128.98, 0.0044782558, 10.001579, 9.999216 
1.6851151e+3, 1.6546397e+2, -1191183.0, -1400444.5, -39125.227, -0.09053207, 0.17432913, -1184107.1, 134359.14, 0.0006375465, 10.0015135, 9.998734 
1.6851027e+3, 1.7546247e+2, -1159916.6, -1333165.5, -24110.08, 0.036068894, 0.14446992, -1156624.0, 63855.926, 0.00001399049, 10.001049, 9.998747 
1.6850893e+3, 1.8546093e+2, -1085503.0, -1227357.8, -45394.7, 0.073153496, 0.11081934, -1072220.1, 50273.656, 0.0, 10.000803, 9.9989195 
1.6850746e+3, 1.9545947e+2, -998740.3, -1135401.6, -66818.51, 0.0029389584, 0.06766783, -971500.1, 53006.66, 0.0, 10.000728, 9.998915 
1.6850606e+3, 2.0545833e+2, -929295.1, -1077681.6, -66743.57, -0.010610187, 0.07869432, -903691.9, 22825.965, 0.0, 10.000646, 9.998679 
1.6850471e+3, 2.1545756e+2, -841792.06, -981092.9, -51975.273, 0.03615731, 0.12790224, -824536.75, 3989.5156, 0.0, 10.000558, 9.998711 
1.6850331e+3, 2.254564e+2, -748037.56, -842812.9, -36101.31, 0.02453458, 0.12625909, -735852.6, -5315.3164, 0.0, 10.000347, 9.999089 
1.685019e+3, 2.3545505e+2, -694684.3, -763779.75, -34935.227, -0.041368432, 0.074397884, -680099.44, -47549.91, 0.0, 10.00003, 9.999112 
1.6850053e+3, 2.45454e+2, -610244.6, -652847.8, -39022.785, -0.03361799, 0.053120673, -587087.94, -52529.023, 0.0, 9.999852, 9.999286 
1.6849923e+3, 2.5545332e+2, -520704.06, -557351.6, -51773.71, 0.037569944, 0.05014484, -484107.2, -47542.156, 0.0, 9.999786, 9.9993 
1.6849788e+3, 2.6545295e+2, -455575.0, -474889.25, -37874.15, 0.03174341, 0.08724634, -426146.16, -87577.43, 0.0, 9.999561, 9.999301 
1.6849647e+3, 2.7545288e+2, -408526.53, -401336.8, -33264.727, -0.038752075, 0.14629026, -371473.25, -130903.32, 0.0, 9.99921, 9.999301 
1.6849516e+3, 2.8545162e+2, -323655.25, -341414.3, -33527.844, -0.002421476, 0.10768829, -297851.03, -155268.45, 0.0, 9.999257, 9.999018 
1.6849393e+3, 2.9544958e+2, -168928.72, -206527.23, -34968.64, 0.123451754, -0.004028485, -148026.36, -103424.016, 0.0, 9.999605, 9.999103 
1.6849253e+3, 3.0544975e+2, -129564.805, -91306.06, 11835.29, 0.05191718, 0.0746877, -87940.836, -87940.836, 0.0, 9.999235, 9.999738 
1.6849126e+3, 3.1544927e+2, -179708.3, 26235.764, 15802.343, 0.025674751, 0.051572487, 27441.24, 27441.24, 0.0, 9.998276, 10.001009 
1.6951741e+3, 1.2547985e+2, -1440846.8, -1744422.1, 9436.151, 0.08367014, 0.1012227, -1440553.8, 269757.53, 0.05086495, 10.002715, 9.998485 
1.6951568e+3, 1.3547984e+2, -1447126.8, -1627041.5, -47807.906, -0.20252126, 0.18058363, -1435212.0, 177099.06, 0.032215923, 10.001602, 9.999166 
1.6951464e+3, 1.454784e+2, -1428762.8, -1606634.8, -25897.545, 0.1538198, 0.14205843, -1425068.9, 89256.36, 0.015604373, 10.001193, 9.998821 
1.6951317e+3, 1.5547703e+2, -1270550.9, -1475060.5, -32057.623, 0.03880438, 0.11651233, -1265643.5, 150695.1, 0.0049088504, 10.001583, 9.998863 
1.695117e+3, 1.6547585e+2, -1165199.5, -1346457.0, -57170.6, -0.04116742, 0.101253875, -1148673.9, 169674.92, 0.0007170378, 10.001512, 9.999106 
1.6951033e+3, 1.7547487e+2, -1136487.0, -1285939.1, -40595.254, -0.0028711, 0.0882846, -1126172.1, 94183.53, 0.000016975888, 10.001053, 9.99907 
1.6950898e+3, 1.8547364e+2, -1127424.1, -1315416.5, -48639.72, 0.031625256, 0.10153198, -1115585.0, 6782.5234, 0.0, 10.000806, 9.998315 
1.6950756e+3, 1.9547229e+2, -1037695.3, -1217213.8, -68936.87, 0.03146345, 0.1298964, -1014277.6, 10104.956, 0.0, 10.0007305, 9.998353 
1.6950615e+3, 2.0547085e+2, -902548.2, -1021983.1, -69962.02, 0.02317632, 0.11725596, -870282.75, 56113.97, 0.0, 10.000644, 9.999063 
1.6950475e+3, 2.1546942e+2, -815964.75, -927611.5, -54651.09, 0.020706348, 0.06269643, -793666.5, 34742.58, 0.0, 10.000557, 9.99908 
1.6950335e+3, 2.2546853e+2, -743666.56, -833611.25, -48081.98, 0.018702762, 0.0659358, -722802.9, 7614.092, 0.0, 10.000345, 9.999154 
1.6950195e+3, 2.3546816e+2, -691870.25, -758348.25, -44906.324, 0.012846377, 0.10844515, -669239.7, -36819.543, 0.0, 10.00003, 9.99915 
1.6950054e+3, 2.4546713e+2, -631530.44, -696881.0, -40582.203, 0.0013675907, 0.10372486, -612104.0, -77673.78, 0.0, 9.99985, 9.998985 
1.6949916e+3, 2.554657e+2, -539796.6, -597732.9, -52796.63, -0.012515362, 0.05353472, -508543.22, -72098.45, 0.0, 9.999788, 9.9990225 
1.6949779e+3, 2.6546493e+2, -440089.13, -443754.4, -50248.83, -0.011692717, 0.05434612, -391639.53, -53187.5, 0.0, 9.999563, 9.999515 
1.6949643e+3, 2.7546483e+2, -393454.75, -371617.1, -43111.563, -0.0014471988, 0.08903789, -338063.16, -97610.67, 0.0, 9.999216, 9.999503 
1.6949512e+3, 2.8546414e+2, -310698.66, -316089.22, -19277.688, 0.023433525, 0.08741422, -293928.75, -151469.36, 0.0, 9.999262, 9.99919 
1.6949384e+3, 2.9546306e+2, -155946.08, -181083.81, -21546.826, 0.066066414, 0.053502135, -143570.17, -99100.06, 0.0, 9.99961, 9.999276 
1.6949241e+3, 3.0546322e+2, -134846.66, -104140.67, -24480.398, 0.0066218134, 0.126208, -90597.22, -90597.22, 0.0, 9.999241, 9.999648 
1.6949116e+3, 3.1546223e+2, -225614.75, -70374.85, 524.3152, 0.090676636, 0.064947955, -70373.08, -70373.08, 0.0, 9.9982815, 10.000342 
1.7051768e+3, 1.2549308e+2, -1468545.8, -1754959.5, 41336.152, 0.09464172, 0.1238357, -1462699.3, 247482.38, 0.054258425, 10.002506, 9.998514 
1.7051587e+3, 1.354928e+2, -1366057.6, -1584987.1, -74869.305, -0.20343673, 0.17053108, -1342902.8, 269280.72, 0.034540452, 10.002174, 9.999181 
1.7051476e+3, 1.454914e+2, -1366420.5, -1602153.1, -26702.988, 0.12676434, 0.14992495, -1363433.5, 150763.31, 0.016874576, 10.001743, 9.998587 
1.7051333e+3, 1.5548962e+2, -1314044.5, -1521443.8, -21693.72, 0.055846322, 0.10515345, -1311799.8, 104415.06, 0.0053858333, 10.001392, 9.998636 
1.7051187e+3, 1.6548829e+2, -1203492.5, -1371553.4, -65569.5, -0.013270643, 0.08930307, -1180937.5, 137289.33, 0.00080826663, 10.001276, 9.999048 
1.7051046e+3, 1.7548744e+2, -1097791.8, -1273890.4, -82103.79, 0.0030758267, 0.09511362, -1065451.1, 154781.53, 0.000020835996, 10.001347, 9.999012 
1.7050907e+3, 1.8548618e+2, -1053129.6, -1276555.6, -75454.87, 0.02541365, 0.10755797, -1030034.44, 92210.25, 0.0, 10.001303, 9.9983425 
1.7050764e+3, 1.9548468e+2, -972938.75, -1182309.4, -50587.242, 0.021706168, 0.11779079, -961356.75, 62904.03, 0.0, 10.001162, 9.9983835 
1.7050621e+3, 2.0548327e+2, -859608.2, -995029.9, -46720.21, 0.013691975, 0.104273364, -845054.0, 81220.51, 0.0, 10.000914, 9.999117 
1.705048e+3, 2.1548204e+2, -811478.75, -920026.56, -57370.84, 0.012797178, 0.06399342, -786777.56, 41507.62, 0.0, 10.0005665, 9.999126 
1.7050338e+3, 2.2548121e+2, -748431.2, -834560.56, -64891.13, 0.01748713, 0.07154977, -713615.06, 16677.504, 0.0, 10.000308, 9.999165 
1.7050196e+3, 2.3548083e+2, -676835.2, -749565.5, -67644.62, 0.023132479, 0.110476516, -636400.5, -4104.21, 0.0, 10.000128, 9.999162 
1.7050055e+3, 2.4547988e+2, -618236.44, -681312.2, -45677.484, 0.011327942, 0.110000394, -594266.94, -59961.406, 0.0, 9.999904, 9.999065 
1.7049913e+3, 2.5547862e+2, -556808.0, -597234.0, -30709.188, -0.012845545, 0.06950106, -540256.6, -103938.42, 0.0, 9.999637, 9.999098 
1.7049775e+3, 2.6547775e+2, -464026.28, -458855.9, -28303.307, -0.010664547, 0.05905869, -433019.97, -94693.64, 0.0, 9.999417, 9.999479 
1.7049636e+3, 2.7547738e+2, -394096.72, -375390.72, -40824.824, 0.010837026, 0.06609352, -342861.22, -102531.41, 0.0, 9.9992285, 9.999471 
1.7049503e+3, 2.854768e+2, -336561.28, -318399.28, -14572.422, 0.024653353, 0.076482624, -310309.97, -167974.89, 0.0, 9.999043, 9.999279 
1.7049372e+3, 2.954762e+2, -256549.63, -220086.3, -25203.914, 0.03969169, 0.081639044, -207211.19, -162870.33, 0.0, 9.99888, 9.999359 
1.704923e+3, 3.05476e+2, -187825.98, -130293.86, -47278.438, -0.004299823, 0.11596148, -103717.92, -103717.92, 0.0, 9.998881, 9.999641 
1.7049104e+3, 3.1547537e+2, -150694.95, -73532.195, 2091.072, 0.11745654, 0.09086472, -73475.57, -73475.57, 0.0, 9.998968, 9.9999895 
1.7151791e+3, 1.2550691e+2, -1476269.6, -1770918.3, 62333.566, 0.06332863, 0.18002075, -1463625.5, 246420.84, 0.05779923, 10.002506, 9.998409 
1.7151617e+3, 1.3550544e+2, -1378871.6, -1613084.6, -89507.31, -0.13499568, 0.12691559, -1348582.5, 263476.72, 0.03699678, 10.00218, 9.998987 
1.7151496e+3, 1.4550404e+2, -1372133.8, -1614937.0, -42487.457, 0.15045664, 0.120021835, -1364913.6, 149158.83, 0.018240586, 10.001746, 9.998498 
1.7151347e+3, 1.555026e+2, -1320597.9, -1537001.9, -33460.67, 0.048745763, 0.11867284, -1315542.3, 100545.02, 0.0059123994, 10.0014, 9.998527 
1.7151201e+3, 1.6550128e+2, -1236622.0, -1441846.9, -63054.465, -0.008347695, 0.13455355, -1218797.0, 99303.44, 0.0009130127, 10.001282, 9.998565 
1.7151065e+3, 1.7550017e+2, -1127203.3, -1336485.1, -78799.63, 0.04947769, 0.16298953, -1100851.4, 119259.69, 0.000025810483, 10.001351, 9.998581 
1.7150922e+3, 1.8549857e+2, -1008727.8, -1184222.1, -81004.45, 0.048638854, 0.12838273, -977054.3, 145070.94, 0.0, 10.001301, 9.998978 
1.7150772e+3, 1.9549665e+2, -931467.5, -1096411.6, -55570.508, -0.027870798, 0.03169974, -914492.5, 109649.19, 0.0, 10.001161, 9.998975 
1.7150626e+3, 2.054956e+2, -879010.0, -1034599.6, -59796.508, -0.040693283, 0.040756773, -858684.2, 67467.29, 0.0, 10.00091, 9.998848 
1.7150484e+3, 2.154954e+2, -830925.6, -959614.2, -68943.16, 0.009792204, 0.1307735, -800965.4, 27189.406, 0.0, 10.000562, 9.998858 
1.7150341e+3, 2.2549444e+2, -753509.6, -843994.44, -71535.51, 0.018079605, 0.14194489, -714110.44, 16054.03, 0.0, 10.000302, 9.999104 
1.7150193e+3, 2.3549299e+2, -679024.06, -754612.44, -73067.64, -0.011814488, 0.08026437, -634554.75, -2376.4912, 0.0, 10.000128, 9.999128 
1.7150052e+3, 2.454922e+2, -585930.9, -614201.4, -54953.008, -0.0057902886, 0.07195387, -543324.25, -9138.949, 0.0, 9.999902, 9.999527 
1.7149915e+3, 2.5549206e+2, -527049.2, -536368.94, -38598.59, 0.03231335, 0.09853203, -492830.22, -56644.336, 0.0, 9.9996395, 9.999515 
1.7149773e+3, 2.654914e+2, -484233.4, -501954.78, -34442.055, 0.031377617, 0.10114688, -457530.53, -119338.15, 0.0, 9.999421, 9.999184 
1.7149627e+3, 2.7549037e+2, -413508.16, -416414.34, -46301.242, -0.004989056, 0.07774899, -368637.22, -128434.57, 0.0, 9.999229, 9.99919 
1.7149492e+3, 2.8548956e+2, -336461.47, -318073.13, -20318.049, -0.0022714324, 0.07533534, -304965.8, -162755.36, 0.0, 9.999042, 9.999282 
1.7149362e+3, 2.9548895e+2, -256888.19, -221866.3, -27959.742, 0.039950103, 0.081917904, -206386.63, -162171.22, 0.0, 9.998884, 9.999346 
1.7149222e+3, 3.0548808e+2, -183882.83, -125145.7, -43748.1, 0.014267881, 0.04284524, -101822.63, -101822.63, 0.0, 9.998892, 9.999674 
1.7149091e+3, 3.154885e+2, -144558.16, -64485.324, 28571.902, 0.09087622, 0.120524675, -55335.684, -55335.684, 0.0, 9.998981, 10.000047 
1.7251815e+3, 1.2552004e+2, -1414897.1, -1737485.9, 61467.133, 0.041543216, 0.18320395, -1403581.9, 306335.63, 0.061463173, 10.002956, 9.998421 
1.7251644e+3, 1.3551821e+2, -1384574.5, -1632284.9, -119315.305, -0.07769498, 0.10924893, -1336452.3, 275481.9, 0.03957232, 10.002219, 9.998839 
1.7251512e+3, 1.4551696e+2, -1345827.1, -1592961.9, -47059.855, 0.14352633, 0.12092778, -1337169.3, 176776.6, 0.019698907, 10.001894, 9.998579 
1.7251362e+3, 1.5551575e+2, -1224228.9, -1483064.1, -26412.115, 0.029372076, 0.13388468, -1221561.3, 194396.83, 0.0064899237, 10.002036, 9.99859 
1.7251216e+3, 1.6551426e+2, -1160115.0, -1428542.4, -40218.508, -0.01867965, 0.14184196, -1154218.6, 163754.4, 0.001032905, 10.00191, 9.998353 
1.7251079e+3, 1.7551269e+2, -1113488.4, -1351706.4, -37628.15, 0.05588202, 0.14364876, -1107686.1, 112302.625, 0.00003215152, 10.001541, 9.998384 
1.7250936e+3, 1.8551113e+2, -1012526.5, -1167776.4, -51963.8, 0.05376922, 0.11522039, -996739.1, 125263.44, 0.0, 10.001197, 9.99914 
1.7250781e+3, 1.955097e+2, -962171.6, -1094735.0, -63121.664, -0.036683522, 0.052787017, -936924.0, 87089.83, 0.0, 10.000878, 9.999123 
1.7250632e+3, 2.0550871e+2, -921480.0, -1061348.5, -74978.39, -0.047420643, 0.062643975, -888883.44, 37139.703, 0.0, 10.000646, 9.998792 
1.725049e+3, 2.1550818e+2, -845865.56, -971993.25, -69824.016, 0.017242054, 0.1260077, -814842.0, 13187.643, 0.0, 10.000484, 9.998809 
1.7250346e+3, 2.2550716e+2, -749975.56, -835014.9, -56950.332, 0.027273018, 0.12882854, -721423.0, 8616.972, 0.0, 10.000297, 9.9991665 
1.7250195e+3, 2.3550585e+2, -682466.7, -749028.7, -50931.84, -0.011473785, 0.07462414, -654906.3, -22853.998, 0.0, 10.000076, 9.999189 
1.725005e+3, 2.4550518e+2, -607203.8, -621481.5, -51334.11, -0.0057147853, 0.075022615, -562514.56, -28456.39, 0.0, 9.999746, 9.999551 
1.7249909e+3, 2.5550514e+2, -571288.5, -555712.6, -69029.74, 0.039125178, 0.11025653, -494032.9, -57975.008, 0.0, 9.9993305, 9.99953 
1.7249766e+3, 2.6550442e+2, -508831.5, -515902.94, -55139.348, 0.036339164, 0.10938789, -457114.63, -119049.836, 0.0, 9.999262, 9.999164 
1.724962e+3, 2.755033e+2, -378940.8, -401420.0, -48061.13, -0.008488879, 0.074942164, -340822.53, -100746.29, 0.0, 9.999476, 9.999173 
1.7249483e+3, 2.8550258e+2, -289905.78, -289537.06, -20242.09, -0.0065271375, 0.08438709, -269478.5, -127395.914, 0.0, 9.999337, 9.999335 
1.724935e+3, 2.955023e+2, -252708.45, -217687.88, -24417.371, 0.042067286, 0.11476357, -205151.23, -161066.73, 0.0, 9.998906, 9.999363 
1.7249213e+3, 3.0550054e+2, -230645.72, -175133.14, -39508.402, 0.04491736, 0.0029168283, -154605.63, -154605.63, 0.0, 9.998691, 9.999427 
1.7249076e+3, 3.155012e+2, -183235.4, -59765.63, 27649.76, 0.066985905, 0.1276306, -53856.555, -53856.555, 0.0, 9.998617, 10.000255 
1.7351843e+3, 1.2553254e+2, -1414556.1, -1730844.1, 52807.375, 0.020029675, 0.13652708, -1405972.4, 303822.1, 0.06523749, 10.002941, 9.998474 
1.735167e+3, 1.355311e+2, -1392685.6, -1649538.8, -146415.86, -0.03441133, 0.11306033, -1326353.4, 285455.13, 0.042257246, 10.002224, 9.998723 
1.7351529e+3, 1.4553016e+2, -1329056.3, -1558854.3, -42691.188, 0.105274476, 0.14879838, -1321381.5, 192435.67, 0.021244539, 10.0019, 9.998811 
1.7351379e+3, 1.5552908e+2, -1207466.0, -1450223.5, -20981.973, -0.0054049697, 0.15234272, -1205665.9, 210161.28, 0.007118056, 10.002045, 9.998813 
1.7351231e+3, 1.6552727e+2, -1156505.5, -1421575.8, -54762.457, -0.050197035, 0.11475405, -1145637.4, 172206.78, 0.0011691411, 10.001911, 9.998401 
1.7351091e+3, 1.7552496e+2, -1110934.0, -1347429.4, -50935.387, 0.021314926, 0.039102215, -1100430.3, 119435.62, 0.00004011834, 10.001543, 9.998414 
1.7350945e+3, 1.8552385e+2, -1034224.94, -1212877.8, -63908.438, 0.039352573, 0.069057725, -1013717.44, 108159.28, 0.0, 10.001196, 9.998833 
1.7350793e+3, 1.9552383e+2, -982692.3, -1137388.9, -73613.2, -0.00849943, 0.1786323, -953262.0, 70615.68, 0.0, 10.000877, 9.998832 
1.7350642e+3, 2.0552255e+2, -911759.3, -1040785.94, -81293.05, -0.01127801, 0.16744773, -872491.44, 53398.39, 0.0, 10.000643, 9.998935 
1.7350496e+3, 2.1552035e+2, -835534.1, -951320.6, -74805.234, 0.032382004, 0.0490156, -798836.44, 29073.7, 0.0, 10.000485, 9.998951 
1.7350349e+3, 2.2551931e+2, -736995.94, -807643.7, -64758.203, 0.04209331, 0.032958362, -698553.94, 31365.563, 0.0, 10.000294, 9.999356 
1.7350198e+3, 2.3551933e+2, -672391.94, -727553.0, -57902.43, 0.020680454, 0.094015345, -635836.9, -3918.0925, 0.0, 10.0000725, 9.99934 
1.735005e+3, 2.4551877e+2, -637953.7, -684660.8, -66507.375, 0.008172929, 0.1191039, -590818.8, -56894.23, 0.0, 9.9997425, 9.99912 
1.7349899e+3, 2.5551778e+2, -598835.8, -613612.9, -81844.31, 0.005102184, 0.10383072, -524047.22, -88112.266, 0.0, 9.999331, 9.999132 
1.7349756e+3, 2.6551682e+2, -491071.84, -479544.28, -46052.72, 0.0016762463, 0.08338329, -438896.06, -100951.66, 0.0, 9.999264, 9.9994135 
1.7349616e+3, 2.7551606e+2, -360766.25, -366419.56, -39477.094, -0.005167265, 0.058903802, -324014.75, -84063.414, 0.0, 9.999487, 9.999409 
1.7349476e+3, 2.8551587e+2, -280998.16, -274158.72, -36117.574, 0.006670505, 0.103511974, -241299.31, -99346.984, 0.0, 9.999349, 9.999436 
1.734934e+3, 2.955161e+2, -249227.89, -212408.9, -37595.04, 0.042898774, 0.1781492, -188957.95, -145008.63, 0.0, 9.998911, 9.999398 
1.7349203e+3, 3.055134e+2, -269196.88, -255067.98, -42412.34, 0.08402424, 0.0013388958, -219135.77, -219135.77, 0.0, 9.99869, 9.998879 
1.734906e+3, 3.1551275e+2, -157316.86, -6632.679, 35203.652, 0.037570342, 0.041668292, 1186.0852, 1186.0852, 0.0, 9.99862, 10.000618 
1.745187e+3, 1.2554583e+2, -1451146.3, -1740592.9, 103312.44, 0.01738809, 0.09742752, -1418054.3, 291608.8, 0.069128506, 10.002642, 9.998561 
1.7451696e+3, 1.3554458e+2, -1317312.3, -1617004.5, -101555.125, -0.012140976, 0.09999722, -1286141.0, 325534.3, 0.045049455, 10.002796, 9.998663 
1.7451546e+3, 1.4554355e+2, -1246013.8, -1542211.3, -7263.5273, 0.055860475, 0.14072415, -1245835.8, 267849.84, 0.022873743, 10.002594, 9.998589 
1.7451401e+3, 1.5554239e+2, -1210114.0, -1474227.3, -19824.555, 0.009273303, 0.1568392, -1208634.3, 207063.11, 0.0077954754, 10.002128, 9.998607 
1.7451252e+3, 1.6554058e+2, -1155272.3, -1406507.1, -66884.77, -0.026887376, 0.123386964, -1138575.6, 179138.58, 0.0013223072, 10.001858, 9.998529 
1.7451106e+3, 1.7553835e+2, -1071525.1, -1316282.3, -59201.91, -0.0010786676, 0.04204088, -1057957.5, 161776.72, 0.000049909977, 10.001763, 9.998521 
1.7450956e+3, 1.8553719e+2, -1012518.4, -1228944.4, -72180.43, 0.01682402, 0.075148635, -990654.25, 131091.69, 0.0000000000000006446772, 10.001461, 9.998593 
1.7450802e+3, 1.9553703e+2, -983127.94, -1161831.1, -77460.14, 0.007340816, 0.19593076, -954226.5, 69523.06, 0.0, 10.000981, 9.998611 
1.745065e+3, 2.0553571e+2, -892891.3, -1015135.8, -72143.1, 0.0049144137, 0.18143737, -859459.0, 66303.234, 0.0, 10.000703, 9.999081 
1.7450501e+3, 2.1553351e+2, -811259.6, -924828.0, -67061.07, 0.016630754, 0.048231184, -780171.0, 47610.313, 0.0, 10.000589, 9.999083 
1.745035e+3, 2.2553249e+2, -732589.6, -812555.4, -72137.44, 0.024791323, 0.03219616, -690095.6, 39694.55, 0.0, 10.000357, 9.999292 
1.74502e+3, 2.3553257e+2, -683698.25, -740270.1, -85902.96, 0.026702216, 0.10533927, -621544.06, 10245.305, 0.0, 10.000029, 9.999273 
1.7450048e+3, 2.455319e+2, -628065.9, -688208.7, -86036.95, 0.01591599, 0.12924379, -566996.5, -33200.277, 0.0, 9.999847, 9.999043 
1.7449893e+3, 2.5553074e+2, -538854.2, -592027.3, -75905.01, -0.0030612014, 0.10227337, -485014.28, -49205.836, 0.0, 9.999778, 9.999064 
1.7449749e+3, 2.6552975e+2, -465521.28, -453190.53, -32000.826, 0.000852306, 0.07658158, -426766.56, -88948.805, 0.0, 9.999381, 9.999536 
1.744961e+3, 2.755291e+2, -465253.38, -403858.8, -36171.62, 0.01965724, 0.05214844, -387114.47, -147291.5, 0.0, 9.998717, 9.999521 
1.7449467e+3, 2.8552896e+2, -404001.66, -330781.16, -37639.85, 0.016789243, 0.09526995, -314883.63, -173060.02, 0.0, 9.998495, 9.999458 
1.7449324e+3, 2.9552922e+2, -294248.0, -236214.25, -46497.004, 0.0073779966, 0.16774507, -210422.81, -166601.5, 0.0, 9.998614, 9.999377 
1.7449191e+3, 3.055267e+2, -297006.44, -282661.1, -33140.93, 0.11008773, 0.019920226, -255925.52, -255925.52, 0.0, 9.998561, 9.998753 
1.7449044e+3, 3.1552547e+2, -152570.58, 65097.418, 67402.86, 0.032924995, 0.010893316, 84278.984, 84278.984, 0.0, 9.998356, 10.001238 
1.7551897e+3, 1.2555994e+2, -1446143.0, -1727871.5, 106650.875, 0.03167534, 0.07297439, -1410323.5, 299199.34, 0.0731461, 10.002641, 9.998653 
1.7551725e+3, 1.3555868e+2, -1317984.3, -1619270.1, -97680.734, -0.013921384, 0.07120789, -1289086.6, 322448.06, 0.04794812, 10.002805, 9.998645 
1.7551565e+3, 1.455572e+2, -1291062.1, -1638098.9, -25884.893, -0.010059417, 0.10194005, -1289142.1, 224408.61, 0.02458278, 10.002598, 9.99793 
1.7551428e+3, 1.5555565e+2, -1252937.0, -1564603.6, -36032.074, 0.0680657, 0.1468464, -1248825.5, 166743.11, 0.008520388, 10.002131, 9.997986 
1.7551279e+3, 1.6555415e+2, -1141532.5, -1378219.4, -70515.1, 0.045746475, 0.16438556, -1122116.9, 195466.3, 0.0014925124, 10.001858, 9.998724 
1.7551121e+3, 1.7555277e+2, -1059266.5, -1291523.3, -62694.496, -0.015474113, 0.14885549, -1043423.6, 176170.7, 0.00006156021, 10.001765, 9.998691 
1.7550966e+3, 1.855511e+2, -1024445.2, -1254005.8, -90200.625, -0.018835338, 0.13163775, -993243.75, 128366.77, 0.0000000010737394, 10.00146, 9.998423 
1.7550813e+3, 1.9554934e+2, -993555.06, -1184816.4, -93530.46, 0.0087952465, 0.10656912, -955420.4, 68209.17, 0.0, 10.000985, 9.998453 
1.7550656e+3, 2.0554815e+2, -882495.2, -994238.6, -75965.78, -0.00022535518, 0.10781351, -844067.1, 81573.31, 0.0, 10.000704, 9.999224 
1.7550501e+3, 2.1554758e+2, -803639.5, -908657.0, -70229.664, -0.03224622, 0.12308654, -768459.1, 59184.492, 0.0, 10.000586, 9.999196 
1.7550349e+3, 2.2554661e+2, -756119.5, -860592.25, -83991.49, -0.02768449, 0.124561906, -709445.75, 20206.76, 0.0, 10.000351, 9.998965 
1.7550197e+3, 2.3554547e+2, -704326.1, -783927.2, -95938.414, 0.0043683634, 0.10714631, -640260.06, -8595.288, 0.0, 10.00003, 9.998974 
1.7550045e+3, 2.4554455e+2, -608679.5, -648096.06, -88051.29, 0.0149827935, 0.10507776, -538157.8, -4484.101, 0.0, 9.999847, 9.99932 
1.7549893e+3, 2.5554392e+2, -520164.94, -554419.75, -77853.836, 0.010692426, 0.1060301, -457576.8, -21897.836, 0.0, 9.999781, 9.999322 
1.7549744e+3, 2.6554316e+2, -465778.97, -455239.16, -56400.832, 0.029888943, 0.0890194, -403862.56, -66176.945, 0.0, 9.999386, 9.99952 
1.7549601e+3, 2.7554235e+2, -466481.28, -407422.72, -57762.617, 0.06417335, 0.05400594, -372079.03, -132387.06, 0.0, 9.998719, 9.999496 
1.7549452e+3, 2.855418e+2, -409018.22, -340840.25, -32528.904, 0.021499695, 0.058199286, -327810.34, -186112.9, 0.0, 9.998492, 9.999391 
1.7549302e+3, 2.9554144e+2, -298377.4, -248192.61, -41711.914, -0.07211548, 0.07930002, -224607.38, -180905.48, 0.0, 9.998628, 9.999289 
1.7549177e+3, 3.0554038e+2, -272751.72, -235074.89, -40090.617, 0.114954986, 0.06411645, -209617.22, -209617.22, 0.0, 9.998571, 9.999075 
1.754903e+3, 3.1553966e+2, -110452.836, 154458.1, 38522.55, 0.062554196, 0.06840762, 159946.22, 159946.22, 0.0, 9.998346, 10.001857 
1.7651923e+3, 1.2557428e+2, -1395342.4, -1719116.1, 92401.35, -0.012541058, 0.08310095, -1370828.1, 338554.63, 0.07730057, 10.003108, 9.998484 
1.7651756e+3, 1.3557325e+2, -1284159.9, -1619358.3, -117145.44, 0.008717105, 0.121472806, -1247278.0, 364115.1, 0.050952706, 10.003136, 9.998486 
1.7651586e+3, 1.4557135e+2, -1252800.6, -1630561.0, -47603.73, -0.05547989, 0.12340251, -1246894.3, 266518.75, 0.026366603, 10.002922, 9.997825 
1.7651452e+3, 1.5556926e+2, -1203393.0, -1552379.0, -18690.283, 0.06515109, 0.12586053, -1202394.9, 213040.47, 0.009289176, 10.002529, 9.997876 
1.76513e+3, 1.6556774e+2, -1103987.1, -1365368.8, -37168.375, 0.063588, 0.1477391, -1098804.6, 218645.48, 0.0016790415, 10.002143, 9.998673 
1.765114e+3, 1.755667e+2, -1063795.1, -1299380.4, -49118.84, -0.0071042376, 0.17217481, -1053964.3, 165493.95, 0.000074904594, 10.0017605, 9.998638 
1.7650981e+3, 1.855649e+2, -1022142.0, -1254379.6, -80967.22, -0.018204803, 0.14701192, -996700.7, 124774.61, 0.000000009428086, 10.001485, 9.998407 
1.7650823e+3, 1.9556266e+2, -948188.2, -1165138.9, -74383.6, 0.0072322423, 0.076601855, -925134.75, 98363.65, 0.0, 10.0013075, 9.998432 
1.7650665e+3, 2.0556149e+2, -839748.7, -977850.6, -55886.645, -0.0051583704, 0.08146117, -819966.4, 105542.92, 0.0, 10.001017, 9.999186 
1.7650506e+3, 2.1556132e+2, -799629.94, -910988.4, -65250.316, -0.043675978, 0.13962029, -769531.7, 57977.46, 0.0, 10.000634, 9.999155 
1.7650351e+3, 2.2556034e+2, -772207.94, -878503.44, -76853.39, -0.03903325, 0.14647453, -731915.2, -2396.8193, 0.0, 10.000286, 9.998873 
1.7650196e+3, 2.3555884e+2, -720407.1, -801134.4, -72392.02, -0.0010798804, 0.10443872, -677886.3, -46352.254, 0.0, 9.999963, 9.998887 
1.7650042e+3, 2.4555781e+2, -635019.3, -647615.2, -58743.934, 0.018322347, 0.08912287, -582236.7, -48692.816, 0.0, 9.99961, 9.999437 
1.7649889e+3, 2.5555727e+2, -590958.8, -576034.4, -61953.15, 0.02448117, 0.087355316, -521095.7, -85548.016, 0.0, 9.999243, 9.999433 
1.7649737e+3, 2.655567e+2, -510577.84, -476835.97, -49120.305, 0.03864667, 0.087813854, -441770.1, -104217.875, 0.0, 9.999081, 9.999518 
1.7649588e+3, 2.7555624e+2, -414743.53, -381890.5, -50292.85, 0.05718188, 0.0825997, -345409.53, -105853.266, 0.0, 9.999074, 9.999499 
1.7649436e+3, 2.8555545e+2, -361300.72, -306160.8, -11407.4, 0.0024236632, 0.060938075, -303894.03, -162330.31, 0.0, 9.998771, 9.999494 
1.7649284e+3, 2.955546e+2, -353843.34, -265869.56, -8912.532, -0.102389455, 0.021252654, -264975.72, -221403.17, 0.0, 9.99821, 9.999368 
1.7649163e+3, 3.0555457e+2, -351231.94, -255189.63, -848.6207, 0.14029798, 0.098072514, -255182.14, -255182.14, 0.0, 9.997956, 9.999231 
1.7649011e+3, 3.1555346e+2, -171941.39, 119845.76, 20162.422, 0.058728248, 0.04537144, 121232.39, 121232.39, 0.0, 9.997949, 10.001808 
1.7751944e+3, 1.2558903e+2, -1427110.1, -1783404.8, 69095.17, -0.10424378, 0.1433943, -1414180.0, 295060.66, 0.081620745, 10.003094, 9.998043 
1.7751792e+3, 1.3558826e+2, -1307901.4, -1667288.4, -116911.414, 0.048943542, 0.24473721, -1273216.6, 338033.75, 0.054072574, 10.003129, 9.998159 
1.7751613e+3, 1.4558597e+2, -1224540.5, -1568966.9, -62606.57, -0.08678612, 0.20030884, -1213513.5, 299759.16, 0.028222809, 10.002918, 9.998251 
1.775147e+3, 1.5558322e+2, -1176841.6, -1498342.6, -32544.656, 0.00039391415, 0.09444743, -1173580.3, 241717.33, 0.010097322, 10.002536, 9.998245 
1.7751318e+3, 1.6558132e+2, -1123692.0, -1407821.9, -51823.14, 0.024948588, 0.07692112, -1114535.0, 202779.92, 0.0018804749, 10.002149, 9.99838 
1.775116e+3, 1.7558013e+2, -1082501.1, -1338926.9, -62199.57, 0.02084846, 0.11560662, -1068210.3, 151115.47, 0.00008970714, 10.001763, 9.998366 
1.7751e+3, 1.855786e+2, -1013847.6, -1237412.1, -87365.234, 0.014997099, 0.123734355, -983756.9, 137583.53, 0.000000028818846, 10.001483, 9.998526 
1.7750837e+3, 1.9557698e+2, -941570.6, -1151111.5, -80125.19, -0.00015764397, 0.104502246, -914443.8, 108912.98, 0.0, 10.001305, 9.998531 
1.7750674e+3, 2.0557566e+2, -855671.44, -1010476.44, -69806.37, -0.013367612, 0.100176625, -828843.06, 96526.38, 0.0, 10.001013, 9.998964 
1.7750515e+3, 2.1557465e+2, -813918.3, -941205.75, -77968.336, -0.02124553, 0.09770634, -776916.2, 50462.094, 0.0, 10.000634, 9.998949 
1.7750357e+3, 2.255736e+2, -762648.2, -858795.1, -88477.76, -0.01253982, 0.09975018, -710027.2, 19360.963, 0.0, 10.000285, 9.999009 
1.7750198e+3, 2.3557264e+2, -711943.94, -783497.9, -82971.25, 0.008333721, 0.09773443, -657364.9, -25967.135, 0.0, 9.99996, 9.999011 
1.775004e+3, 2.4557161e+2, -638346.0, -654669.06, -71783.3, 0.023338465, 0.07971851, -574261.75, -40854.46, 0.0, 9.999609, 9.99939 
1.7749883e+3, 2.5557068e+2, -593957.7, -583565.3, -73135.38, 0.034957647, 0.044117674, -515441.75, -80026.35, 0.0, 9.999246, 9.99938 
1.7749728e+3, 2.6557037e+2, -509572.63, -475918.1, -48535.55, 0.023510752, 0.07244191, -441375.56, -103957.234, 0.0, 9.9990835, 9.999523 
1.7749573e+3, 2.7557063e+2, -411576.72, -378138.53, -49662.484, -0.008435038, 0.13962702, -342456.38, -103039.9, 0.0, 9.999084, 9.999521 
1.7749418e+3, 2.8556988e+2, -339750.03, -263950.88, -32146.836, -0.046548318, 0.10401719, -252153.4, -110730.336, 0.0, 9.99878, 9.99978 
1.7749268e+3, 2.955686e+2, -335617.9, -229553.52, -27718.205, -0.082725644, -0.007783948, -222746.66, -179312.56, 0.0, 9.998214, 9.999617 
1.7749147e+3, 3.0556914e+2, -350296.97, -252544.86, 1615.8895, 0.1840334, 0.116264395, -252518.16, -252518.16, 0.0, 9.997952, 9.999252 
1.774899e+3, 3.155685e+2, -229715.97, -1073.1144, -33797.387, 0.04688052, 0.112322845, 3818.0925, 3818.0925, 0.0, 9.997952, 10.000976 
1.7851973e+3, 1.256035e+2, -1435707.1, -1782028.0, 41353.35, -0.12104285, 0.17276876, -1430837.8, 278262.5, 0.08616123, 10.00302, 9.998083 
1.7851827e+3, 1.3560241e+2, -1322506.3, -1657761.0, -79874.66, 0.088142656, 0.23039939, -1304448.6, 306663.6, 0.057330903, 10.002964, 9.998298 
1.7851639e+3, 1.4560018e+2, -1220298.5, -1556984.5, -29776.777, -0.11314827, 0.18048875, -1217685.3, 295448.13, 0.030156005, 10.002916, 9.998331 
1.7851494e+3, 1.5559784e+2, -1128665.9, -1467964.4, -26786.049, -0.02896679, 0.107781254, -1126564.3, 288589.72, 0.0109433, 10.002846, 9.998302 
1.785134e+3, 1.6559587e+2, -1077300.6, -1396894.9, -57396.39, 0.008481032, 0.0869611, -1067305.3, 249866.47, 0.0020959685, 10.002519, 9.998276 
1.785118e+3, 1.7559424e+2, -1055534.0, -1336532.6, -54953.18, 0.022416027, 0.09283452, -1045169.44, 174017.4, 0.000105867584, 10.001996, 9.998269 
1.7851016e+3, 1.8559271e+2, -1004051.25, -1223839.9, -69669.875, 0.019539395, 0.10005641, -983827.75, 137373.78, 0.0000000562377, 10.001516, 9.998601 
1.7850848e+3, 1.9559142e+2, -969668.8, -1157815.0, -67126.42, -0.003494169, 0.105712086, -948175.06, 75039.21, 0.0, 10.001085, 9.9985895 
1.7850684e+3, 2.0559002e+2, -897642.9, -1049963.4, -54240.02, -0.011450587, 0.10327091, -880302.5, 44925.13, 0.0, 10.00081, 9.99879 
1.7850524e+3, 2.1558869e+2, -821824.75, -963369.06, -60465.785, -0.0046708807, 0.0853649, -799511.94, 27728.543, 0.0, 10.00066, 9.998784 
1.7850362e+3, 2.255876e+2, -747730.1, -842563.5, -75229.414, 0.003567218, 0.088015, -706220.94, 23029.916, 0.0, 10.000349, 9.99909 
1.7850196e+3, 2.3558685e+2, -713625.75, -775317.44, -75210.02, 0.012268748, 0.09813984, -663181.94, -31923.746, 0.0, 9.99991, 9.999089 
1.7850035e+3, 2.4558587e+2, -648764.4, -661774.94, -61938.305, 0.022360113, 0.08323473, -592990.7, -59723.516, 0.0, 9.999548, 9.999371 
1.7849876e+3, 2.5558493e+2, -596752.5, -587443.1, -61814.34, 0.035221793, 0.044479907, -530108.5, -94832.55, 0.0, 9.999238, 9.999357 
1.7849717e+3, 2.6558462e+2, -531445.5, -480636.84, -27139.59, 0.018012613, 0.07238103, -468866.75, -131587.86, 0.0, 9.998908, 9.999576 
1.7849559e+3, 2.755849e+2, -482392.94, -406329.97, -25841.998, -0.02584303, 0.13880841, -398381.0, -159104.28, 0.0, 9.998572, 9.999575 
1.7849404e+3, 2.8558427e+2, -402641.0, -283196.06, -22737.693, -0.05258704, 0.107398435, -279014.13, -137732.06, 0.0, 9.9983015, 9.999879 
1.784925e+3, 2.9558325e+2, -351109.78, -223050.61, -34866.195, -0.054899905, 0.013645269, -214173.14, -170883.14, 0.0, 9.998048, 9.999741 
1.7849125e+3, 3.0558378e+2, -341314.3, -232420.98, 15531.191, 0.1716456, 0.1185679, -230249.13, -230249.13, 0.0, 9.997946, 9.999394 
1.7848966e+3, 3.1558305e+2, -264547.03, -76329.78, -66948.04, 0.017488623, 0.093876325, -54946.1, -54946.1, 0.0, 9.997969, 10.000448 
1.7952009e+3, 1.2561777e+2, -1408250.5, -1710675.3, 1698.9799, -0.07120932, 0.17671439, -1408241.0, 300719.63, 0.09098768, 10.0029955, 9.998584 
1.795186e+3, 1.3561581e+2, -1285961.3, -1577409.1, -79139.03, 0.1246259, 0.087301835, -1265858.6, 345119.4, 0.060760994, 10.002967, 9.9988575 
1.7951666e+3, 1.4561404e+2, -1238321.3, -1595616.9, -33165.47, -0.1376245, 0.07098797, -1235268.9, 277726.1, 0.03217915, 10.002919, 9.998065 
1.7951523e+3, 1.5561308e+2, -1147197.9, -1505573.0, -29363.867, -0.029222568, 0.16460904, -1144807.9, 270196.97, 0.011831271, 10.002841, 9.998048 
1.7951365e+3, 1.6561134e+2, -1073374.5, -1387472.6, -76946.67, 0.008557253, 0.17449516, -1055537.3, 261483.9, 0.0023264778, 10.002513, 9.998344 
1.7951196e+3, 1.75609e+2, -1050593.9, -1326853.8, -73319.16, -0.003733713, 0.10212344, -1032341.0, 186701.19, 0.00012352158, 10.001997, 9.998336 
1.7951028e+3, 1.8560718e+2, -1001709.2, -1220429.8, -85723.5, -0.007224982, 0.07575328, -972115.56, 148943.5, 0.000000085167756, 10.00152, 9.998624 
1.7950858e+3, 1.9560589e+2, -967925.0, -1156080.3, -81474.21, -0.005881354, 0.08136354, -937549.2, 85522.02, 0.0, 10.001091, 9.9986 
1.7950693e+3, 2.0560458e+2, -906814.7, -1069643.4, -59381.12, -0.0021419118, 0.09274862, -887459.94, 37624.168, 0.0, 10.000811, 9.998655 
1.795053e+3, 2.1560338e+2, -831194.9, -982511.1, -64817.89, 0.0048960503, 0.10154476, -807226.1, 19870.14, 0.0, 10.000657, 9.998655 
1.7950365e+3, 2.2560228e+2, -746726.5, -840191.2, -90913.61, 0.0071573267, 0.108678915, -691237.5, 37869.74, 0.0, 10.000345, 9.999108 
1.7950195e+3, 2.3560141e+2, -712472.2, -773676.0, -89705.5, 0.0062497463, 0.1050003, -648292.5, -17176.297, 0.0, 9.999911, 9.999102 
1.795003e+3, 2.4560057e+2, -647684.9, -659881.9, -72898.03, 0.011313536, 0.100881435, -580630.7, -47506.664, 0.0, 9.999548, 9.999385 
1.7949866e+3, 2.555999e+2, -595058.6, -584763.6, -71735.805, 0.022557251, 0.090729885, -517990.88, -82861.19, 0.0, 9.999239, 9.999376 
1.7949706e+3, 2.6559934e+2, -523341.34, -465575.56, -38663.242, 0.020084072, 0.08604403, -446198.03, -109063.46, 0.0, 9.998914, 9.999678 
1.7949548e+3, 2.7559894e+2, -475393.63, -394602.75, -35505.715, 0.0022262547, 0.072778665, -381216.7, -142078.48, 0.0, 9.998582, 9.999652 
1.794939e+3, 2.8559855e+2, -409104.3, -297677.06, -31614.645, -0.018001549, 0.06877359, -289332.2, -148190.69, 0.0, 9.998304, 9.999778 
1.7949234e+3, 2.9559863e+2, -352209.44, -226520.1, -42831.465, -0.027577497, 0.09459361, -213312.25, -170172.02, 0.0, 9.998052, 9.999716 
1.7949095e+3, 3.0559826e+2, -321285.44, -192637.19, 18441.55, 0.088978454, 0.09693905, -190045.81, -190045.81, 0.0, 9.9979515, 9.999665 
1.7948943e+3, 3.1559715e+2, -251110.98, -54320.266, -101297.195, -0.0074303653, 0.010379705, -11496.759, -11496.759, 0.0, 9.9979925, 10.00059 
1.8052037e+3, 1.2563264e+2, -1461692.4, -1741752.6, 33096.453, -0.06685876, 0.15193154, -1457834.3, 250979.33, 0.09616451, 10.002618, 9.998553 
1.8051891e+3, 1.3563077e+2, -1237576.6, -1548062.5, -44453.22, 0.12248982, 0.06515101, -1231337.5, 379492.5, 0.06440308, 10.003307, 9.998908 
1.8051696e+3, 1.4562914e+2, -1185856.6, -1572076.6, -28524.625, -0.15717505, 0.061598275, -1183761.4, 329084.38, 0.03431206, 10.003312, 9.998036 
1.805155e+3, 1.5562817e+2, -1168602.0, -1519278.6, -9952.304, -0.016291402, 0.15903814, -1168319.8, 246536.44, 0.01276939, 10.00271, 9.998015 
1.805139e+3, 1.6562644e+2, -1099362.1, -1393485.1, -49928.383, 0.024372477, 0.16826856, -1091117.8, 225754.86, 0.002574409, 10.002311, 9.998399 
1.8051216e+3, 1.7562412e+2, -1034355.06, -1314622.8, -49416.348, -0.0151699595, 0.09332645, -1025897.3, 192995.64, 0.00014305822, 10.002092, 9.998372 
1.8051043e+3, 1.8562223e+2, -969920.7, -1228486.8, -70880.55, -0.01937237, 0.07039833, -951765.06, 169145.63, 0.00000010953618, 10.001842, 9.998412 
1.8050872e+3, 1.9562083e+2, -912037.7, -1150658.6, -85050.82, 0.0031081382, 0.08484728, -884826.4, 138098.42, 0.0, 10.00157, 9.9984045 
1.8050703e+3, 2.0561945e+2, -864290.5, -1041241.3, -63908.0, 0.010860019, 0.09552326, -843623.2, 81315.12, 0.0, 10.001071, 9.998724 
1.8050537e+3, 2.1561822e+2, -865417.06, -991863.44, -56130.484, 0.0074376673, 0.095832855, -844095.56, -17145.346, 0.0, 10.000395, 9.998715 
1.8050367e+3, 2.2561714e+2, -806243.0, -877632.8, -75276.37, 0.0069986866, 0.104847826, -758627.3, -29665.951, 0.0, 9.999976, 9.999029 
1.8050194e+3, 2.356163e+2, -740029.4, -794981.1, -81985.734, 0.009125577, 0.112638526, -681038.0, -50067.406, 0.0, 9.999758, 9.999029 
1.8050024e+3, 2.4561554e+2, -648814.0, -650875.8, -63521.004, 0.015757006, 0.115617335, -586315.56, -53337.645, 0.0, 9.999497, 9.999471 
1.8049859e+3, 2.5561497e+2, -594109.44, -573806.6, -58461.348, 0.027223185, 0.10820137, -524621.9, -89639.66, 0.0, 9.999202, 9.999469 
1.8049695e+3, 2.656144e+2, -532246.25, -453923.3, -25231.191, 0.027607543, 0.08676638, -446499.03, -109511.98, 0.0, 9.998784, 9.999821 
1.8049534e+3, 2.7561375e+2, -514080.34, -398728.0, -19461.82, 0.017191412, 0.040319603, -395532.97, -156541.14, 0.0, 9.998254, 9.999782 
1.8049374e+3, 2.8561354e+2, -459370.53, -321166.06, 1746.4216, 0.0051987777, 0.04507042, -321144.0, -180150.23, 0.0, 9.997956, 9.999784 
1.8049216e+3, 2.9561406e+2, -373163.34, -228212.38, -2659.2039, 0.0019299436, 0.11466088, -228163.6, -185174.67, 0.0, 9.997872, 9.99979 
1.8049064e+3, 3.0561343e+2, -367430.72, -177311.97, 60529.35, 0.009199408, 0.06642613, -159676.69, -159676.69, 0.0, 9.997476, 9.999999 
1.8048923e+3, 3.156132e+2, -388759.13, -58376.137, -69345.42, 0.045867737, 0.042840093, -44411.227, -44411.227, 0.0, 9.996781, 10.001145 
1.815206e+3, 1.2564813e+2, -1494147.1, -1816815.0, 10724.471, -0.10985543, 0.10373362, -1493791.1, 214867.97, 0.10174683, 10.002631, 9.998032 
1.815192e+3, 1.3564718e+2, -1267581.1, -1606936.9, -20033.623, 0.07715532, 0.15625487, -1266402.5, 344266.3, 0.06829826, 10.003303, 9.99848 
1.8151726e+3, 1.4564537e+2, -1175486.5, -1546130.9, -50670.254, -0.17960478, 0.14549299, -1168684.3, 344002.13, 0.0365772, 10.003302, 9.998221 
1.8151581e+3, 1.556431e+2, -1157147.3, -1495092.3, -30799.889, 0.0068788673, 0.09410886, -1154363.1, 260345.02, 0.013766695, 10.002711, 9.998181 
1.8151416e+3, 1.6564116e+2, -1096008.5, -1388932.8, -58462.203, 0.051465735, 0.07411689, -1084771.5, 231954.31, 0.0028426799, 10.002318, 9.998427 
1.8151237e+3, 1.7563957e+2, -1033148.06, -1314269.9, -56826.316, -0.01599021, 0.06813097, -1022095.6, 196643.78, 0.00016504708, 10.002099, 9.998372 
1.8151061e+3, 1.8563783e+2, -1001365.06, -1293856.8, -80828.945, -0.02149495, 0.084687755, -980514.6, 140242.08, 0.00000012908751, 10.001841, 9.997965 
1.815089e+3, 1.9563614e+2, -940161.6, -1209366.3, -94393.07, 0.021692637, 0.11400276, -910362.5, 112412.9, 0.0, 10.00157, 9.998003 
1.8150716e+3, 2.0563456e+2, -846591.4, -1004717.3, -88616.88, 0.024928832, 0.109482, -806894.44, 117896.445, 0.0, 10.00107, 9.998976 
1.815054e+3, 2.1563318e+2, -849356.8, -959656.3, -78891.85, -0.0014412331, 0.06877563, -808249.5, 18553.408, 0.0, 10.000397, 9.998937 
1.8150365e+3, 2.2563212e+2, -818388.3, -902549.25, -82852.016, -0.00095760386, 0.078745514, -767542.9, -38729.207, 0.0, 9.999973, 9.99886 
1.8150192e+3, 2.3563144e+2, -750212.7, -816974.56, -88299.875, 0.020325698, 0.12070812, -689194.7, -58372.54, 0.0, 9.99976, 9.9988785 
1.8150023e+3, 2.456307e+2, -637651.06, -628918.8, -73668.76, 0.03449492, 0.124389105, -559486.94, -26657.33, 0.0, 9.999501, 9.99962 
1.8149853e+3, 2.5563008e+2, -583054.8, -552692.06, -68131.33, 0.043810192, 0.09438786, -498071.22, -63236.805, 0.0, 9.999207, 9.999613 
1.8149684e+3, 2.6562965e+2, -518658.2, -426324.34, -44607.05, 0.035825815, 0.0745584, -408294.88, -71457.75, 0.0, 9.998786, 10.00001 
1.8149516e+3, 2.756294e+2, -501016.88, -371821.16, -37086.258, 0.01359479, 0.045757562, -361932.28, -123094.445, 0.0, 9.998253, 9.999968 
1.8149354e+3, 2.8562918e+2, -448821.75, -302122.53, -238.3814, 0.01247322, 0.037325155, -302122.16, -161282.77, 0.0, 9.997965, 9.999913 
1.8149199e+3, 2.956294e+2, -356522.03, -201264.08, -3408.7139, 0.031267606, 0.06483182, -201189.27, -158351.77, 0.0, 9.997901, 9.999964 
1.8149032e+3, 3.0562916e+2, -342277.94, -125998.25, 33171.52, -0.07022682, 0.02413601, -121024.984, -121024.984, 0.0, 9.997481, 10.000347 
1.8148893e+3, 3.1562907e+2, -319354.7, 88878.79, -64884.977, 0.07041019, -0.01827608, 98943.52, 98943.52, 0.0, 9.996764, 10.002166 
1.8252088e+3, 1.256641e+2, -1364758.5, -1756838.1, -21344.088, -0.13084555, 0.098803714, -1363600.0, 344901.16, 0.10776605, 10.003685, 9.997936 
1.8251951e+3, 1.356629e+2, -1271878.9, -1614764.3, 14307.041, 0.07231421, 0.13349824, -1271283.0, 339230.22, 0.072472624, 10.003312, 9.99842 
1.825176e+3, 1.4566109e+2, -1207574.4, -1563149.3, -28122.025, -0.15865356, 0.12595096, -1205364.0, 307166.66, 0.038990494, 10.003087, 9.998205 
1.8251608e+3, 1.5565877e+2, -1126642.5, -1482551.9, -23198.844, 0.0062461025, 0.07103563, -1125136.8, 289416.03, 0.01482972, 10.002939, 9.998156 
1.825144e+3, 1.6565682e+2, -1047905.1, -1380067.3, -58503.613, 0.045033503, 0.05779041, -1037902.1, 278669.0, 0.0031336541, 10.002715, 9.998296 
1.8251258e+3, 1.7565526e+2, -992959.25, -1307717.8, -71104.77, -0.017809616, 0.069345854, -977641.94, 240943.36, 0.00019006866, 10.002434, 9.998255 
1.8251081e+3, 1.8565352e+2, -981553.75, -1269855.4, -84330.45, -0.015655043, 0.084233165, -958698.3, 161904.17, 0.00000015151502, 10.001917, 9.998092 
1.8250905e+3, 1.9565178e+2, -983096.2, -1218040.9, -57546.867, 0.03663086, 0.09735663, -969758.0, 52862.605, 0.0, 10.001225, 9.998108 
1.8250726e+3, 2.0565015e+2, -895748.56, -1047487.44, -48600.266, 0.03900074, 0.092053436, -881517.2, 43119.613, 0.0, 10.000815, 9.998804 
1.8250544e+3, 2.1564871e+2, -827296.5, -965469.5, -71174.22, 0.003536579, 0.06359179, -797192.75, 29457.494, 0.0, 10.000621, 9.998788 
1.8250366e+3, 2.2564761e+2, -765919.6, -861969.8, -71852.09, -0.0007737744, 0.06880993, -727520.56, 1140.6356, 0.0, 10.000268, 9.998997 
1.825019e+3, 2.3564687e+2, -737462.1, -795700.6, -55971.42, 0.019443257, 0.09211581, -703488.3, -72819.23, 0.0, 9.999784, 9.999012 
1.8250015e+3, 2.456462e+2, -661784.8, -640715.1, -37266.934, 0.040109575, 0.09562013, -612522.6, -79846.57, 0.0, 9.999338, 9.999618 
1.8249846e+3, 2.556457e+2, -626615.8, -574132.8, -44206.023, 0.06171749, 0.0792562, -548966.25, -114285.61, 0.0, 9.998911, 9.999607 
1.8249671e+3, 2.6564547e+2, -562116.5, -445549.25, -36558.99, 0.050263323, 0.07948299, -435032.16, -98350.09, 0.0, 9.998481, 10.000025 
1.8249497e+3, 2.7564552e+2, -531127.0, -383092.5, -43702.047, 0.013863506, 0.07876508, -371153.84, -132473.63, 0.0, 9.9980345, 9.999995 
1.8249333e+3, 2.8564528e+2, -478417.47, -291801.1, 2446.2546, 0.023411125, 0.05154919, -291769.03, -151087.06, 0.0, 9.997657, 10.000132 
1.8249178e+3, 2.9564506e+2, -424822.97, -208115.72, 3956.0771, 0.0696924, 0.014139749, -208043.52, -165360.13, 0.0, 9.997321, 10.0001955 
1.8249002e+3, 3.0564544e+2, -407570.53, -134929.92, 23955.512, -0.0967656, 0.017809693, -132841.08, -132841.08, 0.0, 9.996939, 10.0005455 
1.8248865e+3, 3.156457e+2, -305636.9, 147865.3, -39784.426, 0.118518025, -0.010536591, 151329.02, 151329.02, 0.0, 9.996632, 10.002637 
1.8352123e+3, 1.256805e+2, -1352439.3, -1718413.4, -70930.8, -0.15144938, 0.13308357, -1339172.8, 369167.34, 0.11422007, 10.003662, 9.998221 
1.8351987e+3, 1.3567801e+2, -1255389.6, -1578346.6, 3468.0713, 0.10229753, 0.0069616865, -1255352.4, 355009.9, 0.07692826, 10.003319, 9.998684 
1.8351796e+3, 1.4567634e+2, -1220221.5, -1592961.9, -34192.457, -0.10170428, 0.013572688, -1217110.9, 295267.1, 0.041556932, 10.003102, 9.997995 
1.8351634e+3, 1.5567511e+2, -1140700.8, -1513045.6, -27650.121, -0.021863636, 0.08754318, -1138658.8, 275731.9, 0.015961973, 10.002943, 9.997946 
1.8351464e+3, 1.656733e+2, -1069594.6, -1424081.8, -68736.96, 0.0016332617, 0.114164054, -1056732.9, 259676.23, 0.003449119, 10.002709, 9.997997 
1.8351284e+3, 1.7567113e+2, -1010160.94, -1342916.3, -81305.805, -0.022591932, 0.094273426, -991357.2, 227073.7, 0.00021871291, 10.00243, 9.998016 
1.83511e+3, 1.8566923e+2, -934595.3, -1172984.1, -109783.94, -0.00562837, 0.06950666, -891740.9, 228707.44, 0.00000018976193, 10.001917, 9.998758 
1.8350919e+3, 1.9566771e+2, -941157.5, -1133481.4, -81007.88, 0.04470641, 0.0368269, -911584.0, 110876.89, 0.0, 10.001234, 9.998686 
1.8350735e+3, 2.0566617e+2, -936314.56, -1132796.6, -55415.547, 0.049882054, 0.04557666, -921762.94, 2713.5164, 0.0, 10.000819, 9.998219 
1.8350552e+3, 2.1566476e+2, -862850.0, -1040687.06, -77095.2, 0.020798309, 0.077734925, -834081.75, -7588.7983, 0.0, 10.000625, 9.998272 
1.8350369e+3, 2.2566353e+2, -735936.2, -799796.1, -89174.16, 0.005466234, 0.07121497, -673147.9, 55357.027, 0.0, 10.000267, 9.999425 
1.8350185e+3, 2.3566255e+2, -710236.94, -739656.6, -72110.516, 0.0015837562, 0.027044475, -651351.25, -20839.121, 0.0, 9.9997835, 9.999397 
1.8350008e+3, 2.4566197e+2, -673008.25, -663412.56, -52576.41, 0.02859177, 0.03095922, -615415.56, -82897.586, 0.0, 9.999334, 9.999464 
1.8349835e+3, 2.556618e+2, -636718.1, -596000.25, -58261.56, 0.07858855, 0.06349893, -554642.94, -120121.33, 0.0, 9.998914, 9.999457 
1.8349658e+3, 2.6566178e+2, -573465.2, -471347.72, -52461.215, 0.06887702, 0.10092871, -449200.06, -112677.43, 0.0, 9.998487, 9.9998455 
1.8349478e+3, 2.75662e+2, -540287.25, -405363.47, -58444.93, 0.013685718, 0.13722521, -383567.78, -145047.69, 0.0, 9.998045, 9.999839 
1.8349311e+3, 2.8566158e+2, -456069.7, -247193.95, -10208.207, 0.033481713, 0.085119, -246696.23, -106173.32, 0.0, 9.9976635, 10.000435 
1.8349156e+3, 2.9566082e+2, -404886.25, -167850.95, -8421.286, 0.10801371, -0.038934056, -167552.14, -125024.27, 0.0, 9.997325, 10.00047 
1.8348974e+3, 3.0566233e+2, -404826.38, -129141.98, 8979.293, -0.068278454, 0.06014782, -128849.82, -128849.82, 0.0, 9.996937, 10.000587 
1.8348825e+3, 3.1566355e+2, -340233.0, 67204.91, 8674.387, 0.04603015, 0.123619445, 67389.51, 67389.51, 0.0, 9.99666, 10.002073 
1.845216e+3, 1.2569706e+2, -1384914.4, -1740626.1, -47555.086, -0.131036, 0.10877736, -1378666.5, 329510.13, 0.121078186, 10.00346, 9.998158 
1.845202e+3, 1.3569464e+2, -1168262.5, -1540035.0, 32509.615, 0.0707596, -0.0056345705, -1165441.1, 444756.84, 0.08165061, 10.004006, 9.998639 
1.8451834e+3, 1.45693e+2, -1116811.5, -1549585.9, -26236.05, -0.07985925, 0.011149149, -1115226.8, 396986.28, 0.044275217, 10.003893, 9.9979105 
1.8451667e+3, 1.5569153e+2, -1107804.9, -1506290.0, -14985.175, -0.018937156, 0.06875158, -1107242.1, 306985.84, 0.017166656, 10.003218, 9.99786 
1.845149e+3, 1.6568954e+2, -1096572.8, -1442364.1, -43081.926, -0.0017393384, 0.08574707, -1091286.0, 224962.17, 0.0037913383, 10.002548, 9.997948 
1.8451303e+3, 1.756873e+2, -1090326.1, -1386525.1, -38026.906, -0.022068432, 0.064034455, -1085522.0, 132748.98, 0.00025177147, 10.001903, 9.99797 
1.8451118e+3, 1.8568546e+2, -967094.06, -1184654.9, -77706.34, -0.0061787986, 0.0441674, -942190.3, 178097.73, 0.00000025167606, 10.001678, 9.998792 
1.845093e+3, 1.9568405e+2, -859913.3, -1090681.4, -97148.98, 0.037943125, 0.02078887, -824461.7, 197837.61, 0.0, 10.001779, 9.998715 
1.8450746e+3, 2.0568258e+2, -846361.3, -1093355.1, -72782.234, 0.046033755, 0.03635193, -826509.9, 97804.47, 0.0, 10.001455, 9.998181 
1.845056e+3, 2.1568118e+2, -839071.5, -1032654.94, -55671.38, 0.026883896, 0.07459366, -824203.25, 2127.812, 0.0, 10.000806, 9.998238 
1.8450372e+3, 2.2567993e+2, -744680.7, -802622.2, -70579.99, 0.019086367, 0.067746066, -697357.0, 30986.32, 0.0, 10.000203, 9.999435 
1.8450184e+3, 2.3567893e+2, -731860.75, -749376.75, -85717.58, 0.021218572, 0.018426105, -654454.94, -24104.053, 0.0, 9.999635, 9.999402 
1.8450002e+3, 2.4567834e+2, -695688.1, -680032.44, -69209.96, 0.041007314, 0.024551818, -618209.06, -85852.12, 0.0, 9.999205, 9.999413 
1.8449824e+3, 2.5567818e+2, -645538.06, -604502.75, -68472.61, 0.07399084, 0.06447275, -553539.8, -119179.164, 0.0, 9.998875, 9.999416 
1.8449642e+3, 2.6567814e+2, -556119.2, -463813.13, -49698.234, 0.064740844, 0.10023912, -442142.75, -105780.4, 0.0, 9.998613, 9.999834 
1.844946e+3, 2.7567828e+2, -488933.03, -382635.25, -43848.45, 0.024509167, 0.12823997, -366882.1, -128521.125, 0.0, 9.998409, 9.999817 
1.844929e+3, 2.856779e+2, -417993.84, -235620.95, -11953.328, 0.036295727, 0.08631798, -234840.83, -94477.445, 0.0, 9.997956, 10.000373 
1.8449126e+3, 2.956773e+2, -422532.5, -183312.8, -42197.867, 0.08568552, -0.014778921, -176087.4, -133720.64, 0.0, 9.997237, 10.000405 
1.8448944e+3, 3.0567876e+2, -445985.22, -147286.42, -28531.441, -0.035595912, 0.08096954, -144585.55, -144585.55, 0.0, 9.996652, 10.000598 
1.8448788e+3, 3.1567907e+2, -407197.72, -12938.741, 5779.9624, 0.034396388, 0.05558082, -12854.023, -12854.023, 0.0, 9.996406, 10.001646 
1.8552199e+3, 1.2571378e+2, -1408124.0, -1794333.1, -52190.402, -0.0982626, 0.03343691, -1401195.5, 306814.9, 0.12828688, 10.00348, 9.997782 
1.8552051e+3, 1.3571268e+2, -1192289.1, -1583922.4, 50757.773, -0.024217207, 0.084424116, -1185817.6, 424203.6, 0.08661796, 10.003998, 9.998317 
1.8551871e+3, 1.4571096e+2, -1120498.8, -1551107.9, -51108.305, -0.09785401, 0.10677024, -1114515.9, 397521.38, 0.047144454, 10.003873, 9.997912 
1.85517e+3, 1.5570799e+2, -1107896.1, -1505761.4, -39421.49, 0.009676201, 0.017412372, -1104027.8, 310037.25, 0.018449815, 10.003217, 9.997866 
1.8551518e+3, 1.6570558e+2, -1082430.4, -1415170.4, -67464.836, 0.028587483, -0.018641714, -1069271.9, 246816.2, 0.0041641076, 10.002557, 9.998132 
1.8551323e+3, 1.7570376e+2, -1079517.5, -1366764.0, -59371.473, -0.019176051, -0.017716207, -1067729.6, 150376.25, 0.00029041685, 10.001912, 9.998102 
1.8551134e+3, 1.8570212e+2, -1007472.1, -1269855.9, -73670.7, -0.020348575, 0.008130642, -988202.44, 131919.92, 0.0000003514084, 10.001682, 9.998206 
1.8550947e+3, 1.9570073e+2, -895599.2, -1165642.1, -93493.28, 0.014503927, 0.045400452, -866389.75, 155746.75, 0.0, 10.00178, 9.998201 
1.8550758e+3, 2.056993e+2, -811674.25, -1021630.8, -96581.78, 0.025345445, 0.061745465, -774004.44, 150146.86, 0.0, 10.001454, 9.998675 
1.8550566e+3, 2.1569794e+2, -809437.0, -970904.75, -78184.234, 0.018406443, 0.055353276, -777784.3, 48380.88, 0.0, 10.000803, 9.998665 
1.8550377e+3, 2.2569679e+2, -773638.5, -862335.94, -91418.336, 0.03740379, 0.060117643, -716379.56, 11797.584, 0.0, 10.0002, 9.999028 
1.8550187e+3, 2.3569591e+2, -758037.94, -804833.75, -104494.836, 0.076618426, 0.064598024, -674353.5, -44167.19, 0.0, 9.999638, 9.999021 
1.8549998e+3, 2.4569517e+2, -692357.8, -674364.4, -80962.59, 0.07498656, 0.07394648, -601900.2, -69706.23, 0.0, 9.999208, 9.99945 
1.8549809e+3, 2.5569478e+2, -641106.2, -597042.3, -79094.72, 0.042607527, 0.08158805, -536968.4, -102769.52, 0.0, 9.998879, 9.999466 
1.8549626e+3, 2.656944e+2, -545148.25, -442060.47, -57157.28, 0.034846485, 0.07689847, -416638.6, -80436.336, 0.0, 9.998617, 9.999983 
1.8549445e+3, 2.7569416e+2, -480393.63, -366807.94, -50206.9, 0.044250354, 0.051547434, -347797.38, -109593.5, 0.0, 9.998417, 9.999923 
1.8549268e+3, 2.8569406e+2, -447849.28, -300779.66, -39025.793, 0.02736867, 0.055713184, -291065.56, -150861.03, 0.0, 9.997967, 9.999922 
1.8549088e+3, 2.9569432e+2, -450391.97, -245062.13, -71099.914, -0.008095066, 0.08733527, -222845.97, -180644.39, 0.0, 9.997251, 9.999976 
1.8548915e+3, 3.0569446e+2, -444733.66, -147699.69, -41799.25, 0.003995294, 0.07136183, -141929.69, -141929.69, 0.0, 9.996665, 10.000588 
1.8548763e+3, 3.156945e+2, -419667.47, -43837.65, -11606.249, 0.13669519, 0.020855194, -43479.57, -43479.57, 0.0, 9.996425, 10.001426 
1.8652242e+3, 1.2573133e+2, -1277330.9, -1748149.6, -51533.07, -0.06117531, 0.026806176, -1271756.4, 436080.3, 0.1357721, 10.00466, 9.99753 
1.8652089e+3, 1.357298e+2, -1218693.5, -1621521.9, 59925.258, -0.050074432, 0.059604537, -1209967.9, 399884.94, 0.09180295, 10.003931, 9.99808 
1.8651912e+3, 1.457282e+2, -1174392.4, -1569817.3, -46737.613, -0.062110953, 0.10240827, -1168943.3, 342924.84, 0.05016522, 10.00346, 9.997982 
1.8651731e+3, 1.5572539e+2, -1106724.0, -1498056.3, -30646.191, -0.0013348716, 0.020403836, -1104338.6, 309555.66, 0.019819729, 10.0032, 9.997925 
1.8651542e+3, 1.6572298e+2, -1037718.44, -1396898.3, -65835.61, 0.008245579, -0.015086444, -1026031.44, 289885.53, 0.0045722285, 10.002882, 9.9981 
1.8651345e+3, 1.757211e+2, -994831.9, -1330346.9, -75379.734, -0.016929956, -0.017568085, -978674.5, 239260.55, 0.0003360051, 10.002513, 9.998062 
1.8651152e+3, 1.8571931e+2, -960214.75, -1260032.6, -66000.27, -0.013137033, 0.0028859277, -946328.94, 173624.02, 0.00000050835786, 10.002064, 9.998089 
1.8650962e+3, 1.9571775e+2, -935104.75, -1196072.5, -53655.086, 0.010706538, 0.03393427, -924503.9, 97465.31, 0.0, 10.001559, 9.998097 
1.865077e+3, 2.0571627e+2, -855630.7, -1032613.9, -69212.695, 0.02239564, 0.046151124, -831778.4, 92205.93, 0.0, 10.001111, 9.998764 
1.8650575e+3, 2.1571498e+2, -818166.56, -967089.4, -82170.305, 0.02596684, 0.03699827, -781738.56, 44258.598, 0.0, 10.00071, 9.998734 
1.865038e+3, 2.2571391e+2, -763725.9, -875186.75, -93733.66, 0.038716845, 0.056727868, -710406.4, 17602.414, 0.0, 10.000346, 9.998869 
1.8650183e+3, 2.3571315e+2, -713384.25, -798542.25, -89340.0, 0.058227338, 0.0899716, -656995.56, -26977.277, 0.0, 10.000012, 9.998882 
1.8649991e+3, 2.4571237e+2, -624462.75, -630140.7, -51391.93, 0.056135464, 0.09441773, -575831.44, -43804.984, 0.0, 9.999628, 9.99955 
1.8649799e+3, 2.5571173e+2, -588674.8, -561848.25, -46809.293, 0.039644875, 0.07167396, -526568.3, -92536.25, 0.0, 9.999199, 9.999552 
1.8649612e+3, 2.6571134e+2, -542641.8, -439301.3, -30901.033, 0.04388686, 0.0590088, -430766.2, -94730.62, 0.0, 9.99863, 9.999995 
1.864943e+3, 2.757112e+2, -548327.3, -396192.2, -35156.83, 0.060321707, 0.04223015, -388460.72, -150424.1, 0.0, 9.997939, 9.99995 
1.8649246e+3, 2.8571123e+2, -522266.4, -327852.1, -8438.239, 0.034565125, 0.056121055, -327486.53, -187450.63, 0.0, 9.997421, 9.999997 
1.864906e+3, 2.9571173e+2, -478031.63, -251369.23, -2597.1807, -0.012316401, 0.099377446, -251339.48, -209308.44, 0.0, 9.997033, 10.000036 
1.8648885e+3, 3.0571127e+2, -449612.53, -169883.88, 47147.688, 0.041554566, 0.034433942, -162151.0, -162151.0, 0.0, 9.996717, 10.00041 
1.8648721e+3, 3.1571174e+2, -414293.06, -32456.365, 32327.46, 0.08180533, 0.040800676, -29738.766, -29738.766, 0.0, 9.996427, 10.001499 
1.875229e+3, 1.2574953e+2, -1292457.8, -1773345.5, -74797.71, -0.051607095, 0.068248816, -1281092.3, 426565.13, 0.14345883, 10.004645, 9.997371 
1.8752131e+3, 1.357461e+2, -1232238.9, -1647878.6, 36479.637, -0.016096951, -0.0670645, -1229061.5, 380630.5, 0.09718218, 10.003934, 9.997895 
1.8751954e+3, 1.4574486e+2, -1165815.0, -1549478.4, -55938.547, 0.01688096, 0.012842778, -1157825.5, 353878.97, 0.05334204, 10.003462, 9.998122 
1.8751758e+3, 1.5574363e+2, -1099214.8, -1480912.3, -38971.574, -0.053065933, 0.07314631, -1095276.4, 318440.06, 0.021286089, 10.003197, 9.998045 
1.8751563e+3, 1.6574161e+2, -1056573.9, -1435230.9, -79915.71, -0.0634529, 0.085284196, -1040398.6, 275337.28, 0.0050208755, 10.002876, 9.997841 
1.8751371e+3, 1.7573923e+2, -1010429.5, -1363177.5, -88266.15, -0.01768999, 0.059031457, -989575.94, 228183.3, 0.00038988978, 10.002513, 9.997838 
1.8751176e+3, 1.8573701e+2, -936458.56, -1211554.0, -84531.59, 0.010904625, 0.029138524, -912559.8, 207220.3, 0.000000733184, 10.002066, 9.998422 
1.875098e+3, 1.9573508e+2, -915273.56, -1155305.1, -71060.88, 0.023176292, -0.010219483, -895813.8, 125983.94, 0.0, 10.001559, 9.998379 
1.8750782e+3, 2.0573345e+2, -877088.3, -1077864.3, -83963.13, 0.03433063, -0.008349826, -846604.0, 77209.96, 0.0, 10.001112, 9.998454 
1.8750584e+3, 2.157322e+2, -838523.94, -1009430.75, -95194.914, 0.046839885, 0.018144637, -796054.06, 29773.594, 0.0, 10.000709, 9.9984455 
1.8750381e+3, 2.2573124e+2, -757578.06, -863117.25, -105497.01, 0.020183263, 0.056396432, -692388.94, 35450.188, 0.0, 10.000347, 9.998952 
1.8750173e+3, 2.3573062e+2, -707098.94, -785838.9, -100195.164, -0.037196636, 0.0955033, -638816.4, -8968.873, 0.0, 10.000011, 9.998971 
1.8749978e+3, 2.4572983e+2, -613278.1, -607786.1, -66697.19, -0.017585158, 0.08662607, -543778.44, -11923.14, 0.0, 9.99963, 9.999703 
1.8749794e+3, 2.5572905e+2, -579161.44, -544711.3, -61777.98, 0.06216801, 0.03424623, -497801.97, -63940.64, 0.0, 9.999208, 9.999666 
1.8749604e+3, 2.657289e+2, -550825.44, -458744.0, -56554.05, 0.089023724, 0.04646829, -431859.38, -95996.22, 0.0, 9.998638, 9.999858 
1.874941e+3, 2.757293e+2, -551700.8, -405905.56, -58900.105, 0.068483636, 0.10026231, -385084.0, -147223.73, 0.0, 9.997948, 9.999881 
1.874922e+3, 2.857294e+2, -478944.4, -238557.39, -23485.557, 0.054834627, 0.088385046, -236284.38, -96425.94, 0.0, 9.997423, 10.000609 
1.8749037e+3, 2.957294e+2, -439716.4, -171305.1, -14976.9375, 0.072715834, 0.023418225, -170471.98, -128616.26, 0.0, 9.997029, 10.000588 
1.8748856e+3, 3.0572903e+2, -472878.4, -223179.33, 38001.56, 0.07157595, -0.036928963, -217523.98, -217523.98, 0.0, 9.996733, 10.000039 
1.8748681e+3, 3.157292e+2, -359311.25, 72163.57, -38355.727, 0.046481706, -0.023673046, 75546.66, 75546.66, 0.0, 9.996469, 10.002198 
1.8852343e+3, 1.2576795e+2, -1257959.3, -1761081.1, -48559.3, -0.0045773597, 0.07313956, -1253315.4, 454161.4, 0.15130419, 10.005002, 9.997275 
1.8852168e+3, 1.3576429e+2, -1231993.9, -1672294.4, 45867.402, -0.04048415, -0.063888684, -1227266.5, 382247.53, 0.10275248, 10.0040655, 9.997664 
1.8851991e+3, 1.4576304e+2, -1158264.4, -1554032.1, -33246.063, 0.037222687, 0.03303027, -1155491.0, 356035.72, 0.05668712, 10.003566, 9.998039 
1.8851788e+3, 1.5576153e+2, -1073983.6, -1476315.0, -35026.074, -0.0764012, 0.07275447, -1070957.1, 342584.47, 0.022858981, 10.003413, 9.9979725 
1.885159e+3, 1.6575944e+2, -1029959.5, -1416967.9, -78095.81, -0.08960226, 0.079500414, -1014794.56, 300767.1, 0.0055146767, 10.003038, 9.997888 
1.8851395e+3, 1.7575718e+2, -1009668.06, -1358196.9, -65517.7, -0.015356565, 0.06253303, -997758.75, 219824.5, 0.0004532519, 10.002501, 9.997877 
1.8851197e+3, 1.8575504e+2, -935296.6, -1212391.1, -64498.996, 0.022715244, 0.038933426, -921018.94, 198584.36, 0.0000010252129, 10.002081, 9.998407 
1.8850997e+3, 1.9575311e+2, -887707.94, -1143650.1, -77892.086, 0.02848247, 0.0007948153, -865866.56, 155754.52, 0.0, 10.001757, 9.9983635 
1.8850793e+3, 2.057514e+2, -849258.6, -1065092.3, -89915.85, 0.02807919, -0.005057374, -816708.75, 106929.34, 0.0, 10.001308, 9.998446 
1.885059e+3, 2.1575001e+2, -828899.7, -1004533.0, -80464.484, 0.025470404, 0.0081199035, -797610.06, 28042.904, 0.0, 10.000775, 9.998446 
1.8850382e+3, 2.2574908e+2, -759119.9, -850771.5, -75991.164, 0.0073914346, 0.04293993, -716206.4, 11457.667, 0.0, 10.000283, 9.999065 
1.8850173e+3, 2.3574862e+2, -726752.4, -783389.6, -69895.164, -0.024247305, 0.08633536, -679656.94, -49986.234, 0.0, 9.999828, 9.999074 
1.8849975e+3, 2.4574791e+2, -659401.06, -627990.7, -44303.766, -0.0060861506, 0.08127709, -596690.8, -65013.168, 0.0, 9.999307, 9.99972 
1.8849781e+3, 2.5574717e+2, -647425.75, -575298.3, -50695.16, 0.054588698, 0.031585522, -549147.94, -115464.54, 0.0, 9.998733, 9.999684 
1.8849587e+3, 2.6574707e+2, -591786.4, -468508.7, -38331.336, 0.0868654, 0.045638375, -457562.16, -121877.47, 0.0, 9.998316, 9.999946 
1.8849391e+3, 2.7574766e+2, -537126.56, -388286.56, -25732.197, 0.08361421, 0.105924904, -383963.44, -146283.0, 0.0, 9.998005, 9.999972 
1.8849199e+3, 2.8574783e+2, -459138.4, -216604.23, -4123.444, 0.074350685, 0.09333057, -216534.16, -76856.35, 0.0, 9.997508, 10.000719 
1.8849011e+3, 2.9574773e+2, -451678.06, -167397.0, -31915.414, 0.11052679, 0.007987572, -163858.02, -122181.875, 0.0, 9.996908, 10.000672 
1.8848819e+3, 3.05748e+2, -496359.63, -223393.34, 25243.338, 0.038222656, 0.0015229351, -221078.53, -221078.53, 0.0, 9.996523, 10.000139 
1.8848646e+3, 3.1574827e+2, -398134.4, 104302.7, -55966.957, 0.055421412, 0.013868842, 110461.43, 110461.43, 0.0, 9.995992, 10.002644 
1.8952398e+3, 1.2578654e+2, -1268793.1, -1774651.9, -59761.49, 0.045878474, 0.037535857, -1261828.9, 445466.34, 0.15931079, 10.004989, 9.997191 
1.8952201e+3, 1.3578413e+2, -1252898.5, -1714148.9, 16843.4, -0.123345844, 0.054452382, -1252284.3, 357036.5, 0.10853504, 10.00406, 9.997378 
1.8952022e+3, 1.4578256e+2, -1180834.0, -1599136.5, -39147.008, -0.0020636641, 0.14723559, -1177201.9, 334134.7, 0.060219582, 10.003556, 9.997735 
1.8951823e+3, 1.557791e+2, -1094021.5, -1516146.1, -40270.855, -0.07694289, 0.023866173, -1090214.0, 323155.78, 0.024547812, 10.003405, 9.9977045 
1.8951622e+3, 1.6577657e+2, -1007702.6, -1369164.3, -97626.4, -0.07883803, -0.01985145, -983020.4, 332372.94, 0.0060573337, 10.003032, 9.99822 
1.895142e+3, 1.75775e+2, -990356.7, -1318148.3, -83842.99, -0.013452428, -0.0016202772, -970156.1, 247250.94, 0.0005270964, 10.002499, 9.998155 
1.8951218e+3, 1.8577336e+2, -959844.4, -1263385.4, -76493.195, 0.019653501, 0.03079643, -941657.5, 177765.69, 0.0000013718216, 10.002079, 9.998059 
1.8951014e+3, 1.9577178e+2, -909757.94, -1188647.9, -88875.8, 0.024460625, 0.06386476, -883843.3, 137596.61, 0.0, 10.001751, 9.998058 
1.8950805e+3, 2.0577005e+2, -830068.25, -1025552.1, -109169.5, 0.0010537201, 0.05456194, -781278.75, 142178.56, 0.0, 10.001307, 9.99872 
1.8950589e+3, 2.1576832e+2, -811488.0, -967682.5, -98324.0, -0.040595874, 0.0082221, -764019.4, 61454.293, 0.0, 10.000771, 9.998703 
1.8950385e+3, 2.2576733e+2, -748573.0, -829183.4, -92528.734, -0.001476942, 0.017523237, -687952.1, 39532.08, 0.0, 10.000282, 9.999215 
1.8950184e+3, 2.3576702e+2, -718316.25, -766766.0, -85432.086, 0.093755506, 0.062079974, -653740.9, -24252.094, 0.0, 9.99983, 9.999188 
1.8949977e+3, 2.4576652e+2, -667905.94, -647096.56, -65146.855, 0.087301984, 0.079022504, -591528.75, -60034.477, 0.0, 9.999311, 9.999587 
1.8949765e+3, 2.55766e+2, -653120.4, -588962.1, -69884.414, 0.013417213, 0.063868746, -544145.9, -110646.57, 0.0, 9.998738, 9.999589 
1.8949565e+3, 2.6576582e+2, -567952.6, -421444.2, -49215.37, 0.03433522, 0.055142686, -406446.88, -70945.7, 0.0, 9.998324, 10.000266 
1.8949373e+3, 2.757661e+2, -517348.53, -351700.7, -37652.08, 0.10024646, 0.056190997, -343543.94, -106045.766, 0.0, 9.998021, 10.000218 
1.8949175e+3, 2.8576645e+2, -486635.56, -275191.75, -26838.225, 0.08926495, 0.069487855, -271838.4, -132343.36, 0.0, 9.997514, 10.000314 
1.894898e+3, 2.9576662e+2, -479797.6, -227896.69, -47452.52, 0.09868943, 0.054516383, -219254.2, -177760.83, 0.0, 9.996915, 10.000256 
1.8948773e+3, 3.0576807e+2, -453838.66, -140111.47, 7796.307, -0.07355045, 0.15774833, -139917.84, -139917.84, 0.0, 9.99654, 10.000705 
1.8948616e+3, 3.1576827e+2, -416988.22, 64741.406, -68630.92, 0.16362885, 0.10514187, 74328.31, 74328.31, 0.0, 9.995997, 10.002367 
1.9052447e+3, 1.2580569e+2, -1282162.9, -1758339.0, -50804.81, 0.059750702, 0.058754664, -1276802.8, 430306.2, 0.16751096, 10.004819, 9.997386 
1.9052242e+3, 1.3580309e+2, -1189992.5, -1685543.4, 8676.164, -0.14422266, 0.060148988, -1189840.6, 419294.78, 0.11455756, 10.004597, 9.997315 
1.9052061e+3, 1.4580137e+2, -1130299.5, -1576397.0, -26728.293, 0.017485108, 0.14401175, -1128703.8, 382448.47, 0.06395505, 10.003954, 9.997699 
1.9051857e+3, 1.5579784e+2, -1149568.8, -1546841.6, -10449.185, -0.059739552, 0.01920765, -1149294.1, 263891.75, 0.02635815, 10.003034, 9.997671 
1.905165e+3, 1.657953e+2, -1069313.9, -1398080.1, -62383.684, -0.06705741, -0.024753746, -1057874.5, 257335.02, 0.0066510234, 10.002605, 9.998227 
1.9051446e+3, 1.7579374e+2, -983407.0, -1314372.5, -73900.99, -0.009539899, -0.0077439607, -967655.4, 249568.1, 0.0006122247, 10.002545, 9.9981575 
1.9051237e+3, 1.8579206e+2, -949790.6, -1260855.1, -68443.62, 0.012837531, 0.023292387, -935396.94, 183843.1, 0.0000017786746, 10.00216, 9.998037 
1.9051027e+3, 1.9579047e+2, -942485.2, -1206330.8, -59048.08, 0.003409433, 0.05681152, -929873.25, 91383.89, 0.0, 10.001536, 9.998039 
1.9050814e+3, 2.0578882e+2, -858755.94, -1030760.44, -75389.26, -0.017414471, 0.055472717, -830390.7, 92882.83, 0.0, 10.001075, 9.998795 
1.9050597e+3, 2.1578729e+2, -810740.25, -959376.75, -80530.875, -0.04351469, 0.020468164, -775475.5, 49812.34, 0.0, 10.000742, 9.998773 
1.9050387e+3, 2.2578628e+2, -750577.44, -831613.94, -89270.81, 0.005621281, 0.026396507, -693059.94, 34238.387, 0.0, 10.000277, 9.999201 
1.9050182e+3, 2.3578584e+2, -736279.94, -776876.75, -95256.84, 0.10655265, 0.057877168, -659182.8, -29878.64, 0.0, 9.999715, 9.999175 
1.9049971e+3, 2.4578537e+2, -670043.56, -641602.4, -69113.13, 0.10152523, 0.076124705, -585262.0, -53952.73, 0.0, 9.999271, 9.999643 
1.9049755e+3, 2.5578502e+2, -624937.06, -570400.25, -61122.223, 0.028126255, 0.07282395, -530739.6, -97426.96, 0.0, 9.998913, 9.999632 
1.9049549e+3, 2.657848e+2, -562775.1, -426603.9, -51227.242, 0.038528316, 0.06514395, -409484.6, -74169.695, 0.0, 9.998395, 10.0001955 
1.904935e+3, 2.7578497e+2, -561228.94, -378886.75, -70218.984, 0.08244354, 0.05908502, -354980.16, -117666.7, 0.0, 9.997749, 10.00016 
1.9049148e+3, 2.857853e+2, -513993.78, -283911.16, -48065.83, 0.083231695, 0.0712215, -274273.56, -134963.02, 0.0, 9.997309, 10.000353 
1.9048955e+3, 2.9578555e+2, -463166.1, -223739.1, -32291.088, 0.14514647, 0.060982622, -219460.52, -178152.47, 0.0, 9.997049, 10.000217 
1.9048734e+3, 3.0578703e+2, -436093.44, -98402.01, 12714.291, -0.11032132, 0.15754536, -97923.984, -97923.984, 0.0, 9.996518, 10.001004 
1.904858e+3, 3.1578687e+2, -520742.8, -20863.182, -39256.19, 0.23403814, 0.030626817, -17799.123, -17799.123, 0.0, 9.995444, 10.002044 
1.9152492e+3, 1.2582529e+2, -1263192.0, -1697355.5, -28524.402, 0.01910056, 0.12556487, -1261326.0, 445592.8, 0.17594315, 10.004804, 9.997818 
1.915229e+3, 1.3582122e+2, -1186473.5, -1666833.1, 128.20146, -0.11299019, -0.033962116, -1186473.5, 422483.44, 0.12083562, 10.004582, 9.997451 
1.9152108e+3, 1.4581954e+2, -1119155.5, -1547466.9, -59537.156, 0.08380403, 0.039132517, -1111033.6, 399938.84, 0.06789727, 10.003947, 9.997905 
1.915189e+3, 1.5581764e+2, -1137580.8, -1521944.6, -41078.195, -0.03131648, 0.055049784, -1133239.6, 279751.06, 0.028290106, 10.003038, 9.997842 
1.9151677e+3, 1.6581546e+2, -1089766.5, -1442034.4, -64612.582, -0.058385037, 0.05409076, -1078289.3, 236722.72, 0.007296161, 10.00261, 9.997924 
1.9151472e+3, 1.7581326e+2, -1001837.9, -1352726.8, -75940.24, -0.006598042, 0.04031641, -986107.9, 230925.38, 0.0007092475, 10.002544, 9.997896 
1.9151258e+3, 1.858111e+2, -930446.56, -1220996.5, -91308.25, -0.0021244425, 0.018657707, -904134.75, 214919.3, 0.0000023137907, 10.002158, 9.998313 
1.915104e+3, 1.9580911e+2, -925845.25, -1171974.6, -80500.38, -0.037480187, -0.014976075, -901854.75, 119218.25, 0.0, 10.001535, 9.998278 
1.9150823e+3, 2.0580767e+2, -866895.1, -1048205.5, -87250.37, -0.029518954, 0.0006822536, -831729.06, 91358.13, 0.0, 10.001075, 9.998676 
1.915061e+3, 2.1580684e+2, -820100.75, -978119.75, -91722.85, 0.012209378, 0.04455413, -778050.06, 47046.387, 0.0, 10.000737, 9.998647 
1.9150391e+3, 2.2580585e+2, -763366.94, -858351.6, -109547.71, 0.024787035, 0.06940509, -691459.8, 35647.402, 0.0, 10.000275, 9.99902 
1.9150169e+3, 2.3580495e+2, -746543.6, -798303.6, -113972.53, 0.011957489, 0.0739816, -655549.75, -26432.084, 0.0, 9.999713, 9.99903 
1.9149956e+3, 2.4580434e+2, -652454.3, -606561.7, -81614.04, 0.03552527, 0.071667075, -544729.56, -13606.033, 0.0, 9.999275, 9.999883 
1.914975e+3, 2.5580412e+2, -611314.7, -545078.44, -73688.54, 0.09455981, 0.057545107, -497407.88, -64283.266, 0.0, 9.998923, 9.999802 
1.9149539e+3, 2.65804e+2, -594560.25, -494497.9, -75177.31, 0.096336015, 0.0773622, -454225.44, -119098.89, 0.0, 9.998402, 9.999727 
1.9149321e+3, 2.7580413e+2, -586536.06, -434025.97, -92813.54, 0.025544168, 0.11622705, -390159.47, -153032.16, 0.0, 9.997758, 9.99978 
1.9149117e+3, 2.8580427e+2, -476708.97, -209569.2, -58092.016, 0.05334305, 0.09666251, -197483.34, -58357.76, 0.0, 9.99732, 10.000858 
1.9148934e+3, 2.9580435e+2, -435845.06, -173407.63, -37813.254, 0.24853832, 0.019942325, -168067.95, -126946.18, 0.0, 9.997073, 10.000554 
1.9148703e+3, 3.0580473e+2, -430954.6, -92191.58, -23255.764, -0.07802275, -0.0044599357, -90602.54, -90602.54, 0.0, 9.996535, 10.0010395 
1.9148521e+3, 3.158069e+2, -543304.0, -69476.09, 41744.01, 0.09238268, 0.08936777, -65826.58, -65826.58, 0.0, 9.995448, 10.00171 
1.9252545e+3, 1.2584454e+2, -1179885.9, -1633293.0, 6561.014, 0.030111922, 0.111325495, -1179790.9, 526939.8, 0.18463704, 10.00543, 9.9980545 
1.9252335e+3, 1.3584082e+2, -1234862.6, -1683999.8, -1017.3913, -0.11324239, -0.020631038, -1234860.4, 373904.97, 0.12737246, 10.004193, 9.9975195 
1.9252145e+3, 1.4583907e+2, -1149234.4, -1541391.4, -50854.504, 0.0832356, 0.03045452, -1142746.9, 368034.38, 0.07204136, 10.003651, 9.998088 
1.9251923e+3, 1.558374e+2, -1043692.9, -1458730.3, -36123.3, -0.027704865, 0.05321405, -1040572.3, 372224.47, 0.030339934, 10.003637, 9.997987 
1.9251707e+3, 1.6583526e+2, -1002913.1, -1417828.1, -50011.043, -0.053253457, 0.06027259, -996970.25, 317847.53, 0.007991714, 10.003292, 9.99776 
1.9251497e+3, 1.7583297e+2, -989000.4, -1362818.1, -54597.504, -0.007927291, 0.05319946, -981189.44, 235651.42, 0.000818734, 10.002706, 9.997747 
1.925128e+3, 1.8583079e+2, -922165.6, -1210198.5, -81393.266, -0.0047382736, 0.032839995, -900756.56, 218105.52, 0.0000031359323, 10.002189, 9.998372 
1.9251055e+3, 1.9582881e+2, -893565.94, -1150725.4, -87053.125, -0.03573831, -0.004204891, -866868.5, 154012.02, 0.0, 10.001734, 9.998326 
1.9250835e+3, 2.0582737e+2, -853798.75, -1040724.25, -92780.05, -0.025969751, 0.007776958, -815567.06, 107327.53, 0.0, 10.001163, 9.998683 
1.9250616e+3, 2.1582651e+2, -853376.1, -993981.7, -89919.37, 0.014864815, 0.049068134, -809538.75, 15365.0205, 0.0, 10.00051, 9.998646 
1.9250394e+3, 2.2582544e+2, -787762.25, -872334.8, -91994.086, 0.028725335, 0.066927694, -728801.06, -1886.0184, 0.0, 10.00012, 9.998997 
1.9250168e+3, 2.3582438e+2, -718217.4, -787896.7, -86248.375, 0.01889202, 0.058774583, -660037.75, -31111.252, 0.0, 9.999923, 9.998999 
1.924995e+3, 2.4582368e+2, -645725.44, -611129.1, -69305.49, 0.038008533, 0.053444773, -556995.6, -26062.56, 0.0, 9.999356, 9.999811 
1.9249736e+3, 2.5582346e+2, -674312.4, -582088.8, -85314.92, 0.088341735, 0.047888868, -531221.56, -98287.39, 0.0, 9.998522, 9.99974 
1.924952e+3, 2.6582333e+2, -636769.5, -504854.88, -64125.887, 0.09261705, 0.06498672, -478820.34, -143884.39, 0.0, 9.998072, 9.999813 
1.92493e+3, 2.7582338e+2, -561159.0, -411449.72, -42034.742, 0.03590771, 0.08562302, -400454.88, -163517.8, 0.0, 9.99789, 9.999869 
1.9249092e+3, 2.8582358e+2, -461106.13, -190104.13, -10304.554, 0.05912111, 0.06480082, -189712.88, -50778.38, 0.0, 9.997377, 10.000963 
1.9248901e+3, 2.9582414e+2, -496576.78, -193900.67, -17571.17, 0.23039998, 0.021247339, -192884.03, -151957.31, 0.0, 9.996622, 10.000628 
1.924867e+3, 3.0582407e+2, -502076.28, -137998.55, -22308.387, -0.019781258, -0.044376347, -136636.73, -136636.73, 0.0, 9.9961, 10.000933 
1.924848e+3, 3.1582686e+2, -535713.25, -61367.246, 114465.06, 0.13821997, 0.12395072, -35190.133, -35190.133, 0.0, 9.995486, 10.001745 
1.9352604e+3, 1.258636e+2, -1182322.4, -1627012.3, -6060.7637, 0.076654285, 0.032365087, -1182239.9, 524303.94, 0.19362167, 10.005427, 9.998117 
1.9352372e+3, 1.3586175e+2, -1238199.8, -1684980.1, -38003.98, -0.15016085, 0.090121955, -1234990.1, 373571.4, 0.13417302, 10.00419, 9.997518 
1.9352175e+3, 1.4585975e+2, -1141402.8, -1519632.5, -50102.797, 0.014948683, 0.10730769, -1134878.4, 375701.66, 0.07638406, 10.003648, 9.9982395 
1.9351956e+3, 1.558571e+2, -1036930.2, -1441354.1, -36555.676, -0.050678547, 0.017329175, -1033652.5, 378951.3, 0.0325047, 10.003633, 9.998109 
1.935174e+3, 1.6585477e+2, -1006920.06, -1426326.0, -72044.7, -0.05675735, 0.0027516943, -994889.44, 319736.9, 0.008736665, 10.003291, 9.997704 
1.9351524e+3, 1.7585282e+2, -993401.25, -1372440.0, -75008.69, -0.017129857, 0.03493626, -979097.44, 237549.06, 0.0009414751, 10.002706, 9.997683 
1.93513e+3, 1.8585101e+2, -932639.2, -1232160.9, -97635.2, 0.0016546331, 0.06410131, -903623.8, 215041.19, 0.0000044945964, 10.002188, 9.998222 
1.9351077e+3, 1.9584948e+2, -902531.6, -1168870.4, -102565.22, 0.0041743, 0.08454369, -867612.6, 153068.08, 0.0, 10.00173, 9.998204 
1.9350848e+3, 2.0584781e+2, -846377.44, -1025498.3, -116282.35, -0.01084972, 0.07406353, -789163.7, 133532.72, 0.0, 10.001161, 9.998791 
1.9350615e+3, 2.1584626e+2, -846574.8, -979196.75, -110730.734, -0.037231456, 0.036404863, -783818.2, 40892.266, 0.0, 10.000505, 9.998751 
1.9350393e+3, 2.2584496e+2, -778176.2, -853190.7, -98256.625, 0.016155481, 0.021081274, -710511.4, 16211.053, 0.0, 10.000121, 9.999129 
1.9350179e+3, 2.3584406e+2, -711751.7, -775212.6, -93371.23, 0.12328369, 0.012692311, -644866.7, -16135.153, 0.0, 9.999924, 9.999086 
1.934995e+3, 2.4584334e+2, -673299.75, -669792.1, -100092.11, 0.10557724, 0.022633512, -571438.44, -40699.703, 0.0, 9.99936, 9.999409 
1.9349714e+3, 2.5584298e+2, -694693.9, -626424.7, -113425.664, 0.0048089754, 0.042787213, -542108.6, -109366.016, 0.0, 9.998528, 9.999434 
1.9349495e+3, 2.658427e+2, -589757.0, -409237.22, -70309.125, 0.024416594, 0.02518123, -385084.6, -50340.293, 0.0, 9.998078, 10.000468 
1.9349286e+3, 2.7584258e+2, -520820.56, -330962.34, -48893.902, 0.10932604, -0.035923894, -319110.6, -82366.74, 0.0, 9.997902, 10.000418 
1.9349068e+3, 2.8584316e+2, -480583.78, -234144.14, -39040.297, 0.09648094, -0.025539814, -228107.36, -89369.05, 0.0, 9.997391, 10.000657 
1.9348852e+3, 2.9584476e+2, -507967.44, -222947.13, -41788.613, 0.07960586, 0.06714716, -216946.56, -176222.56, 0.0, 9.996641, 10.0004225 
1.934864e+3, 3.0584496e+2, -515730.8, -169085.16, -39991.465, 0.06689293, 0.045182865, -164531.28, -164531.28, 0.0, 9.996112, 10.000714 
1.9348437e+3, 3.1584513e+2, -466669.28, 73322.93, 151556.64, 0.16159575, -0.028301993, 112951.29, 112951.29, 0.0, 9.995513, 10.002663 
1.9452655e+3, 1.2588413e+2, -1170004.9, -1634090.8, 34145.004, 0.044656917, 0.007298541, -1167506.1, 538835.7, 0.20293134, 10.00567, 9.997946 
1.9452421e+3, 1.3588277e+2, -1194865.4, -1672189.6, -22039.846, -0.10389159, 0.12479363, -1193849.9, 414505.97, 0.14124535, 10.004618, 9.997398 
1.9452214e+3, 1.4588037e+2, -1107488.5, -1517864.4, -15472.335, 0.032830115, 0.11792013, -1106906.0, 403472.66, 0.0809226, 10.00399, 9.998082 
1.945199e+3, 1.5587752e+2, -1047436.44, -1459812.3, -25878.92, -0.0723159, 0.023873784, -1045818.7, 366586.16, 0.03478201, 10.003626, 9.997983 
1.945177e+3, 1.6587524e+2, -1008021.25, -1401154.1, -68867.46, -0.075538985, 0.00835605, -996306.44, 318120.16, 0.009530246, 10.003181, 9.997927 
1.945155e+3, 1.758735e+2, -979231.5, -1344064.5, -52920.69, -0.009719003, 0.038901404, -971710.2, 244733.61, 0.0010781297, 10.002713, 9.997871 
1.9451325e+3, 1.8587169e+2, -935176.06, -1245559.6, -63406.234, 0.0152220195, 0.06580335, -922722.9, 195739.38, 0.0000066792873, 10.002226, 9.998111 
1.9451094e+3, 1.9587003e+2, -911308.7, -1183943.4, -67915.89, 0.010734622, 0.085300446, -895327.06, 125152.664, 0.0, 10.0017185, 9.998105 
1.945086e+3, 2.0586835e+2, -830227.2, -1009843.1, -84573.58, -0.009881652, 0.07412109, -796673.25, 125822.28, 0.0, 10.001241, 9.9988575 
1.9450621e+3, 2.1586682e+2, -801551.9, -951103.6, -83019.2, -0.04229025, 0.034392267, -764597.6, 59910.926, 0.0, 10.00079, 9.998806 
1.9450395e+3, 2.2586553e+2, -760683.0, -847051.8, -72135.11, 0.013099005, 0.015536984, -719793.8, 6726.5186, 0.0, 10.000254, 9.999105 
1.9450176e+3, 2.3586453e+2, -751705.94, -796139.56, -80413.555, 0.13030922, 0.0034854005, -690496.56, -61966.797, 0.0, 9.9996605, 9.999068 
1.9449943e+3, 2.4586375e+2, -687244.7, -670220.4, -76752.234, 0.11085805, 0.0058047073, -601509.75, -70972.61, 0.0, 9.999242, 9.999461 
1.94497e+3, 2.5586334e+2, -630907.06, -590341.7, -57018.5, -0.003938048, 0.015163905, -550105.8, -117564.75, 0.0, 9.998945, 9.999479 
1.9449477e+3, 2.658631e+2, -559570.06, -393296.38, -27662.518, 0.022560818, -0.004026004, -388815.03, -54272.508, 0.0, 9.998281, 10.000479 
1.9449265e+3, 2.75863e+2, -603759.9, -371596.3, -55810.09, 0.14039916, -0.061436474, -358876.9, -122335.2, 0.0, 9.997338, 10.000409 
1.944904e+3, 2.8586358e+2, -577932.5, -297388.8, -55027.074, 0.109279506, -0.042518865, -286981.63, -148444.83, 0.0, 9.996796, 10.000507 
1.9448811e+3, 2.9586527e+2, -526487.4, -235432.05, -44969.434, 0.011855402, 0.07323088, -228642.44, -188119.86, 0.0, 9.996534, 10.000385 
1.9448613e+3, 3.0586573e+2, -512076.97, -198279.39, -35488.867, 0.17297958, 0.08602934, -194315.84, -194315.84, 0.0, 9.996276, 10.000432 
1.9448388e+3, 3.158651e+2, -407607.56, 118000.41, 129935.664, 0.10778001, -0.0269698, 148367.38, 148367.38, 0.0, 9.995851, 10.002807 
1.95527e+3, 1.259061e+2, -1200989.0, -1683086.9, 16391.797, -0.07308874, 0.03944793, -1200432.3, 505693.25, 0.21256554, 10.005652, 9.997534 
1.9552478e+3, 1.3590385e+2, -1212057.3, -1707914.4, -53242.965, 0.014371632, 0.09146495, -1206404.8, 401743.22, 0.14858112, 10.004626, 9.997153 
1.9552264e+3, 1.4590096e+2, -1136753.3, -1583705.8, -27569.004, 0.12393642, 0.07125106, -1135059.1, 375117.66, 0.085648134, 10.0040045, 9.997625 
1.9552024e+3, 1.558986e+2, -1073756.9, -1514226.4, -38161.324, -0.09768554, 0.07079392, -1070475.1, 341725.4, 0.037167948, 10.003623, 9.997612 
1.9551799e+3, 1.658966e+2, -975664.8, -1331879.8, -85129.516, -0.11258297, 0.07228174, -956365.8, 357853.47, 0.01037135, 10.003175, 9.998407 
1.955158e+3, 1.7589493e+2, -949472.56, -1282519.1, -68826.58, 0.011078863, 0.06277524, -935809.56, 280424.03, 0.0012287758, 10.002713, 9.998296 
1.9551349e+3, 1.8589276e+2, -941613.25, -1259231.8, -81291.875, 0.031164432, 0.03965671, -922016.4, 196238.02, 0.000009908067, 10.002225, 9.998018 
1.9551109e+3, 1.9589044e+2, -917582.25, -1197022.1, -84655.83, -0.01792802, 0.0039065816, -893936.75, 126341.15, 0.0, 10.001717, 9.998017 
1.955087e+3, 2.0588891e+2, -829107.75, -1008227.94, -100470.77, -0.02487766, 0.011954983, -784074.44, 138217.98, 0.0, 10.001242, 9.99887 
1.9550632e+3, 2.1588813e+2, -801714.94, -951792.25, -98347.695, -0.004414039, 0.04267829, -753048.0, 71251.0, 0.0, 10.000789, 9.998802 
1.9550398e+3, 2.2588697e+2, -773180.25, -873961.25, -93507.23, 0.015843624, 0.049267154, -717350.2, 8959.657, 0.0, 10.000255, 9.998922 
1.9550164e+3, 2.3588574e+2, -760278.06, -814265.06, -99840.69, 0.03701792, 0.03158356, -683846.2, -55524.04, 0.0, 9.999659, 9.998946 
1.9549929e+3, 2.4588487e+2, -651589.6, -597603.9, -86772.87, 0.051257733, 0.002912768, -533722.44, -3393.2761, 0.0, 9.999246, 9.999958 
1.9549695e+3, 2.5588447e+2, -601863.1, -533006.56, -68147.49, 0.059415337, -0.035274386, -491084.4, -58753.965, 0.0, 9.998956, 9.999869 
1.9549464e+3, 2.6588437e+2, -604461.06, -488908.78, -63102.633, 0.08525164, -0.02067923, -461127.78, -126796.34, 0.0, 9.998288, 9.999821 
1.9549237e+3, 2.758845e+2, -644104.1, -458958.75, -88532.57, 0.12158138, 0.010440367, -423438.84, -187106.9, 0.0, 9.997351, 9.999805 
1.9549006e+3, 2.858847e+2, -575099.56, -294332.16, -66354.14, 0.09187743, 0.015644303, -279440.44, -141109.1, 0.0, 9.996806, 10.0005245 
1.9548777e+3, 2.958855e+2, -517234.28, -218819.28, -54071.418, 0.02452147, 0.04092073, -209323.94, -169000.05, 0.0, 9.996542, 10.000498 
1.9548588e+3, 3.05886e+2, -535184.6, -248986.6, -47743.973, 0.29775268, 0.06457757, -241232.0, -241232.0, 0.0, 9.996287, 10.000078 
1.9548342e+3, 3.1588525e+2, -480095.2, -44449.74, -9840.63, 0.058670625, -0.006786187, -44227.563, -44227.563, 0.0, 9.995895, 10.001673 
1.9652759e+3, 1.2592824e+2, -1207594.1, -1706843.6, 16237.307, -0.053730354, 0.07226403, -1207066.6, 498841.88, 0.22242902, 10.005776, 9.997271 
1.9652528e+3, 1.3592535e+2, -1123749.1, -1655543.4, -52108.324, 0.019327383, 0.061073158, -1118691.4, 489245.38, 0.15613128, 10.005376, 9.997149 
1.9652304e+3, 1.4592232e+2, -1056282.6, -1539789.0, -1972.958, 0.093759306, 0.026880356, -1056274.6, 453692.2, 0.09054126, 10.004637, 9.997618 
1.9652063e+3, 1.559204e+2, -1073372.0, -1515447.3, 15497.132, -0.07567295, 0.07210323, -1072829.4, 339156.88, 0.039656594, 10.003643, 9.997592 
1.9651832e+3, 1.6591844e+2, -998975.1, -1347374.8, -27877.313, -0.08314434, 0.08344923, -996758.6, 317246.03, 0.011257811, 10.003036, 9.998366 
1.9651607e+3, 1.7591657e+2, -950864.4, -1285099.4, -50237.477, 0.008732877, 0.05783378, -943476.7, 272544.47, 0.001392616, 10.002716, 9.998275 
1.965137e+3, 1.8591438e+2, -924066.06, -1234916.1, -72602.18, 0.019242337, 0.026205955, -907945.1, 210096.61, 0.000014255441, 10.002281, 9.998156 
1.9651124e+3, 1.9591217e+2, -903511.44, -1178370.8, -60310.71, -0.02176414, -0.011319886, -890860.1, 129203.03, 0.0, 10.001767, 9.998119 
1.9650882e+3, 2.0591062e+2, -827654.5, -1030441.06, -73442.29, -0.021871157, 0.0011465129, -803850.44, 118227.65, 0.0, 10.001353, 9.998662 
1.9650643e+3, 2.159097e+2, -782607.1, -963013.56, -89945.89, 0.004279069, 0.039655283, -745425.56, 78661.51, 0.0, 10.00101, 9.998618 
1.96504e+3, 2.259085e+2, -738811.75, -847240.6, -88099.91, 0.013967495, 0.045448262, -689581.56, 36516.805, 0.0, 10.000451, 9.999009 
1.9650157e+3, 2.3590729e+2, -742606.75, -796171.56, -75625.06, 0.012884581, 0.021326821, -689161.7, -61051.973, 0.0, 9.999742, 9.999028 
1.964992e+3, 2.4590647e+2, -665052.8, -594701.0, -64023.51, 0.038195103, -0.010277605, -556826.56, -26710.648, 0.0, 9.999114, 10.00004 
1.9649684e+3, 2.5590613e+2, -658807.44, -552941.8, -78212.66, 0.08166902, -0.04911319, -511433.63, -79317.13, 0.0, 9.998537, 9.999932 
1.9649448e+3, 2.6590613e+2, -638982.1, -521564.3, -68497.27, 0.09921761, -0.022634689, -490058.97, -155941.69, 0.0, 9.998126, 9.999672 
1.964921e+3, 2.7590638e+2, -586326.1, -446723.53, -55762.836, 0.10202672, 0.03308465, -427184.4, -191066.7, 0.0, 9.997819, 9.9996605 
1.9648975e+3, 2.859063e+2, -521553.53, -277959.34, -18605.902, 0.084449336, 0.02794118, -276546.4, -138427.19, 0.0, 9.997216, 10.000438 
1.9648744e+3, 2.959065e+2, -539392.6, -228053.75, -13650.815, 0.042799354, 0.0029178227, -227456.38, -187339.63, 0.0, 9.9963875, 10.000507 
1.964855e+3, 3.0590707e+2, -560667.94, -245447.7, 20914.889, 0.30520058, 0.02229944, -244066.06, -244066.06, 0.0, 9.996045, 10.000219 
1.964829e+3, 3.1590667e+2, -470819.34, -71602.79, -9229.594, -0.05198954, -0.022293707, -71389.52, -71389.52, 0.0, 9.996098, 10.001388 
1.975283e+3, 1.2595052e+2, -1219410.0, -1719095.9, 7923.9277, 0.08199461, 0.10343283, -1219284.4, 486406.6, 0.23234633, 10.005763, 9.997193 
1.9752572e+3, 1.3594726e+2, -1119180.9, -1625928.8, -63716.83, -0.08586954, 0.035397705, -1111292.3, 496429.75, 0.16380663, 10.005342, 9.997375 
1.9752336e+3, 1.459444e+2, -1036966.3, -1488799.6, -34120.73, -0.05378742, -0.012576164, -1034404.2, 475344.53, 0.09557102, 10.00462, 9.997992 
1.9752105e+3, 1.5594283e+2, -1053561.6, -1474492.6, -17095.385, -0.012762092, 0.03152606, -1052868.4, 358894.6, 0.042241093, 10.003658, 9.997868 
1.975187e+3, 1.6594073e+2, -1033858.7, -1424912.5, -40124.01, 0.0028143146, 0.046951964, -1029784.25, 283999.13, 0.012187403, 10.003054, 9.997828 
1.975163e+3, 1.7593838e+2, -982313.7, -1352242.6, -61393.316, -0.01846985, 0.026921503, -972391.0, 243415.98, 0.0015681973, 10.002722, 9.997812 
1.9751388e+3, 1.8593648e+2, -899374.94, -1184415.6, -91013.09, -0.021622315, 0.025799116, -872793.44, 245031.4, 0.000019593592, 10.002282, 9.998503 
1.9751143e+3, 1.959351e+2, -883438.8, -1138078.4, -77408.875, -0.0047705923, 0.035777196, -861753.7, 158083.02, 0.0, 10.00177, 9.998396 
1.9750899e+3, 2.0593335e+2, -857366.56, -1093051.8, -85198.516, -0.004846276, 0.03801301, -829793.6, 92060.3, 0.0, 10.001354, 9.998233 
1.9750649e+3, 2.1593149e+2, -808665.4, -1016363.8, -101414.305, -0.019064259, 0.026784275, -767361.1, 56512.24, 0.0, 10.001004, 9.998256 
1.9750404e+3, 2.2593004e+2, -715651.44, -799356.5, -113436.64, 0.004274517, 0.0059290472, -636592.8, 89293.71, 0.0, 10.000449, 9.99934 
1.9750158e+3, 2.3592906e+2, -723510.9, -757889.0, -99679.07, 0.054532975, -0.027717328, -639549.7, -11656.022, 0.0, 9.999745, 9.999291 
1.9749913e+3, 2.4592844e+2, -687982.4, -644331.9, -85399.95, 0.06913504, -0.033159293, -578012.4, -48113.824, 0.0, 9.99912, 9.999699 
1.9749667e+3, 2.5592825e+2, -677164.4, -593529.06, -98258.4, 0.056358077, -0.025413109, -528559.9, -96659.516, 0.0, 9.998545, 9.999652 
1.9749425e+3, 2.6592815e+2, -611469.25, -467020.63, -80084.44, 0.058620386, -0.0108812405, -431403.06, -97501.61, 0.0, 9.998135, 10.000043 
1.9749185e+3, 2.7592835e+2, -562119.9, -400783.94, -67721.79, 0.078577936, 0.0025195708, -376125.9, -140225.42, 0.0, 9.997834, 9.99997 
1.9748947e+3, 2.8592828e+2, -533289.56, -305834.56, -50689.895, 0.08493479, -0.007898416, -295049.38, -157147.66, 0.0, 9.99723, 10.000241 
1.9748709e+3, 2.959282e+2, -544439.2, -244413.39, -41721.2, 0.058034044, -0.04066835, -238719.73, -198817.27, 0.0, 9.99641, 10.000385 
1.9748498e+3, 3.0592886e+2, -514934.2, -156270.05, 18625.727, 0.18190081, -0.03845703, -155305.39, -155305.39, 0.0, 9.996068, 10.000821 
1.9748269e+3, 3.159298e+2, -422127.53, 23935.277, -99814.29, 0.12961257, -0.00989208, 45251.78, 45251.78, 0.0, 9.996118, 10.002036 
1.985289e+3, 1.2597303e+2, -1255409.4, -1715137.8, 30587.027, 0.12277453, 0.08841013, -1253383.3, 452086.66, 0.24214445, 10.005397, 9.997399 
1.9852623e+3, 1.359701e+2, -1181128.8, -1620270.1, -29722.336, -0.072575584, 0.01819983, -1179126.3, 428370.63, 0.17150006, 10.004699, 9.997716 
1.9852376e+3, 1.4596759e+2, -1063603.0, -1503474.9, -4220.138, -0.08297816, -0.010151702, -1063562.5, 445957.38, 0.10068996, 10.004452, 9.997961 
1.9852147e+3, 1.5596582e+2, -948183.8, -1425644.1, -15784.811, 0.0051010405, 0.016842451, -947662.56, 463873.22, 0.044908263, 10.004449, 9.997819 
1.9851908e+3, 1.6596349e+2, -924869.8, -1395619.9, -40715.23, 0.02415941, 0.022886205, -921374.3, 392184.4, 0.013157357, 10.003925, 9.997604 
1.9851658e+3, 1.7596091e+2, -948032.25, -1357916.4, -40874.12, -0.031223826, 0.0023060197, -943996.0, 271589.4, 0.0017538491, 10.003058, 9.997609 
1.985141e+3, 1.8595897e+2, -872572.0, -1170560.9, -69682.69, -0.03333184, 0.008051879, -857082.3, 260521.13, 0.0000256483, 10.002464, 9.998509 
1.9851165e+3, 1.959577e+2, -840507.4, -1116800.0, -82424.22, 0.010431206, 0.028362136, -817786.8, 201826.92, 0.0, 10.002065, 9.998399 
1.9850913e+3, 2.059559e+2, -840604.8, -1087140.5, -85662.04, 0.0051453407, 0.02635234, -813762.9, 107868.414, 0.0, 10.001481, 9.998212 
1.9850656e+3, 2.1595387e+2, -844761.75, -1035750.25, -74240.07, -0.03720143, 0.0015990454, -819298.44, 4354.028, 0.0, 10.000769, 9.998235 
1.9850405e+3, 2.2595236e+2, -743021.06, -814651.5, -88040.55, -0.0145943025, -0.02352929, -683789.6, 41876.598, 0.0, 10.000272, 9.999319 
1.9850157e+3, 2.3595138e+2, -699909.06, -748844.2, -100941.51, 0.05564001, -0.05463934, -620512.06, 7161.131, 0.0, 9.99992, 9.999268 
1.9849905e+3, 2.4595085e+2, -660791.3, -637168.75, -88361.945, 0.071448535, -0.04582064, -559832.2, -30154.523, 0.0, 9.999337, 9.99964 
1.984965e+3, 2.5595078e+2, -672075.94, -594854.94, -79470.76, 0.045794155, -0.018396022, -545111.75, -113432.73, 0.0, 9.998598, 9.999615 
1.9849403e+3, 2.6595065e+2, -617256.75, -444967.9, -50465.22, 0.042270392, -0.01954966, -431274.47, -97594.07, 0.0, 9.99799, 10.000263 
1.984916e+3, 2.7595073e+2, -604423.9, -397649.5, -51673.023, 0.06435517, -0.038680963, -385455.5, -149776.16, 0.0, 9.997447, 10.000175 
1.984892e+3, 2.859509e+2, -565350.5, -309621.13, -32802.863, 0.09751552, -0.03941123, -305480.5, -167802.61, 0.0, 9.996963, 10.000342 
1.9848679e+3, 2.9595116e+2, -527217.1, -227201.47, -2008.4756, 0.11519835, -0.05124129, -227188.03, -187512.14, 0.0, 9.996494, 10.000461 
1.9848448e+3, 3.05952e+2, -529915.7, -123283.55, 61882.996, 0.09227417, -0.04759857, -114074.49, -114074.49, 0.0, 9.995792, 10.001181 
1.984823e+3, 3.1595358e+2, -547229.44, 5958.5576, -94466.445, 0.1738838, 0.0011522961, 21645.502, 21645.502, 0.0, 9.99508, 10.00241 
1.9952938e+3, 1.259957e+2, -1240627.6, -1667347.9, 4018.6252, 0.06552826, 0.020539198, -1240589.9, 464656.28, 0.25172842, 10.005382, 9.997817 
1.995268e+3, 1.3599387e+2, -1159517.9, -1568954.6, -47117.484, 0.042663816, 0.011112162, -1154165.6, 453096.6, 0.17912889, 10.004722, 9.998111 
1.995243e+3, 1.4599182e+2, -1087552.6, -1559377.5, -4677.6113, -0.010716144, 0.03381437, -1087506.3, 421774.78, 0.105848484, 10.0044775, 9.997562 
1.9952188e+3, 1.559893e+2, -974682.9, -1477652.4, -18215.922, -0.022294197, 0.025344552, -974024.0, 437281.03, 0.0476408, 10.004434, 9.997471 
1.9951943e+3, 1.6598663e+2, -924309.56, -1389580.6, -72413.1, -0.018457143, 0.010493773, -913299.94, 400031.22, 0.014165154, 10.003906, 9.997657 
1.9951688e+3, 1.7598404e+2, -946156.94, -1355599.0, -69961.33, -0.033677828, -0.016419064, -934532.6, 280824.47, 0.0019487245, 10.003063, 9.997623 
1.9951436e+3, 1.8598178e+2, -894117.5, -1217480.0, -83625.08, -0.021434275, -0.02653629, -873771.4, 243606.94, 0.000032105352, 10.002472, 9.998185 
1.9951186e+3, 1.9597994e+2, -859435.56, -1156033.0, -95914.4, 0.02088361, -0.030080844, -831121.5, 188272.94, 0.0, 10.002063, 9.998132 
1.9950928e+3, 2.0597821e+2, -816148.9, -1036533.7, -111387.62, 0.005850185, -0.030519133, -769658.25, 151752.39, 0.0, 10.00148, 9.998561 
1.9950663e+3, 2.1597674e+2, -824937.94, -995266.1, -97494.74, -0.05345268, -0.035668563, -780648.75, 42776.527, 0.0, 10.000769, 9.998514 
1.9950405e+3, 2.2597532e+2, -767633.6, -866869.94, -100229.9, -0.044775616, -0.04363394, -705412.6, 20025.99, 0.0, 10.000274, 9.998961 
1.9950151e+3, 2.3597415e+2, -721361.0, -793972.75, -113498.0, 0.012878351, -0.058797758, -638503.5, -11054.14, 0.0, 9.99992, 9.99896 
1.9949897e+3, 2.4597362e+2, -645314.94, -606648.56, -115766.74, 0.04125441, -0.048578884, -508611.78, 20842.479, 0.0, 9.999341, 9.999849 
1.9949637e+3, 2.5597367e+2, -656914.4, -566517.7, -105085.555, 0.047144733, -0.03040237, -497322.56, -65868.695, 0.0, 9.99861, 9.999805 
1.9949384e+3, 2.6597348e+2, -612036.94, -436903.34, -71538.52, 0.049868856, -0.048004583, -411396.25, -77940.97, 0.0, 9.997999, 10.000316 
1.9949135e+3, 2.759734e+2, -597858.44, -387896.44, -71923.3, 0.053198848, -0.08771532, -365621.9, -130166.47, 0.0, 9.997461, 10.000238 
1.9948892e+3, 2.8597403e+2, -534821.1, -249737.72, -51664.953, 0.116600126, -0.06652324, -240663.44, -103214.14, 0.0, 9.996976, 10.000748 
1.9948654e+3, 2.9597512e+2, -505839.0, -187107.6, -21735.395, 0.21074048, -0.03606721, -185632.22, -146193.0, 0.0, 9.9965105, 10.00073 
1.99484e+3, 3.0597645e+2, -520608.5, -107413.01, 27764.725, 0.039549243, 0.0024962507, -105555.7, -105555.7, 0.0, 9.995804, 10.001286 
1.994817e+3, 3.1597766e+2, -562710.0, -26903.205, -49319.266, 0.06815286, -0.0014042945, -22401.354, -22401.354, 0.0, 9.995085, 10.002181 
2.0052992e+3, 1.2601969e+2, -1209691.1, -1675347.6, 34737.61, 0.049240347, -0.013063704, -1207114.0, 497894.9, 0.26114455, 10.005872, 9.99751 
2.0052736e+3, 1.360179e+2, -1069914.3, -1557158.5, -52545.723, 0.074291684, 0.021182626, -1064312.0, 542714.7, 0.18669537, 10.0056925, 9.997744 
2.0052476e+3, 1.460159e+2, -1026078.94, -1527154.5, -24674.225, 0.0026335604, 0.06749189, -1024866.9, 484178.47, 0.11103329, 10.00499, 9.997534 
2.0052232e+3, 1.5601279e+2, -1054960.8, -1520300.5, -19507.719, -0.0042118854, 0.0024096933, -1054144.4, 356930.0, 0.05043043, 10.003876, 9.997446 
2.005198e+3, 1.660101e+2, -990425.56, -1415389.5, -56571.254, -0.003009361, -0.015431291, -983023.75, 330076.6, 0.015210222, 10.003422, 9.997712 
2.005172e+3, 1.760079e+2, -889271.3, -1322915.9, -56405.625, -0.0282453, -0.006870674, -882054.5, 333067.7, 0.0021533365, 10.003436, 9.997667 
2.0051461e+3, 1.8600558e+2, -834985.1, -1193527.9, -66720.92, -0.028759789, -0.02355271, -822971.6, 294172.25, 0.00003871999, 10.002901, 9.99814 
2.0051204e+3, 1.9600335e+2, -873600.75, -1166613.4, -59838.977, -0.0002993494, -0.061127875, -861851.56, 157311.92, 0.0, 10.001986, 9.998095 
2.005094e+3, 2.0600162e+2, -826042.6, -1035797.6, -74718.91, -0.012166848, -0.062464137, -802148.25, 119031.38, 0.0, 10.001391, 9.998607 
2.005067e+3, 2.160004e+2, -786263.4, -972522.8, -84604.305, -0.0560919, -0.04706487, -753571.6, 69620.164, 0.0, 10.001019, 9.9985485 
2.0050408e+3, 2.2599901e+2, -752517.56, -859345.4, -81531.12, -0.03982817, -0.054074697, -708461.6, 16743.395, 0.0, 10.00038, 9.9989605 
2.0050149e+3, 2.3599769e+2, -773860.94, -819647.0, -69971.59, 0.019604124, -0.0812351, -723132.5, -95915.45, 0.0, 9.999563, 9.998953 
2.0049888e+3, 2.4599716e+2, -698092.8, -633788.6, -69899.77, 0.046549316, -0.06925208, -589000.9, -59778.582, 0.0, 9.998987, 9.999833 
2.0049623e+3, 2.559973e+2, -665652.7, -572165.44, -77107.86, 0.051527407, -0.038573448, -528739.25, -97517.984, 0.0, 9.998558, 9.999789 
2.0049363e+3, 2.6599714e+2, -618145.25, -443839.06, -54897.676, 0.04735643, -0.053370334, -427990.16, -94767.33, 0.0, 9.997979, 10.000275 
2.0049107e+3, 2.7599695e+2, -623025.4, -401895.28, -61585.465, 0.03797141, -0.09944533, -385900.47, -150676.52, 0.0, 9.9973, 10.000217 
2.0048858e+3, 2.8599766e+2, -551191.2, -234152.36, -46236.26, 0.103250824, -0.08045996, -227546.98, -90330.086, 0.0, 9.996766, 10.000954 
2.0048618e+3, 2.9599902e+2, -534893.3, -191200.28, -36127.63, 0.2179379, -0.04071358, -187443.75, -148239.83, 0.0, 9.996271, 10.000814 
2.0048358e+3, 3.0600023e+2, -543583.9, -131642.61, -6665.787, 0.03638274, -0.0068675433, -131534.77, -131534.77, 0.0, 9.995704, 10.001166 
2.0048125e+3, 3.1600046e+2, -555360.06, -16309.007, -49233.547, 0.11330634, -0.10811508, -11849.221, -11849.221, 0.0, 9.995116, 10.0022335 
2.0153052e+3, 1.2604478e+2, -1263558.0, -1800676.4, 15418.087, 0.061976522, -0.024684845, -1263115.8, 441645.13, 0.27068457, 10.005873, 9.99658 
2.0152788e+3, 1.3604218e+2, -1135187.0, -1699075.1, -58308.18, 0.023738883, 0.044786308, -1129220.8, 477569.34, 0.19436091, 10.005681, 9.996707 
2.0152523e+3, 1.4603986e+2, -1012136.3, -1490452.0, -58774.14, -0.044507142, 0.09066569, -1005020.2, 503792.03, 0.11630947, 10.004988, 9.997804 
2.0152275e+3, 1.5603627e+2, -1036731.3, -1484584.4, -53394.348, 0.050744336, -0.04714852, -1030453.5, 380390.25, 0.053295206, 10.003901, 9.997682 
2.015202e+3, 1.6603388e+2, -984830.25, -1408047.9, -55243.44, 0.060979396, -0.0502996, -977738.06, 335128.3, 0.016297996, 10.003442, 9.997755 
2.0151755e+3, 1.7603242e+2, -886707.94, -1316233.4, -57359.35, -0.018250335, 0.02925839, -879180.06, 335701.4, 0.0023698886, 10.003428, 9.997718 
2.0151488e+3, 1.8603025e+2, -821372.25, -1163199.3, -100280.83, -0.057065725, 0.014513885, -794125.0, 322776.2, 0.00004542485, 10.002891, 9.998355 
2.0151217e+3, 1.960278e+2, -861821.7, -1142851.3, -90514.484, -0.055461742, -0.066642374, -835192.0, 183730.08, 0.0, 10.0019865, 9.998258 
2.0150949e+3, 2.0602597e+2, -843114.2, -1072747.3, -87525.11, -0.050753627, -0.07155254, -813558.0, 107381.43, 0.0, 10.001395, 9.998353 
2.0150681e+3, 2.1602473e+2, -800904.5, -1002338.1, -97701.37, -0.04894177, -0.03272415, -761302.3, 61650.58, 0.0, 10.001014, 9.998348 
2.0150416e+3, 2.2602329e+2, -729567.8, -812061.25, -111162.0, -0.0036791295, -0.054194085, -652246.9, 72719.24, 0.0, 10.000379, 9.999288 
2.015015e+3, 2.3602189e+2, -754080.75, -780543.9, -97495.97, 0.07222195, -0.12189291, -668922.56, -41945.035, 0.0, 9.999569, 9.999221 
2.014988e+3, 2.4602138e+2, -713463.2, -668388.0, -85518.16, 0.085105725, -0.10718504, -602487.5, -73504.61, 0.0, 9.998996, 9.999593 
2.014961e+3, 2.5602165e+2, -681049.6, -606900.3, -93307.31, 0.054013424, -0.042671748, -543571.9, -112589.484, 0.0, 9.998568, 9.999548 
2.0149341e+3, 2.6602146e+2, -626716.94, -464486.7, -81151.87, 0.030647142, -0.035776757, -430861.72, -97877.38, 0.0, 9.997989, 10.00013 
2.0149076e+3, 2.760212e+2, -627746.6, -416358.44, -85258.69, 0.013963859, -0.07593743, -386257.53, -151271.14, 0.0, 9.997317, 10.000112 
2.0148821e+3, 2.8602165e+2, -550744.3, -236571.13, -66271.26, 0.053775135, -0.08127992, -223164.1, -86181.95, 0.0, 9.9967785, 10.000933 
2.0148571e+3, 2.9602277e+2, -542150.44, -209306.5, -58103.92, 0.12659462, -0.060734697, -199455.0, -160483.73, 0.0, 9.996282, 10.000687 
2.0148319e+3, 3.0602312e+2, -565548.06, -181311.25, -28533.354, 0.078885876, -0.08373775, -179203.92, -179203.92, 0.0, 9.995718, 10.00082 
2.0148078e+3, 3.1602478e+2, -522884.28, 45515.76, -50124.906, 0.12865837, -0.017134069, 49902.227, 49902.227, 0.0, 9.995141, 10.0026455 
2.0253111e+3, 1.2607028e+2, -1263827.9, -1769923.1, 11151.243, 0.06696756, -0.010180081, -1263582.3, 440928.6, 0.28093204, 10.005811, 9.996821 
2.0252846e+3, 1.3606717e+2, -1100684.3, -1680236.5, 12575.258, 0.023606818, 0.012108223, -1100411.5, 506132.13, 0.20246425, 10.006042, 9.9966545 
2.0252575e+3, 1.4606465e+2, -930196.06, -1477249.8, -492.34958, -0.058561206, 0.05693654, -930195.6, 578372.06, 0.12182628, 10.005789, 9.997521 
2.0252319e+3, 1.5606114e+2, -888297.56, -1436223.9, -28281.883, 0.03757048, -0.0446651, -886841.6, 523758.03, 0.056283545, 10.005113, 9.997427 
2.0252058e+3, 1.6605864e+2, -879371.7, -1351063.9, -34003.297, 0.05626943, -0.047520716, -876933.06, 435690.13, 0.017442321, 10.004163, 9.997795 
2.0251788e+3, 1.7605701e+2, -938852.56, -1336961.1, -37310.26, -0.009103985, 0.008382594, -935386.06, 279253.38, 0.0026024333, 10.003054, 9.997755 
2.0251516e+3, 1.8605487e+2, -883776.94, -1192214.0, -87818.99, -0.044039603, -0.0034830226, -860525.7, 256132.97, 0.0000523828, 10.0024605, 9.998363 
2.0251238e+3, 1.9605261e+2, -827858.1, -1126106.6, -95509.23, -0.046228018, -0.06549336, -799894.7, 218783.38, 0.0, 10.002219, 9.9982605 
2.0250964e+3, 2.060508e+2, -815309.3, -1054785.4, -88449.484, -0.042682085, -0.07166911, -786183.3, 134512.19, 0.0, 10.001569, 9.998392 
2.025069e+3, 2.1604943e+2, -851764.7, -1021477.7, -78832.67, -0.03889737, -0.046678796, -820797.06, 1912.8606, 0.0, 10.000645, 9.998393 
2.0250417e+3, 2.2604813e+2, -769063.94, -821981.5, -90589.88, 0.006003959, -0.06121591, -701148.0, 23573.965, 0.0, 10.000071, 9.999366 
2.0250146e+3, 2.3604701e+2, -727882.8, -762276.56, -95774.414, 0.08006311, -0.10889095, -647773.6, -21042.92, 0.0, 9.999727, 9.999269 
2.0249872e+3, 2.4604635e+2, -691890.9, -677809.56, -85400.93, 0.088206545, -0.099159, -599159.56, -70421.96, 0.0, 9.999233, 9.999412 
2.0249595e+3, 2.5604624e+2, -681513.56, -624770.0, -90002.695, 0.05025785, -0.054435305, -558773.1, -128031.734, 0.0, 9.998643, 9.999388 
2.024932e+3, 2.6604614e+2, -612454.44, -449308.3, -68974.68, 0.030923726, -0.037699617, -424055.97, -91313.21, 0.0, 9.998053, 10.000202 
2.0249051e+3, 2.7604622e+2, -607120.75, -401393.94, -57801.55, 0.029173698, -0.052450158, -386266.25, -151524.84, 0.0, 9.997439, 10.000154 
2.0248789e+3, 2.860464e+2, -572439.9, -270986.56, -42222.29, 0.05907719, -0.06835545, -265184.47, -128445.04, 0.0, 9.996737, 10.000714 
2.024853e+3, 2.9604712e+2, -597162.56, -249335.75, -50087.33, 0.09810218, -0.06743176, -242266.81, -203533.7, 0.0, 9.995967, 10.000561 
2.0248275e+3, 3.0604774e+2, -624891.4, -194937.33, 9062.182, 0.0824067, -0.07156664, -194746.4, -194746.4, 0.0, 9.995246, 10.000955 
2.0248023e+3, 3.160501e+2, -620121.3, -4450.9966, -911.56305, 0.09677122, 0.06078563, -4449.647, -4449.647, 0.0, 9.994491, 10.002615 
2.0353168e+3, 1.2609622e+2, -1209045.5, -1624449.9, 3609.1694, 0.04950809, 0.033459716, -1209014.1, 495243.84, 0.29260635, 10.005824, 9.998037 
2.035291e+3, 1.3609284e+2, -1063610.5, -1576177.5, 18378.6, 0.06108222, -0.06589861, -1062952.4, 543335.1, 0.21142864, 10.006042, 9.997422 
2.0352633e+3, 1.4609022e+2, -982445.25, -1587140.1, -23007.27, -0.049440246, -0.021852184, -981571.1, 526741.44, 0.12777743, 10.005782, 9.996743 
2.0352362e+3, 1.560872e+2, -938292.56, -1539825.5, -52626.938, -0.04170078, 0.0029968622, -933723.06, 476620.66, 0.05946478, 10.005098, 9.996725 
2.0352092e+3, 1.6608427e+2, -878169.3, -1346602.0, -73616.71, -0.014772372, -0.013896964, -866872.5, 445499.47, 0.018665068, 10.004157, 9.997831 
2.035182e+3, 1.7608158e+2, -936400.5, -1334769.9, -73220.61, -0.003943386, -0.06586446, -923368.8, 291027.75, 0.002857125, 10.003064, 9.9977665 
2.0351544e+3, 1.8607941e+2, -896855.0, -1222406.5, -95299.375, 0.0042659906, -0.072363175, -871009.7, 245406.84, 0.000060137387, 10.002471, 9.998151 
2.0351268e+3, 1.9607773e+2, -839632.5, -1150459.5, -104485.51, 0.020744748, -0.055142216, -807774.6, 210657.2, 0.0, 10.002216, 9.9980955 
2.0350985e+3, 2.06076e+2, -793590.94, -1009952.4, -121980.14, 0.0072994074, -0.06173932, -738731.06, 181717.36, 0.0, 10.001567, 9.998702 
2.0350698e+3, 2.1607444e+2, -833262.1, -983787.94, -108975.11, -0.029157737, -0.088744156, -776086.06, 46377.98, 0.0, 10.000646, 9.998652 
2.0350416e+3, 2.2607343e+2, -779855.8, -846414.7, -102410.055, -0.013082116, -0.07508195, -705453.56, 19019.95, 0.0, 10.000076, 9.999197 
2.0350139e+3, 2.3607294e+2, -739373.25, -787225.2, -107550.67, 0.039665062, -0.042728208, -653119.4, -26641.854, 0.0, 9.999729, 9.999098 
2.034986e+3, 2.4607201e+2, -700546.56, -698098.44, -107424.73, 0.053080637, -0.04513515, -591890.8, -63403.293, 0.0, 9.999241, 9.99927 
2.0349579e+3, 2.5607097e+2, -685753.3, -637149.75, -111367.85, 0.036826134, -0.07425314, -547463.06, -116963.586, 0.0, 9.998655, 9.999298 
2.0349303e+3, 2.6607102e+2, -589945.94, -405978.75, -92433.016, 0.04574298, -0.059357222, -367559.72, -35060.504, 0.0, 9.998065, 10.000496 
2.034903e+3, 2.7607182e+2, -591497.56, -373060.22, -81042.18, 0.079487525, -0.028316215, -346276.88, -111786.945, 0.0, 9.997455, 10.000342 
2.0348762e+3, 2.860719e+2, -601800.06, -334578.88, -72528.91, 0.11947365, -0.04070436, -316162.38, -179672.58, 0.0, 9.996745, 10.000275 
2.0348492e+3, 2.9607195e+2, -603223.6, -266545.78, -79618.61, 0.13628002, -0.06311013, -248666.78, -210175.8, 0.0, 9.995984, 10.000437 
2.034822e+3, 3.06074e+2, -576408.75, -95613.85, -18211.695, 0.029493215, 0.033247605, -94925.016, -94925.016, 0.0, 9.995249, 10.0016365 
2.0347966e+3, 3.1607363e+2, -623250.2, -13265.133, -78313.98, 0.08782972, -0.15357919, -3371.1392, -3371.1392, 0.0, 9.9944935, 10.002556 
2.0453231e+3, 1.2612242e+2, -1056063.1, -1547584.9, 21709.021, 0.022613203, 0.014310003, -1055106.1, 648894.9, 0.3062565, 10.00743, 9.998038 
2.045297e+3, 1.3611922e+2, -1059698.4, -1579800.9, -7328.8276, 0.05015045, -0.05535814, -1059595.1, 546433.25, 0.22159244, 10.006184, 9.997324 
2.0452689e+3, 1.4611636e+2, -1030304.25, -1599267.0, -46977.652, -0.040366437, -0.03710576, -1026451.5, 481604.03, 0.13433105, 10.005381, 9.996855 
2.0452411e+3, 1.561135e+2, -974536.0, -1549245.0, -23173.297, -0.038150523, -0.005669121, -973603.1, 436481.88, 0.06290751, 10.004809, 9.9967985 
2.0452134e+3, 1.6611052e+2, -865195.4, -1358188.5, -29449.436, -0.012807196, -0.022670113, -863442.44, 448671.4, 0.019990923, 10.004333, 9.997665 
2.0451856e+3, 1.7610756e+2, -821838.6, -1296952.3, -44506.063, 0.0036888209, -0.08325798, -817705.5, 396435.44, 0.0031415827, 10.00393, 9.997608 
2.0451573e+3, 1.8610525e+2, -802948.56, -1182886.1, -62215.555, 0.012717191, -0.09256664, -793020.1, 323142.1, 0.00006977841, 10.003141, 9.998098 
2.045129e+3, 1.9610356e+2, -860159.5, -1164688.8, -60852.563, 0.025039468, -0.07131216, -848449.9, 169727.92, 0.0, 10.002097, 9.998054 
2.0451e+3, 2.061018e+2, -813293.8, -1020176.75, -86990.516, 0.019426584, -0.07644038, -781578.06, 138616.56, 0.0, 10.001438, 9.998692 
2.0450708e+3, 2.1610022e+2, -777716.94, -958776.1, -97943.76, -0.0014526139, -0.10536858, -734872.7, 87337.84, 0.0, 10.001036, 9.998635 
2.0450419e+3, 2.2609928e+2, -719282.2, -821896.56, -88326.72, -0.007707835, -0.08052984, -668442.25, 55777.51, 0.0, 10.000515, 9.999152 
2.0450133e+3, 2.3609897e+2, -714056.6, -778116.9, -86656.33, -0.0005604411, -0.027312748, -653700.3, -27477.406, 0.0, 9.999919, 9.999067 
2.044985e+3, 2.46098e+2, -705314.94, -691452.56, -79751.01, 0.026360761, -0.03726993, -618332.1, -90099.06, 0.0, 9.999171, 9.999349 
2.0449565e+3, 2.5609678e+2, -728668.3, -649866.7, -67050.82, 0.061793234, -0.0935934, -611497.1, -181251.27, 0.0, 9.998329, 9.999367 
2.0449284e+3, 2.6609677e+2, -641894.6, -432942.6, -50058.81, 0.069619745, -0.08161256, -421569.03, -89323.24, 0.0, 9.99772, 10.000476 
2.0449002e+3, 2.7609774e+2, -624067.4, -390902.3, -64013.242, 0.07180417, -0.031311728, -374484.16, -140248.4, 0.0, 9.997244, 10.0003195 
2.0448728e+3, 2.860979e+2, -624498.06, -344977.88, -49335.03, 0.12272644, -0.032355346, -336525.84, -200291.28, 0.0, 9.996589, 10.0002775 
2.0448455e+3, 2.960979e+2, -623590.56, -265529.25, -26440.242, 0.1691509, -0.06436157, -263587.38, -225351.34, 0.0, 9.9958, 10.000531 
2.0448166e+3, 3.0610004e+2, -607762.94, -65793.03, 21991.475, -0.015311782, 0.0139812, -64902.152, -64902.152, 0.0, 9.994847, 10.002031 
2.0447908e+3, 3.160999e+2, -702382.06, -53205.117, -55610.395, 0.08513047, -0.17863831, -48475.824, -48475.824, 0.0, 9.993964, 10.002534 
2.0553301e+3, 1.2614906e+2, -1121946.6, -1655713.1, -19177.115, -0.029755455, -0.03879921, -1121258.5, 582480.4, 0.3220218, 10.007419, 9.9969845 
2.0553026e+3, 1.3614616e+2, -1113885.8, -1696573.1, -37599.285, -0.009532156, 0.028675962, -1111469.5, 494297.66, 0.23307396, 10.006178, 9.99648 
2.0552744e+3, 1.4614296e+2, -979936.8, -1473586.8, -61325.203, -0.035673678, -0.0014830988, -972432.56, 535364.75, 0.14157377, 10.00538, 9.997754 
2.0552465e+3, 1.5614004e+2, -925868.9, -1439303.4, -39754.04, 0.03551235, -0.06321745, -922809.06, 487014.44, 0.066662796, 10.004816, 9.997552 
2.0552182e+3, 1.6613734e+2, -890542.8, -1412221.1, -43087.49, 0.049777888, -0.06503058, -887008.0, 424841.13, 0.021443982, 10.004336, 9.997294 
2.0551895e+3, 1.7613481e+2, -845349.06, -1345628.6, -59936.83, 0.009561753, -0.046401452, -838268.44, 375605.3, 0.0034644331, 10.003927, 9.997276 
2.0551601e+3, 1.8613228e+2, -795732.75, -1168485.4, -100129.9, -0.018808551, -0.06840123, -770538.44, 345358.7, 0.0000827448, 10.003141, 9.998199 
2.0551303e+3, 1.9613001e+2, -855360.1, -1156627.5, -95322.94, -0.03257109, -0.114813805, -827732.9, 190184.25, 0.0, 10.002104, 9.998108 
2.0551012e+3, 2.0612817e+2, -834921.44, -1067585.3, -100864.664, -0.0068961754, -0.11519029, -797283.25, 122651.8, 0.0, 10.001447, 9.9983635 
2.0550723e+3, 2.1612671e+2, -798428.25, -1001731.9, -111028.9, 0.04013507, -0.09540936, -749546.0, 72404.23, 0.0, 10.001034, 9.9983425 
2.0550427e+3, 2.2612563e+2, -714847.2, -813539.94, -109350.336, 0.0187442, -0.07618926, -644224.56, 79736.83, 0.0, 10.000516, 9.999211 
2.0550127e+3, 2.3612496e+2, -707632.3, -765879.44, -108237.91, -0.043442417, -0.062284153, -624668.3, 1299.6293, 0.0, 9.999921, 9.999152 
2.0549838e+3, 2.4612418e+2, -683571.5, -648527.8, -111553.734, 0.005958081, -0.07492026, -553128.2, -25152.967, 0.0, 9.999178, 9.999641 
2.0549555e+3, 2.5612345e+2, -712465.94, -618238.44, -96312.58, 0.12254757, -0.11326165, -558133.6, -128152.07, 0.0, 9.998335, 9.999582 
2.0549263e+3, 2.661233e+2, -665772.44, -484256.03, -68420.37, 0.09968638, -0.10499742, -461355.1, -129371.47, 0.0, 9.997725, 10.000122 
2.0548968e+3, 2.7612382e+2, -639215.25, -425755.63, -83144.85, -0.0021106012, -0.06475385, -397191.97, -163211.6, 0.0, 9.997255, 10.000077 
2.0548686e+3, 2.8612435e+2, -590363.7, -277364.34, -79783.88, 0.06153057, -0.04468371, -258200.66, -122225.71, 0.0, 9.9966, 10.000738 
2.0548415e+3, 2.9612485e+2, -597909.1, -217491.61, -56268.016, 0.19330648, -0.06968793, -209343.47, -171374.8, 0.0, 9.995819, 10.000854 
2.054811e+3, 3.0612555e+2, -608658.94, -65719.52, -21723.994, -0.048280086, -0.14434002, -64851.695, -64851.695, 0.0, 9.994839, 10.002036 
2.0547852e+3, 3.1612924e+2, -745363.7, -148031.0, -25133.047, 0.13672103, 0.039361242, -146975.38, -146975.38, 0.0, 9.993976, 10.0018835 
2.0653376e+3, 1.2617739e+2, -1137617.0, -1687571.0, 3434.4836, 0.0036174266, -0.04157717, -1137595.5, 565865.0, 0.3395909, 10.007611, 9.9965725 
2.0653085e+3, 1.3617426e+2, -1097519.1, -1709360.8, 35727.05, -0.026056249, 0.031882007, -1095440.0, 510052.3, 0.24573961, 10.006525, 9.996224 
2.0652798e+3, 1.4617072e+2, -934534.0, -1452094.9, 21492.543, -0.034516998, -0.016902223, -933643.0, 573882.75, 0.14948897, 10.005798, 9.997727 
2.0652518e+3, 1.5616804e+2, -861429.4, -1408350.1, -11916.206, 0.04656823, -0.05214519, -861169.9, 548379.56, 0.07075384, 10.005323, 9.9975195 
2.0652229e+3, 1.6616528e+2, -850830.3, -1399718.1, -27888.656, 0.055513807, -0.053381987, -849416.94, 462158.34, 0.023043426, 10.004651, 9.997229 
2.065193e+3, 1.7616253e+2, -862426.25, -1361240.5, -23542.438, 0.0046158507, -0.051126268, -861317.56, 352284.4, 0.003833418, 10.003844, 9.997209 
2.0651634e+3, 1.8615992e+2, -780537.8, -1174235.9, -66078.56, -0.02086618, -0.06917115, -769743.1, 345883.06, 0.00010035138, 10.003305, 9.998079 
2.065133e+3, 1.9615768e+2, -742014.5, -1115097.8, -79155.92, -0.025135243, -0.09991375, -725915.0, 291731.44, 0.0, 10.002938, 9.997991 
2.065103e+3, 2.0615572e+2, -733213.5, -1024176.3, -78909.8, -0.00640262, -0.10343686, -713190.8, 206474.36, 0.0, 10.002171, 9.998312 
2.0650733e+3, 2.1615407e+2, -786439.5, -1002222.9, -70840.65, 0.02557214, -0.098282486, -765261.4, 56420.156, 0.0, 10.001145, 9.998283 
2.065043e+3, 2.261528e+2, -751025.9, -846471.94, -65826.35, 0.01954726, -0.087529846, -717443.3, 6251.396, 0.0, 10.000339, 9.999068 
2.0650129e+3, 2.3615195e+2, -751031.8, -797930.44, -81308.08, -0.009113387, -0.07746695, -689859.2, -64155.402, 0.0, 9.999674, 9.999049 
2.0649831e+3, 2.461513e+2, -694334.3, -628017.44, -96744.47, 0.026533294, -0.08334491, -558906.75, -31197.361, 0.0, 9.998997, 9.999868 
2.0649536e+3, 2.561509e+2, -705307.6, -594904.06, -86461.414, 0.101490185, -0.108431734, -547525.1, -117813.82, 0.0, 9.9983015, 9.999758 
2.0649238e+3, 2.6615065e+2, -694938.1, -523930.63, -46702.418, 0.07838766, -0.10634308, -512007.44, -180292.83, 0.0, 9.997637, 9.999891 
2.0648938e+3, 2.7615076e+2, -689967.0, -468237.16, -54713.8, 0.0022956992, -0.0843238, -455471.06, -221754.84, 0.0, 9.996986, 9.999914 
2.0648652e+3, 2.861515e+2, -619269.3, -253078.67, -62061.492, 0.062258173, -0.05660533, -242846.48, -107137.7, 0.0, 9.99624, 10.001078 
2.0648369e+3, 2.9615256e+2, -646190.75, -214590.55, -51664.227, 0.17680478, -0.058258403, -208492.3, -170795.94, 0.0, 9.99538, 10.001082 
2.0648056e+3, 3.061529e+2, -676988.6, -104626.195, -27175.813, -0.04403265, -0.1689216, -103338.78, -103338.78, 0.0, 9.994401, 10.001977 
2.0647795e+3, 3.1615627e+2, -824001.8, -193202.75, 15306.229, 0.19082561, -0.020195315, -192831.56, -192831.56, 0.0, 9.993467, 10.001819 
2.0753463e+3, 1.2620732e+2, -1149765.3, -1675002.8, -25292.285, 0.09766901, 0.01062697, -1148550.3, 554616.75, 0.35830536, 10.007575, 9.99673 
2.0753151e+3, 1.3620336e+2, -1093890.0, -1675501.4, 7117.4443, -0.015397144, -0.03313598, -1093803.0, 511401.56, 0.25925568, 10.006531, 9.996451 
2.0752856e+3, 1.4619955e+2, -989969.7, -1569572.8, 6410.914, -0.04653687, -0.07183438, -989898.75, 517343.03, 0.15797117, 10.005814, 9.99685 
2.0752566e+3, 1.5619726e+2, -912550.8, -1518675.3, -27667.03, -0.0030212093, 0.020002889, -911290.56, 497974.13, 0.07517484, 10.005327, 9.996762 
2.075227e+3, 1.6619416e+2, -835159.4, -1366438.5, -55755.547, 0.0069509544, 0.0038099026, -829371.1, 481922.88, 0.024800662, 10.004656, 9.9974575 
2.0751968e+3, 1.7619061e+2, -849216.06, -1336195.8, -49495.37, -0.0132276835, -0.09565375, -844236.4, 369090.0, 0.0042541707, 10.003854, 9.997378 
2.0751667e+3, 1.8618812e+2, -803837.56, -1224270.1, -78088.56, 0.0012887502, -0.09237798, -789802.44, 325547.8, 0.00012354547, 10.00331, 9.997735 
2.0751365e+3, 1.9618648e+2, -763406.2, -1158335.9, -92951.93, 0.04022283, -0.027206004, -742622.5, 274744.1, 0.0, 10.002932, 9.997699 
2.0751052e+3, 2.0618437e+2, -719140.5, -995109.06, -116015.336, 0.016795449, -0.04224006, -676849.4, 242536.66, 0.0, 10.002169, 9.998514 
2.0750734e+3, 2.1618216e+2, -777227.1, -982938.44, -105415.75, -0.046452224, -0.1143715, -732801.5, 88604.055, 0.0, 10.0011425, 9.998419 
2.0750432e+3, 2.2618064e+2, -774631.06, -896875.2, -89602.484, -0.0062179393, -0.11376668, -727288.75, -3867.8882, 0.0, 10.000341, 9.998722 
2.0750137e+3, 2.3617978e+2, -771325.7, -841351.8, -104299.48, 0.0989493, -0.07296439, -696319.2, -70887.62, 0.0, 9.999677, 9.998752 
2.0749827e+3, 2.4617922e+2, -682795.4, -605939.44, -122738.43, 0.08389067, -0.062410604, -515753.9, 11682.689, 0.0, 9.999002, 10.000018 
2.0749506e+3, 2.5617906e+2, -695700.6, -577681.44, -112097.445, -0.00868037, -0.07884403, -510010.44, -80574.18, 0.0, 9.99831, 9.999873 
2.0749207e+3, 2.6617873e+2, -702391.0, -541794.0, -72146.14, 0.0034986427, -0.08392872, -514143.84, -182703.94, 0.0, 9.997644, 9.999766 
2.0748916e+3, 2.7617848e+2, -694637.2, -481298.03, -79436.984, 0.08853197, -0.08708378, -454968.97, -221524.66, 0.0, 9.996999, 9.99982 
2.0748621e+3, 2.8617913e+2, -604733.44, -225899.19, -96652.125, 0.122567445, -0.07013483, -202665.23, -67227.37, 0.0, 9.996249, 10.001262 
2.0748313e+3, 2.961807e+2, -636626.6, -198622.16, -88625.46, 0.097805716, -0.039372575, -181369.33, -143947.44, 0.0, 9.995393, 10.001187 
2.0748006e+3, 3.061822e+2, -685454.9, -122052.164, -67508.73, 0.010254955, -0.032856714, -114075.97, -114075.97, 0.0, 9.994401, 10.001857 
2.0747723e+3, 3.161828e+2, -763433.5, -69802.125, 610.97174, 0.122478046, -0.15989523, -69801.586, -69801.586, 0.0, 9.993473, 10.0026655 
2.0853537e+3, 1.2623753e+2, -1192159.1, -1702350.5, -9616.142, 0.09014063, 0.029601201, -1191978.0, 510893.06, 0.37733325, 10.007382, 9.99653 
2.085322e+3, 1.3623339e+2, -1026434.1, -1626036.8, 1205.132, -0.020527912, -0.035141695, -1026431.7, 578478.75, 0.2731863, 10.007266, 9.996436 
2.0852917e+3, 1.4622936e+2, -926236.94, -1568316.6, 6320.7446, -0.03532438, -0.075753324, -926174.75, 580775.3, 0.1668623, 10.006552, 9.996502 
2.085262e+3, 1.5622677e+2, -910461.25, -1550131.4, 8227.627, -0.012488613, 0.021989496, -910355.44, 498620.88, 0.07989699, 10.005508, 9.996457 
2.0852314e+3, 1.6622357e+2, -802735.06, -1348244.9, -5388.168, -0.0075031524, 0.010589066, -802681.8, 508324.5, 0.026719602, 10.004887, 9.997469 
2.085201e+3, 1.7622009e+2, -752828.94, -1291704.8, -16983.748, -0.019006805, -0.08179586, -752294.2, 460743.38, 0.0047312086, 10.004529, 9.997358 
2.0851701e+3, 1.8621746e+2, -758732.5, -1226811.3, -51233.152, 0.0032402074, -0.07944883, -753190.44, 361872.6, 0.00015299044, 10.003724, 9.997519 
2.0851395e+3, 1.9621554e+2, -818993.0, -1205018.0, -57650.305, 0.048340503, -0.02068397, -810567.2, 206515.63, 0.0, 10.002638, 9.997519 
2.0851074e+3, 2.062134e+2, -737805.3, -1000027.56, -80904.18, 0.024160702, -0.03374066, -714852.75, 204249.86, 0.0, 10.0020275, 9.998546 
2.085075e+3, 2.1621127e+2, -692112.9, -938843.6, -84671.586, -0.043875746, -0.098871246, -665851.06, 155269.6, 0.0, 10.001717, 9.998444 
2.0850436e+3, 2.2620969e+2, -690544.06, -855047.5, -63933.29, -0.004301217, -0.1064465, -668618.94, 54517.15, 0.0, 10.000916, 9.998732 
2.0850134e+3, 2.3620863e+2, -754068.44, -835631.94, -53078.984, 0.10475544, -0.083546825, -727913.44, -102765.484, 0.0, 9.999809, 9.998725 
2.0849817e+3, 2.4620803e+2, -697504.44, -645052.0, -70957.945, 0.08532685, -0.061855372, -595628.75, -68474.234, 0.0, 9.999041, 9.99973 
2.084949e+3, 2.5620788e+2, -684955.5, -594475.06, -94339.27, -0.016000492, -0.04696858, -535089.4, -105933.69, 0.0, 9.998481, 9.999675 
2.0849182e+3, 2.6620755e+2, -679740.2, -481750.94, -48210.95, -0.0053801374, -0.06651541, -470635.47, -139477.23, 0.0, 9.997591, 10.000203 
2.0848884e+3, 2.7620724e+2, -744915.1, -464646.28, -13667.822, 0.08382374, -0.11546835, -463981.3, -230821.14, 0.0, 9.996481, 10.000182 
2.0848577e+3, 2.862079e+2, -708190.75, -288875.8, -25836.613, 0.11503759, -0.10812228, -287289.88, -152135.97, 0.0, 9.995597, 10.0011425 
2.0848264e+3, 2.962096e+2, -724688.25, -251531.17, -43546.813, 0.08896107, -0.054243967, -247556.75, -210418.03, 0.0, 9.994834, 10.001095 
2.0847952e+3, 3.062116e+2, -732769.6, -143549.38, -22179.713, 0.049235653, 0.0026366827, -142715.66, -142715.66, 0.0, 9.994071, 10.001869 
2.0847651e+3, 3.162124e+2, -768549.0, -21453.387, 31069.3, 0.07897444, -0.10399109, -20163.541, -20163.541, 0.0, 9.993221, 10.003119 
2.0953599e+3, 1.2626797e+2, -1232240.5, -1779868.4, -9276.182, -0.019108776, 0.01928272, -1232083.4, 470489.66, 0.39589894, 10.007346, 9.9960165 
2.0953292e+3, 1.3626416e+2, -1053267.1, -1665571.5, -3233.2656, -0.043807015, 0.019606574, -1053250.0, 551360.9, 0.28713563, 10.007237, 9.99618 
2.0952986e+3, 1.4625993e+2, -925782.8, -1548935.3, -25589.318, -0.008156566, -0.035993584, -924733.75, 581918.2, 0.1760244, 10.006538, 9.996645 
2.0952676e+3, 1.562565e+2, -903568.0, -1532537.6, -22319.135, 0.008842016, -0.03966119, -902777.0, 505907.75, 0.084899314, 10.005525, 9.996572 
2.0952366e+3, 1.6625348e+2, -816546.0, -1379288.4, -16166.691, 0.0044323616, -0.026657997, -816081.94, 494630.97, 0.028807903, 10.0049, 9.9972515 
2.0952056e+3, 1.7625085e+2, -768007.94, -1323181.6, -30864.137, -0.016746236, -0.0124915335, -766297.3, 446439.53, 0.005271096, 10.004528, 9.997145 
2.0951736e+3, 1.8624784e+2, -765243.1, -1241324.4, -90460.14, -0.016174216, -0.032805476, -748634.25, 366131.63, 0.00018955767, 10.003725, 9.997419 
2.0951414e+3, 1.9624479e+2, -825402.8, -1219987.5, -92285.984, -0.0009902345, -0.0772508, -804885.7, 211910.25, 0.0, 10.002642, 9.997415 
2.0951094e+3, 2.0624268e+2, -745904.5, -1018790.1, -90832.96, 0.014394197, -0.07499708, -718434.94, 200380.92, 0.0, 10.002033, 9.998416 
2.0950773e+3, 2.162413e+2, -698276.94, -950890.5, -96638.33, 0.027891636, -0.051785707, -665547.94, 155279.9, 0.0, 10.001711, 9.998365 
2.0950449e+3, 2.262398e+2, -667076.6, -806336.25, -104383.28, 0.021357596, -0.06625419, -611230.6, 111610.8, 0.0, 10.000914, 9.999068 
2.0950122e+3, 2.3623842e+2, -740197.44, -806988.3, -90513.54, 0.0044187037, -0.10946508, -677115.1, -52261.027, 0.0, 9.999808, 9.998924 
2.09498e+3, 2.4623756e+2, -747595.9, -751039.44, -92170.24, 0.029597502, -0.07994548, -657131.3, -130267.0, 0.0, 9.999047, 9.999001 
2.0949484e+3, 2.5623724e+2, -719313.8, -669605.3, -117392.14, 0.077603236, -0.01120061, -574465.2, -145594.34, 0.0, 9.998495, 9.999153 
2.0949163e+3, 2.66237e+2, -606502.3, -333455.72, -91510.64, 0.048122175, -0.056046408, -305623.28, 25247.65, 0.0, 9.997603, 10.001217 
2.0948838e+3, 2.7623698e+2, -685429.25, -345090.75, -53848.1, -0.023352586, -0.17702541, -336774.16, -103908.84, 0.0, 9.996494, 10.000998 
2.0948525e+3, 2.8623778e+2, -739898.06, -355220.9, -56138.324, 0.035838258, -0.1693723, -347195.72, -212338.1, 0.0, 9.995598, 10.000688 
2.0948218e+3, 2.9623926e+2, -746369.6, -295386.63, -72635.48, 0.15636447, -0.088099286, -283976.6, -247130.28, 0.0, 9.994827, 10.000798 
2.0947893e+3, 3.062405e+2, -720824.7, -121533.54, -51184.727, 0.059240222, -0.10197027, -117193.34, -117193.34, 0.0, 9.99408, 10.002019 
2.0947586e+3, 3.162429e+2, -762595.5, -18254.217, -75002.15, 0.10392798, -0.054767195, -10771.98, -10771.98, 0.0, 9.993259, 10.003122 
2.1053675e+3, 1.2629893e+2, -1223843.9, -1746670.8, 18069.393, -0.01388085, -0.008929696, -1223220.1, 479049.4, 0.41348517, 10.00754, 9.99615 
2.1053362e+3, 1.3629569e+2, -1098801.8, -1674787.8, 43424.016, -0.036763508, 0.03033063, -1095546.4, 508755.3, 0.3008493, 10.006824, 9.996325 
2.1053052e+3, 1.4629169e+2, -944646.44, -1552027.9, 32055.607, 0.001616323, -0.010332821, -942959.3, 563380.9, 0.18538173, 10.006418, 9.99668 
2.1052735e+3, 1.5628788e+2, -804333.1, -1477150.8, 31130.885, 0.006140864, -0.056583274, -802895.8, 605480.6, 0.090184584, 10.00629, 9.996583 
2.1052417e+3, 1.6628464e+2, -739477.4, -1370306.3, 30269.613, 0.000119570395, -0.04898646, -738028.25, 572378.44, 0.03108228, 10.005585, 9.996984 
2.10521e+3, 1.7628191e+2, -787865.25, -1359367.8, 12571.319, -0.014744553, -0.014801881, -787588.8, 424843.03, 0.005883353, 10.004511, 9.996902 
2.1051775e+3, 1.8627873e+2, -753206.75, -1241568.9, -45556.438, -0.017981242, -0.038207125, -748993.4, 365469.0, 0.00023487094, 10.003839, 9.997361 
2.1051443e+3, 1.9627544e+2, -718928.44, -1177184.1, -45861.867, -0.01348071, -0.10154052, -714383.7, 302110.7, 0.0, 10.003411, 9.997337 
2.1051116e+3, 2.0627323e+2, -682292.5, -1008295.94, -43904.387, 0.008853674, -0.09512171, -676483.25, 242032.52, 0.0, 10.002559, 9.998234 
2.1050788e+3, 2.1627186e+2, -748062.1, -992474.56, -56131.617, 0.042053603, -0.053188123, -735787.44, 84741.2, 0.0, 10.001448, 9.998205 
2.1050456e+3, 2.2627038e+2, -696263.5, -821219.44, -82957.62, 0.025356064, -0.058990996, -654888.4, 67653.984, 0.0, 10.000719, 9.999059 
2.1050118e+3, 2.3626898e+2, -681103.56, -778009.56, -94826.35, -0.020288134, -0.10020565, -623068.4, 1486.3099, 0.0, 10.000215, 9.998925 
2.104979e+3, 2.4626803e+2, -704201.5, -719383.5, -67373.16, 0.014323796, -0.08488511, -643993.06, -117427.51, 0.0, 9.999302, 9.999094 
2.1049468e+3, 2.5626758e+2, -765869.44, -682244.9, -33411.367, 0.09816941, -0.03930635, -670535.4, -241962.1, 0.0, 9.9981365, 9.999238 
2.1049136e+3, 2.662676e+2, -673554.7, -357214.9, -33115.65, 0.06719861, -0.061693203, -353785.4, -23214.734, 0.0, 9.9971075, 10.001292 
2.1048799e+3, 2.7626815e+2, -727844.1, -355351.13, -65298.223, -0.030770307, -0.13456316, -344235.97, -111675.914, 0.0, 9.996159, 10.00109 
2.1048479e+3, 2.8626877e+2, -757463.8, -344487.13, -51622.1, 0.025138184, -0.15716326, -338132.13, -203578.53, 0.0, 9.995395, 10.000859 
2.1048166e+3, 2.9626969e+2, -754074.9, -290526.25, -24530.258, 0.16886485, -0.14861472, -289231.78, -252684.69, 0.0, 9.994738, 10.0008745 
2.1047828e+3, 3.0627164e+2, -781231.75, -167937.45, -17638.963, 0.023206059, -0.085377805, -167430.56, -167430.56, 0.0, 9.993741, 10.001862 
2.1047512e+3, 3.1627333e+2, -834109.75, -7590.5522, -67798.89, 0.08809959, -0.09507902, -2065.9756, -2065.9756, 0.0, 9.992583, 10.003518 
2.1153757e+3, 1.2633026e+2, -1208850.5, -1670215.6, 7813.9136, 0.07505852, -0.065187044, -1208718.1, 493243.75, 0.42988724, 10.007554, 9.996826 
2.115343e+3, 1.3632789e+2, -1085486.0, -1602324.1, 25360.625, -0.0123930015, 0.001295512, -1084244.5, 519739.16, 0.31422567, 10.006812, 9.996822 
2.1153113e+3, 1.4632449e+2, -958244.6, -1568158.5, 27868.314, -0.010768582, 0.0041831373, -956973.94, 549042.44, 0.19491117, 10.006405, 9.996578 
2.1152793e+3, 1.5632068e+2, -814553.44, -1493631.1, 24099.219, -0.02235517, -0.031563956, -813699.25, 594353.9, 0.09577037, 10.006294, 9.9964695 
2.1152471e+3, 1.6631688e+2, -761254.7, -1415749.1, -8433.8, -0.022815587, -0.057702158, -761146.0, 548943.25, 0.033565547, 10.0055895, 9.996671 
2.1152143e+3, 1.7631328e+2, -805921.9, -1398625.4, -22654.578, -0.016801873, -0.08314271, -805057.2, 407066.1, 0.0065806285, 10.004518, 9.996632 
2.1151814e+3, 1.8631008e+2, -753929.9, -1245465.4, -60013.527, -0.006188181, -0.09187032, -746708.6, 367444.9, 0.00029204058, 10.003845, 9.997334 
2.115148e+3, 1.9630736e+2, -722671.4, -1185901.3, -62285.98, 0.0059266808, -0.09515068, -714442.56, 301737.1, 0.00000000000010610821, 10.003413, 9.997278 
2.115114e+3, 2.0630492e+2, -699163.0, -1044658.6, -84367.36, 0.0049756537, -0.095527455, -679661.9, 238541.66, 0.0, 10.002562, 9.997984 
2.1150798e+3, 2.1630283e+2, -767324.06, -1032023.25, -92254.72, -0.003929623, -0.100360036, -738343.7, 81880.37, 0.0, 10.001443, 9.997937 
2.1150461e+3, 2.2630127e+2, -720788.2, -872817.25, -100203.484, 0.0059322626, -0.08152334, -671029.3, 51210.59, 0.0, 10.000719, 9.998705 
2.1150124e+3, 2.3630022e+2, -693086.25, -804993.5, -114970.56, 0.026747148, -0.05525892, -621176.5, 3074.3955, 0.0, 10.000221, 9.998738 
2.1149786e+3, 2.4629931e+2, -638616.44, -585619.5, -111710.4, 0.036250915, -0.07922852, -497307.75, 28951.672, 0.0, 9.99931, 10.00001 
2.1149443e+3, 2.5629875e+2, -717991.9, -585072.25, -76069.84, 0.03965756, -0.13580202, -550519.56, -122255.32, 0.0, 9.998143, 9.999903 
2.1149106e+3, 2.662993e+2, -735989.44, -487984.34, -69815.83, 0.050292395, -0.08134693, -469681.28, -139422.94, 0.0, 9.99711, 10.000394 
2.114877e+3, 2.7630076e+2, -771719.75, -448418.6, -100234.65, 0.06040463, 0.024663704, -419864.28, -187619.6, 0.0, 9.996165, 10.000449 
2.1148437e+3, 2.8630084e+2, -696727.5, -222164.48, -77527.266, 0.08027116, -0.07029802, -209820.3, -75577.28, 0.0, 9.995407, 10.001696 
2.1148108e+3, 2.9630062e+2, -717388.3, -222208.3, -50496.195, 0.119489096, -0.25874949, -217111.39, -180867.58, 0.0, 9.994767, 10.001331 
2.1147756e+3, 3.063053e+2, -821941.44, -252101.48, -68798.85, -0.06671939, 0.0993336, -243912.83, -243912.83, 0.0, 9.99374, 10.001285 
2.1147442e+3, 3.1630364e+2, -771718.3, 121766.39, -37437.883, 0.1276536, -0.21568477, 123332.33, 123332.33, 0.0, 9.9925785, 10.004412 
2.125383e+3, 1.2636381e+2, -1103131.5, -1612768.3, 39650.316, -0.022216385, -0.04939008, -1100065.0, 601567.4, 0.4451743, 10.009018, 9.996841 
2.1253504e+3, 1.3636087e+2, -1083465.3, -1605665.6, 27544.896, 0.028080644, -0.02844772, -1082016.3, 521643.13, 0.3272909, 10.006984, 9.996717 
2.125318e+3, 1.4635736e+2, -990470.6, -1600686.9, 56048.395, 0.03803684, -0.021528337, -985365.3, 520327.6, 0.20463051, 10.006258, 9.9964285 
2.1252857e+3, 1.5635364e+2, -818028.8, -1510145.4, 46187.043, -0.0213394, -0.03479802, -814960.2, 592768.9, 0.10168231, 10.0063715, 9.996319 
2.1252526e+3, 1.663497e+2, -733613.0, -1415187.5, -9620.979, -0.027992984, -0.05972502, -733477.2, 576289.4, 0.03628328, 10.005863, 9.996539 
2.1252193e+3, 1.7634584e+2, -748195.0, -1384675.0, -11595.235, -0.004467481, -0.09625114, -747983.8, 463819.38, 0.007378532, 10.004983, 9.996501 
2.1251853e+3, 1.8634261e+2, -702140.06, -1229644.4, -32591.79, 0.0038685717, -0.100362256, -700134.0, 413700.16, 0.00036625285, 10.004245, 9.997249 
2.1251512e+3, 1.9633992e+2, -703275.6, -1185689.4, -43028.03, 0.0022209983, -0.090663046, -699467.9, 316392.1, 0.0000000000129771185, 10.003589, 9.997193 
2.1251164e+3, 2.0633738e+2, -667103.3, -1038142.06, -72423.414, -0.0016458016, -0.09222111, -653468.0, 264416.9, 0.0, 10.002824, 9.997901 
2.1250816e+3, 2.1633512e+2, -694695.25, -1005571.3, -68426.086, -0.006671515, -0.10522163, -680300.7, 139606.52, 0.0, 10.001982, 9.997858 
2.1250468e+3, 2.2633348e+2, -689462.2, -860165.25, -50134.01, 0.005406346, -0.08700324, -675827.4, 46096.574, 0.0, 10.000949, 9.99868 
2.1250124e+3, 2.3633243e+2, -754565.5, -834964.3, -43221.45, 0.028278094, -0.05817066, -735738.75, -111803.48, 0.0, 9.999803, 9.998733 
2.1249776e+3, 2.4633162e+2, -689946.3, -592031.3, -70363.87, 0.029433882, -0.08047457, -555268.9, -29326.236, 0.0, 9.998879, 10.000173 
2.1249421e+3, 2.563312e+2, -719754.5, -572964.0, -90808.86, 0.020558942, -0.13523059, -529598.3, -101653.3, 0.0, 9.9980755, 10.000018 
2.1249077e+3, 2.6633176e+2, -736181.6, -512725.75, -69683.336, 0.04405924, -0.07675858, -492776.44, -162836.28, 0.0, 9.997218, 10.000171 
2.1248733e+3, 2.76333e+2, -762662.25, -461797.5, -51868.195, 0.07914736, 0.03236949, -453106.63, -221176.73, 0.0, 9.996308, 10.000286 
2.1248391e+3, 2.8633323e+2, -713225.1, -200195.72, -38607.15, 0.085019544, -0.058448065, -197306.67, -63379.64, 0.0, 9.995169, 10.001959 
2.124805e+3, 2.963334e+2, -820825.25, -244264.52, -52940.457, 0.1014322, -0.2288964, -239443.77, -203521.23, 0.0, 9.993943, 10.0015745 
2.1247691e+3, 3.0633768e+2, -886722.25, -262692.88, -39138.99, -0.05687615, 0.06816046, -260247.67, -260247.67, 0.0, 9.993208, 10.001469 
2.1247374e+3, 3.1633678e+2, -812298.9, 125838.41, 59775.133, 0.19838214, -0.19276431, 129631.75, 129631.75, 0.0, 9.992195, 10.004625 
2.1353894e+3, 1.2639925e+2, -1164188.6, -1673601.8, -3036.5327, -0.28671315, 0.027434615, -1164170.5, 537113.7, 0.45973596, 10.008732, 9.996234 
2.1353579e+3, 1.3639455e+2, -1122517.5, -1701335.8, -17111.791, 0.07797781, -0.056628615, -1122012.0, 481317.28, 0.34025246, 10.007003, 9.996049 
2.1353252e+3, 1.4639032e+2, -998090.3, -1623399.3, 60197.02, 0.13423698, -0.08174442, -992348.0, 513021.88, 0.2146408, 10.006339, 9.996238 
2.1352923e+3, 1.563867e+2, -828669.5, -1532761.8, 47183.47, 0.0017253286, -0.06388083, -825521.6, 581882.75, 0.10797596, 10.006401, 9.996151 
2.1352586e+3, 1.6638304e+2, -733425.7, -1414139.3, -40140.047, -0.020976208, -0.055608198, -731066.9, 578372.44, 0.039270684, 10.005873, 9.996545 
2.1352243e+3, 1.7637953e+2, -747861.9, -1386556.8, -40795.43, 0.01813637, -0.058258783, -745266.7, 466206.1, 0.008296985, 10.004995, 9.996484 
2.1351898e+3, 1.8637614e+2, -712071.06, -1252731.6, -55259.32, 0.009565382, -0.066856585, -706480.94, 407024.53, 0.00046504522, 10.004252, 9.9970875 
2.1351546e+3, 1.96373e+2, -712265.56, -1204737.6, -65468.74, -0.026677128, -0.08614911, -703710.8, 311825.34, 0.0000000000136278775, 10.003588, 9.997065 
2.1351191e+3, 2.0637049e+2, -661933.2, -1027745.75, -102165.32, -0.013052874, -0.08314426, -635334.2, 282226.53, 0.0, 10.002822, 9.997975 
2.1350837e+3, 2.1636856e+2, -687441.8, -991052.7, -98562.51, 0.029660676, -0.07039885, -658251.5, 161328.0, 0.0, 10.001981, 9.99796 
2.1350479e+3, 2.2636686e+2, -669620.94, -819734.25, -92056.055, 0.020601368, -0.07921137, -625901.25, 95694.67, 0.0, 10.00095, 9.998959 
2.1350117e+3, 2.3636551e+2, -744282.3, -813516.94, -82882.734, -0.01935159, -0.10860065, -689078.1, -65469.027, 0.0, 9.9998, 9.998883 
2.1349758e+3, 2.4636486e+2, -731579.5, -679944.5, -100703.305, -0.0077696117, -0.084935226, -601801.94, -76185.94, 0.0, 9.998883, 9.999568 
2.1349405e+3, 2.5636494e+2, -749603.7, -638478.5, -121328.39, 0.03674192, -0.032515123, -560595.25, -132978.67, 0.0, 9.998089, 9.999563 
2.1349047e+3, 2.663648e+2, -700733.0, -442837.66, -105538.5, 0.043631375, -0.049745504, -405154.34, -75536.805, 0.0, 9.997231, 10.000646 
2.134869e+3, 2.7636468e+2, -737399.7, -414262.72, -89210.875, 0.01775836, -0.12508318, -391269.7, -159651.95, 0.0, 9.996326, 10.000605 
2.1348338e+3, 2.863657e+2, -740216.0, -257886.95, -88413.53, 0.03607876, -0.124272674, -242191.05, -108583.98, 0.0, 9.995174, 10.001561 
2.134799e+3, 2.9636806e+2, -820682.6, -242717.63, -94376.32, 0.112305254, -0.03990811, -227697.2, -192113.92, 0.0, 9.993936, 10.00159 
2.1347634e+3, 3.0636835e+2, -801528.2, -86802.03, -62096.457, 0.054730777, -0.2223839, -81447.125, -81447.125, 0.0, 9.993207, 10.002679 
2.1347283e+3, 3.163729e+2, -866103.25, 12607.64, 23007.219, 0.08520256, -0.021679718, 13209.623, 13209.623, 0.0, 9.992205, 10.003841 
2.1453956e+3, 1.264333e+2, -1563912.8, -1960313.4, 24406.908, -0.27628654, 0.0062559824, -1562415.6, 138532.98, 0.47435632, 10.003519, 9.99662 
2.1453655e+3, 1.3642883e+2, -1021414.8, -1596008.3, 41841.715, 0.1095164, -0.086709976, -1018383.94, 584607.6, 0.35358465, 10.008065, 9.996282 
2.145333e+3, 1.464245e+2, -746153.9, -1497892.1, 87329.05, 0.14318454, -0.114872776, -736142.25, 768891.3, 0.22517361, 10.008782, 9.99593 
2.145299e+3, 1.5642095e+2, -734116.5, -1507343.5, 71888.63, 0.0030871495, -0.059675597, -727489.6, 679578.6, 0.11474786, 10.007296, 9.995895 
2.1452646e+3, 1.6641717e+2, -677943.56, -1378858.1, -16394.158, -0.015598115, -0.054441955, -677560.3, 631544.0, 0.04257159, 10.006263, 9.996596 
2.1452297e+3, 1.7641339e+2, -672500.94, -1344417.0, -14545.165, 0.028649943, -0.087188154, -672186.2, 538953.7, 0.009359108, 10.005503, 9.996526 
2.1451941e+3, 1.8641005e+2, -642336.8, -1213062.3, -15898.734, 0.010200562, -0.094985686, -641894.25, 471277.72, 0.00059791637, 10.00471, 9.997137 
2.1451579e+3, 1.9640717e+2, -668314.4, -1180352.0, -13355.381, -0.042125117, -0.092616625, -667966.25, 347233.88, 0.000000018480327, 10.00388, 9.997089 
2.1451221e+3, 2.0640463e+2, -651657.8, -1032430.3, -57327.992, -0.019567572, -0.086040035, -643213.94, 274011.1, 0.0, 10.002937, 9.997886 
2.145086e+3, 2.1640252e+2, -701331.6, -1006036.56, -68284.3, 0.04588622, -0.08286522, -686728.94, 132517.06, 0.0, 10.001923, 9.997884 
2.1450488e+3, 2.2640084e+2, -663377.25, -812025.0, -80447.48, 0.02890386, -0.08927135, -628175.6, 93086.91, 0.0, 10.000973, 9.999 
2.1450114e+3, 2.363996e+2, -705824.2, -791084.6, -88439.88, -0.035044815, -0.10792179, -650276.25, -27001.834, 0.0, 10.000049, 9.998916 
2.1449746e+3, 2.4639902e+2, -719362.56, -679245.2, -81537.39, -0.019642252, -0.07850625, -615335.44, -90054.44, 0.0, 9.998993, 9.999518 
2.1449384e+3, 2.5639904e+2, -783150.8, -654952.9, -61511.57, 0.04329664, -0.024889706, -630212.94, -202930.78, 0.0, 9.997863, 9.9995575 
2.1449019e+3, 2.6639882e+2, -741916.8, -436077.03, -40068.09, 0.045608304, -0.06756735, -430914.84, -101631.04, 0.0, 9.996836, 10.000882 
2.144865e+3, 2.763985e+2, -795356.1, -424148.34, -44186.2, 0.0114724785, -0.17934214, -418961.2, -187676.86, 0.0, 9.995851, 10.000767 
2.1448286e+3, 2.8639993e+2, -816653.9, -320183.4, -46054.934, 0.04933586, -0.13132465, -315947.28, -182677.31, 0.0, 9.99476, 10.001332 
2.144793e+3, 2.9640287e+2, -866912.0, -269348.4, -35137.145, 0.13506655, 0.02902497, -267289.4, -232047.44, 0.0, 9.993637, 10.001551 
2.1447563e+3, 3.0640164e+2, -797344.75, -15563.116, -20343.906, 0.06310563, -0.33684906, -15034.075, -15034.075, 0.0, 9.992937, 10.003298 
2.1447203e+3, 3.164085e+2, -893468.25, -75011.86, 27550.484, 0.061884377, 0.048957285, -74085.516, -74085.516, 0.0, 9.992355, 10.003158 
2.1554014e+3, 1.2646629e+2, -1500477.9, -1786476.4, 128963.3, -0.036843084, -0.092310265, -1450914.6, 249708.13, 0.49018133, 10.003953, 9.997817 
2.1553738e+3, 1.364637e+2, -978945.06, -1500034.9, 130561.74, 0.114703126, -0.11797012, -948062.44, 654583.94, 0.3680097, 10.008187, 9.997268 
2.1553408e+3, 1.4645976e+2, -780440.56, -1559389.5, 44728.887, 0.06751387, -0.122888416, -777880.56, 726804.8, 0.23657086, 10.0087805, 9.995496 
2.1553062e+3, 1.5645622e+2, -760803.7, -1558997.4, 27958.512, -0.016767746, -0.024661738, -759825.56, 646896.1, 0.12212353, 10.007301, 9.995535 
2.1552707e+3, 1.6645196e+2, -675081.7, -1369020.5, -41146.086, -0.014224387, -0.055764753, -672650.5, 636112.0, 0.04623678, 10.006268, 9.996663 
2.1552351e+3, 1.7644736e+2, -666267.94, -1331440.0, -39399.617, 0.025276544, -0.17722021, -663942.3, 546862.94, 0.01059228, 10.005507, 9.996615 
2.1551988e+3, 1.8644425e+2, -625547.25, -1179193.6, -44274.688, 0.0035567472, -0.17933697, -622029.0, 490805.4, 0.000776792, 10.004712, 9.997371 
2.1551618e+3, 1.9644226e+2, -656224.25, -1157041.0, -42384.734, -0.047616456, -0.11132742, -652662.5, 362190.78, 0.00000026979458, 10.003884, 9.99725 
2.1551247e+3, 2.0643967e+2, -669943.25, -1071651.0, -93746.266, -0.023907902, -0.10312825, -649142.8, 267736.47, 0.0, 10.00294, 9.997617 
2.1550876e+3, 2.164369e+2, -720179.5, -1044537.0, -102798.086, 0.03949851, -0.1387855, -690344.2, 128563.484, 0.0, 10.001918, 9.997623 
2.1550497e+3, 2.2643529e+2, -678115.25, -842272.44, -113249.34, 0.029098706, -0.11295574, -620328.5, 100596.12, 0.0, 10.000968, 9.998796 
2.1550114e+3, 2.3643464e+2, -711724.75, -805165.8, -122652.29, -0.022342367, -0.056226995, -627195.94, -4263.345, 0.0, 10.000053, 9.998818 
2.1549736e+3, 2.4643391e+2, -682713.25, -605325.44, -124934.54, -0.009406538, -0.06467519, -513229.97, 11709.253, 0.0, 9.999, 10.000024 
2.154936e+3, 2.5643337e+2, -751477.9, -591265.56, -103037.04, 0.035897534, -0.11677044, -540858.8, -113915.664, 0.0, 9.9978695, 9.999993 
2.1548986e+3, 2.664336e+2, -741156.5, -436699.9, -77751.695, 0.048843343, -0.13059445, -417993.2, -89053.42, 0.0, 9.996841, 10.000876 
2.1548611e+3, 2.764345e+2, -793383.5, -421920.4, -82783.47, 0.056985907, -0.12349771, -404306.66, -173376.81, 0.0, 9.995855, 10.000781 
2.1548243e+3, 2.8643587e+2, -819778.56, -326276.38, -89535.38, 0.124397755, -0.07723416, -310534.25, -177618.22, 0.0, 9.994757, 10.001293 
2.1547869e+3, 2.9643762e+2, -874256.94, -286757.94, -70342.06, 0.17126922, -0.032374978, -278453.2, -243553.55, 0.0, 9.993644, 10.00143 
2.154748e+3, 3.0643767e+2, -807499.6, -40908.367, -44397.664, -0.05555952, -0.25322208, -38345.61, -38345.61, 0.0, 9.9929495, 10.003121 
2.1547124e+3, 3.1644282e+2, -930033.56, -160878.67, -2296.8472, 0.046950847, -0.031970613, -160871.81, -160871.81, 0.0, 9.992391, 10.002555 
2.1653831e+3, 1.3650016e+2, -794241.3, -1447290.6, 178767.58, 0.11012078, -0.09249572, -748507.7, 853779.4, 0.38417703, 10.0107155, 9.996665 
2.1653487e+3, 1.4649539e+2, -763721.06, -1521827.4, 39834.34, -0.051223923, -0.16582745, -761633.75, 742701.25, 0.24910176, 10.008964, 9.995663 
2.1653135e+3, 1.5649228e+2, -724009.5, -1519620.5, 60010.953, -0.005062272, -0.038380157, -719508.5, 686858.9, 0.13020325, 10.007572, 9.995676 
2.1652773e+3, 1.6648827e+2, -623378.06, -1331351.6, 30776.697, 0.013854555, -0.054657623, -622042.7, 686363.0, 0.05032391, 10.00662, 9.996751 
2.1652405e+3, 1.764838e+2, -607101.9, -1296206.5, 34952.27, 0.0021956125, -0.17181544, -605333.56, 605113.56, 0.0120341545, 10.005901, 9.996666 
2.1652034e+3, 1.8648049e+2, -584967.3, -1173270.5, 10186.2705, -0.010329211, -0.18695669, -584791.0, 527687.06, 0.0010180899, 10.0050535, 9.997246 
2.165166e+3, 1.9647814e+2, -628791.8, -1155440.8, -15661.432, -0.01743867, -0.14062782, -628326.5, 386173.88, 0.0000016921487, 10.004124, 9.997144 
2.165128e+3, 2.0647553e+2, -624889.56, -1043783.6, -63374.098, -0.005790846, -0.13229334, -615511.7, 301014.7, 0.0, 10.003223, 9.997671 
2.1650894e+3, 2.1647292e+2, -659395.8, -1012565.1, -51123.324, 0.014708065, -0.1551938, -652144.3, 166408.66, 0.0, 10.002326, 9.997644 
2.1650505e+3, 2.2647129e+2, -662226.94, -858041.0, -56543.23, 0.013716923, -0.12270514, -647072.4, 73498.45, 0.0, 10.001183, 9.998583 
2.1650118e+3, 2.3647043e+2, -746295.9, -839980.8, -67243.69, 0.0030733293, -0.06253759, -711187.56, -88606.2, 0.0, 9.999897, 9.998653 
2.1649727e+3, 2.4646966e+2, -706247.1, -602878.06, -86368.74, 0.013895475, -0.07423615, -553910.44, -29322.17, 0.0, 9.998779, 10.000147 
2.1649338e+3, 2.564692e+2, -761384.5, -582554.6, -93347.1, 0.031407032, -0.13524899, -542707.4, -116116.14, 0.0, 9.997744, 10.000113 
2.1648952e+3, 2.664695e+2, -756511.44, -439706.44, -73280.914, 0.04542005, -0.14451969, -423576.88, -94990.09, 0.0, 9.99672, 10.000913 
2.1648572e+3, 2.7647057e+2, -810133.06, -422144.38, -76506.55, 0.080098204, -0.12247415, -407603.22, -177027.75, 0.0, 9.995711, 10.000847 
2.1648188e+3, 2.864721e+2, -814096.3, -298588.34, -74658.29, 0.14085872, -0.080233365, -287993.72, -155433.33, 0.0, 9.994693, 10.001512 
2.16478e+3, 2.964738e+2, -885203.8, -283620.34, -38903.625, 0.13763975, -0.055834174, -281114.94, -246571.47, 0.0, 9.993539, 10.001498 
2.1647404e+3, 3.0647394e+2, -957585.7, -169951.4, -9376.341, -0.08286811, -0.24074559, -169839.8, -169839.8, 0.0, 9.992173, 10.002605 
2.164704e+3, 3.1647697e+2, -1020574.56, -128536.88, 28405.95, 0.017499277, -0.19681565, -127633.24, -127633.24, 0.0, 9.991443, 10.003235 
2.1753936e+3, 1.36538e+2, -899022.25, -1646771.1, 128295.48, 0.09110231, -0.019206358, -877622.3, 724293.3, 0.40206143, 10.010726, 9.99472 
2.175356e+3, 1.4653137e+2, -746154.9, -1447526.6, 3759.221, -0.21221091, -0.23809162, -746134.7, 757847.94, 0.2627043, 10.008931, 9.996322 
2.1753216e+3, 1.5652905e+2, -696981.0, -1437901.1, 21246.732, 0.030709231, -0.09607654, -696372.25, 709634.0, 0.13900892, 10.00757, 9.996236 
2.1752845e+3, 1.6652596e+2, -618829.7, -1317292.5, 8213.733, 0.061278496, -0.049849503, -618733.1, 689302.44, 0.054905083, 10.006631, 9.996843 
2.1752459e+3, 1.7652243e+2, -605028.7, -1295251.8, 10485.046, -0.042500407, -0.07981591, -604869.44, 605198.56, 0.013742256, 10.005922, 9.996664 
2.175208e+3, 1.8651854e+2, -616695.4, -1242621.4, -22418.7, -0.03294423, -0.12589388, -615893.44, 496211.75, 0.0013461758, 10.005067, 9.996764 
2.1751706e+3, 1.9651473e+2, -654476.1, -1208749.8, -46818.848, 0.043781254, -0.17853576, -650549.25, 363593.06, 0.000006890047, 10.004122, 9.99678 
2.1751316e+3, 2.0651217e+2, -600132.8, -992470.4, -94641.55, 0.031371698, -0.17010646, -578496.2, 337671.03, 0.0, 10.0032215, 9.998026 
2.1750914e+3, 2.1651049e+2, -640766.3, -974420.25, -84103.57, -0.032702595, -0.13541119, -620765.44, 197417.94, 0.0, 10.002325, 9.997909 
2.1750516e+3, 2.2650862e+2, -678133.0, -891706.44, -103782.27, -0.019998644, -0.122513175, -636009.8, 84193.055, 0.0, 10.001182, 9.998353 
2.175012e+3, 2.365069e+2, -763121.44, -874972.7, -112674.11, 0.037956264, -0.12605521, -693257.06, -71035.11, 0.0, 9.999894, 9.998416 
2.174972e+3, 2.4650621e+2, -725309.75, -643599.2, -125578.23, 0.048512883, -0.10494201, -552397.5, -28168.389, 0.0, 9.998782, 9.999868 
2.1749315e+3, 2.5650632e+2, -775191.0, -614491.94, -132632.16, 0.024231499, -0.07712049, -539769.44, -113541.95, 0.0, 9.997755, 9.99989 
2.1748918e+3, 2.6650637e+2, -751091.94, -430186.56, -113211.47, 0.03172817, -0.10908439, -394267.4, -66041.21, 0.0, 9.996725, 10.0009775 
2.1748528e+3, 2.765066e+2, -801176.2, -406104.78, -113452.45, 0.077550545, -0.18026108, -375842.72, -145619.63, 0.0, 9.99572, 10.000955 
2.174813e+3, 2.8650835e+2, -778627.25, -229860.16, -120233.22, 0.088473625, -0.14352506, -204673.42, -72468.55, 0.0, 9.994709, 10.001979 
2.1747722e+3, 2.965113e+2, -864582.6, -246785.5, -92087.07, 0.009673359, -0.041825227, -233351.4, -199176.42, 0.0, 9.99356, 10.001743 
2.1747334e+3, 3.0651015e+2, -1027762.9, -309399.97, -59717.223, 0.016234986, -0.30945444, -304469.56, -304469.56, 0.0, 9.992147, 10.001658 
2.1746965e+3, 3.165138e+2, -847461.56, 225894.16, 31886.537, 0.13903905, -0.1328727, 226840.58, 226840.58, 0.0, 9.991444, 10.005679 
2.1854039e+3, 1.3657632e+2, -937827.9, -1724741.5, 119850.91, 0.036138736, -0.082143694, -919978.8, 681560.94, 0.42067465, 10.01082, 9.994123 
2.1853653e+3, 1.4657056e+2, -793591.6, -1451928.1, 79317.86, -0.14478841, -0.19767238, -784170.06, 719428.44, 0.27694672, 10.008548, 9.996472 
2.1853289e+3, 1.5656775e+2, -655974.75, -1402374.0, 81041.64, 0.0035186277, -0.11752854, -647276.9, 758349.56, 0.14849979, 10.007927, 9.996317 
2.185291e+3, 1.6656454e+2, -532273.06, -1291585.6, 62547.465, 0.030891519, -0.07365538, -527155.25, 780501.5, 0.060076248, 10.007377, 9.996667 
2.1852522e+3, 1.7656116e+2, -490693.9, -1256481.9, 45287.02, -0.028762233, -0.07151151, -488025.03, 721663.1, 0.015798118, 10.006807, 9.996504 
2.1852134e+3, 1.865572e+2, -530826.8, -1208081.8, 8392.212, -0.022009267, -0.11371862, -530722.8, 581003.25, 0.0017963198, 10.005692, 9.9967 
2.1851745e+3, 1.9655317e+2, -637349.44, -1209383.5, 14432.796, 0.02834015, -0.17903847, -636985.5, 376779.47, 0.000021116226, 10.00428, 9.996699 
2.1851346e+3, 2.0655048e+2, -603932.6, -1015795.4, -34785.836, 0.021304755, -0.16825116, -601015.3, 314776.16, 0.0, 10.003292, 9.99783 
2.1850938e+3, 2.1654871e+2, -620585.3, -981964.2, -68529.95, -0.020284398, -0.12228757, -608026.1, 209782.86, 0.0, 10.002541, 9.997752 
2.1850528e+3, 2.2654675e+2, -636319.1, -863073.94, -102568.03, -0.007994937, -0.11585288, -596808.8, 123020.06, 0.0, 10.001434, 9.998427 
2.1850117e+3, 2.3654492e+2, -727617.94, -853061.3, -88320.65, 0.03867082, -0.13702804, -682013.56, -60165.49, 0.0, 10.00012, 9.998457 
2.1849707e+3, 2.4654406e+2, -701228.56, -647216.56, -74629.84, 0.047723763, -0.12581955, -594856.75, -70999.945, 0.0, 9.999016, 9.999728 
2.1849293e+3, 2.56544e+2, -744387.1, -612807.9, -74207.37, 0.03026035, -0.10033393, -579425.9, -153568.58, 0.0, 9.998028, 9.999768 
2.1848884e+3, 2.6654422e+2, -745848.5, -423675.13, -59560.074, 0.034243025, -0.11127497, -413016.88, -85162.016, 0.0, 9.996747, 10.00101 
2.1848482e+3, 2.7654475e+2, -859487.25, -429002.2, -60516.793, 0.06493153, -0.15641043, -420656.66, -190807.1, 0.0, 9.995299, 10.0009985 
2.184807e+3, 2.8654623e+2, -824160.0, -232111.03, -72688.31, 0.060429994, -0.15363336, -223317.39, -91483.914, 0.0, 9.994315, 10.0021515 
2.1847656e+3, 2.965489e+2, -854883.4, -226689.75, -75660.73, -0.008837698, -0.09648812, -217705.53, -183899.64, 0.0, 9.993563, 10.00188 
2.184726e+3, 3.065488e+2, -1033748.25, -325827.38, -23149.168, 0.065290615, -0.25911894, -325071.2, -325071.2, 0.0, 9.992166, 10.001538 
2.184687e+3, 3.165531e+2, -1002872.1, 255488.02, 88470.99, 0.116835944, -0.007971632, 261677.67, 261677.67, 0.0, 9.989933, 10.006609 
2.1954136e+3, 1.3661513e+2, -950154.56, -1642900.6, 13854.504, -0.04750898, -0.25378716, -949877.6, 651281.7, 0.43878543, 10.010635, 9.994696 
2.1953762e+3, 1.4661252e+2, -829207.8, -1489402.6, 64097.977, 0.10996894, -0.059705045, -823042.2, 680144.9, 0.29142717, 10.008494, 9.996146 
2.1953359e+3, 1.5660809e+2, -681472.3, -1451830.3, 66030.16, -0.08563727, -0.10829163, -675853.56, 729377.06, 0.15870439, 10.007963, 9.995958 
2.1952973e+3, 1.666039e+2, -559985.94, -1349634.8, 45034.285, -0.07108148, -0.12474862, -557425.9, 749845.06, 0.065976724, 10.007408, 9.99625 
2.1952598e+3, 1.7659993e+2, -513667.44, -1301123.8, 22511.049, 0.03623812, -0.1388794, -513024.44, 696283.75, 0.018305574, 10.006804, 9.9962 
2.1952195e+3, 1.865964e+2, -508353.5, -1161934.1, -42810.55, 0.016242871, -0.14392275, -505561.28, 605780.25, 0.0024153984, 10.005694, 9.997018 
2.195178e+3, 1.9659334e+2, -623992.94, -1185609.6, -32484.807, -0.06387173, -0.14513336, -622120.2, 391250.13, 0.0000541461, 10.004293, 9.996857 
2.1951371e+3, 2.065903e+2, -653262.75, -1122062.5, -61342.617, -0.035152044, -0.1308649, -645369.0, 270032.1, 0.0, 10.0033045, 9.997096 
2.1950969e+3, 2.1658753e+2, -660735.4, -1064780.3, -96596.805, 0.04771155, -0.113691255, -638829.25, 178601.47, 0.0, 10.002536, 9.997188 
2.1950547e+3, 2.2658561e+2, -611411.56, -811058.8, -150197.58, 0.04583203, -0.10030752, -530890.9, 188558.81, 0.0, 10.0014305, 9.998788 
2.1950115e+3, 2.3658438e+2, -705819.25, -809343.6, -134192.06, -0.00056055293, -0.09626862, -613752.3, 7708.5664, 0.0, 10.000123, 9.998757 
2.1949692e+3, 2.4658312e+2, -700985.06, -649044.8, -112435.09, 0.008090896, -0.13913558, -559619.5, -36146.906, 0.0, 9.999023, 9.999714 
2.1949275e+3, 2.5658208e+2, -744444.25, -616282.0, -113863.03, 0.045244943, -0.20761478, -549706.44, -124224.49, 0.0, 9.998038, 9.999741 
2.1948853e+3, 2.6658294e+2, -745038.7, -424415.2, -115918.45, 0.049999442, -0.15141766, -386896.34, -59422.57, 0.0, 9.996755, 10.001003 
2.194843e+3, 2.7658495e+2, -859268.8, -430724.47, -111295.13, 0.037564237, -0.045677565, -403544.44, -174089.34, 0.0, 9.995306, 10.000986 
2.1948016e+3, 2.8658572e+2, -835514.5, -256739.95, -101797.836, 0.057396863, -0.11033309, -239357.28, -107910.27, 0.0, 9.994316, 10.001984 
2.19476e+3, 2.9658648e+2, -852309.5, -224796.1, -109288.22, 0.086768396, -0.22669531, -206307.13, -172869.06, 0.0, 9.993573, 10.001889 
2.194718e+3, 3.0659005e+2, -970669.6, -201419.95, -91357.2, 0.04344481, -0.069940224, -190719.1, -190719.1, 0.0, 9.99219, 10.002382 
2.194676e+3, 3.165914e+2, -1109040.4, 49412.504, -104655.55, 0.02153203, -0.17470817, 58791.24, 58791.24, 0.0, 9.989884, 10.005211 
2.2054213e+3, 1.3665831e+2, -1089042.3, -1628144.3, -11976.259, -0.22711839, -0.10390494, -1088776.3, 511961.0, 0.45632663, 10.008615, 9.99577 
2.205386e+3, 1.4665428e+2, -881874.4, -1571059.4, 128444.914, 0.262339, -0.06958818, -858714.1, 644063.06, 0.3063645, 10.008341, 9.995686 
2.205344e+3, 1.5664947e+2, -588743.56, -1445781.4, 124845.0, -0.115236744, -0.1083981, -570927.7, 833896.75, 0.16988331, 10.00903, 9.995503 
2.2053047e+3, 1.6664478e+2, -472327.5, -1344364.8, 77135.54, -0.12549323, -0.1326585, -465557.06, 841312.9, 0.07280123, 10.0082855, 9.995865 
2.2052667e+3, 1.7664029e+2, -536666.2, -1347854.9, 57923.63, 0.044110015, -0.16089478, -532551.0, 676361.8, 0.021377847, 10.006816, 9.995873 
2.2052254e+3, 1.8663678e+2, -480580.22, -1152190.4, -19004.826, 0.035461765, -0.14695053, -480042.84, 630903.44, 0.0032568092, 10.005909, 9.996979 
2.2051826e+3, 1.9663402e+2, -480255.2, -1118746.3, -35739.465, -0.062338293, -0.113341235, -478260.9, 534711.44, 0.00012156101, 10.005295, 9.996833 
2.2051406e+3, 2.0663084e+2, -541832.7, -1065248.9, -42659.58, -0.0441564, -0.11398913, -538378.6, 376625.44, 0.000000007456899, 10.00406, 9.997121 
2.2050992e+3, 2.1662766e+2, -664919.8, -1062677.8, -25124.074, 0.035810065, -0.13808705, -663339.2, 153697.42, 0.0, 10.002493, 9.997221 
2.205056e+3, 2.2662573e+2, -619529.75, -807748.1, -69763.414, 0.04309149, -0.13025159, -596491.7, 122563.6, 0.0, 10.001348, 9.998849 
2.2050117e+3, 2.3662469e+2, -657992.9, -780687.0, -75830.984, 0.011319996, -0.11225699, -621801.2, -736.9041, 0.0, 10.000432, 9.998803 
2.2049683e+3, 2.4662349e+2, -673486.44, -642042.44, -64118.207, 0.01991815, -0.14472471, -591746.8, -68671.22, 0.0, 9.999242, 9.999656 
2.2049253e+3, 2.5662246e+2, -771076.8, -634854.3, -71356.37, 0.05156138, -0.20682164, -604320.4, -179234.83, 0.0, 9.997883, 9.999688 
2.2048819e+3, 2.666233e+2, -781790.9, -440369.3, -81294.945, 0.05013826, -0.15154551, -422000.66, -94922.79, 0.0, 9.996498, 10.001016 
2.2048381e+3, 2.766253e+2, -893412.25, -444829.63, -74766.266, 0.033396054, -0.046828274, -432696.34, -203637.27, 0.0, 9.995065, 10.001003 
2.2047956e+3, 2.8662598e+2, -918479.25, -293460.13, -38819.277, 0.08111541, -0.121189706, -291058.34, -160006.58, 0.0, 9.993735, 10.00201 
2.2047536e+3, 2.966265e+2, -984857.75, -262847.9, -32545.791, 0.15617332, -0.2639425, -261383.81, -228338.78, 0.0, 9.992558, 10.002116 
2.204709e+3, 3.0663127e+2, -1011346.06, -133805.38, -26573.385, -0.0153202275, -0.04660082, -133001.42, -133001.42, 0.0, 9.991533, 10.003164 
2.2046663e+3, 3.1663233e+2, -1081793.4, -34757.94, -58900.867, 0.056955833, -0.23332325, -31454.898, -31454.898, 0.0, 9.990496, 10.004334 
2.215427e+3, 1.3670492e+2, -1083561.6, -1515649.0, -49307.234, -0.5024848, 0.3003904, -1078006.4, 522276.5, 0.47493154, 10.008202, 9.997254 
2.215395e+3, 1.4669575e+2, -912489.2, -1644774.3, 147090.17, 0.31735873, -0.20711787, -884048.56, 618321.06, 0.32285434, 10.0084505, 9.995141 
2.2153531e+3, 1.5669174e+2, -628276.5, -1519012.0, 134865.95, -0.0949624, -0.11501923, -608304.3, 796105.06, 0.18264243, 10.0090475, 9.994997 
2.2153127e+3, 1.6668698e+2, -502308.47, -1397234.5, 26338.84, -0.14144251, -0.10129184, -501533.97, 804921.8, 0.08082765, 10.008289, 9.995499 
2.2152726e+3, 1.7668203e+2, -559233.0, -1397873.5, 11941.701, -0.0038251933, -0.14167017, -559063.0, 649441.0, 0.025133342, 10.006845, 9.995517 
2.2152312e+3, 1.8667816e+2, -503662.97, -1204678.3, -38610.863, 0.035695307, -0.12578498, -501542.75, 608999.2, 0.004373772, 10.005932, 9.99661 
2.2151887e+3, 1.9667515e+2, -494118.3, -1147243.4, -60790.137, 0.023914212, -0.08188294, -488508.4, 524063.4, 0.00024315454, 10.005292, 9.99664 
2.2151451e+3, 2.06672e+2, -490665.5, -959149.1, -99816.78, -0.011927154, -0.115114436, -470284.8, 444316.34, 0.00000019235365, 10.004058, 9.997852 
2.2151005e+3, 2.1666898e+2, -624496.5, -979003.9, -77795.555, -0.058903325, -0.19534232, -608175.9, 208452.23, 0.0, 10.00249, 9.997798 
2.2150566e+3, 2.2666696e+2, -635953.25, -842732.94, -102666.414, -0.017119128, -0.20621477, -593638.44, 125008.71, 0.0, 10.001348, 9.9986105 
2.2150128e+3, 2.3666573e+2, -672485.4, -812195.1, -111175.17, 0.07102722, -0.1842339, -611040.5, 9619.087, 0.0, 10.000435, 9.998588 
2.214968e+3, 2.4666514e+2, -680930.1, -658599.8, -116002.914, 0.080829754, -0.14105384, -553226.0, -30559.314, 0.0, 9.999244, 9.999542 
2.214923e+3, 2.5666508e+2, -775319.56, -646585.5, -122740.82, 0.04477158, -0.09375239, -572358.06, -147689.31, 0.0, 9.997892, 9.999604 
2.2148779e+3, 2.6666516e+2, -778776.4, -436459.44, -136379.44, 0.03086198, -0.11303041, -388769.63, -62101.492, 0.0, 9.996504, 10.001042 
2.214833e+3, 2.7666557e+2, -888922.1, -438784.56, -129572.7, 0.04137312, -0.16916925, -404151.5, -175488.3, 0.0, 9.995075, 10.001042 
2.2147898e+3, 2.8666693e+2, -903882.3, -261874.23, -86128.95, 0.12989473, -0.18682976, -250520.36, -119872.06, 0.0, 9.99373, 10.002231 
2.2147468e+3, 2.9666904e+2, -953808.5, -194455.98, -70798.125, 0.2119812, -0.19755748, -187911.53, -155285.52, 0.0, 9.992538, 10.002597 
2.2146992e+3, 3.0667216e+2, -953724.56, -12965.807, -68506.95, -0.14465807, -0.22437102, -8003.2427, -8003.2427, 0.0, 9.99152, 10.004005 
2.2146569e+3, 3.166774e+2, -1101143.4, -94204.805, 42057.47, 0.08137014, -0.049982253, -92451.21, -92451.21, 0.0, 9.990574, 10.003891 
2.2254378e+3, 1.3673969e+2, -1364915.4, -1547267.1, 172707.69, -0.0142878, -0.42157426, -1260794.0, 339146.13, 0.49721748, 10.003766, 9.999278 
2.225403e+3, 1.467385e+2, -649061.25, -1467126.5, 106175.87, 0.1303862, -0.19351532, -635505.4, 866446.06, 0.34261844, 10.011453, 9.99496 
2.2253628e+3, 1.5673444e+2, -590062.0, -1495000.6, 113437.98, -0.05859357, -0.088557065, -576058.75, 827933.8, 0.1978727, 10.009534, 9.994922 
2.2253215e+3, 1.6672981e+2, -458069.4, -1325817.1, 37007.58, -0.08559033, -0.080882706, -456493.97, 849542.8, 0.09041267, 10.008502, 9.995886 
2.2252798e+3, 1.7672509e+2, -394795.56, -1285251.9, 71402.83, -0.034164753, -0.1339834, -389106.38, 818974.7, 0.029696034, 10.007908, 9.995778 
2.2252373e+3, 1.8672097e+2, -415151.1, -1198676.4, 39732.277, 0.010489062, -0.13506018, -413141.44, 696980.0, 0.0058139297, 10.006713, 9.996274 
2.2251941e+3, 1.9671743e+2, -523051.6, -1188613.0, 16726.314, 0.052310288, -0.10972772, -522631.5, 489525.7, 0.00043905727, 10.005215, 9.996392 
2.2251491e+3, 2.067143e+2, -491043.25, -943781.06, -55669.79, 0.015496389, -0.1354086, -484298.44, 429887.75, 0.0000011828935, 10.003992, 9.997988 
2.2251032e+3, 2.1671161e+2, -553045.6, -928413.3, -76579.875, -0.061527614, -0.19541118, -538023.5, 278186.22, 0.0, 10.002916, 9.997938 
2.225058e+3, 2.2670971e+2, -582715.8, -806395.75, -92886.84, -0.024501253, -0.20736757, -549173.06, 169054.52, 0.0, 10.001672, 9.998701 
2.225013e+3, 2.3670843e+2, -680894.0, -804826.5, -78885.35, 0.07501509, -0.19635664, -642547.2, -22307.092, 0.0, 10.000333, 9.998685 
2.224967e+3, 2.4670796e+2, -711112.06, -659623.3, -68981.51, 0.083344705, -0.15048435, -611738.75, -89492.92, 0.0, 9.998983, 9.999659 
2.2249207e+3, 2.567081e+2, -807184.0, -649200.94, -58754.563, 0.038468573, -0.09485716, -629745.75, -205499.7, 0.0, 9.997624, 9.999712 
2.2248742e+3, 2.6670805e+2, -786972.2, -443283.97, -64700.53, 0.021765115, -0.1310427, -431507.38, -105260.51, 0.0, 9.996464, 10.001012 
2.2248282e+3, 2.7670816e+2, -844701.6, -419501.25, -65572.44, 0.03784723, -0.2125662, -409618.66, -181373.73, 0.0, 9.99539, 10.001021 
2.2247835e+3, 2.8670993e+2, -855209.0, -236182.52, -33896.473, 0.12630795, -0.18747178, -234331.95, -104105.81, 0.0, 9.994057, 10.002248 
2.224739e+3, 2.9671264e+2, -959621.56, -201230.8, -36850.555, 0.19499873, -0.13880417, -199444.4, -167246.13, 0.0, 9.992517, 10.002559 
2.2246906e+3, 3.067146e+2, -1030273.8, -25584.92, -92354.91, -0.10915191, -0.28489575, -17165.848, -17165.848, 0.0, 9.990898, 10.004214 
2.2246473e+3, 3.1672022e+2, -1224489.3, -131604.0, 92546.3, 0.08868844, -0.10606199, -123822.516, -123822.516, 0.0, 9.98965, 10.004072 
2.2354104e+3, 1.467824e+2, -678153.6, -1461889.4, 60532.9, -0.26716012, -0.047908127, -673505.9, 828017.56, 0.3675406, 10.011448, 9.995033 
2.2353725e+3, 1.5677752e+2, -591549.06, -1454099.8, 66032.41, -0.010549708, -0.03334228, -586523.25, 817050.94, 0.21644728, 10.009557, 9.99518 
2.2353311e+3, 1.667732e+2, -398626.53, -1184860.0, 21173.46, 0.027043177, -0.069074936, -398056.72, 907556.75, 0.101874284, 10.008532, 9.996934 
2.2352874e+3, 1.7676933e+2, -343580.0, -1170913.1, 45786.06, -0.05481844, -0.13740215, -341053.84, 866591.6, 0.035163227, 10.007924, 9.996565 
2.2352435e+3, 1.86765e+2, -436146.28, -1244159.1, -15323.968, -0.04120344, -0.17215478, -435855.75, 673830.9, 0.0076064346, 10.006727, 9.995955 
2.2351989e+3, 1.9676068e+2, -544132.5, -1235801.5, -34253.59, 0.023911867, -0.19298823, -542440.25, 469289.72, 0.000723598, 10.005227, 9.996064 
2.2351533e+3, 2.0675763e+2, -520732.38, -1007398.25, -93753.75, 0.037159566, -0.17315856, -503295.9, 410464.72, 0.000004077819, 10.003998, 9.99755 
2.235107e+3, 2.1675546e+2, -573438.56, -970703.7, -115220.22, 0.021051375, -0.13896886, -542439.7, 273342.75, 0.0, 10.002913, 9.997651 
2.2350599e+3, 2.2675383e+2, -554741.56, -747939.5, -141402.84, 0.015638638, -0.13481116, -480091.8, 237705.78, 0.0, 10.001668, 9.999105 
2.2350127e+3, 2.3675272e+2, -652456.7, -746811.8, -128092.42, 0.01826821, -0.14995387, -563130.06, 56676.938, 0.0, 10.000334, 9.999084 
2.2349653e+3, 2.4675187e+2, -686824.75, -610351.6, -121025.414, 0.024232864, -0.1762381, -521666.25, 148.09363, 0.0, 9.998985, 9.999998 
2.234918e+3, 2.5675145e+2, -786244.0, -607758.1, -108326.31, 0.026449064, -0.21407628, -556648.3, -132829.8, 0.0, 9.99763, 9.999996 
2.2348706e+3, 2.6675186e+2, -793855.9, -458445.66, -105966.48, 0.02030735, -0.20581362, -427772.6, -101957.7, 0.0, 9.996465, 10.000909 
2.2348233e+3, 2.76753e+2, -848641.8, -431178.72, -107107.11, 0.022165524, -0.17197837, -405302.53, -177497.98, 0.0, 9.995402, 10.000937 
2.2347769e+3, 2.8675494e+2, -865626.94, -263034.06, -92444.98, 0.059917353, -0.12122362, -249170.83, -119385.125, 0.0, 9.994074, 10.002058 
2.2347303e+3, 2.9675725e+2, -1001461.25, -294694.13, -98245.09, 0.07385235, -0.08858878, -281291.6, -249529.06, 0.0, 9.99254, 10.001908 
2.2346838e+3, 3.0675864e+2, -1085642.5, -135126.19, -158785.95, 0.13622722, -0.2052132, -109302.23, -109302.23, 0.0, 9.990876, 10.003472 
2.2346365e+3, 3.1676167e+2, -1172991.4, -24512.893, 84992.5, 0.05312396, -0.264985, -18257.146, -18257.146, 0.0, 9.98963, 10.004827 
2.2454226e+3, 1.4682852e+2, -723319.4, -1453423.6, 158225.06, -0.16925855, -0.008511476, -690504.4, 810566.9, 0.39869907, 10.011301, 9.995222 
2.2453825e+3, 1.5682296e+2, -525729.1, -1402245.1, 202280.06, -0.008548449, -0.07566614, -481299.56, 921827.06, 0.23872688, 10.010331, 9.995246 
2.2453399e+3, 1.668184e+2, -320277.66, -1190651.1, 139753.9, 0.014112116, -0.10792731, -298388.2, 1006780.7, 0.1152971, 10.009483, 9.996443 
2.2452956e+3, 1.7681451e+2, -269876.28, -1169195.3, 67517.37, -0.040969204, -0.13011792, -264835.6, 942367.0, 0.041533686, 10.008659, 9.996224 
2.2452505e+3, 1.8681018e+2, -317563.75, -1152410.8, -21121.129, -0.032413032, -0.16675808, -317029.75, 792213.5, 0.0097339535, 10.007421, 9.996251 
2.2452043e+3, 1.968059e+2, -417241.53, -1148863.5, 2167.1877, 0.011665077, -0.21285921, -417235.13, 594049.94, 0.0010952787, 10.005995, 9.996288 
2.2451575e+3, 2.0680292e+2, -443043.56, -980308.9, -18978.455, 0.028681843, -0.18865235, -442374.0, 470941.53, 0.000010471632, 10.0045805, 9.997453 
2.2451098e+3, 2.1680084e+2, -539750.94, -960354.8, -19436.277, 0.031422455, -0.1333399, -538854.7, 276483.2, 0.0, 10.003174, 9.997596 
2.2450615e+3, 2.2679931e+2, -550217.5, -733540.7, -57177.688, 0.024050105, -0.12040614, -533846.06, 183506.28, 0.0, 10.001649, 9.999212 
2.2450127e+3, 2.3679832e+2, -683294.8, -747208.1, -64403.656, 0.013239083, -0.13466921, -643355.3, -23994.766, 0.0, 10.000064, 9.999209 
2.2449641e+3, 2.4679743e+2, -716318.8, -605469.06, -67641.1, 0.014500114, -0.18006867, -573445.44, -52077.65, 0.0, 9.998705, 10.000164 
2.2449152e+3, 2.5679684e+2, -802070.0, -597813.3, -67388.89, 0.020138076, -0.2455185, -577583.75, -154211.36, 0.0, 9.99745, 10.000149 
2.244867e+3, 2.6679754e+2, -805107.56, -453820.25, -51733.68, 0.027412228, -0.22225805, -446359.94, -120993.66, 0.0, 9.996351, 10.000992 
2.2448188e+3, 2.767991e+2, -856297.5, -426608.56, -41884.688, 0.04687205, -0.15552598, -422563.84, -195211.45, 0.0, 9.995322, 10.001002 
2.2447708e+3, 2.8680095e+2, -867806.56, -270179.47, -32858.67, 0.05622163, -0.10787678, -268378.28, -139043.81, 0.0, 9.994092, 10.001996 
2.2447221e+3, 2.9680306e+2, -993150.2, -307937.22, -35293.582, 0.026792256, -0.086683035, -306124.16, -274810.6, 0.0, 9.992681, 10.001745 
2.2446758e+3, 3.06804e+2, -1103754.8, -182586.88, -49156.85, 0.23633015, -0.21486883, -179971.11, -179971.11, 0.0, 9.990925, 10.00312 
2.2446252e+3, 3.16807e+2, -1278096.3, -50156.945, 188890.95, 0.016971286, -0.25757504, -21757.133, -21757.133, 0.0, 9.988795, 10.005057 
2.255439e+3, 1.4687656e+2, -780664.25, -1440843.4, 123851.76, 0.32556084, -0.058245447, -758194.06, 742404.3, 0.43577027, 10.011029, 9.995539 
2.2553924e+3, 1.568705e+2, -552842.25, -1412441.4, 168413.56, -0.05753562, -0.20294428, -521024.22, 881629.56, 0.26446366, 10.010412, 9.995122 
2.2553481e+3, 1.668652e+2, -438096.0, -1442909.5, 112905.516, -0.10914007, -0.19046792, -425565.66, 879139.94, 0.13051537, 10.009585, 9.994574 
2.2553048e+3, 1.7686051e+2, -364822.16, -1364643.4, 37309.52, 0.0023100993, -0.11217225, -363431.84, 843321.44, 0.04867399, 10.008677, 9.994866 
2.2552583e+3, 1.868564e+2, -263329.47, -1032740.3, -70170.13, 0.027043384, -0.12118473, -256982.31, 851809.8, 0.012108717, 10.007407, 9.997087 
2.2552101e+3, 1.9685286e+2, -368720.6, -1045172.9, -47897.684, 0.008108131, -0.17520319, -365345.94, 645478.06, 0.0015271715, 10.005982, 9.997008 
2.2551614e+3, 2.0684995e+2, -429608.34, -951383.7, -69307.37, -0.011849141, -0.18496521, -420559.2, 492293.53, 0.000021315105, 10.004573, 9.997657 
2.2551122e+3, 2.168476e+2, -530783.5, -940669.7, -70682.02, -0.03136219, -0.17840791, -518937.22, 295940.38, 0.0, 10.003165, 9.997736 
2.2550628e+3, 2.2684604e+2, -565078.75, -762876.5, -115352.35, 0.00013367528, -0.16380043, -512033.03, 204860.16, 0.0, 10.00164, 9.999018 
2.2550131e+3, 2.3684509e+2, -694069.6, -770489.94, -120793.86, 0.055952944, -0.15053372, -605586.56, 13315.341, 0.0, 10.000064, 9.999052 
2.2549629e+3, 2.468445e+2, -718308.75, -610005.4, -115690.07, 0.051497377, -0.16020401, -536420.6, -15513.512, 0.0, 9.998704, 10.000134 
2.2549126e+3, 2.568443e+2, -799923.94, -595926.5, -113628.23, 0.014263099, -0.18532592, -545232.4, -122324.016, 0.0, 9.997458, 10.000159 
2.2548632e+3, 2.6684493e+2, -785848.6, -415970.5, -92286.12, 0.03981394, -0.18024942, -394223.38, -69321.4, 0.0, 9.996356, 10.001252 
2.2548147e+3, 2.7684626e+2, -842504.6, -399625.28, -82564.66, 0.10694398, -0.16633676, -384733.72, -157843.98, 0.0, 9.995325, 10.001188 
2.2547653e+3, 2.8684786e+2, -865170.94, -266840.06, -87419.31, 0.119240165, -0.14947419, -254329.23, -125455.67, 0.0, 9.994097, 10.002019 
2.2547151e+3, 2.9684997e+2, -964713.2, -255052.3, -96052.734, 0.063478746, -0.13363752, -242281.36, -211428.88, 0.0, 9.9927025, 10.002101 
2.2546658e+3, 3.0685058e+2, -1081618.0, -138796.78, -115873.75, 0.15334979, -0.34302986, -124764.62, -124764.62, 0.0, 9.990932, 10.003418 
2.2546135e+3, 3.1685612e+2, -1286125.9, -53447.785, 39011.46, -0.0063785682, -0.12201646, -52214.4, -52214.4, 0.0, 9.988736, 10.005062 
2.26544e+3, 1.4692365e+2, -1058562.9, -1572251.3, 151509.56, -0.4858219, -0.116312996, -1017205.7, 482931.56, 0.47806892, 10.007889, 9.996041 
2.2654036e+3, 1.569184e+2, -310562.9, -1244332.3, 167723.86, -0.095765114, -0.22539401, -281350.22, 1120831.6, 0.29331914, 10.01294, 9.99543 
2.26536e+3, 1.6691312e+2, -119171.74, -1280255.8, 72536.55, 0.0038803506, -0.210138, -114657.7, 1189575.8, 0.14723669, 10.012402, 9.994349 
2.2653133e+3, 1.7690805e+2, -289936.6, -1338726.1, 102516.18, -0.027832814, -0.14500536, -280009.88, 926276.06, 0.056305453, 10.009343, 9.994723 
2.2652651e+3, 1.8690406e+2, -258016.06, -1004704.6, 25333.334, -0.016655033, -0.1482041, -257157.55, 851166.5, 0.014561382, 10.007356, 9.997306 
2.2652161e+3, 1.9690087e+2, -365074.1, -1018011.2, 3554.6445, 0.011656932, -0.18559052, -365054.72, 645297.6, 0.0019659922, 10.005905, 9.99723 
2.265166e+3, 2.0689827e+2, -438826.53, -935430.6, -32643.287, -0.0049490137, -0.18473125, -436690.0, 475688.44, 0.000034620527, 10.004425, 9.997835 
2.2651152e+3, 2.1689615e+2, -551414.0, -930944.6, -36777.824, -0.040103108, -0.17148425, -547882.94, 266518.38, 0.0, 10.002943, 9.997908 
2.2650643e+3, 2.268946e+2, -555803.2, -746113.2, -63955.95, -0.0024187209, -0.16771717, -536307.25, 180109.56, 0.0, 10.001655, 9.999124 
2.2650135e+3, 2.3689358e+2, -630469.3, -728162.25, -46653.22, 0.0718054, -0.17131594, -611769.5, 6656.817, 0.0, 10.000454, 9.999153 
2.2649619e+3, 2.4689317e+2, -644272.8, -564764.9, -24155.166, 0.06295481, -0.16962849, -558001.7, -37571.96, 0.0, 9.999174, 10.000217 
2.2649102e+3, 2.5689328e+2, -739003.4, -557701.0, -15426.017, 0.010324288, -0.16945334, -556397.9, -133970.03, 0.0, 9.997842, 10.000235 
2.2648597e+3, 2.668939e+2, -793129.2, -412485.7, -3711.4707, 0.03828928, -0.17419939, -412449.5, -88027.66, 0.0, 9.99628, 10.00131 
2.2648096e+3, 2.7689496e+2, -948387.1, -442494.47, -10498.608, 0.12126808, -0.18929185, -442276.7, -215864.89, 0.0, 9.994568, 10.001257 
2.2647588e+3, 2.8689665e+2, -999782.56, -314399.38, -10367.7295, 0.12917086, -0.17595008, -314242.6, -185847.75, 0.0, 9.993104, 10.00217 
2.2647072e+3, 2.9689905e+2, -1075398.6, -275141.44, -15652.735, 0.052814603, -0.14400303, -274835.38, -244464.8, 0.0, 9.991804, 10.002394 
2.264656e+3, 3.0689985e+2, -1123105.3, -131560.42, -54309.996, 0.1320575, -0.3651749, -128594.56, -128594.56, 0.0, 9.990538, 10.003653 
2.2646031e+3, 3.1690627e+2, -1186201.6, -294.62192, 65320.547, 0.041580588, -0.05437434, 3292.4275, 3292.4275, 0.0, 9.989409, 10.005097 
2.2754163e+3, 1.5696673e+2, -308533.0, -1181679.4, 254906.94, -0.11734077, -0.155482, -239563.22, 1162146.4, 0.32485133, 10.013155, 9.99604 
2.2753754e+3, 1.6696203e+2, -82440.47, -1140180.8, -20327.266, 0.30955452, -0.17445442, -82049.97, 1221703.3, 0.16486363, 10.012328, 9.995539 
2.2753215e+3, 1.7695695e+2, -236250.19, -1207290.8, 7992.1475, -0.13253376, -0.22662118, -236184.42, 969618.3, 0.063931644, 10.009359, 9.995615 
2.275271e+3, 1.8695298e+2, -281051.6, -1055872.3, -24888.49, -0.15483986, -0.24220642, -280252.94, 827588.25, 0.016848642, 10.007383, 9.996938 
2.275222e+3, 1.9694984e+2, -384196.97, -1058301.8, -46902.38, 0.019531576, -0.23989558, -380949.28, 628922.06, 0.0023448921, 10.005905, 9.996955 
2.2751707e+3, 2.0694774e+2, -429285.25, -914265.7, -85549.93, 0.044063747, -0.18599315, -414636.8, 497257.1, 0.00004577368, 10.0044155, 9.997987 
2.2751184e+3, 2.1694633e+2, -538967.8, -903310.0, -86585.49, -0.0024364407, -0.11605459, -519437.75, 294472.88, 0.0, 10.002932, 9.998104 
2.275066e+3, 2.2694488e+2, -530301.25, -691762.1, -106753.12, 0.011589862, -0.13412681, -477189.88, 238734.78, 0.0, 10.001646, 9.999502 
2.2750135e+3, 2.3694363e+2, -605964.06, -677926.4, -91046.1, 0.055373117, -0.19807176, -544047.1, 73887.81, 0.0, 10.000453, 9.999499 
2.2749607e+3, 2.4694332e+2, -630659.06, -538265.8, -74651.84, 0.045371898, -0.21035688, -496672.75, 23263.807, 0.0, 9.999178, 10.000399 
2.2749077e+3, 2.5694373e+2, -728485.6, -539569.44, -67251.16, 0.0041543236, -0.20144142, -518074.75, -96142.984, 0.0, 9.997854, 10.000356 
2.2748555e+3, 2.669443e+2, -804911.6, -438032.9, -69805.56, 0.020473765, -0.2045027, -425199.97, -101273.51, 0.0, 9.996282, 10.001136 
2.2748037e+3, 2.7694517e+2, -952233.44, -451341.8, -73953.055, 0.08051644, -0.21937956, -440651.34, -214732.72, 0.0, 9.994568, 10.001199 
2.2747512e+3, 2.869472e+2, -981180.94, -273249.8, -60881.473, 0.073435925, -0.18945749, -268052.22, -140153.58, 0.0, 9.993089, 10.002461 
2.274698e+3, 2.9695013e+2, -1066574.0, -249684.78, -62213.44, -0.022030808, -0.13334256, -244973.84, -215104.66, 0.0, 9.991769, 10.002587 
2.2746469e+3, 3.069523e+2, -1121929.3, -126687.67, -103346.74, 0.19338128, -0.22202212, -116069.34, -116069.34, 0.0, 9.990523, 10.003696 
2.2745936e+3, 3.1695604e+2, -1199708.5, -64850.51, 36391.492, 0.14174879, -0.19206108, -63684.742, -63684.742, 0.0, 9.989543, 10.0046015 
2.2854328e+3, 1.570185e+2, -51036.152, -1168967.8, 289882.2, 0.015468647, -0.18220846, 19660.223, 1420860.6, 0.3571836, 10.017326, 9.994273 
2.2853857e+3, 1.6701345e+2, -200764.38, -1171932.8, 77738.35, 0.15135945, -0.169179, -194581.1, 1108668.6, 0.18189482, 10.011458, 9.995715 
2.2853315e+3, 1.7700845e+2, -82941.42, -1113430.1, 54204.695, -0.104175664, -0.23122708, -80098.05, 1125199.5, 0.07074515, 10.010475, 9.995768 
2.2852793e+3, 1.8700457e+2, -105019.78, -970189.3, 22803.33, -0.105616905, -0.2423791, -104419.164, 1002916.1, 0.018691452, 10.008633, 9.996935 
2.285228e+3, 1.9700153e+2, -309213.75, -1016382.9, 27332.26, 0.013888887, -0.22797501, -308158.94, 701206.2, 0.002606262, 10.006404, 9.997 
2.2851749e+3, 2.0699944e+2, -390895.3, -868465.06, 12748.532, 0.030555634, -0.18619612, -390555.25, 520831.84, 0.000050971652, 10.004565, 9.998227 
2.2851211e+3, 2.1699804e+2, -525027.2, -871605.94, 17347.756, -0.00044144382, -0.13775323, -524161.03, 289241.9, 0.0, 10.002923, 9.998325 
2.2850671e+3, 2.2699676e+2, -559882.56, -691185.3, -4829.0166, 0.008885541, -0.15194064, -559705.2, 155709.84, 0.0, 10.00138, 9.999634 
2.2850135e+3, 2.3699579e+2, -679942.8, -699590.7, -6816.2217, 0.03886763, -0.2013063, -677809.7, -60386.625, 0.0, 9.999888, 9.999621 
2.2849594e+3, 2.4699555e+2, -711037.75, -569360.2, 1710.7078, 0.04016596, -0.21344605, -569339.5, -49915.29, 0.0, 9.998596, 10.000464 
2.2849055e+3, 2.5699592e+2, -792445.44, -562254.25, -2087.7463, 0.02475865, -0.21096392, -562235.3, -140815.53, 0.0, 9.997383, 10.000425 
2.2848518e+3, 2.669966e+2, -830336.56, -446235.22, -3998.5396, 0.036198758, -0.20761354, -446193.63, -122780.195, 0.0, 9.996092, 10.001169 
2.284798e+3, 2.7699766e+2, -920088.1, -427776.34, 6353.1724, 0.07473562, -0.20826583, -427694.38, -202290.61, 0.0, 9.994755, 10.001269 
2.2847441e+3, 2.869995e+2, -925664.3, -228187.1, 21955.34, 0.059108187, -0.20766449, -227496.66, -100111.664, 0.0, 9.993393, 10.002623 
2.2846897e+3, 2.9700196e+2, -1034402.44, -228209.0, 8384.225, -0.029632844, -0.20994708, -228121.81, -198762.53, 0.0, 9.991969, 10.002637 
2.2846372e+3, 3.0700555e+2, -1091946.1, -113428.35, -34628.406, 0.16904901, -0.15309691, -112204.43, -112204.43, 0.0, 9.990741, 10.003678 
2.2845827e+3, 3.170077e+2, -1242179.6, -121150.76, 80983.82, 0.138433, -0.2923728, -115330.65, -115330.65, 0.0, 9.989413, 10.004273 
2.2954522e+3, 1.5707308e+2, -282824.72, -1593842.4, -30091.898, 0.23763874, -0.29324293, -282134.38, 1118526.0, 0.3854972, 10.01719, 9.990544 
2.2953914e+3, 1.6706707e+2, -244034.03, -1250910.5, 51924.695, -0.4040042, -0.19044945, -241363.36, 1061362.9, 0.19567373, 10.011589, 9.994998 
2.2953436e+3, 1.7706223e+2, -123569.914, -1183167.9, 17659.258, 0.042033736, -0.16437109, -123275.69, 1081497.4, 0.075734496, 10.010458, 9.995263 
2.2952901e+3, 1.8705852e+2, -91863.914, -929541.94, -54724.246, 0.10371686, -0.15648244, -88303.99, 1018504.9, 0.019850215, 10.00858, 9.997247 
2.2952339e+3, 1.9705564e+2, -291657.06, -972495.06, -46592.176, -0.012296484, -0.15900488, -288483.38, 720353.1, 0.0027223532, 10.00637, 9.997321 
2.2951785e+3, 2.0705314e+2, -371357.06, -825595.1, -45567.445, -0.044524245, -0.18866119, -366831.03, 544029.3, 0.000049679173, 10.004552, 9.99853 
2.2951235e+3, 2.170511e+2, -510445.2, -840652.3, -39846.65, -0.036506176, -0.2343194, -505704.88, 307175.1, 0.0, 10.002915, 9.998544 
2.2950684e+3, 2.2705014e+2, -569134.06, -710378.56, -59542.53, -0.013312648, -0.21899483, -547383.06, 167506.4, 0.0, 10.001376, 9.999505 
2.2950129e+3, 2.3704989e+2, -687364.8, -716070.8, -59656.9, 0.017469844, -0.18137823, -640358.56, -23466.586, 0.0, 9.999888, 9.99951 
2.294958e+3, 2.4704975e+2, -715217.6, -578878.8, -44756.227, 0.04480169, -0.17804219, -565499.5, -46605.93, 0.0, 9.998596, 10.000401 
2.2949031e+3, 2.5704986e+2, -790632.7, -560435.8, -49032.78, 0.066594, -0.19586122, -550426.8, -129534.35, 0.0, 9.997387, 10.000438 
2.2948481e+3, 2.6705077e+2, -812217.7, -410238.94, -54855.39, 0.082593046, -0.18374664, -402887.63, -80004.41, 0.0, 9.996096, 10.001417 
2.294793e+3, 2.770523e+2, -903842.94, -398506.0, -42460.926, 0.1035477, -0.15916748, -394963.06, -170095.39, 0.0, 9.99477, 10.001465 
2.2947378e+3, 2.8705353e+2, -925200.94, -229783.98, -32560.717, 0.08877299, -0.22850192, -228262.75, -101409.086, 0.0, 9.993401, 10.002609 
2.2946821e+3, 2.9705468e+2, -1043532.5, -249200.56, -45055.73, 0.026392119, -0.36110893, -246653.11, -217813.55, 0.0, 9.991973, 10.002493 
2.2946267e+3, 3.0705896e+2, -1095751.6, -128914.75, -72887.516, 0.04418006, -0.215487, -123450.81, -123450.81, 0.0, 9.990767, 10.003563 
2.2945715e+3, 3.1706297e+2, -1247385.0, -125208.8, -49452.957, 0.10193496, -0.16240951, -123033.68, -123033.68, 0.0, 9.989395, 10.004249 
2.3054677e+3, 1.5712985e+2, -434409.22, -1765668.4, -61738.918, 0.14437866, -0.27567175, -431552.13, 968551.8, 0.40293097, 10.016133, 9.989875 
2.3054057e+3, 1.6712329e+2, 167461.23, -1079504.1, 81461.016, -0.32069573, -0.17898698, 172760.36, 1474936.1, 0.20325544, 10.015401, 9.994642 
2.3053536e+3, 1.7711811e+2, -141139.92, -1216095.1, 81415.086, 0.027379844, -0.15295075, -135008.67, 1069217.3, 0.07801545, 10.010464, 9.995024 
2.3052976e+3, 1.8711431e+2, -219307.84, -979593.06, 45653.902, 0.08122884, -0.14651597, -216576.2, 889686.0, 0.020182844, 10.007642, 9.997346 
2.30524e+3, 1.9711149e+2, -364971.5, -996698.0, 42751.227, -0.0073776813, -0.15258893, -362091.5, 646197.7, 0.0026968527, 10.005819, 9.9974165 
2.3051828e+3, 2.071089e+2, -397188.53, -834794.0, 44471.785, -0.037585072, -0.19475663, -392714.78, 517598.56, 0.000044145083, 10.004364, 9.998556 
2.3051265e+3, 2.1710669e+2, -485553.9, -826722.9, 30333.324, -0.03549229, -0.2569416, -482877.97, 329455.75, 0.0, 10.003083, 9.998555 
2.3050699e+3, 2.2710574e+2, -518066.28, -694080.7, 10068.111, -0.008007943, -0.23355445, -517492.25, 196851.22, 0.0, 10.001766, 9.999427 
2.305013e+3, 2.3710564e+2, -612647.06, -684195.3, 13171.224, 0.03232956, -0.17452735, -610299.4, 6046.4873, 0.0, 10.0004225, 9.999471 
2.3049566e+3, 2.4710554e+2, -681418.9, -551498.6, 36303.305, 0.058961336, -0.1663831, -542042.75, -23695.826, 0.0, 9.998782, 10.000498 
2.3049004e+3, 2.571057e+2, -839311.5, -573896.56, 44115.08, 0.07666868, -0.18721794, -566756.2, -146411.14, 0.0, 9.997012, 10.000525 
2.3048438e+3, 2.671065e+2, -861318.25, -428210.38, 40203.637, 0.08197498, -0.1905093, -424510.06, -102173.49, 0.0, 9.995736, 10.001466 
2.3047876e+3, 2.771079e+2, -916266.0, -399214.1, 35193.676, 0.09502554, -0.18637599, -396829.6, -172507.28, 0.0, 9.994666, 10.001509 
2.3047312e+3, 2.8710926e+2, -934496.25, -236272.42, 32322.656, 0.100282125, -0.23722371, -234779.31, -108472.66, 0.0, 9.993348, 10.002589 
2.3046744e+3, 2.9711074e+2, -1059658.1, -260613.98, 18072.111, 0.061234623, -0.33437788, -260205.45, -231915.73, 0.0, 9.991879, 10.002459 
2.304617e+3, 3.0711395e+2, -1149605.5, -183161.5, 6031.0684, 0.020271389, -0.28066006, -183123.86, -183123.86, 0.0, 9.990512, 10.003318 
2.3045616e+3, 3.171181e+2, -1210085.0, -52865.527, -7201.464, 0.16475488, -0.1927498, -52820.71, -52820.71, 0.0, 9.989427, 10.004726 
2.3154804e+3, 1.5718852e+2, -360600.84, -1505282.8, 79580.86, -0.17199717, -0.14953908, -355094.7, 1044438.1, 0.40415537, 10.016138, 9.991672 
2.315427e+3, 1.6718177e+2, 137973.72, -1097533.9, -67277.81, 0.28438795, -0.14017035, 141626.44, 1443228.8, 0.20274532, 10.015155, 9.994604 
2.3153621e+3, 1.7717573e+2, -149488.7, -1225525.6, -63749.8, -0.14220542, -0.19536422, -145725.02, 1057934.6, 0.07714021, 10.010411, 9.994985 
2.3153028e+3, 1.8717171e+2, -224172.06, -994838.94, -18476.979, -0.14852177, -0.20640375, -223729.33, 881968.75, 0.019669674, 10.007656, 9.997234 
2.3152459e+3, 1.9716886e+2, -372183.16, -1016305.8, -17767.125, 0.022970928, -0.20135958, -371693.44, 636031.94, 0.0025548423, 10.005835, 9.997277 
2.315188e+3, 2.0716651e+2, -412903.16, -868589.5, -1111.3335, 0.041293252, -0.20112272, -412900.47, 496847.5, 0.000037237383, 10.004365, 9.998324 
2.3151296e+3, 2.171646e+2, -501141.88, -855374.25, -14716.936, -0.005284703, -0.20947157, -500531.5, 311234.56, 0.0, 10.003062, 9.998371 
2.3150715e+3, 2.2716343e+2, -523203.5, -702694.06, -37979.188, 0.020716008, -0.19872452, -515498.13, 198280.48, 0.0, 10.001754, 9.999376 
2.3150137e+3, 2.3716284e+2, -611244.0, -681936.3, -39186.09, 0.07837254, -0.18326762, -593818.0, 21968.035, 0.0, 10.000421, 9.999489 
2.3149556e+3, 2.4716288e+2, -663931.8, -516403.4, -31717.469, 0.079088464, -0.1798035, -509873.44, 7911.679, 0.0, 9.998783, 10.00074 
2.314897e+3, 2.571634e+2, -827949.75, -552680.56, -17288.178, 0.048225895, -0.18644771, -551599.0, -131820.78, 0.0, 9.997018, 10.00067 
2.3148389e+3, 2.6716375e+2, -873006.56, -453179.84, -796.364, 0.027956842, -0.22930685, -453178.34, -131404.48, 0.0, 9.995735, 10.001297 
2.3147815e+3, 2.771643e+2, -924025.6, -416789.06, -6870.263, 0.03442561, -0.29232803, -416696.03, -192928.02, 0.0, 9.994667, 10.0013895 
2.3147242e+3, 2.871667e+2, -936217.7, -240733.48, -22261.021, 0.08951514, -0.23314315, -240021.69, -114277.83, 0.0, 9.993349, 10.002561 
2.3146662e+3, 2.9717022e+2, -1050945.0, -246979.55, -34861.887, 0.08875147, -0.12374299, -245470.69, -217761.58, 0.0, 9.991894, 10.002548 
2.314608e+3, 3.0717084e+2, -1171837.1, -230147.88, -42132.36, 0.07950151, -0.3244874, -228266.58, -228266.58, 0.0, 9.990508, 10.003 
2.3145513e+3, 3.1717432e+2, -1100236.4, 171164.86, 28035.965, 0.21186294, -0.27561107, 171782.8, 171782.8, 0.0, 9.989445, 10.006255 
2.3254964e+3, 1.5724704e+2, -232702.63, -1325024.9, 16556.55, -0.23211522, -0.15221463, -232451.72, 1166509.0, 0.38814124, 10.016653, 9.992948 
2.3254398e+3, 1.6724119e+2, -300983.4, -1262939.1, -82524.49, 0.2879876, -0.13493095, -293955.13, 1007063.75, 0.19388555, 10.010998, 9.995173 
2.3253722e+3, 1.7723542e+2, -163761.16, -1191617.4, -38705.133, -0.12974906, -0.2144002, -162305.73, 1040766.94, 0.07316381, 10.010087, 9.995374 
2.3253109e+3, 1.8723132e+2, -109181.27, -976462.3, 41155.73, -0.14287747, -0.22648846, -107232.66, 997879.7, 0.018396923, 10.00862, 9.996895 
2.325252e+3, 1.9722821e+2, -235583.55, -978386.7, 26988.703, 0.023678096, -0.2135338, -234604.23, 772538.94, 0.0023275686, 10.006901, 9.997022 
2.3251924e+3, 2.0722583e+2, -344400.34, -837421.25, 50799.035, 0.051598936, -0.20288329, -339220.6, 569945.7, 0.000030593208, 10.004848, 9.998304 
2.3251326e+3, 2.1722405e+2, -559313.94, -883905.4, 53583.82, 0.019170769, -0.19754112, -550697.06, 260486.5, 0.0, 10.002669, 9.998363 
2.325073e+3, 2.2722279e+2, -625931.0, -753588.7, 50776.43, 0.040429633, -0.19269511, -608197.8, 104999.09, 0.0, 10.001057, 9.99936 
2.3250137e+3, 2.37222e+2, -717068.8, -734320.7, 51458.16, 0.087598406, -0.19233215, -673518.6, -58312.555, 0.0, 9.999704, 9.999472 
2.3249538e+3, 2.4722193e+2, -692993.5, -536669.5, 44267.234, 0.07766143, -0.19137971, -525004.5, -7798.4653, 0.0, 9.998615, 10.00068 
2.324894e+3, 2.5722244e+2, -744687.6, -516743.03, 36848.855, 0.03810917, -0.19313994, -510934.2, -91734.62, 0.0, 9.997612, 10.000628 
2.3248348e+3, 2.6722288e+2, -795033.5, -413426.72, 60001.12, 0.025044959, -0.22757791, -404214.94, -83020.3, 0.0, 9.996264, 10.001313 
2.324776e+3, 2.7722344e+2, -914583.44, -413658.6, 63819.023, 0.046140872, -0.28565714, -405655.75, -182467.33, 0.0, 9.994741, 10.001374 
2.3247175e+3, 2.8722578e+2, -934085.44, -252947.47, 45899.223, 0.10892034, -0.2254841, -249868.4, -124702.84, 0.0, 9.993424, 10.002439 
2.3246585e+3, 2.9722938e+2, -1004030.2, -224722.73, 24220.209, 0.11607031, -0.095616914, -223970.72, -196840.13, 0.0, 9.992224, 10.002539 
2.3245981e+3, 3.0723011e+2, -1112750.9, -186146.36, 25504.57, 0.07115168, -0.29371223, -185444.89, -185444.89, 0.0, 9.99085, 10.003135 
2.3245393e+3, 3.1723338e+2, -1140512.1, 176086.9, 113647.77, 0.11538122, -0.26416418, 185824.88, 185824.88, 0.0, 9.989074, 10.006463 
2.3355134e+3, 1.5730542e+2, -166007.39, -1260333.8, -291935.44, -0.14802776, -0.26604107, -92998.15, 1305389.9, 0.35839865, 10.016374, 9.993741 
2.3354456e+3, 1.673014e+2, -218458.72, -1133720.9, -105060.29, -0.2128103, -0.15898308, -206554.0, 1093872.8, 0.17811838, 10.011011, 9.99624 
2.335384e+3, 1.7729697e+2, -114174.836, -1096946.1, -70966.36, 0.04213017, -0.21109368, -109076.766, 1093390.9, 0.0666288, 10.010053, 9.996088 
2.3353213e+3, 1.8729293e+2, -152246.75, -1058566.0, -18840.176, 0.061908975, -0.20971918, -151855.27, 952652.25, 0.016525647, 10.008568, 9.996347 
2.3352586e+3, 1.972893e+2, -270187.1, -1038117.75, -36029.37, -0.011356499, -0.19551072, -268500.38, 738044.56, 0.002040824, 10.006841, 9.996643 
2.3351966e+3, 2.072867e+2, -337061.78, -816751.25, -28550.262, -0.0040983222, -0.20313683, -335368.5, 573201.8, 0.000024401157, 10.00482, 9.998463 
2.3351352e+3, 2.1728481e+2, -550668.94, -866218.3, -17979.57, 0.033984, -0.22128679, -549647.8, 260939.94, 0.0, 10.0026655, 9.998488 
2.335074e+3, 2.2728364e+2, -624375.06, -752228.94, 1162.3379, 0.04783711, -0.21356475, -624364.5, 88235.125, 0.0, 10.001061, 9.99937 
2.335013e+3, 2.3728299e+2, -721432.1, -745056.5, 4450.013, 0.053551864, -0.20071767, -720621.7, -106014.68, 0.0, 9.999707, 9.999399 
2.3349522e+3, 2.4728267e+2, -718604.75, -591563.7, 6219.4785, 0.051497143, -0.20060264, -591259.94, -74649.336, 0.0, 9.998619, 10.000303 
2.3348914e+3, 2.5728273e+2, -759323.6, -551128.75, -4623.863, 0.042597506, -0.20800093, -551026.1, -132416.22, 0.0, 9.997624, 10.000388 
2.3348314e+3, 2.6728383e+2, -780144.6, -385458.94, 1202.9152, 0.075520344, -0.18268056, -385455.28, -64856.023, 0.0, 9.996273, 10.001503 
2.3347715e+3, 2.7728537e+2, -906831.1, -402340.97, 8143.88, 0.13385257, -0.1594994, -402209.53, -179626.28, 0.0, 9.994757, 10.001447 
2.3347114e+3, 2.872864e+2, -949685.8, -289292.3, -153.80154, 0.15371029, -0.21660994, -289292.28, -164720.06, 0.0, 9.993437, 10.002185 
2.3346505e+3, 2.9728794e+2, -1010885.75, -244246.17, -20115.227, 0.11978615, -0.26837668, -243718.75, -217162.61, 0.0, 9.992241, 10.0023985 
2.3345883e+3, 3.0729178e+2, -1067623.0, -94792.85, -34994.434, 0.0111430045, -0.18489757, -93535.664, -93535.664, 0.0, 9.990857, 10.003761 
2.3345274e+3, 3.172941e+2, -1298100.0, -157767.66, -31906.945, 0.01537292, -0.29059002, -156875.58, -156875.58, 0.0, 9.989082, 10.004177 
2.3455286e+3, 1.5736869e+2, -379357.53, -1331672.4, -268982.5, -0.06785862, -0.27028573, -308635.2, 1089132.3, 0.3209103, 10.013106, 9.994525 
2.345456e+3, 1.6736464e+2, -78182.53, -1089982.3, 7201.4414, -0.29425013, -0.18408118, -78131.27, 1221674.4, 0.15814978, 10.012028, 9.996069 
2.3453937e+3, 1.773602e+2, -182721.66, -1147145.1, -20395.383, 0.06230877, -0.21546979, -182290.53, 1019556.44, 0.058453158, 10.009551, 9.995953 
2.3453294e+3, 1.8735601e+2, -329653.4, -1151942.4, 28382.19, 0.095604286, -0.22123006, -328674.9, 775213.8, 0.014251713, 10.007348, 9.996285 
2.3452644e+3, 1.9735211e+2, -497087.56, -1149792.8, 46330.348, -0.0052699693, -0.22483915, -493815.34, 512113.1, 0.0017102406, 10.005292, 9.996618 
2.3452006e+3, 2.0734957e+2, -440172.38, -863611.4, 71409.79, -0.011110677, -0.22609562, -428453.94, 479499.6, 0.00001814252, 10.004105, 9.998482 
2.3451379e+3, 2.1734786e+2, -460516.1, -820021.25, 71655.14, 0.024681525, -0.22743583, -446760.4, 363209.25, 0.0, 10.00328, 9.998507 
2.3450752e+3, 2.2734667e+2, -493329.88, -691987.56, 88726.74, 0.03653686, -0.21518908, -459472.16, 252509.02, 0.0, 10.001979, 9.999339 
2.3450127e+3, 2.3734596e+2, -616253.9, -701053.56, 90937.41, 0.040860694, -0.20278077, -558317.5, 55671.15, 0.0, 10.0004635, 9.999334 
2.3449507e+3, 2.4734542e+2, -701148.5, -607427.2, 104406.945, 0.052361503, -0.207557, -539846.9, -23852.084, 0.0, 9.998848, 10.000082 
2.3448889e+3, 2.5734523e+2, -834565.75, -607775.06, 103093.9, 0.06793736, -0.21984415, -567916.2, -149918.58, 0.0, 9.997202, 10.0002 
2.3448277e+3, 2.6734626e+2, -826995.2, -422488.8, 96450.305, 0.109525084, -0.17775515, -400668.3, -80680.695, 0.0, 9.996019, 10.0013685 
2.3447666e+3, 2.7734792e+2, -877648.25, -396125.63, 77921.914, 0.1648904, -0.12778859, -383829.97, -161859.11, 0.0, 9.994998, 10.001369 
2.3447046e+3, 2.8734866e+2, -906603.4, -263541.78, 78916.2, 0.13794671, -0.21443264, -253998.84, -130036.4, 0.0, 9.993716, 10.002224 
2.3446421e+3, 2.973496e+2, -1008433.25, -247606.11, 77699.32, 0.067987055, -0.3253884, -239752.16, -213800.9, 0.0, 9.992283, 10.002354 
2.3445795e+3, 3.073542e+2, -1048066.2, -64886.523, 35514.84, 0.05889132, -0.16361532, -63605.31, -63605.31, 0.0, 9.990909, 10.003939 
2.3445171e+3, 3.173571e+2, -1276356.3, -205961.86, 20021.707, 0.07282305, -0.23650375, -205587.48, -205587.48, 0.0, 9.989494, 10.003642 
2.3556218e+3, 1.474407e+2, -875336.44, -1497802.1, -257777.78, 0.21924579, -0.16679186, -782446.44, 712618.1, 0.4653285, 10.0102625, 9.995688 
2.3555425e+3, 1.5743592e+2, -298391.4, -1256522.3, -242568.52, 0.030940128, -0.18975954, -240480.88, 1156626.9, 0.28128093, 10.01295, 9.995266 
2.3554705e+3, 1.674304e+2, -138071.38, -1247103.3, -73170.164, -0.04088442, -0.20914748, -133264.69, 1165895.5, 0.13684078, 10.011892, 9.994845 
2.3554018e+3, 1.7742491e+2, -240646.53, -1275096.5, -100882.336, -0.059664246, -0.22936322, -230900.05, 970313.3, 0.049648777, 10.009475, 9.995094 
2.3553355e+3, 1.8742034e+2, -307018.78, -1103998.8, -44773.543, -0.020960016, -0.25963372, -304511.34, 798746.4, 0.011780303, 10.007324, 9.996629 
2.3552698e+3, 1.9741644e+2, -477456.4, -1112804.4, -15680.283, 0.035718363, -0.29679567, -477069.66, 528226.0, 0.0013495265, 10.005302, 9.996869 
2.3552051e+3, 2.0741422e+2, -446949.2, -880561.9, 43961.414, 0.023726547, -0.2674881, -442537.13, 464780.7, 0.000011685931, 10.004113, 9.9983635 
2.3551406e+3, 2.1741293e+2, -471003.66, -837676.4, 38417.836, -0.013972686, -0.21606939, -467021.72, 342309.44, 0.0, 10.003257, 9.998399 
2.3550767e+3, 2.2741173e+2, -500414.28, -704796.06, 33592.6, 0.0045070755, -0.1985998, -495034.53, 216308.44, 0.0, 10.001966, 9.999259 
2.3550129e+3, 2.3741078e+2, -621517.2, -713283.4, 33857.508, 0.04515073, -0.20095088, -610377.56, 2974.5913, 0.0, 10.000464, 9.999252 
2.3549497e+3, 2.4741007e+2, -706433.75, -620419.7, 40666.01, 0.07813601, -0.21201122, -604237.8, -88878.445, 0.0, 9.998852, 9.999992 
2.3548862e+3, 2.5740972e+2, -845425.94, -632956.7, 46311.785, 0.10600904, -0.22860143, -623300.94, -205937.7, 0.0, 9.997209, 10.000027 
2.3548235e+3, 2.674101e+2, -861062.2, -494214.13, 57485.742, 0.12116763, -0.21690238, -485416.97, -166056.53, 0.0, 9.99602, 10.000877 
2.3547609e+3, 2.7741098e+2, -893879.9, -432763.78, 36886.355, 0.12998009, -0.20029041, -429831.75, -208479.22, 0.0, 9.995007, 10.001116 
2.3546973e+3, 2.8741255e+2, -879642.25, -210250.69, 25198.258, 0.052528787, -0.21722136, -209303.48, -85967.53, 0.0, 9.993724, 10.002589 
2.3546328e+3, 2.9741463e+2, -1002752.7, -242913.66, 26468.02, -0.056042224, -0.24844177, -241992.78, -216679.36, 0.0, 9.992308, 10.002377 
2.354572e+3, 3.0741724e+2, -1074245.8, -123674.875, -15963.352, 0.23239799, -0.25580025, -123406.875, -123406.875, 0.0, 9.990923, 10.0035305 
2.3545064e+3, 3.1742212e+2, -1155407.9, 42788.48, 57695.055, 0.085891634, -0.1269346, 45560.176, 45560.176, 0.0, 9.989507, 10.005343 
2.3656255e+3, 1.4750785e+2, -802402.56, -1423333.9, -189201.14, -0.3874993, -0.08830515, -749294.25, 745110.6, 0.407419, 10.0100565, 9.996132 
2.3655544e+3, 1.5750277e+2, -503754.8, -1345982.1, -214596.63, 0.10504812, -0.18378197, -452228.63, 944223.25, 0.24344903, 10.010394, 9.995615 
2.3654822e+3, 1.6749722e+2, -410935.84, -1408898.8, -84261.68, 0.091267645, -0.21687995, -403871.3, 894634.06, 0.1162979, 10.009587, 9.994789 
2.3654099e+3, 1.7749177e+2, -412240.13, -1362604.9, -37568.82, -0.118493855, -0.22382778, -410757.3, 789801.4, 0.04103447, 10.008178, 9.9951105 
2.3653418e+3, 1.8748726e+2, -325902.8, -1084562.0, 52278.223, -0.07789281, -0.2627869, -322317.34, 780284.0, 0.009310465, 10.007059, 9.996886 
2.3652756e+3, 1.9748342e+2, -357356.22, -1041887.4, 75518.54, 0.058906563, -0.31614408, -349123.88, 655513.1, 0.0009832128, 10.006077, 9.996981 
2.3652092e+3, 2.0748103e+2, -430898.28, -914468.75, 122026.22, 0.049979966, -0.28287157, -401850.53, 504810.6, 0.0000058697324, 10.004408, 9.997986 
2.3651433e+3, 2.1747947e+2, -605126.25, -935778.44, 98679.32, -0.014094253, -0.21982792, -577915.8, 230762.42, 0.0, 10.002484, 9.998095 
2.3650779e+3, 2.2747801e+2, -620472.4, -775275.1, 91813.18, -0.0023376765, -0.20633335, -577787.8, 132904.8, 0.0, 10.001203, 9.999141 
2.3650132e+3, 2.3747684e+2, -671834.6, -751315.44, 88563.336, 0.042576507, -0.21738096, -614504.1, -1800.3817, 0.0, 10.000185, 9.999123 
2.3649485e+3, 2.4747601e+2, -673320.06, -626012.94, 87263.555, 0.07974072, -0.22154024, -559254.0, -44541.727, 0.0, 9.999178, 9.999794 
2.3648837e+3, 2.5747558e+2, -721884.4, -590278.56, 85736.07, 0.11109822, -0.22605312, -548004.25, -131286.86, 0.0, 9.998136, 9.99987 
2.3648196e+3, 2.674757e+2, -762582.6, -452030.78, 119627.68, 0.10555945, -0.22741345, -411292.94, -92576.15, 0.0, 9.996725, 10.000824 
2.3647554e+3, 2.774763e+2, -874726.8, -425464.47, 127470.45, 0.09443713, -0.23186904, -391816.94, -171105.56, 0.0, 9.995154, 10.001091 
2.3646906e+3, 2.8747812e+2, -870855.56, -200384.78, 101668.98, 0.04018646, -0.22558992, -185306.95, -62614.13, 0.0, 9.993768, 10.002632 
2.3646252e+3, 2.9748058e+2, -988725.94, -235046.67, 76976.12, -0.04690934, -0.21877426, -227265.16, -202598.31, 0.0, 9.992409, 10.0023775 
2.3645627e+3, 3.0748257e+2, -1080377.9, -174526.45, 47563.484, 0.23939048, -0.26105288, -172035.89, -172035.89, 0.0, 9.991092, 10.0030985 
2.3644951e+3, 3.1748587e+2, -1119763.3, 74069.92, 73474.92, 0.024033638, -0.2558136, 78574.96, 78574.96, 0.0, 9.9896965, 10.005464 
2.3756348e+3, 1.4757301e+2, -770170.4, -1450147.8, -195232.64, -0.4455562, -0.30626726, -718102.9, 775657.56, 0.3568694, 10.009882, 9.9959 
2.3755649e+3, 1.5756942e+2, -478510.47, -1351244.3, -215301.23, 0.14346795, -0.23410071, -428286.47, 967511.4, 0.20985134, 10.010264, 9.995621 
2.375492e+3, 1.6756497e+2, -347947.3, -1287831.9, -128677.664, 0.12261128, -0.21178384, -330648.72, 967193.56, 0.097810626, 10.009495, 9.995676 
2.3754178e+3, 1.7756057e+2, -363992.72, -1263467.1, -82156.69, -0.12625115, -0.201866, -356550.22, 843335.4, 0.033175692, 10.008132, 9.995817 
2.3753484e+3, 1.8755649e+2, -317652.56, -1064718.8, 18620.43, -0.08667593, -0.23328207, -317188.72, 784733.8, 0.0070270663, 10.007027, 9.997041 
2.3752815e+3, 1.9755276e+2, -367585.75, -1053739.3, 32988.652, 0.059939295, -0.28776202, -366003.4, 637951.9, 0.0006485397, 10.00603, 9.996924 
2.3752137e+3, 2.0754972e+2, -477590.13, -1008151.56, 49894.746, 0.06607552, -0.27523288, -472938.75, 433046.97, 0.0000018946583, 10.004389, 9.9973545 
2.3751457e+3, 2.1754728e+2, -641424.4, -1011946.94, 37182.242, 0.017175112, -0.23893228, -637729.94, 170282.44, 0.0, 10.002483, 9.997575 
2.3750791e+3, 2.2754543e+2, -630919.8, -800054.44, 54933.99, 0.011994265, -0.23576117, -614643.8, 95387.2, 0.0, 10.001211, 9.998969 
2.375013e+3, 2.3754403e+2, -685866.94, -782289.9, 51364.676, 0.026700849, -0.25092906, -663632.1, -51587.734, 0.0, 10.000188, 9.998912 
2.374947e+3, 2.4754313e+2, -694470.8, -672685.56, 47664.434, 0.053824693, -0.23603459, -634684.94, -120630.34, 0.0, 9.999186, 9.999473 
2.3748814e+3, 2.575427e+2, -728813.9, -610829.44, 41724.035, 0.07757463, -0.21140862, -597565.4, -181504.6, 0.0, 9.9981575, 9.999721 
2.3748156e+3, 2.6754305e+2, -732900.44, -395196.94, 58677.07, 0.058735795, -0.20718254, -385292.13, -67235.23, 0.0, 9.99674, 10.00121 
2.37475e+3, 2.775439e+2, -858887.56, -398446.2, 71442.98, 0.0438224, -0.22298548, -387615.72, -167568.31, 0.0, 9.995174, 10.00127 
2.3746848e+3, 2.875453e+2, -894129.56, -251950.03, 49125.875, 0.1077028, -0.24152572, -248213.7, -126180.29, 0.0, 9.993777, 10.002275 
2.3746191e+3, 2.9754743e+2, -991101.5, -242275.22, 23437.707, 0.12881042, -0.23384252, -241542.34, -217530.4, 0.0, 9.992413, 10.002329 
2.3745514e+3, 3.0755034e+2, -1105652.1, -228718.44, 2816.6094, 0.0143681085, -0.17613246, -228709.39, -228709.39, 0.0, 9.991095, 10.002727 
2.3744853e+3, 3.175503e+2, -1166218.3, -33313.773, -127704.86, 0.083496936, -0.4357834, -19096.854, -19096.854, 0.0, 9.989725, 10.004723 
2.3857315e+3, 1.3764617e+2, -960582.56, -1409093.8, -174195.5, 0.58109176, -0.26200727, -900875.75, 690167.94, 0.45601737, 10.009038, 9.998121 
2.3856445e+3, 1.4764172e+2, -869432.0, -1524024.6, -117230.37, -0.33506075, -0.3611045, -849070.7, 644015.4, 0.31540114, 10.008385, 9.995974 
2.3855735e+3, 1.5763873e+2, -667850.75, -1458264.3, -110418.14, 0.106305994, -0.23312841, -652715.56, 742402.5, 0.18167026, 10.008345, 9.995737 
2.3855e+3, 1.6763456e+2, -514809.22, -1338479.4, -47122.22, 0.107583046, -0.20704427, -512122.1, 785037.9, 0.082061514, 10.0079365, 9.996064 
2.3854257e+3, 1.7763036e+2, -433027.9, -1271804.4, -29867.02, -0.057844803, -0.2089191, -431965.75, 767235.4, 0.026423298, 10.007485, 9.996067 
2.3853552e+3, 1.8762639e+2, -426261.53, -1132884.0, 38928.973, -0.04887867, -0.23013207, -424123.34, 677113.75, 0.005076519, 10.006337, 9.9969 
2.3852864e+3, 1.9762267e+2, -539852.8, -1152681.0, 31415.291, 0.02776768, -0.2688056, -538246.56, 465023.03, 0.0003809087, 10.004918, 9.996777 
2.3852172e+3, 2.076193e+2, -561219.7, -1062851.8, 63393.85, 0.037837602, -0.27630866, -553332.25, 351970.84, 0.00000024554572, 10.003882, 9.99722 
2.3851484e+3, 2.1761636e+2, -577727.75, -998003.56, 85367.91, 0.021795915, -0.27144325, -561049.4, 246284.56, 0.0, 10.002999, 9.997419 
2.3850806e+3, 2.2761431e+2, -551170.5, -785754.7, 118661.53, 0.017503096, -0.26709363, -501615.38, 207739.34, 0.0, 10.001867, 9.998749 
2.3850133e+3, 2.3761284e+2, -634848.06, -776098.8, 111576.97, 0.022789558, -0.26851097, -573422.8, 37946.527, 0.0, 10.000622, 9.998743 
2.384946e+3, 2.4761193e+2, -690099.56, -670603.4, 122508.836, 0.049530562, -0.24488887, -557455.44, -44075.723, 0.0, 9.999223, 9.999466 
2.3848791e+3, 2.576115e+2, -786622.75, -638579.2, 134640.63, 0.078730404, -0.21433647, -558954.25, -143568.64, 0.0, 9.997767, 9.999715 
2.384812e+3, 2.6761177e+2, -779231.25, -417627.8, 130150.4, 0.055116337, -0.21482524, -375655.22, -58272.984, 0.0, 9.99643, 10.001203 
2.3847449e+3, 2.7761254e+2, -870798.56, -408418.84, 114818.22, 0.034226384, -0.2369389, -381477.0, -162103.66, 0.0, 9.995117, 10.001226 
2.3846787e+3, 2.8761384e+2, -866963.9, -252741.67, 105872.59, 0.11351368, -0.2527633, -235004.77, -113644.18, 0.0, 9.99403, 10.002146 
2.3846118e+3, 2.9761586e+2, -912935.56, -215063.8, 89859.24, 0.1552552, -0.24390288, -203679.08, -180338.0, 0.0, 9.993002, 10.002229 
2.3845415e+3, 3.0761898e+2, -1064342.8, -204294.25, 61372.004, -0.06698095, -0.16008551, -199936.9, -199936.9, 0.0, 9.9913645, 10.002761 
2.3844753e+3, 3.1762084e+2, -1085953.0, 122614.78, -43358.65, 0.13946427, -0.22299694, 124168.32, 124168.32, 0.0, 9.989784, 10.005758 
2.3957346e+3, 1.3771825e+2, -962331.8, -1470288.1, -247630.6, 0.012013561, -0.15523468, -861590.6, 728749.06, 0.4160546, 10.008864, 9.997321 
2.395655e+3, 1.4771321e+2, -819158.5, -1477041.8, -118814.77, -0.1030679, -0.29764146, -798358.0, 694030.0, 0.28290173, 10.008426, 9.996279 
2.3955806e+3, 1.5771025e+2, -643025.56, -1439399.8, -118409.59, -0.000000049212716, -0.19263925, -625792.6, 768624.06, 0.15905486, 10.008306, 9.99589 
2.3955074e+3, 1.6770574e+2, -513199.63, -1350200.9, -62058.156, 0.051013745, -0.19975881, -508623.44, 787837.56, 0.06924136, 10.007892, 9.996009 
2.3954344e+3, 1.7770112e+2, -446496.03, -1300022.0, -52682.06, 0.07086883, -0.23889683, -443256.63, 755249.94, 0.020922408, 10.00744, 9.995898 
2.3953621e+3, 1.8769692e+2, -457798.4, -1195880.1, -13046.038, 0.025052015, -0.24921696, -457567.9, 642977.9, 0.0035332707, 10.00631, 9.996483 
2.3952903e+3, 1.9769308e+2, -557749.94, -1188761.8, -13345.894, -0.03939707, -0.25877696, -557467.8, 445112.78, 0.00019604621, 10.004908, 9.996537 
2.3952202e+3, 2.0768963e+2, -540447.56, -1020251.9, 32688.783, -0.032764316, -0.28440818, -538230.75, 366383.3, 0.0000000025512954, 10.00388, 9.997516 
2.3951508e+3, 2.176866e+2, -570039.8, -979012.4, 51988.117, -0.0023587164, -0.31644815, -563534.56, 243109.55, 0.0, 10.002981, 9.997561 
2.395082e+3, 2.2768456e+2, -571442.94, -827036.4, 73371.55, 0.012468103, -0.29993412, -551878.25, 156786.64, 0.0, 10.001859, 9.998471 
2.3950134e+3, 2.3768312e+2, -643614.7, -796032.94, 63442.805, 0.024141448, -0.26917267, -620663.25, -9983.689, 0.0, 10.000625, 9.998608 
2.3949453e+3, 2.4768233e+2, -668586.56, -628693.56, 66193.45, 0.06455492, -0.24761406, -579506.6, -66818.42, 0.0, 9.9992285, 9.999754 
2.394877e+3, 2.5768197e+2, -778462.44, -624015.44, 81039.35, 0.10944217, -0.23695931, -589297.7, -174605.23, 0.0, 9.997771, 9.999816 
2.3948085e+3, 2.676819e+2, -810559.5, -483255.75, 79310.98, 0.095017634, -0.25162452, -465050.06, -148356.8, 0.0, 9.9964285, 10.000754 
2.39474e+3, 2.7768224e+2, -888245.3, -448512.13, 67886.36, 0.067160815, -0.26984185, -438270.3, -219581.06, 0.0, 9.995129, 10.000948 
2.3946716e+3, 2.8768376e+2, -858023.4, -238880.6, 68131.125, 0.045644984, -0.2613647, -231472.03, -110797.414, 0.0, 9.994044, 10.002236 
2.394603e+3, 2.9768565e+2, -919794.5, -238342.97, 46962.613, -0.007376428, -0.27272725, -235121.73, -212465.48, 0.0, 9.993035, 10.002055 
2.3945338e+3, 3.076887e+2, -1035604.2, -147479.63, -16189.256, 0.03496902, -0.19342239, -147184.61, -147184.61, 0.0, 9.99137, 10.003152 
2.394465e+3, 3.1769225e+2, -1097880.4, 80811.1, 60793.7, 0.16060631, -0.15768297, 83938.38, 83938.38, 0.0, 9.989852, 10.005442 
2.4057415e+3, 1.3779013e+2, -1061859.4, -1602490.6, -218912.89, -0.083918504, -0.14510234, -984333.94, 605303.5, 0.38669726, 10.007758, 9.996655 
2.4056648e+3, 1.4778525e+2, -774980.8, -1457914.9, -101369.71, 0.043550774, -0.24829027, -760251.9, 731432.44, 0.2582023, 10.008582, 9.996356 
2.4055879e+3, 1.5778187e+2, -676379.2, -1458883.3, -106900.66, -0.048391756, -0.19267114, -662037.94, 731677.4, 0.14144038, 10.007883, 9.995952 
2.405514e+3, 1.6777736e+2, -586573.75, -1394738.4, -47366.1, -0.004601714, -0.20064741, -583807.06, 711952.06, 0.059143417, 10.007308, 9.99598 
2.4054411e+3, 1.7777282e+2, -548886.1, -1349713.4, -40862.75, 0.078284584, -0.22767702, -546806.44, 650997.4, 0.016626894, 10.006694, 9.9959135 
2.4053681e+3, 1.8776853e+2, -516893.4, -1209227.0, 9706.047, 0.039245557, -0.25474593, -516757.38, 583086.25, 0.002392111, 10.0058365, 9.996617 
2.4052949e+3, 1.977646e+2, -557617.5, -1182968.4, 44188.04, -0.039932746, -0.28527573, -554510.56, 447368.66, 0.00008624802, 10.0048895, 9.996583 
2.4052237e+3, 2.0776117e+2, -574965.2, -1054461.9, 79849.78, -0.03511147, -0.29646266, -562017.56, 341895.2, 0.0, 10.003724, 9.997354 
2.4051534e+3, 2.1775822e+2, -648747.6, -1023872.94, 65309.848, 0.0024529332, -0.30536216, -637702.3, 168240.44, 0.0, 10.002475, 9.997495 
2.4050835e+3, 2.2775623e+2, -658971.94, -850055.4, 97173.734, 0.02904859, -0.2906532, -618238.4, 89724.21, 0.0, 10.001182, 9.998637 
2.4050139e+3, 2.3775485e+2, -743316.1, -831394.75, 119817.69, 0.05375299, -0.26860458, -659700.7, -49724.586, 0.0, 9.999891, 9.998715 
2.4049442e+3, 2.4775395e+2, -703212.6, -648726.9, 118930.46, 0.07272357, -0.2564483, -553959.0, -41973.57, 0.0, 9.99901, 9.999719 
2.4048746e+3, 2.5775343e+2, -715680.5, -598869.94, 106903.6, 0.08769825, -0.2568935, -535457.44, -121466.31, 0.0, 9.998229, 9.999765 
2.4048047e+3, 2.6775327e+2, -745489.3, -460450.16, 110550.69, 0.078680985, -0.27033553, -422599.88, -106607.195, 0.0, 9.996919, 10.000672 
2.4047351e+3, 2.7775362e+2, -854273.0, -439858.88, 125486.71, 0.071947634, -0.27771682, -404822.9, -186834.3, 0.0, 9.995404, 10.000871 
2.4046655e+3, 2.8775516e+2, -873073.5, -254752.14, 127702.63, 0.040823907, -0.25805295, -229415.75, -109441.99, 0.0, 9.993985, 10.002152 
2.4045955e+3, 2.9775685e+2, -986035.06, -280285.66, 93710.62, -0.033685833, -0.28112406, -268054.6, -246097.16, 0.0, 9.992629, 10.00196 
2.4045256e+3, 3.077593e+2, -922486.56, -84151.28, 28720.875, 0.06554875, -0.25912657, -83168.47, -83168.47, 0.0, 9.992113, 10.003227 
2.4044558e+3, 3.1776115e+2, -1023839.6, -56291.21, 93381.21, 0.20809485, -0.39729905, -47361.113, -47361.113, 0.0, 9.991113, 10.003886 
2.4158254e+3, 1.2786672e+2, -1604597.9, -2024048.9, -157523.1, -0.28549072, -0.11875351, -1552029.0, 134855.33, 0.48105252, 10.003278, 9.996387 
2.4157512e+3, 1.3786198e+2, -1060878.1, -1647386.0, -131545.1, 0.14477853, -0.19666098, -1032725.8, 556209.75, 0.36535263, 10.007785, 9.99614 
2.4156739e+3, 1.4785782e+2, -767147.6, -1468926.5, -121328.734, 0.116554126, -0.20117034, -746763.5, 744211.75, 0.23960488, 10.008522, 9.996281 
2.4155955e+3, 1.578536e+2, -664308.56, -1457188.4, -124021.57, -0.055092085, -0.22438426, -645362.0, 747651.56, 0.12785889, 10.007876, 9.995972 
2.4155205e+3, 1.6784935e+2, -583470.44, -1398143.3, -65475.902, -0.06327196, -0.21011148, -578241.6, 716813.1, 0.051307313, 10.00729, 9.99597 
2.4154468e+3, 1.7784534e+2, -541933.5, -1329908.4, -62986.293, -0.020263154, -0.18546276, -536930.5, 660163.8, 0.01335978, 10.006646, 9.996076 
2.4153733e+3, 1.8784112e+2, -480255.88, -1126258.1, -23733.45, 0.0013462022, -0.24971981, -479385.13, 619746.9, 0.0015933622, 10.005798, 9.997208 
2.4153e+3, 1.9783708e+2, -543982.06, -1149058.5, 7504.8433, 0.014915154, -0.34323627, -543889.0, 457277.8, 0.000030958112, 10.004861, 9.996833 
2.4152277e+3, 2.0783381e+2, -618705.44, -1143469.5, 34077.266, 0.021816643, -0.3098616, -616501.75, 286698.75, 0.0, 10.003712, 9.996752 
2.415156e+3, 2.178311e+2, -669610.7, -1064989.1, 21203.254, 0.027659854, -0.2395162, -668476.9, 136754.03, 0.0, 10.0024605, 9.997222 
2.4150847e+3, 2.2782922e+2, -617966.75, -766087.25, 49584.93, 0.06369965, -0.23991576, -602900.2, 104348.56, 0.0, 10.001182, 9.999216 
2.4150139e+3, 2.3782788e+2, -721258.25, -787449.6, 77475.02, 0.10721414, -0.2674928, -670106.06, -60846.133, 0.0, 9.999894, 9.999019 
2.4149428e+3, 2.478267e+2, -728830.2, -704293.06, 89475.375, 0.0708881, -0.27221286, -626249.06, -114976.66, 0.0, 9.999016, 9.999337 
2.4148718e+3, 2.578258e+2, -727385.0, -628147.5, 69596.05, 0.0038567546, -0.27336064, -592293.25, -179010.69, 0.0, 9.998246, 9.999559 
2.4148008e+3, 2.678259e+2, -723802.44, -419817.63, 51744.508, -0.00047519067, -0.26924568, -411251.03, -95970.16, 0.0, 9.996931, 10.000949 
2.41473e+3, 2.7782673e+2, -844558.25, -424586.25, 69413.68, 0.03772272, -0.2585833, -413410.8, -196139.23, 0.0, 9.995419, 10.000972 
2.4146599e+3, 2.8782806e+2, -892473.56, -295180.53, 73588.336, 0.10504323, -0.24103415, -286247.8, -166989.83, 0.0, 9.993982, 10.001879 
2.4145891e+3, 2.9782948e+2, -987148.06, -282923.3, 54377.38, 0.10178237, -0.2642425, -278749.25, -257505.25, 0.0, 9.992625, 10.001946 
2.4145168e+3, 3.0783063e+2, -938303.9, -129270.14, 23188.035, -0.0017054685, -0.37103355, -128606.086, -128606.086, 0.0, 9.99216, 10.002897 
2.4144457e+3, 3.178341e+2, -1056618.0, -132197.3, -62599.457, 0.120168075, -0.2699801, -127977.48, -127977.48, 0.0, 9.991142, 10.003353 
2.425834e+3, 1.2793863e+2, -1107233.0, -1629938.4, -38862.875, -0.051596735, -0.32041967, -1104359.4, 581820.9, 0.4652037, 10.009376, 9.996392 
2.4257596e+3, 1.3793567e+2, -1021671.5, -1625776.6, -40644.766, 0.20565662, -0.21828163, -1018949.1, 569263.56, 0.3492437, 10.008085, 9.996052 
2.425682e+3, 1.4793167e+2, -848869.7, -1539486.3, -50120.914, 0.13479152, -0.18781537, -845251.1, 644999.6, 0.22520183, 10.007753, 9.996124 
2.4256033e+3, 1.5792726e+2, -675997.94, -1475627.8, -50781.8, -0.027842794, -0.21342571, -672785.9, 719505.8, 0.117190816, 10.007758, 9.995885 
2.4255273e+3, 1.6792278e+2, -632422.4, -1426492.1, -7103.426, -0.05322603, -0.21674353, -632358.8, 661976.25, 0.045177795, 10.006916, 9.995951 
2.4254523e+3, 1.7791854e+2, -666649.5, -1392952.5, -3654.2585, -0.036053147, -0.21178113, -666631.1, 529745.56, 0.010892291, 10.005781, 9.996057 
2.4253781e+3, 1.8791449e+2, -599887.0, -1189875.1, 6734.0645, -0.007230623, -0.25311667, -599810.1, 498603.47, 0.0010563914, 10.005002, 9.997152 
2.4253045e+3, 1.9791076e+2, -617961.6, -1175799.8, -7273.5205, 0.028602209, -0.31330815, -617866.75, 382579.94, 0.000008392852, 10.004316, 9.996909 
2.4252312e+3, 2.0790763e+2, -650370.25, -1116068.5, 49537.895, 0.04073284, -0.2903615, -645159.06, 257319.1, 0.0, 10.003315, 9.997128 
2.4251582e+3, 2.1790504e+2, -688639.06, -1045208.9, 100368.65, 0.044854753, -0.24073315, -662328.3, 142177.69, 0.0, 10.002212, 9.997475 
2.4250858e+3, 2.2790322e+2, -615374.75, -771885.6, 113715.16, 0.06792402, -0.23926741, -555590.1, 150933.36, 0.0, 10.001235, 9.999148 
2.4250136e+3, 2.3790187e+2, -668642.75, -766557.2, 97039.484, 0.09902127, -0.26044694, -608910.2, -374.89255, 0.0, 10.000279, 9.998973 
2.4249417e+3, 2.4790068e+2, -741503.25, -711141.7, 119755.914, 0.06463155, -0.2595559, -605608.2, -95060.55, 0.0, 9.998939, 9.999325 
2.4248694e+3, 2.5789985e+2, -839594.9, -681897.9, 123235.14, 0.0047309916, -0.25445116, -614445.4, -201887.84, 0.0, 9.997481, 9.999555 
2.4247971e+3, 2.6789984e+2, -802888.4, -457903.4, 92534.62, -0.0057783467, -0.25874653, -434650.34, -120093.67, 0.0, 9.996393, 10.000943 
2.4247248e+3, 2.7790046e+2, -853464.44, -435400.8, 87367.08, 0.026410103, -0.26723135, -417877.3, -201328.02, 0.0, 9.995389, 10.000911 
2.424654e+3, 2.8790158e+2, -852944.06, -293903.5, 94473.6, 0.13086954, -0.25475967, -278369.8, -159832.16, 0.0, 9.994333, 10.001716 
2.4245825e+3, 2.9790312e+2, -894884.44, -240181.58, 88280.71, 0.1731425, -0.2501226, -228486.64, -207963.97, 0.0, 9.993274, 10.001924 
2.424508e+3, 3.0790412e+2, -955772.0, -148021.25, 75012.31, -0.056015875, -0.37063727, -141114.23, -141114.23, 0.0, 9.992091, 10.002799 
2.424436e+3, 3.179074e+2, -987607.2, -24420.299, -9413.021, 0.03030404, -0.26720992, -24328.316, -24328.316, 0.0, 9.991299, 10.004016 
2.435843e+3, 1.2801512e+2, -1093765.3, -1606357.4, -68229.586, -0.05920889, -0.15257761, -1084838.9, 600593.06, 0.45207402, 10.009185, 9.996759 
2.4357666e+3, 1.3801073e+2, -1003528.4, -1604773.6, -65448.844, 0.13579765, -0.22862412, -996486.4, 590987.3, 0.33586484, 10.008066, 9.996222 
2.435689e+3, 1.4800654e+2, -852393.9, -1575920.9, -50826.004, 0.10780841, -0.20634985, -848840.94, 640673.1, 0.21325557, 10.0077505, 9.995878 
2.4356113e+3, 1.580025e+2, -687754.9, -1509203.0, -59665.73, 0.02363224, -0.16947576, -683443.7, 708109.56, 0.10842206, 10.007708, 9.995682 
2.4355346e+3, 1.6799746e+2, -635868.06, -1434994.0, -47447.7, 0.009202023, -0.2197291, -633060.75, 660541.5, 0.040250972, 10.006883, 9.995912 
2.4354585e+3, 1.7799237e+2, -679571.94, -1423043.9, -37258.52, 0.011225728, -0.2926218, -677709.44, 517942.3, 0.009011455, 10.00578, 9.995853 
2.435383e+3, 1.8798858e+2, -644324.2, -1283627.9, -14514.996, 0.005575736, -0.26069432, -643994.75, 453694.22, 0.0007046571, 10.005001, 9.996511 
2.4353084e+3, 1.9798544e+2, -626563.3, -1189470.0, -31497.223, 0.0012699936, -0.20542473, -624806.4, 374913.6, 0.0000015837387, 10.004293, 9.996829 
2.4352342e+3, 2.0798251e+2, -564002.44, -934723.44, 10407.444, 0.023498567, -0.24324764, -563710.5, 338036.25, 0.0, 10.003302, 9.998382 
2.4351601e+3, 2.1797995e+2, -643083.5, -948655.2, 62854.277, 0.05027313, -0.3077457, -630659.9, 173109.61, 0.0, 10.002198, 9.998146 
2.4350864e+3, 2.279781e+2, -665249.5, -876177.44, 79348.84, 0.040204767, -0.28651562, -638732.9, 67055.164, 0.0, 10.001234, 9.998434 
2.4350129e+3, 2.3797671e+2, -696902.9, -826091.06, 56379.504, 0.022395158, -0.24311881, -675758.75, -67956.016, 0.0, 10.000278, 9.998568 
2.4349402e+3, 2.4797589e+2, -716641.2, -660770.2, 62189.67, 0.05275807, -0.21553499, -620529.8, -110718.08, 0.0, 9.998939, 9.999673 
2.4348675e+3, 2.5797546e+2, -827873.5, -658451.2, 72290.58, 0.09064669, -0.1977991, -631798.5, -219982.11, 0.0, 9.99748, 9.99972 
2.434794e+3, 2.6797497e+2, -826181.25, -505961.44, 53811.977, 0.06585394, -0.23930503, -497160.4, -183339.61, 0.0, 9.9963875, 10.000618 
2.4347202e+3, 2.7797464e+2, -868580.6, -470729.5, 48208.94, 0.03783016, -0.30768967, -464971.2, -249148.23, 0.0, 9.9954, 10.000666 
2.434648e+3, 2.8797555e+2, -857178.94, -308808.25, 53038.39, 0.10818558, -0.3033969, -303725.5, -185911.3, 0.0, 9.994354, 10.001607 
2.4345753e+3, 2.979776e+2, -894613.25, -248711.05, 46430.32, 0.14696097, -0.23891087, -245390.5, -225595.63, 0.0, 9.993308, 10.001851 
2.4344997e+3, 3.0797994e+2, -940317.5, -113429.664, 21542.016, -0.072755106, -0.23100415, -112868.836, -112868.836, 0.0, 9.992077, 10.003045 
2.4344274e+3, 3.1798145e+2, -963571.0, 5896.3345, 48823.785, 0.06608283, -0.34875262, 8348.967, 8348.967, 0.0, 9.991366, 10.0042 
2.4458508e+3, 1.2809095e+2, -1216870.9, -1696218.3, -34527.38, -0.07631128, -0.16284488, -1214396.6, 470289.8, 0.43919033, 10.007648, 9.996455 
2.4457742e+3, 1.3808633e+2, -994921.6, -1629164.5, -49253.242, 0.11964811, -0.2302447, -991119.56, 595610.7, 0.32331243, 10.008142, 9.996006 
2.4456963e+3, 1.4808184e+2, -848577.75, -1581743.8, -32098.496, 0.09759398, -0.2303328, -847175.1, 641599.3, 0.20249146, 10.007733, 9.995837 
2.4456184e+3, 1.5807757e+2, -764464.0, -1550761.8, -34612.836, 0.026597494, -0.2124875, -762943.25, 627873.56, 0.10081484, 10.007069, 9.9957 
2.445541e+3, 1.6807292e+2, -667088.94, -1426816.4, -16475.574, 0.016781187, -0.23449275, -666731.8, 626130.2, 0.036152728, 10.006534, 9.996134 
2.4454641e+3, 1.7806838e+2, -633241.94, -1381702.9, 9773.7295, 0.020076314, -0.27085721, -633114.3, 561791.6, 0.007551815, 10.006014, 9.996023 
2.445388e+3, 1.8806456e+2, -643976.44, -1280186.5, 66261.34, 0.010533289, -0.24892026, -637148.56, 459795.53, 0.0004773665, 10.004994, 9.996536 
2.445312e+3, 1.9806123e+2, -691566.6, -1212331.0, 87468.266, 0.0015831478, -0.21301515, -677267.94, 321709.63, 0.00000019387154, 10.003819, 9.996896 
2.4452367e+3, 2.0805846e+2, -625077.06, -949872.56, 79295.5, 0.025996333, -0.24337092, -606751.8, 294250.97, 0.0, 10.002828, 9.998503 
2.445162e+3, 2.180561e+2, -682891.56, -960103.2, 56889.254, 0.059505254, -0.29761168, -671671.0, 131352.2, 0.0, 10.001895, 9.998212 
2.4450871e+3, 2.280541e+2, -714697.8, -909836.7, 89733.766, 0.037872095, -0.28504312, -679708.06, 25334.85, 0.0, 10.000942, 9.998342 
2.4450126e+3, 2.3805252e+2, -744510.75, -851943.7, 105231.914, 0.005058486, -0.2530926, -680078.06, -73018.305, 0.0, 9.999971, 9.998534 
2.4449387e+3, 2.4805167e+2, -718456.5, -652083.56, 98984.82, 0.04667098, -0.23006909, -580870.1, -71801.234, 0.0, 9.99889, 9.999754 
2.444865e+3, 2.580513e+2, -785232.94, -634839.5, 93039.73, 0.10729792, -0.21381499, -590407.9, -179334.83, 0.0, 9.997763, 9.999744 
2.4447903e+3, 2.6805094e+2, -773068.0, -495106.9, 89975.34, 0.07894811, -0.23209438, -468524.3, -155447.7, 0.0, 9.9968195, 10.000483 
2.4447156e+3, 2.7805072e+2, -798006.94, -442419.97, 95241.2, 0.04070832, -0.27571595, -418517.13, -203438.64, 0.0, 9.995916, 10.000607 
2.444642e+3, 2.880514e+2, -792184.3, -270364.3, 107788.31, 0.10562522, -0.29913408, -248975.97, -131903.8, 0.0, 9.994773, 10.001666 
2.4445684e+3, 2.980531e+2, -876349.06, -257064.27, 110879.95, 0.13864611, -0.26526296, -237810.38, -218754.94, 0.0, 9.993505, 10.0017 
2.4444917e+3, 3.0805632e+2, -871008.5, -119676.2, 57580.758, -0.0867072, -0.13556314, -115288.94, -115288.94, 0.0, 9.992725, 10.002688 
2.4444191e+3, 3.18058e+2, -913323.9, 26470.172, 51003.246, 0.10869079, -0.21600477, 29230.047, 29230.047, 0.0, 9.991738, 10.004156 
2.4558578e+3, 1.2816633e+2, -1233222.3, -1795972.8, -29535.18, -0.109068215, -0.30323178, -1231676.4, 452266.03, 0.4250334, 10.007645, 9.995764 
2.4557823e+3, 1.3816263e+2, -1007157.5, -1697800.0, -45949.45, 0.13176633, -0.21736489, -1004113.9, 581867.06, 0.3104836, 10.008134, 9.995536 
2.4557036e+3, 1.4815763e+2, -839616.7, -1578280.4, -51882.945, 0.090833634, -0.25332484, -835990.3, 652040.44, 0.19217724, 10.007714, 9.995877 
2.4556248e+3, 1.5815252e+2, -754919.9, -1531571.3, -53227.4, -0.014779911, -0.3230969, -751288.94, 638792.1, 0.093923144, 10.007027, 9.995856 
2.4555469e+3, 1.681491e+2, -643494.8, -1371435.6, -31889.234, -0.02284248, -0.25828955, -642100.5, 650014.44, 0.032637622, 10.006488, 9.99654 
2.4554695e+3, 1.7814627e+2, -608293.44, -1319425.3, -13415.089, -0.0058259047, -0.1644953, -608040.44, 586102.06, 0.0063958336, 10.00596, 9.99648 
2.4553926e+3, 1.8814218e+2, -607573.06, -1198109.4, 22102.28, 0.007663493, -0.22328857, -606747.0, 489434.63, 0.00033124912, 10.00496, 9.99712 
2.4553159e+3, 1.98138e+2, -686315.9, -1196579.5, 46564.258, 0.021583196, -0.32237306, -682101.5, 316119.8, 0.000000012679893, 10.003794, 9.99702 
2.4552394e+3, 2.0813537e+2, -690867.0, -1086205.3, 44992.715, 0.0441532, -0.28288376, -685811.1, 214436.58, 0.0, 10.002822, 9.997572 
2.4551636e+3, 2.181334e+2, -719241.9, -1033777.9, 25165.201, 0.06658837, -0.21073313, -717241.25, 85026.67, 0.0, 10.001883, 9.997714 
2.4550882e+3, 2.2813118e+2, -680830.3, -840907.4, 55404.43, 0.058157884, -0.23670332, -663525.0, 40763.938, 0.0, 10.000943, 9.9988165 
2.4550126e+3, 2.3812914e+2, -723987.0, -812568.56, 67437.87, 0.041754685, -0.29363555, -687596.06, -81288.39, 0.0, 9.99998, 9.998803 
2.4549372e+3, 2.481279e+2, -731842.3, -682234.8, 54340.445, 0.04270405, -0.30653995, -647304.94, -138984.44, 0.0, 9.998895, 9.999547 
2.4548618e+3, 2.5812718e+2, -792808.4, -653801.6, 51840.973, 0.043805175, -0.30254313, -636597.44, -226269.13, 0.0, 9.997771, 9.999613 
2.4547864e+3, 2.6812768e+2, -768091.5, -488705.16, 54914.824, 0.02669454, -0.23560406, -478298.97, -165974.34, 0.0, 9.996832, 10.000524 
2.4547112e+3, 2.7812865e+2, -784948.44, -421588.34, 58551.19, 0.025980158, -0.16534066, -412386.53, -198070.8, 0.0, 9.995938, 10.000742 
2.4546367e+3, 2.8812912e+2, -769364.0, -227018.73, 58996.99, 0.12583205, -0.23383525, -220675.17, -104364.77, 0.0, 9.994784, 10.001962 
2.4545617e+3, 2.981299e+2, -890358.0, -290206.44, 70412.34, 0.16426012, -0.31652036, -282056.06, -263754.53, 0.0, 9.993516, 10.001471 
2.4544837e+3, 3.0813286e+2, -947669.94, -292262.1, 41886.62, -0.12829125, -0.12618607, -289595.97, -289595.97, 0.0, 9.992777, 10.001481 
2.4544103e+3, 3.181323e+2, -893701.06, 74024.83, -112414.98, 0.08334717, -0.3302401, 86911.8, 86911.8, 0.0, 9.991716, 10.004489 
2.4658659e+3, 1.2824251e+2, -1192590.9, -1754200.0, -21014.027, -0.055530977, -0.33334467, -1191805.6, 491388.88, 0.40913346, 10.007877, 9.995939 
2.46579e+3, 1.3823876e+2, -952994.6, -1645708.8, -18369.266, 0.112719975, -0.2702249, -952507.9, 632725.4, 0.29696503, 10.008455, 9.99573 
2.465711e+3, 1.4823426e+2, -823532.94, -1550867.1, -36452.78, 0.07298566, -0.2730049, -821710.56, 665568.0, 0.1819623, 10.007684, 9.996078 
2.465631e+3, 1.582298e+2, -798387.8, -1525219.6, -23751.32, -0.0061052237, -0.30092654, -797612.5, 591711.0, 0.087481126, 10.006531, 9.996136 
2.4655527e+3, 1.6822654e+2, -718607.56, -1359712.3, 12965.354, -0.013292524, -0.25279033, -718345.5, 573009.4, 0.02953784, 10.005732, 9.996981 
2.4654749e+3, 1.7822385e+2, -719668.2, -1338347.3, 27638.049, -0.0037170053, -0.18882892, -718435.94, 474944.72, 0.0054586753, 10.005043, 9.996787 
2.465397e+3, 1.882199e+2, -710823.9, -1247369.1, 23295.168, 0.011910843, -0.24102132, -709814.4, 385604.28, 0.00023677037, 10.004253, 9.997119 
2.4653193e+3, 1.9821587e+2, -736727.0, -1219456.9, 13419.419, 0.032675717, -0.32610786, -736354.25, 261103.47, 0.00000000021894557, 10.003441, 9.997032 
2.4652421e+3, 2.0821331e+2, -711823.25, -1092736.3, 56898.66, 0.047648307, -0.28084767, -703505.7, 195977.83, 0.0, 10.002667, 9.9976 
2.4651653e+3, 2.1821141e+2, -717009.1, -1030479.1, 95307.59, 0.05977668, -0.20408158, -690306.4, 111196.84, 0.0, 10.001898, 9.9977255 
2.4650887e+3, 2.2820905e+2, -685682.94, -849998.94, 109033.94, 0.052539438, -0.23782581, -631318.7, 72207.234, 0.0, 10.000945, 9.998751 
2.4650125e+3, 2.382068e+2, -733512.2, -819292.1, 84042.12, 0.04383959, -0.30711818, -682048.44, -76501.64, 0.0, 9.999928, 9.99878 
2.4649361e+3, 2.4820566e+2, -724732.3, -673992.94, 74600.18, 0.04278171, -0.31101534, -620566.6, -113008.0, 0.0, 9.998929, 9.999584 
2.4648593e+3, 2.5820512e+2, -766602.75, -632993.8, 90558.56, 0.038110312, -0.29495326, -587265.25, -177700.3, 0.0, 9.997923, 9.999679 
2.4647829e+3, 2.6820555e+2, -742008.0, -463276.1, 105917.14, 0.014720931, -0.23950274, -427595.44, -116034.56, 0.0, 9.996959, 10.000634 
2.4647067e+3, 2.7820656e+2, -780406.56, -420641.2, 107631.234, 0.015668351, -0.17904338, -390899.78, -177348.25, 0.0, 9.9959755, 10.000731 
2.4646313e+3, 2.8820696e+2, -764578.94, -251383.6, 66807.24, 0.119559884, -0.22821566, -242829.28, -127282.875, 0.0, 9.994936, 10.001719 
2.4645549e+3, 2.9820752e+2, -850537.75, -281556.72, 44935.563, 0.14774933, -0.31047633, -278029.75, -260489.5, 0.0, 9.993845, 10.001366 
2.4644765e+3, 3.0820978e+2, -944383.5, -285689.53, 108871.805, -0.103797466, -0.19162111, -268161.16, -268161.16, 0.0, 9.992787, 10.001517 
2.4644022e+3, 3.182096e+2, -862582.75, 80169.97, -81040.42, 0.11900697, -0.35757962, 87085.59, 87085.59, 0.0, 9.991972, 10.004406 
2.4758746e+3, 1.2831938e+2, -1139157.0, -1654671.0, -1865.4159, 0.047074195, -0.28522548, -1139150.3, 543292.4, 0.3916192, 10.007948, 9.996702 
2.4757975e+3, 1.3831483e+2, -921745.2, -1570691.3, -14194.462, 0.06072029, -0.3744512, -921434.9, 663051.1, 0.28268808, 10.008338, 9.996335 
2.475718e+3, 1.4831164e+2, -808641.5, -1513398.4, -71232.84, 0.04306248, -0.288794, -801513.8, 685005.25, 0.17167026, 10.00758, 9.996396 
2.475638e+3, 1.5830894e+2, -777813.25, -1476399.6, -54443.97, 0.039810244, -0.17148595, -773595.6, 614952.2, 0.08130694, 10.006475, 9.996502 
2.4755585e+3, 1.6830513e+2, -688590.56, -1294906.1, -9563.108, 0.033258256, -0.22425671, -688439.75, 602143.94, 0.026728004, 10.005708, 9.99744 
2.4754797e+3, 1.7830123e+2, -710934.0, -1318803.8, 1145.1449, 0.016454825, -0.32066745, -710931.8, 481687.7, 0.0046778335, 10.005029, 9.996931 
2.4754009e+3, 1.882978e+2, -748028.1, -1325309.1, -5631.0728, 0.019472545, -0.29301283, -747973.2, 346681.66, 0.00017436447, 10.004251, 9.996588 
2.4753223e+3, 1.9829473e+2, -743447.5, -1232245.3, -11966.933, 0.031201927, -0.23522794, -743154.7, 253532.86, 0.00000000023303823, 10.00343, 9.996952 
2.4752444e+3, 2.0829217e+2, -651118.8, -967007.75, 30364.8, 0.03554008, -0.2435261, -648226.5, 250484.7, 0.0, 10.002663, 9.998467 
2.4751665e+3, 2.1828999e+2, -690644.56, -973820.06, 65372.133, 0.034702227, -0.27386892, -676281.6, 124448.805, 0.0, 10.001884, 9.998124 
2.4750891e+3, 2.2828759e+2, -726652.4, -935737.94, 71230.26, 0.019861354, -0.28445613, -704692.44, -1937.5978, 0.0, 10.000943, 9.998166 
2.4750116e+3, 2.3828548e+2, -754762.1, -864603.25, 46314.242, 0.0065746955, -0.28856853, -737840.6, -133063.14, 0.0, 9.9999275, 9.998472 
2.4749346e+3, 2.4828492e+2, -705549.9, -636310.6, 35612.324, 0.046384417, -0.23987938, -621263.8, -114480.02, 0.0, 9.998933, 9.999844 
2.4748574e+3, 2.5828502e+2, -747208.44, -597926.2, 52724.19, 0.08837047, -0.18824512, -581182.75, -172399.38, 0.0, 9.99794, 9.999913 
2.4747798e+3, 2.682845e+2, -728437.2, -437853.06, 67413.12, 0.043903857, -0.24761817, -422975.47, -112189.22, 0.0, 9.996964, 10.00081 
2.4747024e+3, 2.782842e+2, -793129.5, -449906.75, 69790.04, 0.006661141, -0.32737815, -436258.53, -223471.63, 0.0, 9.995981, 10.00053 
2.4746256e+3, 2.8828478e+2, -829656.7, -389598.3, 23225.182, 0.07696033, -0.29066452, -388375.97, -273593.78, 0.0, 9.994945, 10.000769 
2.4745479e+3, 2.9828572e+2, -842692.0, -272219.53, -1706.8147, 0.06580555, -0.252766, -272214.4, -255439.36, 0.0, 9.993869, 10.001421 
2.4744703e+3, 3.0828735e+2, -828948.6, -41932.895, 70225.13, 0.023434214, -0.3196496, -35715.844, -35715.844, 0.0, 9.992764, 10.003204 
2.474394e+3, 3.182913e+2, -884653.2, 8220.379, -98102.625, 0.12766975, -0.18999608, 18872.127, 18872.127, 0.0, 9.99205, 10.003893 
2.4858826e+3, 1.2839751e+2, -1007634.2, -1587341.0, 45456.24, 0.026477266, -0.27941245, -1004091.5, 677587.1, 0.3727091, 10.009125, 9.99686 
2.4858044e+3, 1.3839349e+2, -996149.8, -1588195.3, 14860.788, 0.008899139, -0.33063138, -995777.0, 587939.2, 0.2676645, 10.007352, 9.996656 
2.4857244e+3, 1.4839052e+2, -906182.7, -1498188.8, -31045.842, 0.012499171, -0.27693993, -904559.06, 581186.3, 0.16119452, 10.006394, 9.997057 
2.4856438e+3, 1.5838796e+2, -848852.6, -1474226.1, 9306.866, 0.04817554, -0.20474306, -848714.1, 539056.75, 0.07527274, 10.005746, 9.996862 
2.4855639e+3, 1.6838405e+2, -752933.06, -1351925.4, 38177.293, 0.051004175, -0.26172608, -750509.56, 539298.9, 0.024117615, 10.005352, 9.997219 
2.4854846e+3, 1.7838e+2, -716681.7, -1326305.5, 5301.3066, 0.03282109, -0.35138974, -716635.6, 475211.47, 0.0040086764, 10.005008, 9.99689 
2.4854048e+3, 1.8837698e+2, -725400.75, -1277868.1, 23501.96, 0.01269206, -0.3020897, -724402.8, 369475.72, 0.000131537, 10.004253, 9.99691 
2.4853252e+3, 1.9837444e+2, -736175.1, -1201987.0, 67084.984, 0.00011999641, -0.22018209, -726706.2, 269199.53, 0.00000000017417703, 10.003376, 9.997181 
2.4852464e+3, 2.0837177e+2, -681234.4, -980847.06, 76603.22, 0.022275811, -0.24564789, -662785.0, 235145.61, 0.0, 10.00246, 9.998467 
2.485168e+3, 2.1836932e+2, -739038.94, -991246.06, 55066.246, 0.049906492, -0.3030267, -727540.2, 72412.51, 0.0, 10.001529, 9.998174 
2.4850896e+3, 2.2836727e+2, -768212.25, -938859.8, 84432.37, 0.022380358, -0.2909882, -733498.7, -31524.732, 0.0, 10.00059, 9.998311 
2.4850109e+3, 2.3836562e+2, -789757.2, -872359.94, 108770.94, -0.010906658, -0.25964728, -714710.3, -110718.15, 0.0, 9.999657, 9.998546 
2.4849331e+3, 2.4836491e+2, -719464.06, -652452.44, 94153.164, 0.038613986, -0.22048263, -586021.0, -80021.15, 0.0, 9.998883, 9.999754 
2.4848552e+3, 2.5836468e+2, -723913.2, -595340.1, 84622.95, 0.10099088, -0.1899928, -553354.4, -145352.02, 0.0, 9.998142, 9.999832 
2.4847768e+3, 2.68364e+2, -668213.2, -416954.94, 78024.02, 0.059443466, -0.25637907, -394697.53, -84690.875, 0.0, 9.997418, 10.000731 
2.4846983e+3, 2.7836353e+2, -707061.6, -419064.1, 58764.99, 0.015714528, -0.3428887, -407534.84, -195526.17, 0.0, 9.996627, 10.000426 
2.48462e+3, 2.8836408e+2, -790231.44, -388624.5, 47502.785, 0.053027783, -0.2979052, -383082.28, -269077.6, 0.0, 9.995298, 10.000602 
2.4845411e+3, 2.9836503e+2, -844065.7, -273385.53, 75882.96, 0.025241474, -0.24291627, -263467.78, -247470.13, 0.0, 9.993863, 10.001416 
2.4844635e+3, 3.0836636e+2, -772128.8, 27519.834, 71923.45, 0.0771057, -0.35881653, 33937.4, 33937.4, 0.0, 9.992984, 10.0035715 
2.4843852e+3, 3.1837013e+2, -782655.7, 58814.86, -84230.46, 0.055265214, -0.2741548, 67163.42, 67163.42, 0.0, 9.992755, 10.003895 
2.4958904e+3, 1.2847668e+2, -1005619.9, -1611172.9, 6653.0137, -0.08811473, -0.2946549, -1005546.75, 675357.7, 0.35257465, 10.009033, 9.996615 
2.495811e+3, 1.3847424e+2, -981923.1, -1574403.9, -19145.674, -0.048179835, -0.17271453, -981305.06, 601622.9, 0.2519447, 10.007298, 9.996795 
2.4957299e+3, 1.4847063e+2, -845469.8, -1388459.1, -49707.71, -0.024231551, -0.24573612, -840956.8, 644003.0, 0.15050203, 10.006403, 9.997925 
2.4956489e+3, 1.5846689e+2, -820715.9, -1428517.3, -10250.582, 0.02116017, -0.36764684, -820543.06, 566449.4, 0.06931558, 10.005781, 9.997162 
2.4955691e+3, 1.684633e+2, -805655.75, -1467989.9, 27598.209, 0.04344538, -0.34980917, -804507.75, 484521.6, 0.021654932, 10.005352, 9.996425 
2.4954893e+3, 1.7846e+2, -735900.6, -1357013.1, -9575.472, 0.0431258, -0.29580948, -735753.06, 455311.66, 0.0034226403, 10.004959, 9.996705 
2.4954085e+3, 1.8845731e+2, -657759.56, -1130790.4, -6969.1543, -0.00841366, -0.2755172, -657656.94, 435434.1, 0.00010042115, 10.004219, 9.997938 
2.4953276e+3, 1.9845495e+2, -709161.75, -1141784.4, 34828.145, -0.06117046, -0.2705395, -706375.9, 288737.66, 0.00000000005180779, 10.003352, 9.997609 
2.4952485e+3, 2.0845205e+2, -737044.7, -1096478.0, 42562.766, 0.007482952, -0.28109744, -732073.3, 165069.4, 0.0, 10.002453, 9.99768 
2.4951696e+3, 2.1844932e+2, -757169.4, -1028464.7, 23284.484, 0.09801934, -0.2943783, -755185.44, 43985.113, 0.0, 10.001522, 9.997925 
2.49509e+3, 2.2844796e+2, -711051.5, -821865.06, 50703.773, 0.056214996, -0.2602011, -691353.1, 9830.762, 0.0, 10.000593, 9.999115 
2.4950102e+3, 2.3844711e+2, -761949.3, -817863.56, 76163.52, -0.01432222, -0.221835, -708773.94, -105582.07, 0.0, 9.999664, 9.998919 
2.4949314e+3, 2.484455e+2, -749693.0, -718342.25, 64309.527, 0.016060995, -0.25558823, -667825.25, -162617.25, 0.0, 9.998892, 9.9993 
2.4948528e+3, 2.5844404e+2, -751241.4, -656355.56, 55945.766, 0.06739864, -0.30389768, -630444.8, -223221.9, 0.0, 9.998155, 9.99941 
2.4947739e+3, 2.6844406e+2, -692471.7, -472001.72, 48175.87, 0.058501296, -0.26131928, -461934.3, -152711.53, 0.0, 9.997434, 10.000349 
2.494695e+3, 2.7844465e+2, -701370.94, -415551.44, 18086.074, 0.04364302, -0.20747052, -414411.53, -203194.78, 0.0, 9.996656, 10.000439 
2.494615e+3, 2.8844488e+2, -735441.1, -278737.88, -10144.761, 0.049294844, -0.24588516, -278512.63, -165298.8, 0.0, 9.995308, 10.001355 
2.4945344e+3, 2.9844543e+2, -854716.2, -296870.75, 35382.477, 0.017620372, -0.29340813, -294635.5, -279427.8, 0.0, 9.993864, 10.001257 
2.4944559e+3, 3.0844682e+2, -878154.5, -198226.17, 35906.734, 0.046709172, -0.2817339, -196335.2, -196335.2, 0.0, 9.993004, 10.002013 
2.494378e+3, 3.1844863e+2, -748394.4, 106280.36, 37249.492, 0.07510786, -0.28590605, 107900.74, 107900.74, 0.0, 9.992852, 10.004175 
2.5058988e+3, 1.2855801e+2, -1023154.6, -1630051.3, 47594.793, -0.10322073, -0.29821905, -1019444.75, 660661.9, 0.3314345, 10.008631, 9.996592 
2.505818e+3, 1.3855566e+2, -1008317.75, -1610023.6, 45446.81, -0.009065112, -0.1589501, -1004904.5, 577224.9, 0.23566529, 10.006998, 9.996683 
2.5057364e+3, 1.4855155e+2, -838427.1, -1416969.6, 7679.408, -0.015248897, -0.25373614, -838325.25, 645841.1, 0.13964461, 10.006547, 9.997615 
2.5056544e+3, 1.5854724e+2, -743783.4, -1404886.6, -15385.026, -0.016835274, -0.40563634, -743425.56, 642779.4, 0.06343069, 10.006385, 9.997031 
2.5055736e+3, 1.6854405e+2, -796462.44, -1441580.5, 42701.016, 0.01949642, -0.35599315, -793648.3, 494589.9, 0.019317668, 10.005318, 9.996618 
2.5054938e+3, 1.7854138e+2, -851390.7, -1386924.8, 64793.344, 0.04978355, -0.25783017, -843662.94, 346604.75, 0.002902391, 10.004058, 9.996929 
2.505412e+3, 1.8853864e+2, -751074.1, -1144315.4, 48116.555, 0.009547793, -0.266762, -745272.2, 347021.47, 0.000076247314, 10.0034485, 9.998214 
2.5053304e+3, 1.9853604e+2, -749459.25, -1144168.4, 41223.9, -0.03843883, -0.3064313, -745199.75, 249117.4, 0.0000000000010010511, 10.003005, 9.997758 
2.5052506e+3, 2.0853326e+2, -766155.7, -1120576.3, 69604.766, 0.0054917075, -0.3035478, -752976.06, 143369.61, 0.0, 10.002302, 9.997584 
2.5051707e+3, 2.1853073e+2, -754486.3, -1022886.2, 91280.49, 0.07004386, -0.2894819, -726384.8, 71987.76, 0.0, 10.00153, 9.997955 
2.5050902e+3, 2.2852947e+2, -666056.3, -774000.94, 97822.55, 0.048059855, -0.2590753, -608304.56, 92079.84, 0.0, 10.000794, 9.999345 
2.50501e+3, 2.3852868e+2, -701676.1, -779804.1, 85992.24, 0.007477732, -0.23337357, -646290.8, -43899.926, 0.0, 10.000045, 9.998994 
2.5049302e+3, 2.485268e+2, -730294.8, -734064.8, 79071.67, 0.022991711, -0.28161922, -653085.7, -148675.84, 0.0, 9.999139, 9.99907 
2.5048506e+3, 2.5852495e+2, -762444.94, -678400.56, 85168.76, 0.051657137, -0.34233078, -625451.25, -219022.78, 0.0, 9.998156, 9.999254 
2.5047708e+3, 2.6852515e+2, -755572.5, -507256.28, 98820.15, 0.051957175, -0.2756444, -472730.25, -164303.03, 0.0, 9.997026, 10.0003 
2.5046912e+3, 2.78526e+2, -806970.3, -462674.9, 88731.84, 0.05557473, -0.19064003, -441152.34, -230733.23, 0.0, 9.99592, 10.000468 
2.5046104e+3, 2.8852606e+2, -687935.44, -237141.5, 31509.041, 0.058087878, -0.25441083, -234949.77, -122532.38, 0.0, 9.995559, 10.001517 
2.5045288e+3, 2.9852644e+2, -669676.75, -245648.52, 34535.17, 0.024079176, -0.32983518, -242854.2, -228441.39, 0.0, 9.995303, 10.000911 
2.5044492e+3, 3.0852798e+2, -775736.5, -283877.78, 51186.023, 0.06243737, -0.20765686, -278607.5, -278607.5, 0.0, 9.994288, 10.000804 
2.5043702e+3, 3.1852788e+2, -841769.8, 98854.21, 104849.625, 0.0810226, -0.31358582, 110399.88, 110399.88, 0.0, 9.992057, 10.004505 
2.5159073e+3, 1.2864092e+2, -1001292.0, -1618262.9, 551.769, -0.061146356, -0.2975856, -1001291.5, 677999.9, 0.30959988, 10.008574, 9.996716 
2.515826e+3, 1.3863769e+2, -1013680.75, -1660901.9, 9902.974, 0.09625228, -0.25086167, -1013529.25, 567792.9, 0.21904948, 10.007013, 9.99632 
2.5157428e+3, 1.4863326e+2, -902519.3, -1583302.9, 5339.839, 0.02519465, -0.28560093, -902477.44, 580888.2, 0.1287391, 10.006559, 9.996396 
2.51566e+3, 1.5862882e+2, -772784.2, -1471632.5, -28697.984, -0.0676236, -0.3423519, -771607.7, 613801.56, 0.05765206, 10.006352, 9.996591 
2.5155783e+3, 1.6862608e+2, -730371.56, -1302495.5, -2136.4412, -0.020010184, -0.29749674, -730363.56, 557072.94, 0.017101672, 10.005305, 9.9975815 
2.5154972e+3, 1.7862393e+2, -813920.2, -1313392.9, 28974.197, 0.049651302, -0.23572674, -812245.06, 377213.06, 0.002437748, 10.00407, 9.99743 
2.5154158e+3, 1.886208e+2, -774034.1, -1198919.6, 33168.78, 0.059906833, -0.27352786, -771460.4, 320027.5, 0.000056583125, 10.003472, 9.997831 
2.5153342e+3, 1.986177e+2, -753853.2, -1156876.9, 22820.518, 0.05311543, -0.33152315, -752565.1, 240951.95, 0.0, 10.0030155, 9.997668 
2.5152525e+3, 2.0861536e+2, -730886.44, -1048930.8, 41502.156, 0.010974958, -0.31476104, -725559.94, 169980.34, 0.0, 10.002303, 9.998077 
2.515171e+3, 2.1861343e+2, -741536.6, -993836.6, 64343.742, -0.034250777, -0.2852506, -726074.7, 71485.21, 0.0, 10.001514, 9.998165 
2.5150904e+3, 2.2861172e+2, -688590.4, -821361.4, 70793.055, -0.00087302213, -0.28504914, -657925.94, 41650.51, 0.0, 10.000792, 9.999023 
2.5150102e+3, 2.3861028e+2, -715578.94, -811237.3, 55644.715, 0.049803615, -0.29488215, -690032.6, -88442.43, 0.0, 10.000051, 9.998778 
2.5149295e+3, 2.4860875e+2, -731364.6, -738974.3, 41380.24, 0.058161017, -0.29747555, -693614.7, -190008.78, 0.0, 9.999145, 9.999036 
2.5148484e+3, 2.5860748e+2, -754474.9, -665104.56, 44548.383, 0.050451133, -0.3006922, -646692.0, -241072.83, 0.0, 9.998164, 9.999345 
2.5147673e+3, 2.6860717e+2, -735706.6, -464906.84, 52543.71, 0.036343053, -0.3047071, -455069.1, -147448.4, 0.0, 9.997017, 10.000598 
2.5146866e+3, 2.7860737e+2, -808745.44, -462859.84, 58745.59, 0.039083462, -0.31211132, -453154.75, -243537.66, 0.0, 9.995899, 10.00048 
2.5146058e+3, 2.8860757e+2, -724487.75, -318109.56, 26438.248, 0.08109921, -0.3265947, -316396.75, -204780.81, 0.0, 9.995575, 10.000957 
2.5145242e+3, 2.986081e+2, -693696.56, -315386.25, 13647.491, 0.06542371, -0.32621545, -314894.56, -301282.4, 0.0, 9.995382, 10.000397 
2.5144437e+3, 3.0860943e+2, -805190.3, -362573.72, 2385.7363, 0.096403874, -0.17822854, -362560.88, -362560.88, 0.0, 9.994358, 10.000233 
2.5143608e+3, 3.1860748e+2, -831099.5, 150387.72, -99938.38, -0.022559684, -0.42707965, 160460.4, 160460.4, 0.0, 9.991939, 10.004911 
2.5259155e+3, 1.2872438e+2, -987194.4, -1641979.8, -22784.62, -0.054776367, -0.2625829, -986402.5, 692069.8, 0.28741065, 10.008633, 9.996437 
2.5258327e+3, 1.387199e+2, -964932.3, -1659139.8, -22213.266, 0.099992916, -0.31439984, -964222.25, 616293.44, 0.20233688, 10.007413, 9.9961405 
2.5257492e+3, 1.487158e+2, -891399.56, -1582536.6, 40145.38, 0.03631067, -0.30798927, -889075.5, 593481.0, 0.11791573, 10.006602, 9.996377 
2.5256658e+3, 1.5871203e+2, -823872.2, -1491453.9, 61688.504, -0.04950864, -0.29306868, -818219.7, 566374.5, 0.052026134, 10.005927, 9.996657 
2.5255832e+3, 1.6870919e+2, -726853.25, -1274947.0, 56452.07, -0.024132483, -0.27593765, -721099.3, 565522.6, 0.015011212, 10.005212, 9.997813 
2.525501e+3, 1.7870674e+2, -745247.94, -1271352.1, 51184.72, 0.02147598, -0.26273602, -740314.44, 448331.03, 0.0020230755, 10.004509, 9.997505 
2.525419e+3, 1.8870366e+2, -720082.5, -1197486.9, 65461.79, 0.043663144, -0.2819062, -711269.1, 379406.47, 0.000040505216, 10.003955, 9.997604 
2.525337e+3, 1.9870065e+2, -699174.9, -1131617.5, 55255.617, 0.057809867, -0.30936125, -692226.25, 300478.66, 0.0, 10.003402, 9.997652 
2.5252548e+3, 2.0869838e+2, -703476.1, -997822.94, 55346.14, 0.01354741, -0.30714348, -693413.4, 201313.03, 0.0, 10.002334, 9.99841 
2.525172e+3, 2.186965e+2, -783096.44, -997238.2, 71900.63, -0.03917176, -0.30050656, -761194.94, 35549.074, 0.0, 10.0011635, 9.998307 
2.5250906e+3, 2.2869462e+2, -761631.0, -879656.9, 89163.72, -0.0014367355, -0.3087706, -713720.2, -14957.43, 0.0, 10.000397, 9.998811 
2.52501e+3, 2.3869295e+2, -766967.5, -844034.75, 79885.125, 0.059938136, -0.32084808, -716808.0, -116028.555, 0.0, 9.99974, 9.9987 
2.5249282e+3, 2.4869177e+2, -722599.1, -719573.1, 76179.086, 0.06584623, -0.2936993, -644892.0, -142100.17, 0.0, 9.999146, 9.999166 
2.5248465e+3, 2.5869092e+2, -696701.06, -628974.3, 83800.85, 0.053052343, -0.26578104, -572453.44, -167652.44, 0.0, 9.998532, 9.999412 
2.5247645e+3, 2.6869014e+2, -648686.7, -430084.4, 63932.195, 0.03798605, -0.3163944, -412759.88, -105952.96, 0.0, 9.997651, 10.000527 
2.5246823e+3, 2.7868965e+2, -703269.9, -419760.47, 51087.742, 0.043611743, -0.38005036, -410835.53, -202026.5, 0.0, 9.996663, 10.000403 
2.5246012e+3, 2.8869024e+2, -719154.75, -326889.22, 54253.277, 0.09153904, -0.34632558, -319523.88, -208719.23, 0.0, 9.995667, 10.000848 
2.524519e+3, 2.9869118e+2, -792123.75, -355707.63, 70964.97, 0.08131612, -0.29354733, -344458.1, -331660.7, 0.0, 9.994685, 10.000451 
2.524437e+3, 3.0869183e+2, -867946.5, -361970.47, 102427.41, 0.0569696, -0.23543099, -342022.03, -342022.03, 0.0, 9.993805, 10.000499 
2.5243533e+3, 3.1869218e+2, -677186.25, 214362.25, -87067.29, 0.012313723, -0.26549235, 222785.53, 222785.53, 0.0, 9.993044, 10.004815 
2.5359237e+3, 1.2880838e+2, -1008469.4, -1721320.0, -59198.637, -0.08357299, -0.19963686, -1003586.7, 674062.4, 0.2651961, 10.008509, 9.995865 
2.535839e+3, 1.3880236e+2, -960302.4, -1668323.6, -49721.01, 0.025088836, -0.3579029, -956827.75, 622880.56, 0.18574381, 10.0073595, 9.996107 
2.5357553e+3, 1.4879912e+2, -830935.8, -1462338.5, 18514.162, 0.023930212, -0.3237356, -830393.4, 651346.25, 0.10729223, 10.006602, 9.997218 
2.5356722e+3, 1.5879665e+2, -792783.56, -1433654.6, 35154.355, 0.018448692, -0.25546086, -790860.94, 592902.0, 0.046599805, 10.005935, 9.997052 
2.5355884e+3, 1.6879322e+2, -751432.75, -1329547.6, 28883.96, -0.0033673188, -0.28390282, -749993.2, 535803.2, 0.013054961, 10.005209, 9.997441 
2.5355047e+3, 1.7878982e+2, -768226.4, -1315288.5, 27896.012, -0.034048945, -0.32850805, -766807.56, 421021.97, 0.0016561309, 10.004485, 9.997217 
2.5354218e+3, 1.8878716e+2, -731625.1, -1217559.9, 47602.977, -0.031574596, -0.28956738, -727005.75, 362851.34, 0.000027817085, 10.003933, 9.997479 
2.5353396e+3, 1.987848e+2, -702983.56, -1133818.3, 28306.127, -0.017283184, -0.24288103, -701131.8, 290749.75, 0.0, 10.003372, 9.997654 
2.5352564e+3, 2.0878224e+2, -690869.9, -972013.1, 10842.898, 0.014343939, -0.28226125, -690452.4, 203452.55, 0.0, 10.002331, 9.998592 
2.5351736e+3, 2.1877989e+2, -777421.8, -988898.6, 36231.668, 0.044473495, -0.33817303, -771386.56, 24539.072, 0.0, 10.001173, 9.9983635 
2.535091e+3, 2.2877808e+2, -770105.1, -900476.1, 65103.51, 0.04100269, -0.33096227, -743162.4, -45218.42, 0.0, 10.000404, 9.998666 
2.535009e+3, 2.3877664e+2, -764890.1, -842083.44, 56063.77, 0.03321429, -0.30924332, -735421.75, -135462.67, 0.0, 9.999743, 9.9987135 
2.5349268e+3, 2.4877578e+2, -701591.3, -678256.0, 52835.023, 0.044091783, -0.2691015, -635815.7, -133847.48, 0.0, 9.999151, 9.999449 
2.5348446e+3, 2.587752e+2, -693510.6, -627233.8, 55925.297, 0.05347738, -0.23786862, -595366.1, -191391.63, 0.0, 9.998548, 9.999419 
2.534762e+3, 2.6877388e+2, -681119.3, -502931.66, 25846.129, 0.057960182, -0.30663553, -499258.4, -193271.86, 0.0, 9.997669, 10.000022 
2.5346792e+3, 2.7877286e+2, -710491.25, -444118.44, 11501.812, 0.07252281, -0.38355437, -443622.72, -235627.14, 0.0, 9.996697, 10.000222 
2.5345963e+3, 2.8877404e+2, -691883.75, -271750.16, 11718.302, 0.08091237, -0.3099996, -271423.6, -161439.3, 0.0, 9.995668, 10.001228 
2.534513e+3, 2.9877555e+2, -746850.2, -253937.98, 35037.996, 0.0367403, -0.24650203, -251459.83, -239489.89, 0.0, 9.994646, 10.001172 
2.5344294e+3, 3.0877554e+2, -783789.06, -179385.56, 74492.47, -0.03470246, -0.3622808, -170339.78, -170339.78, 0.0, 9.993765, 10.001774 
2.5343475e+3, 3.187788e+2, -741794.7, 32171.934, -150025.27, 0.14386797, -0.17544976, 60235.203, 60235.203, 0.0, 9.993206, 10.003509 
2.5459316e+3, 1.2889223e+2, -1071019.0, -1759911.3, -41190.92, -0.04660383, -0.23783828, -1068564.8, 608261.1, 0.24324903, 10.007699, 9.995986 
2.5458458e+3, 1.3888673e+2, -975883.56, -1674420.6, 4179.659, -0.00013296191, -0.35333866, -975858.5, 603021.75, 0.16945595, 10.007086, 9.996191 
2.5457615e+3, 1.488833e+2, -824843.75, -1463049.0, 53088.082, 0.004011801, -0.33762452, -820457.8, 660455.7, 0.09696772, 10.006601, 9.997208 
2.5456777e+3, 1.5888056e+2, -763738.44, -1420346.4, 19172.045, 0.02237789, -0.29645166, -763179.1, 619760.7, 0.041412685, 10.0061245, 9.997048 
2.5455934e+3, 1.6887733e+2, -758125.25, -1335837.0, 10919.556, 0.0022074706, -0.30031547, -757918.9, 527052.44, 0.011241116, 10.005172, 9.997414 
2.5455084e+3, 1.7887424e+2, -816854.56, -1334453.8, 35045.62, -0.034829374, -0.31419945, -814492.44, 372509.7, 0.0013360184, 10.004135, 9.997252 
2.545425e+3, 1.8887147e+2, -798686.5, -1233251.4, 80759.6, -0.0444472, -0.29416698, -784163.44, 304866.8, 0.000018404051, 10.003407, 9.9976225 
2.545342e+3, 1.9886899e+2, -785871.3, -1166921.9, 72243.305, -0.037903804, -0.27095202, -772634.5, 218421.06, 0.0, 10.00278, 9.997709 
2.5452584e+3, 2.088666e+2, -699891.2, -987802.75, 37027.16, 0.016269734, -0.28825885, -695205.56, 197872.56, 0.0, 10.002325, 9.998484 
2.545175e+3, 2.188644e+2, -681255.25, -947651.94, 40933.855, 0.07466552, -0.31711134, -675107.3, 119990.71, 0.0, 10.001863, 9.998311 
2.5450915e+3, 2.2886246e+2, -702006.6, -865850.94, 72523.87, 0.05227819, -0.32007664, -674516.94, 22600.307, 0.0, 10.000871, 9.998675 
2.5450084e+3, 2.3886088e+2, -755752.75, -824743.8, 77010.875, 0.017430115, -0.31588477, -705864.56, -106730.98, 0.0, 9.999758, 9.998822 
2.5449255e+3, 2.4886009e+2, -721254.6, -658469.7, 79994.35, 0.035826094, -0.28919634, -603928.56, -102787.25, 0.0, 9.998897, 9.999704 
2.5448427e+3, 2.5885966e+2, -752602.06, -641293.4, 78967.74, 0.06372528, -0.26554593, -600338.6, -197193.0, 0.0, 9.998087, 9.999541 
2.5447592e+3, 2.6885858e+2, -737228.5, -541225.0, 69183.79, 0.0731087, -0.3031171, -519265.34, -214109.3, 0.0, 9.997339, 9.999914 
2.5446755e+3, 2.7885777e+2, -731638.3, -459829.47, 78558.7, 0.08861452, -0.34725168, -438757.84, -231593.6, 0.0, 9.996583, 10.000166 
2.5445917e+3, 2.8885874e+2, -680881.25, -262857.4, 59116.547, 0.08159997, -0.29415154, -254658.03, -145503.14, 0.0, 9.995733, 10.001255 
2.5445074e+3, 2.988601e+2, -697001.4, -196602.19, 55418.445, 0.025229821, -0.2516396, -190538.16, -179396.83, 0.0, 9.994848, 10.001467 
2.544423e+3, 3.0886066e+2, -659936.94, -26146.865, 58499.066, -0.03669011, -0.37155867, -20792.611, -20792.611, 0.0, 9.994221, 10.002602 
2.5443405e+3, 3.1886187e+2, -774824.56, -134418.8, -155831.03, 0.16403523, -0.441995, -98513.27, -98513.27, 0.0, 9.993649, 10.00214 
2.5559396e+3, 1.2897617e+2, -1029524.5, -1675445.5, -59059.465, 0.026396297, -0.33947304, -1024168.9, 651832.06, 0.2217985, 10.007613, 9.99661 
2.5558525e+3, 1.3897265e+2, -955001.25, -1656734.8, -11899.4375, 0.003543955, -0.31089225, -954799.56, 623235.9, 0.15362313, 10.007106, 9.996304 
2.5557673e+3, 1.4896822e+2, -859829.6, -1560264.3, 40799.46, -0.026801609, -0.35100177, -857461.1, 622618.44, 0.08702402, 10.006605, 9.9965315 
2.555683e+3, 1.58964e+2, -788437.9, -1470653.8, -1393.0691, -0.026434202, -0.39770955, -788435.06, 593686.8, 0.036497943, 10.006076, 9.99673 
2.555598e+3, 1.6896166e+2, -744031.2, -1305049.9, -24972.143, -0.0049698204, -0.32062984, -742921.8, 541223.75, 0.009576233, 10.005155, 9.997636 
2.5555128e+3, 1.7895979e+2, -794873.44, -1293899.5, 4369.6567, 0.0067012967, -0.23252836, -794835.2, 391329.2, 0.001061297, 10.004152, 9.997524 
2.5554284e+3, 1.8895651e+2, -771102.3, -1181247.4, 57882.605, -0.006043168, -0.2981273, -763090.0, 325105.9, 0.000011845724, 10.003423, 9.997974 
2.5553447e+3, 1.9895323e+2, -781454.75, -1158735.6, 52140.97, -0.015970673, -0.38427347, -774381.4, 215845.8, 0.0, 10.002779, 9.997768 
2.5552604e+3, 2.0895138e+2, -728208.1, -1046927.5, 22632.04, 0.016593765, -0.320031, -726609.06, 165637.31, 0.0, 10.002321, 9.998082 
2.5551763e+3, 2.1894994e+2, -695814.9, -975191.94, 17538.303, 0.051404864, -0.23760948, -694718.2, 99543.51, 0.0, 10.001845, 9.998133 
2.5550917e+3, 2.289477e+2, -691859.9, -844896.25, 31026.4, 0.03254046, -0.27713332, -685808.9, 10474.461, 0.0, 10.000867, 9.998824 
2.5550076e+3, 2.3894556e+2, -741944.4, -798803.6, 39439.613, 0.007107495, -0.3429186, -721755.8, -123452.35, 0.0, 9.999764, 9.999001 
2.5549242e+3, 2.4894457e+2, -706476.5, -629848.9, 48076.637, 0.040130697, -0.35686114, -606686.6, -106374.51, 0.0, 9.9989, 9.999903 
2.5548404e+3, 2.5894412e+2, -735485.3, -607456.0, 48125.258, 0.07969115, -0.35365587, -591383.7, -189068.22, 0.0, 9.998089, 9.999776 
2.554756e+3, 2.689442e+2, -715875.56, -496659.25, 40034.91, 0.07900969, -0.30510083, -489576.6, -185261.13, 0.0, 9.997334, 10.000226 
2.5546718e+3, 2.7894452e+2, -726655.94, -451748.9, 49549.36, 0.08031524, -0.26376414, -443090.78, -236776.86, 0.0, 9.996588, 10.000222 
2.554587e+3, 2.889443e+2, -707841.9, -320701.2, 26042.838, 0.09850174, -0.30231306, -318957.16, -210640.45, 0.0, 9.995735, 10.00086 
2.5545022e+3, 2.989447e+2, -713194.44, -233450.69, 27455.459, 0.06838697, -0.31983235, -231884.53, -221571.31, 0.0, 9.994857, 10.001212 
2.5544178e+3, 3.089472e+2, -656923.1, -27889.043, 28652.959, 0.035273165, -0.23637992, -26586.576, -26586.576, 0.0, 9.994249, 10.002581 
2.554333e+3, 3.189466e+2, -793648.7, -179299.03, -97415.06, 0.076015994, -0.48282415, -164222.3, -164222.3, 0.0, 9.993684, 10.001809 
2.565947e+3, 1.2906146e+2, -1050923.5, -1666491.6, -16614.314, 0.03664142, -0.38312653, -1050475.5, 624688.0, 0.20102453, 10.007132, 9.996911 
2.5658593e+3, 1.3905843e+2, -877866.75, -1601187.8, 9137.801, -0.01177045, -0.33107853, -877751.3, 699441.2, 0.1383651, 10.007552, 9.9964695 
2.5657734e+3, 1.4905424e+2, -854753.4, -1567305.1, 68854.91, -0.043739203, -0.34703273, -848160.8, 631074.25, 0.07752884, 10.006626, 9.996473 
2.5656882e+3, 1.590501e+2, -873203.94, -1517163.8, 62207.758, -0.039163068, -0.375596, -867249.6, 514027.72, 0.031884346, 10.00547, 9.996701 
2.5656027e+3, 1.6904753e+2, -771956.6, -1318304.3, 40673.79, -0.0032066354, -0.32037932, -768945.2, 514358.4, 0.008065048, 10.004956, 9.997639 
2.5655168e+3, 1.7904541e+2, -735139.2, -1262673.3, 53558.645, 0.026308548, -0.2572908, -729756.5, 455568.38, 0.0008291185, 10.004557, 9.997541 
2.565432e+3, 1.8904227e+2, -728680.2, -1157779.3, 82661.12, 0.016607344, -0.30915347, -713307.2, 374047.8, 0.000007464854, 10.003708, 9.997996 
2.5653473e+3, 1.9903918e+2, -778363.44, -1150032.0, 61286.727, 0.0044247266, -0.37813395, -768518.25, 220866.17, 0.0, 10.002773, 9.9978285 
2.5652623e+3, 2.0903727e+2, -766993.44, -1053843.4, 61751.84, 0.014363303, -0.32669, -754264.6, 137139.4, 0.0, 10.00201, 9.998181 
2.5651774e+3, 2.1903577e+2, -769051.44, -1000313.3, 83284.41, 0.027309585, -0.25817773, -742180.44, 51239.457, 0.0, 10.001305, 9.998218 
2.565092e+3, 2.290337e+2, -707310.4, -844955.25, 92416.01, 0.024925837, -0.28625154, -660905.9, 34534.17, 0.0, 10.000735, 9.998884 
2.5650072e+3, 2.3903172e+2, -682822.1, -765702.2, 92445.45, 0.02468434, -0.337812, -622953.5, -25495.018, 0.0, 10.000157, 9.999035 
2.564923e+3, 2.4903065e+2, -659318.25, -610574.5, 84148.17, 0.055417426, -0.35715508, -547339.9, -47871.746, 0.0, 9.999246, 9.999865 
2.5648382e+3, 2.590301e+2, -709732.1, -591780.75, 67469.69, 0.08669653, -0.36316153, -561144.56, -159671.56, 0.0, 9.998258, 9.999799 
2.5647533e+3, 2.6903033e+2, -696447.2, -474180.8, 46301.31, 0.07182726, -0.3073676, -464921.3, -161449.81, 0.0, 9.9974165, 10.000338 
2.5646678e+3, 2.7903083e+2, -723993.94, -446269.16, 41712.09, 0.06573993, -0.2545409, -440139.63, -234671.69, 0.0, 9.996593, 10.000256 
2.5645828e+3, 2.890305e+2, -686227.4, -320204.84, 34581.504, 0.10814392, -0.30037776, -316966.28, -209493.98, 0.0, 9.9959345, 10.000765 
2.564497e+3, 2.990307e+2, -667703.44, -228288.44, 54103.336, 0.10259271, -0.3243155, -221724.95, -212254.02, 0.0, 9.995251, 10.001054 
2.5644118e+3, 3.090332e+2, -698550.0, -86001.29, 40372.297, 0.064695366, -0.21572003, -83351.86, -83351.86, 0.0, 9.99413, 10.002238 
2.564326e+3, 3.1903493e+2, -737499.6, -60253.555, 1180.1603, 0.042900242, -0.20292465, -60251.496, -60251.496, 0.0, 9.993679, 10.002627 
2.575953e+3, 1.2914774e+2, -1034363.44, -1655631.0, 418.80243, -0.0018933581, -0.3900261, -1034363.2, 639953.5, 0.18111494, 10.007092, 9.997015 
2.5758663e+3, 1.3914426e+2, -864776.8, -1579283.3, 5700.0415, -0.045222726, -0.39396587, -864731.3, 711618.1, 0.12380476, 10.007469, 9.996661 
2.5757796e+3, 1.4914124e+2, -830435.56, -1515822.1, 25608.91, -0.05380331, -0.3247701, -829480.06, 648900.94, 0.06855069, 10.006574, 9.996852 
2.5756937e+3, 1.5913841e+2, -863865.94, -1496908.5, 29281.785, -0.027342772, -0.25765058, -862514.4, 517896.88, 0.02760001, 10.005444, 9.996856 
2.5756073e+3, 1.6913469e+2, -786005.06, -1347385.5, 27259.26, 0.003391711, -0.30771926, -784684.5, 497763.78, 0.0067111123, 10.004944, 9.997448 
2.5755212e+3, 1.7913112e+2, -752763.6, -1296355.0, 31851.467, 0.023431718, -0.37080547, -750903.7, 433579.88, 0.000636049, 10.004539, 9.997322 
2.5754353e+3, 1.8912871e+2, -751139.4, -1200729.4, 48324.85, 0.0244889, -0.32277197, -746003.75, 340504.2, 0.0000046197197, 10.003687, 9.997714 
2.5753498e+3, 1.9912666e+2, -778109.7, -1144643.0, 31863.852, 0.021331286, -0.26488733, -775360.3, 213168.19, 0.0, 10.0027485, 9.99788 
2.575264e+3, 2.0912416e+2, -729506.25, -977517.7, 36200.84, 0.008296181, -0.31281188, -724330.25, 166221.67, 0.0, 10.002011, 9.998708 
2.5751778e+3, 2.1912184e+2, -746783.4, -957104.6, 60609.758, -0.0034146018, -0.3751928, -730567.3, 62006.13, 0.0, 10.001313, 9.998513 
2.575093e+3, 2.2912039e+2, -709420.8, -851813.3, 72777.945, 0.028162645, -0.34416273, -678805.8, 15782.19, 0.0, 10.00074, 9.998837 
2.5750077e+3, 2.3911932e+2, -691944.4, -786021.9, 65040.11, 0.067000054, -0.29941002, -658715.7, -62116.508, 0.0, 10.000158, 9.998898 
2.574922e+3, 2.4911833e+2, -679741.7, -653977.94, 45253.023, 0.07927484, -0.286947, -619809.0, -121199.28, 0.0, 9.999247, 9.999569 
2.5748363e+3, 2.591175e+2, -722794.94, -622656.06, 31744.805, 0.07712941, -0.28756484, -613440.75, -212822.56, 0.0, 9.998269, 9.999584 
2.57475e+3, 2.6911682e+2, -704891.5, -494354.0, 13220.924, 0.05006296, -0.31310105, -493527.03, -190901.73, 0.0, 9.997421, 10.0002 
2.5746638e+3, 2.7911645e+2, -722557.06, -445788.16, 11800.346, 0.040765204, -0.3351969, -445285.97, -240657.08, 0.0, 9.996598, 10.000259 
2.5745782e+3, 2.8911722e+2, -669505.94, -289041.34, 8601.033, 0.102723, -0.28390563, -288847.0, -182224.88, 0.0, 9.995944, 10.000977 
2.574492e+3, 2.991183e+2, -666851.44, -235099.2, 20482.668, 0.11016247, -0.2392599, -234129.67, -225517.1, 0.0, 9.995281, 10.000995 
2.5744054e+3, 3.0911815e+2, -731362.25, -155634.58, -6496.763, 0.05856773, -0.3554118, -155561.27, -155561.27, 0.0, 9.99413, 10.001763 
2.5743195e+3, 3.1912184e+2, -676994.7, 57721.906, 57083.13, 0.078827366, -0.13380682, 62130.473, 62130.473, 0.0, 9.993698, 10.003435 
2.58596e+3, 1.2923479e+2, -990096.44, -1635897.4, 44704.83, -0.009857788, -0.39625168, -987016.5, 686446.1, 0.16226391, 10.007302, 9.997077 
2.5858727e+3, 1.3923131e+2, -939839.06, -1614536.0, 33811.37, -0.041287284, -0.4045361, -938148.9, 637346.3, 0.11007444, 10.006753, 9.996766 
2.5857857e+3, 1.4922827e+2, -903134.75, -1539740.8, 24720.887, -0.047200795, -0.34918955, -902176.2, 575350.5, 0.060161117, 10.005935, 9.996993 
2.5856984e+3, 1.5922546e+2, -900533.0, -1506771.3, 24474.387, -0.019552935, -0.29229614, -899546.56, 480010.16, 0.023670537, 10.005136, 9.996933 
2.5856116e+3, 1.6922197e+2, -823985.94, -1368876.9, 42364.05, -0.0035358295, -0.319071, -820711.9, 460880.06, 0.0055156834, 10.004695, 9.997418 
2.585525e+3, 1.7921862e+2, -788301.3, -1305488.0, 46909.17, 0.0020343615, -0.3583336, -784081.06, 399544.5, 0.00047864087, 10.004264, 9.997391 
2.5854385e+3, 1.8921626e+2, -803651.5, -1203885.5, 74601.42, 0.018499281, -0.31861353, -790198.4, 295450.66, 0.0000028007903, 10.003236, 9.997908 
2.585352e+3, 1.9921428e+2, -848986.9, -1160654.9, 94338.125, 0.035647858, -0.27234703, -822656.4, 165012.52, 0.0, 10.002188, 9.998038 
2.5852656e+3, 2.0921181e+2, -724876.6, -963938.44, 95917.734, 0.013898811, -0.3269322, -691150.06, 198541.69, 0.0, 10.002, 9.998804 
2.585179e+3, 2.192095e+2, -656877.9, -904207.6, 83520.164, -0.009428439, -0.39614928, -631316.0, 160396.88, 0.0, 10.001896, 9.998592 
2.585093e+3, 2.2920811e+2, -687474.2, -837184.0, 83022.81, 0.028109217, -0.36269102, -650543.4, 43183.727, 0.0, 10.000881, 9.998867 
2.5850073e+3, 2.3920713e+2, -757976.1, -817634.2, 82934.734, 0.077567115, -0.3088732, -699669.25, -103931.41, 0.0, 9.99971, 9.998894 
2.5849208e+3, 2.492063e+2, -720317.9, -679528.4, 80630.484, 0.08833044, -0.2754558, -616753.3, -119006.0, 0.0, 9.998999, 9.99951 
2.584834e+3, 2.592056e+2, -713320.06, -624011.75, 83823.43, 0.08369916, -0.2586541, -573690.3, -173935.06, 0.0, 9.998366, 9.999525 
2.5847474e+3, 2.692045e+2, -662710.06, -483349.9, 72207.42, 0.053424492, -0.31434456, -457893.44, -156127.38, 0.0, 9.997758, 10.00011 
2.5846604e+3, 2.7920368e+2, -653724.2, -413935.6, 69397.51, 0.045712113, -0.37012085, -395299.56, -191526.08, 0.0, 9.997083, 10.000241 
2.584574e+3, 2.8920475e+2, -656015.44, -275149.56, 53418.273, 0.11565122, -0.29345676, -267799.25, -162035.75, 0.0, 9.996009, 10.001039 
2.5844872e+3, 2.9920602e+2, -720336.5, -271377.13, 60468.875, 0.11528021, -0.22820355, -263375.38, -255623.95, 0.0, 9.994962, 10.0009 
2.5843993e+3, 3.0920509e+2, -604848.44, -127197.59, 51009.492, 0.0025766103, -0.4041915, -121810.914, -121810.914, 0.0, 9.995146, 10.001466 
2.5843135e+3, 3.1920758e+2, -645176.06, 27895.994, 48178.26, 0.09386813, -0.2703194, 31327.088, 31327.088, 0.0, 9.994124, 10.003018 
2.5959668e+3, 1.2932256e+2, -988902.2, -1637367.8, 27058.102, -0.008827569, -0.39489052, -987775.1, 684826.4, 0.14460975, 10.007182, 9.997111 
2.5958797e+3, 1.3931935e+2, -942348.4, -1621101.8, 10425.445, -0.01678136, -0.37961257, -942188.25, 632443.44, 0.09728066, 10.006664, 9.996763 
2.5957912e+3, 1.493154e+2, -903213.3, -1549445.9, -5277.4697, -0.030562079, -0.41294542, -903170.2, 573501.5, 0.052420855, 10.005924, 9.996935 
2.5957033e+3, 1.5931167e+2, -893353.75, -1503876.9, 3496.7212, -0.020168759, -0.44339043, -893333.75, 485376.28, 0.020115813, 10.005168, 9.996941 
2.5956157e+3, 1.693095e+2, -818157.25, -1357827.0, 31460.182, -0.024087347, -0.3448564, -816329.5, 464403.9, 0.0044772606, 10.00469, 9.9974985 
2.5955284e+3, 1.793077e+2, -775242.2, -1268055.0, 23110.873, -0.03630013, -0.24070466, -774160.75, 408592.06, 0.00035320935, 10.004214, 9.997673 
2.595441e+3, 1.8930481e+2, -766072.1, -1124142.0, 32139.574, -0.00063385145, -0.30232072, -763210.25, 321569.7, 0.0000016193491, 10.003223, 9.998464 
2.595354e+3, 1.99302e+2, -832759.94, -1131097.3, 69698.59, 0.04180231, -0.3872469, -817279.94, 169526.1, 0.0, 10.002201, 9.998237 
2.5952673e+3, 2.0930016e+2, -745215.9, -1008224.7, 96091.484, 0.028627392, -0.36365825, -713849.25, 174974.83, 0.0, 10.002005, 9.9985 
2.5951806e+3, 2.1929863e+2, -669464.75, -926438.1, 65260.96, 0.005739006, -0.32710806, -653841.0, 136998.28, 0.0, 10.001875, 9.998453 
2.5950935e+3, 2.2929676e+2, -683410.5, -827293.2, 37807.91, 0.022554295, -0.34474686, -674080.75, 18777.51, 0.0, 10.000872, 9.998941 
2.5950062e+3, 2.3929511e+2, -749234.75, -801238.6, 46713.574, 0.04966151, -0.36744478, -721774.0, -126898.91, 0.0, 9.999713, 9.999008 
2.5949195e+3, 2.4929449e+2, -708375.6, -656459.25, 56142.44, 0.0813944, -0.3251647, -620564.4, -123682.91, 0.0, 9.999001, 9.999671 
2.5948325e+3, 2.592942e+2, -706925.6, -614031.25, 59976.12, 0.10367464, -0.28008172, -584620.2, -185735.5, 0.0, 9.998375, 9.999592 
2.594745e+3, 2.6929337e+2, -665282.4, -491251.34, 48526.855, 0.081059426, -0.30847594, -478634.75, -177741.23, 0.0, 9.997766, 10.000054 
2.5946572e+3, 2.7929267e+2, -655012.2, -422399.5, 37512.0, 0.07468953, -0.3493239, -416499.78, -213599.16, 0.0, 9.997103, 10.000175 
2.59457e+3, 2.8929296e+2, -664213.6, -292800.56, 8097.5693, 0.1522808, -0.33622363, -292624.1, -187727.28, 0.0, 9.996006, 10.000922 
2.5944817e+3, 2.992937e+2, -730817.25, -290067.9, 43861.168, 0.13055077, -0.3128663, -285745.44, -278856.47, 0.0, 9.994943, 10.000784 
2.5943923e+3, 3.0929425e+2, -607516.9, -149363.58, 72549.375, -0.15845165, -0.32614326, -138149.73, -138149.73, 0.0, 9.995211, 10.0012865 
2.5943077e+3, 3.192943e+2, -723716.56, -135106.9, -169760.03, 0.15227064, -0.39311245, -89656.234, -89656.234, 0.0, 9.994116, 10.001908 
2.6059732e+3, 1.2941098e+2, -1047696.1, -1659503.5, 42027.67, -0.021661356, -0.37389284, -1044822.56, 626912.7, 0.12819993, 10.006548, 9.997239 
2.6058856e+3, 1.3940766e+2, -1012382.1, -1643722.3, 33185.953, -0.017586483, -0.38198832, -1010642.5, 563124.0, 0.08547292, 10.005998, 9.996929 
2.6057968e+3, 1.4940394e+2, -894737.56, -1523745.1, 34842.8, -0.036132652, -0.4096917, -892813.4, 582990.25, 0.045362093, 10.005862, 9.997138 
2.6057082e+3, 1.5940045e+2, -802459.6, -1438760.3, 47335.91, -0.031385288, -0.4344408, -798957.5, 578881.44, 0.016945137, 10.005707, 9.997126 
2.6056197e+3, 1.6939813e+2, -827393.6, -1344881.8, 70101.73, -0.03094109, -0.36636278, -818065.4, 461797.63, 0.0035911633, 10.004553, 9.997651 
2.6055318e+3, 1.7939615e+2, -898557.75, -1314489.8, 66738.49, -0.035739936, -0.29204085, -888111.56, 293771.88, 0.0002556889, 10.003316, 9.997785 
2.605444e+3, 1.8939345e+2, -798613.3, -1134511.3, 54708.906, 0.007683339, -0.34060282, -789927.25, 293981.88, 0.00000086705097, 10.002984, 9.998504 
2.6053563e+3, 1.9939086e+2, -749617.94, -1085922.4, 63253.563, 0.058022913, -0.40716186, -738114.44, 247819.16, 0.0, 10.002758, 9.998276 
2.605269e+3, 2.0938914e+2, -767950.5, -1017012.9, 102289.38, 0.044328332, -0.37326095, -731326.06, 156625.08, 0.0, 10.001845, 9.998513 
2.605182e+3, 2.1938774e+2, -811578.25, -986915.56, 85772.586, 0.019768186, -0.32455003, -776598.1, 13367.502, 0.0, 10.000869, 9.99852 
2.6050937e+3, 2.2938605e+2, -734720.5, -836613.9, 61897.836, 0.02215893, -0.33398703, -705499.2, -13516.572, 0.0, 10.000457, 9.999075 
2.6050055e+3, 2.393845e+2, -686586.5, -757272.06, 74006.36, 0.036160484, -0.35756642, -639916.75, -45918.758, 0.0, 10.000091, 9.999125 
2.604918e+3, 2.4938351e+2, -667143.7, -629804.44, 77410.47, 0.07001919, -0.36104038, -568844.06, -72836.72, 0.0, 9.999261, 9.999725 
2.6048303e+3, 2.5938287e+2, -706952.25, -607538.2, 76575.46, 0.100286506, -0.3558649, -565951.25, -167938.03, 0.0, 9.998353, 9.999644 
2.604742e+3, 2.693826e+2, -670438.75, -487163.63, 73805.42, 0.08658086, -0.3291039, -461137.75, -161120.73, 0.0, 9.997707, 10.000108 
2.604654e+3, 2.7938253e+2, -652917.0, -417747.88, 65869.055, 0.08823226, -0.31198457, -400555.34, -198536.39, 0.0, 9.997108, 10.000202 
2.6045662e+3, 2.8938225e+2, -570730.9, -248628.31, 37579.035, 0.16425706, -0.3553604, -244302.16, -140281.97, 0.0, 9.99666, 10.000906 
2.604477e+3, 2.9938242e+2, -567809.56, -214388.77, 85571.04, 0.14690496, -0.38846627, -194760.25, -188742.92, 0.0, 9.996084, 10.000748 
2.6043865e+3, 3.093839e+2, -692070.25, -195214.47, 130175.59, -0.20041925, -0.29696625, -163174.7, -163174.7, 0.0, 9.994663, 10.001229 
2.6043022e+3, 3.1938377e+2, -678784.44, -93801.03, -157905.13, 0.22184637, -0.3803355, -53899.254, -53899.254, 0.0, 9.994349, 10.002075 
2.615979e+3, 1.2949999e+2, -1018846.25, -1626951.6, 24586.492, -0.046592854, -0.34424806, -1017853.8, 653010.5, 0.11302465, 10.00658, 9.997469 
2.6158905e+3, 1.394964e+2, -989194.8, -1604920.4, 23218.465, -0.045870245, -0.4042791, -988320.5, 584577.5, 0.074650005, 10.005989, 9.997199 
2.615802e+3, 1.4949377e+2, -874971.9, -1479424.0, 34505.21, -0.06363837, -0.35352132, -873008.5, 601915.3, 0.038984027, 10.005811, 9.997471 
2.6157135e+3, 1.5949135e+2, -796409.5, -1407221.1, 24860.092, -0.05293399, -0.3026344, -795399.4, 581548.44, 0.014152989, 10.005606, 9.997394 
2.615624e+3, 1.6948768e+2, -818489.9, -1321112.5, 18798.586, -0.027883774, -0.38861573, -817787.75, 461195.0, 0.002848573, 10.004522, 9.997831 
2.615535e+3, 1.7948417e+2, -899060.25, -1323079.5, 34987.695, -0.00861278, -0.4814145, -896192.6, 284823.66, 0.0001820931, 10.003344, 9.997714 
2.6154467e+3, 1.8948226e+2, -823850.2, -1192319.0, 49581.96, 0.03654632, -0.42134798, -817294.94, 265741.3, 0.00000042407203, 10.003002, 9.998101 
2.6153588e+3, 1.9948074e+2, -759675.25, -1103803.4, 44787.195, 0.08136644, -0.34529024, -753941.9, 231110.58, 0.0, 10.00274, 9.998165 
2.6152706e+3, 2.094787e+2, -751244.8, -980664.75, 63818.145, 0.05930194, -0.36015975, -734687.4, 152385.92, 0.0, 10.001834, 9.998771 
2.6151824e+3, 2.1947682e+2, -796823.1, -955432.06, 59968.547, 0.02555103, -0.38455275, -776702.1, 12390.082, 0.0, 10.00086, 9.998743 
2.615094e+3, 2.2947599e+2, -721507.56, -810906.7, 51341.57, 0.024529293, -0.3287122, -698133.56, -7032.8286, 0.0, 10.00046, 9.999252 
2.6150054e+3, 2.394753e+2, -679963.1, -746256.6, 51922.188, 0.033411235, -0.2810909, -651509.4, -58402.094, 0.0, 10.000096, 9.9992 
2.614917e+3, 2.4947329e+2, -672120.5, -640848.7, 40698.164, 0.051273953, -0.3847131, -612886.2, -117760.5, 0.0, 9.99926, 9.999651 
2.614828e+3, 2.594715e+2, -703795.7, -603911.56, 45812.59, 0.06432491, -0.48965785, -586081.94, -188940.02, 0.0, 9.998361, 9.999668 
2.6147395e+3, 2.6947218e+2, -660249.4, -467279.06, 49457.83, 0.06775278, -0.37832484, -455341.63, -156204.33, 0.0, 9.997707, 10.000247 
2.614651e+3, 2.7947327e+2, -644697.7, -402655.7, 45742.258, 0.0856404, -0.25484985, -394299.56, -193170.83, 0.0, 9.997111, 10.000307 
2.614562e+3, 2.894726e+2, -562572.1, -240017.55, 20256.791, 0.13859539, -0.34648904, -238750.38, -135616.6, 0.0, 9.996691, 10.000953 
2.6144725e+3, 2.9947206e+2, -556703.4, -209421.23, 46882.105, 0.13004693, -0.45156235, -203203.6, -198066.45, 0.0, 9.996157, 10.000751 
2.6143822e+3, 3.0947384e+2, -698226.0, -198053.2, 63754.652, -0.03174999, -0.33000663, -190054.61, -190054.61, 0.0, 9.994616, 10.001236 
2.6142955e+3, 3.194748e+2, -590205.9, 63503.695, -52273.863, 0.14977294, -0.3318789, 67657.375, 67657.375, 0.0, 9.994433, 10.00313 
2.6259854e+3, 1.2958951e+2, -936706.94, -1615181.4, 79945.12, -0.06404688, -0.39571258, -927414.2, 742571.0, 0.099053025, 10.007236, 9.997241 
2.6258966e+3, 1.395863e+2, -931317.25, -1577246.6, 56085.824, -0.019286985, -0.39772868, -926483.5, 645532.8, 0.06477837, 10.006364, 9.99721 
2.6258072e+3, 1.495838e+2, -930274.94, -1476713.5, 65542.78, -0.04877761, -0.35509095, -922523.4, 551517.44, 0.033258148, 10.005263, 9.997749 
2.6257178e+3, 1.5958144e+2, -980772.7, -1485512.6, 51377.637, -0.052426588, -0.3209826, -975596.06, 400467.84, 0.011718317, 10.004269, 9.997497 
2.625628e+3, 1.6957776e+2, -878195.94, -1360867.8, 30814.018, -0.013873615, -0.40255725, -876236.75, 401862.38, 0.0022361453, 10.004165, 9.997726 
2.6255387e+3, 1.795742e+2, -789034.44, -1274655.6, 30738.914, 0.018288027, -0.49057347, -787096.44, 393036.88, 0.00012833992, 10.0041275, 9.997665 
2.6254496e+3, 1.895723e+2, -793473.8, -1177711.1, 61393.16, 0.034488693, -0.4252219, -783902.9, 298250.22, 0.00000019125741, 10.00322, 9.998094 
2.6253605e+3, 1.9957088e+2, -833256.6, -1130521.5, 74729.62, 0.05117934, -0.3408695, -815527.6, 168641.02, 0.0, 10.002203, 9.998237 
2.6252717e+3, 2.095689e+2, -775746.4, -975003.1, 89115.695, 0.045841664, -0.3591625, -741705.7, 144482.88, 0.0, 10.0015955, 9.998922 
2.6251832e+3, 2.1956709e+2, -760317.94, -921717.1, 82258.234, 0.035503544, -0.3915297, -725783.6, 62422.96, 0.0, 10.001049, 9.998879 
2.625094e+3, 2.2956619e+2, -726411.2, -802613.7, 73004.98, 0.03303062, -0.35073698, -682162.94, 8052.2915, 0.0, 10.000385, 9.999343 
2.625005e+3, 2.395655e+2, -738763.4, -773348.75, 61684.62, 0.03759836, -0.31077343, -691993.4, -99771.66, 0.0, 9.999693, 9.999206 
2.6249155e+3, 2.4956366e+2, -714023.06, -671377.5, 41630.223, 0.050695315, -0.3892629, -645927.06, -151687.9, 0.0, 9.999022, 9.999555 
2.6248258e+3, 2.5956202e+2, -708241.1, -601546.75, 47538.984, 0.06055841, -0.47351128, -583438.56, -187183.73, 0.0, 9.998316, 9.999702 
2.6247364e+3, 2.6956257e+2, -667972.44, -451208.0, 54981.28, 0.055743966, -0.38774836, -438059.78, -139808.98, 0.0, 9.997575, 10.000419 
2.6246473e+3, 2.7956358e+2, -679154.0, -408331.7, 56695.7, 0.072002605, -0.28887188, -396941.66, -196699.16, 0.0, 9.996835, 10.000398 
2.6245582e+3, 2.8956315e+2, -609022.3, -263027.5, 34113.625, 0.13651775, -0.35818568, -259696.11, -157450.23, 0.0, 9.99638, 10.000942 
2.6244682e+3, 2.9956284e+2, -588057.1, -227753.42, 42997.113, 0.13664512, -0.43914524, -222693.39, -218445.67, 0.0, 9.995958, 10.000718 
2.6243776e+3, 3.0956462e+2, -577318.8, -141151.0, 40356.51, 0.03806244, -0.31458056, -137448.44, -137448.44, 0.0, 9.995456, 10.001219 
2.6242888e+3, 3.1956485e+2, -558850.8, 105308.17, 24713.191, 0.072516054, -0.39586505, 106226.48, 106226.48, 0.0, 9.994544, 10.003358 
2.635992e+3, 1.2967964e+2, -967381.44, -1692725.8, 48452.24, -0.083081886, -0.49701652, -964159.2, 704939.2, 0.08624502, 10.007196, 9.996686 
2.6359034e+3, 1.396773e+2, -954150.44, -1613569.6, 22798.271, 0.03978814, -0.36528572, -953363.2, 617759.8, 0.055813286, 10.006247, 9.997015 
2.6358125e+3, 1.4967413e+2, -912287.9, -1446906.5, 24229.47, -0.0062032836, -0.3995155, -911192.0, 561962.0, 0.02814618, 10.005263, 9.997961 
2.635722e+3, 1.5967105e+2, -971708.7, -1487790.9, 28229.395, -0.03911002, -0.45253688, -970169.2, 405014.9, 0.009613404, 10.004347, 9.997446 
2.6356322e+3, 1.6966836e+2, -898387.0, -1410611.4, 34295.383, 0.00592093, -0.40704075, -896101.0, 381110.5, 0.0017385246, 10.004192, 9.997375 
2.6355425e+3, 1.7966592e+2, -797329.9, -1285104.9, 16224.279, 0.041064326, -0.35472545, -796790.8, 382445.88, 0.0000901775, 10.004094, 9.997613 
2.635452e+3, 1.8966345e+2, -775911.1, -1138589.3, 22803.682, 0.0036799125, -0.3668381, -774483.0, 306777.78, 0.00000008629741, 10.003202, 9.998373 
2.6353616e+3, 1.9966125e+2, -821320.0, -1105355.4, 45343.195, -0.031522658, -0.3859372, -814257.06, 169025.08, 0.0, 10.002196, 9.998415 
2.6352727e+3, 2.0965973e+2, -771853.56, -967562.44, 69754.29, 0.005732258, -0.36742428, -749536.6, 135760.61, 0.0, 10.001595, 9.998976 
2.635184e+3, 2.1965843e+2, -759301.56, -918667.44, 60513.063, 0.046774, -0.35407263, -738928.5, 48381.766, 0.0, 10.0010395, 9.998908 
2.6350942e+3, 2.2965664e+2, -728131.5, -806177.8, 47555.043, 0.046039436, -0.40220797, -705638.06, -16311.103, 0.0, 10.000381, 9.999322 
2.6350045e+3, 2.3965508e+2, -743696.8, -784958.8, 35639.594, 0.042478308, -0.4452074, -723147.5, -131805.88, 0.0, 9.999694, 9.999127 
2.6349142e+3, 2.4965465e+2, -723456.25, -691693.75, 14568.629, 0.0682227, -0.36969465, -686023.7, -192675.83, 0.0, 9.99902, 9.999418 
2.6348242e+3, 2.596545e+2, -704617.0, -596989.2, 19260.03, 0.08607391, -0.29569924, -593646.4, -198294.73, 0.0, 9.998323, 9.999733 
2.6347336e+3, 2.696537e+2, -654953.9, -424290.13, 24006.975, 0.04688777, -0.35742912, -421818.0, -124459.74, 0.0, 9.997571, 10.0006075 
2.6346433e+3, 2.796532e+2, -674095.25, -399567.44, 31966.871, 0.035065543, -0.4283021, -395894.25, -196531.88, 0.0, 9.996838, 10.000459 
2.6345545e+3, 2.8965378e+2, -616297.94, -275634.63, 16497.736, 0.16632341, -0.39139, -274837.56, -173480.11, 0.0, 9.996365, 10.000866 
2.6344645e+3, 2.996548e+2, -596365.94, -238445.42, 26326.117, 0.19142865, -0.32922462, -236519.42, -233171.34, 0.0, 9.995926, 10.000663 
2.6343715e+3, 3.0965617e+2, -571553.2, -147034.58, 21549.62, -0.07808654, -0.24135312, -145943.47, -145943.47, 0.0, 9.995523, 10.00115 
2.6342833e+3, 3.1965464e+2, -596906.2, 30368.39, -732.5608, 0.10422033, -0.480701, 30369.246, 30369.246, 0.0, 9.994543, 10.002835 
2.645999e+3, 1.297717e+2, -942142.2, -1670647.5, 12703.417, -0.062468216, -0.4241897, -941920.75, 726276.3, 0.07454921, 10.007254, 9.996809 
2.6459086e+3, 1.3976839e+2, -1072499.5, -1679266.4, 38139.45, 0.037059814, -0.39667013, -1070111.5, 500118.75, 0.047712527, 10.005368, 9.996987 
2.6458174e+3, 1.4976522e+2, -916443.75, -1469880.3, 49773.59, -0.006327811, -0.4150117, -912003.0, 560258.8, 0.023613608, 10.005314, 9.99777 
2.6457262e+3, 1.597623e+2, -808620.9, -1406218.8, 28259.14, -0.031759147, -0.4374513, -807287.5, 567003.44, 0.007811116, 10.005467, 9.997462 
2.645636e+3, 1.6975984e+2, -834641.4, -1353430.4, 56543.816, 0.0013110196, -0.3861317, -828550.06, 447765.5, 0.0013401563, 10.004523, 9.997604 
2.6455456e+3, 1.797576e+2, -880053.2, -1308490.3, 66332.5, 0.025771521, -0.33269998, -870018.4, 308319.7, 0.00006369034, 10.003462, 9.997753 
2.6454547e+3, 1.8975489e+2, -809260.6, -1150989.6, 60666.43, 0.0007221522, -0.37335628, -798810.2, 281553.7, 0.000000036839044, 10.002965, 9.998398 
2.6453635e+3, 1.9975239e+2, -775987.94, -1081335.9, 65256.47, -0.022582708, -0.42137724, -762626.56, 219760.98, 0.0, 10.002506, 9.998426 
2.6452738e+3, 2.0975105e+2, -782903.44, -975555.6, 80113.18, -0.002076954, -0.38385612, -753942.5, 130458.74, 0.0, 10.001536, 9.998945 
2.645184e+3, 2.1974994e+2, -829119.3, -952331.25, 70074.23, 0.026739094, -0.34672973, -797421.0, -11008.371, 0.0, 10.0005665, 9.998901 
2.645094e+3, 2.2974794e+2, -750089.06, -816006.25, 64753.633, 0.044813216, -0.41580063, -710388.9, -21957.479, 0.0, 10.000232, 9.999325 
2.6450038e+3, 2.3974617e+2, -705322.06, -759341.3, 51552.785, 0.062752664, -0.48081294, -674131.94, -83683.9, 0.0, 9.999932, 9.999186 
2.6449132e+3, 2.497462e+2, -688150.06, -662387.44, 41855.883, 0.07466824, -0.3679898, -631475.56, -139024.98, 0.0, 9.999214, 9.999523 
2.644822e+3, 2.5974652e+2, -687957.3, -586906.56, 61556.383, 0.07716562, -0.25214848, -557795.25, -163344.95, 0.0, 9.998435, 9.999745 
2.644731e+3, 2.697454e+2, -610750.44, -414774.16, 50709.547, 0.036321934, -0.34026787, -402430.38, -105970.32, 0.0, 9.997929, 10.000499 
2.64464e+3, 2.7974442e+2, -593850.6, -364819.9, 39410.69, 0.028928231, -0.4485725, -358228.0, -159759.69, 0.0, 9.997407, 10.0004225 
2.6445505e+3, 2.8974515e+2, -568381.94, -248564.48, 29290.629, 0.16195428, -0.3956603, -245904.02, -145442.3, 0.0, 9.996681, 10.000896 
2.6444596e+3, 2.9974645e+2, -592116.0, -236729.25, 50675.543, 0.18230532, -0.3091162, -229644.52, -227194.55, 0.0, 9.995963, 10.000653 
2.6443666e+3, 3.097474e+2, -552669.8, -148787.73, 52184.47, -0.093069136, -0.25466496, -142154.08, -142154.08, 0.0, 9.995702, 10.001051 
2.6442784e+3, 3.1974584e+2, -532414.5, 39754.645, -36943.88, 0.167617, -0.47727484, 42130.18, 42130.18, 0.0, 9.995095, 10.002625 
2.6560062e+3, 1.298652e+2, -917375.1, -1599013.9, -61461.152, -0.025602596, -0.23675092, -911877.7, 755407.0, 0.0639034, 10.007089, 9.997408 
2.6559132e+3, 1.3985969e+2, -1050638.8, -1663484.5, 2454.074, -0.015346864, -0.47681987, -1050629.0, 518707.53, 0.040432982, 10.005467, 9.997047 
2.655822e+3, 1.4985704e+2, -947730.6, -1546185.9, 63285.395, -0.039846122, -0.40755486, -941111.56, 530252.5, 0.019626113, 10.005329, 9.997242 
2.6557314e+3, 1.598549e+2, -819051.0, -1406180.9, 19192.299, -0.03457983, -0.31118652, -818424.3, 554962.1, 0.006284253, 10.005362, 9.997516 
2.65564e+3, 1.698521e+2, -796097.06, -1261359.8, 16610.816, -0.026039703, -0.3469489, -795504.75, 479907.22, 0.0010256717, 10.004465, 9.998266 
2.6555485e+3, 1.7984934e+2, -863890.2, -1274732.5, 37116.832, -0.023247903, -0.40096068, -860563.9, 316872.8, 0.000045503482, 10.003456, 9.99799 
2.6554573e+3, 1.8984662e+2, -823232.44, -1181896.1, 46427.06, 0.021029394, -0.4332618, -817320.2, 262142.45, 0.000000014947995, 10.002969, 9.998186 
2.6553664e+3, 1.9984421e+2, -788080.7, -1105325.1, 39538.605, 0.061188083, -0.45350924, -783227.2, 198258.77, 0.0, 10.002497, 9.998269 
2.655275e+3, 2.098428e+2, -791610.25, -994519.3, 40689.902, 0.015631028, -0.40876818, -783754.7, 99746.33, 0.0, 10.001535, 9.998818 
2.6551837e+3, 2.1984164e+2, -834338.94, -961983.7, 46701.08, -0.029619189, -0.36527842, -819077.25, -33563.617, 0.0, 10.000557, 9.998842 
2.6550937e+3, 2.2984007e+2, -749009.75, -814652.6, 57341.08, 0.029454745, -0.39043844, -715761.2, -28232.447, 0.0, 10.000233, 9.999335 
2.6550037e+3, 2.3983872e+2, -690953.0, -732757.3, 32253.027, 0.09243494, -0.42033008, -673421.3, -83879.516, 0.0, 9.999942, 9.999366 
2.654912e+3, 2.4983823e+2, -663440.3, -612819.3, 10261.256, 0.06620511, -0.38979018, -610818.4, -119270.36, 0.0, 9.999217, 9.999865 
2.6548195e+3, 2.59838e+2, -687981.56, -590439.75, 37106.305, 0.025460495, -0.35184413, -577928.75, -184377.03, 0.0, 9.9984455, 9.999719 
2.6547283e+3, 2.6983765e+2, -640292.4, -479178.66, 32283.434, 0.02528764, -0.33345687, -472950.56, -177394.34, 0.0, 9.997937, 10.000054 
2.654637e+3, 2.7983737e+2, -599978.56, -383137.25, 15495.074, 0.052919816, -0.32878786, -382035.6, -184476.55, 0.0, 9.997427, 10.000289 
2.6545462e+3, 2.898373e+2, -556539.3, -228020.58, -1314.726, 0.10923201, -0.36776063, -228015.31, -128456.664, 0.0, 9.996694, 10.001034 
2.6544544e+3, 2.9983756e+2, -586311.6, -230143.55, 32419.605, 0.08211621, -0.39834854, -227216.66, -225661.53, 0.0, 9.995981, 10.000692 
2.6543635e+3, 3.0983815e+2, -553013.06, -153479.72, 45470.773, 0.047763392, -0.37946966, -148370.05, -148370.05, 0.0, 9.995713, 10.001017 
2.6542735e+3, 3.1983876e+2, -533706.2, 25236.916, -144584.48, 0.21607295, -0.37820902, 60422.355, 60422.355, 0.0, 9.995124, 10.002524 
2.6660123e+3, 1.2995741e+2, -1068977.8, -1698466.6, -14003.829, -0.0017820402, -0.26970446, -1068666.4, 597714.5, 0.054246556, 10.006026, 9.997209 
2.6659185e+3, 1.3995208e+2, -865866.6, -1562798.1, 6557.3853, -0.037827436, -0.47905618, -865804.9, 702626.9, 0.033923235, 10.006713, 9.997139 
2.6658267e+3, 1.4994986e+2, -909966.6, -1488484.3, 98276.68, -0.056293167, -0.392543, -893727.56, 576726.44, 0.016141208, 10.005414, 9.997595 
2.6657355e+3, 1.599481e+2, -1004655.6, -1478378.6, 99127.375, -0.035997037, -0.28852367, -984749.5, 387722.38, 0.0050017266, 10.004002, 9.997673 
2.6656437e+3, 1.6994484e+2, -902128.44, -1316996.1, 69179.32, -0.028530942, -0.3676624, -890896.8, 383604.78, 0.00077940914, 10.00376, 9.99822 
2.6655513e+3, 1.7994161e+2, -839507.5, -1266093.4, 49458.273, -0.028087914, -0.46257862, -833848.44, 342682.4, 0.000032798478, 10.003642, 9.997956 
2.66546e+3, 1.8993923e+2, -826416.06, -1186994.3, 62420.93, 0.023232047, -0.45680264, -815915.94, 262638.1, 0.0000000057994387, 10.002968, 9.998149 
2.6653686e+3, 1.9993718e+2, -831736.0, -1133926.3, 61338.02, 0.07393743, -0.4345173, -819760.3, 160814.11, 0.0, 10.002235, 9.998196 
2.6652762e+3, 2.0993544e+2, -778271.56, -1002287.0, 58316.195, 0.023856208, -0.41064444, -763999.75, 118593.19, 0.0, 10.001694, 9.998686 
2.665184e+3, 2.1993396e+2, -748372.2, -915430.7, 67512.25, -0.028169002, -0.39056984, -724500.1, 60108.785, 0.0, 10.001131, 9.998881 
2.6650935e+3, 2.2993281e+2, -737407.8, -787036.0, 93837.28, 0.022405127, -0.38697585, -665159.2, 21460.53, 0.0, 10.000222, 9.999527 
2.665003e+3, 2.3993188e+2, -772095.25, -759918.44, 79047.2, 0.081734754, -0.38829634, -686725.5, -98097.14, 0.0, 9.999339, 9.999467 
2.6649103e+3, 2.4993101e+2, -692644.8, -626524.8, 37027.742, 0.055443317, -0.3975019, -609945.94, -119308.24, 0.0, 9.99902, 9.999863 
2.6648176e+3, 2.5993037e+2, -652489.94, -576094.2, 43258.906, 0.019549374, -0.40204963, -556582.4, -163937.17, 0.0, 9.998705, 9.99969 
2.6647258e+3, 2.6993024e+2, -625993.3, -481220.78, 57976.594, 0.0287318, -0.35205838, -460865.16, -166217.17, 0.0, 9.998079, 9.9999695 
2.6646343e+3, 2.7993026e+2, -607055.8, -394537.94, 61434.586, 0.062636614, -0.30858824, -378056.63, -181407.94, 0.0, 9.997419, 10.000211 
2.6645425e+3, 2.8992996e+2, -514988.78, -218393.14, 30404.307, 0.0926607, -0.36009663, -215308.45, -116658.45, 0.0, 9.997028, 10.000936 
2.6644498e+3, 2.9992983e+2, -505284.0, -198107.25, 48353.45, 0.06340824, -0.41682476, -190675.61, -190026.17, 0.0, 9.996571, 10.000627 
2.6643595e+3, 3.0993006e+2, -560727.0, -157640.45, 58390.66, 0.1367176, -0.43101686, -149352.45, -149352.45, 0.0, 9.995672, 10.001004 
2.6642677e+3, 3.199315e+2, -498085.84, 27919.613, -125389.02, 0.18319057, -0.34521163, 56280.645, 56280.645, 0.0, 9.99544, 10.002386 
2.6760182e+3, 1.3004895e+2, -1106025.9, -1799878.9, 19817.549, 0.006720413, -0.44445628, -1105460.4, 560020.75, 0.04552813, 10.006069, 9.99649 
2.675925e+3, 1.4004542e+2, -876144.2, -1556137.8, 1884.6436, -0.046656128, -0.42036182, -876138.94, 691378.1, 0.028125674, 10.006549, 9.997265 
2.6758316e+3, 1.5004359e+2, -850239.44, -1355037.3, 38525.066, -0.06537215, -0.3725884, -847316.2, 622217.1, 0.013109063, 10.005352, 9.998552 
2.6757392e+3, 1.6004182e+2, -987671.3, -1452593.1, 62568.594, -0.03865319, -0.3435007, -979398.1, 392150.44, 0.0039294614, 10.004034, 9.997836 
2.6756468e+3, 1.7003801e+2, -943704.4, -1408038.3, 65377.973, -0.01262906, -0.4354625, -934674.8, 338910.47, 0.00058654725, 10.003776, 9.997591 
2.675555e+3, 1.8003435e+2, -860533.8, -1304993.1, 35104.78, -0.0028019736, -0.5209202, -857778.2, 317842.75, 0.000023679344, 10.003617, 9.997704 
2.6754624e+3, 1.9003263e+2, -821493.7, -1173870.4, 35216.945, 0.006661039, -0.44868112, -818008.56, 259630.02, 0.000000001728097, 10.002951, 9.99825 
2.67537e+3, 2.0003125e+2, -837124.9, -1141519.9, 39205.207, 0.020767044, -0.36892176, -832156.44, 147497.02, 0.0, 10.002215, 9.998155 
2.6752776e+3, 2.1002889e+2, -790770.8, -1028256.0, 40727.055, 0.02388782, -0.39246428, -783980.56, 97697.125, 0.0, 10.00169, 9.99851 
2.6751852e+3, 2.2002676e+2, -741350.1, -900179.0, 41547.33, 0.020439196, -0.42554617, -731138.5, 52560.848, 0.0, 10.001123, 9.998992 
2.675093e+3, 2.3002611e+2, -711932.3, -734849.25, 57804.617, 0.019669907, -0.4056936, -664461.44, 21243.412, 0.0, 10.00022, 9.999888 
2.6750013e+3, 2.4002568e+2, -772221.8, -760850.3, 56083.67, 0.024468139, -0.38330266, -710164.94, -122456.96, 0.0, 9.999337, 9.999464 
2.6749086e+3, 2.5002456e+2, -718684.06, -681702.56, 27567.58, 0.04310307, -0.38931727, -666998.75, -177278.75, 0.0, 9.999022, 9.999485 
2.6748163e+3, 2.6002356e+2, -651591.94, -579730.06, 25052.105, 0.053846046, -0.39855415, -571858.7, -180127.72, 0.0, 9.998725, 9.999658 
2.6747236e+3, 2.7002314e+2, -604833.7, -439021.97, 30311.332, 0.04358045, -0.40121084, -433654.63, -139918.61, 0.0, 9.998082, 10.00026 
2.6746315e+3, 2.8002295e+2, -610139.2, -402720.84, 41981.457, 0.05393388, -0.40091747, -394546.0, -198807.7, 0.0, 9.997422, 10.000156 
2.6745394e+3, 2.900231e+2, -539696.3, -274490.53, 16556.033, 0.12046079, -0.37523627, -273460.97, -175724.63, 0.0, 9.997045, 10.0005455 
2.6744467e+3, 3.0002347e+2, -515488.8, -227430.72, 21566.916, 0.13119532, -0.34708598, -225824.95, -225824.95, 0.0, 9.996601, 10.000413 
2.674355e+3, 3.1002334e+2, -570948.06, -176626.02, 16085.358, 0.15651459, -0.38101462, -175970.94, -175970.94, 0.0, 9.995655, 10.000884 
2.674262e+3, 3.2002318e+2, -504861.22, -931.86755, -4454.505, 0.083673894, -0.4420392, -892.4948, -892.4948, 0.0, 9.995497, 10.002163 
2.6860243e+3, 1.3014239e+2, -992242.7, -1672506.3, 23808.049, 0.042916335, -0.45786726, -991410.44, 673155.2, 0.03769795, 10.006524, 9.9971485 
2.6859298e+3, 1.4014003e+2, -1070102.3, -1636301.4, 59405.797, -0.07672615, -0.37020582, -1063936.5, 502652.16, 0.022983251, 10.005085, 9.997418 
2.6858366e+3, 1.5013723e+2, -958746.5, -1446723.5, 35347.18, -0.05158448, -0.3938632, -956199.4, 512415.25, 0.010479905, 10.004762, 9.998196 
2.6857436e+3, 1.6013452e+2, -915427.4, -1420750.5, 2083.2944, 0.021663936, -0.43306157, -915418.8, 455220.9, 0.003035201, 10.004547, 9.997805 
2.6856506e+3, 1.7013162e+2, -915221.0, -1365140.0, 50163.402, 0.015633345, -0.45137993, -909695.94, 362971.78, 0.00043491332, 10.003851, 9.997846 
2.6855576e+3, 1.8012895e+2, -917586.2, -1310246.9, 65315.38, -0.011059107, -0.4604704, -907006.6, 267687.34, 0.000016890075, 10.003136, 9.997896 
2.6854646e+3, 1.9012706e+2, -854601.44, -1176146.1, 68240.36, -0.010017148, -0.42004558, -840718.44, 235994.97, 0.0000000002885943, 10.00267, 9.998365 
2.6853716e+3, 2.0012535e+2, -829765.94, -1125323.1, 73828.43, 0.0013369464, -0.38132972, -812350.25, 166380.89, 0.0, 10.002216, 9.998262 
2.6852787e+3, 2.1012306e+2, -801450.44, -1023778.2, 92478.03, 0.01251722, -0.40581855, -768012.8, 112741.06, 0.0, 10.001581, 9.99859 
2.6851857e+3, 2.2012103e+2, -771308.25, -916822.06, 101042.75, 0.02245001, -0.43404093, -719553.3, 63220.74, 0.0, 10.000934, 9.998965 
2.685093e+3, 2.3012024e+2, -700666.56, -745902.94, 81861.63, 0.024078345, -0.41184205, -638355.9, 46425.438, 0.0, 10.000375, 9.999736 
2.6850006e+3, 2.4011968e+2, -708413.25, -741729.44, 58087.49, 0.030386291, -0.38870603, -664642.5, -77855.9, 0.0, 9.999831, 9.999353 
2.6849076e+3, 2.501184e+2, -664420.7, -665996.9, 53252.855, 0.047967188, -0.39950812, -611950.1, -123150.16, 0.0, 9.999444, 9.999387 
2.6848146e+3, 2.6011732e+2, -610519.5, -560327.94, 57958.86, 0.060088955, -0.41199473, -522264.97, -131453.13, 0.0, 9.999015, 9.999648 
2.6847214e+3, 2.7011698e+2, -565960.06, -411724.13, 41416.14, 0.045102604, -0.4062186, -401306.53, -108490.97, 0.0, 9.998318, 10.000331 
2.6846284e+3, 2.801169e+2, -588271.9, -397325.22, 48578.492, 0.0566515, -0.40086782, -385677.0, -190860.13, 0.0, 9.997599, 10.000106 
2.6845363e+3, 2.901169e+2, -522172.44, -285365.34, 43470.36, 0.1284156, -0.37281883, -277637.72, -180821.63, 0.0, 9.997254, 10.000366 
2.6844433e+3, 3.001171e+2, -476360.7, -222445.27, 53509.887, 0.14094277, -0.34600294, -211629.36, -211629.36, 0.0, 9.996938, 10.000281 
2.6843512e+3, 3.101166e+2, -447571.8, -125978.266, 41308.93, 0.19522451, -0.40938434, -120756.88, -120756.88, 0.0, 9.996548, 10.000797 
2.6842567e+3, 3.2011646e+2, -519279.47, -22246.816, 50746.473, 0.06930844, -0.45306024, -17118.57, -17118.57, 0.0, 9.995469, 10.002025 
2.696031e+3, 1.302373e+2, -893602.25, -1452810.1, -29811.414, 0.08621259, -0.3630883, -892017.5, 771620.56, 0.030699894, 10.006421, 9.998749 
2.695934e+3, 1.4023562e+2, -1060427.3, -1622856.6, 27233.922, -0.12440479, -0.32726353, -1059111.6, 506537.72, 0.018444562, 10.005092, 9.997507 
2.6958412e+3, 1.5023088e+2, -1044661.8, -1637357.1, 33522.266, -0.022326488, -0.446176, -1042771.9, 424924.7, 0.008210839, 10.004793, 9.996874 
2.6957488e+3, 1.6022654e+2, -923855.06, -1441310.1, -7415.417, 0.12328139, -0.5481956, -923748.8, 445991.84, 0.0022922542, 10.004554, 9.997663 
2.6956546e+3, 1.7022574e+2, -853326.7, -1230763.0, 26922.967, 0.049448546, -0.42419007, -851415.94, 420331.66, 0.00031527402, 10.003821, 9.998784 
2.6955602e+3, 1.802252e+2, -890525.9, -1242643.0, 44942.31, -0.04870099, -0.30360934, -884880.2, 288871.94, 0.000011633443, 10.003082, 9.998388 
2.6954666e+3, 1.9022234e+2, -850462.2, -1165460.9, 53221.8, -0.028157003, -0.37734812, -841712.94, 234066.98, 0.000000000007316074, 10.002658, 9.998446 
2.6953733e+3, 2.0021951e+2, -813804.56, -1094291.1, 53555.406, 0.0046586753, -0.46208036, -803926.7, 173880.78, 0.0, 10.002222, 9.998475 
2.6952794e+3, 2.1021792e+2, -778819.56, -978230.56, 67661.055, -0.011605883, -0.4456961, -758029.44, 121792.58, 0.0, 10.001583, 9.998904 
2.6951858e+3, 2.2021663e+2, -787463.44, -946795.25, 79033.92, -0.023866821, -0.4182542, -754910.7, 26923.4, 0.0, 10.000914, 9.998772 
2.6950932e+3, 2.3021518e+2, -748544.4, -845388.94, 61616.7, 0.035483886, -0.40688896, -718599.94, -34750.06, 0.0, 10.000373, 9.999054 
2.6950005e+3, 2.4021386e+2, -722489.6, -774396.44, 40626.7, 0.0906464, -0.40358272, -700234.0, -114369.41, 0.0, 9.999842, 9.999126 
2.6949066e+3, 2.5021252e+2, -649910.1, -638928.4, 37875.31, 0.06649458, -0.42875153, -606148.0, -118269.96, 0.0, 9.999453, 9.99957 
2.694813e+3, 2.6021156e+2, -609367.8, -561347.75, 36258.793, 0.03157432, -0.44117087, -541870.06, -151982.0, 0.0, 9.999025, 9.999639 
2.694719e+3, 2.7021185e+2, -578891.06, -439957.28, 12041.822, 0.03171336, -0.36006817, -438921.28, -147034.81, 0.0, 9.99832, 10.000138 
2.6946256e+3, 2.8021222e+2, -589057.5, -403494.84, 28205.168, 0.05904217, -0.2905653, -399302.44, -205418.89, 0.0, 9.997615, 10.000058 
2.6945326e+3, 2.902114e+2, -516406.63, -277740.4, 30418.514, 0.10937693, -0.35209522, -273924.5, -178034.97, 0.0, 9.997267, 10.000416 
2.6944396e+3, 3.002105e+2, -475653.75, -228094.66, 41480.36, 0.09323755, -0.43366867, -221329.22, -221329.22, 0.0, 9.996963, 10.000234 
2.6943475e+3, 3.1020954e+2, -441624.97, -132810.2, 28364.88, 0.22595626, -0.53608143, -130226.48, -130226.48, 0.0, 9.996627, 10.000714 
2.6942524e+3, 3.20212e+2, -526999.94, -38236.13, -127644.68, 0.13789333, -0.31147245, -6908.622, -6908.622, 0.0, 9.995445, 10.001939 
2.7060363e+3, 1.3033257e+2, -974279.2, -1499203.3, 20142.53, 0.061898362, -0.37833157, -973507.4, 689194.5, 0.024485938, 10.00584, 9.998694 
2.705939e+3, 1.4033051e+2, -1044201.6, -1621535.3, 25249.389, -0.06350493, -0.37472615, -1043099.44, 521618.34, 0.014468608, 10.005217, 9.997455 
2.7058455e+3, 1.5032628e+2, -1026829.2, -1636940.9, 101958.97, -0.014056273, -0.43626568, -1010241.3, 456519.78, 0.0062685395, 10.0049515, 9.996797 
2.7057526e+3, 1.6032232e+2, -912246.9, -1428735.4, 99823.33, 0.07655767, -0.4900035, -893625.1, 475176.78, 0.0016803297, 10.004605, 9.997722 
2.7056575e+3, 1.703211e+2, -900528.6, -1235514.4, 83820.74, 0.030221906, -0.42166147, -880725.56, 390086.97, 0.00022095497, 10.003422, 9.998941 
2.7055624e+3, 1.8032016e+2, -992109.7, -1278942.3, 78297.65, -0.035147488, -0.35287163, -972128.44, 200691.75, 0.000007542903, 10.002334, 9.998496 
2.7054688e+3, 1.9031763e+2, -891714.25, -1179650.8, 97025.43, -0.016584394, -0.39962924, -862071.44, 212773.56, 0.0, 10.002355, 9.998493 
2.7053753e+3, 2.003151e+2, -782800.94, -1068809.0, 79872.56, 0.012670394, -0.4573443, -762007.0, 214862.64, 0.0, 10.002396, 9.998564 
2.7052808e+3, 2.1031341e+2, -759776.4, -957157.6, 67331.08, -0.004819452, -0.46143425, -738996.06, 139888.55, 0.0, 10.001667, 9.999005 
2.7051866e+3, 2.2031198e+2, -792376.0, -957005.6, 76076.625, -0.016856458, -0.45254308, -762604.3, 18293.268, 0.0, 10.000919, 9.998695 
2.7050933e+3, 2.3031048e+2, -726941.1, -864071.4, 91374.8, 0.03644262, -0.4243423, -681267.4, 1647.7065, 0.0, 10.00065, 9.998789 
2.705e+3, 2.4030912e+2, -652002.4, -743954.6, 91559.04, 0.09144884, -0.4028199, -595524.3, -10593.067, 0.0, 10.000347, 9.999088 
2.704906e+3, 2.5030798e+2, -628379.8, -610071.2, 84975.81, 0.077021785, -0.41899875, -533758.0, -46815.637, 0.0, 9.999527, 9.99973 
2.7048117e+3, 2.6030713e+2, -653262.8, -582747.44, 86033.68, 0.052744567, -0.42985922, -525027.2, -136076.56, 0.0, 9.998731, 9.99963 
2.7047172e+3, 2.7030706e+2, -550366.0, -446618.63, 65599.266, 0.04066117, -0.36652082, -414861.3, -123909.48, 0.0, 9.9986105, 9.9999485 
2.704623e+3, 2.8030708e+2, -478451.75, -367936.38, 76235.2, 0.057989188, -0.31358245, -329038.78, -136086.67, 0.0, 9.998459, 9.999891 
2.70453e+3, 2.9030597e+2, -449951.03, -261171.0, 61327.09, 0.1226961, -0.38830733, -242997.77, -148036.48, 0.0, 9.997795, 10.000272 
2.7044362e+3, 3.0030492e+2, -468957.56, -221126.44, 60337.227, 0.12078713, -0.4752912, -207217.3, -207217.3, 0.0, 9.996996, 10.000262 
2.704343e+3, 3.103047e+2, -505522.94, -143636.83, 64487.652, 0.18251535, -0.51466715, -132488.64, -132488.64, 0.0, 9.996108, 10.000886 
2.7042484e+3, 3.2030705e+2, -463003.3, 988.08606, -104052.41, 0.18978922, -0.31872037, 23253.88, 23253.88, 0.0, 9.995856, 10.002005 
2.716041e+3, 1.304282e+2, -1060281.8, -1664333.6, -12693.046, -0.010840299, -0.46768257, -1060015.1, 601744.3, 0.019032024, 10.005757, 9.997569 
2.7159452e+3, 1.4042509e+2, -1048147.3, -1636382.0, 9493.464, 0.06815934, -0.4837616, -1047994.1, 515796.06, 0.011029956, 10.005227, 9.997348 
2.71585e+3, 1.5042311e+2, -974570.06, -1522950.0, 93206.78, -0.027381968, -0.3779346, -959160.94, 506650.28, 0.004630525, 10.004916, 9.997599 
2.715755e+3, 1.6042109e+2, -915145.0, -1415393.3, 67781.03, -0.08415188, -0.30336094, -906123.7, 461708.7, 0.0011853701, 10.004515, 9.997859 
2.71566e+3, 1.7041743e+2, -935267.44, -1305793.0, 33919.695, -0.029407155, -0.44382313, -932187.8, 337677.88, 0.00014779525, 10.003411, 9.998466 
2.7155647e+3, 1.8041416e+2, -999375.75, -1306092.0, 59585.316, 0.015639728, -0.56792253, -988206.9, 183688.78, 0.0000045032148, 10.002382, 9.998288 
2.715471e+3, 1.9041303e+2, -887569.06, -1175749.0, 104538.72, 0.017659605, -0.47195047, -853641.5, 220266.55, 0.0, 10.002371, 9.998514 
2.7153772e+3, 2.00412e+2, -790577.2, -1078486.6, 66354.41, 0.020314466, -0.38111287, -776020.5, 199898.78, 0.0, 10.002363, 9.998515 
2.715282e+3, 2.1040946e+2, -770000.6, -976992.56, 36329.156, 0.02822871, -0.45825714, -763809.7, 114132.65, 0.0, 10.001658, 9.998875 
2.7151874e+3, 2.2040713e+2, -790637.06, -954751.94, 58504.293, 0.030842058, -0.53017604, -771916.6, 8047.339, 0.0, 10.000921, 9.998712 
2.7150932e+3, 2.3040617e+2, -715990.5, -843314.1, 83941.41, 0.0240621, -0.46098197, -674300.6, 7676.1045, 0.0, 10.000655, 9.998932 
2.7149993e+3, 2.4040547e+2, -642957.2, -725417.0, 69774.42, 0.02731524, -0.38559958, -603141.56, -19154.957, 0.0, 10.000344, 9.99922 
2.714905e+3, 2.5040478e+2, -621461.8, -595289.44, 50911.785, 0.0793003, -0.36940506, -555808.94, -69815.984, 0.0, 9.999522, 9.999835 
2.7148107e+3, 2.6040405e+2, -653788.44, -587602.75, 69807.86, 0.1161749, -0.37275684, -543441.0, -155442.0, 0.0, 9.998743, 9.999593 
2.714716e+3, 2.704026e+2, -561508.7, -474906.78, 64149.465, 0.07155615, -0.4347828, -440811.8, -150799.67, 0.0, 9.998628, 9.999749 
2.714621e+3, 2.804013e+2, -494413.13, -410922.53, 61275.453, 0.054840423, -0.4927019, -378523.72, -186499.36, 0.0, 9.998496, 9.999581 
2.7145278e+3, 2.9040056e+2, -474505.88, -317725.72, 31995.906, 0.17179674, -0.48916283, -311447.38, -217415.31, 0.0, 9.997815, 9.999877 
2.7144337e+3, 3.0040058e+2, -458808.06, -200470.61, 26652.668, 0.20911628, -0.44692895, -197749.52, -197749.52, 0.0, 9.996994, 10.000408 
2.7143377e+3, 3.104026e+2, -474577.0, -68340.63, 29489.31, 0.07507454, -0.30638936, -66211.125, -66211.125, 0.0, 9.996055, 10.001432 
2.7142438e+3, 3.2040107e+2, -443341.22, 30060.773, 29272.725, 0.21159595, -0.54526263, 31863.979, 31863.979, 0.0, 9.995913, 10.002173 
2.7260455e+3, 1.3052398e+2, -1140442.6, -1747354.5, -29439.943, -0.07239695, -0.5029181, -1139017.9, 521800.78, 0.014332944, 10.005355, 9.997197 
2.7259505e+3, 1.4052102e+2, -1018701.5, -1601483.0, 13642.016, 0.102294646, -0.4800938, -1018382.3, 544467.25, 0.008116807, 10.005331, 9.997537 
2.725854e+3, 1.5051928e+2, -1014232.06, -1471497.1, 83101.195, -0.020071851, -0.4052053, -999598.0, 465268.72, 0.00328342, 10.004337, 9.998228 
2.7257583e+3, 1.605175e+2, -1063774.9, -1468717.0, 52369.945, -0.10804889, -0.35527065, -1057111.6, 309772.28, 0.0007977349, 10.003417, 9.998018 
2.725663e+3, 1.7051399e+2, -965417.7, -1348175.8, 32679.715, -0.022471158, -0.46667725, -962647.56, 306269.75, 0.00009313198, 10.00333, 9.998211 
2.7255675e+3, 1.8051074e+2, -880443.56, -1255692.9, 74874.02, 0.0544513, -0.5666188, -866055.5, 304892.88, 0.0000024128854, 10.003235, 9.998222 
2.725473e+3, 1.9050953e+2, -861457.44, -1154593.6, 126324.03, 0.038240936, -0.4832412, -814531.44, 258429.95, 0.0, 10.002519, 9.998585 
2.725379e+3, 2.0050845e+2, -866011.25, -1109141.9, 87684.97, 0.023006214, -0.40203646, -837687.3, 137285.45, 0.0, 10.001825, 9.99856 
2.7252838e+3, 2.1050607e+2, -779682.94, -981449.3, 64306.766, 0.04000572, -0.464155, -760930.1, 116064.85, 0.0, 10.001596, 9.998872 
2.725188e+3, 2.2050385e+2, -726915.7, -918030.56, 94084.99, 0.05283789, -0.5243936, -688371.6, 90644.4, 0.0, 10.001338, 9.998762 
2.7250934e+3, 2.3050281e+2, -709256.75, -829760.5, 115837.72, 0.026164867, -0.46951494, -638938.06, 42090.67, 0.0, 10.000662, 9.99902 
2.724999e+3, 2.4050204e+2, -685153.94, -737780.25, 97319.55, 0.013952157, -0.40735835, -610653.0, -27614.543, 0.0, 10.000026, 9.999285 
2.7249044e+3, 2.5050145e+2, -557851.7, -563325.25, 72010.3, 0.07869294, -0.38168567, -488526.2, -3482.4385, 0.0, 9.99996, 9.999841 
2.7248096e+3, 2.605008e+2, -506750.03, -526777.1, 84033.28, 0.13322756, -0.3777769, -432135.78, -45086.344, 0.0, 9.999803, 9.999496 
2.7247143e+3, 2.7049893e+2, -516894.16, -472146.94, 77835.37, 0.093006834, -0.4646775, -413533.38, -124467.01, 0.0, 9.999022, 9.999576 
2.7246195e+3, 2.804972e+2, -541631.44, -443700.38, 79451.43, 0.0811287, -0.54772335, -399337.72, -208255.33, 0.0, 9.99822, 9.999486 
2.7245253e+3, 2.9049674e+2, -464177.03, -316866.2, 73606.47, 0.17866144, -0.5114543, -286391.72, -193303.58, 0.0, 9.997912, 9.999832 
2.7244303e+3, 3.0049703e+2, -392159.94, -179175.8, 69508.89, 0.19410928, -0.42948914, -158498.5, -158498.5, 0.0, 9.997508, 10.000301 
2.7243337e+3, 3.104989e+2, -433425.97, -64396.242, 12468.395, 0.112394616, -0.2915721, -63975.45, -63975.45, 0.0, 9.996412, 10.001284 
2.7242392e+3, 3.2049647e+2, -426271.7, 59889.684, 76341.91, 0.19402744, -0.61786264, 71595.78, 71595.78, 0.0, 9.995949, 10.002357 
2.73605e+3, 1.3062006e+2, -1128748.8, -1725700.3, -20537.506, -0.13537896, -0.49812797, -1128043.0, 531834.2, 0.010386961, 10.005355, 9.997342 
2.735955e+3, 1.4061807e+2, -1004786.3, -1556695.8, -1791.1401, 0.06397351, -0.40012023, -1004780.5, 557118.06, 0.0057220277, 10.005249, 9.997884 
2.7358583e+3, 1.5061504e+2, -983044.2, -1404077.5, 42944.973, 0.0028374451, -0.49965206, -978708.5, 485217.1, 0.0022164274, 10.004317, 9.998703 
2.735762e+3, 1.6061229e+2, -1049321.8, -1444239.5, 32905.992, -0.033248063, -0.5847147, -1046598.7, 319351.44, 0.00050785026, 10.003437, 9.9981785 
2.7356663e+3, 1.7061087e+2, -971860.06, -1362275.6, 33868.984, 0.031946328, -0.48340458, -968943.7, 299022.53, 0.00005459018, 10.003329, 9.9981165 
2.7355707e+3, 1.8060946e+2, -883248.75, -1255045.8, 60036.426, 0.07929591, -0.39208606, -873794.7, 296187.38, 0.0000011019603, 10.003203, 9.998243 
2.7354753e+3, 1.9060694e+2, -857475.1, -1143796.3, 97749.5, 0.045933917, -0.4484281, -827286.6, 244719.92, 0.0, 10.002504, 9.998667 
2.7353802e+3, 2.0060459e+2, -859660.56, -1095445.5, 71558.71, 0.015930548, -0.50345385, -839642.6, 134386.38, 0.0, 10.001821, 9.998658 
2.7352846e+3, 2.1060324e+2, -770883.06, -965342.4, 58288.02, 0.031156426, -0.4740251, -754750.0, 121292.4, 0.0, 10.001602, 9.998981 
2.7351892e+3, 2.20602e+2, -724367.4, -910308.3, 76633.12, 0.045519195, -0.44475567, -696854.9, 81199.99, 0.0, 10.001324, 9.998823 
2.735094e+3, 2.3060033e+2, -709205.5, -829660.94, 88722.03, 0.041326944, -0.45511857, -662199.94, 17871.906, 0.0, 10.000659, 9.9990225 
2.7349988e+3, 2.4059884e+2, -685479.9, -742368.56, 84557.51, 0.04179363, -0.46468595, -624710.7, -42623.816, 0.0, 10.000039, 9.999249 
2.7349037e+3, 2.50598e+2, -562468.56, -577258.5, 70962.17, 0.07188626, -0.4565687, -498517.06, -14421.912, 0.0, 9.999974, 9.999741 
2.7348086e+3, 2.6059726e+2, -513469.7, -547876.9, 65145.64, 0.09555004, -0.44754767, -463294.34, -77191.836, 0.0, 9.99983, 9.999341 
2.7347133e+3, 2.705961e+2, -528332.6, -497347.66, 43442.434, 0.10240356, -0.44921187, -466717.9, -178603.67, 0.0, 9.999024, 9.999402 
2.7346176e+3, 2.8059506e+2, -531353.06, -422932.2, 59223.31, 0.1259609, -0.45305112, -396854.56, -206730.3, 0.0, 9.998219, 9.999631 
2.7345225e+3, 2.9059467e+2, -438193.0, -265792.5, 64500.668, 0.1332067, -0.4409997, -244332.1, -152204.34, 0.0, 9.997919, 10.000182 
2.734426e+3, 3.005943e+2, -421098.7, -245938.44, 41696.555, 0.07430424, -0.4373742, -236519.17, -236519.17, 0.0, 9.997533, 9.999833 
2.7343315e+3, 3.105929e+2, -508260.16, -223474.98, -34567.73, 0.29203603, -0.53253806, -219339.16, -219339.16, 0.0, 9.996426, 10.000186 
2.734234e+3, 3.2059392e+2, -414268.44, 66259.61, 66427.25, 0.14523482, -0.4261407, 75273.305, 75273.305, 0.0, 9.995999, 10.00239 
2.7460548e+3, 1.307171e+2, -1093572.9, -1654684.6, 28176.492, -0.1011795, -0.501195, -1092161.5, 566763.9, 0.0071823387, 10.005345, 9.997837 
2.745959e+3, 1.4071533e+2, -1100237.0, -1586345.5, 52423.54, 0.03002648, -0.41723365, -1094647.6, 466295.56, 0.0038305891, 10.004513, 9.9980345 
2.745862e+3, 1.5071212e+2, -1029812.4, -1441049.0, 62835.09, 0.009113705, -0.52654696, -1020425.7, 442546.75, 0.0014119286, 10.004064, 9.998567 
2.7457657e+3, 1.6070923e+2, -1010178.75, -1416528.4, 32114.953, 0.01237507, -0.61748815, -1007656.25, 357342.75, 0.00030290894, 10.003673, 9.998254 
2.745669e+3, 1.707082e+2, -978191.8, -1342081.0, 53610.168, 0.032300938, -0.4950182, -970458.06, 296553.38, 0.000029338584, 10.003189, 9.998322 
2.7455726e+3, 1.8070717e+2, -940501.3, -1259373.5, 89316.64, 0.040810093, -0.38499174, -917188.06, 251835.58, 0.00000039166414, 10.002714, 9.998446 
2.7454773e+3, 1.9070455e+2, -877588.94, -1133350.9, 127412.97, 0.042594183, -0.46672606, -824949.56, 246098.89, 0.0, 10.002285, 9.998842 
2.745382e+3, 2.0070213e+2, -848879.94, -1089988.6, 111795.95, 0.04513454, -0.5402036, -805021.1, 168050.31, 0.0, 10.0019, 9.998656 
2.745286e+3, 2.1070108e+2, -770309.1, -981293.0, 89557.67, 0.03464876, -0.46900707, -737420.7, 137662.66, 0.0, 10.001681, 9.998832 
2.74519e+3, 2.2070006e+2, -703791.2, -893243.75, 84573.555, 0.029237604, -0.40824106, -671530.25, 105564.42, 0.0, 10.001439, 9.998882 
2.7450943e+3, 2.3069811e+2, -654643.0, -783017.4, 99150.32, 0.046196505, -0.4618322, -600716.8, 78396.18, 0.0, 10.000952, 9.999199 
2.7449986e+3, 2.4069636e+2, -630610.6, -709376.4, 111578.47, 0.06761616, -0.51167303, -551668.6, 29460.533, 0.0, 10.000393, 9.999303 
2.7449033e+3, 2.5069562e+2, -609125.2, -604733.3, 105330.305, 0.082448624, -0.49181136, -501576.03, -18439.098, 0.0, 9.9996805, 9.99969 
2.7448076e+3, 2.6069495e+2, -624214.2, -608375.56, 105663.625, 0.091431074, -0.46830583, -510334.88, -125190.81, 0.0, 9.999105, 9.999271 
2.7447116e+3, 2.706938e+2, -487186.3, -487734.78, 90576.18, 0.09463012, -0.45198524, -396883.94, -109728.2, 0.0, 9.999359, 9.999303 
2.744616e+3, 2.8069293e+2, -362868.22, -345986.8, 95271.77, 0.12275798, -0.43329737, -258782.56, -69617.414, 0.0, 9.999404, 9.999584 
2.74452e+3, 2.9069263e+2, -392689.8, -245609.8, 66782.73, 0.14234655, -0.40833256, -219811.67, -128644.14, 0.0, 9.998244, 10.000161 
2.7444232e+3, 3.0069202e+2, -469198.34, -284330.13, 42752.8, 0.0863076, -0.42512286, -274921.88, -274921.88, 0.0, 9.997271, 9.999695 
2.7443278e+3, 3.1068906e+2, -307048.66, -154060.64, 32394.943, 0.28096297, -0.6509915, -147483.8, -147483.8, 0.0, 9.997928, 9.999939 
2.7442303e+3, 3.2069188e+2, -382795.66, 12252.502, 107939.086, 0.17263216, -0.3263141, 39820.867, 39820.867, 0.0, 9.996525, 10.0017605 
2.7560607e+3, 1.3081487e+2, -1051463.9, -1551503.0, -4286.908, -0.008044665, -0.51327556, -1051427.1, 606538.7, 0.004687205, 10.00527, 9.998583 
2.7559626e+3, 1.4081293e+2, -1105521.8, -1593248.6, 28327.25, -0.008813762, -0.50016093, -1103882.0, 456101.28, 0.0024083161, 10.004489, 9.997999 
2.7558655e+3, 1.5081032e+2, -1071071.8, -1529815.5, 50208.063, -0.00055532757, -0.49906397, -1065640.9, 396368.25, 0.0008394076, 10.00407, 9.997957 
2.755769e+3, 1.6080786e+2, -1009124.94, -1416021.5, 19490.986, 0.032290306, -0.5030914, -1008193.44, 355840.3, 0.0001670243, 10.003676, 9.998257 
2.7556714e+3, 1.7080589e+2, -951341.4, -1282233.0, 37967.35, -0.01056846, -0.50913084, -947040.75, 319012.6, 0.000014111729, 10.003168, 9.998743 
2.755574e+3, 1.8080412e+2, -924042.7, -1216537.9, 73748.34, -0.05045824, -0.51394564, -906500.25, 261570.72, 0.00000009505926, 10.002674, 9.998761 
2.755479e+3, 1.9080245e+2, -861732.0, -1099992.8, 111528.48, 0.029348856, -0.52536273, -817673.4, 252413.34, 0.0, 10.002281, 9.999075 
2.755384e+3, 2.0080093e+2, -857041.75, -1108155.0, 99660.18, 0.09986535, -0.5224449, -822296.75, 149805.03, 0.0, 10.001902, 9.998532 
2.755287e+3, 2.1079952e+2, -799051.4, -1040472.9, 82839.48, 0.046876483, -0.45331, -773360.4, 100758.125, 0.0, 10.001677, 9.998429 
2.7551904e+3, 2.2079809e+2, -703436.94, -889157.25, 71499.055, -0.0023034678, -0.40585837, -679100.1, 97034.58, 0.0, 10.001422, 9.99892 
2.7550948e+3, 2.3079616e+2, -630727.4, -734045.56, 79974.1, 0.039597884, -0.48543, -587178.7, 90973.08, 0.0, 10.000952, 9.999537 
2.754999e+3, 2.4079454e+2, -621711.9, -690914.44, 87000.38, 0.086566344, -0.5495672, -562684.56, 17481.121, 0.0, 10.00039, 9.9994335 
2.7549028e+3, 2.5079423e+2, -612097.8, -609511.56, 77186.66, 0.109644115, -0.48805243, -533607.2, -51438.03, 0.0, 9.999672, 9.999663 
2.7548063e+3, 2.6079383e+2, -623024.0, -607858.0, 101611.9, 0.11345444, -0.4344447, -513546.56, -129373.02, 0.0, 9.999111, 9.999274 
2.7547103e+3, 2.7079216e+2, -485260.66, -489885.84, 104109.47, 0.06536151, -0.47604987, -383438.1, -97247.19, 0.0, 9.99938, 9.999282 
2.7546144e+3, 2.807907e+2, -374441.5, -382563.4, 71913.75, 0.063417554, -0.5032808, -306474.16, -118268.08, 0.0, 9.999454, 9.999311 
2.7545187e+3, 2.9079053e+2, -426686.4, -314819.97, 15087.691, 0.21562861, -0.42237005, -312820.8, -222612.17, 0.0, 9.998238, 9.99969 
2.7544215e+3, 3.0079025e+2, -450681.8, -239542.48, 42723.703, 0.23607983, -0.3811428, -231225.06, -231225.06, 0.0, 9.99724, 10.000019 
2.7543232e+3, 3.1078815e+2, -228078.72, -20552.037, 72437.17, 0.044893395, -0.5975255, 2230.9556, 2230.9556, 0.0, 9.998051, 10.0008 
2.754227e+3, 3.2078972e+2, -498079.3, -208676.84, -78615.54, 0.25570035, -0.41731444, -188700.05, -188700.05, 0.0, 9.996468, 10.000258 
2.7660653e+3, 1.3091365e+2, -1147420.1, -1622106.8, 27487.61, 0.005574518, -0.50791186, -1145833.6, 511162.3, 0.0028437288, 10.0047, 9.998373 
2.7659664e+3, 1.4091104e+2, -1129192.1, -1606770.5, 25497.781, -0.032529876, -0.54428875, -1127834.6, 431185.88, 0.0013992351, 10.004333, 9.997982 
2.765869e+3, 1.5090887e+2, -1078194.4, -1524057.4, 84417.945, -0.015407469, -0.50565994, -1062746.3, 398296.56, 0.00045750345, 10.0039835, 9.998037 
2.765772e+3, 1.6090682e+2, -1015179.2, -1405494.0, 76229.88, 0.03230289, -0.4775717, -1000819.5, 362244.4, 0.000083043655, 10.00358, 9.998374 
2.7656737e+3, 1.7090456e+2, -990658.2, -1285711.9, 77485.31, -0.006581083, -0.52262765, -971547.25, 293538.1, 0.000005757098, 10.002839, 9.998876 
2.765576e+3, 1.8090256e+2, -990875.4, -1247227.0, 106827.23, -0.04799602, -0.558278, -952194.7, 214909.83, 0.00000000965895, 10.002217, 9.998768 
2.7654806e+3, 1.9090131e+2, -878814.1, -1120780.4, 129248.45, 0.016091611, -0.51966774, -822760.3, 246357.05, 0.0, 10.002223, 9.998959 
2.7653852e+3, 2.0090005e+2, -815155.2, -1080908.3, 95821.59, 0.08081974, -0.48105243, -784208.8, 186921.7, 0.0, 10.00216, 9.998592 
2.7652884e+3, 2.1089822e+2, -817181.2, -1031067.6, 106907.51, 0.049242146, -0.46748745, -772909.1, 100241.12, 0.0, 10.001478, 9.998588 
2.7651915e+3, 2.2089653e+2, -783092.25, -911303.56, 127142.516, 0.01649459, -0.4612386, -704808.44, 70359.79, 0.0, 10.000812, 9.99906 
2.765095e+3, 2.3089518e+2, -686622.75, -748474.75, 124182.49, 0.044001054, -0.49401644, -589573.3, 87606.97, 0.0, 10.000519, 9.999644 
2.7649987e+3, 2.4089397e+2, -634922.3, -702740.4, 117681.63, 0.082769394, -0.52017367, -546361.8, 32828.867, 0.0, 10.000328, 9.999379 
2.7649024e+3, 2.508933e+2, -512118.34, -582496.25, 96041.51, 0.11332458, -0.47950196, -445022.25, 36175.754, 0.0, 10.000456, 9.999469 
2.764806e+3, 2.6089254e+2, -438380.9, -515057.1, 110029.836, 0.12439464, -0.44677067, -360201.3, 23004.469, 0.0, 10.00037, 9.999301 
2.7647093e+3, 2.708909e+2, -476095.8, -466421.53, 122280.89, 0.06467855, -0.49668095, -348882.16, -63659.965, 0.0, 9.999367, 9.999446 
2.7646127e+3, 2.8088948e+2, -516012.9, -455665.72, 101207.01, 0.05199933, -0.52740765, -380230.13, -192993.5, 0.0, 9.998507, 9.999263 
2.7645165e+3, 2.9088944e+2, -368880.47, -310974.56, 58351.51, 0.20932367, -0.41923463, -274787.88, -185548.63, 0.0, 9.998746, 9.999468 
2.764419e+3, 3.0088925e+2, -245601.44, -130684.555, 93318.93, 0.25100613, -0.35405502, -78553.33, -78553.33, 0.0, 9.998617, 10.000097 
2.7643204e+3, 3.1088725e+2, -409175.4, -79657.6, 83306.016, 0.05659088, -0.58073103, -59794.215, -59794.215, 0.0, 9.996696, 10.001042 
2.7642232e+3, 3.208884e+2, -431027.72, -200398.56, -133628.27, 0.22352134, -0.45581266, -139208.28, -139208.28, 0.0, 9.997042, 10.000034 
2.776069e+3, 1.3101321e+2, -1209192.1, -1747163.5, 12361.846, -0.038230665, -0.48771793, -1208908.3, 447109.88, 0.0015691025, 10.004686, 9.997518 
2.77597e+3, 1.4100964e+2, -1132224.5, -1608525.6, 16911.092, -0.05032359, -0.56127805, -1131624.9, 426429.63, 0.00073285226, 10.004311, 9.997981 
2.7758723e+3, 1.5100776e+2, -1043904.44, -1446100.1, 73338.36, -0.03587076, -0.5404712, -1030948.9, 429124.44, 0.00022179255, 10.003949, 9.998591 
2.7757752e+3, 1.6100606e+2, -1009941.44, -1383926.1, 52031.52, 0.016923979, -0.51991826, -1002837.4, 359252.66, 0.00003543484, 10.0035305, 9.998548 
2.7756765e+3, 1.710041e+2, -994448.8, -1299015.8, 48193.273, 0.03173262, -0.531314, -987004.9, 277103.63, 0.0000017161015, 10.00286, 9.998775 
2.7755785e+3, 1.8100232e+2, -1002271.6, -1283853.9, 97377.48, 0.021703461, -0.52992046, -971877.1, 194248.77, 0.00000000000031198744, 10.002271, 9.998492 
2.7754822e+3, 1.9100098e+2, -908481.9, -1182145.5, 133454.4, -0.00070915156, -0.46152946, -854177.56, 213963.77, 0.0, 10.002218, 9.998541 
2.7753863e+3, 2.0099954e+2, -806930.9, -1052481.3, 81037.07, -0.004899545, -0.41910183, -782598.1, 187559.08, 0.0, 10.002109, 9.998814 
2.7752894e+3, 2.1099724e+2, -773890.06, -938862.2, 78984.234, 0.04277238, -0.5095086, -742172.56, 130005.945, 0.0, 10.001466, 9.999228 
2.7751923e+3, 2.2099534e+2, -770408.5, -884273.7, 109979.55, 0.07661585, -0.5734436, -703499.2, 70696.77, 0.0, 10.000806, 9.99925 
2.775095e+3, 2.3099509e+2, -695267.25, -767818.3, 114716.17, 0.056266457, -0.4886502, -611227.7, 64971.43, 0.0, 10.000523, 9.999512 
2.7749982e+3, 2.4099468e+2, -651189.6, -740094.6, 117059.28, 0.046553697, -0.41942048, -570426.7, 7777.2417, 0.0, 10.00034, 9.999119 
2.774902e+3, 2.5099277e+2, -535631.5, -636263.44, 101322.48, 0.090806, -0.4647882, -472819.47, 7404.07, 0.0, 10.000473, 9.999093 
2.7748057e+3, 2.6099104e+2, -431133.56, -506594.56, 86465.8, 0.12020459, -0.50891083, -374524.66, 7716.7354, 0.0, 10.000395, 9.99935 
2.7747086e+3, 2.709901e+2, -454538.2, -418091.0, 78462.0, 0.09554673, -0.5137377, -355764.1, -71514.32, 0.0, 9.99935, 9.999786 
2.774611e+3, 2.809895e+2, -508175.94, -430734.16, 93227.74, 0.087931074, -0.49668112, -368505.97, -182250.14, 0.0, 9.998467, 9.999455 
2.7745137e+3, 2.909894e+2, -361173.34, -304333.84, 73849.84, 0.10226325, -0.39503005, -253624.06, -165365.6, 0.0, 9.99878, 9.9995 
2.774416e+3, 3.0098894e+2, -250008.42, -164294.44, 47259.246, 0.0996884, -0.35228267, -143353.64, -143353.64, 0.0, 9.998716, 9.999822 
2.7743196e+3, 3.1098604e+2, -469695.9, -173565.5, -5503.495, 0.3851345, -0.6202178, -173463.25, -173463.25, 0.0, 9.996559, 10.0004635 
2.774218e+3, 3.2098842e+2, -307814.28, 15753.414, 44424.023, 0.057968225, -0.3717437, 21741.756, 21741.756, 0.0, 9.997164, 10.001485 
2.7860734e+3, 1.3111275e+2, -1215147.4, -1737534.9, 15596.342, -0.031965856, -0.49713778, -1214682.1, 440359.84, 0.000763291, 10.0045805, 9.997638 
2.7859738e+3, 1.4110924e+2, -1159618.3, -1608146.9, 58876.1, -0.04400057, -0.5755158, -1152018.6, 405059.3, 0.0003338508, 10.004062, 9.998103 
2.7858752e+3, 1.5110756e+2, -1108581.8, -1465465.6, 96374.53, -0.047316574, -0.5423787, -1084219.4, 374875.5, 0.00009108237, 10.00346, 9.998692 
2.7857774e+3, 1.6110604e+2, -1081028.1, -1414477.1, 58835.035, -0.0021639455, -0.5108681, -1070951.5, 290158.47, 0.000011753326, 10.003033, 9.998575 
2.785679e+3, 1.7110409e+2, -956449.8, -1286632.5, 58218.59, 0.03808837, -0.5184495, -946485.3, 316642.9, 0.00000025139548, 10.003148, 9.998721 
2.785581e+3, 1.811022e+2, -888216.44, -1235991.3, 104631.55, 0.048180766, -0.5200964, -859164.0, 305982.34, 0.0, 10.003081, 9.998431 
2.785484e+3, 1.9110048e+2, -939084.94, -1204679.4, 155699.34, 0.0012399023, -0.482927, -867242.5, 199922.89, 0.0, 10.002048, 9.998467 
2.7853873e+3, 2.0109881e+2, -935122.56, -1096333.1, 124822.8, -0.023537584, -0.46128482, -867141.4, 102041.81, 0.0, 10.001163, 9.998964 
2.7852902e+3, 2.1109694e+2, -789436.8, -917073.75, 105283.76, 0.042372752, -0.53117466, -730139.6, 141060.16, 0.0, 10.00124, 9.999483 
2.785193e+3, 2.2109535e+2, -701753.8, -853120.94, 110524.56, 0.09705823, -0.58088267, -643483.3, 129730.57, 0.0, 10.001288, 9.999229 
2.7850956e+3, 2.3109491e+2, -667870.06, -778726.8, 104619.516, 0.059258077, -0.4979099, -604902.7, 70317.08, 0.0, 10.000818, 9.999292 
2.784998e+3, 2.4109438e+2, -658499.0, -739959.3, 112044.164, 0.031880915, -0.42721665, -580011.5, -2784.9067, 0.0, 10.00028, 9.9991455 
2.7849016e+3, 2.510926e+2, -638474.5, -667060.1, 135072.03, 0.07443289, -0.47202498, -516941.2, -37696.55, 0.0, 9.999691, 9.999256 
2.784805e+3, 2.6109093e+2, -589168.4, -571162.7, 145039.78, 0.110049486, -0.5186841, -434846.6, -53585.4, 0.0, 9.999263, 9.99945 
2.7847075e+3, 2.7109015e+2, -423195.3, -396079.7, 114840.08, 0.104165964, -0.51842606, -293999.88, -10731.573, 0.0, 9.999543, 9.999842 
2.7846098e+3, 2.8108963e+2, -335829.22, -336786.0, 115396.99, 0.109734, -0.4973148, -220909.63, -35636.492, 0.0, 9.999615, 9.999543 
2.7845117e+3, 2.9108942e+2, -349817.47, -287754.0, 101941.17, 0.076589055, -0.41932097, -212226.03, -124949.01, 0.0, 9.9988165, 9.999594 
2.784413e+3, 3.0108878e+2, -344130.63, -228663.34, 61313.516, 0.045683034, -0.39092344, -202179.89, -202179.89, 0.0, 9.998156, 9.999647 
2.7843174e+3, 3.1108606e+2, -235037.77, -95381.586, 4157.582, 0.46781486, -0.61060786, -95257.92, -95257.92, 0.0, 9.998329, 10.000144 
2.7842143e+3, 3.2108843e+2, -265062.3, 131818.27, 168503.28, 0.0294364, -0.36245066, 193708.34, 193708.34, 0.0, 9.997055, 10.002332 
2.796078e+3, 1.3121232e+2, -1181134.6, -1630745.8, -2012.4078, 0.0025688426, -0.52565, -1181125.6, 472940.63, 0.00031436214, 10.004425, 9.998445 
2.7959776e+3, 1.4120965e+2, -1148961.8, -1581979.0, 38354.48, -0.025199478, -0.58342004, -1145590.8, 410501.97, 0.00012574017, 10.004043, 9.998293 
2.795878e+3, 1.5120816e+2, -1121363.4, -1497171.9, 75812.52, -0.056830596, -0.5170373, -1106645.9, 351462.78, 0.00002907313, 10.003479, 9.9984665 
2.7957797e+3, 1.6120669e+2, -1087594.6, -1429316.3, 56582.766, -0.03311935, -0.4623324, -1078469.3, 281655.0, 0.0000024460635, 10.0030365, 9.998473 
2.7956817e+3, 1.7120446e+2, -965162.8, -1296759.1, 66625.484, 0.018208351, -0.49171323, -952276.94, 309867.88, 0.0000000042322403, 10.003111, 9.998672 
2.7955836e+3, 1.8120222e+2, -890036.44, -1224926.5, 82045.26, 0.041377045, -0.52949965, -871016.25, 293149.5, 0.0, 10.0030155, 9.998541 
2.7954856e+3, 1.9119988e+2, -925879.1, -1175871.6, 113977.75, 0.01760068, -0.5715773, -881715.7, 184473.25, 0.0, 10.00204, 9.998669 
2.795388e+3, 2.0119798e+2, -929597.06, -1088763.9, 112483.87, 0.0067669707, -0.590484, -871390.3, 96817.766, 0.0, 10.001177, 9.99901 
2.795291e+3, 2.1119736e+2, -793871.7, -929029.2, 112449.31, 0.044721648, -0.53108495, -730256.94, 139957.36, 0.0, 10.001248, 9.999399 
2.7951935e+3, 2.2119656e+2, -719740.4, -887468.9, 101547.57, 0.07299572, -0.4873396, -671903.7, 100318.5, 0.0, 10.001273, 9.999002 
2.7950957e+3, 2.3119463e+2, -690822.25, -826563.94, 85473.01, 0.052517027, -0.52290624, -649550.56, 24691.723, 0.0, 10.000816, 9.998967 
2.7949977e+3, 2.4119303e+2, -637339.7, -695640.4, 90571.91, 0.036310073, -0.5455762, -571342.7, 4916.2046, 0.0, 10.000276, 9.9994545 
2.7949005e+3, 2.5119278e+2, -591233.06, -566412.9, 112093.32, 0.062253673, -0.5024789, -466044.75, 12216.536, 0.0, 9.999679, 9.999954 
2.7948034e+3, 2.611924e+2, -581973.06, -555282.06, 145188.31, 0.08300649, -0.47146046, -422827.2, -42562.746, 0.0, 9.999257, 9.999563 
2.7947062e+3, 2.7119103e+2, -440585.6, -436988.44, 128208.73, 0.08552608, -0.50879735, -310565.7, -28288.139, 0.0, 9.999558, 9.999556 
2.7946088e+3, 2.811898e+2, -330471.7, -338601.34, 97862.016, 0.10995573, -0.53612804, -236590.13, -52300.69, 0.0, 9.999667, 9.999507 
2.7945107e+3, 2.9118928e+2, -341853.53, -267554.4, 65000.313, 0.14984307, -0.50230783, -229836.56, -143540.63, 0.0, 9.998799, 9.999742 
2.7944115e+3, 3.011887e+2, -357997.13, -242072.5, 57511.906, 0.11059494, -0.47528905, -218381.6, -218381.6, 0.0, 9.998087, 9.99959 
2.7943128e+3, 3.1118748e+2, -221744.3, -100497.68, 19666.545, 0.20770794, -0.53365886, -97387.49, -97387.49, 0.0, 9.998462, 10.000049 
2.7942124e+3, 3.21188e+2, -292600.84, 95349.84, 17180.879, 0.17966026, -0.46699518, 96109.234, 96109.234, 0.0, 9.9969845, 10.002104 
2.8060812e+3, 1.3131249e+2, -1314063.1, -1651645.0, 52230.46, -0.012231492, -0.5706535, -1306166.9, 346917.06, 0.00010345241, 10.003325, 9.998833 
2.8059813e+3, 1.4131083e+2, -1195673.6, -1592047.9, 57329.668, 0.0046395324, -0.55305845, -1187548.4, 367551.38, 0.000035855977, 10.003668, 9.998406 
2.8058812e+3, 1.5130897e+2, -1144822.3, -1515487.5, 91453.586, -0.033103622, -0.52044946, -1123486.3, 333633.1, 0.00000603324, 10.003351, 9.998402 
2.8057826e+3, 1.6130711e+2, -1096520.1, -1435384.0, 85055.586, -0.021485493, -0.49792418, -1076369.4, 282769.34, 0.00000016363987, 10.002982, 9.998458 
2.805684e+3, 1.7130496e+2, -1048450.7, -1336906.1, 105179.2, 0.003367851, -0.51973647, -1014172.6, 246986.3, 0.0, 10.002545, 9.998666 
2.8055853e+3, 1.8130282e+2, -1005431.06, -1267614.8, 115043.914, 0.011989471, -0.5483757, -962109.06, 201069.95, 0.0, 10.002179, 9.998645 
2.8054872e+3, 1.9130063e+2, -916979.2, -1157548.9, 134977.3, 0.022176566, -0.5881803, -856467.75, 208732.6, 0.0, 10.002044, 9.998791 
2.8053895e+3, 2.012988e+2, -833691.5, -1048057.2, 136617.94, 0.038166847, -0.60424083, -767229.25, 199989.11, 0.0, 10.001856, 9.998964 
2.8052917e+3, 2.1129821e+2, -787691.94, -943334.0, 135852.45, 0.036283508, -0.52572924, -708949.9, 160275.22, 0.0, 10.0013685, 9.999242 
2.805194e+3, 2.2129746e+2, -771083.8, -908614.75, 121520.88, 0.03459468, -0.46970385, -700221.1, 71012.33, 0.0, 10.000912, 9.999028 
2.805096e+3, 2.3129526e+2, -705192.1, -820612.94, 131629.4, 0.048128914, -0.5397015, -619177.8, 54077.06, 0.0, 10.000669, 9.999076 
2.8049982e+3, 2.4129343e+2, -611710.1, -682882.6, 153071.52, 0.064679325, -0.5903967, -490142.7, 85130.09, 0.0, 10.000454, 9.999454 
2.8049004e+3, 2.5129336e+2, -501109.4, -530898.3, 121083.17, 0.071893945, -0.52242273, -394008.03, 83265.9, 0.0, 10.000336, 9.999879 
2.8048024e+3, 2.6129317e+2, -465861.16, -499333.84, 114626.64, 0.07556483, -0.467847, -366755.47, 12520.304, 0.0, 10.00006, 9.9995575 
2.8047052e+3, 2.712917e+2, -472439.84, -452371.3, 117045.19, 0.07479431, -0.5137284, -344931.06, -63641.4, 0.0, 9.999341, 9.999555 
2.8046077e+3, 2.8129035e+2, -459604.9, -400874.63, 98127.53, 0.10525513, -0.55464023, -327812.6, -144509.66, 0.0, 9.998777, 9.999509 
2.8045094e+3, 2.9128972e+2, -322237.9, -256492.2, 52963.08, 0.18150684, -0.53224415, -227029.58, -141719.36, 0.0, 9.99893, 9.999753 
2.8044096e+3, 3.0128917e+2, -252676.89, -190586.38, 40180.742, 0.14644925, -0.5047777, -170854.67, -170854.67, 0.0, 9.998814, 9.999591 
2.804309e+3, 3.112884e+2, -332348.22, -157073.14, 15269.038, 0.08387311, -0.5186707, -155752.92, -155752.92, 0.0, 9.997716, 10.000018 
2.80421e+3, 3.212882e+2, -166919.67, 91513.195, -25720.84, 0.24475716, -0.4996123, 94048.23, 94048.23, 0.0, 9.998131, 10.001521 
2.816083e+3, 1.3141316e+2, -1305639.8, -1639247.0, 68277.836, -0.069434166, -0.6214384, -1292206.5, 359889.25, 0.000024296578, 10.003354, 9.998899 
2.8159845e+3, 1.414126e+2, -1205829.1, -1594035.3, 54311.957, 0.036914546, -0.49966884, -1198373.8, 355726.8, 0.000006466996, 10.003586, 9.99843 
2.8158846e+3, 1.5140997e+2, -1152772.5, -1519614.4, 76882.2, 0.013838731, -0.5466459, -1137311.4, 318815.84, 0.00000052844416, 10.003293, 9.998403 
2.8157854e+3, 1.6140744e+2, -1095901.3, -1429291.1, 68707.336, 0.021748522, -0.59360725, -1082296.8, 275855.97, 0.0000000005064632, 10.002959, 9.998512 
2.815686e+3, 1.7140563e+2, -1042124.0, -1327503.9, 88950.23, -0.013253634, -0.58725077, -1016669.44, 243500.75, 0.0, 10.00256, 9.998725 
2.8155863e+3, 1.81404e+2, -999091.94, -1258264.0, 106590.01, -0.04584852, -0.5721354, -960886.5, 201299.7, 0.0, 10.002193, 9.998704 
2.815489e+3, 1.9140254e+2, -914958.4, -1152669.5, 130931.164, 0.016080769, -0.5434123, -856981.8, 207219.14, 0.0, 10.002038, 9.998829 
2.815391e+3, 2.014011e+2, -847912.44, -1070641.4, 122317.914, 0.06615931, -0.5199738, -793857.06, 172358.67, 0.0, 10.001824, 9.998826 
2.8152922e+3, 2.1139951e+2, -807089.5, -981256.75, 116674.31, 0.015990784, -0.51901096, -748583.1, 119649.43, 0.0, 10.001356, 9.998988 
2.8151938e+3, 2.2139803e+2, -756417.4, -873694.1, 109180.29, -0.020881532, -0.52372295, -691125.1, 79122.35, 0.0, 10.00089, 9.99928 
2.815096e+3, 2.313968e+2, -667793.4, -744532.3, 123243.17, 0.045210887, -0.5472316, -577085.0, 95172.8, 0.0, 10.000672, 9.999598 
2.8149986e+3, 2.4139558e+2, -634518.6, -733889.94, 147068.19, 0.104933545, -0.5603612, -528969.9, 45298.51, 0.0, 10.000467, 9.999099 
2.8149003e+3, 2.5139433e+2, -561294.06, -659226.1, 115692.04, 0.1022538, -0.53088653, -484632.4, -8349.477, 0.0, 10.000346, 9.998996 
2.8148022e+3, 2.613932e+2, -472034.78, -516375.2, 92669.086, 0.08647599, -0.5094867, -398920.78, -20624.752, 0.0, 10.000075, 9.999434 
2.8147042e+3, 2.7139214e+2, -453268.34, -409338.78, 85971.695, 0.07061866, -0.53426325, -342570.34, -62264.89, 0.0, 9.999326, 9.999858 
2.8146058e+3, 2.813913e+2, -461056.34, -396911.84, 92429.555, 0.08899616, -0.54709023, -331148.25, -148834.64, 0.0, 9.998744, 9.999554 
2.8145078e+3, 2.913908e+2, -332397.8, -280430.44, 60713.008, 0.16006339, -0.49810562, -240374.58, -156054.89, 0.0, 9.998938, 9.999587 
2.814408e+3, 3.0139017e+2, -237722.22, -171741.8, 10042.966, 0.13490124, -0.4742503, -170247.02, -170247.02, 0.0, 9.998863, 9.999698 
2.814307e+3, 3.113886e+2, -332514.4, -141893.27, -34029.63, 0.14366893, -0.5774058, -136000.47, -136000.47, 0.0, 9.997647, 10.000157 
2.8142074e+3, 3.213893e+2, -216169.7, -46533.863, 135994.8, 0.19668216, -0.4478702, 28925.05, 28925.05, 0.0, 9.99827, 10.000514 
2.826086e+3, 1.315144e+2, -1297860.6, -1606159.6, 65192.223, -0.068427734, -0.60304284, -1284642.0, 366461.2, 0.000003329977, 10.003275, 9.999168 
2.8259876e+3, 1.4151353e+2, -1277422.3, -1607039.1, 52858.08, 0.050579257, -0.5370637, -1269153.3, 283956.84, 0.00000050691085, 10.003003, 9.998622 
2.8258872e+3, 1.5151106e+2, -1225490.0, -1539377.9, 83032.945, 0.016656091, -0.5811557, -1204878.6, 250255.84, 0.0000000023756648, 10.002734, 9.998534 
2.8257877e+3, 1.6150872e+2, -1151213.3, -1447264.3, 81198.695, 0.018970236, -0.6186506, -1130405.1, 226752.75, 0.0, 10.002548, 9.998584 
2.825688e+3, 1.7150715e+2, -1049529.4, -1331519.9, 96524.516, 0.00121986, -0.5911328, -1019654.4, 239519.9, 0.0, 10.002511, 9.998721 
2.8255883e+3, 1.8150567e+2, -969020.1, -1242379.3, 106087.39, -0.024432717, -0.5603622, -932679.9, 228509.67, 0.0, 10.00239, 9.99872 
2.82549e+3, 1.9150415e+2, -935915.9, -1160235.0, 127480.63, -0.0018685261, -0.5396148, -878278.25, 184926.42, 0.0, 10.001888, 9.998847 
2.825392e+3, 2.0150264e+2, -904823.7, -1090582.9, 121440.234, 0.024320904, -0.52436227, -844816.56, 120403.125, 0.0, 10.001412, 9.998881 
2.825293e+3, 2.11501e+2, -839806.6, -992608.9, 133295.52, 0.012653699, -0.5328779, -762569.1, 104667.484, 0.0, 10.001119, 9.999022 
2.8251946e+3, 2.2149947e+2, -750545.06, -868266.8, 142952.56, 0.008469177, -0.54582965, -654809.56, 114442.32, 0.0, 10.000921, 9.999301 
2.8250965e+3, 2.3149827e+2, -624207.06, -722979.56, 125864.68, 0.049244605, -0.56543905, -538386.4, 132875.11, 0.0, 10.000973, 9.999599 
2.8249985e+3, 2.4149708e+2, -576104.8, -714028.8, 123664.6, 0.09220475, -0.57464576, -503473.44, 69798.35, 0.0, 10.000908, 9.999021 
2.8249004e+3, 2.514956e+2, -560781.3, -674331.56, 138799.03, 0.109039664, -0.556812, -467594.5, 7694.4526, 0.0, 10.000419, 9.998856 
2.824802e+3, 2.6149425e+2, -491565.1, -529505.4, 151505.4, 0.10647289, -0.542412, -357846.8, 19457.488, 0.0, 9.999957, 9.999402 
2.824703e+3, 2.7149343e+2, -394059.75, -378415.47, 123581.58, 0.064197704, -0.5453709, -262408.72, 16903.184, 0.0, 9.999726, 9.999876 
2.8246042e+3, 2.814928e+2, -362058.4, -345052.63, 124245.96, 0.06695975, -0.5387078, -229018.95, -47700.684, 0.0, 9.999415, 9.999582 
2.8245062e+3, 2.9149222e+2, -328649.28, -280472.88, 109094.13, 0.13790785, -0.4975098, -192839.23, -109514.18, 0.0, 9.998974, 9.999569 
2.8244063e+3, 3.0149138e+2, -264098.9, -199733.45, 51467.504, 0.12276441, -0.48185897, -171215.0, -171215.0, 0.0, 9.998745, 9.999564 
2.8243053e+3, 3.114897e+2, -118260.586, -64351.094, -31368.2, 0.20348457, -0.5816084, -49947.38, -49947.38, 0.0, 9.999231, 9.999925 
2.824205e+3, 3.214899e+2, -257642.06, -107893.71, 185075.52, 0.17486966, -0.46959996, 16879.53, 16879.53, 0.0, 9.998175, 10.000132 
2.8360894e+3, 1.3161606e+2, -1271829.8, -1543873.1, 54933.043, -0.026047979, -0.53985196, -1261156.1, 388951.2, 0.00000016214108, 10.003244, 9.999608 
2.83599e+3, 1.41614e+2, -1259729.9, -1564410.0, 40109.223, 0.038557854, -0.6313113, -1254538.3, 297585.84, 0.0000000020979667, 10.002977, 9.998927 
2.8358892e+3, 1.5161236e+2, -1209247.3, -1506845.8, 72108.96, -0.02387072, -0.6196159, -1192695.6, 261444.73, 0.0, 10.002736, 9.998758 
2.8357893e+3, 1.6161081e+2, -1149536.8, -1443385.9, 76024.27, -0.023225639, -0.59457874, -1131033.0, 225123.2, 0.0, 10.002544, 9.998614 
2.83569e+3, 1.7160936e+2, -1058686.0, -1346725.6, 94701.805, 0.04247145, -0.5464577, -1030339.56, 227832.92, 0.0, 10.002493, 9.998626 
2.835591e+3, 1.8160777e+2, -975330.7, -1247548.6, 91719.945, 0.059094407, -0.51913184, -947311.0, 212878.56, 0.0, 10.002356, 9.998702 
2.835491e+3, 1.9160552e+2, -936609.7, -1159476.0, 107755.7, -0.03530041, -0.5717478, -893031.06, 169179.72, 0.0, 10.001877, 9.998858 
2.8353915e+3, 2.016036e+2, -892131.0, -1061300.3, 107994.47, -0.08414402, -0.6060432, -839539.2, 124689.66, 0.0, 10.001397, 9.999091 
2.8352937e+3, 2.1160276e+2, -818013.75, -949947.7, 122994.164, 0.025236959, -0.56326014, -744412.8, 121824.336, 0.0, 10.001126, 9.999312 
2.8351957e+3, 2.2160172e+2, -766013.4, -900784.94, 141253.88, 0.1041044, -0.53929883, -676895.1, 91352.05, 0.0, 10.000921, 9.999079 
2.835097e+3, 2.3159972e+2, -661001.8, -798932.1, 128558.625, 0.05531959, -0.5944356, -584078.25, 86187.82, 0.0, 10.000968, 9.999082 
2.8349984e+3, 2.4159795e+2, -561813.94, -683242.9, 111416.99, 0.025857616, -0.63276476, -495642.7, 76640.17, 0.0, 10.0009, 9.999237 
2.8349e+3, 2.5159714e+2, -518147.8, -586557.8, 119092.59, 0.09046845, -0.60057396, -428445.47, 45846.51, 0.0, 10.00042, 9.999458 
2.8348017e+3, 2.6159644e+2, -486379.56, -522757.4, 139649.53, 0.12311425, -0.5660404, -363739.4, 12560.81, 0.0, 9.999971, 9.999443 
2.834702e+3, 2.715956e+2, -412680.78, -420985.88, 115466.2, 0.053072836, -0.54568577, -301292.5, -22983.998, 0.0, 9.999739, 9.99958 
2.834603e+3, 2.8159484e+2, -354967.7, -338096.66, 109481.914, 0.030430354, -0.53278744, -236725.78, -56409.082, 0.0, 9.999447, 9.999617 
2.8345042e+3, 2.9159397e+2, -318884.34, -257885.88, 92300.74, 0.11111645, -0.5370751, -191175.9, -108849.97, 0.0, 9.998963, 9.99973 
2.8344044e+3, 3.0159304e+2, -299077.4, -266924.47, 63706.58, 0.11369857, -0.5286941, -217297.19, -217297.19, 0.0, 9.998719, 9.999117 
2.8343046e+3, 3.1159174e+2, -156214.11, -169905.45, -7267.695, 0.256702, -0.5170407, -153075.66, -153075.66, 0.0, 9.999342, 9.999149 
2.8342023e+3, 3.215901e+2, -243802.27, -56529.28, 9758.085, 0.15333107, -0.5541816, -56022.2, -56022.2, 0.0, 9.998082, 10.000526 
2.846092e+3, 1.3171735e+2, -1322201.8, -1613060.1, 61928.008, -0.00026953482, -0.54996586, -1309565.4, 339548.56, 0.00000000032983427, 10.003086, 9.999211 
2.845992e+3, 1.4171542e+2, -1315795.5, -1579576.4, 16290.948, 0.030136304, -0.6058318, -1314793.1, 236338.1, 0.0, 10.002541, 9.999034 
2.845891e+3, 1.5171386e+2, -1236298.5, -1485429.4, 55884.246, -0.030594992, -0.61444193, -1224337.0, 228808.67, 0.0, 10.002404, 9.999064 
2.8457913e+3, 1.6171242e+2, -1173601.6, -1440542.8, 65899.8, -0.024895454, -0.6046382, -1158219.4, 196940.53, 0.0, 10.002317, 9.998743 
2.845692e+3, 1.717111e+2, -1106237.6, -1365140.8, 93959.06, 0.029183004, -0.54817134, -1075732.9, 181442.11, 0.0, 10.0021515, 9.998661 
2.8455925e+3, 1.8170965e+2, -1023411.5, -1248478.1, 93361.9, 0.043650076, -0.5170031, -989725.1, 169465.81, 0.0, 10.001936, 9.998893 
2.8454924e+3, 1.9170754e+2, -965273.75, -1147877.8, 116911.18, -0.019256057, -0.57848185, -908237.4, 152972.9, 0.0, 10.001574, 9.9990835 
2.8453928e+3, 2.017057e+2, -899670.3, -1058261.8, 132092.97, -0.04566616, -0.6214423, -824899.94, 138327.25, 0.0, 10.001315, 9.999154 
2.8452948e+3, 2.1170475e+2, -785119.06, -936996.6, 130627.16, 0.04004561, -0.5883145, -709961.3, 155275.02, 0.0, 10.001367, 9.999285 
2.8451964e+3, 2.2170366e+2, -715042.1, -875593.3, 133724.19, 0.099398434, -0.56668246, -639348.7, 127898.08, 0.0, 10.001273, 9.99908 
2.8450972e+3, 2.3170178e+2, -707767.06, -822408.0, 150116.27, 0.04696595, -0.60666883, -604399.9, 64865.004, 0.0, 10.000655, 9.999069 
2.8449982e+3, 2.4170014e+2, -661497.9, -716668.1, 159252.94, 0.014747902, -0.63333887, -527458.6, 43822.09, 0.0, 10.000156, 9.999364 
2.8448996e+3, 2.5169948e+2, -532747.06, -572907.0, 139405.78, 0.0609083, -0.6043915, -411982.53, 61305.31, 0.0, 10.000234, 9.99964 
2.844801e+3, 2.616988e+2, -459820.4, -515794.66, 134196.16, 0.09387378, -0.572276, -350724.03, 24570.766, 0.0, 10.000185, 9.999386 
2.8447014e+3, 2.7169788e+2, -411035.88, -440885.63, 114556.79, 0.065747626, -0.551373, -310435.8, -33130.918, 0.0, 9.999841, 9.999395 
2.8446022e+3, 2.816969e+2, -355433.9, -341424.78, 107663.41, 0.06334425, -0.54483575, -240538.31, -61223.043, 0.0, 9.999452, 9.999596 
2.8445023e+3, 2.916958e+2, -304661.78, -244877.67, 78927.71, 0.09783754, -0.57572496, -190371.16, -109044.97, 0.0, 9.999036, 9.999784 
2.8444025e+3, 3.016949e+2, -290321.56, -257924.3, 82060.836, 0.09292738, -0.5711851, -190478.58, -190478.58, 0.0, 9.99877, 9.999149 
2.8443038e+3, 3.1169426e+2, -189945.16, -188161.75, 83203.77, 0.31704405, -0.48918733, -105844.9, -105844.9, 0.0, 9.99913, 9.999124 
2.8442004e+3, 3.216918e+2, -87811.734, -9281.536, -34001.34, 0.13968077, -0.599158, 3394.0916, 3394.0916, 0.0, 9.999273, 10.000278 
2.8560948e+3, 1.3181849e+2, -1398959.6, -1757130.4, 32569.988, -0.008463389, -0.6058917, -1396022.0, 252099.9, 0.0, 10.003025, 9.998249 
2.855994e+3, 1.4181755e+2, -1314970.9, -1582791.9, 8324.309, 0.029730357, -0.49836606, -1314712.4, 235421.08, 0.0, 10.0025625, 9.999001 
2.8558934e+3, 1.518156e+2, -1210320.3, -1433477.4, 53383.32, -0.006241833, -0.5759143, -1198207.5, 253942.69, 0.0, 10.00241, 9.99942 
2.8557932e+3, 1.6181378e+2, -1162983.0, -1411165.4, 60130.94, -0.0009286226, -0.63382524, -1149181.6, 204984.8, 0.0, 10.002285, 9.9989605 
2.8556928e+3, 1.7181255e+2, -1098926.6, -1344079.0, 88503.59, -0.03547768, -0.58772874, -1070314.8, 185865.44, 0.0, 10.002125, 9.998819 
2.855593e+3, 1.8181136e+2, -1005016.2, -1203956.5, 82644.81, -0.056881372, -0.55018115, -975163.2, 183029.81, 0.0, 10.001907, 9.999214 
2.855494e+3, 1.9181012e+2, -939511.1, -1093947.4, 103160.02, 0.04079926, -0.56249744, -887870.3, 172333.38, 0.0, 10.001568, 9.999459 
2.8553954e+3, 2.0180874e+2, -907196.56, -1071536.6, 128902.06, 0.1114692, -0.5811017, -836501.75, 125714.305, 0.0, 10.001305, 9.999068 
2.8552955e+3, 2.1180686e+2, -809092.25, -984732.75, 133625.72, 0.05106725, -0.6104391, -737011.8, 127222.56, 0.0, 10.001357, 9.998962 
2.8551963e+3, 2.2180529e+2, -704551.0, -846909.6, 118255.805, 0.00077691337, -0.62575805, -637705.2, 128544.91, 0.0, 10.001242, 9.999293 
2.855097e+3, 2.3180448e+2, -675933.94, -756450.3, 125285.01, 0.024856396, -0.600699, -584597.8, 83659.9, 0.0, 10.000653, 9.999524 
2.854998e+3, 2.4180366e+2, -657925.0, -714296.94, 153783.28, 0.0408091, -0.57769316, -529766.0, 40499.71, 0.0, 10.000175, 9.9993725 
2.854899e+3, 2.518026e+2, -549072.44, -607751.94, 142201.42, 0.015167744, -0.56810564, -433215.56, 39061.09, 0.0, 10.000236, 9.999402 
2.8548e+3, 2.6180148e+2, -468291.44, -536599.9, 124673.32, 0.014449808, -0.5618998, -373178.72, 1109.4376, 0.0, 10.000196, 9.999238 
2.8547013e+3, 2.718002e+2, -417882.06, -456155.06, 100303.9, 0.10662176, -0.563839, -334905.5, -58603.977, 0.0, 9.999843, 9.99929 
2.854602e+3, 2.8179893e+2, -361948.66, -355850.5, 90657.88, 0.1716807, -0.5747698, -268190.44, -89876.06, 0.0, 9.999454, 9.999496 
2.854501e+3, 2.9179764e+2, -313474.72, -261533.4, 61014.94, 0.09571077, -0.6124632, -221191.94, -140865.33, 0.0, 9.999027, 9.999676 
2.8544e+3, 3.0179682e+2, -240449.7, -158393.5, 84150.06, 0.035885897, -0.61400926, -105802.49, -105802.49, 0.0, 9.998786, 9.999826 
2.854303e+3, 3.117973e+2, -124613.805, -49209.81, 101872.53, 0.3860446, -0.51890254, 21713.482, 21713.482, 0.0, 9.999115, 10.000087 
2.854199e+3, 3.2179508e+2, -166584.98, -197100.94, -53571.71, 0.15179722, -0.61894256, -126140.77, -126140.77, 0.0, 9.999362, 9.998954 
2.8660968e+3, 1.3192016e+2, -1443330.3, -1741603.0, 23938.656, -0.016161231, -0.59507036, -1441421.3, 205704.6, 0.0, 10.002555, 9.998586 
2.8659964e+3, 1.4191921e+2, -1313229.3, -1572599.9, 47600.914, 0.055370566, -0.51479185, -1304769.3, 244367.98, 0.0, 10.002533, 9.9990835 
2.865895e+3, 1.5191749e+2, -1250059.5, -1457831.4, 72539.55, 0.002635252, -0.5658267, -1227240.0, 223912.39, 0.0, 10.002163, 9.999369 
2.8657946e+3, 1.6191582e+2, -1213695.3, -1405801.9, 65031.45, -0.0032738717, -0.6127567, -1193751.5, 159415.66, 0.0, 10.00181, 9.999224 
2.8656945e+3, 1.7191453e+2, -1155709.3, -1328423.6, 104498.22, -0.026999153, -0.60798687, -1106503.0, 148676.84, 0.0, 10.001552, 9.999203 
2.8655943e+3, 1.8191338e+2, -1071858.0, -1220518.8, 104870.53, -0.043099757, -0.59631675, -1017647.2, 139543.92, 0.0, 10.00138, 9.999355 
2.865495e+3, 1.9191241e+2, -963062.2, -1102601.4, 105044.34, 0.037235808, -0.58469164, -906728.25, 152471.56, 0.0, 10.001397, 9.99948 
2.865396e+3, 2.0191127e+2, -893715.75, -1050740.4, 121871.836, 0.10012983, -0.58435464, -827255.94, 133954.3, 0.0, 10.001339, 9.99919 
2.8652963e+3, 2.1190953e+2, -848949.2, -987699.25, 153778.83, 0.054332767, -0.6168187, -749620.9, 113606.2, 0.0, 10.001018, 9.999104 
2.8651968e+3, 2.2190802e+2, -775784.3, -881807.25, 149735.33, 0.014995301, -0.631257, -669953.44, 95288.414, 0.0, 10.000757, 9.999286 
2.8650975e+3, 2.319073e+2, -675651.5, -766142.06, 118254.32, 0.025575278, -0.59183884, -594282.3, 72967.41, 0.0, 10.0007, 9.999434 
2.864998e+3, 2.4190648e+2, -603708.0, -692781.44, 125288.64, 0.034867167, -0.56109303, -515275.72, 53982.477, 0.0, 10.000572, 9.999327 
2.8648987e+3, 2.5190517e+2, -549940.2, -613966.75, 125898.266, 0.01459251, -0.5721121, -452048.8, 19222.164, 0.0, 10.0002575, 9.999348 
2.8647995e+3, 2.6190388e+2, -498950.47, -545427.4, 119967.35, 0.0181585, -0.58343273, -399991.6, -26707.777, 0.0, 9.99996, 9.999291 
2.8647006e+3, 2.7190262e+2, -413136.13, -444706.22, 108210.4, 0.108367994, -0.58730197, -319565.53, -44269.28, 0.0, 9.999839, 9.99937 
2.864601e+3, 2.819014e+2, -337291.03, -349742.5, 107135.12, 0.17568287, -0.5952595, -236200.9, -58892.49, 0.0, 9.999657, 9.999436 
2.8644994e+3, 2.919001e+2, -246601.45, -243060.58, 80476.44, 0.075529546, -0.6247526, -164335.1, -85013.9, 0.0, 9.999551, 9.999549 
2.8643984e+3, 3.0189925e+2, -141066.02, -89141.44, 94241.055, 0.013771354, -0.6248174, -17351.91, -17351.91, 0.0, 9.999377, 10.000021 
2.8643024e+3, 3.118999e+2, -119144.26, -11283.417, 63648.715, 0.45800832, -0.54429233, 18210.674, 18210.674, 0.0, 9.999005, 10.000401 
2.864198e+3, 3.2189792e+2, -135744.39, -221149.0, -41791.918, 0.12634419, -0.6328758, -118696.79, -118696.79, 0.0, 9.999755, 9.998593 
2.8760988e+3, 1.320223e+2, -1361161.5, -1563473.5, 29260.033, -0.019475799, -0.5385763, -1357014.6, 289111.5, 0.0, 10.002527, 9.999818 
2.875999e+3, 1.420206e+2, -1316824.6, -1559697.0, 37166.594, 0.08684474, -0.6172801, -1311264.4, 236876.89, 0.0, 10.002446, 9.999213 
2.8758967e+3, 1.520195e+2, -1280834.5, -1512363.5, 59128.45, -0.01063627, -0.5789958, -1266608.3, 183544.19, 0.0, 10.002121, 9.999016 
2.8757957e+3, 1.6201837e+2, -1197397.8, -1368276.5, 56786.785, -0.029291201, -0.5596098, -1180247.5, 171915.77, 0.0, 10.001793, 9.99949 
2.875696e+3, 1.7201701e+2, -1119558.1, -1252507.5, 96389.52, 0.0410387, -0.6115065, -1068943.9, 185230.53, 0.0, 10.001545, 9.999727 
2.8755963e+3, 1.8201572e+2, -1075049.3, -1224424.8, 102025.23, 0.05825174, -0.64803797, -1023295.75, 132889.78, 0.0, 10.001368, 9.999335 
2.8754953e+3, 1.920145e+2, -981042.5, -1140575.5, 106236.67, -0.0263038, -0.6396247, -927959.75, 130238.21, 0.0, 10.001399, 9.999218 
2.875395e+3, 2.0201342e+2, -874573.94, -1007995.8, 113492.26, -0.05955975, -0.62697977, -809638.2, 150570.44, 0.0, 10.001325, 9.999492 
2.8752968e+3, 2.120127e+2, -811119.5, -909280.06, 140606.67, 0.05247795, -0.6070976, -711273.25, 150941.17, 0.0, 10.001014, 9.999645 
2.875198e+3, 2.2201177e+2, -795007.4, -918609.8, 143375.3, 0.11916391, -0.5897619, -700680.9, 63542.29, 0.0, 10.000743, 9.999042 
2.8750977e+3, 2.3201016e+2, -718769.0, -854704.94, 116144.46, 0.04473557, -0.5832406, -652166.6, 14074.604, 0.0, 10.000696, 9.998829 
2.874998e+3, 2.4200858e+2, -609798.6, -705765.25, 116583.19, 0.0000112980415, -0.58632493, -531710.4, 36547.863, 0.0, 10.000572, 9.999239 
2.874899e+3, 2.520072e+2, -542049.8, -599660.9, 112729.164, 0.06032458, -0.61717993, -454504.03, 15766.937, 0.0, 10.000263, 9.999444 
2.8747997e+3, 2.6200595e+2, -478774.94, -507238.88, 111920.78, 0.09294667, -0.6357985, -380184.84, -7902.9224, 0.0, 9.999974, 9.999547 
2.8746995e+3, 2.720052e+2, -392714.3, -401752.13, 102039.8, 0.05776881, -0.62215954, -295093.4, -20804.262, 0.0, 9.999835, 9.999666 
2.874599e+3, 2.8200436e+2, -332415.53, -347182.75, 101094.98, 0.046033077, -0.6089156, -238434.89, -62137.727, 0.0, 9.999685, 9.999441 
2.8744984e+3, 2.9200324e+2, -251718.98, -262780.78, 80665.72, 0.03453318, -0.60825294, -176394.77, -98085.625, 0.0, 9.999586, 9.999398 
2.8743973e+3, 3.0200234e+2, -168571.25, -151098.94, 78950.57, 0.04530577, -0.59135073, -80402.65, -80402.65, 0.0, 9.999401, 9.999583 
2.8743014e+3, 3.120021e+2, -168021.25, -102280.0, 44660.805, 0.50713056, -0.5424983, -79697.35, -79697.35, 0.0, 9.998968, 9.99979 
2.8741965e+3, 3.2200068e+2, -47166.813, -42888.79, 91192.25, 0.04762688, -0.58437496, 46189.535, 46189.535, 0.0, 9.9997835, 9.999804 
2.8861004e+3, 1.3212456e+2, -1428230.8, -1595764.6, 55420.42, -0.039895445, -0.5387045, -1411557.1, 233566.2, 0.0, 10.00206, 9.9998255 
2.8860006e+3, 1.4212292e+2, -1436200.6, -1596270.1, 24283.832, 0.12426394, -0.6163203, -1432597.6, 114540.836, 0.0, 10.001534, 9.999402 
2.885898e+3, 1.5212196e+2, -1360675.3, -1526823.1, 77190.49, 0.009628442, -0.5858849, -1330348.8, 118799.234, 0.0, 10.00147, 9.999229 
2.885797e+3, 1.6212098e+2, -1240510.8, -1372149.0, 94245.82, -0.023680367, -0.568544, -1191375.8, 159781.27, 0.0, 10.001425, 9.99964 
2.885697e+3, 1.7211981e+2, -1143039.9, -1251210.4, 110786.33, 0.04898605, -0.61360073, -1073841.6, 179324.39, 0.0, 10.001329, 9.99984 
2.885597e+3, 1.821186e+2, -1091743.5, -1234542.0, 106169.266, 0.06613267, -0.6484059, -1035198.3, 119977.82, 0.0, 10.001262, 9.999314 
2.885496e+3, 1.9211726e+2, -1003080.56, -1159537.4, 120722.34, -0.03414536, -0.64303136, -937456.4, 119733.734, 0.0, 10.001286, 9.999142 
2.885396e+3, 2.0211613e+2, -886201.8, -1010314.44, 119590.83, -0.07446875, -0.6312502, -813525.25, 145676.44, 0.0, 10.00123, 9.999522 
2.8852972e+3, 2.1211548e+2, -821303.5, -905784.6, 111693.734, 0.048090216, -0.6129419, -744129.9, 117076.9, 0.0, 10.000909, 9.999721 
2.8851986e+3, 2.221146e+2, -806396.56, -919392.75, 109468.21, 0.12379575, -0.5987692, -739706.5, 23508.334, 0.0, 10.000646, 9.999082 
2.885098e+3, 2.3211287e+2, -732344.44, -858213.06, 125147.79, 0.042881515, -0.60529023, -655197.7, 10035.921, 0.0, 10.000591, 9.998854 
2.8849977e+3, 2.4211127e+2, -616436.2, -694151.6, 154264.11, 0.00020946182, -0.6161624, -496211.13, 71039.56, 0.0, 10.000464, 9.99937 
2.8848988e+3, 2.5211006e+2, -549778.4, -586878.2, 150301.05, 0.0765776, -0.6383722, -416886.84, 52374.242, 0.0, 10.000144, 9.999587 
2.8847992e+3, 2.6210904e+2, -489198.34, -499175.66, 154266.27, 0.11505952, -0.65023917, -339840.1, 31430.072, 0.0, 9.999857, 9.999653 
2.8846985e+3, 2.7210832e+2, -405884.88, -402551.06, 124419.914, 0.032360923, -0.6402191, -279786.9, -6509.803, 0.0, 9.999729, 9.999706 
2.8845978e+3, 2.821075e+2, -364876.34, -350430.38, 109374.32, 0.0006149421, -0.6289979, -248040.8, -72756.09, 0.0, 9.999413, 9.999547 
2.8844976e+3, 2.921066e+2, -300821.44, -291620.38, 115257.055, 0.06502034, -0.61324686, -180872.08, -103577.52, 0.0, 9.999279, 9.999344 
2.884397e+3, 3.0210546e+2, -170504.88, -212035.94, 118940.49, 0.0866525, -0.5932761, -70530.82, -70530.82, 0.0, 9.999654, 9.999042 
2.884299e+3, 3.1210387e+2, -2984.3877, -128470.13, 66663.48, 0.32440466, -0.5967401, 25818.834, 25818.834, 0.0, 10.000569, 9.998848 
2.8841963e+3, 3.2210293e+2, 22765.75, 94380.71, 64571.086, 0.09051764, -0.55006874, 132408.19, 132408.19, 0.0, 9.999808, 10.000753 
2.8961015e+3, 1.3222691e+2, -1493577.4, -1716147.1, 27292.691, -0.077671096, -0.57523173, -1490279.5, 153838.64, 0.0, 10.002004, 9.999022 
2.896002e+3, 1.4222598e+2, -1420657.0, -1562734.3, 19086.055, 0.16327398, -0.541257, -1418137.8, 127992.35, 0.0, 10.001531, 9.999633 
2.8958994e+3, 1.5222484e+2, -1317267.3, -1438873.3, 75874.55, 0.05453937, -0.5849174, -1280838.8, 167300.77, 0.0, 10.001477, 9.99983 
2.895798e+3, 1.6222376e+2, -1238821.3, -1368199.8, 89900.64, 0.0034075314, -0.6181605, -1192754.8, 157393.5, 0.0, 10.001422, 9.99967 
2.8956977e+3, 1.7222287e+2, -1157020.6, -1280567.1, 105794.9, 0.0040792697, -0.6177243, -1096284.6, 155870.67, 0.0, 10.00133, 9.999639 
2.8955972e+3, 1.8222189e+2, -1095936.6, -1240320.1, 104799.24, -0.0065877554, -0.61349314, -1040870.7, 113293.26, 0.0, 10.001248, 9.999281 
2.8954974e+3, 1.9222066e+2, -1001778.1, -1152880.1, 121856.15, 0.0063569196, -0.60353833, -933952.44, 122224.54, 0.0, 10.001266, 9.999198 
2.8953978e+3, 2.0221938e+2, -907389.7, -1045962.7, 110843.15, 0.025602406, -0.60329694, -845959.6, 112230.484, 0.0, 10.001194, 9.999295 
2.8952977e+3, 2.1221788e+2, -845059.9, -954794.9, 99719.02, 0.036063198, -0.63476056, -786110.3, 74093.305, 0.0, 10.000907, 9.999385 
2.895198e+3, 2.2221652e+2, -784417.75, -872921.2, 105484.984, 0.034830682, -0.65734494, -714278.44, 47937.59, 0.0, 10.000641, 9.999404 
2.8950977e+3, 2.3221548e+2, -689841.3, -769545.3, 124147.08, 0.018703971, -0.654385, -599306.6, 64919.715, 0.0, 10.000587, 9.999465 
2.894998e+3, 2.4221458e+2, -593529.4, -647584.44, 143799.77, 0.018029058, -0.6475251, -474239.25, 91996.05, 0.0, 10.000468, 9.999688 
2.894898e+3, 2.5221393e+2, -537098.7, -559319.1, 137467.48, 0.059270162, -0.63501066, -410293.22, 57947.98, 0.0, 10.000139, 9.999779 
2.8947982e+3, 2.6221317e+2, -492147.94, -509132.53, 149563.0, 0.07710718, -0.6276388, -350836.3, 19412.082, 0.0, 9.999872, 9.9995775 
2.8946978e+3, 2.72212e+2, -424870.8, -443060.75, 115889.0, 0.036059607, -0.63982993, -317720.44, -45460.414, 0.0, 9.99973, 9.999428 
2.894597e+3, 2.822109e+2, -348054.0, -318247.8, 92091.766, 0.05061392, -0.65476507, -239861.06, -65590.03, 0.0, 9.99942, 9.999766 
2.8944972e+3, 2.9221004e+2, -302339.84, -283024.1, 122083.0, 0.17605586, -0.64812243, -170217.55, -93939.65, 0.0, 9.999237, 9.999415 
2.8943962e+3, 3.0220848e+2, -213434.39, -300125.25, 152009.97, 0.10459464, -0.65706956, -98710.664, -98710.664, 0.0, 9.999655, 9.998432 
2.8942943e+3, 3.1220454e+2, -77678.11, -305341.56, 103977.9, -0.14839466, -0.7954755, -37337.64, -37337.64, 0.0, 10.000671, 9.997584 
2.894198e+3, 3.2220381e+2, 28387.25, 128731.71, -81371.41, 0.35048264, -0.6258376, 174155.3, 174155.3, 0.0, 9.999708, 10.001043 
2.9061028e+3, 1.3232923e+2, -1572601.8, -1768764.9, 14955.893, -0.06650648, -0.61786395, -1571468.1, 71645.53, 0.0, 10.001515, 9.9989 
2.906003e+3, 1.4232863e+2, -1434794.9, -1553708.0, 38740.766, 0.15525478, -0.5457852, -1423287.3, 121835.97, 0.0, 10.001363, 9.999778 
2.9059005e+3, 1.5232776e+2, -1326111.3, -1418489.3, 77215.12, 0.051153004, -0.5830565, -1282324.6, 164804.86, 0.0, 10.001308, 10.000051 
2.905799e+3, 1.623268e+2, -1269602.4, -1389852.6, 73987.88, 0.0048101805, -0.6162387, -1234390.0, 114746.98, 0.0, 10.001238, 9.999609 
2.905698e+3, 1.7232578e+2, -1192828.5, -1314994.6, 89972.35, -0.003456069, -0.6157817, -1145163.4, 105982.93, 0.0, 10.001158, 9.999485 
2.9055977e+3, 1.8232472e+2, -1122608.0, -1244879.1, 92585.805, -0.013803887, -0.6119996, -1072794.5, 80361.625, 0.0, 10.001029, 9.999357 
2.905498e+3, 1.9232357e+2, -1063935.5, -1165721.8, 114395.586, 0.024296157, -0.6090722, -989623.0, 65544.93, 0.0, 10.000763, 9.999353 
2.9053983e+3, 2.0232235e+2, -986493.6, -1082375.6, 117738.945, 0.056217585, -0.61330944, -907309.5, 49870.566, 0.0, 10.00064, 9.999313 
2.9052982e+3, 2.1232086e+2, -847906.5, -958772.06, 127060.98, 0.03619431, -0.6409106, -764712.9, 94481.16, 0.0, 10.000897, 9.999363 
2.9051977e+3, 2.2231956e+2, -728565.3, -823362.3, 134486.83, 0.020663531, -0.6615352, -633368.9, 127837.18, 0.0, 10.000926, 9.999607 
2.905098e+3, 2.3231876e+2, -711221.6, -744056.25, 129145.8, 0.03282254, -0.6633037, -597453.8, 65759.375, 0.0, 10.000286, 9.999786 
2.9049978e+3, 2.4231806e+2, -683093.5, -682842.75, 137547.31, 0.04805544, -0.656555, -545420.75, 19798.756, 0.0, 9.999822, 9.999757 
2.9048976e+3, 2.5231755e+2, -557644.8, -564306.5, 118512.086, 0.05054675, -0.6355052, -442416.78, 24808.422, 0.0, 9.999978, 9.999822 
2.9047975e+3, 2.623169e+2, -468873.2, -479315.5, 127056.22, 0.04502337, -0.62118065, -346930.88, 22300.514, 0.0, 9.999952, 9.9997425 
2.9046968e+3, 2.72316e+2, -427122.16, -411752.8, 122195.9, 0.03457715, -0.6352778, -297000.2, -25759.629, 0.0, 9.999577, 9.999713 
2.9045963e+3, 2.8231514e+2, -337142.88, -287648.7, 131172.13, 0.09017403, -0.6516132, -178909.64, -5660.5293, 0.0, 9.999401, 9.999977 
2.904496e+3, 2.9231465e+2, -349932.3, -244979.58, 135066.1, 0.19743815, -0.64064074, -152553.84, -77301.07, 0.0, 9.998656, 9.999954 
2.9161042e+3, 1.3243155e+2, -1568928.6, -1726910.4, 2244.5664, -0.03094809, -0.6599314, -1568896.8, 73212.22, 0.0, 10.001373, 9.999252 
2.9160032e+3, 1.4243104e+2, -1437081.9, -1547829.1, 36317.305, 0.109204926, -0.6048195, -1426234.8, 117882.19, 0.0, 10.001319, 9.999839 
2.9159006e+3, 1.5243071e+2, -1330879.6, -1427723.0, 72572.01, 0.0096234465, -0.58343416, -1292058.3, 154060.38, 0.0, 10.001305, 9.999991 
2.9157996e+3, 1.6243003e+2, -1278533.1, -1408266.8, 68918.98, -0.016963515, -0.5789421, -1248755.6, 99368.36, 0.0, 10.001237, 9.999484 
2.915699e+3, 1.724286e+2, -1202251.0, -1333099.8, 87015.39, 0.018647647, -0.60795003, -1158808.4, 91329.91, 0.0, 10.00115, 9.999365 
2.9155988e+3, 1.8242723e+2, -1115460.6, -1225917.3, 84842.99, 0.026485063, -0.63347834, -1069454.0, 82697.38, 0.0, 10.001011, 9.999496 
2.9154983e+3, 1.9242607e+2, -1046340.8, -1131981.0, 104104.805, 0.018378966, -0.65325564, -976593.7, 77568.45, 0.0, 10.000773, 9.999579 
2.9153982e+3, 2.0242506e+2, -970526.75, -1050314.9, 122345.58, 0.023638887, -0.6579072, -881735.25, 74436.3, 0.0, 10.000644, 9.999532 
2.9152986e+3, 2.1242438e+2, -832282.56, -923803.5, 136863.45, 0.045861177, -0.62968004, -733732.2, 124446.19, 0.0, 10.000885, 9.999609 
2.9151988e+3, 2.2242363e+2, -728525.44, -815419.5, 117715.516, 0.06406814, -0.61486536, -646495.06, 113690.62, 0.0, 10.000892, 9.99968 
2.915098e+3, 2.3242265e+2, -708602.7, -737242.56, 103122.24, 0.08296292, -0.6353666, -618810.9, 43383.832, 0.0, 10.000278, 9.999838 
2.9149976e+3, 2.4242173e+2, -694162.0, -708015.2, 135855.9, 0.08633509, -0.6471956, -565056.2, -852.49023, 0.0, 9.999831, 9.999578 
2.9148972e+3, 2.524209e+2, -567419.6, -583729.06, 124911.06, 0.044764582, -0.63915426, -450397.38, 15815.852, 0.0, 9.999976, 9.999687 
2.9147968e+3, 2.6242033e+2, -436067.9, -419262.9, 114066.98, 0.0058496236, -0.6296091, -313289.34, 54930.19, 0.0, 9.999982, 10.000144 
2.9146957e+3, 2.724203e+2, -365549.25, -288849.06, 105944.86, 0.020978844, -0.62503296, -214526.89, 55692.156, 0.0, 9.999591, 10.000555 
2.9145953e+3, 2.8242022e+2, -331622.84, -277117.0, 136438.5, 0.0879757, -0.6118006, -165236.22, 6983.019, 0.0, 9.999414, 10.000043 
2.914493e+3, 2.9242036e+2, -286496.8, -120405.484, 63461.773, 0.11129172, -0.5793602, -98933.305, -24713.232, 0.0, 9.998699, 10.000791 
2.9261047e+3, 1.3253403e+2, -1672026.5, -1673976.5, -13961.241, 0.008717565, -0.63400686, -1659006.3, -17901.955, 0.0, 10.000222, 10.00017 
2.926003e+3, 1.425334e+2, -1511826.9, -1583466.5, 31994.457, 0.048945434, -0.64796174, -1499618.5, 43491.957, 0.0, 10.000801, 9.999845 
2.925901e+3, 1.5253273e+2, -1387207.3, -1485377.0, 51271.855, -0.01272262, -0.63883966, -1365312.4, 79804.125, 0.0, 10.001048, 9.99972 
2.9258004e+3, 1.6253196e+2, -1292055.0, -1408116.0, 36488.574, -0.0024331897, -0.62914187, -1281536.6, 65587.01, 0.0, 10.001112, 9.999548 
2.9256997e+3, 1.7253098e+2, -1228869.8, -1325990.5, 68564.37, 0.043106668, -0.6280137, -1193411.3, 55722.305, 0.0, 10.000877, 9.999547 
2.9255992e+3, 1.8252996e+2, -1144292.3, -1226575.3, 82650.445, 0.053222284, -0.63673556, -1093109.8, 58033.844, 0.0, 10.000748, 9.99962 
2.9254985e+3, 1.9252877e+2, -1017297.75, -1106160.8, 95705.61, 0.029918494, -0.66895354, -956212.8, 96941.53, 0.0, 10.000919, 9.999688 
2.9253983e+3, 2.0252784e+2, -920510.25, -1008986.0, 105619.625, 0.025696795, -0.67962253, -850238.3, 104924.586, 0.0, 10.000912, 9.999688 
2.9252985e+3, 2.1252745e+2, -892975.8, -933765.4, 112653.38, 0.047184777, -0.63886297, -798885.94, 58281.16, 0.0, 10.000382, 9.999784 
2.9251987e+3, 2.2252697e+2, -847499.06, -863473.94, 90768.28, 0.066674404, -0.6117903, -764367.5, -5195.3604, 0.0, 10.0000305, 9.999765 
2.9250976e+3, 2.3252611e+2, -716712.94, -728865.2, 76646.695, 0.08198746, -0.6298082, -645901.9, 15278.562, 0.0, 10.000167, 9.99995 
2.9249972e+3, 2.425253e+2, -628530.94, -661323.8, 128742.46, 0.0849317, -0.6442339, -515145.0, 48043.605, 0.0, 10.000211, 9.99972 
2.9248968e+3, 2.525245e+2, -542915.2, -545889.06, 146218.23, 0.04912115, -0.6509404, -398176.34, 67020.695, 0.0, 10.000026, 9.999927 
2.924796e+3, 2.6252404e+2, -451015.03, -413281.9, 140212.03, 0.014929961, -0.6489516, -290672.8, 76528.984, 0.0, 9.999813, 10.000271 
2.9246947e+3, 2.7252427e+2, -332998.3, -244613.28, 88104.13, 0.02165397, -0.6330937, -190239.48, 78959.36, 0.0, 9.999683, 10.000818 
2.9245943e+3, 2.825245e+2, -311139.72, -249208.11, 106043.195, 0.08571599, -0.61845607, -169702.0, 1494.747, 0.0, 9.999456, 10.000231 
2.9244915e+3, 2.9252458e+2, -130485.27, -32257.396, -13494.417, 0.08070444, -0.60668325, -30437.277, 42761.48, 0.0, 9.999689, 10.00094 
2.9361048e+3, 1.3263658e+2, -1580924.1, -1487413.0, 12374.079, 0.043546606, -0.5677636, -1485803.3, 154296.83, 0.0, 10.000238, 10.00144 
2.9360026e+3, 1.426357e+2, -1511835.6, -1590629.1, 41050.65, -0.022618622, -0.6820843, -1494335.5, 47768.71, 0.0, 10.000833, 9.999779 
2.9359016e+3, 1.5263404e+2, -1420135.4, -1548557.4, 57611.26, -0.021784106, -0.7342876, -1398078.8, 46042.168, 0.0, 10.001025, 9.999297 
2.935801e+3, 1.6263288e+2, -1285505.6, -1382971.8, 31722.607, 0.034280617, -0.7427536, -1276090.4, 70042.12, 0.0, 10.001062, 9.999744 
2.9357004e+3, 1.7263299e+2, -1199557.3, -1267352.8, 59098.004, 0.065018244, -0.67140883, -1165325.5, 82806.234, 0.0, 10.000886, 9.999946 
2.9355997e+3, 1.8263279e+2, -1133818.1, -1209854.4, 84138.875, 0.0672115, -0.6273717, -1079506.9, 70627.055, 0.0, 10.00077, 9.999725 
2.9354993e+3, 1.926316e+2, -1018168.7, -1104550.6, 102028.7, 0.053885136, -0.66054136, -950565.6, 101579.29, 0.0, 10.000903, 9.999707 
2.935399e+3, 2.0263061e+2, -919858.56, -997048.94, 92081.56, 0.047394495, -0.6839682, -858610.9, 95543.7, 0.0, 10.000866, 9.999791 
2.9352984e+3, 2.1263008e+2, -885132.6, -915803.7, 91543.9, 0.039599553, -0.66996187, -807648.6, 48511.51, 0.0, 10.000374, 9.999912 
2.9351977e+3, 2.2262962e+2, -840010.4, -847727.44, 90908.445, 0.029681657, -0.6521782, -752878.56, 5286.456, 0.0, 10.00003, 9.999873 
2.935097e+3, 2.3262918e+2, -707353.0, -707192.1, 81987.805, 0.026439367, -0.642067, -625284.75, 34885.195, 0.0, 10.000157, 10.000103 
2.9349965e+3, 2.4262875e+2, -594988.06, -593777.44, 124632.98, 0.035782404, -0.64415497, -469748.3, 92425.63, 0.0, 10.0002165, 10.000183 
2.9348963e+3, 2.5262836e+2, -496006.38, -454011.84, 138974.84, 0.06514464, -0.67078507, -334457.0, 129719.336, 0.0, 10.000045, 10.000553 
2.934796e+3, 2.626281e+2, -456249.78, -431258.94, 134604.42, 0.06383558, -0.6787215, -308571.2, 57606.43, 0.0, 9.999845, 10.000132 
2.934694e+3, 2.72628e+2, -356778.63, -298894.72, 83231.61, 0.030608248, -0.6606753, -239716.66, 28462.984, 0.0, 9.999707, 10.000429 
2.934593e+3, 2.826278e+2, -268626.5, -194401.42, 91930.04, 0.062226616, -0.6798767, -132375.3, 37807.742, 0.0, 9.999585, 10.000553 
2.9344907e+3, 2.9262775e+2, -126281.57, -37802.8, 13804.651, 0.08532822, -0.692696, -35698.992, 36485.08, 0.0, 9.999745, 10.000875 
2.9461047e+3, 1.3273762e+2, -1605855.1, -1560613.0, 37226.355, 0.04174418, -0.641614, -1539673.6, 99433.56, 0.0, 10.0003195, 10.000907 
2.9460028e+3, 1.427374e+2, -1481697.0, -1554821.1, -19248.674, -0.037658278, -0.6675477, -1476939.6, 64167.715, 0.0, 10.000947, 9.999971 
2.945902e+3, 1.5273626e+2, -1459298.5, -1525724.9, 27961.291, -0.0112594785, -0.70238537, -1449095.8, -5977.446, 0.0, 10.000574, 9.999674 
2.9458016e+3, 1.6273531e+2, -1374913.0, -1414588.3, 38400.676, 0.056083865, -0.7196806, -1351528.6, -6400.859, 0.0, 10.000396, 9.99985 
2.9457006e+3, 1.7273507e+2, -1190630.9, -1256255.6, 51271.07, 0.055326387, -0.688779, -1162571.5, 84558.86, 0.0, 10.000915, 10.000011 
2.9456e+3, 1.8273477e+2, -1078096.3, -1165657.3, 51577.78, 0.03763535, -0.6636321, -1054223.3, 94910.08, 0.0, 10.001074, 9.999885 
2.945499e+3, 1.9273409e+2, -1073219.6, -1114884.9, 73140.7, 0.041057523, -0.66455775, -1018002.5, 33137.418, 0.0, 10.000447, 9.999861 
2.945399e+3, 2.0273343e+2, -1015972.4, -1020378.8, 78162.836, 0.04830108, -0.67281264, -939981.75, 13164.592, 0.0, 10.000095, 10.000008 
2.9452983e+3, 2.1273276e+2, -878468.9, -886895.56, 82383.484, 0.03783735, -0.69577944, -800191.06, 54961.66, 0.0, 10.0003, 10.000151 
2.9451975e+3, 2.2273228e+2, -769471.75, -807029.7, 93590.21, 0.024327815, -0.6975691, -692795.1, 64362.49, 0.0, 10.000475, 9.999945 
2.9450965e+3, 2.3273216e+2, -656061.3, -676119.6, 79464.22, 0.016506666, -0.6600859, -585995.9, 73163.484, 0.0, 10.000472, 10.00017 
2.9449958e+3, 2.4273193e+2, -573303.2, -572979.06, 102707.68, 0.028769732, -0.65031314, -470433.3, 90728.16, 0.0, 10.000315, 10.000281 
2.944896e+3, 2.5273147e+2, -483812.97, -434646.38, 79668.92, 0.06757557, -0.6966746, -375854.16, 87310.055, 0.0, 10.000063, 10.00068 
2.9447955e+3, 2.6273134e+2, -449301.2, -409522.38, 61579.227, 0.077291586, -0.70926297, -364700.2, 463.94797, 0.0, 9.999809, 10.000302 
2.9446936e+3, 2.727316e+2, -364091.06, -296709.0, 51105.336, 0.05396149, -0.6711896, -269188.56, -2025.4625, 0.0, 9.999619, 10.000498 
2.944592e+3, 2.8273118e+2, -276434.66, -184046.4, 78611.625, 0.07863427, -0.71271634, -139061.13, 30106.873, 0.0, 9.999467, 10.000675 
2.94449e+3, 2.927315e+2, -125960.16, -13406.847, 11820.316, 0.09046915, -0.69916356, -12178.878, 58985.13, 0.0, 9.999628, 10.001093 
2.9561043e+3, 1.3283767e+2, -1720317.9, -1801481.0, 69961.97, 0.01183731, -0.7987624, -1680019.6, -41897.203, 0.0, 10.000341, 9.999241 
2.9560035e+3, 1.428387e+2, -1463580.9, -1500123.6, -18070.59, -0.019736586, -0.614019, -1456154.3, 83962.64, 0.0, 10.0008745, 10.000381 
2.9559022e+3, 1.5283918e+2, -1398608.5, -1392273.4, 10709.6455, 0.009487537, -0.574768, -1384272.6, 57837.625, 0.0, 10.000541, 10.000607 
2.9558015e+3, 1.6283879e+2, -1377290.9, -1414201.1, 47404.6, 0.06508937, -0.59199584, -1344875.8, -762.6491, 0.0, 10.000372, 9.999866 
2.9557008e+3, 1.7283714e+2, -1208036.8, -1283131.1, 74134.375, 0.018514477, -0.68674004, -1162483.5, 83646.12, 0.0, 10.000874, 9.999846 
2.9555997e+3, 1.8283607e+2, -1072355.9, -1141461.3, 37382.926, -0.033294674, -0.73570323, -1056003.0, 92137.16, 0.0, 10.001022, 10.000075 
2.9554987e+3, 1.9283627e+2, -1056104.0, -1076763.5, 50635.32, -0.0025663523, -0.67674583, -1014755.5, 35382.91, 0.0, 10.000437, 10.000127 
2.9553986e+3, 2.028363e+2, -993956.1, -975054.3, 82084.14, 0.032641474, -0.6432275, -901878.8, 50258.918, 0.0, 10.000096, 10.000319 
2.955298e+3, 2.1283549e+2, -855489.1, -840001.8, 88764.695, 0.03781332, -0.7115045, -758643.6, 95500.91, 0.0, 10.000301, 10.000473 
2.9551974e+3, 2.2283489e+2, -769034.8, -802012.56, 95305.49, 0.0363077, -0.74562675, -688802.3, 67347.53, 0.0, 10.000457, 9.999988 
2.955097e+3, 2.3283502e+2, -657197.1, -676390.25, 77633.16, 0.050085604, -0.6852274, -588569.6, 69579.38, 0.0, 10.000463, 10.000172 
2.9549962e+3, 2.4283482e+2, -588325.5, -606690.7, 92298.56, 0.06061757, -0.663843, -504753.88, 55397.39, 0.0, 10.000323, 10.000047 
2.9548952e+3, 2.5283384e+2, -508724.28, -486779.34, 69615.61, 0.048992895, -0.7276619, -427276.78, 34884.082, 0.0, 10.000063, 10.000323 
2.9547945e+3, 2.6283377e+2, -408549.44, -328519.1, 51493.73, 0.044821784, -0.7364148, -303320.63, 60840.76, 0.0, 9.999824, 10.000853 
2.954693e+3, 2.7283508e+2, -315224.56, -199479.77, 51802.055, 0.089098744, -0.66052115, -179681.9, 86466.19, 0.0, 9.999638, 10.001157 
2.9545915e+3, 2.8283495e+2, -273322.13, -191245.16, 74017.85, 0.11581092, -0.70752615, -147650.31, 20498.213, 0.0, 9.9995165, 10.000607 
2.9544887e+3, 2.92835e+2, -98502.836, 34040.44, 31566.947, 0.04823285, -0.716035, 41174.54, 111321.9, 0.0, 9.999665, 10.001403 
2.9661041e+3, 1.329394e+2, -1654236.9, -1775231.3, 46197.63, -0.009396945, -0.74321353, -1638614.9, -1489.8737, 0.0, 10.000823, 9.999186 
2.9660034e+3, 1.4293958e+2, -1537769.9, -1524358.9, -4893.479, -0.028973589, -0.6383367, -1522763.3, 16364.748, 0.0, 10.000312, 10.00049 
2.9659024e+3, 1.5293987e+2, -1429101.5, -1377642.8, -19619.58, 0.034002554, -0.64423615, -1371015.8, 70107.32, 0.0, 10.000201, 10.000874 
2.9658017e+3, 1.6293985e+2, -1390739.6, -1370610.6, 22780.477, 0.10079002, -0.65971875, -1355770.4, -12648.586, 0.0, 10.000058, 10.0003195 
2.9657006e+3, 1.729391e+2, -1280163.0, -1273495.3, 92614.055, 0.022139294, -0.70593256, -1184155.1, 60974.375, 0.0, 10.000179, 10.000253 
2.9656e+3, 1.8293867e+2, -1160312.8, -1167578.9, 57580.813, -0.032748032, -0.72322506, -1106250.5, 40883.582, 0.0, 10.000337, 10.000233 
2.9654992e+3, 1.9293888e+2, -1037593.0, -1045588.06, 58867.934, 0.028439347, -0.676802, -982587.06, 66544.56, 0.0, 10.00046, 10.000334 
2.9653987e+3, 2.0293877e+2, -947892.8, -978266.3, 82928.875, 0.06741615, -0.6587654, -878771.56, 72360.92, 0.0, 10.000517, 10.000096 
2.965298e+3, 2.1293795e+2, -855353.06, -862423.06, 53302.117, 0.02731035, -0.7049689, -805468.9, 47671.36, 0.0, 10.000396, 10.000277 
2.9651973e+3, 2.2293748e+2, -769698.94, -776921.2, 48180.066, 0.012578255, -0.7259972, -724994.9, 30149.674, 0.0, 10.000339, 10.000218 
2.9650968e+3, 2.3293756e+2, -653032.0, -650495.1, 45769.094, 0.057175566, -0.69783074, -605976.9, 51166.21, 0.0, 10.000379, 10.000396 
2.964996e+3, 2.4293742e+2, -582525.1, -591627.1, 73994.06, 0.076668866, -0.6931192, -512942.25, 46202.25, 0.0, 10.000298, 10.000171 
2.9648948e+3, 2.5293663e+2, -495404.56, -487253.44, 76945.77, 0.035758365, -0.7362436, -414275.38, 46877.645, 0.0, 10.00017, 10.000278 
2.9647934e+3, 2.6293668e+2, -360382.1, -294879.78, 60855.58, 0.023303589, -0.7331331, -258522.03, 104630.9, 0.0, 10.000098, 10.000958 
2.9646924e+3, 2.729381e+2, -250067.13, -162770.89, 18294.424, 0.08691082, -0.6553489, -159092.02, 106045.97, 0.0, 10.000061, 10.001207 
2.9645908e+3, 2.829381e+2, -222050.5, -166765.03, 9404.635, 0.12230299, -0.70061326, -165209.0, 1928.2124, 0.0, 9.999879, 10.0006075 
2.9644877e+3, 2.9293787e+2, -129534.48, 25451.848, -23733.49, 0.051642522, -0.7202239, 29004.775, 98142.67, 0.0, 9.99946, 10.001445 
2.9761043e+3, 1.3304214e+2, -1632958.0, -1666325.8, 13887.2705, -0.028275313, -0.5598548, -1627934.6, 8185.2554, 0.0, 10.000546, 10.000065 
2.9760033e+3, 1.4303997e+2, -1535554.4, -1540360.1, -16428.113, -0.05473295, -0.7288186, -1521354.4, 16787.783, 0.0, 10.000403, 10.000336 
2.9759023e+3, 1.530387e+2, -1419182.0, -1395005.4, -31259.291, 0.06045754, -0.8700016, -1373578.5, 66574.52, 0.0, 10.000366, 10.000675 
2.9758018e+3, 1.6303895e+2, -1316401.0, -1245645.3, 14746.455, 0.1476366, -0.8842837, -1242694.9, 99454.61, 0.0, 10.000187, 10.001115 
2.9757008e+3, 1.7304091e+2, -1222102.1, -1151550.0, 89641.16, 0.05122773, -0.7473202, -1090493.6, 153637.03, 0.0, 10.000175, 10.00109 
2.9756e+3, 1.8304215e+2, -1161714.1, -1158314.5, 51474.832, 0.024199652, -0.6461795, -1108511.4, 37607.0, 0.0, 10.000285, 10.00032 
2.9755e+3, 1.9304171e+2, -1027612.0, -1023658.44, 53764.895, 0.11583915, -0.67642695, -971834.0, 76287.79, 0.0, 10.000455, 10.000486 
2.9753992e+3, 2.0304066e+2, -995648.56, -1078184.9, 75694.266, 0.13126014, -0.72557384, -950703.75, -571.6086, 0.0, 10.000521, 9.999409 
2.9752973e+3, 2.1304008e+2, -898197.25, -951915.75, 47411.316, 0.0069958493, -0.68574136, -870565.6, -18425.313, 0.0, 10.000398, 9.9996605 
2.9751965e+3, 2.2304004e+2, -743393.94, -716336.1, 49857.42, -0.040477145, -0.6479079, -678204.7, 75936.87, 0.0, 10.000312, 10.000648 
2.9750964e+3, 2.3303987e+2, -622529.44, -585672.75, 47487.71, 0.036798332, -0.6943033, -553163.0, 102977.62, 0.0, 10.000369, 10.000847 
2.974996e+3, 2.4303983e+2, -551113.56, -525414.56, 67566.75, 0.06605018, -0.72585076, -469486.34, 88653.266, 0.0, 10.000292, 10.0006275 
2.9748943e+3, 2.5303993e+2, -476596.4, -450575.4, 75682.17, 0.025634415, -0.7160101, -386793.56, 73346.04, 0.0, 10.000179, 10.000524 
2.974793e+3, 2.6304016e+2, -383327.1, -348710.22, 57476.035, 0.0066024614, -0.6940664, -305993.03, 56145.082, 0.0, 10.000124, 10.000576 
2.9746914e+3, 2.7304065e+2, -286964.44, -245798.08, 18906.637, 0.03431116, -0.6580114, -238432.6, 25700.63, 0.0, 10.000087, 10.000627 
2.9745895e+3, 2.830405e+2, -209112.63, -149129.97, -9571.953, 0.074974075, -0.68486327, -147639.53, 18494.596, 0.0, 9.999934, 10.000699 
2.9744878e+3, 2.930404e+2, -157962.72, -35484.61, -29650.223, 0.13380031, -0.70018095, -28684.283, 39449.63, 0.0, 9.999498, 10.000995 
2.986105e+3, 1.3314167e+2, -1625707.0, -1620115.0, 92310.95, 0.083805785, -0.7159295, -1530557.8, 104588.5, 0.0, 10.00039, 10.000478 
2.986004e+3, 1.4314148e+2, -1485630.9, -1517542.0, -27681.27, 0.031444818, -0.71236885, -1469636.0, 67511.43, 0.0, 10.000756, 10.000322 
2.985901e+3, 1.5314274e+2, -1453352.1, -1436683.6, -17563.695, -0.060708553, -0.58081365, -1425577.1, 13555.758, 0.0, 10.000257, 10.000434 
2.985799e+3, 1.631432e+2, -1437943.3, -1332908.5, -34055.434, -0.060951058, -0.54563487, -1322833.3, 18293.875, 0.0, 9.999503, 10.000831 
2.9856983e+3, 1.7314337e+2, -1440915.4, -1274495.5, -21648.205, -0.10829041, -0.56912166, -1271725.5, -28599.209, 0.0, 9.998777, 10.000905 
2.9855976e+3, 1.8314295e+2, -1341353.9, -1215776.5, -51613.438, -0.14629337, -0.63904494, -1197285.6, -52154.984, 0.0, 9.998954, 10.000553 
2.9854983e+3, 1.9314188e+2, -1115456.4, -1055960.8, -54146.5, -0.0031177704, -0.7479043, -1023928.56, 23211.723, 0.0, 9.9998255, 10.000562 
2.985399e+3, 2.0314176e+2, -956922.5, -992570.56, -4241.5625, 0.10405804, -0.73999536, -956424.75, -7283.383, 0.0, 10.000505, 10.000004 
2.985298e+3, 2.1314205e+2, -840086.56, -879410.4, 31310.572, 0.06657785, -0.65975076, -822776.25, 28364.4, 0.0, 10.000603, 10.000063 
2.9851967e+3, 2.2314195e+2, -763576.7, -720715.94, 45243.617, 0.022115257, -0.6488328, -692083.9, 61058.65, 0.0, 10.000142, 10.000705 
2.985096e+3, 2.3314184e+2, -698510.9, -599599.75, 28072.734, 0.039309334, -0.7037347, -592187.6, 62953.816, 0.0, 9.999751, 10.00105 
2.9849952e+3, 2.4314204e+2, -589087.75, -511326.16, 35675.51, 0.055086754, -0.73391736, -497439.0, 59698.93, 0.0, 9.999892, 10.0009165 
2.984894e+3, 2.5314254e+2, -476156.3, -413730.7, 40708.258, 0.02543884, -0.7183658, -393646.3, 65486.387, 0.0, 10.000023, 10.000854 
2.9847926e+3, 2.6314294e+2, -386927.22, -344992.22, 46099.773, 0.011156277, -0.7004552, -315315.63, 45812.96, 0.0, 10.000067, 10.000637 
2.9846913e+3, 2.7314305e+2, -259666.84, -239818.58, 49283.293, 0.040072914, -0.70073676, -199470.14, 63657.008, 0.0, 10.000285, 10.0005865 
2.9845893e+3, 2.8314307e+2, -152731.08, -114532.44, 22047.553, 0.08264818, -0.7142592, -104461.94, 60665.04, 0.0, 10.000283, 10.000797 
2.9844874e+3, 2.9314253e+2, -147284.83, -105022.41, -5547.1445, 0.19573727, -0.7545789, -104306.445, -37174.664, 0.0, 9.999824, 10.000449 
2.9961038e+3, 1.3324314e+2, -1790748.4, -1615825.1, -23347.02, -0.059749942, -0.6315471, -1612762.6, 21390.707, 0.0, 9.998933, 10.00119 
2.9960033e+3, 1.4324377e+2, -1390368.8, -1411916.4, -117545.016, -0.04550947, -0.63125116, -1283104.9, 253041.44, 0.0, 10.001155, 10.000853 
2.9959026e+3, 1.5324262e+2, -1373220.1, -1410486.6, 41562.977, 0.12948239, -0.7454064, -1346304.8, 91849.32, 0.0, 10.000809, 10.000372 
2.995798e+3, 1.632422e+2, -1321154.6, -1414412.6, 45292.414, -0.032699224, -0.7318859, -1302778.5, 37377.8, 0.0, 10.000825, 9.999671 
2.995698e+3, 1.7324054e+2, -1098096.6, -1233464.1, 93670.78, 0.05468843, -0.8289143, -1050215.3, 191958.89, 0.0, 10.001591, 9.9998665 
2.9955974e+3, 1.8324155e+2, -978968.06, -1025014.8, 85084.01, -0.011828061, -0.7109366, -913847.44, 230317.77, 0.0, 10.001298, 10.000771 
2.9954985e+3, 1.9324191e+2, -958997.3, -991927.94, 44201.71, 0.08997522, -0.6865623, -928293.8, 117867.9, 0.0, 10.000889, 10.000517 
2.995398e+3, 2.0324261e+2, -900580.7, -801139.56, 9512.917, 0.0026843196, -0.6784255, -800237.75, 147916.83, 0.0, 10.000139, 10.001515 
2.9952967e+3, 2.1324313e+2, -821321.56, -735518.3, 15599.142, -0.07184656, -0.7105424, -732770.4, 117378.54, 0.0, 10.000128, 10.001288 
2.995197e+3, 2.2324342e+2, -707282.94, -736172.5, -18708.645, 0.059428263, -0.7070904, -698091.6, 54054.44, 0.0, 10.000706, 10.000327 
2.9950958e+3, 2.3324408e+2, -717810.06, -613719.2, -45309.19, 0.109789446, -0.66502655, -596759.9, 57379.85, 0.0, 9.999637, 10.001007 
2.9949948e+3, 2.4324407e+2, -575844.8, -488101.75, 21878.316, 0.070417084, -0.7141001, -482949.1, 73189.98, 0.0, 9.999911, 10.001064 
2.9948935e+3, 2.5324455e+2, -439731.06, -340881.63, 41061.05, 0.037804842, -0.7439167, -326050.5, 132081.08, 0.0, 10.000037, 10.001341 
2.9947925e+3, 2.6324514e+2, -352820.03, -273695.1, 52904.08, 0.040053036, -0.756259, -247196.77, 112926.51, 0.0, 10.000056, 10.001136 
2.9946914e+3, 2.732454e+2, -219485.63, -170657.83, 66417.805, 0.10148387, -0.7919955, -124309.01, 137810.23, 0.0, 10.000331, 10.001047 
2.9945892e+3, 2.8324562e+2, -161432.25, -109636.805, 4825.0293, 0.1246792, -0.81223065, -109191.164, 54925.098, 0.0, 10.000234, 10.000831 
2.9944864e+3, 2.9324564e+2, -182016.14, -123298.22, 10651.467, 0.19158326, -0.8039045, -121425.75, -55307.953, 0.0, 9.999663, 10.000372 
