coord_x,coord_y,stress_xx,stress_yy,tau_xy,velocity_x,velocity_y,stress_1,eps,damage,lx,ly
5.000597e+0, 1.2600203e+2, -1477215.4, -1648080.1, 39845.27, -0.03180219, 0.086144775, -1468380.4, 236802.08, 0.002661235, 10.001765, 9.999603 
5.000564e+0, 1.3600104e+2, -1565356.8, -1736740.9, 60984.65, 0.007914884, 0.08409664, -1545871.6, 61321.707, 0.0015827751, 10.000933, 9.998715 
5.000378e+0, 1.460011e+2, -1430563.4, -1416198.9, 53964.637, 0.020481067, 0.124334306, -1368940.6, 140246.4, 0.0007101352, 10.000313, 10.000535 
5.0001264e+0, 1.559987e+2, -1426567.5, -1391524.9, 3208.192, 0.02164857, -0.19939369, -1391233.5, 19966.701, 0.00020845665, 9.999786, 10.000286 
5.0001395e+0, 1.6599776e+2, -1508112.5, -1645469.1, 31681.617, 0.027549518, -0.19141582, -1501157.3, -187947.48, 0.000030560015, 9.999699, 9.997915 
5.000322e+0, 1.759975e+2, -1366345.6, -1502356.0, 74205.61, 0.035935637, -0.03597367, -1333697.0, -118477.5, 0.0000010193884, 9.999895, 9.99813 
5.000071e+0, 1.8599743e+2, -1131242.5, -1058274.4, 45682.92, 0.023370244, 0.008066465, -1036294.6, 80924.875, 0.0, 9.9996395, 10.000625 
4.9995065e+0, 1.9599739e+2, -1126296.6, -1021262.75, -22694.15, -0.004219384, -0.0817332, -1016569.06, 2644.7798, 0.0, 9.999066, 10.000486 
4.9995786e+0, 2.059962e+2, -1033247.2, -978430.7, -5122.6997, -0.006935125, -0.22020964, -977956.06, -56737.055, 0.0, 9.999264, 10.00001 
5.000061e+0, 2.159941e+2, -833050.44, -835680.0, 16392.08, 0.0052348054, -0.4550679, -817920.5, 5312.2236, 0.0, 9.999984, 9.99997 
5.0000125e+0, 2.2599377e+2, -710403.2, -722903.2, 900.61884, -0.007448747, -0.48599273, -710338.7, 14895.304, 0.0, 10.000143, 9.999993 
4.9996123e+0, 2.3599449e+2, -656610.1, -667494.06, -30807.594, -0.036862873, -0.43991747, -630767.56, -3539.5505, 0.0, 9.999929, 9.999806 
4.99969e+0, 2.459961e+2, -642816.94, -728150.0, 657.3138, -0.025135852, -0.19894148, -642811.9, -113593.34, 0.0, 9.999856, 9.998753 
5.000115e+0, 2.5599816e+2, -534319.5, -620555.56, 51818.855, 0.014511379, 0.10690498, -510025.7, -78817.375, 0.0, 9.9999075, 9.998795 
5.000215e+0, 2.6599705e+2, -336412.06, -332954.9, 45103.65, 0.020738428, 0.05024778, -289546.72, 43672.105, 0.000000019594776, 9.999989, 10.000053 
5.000082e+0, 2.759938e+2, -243553.98, -269079.13, -21145.637, 0.0021500112, -0.30522594, -231617.95, 3625.285, 0.00000068486895, 10.000088, 9.999772 
5.0000894e+0, 2.859933e+2, -273783.38, -493384.34, 11646.045, -0.009114909, -0.20129277, -273167.47, -135919.66, 0.0000056407102, 10.000331, 9.9974375 
5.000168e+0, 2.959941e+2, -109196.68, -340220.78, 93270.51, -0.01914192, 0.10681869, -76241.82, -36996.67, 0.00003698917, 10.00068, 9.997651 
5.000199e+0, 3.0599248e+2, 72109.03, 42116.918, 98238.74, -0.0032721239, 0.044363577, 156489.69, 156489.69, 0.00018828975, 10.000428, 10.000064 
5.0001395e+0, 3.1598598e+2, -137771.5, -231250.25, 66189.16, 0.025482446, -0.6227799, -103482.65, -103482.65, 0.00054298295, 9.999692, 9.998549 
1.5001762e+1, 1.2600188e+2, -1438951.8, -1539678.1, -8846.289, -0.09703102, -0.071224846, -1438180.8, 266995.28, 0.0025654268, 10.0016575, 10.00041 
1.5001701e+1, 1.360009e+2, -1526689.5, -1644634.8, 34649.547, 0.023866512, -0.13054128, -1517263.5, 89920.805, 0.001528762, 10.000895, 9.999374 
1.5001142e+1, 1.4600165e+2, -1523191.8, -1591148.0, 29788.158, 0.06417555, 0.012916517, -1511983.0, -2807.2742, 0.0006838554, 10.000246, 9.999374 
1.5000379e+1, 1.5600076e+2, -1500428.3, -1529539.4, -7904.953, 0.06466226, -0.03056665, -1498420.3, -87236.89, 0.00019662829, 9.999729, 9.9993725 
1.5000437e+1, 1.6599962e+2, -1423234.4, -1451525.1, 34499.695, 0.08546411, -0.07599417, -1400092.8, -86899.76, 0.00002664921, 9.999629, 9.999288 
1.5000997e+1, 1.759981e+2, -1297012.1, -1346722.5, 83802.06, 0.110037886, -0.16594425, -1234457.0, -19250.959, 0.00000066228677, 9.999846, 9.99923 
1.5000185e+1, 1.8599722e+2, -1265395.5, -1313078.6, 20322.063, 0.06846048, -0.15997836, -1257909.8, -140694.08, 0.0, 9.999552, 9.99892 
1.4998524e+1, 1.9599673e+2, -1239149.9, -1236398.4, -33406.914, -0.012220092, -0.11436919, -1204338.9, -185115.53, 0.0, 9.998991, 9.999051 
1.4998719e+1, 2.059973e+2, -990447.44, -865679.75, 18503.203, -0.02133932, -0.058677312, -862993.5, 58222.87, 0.0, 9.999175, 10.000828 
1.5000169e+1, 2.1599853e+2, -801860.0, -744747.6, 46415.02, 0.015236326, -0.02761147, -718807.9, 104392.02, 0.0, 9.999884, 10.000646 
1.5000027e+1, 2.2599831e+2, -771921.0, -825564.75, -12529.386, -0.022311516, -0.04303683, -769138.9, -43937.637, 0.0, 10.00005, 9.999336 
1.4998813e+1, 2.3599702e+2, -701009.75, -733842.94, -32334.879, -0.1113393, -0.11613059, -681162.75, -53947.926, 0.0, 9.999833, 9.999399 
1.499908e+1, 2.4599631e+2, -547129.75, -512849.13, -2212.963, -0.07516435, -0.174432, -512706.88, 16513.305, 0.0, 9.99979, 10.000269 
1.500034e+1, 2.5599587e+2, -460321.0, -441528.72, 58942.348, 0.043258, -0.2592431, -391238.28, 39982.62, 0.0, 9.9998045, 10.000079 
1.5000646e+1, 2.6599538e+2, -458508.97, -568607.4, 43557.113, 0.061410055, -0.22672978, -443361.06, -110134.805, 0.0000000045160005, 9.999921, 9.99847 
1.500026e+1, 2.759949e+2, -343235.03, -454715.25, -13412.949, 0.007201877, -0.13341628, -341643.9, -106409.36, 0.0000004592844, 10.000001, 9.998545 
1.500025e+1, 2.8599364e+2, -120000.48, -155726.61, 20659.865, -0.02904006, -0.18398783, -110552.02, 26692.041, 0.00000436483, 10.000262, 9.999795 
1.5000506e+1, 2.9599133e+2, 25738.268, -35282.79, 109734.01, -0.05842821, -0.40532562, 109124.38, 148383.02, 0.000032381515, 10.000577, 9.999802 
1.5000601e+1, 3.0599183e+2, 14499.521, -53196.094, 68126.94, -0.008685342, -0.32258534, 56723.74, 56723.74, 0.00017490126, 10.00035, 9.999452 
1.5000404e+1, 3.1599277e+2, -187868.06, -290339.25, 59205.645, 0.07567791, -0.16078688, -160806.83, -160806.83, 0.0005127624, 9.999522, 9.998232 
2.500166e+1, 1.260023e+2, -1762198.6, -1635063.6, -10052.662, -0.14474039, -0.15048121, -1634273.6, 70893.45, 0.0024531346, 9.99919, 10.000929 
2.500243e+1, 1.3600174e+2, -1660563.0, -1666759.5, 1206.2938, 0.06564981, -0.22099204, -1660336.5, -53166.867, 0.001461298, 9.999804, 9.999746 
2.5001666e+1, 1.4600265e+2, -1580616.4, -1660243.5, 32183.889, 0.10600111, -0.056459874, -1569235.0, -60074.227, 0.0006489441, 10.000041, 9.998986 
2.5000152e+1, 1.5600206e+2, -1486961.6, -1563106.5, 47987.25, 0.0587167, -0.03666021, -1463778.1, -52609.17, 0.0001814002, 10.000003, 9.9990015 
2.5000173e+1, 1.6600093e+2, -1341001.9, -1377811.1, 98057.15, 0.07812599, -0.07867079, -1259637.1, 53541.125, 0.000022322774, 10.000057, 9.999574 
2.500124e+1, 1.759993e+2, -1243539.5, -1292525.4, 59296.75, 0.13909163, -0.21535125, -1203876.3, 11313.602, 0.00000035252413, 10.000112, 9.999459 
2.5000408e+1, 1.8599823e+2, -1222258.3, -1328536.0, 19613.3, 0.11622143, -0.22039714, -1218754.3, -101552.84, 0.0, 9.999996, 9.998599 
2.499839e+1, 1.9599757e+2, -1156877.1, -1230172.3, 68993.38, 0.042558197, -0.16609272, -1115402.1, -96189.34, 0.0, 9.999703, 9.998742 
2.4998371e+1, 2.0599835e+2, -956799.8, -896461.8, 151294.03, 0.007251018, -0.05124642, -772358.1, 148847.8, 0.0, 9.999603, 10.00041 
2.4999699e+1, 2.1600004e+2, -875629.25, -825912.0, 81733.44, -0.0011934905, 0.061641887, -765340.5, 57847.117, 0.0, 9.999568, 10.000239 
2.499993e+1, 2.2599985e+2, -824715.56, -860422.25, 18050.217, -0.017748412, 0.07401362, -817180.9, -91991.47, 0.0, 9.999712, 9.999259 
2.4999435e+1, 2.3599836e+2, -684951.06, -734175.8, 37638.547, -0.036488757, -0.017975463, -664592.06, -37387.035, 0.0, 9.999963, 9.999333 
2.499948e+1, 2.4599701e+2, -482942.2, -440592.78, 48369.16, -0.025422499, -0.15506612, -408966.5, 120247.12, 0.0, 10.000058, 10.000628 
2.4999878e+1, 2.5599566e+2, -403544.47, -382783.25, 15144.08, 0.0068016476, -0.36984125, -374803.56, 56414.938, 0.0, 10.000061, 10.000352 
2.5000405e+1, 2.659953e+2, -454531.72, -606805.5, 36034.09, 0.03724259, -0.31636027, -446435.13, -113212.445, 0.00000000030772893, 10.000127, 9.998106 
2.5001025e+1, 2.7599567e+2, -327228.1, -479868.94, 65511.867, 0.07336245, -0.1058729, -302967.13, -67741.19, 0.000000332103, 10.000262, 9.9982395 
2.500075e+1, 2.8599417e+2, -133545.52, -140004.19, 51600.586, 0.0074404445, -0.17460068, -85073.31, 52164.754, 0.000003312623, 10.000071, 9.999993 
2.4999882e+1, 2.9599106e+2, -103191.19, -74807.3, -29769.25, -0.12598664, -0.5041124, -56020.164, -16760.387, 0.000027299557, 9.999603, 9.999995 
2.500005e+1, 3.0599162e+2, -95452.94, -117440.0, -99869.44, -0.05951037, -0.41470066, -5973.779, -5973.779, 0.00015832737, 9.999652, 9.99935 
2.5000536e+1, 3.159955e+2, -85023.78, -196706.27, -84279.805, 0.11849025, 0.047617927, -39764.438, -39764.438, 0.0004751241, 10.000054, 9.998612 
3.5000193e+1, 1.2600322e+2, -1754910.5, -1604200.8, -8769.3955, -0.2394967, -0.17870058, -1603692.3, 101463.88, 0.0023328552, 9.999133, 10.001169 
3.500259e+1, 1.3600354e+2, -1638335.8, -1617831.4, 26936.865, 0.08444177, -0.18296117, -1599261.8, 7887.3745, 0.001385082, 9.999807, 10.000074 
3.50018e+1, 1.4600405e+2, -1551814.5, -1595616.3, 25246.328, 0.09774466, -0.09960203, -1540293.4, -31150.729, 0.00060841354, 10.000017, 9.999443 
3.4999284e+1, 1.5600257e+2, -1461733.5, -1506978.8, 53169.746, -0.046560615, -0.2110287, -1426573.8, -15416.35, 0.00016439817, 9.99999, 9.999391 
3.4999257e+1, 1.6600168e+2, -1393535.6, -1481881.6, 94675.62, -0.03507097, -0.21016417, -1333235.1, -20069.33, 0.000017966355, 10.000033, 9.998876 
3.5000908e+1, 1.7600092e+2, -1281792.5, -1370073.8, 65154.57, 0.079610646, -0.18716921, -1247234.3, -32061.77, 0.00000014192928, 10.000102, 9.998936 
3.500061e+1, 1.860003e+2, -1145032.4, -1155864.3, 4334.082, 0.12286483, -0.1889909, -1143511.8, -26333.527, 0.0, 9.999947, 9.999806 
3.499896e+1, 1.9599979e+2, -1097611.1, -1096715.3, 64607.293, 0.11361675, -0.23501475, -1032554.3, -13371.167, 0.0, 9.999657, 9.999682 
3.4998387e+1, 2.0599926e+2, -1075603.5, -1122734.8, 143899.48, 0.037422564, -0.21162459, -953352.8, -32164.057, 0.0, 9.999524, 9.998894 
3.4998515e+1, 2.1599858e+2, -976820.9, -1017343.9, 87066.12, -0.08958055, -0.18064995, -907689.75, -84493.664, 0.0, 9.999494, 9.99896 
3.4999612e+1, 2.2599839e+2, -792764.7, -773949.3, 22854.48, -0.034256507, -0.14571556, -758642.0, -33443.25, 0.0, 9.999631, 9.999892 
3.500132e+1, 2.3599854e+2, -661093.1, -663987.8, 51996.918, 0.14256577, -0.13243832, -610523.44, 16674.512, 0.0, 9.99988, 9.999855 
3.5000762e+1, 2.4599826e+2, -544610.4, -556081.44, 42919.664, 0.08415249, -0.14486209, -507044.72, 22153.807, 0.0, 10.000003, 9.999864 
3.499861e+1, 2.5599757e+2, -457172.28, -474179.8, 19993.691, -0.14009847, -0.21371575, -443949.06, -12748.088, 0.0, 9.999979, 9.999763 
3.499942e+1, 2.659968e+2, -391549.4, -470831.6, 35649.98, -0.086532794, -0.22334237, -377876.9, -44669.195, 0.00000000006499392, 10.000099, 9.999056 
3.5002196e+1, 2.759961e+2, -286848.94, -382433.94, 74499.6, 0.14961597, -0.21738356, -246129.78, -10912.6045, 0.0000002836276, 10.0002, 9.9989395 
3.500145e+1, 2.8599498e+2, -273556.72, -415365.5, 27930.793, 0.057539202, -0.17792352, -268253.75, -131023.77, 0.000002745044, 10.000015, 9.998126 
3.4998155e+1, 2.9599324e+2, -228800.83, -316695.7, -39363.51, -0.2735287, -0.18277758, -213749.42, -174500.64, 0.000022379118, 9.99953, 9.998367 
3.499839e+1, 3.059918e+2, -60770.703, -44883.36, -88104.375, -0.203469, -0.24796791, 35634.727, 35634.727, 0.00013928866, 9.999638, 9.999858 
3.5000294e+1, 3.159943e+2, -10374.935, -38431.77, -55447.56, 0.060205188, 0.022824677, 32791.3, 32791.3, 0.00043208257, 10.000025, 9.999721 
4.500027e+1, 1.2600504e+2, -1663543.9, -1562500.8, 54486.074, -0.16360979, -0.16991435, -1538717.8, 166417.84, 0.0022111118, 9.999788, 10.001135 
4.5002624e+1, 1.3600478e+2, -1703513.4, -1657991.9, 42645.137, 0.1362372, -0.22238064, -1632413.6, -25280.02, 0.0013064536, 9.999402, 9.999999 
4.500193e+1, 1.4600481e+2, -1536314.5, -1594584.6, 40842.875, 0.10985355, -0.17819586, -1515279.9, -6147.865, 0.00056747237, 10.000149, 9.999395 
4.4999745e+1, 1.5600353e+2, -1223956.9, -1400806.5, 9535.466, -0.075960055, -0.26041567, -1223444.3, 187701.16, 0.00014805637, 10.00165, 9.999331 
4.499937e+1, 1.6600285e+2, -1215445.8, -1390554.9, 26482.227, -0.081760444, -0.23972513, -1211528.5, 101624.03, 0.000013959289, 10.001235, 9.998924 
4.5000222e+1, 1.7600226e+2, -1360180.4, -1402937.3, 46082.336, 0.033262126, -0.20338124, -1330759.0, -115600.83, 0.000000037538413, 9.999537, 9.998986 
4.500013e+1, 1.8600193e+2, -1188866.8, -1169609.0, 12829.494, 0.10201155, -0.18248753, -1163196.9, -46035.563, 0.0, 9.999611, 9.999881 
4.4999352e+1, 1.9600184e+2, -925456.3, -1006072.5, -22981.293, 0.13502866, -0.19038917, -919365.2, 99796.89, 0.0, 10.00081, 9.999751 
4.4998908e+1, 2.0600064e+2, -861922.2, -1017316.0, 76467.41, 0.07012525, -0.2386152, -830605.0, 90566.97, 0.0, 10.000976, 9.998919 
4.499876e+1, 2.1599855e+2, -846033.94, -956707.75, 126345.65, -0.054177742, -0.35335115, -763438.25, 59750.95, 0.0, 10.000397, 9.998943 
4.4999883e+1, 2.2599803e+2, -737805.4, -785254.25, 91822.87, 0.0077584847, -0.3306629, -666691.56, 58502.85, 0.0, 10.000178, 9.99955 
4.500182e+1, 2.3599859e+2, -640926.94, -696497.25, 36202.36, 0.19325545, -0.24137199, -623076.3, 4115.3145, 0.0, 10.000204, 9.999477 
4.500107e+1, 2.459985e+2, -573443.06, -632357.1, 8340.852, 0.11548038, -0.18570161, -572285.0, -43091.605, 0.0, 10.000084, 9.999296 
4.499848e+1, 2.5599784e+2, -501713.66, -551266.94, -7739.4272, -0.14369178, -0.19566035, -500533.0, -69333.234, 0.0, 9.999908, 9.9992695 
4.499933e+1, 2.659972e+2, -350912.9, -386532.1, 19194.66, -0.1016408, -0.20392692, -342538.22, -9332.765, 0.00000000016705606, 10.000108, 9.999627 
4.5002547e+1, 2.7599666e+2, -196935.56, -289953.6, 15065.202, 0.14890659, -0.23269713, -194556.44, 40653.758, 0.00000025698242, 10.000607, 9.999383 
4.500175e+1, 2.8599596e+2, -281600.03, -474212.97, -6791.7646, 0.08147502, -0.14149748, -281360.84, -144141.08, 0.0000023157831, 10.000202, 9.997633 
4.4998088e+1, 2.9599488e+2, -305279.22, -409013.34, 22751.143, -0.21339428, -0.029102435, -300508.78, -261272.94, 0.000017842196, 9.999247, 9.997872 
4.4998205e+1, 3.059917e+2, -111674.664, -109171.55, 35896.89, -0.17205554, -0.2258753, -74504.41, -74504.41, 0.0001190779, 9.999455, 9.999504 
4.5000112e+1, 3.1599313e+2, 47738.563, 11446.254, -10458.771, 0.030963857, -0.03062427, 50536.832, 50536.832, 0.00038609168, 10.000336, 9.999909 
5.500124e+1, 1.2600796e+2, -1676683.6, -1625526.1, 21107.29, -0.0903672, -0.10722622, -1617941.8, 87161.56, 0.0020867882, 9.99992, 10.000644 
5.500229e+1, 1.3600555e+2, -1726583.5, -1726301.5, 40219.508, 0.13870426, -0.33161533, -1686222.8, -79100.47, 0.0012253985, 9.999481, 9.999494 
5.500189e+1, 1.4600503e+2, -1571035.4, -1680161.3, 92600.87, 0.06800566, -0.28534424, -1518117.9, -8989.928, 0.00052635156, 10.000202, 9.998784 
5.5001265e+1, 1.5600501e+2, -1251727.1, -1466901.0, 60598.777, -0.10991209, -0.18387881, -1235834.8, 175298.0, 0.00013276051, 10.001688, 9.998859 
5.5000216e+1, 1.6600448e+2, -1161737.5, -1280025.4, -43956.094, -0.13841204, -0.1660413, -1147191.9, 165946.16, 0.0000106646075, 10.001239, 9.999681 
5.499895e+1, 1.7600329e+2, -1319016.4, -1317419.1, -2222.561, -0.06535949, -0.26486158, -1315856.0, -100708.9, 0.000000007551507, 9.999538, 9.999572 
5.4998803e+1, 1.8600315e+2, -1265075.9, -1323191.6, 52801.027, -0.0064962916, -0.1961616, -1233865.1, -116714.33, 0.0, 9.999591, 9.9988365 
5.499936e+1, 1.9600374e+2, -982242.5, -1119972.5, 19839.326, 0.037373085, -0.033699017, -979441.7, 39708.42, 0.0, 10.000795, 9.998976 
5.4999804e+1, 2.0600252e+2, -756373.56, -789532.56, 49669.45, 0.047455564, -0.13618886, -720589.56, 200566.14, 0.0, 10.000937, 10.000502 
5.5000204e+1, 2.1599995e+2, -761875.3, -772310.8, 111136.77, 0.03425476, -0.4556555, -655833.9, 167333.05, 0.0, 10.000357, 10.000228 
5.50005e+1, 2.2599877e+2, -836093.25, -981074.4, 87753.914, 0.03642817, -0.48197603, -794761.0, -69584.516, 0.0, 10.000142, 9.998222 
5.5000764e+1, 2.3599859e+2, -734485.0, -878936.75, 40744.535, 0.05212709, -0.33788338, -723785.06, -96599.805, 0.0, 10.000154, 9.998246 
5.5000204e+1, 2.4599779e+2, -605410.25, -693268.4, -2810.9148, 0.005339179, -0.2760243, -605320.44, -76122.49, 0.0, 10.000058, 9.998892 
5.499916e+1, 2.5599647e+2, -536909.25, -604968.7, -7332.3535, -0.08257741, -0.31195027, -536128.25, -104913.8, 0.0, 9.999829, 9.998937 
5.499989e+1, 2.6599643e+2, -344444.9, -366802.25, 32535.225, -0.07159772, -0.2530261, -321221.5, 11993.835, 0.00000000012003064, 10.00008, 9.999777 
5.500189e+1, 2.759973e+2, -189878.7, -260417.34, 32594.232, 0.007774894, -0.15459299, -177123.98, 58081.25, 0.00000017731924, 10.000542, 9.999617 
5.500151e+1, 2.8599715e+2, -225652.1, -353059.2, -49137.313, 0.022222714, -0.06885843, -208903.06, -71695.35, 0.0000014956321, 10.000178, 9.998479 
5.4999495e+1, 2.95996e+2, -266793.25, -317048.88, 713.2886, -0.014690002, -0.046554536, -266783.13, -227561.61, 0.000012909044, 9.999191, 9.998532 
5.4999244e+1, 3.0599135e+2, -199169.48, -281180.06, 66182.93, -0.028391229, -0.35397765, -162318.4, -162318.4, 0.00009809619, 9.99942, 9.998339 
5.4999477e+1, 3.15992e+2, -13524.592, -99770.05, 40629.586, -0.09696534, -0.12297439, 2600.7432, 2600.7432, 0.00033776127, 10.000269, 9.999174 
6.500203e+1, 1.2600955e+2, -1751973.5, -1725870.4, 381.7232, 0.01669397, -0.12767781, -1725864.8, -20780.406, 0.0019618457, 9.999678, 10.000075 
6.5001863e+1, 1.3600688e+2, -1544964.5, -1682785.8, -121.68032, 0.08179022, -0.3269799, -1544964.4, 62143.88, 0.0011414166, 10.000912, 9.999104 
6.5001506e+1, 1.460062e+2, -1556214.0, -1646737.3, 86703.02, 0.013963416, -0.29599893, -1503669.5, 5446.9155, 0.0004823892, 10.000199, 9.999012 
6.5001833e+1, 1.5600668e+2, -1724224.9, -1669481.3, 106732.28, -0.04961462, -0.16383691, -1586666.9, -175551.48, 0.00011742101, 9.998338, 9.999081 
6.500084e+1, 1.6600634e+2, -1553728.6, -1447912.3, 12558.021, -0.056442834, -0.14840484, -1446442.4, -133323.73, 0.000008467286, 9.998458, 9.999868 
6.4998984e+1, 1.760051e+2, -1265226.4, -1279115.8, 5586.3496, -0.02735397, -0.27279952, -1263258.4, -48130.195, 0.000000004638606, 9.999858, 9.99968 
6.499885e+1, 1.8600458e+2, -1181280.8, -1332571.8, 104866.04, 0.0031263393, -0.2187461, -1127623.8, -10488.265, 0.0, 10.000387, 9.9983835 
6.499985e+1, 1.9600464e+2, -1079113.4, -1212263.9, 102648.04, 0.034376666, -0.0664508, -1023341.25, -4200.596, 0.0, 10.000321, 9.99857 
6.5000474e+1, 2.0600358e+2, -850415.06, -831681.7, 57585.473, 0.056550384, -0.13678801, -782706.1, 138439.52, 0.0, 10.000278, 10.000529 
6.50008e+1, 2.1600166e+2, -782474.3, -779793.06, -4221.6987, 0.06933758, -0.39051488, -776704.25, 46447.18, 0.0, 10.000206, 10.000248 
6.500074e+1, 2.2600041e+2, -811659.6, -972955.5, 6393.2856, 0.041423023, -0.42527044, -811406.6, -86245.375, 0.0, 10.000321, 9.998197 
6.500045e+1, 2.359996e+2, -680485.44, -859882.9, 44168.387, -0.010187393, -0.33782583, -670200.6, -43026.617, 0.0, 10.000546, 9.998197 
6.5000343e+1, 2.4599846e+2, -569705.75, -714580.9, 39290.164, -0.0029718627, -0.28876692, -559736.3, -30546.172, 0.0, 10.000457, 9.998565 
6.500037e+1, 2.5599703e+2, -507747.13, -624735.25, 32058.807, 0.042822175, -0.301844, -499537.94, -68328.86, 0.0, 10.000167, 9.998648 
6.5000826e+1, 2.659967e+2, -338152.34, -375723.84, 93317.766, 0.012813857, -0.25532082, -261748.23, 71464.61, 0.00000000000043891748, 10.000171, 9.999675 
6.500164e+1, 2.759971e+2, -215997.13, -280880.5, 61890.125, -0.05925544, -0.19626373, -178561.4, 56644.715, 0.00000007111923, 10.000401, 9.99954 
6.5001416e+1, 2.8599688e+2, -164791.39, -323393.63, -81125.94, -0.019545665, -0.11178442, -130646.11, 6562.635, 0.00000065443334, 10.000587, 9.998487 
6.50005e+1, 2.959961e+2, -47137.92, -213277.98, -99041.56, 0.09607717, -0.0553218, -941.32947, 38278.344, 0.000008482825, 10.000707, 9.998516 
6.5000266e+1, 3.059912e+2, 3493.1724, -226713.3, 20786.568, 0.057973575, -0.36772653, 5355.0435, 5355.0435, 0.00007932554, 10.000995, 9.997955 
6.5000015e+1, 3.1599134e+2, 138879.97, -46166.754, 35261.12, -0.11814375, -0.1473636, 145371.34, 145371.34, 0.00029245962, 10.001387, 9.999016 
7.500216e+1, 1.2600966e+2, -1772230.3, -1790419.9, 26652.654, 0.024661873, -0.23176537, -1753163.4, -48083.063, 0.001839182, 9.999771, 9.999588 
7.500109e+1, 1.3600877e+2, -1555654.8, -1720055.6, 36014.473, -0.10634349, -0.20891976, -1548111.4, 58980.33, 0.0010576415, 10.000974, 9.998821 
7.500048e+1, 1.460083e+2, -1474174.4, -1484797.1, 11340.737, -0.12776296, -0.2045666, -1466962.9, 42134.12, 0.00043753645, 10.000237, 10.000104 
7.5001246e+1, 1.560086e+2, -1658494.5, -1537662.9, 55135.754, 0.039117396, -0.19778696, -1516286.1, -105192.86, 0.00010224, 9.998358, 9.999977 
7.5001025e+1, 1.6600849e+2, -1580864.9, -1504051.4, 62406.8, 0.098573476, -0.17833844, -1469180.0, -156086.27, 0.000007138289, 9.998456, 9.999485 
7.500012e+1, 1.7600764e+2, -1285265.1, -1324969.8, 57695.953, 0.082837135, -0.22386767, -1244101.6, -29000.236, 0.00000003688298, 9.999877, 9.999356 
7.500009e+1, 1.8600625e+2, -1170650.0, -1312150.9, 97881.81, 0.07240795, -0.25244212, -1120626.0, -3510.31, 0.0, 10.000391, 9.998524 
7.5000644e+1, 1.9600452e+2, -1084447.6, -1220150.3, 104979.53, 0.06462369, -0.28931743, -1027300.94, -8167.1143, 0.0, 10.000308, 9.998525 
7.500068e+1, 2.0600384e+2, -963601.44, -1058862.9, 51016.523, 0.03557476, -0.23417304, -941436.94, -20295.71, 0.0, 10.000247, 9.998982 
7.500036e+1, 2.1600372e+2, -877136.75, -966828.1, -679.4267, -0.010953357, -0.15720287, -877131.6, -53989.07, 0.0, 10.000163, 9.998984 
7.500038e+1, 2.2600293e+2, -730824.6, -795360.06, 10827.2295, -0.040229946, -0.15848693, -729056.56, -3908.194, 0.0, 10.000278, 9.999434 
7.500066e+1, 2.3600161e+2, -613774.3, -708841.06, 57275.74, -0.05659361, -0.2456965, -586876.94, 40280.867, 0.0, 10.000488, 9.999262 
7.5001174e+1, 2.4600056e+2, -595300.94, -756033.4, 24774.621, 0.022228764, -0.22365542, -591568.94, -62399.46, 0.0, 10.000411, 9.998298 
7.5001925e+1, 2.5599957e+2, -536058.25, -670355.5, 27497.38, 0.1679633, -0.16616188, -530646.25, -99462.83, 0.0, 10.000108, 9.998363 
7.500196e+1, 2.65998e+2, -367946.56, -426887.28, 98627.23, 0.096831575, -0.21077438, -294480.88, 38716.727, 0.0, 10.000128, 9.999344 
7.500155e+1, 2.75996e+2, -254126.6, -345257.03, 78068.44, -0.12492216, -0.3578594, -209298.94, 25913.355, 0.000000009748358, 10.000338, 9.999129 
7.500119e+1, 2.8599524e+2, -224340.89, -440531.22, -80639.31, -0.1161747, -0.26825157, -197575.89, -60353.676, 0.00000018808618, 10.000561, 9.997694 
7.5000864e+1, 2.9599518e+2, -104195.08, -319166.75, -87523.27, 0.047804166, -0.060138088, -73068.04, -33838.09, 0.000005696117, 10.000648, 9.997818 
7.5001127e+1, 3.0599114e+2, 22609.936, -180792.78, 36343.01, 0.030874455, -0.27116558, 28908.488, 28908.488, 0.00006525944, 10.000969, 9.99828 
7.5001395e+1, 3.159909e+2, 153334.27, 8904.382, 62443.395, -0.14519446, -0.12936892, 176587.52, 176587.52, 0.00025509726, 10.001278, 9.999443 
8.5001516e+1, 1.260089e+2, -1865023.6, -1760668.0, -49703.02, 0.03639801, -0.28513926, -1740783.9, -35693.83, 0.0017199421, 9.99881, 10.000253 
8.5000527e+1, 1.3600995e+2, -1856524.9, -1781522.0, 28972.795, -0.13435338, -0.14774865, -1771633.8, -164552.77, 0.0009794245, 9.998559, 9.999556 
8.4999895e+1, 1.4600953e+2, -1637414.8, -1532226.3, -17886.42, -0.14252493, -0.18560676, -1529268.0, -20183.668, 0.0003977733, 9.998974, 10.000393 
8.5000753e+1, 1.5600927e+2, -1431321.0, -1398608.4, -35037.168, 0.08683237, -0.26448473, -1376297.8, 34787.223, 0.000088897265, 9.999791, 10.000239 
8.500083e+1, 1.660093e+2, -1329582.0, -1400160.8, 17141.793, 0.14855798, -0.23418923, -1325639.0, -12554.693, 0.000006071428, 10.000254, 9.999333 
8.5000384e+1, 1.7600904e+2, -1202202.8, -1292369.0, 17517.488, 0.094534144, -0.20744969, -1198919.0, 16168.647, 0.000000076650345, 10.000473, 9.999296 
8.50003e+1, 1.8600774e+2, -1115759.1, -1216037.9, 60868.035, 0.053275898, -0.25860268, -1087038.8, 30060.588, 0.0, 10.000471, 9.999148 
8.500049e+1, 1.9600585e+2, -1054504.9, -1152972.9, 98283.79, 0.024196232, -0.3714777, -993813.0, 25302.014, 0.0, 10.000291, 9.998994 
8.5000885e+1, 2.0600508e+2, -991865.06, -1185304.1, 103715.65, 0.021003498, -0.28969836, -946769.25, -25643.664, 0.0, 10.000529, 9.997987 
8.500139e+1, 2.16005e+2, -814825.94, -1031912.44, 79310.77, 0.037902273, -0.109329864, -788937.7, 34195.637, 0.0, 10.000998, 9.998141 
8.5001487e+1, 2.2600417e+2, -631033.4, -695507.8, 64311.387, 0.0225518, -0.101226665, -591331.75, 133808.27, 0.0, 10.000746, 9.999891 
8.500134e+1, 2.3600282e+2, -654404.1, -682516.06, 43979.86, -0.011176771, -0.23723373, -622288.7, 4857.414, 0.0, 10.000021, 9.9996605 
8.500186e+1, 2.4600172e+2, -566976.56, -762303.2, 33635.56, 0.03846779, -0.22531216, -561346.7, -32190.492, 0.0, 10.00069, 9.998119 
8.500293e+1, 2.5600076e+2, -231762.4, -543970.94, 29165.742, 0.15271321, -0.14669813, -229061.19, 202108.23, 0.0, 10.002296, 9.998172 
8.5003066e+1, 2.659987e+2, -162910.9, -384192.75, 51975.47, 0.11705239, -0.20811349, -151310.83, 181878.47, 0.0, 10.001766, 9.998854 
8.5002625e+1, 2.7599576e+2, -370228.03, -453422.8, 16219.95, -0.017865958, -0.3977456, -367177.56, -131963.14, 0.0, 9.999752, 9.998676 
8.500224e+1, 2.8599456e+2, -281192.5, -485366.0, -35809.54, -0.046922546, -0.32064083, -275094.1, -137865.31, 0.000000024133003, 10.000239, 9.997544 
8.500192e+1, 2.9599455e+2, 150381.3, -213582.52, -13408.842, 0.0025251163, -0.09533215, 150874.63, 190110.69, 0.0000041706858, 10.00247, 9.997665 
8.50021e+1, 3.0599138e+2, 164347.78, -130737.234, 45961.48, -0.017454058, -0.20321517, 171340.86, 171340.86, 0.00005536609, 10.002018, 9.99812 
8.500238e+1, 3.1599036e+2, -86506.02, -101735.055, 14931.13, -0.083978854, -0.12841193, -77359.89, -77359.89, 0.00022562832, 9.999608, 9.999478 
9.49998e+1, 1.2600742e+2, -1736147.6, -1497380.3, -77082.91, -0.050006233, -0.277772, -1474657.5, 230455.17, 0.0016117445, 9.998831, 10.0020485 
9.499985e+1, 1.3601033e+2, -1731828.8, -1536406.6, 26464.611, -0.07689742, -0.14378507, -1532886.1, 74190.98, 0.00091292575, 9.998612, 10.001212 
9.4999456e+1, 1.4600985e+2, -1663383.1, -1591294.6, 9485.237, -0.10018389, -0.24224493, -1590067.5, -80988.25, 0.00036647206, 9.998999, 9.999973 
9.5000196e+1, 1.5600874e+2, -1454154.5, -1452778.9, -809.49493, 0.033512287, -0.36422545, -1452404.5, -41314.02, 0.00007896108, 9.999822, 9.999851 
9.500016e+1, 1.6600886e+2, -1323715.9, -1389688.8, 20573.543, 0.040740382, -0.30992374, -1317825.9, -4735.8174, 0.000005121987, 10.000259, 9.999402 
9.499952e+1, 1.7600928e+2, -1188445.1, -1266621.3, 28889.055, -0.05433493, -0.22209518, -1178928.0, 36159.266, 0.00000007826353, 10.000483, 9.999468 
9.499923e+1, 1.8600905e+2, -1041418.75, -1059525.1, 50392.793, -0.11284207, -0.23211944, -999272.4, 117813.92, 0.0, 10.000461, 10.000227 
9.4999194e+1, 1.9600855e+2, -991857.6, -1018099.3, 99837.04, -0.15137355, -0.31850117, -904282.94, 114801.97, 0.0, 10.000272, 9.9999275 
9.5000887e+1, 2.060073e+2, -1031029.2, -1256313.3, 117065.55, -0.045086317, -0.30062336, -981213.3, -60114.617, 0.0, 10.000486, 9.9975195 
9.500367e+1, 2.160054e+2, -852587.8, -1102886.5, 99200.09, 0.15261494, -0.25541022, -818040.5, 5083.9727, 0.0, 10.000963, 9.997672 
9.500386e+1, 2.2600405e+2, -664081.06, -753679.2, 32327.861, 0.1709581, -0.2578381, -653634.8, 71502.055, 0.0, 10.000703, 9.999512 
9.500228e+1, 2.3600304e+2, -685105.4, -735883.25, 29166.17, 0.06716251, -0.32272053, -671825.7, -44685.324, 0.0, 9.999972, 9.999318 
9.5002204e+1, 2.4600193e+2, -578855.25, -773581.06, 89536.15, -0.0077584325, -0.29655108, -543944.75, -14793.811, 0.0, 10.000638, 9.998063 
9.500315e+1, 2.560006e+2, -248827.3, -567122.1, 82472.08, -0.067453325, -0.24831846, -228727.55, 202439.6, 0.0, 10.002244, 9.998037 
9.5003945e+1, 2.659987e+2, -215031.11, -485734.13, -28419.76, 0.016084602, -0.25069833, -212079.64, 121108.79, 0.0, 10.001738, 9.998171 
9.5004684e+1, 2.7599624e+2, -417088.75, -537350.3, -37955.816, 0.19913602, -0.32468212, -406111.47, -170897.7, 0.0, 9.999692, 9.99813 
9.500443e+1, 2.8599492e+2, -248917.22, -413128.0, 44441.766, 0.13351557, -0.26882026, -237661.13, -100432.22, 0.000000004406078, 10.000217, 9.998049 
9.500342e+1, 2.9599416e+2, 164600.47, -168922.94, 62775.72, -0.109956935, -0.16168818, 176024.78, 215262.78, 0.0000031909003, 10.002403, 9.998005 
9.500289e+1, 3.0599195e+2, 116475.29, -223274.8, -45642.926, -0.15255632, -0.1593172, 122500.234, 122500.234, 0.000047523536, 10.00199, 9.997497 
9.500247e+1, 3.159897e+2, -129803.47, -168484.73, -54403.66, -0.06761992, -0.14018168, -91404.875, -91404.875, 0.00020078661, 9.999511, 9.999068 
1.0499904e+2, 1.2600936e+2, -1744272.9, -1495880.3, 101431.24, 0.003421159, -0.16115618, -1459723.8, 245371.86, 0.0015258539, 9.998735, 10.002108 
1.04999535e+2, 1.3601077e+2, -1700002.0, -1507107.8, 63382.168, 0.029100226, -0.19237877, -1488145.4, 118927.3, 0.00086255383, 9.998757, 10.001351 
1.04999155e+2, 1.4601001e+2, -1643820.4, -1595243.0, 48881.613, -0.036523085, -0.3203204, -1564948.3, -55870.71, 0.00034425873, 9.999195, 9.999849 
1.0499969e+2, 1.5601e+2, -1448372.8, -1467109.1, 43600.242, 0.00029198444, -0.31370547, -1413145.6, -2066.4653, 0.00007295785, 9.999935, 9.999702 
1.04999885e+2, 1.6601036e+2, -1330673.5, -1371274.1, 63669.227, -0.0027936352, -0.24000405, -1284146.6, 28930.25, 0.0000044141693, 10.000129, 9.999584 
1.04999855e+2, 1.7601039e+2, -1260721.5, -1285667.3, 68348.86, -0.03838788, -0.20909771, -1203716.8, 11360.793, 0.000000050630582, 9.999932, 9.999595 
1.0499975e+2, 1.8601015e+2, -1141841.9, -1127361.3, 41380.508, -0.07359087, -0.21765459, -1092592.5, 24484.979, 0.0, 9.999849, 10.000052 
1.0499962e+2, 1.9600986e+2, -1071725.9, -1067132.4, -11706.832, -0.10645215, -0.2670466, -1057499.1, -38423.85, 0.0, 9.999762, 9.999835 
1.05001494e+2, 2.0600866e+2, -1026647.2, -1175181.0, 54894.094, -0.013540661, -0.2797722, -1008561.9, -87475.59, 0.0, 10.000182, 9.998219 
1.05004735e+2, 2.1600668e+2, -823282.6, -1028737.1, 111387.836, 0.1691336, -0.31174642, -774483.9, 48623.87, 0.0, 10.000915, 9.9981985 
1.0500517e+2, 2.2600487e+2, -643817.7, -871373.9, 26838.447, 0.20015505, -0.32149544, -640695.1, 84430.56, 0.0, 10.0013895, 9.998378 
1.0500373e+2, 2.3600318e+2, -506195.56, -756661.94, -39365.695, 0.1334948, -0.34073594, -500154.22, 126986.82, 0.0, 10.00167, 9.998358 
1.050035e+2, 2.4600178e+2, -469701.7, -669724.7, 46425.133, 0.034582485, -0.32206303, -459451.72, 69702.82, 0.0, 10.001161, 9.998526 
1.0500412e+2, 2.5600052e+2, -530920.0, -657037.7, 66513.2, -0.08447972, -0.31726372, -502325.03, -71157.13, 0.0, 10.000104, 9.998451 
1.0500485e+2, 2.6599926e+2, -376504.06, -558121.4, -3890.1528, -0.008314364, -0.27078912, -376420.75, -43238.367, 0.0, 10.000616, 9.998205 
1.0500572e+2, 2.7599806e+2, -44578.297, -352532.34, 31986.266, 0.21028824, -0.22921264, -41291.07, 193906.77, 0.0, 10.0022335, 9.998169 
1.0500589e+2, 2.859965e+2, 96251.45, -235625.1, 162414.48, 0.14584966, -0.1996314, 162507.02, 299721.38, 0.0000000012345152, 10.002538, 9.998157 
1.050055e+2, 2.959946e+2, 102863.12, -189992.88, 131278.75, -0.1141462, -0.22342138, 153095.4, 192328.28, 0.0000025074758, 10.001938, 9.998086 
1.0500474e+2, 3.05993e+2, 36228.49, -323543.94, -35687.434, -0.14653215, -0.13317272, 39734.32, 39734.32, 0.000040782536, 10.001701, 9.996952 
1.0500376e+2, 3.159901e+2, 184403.11, -32446.059, -54428.395, 0.0051351804, -0.12550533, 197297.69, 197297.69, 0.0001788825, 10.001736, 9.998935 
1.1499869e+2, 1.2601452e+2, -1851430.4, -1739630.1, 77585.61, 0.05393034, 0.04923027, -1699904.3, 5136.874, 0.0014675308, 9.998823, 10.000394 
1.1499947e+2, 1.3601123e+2, -1787932.9, -1699189.3, 68029.234, 0.12894726, -0.29975054, -1662340.3, -55271.902, 0.0008305489, 9.998801, 10.00001 
1.1499894e+2, 1.4601004e+2, -1636295.1, -1580486.6, 71812.2, 0.0062971613, -0.41441503, -1531347.8, -22268.775, 0.00033210375, 9.999195, 9.999953 
1.1499887e+2, 1.5601309e+2, -1432653.6, -1442528.1, 75730.484, -0.09364385, -0.114494435, -1361699.6, 49351.316, 0.00007103606, 9.999973, 9.999849 
1.1499977e+2, 1.660138e+2, -1308616.5, -1334568.9, 51997.527, -0.04459815, -0.025848214, -1268000.5, 45044.188, 0.0000041839003, 10.000156, 9.99983 
1.1500126e+2, 1.7601237e+2, -1249174.5, -1269515.4, 66022.02, 0.09134134, -0.17074433, -1192544.1, 22514.72, 0.000000024917117, 9.999961, 9.999695 
1.15001746e+2, 1.8601097e+2, -1246700.0, -1336753.8, 35012.78, 0.12701128, -0.21812007, -1234689.0, -117615.84, 0.0, 9.999816, 9.998632 
1.1500154e+2, 1.9600974e+2, -1149697.3, -1225963.5, -7982.808, 0.09095809, -0.21951656, -1148870.6, -129784.016, 0.0, 9.99975, 9.99875 
1.1500254e+2, 2.0600913e+2, -901481.75, -908561.75, 76824.67, 0.060383152, -0.22502609, -828115.56, 92972.64, 0.0, 10.000151, 10.000067 
1.1500437e+2, 2.160088e+2, -725286.2, -815101.9, 140998.03, 0.028073322, -0.2777328, -622217.1, 200866.3, 0.0, 10.000869, 9.999689 
1.1500524e+2, 2.2600661e+2, -783324.6, -1150673.3, 32836.414, 0.05869314, -0.2885334, -780412.56, -55305.883, 0.0, 10.001344, 9.996483 
1.1500545e+2, 2.3600313e+2, -626996.75, -993946.5, -28174.377, 0.12528747, -0.29884648, -624846.1, 2302.667, 0.0, 10.001609, 9.996759 
1.1500559e+2, 2.460013e+2, -411503.2, -534379.44, 1330.3641, 0.115100816, -0.30766204, -411488.78, 117678.9, 0.0, 10.0011, 9.999486 
1.1500568e+2, 2.5600043e+2, -472688.44, -522877.63, 39665.313, 0.048157386, -0.35656238, -450846.1, -19674.113, 0.0, 10.000047, 9.999401 
1.15005635e+2, 2.6600048e+2, -327122.4, -450518.5, 52717.7, -0.0031886455, -0.26654863, -307667.47, 25503.701, 0.0, 10.000594, 9.998957 
1.1500554e+2, 2.7600113e+2, -9867.246, -268112.97, 90572.3, -0.04595734, -0.10863387, 18731.34, 253898.33, 0.0, 10.002177, 9.998781 
1.1500642e+2, 2.8599936e+2, 71608.79, -277295.72, 134957.83, -0.06709753, -0.11208163, 117717.64, 254903.13, 0.00000000007947066, 10.002501, 9.997887 
1.15007974e+2, 2.959958e+2, 71625.62, -234995.34, 115682.37, -0.07468968, -0.27492097, 110373.75, 149594.67, 0.000001910546, 10.001857, 9.997816 
1.1500745e+2, 3.059945e+2, 2656.5796, -384861.8, -36812.83, -0.0586121, -0.115944006, 6122.6616, 6122.6616, 0.000034748213, 10.001674, 9.996538 
1.1500578e+2, 3.1599152e+2, 177843.44, -19035.021, -40520.797, 0.0025568367, -0.083796576, 185857.1, 185857.1, 0.00015878698, 10.001627, 9.999074 
1.2499813e+2, 1.2601571e+2, -1848883.8, -1856357.3, -2223.418, 0.092479296, -0.0067236843, -1848272.4, -143247.97, 0.0014351123, 9.999374, 9.999319 
1.2499924e+2, 1.3601263e+2, -1657760.3, -1725518.9, 15582.125, 0.1672059, -0.23692037, -1654348.8, -47293.04, 0.00081633194, 10.000085, 9.999209 
1.2499852e+2, 1.4601114e+2, -1555531.6, -1481471.5, 48527.94, 0.035791755, -0.37728465, -1457459.1, 51610.957, 0.00033045214, 9.999494, 10.000484 
1.2499804e+2, 1.5601379e+2, -1675715.8, -1507536.6, 72032.71, -0.07638122, -0.16772346, -1480902.3, -69859.53, 0.00007352079, 9.998075, 10.000319 
1.2499931e+2, 1.6601475e+2, -1536049.1, -1408271.4, 104052.59, -0.018490514, -0.094116986, -1350058.9, -37026.37, 0.0000047035833, 9.998445, 10.00015 
1.2500168e+2, 1.7601399e+2, -1228247.8, -1234095.6, 109668.05, 0.13991404, -0.19808058, -1121464.6, 93574.57, 0.000000012759114, 9.999989, 9.99993 
1.2500256e+2, 1.8601263e+2, -1127839.8, -1318750.9, 117238.26, 0.18265514, -0.23367271, -1072111.4, 44943.258, 0.0, 10.000804, 9.998281 
1.2500247e+2, 1.9601105e+2, -980891.0, -1180373.3, 145983.55, 0.14814363, -0.23172888, -903828.56, 115245.47, 0.0, 10.001069, 9.998429 
1.2500337e+2, 2.0601046e+2, -780660.9, -840578.9, 192575.47, 0.091194496, -0.22637457, -615728.0, 305348.13, 0.0, 10.000937, 10.000152 
1.2500493e+2, 2.160104e+2, -776148.94, -832546.7, 114631.96, 0.019421466, -0.26004612, -686298.44, 136769.56, 0.0, 10.000485, 9.999754 
1.2500599e+2, 2.2600845e+2, -889247.94, -1193982.0, 57771.51, 0.040651478, -0.25368053, -878663.25, -153573.92, 0.0, 10.000579, 9.996553 
1.2500672e+2, 2.3600519e+2, -708537.8, -1030158.56, 128492.016, 0.1241696, -0.2481991, -663508.0, -36377.473, 0.0, 10.001033, 9.996788 
1.2500697e+2, 2.4600331e+2, -390737.9, -543810.9, 149485.47, 0.13618541, -0.25145888, -299334.72, 229815.38, 0.0, 10.00133, 9.999309 
1.2500697e+2, 2.5600228e+2, -263886.78, -441944.38, 97456.51, 0.10136603, -0.2994601, -220915.95, 210239.88, 0.0, 10.001563, 9.9992285 
1.25007e+2, 2.66002e+2, -184441.03, -379194.5, 88589.23, 0.02769547, -0.23450682, -150173.25, 182984.19, 0.0, 10.001564, 9.9989805 
1.2500708e+2, 2.7600226e+2, -118447.51, -314893.47, 58489.457, -0.06775044, -0.121027194, -102351.766, 132804.42, 0.0, 10.001418, 9.998819 
1.2500823e+2, 2.8600037e+2, -123577.27, -378100.03, 62494.71, -0.06668764, -0.13602538, -109060.484, 28115.44, 0.00000000021645001, 10.001188, 9.997825 
1.2501012e+2, 2.9599687e+2, -70673.36, -305053.3, 55975.387, 0.005873638, -0.28342834, -57991.34, -18780.232, 0.0000014014497, 10.000887, 9.997801 
1.2500958e+2, 3.0599588e+2, 3262.4626, -372567.16, -14274.579, -0.006162403, -0.10316656, 3803.853, 3803.853, 0.000028996776, 10.001607, 9.996667 
1.2500773e+2, 3.1599283e+2, 406574.9, 143334.9, -3103.9668, -0.023487207, -0.0902987, 406611.5, 406611.5, 0.00013884061, 10.002957, 9.999562 
1.3499703e+2, 1.2601295e+2, -1884467.3, -1932568.0, 4326.899, 0.010712753, -0.32576182, -1884081.1, -179035.88, 0.0014283952, 9.99939, 9.998788 
1.3499856e+2, 1.3601509e+2, -1662074.8, -1744133.3, 40298.035, 0.0721381, -0.001950362, -1645594.6, -38560.742, 0.000819765, 10.000139, 9.999049 
1.349977e+2, 1.4601338e+2, -1486948.8, -1353197.9, -11649.169, -0.015091786, -0.20669311, -1352190.8, 156859.11, 0.00033887546, 9.999544, 10.001343 
1.3499703e+2, 1.5601218e+2, -1618159.1, -1390423.0, 34297.535, -0.00109808, -0.46991345, -1385369.9, 25683.992, 0.0000801792, 9.998085, 10.001116 
1.349983e+2, 1.6601324e+2, -1517444.0, -1364888.0, 158592.34, 0.023886014, -0.4364432, -1265183.5, 47856.27, 0.0000062149566, 9.9984255, 10.000458 
1.3500084e+2, 1.7601526e+2, -1199995.6, -1179386.9, 170551.4, 0.04046567, -0.29498887, -1018828.9, 196190.22, 0.000000017143847, 10.000011, 10.000291 
1.3500199e+2, 1.8601516e+2, -1078579.4, -1218392.6, 122294.08, 0.02766255, -0.25916567, -1007621.56, 109399.83, 0.0, 10.000805, 9.998971 
1.350022e+2, 1.960138e+2, -948865.56, -1112391.9, 158469.42, -0.0019246473, -0.307353, -852309.44, 166728.22, 0.0, 10.0010605, 9.9989 
1.3500379e+2, 2.0601262e+2, -907726.56, -1093781.0, 171853.52, 0.02553663, -0.28683332, -805337.06, 115713.16, 0.0, 10.000894, 9.998435 
1.350062e+2, 2.1601145e+2, -877402.0, -1030122.4, 107437.84, 0.08406349, -0.26123464, -821952.6, 1108.9956, 0.0, 10.000434, 9.998421 
1.3500723e+2, 2.260104e+2, -754690.6, -907924.8, 69176.54, 0.09242492, -0.21394543, -728081.9, -3008.4365, 0.0, 10.000544, 9.998535 
1.3500728e+2, 2.3600934e+2, -597354.2, -790841.4, 148210.11, 0.06464736, -0.18870711, -517107.5, 109978.95, 0.0, 10.000993, 9.99845 
1.3500749e+2, 2.4600784e+2, -490044.3, -740764.6, 153367.98, 0.04083448, -0.1542657, -417321.38, 111780.555, 0.0, 10.00129, 9.997975 
1.3500784e+2, 2.5600603e+2, -361529.47, -630481.3, 110040.89, 0.018462641, -0.14722131, -322244.72, 108874.83, 0.0, 10.001501, 9.997963 
1.3500872e+2, 2.6600388e+2, -241584.06, -487450.9, 79205.164, 0.033350967, -0.17518383, -218277.66, 114863.375, 0.0, 10.001521, 9.998256 
1.3501011e+2, 2.7600136e+2, -172838.69, -410439.44, 58286.8, 0.07847706, -0.2651956, -159310.38, 75855.57, 0.0, 10.001345, 9.9981985 
1.3501112e+2, 2.8599942e+2, -112715.85, -346182.38, 45513.906, 0.09022394, -0.27041173, -104156.77, 33029.64, 0.000000004047862, 10.001153, 9.99806 
1.3501179e+2, 2.9599777e+2, -60461.285, -269178.53, 55619.32, 0.071292266, -0.25632992, -46564.97, -7360.459, 0.0000011638989, 10.000824, 9.998079 
1.3501091e+2, 3.0599704e+2, 43303.05, -272834.22, 36461.094, -0.04256459, -0.101211555, 47453.727, 47453.727, 0.00002379093, 10.001546, 9.997378 
1.3500932e+2, 3.1599408e+2, 453343.53, 262121.55, 55195.93, -0.18794699, -0.1421999, 468132.06, 468132.06, 0.00011909773, 10.002873, 10.000418 
1.4499684e+2, 1.2601164e+2, -1834628.0, -1828232.5, -45803.2, 0.06367889, -0.4368291, -1785515.6, -80459.13, 0.0014440229, 9.99938, 9.999512 
1.4499713e+2, 1.3601547e+2, -1930885.5, -1788972.5, 65143.06, 0.03036506, -0.03468315, -1763604.3, -156577.94, 0.00083842565, 9.997915, 9.999817 
1.4499648e+2, 1.4601432e+2, -1692660.1, -1503190.3, 19902.068, -0.029358052, -0.19375911, -1501122.3, 7916.1016, 0.00035495815, 9.998357, 10.000886 
1.4499703e+2, 1.5601298e+2, -1356221.6, -1312264.4, -45851.586, 0.0952808, -0.42028388, -1283395.9, 127651.67, 0.00008912459, 10.000089, 10.00069 
1.4499836e+2, 1.6601369e+2, -1221203.5, -1209316.3, 51928.035, 0.09207884, -0.410495, -1162992.9, 150044.86, 0.000008328298, 10.000405, 10.0005665 
1.4500013e+2, 1.7601521e+2, -1239436.8, -1186987.1, 35282.305, -0.012510309, -0.3294152, -1169250.8, 45769.72, 0.0000000715251, 9.999685, 10.000397 
1.450016e+2, 1.8601547e+2, -1197589.8, -1235090.6, -24753.291, -0.03759313, -0.2822038, -1185287.0, -68268.71, 0.0, 9.999811, 9.999335 
1.4500287e+2, 1.9601502e+2, -1010615.56, -1112036.6, -28054.008, -0.009261837, -0.2738577, -1003372.8, 15652.046, 0.0, 10.000495, 9.99918 
1.4500466e+2, 2.0601381e+2, -955693.0, -1148324.3, 22086.4, 0.036466535, -0.2533139, -953193.1, -32154.336, 0.0, 10.0007, 9.998153 
1.4500672e+2, 2.1601202e+2, -876412.3, -1053954.1, 55898.957, 0.090627566, -0.2629106, -860278.7, -37220.027, 0.0, 10.000545, 9.998204 
1.4500795e+2, 2.2601117e+2, -648991.94, -784982.06, 42498.918, 0.092060514, -0.21912342, -636802.94, 88264.6, 0.0, 10.000968, 9.999173 
1.4500862e+2, 2.3601092e+2, -443768.34, -657615.9, 6187.581, 0.06218883, -0.17412485, -443589.47, 183479.98, 0.0, 10.001797, 9.99898 
1.4500907e+2, 2.4600942e+2, -424842.0, -749979.3, -1789.741, 0.04060766, -0.14388308, -424832.16, 104252.945, 0.0, 10.001915, 9.997612 
1.4500938e+2, 2.5600708e+2, -381028.5, -675499.9, 15891.132, 0.024000151, -0.15476479, -380173.44, 50936.77, 0.0, 10.0015335, 9.997633 
1.4501037e+2, 2.6600474e+2, -286438.38, -539127.44, 43320.76, 0.056084733, -0.17184825, -279217.8, 53916.824, 0.0, 10.001337, 9.9979925 
1.4501189e+2, 2.760023e+2, -201238.64, -450537.97, 48977.848, 0.1310424, -0.22759987, -191961.58, 43197.73, 0.0, 10.001257, 9.997971 
1.4501266e+2, 2.8600034e+2, -85558.81, -331468.2, 54459.047, 0.12573254, -0.22626287, -74038.06, 63141.535, 0.000000009906891, 10.001321, 9.998086 
1.450128e+2, 2.9599872e+2, 41745.367, -211126.27, 42642.07, 0.060615942, -0.21509805, 48742.535, 87939.14, 0.0000010398929, 10.001491, 9.998154 
1.4501256e+2, 3.0599707e+2, 111350.97, -239136.27, 34723.34, -0.04947393, -0.15641831, 114757.945, 114757.945, 0.000019274365, 10.002008, 9.997383 
1.450126e+2, 3.1599408e+2, 406499.9, 228146.5, -24939.74, -0.12651713, -0.2010358, 409921.66, 409921.66, 0.00010043125, 10.002603, 10.000311 
1.5499716e+2, 1.2601195e+2, -1683453.8, -1540809.3, -124434.57, 0.120790355, -0.3275616, -1468706.1, 236350.03, 0.0014662774, 9.999483, 10.00144 
1.5499476e+2, 1.3601384e+2, -1804202.0, -1536360.6, 23774.578, -0.016956324, -0.32687458, -1534266.6, 72765.84, 0.0008607167, 9.997951, 10.001538 
1.5499458e+2, 1.4601402e+2, -1817815.3, -1763339.5, 80255.22, -0.06903479, -0.3321295, -1705826.0, -196790.98, 0.00037131715, 9.998362, 9.9991 
1.5499786e+2, 1.5601625e+2, -1464750.0, -1544754.5, 17425.98, 0.14988148, -0.022183228, -1461119.3, -50095.57, 0.00009663115, 10.000123, 9.999076 
1.5499927e+2, 1.6601615e+2, -1229864.0, -1226947.9, 19059.893, 0.12741794, -0.014528771, -1209290.4, 103735.67, 0.000009881803, 10.000404, 10.000448 
1.5499938e+2, 1.7601392e+2, -1246672.6, -1200373.8, 18445.684, -0.07223887, -0.29608214, -1193923.5, 21119.424, 0.00000020107916, 9.99968, 10.000308 
1.5500124e+2, 1.860136e+2, -1200078.9, -1238433.5, -3264.0105, -0.07019105, -0.3011094, -1199803.1, -82758.055, 0.0, 9.999803, 9.999318 
1.5500431e+2, 1.960147e+2, -1007581.4, -1099117.0, 338.07654, 0.06836264, -0.1353545, -1007580.1, 11455.717, 0.0, 10.000473, 9.999277 
1.5500581e+2, 2.0601407e+2, -883090.9, -990303.25, 11190.313, 0.0696145, -0.12345275, -881935.3, 39106.313, 0.0, 10.000666, 9.999256 
1.5500623e+2, 2.160121e+2, -816872.9, -918580.3, 57592.895, -0.027853593, -0.26079142, -790895.3, 32163.71, 0.0, 10.000495, 9.999157 
1.5500796e+2, 2.260108e+2, -708433.06, -897718.94, 68697.586, -0.015348823, -0.2639358, -686128.8, 38942.195, 0.0, 10.00092, 9.998425 
1.5501061e+2, 2.3600994e+2, -493341.47, -752538.9, 39729.18, 0.06803336, -0.20622015, -487388.6, 139691.05, 0.0, 10.001757, 9.99835 
1.550115e+2, 2.4600804e+2, -388365.8, -666800.44, -21105.766, 0.08157602, -0.22079259, -386775.06, 142324.67, 0.0, 10.001882, 9.998199 
1.5501136e+2, 2.5600535e+2, -350753.94, -601219.4, 7735.283, 0.054569107, -0.32475758, -350515.28, 80613.27, 0.0, 10.001479, 9.998172 
1.5501164e+2, 2.6600453e+2, -275999.0, -507006.66, 35700.816, 0.039524324, -0.22310778, -270607.47, 62531.37, 0.0, 10.001299, 9.998226 
1.5501226e+2, 2.7600497e+2, -199663.3, -431983.4, 52505.25, 0.031791635, -0.016955366, -188348.02, 46789.285, 0.0, 10.001192, 9.998128 
1.5501268e+2, 2.8600305e+2, -100637.7, -354997.72, 56360.605, -0.01701541, -0.008678045, -88708.87, 48447.293, 0.000000005626964, 10.001288, 9.997938 
1.5501289e+2, 2.9599962e+2, 22282.771, -242176.27, 59597.785, -0.095160045, -0.16522054, 35093.047, 74281.14, 0.00000084127635, 10.001442, 9.997966 
1.550143e+2, 3.0599594e+2, 55006.246, -339869.78, 54809.11, -0.086085245, -0.26528624, 62472.62, 62472.62, 0.000015268795, 10.001955, 9.996705 
1.550172e+2, 3.1599283e+2, 315675.94, 65477.65, 2533.145, 0.047203157, -0.25408474, 315701.6, 315701.6, 0.00008386637, 10.002503, 9.99923 
1.6499504e+2, 1.2601146e+2, -2067262.5, -1664463.8, -82950.77, 0.109443456, -0.286648, -1648050.0, 57013.37, 0.0014745225, 9.996587, 10.001985 
1.6499384e+2, 1.3601273e+2, -1403703.4, -1271343.5, -54809.16, -0.020336438, -0.41799694, -1251594.3, 355446.8, 0.00086981576, 10.000398, 10.002177 
1.64994e+2, 1.4601332e+2, -1506781.9, -1633236.0, -4040.3203, -0.07080945, -0.4012054, -1506653.0, 2386.2407, 0.00037795518, 10.000594, 9.998909 
1.6499703e+2, 1.5601641e+2, -1738670.6, -1703140.9, 44869.16, 0.14775746, 0.013890283, -1672647.8, -261625.13, 0.000098805474, 9.998361, 9.9988365 
1.6499867e+2, 1.6601634e+2, -1555802.3, -1418822.5, 116258.18, 0.13639398, 0.054859564, -1352379.8, -39353.273, 0.000009884257, 9.998308, 10.000141 
1.6499935e+2, 1.7601374e+2, -1262820.8, -1234690.3, 92261.4, -0.040387116, -0.23737112, -1155428.1, 59620.184, 0.0000002904704, 9.999681, 10.00007 
1.6500148e+2, 1.8601318e+2, -1113535.3, -1167873.0, 87677.1, -0.047070857, -0.26929224, -1048914.0, 68137.914, 0.0, 10.000291, 9.999559 
1.6500464e+2, 1.9601415e+2, -1013757.06, -1079312.5, 96069.234, 0.06598891, -0.141464, -945027.75, 74014.445, 0.0, 10.0003395, 9.999475 
1.6500615e+2, 2.0601353e+2, -935570.94, -1020412.5, 56864.652, 0.056808084, -0.1321613, -907047.3, 14000.0, 0.0, 10.000329, 9.999211 
1.6500649e+2, 2.1601179e+2, -853475.3, -941974.8, 8737.481, -0.036094416, -0.24037497, -852620.94, -29557.787, 0.0, 10.00027, 9.999105 
1.6500852e+2, 2.260102e+2, -795298.75, -947694.5, 44685.977, -0.021861076, -0.26604265, -783162.25, -58084.15, 0.0, 10.000369, 9.998341 
1.6501164e+2, 2.3600878e+2, -674419.6, -841777.44, 49071.62, 0.06088816, -0.257423, -661092.44, -34000.305, 0.0, 10.000539, 9.998315 
1.650127e+2, 2.460073e+2, -581314.6, -726495.0, -23093.25, 0.089286596, -0.24520998, -577729.75, -48621.168, 0.0, 10.000412, 9.998499 
1.6501243e+2, 2.5600573e+2, -532237.44, -656100.25, -21770.488, 0.08753232, -0.26486588, -528522.4, -97395.375, 0.0, 10.000092, 9.998464 
1.6501284e+2, 2.66005e+2, -326380.84, -524305.06, 40990.793, 0.05021449, -0.17364556, -318227.38, 14908.814, 0.0, 10.000908, 9.998304 
1.6501372e+2, 2.7600473e+2, -5215.5693, -329252.4, 32678.852, -0.0028148773, -0.046753768, -1952.7875, 233187.42, 0.0, 10.002483, 9.99821 
1.6501431e+2, 2.8600287e+2, 87941.7, -285878.75, 8133.6226, -0.048245404, -0.027559213, 88118.586, 225277.2, 0.00000000009995645, 10.002685, 9.997738 
1.6501477e+2, 2.960001e+2, 91837.055, -225460.72, -1808.4498, -0.075974576, -0.09513503, 91847.37, 131032.05, 0.00000051342266, 10.001998, 9.997813 
1.6501671e+2, 3.0599618e+2, 106830.445, -293186.06, 73012.55, -0.04915581, -0.22493476, 119740.33, 119740.33, 0.000011747977, 10.002193, 9.9969225 
1.650206e+2, 3.159932e+2, 336627.22, 28287.105, 56343.934, 0.12675919, -0.21965118, 346600.53, 346600.53, 0.00007014343, 10.002833, 9.998819 
1.749901e+2, 1.2601018e+2, -2119893.0, -1780488.4, 43100.8, -0.07405583, -0.31558007, -1775100.6, -70022.5, 0.0014574766, 9.996616, 10.001173 
1.7499423e+2, 1.3601224e+2, -1429899.8, -1332398.0, 68655.85, -0.036806043, -0.30312735, -1296945.1, 310105.56, 0.00085594517, 10.000431, 10.001738 
1.7499465e+2, 1.4601225e+2, -1405098.5, -1430640.9, -94732.25, -0.08089487, -0.40065014, -1322280.4, 186770.31, 0.0003688444, 10.000624, 10.000292 
1.7499438e+2, 1.5601341e+2, -1651714.1, -1525486.5, -20379.143, 0.030563397, -0.31440908, -1522278.0, -111233.305, 0.00009401229, 9.998374, 10.000049 
1.7499642e+2, 1.6601437e+2, -1588484.6, -1487195.4, 164904.77, 0.06203449, -0.20056258, -1365333.5, -52295.387, 0.000008393363, 9.998305, 9.999675 
1.7499983e+2, 1.7601472e+2, -1286074.4, -1288133.9, 144452.83, 0.022226201, -0.1490089, -1142647.6, 72388.125, 0.00000020811186, 9.999704, 9.99969 
1.7500214e+2, 1.8601426e+2, -1078845.6, -1099526.0, 85593.81, -0.02471416, -0.18148047, -1002969.6, 114068.836, 0.0, 10.000297, 10.0000305 
1.7500368e+2, 1.9601332e+2, -992704.4, -1034347.9, 103392.195, -0.079154186, -0.2914841, -908058.1, 110985.74, 0.0, 10.000328, 9.99979 
1.7500547e+2, 2.0601226e+2, -1025857.25, -1199685.4, 49584.445, -0.05781669, -0.27371156, -1012708.0, -91652.87, 0.0, 10.000293, 9.997997 
1.7500737e+2, 2.1601106e+2, -931368.8, -1098417.9, 13478.497, 0.0123068, -0.20899577, -930288.25, -107216.87, 0.0, 10.000247, 9.998043 
1.7500941e+2, 2.2600941e+2, -761734.94, -869208.2, 47257.637, 0.019053537, -0.22350219, -743911.06, -18822.34, 0.0, 10.00033, 9.998898 
1.7501155e+2, 2.3600739e+2, -645079.7, -773121.2, 59864.324, -0.014948006, -0.33023974, -621451.2, 5656.3657, 0.0, 10.000499, 9.998807 
1.7501244e+2, 2.4600717e+2, -586610.06, -728946.8, -41271.523, 0.009575354, -0.21454461, -575508.94, -46396.98, 0.0, 10.000377, 9.998496 
1.7501247e+2, 2.5600815e+2, -541411.9, -664370.75, -23055.607, 0.07078563, 0.019404618, -537230.94, -106124.33, 0.0, 10.000044, 9.998429 
1.750138e+2, 2.6600605e+2, -331457.13, -527825.6, 95968.484, 0.046959653, -0.0250954, -292345.72, 40781.684, 0.0, 10.000881, 9.99829 
1.7501603e+2, 2.7600163e+2, -14824.684, -338080.16, 88941.49, -0.03254987, -0.3122511, 8030.952, 243198.84, 0.0, 10.002435, 9.998174 
1.7501739e+2, 2.8599977e+2, 66461.86, -327897.7, -26164.584, -0.023040053, -0.2727529, 68190.23, 205376.95, 0.0, 10.002671, 9.997457 
1.7501813e+2, 2.9600006e+2, 71189.7, -256514.13, -15288.684, 0.046911594, -0.0075499015, 71901.44, 111088.586, 0.00000027417164, 10.001946, 9.997625 
1.7501959e+2, 3.059976e+2, 184812.27, -123078.97, 95186.914, 0.0069013336, -0.04413263, 211863.33, 211863.33, 0.000009335192, 10.002165, 9.998103 
1.7502236e+2, 3.159952e+2, 338196.88, 59460.9, 84359.38, -0.009844975, -0.097424984, 361739.72, 361739.72, 0.000059812894, 10.00273, 9.999078 
1.8498704e+2, 1.2600945e+2, -1939307.6, -1723796.6, 78887.09, -0.10471059, -0.2600873, -1698006.6, 7082.015, 0.0014119628, 9.997983, 10.000899 
1.8499315e+2, 1.3601206e+2, -1959204.8, -1601613.0, 124395.305, -0.005613831, -0.17468847, -1562596.6, 44461.184, 0.0008198644, 9.996853, 10.001613 
1.8499403e+2, 1.460118e+2, -1816859.6, -1602783.1, -109393.57, -0.05450588, -0.3097892, -1556771.9, -47712.71, 0.0003462985, 9.997676, 10.000527 
1.8499318e+2, 1.5601161e+2, -1412021.4, -1384855.3, -130844.586, -0.0007896531, -0.38272005, -1266890.6, 144171.69, 0.000084445885, 9.9999, 10.000282 
1.8499535e+2, 1.6601257e+2, -1270250.3, -1300312.6, 72434.38, 0.025715508, -0.29484499, -1211303.9, 101749.66, 0.000006352812, 10.000368, 9.999957 
1.8499945e+2, 1.760139e+2, -1280706.6, -1263044.9, 96527.34, 0.018110635, -0.1716855, -1174945.4, 40095.387, 0.000000056960435, 9.999652, 9.999889 
1.850022e+2, 1.8601356e+2, -1194089.4, -1185763.1, 32084.482, -0.012394893, -0.18344626, -1157572.9, -40530.023, 0.0, 9.999637, 9.999755 
1.8500401e+2, 1.9601227e+2, -1047662.7, -1087348.0, -15638.223, -0.061423525, -0.30147853, -1042241.06, -23187.39, 0.0, 10.000065, 9.999553 
1.8500602e+2, 2.0601124e+2, -986843.4, -1173635.3, -26550.322, -0.038471043, -0.2775592, -983142.9, -62076.79, 0.0, 10.000527, 9.998062 
1.8500815e+2, 2.1601029e+2, -814369.25, -1031167.4, 22529.96, 0.030807551, -0.19325365, -812052.6, 11027.509, 0.0, 10.000999, 9.998141 
1.850101e+2, 2.2600901e+2, -644871.25, -781473.94, 83019.266, 0.025040964, -0.1908569, -605667.9, 119425.96, 0.0, 10.000983, 9.999195 
1.8501201e+2, 2.360075e+2, -607425.3, -724322.6, 70018.72, -0.022252155, -0.27621165, -574666.2, 52441.26, 0.0, 10.000616, 9.999091 
1.8501298e+2, 2.4600725e+2, -462834.03, -669170.06, -8899.245, -0.014295734, -0.17481823, -462450.94, 66659.805, 0.0, 10.001223, 9.998499 
1.8501334e+2, 2.5600788e+2, -191443.81, -502013.16, -1521.6031, 0.03359401, 0.021629825, -191436.36, 239670.72, 0.0, 10.002477, 9.998369 
1.8501522e+2, 2.6600525e+2, -176719.84, -545384.25, 83171.05, 0.029800259, -0.028356818, -158824.98, 174309.4, 0.0, 10.00234, 9.997466 
1.8501818e+2, 2.7600017e+2, -235279.61, -521285.6, 7004.1846, 0.00065955106, -0.2971588, -235108.19, 76.586754, 0.0, 10.001255, 9.997482 
1.8501982e+2, 2.8599805e+2, -112711.81, -367486.5, -100065.375, 0.029046047, -0.27791515, -78109.6, 59096.71, 0.0, 10.001233, 9.997878 
1.8502054e+2, 2.9599833e+2, 94214.74, -205136.56, -48765.688, 0.098005496, -0.05506466, 101958.58, 141162.81, 0.00000021710767, 10.001927, 9.997987 
1.8502207e+2, 3.0599687e+2, 212050.67, -69099.43, 69894.19, 0.042428147, -0.0275639, 228467.78, 228467.78, 0.0000079127085, 10.002167, 9.99848 
1.8502487e+2, 3.1599525e+2, 224017.84, -30535.4, -27994.664, 0.007625383, -0.03711002, 227060.22, 227060.22, 0.00005116492, 10.002063, 9.998802 
1.9498563e+2, 1.2600927e+2, -1920486.4, -1689054.5, 11350.688, -0.07861692, -0.12282768, -1688499.1, 16596.053, 0.0013384911, 9.998007, 10.001125 
1.949905e+2, 1.3601223e+2, -1947402.5, -1571210.4, 96044.234, 0.0301765, -0.036720917, -1548108.4, 58954.254, 0.0007672974, 9.996838, 10.001825 
1.9499204e+2, 1.46012e+2, -1880830.6, -1736078.9, -30535.156, -0.039101742, -0.12696606, -1729901.3, -220836.89, 0.00031672008, 9.997673, 9.999617 
1.9499321e+2, 1.5601109e+2, -1462517.1, -1489584.4, -52255.78, -0.0017628286, -0.18237513, -1422070.9, -10996.199, 0.000073711046, 9.999903, 9.99956 
1.9499534e+2, 1.6601105e+2, -1200055.3, -1156939.6, 41860.598, -0.024413243, -0.21627419, -1131411.9, 181659.67, 0.0000047225935, 10.000371, 10.000942 
1.9499806e+2, 1.7601126e+2, -1223721.3, -1146077.3, 80515.555, -0.09982558, -0.30349025, -1095513.0, 119549.55, 0.0000000036456946, 9.999654, 10.000691 
1.9500153e+2, 1.8601115e+2, -1270261.8, -1341194.6, 43183.816, -0.05622757, -0.27107802, -1249847.0, -132782.73, 0.0, 9.9996195, 9.998701 
1.9500548e+2, 1.9601095e+2, -1106456.8, -1206476.1, 6340.9775, 0.06361698, -0.17702162, -1106056.4, -86984.13, 0.0, 10.00005, 9.998745 
1.9500767e+2, 2.0601034e+2, -896587.75, -977486.44, -12684.571, 0.058727395, -0.14570184, -894645.5, 26435.008, 0.0, 10.000491, 9.999426 
1.9500864e+2, 2.160094e+2, -734529.56, -854525.25, 43248.594, -0.034635402, -0.19828257, -720566.75, 102523.266, 0.0, 10.000953, 9.999376 
1.9501044e+2, 2.2600903e+2, -648870.1, -778105.9, 63041.477, -0.050481725, -0.16407578, -623212.3, 101880.95, 0.0, 10.0009365, 9.999239 
1.9501281e+2, 2.3600905e+2, -612060.06, -721342.25, 67431.43, -0.015846178, -0.09883783, -579910.3, 47181.94, 0.0, 10.000563, 9.999136 
1.9501418e+2, 2.4600752e+2, -469712.5, -672815.94, 34096.62, -0.028248243, -0.12855788, -464141.25, 64964.074, 0.0, 10.001178, 9.998495 
1.9501485e+2, 2.5600487e+2, -210604.0, -528719.1, 42152.133, -0.076287724, -0.25961715, -205113.36, 226015.25, 0.0, 10.00242, 9.998213 
1.9501692e+2, 2.660026e+2, -291761.28, -777500.3, 36714.125, -0.045445956, -0.17812853, -289001.97, 44154.906, 0.0, 10.002315, 9.995885 
1.9501996e+2, 2.760004e+2, -335922.0, -720101.1, -20493.484, 0.03947572, -0.0029211473, -334831.88, -99641.375, 0.0, 10.001209, 9.996142 
1.9502145e+2, 2.8599763e+2, -39602.17, -210429.03, -76542.08, 0.055313334, -0.048862863, -10324.086, 126893.64, 0.0, 10.001212, 9.998965 
1.9502185e+2, 2.9599494e+2, 146372.4, -82647.42, -18404.021, 0.02188276, -0.2272983, 147841.92, 187077.39, 0.0000002787285, 10.001868, 9.998857 
1.9502398e+2, 3.0599394e+2, 182043.25, -121981.83, 62875.4, 0.0063317684, -0.16854955, 194533.38, 194533.38, 0.000006930128, 10.002136, 9.998126 
1.950278e+2, 3.1599367e+2, 166561.4, -124941.39, -32235.54, 0.06823717, -0.0206333, 170083.6, 170083.6, 0.00004299831, 10.001972, 9.998189 
2.0498511e+2, 1.2600851e+2, -1908720.6, -1760972.6, 6706.782, 0.05305172, -0.037394278, -1760668.8, -55565.535, 0.0012408808, 9.99844, 10.000419 
2.049886e+2, 1.3600962e+2, -1606420.9, -1473795.6, 7859.1494, 0.030566487, -0.06592834, -1473331.5, 133760.89, 0.0007023467, 9.999464, 10.001231 
2.0499058e+2, 1.4600958e+2, -1538180.6, -1531127.0, -39110.094, -0.056246433, -0.12781893, -1495385.1, 13706.764, 0.0002832004, 9.999865, 9.999965 
2.0499338e+2, 1.5600966e+2, -1442386.8, -1446947.9, 12323.764, 0.028177803, -0.11957892, -1432134.4, -21044.676, 0.000063005726, 9.999902, 9.999852 
2.049956e+2, 1.6600949e+2, -1315359.1, -1242809.0, 42732.184, -0.000037637255, -0.16517293, -1223031.3, 90055.98, 0.0000035155435, 9.999705, 10.000673 
2.0499738e+2, 1.7600891e+2, -1283527.1, -1201908.4, -19465.162, -0.11598981, -0.30349302, -1197503.9, 17583.135, 0.0000000004928599, 9.999357, 10.000453 
2.0500095e+2, 1.8600859e+2, -1287441.8, -1327877.9, 930.922, -0.062993474, -0.2918621, -1287420.4, -170329.53, 0.0, 9.9994135, 9.998886 
2.050057e+2, 1.9600849e+2, -1137577.4, -1197863.6, 44087.445, 0.1015523, -0.20556575, -1114313.5, -95216.47, 0.0, 9.999733, 9.998955 
2.050081e+2, 2.0600837e+2, -940011.6, -942176.0, 32169.732, 0.08414995, -0.16417396, -908905.9, 12193.806, 0.0, 9.999953, 9.999928 
2.0500891e+2, 2.1600816e+2, -831562.5, -851486.6, 13636.579, -0.05433487, -0.19044918, -824636.7, -1535.9414, 0.0, 10.000074, 9.999821 
2.050111e+2, 2.2600795e+2, -721188.75, -815484.3, 7465.9746, -0.05167595, -0.15999328, -720601.3, 4500.449, 0.0, 10.000455, 9.999208 
2.050142e+2, 2.3600768e+2, -551338.5, -700026.06, -2181.1655, 0.048737023, -0.122545704, -551306.5, 75796.555, 0.0, 10.001018, 9.999062 
2.0501615e+2, 2.4600554e+2, -428301.94, -693733.9, -14372.728, 0.030935582, -0.18915297, -427525.97, 101596.13, 0.0, 10.001638, 9.99813 
2.0501728e+2, 2.5600207e+2, -245311.86, -579366.5, -47644.28, -0.06667418, -0.36513713, -238649.5, 192504.47, 0.0, 10.002326, 9.997911 
2.0501919e+2, 2.6600033e+2, -253003.08, -707365.2, -23435.678, -0.049561076, -0.24119067, -251797.48, 81379.77, 0.0, 10.002362, 9.996342 
2.0502165e+2, 2.759996e+2, -195411.78, -603425.5, 62542.805, 0.053463165, 0.036930274, -186040.1, 49156.22, 0.0, 10.001969, 9.996574 
2.0502323e+2, 2.85997e+2, 109998.68, -129246.914, 84934.266, 0.06481763, -0.0131722605, 137084.6, 274305.53, 0.0, 10.002207, 9.999045 
2.0502411e+2, 2.9599363e+2, 294116.94, -8582.315, 57738.46, 0.013659804, -0.27480134, 304756.34, 344001.03, 0.00000036340376, 10.00288, 9.998876 
2.0502675e+2, 3.0599242e+2, 237322.92, -139199.06, 82923.11, 0.043503977, -0.2116616, 254776.4, 254776.4, 0.000006339283, 10.002712, 9.997729 
2.0503058e+2, 3.159909e+2, 141087.27, -158065.33, -50572.305, 0.15802999, -0.15547861, 149405.33, 149405.33, 0.00003635789, 10.001909, 9.997979 
2.1498513e+2, 1.2600717e+2, -2020554.5, -2000984.6, 25325.088, 0.18169697, -0.00030224575, -1983619.9, -278507.22, 0.0011227193, 9.99847, 9.998761 
2.1498735e+2, 1.3600433e+2, -1695453.1, -1671132.6, 47660.07, -0.057055067, -0.254076, -1634106.0, -26959.744, 0.0006268979, 9.999515, 9.999857 
2.149895e+2, 1.4600465e+2, -1423918.5, -1301499.4, -43573.324, -0.16789973, -0.3026041, -1287574.1, 221566.77, 0.0002465844, 9.999895, 10.001528 
2.149935e+2, 1.5600732e+2, -1348679.1, -1257973.1, 17281.92, 0.03339936, -0.19267337, -1254792.0, 156315.25, 0.000052325075, 9.999924, 10.001141 
2.1499594e+2, 1.6600785e+2, -1424709.0, -1466346.0, 23926.184, 0.048897184, -0.14231767, -1413812.0, -100711.18, 0.000002586899, 9.999692, 9.9991455 
2.1499722e+2, 1.760068e+2, -1371652.4, -1380876.5, -25150.338, -0.080687106, -0.17662044, -1350694.8, -135580.48, 0.000000000052014764, 9.999346, 9.999227 
2.1500027e+2, 1.8600583e+2, -1193474.4, -1128285.4, 9311.022, -0.08352653, -0.2513205, -1126981.5, -9858.692, 0.0, 9.999391, 10.000271 
2.150046e+2, 1.9600491e+2, -1052929.9, -1019591.6, 61221.105, 0.002083528, -0.38479823, -972810.94, 46317.28, 0.0, 9.999722, 10.000185 
2.1500725e+2, 2.0600532e+2, -968134.1, -995607.44, 31289.768, -0.008866013, -0.32629493, -947698.5, -26574.941, 0.0, 9.999931, 9.999572 
2.1500881e+2, 2.1600659e+2, -861109.3, -900412.44, 23946.781, -0.08677416, -0.17076938, -849782.94, -26670.383, 0.0, 10.00002, 9.99951 
2.150119e+2, 2.2600572e+2, -737072.94, -835180.5, 23329.002, -0.02810531, -0.18511315, -731808.06, -6688.311, 0.0, 10.000398, 9.999102 
2.1501605e+2, 2.3600334e+2, -573919.8, -729038.5, 26476.111, 0.11982655, -0.3482883, -569525.25, 57614.64, 0.0, 10.000942, 9.998898 
2.1501875e+2, 2.460013e+2, -484953.03, -802695.44, 6422.5083, 0.114725284, -0.35668746, -484823.25, 44337.77, 0.0, 10.001603, 9.997399 
2.1502048e+2, 2.5599948e+2, -285756.72, -644608.5, -20464.139, 0.005947874, -0.29298827, -284593.47, 146589.55, 0.0, 10.002247, 9.997502 
2.1502185e+2, 2.6599845e+2, -87371.17, -354718.8, -42260.703, -0.03110762, -0.21526386, -80849.92, 252345.42, 0.0, 10.002326, 9.998777 
2.1502307e+2, 2.7599782e+2, -58131.367, -305918.13, 58337.402, -0.016172916, -0.17223924, -45083.8, 190118.81, 0.0, 10.001914, 9.998643 
2.1502493e+2, 2.8599623e+2, 47870.09, -249700.83, 103247.195, 0.003092705, -0.16849582, 80184.31, 217400.92, 0.0, 10.002174, 9.998231 
2.1502715e+2, 2.9599428e+2, 228913.58, -132646.84, 80723.74, 0.018630711, -0.20182858, 246117.73, 285350.1, 0.0000004878426, 10.00283, 9.998049 
2.150302e+2, 3.059923e+2, 201079.47, -210221.34, 51027.336, 0.10715043, -0.15536112, 207315.53, 207315.53, 0.0000063211505, 10.002693, 9.997252 
2.15033e+2, 3.159871e+2, 136292.9, -155674.98, -74202.78, 0.17853144, -0.42051342, 154069.05, 154069.05, 0.0000317033, 10.001853, 9.998027 
2.2498375e+2, 1.2600385e+2, -1958237.3, -1967326.3, -26240.61, 0.18304865, -0.070847414, -1936150.5, -231006.6, 0.0009915447, 9.998867, 9.998807 
2.2498715e+2, 1.3600157e+2, -1866809.8, -1752490.6, 107626.76, 0.03552408, -0.27003202, -1687786.6, -80613.95, 0.000545711, 9.998347, 9.999853 
2.2498952e+2, 1.4600232e+2, -1598367.1, -1376814.5, 22756.787, -0.091160655, -0.28217486, -1374501.3, 134662.42, 0.00020902291, 9.9986515, 10.001618 
2.2499283e+2, 1.5600452e+2, -1400101.1, -1275424.8, -37252.97, -0.0033578014, -0.2253528, -1265141.8, 145992.81, 0.000042237294, 9.999535, 10.001214 
2.2499564e+2, 1.660052e+2, -1382649.3, -1463638.3, -22745.877, 0.033835135, -0.15656056, -1376698.3, -63570.188, 0.0000020119714, 10.000053, 9.998994 
2.2499798e+2, 1.7600468e+2, -1249232.1, -1338466.4, 20070.563, 0.01854902, -0.11965342, -1244925.6, -29787.58, 0.0, 10.000254, 9.999085 
2.2500072e+2, 1.8600394e+2, -1064339.4, -1049762.8, 53634.98, -0.016408065, -0.17492169, -1002923.2, 114221.24, 0.0, 10.000209, 10.000414 
2.2500376e+2, 1.9600299e+2, -1009845.3, -985111.5, 2862.1624, -0.06255933, -0.32455236, -984784.6, 34363.848, 0.0, 9.999968, 10.000301 
2.2500667e+2, 2.0600305e+2, -962838.1, -996344.8, -38372.54, -0.060656328, -0.30466908, -937721.1, -16575.322, 0.0, 9.999977, 9.999549 
2.2500947e+2, 2.160037e+2, -845261.0, -896399.94, -27496.102, -0.024374748, -0.2093909, -833282.7, -10143.274, 0.0, 10.000141, 9.999481 
2.25013e+2, 2.2600262e+2, -719092.2, -843475.8, 4685.0024, 0.035147164, -0.23530115, -718915.94, 6232.9043, 0.0, 10.000594, 9.99895 
2.2501701e+2, 2.3600028e+2, -543709.44, -725843.0, -9249.946, 0.113416746, -0.37899604, -543240.9, 83929.01, 0.0, 10.001196, 9.998797 
2.2501987e+2, 2.4599874e+2, -538279.3, -789832.0, 10058.473, 0.09616454, -0.35438997, -537877.75, -8691.111, 0.0, 10.001066, 9.997748 
2.2502191e+2, 2.5599766e+2, -516233.47, -713083.8, 53815.438, 0.018059367, -0.25140417, -502481.9, -71280.92, 0.0, 10.000477, 9.997887 
2.2502367e+2, 2.6599658e+2, -254965.77, -379985.06, 2574.5059, -0.009894329, -0.22397956, -254912.77, 78298.945, 0.0, 10.000932, 9.999278 
2.2502531e+2, 2.759954e+2, 2920.8765, -228627.3, -51081.22, 0.009000781, -0.28744748, 13688.996, 248910.0, 0.0, 10.002124, 9.999074 
2.2502732e+2, 2.8599402e+2, 24738.287, -298840.8, -45459.29, 0.028963752, -0.26244605, 31003.506, 168236.92, 0.00000000075483947, 10.002167, 9.997902 
2.2502951e+2, 2.9599276e+2, -1840.2677, -277183.25, -43138.027, 0.046549574, -0.19557816, 4759.96, 44005.99, 0.00000073344995, 10.00138, 9.997757 
2.2503303e+2, 3.0599073e+2, 104264.15, -235249.95, 2499.9502, 0.16451724, -0.15107225, 104282.555, 104282.555, 0.000007274646, 10.001924, 9.997452 
2.2503598e+2, 3.1598514e+2, 418724.4, 53595.973, -97357.41, 0.21757104, -0.48117656, 443061.5, 443061.5, 0.000030117351, 10.003459, 9.998699 
2.3498064e+2, 1.2599848e+2, -1824247.8, -1703429.1, -72774.89, -0.049187385, -0.25366217, -1669258.0, 35939.758, 0.0008595536, 9.998933, 10.000585 
2.3498787e+2, 1.3600121e+2, -1766964.0, -1557406.9, 89875.07, 0.25656974, -0.11186147, -1524141.8, 83031.12, 0.00046458573, 9.998389, 10.001177 
2.3499042e+2, 1.4600235e+2, -1692608.3, -1567248.3, 49195.92, 0.12143868, -0.07320371, -1550247.5, -41085.59, 0.00017252294, 9.998634, 10.000317 
2.3499116e+2, 1.5600124e+2, -1470067.4, -1426374.1, -1619.417, -0.13993439, -0.2201496, -1426314.3, -15142.262, 0.000033446406, 9.999559, 10.000165 
2.3499452e+2, 1.6600145e+2, -1301893.4, -1293465.0, -21037.143, -0.09611019, -0.21229297, -1276224.1, 36945.414, 0.0000017722703, 10.000043, 10.000169 
2.3499954e+2, 1.7600253e+2, -1179016.6, -1192922.8, 30676.568, 0.1357159, -0.13673705, -1154515.0, 60644.06, 0.0000000001389195, 10.000255, 10.000085 
2.3500209e+2, 1.8600288e+2, -1148377.9, -1218104.1, 39720.414, 0.08744925, -0.06476656, -1130390.8, -13234.664, 0.0, 10.000181, 9.999274 
2.35003e+2, 1.9600269e+2, -1081027.4, -1130064.5, -1774.9915, -0.14916703, -0.024896266, -1080963.3, -61804.67, 0.0, 9.999952, 9.999315 
2.3500611e+2, 2.060015e+2, -943598.94, -945272.4, -36113.227, -0.12520884, -0.10467017, -908312.75, 12854.286, 0.0, 9.999931, 9.99992 
2.3501076e+2, 2.1599957e+2, -830749.25, -855679.7, -13329.598, 0.074294426, -0.3057598, -824964.56, -1783.7571, 0.0, 10.000093, 9.999784 
2.3501422e+2, 2.259987e+2, -744331.9, -882152.75, 24459.615, 0.08766706, -0.31019816, -740119.7, -14931.123, 0.0, 10.000539, 9.998712 
2.3501694e+2, 2.3599854e+2, -557421.94, -740384.06, 14685.398, -0.027724365, -0.2115858, -556250.75, 70942.06, 0.0, 10.001136, 9.998728 
2.3501928e+2, 2.4599777e+2, -442061.94, -580278.6, -17380.844, -0.08326279, -0.18469985, -439909.78, 89289.79, 0.0, 10.001026, 9.999205 
2.3502143e+2, 2.5599656e+2, -444713.03, -549359.6, 42996.906, -0.091774784, -0.2411757, -429312.9, 1895.8453, 0.0, 10.000412, 9.999042 
2.350245e+2, 2.659947e+2, -356853.75, -583472.8, 42245.14, -0.032681115, -0.26696187, -349234.78, -16007.948, 0.0, 10.0009, 9.997895 
2.3502816e+2, 2.7599227e+2, -90139.74, -407504.03, -6786.89, 0.06929418, -0.31273368, -89994.67, 145257.31, 0.0, 10.002062, 9.997875 
2.3503016e+2, 2.8599045e+2, 32782.777, -275372.47, -79194.04, 0.08268873, -0.2932028, 51943.746, 189214.78, 0.00000003119879, 10.002139, 9.998076 
2.3503095e+2, 2.95989e+2, 6453.1724, -249824.8, -59652.23, 0.036029518, -0.25797528, 19657.7, 58943.336, 0.0000012360658, 10.00133, 9.9979725 
2.3503503e+2, 3.0598772e+2, 161443.5, -105186.63, 57187.375, 0.16079108, -0.20076224, 173191.53, 173191.53, 0.000009095323, 10.0018835, 9.998362 
2.3503913e+2, 3.1598505e+2, 495258.16, 234948.11, -28989.031, 0.15948871, -0.33019704, 498447.4, 498447.4, 0.00003154515, 10.003372, 9.999984 
2.4497889e+2, 1.2599544e+2, -1763894.0, -1579058.1, -33537.305, -0.111103535, -0.28098398, -1573161.1, 132068.3, 0.0007335385, 9.998943, 10.001437 
2.4498647e+2, 1.3599929e+2, -1764756.5, -1499550.9, 51857.074, 0.29406542, -0.089794524, -1489771.6, 117418.766, 0.00038622954, 9.998164, 10.001686 
2.449896e+2, 1.4600064e+2, -1755187.8, -1659346.3, 81727.3, 0.18918383, -0.020984596, -1612526.5, -103348.87, 0.00013762695, 9.99847, 9.999762 
2.4499086e+2, 1.5599889e+2, -1510010.8, -1498974.5, 72169.08, -0.12033601, -0.1786477, -1432112.9, -20916.37, 0.000025817635, 9.999526, 9.999679 
2.4499431e+2, 1.6599865e+2, -1346803.8, -1302615.0, -1465.3645, -0.10146924, -0.20043091, -1302566.5, 10632.318, 0.0000016011192, 9.999683, 10.000276 
2.4499919e+2, 1.7599937e+2, -1329468.6, -1257957.5, -40243.363, 0.13233271, -0.17009361, -1239880.0, -24689.65, 0.0000000006420841, 9.999187, 10.000152 
2.4500234e+2, 1.8599975e+2, -1234272.8, -1265318.9, 11081.72, 0.12557611, -0.09506875, -1230723.1, -113536.53, 0.0, 9.9996195, 9.999217 
2.4500433e+2, 1.9599983e+2, -982845.8, -1087962.5, 38841.8, -0.041972484, -0.02241452, -970050.8, 49135.484, 0.0, 10.000651, 9.999264 
2.4500732e+2, 2.059986e+2, -841432.25, -893284.06, 4451.074, -0.028638415, -0.108576655, -841052.94, 80142.58, 0.0, 10.000623, 9.999945 
2.4501106e+2, 2.159964e+2, -874030.06, -869391.94, -5417.1084, 0.11603785, -0.33579493, -865818.4, -42606.84, 0.0, 9.999777, 9.999842 
2.4501464e+2, 2.2599597e+2, -794087.1, -882021.44, 92529.62, 0.10072958, -0.31211302, -735609.94, -10394.485, 0.0, 10.000087, 9.998933 
2.4501811e+2, 2.3599666e+2, -537030.0, -703402.0, 104660.67, -0.021082222, -0.15087266, -486523.2, 140688.58, 0.0, 10.0011635, 9.998967 
2.4502055e+2, 2.4599601e+2, -391106.06, -531076.7, -5105.5557, -0.068268195, -0.13662729, -390920.1, 138296.77, 0.0, 10.00127, 9.999429 
2.4502234e+2, 2.5599438e+2, -385862.22, -504660.06, -38413.633, -0.05472438, -0.25652722, -374523.3, 56705.35, 0.0, 10.000743, 9.999193 
2.4502608e+2, 2.6599237e+2, -335714.9, -626442.06, 35516.754, 0.020697787, -0.27660432, -331438.88, 1809.7021, 0.0, 10.001269, 9.997426 
2.4503116e+2, 2.759901e+2, -54232.52, -435147.97, 36387.316, 0.14294519, -0.26314878, -50787.74, 184486.64, 0.0, 10.002508, 9.997469 
2.45033e+2, 2.8598803e+2, 109864.1, -234904.48, -67601.22, 0.12820914, -0.2505275, 122645.33, 259940.84, 0.00000009388162, 10.002659, 9.998103 
2.450325e+2, 2.9598606e+2, 121225.38, -187639.36, -65026.816, 0.02390914, -0.27487797, 134357.47, 173671.22, 0.0000018075962, 10.002102, 9.998022 
2.4503727e+2, 3.0598423e+2, 244009.95, -86187.08, 84232.81, 0.1699186, -0.26029253, 264256.22, 264256.22, 0.000010445255, 10.002539, 9.998179 
2.4504271e+2, 3.1598267e+2, 512785.6, 225758.45, -103784.43, 0.17819282, -0.25841686, 546380.3, 546380.3, 0.00003251449, 10.003579, 9.999819 
2.549782e+2, 1.259949e+2, -1761879.3, -1588820.6, -88286.38, -0.10398843, -0.14065483, -1551730.4, 153507.05, 0.0006147494, 9.998995, 10.00135 
2.5498283e+2, 1.3599579e+2, -1779523.3, -1538793.3, 31988.744, 0.09961598, -0.21223512, -1534615.0, 72610.33, 0.00031221876, 9.9982, 10.001401 
2.5498703e+2, 1.4599718e+2, -1742647.4, -1636408.3, 116868.17, 0.07061114, -0.13192508, -1561153.9, -51943.195, 0.00010529937, 9.998484, 9.999912 
2.5499168e+2, 1.5599744e+2, -1502556.0, -1486573.3, 111878.945, -0.0058546974, -0.107956655, -1382400.6, 28808.08, 0.000019009012, 9.999538, 9.999756 
2.5499475e+2, 1.6599672e+2, -1418405.6, -1447987.5, -24813.604, -0.037851155, -0.12727742, -1404309.1, -91092.66, 0.0000013062046, 9.999672, 9.999284 
2.5499675e+2, 1.7599532e+2, -1383647.8, -1371311.4, -48562.703, -0.04539425, -0.21020816, -1328526.8, -113295.62, 0.000000000635992, 9.999196, 9.999368 
2.550013e+2, 1.8599464e+2, -1165349.9, -1119796.0, 46461.04, 0.04601963, -0.25897306, -1090829.1, 26405.867, 0.0, 9.999606, 10.000224 
2.5500762e+2, 1.9599439e+2, -922063.9, -959621.25, 75723.87, 0.2039311, -0.32439664, -862825.0, 156407.55, 0.0, 10.000638, 10.000153 
2.550102e+2, 2.0599419e+2, -875034.3, -950805.94, -32235.234, 0.18475524, -0.32514668, -863176.4, 58055.766, 0.0, 10.00057, 9.999574 
2.5501022e+2, 2.1599403e+2, -896155.7, -910058.9, -25843.443, 0.039993852, -0.3129531, -876345.25, -53111.89, 0.0, 9.99975, 9.999576 
2.55014e+2, 2.2599426e+2, -748909.0, -777590.7, 127857.1, 0.018480727, -0.25181362, -634591.0, 90640.016, 0.0, 10.000041, 9.999672 
2.5502038e+2, 2.3599459e+2, -504301.66, -624762.4, 144695.67, 0.07732146, -0.19969852, -407801.22, 219426.34, 0.0, 10.001114, 9.999534 
2.550235e+2, 2.459934e+2, -466415.63, -677720.9, -29954.9, 0.08742884, -0.21012361, -462251.25, 66987.55, 0.0, 10.001232, 9.998436 
2.5502443e+2, 2.559911e+2, -454493.28, -632743.44, -48414.082, 0.067658454, -0.30002284, -442192.53, -10931.582, 0.0, 10.00068, 9.998344 
2.5502828e+2, 2.6598963e+2, -310369.72, -565285.06, 78223.58, 0.10097861, -0.2520153, -288280.13, 44996.895, 0.0, 10.001234, 9.997864 
2.550341e+2, 2.759887e+2, -37342.824, -385255.22, 82611.445, 0.17060108, -0.14654909, -18723.297, 216566.2, 0.0, 10.0024395, 9.9978485 
2.5503555e+2, 2.8598666e+2, 95024.086, -254034.06, -96226.57, 0.10599594, -0.14108567, 119793.66, 257101.61, 0.00000013919723, 10.002614, 9.99799 
2.5503394e+2, 2.9598373e+2, 99983.125, -217325.88, -76253.49, -0.055352014, -0.24790588, 117356.59, 156688.14, 0.0000021199414, 10.002041, 9.997847 
2.550396e+2, 3.059802e+2, 155099.86, -263123.6, 120504.03, 0.13535096, -0.33352402, 187336.3, 187336.3, 0.000010666905, 10.002511, 9.996976 
2.550464e+2, 3.1597787e+2, 388375.03, -13881.216, -42192.664, 0.16037758, -0.27936837, 392752.97, 392752.97, 0.00003213242, 10.003501, 9.998208 
2.649771e+2, 1.2599328e+2, -2111628.0, -1821486.8, -57990.22, -0.0016350602, -0.07948396, -1810325.6, -105072.86, 0.0005062773, 9.996875, 10.000761 
2.6498133e+2, 1.3599265e+2, -1582517.1, -1530355.6, 5057.8364, 0.048823375, -0.2261131, -1529869.6, 77387.734, 0.0002464049, 9.999914, 10.000631 
2.6498598e+2, 1.459936e+2, -1474513.4, -1475703.5, 48176.508, 0.036531392, -0.16715996, -1426928.3, 82317.78, 0.00007758306, 10.0001955, 10.000189 
2.6499125e+2, 1.559942e+2, -1602827.9, -1510623.0, 42167.65, 0.03982263, -0.13687345, -1494247.1, -83008.98, 0.000013419433, 9.998743, 9.999977 
2.649946e+2, 1.6599357e+2, -1517980.6, -1540344.1, -26319.11, 0.008221525, -0.13618945, -1500566.5, -187321.39, 0.0000010267595, 9.999175, 9.998894 
2.649967e+2, 1.7599213e+2, -1165679.9, -1303974.3, -17030.588, -0.050580073, -0.18603249, -1163613.5, 51648.445, 0.0000000012219834, 10.000852, 9.999033 
2.650014e+2, 1.8599124e+2, -1003248.6, -1034249.0, 35515.996, 0.040607587, -0.24473603, -979997.75, 137271.14, 0.0, 10.000689, 10.000291 
2.6500785e+2, 1.9599067e+2, -1124184.1, -1050542.1, -14795.927, 0.23750982, -0.3456019, -1047680.6, -28410.543, 0.0, 9.999225, 10.000212 
2.650104e+2, 2.0599082e+2, -1028140.2, -1011070.1, -103847.74, 0.206655, -0.32079172, -915407.25, 5859.298, 0.0, 9.999474, 9.999684 
2.650103e+2, 2.1599144e+2, -730578.06, -820877.56, -74174.57, 0.02080525, -0.2396048, -688892.56, 134367.81, 0.0, 10.000854, 9.999656 
2.6501447e+2, 2.2599146e+2, -637218.06, -713923.5, 62051.79, 0.025808223, -0.20632191, -602623.1, 122636.12, 0.0, 10.000765, 9.999761 
2.650216e+2, 2.3599105e+2, -712942.3, -720153.2, 18982.049, 0.16418682, -0.23872079, -697226.3, -69964.3, 0.0, 9.999659, 9.99958 
2.650251e+2, 2.4598962e+2, -629027.1, -788138.3, -113085.15, 0.17773722, -0.25741473, -570317.25, -41041.676, 0.0, 10.000254, 9.998152 
2.6502618e+2, 2.5598747e+2, -274340.25, -564195.2, -86022.93, 0.11314556, -0.30433413, -250733.11, 180564.02, 0.0, 10.002008, 9.998167 
2.6503006e+2, 2.6598617e+2, -174551.11, -454139.16, 49197.35, 0.12279794, -0.25586787, -166146.78, 167164.06, 0.0, 10.001966, 9.998274 
2.6503587e+2, 2.7598545e+2, -263758.84, -452217.34, 44380.316, 0.19390793, -0.16987875, -253830.7, -18511.537, 0.0, 10.000707, 9.99822 
2.6503778e+2, 2.8598338e+2, -95725.13, -364165.84, -100759.805, 0.13244137, -0.17268284, -62113.305, 75223.234, 0.00000017298198, 10.001376, 9.997831 
2.6503694e+2, 2.959803e+2, 279094.38, -144606.31, -96954.164, -0.021289885, -0.28133902, 300226.2, 339587.63, 0.0000022646286, 10.003324, 9.997731 
2.650427e+2, 3.0597663e+2, 225028.31, -265630.75, 114918.02, 0.1684486, -0.36440432, 250609.7, 250609.7, 0.000010678338, 10.003131, 9.996669 
2.650485e+2, 3.1597427e+2, 22004.451, -283676.03, 14883.64, 0.13290943, -0.27384385, 22727.428, 22727.428, 0.000032089163, 10.001364, 9.997392 
2.7497527e+2, 1.2599047e+2, -2186999.8, -1985209.0, 38014.445, 0.09121194, -0.11404927, -1978285.3, -273008.0, 0.00041453895, 9.996901, 9.999628 
2.7498168e+2, 1.3598987e+2, -1657118.1, -1697095.1, 102556.586, 0.07643417, -0.12396932, -1572620.3, 34665.953, 0.00019313562, 9.999963, 9.999463 
2.749863e+2, 1.4598998e+2, -1445155.4, -1419933.9, -15955.742, 0.030234072, -0.11727377, -1412207.0, 97075.92, 0.000056136425, 10.000217, 10.000561 
2.749894e+2, 1.5598927e+2, -1575072.6, -1456083.9, 4198.9478, -0.032607518, -0.25557995, -1455935.9, -44651.68, 0.000009372096, 9.99876, 10.000343 
2.7499372e+2, 1.6598928e+2, -1500397.8, -1504176.3, 31915.162, -0.015196867, -0.22088262, -1470316.0, -157031.9, 0.0000008660051, 9.999178, 9.999137 
2.7499878e+2, 1.7598973e+2, -1157779.0, -1286068.1, 39300.2, 0.055732816, -0.104418926, -1146697.0, 68586.34, 0.000000004874734, 10.00085, 9.999153 
2.7500233e+2, 1.8598948e+2, -1071609.9, -1168059.0, -25087.12, 0.05554963, -0.054076433, -1065474.8, 51813.86, 0.0, 10.000656, 9.999387 
2.7500486e+2, 1.9598879e+2, -1178332.1, -1158890.4, -53848.434, 0.00066525413, -0.08031381, -1113892.4, -94594.62, 0.0, 9.999212, 9.999471 
2.750078e+2, 2.059886e+2, -993542.6, -934915.06, -55855.105, -0.0089329565, -0.08389417, -901148.8, 20148.738, 0.0, 9.999449, 10.000223 
2.7501115e+2, 2.1598862e+2, -705691.2, -758901.56, -24729.336, 0.006107187, -0.11916855, -695973.2, 127319.375, 0.0, 10.000805, 10.000106 
2.7501586e+2, 2.2598758e+2, -692248.06, -811975.5, 15135.528, 0.07742179, -0.1778921, -690364.3, 34935.938, 0.0, 10.000697, 9.999122 
2.7502158e+2, 2.3598583e+2, -759195.75, -801848.2, -7624.7163, 0.18564248, -0.27925494, -757873.75, -130557.086, 0.0, 9.999596, 9.999052 
2.7502525e+2, 2.4598452e+2, -603324.2, -721493.56, -51081.848, 0.15460673, -0.28918558, -584304.06, -54975.81, 0.0, 10.000202, 9.99863 
2.7502745e+2, 2.559834e+2, -252447.6, -504254.6, -25750.172, 0.025055481, -0.27861327, -249841.31, 181496.6, 0.0, 10.001942, 9.998612 
2.7503127e+2, 2.6598197e+2, -155313.02, -399092.6, -5694.9097, 0.037215885, -0.28588253, -155180.05, 178170.06, 0.0, 10.001908, 9.998677 
2.7503625e+2, 2.7598026e+2, -248690.34, -407734.75, 14156.358, 0.15078562, -0.33732215, -247440.13, -12075.794, 0.00000000009324417, 10.000651, 9.998552 
2.750395e+2, 2.8597817e+2, -109668.484, -388344.9, -31005.36, 0.15233347, -0.35049605, -106260.52, 31121.873, 0.00000023612336, 10.001355, 9.997674 
2.7504122e+2, 2.9597574e+2, 266755.53, -159363.25, -30252.842, 0.05879801, -0.38087362, 268892.66, 308296.9, 0.0000024951785, 10.003267, 9.99766 
2.750463e+2, 3.0597347e+2, 263100.28, -167910.92, 44583.145, 0.20414789, -0.3541591, 267663.56, 267663.56, 0.000011113361, 10.003072, 9.997355 
2.7504864e+2, 3.1597185e+2, -1051.7777, -300632.22, -27386.217, -0.017945478, -0.2543687, 1431.1611, 1431.1611, 0.000032683794, 10.001244, 9.997325 
2.849737e+2, 1.2598556e+2, -1773472.4, -1736933.5, -58694.47, 0.11874133, -0.15279517, -1693730.9, 11593.262, 0.0003410361, 9.999537, 10.0000515 
2.8498074e+2, 1.3598572e+2, -1855101.0, -1774333.9, 92361.99, 0.062104177, -0.11064762, -1713912.8, -106588.04, 0.00015204525, 9.998537, 9.999613 
2.8498575e+2, 1.4598547e+2, -1697631.8, -1602000.8, -46099.777, 0.029723043, -0.11668641, -1583397.0, -74071.18, 0.000040681283, 9.998742, 10.000024 
2.8498843e+2, 1.5598404e+2, -1448797.6, -1439449.9, -105051.43, -0.05663079, -0.27339286, -1338968.4, 72367.82, 0.0000066741927, 9.999812, 9.999952 
2.849928e+2, 1.659841e+2, -1401512.5, -1370089.9, -57479.445, -0.03303053, -0.25835282, -1326213.1, -12878.453, 0.00000074756446, 9.999491, 9.99991 
2.8499842e+2, 1.7598501e+2, -1491710.0, -1373001.9, -22661.729, 0.070360035, -0.16874042, -1368822.8, -153496.36, 0.000000006090155, 9.998234, 9.999826 
2.8500217e+2, 1.8598531e+2, -1357524.3, -1310918.6, -25561.09, 0.07576249, -0.09327954, -1299632.6, -182305.98, 0.0, 9.998722, 9.999332 
2.8500468e+2, 1.9598518e+2, -1013237.3, -1086318.9, -2947.3125, 0.008197465, -0.054647043, -1013118.7, 6213.788, 0.0, 10.000375, 9.999408 
2.8500813e+2, 2.0598504e+2, -812768.5, -844249.44, 13721.951, 0.017728714, -0.053025786, -807627.06, 113705.266, 0.0, 10.000672, 10.000251 
2.8501222e+2, 2.1598479e+2, -824978.8, -818626.25, -7161.758, 0.07761114, -0.120145775, -813968.0, 9361.636, 0.0, 10.000001, 10.000078 
2.8501686e+2, 2.2598341e+2, -785800.44, -913692.2, 19729.982, 0.13130799, -0.18175036, -782825.9, -57484.75, 0.0, 10.000302, 9.998611 
2.8502193e+2, 2.3598129e+2, -549887.2, -746764.3, -185.90578, 0.18372689, -0.27013138, -549887.0, 77475.43, 0.0, 10.001232, 9.998639 
2.8502604e+2, 2.4598004e+2, -408801.88, -586783.1, -5279.7256, 0.15995073, -0.27718157, -408645.4, 120728.2, 0.0, 10.001348, 9.999009 
2.8502947e+2, 2.559794e+2, -374861.28, -520922.97, -2090.5417, 0.08882947, -0.2591083, -374831.38, 56546.35, 0.0, 10.000916, 9.998995 
2.8503326e+2, 2.659782e+2, -295466.34, -433460.72, -21105.121, 0.10324622, -0.27692285, -292310.66, 41075.395, 0.0, 10.000799, 9.998977 
2.8503743e+2, 2.759765e+2, -199916.36, -354072.4, -13081.68, 0.19472331, -0.3589185, -198814.13, 36584.207, 0.0000000018932573, 10.0008545, 9.998822 
2.8504112e+2, 2.8597406e+2, -146383.45, -442296.06, 9817.165, 0.18938938, -0.40295553, -146058.11, -8637.55, 0.00000028816427, 10.001261, 9.9973545 
2.8504425e+2, 2.9597116e+2, 60379.51, -277427.88, -15316.978, 0.10617536, -0.4450277, 61072.598, 100521.805, 0.0000027347362, 10.00194, 9.997486 
2.8504965e+2, 3.0596995e+2, 279894.22, -88592.75, 3434.6086, 0.24957602, -0.3438202, 279926.22, 279926.22, 0.000011990512, 10.002861, 9.998011 
2.850513e+2, 3.1596836e+2, 377764.0, -76094.23, -76606.695, 0.009185539, -0.30185303, 390345.66, 390345.66, 0.000033758955, 10.003664, 9.9977045 
2.9497188e+2, 1.259788e+2, -1629132.5, -1463478.4, -117646.42, -0.05931983, -0.18390441, -1402427.0, 302964.63, 0.00028049768, 9.999633, 10.001891 
2.9497826e+2, 1.3598017e+2, -1752270.0, -1575343.9, 62506.91, -0.056689255, -0.18807615, -1555488.8, 51884.176, 0.000119661214, 9.99859, 10.000957 
2.949841e+2, 1.4597997e+2, -1793459.3, -1806835.5, -15104.156, -0.02761068, -0.17168632, -1783628.8, -274253.2, 0.000029635712, 9.998766, 9.998609 
2.9498798e+2, 1.5597852e+2, -1529130.0, -1606810.9, -69931.93, -0.098586395, -0.19100855, -1487976.4, -76581.89, 0.0000047316526, 9.999816, 9.998802 
2.9499176e+2, 1.6597803e+2, -1312971.3, -1184467.0, -109654.66, -0.10198086, -0.24774668, -1121626.8, 191770.48, 0.00000054097734, 9.999483, 10.001186 
2.949955e+2, 1.7597811e+2, -1402091.4, -1190916.9, -52255.184, -0.062215243, -0.37196508, -1178693.8, 36696.13, 0.0000000012704189, 9.998256, 10.001062 
2.9500076e+2, 1.8597876e+2, -1304965.8, -1200538.1, 32204.17, 0.04546365, -0.35748133, -1191405.5, -74023.26, 0.0, 9.998714, 10.000096 
2.9500714e+2, 1.9597979e+2, -972411.6, -997247.8, 56529.84, 0.20113108, -0.27811584, -926952.0, 92422.72, 0.0, 10.000356, 10.00003 
2.9501107e+2, 2.0598008e+2, -855028.3, -921179.3, -15407.659, 0.23215878, -0.23523486, -851615.7, 69756.13, 0.0, 10.000627, 9.999743 
2.950133e+2, 2.1597981e+2, -866812.2, -892899.44, -20257.547, 0.173565, -0.24922542, -855762.2, -32389.625, 0.0, 9.999947, 9.999593 
2.950173e+2, 2.259789e+2, -821465.6, -970292.3, 49702.695, 0.13403691, -0.2258928, -806393.2, -81010.71, 0.0, 10.00023, 9.998257 
2.9502255e+2, 2.3597741e+2, -581070.9, -794857.7, 36286.082, 0.11049739, -0.2118335, -575079.9, 52319.676, 0.0, 10.0011635, 9.9983425 
2.9502743e+2, 2.4597625e+2, -392010.13, -542604.8, -26698.975, 0.15079816, -0.21503572, -387416.75, 141993.89, 0.0, 10.001307, 9.999334 
2.9503202e+2, 2.5597528e+2, -361650.56, -482113.6, -11408.158, 0.23800536, -0.25839013, -360579.72, 70837.914, 0.0, 10.000863, 9.999291 
2.950358e+2, 2.659746e+2, -284253.44, -403112.13, -23717.271, 0.26407713, -0.24790291, -279695.63, 53724.98, 0.0, 10.000768, 9.999201 
2.9503906e+2, 2.75974e+2, -196840.92, -336550.72, -5817.5796, 0.25609264, -0.24343665, -196599.1, 38823.17, 0.0000000016821552, 10.000802, 9.998971 
2.9504248e+2, 2.8597102e+2, -183499.02, -508834.16, 28370.479, 0.1867576, -0.3249039, -181043.53, -43592.508, 0.00000022409213, 10.001219, 9.996918 
2.9504582e+2, 2.959665e+2, 29504.303, -332773.0, 21188.45, 0.05156196, -0.48349243, 30739.338, 70236.61, 0.0000026529046, 10.001897, 9.997131 
2.9505262e+2, 3.059659e+2, 319244.97, 6683.533, 30820.107, 0.24376108, -0.3385196, 322255.0, 322255.0, 0.000012335517, 10.00281, 9.998685 
2.9505584e+2, 3.159635e+2, 423336.2, 38610.01, -15288.009, 0.06723606, -0.45112976, 423942.72, 423942.72, 0.000034800534, 10.00358, 9.998529 
3.04971e+2, 1.2597257e+2, -1702261.9, -1528572.8, -72126.14, -0.08639969, -0.22494037, -1502527.3, 202925.31, 0.00022859985, 9.999268, 10.001625 
3.0497667e+2, 1.3597405e+2, -1656215.3, -1559036.8, -62475.832, -0.10835735, -0.18217292, -1528479.6, 78954.81, 0.00009393993, 9.999373, 10.000696 
3.04983e+2, 1.4597385e+2, -1686216.3, -1690676.4, -68533.01, -0.03411106, -0.18584016, -1619877.0, -110440.055, 0.000021636553, 9.999238, 9.999171 
3.0498752e+2, 1.5597306e+2, -1606953.3, -1590183.8, 4710.1543, -0.080440536, -0.18989138, -1588951.4, -177503.34, 0.0000030875526, 9.999054, 9.999279 
3.0499145e+2, 1.65973e+2, -1352229.6, -1204472.1, -50939.848, -0.062685914, -0.22684824, -1188612.8, 124833.9, 0.0000002653173, 9.999214, 10.001174 
3.0499497e+2, 1.7597325e+2, -1206361.0, -1089446.4, -95257.516, -0.001491635, -0.33411762, -1036139.44, 179298.8, 0.0, 9.999572, 10.001118 
3.0500028e+2, 1.8597373e+2, -1155643.5, -1084303.8, -18308.232, 0.08975076, -0.3629919, -1079879.6, 37550.906, 0.0, 9.999544, 10.0005 
3.0500692e+2, 1.9597432e+2, -1111500.6, -1028861.25, -31002.756, 0.2032441, -0.367441, -1018523.5, 900.1342, 0.0, 9.999241, 10.000355 
3.0501127e+2, 2.0597447e+2, -991393.75, -1035673.7, -111801.16, 0.22774073, -0.32725522, -899561.44, 21860.682, 0.0, 9.9999, 9.999314 
3.0501407e+2, 2.159743e+2, -710084.8, -859758.56, -122834.75, 0.19497222, -0.28859568, -641085.25, 182339.56, 0.0, 10.001201, 9.999223 
3.0501828e+2, 2.2597352e+2, -630068.1, -852292.3, -16803.303, 0.15167663, -0.24798436, -628804.75, 96629.29, 0.0, 10.00143, 9.99849 
3.0502346e+2, 2.3597223e+2, -604380.44, -780277.1, 1422.0598, 0.10278606, -0.24037902, -604368.94, 23079.58, 0.0, 10.000897, 9.998566 
3.0502832e+2, 2.4597128e+2, -514398.47, -596948.7, -64427.457, 0.15769412, -0.23336104, -479158.66, 50298.684, 0.0, 10.000458, 9.999364 
3.0503297e+2, 2.5597054e+2, -465510.5, -529694.56, -74181.47, 0.28551382, -0.25830156, -416776.88, 14685.843, 0.0, 10.000153, 9.999298 
3.0503678e+2, 2.6596978e+2, -331854.8, -477812.97, -80306.78, 0.2932758, -0.23139162, -296320.66, 37147.863, 0.0, 10.000667, 9.998737 
3.0504006e+2, 2.7596894e+2, -85125.29, -326568.3, -123896.48, 0.23255917, -0.20557597, -32861.195, 202614.58, 0.00000000014964384, 10.0017605, 9.998579 
3.050439e+2, 2.8596622e+2, -61863.082, -407528.22, -80824.64, 0.18079737, -0.26089314, -43898.063, 93604.69, 0.00000013461268, 10.001873, 9.997293 
3.0504805e+2, 2.9596245e+2, -41977.94, -330927.16, -35223.332, 0.11825048, -0.38157696, -37746.14, 1795.096, 0.0000024042524, 10.0012665, 9.997437 
3.0505535e+2, 3.059621e+2, 109703.87, -132049.38, -10002.132, 0.30760744, -0.21267834, 110116.984, 110116.984, 0.000011969342, 10.001519, 9.998361 
3.0505872e+2, 3.1595775e+2, 240910.34, -23165.47, -127299.58, 0.07123981, -0.48778412, 292282.34, 292282.34, 0.00003458678, 10.0021925, 9.998784 
3.149708e+2, 1.2596697e+2, -1855868.5, -1863078.0, -77696.49, -0.06774681, -0.26380423, -1781693.1, -76187.28, 0.00018624985, 9.999343, 9.99929 
3.1497574e+2, 1.359675e+2, -1783681.9, -1824575.6, -58123.375, -0.15679424, -0.08466558, -1742513.9, -135006.39, 0.00007443096, 9.999392, 9.998863 
3.1498218e+2, 1.459672e+2, -1512329.6, -1335025.6, -82280.38, -0.055494726, -0.14903332, -1302726.3, 206782.7, 0.000015949841, 9.999251, 10.001608 
3.149869e+2, 1.5596768e+2, -1455514.1, -1287294.5, 5393.1553, -0.066758126, -0.27200454, -1287121.8, 124375.48, 0.00000170519, 9.999098, 10.001339 
3.1499177e+2, 1.6596891e+2, -1438923.3, -1386488.5, -45258.914, 0.032151278, -0.20185116, -1360401.8, -46917.74, 0.000000057148895, 9.999222, 9.999923 
3.1499666e+2, 1.7597046e+2, -1285189.8, -1253079.3, -81461.66, 0.19854142, -0.055681385, -1186105.8, 29366.066, 0.0, 9.999573, 9.999995 
3.150006e+2, 1.8597025e+2, -1152255.3, -1077156.5, -35108.12, 0.15048845, -0.104865, -1063300.3, 54170.97, 0.0, 9.999539, 10.000553 
3.150038e+2, 1.9596879e+2, -1112585.8, -1025381.8, -31985.121, -0.045988534, -0.3189125, -1014908.1, 4570.9946, 0.0, 9.999215, 10.000392 
3.1500852e+2, 2.0596829e+2, -1026268.06, -1093453.5, -68987.22, -0.046262357, -0.32821324, -983129.4, -61646.13, 0.0, 9.999841, 9.998945 
3.1501427e+2, 2.159683e+2, -737667.75, -902285.7, -75218.29, 0.085807845, -0.23349544, -708475.3, 115010.61, 0.0, 10.001139, 9.9989605 
3.1501955e+2, 2.2596736e+2, -577654.06, -730801.1, -41566.07, 0.124849044, -0.24267864, -567099.9, 158395.23, 0.0, 10.001376, 9.99935 
3.1502444e+2, 2.359657e+2, -560493.75, -675969.2, -12454.306, 0.10031069, -0.356066, -559165.8, 68343.51, 0.0, 10.00084, 9.999312 
3.1502858e+2, 2.4596508e+2, -532491.3, -631380.75, -83169.83, 0.122063115, -0.33851728, -485178.6, 44335.72, 0.0, 10.000442, 9.999136 
3.1503212e+2, 2.5596514e+2, -494095.5, -576027.06, -79139.84, 0.17509858, -0.25943238, -445947.25, -14434.229, 0.0, 10.000094, 9.999009 
3.1503606e+2, 2.659638e+2, -413638.75, -639246.0, -43437.67, 0.14670281, -0.21989284, -405564.38, -72035.38, 0.0, 10.000631, 9.997647 
3.150403e+2, 2.7596128e+2, -154309.3, -457261.78, -81195.305, 0.064227775, -0.24974948, -133920.1, 101638.586, 0.00000000001473293, 10.001702, 9.997711 
3.1504524e+2, 2.859597e+2, 12783.864, -243063.8, -110126.586, 0.11176466, -0.21759844, 53656.87, 191232.77, 0.000000108201135, 10.001833, 9.998441 
3.1505057e+2, 2.95959e+2, 8804.298, -209715.25, -48057.125, 0.23035973, -0.14822687, 18906.098, 58488.316, 0.0000022594174, 10.001191, 9.998308 
3.1505772e+2, 3.0595836e+2, 15824.185, -311269.28, 14299.873, 0.38223606, 0.0246279, 16448.156, 16448.156, 0.00001165084, 10.001462, 9.997151 
3.150595e+2, 3.159512e+2, 215444.56, -50600.992, -67613.875, -0.09821107, -0.42282283, 231642.08, 231642.08, 0.000033846463, 10.002093, 9.998637 
3.2497075e+2, 1.2596191e+2, -1770499.4, -1826919.5, -95668.95, -0.02997365, -0.19176494, -1698968.0, 6591.6855, 0.00015560584, 9.999942, 9.99925 
3.249757e+2, 1.3596232e+2, -1704759.9, -1778613.0, 68330.37, -0.11717832, -0.0326808, -1664016.6, -56456.01, 0.000061447354, 9.999889, 9.998941 
3.249822e+2, 1.4596161e+2, -1449937.1, -1306639.1, 19638.258, 0.0051838146, -0.14197864, -1303996.6, 205568.16, 0.000012624197, 9.999679, 10.0016 
3.2498637e+2, 1.5596205e+2, -1388922.5, -1256814.6, -82896.94, -0.05034594, -0.26841116, -1216873.1, 194679.08, 0.0000008198343, 9.999561, 10.001325 
3.249913e+2, 1.6596329e+2, -1393682.1, -1401599.4, -139117.48, 0.03946696, -0.17975816, -1258467.0, 55072.805, 0.000000004124255, 9.9997, 9.999587 
3.249967e+2, 1.7596485e+2, -1250196.4, -1278820.3, -119636.37, 0.22560595, 0.003888987, -1144018.9, 71510.68, 0.0, 9.999993, 9.999619 
3.250006e+2, 1.8596433e+2, -1087917.6, -1099295.6, -75971.125, 0.17054947, -0.033291347, -1017422.8, 100110.46, 0.0, 10.000219, 10.000066 
3.2500353e+2, 1.9596232e+2, -973694.06, -1003443.4, -123985.85, -0.049768172, -0.25336644, -863693.8, 155852.98, 0.0, 10.000372, 9.99998 
3.2500845e+2, 2.0596159e+2, -953600.25, -1017948.9, -117801.99, -0.049402885, -0.28779802, -863657.8, 57894.613, 0.0, 10.00016, 9.99931 
3.2501483e+2, 2.1596165e+2, -929687.8, -954567.1, -79290.61, 0.10485396, -0.22621882, -861867.0, -38313.883, 0.0, 9.999648, 9.999319 
3.2502016e+2, 2.2596103e+2, -820972.25, -823984.44, -58328.285, 0.14301427, -0.23106796, -764130.6, -38572.19, 0.0, 9.999596, 9.999572 
3.2502484e+2, 2.3595987e+2, -685555.0, -715566.06, -84729.26, 0.10596937, -0.31760976, -614512.75, 13055.018, 0.0, 9.999883, 9.999506 
3.250288e+2, 2.4595901e+2, -556764.7, -661579.44, -151160.34, 0.10683547, -0.32235545, -449184.63, 80390.414, 0.0, 10.000351, 9.998976 
3.2503226e+2, 2.5595835e+2, -371125.0, -532655.56, -149794.16, 0.13358463, -0.30096203, -281710.03, 149870.97, 0.0, 10.001002, 9.998874 
3.250365e+2, 2.6595706e+2, -355871.28, -601856.2, -46690.355, 0.11072077, -0.25276667, -347307.16, -13710.43, 0.0, 10.00099, 9.997727 
3.2504132e+2, 2.759552e+2, -318455.0, -523949.88, -10484.542, 0.062925614, -0.22719644, -317921.47, -82300.56, 0.00000000010851988, 10.000531, 9.997811 
3.2504657e+2, 2.85954e+2, -143173.27, -297241.7, -45142.01, 0.12633714, -0.17146882, -130921.02, 6713.4985, 0.00000014601811, 10.000662, 9.998638 
3.2505196e+2, 2.9595348e+2, 19650.72, -184980.45, -61163.97, 0.2584525, -0.10348626, 36538.785, 76177.305, 0.000002235968, 10.001178, 9.998486 
3.2505938e+2, 3.0595243e+2, -6521.7495, -329867.4, 46363.55, 0.41148803, 0.023530709, -5.1544776, -5.1544776, 0.000011376777, 10.001349, 9.997077 
3.250616e+2, 3.159457e+2, 134618.39, -16326.926, 39669.773, -0.050168317, -0.37831625, 144408.92, 144408.92, 0.000032649332, 10.00123, 9.999285 
3.3497038e+2, 1.2595738e+2, -1602137.6, -1491536.0, -100297.836, -0.09707082, -0.0040351423, -1432303.6, 273310.66, 0.00013659472, 9.999996, 10.001528 
3.349765e+2, 1.3595846e+2, -1552926.6, -1476628.1, 63922.633, -0.044447556, -0.024334658, -1440336.4, 167257.89, 0.000054929977, 9.999948, 10.000983 
3.3498293e+2, 1.4595701e+2, -1617661.1, -1655363.8, 6271.605, 0.09425965, -0.1703138, -1616645.3, -107040.39, 0.000011796083, 9.999689, 9.999197 
3.349856e+2, 1.559563e+2, -1535183.3, -1559403.5, -80615.05, -0.097292624, -0.1735986, -1465773.8, -54161.816, 0.00000057438905, 9.999565, 9.999241 
3.3498973e+2, 1.6595623e+2, -1356382.8, -1324923.0, -132872.3, -0.10125593, -0.15256742, -1206852.8, 106760.33, 0.00000000201948, 9.999699, 10.000116 
3.3499488e+2, 1.7595646e+2, -1221209.6, -1223102.3, -104296.52, 0.026030542, -0.15497516, -1117855.1, 97756.21, 0.0, 10.000009, 9.999996 
3.3500025e+2, 1.8595591e+2, -1167708.9, -1255690.3, -75887.164, 0.09823963, -0.15128629, -1123983.9, -6367.1475, 0.0, 10.000181, 9.999012 
3.3500585e+2, 1.9595483e+2, -1036326.1, -1128108.8, -115468.0, 0.13172843, -0.1753496, -957964.2, 61663.15, 0.0, 10.000351, 9.999134 
3.3501086e+2, 2.0595437e+2, -880211.3, -855934.25, -142214.94, 0.16600272, -0.20331319, -725340.75, 196288.86, 0.0, 10.000121, 10.00044 
3.350155e+2, 2.1595429e+2, -869233.3, -812607.94, -91087.57, 0.19689742, -0.2715816, -745534.3, 78092.58, 0.0, 9.99958, 10.000324 
3.3502e+2, 2.2595446e+2, -858179.56, -888542.8, -53216.37, 0.15636404, -0.22176681, -818021.6, -92396.72, 0.0, 9.999539, 9.999157 
3.3502442e+2, 2.3595475e+2, -721807.06, -774355.9, -69239.52, 0.06595519, -0.121569216, -674024.4, -46400.457, 0.0, 9.99981, 9.999138 
3.3502877e+2, 2.4595316e+2, -565402.8, -672239.94, -131545.42, 0.058361482, -0.18024895, -476843.4, 52795.637, 0.0, 10.0003195, 9.998917 
3.350331e+2, 2.5595018e+2, -374912.0, -529626.5, -124079.805, 0.105275504, -0.38255563, -306050.44, 125615.555, 0.0, 10.000956, 9.998916 
3.350379e+2, 2.659496e+2, -275589.47, -430698.28, -69750.484, 0.13811156, -0.329713, -248837.52, 84833.97, 0.0, 10.000968, 9.998915 
3.35043e+2, 2.7595058e+2, -254221.06, -378183.56, -20975.404, 0.1623353, -0.14098816, -250768.05, -15104.605, 0.000000000044508567, 10.000474, 9.99884 
3.3504775e+2, 2.859491e+2, -192231.02, -394883.63, -30955.344, 0.16503724, -0.12551695, -187608.02, -49929.15, 0.00000018850986, 10.000641, 9.997978 
3.350521e+2, 2.959461e+2, -25462.672, -270641.53, -38513.355, 0.13519798, -0.23791878, -19555.227, 20153.605, 0.0000021997091, 10.001138, 9.99792 
3.3506006e+2, 3.059443e+2, 55411.668, -191390.36, 36247.656, 0.33395377, -0.21006809, 60625.207, 60625.207, 0.000010801098, 10.001312, 9.998042 
3.3506444e+2, 3.1594127e+2, 208476.47, 172635.06, 65156.55, 0.0863609, -0.3466364, 258131.86, 258131.86, 0.000030818417, 10.001086, 10.000649 
3.4497082e+2, 1.2595178e+2, -1555341.6, -1454490.9, -34165.19, -0.05928144, 0.038912244, -1444006.6, 261665.39, 0.00012625929, 10.000273, 10.001645 
3.4497666e+2, 1.3595285e+2, -1470740.5, -1409522.4, -80567.22, -0.04226803, -0.014118509, -1353945.6, 253703.8, 0.000053424294, 10.000391, 10.001237 
3.449834e+2, 1.4595108e+2, -1558516.1, -1668741.1, -104371.625, 0.14325139, -0.18014827, -1495599.6, 14062.892, 0.0000131995685, 10.000276, 9.998822 
3.4498644e+2, 1.5595025e+2, -1468061.5, -1571177.0, -52753.234, 0.0035414665, -0.15805194, -1445855.4, -34183.42, 0.00000089811203, 10.000211, 9.998851 
3.4499016e+2, 1.6594958e+2, -1286518.5, -1319608.6, -57509.95, -0.049622096, -0.16349494, -1243221.0, 70457.81, 0.0000000015154811, 10.0002985, 9.999863 
3.4499434e+2, 1.7594892e+2, -1171156.6, -1220347.1, -99163.53, -0.047095615, -0.23104146, -1093583.8, 122101.41, 0.0, 10.000451, 9.999798 
3.4499997e+2, 1.8594861e+2, -1097712.5, -1200537.1, -32912.6, 0.037959322, -0.20677012, -1088080.0, 29608.928, 0.0, 10.000559, 9.999211 
3.4500682e+2, 1.9594854e+2, -990943.25, -1087159.6, 11058.825, 0.18600498, -0.14980704, -989688.56, 30002.723, 0.0, 10.00057, 9.999313 
3.4501177e+2, 2.0594846e+2, -851368.8, -841215.9, -39694.88, 0.23972553, -0.1500505, -806274.2, 115415.96, 0.0, 10.000301, 10.000463 
3.4501544e+2, 2.1594821e+2, -836489.1, -798356.3, -78296.13, 0.2256384, -0.23356874, -736838.56, 86849.61, 0.0, 9.999795, 10.000327 
3.450198e+2, 2.259482e+2, -817184.56, -879719.75, -20039.373, 0.1642804, -0.19628823, -811314.0, -85626.234, 0.0, 9.999876, 9.999051 
3.4502453e+2, 2.3594834e+2, -649995.75, -753871.5, -24728.24, 0.0717242, -0.10172502, -644409.5, -16720.84, 0.0, 10.000371, 9.999006 
3.4502918e+2, 2.4594687e+2, -587608.6, -726361.94, -93015.195, 0.06660785, -0.121119745, -540946.75, -11242.209, 0.0, 10.000356, 9.998529 
3.4503374e+2, 2.559442e+2, -540656.9, -646520.06, -120739.36, 0.12587608, -0.25496808, -461756.2, -30024.424, 0.0, 9.999972, 9.99859 
3.450387e+2, 2.6594338e+2, -374801.53, -438560.4, -106803.836, 0.17214397, -0.22877836, -295220.84, 38517.504, 0.0, 10.000115, 9.999271 
3.4504408e+2, 2.759438e+2, -205035.25, -318178.88, -127743.92, 0.21740912, -0.12952213, -121897.086, 113834.48, 0.0, 10.000661, 9.999164 
3.450485e+2, 2.8594217e+2, -159184.86, -381893.0, -120472.19, 0.16543834, -0.14177744, -106486.26, 31260.451, 0.00000016974016, 10.000899, 9.997936 
3.4505206e+2, 2.9593918e+2, -57113.18, -287748.78, -96671.49, 0.033724595, -0.24924982, -21953.166, 17823.254, 0.0000019719364, 10.00094, 9.997894 
3.4506044e+2, 3.0593678e+2, 2159.3335, -206744.34, -37439.613, 0.2648555, -0.28401798, 8666.547, 8666.547, 0.000009630792, 10.000881, 9.998151 
3.4506682e+2, 3.1593508e+2, 150744.95, 154350.95, -76601.72, 0.24206544, -0.3025425, 229170.89, 229170.89, 0.000028581368, 10.000621, 10.000754 
3.5497177e+2, 1.259452e+2, -1690411.1, -1764588.9, -23713.799, -0.036004122, -0.053842742, -1683478.1, 22253.545, 0.00012021515, 10.000387, 9.999465 
3.549757e+2, 1.3594548e+2, -1573224.4, -1632104.8, -77668.79, -0.1896514, 0.003321141, -1519603.4, 88122.46, 0.000054251253, 10.000433, 9.999687 
3.549832e+2, 1.4594391e+2, -1440295.0, -1433237.6, -114505.55, 0.0801161, -0.16393195, -1322206.4, 187530.73, 0.000015580335, 10.000314, 10.000424 
3.5498884e+2, 1.559439e+2, -1366641.5, -1374197.0, -49325.277, 0.20036456, -0.21568266, -1320949.5, 90782.78, 0.0000017221554, 10.000265, 10.000179 
3.5499257e+2, 1.6594331e+2, -1357936.5, -1466880.0, -58305.19, 0.14043202, -0.21556485, -1332616.9, -18879.477, 0.000000007086625, 10.000296, 9.998852 
3.5499483e+2, 1.7594218e+2, -1222574.5, -1332096.5, -88088.78, -0.055008687, -0.23059937, -1173612.9, 42138.42, 0.0, 10.000469, 9.9990225 
3.549996e+2, 1.8594237e+2, -1002422.75, -993467.75, -36793.457, -0.06679403, -0.2024967, -960880.4, 156869.73, 0.0, 10.000523, 10.000649 
3.5500625e+2, 1.9594346e+2, -910839.1, -911856.5, 14284.277, 0.059322003, -0.1715057, -897054.5, 122683.89, 0.0, 10.000534, 10.000533 
3.5501105e+2, 2.0594382e+2, -935655.9, -1004761.94, -63599.605, 0.1254959, -0.1243966, -897829.2, 23904.895, 0.0, 10.000251, 9.999364 
3.5501453e+2, 2.159435e+2, -911329.1, -942920.6, -89026.914, 0.14121267, -0.10735195, -836707.5, -12971.315, 0.0, 9.999748, 9.999355 
3.550193e+2, 2.259424e+2, -811064.1, -856423.0, -5210.08, 0.11861665, -0.14530364, -810473.4, -84727.48, 0.0, 9.99983, 9.999233 
3.5502496e+2, 2.359407e+2, -651073.25, -745572.2, -3658.1519, 0.06649357, -0.25185162, -650931.9, -23170.576, 0.0, 10.000324, 9.999086 
3.550298e+2, 2.4594012e+2, -644792.6, -835716.9, -112982.38, 0.08068873, -0.14421737, -592342.5, -62570.93, 0.0, 10.000317, 9.997798 
3.5503393e+2, 2.5594026e+2, -597600.44, -752049.44, -128583.28, 0.13846534, 0.07571246, -524834.0, -93055.01, 0.0, 9.99992, 9.997891 
3.5503888e+2, 2.6593837e+2, -411525.16, -507943.9, -89394.41, 0.16387767, 0.049337506, -358169.28, -24372.018, 0.0, 10.000088, 9.998806 
3.550444e+2, 2.75935e+2, -240566.03, -380422.44, -101775.58, 0.17040749, -0.18368964, -187010.55, 48813.246, 0.0, 10.000614, 9.998756 
3.5504863e+2, 2.859332e+2, -123982.64, -307568.38, -123827.3, 0.07535428, -0.2186965, -61635.543, 76201.94, 0.00000011654808, 10.000889, 9.998453 
3.550518e+2, 2.9593253e+2, -30145.246, -226928.1, -89647.92, -0.10436633, -0.15123849, 4570.888, 44413.28, 0.0000016005947, 10.000911, 9.99833 
3.550603e+2, 3.059298e+2, -46215.86, -292124.2, -46243.547, 0.15364152, -0.2097773, -37807.2, -37807.2, 0.000008029012, 10.000829, 9.997586 
3.550682e+2, 3.1592762e+2, 60112.54, -4997.52, -63418.44, 0.28969777, -0.21249054, 98843.75, 98843.75, 0.00002594716, 10.000512, 9.999706 
3.649732e+2, 1.259393e+2, -1531785.6, -1783393.0, 6880.9414, -0.0052030534, -0.10056286, -1531597.5, 174188.55, 0.00011678404, 10.001891, 9.998611 
3.6497703e+2, 1.3593881e+2, -1580174.3, -1692054.6, 7234.045, -0.10549893, -0.06039868, -1579708.5, 28082.178, 0.000055597222, 10.000638, 9.999169 
3.6498433e+2, 1.459375e+2, -1403942.5, -1404048.0, -7678.7446, 0.15343629, -0.18564184, -1396316.4, 113484.85, 0.000017763748, 10.00052, 10.000524 
3.6498943e+2, 1.5593801e+2, -1209778.9, -1283908.6, -68365.42, 0.18879613, -0.19262704, -1169077.3, 242714.77, 0.000002786188, 10.00128, 10.000312 
3.6499324e+2, 1.6593781e+2, -1201257.3, -1348709.3, -70174.66, 0.1411058, -0.18325041, -1173199.1, 140593.42, 0.00000008230677, 10.001184, 9.999238 
3.6499608e+2, 1.7593695e+2, -1199823.8, -1284449.6, -7072.629, 0.02285591, -0.20832187, -1199236.8, 16564.531, 0.0, 10.000471, 9.999349 
3.6500058e+2, 1.8593717e+2, -1105743.3, -1083357.8, 19606.523, 0.005979423, -0.17145191, -1071974.1, 45825.867, 0.0, 9.999986, 10.000293 
3.650064e+2, 1.9593805e+2, -1072536.5, -1032863.6, -70335.06, 0.067758806, -0.125619, -979621.3, 40171.56, 0.0, 9.999608, 10.000152 
3.6501107e+2, 2.0593788e+2, -963733.75, -1076771.8, -148868.97, 0.10268419, -0.08248582, -861015.94, 60779.13, 0.0, 10.000322, 9.99883 
3.6501497e+2, 2.159369e+2, -653546.1, -873307.75, -150499.19, 0.11409689, -0.077226035, -577083.75, 246720.94, 0.0, 10.001764, 9.998861 
3.6501977e+2, 2.2593541e+2, -618733.0, -759070.1, -90867.37, 0.12193862, -0.13344498, -574095.2, 151722.56, 0.0, 10.001124, 9.999281 
3.6502528e+2, 2.3593351e+2, -839506.06, -831568.8, -101276.87, 0.13212009, -0.26407433, -734182.8, -106348.945, 0.0, 9.999007, 9.999131 
3.6503032e+2, 2.4593304e+2, -750920.7, -881121.94, -106579.71, 0.14382455, -0.1503331, -691132.06, -161289.56, 0.0, 9.99956, 9.997851 
3.65035e+2, 2.5593352e+2, -298238.9, -602733.75, -77299.15, 0.1559291, 0.09779496, -279739.63, 152106.84, 0.0, 10.001957, 9.997933 
3.650399e+2, 2.6593155e+2, -136429.95, -408175.63, -47969.844, 0.16051495, 0.075561285, -128210.69, 205655.4, 0.0, 10.00212, 9.998515 
3.6504504e+2, 2.7592775e+2, -243289.84, -411465.47, -55999.78, 0.17017896, -0.16774416, -226349.27, 9548.291, 0.0, 10.000716, 9.998497 
3.6504963e+2, 2.8592592e+2, -171384.52, -316451.0, -52065.887, 0.11010571, -0.20368473, -154632.11, -16720.273, 0.000000055764154, 10.000495, 9.998586 
3.650537e+2, 2.9592544e+2, 4588.917, -193436.8, -63689.164, -0.0058420138, -0.12804621, 23303.947, 63218.02, 0.0000011854916, 10.001084, 9.998474 
3.6506104e+2, 3.0592307e+2, -85660.79, -331011.6, -39760.67, 0.15866698, -0.15429151, -79378.195, -79378.195, 0.000006614604, 10.000638, 9.997418 
3.6506706e+2, 3.1592178e+2, -154416.69, -179971.52, -45078.113, 0.189991, -0.04440791, -120340.086, -120340.086, 0.000023524617, 9.999346, 9.999075 
3.7497443e+2, 1.2593421e+2, -1487152.0, -1707739.1, -30291.797, -0.10241562, -0.08426234, -1483067.9, 222766.31, 0.000116595606, 10.001957, 9.999098 
3.749805e+2, 1.35933e+2, -1530184.1, -1607096.5, -30692.42, 0.15563941, -0.194174, -1519437.6, 88404.87, 0.000057458026, 10.000713, 9.999715 
3.7498656e+2, 1.4593187e+2, -1504011.8, -1611516.5, 13452.255, 0.3057777, -0.24633567, -1502354.0, 7500.448, 0.000019792478, 10.000524, 9.999094 
3.7498805e+2, 1.5593258e+2, -1283443.8, -1444753.6, -38496.31, -0.0968639, -0.09671798, -1274727.6, 137124.02, 0.000003853391, 10.001315, 9.99919 
3.749921e+2, 1.6593301e+2, -1076684.8, -1091351.3, -101747.85, -0.109413505, -0.06846169, -982006.2, 331838.28, 0.00000020238203, 10.00119, 10.001 
3.7499776e+2, 1.7593326e+2, -1099411.6, -1081393.4, -27635.203, 0.1321494, -0.15743643, -1061335.9, 154498.58, 0.0, 10.00049, 10.000734 
3.7500262e+2, 1.8593298e+2, -1258119.9, -1395384.3, 654.8253, 0.20211351, -0.11586936, -1258116.8, -140277.75, 0.0, 9.999969, 9.9981575 
3.7500697e+2, 1.9593227e+2, -1213282.4, -1316911.4, -71970.695, 0.15548165, -0.019858377, -1176414.8, -156559.84, 0.0, 9.999576, 9.998214 
3.750117e+2, 2.0593067e+2, -973799.56, -1088506.0, -98035.484, 0.1231344, -0.028497376, -917573.1, 4300.1035, 0.0, 10.00028, 9.998771 
3.750166e+2, 2.1592842e+2, -663529.25, -882140.75, -101624.76, 0.08937344, -0.14476189, -623585.75, 200308.0, 0.0, 10.001713, 9.998825 
3.7502104e+2, 2.2592725e+2, -634073.3, -777624.3, -176549.1, 0.12566473, -0.16136746, -515267.34, 210636.2, 0.0, 10.001065, 9.999183 
3.750252e+2, 2.3592676e+2, -844916.25, -833120.1, -161272.0, 0.21283834, -0.14488077, -677638.4, -49731.64, 0.0, 9.998961, 9.999143 
3.750306e+2, 2.459257e+2, -698696.9, -759283.56, -18676.348, 0.2053065, -0.1405564, -693402.44, -163485.4, 0.0, 9.999507, 9.998713 
3.750368e+2, 2.5592414e+2, -254668.47, -498464.2, 6548.6445, 0.12384262, -0.18004319, -254492.69, 177440.48, 0.0, 10.001896, 9.99868 
3.7504172e+2, 2.6592296e+2, -152430.89, -432339.78, -106347.51, 0.11503336, -0.14490704, -116609.805, 217334.94, 0.0, 10.002084, 9.998366 
3.7504575e+2, 2.7592203e+2, -261247.39, -435973.66, -96239.23, 0.15659592, -0.09178463, -218632.42, 17321.402, 0.0, 10.000662, 9.998355 
3.750512e+2, 2.859203e+2, -194210.47, -356734.5, -33610.563, 0.20705786, -0.0956021, -187533.95, -49564.03, 0.00000003400916, 10.000461, 9.998327 
3.750576e+2, 2.95918e+2, -16746.049, -228042.2, -40777.082, 0.2605101, -0.17599928, -9149.759, 30841.795, 0.0000008994765, 10.001034, 9.998265 
3.7506235e+2, 3.059165e+2, -80329.13, -300848.84, -91183.37, 0.21599627, -0.11621675, -47509.844, -47509.844, 0.000005653841, 10.000572, 9.997651 
3.750631e+2, 3.159173e+2, -186338.02, -216785.42, -84404.65, -0.172428, 0.1884555, -115795.15, -115795.15, 0.000021891798, 9.999235, 9.998868 
3.8497612e+2, 1.2592897e+2, -1586660.8, -1719964.6, 42973.152, -0.085089654, -0.12880582, -1574008.4, 131874.77, 0.00011972094, 10.001135, 9.999405 
3.8498253e+2, 1.3592863e+2, -1288731.5, -1454900.6, -35163.49, 0.2153388, -0.19011776, -1281596.8, 326285.56, 0.000060093465, 10.002215, 10.000042 
3.849879e+2, 1.459278e+2, -1334316.4, -1580647.1, 50357.465, 0.32106385, -0.20487064, -1324419.4, 185472.88, 0.000021868578, 10.001896, 9.998649 
3.849883e+2, 1.5592763e+2, -1405573.8, -1548532.6, 56556.934, -0.16364978, -0.09809456, -1385905.0, 25994.512, 0.000004862859, 10.000673, 9.998786 
3.8499266e+2, 1.659278e+2, -1179406.3, -1156087.6, -43345.938, -0.13757984, -0.07148638, -1122860.4, 191035.58, 0.00000029520132, 10.000537, 10.000879 
3.849994e+2, 1.7592818e+2, -1017208.44, -1060255.8, -117701.24, 0.21512938, -0.13435258, -919079.06, 296806.03, 0.0, 10.001123, 10.00058 
3.8500392e+2, 1.8592753e+2, -1086540.4, -1369840.0, -70404.39, 0.2668745, -0.09689977, -1070008.5, 47884.9, 0.0, 10.001392, 9.997646 
3.8500714e+2, 1.9592597e+2, -979121.8, -1258540.8, -34077.258, 0.122954756, -0.03243732, -975025.9, 44890.99, 0.0, 10.0014105, 9.997733 
3.850118e+2, 2.0592412e+2, -899498.3, -1049125.4, 18673.477, 0.08021166, -0.047005784, -897203.1, 24735.129, 0.0, 10.000767, 9.998811 
3.8501737e+2, 2.1592203e+2, -963540.25, -1026703.56, 10849.709, 0.100005284, -0.1522801, -961728.5, -137769.95, 0.0, 9.9996395, 9.998837 
3.8502187e+2, 2.2592138e+2, -778912.7, -860926.1, -66024.05, 0.14936915, -0.111232184, -742197.3, -16232.878, 0.0, 10.000131, 9.99906 
3.8502568e+2, 2.3592168e+2, -445944.03, -649902.25, -63826.453, 0.22527827, -0.0023720893, -427617.03, 200343.67, 0.0, 10.001749, 9.999055 
3.8503104e+2, 2.4592006e+2, -420301.34, -602032.06, 73891.81, 0.21040034, -0.061723772, -394049.2, 135925.22, 0.0, 10.001316, 9.998919 
3.8503745e+2, 2.55917e+2, -600846.9, -646241.6, 39961.664, 0.12801926, -0.2702213, -577586.56, -145585.53, 0.0, 9.999432, 9.998852 
3.8504264e+2, 2.65916e+2, -510066.75, -585336.44, -76292.02, 0.12910338, -0.23887739, -462631.9, -128620.97, 0.0, 9.999535, 9.998544 
3.8504693e+2, 2.7591634e+2, -201723.39, -387331.38, -54656.543, 0.19623472, -0.07318032, -186824.47, 49184.77, 0.0, 10.000988, 9.998529 
3.8505244e+2, 2.8591514e+2, -99880.89, -320675.16, 35873.348, 0.25140175, -0.031631213, -94198.64, 43823.89, 0.000000026095549, 10.001153, 9.9982395 
3.8505864e+2, 2.959127e+2, -111926.79, -274544.66, 30438.152, 0.29687196, -0.11107577, -106416.234, -66369.445, 0.0000006696504, 10.000393, 9.998248 
3.8506275e+2, 3.0591133e+2, -96007.26, -238522.78, -3694.6514, 0.2255255, -0.07337614, -95911.54, -95911.54, 0.0000049598348, 10.000156, 9.998281 
3.8506284e+2, 3.1591177e+2, -18865.873, -82415.82, 4963.8667, -0.1562784, 0.12725188, -18480.482, -18480.482, 0.000021460863, 10.000144, 9.999361 
3.9497784e+2, 1.2592363e+2, -1587552.4, -1722085.3, 98349.58, -0.058289155, -0.23068543, -1535665.9, 170266.44, 0.0001233599, 10.00115, 9.999381 
3.9498284e+2, 1.3592562e+2, -1280903.1, -1441405.5, -16.373177, 0.011105283, -0.062473323, -1280903.1, 327008.1, 0.00006261113, 10.00224, 10.000118 
3.9498806e+2, 1.4592518e+2, -1296935.8, -1509779.4, -2188.9338, 0.13281016, -0.0647232, -1296913.3, 213001.92, 0.000023583854, 10.001916, 9.99913 
3.9499006e+2, 1.5592325e+2, -1378008.8, -1503593.9, 22692.316, -0.07705196, -0.18472913, -1374034.1, 37900.855, 0.000005569423, 10.000719, 9.999075 
3.9499468e+2, 1.6592214e+2, -1317095.4, -1441985.8, -29141.709, -0.0019901532, -0.1933168, -1310630.3, 3317.151, 0.00000035120044, 10.00054, 9.998915 
3.9500073e+2, 1.7592171e+2, -1133964.9, -1301248.3, -92584.18, 0.22326155, -0.14311437, -1092835.8, 123117.555, 0.0, 10.00112, 9.998926 
3.950044e+2, 1.8592073e+2, -1017825.75, -1219039.9, -73854.73, 0.15962733, -0.11927539, -993627.75, 124335.79, 0.0, 10.001354, 9.998702 
3.950066e+2, 1.9591923e+2, -915802.4, -1115816.0, -32374.46, -0.08642232, -0.15452409, -910692.75, 109285.664, 0.0, 10.001365, 9.998734 
3.9501107e+2, 2.0591825e+2, -897161.5, -1029801.5, -30212.93, -0.077811025, -0.13612343, -890603.8, 31386.441, 0.0, 10.000708, 9.998971 
3.9501703e+2, 2.1591766e+2, -965682.7, -1010502.1, -17070.188, 0.092628025, -0.107137345, -959921.75, -135921.86, 0.0, 9.999558, 9.998983 
3.950221e+2, 2.2591776e+2, -800213.7, -891696.6, -8759.419, 0.14955135, 0.011811203, -799382.5, -73381.83, 0.0, 10.00007, 9.998881 
3.9502648e+2, 2.3591821e+2, -467561.84, -681728.3, -8521.853, 0.121360295, 0.15499677, -467223.28, 160773.31, 0.0, 10.001691, 9.998866 
3.9503142e+2, 2.4591608e+2, -459410.56, -672647.7, -2230.0784, 0.10865282, 0.07830667, -459387.22, 70628.24, 0.0, 10.001272, 9.998454 
3.9503685e+2, 2.5591204e+2, -633764.3, -703180.7, -13322.052, 0.107273914, -0.18431771, -631295.44, -199244.3, 0.0, 9.999379, 9.998488 
3.9504248e+2, 2.6591057e+2, -482393.8, -514371.25, -23979.137, 0.15050456, -0.21128824, -469561.72, -135496.95, 0.0, 9.999478, 9.999059 
3.950484e+2, 2.7591074e+2, -175052.77, -320641.88, 74.44193, 0.22922717, -0.11163339, -175052.72, 61011.215, 0.0, 10.000937, 9.999014 
3.9505306e+2, 2.8591037e+2, -98240.97, -305968.75, 2278.785, 0.18702777, -0.012778832, -98215.97, 39853.87, 0.000000010243951, 10.00111, 9.998361 
3.950567e+2, 2.9590964e+2, -109798.29, -251926.34, 12982.757, 0.049236707, 0.060791757, -108622.11, -68541.75, 0.00000051187845, 10.000316, 9.998443 
3.950621e+2, 3.059076e+2, -30098.357, -91266.62, -5053.92, 0.13441122, -0.030118177, -29683.598, -29683.598, 0.0000058228006, 10.000112, 9.999311 
3.950659e+2, 3.1590512e+2, 54699.203, 91529.625, 9530.069, 0.109997734, -0.22327177, 93849.47, 93849.47, 0.00002601799, 10.000064, 10.000588 
4.049804e+2, 1.2591818e+2, -1447915.0, -1644356.8, 33129.273, 0.04304525, -0.22944811, -1442478.3, 263508.0, 0.00012458346, 10.00204, 9.999494 
4.0498322e+2, 1.3592023e+2, -1626957.1, -1598610.0, -112485.39, -0.047942042, -0.06164946, -1499408.8, 108556.44, 0.00006386204, 9.999807, 10.000217 
4.0498808e+2, 1.459204e+2, -1588808.3, -1552312.8, -61776.805, 0.06590018, -0.056428485, -1506145.1, 3815.8926, 0.000024485202, 9.999494, 10.000004 
4.0499198e+2, 1.5591854e+2, -1340215.0, -1407790.8, -19595.021, 0.051731113, -0.2549514, -1334944.1, 77031.31, 0.000005781208, 10.00064, 9.999772 
4.0499657e+2, 1.6591723e+2, -1308222.6, -1545270.5, 5547.456, 0.109453626, -0.26057377, -1308092.9, 5898.1914, 0.0000003430959, 10.001076, 9.99794 
4.0500104e+2, 1.7591648e+2, -1216923.8, -1435525.4, -1699.2423, 0.1538521, -0.14689346, -1216910.5, -904.8355, 0.0, 10.000963, 9.998076 
4.0500462e+2, 1.8591535e+2, -1075408.8, -1180637.3, 21433.451, 0.08358967, -0.13407429, -1071210.6, 46806.69, 0.0, 10.00067, 9.999297 
4.0500778e+2, 1.9591372e+2, -1045265.5, -1120977.1, 20910.213, -0.04330953, -0.24004044, -1039874.3, -19845.316, 0.0, 10.000223, 9.999254 
4.0501204e+2, 2.059132e+2, -967485.5, -1080116.0, -2884.0146, -0.027204104, -0.1887629, -967411.7, -45376.027, 0.0, 10.000303, 9.998818 
4.0501702e+2, 2.159135e+2, -808123.6, -955087.0, -22127.848, 0.08264907, -0.055408783, -804864.2, 19174.816, 0.0, 10.000729, 9.998801 
4.050221e+2, 2.2591308e+2, -705784.44, -862533.3, 23564.836, 0.11340567, 0.028837733, -702318.5, 23726.666, 0.0, 10.000794, 9.998728 
4.050272e+2, 2.3591208e+2, -634442.5, -780393.6, 9722.5, 0.08321225, 0.043710414, -633797.7, -5743.5576, 0.0, 10.000623, 9.998703 
4.0503213e+2, 2.459102e+2, -541608.0, -707371.3, -4764.7524, 0.08417554, -0.0016014054, -541471.1, -11400.174, 0.0, 10.000683, 9.998502 
4.0503696e+2, 2.5590774e+2, -408332.88, -585137.44, 15320.459, 0.11047115, -0.1157311, -407015.16, 25077.967, 0.0, 10.000899, 9.99856 
4.0504274e+2, 2.659063e+2, -299972.0, -447633.44, 50385.78, 0.16315868, -0.13165466, -284417.56, 49689.6, 0.0, 10.000819, 9.998872 
4.050492e+2, 2.759054e+2, -246813.44, -372938.63, 8974.425, 0.24091807, -0.12149298, -246178.06, -10060.654, 0.0, 10.000514, 9.99886 
4.0505344e+2, 2.8590506e+2, -267437.9, -339923.47, -38904.67, 0.18717523, -0.034707263, -250510.1, -112387.46, 0.0000000008315615, 9.999742, 9.998785 
4.050561e+2, 2.9590514e+2, -321408.53, -302312.34, -11455.773, 0.04275245, 0.076351665, -296947.3, -256823.23, 0.00000071034475, 9.998643, 9.998897 
4.0506187e+2, 3.0590287e+2, -170325.58, -124891.3, 19720.385, 0.15878613, -0.07924447, -117525.85, -117525.85, 0.0000094188645, 9.998994, 9.999621 
4.050668e+2, 3.1589985e+2, 132259.81, 177860.39, -44355.58, 0.18418673, -0.36136422, 204932.66, 204932.66, 0.00003801625, 10.000357, 10.001048 
4.1498336e+2, 1.259125e+2, -1414529.8, -1595529.1, -43308.01, 0.09905169, -0.13209967, -1404701.0, 301344.72, 0.00012201354, 10.002124, 9.999787 
4.149834e+2, 1.3591264e+2, -1602046.8, -1563146.0, -184961.55, -0.02942855, -0.17221999, -1396614.9, 211427.45, 0.00006271878, 9.999868, 10.000433 
4.1498762e+2, 1.4591345e+2, -1498399.9, -1367475.6, -22837.9, 0.053736653, -0.17903922, -1363606.3, 146422.75, 0.000024127196, 9.999513, 10.001263 
4.14994e+2, 1.5591355e+2, -1257842.0, -1236199.5, 26882.732, 0.17125188, -0.3092852, -1218041.8, 193978.73, 0.0000053776757, 10.000644, 10.000945 
4.1499817e+2, 1.6591312e+2, -1314848.5, -1555958.6, -3421.7312, 0.14645693, -0.27718422, -1314800.0, -773.1043, 0.0000002359893, 10.0010605, 9.997875 
4.150001e+2, 1.7591251e+2, -1216435.9, -1439267.9, -938.3742, -0.052018948, -0.14157933, -1216432.0, -390.08548, 0.0, 10.000982, 9.998041 
4.1500434e+2, 1.8591128e+2, -1065095.3, -1158575.1, -221.47185, -0.024998005, -0.14394598, -1065094.8, 52960.13, 0.0, 10.000669, 9.999449 
4.1501042e+2, 1.9590946e+2, -1042629.94, -1107027.3, 11511.628, 0.18642607, -0.28660384, -1040634.0, -20565.88, 0.0, 10.000191, 9.999362 
4.1501456e+2, 2.0590906e+2, -1009927.0, -1160971.3, 8539.454, 0.18247454, -0.20119989, -1009445.75, -87371.86, 0.0, 10.000262, 9.998287 
4.150172e+2, 2.1590959e+2, -848832.56, -1027281.56, -3133.5413, 0.012357231, 0.0071484484, -848777.56, -24702.217, 0.0, 10.000673, 9.998333 
4.1502172e+2, 2.2590739e+2, -727440.4, -894351.8, 13075.625, -0.017108057, -0.055576, -726422.25, -324.96664, 0.0, 10.000738, 9.998537 
4.1502762e+2, 2.359032e+2, -650268.1, -800653.7, 10991.799, 0.050167717, -0.3420013, -649469.0, -21334.88, 0.0, 10.0005665, 9.99859 
4.1503286e+2, 2.4590243e+2, -508636.8, -626795.56, 95.41715, 0.0760865, -0.3038078, -508636.72, 21504.379, 0.0, 10.000634, 9.999074 
4.1503763e+2, 2.55904e+2, -385458.94, -524687.3, 27527.645, 0.0754576, -0.071584046, -380213.88, 51913.953, 0.0, 10.000842, 9.999002 
4.1504315e+2, 2.6590312e+2, -364323.84, -570145.2, 34181.78, 0.1125428, -0.0068593356, -358795.6, -24656.371, 0.0, 10.000779, 9.998046 
4.1504914e+2, 2.759004e+2, -306545.28, -480178.47, 2449.5576, 0.16989814, -0.09791762, -306510.75, -70341.57, 0.0, 10.000447, 9.998154 
4.1505337e+2, 2.8589928e+2, -217114.94, -235442.34, -85081.08, 0.19298375, -0.09493511, -140705.5, -2525.2458, 0.00000000001177225, 9.999735, 9.999508 
4.1505644e+2, 2.9589933e+2, -282389.88, -212638.98, -38828.902, 0.19764186, -0.05950321, -195322.66, -155144.8, 0.0000013022876, 9.9986, 9.999535 
4.1506174e+2, 3.0589718e+2, -194744.02, -171641.53, 69167.61, 0.23523572, -0.21261898, -113067.25, -113067.25, 0.000014524035, 9.998981, 9.999305 
4.1506526e+2, 3.15896e+2, 101898.24, 142826.14, 9880.598, -0.036705937, -0.28323263, 145086.61, 145086.61, 0.000053920798, 10.000245, 10.000858 
4.2498556e+2, 1.2590896e+2, -1490342.8, -1632268.3, 165455.73, 0.13901308, -0.1268407, -1381274.1, 324803.16, 0.000114420596, 10.001598, 9.99979 
4.2498472e+2, 1.3590759e+2, -1456326.1, -1522070.1, -34800.652, 0.062403936, -0.29501015, -1441326.9, 166761.84, 0.00005866896, 10.000988, 10.000176 
4.2498806e+2, 1.459086e+2, -1294077.6, -1299953.3, 136907.8, 0.073285535, -0.25594932, -1160076.1, 349999.1, 0.00002226237, 10.001042, 10.00099 
4.24995e+2, 1.5590964e+2, -1161855.4, -1212128.5, 50632.305, 0.17616439, -0.26502338, -1130463.4, 281596.84, 0.0000044458184, 10.001395, 10.000751 
4.2499924e+2, 1.6590957e+2, -1270725.1, -1468638.6, -25317.129, 0.14908892, -0.21966895, -1267537.9, 46524.668, 0.00000009724189, 10.001076, 9.998468 
4.2500073e+2, 1.7590885e+2, -1273804.0, -1406258.8, 17628.523, -0.053900003, -0.15682608, -1271497.9, -55422.1, 0.0, 10.000324, 9.998587 
4.2500502e+2, 1.8590781e+2, -1139538.8, -1196161.3, 48933.445, 0.0041680257, -0.16386439, -1111316.8, 6769.33, 0.0, 10.000173, 9.999426 
4.2501158e+2, 1.9590639e+2, -1015773.56, -1098571.1, 40435.625, 0.27450168, -0.26181844, -999302.7, 20793.467, 0.0, 10.0004, 9.999315 
4.2501575e+2, 2.0590559e+2, -928354.25, -1127927.6, 83132.984, 0.24894318, -0.21213172, -898262.25, 23842.846, 0.0, 10.000855, 9.998222 
4.250181e+2, 2.1590514e+2, -740350.44, -981457.06, 90587.016, 0.0014292699, -0.093502425, -710108.8, 114005.37, 0.0, 10.001449, 9.99827 
4.2502242e+2, 2.2590289e+2, -650622.56, -845664.44, 106922.25, -0.04259742, -0.16557567, -603427.56, 122708.516, 0.0, 10.001213, 9.998644 
4.2502815e+2, 2.3589934e+2, -675169.06, -803642.06, 116442.6, 0.05840408, -0.3990359, -606419.8, 21747.213, 0.0, 10.00036, 9.99867 
4.2503336e+2, 2.4589865e+2, -619920.8, -721804.8, 105728.086, 0.094337754, -0.3367492, -553502.2, -23327.193, 0.0, 10.000042, 9.9987135 
4.2503825e+2, 2.5589985e+2, -512067.9, -622318.6, 53723.027, 0.09027067, -0.10290311, -490219.47, -58051.598, 0.0, 10.000122, 9.998685 
4.2504352e+2, 2.6589906e+2, -474890.7, -603641.5, 68778.03, 0.118127614, -0.025372235, -445060.97, -110882.12, 0.0, 9.9999275, 9.998233 
4.250491e+2, 2.7589673e+2, -426843.7, -519677.97, 103011.02, 0.1724467, -0.09589079, -360274.9, -124071.34, 0.0, 9.999542, 9.99832 
4.2505294e+2, 2.8589532e+2, -207963.38, -281253.84, 19481.45, 0.16693519, -0.10637016, -203106.8, -64889.17, 0.0000000012455732, 10.000021, 9.999052 
4.250556e+2, 2.9589453e+2, 56024.07, -97943.086, -36014.92, 0.1310929, -0.10944741, 64031.938, 104256.64, 0.0000019825331, 10.001126, 9.999111 
4.250614e+2, 3.0589247e+2, 18693.393, -69734.68, 51004.285, 0.23620155, -0.23443107, 41979.86, 41979.86, 0.000019596095, 10.000457, 9.999298 
4.2506564e+2, 3.1589332e+2, -163159.14, -14080.474, -13868.612, 0.069873765, -0.09543007, -12801.2705, -12801.2705, 0.00006922057, 9.998567, 10.000588 
4.349865e+2, 1.2590763e+2, -1506018.5, -1668759.0, 146910.39, 0.040061817, -0.20944051, -1419449.0, 286631.03, 0.00010246441, 10.001631, 9.999518 
4.349871e+2, 1.3590513e+2, -1500122.8, -1620707.5, -46717.184, 0.18337657, -0.43229815, -1484141.5, 123962.22, 0.000052240124, 10.001026, 9.999481 
4.3498927e+2, 1.4590578e+2, -1422554.1, -1571155.5, 150089.58, 0.07316909, -0.2949262, -1329381.0, 180718.97, 0.000019361623, 10.00106, 9.999123 
4.349948e+2, 1.5590681e+2, -1265953.9, -1439312.8, 66569.85, -0.0039324104, -0.1215279, -1243340.6, 168754.25, 0.0000034941986, 10.001438, 9.999172 
4.349995e+2, 1.6590653e+2, -1179758.3, -1281296.5, -59917.72, 0.050669823, -0.09403392, -1151993.0, 162105.53, 0.000000032016867, 10.001083, 9.999749 
4.3500268e+2, 1.7590545e+2, -1191901.1, -1237983.9, -1786.5542, 0.0943335, -0.19327101, -1191832.0, 24275.252, 0.0, 10.000329, 9.999741 
4.3500644e+2, 1.8590489e+2, -1161362.0, -1231623.0, 53228.57, 0.117174454, -0.19541712, -1132716.1, -14605.077, 0.0, 10.0001335, 9.999201 
4.3501103e+2, 1.959045e+2, -1032207.3, -1124574.8, 55149.13, 0.16598862, -0.1695618, -1006458.0, 13655.01, 0.0, 10.000368, 9.999151 
4.3501547e+2, 2.059028e+2, -912483.94, -1080101.9, 100043.13, 0.122880645, -0.22166641, -865784.0, 56345.203, 0.0, 10.000793, 9.998579 
4.3501958e+2, 2.1590014e+2, -724933.9, -933880.7, 112928.35, -0.0063391216, -0.3605915, -675564.8, 148590.97, 0.0, 10.001385, 9.998626 
4.35024e+2, 2.2589959e+2, -636994.5, -797622.3, 68270.41, -0.017325157, -0.29592833, -611898.9, 114262.55, 0.0, 10.001131, 9.999013 
4.3502858e+2, 2.3590045e+2, -669018.2, -775283.5, 90307.49, 0.056826882, -0.12618282, -617372.4, 10780.933, 0.0, 10.000294, 9.998896 
4.3503347e+2, 2.4589881e+2, -715557.25, -911522.44, 103093.875, 0.09161835, -0.097962946, -671311.4, -141138.4, 0.0, 10.000003, 9.997431 
4.3503848e+2, 2.5589538e+2, -594105.2, -781008.0, 59979.695, 0.09226037, -0.20318106, -576512.75, -144299.88, 0.0, 10.000071, 9.997621 
4.3504363e+2, 2.6589417e+2, -393038.66, -428470.4, 50279.844, 0.12637699, -0.18444161, -357444.9, -23219.074, 0.0, 9.999906, 9.999446 
4.3504888e+2, 2.758944e+2, -364120.88, -381575.8, 98289.28, 0.18300268, -0.11779026, -274172.38, -37951.4, 0.0, 9.999504, 9.999288 
4.3505198e+2, 2.8589314e+2, -324305.28, -517457.13, 56934.5, 0.05290742, -0.07196879, -308772.13, -170536.63, 0.000000012355592, 10.0, 9.997439 
4.3505347e+2, 2.9589075e+2, -57366.246, -320567.9, 3140.3796, -0.20781527, -0.07144711, -57328.785, -17064.527, 0.0000027659546, 10.001071, 9.99761 
4.3506074e+2, 3.0588868e+2, 34716.92, -33693.957, -24097.752, 0.11105173, -0.14249244, 42353.016, 42353.016, 0.000024042205, 10.000441, 9.999554 
4.3506747e+2, 3.158916e+2, -203509.19, -79935.29, -64069.777, 0.37457663, 0.1823994, -52713.453, -52713.453, 0.00008111006, 9.998494, 10.000168 
4.4498843e+2, 1.2590621e+2, -1614380.1, -1786555.3, 144062.72, 0.09799056, -0.27430668, -1532643.0, 173443.67, 0.000089493355, 10.001188, 9.9989195 
4.4498855e+2, 1.3590394e+2, -1485341.1, -1703918.8, -100593.52, 0.2075965, -0.3905908, -1446093.4, 162019.19, 0.000044922584, 10.001532, 9.998664 
4.4498947e+2, 1.4590402e+2, -1481876.3, -1657220.8, 147921.95, -0.0018040726, -0.24460351, -1397597.0, 112519.86, 0.00001621496, 10.000907, 9.998603 
4.44995e+2, 1.5590402e+2, -1587674.6, -1640639.6, 154831.06, -0.022497099, -0.124827206, -1457077.6, -44954.813, 0.0000027558995, 9.999437, 9.998753 
4.4500026e+2, 1.6590333e+2, -1328850.1, -1324497.5, 77495.18, 0.083094686, -0.13346389, -1249148.1, 64981.027, 0.000000035556127, 9.999931, 10.000011 
4.450043e+2, 1.7590235e+2, -965272.4, -1105757.5, 45873.555, 0.15296878, -0.2500224, -951619.75, 264514.47, 0.0, 10.001794, 9.99994 
4.450076e+2, 1.8590179e+2, -907655.3, -1164693.6, 38810.418, 0.12522328, -0.23287566, -901923.1, 216215.47, 0.0, 10.002103, 9.998716 
4.4501096e+2, 1.9590133e+2, -930856.4, -1119672.5, 10984.677, 0.08223713, -0.16511701, -930219.5, 89924.97, 0.0, 10.001245, 9.998767 
4.450155e+2, 2.0589969e+2, -914426.94, -1024293.8, 74552.4, 0.06494933, -0.22233632, -876755.06, 45404.96, 0.0, 10.00054, 9.999083 
4.450207e+2, 2.1589716e+2, -908325.6, -972296.4, 87235.75, 0.04371345, -0.3959016, -847396.3, -23213.367, 0.0, 9.99991, 9.999075 
4.4502524e+2, 2.2589713e+2, -804190.56, -870107.5, 39070.883, 0.057899404, -0.3045343, -786033.5, -59849.47, 0.0, 9.999948, 9.999082 
4.4502938e+2, 2.3589876e+2, -640388.6, -755266.56, 29923.725, 0.10197155, -0.06499845, -633061.4, -4890.3174, 0.0, 10.000461, 9.998953 
4.450339e+2, 2.4589714e+2, -612888.2, -839640.44, 111760.61, 0.10727825, -0.04859391, -567064.5, -36874.785, 0.0, 10.000614, 9.997624 
4.4503865e+2, 2.558932e+2, -517410.66, -727010.25, 166526.4, 0.07892311, -0.22268863, -425451.63, 6779.616, 0.0, 10.000528, 9.9977665 
4.450435e+2, 2.658916e+2, -356433.25, -454569.56, 130247.98, 0.10193933, -0.22826946, -266317.28, 67930.48, 0.0, 10.000347, 9.999051 
4.450485e+2, 2.7589154e+2, -302072.2, -394791.06, 54078.33, 0.16855879, -0.15121804, -277201.97, -40954.125, 0.0, 10.000117, 9.9989 
4.4505206e+2, 2.8589034e+2, -333686.0, -538468.75, 63950.52, 0.06450225, -0.07408251, -315355.94, -177093.11, 0.00000003062236, 10.000002, 9.997295 
4.4505447e+2, 2.9588825e+2, -233678.94, -413867.22, 99572.18, -0.1525178, -0.03256452, -189491.39, -149202.55, 0.0000032981313, 9.999906, 9.997524 
4.450611e+2, 3.058862e+2, -94887.945, -81092.57, 66790.48, 0.15543246, -0.10327261, -20844.553, -20844.553, 0.000027025699, 9.99948, 9.999687 
4.4506544e+2, 3.158882e+2, -186578.88, -121919.766, 10288.418, 0.3074292, 0.11563501, -120322.17, -120322.17, 0.00008860118, 9.998802, 9.999735 
4.5499107e+2, 1.2590478e+2, -1672175.1, -1917845.6, 139220.98, 0.2048446, -0.31874385, -1609346.8, 96749.89, 0.00007906838, 10.001241, 9.997992 
4.5498875e+2, 1.3590395e+2, -1549131.6, -1847795.4, -86349.766, 0.05429056, -0.17315532, -1525963.4, 82152.555, 0.00003857364, 10.00158, 9.997655 
4.5498833e+2, 1.459032e+2, -1413798.9, -1523840.8, 90691.91, -0.22436987, -0.11169108, -1362742.9, 147384.0, 0.000013268856, 10.000942, 9.9995 
4.5499542e+2, 1.5590128e+2, -1532049.3, -1529813.3, 118915.19, 0.059448116, -0.2725614, -1412010.8, 132.73354, 0.0000020825275, 9.999461, 9.999498 
4.5500147e+2, 1.6590004e+2, -1378642.6, -1432579.1, 141488.83, 0.1907768, -0.33050424, -1261574.9, 52578.723, 0.00000004449902, 9.999948, 9.999263 
4.550054e+2, 1.7589943e+2, -1013883.5, -1214964.9, 112137.52, 0.06933178, -0.3340778, -963814.56, 252342.97, 0.0, 10.001822, 9.999178 
4.5500833e+2, 1.8589842e+2, -965019.56, -1274573.3, 2674.0889, -0.02420719, -0.28664494, -964996.44, 153173.5, 0.0, 10.002069, 9.997974 
4.550111e+2, 1.9589692e+2, -981409.25, -1214089.1, -14564.078, -0.0427261, -0.24909881, -980501.2, 39689.125, 0.0, 10.0012045, 9.998134 
4.5501566e+2, 2.0589627e+2, -880042.8, -936993.2, 43943.438, 0.013090788, -0.21126899, -856155.2, 66042.27, 0.0, 10.00047, 9.999716 
4.5502123e+2, 2.1589619e+2, -879322.6, -892471.9, 72569.49, 0.09570507, -0.20453665, -813030.56, 11165.1455, 0.0, 9.999827, 9.9996605 
4.5502603e+2, 2.2589551e+2, -831452.7, -910868.9, 54631.17, 0.13121396, -0.1933148, -803623.44, -77419.69, 0.0, 9.999878, 9.9988365 
4.550303e+2, 2.358943e+2, -651712.06, -767861.2, 53742.113, 0.13664362, -0.2152452, -630660.94, -2441.249, 0.0, 10.000412, 9.99889 
4.5503446e+2, 2.4589361e+2, -504325.47, -603734.25, 103485.18, 0.08880527, -0.18992779, -439226.94, 90998.09, 0.0, 10.00057, 9.999267 
4.550385e+2, 2.558933e+2, -433234.66, -535833.4, 167460.03, -0.0007930601, -0.16621211, -309392.7, 122830.85, 0.0, 10.000459, 9.999113 
4.55043e+2, 2.658913e+2, -501416.78, -746775.8, 118750.76, 0.004088129, -0.15911575, -453356.72, -119111.59, 0.0, 10.00031, 9.997062 
4.5504785e+2, 2.7588817e+2, -429529.6, -648074.75, 53898.324, 0.07535024, -0.19774349, -416959.97, -180675.88, 0.0, 10.000069, 9.997184 
4.5505303e+2, 2.8588697e+2, -246885.86, -349886.06, 56813.063, 0.14979844, -0.11444924, -221704.89, -83405.695, 0.000000022691747, 9.999964, 9.998611 
4.5505834e+2, 2.95887e+2, -154422.3, -237524.72, 101581.29, 0.23022304, 0.012252587, -86222.6, -45924.24, 0.0000033719941, 9.999848, 9.998768 
4.550623e+2, 3.05885e+2, -97824.96, -75618.016, 41049.15, 0.31492537, -0.11912293, -44197.14, -44197.14, 0.000028147611, 9.999441, 9.999741 
4.550593e+2, 3.1588316e+2, -228860.1, -185949.0, 10818.167, -0.21256752, -0.28372, -183375.95, -183375.95, 0.00009108323, 9.998711, 9.999337 
4.6499178e+2, 1.2590137e+2, -1667160.3, -1847126.8, 39168.285, 0.17411283, -0.41319102, -1659005.1, 47123.992, 0.000072079085, 10.000966, 9.998613 
4.6499014e+2, 1.3590191e+2, -1541054.8, -1796895.6, -64711.316, 0.053495813, -0.18188322, -1525618.3, 82516.13, 0.000033639506, 10.001414, 9.998092 
4.649892e+2, 1.4590122e+2, -1277263.3, -1460254.3, 103271.65, -0.27614534, -0.13423568, -1230786.1, 279357.7, 0.000010536622, 10.001882, 9.999487 
4.6499667e+2, 1.5589902e+2, -1149786.9, -1349588.5, 49376.547, 0.11267202, -0.32250053, -1138250.6, 273911.6, 0.0000014175026, 10.002093, 9.999471 
4.6500257e+2, 1.6589783e+2, -1184636.1, -1358102.5, 115969.53, 0.23900259, -0.3648524, -1126553.6, 187618.66, 0.000000030371112, 10.001375, 9.999082 
4.6500596e+2, 1.758974e+2, -1282012.4, -1359937.0, 118262.016, 0.03140376, -0.3322708, -1196459.8, 19716.191, 0.0, 10.000055, 9.999035 
4.6500912e+2, 1.8589637e+2, -1212096.5, -1369729.0, 76636.125, -0.05892168, -0.2935916, -1180980.5, -62791.37, 0.0, 10.000273, 9.998186 
4.6501273e+2, 1.9589472e+2, -922740.8, -1170052.4, 117989.33, -0.013446726, -0.2892599, -875480.75, 144729.78, 0.0, 10.001537, 9.99828 
4.6501693e+2, 2.0589441e+2, -741861.56, -894916.2, 146488.63, 0.047493093, -0.21334459, -653115.3, 269100.5, 0.0, 10.001518, 9.9995 
4.650214e+2, 2.1589497e+2, -784655.25, -870553.44, 101093.76, 0.09671353, -0.12071798, -717765.5, 106444.73, 0.0, 10.000575, 9.999452 
4.65026e+2, 2.2589411e+2, -808084.7, -897360.3, 109183.52, 0.13628277, -0.1193562, -734766.7, -8546.389, 0.0, 10.000033, 9.99885 
4.650308e+2, 2.3589209e+2, -736037.9, -803801.4, 116696.52, 0.17611073, -0.22130196, -648404.0, -20161.516, 0.0, 9.999818, 9.998926 
4.6503523e+2, 2.458913e+2, -543788.56, -585061.2, 132042.61, 0.13097127, -0.22883639, -430779.44, 99468.23, 0.0, 10.000134, 9.999606 
4.650393e+2, 2.558913e+2, -358256.7, -467342.78, 87355.77, 0.0218222, -0.20734619, -309814.4, 122427.37, 0.0, 10.00083, 9.999406 
4.6504366e+2, 2.6588973e+2, -426209.7, -726686.56, 65166.914, 0.0165217, -0.16501674, -412685.16, -78425.32, 0.0, 10.000885, 9.996928 
4.6504822e+2, 2.7588707e+2, -378123.3, -630541.6, 127353.945, 0.08969424, -0.14158866, -325034.44, -88738.63, 0.0, 10.000448, 9.997125 
4.6505308e+2, 2.8588575e+2, -212307.77, -277722.34, 166983.31, 0.16175094, -0.09365973, -74858.664, 63452.832, 0.00000001636591, 9.999961, 9.999108 
4.6505806e+2, 2.9588532e+2, -170954.23, -187089.44, 138401.75, 0.2377927, -0.06679978, -40385.145, -71.84174, 0.0000038591365, 9.999483, 9.999288 
4.6506172e+2, 3.0588415e+2, -112384.99, -52792.973, 65989.36, 0.33110234, -0.14992096, -10184.579, -10184.579, 0.00002953643, 9.999204, 10.000023 
4.6505782e+2, 3.158823e+2, -178162.64, -129891.99, 53694.734, -0.23089008, -0.34056935, -95157.65, -95157.65, 0.00009247593, 9.998926, 9.999621 
4.7499004e+2, 1.2589595e+2, -1507471.3, -1517273.5, 15467.582, -0.13300008, -0.5558928, -1496146.9, 210037.92, 0.00006757851, 10.000984, 10.000859 
4.749927e+2, 1.3589787e+2, -1403355.8, -1511700.9, -39113.723, 0.15046169, -0.40825582, -1390711.0, 217456.0, 0.000029630666, 10.001427, 10.000035 
4.7499192e+2, 1.458981e+2, -1336804.5, -1592359.5, 111503.29, -0.21173969, -0.30704316, -1294994.1, 215173.05, 0.00000816001, 10.00191, 9.99857 
4.749985e+2, 1.558972e+2, -1197430.4, -1459652.8, 58371.55, 0.06656793, -0.27398726, -1185023.8, 227155.17, 0.0000009257674, 10.002139, 9.998696 
4.750034e+2, 1.6589662e+2, -1155309.9, -1298799.9, 59979.55, 0.16690402, -0.2418565, -1133540.8, 180645.03, 0.000000014696447, 10.001383, 9.999485 
4.7500566e+2, 1.758962e+2, -1247408.9, -1289512.5, 82874.18, -0.017314225, -0.24840881, -1182954.5, 33235.508, 0.0, 10.000065, 9.999511 
4.7500974e+2, 1.8589558e+2, -1132207.1, -1200100.5, 119967.836, -0.038083818, -0.25246254, -1041475.6, 76720.74, 0.0, 10.000254, 9.999362 
4.7501567e+2, 1.9589472e+2, -855360.0, -1027214.3, 163674.61, 0.11322375, -0.28632537, -756428.2, 263777.06, 0.0, 10.001521, 9.999271 
4.7501925e+2, 2.0589407e+2, -825015.0, -1055933.0, 106013.375, 0.115164004, -0.23008026, -783727.0, 138488.08, 0.0, 10.001469, 9.99842 
4.75021e+2, 2.1589352e+2, -860680.56, -1015495.75, 72287.56, -0.011951118, -0.14072503, -832175.8, -7949.4634, 0.0, 10.00052, 9.998484 
4.7502497e+2, 2.258929e+2, -795843.8, -862532.56, 96271.25, 0.017002176, -0.08450768, -727305.9, -1071.9203, 0.0, 9.999988, 9.999116 
4.7503063e+2, 2.3589215e+2, -735086.3, -785294.1, 116618.94, 0.16815181, -0.08390572, -640899.94, -12660.273, 0.0, 9.999744, 9.999091 
4.7503597e+2, 2.4589016e+2, -616651.44, -728361.94, 154551.72, 0.18137246, -0.16800079, -508171.53, 22086.45, 0.0, 10.000096, 9.998642 
4.7504094e+2, 2.5588715e+2, -419550.28, -584437.44, 116393.45, 0.088391654, -0.34802347, -359360.13, 72926.07, 0.0, 10.000777, 9.9986315 
4.7504538e+2, 2.658868e+2, -314752.28, -481187.78, 46030.227, 0.08493519, -0.24555892, -302870.22, 31421.852, 0.0, 10.000831, 9.998635 
4.750494e+2, 2.7588814e+2, -279674.75, -409574.47, 116841.17, 0.14873026, 0.013116456, -210944.61, 25339.115, 0.0, 10.000382, 9.998671 
4.7505203e+2, 2.8588662e+2, -235084.27, -323617.78, 144684.9, 0.04699163, -0.014874985, -128045.805, 10254.601, 0.0000000367379, 9.9999485, 9.998801 
4.7505352e+2, 2.9588303e+2, -196764.13, -233465.06, 128513.82, -0.179772, -0.27504423, -85297.25, -44962.402, 0.000004901276, 9.999437, 9.998999 
4.750592e+2, 3.0588365e+2, -83227.59, 21990.586, 52691.08, 0.15206063, -0.19904914, 43839.98, 43839.98, 0.000032485186, 9.999146, 10.000559 
4.750606e+2, 3.1588542e+2, -119516.42, 968.15155, 87761.38, 0.12441769, -0.07810023, 47173.94, 47173.94, 0.000096372605, 9.998882, 10.00054 
4.8498896e+2, 1.2589425e+2, -1730310.8, -1590495.9, 160087.05, -0.25127396, -0.50199425, -1485718.3, 220484.3, 0.00006360682, 9.999297, 10.001171 
4.8499453e+2, 1.3589588e+2, -1508109.8, -1528983.8, -24006.867, 0.24215914, -0.41866836, -1492369.3, 115816.336, 0.000025765483, 10.000545, 10.00035 
4.8499364e+2, 1.4589584e+2, -1496116.9, -1655550.6, 89819.96, -0.17005433, -0.36370596, -1455740.5, 54446.44, 0.000006126259, 10.000772, 9.998679 
4.8499948e+2, 1.558953e+2, -1500633.4, -1597024.1, 94113.59, 0.060596053, -0.30619806, -1443092.5, -30897.516, 0.0000005794279, 10.000025, 9.99877 
4.8500374e+2, 1.6589488e+2, -1359477.4, -1399848.6, 113611.445, 0.14172786, -0.25982875, -1264272.3, 49928.547, 0.0000000048834687, 9.9999895, 9.999466 
4.850056e+2, 1.7589445e+2, -1186881.1, -1259554.0, 101073.875, -0.046879794, -0.26406127, -1115810.6, 100395.65, 0.0, 10.000474, 9.99952 
4.8501006e+2, 1.8589418e+2, -1068850.8, -1125226.6, 130735.72, -0.03995049, -0.25708294, -963298.75, 154910.52, 0.0, 10.000498, 9.999754 
4.85017e+2, 1.9589391e+2, -1029126.4, -1070761.9, 105224.78, 0.16665336, -0.27285948, -942679.75, 77531.555, 0.0, 10.000161, 9.99962 
4.850208e+2, 2.0589316e+2, -999271.3, -1164892.5, 47692.85, 0.17614426, -0.23166753, -986519.4, -64297.066, 0.0, 10.000383, 9.998197 
4.8502213e+2, 2.1589194e+2, -805556.4, -1010864.5, 73611.57, 0.026379015, -0.18737216, -781891.3, 42349.406, 0.0, 10.000996, 9.998287 
4.8502576e+2, 2.2589117e+2, -581520.2, -753376.25, 130940.484, 0.027035968, -0.13896386, -510830.75, 215418.45, 0.0, 10.001434, 9.999168 
4.8503113e+2, 2.3589066e+2, -443117.06, -643465.56, 125118.93, 0.14459819, -0.12222808, -383011.47, 245240.06, 0.0, 10.001738, 9.9991045 
4.8503643e+2, 2.4588883e+2, -520621.94, -724994.3, 175475.03, 0.18098587, -0.16954008, -419747.78, 110522.336, 0.0, 10.000942, 9.998256 
4.8504168e+2, 2.55886e+2, -640066.1, -715893.7, 170170.17, 0.15689877, -0.29443732, -503637.34, -71336.57, 0.0, 9.999379, 9.998397 
4.850461e+2, 2.6588586e+2, -502187.53, -447599.03, 118636.49, 0.16625121, -0.21866168, -353157.53, -18854.553, 0.0, 9.999012, 9.999742 
4.8504996e+2, 2.7588746e+2, -335776.88, -324205.0, 136123.89, 0.2143399, -0.047452427, -193744.13, 42542.977, 0.0, 9.999506, 9.999681 
4.8505205e+2, 2.8588623e+2, -266854.97, -337548.13, 159152.38, 0.07138056, -0.09053941, -139171.3, -871.44257, 0.00000008825205, 9.999728, 9.998809 
4.8505273e+2, 2.958832e+2, -153364.47, -214942.67, 152939.78, -0.21290591, -0.29185098, -28145.418, 12185.488, 0.0000056074396, 9.999761, 9.998961 
4.8505887e+2, 3.0588415e+2, 15397.393, 25766.707, 69544.43, 0.16285719, -0.15615715, 90319.48, 90319.48, 0.000034672463, 10.000008, 10.000159 
4.8506168e+2, 3.15886e+2, 94335.91, 113124.91, 48570.9, 0.27556807, -0.0011189516, 153201.5, 153201.5, 0.000099448036, 10.000313, 10.00061 
4.9498808e+2, 1.2589625e+2, -1840228.6, -1826250.6, 146836.81, -0.30202267, -0.25866047, -1686236.6, 19946.023, 0.00005696404, 9.999339, 9.999531 
4.9499545e+2, 1.3589594e+2, -1596258.1, -1714253.0, 25755.701, 0.26161075, -0.21472606, -1590881.3, 17308.525, 0.00002106699, 10.000562, 9.999066 
4.9499413e+2, 1.4589448e+2, -1417161.0, -1497939.1, 59549.83, -0.2151495, -0.30343246, -1385595.5, 124607.54, 0.000004231548, 10.000795, 9.999751 
4.949994e+2, 1.5589336e+2, -1432751.3, -1459167.0, 74758.07, 0.03440958, -0.40961435, -1370043.3, 42166.504, 0.00000029436407, 10.000042, 9.999706 
4.9500358e+2, 1.6589269e+2, -1387598.5, -1460216.3, 126470.03, 0.10937863, -0.40840283, -1292328.5, 21887.992, 0.0000000005507737, 9.999993, 9.999051 
4.950056e+2, 1.7589222e+2, -1213253.4, -1316851.8, 121979.13, -0.10909574, -0.377675, -1132530.6, 83693.71, 0.0, 10.000484, 9.999122 
4.9500996e+2, 1.8589213e+2, -1099554.4, -1182841.6, 113358.24, -0.11576204, -0.3110207, -1020432.56, 97795.41, 0.0, 10.000472, 9.999372 
4.9501655e+2, 1.9589226e+2, -1051879.6, -1113462.8, 98836.35, 0.09081376, -0.251127, -979149.44, 41080.016, 0.0, 10.000138, 9.99934 
4.9502128e+2, 2.058916e+2, -959107.25, -1069070.3, 65641.97, 0.17805931, -0.22415292, -928462.6, -6224.55, 0.0, 10.000327, 9.998884 
4.9502453e+2, 2.158903e+2, -770242.7, -926291.2, 101165.6, 0.1575152, -0.25497285, -720508.4, 103744.27, 0.0, 10.00094, 9.998898 
4.9502814e+2, 2.2588895e+2, -604432.06, -784476.8, 139104.81, 0.10927656, -0.28440407, -528761.44, 197504.56, 0.0, 10.001366, 9.998986 
4.95032e+2, 2.3588751e+2, -465115.88, -671327.1, 135449.95, 0.047900032, -0.34051603, -397993.84, 230285.05, 0.0, 10.001663, 9.998949 
4.9503648e+2, 2.4588725e+2, -512394.06, -699207.1, 111489.54, 0.07348739, -0.23435685, -460354.03, 69930.61, 0.0, 10.000904, 9.998451 
4.9504122e+2, 2.5588766e+2, -630945.4, -686042.7, 122870.92, 0.15950795, -0.05238775, -532572.7, -100285.97, 0.0, 9.99933, 9.998627 
4.9504563e+2, 2.6588684e+2, -468831.0, -370136.94, 132337.77, 0.20696212, -0.088587314, -278245.13, 56048.645, 0.0, 9.998979, 10.000289 
4.9504972e+2, 2.7588493e+2, -310639.66, -255749.61, 160411.94, 0.22477324, -0.32459387, -120451.82, 115854.375, 0.0, 9.999438, 10.000183 
4.9505293e+2, 2.8588465e+2, -254480.81, -301915.94, 155453.47, 0.17367491, -0.3075822, -120946.01, 17362.629, 0.00000018947561, 9.999687, 9.999073 
4.9505544e+2, 2.958857e+2, -148067.45, -197107.77, 164201.4, 0.0657147, -0.12478707, -6565.4976, 33737.145, 0.000005616016, 9.999728, 9.999101 
4.9506047e+2, 3.0588564e+2, -78615.06, -163255.48, 78514.8, 0.3103764, -0.028784908, -31741.252, -31741.252, 0.000033520122, 9.999982, 9.998872 
4.9506053e+2, 3.1588382e+2, 24788.133, -8641.119, 106439.81, 0.100995444, -0.11619146, 115817.71, 115817.71, 0.000095768366, 10.000218, 9.999816 
5.0498843e+2, 1.2589502e+2, -1743164.6, -1791541.3, 3509.4, -0.23645592, -0.19263303, -1742911.4, -36717.23, 0.000046012723, 10.000082, 9.999403 
5.04996e+2, 1.358941e+2, -1808971.8, -1816979.6, 33788.66, 0.3425868, -0.20582467, -1778950.6, -170743.45, 0.000015500982, 9.999095, 9.999079 
5.049945e+2, 1.4589255e+2, -1574654.5, -1530738.1, 99825.695, -0.19062242, -0.32562074, -1450484.1, 59737.64, 0.0000026245805, 9.9995365, 10.000129 
5.0500005e+2, 1.5589197e+2, -1308547.6, -1362713.4, 39805.332, 0.06389338, -0.41358992, -1287485.4, 124737.99, 0.00000011750303, 10.000739, 10.000031 
5.050042e+2, 1.6589145e+2, -1298178.3, -1407395.5, 83981.45, 0.14953949, -0.41570315, -1252612.1, 61616.21, 0.000000000026416515, 10.0005665, 9.999133 
5.0500613e+2, 1.7589083e+2, -1363610.0, -1384238.0, 106715.64, -0.04942227, -0.405605, -1266711.1, -50474.16, 0.0, 9.999429, 9.999168 
5.050103e+2, 1.8589066e+2, -1235296.9, -1263045.0, 159602.92, -0.08031107, -0.34391567, -1088966.1, 29275.725, 0.0, 9.999607, 9.999239 
5.0501674e+2, 1.9589075e+2, -977903.3, -1086406.8, 153666.83, 0.069479495, -0.27167645, -869192.6, 151051.72, 0.0, 10.000695, 9.999254 
5.050217e+2, 2.0589028e+2, -834812.1, -975982.06, 112604.94, 0.15517558, -0.23842858, -772498.2, 149752.3, 0.0, 10.001036, 9.999177 
5.050255e+2, 2.1588933e+2, -777531.44, -902836.9, 106175.305, 0.17386988, -0.26486585, -716901.75, 107358.65, 0.0, 10.000781, 9.99913 
5.050294e+2, 2.25888e+2, -768254.75, -905603.44, 125038.875, 0.14824043, -0.2808596, -694272.56, 32002.234, 0.0, 10.000421, 9.998611 
5.050334e+2, 2.3588635e+2, -731069.06, -831425.6, 95464.65, 0.10221903, -0.3208644, -673398.56, -45105.57, 0.0, 9.999976, 9.998663 
5.0503707e+2, 2.4588631e+2, -581740.94, -667173.9, 80073.234, 0.088358104, -0.21116883, -533702.7, -3406.4795, 0.0, 10.000151, 9.999034 
5.050407e+2, 2.5588727e+2, -382190.63, -509058.9, 113233.05, 0.10086064, -0.033600993, -315834.13, 116455.875, 0.0, 10.000797, 9.999136 
5.0504494e+2, 2.6588628e+2, -219063.66, -287159.34, 123037.24, 0.15003914, -0.08757535, -125450.16, 208847.64, 0.0, 10.000854, 9.999958 
5.0504965e+2, 2.7588385e+2, -184677.5, -226929.69, 69224.016, 0.22606811, -0.3434865, -133427.66, 102889.266, 0.00000000061010413, 10.000445, 9.999893 
5.050534e+2, 2.8588372e+2, -155579.56, -230343.58, 48077.848, 0.22255507, -0.31092843, -132060.88, 6256.769, 0.00000027597625, 10.000265, 9.999285 
5.050563e+2, 2.958854e+2, -62299.637, -134448.94, 41139.17, 0.1608242, -0.087680385, -43658.55, -3354.6814, 0.0000049400037, 10.000233, 9.999288 
5.0506055e+2, 3.0588457e+2, -115942.56, -185819.08, 7351.4277, 0.3374254, -0.07374121, -115177.52, -115177.52, 0.000029285811, 9.999743, 9.998843 
5.050599e+2, 3.1588197e+2, -175778.03, -101763.72, 129717.64, 0.0874438, -0.2361399, -3877.5974, -3877.5974, 0.000085814645, 9.998812, 9.999871 
5.149894e+2, 1.2589061e+2, -1640527.0, -1592407.5, -106719.45, -0.18341692, -0.29859275, -1507069.4, 199167.72, 0.00003362694, 10.000141, 10.000739 
5.149962e+2, 1.3589056e+2, -1706647.1, -1613946.8, 16365.584, 0.4319061, -0.3812693, -1611142.4, -2905.9336, 0.0000102900585, 9.999138, 10.000447 
5.1499456e+2, 1.4589019e+2, -1594112.3, -1584856.6, 143364.52, -0.15555277, -0.42198834, -1446045.3, 64196.242, 0.0000014940234, 9.999589, 9.999736 
5.150012e+2, 1.5589109e+2, -1325327.5, -1404198.0, 84454.58, 0.08645704, -0.3227536, -1271554.9, 140681.16, 0.00000003629146, 10.000769, 9.999732 
5.1500547e+2, 1.6589114e+2, -1263148.9, -1332122.8, 37346.344, 0.20547928, -0.28486165, -1246801.8, 67434.9, 0.0, 10.000558, 9.999652 
5.1500696e+2, 1.7589036e+2, -1327850.0, -1313776.6, 76844.51, 0.073409185, -0.3459824, -1243647.3, -27403.295, 0.0, 9.999445, 9.999642 
5.1501095e+2, 1.8588983e+2, -1227371.5, -1244266.4, 195205.98, 0.004113112, -0.3470955, -1040430.25, 77819.7, 0.0, 9.9995985, 9.99937 
5.1501733e+2, 1.9588944e+2, -972557.2, -1073959.4, 197082.88, 0.043461315, -0.33668438, -819758.3, 200497.22, 0.0, 10.000683, 9.999347 
5.1502186e+2, 2.0588917e+2, -855299.5, -1004354.4, 98453.14, 0.05420731, -0.2802386, -806346.75, 115913.54, 0.0, 10.000975, 9.999011 
5.150249e+2, 2.1588887e+2, -796230.4, -932931.75, 100270.48, 0.023582753, -0.22734664, -743230.4, 81034.99, 0.0, 10.00074, 9.998944 
5.150294e+2, 2.258882e+2, -815623.1, -991033.94, 101651.586, 0.093625315, -0.13949846, -769070.25, -42793.234, 0.0, 10.000364, 9.998053 
5.1503485e+2, 2.3588717e+2, -767981.9, -895754.4, 86374.29, 0.24213856, -0.062399033, -724434.56, -96140.44, 0.0, 9.999923, 9.998247 
5.1503813e+2, 2.4588603e+2, -517983.72, -526098.44, 99772.81, 0.16381264, -0.09596491, -422185.8, 108118.695, 0.0, 10.000114, 10.00002 
5.150398e+2, 2.5588474e+2, -335958.0, -399692.84, 141690.77, -0.08199541, -0.24134411, -222595.25, 209715.61, 0.0, 10.000738, 9.999917 
5.150438e+2, 2.6588428e+2, -311658.28, -470401.0, 102636.586, -0.060275126, -0.21561761, -261283.44, 73031.85, 0.0, 10.000818, 9.998715 
5.150495e+2, 2.7588412e+2, -270398.3, -391762.3, 61755.246, 0.15482116, -0.11199532, -244500.78, -8180.467, 0.0000000018853024, 10.000389, 9.998789 
5.1505315e+2, 2.8588337e+2, -147533.97, -206603.39, 41647.773, 0.15779105, -0.10515466, -126011.49, 12316.053, 0.00000034894228, 10.000236, 9.999462 
5.150551e+2, 2.9588228e+2, -51516.11, -106386.94, 46183.867, -0.000053376683, -0.17702171, -25233.264, 15101.346, 0.0000043002137, 10.000206, 9.999494 
5.150588e+2, 3.0588093e+2, -33960.38, -10694.499, -30975.021, 0.17778845, -0.28808346, 10759.9795, 10759.9795, 0.00002546161, 9.999731, 10.00005 
5.150593e+2, 3.1588033e+2, -130775.05, 22033.686, 131455.92, 0.12062184, -0.36563155, 97676.305, 97676.305, 0.00007750593, 9.998695, 10.000772 
5.249903e+2, 1.258877e+2, -1711452.5, -1599776.1, -42955.24, -0.07219431, -0.4376506, -1585165.4, 121096.78, 0.000024083258, 9.99953, 10.000984 
5.249957e+2, 1.3588832e+2, -1677278.4, -1560244.6, 41007.855, 0.47546178, -0.4946898, -1547306.3, 60948.918, 0.000006343457, 9.999151, 10.000815 
5.2499396e+2, 1.4588891e+2, -1681468.1, -1636638.3, 201927.22, -0.14637598, -0.4519292, -1455885.8, 54367.277, 0.00000066930806, 9.99904, 9.999642 
5.25001e+2, 1.5589084e+2, -1601638.3, -1547571.3, 145343.73, 0.085382536, -0.24232711, -1426768.3, -14526.944, 0.000000004981165, 9.998915, 9.999642 
5.2500564e+2, 1.6589096e+2, -1443011.1, -1420427.0, 73141.02, 0.2270499, -0.19060779, -1357711.5, -43468.97, 0.0, 9.999324, 9.99965 
5.250074e+2, 1.7588969e+2, -1221797.4, -1260803.4, 64566.453, 0.14676756, -0.30034372, -1173852.6, 42401.63, 0.0, 10.000161, 9.999668 
5.250113e+2, 1.858891e+2, -1111666.5, -1169273.0, 195289.73, 0.049830113, -0.31666112, -943067.44, 175192.14, 0.0, 10.000309, 9.999544 
5.2501714e+2, 1.95889e+2, -1075144.9, -1104312.9, 187135.86, 0.0036429777, -0.29642922, -902025.56, 118235.06, 0.0, 9.999906, 9.999511 
5.250218e+2, 2.0588858e+2, -1024683.9, -1103929.9, 89091.016, 0.0045118085, -0.25155723, -966802.06, -44535.33, 0.0, 9.99989, 9.998853 
5.250253e+2, 2.1588783e+2, -893049.2, -993101.56, 81117.586, 0.021732053, -0.22328281, -847772.25, -23494.719, 0.0, 10.000135, 9.998822 
5.2502984e+2, 2.2588733e+2, -753741.6, -932024.75, 132359.45, 0.0938804, -0.12857611, -683304.9, 42982.887, 0.0, 10.000671, 9.998306 
5.250352e+2, 2.3588683e+2, -538516.94, -760139.94, 165315.86, 0.21343717, -0.02317177, -450309.56, 177989.16, 0.0, 10.0014, 9.998465 
5.2503896e+2, 2.4588548e+2, -349296.13, -455080.97, 158798.11, 0.17503454, -0.08300482, -234813.38, 295496.63, 0.0, 10.001317, 9.999928 
5.2504146e+2, 2.5588349e+2, -357243.9, -422821.66, 108157.766, 0.019263644, -0.29087782, -277014.16, 155307.89, 0.0, 10.00065, 9.999799 
5.2504516e+2, 2.658829e+2, -369353.9, -545894.9, 84850.484, 0.00707251, -0.24424317, -335185.5, -857.3317, 0.0, 10.000623, 9.998294 
5.250498e+2, 2.7588317e+2, -201405.8, -400969.47, 97068.29, 0.1125504, -0.061376903, -161980.36, 74351.64, 0.00000000009174081, 10.001048, 9.998408 
5.250533e+2, 2.8588206e+2, -34457.625, -168379.97, 95474.85, 0.113161035, -0.06322052, 15197.013, 153539.27, 0.00000033351301, 10.001086, 9.999314 
5.250558e+2, 2.958801e+2, 27147.027, -89604.07, 58321.03, 0.024402235, -0.21040425, 51288.43, 91644.375, 0.0000041079616, 10.000834, 9.999307 
5.250589e+2, 3.0587843e+2, 101958.68, 31187.23, -89602.82, 0.1593557, -0.33016932, 162909.94, 162909.94, 0.000024461535, 10.000763, 9.999843 
5.250591e+2, 3.1587788e+2, 134706.33, 101495.695, -45478.613, 0.14082251, -0.38264716, 166516.31, 166516.31, 0.000075222786, 10.000717, 10.000347 
5.349906e+2, 1.2588626e+2, -1761307.4, -1713693.1, -139526.38, -0.03205386, -0.6153725, -1595957.4, 110312.52, 0.000017799504, 9.999587, 10.000171 
5.349944e+2, 1.3588741e+2, -1723958.4, -1652819.9, 34173.242, 0.41978294, -0.5398815, -1639063.9, -30801.078, 0.0000036805177, 9.999142, 10.000185 
5.349924e+2, 1.4588872e+2, -1664618.3, -1608572.0, 195546.45, -0.22761336, -0.41017723, -1439050.9, 71205.305, 0.00000019448485, 9.999061, 9.999826 
5.3499925e+2, 1.5589115e+2, -1590105.6, -1530136.0, 148728.52, 0.004836265, -0.1687689, -1408399.8, 3839.8945, 0.00000000000050979853, 9.998939, 9.999751 
5.350044e+2, 1.6589096e+2, -1477500.9, -1494601.6, 98353.39, 0.15849186, -0.12592533, -1387326.9, -73081.52, 0.0, 9.999335, 9.999136 
5.350074e+2, 1.7588878e+2, -1249864.4, -1325404.3, 98534.625, 0.11766195, -0.271832, -1182108.8, 34159.27, 0.0, 10.000187, 9.999214 
5.3501123e+2, 1.8588842e+2, -1098075.4, -1139902.5, 175640.97, 0.0015320145, -0.2568291, -942107.25, 176163.67, 0.0, 10.000305, 9.999746 
5.3501606e+2, 1.9588928e+2, -1068243.5, -1086092.8, 179713.31, -0.11060095, -0.16002266, -897233.4, 123027.055, 0.0, 9.999884, 9.999649 
5.350212e+2, 2.0588847e+2, -1041732.8, -1128047.9, 93294.69, -0.0539985, -0.15446335, -982097.0, -59826.563, 0.0, 9.999845, 9.998706 
5.350265e+2, 2.1588635e+2, -902952.9, -1002608.75, 97209.92, 0.111036286, -0.2503266, -843544.4, -19248.545, 0.0, 10.000087, 9.998779 
5.3503066e+2, 2.2588547e+2, -690379.25, -790650.2, 154751.55, 0.095455654, -0.24460202, -577844.5, 148461.77, 0.0, 10.000625, 9.999302 
5.350342e+2, 2.3588532e+2, -488827.9, -645007.44, 193465.36, -0.038704507, -0.20579413, -358286.78, 270020.28, 0.0, 10.001347, 9.999282 
5.350393e+2, 2.4588458e+2, -440101.28, -631597.2, 128674.96, 0.069200814, -0.17714708, -375459.34, 154854.03, 0.0, 10.00127, 9.998738 
5.3504544e+2, 2.5588334e+2, -438418.5, -579636.6, 92352.05, 0.34234142, -0.19014588, -392775.5, 39548.992, 0.0, 10.0006, 9.998747 
5.350488e+2, 2.658822e+2, -342133.34, -481939.0, 97220.984, 0.29572856, -0.17714198, -292293.4, 42043.527, 0.0, 10.00059, 9.998748 
5.350501e+2, 2.75881e+2, -181764.02, -350943.97, 119153.305, 0.02754596, -0.18938634, -120227.42, 116124.48, 0.0, 10.001005, 9.998775 
5.350537e+2, 2.8587982e+2, -71986.48, -244222.83, 80219.516, 0.022368187, -0.1834834, -40412.21, 97949.77, 0.00000019037492, 10.001077, 9.998799 
5.3505844e+2, 2.9587877e+2, -26573.86, -184038.7, 56403.934, 0.18213347, -0.18708536, -8454.859, 31913.502, 0.0000040138116, 10.000759, 9.998695 
5.3506047e+2, 3.05877e+2, -20679.928, -208146.5, -91247.75, 0.23405719, -0.19740742, 16399.94, 16399.94, 0.000024849203, 10.000704, 9.998222 
5.350589e+2, 3.1587455e+2, 7028.1895, -147976.66, -31784.863, 0.01945677, -0.28670344, 13292.724, 13292.724, 0.00007616266, 10.000662, 9.9986515 
5.449891e+2, 1.258863e+2, -2207246.0, -1939975.3, -227015.27, 0.017574448, -0.5169069, -1810182.5, -103907.1, 0.000013143151, 9.996589, 10.000074 
5.4499376e+2, 1.3588776e+2, -1583352.6, -1587309.4, 36868.555, 0.39654925, -0.40645468, -1548409.4, 59856.89, 0.000002162896, 10.00012, 10.000167 
5.449924e+2, 1.4588867e+2, -1410172.0, -1496579.4, 144743.23, -0.21987301, -0.30653977, -1302322.1, 207939.78, 0.000000029643958, 10.0008545, 9.999729 
5.449986e+2, 1.5588991e+2, -1495903.0, -1492502.3, 66812.266, 0.016949194, -0.17704563, -1427368.8, -15114.708, 0.0, 9.99962, 9.999677 
5.450038e+2, 1.6588953e+2, -1430248.9, -1477468.1, 95873.94, 0.14592835, -0.14746332, -1355120.3, -40859.387, 0.0, 9.999696, 9.999072 
5.4500747e+2, 1.758879e+2, -1184845.1, -1296390.1, 113091.77, 0.077937186, -0.23246446, -1114521.1, 101758.28, 0.0, 10.000655, 9.999181 
5.4501134e+2, 1.8588758e+2, -1071005.6, -1102051.4, 158605.42, -0.016792672, -0.22558428, -927165.25, 191116.16, 0.0, 10.00037, 9.999984 
5.4501593e+2, 1.9588812e+2, -1144433.3, -1097547.1, 162131.08, -0.07718788, -0.18331541, -957173.06, 63098.92, 0.0, 9.99924, 9.999884 
5.450214e+2, 2.0588747e+2, -1090312.8, -1166860.0, 144260.9, 0.0012549113, -0.16516182, -979334.7, -57054.203, 0.0, 9.999574, 9.998575 
5.4502755e+2, 2.1588583e+2, -790450.0, -959982.2, 137659.77, 0.16801085, -0.20171599, -713551.3, 110751.54, 0.0, 10.000909, 9.998678 
5.4503155e+2, 2.2588484e+2, -643186.0, -762384.5, 132555.58, 0.108131304, -0.20475535, -557447.5, 168866.52, 0.0, 10.000921, 9.999354 
5.4503417e+2, 2.3588417e+2, -678317.1, -732285.44, 87972.19, -0.10406378, -0.22111876, -613283.6, 15034.882, 0.0, 10.000021, 9.999324 
5.450394e+2, 2.4588352e+2, -617551.2, -707167.25, 60642.523, 0.019908944, -0.19079202, -586958.44, -56635.254, 0.0, 9.999999, 9.998834 
5.450464e+2, 2.5588283e+2, -430910.88, -564297.1, 110391.4, 0.37651443, -0.16002552, -368630.22, 63698.38, 0.0, 10.000607, 9.998846 
5.4504997e+2, 2.6588163e+2, -310141.56, -478506.75, 151582.78, 0.34400988, -0.1521553, -220934.28, 113407.56, 0.0, 10.000862, 9.998642 
5.450512e+2, 2.758799e+2, -207908.6, -374934.38, 118046.92, 0.0458285, -0.2064781, -146820.38, 89542.07, 0.0, 10.000871, 9.998678 
5.450545e+2, 2.8587857e+2, -120459.69, -267683.13, 76725.16, 0.02203137, -0.21002437, -87744.39, 50629.51, 0.00000011177434, 10.0007515, 9.998792 
5.450591e+2, 2.958776e+2, -55868.824, -200921.38, 81953.664, 0.18296926, -0.20300445, -18958.07, 21420.744, 0.0000045059896, 10.000586, 9.998656 
5.4506075e+2, 3.058763e+2, -50159.01, -300070.72, 21589.135, 0.18667048, -0.1301949, -48307.703, -48307.703, 0.00002638034, 10.00083, 9.997528 
5.450596e+2, 3.1587374e+2, 45609.77, -187597.84, 115126.5, 0.0054143444, -0.15857995, 92867.36, 92867.36, 0.00007851539, 10.001165, 9.99814 
5.5498534e+2, 1.2588792e+2, -2152889.8, -1828060.1, -174879.94, -0.05198179, -0.12266767, -1751808.8, -45530.766, 0.000010165176, 9.996607, 10.000825 
5.549935e+2, 1.3588935e+2, -1537279.0, -1493345.3, 160419.88, 0.35098496, -0.0869813, -1353395.3, 254870.11, 0.0000015959415, 10.0001335, 10.000803 
5.5499375e+2, 1.4588884e+2, -1430322.5, -1547110.4, 90989.46, -0.18106185, -0.13969092, -1380601.1, 129668.625, 0.000000016896806, 10.000887, 9.999368 
5.549989e+2, 1.5588714e+2, -1512651.8, -1534255.6, 33898.188, 0.06486874, -0.26618403, -1487876.0, -75592.03, 0.0, 9.999647, 9.99938 
5.5500346e+2, 1.658867e+2, -1401587.5, -1420600.0, 127192.086, 0.1299574, -0.25085884, -1283546.9, 30741.977, 0.0, 9.999708, 9.999454 
5.550072e+2, 1.7588699e+2, -1159749.9, -1242727.3, 146804.81, -0.026120033, -0.18292318, -1048683.8, 167604.89, 0.0, 10.00065, 9.999549 
5.550115e+2, 1.8588658e+2, -1050737.0, -1055075.1, 110381.22, -0.051386233, -0.21894385, -942503.56, 175786.97, 0.0, 10.000348, 10.000318 
5.550166e+2, 1.9588558e+2, -1129113.9, -1061382.3, 132924.83, 0.0516297, -0.36191982, -958077.0, 62217.86, 0.0, 9.999217, 10.000148 
5.5502224e+2, 2.058856e+2, -1098719.0, -1177078.1, 190263.16, 0.11399871, -0.2841664, -943643.25, -21346.158, 0.0, 9.999545, 9.998517 
5.5502826e+2, 2.1588624e+2, -809991.06, -988035.0, 185859.1, 0.13785425, -0.08679051, -692934.1, 131364.77, 0.0, 10.000852, 9.998516 
5.550323e+2, 2.2588538e+2, -718079.0, -901409.3, 93456.984, 0.07865576, -0.018753432, -678836.9, 47474.887, 0.0, 10.000855, 9.998429 
5.5503505e+2, 2.3588336e+2, -740176.8, -843897.6, 65541.92, -0.0344275, -0.07749033, -708459.44, -80126.04, 0.0, 9.9999485, 9.998593 
5.5503905e+2, 2.4588233e+2, -528570.2, -511577.56, 79769.56, -0.025428414, -0.124221824, -439853.13, 90486.086, 0.0, 9.999952, 10.000199 
5.5504405e+2, 2.5588197e+2, -356506.78, -396493.56, 137650.0, 0.069088876, -0.19813873, -237405.77, 194928.83, 0.0, 10.000548, 10.000027 
5.550486e+2, 2.658811e+2, -361560.53, -576174.56, 146559.55, 0.108301766, -0.17337242, -287223.7, 47120.03, 0.0, 10.000826, 9.997985 
5.550529e+2, 2.7587983e+2, -259458.69, -466272.06, 123772.33, 0.11126042, -0.11391667, -201581.38, 34782.582, 0.0, 10.000807, 9.99808 
5.5505586e+2, 2.8587827e+2, -87297.44, -199172.45, 65916.32, 0.06257521, -0.14258388, -56782.84, 81595.586, 0.00000024371042, 10.000743, 9.999272 
5.5505764e+2, 2.9587647e+2, -21143.703, -133189.61, 85148.34, -0.037489884, -0.26605713, 24758.865, 65147.867, 0.0000058589785, 10.00059, 9.999126 
5.550593e+2, 3.0587617e+2, -39552.332, -268797.53, 33522.31, -0.049811497, -0.13053522, -34750.96, -34750.96, 0.000029983938, 10.0008, 9.997749 
5.5506086e+2, 3.158752e+2, 82833.74, -88189.77, 129123.37, -0.017871216, -0.020309303, 152193.23, 152193.23, 0.00008393316, 10.001077, 9.998861 
5.649841e+2, 1.2588696e+2, -1896745.0, -1715881.0, -48792.1, 0.082699046, -0.08102713, -1703557.9, 2733.8303, 0.000007999431, 9.998387, 10.000739 
5.649926e+2, 1.3588868e+2, -1663928.3, -1570351.0, 239307.55, 0.29023713, -0.008228917, -1373301.0, 234975.56, 0.00000128022, 9.999311, 10.000675 
5.6499416e+2, 1.4588787e+2, -1567254.5, -1619409.9, 79210.734, -0.18662453, -0.08026424, -1509939.3, 343.40778, 0.000000037787355, 9.999977, 9.999313 
5.6499916e+2, 1.5588525e+2, -1392678.6, -1477399.5, 32273.06, 0.09041114, -0.29278833, -1381785.4, 30518.197, 0.0, 10.000479, 9.999372 
5.6500334e+2, 1.6588485e+2, -1353145.5, -1382535.5, 145957.45, 0.13688838, -0.2802009, -1221145.1, 93162.16, 0.0, 9.999978, 9.999589 
5.6500673e+2, 1.7588583e+2, -1418692.5, -1357919.0, 135658.63, -0.04537602, -0.15473142, -1249285.5, -32984.965, 0.0, 9.998825, 9.999642 
5.6501126e+2, 1.8588546e+2, -1262282.3, -1193587.1, 78556.92, -0.042959936, -0.17518432, -1142197.0, -23893.69, 0.0, 9.999058, 9.999983 
5.650169e+2, 1.9588402e+2, -997398.56, -1024637.75, 47198.695, 0.11337336, -0.33252656, -961893.7, 58419.79, 0.0, 10.000245, 9.999897 
5.6502247e+2, 2.058839e+2, -916795.75, -1059266.5, 129745.87, 0.12747498, -0.26978022, -840016.06, 82300.32, 0.0, 10.00067, 9.99878 
5.6502795e+2, 2.1588467e+2, -835046.44, -969009.1, 137286.75, 0.043050356, -0.085173436, -749272.56, 75042.19, 0.0, 10.000556, 9.998781 
5.650324e+2, 2.2588395e+2, -736009.94, -916439.25, 77666.336, 0.017135423, -0.014442274, -707183.7, 19142.098, 0.0, 10.000755, 9.998374 
5.650363e+2, 2.3588204e+2, -567204.4, -760949.9, 108928.29, 0.04539714, -0.058315895, -518304.34, 110042.07, 0.0, 10.001143, 9.998579 
5.6503993e+2, 2.458808e+2, -355150.5, -430679.16, 116083.97, 0.006103419, -0.12618695, -270842.6, 259512.17, 0.0, 10.001172, 10.000157 
5.650433e+2, 2.5587985e+2, -293615.0, -369749.44, 55646.56, -0.08028236, -0.25414258, -264260.75, 168095.44, 0.0, 10.0009985, 9.999991 
5.6504816e+2, 2.658793e+2, -350119.28, -542934.1, 60339.418, -0.013055663, -0.20848058, -332793.53, 1568.4623, 0.0, 10.000794, 9.998223 
5.650541e+2, 2.7587903e+2, -273890.5, -442045.0, 96385.64, 0.17170931, -0.07492851, -230064.75, 6306.7134, 0.0, 10.000591, 9.998338 
5.65057e+2, 2.8587747e+2, -92934.72, -207857.7, 64258.438, 0.11041246, -0.10884348, -64193.14, 74192.64, 0.00000046127252, 10.00073, 9.999218 
5.6505746e+2, 2.9587507e+2, 54822.945, -94355.984, 32259.402, -0.13587815, -0.29079902, 61500.063, 101903.586, 0.000007820285, 10.001103, 9.999146 
5.650592e+2, 3.0587468e+2, -6947.4453, -205528.16, -26826.102, -0.14042437, -0.1905751, -3387.3542, -3387.3542, 0.000035959114, 10.000798, 9.998199 
5.650619e+2, 3.1587467e+2, -37373.668, -54111.156, 54867.67, 0.052741025, -0.02965373, 9759.815, 9759.815, 0.000094359246, 9.999844, 9.999697 
5.749849e+2, 1.2588342e+2, -1951589.3, -1842234.5, -73795.93, 0.2894484, -0.40023714, -1805067.1, -98749.95, 0.0000055281434, 9.998445, 9.999837 
5.7499075e+2, 1.3588575e+2, -1726307.0, -1704250.4, 275497.06, 0.1529406, -0.1675933, -1439561.0, 168739.05, 0.00000085256136, 9.999327, 9.999746 
5.7499325e+2, 1.4588581e+2, -1547609.1, -1581065.6, 89971.03, -0.29153347, -0.122457966, -1472824.5, 37475.707, 0.00000002938157, 9.9999895, 9.99957 
5.749993e+2, 1.5588425e+2, -1376935.9, -1444506.0, 50978.137, 0.038696233, -0.25469047, -1349563.8, 62748.93, 0.0, 10.000482, 9.999597 
5.750032e+2, 1.6588397e+2, -1358271.8, -1395677.9, 96175.875, 0.11199932, -0.23447753, -1278997.3, 35319.145, 0.0, 9.999983, 9.999496 
5.7500577e+2, 1.7588446e+2, -1428649.9, -1383865.9, 106350.21, -0.03556375, -0.15022185, -1297575.9, -81260.76, 0.0, 9.998844, 9.999455 
5.750104e+2, 1.8588425e+2, -1329711.0, -1329711.4, 120346.7, -0.04872743, -0.09244005, -1209364.5, -91045.55, 0.0, 9.999048, 9.999051 
5.750167e+2, 1.9588345e+2, -1059523.4, -1143718.5, 93908.086, 0.04936794, -0.08999551, -998708.7, 21618.62, 0.0, 10.000205, 9.999099 
5.750219e+2, 2.0588244e+2, -881264.75, -975530.94, 119594.52, -0.0054130773, -0.115609586, -799850.7, 122487.06, 0.0, 10.000625, 9.999377 
5.750265e+2, 2.1588115e+2, -801474.25, -885408.5, 139548.77, -0.1729802, -0.19583768, -697718.7, 126632.0, 0.0, 10.000493, 9.999388 
5.750319e+2, 2.2588052e+2, -680986.75, -785256.7, 87733.414, -0.12906088, -0.19226605, -631066.8, 95289.41, 0.0, 10.000687, 9.999306 
5.750379e+2, 2.358803e+2, -529221.1, -664734.06, 128693.39, 0.07189999, -0.15946822, -451537.16, 176820.0, 0.0, 10.001069, 9.999277 
5.750418e+2, 2.4587885e+2, -459660.06, -643734.4, 103645.11, 0.052699827, -0.20010737, -413085.72, 117284.73, 0.0, 10.001146, 9.998711 
5.750439e+2, 2.5587642e+2, -387444.94, -552257.3, 53769.77, -0.12915884, -0.32688823, -371454.13, 60939.582, 0.0, 10.00094, 9.998769 
5.750485e+2, 2.658762e+2, -274552.0, -379393.25, 48180.81, -0.06798966, -0.2584122, -255773.52, 78622.89, 0.0, 10.000762, 9.999363 
5.750548e+2, 2.758774e+2, -208058.16, -299765.8, 94963.37, 0.16522647, -0.09198739, -148457.66, 87928.0, 0.0, 10.000558, 9.999335 
5.750578e+2, 2.858762e+2, -136482.39, -287597.22, 71934.55, 0.10478318, -0.106654175, -107715.77, 30680.65, 0.0000006054728, 10.000685, 9.9986925 
5.750583e+2, 2.9587334e+2, 17659.43, -161023.77, 50520.09, -0.17257428, -0.2772458, 30954.084, 71376.734, 0.000009307056, 10.001056, 9.998714 
5.750601e+2, 3.0587178e+2, 38553.566, -101968.8, -63439.88, -0.1354598, -0.31312704, 62956.273, 62956.273, 0.00004067109, 10.000764, 9.998927 
5.750627e+2, 3.1587192e+2, 24465.707, 86731.85, 21539.434, 0.1094558, -0.21393803, 93456.61, 93456.61, 0.00010363106, 9.999792, 10.00069 
5.849842e+2, 1.2588178e+2, -1857610.9, -1809740.5, -198225.4, 0.34700257, -0.35105845, -1634010.5, 72323.74, 0.0000029888902, 9.999135, 9.999732 
5.8498967e+2, 1.3588266e+2, -1672862.9, -1691271.6, 222004.9, 0.10534018, -0.24452154, -1459871.6, 148458.1, 0.00000032572908, 9.999747, 9.999634 
5.849934e+2, 1.4588284e+2, -1617356.9, -1581440.8, 47883.67, -0.23802646, -0.19575264, -1548258.5, -37929.848, 0.0000000021906112, 9.999375, 9.999858 
5.849987e+2, 1.5588263e+2, -1641855.6, -1540188.9, -505.86935, 0.04004254, -0.22492915, -1540186.4, -127857.47, 0.0, 9.998527, 9.999877 
5.850025e+2, 1.6588254e+2, -1523568.8, -1476423.6, 68279.016, 0.10091794, -0.20016621, -1427762.6, -113431.92, 0.0, 9.998848, 9.999489 
5.850055e+2, 1.758824e+2, -1262880.3, -1303857.3, 76394.836, -0.0025105262, -0.17853025, -1204274.1, 12060.599, 0.0, 9.999983, 9.999452 
5.850104e+2, 1.8588209e+2, -1133776.0, -1257938.9, 157352.33, -0.021963073, -0.12045347, -1026701.1, 91638.54, 0.0, 10.000487, 9.998854 
5.850167e+2, 1.9588159e+2, -1026844.06, -1144993.9, 172365.94, 0.026490737, -0.07000741, -903710.7, 116635.336, 0.0, 10.0005, 9.998952 
5.85022e+2, 2.0588061e+2, -947246.8, -978532.6, 184596.27, -0.03277004, -0.098961435, -777631.8, 144724.22, 0.0, 10.000045, 9.999638 
5.850264e+2, 2.158792e+2, -955600.0, -924684.7, 174987.84, -0.16724204, -0.22104765, -764473.1, 59896.7, 0.0, 9.999287, 9.999699 
5.8503205e+2, 2.2587892e+2, -795023.5, -777635.5, 149237.56, -0.122821614, -0.22699419, -636838.94, 89531.875, 0.0, 9.999639, 9.999867 
5.850386e+2, 2.3587933e+2, -542888.7, -623724.6, 147176.86, 0.056997333, -0.18387379, -430680.84, 197683.14, 0.0, 10.000767, 9.999711 
5.8504283e+2, 2.4587801e+2, -538259.56, -764028.56, 117402.89, 0.06666701, -0.19128482, -488274.94, 42103.027, 0.0, 10.000958, 9.997979 
5.8504546e+2, 2.558754e+2, -487070.38, -670326.3, 114379.46, -0.0464786, -0.26448753, -432143.44, 263.8143, 0.0, 10.000558, 9.998141 
5.850497e+2, 2.6587483e+2, -231118.27, -315744.13, 131173.67, -0.033903446, -0.22184086, -135601.89, 198810.9, 0.0, 10.000878, 9.999742 
5.85055e+2, 2.7587557e+2, -18928.914, -177062.63, 107734.94, 0.07244634, -0.13706087, 35639.492, 272042.3, 0.0, 10.001722, 9.999616 
5.850584e+2, 2.8587466e+2, -49997.9, -306011.94, 50131.71, 0.060159083, -0.11046533, -40531.34, 97880.805, 0.00000055145284, 10.001536, 9.998155 
5.850605e+2, 2.9587263e+2, -85366.305, -262631.88, 17610.99, -0.036146697, -0.14532149, -83633.625, -43199.207, 0.000008783807, 10.000582, 9.998237 
5.850621e+2, 3.0586994e+2, 48987.69, -78953.46, -101410.34, -0.014756686, -0.28102705, 104918.3, 104918.3, 0.000039664603, 10.000757, 9.999081 
5.8506316e+2, 3.1586918e+2, 295294.75, 217912.1, -86369.67, 0.08940357, -0.29022202, 351243.47, 351243.47, 0.00010367087, 10.001646, 10.000691 
5.949817e+2, 1.2588197e+2, -1790281.9, -1678083.3, -210692.83, 0.14470102, 0.070982344, -1516149.0, 190194.63, 0.000001124367, 9.999186, 10.000606 
5.949895e+2, 1.3587946e+2, -1621821.6, -1585698.9, 239476.2, 0.09505772, -0.23988268, -1363604.0, 244761.52, 0.000000025767086, 9.999757, 10.000354 
5.9499437e+2, 1.4587902e+2, -1591909.5, -1532093.6, 7488.556, -0.09115668, -0.30441168, -1531170.3, -20802.572, 0.0, 9.999387, 10.000192 
5.9499735e+2, 1.5588042e+2, -1617260.3, -1494628.3, -20211.787, 0.032367405, -0.20519353, -1491382.9, -79030.586, 0.0, 9.998547, 10.000181 
5.95001e+2, 1.658806e+2, -1518102.5, -1461297.6, 104892.2, 0.052215826, -0.17214626, -1381030.5, -66680.41, 0.0, 9.998835, 9.999599 
5.950057e+2, 1.7587969e+2, -1249530.8, -1280489.6, 120914.63, 0.0012072632, -0.23674177, -1143108.8, 73250.836, 0.0, 10.000001, 9.999606 
5.9501106e+2, 1.8587895e+2, -1097224.8, -1178065.5, 152521.34, -0.023126015, -0.25826508, -979858.7, 138507.33, 0.0, 10.000473, 9.999407 
5.950169e+2, 1.9587833e+2, -997463.44, -1076254.9, 174578.06, -0.021952415, -0.2759637, -857891.25, 162479.34, 0.0, 10.000467, 9.999439 
5.950223e+2, 2.0587839e+2, -953140.56, -980587.0, 150249.08, -0.01350451, -0.22374395, -815989.3, 106382.5, 0.0, 10.000001, 9.999644 
5.9502745e+2, 2.1587884e+2, -962659.94, -927521.0, 158746.03, -0.0007660641, -0.15687446, -785375.1, 38996.563, 0.0, 9.999236, 9.999704 
5.950328e+2, 2.2587912e+2, -788524.56, -756197.2, 186178.33, -0.019565593, -0.1163056, -585482.25, 140887.17, 0.0, 9.9996, 10.000034 
5.950383e+2, 2.3587912e+2, -542488.6, -608470.75, 189588.02, -0.062789574, -0.13131934, -383042.6, 245324.61, 0.0, 10.000701, 9.999849 
5.9504324e+2, 2.4587822e+2, -543153.7, -767505.4, 95874.055, -0.013057372, -0.1036019, -507765.1, 22612.748, 0.0, 10.000925, 9.9979725 
5.9504765e+2, 2.5587663e+2, -494879.44, -676054.7, 107716.42, 0.10284235, -0.07507047, -444722.8, -12324.993, 0.0, 10.00051, 9.998126 
5.9505135e+2, 2.658752e+2, -262668.25, -372916.4, 158609.36, 0.03545486, -0.10011837, -149876.89, 184534.61, 0.0, 10.000844, 9.999366 
5.9505445e+2, 2.7587357e+2, -54128.266, -239086.75, 140390.36, -0.16889106, -0.21266496, 21505.14, 257928.25, 0.0, 10.001674, 9.999214 
5.9505874e+2, 2.8587276e+2, -95187.95, -392583.7, 6925.667, -0.081544705, -0.12441372, -95026.76, 43406.277, 0.0000003359344, 10.001506, 9.997573 
5.950637e+2, 2.9587272e+2, -131798.63, -347582.5, -8126.707, 0.20917772, 0.0939947, -131493.0, -91053.086, 0.000006914508, 10.000533, 9.997676 
5.950648e+2, 3.058689e+2, 12474.736, -141618.08, -70282.99, 0.17346375, -0.10513014, 39715.66, 39715.66, 0.000035630153, 10.000707, 9.998675 
5.9506303e+2, 3.1586638e+2, 218281.55, 78212.234, -42903.168, -0.118313655, -0.2465244, 230378.1, 230378.1, 0.0000986736, 10.001566, 9.999767 
6.0497993e+2, 1.258789e+2, -1864348.4, -1703182.0, -150272.89, 0.08098735, 0.11142462, -1613249.5, 93127.93, 0.00000033090242, 9.9986105, 10.000727 
6.049886e+2, 1.3587652e+2, -1816679.0, -1662202.6, 228917.8, 0.10357595, -0.1977311, -1497843.9, 110553.81, 0.000000000013925105, 9.998352, 10.000503 
6.049949e+2, 1.458764e+2, -1657493.0, -1530617.9, -8123.8115, 0.05273166, -0.2531309, -1530099.9, -19702.848, 0.0, 9.998794, 10.00049 
6.049968e+2, 1.5587832e+2, -1377673.5, -1348636.6, -49635.934, 0.05461371, -0.1297985, -1311439.4, 100937.15, 0.0, 10.00006, 10.000455 
6.0500026e+2, 1.6587846e+2, -1351634.4, -1394619.3, 72821.914, 0.039239764, -0.108616374, -1297199.5, 17175.055, 0.0, 10.000034, 9.999478 
6.050055e+2, 1.7587711e+2, -1394212.0, -1355991.5, 61260.516, 0.031983957, -0.20579354, -1310929.6, -94541.82, 0.0, 9.999034, 9.999556 
6.0501087e+2, 1.8587632e+2, -1320976.1, -1205944.5, 99103.39, 0.0138196945, -0.26891872, -1148876.0, -30483.307, 0.0, 9.998585, 10.000131 
6.050164e+2, 1.9587588e+2, -1235189.6, -1114150.5, 126104.766, -0.011427021, -0.34127325, -1034795.0, -14402.506, 0.0, 9.998505, 10.000124 
6.05022e+2, 2.0587637e+2, -1096896.8, -1049364.6, 120740.47, 0.011775852, -0.28124103, -950073.5, -27684.295, 0.0, 9.999008, 9.999654 
6.0502774e+2, 2.1587732e+2, -872526.9, -886837.2, 121963.91, 0.07445443, -0.16308904, -757508.44, 66876.71, 0.0, 9.999855, 9.99969 
6.050331e+2, 2.2587769e+2, -693664.3, -729060.9, 167413.02, 0.012519063, -0.10317825, -543016.7, 183366.77, 0.0, 10.000333, 9.9998665 
6.0503817e+2, 2.358775e+2, -569076.75, -627283.9, 134808.52, -0.1356003, -0.12203316, -460266.0, 168118.92, 0.0, 10.000552, 9.999787 
6.050436e+2, 2.4587704e+2, -484922.0, -655795.4, 55118.633, -0.06798379, -0.08580922, -468685.25, 61704.742, 0.0, 10.000978, 9.998708 
6.0504913e+2, 2.5587633e+2, -300236.72, -514972.03, 108983.39, 0.15483207, -0.040766876, -254616.81, 177781.34, 0.0, 10.001563, 9.998723 
6.05053e+2, 2.6587453e+2, -242924.84, -455768.7, 169134.88, 0.08913285, -0.0827523, -149516.27, 184899.67, 0.0, 10.001367, 9.998553 
6.050554e+2, 2.7587175e+2, -258451.89, -418512.84, 108137.12, -0.17962223, -0.2284776, -203951.64, 32490.838, 0.0, 10.000606, 9.998506 
6.0505986e+2, 2.8587082e+2, -145986.38, -368741.2, 19843.322, -0.08043625, -0.14584665, -144232.5, -5778.8076, 0.00000016006682, 10.00095, 9.998005 
6.050657e+2, 2.9587138e+2, 115638.79, -191679.84, 66682.234, 0.28628403, 0.091122404, 129483.82, 169935.55, 0.0000052467194, 10.002068, 9.998012 
6.0506696e+2, 3.0586773e+2, 199265.53, -90552.93, 49735.402, 0.2477303, -0.08511978, 207563.0, 207563.0, 0.000031327, 10.002163, 9.998326 
6.0506463e+2, 3.1586522e+2, 140760.14, -65117.89, 51076.957, -0.107547365, -0.18940991, 152735.44, 152735.44, 0.00009198692, 10.001499, 9.998823 
6.1497843e+2, 1.2587264e+2, -1894085.3, -1774214.8, -170810.25, 0.04113367, -0.22670683, -1653129.6, 53305.12, 0.000000091949275, 9.998657, 10.000212 
6.149868e+2, 1.3587397e+2, -1847547.1, -1727334.5, 222748.78, 0.06944848, -0.11010655, -1556725.0, 51700.38, 0.0, 9.998365, 10.000046 
6.1499476e+2, 1.45875e+2, -1633591.8, -1490779.4, 28023.418, 0.13737413, -0.041935205, -1485477.4, 24938.809, 0.0, 9.998823, 10.000754 
6.1499697e+2, 1.5587635e+2, -1353407.4, -1312546.4, -4366.5615, 0.04544398, -0.004701102, -1312085.0, 100316.75, 0.0, 10.00011, 10.000684 
6.1500007e+2, 1.658761e+2, -1377879.3, -1445382.5, 31139.15, -0.0013516315, -0.013874655, -1365709.0, -51304.57, 0.0, 10.000026, 9.999132 
6.150048e+2, 1.7587458e+2, -1408484.0, -1392168.0, 31810.0, 0.039749343, -0.0925429, -1367486.6, -151065.94, 0.0, 9.999061, 9.999295 
6.1500984e+2, 1.8587415e+2, -1259929.3, -1070861.0, 91159.65, 0.040001407, -0.1599226, -1034068.06, 84352.75, 0.0, 9.998552, 10.001069 
6.150152e+2, 1.958744e+2, -1179504.9, -993798.94, 131814.75, -0.00018838047, -0.25808555, -925416.7, 94994.05, 0.0, 9.998484, 10.000959 
6.1502093e+2, 2.0587458e+2, -1102747.0, -1051042.9, 147327.13, -0.010900384, -0.26330972, -927316.8, -4909.3965, 0.0, 9.998963, 9.999664 
6.15027e+2, 2.1587463e+2, -883246.4, -895414.8, 155458.84, 0.0047665345, -0.23788096, -733752.7, 90657.25, 0.0, 9.999796, 9.9996605 
6.150327e+2, 2.2587466e+2, -735844.75, -801634.9, 171416.86, -0.07325403, -0.18667339, -594195.2, 132217.45, 0.0, 10.000268, 9.9994 
6.15038e+2, 2.3587452e+2, -599004.8, -674674.8, 151132.23, -0.21871553, -0.15462418, -481043.66, 147373.0, 0.0, 10.000487, 9.999494 
6.1504376e+2, 2.4587451e+2, -391655.53, -453446.56, 70551.164, -0.15615055, -0.13810678, -345531.56, 184882.84, 0.0, 10.000938, 10.000117 
6.1504984e+2, 2.5587448e+2, -226537.08, -351100.78, 130321.336, 0.054965984, -0.16530368, -144379.75, 288028.97, 0.0, 10.0015135, 9.999873 
6.150543e+2, 2.6587296e+2, -335393.66, -639909.3, 134450.48, 0.076179, -0.16595675, -284527.44, 49898.527, 0.0, 10.001334, 9.997303 
6.150576e+2, 2.7587017e+2, -337285.16, -569049.5, 92660.8, -0.034900766, -0.18962151, -304793.8, -68332.93, 0.0, 10.000552, 9.997495 
6.1506176e+2, 2.8586885e+2, -52383.848, -168116.66, 56751.7, 0.0005297948, -0.17410056, -29199.182, 109274.46, 0.00000012615395, 10.00092, 9.999398 
6.1506635e+2, 2.9586866e+2, 192970.7, -16431.318, 108021.12, 0.1321123, -0.15364239, 238705.28, 279174.63, 0.000004351736, 10.002007, 9.999242 
6.150683e+2, 3.0586654e+2, 166373.6, -149617.89, 20147.568, 0.1503357, -0.21213889, 167653.02, 167653.02, 0.000027327762, 10.002122, 9.997944 
6.1506736e+2, 3.158657e+2, 62403.695, -208206.88, 39479.85, -0.0067676604, -0.10828509, 68045.84, 68045.84, 0.00008366508, 10.001424, 9.997874 
6.249775e+2, 1.2586866e+2, -1892365.5, -1753280.9, -157654.39, 0.096253365, -0.28503287, -1650512.3, 55961.652, 0.000000014013729, 9.998589, 10.000389 
6.2498486e+2, 1.3587122e+2, -1655552.3, -1612832.5, 241289.48, -0.012548957, -0.06909506, -1391959.4, 216493.97, 0.0, 9.999584, 10.000248 
6.249938e+2, 1.4587238e+2, -1601419.6, -1467550.8, 66516.68, 0.15609968, 0.0026358264, -1440120.6, 70322.555, 0.0, 9.999026, 10.000808 
6.2499624e+2, 1.5587342e+2, -1670981.6, -1453267.6, 11101.506, 0.07031816, 0.0019035916, -1452703.0, -40270.61, 0.0, 9.997897, 10.000775 
6.249992e+2, 1.6587341e+2, -1580339.9, -1482367.5, 95480.836, 0.0005322272, -0.016738622, -1424040.0, -109607.99, 0.0, 9.998365, 9.999684 
6.25004e+2, 1.7587255e+2, -1266528.5, -1266169.5, 150645.89, 0.022148829, -0.08635519, -1115703.0, 100737.26, 0.0, 9.999795, 9.999802 
6.2500924e+2, 1.8587248e+2, -1052512.9, -1010667.94, 176275.69, 0.043931197, -0.12091359, -854077.4, 264360.44, 0.0, 10.000139, 10.000722 
6.2501466e+2, 1.9587286e+2, -1028926.44, -957512.8, 115989.66, 0.03852519, -0.16998588, -871858.25, 148570.98, 0.0, 9.999667, 10.000641 
6.250204e+2, 2.0587285e+2, -957705.9, -981618.6, 139158.95, -0.0055346903, -0.1799528, -829990.6, 92437.48, 0.0, 9.999964, 9.999657 
6.250266e+2, 2.1587244e+2, -740948.4, -825421.6, 130616.47, -0.06290275, -0.20100869, -645909.4, 178524.06, 0.0, 10.000775, 9.999665 
6.250328e+2, 2.2587213e+2, -705050.8, -790918.1, 130430.81, -0.096648335, -0.18214814, -610669.1, 115769.305, 0.0, 10.000491, 9.999367 
6.250389e+2, 2.3587175e+2, -759283.4, -756131.56, 136302.81, -0.11366101, -0.17015062, -621395.56, 7048.9775, 0.0, 9.999399, 9.999461 
6.25045e+2, 2.4587159e+2, -538153.9, -506522.38, 78082.44, -0.074362054, -0.1755904, -442670.06, 87773.08, 0.0, 9.999851, 10.000279 
6.2505084e+2, 2.558715e+2, -225835.52, -331304.63, 30145.805, 0.0076197693, -0.2276967, -217827.14, 214610.23, 0.0, 10.001436, 10.000046 
6.250556e+2, 2.6587048e+2, -248487.5, -590581.44, 5751.742, 0.044412524, -0.18523152, -248390.83, 86059.234, 0.0, 10.001893, 9.997375 
6.250595e+2, 2.758687e+2, -190206.36, -487160.97, 53088.047, 0.05330182, -0.11956248, -181000.92, 55476.5, 0.0, 10.001509, 9.997598 
6.250634e+2, 2.8586724e+2, 46504.855, -89751.85, 65181.855, 0.04914691, -0.13612457, 72664.08, 211154.7, 0.000000116905284, 10.001465, 9.999678 
6.250671e+2, 2.9586604e+2, 161543.05, -12175.621, 17567.096, 0.031244772, -0.24407005, 163301.69, 203795.52, 0.000004287332, 10.001695, 9.999429 
6.250702e+2, 3.0586457e+2, 186185.95, -182141.61, -105406.016, 0.11671638, -0.22535805, 214217.19, 214217.19, 0.000025839543, 10.0024395, 9.997564 
6.250715e+2, 3.1586397e+2, 340251.88, -128412.84, -103770.625, 0.1615736, -0.059214078, 362200.6, 362200.6, 0.00007841617, 10.003541, 9.997407 
6.3497686e+2, 1.2586708e+2, -1819069.0, -1622395.4, -103512.07, 0.13546523, -0.05913853, -1577956.5, 128537.55, 0.0000000049225286, 9.998672, 10.001254 
6.349827e+2, 1.3586824e+2, -1590560.0, -1484785.5, 265828.44, -0.19572203, -0.076656744, -1266634.4, 341847.16, 0.0, 9.99961, 10.001118 
6.34992e+2, 1.4586855e+2, -1614662.3, -1496247.3, 13210.609, 0.057504438, -0.11823519, -1494791.4, 15686.523, 0.0, 9.999032, 10.000609 
6.3499427e+2, 1.558694e+2, -1669052.8, -1457667.3, -14709.349, 0.07338509, -0.1179126, -1456648.6, -44179.273, 0.0, 9.997929, 10.000732 
6.349976e+2, 1.6587028e+2, -1477803.6, -1263572.6, 143557.4, -0.013841585, -0.12941505, -1191572.4, 122885.77, 0.0, 9.998344, 10.001194 
6.35003e+2, 1.7587095e+2, -1178276.6, -1087616.6, 202778.4, -0.07271617, -0.19355613, -925163.4, 291283.88, 0.0, 9.999812, 10.001022 
6.3500875e+2, 1.8587127e+2, -1168746.5, -1248049.1, 153804.63, -0.029077666, -0.15661548, -1049564.3, 68880.23, 0.0, 10.000127, 9.999095 
6.3501453e+2, 1.958713e+2, -1136459.3, -1174744.0, 106910.4, 0.049601182, -0.08200127, -1046991.06, -26542.734, 0.0, 9.999643, 9.99916 
6.350203e+2, 2.0587113e+2, -969818.3, -991876.75, 164118.2, -0.019321987, -0.0364593, -816359.1, 106092.31, 0.0, 9.9999, 9.999618 
6.350262e+2, 2.158707e+2, -750573.25, -829032.25, 161040.56, -0.18430252, -0.058298662, -624052.9, 200402.86, 0.0, 10.000705, 9.999674 
6.350332e+2, 2.2587007e+2, -690195.4, -742318.3, 84530.18, -0.114146106, -0.09027079, -627800.4, 98660.64, 0.0, 10.000417, 9.999734 
6.3504076e+2, 2.358692e+2, -751406.75, -724668.9, 109722.98, 0.11813534, -0.16660777, -627503.4, 964.9309, 0.0, 9.999333, 9.999708 
6.350469e+2, 2.4586834e+2, -618475.25, -664258.9, 133832.92, 0.11963937, -0.19574717, -505590.47, 24884.883, 0.0, 9.999813, 9.999216 
6.350519e+2, 2.558674e+2, -294598.7, -460207.38, 89131.14, -0.04288507, -0.22679888, -255744.02, 176739.34, 0.0, 10.001374, 9.999193 
6.3505656e+2, 2.6586714e+2, -161428.06, -395043.75, -13422.328, -0.056943476, -0.14300412, -160659.4, 173828.77, 0.0, 10.001836, 9.998742 
6.3506097e+2, 2.7586734e+2, -121002.73, -322012.47, 47074.055, 0.03295077, -0.015661566, -110524.74, 125967.14, 0.0, 10.001422, 9.998772 
6.350647e+2, 2.85866e+2, -11972.251, -206198.63, 65164.594, 0.014339246, -0.031434614, 7864.9595, 146369.52, 0.0000001448745, 10.00144, 9.998893 
6.350678e+2, 2.9586354e+2, 98053.06, -127957.28, 34507.598, -0.08701467, -0.18013865, 103204.33, 143728.39, 0.000005079309, 10.001634, 9.998663 
6.3507235e+2, 3.0586192e+2, 152407.84, -248515.38, -66252.9, 0.07088339, -0.11631223, 163072.5, 163072.5, 0.000027818513, 10.002419, 9.997117 
6.3507634e+2, 3.1586027e+2, 314874.13, -142638.44, -41003.785, 0.2646033, -0.019121101, 318519.97, 318519.97, 0.00008105603, 10.003389, 9.997376 
6.449759e+2, 1.2586392e+2, -1827402.9, -1636480.5, 7612.5835, 0.17800505, -0.07086812, -1636177.5, 70345.016, 0.0000000021351345, 9.998655, 10.001163 
6.4498055e+2, 1.3586533e+2, -1913288.4, -1634660.6, 240771.47, -0.2597298, -0.06862255, -1495803.1, 112705.6, 0.0, 9.99739, 10.001147 
6.4499044e+2, 1.4586538e+2, -1821230.5, -1592672.9, -921.9858, 0.0725632, -0.13796914, -1592669.1, -82161.63, 0.0, 9.997593, 10.000647 
6.4499336e+2, 1.558656e+2, -1485503.5, -1362037.6, -19412.896, 0.12690695, -0.2060817, -1359057.3, 53447.258, 0.0, 9.999152, 10.000801 
6.4499664e+2, 1.6586676e+2, -1331088.3, -1171077.4, 100082.81, 0.014841878, -0.20371485, -1122952.3, 191538.28, 0.0, 9.99925, 10.001395 
6.4500165e+2, 1.7586839e+2, -1386870.3, -1169980.1, 52027.086, -0.10636281, -0.18966901, -1158145.8, 58325.15, 0.0, 9.998292, 10.001195 
6.450079e+2, 1.8586877e+2, -1376032.1, -1356689.8, 48262.72, -0.051777642, -0.1507457, -1317138.9, -198671.03, 0.0, 9.998737, 9.999022 
6.450148e+2, 1.9586816e+2, -1070561.8, -1151426.0, 104347.99, 0.089887515, -0.13008457, -999086.5, 21390.973, 0.0, 10.000134, 9.999083 
6.4502096e+2, 2.0586796e+2, -915618.56, -978631.75, 204746.36, 0.03495686, -0.08100149, -739968.9, 182512.67, 0.0, 10.000325, 9.999502 
6.450268e+2, 2.1586789e+2, -916438.75, -925153.5, 180309.06, -0.14440534, -0.05318275, -740434.4, 84048.625, 0.0, 9.999629, 9.999536 
6.450337e+2, 2.258674e+2, -800070.1, -799424.0, 81630.71, -0.06382028, -0.063340254, -718115.7, 8371.4795, 0.0, 9.999672, 9.999707 
6.4504135e+2, 2.3586652e+2, -622299.44, -664770.06, 67106.2, 0.19845624, -0.13804357, -573148.8, 55345.336, 0.0, 10.000228, 9.99969 
6.4504766e+2, 2.4586546e+2, -547583.2, -650336.75, 162388.64, 0.1904461, -0.17632617, -428637.8, 101866.08, 0.0, 10.000381, 9.999042 
6.45053e+2, 2.5586417e+2, -465166.5, -553198.7, 173627.64, -0.006400476, -0.22443438, -330062.63, 102454.055, 0.0, 10.000243, 9.999103 
6.450578e+2, 2.6586413e+2, -322357.06, -406009.1, 55586.645, -0.04629895, -0.15175892, -294618.06, 39900.41, 0.0, 10.0004425, 9.999338 
6.4506215e+2, 2.7586484e+2, -158122.0, -287759.06, 50478.0, 0.037139937, -0.03027274, -140785.38, 95728.24, 0.000000000000000000046744374, 10.00094, 9.99924 
6.4506626e+2, 2.8586358e+2, -46331.96, -318824.66, 70542.95, 0.02383932, -0.014001759, -29152.836, 109374.586, 0.00000034821963, 10.00162, 9.99803 
6.4507e+2, 2.958607e+2, 157387.83, -184272.6, 21749.549, -0.06267809, -0.11711304, 158766.81, 199322.97, 0.0000068469953, 10.002396, 9.997911 
6.45075e+2, 3.0585897e+2, 235626.28, -176136.55, -26380.44, 0.083345026, -0.046910856, 237309.52, 237309.52, 0.00003363737, 10.00285, 9.997407 
6.4507955e+2, 3.158569e+2, 336308.0, -56680.25, 35498.477, 0.25665876, -0.022959666, 339488.8, 339488.8, 0.000093360155, 10.003197, 9.998059 
6.5497434e+2, 1.2585919e+2, -1896593.3, -1788592.5, -15013.828, 0.12722479, -0.33086866, -1786544.1, -79985.06, 0.0000000012982254, 9.9986925, 10.000102 
6.5497804e+2, 1.3586245e+2, -1968618.0, -1753364.1, 197764.14, -0.2698681, -0.045976184, -1635837.3, -27302.295, 0.0, 9.997415, 10.000316 
6.549889e+2, 1.4586283e+2, -1796355.6, -1548010.8, 46988.242, 0.14494926, -0.063389026, -1539417.6, -28884.965, 0.0, 9.997618, 10.000947 
6.549931e+2, 1.5586197e+2, -1470289.4, -1337636.6, 36688.324, 0.17241204, -0.267208, -1328165.9, 84372.21, 0.0, 9.999179, 10.000959 
6.5499616e+2, 1.6586287e+2, -1409017.6, -1334314.3, 57654.48, 0.024383118, -0.23491496, -1302969.6, 11559.182, 0.0, 9.999258, 10.000268 
6.5499973e+2, 1.7586492e+2, -1446711.0, -1299949.8, 29060.023, -0.137594, -0.07020847, -1294405.1, -77894.51, 0.0, 9.998315, 10.00029 
6.550065e+2, 1.8586497e+2, -1273959.9, -1139311.8, 94024.14, -0.078610696, -0.103429124, -1090993.8, 27513.832, 0.0, 9.998716, 10.000524 
6.550152e+2, 1.9586352e+2, -980422.44, -952796.1, 155838.47, 0.099528246, -0.31864226, -810159.8, 210356.77, 0.0, 10.000092, 10.000464 
6.550221e+2, 2.0586339e+2, -941501.25, -1020811.2, 172376.08, 0.10282574, -0.31009716, -804277.7, 118240.17, 0.0, 10.000273, 9.999242 
6.5502787e+2, 2.1586408e+2, -943990.9, -967259.06, 163604.13, -0.006849395, -0.18096074, -791607.75, 32907.35, 0.0, 9.999565, 9.999277 
6.550341e+2, 2.2586417e+2, -842935.8, -871159.9, 96346.58, -0.001144, -0.09658885, -759673.25, -33156.77, 0.0, 9.999602, 9.999245 
6.550404e+2, 2.3586372e+2, -659518.6, -721528.25, 91565.43, 0.07522125, -0.083579294, -593851.2, 34670.992, 0.0, 10.000146, 9.999335 
6.550471e+2, 2.4586293e+2, -505943.5, -548106.56, 151415.78, 0.08736706, -0.11768148, -374148.72, 156380.3, 0.0, 10.000318, 9.999772 
6.5505403e+2, 2.5586182e+2, -428730.97, -461230.9, 175740.14, 0.056614686, -0.2220529, -268491.13, 164046.61, 0.0, 10.00018, 9.999761 
6.550591e+2, 2.6586142e+2, -331454.88, -423374.28, 67154.9, 0.025550717, -0.20892611, -296038.44, 38502.293, 0.0, 10.00043, 9.9992285 
6.550628e+2, 2.758614e+2, -177797.72, -317544.75, 75942.195, -0.0028847475, -0.14478676, -144474.69, 92065.96, 0.0000000002377775, 10.000891, 9.999063 
6.5506786e+2, 2.8586012e+2, -115955.336, -456148.06, 94506.164, 0.0066196765, -0.07374501, -91464.48, 47093.336, 0.0000008000927, 10.001591, 9.997099 
6.550735e+2, 2.958577e+2, 93329.62, -296884.22, 55278.37, 0.033709224, -0.045167573, 101009.305, 141598.4, 0.000010270006, 10.002316, 9.997172 
6.550781e+2, 3.0585587e+2, 306824.06, -26285.088, -18933.805, 0.0914116, -0.00811818, 307896.8, 307896.8, 0.00004390313, 10.00284, 9.998445 
6.550807e+2, 3.1585404e+2, 420497.6, 138629.53, 77746.6, 0.021954982, -0.05780244, 440519.88, 440519.88, 0.000113456364, 10.003118, 9.99944 
6.649724e+2, 1.2585455e+2, -1921918.0, -1787713.3, -163261.3, 0.08120464, -0.33102238, -1678302.3, 28303.668, 0.00000000035571668, 9.998448, 10.00023 
6.649765e+2, 1.3585787e+2, -1790498.0, -1648655.8, 67213.3, -0.21162003, -0.059736297, -1621866.0, -13285.32, 0.0, 9.998535, 10.0005045 
6.649877e+2, 1.4585899e+2, -1677536.4, -1430281.8, 21440.47, 0.23337413, -0.039419603, -1428436.4, 82134.01, 0.0, 9.998194, 10.001465 
6.6499144e+2, 1.5585917e+2, -1602795.8, -1355970.1, 14386.998, 0.14799558, -0.18803859, -1355134.4, 57430.426, 0.0, 9.998085, 10.001355 
6.649949e+2, 1.6585976e+2, -1519273.1, -1455322.3, 58893.164, -0.00298405, -0.17475693, -1420284.0, -105724.63, 0.0, 9.9987955, 9.9996605 
6.6499937e+2, 1.7586048e+2, -1239093.8, -1255228.0, 58005.14, -0.084951594, -0.08300816, -1188597.5, 27957.74, 0.0, 9.999985, 9.999787 
6.6500646e+2, 1.8586035e+2, -1050537.3, -994806.4, 109083.97, -0.023133034, -0.1302158, -910085.0, 208468.94, 0.0, 10.000095, 10.00085 
6.6501486e+2, 1.9585946e+2, -1053013.6, -955412.2, 67935.9, 0.100162916, -0.31857124, -920566.06, 99990.11, 0.0, 9.999442, 10.000764 
6.650219e+2, 2.0585965e+2, -1053535.5, -1037324.94, 62820.742, 0.10831567, -0.3111674, -982088.75, -59535.285, 0.0, 9.999343, 9.999576 
6.6502804e+2, 2.1586047e+2, -915490.8, -922176.0, 87768.81, 0.04872789, -0.20061138, -831000.94, -6452.3584, 0.0, 9.999629, 9.999555 
6.6503423e+2, 2.2586027e+2, -806346.6, -879013.3, 82396.695, 0.037421327, -0.1461093, -752628.2, -26075.416, 0.0, 9.999964, 9.999017 
6.6504043e+2, 2.3585925e+2, -652092.25, -741582.1, 80998.7, 0.05272433, -0.16759291, -604301.25, 24263.209, 0.0, 10.000292, 9.99913 
6.650472e+2, 2.4585897e+2, -510137.1, -527879.1, 112846.84, 0.07887408, -0.15297529, -405813.13, 124753.766, 0.0, 10.000188, 9.999977 
6.6505456e+2, 2.558591e+2, -474212.13, -466422.94, 88252.15, 0.11554087, -0.15047747, -381979.5, 50584.43, 0.0, 9.999786, 9.999921 
6.6506016e+2, 2.6585823e+2, -326740.0, -450269.94, 12765.691, 0.08991909, -0.17724058, -325434.6, 9136.218, 0.0, 10.000582, 9.998973 
6.650646e+2, 2.758565e+2, 5094.7646, -252736.19, -2587.6816, 0.022284817, -0.2609999, 5120.733, 241706.72, 0.0000000023427176, 10.002242, 9.998857 
6.650703e+2, 2.858552e+2, 51560.3, -361809.25, 40593.566, 0.045668624, -0.18880631, 55508.938, 194111.53, 0.0000014418595, 10.002685, 9.997219 
6.650768e+2, 2.9585394e+2, 103300.99, -273523.78, 66474.086, 0.13050303, -0.05455938, 114683.586, 155305.86, 0.000014823799, 10.002308, 9.997333 
6.650813e+2, 3.058519e+2, 264878.53, -38848.04, 2138.1663, 0.14402053, -0.052329723, 264893.6, 264893.6, 0.000057815294, 10.002524, 9.99851 
6.650837e+2, 3.158498e+2, 412989.13, 144459.3, 14112.455, 0.01736752, -0.12558208, 413728.75, 413728.75, 0.0001407211, 10.003027, 9.999528 
6.7496973e+2, 1.2585e+2, -1825705.4, -1595934.1, -125412.48, -0.0647812, -0.077116095, -1540740.4, 165922.67, 0.0000000023126079, 9.998488, 10.001522 
6.749758e+2, 1.3585162e+2, -1699333.1, -1459265.3, 65579.28, -0.14458893, -0.11245929, -1442519.1, 166125.9, 0.0, 9.998547, 10.001792 
6.749864e+2, 1.4585404e+2, -1628501.1, -1335834.8, 7488.5737, 0.27538392, -0.05653966, -1335643.3, 174975.69, 0.0, 9.998219, 10.002105 
6.7498803e+2, 1.5585735e+2, -1553443.5, -1263692.8, 21789.193, -0.021781126, 0.043958593, -1262063.4, 150520.47, 0.0, 9.998124, 10.001971 
6.7499256e+2, 1.6585743e+2, -1517557.1, -1456698.9, 97489.445, -0.13106851, -0.02048273, -1385000.1, -70418.16, 0.0, 9.998815, 9.999643 
6.750004e+2, 1.758551e+2, -1244282.3, -1266690.9, 102591.164, 0.0012399676, -0.2322965, -1152285.4, 64319.016, 0.0, 9.999989, 9.999707 
6.750075e+2, 1.8585494e+2, -1112215.5, -1122095.9, 77945.82, 0.05825204, -0.23271579, -1039053.5, 79552.79, 0.0, 10.000089, 9.999981 
6.750137e+2, 1.9585617e+2, -1109904.3, -1062355.5, 51804.742, 0.025393324, -0.12252641, -1029130.25, -8535.42, 0.0, 9.999397, 10.000051 
6.750202e+2, 2.0585689e+2, -1000343.06, -915526.94, 67862.24, -0.00700108, -0.07532988, -877911.7, 44675.47, 0.0, 9.9992895, 10.000441 
6.75027e+2, 2.158571e+2, -867989.94, -807978.9, 104345.516, -0.027933078, -0.1115956, -729410.4, 95173.1, 0.0, 9.999562, 10.000371 
6.75034e+2, 2.2585577e+2, -815302.6, -880336.56, 90208.266, 0.0061392174, -0.20908478, -751929.6, -25334.086, 0.0, 9.99989, 9.9990425 
6.75041e+2, 2.3585321e+2, -665045.9, -748940.56, 98695.45, 0.072815016, -0.38584375, -599753.44, 28866.691, 0.0, 10.000214, 9.999116 
6.750478e+2, 2.4585368e+2, -541623.56, -583197.8, 92287.016, 0.10461936, -0.27531353, -467811.56, 62804.68, 0.0, 10.000145, 9.999615 
6.7505443e+2, 2.5585622e+2, -508221.22, -525266.0, 84054.18, 0.11285955, -0.0001825778, -432258.47, 335.1059, 0.0, 9.999734, 9.999541 
6.750609e+2, 2.658547e+2, -361884.34, -511934.94, 70644.76, 0.09313155, -0.05256395, -333858.78, 748.8436, 0.0, 10.000537, 9.9985695 
6.7506725e+2, 2.7585015e+2, -23547.877, -296354.38, 59800.95, 0.04891623, -0.37845555, -11014.898, 225634.19, 0.0000000015372758, 10.002179, 9.998585 
6.7507356e+2, 2.8584883e+2, 133798.83, -193095.9, 19210.936, 0.081837445, -0.3579748, 134923.94, 273585.47, 0.0000017821444, 10.002686, 9.99838 
6.750796e+2, 2.9584968e+2, 166112.44, -132646.94, 60599.49, 0.16370709, -0.12979549, 177936.31, 218590.53, 0.000019076204, 10.002258, 9.998326 
6.750842e+2, 3.058472e+2, 193308.81, -173259.8, 16986.795, 0.17092581, -0.16682315, 194094.3, 194094.3, 0.000073988194, 10.002471, 9.997605 
6.7508775e+2, 3.1584412e+2, 313795.3, -36805.664, 47259.38, 0.098336436, -0.25131282, 320053.94, 320053.94, 0.00017623325, 10.002931, 9.998321 
6.849678e+2, 1.2584521e+2, -1969336.8, -1607176.0, 50849.734, -0.032615013, -0.0056830877, -1600171.8, 106540.33, 0.0000000036242784, 9.997245, 10.002052 
6.849737e+2, 1.358458e+2, -1843897.4, -1475023.8, 112143.48, -0.1486402, -0.1963053, -1443606.3, 165093.11, 0.0, 9.997336, 10.002263 
6.84984e+2, 1.4584823e+2, -1758523.4, -1446418.6, 5675.3076, 0.2493806, -0.13703522, -1446315.5, 64357.047, 0.0, 9.997521, 10.001685 
6.849858e+2, 1.5585186e+2, -1580191.1, -1316773.5, -65874.484, -0.046879455, 0.034131553, -1301218.4, 111419.016, 0.0, 9.998102, 10.001625 
6.849916e+2, 1.6585198e+2, -1503544.1, -1393321.4, 29480.984, -0.099410646, -0.03686171, -1385931.6, -71296.78, 0.0, 9.99867, 10.00015 
6.850012e+2, 1.7584953e+2, -1325259.8, -1257151.9, 57025.754, 0.1262017, -0.30886227, -1224785.9, -8129.577, 0.0, 9.99922, 10.000146 
6.850082e+2, 1.8584989e+2, -1230720.0, -1187429.6, 49054.508, 0.16616628, -0.27355635, -1155457.1, -36803.305, 0.0, 9.999314, 9.999904 
6.85013e+2, 1.9585206e+2, -1164676.9, -1095080.6, 74690.91, 0.034123164, -0.063335195, -1047479.44, -26843.28, 0.0, 9.999053, 9.999989 
6.850195e+2, 2.0585276e+2, -1039040.3, -938322.4, 111268.05, 0.0065781265, -0.012183205, -866547.8, 56081.617, 0.0, 9.999047, 10.000393 
6.850273e+2, 2.1585232e+2, -916937.1, -835030.3, 69178.22, 0.06339379, -0.110346645, -795592.1, 29039.633, 0.0, 9.999235, 10.000342 
6.850347e+2, 2.2585107e+2, -803194.2, -845877.5, 60438.938, 0.09060736, -0.2134709, -760439.56, -33797.39, 0.0, 9.999846, 9.999304 
6.850416e+2, 2.3584911e+2, -572367.2, -683559.9, 71359.92, 0.09236255, -0.35549974, -537502.56, 91157.12, 0.0, 10.000751, 9.999311 
6.850486e+2, 2.4584924e+2, -405795.3, -582769.0, 54125.867, 0.11030398, -0.25745848, -390554.0, 140105.47, 0.0, 10.001352, 9.999038 
6.8505543e+2, 2.5585076e+2, -250418.1, -459693.75, 23686.047, 0.1410834, -0.024231905, -247770.77, 184876.97, 0.0, 10.00176, 9.999012 
6.850622e+2, 2.6584917e+2, -226839.39, -472987.75, 40785.266, 0.12429722, -0.045779806, -220257.52, 114406.15, 0.0, 10.001575, 9.998337 
6.850691e+2, 2.7584526e+2, -212247.39, -407116.06, 28663.154, 0.078891836, -0.29133412, -208118.81, 28581.926, 0.00000000039754933, 10.000965, 9.998411 
6.8507576e+2, 2.8584376e+2, -39387.105, -231146.81, -36115.06, 0.107210465, -0.30063465, -32810.902, 105901.87, 0.000001935021, 10.0013075, 9.998781 
6.850821e+2, 2.958439e+2, 209491.89, -73964.78, -61370.664, 0.18205583, -0.17739168, 222208.63, 262916.5, 0.000022833043, 10.002394, 9.998666 
6.85087e+2, 3.0584118e+2, 268806.16, -172935.34, -88527.37, 0.17870694, -0.23613273, 285887.06, 285887.06, 0.00009092674, 10.00313, 9.9972925 
6.8509185e+2, 3.1583807e+2, 333660.84, -103522.87, -33330.82, 0.19362725, -0.2923099, 336187.4, 336187.4, 0.00021661, 10.003377, 9.997651 
6.949665e+2, 1.2584023e+2, -1980075.3, -1636521.0, 72217.82, 0.072403535, -0.1171676, -1621957.6, 84794.48, 0.00000000017840025, 9.997289, 10.0018215 
6.9496983e+2, 1.3584049e+2, -1869956.4, -1528442.3, 116870.125, -0.27995044, -0.31042132, -1492277.6, 116464.86, 0.0, 9.997344, 10.001885 
6.949802e+2, 1.4584158e+2, -1859172.9, -1660389.1, 20189.53, 0.10068334, -0.2896753, -1658359.4, -147627.95, 0.0, 9.997542, 10.000208 
6.9498473e+2, 1.5584265e+2, -1663480.5, -1501603.9, -36434.035, 0.015138218, -0.2259624, -1493781.6, -81055.97, 0.0, 9.99815, 10.000337 
6.949917e+2, 1.6584343e+2, -1433040.3, -1249684.4, 44422.77, 0.031001678, -0.22484595, -1239488.8, 75229.13, 0.0, 9.998684, 10.001127 
6.9500166e+2, 1.7584392e+2, -1257336.3, -1116317.1, 81077.18, 0.2325685, -0.30238727, -1079378.5, 137330.97, 0.0, 9.999222, 10.001111 
6.9500846e+2, 1.8584529e+2, -1180438.4, -1080761.5, 34681.74, 0.24265349, -0.24871504, -1069881.8, 48813.97, 0.0, 9.999304, 10.00064 
6.9501257e+2, 1.9584715e+2, -1127419.4, -1011287.56, 71672.875, 0.07228519, -0.1415041, -977111.1, 43568.52, 0.0, 9.999027, 10.000575 
6.9501954e+2, 2.0584732e+2, -1111885.6, -1079994.4, 112000.734, 0.09377673, -0.12016492, -982809.9, -60129.89, 0.0, 9.999005, 9.999443 
6.9502866e+2, 2.1584618e+2, -984217.9, -961250.94, 83030.28, 0.26448068, -0.19471166, -888913.75, -64220.543, 0.0, 9.999179, 9.999504 
6.9503605e+2, 2.2584619e+2, -778288.3, -779689.06, 88890.06, 0.23744862, -0.15806392, -690095.9, 36596.742, 0.0, 9.999784, 9.999787 
6.950422e+2, 2.3584689e+2, -557304.56, -633149.6, 109524.41, 0.057960328, -0.08065382, -479323.2, 149360.34, 0.0, 10.000671, 9.999694 
6.950494e+2, 2.4584565e+2, -465527.72, -693111.75, 63880.07, 0.04343199, -0.098945454, -448823.44, 81872.79, 0.0, 10.001293, 9.99831 
6.950574e+2, 2.558429e+2, -306517.22, -562861.94, 41393.645, 0.14583051, -0.22178684, -299998.84, 132726.8, 0.0, 10.001701, 9.998334 
6.9506407e+2, 2.6584178e+2, -237732.47, -486764.06, 13613.485, 0.13764286, -0.15659739, -236990.48, 97747.766, 0.0, 10.00154, 9.998258 
6.9506997e+2, 2.758418e+2, -228073.97, -428778.06, 17489.666, 0.05536014, 0.0015433554, -226561.3, 10179.149, 0.0000000054780975, 10.0009165, 9.998286 
6.950767e+2, 2.8583995e+2, -69149.984, -285938.84, 529.02625, 0.060443632, -0.01968799, -69148.69, 69607.71, 0.000002364329, 10.001277, 9.998418 
6.9508386e+2, 2.9583666e+2, 179028.42, -124785.57, -12119.921, 0.108114354, -0.20410374, 179511.14, 220294.06, 0.000027093956, 10.00234, 9.998342 
6.950895e+2, 3.0583394e+2, 283159.13, -133013.3, -78895.87, 0.104414105, -0.26665962, 297613.78, 297613.78, 0.00010798756, 10.003095, 9.997581 
6.9509566e+2, 3.1583178e+2, 310173.2, -134563.66, -11480.665, 0.20568623, -0.24986438, 310469.38, 310469.38, 0.0002566069, 10.003308, 9.997469 
7.049659e+2, 1.2583528e+2, -1813967.4, -1668172.6, 45073.75, 0.20767002, -0.15423939, -1655363.1, 51432.242, 0.0, 9.998888, 10.000847 
7.04967e+2, 1.3583513e+2, -1851882.6, -1628380.0, -18875.91, -0.31695476, -0.28389153, -1626797.0, -18002.023, 0.0, 9.997923, 10.000925 
7.0497745e+2, 1.4583567e+2, -1800661.9, -1631654.8, -12775.692, 0.056548707, -0.27600443, -1630694.5, -119903.89, 0.0, 9.997942, 10.000213 
7.0498466e+2, 1.558357e+2, -1530051.3, -1430054.9, 29662.027, 0.15301022, -0.31514242, -1421918.3, -9125.331, 0.0, 9.999049, 10.000384 
7.0499164e+2, 1.6583695e+2, -1350171.3, -1185373.8, 104063.46, 0.1360028, -0.2821588, -1135036.9, 179743.52, 0.0, 9.999149, 10.001342 
7.049995e+2, 1.7583892e+2, -1362554.3, -1144439.3, 73121.24, 0.14384116, -0.23183921, -1122194.6, 94563.68, 0.0, 9.998405, 10.001309 
7.0500666e+2, 1.8584035e+2, -1270681.0, -1127931.0, -3452.3577, 0.16592132, -0.18111415, -1127847.5, -9103.357, 0.0, 9.998701, 10.000607 
7.050128e+2, 1.9584116e+2, -1026097.75, -971781.44, -36519.676, 0.16099398, -0.1740482, -953428.56, 67309.28, 0.0, 9.999755, 10.000501 
7.050202e+2, 2.0584102e+2, -955619.7, -1043157.25, 7700.3154, 0.20295404, -0.16029333, -954947.5, -32205.758, 0.0, 10.000246, 9.999101 
7.0502865e+2, 2.1584013e+2, -846782.44, -928890.44, 14411.062, 0.28973904, -0.17394571, -844326.56, -19572.975, 0.0, 10.000273, 9.9992 
7.050362e+2, 2.2584021e+2, -714817.8, -749396.56, 38662.258, 0.2530487, -0.117206685, -689755.2, 36997.586, 0.0, 10.000224, 9.999779 
7.0504314e+2, 2.3584083e+2, -635549.44, -668756.94, 13865.3955, 0.12067674, -0.048497234, -630521.44, -1777.06, 0.0, 10.00013, 9.999706 
7.050507e+2, 2.4583954e+2, -574815.56, -715412.2, 10269.611, 0.09779383, -0.084823415, -574069.4, -43312.59, 0.0, 10.000419, 9.998573 
7.050587e+2, 2.5583678e+2, -393084.38, -577285.2, 49745.75, 0.1534417, -0.23318897, -380508.5, 52276.867, 0.0, 10.000993, 9.998573 
7.0506567e+2, 2.6583582e+2, -242520.72, -497416.4, 45537.285, 0.14314681, -0.16566966, -234629.73, 100166.98, 0.0, 10.001547, 9.998181 
7.0507187e+2, 2.7583596e+2, -66981.78, -359242.75, 38767.188, 0.097632304, 0.01572301, -61926.906, 174870.34, 0.000000016182126, 10.002064, 9.998207 
7.05079e+2, 2.8583384e+2, 29518.678, -287205.63, 48533.43, 0.123950824, -0.004792164, 36788.844, 175605.52, 0.0000030357212, 10.002156, 9.99799 
7.0508677e+2, 2.9583004e+2, 90537.14, -210012.84, 23139.166, 0.18855906, -0.2004194, 92308.17, 133158.08, 0.000031540207, 10.001915, 9.99796 
7.050929e+2, 3.0582777e+2, 250967.27, -163820.77, -25503.6, 0.14092389, -0.19679548, 252529.48, 252529.48, 0.00012311795, 10.002934, 9.99745 
7.050997e+2, 3.1582507e+2, 514817.25, -48816.61, -23622.027, 0.21685256, -0.22304223, 515805.53, 515805.53, 0.00029056397, 10.004769, 9.997356 
7.1496564e+2, 1.2583035e+2, -1918149.3, -1900243.6, 22815.848, 0.2633696, -0.11418279, -1884686.9, -177844.92, 0.0, 9.998958, 9.99922 
7.1496516e+2, 1.3582964e+2, -1947991.6, -1845621.5, -50202.66, -0.3158262, -0.12539245, -1825111.3, -216253.53, 0.0, 9.997993, 9.999405 
7.149756e+2, 1.4583044e+2, -1689704.0, -1409056.8, 18389.291, 0.05589205, -0.101946615, -1407857.0, 102993.49, 0.0, 9.997981, 10.001717 
7.149855e+2, 1.5583105e+2, -1433939.5, -1235594.6, 72190.87, 0.31173342, -0.23350061, -1212102.1, 200736.88, 0.0, 9.999066, 10.001712 
7.1499115e+2, 1.6583252e+2, -1389486.5, -1263603.8, 72365.17, 0.16189003, -0.2099798, -1230637.3, 84185.19, 0.0, 9.999139, 10.000808 
7.149947e+2, 1.7583458e+2, -1398892.9, -1226409.4, 56989.617, -0.19162838, -0.097860456, -1209280.6, 7521.635, 0.0, 9.998434, 10.000733 
7.1500266e+2, 1.8583502e+2, -1328677.5, -1246436.5, 31767.76, -0.11692618, -0.07401871, -1235594.6, -116795.51, 0.0, 9.998694, 9.999795 
7.1501356e+2, 1.9583413e+2, -1083066.3, -1079139.8, 7433.689, 0.24077792, -0.15828401, -1073414.5, -52604.383, 0.0, 9.999711, 9.999782 
7.150213e+2, 2.0583397e+2, -948668.44, -1012794.25, 3795.3975, 0.27834547, -0.12728886, -948444.56, -25631.041, 0.0, 10.000182, 9.999336 
7.15027e+2, 2.1583422e+2, -847182.7, -909255.9, 18713.172, 0.0885894, -0.05134756, -841977.7, -17164.76, 0.0, 10.000191, 9.999369 
7.150349e+2, 2.2583315e+2, -757228.75, -821367.9, 29599.152, 0.090603314, -0.09086665, -745657.0, -18834.38, 0.0, 10.000152, 9.999323 
7.1504444e+2, 2.35831e+2, -665792.75, -718772.3, 18274.398, 0.22388482, -0.2509854, -660100.8, -31259.877, 0.0, 10.000073, 9.999392 
7.150525e+2, 2.4583103e+2, -495447.47, -539667.56, 26136.191, 0.21676241, -0.21007276, -483323.7, 47516.734, 0.0, 10.000371, 9.999805 
7.150594e+2, 2.5583246e+2, -322824.78, -416877.1, 75331.09, 0.10635286, -0.061481085, -281046.47, 151781.05, 0.0, 10.000933, 9.999704 
7.150668e+2, 2.658312e+2, -249894.05, -505992.84, 59332.26, 0.08675327, -0.07331089, -236815.97, 98023.43, 0.0, 10.001514, 9.998138 
7.150745e+2, 2.758278e+2, -82811.35, -377774.63, 63546.348, 0.13536762, -0.24403478, -69703.54, 167167.58, 0.000000020828322, 10.001998, 9.998114 
7.1508247e+2, 2.858255e+2, -7378.7656, -356669.94, 33494.93, 0.23687683, -0.25005618, -4195.8076, 134697.8, 0.0000037854625, 10.002128, 9.997527 
7.150906e+2, 2.9582402e+2, 48092.54, -286498.9, 28119.516, 0.362303, -0.16605935, 50439.28, 91348.92, 0.000035842306, 10.001867, 9.997459 
7.1509683e+2, 3.0582258e+2, 211050.36, -237819.52, 41545.965, 0.22549894, -0.025406627, 214863.33, 214863.33, 0.00013552581, 10.002899, 9.996956 
7.1510345e+2, 3.158179e+2, 492270.66, -67071.02, 40682.574, 0.08283093, -0.20757638, 495214.13, 495214.13, 0.0003156811, 10.004649, 9.997286 
7.249631e+2, 1.2582298e+2, -2211233.0, -1982489.4, -110719.96, 0.2357712, -0.11185215, -1937676.4, -230759.33, 0.0, 9.996662, 9.999785 
7.2496384e+2, 1.3582319e+2, -2043664.8, -1840796.9, -58239.242, -0.19598447, -0.071844816, -1825266.5, -216342.98, 0.0, 9.997131, 9.999851 
7.249738e+2, 1.4582454e+2, -1786964.3, -1450902.3, 61483.777, 0.122606486, -0.018525606, -1440006.8, 70903.84, 0.0, 9.99729, 10.001767 
7.2498333e+2, 1.558252e+2, -1685798.8, -1348962.3, -4312.0996, 0.28337678, -0.1515119, -1348907.1, 63991.055, 0.0, 9.997308, 10.00178 
7.2498935e+2, 1.6582632e+2, -1558057.9, -1348992.9, -27828.078, 0.13136956, -0.16278401, -1345352.3, -30468.252, 0.0, 9.997989, 10.000781 
7.2499377e+2, 1.7582774e+2, -1297863.4, -1180346.8, -15104.859, -0.16713618, -0.11163502, -1178436.4, 38432.67, 0.0, 9.999139, 10.00071 
7.250022e+2, 1.8582778e+2, -1179283.9, -1202177.4, 26166.85, -0.079783246, -0.11698461, -1162169.6, -43300.33, 0.0, 9.999828, 9.999556 
7.250136e+2, 1.9582659e+2, -1034291.4, -1078012.1, 33038.656, 0.26298082, -0.20656972, -1016535.75, 4346.7017, 0.0, 10.000136, 9.999588 
7.250215e+2, 2.0582657e+2, -933610.06, -986425.4, 31710.21, 0.27935487, -0.16212735, -918751.5, 4132.5747, 0.0, 10.000198, 9.999514 
7.2502685e+2, 2.1582721e+2, -853782.94, -898247.5, 33356.516, 0.06770625, -0.06125915, -835928.7, -11049.525, 0.0, 10.0000725, 9.999508 
7.25035e+2, 2.2582597e+2, -762684.3, -834481.5, 74699.13, 0.09022741, -0.12184177, -715705.5, 11184.955, 0.0, 10.000156, 9.999231 
7.2504514e+2, 2.3582324e+2, -626339.94, -712381.75, 77699.77, 0.2791859, -0.33066317, -580546.1, 48368.047, 0.0, 10.000394, 9.999285 
7.250534e+2, 2.458234e+2, -484559.44, -548750.5, 57133.38, 0.27236906, -0.26485565, -451123.72, 79789.86, 0.0, 10.000506, 9.999676 
7.2506016e+2, 2.5582546e+2, -383720.72, -455278.38, -2536.7805, 0.118470974, -0.04030822, -383630.9, 49265.832, 0.0, 10.000548, 9.999625 
7.250681e+2, 2.6582444e+2, -286289.72, -463181.0, -15236.813, 0.10155212, -0.054430775, -284986.88, 49919.06, 0.0, 10.001015, 9.99867 
7.250769e+2, 2.7582097e+2, -78113.945, -320873.84, 16571.758, 0.1938837, -0.28123057, -76987.914, 159947.55, 0.000000011844985, 10.001804, 9.998593 
7.2508514e+2, 2.8581873e+2, 27247.672, -361940.75, 14433.687, 0.2768094, -0.2945503, 27782.234, 166739.97, 0.000004675658, 10.002469, 9.997322 
7.250928e+2, 2.9581726e+2, 203530.45, -233104.53, 16992.44, 0.34420264, -0.18993059, 204190.75, 245166.52, 0.000040333267, 10.003031, 9.997264 
7.250995e+2, 3.0581623e+2, 258262.88, -220471.89, 95700.77, 0.19132331, 0.0042311233, 276684.9, 276684.9, 0.00014552723, 10.003242, 9.996913 
7.2510713e+2, 3.158119e+2, 306326.88, -100621.2, 89785.35, 0.06450377, -0.14098704, 325255.8, 325255.8, 0.00033096623, 10.003111, 9.997803 
7.34958e+2, 1.2581311e+2, -2006086.4, -1558045.1, -92927.39, 0.034146156, -0.14444603, -1539535.9, 167484.94, 0.0, 9.99668, 10.00268 
7.34963e+2, 1.3581584e+2, -1876203.5, -1495637.5, -41192.113, -0.0072026206, -0.12245498, -1491230.0, 117762.2, 0.0, 9.99714, 10.002214 
7.3497206e+2, 1.458179e+2, -1886633.3, -1652859.5, 56861.58, 0.20032068, -0.031624548, -1639762.6, -128791.03, 0.0, 9.997277, 10.0003805 
7.34978e+2, 1.5581807e+2, -1770113.9, -1533393.1, 7881.7715, 0.006278433, -0.07498869, -1533131.0, -120160.45, 0.0, 9.997349, 10.000493 
7.3498607e+2, 1.6581827e+2, -1518302.1, -1272531.5, 8446.307, -0.011951676, -0.14750694, -1272241.6, 42724.125, 0.0, 9.998014, 10.001292 
7.349964e+2, 1.7581841e+2, -1262026.1, -1106535.5, 31610.057, 0.17032866, -0.27491814, -1100355.0, 116603.57, 0.0, 9.999139, 10.001218 
7.350053e+2, 1.8581855e+2, -1160239.0, -1155329.3, 33461.61, 0.22956473, -0.30948538, -1124232.6, -5277.8706, 0.0, 9.999801, 9.99989 
7.35013e+2, 1.9581856e+2, -1020199.1, -1034761.4, 48474.336, 0.17365955, -0.31365326, -978462.1, 42492.44, 0.0, 10.000084, 9.999907 
7.350205e+2, 2.0581886e+2, -930051.5, -969161.5, 21292.97, 0.15415254, -0.2584515, -920696.5, 2256.2944, 0.0, 10.000152, 9.999657 
7.35028e+2, 2.1581924e+2, -848974.0, -875631.56, 35331.707, 0.16566862, -0.20069028, -824540.56, 410.80914, 0.0, 10.00002, 9.999686 
7.350364e+2, 2.2581875e+2, -756517.56, -807373.44, 76958.88, 0.19796, -0.20435496, -700894.6, 26060.549, 0.0, 10.000095, 9.999448 
7.3504525e+2, 2.3581746e+2, -630664.75, -704360.4, 90992.46, 0.2361924, -0.29327753, -569342.4, 59622.117, 0.0, 10.000321, 9.999375 
7.350534e+2, 2.4581659e+2, -593302.06, -762377.44, 53855.42, 0.20940308, -0.25463536, -577604.9, -46628.344, 0.0, 10.000455, 9.998234 
7.3506105e+2, 2.558159e+2, -480284.75, -640226.8, 6892.3936, 0.13544741, -0.16426773, -479988.28, -46996.277, 0.0, 10.0004835, 9.998386 
7.3506963e+2, 2.6581565e+2, -217965.02, -310227.22, 10396.914, 0.14186157, -0.10050747, -216807.9, 118186.99, 0.0, 10.000968, 9.9997425 
7.35079e+2, 2.7581552e+2, -16966.582, -182073.08, 53608.14, 0.21159177, -0.09981903, -1087.7649, 235902.75, 0.000000051096855, 10.001753, 9.999575 
7.350868e+2, 2.8581345e+2, 31300.285, -348963.2, 29279.842, 0.18327013, -0.14894025, 33541.586, 172551.56, 0.0000058850314, 10.002448, 9.997419 
7.3509324e+2, 2.958098e+2, 199869.19, -224802.13, 44118.324, 0.06855801, -0.2682255, 204404.13, 245451.88, 0.000044056193, 10.002962, 9.997353 
7.3510075e+2, 3.0580878e+2, 275825.16, -176139.86, 89627.83, -0.020262308, -0.097066574, 292950.1, 292950.1, 0.00015023218, 10.003209, 9.997232 
7.351103e+2, 3.1580707e+2, 361896.06, 35422.902, 94390.86, 0.03916769, -0.014985683, 387222.0, 387222.0, 0.0003328002, 10.003028, 9.998774 
7.44955e+2, 1.2580477e+2, -1942475.3, -1495171.3, 61509.797, 0.06048265, -0.19384377, -1486867.1, 220235.38, 0.0, 9.996983, 10.002956 
7.449611e+2, 1.3580821e+2, -1945838.4, -1513575.6, -109433.445, 0.11540709, -0.1155429, -1487450.0, 121616.61, 0.0, 9.996607, 10.002339 
7.449695e+2, 1.4581008e+2, -1944864.4, -1697958.9, -10671.925, 0.23705494, -0.04191122, -1697498.5, -186451.11, 0.0, 9.996945, 10.000232 
7.4497515e+2, 1.5580954e+2, -1697642.1, -1514874.0, 22739.904, -0.04422528, -0.1418626, -1512087.1, -99034.695, 0.0, 9.997916, 10.000344 
7.449841e+2, 1.658096e+2, -1497241.1, -1298043.4, 43262.703, -0.02722484, -0.20364684, -1289053.1, 25996.602, 0.0, 9.998311, 10.000979 
7.449961e+2, 1.7581001e+2, -1401348.1, -1199943.3, -6517.5693, 0.2716848, -0.27433965, -1199732.6, 17309.672, 0.0, 9.998293, 10.000987 
7.4500525e+2, 1.8581049e+2, -1304542.5, -1172515.1, -18855.023, 0.30936602, -0.29121056, -1169875.1, -50840.3, 0.0, 9.998588, 10.000357 
7.4501216e+2, 1.958108e+2, -1131579.4, -1043807.2, -4916.154, 0.13191068, -0.30981293, -1043532.7, -22503.11, 0.0, 9.99912, 10.000312 
7.450201e+2, 2.0581105e+2, -1018096.25, -1021741.2, -36500.582, 0.12354642, -0.2737125, -983372.7, -60344.992, 0.0, 9.999595, 9.999558 
7.450288e+2, 2.1581116e+2, -853863.8, -890244.06, -52339.438, 0.2454412, -0.23186056, -816643.7, 8385.673, 0.0, 10.000037, 9.999579 
7.4503726e+2, 2.2581081e+2, -704087.06, -778813.06, -12601.201, 0.26132345, -0.2177367, -702019.3, 25012.682, 0.0, 10.000446, 9.999473 
7.450453e+2, 2.3580997e+2, -556873.44, -667956.0, -25606.773, 0.18946615, -0.26309934, -551254.75, 77782.266, 0.0, 10.000822, 9.999384 
7.4505377e+2, 2.458089e+2, -501308.44, -739925.94, -6954.68, 0.16949184, -0.23528524, -501105.94, 29945.123, 0.0, 10.001179, 9.998042 
7.4506265e+2, 2.5580755e+2, -335339.75, -594998.4, 25514.025, 0.1913699, -0.18922642, -332856.5, 100216.195, 0.0, 10.001581, 9.998173 
7.450714e+2, 2.6580706e+2, -161006.95, -326990.4, 16793.88, 0.19710544, -0.11585321, -159324.83, 175754.2, 0.0, 10.001542, 9.999355 
7.4508035e+2, 2.758071e+2, -119194.836, -264490.22, -55640.895, 0.19906622, -0.06466865, -100335.17, 136740.66, 0.00000017449423, 10.001192, 9.999278 
7.4508834e+2, 2.8580528e+2, -43915.36, -325530.13, -75259.95, 0.13365157, -0.09940206, -25064.42, 114027.69, 0.0000070145306, 10.00168, 9.997948 
7.450956e+2, 2.9580206e+2, 215976.73, -161644.97, -41686.613, 0.015051817, -0.23382096, 220523.88, 261647.53, 0.00004543542, 10.002838, 9.997844 
7.4510413e+2, 3.0580044e+2, 329629.13, -182528.78, -12935.041, -0.024393154, -0.12781782, 329955.6, 329955.6, 0.00014809403, 10.003715, 9.996953 
7.4511445e+2, 3.1579888e+2, 531003.4, 112718.25, -81295.92, 0.097667105, 0.00032742642, 546248.06, 546248.06, 0.00032277982, 10.004208, 9.998744 
7.5495386e+2, 1.2579812e+2, -2111448.3, -1844511.3, 32415.06, 0.20821789, -0.25505236, -1840631.4, -133471.05, 0.0, 9.9969845, 10.000554 
7.5495774e+2, 1.3580023e+2, -2098824.0, -1835524.5, -117900.914, 0.110650755, -0.06296882, -1790447.8, -181300.06, 0.0, 9.996633, 10.000115 
7.549661e+2, 1.4580095e+2, -1860671.8, -1530566.0, 18409.223, 0.18330991, -0.061491106, -1529542.5, -18403.35, 0.0, 9.996973, 10.00137 
7.549744e+2, 1.557997e+2, -1628030.9, -1372012.5, 63601.84, 0.07382009, -0.34479716, -1357082.8, 56060.234, 0.0, 9.997922, 10.001326 
7.5498307e+2, 1.6580044e+2, -1575446.8, -1461798.0, 36637.344, 0.027549159, -0.32415336, -1451010.9, -135875.67, 0.0, 9.998318, 9.999852 
7.549926e+2, 1.7580263e+2, -1471959.3, -1348213.8, 129.38155, 0.08091242, -0.10300413, -1348213.6, -131094.45, 0.0, 9.998302, 9.999965 
7.550019e+2, 1.8580356e+2, -1260633.1, -1079487.9, -4686.5176, 0.10113651, -0.059564788, -1079366.8, 39742.8, 0.0, 9.998578, 10.000999 
7.5501084e+2, 1.9580336e+2, -1098993.6, -963626.5, 21289.723, 0.07863953, -0.19331571, -960357.1, 60749.746, 0.0, 9.99907, 10.000884 
7.550199e+2, 2.058032e+2, -1051866.1, -1083409.4, -25781.914, 0.13590728, -0.20234153, -1037414.4, -114306.5, 0.0, 9.999554, 9.999159 
7.550291e+2, 2.1580298e+2, -890881.5, -947838.8, -31033.508, 0.25637433, -0.15584078, -877239.94, -52127.242, 0.0, 9.999959, 9.99922 
7.550375e+2, 2.258022e+2, -728025.06, -809600.2, -2882.7341, 0.22981903, -0.15864345, -727923.3, -803.2948, 0.0, 10.000365, 9.999302 
7.5504524e+2, 2.3580088e+2, -572541.44, -684157.8, -4145.5566, 0.08650609, -0.23520704, -572387.7, 56743.01, 0.0, 10.000755, 9.999305 
7.5505435e+2, 2.458004e+2, -438398.16, -598337.5, 2235.7358, 0.09686091, -0.19748944, -438366.9, 92769.16, 0.0, 10.001134, 9.999035 
7.550646e+2, 2.5580037e+2, -288639.22, -486467.06, 42913.543, 0.22353163, -0.12023175, -279731.34, 153408.11, 0.0, 10.00153, 9.998942 
7.550732e+2, 2.6579875e+2, -291120.63, -587258.94, -436.5701, 0.20824885, -0.1030217, -291120.0, 44038.438, 0.0, 10.001503, 9.997585 
7.550806e+2, 2.7579582e+2, -239420.45, -498276.06, -55655.96, 0.09132627, -0.16794933, -227961.27, 9228.877, 0.0000002213921, 10.001126, 9.9977045 
7.5508946e+2, 2.8579444e+2, 17516.271, -192675.92, -35575.22, 0.07000896, -0.13773426, 23374.156, 162577.0, 0.000006961638, 10.001653, 9.998877 
7.5509953e+2, 2.95794e+2, 265069.5, -47504.082, 8281.252, 0.11416502, -0.08321339, 265288.75, 306492.03, 0.00004401986, 10.002778, 9.998663 
7.5510925e+2, 3.057912e+2, 260663.33, -306060.53, 4504.74, 0.10689096, -0.08981287, 260699.14, 260699.14, 0.0001416952, 10.003644, 9.996132 
7.551191e+2, 3.157874e+2, 449234.9, -34662.55, -49760.918, 0.11287102, -0.10131903, 454299.0, 454299.0, 0.00030697437, 10.004118, 9.997771 
7.649501e+2, 1.25791e+2, -2352799.8, -1973446.6, -66704.92, 0.22079413, -0.17508265, -1962059.3, -254827.58, 0.0, 9.995353, 10.0004635 
7.649551e+2, 1.3579188e+2, -1997202.3, -1807975.6, -63549.168, 0.14285402, -0.08814885, -1788614.5, -179384.88, 0.0, 9.997399, 9.99994 
7.6496375e+2, 1.4579234e+2, -1682255.4, -1443794.9, 104561.49, 0.20165119, -0.10854398, -1404440.9, 106782.42, 0.0, 9.998193, 10.001378 
7.649732e+2, 1.5579177e+2, -1578038.8, -1351800.4, 48138.094, 0.15213645, -0.32081687, -1341983.8, 71236.61, 0.0, 9.998274, 10.001299 
7.649818e+2, 1.657925e+2, -1605087.1, -1497342.0, 16818.258, 0.07867265, -0.2901525, -1494777.8, -179565.02, 0.0, 9.998206, 9.999661 
7.649902e+2, 1.7579411e+2, -1526117.9, -1393672.1, 42473.43, 0.031453375, -0.10941432, -1381221.9, -164019.53, 0.0, 9.998016, 9.999789 
7.649998e+2, 1.8579489e+2, -1312112.6, -1126095.1, 68862.84, 0.051630422, -0.06492555, -1103377.0, 15817.948, 0.0, 9.99832, 10.000804 
7.650101e+2, 1.9579484e+2, -1122609.4, -994932.06, 22204.148, 0.105842635, -0.16402318, -991180.8, 30011.084, 0.0, 9.99899, 10.00071 
7.650198e+2, 2.0579459e+2, -998707.44, -1052805.1, -15621.573, 0.15555567, -0.17774008, -994520.5, -71327.03, 0.0, 9.999901, 9.999202 
7.65029e+2, 2.1579403e+2, -741202.6, -875098.9, -2836.9546, 0.20484525, -0.16751164, -741142.5, 84057.61, 0.0, 10.0009775, 9.999232 
7.6503766e+2, 2.257931e+2, -641436.44, -785337.5, 18227.652, 0.18464038, -0.17812635, -639163.5, 88045.86, 0.0, 10.0010395, 9.999141 
7.650459e+2, 2.3579179e+2, -643081.06, -734074.4, 5651.338, 0.10728075, -0.23414177, -642731.44, -13509.967, 0.0, 10.000342, 9.999159 
7.650553e+2, 2.4579142e+2, -540214.25, -627796.0, 9711.012, 0.11992877, -0.1879759, -539150.4, -7925.2935, 0.0, 10.000349, 9.99921 
7.6506555e+2, 2.557916e+2, -376805.63, -510713.75, -20473.693, 0.1997298, -0.106368065, -373745.28, 59478.707, 0.0, 10.000859, 9.999094 
7.6507455e+2, 2.6578957e+2, -325264.28, -638519.9, -30555.826, 0.1966289, -0.11796814, -322311.63, 12934.227, 0.0, 10.001423, 9.997271 
7.650826e+2, 2.757858e+2, -133051.63, -481663.7, 9497.863, 0.14082663, -0.23832949, -132793.05, 104493.02, 0.00000016204108, 10.002008, 9.997392 
7.650921e+2, 2.8578424e+2, 78252.055, -212361.95, 48732.86, 0.13941617, -0.18622473, 86206.32, 225507.23, 0.000006290961, 10.002277, 9.998443 
7.651027e+2, 2.957842e+2, 166372.5, -134238.72, -17930.736, 0.17275798, -0.051160835, 167438.25, 208736.81, 0.000041719115, 10.002276, 9.998303 
7.6511323e+2, 3.0578056e+2, 180805.84, -337408.78, -3288.3152, 0.17706478, -0.13021082, 180826.7, 180826.7, 0.00013461517, 10.003064, 9.996192 
7.6512414e+2, 3.1577572e+2, 448017.06, -62570.473, -17290.506, 0.2032764, -0.25286672, 448601.9, 448601.9, 0.00029000925, 10.004246, 9.997502 
7.749433e+2, 1.2578344e+2, -2192988.8, -1636885.0, -13794.941, -0.029448763, 0.04681225, -1636543.0, 70773.29, 0.00000000003061157, 9.995339, 10.002777 
7.7495277e+2, 1.357833e+2, -1857415.5, -1520020.0, 9763.654, 0.15160508, -0.18918188, -1519737.6, 89573.8, 0.0, 9.997413, 10.001907 
7.749624e+2, 1.4578432e+2, -1760305.8, -1612585.0, 99390.68, 0.22962873, -0.18058671, -1562615.4, -51316.516, 0.0, 9.998218, 10.000212 
7.749715e+2, 1.5578587e+2, -1643299.6, -1498040.9, 56404.363, 0.13294236, -0.06386899, -1478711.3, -65427.395, 0.0, 9.998315, 10.000279 
7.749801e+2, 1.6578585e+2, -1548765.6, -1381141.8, 3677.089, 0.07091716, -0.10266049, -1381061.1, -65779.05, 0.0, 9.998212, 10.000454 
7.7498883e+2, 1.7578451e+2, -1479514.3, -1297182.5, 44521.38, 0.07047878, -0.2953894, -1286892.1, -69600.62, 0.0, 9.998017, 10.00045 
7.7499884e+2, 1.857845e+2, -1387553.6, -1278285.4, 89305.83, 0.10509636, -0.30468425, -1228227.5, -108936.836, 0.0, 9.9983, 9.999772 
7.7500975e+2, 1.9578531e+2, -1192101.8, -1130067.0, 54448.94, 0.15553294, -0.21589872, -1098420.5, -77136.8, 0.0, 9.998948, 9.999804 
7.750195e+2, 2.0578523e+2, -977005.25, -990468.7, 18774.771, 0.12648126, -0.19529107, -963791.9, -40507.99, 0.0, 9.999827, 9.999665 
7.750284e+2, 2.1578433e+2, -723688.7, -820244.94, 38208.035, 0.038728446, -0.2638247, -710398.75, 114892.32, 0.0, 10.000902, 9.999643 
7.7503765e+2, 2.2578354e+2, -667384.94, -819696.0, -14129.895, 0.06904955, -0.26922274, -666085.2, 61214.164, 0.0, 10.000956, 9.998946 
7.7504724e+2, 2.3578264e+2, -668082.5, -770598.3, -10956.29, 0.18972993, -0.26776898, -666924.6, -37614.3, 0.0, 10.000273, 9.998942 
7.750564e+2, 2.4578196e+2, -591459.0, -719683.06, 22819.348, 0.17857112, -0.2110774, -587519.06, -56200.453, 0.0, 10.00029, 9.998609 
7.750652e+2, 2.5578132e+2, -417440.8, -584143.9, 5359.921, 0.06905619, -0.14803056, -417268.66, 16057.1875, 0.0, 10.000811, 9.998614 
7.7507526e+2, 2.6577964e+2, -256297.97, -486794.5, -12751.879, 0.11494542, -0.1623807, -255594.63, 79746.766, 0.0, 10.001384, 9.998332 
7.750861e+2, 2.7577695e+2, -79225.09, -360917.25, 35547.64, 0.28224888, -0.27892652, -74808.48, 162556.67, 0.00000014054619, 10.001963, 9.998248 
7.750959e+2, 2.8577468e+2, -46827.49, -461746.63, 42750.1, 0.27319962, -0.24730577, -42468.637, 96918.914, 0.0000059856334, 10.002236, 9.996746 
7.7510464e+2, 2.957726e+2, 57375.832, -358736.97, -7135.0947, 0.12779507, -0.14456162, 57498.145, 98908.57, 0.0000396548, 10.002263, 9.996769 
7.7511597e+2, 3.057685e+2, 243056.84, -201228.64, 41082.21, 0.13025518, -0.25124443, 246823.7, 246823.7, 0.00012692052, 10.0030365, 9.997139 
7.751291e+2, 3.157639e+2, 458113.78, -23766.916, 41418.535, 0.23752917, -0.44178748, 461647.88, 461647.88, 0.00027213217, 10.004158, 9.997818 
7.8493917e+2, 1.2577447e+2, -2077209.4, -1527758.0, 95438.28, 0.0060675894, 0.063204244, -1511652.8, 195752.16, 0.0000000009851104, 9.995906, 10.003251 
7.849499e+2, 1.3577445e+2, -1998521.1, -1547274.5, -36980.766, 0.18647158, -0.20309214, -1544263.9, 65132.047, 0.0, 9.996276, 10.002265 
7.8495985e+2, 1.4577554e+2, -1970171.3, -1731117.8, 23982.08, 0.22100824, -0.19424748, -1728735.6, -217352.75, 0.0, 9.996857, 10.0000515 
7.8496945e+2, 1.5577751e+2, -1754589.1, -1567344.6, 44898.13, 0.1314446, -0.02004727, -1557135.5, -143769.05, 0.0, 9.99763, 10.000129 
7.849788e+2, 1.6577746e+2, -1519350.0, -1355344.3, -1066.0039, 0.11652934, -0.05880561, -1355337.4, -39972.285, 0.0, 9.99837, 10.000548 
7.8498846e+2, 1.7577577e+2, -1326015.5, -1215557.5, -26430.598, 0.18629904, -0.29825863, -1209558.9, 7817.736, 0.0, 9.999045, 10.000508 
7.849984e+2, 1.8577538e+2, -1267442.1, -1253507.6, 39173.297, 0.19097601, -0.3302135, -1220686.8, -101308.15, 0.0, 9.999263, 9.999479 
7.850086e+2, 1.9577585e+2, -1193138.3, -1157122.4, 48433.18, 0.14129926, -0.24672332, -1123457.8, -102082.51, 0.0, 9.999061, 9.999562 
7.8501856e+2, 2.0577577e+2, -1096026.3, -1022759.1, 45096.543, 0.09919569, -0.2270966, -1001291.8, -77916.836, 0.0, 9.998903, 9.9998865 
7.8502846e+2, 2.1577516e+2, -1035520.56, -951190.7, 34676.406, 0.064709544, -0.28975764, -938763.2, -113384.63, 0.0, 9.998682, 9.999812 
7.8503835e+2, 2.2577451e+2, -912529.06, -978970.5, -22462.178, 0.11845722, -0.26843116, -905647.9, -178261.13, 0.0, 9.999444, 9.998583 
7.850483e+2, 2.3577368e+2, -600090.44, -776231.94, -43566.93, 0.23870765, -0.2218719, -589903.75, 39496.08, 0.0, 10.000909, 9.998596 
7.850576e+2, 2.4577257e+2, -415954.1, -659876.5, 8445.892, 0.21329248, -0.18139513, -415662.0, 115750.7, 0.0, 10.001605, 9.998381 
7.8506655e+2, 2.5577107e+2, -298481.1, -551246.75, 6172.4536, 0.07914272, -0.18179385, -298330.47, 135096.38, 0.0, 10.001729, 9.998397 
7.850769e+2, 2.6576942e+2, -169245.73, -437566.25, -26225.55, 0.12208948, -0.18650207, -166706.48, 168734.55, 0.0, 10.0019455, 9.998403 
7.8508836e+2, 2.7576745e+2, -35369.38, -334657.28, -62509.02, 0.30077478, -0.23696937, -22838.457, 214618.5, 0.0000001311964, 10.002244, 9.998291 
7.850983e+2, 2.857648e+2, 1377.4946, -493685.9, -26901.127, 0.27157116, -0.21982929, 2834.9775, 142318.44, 0.0000058891046, 10.002803, 9.996257 
7.8510714e+2, 2.957616e+2, 204807.11, -332933.7, 736.76984, 0.0936996, -0.18116148, 204808.13, 246326.55, 0.000037489564, 10.003477, 9.99636 
7.8511924e+2, 3.05758e+2, 346603.22, -107329.21, 79999.625, 0.13870755, -0.23841032, 360289.44, 360289.44, 0.00011865352, 10.003538, 9.997552 
7.8513366e+2, 3.15754e+2, 316160.13, -67326.57, 21875.674, 0.34272248, -0.41075903, 317403.97, 317403.97, 0.0002544846, 10.003054, 9.998059 
7.949374e+2, 1.257643e+2, -2173093.8, -1738625.9, 83530.53, 0.20214479, -0.12533633, -1723119.8, -15624.987, 0.0000000034592607, 9.995966, 10.001776 
7.949464e+2, 1.3576543e+2, -2080604.5, -1724389.8, -19690.834, 0.18869473, -0.1311258, -1723304.6, -113822.336, 0.0, 9.996313, 10.001029 
7.949558e+2, 1.457661e+2, -1910601.1, -1610348.4, 46470.72, 0.11819287, -0.15297769, -1603320.5, -91845.66, 0.0, 9.996868, 10.0008745 
7.9496676e+2, 1.5576673e+2, -1698679.8, -1458363.1, 82109.33, 0.085112154, -0.19784772, -1432988.0, -19519.908, 0.0, 9.997658, 10.000862 
7.949777e+2, 1.6576739e+2, -1566948.5, -1452170.1, 19306.957, 0.15654653, -0.16555148, -1449009.5, -133547.72, 0.0, 9.99836, 9.999891 
7.9498905e+2, 1.757679e+2, -1361397.6, -1296622.4, 1704.1761, 0.32644877, -0.1169912, -1296577.6, -79120.52, 0.0, 9.999073, 9.999941 
7.9499847e+2, 1.8576758e+2, -1241373.1, -1191835.8, 26100.828, 0.25574684, -0.14160527, -1180621.9, -61163.18, 0.0, 9.99923, 9.999917 
7.9500633e+2, 1.9576645e+2, -1168022.1, -1099451.1, 46819.184, -0.003562862, -0.26180258, -1075706.3, -54239.48, 0.0, 9.999036, 9.999969 
7.950167e+2, 2.057662e+2, -1108065.6, -1030862.7, 29727.38, 0.012037398, -0.27785563, -1020742.56, -97275.59, 0.0, 9.998833, 9.999865 
7.9502887e+2, 2.1576639e+2, -1048338.8, -964418.7, 36257.47, 0.23131993, -0.2573157, -950923.8, -125460.35, 0.0, 9.998623, 9.99975 
7.950394e+2, 2.2576597e+2, -962312.56, -1062178.9, 27378.068, 0.27937487, -0.18095607, -955299.44, -227827.92, 0.0, 9.999359, 9.998052 
7.950489e+2, 2.3576498e+2, -643763.9, -852905.5, 14574.773, 0.19796863, -0.09769453, -642753.06, -13263.706, 0.0, 10.000844, 9.998103 
7.950589e+2, 2.4576326e+2, -415988.06, -647222.44, 6834.35, 0.16416737, -0.101474345, -415786.25, 115721.305, 0.0, 10.001551, 9.998494 
7.950693e+2, 2.557608e+2, -306248.72, -551342.44, 15790.49, 0.16926263, -0.21140255, -305235.6, 128292.13, 0.0, 10.0016575, 9.998431 
7.9507935e+2, 2.6575887e+2, -237455.67, -567257.9, -21487.365, 0.15913305, -0.19373555, -236061.61, 99483.4, 0.0, 10.001896, 9.997536 
7.950891e+2, 2.7575725e+2, -96671.805, -452594.8, -42658.766, 0.13761492, -0.12210877, -91630.4, 145931.39, 0.000000103459534, 10.002202, 9.997502 
7.950994e+2, 2.8575462e+2, 45203.863, -396362.66, -5012.502, 0.084941335, -0.105273314, 45260.754, 184849.14, 0.0000054454867, 10.002776, 9.996938 
7.9510987e+2, 2.9575112e+2, 239500.4, -247080.83, 32224.39, 0.0031045906, -0.16335991, 241625.22, 283247.97, 0.00003447301, 10.003413, 9.996984 
7.951229e+2, 3.05749e+2, 335357.9, -119916.06, 58418.504, 0.13871609, -0.10149232, 342734.38, 342734.38, 0.0001104858, 10.003497, 9.997481 
7.951375e+2, 3.157458e+2, 309204.97, -64335.395, 22312.756, 0.39001036, -0.18640351, 310533.06, 310533.06, 0.000240168, 10.002982, 9.998113 
8.049342e+2, 1.2575261e+2, -2205771.3, -1778956.4, -79322.7, 0.3001525, -0.20122516, -1764691.1, -57083.95, 0.0000000057252847, 9.9958515, 10.001563 
8.0494314e+2, 1.3575427e+2, -1952404.4, -1678450.6, -95468.34, 0.19346052, -0.13361113, -1648463.8, -38871.72, 0.0, 9.997251, 10.000908 
8.0495286e+2, 1.4575504e+2, -1744319.0, -1452353.4, -4341.1025, 0.09879916, -0.17621614, -1452288.9, 59294.22, 0.0, 9.997682, 10.001563 
8.0496484e+2, 1.5575589e+2, -1683486.9, -1385992.6, 1726.2169, 0.14692807, -0.26473415, -1385982.6, 27588.979, 0.0, 9.997486, 10.001441 
8.0497646e+2, 1.6575687e+2, -1634340.9, -1506616.9, -15402.301, 0.21567327, -0.21544656, -1504785.9, -189223.27, 0.0, 9.997986, 9.999704 
8.049879e+2, 1.7575786e+2, -1394249.9, -1331577.3, -12209.782, 0.31315008, -0.09972819, -1329282.6, -111726.33, 0.0, 9.998935, 9.999771 
8.049976e+2, 1.8575776e+2, -1230771.9, -1175471.9, -15299.989, 0.25279838, -0.10016535, -1171521.0, -51964.176, 0.0, 9.999265, 10.000008 
8.05006e+2, 1.9575663e+2, -1161580.0, -1092923.8, -32203.582, 0.06639513, -0.2264883, -1080182.9, -58618.434, 0.0, 9.999069, 9.999999 
8.050164e+2, 2.0575616e+2, -1027355.8, -1007802.44, -39543.32, 0.07760729, -0.2559266, -976845.2, -53278.215, 0.0, 9.9994545, 9.999725 
8.050283e+2, 2.15756e+2, -828370.4, -871822.4, -53122.39, 0.2399127, -0.25639632, -792702.94, 32864.496, 0.0, 10.000195, 9.999627 
8.050393e+2, 2.2575562e+2, -764372.25, -968706.56, -10889.429, 0.26330003, -0.17143434, -763793.6, -36218.813, 0.0, 10.000726, 9.998033 
8.050496e+2, 2.3575494e+2, -615907.3, -841806.8, 1183.2036, 0.1797584, -0.055635124, -615901.06, 13687.295, 0.0, 10.001051, 9.998076 
8.0506027e+2, 2.4575312e+2, -490530.03, -706648.44, -22184.828, 0.16901821, -0.054011393, -488276.25, 43331.11, 0.0, 10.001135, 9.998291 
8.050711e+2, 2.5575027e+2, -408989.25, -623861.56, -46750.83, 0.21916805, -0.18236865, -399258.16, 34374.27, 0.0, 10.001048, 9.998231 
8.050815e+2, 2.6574796e+2, -302321.66, -637845.9, -35406.574, 0.19817556, -0.17911468, -298626.03, 37028.34, 0.0, 10.001616, 9.997186 
8.0509144e+2, 2.757459e+2, -49537.758, -462542.3, -30299.174, 0.12840937, -0.11864069, -47326.76, 190348.92, 0.00000004701224, 10.002663, 9.997211 
8.051024e+2, 2.8574312e+2, 105398.5, -342373.9, 5716.936, 0.09672481, -0.115909524, 105471.484, 245174.22, 0.000004093495, 10.003083, 9.99716 
8.051139e+2, 2.9573962e+2, 205648.89, -244050.34, -6148.856, 0.090283215, -0.1964418, 205732.94, 247468.17, 0.000029631305, 10.0031, 9.997152 
8.05127e+2, 3.057378e+2, 317815.72, -201198.38, -9913.222, 0.1883128, -0.07441741, 318004.97, 318004.97, 0.00010221737, 10.003695, 9.996834 
8.051404e+2, 3.1573454e+2, 526124.7, 22326.229, -99417.51, 0.30768657, -0.10332872, 545033.6, 545033.6, 0.00023173615, 10.004562, 9.997949 
8.14929e+2, 1.2573949e+2, -2130047.3, -1629026.1, -55566.74, 0.16539691, -0.16237763, -1622937.4, 84804.26, 0.000000004999778, 9.995893, 10.002566 
8.149399e+2, 1.35741e+2, -1873222.0, -1517608.6, -42069.36, 0.13544424, -0.22245343, -1512699.5, 97025.6, 0.0, 9.997275, 10.001993 
8.1495076e+2, 1.4574249e+2, -1713707.4, -1393560.3, -18170.123, 0.10209823, -0.26532927, -1392532.3, 119174.586, 0.0, 9.997698, 10.001963 
8.1496364e+2, 1.5574503e+2, -1648322.4, -1323681.4, 5686.9224, 0.2574884, -0.22337857, -1323581.8, 90094.83, 0.0, 9.997527, 10.001852 
8.149747e+2, 1.6574599e+2, -1616049.0, -1469032.8, 13893.328, 0.23427258, -0.20993122, -1467731.4, -152064.33, 0.0, 9.99799, 9.999958 
8.1498474e+2, 1.7574559e+2, -1375876.0, -1297333.4, 26199.957, 0.08775233, -0.25906214, -1289395.9, -71721.48, 0.0, 9.99895, 9.999998 
8.149957e+2, 1.8574585e+2, -1257795.9, -1223697.3, -26554.014, 0.12374677, -0.21654956, -1209190.4, -89516.94, 0.0, 9.99923, 9.999694 
8.150075e+2, 1.9574639e+2, -1186656.9, -1140703.9, -29913.682, 0.28914937, -0.1435111, -1125961.0, -104293.07, 0.0, 9.999048, 9.999682 
8.1501764e+2, 2.0574574e+2, -1060025.3, -1056949.6, -17817.504, 0.24121791, -0.1615707, -1040603.7, -116929.69, 0.0, 9.999376, 9.999425 
8.1502664e+2, 2.1574403e+2, -855201.56, -910083.44, -20548.42, 0.03540948, -0.28813276, -848360.7, -22670.834, 0.0, 10.000119, 9.9994 
8.150376e+2, 2.2574346e+2, -742324.9, -901723.8, -4968.7544, 0.012590011, -0.23865472, -742170.1, -14474.017, 0.0, 10.000635, 9.998537 
8.150502e+2, 2.3574354e+2, -596806.4, -784769.5, 18274.81, 0.12192714, -0.09741785, -595046.06, 34650.87, 0.0, 10.000974, 9.998507 
8.1506145e+2, 2.4574217e+2, -533336.1, -784206.6, -32358.965, 0.16964498, -0.044125695, -529229.5, 2483.0393, 0.0, 10.001082, 9.9977865 
8.150718e+2, 2.5573957e+2, -446634.0, -695308.8, -40951.816, 0.1748009, -0.09626784, -440063.63, -6322.9146, 0.0, 10.001013, 9.997763 
8.150831e+2, 2.6573667e+2, -292745.63, -607716.0, -710.9629, 0.18481524, -0.1423258, -292744.0, 43024.77, 0.0, 10.001578, 9.997407 
8.1509495e+2, 2.757334e+2, -50879.61, -443214.9, 14198.957, 0.20202886, -0.22107461, -50366.41, 187431.6, 0.000000004527389, 10.002574, 9.997386 
8.15107e+2, 2.8573024e+2, 85216.95, -380596.7, -791.4224, 0.23673744, -0.24757591, 85218.3, 225044.73, 0.0000024308686, 10.003059, 9.996913 
8.151191e+2, 2.9572704e+2, 176288.05, -301151.84, 2116.223, 0.2824405, -0.27475846, 176297.42, 218153.28, 0.00002455122, 10.003075, 9.996777 
8.1513125e+2, 3.057245e+2, 232310.55, -367776.94, 23378.256, 0.23145202, -0.14544024, 233219.94, 233219.94, 0.00009685274, 10.003656, 9.995701 
8.15142e+2, 3.1572014e+2, 477275.0, -50426.875, -44039.098, -0.02261387, -0.17447595, 480925.0, 480925.0, 0.00023258898, 10.004442, 9.997506 
8.249252e+2, 1.2572846e+2, -2060802.0, -1605037.0, 128596.85, 0.17341675, -0.13959344, -1571256.4, 136591.95, 0.0000000017683296, 9.996383, 10.002497 
8.249368e+2, 1.3573004e+2, -2123014.5, -1638998.0, 51029.76, 0.18908548, -0.19716966, -1633676.4, -23843.479, 0.0, 9.995554, 10.001989 
8.249481e+2, 1.4573146e+2, -1942111.5, -1511736.5, 53811.598, 0.1489501, -0.24323818, -1505110.3, 6705.4595, 0.0, 9.996166, 10.001888 
8.249614e+2, 1.5573402e+2, -1595585.8, -1306065.5, 25512.719, 0.270537, -0.19101746, -1303834.5, 109950.19, 0.0, 9.997926, 10.001778 
8.2497287e+2, 1.6573478e+2, -1551884.6, -1430629.5, 2252.4265, 0.22479166, -0.19806848, -1430587.6, -114810.72, 0.0, 9.998404, 10.000015 
8.249829e+2, 1.75734e+2, -1525151.8, -1365458.3, -13587.846, 0.06618649, -0.29130983, -1364310.4, -146521.86, 0.0, 9.997906, 10.000032 
8.2499444e+2, 1.857345e+2, -1369379.8, -1240393.9, -27428.523, 0.12506077, -0.24367867, -1234803.6, -115018.75, 0.0, 9.998309, 10.000023 
8.250072e+2, 1.957358e+2, -1126189.0, -1079657.6, 3975.5544, 0.3406702, -0.12774478, -1079320.4, -57548.934, 0.0, 9.999338, 9.999956 
8.2501775e+2, 2.0573533e+2, -1017935.5, -1089806.9, 41882.465, 0.2964026, -0.115168385, -998685.0, -74908.375, 0.0, 9.999892, 9.998948 
8.250269e+2, 2.1573338e+2, -897502.6, -977399.4, 13533.167, 0.06327271, -0.21602125, -895272.56, -69475.664, 0.0, 10.0000305, 9.998981 
8.250382e+2, 2.2573218e+2, -751809.0, -852005.56, 32888.63, 0.026771424, -0.23731358, -741978.1, -14171.44, 0.0, 10.000335, 9.999025 
8.250511e+2, 2.3573127e+2, -607324.1, -744940.06, 41019.977, 0.13611488, -0.24099499, -596024.8, 33785.832, 0.0, 10.000712, 9.998905 
8.2506263e+2, 2.457299e+2, -528985.6, -862816.3, -3242.1387, 0.16072938, -0.1702085, -528954.1, 2873.083, 0.0, 10.001468, 9.997057 
8.2507306e+2, 2.55728e+2, -271499.25, -681561.94, -40103.84, 0.12628533, -0.079143696, -267613.94, 166240.61, 0.0, 10.002538, 9.997114 
8.2508504e+2, 2.657254e+2, -101758.77, -516530.6, -7674.6323, 0.16154622, -0.06555988, -101616.81, 234265.16, 0.0, 10.002888, 9.997408 
8.250981e+2, 2.7572206e+2, -35255.953, -435525.1, -19737.871, 0.25549513, -0.15550473, -34285.008, 203626.58, 0.0, 10.002676, 9.997391 
8.2511055e+2, 2.857186e+2, 93049.63, -396393.2, -18454.377, 0.28204423, -0.20295304, 93744.47, 233687.16, 0.000001518397, 10.003203, 9.996733 
8.2512254e+2, 2.9571488e+2, 335712.0, -242376.16, -22211.01, 0.2635357, -0.26089543, 336564.13, 378540.88, 0.000022026383, 10.004253, 9.996611 
8.251348e+2, 3.0571166e+2, 317639.7, -353948.56, 37651.992, 0.19930692, -0.17703728, 319744.03, 319744.03, 0.00009707927, 10.004351, 9.995458 
8.251458e+2, 3.1570804e+2, 372663.66, -85613.42, 10404.676, -0.040350907, -0.116252825, 372899.75, 372899.75, 0.00024342752, 10.003654, 9.997634 
8.3492213e+2, 1.2571959e+2, -2136655.3, -1765220.1, 69721.93, 0.1953221, -0.13591081, -1752563.9, -44637.44, 0.000000000051048894, 9.996401, 10.001383 
8.349336e+2, 1.3572155e+2, -2185882.8, -1778707.3, 33102.156, 0.29606992, -0.056626815, -1776033.6, -166119.8, 0.0, 9.995594, 10.001009 
8.349447e+2, 1.4572208e+2, -1982821.4, -1603158.8, 114513.234, 0.17363137, -0.11044371, -1571293.9, -59385.39, 0.0, 9.996196, 10.001246 
8.34958e+2, 1.5572292e+2, -1631280.6, -1386035.4, 92250.6, 0.11772423, -0.17170899, -1355209.4, 58686.152, 0.0, 9.99795, 10.001216 
8.349704e+2, 1.6572326e+2, -1564661.6, -1453614.8, -21889.139, 0.13007614, -0.18479636, -1449455.8, -133563.52, 0.0, 9.99839, 9.999866 
8.349823e+2, 1.7572318e+2, -1526532.0, -1373898.5, -20100.826, 0.19963345, -0.19317013, -1371295.8, -153398.27, 0.0, 9.99793, 9.999964 
8.349937e+2, 1.8572377e+2, -1304997.1, -1107427.4, 5515.086, 0.20487316, -0.17928244, -1107273.6, 12616.734, 0.0, 9.998308, 10.000938 
8.350048e+2, 1.9572473e+2, -1069655.9, -959530.8, 46256.188, 0.15796092, -0.19118488, -942680.06, 79195.54, 0.0, 9.999319, 10.0007925 
8.3501667e+2, 2.057248e+2, -1074296.6, -1191060.0, 41322.816, 0.18228708, -0.12805347, -1061152.1, -137276.33, 0.0, 9.999824, 9.998284 
8.3502907e+2, 2.1572408e+2, -946425.44, -1064839.8, 25645.799, 0.26194754, -0.045040537, -941109.8, -115221.266, 0.0, 9.99997, 9.998407 
8.3504087e+2, 2.2572184e+2, -730639.5, -792119.5, 39091.176, 0.25197923, -0.16556273, -711649.56, 16256.297, 0.0, 10.000261, 9.999476 
8.3505225e+2, 2.3571827e+2, -589601.75, -697689.75, 62988.12, 0.16314928, -0.48227015, -560650.25, 69278.25, 0.0, 10.000658, 9.99926 
8.3506346e+2, 2.4571636e+2, -604300.7, -1005565.7, 30786.566, 0.085812874, -0.42876682, -601952.4, -70001.62, 0.0, 10.001409, 9.996106 
8.3507466e+2, 2.5571555e+2, -344957.2, -820702.8, 3650.5303, 0.019521508, -0.13419473, -344929.16, 89045.04, 0.0, 10.002474, 9.996193 
8.350872e+2, 2.6571405e+2, -120310.34, -544503.3, -19760.549, 0.075984426, 0.041345213, -119391.81, 216603.45, 0.0, 10.002843, 9.997236 
8.3510065e+2, 2.757118e+2, -56210.066, -466727.25, -17064.63, 0.22775084, 0.079119384, -55501.938, 182514.58, 0.0, 10.00262, 9.997206 
8.3511287e+2, 2.8570807e+2, 81727.29, -408853.97, 16115.696, 0.17959805, 0.017360624, 82256.12, 222307.47, 0.0000012583888, 10.00316, 9.996666 
8.3512414e+2, 2.9570302e+2, 323488.66, -252794.19, 20871.027, -0.018851867, -0.16773434, 324243.56, 366342.28, 0.000022671806, 10.004189, 9.9965725 
8.351377e+2, 3.056992e+2, 354642.88, -266773.6, 10488.802, 0.035068817, -0.17732045, 354819.84, 354819.84, 0.0001036696, 10.004312, 9.996075 
8.351512e+2, 3.1569812e+2, 407294.66, -5889.2393, 10463.647, 0.10555966, 0.083178766, 407559.47, 407559.47, 0.00026236358, 10.003623, 9.9981985 
8.449182e+2, 1.2570716e+2, -2358476.0, -1918163.9, -128081.19, 0.23955868, -0.18875176, -1883617.1, -175571.77, 0.0, 9.995082, 10.000976 
8.4493077e+2, 1.3570912e+2, -1956500.0, -1702669.1, -125553.664, 0.37096173, -0.069795944, -1651059.3, -41025.21, 0.0, 9.997324, 10.0007 
8.4494203e+2, 1.457097e+2, -1769401.5, -1497288.5, 6823.6357, 0.2185553, -0.10855099, -1497117.5, 14912.32, 0.0, 9.997655, 10.001265 
8.44955e+2, 1.5571055e+2, -1816237.1, -1473403.6, 20676.09, 0.09232086, -0.16701879, -1472161.1, -58143.53, 0.0, 9.996677, 10.00123 
8.449681e+2, 1.6571115e+2, -1708954.6, -1488516.8, -35068.586, 0.120786265, -0.17332047, -1483072.3, -167060.73, 0.0, 9.997243, 10.000185 
8.449814e+2, 1.7571147e+2, -1369911.3, -1265961.6, -10466.801, 0.2732071, -0.17084348, -1264918.3, -46907.285, 0.0, 9.998867, 10.000254 
8.449931e+2, 1.8571194e+2, -1168357.4, -1055863.1, -15867.485, 0.26880383, -0.17927177, -1053667.8, 66336.87, 0.0, 9.999307, 10.000809 
8.450037e+2, 1.957123e+2, -1154818.6, -1015880.7, -64735.85, 0.14280745, -0.23585224, -990393.56, 31602.352, 0.0, 9.998801, 10.000654 
8.4501594e+2, 2.057122e+2, -1129562.1, -1218233.1, -46543.926, 0.15102948, -0.18289556, -1109617.3, -185619.81, 0.0, 9.999444, 9.998286 
8.450294e+2, 2.1571155e+2, -821757.94, -1012190.56, -28496.451, 0.26568, -0.0891921, -817585.1, 8423.514, 0.0, 10.000853, 9.998349 
8.4504175e+2, 2.2570933e+2, -616998.06, -781063.75, -46329.316, 0.26864493, -0.18104444, -604819.5, 123207.29, 0.0, 10.001243, 9.999069 
8.450531e+2, 2.3570585e+2, -588875.25, -736596.06, -101349.83, 0.18101874, -0.44891447, -537327.75, 92723.4, 0.0, 10.000847, 9.998896 
8.450648e+2, 2.457038e+2, -589550.0, -969123.2, -58123.52, 0.08656775, -0.40724432, -580849.06, -48775.023, 0.0, 10.00138, 9.99637 
8.4507686e+2, 2.557026e+2, -311149.7, -776498.06, -11384.48, -0.012650805, -0.17689385, -310871.34, 123226.39, 0.0, 10.002592, 9.996432 
8.4508973e+2, 2.657007e+2, -93809.95, -586304.0, -34467.586, 0.03325674, -0.029596724, -91409.414, 244713.4, 0.0, 10.003263, 9.996745 
8.451034e+2, 2.75698e+2, 45325.227, -464613.03, -62800.113, 0.20125344, 0.015703967, 52945.34, 291095.7, 0.0000000050987805, 10.003529, 9.9967785 
8.4511596e+2, 2.856947e+2, 180556.1, -363993.84, -951.4135, 0.14354095, 0.015648333, 180557.77, 320740.97, 0.0000017149706, 10.003848, 9.996644 
8.4512764e+2, 2.9569063e+2, 321401.78, -243795.98, -7880.0244, -0.0799189, -0.07316595, 321511.63, 363734.34, 0.0000255943, 10.004139, 9.996653 
8.4514195e+2, 3.0568647e+2, 454376.63, -165388.66, -26262.773, 0.015060983, -0.14713556, 455487.53, 455487.53, 0.000114907256, 10.004755, 9.996571 
8.4515655e+2, 3.1568557e+2, 698333.0, 151575.75, -45882.58, 0.18598725, 0.08802027, 702156.6, 702156.6, 0.00028673257, 10.005537, 9.998372 
8.549131e+2, 1.2569122e+2, -2344159.3, -1892293.6, -70933.23, 0.18555778, -0.29467848, -1881420.3, -173215.53, 0.0, 9.995106, 10.00114 
8.5492814e+2, 1.356928e+2, -1935372.4, -1658066.3, -48966.51, 0.3631499, -0.2385648, -1649673.8, -39480.043, 0.0, 9.9973345, 10.000994 
8.5494e+2, 1.4569429e+2, -1714420.0, -1393072.1, -37007.477, 0.23695312, -0.23831642, -1388865.3, 123314.54, 0.0, 9.997685, 10.001972 
8.549523e+2, 1.5569694e+2, -1759876.4, -1369635.5, 267.956, 0.1330583, -0.18574011, -1369635.3, 44515.688, 0.0, 9.996726, 10.001922 
8.549657e+2, 1.6569848e+2, -1658383.0, -1383689.3, 21753.357, 0.14025863, -0.16755964, -1381977.3, -65843.07, 0.0, 9.997244, 10.000903 
8.5498e+2, 1.756989e+2, -1323747.1, -1173970.6, 51315.676, 0.23186997, -0.23054814, -1158076.0, 60052.816, 0.0, 9.998881, 10.000878 
8.5499245e+2, 1.8569896e+2, -1254833.5, -1231810.4, -39295.957, 0.25998816, -0.24539508, -1202374.5, -82246.73, 0.0, 9.999289, 9.999611 
8.550036e+2, 1.9569856e+2, -1228736.9, -1171768.1, -72603.59, 0.23651153, -0.2589703, -1122261.1, -100129.39, 0.0, 9.998806, 9.999584 
8.550155e+2, 2.0569757e+2, -1091459.8, -1130678.4, -69.57686, 0.15346088, -0.27807504, -1091459.6, -167318.61, 0.0, 9.999404, 9.99891 
8.55028e+2, 2.1569592e+2, -794941.4, -940665.25, 26776.209, 0.021154275, -0.34767252, -790177.06, 35979.152, 0.0, 10.000781, 9.998876 
8.5504067e+2, 2.2569475e+2, -725972.06, -984570.75, -66837.17, 0.02342218, -0.28921637, -709718.9, 18449.84, 0.0, 10.001143, 9.997722 
8.550536e+2, 2.3569387e+2, -675904.5, -906982.9, -104545.06, 0.13071942, -0.16153346, -635626.56, -5446.6997, 0.0, 10.000798, 9.997751 
8.550665e+2, 2.4569206e+2, -495516.78, -761872.5, -18411.908, 0.10503083, -0.12046005, -494250.1, 37948.08, 0.0, 10.001329, 9.997818 
8.550795e+2, 2.5568923e+2, -230930.66, -594196.0, 36940.32, -0.021272613, -0.19864567, -227212.27, 207012.27, 0.0, 10.00252, 9.997722 
8.550927e+2, 2.6568538e+2, -156336.94, -699629.56, -31453.703, -0.0031944397, -0.26271468, -154522.0, 181741.73, 0.0, 10.003195, 9.996001 
8.5510623e+2, 2.756807e+2, -14423.533, -573732.1, -45349.676, 0.12101716, -0.34309343, -10770.366, 227542.83, 0.0000001292932, 10.003466, 9.996062 
8.551196e+2, 2.8567848e+2, 180316.36, -355976.7, 6999.597, 0.110523425, -0.20720965, 180407.7, 320746.06, 0.0000031613251, 10.003811, 9.9967165 
8.5513276e+2, 2.956777e+2, 320593.8, -236414.2, 11753.696, -0.00003397115, 0.028959831, 320841.72, 363190.44, 0.000030116835, 10.00409, 9.996732 
8.551474e+2, 3.0567342e+2, 471203.75, -104572.586, -747.1216, 0.071152605, -0.08282835, 471204.72, 471204.72, 0.0001273879, 10.004667, 9.99702 
8.551614e+2, 3.1567052e+2, 655985.9, 109733.26, 1544.2864, 0.09759284, -0.086480625, 655990.25, 655990.25, 0.00031291653, 10.0053625, 9.998159 
8.649091e+2, 1.2567754e+2, -2115811.3, -1713263.5, -5506.479, 0.22185412, -0.20669591, -1713188.1, -4844.4614, 0.00000000000000000000885557, 9.996376, 10.001748 
8.6492455e+2, 1.3567828e+2, -2093982.8, -1668274.4, 35863.645, 0.34851253, -0.30502096, -1665274.1, -54939.25, 0.0, 9.995942, 10.001602 
8.649371e+2, 1.4567986e+2, -1926087.3, -1514524.4, 8936.961, 0.25488427, -0.31456187, -1514330.4, -2011.2603, 0.0, 9.996326, 10.001788 
8.649503e+2, 1.5568323e+2, -1667311.1, -1343007.8, -34723.16, 0.23413084, -0.1719904, -1339331.6, 74954.76, 0.0, 9.997446, 10.001755 
8.649639e+2, 1.6568488e+2, -1567234.0, -1314406.3, -30263.172, 0.21793662, -0.14709996, -1310834.3, 5434.4507, 0.0, 9.997758, 10.001128 
8.649778e+2, 1.75685e+2, -1522826.9, -1252018.0, -52008.3, 0.20368212, -0.26242045, -1242373.4, -24109.006, 0.0, 9.997433, 10.00104 
8.6499083e+2, 1.85685e+2, -1407879.9, -1346199.1, -111394.08, 0.21727045, -0.26917553, -1261455.0, -141190.36, 0.0, 9.998417, 9.999244 
8.650033e+2, 1.956848e+2, -1025300.44, -1108774.1, -92630.94, 0.25366804, -0.2244937, -965437.8, 56831.633, 0.0, 10.0003605, 9.999264 
8.650157e+2, 2.0568392e+2, -864475.75, -969436.56, -6510.5317, 0.1698765, -0.24330142, -864073.44, 60203.754, 0.0, 10.000747, 9.999362 
8.6502796e+2, 2.1568227e+2, -899801.94, -949968.94, -8102.9785, -0.009386677, -0.35634613, -898525.6, -72236.37, 0.0, 9.999891, 9.999236 
8.650412e+2, 2.256811e+2, -860705.94, -1121479.0, -50676.793, -0.0023989843, -0.28124294, -851204.0, -122900.88, 0.0, 10.000525, 9.997082 
8.6505526e+2, 2.3568016e+2, -501490.0, -885367.75, -48135.117, 0.15085305, -0.09674562, -495546.28, 134773.11, 0.0, 10.002268, 9.997188 
8.6506873e+2, 2.4567817e+2, -287583.13, -612973.4, 9962.884, 0.13950574, -0.06883887, -287278.38, 245059.92, 0.0, 10.002551, 9.998248 
8.650817e+2, 2.5567517e+2, -317720.6, -590074.5, -20996.676, -0.00046280448, -0.20739846, -316111.4, 118249.86, 0.0, 10.00173, 9.998129 
8.650955e+2, 2.6567122e+2, -273122.03, -745681.6, -45382.313, 0.0027031198, -0.302507, -268803.22, 67595.9, 0.0000000005766255, 10.002339, 9.996095 
8.6511e+2, 2.756665e+2, 76400.6, -520641.34, -13063.786, 0.12210269, -0.39966923, 76686.31, 315135.72, 0.000000514823, 10.00404, 9.996149 
8.651238e+2, 2.8566414e+2, 244271.27, -352875.13, 23290.469, 0.12411991, -0.26555526, 245178.28, 385654.0, 0.0000054394536, 10.004362, 9.996478 
8.65137e+2, 2.9566333e+2, 243174.28, -294883.53, -1072.3914, 0.044505432, -0.012567829, 243176.4, 285663.16, 0.000035908153, 10.003651, 9.996543 
8.65152e+2, 3.0565894e+2, 347100.78, -190971.17, 63.719803, 0.1066697, -0.11616295, 347100.78, 347100.78, 0.00014004746, 10.003907, 9.996796 
8.651665e+2, 3.1565544e+2, 509145.72, -45326.676, -61251.46, 0.10787007, -0.16357903, 515831.44, 515831.44, 0.00033710667, 10.004698, 9.997409 
8.749058e+2, 1.2566629e+2, -2029274.4, -1549610.5, -43955.656, 0.22220409, 0.086723074, -1545615.8, 162844.78, 0.0000000055054987, 9.996437, 10.002842 
8.749198e+2, 1.3566571e+2, -2016790.1, -1507228.8, 27251.58, 0.26744154, -0.2711252, -1505775.5, 104680.8, 0.0, 9.99594, 10.002703 
8.7493324e+2, 1.4566657e+2, -2010954.9, -1695063.5, 46815.74, 0.21707462, -0.3355317, -1688271.4, -175825.06, 0.0, 9.996343, 10.000544 
8.7494904e+2, 1.5566944e+2, -1744205.9, -1504585.8, 10649.298, 0.34309036, -0.12405626, -1504113.4, -89690.05, 0.0, 9.997458, 10.000638 
8.749626e+2, 1.6567037e+2, -1583684.1, -1353044.3, -49251.11, 0.3023389, -0.10585853, -1342967.4, -26552.762, 0.0, 9.997772, 10.000859 
8.749747e+2, 1.7566971e+2, -1535020.3, -1284921.5, -53107.48, 0.1351347, -0.2688612, -1274111.5, -55693.59, 0.0, 9.997461, 10.000803 
8.749881e+2, 1.8567011e+2, -1379500.6, -1282706.8, -43385.063, 0.08900406, -0.24756701, -1266107.4, -145692.8, 0.0, 9.998398, 9.999688 
8.750026e+2, 1.9567105e+2, -996881.0, -1043789.6, -20572.209, 0.13681448, -0.1378665, -989137.25, 33271.47, 0.0, 10.000331, 9.999724 
8.750163e+2, 2.0567118e+2, -859678.7, -942405.3, -45224.164, 0.14611234, -0.08982127, -839754.56, 84651.94, 0.0, 10.000674, 9.999583 
8.750292e+2, 2.1567054e+2, -893469.5, -923889.44, -29057.404, 0.12056177, -0.12146111, -875881.94, -49473.85, 0.0, 9.999835, 9.999443 
8.750432e+2, 2.2566839e+2, -864821.0, -1116731.8, 8685.539, 0.13890412, -0.15756094, -864521.94, -136092.23, 0.0, 10.000464, 9.997145 
8.7505805e+2, 2.3566481e+2, -510183.47, -887271.94, 17439.443, 0.19118652, -0.24495707, -509378.66, 121090.086, 0.0, 10.0021925, 9.997213 
8.7507135e+2, 2.4566224e+2, -339733.88, -704410.3, -26854.82, 0.13346744, -0.24475358, -337766.88, 194726.52, 0.0, 10.002479, 9.997654 
8.7508345e+2, 2.5566036e+2, -362339.44, -667726.8, -39019.734, -0.011964769, -0.2122456, -357432.66, 77075.48, 0.0, 10.001666, 9.997624 
8.75098e+2, 2.6565808e+2, -214152.6, -617955.9, 14265.921, 0.00007573639, -0.16703641, -213649.22, 122881.05, 0.0000000691861, 10.002313, 9.996987 
8.7511426e+2, 2.756553e+2, 119793.65, -409676.8, 50951.523, 0.13411647, -0.15871535, 124652.19, 363212.2, 0.000001269736, 10.003948, 9.996957 
8.7512827e+2, 2.8565183e+2, 203717.48, -425595.44, -11648.178, 0.12521946, -0.14946172, 203933.02, 344527.9, 0.000008255043, 10.00431, 9.996007 
8.7514037e+2, 2.9564753e+2, 203673.77, -371174.66, -17077.178, 0.0028002956, -0.19486628, 204180.64, 246817.55, 0.000042714033, 10.003618, 9.99604 
8.751556e+2, 3.0564296e+2, 283070.03, -310012.5, 32826.65, 0.071900405, -0.25101846, 284881.44, 284881.44, 0.00015286829, 10.003859, 9.995994 
8.751713e+2, 3.1564e+2, 398966.56, -251934.03, -7770.7734, 0.08810424, -0.15466045, 399059.3, 399059.3, 0.0003572086, 10.004607, 9.996032 
8.849009e+2, 1.2565102e+2, -2466050.5, -1736040.8, -52238.723, 0.24908155, 0.05432756, -1732321.5, -23711.344, 0.00000006865043, 9.993339, 10.003062 
8.849159e+2, 1.356519e+2, -1959312.5, -1454360.8, -70539.58, 0.2727143, -0.18280664, -1444691.9, 165900.13, 0.0, 9.996221, 10.002936 
8.8493025e+2, 1.456527e+2, -1868487.9, -1661694.0, -47673.207, 0.22877873, -0.24704282, -1651232.8, -138649.77, 0.0, 9.997478, 10.000224 
8.849466e+2, 1.556541e+2, -1734398.1, -1536583.0, -32961.406, 0.3507494, -0.14775431, -1531235.4, -116660.586, 0.0, 9.997677, 10.000315 
8.8496053e+2, 1.656549e+2, -1564476.5, -1335137.4, -63480.793, 0.31143752, -0.13051955, -1318738.5, -2170.717, 0.0, 9.997878, 10.000929 
8.849726e+2, 1.7565525e+2, -1441334.8, -1229701.5, -52127.715, 0.14967233, -0.1991502, -1217558.5, 1003.12146, 0.0, 9.998072, 10.000887 
8.849865e+2, 1.8565576e+2, -1366515.8, -1255891.5, 13389.214, 0.095282994, -0.17960848, -1254294.0, -133737.52, 0.0, 9.998394, 9.999876 
8.85002e+2, 1.9565615e+2, -1213717.0, -1131058.5, -1168.593, 0.12194319, -0.1438367, -1131041.9, -108487.38, 0.0, 9.998772, 9.999876 
8.850165e+2, 2.0565613e+2, -1052197.5, -1082595.3, -86936.79, 0.1548161, -0.093725264, -979141.06, -54586.426, 0.0, 9.999552, 9.999164 
8.8503015e+2, 2.1565573e+2, -806709.1, -920474.56, -125220.68, 0.19623649, -0.061897468, -726056.9, 100500.16, 0.0, 10.000593, 9.999103 
8.8504463e+2, 2.2565363e+2, -699277.5, -965643.2, -39260.79, 0.19167368, -0.107539825, -693611.2, 34966.2, 0.0, 10.001301, 9.997774 
8.850596e+2, 2.3565003e+2, -534016.75, -834142.75, -8273.579, 0.14895712, -0.2573584, -533788.9, 96824.56, 0.0, 10.001757, 9.997786 
8.8507354e+2, 2.4564758e+2, -364802.3, -743138.6, -44781.547, 0.1151435, -0.26170105, -359574.03, 173062.81, 0.0, 10.0024185, 9.99742 
8.850869e+2, 2.5564578e+2, -140476.67, -584386.44, -40567.656, 0.09152956, -0.19753273, -136799.77, 297852.63, 0.00000000006372724, 10.003282, 9.997423 
8.8510144e+2, 2.6564366e+2, -89038.14, -547494.44, 14667.866, 0.07986781, -0.13098794, -88569.336, 248104.47, 0.00000025387644, 10.003138, 9.997069 
8.8511676e+2, 2.7564114e+2, -119356.34, -512435.47, -21466.691, 0.07943566, -0.104207724, -118187.49, 120513.87, 0.0000021793016, 10.002261, 9.997058 
8.85131e+2, 2.8563774e+2, 26734.533, -465325.8, -54756.832, 0.040398628, -0.115060374, 32754.27, 173488.84, 0.000011106664, 10.0029125, 9.996397 
8.8514423e+2, 2.956334e+2, 393192.0, -235788.39, -12606.112, -0.022846602, -0.20173748, 393444.56, 436219.0, 0.000049522223, 10.0047455, 9.996418 
8.8516045e+2, 3.056294e+2, 450092.0, -252500.14, 77926.62, 0.11290695, -0.20786656, 458631.28, 458631.28, 0.00016466355, 10.005094, 9.995809 
8.851769e+2, 3.1562585e+2, 301862.63, -334647.0, 70389.79, 0.2146587, -0.1476556, 309553.9, 309553.9, 0.00037252228, 10.004096, 9.995723 
8.948939e+2, 1.2563157e+2, -2523348.5, -1845754.8, 34648.96, 0.17773367, -0.31872737, -1843987.5, -135193.66, 0.00000033567557, 9.993312, 10.002317 
8.9491266e+2, 1.3563704e+2, -2005933.8, -1548298.9, 33431.273, 0.31763333, -0.022683162, -1545869.5, 64870.95, 0.00000000007521531, 9.996224, 10.002284 
8.949279e+2, 1.456385e+2, -1818825.5, -1571860.6, -49962.082, 0.2326899, -0.02257994, -1562136.0, -49409.1, 0.0, 9.997524, 10.000823 
8.949429e+2, 1.556373e+2, -1691111.6, -1453554.4, -18163.955, 0.19469282, -0.23991731, -1452173.6, -37433.785, 0.0, 9.997702, 10.000875 
8.949572e+2, 1.6563858e+2, -1536011.5, -1283008.8, -61609.883, 0.18074739, -0.2190259, -1268803.4, 47923.496, 0.0, 9.997903, 10.001275 
8.9497125e+2, 1.756416e+2, -1415150.6, -1179724.4, -37331.547, 0.19684453, -0.05822462, -1173946.5, 44749.016, 0.0, 9.998086, 10.001224 
8.94986e+2, 1.8564197e+2, -1375823.6, -1270923.1, 21738.63, 0.18514195, -0.06611094, -1266596.6, -145906.47, 0.0, 9.998374, 9.9997835 
8.950012e+2, 1.9564009e+2, -1229256.0, -1157493.6, 20057.04, 0.1486777, -0.24570948, -1152268.4, -129561.48, 0.0, 9.998744, 9.999708 
8.95016e+2, 2.0563883e+2, -1132832.9, -1237021.0, -54451.645, 0.14272618, -0.25688887, -1109569.3, -184848.05, 0.0, 9.9994955, 9.998131 
8.950305e+2, 2.1563788e+2, -880943.5, -1054732.9, -81241.5, 0.16019237, -0.17909385, -848880.75, -22145.47, 0.0, 10.000511, 9.998219 
8.950451e+2, 2.2563694e+2, -632549.94, -810147.44, -28603.049, 0.09976898, -0.12628074, -628056.94, 100688.28, 0.0, 10.001222, 9.998882 
8.950596e+2, 2.3563589e+2, -470877.88, -686748.5, 15154.341, -0.032001466, -0.13499454, -469819.22, 160934.19, 0.0, 10.001683, 9.998834 
8.9507526e+2, 2.456341e+2, -363115.66, -728488.1, -19695.57, 0.031891495, -0.12822962, -362057.03, 170712.2, 0.0, 10.002368, 9.997546 
8.9509183e+2, 2.556315e+2, -150107.72, -581452.1, -6381.1743, 0.24734609, -0.15618712, -150013.34, 284779.8, 0.0000000002378373, 10.003185, 9.997491 
8.951057e+2, 2.6562822e+2, -144164.5, -651713.4, -24721.102, 0.1839791, -0.17332935, -142963.25, 193864.19, 0.00000030747992, 10.003091, 9.996376 
8.9511734e+2, 2.756242e+2, -169080.17, -603323.94, -40256.34, -0.09958694, -0.22553726, -165379.77, 73491.945, 0.0000026197797, 10.002209, 9.996461 
8.9513177e+2, 2.8562185e+2, 103404.34, -301113.94, 9798.227, -0.18313412, -0.16035722, 103641.54, 244535.78, 0.000013171274, 10.002885, 9.997539 
8.9514834e+2, 2.956207e+2, 464626.9, -77867.695, 55877.453, -0.10498795, -0.04529138, 470322.53, 513223.66, 0.000055655084, 10.004694, 9.99753 
8.951662e+2, 3.056181e+2, 468407.2, -191251.52, 34179.996, 0.16581875, 0.0070244977, 470173.5, 470173.5, 0.00017577718, 10.005009, 9.996263 
8.951827e+2, 3.1561214e+2, 337973.34, -240462.58, 53738.88, 0.36457175, -0.21922135, 342923.53, 342923.53, 0.0003864563, 10.00402, 9.9964 
9.0488863e+2, 1.2561375e+2, -2076529.6, -1699190.6, -3721.8164, 0.16727687, -0.39712206, -1699154.0, 9812.545, 0.0000010657902, 9.996667, 10.001712 
9.049091e+2, 1.356192e+2, -2039818.5, -1623379.3, -16794.031, 0.33831477, -0.040718127, -1622703.1, -11785.023, 0.000000007369457, 9.996241, 10.001765 
9.049249e+2, 1.4562109e+2, -1971724.4, -1578051.8, -116051.53, 0.25541604, -0.0032104885, -1546387.6, -33486.957, 0.0, 9.996191, 10.001417 
9.049396e+2, 1.5562043e+2, -1823460.9, -1455750.6, -98584.12, 0.15882975, -0.22935635, -1430987.6, -16082.125, 0.0, 9.996536, 10.001418 
9.0495455e+2, 1.6562186e+2, -1622255.1, -1353260.1, -135162.64, 0.14705335, -0.20321095, -1297078.5, 19812.45, 0.0, 9.99744, 10.001015 
9.049698e+2, 1.7562471e+2, -1325707.4, -1161161.1, -172794.42, 0.2089274, -0.03284484, -1052053.0, 166810.48, 0.0, 9.998813, 10.000997 
9.0498513e+2, 1.8562485e+2, -1214020.6, -1188577.4, -136196.55, 0.21397878, -0.054016884, -1064509.6, 56350.93, 0.0, 9.999466, 9.999821 
9.050005e+2, 1.9562276e+2, -1104112.6, -1092820.3, -134799.58, 0.17184152, -0.25782758, -963548.6, 59329.34, 0.0, 9.999575, 9.999758 
9.050158e+2, 2.0562163e+2, -1015942.6, -1140784.5, -109989.01, 0.15072452, -0.27652556, -951896.4, -27005.977, 0.0, 10.000126, 9.9984865 
9.050311e+2, 2.1562105e+2, -782500.4, -971538.75, -52488.15, 0.14569977, -0.19596413, -768904.4, 57996.438, 0.0, 10.001026, 9.998545 
9.050459e+2, 2.2562057e+2, -640309.56, -792663.1, -16946.086, 0.07056289, -0.122975394, -638447.44, 90459.02, 0.0, 10.00108, 9.99907 
9.050603e+2, 2.3562002e+2, -626949.6, -741418.3, -51318.2, -0.063736156, -0.09735308, -607311.8, 23598.018, 0.0, 10.000523, 9.999018 
9.050767e+2, 2.4561845e+2, -562734.75, -792449.3, -63647.645, 0.013836563, -0.09070007, -546278.6, -13354.674, 0.0, 10.000862, 9.997828 
9.0509444e+2, 2.5561592e+2, -313919.3, -630105.3, -55883.67, 0.25329444, -0.14127225, -304332.94, 130615.055, 0.0, 10.001928, 9.997758 
9.051087e+2, 2.656128e+2, -202690.08, -670271.56, -63444.83, 0.19997792, -0.15583032, -194234.34, 142746.02, 0.0000002007212, 10.002654, 9.996461 
9.051203e+2, 2.7560908e+2, -25219.156, -524475.94, -33678.492, -0.07359999, -0.18809296, -22957.543, 216063.64, 0.0000025589381, 10.003153, 9.996549 
9.051353e+2, 2.8560662e+2, 162345.38, -271651.16, 45279.51, -0.13806783, -0.14026822, 167019.13, 308064.28, 0.000014749117, 10.003286, 9.997551 
9.051529e+2, 2.9560512e+2, 235984.55, -180424.92, -6772.6357, -0.033611026, -0.059823576, 236094.67, 279151.0, 0.00006245814, 10.003102, 9.997589 
9.051708e+2, 3.0560297e+2, 305828.88, -216621.72, -78911.695, 0.20084256, 0.01254072, 317487.63, 317487.63, 0.00018870429, 10.003659, 9.996739 
9.0518653e+2, 3.155974e+2, 479715.3, -75870.18, -73876.59, 0.3193385, -0.22722332, 489370.94, 489370.94, 0.00040341725, 10.004583, 9.997258 
9.148847e+2, 1.2559801e+2, -2091872.1, -1756640.3, -37764.414, 0.07701486, -0.13812457, -1752438.8, -43315.2, 0.000002613721, 9.996779, 10.001261 
9.1490483e+2, 1.3559836e+2, -2063375.5, -1677130.6, -28197.172, 0.27855623, -0.24869022, -1675083.0, -63958.188, 0.00000007607973, 9.996259, 10.001388 
9.149211e+2, 1.4560036e+2, -1932501.3, -1497792.8, -110127.47, 0.23347504, -0.21284397, -1471485.5, 41620.055, 0.0, 9.996193, 10.001966 
9.149366e+2, 1.5560351e+2, -1787400.4, -1385221.4, -76302.58, 0.18762416, -0.11335031, -1371231.6, 43839.527, 0.0, 9.996552, 10.001895 
9.1495216e+2, 1.6560487e+2, -1682634.4, -1481451.0, -90943.53, 0.15431374, -0.07099117, -1446435.1, -129376.46, 0.0, 9.997454, 10.000128 
9.1496795e+2, 1.7560464e+2, -1383854.4, -1283042.1, -118436.29, 0.131651, -0.11823191, -1204731.8, 14333.208, 0.0, 9.998816, 10.000159 
9.149838e+2, 1.8560448e+2, -1201446.8, -1160598.9, -138160.69, 0.12599166, -0.14194424, -1041360.7, 79706.38, 0.0, 9.999456, 10.00002 
9.1499984e+2, 1.956042e+2, -1089620.1, -1054529.1, -122043.39, 0.134869, -0.1828448, -948776.44, 74290.805, 0.0, 9.999539, 10.000038 
9.150158e+2, 2.0560463e+2, -907469.5, -902556.8, -81062.76, 0.1220083, -0.14777449, -823913.2, 101147.984, 0.0, 10.000068, 10.00015 
9.150317e+2, 2.1560538e+2, -689791.7, -756349.1, -15871.186, 0.09378663, -0.100879215, -686200.8, 140851.55, 0.0, 10.000931, 10.000066 
9.150469e+2, 2.2560461e+2, -700977.0, -904740.9, -45663.207, 0.047761966, -0.08884575, -691211.94, 37848.06, 0.0, 10.001015, 9.998335 
9.1506153e+2, 2.3560256e+2, -683288.9, -843246.94, -62283.24, -0.006792709, -0.14289689, -661898.06, -30816.193, 0.0, 10.000458, 9.99835 
9.150775e+2, 2.4560085e+2, -538891.8, -732664.06, -28194.322, -0.0017362741, -0.1423132, -534872.9, -1773.4923, 0.0, 10.000814, 9.998263 
9.150945e+2, 2.555992e+2, -293019.34, -569996.56, -10185.024, 0.05319754, -0.14334701, -292645.3, 142470.11, 0.0, 10.001854, 9.99821 
9.151103e+2, 2.6559755e+2, -151494.13, -554362.4, -50341.797, 0.07627483, -0.07698753, -145298.77, 191833.33, 0.00000011562638, 10.002611, 9.997276 
9.1512513e+2, 2.755957e+2, 16959.459, -425663.3, -10179.008, 0.08058512, -0.003587845, 17193.422, 256344.67, 0.0000025826089, 10.003101, 9.997254 
9.1514105e+2, 2.8559202e+2, 82925.98, -428660.03, 30897.496, 0.09899419, -0.057277344, 84785.29, 225973.03, 0.000017159802, 10.003249, 9.996492 
9.1515774e+2, 2.9558676e+2, 160551.5, -330412.4, -1853.5511, 0.1244744, -0.24434409, 160558.5, 203797.33, 0.00007135739, 10.003064, 9.996581 
9.1517425e+2, 3.0558428e+2, 324472.78, -156097.38, -45296.83, 0.16959222, -0.17954089, 328705.03, 328705.03, 0.00020552005, 10.003576, 9.997189 
9.15188e+2, 3.1558087e+2, 531954.8, 64536.832, -11682.323, -0.025764521, -0.25175923, 532246.6, 532246.6, 0.00042609414, 10.004454, 9.99828 
9.248826e+2, 1.2558135e+2, -2292790.0, -1866232.9, -11198.823, 0.2555907, 0.014401326, -1865939.1, -156648.3, 0.0000053718704, 9.995437, 10.001161 
9.249004e+2, 1.3558035e+2, -2125540.3, -1715119.4, 5676.806, 0.23586848, -0.22758697, -1715040.9, -103736.39, 0.00000033393198, 9.995858, 10.001323 
9.249166e+2, 1.4558196e+2, -1868570.3, -1458309.4, -38962.336, 0.15458569, -0.23109405, -1454641.9, 58645.46, 0.0, 9.996599, 10.002044 
9.249337e+2, 1.5558524e+2, -1604783.8, -1289474.6, -59285.926, 0.18503448, -0.12443469, -1278695.9, 136553.63, 0.0, 9.997777, 10.001961 
9.2495e+2, 1.6558646e+2, -1580002.0, -1468999.4, -54973.973, 0.15777421, -0.083332, -1446382.0, -129143.32, 0.0, 9.998313, 9.999799 
9.249659e+2, 1.7558594e+2, -1474535.4, -1361291.0, -52317.65, 0.08022114, -0.12798283, -1340821.0, -121571.04, 0.0, 9.998342, 9.999851 
9.249822e+2, 1.8558604e+2, -1321653.6, -1201229.3, -59798.52, 0.064271584, -0.11823938, -1176580.5, -55329.805, 0.0, 9.99856, 10.00017 
9.2499864e+2, 1.9558641e+2, -1168893.0, -1070976.3, -62228.152, 0.097277224, -0.1102348, -1040755.9, -17510.957, 0.0, 9.998912, 10.00022 
9.2501515e+2, 2.0558701e+2, -1037613.94, -929980.7, -59671.43, 0.10533959, -0.08267707, -903442.44, 21793.893, 0.0, 9.99902, 10.000469 
9.250316e+2, 2.1558759e+2, -955117.9, -849295.9, -104604.34, 0.09624882, -0.08554636, -784982.1, 42245.27, 0.0, 9.998955, 10.000382 
9.2504764e+2, 2.2558676e+2, -876225.25, -977924.94, -127841.29, 0.08735125, -0.09978595, -789492.0, -60257.117, 0.0, 9.999765, 9.998432 
9.2506325e+2, 2.3558474e+2, -554535.8, -770445.7, -97175.484, 0.079075955, -0.15991853, -517241.53, 114014.99, 0.0, 10.001291, 9.99845 
9.250792e+2, 2.4558325e+2, -401574.16, -655653.1, -43335.6, 0.046786685, -0.14598675, -394386.22, 138886.3, 0.0, 10.00171, 9.998364 
9.2509544e+2, 2.55582e+2, -361448.6, -584434.94, -60121.684, -0.0021463311, -0.11874984, -346271.53, 89014.25, 0.0, 10.001308, 9.998373 
9.2511207e+2, 2.6558077e+2, -245401.83, -531913.3, -91171.0, 0.04581002, -0.052893974, -218850.73, 118447.01, 0.00000007319143, 10.00167, 9.997889 
9.251289e+2, 2.7557927e+2, -11171.666, -373638.06, -76714.414, 0.18015006, -0.0041528135, 4395.984, 243706.77, 0.0000027897247, 10.002625, 9.997839 
9.251451e+2, 2.855756e+2, 82537.02, -437941.34, -10354.211, 0.18266155, -0.07871588, 82742.92, 224090.0, 0.000020180585, 10.003289, 9.996406 
9.2516065e+2, 2.9557016e+2, 249090.67, -295960.94, 14120.417, 0.08083257, -0.27644655, 249456.23, 292858.2, 0.00008284934, 10.003709, 9.996507 
9.2517704e+2, 3.0556795e+2, 388332.25, -98458.8, 18726.615, 0.08581611, -0.19382729, 389051.6, 389051.6, 0.00022867149, 10.003872, 9.99745 
9.251917e+2, 3.1556618e+2, 469020.28, 101535.96, 22453.754, -0.05161334, -0.13153294, 470387.16, 470387.16, 0.00046012198, 10.003711, 9.998898 
9.348816e+2, 1.2556346e+2, -2272636.8, -1814152.9, -11685.652, 0.5873387, 0.016607225, -1813855.3, -104383.336, 0.000009857008, 9.995408, 10.001525 
9.348955e+2, 1.3556542e+2, -2098812.8, -1666198.1, 27125.959, 0.1494389, 0.03544987, -1664503.9, -53049.42, 0.0000009955157, 9.995895, 10.001636 
9.349114e+2, 1.4556625e+2, -1892996.5, -1525833.9, -1711.1808, -0.049444217, -0.033385336, -1525825.9, -12383.526, 0.00000000002439963, 9.996663, 10.001555 
9.349307e+2, 1.5556568e+2, -1634915.6, -1355053.0, -9570.57, 0.09237587, -0.2637495, -1354726.0, 60713.71, 0.0, 9.997783, 10.001512 
9.349479e+2, 1.6556658e+2, -1560245.0, -1426697.3, -61821.723, 0.099346705, -0.24805416, -1402472.9, -85041.73, 0.0, 9.998311, 10.000089 
9.3496364e+2, 1.7556861e+2, -1454180.5, -1320660.9, -45109.39, 0.0009869033, -0.06488138, -1306849.4, -87431.266, 0.0, 9.998352, 10.000125 
9.349799e+2, 1.855696e+2, -1319308.9, -1192629.0, -51396.742, -0.027370162, 0.018766263, -1174399.5, -52988.945, 0.0, 9.998544, 10.000239 
9.349967e+2, 1.9556947e+2, -1174547.5, -1074078.5, -44079.06, -0.001825673, -0.029827746, -1057481.4, -34071.08, 0.0, 9.998875, 10.000218 
9.350136e+2, 2.0556886e+2, -1108723.0, -1071255.9, -70435.99, 0.043378, -0.0736437, -1017104.8, -91689.63, 0.0, 9.998989, 9.999516 
9.350307e+2, 2.1556772e+2, -1024950.0, -981035.94, -98007.31, 0.10377595, -0.1493267, -902556.2, -75130.86, 0.0, 9.998893, 9.999513 
9.350479e+2, 2.2556707e+2, -823703.1, -850370.44, -75127.87, 0.13563323, -0.15333134, -760734.9, -31304.467, 0.0, 9.999687, 9.999343 
9.350653e+2, 2.3556663e+2, -509377.5, -657225.44, -37111.254, 0.14899504, -0.14503182, -500585.1, 130848.27, 0.0, 10.0012045, 9.999271 
9.350816e+2, 2.4556571e+2, -423424.94, -687822.7, -64681.45, 0.10306958, -0.102278605, -408449.66, 124993.45, 0.0, 10.001655, 9.998169 
9.3509716e+2, 2.5556427e+2, -380418.84, -615306.25, -66860.08, 0.024380734, -0.07408156, -362720.78, 72738.97, 0.0, 10.001267, 9.998185 
9.351139e+2, 2.6556247e+2, -214128.44, -460030.66, -59645.133, 0.05452523, -0.0832565, -200424.81, 137052.14, 0.00000003612581, 10.001639, 9.998395 
9.3513167e+2, 2.7556008e+2, 14947.848, -306108.38, -33985.67, 0.17648236, -0.17294076, 18505.996, 258003.1, 0.0000027030533, 10.002567, 9.998333 
9.3514735e+2, 2.8555763e+2, 132033.3, -322035.97, 1791.3252, 0.0678258, -0.19158104, 132040.36, 273561.38, 0.000022488803, 10.003236, 9.997227 
9.351614e+2, 2.9555514e+2, 295618.0, -190701.05, 37739.74, -0.220283, -0.17651117, 298529.3, 342076.78, 0.000095232324, 10.003669, 9.997251 
9.3517905e+2, 3.0555376e+2, 386680.9, -88785.55, 7309.8438, -0.11543914, -0.050027385, 386793.28, 386793.28, 0.0002574268, 10.003821, 9.9975395 
9.3519706e+2, 3.1555286e+2, 476323.5, 143384.06, 41712.684, 0.08653315, 0.08757041, 481469.97, 481469.97, 0.000506864, 10.003602, 9.999234 
9.4487745e+2, 1.2554416e+2, -2038206.8, -1693178.9, -32163.908, 0.56178087, -0.03745542, -1690206.1, 19456.617, 0.000016753027, 9.996976, 10.001606 
9.448925e+2, 1.3554735e+2, -1862832.5, -1551716.0, -46214.285, 0.18583459, 0.10240403, -1544996.4, 66636.66, 0.000002343361, 9.997512, 10.001646 
9.4490886e+2, 1.4554831e+2, -1800426.4, -1520117.1, -71767.805, -0.003459891, 0.06410427, -1502810.9, 10809.735, 0.0000000053592455, 9.997473, 10.001196 
9.449278e+2, 1.5554677e+2, -1753432.6, -1448727.9, -84565.99, 0.06982241, -0.22810581, -1426831.5, -11202.414, 0.0, 9.997127, 10.0011835 
9.449454e+2, 1.6554743e+2, -1676380.4, -1419333.6, -108996.04, 0.07352297, -0.25056306, -1379338.8, -61717.574, 0.0, 9.997239, 10.000659 
9.449619e+2, 1.7554976e+2, -1504412.1, -1282416.4, -81756.35, 0.028985957, -0.09378546, -1255556.9, -35956.16, 0.0, 9.997736, 10.000684 
9.4497883e+2, 1.8555097e+2, -1319177.8, -1189528.8, -53941.5, 0.011448488, -0.016681647, -1170021.3, -48431.16, 0.0, 9.998537, 10.0002575 
9.4499606e+2, 1.9555104e+2, -1067464.4, -1023741.2, -61100.617, 0.011484525, -0.047494084, -980708.94, 42880.47, 0.0, 9.999616, 10.000206 
9.450131e+2, 2.0555031e+2, -956047.2, -1030985.3, -73025.04, 0.038192112, -0.08629505, -911439.5, 14157.227, 0.0, 10.000187, 9.99921 
9.4503015e+2, 2.1554884e+2, -833551.75, -915295.1, -63816.62, 0.09200093, -0.16752647, -798640.5, 28970.77, 0.0, 10.00033, 9.999263 
9.450478e+2, 2.2554827e+2, -687411.2, -767376.1, -4990.177, 0.110583596, -0.16214506, -687101.0, 42514.914, 0.0, 10.000549, 9.9995 
9.4506586e+2, 2.3554821e+2, -548737.06, -653299.3, -35149.844, 0.10749685, -0.12954672, -538019.56, 93594.7, 0.0, 10.000845, 9.999465 
9.4508296e+2, 2.4554718e+2, -478473.84, -710690.0, -94010.266, 0.10022746, -0.109278545, -445186.4, 88437.97, 0.0, 10.001257, 9.998205 
9.4509935e+2, 2.5554523e+2, -303874.94, -568996.25, -84576.0, 0.09840981, -0.13857414, -279192.38, 156452.83, 0.0, 10.001757, 9.998262 
9.4511634e+2, 2.6554355e+2, -99262.23, -400041.5, -49536.707, 0.09710489, -0.14100853, -91313.84, 246348.14, 0.000000027783642, 10.002406, 9.998438 
9.451338e+2, 2.7554184e+2, 110308.02, -248071.95, -70400.15, 0.10555214, -0.16699655, 123641.36, 363318.97, 0.000002329391, 10.003175, 9.998437 
9.4514996e+2, 2.8553995e+2, 172417.5, -248154.44, -79884.81, 0.00876139, -0.15851231, 187079.9, 328776.06, 0.000023981273, 10.003273, 9.997722 
9.4516516e+2, 2.9553792e+2, 192991.39, -186561.61, -76994.41, -0.16602139, -0.1483061, 208015.44, 251732.48, 0.000106754764, 10.002741, 9.997724 
9.4518274e+2, 3.0553633e+2, 237376.03, -199901.67, -107208.67, -0.081812546, -0.049314618, 262246.2, 262246.2, 0.000287777, 10.002967, 9.997195 
9.452002e+2, 3.1553602e+2, 474413.13, 102193.56, -115294.016, 0.035188355, 0.18371503, 507231.56, 507231.56, 0.000560941, 10.003752, 9.998898 
9.548693e+2, 1.255238e+2, -2052139.4, -1736559.3, -22649.496, 0.0072803693, -0.12601496, -1734942.0, -25081.88, 0.00002677623, 9.997048, 10.001265 
9.5489126e+2, 1.3552618e+2, -1888137.5, -1602485.0, -25382.639, 0.2944864, -0.03515421, -1600247.0, 11592.765, 0.0000047533053, 9.99751, 10.001293 
9.5490897e+2, 1.4552797e+2, -1818770.9, -1557992.8, -92943.26, 0.24809928, 0.03891531, -1528257.6, -14434.245, 0.000000046136613, 9.997469, 10.00094 
9.549249e+2, 1.5552853e+2, -1761372.1, -1474793.4, -90947.95, 0.047999818, -0.0147596225, -1448367.3, -32549.86, 0.0, 9.997167, 10.000988 
9.5494217e+2, 1.6552912e+2, -1607676.4, -1284430.1, -96997.96, 0.011688219, -0.082932636, -1257557.5, 60250.184, 0.0, 9.99727, 10.001571 
9.5496064e+2, 1.7552952e+2, -1445024.3, -1160898.0, -55958.836, 0.110906355, -0.21022493, -1150274.1, 69522.81, 0.0, 9.997741, 10.001516 
9.5497864e+2, 1.8553026e+2, -1319581.6, -1192007.6, -19400.904, 0.12576905, -0.21798599, -1189122.5, -67334.41, 0.0, 9.998542, 10.000239 
9.549964e+2, 1.9553114e+2, -1070370.3, -1025052.2, -16252.981, 0.074798085, -0.16582322, -1019825.94, 3956.2583, 0.0, 9.999594, 10.000208 
9.5501345e+2, 2.0553137e+2, -937851.1, -983091.1, -74809.836, 0.037075195, -0.126775, -882316.3, 43464.703, 0.0, 10.000142, 9.999562 
9.550298e+2, 2.155309e+2, -826660.7, -882003.75, -52320.957, 0.008514994, -0.14161992, -795144.4, 32641.174, 0.0, 10.000246, 9.999535 
9.550469e+2, 2.255303e+2, -735083.7, -848244.94, -437.72894, -0.039375063, -0.122158885, -735082.0, -5290.7705, 0.0, 10.000473, 9.99898 
9.550648e+2, 2.3552942e+2, -595678.44, -735073.6, -17343.729, -0.09652879, -0.12008878, -593552.94, 38246.87, 0.0, 10.000771, 9.998945 
9.5508313e+2, 2.4552763e+2, -462917.06, -662858.75, -79999.086, -0.02206124, -0.17013407, -434848.75, 98967.74, 0.0, 10.001196, 9.998558 
9.5510185e+2, 2.5552493e+2, -292855.34, -533424.56, -59402.17, 0.16550942, -0.30596444, -278987.03, 156854.38, 0.0, 10.001699, 9.998535 
9.5511913e+2, 2.6552403e+2, -137595.0, -461361.1, -23702.045, 0.1292404, -0.22447444, -135869.03, 201983.63, 0.000000030362223, 10.002335, 9.998049 
9.551351e+2, 2.7552432e+2, 70166.24, -311182.56, -35199.816, -0.08907403, -0.008694773, 73388.086, 313242.56, 0.000002140531, 10.003087, 9.998048 
9.5515263e+2, 2.8552246e+2, 180074.63, -214282.14, -105145.266, -0.06314579, 0.004936575, 206357.3, 348231.34, 0.000025889522, 10.0032, 9.997986 
9.551714e+2, 2.9551873e+2, 201119.72, -162999.1, -87943.52, 0.16742516, -0.17914687, 221247.58, 265156.0, 0.000117742304, 10.002708, 9.997901 
9.5518786e+2, 3.0551594e+2, 181579.64, -305158.84, -77502.74, 0.12754802, -0.17153981, 193622.36, 193622.36, 0.00031731566, 10.00293, 9.996488 
9.552008e+2, 3.15516e+2, 402823.4, -30319.781, -60424.32, -0.30259803, 0.17003356, 411094.78, 411094.78, 0.00061780325, 10.003689, 9.998014 
9.648659e+2, 1.2550455e+2, -2048205.8, -1763620.6, 8098.316, -0.032909464, -0.1136641, -1763390.4, -53342.01, 0.000040530904, 9.997186, 10.0010195 
9.648882e+2, 1.3550583e+2, -1972881.5, -1663435.3, -12433.3545, 0.27669284, -0.11277363, -1662936.5, -50897.773, 0.000008656152, 9.997013, 10.001116 
9.649067e+2, 1.4550795e+2, -1851917.8, -1562922.5, -38281.363, 0.28482845, -0.0001552684, -1557937.5, -43916.92, 0.00000019058375, 9.997199, 10.001036 
9.64923e+2, 1.5550995e+2, -1655011.5, -1409426.5, -23448.314, 0.11495597, 0.07980601, -1407207.8, 8795.84, 0.0, 9.997849, 10.0011015 
9.649404e+2, 1.6551074e+2, -1445329.4, -1197156.0, -30977.443, 0.062651716, 0.021444272, -1193347.8, 124644.44, 0.0, 9.998345, 10.001649 
9.649587e+2, 1.7551035e+2, -1295378.0, -1081298.4, -63681.39, 0.10417666, -0.19512016, -1063787.6, 156199.75, 0.0, 9.998732, 10.001586 
9.649769e+2, 1.8551086e+2, -1330857.9, -1188858.5, -49880.035, 0.11031102, -0.23192328, -1173088.5, -51108.652, 0.0, 9.9984255, 10.000322 
9.6499515e+2, 1.9551198e+2, -1359441.4, -1152370.6, -49552.06, 0.094606765, -0.16447157, -1141123.8, -117151.79, 0.0, 9.997558, 10.000318 
9.650128e+2, 2.055126e+2, -1195149.9, -1062289.1, -57132.406, 0.06478491, -0.11215034, -1041100.4, -115134.01, 0.0, 9.998199, 9.999948 
9.6503e+2, 2.1551266e+2, -817530.0, -835831.6, -47631.105, 0.022590457, -0.112358704, -778178.6, 49785.605, 0.0, 10.000139, 9.999897 
9.650477e+2, 2.2551215e+2, -703722.0, -858652.94, -6019.322, -0.017520959, -0.09072965, -703488.5, 26481.29, 0.0, 10.0007925, 9.998759 
9.650658e+2, 2.3551099e+2, -661981.94, -782167.9, -7336.2773, -0.046924375, -0.09436695, -661535.75, -29552.889, 0.0, 10.000384, 9.998805 
9.6508443e+2, 2.4550927e+2, -504431.63, -656698.25, -20800.336, 0.010902968, -0.14573184, -501641.34, 32357.826, 0.0, 10.000795, 9.998797 
9.651035e+2, 2.5550693e+2, -248139.2, -484440.16, -21094.418, 0.15141754, -0.2691305, -246270.89, 189748.22, 0.0, 10.001898, 9.998773 
9.6512103e+2, 2.6550603e+2, -204314.27, -519622.38, 1809.3455, 0.1077292, -0.18263854, -204303.89, 133725.95, 0.000000012060779, 10.001978, 9.997825 
9.651372e+2, 2.7550614e+2, -222953.1, -476771.22, -6068.0337, -0.085555844, 0.031462554, -222808.11, 17226.816, 0.0000023356135, 10.001174, 9.997831 
9.6515536e+2, 2.855041e+2, -24132.406, -348437.06, -51263.492, -0.040549804, 0.054804314, -16222.03, 125834.94, 0.000028869204, 10.001946, 9.997669 
9.651751e+2, 2.9550028e+2, 369340.28, -116335.164, -90315.07, 0.21152975, -0.10477621, 385591.28, 429684.22, 0.00012890251, 10.004015, 9.997595 
9.6519154e+2, 3.0549675e+2, 503193.66, -141676.33, -67379.0, 0.09687027, -0.15753669, 510158.5, 510158.5, 0.0003450462, 10.005098, 9.996568 
9.6520394e+2, 3.1549597e+2, 603416.06, 41285.613, -16063.713, -0.42616853, 0.09126929, 603874.75, 603874.75, 0.00067282066, 10.005189, 9.997776 
9.7486717e+2, 1.2548625e+2, -2043038.4, -1759501.0, -12759.55, 0.34193185, -0.010141587, -1758927.9, -48698.766, 0.000058506626, 9.997216, 10.001029 
9.7488326e+2, 1.354864e+2, -1963768.4, -1651280.4, -16566.96, 0.06280753, -0.12667227, -1650404.5, -38175.71, 0.00001444443, 9.997043, 10.001181 
9.7490144e+2, 1.4548844e+2, -1813867.6, -1495173.6, -20102.445, 0.029260317, -0.05088798, -1493910.6, 20299.992, 0.0000005546723, 9.997243, 10.001483 
9.749221e+2, 1.5549108e+2, -1626645.4, -1355844.5, 8062.8037, 0.2236843, 0.052328084, -1355604.6, 60582.414, 0.0, 9.997868, 10.001464 
9.749401e+2, 1.6549233e+2, -1497582.0, -1305576.9, -24427.492, 0.18217055, 0.062197957, -1302517.9, 15656.466, 0.0, 9.998346, 10.000903 
9.749561e+2, 1.7549227e+2, -1341570.5, -1180619.9, -48055.016, -0.04448376, -0.04480296, -1167363.9, 52807.72, 0.0, 9.998747, 10.000896 
9.7497344e+2, 1.8549283e+2, -1314547.1, -1156987.1, -88461.164, -0.089964144, -0.058887046, -1117311.9, 4853.354, 0.0, 9.998432, 10.00054 
9.74992e+2, 1.9549365e+2, -1349232.6, -1124567.9, -71217.39, 0.015331924, -0.041172042, -1103894.6, -79736.72, 0.0, 9.997528, 10.0005245 
9.7501117e+2, 2.0549409e+2, -1170724.1, -1007369.4, 9002.761, 0.06680651, -0.035770055, -1006874.75, -80722.945, 0.0, 9.998173, 10.00034 
9.7503084e+2, 2.1549408e+2, -800366.4, -787438.7, 26247.824, 0.07557648, -0.0823009, -766870.56, 61277.484, 0.0, 10.000076, 10.000264 
9.750499e+2, 2.2549371e+2, -701397.0, -838068.3, -28657.61, 0.11523888, -0.07153988, -695631.2, 34520.73, 0.0, 10.000727, 9.998929 
9.750686e+2, 2.354929e+2, -665517.1, -769795.3, -15423.623, 0.18605115, -0.056662392, -663283.7, -31119.836, 0.0, 10.0002985, 9.998932 
9.750866e+2, 2.4549207e+2, -501712.72, -639677.2, 13237.705, 0.14271316, -0.031600475, -500454.06, 33718.438, 0.0, 10.000747, 9.998938 
9.75104e+2, 2.5549102e+2, -247321.8, -471183.9, 21768.836, 0.0020565875, -0.042067096, -245224.6, 190955.48, 0.0, 10.001843, 9.998893 
9.7512174e+2, 2.6548943e+2, -212482.16, -523180.06, -34995.887, -0.023173098, -0.029080292, -208589.13, 129606.195, 0.0000000034767167, 10.001926, 9.997821 
9.7513986e+2, 2.7548727e+2, -230327.72, -486550.47, -25452.445, 0.048783444, -0.040684994, -227823.81, 12394.919, 0.0000028342504, 10.001152, 9.997774 
9.751581e+2, 2.8548488e+2, -89398.984, -478256.06, 21671.49, 0.028075725, -0.00006612604, -88194.94, 54049.594, 0.000032313746, 10.001926, 9.996786 
9.7517633e+2, 2.9548237e+2, 299570.72, -240727.9, -5955.6396, -0.079728976, 0.05551992, 299636.34, 343908.78, 0.00013997231, 10.003928, 9.996782 
9.751935e+2, 3.054785e+2, 534882.44, -42829.83, -67399.38, -0.22143513, -0.03016925, 542641.44, 542641.44, 0.00037097232, 10.004961, 9.997312 
9.7520894e+2, 3.1547603e+2, 602635.6, 78550.44, 5524.1084, -0.4719499, -0.024291286, 602693.9, 602693.9, 0.000723567, 10.005027, 9.998106 
9.8486537e+2, 1.2546703e+2, -1899020.1, -1650238.0, 26139.97, 0.40649363, -0.026910963, -1647521.1, 62898.457, 0.00008108169, 9.998035, 10.001383 
9.848805e+2, 1.3546811e+2, -1806202.3, -1538610.3, 19806.03, 0.043120313, -0.08353026, -1537152.3, 75256.54, 0.000022462764, 9.99796, 10.001514 
9.8489857e+2, 1.454701e+2, -1753443.3, -1474702.0, 29905.424, 0.00034665212, -0.026315728, -1471529.6, 42860.72, 0.0000013019285, 9.997688, 10.001409 
9.8491925e+2, 1.554719e+2, -1698343.6, -1398802.0, 5371.629, 0.1798016, -0.0033155908, -1398705.6, 17668.71, 0.0, 9.997408, 10.001389 
9.849376e+2, 1.6547331e+2, -1661483.3, -1400325.6, -1004.07367, 0.15447222, 0.03489186, -1400321.8, -81960.76, 0.0, 9.997294, 10.000758 
9.849543e+2, 1.7547429e+2, -1559758.8, -1298362.6, 8902.653, -0.023992509, 0.044125143, -1298059.8, -77708.88, 0.0, 9.997314, 10.000774 
9.84972e+2, 1.8547484e+2, -1341460.8, -1174194.8, -4358.552, -0.070734605, 0.037801065, -1174081.3, -51736.387, 0.0, 9.998265, 10.000502 
9.849904e+2, 1.9547483e+2, -992359.94, -956460.1, -17315.686, -0.018680058, -0.023833882, -949469.44, 74874.85, 0.0, 9.999991, 10.000492 
9.8501027e+2, 2.0547497e+2, -831370.4, -839533.25, 63209.535, 0.046638213, -0.050186418, -772110.6, 154229.6, 0.0, 10.000475, 10.000391 
9.850313e+2, 2.1547508e+2, -823059.56, -790409.75, 43892.477, 0.12906569, -0.09061765, -759904.6, 68430.03, 0.0, 9.999888, 10.000334 
9.8505116e+2, 2.2547476e+2, -770670.9, -884134.94, -29384.375, 0.1935085, -0.07352318, -763512.7, -33174.15, 0.0, 10.0003, 9.998822 
9.850701e+2, 2.3547398e+2, -493244.1, -696573.5, -46039.85, 0.2516584, -0.047242273, -483305.13, 149046.36, 0.0, 10.001521, 9.998847 
9.850881e+2, 2.4547349e+2, -335448.3, -560168.56, -18027.639, 0.16880873, 0.020167403, -334011.28, 200346.36, 0.0, 10.001899, 9.998925 
9.8510534e+2, 2.554731e+2, -280433.8, -489310.16, -33911.01, -0.030933427, 0.0770609, -275066.3, 161293.78, 0.0, 10.001626, 9.998872 
9.851237e+2, 2.65471e+2, -148465.84, -501461.4, -87711.62, -0.04449992, 0.043601323, -127872.79, 210506.53, 0.00000001775074, 10.002399, 9.997749 
9.85143e+2, 2.754674e+2, 181615.2, -296449.2, -96101.305, 0.10909799, -0.10263769, 200210.36, 440624.16, 0.000003544514, 10.004014, 9.997707 
9.851613e+2, 2.8546494e+2, 212692.03, -352771.44, -14265.611, 0.054548774, -0.060140718, 213051.7, 355491.94, 0.00003520851, 10.004086, 9.996612 
9.8517865e+2, 2.9546332e+2, 133353.73, -340119.94, -3845.1328, -0.17881484, 0.10505585, 133384.97, 177845.9, 0.00014918753, 10.002865, 9.996612 
9.8519653e+2, 3.0545968e+2, 188945.97, -185518.48, -51359.7, -0.2784802, 0.039392967, 195862.47, 195862.47, 0.00039416357, 10.002468, 9.99753 
9.852145e+2, 3.1545663e+2, 264986.94, -90761.07, -37568.223, -0.2941537, -0.035641927, 268911.0, 268911.0, 0.0007685339, 10.002698, 9.998076 
9.948598e+2, 1.2544698e+2, -1844964.0, -1551209.0, 10732.877, 0.014762701, -0.16576147, -1550817.4, 159801.55, 0.000108580556, 9.998097, 10.002033 
9.9487996e+2, 1.3545112e+2, -1759075.9, -1445299.4, 19399.4, 0.18110475, 0.016931547, -1444104.6, 168473.19, 0.000033028722, 9.997983, 10.002145 
9.94898e+2, 1.454531e+2, -1794699.3, -1564111.4, 9759.404, 0.1584113, 0.07658773, -1563699.1, -49140.637, 0.0000026281716, 9.9977, 10.0007925 
9.949141e+2, 1.5545247e+2, -1728715.4, -1472353.8, 1108.9049, -0.084921345, -0.085696846, -1472349.0, -55784.19, 0.00000000019976186, 9.997447, 10.000867 
9.949326e+2, 1.6545372e+2, -1626223.9, -1329886.8, -6920.6855, -0.0889277, -0.06373241, -1329725.3, -11173.181, 0.0, 9.997308, 10.001234 
9.949532e+2, 1.7545637e+2, -1527132.8, -1235139.6, 17757.676, 0.11766426, 0.06662482, -1234063.6, -13538.395, 0.0, 9.99733, 10.001202 
9.949722e+2, 1.854569e+2, -1364321.6, -1219446.3, 53418.88, 0.11682201, 0.055465404, -1201879.6, -79360.7, 0.0, 9.998257, 10.000195 
9.9499005e+2, 1.9545554e+2, -1014354.94, -998964.8, 48071.59, -0.060645953, -0.11380043, -957976.3, 66554.805, 0.0, 9.999976, 10.000209 
9.9500984e+2, 2.0545526e+2, -855969.7, -879436.4, 32894.86, -0.046145163, -0.15518904, -832778.25, 93753.29, 0.0, 10.000429, 10.000138 
9.950313e+2, 2.1545574e+2, -853920.94, -833277.44, 29713.193, 0.13137597, -0.13351412, -812144.25, 16379.548, 0.0, 9.999798, 10.000084 
9.950513e+2, 2.254554e+2, -809145.4, -939172.44, 10747.392, 0.1730194, -0.08850102, -808263.06, -77734.516, 0.0, 10.000198, 9.99849 
9.950702e+2, 2.3545423e+2, -529150.8, -749356.2, 3007.5383, 0.098018646, -0.06522934, -529109.75, 103435.39, 0.0, 10.001432, 9.998525 
9.950888e+2, 2.4545361e+2, -354711.3, -588892.6, -35261.414, 0.037090596, 0.010786575, -349517.1, 185037.0, 0.0, 10.001846, 9.998755 
9.9510735e+2, 2.554533e+2, -301763.16, -518786.7, -34339.605, -0.009356692, 0.09022441, -296459.25, 140099.02, 0.0, 10.001556, 9.998706 
9.9512655e+2, 2.654509e+2, -172191.61, -532352.2, -31346.357, -0.009172839, 0.04243183, -169483.77, 169096.69, 0.000000028595345, 10.002323, 9.997572 
9.951463e+2, 2.754466e+2, 154067.0, -326307.63, -31778.488, 0.027846316, -0.15428591, 156160.13, 396779.53, 0.000003781716, 10.003901, 9.997555 
9.9516475e+2, 2.8544417e+2, 237364.31, -283682.9, -65310.277, -0.021533238, -0.12428804, 245425.86, 388069.84, 0.000036350866, 10.004004, 9.9971285 
9.95182e+2, 2.9544324e+2, 166326.02, -265759.63, -38884.53, -0.14776841, 0.05627427, 169797.45, 214454.77, 0.00015452567, 10.002838, 9.997136 
9.952006e+2, 3.0544043e+2, 165215.88, -230008.63, -44289.633, -0.13580357, 0.060911007, 170118.25, 170118.25, 0.00041018857, 10.002453, 9.99723 
9.9522e+2, 3.154377e+2, 215304.9, -157161.8, -13964.597, -0.033653036, 0.049009703, 215827.73, 215827.73, 0.0007999017, 10.002554, 9.997684 
1.0048549e+3, 1.2542924e+2, -2400657.0, -1843818.5, 119551.46, -0.09556368, -0.12443625, -1819236.4, -108443.22, 0.00014134821, 9.9944, 10.001806 
1.00487776e+3, 1.354331e+2, -1898728.5, -1531791.8, 35369.168, 0.21147718, 0.045662623, -1528413.6, 84343.234, 0.000046426092, 9.997114, 10.001965 
1.0048969e+3, 1.4543489e+2, -1709356.6, -1516836.3, -11168.734, 0.2529296, 0.09487662, -1516190.5, -1451.6425, 0.00000474816, 9.998278, 10.000829 
1.00491196e+3, 1.5543438e+2, -1623956.8, -1421329.8, 8017.002, -0.073607646, -0.055085238, -1421013.0, -4271.273, 0.000000004412824, 9.998175, 10.000866 
1.0049304e+3, 1.6543509e+2, -1476577.0, -1286207.4, 19268.861, -0.0937191, -0.07425566, -1284276.6, 34456.996, 0.0, 9.99845, 10.000992 
1.0049516e+3, 1.7543666e+2, -1292321.1, -1146829.6, -20961.133, 0.14756164, -0.027824808, -1143870.0, 76847.75, 0.0, 9.999051, 10.000981 
1.0049714e+3, 1.8543725e+2, -1224499.9, -1153201.5, 33511.313, 0.17130473, -0.022672782, -1139923.5, -17212.477, 0.0, 9.999219, 10.000184 
1.0049903e+3, 1.9543688e+2, -1162011.9, -1073323.4, 36351.64, 0.013519767, -0.09174202, -1060327.8, -35614.445, 0.0, 9.9989805, 10.0001745 
1.0050102e+3, 2.054367e+2, -1032590.8, -1014871.6, 13763.358, 0.006242538, -0.09704148, -1007362.9, -80648.74, 0.0, 9.9994335, 9.999684 
1.0050313e+3, 2.1543653e+2, -787637.06, -849516.3, -16886.28, 0.12437056, -0.09421444, -783328.9, 45386.54, 0.0, 10.000457, 9.999655 
1.00505136e+3, 2.2543594e+2, -679536.4, -846722.94, 10973.087, 0.11945736, -0.06825732, -678819.25, 51902.918, 0.0, 10.00096, 9.99876 
1.0050705e+3, 2.3543483e+2, -573129.06, -744838.1, 33489.13, 0.012520861, -0.06798792, -566828.7, 65906.45, 0.0, 10.001016, 9.998759 
1.00508966e+3, 2.4543391e+2, -483871.84, -687129.06, -6107.5396, -0.019940434, -0.0152886035, -483688.47, 51057.984, 0.0, 10.001104, 9.998441 
1.0051089e+3, 2.5543305e+2, -369986.94, -580960.44, -26337.324, 0.016156828, 0.043763015, -366748.75, 70008.695, 0.0, 10.001219, 9.998439 
1.0051287e+3, 2.6543096e+2, -268243.78, -549328.4, 40546.89, 0.022147464, 0.023633638, -262511.72, 76266.01, 0.000000017098808, 10.001551, 9.997822 
1.00514896e+3, 2.7542758e+2, -99813.9, -422331.5, 55519.395, 0.00082578504, -0.10685152, -90524.16, 150283.73, 0.000003428396, 10.002047, 9.997784 
1.0051678e+3, 2.8542525e+2, 17768.846, -383566.13, -17987.822, -0.028398365, -0.08343583, 18573.447, 161404.88, 0.00003625069, 10.002462, 9.997184 
1.0051857e+3, 2.9542372e+2, 161979.27, -263935.2, -37549.344, -0.05610035, 0.030244729, 165264.34, 210114.58, 0.00015737506, 10.002777, 9.997183 
1.0052046e+3, 3.054211e+2, 339738.78, -147106.77, 423.4004, -0.027769651, 0.054429933, 339739.13, 339739.13, 0.0004196481, 10.003653, 9.997223 
1.0052246e+3, 3.1541824e+2, 555605.4, -4067.5254, 24235.281, 0.050691172, 0.029731048, 556652.9, 556652.9, 0.00081794313, 10.004931, 9.997591 
1.01485014e+3, 1.254141e+2, -2483475.5, -2012554.4, 207096.13, -0.039018393, 0.10378888, -1934438.1, -223498.5, 0.0001798155, 9.994376, 10.000664 
1.01487346e+3, 1.3541408e+2, -1963266.9, -1678042.4, 140786.6, 0.06299921, -0.0046233875, -1620257.3, -7312.166, 0.000062927356, 9.997156, 10.000943 
1.014895e+3, 1.4541551e+2, -1661237.0, -1428679.9, -23194.666, 0.21323767, 0.024480196, -1426389.0, 88542.06, 0.000007860604, 9.998323, 10.001415 
1.0149127e+3, 1.5541777e+2, -1586490.5, -1349253.4, 10220.215, 0.16650455, 0.09473268, -1348813.9, 68090.414, 0.000000028517778, 9.998198, 10.00135 
1.0149308e+3, 1.6541758e+2, -1539805.0, -1423618.9, 34337.563, 0.092583306, 0.014258016, -1414229.5, -95325.305, 0.0, 9.998473, 10.000038 
1.01494946e+3, 1.7541519e+2, -1346697.4, -1272027.6, 6244.111, 0.01455312, -0.24357812, -1271509.1, -50580.992, 0.0, 9.999098, 10.000101 
1.0149695e+3, 1.8541585e+2, -1203583.4, -1111171.3, 17138.297, 0.03725547, -0.20481864, -1108095.3, 14826.089, 0.0, 9.999225, 10.00047 
1.01499066e+3, 1.954189e+2, -1150996.8, -1041679.3, 33622.496, 0.14541236, 0.041478176, -1032166.0, -7275.52, 0.0, 9.998939, 10.000414 
1.01501115e+3, 2.0541938e+2, -1090278.0, -1117968.3, 45962.625, 0.14501455, 0.12375241, -1056120.5, -129233.086, 0.0, 9.999365, 9.999009 
1.0150311e+3, 2.154175e+2, -838652.94, -941257.06, 24958.53, 0.051472284, 0.025377184, -832903.9, -3994.4695, 0.0, 10.000398, 9.999051 
1.0150509e+3, 2.2541642e+2, -631673.4, -727693.9, 5470.17, -0.018209554, -0.015148131, -631362.75, 99556.67, 0.0, 10.000876, 9.999617 
1.0150708e+3, 2.3541579e+2, -529879.56, -633853.6, 41774.33, -0.06627461, -0.053048156, -515175.16, 117745.84, 0.0, 10.000922, 9.999566 
1.0150904e+3, 2.454145e+2, -532222.75, -763468.4, -8462.472, -0.06163913, -0.052357346, -531913.5, 3020.2583, 0.0, 10.001007, 9.997961 
1.01510994e+3, 2.554125e+2, -409233.25, -648303.7, -14764.699, -0.013771682, -0.06160059, -408324.84, 28632.646, 0.0, 10.001161, 9.998003 
1.0151301e+3, 2.6541117e+2, -226891.23, -453567.0, 55091.816, -0.0033604004, -0.016531376, -214210.92, 124761.02, 0.000000011022683, 10.001503, 9.998506 
1.01515085e+3, 2.7541026e+2, -60432.94, -327995.72, 83852.39, -0.02694335, 0.03398268, -36326.133, 204653.58, 0.0000031084232, 10.001988, 9.998462 
1.0151705e+3, 2.854081e+2, -20303.709, -449968.22, -11885.678, -0.017741524, 0.062837094, -19975.172, 123027.195, 0.000035475467, 10.002413, 9.996749 
1.0151894e+3, 2.9540473e+2, 118183.555, -332757.78, -15213.668, 0.02450647, 0.03503274, 118696.24, 163735.11, 0.0001584562, 10.002691, 9.996745 
1.0152086e+3, 3.054017e+2, 345767.34, -115137.02, 48959.016, -0.017671483, 0.026834438, 350910.56, 350910.56, 0.00042513342, 10.003568, 9.997484 
1.0152278e+3, 3.153985e+2, 536665.75, 8086.1875, 88628.945, -0.14181273, -0.05797035, 551130.7, 551130.7, 0.00082895474, 10.004721, 9.997773 
1.02484755e+3, 1.2539442e+2, -2000112.4, -1776085.8, 43953.93, 0.11196812, 0.14741625, -1767770.6, -56636.496, 0.00022439056, 9.997674, 10.000693 
1.02486975e+3, 1.3539425e+2, -2025622.5, -1706309.3, 46490.414, 0.0034878086, 0.022295145, -1699678.1, -86537.125, 0.0000828242, 9.996716, 10.000966 
1.0248921e+3, 1.4539555e+2, -1897035.9, -1516405.0, -102801.055, 0.18096295, 0.025902439, -1490415.1, 24713.021, 0.000012107546, 9.996589, 10.001649 
1.02491125e+3, 1.55398e+2, -1699152.0, -1376190.0, -104542.48, 0.24959587, 0.08866707, -1345303.5, 71795.82, 0.00000009714164, 9.997306, 10.001591 
1.0249298e+3, 1.6539825e+2, -1609237.6, -1462045.1, -23086.68, 0.17377236, 0.042722203, -1458509.0, -139413.52, 0.0, 9.99802, 9.99999 
1.0249482e+3, 1.7539656e+2, -1398424.4, -1301817.4, 1321.3129, 0.0021174503, -0.13936436, -1301799.4, -80685.77, 0.0, 9.998762, 10.00006 
1.0249684e+3, 1.85397e+2, -1181165.0, -1104709.3, 20567.816, 0.005163425, -0.11662789, -1099527.4, 23581.531, 0.0, 9.999396, 10.000434 
1.0249901e+3, 1.9539908e+2, -1004375.9, -970462.4, 2803.865, 0.14431313, 0.03531902, -970232.1, 54854.58, 0.0, 9.999953, 10.000409 
1.025011e+3, 2.0539936e+2, -976323.1, -1061686.5, 55365.36, 0.15574442, 0.097902074, -949097.4, -22012.135, 0.0, 10.000136, 9.999029 
1.02503136e+3, 2.1539801e+2, -903118.56, -971200.06, 73128.375, 0.06460618, 0.049232677, -856496.25, -27393.768, 0.0, 9.999948, 9.999067 
1.0250516e+3, 2.2539715e+2, -716798.6, -745588.9, 58692.883, -0.0035721452, 0.021128343, -670761.4, 60348.414, 0.0, 10.000192, 9.999823 
1.02507174e+3, 2.353966e+2, -541400.9, -615219.4, 33096.402, -0.052936893, -0.029112011, -528735.25, 104374.84, 0.0, 10.00075, 9.999775 
1.0250918e+3, 2.4539533e+2, -477475.8, -705724.44, -229.88548, -0.04025147, -0.048482828, -477475.6, 57645.54, 0.0, 10.001254, 9.998236 
1.0251117e+3, 2.5539333e+2, -324113.34, -581085.94, 32510.08, 0.023833325, -0.08461251, -320064.22, 117078.86, 0.0, 10.001632, 9.998239 
1.0251321e+3, 2.6539218e+2, -203620.05, -473653.7, 103191.16, 0.03247187, -0.01829703, -168701.72, 170455.34, 0.00000001218603, 10.001781, 9.998239 
1.0251528e+3, 2.7539167e+2, -118534.66, -381810.0, 51105.074, -0.0018256587, 0.09117783, -108962.53, 132203.05, 0.0000027111198, 10.001696, 9.998234 
1.0251731e+3, 2.853896e+2, 20908.52, -418241.0, -16651.145, -0.011092137, 0.13534984, 21538.973, 164727.27, 0.00003356273, 10.00266, 9.996842 
1.02519274e+3, 2.9538602e+2, 383412.06, -194366.61, -2658.8237, 0.0047644884, 0.08180093, 383424.28, 428649.28, 0.00015668139, 10.004477, 9.996834 
1.025212e+3, 3.053832e+2, 411305.44, -71956.945, 28648.596, -0.035885923, 0.085004084, 412997.84, 412997.84, 0.0004267853, 10.003979, 9.997582 
1.0252312e+3, 3.153798e+2, 68036.016, -203576.45, 29865.396, -0.10343929, -0.03364169, 71281.125, 71281.125, 0.00083586155, 10.001431, 9.997904 
1.0348468e+3, 1.2537004e+2, -1900280.8, -1595717.4, -26734.799, 0.23548734, -0.0009999839, -1593388.4, 117990.49, 0.00027553758, 9.997795, 10.00187 
1.0348664e+3, 1.3537364e+2, -1951363.8, -1546598.0, 11090.984, -0.017409144, 0.13710412, -1546294.4, 67049.73, 0.000106410545, 9.996701, 10.002067 
1.03488795e+3, 1.4537512e+2, -1900855.1, -1525439.5, -84625.57, 0.0901727, 0.112367176, -1507245.1, 8083.516, 0.000017580353, 9.99659, 10.001589 
1.0349073e+3, 1.5537494e+2, -1693858.9, -1371641.4, -72112.766, 0.11324236, -0.08433507, -1356238.8, 61089.418, 0.00000023822265, 9.997329, 10.001615 
1.03492714e+3, 1.6537702e+2, -1544915.9, -1332282.4, -4130.099, 0.089539625, 0.0025921124, -1332202.1, -12893.897, 0.0, 9.998037, 10.000873 
1.0349476e+3, 1.7538089e+2, -1343345.8, -1187475.8, 33818.92, 0.05847725, 0.29177597, -1180454.5, 40818.492, 0.0, 9.998759, 10.000848 
1.03496805e+3, 1.8538092e+2, -1208241.6, -1157492.0, 33864.734, 0.016834805, 0.25507456, -1140550.1, -17278.39, 0.0, 9.999383, 10.000075 
1.0349883e+3, 1.9537747e+2, -1029329.75, -1017704.9, 26123.143, -0.041406363, -0.112336315, -996755.4, 28546.396, 0.0, 9.999932, 10.000094 
1.03500955e+3, 2.0537667e+2, -934508.94, -962614.94, 39673.59, -0.008237388, -0.1799041, -906473.0, 20834.902, 0.0, 10.000082, 9.999735 
1.0350318e+3, 2.15378e+2, -864787.56, -878292.5, 72790.91, 0.10781546, -0.031167414, -798436.56, 30858.363, 0.0, 9.999886, 9.999737 
1.035053e+3, 2.2537817e+2, -764463.94, -821078.56, 72845.06, 0.10409144, 0.03514226, -714619.44, 16673.906, 0.0, 10.000093, 9.99935 
1.035073e+3, 2.353772e+2, -579357.44, -680529.25, 60145.844, -0.009384815, -0.00734639, -551352.94, 81949.766, 0.0, 10.000688, 9.999356 
1.0350934e+3, 2.4537641e+2, -422281.4, -571218.1, 8585.736, -0.01597467, -0.012689674, -421788.1, 113521.13, 0.0, 10.00117, 9.9992 
1.03511386e+3, 2.5537553e+2, -267530.53, -454010.75, 52933.055, 0.07496317, -0.032330986, -253553.0, 183762.0, 0.0, 10.001585, 9.999137 
1.0351344e+3, 2.6537403e+2, -294217.84, -645509.25, 92954.555, 0.07753593, 0.013794571, -271137.72, 68195.625, 0.00000000560088, 10.001718, 9.997085 
1.03515476e+3, 2.7537182e+2, -209881.9, -551342.4, 59317.355, 0.0061976593, 0.07053059, -199870.98, 41493.316, 0.0000022721786, 10.001616, 9.997105 
1.0351752e+3, 2.853697e+2, 51022.77, -342095.56, 48928.38, -0.07564496, 0.13700804, 57020.984, 200409.77, 0.000031159278, 10.002597, 9.9973955 
1.0351956e+3, 2.9536763e+2, 410469.88, -120492.44, 73289.836, -0.16465037, 0.17401588, 420400.5, 465808.56, 0.00015236643, 10.004397, 9.997382 
1.0352151e+3, 3.0536553e+2, 397057.34, -90215.63, -70219.1, -0.13613136, 0.23044658, 406974.5, 406974.5, 0.00042417806, 10.003938, 9.997471 
1.035234e+3, 3.1536195e+2, 50784.043, -208115.14, -45904.83, 0.013430823, 0.104803644, 58682.367, 58682.367, 0.0008369776, 10.001316, 9.997919 
1.0448446e+3, 1.2534834e+2, -2043698.0, -1618003.9, 92949.04, 0.29601172, -0.06871515, -1598593.8, 112997.445, 0.0003338259, 9.996596, 10.002303 
1.04486294e+3, 1.3535272e+2, -1939606.4, -1500449.8, 75963.45, -0.017029313, 0.10666191, -1487681.1, 125865.195, 0.00013404706, 9.996588, 10.002446 
1.0448849e+3, 1.453542e+2, -1805492.6, -1511873.1, 27669.648, 0.09807507, 0.07719448, -1509288.4, 6243.1323, 0.000024406929, 9.997388, 10.001297 
1.04490526e+3, 1.5535371e+2, -1470050.4, -1292571.0, 328.4139, 0.100236066, -0.12034864, -1292570.5, 124966.9, 0.0000004785213, 9.998995, 10.001352 
1.04492575e+3, 1.6535605e+2, -1341578.5, -1191508.3, 5125.8574, 0.09402684, -0.0144202495, -1191333.4, 128182.23, 0.0, 9.9992485, 10.001253 
1.0449467e+3, 1.7536063e+2, -1372728.0, -1157330.0, -2457.0352, 0.1041116, 0.30761704, -1157301.9, 64169.59, 0.0, 9.998372, 10.001234 
1.04496725e+3, 1.8536103e+2, -1385796.8, -1254261.3, 26789.18, 0.07128977, 0.29045203, -1249014.5, -125546.66, 0.0, 9.998213, 9.999976 
1.0449879e+3, 1.9535762e+2, -1217833.8, -1118791.4, 26764.533, -0.0007098595, -0.05948484, -1112021.5, -86521.12, 0.0, 9.998676, 10.000011 
1.0450091e+3, 2.0535694e+2, -1024970.5, -938158.44, 44455.11, -0.0036990594, -0.14291959, -919432.8, 8071.979, 0.0, 9.999175, 10.000337 
1.045031e+3, 2.1535835e+2, -851533.06, -805125.9, 55743.92, 0.054480825, -0.04500636, -767949.06, 61537.887, 0.0, 9.999702, 10.000321 
1.0450526e+3, 2.2535855e+2, -773356.2, -850292.8, 83408.06, 0.065255955, 0.0070492867, -719972.94, 11511.306, 0.0, 10.000134, 9.999132 
1.04507394e+3, 2.3535757e+2, -628725.9, -729788.0, 75739.25, 0.033970814, -0.014990802, -588208.44, 45287.125, 0.0, 10.000451, 9.999135 
1.0450946e+3, 2.4535678e+2, -464947.06, -589548.5, 8660.336, 0.011640514, -0.008293219, -464348.0, 71154.55, 0.0, 10.000857, 9.999229 
1.0451146e+3, 2.55356e+2, -303716.88, -464966.78, -27964.246, 0.002683703, -0.021407224, -299004.97, 138502.13, 0.0, 10.001315, 9.999188 
1.0451355e+3, 2.653545e+2, -252347.97, -631127.7, 30115.201, 0.011212584, 0.024999855, -249968.58, 89556.625, 0.0000000009945924, 10.002037, 9.997029 
1.0451573e+3, 2.7535215e+2, -27183.217, -468789.2, 61746.035, 0.04021694, 0.07248174, -18712.28, 222845.2, 0.0000020282196, 10.00289, 9.997059 
1.0451786e+3, 2.853499e+2, 160820.56, -252213.69, 113059.71, -0.020833217, 0.11368251, 189743.08, 333325.38, 0.00002862002, 10.003176, 9.997741 
1.0451993e+3, 2.953478e+2, 228336.27, -166446.22, 103589.305, -0.15485747, 0.10893434, 253866.64, 299467.75, 0.00014583142, 10.002958, 9.99776 
1.0452188e+3, 3.053463e+2, 296292.7, -149693.05, -94896.03, -0.12849595, 0.20944284, 315644.78, 315644.78, 0.00041509143, 10.003285, 9.997379 
1.0452372e+3, 3.1534335e+2, 437972.53, -17404.342, -94355.74, 0.06972193, 0.15822874, 456749.16, 456749.16, 0.0008261743, 10.003941, 9.997977 
1.05483994e+3, 1.2532961e+2, -2059588.3, -1648902.4, 52596.28, 0.13987264, -0.04938389, -1642273.4, 69494.83, 0.00039971265, 9.996601, 10.002078 
1.0548592e+3, 1.3533162e+2, -1962697.8, -1548268.3, 85409.18, -0.058729723, -0.079922475, -1531356.5, 82389.87, 0.00016604259, 9.996594, 10.002112 
1.0548829e+3, 1.4533295e+2, -1840343.4, -1595979.1, 81086.86, 0.14257526, -0.079396516, -1571520.3, -55785.17, 0.000032768716, 9.997436, 10.000698 
1.05490506e+3, 1.5533453e+2, -1509192.1, -1382718.8, 62794.13, 0.16118178, -0.0075028855, -1356837.6, 60887.188, 0.0000008393984, 9.999026, 10.000722 
1.05492555e+3, 1.653355e+2, -1345977.8, -1201743.5, -34890.336, 0.12611903, -0.00089604466, -1193746.9, 125968.87, 0.0, 9.999257, 10.001176 
1.0549449e+3, 1.7533578e+2, -1372753.5, -1165107.0, -29231.377, 0.08063466, -0.1054922, -1161070.5, 60639.25, 0.0, 9.998404, 10.001165 
1.0549661e+3, 1.8533725e+2, -1376158.8, -1229903.3, 36686.44, 0.11316109, -0.019261329, -1221216.8, -97519.12, 0.0, 9.9981985, 10.00015 
1.0549888e+3, 1.9533965e+2, -1210986.6, -1096447.8, 50036.977, 0.20619842, 0.19356684, -1077668.0, -51986.387, 0.0, 9.998642, 10.000181 
1.0550097e+3, 2.0534027e+2, -1000317.06, -875186.25, 56602.04, 0.113220975, 0.21041675, -853382.1, 74292.66, 0.0, 9.999121, 10.000796 
1.0550288e+3, 2.1533917e+2, -827959.6, -744617.9, 80112.27, -0.14182694, 0.007864753, -695986.8, 133690.83, 0.0, 9.999648, 10.000765 
1.0550506e+3, 2.2533838e+2, -784686.94, -855328.06, 89104.72, -0.16374819, -0.059587568, -724157.6, 7524.091, 0.0, 10.000053, 9.999137 
1.0550743e+3, 2.3533769e+2, -637537.9, -734651.8, 93603.96, 0.020139756, -0.05421801, -580645.9, 53042.64, 0.0, 10.000389, 9.999132 
1.0550952e+3, 2.4533659e+2, -535271.6, -720724.4, 18669.652, -0.015135969, -0.035583712, -533410.8, 2289.5024, 0.0, 10.000792, 9.998361 
1.0551135e+3, 2.5533494e+2, -367149.4, -588541.9, -4252.1133, -0.2436428, -0.04954301, -367067.78, 70650.086, 0.0, 10.001274, 9.998362 
1.05513535e+3, 2.653337e+2, -196514.14, -495764.84, 58938.758, -0.21422324, 0.013452104, -185324.31, 154408.02, 0.000000000012280949, 10.00196, 9.997992 
1.0551603e+3, 2.7533263e+2, 27460.45, -336110.94, 102205.04, 0.042561356, 0.09468368, 54221.895, 295967.47, 0.0000016155456, 10.002809, 9.99801 
1.055183e+3, 2.853303e+2, 163290.58, -233603.1, 98199.42, 0.09001782, 0.06887544, 186258.0, 330027.22, 0.000025303238, 10.003118, 9.997897 
1.0552036e+3, 2.9532665e+2, 223819.67, -157957.58, 105489.55, -0.039293718, -0.10007959, 251028.53, 296832.2, 0.00013715218, 10.002879, 9.99786 
1.0552225e+3, 3.0532557e+2, 282831.5, -159759.53, -71921.32, -0.085941136, 0.036127605, 294225.44, 294225.44, 0.00039978395, 10.00321, 9.997344 
1.05524026e+3, 3.1532413e+2, 432246.75, -9743.251, -53486.742, -0.040855303, 0.142323, 438627.25, 438627.25, 0.00080328074, 10.003857, 9.998075 
1.06483616e+3, 1.2530996e+2, -2157879.8, -1761536.5, 19227.252, 0.13414676, -0.04625157, -1760605.9, -48647.64, 0.00047318285, 9.996196, 10.001507 
1.06485695e+3, 1.3531102e+2, -1751608.9, -1512713.0, 35221.47, -0.03128377, -0.10702977, -1507628.4, 106319.91, 0.00020250746, 9.998327, 10.001516 
1.0648812e+3, 1.4531237e+2, -1689285.9, -1527160.3, 21594.787, 0.18207417, -0.07353083, -1524333.1, -8394.782, 0.000042863663, 9.998491, 10.000661 
1.064903e+3, 1.5531494e+2, -1809552.8, -1528098.3, 32703.934, 0.15543565, 0.10235228, -1524348.1, -106429.24, 0.0000013547858, 9.996974, 10.0007105 
1.0649235e+3, 1.6531558e+2, -1640629.0, -1320069.9, -4082.5107, 0.103644915, 0.06492561, -1320017.9, -105.86138, 0.0, 9.997134, 10.0013895 
1.0649434e+3, 1.7531443e+2, -1304584.0, -1107075.1, 9301.865, 0.07684568, -0.20281167, -1106638.0, 115279.18, 0.0, 9.998774, 10.001386 
1.0649648e+3, 1.8531586e+2, -1215871.4, -1160537.6, 74187.18, 0.124957435, -0.12699193, -1109026.3, 14878.88, 0.0, 9.999325, 10.000087 
1.06498756e+3, 1.9531941e+2, -1179960.4, -1088795.3, 58817.07, 0.2194958, 0.20654543, -1059965.3, -34085.85, 0.0, 9.998883, 10.000118 
1.0650088e+3, 2.0532045e+2, -1019066.1, -905595.0, 66671.92, 0.13227937, 0.2777622, -874785.9, 53084.438, 0.0, 9.999084, 10.000607 
1.0650289e+3, 2.153192e+2, -815942.2, -760629.25, 26923.926, -0.1067717, 0.08115366, -749688.1, 80188.79, 0.0, 9.999825, 10.000571 
1.0650509e+3, 2.2531821e+2, -722991.7, -815574.1, 19653.166, -0.14185046, -0.0020149318, -718992.5, 12890.666, 0.0, 10.000431, 9.999231 
1.0650748e+3, 2.3531726e+2, -558095.44, -684695.2, 19420.057, 0.0012759144, -0.03139246, -555183.44, 78707.484, 0.0, 10.000893, 9.999231 
1.0650963e+3, 2.4531613e+2, -464884.66, -695031.6, -11041.534, -0.015012438, -0.014070809, -464356.13, 71546.56, 0.0, 10.001312, 9.998285 
1.0651156e+3, 2.553147e+2, -313040.34, -570216.56, 8188.168, -0.1744455, 0.0011462143, -312779.9, 125139.77, 0.0, 10.001677, 9.998295 
1.0651377e+3, 2.653134e+2, -165929.66, -436938.8, 94486.68, -0.1781587, 0.040124327, -136239.73, 203693.75, 0.0, 10.00197, 9.998395 
1.0651619e+3, 2.753121e+2, -42043.277, -321303.1, 82597.71, -0.038114183, 0.055283558, -19442.201, 222503.27, 0.00000091217555, 10.002127, 9.998437 
1.0651849e+3, 2.8531e+2, 43560.426, -275500.97, 49560.59, 0.023832368, 0.024506306, 51081.504, 195047.55, 0.000020741376, 10.002238, 9.99803 
1.0652067e+3, 2.9530698e+2, 148716.97, -176905.3, 43823.29, 0.0243727, -0.093981795, 154511.72, 200507.69, 0.00012515286, 10.002295, 9.998006 
1.0652262e+3, 3.0530614e+2, 260243.13, -187814.53, -77170.12, -0.025155507, 0.0686093, 273161.84, 273161.84, 0.00037729306, 10.003113, 9.997204 
1.0652439e+3, 3.1530437e+2, 530955.94, 44450.97, -93646.88, -0.090174675, 0.15340447, 548359.4, 548359.4, 0.00076824904, 10.004501, 9.998134 
1.0748329e+3, 1.2528932e+2, -2213482.5, -1879417.3, 47697.035, 0.14744125, -0.06063652, -1872740.6, -160578.69, 0.00055371417, 9.996224, 10.000675 
1.07485585e+3, 1.3529103e+2, -1812978.8, -1643357.8, 113258.02, 0.010869181, 0.037655678, -1586675.5, 27475.787, 0.00024334127, 9.998349, 10.000605 
1.0748796e+3, 1.4529257e+2, -1640839.1, -1438798.5, -47131.305, 0.15500133, 0.10496872, -1428344.8, 87795.67, 0.00005483326, 9.998536, 10.001249 
1.0748987e+3, 1.5529495e+2, -1764198.0, -1440846.9, -16680.084, 0.017822709, 0.20013244, -1439988.8, -21868.945, 0.000002073113, 9.996997, 10.001301 
1.0749193e+3, 1.6529638e+2, -1607326.9, -1250055.9, 51387.04, -0.030093577, 0.18610674, -1242811.6, 77291.77, 0.0000000000166348, 9.997131, 10.00187 
1.07494205e+3, 1.7529671e+2, -1267786.0, -1038841.4, 74983.9, 0.043318614, 0.01912293, -1016468.94, 205623.98, 0.0, 9.998803, 10.001842 
1.07496366e+3, 1.8529697e+2, -1237986.5, -1202615.6, 49509.703, 0.051228512, -0.030720081, -1167727.5, -43638.23, 0.0, 9.999313, 9.999802 
1.0749842e+3, 1.95297e+2, -1202845.8, -1132158.0, 47904.688, -0.014176809, -0.021703202, -1107970.0, -81876.87, 0.0, 9.998867, 9.999827 
1.0750067e+3, 2.0529754e+2, -1088869.8, -1040049.06, 86361.195, 0.0034485336, 0.061619237, -974714.7, -46623.832, 0.0, 9.999036, 9.999709 
1.0750309e+3, 2.1529844e+2, -886163.75, -889398.8, 60307.0, 0.09927215, 0.16818541, -827452.6, 2631.9868, 0.0, 9.999749, 9.999724 
1.0750536e+3, 2.2529805e+2, -722813.0, -794385.25, 30928.662, 0.07177038, 0.17569669, -711299.8, 20788.324, 0.0, 10.00034, 9.99942 
1.07507505e+3, 2.3529634e+2, -554092.5, -660005.2, 43690.57, -0.068152316, 0.049900234, -538395.8, 95705.87, 0.0, 10.000821, 9.999436 
1.0750974e+3, 2.4529546e+2, -433136.75, -611388.56, -1208.8507, -0.03894043, 0.052016735, -433128.56, 102980.74, 0.0, 10.001236, 9.998898 
1.0751206e+3, 2.552952e+2, -276301.88, -483941.34, 29382.863, 0.14246456, 0.11767812, -272224.0, 165889.53, 0.0, 10.001629, 9.998912 
1.0751421e+3, 2.6529354e+2, -184366.6, -457717.06, 93945.83, 0.06303882, 0.099482246, -155192.69, 184936.45, 0.000000000031670343, 10.001897, 9.998288 
1.075162e+3, 2.7529058e+2, -60879.89, -345515.3, 96381.195, -0.2505669, -0.04085254, -31314.895, 210841.4, 0.00000057346807, 10.002058, 9.998307 
1.07518435e+3, 2.8528905e+2, 45434.42, -258346.64, 45272.13, -0.26662424, -0.010181035, 52037.734, 196209.45, 0.000016659129, 10.002186, 9.998171 
1.0752087e+3, 2.9528868e+2, 157609.44, -155987.16, 58062.816, -0.015762571, 0.117785536, 168014.6, 214192.83, 0.00011189467, 10.00228, 9.998159 
1.0752297e+3, 3.0528796e+2, 239778.73, -222645.23, -26910.885, -0.0020349668, 0.29465437, 241339.56, 241339.56, 0.00035114217, 10.003086, 9.996976 
1.0752475e+3, 3.1528407e+2, 497539.5, 7307.03, -23402.814, -0.19936933, 0.19156243, 498654.2, 498654.2, 0.0007282027, 10.004363, 9.997948 
1.0848297e+3, 1.2526833e+2, -2069106.4, -1774827.5, -23578.094, 0.18120503, 0.0010404806, -1772950.4, -60577.55, 0.00064071716, 9.997065, 10.000996 
1.0848531e+3, 1.3527034e+2, -2081827.9, -1744410.0, 145409.47, 0.019240148, 0.10736706, -1690393.5, -76035.99, 0.00028839763, 9.996381, 10.000868 
1.08487695e+3, 1.4527178e+2, -1883418.9, -1519318.3, 1916.835, 0.12797762, 0.13448142, -1519308.1, -2962.5654, 0.00006873226, 9.99673, 10.001562 
1.08489625e+3, 1.5527348e+2, -1593644.8, -1326701.9, -9274.3545, 0.031720884, 0.13360268, -1326380.1, 91948.58, 0.0000030594845, 9.998039, 10.001579 
1.08491726e+3, 1.6527511e+2, -1461360.9, -1228129.5, 46835.766, -0.014600604, 0.14946227, -1219075.8, 101235.41, 0.000000000186287, 9.998341, 10.001436 
1.0849399e+3, 1.7527649e+2, -1448451.5, -1173950.6, -13022.069, 0.014576067, 0.13131867, -1173334.3, 48960.52, 0.0, 9.99777, 10.001412 
1.0849617e+3, 1.8527657e+2, -1381112.1, -1229352.0, -37515.39, -0.007780225, 0.06577842, -1220584.6, -96292.83, 0.0, 9.998146, 10.00018 
1.0849827e+3, 1.9527538e+2, -1107046.8, -1047264.5, -2967.9824, -0.08363493, -0.08348822, -1047117.5, -20815.75, 0.0, 9.999361, 10.000172 
1.0850057e+3, 2.0527543e+2, -1011828.25, -1058332.1, 80496.65, -0.029960604, -0.041326884, -951292.56, -22989.229, 0.0, 9.999806, 9.999207 
1.0850307e+3, 2.1527638e+2, -949313.94, -975561.94, 67785.87, 0.13568786, 0.120290466, -893393.3, -63093.54, 0.0, 9.999556, 9.999224 
1.08505405e+3, 2.2527625e+2, -775492.25, -790502.25, 81093.586, 0.12180623, 0.16585141, -701557.1, 30744.898, 0.0, 9.999858, 9.99968 
1.08507596e+3, 2.3527505e+2, -559629.94, -635636.8, 81667.11, -0.051257443, 0.06641525, -507556.88, 126753.516, 0.0, 10.000667, 9.9996805 
1.0850986e+3, 2.4527435e+2, -439543.7, -608081.0, 15405.259, -0.029517613, 0.07083966, -438147.13, 98169.234, 0.0, 10.001166, 9.998954 
1.0851223e+3, 2.55274e+2, -312949.94, -493878.9, -7779.7246, 0.16536707, 0.12623383, -312616.06, 125705.484, 0.0, 10.001357, 9.998973 
1.0851441e+3, 2.6527253e+2, -189572.08, -423046.72, 66499.414, 0.091212794, 0.10602108, -171959.95, 168374.8, 0.000000020287489, 10.001695, 9.998622 
1.0851643e+3, 2.7526996e+2, -32137.088, -296299.1, 86307.805, -0.22083391, -0.028629676, -6438.4097, 235918.19, 0.0000009638229, 10.002101, 9.998623 
1.0851869e+3, 2.8526843e+2, 123089.734, -245456.28, 62611.098, -0.25027618, -0.0040805866, 133436.08, 277807.8, 0.000015514439, 10.002819, 9.997957 
1.0852116e+3, 2.9526773e+2, 354681.7, -78415.305, 31076.107, -0.016208962, 0.112030655, 356900.13, 403282.1, 0.00010321646, 10.003722, 9.9979925 
1.08523354e+3, 3.052666e+2, 405372.72, -134770.08, -37151.41, 0.016183183, 0.25542244, 407916.03, 407916.03, 0.00033160526, 10.0042, 9.99704 
1.0852525e+3, 3.152623e+2, 480156.06, 13828.8955, -39704.51, -0.1289003, 0.10228836, 483512.47, 483512.47, 0.0007003819, 10.004202, 9.998056 
1.0948267e+3, 1.2524705e+2, -1950242.3, -1538589.1, -95586.33, 0.13573895, 0.13699876, -1517476.6, 195114.1, 0.000734217, 9.997112, 10.002593 
1.0948487e+3, 1.3524918e+2, -1978116.0, -1527374.8, 125429.94, -0.074603155, 0.09805791, -1494821.8, 119742.93, 0.00033773432, 9.996371, 10.002363 
1.0948728e+3, 1.4525014e+2, -1890234.9, -1531325.3, 47819.492, 0.031246517, 0.009689434, -1525063.3, -8511.601, 0.0000845864, 9.996723, 10.001482 
1.0948956e+3, 1.5525056e+2, -1600623.8, -1344344.9, 46988.133, 0.14998116, -0.10978677, -1336001.4, 82543.64, 0.0000043925156, 9.998055, 10.001449 
1.0949168e+3, 1.6525185e+2, -1550827.9, -1426565.1, 17841.822, 0.102393426, -0.050717454, -1424054.1, -103519.3, 0.0000000006358386, 9.998389, 10.000055 
1.094937e+3, 1.7525372e+2, -1533297.8, -1362846.8, -26380.568, -0.060449865, 0.11794668, -1358857.3, -136333.95, 0.0, 9.997815, 10.000099 
1.094959e+3, 1.852547e+2, -1311159.8, -1080762.4, 1774.1642, -0.10458645, 0.15424624, -1080748.6, 43763.906, 0.0, 9.9981365, 10.001202 
1.09498255e+3, 1.952547e+2, -1043252.0, -905971.3, 48654.395, -0.040108893, 0.021263272, -890476.4, 136027.8, 0.0, 9.999323, 10.001159 
1.0950057e+3, 2.0525418e+2, -1029126.6, -1085700.1, 62762.36, -0.021775499, -0.033298865, -988571.1, -60063.934, 0.0, 9.999765, 9.999042 
1.0950287e+3, 2.1525311e+2, -967930.6, -999746.56, 64283.016, -0.042805165, -0.058486678, -917616.5, -87094.984, 0.0, 9.99949, 9.999092 
1.0950525e+3, 2.2525291e+2, -770356.7, -761583.9, 104688.55, -0.039752673, -0.024486354, -661189.9, 71334.03, 0.0, 9.99978, 9.999915 
1.095077e+3, 2.3525332e+2, -555575.4, -611025.9, 118688.28, -0.01115995, 0.012080355, -461417.06, 173100.5, 0.0, 10.000591, 9.999887 
1.09509975e+3, 2.4525274e+2, -484711.47, -682610.56, 14633.254, -0.048762035, 0.043219786, -483635.3, 52888.797, 0.0, 10.001084, 9.998481 
1.0951206e+3, 2.552512e+2, -350917.97, -561348.94, 6707.3843, -0.14253725, 0.025387824, -350704.4, 87838.71, 0.0, 10.001305, 9.998535 
1.0951437e+3, 2.652504e+2, -151571.02, -324367.8, 77292.555, -0.13130027, 0.058590036, -122043.484, 218506.28, 0.00000010014453, 10.001613, 9.999339 
1.09516844e+3, 2.7525017e+2, 10177.767, -196606.47, 111001.96, -0.029762333, 0.08002613, 58480.625, 301027.94, 0.0000018004142, 10.002048, 9.999334 
1.09519236e+3, 2.8524798e+2, 73427.25, -332216.88, 87364.75, -0.004018372, 0.034412157, 91443.11, 236010.28, 0.000016749296, 10.002747, 9.997396 
1.0952152e+3, 2.9524407e+2, 300020.25, -169447.55, 72522.25, -0.0446695, -0.11503578, 310968.0, 357575.75, 0.000099959936, 10.003616, 9.997422 
1.0952373e+3, 3.052422e+2, 409522.25, -95991.516, -41196.047, -0.030713776, -0.03237896, 412857.44, 412857.44, 0.00032135186, 10.004079, 9.997361 
1.09525815e+3, 3.152391e+2, 492310.47, 49946.707, -25889.791, -0.006649423, -0.096268736, 493820.53, 493820.53, 0.0006871995, 10.00415, 9.998336 
1.1048237e+3, 1.2522545e+2, -2078365.5, -1565462.5, -44856.418, 0.19154458, 0.17901173, -1561569.1, 151235.38, 0.00083503575, 9.996079, 10.0029 
1.1048459e+3, 1.3522744e+2, -1881952.8, -1446509.6, 79171.13, -0.0074493513, 0.09027781, -1432561.8, 182216.89, 0.0003918232, 9.996865, 10.002682 
1.1048696e+3, 1.4522855e+2, -1840186.5, -1520491.8, -6975.7407, 0.023105348, 0.00536274, -1520339.6, -3576.2825, 0.000102570426, 9.997123, 10.001362 
1.1048933e+3, 1.55229e+2, -1770509.6, -1437957.6, -24244.941, 0.17293048, -0.09952774, -1436199.3, -17443.227, 0.0000061708192, 9.996942, 10.00134 
1.1049151e+3, 1.652299e+2, -1723759.4, -1552805.3, -11321.705, 0.13516164, -0.054151688, -1552058.8, -231308.89, 0.0000000015512864, 9.997391, 9.999668 
1.1049354e+3, 1.7523108e+2, -1456606.1, -1363870.4, 5520.8506, -0.03811581, 0.08186674, -1363542.8, -140797.05, 0.0, 9.998517, 9.999746 
1.1049579e+3, 1.8523201e+2, -1192605.3, -1045060.2, 45896.027, -0.07111783, 0.14015232, -1031948.7, 92787.51, 0.0, 9.999037, 10.001018 
1.1049822e+3, 1.9523253e+2, -1103943.9, -952514.1, -10418.713, 0.01289931, 0.07731954, -951800.6, 74922.99, 0.0, 9.9989805, 10.001003 
1.1050055e+3, 2.0523193e+2, -1080120.5, -1074794.8, -19107.111, 0.007577118, 0.007431877, -1058165.9, -129440.41, 0.0, 9.999266, 9.999358 
1.1050281e+3, 2.1523024e+2, -883906.06, -925234.8, 3223.165, -0.07103969, -0.10954209, -883656.2, -52914.793, 0.0, 9.999924, 9.999393 
1.10505216e+3, 2.2522983e+2, -718959.0, -777143.75, 58746.5, -0.07013054, -0.09347067, -682495.94, 50249.723, 0.0, 10.00031, 9.999547 
1.10507764e+3, 2.3523039e+2, -603322.56, -671981.5, 14221.895, 0.0031106595, -0.0037915418, -600493.25, 34248.098, 0.0, 10.000437, 9.999536 
1.1051007e+3, 2.4522984e+2, -519048.53, -679405.8, -75585.95, -0.03183054, 0.03793355, -489037.1, 47711.79, 0.0, 10.000763, 9.998658 
1.1051217e+3, 2.5522816e+2, -344189.03, -538241.44, -53267.707, -0.1586149, -0.008612021, -330528.6, 108239.59, 0.0, 10.0012665, 9.99871 
1.1051453e+3, 2.6522747e+2, -173360.69, -337600.53, 16595.424, -0.116592355, 0.024725424, -171700.6, 169073.48, 0.00000018749917, 10.001477, 9.999312 
1.1051713e+3, 2.752275e+2, -92467.2, -248961.36, -19553.648, 0.07810807, 0.08183709, -90061.01, 152708.53, 0.0000025324416, 10.001366, 9.999303 
1.1051953e+3, 2.8522536e+2, -98789.29, -365352.2, -7823.1963, 0.09506055, 0.020346837, -98559.88, 46228.105, 0.000018771152, 10.001361, 9.997829 
1.1052178e+3, 2.9522124e+2, 5185.398, -265456.1, 31747.135, -0.04033632, -0.18999813, 8859.562, 55687.305, 0.00010053436, 10.001401, 9.997825 
1.1052407e+3, 3.0521947e+2, 204130.19, -206325.69, -16733.477, -0.0155249, -0.113796845, 204811.25, 204811.25, 0.00031859917, 10.00269, 9.997284 
1.10526405e+3, 3.152168e+2, 595468.44, 98655.18, -59824.64, 0.13409612, -0.13259299, 602570.75, 602570.75, 0.0006833817, 10.004868, 9.998321 
1.1148207e+3, 1.2520355e+2, -2157945.3, -1722515.0, -32168.652, 0.24537191, 0.09322856, -1720151.4, -7137.5522, 0.000944546, 9.996064, 10.001821 
1.1148448e+3, 1.3520533e+2, -1954117.8, -1593942.5, 116078.52, 0.18567812, 0.090529315, -1559773.8, 55223.934, 0.00045159098, 9.996866, 10.001667 
1.1148672e+3, 1.4520715e+2, -1836901.8, -1529807.6, -23259.297, 0.052987084, 0.13334942, -1528055.9, -11076.221, 0.00012308804, 9.997184, 10.001273 
1.114889e+3, 1.5520902e+2, -1772537.3, -1448878.9, -25674.777, 0.034077186, 0.17683603, -1446854.9, -27894.643, 0.000008505592, 9.996962, 10.001261 
1.11491136e+3, 1.6520947e+2, -1678010.1, -1461965.0, 22779.486, 0.014888409, 0.1509228, -1459589.4, -138635.0, 0.0000000033697685, 9.997407, 10.000285 
1.1149348e+3, 1.7520857e+2, -1414268.4, -1282028.8, 52950.97, 0.03346382, 0.020610576, -1263439.5, -40477.637, 0.0, 9.998538, 10.000302 
1.11495815e+3, 1.8520848e+2, -1286075.9, -1242244.8, 35790.074, 0.03683223, 0.01897237, -1222193.5, -97230.69, 0.0, 9.999051, 9.999655 
1.1149813e+3, 1.9520898e+2, -1200462.5, -1146930.0, -8392.666, 0.01929491, 0.08893319, -1145645.0, -118685.89, 0.0, 9.998955, 9.9996805 
1.1150048e+3, 2.0520876e+2, -1031438.7, -966104.44, -4683.548, 0.003095589, 0.08334332, -965770.44, -36812.74, 0.0, 9.99923, 10.000119 
1.1150287e+3, 2.1520773e+2, -846298.7, -829051.25, 33652.598, -0.007863632, -0.045054723, -802935.0, 28024.922, 0.0, 9.999842, 10.000093 
1.11505285e+3, 2.2520697e+2, -796866.7, -921336.06, 56837.58, -0.030558087, -0.048884783, -774818.1, -41850.777, 0.0, 10.0002365, 9.998591 
1.1150775e+3, 2.3520635e+2, -676464.0, -808964.6, 26340.232, -0.05553849, 0.016796459, -671419.75, -36439.098, 0.0, 10.00037, 9.998629 
1.1151016e+3, 2.4520569e+2, -478176.84, -574960.25, -61559.027, -0.03164935, 0.053276706, -448266.13, 88723.81, 0.0, 10.000678, 9.999416 
1.1151251e+3, 2.5520483e+2, -303120.88, -440028.78, -26441.355, 0.04068412, 0.012646561, -298191.66, 140805.44, 0.0, 10.001208, 9.9994135 
1.1151487e+3, 2.6520368e+2, -232189.08, -450646.47, 5749.738, 0.06425987, 0.0040467214, -232037.84, 108969.586, 0.00000020790911, 10.001434, 9.998558 
1.11517236e+3, 2.7520213e+2, -147455.31, -353569.28, -12633.784, 0.04530394, -0.024485419, -146683.81, 96337.95, 0.0000030041272, 10.00132, 9.998607 
1.1151958e+3, 2.852007e+2, -14662.909, -180024.8, -8840.41, 0.0023053286, -0.04705349, -14191.636, 130840.95, 0.000021469468, 10.001314, 9.999126 
1.115219e+3, 2.9519922e+2, 100330.77, -76429.74, 47043.957, -0.067973696, -0.12420006, 112071.46, 159113.34, 0.00010455908, 10.001435, 9.999107 
1.1152438e+3, 3.051983e+2, 169699.88, -275997.13, 59889.305, 0.004729332, -0.0022444436, 177607.05, 177607.05, 0.00032150696, 10.0026865, 9.996805 
1.11526944e+3, 3.151949e+2, 542803.06, 21055.26, 38285.89, 0.15939666, -0.044110585, 545597.5, 545597.5, 0.0006852482, 10.004729, 9.997853 
1.124817e+3, 1.2518124e+2, -2032093.0, -1761565.0, -61404.676, 0.22401431, 0.018304083, -1748279.8, -35051.918, 0.0010643419, 9.99734, 10.000948 
1.12484194e+3, 1.3518316e+2, -2185070.3, -1790124.5, 79763.03, 0.26822668, 0.10656817, -1774623.9, -159408.05, 0.00051804923, 9.99565, 10.000905 
1.1248636e+3, 1.4518496e+2, -2052743.5, -1646485.4, 16673.418, 0.050619688, 0.19116783, -1645802.3, -128601.89, 0.00014661087, 9.995763, 10.001155 
1.1248862e+3, 1.5518658e+2, -1672766.6, -1412775.5, -6261.251, 0.027446333, 0.22193047, -1412624.8, 6557.9185, 0.00001150662, 9.997701, 10.001151 
1.1249095e+3, 1.6518672e+2, -1492694.4, -1364687.5, 25393.285, 0.038269766, 0.16600583, -1359834.1, -38655.902, 0.0000000061074554, 9.998645, 10.000356 
1.1249341e+3, 1.751854e+2, -1383797.0, -1258359.8, 2645.8618, 0.106811546, -0.015427368, -1258304.0, -35117.066, 0.0, 9.99871, 10.00038 
1.1249578e+3, 1.8518506e+2, -1348682.8, -1347221.0, -7781.511, 0.1098566, -0.010053148, -1340136.1, -214945.28, 0.0, 9.998944, 9.998987 
1.12498075e+3, 1.951855e+2, -1177322.1, -1210215.0, -12166.424, 0.043313157, 0.12114365, -1173311.1, -146118.98, 0.0, 9.999426, 9.999025 
1.1250045e+3, 2.0518503e+2, -940889.56, -917952.25, 13089.483, 0.02074045, 0.118508115, -912017.9, 17176.209, 0.0, 9.999839, 10.000154 
1.125029e+3, 2.151835e+2, -788650.94, -793337.9, -20566.918, 0.04026698, -0.06297855, -770294.44, 60904.37, 0.0, 10.000211, 10.000155 
1.1250535e+3, 2.2518271e+2, -796067.25, -921295.9, 7089.799, 0.0037263108, -0.07268992, -795667.2, -62461.59, 0.0, 10.000238, 9.998598 
1.1250775e+3, 2.3518252e+2, -728051.56, -828369.3, 35195.047, -0.07761951, 0.03725752, -716935.6, -81720.71, 0.0, 9.999997, 9.998675 
1.1251018e+3, 2.4518219e+2, -538911.06, -573251.0, -4417.6436, -0.04352769, 0.088835604, -538351.9, -1131.0881, 0.0, 10.000131, 9.999689 
1.1251265e+3, 2.5518152e+2, -373476.47, -445191.38, -15770.536, 0.09523007, 0.040138625, -370161.63, 69063.64, 0.0, 10.000604, 9.999669 
1.12515055e+3, 2.6518032e+2, -236371.06, -449564.84, 42815.79, 0.11361955, 0.014716397, -228093.72, 113141.836, 0.00000016860811, 10.0014, 9.998579 
1.1251741e+3, 2.7517846e+2, 28915.81, -265761.84, 61390.402, 0.024171865, -0.045724664, 41193.746, 284446.53, 0.0000038179373, 10.002523, 9.998626 
1.1251978e+3, 2.851771e+2, 271143.9, -69968.15, 43381.934, -0.03099065, -0.050437856, 276574.7, 421838.0, 0.000026281929, 10.003388, 9.998889 
1.1252218e+3, 2.9517615e+2, 445569.56, 64332.348, -27999.69, -0.05580164, -0.054463636, 447615.0, 494883.97, 0.00011344339, 10.003918, 9.99888 
1.1252473e+3, 3.05175e+2, 386189.25, -151393.08, -7589.7266, 0.03107233, 0.05066394, 386296.38, 386296.38, 0.00033231167, 10.004101, 9.996973 
1.1252737e+3, 3.1517088e+2, 419739.9, -31698.64, -10498.9375, 0.16870941, -0.07381168, 419983.94, 419983.94, 0.0006963385, 10.003845, 9.997924 
1.1348128e+3, 1.2515849e+2, -2054423.9, -1817756.5, -117139.22, 0.036817525, -0.05672532, -1769583.5, -56136.12, 0.0011953667, 9.997406, 10.000522 
1.1348365e+3, 1.3516103e+2, -2217332.0, -1849182.1, 19298.46, 0.16497345, 0.13681045, -1848173.3, -232741.22, 0.00059164723, 9.995627, 10.000508 
1.1348584e+3, 1.4516209e+2, -2063798.9, -1669555.5, 83814.164, -0.05701436, 0.17271121, -1652476.9, -135052.84, 0.00017336896, 9.99576, 10.001001 
1.1348847e+3, 1.5516178e+2, -1679767.1, -1436033.4, 74706.734, 0.10328119, 0.028959548, -1414957.5, 4465.3887, 0.000015247707, 9.997734, 10.000978 
1.1349094e+3, 1.651617e+2, -1519991.4, -1430637.0, 20308.654, 0.14800061, -0.016476732, -1426237.8, -104816.86, 0.000000009421829, 9.998684, 9.999883 
1.1349331e+3, 1.7516164e+2, -1413001.6, -1325566.5, 10391.441, 0.12292401, -0.024932278, -1324348.5, -100928.45, 0.0, 9.998735, 9.999907 
1.1349566e+3, 1.8516184e+2, -1341378.0, -1338301.1, 1793.5554, 0.08864358, 0.05409629, -1337476.6, -212056.72, 0.0, 9.998971, 9.999035 
1.1349801e+3, 1.9516215e+2, -1180404.0, -1209854.0, 11200.217, 0.032749, 0.1667603, -1176628.5, -149206.44, 0.0, 9.999394, 9.999044 
1.13500424e+3, 2.0516075e+2, -999465.06, -1029431.56, 19279.488, 0.0073805, 0.11010469, -990031.2, -60597.125, 0.0, 9.999796, 9.999409 
1.1350293e+3, 2.1515764e+2, -850129.5, -902755.8, -3434.8557, 0.023478415, -0.15606163, -849906.25, -18449.424, 0.0, 10.000129, 9.999446 
1.1350535e+3, 2.2515711e+2, -740483.3, -783365.1, -11718.658, -0.020101326, -0.15479945, -737489.8, -4030.2722, 0.0, 10.000145, 9.999587 
1.1350772e+3, 2.351589e+2, -675528.3, -699598.1, 32568.086, -0.11777534, 0.05389466, -652842.6, -17398.148, 0.0, 9.999912, 9.9996 
1.1351012e+3, 2.451593e+2, -561192.5, -604589.44, 5649.6187, -0.124638654, 0.14420909, -560469.06, -23027.096, 0.0, 10.000067, 9.999505 
1.1351258e+3, 2.5515828e+2, -391572.88, -468379.1, 7223.9834, -0.03706681, 0.07635911, -390899.34, 48552.95, 0.0, 10.000542, 9.999541 
1.1351508e+3, 2.651574e+2, -194655.83, -347415.13, 79846.9, -0.01075194, 0.049997438, -160539.42, 180919.45, 0.00000020663475, 10.001331, 9.999316 
1.1351759e+3, 2.7515644e+2, 63960.215, -175102.02, 111476.1, -0.045985747, 0.010049797, 107875.15, 351339.13, 0.0000055002247, 10.002446, 9.9992895 
1.1352008e+3, 2.8515458e+2, 138838.27, -323939.94, 52898.617, -0.073806666, 0.009404952, 144807.92, 290289.16, 0.00003348711, 10.003303, 9.997182 
1.1352256e+3, 2.9515192e+2, 315083.88, -181585.7, -694.399, -0.07746962, 0.0049072546, 315084.84, 362594.7, 0.00012779102, 10.00381, 9.997241 
1.1352512e+3, 3.0514973e+2, 423094.66, -49084.773, -21517.613, 0.0010135702, 0.04190866, 424073.22, 424073.22, 0.00035369195, 10.003991, 9.997729 
1.1352766e+3, 3.1514502e+2, 451295.94, 54443.754, -2736.5002, 0.05132277, -0.2153056, 451314.8, 451314.8, 0.0007245539, 10.003759, 9.998554 
1.14480905e+3, 1.2513581e+2, -2365353.5, -1951169.9, -152648.05, 0.026832525, 0.00020878525, -1900990.5, -187319.44, 0.0013373722, 9.995176, 10.000703 
1.1448335e+3, 1.3513778e+2, -2030867.8, -1739107.4, -35988.09, 0.2423414, 0.11810992, -1734733.9, -119075.54, 0.000672049, 9.996791, 10.000722 
1.1448553e+3, 1.4513832e+2, -1819175.4, -1595527.8, 105194.73, -0.031043356, 0.11002318, -1553824.8, -36169.69, 0.0002032588, 9.997629, 10.000607 
1.1448827e+3, 1.5513785e+2, -1697705.0, -1488630.9, 56623.375, 0.12731583, -0.0077756625, -1474280.6, -54623.445, 0.000019742625, 9.9978075, 10.000578 
1.1449081e+3, 1.6513792e+2, -1630296.4, -1504586.6, -15760.832, 0.17753206, -0.009073684, -1502640.8, -180985.44, 0.000000013934886, 9.998017, 9.999697 
1.1449319e+3, 1.751383e+2, -1488730.5, -1382046.8, -15901.523, 0.15755089, 0.04303574, -1379727.1, -156075.34, 0.0, 9.998302, 9.999728 
1.1449557e+3, 1.8513837e+2, -1362772.8, -1324665.3, 19081.984, 0.114968956, 0.1105424, -1316753.0, -191100.97, 0.0, 9.998732, 9.99924 
1.1449795e+3, 1.951381e+2, -1172456.9, -1178574.6, 25832.447, 0.035327338, 0.14331505, -1149502.8, -121845.57, 0.0, 9.999349, 9.99927 
1.145004e+3, 2.0513678e+2, -1030244.6, -1108407.0, 55772.82, 0.004707347, 0.11271771, -1001223.3, -71553.54, 0.0, 9.999858, 9.998843 
1.1450295e+3, 2.1513441e+2, -867851.0, -971714.8, 34311.465, 0.036146443, -0.020893062, -857539.8, -25849.51, 0.0, 10.000274, 9.998904 
1.14505395e+3, 2.2513357e+2, -698228.5, -744355.0, -9600.101, 0.006090302, -0.03228773, -696310.25, 37385.49, 0.0, 10.000343, 9.999762 
1.1450774e+3, 2.3513402e+2, -640450.25, -663022.8, -37952.723, -0.08490175, 0.022654438, -612141.25, 23547.316, 0.0, 10.000055, 9.999785 
1.14510134e+3, 2.4513389e+2, -572847.2, -638443.06, -54561.24, -0.114350386, 0.0646144, -541984.9, -4295.7915, 0.0, 10.000112, 9.9992485 
1.145126e+3, 2.551331e+2, -403801.5, -498626.06, -73845.516, -0.07670398, 0.045373306, -363457.94, 76240.266, 0.0, 10.000574, 9.99931 
1.1451515e+3, 2.6513237e+2, -266845.03, -395680.38, -18734.582, -0.044371776, 0.04970344, -264176.03, 77527.82, 0.00000038376965, 10.000885, 9.999203 
1.14517786e+3, 2.7513143e+2, -147984.92, -290087.88, -57488.805, -0.023411542, 0.025374642, -127640.15, 116067.95, 0.0000075917305, 10.001036, 9.999181 
1.14520386e+3, 2.8512922e+2, -107626.68, -477142.97, -64544.9, -0.020283643, 0.0071418677, -96676.836, 49052.87, 0.0000412879, 10.001762, 9.996868 
1.1452295e+3, 2.9512572e+2, 175282.7, -282932.84, -36113.613, -0.014066276, -0.04443562, 178111.48, 225878.8, 0.0001447541, 10.002996, 9.996935 
1.145255e+3, 3.051237e+2, 408654.0, -31526.064, -46796.02, 0.00032035276, 0.0121809235, 413573.94, 413573.94, 0.00038187765, 10.003768, 9.997963 
1.1452792e+3, 3.151202e+2, 486774.28, 87786.15, -95979.27, -0.079756014, -0.15114222, 508662.0, 508662.0, 0.000768389, 10.003937, 9.998695 
1.1548053e+3, 1.2511311e+2, -2308567.5, -1814554.0, -42768.617, 0.11871314, 0.18403128, -1810878.6, -96978.62, 0.001489488, 9.995105, 10.001666 
1.15483254e+3, 1.351136e+2, -1958553.3, -1597731.8, 30862.975, 0.4514699, 0.05540656, -1595111.0, 20781.652, 0.00075867696, 9.996832, 10.001665 
1.1548542e+3, 1.4511378e+2, -1860731.4, -1703216.4, 103509.55, 0.0811179, 0.004695431, -1651908.6, -134017.08, 0.0002361324, 9.997711, 9.999835 
1.1548798e+3, 1.5511487e+2, -1740785.3, -1590955.0, 68508.3, 0.033871453, 0.115897484, -1564353.4, -144468.47, 0.000024990082, 9.997852, 9.99986 
1.154905e+3, 1.6511542e+2, -1617144.0, -1479943.6, -13974.726, 0.053693444, 0.19001138, -1478534.6, -156653.42, 0.000000023716384, 9.998033, 9.999856 
1.1549303e+3, 1.7511536e+2, -1478015.4, -1359813.8, 73.76638, 0.15912618, 0.18447416, -1359813.6, -135932.17, 0.0, 9.998305, 9.999877 
1.1549547e+3, 1.8511474e+2, -1339141.3, -1279694.3, 35573.688, 0.13679305, 0.15829946, -1263060.8, -137174.58, 0.0, 9.998746, 9.999543 
1.1549784e+3, 1.9511342e+2, -1153593.9, -1136554.1, 53711.613, -0.0111699905, 0.056126066, -1090690.9, -62794.03, 0.0, 9.999329, 9.999573 
1.1550034e+3, 2.0511314e+2, -1059843.6, -1161597.4, 58863.723, -0.051362585, 0.13072006, -1032916.94, -103016.03, 0.0, 9.999821, 9.998493 
1.1550297e+3, 2.1511374e+2, -904902.5, -1032097.7, 55041.895, 0.017655395, 0.32797992, -884391.44, -52491.457, 0.0, 10.000194, 9.998531 
1.1550546e+3, 2.2511205e+2, -755312.44, -840197.94, -27682.188, 0.022819936, 0.27990377, -747082.8, -13168.084, 0.0, 10.000251, 9.9991455 
1.15507804e+3, 2.3510799e+2, -693181.3, -755869.4, -42585.05, -0.03349527, -0.054535527, -671648.7, -35702.78, 0.0, 9.999988, 9.999179 
1.155102e+3, 2.4510609e+2, -604637.2, -690367.75, -46389.473, -0.068158075, -0.14519846, -584340.7, -46379.543, 0.0, 10.00005, 9.998921 
1.1551266e+3, 2.5510612e+2, -437299.25, -556075.9, -51101.742, -0.08137227, -0.048279237, -418339.88, 21622.06, 0.0, 10.000517, 9.998943 
1.1551523e+3, 2.6510534e+2, -337664.38, -529691.25, -18782.027, -0.04770716, 0.019213159, -335844.6, 6124.346, 0.0000005356376, 10.000833, 9.998306 
1.1551796e+3, 2.751036e+2, -212479.53, -410769.88, -42546.203, 0.028291255, -0.0004535624, -203736.13, 40247.594, 0.000008957139, 10.000983, 9.998375 
1.15520656e+3, 2.8510118e+2, -42019.074, -328359.47, -21350.42, 0.06384189, -0.05515179, -40435.875, 105570.75, 0.00004724257, 10.001707, 9.997917 
1.1552335e+3, 2.950979e+2, 238799.2, -144227.17, 23637.09, 0.06328687, -0.18761127, 240252.36, 288290.9, 0.0001594687, 10.002957, 9.997911 
1.1552584e+3, 3.050971e+2, 365385.63, -94797.76, -43311.188, -0.03838599, -0.032079134, 369426.47, 369426.47, 0.0004106765, 10.003668, 9.997568 
1.1552806e+3, 3.1509608e+2, 435380.97, 14644.461, -71511.65, -0.34829655, 0.08595293, 447203.44, 447203.44, 0.0008194606, 10.0038, 9.998252 
1.1648011e+3, 1.2508722e+2, -2188733.8, -1698088.9, 1349.6967, 0.16733822, 0.15942629, -1698085.3, 16069.779, 0.0016512593, 9.99567, 10.002181 
1.1648291e+3, 1.3508835e+2, -1996842.5, -1571179.8, -55752.746, 0.46397883, 0.05510216, -1563998.5, 52140.918, 0.0008513687, 9.996378, 10.002061 
1.1648518e+3, 1.4508882e+2, -1977909.0, -1746206.0, 8265.356, 0.11231126, 0.008197108, -1745911.6, -227776.4, 0.00027198074, 9.996863, 9.999941 
1.16487734e+3, 1.5509039e+2, -1831852.1, -1621591.6, 22531.096, 0.043017894, 0.15831457, -1619204.4, -199079.94, 0.00003101119, 9.997183, 9.999968 
1.1649028e+3, 1.6509098e+2, -1627567.3, -1476387.5, -931.6346, 0.048025772, 0.22595504, -1476381.8, -154260.78, 0.00000004774233, 9.997929, 9.999929 
1.1649287e+3, 1.7509045e+2, -1357909.6, -1293026.4, -8336.105, 0.14163184, 0.16972645, -1291972.5, -67846.87, 0.0, 9.999096, 9.999954 
1.16495386e+3, 1.8508963e+2, -1205584.5, -1220289.6, 10280.53, 0.13702677, 0.1204808, -1200297.8, -74165.9, 0.0, 9.999672, 9.999508 
1.1649783e+3, 1.9508837e+2, -1100493.3, -1113173.0, -7812.621, 0.030364772, 0.028685916, -1096771.8, -68630.86, 0.0, 9.9997, 9.999555 
1.16500355e+3, 2.0508817e+2, -1069822.8, -1187989.3, 6405.3545, -0.01495205, 0.12171013, -1069476.6, -139331.47, 0.0, 9.999849, 9.998294 
1.1650296e+3, 2.1508886e+2, -928768.1, -1060244.6, -3804.1836, 0.0060405447, 0.34358248, -928658.2, -96512.484, 0.0, 10.000113, 9.998369 
1.1650547e+3, 2.2508714e+2, -728966.6, -853965.8, -57044.633, 0.009346929, 0.31488472, -706847.75, 27313.7, 0.0, 10.000549, 9.998906 
1.16507895e+3, 2.3508297e+2, -538331.7, -706632.56, -57962.95, 0.0038769296, -0.007966932, -520300.9, 115892.88, 0.0, 10.001166, 9.998947 
1.16510324e+3, 2.4508078e+2, -415846.72, -630467.7, -31124.49, -0.015881162, -0.09998999, -411424.16, 126786.98, 0.0, 10.001474, 9.998649 
1.1651277e+3, 2.5508043e+2, -319360.0, -530474.8, -46268.51, -0.05627205, -0.01213615, -309664.9, 130549.92, 0.0, 10.001454, 9.9986725 
1.1651538e+3, 2.650791e+2, -192613.23, -504272.88, 36590.273, -0.047197938, 0.031440526, -188375.0, 153852.63, 0.00000056359414, 10.002026, 9.997903 
1.1651814e+3, 2.7507657e+2, 75759.57, -318622.03, 28274.717, 0.013526737, -0.02538782, 77776.38, 322027.7, 0.00000928475, 10.003168, 9.997959 
1.1652089e+3, 2.8507406e+2, 197554.97, -197402.97, 24473.756, 0.057902634, -0.07083554, 199065.72, 345340.1, 0.000050363375, 10.003274, 9.99807 
1.1652363e+3, 2.9507163e+2, 163100.42, -158377.06, -10286.8, 0.088227965, -0.1385479, 163429.25, 211726.13, 0.00017020105, 10.002352, 9.998103 
1.1652619e+3, 3.0507076e+2, 225041.28, -196542.36, -54480.277, -0.01546384, 0.017826201, 231967.83, 231967.83, 0.00043644453, 10.002845, 9.997274 
1.1652847e+3, 3.1506908e+2, 498751.56, -7637.047, -97567.35, -0.34570047, 0.10673003, 516899.75, 516899.75, 0.00086820364, 10.004452, 9.9978 
1.1747963e+3, 1.2505795e+2, -2189272.0, -1700747.5, 69329.85, 0.079787455, -0.10327096, -1691099.0, 23337.867, 0.0018234614, 9.995685, 10.002155 
1.1748231e+3, 1.3506201e+2, -2010382.4, -1603571.0, -27105.248, 0.21306087, 0.10830094, -1601773.0, 14626.081, 0.0009506097, 9.996392, 10.001833 
1.17484756e+3, 1.4506347e+2, -1908156.6, -1599355.6, 12308.392, -0.009177375, 0.11996462, -1598865.9, -80480.27, 0.00031097958, 9.996853, 10.000954 
1.1748751e+3, 1.5506445e+2, -1760825.1, -1478985.8, 43062.246, 0.09839874, 0.110321544, -1472553.1, -52177.4, 0.00003785508, 9.997198, 10.000939 
1.1749015e+3, 1.6506453e+2, -1630564.4, -1487627.3, 37001.57, 0.10333333, 0.0862409, -1478616.8, -156242.0, 0.00000010132158, 9.99795, 9.999842 
1.1749271e+3, 1.7506361e+2, -1360718.3, -1301866.6, 41189.79, 0.05561178, -0.006075699, -1280671.6, -56287.684, 0.0, 9.9991045, 9.999891 
1.1749529e+3, 1.8506314e+2, -1228754.5, -1267360.0, 2547.3906, 0.05684615, -0.00089282385, -1228587.1, -102198.805, 0.0, 9.999673, 9.999182 
1.1749789e+3, 1.9506298e+2, -1128709.3, -1165268.1, -405.27646, 0.10017921, 0.04875238, -1128704.8, -100315.195, 0.0, 9.99967, 9.999211 
1.1750042e+3, 2.0506194e+2, -1080169.0, -1199235.5, 7979.5225, 0.057146363, 0.078759305, -1079636.6, -149234.95, 0.0, 9.999805, 9.9982395 
1.1750292e+3, 2.150599e+2, -943430.94, -1076012.5, 11501.466, -0.057464723, 0.035739575, -942440.56, -110014.77, 0.0, 10.000044, 9.998298 
1.17505446e+3, 2.2505891e+2, -730703.75, -838504.7, -42935.355, -0.085896745, 0.07596662, -715693.4, 18742.285, 0.0, 10.000467, 9.999053 
1.1750799e+3, 2.350589e+2, -541338.6, -689892.06, -28135.389, -0.030996127, 0.15309355, -536188.44, 100243.94, 0.0, 10.001067, 9.99911 
1.17510475e+3, 2.4505797e+2, -446876.78, -674652.94, -38673.434, -0.021613687, 0.19296177, -440489.63, 97949.58, 0.0, 10.001385, 9.998391 
1.1751293e+3, 2.55056e+2, -338772.47, -563992.06, -40048.99, -0.055172216, 0.1398317, -331862.88, 108594.734, 0.0, 10.001421, 9.99846 
1.1751555e+3, 2.650535e+2, -202677.88, -509690.72, 72335.46, -0.08812991, 0.07671429, -186488.56, 155992.48, 0.0000005132723, 10.001961, 9.997897 
1.1751832e+3, 2.7505022e+2, 59865.957, -330164.16, 79318.1, -0.12604466, -0.053475138, 75379.36, 319890.94, 0.000009286575, 10.003075, 9.997925 
1.1752107e+3, 2.8504795e+2, 129965.97, -317092.63, -15891.287, -0.09503055, -0.036671247, 130530.13, 277063.1, 0.00005131962, 10.003185, 9.997291 
1.1752379e+3, 2.9504657e+2, 116115.65, -258584.84, -34584.023, 0.0063888542, 0.077781215, 119280.94, 167826.17, 0.00017674692, 10.002353, 9.997417 
1.175265e+3, 3.0504447e+2, 213721.5, -205951.25, 6617.0313, 0.00783656, 0.13903645, 213825.81, 213825.81, 0.00045361195, 10.002794, 9.99723 
1.1752905e+3, 3.1503987e+2, 457799.78, -62098.17, -15592.848, -0.22664775, -0.05411684, 458267.03, 458267.03, 0.00089808204, 10.004329, 9.99748 
1.1847924e+3, 1.2503082e+2, -2190056.0, -1745090.0, 123909.58, 0.12693845, -0.13606882, -1712911.9, 1787.6255, 0.0020081834, 9.995875, 10.00176 
1.1848184e+3, 1.3503484e+2, -2086339.5, -1705492.4, -49923.043, 0.114920706, 0.13222839, -1699057.0, -82390.53, 0.0010574218, 9.996162, 10.0012455 
1.1848444e+3, 1.4503632e+2, -1883369.1, -1509023.3, -20835.293, 0.007902479, 0.14105608, -1507867.1, 10786.053, 0.00035351914, 9.996684, 10.001653 
1.1848722e+3, 1.5503722e+2, -1690118.9, -1362928.5, -31292.162, 0.0877059, 0.05013225, -1359962.6, 60677.844, 0.00004562391, 9.997334, 10.001666 
1.1848991e+3, 1.6503765e+2, -1641357.1, -1481135.4, -13553.797, 0.08797944, 0.018171517, -1479996.9, -157361.88, 0.00000019883093, 9.997819, 9.999955 
1.18492566e+3, 1.7503747e+2, -1479932.8, -1341189.8, -5468.9087, 0.056043938, -0.012743428, -1340974.5, -116336.52, 0.0, 9.99821, 10.0000515 
1.1849519e+3, 1.8503739e+2, -1389352.0, -1367266.5, -37207.566, 0.050375197, 0.033923566, -1339497.6, -212856.9, 0.0, 9.998673, 9.998977 
1.1849778e+3, 1.9503725e+2, -1201899.0, -1217884.4, -48001.188, 0.056556404, 0.10623891, -1161229.6, -132585.13, 0.0, 9.999255, 9.999046 
1.1850037e+3, 2.050359e+2, -1047644.75, -1155125.5, -66.66173, 0.023279972, 0.09942388, -1047644.7, -116985.516, 0.0, 9.999902, 9.998498 
1.1850297e+3, 2.150331e+2, -841349.1, -996506.8, 18086.67, -0.033888917, -0.04380537, -839268.6, -6581.814, 0.0, 10.000613, 9.998569 
1.18505515e+3, 2.2503221e+2, -692914.1, -839001.44, -34451.39, -0.065306626, 0.0014545646, -685197.2, 49498.21, 0.0, 10.000811, 9.99888 
1.1850801e+3, 2.3503311e+2, -634654.3, -752910.25, -61016.355, -0.08108892, 0.1865641, -608816.94, 27869.215, 0.0, 10.000505, 9.998946 
1.1851054e+3, 2.4503212e+2, -543160.8, -758719.94, -56322.715, -0.06636395, 0.24472916, -529331.7, 9363.305, 0.0, 10.000895, 9.998047 
1.1851314e+3, 2.550291e+2, -278022.06, -574415.3, -80729.53, -0.017096305, 0.12424975, -257460.0, 183263.48, 0.0, 10.002019, 9.998098 
1.1851578e+3, 2.650266e+2, -167508.5, -495881.7, 21067.508, -0.04717981, 0.08313594, -166162.38, 176585.23, 0.0000005059796, 10.002213, 9.997871 
1.1851851e+3, 2.750245e+2, -181646.75, -449219.1, 10055.389, -0.16333918, 0.07209316, -181269.39, 63499.34, 0.000009353779, 10.001431, 9.997896 
1.1852127e+3, 2.850223e+2, -26310.477, -388786.44, -22926.498, -0.14920086, 0.09666583, -24866.139, 121922.586, 0.000051335024, 10.00211, 9.997307 
1.1852412e+3, 2.950199e+2, 383194.38, -128669.32, -4598.5415, 0.007881842, 0.11015869, 383235.7, 432043.53, 0.0001795843, 10.004196, 9.997416 
1.18526906e+3, 3.050168e+2, 491283.7, -113153.18, 47672.91, 0.041838497, 0.08782507, 495020.63, 495020.63, 0.00045762947, 10.004859, 9.996879 
1.18529506e+3, 3.150123e+2, 361193.47, -170649.27, -25185.537, -0.17867227, -0.059908457, 362383.47, 362383.47, 0.0008982976, 10.00391, 9.99694 
1.19478896e+3, 1.250061e+2, -2240301.3, -1851368.3, 108561.84, 0.17315723, 0.076364115, -1823117.8, -108177.664, 0.0022081332, 9.995889, 10.0010195 
1.1948146e+3, 1.3500698e+2, -2150810.5, -1841304.4, -32363.85, 0.11663023, 0.11908348, -1837956.5, -221015.83, 0.0011730703, 9.996168, 10.000311 
1.19484216e+3, 1.4500739e+2, -1859873.5, -1461573.9, -830.63727, 0.10480989, 0.05265043, -1461572.1, 57365.98, 0.00040013902, 9.99669, 10.001977 
1.1948684e+3, 1.5500876e+2, -1662935.5, -1314301.4, 17.919205, -0.04288129, -0.022534752, -1314301.4, 106617.195, 0.00005450229, 9.997359, 10.001992 
1.19489565e+3, 1.6501036e+2, -1608478.8, -1418773.8, -9385.298, -0.061381273, 0.026371965, -1418310.6, -95409.234, 0.00000035173326, 9.997844, 10.000371 
1.19492434e+3, 1.7501208e+2, -1454281.5, -1287240.5, 14423.061, 0.09172133, 0.14625587, -1286004.3, -61116.76, 0.0, 9.998202, 10.000428 
1.1949508e+3, 1.8501242e+2, -1395931.8, -1382058.8, -22339.584, 0.060459893, 0.22193071, -1365603.6, -238715.17, 0.0, 9.99868, 9.998872 
1.194975e+3, 1.9501126e+2, -1214715.4, -1239310.5, -20184.816, -0.1575111, 0.20473562, -1203377.0, -174472.1, 0.0, 9.999228, 9.998916 
1.1950017e+3, 2.0501e+2, -1009843.0, -1064651.0, 16792.936, -0.17433092, 0.18082555, -1005107.0, -74189.055, 0.0, 9.999855, 9.99914 
1.1950309e+3, 2.1500845e+2, -810279.56, -910261.5, 49173.73, 0.016608682, 0.097547874, -790148.1, 42780.594, 0.0, 10.000523, 9.999204 
1.1950567e+3, 2.2500709e+2, -740853.75, -919097.9, -53905.715, 0.009144631, 0.08774258, -725819.4, 9120.845, 0.0, 10.000724, 9.998373 
1.19507946e+3, 2.3500575e+2, -679030.6, -832199.2, -67009.51, -0.19644132, 0.101470865, -653853.3, -16899.672, 0.0, 10.000449, 9.998429 
1.195105e+3, 2.4500339e+2, -581644.0, -829579.44, -21621.324, -0.20505245, 0.07130476, -579772.6, -40795.72, 0.0, 10.000852, 9.997584 
1.19513355e+3, 2.549999e+2, -319377.75, -645305.2, -30883.51, -0.0112886, -0.051091004, -316477.16, 124533.94, 0.0, 10.001952, 9.997643 
1.19516075e+3, 2.6499856e+2, -185738.97, -518279.78, -13339.768, 0.007294017, 0.053661946, -185204.7, 157821.47, 0.0000006389743, 10.002143, 9.997753 
1.1951865e+3, 2.749993e+2, -190976.02, -462399.13, -8852.59, -0.15967257, 0.33491564, -190687.6, 54335.81, 0.000009301616, 10.001405, 9.997817 
1.19521484e+3, 2.8499708e+2, 15940.5205, -292294.47, 50074.535, -0.16039105, 0.32921097, 23871.355, 170913.16, 0.000051838055, 10.002067, 9.997993 
1.1952456e+3, 2.949917e+2, 419177.94, -37826.906, 85146.05, 0.014986837, -0.027033707, 434526.3, 483609.7, 0.00018140029, 10.004116, 9.998082 
1.1952738e+3, 3.0498776e+2, 413188.2, -236469.66, 9701.936, 0.020897744, -0.122174785, 413333.03, 413333.03, 0.0004542006, 10.004707, 9.996098 
1.19529806e+3, 3.1498602e+2, 280634.38, -296276.78, -39357.707, -0.29970154, 0.07520205, 283307.03, 283307.03, 0.0008788733, 10.003746, 9.996147 
1.2047848e+3, 1.24978215e+2, -2317832.8, -1821417.9, -39577.39, 0.21838655, 0.15270168, -1818282.4, -103067.43, 0.0024257244, 9.995052, 10.001642 
1.2048105e+3, 1.349785e+2, -2146406.3, -1763536.3, -32691.965, 0.12201582, 0.07190758, -1760764.9, -143547.47, 0.0012988481, 9.995867, 10.000995 
1.20483994e+3, 1.4497922e+2, -1883266.1, -1507790.8, 62866.855, 0.21847628, 0.015924165, -1497544.4, 21666.605, 0.00045139206, 9.996678, 10.001667 
1.20486535e+3, 1.5498072e+2, -1677310.0, -1350270.6, -3682.5735, -0.06881891, -0.018206766, -1350229.1, 70963.46, 0.00006471426, 9.997396, 10.001724 
1.2048927e+3, 1.6498235e+2, -1603036.8, -1396351.1, -47745.184, -0.123644754, 0.039580617, -1385854.9, -62678.766, 0.00000057087306, 9.997799, 10.000543 
1.2049225e+3, 1.74984e+2, -1474112.6, -1273109.5, -55730.336, 0.097153276, 0.13413759, -1258691.8, -33529.168, 0.0, 9.997974, 10.0006275 
1.2049497e+3, 1.8498458e+2, -1418177.1, -1359070.0, -55964.273, 0.100599244, 0.20813844, -1325335.3, -198174.3, 0.0, 9.998378, 9.999174 
1.2049745e+3, 1.9498391e+2, -1219445.6, -1204737.4, -31567.113, -0.119023696, 0.20865269, -1179679.0, -150506.39, 0.0, 9.999034, 9.999243 
1.2050015e+3, 2.0498314e+2, -1048704.0, -1062229.5, 15726.152, -0.15682319, 0.2089229, -1038348.1, -107167.16, 0.0, 9.9994955, 9.999328 
1.20503075e+3, 2.149821e+2, -902334.4, -933125.25, -2021.2692, -0.006623333, 0.15604515, -902202.25, -69014.77, 0.0, 9.999793, 9.999399 
1.2050573e+3, 2.2498065e+2, -770785.06, -951967.3, -94294.21, -0.006829274, 0.13749981, -730616.3, 4584.124, 0.0, 10.000598, 9.998212 
1.20508105e+3, 2.3497865e+2, -475378.22, -752118.9, -95078.97, -0.15495712, 0.10398797, -445860.63, 191360.56, 0.0, 10.001927, 9.998269 
1.20510705e+3, 2.4497624e+2, -328039.84, -702369.3, -7253.697, -0.16014169, 0.07423962, -327899.34, 211345.95, 0.0, 10.002568, 9.997628 
1.20513536e+3, 2.5497326e+2, -234129.47, -599988.75, 6014.4585, -0.03215702, -0.0029891655, -234030.63, 207243.64, 0.00000000020898414, 10.00251, 9.997688 
1.20516285e+3, 2.649718e+2, -117284.25, -490607.25, 32015.121, -0.008134643, 0.08720797, -114558.625, 228731.11, 0.00000074892756, 10.002646, 9.997693 
1.20518945e+3, 2.7497172e+2, 36766.0, -359335.7, 22353.814, -0.09054671, 0.2960807, 38023.535, 283316.5, 0.000009032264, 10.003003, 9.99775 
1.205218e+3, 2.8496933e+2, 153823.1, -244068.53, 105403.555, -0.08690694, 0.28369483, 180020.22, 327333.8, 0.000052112464, 10.003092, 9.997831 
1.2052489e+3, 2.949644e+2, 219456.02, -151626.31, 59146.2, 0.010058664, -0.007398736, 228655.19, 278008.66, 0.00018285155, 10.002827, 9.997918 
1.2052776e+3, 3.0496046e+2, 275887.63, -221909.42, -2079.8894, 0.00597549, -0.13620017, 275896.3, 275896.3, 0.00045244434, 10.003408, 9.996822 
1.20530285e+3, 3.1495947e+2, 448383.84, -129844.74, 17962.518, -0.22168693, 0.06897663, 448941.3, 448941.3, 0.000861533, 10.004538, 9.996905 
1.21477835e+3, 1.2494647e+2, -2173054.3, -1512803.5, -117070.7, 0.044274114, 0.023255073, -1492660.0, 222871.64, 0.0026624324, 9.995032, 10.003763 
1.2148063e+3, 1.3494954e+2, -1983347.3, -1424521.1, 4866.411, 0.08834735, -0.010382145, -1424478.8, 193016.83, 0.0014356553, 9.995867, 10.003321 
1.2148375e+3, 1.4495198e+2, -1939729.8, -1631245.5, 84664.484, 0.30181557, 0.029760364, -1609536.8, -90066.47, 0.0005075534, 9.996705, 10.000808 
1.2148631e+3, 1.5495314e+2, -1739975.3, -1485811.0, 31668.908, -0.04666567, 0.054911464, -1481924.5, -60462.3, 0.000076397075, 9.997414, 10.000791 
1.21489026e+3, 1.649536e+2, -1607465.6, -1408297.4, -50124.105, -0.16022086, 0.047587454, -1396394.1, -72934.72, 0.0000008702971, 9.997814, 10.00045 
1.2149198e+3, 1.7495324e+2, -1480698.9, -1288266.8, -44792.523, 0.022253016, -0.05061493, -1278351.3, -52888.215, 0.0, 9.997976, 10.000524 
1.2149484e+3, 1.8495381e+2, -1357194.9, -1235310.1, -39608.453, 0.11780877, -0.01380136, -1223569.6, -96110.89, 0.0, 9.998389, 10.000018 
1.21497594e+3, 1.9495523e+2, -1165861.9, -1089019.6, 137.76459, 0.10971557, 0.111983195, -1089019.4, -59572.08, 0.0, 9.99901, 10.000052 
1.2150027e+3, 2.049554e+2, -1075949.0, -1106407.9, 18474.09, 0.013336325, 0.18054488, -1067236.3, -135788.38, 0.0, 9.999445, 9.999046 
1.21502906e+3, 2.1495417e+2, -936001.75, -980945.7, 14504.163, -0.1601274, 0.13709262, -931727.5, -98265.72, 0.0, 9.999698, 9.999115 
1.21505626e+3, 2.24953e+2, -774263.0, -937598.4, -53555.375, -0.16986318, 0.15390374, -758269.06, -22793.877, 0.0, 10.000503, 9.998358 
1.2150845e+3, 2.3495182e+2, -476229.03, -734563.3, -37919.402, -0.012558167, 0.18626565, -470778.1, 166710.7, 0.0, 10.001841, 9.998433 
1.2151113e+3, 2.449506e+2, -305919.78, -631796.75, -15371.977, 0.0018662256, 0.24008882, -305196.25, 234304.69, 0.0, 10.002465, 9.998158 
1.2151371e+3, 2.5494912e+2, -206819.1, -528545.06, 10123.458, -0.124920346, 0.25806013, -206500.86, 235012.9, 0.00000000018849695, 10.002448, 9.998207 
1.2151643e+3, 2.6494625e+2, -128070.305, -501140.3, 38853.83, -0.13944225, 0.1862208, -124066.79, 219471.78, 0.00000061447383, 10.002592, 9.997649 
1.2151931e+3, 2.749419e+2, 28763.973, -367858.0, 44395.758, -0.030001419, -0.029285861, 33672.65, 279249.34, 0.000008322687, 10.00296, 9.997716 
1.215222e+3, 2.8493914e+2, 69065.17, -400390.8, 89665.28, -0.007557704, -0.026741019, 85608.13, 233211.47, 0.000050693892, 10.003009, 9.996798 
1.2152511e+3, 2.9493788e+2, 142979.53, -302241.06, 63929.22, -0.06921013, 0.14872889, 151977.28, 201596.64, 0.00018217303, 10.0027895, 9.996902 
1.2152804e+3, 3.0493447e+2, 402834.7, 61440.074, 37258.707, -0.06016091, 0.0305735, 406853.7, 406853.7, 0.00045183877, 10.003332, 9.998802 
1.215309e+3, 3.1493253e+2, 581375.7, 180534.47, 73976.945, -0.09392334, -0.065468304, 594592.6, 594592.6, 0.00085335044, 10.004402, 9.999098 
1.2247738e+3, 1.24917515e+2, -1985904.3, -1470192.5, 8621.1875, 0.02660358, -0.04667098, -1470048.4, 245763.98, 0.0029179724, 9.996496, 10.003361 
1.22480236e+3, 1.3492082e+2, -1865823.4, -1385373.5, 4429.5137, 0.082851715, -0.039602708, -1385332.8, 232441.2, 0.0015834377, 9.996744, 10.003168 
1.2248341e+3, 1.4492348e+2, -1925211.8, -1648589.4, 19625.834, 0.2784871, 0.039798878, -1647204.0, -127456.62, 0.00056846405, 9.996909, 10.000588 
1.2248607e+3, 1.5492445e+2, -1818885.9, -1546626.0, 543.66595, -0.0020876026, 0.067687824, -1546624.9, -124882.516, 0.00008951281, 9.996971, 10.000582 
1.22488834e+3, 1.6492464e+2, -1664804.1, -1437353.4, -28180.965, -0.10924627, 0.041911986, -1433913.8, -110171.11, 0.0000012652538, 9.997414, 10.000453 
1.2249177e+3, 1.7492394e+2, -1435274.3, -1263893.9, -23907.385, 0.01246697, -0.09103404, -1260621.4, -34872.39, 0.0, 9.998269, 10.000556 
1.22494675e+3, 1.849245e+2, -1275375.1, -1163067.1, -24842.21, 0.11197261, -0.071661256, -1157817.5, -30073.9, 0.0, 9.998812, 10.000314 
1.2249754e+3, 1.9492619e+2, -1132694.8, -1034320.2, -43113.113, 0.17256454, 0.05092001, -1018100.06, 11627.924, 0.0, 9.999084, 10.000387 
1.2250027e+3, 2.0492654e+2, -1113258.1, -1138873.9, -35815.03, 0.08541224, 0.12463673, -1088029.8, -156302.2, 0.0, 9.999244, 9.998926 
1.2250287e+3, 2.1492533e+2, -1012163.1, -1031337.7, -38028.758, -0.13875064, 0.0988157, -982531.75, -148787.92, 0.0, 9.999232, 9.998996 
1.2250564e+3, 2.2492447e+2, -850445.9, -935648.1, -33661.38, -0.16377266, 0.13529816, -838752.0, -102996.83, 0.0, 9.999812, 9.9987 
1.2250859e+3, 2.3492384e+2, -571288.1, -741159.0, -22829.602, 0.0025619818, 0.18585749, -568273.44, 69489.08, 0.0, 10.001016, 9.998783 
1.22511365e+3, 2.44923e+2, -403678.38, -669289.75, -38257.516, 0.030066324, 0.25581676, -398277.72, 141493.13, 0.0, 10.001747, 9.998254 
1.2251398e+3, 2.549218e+2, -261749.25, -540349.4, -57310.063, -0.07791697, 0.29352197, -250420.78, 191360.92, 0.0, 10.002018, 9.99833 
1.225167e+3, 2.6491874e+2, -123609.23, -486386.25, -9321.081, -0.124371044, 0.1907212, -123369.89, 220437.78, 0.0000003685213, 10.002569, 9.997764 
1.22519545e+3, 2.749137e+2, 92065.164, -323805.72, -7860.99, -0.111743756, -0.10449865, 92213.7, 338063.94, 0.0000073761885, 10.003347, 9.9978285 
1.2252246e+3, 2.849111e+2, 153319.86, -378524.4, 56247.957, -0.07416006, -0.07984087, 159203.56, 307078.88, 0.00004908337, 10.003666, 9.996628 
1.22525476e+3, 2.9491085e+2, 227753.11, -282134.25, 75749.59, -0.0026165587, 0.21397716, 238768.61, 288653.06, 0.00018062291, 10.003462, 9.9967165 
1.2252846e+3, 3.0490732e+2, 476864.5, 111713.88, 71988.555, 0.016016638, 0.08497581, 490544.38, 490544.38, 0.0004493535, 10.003772, 9.998945 
1.225313e+3, 3.1490484e+2, 604793.2, 237356.52, -50807.855, -0.11905575, -0.07279569, 611689.3, 611689.3, 0.00084687845, 10.004343, 9.999531 
1.2347709e+3, 1.2489132e+2, -2174185.3, -1879871.3, -56857.844, 0.044222347, -0.084894486, -1869269.0, -153212.45, 0.0031899144, 9.996587, 10.000497 
1.2347988e+3, 1.3489245e+2, -2052296.9, -1783599.1, 16900.666, 0.04547634, -0.019606918, -1782540.3, -164488.47, 0.0017411282, 9.99679, 10.000411 
1.234829e+3, 1.4489369e+2, -1891096.5, -1587285.9, 15650.354, 0.070550814, 0.037098527, -1586481.8, -66438.87, 0.0006337289, 9.996946, 10.000993 
1.2348579e+3, 1.5489462e+2, -1781364.0, -1482083.6, 7829.3193, 0.009780151, 0.017264757, -1481878.9, -59845.363, 0.00010392506, 9.997015, 10.001011 
1.2348867e+3, 1.6489543e+2, -1644791.6, -1398176.3, -5538.037, -0.019532833, 0.019252526, -1398052.0, -74026.03, 0.0000017603737, 9.997428, 10.000711 
1.23491615e+3, 1.748962e+2, -1418994.6, -1232187.8, 13570.07, 0.013688563, 0.008840708, -1231207.1, -5187.7603, 0.0, 9.998274, 10.000772 
1.2349449e+3, 1.848967e+2, -1296436.8, -1208241.5, -21896.03, 0.026733031, 0.028097283, -1203104.6, -75089.47, 0.0, 9.998818, 10.000001 
1.23497315e+3, 1.948968e+2, -1156260.5, -1080095.6, -26354.773, 0.014830256, 0.024547994, -1071865.6, -41850.93, 0.0, 9.999066, 10.000085 
1.2350012e+3, 2.0489648e+2, -1112723.1, -1125102.8, -46657.35, 0.004648437, 0.042336717, -1071846.8, -139826.44, 0.0, 9.999192, 9.999043 
1.2350294e+3, 2.1489565e+2, -1015718.44, -1023597.25, -33522.676, 0.0013000591, 0.04027581, -985904.5, -151871.42, 0.0, 9.999164, 9.9990835 
1.2350575e+3, 2.2489512e+2, -829389.94, -868805.4, 3214.383, -0.051239017, 0.080521196, -829129.5, -93089.63, 0.0, 9.999715, 9.999206 
1.2350854e+3, 2.3489474e+2, -551518.3, -678167.0, 29551.932, -0.15834947, 0.10651677, -544962.1, 93079.92, 0.0, 10.000922, 9.999262 
1.2351139e+3, 2.4489354e+2, -436961.28, -719919.44, -36132.6, -0.13328138, 0.13367714, -432420.2, 107633.734, 0.0, 10.001668, 9.997944 
1.2351431e+3, 2.5489143e+2, -290201.75, -589373.1, -40850.793, 0.042072948, 0.110115215, -284724.03, 157352.6, 0.0, 10.001965, 9.998024 
1.2351705e+3, 2.648892e+2, -122399.64, -460063.6, 13012.79, -0.029602837, 0.09714651, -121898.9, 222197.7, 0.00000016286783, 10.002472, 9.997989 
1.23519614e+3, 2.748869e+2, 94790.06, -298672.38, 29397.912, -0.37225547, 0.04952264, 96974.43, 343089.1, 0.000006622681, 10.003265, 9.998039 
1.2352258e+3, 2.84885e+2, 182270.78, -298009.72, 42474.17, -0.33246404, 0.10178383, 185998.11, 334129.75, 0.0000487502, 10.003579, 9.997223 
1.2352596e+3, 2.9488325e+2, 261298.6, -201508.81, 75894.53, 0.12717785, 0.18759519, 273426.53, 323576.66, 0.00018150224, 10.00341, 9.997297 
1.23528995e+3, 3.0487892e+2, 359002.25, -118180.31, 90356.42, 0.15376787, 0.027509287, 375538.53, 375538.53, 0.00045009196, 10.003705, 9.997397 
1.2353148e+3, 3.148766e+2, 512454.06, 73980.93, -9093.718, -0.39650697, 0.03475126, 512642.6, 512642.6, 0.0008444073, 10.004223, 9.998464 
1.2447665e+3, 1.2486287e+2, -2408006.3, -2080660.3, -210096.9, 0.016346676, -0.07805386, -1978007.1, -261676.02, 0.003475539, 9.995377, 9.999698 
1.24479696e+3, 1.3486283e+2, -2008919.8, -1854057.4, -6292.8516, 0.1501327, -0.047532257, -1853802.0, -235461.19, 0.0019075654, 9.99748, 9.999598 
1.244826e+3, 1.448631e+2, -1676615.6, -1487962.4, 25490.553, 0.012610414, -0.042829856, -1484578.8, 35763.297, 0.0007030745, 9.998433, 10.000962 
1.2448558e+3, 1.5486425e+2, -1580115.0, -1382555.1, -29566.482, 0.035928715, -0.03917834, -1378225.1, 44104.094, 0.00011956255, 9.998397, 10.001025 
1.2448851e+3, 1.648655e+2, -1532645.3, -1355757.4, -49618.656, 0.043268662, 0.011600665, -1342789.5, -18471.945, 0.0000023468863, 9.998246, 10.000609 
1.24491446e+3, 1.7486686e+2, -1474583.9, -1268165.1, -71735.21, 0.043811627, 0.07115175, -1245684.0, -19376.7, 0.0, 9.997942, 10.000679 
1.2449434e+3, 1.8486731e+2, -1397083.8, -1276415.5, -90258.35, 0.029955296, 0.09851338, -1228182.8, -99877.93, 0.0, 9.998206, 9.9998255 
1.24497205e+3, 1.9486663e+2, -1166939.9, -1107616.5, -94674.96, 0.0032696298, 0.03224385, -1038065.5, -7752.924, 0.0, 9.999078, 9.999894 
1.2450006e+3, 2.048663e+2, -1018416.25, -1040386.4, -101132.984, 0.007166442, 0.041906968, -927673.5, 4644.261, 0.0, 9.999662, 9.999401 
1.2450293e+3, 2.1486628e+2, -876606.75, -910613.2, -84465.72, 0.046388946, 0.08431403, -807449.9, 26870.873, 0.0, 9.999924, 9.999491 
1.2450576e+3, 2.2486594e+2, -753093.7, -807529.8, -13962.587, -0.017788172, 0.10993432, -749721.3, -13397.136, 0.0, 10.000133, 9.999425 
1.2450856e+3, 2.3486498e+2, -629669.8, -688770.06, -21457.395, -0.18785629, 0.056262262, -622701.0, 15629.311, 0.0, 10.00027, 9.9995 
1.24511465e+3, 2.4486351e+2, -559509.7, -782943.0, -72214.49, -0.17359279, 0.045531362, -538201.75, 2142.7827, 0.0, 10.000846, 9.997906 
1.2451449e+3, 2.548614e+2, -308590.7, -602311.6, -73297.414, 0.03738321, 0.03187609, -291315.53, 151052.27, 0.0, 10.001863, 9.997981 
1.2451734e+3, 2.6485968e+2, -124130.516, -474418.75, -15996.131, 0.013544253, 0.0715028, -123401.555, 220983.39, 0.000000050542315, 10.00251, 9.997872 
1.2452002e+3, 2.7485818e+2, 13462.828, -353011.97, -39736.32, -0.2624662, 0.121330276, 17721.88, 264118.72, 0.0000061370592, 10.00276, 9.997914 
1.24522984e+3, 2.848561e+2, 120728.11, -297917.9, -52445.29, -0.2485043, 0.15084603, 127198.13, 275612.97, 0.000049450737, 10.003034, 9.997486 
1.2452625e+3, 2.9485303e+2, 266010.8, -169749.47, -59547.55, 0.07784264, 0.07970897, 274001.56, 324444.4, 0.00018681613, 10.003322, 9.997556 
1.2452931e+3, 3.048484e+2, 307199.22, -237098.19, 1270.8914, 0.111529, -0.08240043, 307202.2, 307202.2, 0.00046223766, 10.003745, 9.996563 
1.2453203e+3, 3.148467e+2, 489309.5, 18800.857, -77269.23, -0.26020586, 0.07025078, 501674.1, 501674.1, 0.0008612822, 10.004255, 9.998068 
1.2547608e+3, 1.2483247e+2, -2303034.0, -1868643.0, -95991.91, -0.12541021, 0.023593238, -1848376.3, -131742.23, 0.0037739007, 9.995392, 10.001145 
1.2547967e+3, 1.3483182e+2, -1914319.4, -1674195.0, 75787.65, 0.3632599, -0.13354668, -1652275.9, -33633.836, 0.0020822603, 9.997534, 10.0008135 
1.2548251e+3, 1.448317e+2, -1695244.9, -1540374.3, 16928.451, 0.068777256, -0.20935468, -1538545.4, -17900.984, 0.0007764397, 9.998495, 10.000569 
1.2548542e+3, 1.5483339e+2, -1599962.6, -1439415.9, -23706.482, 0.022615984, -0.111305155, -1435988.5, -13359.521, 0.00013646827, 9.998456, 10.00061 
1.2548833e+3, 1.6483481e+2, -1567239.9, -1431801.1, -69138.18, 0.020025948, 0.0041750865, -1402742.4, -78124.14, 0.0000030208696, 9.998267, 10.000075 
1.2549126e+3, 1.7483595e+2, -1509430.6, -1345667.1, -79443.6, 0.058362853, 0.09651315, -1313461.6, -86849.26, 0.0, 9.997958, 10.000142 
1.2549421e+3, 1.848363e+2, -1392761.4, -1268462.1, -66587.76, 0.07258371, 0.13747406, -1239526.6, -110913.73, 0.0, 9.998211, 9.999878 
1.2549719e+3, 1.9483565e+2, -1165207.8, -1101194.1, -56595.21, 0.07616996, 0.068367854, -1068182.0, -37560.367, 0.0, 9.999062, 9.999947 
1.2550007e+3, 2.0483595e+2, -985270.9, -956156.4, -98786.51, 0.037933685, 0.10959935, -870860.25, 61759.48, 0.0, 9.9995985, 10.000011 
1.2550282e+3, 2.1483725e+2, -844013.94, -826975.1, -68726.016, -0.05464744, 0.22181663, -766242.5, 68364.27, 0.0, 9.999853, 10.000102 
1.2550567e+3, 2.2483687e+2, -767311.5, -816859.44, -17181.965, -0.12145074, 0.21640615, -761936.3, -25327.85, 0.0, 10.000045, 9.999403 
1.2550864e+3, 2.348346e+2, -640471.3, -697732.44, -10774.377, -0.14812708, 0.033185206, -638511.06, 115.82171, 0.0, 10.000204, 9.999475 
1.2551159e+3, 2.4483292e+2, -559091.9, -759403.7, -42352.42, -0.15079105, -0.00903948, -550505.25, -9862.978, 0.0, 10.000749, 9.998114 
1.255145e+3, 2.548317e+2, -308831.84, -584147.75, -27789.277, -0.13351095, 0.04600022, -306054.94, 136600.9, 0.0, 10.001779, 9.998147 
1.2551755e+3, 2.6482996e+2, -172626.64, -551191.5, -12909.753, -0.043611478, 0.101163246, -172186.89, 172486.83, 0.00000007625481, 10.002409, 9.997393 
1.255207e+3, 2.7482763e+2, -31529.096, -426105.8, -21590.816, 0.12754664, 0.11415742, -30351.186, 216344.95, 0.0000061507535, 10.002674, 9.997453 
1.2552363e+3, 2.8482464e+2, 109234.65, -312664.0, -46758.26, 0.085737504, 0.08046756, 114354.65, 263077.75, 0.000051587293, 10.002987, 9.997409 
1.2552632e+3, 2.9482052e+2, 254651.67, -186648.92, -37792.867, -0.18224356, -0.092571914, 257864.86, 308624.03, 0.0001993085, 10.003285, 9.997459 
1.2552944e+3, 3.0481598e+2, 282021.1, -278832.97, 16590.12, -0.14916891, -0.22719629, 282511.4, 282511.4, 0.0004947019, 10.003699, 9.996296 
1.2553287e+3, 3.1481487e+2, 479360.38, 24510.852, -40828.785, 0.11837659, 0.011066293, 482996.22, 482996.22, 0.0009161399, 10.004141, 9.998164 
1.2647572e+3, 1.2480053e+2, -1896130.6, -1639019.8, 47498.617, -0.13140035, -0.044877995, -1630525.5, 86421.46, 0.004085261, 9.998042, 10.001444 
1.2647946e+3, 1.3480075e+2, -1989252.9, -1695041.0, 9324.46, 0.43460706, -0.12019192, -1694745.8, -75799.37, 0.0022650692, 9.996981, 10.000918 
1.2648225e+3, 1.4480096e+2, -1969990.5, -1684600.9, -72651.21, 0.04262007, -0.16314806, -1667170.8, -146224.47, 0.00085386867, 9.996661, 10.000464 
1.264852e+3, 1.5480268e+2, -1753319.3, -1518248.3, -102706.086, 0.013061767, -0.053188644, -1479696.9, -56764.64, 0.00015477135, 9.997439, 10.000551 
1.2648815e+3, 1.6480377e+2, -1601763.1, -1467719.6, -112954.99, 0.025451757, 0.04320813, -1403399.3, -78474.36, 0.0000038088367, 9.99811, 9.999904 
1.2649108e+3, 1.748042e+2, -1403210.9, -1310788.6, -107095.48, 0.053612553, 0.0784184, -1240359.6, -13434.308, 0.0, 9.998761, 9.999992 
1.2649406e+3, 1.8480454e+2, -1282232.5, -1202838.9, -62211.707, 0.07831864, 0.122105874, -1168737.8, -39812.17, 0.0, 9.998918, 9.999989 
1.2649709e+3, 1.9480468e+2, -1237040.6, -1119337.5, -61506.332, 0.113031566, 0.12092745, -1093062.5, -62135.426, 0.0, 9.998512, 10.000081 
1.2650003e+3, 2.048051e+2, -1096230.5, -996237.3, -91742.7, 0.077017374, 0.15984558, -941752.4, -8829.264, 0.0, 9.998785, 10.000123 
1.2650281e+3, 2.1480566e+2, -853577.06, -820527.75, -113411.69, -0.04487521, 0.18820532, -722443.2, 112471.62, 0.0, 9.999742, 10.0001955 
1.265057e+3, 2.248051e+2, -738567.9, -823078.9, -88570.445, -0.10497469, 0.16875805, -682689.5, 54228.688, 0.0, 10.000324, 9.999229 
1.2650871e+3, 2.3480333e+2, -616126.6, -703720.7, -107451.555, -0.08933695, 0.055444606, -543889.1, 95045.09, 0.0, 10.000457, 9.9993105 
1.2651172e+3, 2.4480207e+2, -517931.75, -673143.8, -97292.45, -0.08249047, 0.03631292, -471084.9, 69860.13, 0.0, 10.000744, 9.998706 
1.265147e+3, 2.5480115e+2, -351030.56, -536403.56, -67198.61, -0.08618523, 0.058895886, -329233.72, 113718.81, 0.0, 10.001194, 9.998754 
1.265178e+3, 2.647992e+2, -233586.33, -594700.5, -9367.2705, 0.004369034, 0.067732014, -233343.52, 111627.63, 0.00000015326442, 10.002044, 9.997275 
1.2652105e+3, 2.7479604e+2, 43452.684, -403777.9, -9258.415, 0.19412942, 0.013319708, 43644.266, 290646.53, 0.0000068361555, 10.003242, 9.997335 
1.2652402e+3, 2.8479308e+2, 201008.53, -293450.88, -39135.66, 0.1530843, 0.00077171804, 204086.89, 353117.16, 0.00005543398, 10.00373, 9.997178 
1.2652673e+3, 2.9479006e+2, 278516.5, -201206.52, -60626.965, -0.12873754, -0.039745126, 286059.88, 337117.94, 0.00021874357, 10.003571, 9.997214 
1.2652987e+3, 3.0478585e+2, 359185.2, -225060.66, 46338.594, -0.09104473, -0.1342877, 362837.63, 362837.63, 0.0005474126, 10.004163, 9.996441 
1.2653345e+3, 3.1478307e+2, 686699.3, 166094.05, -15812.331, 0.23531312, -0.080031134, 687179.1, 687179.1, 0.0010133554, 10.005388, 9.998537 
1.2747562e+3, 1.24767356e+2, -1945714.9, -1766310.0, 110842.34, -0.07185647, -0.26888776, -1713420.1, 3845.855, 0.0044096503, 9.998151, 10.000512 
1.2747903e+3, 1.347697e+2, -2073847.0, -1876760.9, -35866.53, 0.295531, -0.0065726694, -1870436.8, -251183.52, 0.0024558255, 9.996997, 9.999671 
1.2748174e+3, 1.44771e+2, -1954760.6, -1649760.1, -54939.11, -0.14533529, 0.10748093, -1640165.9, -118918.625, 0.00093550276, 9.996652, 10.000705 
1.2748489e+3, 1.5477215e+2, -1737325.6, -1488280.4, -66951.74, -0.047084153, 0.1371321, -1471422.6, -48183.76, 0.00017466526, 9.997445, 10.000758 
1.2748796e+3, 1.6477236e+2, -1575943.9, -1423048.8, -96796.625, 0.0009106286, 0.12100338, -1376152.0, -50913.664, 0.0000047674703, 9.998144, 10.000195 
1.274909e+3, 1.7477158e+2, -1376447.9, -1266758.9, -77798.53, -0.029402616, 0.006795604, -1226416.5, 829.8843, 0.0, 9.998802, 10.000279 
1.2749387e+3, 1.8477204e+2, -1268921.5, -1178625.8, -82882.984, -0.016495766, 0.039649196, -1129391.9, -148.7763, 0.0, 9.998933, 10.000146 
1.274969e+3, 1.9477384e+2, -1225979.8, -1098362.1, -70613.414, 0.056034535, 0.18728192, -1066998.4, -35770.44, 0.0, 9.998514, 10.000227 
1.274999e+3, 2.0477378e+2, -1132661.3, -1059242.6, -65398.695, 0.06824013, 0.19418289, -1020954.8, -87727.516, 0.0, 9.998731, 9.999717 
1.2750286e+3, 2.1477163e+2, -894248.4, -884137.0, -72138.26, 0.017620385, -0.0103509575, -816877.5, 18366.533, 0.0, 9.999651, 9.999803 
1.2750582e+3, 2.2477072e+2, -775322.25, -873823.8, -89781.5, -0.026510397, -0.029549316, -722170.1, 15082.329, 0.0, 10.000217, 9.998931 
1.275088e+3, 2.3477119e+2, -649643.94, -756687.8, -93897.016, -0.064389735, 0.11080808, -595086.06, 44166.14, 0.0, 10.000381, 9.998983 
1.2751186e+3, 2.4477094e+2, -468367.94, -548878.25, -88135.664, -0.022174805, 0.16739166, -411729.47, 129523.96, 0.0, 10.000655, 9.999601 
1.2751502e+3, 2.5476983e+2, -292227.94, -398951.53, -44850.438, 0.10890014, 0.073024146, -275882.9, 167374.34, 0.0, 10.001128, 9.999728 
1.275181e+3, 2.647675e+2, -227096.84, -566763.6, 26465.729, 0.09306172, -0.017586425, -225047.1, 120229.06, 0.00000020123079, 10.001979, 9.9974985 
1.275211e+3, 2.7476364e+2, 40734.7, -386060.2, 42831.293, -0.0919524, -0.1642638, 44990.625, 292304.22, 0.0000077157165, 10.003143, 9.997503 
1.2752417e+3, 2.8476155e+2, 157606.36, -364819.2, -55251.78, -0.08571714, -0.075922646, 163385.84, 312721.8, 0.000060402712, 10.003648, 9.996725 
1.2752736e+3, 2.947613e+2, 240141.05, -268818.4, -57896.316, 0.14140128, 0.20429268, 246643.92, 297986.66, 0.00024154171, 10.00352, 9.996773 
1.2753059e+3, 3.0475765e+2, 384221.56, -168515.03, 85917.94, 0.19815636, 0.17279403, 397268.75, 397268.75, 0.00061043893, 10.00414, 9.996842 
1.2753378e+3, 3.1475142e+2, 698510.3, 231068.88, 42272.234, 0.011436182, -0.17027809, 702302.3, 702302.3, 0.0011366727, 10.005227, 9.999056 
1.2847553e+3, 1.2473474e+2, -2018912.3, -1771529.8, 40799.688, 0.071316, -0.24413808, -1764974.5, -47384.777, 0.0047468157, 9.997501, 10.000803 
1.2847863e+3, 1.3473766e+2, -2075563.8, -1840435.0, -113137.69, 0.22280264, 0.049486794, -1794838.4, -175268.1, 0.0026545508, 9.996838, 9.99999 
1.284814e+3, 1.4473942e+2, -1903088.8, -1592814.9, 18573.465, -0.14445727, 0.179496, -1591707.0, -70148.4, 0.0010215283, 9.99687, 10.00099 
1.2848464e+3, 1.5474021e+2, -1623809.5, -1395735.5, 93.58223, -0.057210974, 0.14441657, -1395735.5, 27817.111, 0.00019628371, 9.998073, 10.001082 
1.2848778e+3, 1.6474043e+2, -1504738.3, -1378881.1, -46887.777, 0.0070718806, 0.106137626, -1363333.8, -37782.355, 0.0000059623408, 9.9985895, 10.00029 
1.2849079e+3, 1.7474003e+2, -1446516.0, -1287483.5, -56144.85, 0.014913689, 0.022324247, -1269659.8, -42104.527, 0.0, 9.998274, 10.000392 
1.2849377e+3, 1.8474048e+2, -1349944.8, -1227796.5, -66987.375, 0.023817144, 0.05123624, -1198221.0, -68669.76, 0.0, 9.998421, 10.000057 
1.2849677e+3, 1.9474171e+2, -1137785.3, -1065248.6, -86354.01, 0.042781167, 0.15373328, -1007855.8, 23683.92, 0.0, 9.999166, 10.000139 
1.2849979e+3, 2.0474124e+2, -994581.06, -1034195.4, -54744.51, 0.047054525, 0.1394549, -956170.6, -22627.283, 0.0, 9.999854, 9.999349 
1.2850288e+3, 2.1473873e+2, -811162.9, -884562.44, -72440.78, 0.03814344, -0.061545037, -766655.9, 68909.04, 0.0, 10.000397, 9.99944 
1.2850589e+3, 2.2473776e+2, -740320.06, -855299.5, -100002.64, 0.013005499, -0.069174975, -682459.9, 55114.727, 0.0, 10.000453, 9.998944 
1.2850884e+3, 2.3473845e+2, -706884.56, -780273.6, -97121.71, -0.031489104, 0.09077434, -639756.6, -184.71349, 0.0, 9.999977, 9.999013 
1.2851194e+3, 2.4473819e+2, -482552.13, -579398.94, -51657.477, 0.0011344131, 0.15480267, -460170.72, 81402.73, 0.0, 10.000649, 9.999399 
1.2851521e+3, 2.5473684e+2, -101721.13, -332285.6, -104414.86, 0.1204255, 0.059833758, -61464.125, 382116.38, 0.0, 10.002541, 9.999512 
1.2851833e+3, 2.647346e+2, -42473.297, -447764.44, -101704.76, 0.07887442, -0.022664487, -18383.15, 327215.72, 0.00000014147287, 10.003123, 9.997759 
1.2852131e+3, 2.7473116e+2, -60613.1, -404522.63, -100571.23, -0.14373498, -0.1493909, -33361.91, 214269.42, 0.000007879153, 10.00232, 9.997769 
1.2852447e+3, 2.8472915e+2, 89482.69, -360440.3, -115786.5, -0.1186025, -0.08362287, 117531.445, 267183.4, 0.00006525831, 10.003021, 9.997062 
1.2852784e+3, 2.947285e+2, 521233.56, -97988.82, -83719.445, 0.18897964, 0.12531349, 532352.9, 584013.8, 0.00026775803, 10.005295, 9.997097 
1.285311e+3, 3.0472556e+2, 606148.94, -117596.78, 33561.02, 0.21125732, 0.17413205, 607701.9, 607701.9, 0.0006827198, 10.00592, 9.996328 
1.2853417e+3, 3.1471977e+2, 588701.25, 104130.85, -111288.05, -0.094596796, -0.06840234, 613037.8, 613037.8, 0.0012765976, 10.004781, 9.9984 
1.2947533e+3, 1.2470252e+2, -1902404.9, -1531588.0, 44594.82, 0.09876767, 0.021225518, -1526300.4, 191620.03, 0.0050962004, 9.997507, 10.002453 
1.2947828e+3, 1.3470455e+2, -1943059.6, -1565370.5, -138083.44, 0.16834733, 0.03422994, -1520272.0, 99626.23, 0.0028611089, 9.996838, 10.00188 
1.2948124e+3, 1.4470607e+2, -1869634.3, -1530765.5, 51453.363, -0.0036818858, 0.024722548, -1523125.3, -1243.3761, 0.00111182, 9.996901, 10.001401 
1.2948444e+3, 1.5470695e+2, -1590986.1, -1340100.5, 53169.14, -0.07595458, -0.038276363, -1329297.8, 94574.875, 0.000219555, 9.998115, 10.00145 
1.2948762e+3, 1.6470806e+2, -1504475.0, -1385217.6, -65512.367, -0.021311803, -0.005146385, -1356260.5, -30397.357, 0.0000074533, 9.998619, 10.00023 
1.2949075e+3, 1.7470966e+2, -1451381.4, -1303147.4, -64010.25, 0.13910887, 0.118573695, -1279332.5, -51481.625, 0.0, 9.998292, 10.000276 
1.2949374e+3, 1.8470994e+2, -1374433.4, -1279392.0, -46994.508, 0.15257813, 0.1541758, -1260079.3, -130230.17, 0.0, 9.998423, 9.999703 
1.2949666e+3, 1.9470842e+2, -1163238.0, -1118189.5, -51310.313, 0.021347642, 0.018809551, -1084677.3, -52815.41, 0.0, 9.999161, 9.999781 
1.2949969e+3, 2.047074e+2, -1026524.25, -1087364.5, -40274.53, -0.043966815, -0.01607934, -1006472.4, -72600.79, 0.0, 9.999801, 9.999008 
1.2950285e+3, 2.1470693e+2, -847759.44, -943198.06, -46481.168, -0.036147855, 0.020526193, -828863.25, 7014.837, 0.0, 10.000321, 9.999074 
1.2950589e+3, 2.247062e+2, -735551.75, -823808.0, -123782.516, -0.039359458, 0.04509287, -648266.8, 89618.164, 0.0, 10.000361, 9.999204 
1.2950882e+3, 2.347051e+2, -695356.4, -740387.75, -106785.71, -0.05178003, -0.002758339, -608738.44, 31154.813, 0.0, 9.999906, 9.999322 
1.2951194e+3, 2.4470387e+2, -582012.2, -762762.9, 10073.962, -0.07164515, 0.0047778143, -581452.44, -39547.777, 0.0, 10.000555, 9.998183 
1.2951525e+3, 2.5470236e+2, -207265.6, -525969.06, -24056.2, -0.09691568, 0.020992791, -205460.03, 238460.63, 0.0, 10.002436, 9.998229 
1.295185e+3, 2.6470062e+2, -39920.13, -426711.22, -134986.39, -0.087467395, 0.04863826, 2529.9585, 348467.56, 0.000000052302592, 10.003044, 9.997948 
1.2952165e+3, 2.7469867e+2, -47624.99, -366416.25, -120810.09, -0.044721566, 0.040930785, -7015.503, 240939.78, 0.000007172051, 10.002266, 9.998061 
1.2952487e+3, 2.84696e+2, 149954.56, -218768.83, -40718.61, -0.024928253, -0.022878064, 154397.63, 304375.16, 0.000069658236, 10.002947, 9.998072 
1.2952816e+3, 2.9469225e+2, 569180.94, 34541.81, 9392.35, -0.027603392, -0.22501013, 569345.9, 621353.44, 0.0002984911, 10.005153, 9.998076 
1.295314e+3, 3.0469012e+2, 487897.72, -331337.4, -15401.507, -0.087176606, -0.07855841, 488187.16, 488187.16, 0.0007671778, 10.005789, 9.994922 
1.2953456e+3, 3.146881e+2, 441278.28, -155809.44, -133618.92, -0.20191194, 0.19929081, 469816.13, 469816.13, 0.0014361946, 10.0046, 9.996691 
1.304751e+3, 1.24671094e+2, -2134087.8, -1610440.5, 242003.19, 0.22216596, 0.14482889, -1515729.1, 202503.98, 0.0054552136, 9.995775, 10.002747 
1.3047789e+3, 1.346721e+2, -1825463.4, -1448176.0, -62558.387, 0.085281014, 0.0049451455, -1438073.6, 182142.69, 0.003073975, 9.997389, 10.002417 
1.3048108e+3, 1.4467332e+2, -1745527.3, -1496805.1, 60017.297, 0.10639671, -0.05298938, -1483080.1, 39120.406, 0.0012055306, 9.997851, 10.001182 
1.3048422e+3, 1.5467428e+2, -1763677.9, -1450591.6, 2460.5151, -0.06178785, -0.08664355, -1450572.3, -26381.006, 0.000244213, 9.997049, 10.001205 
1.304874e+3, 1.646755e+2, -1702601.8, -1487383.9, -115740.016, -0.044156346, -0.023158034, -1436956.6, -110775.45, 0.000009295233, 9.9973, 10.000161 
1.304906e+3, 1.7467727e+2, -1373794.4, -1271962.5, -127262.05, 0.14691307, 0.12402875, -1185808.9, 42359.445, 0.0, 9.998863, 10.000211 
1.3049367e+3, 1.8467732e+2, -1198113.3, -1198610.4, -96316.47, 0.1832239, 0.14481044, -1102045.0, 28123.39, 0.0, 9.999648, 9.999666 
1.3049664e+3, 1.9467528e+2, -1118951.1, -1099305.5, -91926.66, 0.05093812, -0.04194906, -1016678.4, 15506.664, 0.0, 9.99948, 9.999752 
1.3049968e+3, 2.0467442e+2, -1057826.1, -1113210.5, -37407.156, -0.017956091, -0.05132171, -1038976.4, -104782.98, 0.0, 9.999637, 9.998909 
1.3050288e+3, 2.14675e+2, -874122.75, -963664.8, -36056.6, -0.015243381, 0.0977657, -861408.8, -25216.635, 0.0, 10.000187, 9.998995 
1.3050596e+3, 2.2467427e+2, -648569.5, -797604.94, -111053.695, -0.019940812, 0.13298689, -589349.4, 148849.73, 0.0, 10.00102, 9.999065 
1.3050893e+3, 2.3467197e+2, -383398.2, -605670.9, -141256.97, -0.0321698, -0.02209664, -314799.13, 325417.5, 0.0, 10.002113, 9.999182 
1.305121e+3, 2.4466999e+2, -356629.4, -722043.7, 3590.003, -0.054926958, -0.052602045, -356594.13, 185641.1, 0.0, 10.002395, 9.997577 
1.3051547e+3, 2.5466824e+2, -344394.4, -663066.8, 809.145, -0.08485348, 0.0032494774, -344392.34, 99863.96, 0.0, 10.001791, 9.9976015 
1.3051878e+3, 2.646666e+2, -187735.2, -508425.38, -92535.77, -0.057267882, 0.07806648, -162949.48, 183324.4, 0.000000026393016, 10.002083, 9.997847 
1.30522e+3, 2.7466497e+2, 116678.14, -300530.3, -121222.53, 0.023638265, 0.114844754, 149342.69, 397631.25, 0.0000066700077, 10.003448, 9.997949 
1.3052525e+3, 2.8466195e+2, 276221.16, -172486.13, -59708.14, 0.015823016, 0.024875134, 284030.44, 434344.72, 0.00007501981, 10.0038805, 9.997937 
1.3052851e+3, 2.9465723e+2, 296605.75, -110367.01, -109095.94, -0.086784974, -0.26141426, 324006.0, 376359.03, 0.00033195864, 10.003337, 9.997952 
1.305318e+3, 3.0465513e+2, 237391.31, -415573.38, -112395.04, -0.1601082, -0.12182674, 256196.33, 256196.33, 0.0008583893, 10.003882, 9.995276 
1.3053513e+3, 3.1465346e+2, 584700.2, -92406.71, -136701.84, -0.13440597, 0.16198793, 611257.44, 611257.44, 0.0016110298, 10.005578, 9.996676 
1.3147466e+3, 1.246403e+2, -2211597.5, -1775106.9, 211798.38, 0.16108204, 0.06779575, -1689231.3, 29296.668, 0.005819013, 9.995782, 10.001614 
1.3147748e+3, 1.3464054e+2, -1891883.4, -1594229.4, 8584.548, -0.07988628, -0.04288798, -1593982.0, 26539.91, 0.0032902497, 9.997419, 10.0014 
1.3148089e+3, 1.4464141e+2, -1798714.9, -1614229.3, 22196.854, 0.11511376, -0.047180034, -1611596.1, -89083.27, 0.0013013786, 9.997888, 10.000357 
1.3148393e+3, 1.5464231e+2, -1828143.8, -1583171.1, -24556.232, -0.06801688, 0.0060751354, -1580733.9, -156226.88, 0.00026992275, 9.997044, 10.000299 
1.3148706e+3, 1.6464283e+2, -1711155.0, -1506610.1, -67892.74, -0.11069052, 0.04980601, -1486126.4, -159621.33, 0.00001153221, 9.997298, 10.000034 
1.3149033e+3, 1.7464282e+2, -1373064.8, -1280030.9, -61806.082, -0.012737856, 0.029343339, -1249192.6, -20684.828, 0.0, 9.998893, 10.000145 
1.3149352e+3, 1.8464266e+2, -1180506.4, -1161540.1, -108240.0, 0.05190371, 0.016837746, -1062368.6, 68140.7, 0.0, 9.999648, 9.99992 
1.3149661e+3, 1.9464222e+2, -1102143.3, -1063621.6, -94202.57, 0.07777756, -0.035076573, -986731.0, 45778.945, 0.0, 9.999473, 10.000004 
1.3149974e+3, 2.0464231e+2, -1052139.3, -1089988.3, -25727.94, 0.07363482, 0.027254166, -1039125.3, -104616.234, 0.0, 9.999587, 9.999092 
1.3150297e+3, 2.1464291e+2, -872562.75, -945621.6, -8408.203, 0.044103753, 0.1642696, -871607.56, -35100.156, 0.0, 10.000114, 9.999157 
1.315061e+3, 2.2464195e+2, -700290.4, -878544.4, -77017.25, 0.007140063, 0.19092819, -671624.0, 66893.17, 0.0, 10.000911, 9.998562 
1.3150916e+3, 2.3463908e+2, -435569.78, -693266.9, -91911.84, -0.034741897, 0.032773476, -406147.25, 234394.02, 0.0, 10.002026, 9.998624 
1.3151237e+3, 2.4463658e+2, -373398.84, -738156.4, -24497.682, -0.0142066525, -0.015877856, -371760.9, 170803.84, 0.0, 10.002312, 9.997508 
1.3151582e+3, 2.5463456e+2, -357251.72, -671944.44, -14242.609, 0.08432608, 0.017201036, -356608.44, 87978.3, 0.0, 10.001713, 9.997579 
1.3151914e+3, 2.6463258e+2, -228326.34, -574000.75, -51114.957, 0.09586573, 0.07520949, -220926.38, 125681.234, 0.000000066602475, 10.002, 9.997437 
1.3152233e+3, 2.746303e+2, 69202.26, -370846.75, -58579.37, 0.0028933717, 0.09033746, 76866.85, 325496.56, 0.0000067822207, 10.003337, 9.997513 
1.3152558e+3, 2.8462717e+2, 186004.94, -352495.2, -81775.02, -0.05092523, 0.07408584, 198149.17, 348808.97, 0.00008157081, 10.003832, 9.996734 
1.3152888e+3, 2.9462317e+2, 203357.39, -289029.0, -113267.27, -0.06572622, -0.021431291, 228163.39, 280861.03, 0.0003645955, 10.003262, 9.996769 
1.3153225e+3, 3.0462044e+2, 354905.16, -147521.61, -51721.176, -0.09725435, 0.024680968, 360174.22, 360174.22, 0.0009459137, 10.003791, 9.997155 
1.315358e+3, 3.1461656e+2, 647761.44, 108257.52, -49366.426, -0.04549436, -0.11109605, 652241.44, 652241.44, 0.0017802252, 10.005308, 9.998176 
1.3247435e+3, 1.2460794e+2, -2025008.1, -1724484.1, 24432.107, 0.21730149, 0.030139642, -1722510.9, -3665.956, 0.006183249, 9.997214, 10.00128 
1.3247718e+3, 1.346087e+2, -1901936.3, -1630959.8, -50204.906, -0.10989705, 0.005981132, -1621957.1, -1122.277, 0.0035072896, 9.997511, 10.00109 
1.3248071e+3, 1.4460951e+2, -1838075.9, -1678221.0, -27809.285, 0.16113137, 0.030339675, -1673521.3, -150693.92, 0.0013982238, 9.997815, 9.99995 
1.3248372e+3, 1.5460958e+2, -1687518.3, -1563583.5, -53871.28, -0.019469896, 0.04131145, -1543440.8, -118610.35, 0.00029637254, 9.998216, 9.99987 
1.3248686e+3, 1.6460958e+2, -1548069.3, -1428225.4, -21888.572, -0.07937433, 0.05961952, -1424352.6, -97519.69, 0.000014169166, 9.99842, 10.000026 
1.3249017e+3, 1.7460956e+2, -1450437.8, -1317612.5, -23132.486, -0.025613612, 0.03418666, -1313699.1, -84863.93, 0.0, 9.998369, 10.000134 
1.3249342e+3, 1.8460956e+2, -1313185.8, -1228980.3, -78051.836, 0.030166468, 0.042591013, -1182399.8, -51564.758, 0.0, 9.998757, 9.999883 
1.3249657e+3, 1.9460955e+2, -1068144.6, -1051015.4, -101112.64, 0.08753443, 0.038005497, -958105.3, 74727.45, 0.0, 9.99973, 9.999961 
1.3249975e+3, 2.046094e+2, -956899.4, -1035133.44, -44045.484, 0.095420174, 0.0720244, -937108.44, -2274.8997, 0.0, 10.000196, 9.999177 
1.3250297e+3, 2.1460895e+2, -880168.94, -939326.4, -48223.035, 0.048837338, 0.096922435, -853175.94, -16337.514, 0.0, 10.000018, 9.999248 
1.3250618e+3, 2.2460766e+2, -773797.8, -977667.7, -64098.4, 0.012545011, 0.115043126, -755319.56, -16468.39, 0.0, 10.000692, 9.997983 
1.3250938e+3, 2.3460533e+2, -419525.66, -747716.75, -96552.76, -0.00993742, 0.06921395, -393227.44, 247646.55, 0.0, 10.002419, 9.998054 
1.3251269e+3, 2.44603e+2, -238435.25, -665041.25, -79066.46, 0.037505735, 0.0644707, -224252.7, 318644.47, 0.0, 10.0032, 9.997583 
1.3251612e+3, 2.546007e+2, -185687.44, -576091.25, -75721.01, 0.16302645, 0.059426017, -171515.39, 273405.28, 0.0, 10.002838, 9.997693 
1.3251942e+3, 2.645985e+2, -119472.484, -529748.5, -35698.863, 0.14977185, 0.09204252, -116389.43, 230553.58, 0.0000000978673, 10.002787, 9.997363 
1.3252261e+3, 2.74596e+2, 32375.668, -397759.78, -34217.844, -0.02985316, 0.094570756, 35080.73, 284047.7, 0.000006920427, 10.003118, 9.99744 
1.325259e+3, 2.8459296e+2, 96935.81, -429283.28, -32662.39, -0.0713358, 0.10664216, 98955.414, 249952.58, 0.00008668865, 10.003381, 9.996416 
1.3252932e+3, 2.945894e+2, 250287.11, -301082.1, -25070.313, 0.035933565, 0.08777409, 251424.69, 304458.2, 0.00038909205, 10.003736, 9.996454 
1.3253273e+3, 3.045865e+2, 445407.6, -25806.887, 86643.24, -0.010617654, 0.09617122, 460833.88, 460833.88, 0.0010147927, 10.004089, 9.997844 
1.3253622e+3, 3.145824e+2, 544125.4, 96798.93, -25890.19, -0.08338525, -0.12689756, 545618.9, 545618.9, 0.0019148608, 10.004406, 9.998541 
1.3347407e+3, 1.24574125e+2, -1970274.3, -1629842.9, -67294.06, 0.19004624, 0.04595583, -1617023.4, 102160.28, 0.0065457188, 9.997297, 10.001893 
1.3347702e+3, 1.345767e+2, -1871201.0, -1570320.4, -39716.406, -0.040228207, 0.16064687, -1565166.0, 55988.52, 0.0037237175, 9.997524, 10.001501 
1.3348053e+3, 1.4457758e+2, -1829240.1, -1662617.4, -20090.277, 0.18715362, 0.16950184, -1660229.3, -137084.78, 0.0014951822, 9.997821, 10.000058 
1.334836e+3, 1.5457605e+2, -1670892.4, -1543070.0, -29031.145, 0.030595304, 0.009278715, -1536785.5, -111624.38, 0.00032323142, 9.998265, 9.999991 
1.334868e+3, 1.645759e+2, -1543384.6, -1422526.6, -31108.654, -0.005418454, 0.0020237784, -1414989.4, -87825.35, 0.000017128494, 9.998437, 10.000058 
1.3349012e+3, 1.7457753e+2, -1446471.3, -1311424.0, -19847.998, 0.061645806, 0.13989969, -1308567.4, -79418.05, 0.00000000003443261, 9.998377, 10.000174 
1.3349335e+3, 1.8457812e+2, -1336089.3, -1279751.4, -50750.02, 0.0677688, 0.22214934, -1249876.8, -118732.29, 0.0, 9.998767, 9.999532 
1.334965e+3, 1.9457732e+2, -1093796.0, -1104045.8, -58065.344, 0.02738033, 0.17284425, -1040629.8, -7476.506, 0.0, 9.999721, 9.999604 
1.3349967e+3, 2.0457575e+2, -967675.1, -1043083.56, -58084.613, -0.010195451, 0.08510055, -936130.3, -964.0582, 0.0, 10.000135, 9.999152 
1.3350287e+3, 2.1457319e+2, -894010.7, -950810.7, -49763.563, -0.050166693, -0.09949543, -865113.5, -27928.986, 0.0, 9.999938, 9.999212 
1.3350618e+3, 2.2457142e+2, -829021.0, -1073778.8, -7649.351, -0.058785517, -0.09785939, -828782.1, -89581.0, 0.0, 10.0006075, 9.997366 
1.3350964e+3, 2.3457064e+2, -477493.78, -849621.1, -23001.883, -0.017450372, 0.077004954, -476077.38, 165138.11, 0.0, 10.002332, 9.9974 
1.3351302e+3, 2.4456914e+2, -238110.58, -639956.56, -96992.0, 0.03166663, 0.17797694, -215924.86, 327308.88, 0.0, 10.003096, 9.997804 
1.3351633e+3, 2.545667e+2, -179225.4, -546804.25, -83291.86, 0.093113035, 0.13522734, -161232.55, 284024.9, 0.0, 10.00277, 9.997926 
1.335196e+3, 2.6456437e+2, -111731.875, -505376.53, -31790.559, 0.047915004, 0.13564482, -109181.016, 238098.63, 0.00000008871969, 10.002744, 9.997554 
1.3352282e+3, 2.7456197e+2, 33686.16, -373694.66, -13376.304, -0.12828355, 0.12479447, 34124.895, 283425.94, 0.000006673535, 10.003025, 9.99765 
1.335262e+3, 2.845592e+2, 115081.95, -374664.5, -32098.908, -0.111959614, 0.13130298, 117176.82, 268504.66, 0.00008850924, 10.003302, 9.996832 
1.3352981e+3, 2.9455593e+2, 258029.81, -248113.63, -3856.975, 0.14658828, 0.1018924, 258059.2, 311419.97, 0.00040084837, 10.003579, 9.996895 
1.3353318e+3, 3.045533e+2, 405243.3, -77077.75, 96005.414, 0.031088172, 0.12604137, 423650.6, 423650.6, 0.0010550235, 10.003954, 9.997553 
1.3353643e+3, 3.1455067e+2, 466011.34, -4071.179, 12003.411, -0.3351668, 0.079969876, 466317.66, 466317.66, 0.0019988737, 10.004155, 9.997962 
1.344738e+3, 1.2454102e+2, -1965658.8, -1625789.5, -51918.668, 0.20926736, 0.10508762, -1618035.3, 101474.96, 0.0069055543, 9.997326, 10.001899 
1.3447689e+3, 1.3454296e+2, -1831726.9, -1569636.1, -42942.582, 0.06231527, 0.16916117, -1562779.5, 58707.91, 0.0039389143, 9.997877, 10.001336 
1.3448033e+3, 1.445436e+2, -1773102.0, -1619709.1, -36504.438, 0.18690494, 0.15759388, -1611464.9, -87985.54, 0.0015916337, 9.998147, 10.000189 
1.3448346e+3, 1.5454258e+2, -1640312.4, -1508592.4, -59219.715, 0.06340569, 0.032995768, -1485883.1, -60392.72, 0.0003501717, 9.998413, 10.000145 
1.344867e+3, 1.6454251e+2, -1500284.9, -1414990.6, -55483.758, 0.045422282, 0.032398395, -1387657.6, -60166.06, 0.000020254476, 9.998793, 9.99994 
1.3449003e+3, 1.7454359e+2, -1326446.9, -1268506.9, -71509.88, 0.09713559, 0.1306804, -1220321.6, 9158.958, 0.0000000014653116, 9.999269, 10.00004 
1.3449328e+3, 1.8454386e+2, -1251001.5, -1289512.9, -89409.09, 0.08914486, 0.20848058, -1178798.1, -47318.35, 0.0, 9.999571, 9.999078 
1.3449647e+3, 1.9454302e+2, -1128760.4, -1174562.1, -120792.58, 0.026151005, 0.20380963, -1028717.0, 4775.075, 0.0, 9.999717, 9.999123 
1.3449971e+3, 2.0454136e+2, -912070.56, -1035361.6, -107821.24, -0.011548285, 0.1430382, -849516.25, 85990.7, 0.0, 10.000604, 9.998978 
1.34503e+3, 2.1453865e+2, -549275.06, -794851.6, -125029.82, -0.026187876, -0.04293782, -496822.34, 340703.03, 0.0, 10.002366, 9.999102 
1.3450637e+3, 2.2453663e+2, -527367.06, -932580.56, -75611.984, -0.024778554, -0.06124402, -513717.78, 225826.06, 0.0, 10.002686, 9.99734 
1.3450983e+3, 2.3453535e+2, -629068.6, -924372.7, -56055.848, 0.0025597892, 0.069536895, -618785.94, 22776.488, 0.0, 10.001292, 9.99739 
1.3451321e+3, 2.4453376e+2, -513330.1, -775360.4, -83825.016, 0.024837235, 0.16396792, -488808.75, 54772.926, 0.0, 10.001234, 9.997767 
1.3451655e+3, 2.5453168e+2, -177456.28, -547905.9, -104369.9, 0.038696278, 0.15782028, -150075.11, 295527.66, 0.0, 10.002806, 9.997899 
1.3451986e+3, 2.6452938e+2, -4886.901, -470662.06, -81719.46, -0.0013482895, 0.17547125, 9034.546, 356659.1, 0.000000062099474, 10.003557, 9.9973955 
1.3452315e+3, 2.745268e+2, 78214.07, -370225.5, -108152.3, -0.11033144, 0.15647323, 102934.9, 352583.38, 0.0000065347235, 10.003407, 9.997485 
1.3452655e+3, 2.8452396e+2, 105917.22, -337311.56, -130525.96, -0.08025012, 0.15046158, 141499.19, 293174.5, 0.00008965579, 10.003058, 9.997207 
1.3453007e+3, 2.9452097e+2, 137851.9, -253097.27, -127227.914, 0.11007623, 0.10625886, 175609.52, 229314.27, 0.0004062936, 10.002523, 9.997369 
1.3453344e+3, 3.045183e+2, 208871.44, -160410.38, 21500.848, -0.023413878, 0.09896892, 210119.08, 210119.08, 0.0010726983, 10.002528, 9.997681 
1.3453685e+3, 3.1451696e+2, 329892.63, -54108.375, -49566.58, -0.27693176, 0.17390619, 336187.47, 336187.47, 0.00203618, 10.003146, 9.9981 
1.3547361e+3, 1.245085e+2, -2017475.1, -1728760.4, -27207.24, 0.25501037, 0.16469376, -1726218.8, -6393.4727, 0.0072628423, 9.997324, 10.001185 
1.3547675e+3, 1.3450743e+2, -1882255.5, -1676949.1, -20248.59, 0.14342317, 0.00057304784, -1674971.1, -53137.043, 0.004152666, 9.997896, 10.000587 
1.3548005e+3, 1.4450759e+2, -1766704.1, -1615651.3, -34014.81, 0.09487214, -0.017346233, -1608345.0, -84512.836, 0.0016872559, 9.9981785, 10.000206 
1.3548326e+3, 1.545093e+2, -1624896.3, -1489618.4, -42349.02, 0.014541479, 0.12179639, -1477454.6, -51637.605, 0.0003769789, 9.998456, 10.00026 
1.3548656e+3, 1.6450945e+2, -1514127.4, -1451754.5, -46566.57, 0.008542335, 0.1481546, -1426895.9, -99080.56, 0.000023370363, 9.998822, 9.999677 
1.354899e+3, 1.7450766e+2, -1345521.1, -1312566.6, -47610.035, 0.030093264, -0.011987012, -1278663.3, -48833.047, 0.0000000068048798, 9.99928, 9.999737 
1.3549317e+3, 1.8450671e+2, -1293746.8, -1379772.1, -91128.39, 0.025176466, -0.008440803, -1235990.0, -104148.95, 0.0, 9.999576, 9.998455 
1.3549644e+3, 1.945067e+2, -1174078.0, -1268252.3, -109454.195, 0.01763406, 0.13285881, -1102012.3, -68163.85, 0.0, 9.999707, 9.9984865 
1.3549982e+3, 2.0450622e+2, -939806.56, -1083571.5, -52393.098, 0.030485196, 0.24031049, -922738.9, 13116.512, 0.0, 10.00056, 9.99867 
1.3550335e+3, 2.1450524e+2, -581714.6, -844351.3, -53105.42, 0.065630816, 0.25437918, -571383.06, 266478.88, 0.0, 10.002281, 9.998808 
1.3550672e+3, 2.2450314e+2, -503751.7, -854876.56, -132212.83, 0.057854507, 0.21790314, -459536.06, 280344.2, 0.0, 10.002566, 9.997929 
1.3550995e+3, 2.3449965e+2, -597979.25, -840454.1, -103176.4, -0.0020583263, 0.061343603, -560019.06, 81894.49, 0.0, 10.001209, 9.998007 
1.3551329e+3, 2.4449709e+2, -543306.1, -819663.4, -36079.04, -0.03766189, 0.03908378, -538673.56, 5265.8164, 0.0, 10.001152, 9.997506 
1.3551675e+3, 2.5449562e+2, -213493.19, -599883.7, -36263.0, -0.04949224, 0.12599452, -210119.33, 235837.1, 0.0, 10.002706, 9.997594 
1.3552018e+3, 2.644935e+2, -55183.273, -552174.5, -90724.27, -0.05692235, 0.20017956, -39139.73, 308838.97, 0.000000036385206, 10.003456, 9.996886 
1.3552357e+3, 2.7449048e+2, 21182.799, -456032.13, -102111.92, -0.042888757, 0.1964454, 42114.094, 292122.25, 0.0000068750182, 10.003267, 9.996964 
1.355269e+3, 2.8448743e+2, 115350.54, -299334.63, -153204.0, -0.05419253, 0.18032499, 165811.0, 317848.22, 0.000091050126, 10.002978, 9.997505 
1.355301e+3, 2.9448432e+2, 149690.72, -215847.17, -134160.1, -0.11736182, 0.09242602, 193645.0, 247710.95, 0.0004082825, 10.002466, 9.997655 
1.355335e+3, 3.0448142e+2, 236749.61, -82507.73, 34453.83, -0.2256786, 0.019956037, 240425.5, 240425.5, 0.0010723871, 10.002464, 9.998239 
1.3553737e+3, 3.1448147e+2, 338596.22, 31378.66, 4308.2065, -0.06898773, 0.17492193, 338656.63, 338656.63, 0.002029895, 10.00288, 9.998808 
1.3647328e+3, 1.2447427e+2, -2192658.5, -1883612.0, 8919.765, 0.24013701, 0.1266509, -1883354.8, -163199.38, 0.0076198755, 9.996395, 10.000582 
1.3647658e+3, 1.344724e+2, -1933133.9, -1783950.0, -48833.77, 0.18909165, -0.04768216, -1769386.5, -147210.45, 0.004366158, 9.997874, 9.999873 
1.3647984e+3, 1.4447227e+2, -1734943.1, -1628745.5, -75874.52, 0.06493743, -0.044342257, -1589235.3, -65055.773, 0.0017823466, 9.998525, 9.999945 
1.3648309e+3, 1.5447436e+2, -1580634.9, -1494680.4, -119793.016, -0.011867145, 0.15619707, -1410388.6, 15772.78, 0.0004035849, 9.998877, 10.00002 
1.3648643e+3, 1.6447444e+2, -1447531.6, -1428011.4, -110600.83, -0.014345289, 0.19196522, -1326740.9, 1419.6182, 0.000026350568, 9.999314, 9.999598 
1.3648981e+3, 1.7447217e+2, -1263522.4, -1276940.6, -109894.125, 0.00127611, -0.01043899, -1160132.9, 70046.35, 0.000000016360648, 9.999866, 9.999691 
1.3649315e+3, 1.8447094e+2, -1179584.3, -1322218.9, -111718.02, 0.017056083, -0.0343386, -1118360.8, 13830.984, 0.0, 10.000349, 9.998479 
1.3649648e+3, 1.9447081e+2, -1009752.6, -1180135.8, -90955.945, 0.058061875, 0.091694176, -970322.4, 63875.75, 0.0, 10.000806, 9.998558 
1.3649991e+3, 2.0447037e+2, -947209.8, -1121551.8, 10469.331, 0.0877868, 0.21013556, -946583.4, -10377.945, 0.0, 10.000658, 9.998362 
1.3650346e+3, 2.1446954e+2, -966020.75, -1067137.0, -3985.1213, 0.09273447, 0.2743542, -965863.94, -127650.46, 0.0, 9.9998045, 9.998471 
1.3650686e+3, 2.2446755e+2, -852827.44, -983739.2, -91986.06, 0.05961698, 0.24921195, -805385.56, -65154.098, 0.0, 10.000007, 9.99827 
1.3651007e+3, 2.3446412e+2, -535525.3, -768693.9, -99175.04, -0.015560063, 0.06167982, -499048.9, 143212.86, 0.0, 10.001463, 9.998375 
1.3651344e+3, 2.4446166e+2, -400785.94, -749464.2, 137.38933, -0.04282964, 0.028642587, -400785.88, 143499.44, 0.0, 10.002125, 9.997517 
1.3651699e+3, 2.5446028e+2, -336799.8, -659960.7, 7444.515, -0.022942113, 0.12604012, -336628.4, 109672.81, 0.0, 10.001859, 9.997586 
1.3652048e+3, 2.6445797e+2, -275572.03, -644580.75, -17599.428, -0.010391947, 0.17416064, -274734.53, 73590.45, 0.000000033203506, 10.001884, 9.997009 
1.3652387e+3, 2.7445444e+2, -111037.35, -500130.28, -1310.26, 0.00073620654, 0.10190466, -111032.94, 139325.72, 0.0000069323874, 10.002278, 9.997136 
1.365272e+3, 2.844514e+2, 71251.48, -365961.56, -29333.77, -0.034753628, 0.09515249, 73210.78, 225598.9, 0.00008927096, 10.00289, 9.997084 
1.365304e+3, 2.9444885e+2, 330303.06, -172067.6, -78299.82, -0.14206707, 0.110314384, 342224.03, 396637.06, 0.00039892914, 10.003913, 9.997249 
1.3653378e+3, 3.0444553e+2, 432856.72, -22703.67, 31057.518, -0.23731802, 0.03136773, 434964.3, 434964.3, 0.001045218, 10.003948, 9.997944 
1.3653778e+3, 3.1444496e+2, 304716.38, 14700.14, -82906.516, 0.06385188, 0.15355378, 326743.72, 326743.72, 0.0019745822, 10.002603, 9.99885 
1.3747288e+3, 1.2443796e+2, -2238608.8, -1957321.9, 106121.97, 0.17501457, -0.047313802, -1921776.6, -201272.63, 0.0079810945, 9.996329, 10.000096 
1.3747631e+3, 1.3443808e+2, -1976689.4, -1873037.0, 1735.9811, 0.11985277, 0.04217333, -1873007.9, -250496.42, 0.0045821774, 9.997871, 9.999263 
1.374797e+3, 1.4443785e+2, -1771581.0, -1711414.8, -74645.03, 0.03809053, 0.09385438, -1661018.9, -136499.1, 0.0018779465, 9.99855, 9.999368 
1.3748294e+3, 1.544376e+2, -1619725.1, -1581757.0, -99468.23, -0.069919586, 0.11871669, -1499477.4, -72952.305, 0.00043006244, 9.998899, 9.9994135 
1.3748631e+3, 1.6443738e+2, -1434410.6, -1408532.1, -99916.0, -0.08730319, 0.15299457, -1320721.0, 7806.836, 0.000029160963, 9.999341, 9.999722 
1.3748975e+3, 1.7443728e+2, -1247395.8, -1250513.9, -84931.6, -0.049344126, 0.1513276, -1164008.9, 66517.56, 0.000000027808229, 9.999884, 9.999871 
1.374932e+3, 1.8443668e+2, -1122963.8, -1210388.5, -103561.95, 0.0011337174, 0.14330605, -1054266.9, 78263.59, 0.0, 10.000375, 9.999234 
1.3749662e+3, 1.944353e+2, -960659.5, -1073591.5, -70294.42, 0.09904454, 0.07011817, -926960.56, 107581.445, 0.0, 10.00078, 9.999307 
1.3750002e+3, 2.0443368e+2, -972095.6, -1162644.1, -27206.803, 0.1021113, 0.045703623, -968287.1, -31729.48, 0.0, 10.000612, 9.998102 
1.3750334e+3, 2.144317e+2, -1000442.94, -1121168.0, -29271.934, -0.0097074015, 0.025836963, -993719.8, -155141.0, 0.0, 9.999727, 9.998139 
1.3750671e+3, 2.2443001e+2, -863031.9, -979766.2, -46768.637, -0.082994565, 0.04431693, -846605.75, -106009.8, 0.0, 9.999898, 9.99835 
1.3751014e+3, 2.3442873e+2, -542087.1, -760164.9, -36265.582, -0.09911706, 0.061405163, -536214.44, 106393.16, 0.0, 10.001368, 9.998478 
1.3751365e+3, 2.4442732e+2, -398299.0, -724867.75, -15767.926, -0.056877587, 0.120993346, -397539.44, 147081.53, 0.0, 10.002037, 9.99773 
1.3751726e+3, 2.544257e+2, -330780.66, -630364.56, 2801.8533, 0.060746375, 0.16550376, -330754.44, 115882.93, 0.0, 10.001779, 9.997831 
1.3752075e+3, 2.644229e+2, -235635.94, -545122.9, -11791.537, 0.074769475, 0.11696346, -235187.33, 113475.89, 0.000000022673568, 10.001816, 9.997724 
1.3752407e+3, 2.7441853e+2, -73810.26, -401325.66, 18102.117, -0.03524026, -0.109710984, -72812.77, 177888.73, 0.000006624494, 10.002196, 9.99785 
1.3752745e+3, 2.8441566e+2, -2604.1843, -511610.34, -2582.0854, -0.08104457, -0.08986502, -2591.0864, 150138.88, 0.00008435929, 10.00285, 9.996106 
1.3753088e+3, 2.944145e+2, 237976.98, -336362.3, -26398.965, -0.051665366, 0.1696403, 239187.83, 293934.88, 0.00037578115, 10.00379, 9.996186 
1.3753428e+3, 3.0441058e+2, 345396.66, -183019.98, -12977.664, -0.15454888, 0.1382031, 345715.2, 345715.2, 0.0009853418, 10.003863, 9.996877 
1.37538e+3, 3.1440717e+2, 244255.45, -71873.945, -98673.98, 0.0031955715, 0.086103916, 272526.47, 272526.47, 0.001864521, 10.002462, 9.998308 
1.3847253e+3, 1.2440079e+2, -2013341.8, -1828020.6, 39328.996, 0.14646181, -0.11437389, -1820019.6, -99151.61, 0.008351057, 9.997777, 10.00029 
1.3847604e+3, 1.344022e+2, -1875583.0, -1801850.5, -56200.14, 0.0632913, 0.08858466, -1771503.8, -148639.58, 0.004803759, 9.9984665, 9.999469 
1.3847962e+3, 1.4440255e+2, -1739566.4, -1683946.9, -82690.82, 0.11545704, 0.18213592, -1624514.6, -99647.48, 0.0019753822, 9.998715, 9.999479 
1.3848284e+3, 1.5440144e+2, -1593266.3, -1557428.8, -68746.62, -0.053967394, 0.11135903, -1504304.0, -77424.1, 0.00045665295, 9.999034, 9.999517 
1.3848624e+3, 1.6440102e+2, -1464569.9, -1415424.0, -30148.422, -0.080965735, 0.11860502, -1401102.8, -72218.97, 0.00003186285, 9.999114, 9.999781 
1.3848975e+3, 1.7440161e+2, -1380311.6, -1305422.1, -39112.727, 0.012755988, 0.1762137, -1288719.8, -57844.082, 0.000000039188958, 9.998947, 9.999939 
1.3849322e+3, 1.844012e+2, -1297003.4, -1285580.1, -58285.35, 0.06982127, 0.18020406, -1232727.1, -99850.02, 0.0, 9.999139, 9.999317 
1.3849664e+3, 1.9439957e+2, -1076539.9, -1114011.0, -86400.27, 0.08992032, 0.07060185, -1006867.1, 28023.426, 0.0, 9.999926, 9.999437 
1.3850003e+3, 2.0439778e+2, -977218.56, -1158624.5, -71442.92, 0.07827707, 0.019601393, -952461.06, -15553.56, 0.0, 10.000548, 9.998159 
1.3850342e+3, 2.143957e+2, -807581.0, -1018047.1, -61461.41, 0.033062473, -0.016340096, -790947.3, 47982.37, 0.0, 10.001009, 9.998229 
1.3850683e+3, 2.2439408e+2, -676655.7, -911148.94, -22862.209, -0.009508291, 0.012325142, -674447.5, 66499.336, 0.0, 10.001252, 9.998181 
1.385103e+3, 2.3439302e+2, -558644.06, -789219.56, -44541.434, -0.048742585, 0.07032602, -550338.94, 92618.734, 0.0, 10.00133, 9.998305 
1.3851385e+3, 2.4439162e+2, -450004.97, -730012.0, -39213.066, -0.02753104, 0.13128497, -444617.1, 100354.06, 0.0, 10.001607, 9.997895 
1.3851745e+3, 2.543898e+2, -248455.81, -565301.2, -42929.168, 0.06399027, 0.13867044, -242742.39, 204245.47, 0.0, 10.002249, 9.998042 
1.3852096e+3, 2.643871e+2, -97811.97, -469730.63, -63108.59, 0.065421805, 0.088868186, -87395.22, 261617.11, 0.0000000049794013, 10.0027275, 9.997801 
1.3852432e+3, 2.743833e+2, 60867.367, -329710.75, -91865.54, -0.037539475, -0.090040445, 81395.58, 332442.78, 0.0000064646365, 10.003084, 9.997917 
1.3852778e+3, 2.8438076e+2, 131941.2, -389212.3, -58482.875, -0.059245966, -0.061984554, 138423.42, 291495.7, 0.00007935542, 10.003527, 9.996623 
1.3853131e+3, 2.943797e+2, 333971.16, -221344.1, 10262.723, -0.0026147852, 0.14986289, 334160.75, 389246.78, 0.00034767005, 10.004156, 9.996794 
1.3853471e+3, 3.043759e+2, 382387.5, -260565.55, 55432.168, -0.13359612, 0.1329051, 387131.56, 387131.56, 0.00091041916, 10.004535, 9.996016 
1.385383e+3, 3.143718e+2, 532494.2, 7906.5493, -35656.69, -0.041150443, 0.106010154, 534906.7, 534906.7, 0.0017264363, 10.004688, 9.997788 
1.3947225e+3, 1.2436243e+2, -1941969.6, -1675740.4, 9290.698, 0.058736335, -0.08949788, -1675416.6, 45834.78, 0.008733579, 9.997775, 10.001329 
1.3947581e+3, 1.3436463e+2, -1795282.5, -1640116.8, -34835.363, -0.04430751, 0.080306344, -1632654.9, -9419.234, 0.005033633, 9.998485, 10.000568 
1.3947962e+3, 1.4436635e+2, -1674062.9, -1553061.8, -85995.53, 0.24233232, 0.20983958, -1508417.0, 16804.904, 0.002076125, 9.998734, 10.00037 
1.3948278e+3, 1.5436608e+2, -1532423.9, -1432811.5, -47827.758, -0.034358352, 0.13797358, -1413565.9, 13657.818, 0.00048381835, 9.999037, 10.000374 
1.3948616e+3, 1.6436559e+2, -1462906.0, -1420465.8, -43019.355, -0.07215795, 0.09268049, -1393717.5, -64491.27, 0.000034571214, 9.999144, 9.999736 
1.3948978e+3, 1.7436498e+2, -1391843.9, -1327350.5, -40603.945, 0.14506343, 0.04651503, -1307746.1, -76518.35, 0.00000005013657, 9.998932, 9.999802 
1.3949326e+3, 1.843644e+2, -1328283.9, -1354697.3, -40514.926, 0.16835439, 0.06403901, -1298877.5, -165644.8, 0.0, 9.999154, 9.998836 
1.3949652e+3, 1.9436367e+2, -1116798.1, -1193262.3, -51380.105, -0.03157639, 0.09512293, -1090986.5, -55743.445, 0.0, 9.999898, 9.998911 
1.3949996e+3, 2.043627e+2, -957212.25, -1103314.0, -61297.445, -0.050705485, 0.1342734, -934901.7, 2352.855, 0.0, 10.000492, 9.998564 
1.3950364e+3, 2.1436147e+2, -791850.5, -962928.3, -39456.7, 0.16023396, 0.1417546, -783188.94, 56077.867, 0.0, 10.000914, 9.998653 
1.3950719e+3, 2.243597e+2, -712039.25, -969702.3, -27395.13, 0.21241978, 0.15043657, -709158.75, 32126.02, 0.0, 10.001179, 9.997816 
1.3951057e+3, 2.3435712e+2, -599566.9, -856016.1, -34180.445, 0.0763641, 0.09373415, -595089.4, 48221.637, 0.0, 10.0012455, 9.9978895 
1.3951403e+3, 2.4435475e+2, -455367.0, -721888.94, -22918.02, -0.019592462, 0.07582801, -453410.66, 91922.99, 0.0, 10.001521, 9.997993 
1.3951756e+3, 2.543527e+2, -261174.61, -561963.4, -10570.151, -0.0635391, 0.047079183, -260803.61, 186548.36, 0.0, 10.002124, 9.998124 
1.3952109e+3, 2.6435068e+2, -147374.6, -550251.94, -53937.043, -0.08739425, 0.086133435, -140278.52, 209093.67, 0.0000000011462398, 10.002625, 9.997299 
1.3952462e+3, 2.7434883e+2, 4461.3687, -415919.72, -65422.313, -0.0657698, 0.1504276, 14407.473, 265802.1, 0.000006299897, 10.002948, 9.997394 
1.3952816e+3, 2.8434685e+2, 239109.02, -139023.5, -39124.54, -0.044785943, 0.18158674, 243114.72, 396527.97, 0.00007482128, 10.003406, 9.998399 
1.3953169e+3, 2.9434448e+2, 442425.38, 36759.906, 43384.324, -0.053964477, 0.07374587, 447013.28, 502443.06, 0.00032370954, 10.004015, 9.998637 
1.3953507e+3, 3.0434126e+2, 325721.8, -348408.13, 53742.41, -0.23405777, 0.04615433, 329979.34, 329979.34, 0.0008490811, 10.004406, 9.995472 
1.3953865e+3, 3.143384e+2, 455069.25, -85358.31, 8106.7095, -0.17621353, 0.20437685, 455190.8, 455190.8, 0.0016132931, 10.004399, 9.99729 
1.404721e+3, 1.2432552e+2, -1969297.0, -1638870.8, 32222.936, 0.15379356, 0.015374384, -1635757.8, 85860.72, 0.009133226, 9.997361, 10.001782 
1.4047556e+3, 1.3432777e+2, -1859119.6, -1579085.4, 9454.94, -0.092775404, 0.106692396, -1578766.5, 44832.52, 0.005275387, 9.99765, 10.00139 
1.4047949e+3, 1.4433004e+2, -1779182.1, -1575934.8, -66092.17, 0.2858899, 0.23419556, -1556333.1, -30755.758, 0.0021822979, 9.997895, 10.000611 
1.4048265e+3, 1.5432967e+2, -1636691.8, -1462259.9, -96260.984, -0.010311006, 0.13205118, -1419580.4, 7998.494, 0.00051218417, 9.998236, 10.000551 
1.4048605e+3, 1.643289e+2, -1498960.8, -1430792.4, -93279.97, -0.07180644, 0.04941476, -1365564.5, -35981.734, 0.000037386584, 9.998872, 9.999792 
1.4048973e+3, 1.7432775e+2, -1214045.5, -1232684.9, -91861.64, 0.14020649, -0.061968368, -1131032.0, 100556.81, 0.00000006103049, 10.0001135, 9.99988 
1.4049323e+3, 1.843271e+2, -1139050.4, -1278845.5, -68298.29, 0.17051198, -0.045962933, -1111222.1, 22372.563, 0.0, 10.000527, 9.998692 
1.404965e+3, 1.9432712e+2, -1116205.0, -1207130.8, -68923.13, -0.024079613, 0.07325027, -1079101.0, -43500.504, 0.0, 9.999971, 9.9987755 
1.405e+3, 2.0432654e+2, -1026288.25, -1124341.4, -42270.477, -0.03895274, 0.15339403, -1010581.5, -72972.2, 0.0, 9.999956, 9.998684 
1.4050373e+3, 2.143253e+2, -803350.1, -949701.2, -51665.836, 0.17096938, 0.14084308, -786948.8, 52672.426, 0.0, 10.00075, 9.998824 
1.4050733e+3, 2.2432369e+2, -697154.1, -952503.75, -35485.742, 0.231575, 0.15524802, -692314.44, 49323.07, 0.0, 10.001266, 9.99788 
1.4051072e+3, 2.343216e+2, -552580.7, -819296.8, -25635.59, 0.10458368, 0.14178583, -550139.06, 93520.72, 0.0, 10.001531, 9.9979925 
1.405142e+3, 2.4431922e+2, -461165.8, -719613.1, 10869.064, 0.021373346, 0.11239648, -460709.53, 84973.28, 0.0, 10.001456, 9.998043 
1.4051776e+3, 2.543164e+2, -420982.2, -631237.94, 5937.2856, -0.017829102, 0.0030706346, -420814.7, 26892.479, 0.0, 10.000988, 9.998198 
1.405213e+3, 2.643144e+2, -350972.03, -613737.25, 23785.953, -0.05505005, 0.027396796, -348836.25, 890.2508, 0.0000000047036606, 10.001078, 9.997607 
1.4052483e+3, 2.7431372e+2, -107920.54, -429885.56, 52628.2, -0.08057841, 0.17908496, -99536.305, 152201.55, 0.000006310048, 10.002006, 9.997749 
1.4052841e+3, 2.843122e+2, 121032.64, -186483.02, 61524.03, -0.06475508, 0.22638002, 132884.83, 286637.75, 0.00007120588, 10.002562, 9.998472 
1.4053205e+3, 2.9430923e+2, 248974.69, -48742.066, -1872.8657, -0.02126212, 0.054863576, 248986.47, 304761.75, 0.00031037428, 10.002659, 9.998698 
1.4053546e+3, 3.0430654e+2, 131121.9, -366539.3, -9334.651, -0.185861, 0.0480049, 131296.94, 131296.94, 0.00081845216, 10.002731, 9.996165 
1.40539e+3, 3.1430387e+2, 294254.44, -67369.1, 25196.715, -0.17137375, 0.15104853, 296001.6, 296001.6, 0.0015563706, 10.002879, 9.998142 
1.4147192e+3, 1.242902e+2, -1983556.4, -1660663.1, -101935.625, 0.22440757, 0.17891526, -1631175.5, 90791.734, 0.009556688, 9.99734, 10.00164 
1.4147528e+3, 1.3429183e+2, -1832700.3, -1510262.6, 31343.031, -0.14457856, 0.1620526, -1507244.1, 116707.914, 0.0055341963, 9.9976, 10.001885 
1.4147916e+3, 1.4429368e+2, -1808721.5, -1646132.4, -63547.83, 0.14939667, 0.24332437, -1624242.0, -98308.72, 0.0022969088, 9.997922, 10.000123 
1.4148244e+3, 1.5429226e+2, -1678582.6, -1549750.3, -79704.664, -0.04388932, 0.09636449, -1511685.9, -83740.91, 0.0005425403, 9.998233, 9.999955 
1.4148587e+3, 1.6429108e+2, -1478825.3, -1395084.0, -60271.53, -0.14109248, -0.0061316844, -1363566.5, -33613.82, 0.000040406845, 9.998897, 10.000027 
1.4148954e+3, 1.7428997e+2, -1193827.4, -1187529.6, -39237.64, -0.066175826, -0.14051424, -1151314.8, 80643.09, 0.00000007226826, 10.000098, 10.000198 
1.4149313e+3, 1.8428949e+2, -1122061.5, -1248680.0, -93363.22, 0.003937594, -0.13699014, -1072566.8, 61395.023, 0.0, 10.000547, 9.99889 
1.414966e+3, 1.9428991e+2, -1109161.5, -1187547.5, -85116.58, 0.053384464, 0.0057925773, -1054647.9, -18684.545, 0.0, 9.999949, 9.998922 
1.415001e+3, 2.0428927e+2, -1032617.6, -1132874.1, -27178.264, 0.05853592, 0.07655311, -1025723.94, -87751.55, 0.0, 9.99993, 9.998639 
1.4150366e+3, 2.1428722e+2, -822169.7, -967550.7, -16237.649, 0.021355402, -0.0110129, -820378.1, 19614.012, 0.0, 10.000649, 9.998755 
1.4150721e+3, 2.2428614e+2, -679435.75, -889828.44, -32528.69, -0.0060771666, 0.03492618, -674521.3, 67482.74, 0.0, 10.001154, 9.998363 
1.4151077e+3, 2.3428644e+2, -537150.6, -760658.0, -8119.349, -0.014769466, 0.21331072, -536856.06, 107148.48, 0.0, 10.00142, 9.998448 
1.4151436e+3, 2.4428491e+2, -464972.22, -715826.06, -11988.457, 0.02395399, 0.2454385, -464400.6, 81618.64, 0.0, 10.001397, 9.998098 
1.4151801e+3, 2.5428087e+2, -426980.7, -631418.2, -4462.2993, 0.13233782, 0.008135725, -426883.34, 21170.418, 0.0, 10.000927, 9.998228 
1.4152156e+3, 2.6427838e+2, -292287.78, -474301.7, 48460.168, 0.09090526, -0.06737982, -280189.66, 69885.33, 0.000000079284355, 10.001002, 9.998598 
1.4152499e+3, 2.7427804e+2, -50659.46, -289951.97, 95854.945, -0.13920833, 0.014348069, -16997.535, 235080.8, 0.000007370017, 10.001918, 9.998752 
1.4152858e+3, 2.8427666e+2, 21216.977, -388055.34, 60016.426, -0.1813788, 0.089629896, 29836.367, 183929.42, 0.00007169882, 10.002521, 9.997115 
1.4153236e+3, 2.9427382e+2, 130717.39, -283173.28, 14151.93, 0.02358209, 0.07995706, 131200.72, 187324.2, 0.00031191297, 10.002586, 9.997135 
1.4153583e+3, 3.0427173e+2, 228747.13, -127642.914, -8561.457, -0.078252114, 0.13617194, 228952.67, 228952.67, 0.00082090596, 10.002601, 9.997852 
1.4153932e+3, 3.1426838e+2, 378630.4, 160234.94, 56161.684, -0.16128848, -0.024444798, 392226.3, 392226.3, 0.0015570638, 10.002676, 9.999793 
1.4247169e+3, 1.2425358e+2, -1904250.8, -1734633.8, -141518.97, 0.21925217, 0.17424513, -1654457.0, 67867.82, 0.010011913, 9.99836, 10.000649 
1.424751e+3, 1.3425454e+2, -1787875.1, -1561877.4, -24362.19, -0.088106655, 0.15959471, -1559281.0, 65037.293, 0.0058154534, 9.998223, 10.001234 
1.4247893e+3, 1.4425576e+2, -1728819.0, -1581949.9, -113476.586, 0.110239945, 0.20173278, -1520219.5, 6087.038, 0.002423067, 9.998385, 10.000332 
1.4248236e+3, 1.5425473e+2, -1563850.1, -1463039.1, -82821.51, 0.0022735763, 0.06622123, -1416490.5, 11822.345, 0.00057589856, 9.998894, 10.00023 
1.424858e+3, 1.6425402e+2, -1477852.0, -1392062.0, -19336.467, -0.09949895, -0.004602348, -1387905.1, -57588.992, 0.00004378684, 9.998886, 10.0000515 
1.4248939e+3, 1.7425367e+2, -1443427.1, -1304902.0, -36635.4, -0.12604481, -0.06574532, -1295809.9, -63493.586, 0.00000008454083, 9.998374, 10.000221 
1.4249302e+3, 1.8425345e+2, -1370152.1, -1338221.0, -80230.4, -0.043084893, -0.049998615, -1272383.1, -138065.0, 0.0, 9.998721, 9.999151 
1.424967e+3, 1.9425343e+2, -1023621.3, -1113619.6, -75190.81, 0.15591057, 0.020009076, -980992.94, 55328.703, 0.0, 10.000398, 9.99921 
1.4250025e+3, 2.0425265e+2, -851550.75, -1025393.7, -3209.2292, 0.18037024, 0.050821234, -851491.5, 86839.27, 0.0, 10.001098, 9.998811 
1.4250368e+3, 2.1425077e+2, -821601.94, -943577.8, 5676.1216, -0.015196933, -0.034400012, -821338.4, 19009.451, 0.0, 10.000562, 9.998953 
1.425072e+3, 2.242497e+2, -778591.6, -960629.25, 3036.3157, -0.093777016, 0.010198961, -778541.0, -36181.242, 0.0, 10.00056, 9.99817 
1.4251089e+3, 2.3424977e+2, -565704.2, -797903.6, -36171.348, -0.02228984, 0.18628518, -560200.0, 84164.195, 0.0, 10.00131, 9.998251 
1.4251453e+3, 2.4424842e+2, -412721.6, -661042.7, -70928.86, 0.05424105, 0.23376966, -393890.03, 152488.27, 0.0, 10.001641, 9.998356 
1.4251813e+3, 2.5424507e+2, -307885.3, -535635.9, -65299.543, 0.13467307, 0.03990164, -290491.38, 157914.33, 0.00000000006254562, 10.001589, 9.998566 
1.4252168e+3, 2.6424283e+2, -178004.5, -399833.13, 15857.14, 0.09315164, -0.040905528, -176876.7, 173547.02, 0.00000036239143, 10.001705, 9.998774 
1.4252521e+3, 2.7424198e+2, -18634.088, -250827.53, -6549.477, -0.09896707, -0.028274383, -18449.494, 233979.73, 0.000010082052, 10.002038, 9.998959 
1.4252883e+3, 2.8424034e+2, -6323.3823, -404233.4, -27155.773, -0.14962304, 0.0118792355, -4478.661, 149966.75, 0.000078412035, 10.002348, 9.99709 
1.4253257e+3, 2.942377e+2, 154395.11, -270793.7, 3905.7761, -0.02703851, 0.029427642, 154430.98, 210905.83, 0.00032778483, 10.002759, 9.997131 
1.425361e+3, 3.042361e+2, 310953.22, -91459.08, 2209.2383, -0.08547388, 0.13603687, 310965.34, 310965.34, 0.00085219054, 10.00316, 9.997839 
1.425398e+3, 3.1423238e+2, 459047.75, 157777.0, -77775.75, 0.02305764, -0.05813365, 477941.4, 477941.4, 0.0016103159, 10.003394, 9.999435 
1.4347127e+3, 1.242154e+2, -2024404.5, -1993156.5, -200826.31, -0.077801846, -0.040784873, -1807347.4, -84654.36, 0.010506618, 9.998392, 9.998856 
1.4347506e+3, 1.3421619e+2, -1924046.1, -1839580.3, -21293.088, 0.024872098, 0.10993256, -1834516.0, -209820.66, 0.006123269, 9.998212, 9.999323 
1.4347878e+3, 1.4421642e+2, -1650495.5, -1440225.5, -105019.33, 0.10882304, 0.11448205, -1396758.9, 129936.914, 0.002563054, 9.998459, 10.00128 
1.4348231e+3, 1.5421711e+2, -1474672.1, -1282527.3, -57001.42, 0.073853485, 0.03226073, -1266889.9, 161792.38, 0.0006133788, 9.998906, 10.00147 
1.4348578e+3, 1.6421792e+2, -1489552.3, -1422122.9, -45015.316, -0.016595528, 0.055550653, -1399596.5, -68925.21, 0.000047750204, 9.998907, 9.999838 
1.4348927e+3, 1.7421895e+2, -1470656.6, -1360227.8, -51449.44, -0.094752036, 0.1649766, -1339972.5, -107309.08, 0.00000010052836, 9.998363, 9.999849 
1.4349294e+3, 1.8421903e+2, -1343861.5, -1283225.3, -32468.113, -0.022712177, 0.2171452, -1269120.9, -134457.39, 0.0, 9.998717, 9.999533 
1.4349683e+3, 1.942178e+2, -996968.06, -1052018.1, -5871.706, 0.22805795, 0.12178582, -996348.75, 40325.887, 0.0, 10.000367, 9.999652 
1.4350045e+3, 2.0421675e+2, -828748.6, -971244.7, -26373.678, 0.25485864, 0.08413636, -824023.94, 114659.21, 0.0, 10.001065, 9.999198 
1.4350374e+3, 2.1421598e+2, -812243.4, -903982.56, -8813.023, -0.0038945624, 0.07040712, -811404.44, 29283.715, 0.0, 10.00047, 9.999271 
1.4350726e+3, 2.2421438e+2, -848471.44, -1081970.6, 19776.734, -0.1006901, 0.08341712, -846808.25, -104103.24, 0.0, 10.000459, 9.997385 
1.4351106e+3, 2.3421171e+2, -644138.2, -934050.9, -877.4204, 0.024497667, 0.073442675, -644135.56, 602.1624, 0.0, 10.001196, 9.997375 
1.435147e+3, 2.442098e+2, -396117.3, -604519.8, -78136.01, 0.049258746, 0.092628784, -370075.97, 176682.88, 0.0, 10.001539, 9.998796 
1.435181e+3, 2.5420898e+2, -284827.63, -470426.47, -59473.03, -0.05646802, 0.095683664, -267405.6, 181358.06, 0.000000006122379, 10.001511, 9.999054 
1.4352167e+3, 2.642076e+2, -215148.73, -469344.8, 21430.6, -0.09501657, 0.10274703, -213354.64, 137418.55, 0.0000008787704, 10.001666, 9.998319 
1.4352548e+3, 2.742055e+2, -64031.617, -333885.84, 17297.691, -0.0290411, 0.04453798, -62927.35, 189862.38, 0.000014138208, 10.001979, 9.998425 
1.4352918e+3, 2.8420323e+2, 59256.805, -250393.58, -17544.287, -0.055496905, -0.002181356, 60247.664, 215056.48, 0.00009033198, 10.002271, 9.998181 
1.4353265e+3, 2.9420072e+2, 224635.45, -113175.26, 28490.951, -0.22501682, -0.094223596, 227021.53, 283852.84, 0.00035666508, 10.002703, 9.998244 
1.4353627e+3, 3.0419952e+2, 208160.03, -283524.0, 3866.3423, -0.25876626, 0.05501965, 208190.42, 208190.42, 0.0009144842, 10.003078, 9.996555 
1.4354038e+3, 3.1419608e+2, 277184.38, -163879.92, -34228.9, 0.24792142, 0.037982296, 279824.9, 279824.9, 0.0017225327, 10.003148, 9.997348 
1.44471e+3, 1.2417822e+2, -2039235.8, -1943814.5, -265768.25, -0.14338243, -0.0024313158, -1721508.4, 1553.4094, 0.011047917, 9.998047, 9.99936 
1.44475e+3, 1.3417873e+2, -1899722.8, -1825575.6, 13608.914, 0.16574126, 0.11179088, -1823156.8, -198093.22, 0.00646129, 9.998359, 9.99935 
1.4447859e+3, 1.4417835e+2, -1650809.0, -1435966.6, -1561.3217, 0.074838184, 0.054428525, -1435955.3, 91113.586, 0.0027186894, 9.998448, 10.001302 
1.4448215e+3, 1.541804e+2, -1557487.5, -1317429.0, -65274.043, 0.06505728, 0.10220658, -1300828.4, 128216.01, 0.0006559602, 9.9983225, 10.001504 
1.4448567e+3, 1.6418159e+2, -1552371.8, -1462387.1, -85602.17, 0.005092534, 0.16907722, -1410673.5, -79642.72, 0.000052490832, 9.998541, 9.999728 
1.4448921e+3, 1.741818e+2, -1305696.3, -1292220.5, -88782.86, -0.03607639, 0.20908359, -1209920.3, 23110.639, 0.00000012546444, 9.9995575, 9.999734 
1.444929e+3, 1.8418136e+2, -1143284.3, -1187897.5, -37571.2, 0.014552672, 0.21528697, -1121896.6, 13138.724, 0.0, 10.000091, 9.999528 
1.4449674e+3, 1.9418013e+2, -1049485.1, -1073176.8, -56531.766, 0.14718759, 0.11832266, -1003571.44, 33474.13, 0.0, 9.99999, 9.999684 
1.4450042e+3, 2.0417947e+2, -964365.75, -1028748.5, -124922.61, 0.16790444, 0.1136975, -867553.44, 71497.19, 0.0, 10.000107, 9.999262 
1.4450386e+3, 2.1417952e+2, -786810.2, -881230.4, -144943.92, 0.057560563, 0.1799941, -681581.7, 159467.56, 0.0, 10.0006075, 9.999358 
1.4450741e+3, 2.2417806e+2, -762455.06, -979257.4, -53288.824, -0.0032052507, 0.17715381, -750065.0, -7000.849, 0.0, 10.000788, 9.99793 
1.445111e+3, 2.3417452e+2, -691261.7, -885632.9, 20218.62, -0.0041465224, 0.018873222, -689180.8, -44079.883, 0.0, 10.000569, 9.998001 
1.4451474e+3, 2.4417265e+2, -485851.0, -652016.4, 12046.3, -0.02319392, 0.009133477, -484982.22, 62138.24, 0.0, 10.000945, 9.998754 
1.4451826e+3, 2.5417304e+2, -189912.97, -436802.25, -24554.357, -0.069648765, 0.14378247, -187494.61, 261622.23, 0.000000012932129, 10.002206, 9.998954 
1.4452192e+3, 2.64172e+2, -49623.88, -392587.38, 42548.445, -0.05642252, 0.19039108, -44424.105, 306700.28, 0.0000016431604, 10.002814, 9.99829 
1.445258e+3, 2.7416912e+2, 35347.266, -283428.44, 55210.67, 0.04609186, 0.05500681, 44638.71, 297785.1, 0.00001933506, 10.002657, 9.998437 
1.4452948e+3, 2.8416637e+2, 123802.125, -246908.19, 27743.34, 0.007893678, -0.034769215, 125866.89, 281036.47, 0.000106984284, 10.002835, 9.99793 
1.4453295e+3, 2.941636e+2, 311362.84, -97495.76, -37201.28, -0.23280604, -0.12310425, 314720.16, 371914.75, 0.00040085675, 10.003416, 9.998 
1.4453654e+3, 3.0416235e+2, 259075.72, -232253.3, -78641.08, -0.28799534, 0.020975428, 271355.9, 271355.9, 0.0010132887, 10.003307, 9.996808 
1.4454061e+3, 3.1415975e+2, 138235.25, -250204.47, -26408.43, 0.22450219, 0.064930014, 140022.42, 140022.42, 0.0019005061, 10.002281, 9.997173 
1.4547102e+3, 1.2414289e+2, -1822961.3, -1504036.0, -158686.36, 0.021017293, 0.3661376, -1438532.6, 284891.56, 0.011640448, 9.9980755, 10.002384 
1.4547497e+3, 1.3414243e+2, -1751695.6, -1510446.5, 32621.367, 0.28955153, 0.16670649, -1506113.4, 119306.64, 0.0068325973, 9.998323, 10.001535 
1.454783e+3, 1.4414188e+2, -1725536.1, -1589990.4, -8259.019, -0.07469821, 0.021791935, -1589489.0, -62067.004, 0.0028915813, 9.998444, 10.000244 
1.4548182e+3, 1.5414481e+2, -1657129.8, -1516580.0, -65761.97, -0.10348863, 0.28968412, -1490609.4, -61212.47, 0.00070428615, 9.998294, 10.000147 
1.4548543e+3, 1.6414522e+2, -1545225.5, -1457589.3, -62073.86, -0.10852408, 0.3492027, -1425425.9, -94032.32, 0.000058062662, 9.998574, 9.999749 
1.4548922e+3, 1.7414223e+2, -1292474.8, -1270002.5, -41739.73, -0.003338116, 0.05639025, -1238013.0, -4594.38, 0.00000016567238, 9.999574, 9.999882 
1.4549291e+3, 1.8414046e+2, -1168302.3, -1245091.8, -46324.207, 0.0048317234, -0.06297753, -1146529.9, -11096.116, 0.0, 10.000115, 9.999122 
1.4549646e+3, 1.9414039e+2, -1089289.5, -1149022.5, -55872.87, -0.14874408, 0.0072184145, -1055801.5, -18367.01, 0.0, 9.999961, 9.99918 
1.4550012e+3, 2.0414065e+2, -989999.3, -1068947.1, -115887.89, -0.14322636, 0.13772531, -907046.94, 32387.082, 0.0, 10.0000515, 9.999012 
1.4550397e+3, 2.1414138e+2, -813344.8, -916873.56, -120051.91, 0.1082166, 0.2898443, -734372.8, 107058.766, 0.0, 10.000522, 9.999157 
1.4550763e+3, 2.2414075e+2, -642258.2, -708080.4, -67126.08, 0.13278799, 0.29169306, -600409.3, 143027.9, 0.0, 10.000696, 9.999834 
1.4551102e+3, 2.3413824e+2, -565211.94, -596970.6, 18242.357, -0.161279, 0.029860947, -556905.8, 88548.04, 0.0, 10.000458, 10.000036 
1.4551464e+3, 2.4413687e+2, -526550.6, -723279.1, 46547.08, -0.22517177, -0.01634216, -516093.22, 31371.193, 0.0, 10.000877, 9.998301 
1.4551859e+3, 2.5413722e+2, -249249.73, -540080.44, 28562.846, 0.027913213, 0.1794656, -246471.08, 202995.25, 0.000000017460069, 10.002114, 9.998292 
1.455224e+3, 2.6413602e+2, -42442.03, -350042.8, 33319.133, 0.13348219, 0.22780527, -38874.305, 312603.2, 0.000002726617, 10.002694, 9.998641 
1.4552608e+3, 2.7413273e+2, 44664.992, -232085.13, 54891.566, 0.05902089, 0.0051078945, 55154.773, 308656.0, 0.0000251694, 10.002522, 9.998852 
1.4552975e+3, 2.8412953e+2, 13289.247, -450141.56, 39977.285, -0.01885872, -0.08503346, 16712.55, 172241.86, 0.00012713004, 10.002718, 9.996593 
1.455334e+3, 2.941264e+2, 195660.92, -318283.1, -3020.2546, -0.12727053, -0.061856948, 195678.67, 253242.31, 0.00045719108, 10.003321, 9.996537 
1.4553691e+3, 3.041246e+2, 347676.28, -16957.533, -114408.81, -0.24380015, 0.035221774, 380600.7, 380600.7, 0.0011416287, 10.003183, 9.998341 
1.4554052e+3, 3.1412348e+2, 195232.72, -83198.52, -43101.57, -0.12702024, 0.04608271, 201752.25, 201752.25, 0.00213379, 10.002084, 9.99841 
1.4647083e+3, 1.24104895e+2, -1775366.0, -1424313.5, 9315.877, 0.028284715, 0.41285342, -1424066.4, 299734.16, 0.012283002, 9.998135, 10.002915 
1.4647478e+3, 1.3410439e+2, -1818714.5, -1520863.8, -93223.9, 0.31290913, 0.18927225, -1494092.1, 131702.3, 0.00723705, 9.997774, 10.001726 
1.464781e+3, 1.441043e+2, -1818971.9, -1655307.4, -138892.45, -0.08117658, 0.091916546, -1575932.9, -48141.953, 0.0030819494, 9.997884, 10.000073 
1.4648171e+3, 1.5410648e+2, -1526211.3, -1473388.9, -123801.31, -0.08728763, 0.30321878, -1373212.9, 56561.07, 0.0007585455, 9.999268, 9.99998 
1.4648537e+3, 1.6410656e+2, -1379539.5, -1387123.8, -72501.41, -0.06559274, 0.34295177, -1310731.1, 21042.83, 0.00006440502, 9.999752, 9.999665 
1.4648917e+3, 1.7410378e+2, -1348336.5, -1306036.0, -87428.23, 0.028022768, 0.07862847, -1237236.1, -3438.7412, 0.00000022299002, 9.99923, 9.999799 
1.4649287e+3, 1.8410213e+2, -1317532.6, -1298717.1, -73237.77, 0.023248557, -0.029472409, -1234285.4, -98474.37, 0.0, 9.999026, 9.999271 
1.4649643e+3, 1.9410205e+2, -1150615.0, -1154834.1, -47691.258, -0.13587861, 0.019766964, -1104986.6, -67175.96, 0.0, 9.999444, 9.999382 
1.4650013e+3, 2.0410202e+2, -1035218.7, -1096997.3, -47846.68, -0.12746572, 0.11173449, -1009156.7, -69344.0, 0.0, 9.999762, 9.998965 
1.4650398e+3, 2.1410218e+2, -888040.4, -957333.0, -52580.42, 0.119512245, 0.21112715, -859717.9, -17901.213, 0.0, 10.000027, 9.999121 
1.465077e+3, 2.241019e+2, -644918.56, -654965.3, -35182.984, 0.14433558, 0.22951874, -614402.2, 129416.71, 0.0, 10.000451, 10.000319 
1.4651111e+3, 2.3410098e+2, -418651.22, -466251.03, -75366.2, -0.13830303, 0.07616612, -363416.3, 282402.47, 0.0, 10.001203, 10.000579 
1.4651477e+3, 2.4410012e+2, -431164.3, -671731.7, -66470.66, -0.2009212, 0.051262368, -414019.78, 133804.11, 0.0, 10.001526, 9.998334 
1.4651875e+3, 2.5409946e+2, -351647.78, -586093.75, -52713.105, 0.032462858, 0.1493496, -340341.0, 109494.484, 0.000000044837254, 10.001413, 9.998302 
1.4652258e+3, 2.6409802e+2, -224994.72, -427761.06, -39816.887, 0.119498566, 0.1682316, -217456.22, 134393.66, 0.0000038968087, 10.001402, 9.998731 
1.4652622e+3, 2.740955e+2, -97133.36, -290406.94, -54595.375, 0.015421299, 0.020629518, -82777.695, 171089.64, 0.000030512307, 10.001499, 9.998951 
1.4652994e+3, 2.8409293e+2, -77806.05, -468813.13, 15968.216, -0.047977213, -0.021683624, -77155.016, 78735.414, 0.00014596309, 10.001985, 9.996818 
1.4653376e+3, 2.9409024e+2, 187763.17, -293139.2, 68980.93, -0.08135438, 0.02060128, 197462.22, 255383.11, 0.00051297166, 10.003156, 9.996781 
1.4653732e+3, 3.040879e+2, 427329.56, 70460.24, -64818.684, -0.16635738, 0.03016422, 438737.97, 438737.97, 0.0012762429, 10.003516, 9.998774 
1.4654076e+3, 3.1408712e+2, 278611.47, -13581.092, -115613.45, -0.09677863, 0.0316609, 318822.97, 318822.97, 0.0023861257, 10.002503, 9.998691 
1.4747044e+3, 1.2406392e+2, -1932627.9, -1748324.3, 81114.5, -0.18946193, 0.09254957, -1717710.0, 6482.189, 0.012969953, 9.998153, 10.0006485 
1.474744e+3, 1.3406458e+2, -1965660.8, -1817249.9, -112881.64, 0.12632239, 0.18698858, -1756367.5, -130180.72, 0.0076708426, 9.997744, 9.999699 
1.4747797e+3, 1.4406566e+2, -1753515.5, -1529299.5, -108479.016, -0.020677296, 0.27690583, -1485407.8, 42768.094, 0.0032881629, 9.997918, 10.000926 
1.4748181e+3, 1.5406543e+2, -1451463.8, -1312868.0, -65128.836, 0.07143089, 0.140043, -1287066.1, 143108.67, 0.00081847684, 9.999246, 10.001094 
1.4748551e+3, 1.6406566e+2, -1389323.3, -1422432.8, -97049.07, 0.075884834, 0.14549504, -1307427.1, 24744.758, 0.000071419374, 9.999806, 9.999399 
1.4748907e+3, 1.7406656e+2, -1377253.1, -1364858.4, -103545.33, -0.0054083015, 0.28628218, -1267325.1, -33158.99, 0.0000002932695, 9.999224, 9.999398 
1.4749277e+3, 1.8406652e+2, -1261038.5, -1188509.0, -69393.27, 0.0009563766, 0.32829598, -1146475.9, -10309.819, 0.0, 9.99905, 10.00002 
1.4749664e+3, 1.9406512e+2, -1092528.9, -1030823.25, -25684.451, 0.12699047, 0.16016783, -1021531.5, 16642.525, 0.0, 9.999424, 10.000248 
1.4750038e+3, 2.0406361e+2, -1025942.1, -1069647.5, -47666.57, 0.14998607, 0.045908168, -995357.8, -55171.66, 0.0, 9.999726, 9.999168 
1.4750391e+3, 2.1406196e+2, -897641.2, -953230.56, -38150.543, 0.033850674, -0.045042966, -878234.1, -36030.15, 0.0, 9.999927, 9.999196 
1.4750756e+3, 2.2406152e+2, -721712.3, -792034.1, -16266.59, -0.024837444, -0.0040255473, -718131.9, 26077.02, 0.0, 10.000348, 9.99943 
1.4751138e+3, 2.3406285e+2, -498752.56, -610841.5, -39042.336, -0.0035994365, 0.16100658, -486494.13, 159700.78, 0.0, 10.001105, 9.999635 
1.4751512e+3, 2.4406256e+2, -409737.53, -611582.0, -75113.09, -0.026990103, 0.22058676, -384853.25, 163344.0, 0.0, 10.00145, 9.998787 
1.4751877e+3, 2.540599e+2, -327084.34, -514001.78, -49094.883, -0.10315921, 0.063895226, -314973.94, 135249.36, 0.000000082863835, 10.001317, 9.998847 
1.4752246e+3, 2.640581e+2, -248104.02, -453653.06, -40958.66, -0.14632943, 0.024764206, -240243.03, 111997.43, 0.0000048986644, 10.001306, 9.998595 
1.4752622e+3, 2.7405763e+2, -121686.78, -321605.3, -40357.02, -0.13814978, 0.09107253, -113847.42, 140396.45, 0.00003489618, 10.001413, 9.998775 
1.4753005e+3, 2.840566e+2, 8836.244, -266852.38, 47028.414, -0.14195712, 0.15052797, 16637.826, 172890.52, 0.00016114493, 10.0018835, 9.998256 
1.47534e+3, 2.9405475e+2, 271532.16, -77747.86, 119089.29, -0.1627786, 0.11569385, 308271.88, 366542.13, 0.00056240807, 10.002976, 9.998347 
1.4753771e+3, 3.0405185e+2, 368365.72, -9848.298, -103063.46, -0.13936658, 0.0046106284, 394627.1, 394627.1, 0.001400618, 10.003342, 9.9983 
1.4754127e+3, 3.140508e+2, 236862.17, -74079.74, -142074.36, 0.14320427, 0.03765203, 292000.66, 292000.66, 0.0026176444, 10.002409, 9.998311 
1.4847037e+3, 1.2402537e+2, -1844321.1, -1832009.8, 70217.67, -0.118997596, 0.09049339, -1767678.5, -43112.02, 0.013700781, 9.999292, 9.999537 
1.4847416e+3, 1.3402513e+2, -1781218.6, -1796737.5, -83058.695, 0.06000019, 0.15932228, -1705557.6, -78984.8, 0.00813248, 9.999289, 9.999103 
1.4847791e+3, 1.440258e+2, -1588475.8, -1470125.6, 1425.7864, 0.0948173, 0.25241283, -1470108.4, 58458.652, 0.0035089266, 9.999158, 10.000726 
1.4848183e+3, 1.5402505e+2, -1406093.4, -1302205.0, -61391.563, 0.16691846, 0.07340207, -1273730.8, 156839.7, 0.0008836724, 9.999615, 10.000983 
1.4848554e+3, 1.6402543e+2, -1397270.9, -1402224.1, -157070.33, 0.14951001, 0.08915699, -1242657.6, 89908.58, 0.00007901186, 9.999671, 9.999595 
1.4848901e+3, 1.7402717e+2, -1342924.3, -1319979.3, -138499.9, 0.022783393, 0.29485077, -1192477.5, 42075.176, 0.00000037325287, 9.999348, 9.999642 
1.484927e+3, 1.840276e+2, -1214595.1, -1142535.0, -50089.17, 0.03324011, 0.36192477, -1116863.4, 19685.068, 0.0, 9.999269, 10.000233 
1.4849667e+3, 1.9402634e+2, -1021611.56, -969005.0, -65682.63, 0.21516168, 0.18221304, -924554.7, 114001.22, 0.0, 9.999798, 10.000492 
1.4850046e+3, 2.040251e+2, -923816.9, -982707.3, -101782.234, 0.23975179, 0.06952898, -847306.25, 93258.555, 0.0, 10.000272, 9.999496 
1.4850396e+3, 2.1402398e+2, -758891.44, -844661.5, -89710.05, 0.04640539, -0.0041107526, -702343.0, 140232.4, 0.0, 10.000703, 9.99956 
1.4850761e+3, 2.2402343e+2, -699962.6, -837860.75, -32955.11, -0.031954482, 0.029936196, -692491.75, 52089.715, 0.0, 10.000739, 9.99892 
1.4851147e+3, 2.3402387e+2, -654353.75, -750541.0, -46554.32, 0.036252692, 0.16262811, -635512.3, 11067.414, 0.0, 10.000319, 9.999048 
1.4851524e+3, 2.4402323e+2, -551181.25, -635521.75, -58583.82, 0.022868471, 0.20306492, -521168.44, 27417.334, 0.0, 10.00028, 9.999193 
1.4851886e+3, 2.5402114e+2, -366841.6, -472404.94, -48748.38, -0.10312419, 0.051522106, -347774.06, 102828.38, 0.00000011463164, 10.000781, 9.999394 
1.4852257e+3, 2.6401955e+2, -269276.72, -488804.78, -25107.01, -0.15977867, 0.01418391, -266441.88, 86174.516, 0.000005857849, 10.001277, 9.998364 
1.4852639e+3, 2.7401885e+2, -74378.21, -335464.56, -53273.605, -0.11935621, 0.09330998, -63926.36, 190698.53, 0.0000392753, 10.001904, 9.998441 
1.4853027e+3, 2.8401804e+2, 49190.965, -197583.02, 1546.8375, -0.09916659, 0.17072448, 49200.66, 205833.86, 0.00017652393, 10.001962, 9.998687 
1.4853424e+3, 2.9401684e+2, 45230.996, -130641.484, -18349.006, -0.11759083, 0.15472026, 47124.977, 105767.95, 0.0006113254, 10.001181, 9.998848 
1.4853802e+3, 3.0401358e+2, 186153.78, -137840.92, -210631.23, -0.09049607, 0.001084915, 289879.3, 289879.3, 0.0015128748, 10.002241, 9.997968 
1.4854175e+3, 3.140126e+2, 750892.2, 174038.45, -264384.06, 0.20699015, 0.081014164, 853731.2, 853731.2, 0.0028091935, 10.005947, 9.998323 
1.4947061e+3, 1.2398943e+2, -1803864.1, -1771212.5, 2403.76, 0.13941236, 0.425011, -1771036.5, -46113.86, 0.014485426, 9.999397, 9.999898 
1.494741e+3, 1.3398649e+2, -1715515.4, -1659196.4, -82906.836, 0.060572688, 0.12959632, -1599797.4, 27150.496, 0.008627366, 9.99929, 10.000042 
1.4947797e+3, 1.4398474e+2, -1670767.4, -1661196.5, 1979.4679, 0.20243257, -0.0075955074, -1660803.3, -131839.39, 0.0037456865, 9.999228, 9.999389 
1.4948174e+3, 1.5398556e+2, -1509916.4, -1520011.9, -37874.613, 0.114032246, 0.117390335, -1476754.6, -45795.594, 0.0009542572, 9.99962, 9.999488 
1.4948545e+3, 1.6398609e+2, -1338504.9, -1298187.6, -177352.97, 0.0647605, 0.20007688, -1139851.3, 193103.64, 0.00008722728, 9.9997425, 10.000277 
1.49489e+3, 1.7398567e+2, -1283882.0, -1193759.8, -147318.3, 0.06024879, 0.10359067, -1084765.0, 150191.6, 0.0000004647829, 9.999334, 10.000515 
1.4949267e+3, 1.8398544e+2, -1229914.0, -1185360.1, -43958.28, 0.055674296, 0.071285374, -1158356.4, -21398.502, 0.0, 9.999307, 9.999924 
1.4949653e+3, 1.939857e+2, -1056730.9, -1038383.0, -41309.824, 0.059529107, 0.08763361, -1005240.75, 33715.6, 0.0, 9.999777, 10.000029 
1.4950033e+3, 2.039865e+2, -894009.7, -912868.25, -93086.05, 0.070662975, 0.18093745, -809876.56, 131072.25, 0.0, 10.000233, 9.999996 
1.4950408e+3, 2.1398814e+2, -728633.94, -761258.3, -67639.54, 0.09954295, 0.3228468, -675367.44, 167564.19, 0.0, 10.000615, 10.000175 
1.4950778e+3, 2.2398767e+2, -722502.6, -871200.25, -54601.883, 0.061077587, 0.3367543, -704606.56, 40329.656, 0.0, 10.000671, 9.998729 
1.495114e+3, 2.3398405e+2, -685997.75, -799938.56, -57043.703, -0.072766244, 0.09433353, -662348.0, -15375.108, 0.0, 10.000243, 9.998749 
1.4951512e+3, 2.4398221e+2, -534127.4, -584134.6, -49491.844, -0.11690945, 0.012252288, -503681.72, 45307.344, 0.0, 10.00021, 9.99958 
1.4951901e+3, 2.53983e+2, -343306.44, -408706.38, -23110.018, -0.035004042, 0.09766402, -335964.4, 115010.414, 0.00000015644366, 10.000716, 9.999864 
1.4952287e+3, 2.639822e+2, -307841.8, -552955.94, -11171.699, 0.0019996434, 0.13477273, -307333.7, 45645.566, 0.000006865855, 10.001204, 9.997961 
1.4952672e+3, 2.7397928e+2, -123492.94, -419397.56, -23165.105, -0.006132405, 0.043061938, -121690.42, 133319.86, 0.00004412312, 10.001823, 9.997905 
1.4953056e+3, 2.8397736e+2, 2428.7913, -277120.97, -30116.258, -0.009278749, 0.06377721, 5636.4487, 162666.95, 0.0001927245, 10.001882, 9.99818 
1.4953446e+3, 2.939767e+2, 2344.4749, -206721.7, -37732.016, -0.027062563, 0.14340466, 8945.861, 67982.89, 0.0006575808, 10.00112, 9.998358 
1.4953826e+3, 3.0397344e+2, 145180.0, -185075.05, -95503.02, -0.09354753, 0.030910628, 170808.67, 170808.67, 0.0016033244, 10.002094, 9.997704 
1.4954215e+3, 3.1397253e+2, 725277.4, 191582.67, -105185.875, -0.0066985236, 0.14159648, 745260.25, 745260.25, 0.0029428573, 10.005653, 9.998579 
1.5047057e+3, 1.2394955e+2, -2143650.3, -1829532.0, -29303.926, 0.3133354, 0.40099162, -1826821.6, -101506.805, 0.015336173, 9.996633, 10.000821 
1.50474e+3, 1.3394773e+2, -1689869.5, -1560774.1, -78439.86, 0.05826659, 0.1285962, -1523738.3, 103587.43, 0.0091627855, 9.999086, 10.000826 
1.5047795e+3, 1.4394577e+2, -1605611.4, -1656300.1, 2115.646, 0.24292822, -0.056132246, -1605523.3, -76180.484, 0.0040015904, 9.999808, 9.999128 
1.5048164e+3, 1.5394707e+2, -1660264.8, -1627429.4, 31416.86, 0.09661203, 0.14627354, -1608399.1, -177063.6, 0.001031135, 9.998742, 9.99917 
1.5048534e+3, 1.6394751e+2, -1502334.9, -1381818.9, -34347.54, 0.05008588, 0.2399116, -1372717.1, -39384.113, 0.000096309515, 9.998624, 10.00025 
1.5048902e+3, 1.7394628e+2, -1164066.3, -1133580.9, -81168.78, 0.11926289, 0.0569228, -1066236.0, 169105.52, 0.000000575819, 10.000131, 10.00055 
1.5049271e+3, 1.8394578e+2, -1066953.5, -1147052.5, -24981.326, 0.116209865, 0.010499566, -1059801.0, 77545.04, 0.0, 10.000616, 9.999543 
1.5049644e+3, 1.9394659e+2, -1087349.8, -1095535.0, -37250.05, 0.010053468, 0.1224053, -1053968.1, -14625.76, 0.0, 9.999764, 9.999629 
1.5050022e+3, 2.0394753e+2, -1012904.4, -938530.6, -63923.734, -0.0074509378, 0.23977213, -901764.06, 39569.926, 0.0, 9.9992895, 10.000277 
1.5050408e+3, 2.1394873e+2, -861935.94, -785838.44, -71349.97, 0.097400315, 0.30279317, -743026.0, 100292.016, 0.0, 9.999528, 10.000537 
1.5050787e+3, 2.2394821e+2, -781956.25, -902495.2, -41165.152, 0.104098685, 0.2956388, -769239.56, -23917.9, 0.0, 10.00029, 9.998696 
1.5051153e+3, 2.339453e+2, -452823.94, -695585.5, -42331.184, -0.03684087, 0.13133743, -445654.25, 201698.92, 0.0, 10.001886, 9.998674 
1.5051529e+3, 2.4394345e+2, -217568.75, -479126.72, -59530.082, -0.08135747, 0.0741891, -204657.19, 344713.25, 0.0, 10.002605, 9.999136 
1.5051918e+3, 2.5394323e+2, -178439.58, -383151.66, -124436.84, 0.0006214278, 0.1096738, -119670.555, 331695.44, 0.00000020302433, 10.00209, 9.999367 
1.5052307e+3, 2.6394197e+2, -204452.23, -508492.6, -108106.71, 0.046752654, 0.12746665, -169932.34, 183442.75, 0.0000077496, 10.001939, 9.997911 
1.5052697e+3, 2.7393937e+2, -39845.426, -377694.22, -94457.02, 0.052626565, 0.06954988, -15230.211, 240171.88, 0.0000484326, 10.002387, 9.997924 
1.5053086e+3, 2.83937e+2, 63915.383, -313397.78, -101012.586, 0.06328421, 0.07395713, 89256.11, 246682.39, 0.00020690759, 10.002594, 9.997585 
1.505347e+3, 2.939349e+2, 158235.14, -202016.33, -149547.25, 0.055205036, 0.07948475, 212224.05, 271671.56, 0.0006956865, 10.002514, 9.997708 
1.5053852e+3, 3.0393144e+2, 238374.34, -183766.8, -108340.69, -0.059086792, -0.0036277736, 264555.72, 264555.72, 0.001664292, 10.002892, 9.997348 
1.5054254e+3, 3.1393155e+2, 464978.97, 77137.52, -130626.35, -0.06713191, 0.2478486, 504871.2, 504871.2, 0.0030088103, 10.003783, 9.99871 
1.5147012e+3, 1.2390611e+2, -2029415.0, -1593618.9, -63479.49, 0.18647373, 0.031283904, -1584560.6, 141178.13, 0.016257107, 9.99662, 10.002467 
1.5147384e+3, 1.3390906e+2, -1657194.1, -1478064.8, 21977.914, -0.035593145, 0.16233346, -1475407.6, 152296.73, 0.009740974, 9.999027, 10.001425 
1.5147781e+3, 1.4390945e+2, -1538141.9, -1539622.1, -41422.195, 0.116469756, 0.14919588, -1497453.1, 32245.375, 0.0042781597, 9.999895, 9.999893 
1.5148146e+3, 1.5390982e+2, -1603751.0, -1501276.1, -3254.997, 0.049414303, 0.17417055, -1501172.8, -69475.3, 0.0011151112, 9.998708, 10.000049 
1.514852e+3, 1.6390993e+2, -1542561.3, -1477333.8, 5352.3257, 0.039756324, 0.2138144, -1476897.5, -143199.3, 0.000106548556, 9.998664, 9.999579 
1.5148906e+3, 1.7390922e+2, -1220598.3, -1254271.9, -17026.072, 0.13579863, 0.16281995, -1213490.0, 22215.068, 0.0000007145684, 10.000141, 9.999719 
1.5149282e+3, 1.839088e+2, -1090764.3, -1209764.3, -55966.656, 0.14606664, 0.19229162, -1068578.8, 69132.27, 0.0, 10.000668, 9.999091 
1.5149643e+3, 1.9390908e+2, -1120426.6, -1158804.0, -65634.41, 0.010861541, 0.29290327, -1071233.4, -31520.277, 0.0, 9.999742, 9.9992075 
1.5150009e+3, 2.039083e+2, -1015457.56, -938142.1, -70467.89, -0.055584196, 0.26041517, -896424.8, 45294.813, 0.0, 9.999258, 10.000298 
1.5150392e+3, 2.1390589e+2, -867729.6, -779002.2, -58564.215, -0.013016144, -0.046862014, -749895.44, 93837.766, 0.0, 9.999442, 10.0006275 
1.5150781e+3, 2.2390524e+2, -790419.5, -891403.25, 5878.3564, 0.030640421, -0.07690529, -790078.5, -44342.293, 0.0, 10.000167, 9.998833 
1.5151185e+3, 2.3390749e+2, -460718.22, -687233.3, 25409.95, 0.077743664, 0.26291925, -457902.78, 189818.8, 0.0, 10.00178, 9.998783 
1.515157e+3, 2.439069e+2, -322251.25, -674149.2, -78547.7, 0.061200466, 0.38356707, -305514.5, 244215.83, 0.0, 10.002501, 9.997854 
1.5151934e+3, 2.5390205e+2, -290725.22, -599893.5, -135915.94, -0.04587416, 0.09772445, -239471.08, 212303.53, 0.00000026346208, 10.002011, 9.997924 
1.5152313e+3, 2.63899e+2, -200501.78, -476927.13, -97466.664, -0.08236761, 0.0052485606, -169591.73, 184210.3, 0.0000083363275, 10.001841, 9.998174 
1.5152715e+3, 2.73899e+2, -27144.984, -318098.2, -66242.43, -0.0006654625, 0.15878238, -12773.214, 243027.78, 0.000050839903, 10.002251, 9.998395 
1.5153112e+3, 2.838969e+2, -5027.65, -433211.84, -107853.79, 0.052005738, 0.19722344, 20604.816, 178425.92, 0.00021853698, 10.002478, 9.996824 
1.5153497e+3, 2.9389158e+2, 88329.45, -340348.03, -138492.98, 0.061126634, -0.02972481, 129179.67, 189053.45, 0.0007280365, 10.002471, 9.996783 
1.515388e+3, 3.0388767e+2, 188781.08, -245507.66, -82518.73, -0.06334936, -0.08692445, 203931.81, 203931.81, 0.0017041201, 10.0027485, 9.996977 
1.5154289e+3, 3.1388944e+2, 418734.5, 72987.375, -70761.24, -0.12197923, 0.35345238, 432656.1, 432656.1, 0.0030231727, 10.003435, 9.998826 
1.5246984e+3, 1.23866305e+2, -1718507.0, -1424052.9, -29102.445, 0.15430371, -0.02562772, -1421204.1, 304924.97, 0.017244658, 9.99867, 10.002657 
1.5247369e+3, 1.338697e+2, -1880231.5, -1625978.9, -164.82709, -0.005290479, 0.17702544, -1625978.8, 2113.9038, 0.010359608, 9.997663, 10.001061 
1.5247762e+3, 1.4387093e+2, -1835316.5, -1630096.9, -101811.016, 0.05607058, 0.24902944, -1588158.3, -58079.426, 0.0045741852, 9.99764, 10.000359 
1.5248139e+3, 1.5387064e+2, -1397171.9, -1340199.0, -100428.16, 0.056143295, 0.15023316, -1264295.4, 167785.75, 0.0012060112, 9.999844, 10.000617 
1.5248519e+3, 1.6387051e+2, -1273886.3, -1367199.8, -81784.1, 0.06884707, 0.147142, -1226386.3, 107696.73, 0.000118081814, 10.000629, 9.999375 
1.5248902e+3, 1.738706e+2, -1316378.0, -1333045.5, -86657.74, 0.12600559, 0.2095385, -1237654.1, -1569.4143, 0.0000008766353, 9.99965, 9.99941 
1.524928e+3, 1.8387042e+2, -1289284.9, -1303294.8, -86219.13, 0.14738873, 0.2807787, -1209786.6, -71697.555, 0.0, 9.999292, 9.999115 
1.5249647e+3, 1.938701e+2, -1053607.5, -1125772.6, -74893.07, 0.07390194, 0.31765118, -1006558.06, 33536.848, 0.0, 10.000175, 9.999236 
1.5250017e+3, 2.038687e+2, -818576.94, -887272.9, -49475.203, 0.02351036, 0.23982587, -792695.56, 149410.98, 0.0, 10.000794, 9.999901 
1.5250395e+3, 2.138658e+2, -662836.6, -729707.7, -90505.75, 0.0047284784, -0.07375517, -599787.8, 244337.66, 0.0, 10.001058, 10.000183 
1.5250786e+3, 2.2386482e+2, -663930.4, -840857.06, -29628.436, 0.027090235, -0.109240346, -659100.56, 87031.3, 0.0, 10.001077, 9.998738 
1.5251197e+3, 2.3386692e+2, -617176.7, -767533.25, -34607.293, 0.10510004, 0.22170736, -609593.6, 38524.34, 0.0, 10.000728, 9.9987335 
1.525159e+3, 2.4386637e+2, -557005.1, -801291.0, -105482.734, 0.09681189, 0.3525633, -517761.84, 32364.98, 0.0, 10.000956, 9.99772 
1.5251952e+3, 2.5386187e+2, -284492.53, -610161.06, -85246.94, -0.048249878, 0.11930705, -263527.88, 188641.23, 0.0000003530132, 10.002115, 9.9978 
1.5252332e+3, 2.6385882e+2, -130388.61, -488441.47, -22255.453, -0.09152873, 0.05245621, -129010.58, 225187.28, 0.00000861748, 10.002517, 9.99777 
1.5252736e+3, 2.7385816e+2, -132492.3, -415044.88, -70972.83, 0.02601299, 0.18058126, -115666.945, 140537.83, 0.000051572304, 10.001733, 9.997973 
1.5253136e+3, 2.838557e+2, -109390.914, -517071.94, -82516.19, 0.09007753, 0.2202974, -93322.63, 64906.293, 0.00023011875, 10.00191, 9.996524 
1.5253526e+3, 2.9385072e+2, 238378.58, -302202.34, -85340.984, 0.05587873, 0.05754628, 251531.27, 311809.66, 0.0007596861, 10.003644, 9.996489 
1.5253912e+3, 3.038468e+2, 363527.9, -204725.22, -33987.816, -0.083264515, 0.03406422, 365553.53, 365553.53, 0.0017371096, 10.004116, 9.99661 
1.5254319e+3, 3.138462e+2, 260236.47, -48062.184, -60385.918, -0.0877106, 0.27438378, 271642.2, 271642.2, 0.0030213417, 10.002488, 9.998468 
1.5346965e+3, 1.23831384e+2, -1825244.8, -1663302.4, -73255.49, 0.052116517, 0.33381066, -1635082.4, 91391.125, 0.018294634, 9.9987545, 10.00095 
1.5347354e+3, 1.3382994e+2, -1989420.4, -1832801.6, -43819.527, 0.08980266, 0.19502707, -1821375.1, -192887.36, 0.011016667, 9.997591, 9.999669 
1.5347734e+3, 1.4383043e+2, -1821487.6, -1612918.5, -45950.098, -0.0026844947, 0.26543364, -1603243.9, -72762.234, 0.0048880493, 9.997676, 10.000468 
1.5348138e+3, 1.5382965e+2, -1380296.4, -1294570.8, -11948.567, 0.052391663, 0.09014933, -1292936.5, 139548.66, 0.0013030368, 9.999809, 10.000947 
1.5348527e+3, 1.638295e+2, -1251180.8, -1342498.8, -119011.5, 0.0674954, 0.0607585, -1169370.3, 165115.34, 0.00013086536, 10.00071, 9.999514 
1.534889e+3, 1.7383051e+2, -1310051.5, -1317034.1, -120579.95, 0.034950748, 0.20318422, -1192912.4, 43567.254, 0.0000010420176, 9.999638, 9.999525 
1.5349264e+3, 1.8383072e+2, -1249701.5, -1232452.0, -68705.766, 0.048533063, 0.28493434, -1171831.8, -33352.547, 0.0, 9.999333, 9.999585 
1.5349656e+3, 1.938297e+2, -1016925.9, -1046792.8, -35528.902, 0.1365676, 0.19944483, -993319.6, 47167.73, 0.0, 10.000161, 9.999785 
1.5350041e+3, 2.0382884e+2, -881336.4, -1006660.1, -43623.836, 0.16182198, 0.17944661, -867646.75, 74846.95, 0.0, 10.000747, 9.999105 
1.5350415e+3, 2.1382841e+2, -745208.75, -880040.1, -74615.37, 0.08914716, 0.21106601, -712064.4, 132430.9, 0.0, 10.000968, 9.999193 
1.5350798e+3, 2.2382692e+2, -702411.06, -897550.06, -47587.49, 0.031082638, 0.19398108, -691424.7, 55084.082, 0.0, 10.00097, 9.9984045 
1.5351196e+3, 2.3382373e+2, -641187.25, -804006.3, -40351.363, 0.00049656734, 0.01770025, -631735.7, 16805.367, 0.0, 10.000662, 9.998519 
1.5351588e+3, 2.4382192e+2, -512205.03, -677496.2, -73894.164, -0.034533035, -0.004915988, -483987.44, 66571.516, 0.0, 10.000831, 9.998627 
1.5351972e+3, 2.5382254e+2, -229699.31, -468060.53, -34052.027, -0.07011987, 0.16902927, -224930.1, 227621.69, 0.0000004707298, 10.001999, 9.998829 
1.5352362e+3, 2.638213e+2, -212661.97, -637082.25, -54036.48, -0.05361423, 0.2646709, -205890.19, 148675.23, 0.000008627056, 10.002413, 9.996804 
1.5352757e+3, 2.7381694e+2, -227666.16, -598560.7, -93927.195, 0.059112158, 0.1513995, -205236.05, 51376.47, 0.00005249674, 10.001666, 9.996751 
1.5353155e+3, 2.8381348e+2, -123948.57, -524151.38, -31575.336, 0.09396902, 0.15550356, -121472.65, 37176.934, 0.00024287311, 10.001807, 9.996528 
1.5353556e+3, 2.9381183e+2, 234536.14, -284964.47, -3632.1328, -0.024783729, 0.30658847, 234561.53, 295227.75, 0.0007920956, 10.003533, 9.99666 
1.5353943e+3, 3.0380842e+2, 315559.56, -262564.97, -85274.805, -0.18259427, 0.33854043, 327875.44, 327875.44, 0.0017746214, 10.003953, 9.996283 
1.5354344e+3, 3.138021e+2, 170547.81, -158229.34, -85334.03, -0.10360518, 0.04410869, 191376.69, 191376.69, 0.003039379, 10.002192, 9.99784 
1.544694e+3, 1.23792656e+2, -1970412.3, -1794701.9, -128983.9, -0.025295002, 0.45144072, -1726495.0, 359.95493, 0.019406972, 9.99804, 10.000374 
1.5447344e+3, 1.3378976e+2, -1886096.9, -1802148.3, -87153.54, 0.1985029, 0.18912116, -1747388.0, -118504.125, 0.0117135905, 9.998376, 9.999501 
1.5447718e+3, 1.4379023e+2, -1764572.8, -1578244.6, 32013.83, 0.053550787, 0.26077247, -1572897.6, -42019.91, 0.0052204016, 9.998048, 10.000519 
1.5448125e+3, 1.5378955e+2, -1698119.4, -1444437.1, 36177.254, 0.06256822, 0.091151185, -1439378.8, -6499.37, 0.0014059248, 9.997606, 10.000981 
1.5448517e+3, 1.6378942e+2, -1632312.0, -1511335.0, -78994.72, 0.04464206, 0.05524353, -1472329.6, -137450.86, 0.00014487762, 9.998035, 9.999635 
1.5448885e+3, 1.7379037e+2, -1226822.1, -1265492.4, -96660.234, -0.0005688178, 0.17555353, -1147582.1, 89290.74, 0.000001197513, 10.000141, 9.999637 
1.5449265e+3, 1.8379039e+2, -1000867.9, -1107580.1, -61347.375, 0.027058847, 0.23243168, -972919.8, 165953.5, 0.0, 10.001032, 9.99962 
1.5449658e+3, 1.9378918e+2, -1004469.06, -1032049.06, -79779.24, 0.1484561, 0.12286614, -937296.8, 103585.11, 0.0, 10.000226, 9.999849 
1.5450047e+3, 2.0378837e+2, -1036432.0, -1130771.5, -74832.0, 0.20251341, 0.12581518, -995143.8, -52255.78, 0.0, 9.999911, 9.998655 
1.5450427e+3, 2.1378845e+2, -861724.8, -995495.9, -84669.734, 0.15310754, 0.26174605, -820709.25, 24178.96, 0.0, 10.000437, 9.998658 
1.5450811e+3, 2.2378688e+2, -718432.94, -909408.0, -27960.135, 0.0903543, 0.2692525, -714423.56, 32480.127, 0.0, 10.000888, 9.99836 
1.5451202e+3, 2.3378287e+2, -555696.06, -759258.9, -22750.682, -0.0057616234, 0.010813078, -553184.44, 95756.92, 0.0, 10.001251, 9.998538 
1.5451597e+3, 2.4378073e+2, -424202.56, -652029.06, -49406.99, -0.047550242, -0.037610233, -413949.47, 137012.42, 0.000000000009610117, 10.001498, 9.998486 
1.5451996e+3, 2.5378177e+2, -317675.72, -529641.6, -104980.266, -0.0059687924, 0.19289716, -274483.47, 178470.33, 0.0000005675007, 10.001477, 9.998661 
1.545239e+3, 2.6378077e+2, -330886.88, -675947.5, -151293.94, 0.02531639, 0.3196273, -273947.0, 81019.47, 0.000008574752, 10.0015335, 9.996957 
1.5452772e+3, 2.7377653e+2, -195895.31, -563490.2, -114049.305, 0.036098674, 0.1996997, -163385.7, 93626.68, 0.000054083346, 10.0018015, 9.996927 
1.5453173e+3, 2.837732e+2, -9479.928, -439478.06, 79816.4, 0.053274136, 0.19828612, 4857.5625, 163905.2, 0.0002557582, 10.002479, 9.996774 
1.5453598e+3, 2.9377177e+2, 284634.13, -235044.64, 102772.2, 0.036205396, 0.3451356, 304220.28, 365282.78, 0.0008260998, 10.003774, 9.9968815 
1.545399e+3, 3.03769e+2, 340269.5, -216148.58, -42787.1, -0.10390149, 0.40823334, 343540.5, 343540.5, 0.0018264704, 10.003961, 9.996603 
1.5454361e+3, 3.1376296e+2, 173282.66, -177913.77, -40342.46, -0.14041808, 0.12160118, 177857.27, 177857.27, 0.0030999654, 10.002263, 9.997685 
1.5546913e+3, 1.23749316e+2, -1923139.9, -1706156.6, -35484.91, -0.124805115, 0.25517768, -1700501.0, 26780.193, 0.020587768, 9.998074, 10.000973 
1.5547332e+3, 1.3374938e+2, -1804435.0, -1617484.5, -81092.8, 0.24530879, 0.1739672, -1587211.4, 42067.207, 0.012455585, 9.998323, 10.000793 
1.5547709e+3, 1.4375052e+2, -1753494.4, -1571903.3, 7111.9507, 0.144545, 0.23609947, -1571625.1, -40360.24, 0.0055746003, 9.998102, 10.000544 
1.5548097e+3, 1.537507e+2, -1721547.0, -1484874.0, 27047.063, 0.013883373, 0.17355423, -1481822.4, -48562.16, 0.001515748, 9.997573, 10.000719 
1.5548487e+3, 1.637506e+2, -1622839.5, -1500003.5, -18610.414, -0.07665702, 0.15610568, -1497245.8, -161986.22, 0.00016035176, 9.99806, 9.999706 
1.5548885e+3, 1.737503e+2, -1219311.3, -1244872.9, -12005.432, -0.026772164, 0.13828503, -1214557.0, 22706.479, 0.0000013687348, 10.000121, 9.999789 
1.5549275e+3, 1.8374965e+2, -1022074.8, -1160621.0, -86850.66, 0.023363713, 0.13419743, -980254.3, 159015.23, 0.0, 10.00107, 9.999238 
1.5549651e+3, 1.9374864e+2, -1042904.75, -1104601.5, -105953.086, 0.048429392, 0.09314791, -963400.6, 77876.78, 0.0, 10.000198, 9.999363 
1.5550034e+3, 2.037474e+2, -1051183.3, -1157644.0, -69645.55, 0.08175205, 0.087719366, -1016755.3, -73466.59, 0.0, 9.999882, 9.998491 
1.5550432e+3, 2.1374594e+2, -876328.8, -1013572.7, -59222.31, 0.14114186, 0.08040665, -854307.2, -9003.046, 0.0, 10.000373, 9.9985695 
1.5550825e+3, 2.2374474e+2, -720800.25, -892880.06, -20717.7, 0.13357522, 0.12221062, -718341.06, 28975.076, 0.0, 10.000792, 9.998522 
1.5551218e+3, 2.3374413e+2, -554472.6, -739109.4, -1380.6099, 0.020957792, 0.1854053, -554462.3, 94858.6, 0.0, 10.00117, 9.998717 
1.5551615e+3, 2.437426e+2, -520420.06, -822603.44, -53880.69, -0.015374147, 0.23662408, -511100.3, 40237.273, 0.0, 10.00137, 9.997378 
1.5552019e+3, 2.5373966e+2, -423911.72, -722103.56, -96542.22, 0.07994183, 0.19650438, -395384.47, 57988.72, 0.0000005355393, 10.001354, 9.997402 
1.5552409e+3, 2.6373747e+2, -274995.13, -528312.9, -142087.22, 0.07029351, 0.22459628, -211308.94, 144089.95, 0.000008556659, 10.001396, 9.998035 
1.5552777e+3, 2.7373666e+2, -111516.29, -368066.03, -91121.695, -0.09218968, 0.30737302, -82445.66, 174960.8, 0.00005618316, 10.001716, 9.998307 
1.5553184e+3, 2.8373462e+2, 4744.045, -388648.38, 117829.28, -0.08912781, 0.3371567, 37336.164, 196762.88, 0.00027013978, 10.002379, 9.997175 
1.5553647e+3, 2.9373068e+2, 283503.22, -196744.36, 162020.95, 0.15233457, 0.20587525, 333052.03, 394518.06, 0.0008660021, 10.003593, 9.997234 
1.5554045e+3, 3.0372852e+2, 348944.63, -125927.42, -98259.234, 0.047927484, 0.27462345, 368473.06, 368473.06, 0.0019021073, 10.00368, 9.997346 
1.5554367e+3, 3.137279e+2, 163027.3, -146096.22, -76829.98, -0.31930032, 0.44673893, 181069.67, 181069.67, 0.003217579, 10.002073, 9.997976 
1.5646894e+3, 1.23707816e+2, -1916900.1, -1703581.9, 138122.25, -0.10530068, 0.1376004, -1635730.5, 91955.04, 0.021849003, 9.998109, 10.00099 
1.5647313e+3, 1.3370886e+2, -1776269.1, -1584281.8, -72784.35, 0.2222187, 0.13794394, -1559808.1, 69865.71, 0.013250772, 9.998401, 10.001003 
1.5647702e+3, 1.437103e+2, -1664737.8, -1541372.5, -23393.756, 0.24335876, 0.22022334, -1537085.3, -5426.4893, 0.0059556314, 9.998788, 10.000416 
1.5648085e+3, 1.537111e+2, -1428175.3, -1367925.8, -20906.563, 0.045830105, 0.23981357, -1361381.9, 72268.65, 0.0016345053, 9.9997, 10.000494 
1.5648474e+3, 1.6371106e+2, -1390518.0, -1376642.8, -41202.65, -0.078861095, 0.2367922, -1341797.8, -6147.8726, 0.00017771397, 9.999611, 9.999807 
1.5648878e+3, 1.7371003e+2, -1487286.8, -1354222.8, -42654.703, 0.0077689704, 0.13488163, -1341723.5, -104065.195, 0.0000016137079, 9.9982, 9.999964 
1.5649274e+3, 1.837091e+2, -1456309.8, -1397479.6, -84281.7, 0.06329055, 0.102670476, -1337627.4, -197961.06, 0.0, 9.998208, 9.998992 
1.5649652e+3, 1.9370845e+2, -984508.8, -1115645.8, -101309.51, 0.02150801, 0.12971798, -929400.7, 112271.57, 0.0, 10.000753, 9.999029 
1.5650038e+3, 2.0370714e+2, -759037.4, -1046130.4, -81442.766, 0.031703483, 0.14774658, -737542.94, 206142.61, 0.0, 10.002022, 9.998217 
1.5650436e+3, 2.1370497e+2, -751171.7, -979847.1, -100759.83, 0.12381367, 0.09477941, -713109.75, 132598.67, 0.0, 10.00136, 9.998313 
1.5650836e+3, 2.2370347e+2, -718195.06, -893905.6, -59900.734, 0.16549312, 0.123296626, -699717.6, 48005.797, 0.0, 10.000823, 9.998495 
1.5651235e+3, 2.337032e+2, -649832.2, -783864.2, -64789.816, 0.11614433, 0.21987593, -623634.1, 26090.299, 0.0, 10.000506, 9.998728 
1.5651631e+3, 2.4370183e+2, -682244.3, -873423.7, -78475.83, 0.087137476, 0.2749263, -654157.6, -102418.336, 0.0, 10.000138, 9.997623 
1.5652023e+3, 2.5369886e+2, -632635.75, -787287.94, -27262.658, 0.07640408, 0.20454538, -627970.56, -174196.19, 0.00000039469393, 9.999771, 9.997711 
1.5652412e+3, 2.6369673e+2, -433446.44, -591257.1, 12297.058, 0.026605813, 0.21338719, -432493.97, -76694.97, 0.000008163994, 10.000255, 9.998154 
1.5652797e+3, 2.7369592e+2, -55589.867, -333057.1, -36793.35, -0.0806501, 0.2885014, -50793.81, 207012.22, 0.00005803459, 10.002065, 9.998381 
1.5653211e+3, 2.83694e+2, 46325.51, -360474.75, 85426.31, -0.058723856, 0.32583332, 63536.504, 223361.63, 0.00028587517, 10.002635, 9.99725 
1.5653668e+3, 2.9369047e+2, -47115.54, -348063.13, 84537.68, 0.13858664, 0.23456295, -24994.482, 36867.08, 0.0009116344, 10.001291, 9.997304 
1.5654069e+3, 3.0368823e+2, 103150.88, -164388.5, -140164.75, 0.05360463, 0.25892618, 163134.86, 163134.86, 0.0019994664, 10.001613, 9.998089 
1.5654409e+3, 3.13688e+2, 552382.94, 93627.48, -134947.53, -0.22175156, 0.39541644, 589134.8, 589134.8, 0.003389772, 10.004499, 9.998476 
1.5746884e+3, 1.23668976e+2, -1947531.6, -1773981.0, 140538.4, -0.05762744, 0.15301386, -1695586.8, 32472.797, 0.023204513, 9.998137, 10.000487 
1.5747279e+3, 1.3366884e+2, -1846823.6, -1722826.4, -58073.188, 0.041570876, 0.12248337, -1699876.1, -69811.96, 0.014108494, 9.998384, 10.000048 
1.5747695e+3, 1.4366995e+2, -1676395.1, -1591788.6, -2261.409, 0.28028142, 0.2452631, -1591728.3, -59672.21, 0.0063687824, 9.998885, 10.000032 
1.574809e+3, 1.5367074e+2, -1440079.0, -1400650.4, 18121.445, 0.10950938, 0.29530752, -1393587.1, 40463.13, 0.00176415, 9.999734, 10.000256 
1.5748477e+3, 1.6367082e+2, -1364713.8, -1342653.3, -93567.984, -0.025572335, 0.30547512, -1259467.6, 76581.6, 0.00019721544, 9.999689, 10.000006 
1.5748864e+3, 1.7366974e+2, -1477605.3, -1326188.0, -92334.9, 0.046184704, 0.17527473, -1282491.8, -44435.668, 0.0000019795527, 9.998168, 10.000171 
1.574926e+3, 1.8366891e+2, -1461613.0, -1414057.5, -13027.614, 0.079041034, 0.14726576, -1410722.5, -270660.22, 0.0, 9.998225, 9.998873 
1.5749659e+3, 1.9366874e+2, -1000654.75, -1141696.8, 2012.9856, 0.00933984, 0.23634365, -1000626.0, 41439.457, 0.0, 10.000722, 9.998866 
1.5750054e+3, 2.0366776e+2, -791183.4, -1108932.5, -96632.016, -0.017493663, 0.3150456, -764104.0, 179972.83, 0.0, 10.001997, 9.997799 
1.5750442e+3, 2.1366559e+2, -797465.4, -1056522.0, -120443.086, 0.04609621, 0.30830595, -750120.5, 95979.984, 0.0, 10.001275, 9.9978285 
1.575084e+3, 2.2366308e+2, -745600.56, -930626.56, -78042.914, 0.12244264, 0.27143675, -717079.06, 31046.46, 0.0, 10.000731, 9.998289 
1.575125e+3, 2.3366016e+2, -675645.4, -814990.7, -68605.336, 0.21615015, 0.11903563, -647537.8, 2613.3542, 0.0, 10.000408, 9.998563 
1.5751643e+3, 2.4365856e+2, -594400.4, -668520.44, -96377.625, 0.18350828, 0.09679428, -528203.0, 23962.375, 0.0, 10.000037, 9.999078 
1.5752009e+3, 2.5365928e+2, -518043.3, -545921.06, -35467.883, -0.055220723, 0.22366276, -493873.63, -39714.652, 0.00000029448665, 9.999751, 9.999378 
1.5752396e+3, 2.6365826e+2, -493296.84, -709107.75, 63501.74, -0.15251411, 0.28911617, -475998.22, -119828.28, 0.000007127328, 10.000224, 9.997361 
1.5752825e+3, 2.736544e+2, -144938.19, -500103.53, 40252.88, -0.008634348, 0.16378355, -140433.25, 117777.14, 0.000058416226, 10.001986, 9.997272 
1.5753248e+3, 2.836516e+2, 10261.86, -422030.16, 42509.51, 0.049315564, 0.1896016, 14402.382, 174643.27, 0.00029913065, 10.002563, 9.996866 
1.5753663e+3, 2.9365087e+2, -72904.586, -398095.38, 47745.082, -0.05013969, 0.40682676, -66039.5, -3787.7983, 0.0009575958, 10.001264, 9.996981 
1.5754066e+3, 3.0364785e+2, 135611.06, -63275.97, -54798.37, -0.15329114, 0.34510615, 149709.94, 149709.94, 0.0021071383, 10.001491, 9.998827 
1.5754475e+3, 3.136442e+2, 558517.5, 192351.16, -3877.842, -0.030853452, 0.037396368, 558558.56, 558558.56, 0.0035913412, 10.004152, 9.999308 
1.5846875e+3, 1.23629086e+2, -1925925.6, -1779776.6, 6361.349, 0.048751634, 0.2076103, -1779500.3, -51049.38, 0.024665277, 9.998377, 10.0003195 
1.5847254e+3, 1.3362838e+2, -1782218.8, -1672351.0, -76565.45, -0.06528113, 0.10609127, -1633051.1, -2590.5308, 0.0150364665, 9.998749, 10.000217 
1.5847687e+3, 1.4362946e+2, -1682900.3, -1611076.0, 44882.86, 0.31598148, 0.2226966, -1589506.4, -57053.605, 0.0068181083, 9.998915, 9.999881 
1.5848087e+3, 1.5363039e+2, -1625709.5, -1514464.6, 54643.266, 0.18771492, 0.3051644, -1492114.4, -57667.137, 0.0019058621, 9.998555, 10.000043 
1.5848476e+3, 1.6363041e+2, -1526631.0, -1465873.4, -74244.73, 0.050573163, 0.33978176, -1416032.8, -79585.0, 0.0002187055, 9.998776, 9.999596 
1.5848856e+3, 1.7362888e+2, -1211621.0, -1247302.0, -140029.52, 0.04613322, 0.20739335, -1088300.0, 150159.69, 0.000002466339, 10.000203, 9.999731 
1.584925e+3, 1.8362775e+2, -1065778.9, -1210392.5, -30338.658, 0.053422622, 0.17182806, -1059671.9, 80797.09, 0.0, 10.0008955, 9.99898 
1.5849665e+3, 1.9362769e+2, -1002857.8, -1115444.6, 4769.6006, 0.017976504, 0.25271183, -1002656.1, 39814.27, 0.0, 10.000599, 9.999098 
1.5850069e+3, 2.0362689e+2, -997365.7, -1185419.6, -88427.78, 0.018276863, 0.32556546, -962316.94, -17837.578, 0.0, 10.000487, 9.998007 
1.5850456e+3, 2.1362488e+2, -850530.44, -1061889.6, -82586.84, 0.09704891, 0.31738678, -822087.8, 24412.947, 0.0, 10.000811, 9.998027 
1.5850852e+3, 2.2362249e+2, -690273.9, -885897.9, 19284.52, 0.15959537, 0.2742856, -688390.94, 60133.32, 0.0, 10.001041, 9.998447 
1.5851255e+3, 2.3361978e+2, -525229.06, -723602.44, 37005.38, 0.18006417, 0.12772879, -518550.75, 131997.33, 0.0, 10.001364, 9.998732 
1.5851647e+3, 2.4361822e+2, -357146.6, -572547.7, -14038.666, 0.13311012, 0.108128905, -356235.5, 196326.28, 0.0, 10.001759, 9.9989 
1.5852019e+3, 2.5361866e+2, -169423.34, -408034.94, -105347.53, -0.032314185, 0.23262554, -129568.92, 324989.1, 0.00000023115544, 10.002273, 9.999109 
1.5852416e+3, 2.636174e+2, -164779.89, -576042.25, -30426.027, -0.09185733, 0.2986519, -162541.1, 194030.86, 0.0000061293663, 10.002597, 9.997123 
1.585285e+3, 2.7361354e+2, -47195.883, -475380.0, -3303.2087, 0.021222707, 0.20474206, -47170.402, 211442.1, 0.000059467606, 10.0027685, 9.997056 
1.5853275e+3, 2.8361082e+2, 52509.004, -400406.16, 4013.8882, 0.06652944, 0.25095835, 52544.574, 213186.56, 0.00031124914, 10.00286, 9.996865 
1.5853684e+3, 2.9360986e+2, 144736.8, -285777.75, -754.5477, -0.03378931, 0.4394686, 144738.11, 207391.6, 0.0010018346, 10.002742, 9.997029 
1.5854089e+3, 3.036058e+2, 267187.16, -74513.984, -46778.26, -0.112201124, 0.29883248, 273475.28, 273475.28, 0.0022124546, 10.002681, 9.998199 
1.5854514e+3, 3.1360236e+2, 289109.16, 4040.8914, -125045.07, 0.025945053, 0.08757379, 336185.8, 336185.8, 0.0037847501, 10.002527, 9.998804 
1.5946859e+3, 1.2358824e+2, -1910579.4, -1774134.5, -128217.58, 0.02907629, 0.31007448, -1697119.0, 31740.826, 0.026239868, 9.998474, 10.00032 
1.5947235e+3, 1.3358751e+2, -1687119.8, -1475989.6, -45379.29, -0.13780136, 0.080277905, -1466649.3, 164214.05, 0.016040104, 9.998742, 10.001583 
1.5947673e+3, 1.4358893e+2, -1664255.3, -1597226.8, 26599.863, 0.27693862, 0.14768222, -1587953.6, -55105.563, 0.0073062, 9.999004, 9.99994 
1.5948077e+3, 1.5359022e+2, -1640651.6, -1543347.3, 46864.676, 0.21914177, 0.2804026, -1524447.0, -89607.76, 0.002060233, 9.998539, 9.999857 
1.5948467e+3, 1.6359006e+2, -1597313.6, -1618647.8, -35587.44, 0.079024844, 0.3541524, -1570829.0, -233985.67, 0.00024185247, 9.998799, 9.998537 
1.5948848e+3, 1.7358755e+2, -1295147.8, -1421661.9, -79223.06, -0.04314807, 0.24147457, -1257025.6, -18157.195, 0.0000030340082, 10.000209, 9.99853 
1.5949248e+3, 1.8358573e+2, -1030665.6, -1153650.0, -42809.473, -0.07726911, 0.18932498, -1017231.56, 123653.91, 0.0, 10.000958, 9.99934 
1.594967e+3, 1.9358544e+2, -967229.56, -1034815.06, -1532.999, -0.0043319142, 0.18739147, -967194.8, 75691.33, 0.0, 10.000569, 9.999666 
1.5950081e+3, 2.0358455e+2, -947330.6, -1074310.5, -85773.34, 0.079841726, 0.1884577, -904105.8, 40787.184, 0.0, 10.000452, 9.998785 
1.5950477e+3, 2.1358286e+2, -807191.2, -947024.3, -65653.84, 0.2119709, 0.12744373, -781197.6, 65711.53, 0.0, 10.000709, 9.998861 
1.5950866e+3, 2.235818e+2, -670278.9, -824110.3, 24471.102, 0.2047287, 0.14821285, -666479.9, 82439.02, 0.0, 10.000942, 9.998922 
1.5951246e+3, 2.3358196e+2, -510749.3, -672943.56, 56686.383, -0.039753348, 0.24368823, -492901.56, 158014.73, 0.0, 10.0012665, 9.999131 
1.5951638e+3, 2.4358071e+2, -498717.88, -837512.06, 693.58563, -0.12846856, 0.3084096, -498716.47, 54213.234, 0.0, 10.001634, 9.997141 
1.5952054e+3, 2.5357708e+2, -332070.8, -720173.44, -76757.89, 0.067264, 0.23171377, -317441.3, 137529.44, 0.00000009760233, 10.002165, 9.997015 
1.5952465e+3, 2.635742e+2, -163886.27, -558586.2, -26191.117, 0.12959611, 0.2526267, -162155.89, 194846.66, 0.0000054247644, 10.002519, 9.997286 
1.5952872e+3, 2.735733e+2, -22799.879, -408447.16, 16414.074, -0.040202938, 0.39598837, -22102.518, 236910.81, 0.00006233866, 10.002684, 9.997561 
1.595329e+3, 2.8357142e+2, 50576.336, -371138.3, -1992.6208, -0.07685655, 0.48539108, 50585.75, 211617.53, 0.00032281963, 10.002719, 9.997135 
1.5953724e+3, 2.9356733e+2, 148653.22, -257573.66, 7016.4346, 0.09375535, 0.33722726, 148774.38, 211842.89, 0.0010343667, 10.002648, 9.997274 
1.5954135e+3, 3.03562e+2, 115549.52, -345002.75, -56144.707, 0.0745632, 0.13433726, 122295.17, 122295.17, 0.0022870717, 10.002513, 9.996411 
1.5954523e+3, 3.1356195e+2, 129804.945, -255333.98, -91925.695, -0.13991337, 0.46965733, 150620.89, 150620.89, 0.0039174845, 10.002238, 9.997155 
1.6046852e+3, 1.2354778e+2, -1933722.4, -1819695.9, -113624.72, 0.112517424, 0.36363682, -1749582.9, -20320.344, 0.027939666, 9.998467, 10.000004 
1.6047226e+3, 1.3354796e+2, -1553941.9, -1404248.8, -41870.23, -0.11466261, 0.22519308, -1393333.3, 237922.5, 0.01712635, 9.999639, 10.001644 
1.6047658e+3, 1.4354837e+2, -1509997.1, -1540906.6, -67418.93, 0.18802385, 0.19634534, -1456284.3, 76965.18, 0.007836914, 10.000165, 9.999758 
1.6048063e+3, 1.535489e+2, -1499896.6, -1504399.3, -84337.08, 0.18959293, 0.2774983, -1417780.8, 17466.543, 0.0022287087, 9.999634, 9.999593 
1.604846e+3, 1.635485e+2, -1482234.5, -1514857.5, -56113.723, 0.101705395, 0.3243938, -1440109.6, -102856.836, 0.00026665046, 9.999397, 9.998955 
1.6048852e+3, 1.735468e+2, -1259629.3, -1341147.1, 27317.67, -0.03554011, 0.24279544, -1251321.4, -12053.245, 0.0000036433328, 10.000185, 9.999093 
1.6049254e+3, 1.8354556e+2, -1107874.4, -1203047.1, 86666.41, -0.07657152, 0.21685249, -1056589.5, 84689.914, 0.0, 10.000475, 9.999237 
1.6049671e+3, 1.9354512e+2, -1051162.6, -1101483.0, 47348.434, 0.0014066619, 0.22264732, -1022704.6, 20578.66, 0.0, 10.000088, 9.999447 
1.6050082e+3, 2.0354417e+2, -982527.56, -1062102.0, -42727.78, 0.07293124, 0.21705419, -963930.8, -18639.1, 0.0, 10.00009, 9.999044 
1.6050477e+3, 2.1354255e+2, -745771.0, -877183.9, -70487.63, 0.13836977, 0.13147825, -715114.4, 132191.23, 0.0, 10.000964, 9.999212 
1.6050869e+3, 2.2354163e+2, -633026.56, -811299.1, -33910.05, 0.1276522, 0.14798273, -626794.25, 122519.125, 0.0, 10.001225, 9.998868 
1.6051255e+3, 2.3354208e+2, -633682.44, -741360.25, -58909.914, -0.027894804, 0.28614378, -607715.3, 43593.05, 0.0, 10.000471, 9.999032 
1.6051655e+3, 2.4354067e+2, -672816.06, -954601.9, -36845.785, -0.068686, 0.3543172, -668077.9, -114754.27, 0.0, 10.000584, 9.99685 
1.6052076e+3, 2.535363e+2, -340219.94, -756706.9, 7909.151, 0.092679605, 0.23847158, -340069.78, 115301.87, 0.000000007673713, 10.002261, 9.996721 
1.6052492e+3, 2.6353306e+2, -79223.04, -517798.4, 91795.75, 0.14087546, 0.23397201, -60784.938, 296622.0, 0.0000049768487, 10.003102, 9.997286 
1.6052899e+3, 2.7353215e+2, -61494.99, -426140.72, 71978.85, -0.0058941515, 0.37952438, -47801.063, 211615.5, 0.00006447964, 10.00241, 9.997576 
1.6053317e+3, 2.835301e+2, -36981.24, -447778.25, 55557.21, -0.035377536, 0.4663077, -29600.162, 131836.27, 0.00032949253, 10.002253, 9.996835 
1.6053754e+3, 2.9352582e+2, 191126.17, -271884.88, 11386.416, 0.108540796, 0.32940915, 191406.03, 254882.3, 0.001045755, 10.003092, 9.996959 
1.6054162e+3, 3.0352044e+2, 195857.23, -318016.7, -46621.984, 0.07901405, 0.14308323, 200052.83, 200052.83, 0.0023101745, 10.003112, 9.9963045 
1.6054542e+3, 3.135203e+2, 68118.7, -240811.86, 6202.301, -0.1246512, 0.47764, 68243.17, 68243.17, 0.0039577326, 10.001609, 9.997556 
1.6146845e+3, 1.2350738e+2, -1947903.1, -1887599.5, -137398.19, 0.16127945, 0.3104287, -1777083.6, -47422.14, 0.02978273, 9.998613, 9.999476 
1.6147232e+3, 1.335104e+2, -1647406.4, -1602108.5, 10591.203, -0.043828536, 0.5907512, -1599754.5, 31877.484, 0.018308382, 9.999652, 10.000262 
1.6147639e+3, 1.435081e+2, -1532779.4, -1610470.9, -84139.266, -0.04158179, 0.3922098, -1478951.4, 54702.977, 0.008418617, 10.000254, 9.999239 
1.6148046e+3, 1.5350644e+2, -1527021.4, -1568633.6, -101606.65, 0.039332032, 0.30254278, -1444112.5, -8440.706, 0.0024150687, 9.999671, 9.999133 
1.614845e+3, 1.6350564e+2, -1325177.6, -1219412.9, -45080.125, 0.050003603, 0.25256968, -1202806.0, 134871.03, 0.0002938315, 9.999512, 10.000933 
1.614886e+3, 1.7350672e+2, -1090281.8, -995214.4, 63148.49, 0.018051239, 0.2092037, -963709.0, 275949.22, 0.000004294035, 10.0001955, 10.001467 
1.6149266e+3, 1.8350725e+2, -1142922.1, -1283621.6, 72990.5, -0.0040229387, 0.25009987, -1111897.9, 29752.355, 0.0, 10.00051, 9.998664 
1.614967e+3, 1.9350687e+2, -1129551.3, -1261603.4, 39379.086, -0.0215401, 0.36423817, -1118699.8, -75038.86, 0.0, 10.000077, 9.998352 
1.6150068e+3, 2.0350584e+2, -1011969.56, -1111280.4, -26238.64, -0.0734131, 0.4274352, -1005463.4, -59788.805, 0.0, 10.000037, 9.998732 
1.6150457e+3, 2.1350394e+2, -769605.6, -909156.3, -31704.55, -0.16523314, 0.32963464, -762740.4, 84949.95, 0.0, 10.000886, 9.999031 
1.6150856e+3, 2.2350198e+2, -695143.1, -908161.0, -60944.863, -0.12752968, 0.2806148, -678939.25, 70768.02, 0.0, 10.001093, 9.998264 
1.6151276e+3, 2.3350018e+2, -691802.1, -844321.2, -79379.83, 0.13982135, 0.2586067, -657985.9, -6261.8984, 0.0, 10.000399, 9.998359 
1.6151689e+3, 2.4349824e+2, -608484.9, -806221.2, 7666.9556, 0.22687341, 0.2649868, -608188.06, -54445.465, 0.0, 10.000515, 9.997902 
1.6152088e+3, 2.5349626e+2, -260062.64, -567847.75, 80730.945, -0.005302269, 0.25387666, -240172.56, 215589.48, 0.00000000987263, 10.002161, 9.998067 
1.6152498e+3, 2.6349363e+2, -122031.7, -567734.2, 71573.08, -0.10593362, 0.24310753, -110820.17, 246968.03, 0.000004852571, 10.002936, 9.997023 
1.615293e+3, 2.7348998e+2, -116153.45, -510554.13, 55937.2, 0.04618188, 0.16506433, -108373.445, 151451.05, 0.000064250504, 10.002294, 9.997047 
1.6153356e+3, 2.8348693e+2, -110333.055, -572514.1, 74814.5, 0.10256734, 0.22034566, -98524.336, 63331.777, 0.00032939267, 10.0021305, 9.996039 
1.6153769e+3, 2.9348508e+2, 111644.7, -404557.94, 63883.74, -0.043453343, 0.402033, 119433.25, 183312.16, 0.0010398338, 10.002943, 9.996123 
1.6154172e+3, 3.034806e+2, 247281.92, -150761.86, -90110.74, -0.15668596, 0.302608, 266731.22, 266731.22, 0.0022900703, 10.002884, 9.997546 
1.6154563e+3, 3.1347755e+2, 176632.55, 51410.42, -29021.033, -0.08846945, 0.17712459, 183031.38, 183031.38, 0.0039131315, 10.001368, 9.99966 
1.6246828e+3, 1.2346645e+2, -1849955.5, -1757554.0, -117530.36, 0.13903278, 0.2391954, -1677469.8, 52592.508, 0.03179242, 9.998935, 10.000214 
1.6247237e+3, 1.3347007e+2, -1767095.1, -1710082.3, 70318.63, 0.09073106, 0.617755, -1662711.6, -30684.867, 0.019603958, 9.99904, 9.999811 
1.624763e+3, 1.4346716e+2, -1755171.6, -1713265.0, 28163.635, -0.07579795, 0.3810614, -1699115.1, -165059.7, 0.009062119, 9.99872, 9.999266 
1.6248034e+3, 1.5346561e+2, -1584257.1, -1575106.3, 46199.504, -0.0047418526, 0.2879625, -1533256.1, -97185.09, 0.002624408, 9.999204, 9.999303 
1.6248442e+3, 1.6346507e+2, -1356808.0, -1245415.1, 82766.86, 0.040437926, 0.25544, -1201349.6, 136724.75, 0.00032476612, 9.9993515, 10.000827 
1.624886e+3, 1.734663e+2, -1286738.3, -1106201.8, -14626.253, 0.07918772, 0.2405102, -1105024.4, 135031.81, 0.000005034694, 9.998929, 10.001309 
1.624927e+3, 1.8346685e+2, -1330825.6, -1347826.5, -67124.695, 0.07429389, 0.2868734, -1271665.3, -129616.45, 0.0, 9.999114, 9.998896 
1.6249673e+3, 1.9346653e+2, -1034182.56, -1171128.1, -8047.85, -0.027347617, 0.37517798, -1033711.2, 10346.272, 0.0, 10.000566, 9.998726 
1.6250071e+3, 2.0346572e+2, -810385.2, -1008082.6, 7391.489, -0.110259324, 0.4344051, -810109.25, 135959.03, 0.0, 10.001395, 9.998784 
1.6250466e+3, 2.1346417e+2, -736335.3, -892556.25, 2424.589, -0.15200308, 0.373556, -736297.7, 111783.305, 0.0, 10.001114, 9.999038 
1.625087e+3, 2.2346213e+2, -659948.25, -909811.56, 6133.0366, -0.09397831, 0.32118985, -659797.8, 90301.36, 0.0, 10.001407, 9.998105 
1.6251288e+3, 2.3345938e+2, -362396.5, -709247.5, 6671.854, 0.113018684, 0.22495829, -362268.22, 289856.53, 0.0, 10.002758, 9.998155 
1.6251704e+3, 2.4345714e+2, -202231.34, -607140.3, 92581.62, 0.1831043, 0.21243507, -182066.94, 372078.84, 0.0, 10.003281, 9.997937 
1.625211e+3, 2.5345597e+2, -235427.94, -552317.75, 58032.0, -0.0066828085, 0.27351096, -225134.88, 231022.5, 0.000000011745934, 10.002295, 9.998115 
1.6252525e+3, 2.6345375e+2, -264656.22, -590766.2, 17699.107, -0.07841111, 0.28978452, -263698.44, 94480.37, 0.0000048598445, 10.0017605, 9.997428 
1.6252951e+3, 2.7345005e+2, -106783.08, -453533.2, 51450.387, 0.06064376, 0.15814854, -99309.984, 160905.38, 0.00006262461, 10.002126, 9.99752 
1.6253377e+3, 2.8344727e+2, -55478.34, -487314.16, 177080.83, 0.1253398, 0.18469368, 7849.456, 170093.66, 0.00032550952, 10.002263, 9.99656 
1.62538e+3, 2.9344618e+2, 8115.9307, -399878.75, 227430.7, 0.02649777, 0.3998008, 109633.96, 173892.45, 0.0010260388, 10.001997, 9.996614 
1.6254202e+3, 3.034424e+2, 98153.65, -243778.39, 81715.55, -0.075914524, 0.34673882, 116678.555, 116678.555, 0.0022449591, 10.001919, 9.997393 
1.6254579e+3, 3.1343806e+2, 294407.63, 84506.195, -17676.469, -0.0982075, 0.12373387, 295885.8, 295885.8, 0.0038080325, 10.002222, 9.999513 
1.63468e+3, 1.23426296e+2, -1687700.8, -1445519.0, -52860.04, -0.07250078, 0.25738975, -1434484.3, 295967.4, 0.03398967, 9.999012, 10.002376 
1.6347243e+3, 1.3342682e+2, -1740712.8, -1655776.5, 62636.902, 0.24221143, 0.27654135, -1622568.3, 9872.918, 0.02102759, 9.999045, 10.000181 
1.6347629e+3, 1.4342548e+2, -1690067.4, -1595600.5, 27172.47, 0.028865797, 0.14337671, -1588342.3, -53890.203, 0.009775217, 9.998783, 10.000045 
1.6348027e+3, 1.5342669e+2, -1524155.1, -1448567.3, 75584.45, -0.006428802, 0.23739722, -1401854.4, 34587.473, 0.002860367, 9.999191, 10.000179 
1.6348432e+3, 1.6342705e+2, -1514225.4, -1581920.6, 67367.125, 0.0066609094, 0.3409397, -1472680.8, -134239.19, 0.00036087315, 9.99939, 9.998503 
1.634885e+3, 1.7342554e+2, -1493743.1, -1535369.0, -28740.986, 0.09883968, 0.34412077, -1479070.5, -238608.3, 0.000005927034, 9.998927, 9.998368 
1.6349265e+3, 1.8342426e+2, -1248369.8, -1187898.3, -32180.209, 0.09529009, 0.33328873, -1173977.9, -31501.37, 0.0, 9.999155, 9.999976 
1.6349675e+3, 1.9342397e+2, -908399.4, -907356.1, 52865.53, -0.072272964, 0.24514373, -855009.6, 189464.67, 0.0, 10.00055, 10.000547 
1.6350086e+3, 2.0342359e+2, -784677.4, -943881.1, -984.1803, -0.10628258, 0.22407982, -784671.3, 161803.3, 0.0, 10.0013485, 9.9992485 
1.6350505e+3, 2.1342316e+2, -733635.06, -872030.7, -1789.4148, 0.11317232, 0.25269595, -733611.94, 114866.78, 0.0, 10.001042, 9.999216 
1.635091e+3, 2.2342193e+2, -667639.56, -893303.8, 42478.16, 0.1458703, 0.26629534, -659908.5, 90581.65, 0.0, 10.0012665, 9.998285 
1.635129e+3, 2.3341952e+2, -365937.03, -689676.8, 65068.97, -0.14998941, 0.18180339, -353348.22, 299163.9, 0.0, 10.002639, 9.998347 
1.6351694e+3, 2.4341723e+2, -294910.84, -757044.8, 61777.684, -0.24917968, 0.19066255, -286795.0, 267740.16, 0.0, 10.003101, 9.996993 
1.6352136e+3, 2.5341538e+2, -328340.9, -724213.8, 29538.291, 0.01830439, 0.30039793, -326149.03, 130408.445, 0.000000006263202, 10.002211, 9.996971 
1.6352564e+3, 2.6341364e+2, -206249.16, -455565.94, 20990.688, 0.13581525, 0.38457093, -204494.23, 154082.98, 0.000005059976, 10.001691, 9.998396 
1.6352965e+3, 2.7341217e+2, -27699.865, -261869.89, 77879.625, -0.024219735, 0.34053737, -4164.336, 256426.36, 0.00006071332, 10.002002, 9.9989 
1.6353385e+3, 2.8341052e+2, 21356.396, -284986.66, 159138.73, -0.039935406, 0.33941916, 89061.88, 251667.2, 0.00031809925, 10.002083, 9.9980345 
1.635384e+3, 2.9340875e+2, 94289.63, -190200.77, 222140.56, 0.21148549, 0.33633372, 215824.88, 280444.8, 0.0010037508, 10.001871, 9.998113 
1.635425e+3, 3.034055e+2, -18219.979, -440805.66, 73710.69, 0.20361781, 0.30436823, -5731.8325, -5731.8325, 0.0021809242, 10.001737, 9.996121 
1.6354585e+3, 3.134012e+2, 129385.4, -198422.44, 17431.184, -0.2724198, 0.24851523, 130309.695, 130309.695, 0.0036664398, 10.00198, 9.99767 
1.644679e+3, 1.2338489e+2, -1689727.0, -1452729.1, -63992.48, -0.052732047, 0.292485, -1436554.3, 294301.94, 0.036383986, 9.999046, 10.002314 
1.644724e+3, 1.3338317e+2, -1743289.6, -1669547.6, -111474.08, 0.3225264, 0.0977326, -1589005.1, 43863.08, 0.022584815, 9.9991, 10.000061 
1.6447622e+3, 1.4338343e+2, -1636000.5, -1491382.4, -136870.73, 0.08204524, 0.10650871, -1408894.1, 125969.67, 0.010560797, 9.99882, 10.000753 
1.644802e+3, 1.5338631e+2, -1445845.9, -1312454.6, -97951.98, 0.018044868, 0.28289858, -1260647.5, 176189.47, 0.0031241647, 9.999295, 10.001072 
1.644843e+3, 1.6338727e+2, -1510123.3, -1650017.4, -52085.42, 0.040652916, 0.42293516, -1492860.9, -154029.06, 0.0004029895, 9.999718, 9.997879 
1.6448851e+3, 1.7338434e+2, -1355502.9, -1567298.0, -8530.579, 0.15475541, 0.373064, -1355159.9, -114290.516, 0.0000070009137, 10.0002985, 9.99749 
1.6449268e+3, 1.8338232e+2, -1066040.3, -1049895.4, 75563.234, 0.15437424, 0.31860793, -981974.6, 160916.98, 0.0, 10.000207, 10.000408 
1.6449673e+3, 1.933825e+2, -1070509.5, -911216.5, 60483.176, -0.058662936, 0.21319492, -890854.1, 154026.8, 0.0, 9.999119, 10.00121 
1.6450086e+3, 2.0338255e+2, -1112479.6, -1076172.1, -19814.223, -0.09840715, 0.18684866, -1067452.8, -120577.71, 0.0, 9.99898, 9.999483 
1.6450518e+3, 2.133825e+2, -765077.5, -865904.1, -35597.848, 0.17379716, 0.23484384, -753776.06, 95101.1, 0.0, 10.000743, 9.999394 
1.645093e+3, 2.2338165e+2, -606960.25, -865080.25, 2720.7046, 0.213911, 0.277129, -606931.56, 143954.4, 0.0, 10.001686, 9.998282 
1.6451307e+3, 2.3337956e+2, -593680.0, -802963.4, -5808.257, -0.17330904, 0.23121308, -593518.94, 59386.465, 0.0, 10.001091, 9.998318 
1.6451706e+3, 2.4337733e+2, -559748.56, -837748.94, 28781.736, -0.31551275, 0.23231749, -556800.06, -1872.811, 0.0, 10.001097, 9.9973955 
1.6452153e+3, 2.5337505e+2, -282625.88, -650905.4, 94513.61, -0.026670367, 0.25414592, -259786.7, 197164.69, 0.000000005166704, 10.002315, 9.997422 
1.6452584e+3, 2.6337323e+2, -100100.766, -452824.94, 99936.5, 0.13065872, 0.324131, -73753.97, 285217.88, 0.000005473011, 10.002632, 9.997957 
1.6452986e+3, 2.7337235e+2, -163766.1, -397836.53, -8203.037, 0.028741222, 0.39724293, -163478.97, 97505.99, 0.00005878461, 10.001379, 9.9982605 
1.6453403e+3, 2.8337094e+2, -105408.01, -253659.44, 17566.492, 0.014727272, 0.42641273, -103354.97, 59644.13, 0.0003059286, 10.000826, 9.998849 
1.645385e+3, 2.9336914e+2, 123647.41, -51527.91, 40408.645, 0.15718406, 0.31700313, 132519.36, 197529.3, 0.00097049924, 10.0015545, 9.9992075 
1.6454262e+3, 3.0336693e+2, 82294.52, -361396.5, -54203.668, 0.14170139, 0.31395873, 88820.35, 88820.35, 0.002105415, 10.002256, 9.996424 
1.645462e+3, 3.133638e+2, 202719.47, -185651.4, -35980.195, -0.13527542, 0.36707172, 206024.69, 206024.69, 0.0035218329, 10.002569, 9.99747 
1.6546804e+3, 1.2334189e+2, -1847838.1, -1796235.1, 10993.014, 0.13892981, 0.32809836, -1793990.9, -62711.363, 0.03897044, 9.999146, 9.999828 
1.6547224e+3, 1.3333926e+2, -1788526.6, -1762181.5, -127941.56, 0.2498371, 0.1082542, -1646736.1, -13428.651, 0.024272982, 9.999085, 9.999431 
1.6547602e+3, 1.4334115e+2, -1594683.9, -1410996.9, -139664.6, 0.010872207, 0.29720223, -1335683.5, 199606.66, 0.0114189135, 9.998841, 10.0013 
1.6548014e+3, 1.5334456e+2, -1391107.3, -1199144.9, -78663.54, 0.011397091, 0.4485093, -1171027.9, 266228.6, 0.0034161112, 9.999297, 10.001851 
1.6548431e+3, 1.6334577e+2, -1407690.1, -1463457.3, -41499.863, 0.063977934, 0.5177405, -1385576.4, -46331.285, 0.00045137366, 9.999816, 9.999116 
1.6548859e+3, 1.733428e+2, -1259028.0, -1371206.5, 18941.902, 0.18907778, 0.32748675, -1255915.9, -14638.9795, 0.000008273259, 10.000314, 9.998828 
1.6549274e+3, 1.8334106e+2, -1074904.3, -1084833.5, 37956.793, 0.1894755, 0.23444913, -1041588.8, 101704.7, 0.0, 10.00027, 10.000142 
1.6549666e+3, 1.9334216e+2, -1114172.6, -999026.56, 23262.13, -0.03864302, 0.27979702, -994504.6, 50772.297, 0.0, 9.999101, 10.000621 
1.6550072e+3, 2.0334268e+2, -1120032.9, -1081949.8, 24459.03, -0.15125029, 0.33662984, -1069994.1, -122725.21, 0.0, 9.998935, 9.999466 
1.6550507e+3, 2.1334215e+2, -768766.75, -857615.94, 37798.4, -0.021655003, 0.3257235, -754862.44, 94413.89, 0.0, 10.000668, 9.99949 
1.6550928e+3, 2.233411e+2, -632089.56, -893840.9, -13365.728, 0.037671205, 0.34794512, -631408.9, 119879.234, 0.0, 10.001582, 9.998136 
1.655133e+3, 2.3333943e+2, -621278.0, -841713.5, -20211.291, -0.032003902, 0.36433414, -619440.2, 33864.62, 0.0, 10.001007, 9.9980955 
1.6551739e+3, 2.4333738e+2, -466889.63, -618094.25, 60606.863, -0.11081714, 0.32998097, -445595.6, 109727.29, 0.0, 10.000979, 9.9989605 
1.655216e+3, 2.5333488e+2, -167662.9, -378269.38, 147391.6, -0.18558466, 0.13631196, -91822.41, 365518.1, 0.00000000856411, 10.002177, 9.999355 
1.6552584e+3, 2.6333252e+2, -247447.06, -729388.25, 58799.508, -0.13518482, 0.11909873, -240376.9, 118987.086, 0.0000057188686, 10.002497, 9.996129 
1.6553012e+3, 2.7333063e+2, -348566.47, -769485.75, -43205.633, 0.14404956, 0.3419294, -344177.34, -82779.92, 0.00005715205, 10.001323, 9.99574 
1.655343e+3, 2.8332883e+2, -93910.36, -223062.52, 33817.11, 0.19517107, 0.46467027, -85591.53, 77830.5, 0.00029385797, 10.000787, 9.9990835 
1.6553833e+3, 2.9332748e+2, 172376.73, 60923.55, 86298.62, -0.17354636, 0.32356814, 219377.47, 284803.7, 0.0009389974, 10.001493, 10.000015 
1.6554241e+3, 3.0332667e+2, 147457.19, -161539.42, -46436.563, -0.30269986, 0.34793448, 154284.89, 154284.89, 0.0020470126, 10.002009, 9.997905 
1.6554676e+3, 3.133259e+2, 227795.67, -55224.14, -3895.1309, 0.14662564, 0.4796904, 227849.27, 227849.27, 0.0034252028, 10.002249, 9.998511 
1.6646814e+3, 1.2330008e+2, -1825621.6, -1862081.8, 103393.375, 0.32433707, 0.40716538, -1738863.4, -7170.838, 0.041736465, 9.999582, 9.999192 
1.664721e+3, 1.3329817e+2, -1768498.5, -1681397.1, -5283.6987, 0.22161672, 0.20475401, -1681077.8, -47364.586, 0.026087236, 9.998896, 10.000086 
1.6647592e+3, 1.4330022e+2, -1667371.1, -1465151.8, 62999.844, 0.06211069, 0.3765628, -1447130.6, 88563.95, 0.012349877, 9.998432, 10.001115 
1.6648008e+3, 1.5330274e+2, -1485351.4, -1270379.5, 43590.81, 0.062375586, 0.4642902, -1261876.6, 175793.39, 0.003737191, 9.998771, 10.001607 
1.6648428e+3, 1.6330384e+2, -1482781.8, -1406423.4, 29539.71, 0.10024763, 0.498066, -1396330.0, -56670.727, 0.00050616945, 9.998917, 9.999928 
1.6648853e+3, 1.7330216e+2, -1396551.8, -1327081.9, 47694.137, 0.18392387, 0.33738554, -1302814.8, -61140.203, 0.000009797576, 9.998887, 9.999817 
1.6649269e+3, 1.8330105e+2, -1284363.0, -1238204.4, 49234.047, 0.18733972, 0.2688529, -1206908.6, -63224.875, 0.0, 9.999069, 9.9996605 
1.6649666e+3, 1.9330138e+2, -1022170.56, -1032393.7, 7226.642, 0.01779469, 0.3075659, -1018430.44, 27247.547, 0.0, 10.000088, 9.999897 
1.6650075e+3, 2.0330141e+2, -884913.6, -982038.4, 35046.805, -0.09510103, 0.3620573, -873587.94, 74088.92, 0.0, 10.000615, 9.999338 
1.6650502e+3, 2.1330114e+2, -829121.3, -884677.7, 35260.094, -0.085733205, 0.37885672, -812011.9, 37670.08, 0.0, 10.000252, 9.999502 
1.6650929e+3, 2.2330028e+2, -795724.8, -935131.3, -9757.765, -0.04933074, 0.40523264, -795045.1, -43353.55, 0.0, 10.000305, 9.998462 
1.6651346e+3, 2.3329857e+2, -561933.44, -767383.6, 5635.925, 0.020303335, 0.37931854, -561778.94, 91928.8, 0.0, 10.001222, 9.998494 
1.6651762e+3, 2.4329671e+2, -379354.97, -566963.9, 77507.734, 0.0070297606, 0.3374661, -351476.53, 204247.16, 0.0, 10.001521, 9.999066 
1.6652176e+3, 2.532948e+2, -380405.25, -476628.0, 22139.918, -0.1631374, 0.20045099, -375555.5, 82181.766, 0.0000000057748837, 10.000682, 9.999411 
1.6652595e+3, 2.6329282e+2, -471217.78, -765423.06, -54414.336, -0.18161327, 0.19285138, -461476.22, -101719.375, 0.0000055479773, 10.00066, 9.996761 
1.665302e+3, 2.732909e+2, -151396.81, -596127.25, 50965.92, 0.05458471, 0.3411426, -145630.89, 116155.2, 0.000055344583, 10.002325, 9.996451 
1.6653441e+3, 2.8328878e+2, 179234.92, -195431.47, 227255.73, 0.11751069, 0.43122682, 286416.4, 450228.97, 0.00028373505, 10.003107, 9.998157 
1.665385e+3, 2.9328686e+2, 188325.36, -71323.19, 115337.984, -0.15637092, 0.35610542, 232159.34, 297988.16, 0.0009164015, 10.002221, 9.998751 
1.6654263e+3, 3.0328566e+2, 168279.66, -95415.54, -88836.71, -0.24535362, 0.39137882, 195415.55, 195415.55, 0.0020178298, 10.001903, 9.998416 
1.6654699e+3, 3.1328553e+2, 273188.44, 18583.455, -133961.27, 0.15960911, 0.51605904, 330687.3, 330687.3, 0.003395846, 10.002345, 9.99898 
1.6746818e+3, 1.2325873e+2, -1706297.3, -1615098.6, 13957.346, 0.37626952, 0.45504203, -1613010.4, 119092.664, 0.044670317, 9.999587, 10.000911 
1.6747196e+3, 1.3326046e+2, -1629482.9, -1395562.1, -26150.258, 0.17671065, 0.4157062, -1392674.5, 241405.25, 0.028026333, 9.998886, 10.002096 
1.6747591e+3, 1.4326084e+2, -1711138.4, -1570840.5, 68527.99, 0.17346208, 0.33341193, -1542923.3, -6849.662, 0.013357116, 9.998488, 10.000358 
1.6748002e+3, 1.5326099e+2, -1582957.3, -1473746.4, 69386.695, 0.11532683, 0.31482863, -1440055.4, -1979.0273, 0.004090086, 9.998763, 10.000218 
1.6748415e+3, 1.6326134e+2, -1456646.0, -1358526.8, 23809.154, 0.07668969, 0.34334058, -1353054.5, -12979.393, 0.0005678562, 9.998944, 10.000244 
1.6748834e+3, 1.7326258e+2, -1359976.8, -1239027.3, 49546.13, 0.08772727, 0.41829613, -1221322.6, 20737.977, 0.000011659807, 9.998843, 10.000442 
1.6749251e+3, 1.8326254e+2, -1322721.5, -1330039.8, 73822.45, 0.079615414, 0.44595766, -1252467.5, -108407.66, 0.0, 9.999109, 9.999018 
1.6749671e+3, 1.9326013e+2, -1089216.6, -1169838.3, 51462.805, 0.047660198, 0.29997644, -1064156.4, -18072.041, 0.0, 10.000075, 9.998966 
1.675009e+3, 2.0325868e+2, -897823.9, -1007075.1, 21733.195, -0.0003109857, 0.2671104, -893659.25, 54440.43, 0.0, 10.000605, 9.999171 
1.6750509e+3, 2.1325941e+2, -844758.9, -901252.7, 26284.465, -0.07411943, 0.3926789, -834421.3, 15672.966, 0.0, 10.000176, 9.999428 
1.6750926e+3, 2.232591e+2, -764276.8, -838938.2, 12052.807, -0.11256577, 0.44755858, -762379.3, -10282.196, 0.0, 10.000172, 9.999185 
1.675135e+3, 2.3325694e+2, -514907.97, -648131.1, 46980.17, -0.06365052, 0.28797802, -500007.34, 154107.23, 0.0, 10.001126, 9.999359 
1.6751774e+3, 2.4325527e+2, -480110.06, -752319.7, 49224.64, -0.030069984, 0.2643666, -471482.06, 84648.49, 0.0, 10.001415, 9.997845 
1.6752195e+3, 2.5325486e+2, -510160.44, -724205.2, -696.2068, -0.030050218, 0.43959075, -510158.2, -52017.53, 0.0000000017385277, 10.000588, 9.997754 
1.675261e+3, 2.6325408e+2, -295737.8, -377086.1, -10294.771, -0.094271876, 0.53341794, -294455.22, 65694.664, 0.0000048816705, 10.000548, 9.999486 
1.675301e+3, 2.732527e+2, 84840.016, -76566.34, 122444.17, -0.27338964, 0.37932447, 150784.64, 412940.56, 0.000051549086, 10.002195, 10.000087 
1.6753434e+3, 2.8325045e+2, 7166.3545, -505861.72, 196685.48, -0.2686623, 0.32807565, 73893.14, 238069.47, 0.00027035348, 10.002906, 9.99612 
1.6753899e+3, 2.93247e+2, -48877.332, -539413.3, 98010.83, 0.08643409, 0.408834, -30019.39, 36201.332, 0.00089028233, 10.0021, 9.995599 
1.6754325e+3, 3.032438e+2, 104405.484, -172672.4, -78942.09, 0.15691118, 0.44055226, 125318.39, 125318.39, 0.0019930173, 10.001681, 9.997985 
1.6754688e+3, 3.1324285e+2, 244770.6, 12593.348, -70583.78, -0.1945766, 0.47585225, 264544.53, 264544.53, 0.0033945646, 10.002132, 9.99903 
1.6846807e+3, 1.2321723e+2, -1891112.0, -1592201.0, 34906.48, 0.4027637, 0.4230702, -1588178.8, 144332.05, 0.04776628, 9.997842, 10.001905 
1.6847177e+3, 1.3322003e+2, -1719502.8, -1368796.0, -88017.03, 0.15638527, 0.42579874, -1347945.9, 286527.78, 0.030093629, 9.997983, 10.002713 
1.6847579e+3, 1.4322017e+2, -1714179.8, -1591319.8, -4718.2627, 0.22751549, 0.28850237, -1591138.8, -54669.926, 0.0144471, 9.998547, 10.000189 
1.6847995e+3, 1.532201e+2, -1518009.6, -1481281.9, 56915.16, 0.16050093, 0.28383547, -1439841.4, -1365.223, 0.004479329, 9.999383, 9.999864 
1.684841e+3, 1.6322032e+2, -1328572.5, -1291824.9, 45430.336, 0.09732944, 0.3197748, -1261193.4, 79283.914, 0.0006375465, 9.999812, 10.000283 
1.6848823e+3, 1.7322154e+2, -1199460.1, -1137360.6, 24875.527, 0.067429364, 0.37263912, -1128625.0, 113836.7, 0.00001399049, 9.999853, 10.000644 
1.684924e+3, 1.8322164e+2, -1200468.1, -1263925.3, 83491.445, 0.046603072, 0.39980656, -1142879.8, 1579.0905, 0.0, 9.999927, 9.999073 
1.684967e+3, 1.9321977e+2, -1056583.1, -1154601.1, 125584.92, 0.017717818, 0.30690607, -970783.2, 75695.69, 0.0, 10.000289, 9.998974 
1.6850094e+3, 2.0321836e+2, -932738.56, -1053224.5, 115442.484, 0.00010995345, 0.2878491, -862765.6, 85728.99, 0.0, 10.000492, 9.998914 
1.6850518e+3, 2.1321821e+2, -828948.75, -922569.1, 80725.38, 0.0050073657, 0.35608542, -782443.44, 68054.28, 0.0, 10.000422, 9.99916 
1.685094e+3, 2.2321758e+2, -691996.4, -786962.7, 85936.555, -0.008887596, 0.38541427, -641297.3, 111206.586, 0.0, 10.000586, 9.999351 
1.685136e+3, 2.3321615e+2, -484950.63, -602480.44, 72917.32, -0.0688095, 0.27581367, -450065.94, 204447.84, 0.0, 10.001201, 9.999641 
1.6851781e+3, 2.4321504e+2, -466163.22, -742622.1, 54427.445, -0.088729516, 0.29101437, -455833.84, 100690.84, 0.0, 10.001504, 9.997861 
1.6852202e+3, 2.5321463e+2, -425547.25, -694511.75, 89634.78, -0.0488313, 0.4688818, -398413.06, 60123.504, 0.0000000018399801, 10.001202, 9.997668 
1.6852617e+3, 2.6321375e+2, -225816.27, -326543.56, 131234.25, -0.08543098, 0.5507781, -135613.47, 224933.48, 0.0000039092515, 10.000959, 9.999631 
1.6853026e+3, 2.7321225e+2, -78181.414, -130481.15, 17677.434, -0.27229708, 0.36760265, -72766.95, 189784.69, 0.00004640097, 10.000993, 10.00028 
1.6853456e+3, 2.8321e+2, -237340.08, -633752.1, -7691.142, -0.24614082, 0.31370836, -237190.92, -72619.82, 0.0002555915, 10.001264, 9.996036 
1.6853926e+3, 2.9320675e+2, -79810.52, -563815.3, 69089.46, 0.16144668, 0.42968482, -70141.484, -3525.7498, 0.0008588424, 10.001933, 9.995509 
1.6854349e+3, 3.0320334e+2, 214794.27, -94432.58, 57805.15, 0.22466362, 0.43449038, 225246.72, 225246.72, 0.0019559679, 10.00231, 9.998234 
1.6854705e+3, 3.1320298e+2, 255364.16, 52853.824, 48651.137, -0.23320639, 0.5037564, 266445.72, 266445.72, 0.0033782288, 10.0020075, 9.999399 
1.6946766e+3, 1.2317612e+2, -1861958.6, -1550820.3, -23870.568, 0.19189169, 0.33693582, -1548999.5, 183910.5, 0.051028147, 9.997895, 10.0021925 
1.6947152e+3, 1.3317658e+2, -1800334.8, -1515109.9, -68649.14, 0.09845994, 0.20192762, -1499447.3, 135451.08, 0.032295942, 9.997898, 10.001727 
1.6947559e+3, 1.4317796e+2, -1679273.1, -1524318.0, 17521.982, 0.15048851, 0.22433491, -1522361.4, 14521.74, 0.015627254, 9.998563, 10.000647 
1.6947988e+3, 1.5318035e+2, -1469876.1, -1385782.5, 93019.766, 0.12883756, 0.4004373, -1325747.9, 113119.516, 0.004910431, 9.999398, 10.000518 
1.6948408e+3, 1.6318104e+2, -1322203.5, -1298209.5, 43372.47, 0.082179435, 0.44914678, -1265205.4, 75658.34, 0.0007170378, 9.999888, 10.000205 
1.6948822e+3, 1.7317902e+2, -1215258.6, -1176642.4, 30550.287, 0.07069245, 0.20312206, -1159810.1, 83067.516, 0.000016975888, 9.999872, 10.000369 
1.6949238e+3, 1.8317822e+2, -1139465.5, -1151080.1, 85762.36, 0.018405812, 0.12653856, -1059314.1, 85567.375, 0.0, 9.99998, 9.999823 
1.6949657e+3, 1.9318026e+2, -995451.6, -1020304.94, 142346.47, -0.13405451, 0.33086932, -864990.44, 181871.48, 0.0, 10.000256, 9.999911 
1.6950084e+3, 2.0318055e+2, -966633.94, -1106861.8, 107230.02, -0.15750267, 0.43983108, -908629.8, 40230.62, 0.0, 10.000419, 9.998581 
1.695053e+3, 2.1317753e+2, -881820.5, -1018878.2, 83868.33, 0.09052174, 0.27623048, -842043.8, 8848.69, 0.0, 10.000356, 9.998533 
1.6950965e+3, 2.2317559e+2, -727094.94, -837322.06, 97417.74, 0.17829292, 0.22495443, -670281.2, 82631.43, 0.0, 10.00049, 9.999047 
1.6951373e+3, 2.3317613e+2, -522578.84, -650339.3, 106492.05, -0.059526693, 0.3348602, -462276.78, 192629.0, 0.0, 10.001066, 9.999378 
1.6951782e+3, 2.431758e+2, -419471.16, -600617.3, 44046.59, -0.23461056, 0.40195665, -409328.88, 147579.16, 0.0, 10.001311, 9.998929 
1.6952193e+3, 2.5317398e+2, -345596.03, -501666.22, 83905.37, -0.2604253, 0.30380383, -309046.72, 149879.83, 0.0000000033657745, 10.00109, 9.999045 
1.6952613e+3, 2.6317188e+2, -395531.84, -655510.25, 121789.086, -0.22468705, 0.27335715, -347392.53, 13555.416, 0.0000030031388, 10.000858, 9.997419 
1.6953059e+3, 2.731697e+2, -294360.13, -571296.94, 30477.332, -0.04866911, 0.3116712, -291045.72, -28074.744, 0.000041424442, 10.000961, 9.997266 
1.69535e+3, 2.8316763e+2, -137860.31, -416100.75, 6504.403, 0.06658184, 0.38697478, -137708.34, 27285.887, 0.00024223694, 10.001213, 9.997558 
1.6953932e+3, 2.9316583e+2, 77511.27, -206563.98, 103349.33, 0.029404871, 0.4073311, 111131.76, 178148.78, 0.00082563167, 10.001793, 9.998035 
1.6954342e+3, 3.031636e+2, 218777.36, -10748.246, 38056.5, -0.086067006, 0.3539305, 224922.78, 224922.78, 0.001899321, 10.002003, 9.998947 
1.6954733e+3, 3.131656e+2, 289006.03, 172803.7, 66498.11, -0.1503362, 0.6156604, 319209.72, 319209.72, 0.0033136408, 10.001816, 10.000305 
1.7046742e+3, 1.2313545e+2, -2026960.1, -1667271.0, 32079.305, 0.21584143, 0.29771346, -1664432.4, 68873.45, 0.054460447, 9.996925, 10.001832 
1.7047133e+3, 1.3313475e+2, -1771914.1, -1572610.0, -19842.059, 0.10982136, 0.111164995, -1570653.9, 64655.535, 0.034638863, 9.998394, 10.001084 
1.7047535e+3, 1.431371e+2, -1624850.4, -1494731.5, 54980.984, 0.044548124, 0.26705182, -1474610.9, 62676.06, 0.016903277, 9.998947, 10.000662 
1.7047971e+3, 1.5313973e+2, -1676161.5, -1466304.5, 64780.883, 0.11654657, 0.45378336, -1447918.1, -8649.606, 0.00538814, 9.997917, 10.000669 
1.7048399e+3, 1.6314049e+2, -1621989.5, -1432277.5, 43864.47, 0.12327066, 0.49701858, -1422626.4, -81362.484, 0.0008082668, 9.997772, 10.000314 
1.7048818e+3, 1.7313842e+2, -1218357.6, -1165560.6, 56561.08, 0.059569485, 0.2371551, -1129540.9, 113736.805, 0.000020835996, 9.999785, 10.000498 
1.7049238e+3, 1.8313763e+2, -1024214.1, -1102817.9, 75017.305, -0.011584161, 0.15380396, -978826.94, 166454.39, 0.0, 10.000801, 9.999766 
1.7049658e+3, 1.9313945e+2, -1051765.4, -1058296.1, 32090.08, -0.121781886, 0.3474085, -1022774.94, 24488.71, 0.0, 9.999913, 9.999823 
1.7050087e+3, 2.0313954e+2, -1082467.1, -1151488.5, 794.48157, -0.110972025, 0.4414187, -1082458.0, -133194.61, 0.0, 9.999581, 9.998667 
1.7050539e+3, 2.1313658e+2, -832527.2, -984152.4, 21301.396, 0.12905067, 0.2730191, -829591.44, 21702.646, 0.0, 10.000649, 9.998627 
1.7050974e+3, 2.2313479e+2, -646393.7, -796679.1, 62934.76, 0.21752013, 0.23218155, -623520.06, 129792.56, 0.0, 10.001037, 9.999065 
1.7051382e+3, 2.3313566e+2, -670697.94, -718396.9, 67481.61, -0.0016529515, 0.37301004, -622975.3, 32328.535, 0.0, 10.000037, 9.999404 
1.7051794e+3, 2.4313533e+2, -668489.6, -724878.8, 15835.992, -0.15986326, 0.44095927, -664346.75, -107040.63, 0.0, 9.99962, 9.998893 
1.7052205e+3, 2.531327e+2, -432147.94, -545405.94, -54985.008, -0.19830114, 0.27190763, -409845.34, 49484.67, 0.0000000026261497, 10.000514, 9.999018 
1.7052633e+3, 2.6312998e+2, -315840.78, -691542.06, -1790.3058, -0.14714408, 0.20714523, -315832.25, 45525.355, 0.0000021613648, 10.001726, 9.996759 
1.7053092e+3, 2.7312756e+2, 23640.969, -510547.6, 44185.523, 0.06885449, 0.30789617, 27271.115, 290657.8, 0.000036573332, 10.003539, 9.996451 
1.7053534e+3, 2.8312573e+2, 288269.3, -143390.3, 39452.29, 0.16794161, 0.43288478, 291845.47, 457254.1, 0.00022753773, 10.003861, 9.998152 
1.7053942e+3, 2.9312485e+2, 48960.652, -123664.94, -8925.121, -0.0057158708, 0.458289, 49420.87, 116839.11, 0.00078445283, 10.001183, 9.998899 
1.7054346e+3, 3.0312252e+2, -9327.315, -154751.36, -53210.79, -0.16226137, 0.36149, 8062.971, 8062.971, 0.0018108649, 10.000574, 9.998636 
1.7054772e+3, 3.1312275e+2, 633486.6, 300802.53, -99271.85, -0.07640802, 0.4971285, 660857.25, 660857.25, 0.003176979, 10.004348, 9.999952 
1.7146729e+3, 1.23095006e+2, -2122024.0, -1839311.4, 168050.8, 0.36136466, 0.2633327, -1761071.1, -27370.918, 0.058051143, 9.9968405, 10.00066 
1.714712e+3, 1.330952e+2, -1800034.8, -1622975.5, 42434.055, 0.12690856, 0.20343204, -1613331.1, 22369.598, 0.037118543, 9.998378, 10.000731 
1.7147502e+3, 1.4309801e+2, -1638895.3, -1555637.0, 26953.549, -0.18412146, 0.44685122, -1547673.0, -9996.558, 0.018276531, 9.999064, 10.000191 
1.7147945e+3, 1.5309814e+2, -1713845.5, -1540996.4, 27926.125, 0.05475819, 0.42956924, -1536596.5, -96915.37, 0.005915651, 9.99789, 10.000174 
1.7148383e+3, 1.6309853e+2, -1600816.9, -1383012.6, 88724.01, 0.15671678, 0.4510204, -1351445.4, -9766.071, 0.0009130136, 9.997752, 10.000658 
1.7148809e+3, 1.7309998e+2, -1185977.4, -1091713.0, 140550.42, -0.022932012, 0.49085692, -990602.56, 253057.53, 0.000025810483, 9.999761, 10.001016 
1.7149237e+3, 1.8310001e+2, -1079659.6, -1226128.8, 55314.14, -0.11582193, 0.49734443, -1061117.5, 84539.02, 0.0, 10.000829, 9.998909 
1.7149669e+3, 1.9309735e+2, -1135101.1, -1231002.9, 3609.2249, -0.0069614914, 0.3544886, -1134965.5, -87282.03, 0.0, 9.999907, 9.998643 
1.7150103e+3, 2.0309536e+2, -1056520.8, -1093351.0, 21774.951, 0.06424657, 0.2919217, -1046418.06, -96714.734, 0.0, 9.999559, 9.999079 
1.7150538e+3, 2.1309529e+2, -793053.75, -877350.7, 68732.88, 0.066057704, 0.33789602, -754575.3, 97128.055, 0.0, 10.00054, 9.9994135 
1.715097e+3, 2.2309506e+2, -647916.75, -766252.25, 34061.3, 0.057104908, 0.39467528, -638813.0, 114891.87, 0.0, 10.000888, 9.999349 
1.7151389e+3, 2.3309475e+2, -668571.8, -698107.9, 35767.8, 0.039022975, 0.40095383, -644643.2, 11064.16, 0.0, 9.999965, 9.999581 
1.7151809e+3, 2.4309358e+2, -753296.44, -885879.0, 30853.635, 0.03338169, 0.4148785, -746468.1, -188749.42, 0.0, 9.999554, 9.997819 
1.7152236e+3, 2.530907e+2, -535201.4, -752316.25, -10036.749, 0.05691716, 0.35453328, -534738.4, -74991.06, 0.0000000000058928205, 10.00048, 9.997614 
1.7152672e+3, 2.6308784e+2, -282058.4, -603442.6, 55402.15, 0.06268984, 0.33310634, -272775.94, 89000.945, 0.0000014626683, 10.001651, 9.997401 
1.7153123e+3, 2.7308562e+2, 77140.46, -354104.0, 123947.16, 0.032602295, 0.34620965, 110226.58, 374027.56, 0.000032081512, 10.003347, 9.997618 
1.7153557e+3, 2.8308412e+2, 234576.61, -200845.08, -35826.492, 0.0031566704, 0.44382557, 237504.73, 403321.84, 0.00021186807, 10.003622, 9.997875 
1.7153952e+3, 2.9308376e+2, 7899.0522, -207617.13, -96113.95, -0.03774001, 0.5734247, 44535.207, 112354.87, 0.0007360161, 10.001174, 9.998327 
1.7154357e+3, 3.0308038e+2, -116351.01, -360171.56, 37879.25, -0.119874746, 0.4618314, -110601.766, -110601.766, 0.0016991491, 10.000514, 9.997254 
1.7154811e+3, 3.1307447e+2, 470002.44, 79221.484, 91800.766, -0.12920101, 0.13301815, 490493.47, 490493.47, 0.0029899257, 10.003859, 9.998656 
1.7246702e+3, 1.2305421e+2, -2010908.6, -1872529.1, 202766.72, 0.38600236, 0.31356844, -1727472.4, 6628.273, 0.06177432, 9.997975, 9.999888 
1.7247097e+3, 1.33055e+2, -1933432.4, -1707190.0, -28771.654, 0.11896162, 0.33194122, -1703588.4, -67488.48, 0.039721623, 9.997558, 10.000536 
1.7247485e+3, 1.4305744e+2, -1862715.9, -1647436.4, -10282.772, -0.16960539, 0.5470338, -1646946.3, -108865.76, 0.019743169, 9.997451, 10.00034 
1.7247924e+3, 1.53057e+2, -1522970.6, -1414628.5, 33074.984, 0.023944935, 0.44407213, -1405329.5, 34757.164, 0.006494274, 9.999027, 10.000507 
1.7248362e+3, 1.6305731e+2, -1346992.3, -1281632.6, 134949.78, 0.11875896, 0.44639644, -1175462.1, 166621.48, 0.001032908, 9.999597, 10.000461 
1.7248796e+3, 1.730592e+2, -1439014.4, -1246773.3, 108342.625, -0.025334354, 0.55730563, -1198058.5, 46004.2, 0.00003215152, 9.998179, 10.000702 
1.7249233e+3, 1.8305917e+2, -1546251.8, -1461076.0, 25030.838, -0.06850545, 0.5816165, -1454264.8, -308203.72, 0.0, 9.997672, 9.998814 
1.7249674e+3, 1.9305581e+2, -1188832.8, -1255122.9, 46025.67, 0.085105576, 0.37180722, -1165259.5, -117165.16, 0.0, 9.999538, 9.998647 
1.725011e+3, 2.0305365e+2, -897619.56, -992629.75, 109362.31, 0.14325431, 0.2826583, -825890.25, 124224.71, 0.0, 10.000546, 9.999302 
1.7250532e+3, 2.1305422e+2, -884725.8, -889940.75, 106080.0, 0.0011158509, 0.36861816, -781221.25, 70885.38, 0.0, 9.999771, 9.999702 
1.7250958e+3, 2.2305423e+2, -844201.6, -879362.7, 52766.734, -0.055060092, 0.43941703, -806163.8, -52058.582, 0.0, 9.9996395, 9.999162 
1.7251393e+3, 2.3305331e+2, -531565.6, -664854.94, 4201.413, 0.057755552, 0.41315073, -531433.3, 124682.15, 0.0, 10.001066, 9.999268 
1.7251828e+3, 2.4305168e+2, -351357.97, -716942.25, 37497.55, 0.14045931, 0.4102567, -347551.53, 210580.64, 0.0, 10.002426, 9.997591 
1.7252263e+3, 2.530489e+2, -98214.234, -561402.94, 72663.875, 0.13327649, 0.37942985, -87082.44, 373076.66, 0.0000000000049057277, 10.003579, 9.997424 
1.7252699e+3, 2.6304623e+2, 26392.463, -431366.13, 150567.95, 0.083921544, 0.38233617, 71477.47, 433663.06, 0.0000011502509, 10.003674, 9.997602 
1.7253137e+3, 2.730443e+2, -156031.47, -436633.7, 135355.48, -0.05062644, 0.39144325, -101382.56, 162824.08, 0.000029088935, 10.001609, 9.997885 
1.7253569e+3, 2.8304246e+2, -156466.0, -409601.66, -28278.785, -0.09063692, 0.44623047, -153345.34, 12880.379, 0.00020043374, 10.001028, 9.997684 
1.7253982e+3, 2.930407e+2, 349299.2, -79681.94, -97185.266, 0.034483336, 0.46610636, 370289.34, 438531.47, 0.00069486385, 10.003692, 9.997985 
1.7254397e+3, 3.0303746e+2, 439084.34, -135778.94, 82234.586, 0.04510877, 0.40851462, 450616.72, 450616.72, 0.0016012073, 10.004504, 9.996896 
1.7254828e+3, 3.130336e+2, 49521.78, -185982.92, 180846.89, -0.19533372, 0.3287943, 147573.08, 147573.08, 0.0028236557, 10.00119, 9.998154 
1.7346665e+3, 1.23013064e+2, -2010500.8, -1894083.9, 240479.0, 0.17090257, 0.45882836, -1704868.9, 29638.69, 0.06561491, 9.998077, 9.999694 
1.7347062e+3, 1.3301407e+2, -1950503.8, -1724434.0, -59259.68, -0.000112716276, 0.49639568, -1709842.1, -73334.17, 0.042436883, 9.997478, 10.000458 
1.7347482e+3, 1.4301504e+2, -1810315.4, -1528535.8, 23651.209, 0.031052815, 0.5434502, -1526564.4, 11938.053, 0.021297567, 9.997408, 10.001175 
1.734791e+3, 1.5301648e+2, -1435748.5, -1234793.0, 102331.32, -0.04965696, 0.5095327, -1191857.1, 248626.19, 0.0071235094, 9.999036, 10.001741 
1.7348342e+3, 1.6301717e+2, -1383443.8, -1386837.5, 95380.94, -0.07929659, 0.50365514, -1289744.6, 52728.746, 0.0011691477, 9.999706, 9.999692 
1.7348781e+3, 1.7301598e+2, -1527283.1, -1434887.5, 54781.668, -0.00082493824, 0.43119887, -1409424.6, -164938.86, 0.00004011834, 9.998187, 9.9994135 
1.7349224e+3, 1.830149e+2, -1498534.8, -1363874.3, 61156.73, 0.066380486, 0.39800915, -1340245.6, -193749.03, 0.0, 9.997681, 9.999476 
1.7349672e+3, 1.9301473e+2, -1119986.3, -1096917.1, 122806.53, 0.09953656, 0.40052745, -985104.7, 63392.38, 0.0, 9.999473, 9.9997635 
1.7350107e+3, 2.0301434e+2, -899014.6, -987503.56, 89783.37, 0.057860147, 0.41884857, -843166.0, 107332.836, 0.0, 10.0005045, 9.999359 
1.7350516e+3, 2.1301351e+2, -908809.94, -925576.75, 80041.05, -0.13153951, 0.3792612, -836714.44, 15788.555, 0.0, 9.999703, 9.999493 
1.7350942e+3, 2.2301242e+2, -909023.25, -990841.4, 83666.83, -0.20308265, 0.38097343, -856799.7, -102286.914, 0.0, 9.999537, 9.9984455 
1.7351398e+3, 2.3301119e+2, -604844.8, -792452.25, 65432.703, -0.0050761686, 0.40287888, -584278.2, 72251.4, 0.0, 10.000957, 9.998445 
1.735185e+3, 2.4300948e+2, -338081.4, -648854.44, 76284.664, 0.10035521, 0.4203732, -320365.88, 238182.3, 0.0, 10.002252, 9.998145 
1.7352284e+3, 2.530072e+2, -57983.4, -438261.3, 124939.375, -0.015005372, 0.35272446, -20608.248, 439958.16, 0.000000000000012544113, 10.00341, 9.998352 
1.7352714e+3, 2.6300505e+2, -17015.893, -478337.6, 89764.69, -0.13828507, 0.35823786, -164.87099, 362421.03, 0.0000010511417, 10.003487, 9.997371 
1.7353135e+3, 2.730035e+2, -207582.36, -518602.56, 65009.96, -0.24696906, 0.45103785, -194540.72, 70064.14, 0.000028849088, 10.001506, 9.997368 
1.7353569e+3, 2.830007e+2, -188180.84, -459920.13, 31052.033, -0.20650011, 0.45665026, -184677.66, -18042.99, 0.00019664556, 10.000949, 9.997381 
1.735403e+3, 2.929955e+2, 303902.78, -129775.055, 19052.393, 0.12561211, 0.15676774, 304738.2, 373424.3, 0.0006730264, 10.003497, 9.997736 
1.735446e+3, 3.029935e+2, 425861.34, -91850.11, -10973.665, 0.21931659, 0.21400486, 426093.84, 426093.84, 0.0015493486, 10.004211, 9.997328 
1.7354818e+3, 3.129979e+2, 31066.45, -168509.67, 82993.24, -0.42711544, 0.8939389, 61068.74, 61068.74, 0.0027442316, 10.000975, 9.998363 
1.7446633e+3, 1.2296989e+2, -2405470.0, -2053048.9, 175310.83, 0.1818083, 0.49562645, -1980695.5, -245762.7, 0.06957688, 9.995237, 9.999969 
1.744702e+3, 1.3297096e+2, -2093288.1, -1760922.9, -113990.32, -0.08177274, 0.5132091, -1725585.1, -88652.164, 0.045260757, 9.996347, 10.00076 
1.744747e+3, 1.4297144e+2, -1819486.4, -1500883.1, 13492.865, 0.2046217, 0.483103, -1500312.8, 38619.094, 0.022935338, 9.9972105, 10.001463 
1.744789e+3, 1.5297374e+2, -1642910.8, -1294223.9, 16024.06, -0.039043803, 0.5023924, -1293489.0, 147413.63, 0.0078018596, 9.997451, 10.002088 
1.7448321e+3, 1.629748e+2, -1650662.9, -1503495.0, -31961.602, -0.13559611, 0.5115329, -1496853.4, -153965.7, 0.0013223152, 9.997816, 9.999807 
1.7448772e+3, 1.7297317e+2, -1425218.9, -1380510.1, 2781.3428, 0.06420538, 0.390203, -1380337.8, -135433.34, 0.000049909977, 9.9988575, 9.999473 
1.7449218e+3, 1.8297204e+2, -1230112.3, -1233952.1, 99547.99, 0.17443791, 0.350141, -1132465.6, 14450.282, 0.0000000000000006446772, 9.999523, 9.999477 
1.7449662e+3, 1.9297253e+2, -1126118.3, -1103447.5, 72935.09, 0.069089085, 0.4165563, -1040972.2, 7939.1777, 0.0, 9.999439, 9.999735 
1.7450097e+3, 2.0297241e+2, -1043312.75, -1044750.06, -27861.684, -0.023443056, 0.46365437, -1016160.44, -65249.66, 0.0, 9.999466, 9.999459 
1.7450519e+3, 2.1297131e+2, -848398.25, -876634.94, -38927.94, -0.08697186, 0.38107684, -821107.5, 31809.328, 0.0, 10.00004, 9.999659 
1.745095e+3, 2.2296983e+2, -789391.8, -970637.3, 33935.242, -0.09904883, 0.34958684, -783246.4, -28316.484, 0.0, 10.000511, 9.998124 
1.7451404e+3, 2.3296809e+2, -661552.25, -871313.5, 39079.355, -0.014682009, 0.36899337, -654508.2, 2444.7686, 0.0, 10.000781, 9.997996 
1.7451854e+3, 2.429665e+2, -490707.47, -666931.2, 68071.6, 0.0064648436, 0.4044349, -467475.5, 91495.66, 0.0, 10.000969, 9.998632 
1.7452294e+3, 2.5296548e+2, -352201.72, -501883.7, 82793.88, -0.125046, 0.3910604, -315436.25, 145539.97, 0.0, 10.001049, 9.999051 
1.745273e+3, 2.629638e+2, -317899.75, -604967.1, 27214.678, -0.19419633, 0.39911905, -315342.53, 47647.273, 0.0000010008785, 10.001335, 9.997542 
1.7453161e+3, 2.7296123e+2, -97233.164, -462092.13, 16140.303, -0.1533546, 0.38976642, -96520.555, 168497.44, 0.00002996529, 10.002245, 9.997405 
1.74536e+3, 2.8295845e+2, 57343.688, -361301.25, 73448.51, -0.07218235, 0.39810398, 69855.8, 236904.75, 0.00019663884, 10.002745, 9.997186 
1.7454053e+3, 2.929552e+2, 113709.9, -263188.47, 45211.78, 0.08918836, 0.3243881, 119057.516, 188142.9, 0.0006700608, 10.002366, 9.997368 
1.745449e+3, 3.0295345e+2, 234826.5, -149485.05, -22157.703, 0.18004704, 0.4236838, 236099.8, 236099.8, 0.0015533518, 10.002721, 9.997656 
1.7454858e+3, 3.12955e+2, 576607.1, 123704.72, -14335.521, -0.29794693, 0.76208586, 577060.44, 577060.44, 0.0027765408, 10.004591, 9.99862 
1.7546597e+3, 1.2292459e+2, -2378327.0, -1952691.4, 48937.703, 0.29704586, 0.42318282, -1947137.1, -211760.33, 0.07366958, 9.995072, 10.000725 
1.7546973e+3, 1.3292553e+2, -2057680.9, -1669452.6, -58616.734, -0.20476095, 0.36761567, -1660795.5, -23419.668, 0.048192136, 9.996278, 10.001419 
1.754745e+3, 1.4292689e+2, -1837044.5, -1543890.9, 16426.818, 0.2634971, 0.3965257, -1542973.4, -3607.637, 0.024652572, 9.997235, 10.001154 
1.754787e+3, 1.5292865e+2, -1693305.6, -1390160.0, 26239.965, -0.00063623086, 0.42215946, -1387905.4, 53440.15, 0.008527423, 9.997412, 10.001447 
1.7548303e+3, 1.6293e+2, -1582546.6, -1359498.5, -10389.829, -0.11319982, 0.45832133, -1359015.6, -15686.175, 0.0014925194, 9.997802, 10.000803 
1.7548765e+3, 1.7293076e+2, -1325045.0, -1168908.9, 48999.918, 0.10929141, 0.4360121, -1154805.4, 90513.47, 0.00006156021, 9.998842, 10.000932 
1.7549217e+3, 1.8293075e+2, -1269610.3, -1323797.0, 98746.86, 0.1817108, 0.44485667, -1194307.4, -46989.57, 0.0000000010737394, 9.999554, 9.998846 
1.7549643e+3, 1.9292931e+2, -1214558.4, -1281274.8, 75035.3, -0.07369128, 0.43111095, -1165800.4, -116464.57, 0.0, 9.999413, 9.998528 
1.7550077e+3, 2.0292798e+2, -1042515.5, -1035738.8, -19943.965, -0.17857349, 0.42473087, -1018897.4, -67547.53, 0.0, 9.999428, 9.999541 
1.7550534e+3, 2.129275e+2, -829506.7, -818993.9, -13326.906, 0.073254675, 0.36592734, -809924.25, 43424.625, 0.0, 9.999954, 10.000099 
1.7550984e+3, 2.2292638e+2, -800847.5, -972212.1, 38636.11, 0.18795122, 0.34092328, -792539.3, -37181.74, 0.0, 10.000411, 9.998164 
1.755141e+3, 2.3292415e+2, -682260.5, -891823.6, 57917.457, -0.03389581, 0.3173113, -667319.0, -9934.31, 0.0, 10.000681, 9.997905 
1.7551842e+3, 2.429228e+2, -487853.97, -630207.2, 66703.72, -0.22162148, 0.36772537, -461483.2, 97917.57, 0.0, 10.000832, 9.998954 
1.755229e+3, 2.529236e+2, -331806.53, -440091.22, 90360.8, -0.26252648, 0.49395567, -280609.1, 180780.11, 0.0, 10.000966, 9.9995165 
1.7552747e+3, 2.629225e+2, -293588.06, -543541.9, 46199.824, -0.17081472, 0.5107918, -285322.13, 78075.62, 0.00000094846536, 10.001281, 9.997992 
1.7553213e+3, 2.7291772e+2, -80452.87, -394903.2, 57698.168, 0.13143256, 0.23547718, -70200.18, 195244.19, 0.000030532858, 10.002111, 9.997925 
1.7553656e+3, 2.829156e+2, 22725.207, -402184.88, 57687.68, 0.20367187, 0.28080893, 30417.873, 197886.9, 0.00019885889, 10.002602, 9.996978 
1.7554055e+3, 2.9291883e+2, 60679.72, -344761.2, 42019.195, -0.1328078, 0.8924095, 64988.72, 134436.97, 0.0006867082, 10.002242, 9.996868 
1.7554484e+3, 3.029169e+2, 209081.06, -158025.25, 24920.094, -0.14997227, 1.0045158, 210764.98, 210764.98, 0.001609284, 10.002535, 9.997682 
1.7554936e+3, 3.129068e+2, 503066.0, 69924.875, 53218.13, -0.0017441118, 0.15428668, 509508.84, 509508.84, 0.0028959955, 10.004191, 9.998431 
1.764655e+3, 1.2288013e+2, -2335723.3, -1887561.8, -6875.6553, 0.34682348, 0.41367012, -1887456.4, -151641.19, 0.07790593, 9.995148, 10.001136 
1.7646937e+3, 1.3288158e+2, -1923360.1, -1581041.9, -11787.703, -0.20809597, 0.3871624, -1580636.5, 57170.67, 0.05123237, 9.997069, 10.001667 
1.7647429e+3, 1.4288346e+2, -1747953.0, -1513230.6, -772.9877, 0.32572317, 0.454515, -1513228.0, 26562.77, 0.026445003, 9.997901, 10.001046 
1.7647848e+3, 1.528844e+2, -1799695.0, -1475369.0, 2462.0125, 0.08011824, 0.42488477, -1475350.3, -33570.43, 0.009296644, 9.9968405, 10.001131 
1.764828e+3, 1.628854e+2, -1746144.5, -1414628.5, 28236.393, -0.05535681, 0.43673724, -1412240.6, -68473.336, 0.0016790463, 9.9965925, 10.001001 
1.7648748e+3, 1.7288674e+2, -1399189.4, -1168523.9, -526.75964, 0.09048197, 0.4441482, -1168522.6, 77226.984, 0.000074904594, 9.998185, 10.001245 
1.7649204e+3, 1.82887e+2, -1343705.6, -1370766.3, -26076.398, 0.13521285, 0.4649656, -1327858.3, -180112.56, 0.000000009428086, 9.999091, 9.998752 
1.7649633e+3, 1.9288513e+2, -1318724.3, -1352441.4, -7027.5313, -0.07126103, 0.43103802, -1317318.1, -267549.13, 0.0, 9.99879, 9.998344 
1.7650071e+3, 2.0288363e+2, -1145033.1, -1113028.3, -20329.54, -0.14519075, 0.43152136, -1103158.5, -151371.92, 0.0, 9.99885, 9.999289 
1.7650533e+3, 2.1288356e+2, -864097.8, -866340.5, -67951.11, 0.07794159, 0.4422364, -797258.75, 56526.918, 0.0, 9.999854, 9.999821 
1.7650986e+3, 2.2288284e+2, -758476.3, -890992.5, -46942.55, 0.18469776, 0.45408294, -743532.56, 12259.232, 0.0, 10.000447, 9.998695 
1.7651416e+3, 2.3288094e+2, -692901.0, -811209.7, 7327.11, -0.0024471502, 0.38944593, -692448.94, -34637.605, 0.0, 10.000245, 9.998661 
1.7651853e+3, 2.4287961e+2, -530177.25, -645707.06, 80041.62, -0.16416636, 0.39762193, -489233.28, 70590.87, 0.0, 10.000524, 9.999 
1.7652306e+3, 2.5287995e+2, -200719.22, -392256.13, 58623.77, -0.23727216, 0.4919644, -184200.8, 277617.88, 0.0, 10.001939, 9.999377 
1.7652768e+3, 2.6287875e+2, -69221.055, -414313.4, -26165.93, -0.1575729, 0.5040563, -67248.35, 296580.4, 0.0000007067664, 10.002749, 9.998163 
1.7653236e+3, 2.728747e+2, -48846.938, -356758.78, -55788.617, 0.16155614, 0.2819802, -39050.62, 226816.97, 0.00002910251, 10.002225, 9.998136 
1.765368e+3, 2.8287292e+2, -18220.807, -363911.63, -29348.553, 0.22280453, 0.3297075, -15746.869, 152140.6, 0.00020251243, 10.002068, 9.997498 
1.7654078e+3, 2.9287568e+2, 237298.38, -199399.05, -3420.4856, -0.1662683, 0.8392305, 237325.17, 307193.53, 0.00071674364, 10.003197, 9.997404 
1.7654516e+3, 3.028729e+2, 405695.34, -120484.98, 44382.11, -0.15365171, 0.85714483, 409412.63, 409412.63, 0.0016874821, 10.004132, 9.997174 
1.7654987e+3, 3.1286332e+2, 422413.63, -43435.01, -58372.15, 0.117314465, 0.13605775, 429616.47, 429616.47, 0.0030254049, 10.00394, 9.997787 
1.7746481e+3, 1.22836664e+2, -2317657.0, -1862864.6, -120268.28, 0.0995573, 0.47272253, -1833018.8, -96772.19, 0.08231803, 9.995199, 10.001284 
1.7746913e+3, 1.3283937e+2, -1925442.5, -1591129.6, 70427.55, -0.15237762, 0.59310555, -1576898.9, 61325.695, 0.054393712, 9.997082, 10.001598 
1.774741e+3, 1.4284118e+2, -1735500.0, -1497440.4, -34091.77, 0.31196582, 0.6434199, -1492654.5, 47553.527, 0.02831169, 9.997938, 10.001142 
1.7747822e+3, 1.5284115e+2, -1801698.5, -1473273.1, -32021.916, 0.13101798, 0.51727647, -1470180.0, -27976.457, 0.010105246, 9.996814, 10.001158 
1.7748249e+3, 1.6284116e+2, -1800258.4, -1525317.6, 61222.023, -0.036934372, 0.45870304, -1512301.3, -168101.86, 0.0018804772, 9.996583, 10.000247 
1.7748715e+3, 1.7284115e+2, -1472305.0, -1312071.0, 65344.652, -0.05299342, 0.42199773, -1288802.1, -42605.16, 0.00008970714, 9.998154, 10.000272 
1.7749178e+3, 1.8284072e+2, -1308900.3, -1309459.3, -32719.342, -0.038146775, 0.41744924, -1276459.3, -128258.9, 0.000000028818846, 9.999131, 9.999155 
1.7749628e+3, 1.9283989e+2, -1265311.8, -1240365.9, -14913.468, 0.014195659, 0.41417018, -1233396.9, -183185.11, 0.0, 9.998778, 9.999121 
1.7750074e+3, 2.0283931e+2, -1189427.1, -1199463.4, 961.086, 0.0027569511, 0.48056957, -1189335.9, -237113.9, 0.0, 9.998829, 9.998701 
1.7750512e+3, 2.128395e+2, -952157.4, -1019852.1, -23151.287, -0.12695318, 0.607787, -944997.1, -90769.98, 0.0, 9.999735, 9.998818 
1.7750958e+3, 2.2283924e+2, -713744.94, -770091.44, -52025.39, -0.16550338, 0.6911325, -682754.25, 73478.07, 0.0, 10.000316, 9.999595 
1.7751421e+3, 2.3283833e+2, -597860.6, -600086.1, 5180.5625, 0.018325651, 0.58511, -593674.7, 64559.082, 0.0, 10.000176, 10.000148 
1.7751883e+3, 2.428369e+2, -559616.4, -685148.5, 111781.74, 0.0872374, 0.499171, -494184.4, 66057.9, 0.0, 10.000429, 9.998774 
1.7752337e+3, 2.5283468e+2, -272001.2, -505760.38, 119811.18, -0.11181956, 0.40053344, -221502.28, 240760.92, 0.0, 10.001793, 9.998667 
1.775279e+3, 2.6283273e+2, -110171.43, -453915.06, -37387.1, -0.20897323, 0.38732642, -106152.04, 258129.81, 0.00000032366296, 10.00255, 9.997991 
1.7753233e+3, 2.728321e+2, -79519.664, -374251.06, -67381.08, -0.09892333, 0.5070115, -64845.68, 201443.2, 0.00002512301, 10.00204, 9.9981 
1.7753673e+3, 2.828306e+2, 28875.313, -239206.44, -8609.116, -0.06986292, 0.5552849, 29151.5, 197454.58, 0.00020058491, 10.001935, 9.9984255 
1.7754115e+3, 2.9282677e+2, 296811.78, -29150.076, 49182.953, -0.121630795, 0.2823685, 304071.13, 374408.25, 0.0007353816, 10.002992, 9.998675 
1.7754577e+3, 3.0282244e+2, 293245.8, -277469.6, 41338.625, 0.02154685, 0.1003929, 296224.53, 296224.53, 0.0017296278, 10.003811, 9.996246 
1.7755015e+3, 3.1282496e+2, 283489.88, -199396.39, -65608.48, -0.011486072, 0.73351365, 292245.2, 292245.2, 0.0030613176, 10.003423, 9.99694 
1.7846426e+3, 1.22792155e+2, -2258366.0, -1777271.9, -131304.08, 0.03319747, 0.4643485, -1743768.5, -7085.314, 0.08696164, 9.995397, 10.00176 
1.7846893e+3, 1.3279465e+2, -1993568.1, -1619588.6, 111531.445, -0.03358252, 0.5638568, -1588852.9, 49808.004, 0.057701517, 9.996617, 10.0016165 
1.7847379e+3, 1.4279646e+2, -1814860.6, -1555406.5, -39310.152, 0.2539534, 0.62014306, -1549581.4, -8938.265, 0.030258754, 9.99749, 10.000952 
1.7847799e+3, 1.527966e+2, -1581347.0, -1408884.9, -91515.555, 0.14859399, 0.54356503, -1369374.5, 73264.06, 0.0109521225, 9.998499, 10.000794 
1.7848226e+3, 1.6279621e+2, -1527228.8, -1475117.8, 11839.221, -0.002606678, 0.49545425, -1472554.1, -127914.3, 0.0020959692, 9.998805, 9.999516 
1.7848693e+3, 1.7279445e+2, -1574207.6, -1456921.9, 11594.938, -0.06050585, 0.36552453, -1455786.6, -209130.63, 0.000105867584, 9.997865, 9.999417 
1.7849158e+3, 1.8279333e+2, -1496996.3, -1319927.3, -54484.582, -0.057263583, 0.31698307, -1304505.4, -155839.0, 0.0000000562377, 9.997509, 9.999864 
1.7849614e+3, 1.9279444e+2, -1187449.5, -1072922.1, -21214.072, 0.0009832383, 0.39846185, -1069118.9, -18463.105, 0.0, 9.998761, 10.000275 
1.7850064e+3, 2.0279504e+2, -1110089.4, -1177474.5, 24338.367, -0.012181257, 0.5173707, -1102218.1, -149564.78, 0.0, 9.999444, 9.998563 
1.7850499e+3, 2.1279447e+2, -1109125.1, -1151848.8, 17610.152, -0.16875692, 0.6176123, -1102802.3, -248133.3, 0.0, 9.998897, 9.998324 
1.7850949e+3, 2.2279374e+2, -889129.56, -836124.0, 24476.578, -0.19554836, 0.680641, -826550.44, -69870.44, 0.0, 9.999038, 9.999759 
1.7851429e+3, 2.3279324e+2, -485332.38, -509986.53, -11761.697, 0.054219905, 0.5835989, -480621.44, 178054.23, 0.0, 10.000803, 10.000466 
1.7851901e+3, 2.4279198e+2, -384969.03, -613203.06, 34363.926, 0.17157806, 0.5035375, -379907.3, 180774.13, 0.0, 10.001681, 9.998661 
1.7852354e+3, 2.527895e+2, -476829.56, -636363.4, 49174.45, -0.037438236, 0.40373895, -462890.1, -183.62047, 0.0, 10.000513, 9.998387 
1.7852807e+3, 2.6278758e+2, -444592.53, -570176.0, -45620.926, -0.15922827, 0.3937593, -429769.38, -65044.055, 0.00000018370703, 10.0000515, 9.998396 
1.7853247e+3, 2.7278727e+2, -119135.07, -332671.22, -47355.77, -0.11618287, 0.4905396, -109104.21, 157622.05, 0.000020759246, 10.001479, 9.998664 
1.7853689e+3, 2.827857e+2, 74148.28, -212723.11, 23127.691, -0.089170225, 0.49658433, 76000.88, 244740.31, 0.00019242667, 10.002265, 9.998431 
1.7854144e+3, 2.927814e+2, 101170.03, -141997.75, -35357.363, -0.03712496, 0.19364814, 106206.77, 176986.69, 0.0007322789, 10.001744, 9.998491 
1.7854609e+3, 3.0277744e+2, 31109.752, -315894.16, -34381.785, 0.10247863, 0.032530934, 34483.56, 34483.56, 0.001712866, 10.001619, 9.997037 
1.7855048e+3, 3.1278193e+2, 202147.78, -89356.91, -67227.875, 0.0630529, 0.7655482, 216905.03, 216905.03, 0.0029707379, 10.002189, 9.998296 
1.7946383e+3, 1.22746676e+2, -2192662.0, -1660202.4, -61586.637, 0.025553519, 0.3717833, -1653171.9, 83951.66, 0.09190124, 9.995428, 10.002612 
1.794687e+3, 1.3274726e+2, -1998165.4, -1625480.1, 154394.02, 0.07987752, 0.27369922, -1569828.8, 69287.41, 0.06119029, 9.996593, 10.001597 
1.7947337e+3, 1.4274928e+2, -1859165.0, -1645524.9, -12905.96, 0.06601978, 0.37264016, -1644748.1, -103651.6, 0.03230053, 9.997482, 10.000338 
1.7947777e+3, 1.5275073e+2, -1636135.6, -1523013.6, -47292.48, 0.06238688, 0.50522393, -1505847.3, -62762.35, 0.011841973, 9.998507, 10.0 
1.7948215e+3, 1.6275057e+2, -1565909.8, -1574865.8, -21414.69, -0.023139575, 0.5558105, -1548509.9, -203421.31, 0.0023264778, 9.998876, 9.998806 
1.794868e+3, 1.7274661e+2, -1619448.1, -1554775.9, -23474.148, 0.016371224, 0.27682763, -1547153.8, -300026.16, 0.00012352158, 9.997874, 9.998746 
1.794914e+3, 1.8274486e+2, -1427096.8, -1174009.1, -31272.309, 0.011231262, 0.16575883, -1170202.3, -21058.564, 0.000000085167756, 9.997509, 10.000863 
1.7949586e+3, 1.9274881e+2, -1093666.5, -866442.8, 33708.273, -0.16984896, 0.39155984, -861547.7, 189553.27, 0.0, 9.998711, 10.001716 
1.7950033e+3, 2.027509e+2, -1094058.1, -1136846.3, 9615.797, -0.26463225, 0.56027484, -1091996.5, -138916.52, 0.0, 9.999407, 9.998862 
1.7950495e+3, 2.127486e+2, -1117595.0, -1160613.9, 1269.9583, -0.111286454, 0.4855903, -1117557.5, -262447.28, 0.0, 9.998851, 9.998292 
1.7950961e+3, 2.2274646e+2, -949068.06, -940001.06, 66779.99, 0.01620173, 0.4343786, -877600.9, -120465.96, 0.0, 9.998953, 9.999084 
1.7951436e+3, 2.327456e+2, -565163.1, -642925.0, 64562.004, 0.051797025, 0.38458088, -528678.44, 130459.22, 0.0, 10.000667, 9.999615 
1.7951904e+3, 2.4274485e+2, -415872.75, -638024.0, 6835.377, 0.03480291, 0.40730724, -415662.63, 145479.22, 0.0, 10.00151, 9.998576 
1.7952357e+3, 2.5274447e+2, -484810.38, -625031.3, 10195.624, -0.06912902, 0.5077337, -484072.9, -20924.588, 0.0, 10.000401, 9.998518 
1.7952813e+3, 2.627433e+2, -397268.16, -452997.97, -17594.625, -0.09461978, 0.5308013, -392178.2, -27018.633, 0.00000013255313, 9.99996, 9.999249 
1.7953274e+3, 2.727406e+2, -58089.496, -176864.73, 13739.372, 0.009425963, 0.27892008, -56520.902, 210656.23, 0.0000188634, 10.001362, 9.999786 
1.7953727e+3, 2.8273863e+2, -4361.233, -351900.3, 3107.2627, 0.049818214, 0.20946983, -4333.4536, 164859.84, 0.00018750537, 10.002149, 9.997537 
1.7954168e+3, 2.9273885e+2, -23104.707, -356359.4, -41658.215, 0.0103695635, 0.49814504, -17976.18, 53225.418, 0.00072388566, 10.001563, 9.997103 
1.7954615e+3, 3.0273712e+2, 132023.92, -56992.4, -28531.016, 0.0007319755, 0.5737879, 136236.64, 136236.64, 0.0016677033, 10.001399, 9.998928 
1.795508e+3, 3.1273487e+2, 423306.72, 405746.78, -41304.77, 0.13528337, 0.33846924, 456754.38, 456754.38, 0.0028169882, 10.002062, 10.001752 
1.8046346e+3, 1.2270137e+2, -1969252.6, -1603098.9, -43751.77, 0.052645873, 0.3932827, -1597943.6, 139622.61, 0.097200245, 9.997158, 10.002216 
1.8046845e+3, 1.3270062e+2, -2092608.9, -1750067.4, 7771.123, 0.19180864, 0.23184857, -1749891.1, -110318.78, 0.06490086, 9.996302, 10.00086 
1.8047298e+3, 1.4270213e+2, -2114754.3, -1769772.3, -125871.375, 0.039539352, 0.32708934, -1728729.3, -187171.27, 0.034457777, 9.995735, 10.000323 
1.8047749e+3, 1.5270369e+2, -1872815.0, -1615712.5, -96387.98, 0.038551778, 0.4534659, -1583590.0, -140043.92, 0.0127833225, 9.996792, 10.000189 
1.8048194e+3, 1.6270398e+2, -1703122.0, -1599453.6, -9330.474, -0.03820378, 0.5247173, -1598620.5, -253074.75, 0.0025744103, 9.997775, 9.999163 
1.8048666e+3, 1.7270155e+2, -1455032.4, -1425340.1, 49229.242, 0.053711887, 0.3580607, -1388767.1, -141196.95, 0.00014305822, 9.998811, 9.999172 
1.804913e+3, 1.8270043e+2, -1188481.1, -1095469.8, 74216.25, 0.08369009, 0.29431075, -1054392.1, 95188.195, 0.00000010953618, 9.999285, 10.000553 
1.8049571e+3, 1.927027e+2, -1156627.1, -953001.44, -15188.737, -0.15434174, 0.3981767, -951874.7, 99679.11, 0.0, 9.998515, 10.001218 
1.8050022e+3, 2.0270377e+2, -1194754.8, -1135708.9, -96253.93, -0.2597582, 0.4808776, -1064552.0, -111010.766, 0.0, 9.998496, 9.999312 
1.80505e+3, 2.1270233e+2, -834584.25, -941477.56, -62022.45, -0.0068434817, 0.42402247, -806157.06, 49401.906, 0.0, 10.000442, 9.999024 
1.8050976e+3, 2.2270066e+2, -614089.4, -836271.6, 39782.434, 0.16669668, 0.39431027, -607181.0, 150396.52, 0.0, 10.001514, 9.998555 
1.8051447e+3, 2.3269905e+2, -650000.2, -789960.5, 17559.35, 0.10988346, 0.36033726, -647830.9, 11761.534, 0.0, 10.000539, 9.998667 
1.8051912e+3, 2.426979e+2, -624896.6, -695187.2, -40253.57, 0.047882926, 0.3873379, -606604.7, -45001.84, 0.0, 9.999886, 9.998971 
1.8052365e+3, 2.5269803e+2, -461958.94, -532154.75, -17610.91, -0.004973579, 0.46883735, -457788.44, 5812.4116, 0.0, 10.000187, 9.999272 
1.8052825e+3, 2.6269716e+2, -271927.06, -384084.94, 27187.33, -0.012388798, 0.47772175, -265684.28, 99922.41, 0.00000007008213, 10.000796, 9.999316 
1.8053293e+3, 2.7269438e+2, 38546.52, -154108.84, -30608.123, 0.034292962, 0.23402748, 43292.473, 310920.1, 0.000018211342, 10.00213, 9.99958 
1.805375e+3, 2.826924e+2, 87655.41, -291743.13, -122016.734, 0.06990193, 0.1753555, 123508.555, 293154.3, 0.00018362651, 10.002704, 9.997687 
1.8054187e+3, 2.9269332e+2, 3096.416, -317234.47, -102807.49, 0.0665523, 0.51854455, 33252.67, 104900.68, 0.00070971565, 10.001607, 9.997363 
1.8054628e+3, 3.0269265e+2, 187523.34, -44851.19, 46746.816, -0.018065697, 0.68227255, 196574.84, 196574.84, 0.0016126586, 10.001844, 9.998792 
1.8055128e+3, 3.126888e+2, 864782.4, 536700.0, -184363.95, 0.24720138, 0.3401508, 947519.56, 947519.56, 0.0026732127, 10.0054035, 10.00108 
1.8146318e+3, 1.2265605e+2, -2101901.5, -1874874.1, -1794.9476, 0.024629347, 0.5199855, -1874860.0, -136846.33, 0.10291468, 9.997207, 10.000228 
1.8146811e+3, 1.3265477e+2, -2200232.0, -1964610.8, -36550.754, 0.21773127, 0.4633252, -1959071.0, -319041.5, 0.06887483, 9.996275, 9.999398 
1.8147263e+3, 1.4265506e+2, -2067885.9, -1671239.3, -115284.125, 0.10881309, 0.50106466, -1640166.5, -98138.34, 0.036753505, 9.995717, 10.001016 
1.8147714e+3, 1.5265536e+2, -1782603.9, -1427865.5, -47977.977, 0.015770476, 0.3816295, -1421491.0, 22532.281, 0.01378539, 9.996775, 10.001496 
1.8148164e+3, 1.626564e+2, -1600858.3, -1387098.9, 22295.584, -0.13603735, 0.39103198, -1384798.1, -38786.434, 0.002842686, 9.997774, 10.00062 
1.8148649e+3, 1.726594e+2, -1352519.9, -1213570.4, 97277.664, -0.0016296766, 0.61813223, -1163505.6, 84476.73, 0.00016504708, 9.998807, 10.000631 
1.8149124e+3, 1.8266022e+2, -1295909.6, -1322539.8, 54702.96, 0.094609976, 0.7201059, -1252924.5, -102950.38, 0.00000012908751, 9.999303, 9.998987 
1.814957e+3, 1.9265611e+2, -1328477.4, -1310697.0, -40497.42, -0.016716033, 0.4240515, -1278125.5, -226111.47, 0.0, 9.998519, 9.998762 
1.8150027e+3, 2.0265356e+2, -1161454.6, -1060498.9, -51113.285, -0.06391978, 0.27186504, -1039139.56, -85101.414, 0.0, 9.998468, 9.999842 
1.8150514e+3, 2.1265548e+2, -748514.44, -740624.6, 20468.084, 0.09284477, 0.4194541, -723724.75, 132291.88, 0.0, 10.000341, 10.000453 
1.8150994e+3, 2.2265616e+2, -663649.75, -908318.2, 19676.709, 0.1978862, 0.5503809, -662077.4, 95932.164, 0.0, 10.001376, 9.998132 
1.8151458e+3, 2.3265363e+2, -734438.9, -944698.94, -12785.569, 0.16154252, 0.51772153, -733664.25, -73625.11, 0.0, 10.000448, 9.997649 
1.8151918e+3, 2.4265124e+2, -590467.8, -603467.25, -43999.38, 0.12322082, 0.46177432, -552490.7, 9572.45, 0.0, 9.999791, 9.999647 
1.8152377e+3, 2.5265017e+2, -379397.56, -347563.78, 2073.2524, 0.09031318, 0.3005237, -347429.34, 116634.734, 0.0, 10.000131, 10.000565 
1.8152837e+3, 2.626493e+2, -336544.53, -498552.22, 59144.414, 0.02168668, 0.24979617, -317250.4, 48816.594, 0.0000000874347, 10.000704, 9.998578 
1.8153302e+3, 2.726485e+2, -90342.984, -371201.9, 30321.973, -0.09409702, 0.33431798, -87106.664, 180971.47, 0.00001648955, 10.00192, 9.998184 
1.8153763e+3, 2.82647e+2, 107606.23, -196425.42, -149308.77, -0.104494974, 0.38439038, 168667.67, 338763.88, 0.00017232615, 10.002457, 9.998467 
1.8154202e+3, 2.926453e+2, 117634.63, -78073.05, -136117.81, 0.039918482, 0.30825388, 187421.58, 259536.89, 0.0006746176, 10.0015955, 9.999011 
1.8154642e+3, 3.0264476e+2, 37413.8, -342917.38, 124699.83, -0.07593311, 0.44973996, 74653.13, 74653.13, 0.0015411106, 10.001792, 9.996769 
1.8155171e+3, 3.126413e+2, 509695.3, -55072.895, 27052.684, 0.13580258, 0.45745626, 510988.2, 510988.2, 0.0025631795, 10.004816, 9.997259 
1.8246295e+3, 1.226089e+2, -2215182.3, -1929600.3, -33755.566, 0.12595524, 0.59304965, -1925664.6, -187186.78, 0.10907774, 9.9964, 10.000248 
1.824678e+3, 1.3260803e+2, -2026308.6, -1825216.9, 12524.196, 0.24620518, 0.5277194, -1824439.9, -183952.36, 0.07313931, 9.997202, 9.999914 
1.8247233e+3, 1.426078e+2, -1777041.3, -1520396.1, 49310.19, 0.16473278, 0.47284263, -1511248.1, 31241.82, 0.039204508, 9.997675, 10.001109 
1.8247686e+3, 1.5260823e+2, -1669370.9, -1379547.5, 8426.371, 0.030593436, 0.36861807, -1379302.8, 65181.688, 0.014855209, 9.997586, 10.001435 
1.8248138e+3, 1.6260944e+2, -1619477.4, -1386969.4, -7172.52, -0.14394194, 0.39693493, -1386748.4, -40276.586, 0.0031336718, 9.997597, 10.000706 
1.8248633e+3, 1.7261279e+2, -1455282.1, -1245029.3, -42150.01, 0.019286219, 0.6459594, -1236894.0, 11544.791, 0.00019006866, 9.998022, 10.000792 
1.8249117e+3, 1.8261363e+2, -1456240.0, -1421023.5, -129295.95, 0.15186077, 0.7498609, -1308142.3, -157711.53, 0.00000015151502, 9.998305, 9.998785 
1.8249561e+3, 1.9260894e+2, -1362432.9, -1357849.1, -91622.53, 0.047105636, 0.42467734, -1268489.8, -216012.45, 0.0, 9.998444, 9.998464 
1.8250017e+3, 2.0260601e+2, -1106929.1, -1030957.75, 48745.93, -0.0061522922, 0.25408474, -1007144.7, -52639.727, 0.0, 9.998841, 9.999852 
1.8250515e+3, 2.126079e+2, -804800.1, -755087.5, 32688.104, 0.09543106, 0.38826534, -738878.6, 117603.33, 0.0, 9.999909, 10.000555 
1.8251e+3, 2.2260866e+2, -767159.56, -945676.5, -62198.31, 0.17145205, 0.5159956, -747626.0, 10847.209, 0.0, 10.0006, 9.998253 
1.825146e+3, 2.3260647e+2, -733484.44, -927321.44, -51924.48, 0.15766792, 0.5054119, -720451.4, -59951.586, 0.0, 10.000382, 9.9978 
1.8251921e+3, 2.426042e+2, -479949.53, -559921.6, 5607.135, 0.15184276, 0.45381156, -479558.3, 82964.68, 0.0, 10.0006, 9.99955 
1.825239e+3, 2.526027e+2, -131009.15, -247071.9, -44613.996, 0.1381501, 0.26494274, -115841.83, 348686.06, 0.0, 10.001924, 10.000385 
1.8252853e+3, 2.626017e+2, -134526.84, -421285.56, -67819.805, 0.058223035, 0.22423078, -119296.09, 247236.34, 0.00000011582431, 10.002196, 9.9983835 
1.8253306e+3, 2.7260154e+2, -380546.6, -542829.25, -59126.496, -0.13617751, 0.40033832, -361289.44, -92748.484, 0.000015405387, 10.000054, 9.997909 
1.8253767e+3, 2.8260016e+2, -280661.72, -358323.4, -118331.04, -0.14837909, 0.47010526, -194953.14, -24393.865, 0.0001600689, 9.999693, 9.99868 
1.8254231e+3, 2.9259753e+2, 446618.25, 118605.81, -188456.2, 0.08198326, 0.27509555, 532439.5, 605022.9, 0.0006309303, 10.003692, 9.999358 
1.8254678e+3, 3.025969e+2, 603075.94, -19572.742, 42403.223, -0.075164035, 0.36456, 605950.4, 605950.4, 0.0014651801, 10.0054865, 9.997201 
1.8255194e+3, 3.1259462e+2, 159160.7, -283969.78, 146477.45, 0.030662483, 0.47674003, 203201.94, 203201.94, 0.0024874755, 10.002594, 9.996796 
1.8346274e+3, 1.2255915e+2, -2055838.5, -1608569.3, -34619.996, 0.25195315, 0.5435637, -1605905.5, 133061.31, 0.11569034, 9.996371, 10.002582 
1.834675e+3, 1.3256057e+2, -1821871.3, -1421471.5, 50668.523, 0.21521705, 0.41918325, -1415159.1, 225784.72, 0.07769921, 9.997219, 10.002799 
1.8347207e+3, 1.4256044e+2, -1808195.8, -1599979.1, 50258.69, 0.11467321, 0.22101793, -1588482.6, -45541.805, 0.04181763, 9.997743, 10.000524 
1.8347661e+3, 1.5256242e+2, -1780698.0, -1615814.0, 12686.748, 0.012257516, 0.41978315, -1614843.5, -169916.11, 0.015997248, 9.997606, 9.9998 
1.8348117e+3, 1.6256319e+2, -1710055.8, -1578592.6, -6428.362, -0.12665245, 0.55579966, -1578279.1, -231354.3, 0.0034491862, 9.997615, 9.999383 
1.8348618e+3, 1.7256145e+2, -1540449.3, -1423659.0, -23943.936, 0.062140632, 0.4212541, -1418940.8, -169998.2, 0.00021871291, 9.998026, 9.999566 
1.8349104e+3, 1.825602e+2, -1376260.3, -1256214.9, -128868.48, 0.17627053, 0.35037208, -1174076.4, -23121.92, 0.00000018976193, 9.99831, 9.999913 
1.8349539e+3, 1.9256097e+2, -1236460.8, -1090372.3, -80134.26, -0.021604214, 0.3930005, -1054986.9, -2041.8492, 0.0, 9.998413, 10.000315 
1.8349993e+3, 2.025611e+2, -1144150.9, -1099207.6, 74303.195, -0.15104903, 0.42842168, -1044052.4, -89110.4, 0.0, 9.998798, 9.999408 
1.8350498e+3, 2.1255974e+2, -901755.1, -933844.7, 78859.7, -0.059063464, 0.3469059, -837324.5, 19629.238, 0.0, 9.999816, 9.9993725 
1.8350992e+3, 2.2255838e+2, -743829.06, -867470.4, -63609.637, 0.018182317, 0.3166727, -716948.1, 42018.137, 0.0, 10.000465, 9.998858 
1.8351452e+3, 2.3255752e+2, -661329.1, -757097.2, -52991.19, 0.04791965, 0.3262924, -637792.25, 23183.232, 0.0, 10.000293, 9.999014 
1.835192e+3, 2.4255656e+2, -549416.44, -681223.5, 35444.195, 0.07801993, 0.3575695, -540489.75, 22495.094, 0.0, 10.000496, 9.998772 
1.8352404e+3, 2.525556e+2, -255376.63, -470890.3, 17352.063, 0.08756625, 0.3638371, -253988.45, 211002.92, 0.0, 10.00178, 9.998919 
1.835287e+3, 2.6255462e+2, -152231.89, -424463.84, -122660.29, 0.0155992685, 0.41588256, -105118.21, 261882.11, 0.000000090536304, 10.002038, 9.998444 
1.8353301e+3, 2.7255362e+2, -338597.8, -450582.4, -129789.93, -0.173436, 0.4495316, -253237.5, 15777.273, 0.00001528185, 10.00003, 9.998554 
1.8353762e+3, 2.8255197e+2, -311262.25, -421608.66, -29731.168, -0.16605113, 0.46514264, -303761.5, -132727.44, 0.00015262204, 9.999681, 9.998257 
1.8354271e+3, 2.9254988e+2, 360492.84, 2318.8896, -19682.672, 0.110658206, 0.39225778, 361571.22, 434623.94, 0.0005955264, 10.003433, 9.998675 
1.8354729e+3, 3.0254906e+2, 684728.0, 254232.9, -25843.29, -0.11446912, 0.4233835, 686273.8, 686273.8, 0.0014001345, 10.005037, 9.9993 
1.8355185e+3, 3.1254983e+2, 246408.53, -22238.953, 113803.21, -0.34104577, 0.542069, 288136.03, 288136.03, 0.0024305002, 10.002262, 9.998747 
1.8446249e+3, 1.2250809e+2, -1953677.3, -1518705.8, -44638.867, 0.3609232, 0.41568464, -1514171.9, 225295.75, 0.12272786, 9.996853, 10.003059 
1.8446712e+3, 1.3251212e+2, -2020632.6, -1373038.0, -123642.13, 0.22916774, 0.4234701, -1350234.6, 291182.1, 0.08254445, 9.995241, 10.004121 
1.8447165e+3, 1.425127e+2, -2241243.0, -1807143.9, -132909.66, 0.07891749, 0.22253343, -1769683.1, -226277.77, 0.04459436, 9.994757, 10.0005455 
1.8447644e+3, 1.5251458e+2, -1814293.8, -1661308.1, -73523.08, 0.100482725, 0.43460557, -1631702.9, -186308.19, 0.017215712, 9.9975, 9.999542 
1.8448116e+3, 1.6251493e+2, -1505851.0, -1497825.4, -29602.018, 0.052203316, 0.5529968, -1471965.4, -124568.44, 0.0037916328, 9.999104, 9.999217 
1.8448602e+3, 1.7251207e+2, -1568362.9, -1450271.3, 6383.345, 0.11589409, 0.32003766, -1449927.1, -200502.16, 0.00025177147, 9.997902, 9.999441 
1.8449079e+3, 1.8251064e+2, -1475133.1, -1256581.3, -11398.64, 0.14967531, 0.22291228, -1255988.4, -104550.1, 0.00000025167606, 9.997433, 10.000328 
1.8449529e+3, 1.9251336e+2, -1063396.1, -943704.94, -54159.273, 0.0039689387, 0.40284917, -922836.7, 130573.76, 0.0, 9.99932, 10.000888 
1.8449992e+3, 2.0251457e+2, -927444.2, -1014912.06, 26218.713, -0.09706716, 0.5194162, -920187.1, 35210.465, 0.0, 10.000371, 9.999233 
1.8450491e+3, 2.1251224e+2, -999467.5, -1029441.94, 60938.375, -0.07449053, 0.3807125, -951700.44, -94279.99, 0.0, 9.999352, 9.998944 
1.8450983e+3, 2.2251023e+2, -913580.8, -920496.94, -7598.057, -0.029775444, 0.3034469, -908690.9, -149251.13, 0.0, 9.999196, 9.999095 
1.8451458e+3, 2.3250972e+2, -450774.8, -606765.25, -52029.36, 0.029956413, 0.3051834, -435013.4, 226430.44, 0.0, 10.001536, 9.99944 
1.8451935e+3, 2.4250907e+2, -259213.98, -584780.4, -19967.234, 0.07860898, 0.354536, -257993.95, 305455.94, 0.0, 10.002693, 9.998367 
1.845241e+3, 2.5250813e+2, -447811.56, -638848.2, -22309.795, 0.045956142, 0.42905253, -445240.75, 20218.725, 0.0, 10.00079, 9.998237 
1.8452875e+3, 2.625068e+2, -448086.97, -549690.94, -94755.375, -0.019257385, 0.48275158, -391374.2, -23901.09, 0.00000009817215, 9.999931, 9.998597 
1.8453318e+3, 2.725051e+2, -25745.393, -252744.03, -119245.06, -0.10227036, 0.40498763, 25380.56, 294871.53, 0.000013983738, 10.001976, 9.998975 
1.8453786e+3, 2.825033e+2, 166553.89, -219904.6, 20149.145, -0.0688318, 0.3917982, 167601.6, 339110.75, 0.0001420209, 10.003101, 9.997992 
1.8454286e+3, 2.9250193e+2, 71459.03, -196065.69, 15260.482, 0.020387718, 0.44430086, 72326.73, 145849.2, 0.00055699964, 10.001694, 9.998159 
1.8454745e+3, 3.025003e+2, 95128.63, -2744.729, -63897.848, -0.22518556, 0.4156246, 126676.32, 126676.32, 0.0013265306, 10.000855, 9.999555 
1.8455212e+3, 3.1250086e+2, 281937.9, 28116.428, -94555.1, -0.28392652, 0.47844914, 313289.63, 313289.63, 0.0023433012, 10.002352, 9.999046 
1.8546213e+3, 1.2245599e+2, -2056245.5, -1738010.3, -81862.33, 0.2889226, 0.21666937, -1718187.0, 21790.629, 0.13014582, 9.996978, 10.0013075 
1.8546665e+3, 1.3246252e+2, -2073428.1, -1463754.9, -190896.25, 0.22968772, 0.53114253, -1408915.6, 232993.0, 0.08765755, 9.995175, 10.003501 
1.8547101e+3, 1.4246447e+2, -2207196.0, -1721033.5, -79427.086, -0.032398082, 0.49100596, -1708386.1, -164500.02, 0.04753598, 9.994688, 10.001172 
1.8547633e+3, 1.5246446e+2, -1727891.9, -1485624.0, 39698.875, 0.23286676, 0.40291628, -1479284.8, -33395.934, 0.01851746, 9.997509, 10.000749 
1.8548135e+3, 1.6246442e+2, -1416919.3, -1331372.5, -46903.547, 0.3189993, 0.3648806, -1310667.5, 37222.785, 0.0041650403, 9.999177, 10.000324 
1.8548581e+3, 1.7246474e+2, -1494096.8, -1303743.0, -36769.434, 0.12177419, 0.3441357, -1296887.4, -47002.19, 0.00029041685, 9.997924, 10.00044 
1.8549038e+3, 1.8246512e+2, -1493577.5, -1301483.0, 25927.38, -0.0010331252, 0.37553665, -1298045.0, -146164.48, 0.0000003514084, 9.997457, 10.000012 
1.8549527e+3, 1.9246614e+2, -1117653.8, -1054429.9, 26058.213, 0.058638807, 0.4595037, -1045074.2, 8798.7, 0.0, 9.999305, 10.000138 
1.8550013e+3, 2.0246643e+2, -929124.5, -1010739.8, 7367.7886, 0.080479644, 0.52950037, -928464.75, 27407.248, 0.0, 10.000336, 9.999281 
1.8550491e+3, 2.1246529e+2, -988593.0, -988968.5, 25393.48, 0.0007825398, 0.48209456, -963386.56, -105503.2, 0.0, 9.999273, 9.999262 
1.8550974e+3, 2.2246404e+2, -934078.2, -941007.1, 45849.777, -0.038393125, 0.4627917, -891562.2, -131666.53, 0.0, 9.999095, 9.999007 
1.8551475e+3, 2.3246308e+2, -489325.1, -656328.6, 48994.152, 0.039843198, 0.4444874, -476012.75, 185891.92, 0.0, 10.001399, 9.999171 
1.8551962e+3, 2.4246186e+2, -298849.7, -621949.5, -59936.07, 0.07193222, 0.4640806, -288089.7, 275826.7, 0.0, 10.002493, 9.998211 
1.855241e+3, 2.524602e+2, -466737.72, -655128.3, -90811.78, -0.03860405, 0.47431457, -430091.38, 35841.34, 0.0, 10.000693, 9.99817 
1.8552868e+3, 2.6245815e+2, -436582.13, -515826.53, -59818.227, -0.10415766, 0.44706386, -404453.78, -36501.723, 0.00000008466028, 9.999884, 9.998857 
1.855335e+3, 2.7245587e+2, -31095.766, -214680.89, -25832.73, 0.010582094, 0.27837816, -27530.033, 242440.45, 0.000011475633, 10.001771, 9.999332 
1.8553829e+3, 2.824542e+2, 99040.29, -293315.47, -12307.971, 0.05340676, 0.26928613, 99426.01, 271410.75, 0.00012583715, 10.002799, 9.997642 
1.8554276e+3, 2.9245368e+2, 22883.754, -275810.03, -29854.943, -0.24692577, 0.4549773, 25838.576, 99831.47, 0.00050954643, 10.001599, 9.997659 
1.8554726e+3, 3.0245066e+2, -25354.451, -236122.83, -49787.727, -0.5035504, 0.37966308, -14185.454, -14185.454, 0.001235729, 10.000791, 9.997977 
1.8555273e+3, 3.124499e+2, 141737.86, -148711.13, 32534.373, 0.08838093, 0.4884277, 145337.55, 145337.55, 0.0022093125, 10.00188, 9.99805 
1.8646184e+3, 1.224074e+2, -2036990.0, -1852059.8, 84522.37, 0.28031206, 0.23101471, -1819249.9, -78795.82, 0.1378835, 9.9976635, 10.000172 
1.8646628e+3, 1.3241404e+2, -1721371.3, -1406934.5, -148454.9, 0.2092717, 0.6491274, -1347920.4, 294466.47, 0.09301642, 9.99807, 10.002534 
1.8647063e+3, 1.4241403e+2, -1780006.1, -1526515.3, 3885.3855, -0.012671728, 0.47859934, -1526455.6, 17929.313, 0.050644647, 9.997689, 10.001052 
1.8647611e+3, 1.5241404e+2, -1724460.9, -1455701.9, 59966.496, 0.2844888, 0.37066862, -1442929.0, 3457.2566, 0.01991141, 9.997435, 10.0009775 
1.8648127e+3, 1.6241466e+2, -1589887.4, -1319130.1, -109371.15, 0.40159205, 0.35396567, -1280470.1, 67909.69, 0.0045744055, 9.997579, 10.001177 
1.8648565e+3, 1.7241679e+2, -1291441.4, -1080497.1, -125125.39, 0.12550911, 0.4096883, -1022321.06, 228033.48, 0.0003360051, 9.998787, 10.001545 
1.8649018e+3, 1.8241803e+2, -1202157.4, -1171730.4, -16688.111, -0.038138475, 0.46222198, -1164362.0, -12021.953, 0.00000050835786, 9.999507, 9.999913 
1.8649518e+3, 1.9241758e+2, -1181364.3, -1139095.4, 126.281815, 0.07527811, 0.44038215, -1139095.0, -84747.19, 0.0, 9.999112, 9.999647 
1.8650016e+3, 2.0241703e+2, -1107650.5, -1086226.0, -12542.3955, 0.13934372, 0.45640036, -1080443.9, -124088.195, 0.0, 9.99908, 9.999359 
1.865049e+3, 2.1241687e+2, -822974.9, -877898.8, -16388.01, 0.022755394, 0.47990695, -818456.75, 39901.363, 0.0, 10.000278, 9.999535 
1.8650973e+3, 2.2241634e+2, -703449.75, -833225.1, 22440.814, -0.02853946, 0.5167185, -699678.8, 60685.05, 0.0, 10.000695, 9.998977 
1.8651481e+3, 2.3241541e+2, -829539.9, -833454.4, 23430.402, 0.09264654, 0.51408577, -807985.1, -145611.61, 0.0, 9.999126, 9.99905 
1.8651973e+3, 2.4241403e+2, -851774.75, -882784.44, -57593.676, 0.14664154, 0.5244454, -807635.4, -243248.14, 0.0, 9.998662, 9.998266 
1.865242e+3, 2.5241178e+2, -383785.16, -603938.94, -81918.23, -0.02925968, 0.46130148, -356648.63, 109760.28, 0.0, 10.001204, 9.998277 
1.8652876e+3, 2.624094e+2, -59423.867, -324144.66, -49668.76, -0.12107135, 0.39379042, -50411.492, 318019.1, 0.000000065173005, 10.002448, 9.99893 
1.865336e+3, 2.7240768e+2, -255568.9, -322513.72, -68359.69, 0.03983492, 0.2800948, -212926.61, 57516.43, 0.000009431519, 10.000217, 9.999345 
1.8653841e+3, 2.824065e+2, -378786.03, -500647.78, 5612.963, 0.09852502, 0.30965313, -378528.03, -206076.05, 0.00011328213, 9.999426, 9.997831 
1.8654299e+3, 2.9240596e+2, 207542.94, -167461.1, 22896.432, -0.21773916, 0.47142094, 208935.75, 283395.28, 0.0004718481, 10.002792, 9.997813 
1.8654764e+3, 3.024023e+2, 446028.63, -84516.23, 5895.419, -0.3800228, 0.35620373, 446094.13, 446094.13, 0.0011571009, 10.004351, 9.997297 
1.8655285e+3, 3.1240094e+2, 26408.996, -221768.02, 83034.336, 0.084770136, 0.47881392, 51627.75, 51627.75, 0.0020726682, 10.001114, 9.997927 
1.874616e+3, 1.22363135e+2, -2064870.8, -1917302.6, 195292.89, 0.23643696, 0.5088518, -1782320.4, -41431.19, 0.14588223, 9.9977, 9.999705 
1.87466e+3, 1.3236718e+2, -1801179.5, -1583358.6, -152318.06, 0.10584379, 0.7890741, -1505019.8, 137827.08, 0.0986057, 9.99817, 10.001178 
1.8747051e+3, 1.4236125e+2, -1828887.1, -1659367.5, -13058.305, 0.07423928, 0.1500457, -1658367.5, -113464.65, 0.053927336, 9.997821, 10.000072 
1.8747576e+3, 1.5236321e+2, -1781658.4, -1583525.9, 58725.313, 0.1804963, 0.32661965, -1567428.0, -120540.125, 0.021407956, 9.99746, 10.0000925 
1.8748084e+3, 1.6236569e+2, -1548270.9, -1233179.5, -82658.13, 0.21044737, 0.5297137, -1212812.3, 136052.66, 0.0050250688, 9.997578, 10.001771 
1.8748546e+3, 1.7236821e+2, -1208089.0, -912161.4, -72163.89, 0.06424447, 0.5186, -895501.6, 355331.7, 0.00038988978, 9.998798, 10.002701 
1.8749014e+3, 1.8236932e+2, -1183729.9, -1142209.4, -25656.97, -0.03901521, 0.47778103, -1129965.6, 22852.055, 0.000000733184, 9.999546, 10.000099 
1.8749504e+3, 1.9236758e+2, -1199051.0, -1171237.8, -12466.056, -0.0010540233, 0.34588578, -1166468.4, -111632.46, 0.0, 9.999092, 9.999439 
1.8749994e+3, 2.0236629e+2, -1099242.9, -1067011.5, 8908.432, 0.0081728175, 0.29241905, -1064713.1, -107863.1, 0.0, 9.999063, 9.999505 
1.8750483e+3, 2.1236697e+2, -818451.9, -852318.94, 36062.97, -0.074102014, 0.38271347, -795544.7, 63299.79, 0.0, 10.000197, 9.999756 
1.8750975e+3, 2.2236721e+2, -721735.56, -841319.25, -17362.2, -0.081443205, 0.4837816, -719265.75, 41577.773, 0.0, 10.000561, 9.998987 
1.8751475e+3, 2.3236659e+2, -845167.0, -846387.06, -31183.47, 0.12862353, 0.5147111, -814587.56, -151736.08, 0.0, 9.999044, 9.998998 
1.8751968e+3, 2.4236532e+2, -844640.5, -846509.56, -3642.6934, 0.22789523, 0.52586854, -841814.4, -276949.38, 0.0, 9.9985695, 9.998563 
1.8752435e+3, 2.5236282e+2, -377691.53, -554796.1, 28290.693, 0.0048181033, 0.39966968, -373282.16, 93606.0, 0.0, 10.001054, 9.998686 
1.87529e+3, 2.6236066e+2, -97495.836, -366676.63, -96758.98, -0.14454517, 0.33778962, -66324.734, 302583.13, 0.00000004605578, 10.002276, 9.99873 
1.8753353e+3, 2.7236044e+2, -285449.6, -374771.97, -149080.42, -0.073357545, 0.40976644, -174484.33, 96424.67, 0.000008317367, 10.0001745, 9.999009 
1.8753825e+3, 2.8236008e+2, -337406.63, -419549.4, 68605.21, -0.023047663, 0.5180049, -298518.44, -125606.95, 0.00010640216, 9.999437, 9.99839 
1.875435e+3, 2.9235846e+2, 212835.14, -81355.49, 169942.28, -0.00589393, 0.4956001, 290500.6, 365425.8, 0.00044872746, 10.00248, 9.998555 
1.8754844e+3, 3.0235496e+2, 387245.75, -104787.695, -68927.49, -0.019081214, 0.35737175, 396719.2, 396719.2, 0.0011006381, 10.003906, 9.9973755 
1.8755269e+3, 3.1235203e+2, 49543.086, -118018.03, -45363.76, -0.21860328, 0.3114213, 61036.094, 61036.094, 0.0019602836, 10.00091, 9.998727 
1.8846136e+3, 1.223153e+2, -2103552.0, -1889097.1, 152566.19, 0.28371772, 0.57616174, -1809846.3, -68488.375, 0.15411249, 9.997226, 10.000127 
1.884657e+3, 1.3231829e+2, -1932130.9, -1733452.0, -225034.56, 0.034826536, 0.814482, -1586805.9, 56522.008, 0.10442951, 9.997666, 10.000338 
1.8847045e+3, 1.423113e+2, -1801839.4, -1642203.6, -26972.508, 0.23263966, 0.12339271, -1637769.4, -92374.15, 0.057399224, 9.997989, 10.000109 
1.8847547e+3, 1.523141e+2, -1643017.3, -1460421.9, 133660.56, 0.13433373, 0.3439706, -1389854.1, 57514.65, 0.023018045, 9.998187, 10.000585 
1.8848047e+3, 1.623171e+2, -1463867.8, -1222637.5, 71374.44, 0.06947745, 0.5742133, -1203101.5, 146237.38, 0.005521801, 9.998289, 10.001501 
1.884853e+3, 1.7231853e+2, -1312822.3, -1024220.3, -44620.906, 0.055509314, 0.5022196, -1017478.94, 233841.23, 0.0004532519, 9.9983425, 10.002157 
1.8849011e+3, 1.8231903e+2, -1329003.3, -1192697.5, -83172.66, 0.04423617, 0.42981935, -1153321.3, -9.567182, 0.0000010252129, 9.998458, 10.0002775 
1.8849497e+3, 1.923182e+2, -1166625.0, -1105587.8, -40587.08, 0.027284019, 0.34694526, -1085325.5, -30005.842, 0.0, 9.999092, 9.999887 
1.8849984e+3, 2.0231742e+2, -1062780.4, -1075695.0, 25310.072, 0.0024468373, 0.32430765, -1043116.9, -85788.89, 0.0, 9.999435, 9.999261 
1.885048e+3, 2.1231718e+2, -987872.5, -983301.25, -9857.25, -0.05699197, 0.3689785, -975468.06, -116135.64, 0.0, 9.999273, 9.9992895 
1.8850976e+3, 2.2231688e+2, -873569.1, -893353.44, -102235.125, -0.04598183, 0.4371871, -780748.7, -19411.045, 0.0, 9.999436, 9.999165 
1.8851471e+3, 2.3231661e+2, -588842.3, -678945.25, -101306.49, 0.121945575, 0.469222, -523021.6, 140319.92, 0.0, 10.000607, 9.999396 
1.8851963e+3, 2.4231592e+2, -428551.7, -593522.56, -8140.7686, 0.20190725, 0.49517202, -428150.94, 137198.11, 0.0, 10.001208, 9.999025 
1.8852443e+3, 2.5231433e+2, -457731.5, -546805.5, 19091.996, 0.03578508, 0.41725016, -453811.84, 13551.357, 0.0, 10.0002985, 9.999108 
1.8852918e+3, 2.6231268e+2, -428292.88, -575970.06, -112516.05, -0.06386999, 0.39728576, -367550.63, 1827.95, 0.000000017635879, 10.000226, 9.998275 
1.8853366e+3, 2.7231178e+2, 26467.967, -305514.3, -212545.86, -0.05766666, 0.47028306, 130159.61, 401548.97, 0.000007212163, 10.002684, 9.998266 
1.8853836e+3, 2.8231075e+2, 295923.53, -47050.926, -7607.9434, -0.062761106, 0.541004, 296092.2, 469491.1, 0.00009812263, 10.003527, 9.998965 
1.885436e+3, 2.9230937e+2, -50335.113, -106586.36, 76760.61, 0.0028599075, 0.44868818, 3290.3586, 78696.43, 0.0004217314, 10.000222, 9.9994755 
1.8854865e+3, 3.02307e+2, -251527.19, -377013.88, -67822.61, 0.06256323, 0.35580254, -221876.63, -221876.63, 0.0010395171, 9.999345, 9.997719 
1.8855298e+3, 3.123036e+2, 616593.5, 185982.05, -117436.85, -0.19390944, 0.24626231, 646538.6, 646538.6, 0.0018505019, 10.004666, 9.999018 
1.894611e+3, 1.2226335e+2, -1986162.0, -1674261.8, 82325.41, 0.26382524, 0.38151407, -1653865.9, 87999.39, 0.16258536, 9.997289, 10.001681 
1.8946533e+3, 1.3226701e+2, -1961037.1, -1786229.6, -205844.56, -0.09577893, 0.6959145, -1650001.1, -6167.2114, 0.110513955, 9.997625, 9.999972 
1.8947041e+3, 1.4226459e+2, -1713689.6, -1458475.1, -27240.1, 0.39229858, 0.43909475, -1455600.1, 90258.69, 0.06108175, 9.997968, 10.001417 
1.8947525e+3, 1.5226702e+2, -1508318.4, -1186508.1, 148924.19, 0.09426311, 0.43708026, -1128167.1, 319658.9, 0.024752133, 9.998192, 10.002506 
1.8948016e+3, 1.6226892e+2, -1530536.5, -1380529.6, 73805.33, -0.098306045, 0.4763855, -1350306.0, -504.88574, 0.0060684755, 9.998368, 10.000379 
1.8948512e+3, 1.7226763e+2, -1473728.8, -1362048.9, -38234.684, 0.046350807, 0.34860826, -1350213.1, -98397.375, 0.0005270964, 9.99835, 9.99984 
1.8949006e+3, 1.8226698e+2, -1312999.1, -1158752.8, -70462.73, 0.14565921, 0.29944095, -1131410.8, 22413.18, 0.0000013718216, 9.998463, 10.000504 
1.8949494e+3, 1.9226955e+2, -1092158.0, -940475.5, -10937.687, 0.09468713, 0.45275283, -939690.9, 116107.06, 0.0, 9.999052, 10.001036 
1.8949983e+3, 2.0227058e+2, -1108211.4, -1171811.9, 20161.621, 0.042853974, 0.56331164, -1102358.6, -144570.48, 0.0, 9.999429, 9.998611 
1.895048e+3, 2.1226746e+2, -1086687.1, -1176677.0, -11634.562, 0.018176485, 0.43780103, -1085207.3, -225384.9, 0.0, 9.99921, 9.997999 
1.8950976e+3, 2.22265e+2, -869658.3, -857306.0, -75414.555, 0.011833254, 0.36221945, -787815.1, -25966.191, 0.0, 9.999312, 9.999473 
1.8951467e+3, 2.3226549e+2, -546118.7, -557311.06, -46768.004, 0.010844891, 0.3867636, -504613.25, 159230.1, 0.0, 10.000468, 10.000295 
1.8951955e+3, 2.4226595e+2, -411829.06, -526837.0, -30303.44, -0.00043922386, 0.4523643, -404333.0, 161505.0, 0.0, 10.001059, 9.999561 
1.8952444e+3, 2.5226626e+2, -444509.88, -494431.38, -11164.187, 0.011386822, 0.5177864, -442126.9, 25707.664, 0.0, 10.000189, 9.999522 
1.8952931e+3, 2.6226532e+2, -491917.44, -686827.9, -57062.984, 0.043454535, 0.5701904, -476440.38, -106596.055, 0.0000000071100716, 10.000132, 9.997561 
1.89534e+3, 2.7226165e+2, -77701.2, -475914.47, -102762.54, 0.007027083, 0.4760455, -52746.258, 219137.38, 0.0000064261117, 10.002498, 9.99718 
1.8953866e+3, 2.8225884e+2, 307310.13, 12298.463, -86605.42, -0.11345922, 0.41531163, 330855.34, 504766.5, 0.00008727804, 10.003353, 9.999465 
1.895434e+3, 2.9225886e+2, 8496.851, 35565.746, -38744.973, -0.23577057, 0.35495844, 63072.18, 138973.2, 0.00038336485, 10.000128, 10.000503 
1.8954831e+3, 3.0225858e+2, -236633.55, -313159.25, 44196.0, -0.23014827, 0.386476, -216438.44, -216438.44, 0.0009605094, 9.999223, 9.998207 
1.8955362e+3, 3.1225556e+2, 451330.75, 16911.39, 93880.71, -0.03797577, 0.29939935, 470750.8, 470750.8, 0.0017295349, 10.003973, 9.998169 
1.9046083e+3, 1.22213826e+2, -1998375.4, -1619466.5, 97926.445, 0.29848537, 0.34897286, -1595654.5, 146693.28, 0.1713416, 9.9969015, 10.002331 
1.9046511e+3, 1.3221644e+2, -2037423.1, -1836405.3, -119348.2, -0.045207083, 0.5549682, -1780882.0, -136553.7, 0.11689223, 9.997175, 9.999837 
1.9047028e+3, 1.4221725e+2, -1737086.0, -1475307.4, 37374.332, 0.48329443, 0.6309341, -1470076.0, 76247.23, 0.06499328, 9.997827, 10.001367 
1.9047509e+3, 1.522181e+2, -1523795.0, -1193273.4, 53839.58, 0.13770327, 0.4684389, -1184724.4, 263579.66, 0.026617203, 9.998059, 10.002528 
1.9047995e+3, 1.6221859e+2, -1605902.5, -1446172.8, -86938.64, -0.09546213, 0.37679842, -1407983.8, -57691.773, 0.0066676727, 9.997978, 10.000114 
1.9048494e+3, 1.7221746e+2, -1570241.1, -1440603.8, -73442.25, 0.0700353, 0.29867372, -1407467.1, -155160.67, 0.0006122247, 9.997844, 9.999531 
1.9048992e+3, 1.8221709e+2, -1400357.5, -1225930.9, 16454.064, 0.19243978, 0.30323642, -1224392.4, -70078.945, 0.0000017786746, 9.997977, 10.000274 
1.9049487e+3, 1.922197e+2, -1096109.5, -968619.7, -19321.432, 0.12213094, 0.48510888, -965755.8, 90532.93, 0.0, 9.99914, 10.000803 
1.904998e+3, 2.022208e+2, -1019574.75, -1093547.1, -51580.742, 0.06208646, 0.6063652, -993090.06, -34811.016, 0.0, 9.999907, 9.998906 
1.9050476e+3, 2.1221767e+2, -986376.75, -1078113.6, 14628.171, 0.047609184, 0.43785134, -984100.7, -123790.266, 0.0, 9.999686, 9.998443 
1.9050972e+3, 2.222152e+2, -852199.2, -858081.4, 59260.043, 0.038130615, 0.33570164, -795807.3, -33471.98, 0.0, 9.999471, 9.9993925 
1.9051462e+3, 2.3221578e+2, -708031.25, -671960.1, 3343.6711, -0.008122316, 0.39168805, -671652.8, -7321.8906, 0.0, 9.999508, 9.999974 
1.9051953e+3, 2.4221629e+2, -602067.5, -602716.7, -50124.04, -0.036191978, 0.4795613, -552267.0, 14059.136, 0.0, 9.999705, 9.9996805 
1.9052444e+3, 2.522164e+2, -374547.9, -425467.2, -67479.99, -0.006043989, 0.5013441, -327884.47, 140438.6, 0.0, 10.00053, 9.99982 
1.9052936e+3, 2.6221544e+2, -306517.56, -568217.2, -36372.574, 0.04092253, 0.5168405, -301556.34, 68775.98, 0.000000016068412, 10.001286, 9.997812 
1.9053422e+3, 2.722124e+2, -155325.17, -498318.44, 893.0924, 0.016138507, 0.4655863, -155322.84, 117042.93, 0.000006012962, 10.001871, 9.997338 
1.9053896e+3, 2.8220975e+2, 82148.266, -189213.58, -27740.77, -0.06863294, 0.44220826, 84955.12, 259347.86, 0.000076659555, 10.00221, 9.9986315 
1.9054359e+3, 2.9220843e+2, 238423.23, 15027.545, -185761.03, -0.14998181, 0.36773312, 343482.34, 419881.63, 0.00034009607, 10.002287, 9.999313 
1.9054842e+3, 3.0220708e+2, 233221.84, -10230.482, -70695.48, -0.17638141, 0.3409766, 252261.84, 252261.84, 0.0008710436, 10.002125, 9.998895 
1.9055389e+3, 3.1220588e+2, 71809.32, -81888.15, 22797.295, 0.030346604, 0.31839952, 75119.46, 75119.46, 0.0016033415, 10.000958, 9.99896 
1.9146037e+3, 1.2216676e+2, -2031246.5, -1659009.9, -6406.349, 0.12663215, 0.4559047, -1658899.8, 83905.11, 0.18042894, 9.996825, 10.002013 
1.9146502e+3, 1.3216652e+2, -2039832.9, -1828502.6, -78217.11, 0.14043905, 0.36768964, -1802702.9, -157891.63, 0.12358676, 9.997133, 9.999904 
1.9147001e+3, 1.4216907e+2, -1830566.0, -1682074.8, 49510.754, 0.42419526, 0.6681493, -1667080.6, -120290.9, 0.069141634, 9.997898, 9.99988 
1.9147496e+3, 1.5216714e+2, -1670961.1, -1490965.6, 64360.36, 0.19809097, 0.4292924, -1470320.5, -21515.371, 0.028615344, 9.998049, 10.000445 
1.9147988e+3, 1.62166e+2, -1552407.5, -1343586.6, -101249.016, 0.0064319107, 0.28254145, -1302556.6, 48256.664, 0.0073205116, 9.9980135, 10.000801 
1.9148473e+3, 1.721681e+2, -1447951.0, -1186245.3, -74651.94, 0.06931242, 0.36660677, -1166448.3, 86343.24, 0.00070924795, 9.997839, 10.001279 
1.9148965e+3, 1.821695e+2, -1440001.8, -1318042.3, 42728.402, 0.11128509, 0.4575588, -1304562.3, -149783.56, 0.0000023137907, 9.9980135, 9.999629 
1.914947e+3, 1.921688e+2, -1215502.9, -1207235.4, 32192.45, 0.05069921, 0.4584528, -1178912.4, -122121.64, 0.0, 9.999098, 9.999188 
1.9149972e+3, 2.02168e+2, -946726.25, -937426.06, -51662.434, -0.009343614, 0.45489067, -890204.9, 68596.234, 0.0, 9.999876, 9.999996 
1.9150466e+3, 2.1216778e+2, -845765.0, -769421.5, 9584.295, -0.03033951, 0.37570092, -768236.7, 92560.48, 0.0, 9.999608, 10.000601 
1.9150959e+3, 2.2216752e+2, -899897.1, -928493.2, 53748.445, -0.034103945, 0.36993462, -858577.5, -95780.83, 0.0, 9.999344, 9.998974 
1.9151458e+3, 2.3216745e+2, -823394.0, -886948.75, 14705.926, 0.0040081106, 0.4928188, -820156.2, -155352.05, 0.0, 9.999407, 9.9985485 
1.9151956e+3, 2.4216679e+2, -639361.0, -658568.7, -30482.664, 0.005455681, 0.56773657, -617005.06, -50190.527, 0.0, 9.999606, 9.999347 
1.9152442e+3, 2.5216487e+2, -381423.84, -412673.03, -26251.36, -0.084408306, 0.37896517, -366499.1, 102329.04, 0.0, 10.00042, 9.999959 
1.9152932e+3, 2.621633e+2, -250257.05, -425847.38, -18721.434, -0.13357887, 0.28963342, -248283.16, 122556.52, 0.000000038925435, 10.001166, 9.998854 
1.915343e+3, 2.7216375e+2, -84129.62, -316082.44, 28876.795, -0.0983298, 0.45532107, -80588.67, 192249.13, 0.000005437274, 10.001726, 9.99866 
1.9153923e+3, 2.821631e+2, -81867.086, -500845.22, -32931.863, -0.04354653, 0.62213993, -79294.42, 95552.98, 0.00006527873, 10.002078, 9.996558 
1.915441e+3, 2.92158e+2, -11308.001, -478799.47, -162382.86, 0.1287587, 0.48798808, 39560.5, 116461.58, 0.00029241332, 10.002184, 9.995971 
1.9154888e+3, 3.0215296e+2, 281986.56, 103949.0, -102430.05, 0.06115421, 0.26879734, 328674.28, 328674.28, 0.00076916284, 10.002058, 9.999709 
1.9155365e+3, 3.121572e+2, 165539.22, 224247.69, 35051.8, -0.3345888, 0.5652253, 240613.25, 240613.25, 0.001457183, 10.000497, 10.001272 
1.9246002e+3, 1.22118e+2, -2021696.0, -1611439.4, -24701.256, 0.11842243, 0.46035382, -1609957.5, 133322.77, 0.18987963, 9.996628, 10.002536 
1.9246495e+3, 1.3211627e+2, -1987935.8, -1847356.1, -131703.0, 0.34761077, 0.25220278, -1768359.9, -123060.766, 0.13060497, 9.997668, 9.999522 
1.9246972e+3, 1.4211841e+2, -1835303.4, -1730566.3, -11728.069, 0.3474009, 0.5497627, -1729269.0, -181987.14, 0.07352615, 9.998077, 9.999455 
1.9247474e+3, 1.52117e+2, -1800570.1, -1598961.9, 94732.72, 0.22898807, 0.4075729, -1561433.9, -112138.164, 0.030745408, 9.997375, 10.000019 
1.9247971e+3, 1.6211624e+2, -1696265.9, -1401844.4, 28727.342, 0.11720372, 0.32216343, -1399067.5, -47764.82, 0.008026891, 9.996996, 10.000883 
1.9248454e+3, 1.721184e+2, -1389382.5, -1127246.0, -53670.63, 0.101676226, 0.38188916, -1116683.0, 136596.66, 0.0008187495, 9.998115, 10.001552 
1.9248946e+3, 1.8211976e+2, -1307599.9, -1254046.6, 21498.758, 0.101748206, 0.45312223, -1246484.0, -91217.734, 0.0000031359323, 9.99892, 9.999635 
1.9249462e+3, 1.9211894e+2, -1236201.0, -1225949.4, 110947.11, 0.07612181, 0.44847536, -1120009.8, -62730.336, 0.0, 9.998984, 9.999118 
1.924997e+3, 2.0211816e+2, -1053735.0, -974803.06, 80994.87, 0.025409704, 0.4442034, -924170.6, 35118.887, 0.0, 9.999086, 10.000118 
1.9250454e+3, 2.1211834e+2, -804777.75, -728717.06, -13938.372, -0.09929295, 0.3861909, -726243.25, 135038.52, 0.0, 9.999814, 10.000776 
1.9250946e+3, 2.2211832e+2, -732821.1, -843609.9, -40796.016, -0.14583893, 0.39149654, -719419.75, 43859.31, 0.0, 10.000483, 9.999005 
1.925146e+3, 2.3211797e+2, -596195.25, -779267.5, -1631.9036, 0.01172215, 0.4908275, -596180.7, 69108.37, 0.0, 10.000973, 9.998534 
1.9251968e+3, 2.4211709e+2, -414907.8, -566132.44, 37666.344, 0.103272825, 0.54933053, -406045.44, 161256.22, 0.0, 10.001217, 9.999204 
1.9252451e+3, 2.521154e+2, -307350.25, -404690.2, 12238.254, -0.043395553, 0.4055758, -305835.16, 163478.6, 0.0, 10.001032, 9.999727 
1.9252941e+3, 2.6211387e+2, -282007.06, -428669.06, -622.72534, -0.13861893, 0.32795003, -282004.44, 89321.016, 0.000000047147957, 10.000903, 9.99896 
1.925344e+3, 2.7211356e+2, -152648.33, -320369.97, -48550.992, -0.11615135, 0.3996198, -139607.98, 133721.66, 0.0000043683804, 10.001145, 9.998906 
1.9253941e+3, 2.8211266e+2, -119152.875, -521237.97, -72606.125, -0.038830932, 0.52884305, -106443.8, 68897.695, 0.000052619915, 10.001864, 9.996506 
1.9254445e+3, 2.9210925e+2, 224156.8, -393340.63, -15376.965, 0.18167692, 0.5838483, 224539.48, 301921.47, 0.00024219825, 10.003916, 9.995726 
1.9254923e+3, 3.0210435e+2, 554078.7, 212152.53, 49562.855, 0.12762462, 0.4003462, 561118.0, 561118.0, 0.00065834424, 10.004024, 9.999513 
1.9255371e+3, 3.121076e+2, -33881.332, 118789.91, -20061.508, -0.22090383, 0.6194449, 121382.05, 121382.05, 0.0012847214, 9.999121, 10.001236 
1.9345975e+3, 1.2206677e+2, -1908156.1, -1435488.9, 66610.85, 0.17083792, 0.2860967, -1426281.1, 317500.97, 0.1997211, 9.996686, 10.00404 
1.9346488e+3, 1.3206598e+2, -2055133.0, -1981473.1, -94940.305, 0.4920599, 0.23809943, -1916469.4, -270679.56, 0.13795441, 9.997646, 9.998614 
1.9346933e+3, 1.4206526e+2, -1776207.6, -1616357.4, -28210.525, 0.1412594, 0.2781443, -1611524.9, -63725.344, 0.07814733, 9.998111, 10.000223 
1.9347441e+3, 1.5206788e+2, -1705224.6, -1406620.3, 73454.65, 0.15571101, 0.4103794, -1389529.1, 60244.742, 0.033007, 9.997382, 10.001352 
1.9347945e+3, 1.620696e+2, -1730220.8, -1476043.4, 48163.82, 0.15281436, 0.5051589, -1467222.9, -115465.805, 0.008786739, 9.997009, 10.00037 
1.9348438e+3, 1.7206833e+2, -1482351.4, -1320703.5, -2079.4126, 0.11303034, 0.34587932, -1320676.9, -66906.33, 0.00094156526, 9.998111, 10.00023 
1.9348936e+3, 1.8206772e+2, -1252336.8, -1148810.9, 28978.408, 0.09235195, 0.27995217, -1141251.4, 14526.173, 0.0000044945964, 9.99896, 10.000337 
1.9349457e+3, 1.9207016e+2, -1133324.0, -1005347.75, 118164.2, 0.13813895, 0.45852852, -934958.56, 122795.76, 0.0, 9.998954, 10.000646 
1.9349967e+3, 2.0207141e+2, -1114957.6, -1099442.8, 95006.45, 0.09130908, 0.58851683, -1011877.56, -52134.63, 0.0, 9.999066, 9.999278 
1.935044e+3, 2.1206926e+2, -946594.2, -1003762.3, 21074.264, -0.21572681, 0.46770775, -939665.25, -77900.45, 0.0, 9.999723, 9.998937 
1.9350928e+3, 2.2206734e+2, -728641.4, -797975.56, -24762.51, -0.3722962, 0.3900591, -720705.75, 43078.69, 0.0, 10.000327, 9.99939 
1.9351463e+3, 2.3206724e+2, -525576.75, -597436.44, 22765.953, -0.0520371, 0.39654562, -518971.4, 146814.98, 0.0, 10.000829, 9.999846 
1.9351988e+3, 2.4206728e+2, -429413.22, -571094.5, 28189.988, 0.1715566, 0.4595807, -424010.34, 143776.45, 0.0, 10.001101, 9.999231 
1.935247e+3, 2.5206777e+2, -357294.44, -482987.56, 9932.762, 0.04466298, 0.57545245, -356514.34, 113267.81, 0.0, 10.000928, 9.999239 
1.9352956e+3, 2.6206675e+2, -353415.47, -550171.6, -5095.347, -0.06734736, 0.61156577, -353283.6, 18508.53, 0.00000001782158, 10.000791, 9.9981785 
1.9353451e+3, 2.7206197e+2, -231896.19, -449311.16, -28340.771, -0.112514086, 0.317606, -228262.61, 45576.473, 0.0000032439186, 10.001011, 9.998076 
1.9353952e+3, 2.82059e+2, -27563.527, -309332.97, -23422.98, -0.13013636, 0.2387295, -25629.691, 150239.3, 0.000042492127, 10.001749, 9.998027 
1.9354461e+3, 2.9206166e+2, 356776.1, -54169.367, 72766.43, -0.049293015, 0.6617874, 369280.4, 447128.13, 0.00020128557, 10.003644, 9.998185 
1.9354947e+3, 3.0206046e+2, 417785.66, 9478.458, -85622.836, -0.050772294, 0.74191, 435014.0, 435014.0, 0.0005611698, 10.003678, 9.998286 
1.9355388e+3, 3.1205553e+2, -179850.9, -144067.13, -128573.6, 0.017060617, 0.36618862, -32146.49, -32146.49, 0.0011167474, 9.998991, 9.999473 
1.9445957e+3, 1.2201569e+2, -1903341.9, -1464570.3, 56666.74, 0.33231238, 0.29707175, -1457369.9, 286919.34, 0.20999403, 9.996862, 10.003732 
1.9446461e+3, 1.3201718e+2, -2023893.5, -1924853.0, -141001.05, 0.4892175, 0.45141903, -1824929.1, -178655.73, 0.14565058, 9.997669, 9.998993 
1.9446908e+3, 1.4201434e+2, -1759053.8, -1566210.1, -34607.137, 0.09349394, 0.24116778, -1560187.6, -11885.766, 0.083007626, 9.998028, 10.000618 
1.9447415e+3, 1.5201789e+2, -1590731.0, -1308158.0, -30174.19, 0.14253286, 0.42500022, -1304971.9, 145294.48, 0.03539992, 9.997961, 10.001775 
1.944792e+3, 1.6202034e+2, -1636594.5, -1457812.3, -53690.742, 0.18088071, 0.5741857, -1442927.5, -90685.18, 0.009600047, 9.997755, 10.000141 
1.9448417e+3, 1.7201853e+2, -1559601.4, -1409488.9, -42476.15, 0.14095752, 0.40598854, -1398303.3, -144041.27, 0.0010784023, 9.9978, 9.999766 
1.9448923e+3, 1.8201748e+2, -1390247.9, -1203745.1, 18169.156, 0.13011913, 0.3230217, -1201991.5, -45717.9, 0.0000066792873, 9.997971, 10.000429 
1.9449449e+3, 1.9201991e+2, -1125999.8, -962985.56, 8673.576, 0.17565693, 0.47170842, -962525.4, 95723.32, 0.0, 9.998853, 10.000977 
1.9449963e+3, 2.020212e+2, -1070853.4, -1081442.9, -50424.11, 0.14284906, 0.5869005, -1025446.8, -65210.984, 0.0, 9.999393, 9.999237 
1.945044e+3, 2.12019e+2, -1059707.5, -1081719.4, -26989.023, -0.1428878, 0.48184755, -1041566.56, -179306.69, 0.0, 9.999046, 9.998725 
1.945093e+3, 2.2201712e+2, -898262.0, -840804.5, 38135.656, -0.295037, 0.40968505, -821787.4, -57507.543, 0.0, 9.998986, 9.9997425 
1.9451466e+3, 2.3201732e+2, -591620.9, -563420.2, 39755.965, -0.042967066, 0.38933042, -535338.1, 130938.41, 0.0, 10.000085, 10.000443 
1.9451994e+3, 2.4201764e+2, -456704.53, -596600.2, 418.94156, 0.14334024, 0.44690067, -456703.28, 111569.78, 0.0, 10.000977, 9.999117 
1.9452481e+3, 2.5201818e+2, -339471.0, -528130.7, -42803.383, 0.054500952, 0.60874116, -330213.94, 140057.2, 0.0, 10.001271, 9.998771 
1.9452971e+3, 2.6201713e+2, -258776.92, -516568.3, -21252.219, -0.013034765, 0.67656624, -257036.66, 115246.984, 0.000000002142629, 10.00149, 9.998072 
1.945347e+3, 2.720123e+2, -115064.33, -398154.66, 967.4099, -0.04896929, 0.37837812, -115061.02, 159269.14, 0.0000029419668, 10.001802, 9.998064 
1.9453968e+3, 2.8200933e+2, 32732.734, -179724.95, 51147.957, -0.10259101, 0.26726964, 44405.04, 220763.92, 0.000037529444, 10.001728, 9.998929 
1.9454473e+3, 2.9201296e+2, 21005.426, -69496.45, 43140.953, -0.13040383, 0.6721841, 38274.797, 116599.984, 0.00017698373, 10.000697, 9.999499 
1.945497e+3, 3.020129e+2, -66733.33, -296611.25, -159359.3, -0.013898571, 0.80497724, 14812.696, 14812.696, 0.00049046375, 10.000669, 9.997619 
1.9455412e+3, 3.1200555e+2, 406572.25, -14580.165, -166262.27, 0.143401, 0.33375147, 464297.16, 464297.16, 0.00097077974, 10.003637, 9.998136 
1.9545946e+3, 1.219654e+2, -2066023.0, -1758734.1, 127600.9, 0.5023433, 0.57630986, -1712657.3, 32139.395, 0.22070916, 9.996947, 10.001217 
1.9546415e+3, 1.3196996e+2, -1888092.1, -1660472.8, -116968.17, 0.2500796, 0.914149, -1611082.5, 35667.54, 0.15369554, 9.997714, 10.000829 
1.9546893e+3, 1.4196587e+2, -1745539.1, -1552248.6, -37766.516, 0.13082813, 0.4590376, -1545131.6, 3655.884, 0.08810495, 9.998086, 10.000688 
1.9547394e+3, 1.519669e+2, -1632703.1, -1399245.8, -30800.512, 0.1264473, 0.45015198, -1395250.5, 55524.563, 0.037922986, 9.997986, 10.00112 
1.9547893e+3, 1.6196819e+2, -1617557.1, -1436288.3, -62874.402, 0.11018687, 0.520637, -1416615.0, -63853.926, 0.010466628, 9.997829, 10.000254 
1.9548395e+3, 1.719689e+2, -1527959.0, -1351784.9, -38690.773, 0.12481215, 0.5669802, -1343662.3, -88907.35, 0.0012294218, 9.997825, 10.000153 
1.9548903e+3, 1.8196902e+2, -1420020.5, -1275215.1, 36801.754, 0.13792321, 0.5930478, -1266398.9, -109644.33, 0.000009908067, 9.998013, 9.999917 
1.9549432e+3, 1.9196813e+2, -1190251.5, -1095408.8, 48340.04, 0.13391592, 0.49485588, -1075113.5, -16350.63, 0.0, 9.998843, 10.000077 
1.9549954e+3, 2.0196731e+2, -1032803.2, -986030.8, -57470.824, 0.10815887, 0.43514845, -947370.1, 13400.15, 0.0, 9.999325, 9.999924 
1.9550449e+3, 2.1196744e+2, -976632.7, -883781.7, -35905.023, 0.0516071, 0.4324786, -871517.4, -8749.13, 0.0, 9.998941, 10.000132 
1.955095e+3, 2.2196756e+2, -887524.9, -791588.2, 60041.73, 0.0024241768, 0.45352274, -762706.25, 2060.0005, 0.0, 9.998866, 10.00014 
1.9551468e+3, 2.3196813e+2, -613917.3, -577865.4, 90374.25, -0.024177006, 0.46950954, -503736.9, 163023.0, 0.0, 9.999959, 10.000401 
1.9551982e+3, 2.4196813e+2, -502739.56, -658744.5, 14455.585, -0.058256198, 0.508021, -501411.4, 67349.55, 0.0, 10.000831, 9.99876 
1.9552481e+3, 2.5196677e+2, -392267.03, -604416.1, -24844.783, -0.06964161, 0.5280955, -389396.3, 81382.62, 0.0, 10.00114, 9.998302 
1.9552985e+3, 2.6196542e+2, -247043.97, -466705.78, -16369.525, -0.040567126, 0.5795142, -245830.78, 126964.85, 0.00000003752054, 10.001368, 9.998479 
1.9553493e+3, 2.7196422e+2, -80539.164, -291140.75, 23135.586, -0.0034844899, 0.571738, -78027.56, 196778.23, 0.0000033154865, 10.001654, 9.998869 
1.955399e+3, 2.8196308e+2, 16093.96, -164978.7, 14125.204, -0.06519478, 0.58342624, 17189.22, 194004.92, 0.00003554113, 10.001514, 9.999135 
1.9554478e+3, 2.9196346e+2, 15228.236, -46573.32, 12076.585, -0.15675479, 0.6536328, 17504.287, 96315.89, 0.00016173386, 10.000559, 9.999719 
1.955499e+3, 3.0196244e+2, -107004.664, -354458.75, -105966.08, 0.1085461, 0.6783945, -67829.31, -67829.31, 0.0004325806, 10.000541, 9.9972925 
1.9555454e+3, 3.1195658e+2, 273879.9, -199490.02, -45253.754, 0.17227902, 0.41937584, 278167.3, 278167.3, 0.00082952436, 10.003283, 9.99702 
1.9645923e+3, 1.21914454e+2, -2113448.3, -1976233.5, 261713.72, 0.5865947, 0.6135583, -1774284.0, -28983.94, 0.23177752, 9.997512, 9.999388 
1.9646376e+3, 1.3192141e+2, -1773703.4, -1469409.3, 19460.535, 0.112370394, 1.095388, -1468169.8, 179059.61, 0.1620495, 9.9978075, 10.002284 
1.964689e+3, 1.41916e+2, -1743207.8, -1577852.1, 66881.87, 0.31250584, 0.42041713, -1554187.1, -4908.8906, 0.093428105, 9.998243, 10.000421 
1.9647379e+3, 1.519166e+2, -1623956.1, -1501690.1, 31438.152, 0.17934796, 0.4518713, -1494080.1, -42807.55, 0.04057487, 9.998534, 10.000123 
1.964787e+3, 1.6191764e+2, -1467967.6, -1361410.5, -3726.8325, 0.07029396, 0.56327266, -1361280.4, -8018.2275, 0.011385711, 9.998851, 10.000275 
1.9648379e+3, 1.7191885e+2, -1268596.9, -1170237.3, 16162.814, 0.12369607, 0.61584884, -1167649.5, 87599.14, 0.0013940044, 9.999373, 10.000652 
1.9648892e+3, 1.8191919e+2, -1233183.4, -1214025.3, 102807.06, 0.16831666, 0.638244, -1120352.0, 36892.473, 0.000014255441, 9.999416, 9.999666 
1.9649415e+3, 1.9191761e+2, -1311061.5, -1219697.4, 121873.555, 0.11544543, 0.5259354, -1135225.6, -75964.55, 0.0, 9.998304, 9.999481 
1.9649935e+3, 2.0191643e+2, -1240912.9, -1060180.5, 52464.383, 0.08041873, 0.4563953, -1046054.75, -84781.18, 0.0, 9.997764, 10.000177 
1.9650446e+3, 2.1191706e+2, -884212.56, -769086.94, 16348.903, 0.12544733, 0.4455101, -766810.25, 96455.14, 0.0, 9.999256, 10.000776 
1.965096e+3, 2.2191773e+2, -663407.1, -682863.6, 71707.555, 0.14528756, 0.47891074, -600770.94, 164486.3, 0.0, 10.000404, 10.000149 
1.9651474e+3, 2.3191844e+2, -573880.5, -597345.06, 68218.01, 0.017658686, 0.537198, -516393.25, 150857.23, 0.0, 10.000378, 10.000076 
1.9651982e+3, 2.4191836e+2, -559499.2, -672856.5, 950.32794, -0.09857335, 0.58569425, -559491.25, 9761.489, 0.0, 10.000377, 9.998882 
1.9652481e+3, 2.5191665e+2, -427912.72, -593135.44, -6458.3247, -0.13877651, 0.5426471, -427660.66, 43613.11, 0.0, 10.000767, 9.998562 
1.965299e+3, 2.6191515e+2, -268789.1, -432729.6, 41407.246, -0.09319917, 0.5538952, -258924.27, 114366.336, 0.00000006167767, 10.001037, 9.998869 
1.9653507e+3, 2.7191502e+2, -174069.02, -286966.06, 35117.383, 0.035593126, 0.60633343, -164036.97, 111251.805, 0.000003603985, 10.000808, 9.9993 
1.9654009e+3, 2.8191423e+2, -156479.06, -276364.22, 8865.964, 0.034251563, 0.6387385, -155826.94, 21466.914, 0.00003406456, 10.000462, 9.998872 
1.9654487e+3, 2.9191294e+2, 2527.7844, -123047.09, -55061.184, -0.099302694, 0.5982091, 23250.803, 102559.14, 0.0001486936, 10.000767, 9.999104 
1.9655009e+3, 3.0191115e+2, 134827.67, -190262.5, -95430.13, 0.17499523, 0.5715224, 160770.81, 160770.81, 0.00038063264, 10.002002, 9.997722 
1.9655466e+3, 3.1190854e+2, 336303.9, -137522.78, -69248.66, -0.020981133, 0.58256537, 346217.03, 346217.03, 0.0006981545, 10.003542, 9.997345 
1.9745885e+3, 1.2186242e+2, -2153988.5, -2095696.8, 88665.47, 0.40690416, 0.3171938, -2031509.6, -285707.94, 0.24301729, 9.997664, 9.998496 
1.9746347e+3, 1.318714e+2, -1706425.8, -1358490.5, 51156.19, 0.023646297, 0.94191974, -1351125.1, 296586.22, 0.17062773, 9.997823, 10.003221 
1.97469e+3, 1.4186469e+2, -1779134.4, -1666763.3, 76378.21, 0.56586266, 0.09689573, -1628130.9, -78357.76, 0.09895461, 9.998298, 9.999788 
1.9747373e+3, 1.5186696e+2, -1716537.1, -1708691.4, 50860.332, 0.2486126, 0.42509478, -1661602.9, -209844.88, 0.04335473, 9.998589, 9.998684 
1.9747852e+3, 1.6186883e+2, -1456698.6, -1356860.8, 8949.056, -0.01268205, 0.7120391, -1356064.9, -2320.4348, 0.012356995, 9.998934, 10.000265 
1.9748369e+3, 1.7186835e+2, -1216576.9, -1071874.0, 42720.105, 0.08320711, 0.5463433, -1060203.1, 195540.05, 0.0015709848, 9.999415, 10.001309 
1.9748884e+3, 1.8186784e+2, -1226408.5, -1210078.5, 72811.99, 0.1495073, 0.4427141, -1144975.1, 12769.155, 0.000019593592, 9.999459, 9.999673 
1.9749393e+3, 1.9186829e+2, -1336290.8, -1265904.1, 84201.35, 0.050226778, 0.556459, -1209837.1, -150092.72, 0.0, 9.998278, 9.999177 
1.9749902e+3, 2.0186843e+2, -1264537.4, -1091760.9, 77237.586, -0.02485742, 0.64703083, -1062267.4, -100520.87, 0.0, 9.997693, 9.999993 
1.9750428e+3, 2.1186793e+2, -908307.56, -796446.4, 83221.74, 0.024762686, 0.5399007, -752106.94, 111643.625, 0.0, 9.999158, 10.000637 
1.9750954e+3, 2.218676e+2, -715056.44, -758475.2, 80080.375, 0.06119421, 0.49629807, -653795.0, 111958.336, 0.0, 10.000265, 9.999696 
1.9751477e+3, 2.3186827e+2, -632187.25, -690232.5, 71479.01, 0.02508117, 0.60218424, -584063.5, 83684.36, 0.0, 10.0002575, 9.999495 
1.9751991e+3, 2.4186845e+2, -550594.7, -621456.4, 6067.7363, -0.056192037, 0.70203453, -550078.9, 19668.336, 0.0, 10.000226, 9.999311 
1.9752482e+3, 2.5186753e+2, -379623.78, -464383.44, 15918.043, -0.21469511, 0.6526776, -376732.94, 95024.83, 0.0, 10.000644, 9.999505 
1.9752984e+3, 2.6186612e+2, -271434.4, -399642.25, 30443.34, -0.25187176, 0.597751, -264572.75, 109198.36, 0.000000055759365, 10.000872, 9.999173 
1.9753511e+3, 2.7186477e+2, -183864.55, -279192.7, 29073.83, 0.0025165952, 0.5163569, -175697.17, 100080.89, 0.0000036492006, 10.0007, 9.999395 
1.9754021e+3, 2.8186345e+2, -221314.39, -399595.9, -7507.457, 0.110026695, 0.5136289, -220998.81, -43211.28, 0.00003270161, 10.0004015, 9.998061 
1.9754502e+3, 2.9186147e+2, -92896.63, -299718.6, -23420.918, -0.04353182, 0.5217221, -90277.57, -10463.692, 0.00013867494, 10.000675, 9.997933 
1.9755018e+3, 3.0185908e+2, 138493.95, -113060.94, -40647.85, 0.072182134, 0.48724023, 144899.02, 144899.02, 0.0003432849, 10.001715, 9.998389 
1.9755477e+3, 3.118613e+2, 395959.38, 79583.055, -96003.375, -0.2858773, 0.82994455, 422812.13, 422812.13, 0.0006047232, 10.003188, 9.998985 
1.9845852e+3, 1.2181257e+2, -2221584.0, -2088473.0, 16368.39, 0.3559979, 0.24272192, -2086489.8, -340200.3, 0.25424254, 9.997039, 9.99885 
1.9846328e+3, 1.3182202e+2, -1635823.5, -1362171.3, 15427.09, 0.02259878, 0.94383454, -1361304.3, 286890.66, 0.17932345, 9.9984865, 10.002886 
1.984688e+3, 1.4181504e+2, -1679006.8, -1652014.6, -46162.906, 0.5322295, 0.10305563, -1617415.4, -67155.17, 0.104643695, 9.999125, 9.999497 
1.9847359e+3, 1.518174e+2, -1773302.9, -1768415.0, -20765.71, 0.27818397, 0.47217664, -1749950.0, -297704.4, 0.046255346, 9.998346, 9.998387 
1.9847842e+3, 1.6181906e+2, -1654253.4, -1489934.6, 22928.895, 0.06831397, 0.76942444, -1486795.1, -132560.08, 0.013380272, 9.997748, 9.999916 
1.9848356e+3, 1.718178e+2, -1389365.5, -1195579.4, -12423.618, 0.08188232, 0.56162894, -1194786.1, 61456.01, 0.0017591557, 9.9984045, 10.000945 
1.984887e+3, 1.8181694e+2, -1280317.8, -1200355.5, -46485.06, 0.09301278, 0.4360678, -1179023.0, -20776.252, 0.0000256483, 9.998926, 9.999997 
1.9849375e+3, 1.9181815e+2, -1175226.6, -1118565.6, 4067.8354, 0.029848143, 0.5659667, -1118275.1, -58037.465, 0.0, 9.999067, 9.999811 
1.9849886e+3, 2.0181885e+2, -1076048.9, -1048625.4, 93250.836, -0.013012472, 0.68662494, -968083.56, -5849.728, 0.0, 9.999196, 9.999561 
1.9850418e+3, 2.1181819e+2, -902963.9, -899091.44, 52576.23, -0.00015480936, 0.6472231, -848415.75, 15828.057, 0.0, 9.999657, 9.999686 
1.985095e+3, 2.2181752e+2, -771294.0, -783613.44, -2676.0217, 0.01865904, 0.6337318, -770737.9, -4485.256, 0.0, 9.999871, 9.99971 
1.9851473e+3, 2.3181754e+2, -742265.6, -686766.9, 28037.398, 0.030558983, 0.63779265, -675068.5, -6818.4473, 0.0, 9.999269, 9.999985 
1.9851992e+3, 2.418175e+2, -731214.94, -678435.8, 45780.145, 0.008842302, 0.6716653, -651983.8, -81735.03, 0.0, 9.998879, 9.9995575 
1.9852488e+3, 2.5181726e+2, -531707.7, -526961.0, 3136.5327, -0.14278461, 0.6787126, -525401.06, -53148.91, 0.0, 9.999562, 9.999595 
1.9852993e+3, 2.6181617e+2, -341600.0, -436080.2, -20759.398, -0.20691821, 0.6517179, -337239.9, 37022.016, 0.00000004684117, 10.0004, 9.99915 
1.9853517e+3, 2.7181384e+2, -99923.586, -261072.66, -61204.52, -0.025441287, 0.48871502, -79313.88, 196964.52, 0.000003631824, 10.001354, 9.999213 
1.985403e+3, 2.8181186e+2, -3431.658, -308436.56, -89312.914, 0.085482776, 0.43859178, 20796.746, 199091.47, 0.000030883682, 10.001966, 9.997929 
1.985451e+3, 2.9181057e+2, 41359.453, -254963.39, -61624.883, -0.051619474, 0.53476566, 53664.332, 133979.7, 0.00012816787, 10.001694, 9.997746 
1.9855016e+3, 3.0180913e+2, 194106.33, -13779.5205, 25267.814, -0.112218365, 0.583052, 197133.47, 197133.47, 0.00031301894, 10.001763, 9.999049 
1.9855517e+3, 3.1181005e+2, 422588.6, 228393.1, -164422.9, -0.15598366, 0.70504934, 516443.34, 516443.34, 0.0005439667, 10.002761, 10.000218 
1.9945814e+3, 1.2176563e+2, -2074846.8, -1794424.6, 6654.933, 0.24281988, 0.4609303, -1794266.9, -47508.973, 0.26535824, 9.997076, 10.000846 
1.9946316e+3, 1.3177338e+2, -1756367.8, -1586894.9, 63372.22, 0.057069354, 1.1220319, -1565818.8, 82861.83, 0.18805622, 9.99855, 10.001006 
1.9946831e+3, 1.4176711e+2, -1654579.5, -1628910.5, -67424.16, 0.09383243, 0.4706467, -1573110.3, -22370.236, 0.11045076, 9.999243, 9.999599 
1.9947334e+3, 1.5176782e+2, -1703324.3, -1627774.0, -53260.223, 0.1901199, 0.59723693, -1600252.8, -147516.63, 0.04926506, 9.9983635, 9.999346 
1.9947839e+3, 1.6176815e+2, -1698482.6, -1583245.1, 23345.016, 0.24842809, 0.7185658, -1578695.5, -223959.63, 0.014456319, 9.997753, 9.999275 
1.9948338e+3, 1.717671e+2, -1491385.3, -1407111.0, 18019.11, 0.07029739, 0.66182077, -1403419.9, -146673.3, 0.0019582892, 9.998398, 9.999497 
1.9948843e+3, 1.8176636e+2, -1233242.1, -1106785.1, -40572.0, -0.07083291, 0.6220006, -1094887.5, 63865.855, 0.000032105352, 9.998948, 10.0006275 
1.9949363e+3, 1.9176708e+2, -1064107.3, -880266.5, 12200.637, 0.00088299334, 0.5584113, -879460.4, 181281.95, 0.0, 9.999043, 10.001455 
1.9949885e+3, 2.0176756e+2, -1129283.0, -1146347.8, 99305.31, 0.05220704, 0.5694619, -1038144.2, -75407.52, 0.0, 9.999139, 9.998919 
1.9950414e+3, 2.1176769e+2, -1038135.1, -1159061.8, 77620.17, -0.007559206, 0.7641115, -1000207.9, -135461.64, 0.0, 9.999567, 9.997946 
1.995094e+3, 2.2176743e+2, -759244.56, -731551.44, -13466.26, -0.059779316, 0.8918941, -726083.06, 40672.41, 0.0, 9.999748, 10.000128 
1.9951461e+3, 2.3176634e+2, -651118.6, -479221.16, 13404.126, -0.022398945, 0.6538042, -478182.22, 190574.6, 0.0, 9.999181, 10.001454 
1.9951981e+3, 2.4176541e+2, -752792.56, -691279.06, 48817.258, 0.013084685, 0.49966908, -664337.44, -93578.76, 0.0, 9.998742, 9.9995365 
1.9952497e+3, 2.5176582e+2, -591198.5, -633228.9, 37050.973, 0.0033073195, 0.6323348, -569617.75, -96860.945, 0.0, 9.999491, 9.998897 
1.9953012e+3, 2.6176542e+2, -388655.25, -510465.66, 8346.057, -0.046980213, 0.7317054, -388086.06, -13324.187, 0.000000042002604, 10.0003, 9.998688 
1.9953524e+3, 2.7176225e+2, -148684.92, -325458.78, -14116.548, -0.11292025, 0.5227688, -147564.72, 129224.34, 0.0000035134383, 10.001206, 9.9988365 
1.995403e+3, 2.817594e+2, -17652.303, -287760.44, -95131.13, -0.11987781, 0.40292612, 12489.071, 191304.23, 0.00002820436, 10.00175, 9.998175 
1.9954515e+3, 2.917599e+2, 66158.34, -178154.42, -62494.574, -0.18697469, 0.615088, 81216.22, 162032.36, 0.00011358975, 10.001581, 9.998326 
1.9954997e+3, 3.0176112e+2, 188168.77, 28351.56, 35223.652, -0.4746545, 0.87412953, 195587.66, 195587.66, 0.00027750974, 10.001539, 9.999442 
1.995557e+3, 3.1175575e+2, 429022.88, 315383.97, -93285.85, 0.06829909, 0.31377012, 481431.2, 481431.2, 0.00048846455, 10.002462, 10.000947 
2.0045772e+3, 1.2171613e+2, -1899461.6, -1662586.5, 13227.57, 0.102137424, 0.54721814, -1661850.1, 85395.48, 0.27641812, 9.99792, 10.001566 
2.0046312e+3, 1.3172196e+2, -1930066.0, -1765400.6, 11932.475, 0.21998724, 1.0938272, -1764540.4, -115351.945, 0.1968332, 9.997817, 10.00001 
2.0046796e+3, 1.4171661e+2, -1952407.3, -1757254.6, -64088.242, -0.068530194, 0.5902338, -1738090.0, -186849.64, 0.11636926, 9.997141, 9.999724 
2.0047311e+3, 1.5171698e+2, -1605561.4, -1524663.3, -80105.33, 0.117560335, 0.63578975, -1475373.9, -22136.074, 0.05238356, 9.998788, 9.999852 
2.0047826e+3, 1.6171703e+2, -1391094.3, -1440959.4, -15997.521, 0.2714971, 0.69947565, -1386403.3, -31164.518, 0.015589432, 9.999886, 9.9992285 
2.0048325e+3, 1.7171636e+2, -1449278.4, -1423394.1, 38087.797, 0.084142, 0.70776004, -1396109.6, -138861.63, 0.0021699998, 9.998849, 9.999167 
2.0048828e+3, 1.8171583e+2, -1376536.3, -1184532.1, 47432.445, -0.04744029, 0.7143753, -1173453.8, -14199.352, 0.00003871999, 9.99801, 10.000544 
2.0049357e+3, 1.9171633e+2, -1095700.6, -894846.0, -11580.548, 0.06782348, 0.62771964, -894180.56, 167064.7, 0.0, 9.998829, 10.001454 
2.0049885e+3, 2.017167e+2, -1077585.4, -1087505.1, 9830.157, 0.14739335, 0.61678135, -1071534.8, -108294.6, 0.0, 9.999353, 9.999219 
2.0050406e+3, 2.1171704e+2, -1117083.4, -1146130.3, 118140.36, 0.026299983, 0.7920399, -1012577.06, -147331.83, 0.0, 9.998805, 9.998404 
2.0050928e+3, 2.2171694e+2, -969334.5, -848181.8, 130735.06, -0.075648695, 0.9086768, -764670.9, 2580.473, 0.0, 9.998386, 9.999982 
2.0051445e+3, 2.317157e+2, -718394.2, -561828.5, 18202.19, -0.07143773, 0.69761837, -559740.2, 109515.43, 0.0, 9.998955, 10.000993 
2.005197e+3, 2.4171443e+2, -613866.6, -647395.2, -8258.348, -0.015689768, 0.5493427, -611942.94, -40681.08, 0.0, 9.999766, 9.999358 
2.0052508e+3, 2.5171405e+2, -395275.47, -545371.6, 18580.0, 0.09365184, 0.6137106, -393009.7, 80257.34, 0.0, 10.000842, 9.9988575 
2.0053034e+3, 2.6171356e+2, -229220.05, -427111.72, 20185.902, 0.08816425, 0.70169693, -227181.97, 148091.16, 0.000000029896977, 10.00138, 9.998729 
2.0053525e+3, 2.7171186e+2, -230578.36, -367696.72, -1079.4811, -0.15471894, 0.63831854, -230569.86, 46718.457, 0.0000031274246, 10.000658, 9.998807 
2.005403e+3, 2.817097e+2, -176510.73, -367965.47, -35012.254, -0.1993926, 0.5887758, -170308.78, 9000.351, 0.000025154262, 10.000671, 9.998146 
2.0054549e+3, 2.917087e+2, 129325.16, -161859.16, -74693.77, -0.014638906, 0.6622108, 147367.45, 228690.06, 0.00009776422, 10.002082, 9.998197 
2.0055033e+3, 3.017091e+2, 275084.28, -935.23224, -33641.336, -0.30372688, 0.8746595, 279125.34, 279125.34, 0.00024032156, 10.002435, 9.998817 
2.0055592e+3, 3.1170312e+2, 290625.72, 150063.48, -193202.22, 0.08812301, 0.34798595, 425932.84, 425932.84, 0.00043283863, 10.001909, 10.000098 
2.0145726e+3, 1.2166341e+2, -1961084.6, -1777560.3, 168637.8, -0.18058121, 0.44784853, -1677335.5, 70422.664, 0.28771394, 9.997988, 10.000669 
2.0146315e+3, 1.3166724e+2, -1929744.4, -1760065.9, -34841.79, 0.4573896, 0.8204534, -1753190.1, -103467.29, 0.20582092, 9.997797, 10.000062 
2.0146774e+3, 1.4166309e+2, -1948717.0, -1737315.3, -42420.74, -0.0030134532, 0.4209284, -1729120.6, -177355.31, 0.12247417, 9.997081, 9.99989 
2.0147288e+3, 1.5166466e+2, -1600160.8, -1516033.4, -3629.262, -0.003965614, 0.5797743, -1515877.1, -62125.24, 0.055639356, 9.998797, 9.999907 
2.0147803e+3, 1.6166575e+2, -1337052.5, -1350389.6, -29375.176, 0.042686384, 0.7242434, -1313598.4, 42144.52, 0.016791714, 9.999982, 9.999806 
2.0148313e+3, 1.7166547e+2, -1388248.6, -1299107.9, -3566.6538, 0.07099853, 0.6958422, -1298965.4, -41218.45, 0.0023981123, 9.99886, 10.000014 
2.0148824e+3, 1.8166529e+2, -1429538.8, -1301013.9, 47594.754, 0.09935953, 0.7043095, -1285308.0, -125557.67, 0.000045425786, 9.998032, 9.999736 
2.0149356e+3, 1.9166592e+2, -1215668.8, -1137605.8, 27805.205, 0.16727373, 0.78345335, -1128714.5, -66968.19, 0.0, 9.9988, 9.9998045 
2.0149882e+3, 2.0166633e+2, -1000509.0, -915380.75, -940.94885, 0.18620917, 0.8432732, -915370.4, 48373.133, 0.0, 9.999302, 10.000424 
2.0150396e+3, 2.1166623e+2, -952551.56, -780339.6, 99097.16, 0.04724971, 0.74277586, -735165.4, 130575.83, 0.0, 9.998706, 10.000961 
2.0150909e+3, 2.2166589e+2, -1038854.56, -965182.56, 131438.97, -0.10280734, 0.69210035, -865515.5, -97773.414, 0.0, 9.998261, 9.999242 
2.0151423e+3, 2.3166539e+2, -892313.56, -913942.4, 50039.715, -0.17394723, 0.7626302, -851933.0, -182184.39, 0.0, 9.9989, 9.998609 
2.0151952e+3, 2.416643e+2, -661819.4, -710317.6, 27999.08, -0.1555899, 0.80415887, -649028.44, -77267.945, 0.0, 9.9996195, 9.998992 
2.0152514e+3, 2.51662e+2, -377144.28, -466888.25, 67694.516, 0.07659916, 0.6275545, -340800.22, 132982.48, 0.0, 10.000683, 9.999468 
2.0153052e+3, 2.616605e+2, -229464.11, -384728.66, 3526.2046, 0.12821953, 0.56475675, -229384.06, 146412.64, 0.0000000091701935, 10.001191, 9.999114 
2.0153527e+3, 2.7166232e+2, -223340.67, -329498.3, -20275.533, -0.22170654, 0.8231287, -219599.97, 58179.64, 0.0000023642951, 10.000561, 9.999116 
2.015403e+3, 2.816624e+2, -225420.27, -442862.66, -8891.385, -0.2700098, 0.99393696, -225057.3, -45277.527, 0.000021595964, 10.000562, 9.997682 
2.0154603e+3, 2.9165697e+2, 58004.137, -290225.75, -15990.612, 0.3262558, 0.69340104, 58736.88, 140571.44, 0.000083873885, 10.001986, 9.997364 
2.0155108e+3, 3.0165318e+2, 112764.73, -265528.8, -64047.53, 0.19679172, 0.598693, 123314.195, 123314.195, 0.00020821096, 10.002144, 9.9971285 
2.0155576e+3, 3.1165373e+2, 88129.72, -160518.86, -14027.337, -0.28443676, 0.91546464, 88918.555, 88918.555, 0.00038267355, 10.001457, 9.99817 
2.0245701e+3, 1.2161134e+2, -2008100.4, -1824529.3, 226048.4, -0.2030981, 0.49345472, -1672342.5, 75926.34, 0.29983783, 9.997794, 10.000446 
2.0246296e+3, 1.3161331e+2, -1958377.9, -1738826.0, -95239.95, 0.51968664, 0.65938956, -1703269.9, -53016.867, 0.21537028, 9.997467, 10.000359 
2.0246744e+3, 1.41612e+2, -1845671.8, -1625796.8, -21834.475, -0.002251041, 0.50197357, -1623649.5, -71381.01, 0.12892798, 9.99752, 10.000446 
2.0247269e+3, 1.5161373e+2, -1651707.9, -1470199.4, 71417.77, -0.009449679, 0.61452067, -1445468.5, 8783.386, 0.05909158, 9.998139, 10.000538 
2.0247795e+3, 1.6161485e+2, -1516579.3, -1398086.6, 37121.77, 0.046664417, 0.7082362, -1387417.6, -31176.746, 0.018083457, 9.998581, 10.000149 
2.0248303e+3, 1.7161487e+2, -1353795.6, -1261771.5, -11655.887, 0.10572564, 0.6882886, -1260318.1, -2076.9834, 0.0026487417, 9.999022, 10.000187 
2.0248815e+3, 1.8161479e+2, -1274441.9, -1273224.5, 48903.566, 0.1580338, 0.7106383, -1224925.9, -64682.43, 0.000052423693, 9.999294, 9.999316 
2.0249346e+3, 1.9161479e+2, -1175132.9, -1200358.8, 92723.586, 0.17747357, 0.7908563, -1094168.3, -31920.223, 0.0, 9.999425, 9.999073 
2.0249875e+3, 2.0161465e+2, -973699.0, -910144.4, 74008.64, 0.17449756, 0.8476085, -861379.3, 102872.51, 0.0, 9.999522, 10.000349 
2.0250387e+3, 2.1161453e+2, -771464.75, -666070.94, -8622.666, 0.042995095, 0.7234471, -665370.1, 200877.58, 0.0, 9.999831, 10.001198 
2.02509e+3, 2.2161417e+2, -786185.1, -840917.56, -48687.94, -0.0866642, 0.65496475, -757699.5, 10547.673, 0.0, 9.999992, 9.999254 
2.0251419e+3, 2.3161362e+2, -753624.75, -851555.06, 14346.142, -0.15469898, 0.72996885, -751566.44, -81311.79, 0.0, 9.999887, 9.99855 
2.0251949e+3, 2.4161275e+2, -664534.4, -737011.4, 117805.32, -0.1339573, 0.8006154, -577519.8, -5254.278, 0.0, 9.999717, 9.998757 
2.025251e+3, 2.5161093e+2, -580666.7, -606627.25, 93768.2, 0.048596647, 0.70884305, -498984.6, -24699.531, 0.0, 9.999465, 9.999092 
2.0253052e+3, 2.6160946e+2, -463416.78, -503447.06, -14600.955, 0.116095796, 0.6746733, -458657.06, -82356.26, 0.000000001074916, 9.999596, 9.999074 
2.0253545e+3, 2.7161017e+2, -168493.1, -289501.25, -67797.555, -0.0901466, 0.81272703, -138127.75, 140166.39, 0.0000018159459, 10.00087, 9.999246 
2.025406e+3, 2.816101e+2, -10878.824, -339457.03, -25094.467, -0.08965519, 0.95910597, -8973.337, 171321.98, 0.000018189116, 10.002024, 9.997691 
2.0254615e+3, 2.9160652e+2, 54332.55, -295412.1, -16694.023, 0.26792577, 0.85217834, 55127.582, 137459.39, 0.000072171526, 10.0019865, 9.99732 
2.0255123e+3, 3.0160144e+2, 11931.106, -345438.5, -26856.357, 0.18918061, 0.6482566, 13938.094, 13938.094, 0.00017990798, 10.001545, 9.996883 
2.0255597e+3, 3.116018e+2, 40762.156, -141013.94, 169437.27, -0.1619405, 0.96523714, 142148.97, 142148.97, 0.00033465834, 10.000922, 9.998566 
2.0345698e+3, 1.2156059e+2, -1968769.1, -1765780.6, 175217.17, -0.039445728, 0.737444, -1664785.0, 83987.45, 0.3135409, 9.997854, 10.000865 
2.0346247e+3, 1.3156028e+2, -1914200.8, -1664864.5, -90056.59, 0.27405798, 0.62686133, -1635739.5, 15039.259, 0.22593072, 9.997515, 10.000876 
2.0346706e+3, 1.4156356e+2, -1759589.4, -1483667.5, -17599.701, -0.1707154, 0.8627348, -1482549.5, 70198.766, 0.13594478, 9.997627, 10.001447 
2.0347257e+3, 1.5156421e+2, -1564609.3, -1295468.8, 93930.5, 0.050544586, 0.7482638, -1265929.0, 188808.06, 0.06282382, 9.998129, 10.001817 
2.03478e+3, 1.615643e+2, -1503567.8, -1377990.6, 48736.203, 0.21741804, 0.6461461, -1361295.8, -4563.5083, 0.019494196, 9.998605, 10.000276 
2.0348296e+3, 1.7156456e+2, -1384405.0, -1332464.0, 12241.511, 0.12662996, 0.6856716, -1329723.5, -70993.38, 0.0029308582, 9.999042, 9.999696 
2.0348798e+3, 1.8156436e+2, -1271213.1, -1277584.0, 54490.883, 0.039047293, 0.7290292, -1219814.6, -59081.39, 0.00006041413, 9.999346, 9.999262 
2.0349327e+3, 1.9156286e+2, -1167249.0, -1178442.9, 102944.234, 0.041194268, 0.65069896, -1069749.6, -6998.801, 0.0, 9.999403, 9.999235 
2.0349854e+3, 2.015616e+2, -1067945.9, -1100266.8, 77628.1, 0.02386424, 0.62534153, -1004813.94, -40047.895, 0.0, 9.999497, 9.999057 
2.0350376e+3, 2.115619e+2, -926009.44, -969536.75, 8516.244, -0.050912976, 0.73541254, -924402.5, -57637.617, 0.0, 9.99975, 9.999158 
2.0350897e+3, 2.2156179e+2, -758882.94, -746650.44, -50407.824, -0.11470741, 0.801805, -701989.2, 66777.09, 0.0, 9.999838, 9.999972 
2.0351425e+3, 2.3156038e+2, -621668.56, -556589.06, 19094.742, -0.073965944, 0.6060798, -551400.25, 119373.86, 0.0, 9.999798, 10.00062 
2.0351957e+3, 2.415595e+2, -685575.4, -757816.94, 102312.53, -0.03743084, 0.5429759, -613194.7, -40415.1, 0.0, 9.999618, 9.998663 
2.0352493e+3, 2.5156066e+2, -671193.75, -789207.25, 89733.8, -0.04645455, 0.8482855, -622804.25, -148027.27, 0.0, 9.999432, 9.99786 
2.0353033e+3, 2.6156017e+2, -522004.28, -589621.2, 13117.173, -0.036814533, 1.015816, -519548.8, -142760.58, 0.000000023664393, 9.999455, 9.998544 
2.0353577e+3, 2.7155557e+2, -192496.56, -308896.56, -4586.3364, 0.14295596, 0.6325045, -192316.14, 86514.63, 0.0000019634658, 10.00074, 9.999174 
2.0354113e+3, 2.8155315e+2, -16914.809, -300583.9, -16901.557, 0.2258211, 0.53509885, -15911.33, 164940.94, 0.000016146072, 10.001808, 9.998061 
2.0354593e+3, 2.915569e+2, 85756.195, -214635.61, -11031.639, -0.17487462, 1.1092343, 86160.78, 168979.66, 0.00006227005, 10.0019045, 9.997923 
2.0355083e+3, 3.0155298e+2, 8537.639, -274228.25, -67266.6, -0.37111866, 0.9721527, 23723.951, 23723.951, 0.00015426715, 10.001245, 9.997497 
2.0355655e+3, 3.115453e+2, 166694.08, 181212.03, 217799.52, 0.30441853, 0.3794455, 391873.5, 391873.5, 0.00028896972, 10.000683, 10.000886 
2.0445684e+3, 1.2150923e+2, -2018315.9, -1729490.3, 108353.234, 0.08480093, 0.91053903, -1693360.9, 55920.445, 0.3294151, 9.997205, 10.001406 
2.044621e+3, 1.3150695e+2, -1922438.0, -1606026.4, -54484.97, 0.19541067, 0.5345785, -1596907.1, 54396.703, 0.23787552, 9.997136, 10.001554 
2.0446679e+3, 1.4151277e+2, -1731026.5, -1449854.8, 15241.656, -0.16635631, 0.9714172, -1449030.9, 104215.26, 0.14372098, 9.997706, 10.001686 
2.044724e+3, 1.5151273e+2, -1610176.4, -1310912.9, 28958.184, 0.0961737, 0.7780148, -1308136.5, 147104.31, 0.06692591, 9.997781, 10.001873 
2.0447786e+3, 1.6151215e+2, -1605892.1, -1426649.3, -63142.676, 0.27135134, 0.60509783, -1406639.5, -49397.703, 0.021061258, 9.997909, 10.000272 
2.0448285e+3, 1.715121e+2, -1403816.1, -1349434.8, -86561.555, 0.13257036, 0.6208063, -1285893.8, -26651.326, 0.003256253, 9.998947, 9.999617 
2.0448789e+3, 1.8151177e+2, -1212163.5, -1241911.1, -34355.83, 0.01792237, 0.6573704, -1189600.0, -28353.389, 0.00007088071, 9.999726, 9.999324 
2.0449317e+3, 1.9151075e+2, -1124780.8, -1137542.9, -4659.33, 0.0053695724, 0.6131353, -1123260.8, -60001.758, 0.0, 9.999614, 9.999412 
2.0449845e+3, 2.0150977e+2, -1084432.1, -1123983.1, 18096.818, -0.009878321, 0.6114456, -1077401.5, -112130.58, 0.0, 9.999446, 9.998926 
2.0450373e+3, 2.1150959e+2, -945562.2, -1003871.2, 65465.62, -0.044766106, 0.6957753, -903052.6, -35777.68, 0.0, 9.999736, 9.998926 
2.04509e+3, 2.2150907e+2, -731894.4, -767876.75, 83218.914, -0.061299678, 0.74788487, -664744.1, 104536.47, 0.0, 10.000151, 9.999682 
2.045143e+3, 2.3150787e+2, -475880.25, -519985.84, -12699.132, -0.04218931, 0.60158956, -472485.2, 198803.2, 0.0, 10.000936, 10.00032 
2.045196e+3, 2.4150711e+2, -424311.2, -636894.25, -52660.836, -0.024389861, 0.5702049, -411981.25, 161313.06, 0.0, 10.001428, 9.998621 
2.0452495e+3, 2.515077e+2, -469958.3, -677228.8, -10224.682, -0.035687067, 0.8154201, -469455.13, 5840.008, 0.0, 10.000761, 9.997979 
2.0453033e+3, 2.6150686e+2, -391956.34, -522964.72, 39306.758, -0.010632955, 0.93664294, -381068.0, -3759.606, 0.00000011200642, 10.000331, 9.99858 
2.0453581e+3, 2.715028e+2, -184419.33, -302721.25, 35256.367, 0.13419113, 0.611272, -174709.22, 104636.336, 0.000002326167, 10.000802, 9.999179 
2.0454119e+3, 2.8150064e+2, -88257.48, -345783.34, 16682.41, 0.15849815, 0.5403301, -87181.3, 94183.69, 0.000014696717, 10.001348, 9.997974 
2.0454605e+3, 2.9150304e+2, 95365.61, -220414.89, -58403.26, -0.23158078, 1.0035759, 105821.055, 189165.36, 0.00005375532, 10.002025, 9.997817 
2.0455115e+3, 3.014993e+2, 282127.44, -95259.18, -121951.89, -0.2484831, 0.8682631, 318105.94, 318105.94, 0.00013227915, 10.00291, 9.997925 
2.0455673e+3, 3.114937e+2, 557136.25, 341378.5, 23957.19, 0.29720065, 0.44483984, 559764.4, 559764.4, 0.00025110375, 10.003455, 10.000659 
2.054565e+3, 1.21456794e+2, -1958515.3, -1654670.3, -74437.07, -0.008820915, 0.955552, -1637414.4, 112385.78, 0.3476065, 9.99728, 10.002106 
2.0546184e+3, 1.3145344e+2, -1859130.5, -1510067.8, -16318.812, 0.2234585, 0.38291883, -1509306.5, 142519.84, 0.2513395, 9.9971485, 10.00242 
2.0546667e+3, 1.4145926e+2, -1766368.4, -1517344.1, 21008.02, -0.07556142, 0.7833573, -1515584.3, 38180.715, 0.15236652, 9.997727, 10.00114 
2.0547211e+3, 1.5145917e+2, -1695757.9, -1479326.9, 36457.5, 0.04225958, 0.6940245, -1473350.6, -17586.967, 0.071473114, 9.997784, 10.000647 
2.0547749e+3, 1.6145831e+2, -1619941.0, -1467468.9, -44154.35, 0.11151486, 0.5870286, -1455605.3, -97834.73, 0.022826005, 9.99795, 9.999979 
2.0548269e+3, 1.7145734e+2, -1387281.3, -1317902.8, -42268.63, 0.061581116, 0.49933422, -1297911.3, -38131.28, 0.0036400491, 9.998952, 9.999837 
2.0548786e+3, 1.814568e+2, -1186736.5, -1203542.1, -31385.074, 0.015156283, 0.4919961, -1162648.9, -862.96497, 0.00008593674, 9.999779, 9.999565 
2.0549312e+3, 1.914583e+2, -1109276.4, -1108614.0, -8425.848, 0.0020348285, 0.67604506, -1100512.9, -36738.582, 0.0, 9.999619, 9.999613 
2.0549838e+3, 2.0145911e+2, -1017606.56, -980060.2, 17161.102, -0.010636552, 0.80681866, -973398.44, -7630.7344, 0.0, 9.999424, 9.999923 
2.0550373e+3, 2.1145734e+2, -857009.8, -803348.0, 82427.5, 0.0033312086, 0.5987396, -743494.5, 124285.7, 0.0, 9.999658, 10.000342 
2.0550905e+3, 2.2145574e+2, -835924.3, -946261.3, 101449.414, -0.011740042, 0.48153493, -775613.2, -5819.816, 0.0, 9.999996, 9.99853 
2.0551431e+3, 2.3145594e+2, -673455.06, -901610.7, 25015.78, -0.119251415, 0.7059814, -670744.44, 1054.6239, 0.0, 10.000812, 9.997762 
2.055196e+3, 2.414554e+2, -459262.94, -658628.8, -64660.176, -0.17221083, 0.87293524, -440128.25, 133682.08, 0.0, 10.00122, 9.998569 
2.0552507e+3, 2.5145218e+2, -391396.25, -493194.03, -31117.922, 0.011116395, 0.62696517, -382637.63, 93201.3, 0.0, 10.000676, 9.999284 
2.0553046e+3, 2.614496e+2, -369125.13, -451252.03, 36438.406, 0.10832976, 0.47164613, -355288.97, 22571.688, 0.00000017468948, 10.000228, 9.999121 
2.0553562e+3, 2.7145138e+2, -190616.53, -300966.4, 62863.516, -0.15074058, 0.7129566, -162148.8, 117695.164, 0.0000023499456, 10.000726, 9.999232 
2.0554085e+3, 2.8145167e+2, -181341.83, -469401.13, 25590.477, -0.34487242, 0.91285217, -179086.1, 2756.112, 0.000012296112, 10.001069, 9.997251 
2.0554641e+3, 2.914454e+2, 17466.2, -352998.44, -20102.86, -0.061969303, 0.5821523, 18553.865, 102459.016, 0.000044415407, 10.001899, 9.996965 
2.05552e+3, 3.0144072e+2, 245867.6, -85387.336, -108157.44, 0.30962497, 0.37641406, 278054.4, 278054.4, 0.000112162, 10.002577, 9.998139 
2.0555659e+3, 3.114452e+2, 293422.34, -94561.125, -37044.836, -0.2213492, 0.9619374, 296927.72, 296927.72, 0.00022092767, 10.00299, 9.99788 
2.064563e+3, 1.2140544e+2, -1855221.4, -1567142.3, -29053.209, 0.055817574, 0.9557475, -1564241.4, 186062.16, 0.36771804, 9.997598, 10.002883 
2.0646171e+3, 1.3140155e+2, -1754881.1, -1543058.1, 11257.731, 0.35218614, 0.37413216, -1542461.5, 109871.87, 0.26616043, 9.998259, 10.001595 
2.0646653e+3, 1.4140601e+2, -1657910.8, -1529326.0, -31042.8, -0.028704805, 0.71400183, -1522224.0, 32061.465, 0.1618756, 9.998751, 10.000558 
2.0647195e+3, 1.5140599e+2, -1518250.6, -1440935.4, 9243.463, 0.047607336, 0.67378837, -1439845.8, 16440.348, 0.07651462, 9.999206, 10.000229 
2.0647734e+3, 1.6140531e+2, -1405943.6, -1378603.8, -494.8553, 0.095341176, 0.6159425, -1378594.8, -20301.521, 0.024829434, 9.999477, 9.999851 
2.0648257e+3, 1.7140454e+2, -1313033.3, -1270738.0, -9422.164, 0.054913912, 0.542757, -1268734.0, -8433.059, 0.0041003036, 9.999416, 9.999934 
2.0648782e+3, 1.8140416e+2, -1234452.4, -1217666.8, 404.9628, 0.025017371, 0.54024875, -1217657.0, -55351.746, 0.000108260756, 9.999428, 9.999629 
2.064931e+3, 1.9140546e+2, -996513.75, -1044130.56, -3200.582, 0.0007331394, 0.6999068, -996299.56, 67994.57, 0.0, 10.000366, 9.999685 
2.0649841e+3, 2.014061e+2, -784442.44, -855505.94, -12767.082, 0.0019633642, 0.80613154, -782218.4, 184069.56, 0.0, 10.000979, 10.000025 
2.0650378e+3, 2.1140458e+2, -753203.3, -738138.94, -58808.773, 0.059902977, 0.61148316, -686381.94, 181915.25, 0.0, 10.000313, 10.000471 
2.0650911e+3, 2.2140309e+2, -897176.25, -1007392.1, -53916.293, 0.068922035, 0.5109132, -875187.8, -104878.805, 0.0, 9.999713, 9.998249 
2.0651433e+3, 2.3140275e+2, -847094.44, -1041681.0, 1080.5637, -0.10683882, 0.73083544, -847088.44, -174766.34, 0.0, 9.999875, 9.99725 
2.0651963e+3, 2.4140175e+2, -600243.56, -731891.44, 15214.609, -0.20210421, 0.88708955, -598508.06, -24168.813, 0.0, 10.00027, 9.998525 
2.0652512e+3, 2.5139868e+2, -310939.44, -428907.66, -34536.023, 0.00018443393, 0.6413564, -301572.53, 174792.44, 0.0, 10.001118, 9.999512 
2.0653057e+3, 2.6139647e+2, -182202.4, -385102.38, -33086.94, 0.12049914, 0.5062749, -176943.23, 201439.72, 0.00000012472299, 10.0016, 9.998922 
2.0653567e+3, 2.713978e+2, -218621.44, -358632.13, -66146.43, -0.15121797, 0.74934524, -192314.28, 88055.68, 0.0000018192295, 10.000724, 9.9988365 
2.0654091e+3, 2.8139752e+2, -256153.33, -471622.3, -38646.715, -0.3074305, 0.9074701, -249431.33, -67057.984, 0.000008845643, 10.000394, 9.997571 
2.0654672e+3, 2.913913e+2, 63249.25, -271087.28, 6651.0493, 0.06459357, 0.5325397, 63381.508, 147816.44, 0.000033872344, 10.001964, 9.997499 
2.0655237e+3, 3.0138803e+2, 354599.7, -23839.227, -52431.32, 0.4015386, 0.42804652, 361729.53, 361729.53, 0.000092230024, 10.00322, 9.998293 
2.0655674e+3, 3.1139162e+2, 228765.16, -134886.66, -101287.07, -0.31924552, 0.9256201, 255073.17, 255073.17, 0.00019251609, 10.0025625, 9.9978285 
2.074561e+3, 1.21354856e+2, -1781959.8, -1491988.3, -20840.686, 0.07261783, 0.8387363, -1490498.1, 260295.52, 0.38886976, 9.997668, 10.003765 
2.074617e+3, 1.3135156e+2, -1933109.1, -1894325.4, 43196.863, 0.4895563, 0.5262669, -1866367.4, -213545.38, 0.28190908, 9.998345, 9.998873 
2.0746633e+3, 1.4135316e+2, -1694227.1, -1625217.5, -24949.334, -0.12509023, 0.78921217, -1617142.4, -62335.324, 0.17213808, 9.998854, 9.999817 
2.0747188e+3, 1.5135317e+2, -1475454.4, -1376233.5, 29184.549, 0.03856236, 0.73006535, -1368285.9, 88522.625, 0.08207624, 9.99928, 10.000681 
2.0747735e+3, 1.613531e+2, -1382588.9, -1344319.5, -5578.4116, 0.14093907, 0.69715214, -1343522.9, 15287.424, 0.027111659, 9.9995365, 10.00006 
2.0748252e+3, 1.7135383e+2, -1309354.5, -1265577.4, -9913.223, 0.05105399, 0.76710236, -1263437.1, -2632.6223, 0.0046569863, 9.999429, 9.999964 
2.0748772e+3, 1.8135396e+2, -1234204.8, -1229977.3, 18860.14, -0.027556352, 0.8175898, -1213112.8, -50308.85, 0.00014131474, 9.99948, 9.99952 
2.074931e+3, 1.9135216e+2, -1011391.06, -1072922.4, 40024.65, -0.052749682, 0.6840612, -991674.06, 73145.664, 0.0000000002137382, 10.000353, 9.999496 
2.0749846e+3, 2.0135058e+2, -842583.94, -970928.56, -23210.125, -0.049804453, 0.6053378, -838515.56, 128317.82, 0.0, 10.000953, 9.999245 
2.0750381e+3, 2.1135113e+2, -845181.06, -912468.4, -82129.24, 0.061319485, 0.723019, -790071.7, 78755.91, 0.0, 10.000234, 9.999315 
2.0750913e+3, 2.2135104e+2, -883319.56, -944769.3, -61604.688, 0.1099297, 0.8242136, -845202.94, -74374.37, 0.0, 9.999577, 9.998738 
2.0751436e+3, 2.3134832e+2, -762992.94, -846830.56, 18255.014, -0.068955034, 0.6822568, -759190.5, -86332.72, 0.0, 9.99979, 9.998626 
2.0751965e+3, 2.4134602e+2, -620449.0, -742102.0, 36095.42, -0.20535366, 0.6153781, -610545.44, -35662.47, 0.0, 10.000138, 9.998517 
2.0752512e+3, 2.513469e+2, -380845.2, -552699.06, 6099.3916, -0.12411701, 0.8280001, -380628.97, 96248.164, 0.0, 10.001025, 9.998706 
2.0753057e+3, 2.6134676e+2, -274836.9, -533999.6, -52711.51, -0.046844658, 0.99157536, -264526.06, 114353.69, 0.000000021824269, 10.001424, 9.99798 
2.0753591e+3, 2.7134216e+2, -283567.94, -485506.94, -90809.516, 0.019603113, 0.72914225, -248739.02, 32182.797, 0.00000084431264, 10.000698, 9.997974 
2.0754136e+3, 2.813385e+2, -187763.39, -310184.7, -18254.648, 0.087870255, 0.5547149, -185099.36, -2143.9956, 0.000005133315, 10.000319, 9.998711 
2.0754692e+3, 2.9134e+2, 153402.73, -47925.79, 82906.45, 0.07880086, 0.7733216, 183148.5, 268090.13, 0.000023723636, 10.00179, 9.99912 
2.0755227e+3, 3.013399e+2, 235297.94, -101345.71, -64500.773, -0.02409737, 0.91785926, 247233.11, 247233.11, 0.00007269587, 10.0025425, 9.99806 
2.0755701e+3, 3.1133586e+2, 311191.97, 141186.3, -53446.535, -0.32358786, 0.6590615, 326598.38, 326598.38, 0.0001601903, 10.00217, 9.99989 
2.0845589e+3, 1.2130221e+2, -1888867.4, -1521764.0, -116820.336, 0.13085735, 0.7706112, -1487742.3, 263566.0, 0.40993002, 9.996953, 10.003927 
2.0846157e+3, 1.312996e+2, -1988630.5, -2008621.0, -27185.887, 0.5313093, 0.5902466, -1969660.6, -316329.53, 0.29801235, 9.998347, 9.998083 
2.0846616e+3, 1.4129952e+2, -1722186.4, -1648701.4, 21391.213, -0.14294662, 0.73635274, -1642928.1, -87594.1, 0.18298064, 9.998723, 9.999705 
2.0847176e+3, 1.513001e+2, -1641439.0, -1431984.8, 43881.92, 0.053074285, 0.721989, -1423162.8, 34167.0, 0.088167645, 9.998056, 10.000861 
2.0847724e+3, 1.6130073e+2, -1628926.6, -1446478.3, 31583.266, 0.19931382, 0.74128854, -1441165.6, -81840.55, 0.029713616, 9.997769, 10.000216 
2.0848247e+3, 1.713019e+2, -1288361.0, -1244313.1, 31373.56, 0.07501426, 0.84261626, -1228005.0, 33310.766, 0.005333032, 9.999513, 10.000076 
2.0848772e+3, 1.8130213e+2, -1053926.5, -1175323.5, 54481.18, -0.025891664, 0.9040427, -1033062.1, 130252.54, 0.00018960002, 10.000844, 9.999247 
2.0849311e+3, 1.9129932e+2, -1027891.6, -1136433.4, 36173.168, -0.055831593, 0.7129202, -1016941.1, 48398.727, 0.000000020895914, 10.000464, 9.999015 
2.084985e+3, 2.0129693e+2, -1013846.06, -1105313.4, -33996.395, -0.051108867, 0.60069096, -1002594.44, -35232.86, 0.0, 10.000017, 9.998771 
2.0850383e+3, 2.1129748e+2, -843069.25, -961347.25, -66571.26, 0.06487499, 0.770736, -813162.44, 56195.133, 0.0, 10.000478, 9.998854 
2.0850916e+3, 2.212974e+2, -685061.5, -837954.6, -7552.616, 0.13758034, 0.8977565, -684689.3, 86670.45, 0.0, 10.0008745, 9.998859 
2.0851445e+3, 2.3129447e+2, -577045.6, -703053.9, 6979.024, 0.008093676, 0.6936026, -576660.3, 96727.55, 0.0, 10.000819, 9.999127 
2.0851977e+3, 2.4129221e+2, -530733.06, -703738.56, 4691.823, -0.1158614, 0.59603393, -530605.94, 44804.348, 0.0, 10.000768, 9.998478 
2.0852512e+3, 2.5129354e+2, -401840.94, -602175.06, -3531.9019, -0.19173004, 0.8876934, -401778.7, 75623.445, 0.0, 10.001049, 9.998355 
2.0853055e+3, 2.612935e+2, -271859.34, -563100.2, -18290.77, -0.19338337, 1.0900307, -270715.13, 108690.83, 0.0, 10.001579, 9.997703 
2.0853613e+3, 2.712878e+2, 29384.922, -369790.1, -32537.814, 0.055941116, 0.7489892, 32019.773, 313478.22, 0.000000115745564, 10.002999, 9.997663 
2.0854168e+3, 2.8128374e+2, 304176.3, -51871.47, 18197.967, 0.23034622, 0.54990464, 305104.0, 488599.28, 0.0000020138657, 10.003594, 9.998909 
2.085469e+3, 2.9128665e+2, -11569.347, -63538.63, -22253.76, -0.046741657, 0.8694754, -3342.4202, 82123.11, 0.000014504671, 10.0004015, 9.999672 
2.0855208e+3, 3.0128682e+2, -296889.8, -341079.7, -66311.2, -0.23943396, 0.99275786, -249089.39, -249089.39, 0.00005340179, 9.998777, 9.998241 
2.085575e+3, 3.1128192e+2, 583780.1, 230926.63, -7304.287, -0.12693506, 0.6670087, 583931.25, 583931.25, 0.00012530175, 10.004161, 9.99957 
2.0945556e+3, 1.2124753e+2, -1938656.4, -1597879.0, -72663.47, 0.07774552, 0.8069613, -1583031.9, 168815.88, 0.42994058, 9.996963, 10.003079 
2.0946126e+3, 1.3124526e+2, -1877881.5, -1783570.4, 601.93353, 0.3645193, 0.5462634, -1783566.6, -129701.78, 0.31401625, 9.998372, 9.999616 
2.0946601e+3, 1.41245e+2, -1670541.1, -1556249.8, 5023.7236, -0.18481222, 0.5484636, -1556029.4, -162.44038, 0.19429262, 9.998773, 10.000325 
2.0947151e+3, 1.5124674e+2, -1640731.4, -1440282.3, 20983.43, 0.015073767, 0.6450227, -1438109.3, 19741.166, 0.094824284, 9.998091, 10.000787 
2.0947702e+3, 1.6124806e+2, -1617655.6, -1435211.8, 62527.78, 0.17802313, 0.7383302, -1415839.1, -56000.902, 0.032688897, 9.997818, 10.00027 
2.0948242e+3, 1.7124866e+2, -1275300.6, -1219691.9, 107697.03, 0.06645822, 0.7677403, -1136268.0, 125567.15, 0.0061590113, 9.999523, 10.000243 
2.094878e+3, 1.812486e+2, -1075106.3, -1232561.5, 62190.574, -0.047317456, 0.803517, -1053505.9, 110331.92, 0.00026052183, 10.0009, 9.998827 
2.0949315e+3, 1.9124693e+2, -1083878.6, -1252743.8, 18917.719, -0.071104355, 0.79681766, -1081785.3, -15930.76, 0.00000016154512, 10.000464, 9.998217 
2.0949848e+3, 2.012451e+2, -1035181.06, -1141075.3, -37455.883, -0.07089088, 0.80217963, -1023271.9, -55399.15, 0.0, 9.999981, 9.99854 
2.0950383e+3, 2.112436e+2, -849263.75, -952817.6, -41080.906, 0.01436013, 0.7608345, -834946.1, 34942.035, 0.0, 10.000384, 9.998956 
2.0950918e+3, 2.2124203e+2, -719270.56, -875402.4, -7747.3945, 0.07965577, 0.73623633, -718887.06, 53017.207, 0.0, 10.00073, 9.998672 
2.0951457e+3, 2.31241e+2, -621024.44, -766358.2, 11247.971, 0.058416363, 0.7576083, -620159.06, 53754.848, 0.0, 10.0007, 9.998751 
2.0951995e+3, 2.4124005e+2, -563322.44, -728960.0, 5561.3184, -0.026476296, 0.81944823, -563135.94, 12787.532, 0.0, 10.0005865, 9.99839 
2.0952517e+3, 2.5123876e+2, -407815.63, -597480.06, 15054.222, -0.2694191, 0.84231734, -406628.2, 71310.96, 0.0, 10.000972, 9.998426 
2.0953049e+3, 2.612368e+2, -276841.16, -538413.1, 14763.884, -0.40824157, 0.8354616, -276010.47, 103950.35, 0.0, 10.001434, 9.99794 
2.0953628e+3, 2.712342e+2, 11598.31, -362121.75, 35895.367, -0.095431775, 0.7861139, 15014.783, 296999.8, 0.0, 10.002807, 9.997808 
2.095419e+3, 2.8123245e+2, 191794.61, -186237.61, -49488.34, 0.06224824, 0.8453014, 198165.78, 382166.4, 0.00000039293647, 10.003178, 9.998185 
2.0954663e+3, 2.9123166e+2, -48092.383, -137225.48, -141633.42, -0.35520977, 0.8684904, 55820.703, 141824.48, 0.000007667558, 10.000392, 9.999173 
2.0955178e+3, 3.0122837e+2, -291956.03, -279411.34, 8326.643, -0.4326661, 0.6330139, -275258.97, -275258.97, 0.000037309004, 9.998604, 9.99873 
2.095582e+3, 3.112275e+2, 313756.84, -127666.18, 302114.03, 0.1271573, 0.7058287, 467192.97, 467192.97, 0.00009591088, 10.0033455, 9.9974785 
2.104553e+3, 1.2119266e+2, -1926051.1, -1582311.8, -38608.28, 0.14169025, 0.867744, -1578028.6, 174360.39, 0.44859928, 9.996884, 10.003352 
2.1046092e+3, 1.3119097e+2, -1982873.4, -1788357.0, -47093.89, 0.25977987, 0.61680514, -1777555.0, -123153.38, 0.3298663, 9.997448, 10.000035 
2.1046597e+3, 1.4119165e+2, -1674415.3, -1556738.8, -131748.69, -0.07758348, 0.6883457, -1471286.9, 85108.945, 0.20615475, 9.998743, 10.000438 
2.1047144e+3, 1.5119281e+2, -1484979.1, -1363511.0, -149410.22, 0.089055665, 0.71902335, -1262962.5, 195420.61, 0.10215144, 9.999173, 10.000872 
2.1047688e+3, 1.6119334e+2, -1412256.8, -1345894.0, -73296.67, 0.21198463, 0.73201126, -1298617.9, 61759.39, 0.036114734, 9.999273, 10.000189 
2.1048237e+3, 1.7119391e+2, -1336945.1, -1264213.3, -42525.035, 0.1019228, 0.7726147, -1244625.1, 17749.795, 0.007176738, 9.999164, 10.000106 
2.1048781e+3, 1.8119408e+2, -1304000.3, -1297053.0, -92439.06, -0.00003108234, 0.82810825, -1208022.4, -43646.69, 0.0003661867, 9.999148, 9.999223 
2.1049316e+3, 1.9119269e+2, -1075486.3, -1169266.9, -55237.863, -0.07335888, 0.79061633, -1049920.3, 16466.572, 0.00000091193453, 10.000201, 9.998909 
2.1049847e+3, 2.0119107e+2, -854147.56, -1043614.7, -13011.782, -0.11117666, 0.76773876, -853258.1, 115142.59, 0.0, 10.00115, 9.998655 
2.1050383e+3, 2.111897e+2, -718383.5, -915047.44, -41272.234, -0.038801134, 0.7526793, -710073.2, 160343.67, 0.0, 10.001379, 9.998743 
2.1050923e+3, 2.2118835e+2, -641529.56, -854338.0, -28576.87, 0.038713977, 0.77254707, -637759.0, 134673.33, 0.0, 10.001349, 9.998506 
2.1051462e+3, 2.3118722e+2, -595501.8, -769977.6, -18947.986, 0.03440014, 0.7969096, -593467.75, 80974.55, 0.0, 10.000953, 9.998591 
2.1052e+3, 2.4118592e+2, -546364.94, -728827.3, 17301.67, -0.024296716, 0.83604544, -544738.9, 31715.303, 0.0, 10.000742, 9.998317 
2.1052527e+3, 2.511837e+2, -354677.53, -573767.4, 19390.158, -0.2637865, 0.7713955, -352974.66, 125502.336, 0.0, 10.001362, 9.998396 
2.1053067e+3, 2.6118132e+2, -200004.28, -467481.97, 17153.457, -0.37490913, 0.7227036, -198908.7, 181592.23, 0.0, 10.001794, 9.998262 
2.1053645e+3, 2.7118054e+2, -236011.45, -417416.88, 35048.707, -0.061868973, 0.798608, -229475.31, 53033.563, 0.0, 10.000822, 9.998386 
2.1054207e+3, 2.8117985e+2, -278979.16, -484675.03, -9138.834, 0.10403522, 0.9429716, -278573.94, -94058.516, 0.00000006547354, 10.00026, 9.997532 
2.1054682e+3, 2.9117656e+2, 158564.88, -203818.36, -161705.7, -0.28971714, 0.85023785, 220229.47, 306775.2, 0.000004738257, 10.002539, 9.997679 
2.1055205e+3, 3.0117163e+2, 535789.7, 120742.25, -54567.39, -0.27644476, 0.55405766, 542843.94, 542843.94, 0.000029055158, 10.004228, 9.998791 
2.1055835e+3, 3.1117147e+2, -98899.82, -209587.14, 169013.42, 0.15626551, 0.6229406, 23600.424, 23600.424, 0.000079673504, 9.999958, 9.998562 
2.1145508e+3, 1.2113688e+2, -1800132.5, -1460094.8, -48008.094, 0.1970577, 0.863332, -1453446.6, 299492.63, 0.46656317, 9.997002, 10.004934 
2.1146052e+3, 1.3113692e+2, -2045828.5, -1928540.4, 8587.865, 0.113892116, 0.8275854, -1927914.9, -272974.72, 0.34608045, 9.997489, 9.999049 
2.1146604e+3, 1.4113933e+2, -1698118.5, -1632242.5, -110689.734, 0.099746026, 1.1723385, -1549694.0, 7229.083, 0.21890919, 9.998853, 9.999771 
2.1147148e+3, 1.5113819e+2, -1450038.8, -1320871.0, -138825.39, 0.20739958, 0.9589151, -1232342.0, 226588.53, 0.110347085, 9.999284, 10.001141 
2.1147683e+3, 1.6113648e+2, -1410260.8, -1364468.3, -83290.96, 0.2120022, 0.7323424, -1300983.9, 59960.105, 0.040102176, 9.9993725, 10.000013 
2.114823e+3, 1.7113757e+2, -1363894.8, -1329525.6, -47710.27, 0.124331415, 0.8669955, -1295999.5, -33062.875, 0.008443992, 9.999194, 9.999646 
2.1148777e+3, 1.8113834e+2, -1219462.8, -1126086.3, -76508.36, 0.034368493, 0.9760009, -1083145.6, 81784.58, 0.00052604213, 9.99917, 10.000382 
2.1149312e+3, 1.9113642e+2, -925458.3, -855874.9, -6352.832, -0.12516385, 0.68938994, -855299.6, 211638.81, 0.0000034897541, 10.000193, 10.001064 
2.1149847e+3, 2.0113476e+2, -824592.06, -969612.56, 4374.585, -0.25508457, 0.49401096, -824460.25, 144486.38, 0.0, 10.001096, 9.99919 
2.1150386e+3, 2.1113579e+2, -772164.3, -1004167.6, -30729.37, -0.1584724, 0.7539486, -768163.1, 102780.5, 0.0, 10.001286, 9.998177 
2.1150926e+3, 2.211362e+2, -679092.56, -895883.8, -40484.703, -0.07101206, 0.9948726, -671778.94, 101166.91, 0.0, 10.001193, 9.998294 
2.1151458e+3, 2.3113306e+2, -607960.9, -774853.1, -28465.94, -0.115641706, 0.82328105, -603239.2, 71734.5, 0.0, 10.00086, 9.998604 
2.115199e+3, 2.4112977e+2, -572485.5, -748099.25, 22149.191, -0.19366898, 0.6632455, -569735.0, 7267.522, 0.0, 10.000595, 9.998252 
2.1152541e+3, 2.5112808e+2, -383146.2, -611378.2, 53737.37, -0.2460357, 0.6666837, -371126.7, 107891.54, 0.0, 10.001267, 9.998182 
2.1153101e+3, 2.6112688e+2, -201921.08, -424037.9, -516.7442, -0.2106675, 0.73512983, -201919.88, 179109.88, 0.0, 10.001595, 9.998654 
2.1153668e+3, 2.7112678e+2, -177807.23, -283670.8, -2876.9749, 0.0666716, 0.80187917, -177729.11, 105301.39, 0.0, 10.000759, 9.999339 
2.1154219e+3, 2.8112563e+2, -355364.47, -599037.3, 14448.03, 0.1945684, 0.8444764, -354510.78, -169468.03, 0.00000005479561, 10.000082, 9.996829 
2.1154736e+3, 2.911208e+2, -33123.164, -567524.94, -39943.234, -0.008137377, 0.77680147, -30154.148, 56941.54, 0.0000044706885, 10.002374, 9.995266 
2.1155275e+3, 3.0111614e+2, 401909.3, 7546.338, -117419.38, -0.02072976, 0.7189054, 434222.6, 434222.6, 0.00002714467, 10.00357, 9.998304 
2.115581e+3, 3.1111443e+2, 71847.87, 239042.2, -50730.168, -0.107623085, 0.4912638, 253230.7, 253230.7, 0.000074751726, 9.99961, 10.001791 
2.1245532e+3, 1.2108028e+2, -1297432.6, -1222054.3, -300967.03, 0.4491238, 0.8838438, -956425.75, 797073.25, 0.48543465, 10.003199, 10.005255 
2.1246018e+3, 1.3108177e+2, -1979884.1, -1875957.6, 30392.756, 0.030913372, 0.87642395, -1867722.0, -212239.28, 0.3637423, 9.997885, 9.999203 
2.1246594e+3, 1.4108399e+2, -1920572.4, -1744811.0, 43375.746, 0.19528839, 1.2020333, -1734689.4, -177222.39, 0.23315269, 9.99734, 9.9997225 
2.1247137e+3, 1.5108265e+2, -1569073.1, -1371092.0, -21426.453, 0.22355631, 0.9691479, -1368799.6, 90676.14, 0.1197026, 9.998385, 10.001188 
2.1247672e+3, 1.6108085e+2, -1417831.6, -1370737.1, 29404.443, 0.18912111, 0.72904617, -1356613.5, 4876.5376, 0.044803485, 9.999327, 9.999986 
2.1248224e+3, 1.7108202e+2, -1240698.1, -1285321.8, 72221.89, 0.1254194, 0.8831689, -1187420.1, 76062.7, 0.01004214, 10.000114, 9.999504 
2.1248777e+3, 1.8108293e+2, -1019561.75, -1021682.06, 40374.402, 0.06577864, 1.0119977, -980233.56, 185242.27, 0.0007722133, 10.000488, 10.000467 
2.1249317e+3, 1.9108132e+2, -982129.2, -857164.5, -33651.42, -0.06616319, 0.7332125, -848678.8, 218801.86, 0.000010944595, 9.999682, 10.0013 
2.1249853e+3, 2.0107995e+2, -1113343.0, -1088018.8, -113942.84, -0.16988489, 0.54623294, -986036.6, -16551.057, 0.0, 9.999048, 9.999353 
2.1250391e+3, 2.1108073e+2, -944311.9, -1077648.9, -122048.4, -0.15043, 0.773324, -871910.25, -425.15228, 0.0, 10.000074, 9.99825 
2.125093e+3, 2.2108088e+2, -690073.25, -892934.25, -94039.57, -0.116211206, 0.98110896, -653186.8, 120302.984, 0.0, 10.001072, 9.998379 
2.125146e+3, 2.3107809e+2, -528066.06, -722670.2, -94364.35, -0.16525845, 0.83694917, -489823.56, 185689.78, 0.0, 10.001359, 9.998719 
2.1251997e+3, 2.410751e+2, -440684.03, -675174.7, -23267.686, -0.20882514, 0.69477326, -438397.56, 139140.95, 0.0, 10.00146, 9.998336 
2.1252559e+3, 2.510731e+2, -406839.84, -616294.1, 14627.69, -0.17908913, 0.6638883, -405823.22, 73732.53, 0.0, 10.001071, 9.998247 
2.1253122e+3, 2.6107165e+2, -348431.22, -532446.0, -37578.15, -0.08856521, 0.71502256, -341053.13, 40515.5, 0.0, 10.000768, 9.998304 
2.1253674e+3, 2.7107096e+2, -202900.1, -364107.56, -164015.25, 0.07621962, 0.78421664, -100752.73, 182824.84, 0.0, 10.000916, 9.9987 
2.125422e+3, 2.8106928e+2, -164714.2, -479612.72, -149070.38, 0.16845627, 0.813133, -105340.38, 80256.85, 0.000000117451826, 10.001262, 9.99709 
2.125477e+3, 2.910656e+2, -33330.59, -468681.84, -26473.93, 0.12788938, 0.7972101, -31726.607, 55912.37, 0.0000050467984, 10.0019655, 9.996129 
2.1255322e+3, 3.0106297e+2, 305116.3, -43432.37, 18843.166, 0.15143366, 0.8780422, 306132.03, 306132.03, 0.000026973656, 10.002865, 9.998329 
2.1255821e+3, 3.1106114e+2, 545733.56, 430871.06, -160736.33, -0.11775234, 0.6875921, 658990.7, 658990.7, 0.00007138213, 10.00298, 10.001513 
2.1345991e+3, 1.3102503e+2, -1856233.1, -1640086.4, -39038.125, -0.032230075, 0.750858, -1633251.9, 22781.205, 0.38411817, 9.99793, 10.000878 
2.1346557e+3, 1.4102544e+2, -1873926.6, -1656588.8, 62761.043, 0.089435674, 0.7526837, -1639767.1, -81739.8, 0.24951555, 9.997372, 10.000312 
2.1347104e+3, 1.5102611e+2, -1579517.4, -1396364.0, 26842.104, 0.06462055, 0.7259964, -1392511.3, 67507.77, 0.13052814, 9.998405, 10.000989 
2.1347654e+3, 1.6102636e+2, -1404161.4, -1361997.6, 57826.023, 0.060435038, 0.69979674, -1321530.4, 40485.98, 0.050404422, 9.999405, 10.000018 
2.1348217e+3, 1.7102714e+2, -1223179.5, -1262389.0, 104743.695, 0.036450338, 0.8030609, -1136221.6, 127792.77, 0.012084308, 10.000171, 9.999637 
2.1348777e+3, 1.810278e+2, -1079899.9, -1163859.4, 27680.326, 0.008426139, 0.927793, -1071595.4, 94417.22, 0.001155736, 10.000561, 9.999457 
2.1349324e+3, 1.9102739e+2, -1105296.1, -1116168.4, -65789.484, 0.043385673, 0.93201053, -1044718.5, 23294.97, 0.000030850606, 9.999691, 9.99952 
2.1349865e+3, 2.010265e+2, -1141545.8, -1132498.0, -109941.734, 0.05469629, 0.9232792, -1026987.06, -56967.414, 0.0, 9.998989, 9.999078 
2.13504e+3, 2.1102437e+2, -907839.6, -979164.3, -71579.27, -0.06528253, 0.8088229, -863530.75, 8512.333, 0.0, 9.999975, 9.998976 
2.1350935e+3, 2.2102247e+2, -686075.4, -842254.75, -72463.484, -0.17952666, 0.7465393, -657633.56, 116429.69, 0.0, 10.0008955, 9.998807 
2.1351472e+3, 2.3102228e+2, -536499.5, -716310.94, -77684.664, -0.17941688, 0.83950716, -507586.25, 168475.64, 0.0, 10.001252, 9.9988165 
2.1352014e+3, 2.4102153e+2, -453019.94, -662957.1, -35576.664, -0.16860694, 0.91317844, -447154.88, 130910.414, 0.0, 10.001302, 9.998494 
2.1352573e+3, 2.510185e+2, -401378.1, -584285.7, 2637.193, -0.121750005, 0.7557882, -401340.06, 78751.125, 0.0, 10.000978, 9.998511 
2.1353133e+3, 2.610155e+2, -445865.7, -697560.7, -46723.008, -0.08572261, 0.66006476, -437472.25, -55353.36, 0.0, 10.00062, 9.997236 
2.135367e+3, 2.7101296e+2, -365805.75, -686192.6, -143687.27, -0.084338486, 0.7318301, -310806.3, -26656.203, 0.00000000014169585, 10.000838, 9.996529 
2.1354209e+3, 2.8101054e+2, -139526.78, -363129.22, -129417.0, -0.0828384, 0.8166586, -80306.734, 105873.34, 0.000000256191, 10.001004, 9.998 
2.1354786e+3, 2.9101053e+2, 171566.64, 1236.4249, 22085.047, 0.07947134, 0.8845561, 174383.61, 262564.25, 0.0000052967753, 10.001756, 9.999463 
2.1355344e+3, 3.010104e+2, 236948.6, -4896.452, 23902.518, 0.04816991, 0.94603795, 239288.33, 239288.33, 0.000025189602, 10.002159, 9.9989 
2.1355842e+3, 3.1100768e+2, 193618.86, -107113.65, -32938.72, -0.23781335, 0.8088039, 197184.31, 197184.31, 0.00006330713, 10.002203, 9.998167 
2.1445969e+3, 1.3096774e+2, -1814003.3, -1539509.4, -15057.607, 0.007083365, 0.6195762, -1538685.9, 117907.15, 0.40760165, 9.997555, 10.002209 
2.1446529e+3, 1.409694e+2, -1668819.9, -1555296.6, 4271.1567, 0.00011297975, 0.64930785, -1555136.3, 3434.5425, 0.26811564, 9.998764, 10.0003395 
2.1447088e+3, 1.5096982e+2, -1510405.1, -1453931.3, -64094.914, 0.028242284, 0.66531426, -1412129.0, 48438.406, 0.14296411, 9.999306, 10.000131 
2.1447654e+3, 1.6096993e+2, -1384039.1, -1366604.3, -82473.36, 0.120288804, 0.69155335, -1292388.9, 70179.73, 0.057087187, 9.999627, 9.999884 
2.1448216e+3, 1.70971e+2, -1304837.6, -1259230.3, -48446.71, 0.047529798, 0.8001833, -1228488.8, 36074.51, 0.014719365, 9.999437, 10.0000105 
2.1448772e+3, 1.8097188e+2, -1250059.5, -1228832.8, -84922.555, -0.019055352, 0.9192071, -1153862.9, 12695.629, 0.0017550356, 9.999334, 9.999599 
2.1449323e+3, 1.9097145e+2, -973704.9, -1055364.6, -64877.625, 0.058437854, 0.92253745, -937878.5, 130681.71, 0.00008036648, 10.000617, 9.999494 
2.1449873e+3, 2.0097049e+2, -769668.7, -957927.44, -416.0266, 0.11883536, 0.91150177, -769667.75, 200899.73, 0.000000018813253, 10.001553, 9.999044 
2.1450408e+3, 2.1096857e+2, -784445.3, -927284.5, -19780.03, -0.027435746, 0.820284, -781756.9, 90832.92, 0.0, 10.000853, 9.998905 
2.145094e+3, 2.2096685e+2, -791613.7, -890123.4, -63751.938, -0.1501283, 0.7774735, -760305.8, 14303.24, 0.0, 10.000159, 9.998836 
2.1451484e+3, 2.3096621e+2, -653194.94, -760011.75, -82659.47, -0.11754118, 0.82217467, -608190.7, 68420.17, 0.0, 10.000399, 9.998931 
2.145203e+3, 2.4096517e+2, -561326.8, -740909.44, -46319.86, -0.07629125, 0.86647224, -550083.44, 28533.174, 0.0, 10.000672, 9.998262 
2.1452583e+3, 2.5096256e+2, -460952.34, -663080.8, -71435.78, -0.103803374, 0.7925778, -438254.5, 42386.477, 0.0, 10.000793, 9.998055 
2.1453132e+3, 2.6095974e+2, -415381.25, -708691.6, -121323.73, -0.12084596, 0.7535884, -371702.0, 10966.703, 0.0, 10.000925, 9.997018 
2.1453674e+3, 2.7095637e+2, -314652.88, -665268.9, -108083.54, -0.09892645, 0.7500219, -284012.0, 694.57916, 0.00000000016893417, 10.001207, 9.996491 
2.1454221e+3, 2.8095338e+2, -72737.93, -309880.8, 560.60626, -0.07286083, 0.7755312, -72736.6, 114003.27, 0.0000002738674, 10.001336, 9.998222 
2.1454783e+3, 2.9095376e+2, -14659.945, -26771.322, -37658.703, -0.026080422, 0.84804887, 17426.854, 106164.11, 0.0000047479944, 10.000214, 10.000011 
2.1455345e+3, 3.009549e+2, -98205.12, -149155.5, -128825.89, 0.003856839, 0.9838265, 7640.272, 7640.272, 0.000021515176, 9.999691, 9.999142 
2.145588e+3, 3.1095222e+2, 207190.56, -51851.207, -96266.79, -0.049367573, 0.847436, 239047.98, 239047.98, 0.000053622698, 10.00206, 9.998607 
2.154595e+3, 1.3091028e+2, -1755689.3, -1475854.4, 51225.625, 0.016157856, 0.5186043, -1466772.0, 190387.67, 0.43279883, 9.997579, 10.003045 
2.1546496e+3, 1.4091595e+2, -1682475.3, -1633562.9, 174.0315, -0.22323796, 0.90463716, -1633562.3, -74464.805, 0.28823382, 9.998969, 9.999701 
2.1547082e+3, 1.5091388e+2, -1610710.0, -1683625.1, -49837.336, 0.04833326, 0.8122871, -1585418.9, -124297.85, 0.15688464, 9.999395, 9.998474 
2.1547666e+3, 1.6091166e+2, -1397379.3, -1415491.8, -89304.43, 0.287618, 0.73723984, -1316673.0, 46473.664, 0.06501248, 9.999723, 9.999493 
2.1548216e+3, 1.7091352e+2, -1264412.0, -1178700.8, -59587.973, 0.100321, 0.88598627, -1148157.9, 116972.54, 0.018139776, 9.999451, 10.000561 
2.154876e+3, 1.80915e+2, -1156461.8, -1045725.7, -65126.332, -0.097114064, 0.9924268, -1015612.4, 151503.13, 0.0026903055, 9.999374, 10.000843 
2.1549316e+3, 1.9091338e+2, -842170.0, -785750.25, -6142.3506, -0.08663331, 0.7042433, -785089.3, 284032.5, 0.00019736934, 10.00063, 10.001337 
2.154987e+3, 2.0091195e+2, -759508.9, -932336.56, -1713.552, -0.06956083, 0.50919, -759491.9, 211637.08, 0.0000007869328, 10.00153, 9.999231 
2.1550408e+3, 2.1091314e+2, -863601.8, -1076897.4, -48794.016, -0.10243827, 0.8016439, -852969.56, 20157.484, 0.0, 10.00078, 9.997916 
2.1550944e+3, 2.2091359e+2, -838706.0, -956464.5, -73596.14, -0.12198924, 1.057468, -803334.75, -28203.973, 0.0, 10.000026, 9.998442 
2.1551497e+3, 2.3090984e+2, -659991.4, -753889.2, -63732.53, -0.048956536, 0.7900586, -627782.0, 49379.355, 0.0, 10.00031, 9.999015 
2.1552046e+3, 2.4090613e+2, -626943.56, -837025.56, -44443.29, -0.020783234, 0.5740062, -617928.4, -38736.23, 0.0, 10.00051, 9.997675 
2.1552584e+3, 2.5090516e+2, -552951.7, -837785.4, -59326.594, -0.17812335, 0.7697561, -541088.94, -59883.074, 0.0, 10.000724, 9.996891 
2.1553127e+3, 2.60904e+2, -404504.5, -651955.56, -113821.586, -0.28126583, 0.96993804, -360112.94, 23108.02, 0.0, 10.000783, 9.997473 
2.155369e+3, 2.7090055e+2, -209786.06, -427884.63, -85962.73, -0.054223508, 0.814635, -179978.1, 105274.71, 0.0, 10.00112, 9.998165 
2.1554248e+3, 2.8089696e+2, -132674.03, -373168.22, -26200.47, 0.05494832, 0.66760486, -129852.734, 57433.727, 0.000000100631844, 10.001104, 9.997885 
2.1554764e+3, 2.9089537e+2, -172825.94, -337932.03, -65829.1, -0.2591456, 0.6988058, -149792.64, -60484.043, 0.0000031808088, 10.000132, 9.997919 
2.155532e+3, 3.0089593e+2, -193688.3, -223463.81, -100031.24, -0.22797206, 0.9571194, -107443.0, -107443.0, 0.00001657147, 9.999211, 9.99883 
2.1555918e+3, 3.1089678e+2, 292013.2, 249149.6, 90636.04, 0.094177365, 1.0321739, 363716.84, 363716.84, 0.000044990633, 10.001529, 10.00093 
2.1645926e+3, 1.3085529e+2, -2044032.5, -1561839.6, 95203.945, 0.13343441, 0.80133474, -1543723.3, 113980.94, 0.45757636, 9.995608, 10.00306 
2.1646489e+3, 1.4085841e+2, -1538826.1, -1544199.0, -55829.832, -0.20979391, 0.9192322, -1485618.1, 74045.54, 0.3088363, 9.999982, 9.999919 
2.1647078e+3, 1.5085645e+2, -1548600.9, -1653090.3, -84041.51, 0.056251887, 0.8312288, -1501888.6, -40203.04, 0.17204043, 9.999842, 9.998451 
2.1647659e+3, 1.6085447e+2, -1489914.9, -1447617.9, -6036.5024, 0.30173293, 0.777945, -1446773.3, -83065.266, 0.07433442, 9.999005, 9.999612 
2.164821e+3, 1.7085576e+2, -1157879.8, -1096079.9, 26904.455, 0.114650086, 0.8413636, -1086008.4, 179685.78, 0.022589553, 10.00004, 10.000866 
2.164876e+3, 1.8085678e+2, -949904.75, -928324.7, -12745.974, -0.074261, 0.87406003, -922414.9, 245266.39, 0.00413868, 10.000721, 10.001002 
2.1649311e+3, 1.9085567e+2, -986742.0, -860926.9, -104024.6, -0.12515847, 0.6361717, -802267.6, 267417.88, 0.00045452762, 9.999662, 10.001287 
2.1649863e+3, 2.0085481e+2, -1155257.1, -1095384.1, -191641.11, -0.13473605, 0.49685815, -931355.4, 40334.32, 0.000007502901, 9.998694, 9.9994755 
2.165041e+3, 2.1085641e+2, -984265.56, -1082128.1, -160399.14, -0.093206525, 0.7950452, -865500.25, 8182.0293, 0.0, 9.999734, 9.998382 
2.1650957e+3, 2.2085716e+2, -729155.8, -895016.5, -84564.76, -0.04046764, 1.0466758, -693643.6, 82038.24, 0.0, 10.000753, 9.998507 
2.1651506e+3, 2.3085338e+2, -556243.06, -730043.0, -97611.84, -0.012674061, 0.79389423, -512453.78, 165259.7, 0.0, 10.0011425, 9.998773 
2.1652053e+3, 2.4084958e+2, -500867.75, -786818.06, -80050.695, -0.01972765, 0.59207547, -479983.2, 99762.69, 0.0, 10.001404, 9.997597 
2.165259e+3, 2.5084803e+2, -437921.13, -764270.7, -31900.72, -0.19694565, 0.72356576, -434832.1, 46932.547, 0.0, 10.001448, 9.997035 
2.1653135e+3, 2.608466e+2, -278082.63, -532408.75, -12113.606, -0.2935197, 0.8660291, -277506.94, 106274.734, 0.0, 10.001413, 9.99798 
2.1653706e+3, 2.7084476e+2, -109612.18, -287902.25, -39918.055, -0.032284845, 0.80531424, -101082.81, 184714.02, 0.0, 10.001436, 9.9989605 
2.1654265e+3, 2.808427e+2, -111921.375, -433569.44, -33414.098, 0.12730831, 0.7638944, -108486.86, 79328.97, 0.0000000029805467, 10.001538, 9.997266 
2.165477e+3, 2.9083923e+2, -51547.207, -442107.3, -98539.86, -0.23870847, 0.7569827, -28093.627, 61763.313, 0.0000013452404, 10.001698, 9.996432 
2.1655327e+3, 3.0083722e+2, 179479.34, -87462.29, -32790.22, -0.17233065, 0.8574652, 183448.17, 183448.17, 0.000010696579, 10.001927, 9.998468 
2.1655942e+3, 3.108384e+2, 326982.72, 239956.36, 25028.785, 0.19549637, 0.9708129, 333667.53, 333667.53, 0.000035610625, 10.001878, 10.000699 
2.174589e+3, 1.3080387e+2, -2091763.3, -1669008.4, 183498.53, 0.2213142, 1.5650201, -1600471.4, 57744.754, 0.48078975, 9.995961, 10.001786 
2.1746512e+3, 1.407967e+2, -1481955.9, -1450778.0, 20336.588, -0.01720845, 0.68404144, -1440742.9, 119527.76, 0.32934, 10.00012, 10.000752 
2.174707e+3, 1.5079726e+2, -1444102.9, -1430071.0, -99987.83, -0.0059810197, 0.7000256, -1336853.3, 125410.22, 0.18832743, 9.999863, 10.000079 
2.1747625e+3, 1.6079822e+2, -1426544.0, -1342105.8, -1003.80695, 0.033445146, 0.8081277, -1342093.8, 22159.3, 0.0852701, 9.9991, 10.000305 
2.1748203e+3, 1.7079774e+2, -1139261.5, -1072883.4, 80770.09, 0.008815072, 0.6621623, -1018749.3, 247504.23, 0.028395085, 10.00011, 10.000999 
2.1748772e+3, 1.807972e+2, -1016261.2, -1089328.8, -26840.947, -0.036550455, 0.56314635, -1007461.1, 160794.67, 0.006367479, 10.000821, 9.9998455 
2.1749309e+3, 1.9079815e+2, -1129950.3, -1163856.9, -150861.63, -0.11302792, 0.7180138, -995092.3, 75160.45, 0.0009868387, 9.999682, 9.999198 
2.1749848e+3, 2.0079888e+2, -1141895.9, -1064541.1, -189975.77, -0.16841194, 0.87976974, -909345.5, 62905.773, 0.000047582707, 9.998674, 9.9997 
2.175041e+3, 2.1079835e+2, -862943.94, -810780.2, -107676.54, -0.058447134, 0.80626905, -726071.75, 148184.28, 0.00000000032497088, 9.999644, 10.000291 
2.1750969e+3, 2.207975e+2, -721353.8, -839669.44, -61667.95, 0.022069102, 0.7498522, -695056.5, 81206.195, 0.0, 10.00059, 9.9989605 
2.1751511e+3, 2.3079658e+2, -620305.9, -832298.44, -78451.81, -0.06757795, 0.8205371, -594431.4, 83838.34, 0.0, 10.001017, 9.998126 
2.175205e+3, 2.4079512e+2, -504446.06, -742126.94, -79724.73, -0.1689413, 0.8867876, -480181.34, 100100.36, 0.0, 10.00119, 9.998 
2.17526e+3, 2.5079104e+2, -377524.78, -599028.1, -27877.848, -0.23043232, 0.6571561, -374070.0, 108249.13, 0.0, 10.001282, 9.998247 
2.1753152e+3, 2.6078746e+2, -275600.72, -471803.53, -21356.021, -0.26317945, 0.48226622, -273303.1, 111049.17, 0.0, 10.001184, 9.998501 
2.1753713e+3, 2.7078882e+2, -132040.88, -304687.4, -32449.844, -0.10212437, 0.7275312, -126143.22, 160197.75, 0.0, 10.001312, 9.998901 
2.175427e+3, 2.807898e+2, -215661.4, -586316.5, -39654.03, 0.017645268, 1.0339185, -211466.55, -23132.523, 0.0, 10.001287, 9.996327 
2.1754803e+3, 2.9078448e+2, -149454.52, -639460.06, -80970.3, -0.11080963, 0.9610796, -136421.34, -46030.848, 0.00000028754212, 10.001664, 9.995096 
2.1755362e+3, 3.0077735e+2, 92806.77, -176884.33, -35826.594, -0.062004875, 0.6402164, 97484.94, 97484.94, 0.0000061160813, 10.001605, 9.997977 
2.1755967e+3, 3.1077805e+2, 35018.02, -190076.86, 11648.761, 0.24080658, 0.7655428, 35619.242, 35619.242, 0.000027460846, 10.001149, 9.998085 
2.1846528e+3, 1.407395e+2, -1489467.5, -1451003.5, 70717.41, 0.17243443, 0.6194741, -1396949.6, 163878.9, 0.34983045, 10.000007, 10.000839 
2.1847086e+3, 1.5074018e+2, -1455126.4, -1457456.8, -57275.676, 0.15822577, 0.6847812, -1399004.1, 63816.3, 0.2059314, 9.999857, 9.999857 
2.184761e+3, 1.6074093e+2, -1313551.3, -1289375.6, -44518.23, -0.061102286, 0.7823908, -1255333.3, 109479.5, 0.09816949, 9.999929, 10.00031 
2.1848196e+3, 1.7074026e+2, -1234031.0, -1116096.0, 13420.302, -0.012745645, 0.6252035, -1114588.1, 152227.13, 0.036017943, 9.999468, 10.001002 
2.1848774e+3, 1.8073988e+2, -1272803.1, -1205775.0, -83639.12, 0.013781702, 0.5379869, -1149185.3, 19631.795, 0.009796201, 9.99902, 9.999912 
2.1849309e+3, 1.9074191e+2, -1147005.0, -1152068.4, -75088.266, -0.06468959, 0.789293, -1074405.8, -3601.029, 0.0020521113, 9.999485, 9.999365 
2.1849844e+3, 2.0074342e+2, -953709.44, -982269.3, 45139.348, -0.11313804, 1.0136124, -920645.1, 52151.6, 0.00020967671, 10.0000105, 9.999623 
2.1850413e+3, 2.1074137e+2, -721430.0, -777663.3, -2841.9285, -0.02934599, 0.81294966, -721286.75, 153527.47, 0.00000086887735, 10.000767, 9.99998 
2.1850976e+3, 2.2073917e+2, -639220.06, -824213.75, -105429.07, 0.026059018, 0.65247226, -591463.75, 185368.81, 0.0, 10.00124, 9.998768 
2.1851514e+3, 2.307389e+2, -675377.06, -857259.8, -125926.375, -0.10979133, 0.7978656, -610987.25, 67847.6, 0.0, 10.000643, 9.998133 
2.185205e+3, 2.4073818e+2, -644006.4, -764960.8, -77252.24, -0.21775375, 0.92677355, -606374.44, -25533.68, 0.0, 10.000034, 9.998405 
2.1852612e+3, 2.5073442e+2, -521546.72, -598026.25, -67074.586, -0.16898006, 0.669723, -482577.16, 296.1054, 0.0, 9.999973, 9.998897 
2.1853171e+3, 2.6073113e+2, -419943.16, -536072.6, -75551.83, -0.114756905, 0.47784618, -382721.0, 2180.7148, 0.0, 10.000141, 9.998581 
2.1853721e+3, 2.707321e+2, -199811.61, -378395.8, -123452.0, -0.10706801, 0.7177243, -136744.02, 150151.47, 0.0, 10.001001, 9.998562 
2.1854272e+3, 2.807326e+2, -132854.55, -516936.13, -106766.75, -0.089630984, 0.98821014, -105170.95, 83722.9, 0.0, 10.0017, 9.996619 
2.1854824e+3, 2.9072744e+2, 51085.566, -461738.06, -29421.75, -0.09702875, 0.87844217, 52768.03, 143713.19, 0.000000027227998, 10.002682, 9.995834 
2.1855393e+3, 3.007213e+2, 383545.53, -33589.027, 67734.32, 0.025748048, 0.58718383, 394268.6, 394268.6, 0.0000044959556, 10.003527, 9.998074 
2.1855971e+3, 3.107226e+2, -116493.16, -311489.84, -9849.225, 0.25942534, 0.83613706, -115996.94, -115996.94, 0.000025056414, 10.000239, 9.997722 
2.1946526e+3, 1.4068651e+2, -1509918.1, -1468602.1, -177554.75, 0.10682989, 0.7362943, -1310507.8, 250831.13, 0.371045, 10.000067, 10.000841 
2.1947117e+3, 1.5068528e+2, -1595361.5, -1762711.0, -27586.338, 0.4866468, 0.8132172, -1590931.4, -127575.94, 0.22535217, 9.999885, 9.997696 
2.194761e+3, 1.6068256e+2, -1356694.0, -1395014.9, -68521.86, -0.055621367, 0.7227835, -1304704.1, 60683.465, 0.113554515, 10.000014, 9.999507 
2.1948192e+3, 1.7068318e+2, -1252052.9, -1150347.8, -3900.3083, 0.0017069529, 0.73204774, -1150198.4, 117183.39, 0.046104282, 9.9994545, 10.000771 
2.1948762e+3, 1.8068455e+2, -1173434.1, -1008600.2, -78684.03, -0.0022610947, 0.79930717, -977071.0, 192296.5, 0.015073848, 9.999046, 10.001273 
2.1949306e+3, 1.9068696e+2, -970450.2, -785055.6, -46699.914, -0.04462985, 0.85948724, -773956.6, 297385.22, 0.004138987, 9.999484, 10.001893 
2.1949852e+3, 2.0068838e+2, -985673.25, -1042902.8, 65431.77, -0.06670987, 0.9056859, -942872.9, 30453.363, 0.00072646124, 9.999987, 9.999216 
2.1950415e+3, 2.1068528e+2, -919928.6, -1166251.8, 29149.87, -0.0773868, 0.8152262, -916526.06, -41167.51, 0.000022642807, 10.0006695, 9.9973545 
2.1950977e+3, 2.20682e+2, -723993.94, -958628.06, -112523.29, -0.10996336, 0.754388, -678754.0, 98638.91, 0.000000000011542125, 10.001058, 9.997932 
2.1951509e+3, 2.3068032e+2, -649885.1, -782513.56, -146231.02, -0.20572631, 0.7302607, -555634.5, 123774.695, 0.0, 10.000542, 9.998695 
2.1952046e+3, 2.4067885e+2, -651753.25, -730211.94, -96221.85, -0.26887664, 0.72975534, -587071.2, -5648.5557, 0.0, 9.999827, 9.998736 
2.195262e+3, 2.5067797e+2, -530723.25, -593657.2, -59411.676, -0.09029963, 0.7473382, -494959.88, -11531.487, 0.0, 9.999878, 9.998968 
2.1953188e+3, 2.6067713e+2, -486195.66, -616655.5, -54974.09, 0.039248392, 0.8069354, -466119.7, -80685.11, 0.0, 9.999916, 9.998123 
2.1953727e+3, 2.7067453e+2, -273970.84, -493012.22, -77928.516, -0.12991585, 0.7570686, -249075.63, 38385.49, 0.0, 10.000849, 9.997837 
2.1954268e+3, 2.806712e+2, -87528.484, -358982.56, -82301.57, -0.3120684, 0.6550775, -64525.008, 124969.45, 0.0, 10.001443, 9.997821 
2.1954834e+3, 2.9066828e+2, 170799.5, -146498.61, 31334.508, -0.2566015, 0.54763377, 173864.31, 265383.97, 0.000000020729713, 10.002396, 9.998138 
2.1955417e+3, 3.006678e+2, 316017.84, -14751.899, 20561.084, -0.11135295, 0.672493, 317291.06, 317291.06, 0.0000055230016, 10.002884, 9.998482 
2.1955964e+3, 3.1066844e+2, -172648.78, -316949.7, -48636.742, 0.1316239, 0.8606816, -157786.47, -157786.47, 0.000029811183, 9.9998255, 9.997849 
2.2046496e+3, 1.4063056e+2, -1689225.6, -1584275.4, -381466.75, -0.1264532, 0.71056575, -1251691.4, 310194.78, 0.39437363, 9.999023, 10.0007715 
2.2047117e+3, 1.5062912e+2, -1547338.0, -1713869.8, 14916.861, 0.5200589, 0.7780827, -1546012.5, -82107.76, 0.24751917, 10.0000925, 9.9979315 
2.2047617e+3, 1.6062659e+2, -1322188.6, -1383157.8, 73265.71, 0.031603705, 0.67235035, -1273318.5, 92614.89, 0.13222682, 10.00029, 9.999479 
2.204819e+3, 1.7062736e+2, -1257041.4, -1221542.0, 119278.27, 0.05771332, 0.7455882, -1118700.0, 149227.56, 0.059555795, 9.999692, 10.000196 
2.2048752e+3, 1.806286e+2, -1178516.0, -1032771.56, 44818.816, 0.010811109, 0.8402354, -1020092.1, 149823.64, 0.023171267, 9.999095, 10.001094 
2.2049305e+3, 1.9063006e+2, -871249.8, -743673.0, -84493.734, -0.039297774, 0.81340617, -701592.9, 370304.44, 0.008108057, 10.000182, 10.001867 
2.2049856e+3, 2.0063072e+2, -849242.94, -1001527.25, -126160.234, -0.04131417, 0.7949485, -778028.3, 195859.56, 0.0021629941, 10.001022, 9.99901 
2.2050422e+3, 2.1062808e+2, -1027030.7, -1252104.1, -52075.26, -0.025766036, 0.7809191, -1015566.06, -139649.06, 0.00023583506, 10.0000725, 9.997058 
2.2050984e+3, 2.2062513e+2, -1010506.94, -1101986.5, -38358.38, -0.026566908, 0.77886283, -996551.75, -218602.52, 0.0000019906881, 9.999111, 9.997887 
2.2051512e+3, 2.306231e+2, -816334.9, -855388.7, -101866.82, -0.15680882, 0.7127028, -732140.25, -52170.504, 0.0, 9.999351, 9.998782 
2.2052045e+3, 2.4062131e+2, -645594.06, -691944.2, -58978.07, -0.23650816, 0.6707255, -605401.2, -23414.547, 0.0, 9.9997015, 9.999066 
2.205262e+3, 2.5062153e+2, -459304.84, -480364.44, -6353.9565, -0.06200064, 0.73639154, -457536.28, 26443.844, 0.0, 10.000068, 9.999629 
2.2053194e+3, 2.6062158e+2, -413964.9, -584901.2, 52856.164, 0.0957163, 0.8379441, -398941.38, -12965.74, 0.0, 10.00041, 9.998113 
2.2053745e+3, 2.7061778e+2, -330615.25, -577783.1, 48509.74, -0.02295952, 0.70963603, -321435.53, -33421.242, 0.0, 10.00069, 9.99734 
2.2054292e+3, 2.8061366e+2, -147894.88, -306592.22, 43277.082, -0.1644941, 0.5289449, -136860.38, 53195.844, 0.0, 10.00069, 9.998539 
2.2054847e+3, 2.9061243e+2, -74583.41, -108692.51, 63950.473, -0.24511202, 0.47259954, -25452.455, 66611.2, 0.00000007580395, 10.000046, 9.999529 
2.205542e+3, 3.0061424e+2, -138453.58, -275089.25, 16103.056, -0.1742055, 0.74400973, -136581.42, -136581.42, 0.0000083740215, 9.99989, 9.998162 
2.2055976e+3, 3.1061256e+2, 207893.39, -69894.64, -189838.27, 0.17453516, 0.8017707, 304222.9, 304222.9, 0.000042885644, 10.002127, 9.998452 
2.2146457e+3, 1.4057282e+2, -1676703.3, -1567567.8, -286853.0, -0.45340753, 0.70049477, -1330138.5, 232321.72, 0.4221777, 9.9989805, 10.000806 
2.2147082e+3, 1.505711e+2, -1386009.0, -1348078.0, 36367.145, 0.17102197, 0.54520565, -1326028.1, 138446.25, 0.27423543, 10.000047, 10.00077 
2.2147629e+3, 1.6057286e+2, -1258407.0, -1253531.8, 54092.914, 0.09160889, 0.6298531, -1201821.5, 164629.56, 0.15564767, 10.000322, 10.000463 
2.214819e+3, 1.7057292e+2, -1310227.3, -1334492.6, 98396.305, 0.08137397, 0.6718587, -1223218.5, 45232.316, 0.07778218, 9.9997015, 9.999391 
2.214874e+3, 1.8057205e+2, -1297548.6, -1295932.6, 54692.01, -0.03528075, 0.6665534, -1242042.6, -71582.01, 0.035576556, 9.999166, 9.999236 
2.2149298e+3, 1.9057116e+2, -1064585.9, -1139835.1, -32968.84, -0.111387834, 0.65539527, -1052185.0, 20287.156, 0.0154146915, 10.00016, 9.999138 
2.2149858e+3, 2.005703e+2, -858788.75, -1013106.6, -133556.55, -0.12576403, 0.6825076, -781704.9, 192778.2, 0.005714695, 10.00099, 9.998947 
2.2150432e+3, 2.1056955e+2, -895439.7, -962697.56, -90457.95, 0.052903295, 0.7029256, -832561.94, 43929.305, 0.0013616167, 9.999999, 9.999079 
2.2150993e+3, 2.2056861e+2, -991177.8, -1023048.1, -54269.91, 0.17292209, 0.74142694, -950551.9, -172050.81, 0.00013056793, 9.998944, 9.998508 
2.2151518e+3, 2.3056701e+2, -859776.0, -926110.94, -79570.15, -0.030505104, 0.73461676, -806737.4, -126218.33, 0.0000045921656, 9.99926, 9.998342 
2.2152044e+3, 2.4056533e+2, -659973.25, -666741.94, -52643.37, -0.22275168, 0.7319334, -610605.56, -28069.902, 0.000000030624218, 9.999482, 9.999336 
2.2152612e+3, 2.5056484e+2, -409873.06, -341824.0, 10490.642, -0.14056024, 0.64281654, -340243.47, 144287.52, 0.0, 9.999918, 10.00065 
2.2153185e+3, 2.605643e+2, -424709.88, -541446.4, 48538.313, -0.023776976, 0.594773, -407164.88, -20636.76, 0.0, 10.000146, 9.998531 
2.2153766e+3, 2.705617e+2, -372557.63, -621692.8, 58531.29, 0.12069647, 0.58553356, -359491.66, -70933.88, 0.0, 10.000513, 9.997119 
2.2154334e+3, 2.805592e+2, -186582.28, -313636.84, 20770.775, 0.16498616, 0.58557624, -183272.89, 7313.752, 0.0, 10.000397, 9.998618 
2.2154854e+3, 2.905591e+2, -68626.12, -75506.555, 44238.766, -0.16820213, 0.6057952, -27694.008, 64890.63, 0.00000027397763, 9.999972, 9.999779 
2.2155406e+3, 3.0055994e+2, -240095.27, -411895.22, 45592.484, -0.32761246, 0.8042094, -228745.67, -228745.67, 0.000015050563, 9.9996195, 9.997328 
2.215598e+3, 3.1055465e+2, 126056.22, -63250.14, -124311.29, -0.051478293, 0.5857439, 187648.11, 187648.11, 0.00007034586, 10.001437, 9.998799 
2.2246562e+3, 1.4051756e+2, -1764750.3, -2065783.0, -24904.352, 0.62433326, 0.81841964, -1762703.9, -199697.95, 0.45833316, 10.000102, 9.996143 
2.2247066e+3, 1.5051666e+2, -1367809.9, -1261566.1, 55628.867, 0.022586694, 0.6349265, -1237769.3, 227241.19, 0.30885017, 9.999752, 10.0018215 
2.2247644e+3, 1.6051795e+2, -1218703.0, -1251353.9, -21130.73, 0.22031112, 0.61362493, -1208325.9, 158661.53, 0.18666483, 10.000773, 10.000288 
2.224819e+3, 1.70517e+2, -1162564.9, -1334305.5, -45817.184, 0.063479505, 0.6143042, -1151106.3, 117890.87, 0.103338934, 10.001142, 9.998681 
2.2248726e+3, 1.8051524e+2, -1096911.8, -1287445.6, -48816.39, -0.16072744, 0.5969668, -1085132.8, 85883.9, 0.054786276, 10.000954, 9.9984455 
2.2249302e+3, 1.905141e+2, -1095216.9, -1242647.5, -1797.0575, -0.07278555, 0.6409559, -1095195.0, -22162.152, 0.028543482, 10.000302, 9.998366 
2.2249877e+3, 2.005132e+2, -1045198.9, -1094981.8, 7727.579, 0.069567144, 0.71058136, -1044026.94, -68980.9, 0.013685946, 9.999669, 9.999015 
2.2250432e+3, 2.1051282e+2, -882072.1, -880850.44, -54928.65, 0.0989692, 0.71410114, -826529.25, 50519.85, 0.005262215, 9.999771, 9.999752 
2.2250979e+3, 2.2051226e+2, -800189.4, -900792.2, -63177.67, 0.08713881, 0.73238117, -769734.06, 9319.969, 0.001420654, 10.000107, 9.9987955 
2.2251517e+3, 2.3051123e+2, -637640.75, -812786.4, -60146.17, -0.035618458, 0.7768739, -618975.4, 62090.832, 0.0002619265, 10.00075, 9.998406 
2.2252053e+3, 2.4050991e+2, -435677.0, -583951.0, -26801.885, -0.13173048, 0.8135587, -430981.03, 152098.7, 0.000035642544, 10.001112, 9.999132 
2.2252612e+3, 2.5050843e+2, -414031.03, -383854.34, -65518.977, -0.10994096, 0.6561954, -331708.8, 153377.1, 0.0000011567587, 10.000024, 10.000338 
2.2253177e+3, 2.6050702e+2, -596479.2, -586198.0, -67903.81, -0.055732295, 0.53681743, -523240.47, -136148.23, 0.0, 9.998806, 9.998865 
2.2253758e+3, 2.7050596e+2, -455711.8, -570409.06, -9307.393, 0.060369547, 0.61756223, -454961.44, -165855.39, 0.0, 9.999579, 9.9979105 
2.2254333e+3, 2.805052e+2, -136252.66, -292937.72, 468.54657, 0.14465389, 0.7357131, -136251.25, 54865.89, 0.0, 10.000736, 9.998612 
2.2254866e+3, 2.905038e+2, 101156.29, -72248.61, -66144.555, -0.10562858, 0.68833447, 123506.195, 216636.13, 0.00000073017384, 10.001481, 9.999074 
2.2255418e+3, 3.0050257e+2, 36172.742, -232076.14, -51517.12, -0.23363051, 0.70178175, 45726.344, 45726.344, 0.00002755439, 10.001292, 9.997771 
2.2255981e+3, 3.1049812e+2, 144725.94, 83604.93, -121546.57, -0.12874119, 0.4957326, 239495.05, 239495.05, 0.000118261974, 10.000906, 10.000096 
2.234706e+3, 1.5046698e+2, -1421852.1, -1337974.4, 48218.957, 0.005033915, 1.1822921, -1316007.6, 149494.28, 0.35698506, 9.999576, 10.001207 
2.2347668e+3, 1.604616e+2, -1323462.5, -1469838.4, -3342.7686, 0.35037884, 0.61053526, -1323386.3, 44158.78, 0.23053116, 10.000697, 9.998646 
2.2348191e+3, 1.704592e+2, -1221470.8, -1452791.3, -38114.934, -0.058954492, 0.5542481, -1215352.3, 54218.52, 0.14104874, 10.001082, 9.997893 
2.2348706e+3, 1.8045789e+2, -1078577.5, -1239795.6, -67717.625, -0.4773512, 0.6202759, -1053908.4, 117678.84, 0.08532412, 10.000957, 9.998774 
2.2349314e+3, 1.9045882e+2, -1010020.94, -1054250.5, -25228.365, 0.010649958, 0.76677346, -998586.75, 74993.97, 0.05187056, 10.000277, 9.9996805 
2.2349915e+3, 2.0045958e+2, -1042095.75, -1070003.9, -5010.197, 0.45675856, 0.90135145, -1041223.56, -65648.28, 0.030293982, 9.999595, 9.99922 
2.2350428e+3, 2.1045777e+2, -945877.7, -990097.1, -41421.152, 0.05646146, 0.81098604, -921034.75, -43443.004, 0.015773455, 9.99967, 9.999051 
2.2350936e+3, 2.2045581e+2, -840218.0, -926831.75, -49754.75, -0.3638646, 0.7445546, -817562.6, -37952.547, 0.0069356123, 9.999875, 9.998719 
2.2351502e+3, 2.3045555e+2, -615243.5, -740788.0, -28272.56, -0.24153486, 0.82110846, -609170.3, 72443.23, 0.002541045, 10.00064, 9.998949 
2.235207e+3, 2.4045493e+2, -520177.75, -698761.3, -49410.5, -0.07214488, 0.9109744, -507418.47, 76201.9, 0.00075579167, 10.000865, 9.998456 
2.2352616e+3, 2.504523e+2, -537847.8, -608534.75, -108137.234, -0.055504467, 0.76406765, -459424.75, 26218.963, 0.00014769337, 9.999884, 9.998859 
2.2353157e+3, 2.6044983e+2, -642780.44, -609614.8, -86546.82, -0.123811595, 0.65114623, -538076.44, -150410.69, 0.000007045108, 9.998523, 9.998825 
2.2353724e+3, 2.7045035e+2, -383709.8, -377522.7, 41011.414, -0.24313061, 0.77956307, -339488.3, -49828.168, 0.00000000065814787, 9.999404, 9.999307 
2.2354299e+3, 2.804512e+2, -203904.95, -341239.47, 26943.834, -0.28403994, 0.9475054, -198807.97, -7156.039, 0.0, 10.000369, 9.998441 
2.2354876e+3, 2.9044697e+2, -64454.457, -339325.56, -34074.582, -0.14688405, 0.7391744, -60293.37, 33401.04, 0.0000012574419, 10.001171, 9.9973755 
2.2355442e+3, 3.0044207e+2, 26277.621, -107664.18, -78474.39, -0.14043316, 0.4601894, 62473.242, 62473.242, 0.000044073433, 10.000726, 9.998871 
2.2355996e+3, 3.1044608e+2, 119489.22, 208558.08, 46596.902, -0.08353187, 0.86273575, 228479.73, 228479.73, 0.00018419352, 10.0002165, 10.001263 
2.2447039e+3, 1.504054e+2, -1710049.5, -1414750.3, -102735.1, -0.088372014, 0.8787956, -1382525.1, 83589.45, 0.42759266, 9.997252, 10.001627 
2.2447671e+3, 1.6040485e+2, -1381381.8, -1404286.3, -82236.46, 0.38196227, 0.73171175, -1309804.0, 58305.023, 0.29616648, 9.999842, 9.999594 
2.2448196e+3, 1.7040409e+2, -1349281.9, -1394228.9, -37458.9, -0.013848769, 0.737146, -1328072.1, -57955.605, 0.19952731, 9.999623, 9.99899 
2.2448716e+3, 1.8040363e+2, -1313295.5, -1317972.6, 54747.164, -0.34928426, 0.7959582, -1260837.0, -88714.055, 0.13536815, 9.999095, 9.999128 
2.2449324e+3, 1.9040376e+2, -1008705.44, -1072155.1, 6640.053, 0.092747234, 0.8685174, -1008018.0, 66106.48, 0.09319166, 10.000384, 9.9995165 
2.2449923e+3, 2.0040374e+2, -771874.1, -968092.0, -60233.305, 0.4906893, 0.9429454, -754859.56, 221267.72, 0.06306426, 10.001642, 9.998976 
2.2450435e+3, 2.1040191e+2, -761651.3, -938938.56, -108973.75, 0.1315946, 0.8874262, -709820.9, 168323.83, 0.0400799, 10.001112, 9.998743 
2.2450945e+3, 2.2039986e+2, -737948.5, -860615.25, -65688.62, -0.25464576, 0.83580464, -709411.0, 70752.734, 0.023131557, 10.000488, 9.998895 
2.2451504e+3, 2.3039915e+2, -707490.1, -722461.4, -56230.336, -0.22544177, 0.81676453, -658249.3, 23920.604, 0.011994159, 9.999726, 9.999518 
2.2452062e+3, 2.4039839e+2, -758181.94, -825575.56, -58296.2, -0.12343742, 0.8623112, -724544.4, -140367.56, 0.0054928027, 9.999269, 9.998356 
2.2452617e+3, 2.5039726e+2, -531265.9, -651187.7, -68953.7, -0.053329457, 0.90357727, -499848.88, -13660.465, 0.002050329, 10.000128, 9.9984455 
2.2453159e+3, 2.6039538e+2, -360548.4, -498088.2, 5102.8545, -0.029205654, 0.8911002, -360359.38, 27847.865, 0.0004876709, 10.000536, 9.998637 
2.2453721e+3, 2.703934e+2, -279514.8, -300612.84, 76149.04, -0.22387077, 0.7560295, -213187.58, 77035.766, 0.000047167257, 9.999995, 9.999561 
2.2454284e+3, 2.8039324e+2, -384704.75, -388367.1, 27512.463, -0.36178687, 0.79183966, -358962.6, -166741.03, 0.00000034188096, 9.998958, 9.9987955 
2.2454876e+3, 2.9039228e+2, -226522.03, -385422.16, 53055.008, -0.18292333, 0.8976625, -210435.98, -116204.16, 0.0000013302117, 9.999912, 9.997674 
2.2455469e+3, 3.003871e+2, 171055.44, 47589.53, 114149.81, 0.06269807, 0.5093758, 239095.89, 239095.89, 0.0000584347, 10.001303, 9.999672 
2.2456005e+3, 3.103917e+2, 314046.2, 197726.25, 57543.89, -0.07774861, 0.94372934, 337702.34, 337702.34, 0.00025945, 10.001924, 10.000369 
2.2547644e+3, 1.603474e+2, -1271269.5, -1135020.6, -42701.996, 0.08492606, 0.9880548, -1122743.5, 245938.2, 0.39765337, 9.999483, 10.002594 
2.2548208e+3, 1.7035156e+2, -1178594.6, -1041195.25, -61302.04, 0.13581336, 1.1661407, -1017821.1, 252814.02, 0.29298013, 9.999539, 10.00211 
2.2548762e+3, 1.8035239e+2, -1328618.9, -1290589.6, 47757.063, 0.16499785, 1.122251, -1258201.0, -85576.78, 0.21888196, 9.99885, 9.999422 
2.2549328e+3, 1.9034854e+2, -1155051.4, -1350859.6, 64868.3, 0.10589144, 0.92272335, -1135511.5, -60843.555, 0.16615056, 10.000216, 9.997675 
2.2549894e+3, 2.0034517e+2, -850971.06, -1087934.9, -51023.47, 0.04582629, 0.8046635, -840451.56, 136255.5, 0.12546477, 10.001499, 9.998207 
2.2550455e+3, 2.103449e+2, -777470.2, -939955.56, -126598.15, 0.21900912, 0.91431296, -708288.6, 170422.02, 0.0914258, 10.001032, 9.998782 
2.2551006e+3, 2.2034438e+2, -749834.6, -835534.7, -89139.0, 0.29123652, 1.0043647, -693781.2, 86933.98, 0.062582165, 10.000292, 9.999172 
2.2551519e+3, 2.3034208e+2, -686819.4, -655268.8, -75523.6, -0.043531716, 0.77349347, -593890.5, 88844.04, 0.039919913, 9.999604, 10.000062 
2.2552031e+3, 2.4034044e+2, -802047.7, -815802.6, -62674.95, -0.38077754, 0.69640476, -745874.0, -161126.27, 0.023601582, 9.998858, 9.99861 
2.2552605e+3, 2.503431e+2, -525425.2, -592161.2, -29525.691, -0.18400905, 1.0622903, -514237.72, -27515.285, 0.012405956, 9.999944, 9.998926 
2.2553179e+3, 2.6034307e+2, -438225.75, -584977.25, -23890.857, 0.098879814, 1.2259371, -434434.3, -45711.02, 0.005154125, 10.000233, 9.998181 
2.255374e+3, 2.7033526e+2, -371102.97, -429350.53, 48647.06, -0.012638446, 0.56841856, -343528.16, -52733.98, 0.0013586987, 9.999741, 9.998794 
2.2554283e+3, 2.8033188e+2, -431397.53, -364133.47, 649.73444, -0.28208208, 0.327176, -364127.2, -171305.53, 0.00015517221, 9.998485, 9.999166 
2.2554864e+3, 2.9033923e+2, -142283.9, -138758.22, 102382.07, -0.2980362, 1.1391796, -38123.82, 56624.47, 0.0000026982873, 9.999672, 9.999448 
2.2555496e+3, 3.0033633e+2, 150655.55, 96477.516, 133827.44, 0.16548674, 0.7925236, 260108.1, 260108.1, 0.000065484004, 10.00096, 10.00015 
2.2555989e+3, 3.1033272e+2, 19877.875, -283774.06, 162864.97, -0.45959818, 0.5369323, 90708.87, 90708.87, 0.00034262822, 10.0014, 9.997312 
2.26482e+3, 1.7028834e+2, -1228833.6, -1326220.9, -47317.168, 0.0919626, 0.50210273, -1209630.4, 61624.76, 0.44342524, 10.000308, 9.999308 
2.2648728e+3, 1.8029042e+2, -1282670.8, -1414918.5, -212967.7, -0.10715463, 0.7215319, -1125797.8, 47438.477, 0.3585124, 9.999811, 9.998192 
2.2649306e+3, 1.9028994e+2, -1231472.6, -1224259.1, -61234.09, -0.05156728, 0.8170545, -1166525.8, -91278.82, 0.29413474, 9.999025, 9.999072 
2.2649893e+3, 2.0028992e+2, -1102905.1, -1082794.1, 45251.27, 0.010914692, 0.88376987, -1046494.6, -69242.1, 0.24160613, 9.998991, 9.999454 
2.265044e+3, 2.1028997e+2, -1073066.5, -1026862.94, -17767.146, 0.10583932, 0.9528091, -1020820.9, -141570.8, 0.1940874, 9.998599, 9.999347 
2.2650988e+3, 2.2028923e+2, -989226.7, -982017.5, 78338.664, 0.19586521, 0.97873735, -907200.5, -125946.57, 0.14888066, 9.998695, 9.99894 
2.2651519e+3, 2.3028685e+2, -672190.8, -741513.7, -2074.1255, -0.013174916, 0.8239793, -672128.75, 11145.12, 0.108788945, 10.000099, 9.9992285 
2.2652048e+3, 2.402849e+2, -402048.8, -632616.6, -28327.662, -0.23287883, 0.773156, -398619.47, 186670.83, 0.07581198, 10.001679, 9.9985485 
2.265262e+3, 2.5028616e+2, -321825.2, -512371.53, -56149.117, -0.07971626, 1.0007848, -306510.38, 180769.38, 0.048806984, 10.00138, 9.998853 
2.2653182e+3, 2.6028508e+2, -398031.1, -594834.5, -91142.23, 0.118717745, 1.0971923, -362306.75, 26985.207, 0.026684597, 10.000583, 9.99796 
2.2653753e+3, 2.7027905e+2, -116698.39, -265817.0, 29145.02, 0.09107633, 0.59411776, -111204.445, 180141.53, 0.010897145, 10.001251, 9.999219 
2.26543e+3, 2.8027713e+2, -198440.94, -265181.7, 32897.207, -0.027816948, 0.47185493, -184951.86, 8408.41, 0.002788968, 10.000106, 9.9990835 
2.2654873e+3, 2.9028267e+2, 83143.32, -78764.266, 94144.766, -0.2328728, 1.1494058, 126353.74, 221660.34, 0.0003034348, 10.001428, 9.999021 
2.2655497e+3, 3.002789e+2, 469201.56, 278722.3, -18667.383, -0.010193413, 0.70375186, 471013.78, 471013.78, 0.000074942734, 10.00306, 10.000395 
2.2656018e+3, 3.1027684e+2, 59998.324, -267518.25, -72118.16, -0.30729398, 0.6855096, 75175.234, 75175.234, 0.00045627946, 10.001619, 9.997371 
2.2749944e+3, 2.0023833e+2, -917120.5, -810936.56, 35607.965, 0.5956356, 1.2392509, -800101.3, 177659.0, 0.4526298, 9.999349, 10.002062 
2.2750452e+3, 2.1023652e+2, -902018.9, -854029.44, 53161.465, 0.33819243, 0.96075267, -819698.44, 60070.426, 0.38963944, 9.999355, 10.000332 
2.2750957e+3, 2.2023371e+2, -1244449.4, -1223103.0, 198277.84, -0.016406747, 0.7142444, -1035211.3, -253423.83, 0.32267725, 9.997462, 9.997855 
2.2751524e+3, 2.3023194e+2, -1045898.44, -1174042.3, 108255.63, 0.011278342, 0.8028811, -984174.9, -300371.63, 0.25840095, 9.998624, 9.996933 
2.2752106e+3, 2.4023026e+2, -565968.9, -844249.8, 459.21762, 0.13544664, 0.95869666, -565968.1, 19851.902, 0.20062341, 10.001053, 9.997373 
2.275266e+3, 2.5022662e+2, -435543.8, -626276.6, -69958.03, 0.17458114, 0.7091664, -412635.63, 75223.516, 0.14660953, 10.000903, 9.99827 
2.2753172e+3, 2.602225e+2, -635810.56, -789395.06, -118791.734, -0.06345092, 0.59968203, -571151.3, -181249.0, 0.09444842, 9.999331, 9.99719 
2.275376e+3, 2.7022508e+2, -97710.64, -95213.24, 40244.832, 0.024850523, 0.8396798, -56197.746, 235677.95, 0.04983968, 10.000755, 10.000662 
2.2754328e+3, 2.8022817e+2, -338158.38, -399485.44, -44482.76, 0.23256937, 1.1330551, -314794.44, -120950.055, 0.019500945, 9.999486, 9.998428 
2.2754897e+3, 2.902235e+2, -162871.81, -462724.8, 152365.69, -0.1287909, 0.95835865, -99038.49, -3143.034, 0.004786881, 10.000916, 9.996609 
2.2755466e+3, 3.0021715e+2, 270368.1, 136635.1, -56082.5, -0.64933926, 0.42553315, 290773.44, 290773.44, 0.0007184054, 10.0019865, 9.999892 
2.2756062e+3, 3.102243e+2, 59680.4, -48239.367, -223122.47, -0.056950323, 1.2647272, 235275.1, 235275.1, 0.0007782504, 10.000897, 9.999122 
2.2852087e+3, 2.4016657e+2, -372170.47, -128686.23, 7770.1694, -0.13821526, 0.47267443, -128438.51, 458004.38, 0.45869297, 9.99907, 10.006283 
2.2852588e+3, 2.5017184e+2, -716888.5, -808379.06, -374058.6, -0.5343782, 1.0344507, -385788.38, 102604.9, 0.36361384, 9.99923, 9.998093 
2.2853173e+3, 2.601652e+2, -1292598.3, -1050392.4, -118830.4, 0.26082373, 0.6633025, -1001829.25, -611367.06, 0.26167566, 9.994383, 9.997867 
2.2853774e+3, 2.7016762e+2, -152507.13, -230194.95, 87434.945, 0.122018255, 0.92994195, -95675.96, 196763.27, 0.1640845, 10.0008335, 9.999822 
2.2854316e+3, 2.8016844e+2, 216502.2, -141975.81, -282640.75, -0.017778512, 1.1011531, 371945.75, 566378.3, 0.0825175, 10.003564, 9.99835 
2.2854929e+3, 2.901641e+2, -92134.43, -296566.66, 107195.766, 0.1396299, 0.8574796, -46232.12, 50251.41, 0.030766608, 10.000734, 9.997894 
2.2855513e+3, 3.0016333e+2, -453441.5, -139749.95, 153103.05, -0.07495843, 0.7890876, -77412.836, -77412.836, 0.009049927, 9.996568, 10.000648 
2.285603e+3, 3.101647e+2, 517611.3, 650122.44, -4843.5166, -0.5005252, 0.95588505, 650299.25, 650299.25, 0.0039611934, 10.00188, 10.00349 
2.2953793e+3, 2.7010614e+2, -21108.941, -372515.03, 135285.9, 0.21826537, 0.76331013, 24939.764, 317982.06, 0.4346357, 10.00426, 9.997228 
2.2954255e+3, 2.8010052e+2, -540823.1, -632241.4, -516851.7, -1.0318869, 0.4871394, -67663.305, 127436.26, 0.25417143, 9.998849, 9.997224 
2.2954963e+3, 2.9010662e+2, 20939.77, 238529.98, -34966.402, 0.3976363, 0.86397254, 244010.97, 341061.06, 0.12171163, 9.999535, 10.002347 
2.2955613e+3, 3.001173e+2, -1019220.7, -345276.88, 52392.25, 1.2151974, 1.6252682, -341228.25, -341228.25, 0.05377285, 9.992562, 10.001063 
2.2955969e+3, 3.1010053e+2, 797023.75, 1442897.3, 290514.7, -1.3990009, -0.1620974, 1554341.6, 1554341.6, 0.030886741, 10.0012, 10.009459 
2.3055056e+3, 2.90062e+2, -417721.84, -1037214.3, -298815.22, 0.9479397, 1.6413112, -297080.75, -199580.95, 0.35973194, 10.000695, 9.993098 
2.3055315e+3, 3.0005372e+2, -363472.44, -708195.56, -396052.9, -1.7789558, 1.076997, -103900.66, -103900.66, 0.21195602, 9.999657, 9.995248 
2.305618e+3, 3.1004786e+2, 292251.88, -1169202.9, 3797.866, 0.21046513, 1.9741908, 292261.75, 292261.75, 0.16235144, 10.007651, 9.988646 
2.3519944e+3, 2.7506056e+2, -1338065.3, -1412210.8, 44599.895, 0.106430836, 0.2436295, -1317142.0, -1072773.0, 0.44822308, 9.994544, 9.993873 
2.3515362e+3, 2.8503188e+2, 695354.8, -486741.56, -195759.77, -1.3296311, -1.0441443, 726930.0, 873596.56, 0.34997207, 10.011954, 9.991542 
2.3511305e+3, 2.95032e+2, 545261.06, 101201.71, 791366.5, 0.28091973, -0.106168345, 1145154.8, 1193825.0, 0.2714495, 10.006617, 9.998516 
2.3507173e+3, 3.0502507e+2, -678784.7, 530209.44, -325590.47, -0.019677656, 0.18705986, 612316.94, 612316.94, 0.21591641, 9.99224, 10.008427 
2.3661748e+3, 1.755967e+2, -1901418.5, -1868977.9, 292081.97, 0.34545204, 0.24023068, -1592666.3, -373548.88, 0.43640602, 9.996046, 9.996799 
2.3657563e+3, 1.8557213e+2, -543811.9, -958958.3, 104822.27, 0.20773374, -0.9849837, -518846.2, 602516.56, 0.3775988, 10.006813, 9.997727 
2.3653299e+3, 1.9556624e+2, -973405.9, -1170229.8, 42912.457, -0.16912602, -0.5806506, -964456.8, 58957.715, 0.33353588, 10.000844, 9.997861 
2.3649108e+3, 2.0556068e+2, -446594.2, -861673.8, -1440.0399, -0.6552347, -0.03245988, -446589.2, 478877.8, 0.30097756, 10.0052185, 9.997368 
2.364513e+3, 2.1554579e+2, -585808.5, -953767.25, -42015.004, 0.6512479, -0.48199293, -581072.0, 246542.64, 0.27814138, 10.002841, 9.997153 
2.3640858e+3, 2.255357e+2, 151739.78, -1005200.56, -60970.254, -0.44658008, -0.10611057, 154944.02, 884661.4, 0.26103863, 10.011269, 9.992016 
2.3636694e+3, 2.3551787e+2, 575090.06, -610762.44, 39141.95, -0.011774521, -0.31573007, 576380.6, 1208279.4, 0.24561448, 10.013525, 9.993064 
2.363253e+3, 2.4550356e+2, 362805.53, -223132.58, 278928.97, 0.82160467, -0.41912004, 474351.3, 1008389.9, 0.23007867, 10.007983, 9.998314 
2.3628211e+3, 2.5549275e+2, -1020442.1, -619848.75, 427039.38, -0.18258774, -0.40345344, -348466.1, 87669.86, 0.20982312, 9.994856, 10.000729 
2.3623884e+3, 2.654889e+2, -742107.2, 131606.9, -57773.09, -0.87483054, -0.41564584, 135410.52, 473581.25, 0.1745443, 9.993044, 10.006794 
2.3619817e+3, 2.7548462e+2, -853539.8, -780956.4, 171402.77, 0.18258734, -0.31348684, -642045.4, -401829.25, 0.12466185, 9.996341, 9.997408 
2.3615493e+3, 2.8547135e+2, 210310.05, -894941.4, -451851.1, -0.12549683, -0.16367899, 371522.25, 513870.44, 0.08151393, 10.005984, 9.99146 
2.3611087e+3, 2.9545918e+2, 101144.41, -361465.6, 328791.4, -1.6670256, -0.13721603, 271841.63, 316309.47, 0.054547206, 10.002657, 9.99627 
2.3607099e+3, 3.0543795e+2, -351878.44, -844500.4, -493810.22, 0.7436809, -0.6725213, -46358.25, -46358.25, 0.03846222, 10.00074, 9.9939375 
2.377008e+3, 1.5601517e+2, -1432088.5, -1572019.5, 78898.97, 1.0041022, -1.2073876, -1396601.5, 14394.14, 0.40915954, 9.999865, 9.99835 
2.3765732e+3, 1.6600755e+2, -414062.25, -742194.9, 134825.97, -0.8043151, -1.1267667, -365770.84, 947305.1, 0.31914017, 10.007722, 10.001366 
2.3761716e+3, 1.7601082e+2, -554357.75, -817422.5, 137995.64, 0.27382034, -0.11603639, -495250.25, 719795.75, 0.25440004, 10.005032, 10.000656 
2.3757544e+3, 1.8600185e+2, -887098.5, -1277228.6, -179635.05, 0.59041244, 0.016424462, -816986.0, 300152.9, 0.20803122, 10.002837, 9.996975 
2.3753281e+3, 1.9598977e+2, -1103944.4, -1414246.3, -193882.0, 0.46497637, -0.032606844, -1010776.94, 8486.232, 0.17323056, 10.0003195, 9.996581 
2.374908e+3, 2.0597443e+2, -1586799.6, -1783379.8, 87550.92, 0.1887946, -0.26286104, -1553461.0, -632042.56, 0.14628343, 9.99714, 9.994873 
2.3744924e+3, 2.1595734e+2, -1850651.1, -1754626.3, -66809.99, 0.01897518, -0.648833, -1720366.1, -896775.7, 0.1255341, 9.994212, 9.995815 
2.3740737e+3, 2.2594737e+2, -1722403.1, -1336377.6, -89799.914, -0.16938294, -0.5359019, -1316510.3, -590821.7, 0.10829949, 9.993134, 9.998519 
2.3736508e+3, 2.3594002e+2, -1453438.8, -1123553.3, 52738.582, -0.5472075, -0.21741343, -1115327.1, -487567.66, 0.09199208, 9.994184, 9.998794 
2.3732261e+3, 2.4593085e+2, -909389.75, -685033.8, -14970.258, -0.6931285, -0.21684031, -684039.3, -154190.78, 0.07586676, 9.996652, 9.999979 
2.3728064e+3, 2.5591922e+2, -678630.2, -770314.5, 30573.883, -0.5424896, -0.3423451, -669370.06, -237408.4, 0.059159193, 9.998758, 9.997635 
2.3723842e+3, 2.6591036e+2, -18919.037, -47062.063, -147521.66, -0.3460195, -0.32835472, 115200.7, 449248.84, 0.040411934, 10.001014, 10.000991 
2.3719685e+3, 2.759026e+2, -413504.66, -576680.4, 100063.6, -0.14622605, -0.21719486, -365982.84, -129858.15, 0.021717502, 9.999607, 9.997112 
2.3715423e+3, 2.8589073e+2, -200090.13, -552298.25, -306475.97, -0.17487456, -0.16249093, -22725.453, 115513.01, 0.009484826, 10.001008, 9.995888 
2.3711152e+3, 2.95878e+2, 96163.42, 11144.131, 282944.84, -0.34197506, -0.46237826, 339774.13, 380132.16, 0.0043225884, 10.001175, 9.99926 
2.3707041e+3, 3.05863e+2, 692198.94, -186054.5, 5147.251, 0.5349428, -0.57181895, 692229.1, 692229.1, 0.0025060344, 10.007327, 9.994953 
2.387415e+3, 1.4646028e+2, -1586889.3, -1982176.3, 151891.22, 1.0055823, -0.08796823, -1535266.0, -30625.814, 0.38967866, 10.00097, 9.99557 
2.386992e+3, 1.5644298e+2, -1375820.1, -1861331.1, 208233.08, 0.04975684, -0.5501257, -1298745.6, 108069.93, 0.2783623, 10.00203, 9.995388 
2.3865728e+3, 1.6643001e+2, -1107804.0, -1035296.2, 235543.88, -0.40295714, -0.8418952, -833232.56, 475708.56, 0.19862524, 10.000368, 10.001529 
2.3861568e+3, 1.7642483e+2, -1438421.0, -1241518.5, 123829.46, -0.52769274, -0.66476065, -1181772.4, 29213.861, 0.1461588, 9.9976015, 10.000393 
2.3857361e+3, 1.8641716e+2, -1392898.9, -1678329.0, -163699.83, -0.50725067, -0.3364801, -1318438.4, -205372.56, 0.11113541, 9.999493, 9.995751 
2.3853137e+3, 1.9640593e+2, -746691.3, -1342952.1, -135722.06, -0.3194141, -0.19513452, -717251.5, 297934.2, 0.08556882, 10.003484, 9.995535 
2.3848975e+3, 2.063923e+2, -783978.6, -1346098.9, 168136.44, -0.04573434, -0.23915108, -737525.9, 179801.05, 0.065839775, 10.002639, 9.995197 
2.3844825e+3, 2.163766e+2, -1135107.1, -1403911.6, 194567.84, 0.13982111, -0.46374956, -1033033.94, -213546.9, 0.050802168, 9.999155, 9.995835 
2.3840638e+3, 2.2636788e+2, -899903.3, -550928.56, 138868.0, 0.13415107, -0.41373762, -502413.34, 219158.13, 0.038884565, 9.997153, 10.001997 
2.3836443e+3, 2.3636316e+2, -1062103.8, -738839.56, 39156.29, 0.08256134, -0.14518431, -734164.25, -110552.08, 0.028499383, 9.996076, 10.000526 
2.3832233e+3, 2.463535e+2, -777278.5, -747998.25, -12490.144, 0.14746313, -0.22116534, -743394.2, -217687.36, 0.019239577, 9.998184, 9.998775 
2.3828064e+3, 2.5633916e+2, -580734.7, -869317.94, 105698.375, 0.34553912, -0.5261912, -546162.6, -118312.23, 0.011432521, 10.000126, 9.996293 
2.3823822e+3, 2.6633018e+2, -11551.836, -198046.92, -95960.69, 0.16573937, -0.38172975, 29004.799, 358944.0, 0.005416997, 10.001846, 9.999401 
2.381957e+3, 2.763228e+2, -358696.5, -453170.66, 62818.9, -0.42495462, -0.17502253, -327336.16, -95325.984, 0.001679893, 9.99955, 9.99801 
2.3815337e+3, 2.8631037e+2, 132548.27, 87476.73, -219764.97, -0.28702703, -0.44228154, 330929.9, 465056.94, 0.00032890253, 10.001192, 10.000228 
2.3811209e+3, 2.9630163e+2, 83907.6, 146642.58, 130823.49, 0.880525, -0.6834182, 249806.52, 286011.0, 0.000101376245, 10.000324, 10.000711 
2.3806965e+3, 3.0629373e+2, 347720.16, -82929.85, 270800.4, -0.1523415, -0.26169643, 478368.72, 478368.72, 0.00014155163, 10.00365, 9.997536 
2.3978157e+3, 1.3687837e+2, -1566436.4, -1048681.6, 140386.73, -0.010023825, -0.13901159, -1013066.4, 585496.0, 0.42782024, 9.995913, 10.00793 
2.397407e+3, 1.468696e+2, -1235142.1, -1217906.6, 65004.855, 0.8758765, -0.6538422, -1160950.8, 339690.34, 0.2998544, 10.001177, 10.001648 
2.3969841e+3, 1.5686892e+2, -1130387.1, -1215344.3, 166573.92, -0.13369116, 0.021297947, -1000960.8, 401690.97, 0.19614406, 10.001451, 10.000427 
2.3965661e+3, 1.6685952e+2, -1187025.4, -1246056.3, 95388.43, -0.29424676, -0.055676676, -1116690.4, 188048.98, 0.12585048, 10.000389, 9.999747 
2.3961511e+3, 1.7684618e+2, -1444864.4, -1436672.5, 37835.28, -0.042377472, -0.49372968, -1402712.1, -195850.33, 0.083471425, 9.998321, 9.998709 
2.395732e+3, 1.868331e+2, -1244343.4, -1589940.8, -8394.079, -0.027327575, -0.64537156, -1244139.6, -135146.94, 0.057587944, 10.000389, 9.995947 
2.3953116e+3, 1.9682014e+2, -539382.75, -1165790.3, -7613.0923, -0.10214977, -0.67771167, -539290.25, 471837.75, 0.03970386, 10.004512, 9.996234 
2.3948918e+3, 2.0681193e+2, -484148.44, -877846.75, 37886.715, -0.055443875, -0.37589678, -480535.63, 432680.16, 0.026570952, 10.003319, 9.998073 
2.3944724e+3, 2.168052e+2, -878975.75, -1020491.56, 136646.31, 0.038237993, 0.04473087, -795854.2, 19434.018, 0.017417854, 9.999827, 9.998121 
2.3940517e+3, 2.2679442e+2, -867825.5, -787604.5, 127736.9, -0.0058490457, -0.07061449, -693828.56, 23564.371, 0.011141793, 9.998495, 9.999672 
2.3936313e+3, 2.3678115e+2, -866446.0, -841947.9, 49481.582, -0.12006834, -0.41737062, -803221.75, -183703.45, 0.0065593217, 9.998296, 9.99871 
2.393211e+3, 2.4677223e+2, -431948.75, -470825.0, 79566.28, -0.20211713, -0.3856072, -369480.63, 152125.17, 0.0032030866, 10.000121, 9.999706 
2.3927937e+3, 2.567648e+2, -224883.7, -529019.1, 211580.25, -0.20212312, -0.122812025, -116392.8, 307288.72, 0.0011282732, 10.001904, 9.99772 
2.3923725e+3, 2.6675513e+2, -92317.08, -292287.06, -41609.047, -0.111121066, -0.04657904, -84004.74, 241771.25, 0.00023273825, 10.001613, 9.998809 
2.3919505e+3, 2.767436e+2, -374710.97, -309066.72, 69180.89, -0.16448322, -0.23818664, -265316.72, -37429.73, 0.000018051116, 9.998852, 9.999268 
2.3915261e+3, 2.8673154e+2, -75145.23, 14184.917, -87911.98, -0.18853454, -0.5331898, 68127.58, 198129.88, 0.000004039042, 9.999697, 10.000399 
2.3911096e+3, 2.9672596e+2, 169581.61, 36333.08, 116271.2, 0.5150958, -0.34653965, 236964.02, 269017.5, 0.000013542408, 10.0015135, 9.999377 
2.3906904e+3, 3.0671573e+2, 400771.0, 148885.66, 85376.66, -0.1378442, -0.118319705, 426981.97, 426981.97, 0.00005303312, 10.0030155, 9.999489 
2.4082297e+3, 1.2730822e+2, -1839464.8, -1810064.1, 7256.584, 0.119940214, -0.19543225, -1808370.6, -116009.38, 0.49042997, 9.999048, 9.9988985 
2.4078155e+3, 1.3729455e+2, -1409050.8, -1543602.0, 18742.223, 0.7804025, -0.62667674, -1406488.9, 187997.4, 0.36336082, 10.001837, 9.999104 
2.4073963e+3, 1.4728805e+2, -1324880.6, -1261043.9, 105551.21, 0.55971587, -0.49665588, -1182690.5, 313860.44, 0.24041095, 10.000361, 10.001347 
2.4069738e+3, 1.5728618e+2, -1767854.3, -1456894.6, -7538.1025, -0.17185779, 0.03726248, -1456712.0, -58137.625, 0.14389461, 9.996521, 10.000752 
2.4065576e+3, 1.6727816e+2, -1535930.4, -1341777.1, -11208.741, -0.18899117, 0.027434843, -1341132.3, -40486.707, 0.08188297, 9.99766, 10.000313 
2.406144e+3, 1.7726569e+2, -1115007.4, -1226141.9, 11713.234, 0.15884648, -0.3756045, -1113786.3, 88969.17, 0.047678713, 10.000437, 9.999142 
2.4057263e+3, 1.8725319e+2, -1059100.1, -1337317.0, 88023.72, 0.16965042, -0.5760568, -1033589.8, 71289.69, 0.028905774, 10.001024, 9.997358 
2.4053067e+3, 1.9724134e+2, -1093828.9, -1331782.9, 110291.91, 0.024697356, -0.62015533, -1050572.0, -43568.9, 0.017015342, 10.000145, 9.997198 
2.4048847e+3, 2.0723416e+2, -948869.2, -981630.94, -11094.273, -0.048237894, -0.31202134, -945465.8, -36387.043, 0.00915297, 9.999525, 9.999194 
2.4044627e+3, 2.1722908e+2, -1026266.5, -1053226.3, -21615.195, -0.0054329443, 0.16429828, -1014272.4, -203139.25, 0.0045936005, 9.998691, 9.998446 
2.404042e+3, 2.2721711e+2, -744946.0, -923747.0, 77619.75, -0.054297797, -0.0033566651, -715951.94, -2700.789, 0.0022051786, 10.000194, 9.997915 
2.4036221e+3, 2.372005e+2, -436225.56, -782322.25, 64714.86, -0.18097076, -0.52872086, -424520.72, 190891.19, 0.0009056362, 10.001912, 9.997393 
2.4032009e+3, 2.4719289e+2, -200527.61, -253957.14, 64813.47, -0.39884874, -0.38227302, -157139.14, 360346.47, 0.00023937336, 10.001346, 10.000566 
2.402782e+3, 2.5718907e+2, -695399.44, -693036.94, 89610.11, -0.5893006, 0.117916845, -604600.3, -185077.22, 0.000025130046, 9.998404, 9.998295 
2.4023625e+3, 2.6717836e+2, -445601.56, -532300.9, -181292.42, -0.31646755, 0.101693444, -302548.06, 19080.162, 0.00000030344088, 9.999511, 9.99817 
2.401943e+3, 2.7716464e+2, -280277.72, -246609.7, -142000.14, 0.057810247, -0.31566814, -120449.22, 103312.77, 0.000000006555133, 9.999385, 9.999493 
2.4015188e+3, 2.8715464e+2, 53496.51, 70181.766, -136715.28, -0.062798016, -0.46908176, 198808.72, 324668.44, 0.00000087941476, 10.000613, 10.000345 
2.4010967e+3, 2.9714984e+2, -189239.89, -376826.38, 82255.72, -0.12603435, -0.08440822, -158280.69, -130374.2, 0.0000071974287, 10.000072, 9.997252 
2.4006866e+3, 3.0713794e+2, 154298.86, 92458.375, 233642.08, -0.032901958, 0.018000923, 359057.8, 359057.8, 0.000033846587, 10.00109, 9.999981 
2.4182159e+3, 1.2772612e+2, -1736870.1, -1602551.6, 58154.07, -0.27355084, -0.31068507, -1580872.5, 107388.52, 0.44509992, 9.9986725, 10.001156 
2.4178033e+3, 1.3772151e+2, -1440574.3, -1525780.3, 86671.625, 0.21649207, 0.024089886, -1386600.9, 203706.13, 0.31930807, 10.00111, 9.9996395 
2.4173842e+3, 1.4771158e+2, -1484609.5, -1640479.1, 17345.307, 0.16063179, 0.0020855265, -1482702.6, 9707.909, 0.20041417, 10.000408, 9.99822 
2.4169624e+3, 1.5769967e+2, -1689059.0, -1606005.1, -31198.65, -0.16981995, -0.15459166, -1595591.3, -201057.1, 0.110025235, 9.997882, 9.999058 
2.4165475e+3, 1.6769142e+2, -1265953.5, -1015250.9, 110809.72, -0.13627742, -0.24650602, -973294.8, 323309.5, 0.054970514, 9.998612, 10.002195 
2.4161352e+3, 1.7768377e+2, -937959.8, -928073.6, 99951.66, 0.05011939, -0.3468414, -832942.94, 365719.75, 0.027314784, 10.000708, 10.001112 
2.4157175e+3, 1.8767597e+2, -887602.8, -1027413.25, 54942.78, 0.051675685, -0.2794253, -868595.44, 232144.77, 0.013986388, 10.00119, 9.999431 
2.4152979e+3, 1.9766757e+2, -913410.2, -1076384.1, 79391.37, -0.04619604, -0.16438062, -881129.4, 121700.24, 0.006556314, 10.000628, 9.998725 
2.4148759e+3, 2.0765679e+2, -951199.1, -1074585.9, -51241.816, -0.023343602, -0.22413607, -932694.0, -27756.936, 0.002469395, 9.999894, 9.99839 
2.4144536e+3, 2.1764545e+2, -968131.94, -1096734.0, 1273.317, 0.042093363, -0.28689757, -968119.3, -161070.75, 0.00078321603, 9.999353, 9.997835 
2.4140354e+3, 2.2763515e+2, -658250.44, -920866.6, 168960.38, 0.07180215, -0.23494446, -575573.9, 133579.39, 0.00023610769, 10.000919, 9.997592 
2.4136189e+3, 2.3762411e+2, -266376.03, -686429.44, 133082.0, 0.0454546, -0.18491489, -227762.38, 383503.28, 0.000047296035, 10.002999, 9.997518 
2.4131961e+3, 2.476138e+2, -259364.06, -346776.3, -52394.844, -0.17455052, -0.26739755, -234839.38, 278522.1, 0.0000020598873, 10.00122, 9.999995 
2.4127729e+3, 2.5760397e+2, -823444.9, -743505.44, -12065.73, -0.42804313, -0.32746267, -741724.0, -326274.03, 0.0, 9.997472, 9.998378 
2.4123545e+3, 2.675932e+2, -682235.9, -751480.0, -102514.56, -0.09720336, -0.28600836, -608654.75, -291094.94, 0.0, 9.998388, 9.997178 
2.4119377e+3, 2.7758232e+2, -161356.52, -272505.25, -143183.95, 0.3676518, -0.30875343, -63340.0, 156334.44, 0.0, 10.000495, 9.998795 
2.4115115e+3, 2.8757372e+2, 111603.15, 60472.26, -263169.56, -0.00023034956, -0.28251976, 350446.13, 472202.97, 0.0000001537889, 10.001078, 10.000112 
2.4110857e+3, 2.9756832e+2, -32578.988, -313773.8, -32519.482, -0.44283888, 0.08582103, -28867.188, -5062.3535, 0.000003139397, 10.0011015, 9.997207 
2.410683e+3, 3.0754954e+2, 114759.016, 34879.813, 149523.5, 0.3917947, -0.51683724, 229585.2, 229585.2, 0.000017110242, 10.000936, 9.999665 
2.4282077e+3, 1.2814485e+2, -1572336.0, -1533398.1, 92731.41, -0.1959244, -0.5120426, -1458113.9, 226042.33, 0.4141129, 10.000186, 10.001135 
2.4277927e+3, 1.3814262e+2, -1853539.9, -1768592.0, 93891.61, 0.11202905, 0.03697989, -1708014.1, -121834.26, 0.28877336, 9.997978, 9.999247 
2.4273747e+3, 1.481324e+2, -1668264.5, -1800927.0, 123631.984, 0.09738819, 0.047004733, -1594293.5, -106007.99, 0.17287979, 9.9993925, 9.997637 
2.4269551e+3, 1.5811926e+2, -1191115.9, -1438084.9, 157929.84, -0.05118792, -0.15917349, -1114125.3, 276294.78, 0.08747846, 10.00169, 9.99846 
2.4265395e+3, 1.6810918e+2, -1066351.0, -956657.6, 224194.14, -0.04348053, -0.37443423, -780698.8, 511808.72, 0.038149297, 10.000191, 10.001825 
2.4261257e+3, 1.7810082e+2, -1439605.9, -1198904.5, 119075.53, 0.053776126, -0.5065599, -1149952.9, 44620.645, 0.01570925, 9.997379, 10.000801 
2.4257083e+3, 1.880948e+2, -1336063.6, -1231242.9, -11150.144, 0.022246659, -0.26595587, -1230070.0, -133431.81, 0.0064830934, 9.998038, 9.999543 
2.4252893e+3, 1.9808877e+2, -1115535.6, -1164308.1, -130466.32, -0.022798859, 0.053554777, -1007196.0, -8487.6455, 0.0021827125, 9.999236, 9.998787 
2.4248675e+3, 2.0807707e+2, -855525.5, -993127.7, -223152.53, 0.016627265, -0.15242612, -690808.6, 210013.28, 0.00044835047, 10.000434, 9.998671 
2.4244453e+3, 2.1806346e+2, -777985.44, -1010498.6, -75243.65, 0.08992889, -0.4861355, -755760.25, 47190.91, 0.000068581576, 10.000733, 9.99776 
2.4240276e+3, 2.2805446e+2, -781697.75, -974978.75, 140747.78, 0.08982268, -0.31112167, -707606.5, -2562.3777, 0.0000096515805, 10.000149, 9.997557 
2.423612e+3, 2.3804636e+2, -873504.4, -1001851.0, 82349.94, 0.09808829, 0.016591739, -833275.94, -226145.47, 0.00000040342232, 9.998981, 9.997287 
2.4231894e+3, 2.4803446e+2, -376456.4, -450516.56, -126835.39, -0.0418027, -0.1999274, -281356.1, 227883.78, 0.0, 10.000674, 9.999524 
2.4227653e+3, 2.5802124e+2, -299856.6, -538649.8, -81168.71, -0.22706446, -0.57763547, -274879.0, 136479.66, 0.0, 10.001315, 9.997947 
2.4223466e+3, 2.680108e+2, -358953.22, -625015.8, -12107.181, 0.04587978, -0.4863811, -358403.4, -44935.633, 0.0, 10.000796, 9.996857 
2.4219301e+3, 2.7800155e+2, -502758.56, -615569.06, -24643.39, 0.44019786, -0.25904375, -497610.2, -282039.56, 0.0, 9.998948, 9.997198 
2.4215032e+3, 2.8799263e+2, -7123.2344, -108090.68, -109392.8, -0.073298834, -0.122034535, 62872.875, 180527.25, 0.0000000009564638, 10.0007925, 9.999077 
2.4210776e+3, 2.9798478e+2, -295.67062, -280622.7, 128910.93, -0.6082351, 0.05560203, 49971.484, 69693.31, 0.0000004799063, 10.0013, 9.9973545 
2.4206753e+3, 3.0796394e+2, -209082.47, -188501.42, 95996.86, 0.31714875, -0.8690124, -102245.11, -102245.11, 0.0000055147566, 9.99891, 9.999166 
2.4381992e+3, 1.28567e+2, -1552938.5, -1598411.6, 8460.615, -0.26677397, -0.42102656, -1551415.4, 128603.766, 0.39271495, 10.000904, 9.99997 
2.4377827e+3, 1.3856044e+2, -1630293.0, -1687195.0, 31445.06, 0.08598228, -0.18728259, -1616338.3, -34255.64, 0.26710206, 9.999628, 9.999007 
2.4373662e+3, 1.4855139e+2, -1488718.1, -1614709.5, 154102.94, 0.12086036, -0.11503263, -1385232.0, 98941.66, 0.15331793, 10.000258, 9.998551 
2.4369495e+3, 1.5854116e+2, -1222639.5, -1430942.9, 156249.94, 0.03778503, -0.11110213, -1139010.4, 247266.03, 0.07196278, 10.001316, 9.99869 
2.4365325e+3, 1.6852896e+2, -1149332.4, -1179273.5, 101679.23, 0.05723394, -0.43768227, -1061527.5, 226857.4, 0.027363949, 10.000384, 10.000151 
2.4361153e+3, 1.7851683e+2, -1418236.0, -1356024.9, 70173.305, 0.08346755, -0.7782784, -1310372.0, -119881.06, 0.009079448, 9.998264, 9.999273 
2.4356985e+3, 1.8851052e+2, -1349577.1, -1382539.6, 44628.63, 0.074070886, -0.4164502, -1318483.8, -225917.84, 0.002868925, 9.998581, 9.998235 
2.4352813e+3, 1.9850521e+2, -1038575.8, -1138260.3, -76880.07, 0.04842779, 0.09026727, -996794.94, -2158.4634, 0.00059867656, 9.999792, 9.998696 
2.4348599e+3, 2.0849533e+2, -700483.8, -741951.2, -188186.39, 0.07434122, -0.032723654, -531892.4, 364838.03, 0.000045539302, 10.0007105, 10.000272 
2.434438e+3, 2.1848385e+2, -620292.6, -796321.4, -51211.492, 0.08973058, -0.29902044, -606478.0, 192356.88, 0.0000022398012, 10.0012, 9.998992 
2.4340181e+3, 2.2847396e+2, -753967.4, -937308.1, 91447.51, -0.03708889, -0.25565702, -716153.75, -15220.101, 0.000000052409952, 10.000232, 9.997775 
2.4335998e+3, 2.3846447e+2, -834571.3, -900969.5, 79903.5, -0.16684851, -0.098158404, -781244.44, -178213.48, 0.0, 9.998883, 9.998016 
2.4331814e+3, 2.4845463e+2, -382592.25, -456084.75, -19139.742, -0.04760868, -0.12503605, -377906.44, 127218.62, 0.0, 10.000627, 9.999518 
2.4327622e+3, 2.5844446e+2, -22442.063, -310910.0, -38120.76, 0.058316953, -0.20594208, -17489.469, 389731.16, 0.0, 10.002782, 9.998794 
2.4323379e+3, 2.6843467e+2, -163522.03, -412330.47, -91322.82, -0.10909301, -0.1468524, -133601.05, 175719.92, 0.0, 10.001556, 9.997986 
2.4319138e+3, 2.7842498e+2, -346792.38, -430986.94, 8281.081, -0.2449647, -0.044736523, -345985.6, -134563.58, 0.0, 9.999469, 9.998227 
2.4314956e+3, 2.884134e+2, 168663.81, -672.0775, 129451.64, -0.088778846, -0.20571843, 238677.44, 352205.34, 0.0, 10.001839, 9.999338 
2.4310806e+3, 2.9840207e+2, 506026.56, 104319.74, 266957.34, 0.18061201, -0.40666246, 639251.5, 654879.56, 0.000000008678429, 10.004131, 9.998638 
2.4306606e+3, 3.0839273e+2, -399380.75, -304463.97, -247344.52, -0.046834137, -0.23340157, -100066.05, -100066.05, 0.0000009202062, 9.997505, 9.9991455 
2.4486199e+3, 1.1899823e+2, -2005027.9, -2046667.0, -105568.03, 0.5003865, -0.18991072, -1918246.0, -144454.7, 0.4945417, 9.99874, 9.998273 
2.4481928e+3, 1.2898868e+2, -1565961.8, -1742876.5, -39953.434, -0.15757592, -0.13269143, -1557357.4, 118534.21, 0.3775347, 10.001605, 9.998321 
2.447776e+3, 1.3897695e+2, -1282065.6, -1562974.4, -54719.047, 0.12591194, -0.28281903, -1271783.1, 306218.56, 0.25111946, 10.003067, 9.998256 
2.4473587e+3, 1.489674e+2, -1359875.8, -1543335.4, -34146.6, 0.13008238, -0.25633746, -1353726.4, 126371.24, 0.13882844, 10.001179, 9.998572 
2.4469414e+3, 1.5895809e+2, -1622700.1, -1592224.6, -40122.184, 0.12700929, -0.18588059, -1564544.1, -182352.84, 0.060861234, 9.998379, 9.998944 
2.4465242e+3, 1.6894831e+2, -1146033.9, -1137199.0, 18217.7, 0.062305883, -0.33183968, -1122870.8, 161406.7, 0.02025213, 10.000319, 10.000422 
2.4461064e+3, 1.7893787e+2, -794125.6, -1077257.1, 43157.695, 0.00014021512, -0.5233541, -787693.25, 398675.8, 0.0052852775, 10.002676, 9.9990635 
2.4456894e+3, 1.8892914e+2, -988880.25, -1240343.6, 64854.84, 0.03813052, -0.38387567, -973139.0, 115326.57, 0.0012089658, 10.001215, 9.997937 
2.4452725e+3, 1.9892125e+2, -1192676.5, -1217555.0, 21999.44, 0.11930101, -0.1031645, -1179843.1, -189284.73, 0.00012403581, 9.998798, 9.998625 
2.4448515e+3, 2.0891322e+2, -831068.7, -750074.3, -94265.24, 0.10604078, -0.07342892, -687975.4, 204659.94, 0.000001917801, 9.999632, 10.000703 
2.4444301e+3, 2.1890439e+2, -701827.9, -812476.8, -59494.996, 0.086064875, -0.12114384, -675909.2, 118806.41, 0.000000018702426, 10.000587, 9.999164 
2.4440101e+3, 2.2889371e+2, -611859.75, -812861.2, 45599.465, -0.04054152, -0.20590436, -601998.75, 94820.6, 0.0, 10.000981, 9.998256 
2.4435908e+3, 2.3888272e+2, -631782.06, -779710.6, 66887.73, -0.15980792, -0.25583637, -606023.3, -7095.6104, 0.0, 10.000207, 9.998214 
2.4431734e+3, 2.4887438e+2, -601855.94, -549216.25, 36913.348, 0.0182103, -0.1573691, -530200.3, -29190.033, 0.0, 9.999127, 9.999574 
2.4427558e+3, 2.5886652e+2, -760264.25, -678846.7, -7989.3247, 0.20296402, -0.011280236, -678070.06, -274981.94, 0.0, 9.997781, 9.998691 
2.4423283e+3, 2.6885724e+2, -354721.94, -429783.2, -115681.664, -0.27296132, 0.051898222, -270635.16, 34547.063, 0.0, 9.999916, 9.998655 
2.4419007e+3, 2.7884728e+2, -56305.406, -226572.69, -15586.552, -0.7356169, 0.042444803, -54890.348, 152391.84, 0.0, 10.0012, 9.998819 
2.4414897e+3, 2.888346e+2, 105444.61, 37365.867, 170576.83, -0.0029777354, -0.3208973, 245345.25, 354742.22, 0.0, 10.001162, 9.999908 
2.4410805e+3, 2.9882225e+2, -226445.27, -226980.06, 143560.5, 0.70822984, -0.67730075, -83151.914, -71644.766, 0.0, 9.999033, 9.998833 
2.4406438e+3, 3.088188e+2, -124173.414, -95616.75, -261293.89, -0.7091764, -0.006077505, 151788.64, 151788.64, 0.00000009975268, 9.999319, 9.999596 
2.4586084e+3, 1.1941844e+2, -1828509.6, -2338820.8, -5303.931, 0.2354757, -0.043170676, -1828454.5, -58772.656, 0.48539782, 10.001571, 9.994908 
2.4581882e+3, 1.294081e+2, -1479155.6, -1767519.9, 15866.392, 0.028881578, 0.08036341, -1478285.3, 193501.08, 0.36593348, 10.002873, 9.997528 
2.4577707e+3, 1.3939293e+2, -1289557.1, -1638887.9, -10673.199, 0.08266686, -0.32312307, -1289231.3, 284695.4, 0.23856215, 10.003292, 9.997572 
2.4573511e+3, 1.4938231e+2, -1347703.4, -1577771.5, -95960.625, 0.10664995, -0.35274068, -1312933.4, 163101.67, 0.1275105, 10.001444, 9.998215 
2.4569319e+3, 1.5937291e+2, -1468758.6, -1440392.4, -17845.162, 0.14613129, -0.2770997, -1431780.6, -53648.43, 0.052560914, 9.999107, 9.9996195 
2.4565154e+3, 1.6936746e+2, -1013026.3, -925479.6, 139153.19, -0.02775234, -0.10271686, -823377.3, 456800.9, 0.01541553, 10.000576, 10.001772 
2.456099e+3, 1.7936148e+2, -742202.75, -936359.75, 65821.52, -0.22516875, 0.033286292, -721992.25, 460235.8, 0.0031067657, 10.002512, 10.000112 
2.4556811e+3, 1.8934898e+2, -950478.2, -1149235.3, -24304.88, -0.072946414, -0.2701489, -947549.25, 136802.55, 0.00048131414, 10.001154, 9.998597 
2.4552631e+3, 1.9933617e+2, -1125301.5, -1149100.8, -3459.0654, 0.11971464, -0.53817654, -1124808.9, -138327.47, 0.000015932997, 9.999092, 9.998938 
2.4548425e+3, 2.0933008e+2, -852514.6, -849089.1, -44422.617, 0.096976124, -0.26156566, -806346.25, 82197.41, 0.0000000054715246, 9.999855, 9.999916 
2.4544221e+3, 2.193243e+2, -608342.5, -730181.2, -27045.29, 0.047872532, 0.056689076, -602608.94, 187992.06, 0.0, 10.001037, 9.999518 
2.4540049e+3, 2.2931299e+2, -504252.22, -636587.94, 40316.793, 0.18340531, -0.16882108, -492936.97, 199770.31, 0.0, 10.001144, 9.999418 
2.4535877e+3, 2.3930077e+2, -488712.9, -592960.56, 25622.488, 0.3072722, -0.4456757, -482755.7, 112066.59, 0.0, 10.000632, 9.9993 
2.453165e+3, 2.492918e+2, -643253.4, -554846.44, -45903.484, 0.17810391, -0.43809307, -535323.3, -38414.42, 0.0, 9.998743, 9.999745 
2.4527422e+3, 2.5928357e+2, -857805.8, -693863.56, -8377.208, 0.0054599587, -0.34248877, -693436.6, -294446.44, 0.0, 9.9969, 9.99903 
2.4523208e+3, 2.692739e+2, -428318.5, -495106.06, -2378.2515, -0.11594823, -0.30951777, -428233.94, -127143.23, 0.0, 9.999457, 9.998467 
2.4519e+3, 2.792642e+2, 175110.97, -87031.98, -4844.108, -0.18044965, -0.27663714, 175200.45, 378390.94, 0.0, 10.002593, 9.999122 
2.4514821e+3, 2.8925616e+2, 63415.12, 13244.292, -3897.842, 0.03381112, -0.19181472, 63716.145, 168979.14, 0.0, 10.000794, 9.999952 
2.4510664e+3, 2.992474e+2, -344613.9, -319862.78, 25093.19, 0.29551142, -0.17443676, -304259.38, -296918.56, 0.0, 9.998236, 9.998603 
2.4506448e+3, 3.0923495e+2, 522240.75, 292044.56, -99960.375, 0.046934854, -0.345028, 559588.2, 559588.2, 0.000000000000427524, 10.003379, 10.000286 
2.4686028e+3, 1.1983461e+2, -1511508.8, -2058734.1, -25919.658, 0.08529429, -0.21429238, -1510283.8, 255317.44, 0.47722325, 10.005241, 9.995095 
2.4681838e+3, 1.2982675e+2, -1271363.5, -1521308.4, 40048.684, 0.07500003, 0.030033948, -1265103.3, 402574.53, 0.3557266, 10.004236, 9.999139 
2.4677666e+3, 1.3981205e+2, -1355494.3, -1679409.5, 59724.652, 0.24380888, -0.42486683, -1344832.9, 224980.42, 0.22774403, 10.002625, 9.9976425 
2.4673451e+3, 1.4980184e+2, -1389251.5, -1736124.5, -40421.355, 0.22774293, -0.31591746, -1384603.5, 87319.23, 0.11809006, 10.00171, 9.9969635 
2.4669243e+3, 1.5979257e+2, -1280627.0, -1414713.8, 39756.418, 0.24278688, -0.113343336, -1269725.6, 104297.336, 0.04605504, 10.000712, 9.999034 
2.4665079e+3, 1.6978572e+2, -1209959.5, -1027901.0, 163968.78, 0.08106257, -0.060820736, -931388.0, 344696.56, 0.012013259, 9.999243, 10.001708 
2.4660915e+3, 1.7977901e+2, -1409730.5, -1203546.0, 18116.809, -0.07679439, -0.008127886, -1201966.3, -23823.467, 0.0018483637, 9.997711, 10.000585 
2.4656728e+3, 1.8976805e+2, -1257580.3, -1161833.5, -59267.953, 0.022435246, -0.2680993, -1133519.3, -53272.83, 0.00018026956, 9.998474, 9.999801 
2.4652542e+3, 1.9975635e+2, -1091755.8, -1075345.0, 24821.16, 0.18629563, -0.5285645, -1057408.1, -75049.29, 0.0000007906511, 9.999124, 9.999426 
2.4648343e+3, 2.097492e+2, -871284.25, -871253.2, 81301.95, 0.16265136, -0.36803776, -789966.75, 94462.6, 0.0, 9.999819, 9.999775 
2.464415e+3, 2.1974263e+2, -790536.94, -844366.7, 105359.34, 0.141347, -0.10426303, -708709.0, 77786.055, 0.0, 9.999947, 9.999256 
2.4639976e+3, 2.2973196e+2, -745210.5, -714017.1, 89290.54, 0.29437068, -0.28055152, -638971.3, 49625.24, 0.0, 9.999403, 9.999679 
2.46358e+3, 2.3972057e+2, -819091.5, -750124.94, 3424.1946, 0.45959648, -0.50116026, -749955.4, -159251.36, 0.0, 9.998409, 9.999282 
2.4631552e+3, 2.4971157e+2, -470508.88, -468996.3, -62953.15, 0.17443678, -0.5137873, -406794.9, 85995.66, 0.0, 9.999917, 9.999773 
2.4627304e+3, 2.5970253e+2, -399229.06, -539223.25, 2971.4, -0.13816299, -0.48641568, -399166.03, -4287.118, 0.0, 10.000349, 9.998445 
2.4623135e+3, 2.6969156e+2, -487217.3, -578772.06, 52915.09, 0.061506145, -0.5458586, -463026.3, -166033.63, 0.0, 9.999321, 9.99794 
2.4618973e+3, 2.7968177e+2, -488457.6, -444615.3, 6075.4985, 0.28518826, -0.4836634, -443788.97, -244694.2, 0.0, 9.998263, 9.998743 
2.4614732e+3, 2.896769e+2, 124972.41, 28252.838, -39509.03, -0.120373376, -0.08414974, 139059.66, 240196.7, 0.0, 10.001301, 9.999809 
2.4610534e+3, 2.9966876e+2, 24556.61, -371060.22, 55222.703, -0.12488293, 0.09776133, 32120.334, 35330.383, 0.0, 10.001839, 9.996515 
2.4606475e+3, 3.096479e+2, -101778.016, -82282.28, 122315.01, 0.84375155, -0.77599674, 30672.67, 30672.67, 0.0, 9.999579, 9.999478 
2.4785982e+3, 1.2025159e+2, -1584890.4, -1938377.8, -20326.377, -0.06983197, -0.292975, -1583725.5, 177783.0, 0.4678463, 10.003466, 9.996723 
2.4781789e+3, 1.3024555e+2, -1263769.3, -1369589.5, 3968.3184, 0.02080748, -0.054603156, -1263620.6, 399944.0, 0.34520847, 10.003326, 10.00108 
2.4777627e+3, 1.4023197e+2, -1410789.3, -1694205.9, -4877.9155, 0.42778727, -0.546368, -1410705.3, 154984.9, 0.21743059, 10.002016, 9.997813 
2.4773397e+3, 1.5022293e+2, -1484405.8, -1939709.6, -45971.32, 0.3593122, -0.21378075, -1479810.5, -12017.169, 0.109704144, 10.001657, 9.99558 
2.4769172e+3, 1.6021404e+2, -1298445.0, -1511624.8, 70960.37, 0.29387024, 0.1531155, -1276985.0, 92910.016, 0.040704507, 10.000967, 9.9982395 
2.4765007e+3, 1.7020261e+2, -1213146.5, -1111958.0, 147723.61, 0.28442955, -0.16986948, -1006404.75, 265597.7, 0.00953522, 9.999566, 10.000973 
2.4760845e+3, 1.8019208e+2, -1290602.8, -1074785.9, 31793.752, 0.2502416, -0.45002708, -1070199.6, 103898.94, 0.0011160366, 9.998205, 10.001231 
2.475665e+3, 1.9018692e+2, -1083635.8, -882628.0, -8821.706, 0.24256806, -0.26981863, -882241.56, 193902.89, 0.00006263998, 9.998812, 10.001559 
2.4752456e+3, 2.0018107e+2, -929704.56, -830408.5, 62320.805, 0.25157183, -0.10846754, -800377.1, 177819.8, 0.0000000031066179, 9.999521, 10.000908 
2.4748273e+3, 2.1016967e+2, -776669.56, -742033.75, 106677.39, 0.32428738, -0.45369294, -651277.75, 229022.61, 0.0, 10.000082, 10.000562 
2.4744087e+3, 2.2015832e+2, -723317.3, -788935.9, 114480.375, 0.34857196, -0.7216786, -637037.5, 145368.48, 0.0, 10.000274, 9.999489 
2.473987e+3, 2.3015031e+2, -809770.7, -839805.4, 58041.51, 0.17338261, -0.5610652, -764835.25, -80344.46, 0.0, 9.999331, 9.998876 
2.4735656e+3, 2.4014263e+2, -772550.44, -719109.94, 26282.965, 0.009964091, -0.34525138, -708349.94, -121777.47, 0.0, 9.99864, 9.999394 
2.4731448e+3, 2.5013524e+2, -357265.75, -382752.38, 24356.643, -0.042339563, -0.20944226, -342520.2, 146125.52, 0.0, 10.000527, 10.000089 
2.4727243e+3, 2.601269e+2, -155631.1, -443220.66, 6646.5264, -0.06764797, -0.12060457, -155477.56, 235250.56, 0.0, 10.002065, 9.998279 
2.4723044e+3, 2.701143e+2, -524471.44, -718796.8, -59303.535, 0.0847068, -0.25235963, -507803.1, -214947.95, 0.0, 9.999536, 9.996905 
2.4718848e+3, 2.801025e+2, -580286.44, -468877.03, 44065.625, 0.13831048, -0.3102966, -453555.03, -258582.5, 0.0, 9.997507, 9.998938 
2.471465e+3, 2.9009295e+2, 333070.88, 179402.16, 149819.11, -0.2640439, -0.42046022, 424608.97, 521664.53, 0.0, 10.002415, 10.000364 
2.4710515e+3, 3.0008134e+2, 693718.94, -66176.98, 47017.156, -0.021062966, -0.6057154, 696617.0, 696617.0, 0.0, 10.006404, 9.996454 
2.4706319e+3, 3.1006795e+2, -222025.44, -245117.64, -154316.56, 0.24384604, -0.61186016, -78823.64, -78823.64, 0.0, 9.999004, 9.998739 
2.4885926e+3, 1.2066824e+2, -1932860.1, -2059053.8, 187223.66, 0.13748738, -0.56758165, -1798387.0, -40973.8, 0.45571515, 9.999417, 9.997871 
2.4881715e+3, 1.3066237e+2, -1515078.0, -1539065.6, -47241.867, -0.039468117, -0.30373284, -1478331.3, 181143.61, 0.33319858, 10.000939, 10.00043 
2.4877551e+3, 1.406518e+2, -1514453.9, -1613085.5, -97729.43, 0.45084605, -0.49462795, -1454302.4, 107275.73, 0.20679392, 10.000515, 9.999159 
2.4873313e+3, 1.506441e+2, -1407042.5, -1598130.1, 7678.851, 0.29082295, -0.27821392, -1406734.4, 56927.008, 0.10179194, 10.000918, 9.998314 
2.4869084e+3, 1.6063592e+2, -1293230.1, -1460590.3, 258122.3, 0.18552585, -0.03074372, -1105562.6, 260186.89, 0.036105353, 10.000815, 9.998684 
2.4864912e+3, 1.7062461e+2, -1249458.9, -1299814.5, 305641.5, 0.19748586, -0.21749611, -967959.9, 299900.44, 0.0076701324, 10.000067, 9.999433 
2.4860744e+3, 1.8061359e+2, -1213461.9, -1159002.6, 186845.36, 0.2281026, -0.38294598, -997413.2, 172553.42, 0.000687035, 9.999285, 10.000121 
2.4856555e+3, 1.906075e+2, -978524.1, -887439.4, 62362.168, 0.21849994, -0.23136656, -855760.3, 216263.75, 0.000019881356, 9.999802, 10.001027 
2.4852364e+3, 2.0060137e+2, -896322.44, -826464.25, -6596.431, 0.23203091, -0.06544164, -825846.8, 148233.83, 0.0, 9.999843, 10.000765 
2.4848181e+3, 2.105904e+2, -889118.5, -759205.06, -12189.137, 0.3083525, -0.40687987, -758071.3, 118107.44, 0.0, 9.9992, 10.0008335 
2.4843994e+3, 2.2057891e+2, -1010700.56, -961670.4, -20696.734, 0.35918882, -0.71776, -954102.06, -175817.77, 0.0, 9.998477, 9.999162 
2.4839772e+3, 2.3057094e+2, -762532.2, -876598.5, -35631.164, 0.101504646, -0.5266766, -752316.9, -71945.98, 0.0, 9.999918, 9.9983425 
2.483555e+3, 2.4056368e+2, -520056.44, -651759.1, -20998.1, -0.15378691, -0.22566946, -516789.63, 65661.83, 0.0, 10.000641, 9.998897 
2.483136e+3, 2.5055653e+2, -377875.28, -413666.84, -23924.248, -0.11629435, -0.0668416, -365894.16, 118629.336, 0.0, 10.000483, 9.999892 
2.4827178e+3, 2.605485e+2, -493674.2, -635958.0, -109479.86, 0.016518414, 0.06515858, -434251.9, -47649.086, 0.0, 9.999934, 9.997977 
2.482296e+3, 2.705363e+2, -324071.22, -612491.3, -115992.04, 0.09351031, -0.036182284, -283211.84, 5510.227, 0.0, 10.00094, 9.996928 
2.4818735e+3, 2.805235e+2, -147413.89, -316314.44, 189418.42, -0.013754076, -0.17379941, -24472.775, 166373.08, 0.0, 10.000751, 9.998431 
2.4814582e+3, 2.9050934e+2, -12160.703, 7547.0127, 318988.3, -0.30739576, -0.7207744, 316833.63, 409806.8, 0.0, 10.000156, 10.000235 
2.481049e+3, 3.0049673e+2, -312922.1, -513263.22, -72511.336, 0.13210395, -1.0178194, -289431.7, -289431.7, 0.0, 9.999394, 9.99675 
2.480616e+3, 3.1049323e+2, -4721.172, -67973.55, -409226.3, -0.42182577, -0.13803926, 374099.2, 374099.2, 0.0, 10.000198, 9.9994 
2.4985857e+3, 1.21084966e+2, -1773139.4, -1883718.5, 346475.88, 0.2402755, -0.8506427, -1477569.4, 275748.63, 0.43991756, 10.000861, 9.998991 
2.4981633e+3, 1.3107908e+2, -1562961.5, -1644165.8, -7481.1157, -0.09674079, -0.52575016, -1562278.0, 93111.234, 0.31901658, 10.000932, 9.9993515 
2.4977459e+3, 1.4107181e+2, -1398578.3, -1352431.9, -38015.457, 0.31791624, -0.36435363, -1331035.4, 226432.8, 0.19536594, 10.00042, 10.001274 
2.4973218e+3, 1.5106502e+2, -1134333.8, -1016213.8, 13796.215, 0.11936597, -0.43171114, -1014623.8, 444906.38, 0.094030365, 10.000893, 10.002636 
2.4968985e+3, 1.6105783e+2, -1213311.6, -1340030.1, 197511.89, -0.06922863, -0.4104374, -1069245.4, 292352.4, 0.032013185, 10.001021, 9.999399 
2.4964802e+3, 1.7104954e+2, -1316837.8, -1538295.3, 248301.3, -0.07891429, -0.16903792, -1155694.5, 107990.32, 0.0062260167, 10.000491, 9.997574 
2.4960625e+3, 1.8104015e+2, -1263263.4, -1383615.4, 182260.42, -0.08530884, 0.01000921, -1131501.9, 34280.51, 0.00043419475, 9.999801, 9.998322 
2.4956448e+3, 1.9102806e+2, -1060465.4, -1159651.9, 91475.37, 0.0029167351, -0.2299494, -1006004.6, 61898.61, 0.0000058323185, 10.000221, 9.998962 
2.4952266e+3, 2.0101729e+2, -873748.44, -902494.5, -15640.969, 0.06635939, -0.34888077, -866879.44, 103130.57, 0.000000000090419006, 10.000347, 9.999995 
2.4948066e+3, 2.1101186e+2, -860335.1, -756016.94, -44511.582, 0.07426749, -0.11130791, -739606.0, 132455.86, 0.0, 9.999409, 10.000754 
2.494387e+3, 2.2100516e+2, -943940.56, -908604.5, -5909.879, 0.08206448, 0.063059896, -907642.3, -133516.33, 0.0, 9.998817, 9.999349 
2.4939692e+3, 2.3099376e+2, -690195.44, -826864.94, 22290.217, 0.15098462, -0.09779209, -686651.9, -10412.285, 0.0, 10.000328, 9.998491 
2.4935508e+3, 2.4098244e+2, -402920.63, -620929.7, -23138.322, 0.1574429, -0.20284417, -400491.9, 177860.83, 0.0, 10.001523, 9.998669 
2.4931298e+3, 2.5097278e+2, -422432.5, -548005.06, -86152.73, 0.08106209, -0.21659288, -378614.8, 101832.31, 0.0, 10.000594, 9.998932 
2.4927095e+3, 2.6096356e+2, -361862.3, -390466.63, -113838.84, 0.056338612, -0.17782195, -261430.7, 121105.08, 0.0, 10.000002, 9.999628 
2.4922892e+3, 2.7095544e+2, 67621.586, -62473.965, -19665.525, 0.1476346, -0.15710926, 70529.28, 355140.56, 0.0, 10.002042, 10.000184 
2.4918693e+3, 2.8094625e+2, 197395.97, -171868.27, 204032.16, 0.14858465, -0.14729996, 287933.16, 474631.75, 0.0, 10.003125, 9.998297 
2.4914531e+3, 2.9093358e+2, -385168.66, -494546.22, 182222.95, 0.09523959, -0.2980753, -249604.8, -160779.03, 0.0, 9.998908, 9.997422 
2.4910413e+3, 3.0092216e+2, -641586.3, -499313.28, -29143.68, 0.5333122, -0.33093387, -493574.84, -493574.84, 0.0, 9.996359, 9.998297 
2.4906099e+3, 3.1091425e+2, 657088.3, 645484.6, -191428.08, -0.35399657, -0.19667569, 842802.44, 842802.44, 0.0, 10.002949, 10.002991 
2.508577e+3, 1.21510856e+2, -1551956.3, -1647264.9, 160245.9, 0.042137276, -0.48516697, -1432429.0, 316728.56, 0.42027465, 10.001969, 10.000088 
2.5081548e+3, 1.315033e+2, -1623244.0, -1674533.5, 42628.867, -0.10365674, -0.34820765, -1599140.6, 52099.863, 0.30251706, 10.000271, 9.999504 
2.507736e+3, 1.414966e+2, -1548380.4, -1527667.1, 46702.703, 0.24028642, -0.083508335, -1490186.5, 63125.586, 0.18302314, 9.999664, 10.000174 
2.5073126e+3, 1.514875e+2, -1288992.0, -1250788.1, -78608.805, 0.04516158, -0.23874494, -1188993.6, 266402.4, 0.08629053, 10.000438, 10.001062 
2.5068906e+3, 1.6147825e+2, -1224695.1, -1386299.9, -91966.55, -0.09251863, -0.33722743, -1183076.6, 174404.53, 0.028287582, 10.001107, 9.999024 
2.5064734e+3, 1.7146859e+2, -1091725.1, -1400452.5, 6744.8467, -0.027546262, -0.29526463, -1091577.9, 167997.23, 0.0050760456, 10.001898, 9.997848 
2.5060558e+3, 1.8145874e+2, -955281.7, -1269164.5, 43910.266, 0.025736328, -0.18913992, -949254.7, 212418.86, 0.00028139996, 10.002106, 9.997996 
2.5056374e+3, 1.9144768e+2, -906711.25, -1147713.4, 43492.137, 0.02221649, -0.28724754, -899102.7, 164686.05, 0.0000014559199, 10.00164, 9.998337 
2.5052184e+3, 2.0143722e+2, -814702.2, -912641.9, 562.5628, 0.035776906, -0.3206186, -814699.0, 151197.27, 0.0, 10.000939, 9.999651 
2.504797e+3, 2.1143194e+2, -717870.44, -679785.9, -16394.1, 0.014227187, -0.06884251, -673701.0, 194246.22, 0.0, 10.000407, 10.000791 
2.504377e+3, 2.2142604e+2, -813385.94, -866070.1, 84901.06, 0.029682249, 0.20099215, -750834.25, 19170.117, 0.0, 9.999839, 9.999156 
2.5039616e+3, 2.3141433e+2, -601970.5, -771125.25, 145633.67, 0.17871165, 0.0018438408, -518136.2, 153982.86, 0.0, 10.00089, 9.998598 
2.503545e+3, 2.414018e+2, -506397.97, -768718.06, 28813.701, 0.28611863, -0.19898356, -503270.3, 70971.234, 0.0, 10.001248, 9.997803 
2.5031227e+3, 2.5138965e+2, -504669.56, -706238.9, -76451.23, 0.14276703, -0.35488507, -478953.88, -2593.4424, 0.0, 10.000597, 9.997825 
2.5027004e+3, 2.613792e+2, -370012.06, -311298.1, -89121.24, 0.030285636, -0.38917953, -246823.17, 131638.3, 0.0, 9.999617, 10.00037 
2.5022817e+3, 2.7137384e+2, -169636.02, 48213.605, -78727.695, 0.13165663, -0.2813335, 73686.2, 354194.53, 0.0, 9.999437, 10.002226 
2.501864e+3, 2.8136766e+2, -406720.28, -511368.16, -24185.31, 0.26904696, -0.11096379, -401401.16, -218834.33, 0.0, 9.999237, 9.997833 
2.5014472e+3, 2.9135746e+2, -329423.78, -664503.7, 43261.96, 0.43347344, 0.09798692, -323928.38, -239248.6, 0.0, 10.000187, 9.995616 
2.501031e+3, 3.013462e+2, -42604.543, -75706.49, 92195.03, 0.5992322, 0.18113878, 34513.36, 34513.36, 0.0, 9.999947, 9.999469 
2.500604e+3, 3.1133264e+2, 260164.83, 657944.7, -2125.2498, -0.34848413, -0.54523766, 657956.0, 657956.0, 0.0, 9.999453, 10.00472 
2.5185695e+3, 1.2193746e+2, -1688065.9, -1616240.5, 3482.2693, -0.057850152, -0.049860485, -1616072.0, 128922.01, 0.3973432, 9.999691, 10.0013895 
2.5181457e+3, 1.3192888e+2, -1571279.8, -1587950.1, 17378.74, -0.16458136, -0.08398926, -1560340.8, 86739.375, 0.28406283, 10.000448, 10.0001135 
2.5177264e+3, 1.4192198e+2, -1565729.5, -1790315.1, 58622.887, 0.131422, 0.20468383, -1551348.3, -2198.489, 0.16993596, 10.000647, 9.997822 
2.517304e+3, 1.5190984e+2, -1449141.4, -1738718.4, -17498.11, -0.0024511807, 0.10033045, -1448087.9, 3180.6958, 0.078587286, 10.00106, 9.99727 
2.516884e+3, 1.6189714e+2, -1182234.0, -1382910.0, -6238.034, -0.057455424, -0.07571485, -1182040.3, 171348.89, 0.024857625, 10.001466, 9.998866 
2.5164694e+3, 1.7188345e+2, -945589.8, -1138513.6, 71403.65, 0.20499933, -0.56076485, -922037.6, 333472.44, 0.0041356636, 10.002066, 9.999575 
2.516053e+3, 1.8187189e+2, -855954.3, -1102310.5, 40189.98, 0.3472447, -0.76988286, -849563.56, 308052.6, 0.00018434241, 10.002265, 9.999057 
2.5156322e+3, 1.9186676e+2, -852379.8, -1062260.6, 34218.188, 0.18558106, -0.33070874, -846941.94, 212735.53, 0.00000026313862, 10.00173, 9.99889 
2.5152108e+3, 2.0186003e+2, -727327.5, -791587.6, -18370.15, 0.060941707, -0.05164983, -722446.75, 239303.27, 0.0, 10.001196, 10.000352 
2.5147903e+3, 2.1184923e+2, -660366.75, -624451.5, -28845.27, 0.14345044, -0.37551877, -608430.8, 255415.84, 0.0, 10.000663, 10.001068 
2.5143707e+3, 2.2183938e+2, -698158.7, -776890.25, 121587.055, 0.18678637, -0.5160775, -609723.56, 156212.78, 0.0, 10.000431, 9.999499 
2.5139537e+3, 2.3183188e+2, -537066.7, -713773.25, 189648.16, 0.1352011, -0.3112659, -416200.66, 251811.56, 0.0, 10.001182, 9.998871 
2.5135356e+3, 2.4182248e+2, -490457.44, -838734.9, 27038.387, 0.069325, -0.18826842, -488370.84, 81736.27, 0.0, 10.001661, 9.99712 
2.5131124e+3, 2.5180793e+2, -545464.06, -888276.06, -94132.58, -0.047219653, -0.44362447, -521317.1, -49064.08, 0.0, 10.000958, 9.996428 
2.5126904e+3, 2.6179552e+2, -380624.6, -428243.0, -133644.3, -0.0966302, -0.54796636, -268685.25, 105691.664, 0.0, 9.999971, 9.999411 
2.512271e+3, 2.7179024e+2, -396734.8, -212755.5, -177154.67, 0.08721106, -0.30494842, -105130.836, 171298.0, 0.0, 9.998473, 10.000929 
2.511853e+3, 2.817841e+2, -435188.47, -348410.66, -25831.809, 0.20459448, -0.09413347, -341303.22, -162814.83, 0.0, 9.998225, 9.99945 
2.5114366e+3, 2.9177427e+2, 106003.2, -141092.75, 148108.8, 0.09245763, -0.1200729, 175329.06, 255914.7, 0.0, 10.001727, 9.998502 
2.5110203e+3, 3.0176347e+2, 376004.22, 46017.27, 20733.445, 0.1339341, -0.16794348, 377301.8, 377301.8, 0.0, 10.003096, 9.998808 
2.5105974e+3, 3.117495e+2, -243815.47, 19416.432, -251117.94, 0.08693915, -0.65891993, 171319.4, 171319.4, 0.0, 9.997607, 10.001249 
2.528558e+3, 1.22360185e+2, -2121713.3, -1854403.6, 61417.95, -0.080694586, -0.048857365, -1840967.4, -100120.016, 0.37209463, 9.99686, 10.00052 
2.5281376e+3, 1.3234992e+2, -1542631.9, -1613686.1, 48267.13, -0.17852806, -0.2078491, -1518226.6, 124721.12, 0.26429734, 10.000909, 9.999623 
2.527721e+3, 1.4234155e+2, -1310590.5, -1707182.1, 29783.201, 0.23928848, -0.02198497, -1308366.4, 236663.06, 0.15642525, 10.003001, 9.997221 
2.527299e+3, 1.5232867e+2, -1345727.1, -1782986.8, 35636.277, 0.14675595, -0.13480325, -1342841.9, 104314.914, 0.071005836, 10.002293, 9.996342 
2.5268787e+3, 1.623158e+2, -1204707.8, -1431530.1, 161747.52, 0.13613467, -0.24126814, -1120573.1, 228707.98, 0.021693112, 10.0015135, 9.998517 
2.526463e+3, 1.7230362e+2, -1084071.8, -1200966.8, 160299.48, 0.27092823, -0.5466858, -971896.75, 279492.94, 0.00335279, 10.001183, 9.999558 
2.5260457e+3, 1.8229297e+2, -1125724.8, -1242380.3, 36879.656, 0.36067423, -0.65623134, -1115043.6, 38444.848, 0.00011963712, 10.000435, 9.998991 
2.525624e+3, 1.9228734e+2, -1206615.0, -1233133.3, -2678.0105, 0.2050678, -0.28002813, -1206347.3, -150793.14, 0.00000002568285, 9.999269, 9.998912 
2.5252026e+3, 2.0228031e+2, -1100357.6, -1001802.25, -34590.43, 0.09921567, -0.032814566, -990873.75, -33245.73, 0.0, 9.998741, 10.000101 
2.524782e+3, 2.1226767e+2, -716581.94, -695208.3, -69206.15, 0.1569862, -0.53004074, -635868.7, 223871.47, 0.0, 10.00042, 10.000708 
2.5243628e+3, 2.2225632e+2, -626151.8, -800301.6, 54312.62, 0.18541732, -0.7875004, -610601.7, 151241.14, 0.0, 10.001223, 9.99894 
2.523945e+3, 2.3224993e+2, -605660.3, -777494.06, 76483.055, 0.025004921, -0.46217626, -576549.5, 87359.07, 0.0, 10.00088, 9.998565 
2.5235263e+3, 2.4224162e+2, -689981.5, -970398.1, -100219.9, -0.10897796, -0.20824513, -657845.94, -91852.34, 0.0, 10.000497, 9.996768 
2.5231037e+3, 2.5222692e+2, -589297.06, -927946.8, -99417.6, -0.1581647, -0.48362166, -562268.25, -94126.85, 0.0, 10.000788, 9.996221 
2.5226817e+3, 2.62214e+2, -355940.6, -563734.5, -72315.83, -0.13925292, -0.57325625, -333251.0, 37020.797, 0.0, 10.000822, 9.998057 
2.5222617e+3, 2.7220753e+2, -150287.17, -279605.38, -133729.53, 0.068342485, -0.29485765, -66405.41, 205934.52, 0.0, 10.001015, 9.999213 
2.5218427e+3, 2.822002e+2, -44014.246, -59020.055, 59924.117, 0.10675622, -0.116906814, 8874.849, 183287.05, 0.0, 10.000534, 10.000315 
2.5214255e+3, 2.921899e+2, -49658.996, 48401.68, 162164.84, -0.31048876, -0.40578538, 168786.25, 245289.5, 0.0, 9.999568, 10.00083 
2.5210103e+3, 3.0218008e+2, -277010.78, -438156.03, -194502.7, -0.2108907, -0.4756286, -147052.53, -147052.53, 0.0, 9.999405, 9.997248 
2.520588e+3, 3.121642e+2, -87573.49, -274455.25, -333841.22, 0.14295259, -0.8872666, 165657.17, 165657.17, 0.0, 10.000415, 9.997832 
2.538546e+3, 1.2278069e+2, -2034196.1, -1996810.8, 188802.88, -0.2323574, -0.23661864, -1825777.5, -89060.06, 0.34545887, 9.998222, 9.998886 
2.53813e+3, 1.3276915e+2, -1596642.0, -1727959.0, 130079.11, -0.16493, -0.44668117, -1516589.8, 122238.516, 0.24384478, 10.000817, 9.998884 
2.5377166e+3, 1.4275871e+2, -1402845.1, -1738573.6, -2677.123, 0.34443036, -0.4313229, -1402823.8, 138103.88, 0.14280652, 10.002169, 9.997384 
2.5372946e+3, 1.5274572e+2, -1318913.4, -1702491.5, -7705.0854, 0.33877248, -0.59845, -1318758.8, 124295.54, 0.06363834, 10.002222, 9.996914 
2.5368735e+3, 1.6273437e+2, -1174929.4, -1476317.5, 138898.94, 0.30686882, -0.56997633, -1120680.4, 224484.94, 0.0187796, 10.001969, 9.99798 
2.5364548e+3, 1.727268e+2, -1094219.6, -1329958.5, 153636.55, 0.17500277, -0.31499457, -1018446.6, 228792.83, 0.0026956536, 10.001605, 9.998479 
2.5360352e+3, 1.8271825e+2, -1080759.0, -1242423.4, -6126.9717, 0.086008094, -0.13610452, -1080527.1, 68797.28, 0.00007576087, 10.00085, 9.998775 
2.5356138e+3, 1.9270791e+2, -1171489.3, -1229129.6, -45715.684, 0.10404077, -0.20654148, -1146267.5, -94835.57, 0.00000000011876218, 9.999547, 9.998808 
2.535193e+3, 2.0269786e+2, -1062378.9, -1019304.2, 10512.996, 0.08775379, -0.24278153, -1016875.25, -63342.35, 0.0, 9.999138, 9.999779 
2.534773e+3, 2.1268776e+2, -702312.7, -759294.25, 4173.306, 0.02236272, -0.41830674, -702008.7, 153615.45, 0.0, 10.000792, 10.000087 
2.5343534e+3, 2.2267748e+2, -595266.0, -871262.06, 55212.418, -0.060946155, -0.4990472, -584630.7, 173089.36, 0.0, 10.001768, 9.998192 
2.533936e+3, 2.326676e+2, -624348.3, -891985.94, 41838.9, -0.17585756, -0.41802073, -617960.25, 41860.574, 0.0, 10.001153, 9.997669 
2.5335175e+3, 2.4265787e+2, -522614.44, -692310.5, -121604.58, -0.21138161, -0.31603363, -459182.78, 102735.8, 0.0, 10.000733, 9.998578 
2.533097e+3, 2.5264785e+2, -375705.25, -542601.4, -76229.0, -0.058994614, -0.3525157, -346129.25, 117886.29, 0.0, 10.00101, 9.998771 
2.5326762e+3, 2.6263732e+2, -282958.88, -597904.06, -9743.767, 0.05283314, -0.3380885, -282657.72, 83461.805, 0.0, 10.001586, 9.997463 
2.5322556e+3, 2.7262646e+2, -79114.24, -478281.44, -69372.73, 0.13455217, -0.29708487, -67401.4, 200829.95, 0.0, 10.002445, 9.997186 
2.5318357e+3, 2.826159e+2, 97788.07, -92094.266, 10401.67, 0.092004776, -0.27743205, 98356.17, 268692.8, 0.0, 10.001943, 9.999394 
2.531416e+3, 2.926057e+2, -277858.78, -161448.33, 937.75305, -0.2661279, -0.45558077, -161440.78, -89010.28, 0.0, 9.998417, 9.999951 
2.531001e+3, 3.0259666e+2, -466726.25, -474967.25, -155834.78, -0.05184163, -0.40653196, -314957.53, -314957.53, 0.0, 9.997837, 9.997771 
2.530587e+3, 3.125876e+2, 555978.75, 145380.6, -140017.98, 0.6138523, -0.19588688, 599180.6, 599180.6, 0.0, 10.004249, 9.998949 
2.5485402e+3, 1.2319677e+2, -1812196.8, -1877452.9, 161202.17, 0.09385101, -0.35284856, -1680353.8, 52278.758, 0.31815624, 9.9998865, 9.998917 
2.5481233e+3, 1.3318652e+2, -1753017.4, -1852926.0, -44737.406, -0.00054300827, -0.43311456, -1735913.0, -101178.53, 0.22319707, 9.999769, 9.998445 
2.5477093e+3, 1.431754e+2, -1603876.8, -1736019.1, -152404.8, 0.40449303, -0.51641405, -1503837.6, 33004.33, 0.12934339, 10.000135, 9.998435 
2.5472873e+3, 1.5316457e+2, -1299344.3, -1548150.5, -119859.89, 0.30829924, -0.62244207, -1250997.5, 187948.11, 0.05657354, 10.001684, 9.998304 
2.5468668e+3, 1.6315477e+2, -1071495.5, -1378425.3, 53198.16, 0.27258635, -0.5503583, -1062536.5, 278503.78, 0.016116831, 10.002473, 9.998407 
2.5464487e+3, 1.7314743e+2, -953692.56, -1272093.9, 99527.81, 0.22413121, -0.3031003, -925141.75, 317971.84, 0.0021455006, 10.002591, 9.998397 
2.5460285e+3, 1.8313853e+2, -965051.2, -1265366.1, -63402.55, 0.16316797, -0.12842762, -952214.3, 192989.3, 0.000046550977, 10.002003, 9.998064 
2.5456056e+3, 1.9312614e+2, -1090329.4, -1274095.4, -146512.06, 0.12479349, -0.34256256, -1009272.25, 38057.87, 0.0, 10.000478, 9.998055 
2.545184e+3, 2.0311521e+2, -1066241.1, -1112017.0, -27612.773, 0.09770789, -0.39605552, -1053263.8, -103823.58, 0.0, 9.999548, 9.998934 
2.544765e+3, 2.1310714e+2, -833965.8, -917970.4, -36897.258, 0.023585945, -0.30257788, -820061.06, 31456.273, 0.0, 10.000356, 9.99919 
2.5443462e+3, 2.2309773e+2, -774085.44, -948826.75, -8250.91, -0.0701657, -0.24734165, -773696.75, -20089.207, 0.0, 10.000558, 9.9982395 
2.5439274e+3, 2.3308578e+2, -816893.8, -946655.06, 78196.36, -0.20343114, -0.41856316, -780166.56, -124442.14, 0.0, 9.999719, 9.997975 
2.5435087e+3, 2.4307545e+2, -678048.56, -676277.3, -25089.922, -0.20356067, -0.41129473, -652057.4, -94231.91, 0.0, 9.9993515, 9.999331 
2.5430894e+3, 2.5306815e+2, -410910.63, -434333.6, -88404.39, 0.0053476836, -0.29170078, -333445.34, 126448.97, 0.0, 10.000264, 9.999862 
2.5426698e+3, 2.6305866e+2, -435395.03, -765165.7, -70050.48, 0.13694952, -0.21144608, -421131.72, -59144.168, 0.0, 10.000981, 9.996602 
2.542249e+3, 2.730447e+2, -282850.16, -714626.7, -42665.246, 0.1185535, -0.3825429, -278674.66, -14544.553, 0.0, 10.001685, 9.995919 
2.5418288e+3, 2.830326e+2, -36035.582, -297762.0, -12812.623, 0.054824375, -0.39082035, -35409.844, 130842.31, 0.0, 10.001662, 9.99812 
2.5414073e+3, 2.930232e+2, -52680.8, -183703.19, -37340.004, -0.19053142, -0.38048306, -42786.477, 25555.188, 0.0, 10.000575, 9.998746 
2.540992e+3, 3.0301327e+2, -216333.4, -341250.1, 17181.955, 0.051067397, -0.3251082, -214013.17, -214013.17, 0.0, 9.999545, 9.99786 
2.5405842e+3, 3.130091e+2, 48789.28, 173293.25, 39051.125, 0.85874796, 0.27644798, 184528.0, 184528.0, 0.0, 9.999644, 10.001347 
2.5585306e+3, 1.2361192e+2, -1907440.6, -2074987.0, 4844.373, -0.09991554, -0.3619252, -1907300.8, -178742.58, 0.2908175, 9.999816, 9.99753 
2.5581163e+3, 1.3360254e+2, -1722460.0, -1831225.1, 4470.791, 0.16153225, -0.3472959, -1722276.5, -91620.305, 0.2027681, 9.999965, 9.998496 
2.5577006e+3, 1.4359172e+2, -1484468.1, -1487676.0, -72043.37, 0.3283938, -0.46766898, -1414010.9, 118753.12, 0.11625642, 10.000167, 10.000148 
2.5572786e+3, 1.5358412e+2, -1212841.3, -1285228.8, -47560.47, 0.13675965, -0.4469396, -1189268.9, 245565.69, 0.04988728, 10.0013275, 10.000306 
2.5568593e+3, 1.6357562e+2, -1055221.0, -1266709.6, 65831.14, 0.11732128, -0.3950085, -1036403.7, 300510.97, 0.013707004, 10.002121, 9.999357 
2.5564444e+3, 1.7356588e+2, -934389.5, -1176438.0, 115567.13, 0.36696127, -0.45205143, -888073.9, 350934.6, 0.0016894786, 10.002344, 9.999181 
2.5560248e+3, 1.8355511e+2, -992588.06, -1355066.0, -114580.45, 0.4210972, -0.47742936, -959406.3, 181708.83, 0.000027889511, 10.002141, 9.997372 
2.555598e+3, 1.9354247e+2, -1103467.1, -1400467.4, -185696.84, 0.19944657, -0.60635614, -1014195.06, 29049.855, 0.0, 10.000906, 9.996978 
2.555175e+3, 2.0353203e+2, -1047208.9, -1193472.0, 5843.4346, 0.10156682, -0.5121617, -1046975.8, -101622.625, 0.0, 10.000044, 9.998143 
2.5547585e+3, 2.1352531e+2, -850050.6, -1034534.44, 5727.7134, 0.19061038, -0.17822081, -849873.0, -2448.2312, 0.0, 10.000676, 9.998251 
2.554341e+3, 2.2351693e+2, -589772.44, -627195.2, -17255.611, 0.1828693, -0.055264764, -583030.44, 166475.6, 0.0, 10.000803, 10.000332 
2.553921e+3, 2.3350568e+2, -625973.1, -582510.06, 73568.32, 0.03436896, -0.38689497, -527530.75, 124074.51, 0.0, 9.999847, 10.000418 
2.553501e+3, 2.4349503e+2, -683009.5, -762747.9, 23853.69, -0.059012633, -0.5188688, -676418.44, -122714.64, 0.0, 9.999639, 9.998609 
2.5530806e+3, 2.5348562e+2, -495136.53, -659899.06, -53922.72, -0.04528748, -0.44566244, -479058.0, -23259.447, 0.0, 10.000436, 9.998247 
2.5526604e+3, 2.6347527e+2, -356988.25, -655591.6, -58041.574, -0.031263154, -0.3791382, -346103.13, 11800.498, 0.0, 10.001171, 9.997277 
2.5522408e+3, 2.7346313e+2, -204092.94, -570335.9, -12274.912, -0.01226659, -0.45003211, -203682.0, 56347.004, 0.0, 10.00173, 9.996909 
2.5518212e+3, 2.8345233e+2, 35296.305, -292412.28, 34478.863, -0.041852012, -0.3744647, 38884.605, 201022.69, 0.0, 10.002211, 9.997913 
2.5514004e+3, 2.9344335e+2, 165417.72, -175240.33, 7136.959, -0.22002022, -0.23273048, 165567.17, 229791.06, 0.0, 10.002414, 9.9979515 
2.5509834e+3, 3.034317e+2, 10192.173, -268803.34, -39410.15, -0.020710113, -0.28960353, 15652.285, 15652.285, 0.0, 10.001195, 9.997584 
2.550564e+3, 3.134217e+2, -522351.56, -304965.63, -126637.12, -0.0006429884, -0.20209475, -246772.05, -246772.05, 0.0, 9.996497, 9.999597 
2.5685254e+3, 1.2402635e+2, -1678452.9, -1636908.6, 46999.742, 0.2523639, -0.52328706, -1606295.4, 118199.734, 0.26403108, 9.999981, 10.000702 
2.5681084e+3, 1.3401908e+2, -1654265.9, -1663535.4, 41946.867, 0.2312516, -0.4262777, -1616698.4, 9870.288, 0.18292536, 9.999869, 9.999723 
2.567689e+3, 1.4400974e+2, -1578989.3, -1543130.9, -17163.957, 0.11299573, -0.4524225, -1536239.6, -7576.765, 0.1037245, 9.999501, 10.000036 
2.5672704e+3, 1.5400177e+2, -1503470.9, -1481319.4, -89088.15, 0.16308343, -0.4444037, -1402621.1, 28121.469, 0.043632858, 9.999459, 9.9998255 
2.566852e+3, 1.6399355e+2, -1417902.0, -1350118.4, -19376.857, 0.20876725, -0.38518187, -1344970.3, -12147.82, 0.011545959, 9.999249, 10.000124 
2.566435e+3, 1.7398466e+2, -1348932.0, -1285200.8, 14215.454, 0.2323779, -0.46431467, -1282173.8, -47267.992, 0.0013158798, 9.999142, 9.999948 
2.566015e+3, 1.8397442e+2, -1258706.0, -1489515.5, -150325.69, 0.23044014, -0.48405728, -1184595.4, -47589.047, 0.000016496271, 10.000371, 9.997305 
2.5655904e+3, 1.9396228e+2, -745499.3, -1257732.4, -154990.33, 0.12945245, -0.56231594, -702253.75, 336876.78, 0.0, 10.003494, 9.996731 
2.565169e+3, 2.0395154e+2, -498470.66, -977878.1, 31309.451, 0.13798818, -0.45634803, -496434.53, 444806.97, 0.0, 10.004076, 9.997678 
2.564752e+3, 2.1394327e+2, -856582.25, -1106236.8, 40108.7, 0.297213, -0.22130814, -850296.75, -6967.6274, 0.0, 10.000972, 9.997616 
2.5643337e+3, 2.2393443e+2, -748778.0, -691237.7, -2363.0461, 0.32114297, -0.10268488, -691140.8, 54274.344, 0.0, 9.999668, 10.000432 
2.5639132e+3, 2.3392412e+2, -518051.66, -497541.2, -79824.93, 0.0973452, -0.38853344, -427315.44, 220188.73, 0.0, 10.000462, 10.000695 
2.5634927e+3, 2.4391362e+2, -609623.7, -814830.06, -181414.9, -0.041861583, -0.5057165, -503807.16, 45793.96, 0.0, 10.000553, 9.997803 
2.5630715e+3, 2.5390288e+2, -661934.44, -850385.4, -167900.77, -0.09819648, -0.50640905, -563626.56, -111915.41, 0.0, 9.999788, 9.997249 
2.5626516e+3, 2.6389253e+2, -577524.6, -705290.9, -110876.04, -0.09652462, -0.41481352, -513444.7, -159626.69, 0.0, 9.999466, 9.9977255 
2.562233e+3, 2.738823e+2, -416891.06, -591023.06, -78248.48, -0.049752753, -0.39345178, -386895.94, -130972.195, 0.0, 9.999953, 9.997606 
2.5618136e+3, 2.83872e+2, -238903.3, -445741.84, -34833.137, -0.10681139, -0.30506247, -233194.69, -75167.81, 0.0, 10.000458, 9.99769 
2.5613928e+3, 2.9386225e+2, -56324.55, -333315.9, 5030.7363, -0.3162264, -0.2291816, -56233.21, 3886.3762, 0.0, 10.001159, 9.997443 
2.560975e+3, 3.038509e+2, -86117.414, -378521.25, -159815.8, -0.10041949, -0.1977713, -15718.1045, -15718.1045, 0.0, 10.000884, 9.996938 
2.560551e+3, 3.13841e+2, -356905.9, -233758.97, -169970.05, -0.1905712, -0.06230949, -114553.266, -114553.266, 0.0, 9.99781, 9.999399 
2.578522e+3, 1.2444137e+2, -1601629.6, -1530141.6, 62653.203, 0.6835648, -0.6490836, -1493753.4, 226673.38, 0.23823532, 10.000223, 10.001514 
2.5780994e+3, 1.344358e+2, -1579326.9, -1467711.3, 21327.043, 0.17412208, -0.54590917, -1463775.0, 158703.52, 0.16394834, 9.9996195, 10.001373 
2.5776777e+3, 1.4442807e+2, -1692833.5, -1701923.0, -26222.943, -0.151931, -0.45649588, -1670764.4, -146207.17, 0.09188186, 9.999186, 9.999094 
2.5772625e+3, 1.5441807e+2, -1594848.1, -1653003.8, -53799.97, 0.27839693, -0.5240653, -1562770.8, -136106.13, 0.03784501, 9.999379, 9.998687 
2.576844e+3, 1.6440982e+2, -1332553.5, -1203624.9, 6580.9233, 0.31923416, -0.44503653, -1203289.9, 125458.67, 0.009625426, 9.999403, 10.001049 
2.576422e+3, 1.7440353e+2, -1233454.1, -1119080.9, 30445.143, -0.13588946, -0.3502071, -1111481.6, 119324.125, 0.0010124295, 9.99946, 10.000926 
2.576002e+3, 1.8439537e+2, -1163661.6, -1352270.5, -51053.973, -0.2755553, -0.24158713, -1150728.9, -17843.646, 0.000009793076, 10.000637, 9.998108 
2.575584e+3, 1.9438487e+2, -678875.9, -1127975.9, -17482.01, -0.034949977, -0.22508739, -678196.4, 356796.3, 0.0, 10.003521, 9.997607 
2.5751647e+3, 2.0437306e+2, -480685.25, -977540.94, -50017.836, 0.16057019, -0.27453938, -475700.03, 461410.53, 0.0, 10.00418, 9.997642 
2.5747448e+3, 2.1436013e+2, -833760.94, -1128480.0, -53266.33, 0.33430132, -0.46987632, -824429.25, 14807.529, 0.0, 10.001224, 9.99736 
2.5743246e+3, 2.2434899e+2, -848730.4, -983370.75, 35322.41, 0.2523051, -0.47294208, -840026.4, -98679.46, 0.0, 10.0, 9.998255 
2.5739032e+3, 2.3433958e+2, -614404.3, -833710.8, -51357.45, -0.13166016, -0.40661725, -602973.2, 40467.09, 0.0, 10.00099, 9.998138 
2.573483e+3, 2.4433015e+2, -481293.2, -674944.4, -244808.39, -0.24258232, -0.31343925, -314857.78, 230676.75, 0.0, 10.001069, 9.99852 
2.5730634e+3, 2.5432074e+2, -557210.9, -694808.56, -218121.98, -0.03717348, -0.26418263, -397294.88, 50336.05, 0.0, 10.000004, 9.998234 
2.572644e+3, 2.643111e+2, -543299.56, -634787.3, -110636.21, 0.077753134, -0.1786526, -469323.44, -119594.25, 0.0, 9.999439, 9.998221 
2.5722253e+3, 2.7430102e+2, -451999.5, -576927.94, -93965.22, 0.11595603, -0.15914759, -401630.94, -149800.06, 0.0, 9.999538, 9.997914 
2.571806e+3, 2.8429052e+2, -207514.02, -288879.22, -20393.053, 0.030590497, -0.17309086, -202688.9, -48756.03, 0.0, 10.000026, 9.998978 
2.571386e+3, 2.9427993e+2, 6739.1816, -175365.66, 40453.46, -0.20757295, -0.29025027, 15321.222, 71351.33, 0.0, 10.000992, 9.998621 
2.5709662e+3, 3.0426893e+2, -38776.74, -261736.52, -172627.45, -0.14967553, -0.3267146, 55237.906, 55237.906, 0.0, 10.000762, 9.997811 
2.5705448e+3, 3.1425703e+2, 3872.7588, 141127.44, -177799.23, 0.19080164, -0.4446678, 263084.16, 263084.16, 0.0, 9.999322, 10.001281 
2.5885096e+3, 1.2485995e+2, -1666111.0, -1625914.5, -8372.907, 0.29095125, -0.5427473, -1624240.1, 92089.69, 0.21373008, 9.999966, 10.000734 
2.58809e+3, 1.3485417e+2, -1697282.1, -1581086.4, -73845.74, 0.19438843, -0.42589423, -1545223.9, 73163.11, 0.14603177, 9.999041, 10.000755 
2.5876692e+3, 1.4484656e+2, -1735811.9, -1634708.8, -76640.875, -0.0015723838, -0.33832628, -1593449.1, -72986.516, 0.080827504, 9.998539, 9.99986 
2.587252e+3, 1.5483694e+2, -1624574.3, -1583016.3, -32462.773, 0.20288256, -0.45573798, -1565251.8, -142692.11, 0.032553293, 9.99885, 9.999402 
2.5868338e+3, 1.6482837e+2, -1386330.4, -1292360.6, 68899.445, 0.2034357, -0.41973138, -1255950.6, 68694.76, 0.007938516, 9.999318, 10.000467 
2.5864136e+3, 1.7482118e+2, -1231030.9, -1206922.8, 5642.1006, -0.103392854, -0.3546489, -1205667.6, 21047.158, 0.00076767127, 9.999858, 10.000142 
2.5859943e+3, 1.8481305e+2, -1274985.9, -1341138.1, -109315.586, -0.16619495, -0.23296306, -1193852.0, -65056.934, 0.000005913737, 9.9995985, 9.99867 
2.5855768e+3, 1.9480354e+2, -1424759.5, -1406091.1, -82393.27, 0.076045536, -0.21688236, -1332505.0, -301614.4, 0.0, 9.9980755, 9.998298 
2.585158e+3, 2.0479222e+2, -1236433.3, -1334649.4, -106380.945, 0.20854166, -0.26576135, -1168372.6, -235370.38, 0.0, 9.998987, 9.9976845 
2.5847366e+3, 2.147786e+2, -675701.44, -1054533.6, -90666.56, 0.21351938, -0.55947316, -655120.2, 180013.67, 0.0, 10.002317, 9.997337 
2.5843155e+3, 2.2476721e+2, -519266.9, -898153.5, 79092.125, 0.08328005, -0.55244523, -503419.38, 233828.16, 0.0, 10.002663, 9.997544 
2.5838944e+3, 2.347584e+2, -795703.06, -1026109.25, 126391.37, -0.23335354, -0.33090007, -739890.0, -100549.38, 0.0, 10.000279, 9.99715 
2.5834742e+3, 2.4474941e+2, -691175.2, -724857.2, -24108.291, -0.26870406, -0.1363233, -678608.2, -137173.64, 0.0, 9.999453, 9.998932 
2.583055e+3, 2.5474018e+2, -583184.6, -658620.44, -43448.65, 0.009289062, -0.10934274, -563366.25, -119837.08, 0.0, 9.999675, 9.998618 
2.582636e+3, 2.6473048e+2, -486522.56, -567822.2, 59803.316, 0.17877664, -0.041576367, -454861.66, -109235.234, 0.0, 9.999675, 9.998573 
2.5822172e+3, 2.7472028e+2, -462283.6, -553205.1, 89745.32, 0.21801679, -0.07250222, -407141.66, -159414.67, 0.0, 9.999387, 9.9981365 
2.5817987e+3, 2.8471002e+2, -248571.31, -200152.86, 172611.55, 0.15563987, -0.09461536, -50061.1, 99763.08, 0.0, 9.999316, 9.999914 
2.5813797e+3, 2.9469937e+2, -191840.63, -172621.63, 179736.9, -0.07881509, -0.31410837, -2237.5115, 49683.64, 0.0, 9.999242, 9.9994755 
2.5809565e+3, 3.0468783e+2, -159209.9, -222125.44, -150391.8, -0.27639952, -0.4798539, -37021.047, -37021.047, 0.0, 9.999523, 9.998674 
2.5805318e+3, 3.146783e+2, 157711.88, 310127.03, -140793.55, -0.18634324, -0.4466479, 394014.47, 394014.47, 0.0, 10.000005, 10.002111 
2.5984973e+3, 1.2527987e+2, -1791552.0, -1764388.0, -52155.41, -0.14129317, -0.36120498, -1724075.1, -11853.075, 0.19076736, 9.999465, 9.999862 
2.5980812e+3, 1.3527289e+2, -1650380.9, -1678325.5, -49179.043, 0.26525968, -0.22580336, -1613227.9, 1068.6194, 0.12932402, 9.999918, 9.999604 
2.5976616e+3, 1.4526494e+2, -1446884.3, -1317642.1, -25214.89, 0.21075866, -0.19148804, -1312897.0, 203475.38, 0.07062259, 9.999746, 10.001558 
2.5972402e+3, 1.5525672e+2, -1395012.0, -1292396.5, 3026.5728, -0.028219517, -0.32073537, -1292307.3, 126136.99, 0.027766839, 9.9996395, 10.001041 
2.5968224e+3, 1.6524751e+2, -1407557.6, -1442950.3, 92026.38, -0.02437187, -0.36562684, -1331541.5, -11008.29, 0.0064744665, 9.999766, 9.999218 
2.596408e+3, 1.7523757e+2, -1293367.8, -1382795.3, 51900.69, 0.17925689, -0.43194646, -1269576.0, -46940.68, 0.0005723583, 10.000031, 9.998862 
2.59599e+3, 1.8522806e+2, -1198819.8, -1211384.5, -145196.23, 0.28785262, -0.42261472, -1059770.0, 64960.023, 0.0000035552432, 9.999705, 9.999515 
2.5955692e+3, 1.9521874e+2, -1307645.4, -1262037.9, -108434.75, 0.34317783, -0.45517418, -1174035.0, -147214.48, 0.0, 9.99847, 9.999109 
2.5951484e+3, 2.0520914e+2, -1106580.6, -1190937.4, 36800.242, 0.19226158, -0.4066124, -1092783.4, -163867.5, 0.0, 9.999518, 9.99842 
2.594727e+3, 2.1519901e+2, -536227.0, -915195.3, 53023.22, -0.13358776, -0.39397436, -528948.06, 302069.6, 0.0, 10.002924, 9.998028 
2.594307e+3, 2.2519001e+2, -309883.47, -586596.5, 1359.8102, -0.2024868, -0.2785411, -309876.78, 423231.0, 0.0, 10.003175, 9.999435 
2.5938877e+3, 2.351822e+2, -620681.75, -743708.4, 79069.93, -0.0797465, -0.12710553, -582015.5, 53171.035, 0.0, 10.000586, 9.998949 
2.5934672e+3, 2.4517252e+2, -680199.0, -746570.75, 43298.094, -0.03580367, -0.07464774, -658831.94, -121547.46, 0.0, 9.999597, 9.998726 
2.5930458e+3, 2.5516132e+2, -545634.25, -669854.9, 31502.387, -0.016104138, -0.19640148, -538101.94, -98703.805, 0.0, 10.000004, 9.998399 
2.5926265e+3, 2.6515096e+2, -366200.03, -397170.34, 118778.55, 0.09406375, -0.227944, -261901.48, 79596.88, 0.0, 10.000023, 9.999563 
2.592209e+3, 2.7514133e+2, -333651.22, -376907.25, 161053.98, 0.30007064, -0.26964444, -192779.52, 50808.133, 0.0, 9.999751, 9.999175 
2.5917903e+3, 2.8513163e+2, -280132.47, -253014.38, 225402.03, 0.23380554, -0.27256352, -40763.934, 104916.016, 0.0, 9.999264, 9.999576 
2.591369e+3, 2.9512158e+2, -325368.5, -277149.0, 190893.34, -0.13811311, -0.3597571, -108848.91, -61072.188, 0.0, 9.998472, 9.99914 
2.5909483e+3, 3.0511147e+2, -203264.83, -296559.72, -73462.1, -0.10690754, -0.33667335, -162891.22, -162891.22, 0.0, 9.999404, 9.998237 
2.5905246e+3, 3.150984e+2, 420044.88, 494556.03, 297735.22, -0.15364683, -0.6073602, 757357.5, 757357.5, 0.0, 10.001545, 10.002626 
2.6084888e+3, 1.256984e+2, -1809614.9, -1790680.8, 55886.637, -0.044806547, -0.40682557, -1743465.0, -35344.77, 0.16949154, 9.99942, 9.999704 
2.6080728e+3, 1.3569167e+2, -1304011.1, -1488400.6, 66361.27, 0.12282777, -0.27190578, -1282611.5, 327577.97, 0.1139111, 10.002491, 9.999765 
2.6076534e+3, 1.4568317e+2, -1047999.44, -1213648.1, 908.4105, 0.10149572, -0.25321308, -1047994.44, 464276.44, 0.061296463, 10.003065, 10.000688 
2.6072323e+3, 1.5567371e+2, -1124618.3, -1260265.0, -68849.164, -0.03566718, -0.43606284, -1095796.8, 318560.3, 0.023481611, 10.001953, 10.000151 
2.6068145e+3, 1.6566493e+2, -1275365.0, -1386859.4, 3715.9976, 0.010932271, -0.39868256, -1275241.3, 41202.414, 0.005220199, 10.00068, 9.9992 
2.6063997e+3, 1.7565635e+2, -1463685.1, -1481937.3, 12506.0, 0.25510603, -0.32915074, -1457329.5, -238795.19, 0.00041937284, 9.998922, 9.998747 
2.6059815e+3, 1.8564653e+2, -1249104.1, -1190401.3, -91664.95, 0.35912877, -0.36405137, -1123503.1, -2872.3875, 0.0000020172258, 9.99916, 9.999933 
2.6055604e+3, 1.9563605e+2, -958230.94, -1058881.0, -78931.54, 0.34056184, -0.5611193, -914946.1, 107783.18, 0.0, 10.000729, 9.999421 
2.60514e+3, 2.056274e+2, -849790.4, -1000932.25, 96349.07, 0.16566423, -0.45676965, -802910.9, 121904.59, 0.0, 10.001059, 9.998947 
2.60472e+3, 2.156199e+2, -927797.8, -1049232.9, 101847.836, -0.15443528, -0.24573234, -869942.2, -43047.758, 0.0, 10.000069, 9.998453 
2.6042995e+3, 2.2561124e+2, -826245.8, -812298.94, -121275.93, -0.20598707, -0.12912826, -697796.1, 31184.98, 0.0, 9.999522, 9.999653 
2.6038796e+3, 2.3560196e+2, -907463.75, -856262.1, -156739.16, 0.008508639, -0.1788403, -723046.75, -91975.69, 0.0, 9.998512, 9.999176 
2.6034594e+3, 2.4559233e+2, -753732.6, -743108.56, -96036.66, 0.08863578, -0.17047374, -652237.1, -119070.516, 0.0, 9.998983, 9.999027 
2.6030377e+3, 2.5558195e+2, -489108.56, -622154.06, -41724.06, 0.019721398, -0.26296523, -477106.3, -41835.195, 0.0, 10.000354, 9.998546 
2.602618e+3, 2.6557168e+2, -245972.47, -335705.3, -9718.894, 0.07010195, -0.30709046, -244931.88, 92436.99, 0.0, 10.000862, 9.999579 
2.6022002e+3, 2.7556163e+2, -265972.1, -353783.5, -27613.5, 0.27855423, -0.42392534, -258010.48, -18550.816, 0.0, 10.000283, 9.999081 
2.601781e+3, 2.8555208e+2, -280935.7, -277509.38, 14851.358, 0.2222471, -0.4178463, -264272.7, -122722.29, 0.0, 9.999351, 9.999377 
2.6013583e+3, 2.9554302e+2, -451777.1, -394459.56, 48259.324, -0.17539802, -0.40876764, -366990.9, -323350.56, 0.0, 9.997857, 9.99864 
2.600941e+3, 3.055346e+2, -352000.44, -441435.6, -41770.746, 0.09677234, -0.16698848, -335526.06, -335526.06, 0.0, 9.998755, 9.99753 
2.600517e+3, 3.1552276e+2, -76838.09, -157276.75, 313317.88, -0.23291828, -0.25251344, 198831.3, 198831.3, 0.0, 9.999986, 9.998871 
2.6184812e+3, 1.2611665e+2, -1648397.9, -1582196.3, 113044.266, 0.03349855, -0.4903144, -1497506.4, 206512.83, 0.14988166, 9.999976, 10.00103 
2.6180643e+3, 1.3611026e+2, -1437454.5, -1515190.9, 112150.055, -0.14109743, -0.37770736, -1357628.3, 248450.9, 0.0997958, 10.001246, 10.000151 
2.6176456e+3, 1.4610077e+2, -1326364.1, -1502382.3, -57598.703, -0.13588168, -0.39710644, -1309191.5, 198980.28, 0.05285716, 10.001748, 9.999202 
2.6172268e+3, 1.5608917e+2, -1265557.0, -1493806.5, -86934.91, 0.02676108, -0.6298406, -1236217.0, 174069.06, 0.019694533, 10.001675, 9.998664 
2.6168075e+3, 1.6608158e+2, -1187135.6, -1258591.0, -45888.58, 0.09940053, -0.44511008, -1164706.4, 147658.17, 0.004163879, 10.000919, 9.999952 
2.6163888e+3, 1.7607644e+2, -1331861.0, -1332219.4, -27056.48, 0.11958299, -0.09904377, -1304983.1, -90561.945, 0.00030229846, 9.999468, 9.999491 
2.6159698e+3, 1.8606699e+2, -1147193.4, -1100343.1, -21616.55, 0.12749985, -0.15462546, -1091893.4, 24618.402, 0.0000010444409, 9.99966, 10.000314 
2.6155502e+3, 1.960548e+2, -882730.75, -990961.06, 1819.5317, 0.11121803, -0.5427689, -882700.2, 135923.47, 0.0, 10.001056, 9.999744 
2.6151323e+3, 2.060465e+2, -772419.25, -902301.2, 71099.34, 0.14277755, -0.44652414, -741066.6, 179639.1, 0.0, 10.001293, 9.999518 
2.614715e+3, 2.1604064e+2, -849550.56, -964582.44, 69814.07, 0.18202873, -0.11593485, -816611.6, 6158.0825, 0.0, 10.000373, 9.998887 
2.614293e+3, 2.2602934e+2, -915393.5, -1012678.0, -148290.31, 0.089207076, -0.20697142, -807971.4, -83089.336, 0.0, 9.999557, 9.998276 
2.613869e+3, 2.3601489e+2, -951369.8, -999055.5, -182392.97, -0.039774917, -0.6169232, -791267.9, -164245.48, 0.0, 9.998676, 9.998139 
2.6134494e+3, 2.460065e+2, -596702.06, -486238.97, -47550.418, 0.06101138, -0.53153527, -468590.0, 60514.715, 0.0, 9.9992695, 10.000656 
2.6130322e+3, 2.5600162e+2, -301317.8, -390364.8, 8601.5625, 0.26746666, -0.21123642, -300494.56, 130658.84, 0.0, 10.001001, 9.99984 
2.612612e+3, 2.6599178e+2, -256442.56, -510387.3, -49057.613, 0.20471224, -0.19204785, -247295.02, 85955.67, 0.0, 10.001488, 9.998093 
2.61219e+3, 2.7597898e+2, -243109.25, -469149.0, -103823.3, 0.03444888, -0.4210289, -202660.02, 32716.111, 0.0, 10.00093, 9.997996 
2.61177e+3, 2.8596982e+2, -115784.83, -19458.645, -91978.69, 0.04760354, -0.42517003, 36203.9, 173664.77, 0.0, 9.999693, 10.000988 
2.61135e+3, 2.9596317e+2, -311858.66, -158661.11, -20054.975, 0.0626001, -0.31958196, -156079.23, -116560.36, 0.0, 9.998068, 10.000162 
2.6109323e+3, 3.059545e+2, -318645.47, -300715.78, 50042.984, 0.26166156, -0.23503198, -258841.0, -258841.0, 0.0, 9.998412, 9.998663 
2.6105058e+3, 3.159432e+2, -53903.527, -46862.97, 21157.725, -0.4509359, -0.35317153, -28934.664, -28934.664, 0.0, 9.999607, 9.99983 
2.6284724e+3, 1.2653592e+2, -1580058.0, -1585478.1, -32515.996, -0.04830942, -0.21297908, -1550139.4, 149776.39, 0.13183884, 10.000699, 10.000606 
2.6280564e+3, 1.3652523e+2, -1928738.4, -1783616.9, -87356.336, 0.023336744, -0.51105404, -1742616.3, -140601.03, 0.08692959, 9.997912, 9.999844 
2.6276377e+3, 1.465166e+2, -1759014.1, -1650065.5, -118878.83, -0.009550076, -0.48246777, -1573774.3, -69675.66, 0.045284744, 9.998387, 9.999843 
2.6272184e+3, 1.5650834e+2, -1397820.6, -1512809.3, -75305.52, -0.0072464095, -0.44357494, -1360570.5, 45610.184, 0.01638905, 10.000543, 9.999106 
2.6267996e+3, 1.6650036e+2, -1121901.4, -1243033.4, -62224.703, 0.04466074, -0.30995288, -1095633.4, 212628.69, 0.0032885466, 10.0014715, 9.99978 
2.6263806e+3, 1.7649293e+2, -1040420.7, -1211626.1, -94149.97, 0.09747415, -0.18353674, -998775.44, 211563.5, 0.00021471751, 10.001551, 9.999324 
2.625961e+3, 1.8648383e+2, -999738.5, -992079.06, -106056.016, 0.101007834, -0.22763202, -889783.6, 222642.22, 0.00000047553752, 10.000549, 10.00061 
2.6255414e+3, 1.9647342e+2, -1256696.8, -1159662.9, -85316.49, 0.08360289, -0.4802234, -1110033.0, -95511.64, 0.0, 9.998484, 9.999814 
2.625124e+3, 2.0646535e+2, -1154448.4, -1061971.9, -4865.931, 0.1745206, -0.38275573, -1061716.6, -145114.72, 0.0, 9.99856, 9.999753 
2.624708e+3, 2.1645892e+2, -992108.0, -1021823.44, -31775.127, 0.34242022, -0.14856845, -971888.5, -153217.7, 0.0, 9.99938, 9.998973 
2.6242858e+3, 2.2644743e+2, -782630.7, -947732.8, -167233.63, 0.23640604, -0.27332658, -678683.06, 42101.457, 0.0, 10.000521, 9.998228 
2.6238602e+3, 2.3643255e+2, -639108.75, -872972.6, -91997.11, -0.031243928, -0.7243172, -607257.1, 15671.434, 0.0, 10.000981, 9.997878 
2.6234403e+3, 2.4642448e+2, -458075.9, -421556.3, 12649.583, 0.04083129, -0.5853608, -417602.78, 107404.59, 0.0, 10.000242, 10.000631 
2.6230243e+3, 2.5642073e+2, -688286.94, -604528.94, -54083.61, 0.32313907, -0.1633627, -578005.56, -150961.16, 0.0, 9.998473, 9.999596 
2.6226038e+3, 2.6641077e+2, -684801.0, -760522.25, -93131.234, 0.22032647, -0.13581973, -622128.75, -292983.78, 0.0, 9.998755, 9.997682 
2.6221803e+3, 2.76397e+2, -487854.0, -639687.94, -39786.89, -0.120459415, -0.4273892, -478059.94, -246776.1, 0.0, 9.999512, 9.9974985 
2.6217595e+3, 2.863883e+2, -38083.105, 116191.82, -89101.27, -0.09027699, -0.40390703, 156906.92, 290269.03, 0.0, 9.999857, 10.001821 
2.621341e+3, 2.9638252e+2, -84931.45, 25667.283, -88898.8, 0.1673236, -0.31500667, 75062.79, 110468.13, 0.0, 9.999343, 10.000809 
2.6209238e+3, 3.0637357e+2, -80232.12, -33363.93, 475.91013, 0.3719169, -0.35957283, -33359.098, -33359.098, 0.0, 9.999436, 9.999999 
2.6204997e+3, 3.163607e+2, -260797.58, -499461.4, 68991.734, -0.20837466, -0.7689133, -242289.13, -242289.13, 0.0, 9.999789, 9.996628 
2.638464e+3, 1.269548e+2, -1657510.1, -1684274.5, -79616.234, -0.15165202, 0.112701245, -1590159.3, 105658.125, 0.115287036, 10.000405, 9.99998 
2.6380482e+3, 1.3693881e+2, -1741794.8, -1727560.3, -80503.02, 0.26064283, -0.65158254, -1653860.5, -55892.59, 0.07524967, 9.999319, 9.999554 
2.6376295e+3, 1.469321e+2, -1481652.1, -1347305.1, -130.48697, 0.15304165, -0.5040873, -1347305.0, 152726.39, 0.038529176, 9.999548, 10.001397 
2.6372096e+3, 1.5692925e+2, -1281378.8, -1307009.0, 4030.9622, -0.14913204, -0.07562551, -1280759.8, 121299.05, 0.013527696, 10.000712, 10.000434 
2.6367912e+3, 1.6691953e+2, -1190838.5, -1333561.3, -46757.633, -0.0915868, -0.14234124, -1176884.5, 127269.92, 0.0025719018, 10.001229, 9.999287 
2.6363742e+3, 1.7690684e+2, -1104151.1, -1273511.3, -69823.67, 0.1177057, -0.4824594, -1079076.6, 127202.66, 0.00015054179, 10.001221, 9.999065 
2.6359537e+3, 1.8689841e+2, -996020.7, -963088.2, -161678.42, 0.17553331, -0.45953265, -817039.7, 291321.16, 0.0000001940375, 10.000468, 10.000841 
2.635532e+3, 1.9689174e+2, -1169208.9, -1083009.0, -114713.04, 0.1511807, -0.35151765, -1003566.3, 6857.717, 0.0, 9.998912, 10.000136 
2.6351142e+3, 2.0688333e+2, -1093512.4, -1003209.2, 46505.16, 0.1951744, -0.31791583, -983542.6, -71033.62, 0.0, 9.998852, 10.000005 
2.6346985e+3, 2.168744e+2, -881005.56, -908872.7, 19945.38, 0.26510012, -0.35294023, -870608.9, -56007.305, 0.0, 9.999851, 9.999524 
2.6342776e+3, 2.2686611e+2, -588219.44, -655839.4, -109144.26, 0.19996594, -0.280948, -507768.34, 208914.63, 0.0, 10.000968, 10.000028 
2.6338542e+3, 2.3685765e+2, -400796.78, -621598.0, -43867.85, 0.05590082, -0.24999703, -392400.56, 226362.88, 0.0, 10.001983, 9.9991255 
2.6334316e+3, 2.4684772e+2, -566883.6, -752455.4, -64225.21, -0.0035937945, -0.20373994, -546824.0, -25961.658, 0.0, 10.000667, 9.998159 
2.6330104e+3, 2.568377e+2, -837596.94, -842411.5, -127619.69, 0.00436511, -0.16457166, -712361.8, -289398.06, 0.0, 9.99813, 9.998124 
2.6325914e+3, 2.6682758e+2, -595455.3, -451377.0, -40111.016, 0.035503086, -0.22910914, -440962.94, -115900.84, 0.0, 9.998189, 10.000091 
2.6321727e+3, 2.7681714e+2, -350004.13, -357554.53, 40425.02, 0.054242954, -0.40390003, -313178.4, -86016.734, 0.0, 9.99948, 9.999463 
2.6317522e+3, 2.8680745e+2, -105459.3, -124840.41, -50162.1, 0.027836058, -0.45958817, -64060.29, 65189.055, 0.0, 10.00023, 10.000008 
2.6313308e+3, 2.967984e+2, 3504.3452, -68773.62, -104390.87, 0.0004920626, -0.50234556, 77834.73, 109162.125, 0.0, 10.0004835, 9.999629 
2.630912e+3, 3.0678844e+2, 129120.6, 107116.93, -61661.758, 0.05383886, -0.6291685, 180754.33, 180754.33, 0.0, 10.00067, 10.000394 
2.6304945e+3, 3.1678265e+2, -119360.18, -328372.7, -64130.117, 0.12920313, -0.343961, -101252.29, -101252.29, 0.0, 10.000253, 9.997598 
2.6484597e+3, 1.2736998e+2, -1686796.8, -1737587.3, 53957.29, 0.2419787, -0.24838863, -1652557.3, 39184.746, 0.10016959, 10.000381, 9.999599 
2.6480383e+3, 1.3735926e+2, -1309467.5, -1559014.6, 33106.836, -0.012525874, -0.43343318, -1305150.0, 288696.16, 0.06469248, 10.002663, 9.999102 
2.6476207e+3, 1.47351e+2, -1173100.6, -1305390.3, 17280.502, 0.003541675, -0.3602122, -1170880.6, 325045.63, 0.032530583, 10.002242, 10.000371 
2.6472035e+3, 1.5734418e+2, -1376484.4, -1423538.3, -86811.555, 0.08126091, -0.24015433, -1310068.1, 87924.016, 0.011066901, 10.000365, 9.999786 
2.646784e+3, 1.6733505e+2, -1453304.1, -1357613.8, -120420.63, 0.07589346, -0.29116538, -1275881.6, 24198.688, 0.0019930317, 9.998962, 10.0002165 
2.646364e+3, 1.773245e+2, -1653443.1, -1499316.8, -75427.14, 0.0689752, -0.50297153, -1468546.8, -266364.66, 0.00010503105, 9.997289, 9.999419 
2.6459444e+3, 1.8731602e+2, -1290541.3, -1188878.0, -110861.53, 0.1692891, -0.45504668, -1117750.0, -13483.03, 0.00000008640195, 9.998832, 10.000069 
2.645525e+3, 1.9730878e+2, -884127.3, -999855.8, -145966.67, 0.2944604, -0.33711386, -784973.94, 221366.47, 0.0, 10.001133, 9.999636 
2.6451057e+3, 2.0730093e+2, -886658.4, -780498.25, -11067.546, 0.26817703, -0.3026548, -779356.75, 129061.91, 0.0, 9.999766, 10.001091 
2.6446876e+3, 2.1729256e+2, -1332806.6, -1058493.5, 38946.35, 0.20681435, -0.3838213, -1053071.3, -242569.02, 0.0, 9.996463, 10.000149 
2.6442683e+3, 2.2728516e+2, -976996.75, -804270.5, -47377.29, 0.19059457, -0.2659109, -792128.8, -79553.664, 0.0, 9.998134, 10.000372 
2.6438478e+3, 2.3727855e+2, -574074.8, -708381.8, -115082.336, 0.17206013, -0.10169492, -507985.88, 106653.65, 0.0, 10.000841, 9.999083 
2.643424e+3, 2.4726787e+2, -501421.75, -796638.25, -162574.69, 0.008489085, -0.10390782, -429442.38, 87303.38, 0.0, 10.0014715, 9.997452 
2.6429987e+3, 2.572552e+2, -581613.75, -785068.3, -52597.5, -0.19956511, -0.26055536, -568820.56, -149947.88, 0.0, 10.000204, 9.997516 
2.6425806e+3, 2.6724556e+2, -296457.63, -178159.39, 63529.363, -0.07303596, -0.3088863, -150506.44, 170458.03, 0.0, 9.999728, 10.0012 
2.6421648e+3, 2.7723718e+2, -372873.78, -326841.06, 27087.53, 0.19353932, -0.39883888, -314311.84, -91270.484, 0.0, 9.999183, 9.999807 
2.6417446e+3, 2.872266e+2, -221253.56, -342448.8, -72779.445, 0.12818901, -0.47320917, -187146.81, -62007.246, 0.0, 10.000207, 9.998492 
2.6413214e+3, 2.9721543e+2, -5252.79, -221660.28, -70105.99, -0.15553398, -0.5918098, 15473.293, 42716.313, 0.0, 10.001127, 9.998254 
2.6408997e+3, 3.0720454e+2, 103743.2, 101023.64, -46116.504, -0.38783652, -0.76314807, 148519.97, 148519.97, 0.0, 10.000492, 10.0004225 
2.6404828e+3, 3.1719497e+2, -475312.0, -561621.25, 34151.29, -0.2071845, -0.859268, -463433.6, -463433.6, 0.0, 9.998108, 9.997025 
2.6584554e+3, 1.2778533e+2, -1638665.1, -1740554.6, 66513.305, 0.5724056, -0.6673657, -1605828.0, 81835.37, 0.08642923, 10.000884, 9.999326 
2.6580277e+3, 1.3778207e+2, -1500788.6, -1725670.6, 60294.195, -0.49040204, -0.073522046, -1485643.0, 104056.766, 0.055199467, 10.001547, 9.998486 
2.6576117e+3, 1.4777027e+2, -1457272.4, -1638604.8, -35502.082, -0.23626137, -0.22426373, -1450569.4, 41246.59, 0.027235242, 10.0011, 9.998583 
2.6571992e+3, 1.5775609e+2, -1501139.5, -1573811.4, -94591.42, 0.4474199, -0.6592619, -1436145.1, -42191.27, 0.0089680515, 9.99989, 9.998978 
2.656777e+3, 1.6774936e+2, -1312250.3, -1092638.1, -140556.11, 0.3168748, -0.5450949, -1024081.1, 271935.84, 0.0015322798, 9.9991255, 10.00194 
2.6563513e+3, 1.7774469e+2, -1462936.4, -1293808.5, -66794.06, -0.08915041, -0.32060093, -1270611.1, -72551.11, 0.00007382683, 9.998096, 10.000438 
2.6559344e+3, 1.8773513e+2, -1305349.3, -1350872.9, 10861.622, 0.10452192, -0.32948393, -1302890.5, -202731.39, 0.000000036839044, 9.999377, 9.998703 
2.6555195e+3, 1.9772431e+2, -850147.9, -1019140.25, -72383.47, 0.4624741, -0.43337816, -823383.2, 178889.25, 0.0, 10.001488, 9.999335 
2.6550978e+3, 2.0771827e+2, -740038.3, -500931.06, -116173.88, 0.36749437, -0.3293933, -453783.03, 450546.56, 0.0, 9.999877, 10.00295 
2.654675e+3, 2.1771342e+2, -1201277.1, -873608.5, 1574.8892, 0.124348894, -0.22222997, -873600.94, -67228.89, 0.0, 9.996806, 10.001255 
2.6542577e+3, 2.2770344e+2, -1043698.06, -981603.44, 85400.7, 0.1934572, -0.3200324, -921781.5, -213309.05, 0.0, 9.998282, 9.999092 
2.6538423e+3, 2.3769209e+2, -506078.13, -701709.0, -27794.234, 0.35243204, -0.50232685, -502205.9, 108382.055, 0.0, 10.0013685, 9.998886 
2.6534185e+3, 2.4768302e+2, -251180.61, -379959.66, -158486.86, 0.17129189, -0.4959193, -144502.63, 368171.0, 0.0, 10.001891, 10.000128 
2.652992e+3, 2.576745e+2, -300720.25, -456492.88, -12228.106, -0.11244741, -0.47343177, -299766.2, 114986.0, 0.0, 10.001266, 9.999263 
2.6525727e+3, 2.6766568e+2, -332660.44, -417866.84, 71887.87, -0.008990414, -0.38008693, -291699.9, 25140.463, 0.0, 10.000418, 9.999221 
2.6521564e+3, 2.7765682e+2, -399867.22, -480680.5, 6754.827, 0.27150318, -0.31674972, -399306.5, -180375.81, 0.0, 9.9995575, 9.998577 
2.6517367e+3, 2.876469e+2, -139551.44, -296717.94, -8803.17, 0.17234154, -0.28621075, -139059.89, -18028.787, 0.0, 10.00071, 9.998582 
2.6513144e+3, 2.9763693e+2, 196087.23, -84840.56, -37760.63, -0.1782323, -0.2748656, 201074.25, 224204.31, 0.0, 10.002303, 9.998624 
2.6508912e+3, 3.0762947e+2, 49562.74, 77367.6, -142899.88, -0.3742734, -0.1267005, 207039.73, 207039.73, 0.0, 10.000089, 10.000461 
2.6504752e+3, 3.176185e+2, -612770.8, -520736.7, -8319.588, 0.18693967, -0.3443773, -519990.7, -519990.7, 0.0, 9.99664, 9.998034 
2.6684463e+3, 1.2820338e+2, -1397106.3, -1551484.5, -149268.42, 0.34061334, -0.4138347, -1306250.1, 377328.1, 0.073998824, 10.002289, 9.999997 
2.668022e+3, 1.3819797e+2, -1844150.4, -1831646.3, -138362.83, -0.1984288, -0.12789716, -1699394.3, -113765.414, 0.046711158, 9.998858, 9.999056 
2.6676038e+3, 1.4818731e+2, -1827105.9, -1708305.3, -88337.57, -0.07664802, -0.2563911, -1661254.0, -173522.58, 0.022592442, 9.99809, 9.999558 
2.667188e+3, 1.5817502e+2, -1735390.8, -1626147.4, -38447.43, 0.33376515, -0.59320056, -1613972.9, -224122.6, 0.0071954923, 9.998023, 9.999535 
2.666767e+3, 1.6816773e+2, -1244627.8, -1078016.4, -70316.45, 0.25822982, -0.53769624, -1052307.1, 239610.16, 0.001170623, 9.999678, 10.001773 
2.6663435e+3, 1.781623e+2, -1027780.25, -1092251.3, -82916.07, 0.015602884, -0.3817349, -971053.94, 222912.17, 0.00005271245, 10.0011635, 10.000331 
2.665926e+3, 1.8815331e+2, -1084012.9, -1197040.1, 37600.582, 0.12210517, -0.35904568, -1072647.3, 23412.225, 0.000000014947995, 10.0007305, 9.999099 
2.6655102e+3, 1.981432e+2, -1209645.9, -1183397.1, 26710.22, 0.38233206, -0.4188419, -1166761.0, -168594.78, 0.0, 9.999038, 9.999381 
2.6650876e+3, 2.081368e+2, -903469.75, -613772.2, -137666.9, 0.28104487, -0.32625845, -558787.7, 341440.13, 0.0, 9.9989395, 10.002597 
2.6646632e+3, 2.1813181e+2, -1001816.5, -817970.5, -129297.05, 0.06984315, -0.21556808, -751250.6, 51021.59, 0.0, 9.998425, 10.00083 
2.6642475e+3, 2.2812185e+2, -1058662.1, -978806.1, 98441.24, 0.20215373, -0.31273353, -912503.56, -208130.28, 0.0, 9.99819, 9.999129 
2.6638344e+3, 2.3811002e+2, -1047148.0, -947735.6, 55185.734, 0.44448987, -0.5549453, -923170.9, -316676.0, 0.0, 9.997644, 9.998988 
2.6634115e+3, 2.4810144e+2, -552039.1, -398878.6, -177970.73, 0.27404854, -0.5710525, -281711.28, 226862.16, 0.0, 9.999315, 10.001232 
2.6629853e+3, 2.5809413e+2, -380208.22, -467037.22, -161624.31, -0.03284948, -0.5450393, -256269.1, 154367.16, 0.0, 10.000645, 9.999487 
2.662565e+3, 2.680856e+2, -365299.5, -565965.3, -66228.125, 0.031295918, -0.37995338, -345412.38, -32688.805, 0.0, 10.000805, 9.998001 
2.6621476e+3, 2.780766e+2, -439986.75, -621304.75, -9698.855, 0.24477461, -0.22369558, -439469.44, -224650.02, 0.0, 9.999854, 9.997469 
2.6617286e+3, 2.8806698e+2, -259150.56, -339826.72, 42420.465, 0.14046219, -0.13135622, -240951.0, -124028.86, 0.0, 9.99984, 9.9987 
2.6613072e+3, 2.9805776e+2, -227340.47, -298922.6, -29153.074, -0.20977925, -0.06527675, -216969.84, -197949.48, 0.0, 9.999461, 9.998529 
2.6608837e+3, 3.0805385e+2, 8628.389, 77344.8, -215134.08, -0.23974216, 0.4280009, 260847.02, 260847.02, 0.0, 9.999759, 10.000596 
2.6604688e+3, 3.18036e+2, -76276.75, -70327.52, -50595.902, 0.67932475, -0.5307603, -22618.867, -22618.867, 0.0, 9.999551, 9.999714 
2.678436e+3, 1.2862161e+2, -1495878.3, -1476626.0, -167607.1, -0.052222356, -0.0680389, -1318368.9, 361126.44, 0.0627781, 10.001014, 10.001135 
2.6780176e+3, 1.386114e+2, -1663101.5, -1597242.4, -113067.55, 0.31378344, -0.3559393, -1512406.8, 69176.95, 0.039145205, 9.999454, 10.0004015 
2.6775953e+3, 1.48604e+2, -1569365.4, -1369534.3, -34445.156, 0.14152907, -0.32373017, -1363763.6, 119888.63, 0.018543137, 9.998949, 10.001476 
2.677174e+3, 1.5859689e+2, -1530386.3, -1404737.5, -844.6565, -0.071950085, -0.30968258, -1404731.8, -19012.234, 0.00571063, 9.998892, 10.000635 
2.676756e+3, 1.685874e+2, -1245816.5, -1187837.6, 6916.9263, 0.061985437, -0.44934684, -1187023.8, 100782.88, 0.0008890518, 10.000127, 10.000799 
2.6763386e+3, 1.785779e+2, -982393.4, -1075948.0, -30165.535, 0.21365264, -0.6119141, -973510.3, 216383.6, 0.000037964888, 10.001486, 10.000277 
2.6759183e+3, 1.8857113e+2, -949962.75, -940788.94, -690.7285, 0.13786276, -0.47335976, -940737.2, 151225.19, 0.0000000057994387, 10.000814, 10.000825 
2.6754975e+3, 1.9856471e+2, -1104749.1, -1063544.9, 5338.225, 0.024954285, -0.30995816, -1062864.5, -68834.69, 0.0, 9.999432, 10.000013 
2.6750755e+3, 2.0855597e+2, -1025652.8, -923532.9, -122360.19, 0.028413583, -0.32197848, -842006.5, 54113.375, 0.0, 9.999174, 10.0003605 
2.6746532e+3, 2.1854715e+2, -952117.1, -880449.8, -110952.62, 0.034851365, -0.380889, -799687.9, -1477.9696, 0.0, 9.999082, 10.0000925 
2.6742372e+3, 2.2854108e+2, -893160.6, -694779.5, 84054.31, 0.18561427, -0.18535574, -663955.1, 36317.215, 0.0, 9.998413, 10.000984 
2.6738226e+3, 2.3853493e+2, -974976.6, -821616.1, 77820.664, 0.36887172, -0.009145509, -789044.8, -186709.53, 0.0, 9.997699, 9.999836 
2.6734018e+3, 2.4852444e+2, -674956.9, -641038.9, -95251.42, 0.2799246, -0.13722691, -561248.5, -56811.27, 0.0, 9.999227, 9.999621 
2.6729786e+3, 2.5851333e+2, -334927.72, -503429.53, -134672.53, 0.09713245, -0.34105062, -260323.66, 146220.0, 0.0, 10.001151, 9.999006 
2.6725572e+3, 2.685043e+2, -219268.05, -378712.63, -101035.33, 0.008389432, -0.27628207, -170289.98, 138340.06, 0.0, 10.001255, 9.999095 
2.672137e+3, 2.7849567e+2, -246934.4, -405696.28, -27559.756, 0.013374704, -0.17979689, -242286.34, -31572.395, 0.0, 10.000612, 9.998585 
2.6717183e+3, 2.8848505e+2, -293283.7, -320260.47, 25363.094, 0.051929735, -0.24394037, -278045.38, -165223.06, 0.0, 9.99944, 9.9990425 
2.6712987e+3, 2.984745e+2, -327992.75, -252986.8, -9959.45, -0.033361986, -0.33461684, -251686.89, -236756.0, 0.0, 9.998301, 9.999427 
2.670876e+3, 3.0847e+2, 159703.44, 291892.88, -80368.914, -0.116308235, -0.0090119615, 329854.25, 329854.25, 0.0, 10.000177, 10.001875 
2.670458e+3, 3.1845617e+2, 560304.1, 428900.72, 168964.72, 0.25467363, -0.6672313, 675891.7, 675891.7, 0.0, 10.003031, 10.001479 
2.688425e+3, 1.2904355e+2, -1673652.1, -1477165.4, 62169.324, -0.26847005, 0.033805814, -1459147.0, 216216.73, 0.052669767, 9.9992895, 10.001975 
2.6880127e+3, 1.3903323e+2, -1403735.4, -1503101.1, 82386.45, 0.64620554, -0.3093415, -1357210.6, 220240.52, 0.03242249, 10.001426, 10.000089 
2.6875892e+3, 1.4902426e+2, -1318577.0, -1465079.3, 36537.51, 0.3455185, -0.27735206, -1309970.1, 169568.84, 0.015032302, 10.001596, 9.99953 
2.687165e+3, 1.5901582e+2, -1319747.6, -1427539.1, -68516.63, -0.100409046, -0.2290525, -1286469.5, 95154.12, 0.00447637, 10.000893, 9.999513 
2.686748e+3, 1.6900672e+2, -1129114.8, -1135321.0, -32745.162, 0.04099585, -0.3067597, -1099326.0, 184381.7, 0.00066900725, 10.000959, 10.000767 
2.6863316e+3, 1.7899747e+2, -1089177.1, -1108101.0, -64211.832, 0.2822315, -0.44680926, -1033733.8, 152058.03, 0.000027210404, 10.000667, 10.000474 
2.68591e+3, 1.8899088e+2, -1063604.5, -885825.25, -102039.33, 0.15914722, -0.36701682, -839387.9, 248465.6, 0.000000001728097, 9.999585, 10.001787 
2.6854867e+3, 1.9898495e+2, -1342254.6, -1174863.6, -106077.64, -0.025582695, -0.24519023, -1123439.1, -133528.36, 0.0, 9.997798, 10.000048 
2.6850656e+3, 2.0897496e+2, -1079575.0, -1076349.6, -116182.29, -0.015645765, -0.31774548, -961768.9, -69754.984, 0.0, 9.999345, 9.999236 
2.6846445e+3, 2.1896464e+2, -781012.1, -853690.3, -46879.105, 0.057825997, -0.42921507, -758037.0, 36084.332, 0.0, 10.000528, 9.999584 
2.6842278e+3, 2.2895978e+2, -531296.0, -400837.84, 67020.83, 0.1609809, -0.1687277, -372543.53, 323625.84, 0.0, 10.0004015, 10.002033 
2.6838118e+3, 2.389559e+2, -771733.94, -724142.9, 32688.76, 0.27538192, 0.13817745, -707505.94, -109298.62, 0.0, 9.9991455, 9.999797 
2.683392e+3, 2.489451e+2, -756862.2, -797314.3, -39217.324, 0.21971211, 0.040954754, -732962.4, -232644.8, 0.0, 9.999205, 9.9985285 
2.6829705e+3, 2.5893283e+2, -706996.4, -768578.7, -45843.008, 0.10690047, -0.18214048, -682563.6, -280121.78, 0.0, 9.999003, 9.998216 
2.6825488e+3, 2.6892328e+2, -358477.0, -366779.97, -69168.83, -0.04501785, -0.19231176, -293335.2, 11195.127, 0.0, 9.999992, 9.999765 
2.682127e+3, 2.789143e+2, -280188.7, -369085.5, -56570.67, -0.16104956, -0.20294896, -252693.34, -46081.645, 0.0, 10.000189, 9.9990425 
2.6817083e+3, 2.8890347e+2, -347585.78, -262231.0, -17794.773, -0.012275936, -0.3627744, -258669.73, -149951.75, 0.0, 9.998723, 9.99977 
2.681289e+3, 2.9889265e+2, -557014.1, -293313.1, 41942.336, 0.10227754, -0.5575574, -286802.78, -275977.38, 0.0, 9.996478, 10.000017 
2.680868e+3, 3.088865e+2, -40715.3, 279778.88, 29694.094, -0.013227309, -0.4639749, 282506.84, 282506.84, 0.0, 9.998461, 10.002606 
2.680446e+3, 3.1888106e+2, 174368.4, 349916.28, 314011.4, -0.3844786, -0.37230867, 588190.56, 588190.56, 0.0, 9.999995, 10.002382 
2.6984143e+3, 1.2946592e+2, -1554285.8, -1349688.3, 66484.14, -0.43942642, 0.030661762, -1329982.1, 341242.22, 0.04361018, 9.999868, 10.0025625 
2.6980072e+3, 1.3945733e+2, -1533204.8, -1666422.4, 61238.465, 0.8140629, -0.17880139, -1509332.3, 63963.18, 0.026484415, 10.000971, 9.999155 
2.697584e+3, 1.4944543e+2, -1569493.4, -1930999.8, 21735.463, 0.50593436, -0.19744568, -1568191.3, -92773.47, 0.012009277, 10.001349, 9.996448 
2.6971585e+3, 1.5943356e+2, -1381876.0, -1624221.6, -9573.186, -0.006272338, -0.20930453, -1381498.4, -3956.2292, 0.0034557092, 10.001173, 9.998019 
2.6967406e+3, 1.6942608e+2, -1086856.5, -1064596.5, 34003.06, 0.07026084, -0.11225974, -1039948.2, 239663.95, 0.00049606664, 10.001002, 10.001232 
2.6963234e+3, 1.7941938e+2, -1025386.2, -1007309.56, -43836.125, 0.22213565, -0.039542027, -971589.7, 210082.14, 0.00001910138, 10.000784, 10.001102 
2.695901e+3, 1.8941145e+2, -994487.44, -801288.5, -141182.44, 0.19773522, -0.14608112, -726820.9, 356920.44, 0.0000000002885943, 9.999818, 10.002257 
2.695478e+3, 1.9940343e+2, -1208130.3, -1076218.8, -89188.805, 0.12888658, -0.2640738, -1031247.5, -45434.836, 0.0, 9.998531, 10.000369 
2.6950574e+3, 2.0939377e+2, -1012583.56, -1037248.5, -22633.54, 0.091755435, -0.31457973, -999140.7, -111231.79, 0.0, 9.999715, 9.9993515 
2.6946372e+3, 2.1938412e+2, -645700.1, -741419.44, 11986.548, 0.073733434, -0.36527503, -644221.94, 145784.16, 0.0, 10.001212, 10.000024 
2.6942194e+3, 2.2937655e+2, -463660.72, -361721.34, 56970.215, 0.110270396, -0.39509487, -336248.16, 355827.38, 0.0, 10.000809, 10.002118 
2.6938018e+3, 2.3936976e+2, -621918.4, -607509.1, 17253.332, 0.1474326, -0.38014254, -596016.56, -1878.7229, 0.0, 9.9999485, 10.000207 
2.6933807e+3, 2.4936187e+2, -696910.1, -741226.75, -32345.688, 0.048312865, -0.21223152, -679860.9, -183636.9, 0.0, 9.999468, 9.998804 
2.692959e+3, 2.5935313e+2, -661711.5, -713055.4, -1335.9587, -0.07227383, -0.09306399, -661676.75, -263357.56, 0.0, 9.999113, 9.998551 
2.6925397e+3, 2.6934224e+2, -365169.25, -392638.5, 4190.42, -0.07457635, -0.22413124, -364544.25, -64121.746, 0.0, 10.000005, 9.999599 
2.69212e+3, 2.793316e+2, -141691.06, -207755.77, -51163.742, -0.042826924, -0.38922274, -113822.96, 88698.36, 0.0, 10.000681, 9.999916 
2.6916984e+3, 2.8932402e+2, -241007.06, -7929.7017, -83060.53, 0.010484972, -0.38088545, 18641.07, 123233.61, 0.0, 9.998538, 10.001608 
2.691276e+3, 2.9931667e+2, -539001.56, -192250.08, 62336.79, 0.06433764, -0.376911, -181384.08, -174723.13, 0.0, 9.996162, 10.000853 
2.6908597e+3, 3.0930758e+2, -267915.94, 29981.832, 127335.48, 0.28490365, -0.5174818, 76992.37, 76992.37, 0.0, 9.997447, 10.001409 
2.690438e+3, 3.193015e+2, -133989.66, 148209.38, 206013.17, -0.17307724, -0.37458917, 256810.69, 256810.69, 0.0, 9.998019, 10.001973 
2.7084097e+3, 1.298831e+2, -1464207.1, -1486903.1, -88956.39, -0.12291672, -0.14252882, -1385877.9, 281258.7, 0.0355415, 10.001311, 10.000876 
2.7079952e+3, 1.3987657e+2, -1654922.6, -1712222.1, -139699.06, 0.42810708, -0.028384073, -1540965.9, 28230.914, 0.021268591, 10.000036, 9.999324 
2.7075747e+3, 1.4986695e+2, -1465588.4, -1600180.1, 14630.216, 0.36874864, -0.026894273, -1464016.4, 7276.0313, 0.009415497, 10.000866, 9.998953 
2.7071536e+3, 1.5985666e+2, -1262160.1, -1458195.9, 155828.1, 0.22630462, -0.07973514, -1176085.9, 197309.69, 0.0026134893, 10.001537, 9.998986 
2.706734e+3, 1.6984789e+2, -1215387.1, -1188278.1, 165521.83, 0.22442624, -0.084559225, -1035756.75, 239720.05, 0.0003600524, 10.000394, 10.00066 
2.7063146e+3, 1.7983963e+2, -1384261.3, -1298490.8, 68202.22, 0.24343552, -0.08737314, -1260811.3, -83259.48, 0.000012952271, 9.998858, 10.000022 
2.705893e+3, 1.8983014e+2, -937987.9, -929568.06, -83338.03, 0.2433049, -0.2137621, -850333.7, 229304.66, 0.000000000007316074, 10.000877, 10.000862 
2.705471e+3, 1.9982071e+2, -695067.56, -896396.94, -136636.83, 0.22812876, -0.36027318, -626017.75, 355706.88, 0.0, 10.002371, 9.999761 
2.7050492e+3, 2.0981222e+2, -807021.9, -856928.5, -70735.984, 0.12725423, -0.33973214, -756966.9, 126839.82, 0.0, 10.000802, 10.00006 
2.704628e+3, 2.1980377e+2, -1063589.4, -949823.9, 11295.942, 0.035696704, -0.32967755, -948713.1, -162824.42, 0.0, 9.998414, 9.999942 
2.70421e+3, 2.2979443e+2, -803874.56, -579858.2, 14931.324, 0.05142944, -0.5089138, -578867.3, 109106.44, 0.0, 9.998757, 10.001584 
2.703792e+3, 2.3978558e+2, -852133.3, -777720.56, -60874.28, 0.063740246, -0.65791196, -743582.75, -153527.7, 0.0, 9.998656, 9.999664 
2.7033707e+3, 2.4977887e+2, -721647.5, -713413.1, -108422.87, -0.02249218, -0.393908, -609029.3, -116898.05, 0.0, 9.999156, 9.9991255 
2.7029493e+3, 2.597721e+2, -712093.6, -725287.44, -47544.61, -0.105048686, -0.12006365, -670690.44, -276481.4, 0.0, 9.99879, 9.998602 
2.702531e+3, 2.697614e+2, -512798.66, -424735.34, 25131.879, -0.04275267, -0.26733533, -418067.9, -121755.984, 0.0, 9.998882, 9.999892 
2.7021122e+3, 2.797507e+2, -452041.9, -313434.4, -45634.074, 0.038603697, -0.47593614, -299759.38, -101346.85, 0.0, 9.998428, 10.000262 
2.701688e+3, 2.89745e+2, -202216.56, 88668.34, -224795.2, 0.021154711, -0.3449207, 210969.05, 311432.34, 0.0, 9.998501, 10.002276 
2.7012637e+3, 2.9973954e+2, -333387.4, -146795.95, -95745.18, -0.0011630955, -0.21686454, -106408.34, -103897.12, 0.0, 9.99785, 10.000352 
2.700851e+3, 3.0972758e+2, -89072.445, -43445.566, 18294.129, 0.4638602, -0.5512347, -37016.434, -37016.434, 0.0, 9.999421, 9.999934 
2.7004293e+3, 3.1972003e+2, -28037.086, 101400.73, -130756.45, -0.050016113, -0.4412712, 182578.31, 182578.31, 0.0, 9.99924, 10.001061 
2.7184057e+3, 1.3029951e+2, -1666454.1, -1810948.4, -87270.59, 0.17136152, -0.28721675, -1625406.1, 37650.64, 0.028406445, 10.000884, 9.998812 
2.7179804e+3, 1.4029454e+2, -1492086.0, -1498198.8, -44688.453, -0.19484204, 0.115211315, -1450349.5, 114763.13, 0.016711893, 10.00059, 10.000518 
2.7175647e+3, 1.5028884e+2, -1148854.4, -953074.75, 78628.64, 0.12528983, 0.15642028, -925406.3, 541755.6, 0.0071980706, 10.0009365, 10.003378 
2.7171493e+3, 1.6028203e+2, -1165740.5, -1210513.8, 108849.47, 0.46797293, 0.078536496, -1076999.5, 292220.94, 0.0019202423, 10.001334, 10.000781 
2.7167276e+3, 1.7027049e+2, -1242083.8, -1315335.4, 79658.016, 0.39685485, -0.17140092, -1191034.9, 80290.02, 0.00025324232, 10.000712, 9.999635 
2.7163056e+3, 1.8025859e+2, -1373808.1, -1489624.0, 73134.99, 0.26301634, -0.40997028, -1338431.3, -164996.81, 0.000008369746, 9.999745, 9.998291 
2.7158856e+3, 1.9024739e+2, -1080318.4, -1285302.5, 20154.22, 0.26454985, -0.46743432, -1078355.5, -2811.9116, 0.0, 10.001131, 9.998302 
2.715465e+3, 2.0023726e+2, -684635.6, -930539.7, -113112.65, 0.24458987, -0.47759107, -640519.75, 337122.63, 0.0, 10.002596, 9.999419 
2.715041e+3, 2.1023037e+2, -694783.56, -657540.44, -137623.27, 0.0878482, -0.3802306, -537284.6, 342422.0, 0.0, 10.000941, 10.001372 
2.7146176e+3, 2.2022346e+2, -966251.7, -857816.25, -6847.5313, -0.066636704, -0.3136721, -857385.56, -75614.75, 0.0, 9.998855, 10.000366 
2.7141994e+3, 2.3021378e+2, -856763.94, -731076.75, 46215.977, -0.015676241, -0.44423798, -715912.44, -32050.283, 0.0, 9.998902, 10.000502 
2.713782e+3, 2.4020408e+2, -781608.8, -766595.94, -42087.945, 0.049429625, -0.5724815, -731350.25, -145395.1, 0.0, 9.999191, 9.999484 
2.7133626e+3, 2.501955e+2, -659891.4, -639583.2, -92145.22, 0.114920035, -0.5136426, -557034.3, -68986.7, 0.0, 9.999361, 9.999548 
2.7129424e+3, 2.601876e+2, -537802.25, -484964.94, -47245.87, 0.15840755, -0.40733686, -457253.03, -67119.83, 0.0, 9.99928, 10.000009 
2.7125224e+3, 2.7018082e+2, -424440.6, -214789.34, 18991.68, 0.107726015, -0.3144405, -213082.83, 79114.164, 0.0, 9.998733, 10.001425 
2.712102e+3, 2.8017354e+2, -502597.47, -366767.53, -30766.623, 0.077415906, -0.27034217, -360123.6, -165859.25, 0.0, 9.99819, 9.999997 
2.711678e+3, 2.901644e+2, -325392.7, -258942.8, -226292.55, 0.06074751, -0.2786569, -63449.117, 32904.26, 0.0, 9.998897, 9.999695 
2.711254e+3, 3.0015472e+2, -212732.42, -333161.4, -128002.16, -0.0007481532, -0.31999642, -131489.02, -131489.02, 0.0, 9.999687, 9.998188 
2.7108392e+3, 3.1014144e+2, 23483.848, -212109.73, -42688.805, 0.08783448, -0.58793765, 30980.385, 30980.385, 0.0, 10.001119, 9.997978 
2.7104232e+3, 3.201332e+2, 11461.459, -187303.86, -504585.22, 0.15921356, -0.33193827, 426358.06, 426358.06, 0.0, 10.000791, 9.998343 
2.7283978e+3, 1.3072136e+2, -1634162.5, -1721752.5, 77402.805, 0.2057166, -0.24563555, -1589023.9, 69893.26, 0.022181556, 10.000734, 9.999529 
2.7279758e+3, 1.4071485e+2, -1328608.9, -1500101.5, 112736.76, 0.060634788, -0.0047905487, -1272714.8, 288268.72, 0.01278238, 10.002023, 9.999844 
2.727557e+3, 1.5070686e+2, -1235120.3, -1175129.8, 28253.47, 0.16345188, -0.04730106, -1163918.5, 299139.9, 0.005327248, 10.001081, 10.001803 
2.7271396e+3, 1.6069888e+2, -1383441.5, -1372718.9, -111775.58, 0.34267265, -0.1279151, -1266176.1, 98955.2, 0.0013580795, 10.000095, 10.00028 
2.726719e+3, 1.7068943e+2, -1012164.9, -1150589.8, -98051.2, 0.26561114, -0.22375658, -961359.0, 305858.38, 0.00016970174, 10.002102, 10.000095 
2.7262977e+3, 1.8067917e+2, -884691.8, -1283729.9, -69962.14, 0.17215778, -0.33814296, -872781.06, 296531.53, 0.0000049540654, 10.003292, 9.997989 
2.7258775e+3, 1.9066718e+2, -1086254.9, -1363461.5, -38913.633, 0.19868578, -0.4348155, -1080895.9, -9463.794, 0.0, 10.001451, 9.997601 
2.725457e+3, 2.0065613e+2, -1210218.4, -1211971.9, -79431.29, 0.23325695, -0.47492218, -1131659.0, -158117.38, 0.0, 9.999155, 9.999131 
2.725033e+3, 2.1064954e+2, -755659.1, -649949.75, -153504.5, 0.12159091, -0.36963567, -540455.3, 335145.3, 0.0, 10.000427, 10.001635 
2.724609e+3, 2.2064292e+2, -696177.3, -767041.44, -66558.73, 0.0012530274, -0.28741556, -656207.1, 121452.62, 0.0, 10.000934, 9.999974 
2.7241904e+3, 2.3063307e+2, -712344.6, -712457.6, 22230.102, -0.00026874445, -0.40100005, -690171.0, -10416.19, 0.0, 10.000173, 9.999989 
2.7237725e+3, 2.4062322e+2, -861719.56, -838195.0, -5972.627, 0.040777728, -0.49872366, -836765.5, -254914.0, 0.0, 9.998857, 9.999142 
2.7233538e+3, 2.506142e+2, -577374.2, -555228.7, -34426.066, 0.1648707, -0.51029915, -530138.5, -46191.98, 0.0, 9.99978, 9.999905 
2.7229345e+3, 2.6060593e+2, -408285.72, -385947.78, -19944.895, 0.26249176, -0.47588778, -374257.5, 11775.128, 0.0, 10.0000515, 10.000328 
2.7225134e+3, 2.7060065e+2, -220636.22, -30433.043, -45053.453, 0.15905072, -0.31372756, -20300.959, 267779.66, 0.0, 9.999784, 10.002177 
2.7220917e+3, 2.8059483e+2, -469256.53, -471668.5, -113360.75, 0.061121106, -0.16583003, -357095.34, -166961.34, 0.0, 9.998967, 9.998916 
2.7216688e+3, 2.9058322e+2, -279126.2, -461074.7, -193693.34, 0.06145265, -0.25540334, -156106.44, -63855.668, 0.0, 10.0002, 9.997676 
2.721245e+3, 3.0057064e+2, -196394.53, -537661.25, 15377.515, -0.07375582, -0.38051623, -195703.03, -195703.03, 0.0, 10.000746, 9.996277 
2.7208284e+3, 3.1055668e+2, -47485.06, -383407.66, 192020.5, -0.28844407, -0.578962, 39667.086, 39667.086, 0.0, 10.0012455, 9.996713 
2.7204177e+3, 3.205473e+2, -181008.39, -557679.1, -387954.03, 0.440254, -0.25633442, 61908.535, 61908.535, 0.0, 10.000756, 9.995771 
2.73839e+3, 1.3114434e+2, -1452668.1, -1484289.6, 92944.45, 0.13102071, -0.1834495, -1374199.3, 280564.44, 0.016842194, 10.001379, 10.00084 
2.7379742e+3, 1.4113556e+2, -1413043.0, -1714870.9, 80428.055, 0.5167467, -0.22975402, -1392949.1, 163894.42, 0.009464787, 10.002201, 9.998267 
2.7375504e+3, 1.5112312e+2, -1467660.6, -1696026.1, 6117.536, 0.21669947, -0.39206284, -1467496.9, -8527.931, 0.0037924107, 10.001273, 9.998106 
2.7371275e+3, 1.6111201e+2, -1389659.0, -1452256.0, -21353.025, -0.032762077, -0.49354964, -1383068.9, -21988.213, 0.0009170214, 10.000399, 9.999566 
2.7367094e+3, 1.7110705e+2, -967148.75, -981232.25, 33579.367, -0.04490981, -0.21876673, -939880.75, 323246.94, 0.0001065257, 10.001799, 10.0013895 
2.7362904e+3, 1.811011e+2, -861475.3, -1158663.8, -64036.258, -0.043075874, -0.008846724, -848264.44, 316920.1, 0.0000025959862, 10.002949, 9.999006 
2.7358687e+3, 1.9108866e+2, -1042963.06, -1265377.5, -100303.87, 0.056515545, -0.21796383, -1004410.8, 62898.19, 0.0, 10.001384, 9.998325 
2.735447e+3, 2.0107684e+2, -1108169.5, -1133708.6, -63993.332, 0.14946814, -0.39191428, -1055684.1, -86258.05, 0.0, 9.999694, 9.999406 
2.7350256e+3, 2.110693e+2, -749838.6, -720131.9, -73392.16, 0.20291264, -0.33290306, -660105.1, 211387.9, 0.0, 10.000746, 10.001011 
2.7346042e+3, 2.210619e+2, -580686.56, -710814.94, -43150.77, 0.20001723, -0.27483028, -567678.1, 205881.31, 0.0, 10.001683, 9.999998 
2.734183e+3, 2.3105213e+2, -644611.8, -658511.3, -9976.535, 0.0946053, -0.3915158, -639403.0, 36251.51, 0.0, 10.000515, 10.000204 
2.7337626e+3, 2.4104302e+2, -729366.06, -700876.2, 10208.368, 0.0103220465, -0.43767524, -697596.06, -119851.32, 0.0, 9.9994135, 9.99981 
2.7333438e+3, 2.5103667e+2, -468186.47, -445355.34, 29359.225, 0.030471768, -0.22902472, -425270.44, 54542.832, 0.0, 10.000248, 10.000447 
2.7329245e+3, 2.6102975e+2, -275355.78, -319429.78, 8279.139, 0.05857816, -0.0907562, -273851.9, 108033.445, 0.0, 10.000917, 10.000361 
2.7325034e+3, 2.7101994e+2, -197247.95, -135526.3, -65321.297, 0.011151891, -0.29355913, -94142.664, 189833.44, 0.0, 10.000417, 10.001163 
2.732082e+3, 2.8101036e+2, -292942.63, -369528.9, -116437.34, -0.0032854208, -0.43995407, -208663.27, -22597.938, 0.0, 10.000023, 9.99913 
2.73166e+3, 2.9100165e+2, -63917.98, -262427.97, -122890.51, 0.013902015, -0.3025661, -5205.7896, 82948.18, 0.0, 10.001196, 9.998605 
2.731238e+3, 3.009925e+2, 143653.17, -133770.7, 124656.44, -0.08373854, -0.20017372, 191435.83, 191435.83, 0.0, 10.00202, 9.998435 
2.7308223e+3, 3.1098074e+2, 163250.36, 5992.6494, 349858.13, -0.19197376, -0.40832046, 443206.5, 443206.5, 0.0, 10.001443, 9.99929 
2.7304056e+3, 3.209738e+2, 165609.8, -79609.74, -89102.96, 0.0080510145, -0.05965954, 194566.83, 194566.83, 0.0, 10.001742, 9.998584 
2.7483836e+3, 1.315649e+2, -1231744.9, -1437853.1, 54689.87, 0.09775988, -0.1663834, -1218132.3, 432507.6, 0.012346225, 10.00316, 10.000288 
2.7479666e+3, 1.4155345e+2, -1270806.8, -1642837.6, -62111.33, 0.3642176, -0.4484148, -1260711.1, 292032.94, 0.0067426753, 10.003183, 9.998264 
2.747543e+3, 1.5154353e+2, -1311985.3, -1584994.0, -17974.576, 0.17815156, -0.404066, -1310806.9, 144039.11, 0.0025849484, 10.002177, 9.998421 
2.7471203e+3, 1.6153398e+2, -1364413.3, -1474602.9, 105933.62, 0.03461911, -0.35303098, -1300103.8, 56840.344, 0.0005889778, 10.000707, 9.999259 
2.7467018e+3, 1.715268e+2, -1346649.8, -1241107.8, 111666.14, 0.039625373, -0.23848511, -1170371.3, 88643.89, 0.00006228534, 9.999478, 10.000732 
2.7462828e+3, 1.815198e+2, -1507205.1, -1434718.3, -46453.84, 0.056351148, -0.09319348, -1412041.9, -250957.39, 0.0000011486238, 9.998361, 9.999321 
2.7458608e+3, 1.915104e+2, -1217145.1, -1202500.3, -56608.973, 0.116464294, -0.11834585, -1152742.1, -89563.25, 0.0, 9.999576, 9.999596 
2.7454385e+3, 2.015005e+2, -1020038.3, -1075631.0, 47829.285, 0.17044583, -0.18724257, -992514.9, -27239.021, 0.0, 10.000277, 9.9995165 
2.7450177e+3, 2.1149053e+2, -772246.94, -783018.6, 65565.734, 0.19120541, -0.33576563, -711846.2, 155519.53, 0.0, 10.000835, 10.000535 
2.744597e+3, 2.2148125e+2, -751607.4, -820709.8, 70916.61, 0.21086374, -0.41063994, -707272.94, 62177.277, 0.0, 10.000674, 9.999728 
2.7441755e+3, 2.3147285e+2, -608156.2, -620629.9, 66810.95, 0.14672066, -0.3943546, -547291.6, 124241.57, 0.0, 10.000718, 10.000348 
2.7437544e+3, 2.4146488e+2, -679185.56, -725257.2, 104876.37, 0.044142213, -0.31061807, -594844.94, -21231.453, 0.0, 10.000009, 9.999353 
2.7433342e+3, 2.5145847e+2, -554920.8, -510652.06, 74660.23, -0.072787486, -0.08690806, -454914.25, 20768.246, 0.0, 9.999779, 10.00021 
2.7429143e+3, 2.6145127e+2, -574751.0, -564775.8, -17655.63, -0.14215802, 0.05942678, -551416.8, -173659.6, 0.0, 9.999341, 9.999426 
2.742494e+3, 2.7143902e+2, -364398.8, -329106.9, -90641.62, -0.06410037, -0.29799414, -254409.56, 25463.453, 0.0, 9.999782, 10.000122 
2.7420735e+3, 2.8142762e+2, -331152.9, -389289.38, -91482.22, -0.007756415, -0.5563514, -264231.78, -82250.47, 0.0, 9.999834, 9.999065 
2.741652e+3, 2.9142126e+2, -57265.04, -118234.32, -65564.5, -0.03532765, -0.28696933, -15444.654, 68600.44, 0.0, 10.000716, 9.999785 
2.7412307e+3, 3.0141473e+2, 42291.426, -6506.4463, 124791.945, -0.13643342, -0.051527947, 145047.27, 145047.27, 0.0, 10.000636, 9.999962 
2.740816e+3, 3.1140482e+2, -4126.378, 165097.84, 203898.34, -0.054048885, -0.29383534, 301242.94, 301242.94, 0.0, 9.999296, 10.001402 
2.740392e+3, 3.2140002e+2, 32680.08, 166580.75, -177482.66, -0.6044183, 0.008686277, 289320.78, 289320.78, 0.0, 9.999507, 10.001361 
2.758377e+3, 1.319845e+2, -1403896.4, -1626547.8, 116861.9, -0.038730543, -0.20301758, -1353821.6, 292705.3, 0.008675111, 10.002443, 9.999326 
2.757957e+3, 1.4197084e+2, -1304320.4, -1549991.5, -23573.836, -0.058628764, -0.6584407, -1302078.8, 246575.05, 0.0045906715, 10.002483, 9.999235 
2.7575356e+3, 1.5196623e+2, -1168016.8, -1300040.3, -25678.75, 0.12150291, -0.2519247, -1163198.1, 287505.06, 0.0016781231, 10.002252, 10.000341 
2.7571154e+3, 1.6195984e+2, -1283306.5, -1464752.0, 69813.29, 0.27313823, -0.00033837746, -1259554.4, 93215.53, 0.0003582228, 10.001388, 9.998996 
2.7566954e+3, 1.7194706e+2, -1377445.5, -1430927.9, 87328.18, 0.30524302, -0.30778682, -1312856.0, -57959.29, 0.000033741435, 10.000016, 9.999169 
2.7562755e+3, 1.8193664e+2, -1340583.4, -1254394.5, -9907.609, 0.2954387, -0.42582825, -1253270.3, -96270.14, 0.00000040337267, 9.999052, 10.00022 
2.7558532e+3, 1.9193278e+2, -1028646.5, -910254.25, 12374.587, 0.27627206, -0.056038145, -908974.6, 150063.92, 0.0, 9.999983, 10.00141 
2.755431e+3, 2.0192662e+2, -893006.0, -955477.2, 82655.77, 0.21645117, 0.11828084, -835880.75, 125216.125, 0.0, 10.000855, 10.000075 
2.7550086e+3, 2.1191275e+2, -744141.5, -801355.94, 100065.89, 0.05733395, -0.39879033, -668673.94, 194548.81, 0.0, 10.001115, 10.000305 
2.754587e+3, 2.2190104e+2, -658836.6, -735436.44, 93512.26, -0.013776678, -0.7054324, -596084.94, 169245.27, 0.0, 10.001129, 10.000083 
2.7541676e+3, 2.3189598e+2, -550368.5, -567001.94, 95579.734, 0.15704024, -0.36988166, -462744.3, 204637.81, 0.0, 10.000994, 10.000595 
2.7537477e+3, 2.4188946e+2, -623457.1, -777170.75, 121908.445, 0.20198947, -0.12276871, -556200.7, 13248.491, 0.0, 10.000673, 9.998687 
2.753325e+3, 2.5187787e+2, -637669.25, -729426.75, 73786.6, -0.09635752, -0.25590855, -596661.2, -125094.32, 0.0, 9.999942, 9.998649 
2.752904e+3, 2.618672e+2, -599966.94, -647157.2, -2185.891, -0.23754145, -0.3213101, -599865.94, -226189.73, 0.0, 9.999423, 9.998826 
2.7524868e+3, 2.718584e+2, -374721.47, -390801.75, -53668.676, 0.10536572, -0.27062297, -328494.0, -52727.66, 0.0, 9.999933, 9.999634 
2.7520677e+3, 2.8184998e+2, -186824.56, -208175.44, -51357.06, 0.29035985, -0.22381972, -145045.14, 32805.035, 0.0, 10.000342, 10.000052 
2.7516434e+3, 2.9184276e+2, 27053.215, 67218.56, -30561.324, -0.07725409, -0.14752026, 83705.12, 163619.73, 0.0, 10.000703, 10.001053 
2.7512208e+3, 3.018345e+2, -26846.135, -95720.875, 82285.82, -0.30673015, -0.14312977, 27917.89, 27917.89, 0.0, 10.000355, 9.999503 
2.750809e+3, 3.1182197e+2, -250941.78, -138009.64, 42030.62, 0.256045, -0.5014726, -124084.02, -124084.02, 0.0, 9.998305, 9.999852 
2.750385e+3, 3.2181534e+2, -199297.4, 5262.85, -189104.94, -0.24714793, -0.27254114, 117975.516, 117975.516, 0.0, 9.998035, 10.0009775 
2.7683705e+3, 1.3240856e+2, -1524283.0, -1667113.4, 201684.69, 0.01707805, -0.14005838, -1381742.9, 260625.56, 0.005813484, 10.001513, 9.999529 
2.767949e+3, 1.4239483e+2, -1545418.5, -1763386.0, 103091.81, -0.1306989, -0.5517144, -1504384.3, 40114.676, 0.002967665, 10.00124, 9.998386 
2.7675292e+3, 1.5238813e+2, -1146613.9, -1405984.4, 10308.017, 0.12320816, -0.24632668, -1146204.8, 300366.56, 0.0010277973, 10.002918, 9.999287 
2.76711e+3, 1.6238075e+2, -958234.56, -1303704.5, -21392.607, 0.34711742, -0.03136999, -956914.9, 391732.72, 0.00020336722, 10.003613, 9.999044 
2.7666885e+3, 1.7236914e+2, -1000242.9, -1198344.5, 52061.14, 0.3201986, -0.27225313, -987394.5, 263363.47, 0.000016580547, 10.002396, 9.99963 
2.766267e+3, 1.8235877e+2, -1043493.4, -1153849.9, 64166.516, 0.27891955, -0.38972756, -1014043.1, 138814.83, 0.00000009587778, 10.001312, 9.999825 
2.7658454e+3, 1.9235292e+2, -765707.4, -846392.0, -26264.87, 0.2593471, -0.16545975, -757910.9, 297006.94, 0.0, 10.002088, 10.00084 
2.7654234e+3, 2.023461e+2, -799272.94, -974734.2, -107607.07, 0.18390124, -0.009427492, -748165.7, 208819.13, 0.0, 10.001811, 9.999482 
2.7649993e+3, 2.1233396e+2, -943702.9, -925323.56, -128902.266, -0.03399648, -0.35244104, -805283.75, 53813.633, 0.0, 9.999901, 10.000017 
2.7645773e+3, 2.2232312e+2, -1079882.4, -1001468.0, -94646.445, -0.12328202, -0.557901, -938229.3, -177030.61, 0.0, 9.998556, 9.999489 
2.7641597e+3, 2.3231746e+2, -685802.7, -677658.06, -115742.23, 0.14291002, -0.27554563, -565916.56, 97339.164, 0.0, 10.000281, 10.000164 
2.7637404e+3, 2.423102e+2, -663114.75, -868251.56, -125558.64, 0.2709596, -0.077493176, -603555.9, -38227.72, 0.0, 10.000769, 9.998004 
2.763317e+3, 2.5229654e+2, -696133.56, -807553.1, -78518.84, -0.03184684, -0.40789038, -655568.8, -188106.27, 0.0, 9.999799, 9.998167 
2.7628952e+3, 2.6228464e+2, -722031.0, -757028.1, -18125.84, -0.18140808, -0.5522514, -714335.4, -344753.34, 0.0, 9.99887, 9.998338 
2.762479e+3, 2.7227855e+2, -445731.38, -445298.88, -16756.535, 0.20231067, -0.21669173, -428757.2, -157106.22, 0.0, 9.9996, 9.999409 
2.7620605e+3, 2.8227192e+2, -287219.0, -252285.88, -31316.377, 0.40440422, 0.02910254, -233894.44, -60174.32, 0.0, 9.999665, 10.00008 
2.761635e+3, 2.9226297e+2, -101607.07, 41633.313, -87799.28, -0.088476986, -0.116743766, 83318.75, 159115.69, 0.0, 9.999657, 10.0013895 
2.761212e+3, 3.0225316e+2, -281055.3, -346889.47, -53672.43, -0.34598514, -0.25793594, -251010.0, -251010.0, 0.0, 9.99921, 9.998313 
2.7608016e+3, 3.122394e+2, -231987.25, -294948.47, -48063.535, 0.5175984, -0.6097156, -206012.38, -206012.38, 0.0, 9.999199, 9.998312 
2.7603775e+3, 3.2222974e+2, -35423.387, 26502.408, 30123.678, -0.037394628, -0.5754151, 38738.316, 38738.316, 0.0, 9.999558, 10.00033 
2.778364e+3, 1.3283345e+2, -1588589.0, -1640682.4, 52451.918, 0.07895511, -0.046929188, -1556072.6, 82129.23, 0.003682082, 10.000852, 10.0 
2.7779415e+3, 1.4282043e+2, -1662365.6, -1977640.0, 85450.625, -0.13084728, -0.37579644, -1640695.0, -100366.67, 0.0018025665, 10.001138, 9.996948 
2.7775234e+3, 1.5280917e+2, -1348981.8, -1749396.6, 79705.48, 0.09653281, -0.32648945, -1333699.1, 108749.93, 0.00058547396, 10.002585, 9.997084 
2.7771044e+3, 1.627996e+2, -929529.44, -1198761.1, -22798.285, 0.26910433, -0.22559656, -927612.56, 416934.06, 0.00010501676, 10.003395, 9.999869 
2.7766803e+3, 1.7279278e+2, -860667.5, -941115.25, 14937.231, 0.15175894, -0.14305471, -857983.56, 388618.38, 0.0000068884756, 10.00252, 10.001339 
2.7762577e+3, 1.8278389e+2, -1069534.0, -1307947.5, 71115.62, 0.059492037, -0.1648375, -1049932.6, 98750.414, 0.00000000965895, 10.001743, 9.998552 
2.7758375e+3, 1.927706e+2, -921037.44, -1186445.6, 27359.363, 0.09486289, -0.4564163, -918246.5, 132573.56, 0.0, 10.00215, 9.998486 
2.7754155e+3, 2.0276017e+2, -806252.75, -1031234.8, -140264.0, 0.06438791, -0.4893933, -738943.25, 213984.84, 0.0, 10.001988, 9.998996 
2.77499e+3, 2.1275479e+2, -943829.3, -952220.5, -181758.06, -0.08643366, -0.121001914, -766218.44, 88765.805, 0.0, 10.000026, 9.999768 
2.774567e+3, 2.2274731e+2, -1059177.5, -1075029.0, -50540.703, -0.14550917, 0.061228316, -1015944.9, -258885.77, 0.0, 9.999016, 9.998777 
2.7741504e+3, 2.327357e+2, -717560.2, -823534.25, -50139.785, 0.05117894, -0.12853292, -697597.8, -38425.54, 0.0, 10.00058, 9.999052 
2.7737325e+3, 2.4272482e+2, -488959.03, -623820.8, -156898.34, 0.20988387, -0.26999432, -385615.2, 175661.11, 0.0, 10.001267, 9.999431 
2.773311e+3, 2.5271443e+2, -524235.94, -528049.2, -120853.016, 0.24457785, -0.43983117, -405274.5, 58097.89, 0.0, 10.000122, 9.999945 
2.7728894e+3, 2.6270524e+2, -557277.8, -535213.0, 8415.125, 0.19308111, -0.46219772, -532369.94, -166909.67, 0.0, 9.999362, 9.999626 
2.772468e+3, 2.7269927e+2, -344241.16, -321210.03, 40543.207, 0.021510545, -0.18202654, -290578.72, -23053.807, 0.0, 9.999936, 10.000121 
2.7720478e+3, 2.8269142e+2, -291227.84, -367440.44, 358.93494, 0.013703113, -0.054706223, -291226.16, -121620.57, 0.0, 10.000076, 9.999091 
2.7716285e+3, 2.9267904e+2, -239113.42, -243932.92, -110765.516, 0.18860416, -0.3599492, -130731.445, -59008.11, 0.0, 9.999571, 9.9994955 
2.7712077e+3, 3.02669e+2, -236405.3, -297954.6, -53266.99, 0.1975939, -0.41218036, -205662.06, -205662.06, 0.0, 9.9993515, 9.998575 
2.7707902e+3, 3.1266308e+2, -39699.676, -112520.64, -4987.991, 0.25496265, -0.056561742, -39359.605, -39359.605, 0.0, 10.000102, 9.999124 
2.7703676e+3, 3.2265002e+2, 389491.13, 284277.72, 184972.28, -0.33459803, -0.4126371, 529192.0, 529192.0, 0.0, 10.002182, 10.00084 
2.788358e+3, 1.3325018e+2, -1615817.6, -1610888.3, -101791.44, 0.2574417, -0.22508892, -1511531.6, 122590.83, 0.0021676733, 10.00048, 10.000359 
2.787936e+3, 1.4324166e+2, -1564778.5, -1817996.1, -68256.836, 0.06772207, -0.19713883, -1547551.4, -11346.446, 0.0010066197, 10.001282, 9.997984 
2.7875167e+3, 1.5323043e+2, -1420421.1, -1648035.6, 53183.113, 0.116203, -0.2901455, -1408607.8, 29712.338, 0.0003005565, 10.001464, 9.998341 
2.7870968e+3, 1.6322021e+2, -1188723.1, -1335939.1, 8100.6123, 0.15378201, -0.32006577, -1188278.8, 152141.4, 0.000046417692, 10.001696, 9.9997425 
2.786672e+3, 1.7321229e+2, -873064.4, -1000770.7, -71337.06, -0.043323055, -0.3081363, -841177.25, 401309.63, 0.0000020738605, 10.002699, 10.000841 
2.786249e+3, 1.8320347e+2, -1000280.06, -1334409.0, -79097.484, -0.15325654, -0.27986154, -982501.5, 162067.44, 0.00000000000031198744, 10.002483, 9.9980135 
2.7858284e+3, 1.9319151e+2, -1142470.3, -1334641.0, -27113.486, -0.05632085, -0.4245178, -1138718.1, -92022.15, 0.0, 10.000815, 9.998096 
2.785407e+3, 2.0318143e+2, -1149491.5, -1211260.9, -82768.4, 0.012421609, -0.393789, -1092033.3, -143231.11, 0.0, 9.999758, 9.9988165 
2.7849823e+3, 2.13176e+2, -784879.2, -876452.1, -102358.79, -0.010309076, -0.022276755, -718533.06, 132325.67, 0.0, 10.0011835, 9.99971 
2.7845597e+3, 2.231683e+2, -775795.1, -1009789.5, 87926.84, -0.014335715, 0.18491243, -746438.4, 6498.985, 0.0, 10.001303, 9.998111 
2.7841422e+3, 2.331547e+2, -783401.06, -915330.25, 131085.47, 0.038192604, -0.14413032, -702618.5, -47546.316, 0.0, 10.000426, 9.998473 
2.7837238e+3, 2.4314296e+2, -694517.56, -654170.56, -6318.5, 0.14359605, -0.34491798, -653204.25, -96019.13, 0.0, 9.999596, 10.000028 
2.7833033e+3, 2.53135e+2, -497374.9, -382796.97, -43219.637, 0.34819028, -0.3654319, -368322.7, 90931.97, 0.0, 9.999787, 10.001085 
2.7828816e+3, 2.631274e+2, -545915.6, -515905.03, 58400.61, 0.33696944, -0.29353726, -470612.8, -109287.93, 0.0, 9.999433, 9.999706 
2.7824575e+3, 2.7312016e+2, -419842.63, -343477.75, 29172.354, -0.13479477, -0.15365785, -333608.9, -70209.266, 0.0, 9.999397, 10.000207 
2.7820364e+3, 2.8311083e+2, -498844.06, -605473.9, -49719.063, -0.25081474, -0.13513094, -479258.6, -313763.94, 0.0, 9.999307, 9.997816 
2.7816212e+3, 2.930963e+2, -262428.66, -421926.38, -92503.32, 0.38044655, -0.521617, -220043.39, -152404.38, 0.0, 10.000189, 9.997951 
2.7812022e+3, 3.0308667e+2, -98605.72, -222229.23, 15092.89, 0.50732166, -0.42569727, -96789.74, -96789.74, 0.0, 10.000319, 9.998627 
2.780778e+3, 3.1308708e+2, 12256.22, 5542.805, 19096.773, -0.10098781, 0.47660026, 28289.053, 28289.053, 0.0, 10.000124, 9.99992 
2.7803597e+3, 3.2306963e+2, 139918.6, 208323.36, 293210.13, -0.4679404, -0.37324995, 469319.2, 469319.2, 0.0, 10.000309, 10.001247 
2.798352e+3, 1.3366538e+2, -1471367.0, -1510967.4, -8080.1333, 0.39568722, -0.44300234, -1469781.8, 160278.13, 0.001165267, 10.001341, 10.000631 
2.7979305e+3, 1.4366178e+2, -1422499.5, -1513816.1, -19373.92, 0.2516267, -0.006615177, -1418559.1, 113533.77, 0.00050434715, 10.001257, 10.000078 
2.7975094e+3, 1.536522e+2, -1262266.8, -1264157.1, 63131.406, 0.11575773, -0.19312403, -1200073.5, 234110.13, 0.00013432601, 10.001248, 10.001072 
2.797088e+3, 1.636415e+2, -1262823.5, -1474446.1, 17903.572, -0.00931851, -0.3933457, -1261319.5, 74965.055, 0.00001642319, 10.001617, 9.998836 
2.796664e+3, 1.7362909e+2, -1017041.1, -1265838.5, -13738.886, -0.2788253, -0.6545885, -1016284.7, 222114.98, 0.0000003300107, 10.002547, 9.999102 
2.7962404e+3, 1.836201e+2, -922615.06, -1204932.5, -103431.99, -0.40687346, -0.57249576, -888776.75, 251711.53, 0.0, 10.002575, 9.998873 
2.7958187e+3, 1.9361551e+2, -1030041.3, -1148061.4, -65252.54, -0.23177469, -0.08345948, -1001073.7, 41471.832, 0.0, 10.000989, 9.999313 
2.7953976e+3, 2.036082e+2, -1024236.8, -1068280.6, -42238.504, -0.032520685, 0.13049795, -998624.06, -54001.945, 0.0, 10.000261, 9.999544 
2.7949768e+3, 2.1359664e+2, -718570.25, -809607.4, -23547.578, 0.18373024, -0.13665004, -712840.1, 133888.61, 0.0, 10.001487, 10.000027 
2.7945557e+3, 2.235858e+2, -660018.44, -918972.75, 101991.27, 0.24708447, -0.26659095, -624672.8, 124161.29, 0.0, 10.001898, 9.998446 
2.7941346e+3, 2.3357522e+2, -723847.44, -868225.25, 125447.21, 0.09642694, -0.3026011, -651301.25, -356.27548, 0.0, 10.000713, 9.998656 
2.7937135e+3, 2.4356635e+2, -607460.6, -570684.2, 31381.184, 0.01854113, -0.2458032, -552700.7, 334.19446, 0.0, 9.999975, 10.00042 
2.7932915e+3, 2.5355998e+2, -433040.3, -353369.66, 12276.603, 0.05986975, -0.10024911, -351520.84, 103571.7, 0.0, 10.00017, 10.001136 
2.79287e+3, 2.6355195e+2, -529509.25, -625920.75, 86028.36, 0.07012593, -0.020304715, -479101.25, -121931.055, 0.0, 10.000002, 9.99868 
2.7924496e+3, 2.7354106e+2, -486433.34, -539062.4, 27000.758, -0.034155395, -0.09579053, -475045.16, -215762.67, 0.0, 9.999597, 9.998778 
2.792029e+3, 2.8353032e+2, -424258.78, -542274.3, -7763.6606, -0.07300079, -0.14010625, -423750.22, -262358.7, 0.0, 9.999703, 9.998035 
2.79161e+3, 2.935189e+2, -115236.234, -311705.5, -14289.257, 0.0498114, -0.23834898, -114202.414, -50698.78, 0.0, 10.00102, 9.998298 
2.79119e+3, 3.0350968e+2, 74116.3, -174742.02, 61631.0, 0.038496874, -0.10874708, 88543.164, 88543.164, 0.0, 10.001604, 9.998342 
2.7907708e+3, 3.135052e+2, 115084.445, -27233.021, 7216.283, -0.049767975, 0.39141503, 115449.414, 115449.414, 0.0, 10.001126, 9.999245 
2.7903545e+3, 3.2348767e+2, -25501.48, 151818.06, 228326.55, -0.08745334, -0.42664614, 308094.13, 308094.13, 0.0, 9.999015, 10.001496 
2.808344e+3, 1.3408758e+2, -1266396.0, -1526802.8, 41480.29, 0.21957414, -0.30987966, -1259948.3, 365974.34, 0.0005640858, 10.003203, 9.999659 
2.8079227e+3, 1.4408185e+2, -1417513.8, -1590137.9, 12062.24, 0.16694316, 0.008409973, -1416675.0, 111303.48, 0.00022500126, 10.001633, 9.999382 
2.807503e+3, 1.5407181e+2, -1314482.5, -1357922.1, -34207.895, 0.2279849, -0.16753834, -1295681.6, 134395.11, 0.000052699368, 10.001162, 10.000487 
2.8070825e+3, 1.6406181e+2, -1330622.6, -1425204.8, -83025.734, 0.18264113, -0.30749604, -1282364.1, 49806.984, 0.0000047753, 10.000845, 9.999509 
2.806658e+3, 1.7405133e+2, -1140433.0, -1238273.3, -1.6474489, -0.13615333, -0.48222518, -1140433.0, 93833.5, 0.00000002399446, 10.001329, 9.999846 
2.806235e+3, 1.8404254e+2, -1065479.8, -1230490.8, -61462.02, -0.29092088, -0.4331455, -1045103.1, 91248.03, 0.0, 10.001482, 9.999198 
2.805812e+3, 1.9403678e+2, -908143.4, -1039716.6, -82721.66, -0.1624274, -0.10125132, -868238.25, 170176.47, 0.0, 10.001666, 9.99971 
2.8053904e+3, 2.0402871e+2, -868957.3, -1026115.94, -45217.164, 0.008736824, 0.027346514, -856876.25, 83618.92, 0.0, 10.00146, 9.999269 
2.8049698e+3, 2.1401605e+2, -749741.94, -836833.7, -55256.34, 0.23078907, -0.35319895, -722935.06, 119675.85, 0.0, 10.001317, 9.999919 
2.8045487e+3, 2.2400513e+2, -870116.44, -1038285.5, 12343.232, 0.28838134, -0.48301223, -869215.3, -124497.68, 0.0, 10.000617, 9.998231 
2.804126e+3, 2.3399659e+2, -873724.8, -945633.25, -4096.597, 0.08865314, -0.32317913, -873492.2, -226679.42, 0.0, 9.999755, 9.9985895 
2.8037038e+3, 2.4398884e+2, -688442.44, -664366.9, -55908.715, -0.05994891, -0.13268296, -619214.7, -70320.164, 0.0, 9.9997225, 9.999884 
2.8032815e+3, 2.5398216e+2, -275735.38, -322351.44, -112016.69, -0.12732619, 0.0014838354, -184627.5, 266330.25, 0.0, 10.00152, 10.000667 
2.8028604e+3, 2.6397356e+2, -341718.13, -669560.1, -71302.58, -0.113608934, 0.095670216, -326881.88, 26161.596, 0.0, 10.001918, 9.997447 
2.8024417e+3, 2.739613e+2, -278857.9, -554747.44, -77879.48, 0.028142596, -0.046251733, -258391.92, -3220.404, 0.0, 10.001555, 9.997715 
2.8020215e+3, 2.839502e+2, -198593.16, -442023.7, -33684.6, -0.0010345358, -0.06593655, -194018.05, -36734.293, 0.0, 10.001324, 9.997951 
2.8015995e+3, 2.9394075e+2, 56049.27, -187619.48, -39204.414, -0.2888579, -0.009169304, 62201.613, 121575.55, 0.0, 10.002067, 9.998643 
2.801179e+3, 3.0393136e+2, 23994.232, -266615.72, -24382.045, -0.38597783, 0.102802396, 26025.674, 26025.674, 0.0, 10.001616, 9.997682 
2.8007638e+3, 3.1392193e+2, -77233.9, -200653.97, -39971.24, 0.048937023, 0.16918872, -65419.598, -65419.598, 0.0, 10.000209, 9.998463 
2.8003472e+3, 3.2390675e+2, -141639.13, 91181.02, 133343.67, 0.10333224, -0.37918672, 151778.97, 151778.97, 0.0, 9.998391, 10.001316 
2.818335e+3, 1.3451141e+2, -1433586.8, -1736381.8, -43666.402, -0.12799087, -0.11565368, -1427415.4, 194351.42, 0.00024728134, 10.002631, 9.998492 
2.8179136e+3, 1.4450179e+2, -1438260.5, -1767009.6, 14037.439, -0.031482115, -0.05296065, -1437662.3, 86202.17, 0.00009078345, 10.002222, 9.997882 
2.817497e+3, 1.5449077e+2, -1373527.0, -1577590.6, 5270.4263, 0.36658153, -0.15304914, -1373390.9, 52588.633, 0.00001810736, 10.001589, 9.998775 
2.817078e+3, 1.6448247e+2, -1142621.8, -1105192.3, -32917.133, 0.47928452, -0.12198537, -1086041.8, 242018.36, 0.000001252134, 10.001127, 10.001582 
2.816654e+3, 1.7447717e+2, -1013340.8, -928307.94, 44725.766, 0.16464026, 0.014319391, -909115.06, 320986.66, 0.0000000065346386, 10.001124, 10.002081 
2.8162304e+3, 1.8446821e+2, -1069303.6, -1213138.8, -62071.71, -0.010816063, -0.070137896, -1046221.0, 85961.086, 0.0, 10.001391, 9.999342 
2.815807e+3, 1.9445513e+2, -906514.1, -1056667.0, -54310.9, 0.036016405, -0.44919717, -888929.1, 145377.58, 0.0, 10.00175, 9.999554 
2.8153837e+3, 2.0444424e+2, -825907.44, -1020639.2, -34583.227, 0.07158795, -0.5843159, -819948.06, 116462.84, 0.0, 10.001802, 9.999142 
2.814961e+3, 2.1443498e+2, -737266.4, -874673.25, -36831.94, 0.0736343, -0.57714444, -728016.25, 110482.555, 0.0, 10.001561, 9.999552 
2.8145385e+3, 2.2442643e+2, -822934.3, -1030826.0, -5651.607, 0.05725218, -0.4353121, -822780.8, -82193.61, 0.0, 10.000988, 9.998108 
2.8141165e+3, 2.3441862e+2, -838458.3, -961116.4, -17604.682, -0.0033034913, -0.16691756, -835981.56, -193303.64, 0.0, 10.000101, 9.998332 
2.8136954e+3, 2.4440928e+2, -665193.25, -780776.0, 17003.63, -0.057264995, -0.0667008, -662743.75, -117967.516, 0.0, 10.000411, 9.99875 
2.8132752e+3, 2.5439826e+2, -264514.53, -482356.63, -49855.13, -0.10300779, -0.20856221, -253646.89, 193235.3, 0.0, 10.002292, 9.999205 
2.8128546e+3, 2.6438877e+2, -141481.05, -542464.56, -99193.28, -0.11202605, -0.14156072, -118284.96, 230693.36, 0.0, 10.003106, 9.997768 
2.8124344e+3, 2.7438015e+2, -91265.38, -443554.38, -104425.36, -0.07278659, 0.0677812, -62637.953, 188433.83, 0.0, 10.002681, 9.997978 
2.8120142e+3, 2.8436977e+2, 19087.764, -310090.56, -8669.414, -0.10483437, 0.09488675, 19315.928, 172491.55, 0.0, 10.002633, 9.998252 
2.8115937e+3, 2.9435742e+2, 236612.19, -100561.47, -26402.992, -0.27533603, -0.13662396, 238667.19, 293957.8, 0.0, 10.003247, 9.998705 
2.8111732e+3, 3.043467e+2, 200700.86, -97909.95, -101367.266, -0.2977932, -0.19068873, 231859.94, 231859.94, 0.0, 10.002451, 9.998432 
2.810756e+3, 3.143377e+2, -46482.73, -126875.89, -99816.29, 0.10849694, -0.13051185, 20926.715, 20926.715, 0.0, 10.000112, 9.999034 
2.8103352e+3, 3.2432684e+2, -158754.63, -170880.38, 134672.53, -0.12015052, -0.18093982, -30008.572, -30008.572, 0.0, 9.999266, 9.999127 
2.8283256e+3, 1.3493113e+2, -1360232.4, -1567533.1, 28500.283, -0.4188687, -0.28609383, -1356385.5, 261263.33, 0.00010451411, 10.002631, 9.999609 
2.8279105e+3, 1.4492187e+2, -1182734.3, -1658627.8, 34643.22, 0.17392589, -0.21625772, -1180225.6, 339515.6, 0.00003452905, 10.00408, 9.9977045 
2.8274912e+3, 1.5491211e+2, -1158500.6, -1508979.3, 66275.44, 0.40356827, -0.16109225, -1146386.6, 275460.28, 0.0000055203063, 10.003262, 9.998418 
2.8270704e+3, 1.6490397e+2, -1094905.8, -1122629.0, -1275.3169, 0.46541733, -0.06976982, -1094847.3, 229082.06, 0.0000002527922, 10.00165, 10.001213 
2.826646e+3, 1.748975e+2, -1302220.5, -1107646.3, -52152.387, 0.21832813, -0.011754477, -1094549.3, 131437.28, 0.0, 9.999341, 10.00172 
2.8262228e+3, 1.8488863e+2, -1366898.5, -1258269.8, -91396.93, 0.09466285, -0.118707016, -1206266.4, -78201.164, 0.0, 9.998944, 10.000207 
2.8258005e+3, 1.9487618e+2, -970361.06, -981332.4, -22153.803, 0.14652433, -0.55051404, -953023.8, 77153.15, 0.0, 10.000869, 10.000487 
2.8253773e+3, 2.0486544e+2, -880857.2, -1128445.0, -12067.253, 0.11983544, -0.67558855, -880270.44, 52008.105, 0.0, 10.001827, 9.998371 
2.824953e+3, 2.1485667e+2, -722004.7, -949665.5, -48762.5, -0.018686678, -0.55885255, -711999.94, 122367.27, 0.0, 10.002052, 9.998795 
2.82453e+3, 2.2484851e+2, -675313.94, -975880.7, -18766.164, -0.07747793, -0.32685727, -674146.8, 62307.203, 0.0, 10.002118, 9.997924 
2.8241083e+3, 2.3484053e+2, -542733.56, -816015.8, -14316.784, -0.038656592, -0.08648771, -541985.56, 96558.85, 0.0, 10.00218, 9.9983 
2.8236878e+3, 2.4483007e+2, -569596.6, -839718.7, 101380.47, -0.04465861, -0.045169085, -535780.5, 4871.9443, 0.0, 10.001571, 9.99778 
2.8232682e+3, 2.5481662e+2, -553607.7, -731182.06, 86660.27, -0.07276553, -0.34178793, -518325.66, -75542.945, 0.0, 10.000812, 9.998202 
2.8228483e+3, 2.6480642e+2, -502861.47, -736156.44, 19781.518, -0.10761766, -0.25733232, -501196.03, -156309.56, 0.0, 10.000764, 9.997548 
2.8224272e+3, 2.7479944e+2, -246407.64, -507220.0, -13294.865, -0.14724354, 0.104040116, -245731.69, 1233.6322, 0.0, 10.0016165, 9.998033 
2.822007e+3, 2.8478944e+2, -230992.17, -412769.06, 72325.91, -0.18375236, 0.16885681, -205726.64, -56661.766, 0.0, 10.000911, 9.998349 
2.821588e+3, 2.9477546e+2, -305884.9, -335731.03, 79922.555, -0.1933252, -0.25197783, -239504.13, -188310.8, 0.0, 9.999446, 9.998905 
2.821167e+3, 3.0476403e+2, -250979.28, -253868.9, -52278.652, -0.2051051, -0.39637253, -200125.47, -200125.47, 0.0, 9.999121, 9.998961 
2.8207463e+3, 3.1475562e+2, -44226.156, -44021.938, -67118.69, 0.02316068, -0.35125607, 22994.715, 22994.715, 0.0, 9.999812, 9.999737 
2.8203237e+3, 3.247485e+2, -381472.8, -484194.88, 290741.84, -0.37870187, 0.033737745, -137590.25, -137590.25, 0.0, 9.998742, 9.997183 
2.838318e+3, 1.3534993e+2, -1427695.3, -1429021.0, 84981.95, -0.5972381, -0.52828926, -1343373.6, 270166.5, 0.000047844143, 10.001395, 10.001175 
2.8379083e+3, 1.4534235e+2, -1335499.9, -1666033.5, -25807.357, 0.4280784, -0.39198712, -1333497.0, 182115.48, 0.0000144160895, 10.002754, 9.9982815 
2.8374848e+3, 1.5533464e+2, -1292919.0, -1534129.6, 50678.91, 0.32795674, -0.16884507, -1282703.9, 134994.1, 0.000001952137, 10.002182, 9.998755 
2.837061e+3, 1.653253e+2, -1250549.4, -1368741.6, -66384.51, 0.25642252, -0.1330257, -1220767.8, 99027.305, 0.00000005936716, 10.001314, 9.99968 
2.8366354e+3, 1.7531437e+2, -1342573.9, -1314641.3, -90202.73, 0.102622285, -0.34864405, -1237330.0, -15426.311, 0.0, 9.999849, 10.000063 
2.8362128e+3, 1.8530625e+2, -1103061.1, -911283.56, 725.17145, 0.063626304, -0.39620918, -911280.8, 212695.5, 0.0, 9.999753, 10.002222 
2.835793e+3, 1.952998e+2, -794282.4, -703005.06, 64359.414, 0.16539684, -0.40817434, -669744.94, 356280.5, 0.0, 10.00121, 10.002249 
2.8353706e+3, 2.0529124e+2, -887846.5, -1217571.5, 3503.388, 0.13233611, -0.35576385, -887809.3, 40298.38, 0.0, 10.002135, 9.997617 
2.834946e+3, 2.1528082e+2, -730049.6, -1058194.6, -14921.41, -0.06795599, -0.30007207, -729372.5, 100846.45, 0.0, 10.002422, 9.997885 
2.8345233e+3, 2.2527117e+2, -563734.3, -862591.44, 6738.0903, -0.116245374, -0.19612233, -563582.44, 168737.84, 0.0, 10.002602, 9.998476 
2.8341022e+3, 2.3526192e+2, -434286.6, -727821.8, 17745.748, -0.029117165, -0.10626361, -433217.66, 201198.47, 0.0, 10.002733, 9.998655 
2.8336817e+3, 2.4525169e+2, -442584.97, -719227.2, 85988.47, -0.0064004185, -0.088371314, -418035.75, 118482.28, 0.0, 10.00215, 9.998336 
2.833261e+3, 2.5524002e+2, -512891.16, -687524.25, 95381.01, -0.03500997, -0.21708778, -470895.22, -32265.49, 0.0, 10.000931, 9.998465 
2.8328407e+3, 2.6522905e+2, -517009.53, -778583.3, 120926.016, -0.06000719, -0.20591314, -469671.97, -128930.125, 0.0, 10.000791, 9.997243 
2.8324205e+3, 2.7521873e+2, -260832.14, -574910.3, 69586.61, -0.10087036, -0.10608892, -246105.2, -3251.6533, 0.0, 10.001761, 9.997504 
2.8320003e+3, 2.8520942e+2, -163987.78, -225005.44, 39043.098, -0.034575433, -0.012041405, -144947.13, -0.31485337, 0.0, 10.000671, 9.9997635 
2.8315803e+3, 2.9520014e+2, -466159.22, -307086.5, 63556.855, 0.09984901, -0.048646834, -284811.72, -237779.94, 0.0, 9.997855, 9.999881 
2.8311568e+3, 3.051907e+2, -408289.78, -301168.1, 130106.01, -0.14571537, -0.045273602, -214029.47, -214029.47, 0.0, 9.99787, 9.999249 
2.8307328e+3, 3.1518173e+2, 62985.17, -10005.419, 90960.28, -0.4821397, -0.047885537, 124498.445, 124498.445, 0.0, 10.000562, 9.999629 
2.8303197e+3, 3.2517323e+2, -266633.97, -316212.6, 233339.33, 0.17439882, 0.17410742, -56770.883, -56770.883, 0.0, 9.998982, 9.998245 
2.8483143e+3, 1.3576941e+2, -1675886.8, -1471000.9, 36132.12, -0.13294579, -0.35994077, -1464815.6, 144627.75, 0.000025214913, 9.999296, 10.001931 
2.847899e+3, 1.4576373e+2, -1560004.8, -1495002.9, -150072.14, 0.29447702, -0.21427733, -1373952.8, 137536.72, 0.000007550391, 10.000008, 10.000778 
2.8474757e+3, 1.5575561e+2, -1517806.8, -1397121.6, -6443.744, 0.27244532, -0.28068772, -1396778.6, 16791.348, 0.0000012508747, 9.999572, 10.000952 
2.847053e+3, 1.6574712e+2, -1362740.5, -1430765.4, 17085.365, 0.25587395, -0.25920957, -1358690.4, -43032.797, 0.000000073245815, 10.000611, 9.999571 
2.8466287e+3, 1.7573756e+2, -924537.6, -1134870.0, 56586.605, 0.1727011, -0.3172859, -910280.3, 307477.13, 0.0, 10.002831, 9.999845 
2.8462064e+3, 1.8572949e+2, -702315.3, -848534.25, 79295.48, 0.10985655, -0.27346665, -667569.44, 452264.72, 0.0, 10.003107, 10.001029 
2.8457853e+3, 1.957227e+2, -754778.9, -818343.5, -41570.926, 0.11087437, -0.21909194, -734232.8, 287658.3, 0.0, 10.002063, 10.001056 
2.845363e+3, 2.0571409e+2, -929915.9, -1181493.8, -117062.88, 0.058995675, -0.14974381, -883871.9, 40102.273, 0.0, 10.001639, 9.998083 
2.844939e+3, 2.157035e+2, -819529.94, -1071811.4, -52181.348, -0.08962247, -0.17543454, -809162.9, 16921.29, 0.0, 10.001712, 9.998121 
2.844517e+3, 2.2569326e+2, -764352.7, -967241.7, -11619.155, -0.09191961, -0.13503137, -763689.44, -35501.004, 0.0, 10.001284, 9.9983835 
2.8440958e+3, 2.3568311e+2, -740570.75, -884739.3, -26441.5, 0.028998075, -0.14872952, -735874.2, -105584.96, 0.0, 10.000687, 9.998563 
2.843675e+3, 2.4567306e+2, -611176.75, -782422.75, 25401.121, 0.059625696, -0.11729961, -607488.44, -75101.08, 0.0, 10.000954, 9.9984665 
2.8432542e+3, 2.5566265e+2, -406991.84, -625265.56, 18486.398, 0.043609884, -0.16518702, -405437.25, 29050.049, 0.0, 10.001662, 9.998519 
2.8428334e+3, 2.656517e+2, -370188.7, -694094.2, 121329.51, -0.033610735, -0.15889551, -329781.5, 6817.2104, 0.0, 10.001802, 9.9973135 
2.8424132e+3, 2.756398e+2, -245874.95, -556621.7, 134443.48, -0.13726863, -0.24049997, -195783.16, 42941.082, 0.0, 10.001866, 9.997558 
2.8419927e+3, 2.8563106e+2, -55218.508, -140081.56, -9758.664, 0.004924624, -0.095859505, -54110.785, 86701.26, 0.0, 10.001321, 10.00001 
2.8415722e+3, 2.9562467e+2, -112099.33, -109912.08, -54298.133, 0.30943358, 0.098170936, -56696.56, -13824.443, 0.0, 10.000198, 10.000094 
2.8411466e+3, 3.056165e+2, -225178.73, -252069.19, 94901.47, -0.1391161, 0.2304996, -142774.8, -142774.8, 0.0, 9.999364, 9.998841 
2.84072e+3, 3.1560677e+2, -178001.63, -177920.88, 31992.6, -0.9143376, 0.17275748, -145968.63, -145968.63, 0.0, 9.999195, 9.999107 
2.8403163e+3, 3.25597e+2, -83269.375, -79630.06, -14744.66, 0.7796655, 0.18207406, -66593.195, -66593.195, 0.0, 9.9996805, 9.999488 
2.8583091e+3, 1.3619012e+2, -1440615.9, -1268693.6, 197195.78, 0.22848862, -0.039103374, -1139537.4, 465801.6, 0.000013079658, 10.000505, 10.002756 
2.857887e+3, 1.4618537e+2, -1386823.6, -1071701.3, -97509.28, 0.012788861, 0.020113243, -1043969.2, 463398.75, 0.0000037431412, 9.999724, 10.003822 
2.8574663e+3, 1.561761e+2, -1361190.8, -1029751.44, 5452.3657, 0.21408823, -0.45174286, -1029661.8, 379787.0, 0.00000051506584, 9.99938, 10.003573 
2.8570455e+3, 1.6616985e+2, -1318189.3, -1315545.6, 78971.62, 0.32419673, -0.36699992, -1237884.8, 73627.4, 0.00000002542409, 10.000505, 10.000416 
2.856624e+3, 1.76165e+2, -956091.7, -1111175.6, 127874.984, 0.30037928, -0.026142893, -884085.1, 329484.16, 0.0, 10.002451, 10.000188 
2.8562012e+3, 1.861561e+2, -932699.75, -1290245.6, 44863.504, 0.14772914, 0.085775204, -927156.4, 188504.83, 0.0, 10.002949, 9.998064 
2.855777e+3, 1.9614473e+2, -921356.1, -1192282.3, -39828.836, -0.055622056, -0.0018143867, -915622.25, 102151.24, 0.0, 10.0021715, 9.998438 
2.8553545e+3, 2.0613463e+2, -766665.75, -909713.06, -87067.95, -0.11131159, -0.056216203, -725510.8, 194358.56, 0.0, 10.0018835, 9.999842 
2.854932e+3, 2.161248e+2, -671437.7, -833218.5, -23556.959, -0.10360075, -0.16236663, -668077.4, 153883.53, 0.0, 10.001964, 9.999646 
2.8545102e+3, 2.2611475e+2, -733735.4, -978754.6, -17842.572, -0.019326676, -0.15908468, -732442.9, -8384.118, 0.0, 10.001583, 9.998161 
2.8540888e+3, 2.361043e+2, -717980.2, -904498.25, -17454.385, 0.11794079, -0.15681088, -716360.9, -90198.1, 0.0, 10.000926, 9.998321 
2.853669e+3, 2.4609375e+2, -552156.25, -747182.8, 76691.02, 0.19103204, -0.16780692, -525611.6, 2655.1511, 0.0, 10.001288, 9.998561 
2.8532493e+3, 2.5608304e+2, -287057.66, -540858.1, 69870.67, 0.20611121, -0.23116031, -269093.88, 161277.97, 0.0, 10.002319, 9.998799 
2.8528273e+3, 2.6607424e+2, -116725.55, -342473.28, 135982.86, -0.021696698, -0.13468024, -52874.07, 279586.3, 0.0, 10.002516, 9.999405 
2.852404e+3, 2.760662e+2, -49261.64, -269726.38, 168481.5, -0.4047221, -0.00074417866, 41844.492, 276388.1, 0.0, 10.002349, 9.999316 
2.851983e+3, 2.8605598e+2, -52838.08, -346812.97, 17939.92, -0.25443426, 0.007827513, -51747.336, 84898.195, 0.0, 10.002175, 9.9982 
2.851564e+3, 2.9604462e+2, 30343.943, -249340.33, -71088.32, 0.22317559, -0.08144007, 47375.555, 86131.54, 0.0, 10.002043, 9.998262 
2.8511402e+3, 3.0603397e+2, -100588.53, -342747.44, 2351.816, 0.04381597, -0.04049599, -100565.695, -100565.695, 0.0, 10.000836, 9.997527 
2.8507152e+3, 3.160236e+2, -279703.5, -363379.16, -66621.04, -0.38321626, -0.018677771, -242872.63, -242872.63, 0.0, 9.99907, 9.997909 
2.850305e+3, 3.260144e+2, 226639.8, 64585.84, -2055.1445, 0.41781262, 0.09762797, 226665.86, 226665.86, 0.0, 10.001705, 9.999568 
2.8683016e+3, 1.3661744e+2, -1142435.5, -1231154.3, 248081.33, 0.09699232, 0.21765363, -934778.8, 666376.25, 0.0000059629547, 10.003019, 10.001801 
2.867879e+3, 1.466068e+2, -1474229.9, -1297858.9, 18025.967, 0.11175095, -0.15659507, -1296035.5, 207210.27, 0.0000015122073, 9.999923, 10.002184 
2.867458e+3, 1.5659945e+2, -1469188.0, -1241314.6, -50132.33, 0.33957106, -0.27949598, -1230773.1, 174537.58, 0.0000000966577, 9.999311, 10.002168 
2.867037e+3, 1.6659334e+2, -1468570.9, -1351284.9, -7228.5728, 0.36772084, -0.14300121, -1350841.0, -43469.18, 0.00000000026919006, 9.999318, 10.00076 
2.8666154e+3, 1.7658801e+2, -1364736.3, -1294763.4, -2109.0725, 0.22537456, 0.09943244, -1294699.9, -85269.17, 0.0, 9.999562, 10.000347 
2.866193e+3, 1.8657859e+2, -1286068.4, -1445744.0, 2192.2334, 0.08124302, 0.13438943, -1286038.4, -174512.53, 0.0, 10.000501, 9.998156 
2.8657705e+3, 1.9656645e+2, -989462.56, -1223298.9, 74495.65, -0.04235084, -0.03671499, -967746.44, 45898.97, 0.0, 10.001758, 9.998396 
2.8653476e+3, 2.0655642e+2, -793911.3, -870669.0, 43882.484, -0.07597435, -0.08590616, -773992.56, 141746.77, 0.0, 10.001529, 10.000258 
2.864925e+3, 2.1654725e+2, -877851.0, -890181.7, 24298.727, -0.048010886, -0.17300104, -858947.6, -41126.004, 0.0, 10.00041, 9.999988 
2.8645033e+3, 2.2653726e+2, -769760.2, -980979.6, 66336.07, 0.021049311, -0.1758428, -750654.6, -30737.83, 0.0, 10.001306, 9.998262 
2.8640822e+3, 2.3652655e+2, -437704.22, -773341.6, 88916.75, 0.12319835, -0.21396752, -415603.72, 206418.66, 0.0, 10.002929, 9.998233 
2.863662e+3, 2.4651596e+2, -426678.34, -703475.75, 175189.36, 0.19474953, -0.20055698, -341815.97, 182312.45, 0.0, 10.002289, 9.998348 
2.8632423e+3, 2.5650513e+2, -564386.25, -696770.25, 144647.28, 0.24414836, -0.26435754, -471505.28, -45267.824, 0.0, 10.00055, 9.998568 
2.8628203e+3, 2.664974e+2, -415793.66, -370619.72, 140576.81, -0.020741444, -0.096448064, -250826.89, 77488.12, 0.0, 10.0000305, 10.000376 
2.862396e+3, 2.7649125e+2, -350042.9, -346504.28, 92661.34, -0.48155215, 0.1010965, -255595.36, -25218.52, 0.0, 10.000037, 9.999885 
2.8619754e+3, 2.864801e+2, -302751.28, -615354.8, -10352.62, -0.35423923, 0.069400616, -302408.8, -169921.1, 0.0, 10.00114, 9.996848 
2.8615567e+3, 2.9646564e+2, -5961.561, -437059.1, -21666.16, 0.13782606, -0.2039276, -4875.397, 29755.629, 0.0, 10.002558, 9.996727 
2.861134e+3, 3.0645275e+2, 19276.45, -392957.63, 38337.523, 0.17307472, -0.25348714, 22811.502, 22811.502, 0.0, 10.002173, 9.996519 
2.860711e+3, 3.1644133e+2, -166600.63, -433967.94, 72916.83, 0.08914084, -0.23156473, -148007.61, -148007.61, 0.0, 10.000425, 9.996764 
2.8602916e+3, 3.2643214e+2, -219285.27, -133025.75, 319300.47, -0.21435446, -0.05387661, 146044.67, 146044.67, 0.0, 9.998629, 9.999685 
2.8782934e+3, 1.3704503e+2, -1596386.1, -1610519.8, -65872.734, -0.09856396, 0.32000875, -1537202.3, 59762.625, 0.0000021473002, 10.000578, 10.000377 
2.8778717e+3, 1.4702863e+2, -1670051.0, -1709106.5, -7297.6694, 0.2954264, -0.40231767, -1668732.0, -169613.02, 0.00000043033984, 9.999938, 9.999353 
2.8774497e+3, 1.5702423e+2, -1589930.4, -1574674.8, 1541.9966, 0.46101224, 0.068687625, -1574520.4, -173357.64, 0.000000019645139, 9.999659, 9.999717 
2.8770277e+3, 1.6701692e+2, -1395381.6, -1301596.6, 51259.184, 0.34028292, 0.18436798, -1279016.8, 24218.787, 0.0, 9.999748, 10.000893 
2.8766042e+3, 1.7700836e+2, -1285998.3, -1212438.0, 62943.52, -0.015891736, 0.109843805, -1176316.4, 29004.408, 0.0, 9.999898, 10.000748 
2.876184e+3, 1.869987e+2, -1091792.3, -1105969.0, 69724.58, -0.04923698, -0.02364651, -1028796.7, 78614.14, 0.0, 10.000735, 10.00039 
2.875765e+3, 1.9698806e+2, -853038.2, -966536.0, 128983.055, 0.08626817, -0.24543776, -768872.0, 240635.6, 0.0, 10.00184, 10.000134 
2.8753424e+3, 2.0697914e+2, -787190.0, -902488.0, 13353.167, 0.09217064, -0.23586547, -785663.75, 125926.37, 0.0, 10.001729, 9.999933 
2.8749174e+3, 2.1697074e+2, -844630.25, -902483.75, 34529.43, 0.017720805, -0.18743323, -828512.1, -14843.933, 0.0, 10.000734, 9.999751 
2.874496e+3, 2.2696099e+2, -642907.4, -815742.25, 163821.5, -0.014801779, -0.20815186, -544107.5, 171653.02, 0.0, 10.001709, 9.999203 
2.8740752e+3, 2.3695047e+2, -283569.6, -620440.44, 172680.67, -0.03024514, -0.29955807, -210780.83, 407080.28, 0.0, 10.003615, 9.99896 
2.8736538e+3, 2.4694043e+2, -370771.94, -718491.0, 129759.64, -0.0065568667, -0.23889671, -327687.44, 192275.39, 0.0, 10.002799, 9.998032 
2.873232e+3, 2.569303e+2, -569839.25, -743422.4, 122636.4, 0.02266219, -0.1696878, -506389.5, -84321.25, 0.0, 10.000633, 9.99824 
2.8728122e+3, 2.669205e+2, -494440.4, -505336.7, 171221.81, 0.028794141, -0.14744173, -328580.1, -4412.363, 0.0, 9.999867, 9.999538 
2.872392e+3, 2.7691108e+2, -404611.72, -443314.38, 103866.7, -0.013884537, -0.16758409, -318309.06, -92046.484, 0.0, 9.999919, 9.999286 
2.8719714e+3, 2.8690213e+2, -196787.83, -440621.7, 84724.23, 0.037076306, -0.019413605, -170239.5, -41884.85, 0.0, 10.001317, 9.99797 
2.871551e+3, 2.9689258e+2, 220790.23, -205902.16, 96561.88, 0.1526434, 0.11151784, 241625.17, 272078.22, 0.0, 10.003558, 9.997842 
2.8711268e+3, 3.068798e+2, 341623.7, -93795.875, 110613.29, 0.007269826, -0.044850014, 368112.28, 368112.28, 0.0, 10.00372, 9.997837 
2.8707024e+3, 3.168663e+2, 264574.72, -112441.484, 153285.17, -0.11386163, -0.3230204, 319030.9, 319030.9, 0.0, 10.002824, 9.997839 
2.87028e+3, 3.2685748e+2, -583036.4, -381671.34, 210326.33, -0.16794612, -0.0993348, -249171.25, -249171.25, 0.0, 9.996394, 9.999053 
2.888285e+3, 1.374689e+2, -1988374.9, -1668023.8, -65619.805, 0.122004196, 0.47151345, -1655103.5, -62285.29, 0.0000003382392, 9.997299, 10.001549 
2.8878647e+3, 1.4745283e+2, -1503138.6, -1512420.6, -7492.609, 0.4481523, -0.33557996, -1498966.1, -4001.7183, 0.000000039050374, 10.0005665, 10.000389 
2.8874406e+3, 1.5744883e+2, -1298639.9, -1397786.0, 131041.945, 0.35052451, 0.09431958, -1208107.6, 188892.56, 0.0000000006124831, 10.001486, 10.000057 
2.887019e+3, 1.6744046e+2, -1158253.0, -1272180.5, 215484.95, 0.23420545, 0.15892282, -992329.7, 306753.06, 0.0, 10.001781, 10.000081 
2.8865966e+3, 1.774302e+2, -1070198.8, -1176587.9, 180446.98, -0.004105646, -0.009261201, -935268.94, 265916.3, 0.0, 10.001698, 10.000109 
2.8861764e+3, 1.8742098e+2, -1018057.1, -1024870.1, 122544.61, -0.03332123, -0.08251421, -898871.7, 204399.72, 0.0, 10.001093, 10.000771 
2.8857574e+3, 1.9741182e+2, -1086754.4, -1067021.5, 71267.91, 0.102873676, -0.2080228, -1004940.3, 413.95428, 0.0, 10.000199, 10.000247 
2.8853354e+3, 2.0740274e+2, -937915.9, -1044587.5, -61010.973, 0.15952174, -0.18520057, -910214.4, -2774.7576, 0.0, 10.001039, 9.999293 
2.8849116e+3, 2.1739371e+2, -639577.7, -867889.4, -59617.324, 0.15604669, -0.15695003, -624947.75, 184578.28, 0.0, 10.002479, 9.999146 
2.8844893e+3, 2.2738384e+2, -575742.9, -742063.56, 51784.83, 0.007016618, -0.19505666, -560937.4, 150681.84, 0.0, 10.002025, 9.999557 
2.8840676e+3, 2.3737347e+2, -687335.1, -809776.5, 15984.066, -0.16546206, -0.32853863, -685282.9, -71566.05, 0.0, 10.000859, 9.998992 
2.883646e+3, 2.473642e+2, -461834.7, -753309.4, -24132.52, -0.16916327, -0.2094367, -459850.16, 55960.59, 0.0, 10.002166, 9.998077 
2.883224e+3, 2.5735497e+2, -154371.28, -576633.2, 17999.541, -0.113754444, -0.0762993, -153605.42, 264302.0, 0.0, 10.003686, 9.997897 
2.8828046e+3, 2.6734394e+2, -147483.67, -434185.66, 85676.76, 0.04889215, -0.119448036, -123831.625, 196187.94, 0.0, 10.002736, 9.998622 
2.8823864e+3, 2.7733204e+2, -338144.03, -484691.94, 56311.082, 0.27838546, -0.31636634, -319005.8, -96866.73, 0.0, 10.000761, 9.998578 
2.881966e+3, 2.873248e+2, -146316.14, -273333.0, 117981.01, 0.23764707, -0.04414829, -75836.375, 48379.094, 0.0, 10.001101, 9.999201 
2.8815448e+3, 2.97319e+2, 54364.418, -175130.2, 119365.164, 0.08446044, 0.32585284, 105191.83, 131470.72, 0.0, 10.001981, 9.998803 
2.88112e+3, 3.0730712e+2, 122206.6, -56823.094, 27657.34, -0.109800465, 0.14801478, 126381.87, 126381.87, 0.0, 10.001661, 9.999074 
2.8806952e+3, 3.1729293e+2, -42803.383, -201915.7, 21234.03, -0.19171874, -0.32187614, -40018.387, -40018.387, 0.0, 10.000526, 9.998326 
2.88027e+3, 3.2728502e+2, -209302.6, -264477.66, -51966.38, -0.044403583, -0.040868998, -178054.97, -178054.97, 0.0, 9.999409, 9.998319 
2.8982767e+3, 1.3789165e+2, -1748691.1, -1347156.5, 107912.8, 0.3970479, 0.61962116, -1319992.5, 268690.78, 0.0000000028010363, 9.998041, 10.003404 
2.897857e+3, 1.4787759e+2, -1469134.8, -1246600.6, -9744.188, 0.5103049, -0.19488978, -1246174.8, 244627.34, 0.0, 9.999722, 10.002618 
2.897431e+3, 1.5787306e+2, -1266251.4, -1235472.4, 110061.42, 0.093032844, -0.028738836, -1139729.8, 253104.25, 0.0, 10.00106, 10.001379 
2.89701e+3, 1.6786385e+2, -1262893.4, -1440479.1, 164824.83, 0.07855163, -0.040908433, -1164466.1, 130457.875, 0.0, 10.001549, 9.999042 
2.8965908e+3, 1.7785299e+2, -1149605.3, -1316614.4, 151381.52, 0.10202304, -0.15855214, -1060224.4, 136809.9, 0.0, 10.001577, 9.999205 
2.896169e+3, 1.8784475e+2, -1048918.1, -1118880.8, 76373.68, 0.015669137, -0.06154639, -999895.6, 99220.32, 0.0, 10.001182, 10.000092 
2.8957474e+3, 1.9783711e+2, -1099973.0, -1156271.3, 59389.414, -0.047357243, 0.050671257, -1062399.4, -61208.81, 0.0, 10.000418, 9.999543 
2.8953275e+3, 2.0782678e+2, -940874.0, -1131432.5, 2866.3586, 0.14392442, 0.01969281, -940830.94, -37539.52, 0.0, 10.001335, 9.998574 
2.8949076e+3, 2.1781546e+2, -612790.6, -911087.4, -4735.248, 0.34873983, -0.09894931, -612715.44, 192686.38, 0.0, 10.002842, 9.998694 
2.8944835e+3, 2.2780494e+2, -560980.7, -765247.5, 197.35481, 0.07830616, -0.17240213, -560980.5, 146522.72, 0.0, 10.002221, 9.999311 
2.8940582e+3, 2.3779468e+2, -655160.25, -778171.25, 2252.0845, -0.32715246, -0.26222932, -655119.06, -45517.055, 0.0, 10.000944, 9.999184 
2.8936383e+3, 2.4778643e+2, -337364.22, -575811.94, 71094.516, -0.28213906, -0.11915606, -317776.13, 193908.05, 0.0, 10.002476, 9.999151 
2.89322e+3, 2.5777856e+2, 86075.19, -364579.47, 71394.31, -0.11073467, 0.058038395, 97115.266, 510879.56, 0.0, 10.004878, 9.998782 
2.8927985e+3, 2.6776806e+2, -7064.5967, -415068.88, 14224.209, -0.028051632, 0.059313864, -6569.301, 309300.28, 0.0, 10.003885, 9.998211 
2.8923768e+3, 2.7775648e+2, -171047.4, -383095.5, 23546.732, 0.022146486, -0.05005279, -168464.16, 49521.05, 0.0, 10.001792, 9.998776 
2.891956e+3, 2.8774798e+2, 4800.3774, -54086.746, 157543.64, -0.045050576, 0.0017479771, 135628.22, 255698.6, 0.0, 10.001466, 10.000537 
2.8915358e+3, 2.977406e+2, 114299.734, -9166.756, 135135.05, -0.13706769, 0.09908419, 201134.56, 223279.08, 0.0, 10.001769, 10.000044 
2.8911152e+3, 3.0773216e+2, 53093.727, -27009.885, 3596.0938, 0.21448676, 0.17985694, 53254.84, 53254.84, 0.0, 10.000926, 9.999656 
2.8906956e+3, 3.177228e+2, -81450.44, -162404.52, 19943.004, 0.7683512, 0.17955695, -76804.15, -76804.15, 0.0, 9.99999, 9.998905 
2.8902656e+3, 3.277152e+2, 566862.25, 172021.08, 64433.703, 0.12621228, 0.47470188, 577111.1, 577111.1, 0.0, 10.004372, 9.999036 
2.908267e+3, 1.3830751e+2, -1538094.6, -1251974.8, -115741.48, 0.35168514, 0.18613748, -1211017.8, 373589.0, 0.00000000011876347, 9.99952, 10.003364 
2.907846e+3, 1.4830019e+2, -1678341.8, -1397008.0, -84762.61, 0.38862523, 0.069964804, -1373443.8, 113217.83, 0.0, 9.9985285, 10.002165 
2.9074225e+3, 1.58292e+2, -1414916.0, -1335329.0, -102426.12, 0.08885601, -0.11819318, -1265237.9, 123491.53, 0.0, 10.000192, 10.001105 
2.907003e+3, 1.6828337e+2, -1395580.4, -1482667.4, -82165.99, 0.112049334, -0.10230491, -1346133.1, -55319.023, 0.0, 10.0005665, 9.999222 
2.9065838e+3, 1.7827424e+2, -1340788.8, -1399767.4, -55912.16, 0.17371753, -0.09474959, -1307065.9, -114158.23, 0.0, 10.000248, 9.99928 
2.9061615e+3, 1.8826641e+2, -1143468.4, -1145181.8, -74921.99, 0.04306804, 0.011454502, -1069398.1, 25588.758, 0.0, 10.000496, 10.0002165 
2.905739e+3, 1.9825888e+2, -1042098.7, -1108606.9, -35464.223, -0.08335844, 0.09735353, -1026736.44, -29673.938, 0.0, 10.000779, 9.9996605 
2.905319e+3, 2.082492e+2, -911324.94, -1049949.6, 26436.354, 0.041732196, 0.075120136, -906454.5, -7297.2876, 0.0, 10.001266, 9.999135 
2.9049e+3, 2.1823837e+2, -796714.0, -973123.5, 82517.875, 0.23834504, -0.052018832, -764132.6, 37129.63, 0.0, 10.001489, 9.998901 
2.904476e+3, 2.2822835e+2, -712582.4, -822503.75, 79501.84, 0.04091717, -0.082128696, -670893.06, 32467.03, 0.0, 10.001163, 9.999399 
2.9040506e+3, 2.3821852e+2, -750607.6, -821132.4, 137823.19, -0.282661, -0.13361822, -643607.4, -38151.285, 0.0, 10.000338, 9.99916 
2.9036322e+3, 2.4820998e+2, -466636.47, -566299.06, 255049.2, -0.2453761, -0.039665855, -256596.16, 250943.31, 0.0, 10.001368, 9.999702 
2.9032153e+3, 2.5820175e+2, -250189.63, -500644.34, 154644.36, -0.08189781, 0.046062768, -176427.63, 233192.52, 0.0, 10.002527, 9.998954 
2.9027927e+3, 2.6819187e+2, -215375.56, -511920.6, 28755.375, -0.074951895, 0.10902847, -212612.95, 99105.016, 0.0, 10.002457, 9.9982195 
2.902368e+3, 2.781811e+2, -259987.42, -457502.53, 95439.89, -0.13422632, 0.07676214, -221406.61, -7581.517, 0.0, 10.001324, 9.998501 
2.901947e+3, 2.8817132e+2, -62440.46, -64990.7, 156684.2, -0.23954463, 0.015922826, 92973.805, 208895.08, 0.0, 10.000994, 10.00066 
2.9015267e+3, 2.9816198e+2, -46342.977, -64270.668, 10881.481, -0.31882393, -0.10594488, -41208.695, -23195.965, 0.0, 10.00067, 10.000155 
2.901106e+3, 3.0815384e+2, 218617.14, 150877.31, -133640.56, 0.07215166, -0.078382626, 322613.0, 322613.0, 0.0, 10.001743, 10.0004 
2.900686e+3, 3.1814662e+2, 158643.34, -146133.78, -4570.717, 0.6503606, 0.0714732, 158711.88, 158711.88, 0.0, 10.0022, 9.997879 
2.9002532e+3, 3.2813302e+2, 100634.3, -79286.05, 108444.83, -0.64428085, -0.17550695, 151575.2, 151575.2, 0.0, 10.001413, 9.998621 
2.9182553e+3, 1.387239e+2, -1737085.3, -1407320.6, -302659.97, 0.11811022, -0.14939514, -1227544.9, 352977.44, 0.0000000000007792345, 9.998424, 10.00283 
2.9178345e+3, 1.4872146e+2, -1598175.8, -1502621.4, 6454.025, 0.22814065, 0.33803967, -1502187.4, -19652.896, 0.0, 9.999696, 10.000884 
2.917415e+3, 1.5870854e+2, -1389267.6, -1399787.0, -25667.086, 0.14237292, -0.18832938, -1368326.9, 16325.194, 0.0, 10.000681, 10.000436 
2.9169956e+3, 1.6870114e+2, -1322990.4, -1344275.8, -66481.586, 0.18215343, -0.0901062, -1266305.0, 20421.234, 0.0, 10.000604, 10.000153 
2.9165754e+3, 1.7869467e+2, -1284370.1, -1267883.5, -36998.88, 0.16320974, 0.10117113, -1238220.8, -49426.695, 0.0, 10.00014, 10.000252 
2.9161534e+3, 1.886864e+2, -1089109.4, -1022745.3, -48017.84, 0.037165157, 0.07085594, -997559.9, 93317.47, 0.0, 10.00043, 10.001093 
2.915731e+3, 1.9867782e+2, -946830.4, -923966.1, -4856.1836, -0.10096011, -0.02916409, -922977.5, 69985.12, 0.0, 10.0008, 10.000925 
2.9153097e+3, 2.0867033e+2, -754011.8, -772160.56, 45047.28, -0.18276973, 0.0045571923, -717134.0, 177899.17, 0.0, 10.001413, 10.000997 
2.9148883e+3, 2.1866272e+2, -636241.44, -719782.5, 88552.875, -0.23892993, 0.028331801, -580101.8, 217002.55, 0.0, 10.001776, 10.000524 
2.9144672e+3, 2.2865462e+2, -650808.0, -716619.9, 60893.5, -0.07375226, 0.09137008, -614498.2, 84684.59, 0.0, 10.00123, 10.0001135 
2.914046e+3, 2.3864596e+2, -672400.75, -729807.7, 173946.45, 0.07867384, 0.11004137, -524805.5, 76461.72, 0.0, 10.000584, 9.999689 
2.9136276e+3, 2.4863486e+2, -477480.53, -612594.56, 326506.53, 0.02848282, -0.047170736, -211615.19, 291757.34, 0.0, 10.001416, 9.999376 
2.9132098e+3, 2.5862348e+2, -219936.78, -453714.84, 189379.66, -0.047581103, -0.23834404, -114277.625, 291202.75, 0.0, 10.002516, 9.999301 
2.912787e+3, 2.6861432e+2, -175902.2, -359216.16, 43204.984, 0.017972572, -0.19423842, -166229.66, 141339.06, 0.0, 10.002106, 9.99945 
2.9123628e+3, 2.7860546e+2, -261060.89, -474408.03, 143650.45, 0.084445864, -0.11881803, -188807.94, 20847.385, 0.0, 10.001345, 9.99838 
2.9119414e+3, 2.885951e+2, -271482.75, -552484.56, 198822.1, -0.015393306, 0.00083929836, -168527.84, -56765.07, 0.0, 10.00118, 9.997243 
2.911519e+3, 2.9858324e+2, -126793.914, -189460.73, 225.06906, -0.24988276, -0.071857534, -126793.1, -112907.266, 0.0, 10.00041, 9.99943 
2.9282433e+3, 1.3914737e+2, -1852892.6, -1656122.5, 214606.06, -0.027090902, 0.03501046, -1518424.1, 57935.62, 0.0, 9.99848, 10.00108 
2.927831e+3, 1.4914003e+2, -1175871.3, -1405688.1, 93168.72, 0.57369214, 0.15737061, -1142846.1, 335580.88, 0.0, 10.003066, 9.999914 
2.927409e+3, 1.591281e+2, -1159171.1, -1325330.0, 47864.91, 0.26103762, -0.18075779, -1146369.3, 234169.25, 0.0, 10.002428, 10.000098 
2.926988e+3, 1.6912095e+2, -1213530.5, -1193832.3, -10062.754, 0.21800613, -0.09219818, -1189600.8, 93009.93, 0.0, 10.000952, 10.001012 
2.9265663e+3, 1.7911482e+2, -1379693.0, -1239413.1, 38624.277, 0.17140715, 0.055031825, -1229481.6, -44806.523, 0.0, 9.999195, 10.000898 
2.926145e+3, 1.8910728e+2, -1264519.8, -1084720.1, 41630.785, 0.07708399, 0.06659738, -1075548.8, 11204.633, 0.0, 9.999121, 10.001305 
2.9257235e+3, 1.9909918e+2, -1186282.3, -1025985.2, 57061.996, 0.017487913, -0.008362433, -1007747.44, -18911.354, 0.0, 9.999092, 10.001065 
2.9253018e+3, 2.0909192e+2, -861425.0, -761676.7, 53797.145, -0.19499552, 0.013071647, -738191.7, 152712.38, 0.0, 10.00048, 10.001496 
2.9248795e+3, 2.1908493e+2, -661726.06, -697977.3, -31635.783, -0.4045441, 0.03214833, -643391.3, 149576.92, 0.0, 10.001506, 10.000797 
2.9244593e+3, 2.2907773e+2, -607016.94, -662607.4, -121846.99, -0.11477677, 0.14087754, -509835.13, 185202.97, 0.0, 10.001412, 10.000387 
2.9240397e+3, 2.3907e+2, -675802.2, -739813.6, 2349.356, 0.26041147, 0.1961303, -675716.06, -78602.38, 0.0, 10.000643, 9.999584 
2.9236212e+3, 2.4905837e+2, -599395.6, -693334.3, 193922.84, 0.111631624, -0.011254292, -446835.06, 52388.598, 0.0, 10.00072, 9.999147 
2.9232025e+3, 2.5904602e+2, -492474.4, -572445.5, 46774.215, -0.10263158, -0.3193431, -470924.03, -69584.414, 0.0, 10.000658, 9.999368 
2.9227802e+3, 2.6903734e+2, -234403.72, -286212.22, -139826.27, 0.06057037, -0.30533522, -118102.445, 185318.39, 0.0, 10.001341, 10.000297 
2.9223573e+3, 2.7902943e+2, -253083.97, -469623.3, -31418.502, 0.25286707, -0.23833704, -248617.47, -43121.805, 0.0, 10.00145, 9.998355 
2.9219353e+3, 2.8901953e+2, -257346.75, -702748.9, 205730.19, 0.10213393, 0.0054858727, -176863.58, -69263.84, 0.0, 10.002058, 9.995732 
2.9215106e+3, 2.990062e+2, 7803.0386, -71646.03, 149513.52, -0.2990548, -0.12851335, 122779.28, 132518.78, 0.0, 10.001161, 9.999878 
2.938235e+3, 1.3956988e+2, -1688250.9, -1794356.0, 559646.44, 0.051134206, 0.12661545, -1179148.0, 393058.2, 0.0, 10.000533, 9.999153 
2.9378295e+3, 1.4955775e+2, -1374323.4, -1567521.9, 4795.8286, 0.9805413, -0.14666823, -1374204.4, 100121.55, 0.0, 10.001959, 9.999351 
2.9374036e+3, 1.5954895e+2, -1303261.4, -1380883.1, -7926.4004, 0.30908376, -0.13002174, -1302460.3, 73949.42, 0.0, 10.001347, 10.000251 
2.93698e+3, 1.6954164e+2, -1214935.5, -1099913.5, -79761.83, 0.21825935, -0.12922455, -1059091.1, 219392.03, 0.0, 10.000502, 10.001891 
2.9365566e+3, 1.7953475e+2, -1320275.0, -1153805.3, 10081.137, 0.12869824, -0.12926148, -1153197.0, 27357.037, 0.0, 9.999311, 10.001449 
2.936136e+3, 1.8952888e+2, -1224795.8, -1077587.6, 34257.65, 0.1391459, 0.03974821, -1070005.8, 12613.047, 0.0, 9.999411, 10.001229 
2.935716e+3, 1.9952257e+2, -1137743.0, -1029507.25, 82366.086, 0.16494244, 0.16409466, -985071.0, -383.34573, 0.0, 9.999502, 10.000853 
2.935295e+3, 2.0951355e+2, -880066.8, -847420.8, 102218.44, -0.04722671, 0.06304617, -760230.25, 126543.76, 0.0, 10.000679, 10.000813 
2.9348737e+3, 2.1950433e+2, -628663.7, -730244.4, -21444.9, -0.29951277, -0.06522979, -624322.0, 164539.05, 0.0, 10.001878, 10.000413 
2.934452e+3, 2.2949672e+2, -579972.8, -674976.7, -160837.81, -0.11792738, 0.026098965, -459768.94, 231167.2, 0.0, 10.0016165, 10.000247 
2.9340306e+3, 2.394892e+2, -597244.25, -690722.56, -27683.426, 0.09152704, 0.12094184, -589661.0, 3349.9707, 0.0, 10.001026, 9.999778 
2.9336113e+3, 2.4948e+2, -581303.25, -685902.8, 150627.45, -0.10328769, 0.14195623, -474154.3, 20947.49, 0.0, 10.000776, 9.999208 
2.9331923e+3, 2.5947016e+2, -466256.44, -543885.9, -8115.4927, -0.31024605, 0.08488204, -465417.13, -68219.2, 0.0, 10.00068, 9.999582 
2.932772e+3, 2.6946032e+2, -257812.47, -328570.6, -180508.83, -0.0069374503, -0.016663674, -109248.3, 190041.3, 0.0, 10.001236, 10.000087 
2.9323503e+3, 2.7945098e+2, -22743.617, -144678.48, -93614.1, 0.27466124, -0.118507884, 28005.68, 229381.28, 0.0, 10.00199, 10.000365 
2.9319277e+3, 2.8944322e+2, 120089.664, -50488.074, 192988.63, -0.022006065, -0.036584258, 245795.58, 349240.97, 0.0, 10.002477, 10.000088 
2.9315025e+3, 2.9943252e+2, 391699.78, 213974.78, 133191.44, -0.48231477, -0.25584587, 462951.3, 468498.84, 0.0, 10.003139, 10.000977 
2.9482326e+3, 1.3998222e+2, -1268172.0, -1656426.4, 22636.785, 0.3337461, -0.04839733, -1266856.6, 301312.75, 0.0, 10.00369, 9.998584 
2.9478183e+3, 1.4997447e+2, -1458869.8, -1256981.4, -181997.77, 0.6816992, -0.13410905, -1149808.0, 320436.56, 0.0, 9.999885, 10.002483 
2.947393e+3, 1.5996782e+2, -1551471.8, -1270219.0, -70698.484, 0.17520913, -0.19752294, -1253447.6, 118857.87, 0.0, 9.998662, 10.002316 
2.9469714e+3, 1.6996247e+2, -1344060.3, -1055805.5, -92583.04, 0.27546278, -0.13117023, -1028631.06, 245727.78, 0.0, 9.999175, 10.002833 
2.9465497e+3, 1.7995678e+2, -1251142.8, -1124279.0, 8234.156, 0.33404037, -0.08726296, -1123746.9, 52670.54, 0.0, 9.999827, 10.0013895 
2.9461274e+3, 1.8995023e+2, -1055097.3, -1069325.5, 23273.229, 0.1429564, 0.063640706, -1037875.06, 40615.453, 0.0, 10.000946, 10.000518 
2.9457065e+3, 1.9994335e+2, -861708.7, -929357.1, 28776.98, 0.034129724, 0.17817332, -851123.5, 129442.59, 0.0, 10.001574, 10.000537 
2.9452875e+3, 2.0993493e+2, -826039.9, -792752.94, 94210.336, -0.022244267, 0.10978265, -713727.25, 168919.27, 0.0, 10.000925, 10.001065 
2.944868e+3, 2.1992591e+2, -978784.1, -952513.3, 19860.354, -0.09373642, -0.00557727, -941837.56, -157105.66, 0.0, 9.999736, 9.999918 
2.944445e+3, 2.2991712e+2, -748208.8, -791388.0, -111624.75, -0.042467643, 0.017508205, -656105.0, 30713.803, 0.0, 10.000703, 9.999834 
2.944022e+3, 2.3990865e+2, -608314.6, -724317.6, 6869.0176, 0.0042516715, 0.043741964, -607909.3, -19005.553, 0.0, 10.001155, 9.999452 
2.9436028e+3, 2.4990082e+2, -506014.13, -609072.94, 187900.52, -0.20691524, 0.18767849, -362705.44, 128277.84, 0.0, 10.001203, 9.999496 
2.9431838e+3, 2.5989276e+2, -444303.28, -541021.44, 51211.082, -0.3750731, 0.28694934, -422226.75, -29162.498, 0.0, 10.00094, 9.999472 
2.9427642e+3, 2.6988262e+2, -181336.64, -319549.66, -82709.61, -0.05951809, 0.17858994, -142662.88, 152497.86, 0.0, 10.001916, 9.999806 
2.9423434e+3, 2.7987257e+2, 65667.414, 21804.195, -17407.045, 0.2197352, -0.007056074, 71735.82, 268989.47, 0.0, 10.002129, 10.001426 
2.94192e+3, 2.8986615e+2, 81895.016, 291355.3, 85298.28, -0.15340066, -0.04852814, 321696.25, 420998.03, 0.0, 10.000727, 10.003265 
2.9414943e+3, 2.998572e+2, -306637.78, -170858.36, -74073.016, -0.61634076, -0.32510465, -138270.1, -136891.23, 0.0, 9.998715, 10.000414 
2.9582274e+3, 1.40394e+2, -1464561.8, -1673188.5, -223006.47, 0.29025188, -0.1231091, -1322677.8, 241465.2, 0.0, 10.001965, 9.999319 
2.9578042e+3, 1.5039149e+2, -1221498.1, -689625.56, -131136.64, 0.1604002, -0.008280355, -659050.56, 807112.9, 0.0, 9.99953, 10.006567 
2.9573807e+3, 1.6038612e+2, -1403592.3, -927292.8, -70501.76, -0.075526565, -0.29485452, -917076.25, 451132.9, 0.0, 9.998468, 10.004781 
2.9569626e+3, 1.7038344e+2, -1249177.6, -899985.94, -76180.695, 0.35106725, -0.09681217, -884089.8, 386145.8, 0.0, 9.999312, 10.003849 
2.9565436e+3, 1.8037997e+2, -1206619.6, -1110844.6, 34787.61, 0.5805874, 0.10451628, -1099542.6, 72729.305, 0.0, 10.000122, 10.0013485 
2.956119e+3, 1.9037095e+2, -1109685.0, -1219659.0, 57526.22, 0.04710226, 0.085773684, -1085092.9, -10722.601, 0.0, 10.001059, 9.999445 
2.9556957e+3, 2.0036192e+2, -814528.8, -883430.06, 33097.242, -0.38773984, 0.067960136, -801206.3, 175260.97, 0.0, 10.001736, 10.000792 
2.9552794e+3, 2.1035643e+2, -707445.44, -606634.56, 44374.41, -0.088557586, 0.192182, -589884.94, 288632.9, 0.0, 10.001075, 10.002319 
2.954862e+3, 2.2035015e+2, -875344.75, -862116.2, -3213.696, 0.16973199, 0.2588617, -861376.8, -80801.38, 0.0, 10.000192, 10.000344 
2.9544383e+3, 2.3033918e+2, -776438.44, -891908.3, -84351.164, 0.1074681, 0.11018237, -731955.75, -49272.21, 0.0, 10.000876, 9.999065 
2.954015e+3, 2.4032825e+2, -503740.63, -652202.5, 17569.62, 0.0102532655, -0.04733031, -501689.7, 83102.11, 0.0, 10.0017, 9.999699 
2.9535967e+3, 2.5032008e+2, -394019.5, -487144.66, 171946.55, -0.09155338, 0.0024993552, -262442.56, 224428.42, 0.0, 10.001583, 10.000201 
2.9531786e+3, 2.6031223e+2, -300809.13, -424159.63, 56211.11, -0.1662687, 0.07370367, -279036.63, 109910.78, 0.0, 10.0016165, 9.999992 
2.9527578e+3, 2.7030393e+2, -79037.33, -280829.22, -49821.1, -0.046010565, 0.13394113, -67407.125, 223623.66, 0.0, 10.002584, 9.999789 
2.9523355e+3, 2.8029546e+2, 175650.48, 260.38138, -61876.05, 0.0351979, 0.14435574, 195282.34, 388396.06, 0.0, 10.003099, 10.000849 
2.9519117e+3, 2.9028752e+2, -60886.79, 34101.7, -101786.95, -0.12849829, 0.076761924, 98929.7, 194114.0, 0.0, 10.00044, 10.001688 
2.9514843e+3, 3.002792e+2, -594348.0, -511047.03, -351434.94, -0.44902948, 0.033986848, -198803.08, -198803.08, 0.0, 9.997419, 9.998753 
2.9682183e+3, 1.4081788e+2, -1676027.8, -1576370.0, 103818.72, 0.22537462, -0.16917844, -1511041.4, 48954.543, 0.0, 9.999715, 10.0010395 
2.967796e+3, 1.508168e+2, -1417324.9, -1012208.8, 93521.06, 0.30520535, 0.24657102, -991661.6, 470341.25, 0.0, 9.999215, 10.004483 
2.9673713e+3, 1.608087e+2, -1486404.3, -1081487.0, 4771.6006, 0.05236041, -0.12208487, -1081430.8, 282647.88, 0.0, 9.998403, 10.003752 
2.9669526e+3, 1.7080453e+2, -1188701.4, -879720.0, -21835.305, 0.2677564, -0.035331737, -878184.56, 387933.97, 0.0, 9.999787, 10.003751 
2.9665333e+3, 1.8080029e+2, -1063804.5, -1003386.4, 43730.977, 0.3673139, 0.07393517, -980444.8, 187715.78, 0.0, 10.000966, 10.00168 
2.9661104e+3, 1.9079219e+2, -1073278.5, -1105684.3, 124818.18, -0.027809149, 0.0761766, -963615.94, 106628.82, 0.0, 10.000937, 10.0002775 
2.9656887e+3, 2.0078354e+2, -1036336.9, -1005186.5, 168686.81, -0.3084444, 0.051330436, -851357.3, 120976.555, 0.0, 10.000329, 10.000627 
2.9652712e+3, 2.1077733e+2, -834057.9, -706502.44, 78228.46, -0.115977466, 0.15507053, -669348.0, 205043.75, 0.0, 10.00046, 10.001894 
2.9648525e+3, 2.2077073e+2, -911090.0, -939484.3, -49141.703, 0.08072914, 0.22527346, -874135.75, -97682.32, 0.0, 10.00026, 9.999772 
2.96443e+3, 2.3075998e+2, -748536.1, -910395.94, -60131.145, 0.03042488, 0.1291557, -728642.4, -50082.227, 0.0, 10.001213, 9.998784 
2.9640082e+3, 2.4074908e+2, -554632.3, -691902.0, 43814.074, -0.0062342817, -0.0124653205, -541839.8, 38828.387, 0.0, 10.001458, 9.999552 
2.9635903e+3, 2.5074023e+2, -521206.6, -512777.38, 125009.23, 0.005864995, -0.053271487, -391911.75, 90840.3, 0.0, 10.000602, 10.00047 
2.9631725e+3, 2.6073194e+2, -625962.0, -569777.4, 18835.31, 0.013257805, -0.06308399, -564047.4, -179216.22, 0.0, 9.999397, 10.000034 
2.9627508e+3, 2.7072504e+2, -440455.63, -408073.38, -15461.935, -0.0319504, 0.098684005, -401876.47, -114973.45, 0.0, 9.999928, 10.000172 
2.9623273e+3, 2.807178e+2, -308000.13, -318213.75, -36332.984, -0.10933155, 0.21218924, -276416.8, -87438.88, 0.0, 10.000226, 10.000022 
2.9619035e+3, 2.907088e+2, -62728.91, -117158.65, -65104.117, -0.121784285, 0.16495469, -19380.367, 71684.96, 0.0, 10.001161, 10.000248 
2.961476e+3, 3.0070066e+2, -87231.555, -457804.47, -248373.63, -0.31980464, 0.29357663, 37353.777, 37353.777, 0.0, 10.001838, 9.996945 
2.9782102e+3, 1.4124748e+2, -1503661.8, -1402627.1, 35241.813, 0.29455304, -0.008120504, -1391549.1, 164242.42, 0.0, 10.000526, 10.001833 
2.97779e+3, 1.5124443e+2, -1675398.5, -1597138.0, 40309.12, 0.62989455, 0.52507526, -1580090.0, -122269.35, 0.0, 9.999429, 10.000363 
2.9773632e+3, 1.6123298e+2, -1619471.5, -1353724.1, 43849.9, 0.24955459, 0.16865407, -1346675.5, 13258.887, 0.0, 9.99837, 10.001903 
2.9769418e+3, 1.712258e+2, -1254562.9, -981195.3, 72149.805, 0.04534488, 0.039164856, -963321.5, 298681.63, 0.0, 9.999619, 10.00315 
2.9765207e+3, 1.812192e+2, -994446.1, -872949.8, 73607.85, -0.16500513, -0.046307813, -838259.75, 325805.66, 0.0, 10.000979, 10.002585 
2.976103e+3, 1.9121404e+2, -884879.7, -789158.8, 88468.57, -0.02416842, 0.06915358, -736434.44, 329678.06, 0.0, 10.001179, 10.002374 
2.9756847e+3, 2.012076e+2, -963767.7, -991344.2, 121932.22, 0.06755227, 0.12333736, -854846.56, 113326.31, 0.0, 10.000832, 10.000512 
2.975262e+3, 2.1119697e+2, -956135.75, -1005050.7, 48802.535, -0.21882167, -0.040363457, -926005.2, -55729.695, 0.0, 10.000618, 9.999797 
2.9748392e+3, 2.2118723e+2, -864351.3, -960215.94, -58323.504, -0.4470436, -0.12003164, -836790.94, -64420.566, 0.0, 10.000667, 9.999474 
2.9744196e+3, 2.3118012e+2, -654810.56, -822806.6, -38907.9, -0.26931176, 0.11023207, -646237.0, 28206.076, 0.0, 10.001533, 9.999299 
2.9740006e+3, 2.4117221e+2, -458336.28, -644813.4, 20758.43, -0.081535906, 0.24371505, -456053.44, 120469.15, 0.0, 10.002024, 9.999638 
2.973583e+3, 2.5116187e+2, -529468.7, -586315.75, 53837.32, 0.05588141, 0.09700373, -497012.38, -18390.328, 0.0, 10.000751, 9.999931 
2.9731646e+3, 2.6115218e+2, -513645.6, -412520.25, -41902.406, 0.14352138, -0.03864306, -397414.1, -16698.447, 0.0, 9.999596, 10.001052 
2.9727423e+3, 2.7114576e+2, -374126.47, -200437.7, -28109.709, 0.078302816, 0.027163938, -196001.73, 86778.27, 0.0, 9.999548, 10.001842 
2.972319e+3, 2.811393e+2, -239160.97, -158927.58, 16579.01, -0.054579213, 0.09532048, -155636.75, 29207.975, 0.0, 10.000036, 10.001265 
2.9718962e+3, 2.9113168e+2, 120897.78, 36535.605, 56654.99, -0.14352934, 0.109867185, 149349.77, 236268.22, 0.0, 10.002069, 10.000922 
2.971473e+3, 3.0112386e+2, 354933.53, -359700.1, -4034.7573, -0.16700503, 0.30115125, 354956.3, 354956.3, 0.0, 10.005337, 9.995967 
2.9882035e+3, 1.4167637e+2, -1103792.9, -1086270.1, -118338.37, 0.3158801, 0.4054302, -976369.3, 575227.7, 0.0, 10.002672, 10.0030155 
2.987781e+3, 1.5166807e+2, -1539289.4, -1599883.4, -52882.79, 0.620526, 0.43618053, -1508639.6, -54968.188, 0.0, 10.000613, 9.999801 
2.987353e+3, 1.6165653e+2, -1616363.8, -1399995.8, 161076.2, 0.22073558, 0.1160552, -1314145.4, 41638.25, 0.0, 9.998602, 10.001484 
2.9869324e+3, 1.7165121e+2, -1358782.0, -1063938.1, 251445.8, 0.076663375, 0.21787481, -919884.2, 337951.2, 0.0, 9.9990635, 10.00285 
2.986513e+3, 1.816449e+2, -1269985.9, -1150716.5, 257073.19, -0.061135415, 0.241491, -946451.75, 213444.61, 0.0, 9.999723, 10.001302 
2.9860967e+3, 1.9163711e+2, -943479.1, -935065.25, 103619.164, 0.10207867, 0.22404502, -835567.6, 226401.64, 0.0, 10.001282, 10.001334 
2.985679e+3, 2.016291e+2, -833868.9, -998388.25, -17286.201, 0.20860298, 0.18405646, -832072.2, 131972.02, 0.0, 10.002052, 9.999872 
2.9852548e+3, 2.116173e+2, -803641.06, -1032657.8, -18838.982, -0.18748827, -0.04351842, -802101.7, 64055.742, 0.0, 10.002077, 9.998917 
2.984832e+3, 2.2160687e+2, -771049.75, -944943.44, -28646.395, -0.43741766, -0.13811079, -766452.25, 1806.8308, 0.0, 10.001499, 9.999164 
2.984414e+3, 2.3160066e+2, -594056.6, -746883.0, -27643.99, -0.1319015, 0.15853731, -589209.94, 81113.08, 0.0, 10.00186, 9.999618 
2.9839957e+3, 2.4159312e+2, -581405.2, -757534.1, -36157.094, 0.115677804, 0.32425418, -574271.5, -1871.6993, 0.0, 10.001477, 9.999111 
2.9835746e+3, 2.5158206e+2, -698582.94, -707362.2, -28927.525, 0.070109345, 0.1401074, -673713.9, -199204.66, 0.0, 9.999848, 9.999505 
2.9831547e+3, 2.6157218e+2, -731160.3, -520018.66, -86605.195, 0.08824571, 0.016064549, -489040.38, -112434.234, 0.0, 9.9982, 10.000977 
2.982733e+3, 2.7156663e+2, -426117.53, -115438.06, -112372.55, 0.06975336, 0.08854467, -79053.984, 199606.1, 0.0, 9.998764, 10.002782 
2.9823104e+3, 2.8156078e+2, -374810.1, -173145.42, -71450.57, -0.04502489, 0.10698413, -150396.44, 30319.74, 0.0, 9.99898, 10.001653 
2.9818892e+3, 2.9155323e+2, -58427.074, 14769.829, -46020.465, -0.12621213, 0.059398852, 36970.44, 119757.66, 0.0, 10.000652, 10.001427 
2.9814705e+3, 3.015455e+2, -134117.1, -611401.1, 34406.953, -0.022043329, 0.21787447, -131649.48, -131649.48, 0.0, 10.002187, 9.995711 
2.9981974e+3, 1.4210114e+2, -983532.8, -887019.25, 41786.785, 0.27646413, 0.47846892, -871441.5, 675998.56, 0.0, 10.002938, 10.004253 
2.9977706e+3, 1.5208986e+2, -1430575.3, -1481641.3, -144766.44, 0.44533995, 0.16795233, -1309107.4, 140429.98, 0.0, 10.001077, 10.000404 
2.9973412e+3, 1.6207929e+2, -1521764.4, -1352875.5, 101336.07, 0.031398874, -0.09767168, -1305411.4, 46223.88, 0.0, 9.999228, 10.001517 
2.996925e+3, 1.7207725e+2, -1355535.0, -1106302.6, 151360.28, 0.29198053, 0.35682696, -1034859.75, 218796.88, 0.0, 9.999253, 10.002483 
2.9965088e+3, 1.8207306e+2, -1352909.9, -1379575.4, 188059.73, 0.33643535, 0.6678195, -1177710.9, -22011.295, 0.0, 9.999973, 9.999605 
2.99609e+3, 1.9205993e+2, -1068170.8, -1303004.5, 125196.336, 0.1520346, 0.37024805, -1013945.94, 43884.066, 0.0, 10.001776, 9.998563 
2.9956716e+3, 2.0204778e+2, -845571.5, -1064792.5, -35231.086, 0.115057565, 0.14020388, -840048.6, 119900.39, 0.0, 10.0022135, 9.999333 
2.9952514e+3, 2.1203952e+2, -752279.5, -902126.75, -29653.867, 0.11636527, 0.20766309, -746624.56, 115400.75, 0.0, 10.001977, 9.999854 
2.9948303e+3, 2.2203012e+2, -674246.44, -888051.5, -31590.99, 0.09530064, 0.1713996, -669676.4, 94438.32, 0.0, 10.002072, 9.999279 
2.9944128e+3, 2.3201959e+2, -596655.44, -805166.25, -40239.9, 0.43169716, 0.07943233, -589159.2, 77061.14, 0.0, 10.00201, 9.999186 
2.9939938e+3, 2.4201019e+2, -499972.53, -709476.75, -93438.44, 0.62286204, 0.08142052, -464354.6, 103961.65, 0.0, 10.001939, 9.999234 
2.993566e+3, 2.5200024e+2, -649857.25, -730013.06, -125385.57, 0.07120316, 0.031662162, -558300.1, -87880.26, 0.0, 10.000312, 9.999177 
2.99314e+3, 2.6199153e+2, -686045.44, -522128.94, -117087.836, -0.33581334, 0.062688485, -461165.16, -88655.336, 0.0, 9.998526, 10.000858 
2.9927197e+3, 2.7198818e+2, -481410.5, -212349.13, -122099.4, -0.21006316, 0.41729823, -165202.16, 109341.234, 0.0, 9.998643, 10.002225 
2.9923e+3, 2.8198233e+2, -352519.9, -207952.2, -90267.0, -0.09071589, 0.49494165, -164593.98, 12005.659, 0.0, 9.999256, 10.001328 
2.9918838e+3, 2.9196814e+2, -132405.64, -92742.67, -87121.29, 0.16569547, -0.16869374, -23224.244, 55507.254, 0.0, 10.000373, 10.000919 
2.991463e+3, 3.0196193e+2, -115849.26, -290701.47, -31849.635, -0.025640346, 0.11647791, -110228.48, -110228.48, 0.0, 10.000775, 9.998752 
3.0081958e+3, 1.4252935e+2, -1334561.6, -1807722.1, 388311.03, 0.58545786, -0.06415043, -1116437.9, 426778.94, 0.0, 10.003713, 9.997553 
3.0077648e+3, 1.525185e+2, -1465354.6, -2272973.8, -84633.1, 0.50668746, 0.36810273, -1456581.0, -11248.023, 0.0, 10.004166, 9.993457 
3.0073324e+3, 1.6250181e+2, -1453962.5, -1950766.6, -134561.9, -0.051365152, 0.12553981, -1419857.0, -72352.46, 0.0, 10.002332, 9.995917 
3.0069128e+3, 1.7248903e+2, -1405087.3, -1680684.1, -312749.22, -0.0789131, -0.037708964, -1201124.9, 48509.477, 0.0, 10.001186, 9.997608 
3.006498e+3, 1.8247983e+2, -1197708.4, -1313769.4, -271063.84, 0.06275855, -0.01322109, -978532.9, 173195.3, 0.0, 10.001009, 9.999561 
3.006083e+3, 1.9247666e+2, -822334.56, -1017321.44, -169277.05, 0.036981553, 0.4575072, -724482.94, 329279.1, 0.0, 10.002665, 10.000081 
3.0056646e+3, 2.0246722e+2, -684646.06, -1023867.06, -241001.33, -0.0010538714, 0.40053722, -559554.4, 396300.25, 0.0, 10.003428, 9.999027 
3.005242e+3, 2.1245764e+2, -1103509.0, -978941.0, -279579.34, -0.015363643, 0.26310948, -754791.94, 103149.766, 0.0, 9.999179, 10.000623 
3.0048195e+3, 2.2244865e+2, -1326695.8, -1221912.3, -145919.73, -0.11831603, 0.2111762, -1119263.9, -359238.84, 0.0, 9.997673, 9.999081 
3.0043995e+3, 2.3243812e+2, -353928.63, -685186.75, -41984.773, -0.26253757, 0.08904173, -348690.16, 313438.9, 0.0, 10.003651, 9.999166 
3.0039814e+3, 2.4243075e+2, 6354.453, -336066.38, -168296.05, -0.09943623, 0.19999978, 75220.2, 639424.0, 0.0, 10.004882, 10.000343 
3.003559e+3, 2.5242633e+2, -469613.9, -495303.66, -86603.766, 0.18883628, 0.5530454, -394907.63, 71345.31, 0.0, 10.000966, 10.000382 
3.0031344e+3, 2.624189e+2, -786719.56, -757735.25, 114283.25, 0.13626897, 0.6838962, -657028.94, -288697.1, 0.0, 9.998689, 9.999109 
3.0027142e+3, 2.7240878e+2, -208591.94, -361860.78, -20904.762, 0.117816195, 0.6043378, -205791.84, 64643.504, 0.0, 10.001802, 9.999595 
3.0022937e+3, 2.8239918e+2, 220242.45, -54419.242, -120760.234, 0.04221564, 0.49401173, 265785.3, 438314.4, 0.0, 10.0037565, 10.00018 
3.0018768e+3, 2.923849e+2, 210946.78, 38883.496, -68699.664, 0.22370706, -0.15810208, 235010.95, 309669.7, 0.0, 10.002985, 10.000478 
3.0014497e+3, 3.02387e+2, 142441.86, 379934.34, -1457.2064, -0.52645856, 0.7821509, 379943.28, 379943.28, 0.0, 10.000397, 10.0034275 
