coord_x,coord_y,stress_xx,stress_yy,tau_xy,velocity_x,velocity_y,stress_1,eps,damage,lx,ly
4.9991065e+0, 1.2587835e+2, -2011887.4, -1741285.1, 68543.25, 0.038662735, -0.1888225, -1724913.6, -18546.814, 0.0026923823, 9.997312, 10.00111 
4.999352e+0, 1.3587691e+2, -1651733.8, -1443567.1, 10007.304, -0.010786071, -0.60124767, -1443087.3, 165284.73, 0.0015911749, 9.998848, 10.00173 
4.9992567e+0, 1.4588062e+2, -1664996.3, -1631512.4, -23270.05, -0.033318732, -0.28147265, -1619587.5, -109250.77, 0.0007108368, 9.9991045, 9.99963 
4.998786e+0, 1.5588185e+2, -1653192.1, -1559998.3, -11309.361, -0.04726643, -0.18481784, -1558645.4, -146311.69, 0.00020845741, 9.998453, 9.9997635 
4.9990988e+0, 1.6588263e+2, -1437268.4, -1279217.4, 31951.3, -0.029164568, -0.14101508, -1273002.6, 41324.203, 0.000030560106, 9.998724, 10.00089 
4.9999362e+0, 1.7588256e+2, -1220643.9, -1145814.9, 17345.537, 0.009071888, -0.28172645, -1141989.8, 74332.51, 0.0000010193884, 9.999631, 10.000695 
5.000052e+0, 1.8588282e+2, -1162389.1, -1197000.8, 23468.484, 0.0054608006, -0.25867373, -1150535.8, -32215.432, 0.0, 9.999929, 9.999523 
4.9996454e+0, 1.958831e+2, -1087744.0, -1114366.9, 43621.637, -0.027530247, -0.22888462, -1055448.0, -35126.055, 0.0, 9.9997835, 9.999493 
4.999875e+0, 2.0588355e+2, -937130.3, -933170.6, 65561.164, -0.010726626, -0.15654056, -869559.44, 52759.332, 0.0, 9.999905, 9.999999 
5.0005007e+0, 2.158838e+2, -799896.0, -823376.25, 42428.945, 0.03697789, -0.17810927, -767612.9, 56702.22, 0.0, 10.0002, 9.999941 
5.000457e+0, 2.25883e+2, -691942.06, -714130.6, 18467.623, 0.0307293, -0.24959764, -681492.5, 44824.98, 0.0, 10.000244, 9.999996 
4.9999514e+0, 2.3588125e+2, -622387.5, -645112.4, -30916.234, -0.013478454, -0.47432962, -600811.9, 27514.36, 0.0, 10.000112, 9.999864 
4.9998602e+0, 2.4588092e+2, -603584.9, -690363.56, -26826.555, -0.017418358, -0.4382239, -595961.5, -65634.055, 0.0, 10.000017, 9.998924 
5.000073e+0, 2.558813e+2, -518510.34, -607739.6, -15972.977, 0.005922597, -0.33715945, -515737.2, -83410.984, 0.000000000017365094, 9.999964, 9.998847 
5.000082e+0, 2.6588047e+2, -348638.13, -434823.16, 4391.802, -0.008719624, -0.32107538, -348414.9, -14079.862, 0.000000288742, 10.000286, 9.999203 
4.9999443e+0, 2.7587867e+2, -173399.3, -307316.75, -23853.969, -0.051198103, -0.46799192, -169277.2, 67074.11, 0.0000032414011, 10.000847, 9.999135 
5.0002205e+0, 2.858776e+2, -79602.63, -290007.0, -28470.018, -0.03920949, -0.45036575, -75818.39, 62541.13, 0.00001724438, 10.001164, 9.998418 
5.000727e+0, 2.9587588e+2, 51672.453, -169017.11, -27227.986, 0.0012464576, -0.5158773, 54982.12, 95355.17, 0.00007523581, 10.001346, 9.998494 
5.001099e+0, 3.058744e+2, 201108.38, -76037.07, -32782.617, 0.003678267, -0.5173155, 204933.33, 204933.33, 0.0002887192, 10.002055, 9.998454 
5.0011694e+0, 3.15875e+2, 257591.45, -174828.52, -88804.73, -0.036811423, -0.3359462, 275118.56, 275118.56, 0.00075781514, 10.002917, 9.997376 
1.4997295e+1, 1.2587927e+2, -2110846.3, -1879641.5, 93810.54, 0.11614989, -0.18946509, -1846367.0, -140013.17, 0.0025889925, 9.9970665, 10.000296 
1.4998104e+1, 1.358781e+2, -1723924.1, -1556495.1, 69850.625, -0.025299678, -0.4404858, -1531181.0, 77181.9, 0.0015350278, 9.998726, 10.00103 
1.4997767e+1, 1.4588082e+2, -1642949.0, -1541565.8, -59615.305, -0.09839836, -0.22841367, -1514003.8, -3667.732, 0.00068435894, 9.998933, 10.000342 
1.4996354e+1, 1.5588015e+2, -1632290.3, -1481190.9, -20710.33, -0.1411175, -0.3554013, -1478403.8, -66059.82, 0.00019662973, 9.998321, 10.000379 
1.4997312e+1, 1.6588067e+2, -1460167.9, -1288372.8, 56786.125, -0.084559314, -0.36772674, -1271299.3, 43038.965, 0.000026649353, 9.998578, 10.000907 
1.4999852e+1, 1.7588176e+2, -1228174.0, -1132240.3, 57824.12, 0.030513983, -0.37166822, -1105077.6, 111247.61, 0.00000066228677, 9.999515, 10.000857 
1.5000133e+1, 1.8588248e+2, -1127668.9, -1080036.3, 8896.294, 0.016219094, -0.36073524, -1078429.0, 39889.176, 0.0, 9.99976, 10.000416 
1.499895e+1, 1.9588281e+2, -1055220.8, -1009428.6, 50235.336, -0.08052714, -0.38846543, -977117.6, 43198.777, 0.0, 9.999638, 10.000294 
1.49996e+1, 2.0588326e+2, -981761.75, -978006.7, 69217.26, -0.032043226, -0.33878043, -910641.5, 11671.214, 0.0, 9.999725, 9.999784 
1.5001494e+1, 2.158837e+2, -844947.1, -872012.0, 64857.508, 0.1115123, -0.29536095, -792225.3, 32083.537, 0.0, 10.000028, 9.999698 
1.5001357e+1, 2.2588316e+2, -782024.06, -857946.3, 2965.793, 0.09299964, -0.28351107, -781908.4, -55594.926, 0.0, 10.000083, 9.999093 
1.499983e+1, 2.358819e+2, -704251.8, -769861.94, -24387.586, -0.040913504, -0.34017292, -696179.94, -67855.53, 0.0, 9.999941, 9.999095 
1.4999591e+1, 2.4588075e+2, -585211.06, -618184.44, -38536.93, -0.051342033, -0.383202, -559782.25, -29448.797, 0.0, 9.9998865, 9.999492 
1.5000208e+1, 2.5587952e+2, -505068.47, -533249.5, -7029.718, 0.017557329, -0.480822, -503412.25, -71069.41, 0.0, 9.999782, 9.999454 
1.500026e+1, 2.6587903e+2, -394721.28, -494742.16, 16134.351, -0.023794703, -0.44073686, -392183.06, -57834.566, 0.00000013049092, 10.000154, 9.998865 
1.4999868e+1, 2.7587909e+2, -224696.39, -371123.88, 4228.7866, -0.14963327, -0.33864725, -224574.36, 11776.892, 0.0000023602508, 10.000677, 9.998792 
1.5000622e+1, 2.858787e+2, -78786.45, -252930.17, -29470.82, -0.12056976, -0.25398263, -73934.22, 64420.84, 0.000014211254, 10.001036, 9.998744 
1.5002178e+1, 2.958771e+2, 39095.695, -145239.2, -1382.3281, 0.0019869, -0.3135343, 39106.063, 79473.5, 0.00006483318, 10.001141, 9.998768 
1.500333e+1, 3.0587506e+2, 100325.02, -230483.02, -5095.1704, 0.019351792, -0.33008692, 100403.484, 100403.484, 0.00025577057, 10.001882, 9.997489 
1.5003495e+1, 3.1587356e+2, 197902.38, -204832.5, -25209.71, -0.10801852, -0.21986817, 199474.28, 199474.28, 0.0006795775, 10.00257, 9.997352 
2.4995331e+1, 1.2587811e+2, -1908761.5, -1791793.5, 1843.318, 0.15176313, -0.18761879, -1791764.5, -85399.414, 0.002469872, 9.998527, 10.000163 
2.499665e+1, 1.3587748e+2, -1845320.3, -1644287.6, -4313.146, 0.0007171009, -0.36644718, -1644195.1, -35822.902, 0.001465867, 9.99805, 10.000738 
2.499694e+1, 1.4588001e+2, -1671526.9, -1488506.4, -90757.74, -0.042864162, -0.18926857, -1451132.5, 59212.996, 0.0006493342, 9.99847, 10.000914 
2.4996017e+1, 1.5587898e+2, -1417291.4, -1325625.4, -74037.836, -0.06289284, -0.42101797, -1284382.1, 127970.24, 0.00018140074, 9.999581, 10.000828 
2.4996786e+1, 1.6587947e+2, -1372106.5, -1273782.0, 10387.4375, -0.025175354, -0.43859217, -1272696.6, 41650.074, 0.000022322774, 9.999315, 10.000637 
2.4998838e+1, 1.7588091e+2, -1459249.6, -1261936.4, -19279.389, 0.058084343, -0.39157268, -1260070.3, -43736.813, 0.00000035252413, 9.9980345, 10.000663 
2.4999243e+1, 1.8588197e+2, -1317185.3, -1122375.3, -44702.12, 0.033277784, -0.35965455, -1112607.4, 5715.4277, 0.0, 9.998241, 10.000848 
2.4998596e+1, 1.9588272e+2, -1061489.0, -966138.56, -46021.453, -0.0616857, -0.3980503, -947549.94, 72764.95, 0.0, 9.999401, 10.0006895 
2.499953e+1, 2.0588315e+2, -944906.56, -976135.6, -13144.544, -0.02150444, -0.36348432, -940110.5, -17799.688, 0.0, 10.000037, 9.999641 
2.500157e+1, 2.1588321e+2, -828387.44, -882158.0, -21359.527, 0.11271461, -0.35277203, -820935.44, 3375.5774, 0.0, 10.000221, 9.999525 
2.5001624e+1, 2.2588274e+2, -761616.8, -878582.4, -31144.527, 0.10338142, -0.3107284, -753840.9, -27524.275, 0.0, 10.000341, 9.99882 
2.5000337e+1, 2.358818e+2, -661964.3, -782358.8, -16161.667, -0.00027188062, -0.3167841, -659832.56, -31505.563, 0.0, 10.000356, 9.998803 
2.5000232e+1, 2.4588074e+2, -463989.75, -563501.75, 5907.174, -0.014338187, -0.33390215, -463640.3, 66695.59, 0.0, 10.00075, 9.999437 
2.5000942e+1, 2.5587937e+2, -275161.2, -435937.78, -24205.115, 0.03724485, -0.4444129, -271596.16, 160749.73, 0.0, 10.00142, 9.999325 
2.500111e+1, 2.6587862e+2, -282480.66, -483190.03, -13863.999, 0.0026463221, -0.40140483, -281527.53, 52826.742, 0.00000003137998, 10.001126, 9.99846 
2.5000876e+1, 2.758784e+2, -324378.38, -454325.9, -37634.797, -0.08451346, -0.29710883, -314265.72, -77905.07, 0.0000016165861, 10.000166, 9.998449 
2.5001684e+1, 2.858779e+2, -170440.16, -276362.13, -17832.71, -0.07561826, -0.21651947, -167518.48, -29152.71, 0.000011342512, 10.000318, 9.998925 
2.500331e+1, 2.9587653e+2, 54369.6, -117281.3, -11766.61, 0.0076110726, -0.2829098, 55172.445, 95548.875, 0.000053962976, 10.001181, 9.998928 
2.5005093e+1, 3.0587465e+2, 63145.668, -233848.42, 62359.664, 0.03504835, -0.29438412, 75707.93, 75707.93, 0.00022089553, 10.001568, 9.997623 
2.500602e+1, 3.1587225e+2, 124502.0, -107353.586, 97036.766, -0.041445006, -0.30885318, 159754.19, 159754.19, 0.000598242, 10.001517, 9.998517 
3.4992954e+1, 1.2587485e+2, -1879862.3, -1704470.3, -50552.473, 0.0056169895, -0.2296308, -1690943.0, 15457.499, 0.0023442989, 9.998418, 10.000816 
3.499462e+1, 1.358751e+2, -1813327.6, -1564907.6, -9984.686, -0.03629989, -0.35378477, -1564506.9, 43891.86, 0.0013882996, 9.998012, 10.001295 
3.4996453e+1, 1.4587826e+2, -1638014.6, -1399581.4, -60310.44, 0.028948821, -0.17875972, -1385194.3, 125170.99, 0.0006086515, 9.998388, 10.001563 
3.4997463e+1, 1.5587834e+2, -1382122.5, -1235709.3, -27333.227, 0.09326922, -0.36121237, -1230773.0, 181586.2, 0.00016439817, 9.999522, 10.001467 
3.4997377e+1, 1.6587904e+2, -1406132.4, -1329854.0, -50739.793, 0.07418079, -0.37148637, -1304517.9, 9834.57, 0.000017966355, 9.999243, 10.000298 
3.4996635e+1, 1.7587984e+2, -1487178.8, -1313727.4, -48356.996, 0.006872478, -0.3435177, -1301156.8, -84808.32, 0.00000014192928, 9.998001, 10.000331 
3.4997106e+1, 1.8588115e+2, -1318660.8, -1098688.9, -8617.835, -0.030630857, -0.2827459, -1098351.9, 19984.371, 0.0, 9.998135, 10.001058 
3.4998313e+1, 1.9588272e+2, -1057344.0, -937894.3, 6176.0635, -0.057134338, -0.25677845, -937575.8, 82742.86, 0.0, 9.999318, 10.000923 
3.4999427e+1, 2.0588306e+2, -952410.4, -958892.4, -18506.986, -0.058243927, -0.25308526, -936862.75, -14548.397, 0.0, 9.999904, 9.999824 
3.5000488e+1, 2.1588232e+2, -830935.4, -856891.94, -4870.684, -0.04201148, -0.33415508, -830051.5, -5730.0195, 0.0, 10.000095, 9.99976 
3.5001037e+1, 2.2588165e+2, -740684.7, -798731.7, -38275.24, -0.012074549, -0.3540003, -721673.25, 4654.278, 0.0, 10.000192, 9.99944 
3.5001194e+1, 2.3588103e+2, -644157.3, -710732.75, -3105.993, 0.025366168, -0.38490605, -644012.7, -15679.488, 0.0, 10.000214, 9.999363 
3.500156e+1, 2.4588092e+2, -518200.03, -651397.2, 22195.547, 0.02218123, -0.30327666, -514598.8, 15735.756, 0.0, 10.000643, 9.998889 
3.5002056e+1, 2.5588098e+2, -331252.53, -521629.25, 7275.9746, -0.01732379, -0.2108782, -330974.84, 101359.82, 0.0, 10.001293, 9.998796 
3.500242e+1, 2.6587936e+2, -311642.2, -530195.9, -58178.402, -0.0010981015, -0.21513595, -297120.2, 37231.16, 0.0000000045955626, 10.001063, 9.998171 
3.500265e+1, 2.758766e+2, -355575.84, -493591.44, -55541.305, 0.04913606, -0.33042476, -336000.84, -99621.77, 0.0000011861115, 10.000052, 9.998237 
3.5003173e+1, 2.8587517e+2, -163926.7, -244105.39, 4212.1265, 0.017353559, -0.34650275, -163706.03, -25314.01, 0.000009324045, 10.000245, 9.99918 
3.5003823e+1, 2.95874e+2, 55188.24, -89399.414, 27006.035, -0.088448286, -0.41317597, 60067.742, 100468.87, 0.00004426637, 10.001074, 9.999172 
3.5006034e+1, 3.0587286e+2, 165727.61, -16305.118, 51604.793, -0.04981314, -0.4387221, 179339.31, 179339.31, 0.00018827697, 10.0015335, 9.999133 
3.5008216e+1, 3.158711e+2, 287863.97, 242387.72, 124434.18, -0.026159478, -0.5532172, 391620.44, 391620.44, 0.00052441156, 10.0014515, 10.000956 
4.4991e+1, 1.2587209e+2, -1965212.5, -1667223.8, 30424.793, 0.03628383, -0.27742806, -1664149.0, 42279.832, 0.0022184679, 9.997525, 10.001493 
4.4992968e+1, 1.358734e+2, -1816378.6, -1527558.5, 14562.939, 0.022724288, -0.33244792, -1526826.1, 81589.94, 0.0013082918, 9.997826, 10.001644 
4.4995216e+1, 1.4587668e+2, -1685609.1, -1389104.8, -6738.622, 0.103133224, -0.17620885, -1388951.6, 121429.695, 0.00056754425, 9.997919, 10.001871 
4.4996402e+1, 1.5587716e+2, -1605179.4, -1315859.8, -33350.41, 0.12982596, -0.3424212, -1312065.1, 100306.625, 0.00014805637, 9.997867, 10.001733 
4.499617e+1, 1.6587833e+2, -1506454.0, -1332503.3, -38120.973, 0.084146366, -0.33830813, -1324515.9, -10155.684, 0.000013959289, 9.998363, 10.0007 
4.4995093e+1, 1.7587967e+2, -1276075.3, -1174541.0, 1233.6237, -0.0026107107, -0.29624748, -1174526.0, 41824.414, 0.000000037538413, 9.999283, 10.00067 
4.4996017e+1, 1.8588068e+2, -1124408.1, -1043332.75, 87479.32, -0.017813928, -0.26030988, -987455.0, 130885.34, 0.0, 9.999631, 10.000731 
4.4998237e+1, 1.958815e+2, -1062916.4, -975403.2, 41905.016, 0.006763863, -0.27542463, -958573.7, 61755.934, 0.0, 9.999434, 10.000616 
4.4999412e+1, 2.0588155e+2, -1026688.7, -1009044.0, -4603.5, -0.01845533, -0.2786701, -1007915.1, -85586.47, 0.0, 9.999445, 9.999706 
4.499991e+1, 2.1588087e+2, -919556.3, -911585.6, -32432.914, -0.0715568, -0.33988288, -882894.1, -58557.832, 0.0, 9.999529, 9.999662 
4.5000878e+1, 2.2588044e+2, -734052.1, -778365.44, -58704.496, -0.036227476, -0.340378, -693462.2, 32878.734, 0.0, 10.000166, 9.999593 
4.5002148e+1, 2.3588012e+2, -497126.88, -627480.7, -79849.34, 0.059933145, -0.35472235, -459231.25, 169112.95, 0.0, 10.00118, 9.999473 
4.5002702e+1, 2.4588002e+2, -469238.9, -651050.44, -55936.99, 0.058737822, -0.26477942, -453407.6, 76938.48, 0.0, 10.001087, 9.998672 
4.500276e+1, 2.5587982e+2, -500009.7, -623908.06, -63095.86, -0.015554166, -0.17781319, -473534.97, -41185.46, 0.0, 10.000225, 9.998605 
4.5003507e+1, 2.6587802e+2, -360201.34, -513561.56, -64511.57, 0.03351136, -0.21043469, -336673.75, -2307.414, 0.000000013083459, 10.0005665, 9.99852 
4.5004788e+1, 2.7587518e+2, -82227.766, -336811.25, -32384.129, 0.17872228, -0.36707532, -78172.945, 158218.97, 0.0000010541644, 10.001819, 9.99847 
4.5005187e+1, 2.8587362e+2, 15001.428, -223509.28, 25258.621, 0.12697855, -0.3740526, 17647.006, 156053.94, 0.000008050424, 10.001763, 9.998595 
4.5004806e+1, 2.9587233e+2, -19801.719, -187293.22, -34601.977, -0.07616547, -0.3887127, -12934.846, 27485.498, 0.00003666787, 10.000827, 9.998627 
4.5006993e+1, 3.0587125e+2, 77689.49, -1908.1245, -45928.31, -0.056039553, -0.40905845, 98663.66, 98663.66, 0.0001603948, 10.000676, 9.9996395 
4.50098e+1, 3.1586975e+2, 256932.86, 293260.84, -77022.47, 0.024534028, -0.5572531, 354232.13, 354232.13, 0.00046251278, 10.000953, 10.00154 
5.498828e+1, 1.258702e+2, -1924975.8, -1609105.3, 2567.026, -0.061307516, -0.31712896, -1609084.4, 97362.17, 0.0020911084, 9.997611, 10.001857 
5.499136e+1, 1.3587248e+2, -1798423.6, -1509753.0, 37838.5, 0.03853229, -0.29594952, -1504875.6, 103547.43, 0.0012261746, 9.997899, 10.001732 
5.4993e+1, 1.4587533e+2, -1692167.6, -1408937.0, -23016.775, 0.049179405, -0.17626065, -1407078.8, 103314.484, 0.0005263589, 9.997938, 10.001729 
5.4992425e+1, 1.5587546e+2, -1605110.8, -1323105.5, -21306.06, -0.08872283, -0.36237416, -1321504.8, 90885.086, 0.00013276051, 9.997892, 10.001672 
5.4992616e+1, 1.658774e+2, -1436463.3, -1178066.5, -14132.374, -0.1393866, -0.33631536, -1177295.9, 137073.47, 0.0000106646075, 9.998325, 10.001776 
5.499375e+1, 1.758803e+2, -1212382.0, -1038143.5, 41748.957, -0.09811835, -0.25108808, -1028656.6, 187683.34, 0.000000007551507, 9.999268, 10.001611 
5.499567e+1, 1.858806e+2, -1193086.6, -1171467.9, 67730.19, -0.043284412, -0.28564432, -1113690.0, 4645.1963, 0.0, 9.999568, 9.999882 
5.499798e+1, 1.9587901e+2, -1126016.4, -1096761.9, 44089.49, 0.0080156885, -0.45441648, -1064936.6, -44588.355, 0.0, 9.999395, 9.999802 
5.49991e+1, 2.058786e+2, -1068143.6, -1072803.5, -9992.696, -0.019603597, -0.44547576, -1060212.9, -137859.0, 0.0, 9.999353, 9.99931 
5.4999423e+1, 2.1587887e+2, -958716.56, -972897.2, -16087.659, -0.10075863, -0.37154108, -948226.06, -123870.39, 0.0, 9.999445, 9.99928 
5.5000776e+1, 2.258791e+2, -767013.4, -828298.6, -29479.37, -0.08961271, -0.27507094, -755135.4, -28778.39, 0.0, 10.000085, 9.99929 
5.5002886e+1, 2.358792e+2, -528292.7, -673013.75, -37113.805, -0.010124283, -0.21880582, -519329.88, 109029.03, 0.0, 10.001095, 9.999201 
5.500328e+1, 2.4587806e+2, -472835.8, -643336.0, -96047.29, -0.01895487, -0.22376336, -429662.16, 100708.3, 0.0, 10.001025, 9.998754 
5.500259e+1, 2.5587586e+2, -506628.22, -605278.5, -79936.28, -0.08452398, -0.3461501, -462023.72, -29632.973, 0.0, 10.000093, 9.998791 
5.500398e+1, 2.658746e+2, -298425.13, -377537.9, -27046.398, -0.0017465777, -0.38372773, -290062.7, 44336.73, 0.000000016276152, 10.000527, 9.9994755 
5.5006975e+1, 2.7587408e+2, -40516.52, -233912.69, 16737.107, 0.18805017, -0.40815872, -39078.727, 197321.03, 0.00000094951764, 10.001741, 9.999217 
5.5007374e+1, 2.8587317e+2, -87635.62, -429303.28, -20248.195, 0.14409652, -0.30609736, -86439.836, 51971.02, 0.0000068870954, 10.001736, 9.997194 
5.500591e+1, 2.9587153e+2, -125236.06, -387911.06, -52741.28, -0.08112246, -0.21661836, -115042.0, -74607.48, 0.000030486934, 10.000741, 9.997292 
5.5007625e+1, 3.0586985e+2, 42920.77, -56260.645, -38870.125, -0.08635238, -0.21628386, 56338.99, 56338.99, 0.00013676572, 10.000611, 9.999298 
5.501006e+1, 3.1586817e+2, 156658.6, 107515.78, -25632.988, -0.099015206, -0.34037817, 167595.0, 167595.0, 0.00040932593, 10.000864, 10.000303 
6.4986604e+1, 1.2586918e+2, -1791666.1, -1571533.4, 62785.855, -0.023265904, -0.32920146, -1554884.9, 151569.44, 0.0019647046, 9.998601, 10.001656 
6.4990115e+1, 1.3587125e+2, -1736825.5, -1517573.6, 23244.107, 0.107823834, -0.28994864, -1515136.5, 93296.88, 0.0011417874, 9.998462, 10.001418 
6.4991564e+1, 1.4587349e+2, -1648504.9, -1392568.9, -18968.7, 0.10631491, -0.21569487, -1391170.6, 119239.67, 0.0004823996, 9.998262, 10.00168 
6.499002e+1, 1.5587397e+2, -1559435.5, -1302589.3, -31857.996, -0.12532176, -0.3635096, -1298696.8, 113707.88, 0.00011742101, 9.998224, 10.001641 
6.4990747e+1, 1.6587585e+2, -1414000.3, -1190768.4, -27251.064, -0.16343218, -0.32993305, -1187489.9, 126895.195, 0.000008467286, 9.998583, 10.001569 
6.499343e+1, 1.7587838e+2, -1250519.1, -1077973.1, -91690.97, -0.040951394, -0.2589034, -1038348.3, 178011.16, 0.000000004638606, 9.999106, 10.001417 
6.499569e+1, 1.8587863e+2, -1205979.4, -1160932.9, -72170.79, 0.019226408, -0.29619676, -1107852.5, 10502.482, 0.0, 9.9994135, 10.000021 
6.4997506e+1, 1.9587721e+2, -1096756.3, -1067273.8, -42156.664, 0.022360941, -0.46298084, -1037355.25, -16989.346, 0.0, 9.999527, 9.99994 
6.4998657e+1, 2.0587689e+2, -990802.4, -1019838.44, -16497.506, -0.015509007, -0.45828697, -983344.5, -60974.17, 0.0, 9.999814, 9.999455 
6.4999366e+1, 2.1587725e+2, -853010.9, -907403.8, 1146.6791, -0.077028595, -0.39051196, -852986.75, -28615.652, 0.0, 10.00011, 9.99941 
6.500109e+1, 2.2587776e+2, -764621.1, -832028.75, 39239.94, -0.061617427, -0.26783383, -746597.56, -20227.201, 0.0, 10.000126, 9.999246 
6.5003496e+1, 2.3587832e+2, -697930.9, -755762.9, 28953.584, 0.006589293, -0.1598237, -685926.9, -57557.77, 0.0, 9.999934, 9.999192 
6.500412e+1, 2.4587704e+2, -568957.2, -672605.4, -17324.262, 0.008090701, -0.18810064, -566138.25, -35756.434, 0.0, 10.00027, 9.998937 
6.5003526e+1, 2.5587434e+2, -369840.2, -522765.75, -11885.134, -0.03421487, -0.37770197, -368922.0, 63483.555, 0.0, 10.000949, 9.998964 
6.5004945e+1, 2.6587316e+2, -251497.94, -375618.06, 31031.525, 0.028074792, -0.40298304, -244172.08, 90241.49, 0.00000000394634, 10.000931, 9.999304 
6.500789e+1, 2.7587315e+2, -233056.56, -340054.75, -28971.354, 0.17560779, -0.35734272, -225715.77, 10694.425, 0.0000007712445, 10.000488, 9.999085 
6.5008795e+1, 2.8587222e+2, -182573.11, -487780.78, -31672.203, 0.15103692, -0.24937944, -179321.06, -40899.324, 0.000006042053, 10.001135, 9.99708 
6.500832e+1, 2.9587018e+2, 111446.33, -282897.78, 7163.298, 0.012484931, -0.18598446, 111576.41, 152024.19, 0.000026514312, 10.0024185, 9.997197 
6.5009767e+1, 3.058682e+2, 248821.05, 25015.182, 66476.836, 0.0021354805, -0.20693494, 267077.38, 267077.38, 0.000119780976, 10.0021, 9.999142 
6.501114e+1, 3.1586638e+2, 14924.757, -128948.36, 61365.016, -0.050559152, -0.31649563, 37542.594, 37542.594, 0.00036687037, 10.000603, 9.998817 
7.4985313e+1, 1.2586875e+2, -1820582.0, -1642345.0, 27463.076, -0.07907995, -0.31731904, -1638209.4, 68245.76, 0.0018421272, 9.998654, 10.001139 
7.498874e+1, 1.3586958e+2, -1777975.6, -1617603.6, 22468.139, 0.087851495, -0.32588717, -1614515.4, -6067.155, 0.0010580781, 9.998524, 10.000703 
7.4990255e+1, 1.4587113e+2, -1640970.8, -1377513.0, -33045.76, 0.11312244, -0.29401442, -1373431.3, 137001.3, 0.0004375462, 9.998266, 10.001781 
7.498883e+1, 1.5587263e+2, -1560086.8, -1313524.9, -18784.383, -0.10061834, -0.34841073, -1312102.0, 100314.27, 0.00010224, 9.998258, 10.001555 
7.4990195e+1, 1.658737e+2, -1525334.6, -1413284.6, -17226.56, -0.10525253, -0.3113746, -1410696.0, -96288.74, 0.000007138289, 9.998549, 10.000053 
7.4993813e+1, 1.7587395e+2, -1342059.8, -1268249.1, -64096.594, 0.05615611, -0.31946498, -1231192.5, -14783.949, 0.00000003688298, 9.9991045, 10.000112 
7.499575e+1, 1.8587478e+2, -1134833.9, -1007181.9, -77249.18, 0.057364132, -0.29749337, -970802.1, 147597.58, 0.0, 9.999381, 10.001097 
7.499645e+1, 1.9587603e+2, -1025663.75, -913820.5, -27499.305, -0.065657906, -0.30619568, -907424.9, 112958.56, 0.0, 9.999499, 10.001008 
7.4997747e+1, 2.0587642e+2, -954769.3, -928401.0, -13285.108, -0.11209185, -0.31727225, -922868.4, -490.29547, 0.0, 9.9997425, 10.000118 
7.499943e+1, 2.1587597e+2, -820600.2, -822888.0, 20141.21, -0.108278535, -0.3994175, -801570.44, 22812.23, 0.0, 10.000028, 10.000032 
7.5001436e+1, 2.258764e+2, -766168.7, -813551.56, 23556.676, -0.06271914, -0.32258862, -756450.5, -30069.424, 0.0, 10.000033, 9.999415 
7.500367e+1, 2.3587738e+2, -702799.2, -741281.94, 36149.977, 0.006727172, -0.19011335, -681088.75, -52712.715, 0.0, 9.999825, 9.999346 
7.500483e+1, 2.4587694e+2, -559455.2, -635688.75, 167.58243, 0.029400526, -0.15731008, -559454.8, -29074.502, 0.0, 10.0002, 9.999218 
7.5005263e+1, 2.558753e+2, -373941.3, -511420.63, 18884.84, 0.019602548, -0.27065894, -371394.38, 60998.95, 0.0, 10.000857, 9.999086 
7.500603e+1, 2.6587385e+2, -352806.53, -567592.5, 6449.5723, 0.021719633, -0.26146278, -352613.03, -18205.506, 0.00000000015133415, 10.000862, 9.998014 
7.5007135e+1, 2.7587253e+2, -324456.22, -505109.3, -24970.623, 0.02278588, -0.21842796, -321068.22, -84645.52, 0.00000065427645, 10.000386, 9.998 
7.50091e+1, 2.8587076e+2, -104848.18, -317396.97, 8990.66, 0.041568127, -0.20525543, -104468.555, 33970.72, 0.0000058927376, 10.001095, 9.998269 
7.501165e+1, 2.958683e+2, 175999.83, -131107.33, 56358.86, 0.07285929, -0.30482942, 186015.88, 226476.52, 0.000025865007, 10.002329, 9.99829 
7.501305e+1, 3.0586615e+2, 237034.69, 13457.578, 7658.0493, 0.09358454, -0.38943297, 237296.69, 237296.69, 0.000112007656, 10.002051, 9.999079 
7.5012326e+1, 3.158641e+2, -123494.84, -385829.97, 37365.957, -0.04384074, -0.5172051, -118276.39, -118276.39, 0.00034011903, 10.000473, 9.99711 
8.4985137e+1, 1.2586786e+2, -1673239.6, -1582811.1, -5903.801, -0.0033008836, -0.32630494, -1582427.3, 124035.74, 0.0017237901, 9.999734, 10.001016 
8.4985906e+1, 1.358687e+2, -1915110.0, -1701248.4, -6408.6943, 0.00640352, -0.31432363, -1701056.5, -92600.32, 0.0009802121, 9.9976845, 10.000519 
8.4987813e+1, 1.4586954e+2, -1756323.8, -1474739.4, 24395.217, 0.08337191, -0.325949, -1472641.6, 37806.39, 0.00039778455, 9.997638, 10.001428 
8.4988713e+1, 1.5587115e+2, -1472386.5, -1310403.6, -20027.21, 0.031569142, -0.3329074, -1307964.3, 104467.02, 0.000088897265, 9.999024, 10.001208 
8.499048e+1, 1.6587189e+2, -1391034.6, -1387890.4, 27350.076, 0.021203361, -0.29453737, -1362067.4, -47641.484, 0.000006071428, 9.999639, 9.999705 
8.4993166e+1, 1.7587142e+2, -1291259.6, -1277419.6, 47234.83, 0.062987454, -0.33876732, -1236600.6, -20166.545, 0.000000076650345, 9.999603, 9.999806 
8.4994644e+1, 1.8587229e+2, -1151339.5, -1027170.0, 21611.314, 0.017580539, -0.29159266, -1023516.1, 94910.15, 0.0, 9.999323, 10.000988 
8.499527e+1, 1.9587423e+2, -1132428.6, -974557.4, -35856.64, -0.09186215, -0.21941918, -966795.06, 53610.95, 0.0, 9.998808, 10.000925 
8.4996915e+1, 2.0587485e+2, -1068717.5, -940485.2, -39875.555, -0.114899255, -0.22320732, -929096.75, -6698.7, 0.0, 9.998781, 10.000496 
8.4999204e+1, 2.1587433e+2, -936548.56, -837260.4, -51175.2, -0.07791553, -0.34642228, -815606.25, 8794.404, 0.0, 9.99906, 10.0004 
8.5001457e+1, 2.2587453e+2, -822098.9, -799144.4, -38675.344, -0.030003214, -0.3299439, -770279.2, -43880.336, 0.0, 9.99948, 9.999776 
8.5003746e+1, 2.358752e+2, -659816.06, -684222.8, -30410.855, 0.031989157, -0.2634726, -639251.44, -10857.25, 0.0, 9.999971, 9.99966 
8.500546e+1, 2.4587497e+2, -540990.56, -645984.8, -46295.22, 0.068386964, -0.21440764, -523493.44, 6903.041, 0.0, 10.000409, 9.999041 
8.50068e+1, 2.5587398e+2, -384237.0, -533214.1, -83477.46, 0.094112635, -0.24343464, -346846.0, 85558.88, 0.0, 10.000872, 9.9989195 
8.5007346e+1, 2.6587245e+2, -341056.47, -589466.06, -75733.39, 0.06497633, -0.22382821, -319788.3, 14632.956, 0.0000000019213902, 10.001038, 9.997788 
8.500748e+1, 2.758704e+2, -268653.1, -497685.6, -43816.65, 0.0050293915, -0.2276481, -260556.66, -24112.486, 0.0000006294421, 10.000834, 9.997843 
8.5009766e+1, 2.8586856e+2, -116100.24, -264562.53, 52207.18, 0.022880055, -0.24752004, -99579.79, 38881.105, 0.0000062489003, 10.000761, 9.9987955 
8.501356e+1, 2.9586655e+2, 9341.273, -151608.61, 28296.021, 0.111246094, -0.35534, 14170.969, 54646.44, 0.000027811611, 10.000933, 9.998817 
8.501559e+1, 3.058651e+2, 240928.38, 3676.583, -40238.168, 0.14997685, -0.38819924, 247567.05, 247567.05, 0.00011221668, 10.00211, 9.998998 
8.5015327e+1, 3.15863e+2, 287239.13, -265446.6, -51224.477, 0.065868296, -0.5073204, 291946.7, 291946.7, 0.00032879677, 10.003617, 9.996423 
9.498539e+1, 1.258667e+2, -1651926.9, -1542843.1, -122642.48, -0.0142746335, -0.3378589, -1463161.3, 243314.72, 0.0016162735, 9.999756, 10.001276 
9.498112e+1, 1.3586856e+2, -1887435.4, -1663141.4, -63782.32, -0.2749503, -0.2599056, -1646272.4, -37815.023, 0.000914127, 9.997761, 10.000743 
9.4983894e+1, 1.4586867e+2, -1811246.9, -1588201.1, 66915.23, -0.10454455, -0.31384057, -1569666.4, -59209.523, 0.00036652523, 9.997639, 10.000645 
9.498934e+1, 1.5586951e+2, -1518387.5, -1409478.9, 39531.72, 0.15912639, -0.31705654, -1396642.5, 15806.944, 0.00007896126, 9.999039, 10.000519 
9.499133e+1, 1.6587046e+2, -1337327.5, -1269147.1, 16016.032, 0.11641067, -0.27021456, -1265572.4, 48867.676, 0.000005121987, 9.999605, 10.000537 
9.4991076e+1, 1.758708e+2, -1243167.3, -1178823.6, 54842.277, -0.13574621, -0.31612217, -1147413.1, 69022.375, 0.00000007826353, 9.999607, 10.000481 
9.4991994e+1, 1.858712e+2, -1254242.0, -1228924.1, -5549.965, -0.2028996, -0.27535388, -1227761.0, -109326.71, 0.0, 9.9992695, 9.999628 
9.499367e+1, 1.9587176e+2, -1226542.8, -1158690.3, -41319.99, -0.16000102, -0.209824, -1139153.1, -118719.06, 0.0, 9.998759, 9.999682 
9.4995844e+1, 2.0587218e+2, -1079502.6, -944876.4, -38265.69, -0.123346515, -0.17592011, -934760.06, -12329.932, 0.0, 9.9987, 10.000505 
9.499831e+1, 2.1587227e+2, -944800.5, -835700.5, -28439.422, -0.098668575, -0.24285084, -828732.2, -4306.158, 0.0, 9.998976, 10.000452 
9.5000803e+1, 2.2587205e+2, -799947.25, -733923.6, -27489.725, -0.06906767, -0.29526314, -723976.56, 2447.9048, 0.0, 9.999393, 10.000265 
9.500335e+1, 2.3587157e+2, -643764.4, -632701.5, -3358.7188, -0.030314967, -0.396542, -631761.6, -3336.2144, 0.0, 9.999885, 10.000058 
9.5005685e+1, 2.45871e+2, -595420.3, -741434.56, -38884.023, 0.02617199, -0.3661442, -585711.06, -55279.906, 0.0, 10.000333, 9.998422 
9.500779e+1, 2.5587025e+2, -428612.13, -613122.7, -55611.0, 0.07973613, -0.31253403, -413147.28, 19294.23, 0.0, 10.000808, 9.998405 
9.5008576e+1, 2.6586878e+2, -293297.47, -472313.2, -91742.805, 0.06243959, -0.3062306, -254632.0, 79824.75, 0.0000000017799018, 10.000969, 9.998621 
9.5008546e+1, 2.7586672e+2, -230813.89, -394238.88, -41305.934, 0.00116286, -0.39978832, -220967.05, 15509.323, 0.0000005677249, 10.0007305, 9.998599 
9.501045e+1, 2.858656e+2, -133825.66, -289102.28, 47906.52, -0.009999192, -0.37348953, -120234.9, 18251.773, 0.0000064583187, 10.0007105, 9.998649 
9.501367e+1, 2.9586494e+2, -13084.508, -177289.83, 56761.305, -0.0022214423, -0.33791772, 4626.12, 45118.26, 0.000029725905, 10.000838, 9.998687 
9.5017046e+1, 3.058651e+2, 233455.97, -4786.266, 12902.297, 0.0608457, -0.19981939, 234152.67, 234152.67, 0.00011359456, 10.002076, 9.998952 
9.5019364e+1, 3.158633e+2, 288434.94, -233868.75, 31345.475, 0.052234598, -0.2840446, 290309.38, 290309.38, 0.0003216318, 10.003489, 9.996702 
1.04984544e+2, 1.2586555e+2, -1988900.6, -1728948.5, -81677.56, 0.050713122, -0.36397544, -1705415.6, 1071.1638, 0.0015309328, 9.997512, 10.001096 
1.0497982e+2, 1.3586783e+2, -1548530.5, -1514000.0, -93040.74, -0.28914353, -0.23384544, -1436636.1, 171828.3, 0.0008642909, 10.000123, 10.000643 
1.0498278e+2, 1.4586727e+2, -1413936.5, -1445167.0, 61980.816, -0.11958541, -0.32658044, -1365634.1, 144836.53, 0.00034447288, 10.000598, 10.00019 
1.0498869e+2, 1.5586776e+2, -1475907.1, -1441542.0, 34724.32, 0.17292126, -0.31338885, -1419981.6, -7514.029, 0.00007296801, 9.999565, 10.000048 
1.0499077e+2, 1.6586873e+2, -1376279.1, -1247276.5, 17912.953, 0.12943202, -0.26049832, -1244835.4, 69621.5, 0.000004414203, 9.999175, 10.000885 
1.049905e+2, 1.7586945e+2, -1280328.4, -1168770.0, -4182.143, -0.12887327, -0.3039377, -1168613.5, 47833.523, 0.000000050630582, 9.999243, 10.000721 
1.0499154e+2, 1.8586962e+2, -1245520.8, -1267058.9, -26150.924, -0.18245432, -0.27604017, -1228008.3, -109560.5, 0.0, 9.99951, 9.9992485 
1.0499339e+2, 1.9586952e+2, -1110172.8, -1145463.6, -10694.727, -0.105971254, -0.23709454, -1107184.8, -86729.91, 0.0, 9.999742, 9.999298 
1.0499571e+2, 2.0586963e+2, -925534.7, -902634.6, 40406.75, -0.059432983, -0.20240799, -872086.94, 50367.72, 0.0, 9.999902, 10.000215 
1.0499845e+2, 2.1586967e+2, -824980.5, -806651.0, 6167.537, -0.024379604, -0.24423881, -804769.0, 19682.21, 0.0, 9.999929, 10.000188 
1.050009e+2, 2.2586931e+2, -719103.3, -706415.1, -5505.6665, -0.02186104, -0.29529357, -704359.25, 22091.582, 0.0, 9.999993, 10.0001745 
1.0500324e+2, 2.3586857e+2, -620046.0, -629673.9, -45924.227, -0.033225432, -0.4069131, -578684.06, 49769.25, 0.0, 10.000085, 9.999989 
1.0500576e+2, 2.4586788e+2, -603566.7, -727890.94, -47943.746, 0.011594101, -0.39464474, -587225.7, -56765.57, 0.0, 10.000205, 9.998575 
1.0500847e+2, 2.558671e+2, -492390.38, -626457.6, -26074.264, 0.09694769, -0.35838026, -487497.8, -55026.8, 0.0, 10.000311, 9.9985485 
1.0500958e+2, 2.658659e+2, -308464.9, -468736.4, -52395.297, 0.07893072, -0.33629385, -292856.2, 41627.68, 0.00000000014537505, 10.00083, 9.998707 
1.05009705e+2, 2.7586436e+2, -91115.09, -322668.22, -82596.07, 0.0042145285, -0.38727623, -64672.375, 171826.58, 0.00000042821608, 10.0016775, 9.998634 
1.05011545e+2, 2.858632e+2, 9313.819, -251008.83, -18449.104, -0.0190934, -0.3494128, 10614.809, 149125.28, 0.0000059800022, 10.0018, 9.998399 
1.05014525e+2, 2.9586223e+2, 45014.19, -178372.98, -36569.465, -0.01761095, -0.3213091, 50848.402, 91369.01, 0.000029321069, 10.001341, 9.998448 
1.0501875e+2, 3.0586252e+2, 147525.5, -59709.39, -23563.088, 0.059238438, -0.15394329, 150170.9, 150170.9, 0.00010998001, 10.001566, 9.998812 
1.0502285e+2, 3.1586108e+2, 158983.47, -194410.9, -54738.797, 0.12936246, -0.18846335, 167267.98, 167267.98, 0.0003078072, 10.002175, 9.997599 
1.14981756e+2, 1.2586425e+2, -2027400.0, -1822232.8, -15164.119, -0.042376406, -0.41188565, -1821118.1, -114620.78, 0.001474528, 9.997565, 10.000431 
1.149817e+2, 1.3586643e+2, -1571550.3, -1571145.6, 907.0473, -0.14462823, -0.2410368, -1570418.6, 38059.418, 0.00083337264, 10.000166, 10.000225 
1.1498427e+2, 1.4586537e+2, -1429513.5, -1473043.5, 11936.841, -0.060707737, -0.35929465, -1426455.1, 84034.75, 0.00033260565, 10.000574, 10.000012 
1.1498623e+2, 1.5586588e+2, -1483723.4, -1463294.6, 14160.415, -0.060103826, -0.327265, -1456049.0, -43563.645, 0.0000710648, 9.999595, 9.99988 
1.1498845e+2, 1.6586673e+2, -1393350.6, -1282586.4, 11703.196, -0.04926334, -0.26541173, -1281363.4, 33112.793, 0.0000041843605, 9.999166, 10.000653 
1.1499122e+2, 1.7586726e+2, -1287353.3, -1187535.9, 9514.607, -0.009540305, -0.30758443, -1186637.0, 29831.984, 0.000000024917117, 9.999258, 10.000586 
1.1499305e+2, 1.8586749e+2, -1218013.6, -1190327.3, -25054.86, -0.00612351, -0.29663745, -1175545.6, -57078.61, 0.0, 9.999425, 9.99982 
1.14994034e+2, 1.9586752e+2, -1080498.4, -1076337.6, 7269.311, -0.045671884, -0.30203104, -1070856.9, -50388.316, 0.0, 9.999709, 9.999789 
1.14996195e+2, 2.0586722e+2, -980693.5, -1000939.6, 31563.818, -0.024116334, -0.29596126, -957669.1, -35197.855, 0.0, 9.999826, 9.999578 
1.1499925e+2, 2.1586648e+2, -883570.06, -906529.94, 16024.6, 0.04047839, -0.35529804, -875337.7, -50860.785, 0.0, 9.99983, 9.999554 
1.1500146e+2, 2.2586621e+2, -783957.3, -817001.75, -11593.73, 0.015134938, -0.3275215, -780295.44, -53816.902, 0.0, 9.999893, 9.999462 
1.1500306e+2, 2.3586617e+2, -673735.56, -717556.9, -31265.914, -0.08415926, -0.30197534, -657467.25, -28988.805, 0.0, 9.999979, 9.999436 
1.15005426e+2, 2.4586558e+2, -555647.2, -604953.25, -53094.0, -0.06592231, -0.30249116, -521761.8, 8721.84, 0.0, 10.000111, 9.999464 
1.15008414e+2, 2.5586444e+2, -452544.44, -521900.0, -12302.19, 0.036924936, -0.38927993, -450426.94, -17932.809, 0.0, 10.000217, 9.999311 
1.1501004e+2, 2.6586372e+2, -363326.72, -572174.5, -28765.451, 0.019296922, -0.3185712, -359437.2, -24933.867, 0.0, 10.000785, 9.998022 
1.15010664e+2, 2.758632e+2, -150757.1, -426884.2, -42586.652, -0.09263927, -0.19460921, -144338.23, 92174.37, 0.0000002594802, 10.001588, 9.997968 
1.1501273e+2, 2.858613e+2, -24849.934, -305620.3, -43861.367, -0.1047778, -0.17840962, -18157.521, 120375.07, 0.000005001763, 10.001739, 9.998052 
1.1501578e+2, 2.958585e+2, -3293.3862, -245333.2, -38873.758, -0.055082116, -0.30098066, 2796.8433, 43357.48, 0.000026475647, 10.001203, 9.9980545 
1.150204e+2, 3.0585733e+2, 118267.62, -102694.96, -1618.4493, 0.043284148, -0.24237186, 118279.47, 118279.47, 0.000100772006, 10.001504, 9.998542 
1.1502508e+2, 3.1585622e+2, 246990.2, 16066.479, -7908.044, 0.077959254, -0.22930934, 247260.69, 247260.69, 0.00028477277, 10.002067, 9.999093 
1.2497919e+2, 1.2586312e+2, -1897025.5, -1814701.3, 12177.943, -0.10414731, -0.37076432, -1812937.6, -106430.53, 0.0014451224, 9.99872, 9.999913 
1.2498271e+2, 1.3586435e+2, -1770554.1, -1707673.1, -13011.948, 0.00934154, -0.25693133, -1705086.9, -96588.8, 0.000820366, 9.998977, 9.999862 
1.24985434e+2, 1.4586294e+2, -1654621.9, -1583254.6, -29203.719, 0.08608351, -0.39235917, -1572827.8, -62314.168, 0.00033115427, 9.999033, 9.999996 
1.2498491e+2, 1.5586384e+2, -1547012.9, -1499453.0, -42359.01, -0.12538688, -0.31874177, -1474655.5, -62150.176, 0.00007354598, 9.999181, 9.9998255 
1.2498699e+2, 1.6586447e+2, -1381537.5, -1310912.3, -4875.779, -0.117508285, -0.26129168, -1310577.3, 3920.8354, 0.0000047036624, 9.999383, 10.000361 
1.2499129e+2, 1.7586441e+2, -1277251.1, -1214450.8, -29753.016, 0.069298014, -0.3303295, -1202593.4, 13903.302, 0.000000012759114, 9.999447, 10.000321 
1.2499354e+2, 1.8586443e+2, -1150365.3, -1135402.3, -52283.77, 0.08937108, -0.339022, -1090067.5, 28428.246, 0.0, 9.999797, 10.000012 
1.24994196e+2, 1.958646e+2, -984157.6, -1014707.7, -70348.37, -0.024006959, -0.34719568, -927445.0, 93049.0, 0.0, 10.000309, 9.999922 
1.2499646e+2, 2.0586428e+2, -876436.44, -980873.75, -36867.85, -0.01678516, -0.33668518, -864733.06, 57763.816, 0.0, 10.00067, 9.999308 
1.24999955e+2, 2.1586339e+2, -756239.6, -875004.8, -45934.813, 0.08449116, -0.38218638, -740546.94, 83957.68, 0.0, 10.000834, 9.999282 
1.2500209e+2, 2.2586294e+2, -698869.7, -812411.1, -34601.36, 0.057333823, -0.34409195, -689156.06, 37353.168, 0.0, 10.000629, 9.999133 
1.2500323e+2, 2.3586272e+2, -669183.94, -743917.25, -45689.676, -0.064991124, -0.30480722, -647526.75, -19014.635, 0.0, 10.000148, 9.999164 
1.2500544e+2, 2.4586216e+2, -538171.0, -568500.9, -50709.07, -0.06874808, -0.304751, -500407.84, 30109.04, 0.0, 10.000106, 9.999719 
1.2500854e+2, 2.5586116e+2, -409831.44, -480938.0, -72116.95, 0.024280371, -0.39918047, -364980.2, 67544.414, 0.0, 10.00041, 9.999508 
1.2501097e+2, 2.6586044e+2, -312464.4, -568506.7, -42527.152, 0.017360795, -0.3271011, -305585.7, 28948.107, 0.0, 10.001225, 9.997831 
1.2501295e+2, 2.7585983e+2, -44441.902, -393744.88, -43325.83, -0.056813933, -0.19716844, -39148.203, 197396.88, 0.00000012209664, 10.002409, 9.99779 
1.2501493e+2, 2.8585783e+2, 56516.55, -275913.5, -56406.605, -0.081218414, -0.18318072, 65826.85, 204394.0, 0.000003888246, 10.002355, 9.997952 
1.2501702e+2, 2.9585487e+2, 16894.865, -244958.55, -50068.395, -0.05301248, -0.30473226, 26141.79, 66738.08, 0.00002250982, 10.0014, 9.997953 
1.2502183e+2, 3.0585283e+2, 78911.28, -145076.95, 71317.98, 0.057649244, -0.3160682, 99691.164, 99691.164, 0.000088219014, 10.0012865, 9.998385 
1.2502745e+2, 3.158522e+2, 236864.52, 119346.61, 22676.373, 0.14922772, -0.25218615, 241088.36, 241088.36, 0.00025421128, 10.0015135, 10.000086 
1.3497616e+2, 1.2586194e+2, -1930633.0, -1876462.4, -10604.618, -0.33641884, -0.2574548, -1874460.4, -167942.38, 0.0014399097, 9.998695, 9.9995 
1.3498239e+2, 1.3586158e+2, -1776670.6, -1725106.9, 4457.2783, 0.049428944, -0.28463805, -1724724.4, -116200.07, 0.0008240123, 9.999013, 9.999718 
1.3498591e+2, 1.4586008e+2, -1645841.5, -1579253.5, -37812.996, 0.19572105, -0.42271593, -1562165.8, -51624.566, 0.00033951883, 9.999076, 10.0000105 
1.3498439e+2, 1.5586162e+2, -1544711.4, -1496999.0, -26183.197, -0.12441589, -0.28831625, -1485433.8, -72906.12, 0.00008018549, 9.99918, 9.999849 
1.34986e+2, 1.6586198e+2, -1419759.4, -1364635.6, -12052.76, -0.17834324, -0.24192412, -1362115.5, -47592.59, 0.0000062149566, 9.999286, 10.000034 
1.3499022e+2, 1.7586093e+2, -1303477.9, -1263406.5, -12536.421, -0.009104761, -0.37644306, -1259807.6, -43277.684, 0.000000017143847, 9.999434, 9.999984 
1.3499257e+2, 1.8586056e+2, -1172285.9, -1174949.0, -41993.695, -0.015579215, -0.39590693, -1131602.6, -13069.886, 0.0, 9.99976, 9.9997635 
1.3499342e+2, 1.9586076e+2, -1006112.0, -1050169.6, -40556.324, -0.16051249, -0.3777548, -981988.0, 38543.566, 0.0, 10.000259, 9.999704 
1.3499615e+2, 2.0586073e+2, -883633.56, -976463.75, -39879.234, -0.13902335, -0.32814205, -868854.56, 53677.176, 0.0, 10.0005865, 9.99938 
1.3500017e+2, 2.1586037e+2, -767150.4, -870613.94, -29378.96, -0.0032107735, -0.33017704, -759390.1, 65144.574, 0.0, 10.000721, 9.999366 
1.3500242e+2, 2.258595e+2, -708536.94, -813430.44, -63432.43, 0.004069513, -0.34072274, -678677.3, 47865.254, 0.0, 10.000541, 9.999172 
1.3500336e+2, 2.3585816e+2, -682481.75, -750072.9, -52446.668, -0.09188448, -0.41958213, -653885.06, -25329.998, 0.0, 10.000051, 9.999168 
1.3500546e+2, 2.458575e+2, -573348.44, -627137.2, -48697.78, -0.10054534, -0.40634343, -544612.0, -14051.338, 0.0, 10.000043, 9.999345 
1.350085e+2, 2.558573e+2, -446657.88, -533551.8, -47500.207, -0.045713093, -0.3895149, -425731.63, 6830.847, 0.0, 10.000306, 9.999194 
1.3501209e+2, 2.6585615e+2, -302826.28, -533707.7, -6311.2275, -0.016046304, -0.35882738, -302653.9, 31921.088, 0.0, 10.001165, 9.9980955 
1.3501611e+2, 2.7585417e+2, -41320.027, -358889.7, 4493.2305, -0.007984692, -0.39395845, -41256.465, 195340.48, 0.000000046518082, 10.002293, 9.998082 
1.3501784e+2, 2.8585252e+2, 63736.9, -252415.19, -101889.46, -0.051147748, -0.3670897, 93728.66, 232343.6, 0.0000029362805, 10.0023155, 9.998133 
1.350179e+2, 2.9585117e+2, 17056.314, -230974.72, -69881.766, -0.13592263, -0.34746867, 35390.047, 76019.53, 0.000019015239, 10.001333, 9.998085 
1.3502261e+2, 3.05849e+2, 73583.516, -144205.94, 74263.1, -0.0110883815, -0.38060218, 96495.734, 96495.734, 0.000075927965, 10.001239, 9.998411 
1.350293e+2, 3.1584895e+2, 260708.75, 184941.84, 57566.086, 0.12711093, -0.26474068, 291738.34, 291738.34, 0.0002226974, 10.001436, 10.000577 
1.4497563e+2, 1.2585796e+2, -2017170.5, -1873065.5, -72506.4, -0.20320694, -0.2561158, -1842899.0, -136339.39, 0.0014542761, 9.99791, 9.9999075 
1.4498094e+2, 1.3585795e+2, -1698719.0, -1620724.8, -48727.84, -0.00055265706, -0.31230047, -1597310.5, 11249.066, 0.0008417685, 9.99926, 10.000315 
1.4498493e+2, 1.4585702e+2, -1558794.9, -1546328.9, -67972.2, 0.16336803, -0.4165368, -1484304.5, 26266.043, 0.0003553583, 9.999711, 9.999935 
1.4498456e+2, 1.5585878e+2, -1492284.1, -1479589.6, -86331.41, -0.038074687, -0.25310722, -1399372.4, 13184.209, 0.00008912462, 9.999569, 9.999788 
1.4498624e+2, 1.6585909e+2, -1362561.0, -1323458.9, -27280.648, -0.09099198, -0.21764511, -1309446.9, 5105.556, 0.000008328298, 9.999621, 10.00015 
1.4498982e+2, 1.7585789e+2, -1253074.0, -1230974.8, -18204.383, -0.0022662259, -0.3795635, -1220729.0, -4169.1245, 0.0000000715251, 9.999745, 10.000054 
1.449923e+2, 1.8585742e+2, -1187324.6, -1211882.4, -13199.88, -0.011869156, -0.3953266, -1181575.5, -63012.33, 0.0, 9.999785, 9.999502 
1.4499383e+2, 1.9585752e+2, -1101807.1, -1123053.4, -33732.457, -0.11098402, -0.35938418, -1077064.6, -56501.156, 0.0, 9.999709, 9.999478 
1.449966e+2, 2.0585744e+2, -1005354.6, -1014489.8, -15026.632, -0.100800686, -0.31622753, -994216.7, -71652.36, 0.0, 9.999672, 9.999555 
1.4500025e+2, 2.1585704e+2, -917653.25, -927543.5, -20453.146, -0.005659554, -0.33857924, -901555.9, -76988.59, 0.0, 9.999625, 9.999501 
1.450027e+2, 2.2585617e+2, -755024.8, -821390.1, -20958.357, 0.0011579952, -0.36116353, -748960.3, -22385.73, 0.0, 10.000163, 9.999301 
1.4500424e+2, 2.3585486e+2, -520383.44, -667186.25, -24404.078, -0.0564226, -0.44568893, -516432.9, 112152.945, 0.0, 10.001138, 9.999223 
1.450066e+2, 2.4585414e+2, -418705.16, -624350.25, -17430.379, -0.055306427, -0.40869766, -417238.22, 113355.44, 0.0, 10.001415, 9.998706 
1.4500958e+2, 2.5585374e+2, -351174.97, -544756.75, -57328.133, -0.006314249, -0.34472927, -335471.47, 97128.36, 0.0, 10.001218, 9.998675 
1.4501338e+2, 2.6585245e+2, -314198.94, -482373.16, 14826.521, 0.020815402, -0.33646503, -312901.8, 21711.637, 0.0, 10.000832, 9.998616 
1.4501779e+2, 2.7585033e+2, -294303.0, -432680.03, 23291.492, 0.037993502, -0.43510035, -290487.78, -53853.77, 0.00000002138944, 10.000328, 9.998537 
1.450198e+2, 2.8584895e+2, -139329.0, -344632.9, -66561.31, -0.00678759, -0.40184638, -119637.86, 19010.139, 0.0000023054517, 10.000881, 9.998197 
1.4502002e+2, 2.9584834e+2, 140154.75, -169019.48, -68367.37, -0.09114138, -0.31571186, 154598.03, 195253.73, 0.000016570593, 10.002163, 9.99811 
1.4502457e+2, 3.058458e+2, 204621.7, -126527.086, 67245.2, 0.014554097, -0.36481303, 217756.0, 217756.0, 0.0000664134, 10.002365, 9.997969 
1.4503096e+2, 3.158453e+2, 257155.33, 115145.33, -34277.4, 0.1466622, -0.24432862, 264996.06, 264996.06, 0.0001967113, 10.001735, 9.999938 
1.5497705e+2, 1.258515e+2, -1918096.9, -1695992.5, -52514.2, 0.08551284, -0.3405219, -1684202.0, 22426.904, 0.0014746141, 9.998019, 10.001078 
1.5497796e+2, 1.358536e+2, -1604093.8, -1429135.8, 1330.9347, -0.25164154, -0.3233539, -1429125.6, 179477.0, 0.00086313457, 9.99927, 10.001633 
1.5498199e+2, 1.4585382e+2, -1571280.6, -1562571.0, -85690.84, -0.12993272, -0.36986428, -1481124.4, 29477.02, 0.00037152023, 9.999675, 9.99984 
1.5498492e+2, 1.5585531e+2, -1498636.1, -1489275.9, -78300.484, 0.011468187, -0.21925709, -1415515.8, -2923.433, 0.00009663115, 9.999562, 9.999719 
1.5498741e+2, 1.6585587e+2, -1331589.6, -1250314.6, -33263.023, 0.03725232, -0.1843113, -1238437.0, 76148.91, 0.000009881803, 9.99958, 10.000676 
1.5498984e+2, 1.7585537e+2, -1224838.0, -1164383.0, -2962.9429, -0.0030669945, -0.32677603, -1164238.1, 52347.004, 0.00000020107916, 9.99971, 10.000531 
1.5499243e+2, 1.8585508e+2, -1214263.8, -1257817.8, -25613.088, -0.0029195014, -0.33254677, -1202421.3, -83834.664, 0.0, 9.999741, 9.999209 
1.5499502e+2, 1.9585489e+2, -1130892.4, -1166001.1, -24828.408, 0.013720245, -0.29584286, -1118039.4, -97449.48, 0.0, 9.999643, 9.999213 
1.5499751e+2, 2.0585433e+2, -998027.9, -985806.06, -26732.93, 0.0011750142, -0.29937723, -964494.5, -41899.473, 0.0, 9.999604, 9.999791 
1.5499982e+2, 2.1585335e+2, -914596.94, -897264.94, -9922.633, -0.03517754, -0.4028133, -892756.8, -68154.18, 0.0, 9.999521, 9.999761 
1.5500256e+2, 2.2585295e+2, -755029.2, -802627.44, 7297.429, -0.05124497, -0.40009105, -753935.5, -27330.598, 0.0, 10.000078, 9.999472 
1.550056e+2, 2.3585284e+2, -530187.2, -666794.75, 20180.787, -0.057795435, -0.38267836, -527268.3, 101336.36, 0.0, 10.001042, 9.999273 
1.5500848e+2, 2.4585201e+2, -491122.0, -761013.94, -34622.68, -0.030184926, -0.31150684, -486751.28, 43864.758, 0.0, 10.001353, 9.997797 
1.5501142e+2, 2.558504e+2, -420112.97, -667677.3, -53607.094, 0.030919096, -0.2756334, -409003.53, 23634.121, 0.0, 10.001121, 9.997883 
1.5501451e+2, 2.658492e+2, -271485.06, -379234.3, -13394.197, 0.027663106, -0.26069787, -269845.03, 64804.92, 0.0, 10.000777, 9.999346 
1.5501772e+2, 2.7584812e+2, -265138.88, -349813.47, 22500.574, -0.0260332, -0.33170274, -259531.17, -22873.852, 0.000000019825112, 10.000233, 9.999149 
1.550205e+2, 2.8584707e+2, -148368.28, -353799.38, -25483.258, -0.048258968, -0.28953433, -145254.34, -6587.843, 0.0000019865888, 10.000841, 9.998152 
1.5502301e+2, 2.9584622e+2, 123729.84, -184305.89, -13162.864, -0.040355485, -0.22148177, 124291.29, 164967.23, 0.000014949104, 10.002077, 9.998048 
1.550274e+2, 3.058432e+2, 129709.69, -268613.94, 38692.793, 0.037643142, -0.26852655, 133433.45, 133433.45, 0.000059797247, 10.002317, 9.997005 
1.5503171e+2, 3.1584132e+2, 116228.14, -153639.39, -37864.625, -0.0022366492, -0.19075117, 121440.195, 121440.195, 0.00017773658, 10.001639, 9.998129 
1.6497718e+2, 1.2584706e+2, -1825303.4, -1611217.4, 95020.72, 0.28087127, -0.34855455, -1575127.0, 131548.2, 0.0014821975, 9.998481, 10.001428 
1.6497624e+2, 1.3585016e+2, -1715550.4, -1439915.5, 34208.914, -0.29497004, -0.27686107, -1435733.4, 172904.6, 0.0008719991, 9.998312, 10.00202 
1.6498005e+2, 1.4585079e+2, -1779444.3, -1634181.0, -68054.35, -0.2053495, -0.3119773, -1607279.9, -96648.766, 0.0003781117, 9.998154, 10.000065 
1.649839e+2, 1.5585138e+2, -1683391.5, -1561551.4, -58481.21, 0.027886363, -0.2736458, -1538024.4, -125394.74, 0.000098805474, 9.998238, 9.999855 
1.6498706e+2, 1.658518e+2, -1455510.4, -1353051.4, 1700.8447, 0.08664541, -0.23484644, -1353023.1, -38397.68, 0.000009884257, 9.998904, 10.000298 
1.6499e+2, 1.7585188e+2, -1216099.5, -1191532.9, -58381.004, 0.039476886, -0.2854874, -1144157.0, 72464.56, 0.0000002904704, 9.999894, 10.000257 
1.6499278e+2, 1.8585178e+2, -1130134.9, -1153274.3, -79764.61, 0.04968417, -0.2923951, -1061105.3, 57515.637, 0.0, 10.000057, 9.999762 
1.6499542e+2, 1.9585142e+2, -1095388.6, -1091212.8, -33340.363, 0.09584989, -0.32969788, -1059895.0, -39271.69, 0.0, 9.9996395, 9.999718 
1.6499785e+2, 2.0585099e+2, -930626.1, -945334.56, 32453.893, 0.05797949, -0.34666902, -904703.6, 17922.584, 0.0, 10.000045, 9.999852 
1.6500002e+2, 2.1585044e+2, -687868.0, -782045.75, 14662.401, -0.03720291, -0.41177154, -685638.0, 138991.88, 0.0, 10.001054, 9.999813 
1.650033e+2, 2.2585009e+2, -611379.7, -757194.2, 17411.623, -0.034444947, -0.3946873, -609329.44, 117303.28, 0.0, 10.00118, 9.999248 
1.6500731e+2, 2.3584986e+2, -599929.25, -717330.25, -20686.355, 0.035918877, -0.36767578, -596390.9, 32244.258, 0.0, 10.000659, 9.999101 
1.6501023e+2, 2.4584898e+2, -543779.1, -776462.1, -18974.215, 0.03522895, -0.29365033, -542242.0, -11594.985, 0.0, 10.000953, 9.997885 
1.6501246e+2, 2.5584757e+2, -310327.2, -602326.0, 10826.361, -0.005377634, -0.25032312, -309926.3, 122740.24, 0.0, 10.001831, 9.997983 
1.6501537e+2, 2.6584628e+2, -150981.33, -346178.72, 29014.115, -0.0043720715, -0.2372431, -146759.97, 187919.63, 0.0, 10.0017, 9.999131 
1.6501883e+2, 2.7584487e+2, -179934.84, -320666.56, -19082.014, 0.03771755, -0.31956124, -177393.39, 59296.49, 0.000000024295247, 10.000877, 9.999026 
1.6502215e+2, 2.858437e+2, -98911.1, -312556.88, 932.7491, 0.026490677, -0.29464182, -98907.03, 39792.406, 0.0000019697127, 10.001124, 9.998293 
1.650255e+2, 2.9584286e+2, 155600.22, -143464.8, -3304.6328, 0.0030485743, -0.23758878, 155636.73, 196343.47, 0.000013995548, 10.002201, 9.998268 
1.6503012e+2, 3.0583987e+2, 163519.56, -261812.88, 64119.816, 0.076206826, -0.29109648, 172975.55, 172975.55, 0.000055183133, 10.002561, 9.996953 
1.6503373e+2, 3.158374e+2, 153256.77, -216302.0, 3544.4016, 0.018854281, -0.25534463, 153290.77, 153290.77, 0.00016346597, 10.002214, 9.997431 
1.7497517e+2, 1.258447e+2, -1860232.3, -1679116.4, 63252.76, 0.17767705, -0.29136693, -1659213.3, 47485.145, 0.001464911, 9.998468, 10.000961 
1.7497535e+2, 1.3584776e+2, -1754236.4, -1512446.3, 34029.94, -0.24165085, -0.16798358, -1507748.1, 100915.914, 0.0008580161, 9.998299, 10.001515 
1.7497891e+2, 1.4584807e+2, -1746381.0, -1570654.1, -77543.88, -0.16325891, -0.23627056, -1541329.5, -30670.623, 0.00036898247, 9.998159, 10.000507 
1.749812e+2, 1.5584694e+2, -1656876.0, -1508857.1, -39709.438, -0.09660144, -0.4156758, -1498877.1, -86208.195, 0.00009401229, 9.998241, 10.000218 
1.7498487e+2, 1.6584693e+2, -1544435.4, -1531160.6, 29614.793, -0.04895978, -0.37229443, -1507448.5, -192777.89, 0.000008393363, 9.998872, 9.999094 
1.749899e+2, 1.7584752e+2, -1290536.5, -1339414.9, -15066.129, 0.014514727, -0.2506136, -1286265.8, -69597.44, 0.00000020811186, 9.99987, 9.999251 
1.7499305e+2, 1.858476e+2, -1035497.06, -953341.25, -104248.19, 0.045614813, -0.2668037, -882369.7, 236295.48, 0.0, 10.000029, 10.001154 
1.7499468e+2, 1.958472e+2, -1013480.44, -907168.06, -34920.42, 0.030401463, -0.45007855, -896723.8, 123938.98, 0.0, 9.999576, 10.001015 
1.7499723e+2, 2.0584753e+2, -949863.1, -969489.44, 58645.35, -0.028477207, -0.44370314, -900215.56, 22441.258, 0.0, 9.999971, 9.999723 
1.7500049e+2, 2.1584828e+2, -717247.0, -820257.6, 58576.414, -0.11809584, -0.36643058, -690752.4, 133897.19, 0.0, 10.000955, 9.9995985 
1.7500454e+2, 2.2584763e+2, -665902.4, -853007.4, -13261.77, -0.048684504, -0.3357195, -664967.1, 61690.52, 0.0, 10.0011, 9.99863 
1.7500907e+2, 2.3584582e+2, -645259.5, -793099.7, -26157.46, 0.12500262, -0.40598464, -640767.9, -12089.802, 0.0, 10.000571, 9.998625 
1.750115e+2, 2.4584512e+2, -480047.13, -628804.06, 4948.8145, 0.046922166, -0.35124093, -479882.7, 50803.902, 0.0, 10.000889, 9.998926 
1.7501241e+2, 2.5584513e+2, -268290.44, -490316.72, 47411.55, -0.21787088, -0.26759568, -258589.97, 174097.27, 0.0, 10.001725, 9.998804 
1.7501575e+2, 2.658436e+2, -229260.28, -503541.03, -12557.386, -0.15920843, -0.26029316, -228686.56, 106016.22, 0.0, 10.001673, 9.998064 
1.7502084e+2, 2.758406e+2, -256491.56, -463580.44, -34300.484, 0.12546657, -0.39424857, -250958.16, -14226.382, 0.000000035492793, 10.000803, 9.998083 
1.7502443e+2, 2.8583884e+2, -78146.625, -265797.3, 30184.326, 0.11644195, -0.40450668, -73410.875, 65335.58, 0.0000021240596, 10.00111, 9.998618 
1.7502697e+2, 2.9583818e+2, 174798.92, -87747.58, 45893.418, -0.09723299, -0.36540282, 182589.94, 223338.55, 0.000013429294, 10.00214, 9.998675 
1.750324e+2, 3.058357e+2, 225262.69, -134725.73, 45431.4, 0.02694879, -0.4352689, 230907.72, 230907.72, 0.000050919698, 10.00256, 9.997832 
1.750363e+2, 3.1583375e+2, 173767.75, -152756.78, 17211.746, 0.0027507604, -0.42262927, 174672.52, 174672.52, 0.0001490851, 10.002137, 9.997901 
1.8497264e+2, 1.2584242e+2, -1839357.9, -1670790.0, 82241.62, 0.079799265, -0.24019775, -1637313.8, 69407.15, 0.0014182838, 9.998609, 10.0009575 
1.849745e+2, 1.3584432e+2, -1841837.1, -1580847.6, 37585.973, -0.12329369, -0.21071135, -1575542.6, 33155.73, 0.00082149997, 9.997804, 10.001288 
1.8497896e+2, 1.4584476e+2, -1686185.5, -1560551.3, -540.683, 0.006590614, -0.24351953, -1560549.0, -49857.152, 0.00034638878, 9.998641, 10.00034 
1.849812e+2, 1.5584391e+2, -1278258.8, -1339411.6, -37025.703, -0.045462146, -0.382516, -1260816.3, 151882.84, 0.000084445885, 10.000887, 10.000105 
1.849844e+2, 1.6584368e+2, -1301802.8, -1405324.3, 24876.748, -0.059945393, -0.36232287, -1296135.0, 18567.668, 0.000006352812, 10.000525, 9.999149 
1.8498874e+2, 1.7584363e+2, -1518685.3, -1446681.4, 59782.926, -0.0047315964, -0.3083194, -1412897.0, -196191.08, 0.000000056960435, 9.998302, 9.999269 
1.8499209e+2, 1.858438e+2, -1276000.4, -1074912.9, 10437.498, 0.032363493, -0.3124737, -1074372.6, 44329.742, 0.0, 9.998414, 10.001093 
1.8499446e+2, 1.9584408e+2, -931248.5, -874117.1, -51752.867, 0.027915971, -0.41939226, -843569.7, 177124.63, 0.0, 10.0001745, 10.000954 
1.849974e+2, 2.0584463e+2, -860584.8, -944343.3, -1005.6065, -0.03786336, -0.38434613, -860572.75, 62115.04, 0.0, 10.000654, 9.999567 
1.8500075e+2, 2.1584518e+2, -841762.75, -896920.4, -22152.775, -0.14308836, -0.3098909, -833967.4, -9284.019, 0.0, 10.000159, 9.999458 
1.85005e+2, 2.2584441e+2, -783760.0, -904386.75, -54314.836, -0.06774614, -0.2881974, -762908.06, -36215.527, 0.0, 10.000263, 9.998684 
1.8500985e+2, 2.3584254e+2, -605383.3, -766627.8, -35612.547, 0.13877907, -0.3683626, -597868.2, 30844.465, 0.0, 10.000804, 9.998698 
1.8501249e+2, 2.4584179e+2, -457081.66, -580030.06, 14407.756, 0.061410733, -0.3418461, -455415.84, 75304.36, 0.0, 10.000876, 9.999269 
1.8501353e+2, 2.5584176e+2, -411221.72, -525763.3, -13594.45, -0.21482976, -0.29678205, -409630.38, 23088.662, 0.0, 10.000598, 9.999103 
1.8501721e+2, 2.658402e+2, -331320.34, -597773.0, -51023.99, -0.14969029, -0.28114298, -321883.75, 12851.102, 0.0, 10.00117, 9.997659 
1.8502285e+2, 2.7583724e+2, -50696.62, -409650.97, -45224.54, 0.1709029, -0.37034506, -45086.48, 191679.05, 0.000000044067633, 10.002405, 9.997689 
1.8502654e+2, 2.8583512e+2, 98146.97, -215680.81, 29282.959, 0.15401892, -0.3818862, 100855.945, 239640.69, 0.000002141611, 10.002447, 9.99833 
1.850288e+2, 2.9583398e+2, 89894.44, -152001.73, -23557.125, -0.09542239, -0.35932428, 92167.2, 132959.27, 0.000012353572, 10.001633, 9.998491 
1.8503492e+2, 3.0583143e+2, 123840.65, -90745.03, -30039.664, 0.083347276, -0.478208, 127966.55, 127966.55, 0.00004451732, 10.001464, 9.998652 
1.850388e+2, 3.158308e+2, 132862.6, -132806.3, -90786.57, 0.07321116, -0.40527838, 160923.11, 160923.11, 0.00012891147, 10.001645, 9.998293 
1.9496888e+2, 1.2584025e+2, -1811919.6, -1603835.5, 30196.223, -0.21363854, -0.18006757, -1599542.1, 107200.36, 0.0013429979, 9.998582, 10.001424 
1.9497341e+2, 1.3583975e+2, -1845127.8, -1572554.5, 19188.78, -0.038509186, -0.4067813, -1571210.3, 37530.938, 0.0007683095, 9.99776, 10.001358 
1.9497983e+2, 1.4584088e+2, -1738167.9, -1667615.8, 71010.0, 0.19799423, -0.33318457, -1623602.4, -112872.48, 0.00031677555, 9.998627, 9.999619 
1.9498359e+2, 1.5584248e+2, -1317260.5, -1419890.0, 43488.746, 0.07542775, -0.15810777, -1301311.0, 111407.44, 0.000073711046, 10.000884, 9.999556 
1.9498535e+2, 1.6584216e+2, -1212685.5, -1218864.8, -67008.46, -0.040880762, -0.18917003, -1148695.5, 166024.8, 0.0000047225935, 10.000507, 10.000444 
1.9498625e+2, 1.7584026e+2, -1446609.3, -1292114.9, 402.17404, -0.11069171, -0.45229584, -1292113.9, -75380.11, 0.0000000036456946, 9.998278, 10.000343 
1.9498959e+2, 1.8584041e+2, -1390823.4, -1303116.6, 66743.59, -0.08241726, -0.42463496, -1267108.6, -148376.84, 0.0, 9.9983635, 9.999556 
1.9499448e+2, 1.9584203e+2, -1040468.6, -1087807.3, 18345.313, -0.012796248, -0.244766, -1034191.5, -13472.636, 0.0, 10.000116, 9.9995165 
1.9499797e+2, 2.0584221e+2, -885578.0, -973600.1, -27810.033, -0.066147715, -0.16842297, -877527.8, 45191.453, 0.0, 10.000559, 9.999409 
1.9500045e+2, 2.1584114e+2, -862014.44, -913355.8, -28587.363, -0.21050616, -0.24288642, -849263.5, -24532.281, 0.0, 10.0000515, 9.999394 
1.9500434e+2, 2.2584046e+2, -752165.9, -814230.1, -44969.445, -0.17761844, -0.24548918, -728560.6, -1823.4734, 0.0, 10.00016, 9.999352 
1.9500923e+2, 2.3583998e+2, -578809.75, -685291.6, -8899.556, -0.025418036, -0.25443533, -578071.06, 50668.332, 0.0, 10.000694, 9.999308 
1.9501287e+2, 2.4583894e+2, -493775.38, -635331.3, -6759.319, -0.0095526185, -0.264357, -493453.34, 37294.57, 0.0, 10.000788, 9.998932 
1.9501548e+2, 2.5583744e+2, -446319.2, -572734.06, -9227.92, -0.10229284, -0.33804378, -445649.13, -12887.193, 0.0, 10.000488, 9.998831 
1.9501948e+2, 2.6583618e+2, -318549.38, -564148.9, -13798.732, -0.062438432, -0.29223964, -317776.53, 16998.432, 0.0, 10.001135, 9.997913 
1.9502449e+2, 2.7583477e+2, -51910.582, -398861.4, 7375.685, 0.071288355, -0.24939632, -51753.855, 185037.19, 0.000000036761158, 10.00234, 9.997803 
1.9502814e+2, 2.8583252e+2, 25725.86, -353728.94, -9309.741, 0.04761385, -0.22735657, 25954.133, 164768.61, 0.0000018181237, 10.0024, 9.9974 
1.9503075e+2, 2.9583037e+2, 19714.03, -270048.66, -34468.277, -0.09022771, -0.21296681, 23757.72, 64593.96, 0.000010151812, 10.001523, 9.997728 
1.9503736e+2, 3.0582705e+2, 173976.2, 23397.266, -27522.793, 0.15753366, -0.41571638, 178849.13, 178849.13, 0.00003534469, 10.00143, 9.999448 
1.9504052e+2, 3.1582892e+2, 160057.44, -50943.016, -45256.582, 0.03029012, -0.17689356, 169354.67, 169354.67, 0.00010294475, 10.001558, 9.998883 
2.0496807e+2, 1.258377e+2, -1717025.5, -1618111.3, 87942.86, -0.18871783, -0.20653889, -1566672.6, 140092.58, 0.0012444656, 9.999494, 10.000892 
2.0497224e+2, 1.3583666e+2, -1600485.5, -1545032.9, -41242.492, -0.021060202, -0.4024513, -1523063.3, 85709.66, 0.00070293987, 9.999807, 10.000576 
2.04979e+2, 1.4583756e+2, -1606775.9, -1575295.3, 84624.23, 0.22090209, -0.32720053, -1504959.9, 5804.557, 0.00028321997, 9.999421, 9.9998665 
2.0498352e+2, 1.5583931e+2, -1607124.6, -1533108.6, 97788.19, 0.09243672, -0.1600898, -1465559.9, -52809.94, 0.000063005726, 9.998784, 9.99979 
2.0498541e+2, 1.6583928e+2, -1365566.8, -1286377.9, -56128.29, -0.028357306, -0.1774842, -1257283.9, 57465.004, 0.0000035155435, 9.999435, 10.000493 
2.0498592e+2, 1.7583774e+2, -1052983.1, -1103770.8, -100590.51, -0.10154205, -0.40623164, -974630.6, 242129.06, 0.0000000004928599, 10.000986, 10.000332 
2.049894e+2, 1.8583772e+2, -1027072.9, -1181667.1, 17607.992, -0.067939356, -0.36866882, -1025092.75, 93666.71, 0.0, 10.001096, 9.999071 
2.0499486e+2, 1.9583876e+2, -1072467.8, -1160057.3, 25436.678, 0.018546168, -0.19798997, -1065616.6, -44864.9, 0.0, 10.000134, 9.999011 
2.0499872e+2, 2.0583816e+2, -1004771.2, -1088734.4, 3061.8904, -0.0142828, -0.14716907, -1004659.7, -81899.35, 0.0, 9.99999, 9.998894 
2.0500149e+2, 2.1583627e+2, -842638.75, -953938.56, -42073.203, -0.12293621, -0.25207266, -828524.3, -3742.1643, 0.0, 10.000403, 9.998948 
2.050051e+2, 2.2583571e+2, -635742.75, -704363.94, -45324.41, -0.14181276, -0.24835488, -613206.9, 113579.32, 0.0, 10.000723, 9.999832 
2.0500928e+2, 2.3583598e+2, -518872.44, -616604.25, -45895.617, -0.09735086, -0.22861648, -500698.9, 128079.69, 0.0, 10.000927, 9.999671 
2.050134e+2, 2.4583486e+2, -485980.66, -681099.0, -54584.047, -0.041997608, -0.24086277, -471748.9, 59039.047, 0.0, 10.001055, 9.998484 
2.0501745e+2, 2.558326e+2, -372835.94, -584065.8, -82837.91, 0.01637616, -0.34056842, -344224.8, 88585.53, 0.0, 10.001189, 9.998414 
2.0502166e+2, 2.6583123e+2, -264153.9, -503866.63, -44372.207, 0.036525194, -0.30556938, -256204.02, 78620.914, 0.0, 10.001373, 9.998204 
2.0502602e+2, 2.7583012e+2, -141670.86, -409381.3, -46250.688, 0.03196291, -0.2652362, -133905.64, 102931.734, 0.00000002096579, 10.001602, 9.998073 
2.0502979e+2, 2.8582838e+2, -57885.52, -408328.53, -35316.805, 0.0047722645, -0.19737534, -54361.805, 84495.0, 0.0000012828043, 10.001888, 9.997272 
2.0503311e+2, 2.95827e+2, 115782.72, -237012.95, -14568.187, -0.033596363, -0.09663485, 116383.27, 157256.48, 0.000007381431, 10.002241, 9.997606 
2.0504011e+2, 3.058229e+2, 317188.7, 76320.63, 6516.6914, 0.2444613, -0.36214006, 317364.84, 317364.84, 0.000026183836, 10.002488, 9.999313 
2.0504239e+2, 3.1582502e+2, 276867.2, -24422.74, -104761.234, 0.02318096, -0.08632642, 309712.88, 309712.88, 0.000078692225, 10.002518, 9.998599 
2.1496953e+2, 1.258347e+2, -1830364.1, -1836504.1, 75540.31, -0.04387613, -0.32193404, -1757831.4, -51041.754, 0.0011273269, 9.9994335, 9.999415 
2.1497081e+2, 1.3583514e+2, -1707349.9, -1771410.8, -23876.178, -0.17252126, -0.19138424, -1699430.0, -90637.73, 0.0006276391, 9.999834, 9.999006 
2.149761e+2, 1.4583491e+2, -1530953.5, -1415938.8, 46777.63, -0.040948518, -0.21414872, -1399316.3, 111477.91, 0.0002466057, 9.999412, 10.000964 
2.1498068e+2, 1.5583444e+2, -1539369.3, -1393906.6, 91472.33, -0.098117694, -0.38476396, -1349774.6, 63018.297, 0.000052325075, 9.998789, 10.000744 
2.149842e+2, 1.6583496e+2, -1457629.0, -1465746.5, -7508.2065, -0.11774381, -0.32456043, -1453152.8, -138364.08, 0.000002586899, 9.999384, 9.999287 
2.1498743e+2, 1.7583606e+2, -1132432.5, -1258662.0, -39673.957, -0.072212294, -0.17202353, -1120998.6, 95785.02, 0.000000000052014764, 10.00095, 9.999281 
2.1499124e+2, 1.8583572e+2, -1000537.9, -1113496.3, -27021.42, -0.016478285, -0.14411126, -994406.7, 124378.68, 0.0, 10.001035, 9.999572 
2.1499531e+2, 1.9583423e+2, -1049398.0, -1099602.1, 3860.7815, 0.025767714, -0.2788303, -1049102.9, -28309.52, 0.0, 10.000081, 9.999451 
2.1499938e+2, 2.0583251e+2, -1075169.5, -1221051.9, 7892.732, 0.03150004, -0.31577763, -1074743.8, -151932.78, 0.0, 9.999925, 9.998019 
2.1500352e+2, 2.1583053e+2, -908986.9, -1071533.8, -18277.74, 0.015251512, -0.3420679, -906956.94, -82120.484, 0.0, 10.000313, 9.998185 
2.1500689e+2, 2.2583006e+2, -635955.1, -675462.3, -47116.117, -0.054510992, -0.3067646, -604619.25, 122221.125, 0.0, 10.000602, 10.000087 
2.1500964e+2, 2.3583055e+2, -524236.4, -596739.4, -27644.06, -0.17415194, -0.29401302, -514898.8, 113931.58, 0.0, 10.000798, 9.999866 
2.1501383e+2, 2.4582952e+2, -536257.56, -771825.9, -59105.98, -0.12865998, -0.27175307, -522259.22, 8580.661, 0.0, 10.000996, 9.997891 
2.1501912e+2, 2.558274e+2, -423991.3, -665343.7, -68187.43, 0.040473823, -0.29805535, -406059.16, 26804.49, 0.0, 10.001083, 9.997909 
2.1502347e+2, 2.6582545e+2, -252806.11, -466709.53, -44631.89, 0.057149645, -0.31583366, -243867.03, 91017.01, 0.0, 10.001317, 9.998484 
2.1502703e+2, 2.7582315e+2, -136082.25, -372505.38, -25824.934, -0.04966629, -0.41868502, -133294.22, 103611.56, 0.00000000626477, 10.001494, 9.998376 
2.1503116e+2, 2.8582257e+2, -7573.3867, -291368.25, -32970.46, -0.07000077, -0.29383275, -3793.3245, 135119.52, 0.00000075455597, 10.001842, 9.998095 
2.1503569e+2, 2.9582387e+2, 144995.98, -162817.8, 8890.306, -0.02717712, -0.0038914785, 145252.53, 186155.13, 0.0000049684672, 10.002186, 9.998143 
2.1504292e+2, 3.0581897e+2, 238949.16, -92469.78, 718.37115, 0.25617838, -0.3065864, 238950.72, 238950.72, 0.000019574018, 10.002508, 9.99815 
2.1504396e+2, 3.1581908e+2, 166778.14, -238538.45, -50225.65, -0.12249243, -0.12027818, 172909.22, 172909.22, 0.000061826526, 10.002447, 9.997172 
2.249699e+2, 1.2583174e+2, -1812021.5, -1899189.8, 54357.68, 0.04308376, -0.3394417, -1785932.5, -79115.34, 0.0009979393, 9.999841, 9.998797 
2.2497135e+2, 1.358321e+2, -1716539.3, -1847893.8, -25603.004, -0.10344982, -0.15043412, -1711725.3, -102901.49, 0.0005469221, 10.0000925, 9.998347 
2.2497602e+2, 1.4583118e+2, -1451173.4, -1386344.5, 33381.418, -0.014740067, -0.20868355, -1372229.1, 138603.66, 0.00020906674, 9.999992, 10.000898 
2.249796e+2, 1.5583025e+2, -1402613.9, -1336445.9, -25547.16, -0.12561144, -0.41661376, -1327730.3, 85104.22, 0.000042237294, 9.999763, 10.000675 
2.2498356e+2, 1.6583097e+2, -1419809.3, -1476172.4, -56670.035, -0.13434674, -0.32130173, -1384700.3, -69871.59, 0.0000020119714, 9.999759, 9.999037 
2.249881e+2, 1.758326e+2, -1309836.3, -1376029.6, -43480.41, -0.0397427, -0.08695542, -1288289.3, -71469.234, 0.0, 9.999857, 9.999006 
2.2499232e+2, 1.858317e+2, -1080360.3, -1159612.1, -35248.395, 0.019039515, -0.100531824, -1066951.6, 51875.1, 0.0, 10.000522, 9.999497 
2.2499612e+2, 1.9582887e+2, -848100.25, -1013499.25, -69898.01, 0.03170282, -0.36068287, -822518.0, 198327.45, 0.0, 10.001518, 9.999351 
2.2500005e+2, 2.0582706e+2, -833450.2, -1107703.5, -34950.797, 0.02845087, -0.39904976, -829066.1, 93796.586, 0.0, 10.001603, 9.997993 
2.2500418e+2, 2.1582584e+2, -818029.6, -1036091.44, -15007.17, 0.021792367, -0.3448638, -817001.7, 7878.6, 0.0, 10.000972, 9.998116 
2.2500786e+2, 2.2582522e+2, -650160.3, -748895.5, -27053.05, -0.021944169, -0.28921857, -643233.8, 83653.58, 0.0, 10.000787, 9.999497 
2.250112e+2, 2.3582496e+2, -546338.75, -660777.0, -91253.99, -0.09480577, -0.29430416, -495848.47, 133039.56, 0.0, 10.000883, 9.999383 
2.2501543e+2, 2.4582398e+2, -486742.8, -702262.56, -82419.33, -0.069747984, -0.2681165, -458837.16, 72060.06, 0.0, 10.001139, 9.998304 
2.2502032e+2, 2.558224e+2, -325769.28, -576762.1, -36916.117, 0.0344717, -0.28073683, -320452.28, 112461.17, 0.0, 10.001573, 9.99829 
2.2502472e+2, 2.6582062e+2, -203860.69, -431670.66, 20990.508, 0.03998335, -0.30055746, -201942.75, 132988.06, 0.0, 10.001602, 9.998587 
2.2502871e+2, 2.758184e+2, -140815.05, -365273.44, 8402.869, -0.02120165, -0.406797, -140500.92, 96450.81, 0.00000000006385136, 10.001414, 9.9984665 
2.2503307e+2, 2.8581768e+2, -28830.213, -307182.72, -3372.007, -0.049536187, -0.30065054, -28789.37, 110170.78, 0.00000032397858, 10.001717, 9.998047 
2.2503765e+2, 2.958185e+2, 154208.47, -171316.89, -50417.76, -0.050054092, -0.05381969, 161838.4, 202792.66, 0.000003287384, 10.002311, 9.998019 
2.2504516e+2, 3.058137e+2, 197854.55, -113702.96, -33863.76, 0.25265464, -0.3357504, 201492.77, 201492.77, 0.000016014252, 10.002232, 9.99813 
2.2504623e+2, 3.1581363e+2, 75622.85, -257686.11, 2014.8622, -0.08938913, -0.18323718, 75635.03, 75635.03, 0.000053501928, 10.001713, 9.997388 
2.349686e+2, 1.2582885e+2, -1795259.8, -1864193.4, 39125.9, -0.12927587, -0.25961065, -1777584.5, -70736.9, 0.0008671324, 9.999851, 9.999031 
2.3497358e+2, 1.3582739e+2, -1699037.8, -1821645.9, -19389.133, 0.08339973, -0.2745857, -1696044.6, -87176.17, 0.0004662031, 10.000127, 9.998518 
2.3497833e+2, 1.458261e+2, -1538456.8, -1552049.6, 10895.579, 0.1948238, -0.3203495, -1532411.6, -21528.756, 0.00017258529, 9.999929, 9.999792 
2.3498003e+2, 1.5582667e+2, -1471607.9, -1479715.8, -21469.443, -0.08872651, -0.2618992, -1453813.0, -40937.918, 0.000033446406, 9.999763, 9.999693 
2.3498316e+2, 1.6582718e+2, -1385142.1, -1391443.6, -64287.215, -0.17538422, -0.17498083, -1323928.5, -9058.636, 0.0000017722703, 9.999707, 9.999644 
2.349877e+2, 1.7582725e+2, -1273504.5, -1293531.0, -27162.072, -0.0912403, -0.15955979, -1254568.8, -37698.88, 0.0000000001389195, 9.9998255, 9.999589 
2.3499236e+2, 1.8582562e+2, -1142901.9, -1268812.9, -7144.97, -0.05149599, -0.23629344, -1142497.8, -23614.164, 0.0, 10.000436, 9.998792 
2.3499691e+2, 1.9582266e+2, -896528.6, -1102179.5, -28833.963, -0.06463187, -0.4366799, -892562.3, 128345.63, 0.0, 10.001468, 9.998766 
2.3500037e+2, 2.0582177e+2, -790449.9, -993603.25, -68609.14, -0.118833855, -0.40147838, -769449.94, 153466.03, 0.0, 10.001498, 9.998827 
2.3500313e+2, 2.1582218e+2, -789419.2, -949702.3, -25515.94, -0.20284976, -0.26874956, -785455.25, 39458.605, 0.0, 10.0008545, 9.998766 
2.3500773e+2, 2.2582126e+2, -770772.5, -969540.2, -31554.484, -0.13295937, -0.19544706, -765883.44, -38957.0, 0.0, 10.000664, 9.998042 
2.350137e+2, 2.3581925e+2, -647389.0, -847169.0, -75437.75, 0.04161195, -0.22480807, -622103.6, 6847.347, 0.0, 10.00078, 9.998157 
2.3501782e+2, 2.458181e+2, -396393.72, -499354.03, -75857.33, 0.030483585, -0.23550802, -356197.6, 174763.2, 0.0, 10.001074, 9.999727 
2.3502068e+2, 2.558175e+2, -250667.86, -394481.34, -12811.73, -0.110966794, -0.2957376, -249535.42, 183425.4, 0.0, 10.001459, 9.999595 
2.3502508e+2, 2.6581684e+2, -218649.08, -446031.22, 4477.0083, -0.104118735, -0.25906622, -218560.97, 116404.29, 0.0, 10.001536, 9.998519 
2.350307e+2, 2.758159e+2, -162108.08, -391325.25, 15625.64, 0.011390981, -0.23055775, -161047.78, 75927.74, 0.0, 10.001331, 9.99833 
2.3503514e+2, 2.8581372e+2, -95820.54, -437553.0, 10784.165, -0.040100984, -0.21307002, -95480.555, 43517.81, 0.00000009734078, 10.00168, 9.997169 
2.3503861e+2, 2.9581085e+2, 85383.555, -293187.3, -21215.53, -0.21478105, -0.24625728, 86568.79, 127597.24, 0.0000024854203, 10.0022135, 9.997234 
2.3504646e+2, 3.0580705e+2, 280537.53, 63361.035, -61617.1, 0.1342812, -0.4527867, 296801.5, 296801.5, 0.000014818683, 10.002207, 9.999359 
2.3504853e+2, 3.1580865e+2, 196587.83, 3781.2402, 49033.96, -0.08145973, -0.26246607, 208341.47, 208341.47, 0.000051300616, 10.001658, 9.999216 
2.4496871e+2, 1.2582472e+2, -1831190.9, -1816211.1, -2281.9026, -0.06454742, -0.1710154, -1815871.3, -108977.836, 0.0007416808, 9.999334, 9.99961 
2.4497378e+2, 1.3582307e+2, -1660324.6, -1736996.5, -76154.695, 0.10095001, -0.27447975, -1613401.1, -4490.112, 0.00038814702, 10.000111, 9.999111 
2.449785e+2, 1.4582145e+2, -1496621.8, -1598210.8, 25.06117, 0.19707915, -0.34676096, -1496621.8, 14306.373, 0.00013769997, 10.0005, 9.99919 
2.4498054e+2, 1.5582256e+2, -1369978.6, -1494490.0, -19095.943, -0.054070752, -0.1799196, -1367115.8, 45802.816, 0.000025817635, 10.000745, 9.999109 
2.4498379e+2, 1.6582254e+2, -1206068.4, -1289012.5, -45199.5, -0.13359971, -0.12317067, -1186197.8, 128719.91, 0.0000016011192, 10.000866, 9.999793 
2.4498837e+2, 1.7582136e+2, -1126979.8, -1210199.1, -63749.316, -0.046250466, -0.24761046, -1092462.4, 124464.12, 0.0000000006420841, 10.000777, 9.999706 
2.4499297e+2, 1.858199e+2, -1128155.1, -1275865.9, -3435.2234, -0.036302157, -0.30527276, -1128075.3, -9136.038, 0.0, 10.0006075, 9.998653 
2.449974e+2, 1.9581817e+2, -1071995.5, -1197655.8, -4532.105, -0.10027852, -0.3697434, -1071832.3, -50877.105, 0.0, 10.000322, 9.998655 
2.4500093e+2, 2.0581755e+2, -928479.0, -1023440.1, -50540.35, -0.15051897, -0.31980538, -906614.56, 16345.758, 0.0, 10.000388, 9.999154 
2.4500404e+2, 2.1581762e+2, -811732.4, -928221.5, -65572.23, -0.1745, -0.255237, -782272.06, 42686.664, 0.0, 10.000568, 9.999046 
2.4500883e+2, 2.258165e+2, -780202.8, -1000707.6, -4307.5654, -0.08737228, -0.20090939, -780118.7, -53146.445, 0.0, 10.000715, 9.997799 
2.4501479e+2, 2.3581444e+2, -657237.5, -874803.75, 25429.281, 0.079169534, -0.21354988, -654304.8, -25307.148, 0.0, 10.000819, 9.997942 
2.4501884e+2, 2.4581313e+2, -459556.63, -541229.6, 16849.385, 0.051877566, -0.22599314, -456217.1, 74792.19, 0.0, 10.000679, 9.999639 
2.4502157e+2, 2.5581232e+2, -415889.03, -482340.0, -52031.92, -0.10584556, -0.29831707, -387379.16, 45632.29, 0.0, 10.000363, 9.999521 
2.450263e+2, 2.658116e+2, -365745.44, -542762.4, -62833.66, -0.08547022, -0.2545247, -345709.8, -10692.762, 0.0, 10.000626, 9.998301 
2.4503262e+2, 2.7581078e+2, -174956.4, -414251.16, -80637.75, 0.07795932, -0.19131495, -150319.55, 86706.93, 0.0, 10.001321, 9.998178 
2.4503738e+2, 2.858084e+2, -99451.02, -419132.78, -19669.67, 0.02906567, -0.19581206, -98245.32, 40805.137, 0.00000009803459, 10.001561, 9.997359 
2.4504082e+2, 2.9580483e+2, -6591.416, -318607.0, 4989.081, -0.17219764, -0.32020745, -6511.662, 34574.11, 0.0000023443192, 10.001497, 9.997407 
2.4504827e+2, 3.0580157e+2, 151290.39, -32823.773, -57375.32, 0.13911821, -0.46472126, 167706.5, 167706.5, 0.000014153015, 10.001482, 9.9990425 
2.4505009e+2, 3.1580284e+2, 209900.19, 96661.29, -66662.46, -0.06772791, -0.27857772, 240742.98, 240742.98, 0.000049336963, 10.0014105, 9.999959 
2.5496966e+2, 1.2581944e+2, -1766318.4, -1678678.5, 4832.185, 0.04071007, -0.06810847, -1678412.9, 28540.84, 0.000622871, 9.999326, 10.000556 
2.5497168e+2, 1.3581912e+2, -1579451.6, -1564135.1, -42249.57, -0.1422179, -0.16305721, -1528855.3, 80096.305, 0.00031436078, 10.000102, 10.000296 
2.5497633e+2, 1.458173e+2, -1514335.4, -1631352.0, -3229.867, -0.10127398, -0.29928863, -1514246.3, -3277.8877, 0.00010539114, 10.000479, 9.998975 
2.549807e+2, 1.5581782e+2, -1383812.3, -1522940.0, -488.10733, -0.14144877, -0.16975178, -1383810.5, 29154.818, 0.000019009012, 10.00074, 9.998916 
2.5498506e+2, 1.6581707e+2, -1236463.3, -1336367.9, -57700.2, -0.11514025, -0.1646881, -1210096.9, 104875.06, 0.0000013062046, 10.000804, 9.9994955 
2.549898e+2, 1.7581502e+2, -1147150.1, -1246079.8, -55790.863, -0.008517532, -0.3452022, -1122053.6, 94935.17, 0.000000000635992, 10.000759, 9.999463 
2.5499383e+2, 1.8581459e+2, -1108759.0, -1224131.0, -22642.057, -0.034249026, -0.30693865, -1104474.5, 14518.224, 0.0, 10.00055, 9.99904 
2.549972e+2, 1.9581528e+2, -1051717.3, -1145471.8, -3125.4307, -0.17773244, -0.17269233, -1051613.1, -30625.246, 0.0, 10.000273, 9.999038 
2.5500152e+2, 2.0581432e+2, -964491.94, -1067484.3, -52540.137, -0.15013096, -0.16215757, -942419.6, -19423.234, 0.0, 10.000258, 9.998915 
2.550066e+2, 2.1581198e+2, -834005.3, -953616.44, -49005.96, 0.0020156454, -0.3137176, -816491.5, 8524.693, 0.0, 10.000479, 9.998916 
2.5501075e+2, 2.2581084e+2, -722988.75, -859644.3, -10979.905, 0.014142728, -0.31062266, -722112.2, 4913.496, 0.0, 10.000619, 9.998816 
2.5501418e+2, 2.358104e+2, -616462.56, -765272.44, 38139.816, -0.08464482, -0.26452693, -607256.9, 21772.293, 0.0, 10.000709, 9.998748 
2.5501826e+2, 2.4580899e+2, -581629.7, -777250.7, -5459.45, -0.09662843, -0.23875815, -581477.44, -50434.313, 0.0, 10.000607, 9.998051 
2.550227e+2, 2.5580677e+2, -536048.06, -708780.4, -52634.383, -0.051385168, -0.29383585, -521273.28, -88207.1, 0.0, 10.000259, 9.998018 
2.5502807e+2, 2.6580477e+2, -397278.8, -593248.56, -44994.973, 0.0043257033, -0.28634512, -387441.7, -52355.164, 0.0, 10.000566, 9.997981 
2.5503418e+2, 2.758029e+2, -200766.9, -448472.3, -44571.285, 0.07561869, -0.29851088, -192991.0, 44114.98, 0.0, 10.00123, 9.997991 
2.5503948e+2, 2.8580153e+2, -22023.877, -239345.22, -33152.746, 0.05949314, -0.26157847, -17078.887, 122039.07, 0.00000013920514, 10.001493, 9.998619 
2.5504386e+2, 2.9580036e+2, 46548.086, -175573.45, 11127.842, -0.044143207, -0.27439433, 47104.176, 88230.93, 0.0000022917138, 10.001369, 9.998444 
2.5505027e+2, 3.0579707e+2, 21708.22, -300354.38, -66709.2, 0.16846223, -0.37507993, 34978.95, 34978.95, 0.0000129202135, 10.001474, 9.9972105 
2.5505033e+2, 3.1579578e+2, 171223.06, 24778.064, -5193.218, -0.23889415, -0.2535849, 171407.0, 171407.0, 0.00004582413, 10.001368, 9.999494 
2.6496884e+2, 1.2581247e+2, -1905558.3, -1719838.3, 62349.34, 0.0946747, -0.11805968, -1700848.3, 6175.6094, 0.0005136847, 9.998233, 10.000803 
2.6497114e+2, 1.3581401e+2, -1597828.1, -1511543.4, -81285.01, -0.1773807, -0.089402735, -1462661.3, 146341.61, 0.0002486243, 9.999671, 10.000876 
2.6497573e+2, 1.4581251e+2, -1629475.8, -1641697.3, -59780.22, -0.15092863, -0.24126938, -1575494.8, -64479.113, 0.00007773356, 9.999512, 9.999364 
2.6498085e+2, 1.5581225e+2, -1670583.5, -1622671.4, -34460.625, -0.0852317, -0.22951055, -1604658.1, -191638.38, 0.000013419433, 9.998611, 9.99926 
2.649858e+2, 1.6581163e+2, -1486353.0, -1464354.4, -5449.6636, -0.02890564, -0.22247148, -1463078.4, -148053.06, 0.0000010267595, 9.999116, 9.999435 
2.6499087e+2, 1.7581046e+2, -1186103.8, -1270212.8, -10448.219, 0.041075848, -0.3101143, -1184825.3, 32209.484, 0.0000000012219834, 10.00051, 9.999418 
2.6499462e+2, 1.8581037e+2, -1088071.9, -1195773.9, -3977.8142, -0.006929508, -0.24490257, -1087925.1, 31110.553, 0.0, 10.000613, 9.999205 
2.649974e+2, 1.9581102e+2, -1127606.9, -1171450.8, -20339.152, -0.15079477, -0.12708351, -1119624.8, -98593.78, 0.0, 9.9997, 9.999142 
2.650021e+2, 2.0580977e+2, -977492.56, -1097754.6, -4691.331, -0.1122944, -0.13855393, -977309.9, -54267.695, 0.0, 10.000276, 9.998696 
2.650083e+2, 2.1580702e+2, -652430.25, -891668.56, -27427.19, 0.05974085, -0.30987382, -649326.2, 175739.92, 0.0, 10.001838, 9.998688 
2.6501226e+2, 2.2580554e+2, -546668.25, -766568.4, -63923.76, 0.05036165, -0.33237603, -529436.3, 197641.13, 0.0, 10.001783, 9.9989 
2.6501468e+2, 2.3580495e+2, -644507.1, -777537.2, -104789.37, -0.090008706, -0.3073871, -586905.0, 42175.164, 0.0, 10.000502, 9.998771 
2.6501876e+2, 2.4580348e+2, -628417.0, -843427.06, -75140.92, -0.09394436, -0.26622587, -604760.0, -73664.87, 0.0, 10.000497, 9.997639 
2.6502404e+2, 2.5580123e+2, -381381.4, -671413.4, -52189.88, 0.0005833427, -0.28261462, -372275.94, 60844.402, 0.0, 10.001502, 9.9976635 
2.650295e+2, 2.6579884e+2, -227687.4, -502151.1, 21908.664, 0.040785868, -0.3053699, -225949.58, 109195.11, 0.0, 10.001683, 9.998074 
2.650352e+2, 2.7579638e+2, -185228.9, -423317.94, 31929.557, 0.06266507, -0.3840869, -181021.27, 56146.742, 0.0, 10.001278, 9.998134 
2.6504079e+2, 2.8579566e+2, -39842.54, -238086.53, 27698.746, 0.056912936, -0.3012983, -36045.195, 103129.086, 0.00000017298198, 10.001316, 9.998715 
2.650459e+2, 2.957957e+2, 96703.69, -141078.61, -31516.916, 0.016593482, -0.19770947, 100810.19, 141982.14, 0.000002277503, 10.001648, 9.998555 
2.6505214e+2, 3.0579165e+2, 42733.484, -382454.78, -73328.88, 0.19302987, -0.33670142, 55024.637, 55024.637, 0.000011809922, 10.001993, 9.996415 
2.6505268e+2, 3.1578872e+2, 270790.8, 60539.63, 58958.06, -0.16581538, -0.29827145, 286195.06, 286195.06, 0.000042458643, 10.002081, 9.999407 
2.749658e+2, 1.2580362e+2, -1933504.1, -1781550.9, 83121.07, -0.09399726, -0.33916846, -1744915.0, -37809.9, 0.00042107303, 9.998242, 10.000376 
2.7497154e+2, 1.3580786e+2, -1588968.8, -1498179.9, -31934.967, -0.13132396, -0.037792522, -1488072.1, 120991.37, 0.00019522583, 9.999692, 10.000957 
2.7497637e+2, 1.4580727e+2, -1565058.0, -1506582.1, -111494.38, -0.07130303, -0.15714315, -1420555.8, 90512.82, 0.000056360343, 9.999505, 10.000297 
2.7498084e+2, 1.5580584e+2, -1610781.3, -1495265.0, -49805.164, 0.02201402, -0.3506335, -1476756.8, -63675.473, 0.000009372096, 9.998602, 10.000139 
2.7498582e+2, 1.6580623e+2, -1475915.5, -1434175.1, 38117.516, 0.033667035, -0.29629052, -1411588.4, -96510.734, 0.0000008660051, 9.999082, 9.999655 
2.7499118e+2, 1.7580761e+2, -1177656.6, -1246708.4, 45329.336, -0.0059307646, -0.1503723, -1155202.0, 61863.027, 0.000000004874734, 10.000489, 9.999586 
2.7499503e+2, 1.8580717e+2, -1108510.8, -1219617.1, -48718.074, -0.0542553, -0.12027117, -1090174.8, 28894.012, 0.0, 10.000535, 9.999079 
2.7499762e+2, 1.9580539e+2, -1142623.3, -1189344.3, -35856.387, -0.12405065, -0.23646787, -1123189.0, -102104.38, 0.0, 9.999649, 9.99904 
2.750024e+2, 2.05804e+2, -1009253.5, -1142613.1, 45043.73, -0.13303128, -0.24187402, -995465.1, -72368.34, 0.0, 10.000185, 9.998434 
2.7500874e+2, 2.1580265e+2, -691093.44, -941515.4, 33904.34, -0.103808545, -0.24674077, -686584.4, 138524.28, 0.0, 10.001708, 9.998406 
2.7501306e+2, 2.2580063e+2, -631873.5, -909521.25, -121745.02, -0.06874141, -0.26483217, -586052.0, 141075.39, 0.0, 10.00164, 9.997989 
2.750159e+2, 2.3579799e+2, -717102.2, -898763.06, -137731.53, -0.037342094, -0.35186416, -642947.4, -13795.452, 0.0, 10.000376, 9.998001 
2.750201e+2, 2.4579646e+2, -586482.56, -738806.9, -47019.176, -0.033873543, -0.32166484, -573137.8, -41971.438, 0.0, 10.0004225, 9.998391 
2.7502522e+2, 2.5579554e+2, -344945.1, -575304.06, -8565.184, -0.058121067, -0.28010854, -344627.06, 88548.53, 0.0, 10.001406, 9.998373 
2.7503031e+2, 2.6579365e+2, -203037.23, -433383.6, -6940.015, -0.06738923, -0.3155028, -202828.33, 132364.25, 0.0, 10.001614, 9.998577 
2.7503547e+2, 2.75791e+2, -175125.03, -379911.16, 27185.959, -0.06488453, -0.46146905, -171577.47, 65637.766, 0.00000000009324417, 10.001181, 9.99848 
2.7504107e+2, 2.8579035e+2, -114336.016, -379023.22, 29229.414, -0.070112586, -0.331486, -111146.64, 28076.111, 0.00000023612336, 10.001263, 9.99777 
2.7504662e+2, 2.9579076e+2, 32669.336, -258144.38, -6592.1973, -0.10749889, -0.0986295, 32818.69, 74041.375, 0.0000024951785, 10.001578, 9.997785 
2.7505344e+2, 3.057856e+2, 63087.23, -331101.8, -76466.01, 0.100535356, -0.34099072, 77400.61, 77400.61, 0.0000116764495, 10.0019655, 9.996772 
2.7505627e+2, 3.157819e+2, 266443.4, 80945.625, 108858.93, -0.06615268, -0.40465245, 316707.2, 316707.2, 0.00004063622, 10.001956, 9.999605 
2.849642e+2, 1.2579733e+2, -1714332.4, -1707545.5, 121943.43, -0.14894377, -0.3491594, -1588948.4, 118214.21, 0.00034660724, 9.999896, 10.000082 
2.8497136e+2, 1.3580076e+2, -1880762.8, -1636349.5, -32439.87, -0.010677488, -0.119530484, -1632117.1, -22985.701, 0.00015383559, 9.9977045, 10.000955 
2.849761e+2, 1.458011e+2, -1796160.1, -1565748.4, -79103.0, 0.04813357, -0.1716411, -1541205.6, -30076.627, 0.00004093297, 9.997697, 10.000763 
2.8498057e+2, 1.5580072e+2, -1458043.0, -1371880.0, -74123.46, 0.10118206, -0.3073007, -1329227.5, 83904.64, 0.0000066741927, 9.999425, 10.000593 
2.849856e+2, 1.6580153e+2, -1317141.9, -1324730.5, 28853.691, 0.063118555, -0.24479382, -1291834.1, 23290.033, 0.00000074756446, 10.000043, 9.999944 
2.8499106e+2, 1.7580298e+2, -1252292.9, -1261178.4, 17574.547, -0.03139463, -0.11590593, -1238608.3, -21497.924, 0.000000006090155, 9.999882, 9.999789 
2.8499538e+2, 1.8580218e+2, -1127887.0, -1261349.9, -75990.125, -0.062838465, -0.11635793, -1093486.9, 25630.568, 0.0, 10.000546, 9.998784 
2.8499892e+2, 1.9579968e+2, -858183.25, -1085296.6, -99653.8, -0.0573495, -0.27140453, -820657.2, 200483.05, 0.0, 10.001744, 9.998745 
2.850035e+2, 2.0579825e+2, -846973.8, -1073741.0, -9357.227, -0.08921842, -0.26356193, -846588.4, 76565.28, 0.0, 10.001348, 9.998339 
2.850089e+2, 2.1579741e+2, -991737.8, -1096570.3, -29137.395, -0.14880838, -0.20876691, -984183.7, -159021.5, 0.0, 9.999693, 9.998309 
2.8501344e+2, 2.2579546e+2, -881441.6, -1009111.4, -105465.71, -0.10211484, -0.22235116, -821996.7, -94816.766, 0.0, 9.999846, 9.998163 
2.8501728e+2, 2.3579264e+2, -567486.06, -809929.1, -60771.68, 0.021076426, -0.34631774, -553105.75, 76099.336, 0.0, 10.001336, 9.998146 
2.8502184e+2, 2.4579094e+2, -407706.4, -674329.2, 53162.984, 0.040248442, -0.32820252, -397496.97, 133723.84, 0.0, 10.001726, 9.998211 
2.8502697e+2, 2.5579005e+2, -368492.47, -602668.56, -542.9599, -0.009505107, -0.2658981, -368491.22, 64738.582, 0.0, 10.001322, 9.998221 
2.850317e+2, 2.6578823e+2, -289819.44, -482370.78, -52154.4, -0.055828296, -0.2842598, -276600.4, 58645.64, 0.0, 10.001052, 9.9985075 
2.8503624e+2, 2.7578554e+2, -230414.45, -414808.84, -77226.23, -0.08109736, -0.43141353, -202344.39, 34924.766, 0.0000000018932573, 10.000827, 9.998412 
2.850422e+2, 2.8578454e+2, -148167.3, -415845.53, -3114.6553, -0.06979005, -0.32381904, -148131.06, -8850.772, 0.00000028816427, 10.00111, 9.997601 
2.8504887e+2, 2.9578474e+2, 71169.26, -243545.44, -2563.5442, -0.04828953, -0.097559005, 71190.14, 112473.62, 0.0000027347362, 10.00187, 9.997742 
2.8505555e+2, 3.0577987e+2, 140030.27, -221822.38, -43994.418, 0.11536559, -0.34209764, 145302.34, 145302.34, 0.000012525966, 10.002171, 9.997416 
2.8505912e+2, 3.1577703e+2, 217379.92, 73739.555, 133471.56, 0.056667395, -0.38109684, 297127.53, 297127.53, 0.000040586296, 10.001546, 9.999742 
2.9496324e+2, 1.2579376e+2, -1721978.6, -1737118.9, -6179.067, -0.299658, -0.13136844, -1719776.9, -12582.385, 0.00028487924, 9.999948, 9.999856 
2.949702e+2, 1.3579275e+2, -1893127.1, -1665148.0, -99508.055, 0.07700102, -0.3326133, -1627825.0, -18618.297, 0.000121053716, 9.997726, 10.000743 
2.949746e+2, 1.4579394e+2, -1790599.0, -1564153.1, -30426.037, 0.09503788, -0.28662473, -1560136.3, -48938.61, 0.000029834508, 9.997722, 10.00077 
2.9497954e+2, 1.5579678e+2, -1457173.1, -1369718.8, -6701.1753, 0.031667706, -0.10377122, -1369208.3, 43964.594, 0.000004731658, 9.99942, 10.000611 
2.9498485e+2, 1.6579756e+2, -1303234.3, -1283685.5, 13483.347, -0.042425793, -0.060049295, -1276806.4, 38358.063, 0.00000054097734, 9.999997, 10.000243 
2.9499015e+2, 1.7579672e+2, -1236114.8, -1219780.8, 29814.473, -0.13742645, -0.19567415, -1197035.0, 20134.166, 0.0000000012704189, 9.999861, 10.000075 
2.9499552e+2, 1.8579549e+2, -1172235.1, -1342321.3, -40626.57, -0.13324434, -0.22479197, -1163029.4, -43848.688, 0.0, 10.000492, 9.998258 
2.950009e+2, 1.9579382e+2, -900462.3, -1160727.8, -52381.18, -0.059126075, -0.2444139, -890315.6, 130883.1, 0.0, 10.00169, 9.998252 
2.950052e+2, 2.0579246e+2, -859328.5, -1074316.1, -80508.18, -0.080771156, -0.21085654, -832522.4, 90691.25, 0.0, 10.001241, 9.998384 
2.9500845e+2, 2.1579115e+2, -999563.6, -1082455.5, -70275.74, -0.18648894, -0.20461391, -959422.56, -134195.13, 0.0, 9.999565, 9.998465 
2.95013e+2, 2.2579001e+2, -815843.7, -839763.8, -59207.477, -0.15096234, -0.2125163, -767400.4, -40164.97, 0.0, 9.999707, 9.999391 
2.950185e+2, 2.3578884e+2, -511972.25, -664916.8, 1822.7379, -0.01244254, -0.29357785, -511950.53, 117289.66, 0.0, 10.001212, 9.999198 
2.9502383e+2, 2.4578707e+2, -492299.88, -833782.9, 27254.662, 0.04314407, -0.27657694, -490138.3, 41118.723, 0.0, 10.001653, 9.997156 
2.95029e+2, 2.5578475e+2, -452407.2, -759733.9, -5222.406, 0.036272082, -0.24786, -452318.47, -19034.908, 0.0, 10.00124, 9.9971895 
2.9503334e+2, 2.6578245e+2, -337994.2, -572054.06, -68930.49, -0.023472847, -0.2319382, -319202.84, 16104.137, 0.0, 10.001007, 9.997912 
2.950371e+2, 2.7577993e+2, -276152.3, -491309.72, -74591.27, -0.10734402, -0.3022646, -252822.5, -15492.331, 0.0000000016821552, 10.000745, 9.997927 
2.9504377e+2, 2.857783e+2, -109080.14, -328196.78, 13807.543, -0.04919262, -0.2670304, -108213.49, 31132.324, 0.00000022409213, 10.00108, 9.9982195 
2.9505223e+2, 2.957775e+2, 106537.055, -162237.64, 41890.34, 0.06943752, -0.20213878, 112914.62, 154269.5, 0.0000026534976, 10.001823, 9.99833 
2.9505816e+2, 3.0577442e+2, 203845.47, -77410.02, -68458.125, 0.13184036, -0.3500327, 219623.22, 219623.22, 0.00001292508, 10.002127, 9.998425 
2.9506046e+2, 3.1577373e+2, 216626.77, 84019.734, 136549.11, -0.025688777, -0.27745074, 302118.56, 302118.56, 0.000040883584, 10.001491, 9.999838 
3.0496284e+2, 1.2578735e+2, -1870808.9, -1770567.0, -35508.367, -0.26388273, -0.19164203, -1759263.6, -52008.477, 0.00023189351, 9.998772, 10.000197 
3.0496895e+2, 1.357864e+2, -1687343.3, -1554623.5, -121775.3, 0.1221673, -0.4003588, -1482300.9, 126964.445, 0.000094942065, 9.999066, 10.000868 
3.0497304e+2, 1.4578801e+2, -1572952.6, -1487229.4, 44739.164, 0.09158014, -0.30451417, -1468133.8, 43118.61, 0.000021738364, 9.99937, 10.000485 
3.0497885e+2, 1.557905e+2, -1409584.9, -1379362.9, 9714.336, 0.0044188923, -0.12432682, -1376509.8, 36722.586, 0.0000030875526, 9.999901, 10.000305 
3.049846e+2, 1.65791e+2, -1323876.5, -1304643.4, -23672.285, -0.051491812, -0.091363996, -1288708.9, 26518.51, 0.0000002653173, 9.999881, 10.000158 
3.0498996e+2, 1.7579e+2, -1311101.3, -1259249.5, -56334.703, -0.107756965, -0.23556155, -1223161.3, -5927.3135, 0.0, 9.99935, 10.0000515 
3.049959e+2, 1.8578899e+2, -1315771.5, -1371703.8, -43757.79, -0.08088224, -0.2597605, -1291806.4, -172563.17, 0.0, 9.999339, 9.998615 
3.0500224e+2, 1.957878e+2, -1168736.0, -1257768.6, -15207.444, 0.008158121, -0.26456636, -1166210.1, -144953.38, 0.0, 9.999692, 9.998563 
3.0500653e+2, 2.057868e+2, -990617.94, -1093581.9, -26528.225, -0.008112372, -0.22807308, -984185.0, -60917.254, 0.0, 10.000143, 9.998791 
3.050093e+2, 2.1578588e+2, -818306.75, -959147.3, -9396.19, -0.10448842, -0.22346427, -817682.6, 7594.7725, 0.0, 10.000644, 9.998801 
3.050141e+2, 2.2578485e+2, -625040.5, -773150.1, 24204.82, -0.073590435, -0.22124264, -621185.2, 106099.75, 0.0, 10.0011215, 9.99917 
3.050205e+2, 2.3578368e+2, -476384.94, -669829.4, -47866.234, 0.056804053, -0.28185403, -465188.8, 164103.03, 0.0, 10.001555, 9.998999 
3.0502605e+2, 2.4578184e+2, -470462.1, -815310.1, -37083.613, 0.10095844, -0.26408392, -466519.34, 64790.06, 0.0, 10.001776, 9.997221 
3.0503094e+2, 2.5577945e+2, -348008.75, -701890.6, -1193.1416, 0.077389814, -0.25304207, -348004.75, 85331.14, 0.0, 10.001931, 9.997251 
3.0503523e+2, 2.6577708e+2, -183992.98, -538822.25, 11956.295, 0.014505176, -0.22893462, -183590.56, 151769.52, 0.0, 10.002241, 9.997547 
3.0503926e+2, 2.757745e+2, -11170.102, -403137.13, 1492.3964, -0.055691533, -0.26606587, -11164.419, 226220.2, 0.00000000014964384, 10.002739, 9.99757 
3.0504602e+2, 2.8577244e+2, 66228.02, -252387.48, 77600.734, 0.013339708, -0.2569734, 84123.07, 223528.16, 0.00000013461268, 10.002342, 9.998118 
3.0505452e+2, 2.9577097e+2, 8439.645, -218695.06, 32452.086, 0.15244445, -0.24555084, 12985.295, 54405.164, 0.0000024184974, 10.001215, 9.9982195 
3.050599e+2, 3.0576876e+2, 71690.266, -134324.52, -111230.33, 0.15055159, -0.3027398, 120283.36, 120283.36, 0.00001259153, 10.001178, 9.998509 
3.050624e+2, 3.1576863e+2, 205433.75, 39274.87, -23796.055, 0.027135104, -0.18122528, 208774.47, 208774.47, 0.00003964243, 10.001581, 9.999504 
3.1496248e+2, 1.2577827e+2, -1796940.9, -1620528.0, -80403.44, -0.23397104, -0.5022077, -1589381.6, 117960.8, 0.00018871382, 9.998799, 10.001208 
3.1496716e+2, 1.3578202e+2, -1659588.1, -1476721.1, -103090.7, 0.012369451, -0.3066451, -1430358.5, 178945.92, 0.00007509751, 9.999009, 10.001421 
3.1497097e+2, 1.4578354e+2, -1624330.1, -1598294.6, 51359.75, -0.08337051, -0.20337251, -1558328.5, -47037.754, 0.00001598166, 9.999373, 9.999725 
3.1497812e+2, 1.5578187e+2, -1458020.6, -1484457.4, 38456.645, -0.0901524, -0.3695494, -1430574.0, -17263.146, 0.00000170519, 9.99992, 9.999573 
3.1498465e+2, 1.6578177e+2, -1360551.9, -1376523.5, -58281.44, -0.05919797, -0.33486512, -1309711.6, 5602.041, 0.000000057148895, 9.999856, 9.999681 
3.149902e+2, 1.7578277e+2, -1339746.6, -1310156.4, -67320.71, -0.0430555, -0.23196161, -1256024.3, -38719.625, 0.0, 9.999312, 9.999721 
3.1499612e+2, 1.8578272e+2, -1240615.0, -1203012.6, -41554.355, -0.012152712, -0.21090324, -1176204.1, -56899.27, 0.0, 9.999278, 9.9998045 
3.1500244e+2, 1.9578165e+2, -1094490.9, -1088178.8, 9216.562, 0.036558673, -0.32527617, -1081592.9, -60278.875, 0.0, 9.999626, 9.999757 
3.150073e+2, 2.0578139e+2, -961063.6, -1002318.0, -18878.416, 0.034868866, -0.3059984, -953728.75, -30413.686, 0.0, 10.000022, 9.999473 
3.1501108e+2, 2.157816e+2, -801971.06, -894141.6, 20144.982, -0.012060859, -0.25669134, -797760.5, 27551.123, 0.0, 10.000516, 9.999306 
3.1501642e+2, 2.2578008e+2, -753689.1, -1018271.4, 30457.08, 0.02475424, -0.23944932, -750228.4, -22900.56, 0.0, 10.001022, 9.99754 
3.1502295e+2, 2.3577714e+2, -590121.9, -882613.44, -22362.133, 0.12357184, -0.31100145, -588422.1, 40938.004, 0.0, 10.00145, 9.997595 
3.1502816e+2, 2.4577524e+2, -395217.6, -645035.7, -42301.113, 0.1093507, -0.30063438, -388249.22, 143129.44, 0.0, 10.001718, 9.998416 
3.150324e+2, 2.5577408e+2, -287080.97, -548200.44, 12517.966, 0.0066826493, -0.28534645, -286482.25, 146905.16, 0.0, 10.001815, 9.998362 
3.1503722e+2, 2.6577213e+2, -196639.11, -556521.06, 21141.781, -0.03692759, -0.26592037, -195401.36, 140003.7, 0.0, 10.002199, 9.997449 
3.1504247e+2, 2.7576926e+2, -30156.207, -430318.22, 26950.088, -0.033928107, -0.32445788, -28349.332, 209083.4, 0.00000000001473293, 10.002677, 9.997418 
3.150486e+2, 2.8576678e+2, -946.5386, -381187.63, 23831.564, 0.013772127, -0.29987344, 541.28015, 139999.98, 0.000000108201135, 10.002299, 9.997252 
3.150552e+2, 2.9576492e+2, -66387.93, -357400.1, 7418.891, 0.0713701, -0.24375087, -66198.92, -24718.234, 0.0000023186144, 10.001137, 9.997308 
3.1506047e+2, 3.057628e+2, 15955.541, -246406.66, -97632.91, 0.06368929, -0.20471938, 48300.176, 48300.176, 0.000012381474, 10.001161, 9.997746 
3.1506437e+2, 3.1576163e+2, 156803.94, -60885.992, 6027.19, 0.007386624, -0.11783442, 156970.69, 156970.69, 0.000038038284, 10.001565, 9.998828 
3.2496166e+2, 1.257725e+2, -2010071.8, -1689422.4, -7685.5015, -0.10073362, -0.5101646, -1689238.3, 18161.115, 0.00015750076, 9.997156, 10.001536 
3.2496676e+2, 1.3577642e+2, -1536230.8, -1425594.0, -95825.11, 0.040792517, -0.30100128, -1370266.3, 239091.67, 0.00006189271, 9.999847, 10.001384 
3.249705e+2, 1.4577766e+2, -1485392.1, -1575053.5, 31273.934, -0.11596134, -0.20199397, -1475561.6, 35784.613, 0.000012633238, 10.000501, 9.99935 
3.2497773e+2, 1.5577519e+2, -1494623.0, -1538547.8, 24124.678, -0.10978263, -0.4106933, -1483961.0, -70587.26, 0.0000008198343, 9.999809, 9.999262 
3.2498446e+2, 1.6577476e+2, -1386481.6, -1391167.0, -16912.424, -0.04962002, -0.39454502, -1371750.4, -56370.07, 0.000000004124255, 9.999717, 9.999636 
3.2499024e+2, 1.7577581e+2, -1227059.8, -1262472.1, -17567.217, -0.0052070934, -0.2793996, -1219823.6, -2452.0374, 0.0, 10.000118, 9.99966 
3.2499638e+2, 1.8577616e+2, -1051118.8, -1070071.5, 14554.857, 0.034002177, -0.23390469, -1043227.2, 76140.9, 0.0, 10.000399, 10.000168 
3.2500294e+2, 1.9577587e+2, -941237.9, -974379.7, -22443.09, 0.08410513, -0.30934468, -929910.94, 91458.7, 0.0, 10.000518, 10.000097 
3.2500815e+2, 2.0577572e+2, -848634.6, -962125.9, -84221.89, 0.08259263, -0.28874803, -803825.4, 119544.56, 0.0, 10.000841, 9.999356 
3.250124e+2, 2.1577561e+2, -704840.1, -859912.06, -123839.76, 0.03806734, -0.26194417, -636266.1, 189104.38, 0.0, 10.001232, 9.999198 
3.2501808e+2, 2.2577415e+2, -706567.94, -1002556.94, -58598.574, 0.073313765, -0.22975928, -695389.06, 31998.316, 0.0, 10.001374, 9.997479 
3.2502475e+2, 2.3577158e+2, -601885.5, -891017.06, -11847.927, 0.16961949, -0.26147377, -601400.8, 28017.002, 0.0, 10.001372, 9.997575 
3.2503012e+2, 2.4576987e+2, -361748.97, -575535.9, 14510.848, 0.13751464, -0.25651717, -360768.53, 170665.39, 0.0, 10.001711, 9.998901 
3.250345e+2, 2.557688e+2, -168086.84, -439797.44, -1542.5061, 0.012737518, -0.28102395, -168078.1, 265361.53, 0.0, 10.0024, 9.998827 
3.2503977e+2, 2.6576704e+2, -146226.34, -509034.44, 2710.283, -0.009525058, -0.27372584, -146206.1, 189248.4, 0.0, 10.002453, 9.997653 
3.2504568e+2, 2.7576444e+2, -107453.95, -446745.44, 9678.899, 0.055596303, -0.32283947, -107178.07, 130301.36, 0.00000000010851988, 10.002068, 9.997596 
3.2505134e+2, 2.8576186e+2, -21409.037, -418891.22, 52953.926, 0.06512038, -0.30302528, -14475.289, 125030.8, 0.00000014604628, 10.002264, 9.997022 
3.2505676e+2, 2.9575962e+2, 163845.86, -270301.16, 63720.77, 0.03737751, -0.26357514, 173005.06, 214536.11, 0.0000023415487, 10.002822, 9.997097 
3.2506213e+2, 3.0575722e+2, 279409.84, -126716.79, 46868.77, 0.033423174, -0.2371739, 284748.53, 284748.53, 0.000012312151, 10.003031, 9.997652 
3.2506725e+2, 3.157554e+2, 325172.7, 3720.4026, 135964.72, 0.09127715, -0.21215622, 374968.03, 374968.03, 0.000036624067, 10.002828, 9.998643 
3.3495963e+2, 1.2577006e+2, -2044176.4, -1748985.3, 20459.783, -0.0780119, -0.20761098, -1747574.0, -40148.277, 0.00013853858, 9.997128, 10.001133 
3.3496746e+2, 1.3576968e+2, -1585009.8, -1511592.9, -477.5568, 0.0976309, -0.36477175, -1511589.8, 97835.3, 0.000055370125, 9.999814, 10.000791 
3.3497134e+2, 1.4577046e+2, -1483731.5, -1565110.4, -11056.142, -0.11529828, -0.28913906, -1482256.1, 29161.635, 0.000011804474, 10.000471, 9.9994335 
3.349773e+2, 1.5577073e+2, -1484517.0, -1514021.3, 11602.804, -0.1602498, -0.23357782, -1480500.9, -67081.945, 0.00000057438905, 9.999798, 9.999435 
3.3498365e+2, 1.6577017e+2, -1368843.1, -1350374.8, -12204.991, -0.13013698, -0.2568988, -1344304.3, -28878.889, 0.00000000201948, 9.999694, 9.99993 
3.3498976e+2, 1.7576908e+2, -1212042.9, -1230531.4, 9146.002, -0.0948551, -0.38538826, -1208283.1, 9152.019, 0.0, 10.000113, 9.999884 
3.3499625e+2, 1.857693e+2, -1100597.3, -1150690.4, 7845.384, -0.042705465, -0.3336422, -1099397.4, 20035.963, 0.0, 10.000307, 9.999659 
3.350033e+2, 1.9577032e+2, -988334.0, -1055757.8, -8002.8594, 0.043195143, -0.22594188, -987397.1, 34027.793, 0.0, 10.000452, 9.999569 
3.3500874e+2, 2.0576976e+2, -922860.6, -1094976.4, -80851.05, 0.038411543, -0.17710222, -890838.6, 32594.234, 0.0, 10.000751, 9.99849 
3.3501294e+2, 2.1576789e+2, -770392.94, -965051.25, -100009.58, -0.050175782, -0.24174707, -728169.6, 97284.77, 0.0, 10.0011015, 9.998538 
3.3501866e+2, 2.2576706e+2, -620646.7, -797119.5, -69726.2, -0.020790022, -0.19543737, -596422.4, 131041.6, 0.0, 10.001261, 9.998941 
3.3502555e+2, 2.3576695e+2, -526594.2, -699968.8, -2159.1685, 0.093420744, -0.12806983, -526567.3, 102898.02, 0.0, 10.001231, 9.998949 
3.350316e+2, 2.4576578e+2, -377903.5, -602875.6, 31479.678, 0.092707224, -0.12526661, -373581.66, 157893.14, 0.0, 10.001674, 9.9987335 
3.35037e+2, 2.5576368e+2, -189505.61, -464856.4, 30758.857, -0.0014872641, -0.23717603, -186111.45, 247380.33, 0.0, 10.002314, 9.998697 
3.3504263e+2, 2.6576188e+2, -122471.93, -450185.13, -21844.965, 0.012265387, -0.25045556, -121022.18, 214485.56, 0.0, 10.002412, 9.998076 
3.3504844e+2, 2.7576005e+2, -90065.33, -389340.03, 8301.969, 0.0988231, -0.2674918, -89835.2, 147690.28, 0.000000000044508567, 10.001976, 9.998033 
3.3505383e+2, 2.857577e+2, 9102.807, -354047.3, 64021.832, 0.06633965, -0.27347207, 20059.035, 159606.5, 0.00000018851506, 10.002246, 9.997481 
3.350588e+2, 2.9575518e+2, 186478.1, -213521.0, 94733.33, -0.07338646, -0.30408445, 207779.75, 249350.05, 0.0000023038672, 10.002767, 9.99752 
3.3506462e+2, 3.0575195e+2, 306338.13, -64033.957, 31621.861, -0.04856776, -0.40236467, 309018.53, 309018.53, 0.000011796056, 10.003004, 9.998094 
3.3507043e+2, 3.1574973e+2, 322670.53, 24532.047, 141235.0, 0.070551336, -0.4623024, 378952.13, 378952.13, 0.000034748333, 10.002709, 9.99885 
3.4495866e+2, 1.2576441e+2, -1742823.9, -1619865.0, 1790.1045, 0.017514007, -0.14237575, -1619838.9, 87643.086, 0.00012841672, 9.999274, 10.000984 
3.449671e+2, 1.3576283e+2, -1665345.9, -1592647.1, -8914.953, 0.11211031, -0.382232, -1591569.9, 17922.94, 0.00005393956, 9.999421, 10.000443 
3.4497166e+2, 1.4576328e+2, -1542617.5, -1544755.5, -12561.085, -0.0913877, -0.34485865, -1531080.0, -19591.654, 0.00001321429, 9.9998665, 9.999858 
3.4497777e+2, 1.5576486e+2, -1351840.4, -1411542.3, -3463.3174, -0.12505925, -0.20016643, -1351640.1, 61836.15, 0.00000089811203, 10.000542, 9.999781 
3.4498388e+2, 1.6576467e+2, -1260706.9, -1291325.8, -14121.048, -0.10166296, -0.20307736, -1255188.9, 60289.785, 0.0000000015154811, 10.00039, 10.000006 
3.449896e+2, 1.7576328e+2, -1277056.0, -1251406.8, -27113.424, -0.091478385, -0.37112123, -1234237.9, -16746.719, 0.0, 9.999624, 9.999976 
3.4499612e+2, 1.8576331e+2, -1193486.1, -1205869.0, 24642.268, -0.049046136, -0.3379031, -1174269.4, -54778.52, 0.0, 9.999715, 9.999572 
3.450036e+2, 1.9576418e+2, -1004666.44, -1076457.6, 24782.625, 0.040496245, -0.2345385, -996942.44, 24541.186, 0.0, 10.000391, 9.999464 
3.4500965e+2, 2.0576347e+2, -903901.2, -1100827.3, 12540.025, 0.05164126, -0.18786463, -903105.9, 20387.756, 0.0, 10.000944, 9.998355 
3.450145e+2, 2.1576141e+2, -742891.2, -967719.3, 23066.857, -0.008247458, -0.25536215, -740549.0, 84969.44, 0.0, 10.001348, 9.998405 
3.4502038e+2, 2.2576074e+2, -541435.56, -705930.06, 39347.734, 0.0136148995, -0.21215095, -532508.0, 195017.78, 0.0, 10.001582, 9.999411 
3.45027e+2, 2.3576103e+2, -430128.13, -607726.3, 10513.543, 0.10009587, -0.14982384, -429507.9, 200013.16, 0.0, 10.001692, 9.999364 
3.4503317e+2, 2.457601e+2, -422668.63, -622600.06, 33061.332, 0.10389449, -0.1434009, -417343.34, 114184.984, 0.0, 10.001378, 9.998736 
3.4503895e+2, 2.5575802e+2, -411213.9, -576680.6, 23840.465, 0.044101004, -0.24759637, -407847.47, 25699.168, 0.0, 10.000813, 9.998658 
3.4504494e+2, 2.657564e+2, -301707.4, -546346.3, -15613.806, 0.066345744, -0.2341927, -300714.9, 34847.668, 0.0, 10.001226, 9.997985 
3.450511e+2, 2.757549e+2, -32171.977, -365701.0, -44099.188, 0.15520988, -0.20648174, -26439.703, 211139.19, 0.0, 10.002398, 9.997991 
3.4505656e+2, 2.8575274e+2, 65738.1, -266152.9, -2957.3596, 0.11148363, -0.22070988, 65764.45, 205362.81, 0.00000016974016, 10.0024, 9.997997 
3.4506124e+2, 2.957502e+2, 46204.563, -229330.8, 9743.179, -0.03623106, -0.3038589, 46548.66, 88167.41, 0.0000020169734, 10.001588, 9.997978 
3.4506726e+2, 3.0574718e+2, 151389.33, -135023.0, -17946.814, -0.018360492, -0.40454406, 152509.52, 152509.52, 0.0000103175025, 10.001902, 9.998148 
3.450736e+2, 3.1574494e+2, 329963.25, 5260.304, 23045.016, 0.12284535, -0.4771428, 331590.66, 331590.66, 0.000031962787, 10.002844, 9.99865 
3.5495803e+2, 1.2575556e+2, -1734119.6, -1605283.0, -62806.918, -0.038812064, -0.3083393, -1579732.3, 127836.39, 0.00012227354, 9.999288, 10.001077 
3.5496527e+2, 1.357559e+2, -1658453.8, -1578322.9, 9367.239, -0.040020645, -0.35288587, -1577242.4, 32318.568, 0.00005490219, 9.99944, 10.000524 
3.549711e+2, 1.4575633e+2, -1495718.5, -1457808.4, 844.0407, -0.17073777, -0.3544687, -1457789.6, 53766.207, 0.000015641235, 9.9999, 10.000447 
3.5497877e+2, 1.5575753e+2, -1312395.1, -1340429.0, 27390.959, -0.109062605, -0.30005848, -1295642.9, 117903.09, 0.0000017221555, 10.000581, 10.000255 
3.5498488e+2, 1.6575822e+2, -1271647.8, -1305117.5, -57641.816, -0.06934699, -0.23297475, -1228360.6, 87180.05, 0.000000007086625, 10.00035, 9.999929 
3.5498935e+2, 1.757584e+2, -1280252.4, -1255057.1, -42023.15, -0.1037963, -0.23670784, -1223784.0, -6243.9907, 0.0, 9.999609, 9.999957 
3.5499564e+2, 1.857582e+2, -1180945.9, -1162112.3, 42256.207, -0.093759276, -0.2467273, -1128236.3, -8695.35, 0.0, 9.9996395, 9.999908 
3.550036e+2, 1.957576e+2, -987290.56, -1028483.6, 60753.645, -0.022422038, -0.32469943, -943737.1, 77807.164, 0.0, 10.000339, 9.999819 
3.5501063e+2, 2.0575699e+2, -882755.25, -1034954.25, 17883.568, 0.035588697, -0.3112091, -880682.1, 42869.035, 0.0, 10.000845, 9.998858 
3.5501686e+2, 2.1575624e+2, -728520.94, -911037.6, 48425.85, 0.06760088, -0.2991732, -716468.4, 109093.766, 0.0, 10.00123, 9.998852 
3.5502288e+2, 2.2575527e+2, -596849.1, -797450.5, 36306.85, 0.086670786, -0.2752356, -590480.1, 137092.13, 0.0, 10.001479, 9.998832 
3.5502887e+2, 2.35754e+2, -486087.03, -696114.0, 21950.713, 0.09482689, -0.31208932, -483817.4, 145766.1, 0.0, 10.001573, 9.998814 
3.5503453e+2, 2.4575292e+2, -431274.16, -619604.3, 1258.8373, 0.077285536, -0.2969343, -431265.75, 100327.9, 0.0, 10.001293, 9.998795 
3.5503995e+2, 2.557518e+2, -425143.38, -581029.1, 15807.415, 0.043806043, -0.31333894, -423556.6, 10048.119, 0.0, 10.000715, 9.998672 
3.5504636e+2, 2.6575065e+2, -347500.4, -633623.2, 20427.275, 0.06342964, -0.22369577, -346049.4, -10430.283, 0.0, 10.00119, 9.997402 
3.550534e+2, 2.7574924e+2, -80612.21, -447353.6, 6100.696, 0.12173394, -0.1330724, -80510.76, 157127.64, 0.0, 10.002316, 9.997468 
3.5505912e+2, 2.857471e+2, 94627.92, -197024.05, -43696.68, 0.105028875, -0.14387251, 101034.055, 240692.5, 0.00000011654808, 10.002365, 9.998487 
3.550638e+2, 2.9574457e+2, 67028.76, -168822.86, -2942.3726, 0.028155379, -0.278059, 67065.46, 108743.05, 0.0000016052002, 10.001521, 9.998423 
3.550698e+2, 3.0574286e+2, 138712.97, -165908.16, 11402.572, 0.021979883, -0.2568882, 139139.2, 139139.2, 0.000008325357, 10.001909, 9.997939 
3.5507601e+2, 3.1574157e+2, 275008.03, -93863.95, 92140.96, 0.021655094, -0.20867918, 296743.3, 296743.3, 0.000028551576, 10.002771, 9.99801 
3.6495745e+2, 1.2574859e+2, -1774081.0, -1655424.3, 14092.792, -0.0037129503, -0.36064833, -1653773.5, 53862.598, 0.000118926524, 9.999137, 10.000811 
3.6496484e+2, 1.3574941e+2, -1551311.6, -1537779.5, 65633.15, -0.055784743, -0.34209418, -1478564.6, 131059.34, 0.000056465244, 10.0002165, 10.000425 
3.649715e+2, 1.457495e+2, -1455499.4, -1430637.9, 31447.084, -0.12498697, -0.38106275, -1409253.8, 102368.35, 0.00001794202, 10.000156, 10.000504 
3.6497873e+2, 1.5575033e+2, -1507513.1, -1425885.8, -4504.9893, -0.09481179, -0.3691139, -1425637.9, -12022.763, 0.000002788093, 9.999215, 10.000323 
3.6498493e+2, 1.657513e+2, -1402646.8, -1372985.9, -64993.418, -0.04765849, -0.27402645, -1321152.4, -5544.7637, 0.00000008230677, 9.999478, 9.999882 
3.6498988e+2, 1.7575222e+2, -1142322.1, -1194757.4, -74789.484, -0.052728552, -0.19761235, -1089288.1, 128312.91, 0.0, 10.000586, 9.9999 
3.649961e+2, 1.8575175e+2, -1041325.25, -1115925.1, -885.97034, -0.05694277, -0.22160889, -1041314.7, 78289.945, 0.0, 10.0006895, 9.999718 
3.6500356e+2, 1.9575009e+2, -1046480.7, -1073717.9, -39733.156, -0.03741653, -0.3837373, -1018097.0, 3520.509, 0.0, 10.000003, 9.999671 
3.650108e+2, 2.057498e+2, -976979.3, -1021518.6, -65740.22, 0.019255646, -0.3600345, -929839.2, -6218.5166, 0.0, 9.99995, 9.999379 
3.6501783e+2, 2.1575037e+2, -824937.8, -901973.0, -58369.227, 0.09345948, -0.26911533, -793522.8, 32095.367, 0.0, 10.000339, 9.99934 
3.6502415e+2, 2.2574943e+2, -712157.94, -862895.0, -35743.72, 0.104960576, -0.26079538, -704111.7, 23515.791, 0.0, 10.000722, 9.998755 
3.6502996e+2, 2.3574725e+2, -562656.0, -741248.4, -30247.33, 0.08017844, -0.37807867, -557672.25, 71974.72, 0.0, 10.001078, 9.998746 
3.6503598e+2, 2.4574603e+2, -386474.22, -620781.94, -28140.742, 0.08394092, -0.36437654, -383141.84, 148517.31, 0.0, 10.001674, 9.998618 
3.6504215e+2, 2.557454e+2, -187562.34, -479795.8, -48379.414, 0.11348341, -0.31522036, -179761.34, 253905.64, 0.0, 10.002398, 9.998559 
3.6504868e+2, 2.6574433e+2, -136206.39, -523469.47, 8938.023, 0.112132624, -0.21798198, -136000.22, 199680.55, 0.0, 10.002607, 9.997477 
3.6505547e+2, 2.7574265e+2, -54887.016, -430230.75, 19555.02, 0.09500618, -0.15934762, -53870.973, 183830.7, 0.0, 10.002469, 9.997515 
3.6506155e+2, 2.857404e+2, 83277.51, -233396.2, -49852.977, 0.11755011, -0.16718464, 90940.29, 230663.98, 0.000000055764154, 10.002402, 9.998228 
3.6506712e+2, 2.9573795e+2, 172984.16, -142334.67, -84346.9, 0.17533985, -0.27091238, 194128.8, 235873.86, 0.0000011855267, 10.002354, 9.998204 
3.650727e+2, 3.0573708e+2, 202935.44, -87164.13, -22675.662, 0.1173605, -0.17490487, 204697.17, 204697.17, 0.0000067298934, 10.002176, 9.998338 
3.6507753e+2, 3.1573597e+2, 161145.16, -87974.69, 71190.29, -0.042559046, -0.15096007, 180053.8, 180053.8, 0.00002565761, 10.001753, 9.998539 
3.749561e+2, 1.257438e+2, -1806028.9, -1731777.4, 3177.0378, -0.10766896, -0.2557696, -1731641.6, -23960.33, 0.0001191897, 9.999174, 10.000264 
3.7496543e+2, 1.3574362e+2, -1560075.8, -1559438.9, 110276.2, -0.051714614, -0.33145458, -1449480.6, 160199.34, 0.00005856906, 10.00023, 10.000266 
3.7497243e+2, 1.4574285e+2, -1493573.1, -1499635.3, -17524.488, -0.07826382, -0.4242988, -1478819.5, 32867.23, 0.000020069963, 10.000115, 10.00005 
3.7497726e+2, 1.5574318e+2, -1530459.6, -1481789.8, -22322.32, -0.19096962, -0.41558143, -1473102.4, -59418.195, 0.0000038584762, 9.999248, 9.999926 
3.7498373e+2, 1.6574389e+2, -1411989.0, -1385653.5, -33424.6, -0.14094426, -0.3271631, -1362896.5, -47217.05, 0.00000020238203, 9.99945, 9.999807 
3.749909e+2, 1.7574477e+2, -1156188.0, -1219880.6, -26410.088, -0.034650624, -0.24682395, -1146661.9, 71011.86, 0.0, 10.000566, 9.999739 
3.749972e+2, 1.8574393e+2, -1100887.1, -1221893.1, -36607.617, -0.039156556, -0.26197964, -1090674.4, 29008.107, 0.0, 10.000616, 9.999023 
3.750031e+2, 1.9574165e+2, -1101356.0, -1166300.5, -51509.61, -0.10357613, -0.41797507, -1072937.5, -51233.883, 0.0, 9.999918, 9.999072 
3.750099e+2, 2.0574187e+2, -958268.8, -962190.6, -60826.953, -0.08882809, -0.34036517, -899371.2, 24331.367, 0.0, 9.999857, 9.999834 
3.750171e+2, 2.157438e+2, -810708.6, -842288.06, -34721.152, -0.031960707, -0.15788472, -788355.56, 37330.816, 0.0, 10.000212, 9.999809 
3.7502378e+2, 2.257432e+2, -694480.8, -804907.6, -35370.074, -0.019606244, -0.15866621, -684123.1, 43567.92, 0.0, 10.000619, 9.9992075 
3.7503004e+2, 2.3574066e+2, -548284.2, -689877.06, -6597.921, -0.044042055, -0.36147392, -547977.4, 81735.28, 0.0, 10.000977, 9.99915 
3.7503728e+2, 2.4573942e+2, -423427.38, -677885.2, -9118.839, 0.027199838, -0.35051534, -423101.0, 108624.08, 0.0, 10.001592, 9.998263 
3.7504518e+2, 2.557389e+2, -224214.16, -532135.6, -11997.721, 0.1521533, -0.25037113, -223747.38, 209985.31, 0.0, 10.002292, 9.998252 
3.750516e+2, 2.6573747e+2, -96076.13, -425917.6, -5269.732, 0.11778342, -0.21207331, -95991.96, 239755.31, 0.0, 10.00255, 9.998172 
3.7505692e+2, 2.757351e+2, -25071.826, -349503.78, 25940.865, -0.0350215, -0.29110873, -23010.746, 214758.39, 0.0, 10.002388, 9.998108 
3.7506345e+2, 2.8573278e+2, 14008.489, -371114.5, -59931.547, 0.042400666, -0.2870226, 23119.303, 162912.89, 0.00000003400916, 10.002371, 9.997301 
3.7507087e+2, 2.9573053e+2, 105390.734, -268923.88, -74128.92, 0.28518304, -0.2750588, 119536.57, 161356.5, 0.000000899484, 10.002285, 9.997374 
3.7507546e+2, 3.0573002e+2, 259731.83, 41132.414, -42728.637, 0.15746032, -0.15358736, 267787.0, 267787.0, 0.000005766145, 10.002135, 9.99924 
3.7507737e+2, 3.1572774e+2, 260669.1, 130923.055, 95419.89, -0.2838599, -0.33452418, 311180.06, 311180.06, 0.000023929499, 10.001696, 10.0000725 
3.849561e+2, 1.2573725e+2, -1752032.9, -1721530.8, -54049.86, -0.04173235, -0.20932315, -1680621.5, 27125.473, 0.00012316402, 9.999627, 10.000112 
3.849648e+2, 1.3573714e+2, -1759694.0, -1649206.3, 27958.234, -0.05757877, -0.28243384, -1642534.5, -32788.395, 0.000061385945, 9.998819, 10.000341 
3.8497272e+2, 1.4573647e+2, -1665376.0, -1563049.9, -49339.95, 0.0073594544, -0.37653324, -1543134.9, -31383.387, 0.000022093489, 9.998854, 10.000221 
3.8497713e+2, 1.5573686e+2, -1478806.3, -1438327.4, -38670.215, -0.13576701, -0.38039365, -1414920.3, -1173.5449, 0.000004863891, 9.999536, 10.000078 
3.8498393e+2, 1.6573723e+2, -1360356.3, -1389039.9, 8779.195, -0.08538141, -0.320929, -1357882.5, -42137.77, 0.00000029520132, 9.999905, 9.999576 
3.8499194e+2, 1.7573752e+2, -1253486.5, -1290575.3, -13523.687, 0.04916599, -0.27825108, -1249079.1, -31333.945, 0.0, 9.999984, 9.999537 
3.849982e+2, 1.8573684e+2, -1142845.9, -1245784.4, -955.3698, 0.020645998, -0.2683577, -1142837.0, -23083.996, 0.0, 10.000334, 9.9990015 
3.8500345e+2, 1.9573516e+2, -965782.0, -1108432.5, 11332.796, -0.10236992, -0.3635266, -964887.3, 56881.773, 0.0, 10.000859, 9.999025 
3.8501003e+2, 2.0573518e+2, -858927.94, -926505.1, 16756.08, -0.08908944, -0.29619202, -855001.3, 68768.234, 0.0, 10.000597, 9.9997225 
3.8501748e+2, 2.1573634e+2, -885188.0, -893317.0, -14920.687, 0.013114009, -0.1757975, -873788.1, -48028.402, 0.0, 9.999752, 9.999691 
3.8502455e+2, 2.2573586e+2, -774117.4, -813049.2, 11838.131, 0.032522265, -0.1783415, -770800.4, -43037.063, 0.0, 9.99996, 9.999455 
3.8503128e+2, 2.35734e+2, -530747.44, -655436.2, -913.16003, -0.011834622, -0.33733234, -530740.75, 99037.17, 0.0, 10.0009985, 9.999368 
3.850388e+2, 2.4573293e+2, -453578.97, -693908.6, 9299.617, 0.03210918, -0.3158449, -453219.66, 78568.84, 0.0, 10.001405, 9.99823 
3.8504675e+2, 2.557323e+2, -358562.16, -604130.56, 10193.824, 0.13234587, -0.22955206, -358139.72, 75658.29, 0.0, 10.001399, 9.998184 
3.850535e+2, 2.6573044e+2, -216186.36, -488025.72, 11920.981, 0.103331275, -0.22681968, -215664.6, 120151.66, 0.0, 10.001738, 9.998141 
3.8505945e+2, 2.7572757e+2, -35285.72, -353290.7, -31983.666, -0.007309516, -0.3543514, -32100.826, 205741.13, 0.0, 10.002321, 9.998111 
3.8506612e+2, 2.8572544e+2, 38882.117, -361082.38, -89586.9, 0.06997764, -0.33223397, 58031.594, 197896.66, 0.000000026095549, 10.002556, 9.997279 
3.8507318e+2, 2.9572377e+2, 130076.125, -264027.28, -55626.17, 0.28427908, -0.2558383, 137777.06, 179663.66, 0.00000066980994, 10.002496, 9.997301 
3.8507766e+2, 3.0572262e+2, 282383.56, -29616.707, -39314.984, 0.14654614, -0.1529288, 287261.38, 287261.38, 0.000005131084, 10.002632, 9.998511 
3.8508075e+2, 3.1571972e+2, 398396.88, 182237.03, -51095.75, -0.15508294, -0.33525732, 409866.28, 409866.28, 0.000023471404, 10.002711, 9.999928 
3.9495677e+2, 1.2572898e+2, -1756053.0, -1711554.8, -105605.38, 0.0036955422, -0.22291802, -1625880.1, 81951.96, 0.0001272644, 9.99958, 10.000196 
3.9496267e+2, 1.3573003e+2, -1746929.0, -1611685.6, 11245.418, -0.17709799, -0.20224309, -1610757.0, -934.87744, 0.00006380605, 9.998797, 10.000603 
3.9497197e+2, 1.4573047e+2, -1621421.3, -1469822.4, -36356.19, 0.01622602, -0.2305248, -1461554.4, 50261.184, 0.000023677207, 9.998828, 10.000881 
3.949779e+2, 1.5573134e+2, -1431201.6, -1347396.0, -4644.401, -0.043860838, -0.2577733, -1347139.4, 66663.8, 0.000005569423, 9.999559, 10.000694 
3.9498508e+2, 1.6573125e+2, -1386863.1, -1430546.9, -2599.1748, 0.015155026, -0.258048, -1386709.0, -70904.51, 0.00000035120044, 9.999856, 9.999312 
3.9499277e+2, 1.7573048e+2, -1274314.9, -1320155.8, 922.716, 0.10714975, -0.29240072, -1274296.3, -56480.816, 0.0, 9.999932, 9.999359 
3.9499894e+2, 1.8573044e+2, -1110987.3, -1161008.8, 9194.742, 0.036961477, -0.2434751, -1109350.8, 10465.983, 0.0, 10.00025, 9.999627 
3.9500424e+2, 1.9573072e+2, -941377.06, -1033025.0, 37143.523, -0.13269943, -0.2033371, -928213.94, 93598.81, 0.0, 10.000759, 9.99959 
3.9501095e+2, 2.0572987e+2, -919633.9, -1025455.9, -26182.738, -0.07592606, -0.21618412, -913510.06, 10310.486, 0.0, 10.00048, 9.9991 
3.9501858e+2, 2.157281e+2, -947841.44, -985785.3, -29143.297, 0.1286791, -0.3278696, -932038.9, -106201.08, 0.0, 9.9995985, 9.999125 
3.950261e+2, 2.2572736e+2, -790724.0, -822714.1, 42392.55, 0.17090043, -0.32732615, -761409.3, -33565.63, 0.0, 9.999849, 9.999446 
3.9503342e+2, 2.357272e+2, -549674.6, -662889.6, 46634.168, 0.08270781, -0.31323782, -532939.4, 96903.73, 0.0, 10.000864, 9.999381 
3.9504018e+2, 2.4572657e+2, -442729.38, -656175.6, -1017.20215, 0.009212444, -0.26487908, -442724.53, 89125.39, 0.0, 10.001337, 9.998528 
3.9504656e+2, 2.5572544e+2, -354438.78, -576658.5, 21558.154, -0.050514396, -0.25691077, -352366.7, 81497.29, 0.0, 10.001311, 9.99842 
3.9505422e+2, 2.6572317e+2, -275416.8, -597794.75, 25331.467, -0.021190908, -0.26430514, -273438.5, 62449.258, 0.0, 10.0016775, 9.997418 
3.950628e+2, 2.7571994e+2, -89955.04, -450211.78, 348.8636, 0.07156024, -0.35529006, -89954.695, 147965.97, 0.0, 10.002241, 9.99749 
3.9506918e+2, 2.8571823e+2, 92283.06, -230289.77, -100536.78, 0.09916134, -0.31005386, 121051.77, 260990.38, 0.000000010243951, 10.002487, 9.998204 
3.9507374e+2, 2.9571766e+2, 161322.4, -170053.55, -42361.965, 0.06395744, -0.21438234, 166652.1, 208597.53, 0.0000005130985, 10.002382, 9.997998 
3.95079e+2, 3.0571502e+2, 123490.18, -357369.63, -39348.055, -0.009544069, -0.17499295, 126688.695, 126688.695, 0.0000059963604, 10.002617, 9.996269 
3.9508682e+2, 3.157116e+2, 267561.84, -75066.35, -18379.238, 0.13396068, -0.18366237, 268544.94, 268544.94, 0.000027747768, 10.002648, 9.998192 
4.049576e+2, 1.257212e+2, -1706807.0, -1680835.1, -28817.95, 0.12994258, -0.2625115, -1662212.4, 45697.117, 0.0001282802, 9.999852, 10.000292 
4.049607e+2, 1.3572276e+2, -1731264.3, -1594589.1, 11470.41, -0.24420169, -0.20263126, -1593633.3, 16261.473, 0.00006493345, 9.998851, 10.000701 
4.049709e+2, 1.4572378e+2, -1640245.4, -1468523.9, 24573.451, 0.044923987, -0.18358022, -1465076.5, 46805.914, 0.00002457309, 9.998658, 10.000968 
4.049782e+2, 1.5572445e+2, -1472812.8, -1359681.3, -14992.076, 0.051833298, -0.23915695, -1357728.3, 56143.164, 0.000005781208, 9.999231, 10.000771 
4.0498546e+2, 1.6572416e+2, -1431529.0, -1454145.6, -15360.863, 0.0874845, -0.2625206, -1423762.9, -107888.33, 0.0000003430959, 9.999563, 9.999288 
4.0499228e+2, 1.7572322e+2, -1310029.6, -1336182.5, -20300.943, 0.08369036, -0.31137922, -1298958.1, -81071.13, 0.0, 9.999684, 9.999366 
4.049987e+2, 1.8572362e+2, -1175281.4, -1135124.0, 8633.781, 0.027363095, -0.24611598, -1133346.4, -13463.135, 0.0, 9.999575, 10.000123 
4.0500504e+2, 1.9572471e+2, -1136192.6, -1078343.8, 11553.819, -0.045653693, -0.17116152, -1076121.5, -54251.414, 0.0, 9.999221, 10.000017 
4.050122e+2, 2.057236e+2, -1004229.6, -1104211.8, -14428.793, 0.025960041, -0.21246482, -1002189.0, -78309.18, 0.0, 10.000059, 9.99876 
4.0501985e+2, 2.157207e+2, -657572.8, -886695.3, -21702.979, 0.19448252, -0.4051805, -655535.1, 170372.75, 0.0, 10.001755, 9.998769 
4.0502724e+2, 2.2571975e+2, -526668.56, -717933.25, 52422.17, 0.21290384, -0.39689174, -513242.97, 214673.38, 0.0, 10.001763, 9.999243 
4.0503436e+2, 2.3572014e+2, -611296.4, -715773.7, 25119.287, 0.1141804, -0.30790994, -605570.75, 24340.986, 0.0, 10.000533, 9.999181 
4.0504116e+2, 2.4571958e+2, -578710.94, -705575.2, 418.37775, 0.032615513, -0.24940749, -578709.56, -46791.465, 0.0, 10.000332, 9.998673 
4.0504783e+2, 2.5571832e+2, -396325.63, -570841.8, -5840.3257, -0.029678205, -0.27123156, -396130.38, 37802.633, 0.0, 10.000934, 9.998633 
4.0505594e+2, 2.657165e+2, -308996.1, -581373.56, 61908.805, 0.008365007, -0.2627264, -295585.13, 40367.7, 0.0, 10.001304, 9.997707 
4.0506512e+2, 2.7571404e+2, -182584.77, -469086.13, 94523.3, 0.12355026, -0.305481, -154209.66, 83769.086, 0.0, 10.00149, 9.997717 
4.0507168e+2, 2.8571245e+2, 8958.608, -323179.7, -6126.5693, 0.12880938, -0.23410179, 9071.58, 149068.13, 0.0000000008315615, 10.002128, 9.997741 
4.0507638e+2, 2.9571146e+2, 243328.31, -177198.02, -69648.766, 0.06198773, -0.14005984, 254563.56, 296572.6, 0.0000007104038, 10.003135, 9.997583 
4.0508178e+2, 3.0570763e+2, 255905.34, -347095.2, -23009.13, -0.03880236, -0.1752465, 256782.05, 256782.05, 0.000009515816, 10.003762, 9.995792 
4.0509135e+2, 3.15704e+2, 395201.88, -87157.3, 69946.75, 0.2726549, -0.15260248, 405140.1, 405140.1, 0.000039448827, 10.003825, 9.997552 
4.149579e+2, 1.257137e+2, -1680626.1, -1642161.4, -52657.703, 0.11580335, -0.334321, -1605333.9, 102647.055, 0.0001259659, 9.99991, 10.000527 
4.149585e+2, 1.3571544e+2, -1715637.6, -1581761.3, -17900.668, -0.3816473, -0.2744974, -1579409.1, 30553.852, 0.00006410072, 9.998917, 10.000758 
4.1496915e+2, 1.4571638e+2, -1676801.5, -1538438.1, 34722.63, -0.0287826, -0.23877919, -1530213.3, -18261.332, 0.00002430965, 9.998646, 10.000491 
4.149777e+2, 1.5571629e+2, -1505466.6, -1417872.9, 18917.473, 0.053817052, -0.32599103, -1413961.9, -11.173578, 0.0000053776803, 9.999202, 10.000382 
4.1498467e+2, 1.65716e+2, -1431158.8, -1438316.6, -21796.984, 0.031461164, -0.3349766, -1412648.9, -96694.734, 0.0000002359893, 9.999497, 9.999427 
4.1499007e+2, 1.757158e+2, -1302064.5, -1314018.6, -5372.361, -0.13121815, -0.3264337, -1300004.9, -82045.74, 0.0, 9.999659, 9.99953 
4.1499704e+2, 1.8571636e+2, -1156977.9, -1081973.1, -15237.748, -0.11942272, -0.27469414, -1078995.8, 40957.28, 0.0, 9.999513, 10.000516 
4.1500545e+2, 1.9571722e+2, -1121739.0, -1029474.1, 12343.487, 0.047327146, -0.26635063, -1027851.3, -5910.4985, 0.0, 9.999147, 10.000381 
4.150134e+2, 2.0571639e+2, -1027619.44, -1130908.9, 39510.418, 0.12191437, -0.2870329, -1014239.2, -90291.73, 0.0, 9.999957, 9.9986315 
4.1502097e+2, 2.1571417e+2, -687601.4, -913000.06, 42258.17, 0.11023123, -0.39939585, -679939.2, 146030.58, 0.0, 10.001602, 9.998661 
4.150277e+2, 2.257131e+2, -574307.9, -788101.94, -4778.204, 0.06154192, -0.37618223, -574201.1, 153779.3, 0.0, 10.001637, 9.998824 
4.1503376e+2, 2.3571278e+2, -653327.56, -778927.44, -5912.017, -0.02158102, -0.31678557, -653049.9, -23066.1, 0.0, 10.000429, 9.998799 
4.1504133e+2, 2.4571204e+2, -582791.2, -701478.06, 14285.346, -0.010313529, -0.26391602, -581096.0, -49103.664, 0.0, 10.000275, 9.998726 
4.150501e+2, 2.5571084e+2, -397847.94, -555831.25, 25751.682, 0.07721852, -0.28510287, -393756.3, 40249.938, 0.0, 10.00085, 9.998776 
4.150583e+2, 2.6571023e+2, -221812.05, -388665.1, 60556.332, 0.093867384, -0.23475619, -202150.97, 133862.02, 0.0, 10.00126, 9.999049 
4.1506606e+2, 2.757099e+2, -119196.08, -314788.4, 112704.68, 0.042043284, -0.19717124, -67772.83, 170243.3, 0.0, 10.001398, 9.998819 
4.150734e+2, 2.8570813e+2, -114002.16, -582253.6, 19583.52, 0.05858423, -0.10046879, -113184.55, 26854.258, 0.00000000001177225, 10.002128, 9.99597 
4.1508058e+2, 2.9570514e+2, 125993.91, -408512.34, -22776.715, 0.1361602, -0.028825745, 126962.73, 169040.14, 0.0000013022876, 10.003068, 9.996034 
4.1508564e+2, 3.0570045e+2, 344023.22, -157134.25, -20877.06, -0.05721057, -0.14919877, 344891.4, 344891.4, 0.000014575742, 10.003739, 9.997104 
4.1509375e+2, 3.1569722e+2, 414497.56, -23103.717, 60511.984, 0.07765433, -0.21314141, 422711.06, 422711.06, 0.000055427667, 10.003726, 9.998038 
4.249571e+2, 1.2570734e+2, -1807489.0, -1696522.8, -1682.6278, 0.09913814, -0.27719438, -1696497.3, 11546.831, 0.000120138786, 9.998995, 10.000594 
4.2495808e+2, 1.3570806e+2, -1758104.8, -1619925.8, -79117.81, -0.2932816, -0.31337237, -1583977.3, 26056.938, 0.00006079175, 9.998686, 10.0006075 
4.2496908e+2, 1.4570884e+2, -1655138.0, -1558635.4, 46315.27, 0.09315749, -0.27035218, -1540004.0, -27979.176, 0.00002257458, 9.9989195, 10.000224 
4.2497677e+2, 1.557088e+2, -1469878.8, -1424010.9, 13157.267, 0.03393309, -0.32734558, -1420504.8, -6480.179, 0.0000044461326, 9.999548, 10.000174 
4.2498368e+2, 1.6570869e+2, -1396670.0, -1389942.1, -16248.195, -0.018465215, -0.32422778, -1376713.4, -60687.773, 0.00000009724189, 9.999599, 9.999706 
4.249896e+2, 1.757086e+2, -1355022.9, -1313618.6, -8137.139, -0.11416246, -0.33211657, -1312076.8, -94049.734, 0.0, 9.999181, 9.999766 
4.2499706e+2, 1.8570891e+2, -1179528.6, -1126646.4, -10704.396, -0.05968696, -0.30115163, -1124561.8, -4538.6465, 0.0, 9.9995, 10.00022 
4.2500588e+2, 1.957092e+2, -967509.25, -989449.8, -53588.29, 0.12594056, -0.31685615, -923779.9, 98237.945, 0.0, 10.000342, 10.000089 
4.2501405e+2, 2.0570852e+2, -930442.5, -1075420.3, -5350.408, 0.16249909, -0.31564984, -930245.3, -6221.3164, 0.0, 10.000592, 9.998702 
4.2502147e+2, 2.1570694e+2, -868311.6, -995146.6, -12064.408, 0.07362147, -0.36757067, -867174.25, -41133.867, 0.0, 10.000342, 9.998704 
4.2502838e+2, 2.2570598e+2, -728808.7, -854974.9, -51768.54, 0.028164698, -0.33896402, -710286.3, 17763.8, 0.0, 10.000555, 9.998878 
4.2503476e+2, 2.3570542e+2, -551451.4, -721524.2, -40725.363, 0.009157522, -0.30833608, -542202.3, 87853.016, 0.0, 10.001106, 9.998859 
4.250427e+2, 2.4570431e+2, -448209.38, -646327.7, 24777.594, 0.057321813, -0.28839755, -445157.6, 86909.37, 0.0, 10.001244, 9.998642 
4.2505184e+2, 2.557026e+2, -365850.56, -549742.5, 4796.201, 0.16519699, -0.35014588, -365725.56, 68359.81, 0.0, 10.001103, 9.998701 
4.2505962e+2, 2.6570216e+2, -277141.03, -396111.78, -8178.6055, 0.12730354, -0.28816497, -276581.44, 59509.273, 0.0, 10.000794, 9.999232 
4.2506626e+2, 2.7570254e+2, -256244.75, -356873.72, -54935.668, -0.01932164, -0.19567065, -232064.44, 6023.065, 0.0, 10.000355, 9.999038 
4.2507446e+2, 2.8570104e+2, -236070.14, -600219.5, -22121.28, 0.0073082168, -0.09982569, -234731.25, -94623.914, 0.0000000012455732, 10.001134, 9.996314 
4.2508405e+2, 2.9569793e+2, 121277.445, -370316.66, 63415.406, 0.19388807, -0.072334506, 129326.22, 171472.75, 0.0000019825331, 10.002869, 9.99639 
4.2508966e+2, 3.0569407e+2, 356458.97, -95607.76, 76724.555, -0.008500722, -0.15633963, 369125.72, 369125.72, 0.000019679212, 10.003586, 9.997599 
4.2509705e+2, 3.156914e+2, 381257.13, -18687.652, 9491.038, 0.06284436, -0.21585478, 381482.25, 381482.25, 0.00007104561, 10.003409, 9.998213 
4.349545e+2, 1.257022e+2, -1827185.5, -1712768.8, 30864.957, -0.115485385, -0.09794148, -1704973.8, 3124.3525, 0.000112459136, 9.998927, 10.0005045 
4.3495932e+2, 1.3570072e+2, -1782701.9, -1666370.5, -76738.94, -0.07020798, -0.32054096, -1628244.4, -18136.73, 0.000055857796, 9.998686, 10.000284 
4.3497038e+2, 1.4570113e+2, -1667341.1, -1580230.1, 61491.93, 0.29837427, -0.28929833, -1548430.9, -36329.33, 0.000019900395, 9.998894, 10.000093 
4.34975e+2, 1.5570201e+2, -1465979.4, -1429473.1, 46984.848, -0.1293443, -0.24287207, -1397320.4, 16772.691, 0.0000034951138, 9.999589, 10.000124 
4.3498197e+2, 1.6570213e+2, -1374163.0, -1326650.1, -42203.523, -0.17502886, -0.24021892, -1301976.3, 14113.548, 0.000000032016867, 9.99954, 10.000165 
4.3499047e+2, 1.7570168e+2, -1337918.4, -1265330.1, -9799.823, 0.030213077, -0.32946026, -1264030.4, -45940.027, 0.0, 9.999133, 10.000116 
4.3499842e+2, 1.857013e+2, -1263207.0, -1280160.8, 12049.989, 0.10268304, -0.3287279, -1256951.0, -136857.45, 0.0, 9.999414, 9.999209 
4.350061e+2, 1.9570076e+2, -1043723.4, -1127743.4, -12654.194, 0.089181066, -0.326373, -1041858.94, -19758.373, 0.0, 10.000259, 9.999179 
4.350137e+2, 2.0570005e+2, -932154.1, -1052157.5, -24621.676, 0.049673487, -0.29692292, -927298.8, -3190.0356, 0.0, 10.000477, 9.998917 
4.3502113e+2, 2.1569906e+2, -869432.94, -970753.0, -9386.6875, -0.022019785, -0.3123313, -868570.6, -42451.332, 0.0, 10.000228, 9.998925 
4.3502894e+2, 2.256985e+2, -716057.75, -798657.1, -40801.594, 0.0072720656, -0.27848017, -699302.0, 28822.066, 0.0, 10.000425, 9.999327 
4.3503705e+2, 2.3569806e+2, -540020.4, -670377.7, -12733.095, 0.107065484, -0.282325, -538788.25, 91338.12, 0.0, 10.000985, 9.9992695 
4.3504503e+2, 2.4569641e+2, -478926.63, -692880.6, 8859.069, 0.14674313, -0.32021183, -478560.4, 53581.72, 0.0, 10.00117, 9.998356 
4.3505284e+2, 2.5569373e+2, -403129.97, -605144.6, 8668.78, 0.13232076, -0.45297578, -402758.66, 31410.85, 0.0, 10.001011, 9.998363 
4.3505952e+2, 2.6569247e+2, -343489.6, -529943.5, -33303.84, 0.017167425, -0.40994152, -337719.53, -1535.0891, 0.0, 10.000773, 9.998323 
4.3506524e+2, 2.7569208e+2, -311346.94, -460043.5, -53464.59, -0.18355781, -0.30530867, -294119.4, -55927.59, 0.0, 10.000298, 9.99836 
4.350744e+2, 2.856913e+2, -79155.95, -260451.47, 35317.652, -0.13589053, -0.23516217, -72518.805, 67682.92, 0.000000012355592, 10.001087, 9.998661 
4.3508655e+2, 2.9568994e+2, 255118.89, -69521.79, 136772.2, 0.12845227, -0.263946, 305059.06, 347274.66, 0.0000027662056, 10.00278, 9.998495 
4.3509364e+2, 3.0568847e+2, 335989.3, -143774.69, 63840.59, 0.0034249618, -0.18855087, 344339.03, 344339.03, 0.000024180765, 10.003593, 9.99727 
4.3510047e+2, 3.1568632e+2, 349556.88, -69438.27, -12011.829, 0.008435782, -0.16458324, 349900.94, 349900.94, 0.00008333817, 10.003335, 9.997907 
4.4495386e+2, 1.2569505e+2, -1864394.1, -1721709.8, 87759.266, -0.04450913, -0.06515025, -1679952.9, 28214.53, 0.00010599228, 9.998643, 10.000585 
4.4495887e+2, 1.3569307e+2, -1741612.0, -1657815.8, -118108.766, 0.010828984, -0.32425314, -1574393.8, 35787.035, 0.00005101591, 9.999042, 10.000172 
4.449697e+2, 1.4569306e+2, -1622140.3, -1584571.8, 71491.94, 0.33331808, -0.31467357, -1529437.5, -17259.139, 0.000017295639, 9.999313, 9.999858 
4.4497472e+2, 1.5569396e+2, -1497224.4, -1465687.3, 20492.193, -0.10132237, -0.25009888, -1455599.0, -41429.023, 0.0000027656245, 9.999472, 9.999925 
4.4498205e+2, 1.6569386e+2, -1322874.5, -1335062.5, -86293.85, -0.13516791, -0.24760737, -1242459.8, 73709.09, 0.000000035556127, 10.0000105, 9.999895 
4.4499087e+2, 1.7569293e+2, -1119180.5, -1190051.9, -126759.28, 0.08228568, -0.35652193, -1022997.0, 195176.8, 0.0, 10.000761, 9.999851 
4.4499862e+2, 1.8569227e+2, -1087200.3, -1241477.9, -82457.53, 0.12068401, -0.34926564, -1051424.8, 68756.05, 0.0, 10.000823, 9.998789 
4.4500586e+2, 1.9569151e+2, -1067180.3, -1178782.3, -84949.63, 0.04644631, -0.32752973, -1021343.6, 848.2957, 0.0, 10.000269, 9.998818 
4.450138e+2, 2.05691e+2, -927076.3, -997200.5, -48881.973, 0.025772247, -0.28689042, -901982.0, 22216.586, 0.0, 10.00031, 9.999363 
4.4502217e+2, 2.156905e+2, -760799.56, -870301.56, -37742.086, 0.038009617, -0.29718485, -749051.4, 77151.766, 0.0, 10.000783, 9.99934 
4.4503012e+2, 2.2568996e+2, -655526.56, -773614.1, -60099.15, 0.068196684, -0.27920145, -630320.25, 97886.984, 0.0, 10.000842, 9.999304 
4.4503784e+2, 2.356892e+2, -606024.4, -707575.8, -86993.68, 0.11432456, -0.31192392, -556072.4, 74140.61, 0.0, 10.000539, 9.999235 
4.450458e+2, 2.4568792e+2, -560674.5, -721186.75, -49294.645, 0.1419664, -0.31902486, -546744.6, -14518.755, 0.0, 10.000557, 9.998453 
4.4505394e+2, 2.5568607e+2, -424906.72, -607709.6, -41287.543, 0.15281789, -0.37596044, -416014.16, 18231.604, 0.0, 10.000824, 9.998433 
4.450608e+2, 2.6568457e+2, -294297.9, -520819.22, -22847.686, 0.05315872, -0.35429424, -292016.4, 44246.2, 0.0, 10.001179, 9.998185 
4.4506666e+2, 2.7568313e+2, -121715.41, -379558.72, -6546.649, -0.13421173, -0.34022105, -121549.3, 116729.336, 0.0, 10.001653, 9.998257 
4.450758e+2, 2.856821e+2, 35067.367, -151193.61, 70227.19, -0.12283694, -0.3136444, 58577.98, 198867.28, 0.00000003062236, 10.001624, 9.99916 
4.4508803e+2, 2.9568115e+2, 45978.3, -106390.766, 11752.111, 0.09545503, -0.357666, 46879.402, 89177.51, 0.0000032986038, 10.001074, 9.999057 
4.4509664e+2, 3.056806e+2, 80024.414, -246256.25, -60032.324, 0.050438125, -0.22489104, 90719.2, 90719.2, 0.000027227657, 10.001752, 9.997446 
4.4510418e+2, 3.1567913e+2, 411901.47, 28215.408, -170454.0, 0.049787637, -0.14771347, 476687.2, 476687.2, 0.000091368296, 10.003485, 9.998498 
4.549545e+2, 1.2568566e+2, -1846366.5, -1682739.0, 141766.1, 0.096836455, -0.20040545, -1600872.9, 107381.0, 0.00010140695, 9.998646, 10.000847 
4.5495626e+2, 1.3568495e+2, -1728730.9, -1645511.4, -95817.766, -0.18316439, -0.34033605, -1582658.6, 27596.729, 0.00004730018, 9.999093, 10.000236 
4.5496675e+2, 1.4568448e+2, -1647951.5, -1627318.3, 70992.22, 0.074430056, -0.36897883, -1565896.9, -53639.418, 0.000015080613, 9.999278, 9.999578 
4.5497566e+2, 1.5568459e+2, -1523971.5, -1517895.3, 41451.89, 0.014347958, -0.3511684, -1479370.3, -65114.207, 0.0000021144335, 9.999463, 9.999569 
4.5498368e+2, 1.656838e+2, -1391963.0, -1472066.6, -70643.63, -0.0037641851, -0.34818745, -1350807.3, -34543.71, 0.00000004449902, 9.999979, 9.99897 
4.549905e+2, 1.756823e+2, -1176595.3, -1314968.6, -91087.08, -0.05830533, -0.4216915, -1131398.1, 86880.11, 0.0, 10.000776, 9.998989 
4.5499748e+2, 1.8568175e+2, -1087573.3, -1223021.1, -112752.17, -0.10330018, -0.3728329, -1023769.25, 96516.62, 0.0, 10.000748, 9.998947 
4.550048e+2, 1.9568156e+2, -1070068.6, -1159241.3, -94424.266, -0.110347204, -0.3106629, -1010233.25, 12057.913, 0.0, 10.000167, 9.998996 
4.5501393e+2, 2.0568141e+2, -897141.75, -908622.4, -42602.45, -0.014158305, -0.27629566, -859894.6, 64398.098, 0.0, 10.000192, 10.0000305 
4.5502424e+2, 2.1568118e+2, -738717.3, -788696.0, -10209.457, 0.1485759, -0.32726654, -736712.2, 89579.92, 0.0, 10.000629, 9.999972 
4.5503163e+2, 2.2568034e+2, -708514.0, -855284.75, -79664.21, 0.117631845, -0.34171835, -673585.94, 54713.52, 0.0, 10.000715, 9.99881 
4.5503676e+2, 2.3567888e+2, -649427.3, -774941.4, -84877.16, -0.06815979, -0.39587265, -606625.94, 23688.62, 0.0, 10.000437, 9.998823 
4.5504466e+2, 2.456788e+2, -542021.6, -658064.1, -48606.62, -0.051280152, -0.28818953, -524352.25, 7965.85, 0.0, 10.000461, 9.998934 
4.5505473e+2, 2.5567958e+2, -404477.97, -540009.1, -20437.018, 0.12668423, -0.12947142, -401463.28, 32851.582, 0.0, 10.000717, 9.998954 
4.5506313e+2, 2.6567838e+2, -265860.13, -446465.0, -13095.872, 0.14690353, -0.13015924, -264915.47, 71410.664, 0.0, 10.001115, 9.998724 
4.550701e+2, 2.7567557e+2, -108124.28, -329571.84, 22302.26, 0.022017453, -0.3090234, -105900.52, 132448.8, 0.0, 10.00156, 9.998641 
4.550784e+2, 2.8567356e+2, -57113.332, -332835.4, 40458.402, -0.052412953, -0.33474535, -51299.223, 89070.625, 0.000000022691747, 10.001577, 9.997937 
4.5508823e+2, 2.9567164e+2, -31411.35, -258718.88, 8589.768, -0.025097482, -0.3502583, -31087.21, 11305.54, 0.0000033720132, 10.001023, 9.998044 
4.550984e+2, 3.0567053e+2, 126397.1, -146532.44, 1274.589, 0.023312092, -0.26783916, 126403.055, 126403.055, 0.000028360193, 10.001746, 9.998129 
4.5510772e+2, 3.1566963e+2, 497649.28, 222478.11, -105996.23, 0.0018401733, -0.20023917, 533744.44, 533744.44, 0.00009465621, 10.003412, 9.999869 
4.6495384e+2, 1.2567537e+2, -1911494.9, -1753493.3, 182124.17, 0.19011396, -0.3413471, -1633973.8, 74374.24, 0.000096649455, 9.998339, 10.00051 
4.6495548e+2, 1.3567561e+2, -1651724.1, -1647883.5, -174666.58, -0.19288816, -0.35512722, -1475126.6, 135216.98, 0.00004344866, 9.999764, 9.999903 
4.6496528e+2, 1.4567491e+2, -1538883.9, -1591587.8, -22714.379, -0.03687704, -0.38269827, -1530445.5, -18096.135, 0.000012657647, 10.000095, 9.999432 
4.6497586e+2, 1.5567449e+2, -1515850.1, -1530021.8, -65828.945, 0.088339135, -0.40456644, -1456726.8, -42373.723, 0.0000014631825, 9.999589, 9.999428 
4.649845e+2, 1.6567372e+2, -1452033.1, -1504610.4, -83295.57, 0.10732074, -0.39177448, -1390976.3, -74615.055, 0.000000030371112, 9.999604, 9.9989195 
4.649912e+2, 1.7567253e+2, -1291871.3, -1373266.9, -62729.508, -0.02446424, -0.43018574, -1257794.0, -39419.63, 0.0, 10.000009, 9.998958 
4.6499783e+2, 1.8567216e+2, -1126726.8, -1210877.0, -56994.156, -0.113488965, -0.3753947, -1097959.4, 22420.46, 0.0, 10.000332, 9.999239 
4.6500474e+2, 1.9567218e+2, -1000026.25, -1099209.4, -44449.887, -0.1452778, -0.32173356, -983021.2, 39360.656, 0.0, 10.000517, 9.999251 
4.650139e+2, 2.0567203e+2, -897590.75, -935182.1, 1394.9388, -0.030676901, -0.2891025, -897539.06, 26844.121, 0.0, 10.000284, 9.99981 
4.650247e+2, 2.1567158e+2, -885572.7, -885774.6, -56730.62, 0.18488584, -0.3383168, -828942.94, -2557.4136, 0.0, 9.999719, 9.999752 
4.6503228e+2, 2.2567068e+2, -791385.5, -864569.2, -91363.9, 0.15142877, -0.36239433, -729558.2, -1164.8782, 0.0, 10.000037, 9.999058 
4.650374e+2, 2.3566927e+2, -543764.5, -698354.06, -64284.613, -0.074685, -0.43742338, -520525.75, 109881.31, 0.0, 10.001075, 9.999031 
4.6504533e+2, 2.4566928e+2, -391931.1, -610698.7, -18122.154, -0.07964165, -0.3175236, -390440.06, 141969.97, 0.0, 10.001589, 9.998718 
4.6505553e+2, 2.5567025e+2, -276148.22, -497037.38, -59748.043, 0.093333855, -0.120432995, -261022.75, 173383.55, 0.0, 10.001678, 9.998782 
4.6506462e+2, 2.6566917e+2, -183549.69, -380211.4, -74552.305, 0.1685581, -0.115733884, -158482.8, 177933.5, 0.0, 10.001547, 9.99898 
4.650727e+2, 2.7566636e+2, -147080.02, -324625.78, -79063.68, 0.15075651, -0.3212724, -116976.12, 121462.125, 0.0, 10.001175, 9.998869 
4.6508065e+2, 2.8566444e+2, -122494.09, -390236.4, -5191.019, 0.040900737, -0.33399838, -122393.484, 18064.148, 0.00000001636591, 10.001233, 9.997714 
4.650892e+2, 2.9566282e+2, 61493.66, -225695.88, 9735.02, -0.058131233, -0.3008857, 61823.273, 104302.055, 0.0000038591365, 10.001713, 9.997937 
4.651005e+2, 3.0566102e+2, 185402.22, -136100.14, 61069.363, 0.043821737, -0.27866787, 196611.52, 196611.52, 0.000029778155, 10.002214, 9.9979925 
4.6511063e+2, 3.1566033e+2, 378548.06, 158212.23, -144685.23, 0.002105479, -0.16403487, 450233.9, 450233.9, 0.00009717631, 10.002636, 9.999804 
4.7495106e+2, 1.2566394e+2, -1983194.6, -1872675.5, 237556.73, 0.017936364, -0.49665853, -1684035.9, 24415.678, 0.0000915649, 9.998242, 9.999724 
4.749562e+2, 1.3566503e+2, -1694208.6, -1729296.5, -113607.03, -0.12732111, -0.36464655, -1596798.9, 13646.825, 0.000038474074, 9.999759, 9.999332 
4.7496495e+2, 1.456644e+2, -1535957.3, -1591502.6, -52246.207, -0.11686131, -0.3579058, -1504560.9, 7893.1323, 0.000009911169, 10.000103, 9.999437 
4.7497484e+2, 1.5566365e+2, -1499896.4, -1513411.3, -71946.5, -0.0011670266, -0.41375735, -1434390.8, -19929.559, 0.0000009593812, 9.999641, 9.999525 
4.7498423e+2, 1.6566353e+2, -1401768.1, -1387817.5, -78527.04, 0.09567287, -0.38515228, -1315956.5, 505.97083, 0.000000014696447, 9.999555, 9.999745 
4.749926e+2, 1.7566353e+2, -1240540.1, -1259410.5, -35452.586, 0.091085084, -0.38283956, -1213288.6, 5174.312, 0.0, 9.99998, 9.999755 
4.749994e+2, 1.856635e+2, -1101023.4, -1141753.3, -57504.094, -0.01574676, -0.356563, -1060384.6, 60078.54, 0.0, 10.000261, 9.999751 
4.7500533e+2, 1.9566336e+2, -979953.5, -1046327.3, -27581.096, -0.1607192, -0.36960497, -969988.5, 52475.68, 0.0, 10.000462, 9.999646 
4.750135e+2, 2.0566283e+2, -994047.9, -1109389.1, -28907.705, -0.120603085, -0.33027807, -987208.4, -62738.027, 0.0, 10.000179, 9.998661 
4.7502324e+2, 2.1566184e+2, -974800.8, -1041563.8, -63324.125, 0.04643258, -0.3201427, -936598.3, -110116.234, 0.0, 9.999596, 9.998739 
4.7503173e+2, 2.25661e+2, -736576.4, -733875.1, -61107.066, 0.068297386, -0.34188393, -674103.75, 54384.887, 0.0, 9.999951, 10.000005 
4.7503933e+2, 2.3566017e+2, -502978.34, -586618.5, -16919.967, -0.01138827, -0.4489732, -499685.2, 130806.9, 0.0, 10.00095, 9.999865 
4.750474e+2, 2.4565926e+2, -465312.34, -742441.25, -23669.367, -0.0480347, -0.416382, -463305.28, 69197.36, 0.0, 10.001499, 9.997856 
4.75056e+2, 2.556581e+2, -350811.28, -631944.44, -46622.79, -0.05172737, -0.34681848, -343281.1, 91239.37, 0.0, 10.001582, 9.997906 
4.7506496e+2, 2.6565692e+2, -192679.86, -380897.03, -96235.74, 0.026525255, -0.3103787, -152186.27, 184347.17, 0.0, 10.001476, 9.999005 
4.7507402e+2, 2.7565545e+2, -151369.83, -315831.25, -79124.79, 0.14361541, -0.37841982, -119483.836, 119061.3, 0.0, 10.001107, 9.99896 
4.750823e+2, 2.8565472e+2, -74347.305, -288761.6, 125.77614, 0.05845758, -0.3166845, -74347.23, 66205.76, 0.0000000367379, 10.001224, 9.998416 
4.7509053e+2, 2.956544e+2, 88576.4, -149625.31, 37702.39, -0.12195465, -0.22402927, 94401.46, 136960.19, 0.000004901276, 10.001614, 9.998514 
4.751026e+2, 3.0565178e+2, 113064.16, -267680.56, 65171.652, 0.013421501, -0.2652698, 123910.53, 123910.53, 0.000032907166, 10.002141, 9.997121 
4.7511214e+2, 3.156511e+2, 266738.4, -63484.805, -73454.24, -0.16482851, -0.058571253, 282340.28, 282340.28, 0.00010232853, 10.002593, 9.998299 
4.8494947e+2, 1.2565325e+2, -1814730.0, -1800969.8, 241917.28, -0.0079341605, -0.5138677, -1565834.8, 142719.48, 0.00008664265, 9.999423, 9.999659 
4.8495683e+2, 1.3565443e+2, -1786294.5, -1768240.6, -110374.97, 0.0056287763, -0.37378114, -1666524.1, -55974.758, 0.000032757685, 9.9990835, 9.999406 
4.8496425e+2, 1.4565408e+2, -1665693.9, -1620441.5, -6545.424, -0.13563965, -0.3607627, -1619513.8, -106957.86, 0.000007215262, 9.999083, 9.9997225 
4.8497435e+2, 1.556538e+2, -1528956.4, -1497755.4, -36419.664, 0.0077394447, -0.39501724, -1473735.6, -59176.8, 0.00000059770906, 9.999328, 9.999777 
4.849838e+2, 1.6565411e+2, -1388745.6, -1333591.4, -17823.086, 0.1101413, -0.35857248, -1328333.1, -11777.624, 0.0000000048834687, 9.999432, 10.000178 
4.8499212e+2, 1.7565456e+2, -1299323.6, -1240341.5, -19627.922, 0.08175537, -0.35864708, -1234406.9, -15856.013, 0.0, 9.999381, 10.000165 
4.8499963e+2, 1.8565466e+2, -1178010.0, -1190826.8, -50690.78, 0.013021852, -0.33483568, -1133324.1, -12774.4375, 0.0, 9.99979, 9.999634 
4.850069e+2, 1.9565439e+2, -981843.4, -1054766.0, -87081.11, -0.044923827, -0.35218006, -923898.44, 98653.734, 0.0, 10.0005, 9.999557 
4.8501492e+2, 2.0565344e+2, -878869.5, -1083935.6, -67700.63, -0.03617299, -0.33561435, -858535.2, 66026.66, 0.0, 10.001094, 9.998404 
4.850235e+2, 2.1565175e+2, -711942.3, -941676.2, -46238.32, 0.022022998, -0.37070462, -702985.2, 123594.125, 0.0, 10.001517, 9.998502 
4.8503205e+2, 2.2565097e+2, -559935.4, -703362.1, -47091.742, 0.037986282, -0.35031354, -545855.75, 182730.75, 0.0, 10.001399, 9.999518 
4.8504055e+2, 2.3565073e+2, -545539.3, -657366.06, -128588.46, 0.027800128, -0.34962398, -461233.9, 169353.42, 0.0, 10.000864, 9.999422 
4.8504904e+2, 2.4564935e+2, -535425.7, -744107.2, -111647.875, 0.00048209692, -0.35756642, -486952.03, 45649.367, 0.0, 10.000878, 9.998144 
4.8505753e+2, 2.5564697e+2, -375959.1, -612453.25, -70509.555, -0.03197512, -0.43570507, -356532.75, 78094.05, 0.0, 10.001283, 9.99818 
4.8506653e+2, 2.656458e+2, -183796.03, -409153.84, -81152.17, 0.029901076, -0.3970633, -157614.55, 179025.52, 0.0, 10.0016775, 9.998712 
4.850757e+2, 2.756452e+2, -25557.244, -283339.4, -106742.39, 0.15674841, -0.35157406, 12904.1455, 251551.38, 0.0, 10.002091, 9.998708 
4.8508406e+2, 2.8564465e+2, 62584.016, -195011.84, -35276.953, 0.075319596, -0.27147526, 67327.73, 207981.0, 0.00000008825205, 10.002045, 9.998662 
4.8509222e+2, 2.956443e+2, 98866.35, -118473.66, -57821.73, -0.103890434, -0.20488301, 113291.93, 155948.27, 0.0000056092463, 10.001576, 9.99874 
4.8510504e+2, 3.0564156e+2, 74996.55, -249508.23, 52896.348, 0.07769889, -0.28466195, 83401.3, 83401.3, 0.000035389916, 10.00172, 9.9974375 
4.8511493e+2, 3.1564075e+2, 231742.66, -105972.61, 2777.0605, -0.12878211, -0.12651794, 231765.48, 231765.48, 0.00010599746, 10.002453, 9.998071 
4.9494827e+2, 1.2564331e+2, -1767086.6, -1709144.5, 169409.31, -0.13141836, -0.38802174, -1566246.9, 142409.31, 0.000079155536, 9.999459, 10.000266 
4.9495694e+2, 1.3564385e+2, -1729112.8, -1655183.1, -111907.516, 0.08125523, -0.38784188, -1574293.5, 36360.863, 0.000026309019, 9.9991045, 10.000171 
4.9496284e+2, 1.4564398e+2, -1640014.6, -1556122.1, -8234.054, -0.21650101, -0.39107186, -1555321.6, -42666.63, 0.0000047383246, 9.999037, 10.000185 
4.9497396e+2, 1.5564495e+2, -1499550.0, -1438378.6, -17230.408, 0.0063715843, -0.34350643, -1433859.3, -19213.53, 0.0000002991547, 9.999334, 10.000181 
4.9498287e+2, 1.6564551e+2, -1384345.1, -1319836.1, -31208.22, 0.049036868, -0.3068315, -1307209.6, 9430.361, 0.0000000005507737, 9.999405, 10.00029 
4.949895e+2, 1.7564555e+2, -1294716.9, -1230887.8, -11068.874, -0.14492479, -0.35953912, -1229022.8, -10383.965, 0.0, 9.999375, 10.000237 
4.9499828e+2, 1.8564549e+2, -1237656.3, -1298350.9, -33591.508, -0.12235271, -0.31528723, -1222733.9, -102093.32, 0.0, 9.999723, 9.998927 
4.950091e+2, 1.9564517e+2, -1033962.94, -1149797.0, -53243.027, 0.0998664, -0.2661324, -1013208.44, 9438.215, 0.0, 10.000436, 9.998939 
4.950179e+2, 2.056438e+2, -840032.25, -979480.0, -62502.156, 0.1325153, -0.30665252, -816118.9, 108539.74, 0.0, 10.000987, 9.999175 
4.9502516e+2, 2.156414e+2, -686718.94, -867670.7, -22748.277, 0.012372616, -0.48707014, -683902.94, 142773.8, 0.0, 10.001411, 9.999068 
4.9503282e+2, 2.2564055e+2, -715405.56, -995191.3, -74863.03, -0.046133224, -0.3956812, -696633.7, 32054.068, 0.0, 10.001274, 9.99757 
4.950408e+2, 2.3564081e+2, -685821.75, -916458.0, -134479.44, -0.059666883, -0.15148506, -623987.44, 6706.6616, 0.0, 10.0007305, 9.997705 
4.9504983e+2, 2.4563955e+2, -445920.03, -538441.56, -104278.58, -0.031143313, -0.14698702, -378101.5, 154605.22, 0.0, 10.000797, 9.999595 
4.9505976e+2, 2.556368e+2, -295138.06, -426529.88, -44302.703, 0.03437075, -0.40057403, -281595.84, 153130.67, 0.0, 10.001204, 9.9994955 
4.9506894e+2, 2.656357e+2, -233984.39, -497763.9, -76926.97, 0.07888224, -0.38688216, -213189.28, 123548.54, 0.0, 10.001616, 9.998131 
4.9507728e+2, 2.7563554e+2, -83320.55, -373411.13, -81252.55, 0.08003746, -0.24437034, -62112.68, 176632.48, 0.0, 10.00197, 9.998144 
4.9508545e+2, 2.8563443e+2, 41285.152, -222836.55, -59221.2, -0.014347574, -0.18522386, 53955.84, 194712.56, 0.00000018947561, 10.00198, 9.998499 
4.9509394e+2, 2.9563266e+2, 86217.08, -138194.2, -58153.953, -0.122882396, -0.23748025, 100391.766, 143162.42, 0.000005650319, 10.001553, 9.998614 
4.9510768e+2, 3.0563045e+2, 184477.25, -30885.156, 72161.94, 0.1421435, -0.33912086, 206420.83, 206420.83, 0.00003451672, 10.001743, 9.998934 
4.9511796e+2, 3.156296e+2, 285761.3, 27371.453, 93607.0, -0.12824975, -0.3396575, 316108.22, 316108.22, 0.00010176044, 10.002351, 9.999038 
5.049478e+2, 1.2563269e+2, -2025046.5, -1756770.0, 170098.13, -0.017318826, -0.34139693, -1674283.1, 34482.293, 0.00006651573, 9.997386, 10.000934 
5.0495684e+2, 1.3563393e+2, -1703608.3, -1568834.9, -102552.13, 0.18240027, -0.33709377, -1513510.9, 97243.44, 0.00001955312, 9.99896, 10.000841 
5.0496125e+2, 1.4563446e+2, -1579865.1, -1485358.5, -8846.526, -0.28042093, -0.3481708, -1484537.5, 28211.582, 0.0000028130235, 9.999286, 10.000546 
5.049734e+2, 1.5563536e+2, -1593550.1, -1447549.8, -53767.758, 0.06351442, -0.34153655, -1429885.8, -15146.232, 0.00000011765629, 9.998555, 10.000486 
5.049829e+2, 1.6563585e+2, -1459752.0, -1382107.1, -32601.795, 0.13521457, -0.31277165, -1370233.9, -53499.3, 0.000000000026416515, 9.998995, 10.000057 
5.049897e+2, 1.7563581e+2, -1175717.4, -1202170.0, -60640.4, -0.107100144, -0.346726, -1126877.6, 91857.58, 0.0, 10.000305, 9.999989 
5.049987e+2, 1.8563564e+2, -1117776.4, -1261089.4, -70440.37, -0.09617565, -0.29387477, -1088951.6, 31787.596, 0.0, 10.000639, 9.99874 
5.0500983e+2, 1.956352e+2, -1079709.1, -1188288.6, -66570.15, 0.14828967, -0.23763295, -1048097.94, -25350.777, 0.0, 10.000209, 9.998776 
5.05019e+2, 2.0563383e+2, -910925.5, -1001292.8, -56723.688, 0.1766748, -0.27369082, -883589.25, 41169.203, 0.0, 10.000455, 9.999274 
5.050266e+2, 2.156316e+2, -727608.4, -874444.6, -91724.95, 0.03652788, -0.4462295, -683537.44, 143236.34, 0.0, 10.001098, 9.999162 
5.0503445e+2, 2.2563042e+2, -684323.94, -998159.4, -92476.53, -0.016510287, -0.3851578, -659101.4, 69686.055, 0.0, 10.001552, 9.997424 
5.050427e+2, 2.3562989e+2, -542291.9, -859747.56, -36895.35, 0.008574938, -0.20621152, -538060.25, 92740.8, 0.0, 10.001773, 9.997591 
5.050517e+2, 2.4562888e+2, -293044.56, -453424.47, 28213.932, 0.02981682, -0.17655596, -288225.97, 244585.22, 0.0, 10.001796, 9.999699 
5.050614e+2, 2.5562724e+2, -212315.42, -376509.16, -28553.783, 0.05814248, -0.3339407, -207491.56, 227329.42, 0.0, 10.001729, 9.999586 
5.0507057e+2, 2.6562604e+2, -210383.36, -509713.28, -62254.492, 0.07484375, -0.32261822, -197951.98, 138881.3, 0.0, 10.001878, 9.997929 
5.050791e+2, 2.756249e+2, -76106.266, -393839.53, -68268.52, 0.06421488, -0.25198874, -62059.05, 176790.66, 0.00000000061010413, 10.002117, 9.997937 
5.0508773e+2, 2.856233e+2, 113616.57, -183899.03, -12945.288, -0.0012602216, -0.2341403, 114178.77, 255044.39, 0.00000027597625, 10.002459, 9.99854 
5.0509685e+2, 2.9562145e+2, 280474.63, -41898.75, -23817.736, -0.04874298, -0.3012617, 282224.84, 325104.78, 0.0000049916057, 10.002879, 9.998641 
5.0511e+2, 3.056199e+2, 206601.55, 35378.516, 61319.11, 0.21625182, -0.35789692, 226296.08, 226296.08, 0.000030276777, 10.001668, 9.999427 
5.0511867e+2, 3.156195e+2, -151892.06, -121557.586, 12227.307, -0.11943862, -0.3698238, -117242.73, -117242.73, 0.000090633286, 9.99909, 9.999586 
5.149469e+2, 1.256213e+2, -1978707.6, -1657189.1, 117731.14, 0.10070426, -0.37555033, -1618689.4, 90192.914, 0.00005196835, 9.997376, 10.001616 
5.1495636e+2, 1.3562469e+2, -1654070.6, -1478762.1, -30306.701, 0.21032892, -0.22322093, -1473670.8, 137177.77, 0.000013925394, 9.999012, 10.001433 
5.1495934e+2, 1.456256e+2, -1564509.5, -1457364.4, -48441.633, -0.4389812, -0.2317966, -1438710.8, 74126.59, 0.000001645238, 9.999296, 10.000737 
5.1497227e+2, 1.5562499e+2, -1582858.0, -1426938.6, -64870.85, 0.07359596, -0.39828873, -1403478.6, 11361.672, 0.00000003629146, 9.998558, 10.00063 
5.149834e+2, 1.6562507e+2, -1514035.0, -1478531.9, 9968.812, 0.26301974, -0.38493288, -1475924.3, -159084.05, 0.0, 9.998929, 9.999422 
5.149922e+2, 1.7562544e+2, -1221578.8, -1288905.0, -4541.346, 0.0888499, -0.3181055, -1221273.8, -2433.6143, 0.0, 10.000273, 9.999404 
5.150004e+2, 1.8562524e+2, -1099707.0, -1213187.4, -97549.625, -0.011345482, -0.25893846, -1043596.0, 77248.3, 0.0, 10.000591, 9.999092 
5.150088e+2, 1.9562443e+2, -1063130.3, -1150262.1, -69075.484, -0.0052032517, -0.2756309, -1025029.7, -2176.0815, 0.0, 10.000179, 9.999057 
5.1501787e+2, 2.0562345e+2, -976217.9, -1106928.9, -41789.945, 0.00044096456, -0.25119796, -963999.25, -39136.76, 0.0, 10.00033, 9.998606 
5.1502746e+2, 2.1562219e+2, -778801.94, -955210.56, -58755.4, -0.004465692, -0.2639425, -761024.2, 65848.17, 0.0, 10.000981, 9.998664 
5.1503676e+2, 2.2562039e+2, -584593.75, -762707.0, -95604.63, 0.038942646, -0.33109537, -542993.1, 185894.44, 0.0, 10.001429, 9.999102 
5.1504576e+2, 2.3561797e+2, -455078.1, -650899.44, -19845.482, 0.12013231, -0.50709194, -453087.1, 177821.3, 0.0, 10.001654, 9.9990835 
5.1505417e+2, 2.4561743e+2, -384956.8, -627952.7, 15481.012, 0.074984446, -0.43666556, -383974.5, 148939.84, 0.0, 10.001725, 9.998533 
5.1506203e+2, 2.556182e+2, -303640.34, -540389.06, -17456.6, -0.075881355, -0.23912501, -302360.1, 132550.03, 0.0, 10.0016165, 9.998514 
5.150711e+2, 2.656168e+2, -212577.2, -499415.9, -61854.05, -0.08290134, -0.20349403, -199807.45, 137118.8, 0.0, 10.001817, 9.998031 
5.150809e+2, 2.756133e+2, -77948.81, -382548.47, -42988.402, 0.00826757, -0.3763717, -71998.08, 166963.5, 0.0000000018853024, 10.002049, 9.998052 
5.150906e+2, 2.8561133e+2, 125233.46, -153873.38, -6017.673, 0.012142666, -0.41277024, 125363.15, 266343.3, 0.00000034894228, 10.002432, 9.998758 
5.1510036e+2, 2.9561058e+2, 276764.38, -32694.41, -624.65216, -0.017783705, -0.39863044, 276765.63, 319751.06, 0.000004315403, 10.002799, 9.998744 
5.151116e+2, 3.0560988e+2, 168920.9, -31407.57, -41261.945, 0.1857933, -0.3461172, 177086.83, 177086.83, 0.000026122347, 10.001631, 9.998983 
5.151166e+2, 3.1560987e+2, -161092.34, -117699.016, -3091.846, -0.28460875, -0.2737828, -117479.82, -117479.82, 0.000081293096, 9.999002, 9.999655 
5.249447e+2, 1.2561184e+2, -1781841.0, -1571987.5, 135568.88, 0.09016837, -0.31351346, -1505483.4, 203494.78, 0.000041741798, 9.998752, 10.001536 
5.249562e+2, 1.3561466e+2, -1765090.8, -1539273.9, -6394.003, 0.34029573, -0.21191524, -1539093.0, 71856.16, 0.000010470756, 9.998273, 10.001371 
5.249589e+2, 1.4561543e+2, -1647534.4, -1507597.4, -44644.98, -0.37433514, -0.22987589, -1494567.4, 18372.264, 0.0000009776196, 9.998766, 10.0006485 
5.2497154e+2, 1.556149e+2, -1397992.6, -1346444.1, -108610.58, 0.08791386, -0.37838665, -1260591.4, 154350.64, 0.000000005050013, 9.999854, 10.000558 
5.2498287e+2, 1.6561505e+2, -1383432.6, -1396776.6, 12214.338, 0.2834754, -0.36262804, -1376186.8, -59246.13, 0.0, 9.999743, 9.9995985 
5.249922e+2, 1.756155e+2, -1433105.5, -1371262.1, 36459.457, 0.1537144, -0.30231276, -1354377.5, -135439.31, 0.0, 9.998734, 9.999586 
5.250008e+2, 1.8561517e+2, -1271692.3, -1279630.6, -787.14014, 0.036508404, -0.27299908, -1271615.0, -150672.45, 0.0, 9.999337, 9.999248 
5.250092e+2, 1.9561404e+2, -919777.6, -1060365.6, -11450.13, -0.021472257, -0.33418036, -918851.2, 104102.36, 0.0, 10.001094, 9.999229 
5.250185e+2, 2.0561324e+2, -800484.6, -1044414.5, 30581.664, -0.025478864, -0.29001325, -796709.0, 128252.586, 0.0, 10.001617, 9.99842 
5.250285e+2, 2.1561252e+2, -771461.9, -968277.4, 30886.28, 0.003530364, -0.2312169, -766728.7, 60240.348, 0.0, 10.001098, 9.998518 
5.25038e+2, 2.2561084e+2, -666241.5, -748793.56, -27708.965, 0.06862639, -0.3046519, -657803.4, 71178.64, 0.0, 10.000651, 9.999563 
5.250471e+2, 2.3560813e+2, -631779.44, -694272.56, -63923.582, 0.16785887, -0.55407417, -591874.25, 39127.76, 0.0, 10.000262, 9.999458 
5.250555e+2, 2.4560745e+2, -582396.6, -771632.8, -5743.934, 0.106171995, -0.49275216, -582222.44, -49212.914, 0.0, 10.000576, 9.998104 
5.250634e+2, 2.5560823e+2, -357300.56, -609495.0, -7798.701, -0.08341724, -0.2510227, -357059.63, 77948.836, 0.0, 10.001433, 9.998132 
5.2507263e+2, 2.6560694e+2, -187759.86, -442346.3, -3255.4167, -0.09844324, -0.20616059, -187718.23, 149305.31, 0.0, 10.001797, 9.998425 
5.2508295e+2, 2.7560377e+2, -86934.945, -339781.66, 15675.056, 0.026458405, -0.39043516, -85966.89, 153086.81, 0.00000000009174081, 10.001805, 9.998448 
5.250926e+2, 2.8560212e+2, -18966.324, -229453.23, 65060.56, 0.026276743, -0.40865234, -479.98767, 140589.47, 0.00000033351301, 10.0014715, 9.998696 
5.251017e+2, 2.9560167e+2, -16507.393, -182331.14, 19165.387, -0.052168496, -0.35912284, -14321.143, 28753.475, 0.0000041082662, 10.000819, 9.998666 
5.251125e+2, 3.0560106e+2, 48513.355, -83279.11, -16237.642, 0.15881594, -0.29592612, 50484.453, 50484.453, 0.000024723933, 10.000772, 9.999044 
5.2511764e+2, 3.1560132e+2, 135642.16, 40242.395, 40449.367, -0.16350728, -0.20007077, 150483.7, 150483.7, 0.00007789345, 10.000977, 9.999787 
5.349403e+2, 1.2560411e+2, -1821006.4, -1668348.5, -41518.75, -0.2955804, -0.1720025, -1657787.1, 51267.668, 0.000035627574, 9.99883, 10.000833 
5.34956e+2, 1.356038e+2, -1817607.4, -1646997.9, -10535.452, 0.4674658, -0.3050996, -1646349.8, -35292.934, 0.000008273398, 9.9982605, 10.000647 
5.349596e+2, 1.456039e+2, -1681418.1, -1564374.4, -10964.549, -0.21645524, -0.3384449, -1563356.0, -50299.95, 0.00000061502607, 9.998712, 10.000279 
5.349709e+2, 1.5560515e+2, -1420877.9, -1392813.5, -61383.34, 0.005557913, -0.27495992, -1343878.9, 71165.54, 0.00000000036285042, 9.999849, 10.000241 
5.34981e+2, 1.6560584e+2, -1322817.3, -1262815.1, -39509.156, 0.09905687, -0.2378918, -1243207.4, 73828.27, 0.0, 9.999708, 10.000536 
5.349897e+2, 1.7560598e+2, -1371395.9, -1244931.3, 14960.359, -0.0067883558, -0.30251563, -1243185.6, -24155.445, 0.0, 9.998735, 10.000457 
5.3499943e+2, 1.8560535e+2, -1282904.0, -1290647.1, 56544.574, -0.05516501, -0.34222785, -1230098.5, -109064.05, 0.0, 9.999287, 9.999193 
5.350107e+2, 1.9560388e+2, -934640.8, -1077983.0, 60709.824, -0.007488769, -0.43082848, -912384.1, 110664.24, 0.0, 10.001029, 9.999144 
5.350206e+2, 2.0560315e+2, -793930.56, -999225.44, 920.6513, -0.002853641, -0.39654467, -793926.44, 131130.11, 0.0, 10.001489, 9.998787 
5.350294e+2, 2.1560279e+2, -768719.06, -935838.94, 20836.451, -0.0392078, -0.33873707, -766160.4, 60901.64, 0.0, 10.000979, 9.998797 
5.3503793e+2, 2.2560187e+2, -740533.75, -877646.0, -52773.23, -0.02002393, -0.30328017, -722574.2, 6495.834, 0.0, 10.000539, 9.998735 
5.350464e+2, 2.3560034e+2, -700538.1, -809462.94, -65644.25, 0.046858337, -0.3545431, -669705.0, -38623.11, 0.0, 10.000143, 9.998723 
5.350556e+2, 2.4559882e+2, -576133.5, -741903.7, 18233.168, 0.030576859, -0.35633123, -574151.7, -41054.188, 0.0, 10.000506, 9.998342 
5.3506523e+2, 2.555971e+2, -352308.88, -579727.44, 35285.44, -0.06438976, -0.38556662, -346959.9, 88157.69, 0.0, 10.0013485, 9.998378 
5.35075e+2, 2.6559633e+2, -144780.52, -342131.06, -12385.83, -0.06963281, -0.33582816, -144006.2, 193119.83, 0.0, 10.001745, 9.999138 
5.350847e+2, 2.7559608e+2, -52675.676, -251806.95, 27519.973, -0.0060702357, -0.30348784, -48942.402, 190185.28, 0.0, 10.001722, 9.999099 
5.3509337e+2, 2.8559548e+2, -47045.61, -280611.13, 31270.344, -0.0701137, -0.23180754, -42931.523, 98203.95, 0.00000019037492, 10.001443, 9.998358 
5.3510094e+2, 2.9559448e+2, -47460.62, -229271.3, 11954.485, -0.24377058, -0.19867224, -46677.953, -3528.3284, 0.0000040138116, 10.000742, 9.998383 
5.351123e+2, 3.0559328e+2, 78933.336, -21002.676, -12094.5, 0.040093962, -0.20584622, 80376.21, 80376.21, 0.000024880646, 10.000769, 9.999475 
5.351208e+2, 3.1559357e+2, 146159.98, 55537.637, 102192.56, -0.008825001, -0.15239973, 212636.2, 212636.2, 0.00007745561, 10.000985, 9.999894 
5.4493856e+2, 1.2559538e+2, -2195381.0, -1869826.1, -44812.76, -0.22198822, -0.18052675, -1863770.4, -154632.28, 0.000030309948, 9.996353, 10.000669 
5.4495496e+2, 1.3559465e+2, -1655151.9, -1581798.0, 101844.54, 0.4924708, -0.34089816, -1510227.5, 100916.875, 0.000006366235, 9.999444, 10.000525 
5.449595e+2, 1.4559448e+2, -1521009.1, -1550418.3, 97760.33, -0.158825, -0.36104143, -1436853.6, 76293.81, 0.00000037085837, 10.000071, 9.999733 
5.449702e+2, 1.5559593e+2, -1603784.0, -1533865.0, 7929.4478, 0.010937626, -0.22743598, -1532977.0, -117840.16, 0.00000000007720086, 9.998818, 9.999772 
5.4498017e+2, 1.6559638e+2, -1402114.4, -1305433.5, 23515.26, 0.078346, -0.19142048, -1300017.4, 17113.375, 0.0, 9.999201, 10.00048 
5.449892e+2, 1.7559594e+2, -1073142.3, -1103482.3, -20186.93, -0.014635243, -0.30784005, -1063060.8, 156068.89, 0.0, 10.000814, 10.00042 
5.449998e+2, 1.855953e+2, -1073513.0, -1181825.9, 6819.063, -0.018463934, -0.34734493, -1073085.4, 48047.707, 0.0, 10.000668, 9.999286 
5.4501164e+2, 1.9559442e+2, -1198554.4, -1193033.9, 3852.1287, 0.09071127, -0.39027354, -1191055.1, -167913.63, 0.0, 9.99915, 9.999264 
5.4502165e+2, 2.0559384e+2, -1129178.0, -1147083.3, -30867.719, 0.08467172, -0.3519672, -1105990.8, -180842.2, 0.0, 9.999131, 9.998912 
5.4503024e+2, 2.1559326e+2, -876336.06, -975039.4, -46656.676, -0.012353148, -0.3249235, -857772.9, -30616.078, 0.0, 10.0001955, 9.998905 
5.4503876e+2, 2.255924e+2, -672105.06, -895287.0, -94455.1, -0.023169717, -0.2667299, -637496.5, 91669.72, 0.0, 10.001218, 9.998289 
5.450474e+2, 2.3559108e+2, -430604.4, -727171.75, -102951.37, 0.040374286, -0.25221044, -398369.28, 232809.52, 0.0, 10.002198, 9.998303 
5.450569e+2, 2.4558939e+2, -349518.13, -595754.44, -2205.7751, 0.043535426, -0.26641083, -349498.38, 183697.05, 0.0, 10.001908, 9.998665 
5.450668e+2, 2.5558728e+2, -434170.25, -583146.5, -2071.8557, -0.007253358, -0.37254256, -434141.44, 1075.4141, 0.0, 10.000642, 9.998689 
5.4507655e+2, 2.6558653e+2, -344498.66, -431799.44, -34177.742, -0.013237176, -0.33673167, -332710.13, 4514.054, 0.0, 10.00035, 9.999192 
5.4508626e+2, 2.7558663e+2, -170753.14, -299497.72, -64763.99, 0.028070342, -0.27235198, -143811.88, 95410.97, 0.0, 10.000871, 9.999183 
5.4509455e+2, 2.8558633e+2, -87348.05, -271676.97, -60520.49, -0.072721146, -0.18732993, -69253.64, 71974.04, 0.00000011177434, 10.0010605, 9.998603 
5.451014e+2, 2.9558563e+2, 13055.671, -165297.8, -57977.9, -0.28217253, -0.14713542, 30245.88, 73483.84, 0.0000045059896, 10.00104, 9.998667 
5.4511297e+2, 3.0558437e+2, 133169.3, -16283.032, -42533.047, 0.015856922, -0.1669006, 144426.03, 144426.03, 0.000026381855, 10.00123, 9.999282 
5.4512316e+2, 3.155832e+2, 142509.86, 11779.135, 1156.4741, 0.13237724, -0.23894542, 142520.1, 142520.1, 0.00007890932, 10.001153, 9.999504 
5.549384e+2, 1.2558582e+2, -2160368.3, -1789553.6, -71613.63, 0.07849649, -0.31239903, -1776203.8, -66977.4, 0.000026661139, 9.99634, 10.001215 
5.549529e+2, 1.3558719e+2, -1624788.8, -1519702.0, 218137.38, 0.3196054, -0.31172276, -1347869.1, 263342.47, 0.0000052899522, 9.999449, 10.000952 
5.549584e+2, 1.455872e+2, -1565408.3, -1641199.4, 37449.973, -0.30726025, -0.30223772, -1550025.6, -36811.703, 0.00000021782215, 10.000067, 9.999112 
5.549692e+2, 1.5558723e+2, -1646993.9, -1630522.6, -19679.111, -0.00013892066, -0.24371119, -1617425.4, -202206.25, 0.00000000000011946363, 9.9988365, 9.999108 
5.5498e+2, 1.6558662e+2, -1481480.4, -1463522.9, 75052.2, 0.1114328, -0.22577412, -1396914.3, -79688.07, 0.0, 9.999178, 9.999403 
5.5499077e+2, 1.7558524e+2, -1149337.5, -1255145.6, 44413.87, 0.032460332, -0.32662937, -1133166.0, 86071.375, 0.0, 10.000785, 9.999394 
5.550013e+2, 1.8558505e+2, -1063239.0, -1143033.3, -60914.383, 0.055128496, -0.2912701, -1030318.9, 90919.55, 0.0, 10.000593, 9.99959 
5.550119e+2, 1.9558564e+2, -1187943.4, -1160332.6, -37198.504, 0.1770048, -0.21381155, -1134460.4, -111227.46, 0.0, 9.999095, 9.999523 
5.550215e+2, 2.0558529e+2, -1148661.3, -1162402.8, 603.43823, 0.13948613, -0.16064939, -1148634.8, -223396.8, 0.0, 9.999029, 9.998852 
5.550305e+2, 2.1558395e+2, -899935.2, -996323.5, 4978.0127, -0.02478501, -0.20415944, -899678.75, -72425.055, 0.0, 10.000072, 9.99882 
5.5504006e+2, 2.2558232e+2, -701014.0, -921816.44, -66792.086, -0.042987224, -0.21130747, -682381.8, 46889.723, 0.0, 10.001079, 9.998172 
5.5505e+2, 2.3558034e+2, -458622.88, -749864.44, -58302.633, 0.05170039, -0.25093433, -447385.1, 183907.16, 0.0, 10.002048, 9.998218 
5.550591e+2, 2.4557924e+2, -336604.94, -550737.44, -58109.17, 0.05009152, -0.22045131, -321852.22, 211450.27, 0.0, 10.0018215, 9.9990225 
5.550674e+2, 2.5557864e+2, -423514.2, -541815.8, -34077.004, -0.028134251, -0.2107088, -414400.34, 20906.184, 0.0, 10.000554, 9.999018 
5.5507696e+2, 2.655774e+2, -387843.8, -513720.78, -23861.406, -0.026447957, -0.21344693, -383472.4, -46154.02, 0.0, 10.000318, 9.998644 
5.550874e+2, 2.755754e+2, -218657.66, -382599.63, -34666.83, 0.029761944, -0.30062774, -211628.47, 27710.732, 0.0, 10.000799, 9.998648 
5.5509585e+2, 2.8557467e+2, -37544.566, -161596.23, -71726.9, -0.069225915, -0.2704268, -4744.494, 136601.48, 0.00000024371042, 10.001028, 9.999378 
5.551025e+2, 2.95575e+2, 57446.73, -64600.254, -43413.53, -0.30248052, -0.21053156, 71313.836, 114655.34, 0.0000058589785, 10.000993, 9.999389 
5.55114e+2, 3.055742e+2, 76170.26, -125130.195, -49817.56, -0.03124551, -0.1779399, 87824.336, 87824.336, 0.000029984647, 10.001195, 9.998547 
5.5512416e+2, 3.1557024e+2, 71818.695, -122491.79, 36481.234, 0.06623238, -0.4566784, 78442.164, 78442.164, 0.00008416486, 10.001089, 9.998615 
5.6493664e+2, 1.2557518e+2, -1798228.1, -1648680.6, -178603.02, 0.15714176, -0.3941176, -1529830.6, 179497.06, 0.000022362967, 9.998954, 10.0009165 
5.6495154e+2, 1.3557719e+2, -1714706.5, -1587000.3, 84719.48, 0.27193996, -0.31101653, -1544765.6, 66543.13, 0.000004259607, 9.998925, 10.000734 
5.64959e+2, 1.4557733e+2, -1651774.8, -1675149.8, -122821.336, -0.20874266, -0.28074312, -1540086.0, -26775.363, 0.00000013010742, 9.999439, 9.999185 
5.649691e+2, 1.5557721e+2, -1398128.1, -1496439.1, -147850.11, 0.032498084, -0.24462104, -1291476.4, 123840.61, 0.0, 10.000499, 9.999222 
5.6497985e+2, 1.6557649e+2, -1290413.8, -1414438.4, 50472.613, 0.117701106, -0.22434153, -1272469.8, 44855.91, 0.0, 10.000651, 9.99904 
5.6499165e+2, 1.7557496e+2, -1271904.9, -1349853.1, 53834.625, 0.078933716, -0.3090403, -1244417.4, -25077.729, 0.0, 10.000087, 9.99908 
5.650022e+2, 1.8557458e+2, -1125839.9, -1189022.3, -56328.76, 0.10361154, -0.2694507, -1092848.4, 28495.264, 0.0, 10.000243, 9.999434 
5.650119e+2, 1.95575e+2, -936451.56, -1048034.6, -81535.84, 0.18728188, -0.19636491, -893446.4, 129894.42, 0.0, 10.000875, 9.999422 
5.6502134e+2, 2.0557468e+2, -854341.9, -1000362.44, 364.7882, 0.12681259, -0.14625, -854341.0, 71004.39, 0.0, 10.000961, 9.999034 
5.6503063e+2, 2.1557358e+2, -813721.7, -928808.75, 3763.1304, -0.033440735, -0.18372585, -813598.8, 13758.647, 0.0, 10.000564, 9.999041 
5.650408e+2, 2.2557223e+2, -753733.56, -918474.8, -10233.515, -0.03465004, -0.18719047, -753100.3, -23728.016, 0.0, 10.000592, 9.998428 
5.650518e+2, 2.355705e+2, -605124.75, -790504.2, 4605.195, 0.09759955, -0.22826424, -605010.4, 26380.744, 0.0, 10.000915, 9.998479 
5.650611e+2, 2.4556972e+2, -410186.0, -585383.0, -13246.364, 0.10002461, -0.17990176, -409190.13, 124208.98, 0.0, 10.001338, 9.999005 
5.650689e+2, 2.5556937e+2, -227750.84, -451639.66, -41760.9, 0.0013824269, -0.13861285, -220215.03, 215186.06, 0.0, 10.001925, 9.998976 
5.650779e+2, 2.655682e+2, -191746.38, -412887.34, 4687.333, -0.025531009, -0.13636018, -191647.06, 145765.1, 0.0, 10.0016365, 9.9987 
5.650878e+2, 2.755662e+2, -236679.42, -378907.22, 19938.824, 0.004159289, -0.23441976, -233937.08, 5494.8037, 0.0, 10.000637, 9.998741 
5.6509674e+2, 2.8556484e+2, -137483.42, -221835.3, 11063.515, -0.04044806, -0.26787454, -136056.47, 5387.1587, 0.00000046127252, 10.000371, 9.999287 
5.651049e+2, 2.9556406e+2, 10344.778, -103368.59, -41541.7, -0.14054759, -0.30606914, 23903.969, 67352.46, 0.000007820285, 10.000721, 9.999258 
5.651161e+2, 3.055638e+2, 56737.04, -166081.11, -35566.41, 0.070556, -0.19916081, 62276.465, 62276.465, 0.00003595913, 10.001197, 9.998262 
5.6512475e+2, 3.1556055e+2, 142946.58, -65455.582, 56595.438, 0.00753834, -0.38251504, 157324.2, 157324.2, 0.000094486146, 10.001486, 9.99881 
5.749326e+2, 1.2556328e+2, -1874060.0, -1808657.6, -270848.75, -0.20742488, -0.44376865, -1568543.0, 140900.72, 0.000015098279, 9.998971, 9.999803 
5.7495034e+2, 1.3556443e+2, -1774663.5, -1720297.0, 88586.97, 0.23003092, -0.3463845, -1654816.4, -43378.418, 0.0000026568694, 9.998951, 9.999808 
5.749611e+2, 1.4556475e+2, -1597040.4, -1552924.4, -100075.19, 0.031653747, -0.2993822, -1472505.1, 40934.02, 0.000000050157187, 9.999411, 10.000033 
5.7496965e+2, 1.5556577e+2, -1343404.5, -1378703.0, -99919.625, 0.01162245, -0.23343632, -1259587.4, 155844.42, 0.0, 10.000483, 10.00004 
5.749796e+2, 1.6556591e+2, -1262716.9, -1345462.8, 16149.591, 0.0028402137, -0.193386, -1259676.6, 57753.71, 0.0, 10.000602, 9.999534 
5.749914e+2, 1.7556505e+2, -1246863.8, -1294512.0, 45400.74, 0.020384705, -0.2573138, -1219416.0, 20.5208, 0.0, 10.000068, 9.999471 
5.750019e+2, 1.8556398e+2, -1170548.8, -1269837.6, -40234.363, 0.02551352, -0.27701855, -1156291.9, -34844.13, 0.0, 10.000196, 9.9988985 
5.750114e+2, 1.9556251e+2, -982265.6, -1124388.9, -48602.84, 0.014140493, -0.336964, -967234.3, 56231.004, 0.0, 10.000797, 9.998935 
5.750208e+2, 2.0556203e+2, -839140.9, -943254.2, -26238.795, -0.043530468, -0.30375278, -832902.0, 92568.72, 0.0, 10.000848, 9.999481 
5.750304e+2, 2.1556218e+2, -801989.9, -875609.94, -240.59573, -0.14001603, -0.26075217, -801989.1, 25478.672, 0.0, 10.000434, 9.999471 
5.7504106e+2, 2.2556211e+2, -720917.1, -823640.9, -7540.9263, -0.09371185, -0.19427788, -720366.5, 9102.318, 0.0, 10.000473, 9.999139 
5.750526e+2, 2.3556164e+2, -577939.06, -706390.2, 28901.443, 0.06493574, -0.17948444, -571735.8, 59739.3, 0.0, 10.000792, 9.999119 
5.750625e+2, 2.4556078e+2, -449699.56, -658519.7, -2375.5786, 0.08392632, -0.14292666, -449672.56, 83813.09, 0.0, 10.001286, 9.998534 
5.7507086e+2, 2.555594e+2, -270565.22, -519828.06, -10621.179, -0.01768431, -0.15632065, -270113.47, 165387.86, 0.0, 10.001827, 9.998559 
5.750791e+2, 2.6555887e+2, -147531.58, -316437.22, -43131.242, -0.09537693, -0.10653586, -137155.17, 200350.56, 0.0, 10.001606, 9.999383 
5.75087e+2, 2.7555877e+2, -198863.28, -292314.47, -7449.8794, -0.16312529, -0.083284445, -198273.11, 41229.96, 0.0, 10.000586, 9.999368 
5.750968e+2, 2.8555667e+2, -199493.4, -341877.75, 11176.834, -0.09658016, -0.18141092, -198621.39, -57099.355, 0.0000006054728, 10.000334, 9.99848 
5.751081e+2, 2.9555288e+2, -55842.832, -225977.17, -12864.305, 0.075110175, -0.43837234, -54875.625, -11316.509, 0.000009307056, 10.00066, 9.998444 
5.751191e+2, 3.0555323e+2, 61168.15, -154919.94, -29217.553, 0.22571743, -0.23417911, 65048.992, 65048.992, 0.000040671366, 10.001186, 9.998351 
5.751245e+2, 3.1555343e+2, 211409.06, 90027.17, 115443.086, -0.218236, -0.0829811, 281142.4, 281142.4, 0.000103750725, 10.00142, 9.999921 
5.849325e+2, 1.2555286e+2, -1721692.3, -1773849.4, -258699.81, -0.16039565, -0.3710485, -1487759.9, 221789.63, 0.000008007214, 10.0001545, 9.999483 
5.8494806e+2, 1.3555303e+2, -1729995.8, -1719141.1, 138953.44, 0.10128846, -0.3498495, -1585509.0, 26043.525, 0.0000012151539, 9.999346, 9.999629 
5.8496106e+2, 1.4555326e+2, -1633089.9, -1544764.1, 27237.74, 0.11092798, -0.31128195, -1537040.1, -23486.75, 0.000000012980553, 9.999065, 10.000243 
5.8496976e+2, 1.555547e+2, -1442585.4, -1399215.1, -49041.605, 0.022708388, -0.23028062, -1367278.3, 48262.676, 0.0, 9.999694, 10.000266 
5.8497965e+2, 1.6555505e+2, -1329575.8, -1356218.6, 18544.928, -0.015767038, -0.19217098, -1320063.6, -2526.208, 0.0, 10.000045, 9.99973 
5.849916e+2, 1.7555426e+2, -1223875.3, -1258523.5, 8617.337, 0.035016924, -0.26782626, -1221850.4, -2306.9932, 0.0, 10.000115, 9.999693 
5.8500224e+2, 1.8555361e+2, -1166267.6, -1256830.6, -18684.646, 0.04809421, -0.26296455, -1162564.1, -41012.99, 0.0, 10.0001745, 9.999004 
5.8501184e+2, 1.955528e+2, -1064495.5, -1155668.5, -561.7145, 0.023210712, -0.26577514, -1064492.0, -40929.47, 0.0, 10.00019, 9.999021 
5.850216e+2, 2.0555209e+2, -898492.44, -991800.9, 31702.588, -0.028643189, -0.24937232, -888740.4, 36829.57, 0.0, 10.000525, 9.999301 
5.8503157e+2, 2.155513e+2, -713749.75, -852714.44, -7632.472, -0.09591306, -0.28460503, -713331.8, 114243.98, 0.0, 10.001118, 9.999302 
5.850421e+2, 2.2555111e+2, -628501.8, -759448.6, -44637.64, -0.056910295, -0.22980152, -614733.25, 114843.98, 0.0, 10.001041, 9.999305 
5.8505315e+2, 2.3555118e+2, -614727.0, -709455.8, -72415.09, 0.06246484, -0.17451228, -575562.0, 56015.477, 0.0, 10.000479, 9.999253 
5.850631e+2, 2.4555045e+2, -600938.94, -724333.4, -62538.832, 0.07820932, -0.13369307, -574786.0, -41199.324, 0.0, 10.00021, 9.998598 
5.8507216e+2, 2.5554895e+2, -487274.75, -612953.56, -51840.332, 0.009870034, -0.17201352, -468651.22, -33046.926, 0.0, 10.000291, 9.99865 
5.8508056e+2, 2.655483e+2, -317970.34, -398175.47, -95150.65, -0.046990555, -0.13921572, -254816.61, 82793.65, 0.0, 10.000451, 9.999372 
5.850884e+2, 2.7554804e+2, -175957.66, -284275.25, -129712.04, -0.088885024, -0.12364434, -89551.914, 150057.06, 0.0, 10.000771, 9.999331 
5.850981e+2, 2.8554642e+2, -91959.29, -302599.78, -62486.188, -0.036104735, -0.16593206, -74817.8, 66806.23, 0.00000055145284, 10.001129, 9.998363 
5.8510935e+2, 2.9554355e+2, 45647.53, -192939.22, -60588.293, 0.106433384, -0.3170209, 60151.953, 103804.97, 0.000008783807, 10.001423, 9.998303 
5.851203e+2, 3.0554307e+2, 76167.33, -155571.31, -48482.42, 0.23476276, -0.18588597, 85901.53, 85901.53, 0.000039667964, 10.001321, 9.998277 
5.851264e+2, 3.1554294e+2, 148886.53, 100830.11, 63325.15, -0.13133778, -0.06956418, 192588.89, 192588.89, 0.00010388018, 10.000821, 10.000268 
5.94936e+2, 1.2554376e+2, -1662857.9, -1659773.3, -300001.63, 0.114528686, -0.18239515, -1361310.0, 348336.94, 0.0000033727015, 10.000207, 10.000233 
5.9494454e+2, 1.3554302e+2, -1687278.8, -1629137.0, 110645.81, -0.21408331, -0.32288185, -1543806.8, 67845.36, 0.00000044999516, 9.99935, 10.000242 
5.949585e+2, 1.455429e+2, -1667643.1, -1610080.4, 33125.137, -0.08615635, -0.32421872, -1594979.6, -81326.375, 0.000000014541682, 9.999038, 9.999806 
5.9496903e+2, 1.5554395e+2, -1475215.1, -1465789.9, -16313.334, -0.048337694, -0.2381067, -1453522.1, -37877.402, 0.0, 9.999685, 9.999816 
5.949798e+2, 1.6554391e+2, -1338739.1, -1365057.3, 10240.193, -0.03506211, -0.21313295, -1335224.3, -17577.799, 0.0, 10.000007, 9.999688 
5.9499186e+2, 1.7554265e+2, -1226128.3, -1256052.5, 21755.559, 0.027845303, -0.33340326, -1214686.5, 4973.478, 0.0, 10.000089, 9.9997225 
5.9500295e+2, 1.8554345e+2, -1121379.0, -1152705.1, -29910.94, 0.07639186, -0.22392091, -1103278.3, 18375.736, 0.0, 10.000126, 9.999744 
5.95013e+2, 1.9554576e+2, -1031599.25, -1067368.5, 10796.217, 0.098118365, 0.011030094, -1028593.25, -4959.7227, 0.0, 10.000106, 9.999666 
5.9502333e+2, 2.0554483e+2, -964510.9, -1106196.5, 43737.734, 0.06750727, 0.013924076, -952096.9, -26453.408, 0.0, 10.000426, 9.998566 
5.950338e+2, 2.1554103e+2, -782807.3, -966487.6, 24326.111, 0.0012555491, -0.24714889, -779640.25, 48040.3, 0.0, 10.000992, 9.998584 
5.950438e+2, 2.2553934e+2, -670835.3, -829943.06, -76797.56, -0.020766888, -0.28605723, -639814.9, 89881.89, 0.0, 10.000955, 9.998867 
5.950531e+2, 2.3553914e+2, -658412.9, -776119.75, -81515.46, -0.0130319875, -0.21467717, -616725.3, 14972.981, 0.0, 10.000367, 9.998854 
5.950627e+2, 2.455387e+2, -563690.1, -637168.6, -68707.21, -0.015590855, -0.15939929, -522516.28, 11186.214, 0.0, 10.000157, 9.999227 
5.950723e+2, 2.5553796e+2, -458227.03, -534623.25, -39408.516, -0.02791222, -0.18550147, -441542.3, -5832.2603, 0.0, 10.000208, 9.999229 
5.950819e+2, 2.6553646e+2, -372488.4, -501765.25, -94223.875, 0.02146326, -0.22469689, -322862.8, 14862.081, 0.0, 10.000411, 9.998681 
5.9509134e+2, 2.7553415e+2, -231261.58, -384864.0, -104263.76, 0.10979478, -0.34899053, -178566.23, 61182.043, 0.0, 10.000708, 9.998673 
5.951003e+2, 2.8553414e+2, -62584.363, -231545.97, -60499.473, 0.041726723, -0.22260399, -43155.63, 98593.15, 0.0000003359344, 10.00109, 9.998866 
5.9510845e+2, 2.9553595e+2, 66882.36, -125599.586, -40551.047, -0.15432401, 0.038193017, 75076.59, 118808.15, 0.000006914508, 10.00133, 9.998804 
5.9511966e+2, 3.0553326e+2, 55262.113, -192962.63, -75961.24, 0.009483875, -0.06233522, 76662.6, 76662.6, 0.000035638073, 10.001289, 9.99804 
5.951293e+2, 3.155291e+2, 122017.79, 59041.664, 103073.52, 0.020858407, -0.31965724, 198305.64, 198305.64, 0.00009897654, 10.000762, 10.0000105 
6.04938e+2, 1.2553328e+2, -1678205.4, -1663334.3, -241184.23, 0.304968, -0.121388234, -1429471.0, 280284.6, 0.0000011596172, 10.000073, 10.000289 
6.049438e+2, 1.355329e+2, -1559795.9, -1559853.3, 18977.176, -0.256978, -0.22657965, -1540847.4, 70907.984, 0.00000014603442, 10.000214, 10.000293 
6.0495865e+2, 1.4553265e+2, -1528102.0, -1546680.9, -7557.8438, -0.013187397, -0.23941034, -1525415.9, -11659.376, 0.0000000031309833, 10.000003, 9.999786 
6.049689e+2, 1.5553284e+2, -1413516.1, -1436478.4, -50310.7, -0.038998935, -0.23535654, -1373393.3, 42362.34, 0.0, 10.000105, 9.999823 
6.049796e+2, 1.6553281e+2, -1360319.3, -1359346.8, -1559.0156, -0.04229942, -0.21730797, -1358199.9, -40442.926, 0.0, 9.999784, 9.999837 
6.049916e+2, 1.7553231e+2, -1368148.5, -1309524.9, 3789.6704, 0.05290421, -0.274754, -1309280.9, -89517.57, 0.0, 9.999048, 9.999861 
6.0500306e+2, 1.8553312e+2, -1182695.5, -1149149.4, -2775.2073, 0.11515345, -0.18585703, -1148921.4, -27165.115, 0.0, 9.999569, 10.000035 
6.0501385e+2, 1.9553481e+2, -866937.1, -957074.7, -17547.484, 0.12710169, -0.04432993, -863641.56, 160098.3, 0.0, 10.001103, 9.999946 
6.0502446e+2, 2.0553413e+2, -847949.9, -1062213.3, 15363.731, 0.10624712, -0.023897905, -846853.8, 78894.01, 0.0, 10.001283, 9.998458 
6.0503507e+2, 2.1553127e+2, -886532.0, -1027161.5, 21209.123, 0.069486536, -0.1783001, -883402.94, -55624.902, 0.0, 10.000323, 9.998489 
6.050448e+2, 2.2552958e+2, -739953.6, -849216.8, -1829.9424, 0.024864005, -0.21795765, -739923.0, -10128.891, 0.0, 10.00043, 9.998981 
6.050538e+2, 2.3552865e+2, -496701.16, -679693.7, 13192.566, -0.028182492, -0.23329489, -495754.94, 136045.67, 0.0, 10.00142, 9.998996 
6.050632e+2, 2.4552795e+2, -413138.38, -578925.0, 9770.534, -0.03328389, -0.2015281, -412564.56, 121242.125, 0.0, 10.001285, 9.999073 
6.0507274e+2, 2.5552732e+2, -461321.0, -555986.5, -40090.79, 0.0011175387, -0.19728716, -446624.25, -10810.279, 0.0, 10.00029, 9.999043 
6.050827e+2, 2.6552588e+2, -397170.47, -548013.06, -47975.46, 0.066364266, -0.20796159, -383204.88, -45374.992, 0.0, 10.00037, 9.998392 
6.0509276e+2, 2.7552357e+2, -164497.56, -383240.94, -50019.008, 0.15955429, -0.30265358, -153602.61, 86252.336, 0.0, 10.00128, 9.998415 
6.0510194e+2, 2.8552336e+2, -7329.4014, -211616.02, -13381.028, 0.085343055, -0.18207502, -6456.656, 135401.02, 0.00000016006682, 10.001498, 9.998809 
6.051101e+2, 2.9552475e+2, 43593.34, -141979.06, -59104.258, -0.11344307, 0.04672376, 60818.92, 104662.02, 0.0000052467194, 10.001188, 9.998764 
6.051204e+2, 3.055216e+2, 37548.797, -203735.94, -87639.28, -0.023481037, -0.09984921, 66021.234, 66021.234, 0.000031333126, 10.001188, 9.998013 
6.051306e+2, 3.155181e+2, 148575.73, 4311.309, 79771.28, 0.056366652, -0.28023842, 183991.25, 183991.25, 0.00009226463, 10.001225, 9.999426 
6.149378e+2, 1.255216e+2, -1714598.4, -1738381.6, -190873.69, 0.2272266, -0.17510799, -1535246.3, 174627.44, 0.000000319301, 10.000081, 9.9997635 
6.149455e+2, 1.3552275e+2, -1605157.0, -1655086.8, 26972.809, -0.13377506, -0.056391735, -1593369.0, 18492.496, 0.000000018009526, 10.000226, 9.999631 
6.149613e+2, 1.455225e+2, -1499123.3, -1492755.8, -25231.361, 0.21985574, -0.05576452, -1470508.1, 43354.906, 0.0, 10.000021, 10.000149 
6.149692e+2, 1.5552132e+2, -1380738.6, -1380213.1, -38943.734, -0.05016341, -0.22788641, -1341531.3, 74342.48, 0.0, 10.000138, 10.000198 
6.1497855e+2, 1.6552173e+2, -1343046.8, -1312872.0, -40197.96, -0.14228651, -0.20330691, -1285023.3, 32845.91, 0.0, 9.999745, 10.0001745 
6.1499053e+2, 1.755232e+2, -1351426.0, -1271404.6, -8326.231, 0.014274603, -0.094735146, -1270547.5, -50693.016, 0.0, 9.99903, 10.000133 
6.150024e+2, 1.8552262e+2, -1202490.0, -1173389.8, 45808.066, 0.06684552, -0.15141018, -1139876.5, -18018.016, 0.0, 9.999496, 9.999901 
6.15014e+2, 1.9552012e+2, -884054.1, -979049.44, 47650.285, 0.01332208, -0.41664276, -864271.94, 159608.0, 0.0, 10.001041, 9.999826 
6.150248e+2, 2.0552015e+2, -826210.9, -993579.7, -30808.451, -0.008955629, -0.34440604, -820719.94, 105161.15, 0.0, 10.001182, 9.998977 
6.1503506e+2, 2.155221e+2, -870679.75, -964904.3, -1611.6464, 0.009771684, -0.072638534, -870652.2, -42784.316, 0.0, 10.000193, 9.998982 
6.150451e+2, 2.2552188e+2, -710617.3, -761151.2, 27111.113, -0.01698433, -0.022621533, -698824.44, 31044.818, 0.0, 10.000309, 9.999645 
6.150548e+2, 2.3551977e+2, -476172.03, -604338.6, 57701.023, -0.08498603, -0.22351289, -454022.66, 177861.48, 0.0, 10.001278, 9.999582 
6.150642e+2, 2.4551821e+2, -493425.1, -728918.1, -40621.434, -0.07605883, -0.2550422, -486615.03, 47284.484, 0.0, 10.001207, 9.998082 
6.150732e+2, 2.5551695e+2, -537901.6, -701332.3, -64720.008, -0.011109542, -0.21399415, -515376.47, -79459.45, 0.0, 10.000226, 9.998078 
6.150825e+2, 2.655164e+2, -394729.16, -533055.7, -22880.855, -0.0059766723, -0.09688174, -391042.63, -53116.652, 0.0, 10.000329, 9.998514 
6.150922e+2, 2.7551615e+2, -174784.75, -378392.88, -5201.113, -0.04904091, 0.0030275406, -174651.98, 65278.18, 0.0, 10.001171, 9.998497 
6.1510277e+2, 2.85514e+2, -56142.98, -303705.22, -35980.457, -0.006222386, -0.043029796, -51019.645, 90931.19, 0.00000012615395, 10.001453, 9.998198 
6.151136e+2, 2.955103e+2, -5781.4375, -224577.88, -55704.305, 0.08807247, -0.26912552, 7584.1, 51568.797, 0.000004351736, 10.001106, 9.998232 
6.151223e+2, 3.0550817e+2, 39603.996, -198515.31, -92163.734, 0.020461183, -0.2899838, 71107.8, 71107.8, 0.000027327982, 10.001176, 9.998063 
6.151293e+2, 3.1551015e+2, 71786.37, -131201.89, 125931.695, -0.25233045, 0.081774086, 132032.31, 132032.31, 0.00008384043, 10.001128, 9.998543 
6.2493765e+2, 1.2551092e+2, -1484034.1, -1620025.3, -70295.24, 0.14560714, -0.19736843, -1454229.9, 255749.5, 0.00000004128188, 10.001605, 9.999858 
6.249457e+2, 1.3551207e+2, -1701179.8, -1700940.9, 69029.4, -0.09277411, -0.076093584, -1632030.8, -20064.469, 0.000000000001578113, 9.999551, 9.999652 
6.2496203e+2, 1.4551185e+2, -1718924.8, -1602203.4, 106968.555, 0.3703153, -0.07124671, -1538710.8, -24743.24, 0.0, 9.998527, 10.000121 
6.249693e+2, 1.55511e+2, -1534313.4, -1448941.3, 48659.08, 0.0029773617, -0.21040682, -1426898.6, -10923.145, 0.0, 9.999088, 10.000218 
6.2497807e+2, 1.6551138e+2, -1372279.4, -1330441.9, 21197.137, -0.14493142, -0.1884144, -1321579.5, -3608.6685, 0.0, 9.999565, 10.000135 
6.249897e+2, 1.7551251e+2, -1241922.9, -1218027.9, -451.4029, -0.0012394206, -0.11268503, -1218019.4, 1939.0614, 0.0, 9.9998, 10.000118 
6.250018e+2, 1.8551171e+2, -1167378.1, -1191761.8, 91970.695, 0.04607993, -0.1748846, -1086794.8, 35169.992, 0.0, 9.999869, 9.999603 
6.2501407e+2, 1.9550903e+2, -1092038.0, -1105468.8, 61837.82, -0.017636891, -0.42907256, -1036551.94, -12563.025, 0.0, 9.999721, 9.999593 
6.2502515e+2, 2.0550917e+2, -995162.75, -1039160.25, -45165.87, -0.022426018, -0.35466024, -966923.06, -40933.992, 0.0, 9.999859, 9.999307 
6.250355e+2, 2.1551135e+2, -845762.3, -910202.3, -46079.984, 0.04415214, -0.09117874, -821755.2, 6216.758, 0.0, 10.00019, 9.999355 
6.250456e+2, 2.2551133e+2, -736055.9, -771869.9, -6916.9224, 0.023374017, -0.043722026, -734766.44, -4794.7505, 0.0, 10.00012, 9.999664 
6.2505543e+2, 2.3550923e+2, -701742.9, -715652.4, -43924.555, -0.06753406, -0.24015138, -664225.9, -32238.477, 0.0, 9.999721, 9.9995775 
6.2506497e+2, 2.4550793e+2, -624979.9, -786427.7, -101837.25, -0.075711355, -0.25103107, -575753.1, -41752.094, 0.0, 10.00026, 9.998154 
6.2507397e+2, 2.5550705e+2, -325803.5, -589892.7, -68289.195, -0.018837294, -0.1764441, -309190.13, 126824.234, 0.0, 10.001635, 9.998167 
6.250833e+2, 2.6550657e+2, -213694.3, -450269.2, 6090.3804, -0.020886578, -0.05742741, -213537.61, 124484.695, 0.0, 10.001588, 9.998472 
6.2509274e+2, 2.75506e+2, -298142.94, -443824.5, -11236.07, -0.06594497, 0.012040747, -297281.44, -57252.457, 0.0, 10.0003395, 9.998447 
6.251034e+2, 2.8550348e+2, -236939.47, -396441.9, 17633.713, -0.017447041, -0.06279704, -235013.25, -92959.88, 0.000000116905284, 10.000241, 9.998149 
6.2511474e+2, 2.954994e+2, -5833.025, -234747.14, 12511.061, 0.09640843, -0.31482142, -5151.2764, 38940.574, 0.000004287332, 10.001132, 9.998164 
6.2512314e+2, 3.0549824e+2, 95857.586, -103331.92, 17335.434, -0.0030061756, -0.2713778, 97355.03, 97355.03, 0.000025852014, 10.001288, 9.998652 
6.2513113e+2, 3.155008e+2, 29579.285, -108833.01, 226617.11, -0.1477458, 0.09608574, 197322.1, 197322.1, 0.00007870898, 10.000663, 9.998915 
6.3493735e+2, 1.2550105e+2, -1415734.5, -1495436.0, -96991.05, -0.11493704, -0.19469002, -1350726.6, 359347.44, 0.000000010756334, 10.00168, 10.000677 
6.349439e+2, 1.355007e+2, -1657082.8, -1609308.5, -10587.811, -0.24471174, -0.295468, -1607067.1, 5004.2983, 0.0, 9.999546, 10.000288 
6.349604e+2, 1.4550069e+2, -1744695.4, -1643727.9, 109525.016, 0.32798037, -0.2844791, -1573611.8, -59541.625, 0.0, 9.998481, 9.999855 
6.349689e+2, 1.5550187e+2, -1552876.5, -1493984.8, 85149.01, 0.028259093, -0.19072683, -1433333.9, -17273.057, 0.0, 9.999108, 9.999906 
6.349779e+2, 1.6550168e+2, -1406580.0, -1395795.8, 18964.984, -0.1470946, -0.18833575, -1381471.3, -63408.46, 0.0, 9.999538, 9.999701 
6.349889e+2, 1.7550014e+2, -1272787.6, -1285345.3, 17746.824, -0.08928633, -0.3358748, -1260241.6, -40165.543, 0.0, 9.999803, 9.999662 
6.3500094e+2, 1.8550022e+2, -1203398.5, -1253077.5, 75714.95, -0.049879633, -0.26618034, -1148552.6, -26476.201, 0.0, 9.999816, 9.999205 
6.3501346e+2, 1.955014e+2, -1129244.3, -1167042.9, 65721.664, -0.06941573, -0.09321375, -1079758.5, -55689.965, 0.0, 9.999651, 9.999204 
6.350251e+2, 2.05501e+2, -999727.56, -1019205.4, -43689.367, -0.029819626, -0.062623166, -964704.8, -38631.71, 0.0, 9.999734, 9.999502 
6.350361e+2, 2.1549907e+2, -855851.1, -895864.5, -23703.621, 0.069164716, -0.23289318, -844839.6, -16749.379, 0.0, 10.000037, 9.999527 
6.350461e+2, 2.254979e+2, -797095.75, -869375.06, -31495.41, 0.048661996, -0.27702346, -785297.6, -55196.07, 0.0, 9.999992, 9.999057 
6.3505524e+2, 2.3549709e+2, -757546.75, -802169.75, -43127.836, -0.08101734, -0.28619713, -731300.94, -99190.59, 0.0, 9.999592, 9.999046 
6.3506484e+2, 2.4549714e+2, -560414.25, -632948.75, -58295.914, -0.13556826, -0.19259886, -528024.9, 6085.7495, 0.0, 10.000179, 9.999245 
6.3507485e+2, 2.554977e+2, -270591.9, -449495.0, -11382.979, -0.121235564, -0.08622661, -269870.56, 166235.31, 0.0, 10.001521, 9.999187 
6.350846e+2, 2.654964e+2, -239965.72, -484982.56, -52328.094, -0.069040924, -0.08107999, -229257.98, 108860.65, 0.0, 10.00151, 9.998269 
6.3509405e+2, 2.7549332e+2, -327362.9, -476925.03, -42521.652, 0.0019540754, -0.24710897, -316119.0, -75969.945, 0.0, 10.000228, 9.998272 
6.351036e+2, 2.854919e+2, -205403.13, -324115.47, 38646.08, -0.048720535, -0.22889188, -193930.81, -51766.613, 0.0000001448745, 10.000212, 9.998663 
6.351132e+2, 2.9549202e+2, 10697.038, -173339.81, 58661.39, -0.20202786, -0.108646095, 27804.914, 71970.52, 0.000005079309, 10.001031, 9.998631 
6.3512266e+2, 3.054918e+2, 165767.63, 36110.46, -9853.141, -0.20849282, -0.037743106, 166512.13, 166512.13, 0.000027855136, 10.001293, 9.999619 
6.35135e+2, 3.154902e+2, 104462.055, 71796.695, 218064.36, 0.12354167, -0.19714104, 306804.53, 306804.53, 0.00008149468, 10.000547, 10.000216 
6.4493793e+2, 1.254915e+2, -1848448.6, -1689504.6, -2297.7263, -0.05656174, -0.16733095, -1689471.4, 20697.033, 0.0000000047013002, 9.998652, 10.000802 
6.4494365e+2, 1.3549088e+2, -1633582.5, -1575109.3, -84210.83, -0.21677226, -0.31169003, -1515204.1, 96962.92, 0.0, 9.999646, 10.000448 
6.4495933e+2, 1.4549063e+2, -1517670.0, -1546155.9, 95749.29, 0.3023674, -0.3276293, -1435110.1, 79057.15, 0.0, 10.000093, 9.999747 
6.4496875e+2, 1.5549201e+2, -1367060.6, -1415399.6, 59001.16, 0.043090302, -0.20546256, -1327470.4, 88685.516, 0.0, 10.000432, 9.9998045 
6.4497834e+2, 1.6549155e+2, -1279278.8, -1383231.9, 10593.939, -0.10656437, -0.20125182, -1278210.1, 39950.652, 0.0, 10.000622, 9.999267 
6.449895e+2, 1.7548938e+2, -1175890.4, -1283221.4, -7868.5654, -0.040571723, -0.36707956, -1175316.5, 44864.527, 0.0, 10.000665, 9.99926 
6.450014e+2, 1.8548954e+2, -1088345.8, -1214899.1, 73542.9, -0.01917244, -0.261964, -1054604.4, 67577.53, 0.0, 10.000684, 9.999048 
6.450136e+2, 1.9549134e+2, -1000395.9, -1118581.9, 59527.406, -0.07022706, -0.011249973, -975611.06, 48558.035, 0.0, 10.000608, 9.99907 
6.4502513e+2, 2.0549071e+2, -928115.5, -987439.3, -30429.98, -0.013762321, 0.0013394266, -915282.56, 10893.641, 0.0, 10.00024, 9.999473 
6.450367e+2, 2.1548781e+2, -926712.25, -937678.9, -52453.156, 0.1487394, -0.26132157, -879456.56, -51254.46, 0.0, 9.999579, 9.999461 
6.450466e+2, 2.254867e+2, -852589.7, -887620.94, -10836.221, 0.11753706, -0.29842523, -849508.7, -119295.79, 0.0, 9.999564, 9.999143 
6.4505506e+2, 2.3548687e+2, -675429.06, -747365.9, 5637.6016, -0.077432275, -0.22265644, -674989.94, -42776.926, 0.0, 10.000091, 9.999178 
6.4506495e+2, 2.4548697e+2, -553431.4, -599124.3, 19079.459, -0.13111213, -0.14303061, -546512.3, -12300.711, 0.0, 10.000104, 9.9995165 
6.4507604e+2, 2.5548688e+2, -514662.75, -533462.75, -11558.907, -0.05337471, -0.1289812, -509164.16, -72953.56, 0.0, 9.999708, 9.999484 
6.4508605e+2, 2.6548538e+2, -454455.5, -572432.25, -66524.99, 0.006853458, -0.165824, -424532.66, -86308.53, 0.0, 9.999968, 9.998414 
6.4509517e+2, 2.7548248e+2, -231924.98, -416055.63, -56406.3, 0.06563087, -0.32406116, -216019.5, 24233.146, 0.000000000000000000046744374, 10.000818, 9.998412 
6.4510447e+2, 2.8548178e+2, -111304.44, -270537.16, 50959.67, -0.0028764321, -0.24823532, -96392.21, 45869.496, 0.00000034821963, 10.00082, 9.998734 
6.451138e+2, 2.9548278e+2, -132148.58, -241635.89, 13440.467, -0.18285948, -0.047395736, -130522.8, -86267.08, 0.0000068469953, 10.000034, 9.998642 
6.451234e+2, 3.0548203e+2, 20576.37, -39332.348, -70691.1, -0.20651247, -0.02206763, 67397.625, 67397.625, 0.00003364889, 10.00034, 9.999539 
6.451368e+2, 3.1547886e+2, 256225.67, 167992.38, 5080.1772, 0.21261868, -0.34010524, 256517.2, 256517.2, 0.000093661416, 10.001511, 10.00039 
6.5493923e+2, 1.254824e+2, -1881978.6, -1751582.5, 72778.65, 0.15528402, -0.1130251, -1719069.1, -8807.569, 0.000000001405694, 9.998628, 10.000382 
6.549446e+2, 1.3548274e+2, -1651762.3, -1619220.0, -45921.32, -0.122187816, -0.12350904, -1586772.4, 25479.83, 0.0, 9.9996805, 10.000123 
6.5495867e+2, 1.4548172e+2, -1514399.0, -1543105.0, 90906.03, 0.19298238, -0.20526251, -1436719.9, 77538.984, 0.0, 10.000107, 9.999766 
6.5496844e+2, 1.5548137e+2, -1370520.9, -1423104.0, 83100.195, -0.060353346, -0.25218436, -1309652.4, 106608.51, 0.0, 10.000425, 9.999763 
6.5497893e+2, 1.6548094e+2, -1309503.9, -1436160.0, -196.17044, -0.13510896, -0.22357944, -1309503.6, 8761.6045, 0.0, 10.000582, 9.998917 
6.549912e+2, 1.7548026e+2, -1200801.1, -1332979.3, 4395.4263, 0.036972508, -0.20678627, -1200655.1, 19618.182, 0.0, 10.000656, 9.9989195 
6.55003e+2, 1.8547967e+2, -1088955.5, -1202652.8, 59522.895, 0.04240824, -0.1643665, -1063495.3, 58785.35, 0.0, 10.000626, 9.99916 
6.5501386e+2, 1.9547893e+2, -1002846.3, -1106255.6, 67936.67, -0.122752704, -0.18245813, -969176.7, 55112.992, 0.0, 10.000537, 9.999189 
6.5502506e+2, 2.0547828e+2, -965155.3, -1043715.6, -66020.66, -0.06715243, -0.15818457, -927613.2, -1315.1575, 0.0, 10.000147, 9.999137 
6.5503675e+2, 2.1547748e+2, -964727.2, -984765.2, -64509.688, 0.17640433, -0.17833667, -909463.1, -81154.86, 0.0, 9.999444, 9.999204 
6.550465e+2, 2.254777e+2, -820472.2, -787812.94, -1351.4835, 0.1357484, -0.11039196, -787757.1, -57451.023, 0.0, 9.999427, 9.99989 
6.5505457e+2, 2.3547849e+2, -648853.9, -657196.3, 34197.73, -0.15493497, -0.047621503, -618573.94, 13722.437, 0.0, 9.999945, 9.999865 
6.5506494e+2, 2.4547742e+2, -600347.2, -673139.5, -7712.024, -0.15911576, -0.094592564, -599539.06, -65234.934, 0.0, 10.000007, 9.999052 
6.550772e+2, 2.554746e+2, -559031.6, -601032.94, -12365.802, 0.06947159, -0.3061979, -555661.4, -119332.99, 0.0, 9.999609, 9.999064 
6.550873e+2, 2.6547346e+2, -424285.72, -507318.06, -45618.11, 0.10801837, -0.314889, -404120.4, -65781.56, 0.0, 9.999946, 9.998876 
6.550956e+2, 2.7547348e+2, -209932.33, -360676.9, -13442.723, 0.0034482244, -0.22292805, -208742.95, 31596.873, 0.0000000002377775, 10.000763, 9.998825 
6.551055e+2, 2.8547305e+2, -143323.81, -320122.22, 10217.2295, -0.012335958, -0.12117369, -142735.33, -389.47388, 0.0000008000927, 10.000758, 9.998417 
6.5511614e+2, 2.9547188e+2, -175030.45, -302487.6, 743.4722, 0.014950763, -0.113667436, -175026.11, -130665.86, 0.000010270006, 9.999924, 9.998272 
6.551249e+2, 3.0546924e+2, -57926.594, -206972.42, -32195.0, -0.12359344, -0.19562085, -51269.566, -51269.566, 0.00004390313, 10.000346, 9.998394 
6.551361e+2, 3.1546596e+2, 185597.03, 27007.557, 66722.75, -0.07317825, -0.40708554, 209934.25, 209934.25, 0.00011355634, 10.001475, 9.999449 
6.6493946e+2, 1.2547258e+2, -1578069.3, -1648539.5, 101511.94, 0.21965465, -0.05486125, -1505851.1, 204508.84, 0.00000000035571668, 10.000886, 10.000008 
6.649457e+2, 1.3547291e+2, -1579806.1, -1616073.9, -98575.56, 0.0055108983, -0.043871403, -1497710.4, 114641.96, 0.0, 10.000284, 9.999874 
6.6495866e+2, 1.4547138e+2, -1573548.3, -1595921.3, 57546.813, 0.20766231, -0.15410554, -1526110.8, -11746.505, 0.0, 9.999814, 9.999539 
6.649688e+2, 1.5547042e+2, -1462794.3, -1492045.3, 8175.351, -0.031111259, -0.24086532, -1460664.4, -44292.76, 0.0, 9.999908, 9.999531 
6.6497976e+2, 1.6547002e+2, -1364107.5, -1461459.6, -38270.242, -0.08910934, -0.19716583, -1350864.5, -32488.93, 0.0, 10.000203, 9.998931 
6.6499233e+2, 1.7546985e+2, -1209685.8, -1331353.5, -30983.71, 0.09377393, -0.13123864, -1202249.9, 18129.105, 0.0, 10.000566, 9.998975 
6.6500396e+2, 1.8546915e+2, -1139432.5, -1185542.6, 40006.523, 0.114705294, -0.123691574, -1116313.4, 6073.1885, 0.0, 10.000116, 9.9995165 
6.6501445e+2, 1.9546774e+2, -1202593.9, -1167257.0, 43715.477, -0.028710585, -0.24106179, -1137774.5, -113374.66, 0.0, 9.999009, 9.999508 
6.650252e+2, 2.0546749e+2, -1099657.4, -1077502.9, -10580.467, -0.01812473, -0.20718268, -1073261.8, -146858.17, 0.0, 9.999092, 9.9994135 
6.6503596e+2, 2.1546799e+2, -849024.1, -901997.7, 12350.783, 0.12974378, -0.12281234, -846286.06, -17884.486, 0.0, 10.000123, 9.999448 
6.650461e+2, 2.2546825e+2, -669512.56, -731430.06, 80086.09, 0.104081005, -0.054755755, -614609.6, 115789.18, 0.0, 10.000539, 9.999744 
6.6505545e+2, 2.354681e+2, -592547.3, -649198.06, 27313.621, -0.0735916, -0.066164404, -581523.5, 50873.84, 0.0, 10.000417, 9.999698 
6.6506606e+2, 2.454667e+2, -526899.25, -651764.1, -16725.15, -0.0705971, -0.13450702, -524697.8, 9710.837, 0.0, 10.000548, 9.998947 
6.650775e+2, 2.55464e+2, -385783.84, -532770.3, -20861.451, 0.08567656, -0.32579276, -382880.38, 53552.215, 0.0, 10.000838, 9.998951 
6.6508746e+2, 2.6546302e+2, -278523.3, -448717.44, -24787.844, 0.08254269, -0.3037444, -274986.6, 63455.285, 0.0, 10.000993, 9.998778 
6.65096e+2, 2.754634e+2, -172899.45, -347998.75, -58192.05, -0.037347544, -0.1659553, -155324.16, 85115.766, 0.0000000023427176, 10.001052, 9.998766 
6.6510653e+2, 2.8546274e+2, -99878.88, -307767.25, -43497.89, 0.0074635767, -0.08454439, -91144.5, 51303.51, 0.0000014418595, 10.001081, 9.998352 
6.6511816e+2, 2.9546064e+2, -12988.747, -222774.84, -56405.38, 0.17714766, -0.16359775, 1215.3, 45684.805, 0.000014823799, 10.001031, 9.998282 
6.6512686e+2, 3.0545813e+2, 38550.543, -183640.38, 20765.951, 0.0056219785, -0.22617431, 40474.664, 40474.664, 0.000057815294, 10.001113, 9.998186 
6.651373e+2, 3.154557e+2, 94976.66, -62252.61, 126380.22, -0.06732729, -0.32089525, 165198.23, 165198.23, 0.00014076945, 10.001044, 9.999047 
6.749383e+2, 1.2546195e+2, -1598784.9, -1700362.9, 69027.45, -0.048031602, -0.013520179, -1563874.9, 146589.83, 0.0000000023126079, 10.000933, 9.999624 
6.7494684e+2, 1.3546136e+2, -1592201.8, -1640733.3, -117039.34, 0.06144613, -0.07993587, -1496939.1, 115528.49, 0.0, 10.000287, 9.999701 
6.7495906e+2, 1.4545971e+2, -1609026.9, -1665809.0, 44886.625, 0.22995396, -0.167657, -1584306.1, -69823.68, 0.0, 9.999798, 9.999067 
6.749694e+2, 1.5545931e+2, -1487763.3, -1548189.0, 24914.938, 0.003634245, -0.1498735, -1478815.4, -62328.746, 0.0, 9.9999275, 9.999137 
6.7498034e+2, 1.654589e+2, -1334068.4, -1401233.1, -36544.56, -0.07408516, -0.11280104, -1318019.4, 471.38657, 0.0, 10.000203, 9.999348 
6.7499256e+2, 1.7545824e+2, -1182232.9, -1269748.6, -8934.322, 0.033305332, -0.1400934, -1181330.0, 39167.465, 0.0, 10.000543, 9.99941 
6.750041e+2, 1.8545796e+2, -1105555.5, -1106429.9, -14993.8, 0.09652752, -0.13945478, -1090992.5, 31506.834, 0.0, 10.000073, 10.000083 
6.7501503e+2, 1.9545785e+2, -1173962.4, -1087322.9, 16406.71, 0.100541525, -0.18365534, -1084320.0, -59821.24, 0.0, 9.998923, 10.000098 
6.75025e+2, 2.054584e+2, -1058743.8, -971012.56, 18267.967, 0.034341913, -0.13699785, -967360.7, -40868.727, 0.0, 9.998986, 10.000201 
6.750341e+2, 2.154593e+2, -815536.44, -805112.94, 59091.258, -0.088936225, -0.09359419, -751004.06, 77478.34, 0.0, 9.999999, 10.000174 
6.750451e+2, 2.2545841e+2, -762140.44, -890496.56, 64875.125, -0.06883691, -0.120056376, -735062.75, -4572.487, 0.0, 10.000398, 9.998719 
6.750574e+2, 2.3545584e+2, -681513.06, -799320.56, 36321.38, 0.058204647, -0.27349636, -671215.0, -38700.12, 0.0, 10.000271, 9.998735 
6.7506784e+2, 2.454549e+2, -529623.75, -631574.8, -14233.306, 0.0389232, -0.25702867, -527673.94, 6849.7275, 0.0, 10.000439, 9.999137 
6.7507666e+2, 2.5545508e+2, -393037.28, -522378.72, 529.2978, -0.10736983, -0.18134096, -393035.1, 43487.18, 0.0, 10.000725, 9.999077 
6.750862e+2, 2.654542e+2, -334382.53, -544198.4, -33556.81, -0.16545802, -0.12304832, -329146.3, 9385.651, 0.0, 10.00091, 9.998161 
6.7509615e+2, 2.7545238e+2, -226861.19, -439765.78, -42181.76, -0.15863256, -0.14939876, -218808.5, 21743.951, 0.0000000015372758, 10.000964, 9.99818 
6.751075e+2, 2.8545085e+2, -82196.23, -269058.06, -55130.895, -0.028819274, -0.137073, -67143.266, 75424.4, 0.0000017821444, 10.001071, 9.998622 
6.751196e+2, 2.9544926e+2, -3956.712, -180951.27, -42418.47, 0.18168089, -0.19004135, 5684.15, 50266.25, 0.000019076204, 10.00093, 9.99862 
6.7512864e+2, 3.0544856e+2, 72384.4, -98955.38, 10676.603, 0.05467102, -0.12610173, 73047.12, 73047.12, 0.000073988194, 10.001058, 9.998787 
6.751394e+2, 3.1544825e+2, 94696.1, -39128.32, 143495.98, -0.015046595, -0.060209647, 186113.75, 186113.75, 0.00017626988, 10.000953, 9.999242 
6.8493915e+2, 1.254502e+2, -1784524.0, -1826942.8, 85812.11, 0.018322976, -0.063603304, -1717339.0, -6759.116, 0.0000000036242784, 9.999792, 9.999316 
6.8494827e+2, 1.3545008e+2, -1499464.5, -1600685.5, -140274.22, 0.15463199, -0.07342551, -1400950.0, 211630.7, 0.0, 10.000958, 9.999639 
6.8495905e+2, 1.4544892e+2, -1426357.3, -1586100.5, 56888.64, 0.20158526, -0.106434606, -1408168.8, 106423.445, 0.0, 10.001073, 9.999007 
6.849699e+2, 1.5544851e+2, -1415769.6, -1519909.0, 45239.363, 0.047378574, -0.0826309, -1398862.1, 17734.842, 0.0, 10.000433, 9.999099 
6.8498087e+2, 1.6544814e+2, -1351929.4, -1355868.0, 27261.926, -0.011588753, -0.064391136, -1326565.8, -7965.6387, 0.0, 9.999844, 9.999835 
6.8499255e+2, 1.754476e+2, -1329602.0, -1292173.1, 35845.75, 0.049442012, -0.12795164, -1270450.6, -49846.473, 0.0, 9.999314, 9.999854 
6.8500406e+2, 1.8544763e+2, -1195266.5, -1118860.9, 33332.3, 0.12315272, -0.13174693, -1106363.6, 16237.971, 0.0, 9.999327, 10.000355 
6.8501514e+2, 1.954479e+2, -1039203.7, -991578.0, 23509.107, 0.18889804, -0.16601011, -981928.44, 42667.348, 0.0, 9.999718, 10.000366 
6.850251e+2, 2.0544836e+2, -914582.7, -917829.3, 34466.258, 0.10620801, -0.13477671, -881701.5, 44887.805, 0.0, 10.000068, 10.000028 
6.8503416e+2, 2.1544877e+2, -769019.06, -802165.94, -20620.195, -0.09775285, -0.1231379, -759137.44, 69447.21, 0.0, 10.000409, 9.999989 
6.850454e+2, 2.254477e+2, -753243.6, -882921.0, -16641.395, -0.06964612, -0.16103458, -751142.1, -20547.652, 0.0, 10.000434, 9.998755 
6.850585e+2, 2.3544522e+2, -697133.06, -804305.1, 12618.3, 0.15040159, -0.30769193, -695667.44, -63049.3, 0.0, 10.000137, 9.998768 
6.850687e+2, 2.4544466e+2, -600869.2, -667833.4, 22500.516, 0.10958929, -0.25592688, -594011.2, -59387.13, 0.0, 9.999963, 9.999108 
6.850765e+2, 2.5544548e+2, -509178.3, -580982.9, 1329.1753, -0.15441638, -0.11042052, -509153.72, -72536.53, 0.0, 9.999953, 9.999037 
6.850862e+2, 2.6544443e+2, -444545.9, -628742.5, 3875.2664, -0.21443786, -0.05381684, -444464.44, -105835.39, 0.0, 10.000285, 9.997876 
6.8509763e+2, 2.7544162e+2, -263134.22, -487767.5, -4579.632, -0.08627208, -0.15161692, -263040.88, -22382.115, 0.00000000039754933, 10.000839, 9.997907 
6.851091e+2, 2.854395e+2, -129113.75, -320393.78, -23760.209, 0.035999406, -0.17560664, -126206.516, 16473.38, 0.000001935021, 10.000879, 9.998359 
6.851199e+2, 2.9543763e+2, -59643.586, -234597.08, -72720.93, 0.14424448, -0.2255065, -33363.953, 11332.991, 0.000022833043, 10.000657, 9.998385 
6.851296e+2, 3.0543756e+2, 87610.75, -114394.5, -20576.912, 0.04405782, -0.07261478, 89685.48, 89685.48, 0.00009092674, 10.001262, 9.998582 
6.851421e+2, 3.154371e+2, 251350.05, 28983.89, 8758.296, 0.11331476, 0.00021146398, 251694.47, 251694.47, 0.00021663251, 10.002033, 9.999205 
6.949417e+2, 1.2543735e+2, -1788236.3, -1836826.8, 81032.63, 0.23055087, -0.20042762, -1727935.1, -17230.283, 0.00000000017840025, 9.999821, 9.999222 
6.949497e+2, 1.354391e+2, -1494333.5, -1592482.6, -91793.09, 0.17775095, -0.020620871, -1439320.3, 173370.61, 0.0, 10.000979, 9.999679 
6.949586e+2, 1.4543891e+2, -1393466.9, -1524934.8, 19336.133, 0.014552955, 0.014777618, -1390681.9, 124012.15, 0.0, 10.001097, 9.99942 
6.9497013e+2, 1.5543792e+2, -1387002.8, -1468670.1, 34152.08, 0.0036253226, -0.056980234, -1374603.5, 42100.27, 0.0, 10.000458, 9.999446 
6.949811e+2, 1.6543776e+2, -1319890.6, -1281816.3, -3229.4702, -0.0036965036, -0.06073119, -1281544.3, 37159.52, 0.0, 9.999819, 10.00035 
6.9499207e+2, 1.7543814e+2, -1300744.0, -1222122.4, 30261.795, 0.042390365, -0.08187204, -1211823.5, 8873.709, 0.0, 9.999273, 10.000353 
6.950033e+2, 1.854383e+2, -1205085.4, -1124384.3, 40074.37, 0.094704464, -0.095873505, -1107865.4, 14826.365, 0.0, 9.999262, 10.000347 
6.950146e+2, 1.9543801e+2, -1055243.9, -1007429.44, 49556.066, 0.13626033, -0.18566751, -976315.25, 48374.895, 0.0, 9.999648, 10.000288 
6.950253e+2, 2.0543742e+2, -1008475.8, -1092285.1, 35247.875, 0.0992328, -0.19723889, -995622.75, -68927.36, 0.0, 9.999973, 9.998879 
6.9503576e+2, 2.1543635e+2, -862839.2, -965983.7, 1709.7097, -0.0022834523, -0.21509369, -862810.8, -34102.426, 0.0, 10.000275, 9.99893 
6.9504684e+2, 2.2543606e+2, -696694.2, -735408.1, -37221.68, 0.009324678, -0.18080176, -674097.06, 56614.08, 0.0, 10.000303, 9.99983 
6.950584e+2, 2.3543617e+2, -643142.06, -664207.0, 12577.273, 0.10854724, -0.17859174, -637269.6, -4561.8584, 0.0, 10.000018, 9.999784 
6.9506824e+2, 2.4543594e+2, -627886.8, -704653.2, 11744.08, 0.045632944, -0.12934655, -626130.4, -91420.95, 0.0, 9.999879, 9.998898 
6.9507664e+2, 2.5543523e+2, -532362.8, -612650.94, 13259.448, -0.15906875, -0.11700221, -530229.75, -93512.484, 0.0, 9.999878, 9.9988575 
6.950874e+2, 2.6543373e+2, -450820.97, -628319.6, 16590.72, -0.14861089, -0.103053495, -449283.53, -110550.27, 0.0, 10.000229, 9.997907 
6.951002e+2, 2.754312e+2, -278351.88, -499511.1, 26258.69, 0.054334372, -0.17087106, -275276.9, -34517.76, 0.0000000054780975, 10.0007515, 9.99787 
6.951106e+2, 2.8542858e+2, -193447.33, -440936.6, -44427.258, 0.082761966, -0.19507056, -185713.77, -42928.57, 0.000002364329, 10.000828, 9.997552 
6.951187e+2, 2.954258e+2, -124446.2, -355823.9, -59541.195, -0.07109857, -0.26201907, -110023.32, -65210.023, 0.000027093956, 10.000606, 9.997573 
6.951294e+2, 3.0542535e+2, 23332.281, -251794.72, 8205.629, -0.12788828, -0.061761152, 23576.795, 23576.795, 0.00010798756, 10.001272, 9.997635 
6.95145e+2, 3.154229e+2, 208528.81, -38275.875, 65449.11, 0.15162018, -0.09389671, 224810.84, 224810.84, 0.00025661878, 10.001936, 9.998793 
7.049421e+2, 1.2542641e+2, -1691677.0, -1759362.5, 88690.375, 0.2720483, -0.14836778, -1630591.9, 80223.055, 0.0, 10.000337, 9.999521 
7.049508e+2, 1.3542795e+2, -1572179.0, -1598092.9, -63070.25, 0.23402432, -0.015458327, -1520748.5, 92053.51, 0.0, 10.000286, 9.999987 
7.049589e+2, 1.4542829e+2, -1525233.9, -1538234.1, 50544.195, 0.00043935244, 0.033879165, -1480773.5, 34025.902, 0.0, 9.999991, 9.999849 
7.049708e+2, 1.554277e+2, -1444329.4, -1443822.8, 44433.656, 0.058280904, -0.042359877, -1399641.8, 17162.846, 0.0, 9.9998665, 9.99988 
7.049815e+2, 1.6542771e+2, -1306307.3, -1271010.0, 21451.096, 0.06478981, -0.04943956, -1260880.5, 57921.977, 0.0, 9.9999, 10.000382 
7.0499194e+2, 1.7542805e+2, -1203915.6, -1168796.8, -3474.6548, 0.07830467, -0.07849266, -1168456.3, 52340.3, 0.0, 9.999916, 10.000403 
7.0500296e+2, 1.8542819e+2, -1106416.4, -1102180.1, 22303.648, 0.101845, -0.08757638, -1081894.3, 40897.56, 0.0, 10.000046, 10.000124 
7.0501435e+2, 1.9542782e+2, -972774.06, -995551.0, -6471.16, 0.12200081, -0.16091818, -971063.94, 53727.32, 0.0, 10.0003195, 10.000054 
7.0502555e+2, 2.0542693e+2, -970670.9, -1083077.3, 25624.09, 0.11658091, -0.18571705, -965105.2, -38306.063, 0.0, 10.000265, 9.998808 
7.050367e+2, 2.1542546e+2, -927028.1, -1004166.5, 52802.28, 0.08990072, -0.23759083, -900208.75, -71393.27, 0.0, 9.999859, 9.998873 
7.0504767e+2, 2.2542526e+2, -742637.0, -761706.75, 34020.582, 0.085150495, -0.18927647, -716840.4, 13977.284, 0.0, 10.000018, 9.999782 
7.050585e+2, 2.354259e+2, -549155.4, -622659.8, -21627.646, 0.09144408, -0.1288907, -543263.94, 89546.414, 0.0, 10.000693, 9.99974 
7.050685e+2, 2.4542549e+2, -485071.47, -645551.56, -46175.582, 0.039310966, -0.09126722, -472733.72, 62079.99, 0.0, 10.000904, 9.998812 
7.050779e+2, 2.55424e+2, -418236.63, -563961.1, -54187.863, -0.059311617, -0.14952263, -400295.63, 36532.45, 0.0, 10.000695, 9.998799 
7.0508873e+2, 2.6542243e+2, -376132.0, -568205.6, -4994.671, -0.04693685, -0.14869031, -376002.2, -37158.375, 0.0, 10.000645, 9.998121 
7.05101e+2, 2.754205e+2, -270411.72, -467987.88, -6794.7485, 0.07131019, -0.17449088, -270178.3, -29315.227, 0.000000016182126, 10.000706, 9.998102 
7.051115e+2, 2.8541812e+2, -109497.04, -437900.53, -15057.404, 0.060328525, -0.17474492, -108808.1, 34079.297, 0.0000030357212, 10.001534, 9.99725 
7.051203e+2, 2.9541525e+2, 179954.02, -243153.53, -15133.805, -0.0770414, -0.2222229, 180494.64, 225411.47, 0.000031540207, 10.002826, 9.99729 
7.051313e+2, 3.0541393e+2, 133473.58, -249186.14, 67116.734, -0.108245365, -0.06983866, 144904.1, 144904.1, 0.00012311795, 10.00225, 9.997178 
7.0514643e+2, 3.15411e+2, -67407.19, -151146.0, 118535.3, 0.21028782, -0.10918039, 16436.037, 16436.037, 0.0002906225, 9.999969, 9.998948 
7.1493924e+2, 1.2541738e+2, -1624779.6, -1627137.3, 5870.0947, -0.101253465, 0.10941797, -1619971.1, 90938.86, 0.0, 10.000373, 10.000402 
7.149512e+2, 1.3541661e+2, -1520130.3, -1499020.4, -60207.01, 0.22011381, -0.066298805, -1448450.1, 164464.47, 0.0, 10.000319, 10.000652 
7.1495974e+2, 1.4541714e+2, -1494511.5, -1475797.5, 31071.846, 0.050939694, -0.049549367, -1452704.4, 62202.99, 0.0, 10.0, 10.000272 
7.149714e+2, 1.5541796e+2, -1417417.4, -1386611.0, 52676.953, 0.10751305, -0.028326094, -1347131.4, 69766.85, 0.0, 9.999855, 10.000281 
7.14982e+2, 1.6541806e+2, -1341775.9, -1333150.3, 11779.746, 0.094351, -0.027911587, -1324918.6, -6022.1934, 0.0, 9.999855, 9.999975 
7.149919e+2, 1.7541735e+2, -1236977.1, -1234867.8, 7737.3486, 0.060618024, -0.12043959, -1228113.5, -7210.909, 0.0, 9.999908, 9.999954 
7.1500266e+2, 1.8541725e+2, -1141832.9, -1168813.5, 22532.076, 0.046143692, -0.106849134, -1129061.4, -6159.4043, 0.0, 10.000012, 9.999683 
7.150141e+2, 1.9541742e+2, -1011950.9, -1055969.8, 15112.13, 0.043278456, -0.08481854, -1007262.1, 17636.139, 0.0, 10.000229, 9.999684 
7.150254e+2, 2.0541707e+2, -920084.56, -947853.56, 548.9799, 0.05853678, -0.08901137, -920073.7, 6825.353, 0.0, 10.00014, 9.999794 
7.150367e+2, 2.1541609e+2, -888538.3, -885378.9, 47276.973, 0.08535515, -0.19123769, -839655.25, -10749.503, 0.0, 9.9997015, 9.99976 
7.1504766e+2, 2.2541532e+2, -840826.9, -937564.5, 47792.867, 0.06459131, -0.1825897, -821197.9, -90284.23, 0.0, 9.999891, 9.998638 
7.1505845e+2, 2.354145e+2, -645218.06, -792403.94, 13861.614, -0.003327272, -0.15128267, -643924.0, -10999.179, 0.0, 10.000561, 9.998641 
7.150692e+2, 2.4541338e+2, -498285.4, -648335.3, -64681.22, -0.0068901647, -0.1339474, -474252.78, 60683.227, 0.0, 10.000798, 9.998846 
7.150797e+2, 2.554117e+2, -427523.13, -562878.0, -51292.832, 0.03731467, -0.20821172, -410281.84, 26667.95, 0.0, 10.00061, 9.998849 
7.1509e+2, 2.6541057e+2, -351900.34, -513435.28, -15031.123, -0.012598117, -0.18621942, -350513.56, -11553.173, 0.0, 10.000621, 9.998511 
7.150999e+2, 2.7540958e+2, -253561.06, -419724.25, 10551.118, -0.14071144, -0.16362362, -252893.77, -11922.699, 0.000000020828322, 10.000641, 9.998469 
7.151115e+2, 2.8540796e+2, -99072.05, -400869.06, 23659.662, -0.11772136, -0.118364535, -97228.484, 45758.914, 0.0000037854625, 10.001478, 9.997529 
7.1512425e+2, 2.954058e+2, 177488.22, -222413.66, 43760.465, 0.0032204925, -0.11642796, 182220.83, 227229.83, 0.000035842306, 10.002725, 9.997479 
7.151347e+2, 3.0540335e+2, 134523.27, -250528.08, -26181.857, -0.020000687, -0.08581821, 136295.36, 136295.36, 0.000135526, 10.002252, 9.997174 
7.151455e+2, 3.1540042e+2, -39180.746, -83547.72, 79704.45, 0.06148436, -0.12870084, 21369.723, 21369.723, 0.00031586387, 9.999909, 9.9994545 
7.249385e+2, 1.2540695e+2, -1710165.4, -1637956.0, 71080.83, -0.15654881, 0.09813632, -1594335.9, 116676.984, 0.0, 9.999616, 10.000721 
7.2495157e+2, 1.354064e+2, -1617624.9, -1518570.4, -27094.22, 0.268305, -0.07069037, -1511643.6, 101371.125, 0.0, 9.999545, 10.000887 
7.249599e+2, 1.4540723e+2, -1552628.9, -1485328.3, 65205.742, 0.100187, -0.04427531, -1445602.0, 69402.266, 0.0, 9.999509, 10.000454 
7.249711e+2, 1.5540774e+2, -1454660.6, -1382157.4, 45332.41, 0.118596986, -0.072257854, -1360364.1, 56633.633, 0.0, 9.999497, 10.000488 
7.249817e+2, 1.6540782e+2, -1375491.6, -1384560.5, 37143.895, 0.09838398, -0.06666083, -1342606.4, -23609.652, 0.0, 9.999755, 9.99968 
7.2499216e+2, 1.7540741e+2, -1206140.9, -1249426.5, 20664.607, 0.07348199, -0.10148086, -1197859.9, 23142.068, 0.0, 10.000241, 9.999694 
7.2500306e+2, 1.8540727e+2, -1100063.0, -1155927.8, 64299.734, 0.06785139, -0.077555776, -1057890.6, 65111.75, 0.0, 10.000328, 9.999622 
7.2501445e+2, 1.9540708e+2, -1045269.75, -1075777.3, 63197.92, 0.07017171, -0.083926186, -995510.8, 29491.129, 0.0, 10.000019, 9.999651 
7.2502553e+2, 2.0540679e+2, -934824.9, -928508.25, 48383.566, 0.07148438, -0.09389189, -883180.0, 43821.047, 0.0, 9.999924, 10.000038 
7.250363e+2, 2.1540613e+2, -831607.0, -836481.94, 22414.373, 0.071011476, -0.18573304, -811497.94, 17504.855, 0.0, 9.999989, 9.999967 
7.2504765e+2, 2.254053e+2, -808403.56, -948188.1, 82890.74, 0.06450567, -0.17875688, -769871.6, -38860.98, 0.0, 10.000229, 9.998404 
7.250596e+2, 2.3540418e+2, -650253.6, -823759.44, 92207.836, 0.05961037, -0.15491594, -610403.44, 22621.963, 0.0, 10.000648, 9.998387 
7.2507066e+2, 2.454026e+2, -494533.16, -699744.94, 32152.201, 0.057945307, -0.14720699, -489613.56, 45428.19, 0.0, 10.001056, 9.998363 
7.250808e+2, 2.5540042e+2, -328018.6, -570758.5, -13190.345, 0.044539236, -0.22845364, -327303.94, 109757.98, 0.0, 10.001526, 9.998354 
7.25091e+2, 2.6539913e+2, -222338.28, -463598.94, -3596.7917, -0.012041373, -0.18884438, -222284.67, 116789.5, 0.0, 10.001577, 9.998383 
7.2510135e+2, 2.7539837e+2, -159483.66, -386587.53, -38176.098, -0.08281454, -0.12892693, -153238.03, 87844.336, 0.000000011844985, 10.001341, 9.998358 
7.251134e+2, 2.8539696e+2, -115592.586, -372363.72, 12824.691, -0.0531903, -0.07483506, -114953.64, 28142.877, 0.000004675658, 10.00124, 9.99782 
7.251265e+2, 2.9539484e+2, -13671.168, -279454.2, 4339.19, 0.03827132, -0.09786442, -13600.346, 31516.643, 0.000040333267, 10.001282, 9.9977665 
7.251361e+2, 3.0539185e+2, 27464.22, -252044.73, -84740.664, -0.047685515, -0.15564981, 51148.707, 51148.707, 0.00014552829, 10.0013075, 9.9976225 
7.2514623e+2, 3.153902e+2, 155349.78, 40322.598, 12140.058, 0.09146811, -0.12140726, 156617.1, 156617.1, 0.00033116215, 10.001136, 9.999707 
7.349394e+2, 1.2539512e+2, -1720716.6, -1654403.3, -13929.696, -0.08302546, -0.1744091, -1651596.0, 59527.098, 0.0, 9.999607, 10.000599 
7.349515e+2, 1.3539734e+2, -1643262.1, -1575750.5, -23341.674, 0.27618548, -0.029964888, -1568466.3, 44636.34, 0.0, 9.999551, 10.000494 
7.3495895e+2, 1.4539845e+2, -1563616.4, -1492296.3, 51802.316, 0.025428457, 0.04241486, -1465066.5, 50024.496, 0.0, 9.999454, 10.000424 
7.349696e+2, 1.5539691e+2, -1462360.0, -1398567.0, 59455.113, -0.016473264, -0.18556586, -1362992.9, 54111.195, 0.0, 9.9995, 10.000375 
7.349805e+2, 1.6539702e+2, -1380861.4, -1398712.3, 43004.0, -0.02406332, -0.16613573, -1345866.4, -26762.78, 0.0, 9.999765, 9.999576 
7.349921e+2, 1.7539836e+2, -1216099.3, -1265200.5, 49042.94, 0.020416282, -0.01668026, -1185805.3, 35288.17, 0.0, 10.000214, 9.999602 
7.350036e+2, 1.8539831e+2, -1094065.5, -1122986.4, 42365.332, 0.06666833, 0.0075745867, -1063760.8, 59331.688, 0.0, 10.000245, 9.9998865 
7.3501503e+2, 1.9539686e+2, -1041967.75, -1046761.5, 61884.563, 0.10404199, -0.15281048, -982433.7, 42668.008, 0.0, 9.99993, 9.999888 
7.350255e+2, 2.0539612e+2, -980021.56, -1000889.75, 40045.645, 0.06150263, -0.1946743, -949073.0, -21968.293, 0.0, 9.999826, 9.999588 
7.350352e+2, 2.1539573e+2, -877970.1, -900679.56, 37536.406, -0.059926197, -0.216602, -850108.6, -21003.57, 0.0, 9.99985, 9.999588 
7.3504734e+2, 2.2539541e+2, -786351.9, -871535.7, 87156.9, -0.009637383, -0.1722372, -731936.56, -829.63116, 0.0, 10.000093, 9.998997 
7.350617e+2, 2.353949e+2, -632385.94, -753627.5, 118535.21, 0.18265505, -0.15007399, -559869.7, 73242.984, 0.0, 10.000506, 9.998937 
7.350727e+2, 2.4539316e+2, -572866.5, -843957.56, 40778.063, 0.13164438, -0.13427466, -566865.44, -31734.213, 0.0, 10.000975, 9.997411 
7.3508084e+2, 2.553901e+2, -412447.9, -718363.4, 14785.729, -0.12902442, -0.2056312, -411734.94, 25428.643, 0.0, 10.001407, 9.997397 
7.3509175e+2, 2.6538825e+2, -278350.34, -562162.44, -20056.389, -0.12232597, -0.14682044, -276940.0, 62243.527, 0.0, 10.001502, 9.997742 
7.3510504e+2, 2.7538702e+2, -213193.94, -481700.8, -29808.201, 0.12502302, -0.065404385, -209924.6, 31271.445, 0.000000051096855, 10.001269, 9.997741 
7.351168e+2, 2.8538516e+2, -89137.08, -324454.7, 4372.487, 0.12975466, -0.04484063, -89055.86, 54158.51, 0.0000058850314, 10.00126, 9.998141 
7.3512685e+2, 2.953825e+2, -2131.7075, -242017.33, 20842.77, -0.095361695, -0.15624002, -334.22556, 44905.547, 0.000044056193, 10.001216, 9.998057 
7.3513526e+2, 3.0537957e+2, 82473.66, -135584.22, -97050.055, -0.28771463, -0.26243114, 119410.54, 119410.54, 0.00015023243, 10.001295, 9.998427 
7.351475e+2, 3.153799e+2, 136897.5, 25192.686, 29193.008, 0.04139539, -0.11136834, 144066.7, 144066.7, 0.0003329124, 10.001034, 9.999653 
7.449402e+2, 1.253859e+2, -1780576.8, -1711587.5, -18375.53, 0.0637616, -0.18142445, -1706998.4, 4214.53, 0.0, 9.999344, 10.0003195 
7.449503e+2, 1.3538767e+2, -1615650.1, -1614906.4, -38105.035, 0.1946911, -0.028650703, -1577171.4, 36027.746, 0.0, 9.999992, 10.0 
7.449578e+2, 1.4538881e+2, -1482462.0, -1457807.1, 37692.914, -0.048226323, 0.07161902, -1430477.0, 84712.15, 0.0, 10.00003, 10.0003805 
7.449698e+2, 1.5538795e+2, -1447617.9, -1391503.3, 19352.152, 0.0545887, -0.08538165, -1385476.6, 31719.662, 0.0, 9.999608, 10.000363 
7.44981e+2, 1.653882e+2, -1395133.0, -1385083.9, 63154.883, 0.06061912, -0.06249645, -1326754.0, -7559.814, 0.0, 9.999581, 9.999765 
7.4499196e+2, 1.753891e+2, -1245235.3, -1257196.3, 68330.414, 0.012363585, 0.026966162, -1182624.1, 38562.566, 0.0, 9.999916, 9.999806 
7.450036e+2, 1.8538886e+2, -1114255.0, -1146920.1, 62297.836, 0.056419387, 0.029137531, -1066184.4, 57002.36, 0.0, 10.000161, 9.999765 
7.4501574e+2, 1.9538741e+2, -997630.9, -1042967.0, 32649.842, 0.17004238, -0.11875048, -980551.6, 44644.29, 0.0, 10.000303, 9.999737 
7.450264e+2, 2.053864e+2, -900492.5, -1010186.4, 28414.521, 0.13613749, -0.15908507, -893569.1, 33632.98, 0.0, 10.000584, 9.999146 
7.450359e+2, 2.1538553e+2, -746224.9, -887094.06, -458.48215, -0.025757452, -0.184204, -746223.4, 82984.82, 0.0, 10.000975, 9.999134 
7.450482e+2, 2.2538488e+2, -629816.1, -817364.5, 42258.563, 0.016375674, -0.14398524, -620734.2, 110479.64, 0.0, 10.00126, 9.998806 
7.45063e+2, 2.3538409e+2, -509269.4, -714897.75, -8490.517, 0.22281434, -0.12790707, -508919.4, 124302.33, 0.0, 10.00143, 9.998762 
7.450743e+2, 2.4538252e+2, -495776.47, -795702.2, -51142.035, 0.17128207, -0.09183081, -487295.75, 47942.36, 0.0, 10.0014515, 9.997522 
7.4508256e+2, 2.5538006e+2, -399464.16, -697517.25, -22665.992, -0.09105666, -0.115156084, -397750.34, 39513.492, 0.0, 10.001435, 9.997529 
7.4509376e+2, 2.6537776e+2, -270944.16, -600646.56, 12130.986, -0.06979265, -0.0884249, -270498.4, 68789.234, 0.0, 10.00173, 9.997374 
7.4510753e+2, 2.7537525e+2, -88072.12, -455921.63, -319.079, 0.20475043, -0.098582454, -88071.836, 153240.53, 0.00000017449423, 10.00229, 9.997423 
7.451189e+2, 2.8537315e+2, -35832.387, -313835.8, 13879.243, 0.19941507, -0.08094288, -35141.188, 108192.87, 0.0000070145306, 10.001687, 9.998016 
7.451279e+2, 2.953711e+2, -155007.75, -321866.03, -23460.846, -0.04726949, -0.118761666, -151771.83, -106416.664, 0.00004543542, 10.000189, 9.99801 
7.4513596e+2, 3.0536893e+2, -29870.354, -141040.55, -90943.984, -0.28820664, -0.1705293, 21130.248, 21130.248, 0.00014809403, 10.000318, 9.998858 
7.4514914e+2, 3.153683e+2, 208113.95, 60206.99, -48589.52, 0.09129959, -0.15144676, 222648.1, 222648.1, 0.00032280377, 10.001526, 9.999653 
7.549403e+2, 1.253796e+2, -1813839.5, -1770649.6, -59725.855, 0.075301096, 0.1040284, -1728734.6, -17455.297, 0.0, 9.999314, 9.999925 
7.5494796e+2, 1.3537733e+2, -1662305.8, -1711908.3, -7661.386, -0.06914153, -0.08075564, -1661149.3, -47843.86, 0.0, 9.999999, 9.999332 
7.549565e+2, 1.4537817e+2, -1485134.1, -1464535.1, 6849.588, -0.21877654, 0.028235301, -1462465.5, 52834.22, 0.0, 10.000031, 10.000335 
7.5497127e+2, 1.5538101e+2, -1450912.8, -1393082.0, 13869.08, 0.21315873, 0.24379246, -1389927.9, 27345.328, 0.0, 9.999583, 10.000367 
7.5498265e+2, 1.6538145e+2, -1364069.0, -1313217.5, 62725.977, 0.24650156, 0.25732738, -1270960.0, 48307.69, 0.0, 9.999548, 10.000276 
7.549916e+2, 1.7537963e+2, -1217485.5, -1194931.8, 92446.91, -0.045717575, 0.028630653, -1113076.4, 108205.3, 0.0, 9.999899, 10.000242 
7.5500286e+2, 1.8537892e+2, -1150606.8, -1213570.3, 55756.215, -0.058916256, -0.01633475, -1118058.4, 5227.3154, 0.0, 10.00012, 9.9993305 
7.5501615e+2, 1.9537878e+2, -1039747.3, -1111318.8, 50248.137, 0.16172144, 0.014123763, -1013844.4, 11439.812, 0.0, 10.00022, 9.999309 
7.5502783e+2, 2.0537765e+2, -955799.44, -1099960.8, 30947.309, 0.19966061, 0.01229252, -949436.75, -22143.836, 0.0, 10.00047, 9.99859 
7.550381e+2, 2.1537548e+2, -808172.0, -975177.2, 23046.111, 0.077566385, -0.089407995, -805050.06, 24262.26, 0.0, 10.000807, 9.99861 
7.5505e+2, 2.2537369e+2, -715995.44, -962562.75, 39204.645, 0.046470843, -0.08885018, -709911.94, 21418.77, 0.0, 10.001117, 9.99788 
7.550632e+2, 2.3537192e+2, -591870.8, -851620.8, 11339.66, 0.08230589, -0.076360956, -591376.7, 41974.32, 0.0, 10.001285, 9.997893 
7.55075e+2, 2.4537088e+2, -430073.9, -639389.56, -62850.56, 0.07778354, -0.0042189155, -412652.03, 122708.51, 0.0, 10.001362, 9.99864 
7.550855e+2, 2.5537014e+2, -335995.16, -547163.2, -11062.097, 0.039658114, 0.033446085, -335417.25, 101946.56, 0.0, 10.001351, 9.998605 
7.5509673e+2, 2.6536757e+2, -281113.5, -609921.44, 23581.27, 0.0327563, -0.01614276, -279430.94, 59956.47, 0.0, 10.001683, 9.997331 
7.5510865e+2, 2.7536312e+2, -111939.62, -478698.56, 31596.998, 0.05686324, -0.21729767, -109237.38, 132193.58, 0.0000002213921, 10.002175, 9.997323 
7.551195e+2, 2.8536096e+2, -78436.234, -395895.72, -51446.344, 0.069626644, -0.16692983, -70307.18, 73147.39, 0.000006961638, 10.001653, 9.997474 
7.551294e+2, 2.9536054e+2, -194153.45, -397150.72, -57754.48, 0.052571815, 0.013941912, -178872.16, -133408.48, 0.00004401986, 10.000151, 9.997519 
7.551376e+2, 3.053596e+2, -29334.041, -127374.81, -47432.29, -0.17782067, 0.095590204, -10142.842, -10142.842, 0.0001416952, 10.000276, 9.998964 
7.5515044e+2, 3.153568e+2, 192089.64, 52408.43, 10588.601, 0.011992452, -0.11115152, 192887.75, 192887.75, 0.0003069929, 10.001421, 9.999644 
7.649399e+2, 1.2537059e+2, -1885212.3, -1788393.0, -87065.2, 0.15576693, 0.19908947, -1737184.3, -25812.018, 0.00000000032551553, 9.998686, 10.00012 
7.649477e+2, 1.3536794e+2, -1705503.1, -1730394.3, 1680.2781, -0.06006421, -0.03453761, -1705390.3, -91990.01, 0.0, 9.999646, 9.999387 
7.6495695e+2, 1.453682e+2, -1513093.5, -1500174.1, 38348.47, -0.16063546, 0.02187653, -1467745.1, 47654.332, 0.0, 9.999926, 10.000148 
7.6497126e+2, 1.5537097e+2, -1400053.1, -1389066.6, 7500.1313, 0.24239793, 0.2493375, -1385263.3, 32110.332, 0.0, 10.0000105, 10.000197 
7.6498276e+2, 1.6537131e+2, -1301572.0, -1292352.0, 65024.094, 0.28622782, 0.2664908, -1231774.6, 87594.32, 0.0, 10.000031, 10.0001745 
7.6499224e+2, 1.7536935e+2, -1212240.4, -1200393.1, 26190.71, 0.035055824, 0.030118028, -1179464.5, 41920.18, 0.0, 9.999983, 10.0001545 
7.6500356e+2, 1.8536866e+2, -1133192.8, -1193213.0, 18225.89, 0.0016071642, -0.013811668, -1128091.8, -4703.761, 0.0, 10.000194, 9.999432 
7.6501644e+2, 1.9536872e+2, -973437.2, -1070720.8, 32671.436, 0.14778693, 0.026637428, -963483.3, 61900.39, 0.0, 10.000633, 9.999391 
7.6502854e+2, 2.0536764e+2, -894474.06, -1082930.4, 72763.43, 0.20775692, 0.030908855, -869649.9, 57742.105, 0.0, 10.000953, 9.998477 
7.650401e+2, 2.1536529e+2, -764923.3, -971931.75, 74488.54, 0.18964683, -0.07593761, -740906.3, 88507.51, 0.0, 10.001166, 9.998467 
7.65052e+2, 2.2536333e+2, -684583.0, -955659.6, 155488.61, 0.13441072, -0.08106207, -613851.2, 117582.66, 0.0, 10.001377, 9.9978 
7.650641e+2, 2.3536152e+2, -550495.7, -837778.6, 167393.98, 0.03942058, -0.066386335, -473561.5, 159892.83, 0.0, 10.001609, 9.997826 
7.650761e+2, 2.4536017e+2, -380316.34, -600027.2, 94409.77, 0.04915239, -0.027627468, -345322.13, 190143.47, 0.0, 10.001648, 9.998764 
7.6508796e+2, 2.55359e+2, -307445.6, -519038.22, 52441.023, 0.14696309, -0.04590965, -295161.75, 142309.47, 0.0, 10.001498, 9.998719 
7.6509917e+2, 2.6535663e+2, -315443.53, -623267.44, 87776.47, 0.12461439, -0.08107047, -292173.1, 47319.484, 0.0, 10.0014305, 9.997362 
7.6510984e+2, 2.7535295e+2, -217761.02, -524218.06, 77404.625, 0.012411649, -0.20883434, -199319.92, 42209.77, 0.00000016204108, 10.001425, 9.997371 
7.6512074e+2, 2.8535086e+2, -55050.07, -401206.72, 19254.916, 0.018065248, -0.1482107, -53982.313, 89570.91, 0.000006290961, 10.001886, 9.997321 
7.651314e+2, 2.9534993e+2, 162068.4, -236392.95, 18863.873, 0.11504785, -0.007096999, 162959.47, 208526.56, 0.000041719115, 10.002665, 9.997398 
7.651395e+2, 3.05349e+2, 197673.42, -74557.26, 40894.88, -0.0921718, 0.110305056, 203684.0, 203684.0, 0.00013461517, 10.002068, 9.99847 
7.6515156e+2, 3.1534603e+2, -24114.459, -40899.363, -5010.824, 0.06828733, -0.062062394, -22732.371, -22732.371, 0.00029005748, 9.99988, 9.99975 
7.7493834e+2, 1.253587e+2, -1821550.8, -1646305.3, -109850.91, 0.06684595, 0.086319335, -1593411.3, 118081.945, 0.0000000023621072, 9.998652, 10.001108 
7.749492e+2, 1.3535964e+2, -1644802.0, -1601577.4, 38428.793, 0.097341284, 0.12277482, -1579100.4, 34381.89, 0.0, 9.999641, 10.000271 
7.7495885e+2, 1.4535904e+2, -1527850.0, -1537214.0, 23450.732, 0.002941836, 0.062304623, -1508618.5, 6868.373, 0.0, 9.999946, 9.999888 
7.749695e+2, 1.5535794e+2, -1418154.5, -1431855.4, 23275.482, 0.041995145, -0.0673977, -1400742.3, 16753.908, 0.0, 10.000029, 9.999897 
7.74981e+2, 1.6535783e+2, -1352582.3, -1393930.3, 50204.02, 0.08171565, -0.04225688, -1318962.0, 535.4931, 0.0, 10.000013, 9.999487 
7.7499366e+2, 1.753583e+2, -1260138.9, -1293490.3, 37386.695, 0.15196931, 0.030229531, -1235877.5, -14382.413, 0.0, 9.999955, 9.999529 
7.750053e+2, 1.853582e+2, -1096885.4, -1106031.4, 24565.902, 0.13326593, 0.04374455, -1076470.4, 47022.395, 0.0, 10.000136, 10.000064 
7.7501607e+2, 1.953574e+2, -941943.6, -985201.1, 59564.83, 0.026480865, -0.065772235, -900202.25, 125290.66, 0.0, 10.000544, 10.000024 
7.7502817e+2, 2.0535643e+2, -891992.9, -1048218.94, 68086.69, 0.05606332, -0.09656061, -866484.25, 61014.266, 0.0, 10.000825, 9.998777 
7.7504164e+2, 2.1535504e+2, -766542.9, -938715.5, 92095.76, 0.20772956, -0.13568458, -726563.75, 102947.914, 0.0, 10.001014, 9.998767 
7.7505404e+2, 2.253539e+2, -655128.7, -860346.3, 150966.2, 0.17841667, -0.10991128, -575201.56, 156320.7, 0.0, 10.001227, 9.998529 
7.750654e+2, 2.353527e+2, -522017.4, -747618.25, 185674.31, -0.013637196, -0.10780306, -417564.78, 215968.55, 0.0, 10.001469, 9.998515 
7.7507734e+2, 2.4535032e+2, -456200.66, -730083.3, 76538.77, -0.019904833, -0.16375948, -436262.7, 99291.55, 0.0, 10.001533, 9.997928 
7.750896e+2, 2.5534672e+2, -378057.06, -644380.8, 58525.65, 0.13685204, -0.3402614, -365763.3, 71822.16, 0.0, 10.001406, 9.997905 
7.7510077e+2, 2.65345e+2, -313691.66, -610914.25, 77892.54, 0.12014389, -0.27446526, -294515.7, 45086.926, 0.0, 10.00139, 9.997469 
7.7511096e+2, 2.7534458e+2, -218245.88, -512541.0, 89715.44, -0.04897617, -0.0886901, -193052.89, 48558.176, 0.00000014054619, 10.001362, 9.997487 
7.751219e+2, 2.8534257e+2, -47621.88, -366421.38, 38129.113, -0.07038251, -0.040008727, -43124.99, 100507.695, 0.0000059856334, 10.00181, 9.997592 
7.7513355e+2, 2.9533908e+2, 165115.61, -213260.84, 59258.47, 0.029055469, -0.1811288, 174179.13, 219846.19, 0.0000396548, 10.002591, 9.997591 
7.7514154e+2, 3.0533725e+2, 121903.875, -224144.28, -46056.047, -0.12094993, -0.111557625, 127928.65, 127928.65, 0.00012692052, 10.002036, 9.997461 
7.7515185e+2, 3.1533566e+2, -38187.97, -60714.55, -72983.375, 0.05171525, -0.040476527, 24396.113, 24396.113, 0.00027215088, 9.999828, 9.999651 
7.849371e+2, 1.2534787e+2, -1747981.0, -1589640.5, 13666.769, 0.0655164, -0.012136555, -1588469.5, 123128.28, 0.0000000040597263, 9.999093, 10.001273 
7.849491e+2, 1.353503e+2, -1700557.9, -1595831.5, 69545.99, 0.15209433, 0.14302206, -1561139.9, 52431.7, 0.0, 9.999142, 10.000538 
7.849596e+2, 1.4534953e+2, -1607912.5, -1595713.6, 59867.383, 0.11406465, 0.06397593, -1541635.8, -26058.586, 0.0, 9.999492, 9.9997 
7.849695e+2, 1.553476e+2, -1394780.9, -1443680.1, 39705.11, 0.025920494, -0.12923972, -1372601.4, 44993.688, 0.0, 10.000298, 9.9996805 
7.84981e+2, 1.6534731e+2, -1297013.8, -1399618.8, 87925.44, 0.06067116, -0.09664775, -1246518.3, 73080.87, 0.0, 10.000535, 9.99919 
7.849944e+2, 1.7534815e+2, -1244574.3, -1316599.3, 79118.95, 0.23102327, 0.04331739, -1193657.4, 27936.938, 0.0, 10.000198, 9.999246 
7.8500634e+2, 1.8534802e+2, -1060731.4, -1079851.6, 103336.95, 0.22413754, 0.06332422, -966513.3, 157079.48, 0.0, 10.000352, 10.0001335 
7.850169e+2, 1.9534683e+2, -895791.44, -952547.6, 72536.664, 0.0500625, -0.09221705, -846279.3, 179316.8, 0.0, 10.000833, 10.000099 
7.850289e+2, 2.0534584e+2, -877181.6, -1052601.3, 52612.383, 0.04043123, -0.12366814, -862612.0, 64990.45, 0.0, 10.000976, 9.998674 
7.8504217e+2, 2.1534477e+2, -818253.06, -973697.44, 25766.996, 0.18082729, -0.12070068, -814093.1, 15520.876, 0.0, 10.000704, 9.998675 
7.85055e+2, 2.2534388e+2, -720529.9, -867180.94, 81279.01, 0.18583478, -0.076777145, -684388.94, 47233.242, 0.0, 10.000663, 9.9987545 
7.850673e+2, 2.3534289e+2, -604012.2, -765347.94, 55645.426, 0.06792244, -0.073482364, -586681.5, 46948.45, 0.0, 10.000806, 9.998715 
7.8507936e+2, 2.4534048e+2, -506461.03, -786088.9, -19995.041, 0.04841561, -0.12652121, -505038.5, 30613.236, 0.0, 10.0013275, 9.997636 
7.850911e+2, 2.553366e+2, -276431.88, -625425.8, -22551.34, 0.11614121, -0.30288392, -274980.7, 162707.1, 0.0, 10.002231, 9.997634 
7.851024e+2, 2.6533487e+2, -127680.87, -496267.66, 23240.71, 0.09133906, -0.2384649, -126221.234, 213484.13, 0.0, 10.002568, 9.997688 
7.8511316e+2, 2.7533466e+2, -56600.26, -409536.06, 20848.66, -0.00836807, -0.052431457, -55372.953, 186337.31, 0.0000001311964, 10.002372, 9.9977045 
7.851243e+2, 2.8533277e+2, -13999.9795, -317315.25, 1637.5907, -0.007115226, -0.016990563, -13991.139, 129737.72, 0.0000058891046, 10.001893, 9.997892 
7.8513587e+2, 2.9532948e+2, -41826.906, -286398.34, 922.7446, 0.0917811, -0.16586684, -41823.426, 3935.863, 0.000037489564, 10.001051, 9.997834 
7.851436e+2, 3.053264e+2, 11121.506, -352549.13, -69421.44, -0.08250416, -0.19514208, 23922.82, 23922.82, 0.00011865352, 10.001591, 9.996791 
7.851528e+2, 3.153253e+2, 405768.06, 101879.78, -133486.72, 0.010286649, -0.019783696, 456075.56, 456075.56, 0.00025448482, 10.0031, 9.999183 
7.949352e+2, 1.2533855e+2, -1784804.8, -1688475.3, -13414.032, -0.088188626, -0.075442865, -1686642.3, 25039.162, 0.0000000034592607, 9.999188, 10.000552 
7.949469e+2, 1.3533998e+2, -1719176.8, -1644682.1, 77765.34, -0.012330345, 0.020275855, -1595704.1, 17962.709, 0.0, 9.999191, 10.000176 
7.9495895e+2, 1.4533973e+2, -1620071.6, -1621283.5, 73084.46, 0.063451745, 0.017229203, -1547590.6, -31920.344, 0.0, 9.999492, 9.999523 
7.9497063e+2, 1.5534e+2, -1403547.6, -1463867.0, 81619.08, 0.08050131, 0.058136966, -1346694.3, 70975.4, 0.0, 10.000306, 9.9995365 
7.949824e+2, 1.6533983e+2, -1293361.8, -1390098.0, 63508.86, 0.1104949, 0.10592576, -1261899.6, 57772.996, 0.0, 10.000523, 9.999265 
7.949943e+2, 1.75339e+2, -1239142.8, -1308401.3, 77845.83, 0.17097515, 0.07224818, -1188571.4, 33110.344, 0.0, 10.000204, 9.999302 
7.950064e+2, 1.8533815e+2, -1109050.8, -1160809.5, 110452.91, 0.17198256, 0.043680966, -1021485.94, 102201.79, 0.0, 10.000273, 9.999613 
7.9501855e+2, 1.9533703e+2, -941190.75, -1029518.7, 101191.21, 0.10398735, -0.058502793, -874945.9, 150747.86, 0.0, 10.000761, 9.999601 
7.9503024e+2, 2.0533589e+2, -928079.7, -1129752.9, 30086.092, 0.054251336, -0.055404715, -923687.0, 4016.816, 0.0, 10.000855, 9.9982 
7.950414e+2, 2.1533443e+2, -872253.8, -1052936.8, 26595.555, 0.01302617, -0.043785278, -868420.4, -38699.387, 0.0, 10.000562, 9.9982 
7.9505455e+2, 2.253333e+2, -763090.1, -919578.44, 78307.98, 0.059831645, 0.012251485, -730635.25, 1097.9591, 0.0, 10.000508, 9.998468 
7.9506946e+2, 2.3533222e+2, -638805.0, -814470.4, 76231.73, 0.18178682, 0.036670085, -610337.0, 23406.03, 0.0, 10.0007, 9.998431 
7.950819e+2, 2.4533072e+2, -504919.28, -760449.7, 3204.2366, 0.14645219, 0.077459805, -504879.1, 30878.467, 0.0, 10.001232, 9.997858 
7.9509217e+2, 2.5532857e+2, -278791.84, -603533.1, 22129.678, -0.027287506, 0.050269276, -277290.75, 160488.48, 0.0, 10.002112, 9.997844 
7.951036e+2, 2.653261e+2, -113450.68, -451112.72, 6330.1816, -0.06481042, 0.01667753, -113332.05, 226469.56, 0.0, 10.002495, 9.9980345 
7.9511607e+2, 2.7532324e+2, -45971.094, -370176.5, 27947.541, 0.021865327, -0.096430026, -43579.57, 198247.11, 0.000000103459534, 10.002293, 9.998015 
7.9512763e+2, 2.853216e+2, 2856.2354, -270719.03, -38771.33, 0.106968015, -0.06854739, 8244.804, 152085.17, 0.0000054454867, 10.001843, 9.998237 
7.95138e+2, 2.9532096e+2, -31045.229, -247282.95, -9578.705, 0.16530074, 0.013311821, -30621.75, 15223.192, 0.00003447301, 10.0009775, 9.998141 
7.9514533e+2, 3.0531654e+2, -18035.146, -409643.4, -14104.79, -0.10312006, -0.14918268, -17527.783, -17527.783, 0.0001104858, 10.001567, 9.99641 
7.951537e+2, 3.153131e+2, 324890.0, -46749.633, -47005.266, -0.27414796, -0.16455196, 330743.1, 330743.1, 0.000240168, 10.003003, 9.998214 
8.0493456e+2, 1.2532817e+2, -1773049.1, -1717266.5, -135540.19, -0.07334336, -0.023213645, -1606777.6, 105003.69, 0.0000000057252847, 9.999437, 10.000248 
8.049464e+2, 1.3532844e+2, -1644546.3, -1626533.0, -78467.14, 0.0034237532, -0.022886632, -1556557.3, 57221.52, 0.0, 9.999772, 10.000044 
8.0495924e+2, 1.4532816e+2, -1541741.4, -1557397.3, -17028.785, 0.12874302, -0.029563896, -1530827.5, -15044.651, 0.0, 9.9999275, 9.999749 
8.0497116e+2, 1.5532967e+2, -1406413.5, -1447021.1, -15700.186, 0.1128431, 0.11708889, -1401051.4, 16719.295, 0.0, 10.000207, 9.999706 
8.0498284e+2, 1.653297e+2, -1321339.9, -1376377.5, -19707.787, 0.13351074, 0.16317649, -1315010.8, 4760.5747, 0.0, 10.000222, 9.99951 
8.0499476e+2, 1.7532817e+2, -1252428.0, -1292663.4, -17212.32, 0.20862608, 0.04039984, -1246069.5, -24283.75, 0.0, 10.000028, 9.999502 
8.0500704e+2, 1.8532726e+2, -1155719.9, -1218796.0, 69431.66, 0.22217229, 0.012124016, -1110999.1, 12794.653, 0.0, 10.0001135, 9.9992895 
8.050197e+2, 1.9532661e+2, -1025452.0, -1111695.5, 47338.72, 0.16578147, -0.0029918284, -1004539.06, 21259.281, 0.0, 10.000358, 9.999239 
8.0503136e+2, 2.0532556e+2, -906004.1, -1108039.3, 21475.324, 0.08819414, 0.020258402, -903746.7, 24062.264, 0.0, 10.000953, 9.99831 
8.050423e+2, 2.1532382e+2, -688170.94, -949516.56, 36111.58, -0.0065171598, -0.0062751966, -683273.0, 146554.63, 0.0, 10.001771, 9.998326 
8.0505556e+2, 2.2532247e+2, -543449.2, -833116.3, 124246.8, 0.035404745, 0.02988568, -497458.13, 234383.55, 0.0, 10.0021105, 9.998281 
8.050709e+2, 2.3532122e+2, -467850.3, -749260.0, 108570.68, 0.19459635, 0.05453107, -430832.2, 203021.4, 0.0, 10.00197, 9.998254 
8.050836e+2, 2.4531989e+2, -442476.75, -741171.6, 57019.5, 0.17626998, 0.12303143, -431962.13, 103905.72, 0.0, 10.001689, 9.997781 
8.050941e+2, 2.553181e+2, -409911.7, -673859.94, 32246.693, 0.010227265, 0.14172539, -406029.22, 31858.36, 0.0, 10.001227, 9.997796 
8.051055e+2, 2.6531574e+2, -309441.03, -488313.53, 23575.654, -0.033479676, 0.093047746, -306385.9, 33522.42, 0.0, 10.000896, 9.998552 
8.051177e+2, 2.753127e+2, -235593.1, -402457.16, 39215.684, 0.04087183, -0.0938117, -226836.33, 15096.02, 0.00000004701224, 10.000724, 9.998553 
8.0512905e+2, 2.8531113e+2, -125454.84, -342080.56, -7285.8955, 0.11119523, -0.0789035, -125210.07, 18734.324, 0.000004093495, 10.00101, 9.998143 
8.051393e+2, 2.953107e+2, 84234.29, -195756.58, -36460.594, 0.16443253, 0.031740047, 88904.32, 134852.45, 0.000029631305, 10.001792, 9.998097 
8.051473e+2, 3.0530667e+2, 118127.516, -263426.84, 35372.84, -0.08136732, -0.12278441, 121379.12, 121379.12, 0.00010221737, 10.002164, 9.997133 
8.051568e+2, 3.1530422e+2, 163940.67, -124075.4, 29636.916, -0.19730821, -0.113850854, 166958.69, 166958.69, 0.00023173698, 10.001925, 9.998196 
8.149343e+2, 1.2531686e+2, -1766422.5, -1721709.9, -140243.88, -0.102678604, 0.15282553, -1602051.6, 109844.96, 0.000000004999778, 9.999514, 10.000179 
8.149472e+2, 1.3531584e+2, -1631275.4, -1606231.6, -59907.406, 0.07390956, 0.01298102, -1557551.4, 56354.4, 0.0, 9.999812, 10.000155 
8.1496e+2, 1.453151e+2, -1505826.3, -1491358.1, -21791.025, 0.18415506, -0.069129795, -1475631.8, 40281.34, 0.0, 9.999958, 10.000194 
8.1497055e+2, 1.5531676e+2, -1370589.0, -1373852.0, 6193.7246, 0.0094504515, 0.04654188, -1365815.5, 52081.81, 0.0, 10.000213, 10.000205 
8.1498224e+2, 1.65317e+2, -1301960.1, -1331795.4, -40789.395, 0.024431923, 0.07411096, -1273446.1, 46448.504, 0.0, 10.000204, 9.999822 
8.149953e+2, 1.7531568e+2, -1233037.4, -1246297.4, -12897.66, 0.23285048, -0.063745275, -1225165.4, -3258.901, 0.0, 10.000005, 9.999827 
8.1500787e+2, 1.8531537e+2, -1181511.0, -1259115.8, 68370.29, 0.26761332, -0.03265778, -1141699.6, -17789.422, 0.0, 10.0000515, 9.999045 
8.1501985e+2, 1.9531572e+2, -1049966.4, -1148447.5, 68612.805, 0.1256632, 0.07405867, -1014753.75, 11155.512, 0.0, 10.000292, 9.99902 
8.1503206e+2, 2.0531498e+2, -882831.8, -1027810.9, 39109.645, 0.045499202, 0.10763801, -872954.5, 54961.965, 0.0, 10.000815, 9.998928 
8.150446e+2, 2.1531302e+2, -668119.8, -871735.44, 76720.09, 0.021603635, -0.004562927, -642449.0, 187484.27, 0.0, 10.001615, 9.998935 
8.1505764e+2, 2.2531143e+2, -572123.94, -853691.25, 106114.95, 0.009393598, -0.016273454, -536611.2, 195336.22, 0.0, 10.001944, 9.998221 
8.150711e+2, 2.3530984e+2, -496020.5, -771329.75, 112994.29, -0.00073703093, -0.020589886, -455583.84, 178378.6, 0.0, 10.00181, 9.998182 
8.150841e+2, 2.453079e+2, -487517.16, -801949.9, 27705.373, 0.038338233, 0.009159975, -485094.66, 50888.67, 0.0, 10.001552, 9.997429 
8.1509674e+2, 2.5530538e+2, -449483.47, -731154.6, 26382.357, 0.12534626, -0.008620165, -447033.7, -9022.06, 0.0, 10.0011215, 9.997455 
8.151078e+2, 2.6530385e+2, -261301.33, -374839.3, 6638.61, 0.087056905, -0.0009473298, -260914.48, 79110.53, 0.0, 10.000844, 9.999354 
8.151176e+2, 2.7530292e+2, -202789.64, -304865.78, 47613.22, -0.06625048, -0.050044835, -184028.69, 57998.945, 0.000000004527389, 10.000607, 9.999277 
8.1512815e+2, 2.853013e+2, -166299.67, -425030.25, 10724.278, -0.100267775, -0.049423277, -165855.9, -21814.436, 0.0000024308686, 10.000991, 9.997587 
8.151395e+2, 2.9529887e+2, 32923.047, -282953.66, 7569.899, -0.031319186, -0.08086782, 33104.35, 79171.49, 0.00002455122, 10.001707, 9.997541 
8.151493e+2, 3.0529687e+2, 242924.88, -5256.81, 19010.602, -0.123392016, -0.09846321, 244372.63, 244372.63, 0.00009685274, 10.002171, 9.998899 
8.151609e+2, 3.1529835e+2, 211131.69, 5515.8687, 38369.86, -0.03666971, 0.12574822, 218058.52, 218058.52, 0.00023260372, 10.001797, 9.999148 
8.249336e+2, 1.2530366e+2, -1950576.1, -1813359.5, -8273.993, -0.052910246, 0.054074723, -1812862.4, -100840.016, 0.0000000017683296, 9.99823, 10.000167 
8.24947e+2, 1.3530347e+2, -1727055.9, -1645573.4, 14331.911, 0.12369868, -0.020511571, -1643126.0, -29101.207, 0.0, 9.9991, 10.000232 
8.249603e+2, 1.4530304e+2, -1603782.3, -1505203.6, 57198.863, 0.2609827, -0.09031346, -1478987.0, 37041.945, 0.0, 9.999152, 10.000479 
8.249705e+2, 1.5530428e+2, -1565935.5, -1439547.6, 42905.445, 0.058079515, -0.042514663, -1426358.8, -8342.577, 0.0, 9.998754, 10.00045 
8.2498205e+2, 1.6530463e+2, -1441136.9, -1395423.3, 21118.402, 0.038647078, -0.01921228, -1387160.6, -67148.07, 0.0, 9.999225, 9.999855 
8.2499516e+2, 1.7530394e+2, -1171455.4, -1219699.8, 1011.0327, 0.21176729, -0.09577473, -1171434.3, 50585.324, 0.0, 10.000418, 9.999818 
8.2500803e+2, 1.8530396e+2, -1055052.9, -1203354.1, 88903.125, 0.24351113, -0.031051802, -1013436.2, 110585.26, 0.0, 10.000942, 9.998999 
8.250204e+2, 1.9530429e+2, -971864.9, -1115163.3, 78841.63, 0.12761466, 0.08055275, -936979.5, 89042.1, 0.0, 10.000854, 9.998974 
8.250331e+2, 2.0530356e+2, -911471.94, -1036863.1, 59406.617, 0.088110246, 0.11481482, -887796.94, 40232.164, 0.0, 10.000606, 9.998955 
8.2504636e+2, 2.1530168e+2, -878768.8, -973122.44, 27010.547, 0.12412056, 0.0080891, -871583.7, -41538.773, 0.0, 10.000165, 9.998936 
8.250594e+2, 2.2530001e+2, -819374.6, -971603.6, 63427.754, 0.088247985, -0.011270823, -796410.9, -64351.063, 0.0, 10.000228, 9.998253 
8.2507217e+2, 2.3529823e+2, -649351.5, -841388.2, 52647.105, -0.014151411, -0.036505353, -635865.3, -1788.0194, 0.0, 10.000729, 9.998235 
8.2508504e+2, 2.4529645e+2, -512961.94, -741354.9, 22179.77, 0.009864697, -0.025330123, -510827.97, 25267.352, 0.0, 10.001075, 9.998073 
8.2509816e+2, 2.5529447e+2, -375372.72, -621890.7, 69449.0, 0.15050136, -0.0531266, -357154.0, 80961.56, 0.0, 10.001336, 9.998096 
8.2510936e+2, 2.6529333e+2, -191569.02, -395757.75, 57887.285, 0.12705323, -0.014631454, -176299.86, 163826.39, 0.0, 10.001555, 9.998869 
8.25119e+2, 2.7529255e+2, -77255.1, -295025.3, -17788.564, -0.034751732, -0.0034186847, -75811.62, 166320.16, 0.0, 10.001683, 9.998825 
8.251294e+2, 2.8529084e+2, -39268.992, -330796.6, -24741.906, -0.110174835, -0.004795695, -37184.063, 106963.375, 0.000001518397, 10.001733, 9.997877 
8.251404e+2, 2.95288e+2, 55250.086, -238043.03, 8157.1885, -0.097265214, -0.104927905, 55476.785, 101651.6, 0.000022026383, 10.001712, 9.997849 
8.251514e+2, 3.0528682e+2, 222198.95, -22083.367, 5220.504, -0.11885186, -0.04660707, 222310.47, 222310.47, 0.00009707927, 10.002067, 9.998826 
8.2516414e+2, 3.1528732e+2, 328734.72, 50273.93, -159642.83, 0.07869721, 0.078480884, 401331.94, 401331.94, 0.00024343748, 10.002638, 9.999045 
8.3493143e+2, 1.2528865e+2, -1949466.5, -1799439.5, 9555.382, -0.14811896, -0.32438856, -1798833.4, -86675.43, 0.000000000051048894, 9.998193, 10.000278 
8.349457e+2, 1.3529147e+2, -1702354.5, -1596555.6, 56726.68, 0.05160303, -0.122646466, -1571890.5, 42243.49, 0.0, 9.999122, 10.000552 
8.3495957e+2, 1.4529213e+2, -1607125.8, -1515383.5, 26532.604, 0.24236724, -0.09526578, -1508262.8, 7866.215, 0.0, 9.999165, 10.000403 
8.3497036e+2, 1.5529232e+2, -1568770.6, -1444267.4, 40107.07, 0.13594249, -0.15113945, -1432466.0, -14339.5, 0.0, 9.998748, 10.000419 
8.349818e+2, 1.6529268e+2, -1466691.4, -1431859.1, 53982.227, 0.066256225, -0.11262972, -1392553.1, -72428.71, 0.0, 9.999157, 9.9996395 
8.3499426e+2, 1.7529319e+2, -1188718.5, -1249414.1, 59074.344, 0.047251113, -0.046687067, -1152652.8, 69470.16, 0.0, 10.000401, 9.9996195 
8.350073e+2, 1.8529315e+2, -1052371.9, -1194822.8, 72495.65, 0.052399017, 0.02150647, -1021967.25, 102158.52, 0.0, 10.00092, 9.999074 
8.3502084e+2, 1.952923e+2, -976239.94, -1105596.9, 86473.22, 0.06388153, 0.0031449075, -932932.6, 93203.19, 0.0, 10.000771, 9.999081 
8.350342e+2, 2.0529129e+2, -974497.7, -1134234.6, 30852.973, 0.11179053, 0.034457512, -968745.6, -40598.56, 0.0, 10.000461, 9.998355 
8.350474e+2, 2.1528986e+2, -939535.1, -1065359.1, 22791.559, 0.18955429, 0.029104348, -935533.94, -105371.94, 0.0, 10.000021, 9.998368 
8.350606e+2, 2.2528833e+2, -832315.8, -968125.0, 69324.73, 0.16927406, 0.045181252, -803179.44, -71001.54, 0.0, 10.00009, 9.998347 
8.3507365e+2, 2.3528647e+2, -657754.06, -832862.75, 84877.22, 0.048751563, 0.0024095955, -623366.2, 10831.078, 0.0, 10.000606, 9.998358 
8.350861e+2, 2.452856e+2, -416271.75, -516280.7, 20818.387, -0.010924179, 0.017083025, -412111.2, 124092.01, 0.0, 10.000967, 9.99967 
8.35098e+2, 2.5528535e+2, -285087.13, -415684.4, 91242.22, -0.014875203, 0.00034969975, -238184.8, 200015.14, 0.0, 10.001246, 9.999559 
8.3510983e+2, 2.652841e+2, -322192.97, -648595.2, 51953.105, -0.0063075256, 0.04809804, -314123.16, 26089.648, 0.0, 10.001477, 9.99717 
8.3512145e+2, 2.7528167e+2, -206991.2, -540372.75, 1650.0642, 0.017477138, 0.064815596, -206983.03, 35260.08, 0.0, 10.001579, 9.997191 
8.351321e+2, 2.852798e+2, 34240.383, -166083.88, -36547.6, -0.031879004, 0.06841255, 40699.918, 184960.86, 0.0000012583888, 10.001682, 9.999034 
8.3514184e+2, 2.952781e+2, 112766.086, -94386.125, 22263.715, -0.15506974, -0.0333328, 115131.87, 161402.55, 0.000022671806, 10.00161, 9.998888 
8.351531e+2, 3.0527663e+2, 96118.055, -280976.72, 22873.188, -0.17815569, 0.034450386, 97500.39, 97500.39, 0.0001036696, 10.002049, 9.997058 
8.35166e+2, 3.1527364e+2, 222230.06, -144891.64, -97461.28, -0.06125752, -0.009173568, 246499.16, 246499.16, 0.00026239955, 10.002534, 9.997756 
8.449309e+2, 1.2527634e+2, -1890479.5, -1726121.5, -1964.6329, -0.019870706, -0.3315789, -1726098.0, -13820.766, 0.0, 9.998412, 10.000679 
8.449444e+2, 1.3527963e+2, -1794862.1, -1601577.5, -13373.442, 0.061540898, -0.117944054, -1600656.6, 13591.977, 0.0, 9.998328, 10.000904 
8.449581e+2, 1.4528066e+2, -1698921.5, -1554454.8, -13913.314, 0.22172472, -0.07276373, -1553127.0, -36887.676, 0.0, 9.998511, 10.000448 
8.449696e+2, 1.5528055e+2, -1485725.5, -1403308.6, -20049.902, 0.16247489, -0.16041608, -1398689.9, 19548.9, 0.0, 9.999315, 10.000428 
8.449814e+2, 1.6528077e+2, -1403881.0, -1441207.8, 32583.498, 0.093169734, -0.12085997, -1384994.3, -64755.43, 0.0, 9.999752, 9.999292 
8.44994e+2, 1.7528114e+2, -1317983.6, -1350196.8, 2342.8313, 0.02851582, -0.032712504, -1317814.1, -95573.305, 0.0, 9.999679, 9.999277 
8.4500724e+2, 1.8528096e+2, -1226480.9, -1264137.5, 9330.183, 0.027006384, 0.030855713, -1224295.9, -100050.14, 0.0, 9.999672, 9.999192 
8.4502107e+2, 1.9527997e+2, -1123592.5, -1170542.0, -381.28314, 0.069368884, -0.010778466, -1123589.4, -97332.72, 0.0, 9.999726, 9.999142 
8.4503466e+2, 2.0527904e+2, -988670.75, -1139300.5, 3383.6907, 0.13101634, 0.024189293, -988594.75, -60327.203, 0.0, 10.000348, 9.9983835 
8.450483e+2, 2.1527787e+2, -741362.25, -971717.0, 14898.494, 0.21459806, 0.046853784, -740402.7, 89878.39, 0.0, 10.001383, 9.9983635 
8.4506166e+2, 2.252765e+2, -641466.6, -835415.0, 91397.0, 0.21157642, 0.06402392, -605183.9, 127111.17, 0.0, 10.001246, 9.998681 
8.450747e+2, 2.3527485e+2, -718266.0, -819559.56, 96111.05, 0.12632786, 0.006428199, -660273.8, -25962.893, 0.0, 10.000041, 9.998698 
8.450872e+2, 2.4527413e+2, -535119.1, -576760.44, 42730.598, 0.04312515, 0.017791236, -508406.6, 27908.568, 0.0, 10.000158, 9.999645 
8.4509903e+2, 2.5527388e+2, -262917.56, -402264.66, -27928.242, -0.0349144, 0.0026466798, -257528.52, 180783.67, 0.0, 10.001396, 9.999569 
8.451111e+2, 2.6527253e+2, -304194.3, -646609.44, -71776.62, -0.026592057, 0.043810546, -289757.28, 50568.684, 0.0, 10.001631, 9.997105 
8.4512323e+2, 2.7527e+2, -294461.56, -586300.5, -24400.94, 0.07430829, 0.054136895, -292435.44, -50078.207, 0.0000000050987805, 10.000998, 9.997152 
8.4513426e+2, 2.852681e+2, -63695.324, -248206.23, -12003.141, 0.051031884, 0.07210332, -62917.754, 81457.96, 0.0000017149706, 10.001149, 9.998725 
8.451442e+2, 2.952664e+2, 139013.38, -107545.375, -84737.41, -0.084072724, -0.005713018, 165327.56, 211714.19, 0.0000255943, 10.001896, 9.998653 
8.4515584e+2, 3.0526438e+2, 109026.33, -314711.88, -51372.53, -0.10599677, 0.0361516, 115165.61, 115165.61, 0.000114914044, 10.002307, 9.996712 
8.451681e+2, 3.1526032e+2, 197140.95, -123135.35, -100918.11, -0.078271665, -0.07698731, 226287.48, 226287.48, 0.00028702893, 10.002189, 9.998084 
8.5493135e+2, 1.2526703e+2, -1862138.5, -1663325.4, -25618.49, 0.123551175, 0.045920946, -1660077.3, 52300.508, 0.0, 9.998405, 10.001109 
8.549427e+2, 1.3526809e+2, -1775484.3, -1549537.6, -10989.458, 0.029772455, 0.0028266239, -1549004.4, 65362.86, 0.0, 9.998304, 10.001259 
8.549555e+2, 1.4526878e+2, -1679406.4, -1526598.4, 1303.8766, 0.07671658, -0.012365395, -1526587.3, -10228.667, 0.0, 9.998547, 10.000633 
8.549678e+2, 1.5526915e+2, -1466856.4, -1374644.9, 25996.615, 0.022284074, -0.07316728, -1367820.8, 50530.875, 0.0, 9.999354, 10.000607 
8.5498065e+2, 1.6526894e+2, -1447888.1, -1528368.1, 16297.286, 0.01657778, -0.05223353, -1444713.3, -124357.64, 0.0, 9.999732, 9.998705 
8.549942e+2, 1.7526785e+2, -1356246.5, -1424432.3, 9280.526, 0.05303705, -0.05823661, -1355005.9, -132633.06, 0.0, 9.9996605, 9.998774 
8.550075e+2, 1.8526743e+2, -1228636.3, -1257059.8, -400.44345, 0.059455782, 0.0019493375, -1228630.5, -104249.67, 0.0, 9.999613, 9.999274 
8.5502064e+2, 1.952674e+2, -1120566.9, -1155630.5, 13036.555, 0.028686156, 0.046271108, -1116251.1, -89868.0, 0.0, 9.999682, 9.999267 
8.550344e+2, 2.0526694e+2, -963200.3, -1065251.8, 29736.63, 0.048256442, 0.09551148, -955167.6, -26778.693, 0.0, 10.000249, 9.998947 
8.550488e+2, 2.1526575e+2, -719685.94, -893225.56, 64421.77, 0.10439636, 0.056786552, -698385.56, 132016.14, 0.0, 10.001233, 9.998978 
8.550622e+2, 2.2526458e+2, -633029.4, -775868.1, 34804.48, 0.12358126, 0.036307275, -625000.1, 107411.2, 0.0, 10.001065, 9.999179 
8.5507476e+2, 2.352633e+2, -702839.6, -761856.06, 65725.766, 0.11196006, -0.032698687, -660301.94, -25882.402, 0.0, 9.999927, 9.999151 
8.5508776e+2, 2.4526198e+2, -657601.6, -808233.06, 77145.95, 0.06743834, -0.023094427, -625102.94, -88671.44, 0.0, 10.000062, 9.998103 
8.55101e+2, 2.5526014e+2, -384330.44, -625854.6, 28942.393, -0.0061964327, -0.04283922, -380910.63, 57540.527, 0.0, 10.001267, 9.998099 
8.551131e+2, 2.6525867e+2, -210114.05, -427822.34, -106548.04, -0.012590046, -0.024196442, -166647.13, 173818.0, 0.0, 10.00153, 9.998657 
8.5512406e+2, 2.752574e+2, -206516.78, -383522.4, -32409.07, 0.03373219, -0.038821537, -200769.42, 41705.63, 0.0000001292932, 10.000912, 9.998589 
8.551355e+2, 2.852557e+2, -184871.39, -487240.94, 8319.091, 0.029715799, 0.0116850315, -184642.67, -40150.84, 0.0000031613251, 10.001098, 9.997105 
8.551471e+2, 2.9525295e+2, 17310.326, -341687.6, -41544.293, -0.020489814, -0.004069271, 22055.238, 68576.234, 0.000030116835, 10.001813, 9.997087 
8.551592e+2, 3.052501e+2, 173041.56, -163437.78, -61459.92, -0.017578501, -0.027197944, 183916.13, 183916.13, 0.00012742863, 10.002241, 9.997779 
8.551701e+2, 3.1524703e+2, 281378.47, 85007.1, -56038.01, -0.1588999, -0.13809045, 296244.47, 296244.47, 0.00031382052, 10.002061, 9.999575 
8.649303e+2, 1.2525462e+2, -2041609.4, -1778747.1, 63262.27, 0.25508738, 0.06826236, -1764314.4, -51814.945, 0.00000000000000000000885557, 9.997277, 10.000862 
8.6494106e+2, 1.3525473e+2, -1778225.4, -1597015.4, -21698.27, 0.038151175, -0.04056016, -1594453.5, 20044.379, 0.0, 9.998438, 10.000883 
8.649538e+2, 1.4525528e+2, -1650967.8, -1523092.5, -21025.545, 0.04613434, -0.047483258, -1519724.1, -3232.8743, 0.0, 9.998802, 10.000528 
8.6496687e+2, 1.5525597e+2, -1571568.5, -1444097.4, -49977.156, 0.038944095, -0.05707289, -1426839.5, -8356.735, 0.0, 9.998711, 10.000452 
8.6498034e+2, 1.6525587e+2, -1548758.4, -1540563.0, -15021.646, 0.05968075, -0.03212965, -1529090.1, -208604.73, 0.0, 9.998896, 9.999013 
8.6499417e+2, 1.7525482e+2, -1378427.8, -1409330.3, 13681.655, 0.103680074, -0.06276946, -1373241.0, -150740.3, 0.0, 9.9993925, 9.999006 
8.6500764e+2, 1.8525438e+2, -1204212.0, -1253574.6, 49159.766, 0.10749849, -0.013341724, -1173885.6, -49376.94, 0.0, 9.999832, 9.999182 
8.650208e+2, 1.952543e+2, -1054599.9, -1131836.9, 28409.27, 0.061204664, 0.037586316, -1045275.94, -18764.068, 0.0, 10.000193, 9.999171 
8.6503464e+2, 2.0525414e+2, -977181.7, -1018941.2, 47241.164, 0.07256395, 0.09634429, -946411.75, -17896.617, 0.0, 9.9999485, 9.999391 
8.6504906e+2, 2.1525355e+2, -1008497.94, -985428.8, 41967.547, 0.1264819, 0.07275079, -953439.56, -122917.92, 0.0, 9.999067, 9.999374 
8.6506265e+2, 2.2525266e+2, -826493.8, -870468.0, 24553.033, 0.14111671, 0.0625915, -815522.1, -82993.71, 0.0, 9.999733, 9.99918 
8.650757e+2, 2.352514e+2, -439718.47, -637150.3, -2433.4563, 0.12581132, -0.004387529, -439688.47, 194848.11, 0.0, 10.001734, 9.999144 
8.6508894e+2, 2.452499e+2, -437780.97, -729809.06, 34925.785, 0.10237103, -0.00007226699, -433662.03, 102889.055, 0.0, 10.001699, 9.997847 
8.651023e+2, 2.5524777e+2, -600908.2, -753765.6, 55906.402, 0.07186292, -0.02351677, -582643.3, -144068.39, 0.0, 9.999894, 9.997878 
8.651144e+2, 2.6524618e+2, -391518.9, -460067.75, -14865.626, 0.044956688, -0.028102897, -388433.97, -47845.195, 0.0000000005766255, 10.000043, 9.99915 
8.6512536e+2, 2.7524498e+2, -17755.38, -239300.75, -44552.6, 0.027730342, -0.08807878, -9131.575, 233463.8, 0.000000514823, 10.001973, 9.999067 
8.6513704e+2, 2.8524324e+2, -11812.807, -432060.53, 9104.245, 0.017459564, -0.048481423, -11615.665, 132995.6, 0.0000054394536, 10.002399, 9.996868 
8.6514914e+2, 2.952406e+2, -50202.87, -393168.9, 38626.297, 0.030123563, -0.033861317, -45906.434, 734.0404, 0.000035908153, 10.001431, 9.996923 
8.651617e+2, 3.0523756e+2, 98673.45, -177151.92, 85161.93, 0.049434833, -0.0797141, 122848.586, 122848.586, 0.00014009468, 10.001627, 9.997972 
8.651727e+2, 3.1523627e+2, 359469.56, 148478.77, 8249.058, -0.113475345, -0.03861371, 359791.56, 359791.56, 0.00033844914, 10.002501, 9.99978 
8.7492687e+2, 1.2523948e+2, -2097059.5, -1902423.4, 81535.234, 0.12270659, -0.23455495, -1872781.6, -160142.92, 0.0000000055054987, 9.997311, 9.999993 
8.7493914e+2, 1.3523965e+2, -1844364.3, -1726206.9, 30508.885, -0.020799039, -0.25155354, -1718794.3, -104155.19, 0.0, 9.998413, 9.999998 
8.749527e+2, 1.4524026e+2, -1692942.8, -1611981.1, -40569.15, 0.023718555, -0.17535794, -1595151.0, -78515.08, 0.0, 9.998809, 9.999917 
8.749665e+2, 1.5524115e+2, -1609437.6, -1515707.9, -40889.99, 0.10441656, -0.11068408, -1500377.1, -81746.33, 0.0, 9.998695, 9.99996 
8.7498003e+2, 1.6524181e+2, -1468815.6, -1377641.0, -8342.607, 0.11201673, -0.04561071, -1376884.0, -56257.7, 0.0, 9.998896, 10.000138 
8.749935e+2, 1.7524222e+2, -1301052.0, -1250918.6, 43516.23, 0.07591566, -0.040842492, -1225765.8, -3142.9482, 0.0, 9.999397, 10.0000925 
8.7500733e+2, 1.8524198e+2, -1229521.9, -1298729.0, 51471.246, 0.06771467, -0.0069720545, -1202103.6, -77476.664, 0.0, 9.999798, 9.998892 
8.7502134e+2, 1.9524074e+2, -1080661.3, -1170639.1, 53693.457, 0.07114997, -0.046593346, -1055600.3, -28957.87, 0.0, 10.000125, 9.998939 
8.7503517e+2, 2.052406e+2, -980758.3, -997717.3, 3469.882, 0.10918834, 0.014926859, -980075.8, -51429.875, 0.0, 9.999821, 9.999601 
8.750488e+2, 2.1524127e+2, -1012105.75, -964439.0, 21224.361, 0.17604162, 0.09795275, -956358.4, -125717.68, 0.0, 9.99894, 9.999581 
8.750628e+2, 2.2524086e+2, -881343.56, -950272.8, 87534.07, 0.16568379, 0.14945012, -821733.6, -89088.36, 0.0, 9.999587, 9.998702 
8.750771e+2, 2.352392e+2, -497281.63, -712089.94, 81670.02, 0.076754265, 0.08815544, -469757.47, 164904.0, 0.0, 10.001544, 9.998719 
8.750904e+2, 2.4523787e+2, -391331.22, -603036.3, -44742.59, 0.05739395, 0.08362835, -382263.53, 154410.08, 0.0, 10.001563, 9.998786 
8.751025e+2, 2.5523663e+2, -554626.44, -631471.0, 4728.654, 0.09079405, 0.056113858, -554336.56, -115652.34, 0.0, 9.999783, 9.998771 
8.751147e+2, 2.65235e+2, -435124.03, -543412.9, 47482.81, 0.050646767, 0.03043547, -417252.94, -76554.97, 0.0000000691861, 10.000006, 9.998597 
8.7512684e+2, 2.752327e+2, -69470.48, -320225.75, 38853.656, -0.055699367, -0.08707036, -63588.227, 179129.98, 0.000001269736, 10.001858, 9.998568 
8.751387e+2, 2.852309e+2, 62980.81, -265282.47, -40188.523, -0.08067565, -0.09307417, 67829.38, 212562.33, 0.000008255043, 10.002346, 9.998043 
8.751502e+2, 2.9522914e+2, 23817.389, -231595.95, 18327.32, -0.03992207, -0.101683415, 25125.773, 71872.484, 0.000042714033, 10.001392, 9.998055 
8.751631e+2, 3.0522656e+2, 49409.73, -268768.9, 113255.945, 0.002339453, -0.124413714, 85605.64, 85605.64, 0.00015288098, 10.001586, 9.997359 
8.7517524e+2, 3.1522596e+2, 262246.47, -34262.18, 99987.64, -0.16904937, 0.049877454, 292812.94, 292812.94, 0.00035815634, 10.002415, 9.9985695 
8.8492537e+2, 1.2522617e+2, -1848028.9, -1772119.6, 3063.8276, 0.16519336, -0.19488917, -1771996.3, -59224.82, 0.00000006865043, 9.998978, 10.000096 
8.8493776e+2, 1.3522609e+2, -1759623.8, -1685678.0, -21263.813, -0.016875846, -0.23085544, -1679999.5, -65226.953, 0.0, 9.998994, 10.000008 
8.8495153e+2, 1.452264e+2, -1712426.8, -1641305.0, -37789.08, 0.038133934, -0.1745264, -1624975.8, -108203.34, 0.0, 9.998771, 9.999725 
8.84966e+2, 1.5522717e+2, -1630497.3, -1549575.1, -38745.01, 0.1953, -0.10252114, -1534015.9, -115245.47, 0.0, 9.9986515, 9.9997425 
8.8497967e+2, 1.6522801e+2, -1434387.6, -1329007.4, 26255.363, 0.19119282, -0.024263263, -1322828.3, -2063.5652, 0.0, 9.999006, 10.000415 
8.849928e+2, 1.7522891e+2, -1218109.3, -1178430.0, -8573.109, 0.045458473, 0.003998766, -1176657.0, 46098.508, 0.0, 9.999836, 10.000377 
8.8500667e+2, 1.8522893e+2, -1172620.0, -1229046.6, -10967.002, 0.019019667, 0.030249149, -1170563.4, -45807.4, 0.0, 10.000006, 9.99927 
8.850213e+2, 1.9522774e+2, -1141276.8, -1161603.5, 12665.223, 0.087924615, -0.0397935, -1135201.3, -108431.805, 0.0, 9.999543, 9.999284 
8.850353e+2, 2.052275e+2, -977030.5, -1008797.56, 1822.1542, 0.14141236, -0.0013270922, -976926.4, -48153.035, 0.0, 9.999885, 9.999506 
8.8504875e+2, 2.152279e+2, -729447.5, -840993.8, -20023.184, 0.18361723, 0.067808494, -725962.1, 104808.02, 0.0, 10.000921, 9.999487 
8.8506293e+2, 2.2522755e+2, -708020.56, -851899.06, 88204.875, 0.1685264, 0.122604445, -666138.2, 66636.86, 0.0, 10.00072, 9.998822 
8.850777e+2, 2.3522618e+2, -802335.56, -847197.06, 95192.86, 0.09586272, 0.078527234, -726966.44, -92176.164, 0.0, 9.999399, 9.99882 
8.850912e+2, 2.4522527e+2, -634241.4, -652275.75, -13347.708, 0.090162225, 0.081574805, -627150.44, -90352.555, 0.0, 9.999601, 9.999388 
8.8510346e+2, 2.552245e+2, -298852.2, -445900.22, -13046.832, 0.13720591, 0.038660217, -297703.56, 141097.95, 0.00000000006372724, 10.001247, 9.999343 
8.85116e+2, 2.6522318e+2, -237128.0, -498883.9, 68144.22, 0.10157673, 0.03890359, -220450.3, 120362.77, 0.00000025387644, 10.00159, 9.998139 
8.851286e+2, 2.7522108e+2, -249901.17, -453582.5, 40485.805, -0.00073935196, -0.010182826, -242148.86, 685.85077, 0.0000021793016, 10.000822, 9.998148 
8.8514096e+2, 2.852191e+2, -51308.383, -273596.13, -41975.836, -0.031706624, -0.0335124, -43645.977, 101205.1, 0.000011106664, 10.001384, 9.998433 
8.851529e+2, 2.952169e+2, 310921.4, -51968.37, -68684.484, 0.008091391, -0.122648746, 323486.3, 370352.28, 0.000049522223, 10.003196, 9.998416 
8.8516563e+2, 3.052146e+2, 311305.97, -151933.53, 16197.9, 0.01567448, -0.13399634, 311871.7, 311871.7, 0.00016467013, 10.003419, 9.997293 
8.8517785e+2, 3.152146e+2, 138643.45, -150650.39, 20314.377, -0.10987941, 0.11894693, 140062.97, 140062.97, 0.00037312726, 10.001811, 9.998076 
8.9492506e+2, 1.2521456e+2, -1778452.8, -1610878.1, -35209.152, 0.18518336, 0.1867096, -1603780.9, 109118.55, 0.00000033567557, 9.998938, 10.001208 
8.949366e+2, 1.3521436e+2, -1694170.5, -1542837.4, -15852.594, -0.04907021, 0.044716764, -1541194.6, 73700.82, 0.00000000007521531, 9.998987, 10.000982 
8.949499e+2, 1.4521416e+2, -1696400.1, -1613995.8, -56789.68, -0.038457494, -0.011391037, -1585036.1, -68139.45, 0.0, 9.998787, 9.999908 
8.949651e+2, 1.552143e+2, -1621616.0, -1532560.4, -28207.148, 0.2081119, -0.017212106, -1524378.0, -105478.75, 0.0, 9.998652, 9.999863 
8.9497894e+2, 1.652146e+2, -1477380.9, -1418884.4, 44690.617, 0.18709667, 0.03719416, -1394721.9, -73822.6, 0.0, 9.999005, 9.9998 
8.9499164e+2, 1.752149e+2, -1260536.5, -1259509.4, 34105.785, -0.07501766, 0.06307267, -1225913.4, -3014.7207, 0.0, 9.999807, 9.999834 
8.950054e+2, 1.8521526e+2, -1113546.3, -1091997.1, -39654.406, -0.13172178, 0.099063866, -1061679.5, 63215.676, 0.0, 9.999938, 10.000246 
8.950202e+2, 1.9521539e+2, -1091040.6, -1034961.2, 6847.6753, 0.0006088633, 0.0638535, -1034137.1, -7244.865, 0.0, 9.999444, 10.0002 
8.9503455e+2, 2.0521489e+2, -1018957.0, -1067898.9, 29356.66, 0.06014643, 0.051701754, -1005209.6, -76313.33, 0.0, 9.999765, 9.999157 
8.950485e+2, 2.1521355e+2, -776455.1, -897379.94, 30795.518, 0.049813982, -0.022049917, -769064.25, 61844.91, 0.0, 10.00075, 9.999178 
8.9506274e+2, 2.2521284e+2, -689885.7, -779782.75, 27666.6, 0.05850797, -0.016453994, -682053.44, 50863.2, 0.0, 10.000564, 9.999396 
8.950771e+2, 2.3521249e+2, -781314.44, -771172.44, 59160.773, 0.072991095, -0.017977312, -716865.7, -81944.18, 0.0, 9.999259, 9.999409 
8.9509106e+2, 2.4521217e+2, -627774.44, -618003.25, 36343.785, 0.09178491, -0.00026222528, -586218.2, -49295.055, 0.0, 9.999508, 9.99967 
8.9510465e+2, 2.5521153e+2, -300556.22, -416438.56, 58330.105, 0.10989185, -0.057970844, -276280.72, 162644.44, 0.0000000002378373, 10.001109, 9.999613 
8.951178e+2, 2.65211e+2, -270981.72, -554507.06, 28407.87, 0.10439187, 0.024625262, -268163.4, 72767.61, 0.00000030747992, 10.001527, 9.997786 
8.9513046e+2, 2.7521023e+2, -288725.6, -517152.13, 28764.748, 0.074348435, 0.1465911, -285159.06, -42215.24, 0.0000026197797, 10.000752, 9.997743 
8.9514345e+2, 2.8520787e+2, -85555.46, -342857.78, 14390.712, 0.050773453, 0.12632714, -84753.1, 60213.03, 0.000013171274, 10.001363, 9.99797 
8.9515674e+2, 2.952038e+2, 271309.56, -116837.66, 10357.218, 0.036570974, -0.10697628, 271585.75, 318584.7, 0.000055655084, 10.003109, 9.998013 
8.9516896e+2, 3.0520162e+2, 326700.28, -91927.0, -52507.035, -0.014659896, -0.11057524, 333185.6, 333185.6, 0.00017580122, 10.003314, 9.997748 
8.9517957e+2, 3.1520128e+2, 145970.75, -104829.086, 6715.4995, -0.17190726, 0.061764065, 146150.44, 146150.44, 0.00038747952, 10.001699, 9.998432 
9.0492404e+2, 1.2519942e+2, -1788811.0, -1566868.4, 512.2033, 0.22041248, 0.1943696, -1566867.3, 146185.56, 0.0000010657902, 9.9986105, 10.001679 
9.049362e+2, 1.352003e+2, -1806078.0, -1552645.5, -60554.574, 0.06974675, 0.11425837, -1538920.1, 76117.09, 0.000000007369457, 9.998008, 10.001388 
9.049491e+2, 1.4520055e+2, -1763512.9, -1605922.1, -56581.254, 0.04918418, 0.06387244, -1587711.6, -70678.82, 0.0, 9.998152, 10.000269 
9.049633e+2, 1.5520066e+2, -1511029.3, -1435821.1, -41384.164, 0.1473016, 0.015887102, -1417508.1, 1525.9292, 0.0, 9.999225, 10.000249 
9.049773e+2, 1.6520089e+2, -1439619.4, -1413069.5, 71519.48, 0.11583501, 0.047972783, -1353603.4, -32568.75, 0.0, 9.999317, 9.999694 
9.049912e+2, 1.7520091e+2, -1459107.1, -1366281.8, 71347.234, -0.025369853, 0.058891445, -1327579.5, -104542.29, 0.0, 9.998488, 9.999737 
9.050053e+2, 1.8520127e+2, -1295100.8, -1164594.8, 16619.41, -0.070057124, 0.092119195, -1162511.6, -37478.0, 0.0, 9.99862, 10.0003805 
9.0501934e+2, 1.9520171e+2, -1039260.4, -996705.4, -16985.58, -0.031352326, 0.07348434, -990757.1, 36269.875, 0.0, 9.999721, 10.000336 
9.0503395e+2, 2.0520134e+2, -949818.4, -1006976.6, 23795.588, 0.014194351, 0.057145625, -941208.9, -12180.042, 0.0, 10.000127, 9.9993925 
9.050489e+2, 2.1519996e+2, -885836.8, -925531.5, 36993.875, 0.06515916, -0.044221397, -863702.44, -32661.14, 0.0, 9.999891, 9.999395 
9.050634e+2, 2.2519946e+2, -760928.2, -791291.9, 33206.633, 0.10443259, -0.039634466, -739597.5, -6550.912, 0.0, 9.999991, 9.99959 
9.050774e+2, 2.351995e+2, -588862.3, -659809.3, 15424.696, 0.1258893, -0.01828985, -585653.94, 49393.887, 0.0, 10.000503, 9.999576 
9.050915e+2, 2.4519917e+2, -429593.3, -542893.06, 34704.66, 0.12031046, 0.0017132779, -419808.1, 117241.91, 0.0, 10.000966, 9.999477 
9.0510565e+2, 2.551983e+2, -266549.88, -418679.7, -5679.9487, 0.087081864, -0.061861247, -266338.13, 172717.31, 0.0, 10.001431, 9.999435 
9.051194e+2, 2.6519763e+2, -177026.11, -499196.1, -47792.383, 0.09180177, 0.014887116, -170085.84, 170976.81, 0.0000002007212, 10.002135, 9.997875 
9.0513295e+2, 2.7519688e+2, 52002.85, -342412.3, -40597.23, 0.13763888, 0.12979065, 56138.176, 299213.16, 0.0000025589381, 10.00305, 9.997839 
9.051461e+2, 2.8519472e+2, 132753.48, -245754.64, 13693.509, 0.114356704, 0.13188009, 133248.23, 278343.8, 0.000014749117, 10.002891, 9.9979105 
9.0515906e+2, 2.9519126e+2, 56140.75, -221875.73, 10646.989, 0.03828308, -0.03697136, 56547.895, 103671.89, 0.00006245814, 10.001652, 9.9979925 
9.0517145e+2, 3.0518883e+2, 155922.66, -201775.58, -37626.793, -0.030987998, -0.04943286, 159837.81, 159837.81, 0.00018874744, 10.002253, 9.997509 
9.051836e+2, 3.1518644e+2, 504636.75, 49613.53, -74804.02, -0.050753705, -0.057238646, 516618.72, 516618.72, 0.0004049675, 10.004219, 9.998296 
9.149211e+2, 1.2518117e+2, -1792476.8, -1575976.9, -63347.51, 0.0090374295, -0.1480386, -1558803.8, 154422.97, 0.000002613721, 9.998636, 10.001597 
9.149362e+2, 1.351839e+2, -1815994.9, -1565879.5, -75591.57, 0.2341379, -0.03300825, -1544808.8, 70389.055, 0.00000007607973, 9.997982, 10.001307 
9.1494906e+2, 1.4518538e+2, -1728427.8, -1524926.4, -31875.996, 0.19020703, 0.01593501, -1520050.3, -2867.4233, 0.0, 9.9981165, 10.000844 
9.149603e+2, 1.5518634e+2, -1470123.8, -1349655.0, 12293.751, -0.09829343, -0.0031231216, -1348413.1, 70761.086, 0.0, 9.999222, 10.000842 
9.1497433e+2, 1.6518705e+2, -1412762.9, -1358039.6, 25991.883, -0.13721234, 0.026956595, -1347662.1, -26493.479, 0.0, 9.999319, 10.000069 
9.14991e+2, 1.7518714e+2, -1439315.4, -1319942.1, 51997.637, 0.08390531, 0.006986929, -1300469.1, -77300.04, 0.0, 9.998465, 10.000066 
9.150058e+2, 1.8518712e+2, -1346726.9, -1259864.8, 46567.55, 0.09469184, 0.01689393, -1239618.6, -114448.805, 0.0, 9.998569, 9.999753 
9.150186e+2, 1.9518676e+2, -1098641.4, -1094107.5, 36741.96, -0.10319114, -0.013724651, -1059562.6, -32389.785, 0.0, 9.999614, 9.99972 
9.150333e+2, 2.0518696e+2, -917843.2, -912213.8, 4045.2026, -0.09297952, 0.018901406, -910100.4, 19069.57, 0.0, 10.000003, 10.000101 
9.1504955e+2, 2.1518731e+2, -862379.8, -838306.1, 38415.34, 0.118543, 0.019286525, -810086.0, 21078.934, 0.0, 9.999728, 10.00007 
9.150645e+2, 2.2518745e+2, -789811.94, -826720.56, 38776.84, 0.1963144, 0.06439256, -765322.06, -32158.037, 0.0, 9.999876, 9.999407 
9.1507834e+2, 2.3518717e+2, -624866.0, -699536.4, 47039.25, 0.15262315, 0.072627924, -602146.2, 33022.832, 0.0, 10.000352, 9.999375 
9.1509223e+2, 2.4518642e+2, -492364.6, -649930.0, 42408.406, 0.07319625, 0.09247564, -481675.6, 55501.313, 0.0, 10.000859, 9.998797 
9.15106e+2, 2.5518486e+2, -328172.4, -524895.1, 25761.205, -0.040342476, 0.03290777, -324854.88, 114336.08, 0.0, 10.001331, 9.998758 
9.151205e+2, 2.651832e+2, -151833.02, -429040.38, -23458.152, -0.035952136, 0.013644942, -149861.94, 191345.05, 0.00000011562638, 10.002063, 9.998391 
9.151356e+2, 2.7518108e+2, 71767.08, -273525.3, 7328.939, 0.080996946, -0.056622844, 71922.57, 315150.3, 0.0000025826089, 10.002931, 9.99837 
9.1514874e+2, 2.8517988e+2, 142046.94, -204550.8, -44475.676, 0.060434043, -0.0065910644, 147663.1, 292901.38, 0.000017159802, 10.002802, 9.998235 
9.151596e+2, 2.9517925e+2, 67720.78, -191077.63, -16961.688, -0.09965916, 0.083295375, 68827.72, 116068.35, 0.00007135739, 10.001622, 9.99822 
9.151729e+2, 3.051762e+2, 79510.09, -347412.97, 31644.396, -0.14369619, 0.045818977, 81842.89, 81842.89, 0.00020564985, 10.002202, 9.996527 
9.1518897e+2, 3.151701e+2, 451299.4, -21710.236, 32749.625, 0.004049097, -0.24254724, 453556.13, 453556.13, 0.00042848263, 10.004063, 9.99787 
9.2491925e+2, 1.251667e+2, -2009030.3, -1670048.0, 48629.367, 0.05017914, -0.2139132, -1663209.8, 50156.457, 0.0000053718704, 9.997101, 10.001699 
9.2493427e+2, 1.3517e+2, -1768730.8, -1522138.4, 21461.248, 0.2485541, -0.06309411, -1520284.5, 95047.62, 0.00000033393198, 9.998214, 10.001508 
9.249474e+2, 1.451716e+2, -1636694.4, -1477476.0, 103046.67, 0.1952604, -0.011626239, -1426869.1, 90446.94, 0.0, 9.998728, 10.000877 
9.249593e+2, 1.5517257e+2, -1508003.8, -1368927.6, 73280.89, -0.107837856, -0.034316257, -1337442.8, 81864.734, 0.0, 9.998957, 10.000839 
9.249737e+2, 1.6517332e+2, -1403390.4, -1374449.1, 47376.617, -0.122221775, 0.009744261, -1339382.5, -18080.883, 0.0, 9.999461, 9.99989 
9.2499095e+2, 1.7517363e+2, -1187203.3, -1218627.9, 8598.175, 0.14726266, 0.027540876, -1185004.5, 38295.76, 0.0, 10.000276, 9.999893 
9.2500585e+2, 1.8517344e+2, -1121710.4, -1163698.3, 28145.098, 0.17287755, 0.035056397, -1107591.8, 17711.168, 0.0, 10.00017, 9.999644 
9.2501855e+2, 1.951725e+2, -1170549.0, -1137296.4, 30220.967, -0.039156374, -0.04399911, -1119430.1, -92118.45, 0.0, 9.999163, 9.999638 
9.250331e+2, 2.0517264e+2, -1046670.2, -962591.6, 26963.207, -0.0571343, -0.018253382, -954687.8, -25378.354, 0.0, 9.999072, 10.000208 
9.2504925e+2, 2.1517347e+2, -824260.4, -807103.7, -951.4214, 0.11811683, 0.019847415, -807051.06, 24248.89, 0.0, 9.999932, 10.000192 
9.250644e+2, 2.2517361e+2, -722723.0, -812012.06, 2397.5664, 0.17731787, 0.06861297, -722658.7, 10640.186, 0.0, 10.000406, 9.999253 
9.2507845e+2, 2.3517293e+2, -611489.1, -711243.4, -14335.058, 0.12524362, 0.051500633, -609470.0, 25837.54, 0.0, 10.000509, 9.999222 
9.2509294e+2, 2.4517217e+2, -498648.44, -661736.6, 37948.867, 0.06607569, 0.08381352, -490250.6, 47065.336, 0.0, 10.000856, 9.998724 
9.251078e+2, 2.5517106e+2, -304690.38, -518693.6, 42638.605, -0.0006297794, 0.077090226, -296507.78, 142819.02, 0.0, 10.001522, 9.998713 
9.251224e+2, 2.651693e+2, -204783.33, -426530.63, 14228.993, -0.022573192, 0.036676794, -203874.02, 137469.31, 0.00000007319143, 10.001565, 9.9986515 
9.2513686e+2, 2.7516654e+2, -191136.14, -370148.22, 5532.164, 0.011612701, -0.1281171, -190965.34, 52403.023, 0.0000027897247, 10.000984, 9.998645 
9.2515033e+2, 2.851655e+2, -7934.0483, -253772.84, -23160.79, 0.0075488086, -0.08051746, -5771.0713, 139605.52, 0.000020180585, 10.001673, 9.998436 
9.2516285e+2, 2.95166e+2, 365141.63, -28219.523, -32814.117, -0.030292355, 0.096742265, 367860.2, 415230.28, 0.00008285034, 10.003575, 9.998398 
9.2517644e+2, 3.0516294e+2, 318522.72, -253130.34, 63772.6, -0.07670265, 0.059853856, 325550.66, 325550.66, 0.0002292469, 10.003904, 9.996364 
9.251925e+2, 3.151568e+2, 224815.98, -121911.1, 67998.43, 0.049519867, -0.21665353, 237674.63, 237674.63, 0.0004645645, 10.002444, 9.997969 
9.3491775e+2, 1.2515569e+2, -1993752.9, -1611872.3, 51764.05, 0.13039851, -0.046260364, -1604980.0, 108494.414, 0.000009857008, 9.997012, 10.002133 
9.349302e+2, 1.351588e+2, -1719924.3, -1429860.9, 72118.984, -0.010141388, 0.026233137, -1412919.3, 202518.5, 0.0000009955157, 9.998267, 10.002109 
9.3494385e+2, 1.4515953e+2, -1674210.8, -1569724.3, 96776.29, -0.06626877, -0.0062972177, -1511990.3, 5439.0015, 0.00000000002439963, 9.998785, 10.00022 
9.349597e+2, 1.5515938e+2, -1555573.4, -1460707.4, 93903.03, 0.013153206, -0.07499662, -1402937.4, 16495.967, 0.0, 9.998927, 10.000226 
9.349753e+2, 1.6515973e+2, -1454054.5, -1471069.4, 62680.926, 0.06069947, -0.009531795, -1399306.4, -77873.12, 0.0, 9.999422, 9.9992485 
9.3499064e+2, 1.7516044e+2, -1232411.4, -1311839.5, 50103.992, 0.06646623, 0.11487281, -1208191.0, 15239.152, 0.0, 10.000272, 9.999257 
9.3500507e+2, 1.8516032e+2, -1106013.9, -1118599.9, -19278.223, 0.05812772, 0.1471878, -1092027.5, 33404.336, 0.0, 10.000118, 9.99998 
9.350188e+2, 1.9515905e+2, -1162816.0, -1098384.3, 4521.3975, 0.043008495, -0.002743837, -1098068.5, -70626.25, 0.0, 9.999066, 9.999952 
9.350331e+2, 2.0515849e+2, -1087097.0, -1025663.7, 45404.207, 0.01526102, -0.04040767, -1001561.94, -72115.81, 0.0, 9.998978, 9.999823 
9.35048e+2, 2.1515846e+2, -874299.4, -879564.06, 42644.45, -0.02527072, -0.04493267, -834206.06, -2760.2026, 0.0, 9.999788, 9.999769 
9.3506277e+2, 2.2515802e+2, -757957.6, -847684.25, -3502.4507, -0.046347756, -0.02637011, -757821.1, -24370.785, 0.0, 10.000245, 9.999084 
9.350774e+2, 2.3515688e+2, -645278.56, -747207.94, 1328.383, -0.049000148, -0.07302626, -645261.25, -9798.923, 0.0, 10.0003605, 9.999049 
9.3509334e+2, 2.4515656e+2, -478117.7, -594799.4, 50240.336, -0.0042063, -0.014470881, -459466.7, 77999.39, 0.0, 10.00075, 9.999234 
9.3511045e+2, 2.551568e+2, -286249.63, -456914.34, 78425.875, 0.096753836, 0.06111408, -255684.5, 183779.78, 0.0, 10.001411, 9.999194 
9.3512475e+2, 2.651558e+2, -213769.9, -419017.2, -15464.222, 0.03722884, 0.07071704, -212611.31, 128861.85, 0.00000003612581, 10.001458, 9.998751 
9.351362e+2, 2.7515325e+2, -200309.19, -366702.78, 116.60972, -0.17609411, -0.081037186, -200309.11, 43187.004, 0.0000027030533, 10.0008955, 9.998706 
9.351507e+2, 2.8515187e+2, -8790.616, -247367.28, 38200.137, -0.14797637, -0.077754624, -2823.3833, 142685.22, 0.000022488803, 10.001629, 9.998505 
9.3516815e+2, 2.9515147e+2, 359615.0, -26722.182, 52711.367, 0.10968692, 0.002742048, 366677.75, 414189.28, 0.00009525127, 10.003509, 9.998444 
9.3518186e+2, 3.05149e+2, 348382.34, -176023.69, 3525.9568, 0.050480433, -0.0045799697, 348406.06, 348406.06, 0.00025879213, 10.003844, 9.996922 
9.351938e+2, 3.1514624e+2, 261780.33, -35198.21, 38706.41, -0.1230067, -0.0014941883, 266742.2, 266742.2, 0.0005142612, 10.002404, 9.998582 
9.4491565e+2, 1.2514287e+2, -1873164.9, -1586511.9, 9621.006, 0.19343981, 0.050039414, -1586189.3, 127410.24, 0.000016753027, 9.997954, 10.001866 
9.449279e+2, 1.3514477e+2, -1868969.8, -1534266.5, -75626.37, -0.011435173, 0.027600503, -1517971.9, 97602.38, 0.000002343361, 9.997372, 10.001832 
9.449422e+2, 1.4514485e+2, -1839381.3, -1676438.3, -18557.059, -0.057258446, -0.043200955, -1674351.5, -156779.69, 0.0000000053592455, 9.99777, 9.999975 
9.4495934e+2, 1.5514457e+2, -1512278.5, -1472074.1, -20850.344, 0.0687288, -0.098759435, -1463213.6, -43636.313, 0.0, 9.999355, 9.999946 
9.449755e+2, 1.6514483e+2, -1367658.3, -1400795.5, -317.8769, 0.118744776, -0.039420154, -1367655.3, -46077.766, 0.0, 9.999907, 9.999486 
9.449906e+2, 1.7514548e+2, -1329319.8, -1331388.1, 26729.463, 0.08008096, 0.05419535, -1303604.5, -80030.914, 0.0, 9.999503, 9.999481 
9.4500494e+2, 1.8514545e+2, -1208291.5, -1188494.6, -28390.38, 0.06782791, 0.09249503, -1168326.6, -42751.85, 0.0, 9.999511, 9.999783 
9.4501865e+2, 1.9514443e+2, -1049027.3, -1065466.9, -63925.938, 0.087598, -0.012568472, -992794.9, 34789.67, 0.0, 9.999946, 9.999747 
9.45033e+2, 2.0514391e+2, -906337.0, -971094.25, 18950.715, 0.052824415, -0.022067325, -901198.9, 28390.742, 0.0, 10.000352, 9.999536 
9.4504803e+2, 2.1514378e+2, -766273.6, -852666.9, 779.74835, -0.02906919, -0.012023248, -766266.6, 65324.855, 0.0, 10.000646, 9.999532 
9.4506305e+2, 2.251432e+2, -674671.6, -792015.94, -21736.373, -0.06255648, -0.0049183844, -670774.7, 62822.254, 0.0, 10.000759, 9.999216 
9.4507796e+2, 2.3514184e+2, -576520.8, -696582.4, -15287.804, -0.0461887, -0.08397862, -574604.75, 61003.805, 0.0, 10.000764, 9.999198 
9.450941e+2, 2.4514133e+2, -492732.5, -586970.6, 56804.5, 0.013311547, -0.058176447, -466048.06, 71565.02, 0.0, 10.000586, 9.999364 
9.451115e+2, 2.5514138e+2, -452012.75, -517029.25, 34997.938, 0.12668444, -0.014918441, -436754.47, 2858.4568, 0.0, 10.000194, 9.999359 
9.451262e+2, 2.651408e+2, -298117.63, -435131.6, -36481.35, 0.07560216, 0.01649157, -289009.56, 52608.22, 0.000000027783642, 10.000761, 9.998982 
9.4513816e+2, 2.751393e+2, 5560.667, -242795.45, -34613.137, -0.1251103, -0.05190998, 10294.437, 253925.3, 0.000002329391, 10.002196, 9.9989395 
9.45153e+2, 2.8513786e+2, 93157.0, -235054.11, 20790.13, -0.11932469, -0.046505515, 94468.68, 240113.44, 0.000023981273, 10.002492, 9.998177 
9.451704e+2, 2.9513633e+2, 59979.31, -205021.58, -17552.768, 0.08902348, -0.045246944, 61136.89, 108797.25, 0.00010679835, 10.001607, 9.998134 
9.4518477e+2, 3.051337e+2, 180670.4, -199516.84, -53097.62, 0.03583638, -0.07843323, 187946.86, 187946.86, 0.00028981623, 10.002462, 9.997424 
9.451981e+2, 3.151327e+2, 623360.94, 168491.4, -80218.49, -0.04085918, 0.05440572, 637093.3, 637093.3, 0.00057081727, 10.004778, 9.998841 
9.549122e+2, 1.2512854e+2, -1956017.9, -1758336.6, -49810.906, -0.007546185, 0.093284555, -1746494.9, -32756.063, 0.00002677623, 9.9979725, 10.000665 
9.549271e+2, 1.3512799e+2, -1960900.3, -1708312.9, -90859.17, 0.14780335, -0.057712752, -1679025.5, -63284.855, 0.0000047533053, 9.997315, 10.000651 
9.549421e+2, 1.4512748e+2, -1835885.6, -1660556.8, 23515.361, 0.12135139, -0.13707101, -1657457.6, -139712.78, 0.000000046136613, 9.997724, 10.0001135 
9.5495766e+2, 1.5512826e+2, -1492935.9, -1444173.9, 48597.184, -0.06386672, -0.10221623, -1414184.8, 5554.07, 0.0, 9.999406, 10.000114 
9.549738e+2, 1.6512881e+2, -1287211.1, -1241909.5, -27354.152, -0.06895044, -0.07322012, -1229045.4, 92687.07, 0.0, 9.999937, 10.000564 
9.5499057e+2, 1.7512886e+2, -1256899.0, -1177622.4, 23382.516, 0.093791045, -0.14876184, -1171239.6, 52489.746, 0.0, 9.999485, 10.000547 
9.550051e+2, 1.8512888e+2, -1261892.3, -1292665.4, -23751.861, 0.10853288, -0.124937646, -1248978.8, -123247.88, 0.0, 9.999473, 9.99909 
9.550178e+2, 1.9512862e+2, -1106927.0, -1170238.8, -37274.37, -0.016758673, -0.082389735, -1089680.3, -61941.035, 0.0, 9.999874, 9.999065 
9.550326e+2, 2.0512892e+2, -932175.5, -999109.25, 17047.432, -0.044698313, 0.028991513, -928083.75, 1656.1985, 0.0, 10.00024, 9.999399 
9.5504934e+2, 2.1512945e+2, -801490.25, -886800.25, 22465.844, 0.012637625, 0.12115203, -795935.6, 35800.867, 0.0, 10.000475, 9.999383 
9.5506495e+2, 2.2512911e+2, -663874.7, -730996.56, -32676.305, 0.034791023, 0.13881312, -650594.6, 83143.58, 0.0, 10.000596, 9.999712 
9.550797e+2, 2.3512772e+2, -567089.9, -642042.4, -2267.943, 0.026913973, 0.0053141136, -567021.3, 68726.11, 0.0, 10.000612, 9.999649 
9.550949e+2, 2.4512638e+2, -526984.9, -626466.8, 31606.1, 0.012133983, -0.060935903, -517792.75, 19965.13, 0.0, 10.000457, 9.999149 
9.5511055e+2, 2.5512487e+2, -483174.53, -560213.4, 33463.215, -0.010756241, -0.15215112, -470669.13, -30896.75, 0.0, 10.0001, 9.999105 
9.551264e+2, 2.6512438e+2, -290934.75, -394129.34, 6788.6836, 0.0035106242, -0.1144957, -290490.06, 51286.3, 0.000000030362223, 10.000656, 9.999312 
9.5514226e+2, 2.751246e+2, 11946.32, -203771.8, 33082.293, 0.04329048, -0.046502963, 16905.764, 260679.1, 0.000002140531, 10.002088, 9.99926 
9.551567e+2, 2.8512338e+2, 31309.762, -340159.6, -23371.14, -0.020851333, -0.0003894309, 32774.39, 178560.9, 0.000025889522, 10.002395, 9.9974985 
9.5516956e+2, 2.9512063e+2, 7709.6577, -304180.94, -34031.105, -0.18586639, -0.0555718, 11379.686, 59196.098, 0.00011778403, 10.001565, 9.99747 
9.5518506e+2, 3.0511728e+2, 201340.1, -143089.5, 33709.895, -0.19930707, -0.14955059, 204608.33, 204608.33, 0.00031950467, 10.002403, 9.997843 
9.552046e+2, 3.1511635e+2, 601744.56, 152312.84, 30098.244, 0.07692659, -0.055571355, 603751.3, 603751.3, 0.00062882464, 10.004647, 9.998797 
9.649092e+2, 1.2511204e+2, -2318953.3, -1960526.5, -69485.86, 0.021211276, 0.04594986, -1947527.1, -233629.58, 0.000040530904, 9.995577, 10.000436 
9.64926e+2, 1.3511132e+2, -1681830.3, -1591806.8, -66139.03, 0.23039691, -0.108572915, -1556815.9, 59086.797, 0.000008656152, 9.999291, 10.000501 
9.649418e+2, 1.4511104e+2, -1520591.5, -1486790.4, 59003.23, 0.22492708, -0.16338825, -1442315.0, 75590.305, 0.00000019058375, 9.9998255, 10.000274 
9.649561e+2, 1.5511243e+2, -1744287.8, -1547691.9, 50951.113, -0.064956844, -0.08070729, -1535271.8, -115377.99, 0.0, 9.997637, 10.000244 
9.6497196e+2, 1.6511317e+2, -1647223.1, -1390352.8, -7272.874, -0.11523166, -0.05275003, -1390147.0, -68260.95, 0.0, 9.997369, 10.00078 
9.6498936e+2, 1.7511296e+2, -1317283.5, -1186725.1, -45197.715, 0.06623487, -0.173924, -1172605.3, 51279.98, 0.0, 9.998981, 10.00073 
9.6500456e+2, 1.8511319e+2, -1215798.8, -1269153.5, -89774.14, 0.09757857, -0.13763306, -1148822.1, -22937.258, 0.0, 9.999777, 9.999114 
9.6501756e+2, 1.9511361e+2, -1120314.9, -1174866.5, -71478.47, -0.016916903, -0.027255503, -1071084.9, -43197.895, 0.0, 9.999769, 9.999091 
9.650328e+2, 2.0511381e+2, -978341.4, -1008609.5, 43238.04, -0.020105606, 0.068222426, -947665.3, -17777.127, 0.0, 9.999899, 9.999484 
9.650503e+2, 2.151135e+2, -836856.6, -893629.1, 38679.547, 0.08492337, 0.06641984, -817264.9, 14626.401, 0.0, 10.000206, 9.9994545 
9.65066e+2, 2.2511321e+2, -667473.94, -736814.56, -6244.0, 0.09550147, 0.086757824, -666916.1, 66976.46, 0.0, 10.000576, 9.999692 
9.650804e+2, 2.3511274e+2, -513522.8, -613026.44, -33836.74, 0.027354818, 0.048845474, -503106.8, 132787.45, 0.0, 10.000964, 9.99968 
9.6509546e+2, 2.4511153e+2, -441482.03, -592866.25, -5742.724, 0.005175722, -0.008108855, -441264.5, 96639.65, 0.0, 10.001062, 9.999099 
9.6511143e+2, 2.551094e+2, -371595.56, -512915.72, -13672.23, 0.034085765, -0.15291992, -370284.97, 69638.77, 0.0, 10.000895, 9.999054 
9.651275e+2, 2.651088e+2, -279905.88, -390808.03, 11637.555, 0.05290505, -0.121769466, -278697.84, 63230.867, 0.000000012060779, 10.000737, 9.999293 
9.651436e+2, 2.7510935e+2, -218850.7, -317942.4, -14654.061, 0.0559899, -0.020136809, -216729.03, 27194.297, 0.0000023356135, 10.000513, 9.9992285 
9.651585e+2, 2.8510815e+2, -136037.81, -439799.72, -43719.742, -0.016087428, 0.04199953, -129870.54, 16065.961, 0.000028869204, 10.001332, 9.997317 
9.651722e+2, 2.9510528e+2, 221904.77, -223187.48, -50972.316, -0.14965673, -0.0057089706, 227667.55, 275635.7, 0.00012892728, 10.003141, 9.997263 
9.6518826e+2, 3.051019e+2, 363187.0, -47705.883, 43699.246, -0.15622136, -0.10128128, 367783.1, 367783.1, 0.00034703137, 10.0034275, 9.998005 
9.652078e+2, 3.151002e+2, 179036.19, -65022.9, -33890.617, 0.09425481, -0.103543095, 183654.9, 183654.9, 0.0006841425, 10.001811, 9.998655 
9.749057e+2, 1.2509306e+2, -2254030.0, -1815680.1, 30629.383, 0.062441498, -0.11983206, -1813550.3, -99471.2, 0.000058506626, 9.995539, 10.001445 
9.749245e+2, 1.3509491e+2, -1598634.6, -1427252.9, 79023.914, 0.12361831, -0.124831624, -1396377.4, 219681.08, 0.00001444443, 9.999332, 10.001607 
9.749409e+2, 1.4509591e+2, -1513109.8, -1484362.0, -36816.426, 0.124555185, -0.10823094, -1459213.0, 58836.465, 0.0000005546723, 9.999879, 10.000268 
9.7495437e+2, 1.5509723e+2, -1749139.6, -1553869.8, -16932.016, -0.028187593, -0.030867457, -1552412.5, -132371.56, 0.0, 9.99762, 10.000212 
9.749696e+2, 1.650979e+2, -1697784.0, -1489076.5, 38728.97, -0.11306568, 0.024899866, -1482121.5, -160083.89, 0.0, 9.997336, 10.000121 
9.7498685e+2, 1.7509776e+2, -1363249.0, -1282117.0, 22613.428, -0.105517715, -0.023512704, -1276239.8, -52198.63, 0.0, 9.998979, 10.000078 
9.7500294e+2, 1.8509841e+2, -1169616.1, -1163623.4, -100435.734, -0.06913933, 0.05003619, -1066139.4, 59897.22, 0.0, 9.999735, 9.999859 
9.750176e+2, 1.9509952e+2, -1080528.4, -1072604.3, -59372.57, -0.013774594, 0.1527052, -1017061.75, 10965.177, 0.0, 9.999684, 9.999832 
9.750335e+2, 2.0509876e+2, -978471.1, -984327.25, 41382.082, 0.035978474, 0.10514077, -939913.6, -9880.885, 0.0, 9.999785, 9.999711 
9.750507e+2, 2.150959e+2, -841743.1, -873713.3, 60737.297, 0.07937525, -0.17366712, -794922.6, 37133.758, 0.0, 10.000069, 9.999663 
9.75066e+2, 2.2509542e+2, -723086.9, -812294.06, -4873.2153, 0.013768217, -0.16067158, -722821.44, 11239.179, 0.0, 10.000408, 9.999249 
9.750797e+2, 2.35097e+2, -574666.94, -692694.25, -9462.36, -0.15117149, 0.048463486, -573913.1, 62135.582, 0.0, 10.000767, 9.999223 
9.750957e+2, 2.4509685e+2, -451509.22, -587037.75, -24256.563, -0.10274686, 0.11845063, -447298.66, 90751.9, 0.0, 10.000943, 9.999201 
9.751137e+2, 2.550948e+2, -375610.38, -502544.66, -7382.4253, 0.147762, -0.029731184, -375182.44, 64885.68, 0.0, 10.00081, 9.999169 
9.7512907e+2, 2.6509377e+2, -313994.44, -444732.1, -9478.356, 0.11857859, -0.032166287, -313310.84, 28766.309, 0.0000000034767167, 10.000667, 9.998954 
9.75142e+2, 2.7509347e+2, -251157.53, -370540.5, -8877.274, -0.18129909, 0.02031211, -250501.03, -6420.346, 0.0000028342504, 10.000451, 9.998896 
9.751583e+2, 2.8509235e+2, -127646.11, -411812.13, 14195.015, -0.1989799, 0.09165358, -126938.79, 19154.45, 0.000032313746, 10.001287, 9.997533 
9.751776e+2, 2.950902e+2, 222757.27, -201340.69, 35584.53, 0.047683403, 0.094943866, 225722.3, 273838.94, 0.0001399921, 10.003055, 9.997457 
9.7519386e+2, 3.0508718e+2, 333456.44, -82425.734, -23977.123, 0.031983953, 0.04139712, 334834.25, 334834.25, 0.00037284024, 10.003315, 9.997821 
9.7520727e+2, 3.150839e+2, 143160.61, -120333.07, -60350.38, -0.20298998, -0.10573799, 156325.47, 156325.47, 0.00073526404, 10.00173, 9.998313 
9.84903e+2, 1.2507428e+2, -1914289.1, -1601289.6, 59351.09, 0.14300779, -0.2127457, -1590413.4, 123847.77, 0.00008108169, 9.997655, 10.001904 
9.8492175e+2, 1.3507745e+2, -2001421.4, -1575095.9, 18781.893, 0.07476382, -0.12428865, -1574270.0, 41959.06, 0.000022462764, 9.996363, 10.002033 
9.84939e+2, 1.4507918e+2, -1943758.0, -1645594.9, -128178.12, 0.105608836, -0.07827564, -1598067.9, -79854.65, 0.0000013019285, 9.996702, 10.0007 
9.8495334e+2, 1.550806e+2, -1531749.5, -1398473.6, -100258.88, 0.055851795, -0.03865089, -1344727.0, 75475.4, 0.0, 9.998883, 10.000666 
9.8496896e+2, 1.6508143e+2, -1368862.1, -1364088.8, 45070.035, -0.025026068, 0.025301237, -1321342.3, 855.9298, 0.0, 9.999737, 9.999824 
9.849858e+2, 1.7508149e+2, -1326174.8, -1295087.1, 33588.617, -0.121710986, 0.030428682, -1273620.1, -49418.05, 0.0, 9.999372, 9.9998 
9.8500216e+2, 1.8508199e+2, -1179973.9, -1133999.4, -87431.71, -0.10426879, 0.08709401, -1066583.5, 59615.258, 0.0, 9.999525, 10.000157 
9.8501766e+2, 1.950826e+2, -998917.1, -1001506.0, -108196.99, 0.008264083, 0.112190455, -892006.9, 136184.42, 0.0, 10.000119, 10.000108 
9.8503387e+2, 2.0508192e+2, -900912.7, -938892.3, -16081.918, 0.075555734, 0.05446774, -895017.94, 35177.152, 0.0, 10.000261, 9.999803 
9.8505074e+2, 2.150797e+2, -862397.75, -872236.2, -28343.045, 0.09952674, -0.17082235, -838550.2, -6337.672, 0.0, 9.999873, 9.99977 
9.850662e+2, 2.2507912e+2, -831999.25, -891768.56, -55806.23, 0.027807832, -0.16330467, -798579.6, -64361.473, 0.0, 9.999768, 9.999014 
9.8508024e+2, 2.3507987e+2, -715581.4, -786157.0, -65168.39, -0.12611406, -0.0123983, -676760.2, -40545.45, 0.0, 9.999906, 9.998998 
9.8509645e+2, 2.4507968e+2, -525547.1, -626539.8, -45354.58, -0.087718025, 0.068336055, -508169.2, 30048.145, 0.0, 10.000469, 9.999148 
9.851146e+2, 2.5507826e+2, -282117.44, -467238.53, -67339.836, 0.12789722, -0.00910519, -260213.53, 180015.78, 0.0, 10.001492, 9.9990835 
9.851302e+2, 2.6507705e+2, -151447.23, -408503.25, -78893.33, 0.09970634, -0.005427394, -129165.41, 213075.31, 0.00000001775074, 10.001966, 9.998585 
9.851434e+2, 2.7507588e+2, -63824.21, -322057.28, -108626.195, -0.14895359, 0.0004228643, -24208.027, 220045.34, 0.000003544514, 10.001916, 9.998533 
9.8516023e+2, 2.850745e+2, -11415.809, -306561.38, -20300.104, -0.1564951, 0.03925523, -10026.112, 136241.77, 0.00003520851, 10.001857, 9.997997 
9.8518014e+2, 2.9507253e+2, 63804.188, -226299.5, -5109.056, 0.06556777, 0.018581452, 63894.137, 112181.05, 0.00014922032, 10.001727, 9.997933 
9.851969e+2, 3.0507058e+2, 183413.27, -155986.4, -54051.773, 0.07037678, 0.043694105, 191813.48, 191813.48, 0.00039592202, 10.002295, 9.997803 
9.852106e+2, 3.150676e+2, 368786.9, -11357.549, -125236.59, -0.11000248, -0.06378481, 406336.4, 406336.4, 0.0007798097, 10.00327, 9.998327 
9.949001e+2, 1.2505585e+2, -1924802.6, -1631047.6, -31220.965, 0.02892792, -0.21536452, -1627766.0, 86676.664, 0.000108580556, 9.997703, 10.001666 
9.9491763e+2, 1.35059e+2, -2027498.3, -1618414.6, -24495.393, -0.003943494, -0.1034766, -1616953.1, -538.8576, 0.000033028722, 9.9963255, 10.001748 
9.9493563e+2, 1.4506088e+2, -1880185.6, -1511970.3, -62624.414, 0.06575213, -0.07232036, -1501610.9, 16785.14, 0.0000026281716, 9.996688, 10.001628 
9.9495274e+2, 1.5506257e+2, -1458431.4, -1255846.1, -7896.979, 0.07945898, -0.09845987, -1255538.8, 164838.75, 0.00000000019976186, 9.998916, 10.001634 
9.9496955e+2, 1.6506378e+2, -1362050.3, -1351694.3, 18338.322, 0.033698507, -0.049661964, -1337816.9, -15449.944, 0.0, 9.999748, 9.999899 
9.94986e+2, 1.750642e+2, -1320588.5, -1284739.0, 30679.64, -0.07042831, -0.017481593, -1267131.6, -42764.34, 0.0, 9.9993725, 9.99987 
9.950019e+2, 1.8506393e+2, -1203137.9, -1171718.3, -77825.08, -0.10243878, -0.02877568, -1108033.3, 18338.104, 0.0, 9.99948, 9.999921 
9.9501735e+2, 1.9506277e+2, -1023171.8, -1036545.56, -75517.29, -0.05767094, -0.15944253, -954045.94, 74335.21, 0.0, 10.0000515, 9.999901 
9.950335e+2, 2.050632e+2, -921868.8, -949452.25, -45142.16, -0.005173329, -0.09663358, -888458.56, 41917.87, 0.0, 10.000125, 9.999795 
9.950503e+2, 2.1506488e+2, -884890.2, -881096.8, -32934.58, 0.048082806, 0.069493786, -850004.4, -17644.316, 0.0, 9.999711, 9.999786 
9.950663e+2, 2.2506437e+2, -856697.56, -901735.1, -62346.42, 0.046322268, 0.083094336, -812927.8, -78563.41, 0.0, 9.999595, 9.999028 
9.9508154e+2, 2.3506144e+2, -735911.25, -794158.5, -47950.867, -0.0072196755, -0.13460332, -708932.5, -72541.07, 0.0, 9.999761, 9.999012 
9.950974e+2, 2.4506006e+2, -560524.2, -672105.9, -19728.262, -0.06084485, -0.161718, -557138.8, -18734.46, 0.0, 10.000351, 9.998893 
9.9511385e+2, 2.5505993e+2, -318334.22, -511773.56, -17315.404, -0.11725216, -0.08802022, -316796.47, 123609.95, 0.0, 10.001354, 9.998845 
9.951304e+2, 2.650589e+2, -205717.31, -492749.13, -91379.55, -0.09116091, -0.028443301, -179094.92, 163322.48, 0.000000028595345, 10.001847, 9.998064 
9.951473e+2, 2.7505672e+2, -114129.73, -404354.1, -94939.45, 0.016878618, -0.07102112, -85831.86, 158608.3, 0.000003781716, 10.001822, 9.998014 
9.951637e+2, 2.850546e+2, 28872.596, -203532.52, -35739.043, -0.014888124, -0.11280827, 34244.35, 180704.53, 0.000036350866, 10.001776, 9.998741 
9.951796e+2, 2.950525e+2, 109764.53, -113706.914, 6632.197, -0.18910249, -0.22724685, 109961.19, 158438.92, 0.00015456251, 10.001659, 9.998735 
9.9519753e+2, 3.0505222e+2, 178733.73, -155988.0, -23243.768, -0.12199313, -0.07757638, 180340.11, 180340.11, 0.00041193186, 10.00225, 9.997828 
9.952166e+2, 3.1505135e+2, 366543.75, 23352.291, -54815.68, 0.11179034, 0.026984809, 375086.44, 375086.44, 0.0008105773, 10.003106, 9.998645 
1.0048981e+3, 1.250394e+2, -1812000.4, -1647021.3, 76676.89, 0.025280021, -0.1741288, -1616888.1, 97715.38, 0.00014134821, 9.9987755, 10.001038 
1.0049153e+3, 1.350419e+2, -1727935.6, -1542285.0, 26943.836, 0.029115321, -0.06576131, -1538453.6, 78129.72, 0.000046426092, 9.998678, 10.001127 
1.0049338e+3, 1.450433e+2, -1614037.6, -1366895.8, 50376.863, 0.13736567, -0.06016207, -1357021.5, 161548.73, 0.00000474816, 9.998472, 10.001751 
1.0049516e+3, 1.550447e+2, -1512299.8, -1270282.5, 6708.7695, 0.099929444, -0.12345406, -1270096.8, 150456.34, 0.000000004412824, 9.998509, 10.001732 
1.0049688e+3, 1.650458e+2, -1529651.3, -1428948.8, -26186.87, 0.05146898, -0.09111622, -1422546.1, -100003.47, 0.0, 9.998573, 9.999946 
1.0049856e+3, 1.7504634e+2, -1424027.6, -1325602.9, -37006.848, -0.010264557, -0.052588362, -1313241.1, -88699.914, 0.0, 9.998627, 9.999952 
1.0050017e+3, 1.8504615e+2, -1297906.6, -1208359.0, -87111.83, -0.031587604, -0.06268755, -1155188.1, -28644.041, 0.0, 9.998794, 9.999998 
1.0050174e+3, 1.9504501e+2, -1152793.9, -1091707.3, -84198.055, -0.006762843, -0.19981407, -1032683.75, -4130.1914, 0.0, 9.999135, 9.99996 
1.00503355e+3, 2.050455e+2, -1002179.6, -1011047.75, -38537.992, 0.021836974, -0.12211146, -967821.44, -37272.992, 0.0, 9.999667, 9.999589 
1.0050502e+3, 2.1504734e+2, -815409.4, -873745.5, -67222.94, 0.045299347, 0.08099634, -771299.25, 61232.34, 0.0, 10.000294, 9.999558 
1.0050666e+3, 2.2504665e+2, -660061.75, -811119.6, -70936.02, 0.059776142, 0.08964336, -631973.44, 102564.055, 0.0, 10.000966, 9.998992 
1.00508295e+3, 2.3504318e+2, -458184.3, -667530.7, -89321.84, 0.066628814, -0.17785053, -425253.47, 211314.94, 0.0, 10.001696, 9.998953 
1.0050988e+3, 2.4504156e+2, -400985.6, -621402.1, -56013.418, -0.0043597985, -0.21353833, -387567.94, 151016.05, 0.0, 10.001552, 9.998665 
1.0051145e+3, 2.5504157e+2, -453524.4, -592433.1, -75242.33, -0.14102024, -0.101706, -420580.94, 20005.34, 0.0, 10.000518, 9.998681 
1.00513145e+3, 2.6504067e+2, -357616.16, -563329.75, -76466.68, -0.10886445, -0.024716895, -332306.38, 10290.1045, 0.000000017098808, 10.000792, 9.998081 
1.00514986e+3, 2.7503845e+2, -50950.76, -369552.13, -65166.17, 0.08403473, -0.0778412, -38137.133, 206481.36, 0.000003428396, 10.002238, 9.998045 
1.0051664e+3, 2.8503624e+2, 112153.4, -172476.97, -38425.855, 0.05697716, -0.12732811, 117249.734, 263888.75, 0.00003625069, 10.002391, 9.998652 
1.0051811e+3, 2.9503393e+2, 34232.332, -164387.89, -84604.54, -0.16866961, -0.2515979, 65384.58, 114043.64, 0.00015744341, 10.001186, 9.998617 
1.00519955e+3, 3.0503377e+2, 76149.234, -207756.81, -50774.473, -0.097573586, -0.08090604, 84956.64, 84956.64, 0.00042211023, 10.001549, 9.997814 
1.0052205e+3, 3.1503296e+2, 404162.1, 65674.16, -126685.31, 0.19788872, 0.028153375, 446324.56, 446324.56, 0.0008305699, 10.0032425, 9.99888 
1.0148964e+3, 1.2502512e+2, -1871111.0, -1774019.4, 22723.932, -0.084272295, -0.090731435, -1768964.1, -54222.43, 0.0001798155, 9.998799, 10.00015 
1.0149146e+3, 1.3502632e+2, -1787848.3, -1678947.0, 32316.717, 0.057492133, -0.019852173, -1670079.1, -53343.984, 0.000062927356, 9.998726, 10.000166 
1.01493314e+3, 1.4502649e+2, -1670863.3, -1490002.9, 33991.992, 0.19177666, -0.046109926, -1483825.3, 34909.9, 0.000007860604, 9.998493, 10.000895 
1.0149495e+3, 1.5502702e+2, -1574800.1, -1398107.9, 19041.506, 0.020675946, -0.10984909, -1396079.1, 24649.41, 0.000000028517778, 9.998504, 10.000855 
1.0149665e+3, 1.6502757e+2, -1523646.6, -1417477.3, -36678.332, -0.066011816, -0.09164307, -1406038.4, -83314.39, 0.0, 9.998575, 10.000024 
1.0149841e+3, 1.7502795e+2, -1416145.8, -1315496.3, -24389.117, -0.03961857, -0.078668855, -1309897.8, -85174.23, 0.0, 9.998646, 10.000015 
1.015001e+3, 1.8502867e+2, -1277567.9, -1156498.8, -86473.54, 0.0049530566, -0.019726992, -1111477.1, 15239.877, 0.0, 9.998754, 10.000373 
1.0150175e+3, 1.9502942e+2, -1138281.0, -1041186.94, -60278.926, 0.062147003, -0.005766177, -1012336.56, 16370.945, 0.0, 9.999045, 10.00035 
1.0150338e+3, 2.05029e+2, -1050467.3, -1081705.4, -27057.426, 0.05529484, -0.018166786, -1034844.44, -104134.41, 0.0, 9.999542, 9.999163 
1.01505004e+3, 2.150272e+2, -863530.4, -943417.9, -33988.79, -0.013702881, -0.13715534, -851026.6, -18300.033, 0.0, 10.000166, 9.999141 
1.0150668e+3, 2.2502601e+2, -697381.6, -847905.6, -56523.164, -0.032776635, -0.14673588, -678520.1, 56217.12, 0.0, 10.0007925, 9.99882 
1.0150841e+3, 2.3502517e+2, -491652.94, -700945.7, -50748.152, -0.0072657894, -0.13783395, -479996.94, 156747.8, 0.0, 10.001538, 9.9987955 
1.0151005e+3, 2.4502434e+2, -437831.25, -660788.56, -108748.914, -0.015891673, -0.07815232, -393573.53, 145180.89, 0.0, 10.001396, 9.998468 
1.015116e+3, 2.5502324e+2, -480404.34, -629564.75, -101561.125, -0.05916956, -0.05834744, -428981.1, 11787.816, 0.0, 10.000434, 9.998469 
1.015133e+3, 2.6502222e+2, -326157.56, -479662.38, -30226.85, -0.06465453, -0.011508544, -320420.0, 22359.578, 0.000000011022683, 10.000712, 9.998694 
1.01515114e+3, 2.7502102e+2, -21558.453, -283289.63, 5188.0195, -0.041491643, -0.022109484, -21455.656, 223333.11, 0.0000031084232, 10.002129, 9.99869 
1.0151682e+3, 2.850193e+2, 33181.19, -316249.75, -94549.02, -0.025150483, -0.0095041245, 57123.754, 203928.88, 0.000035475467, 10.002308, 9.997702 
1.01518415e+3, 2.9501683e+2, -46884.496, -310228.16, -112574.01, -0.018033981, -0.05816138, -5321.294, 43509.336, 0.00015874387, 10.0011015, 9.99765 
1.0152024e+3, 3.050153e+2, 67444.65, -223085.22, 7686.654, 0.013461673, 0.030237965, 67647.875, 67647.875, 0.00042931808, 10.001526, 9.9977255 
1.0152218e+3, 3.150124e+2, 387634.97, 77031.125, -16629.447, -0.05850187, -0.063990265, 388522.75, 388522.75, 0.00084597495, 10.003053, 9.999047 
1.02489576e+3, 1.250082e+2, -1947448.5, -1766864.1, -148547.16, 0.023348697, -0.038405433, -1683320.4, 31592.164, 0.00022439056, 9.998084, 10.000552 
1.024913e+3, 1.3500927e+2, -1838876.6, -1667053.8, -70114.91, 0.06500436, -0.005491212, -1642073.9, -25171.059, 0.0000828242, 9.998221, 10.000502 
1.0249317e+3, 1.4500934e+2, -1710784.5, -1578054.1, 33210.758, 0.19892812, -0.029683873, -1570208.3, -51304.445, 0.000012107546, 9.998501, 10.000291 
1.0249489e+3, 1.5500975e+2, -1521645.6, -1437945.6, 15719.009, 0.07743712, -0.050194237, -1435090.9, -14189.058, 0.00000009714164, 9.999141, 10.00027 
1.02496594e+3, 1.6501021e+2, -1409697.4, -1317993.9, -9219.16, 0.00045084, -0.03038771, -1317076.1, 5822.058, 0.0, 9.999188, 10.000398 
1.02498315e+3, 1.7501064e+2, -1365297.6, -1242620.4, 768.74634, -0.003499632, -0.050757818, -1242615.5, -17721.553, 0.0, 9.998815, 10.00042 
1.0250002e+3, 1.8501133e+2, -1229760.5, -1176986.1, -22432.113, 0.03261398, 0.0024739455, -1168739.8, -41852.97, 0.0, 9.999252, 9.999999 
1.02501735e+3, 1.9501196e+2, -966781.1, -1000650.94, -72973.83, 0.09025931, 0.04480585, -908802.94, 120076.555, 0.0, 10.000396, 9.999985 
1.02503434e+3, 2.0501107e+2, -866521.0, -1005440.4, -54188.652, 0.09019124, 0.008196687, -847883.8, 83002.914, 0.0, 10.000872, 9.999048 
1.025051e+3, 2.1500836e+2, -794909.4, -925774.4, -64427.984, 0.042915132, -0.18466528, -768513.94, 64396.76, 0.0, 10.000716, 9.998999 
1.0250681e+3, 2.2500716e+2, -706267.9, -860766.56, -40495.207, 0.023945794, -0.184583, -696297.25, 38624.348, 0.0, 10.000771, 9.998741 
1.0250856e+3, 2.350072e+2, -589623.06, -757010.9, -52448.016, 0.024748167, -0.075400524, -574547.2, 62374.59, 0.0, 10.000918, 9.998708 
1.0251021e+3, 2.4500653e+2, -463562.6, -685710.5, -109147.93, 0.02301348, 0.011308114, -418910.22, 120020.555, 0.0, 10.001286, 9.99834 
1.0251178e+3, 2.5500485e+2, -292261.9, -556462.75, -125780.35, 0.015725212, -0.013362054, -241958.33, 198993.02, 0.0, 10.001803, 9.99831 
1.02513455e+3, 2.650036e+2, -165251.4, -373182.34, -20639.846, -0.012044554, 0.005365215, -163222.42, 179741.28, 0.00000001218603, 10.001696, 9.998954 
1.0251524e+3, 2.750025e+2, -177927.44, -324877.75, -35746.24, -0.049400754, -0.023830168, -169693.4, 75276.945, 0.0000027111198, 10.000924, 9.99898 
1.02516994e+3, 2.8500086e+2, -100313.67, -414057.34, -97730.3, -0.03327587, -0.0018778233, -72361.31, 74624.07, 0.00003356842, 10.001543, 9.997396 
1.0251869e+3, 2.9499835e+2, 274304.03, -190956.97, -99063.53, 0.036560316, -0.018057784, 294518.4, 343530.16, 0.00015737157, 10.003464, 9.997333 
1.0252052e+3, 3.0499607e+2, 351687.0, -107885.93, 50151.45, 0.05279763, 0.02153973, 357096.2, 357096.2, 0.00043278775, 10.003604, 9.997501 
1.025224e+3, 3.1499207e+2, 194797.14, -17591.133, -25261.99, -0.061668113, -0.16003963, 197760.52, 197760.52, 0.00085734465, 10.001735, 9.999023 
1.0348955e+3, 1.2498847e+2, -1818366.6, -1512888.5, -204439.86, 0.12260629, -0.02242194, -1410431.8, 304686.03, 0.00027553758, 9.998143, 10.002267 
1.0349103e+3, 1.3499087e+2, -1728937.4, -1439102.1, -59501.594, -0.048229683, -0.016432615, -1427362.3, 189723.8, 0.000106410545, 9.9982195, 10.00207 
1.0349289e+3, 1.4499195e+2, -1725403.0, -1612502.9, 41824.082, 0.04254621, -0.0038142924, -1598697.3, -79622.22, 0.000017580353, 9.99852, 10.000045 
1.0349491e+3, 1.5499286e+2, -1534457.8, -1470231.1, 49398.61, 0.16086476, 0.05055648, -1443425.1, -22352.125, 0.00000023822265, 9.999161, 10.000043 
1.0349668e+3, 1.6499375e+2, -1364905.3, -1222757.6, -39458.43, 0.14017873, 0.08972908, -1212539.0, 110525.91, 0.0, 9.999182, 10.001053 
1.0349823e+3, 1.749944e+2, -1324230.4, -1151751.8, -2554.146, 0.0075876885, 0.027926525, -1151714.0, 73338.484, 0.0, 9.998789, 10.001057 
1.03499904e+3, 1.8499416e+2, -1315182.3, -1339806.1, 6984.6187, -0.045062248, 0.010652838, -1313339.1, -186286.13, 0.0, 9.999192, 9.998911 
1.03501685e+3, 1.9499269e+2, -1054488.9, -1166524.5, -22482.514, -0.024191992, -0.04961245, -1050145.6, -21076.34, 0.0, 10.000322, 9.998883 
1.03503466e+3, 2.0499168e+2, -877922.8, -998516.56, -73156.01, 0.027184354, -0.046767127, -843417.2, 87661.555, 0.0, 10.000738, 9.999161 
1.0350526e+3, 2.1499078e+2, -800450.94, -913279.1, -58114.375, 0.12036942, -0.07340198, -775872.25, 57212.215, 0.0, 10.000604, 9.99914 
1.03507005e+3, 2.2499001e+2, -731464.6, -875220.06, -46884.184, 0.13163337, -0.03774671, -717525.5, 17565.748, 0.0, 10.000611, 9.998718 
1.0350869e+3, 2.3498917e+2, -609694.0, -767627.0, -34965.17, 0.055633716, -0.0161551, -602299.2, 34801.598, 0.0, 10.000783, 9.998701 
1.0351034e+3, 2.4498805e+2, -498793.56, -720015.1, -98166.36, 0.0049313926, 0.036197715, -461514.6, 77599.55, 0.0, 10.001123, 9.998183 
1.0351195e+3, 2.549865e+2, -318761.9, -585331.3, -91839.88, -0.016112776, 0.034818035, -290184.4, 150948.92, 0.0, 10.001691, 9.998167 
1.0351362e+3, 2.649849e+2, -182497.16, -387667.7, -60618.992, -0.039294746, 0.031279385, -165925.39, 177222.67, 0.00000000560088, 10.001609, 9.998893 
1.0351534e+3, 2.7498296e+2, -200227.11, -344811.4, -50322.78, -0.063094795, -0.07522397, -184436.7, 60725.156, 0.0000022721786, 10.000822, 9.998888 
1.0351713e+3, 2.8498092e+2, -91586.3, -378294.66, -36958.13, -0.08178865, -0.09942374, -86898.84, 60280.4, 0.000031172072, 10.001468, 9.997677 
1.0351891e+3, 2.9497883e+2, 273041.66, -156722.56, -9678.914, -0.11175614, -0.109456375, 273259.53, 322459.78, 0.00015322318, 10.003313, 9.997636 
1.0352079e+3, 3.0497625e+2, 301537.34, -190054.22, -27117.467, -0.06931044, -0.086779565, 303028.7, 303028.7, 0.00043103905, 10.003509, 9.996984 
1.03522606e+3, 3.149721e+2, 145746.92, -66402.37, -51941.637, -0.07319929, -0.23060684, 157781.39, 157781.39, 0.0008619147, 10.001536, 9.998772 
1.0448936e+3, 1.24971054e+2, -2015241.5, -1586023.3, 31306.24, 0.20022804, -0.023049373, -1583751.9, 131538.63, 0.0003338259, 9.996678, 10.002471 
1.0449093e+3, 1.3497339e+2, -1644889.0, -1382009.0, 48895.617, 0.019827798, -0.043643698, -1373209.0, 244048.36, 0.00013404706, 9.998711, 10.002219 
1.0449278e+3, 1.4497447e+2, -1660464.8, -1611830.9, 85395.414, 0.065395646, -0.025000231, -1547357.6, -28111.83, 0.000024406929, 9.999101, 9.999774 
1.0449477e+3, 1.549753e+2, -1704014.1, -1577492.3, 58642.805, 0.16560717, 0.051243596, -1554492.4, -133246.23, 0.0000004785213, 9.998123, 9.999806 
1.0449656e+3, 1.6497608e+2, -1527514.5, -1330966.6, -20554.533, 0.15792954, 0.10287892, -1328840.1, -5600.3755, 0.0, 9.998181, 10.000799 
1.0449817e+3, 1.749765e+2, -1263323.0, -1153461.9, -72151.43, 0.05635791, 0.04322956, -1117710.6, 107518.27, 0.0, 9.999328, 10.000791 
1.044999e+3, 1.8497582e+2, -1230291.8, -1318938.9, -32988.066, 0.010702411, 0.00568455, -1219363.3, -92130.53, 0.0, 9.999874, 9.998719 
1.04501724e+3, 1.949738e+2, -1132911.5, -1223164.8, -20806.68, 0.017317435, -0.08990276, -1128345.8, -99092.234, 0.0, 9.99988, 9.9987 
1.0450354e+3, 2.0497271e+2, -947757.2, -1053975.9, -34493.156, 0.05474371, -0.07517094, -937539.0, -6275.097, 0.0, 10.000344, 9.998971 
1.0450536e+3, 2.1497226e+2, -730934.56, -899262.5, -64511.215, 0.12941654, -0.038326945, -709054.8, 124211.98, 0.0, 10.00117, 9.998961 
1.045071e+3, 2.2497144e+2, -613992.2, -815038.8, -61185.004, 0.13599177, 0.0007187053, -596835.7, 138438.7, 0.0, 10.001393, 9.998757 
1.0450879e+3, 2.3497003e+2, -573331.3, -749210.3, -70718.29, 0.06847431, -0.03756197, -548423.9, 88865.14, 0.0, 10.001015, 9.998721 
1.04510434e+3, 2.449688e+2, -504862.13, -716194.4, -77132.65, 0.0067841983, -0.003900903, -479704.8, 59598.227, 0.0, 10.001034, 9.998263 
1.0451207e+3, 2.549675e+2, -349894.47, -590073.0, -77084.016, -0.042822603, 0.016477184, -327283.44, 114034.93, 0.0, 10.001425, 9.998265 
1.0451378e+3, 2.6496598e+2, -185829.84, -446426.94, -60225.19, -0.042468127, 0.03474997, -172584.72, 170748.95, 0.0000000009945924, 10.001821, 9.998398 
1.0451557e+3, 2.7496368e+2, -42865.438, -331988.75, -105178.72, 0.014216208, -0.054567505, -8651.716, 236701.86, 0.0000020282196, 10.002135, 9.998362 
1.04517356e+3, 2.8496158e+2, 22021.172, -288038.97, -42841.766, -0.017670857, -0.07481201, 27831.83, 175204.23, 0.00002862313, 10.002082, 9.998009 
1.0451913e+3, 2.9495966e+2, 51777.008, -224609.14, -42579.703, -0.13739337, -0.09764727, 58188.07, 107578.414, 0.00014660136, 10.001614, 9.997995 
1.04521e+3, 3.049574e+2, 68509.055, -265960.6, -51383.4, -0.100452825, -0.07918901, 76224.91, 76224.91, 0.00042212423, 10.001757, 9.997296 
1.0452288e+3, 3.149541e+2, 288489.97, 40174.695, -60442.527, 0.012380763, -0.16493598, 302420.78, 302420.78, 0.0008537748, 10.00231, 9.99915 
1.0548892e+3, 1.2495599e+2, -2103474.3, -1764174.4, 56730.93, 0.031935748, -0.069692254, -1754940.4, -39510.332, 0.00039971265, 9.99667, 10.0012455 
1.0549097e+3, 1.3495693e+2, -1737933.5, -1575563.5, 136667.63, 0.15489087, -0.09529078, -1497786.0, 119629.36, 0.00016604259, 9.998716, 10.000888 
1.0549281e+3, 1.4495708e+2, -1678166.3, -1658311.0, 31244.521, 0.14747044, -0.08658089, -1635454.9, -116040.31, 0.000032768716, 9.999138, 9.999437 
1.0549443e+3, 1.5495719e+2, -1730478.9, -1633889.3, 32561.469, -0.007981621, -0.05058114, -1623937.6, -202517.55, 0.0000008393984, 9.99812, 9.999425 
1.0549619e+3, 1.6495723e+2, -1612280.5, -1497559.8, 9562.608, -0.055102974, 0.007057728, -1496768.1, -173346.13, 0.0, 9.998149, 9.999668 
1.05498105e+3, 1.7495699e+2, -1343772.6, -1318690.8, -20568.426, 0.037845843, -0.00976501, -1307141.5, -81718.95, 0.0, 9.999323, 9.999658 
1.055e+3, 1.849564e+2, -1191834.8, -1227120.9, -47037.31, 0.09603125, -0.010887363, -1159240.5, -31815.293, 0.0, 9.999823, 9.999374 
1.0550183e+3, 1.9495529e+2, -1097153.5, -1133493.1, -9450.916, 0.11115662, -0.08550952, -1094842.6, -65410.24, 0.0, 9.999807, 9.999353 
1.0550361e+3, 2.0495422e+2, -1000961.25, -1135372.4, -17756.695, 0.075517714, -0.076079346, -998655.0, -67213.35, 0.0, 10.000218, 9.998473 
1.0550535e+3, 2.1495292e+2, -786688.1, -985473.2, -23258.313, -0.014258305, -0.07683903, -784003.1, 49453.375, 0.0, 10.001036, 9.998437 
1.0550708e+3, 2.2495158e+2, -636630.4, -823038.4, -85433.766, -0.053573076, -0.06372787, -603398.94, 132071.17, 0.0, 10.001226, 9.998779 
1.05508804e+3, 2.3494995e+2, -588840.06, -750303.4, -72051.66, -0.03591122, -0.13098982, -561363.44, 76121.92, 0.0, 10.000879, 9.998776 
1.0551049e+3, 2.4494886e+2, -503777.7, -683103.2, -74998.46, -0.07346662, -0.09936366, -476546.56, 62949.715, 0.0, 10.000902, 9.998553 
1.0551211e+3, 2.5494808e+2, -347539.9, -557890.6, -52553.363, -0.16754512, -0.059531637, -335140.97, 106364.52, 0.0, 10.001306, 9.998543 
1.055139e+3, 2.649468e+2, -270715.0, -591752.25, -57181.23, -0.11606355, 0.01721549, -260834.31, 82686.43, 0.000000000012280949, 10.001695, 9.997455 
1.0551587e+3, 2.749447e+2, -125009.5, -474612.38, -74471.06, 0.078821495, 0.040060014, -109807.04, 135737.36, 0.0000016155456, 10.00202, 9.997433 
1.0551766e+3, 2.8494287e+2, 35387.176, -242127.4, -68991.4, 0.060334798, 0.075656764, 51592.457, 199155.81, 0.000025306648, 10.002004, 9.998364 
1.0551929e+3, 2.94941e+2, 58841.785, -184690.42, -40274.8, -0.16578586, 0.020930301, 65329.504, 114910.0, 0.00013793015, 10.001511, 9.998321 
1.0552113e+3, 3.0493945e+2, 132059.66, -121717.3, -34257.29, -0.16532923, 0.043579664, 136602.7, 136602.7, 0.00040720604, 10.001695, 9.998318 
1.0552312e+3, 3.1493798e+2, 335256.1, 178077.11, 1916.9377, -0.030775266, 0.034791905, 335279.47, 335279.47, 0.00083313056, 10.002141, 10.000179 
1.0648874e+3, 1.24939725e+2, -1921526.9, -1751099.0, -59332.73, 0.13122869, 0.0038359063, -1732477.6, -16887.691, 0.00047318285, 9.998249, 10.00058 
1.0649088e+3, 1.3493967e+2, -1794976.1, -1675418.8, 33304.176, 0.21469821, -0.050168447, -1666767.5, -49179.03, 0.00020250746, 9.998652, 10.000235 
1.06492676e+3, 1.4493942e+2, -1690837.4, -1666072.4, -57437.703, 0.107994385, -0.045958634, -1619697.6, -100106.2, 0.000042863663, 9.999057, 9.999429 
1.064943e+3, 1.5493926e+2, -1499081.6, -1519041.6, -60014.19, -0.024279153, -0.03553317, -1448223.3, -26627.076, 0.0000013547858, 9.999701, 9.999446 
1.064961e+3, 1.6493882e+2, -1352189.6, -1459531.6, 14677.831, -0.054671083, 0.0087885065, -1350218.9, -26616.16, 0.0, 10.000294, 9.998904 
1.0649813e+3, 1.7493792e+2, -1178760.1, -1324080.1, -12852.524, 0.05819841, 0.00552247, -1177632.1, 47980.297, 0.0, 10.0008135, 9.998911 
1.06500074e+3, 1.849371e+2, -1021822.2, -1134056.8, -57683.918, 0.1391298, 0.012186074, -997462.25, 130155.82, 0.0, 10.00093, 9.999482 
1.0650191e+3, 1.9493614e+2, -965357.44, -1059765.6, -85112.21, 0.17569867, -0.057141524, -915235.7, 114386.47, 0.0, 10.000654, 9.999456 
1.0650369e+3, 2.0493512e+2, -946459.5, -1084464.8, -45613.074, 0.1206065, -0.060157273, -932746.25, -1116.0265, 0.0, 10.000497, 9.998682 
1.0650541e+3, 2.1493384e+2, -848635.0, -988577.8, -26289.23, -0.021668125, -0.07676301, -843859.4, -10215.138, 0.0, 10.000512, 9.998659 
1.0650714e+3, 2.2493273e+2, -706968.44, -836771.2, -50412.074, -0.07573469, -0.063689575, -689689.75, 45965.652, 0.0, 10.000647, 9.998972 
1.0650889e+3, 2.3493148e+2, -581335.2, -723231.06, -47625.84, -0.03064949, -0.108915746, -566832.4, 70833.77, 0.0, 10.000832, 9.998986 
1.06510594e+3, 2.4493046e+2, -469560.88, -659559.1, -15219.533, -0.050593566, -0.0850866, -468349.47, 71326.5, 0.0, 10.001114, 9.998611 
1.0651227e+3, 2.5492936e+2, -316243.56, -539463.2, -36089.95, -0.14557351, -0.07999454, -310553.6, 131134.23, 0.0, 10.001508, 9.998577 
1.06514074e+3, 2.6492798e+2, -272815.25, -586339.44, -3792.9536, -0.10419186, -0.0130970515, -272769.38, 70933.99, 0.0, 10.001642, 9.997517 
1.06516026e+3, 2.7492622e+2, -214008.33, -503007.97, 20167.652, 0.08339491, 0.030308673, -212607.73, 33116.367, 0.00000091217555, 10.00136, 9.997546 
1.0651786e+3, 2.849245e+2, -68502.95, -316726.44, 64363.48, 0.09341054, 0.079614006, -52806.32, 94935.99, 0.000020761427, 10.001397, 9.998142 
1.0651953e+3, 2.9492238e+2, 84138.516, -199770.7, 25554.352, -0.06893645, 0.027059054, 86420.29, 136182.53, 0.00012637535, 10.001785, 9.998088 
1.065214e+3, 3.049204e+2, 197660.02, -95648.7, 19426.129, -0.08755674, 0.020996962, 198941.03, 198941.03, 0.00038601994, 10.002157, 9.998273 
1.06523365e+3, 3.149187e+2, 360227.6, 199095.94, -64169.387, 0.0020649282, -0.013377179, 382659.63, 382659.63, 0.0008001297, 10.002266, 10.000252 
1.074888e+3, 1.2492196e+2, -1925832.0, -1762006.1, -70926.18, 0.3078715, 0.17566112, -1735566.6, -19792.81, 0.00055371417, 9.998278, 10.000482 
1.0749064e+3, 1.3492168e+2, -1801595.3, -1681974.0, 49997.707, 0.08709801, 0.10363423, -1663829.0, -46052.953, 0.00024334127, 9.998633, 10.000193 
1.07492335e+3, 1.4492157e+2, -1661816.8, -1612728.3, -53312.035, -0.16998333, 0.10330118, -1578581.9, -58805.6, 0.00005483326, 9.999072, 9.999793 
1.07494324e+3, 1.5492152e+2, -1467106.3, -1462788.4, -26110.967, 0.005451419, 0.08651867, -1438747.3, -16972.215, 0.000002073113, 9.999735, 9.99982 
1.0749628e+3, 1.6492091e+2, -1380498.8, -1514201.0, 19616.354, 0.061409436, 0.11418494, -1377680.1, -53899.008, 0.0000000000166348, 10.000282, 9.99853 
1.07498206e+3, 1.749194e+2, -1207185.6, -1379761.5, 17606.912, 0.02792123, 0.08625394, -1205407.6, 20389.805, 0.0, 10.000798, 9.998533 
1.07500084e+3, 1.8491802e+2, -1063612.1, -1203638.5, -80944.28, 0.046007294, 0.07693901, -1026602.75, 101207.414, 0.0, 10.000864, 9.999034 
1.0750193e+3, 1.9491646e+2, -1010141.9, -1127525.1, -84894.055, 0.10880922, -0.0070119635, -965626.4, 64195.605, 0.0, 10.000555, 9.999035 
1.07503735e+3, 2.0491551e+2, -907497.3, -975775.9, -60244.703, 0.09653667, -0.021459423, -872391.25, 59437.03, 0.0, 10.000374, 9.999492 
1.0750551e+3, 2.1491496e+2, -810829.06, -875716.56, -14055.767, 0.005990203, -0.04990821, -807915.2, 25915.658, 0.0, 10.00036, 9.99951 
1.07507266e+3, 2.2491476e+2, -705029.0, -792655.2, -54570.973, -0.028524423, -0.0057189097, -678859.4, 56971.586, 0.0, 10.000476, 9.999357 
1.07509024e+3, 2.3491466e+2, -578784.25, -679349.1, -27756.596, -0.0068281307, 0.02261659, -571631.94, 66199.37, 0.0, 10.000667, 9.999369 
1.0751077e+3, 2.4491358e+2, -511704.28, -708488.4, -9758.455, -0.020384222, 0.033839542, -511221.56, 28620.527, 0.0, 10.000952, 9.99835 
1.0751251e+3, 2.5491118e+2, -348063.03, -580701.4, -5799.5645, -0.07689034, -0.064080864, -347918.53, 93947.83, 0.0, 10.001398, 9.998344 
1.0751427e+3, 2.6490948e+2, -225278.94, -455673.0, -25629.012, -0.09480905, -0.06873433, -222462.4, 121420.19, 0.000000000031670343, 10.001511, 9.998478 
1.0751604e+3, 2.7490819e+2, -162086.9, -374069.9, 23495.01, -0.07169116, -0.075913884, -159514.08, 86379.266, 0.00000057346807, 10.001267, 9.998481 
1.075179e+3, 2.8490645e+2, -127506.46, -423397.16, 64518.53, -0.025707472, -0.038967755, -114050.24, 33859.594, 0.000016841232, 10.001331, 9.997438 
1.0751985e+3, 2.94904e+2, 22920.684, -303776.47, 59842.777, 0.03571995, -0.05617374, 33537.38, 83471.7, 0.000114238224, 10.001687, 9.997419 
1.0752174e+3, 3.0490056e+2, 109648.31, -262295.75, 21544.727, 0.017022505, -0.12152117, 110892.125, 110892.125, 0.0003625103, 10.002087, 9.997166 
1.0752354e+3, 3.148965e+2, 252079.39, 18131.842, -11290.392, -0.111451544, -0.28124627, 252623.0, 252623.0, 0.00076317973, 10.00207, 9.999112 
1.0848876e+3, 1.2490284e+2, -1705720.6, -1691075.5, -10518.925, 0.3624458, 0.20631124, -1685581.4, 30384.354, 0.00064071716, 9.999917, 10.000191 
1.0849053e+3, 1.3490258e+2, -1750109.3, -1684473.4, 25258.678, 0.09747434, 0.15928823, -1675878.5, -57909.74, 0.00028839763, 9.999084, 9.999968 
1.08492166e+3, 1.4490259e+2, -1656035.3, -1581839.3, -16628.639, -0.23922116, 0.17179985, -1578283.0, -58315.414, 0.00006873226, 9.999027, 10.000005 
1.0849436e+3, 1.5490264e+2, -1402851.3, -1410700.1, -39059.29, 0.0493789, 0.1453076, -1367519.8, 54444.055, 0.0000030594845, 10.0001, 9.999992 
1.08496375e+3, 1.6490197e+2, -1383859.8, -1495884.8, 2093.2566, 0.14339577, 0.15064114, -1383820.6, -59851.78, 0.000000000186287, 10.000176, 9.998702 
1.0849823e+3, 1.7490035e+2, -1425019.0, -1467034.0, 14600.731, 0.05608781, 0.094636805, -1420443.4, -194457.9, 0.0, 9.999233, 9.998682 
1.0850007e+3, 1.84899e+2, -1276115.0, -1310854.9, 4448.0723, 0.0257845, 0.083197854, -1275554.5, -147556.36, 0.0, 9.999421, 9.999 
1.08501926e+3, 1.9489771e+2, -987108.75, -1119942.4, 4804.6147, 0.048671167, 0.029461829, -986935.2, 43073.715, 0.0, 10.000736, 9.999001 
1.0850376e+3, 2.0489693e+2, -780642.3, -894838.6, 17327.336, 0.053412847, 0.024139687, -778071.06, 153942.3, 0.0, 10.001161, 9.999661 
1.0850558e+3, 2.1489632e+2, -756411.3, -836320.06, -14262.321, 0.03648939, -0.027053459, -753942.06, 80072.59, 0.0, 10.000667, 9.999633 
1.0850736e+3, 2.2489595e+2, -729946.4, -807386.56, -60524.4, 0.03079601, -0.00371745, -696816.3, 39199.66, 0.0, 10.000338, 9.999318 
1.0850909e+3, 2.348956e+2, -640613.1, -714356.06, -96526.0, 0.035444763, 0.00703849, -574156.1, 63863.23, 0.0, 10.0002775, 9.999312 
1.08510874e+3, 2.4489461e+2, -565125.4, -716794.25, -42782.13, 0.028886272, 0.024026155, -553889.9, -13860.738, 0.0, 10.000496, 9.998526 
1.0851269e+3, 2.5489277e+2, -411317.6, -591313.06, -30106.92, 0.013167207, -0.035746247, -406415.28, 35632.277, 0.0, 10.000879, 9.9985285 
1.0851448e+3, 2.6489112e+2, -234692.56, -452419.25, -48413.113, -0.02628892, -0.04735831, -224412.9, 119650.13, 0.000000020287489, 10.001421, 9.998535 
1.0851619e+3, 2.748893e+2, -35648.523, -308595.66, -94747.27, -0.08854699, -0.10886157, -5983.3545, 240095.45, 0.0000009682407, 10.00212, 9.998515 
1.0851806e+3, 2.848875e+2, 25579.6, -341293.63, -40128.324, -0.04846877, -0.082694344, 29917.514, 178013.31, 0.000016002106, 10.002342, 9.997514 
1.0852009e+3, 2.948855e+2, 59757.41, -272752.6, -24030.975, 0.10870279, -0.065310135, 61485.188, 111600.97, 0.00010691048, 10.001887, 9.997532 
1.08521976e+3, 3.048822e+2, -4535.264, -303399.53, 22962.924, 0.09732904, -0.12763312, -2781.2266, -2781.2266, 0.00034615427, 10.001266, 9.997282 
1.085237e+3, 3.148784e+2, 2088.8892, -87357.03, 26527.215, -0.050267167, -0.26250973, 9364.3545, 9364.3545, 0.0007399488, 10.000326, 9.99922 
1.09488584e+3, 1.2488224e+2, -1730604.9, -1750515.3, -19236.23, 0.14178865, 0.070257805, -1718900.5, -2733.7314, 0.000734217, 9.999942, 9.999772 
1.0949049e+3, 1.3488263e+2, -1764842.0, -1727614.1, -1619.0457, 0.13494676, 0.11286598, -1727543.8, -109379.84, 0.00033773432, 9.9991255, 9.999655 
1.0949212e+3, 1.4488265e+2, -1665559.1, -1599391.1, 8357.485, -0.21132575, 0.14908896, -1598351.9, -78188.23, 0.0000845864, 9.999022, 9.999886 
1.0949435e+3, 1.548826e+2, -1414749.6, -1427712.4, 14841.283, 0.008536233, 0.12685198, -1405036.3, 17126.262, 0.0000043925156, 10.000075, 9.999886 
1.0949636e+3, 1.648821e+2, -1334284.3, -1395334.8, -47939.69, 0.08911763, 0.11937722, -1307976.4, 16189.272, 0.0000000006358386, 10.00018, 9.999394 
1.09498166e+3, 1.7488077e+2, -1371592.1, -1362271.5, -9426.072, 0.045200758, 0.022129962, -1356416.6, -130240.18, 0.0, 9.999249, 9.999398 
1.095e+3, 1.8488014e+2, -1257499.4, -1261124.6, 38964.86, -0.021239249, 0.028613755, -1220305.0, -92123.836, 0.0, 9.999376, 9.99936 
1.0950187e+3, 1.9487998e+2, -975604.1, -1073424.6, 67837.11, -0.105113275, 0.05236701, -940883.7, 89298.07, 0.0, 10.000639, 9.999365 
1.0950374e+3, 2.0487933e+2, -832204.3, -978272.1, -14233.678, -0.107846744, 0.06923467, -830830.25, 101355.445, 0.0, 10.001053, 9.999145 
1.095056e+3, 2.1487796e+2, -814626.06, -921126.75, -22422.432, -0.023960747, -0.006775491, -810097.9, 24097.465, 0.0, 10.00051, 9.999129 
1.0950738e+3, 2.2487637e+2, -796234.1, -905755.44, -75553.89, 0.007814072, -0.051173132, -757682.8, -21473.574, 0.0, 10.00017, 9.998721 
1.09509096e+3, 2.3487423e+2, -704948.5, -812999.94, -86061.8, -0.011850691, -0.16060278, -657360.2, -19129.463, 0.0, 10.000126, 9.998708 
1.095109e+3, 2.4487352e+2, -542449.25, -637050.0, -39628.848, -0.008668086, -0.11533605, -528042.5, 12195.116, 0.0, 10.000355, 9.999142 
1.0951282e+3, 2.548741e+2, -384553.13, -507841.4, -1428.6254, 0.023181513, 0.002509449, -384536.56, 57694.367, 0.0, 10.000755, 9.999164 
1.0951466e+3, 2.64873e+2, -314344.1, -583663.2, -29521.266, 0.0019152146, 0.051820844, -311146.13, 33097.234, 0.00000010014453, 10.001275, 9.997705 
1.09516434e+3, 2.7486965e+2, -107388.54, -437018.06, -45900.754, -0.084684916, -0.07305919, -101116.234, 145162.83, 0.0000018117424, 10.002024, 9.997684 
1.09518275e+3, 2.8486758e+2, 62133.844, -242820.78, -66238.03, -0.08296478, -0.06892627, 75899.75, 224200.34, 0.000017402066, 10.00225, 9.998232 
1.0952023e+3, 2.948666e+2, 94489.914, -178116.1, -23354.725, 0.026774045, -0.028963378, 96476.28, 146785.3, 0.00010435712, 10.00179, 9.998229 
1.0952206e+3, 3.0486503e+2, 70934.57, -133153.1, -19866.84, 0.03379781, -0.0093244, 72850.516, 72850.516, 0.00033796718, 10.001203, 9.998484 
1.0952378e+3, 3.14864e+2, 70458.45, 64812.824, 29442.514, -0.050190642, 0.012931186, 97213.164, 97213.164, 0.00073106954, 10.0002575, 10.000312 
1.10488504e+3, 1.2486226e+2, -1697705.4, -1689927.9, -23398.018, 0.06907734, 0.10380913, -1670097.6, 46270.055, 0.00083503575, 9.999994, 10.000139 
1.10490516e+3, 1.3486317e+2, -1662401.3, -1631569.9, -64971.707, 0.22355488, 0.15497509, -1580210.1, 38146.973, 0.0003918232, 9.999627, 10.000064 
1.1049216e+3, 1.4486311e+2, -1619550.0, -1592465.9, 46869.074, -0.079087384, 0.16604602, -1557221.8, -36865.145, 0.000102570426, 9.999381, 9.999771 
1.1049434e+3, 1.5486276e+2, -1518901.9, -1493519.6, 30506.72, 0.028229965, 0.12632301, -1473169.5, -50810.402, 0.0000061708192, 9.99941, 9.999762 
1.1049633e+3, 1.6486235e+2, -1396295.9, -1383762.1, -44855.0, 0.07534307, 0.11562013, -1344738.3, -20377.068, 0.0000000015512864, 9.99959, 9.999752 
1.1049817e+3, 1.7486161e+2, -1228068.4, -1249706.6, -62836.355, 0.089742795, 0.039088756, -1175126.5, 51238.93, 0.0, 10.000067, 9.999768 
1.1050002e+3, 1.8486138e+2, -1124115.0, -1179876.8, 14953.455, 0.035188667, 0.060386635, -1120358.1, 8007.9917, 0.0, 10.000235, 9.999496 
1.1050191e+3, 1.9486137e+2, -1051815.6, -1092528.4, 1493.7545, -0.09734307, 0.08597319, -1051760.9, -21394.893, 0.0, 10.000055, 9.999506 
1.1050377e+3, 2.0486082e+2, -986806.0, -1050726.0, -68760.516, -0.11122019, 0.10452213, -942940.8, -10571.16, 0.0, 9.999985, 9.9991665 
1.10505655e+3, 2.1485949e+2, -871987.1, -943194.0, -64720.684, 0.0013442974, 0.031009924, -833723.3, 655.786, 0.0, 10.000096, 9.999177 
1.1050746e+3, 2.2485779e+2, -733372.44, -902251.94, -32059.16, 0.048573803, -0.01571825, -727491.3, 8903.05, 0.0, 10.000707, 9.998488 
1.1050923e+3, 2.3485543e+2, -473410.34, -728038.94, -36986.41, 0.030614927, -0.123246, -468146.63, 170271.9, 0.0, 10.001825, 9.998474 
1.1051102e+3, 2.4485466e+2, -317244.94, -492465.7, -136.77853, 0.01582973, -0.08731186, -317244.8, 223180.73, 0.0, 10.001764, 9.99944 
1.1051285e+3, 2.5485533e+2, -402662.66, -480277.1, -18991.316, 0.006120449, 0.008444867, -398264.9, 44151.824, 0.0, 10.000493, 9.999463 
1.1051472e+3, 2.6485458e+2, -429327.03, -630318.5, 48276.793, -0.016767798, 0.075720266, -418332.66, -73907.06, 0.00000018749917, 10.00043, 9.9978 
1.1051662e+3, 2.7485204e+2, -170401.66, -456374.5, 73541.14, -0.050539054, 0.018758269, -152598.11, 93857.56, 0.0000025365616, 10.00154, 9.9977865 
1.10518515e+3, 2.848502e+2, 19281.832, -243899.28, 45615.49, -0.037826985, 0.035441995, 26963.84, 175439.81, 0.000019295574, 10.001884, 9.998402 
1.105204e+3, 2.9484895e+2, 39815.797, -184545.38, 15303.393, 0.048905008, 0.03256125, 40854.813, 91342.7, 0.00010487227, 10.001348, 9.998393 
1.1052218e+3, 3.0484784e+2, 100630.26, -93374.516, 630.39624, 0.036516212, 0.077793725, 100632.305, 100632.305, 0.00033641586, 10.001271, 9.998726 
1.10523924e+3, 3.148481e+2, 242783.42, 191672.98, -62194.633, 0.019800644, 0.19061701, 284468.38, 284468.38, 0.00073074934, 10.001275, 10.00067 
1.1148848e+3, 1.248431e+2, -1621666.8, -1527312.4, -4146.522, -0.005867517, 0.2922055, -1527130.5, 189436.3, 0.000944546, 9.999989, 10.001263 
1.11490555e+3, 1.3484444e+2, -1592873.0, -1486027.6, -67073.71, 0.27995396, 0.29374844, -1453701.5, 164845.03, 0.00045159098, 9.999623, 10.001072 
1.1149226e+3, 1.4484414e+2, -1619611.4, -1592339.5, 29904.72, 0.046218254, 0.23170736, -1573108.5, -52563.547, 0.00012308804, 9.999383, 9.99977 
1.1149427e+3, 1.5484339e+2, -1520939.3, -1499471.3, 42618.69, -0.00066228845, 0.15038133, -1466255.6, -43704.355, 0.000008505592, 9.999416, 9.999718 
1.11496225e+3, 1.6484298e+2, -1398535.4, -1389747.9, -43770.7, -0.00798606, 0.14581867, -1350150.9, -25597.5, 0.0000000033697685, 9.999588, 9.999719 
1.1149819e+3, 1.7484291e+2, -1229319.9, -1255076.3, -34032.63, 0.0880173, 0.14485049, -1205810.4, 20741.238, 0.0, 10.000066, 9.999742 
1.1150012e+3, 1.8484268e+2, -1135316.9, -1194681.3, -6349.805, 0.08659532, 0.17213334, -1134645.3, -6092.2275, 0.0, 10.0002, 9.999412 
1.1150199e+3, 1.94842e+2, -1075106.3, -1114487.0, 4410.9272, -0.032415528, 0.13902782, -1074618.1, -44057.516, 0.0, 9.999948, 9.999407 
1.1150385e+3, 2.0484148e+2, -961675.6, -978139.8, -82301.555, -0.06300591, 0.13883577, -887195.5, 45368.875, 0.0, 9.999889, 9.99971 
1.1150568e+3, 2.1484078e+2, -858166.94, -879058.94, -48554.24, 0.004339446, 0.07309991, -818947.75, 15619.29, 0.0, 9.999936, 9.999697 
1.1150754e+3, 2.2484009e+2, -745160.5, -887382.2, -2055.2407, 0.043781005, 0.09297795, -745130.75, -8558.393, 0.0, 10.000545, 9.998666 
1.1150946e+3, 2.348392e+2, -486609.72, -714655.7, 18659.783, 0.065348275, 0.11477365, -485093.0, 153489.55, 0.0, 10.001652, 9.998651 
1.1151121e+3, 2.4483801e+2, -347620.16, -518287.63, -57239.133, 0.0021774669, 0.10481771, -330200.97, 210391.95, 0.0, 10.001604, 9.999339 
1.1151278e+3, 2.5483626e+2, -426721.34, -506579.34, -52634.72, -0.14661305, -0.031130783, -400584.2, 42021.938, 0.0, 10.00039, 9.999331 
1.1151461e+3, 2.6483572e+2, -375035.56, -496690.97, 75758.18, -0.18507524, 0.017719226, -338707.16, 5904.418, 0.00000020790911, 10.000341, 9.998757 
1.1151675e+3, 2.7483618e+2, -116760.28, -319639.38, 130188.73, -0.10653869, 0.15856226, -53157.145, 193454.08, 0.0000030041283, 10.001429, 9.998777 
1.1151874e+3, 2.848353e+2, -23856.3, -302898.06, 14433.798, -0.026777674, 0.23426609, -23111.682, 125511.56, 0.000021785861, 10.001757, 9.998056 
1.11520566e+3, 2.948326e+2, 3002.7898, -243731.27, 17285.023, 0.0482015, 0.12551226, 4207.812, 54859.848, 0.00010887074, 10.001271, 9.998025 
1.1152229e+3, 3.0483064e+2, 44272.125, -199767.77, -6320.776, 0.00027835608, 0.13944578, 44435.73, 44435.73, 0.00034133886, 10.001228, 9.9980135 
1.1152401e+3, 3.148303e+2, 180785.39, 86568.61, -19897.441, -0.074320115, 0.26486933, 184815.14, 184815.14, 0.0007374856, 10.001167, 10.000003 
1.12488516e+3, 1.2482396e+2, -1624131.3, -1579582.1, 204769.84, 0.032595642, 0.30210954, -1395878.9, 320875.06, 0.0010643419, 10.000194, 10.000813 
1.12490565e+3, 1.3482499e+2, -1534540.3, -1522850.8, -65274.363, 0.30216336, 0.33330995, -1463160.0, 155579.67, 0.00051804923, 10.000322, 10.000476 
1.1249237e+3, 1.4482445e+2, -1474594.4, -1524262.1, 19320.69, 0.17552987, 0.27458578, -1467963.9, 52778.07, 0.00014661087, 10.000387, 9.999751 
1.12494275e+3, 1.5482351e+2, -1351402.4, -1417373.3, -205.39359, 0.006880165, 0.1761128, -1351401.8, 71346.75, 0.00001150662, 10.000586, 9.999713 
1.12496205e+3, 1.648231e+2, -1267167.9, -1327662.0, -53575.168, -0.031115346, 0.17115317, -1235891.1, 88859.24, 0.0000000061074554, 10.000485, 9.999714 
1.1249822e+3, 1.7482312e+2, -1213726.8, -1243222.0, -64356.645, 0.11272223, 0.17616037, -1162449.6, 64298.527, 0.0, 10.000155, 9.999775 
1.1250017e+3, 1.8482302e+2, -1183567.9, -1191871.1, -10826.555, 0.15261185, 0.20222434, -1176124.3, -47375.895, 0.0, 9.999747, 9.999652 
1.1250205e+3, 1.9482245e+2, -1143618.3, -1126410.8, 801.1377, 0.06567724, 0.15374166, -1126373.6, -95618.836, 0.0, 9.999351, 9.999628 
1.1250389e+3, 2.0482206e+2, -993221.2, -973137.75, -27993.77, 0.020801902, 0.14840804, -953439.1, -20681.932, 0.0, 9.999612, 9.999868 
1.1250573e+3, 2.1482159e+2, -732084.7, -792973.5, -54094.086, 0.027920563, 0.087763265, -700456.25, 134301.95, 0.0, 10.00072, 9.999894 
1.1250763e+3, 2.248213e+2, -664446.6, -818276.5, -6693.147, 0.05956669, 0.12337586, -664156.0, 72603.64, 0.0, 10.000953, 9.998951 
1.1250961e+3, 2.3482108e+2, -660190.3, -762692.5, -1721.4019, 0.12763476, 0.18180075, -660161.44, -21398.658, 0.0, 10.000298, 9.99897 
1.1251137e+3, 2.4481983e+2, -538911.8, -630021.7, -64711.266, 0.069020234, 0.15885457, -505328.88, 35444.742, 0.0, 10.0003805, 9.999165 
1.1251288e+3, 2.5481734e+2, -309200.4, -470883.8, -88053.11, -0.12100989, -0.031425327, -270506.63, 172288.25, 0.0, 10.001296, 9.999146 
1.1251471e+3, 2.648167e+2, -168455.31, -331738.7, 63687.652, -0.17550576, -0.008400048, -146552.4, 198247.92, 0.00000016860811, 10.001496, 9.999329 
1.1251688e+3, 2.7481773e+2, -147968.81, -270270.2, 56821.99, -0.085956655, 0.1355739, -125644.086, 121147.99, 0.0000038179373, 10.000952, 9.99934 
1.12518884e+3, 2.848173e+2, -126244.06, -355678.9, -41063.098, -0.0071101794, 0.22927523, -119116.234, 29682.764, 0.000026510976, 10.001044, 9.998045 
1.1252072e+3, 2.94815e+2, 62630.45, -212718.75, -45356.098, 0.05988189, 0.16135508, 69909.19, 120733.836, 0.00011807009, 10.001669, 9.998045 
1.1252244e+3, 3.048126e+2, 129406.984, -241032.7, -26785.191, -0.016782435, 0.1657467, 131333.7, 131333.7, 0.0003550206, 10.002196, 9.997259 
1.1252418e+3, 3.148107e+2, 291985.06, 45630.633, -93125.305, -0.0681028, 0.22142194, 323225.97, 323225.97, 0.0007557831, 10.002335, 9.999172 
1.1348849e+3, 1.2480519e+2, -1765074.9, -1875352.9, 188289.05, -0.06377737, 0.14996985, -1624017.4, 92907.54, 0.0011953667, 10.000218, 9.998765 
1.1349048e+3, 1.3480495e+2, -1684658.3, -1833275.9, -50775.785, 0.1558756, 0.26507396, -1668967.1, -50031.4, 0.00059164723, 10.00032, 9.998346 
1.13492444e+3, 1.4480415e+2, -1474275.4, -1525000.4, 10181.745, 0.18028775, 0.29136458, -1472308.0, 48637.836, 0.00017336896, 10.000394, 9.999745 
1.134943e+3, 1.5480338e+2, -1347584.3, -1411864.6, 20521.643, -0.051666133, 0.20913209, -1341591.5, 81357.54, 0.000015247707, 10.000595, 9.999749 
1.1349621e+3, 1.6480291e+2, -1259159.6, -1316171.0, -80726.44, -0.1118871, 0.19183576, -1202053.8, 122896.81, 0.000000009421829, 10.000504, 9.999784 
1.134982e+3, 1.7480244e+2, -1209032.5, -1235926.9, -67569.5, 0.053533908, 0.14196591, -1153585.1, 73368.19, 0.0, 10.000165, 9.999821 
1.1350015e+3, 1.8480252e+2, -1140232.6, -1102508.9, -42180.97, 0.1259754, 0.15190107, -1075164.6, 53786.74, 0.0, 9.9997425, 10.000271 
1.13502026e+3, 1.9480285e+2, -1114268.8, -1042104.25, -5331.654, 0.08772643, 0.13254513, -1041712.5, -10765.313, 0.0, 9.999244, 10.00026 
1.13503896e+3, 2.0480277e+2, -1029622.1, -1026375.94, -2871.739, 0.036185008, 0.13947907, -1024700.4, -91753.766, 0.0, 9.99951, 9.999556 
1.1350577e+3, 2.1480197e+2, -779981.8, -853394.56, -2757.7563, -0.020627165, 0.08113647, -779878.4, 55073.69, 0.0, 10.000549, 9.999567 
1.1350769e+3, 2.2480147e+2, -655917.94, -762439.1, -45437.23, 0.00051043177, 0.08964134, -639169.7, 97785.86, 0.0, 10.000787, 9.999414 
1.1350964e+3, 2.3480104e+2, -653879.6, -711978.0, -13869.771, 0.1095353, 0.080382995, -650738.3, -11779.019, 0.0, 10.000133, 9.999401 
1.1351145e+3, 2.4480014e+2, -576418.56, -676647.56, -44061.535, 0.09863438, 0.0827776, -559803.2, -18835.576, 0.0, 10.000245, 9.998908 
1.1351312e+3, 2.5479856e+2, -343860.88, -514071.22, -40375.6, -0.026040178, 0.009190994, -334769.03, 108213.28, 0.0, 10.001168, 9.998911 
1.1351497e+3, 2.647976e+2, -171398.33, -317746.28, 36361.805, -0.09255192, 0.0012451942, -162861.77, 182129.13, 0.00000020663475, 10.001404, 9.999475 
1.13516994e+3, 2.747969e+2, -151664.16, -262172.34, 54607.203, -0.09863253, -0.042134833, -129233.24, 117763.414, 0.0000055002247, 10.000877, 9.999437 
1.1351893e+3, 2.8479636e+2, -121896.3, -322173.56, -32184.8, -0.08830885, 0.026002968, -116851.25, 32151.152, 0.000033703815, 10.000953, 9.998311 
1.13520816e+3, 2.94796e+2, 64618.4, -180236.97, -5899.2876, -0.049283344, 0.12290145, 64760.445, 115768.79, 0.00013271971, 10.00155, 9.998322 
1.1352256e+3, 3.0479363e+2, 56033.67, -364781.47, -27833.104, -0.12960824, 0.15389366, 57866.594, 57866.594, 0.00037893685, 10.002075, 9.996469 
1.1352434e+3, 3.1478953e+2, 209277.64, -89767.86, -48040.305, -0.1991736, 0.068740554, 216805.6, 216805.6, 0.0007912106, 10.002184, 9.998311 
1.1448861e+3, 1.2478591e+2, -1842733.8, -1955535.4, 60632.887, 0.06453719, 0.14183281, -1816325.1, -99214.24, 0.0013373722, 9.999836, 9.998415 
1.1449046e+3, 1.3478489e+2, -1673286.1, -1862803.9, -53235.652, 0.10098292, 0.20773186, -1659356.0, -40224.773, 0.000672049, 10.000509, 9.998072 
1.1449255e+3, 1.4478435e+2, -1465416.1, -1501720.0, 92786.97, 0.26020733, 0.26384977, -1389022.3, 132117.58, 0.0002032588, 10.000379, 9.99991 
1.14494346e+3, 1.5478401e+2, -1497859.5, -1465200.0, 78043.63, 0.0041378415, 0.21103317, -1401796.0, 21342.475, 0.000019742625, 9.999489, 9.999916 
1.144962e+3, 1.6478366e+2, -1445498.3, -1398674.4, 24048.588, -0.08100047, 0.19646697, -1388523.6, -63384.664, 0.000000013934886, 9.999211, 9.999833 
1.1449819e+3, 1.74783e+2, -1271027.8, -1259713.6, 13201.623, 0.056378197, 0.11882926, -1251008.0, -23863.803, 0.0, 9.9997225, 9.999865 
1.14500135e+3, 1.847831e+2, -1112069.1, -1095428.6, 26219.602, 0.13335165, 0.13228613, -1076240.8, 52902.305, 0.0, 9.999973, 10.000205 
1.1450201e+3, 1.947838e+2, -1014309.5, -992227.75, -17129.652, 0.12563471, 0.15685791, -982889.06, 48247.742, 0.0, 9.999956, 10.000243 
1.14503905e+3, 2.0478393e+2, -921987.8, -954242.1, 39682.707, 0.07247513, 0.17700212, -895280.4, 37853.73, 0.0, 10.000146, 9.999752 
1.1450582e+3, 2.1478316e+2, -763587.0, -824461.8, 58319.758, -0.017187132, 0.09955472, -728239.7, 106898.016, 0.0, 10.000551, 9.999775 
1.1450775e+3, 2.247826e+2, -660184.56, -760025.06, 6005.305, -0.0005839933, 0.09158229, -659824.7, 77316.83, 0.0, 10.0007515, 9.999441 
1.145097e+3, 2.3478208e+2, -558759.94, -658847.6, -24839.6, 0.12771273, 0.06901088, -552934.4, 86213.42, 0.0, 10.000767, 9.9994545 
1.14511535e+3, 2.4478157e+2, -489204.03, -619711.0, -3918.5046, 0.14112477, 0.09917607, -489086.5, 52066.742, 0.0, 10.000767, 9.999053 
1.1451327e+3, 2.547809e+2, -388176.1, -513205.94, 5416.8433, 0.039106265, 0.0988068, -387941.84, 55217.54, 0.0, 10.000771, 9.999104 
1.1451513e+3, 2.647799e+2, -270594.44, -409168.16, 81295.27, -0.027689086, 0.095842816, -233065.61, 112102.836, 0.00000038376965, 10.0008955, 9.999097 
1.1451713e+3, 2.747782e+2, -135394.28, -295300.13, 37560.945, -0.055199783, -0.009375053, -127010.945, 120173.08, 0.0000075917305, 10.001159, 9.999075 
1.14519045e+3, 2.8477725e+2, -18785.24, -243261.27, -10346.428, -0.0949654, 0.02095657, -18309.367, 130883.83, 0.000041535674, 10.001534, 9.998575 
1.145209e+3, 2.9477707e+2, 135753.05, -116226.86, -14554.781, -0.12232862, 0.11276683, 136590.97, 187786.3, 0.00014998692, 10.001909, 9.998591 
1.1452272e+3, 3.0477515e+2, 98012.67, -331201.4, 11245.679, -0.17254671, 0.16752212, 98307.11, 98307.11, 0.00040887797, 10.002271, 9.9966135 
1.1452469e+3, 3.1477132e+2, 232311.2, -66763.13, 8362.108, -0.05177533, 0.09458367, 232544.83, 232544.83, 0.0008407425, 10.00229, 9.998412 
1.1548863e+3, 1.24765806e+2, -1745594.3, -1750456.4, -30021.543, 0.056846514, 0.24494776, -1717905.5, -590.19904, 0.001489488, 9.999822, 9.9998255 
1.1549045e+3, 1.3476507e+2, -1550362.9, -1611642.4, -15408.027, 0.028142165, 0.16730961, -1546706.8, 72617.31, 0.00075867696, 10.000528, 9.999782 
1.15492664e+3, 1.4476517e+2, -1444172.6, -1467892.1, 44981.113, 0.29139984, 0.18967381, -1409514.0, 111808.516, 0.0002361324, 10.000409, 10.000135 
1.1549437e+3, 1.5476553e+2, -1476458.9, -1429524.1, 54802.926, 0.054831136, 0.18160298, -1393375.4, 29940.732, 0.000024990082, 9.999515, 10.000153 
1.1549618e+3, 1.6476548e+2, -1439201.0, -1386890.4, 27275.707, -0.05722431, 0.18000616, -1375256.0, -49941.117, 0.000000023716384, 9.999219, 9.999909 
1.15498155e+3, 1.7476484e+2, -1270182.4, -1250534.4, 43753.617, 0.022028381, 0.09861433, -1215515.4, 11804.974, 0.0, 9.999698, 9.999935 
1.155001e+3, 1.847649e+2, -1175780.1, -1220392.1, 10991.247, 0.07020646, 0.14757101, -1173219.3, -43897.2, 0.0, 9.99994, 9.999363 
1.1550198e+3, 1.9476543e+2, -1084906.6, -1121257.5, -9322.665, 0.06512337, 0.23304932, -1082655.3, -51332.668, 0.0, 9.999876, 9.999396 
1.15503885e+3, 2.047656e+2, -882290.0, -847382.56, 35765.832, 0.018982504, 0.26428694, -825038.94, 108280.5, 0.0, 10.000035, 10.000542 
1.15505844e+3, 2.1476518e+2, -729426.9, -718800.44, 84553.98, -0.06595586, 0.13784282, -639392.9, 195922.2, 0.0, 10.00039, 10.000583 
1.15507804e+3, 2.2476476e+2, -716178.44, -836647.56, -4615.341, -0.04630141, 0.12402057, -716001.9, 21315.229, 0.0, 10.000583, 9.998995 
1.15509756e+3, 2.3476416e+2, -614604.6, -740467.9, -11422.211, 0.08582863, 0.14047605, -613576.44, 25752.0, 0.0, 10.000618, 9.998966 
1.15511596e+3, 2.44764e+2, -471454.1, -547402.75, -18528.422, 0.1018624, 0.20576197, -467174.97, 74156.516, 0.0, 10.000615, 9.99962 
1.155133e+3, 2.5476423e+2, -366872.3, -442103.56, 16108.076, -0.018949676, 0.23375836, -363568.44, 79758.58, 0.0, 10.00065, 9.99965 
1.1551519e+3, 2.6476344e+2, -345595.34, -539095.9, 77978.766, -0.07831675, 0.2675055, -318082.56, 27251.807, 0.0000005356376, 10.000787, 9.998255 
1.1551725e+3, 2.7476135e+2, -207681.92, -417623.84, 62914.844, -0.07422475, 0.20548068, -190271.6, 57085.54, 0.000008957139, 10.0010395, 9.998292 
1.1551918e+3, 2.847598e+2, -13810.129, -203854.61, -4694.604, -0.1370006, 0.19645876, -13694.23, 135678.16, 0.000047577858, 10.001409, 9.998908 
1.1552096e+3, 2.947584e+2, 145152.08, -83184.62, 23223.322, -0.2818355, 0.13668789, 147490.11, 198873.42, 0.00016516355, 10.001839, 9.998859 
1.1552288e+3, 3.0475718e+2, 135836.81, -219923.38, 5361.4355, -0.27219006, 0.20733361, 135917.6, 135917.6, 0.00043857994, 10.00214, 9.997433 
1.1552515e+3, 3.147555e+2, 266793.1, 32349.719, 53502.402, 0.10363239, 0.25833786, 278425.72, 278425.72, 0.0008950193, 10.002165, 9.999152 
1.1648881e+3, 1.2474631e+2, -1699289.6, -1688176.3, 23206.752, 0.25301307, 0.31123632, -1669870.3, 47640.1, 0.0016512593, 9.99998, 10.000168 
1.1649044e+3, 1.3474566e+2, -1475995.1, -1513527.3, -16790.379, -0.04547786, 0.1938757, -1469580.3, 149935.78, 0.0008513687, 10.000805, 10.000311 
1.1649264e+3, 1.447459e+2, -1398446.1, -1461201.1, -47282.03, 0.21290913, 0.21105231, -1373077.4, 148435.64, 0.00027198074, 10.000792, 9.999992 
1.1649441e+3, 1.5474634e+2, -1439929.1, -1431702.4, -98695.1, 0.12634295, 0.22738129, -1337035.0, 86473.37, 0.00003101119, 9.99985, 9.999973 
1.1649621e+3, 1.6474667e+2, -1396859.6, -1309992.4, -61651.793, 0.06062839, 0.24932416, -1278011.0, 47492.89, 0.00000004774233, 9.999262, 10.000422 
1.16498135e+3, 1.7474674e+2, -1314855.0, -1218535.5, -38808.38, 0.062135987, 0.18973981, -1204845.0, 22656.023, 0.0, 9.999143, 10.000438 
1.1650005e+3, 1.8474683e+2, -1257735.1, -1279549.1, 4266.175, 0.06289259, 0.22490406, -1256930.5, -127428.484, 0.0, 9.999457, 9.999188 
1.1650194e+3, 1.9474672e+2, -1030782.25, -1118684.1, 8883.657, 0.031902164, 0.26854095, -1029893.44, 1616.1873, 0.0, 10.000342, 9.999193 
1.1650388e+3, 2.0474678e+2, -778246.3, -756443.25, 71559.555, -0.0012820336, 0.28079888, -694959.56, 238548.11, 0.0, 10.000586, 10.00089 
1.165059e+3, 2.1474688e+2, -742114.44, -677261.0, 52318.926, -0.034276675, 0.16668113, -648134.75, 187362.17, 0.0, 10.00012, 10.000982 
1.1650787e+3, 2.2474687e+2, -772079.2, -835310.5, 7639.717, -0.00014519031, 0.1603636, -771169.25, -33675.395, 0.0, 10.00008, 9.999247 
1.16509825e+3, 2.3474644e+2, -614526.0, -711336.9, 32737.668, 0.11369159, 0.17104103, -604494.75, 35007.62, 0.0, 10.0005, 9.999225 
1.16511695e+3, 2.447462e+2, -416816.75, -563556.25, 54668.22, 0.11529591, 0.23049986, -398689.3, 142817.4, 0.0, 10.001165, 9.999245 
1.1651344e+3, 2.54746e+2, -189965.2, -403364.3, -7728.204, -0.015103661, 0.25846806, -189685.69, 253822.22, 0.0, 10.002052, 9.999245 
1.1651533e+3, 2.647451e+2, -168682.56, -457993.4, 38038.754, -0.07062708, 0.30180293, -163764.8, 181752.38, 0.00000056359414, 10.002026, 9.998209 
1.1651738e+3, 2.747432e+2, -224772.6, -431218.97, 49845.72, -0.036366653, 0.2648743, -213367.6, 34169.758, 0.00000928475, 10.0009575, 9.998236 
1.16519324e+3, 2.847416e+2, -121673.27, -249247.66, 55016.98, -0.077583216, 0.25305423, -101224.64, 48327.598, 0.000050789153, 10.000635, 9.998968 
1.16521165e+3, 2.9474005e+2, 37832.406, -121772.08, 31798.752, -0.20515461, 0.16917564, 43934.52, 95498.69, 0.00017624088, 10.001062, 9.998958 
1.1652312e+3, 3.047387e+2, 141781.27, -174273.9, 34953.996, -0.2146685, 0.2050867, 145600.83, 145600.83, 0.0004642717, 10.001993, 9.997824 
1.1652545e+3, 3.147365e+2, 407720.66, 130985.03, 16020.175, 0.1647898, 0.16959026, 408645.0, 408645.0, 0.0009430786, 10.003005, 9.999435 
1.1748891e+3, 1.2472682e+2, -1756669.0, -1799515.0, -49999.082, 0.30064276, 0.2599923, -1723696.6, -5995.198, 0.0018234614, 9.999961, 9.999411 
1.17490366e+3, 1.3472676e+2, -1526200.4, -1626267.3, 24908.72, -0.21551536, 0.28409854, -1520343.0, 99362.74, 0.0009506097, 10.000841, 9.999521 
1.1749243e+3, 1.4472663e+2, -1434517.0, -1536602.1, -94579.79, -0.105689086, 0.32883522, -1378085.4, 143624.83, 0.00031097958, 10.000794, 9.999472 
1.1749441e+3, 1.5472658e+2, -1477236.4, -1513960.8, -121443.72, 0.11490658, 0.34892592, -1372774.5, 50939.523, 0.00003785508, 9.999866, 9.999401 
1.17496274e+3, 1.6472727e+2, -1340917.6, -1191181.8, -81920.16, 0.15916726, 0.3985269, -1155071.6, 170634.44, 0.00000010132158, 9.999251, 10.001238 
1.17498085e+3, 1.7472875e+2, -1255505.3, -1088785.1, -30900.818, 0.07205218, 0.38616446, -1083242.1, 144443.53, 0.0, 9.999114, 10.00134 
1.1749996e+3, 1.8472904e+2, -1228922.4, -1212333.5, 21631.434, 0.00008887663, 0.37132606, -1197460.8, -67779.54, 0.0, 9.999423, 9.999668 
1.1750189e+3, 1.9472773e+2, -1008773.94, -1059111.3, 56869.547, -0.07351321, 0.24949144, -971752.5, 59945.19, 0.0, 10.000276, 9.9996395 
1.1750388e+3, 2.0472753e+2, -803406.75, -784823.5, 40747.793, -0.09345379, 0.21887378, -752321.4, 181376.66, 0.0, 10.0004835, 10.000743 
1.1750593e+3, 2.1472831e+2, -775309.5, -713061.75, 44987.156, -0.030848783, 0.19010937, -689481.56, 146201.0, 0.0, 9.999969, 10.0008135 
1.17507935e+3, 2.2472884e+2, -731417.1, -705862.8, 6824.8794, 0.035827473, 0.1977723, -704154.25, 33518.305, 0.0, 9.999891, 10.000224 
1.1750988e+3, 2.3472892e+2, -569333.94, -571775.6, 60505.93, 0.09779476, 0.15543453, -510036.53, 129633.63, 0.0, 10.000312, 10.000268 
1.1751178e+3, 2.4472816e+2, -534360.5, -768201.56, 73808.77, 0.07032302, 0.17589474, -513012.66, 28666.06, 0.0, 10.000991, 9.997929 
1.1751362e+3, 2.5472626e+2, -298503.9, -599337.1, 38027.266, -0.056089472, 0.167494, -293771.47, 149930.34, 0.0, 10.0019245, 9.997959 
1.1751554e+3, 2.6472488e+2, -143935.55, -381064.72, -13116.941, -0.09131762, 0.1998169, -143212.19, 202504.2, 0.0000005132723, 10.001909, 9.9988 
1.1751748e+3, 2.7472377e+2, -190047.61, -347559.75, 25240.941, -0.0520909, 0.17582276, -186101.67, 61622.91, 0.000009286575, 10.000902, 9.998841 
1.1751946e+3, 2.8472272e+2, -150557.06, -293595.97, 57351.414, -0.033557873, 0.20303184, -130402.01, 19330.787, 0.000051726838, 10.000567, 9.998696 
1.1752149e+3, 2.9472163e+2, 24783.207, -147400.33, 62779.61, -0.030977732, 0.18852434, 45242.234, 96984.11, 0.00018255804, 10.001041, 9.998796 
1.1752345e+3, 3.0471948e+2, 132402.39, -162838.22, 65697.38, -0.10807136, 0.1412239, 146361.48, 146361.48, 0.00047999644, 10.001879, 9.997952 
1.17525585e+3, 3.1471485e+2, 378012.53, 118491.04, 90868.36, -0.053911705, -0.14513443, 406665.53, 406665.53, 0.0009686636, 10.002807, 9.99944 
1.1848882e+3, 1.2470788e+2, -1890886.4, -1875763.3, -8980.953, 0.25960088, 0.2534143, -1871584.5, -153698.28, 0.0020081834, 9.99907, 9.999318 
1.184905e+3, 1.3470778e+2, -1787431.0, -1787139.4, 87376.64, -0.07456529, 0.29506066, -1699908.5, -80016.695, 0.0010574218, 9.999172, 9.999229 
1.1849247e+3, 1.4470747e+2, -1606949.6, -1590484.1, 29383.22, -0.071830556, 0.32248184, -1568202.1, -46303.566, 0.00035351914, 9.99949, 9.999727 
1.1849437e+3, 1.5470773e+2, -1393306.6, -1435691.5, 29071.145, 0.07587569, 0.3460562, -1378523.4, 45375.477, 0.00004562391, 10.000298, 9.999724 
1.1849622e+3, 1.6470842e+2, -1169264.1, -1141702.3, 87479.51, 0.12751864, 0.3927903, -1066924.9, 258966.1, 0.00000019883093, 10.000574, 10.000943 
1.1849809e+3, 1.7470945e+2, -1102216.5, -1044120.44, 21989.658, 0.11568823, 0.36363205, -1036735.9, 191139.36, 0.0, 10.0003, 10.001068 
1.185e+3, 1.8470982e+2, -1124506.5, -1135902.0, 64240.32, 0.074865155, 0.3589401, -1065711.8, 64158.27, 0.0, 10.00003, 9.9999 
1.1850194e+3, 1.947092e+2, -1056552.0, -1050140.9, 53140.87, -0.018808957, 0.27967995, -1000109.0, 31769.998, 0.0, 9.999814, 9.99992 
1.1850392e+3, 2.0470913e+2, -940320.4, -890313.1, 29953.787, -0.050886758, 0.26552197, -876298.7, 57580.313, 0.0, 9.999721, 10.000393 
1.1850595e+3, 2.1470937e+2, -825851.2, -773646.1, -3007.485, 0.0076138373, 0.2207604, -773473.44, 62398.113, 0.0, 9.999795, 10.00048 
1.1850794e+3, 2.2470967e+2, -698109.06, -678982.7, -30598.373, 0.05328977, 0.21952388, -656487.9, 81376.01, 0.0, 10.00006, 10.000332 
1.1850989e+3, 2.3470984e+2, -531325.9, -544254.2, -72146.28, 0.071435004, 0.17582494, -465354.75, 174503.25, 0.0, 10.000509, 10.00037 
1.18511856e+3, 2.4470896e+2, -570222.0, -781096.25, -18578.902, 0.06046867, 0.17374057, -568597.6, -26731.094, 0.0, 10.000734, 9.99796 
1.1851383e+3, 2.547066e+2, -465620.66, -686036.9, 17901.115, 0.018598512, 0.122107536, -464176.28, -20282.396, 0.0, 10.000799, 9.997914 
1.1851576e+3, 2.6470506e+2, -224306.52, -401095.56, 2653.6838, -0.015965793, 0.13537306, -224266.69, 121642.414, 0.0000005059796, 10.001297, 9.998949 
1.18517615e+3, 2.7470416e+2, 14602.376, -237654.52, -28808.037, -0.070496045, 0.122444235, 17850.465, 265764.16, 0.000009353779, 10.002266, 9.998939 
1.1851959e+3, 2.847029e+2, 100945.59, -224944.75, 6009.064, -0.04550633, 0.14976534, 101056.35, 250980.42, 0.000051580555, 10.002532, 9.998214 
1.1852175e+3, 2.9470134e+2, 124673.59, -156307.72, -33062.04, 0.09238059, 0.13797352, 128511.46, 180451.86, 0.00018437536, 10.0019865, 9.998273 
1.1852374e+3, 3.0469936e+2, 175106.03, -117937.26, 10862.949, -0.0023971046, 0.12429023, 175508.17, 175508.17, 0.0004810056, 10.002049, 9.998185 
1.18525796e+3, 3.146953e+2, 332608.88, 90280.46, 1949.3102, -0.09092694, -0.12898177, 332624.56, 332624.56, 0.0009623852, 10.002498, 9.9994 
1.19488426e+3, 1.2468977e+2, -1830035.4, -1754292.9, -7262.1655, -0.088549644, 0.29955816, -1753602.9, -35540.94, 0.0022081332, 9.999087, 10.000139 
1.1949079e+3, 1.3468876e+2, -1760733.0, -1733890.1, 99456.37, 0.26898155, 0.20930785, -1646953.6, -26879.955, 0.0011730703, 9.99917, 9.999596 
1.19492725e+3, 1.4468843e+2, -1538131.1, -1445068.6, 44096.117, 0.19616398, 0.16937096, -1427493.5, 94583.695, 0.00040013902, 9.99948, 10.0007305 
1.1949426e+3, 1.5468998e+2, -1313887.6, -1283198.3, 74183.2, -0.0910875, 0.2186467, -1222789.4, 201271.3, 0.00005450229, 10.00034, 10.000755 
1.1949603e+3, 1.6469029e+2, -1259006.5, -1335829.8, 61852.51, -0.14814916, 0.23779072, -1224608.9, 101447.59, 0.00000035173326, 10.000604, 9.999599 
1.1949812e+3, 1.7468898e+2, -1207435.0, -1258792.0, 22619.168, 0.09755887, 0.12000584, -1198893.4, 29175.18, 0.0, 10.00028, 9.999607 
1.1950014e+3, 1.8468925e+2, -1132961.4, -1146624.5, 41794.816, 0.1830475, 0.18334015, -1097443.5, 32624.156, 0.0, 10.000003, 9.99984 
1.1950206e+3, 1.9469117e+2, -1071532.6, -1060329.4, 56616.703, 0.09005321, 0.35912263, -1009037.9, 23015.387, 0.0, 9.999722, 9.999898 
1.1950398e+3, 2.0469159e+2, -992060.25, -971211.7, 16020.988, 0.01767526, 0.4219795, -962522.2, -28471.707, 0.0, 9.999609, 9.999888 
1.19505905e+3, 2.1469007e+2, -885459.1, -861302.06, 11139.366, -0.02308667, 0.2523447, -856949.6, -20886.363, 0.0, 9.999641, 9.99995 
1.19507864e+3, 2.2468938e+2, -775293.25, -804041.6, -27783.572, -0.05245021, 0.21527854, -758385.75, -20318.064, 0.0, 9.9999075, 9.999546 
1.19509816e+3, 2.3468941e+2, -607716.0, -665105.9, -44798.09, -0.06707539, 0.2340614, -583210.6, 56853.414, 0.0, 10.000352, 9.999611 
1.19511865e+3, 2.4468875e+2, -504912.56, -616036.0, -30349.293, -0.019833574, 0.23734426, -497164.06, 44903.945, 0.0, 10.000599, 9.9991665 
1.19514e+3, 2.5468713e+2, -393272.63, -504966.75, 32353.111, 0.09237485, 0.12910314, -384578.1, 59504.53, 0.0, 10.000669, 9.999219 
1.1951597e+3, 2.646857e+2, -273225.88, -476012.3, 25483.863, 0.043576375, 0.110429116, -270072.4, 76021.89, 0.0000006389743, 10.001175, 9.9985 
1.19517736e+3, 2.7468437e+2, -30439.717, -304627.06, 21110.81, -0.19005261, 0.097643204, -28823.832, 219281.3, 0.000009301616, 10.002155, 9.998532 
1.1951972e+3, 2.846823e+2, 35684.49, -339790.94, -24417.725, -0.1980364, 0.10079676, 37265.75, 187391.05, 0.00005191434, 10.002434, 9.997477 
1.1952194e+3, 2.946793e+2, 59821.89, -277390.47, -34289.246, 0.046377245, 0.018074177, 63273.25, 115431.47, 0.00018470343, 10.001914, 9.997482 
1.1952395e+3, 3.046784e+2, 164415.33, -105181.47, 22375.824, -0.013315448, 0.14791149, 166259.84, 166259.84, 0.0004730737, 10.001911, 9.998333 
1.19526014e+3, 3.1467748e+2, 289554.4, 55187.336, 70233.58, -0.17649251, 0.18571918, 308989.8, 308989.8, 0.0009339275, 10.002272, 9.999262 
1.2048833e+3, 1.24670014e+2, -1771188.9, -1669570.0, -4476.444, -0.096999116, 0.27976486, -1669373.1, 48882.215, 0.0024257244, 9.999279, 10.000637 
1.20490745e+3, 1.3466921e+2, -1845412.5, -1729644.3, -8965.434, 0.3639637, 0.18320243, -1728954.0, -108690.37, 0.0012988481, 9.998428, 9.999977 
1.2049264e+3, 1.4466931e+2, -1725164.4, -1542231.6, -25268.162, 0.24464345, 0.16832173, -1538805.6, -16543.07, 0.00045139206, 9.998217, 10.000676 
1.20494224e+3, 1.5467054e+2, -1509295.9, -1380604.1, -108143.93, -0.08795466, 0.1888313, -1319110.8, 105138.29, 0.00006471426, 9.999014, 10.000726 
1.20496035e+3, 1.6467069e+2, -1399647.1, -1418536.9, -113964.1, -0.14963473, 0.20151953, -1294737.1, 31509.736, 0.00000057087306, 9.999704, 9.999457 
1.2049818e+3, 1.7466936e+2, -1195633.3, -1264422.5, -82703.82, 0.1222594, 0.09585517, -1140457.1, 87802.92, 0.0, 10.000422, 9.999492 
1.2050019e+3, 1.8466952e+2, -1067292.9, -1116971.5, -6605.4517, 0.2273487, 0.1562221, -1066429.6, 63830.266, 0.0, 10.00047, 9.999811 
1.2050208e+3, 1.9467112e+2, -1058644.3, -1050073.4, -15921.787, 0.13778383, 0.30169478, -1037870.4, -5623.4067, 0.0, 9.9998045, 9.999915 
1.2050398e+3, 2.0467153e+2, -992015.6, -1016374.94, 7213.0566, 0.06127053, 0.37839848, -990040.0, -55795.105, 0.0, 9.999787, 9.999493 
1.20505944e+3, 2.1467027e+2, -780507.44, -858567.75, -15888.8125, 0.0054549505, 0.2739459, -777397.25, 58860.813, 0.0, 10.000542, 9.999541 
1.2050791e+3, 2.2466926e+2, -643982.5, -780294.0, -13826.841, -0.030726945, 0.24629043, -642594.1, 95672.555, 0.0, 10.000986, 9.99919 
1.20509915e+3, 2.3466833e+2, -526046.7, -666290.3, -23687.525, -0.040388707, 0.20815386, -522153.84, 118118.25, 0.0, 10.001095, 9.999248 
1.2051197e+3, 2.4466763e+2, -370887.44, -510513.06, -3104.4478, 0.003996987, 0.20729826, -370818.47, 171457.53, 0.0, 10.001354, 9.999512 
1.2051411e+3, 2.5466692e+2, -205940.56, -376782.25, -35327.004, 0.08515983, 0.15421781, -198923.77, 245357.05, 0.00000000020898414, 10.001792, 9.999552 
1.205161e+3, 2.646659e+2, -188639.58, -443224.9, -39073.227, 0.037098177, 0.15858191, -182777.67, 163511.44, 0.00000074892756, 10.001797, 9.998416 
1.2051795e+3, 2.746643e+2, -157273.06, -376525.06, -42790.69, -0.15387045, 0.13461503, -149217.7, 99085.45, 0.000009032264, 10.001328, 9.998427 
1.2051994e+3, 2.8466213e+2, -101229.7, -411220.75, -31269.605, -0.1546514, 0.1310944, -98106.914, 52218.07, 0.000052136886, 10.00153, 9.997417 
1.2052214e+3, 2.9465908e+2, 124428.47, -250616.78, -29373.191, 0.052505855, 0.05417607, 126715.01, 179072.77, 0.0001849306, 10.002398, 9.997425 
1.2052416e+3, 3.0465823e+2, 273269.34, -48344.887, 65353.047, -0.017538173, 0.1892791, 286042.03, 286042.03, 0.0004665325, 10.0026455, 9.998365 
1.2052625e+3, 3.1465787e+2, 186663.75, -21678.875, 63883.902, -0.1291033, 0.28027272, 204692.33, 204692.33, 0.00090606173, 10.001716, 9.998989 
1.21488586e+3, 1.2464866e+2, -1764737.8, -1651172.5, 21590.012, 0.1774333, 0.18956685, -1647206.5, 71259.39, 0.0026624324, 9.999281, 10.000754 
1.2149036e+3, 1.3464929e+2, -1830114.3, -1703021.1, -36492.285, 0.10663444, 0.21886985, -1693288.4, -72827.91, 0.0014356553, 9.9984455, 10.000158 
1.21492215e+3, 1.446502e+2, -1797907.4, -1686243.5, -15236.081, -0.04473261, 0.32386976, -1684201.9, -161748.66, 0.0005075534, 9.998198, 9.999691 
1.2149421e+3, 1.5464935e+2, -1590387.5, -1544492.3, -64187.008, -0.015281157, 0.24388771, -1499274.1, -74809.64, 0.000076397075, 9.998995, 9.999612 
1.214962e+3, 1.646495e+2, -1325480.9, -1262620.6, -99990.57, 0.013482197, 0.2635458, -1189236.8, 137226.55, 0.0000008702971, 9.999703, 10.000523 
1.2149822e+3, 1.7465065e+2, -1120181.1, -1100788.9, -44439.62, 0.093794495, 0.291524, -1064999.9, 163449.27, 0.0, 10.000392, 10.000628 
1.21500134e+3, 1.8465069e+2, -1060582.6, -1101099.3, -44660.7, 0.10010197, 0.27618742, -1031800.4, 98645.836, 0.0, 10.00046, 9.999927 
1.2150195e+3, 1.9464922e+2, -1065381.4, -1049247.5, -29160.094, 0.015725937, 0.10551241, -1027059.06, 5400.013, 0.0, 9.999736, 9.999957 
1.215039e+3, 2.04649e+2, -1030034.5, -1069338.3, 18781.469, -0.026785158, 0.1346775, -1022502.9, -88041.016, 0.0, 9.999678, 9.999179 
1.2150599e+3, 2.1465006e+2, -828600.25, -914730.6, 22820.676, -0.011793495, 0.29284558, -822927.44, 13527.279, 0.0, 10.000354, 9.999243 
1.21508084e+3, 2.2464949e+2, -666560.5, -788941.4, -23274.283, 0.016223006, 0.3195371, -662283.7, 76176.03, 0.0, 10.000814, 9.999218 
1.2151013e+3, 2.3464678e+2, -543123.4, -667777.06, -6353.197, 0.05718085, 0.09827485, -542800.4, 97680.47, 0.0, 10.000945, 9.9993105 
1.21512145e+3, 2.4464566e+2, -436637.75, -603420.06, 3220.7205, 0.023425205, 0.079076625, -436575.6, 105914.21, 0.0, 10.001168, 9.9989605 
1.21514134e+3, 2.546461e+2, -264994.72, -469519.16, -5719.6904, -0.091126636, 0.19708422, -264834.88, 179652.42, 0.00000000018849695, 10.00166, 9.998978 
1.2151614e+3, 2.646457e+2, -191733.4, -419655.88, -66672.62, -0.1334075, 0.283554, -173662.83, 172829.05, 0.00000061447383, 10.001666, 9.998644 
1.21518165e+3, 2.7464405e+2, -150781.78, -343367.47, -45461.73, -0.08479534, 0.22458833, -140589.5, 107917.83, 0.000008322687, 10.001238, 9.998702 
1.21520236e+3, 2.846423e+2, -94107.805, -361075.5, -10875.359, -0.04079536, 0.2324736, -93665.516, 56857.914, 0.000050710027, 10.001388, 9.997828 
1.2152237e+3, 2.946405e+2, 141677.7, -189154.56, 22129.44, -0.0056160893, 0.23444307, 143151.38, 195692.08, 0.00018357177, 10.00229, 9.997897 
1.2152436e+3, 3.0463865e+2, 237015.4, -88189.57, 22213.844, -0.1145187, 0.2559878, 238525.75, 238525.75, 0.00046227945, 10.002498, 9.998164 
1.2152641e+3, 3.1463635e+2, 130721.97, -92443.84, 73885.42, -0.18369037, 0.17645474, 152966.56, 152966.56, 0.00088881893, 10.00153, 9.998589 
1.2248857e+3, 1.2462858e+2, -1774817.5, -1703650.5, 109258.41, 0.249753, 0.19070709, -1624327.1, 94333.62, 0.0029179724, 9.999369, 10.000365 
1.224902e+3, 1.3462926e+2, -1584286.1, -1570436.8, -29797.941, 0.041412193, 0.21404994, -1546769.5, 73886.31, 0.0015834377, 10.00007, 10.000283 
1.22492164e+3, 1.4463058e+2, -1498199.4, -1552477.9, 69668.41, -0.007374413, 0.35668007, -1450570.8, 72074.33, 0.00056846405, 10.0003, 9.999597 
1.22494236e+3, 1.5462968e+2, -1413243.3, -1459690.5, 64457.367, 0.04864266, 0.27505553, -1367953.4, 56703.684, 0.00008951281, 10.000228, 9.999587 
1.22496225e+3, 1.6462971e+2, -1330470.0, -1302318.9, 38973.496, 0.07601212, 0.29841766, -1274957.1, 51700.7, 0.0000012652538, 9.999801, 10.000225 
1.2249819e+3, 1.7463063e+2, -1335208.1, -1236742.6, -35091.234, 0.10918059, 0.33300456, -1225516.6, 3130.7788, 0.0, 9.999034, 10.000366 
1.2250011e+3, 1.8463051e+2, -1246098.4, -1190449.1, -57656.426, 0.09185984, 0.3120017, -1154254.4, -23607.717, 0.0, 9.999177, 9.999937 
1.22501954e+3, 1.946289e+2, -952800.4, -991614.3, -74835.54, 0.004545633, 0.12724338, -894896.4, 137763.36, 0.0, 10.000494, 9.999992 
1.2250393e+3, 2.0462854e+2, -838359.8, -980921.2, 1850.2634, -0.020742057, 0.14333339, -838335.8, 96326.94, 0.0, 10.00101, 9.999146 
1.2250608e+3, 2.1462946e+2, -802295.9, -904278.1, 2494.2214, 0.026547, 0.29072636, -802234.94, 34421.176, 0.0, 10.000553, 9.999218 
1.22508176e+3, 2.2462882e+2, -718799.3, -813059.25, -4375.9785, 0.0613139, 0.31381777, -718596.6, 20064.607, 0.0, 10.000451, 9.999224 
1.2251022e+3, 2.3462617e+2, -570103.25, -682679.75, -23883.055, 0.07127518, 0.09771434, -565246.06, 75436.25, 0.0, 10.000763, 9.999298 
1.2251224e+3, 2.4462496e+2, -505823.5, -664552.2, 15452.569, 0.032589536, 0.08120549, -504333.16, 38359.5, 0.0, 10.0008, 9.99873 
1.2251427e+3, 2.546252e+2, -442316.66, -575932.75, 8555.741, -0.060134258, 0.20502664, -441771.03, 2921.3535, 0.0, 10.000545, 9.998783 
1.225163e+3, 2.6462466e+2, -301282.44, -493189.1, -20609.633, -0.09842578, 0.29655108, -299094.03, 47605.164, 0.0000003685213, 10.001005, 9.998453 
1.2251834e+3, 2.746229e+2, -29396.414, -303475.34, -61113.504, -0.07770565, 0.24774964, -16386.969, 232330.11, 0.0000073761885, 10.002175, 9.998512 
1.2252041e+3, 2.8462118e+2, 86956.92, -260853.36, -38889.695, -0.051977172, 0.2584888, 91252.25, 241984.98, 0.000049087277, 10.0025425, 9.997968 
1.2252255e+3, 2.9461944e+2, 82779.82, -207081.86, -51075.46, -0.015321829, 0.25337824, 91516.32, 144263.11, 0.00018153466, 10.001817, 9.998015 
1.2252458e+3, 3.0461687e+2, 114602.72, -159365.97, -40732.66, -0.07895162, 0.20373246, 120530.445, 120530.445, 0.00045750884, 10.001705, 9.998048 
1.225267e+3, 3.1461474e+2, 175584.17, -107184.914, -30114.928, -0.058672305, 0.15147848, 178755.84, 178755.84, 0.0008771935, 10.00194, 9.9983015 
1.2348831e+3, 1.24608696e+2, -1819978.6, -1815529.0, 46035.973, -0.012364062, 0.17245796, -1771664.1, -52813.934, 0.0031899144, 9.999432, 9.999567 
1.2349024e+3, 1.346091e+2, -1563369.3, -1549802.4, 2080.398, 0.037758738, 0.15261334, -1549490.5, 71359.38, 0.0017411282, 10.000143, 10.000395 
1.2349247e+3, 1.4461026e+2, -1429539.9, -1428232.3, 53053.1, 0.23346631, 0.23295309, -1375828.9, 147011.08, 0.0006337289, 10.000373, 10.00042 
1.2349424e+3, 1.5461147e+2, -1347899.4, -1334836.3, 71006.7, 0.009331711, 0.28152624, -1270061.4, 154765.84, 0.00010392506, 10.000256, 10.000442 
1.2349609e+3, 1.6461132e+2, -1429005.0, -1511862.6, -7436.456, -0.066828944, 0.31081253, -1428342.8, -101512.41, 0.0000017603737, 9.999823, 9.998774 
1.23498075e+3, 1.7460938e+2, -1445387.4, -1467781.5, -55085.53, 0.062178515, 0.21338521, -1400372.5, -171518.11, 0.0, 9.999035, 9.998783 
1.2350005e+3, 1.8460892e+2, -1262698.5, -1217553.1, -23608.963, 0.09265139, 0.25175515, -1207462.3, -76601.05, 0.0, 9.999147, 9.999765 
1.23502016e+3, 1.9461009e+2, -972993.2, -1014492.44, -12470.692, 0.0037429067, 0.3572926, -969534.0, 63315.246, 0.0, 10.000406, 9.999881 
1.2350405e+3, 2.0461008e+2, -839314.1, -949020.9, -29691.816, -0.021963803, 0.39932263, -831793.6, 103054.41, 0.0, 10.000868, 9.999433 
1.2350614e+3, 2.1460849e+2, -805126.75, -875453.4, -3560.7717, 0.025640134, 0.26653746, -804946.94, 31914.598, 0.0, 10.000401, 9.99949 
1.2350818e+3, 2.2460732e+2, -747191.5, -838605.25, -6111.663, 0.004563378, 0.2272768, -746784.7, -7913.961, 0.0, 10.000301, 9.9991255 
1.2351016e+3, 2.3460646e+2, -601352.75, -714277.44, 2183.1003, -0.093722194, 0.20202354, -601310.56, 39566.08, 0.0, 10.000612, 9.999159 
1.2351223e+3, 2.4460548e+2, -520637.97, -659377.6, -6479.7344, -0.08480363, 0.21287493, -520336.0, 22548.637, 0.0, 10.000646, 9.998839 
1.23514466e+3, 2.5460413e+2, -445448.47, -562495.94, 11463.914, 0.0615546, 0.16405936, -444336.22, 560.672, 0.0, 10.000448, 9.998927 
1.2351654e+3, 2.646027e+2, -371605.6, -599696.7, 11707.44, 0.02923662, 0.18633543, -371006.25, -24094.037, 0.00000016286783, 10.000843, 9.997799 
1.2351843e+3, 2.746009e+2, -99414.45, -415468.9, 409.68814, -0.22295529, 0.20299178, -99413.92, 149518.94, 0.000006622681, 10.002035, 9.997809 
1.23520456e+3, 2.845988e+2, 59142.293, -282937.78, -71095.66, -0.28293434, 0.21650021, 73329.914, 224282.69, 0.000048750662, 10.002394, 9.997889 
1.23522654e+3, 2.94596e+2, 68495.016, -219394.16, -55137.477, -0.1107839, 0.111932345, 78693.82, 131668.9, 0.00018217463, 10.001737, 9.997973 
1.2352481e+3, 3.0459294e+2, 87064.03, -189657.9, -33050.33, -0.048994027, 0.021245982, 90956.65, 90956.65, 0.00045752534, 10.001593, 9.997894 
1.2352703e+3, 3.145928e+2, 136137.61, -134683.34, 22437.445, 0.020064127, 0.18488836, 137983.97, 137983.97, 0.000874485, 10.001717, 9.998217 
1.2448831e+3, 1.2458816e+2, -1866084.6, -1836641.8, -13464.288, 0.067465715, 0.14516424, -1831413.1, -112363.664, 0.003475539, 9.999142, 9.999541 
1.2449019e+3, 1.3458878e+2, -1638279.3, -1568266.3, -23886.055, 0.014878641, 0.12951545, -1560893.5, 60153.133, 0.0019075654, 9.999558, 10.000546 
1.24492496e+3, 1.4458928e+2, -1517097.0, -1459588.8, 6169.941, 0.2568545, 0.13196532, -1458934.3, 64108.426, 0.0007030745, 9.999724, 10.000517 
1.2449426e+3, 1.5459125e+2, -1420553.4, -1361665.3, -62475.242, 0.039080918, 0.2486699, -1322043.4, 102978.74, 0.00011956255, 9.99972, 10.000517 
1.24496095e+3, 1.6459113e+2, -1409685.5, -1543664.1, -98985.71, -0.058265522, 0.29787782, -1357151.9, -30126.332, 0.0000023468863, 10.000147, 9.998393 
1.2449803e+3, 1.7458847e+2, -1156332.1, -1369986.0, -87150.39, 0.018547926, 0.16938631, -1125292.5, 103765.86, 0.0, 10.001219, 9.99839 
1.2450002e+3, 1.8458784e+2, -971631.75, -1109245.9, 5252.514, 0.057786264, 0.22126068, -971431.56, 159636.7, 0.0, 10.001276, 9.999484 
1.2450208e+3, 1.9458935e+2, -1033785.6, -1076089.1, -16048.48, 0.04650062, 0.38705626, -1028386.5, 4667.133, 0.0, 10.000116, 9.9996 
1.2450414e+3, 2.0458926e+2, -981648.0, -1011454.9, -14087.323, 0.046976704, 0.43431777, -976043.75, -40990.973, 0.0, 9.999856, 9.999494 
1.2450623e+3, 2.1458715e+2, -767797.06, -845048.4, -31767.438, 0.067940325, 0.24013104, -756411.6, 80658.39, 0.0, 10.000602, 9.9996 
1.2450826e+3, 2.2458594e+2, -669195.7, -828206.0, -24470.764, 0.029870454, 0.2006672, -665514.94, 73565.055, 0.0, 10.000966, 9.998868 
1.2451023e+3, 2.3458546e+2, -576990.8, -727392.25, -53126.58, -0.07540749, 0.24005736, -560117.75, 80966.47, 0.0, 10.000902, 9.998918 
1.2451233e+3, 2.4458455e+2, -449871.1, -615304.94, -39470.36, -0.07030207, 0.2649611, -440936.5, 102155.48, 0.0, 10.001092, 9.998926 
1.2451455e+3, 2.545829e+2, -278019.3, -468911.6, -49231.38, 0.064430654, 0.17691588, -266070.4, 179035.11, 0.0, 10.001553, 9.999031 
1.2451669e+3, 2.645812e+2, -240040.05, -531485.1, 7247.603, 0.05295751, 0.16791108, -239859.92, 107261.95, 0.000000050542315, 10.001708, 9.997853 
1.2451869e+3, 2.745793e+2, -181198.42, -456830.72, 23292.355, -0.13325149, 0.16791697, -179243.95, 69899.266, 0.0000061370592, 10.001452, 9.997823 
1.2452074e+3, 2.8457737e+2, -40043.152, -321151.22, -1398.372, -0.19875959, 0.19536535, -40036.2, 111125.47, 0.000049451548, 10.001694, 9.997954 
1.2452285e+3, 2.9457498e+2, 182582.94, -150739.78, -13444.395, -0.12018399, 0.12740645, 183124.33, 236305.3, 0.00018750013, 10.002496, 9.998063 
1.2452499e+3, 3.045717e+2, 209451.81, -131199.9, 26666.893, -0.053542435, 0.0056022285, 211526.72, 211526.72, 0.000470274, 10.002413, 9.99792 
1.2452726e+3, 3.1457216e+2, 81929.68, -114837.02, 54348.805, 0.12241737, 0.22781155, 95943.29, 95943.29, 0.00089436676, 10.001144, 9.99864 
1.2548837e+3, 1.245671e+2, -1786155.1, -1697428.8, -137777.63, 0.16106354, 0.10566731, -1597048.1, 122209.336, 0.0037739007, 9.999235, 10.0004635 
1.2549004e+3, 1.3456847e+2, -1622732.9, -1547090.3, 2823.362, -0.10250148, 0.14991435, -1546985.0, 74259.195, 0.0020822603, 9.999598, 10.000679 
1.2549219e+3, 1.4456783e+2, -1555910.6, -1547548.1, -9167.429, -0.047637377, 0.060426977, -1541653.4, -18401.945, 0.0007764397, 9.999754, 9.999898 
1.2549426e+3, 1.545691e+2, -1460628.1, -1453613.0, -52081.035, 0.02241323, 0.1714387, -1404921.5, 20319.625, 0.00013646827, 9.999753, 9.99987 
1.254962e+3, 1.6456923e+2, -1365272.0, -1459157.4, -76758.6, 0.0018602826, 0.24983416, -1322239.6, 5003.292, 0.0000030208696, 10.0001745, 9.998961 
1.2549806e+3, 1.7456798e+2, -1111774.3, -1277493.5, -36690.027, -0.10629092, 0.19951215, -1104014.5, 125244.46, 0.0, 10.001212, 9.999029 
1.2550001e+3, 1.8456721e+2, -994399.0, -1151603.0, -49374.184, -0.103972696, 0.21903554, -980178.1, 151089.98, 0.0, 10.001252, 9.999207 
1.255021e+3, 1.9456668e+2, -1062476.9, -1126347.8, -48443.316, 0.029690292, 0.2127646, -1036389.6, -3117.1785, 0.0, 10.000069, 9.99928 
1.2550418e+3, 2.0456617e+2, -1011144.56, -1041758.44, -2347.979, 0.086826734, 0.23811643, -1010965.5, -75689.12, 0.0, 9.999727, 9.999349 
1.2550628e+3, 2.145655e+2, -805210.6, -881956.6, 8580.729, 0.050052855, 0.20679529, -804262.94, 33018.168, 0.0, 10.000426, 9.999436 
1.2550837e+3, 2.245646e+2, -723985.1, -897349.25, -39280.4, 0.021501135, 0.22595474, -715500.3, 23789.514, 0.0, 10.000774, 9.998484 
1.2551044e+3, 2.3456317e+2, -625352.9, -796657.25, -43452.22, 0.018481543, 0.20908281, -614961.4, 26343.762, 0.0, 10.000762, 9.998512 
1.2551248e+3, 2.4456218e+2, -466415.38, -614936.6, -34668.21, -0.029271781, 0.24296097, -458721.6, 84592.7, 0.0, 10.000942, 9.999 
1.2551452e+3, 2.5456142e+2, -297379.28, -474093.8, -18430.846, -0.13921726, 0.2353272, -295477.44, 149841.14, 0.0, 10.001397, 9.999071 
1.255167e+3, 2.645601e+2, -216576.61, -444915.56, -12378.724, -0.12305658, 0.22843291, -215907.5, 131422.22, 0.00000007625481, 10.001543, 9.998528 
1.2551904e+3, 2.7455795e+2, -145063.44, -356554.22, 30430.068, 0.05766698, 0.13566847, -140772.13, 108577.39, 0.0000061507535, 10.001339, 9.998567 
1.255212e+3, 2.8455678e+2, -46793.023, -313977.28, 16382.859, 0.059831474, 0.193531, -45792.23, 105568.34, 0.000051588533, 10.0015955, 9.998052 
1.2552309e+3, 2.9455614e+2, 172234.31, -151536.52, 33710.492, -0.15414265, 0.28947163, 175706.94, 229073.55, 0.00020006, 10.002398, 9.998108 
1.2552512e+3, 3.0455273e+2, 204033.5, -118287.11, -28505.672, -0.19926772, 0.1484255, 206535.1, 206535.1, 0.00050364056, 10.002313, 9.998051 
1.255273e+3, 3.145522e+2, 117396.21, -11340.81, 50234.742, 0.006427447, 0.24632137, 134678.39, 134678.39, 0.00095293473, 10.001012, 9.999415 
1.264884e+3, 1.2454661e+2, -1793703.8, -1666091.3, -75588.18, 0.29382062, 0.080525994, -1630979.3, 88481.92, 0.004085261, 9.999062, 10.0007715 
1.2649007e+3, 1.3454808e+2, -1639803.3, -1595376.1, -4191.005, -0.028407043, 0.18539824, -1594984.3, 26461.064, 0.0022650692, 9.999694, 10.000291 
1.2649207e+3, 1.4454697e+2, -1535847.8, -1567480.6, -7172.1675, -0.1450063, 0.08169624, -1534297.6, -10840.656, 0.00085386867, 10.000015, 9.999638 
1.2649426e+3, 1.5454763e+2, -1389616.1, -1443442.0, -51631.094, 0.045750123, 0.15641329, -1358304.6, 67148.97, 0.00015477135, 10.000357, 9.999646 
1.2649629e+3, 1.6454798e+2, -1315315.6, -1378913.5, -27778.111, 0.08285861, 0.24425343, -1304891.4, 22561.72, 0.0000038088367, 10.000283, 9.999453 
1.2649813e+3, 1.7454784e+2, -1262546.5, -1292497.3, -21833.574, -0.08219185, 0.25194064, -1251046.1, -21589.658, 0.0, 9.999929, 9.999545 
1.2650008e+3, 1.8454719e+2, -1155884.1, -1244774.8, -22820.834, -0.102226526, 0.26341733, -1150367.6, -18904.406, 0.0, 10.00021, 9.999068 
1.2650217e+3, 1.945457e+2, -896415.7, -1061508.8, -40133.965, 0.047904294, 0.17868258, -887176.25, 146300.31, 0.0, 10.001293, 9.999127 
1.2650426e+3, 2.0454475e+2, -776001.2, -981705.7, 26783.713, 0.106281236, 0.19179404, -772571.0, 162914.34, 0.0, 10.00157, 9.99887 
1.2650633e+3, 2.1454424e+2, -781303.3, -925705.4, -14429.18, 0.048366714, 0.22192666, -779875.56, 57615.387, 0.0, 10.000825, 9.998939 
1.2650846e+3, 2.2454326e+2, -715522.94, -879223.7, -15792.29, 0.039675277, 0.2555022, -714013.4, 25487.096, 0.0, 10.000754, 9.99863 
1.2651062e+3, 2.3454167e+2, -514196.56, -720479.25, 172.54745, 0.10343793, 0.20463467, -514196.4, 127318.8, 0.0, 10.001418, 9.998724 
1.2651269e+3, 2.4454056e+2, -374363.66, -589742.1, 34359.36, 0.050392102, 0.22189882, -369015.13, 174509.67, 0.0, 10.001647, 9.998838 
1.2651464e+3, 2.5453973e+2, -315798.72, -505315.03, 5660.506, -0.14569494, 0.22411817, -315629.78, 129901.17, 0.0, 10.00135, 9.998887 
1.265168e+3, 2.6453835e+2, -212681.05, -418305.28, 18899.58, -0.15089133, 0.21653754, -210958.36, 136583.72, 0.00000015326442, 10.0014715, 9.998746 
1.2651923e+3, 2.745363e+2, -22048.367, -266707.38, -5342.455, 0.07804107, 0.10807712, -21931.764, 227628.13, 0.0000068361555, 10.002064, 9.998829 
1.2652142e+3, 2.845353e+2, 38794.855, -265445.53, -15051.381, 0.11710185, 0.16513227, 39537.66, 191106.83, 0.000055437977, 10.002138, 9.998129 
1.2652338e+3, 2.94535e+2, 80725.6, -192263.05, -27176.67, -0.06544152, 0.29101264, 83404.81, 136977.98, 0.00021969865, 10.00174, 9.99815 
1.2652539e+3, 3.0453154e+2, 174839.4, -149001.75, -77019.86, -0.13752761, 0.15401909, 192223.97, 192223.97, 0.00055760087, 10.002195, 9.997885 
1.2652747e+3, 3.145304e+2, 491791.97, 217113.8, -67425.87, -0.03170637, 0.21060717, 507450.5, 507450.5, 0.0010537416, 10.003402, 9.999822 
1.2748829e+3, 1.245285e+2, -1798844.8, -1702528.5, -1616.0052, 0.20672075, 0.23942105, -1702501.4, 17141.447, 0.0044096503, 9.999163, 10.000469 
1.2749022e+3, 1.3452773e+2, -1712870.8, -1755753.5, 22569.732, 0.12960696, 0.22793524, -1703181.4, -81532.266, 0.0024558255, 9.999715, 9.999185 
1.2749209e+3, 1.4452685e+2, -1516991.3, -1546173.3, -8670.672, -0.1684862, 0.19813038, -1514609.4, 9048.465, 0.00093550276, 10.000088, 9.999749 
1.274943e+3, 1.5452701e+2, -1374680.6, -1422691.0, -27660.912, 0.015497644, 0.20618598, -1362061.0, 63597.004, 0.00017466526, 10.000394, 9.999773 
1.2749635e+3, 1.6452739e+2, -1276430.1, -1313883.1, -55454.965, 0.0818327, 0.27176344, -1236625.1, 91030.83, 0.0000047674703, 10.000339, 9.999877 
1.2749822e+3, 1.74528e+2, -1226664.5, -1227213.6, -24675.305, -0.0097986, 0.31037498, -1202262.3, 27389.05, 0.0, 9.999957, 9.999984 
1.2750018e+3, 1.8452778e+2, -1164453.0, -1256229.0, 3256.519, -0.04607994, 0.34524056, -1164337.6, -32684.236, 0.0, 10.000185, 9.998998 
1.2750228e+3, 1.9452637e+2, -913155.1, -1081648.0, 13263.577, -0.0052410215, 0.27492067, -912117.44, 121548.48, 0.0, 10.001227, 9.99902 
1.2750433e+3, 2.0452495e+2, -848111.4, -1106732.9, -13909.291, -0.0006642694, 0.2857872, -847365.5, 88314.98, 0.0, 10.001459, 9.998067 
1.2750636e+3, 2.1452336e+2, -861092.1, -1057716.3, -32991.26, -0.037171017, 0.29068464, -855704.2, -18004.809, 0.0, 10.000673, 9.99811 
1.2750849e+3, 2.2452208e+2, -691126.06, -785134.4, -5398.438, -0.013714711, 0.30084038, -690817.06, 48893.594, 0.0, 10.000576, 9.999357 
1.2751076e+3, 2.3452097e+2, -486420.97, -621458.1, 39069.57, 0.07971831, 0.21731335, -475931.9, 165782.86, 0.0, 10.001241, 9.999488 
1.2751289e+3, 2.445196e+2, -433292.13, -667864.1, 12798.235, 0.06494656, 0.19448197, -432595.94, 111128.66, 0.0, 10.001457, 9.998394 
1.2751488e+3, 2.5451782e+2, -367253.06, -579503.9, 9893.223, -0.075802796, 0.1469882, -366792.94, 78949.46, 0.0, 10.001207, 9.998448 
1.2751698e+3, 2.6451617e+2, -253130.52, -468514.47, 28203.676, -0.15188578, 0.14389263, -249498.6, 98259.35, 0.00000020123079, 10.001331, 9.998466 
1.2751922e+3, 2.745144e+2, -67385.89, -323030.16, 32174.38, -0.16177928, 0.08832508, -63398.74, 186374.92, 0.0000077157165, 10.001907, 9.998514 
1.2752144e+3, 2.8451294e+2, 20569.879, -275506.1, -42567.46, -0.11581733, 0.12032206, 26568.361, 178355.42, 0.000060411407, 10.002016, 9.998118 
1.2752366e+3, 2.9451162e+2, 65355.855, -197246.34, -23826.33, 0.012010043, 0.13708322, 67500.15, 121300.125, 0.00024271311, 10.001626, 9.99817 
1.2752576e+3, 3.045083e+2, 118195.94, -246810.55, -41115.223, 0.0031380164, 0.044329748, 122769.94, 122769.94, 0.0006224366, 10.002105, 9.997258 
1.275277e+3, 3.145073e+2, 437845.2, 175067.27, 18307.094, -0.20040725, 0.16872068, 439114.44, 439114.44, 0.0011818967, 10.003116, 9.999662 
1.2848815e+3, 1.2450785e+2, -1657917.1, -1656397.3, -34887.43, 0.114491574, 0.36970633, -1622261.5, 97587.95, 0.0047468157, 10.000181, 10.000298 
1.284903e+3, 1.3450585e+2, -1590663.5, -1710653.4, -69129.37, 0.2067003, 0.24420509, -1559125.6, 62741.99, 0.0026545508, 10.000588, 9.999065 
1.284922e+3, 1.4450563e+2, -1474165.3, -1494669.1, -46901.332, -0.056883376, 0.27079073, -1436408.5, 87460.586, 0.0010215283, 10.000272, 10.000012 
1.2849428e+3, 1.5450588e+2, -1437991.4, -1416924.3, -82906.29, -0.009645191, 0.2612626, -1343885.0, 81981.65, 0.00019628371, 9.999811, 10.000093 
1.2849632e+3, 1.6450611e+2, -1363815.3, -1361715.6, -87615.1, 0.04988595, 0.29811853, -1275144.0, 52721.06, 0.0000059623408, 9.999755, 9.999837 
1.2849832e+3, 1.7450638e+2, -1185387.4, -1211784.8, -120540.85, 0.07818372, 0.30886966, -1077324.8, 152539.1, 0.0, 10.000261, 9.999944 
1.2850031e+3, 1.845062e+2, -1111577.8, -1206311.8, -64608.44, 0.0669747, 0.33987856, -1078833.1, 53032.69, 0.0, 10.000458, 9.9992075 
1.2850237e+3, 1.9450521e+2, -1016765.7, -1106046.3, -55449.44, 0.009628867, 0.2941095, -990220.4, 43653.38, 0.0, 10.000421, 9.999243 
1.2850443e+3, 2.0450394e+2, -941444.44, -1160923.3, -33333.707, -0.026550839, 0.31240022, -936493.5, -606.63904, 0.0, 10.000863, 9.997983 
1.2850648e+3, 2.1450213e+2, -693416.56, -983021.56, -21837.342, -0.03588139, 0.3048135, -691779.2, 146128.61, 0.0, 10.001867, 9.998043 
1.2850861e+3, 2.2450066e+2, -495244.66, -689670.7, 16872.828, -0.003091427, 0.2994529, -493791.25, 246129.36, 0.0, 10.001923, 9.999362 
1.2851085e+3, 2.3449942e+2, -549152.8, -648014.2, -25437.71, 0.08214817, 0.20339775, -542991.56, 98933.945, 0.0, 10.000811, 9.999507 
1.2851301e+3, 2.4449803e+2, -561089.0, -731094.56, -21733.871, 0.09698847, 0.1776249, -558354.44, -14419.177, 0.0, 10.0005865, 9.998377 
1.285151e+3, 2.5449637e+2, -346325.84, -570091.8, -19945.96, 0.032292124, 0.14383988, -344561.8, 101390.26, 0.0, 10.001367, 9.99843 
1.2851723e+3, 2.644947e+2, -227291.13, -482766.5, 32661.559, -0.04078089, 0.15118635, -223181.58, 124786.64, 0.00000014147287, 10.001604, 9.998244 
1.2851939e+3, 2.7449277e+2, -181713.52, -402653.25, 15266.786, -0.13028172, 0.10589794, -180663.58, 69322.56, 0.000007879153, 10.001217, 9.998304 
1.285216e+3, 2.8449115e+2, -41608.707, -305161.28, -14278.752, -0.11849495, 0.13167813, -40837.367, 111164.17, 0.00006527563, 10.0016, 9.998113 
1.2852389e+3, 2.9448947e+2, 240389.64, -114101.75, -33078.902, 0.028687518, 0.11604149, 243449.94, 297467.2, 0.000269289, 10.002833, 9.99816 
1.2852606e+3, 3.0448642e+2, 195560.75, -249504.3, -37343.715, 0.062817104, 0.069427036, 198672.36, 198672.36, 0.00069755525, 10.002801, 9.996916 
1.2852798e+3, 3.144842e+2, 150003.52, 3979.8062, -11966.419, -0.1060509, 0.11347426, 150977.64, 150977.64, 0.0013291562, 10.0012245, 9.99942 
1.29488e+3, 1.24484055e+2, -1671103.0, -1674678.5, 21354.707, -0.100609794, 0.3970823, -1651461.4, 68625.805, 0.0050962004, 10.000168, 10.000174 
1.2949029e+3, 1.3448258e+2, -1536520.4, -1584671.9, -52704.54, 0.108556844, 0.23732668, -1502653.0, 119446.6, 0.0028611089, 10.000549, 9.999948 
1.294924e+3, 1.4448336e+2, -1439874.6, -1430316.5, -84165.625, 0.085340396, 0.30217582, -1350794.4, 173295.67, 0.00111182, 10.000299, 10.000443 
1.2949415e+3, 1.5448435e+2, -1406872.5, -1355597.9, -86831.52, -0.1319004, 0.32492325, -1290698.0, 135380.44, 0.000219555, 9.99982, 10.000516 
1.2949613e+3, 1.6448428e+2, -1394244.9, -1429507.0, -86444.47, -0.13416332, 0.33163187, -1323651.8, 4427.328, 0.0000074533, 9.999772, 9.999362 
1.2949836e+3, 1.7448305e+2, -1224719.9, -1295347.0, -91070.445, 0.08403063, 0.24435681, -1162356.1, 67737.51, 0.0, 10.000266, 9.999367 
1.2950046e+3, 1.8448246e+2, -1081631.4, -1145077.5, -79850.445, 0.13332035, 0.24567512, -1027433.25, 104666.586, 0.0, 10.000456, 9.999633 
1.2950242e+3, 1.9448233e+2, -987580.44, -1038396.5, -46707.688, -0.0035593938, 0.23630448, -959817.25, 74281.92, 0.0, 10.000378, 9.999733 
1.2950449e+3, 2.0448174e+2, -918513.44, -1079125.1, -11186.38, -0.07259187, 0.26728168, -917738.06, 18366.107, 0.0, 10.000726, 9.998606 
1.2950666e+3, 2.1448044e+2, -678832.3, -905450.3, 26298.01, -0.05585797, 0.24874529, -675820.6, 162296.58, 0.0, 10.00167, 9.998666 
1.2950881e+3, 2.2447893e+2, -576319.9, -811789.25, -33740.207, -0.032821674, 0.24191149, -571580.6, 168550.44, 0.0, 10.00172, 9.998623 
1.2951088e+3, 2.3447701e+2, -625814.3, -772768.3, -50656.273, 0.0016409605, 0.1568294, -610044.9, 32102.38, 0.0, 10.000654, 9.998731 
1.2951304e+3, 2.444758e+2, -569934.25, -698701.8, -8093.7656, 0.03544487, 0.1726735, -569427.5, -25270.492, 0.0, 10.000382, 9.998692 
1.2951529e+3, 2.5447518e+2, -347995.1, -528769.94, 23586.85, 0.07370094, 0.20907429, -344968.25, 101192.805, 0.0, 10.001188, 9.998794 
1.2951753e+3, 2.6447383e+2, -254289.27, -514745.4, 8679.616, 0.079877414, 0.23665544, -254000.33, 94173.29, 0.000000052302592, 10.00149, 9.998085 
1.295197e+3, 2.7447152e+2, -211132.78, -432720.0, 17820.543, 0.041423388, 0.16608582, -209708.77, 40487.84, 0.000007172051, 10.001081, 9.998165 
1.2952188e+3, 2.8446987e+2, -69099.9, -330107.13, 19598.553, -0.02655207, 0.20195344, -67636.484, 84576.08, 0.00006969282, 10.001454, 9.998013 
1.2952404e+3, 2.944686e+2, 206117.88, -147308.97, 33508.492, -0.12820035, 0.23330757, 209266.77, 263491.2, 0.00030090337, 10.002669, 9.998009 
1.2952624e+3, 3.0446595e+2, 168722.25, -283990.88, -99922.92, -0.059754435, 0.24630341, 189796.25, 189796.25, 0.00078645255, 10.002707, 9.996727 
1.2952831e+3, 3.1446156e+2, 102464.4, -52383.914, -30660.607, 0.030069081, 0.08082579, 108314.33, 108314.33, 0.0014985187, 10.001052, 9.999113 
1.3048807e+3, 1.24460936e+2, -1749653.3, -1753972.0, 175685.78, -0.022453947, 0.33087572, -1576113.6, 144196.58, 0.0054552136, 9.999825, 9.999794 
1.3049018e+3, 1.3446015e+2, -1535417.4, -1549363.5, 24620.436, -0.023219183, 0.2152912, -1516801.5, 105516.305, 0.003073975, 10.000421, 10.000251 
1.304925e+3, 1.4446102e+2, -1430531.4, -1448195.4, -40334.633, 0.14749238, 0.28290805, -1398073.1, 126235.41, 0.0012055306, 10.000451, 10.00024 
1.304942e+3, 1.5446176e+2, -1325676.4, -1336503.4, -116949.63, -0.08228009, 0.2970268, -1214015.0, 212284.83, 0.000244213, 10.000468, 10.000321 
1.3049617e+3, 1.644617e+2, -1321278.8, -1374180.9, -83411.44, -0.09052028, 0.30653617, -1260224.9, 68075.42, 0.000009295233, 10.000214, 9.999522 
1.3049836e+3, 1.7446072e+2, -1280924.4, -1299313.4, -61791.004, 0.09270287, 0.22955967, -1227647.5, 2663.7136, 0.0, 9.999805, 9.999556 
1.3050048e+3, 1.8446024e+2, -1159435.8, -1190147.6, 335.743, 0.13841617, 0.23411153, -1159432.0, -27115.326, 0.0, 9.999933, 9.999583 
1.3050249e+3, 1.9446014e+2, -945469.7, -1021991.2, -31412.365, 0.027523816, 0.231758, -934226.7, 100090.77, 0.0, 10.000678, 9.9997015 
1.305046e+3, 2.0445979e+2, -845641.8, -971448.3, 7050.2427, -0.025031256, 0.25831044, -845247.94, 91071.69, 0.0, 10.000913, 9.999255 
1.3050681e+3, 2.1445902e+2, -796054.75, -886144.94, 23882.652, -0.012189615, 0.22382474, -790115.1, 48209.555, 0.0, 10.000542, 9.999345 
1.3050896e+3, 2.2445789e+2, -740787.75, -912255.44, -6781.7114, 0.01434043, 0.23006652, -740519.94, -185.44885, 0.0, 10.000679, 9.998428 
1.3051102e+3, 2.344562e+2, -537571.56, -755090.5, -12931.623, 0.06067627, 0.18718204, -536805.44, 105546.21, 0.0, 10.00137, 9.998497 
1.3051318e+3, 2.4445485e+2, -366823.06, -605722.2, 86206.53, 0.08439251, 0.20360143, -338964.22, 205399.28, 0.0, 10.0017805, 9.998661 
1.3051546e+3, 2.5445372e+2, -249048.92, -486053.53, 68348.12, 0.08364328, 0.18873474, -230751.14, 215619.98, 0.0, 10.001862, 9.998774 
1.305177e+3, 2.644522e+2, -194654.23, -490551.7, 43935.523, 0.09614427, 0.20063576, -188268.39, 160116.28, 0.000000026393016, 10.001928, 9.998037 
1.3051993e+3, 2.744499e+2, -78286.016, -382042.8, 24768.926, 0.11243028, 0.14398241, -76279.56, 174127.97, 0.0000066700077, 10.002036, 9.998063 
1.305221e+3, 2.844482e+2, 17397.412, -271668.97, 90311.23, 0.044997137, 0.17375128, 43292.977, 195716.94, 0.00007506801, 10.001979, 9.9981575 
1.3052426e+3, 2.9444706e+2, 96492.73, -181988.77, 92544.62, -0.11957778, 0.20064948, 124441.97, 178876.25, 0.00033560226, 10.001836, 9.998169 
1.3052651e+3, 3.0444524e+2, 122332.625, -292357.94, -10313.323, -0.024575261, 0.28070867, 122588.96, 122588.96, 0.0008831013, 10.002331, 9.996846 
1.3052864e+3, 3.1444076e+2, 452061.13, 85226.04, 17727.688, 0.13252737, 0.099984944, 452915.84, 452915.84, 0.001684596, 10.003579, 9.99885 
1.3148811e+3, 1.2443756e+2, -1782941.1, -1833991.0, 11733.201, -0.013433429, 0.05276153, -1780373.6, -59846.316, 0.005819013, 9.999866, 9.999224 
1.3148998e+3, 1.3443874e+2, -1558349.9, -1600981.0, 57438.945, -0.3052171, 0.1719082, -1518398.9, 104121.5, 0.0032902497, 10.000434, 9.999892 
1.3149242e+3, 1.4443876e+2, -1481262.1, -1559412.5, -61179.555, -0.010707967, 0.2074507, -1447743.9, 76779.44, 0.0013013786, 10.0004835, 9.99946 
1.314944e+3, 1.5443823e+2, -1386239.0, -1462319.6, -107322.67, 0.04826395, 0.18178143, -1310414.4, 116115.336, 0.00026992275, 10.000467, 9.999461 
1.314964e+3, 1.6443838e+2, -1261772.3, -1264684.8, -115117.93, 0.08397437, 0.22311491, -1148101.4, 180427.05, 0.00001153221, 10.000258, 10.0002575 
1.3149829e+3, 1.7443933e+2, -1214598.8, -1172405.6, -68360.125, 0.011975582, 0.25283104, -1121960.9, 108556.76, 0.0, 9.999837, 10.000416 
1.3150033e+3, 1.8443953e+2, -1198242.5, -1260378.9, 11438.8125, -0.025489038, 0.30175474, -1196203.6, -63687.33, 0.0, 9.999894, 9.999117 
1.3150255e+3, 1.944386e+2, -995752.4, -1108542.3, 6652.086, -0.00052009156, 0.27128887, -995361.4, 39167.25, 0.0, 10.000601, 9.999144 
1.3150473e+3, 2.044381e+2, -816976.75, -883090.9, -16647.258, 0.009567106, 0.28011215, -813021.6, 123511.3, 0.0, 10.00079, 9.99992 
1.3150689e+3, 2.1443792e+2, -765412.3, -794170.9, 22767.326, -0.0026702737, 0.2320791, -752863.6, 85665.586, 0.0, 10.000407, 10.000045 
1.3150905e+3, 2.2443755e+2, -746233.9, -877578.7, 5678.665, 0.03148112, 0.2612597, -745988.8, -5458.2334, 0.0, 10.00049, 9.9987545 
1.3151127e+3, 2.3443682e+2, -545385.1, -728745.0, 27031.83, 0.14531471, 0.28668603, -541483.0, 101056.8, 0.0, 10.00119, 9.998766 
1.3151343e+3, 2.444351e+2, -416120.06, -664914.94, 76875.586, 0.13079847, 0.26737285, -394282.84, 150273.05, 0.0, 10.001592, 9.998348 
1.3151553e+3, 2.5443214e+2, -298351.4, -547609.56, 84553.81, -0.041437145, 0.10254769, -272375.84, 174204.61, 0.0, 10.001684, 9.998438 
1.3151772e+3, 2.6442984e+2, -222352.27, -512421.6, 36153.555, -0.095882416, 0.06074269, -217914.08, 130686.414, 0.000000066602475, 10.001775, 9.99796 
1.3152002e+3, 2.7442804e+2, -106696.766, -401016.9, 46740.563, -0.01578554, 0.05428695, -99452.28, 151166.08, 0.0000067822207, 10.001878, 9.998002 
1.3152228e+3, 2.844264e+2, 30782.09, -229178.83, 74112.97, -0.0056369193, 0.077033415, 50426.668, 203060.44, 0.000081610815, 10.0019, 9.998497 
1.3152452e+3, 2.9442492e+2, 100942.4, -136963.3, 106309.32, -0.06770465, 0.03123169, 141524.66, 196171.02, 0.0003693932, 10.001676, 9.998563 
1.3152684e+3, 3.0442423e+2, 116706.98, -265125.47, 25132.797, 0.041673206, 0.18870857, 118354.15, 118354.15, 0.00097588636, 10.002171, 9.997102 
1.315289e+3, 3.1442186e+2, 382593.4, 28183.162, 95259.96, -0.012631609, 0.19874941, 406575.06, 406575.06, 0.0018645462, 10.00323, 9.998611 
1.3248819e+3, 1.2441647e+2, -1849018.1, -1849477.9, -101736.64, 0.12714836, 0.07200326, -1747511.0, -26775.918, 0.006183249, 9.99929, 9.999411 
1.3249001e+3, 1.344179e+2, -1690050.9, -1656016.4, 38545.754, -0.2518186, 0.21363866, -1630898.5, -8175.1797, 0.0035072896, 9.9995, 9.999951 
1.3249238e+3, 1.4441723e+2, -1630930.3, -1653818.9, -21406.49, -0.04273248, 0.18247545, -1618100.9, -93368.8, 0.0013982238, 9.99955, 9.999266 
1.3249446e+3, 1.5441635e+2, -1466162.8, -1525682.6, -41848.676, 0.08257479, 0.14255437, -1444571.4, -17829.318, 0.00029637254, 10.000022, 9.999248 
1.3249648e+3, 1.6441627e+2, -1261888.1, -1291319.1, -40478.516, 0.13731766, 0.18413654, -1233533.3, 95209.99, 0.000014169166, 10.00038, 10.000009 
1.324983e+3, 1.7441711e+2, -1108058.1, -1153629.9, -105152.05, -0.005502504, 0.23029284, -1023251.44, 207482.86, 0.0, 10.000709, 10.000124 
1.3250032e+3, 1.844174e+2, -1087156.1, -1196416.9, -24087.455, -0.05537235, 0.3017628, -1082081.6, 50650.863, 0.0, 10.000623, 9.999202 
1.3250262e+3, 1.9441687e+2, -1064336.8, -1130262.5, -8498.926, 0.030465562, 0.30029845, -1063258.6, -28517.762, 0.0, 10.00009, 9.999238 
1.3250482e+3, 2.0441633e+2, -938854.56, -935888.1, -11029.939, 0.06389877, 0.29749346, -926242.1, 10503.0625, 0.0, 9.999919, 9.99998 
1.3250694e+3, 2.1441565e+2, -790084.2, -795393.5, -42408.418, 0.023196772, 0.1929957, -750247.44, 88498.2, 0.0, 10.000197, 10.000134 
1.3250911e+3, 2.2441523e+2, -733080.9, -846096.56, -46004.977, 0.05678079, 0.20157166, -716721.75, 24025.613, 0.0, 10.000475, 9.998983 
1.325114e+3, 2.34415e+2, -588110.2, -716240.8, -50775.21, 0.20218289, 0.25347063, -570429.0, 72322.85, 0.0, 10.000765, 9.999056 
1.3251363e+3, 2.4441367e+2, -468982.28, -682200.44, 33619.01, 0.19348493, 0.25745115, -463807.06, 80957.31, 0.0, 10.001202, 9.998416 
1.3251573e+3, 2.5441092e+2, -277612.78, -528935.2, 41211.293, -0.016181493, 0.10852436, -271027.6, 175760.11, 0.0, 10.001802, 9.998504 
1.3251792e+3, 2.644089e+2, -170171.33, -477293.5, 26086.66, -0.08772594, 0.08494718, -167971.31, 180834.42, 0.0000000978673, 10.002102, 9.998038 
1.3252021e+3, 2.7440742e+2, -70768.7, -373525.66, 18890.494, -0.0017533972, 0.10341208, -69594.586, 181225.89, 0.000006920427, 10.002084, 9.99809 
1.3252248e+3, 2.8440553e+2, 29293.824, -240558.33, 56704.332, 0.0014226729, 0.10396723, 40724.94, 193562.7, 0.000086783395, 10.001958, 9.998382 
1.3252467e+3, 2.9440317e+2, 124870.266, -139223.73, 12622.087, -0.086380005, -0.012620645, 125472.15, 180330.4, 0.00039493892, 10.001907, 9.99843 
1.3252705e+3, 3.044023e+2, 133372.7, -197254.92, -15339.211, 0.052262124, 0.1076222, 134082.83, 134082.83, 0.0010490068, 10.002032, 9.997636 
1.3252921e+3, 3.144013e+2, 228118.23, -32993.008, 11862.777, 0.058716256, 0.1984453, 228656.08, 228656.08, 0.00200862, 10.00209, 9.998747 
1.3348792e+3, 1.2439814e+2, -1761440.6, -1668974.0, -175125.17, -0.12569712, 0.42485857, -1534082.1, 186847.63, 0.0065457188, 9.999296, 10.000652 
1.334903e+3, 1.3439777e+2, -1660375.9, -1595445.8, 46173.133, 0.054311488, 0.33937898, -1571466.8, 51459.375, 0.0037237175, 9.999498, 10.000369 
1.3349235e+3, 1.4439633e+2, -1592284.4, -1581166.8, -23982.934, -0.06773399, 0.18773954, -1562106.8, -37171.01, 0.0014951822, 9.999572, 9.999762 
1.3349432e+3, 1.5439625e+2, -1426214.6, -1451248.9, -11866.405, -0.08494133, 0.17794687, -1421483.9, 5451.1543, 0.00032323142, 10.000045, 9.999754 
1.3349634e+3, 1.6439557e+2, -1356543.3, -1487737.4, -41511.816, -0.048322663, 0.19590108, -1344511.6, -15568.959, 0.000017128494, 10.0003805, 9.99866 
1.3349834e+3, 1.7439418e+2, -1210952.8, -1365824.9, -80758.98, -0.053809665, 0.16246758, -1176503.4, 54456.91, 0.00000000003443261, 10.000703, 9.998669 
1.3350041e+3, 1.8439394e+2, -1048671.0, -1120444.3, -57066.496, -0.050237365, 0.23182525, -1017145.2, 115819.34, 0.0, 10.00063, 9.999726 
1.3350263e+3, 1.943949e+2, -1025210.25, -1040377.4, -19134.031, 0.023206752, 0.31640545, -1012211.75, 22742.654, 0.0, 10.000039, 9.9998865 
1.3350481e+3, 2.0439447e+2, -990239.1, -1014781.6, -16536.492, 0.036787882, 0.31244206, -981918.2, -44961.863, 0.0, 9.9998, 9.999496 
1.3350692e+3, 2.1439214e+2, -852346.44, -892104.6, -21511.576, -0.0317636, 0.09762895, -842935.1, -3960.4656, 0.0, 10.000047, 9.99955 
1.3350911e+3, 2.2439082e+2, -745166.9, -832161.4, -44404.797, -0.015491797, 0.04199057, -726504.7, 14480.74, 0.0, 10.000305, 9.999159 
1.3351144e+3, 2.3439081e+2, -594777.94, -697967.2, -25759.742, 0.12819429, 0.090939544, -588704.8, 54281.984, 0.0, 10.00062, 9.999253 
1.3351372e+3, 2.4439062e+2, -463372.38, -632722.9, 42613.168, 0.1541633, 0.17732427, -453254.28, 91734.3, 0.0, 10.001043, 9.998828 
1.3351598e+3, 2.5439003e+2, -274087.88, -483892.56, 76265.0, 0.03730373, 0.2021926, -249295.0, 197698.28, 0.0, 10.001642, 9.998889 
1.3351823e+3, 2.6438916e+2, -176648.7, -460356.94, 13837.421, -0.0017784061, 0.26880035, -175975.39, 173026.06, 0.00000008871969, 10.001966, 9.99822 
1.335205e+3, 2.7438775e+2, -80977.19, -354982.56, 32817.156, 0.043850735, 0.27262393, -77101.555, 173914.23, 0.000006673535, 10.001914, 9.998299 
1.3352264e+3, 2.8438544e+2, -36372.547, -346044.53, 39294.41, -0.053370316, 0.24706139, -31464.258, 121573.305, 0.00008871381, 10.001823, 9.997721 
1.335247e+3, 2.9438183e+2, 52447.96, -254392.77, 32073.666, -0.28949925, 0.07586786, 55764.73, 110834.44, 0.0004076121, 10.001753, 9.997715 
1.3352711e+3, 3.043797e+2, 176623.58, -76783.625, -14518.596, -0.11530484, 0.06796913, 177452.69, 177452.69, 0.0010927352, 10.001913, 9.998514 
1.3352954e+3, 3.1437886e+2, 227560.16, 25419.672, 42057.41, 0.13081434, 0.07625211, 235961.45, 235961.45, 0.0021020344, 10.001843, 9.999267 
1.3448785e+3, 1.243769e+2, -1594467.1, -1554464.9, -89457.4, -0.17127949, 0.5007117, -1482799.9, 238342.2, 0.0069055543, 10.000306, 10.000953 
1.3449046e+3, 1.3437578e+2, -1563050.9, -1573676.1, -26644.188, 0.2423999, 0.3602266, -1541194.9, 81949.65, 0.0039389143, 10.000288, 10.000143 
1.3449228e+3, 1.4437428e+2, -1548005.0, -1533378.5, -100073.34, -0.093998656, 0.20780365, -1440351.5, 84802.234, 0.0015916337, 9.999769, 9.999991 
1.344943e+3, 1.5437461e+2, -1464795.6, -1438862.0, -132081.73, -0.09021941, 0.21432865, -1319112.1, 108036.72, 0.0003501717, 9.999663, 10.000013 
1.3449636e+3, 1.6437411e+2, -1432276.1, -1517169.9, -85350.13, -0.0400864, 0.23419884, -1379400.5, -50246.273, 0.000020254476, 9.999834, 9.99872 
1.344984e+3, 1.7437255e+2, -1260833.4, -1380852.5, -37556.215, -0.043346386, 0.17945562, -1250050.1, -18877.732, 0.0000000014653116, 10.000334, 9.998738 
1.3450047e+3, 1.8437201e+2, -1056802.0, -1110860.6, 28058.154, -0.035861876, 0.20887384, -1044871.8, 88306.055, 0.0, 10.000528, 9.999831 
1.3450265e+3, 1.9437252e+2, -954741.8, -990829.6, 1880.7079, 0.017226595, 0.2342404, -954644.06, 80525.6, 0.0, 10.000473, 10.000007 
1.3450482e+3, 2.04372e+2, -890928.6, -998395.4, 38055.027, 0.044104815, 0.23176637, -878817.8, 58354.188, 0.0, 10.000613, 9.999221 
1.3450702e+3, 2.143702e+2, -742851.1, -863350.0, 25701.055, 0.029054448, 0.09703405, -737598.4, 101589.68, 0.0, 10.000918, 9.999317 
1.3450924e+3, 2.2436893e+2, -629022.3, -809675.7, 22668.572, 0.045863453, 0.06963494, -626221.25, 114978.7, 0.0, 10.001251, 9.998856 
1.3451153e+3, 2.3436819e+2, -464908.0, -667858.9, -19031.076, 0.11446542, 0.07921063, -463138.84, 180069.05, 0.0, 10.001661, 9.998954 
1.3451383e+3, 2.4436773e+2, -374240.97, -574944.9, 28714.457, 0.13343376, 0.14765838, -370213.66, 174998.58, 0.0, 10.001598, 9.99896 
1.3451615e+3, 2.5436744e+2, -365570.34, -506584.4, 18411.2, 0.09270788, 0.18667927, -363206.16, 84007.49, 0.0, 10.000933, 9.999075 
1.3451844e+3, 2.6436666e+2, -324645.72, -517177.34, -12708.423, 0.071636535, 0.24728529, -323810.5, 25410.422, 0.000000062099474, 10.000893, 9.998348 
1.345207e+3, 2.7436504e+2, -95846.89, -347149.03, -29984.936, 0.06749204, 0.21856478, -92318.67, 158919.11, 0.0000065347235, 10.001744, 9.998431 
1.3452287e+3, 2.8436294e+2, 43144.99, -285935.28, 18431.38, -0.020889578, 0.20001438, 44174.09, 197431.16, 0.00008986311, 10.002267, 9.997926 
1.3452499e+3, 2.9436034e+2, 160621.64, -165529.23, 40138.277, -0.18083149, 0.10424808, 165488.69, 220767.16, 0.00041355038, 10.00235, 9.998033 
1.3452739e+3, 3.0435774e+2, 267968.16, -112833.72, 23810.59, -0.05644701, 0.061625067, 269451.2, 269451.2, 0.0011132387, 10.002848, 9.997837 
1.345297e+3, 3.1435648e+2, 433011.97, 47522.043, -111409.82, 0.015480748, 0.10558902, 462893.97, 462893.97, 0.0021484285, 10.003592, 9.998571 
1.3548805e+3, 1.2435256e+2, -1645834.1, -1655273.6, 94217.63, -0.06653508, 0.25861606, -1556218.1, 165155.33, 0.0072628423, 10.0003, 10.0002575 
1.3549048e+3, 1.3435194e+2, -1624126.6, -1704418.0, -32953.08, 0.20970725, 0.26068756, -1612334.0, 11043.652, 0.004152666, 10.000312, 9.999234 
1.3549213e+3, 1.4435124e+2, -1558836.5, -1555614.6, -123956.68, -0.2491676, 0.24674112, -1433258.4, 92126.01, 0.0016872559, 9.999766, 9.999839 
1.3549434e+3, 1.5435146e+2, -1466640.4, -1449395.6, -123663.85, -0.0389889, 0.24651021, -1334053.9, 93329.87, 0.0003769789, 9.999683, 9.999935 
1.3549647e+3, 1.6435179e+2, -1324184.5, -1298499.6, -84262.375, 0.060355086, 0.28284547, -1226106.6, 103272.94, 0.000023370363, 9.999855, 10.000214 
1.3549843e+3, 1.7435217e+2, -1153719.8, -1154014.5, -9591.976, -0.058265578, 0.26512507, -1144274.0, 87097.59, 0.0000000068048798, 10.000307, 10.000313 
1.3550046e+3, 1.8435164e+2, -1083241.0, -1154953.9, 12571.468, -0.12408621, 0.22636104, -1081101.0, 52271.457, 0.0, 10.000485, 9.999547 
1.355026e+3, 1.9434972e+2, -991686.1, -1056029.0, 12519.534, -0.090713404, 0.048987944, -989335.94, 46050.72, 0.0, 10.000418, 9.999587 
1.3550484e+3, 2.04349e+2, -913720.75, -1017696.0, 34695.895, -0.017540745, 0.051298056, -903206.2, 34185.766, 0.0, 10.000497, 9.999141 
1.3550721e+3, 2.1434982e+2, -773124.6, -887217.9, 47588.9, 0.1097342, 0.18471044, -755881.1, 83505.17, 0.0, 10.000746, 9.999238 
1.3550949e+3, 2.2434933e+2, -710819.06, -932654.44, 22415.123, 0.14289545, 0.277065, -708576.8, 32815.996, 0.0, 10.001051, 9.998108 
1.3551165e+3, 2.3434709e+2, -545305.2, -796161.2, 8319.476, 0.061310392, 0.21367979, -545029.6, 98386.34, 0.0, 10.001495, 9.998153 
1.3551389e+3, 2.4434508e+2, -404919.5, -602216.9, -5456.176, 0.029099463, 0.17517681, -404768.72, 140665.88, 0.0, 10.001437, 9.998853 
1.3551623e+3, 2.5434324e+2, -389081.6, -523741.38, 7685.8784, 0.054403108, 0.063613415, -388644.3, 58804.137, 0.0, 10.000794, 9.999026 
1.3551852e+3, 2.6434144e+2, -341061.47, -522979.53, 3050.002, 0.034089703, 0.025067326, -341010.34, 8453.778, 0.000000036385206, 10.000769, 9.99837 
1.3552077e+3, 2.7433947e+2, -123728.305, -363326.5, 19239.563, -0.03523079, -0.037074864, -122193.21, 129291.375, 0.0000068750182, 10.001566, 9.998409 
1.3552311e+3, 2.8433836e+2, 89173.734, -153591.05, 12106.073, -0.03202879, -0.0026521706, 89775.94, 243269.77, 0.00009120505, 10.002109, 9.998911 
1.3552552e+3, 2.943383e+2, 210047.13, -27619.36, 61115.527, 0.085354105, 0.051022455, 224841.9, 280330.75, 0.00041555686, 10.00219, 9.999064 
1.3552785e+3, 3.0433586e+2, 93972.555, -426419.3, 37782.266, 0.0916774, 0.07122143, 96701.37, 96701.37, 0.0011140582, 10.002657, 9.995768 
1.355296e+3, 3.1433353e+2, 248166.56, -254163.66, -58038.547, -0.49653926, 0.23135173, 254785.06, 254785.06, 0.0021475272, 10.003247, 9.996659 
1.3648811e+3, 1.2432911e+2, -1608791.8, -1637027.1, 171852.8, -0.01798608, 0.1621684, -1450477.8, 271122.16, 0.0076198755, 10.000545, 10.000267 
1.3649036e+3, 1.3432936e+2, -1909222.8, -1827695.0, -63053.67, 0.1772506, 0.23503314, -1793375.9, -169777.14, 0.004366158, 9.998271, 9.999378 
1.3649207e+3, 1.4432973e+2, -1870936.9, -1655584.0, 17334.123, -0.1544629, 0.298035, -1654197.6, -128601.05, 0.0017823466, 9.997408, 10.000286 
1.3649432e+3, 1.5433018e+2, -1510822.5, -1416582.3, 44781.418, 0.014006862, 0.27483535, -1398697.1, 28895.746, 0.0004035849, 9.999154, 10.000409 
1.364965e+3, 1.643306e+2, -1287334.3, -1270451.9, 60659.434, 0.09004567, 0.28837243, -1217649.1, 111937.88, 0.000026350568, 10.000046, 10.000321 
1.3649847e+3, 1.7433096e+2, -1208139.1, -1168150.5, -6412.5967, -0.0318964, 0.25663146, -1167147.4, 64430.773, 0.000000016360648, 9.999877, 10.000424 
1.3650051e+3, 1.8433021e+2, -1160456.4, -1221337.8, -7376.657, -0.09776767, 0.20292571, -1159575.4, -25994.8, 0.0, 10.000074, 9.999294 
1.3650268e+3, 1.9432789e+2, -958465.8, -1066307.6, -23786.82, -0.066984974, 0.012775954, -953452.2, 82146.55, 0.0, 10.000767, 9.999348 
1.3650495e+3, 2.0432696e+2, -840484.56, -1032829.4, 8276.446, 0.0032082417, 0.023663867, -840129.06, 97478.15, 0.0, 10.001215, 9.998691 
1.3650732e+3, 2.1432766e+2, -712977.8, -909573.56, -31053.582, 0.115638904, 0.19636708, -708189.3, 131414.7, 0.0, 10.001382, 9.998776 
1.3650961e+3, 2.2432712e+2, -625095.8, -878479.44, -9488.326, 0.15120128, 0.29932925, -624741.06, 116870.57, 0.0, 10.001579, 9.998228 
1.3651183e+3, 2.343248e+2, -495495.56, -756935.25, 17093.191, 0.081873104, 0.21313433, -494382.72, 149251.31, 0.0, 10.0017605, 9.998302 
1.3651407e+3, 2.4432255e+2, -371742.3, -627698.3, 34628.47, 0.050138164, 0.1629097, -367140.13, 178514.42, 0.0, 10.00185, 9.998474 
1.3651635e+3, 2.5432032e+2, -253916.11, -502780.1, -7786.2607, 0.054806482, 0.05446471, -253672.73, 194000.89, 0.0, 10.001918, 9.998624 
1.3651864e+3, 2.6431844e+2, -194138.66, -445708.0, 18902.334, 0.03983364, 0.024065733, -192726.31, 156964.47, 0.000000033203506, 10.001751, 9.998427 
1.3652095e+3, 2.7431685e+2, -151659.34, -358864.4, 13821.729, -0.0011641955, -0.015858542, -150741.42, 100965.625, 0.0000069323874, 10.001302, 9.99856 
1.365233e+3, 2.8431588e+2, -53917.41, -252612.69, 9004.899, 0.014761997, 0.03723167, -53510.14, 100205.49, 0.000089487476, 10.001281, 9.998618 
1.3652577e+3, 2.9431567e+2, 163303.23, -79902.75, -63836.773, 0.13005012, 0.110232174, 179040.78, 234755.58, 0.00040599646, 10.002013, 9.998781 
1.3652807e+3, 3.0431294e+2, 62841.31, -413739.4, -39573.0, 0.08701544, 0.103914514, 66104.914, 66104.914, 0.0010861106, 10.002326, 9.996021 
1.365298e+3, 3.143107e+2, 85504.59, -249367.58, -25705.299, -0.51017684, 0.2529556, 87466.28, 87466.28, 0.0020927999, 10.001747, 9.997435 
1.3748835e+3, 1.24306425e+2, -1564828.1, -1554632.3, 74569.055, 0.11034972, 0.19576003, -1484987.0, 236835.7, 0.0079810945, 10.000593, 10.000803 
1.3749003e+3, 1.3430803e+2, -1819975.3, -1646271.4, -149014.3, 0.0006530395, 0.27882805, -1560645.8, 63162.098, 0.0045821774, 9.998274, 10.000626 
1.3749209e+3, 1.4430974e+2, -1794141.4, -1496946.0, 49318.63, 0.08937652, 0.35799485, -1488975.5, 36814.75, 0.0018779465, 9.997409, 10.001377 
1.3749422e+3, 1.5431081e+2, -1439737.0, -1268235.0, 123751.87, -0.029099736, 0.2895381, -1203427.9, 224348.4, 0.00043006244, 9.999146, 10.001433 
1.3749637e+3, 1.6431066e+2, -1371698.8, -1449000.8, 42418.715, -0.07012852, 0.25283292, -1352963.0, -23187.53, 0.000029160963, 10.000056, 9.999095 
1.3749844e+3, 1.7430903e+2, -1301819.0, -1366502.6, -1733.8925, -0.07109753, 0.15805432, -1301772.5, -69981.61, 0.000000027808229, 9.999882, 9.999067 
1.3750057e+3, 1.8430783e+2, -1178369.9, -1255629.9, 1365.1989, -0.064937204, 0.14104003, -1178345.8, -44544.555, 0.0, 10.000065, 9.999063 
1.3750283e+3, 1.9430695e+2, -984446.9, -1101207.0, 10743.471, -0.009840228, 0.1143237, -983466.56, 52340.29, 0.0, 10.00068, 9.999154 
1.3750508e+3, 2.0430571e+2, -909798.25, -1148896.6, 1971.3734, -0.004774726, 0.1420453, -909782.0, 28036.803, 0.0, 10.001095, 9.997952 
1.375073e+3, 2.143039e+2, -792382.6, -1037633.9, -11523.17, -0.059035093, 0.13758014, -791842.44, 47997.51, 0.0, 10.001219, 9.997979 
1.375096e+3, 2.2430244e+2, -590130.5, -759250.75, -14592.8545, -0.04256603, 0.15204103, -588880.56, 152974.02, 0.0, 10.001383, 9.999137 
1.37512e+3, 2.3430133e+2, -453093.94, -619366.8, 36623.01, 0.06522189, 0.08302756, -445384.8, 198476.95, 0.0, 10.001554, 9.999342 
1.3751432e+3, 2.4430011e+2, -444717.84, -740067.5, 20138.188, 0.0845948, 0.11037906, -443351.06, 102521.89, 0.0, 10.001674, 9.997792 
1.375165e+3, 2.5429866e+2, -331753.1, -630110.94, 6561.41, -0.00031130915, 0.15673886, -331608.88, 116281.07, 0.0, 10.001763, 9.9978285 
1.3751878e+3, 2.642976e+2, -203714.0, -432961.06, -6774.563, -0.016073056, 0.24415077, -203513.97, 146387.5, 0.000000022673568, 10.001613, 9.998579 
1.3752115e+3, 2.7429676e+2, -159423.6, -338077.84, 12139.639, 0.053880777, 0.25889447, -158602.47, 93306.07, 0.0000066245593, 10.001152, 9.998773 
1.3752346e+3, 2.842952e+2, -162967.8, -461110.8, 18735.049, 0.011138707, 0.3058921, -161795.11, -7870.199, 0.000084736, 10.001193, 9.997232 
1.3752572e+3, 2.9429257e+2, 28692.242, -315417.53, -12235.743, -0.14029957, 0.2878656, 29126.768, 85080.96, 0.00038240643, 10.001811, 9.997269 
1.3752806e+3, 3.04289e+2, 190811.95, -97005.68, -57220.85, -0.18045875, 0.17152177, 201770.73, 201770.73, 0.0010237873, 10.002124, 9.998284 
1.3753022e+3, 3.1428722e+2, 243379.2, 166577.69, -11611.379, -0.30740657, 0.11440726, 245096.3, 245096.3, 0.0019802407, 10.001404, 10.000444 
1.3848838e+3, 1.2428523e+2, -1979156.1, -1720630.8, 131037.484, 0.23038074, 0.25887185, -1665829.3, 56200.816, 0.008351057, 9.997616, 10.001087 
1.3848981e+3, 1.3428661e+2, -1452256.6, -1382114.9, -103135.766, -0.14814754, 0.24787784, -1308250.3, 315764.56, 0.004803759, 10.0004425, 10.001394 
1.384921e+3, 1.4428826e+2, -1255535.9, -1271503.4, 58027.902, 0.19455971, 0.29295272, -1204945.0, 321051.84, 0.0019753822, 10.001248, 10.001082 
1.384942e+3, 1.542893e+2, -1338187.0, -1257917.5, -2584.3774, -0.016212387, 0.25892633, -1257834.4, 170149.77, 0.00045665295, 10.0000105, 10.001089 
1.3849632e+3, 1.6428912e+2, -1416430.9, -1482061.6, -59364.46, -0.095817894, 0.24308251, -1381415.6, -51430.715, 0.00003186285, 9.999827, 9.998966 
1.384985e+3, 1.7428741e+2, -1125782.1, -1292262.9, -39313.27, -0.05951969, 0.15314291, -1116965.5, 115037.02, 0.000000039188958, 10.001157, 9.998957 
1.385007e+3, 1.8428619e+2, -966436.6, -1207067.3, 17848.941, -0.018110003, 0.16258283, -965119.9, 168894.78, 0.0, 10.001745, 9.998589 
1.3850299e+3, 1.9428551e+2, -883360.6, -1099276.5, -16756.088, 0.03753927, 0.19988778, -882068.0, 153952.83, 0.0, 10.001583, 9.998723 
1.3850522e+3, 2.0428403e+2, -825246.0, -1103844.6, 22420.998, 0.016043613, 0.22378595, -823453.1, 114582.086, 0.0, 10.00166, 9.997987 
1.3850741e+3, 2.1428141e+2, -653826.0, -961476.1, 43992.43, -0.10150644, 0.13071989, -647658.9, 192402.42, 0.0, 10.002127, 9.998069 
1.385097e+3, 2.2427961e+2, -508316.84, -764372.44, 40662.684, -0.09773368, 0.12421861, -502014.56, 240064.33, 0.0, 10.002118, 9.998758 
1.3851215e+3, 2.342788e+2, -465222.53, -672057.06, -39162.37, 0.06285216, 0.12479896, -458055.8, 186030.95, 0.0, 10.001657, 9.998938 
1.3851447e+3, 2.4427785e+2, -455373.06, -702953.2, -36325.75, 0.10502219, 0.18651937, -450153.28, 95942.7, 0.0, 10.001433, 9.99815 
1.3851665e+3, 2.5427672e+2, -321176.22, -575408.5, 4159.621, -0.012910549, 0.22393931, -321108.2, 126999.32, 0.0, 10.001629, 9.998258 
1.3851893e+3, 2.6427555e+2, -208122.03, -476692.53, 32765.678, -0.020237477, 0.2906436, -204182.39, 145936.95, 0.0000000049794013, 10.001761, 9.998206 
1.3852134e+3, 2.7427405e+2, -77142.6, -347243.28, -19035.744, 0.111820176, 0.28279307, -75807.625, 176325.89, 0.0000064670485, 10.001913, 9.998349 
1.3852365e+3, 2.8427204e+2, -96345.95, -435728.38, 36829.504, 0.07574142, 0.3150145, -92395.234, 61759.793, 0.00007993784, 10.00167, 9.997188 
1.3852583e+3, 2.9426932e+2, -78795.83, -355008.5, 76298.68, -0.15907244, 0.28457513, -59121.15, -2934.2222, 0.00035406946, 10.001025, 9.997368 
1.3852817e+3, 3.042665e+2, 101480.805, -80202.914, 72446.336, -0.23043913, 0.2079654, 126831.516, 126831.516, 0.00094641367, 10.001221, 9.998845 
1.3853052e+3, 3.1426468e+2, 432815.1, 354279.66, -57767.727, -0.18244186, 0.08668125, 463397.66, 463397.66, 0.0018394237, 10.002254, 10.001334 
1.39488e+3, 1.2426454e+2, -1984015.5, -1707893.8, -11192.096, 0.03559978, 0.24856186, -1707440.9, 14789.978, 0.008733579, 9.9975395, 10.001201 
1.3948967e+3, 1.3426514e+2, -1431863.3, -1342799.8, 12956.917, -0.37194026, 0.13030374, -1340953.1, 283266.2, 0.005033633, 10.000456, 10.0016575 
1.3949212e+3, 1.4426546e+2, -1362467.4, -1506983.9, -3503.4783, 0.032731257, 0.10543083, -1362382.5, 163832.23, 0.002076125, 10.0013075, 9.999433 
1.3949415e+3, 1.5426576e+2, -1465527.0, -1520496.5, -37895.957, -0.07553252, 0.17679395, -1446198.1, -17982.234, 0.00048381835, 10.000001, 9.999291 
1.3949633e+3, 1.6426593e+2, -1353892.4, -1355814.6, -33730.08, -0.112119645, 0.25104997, -1321109.8, 9106.407, 0.000034571214, 9.999839, 9.99983 
1.394986e+3, 1.7426594e+2, -1060174.1, -1146539.0, 18979.775, -0.084064074, 0.22892037, -1056187.1, 176027.33, 0.00000005013657, 10.001114, 9.99998 
1.3950086e+3, 1.8426529e+2, -1002086.56, -1279812.4, -2204.9255, -0.06498923, 0.26605582, -1002069.06, 132151.98, 0.0, 10.0017395, 9.998092 
1.395031e+3, 1.9426365e+2, -939410.56, -1199384.5, -13474.568, -0.029674334, 0.2727946, -938714.06, 97525.5, 0.0, 10.001507, 9.998078 
1.3950536e+3, 2.0426196e+2, -786474.2, -996020.06, 24656.54, -0.0429789, 0.27403513, -783612.0, 154643.56, 0.0, 10.001543, 9.998783 
1.3950762e+3, 2.1426013e+2, -620466.4, -847740.44, 72045.6, -0.121591166, 0.17262875, -599552.5, 240716.27, 0.0, 10.001937, 9.998941 
1.3950992e+3, 2.2425859e+2, -639382.0, -1001461.2, 12637.991, -0.12850687, 0.2147659, -638941.44, 103343.84, 0.0, 10.001954, 9.997213 
1.3951224e+3, 2.3425731e+2, -608835.75, -937179.8, -40876.863, -0.023168774, 0.34028906, -603823.4, 40483.758, 0.0, 10.001505, 9.997194 
1.3951454e+3, 2.4425603e+2, -388451.75, -528857.9, -41735.383, 0.0018578095, 0.40005097, -376982.8, 169338.38, 0.0, 10.001282, 9.999418 
1.3951676e+3, 2.5425452e+2, -247937.27, -376931.34, 25496.443, -0.08040451, 0.25254935, -243080.61, 205246.27, 0.0, 10.001435, 9.999713 
1.3951908e+3, 2.6425225e+2, -288932.34, -610761.25, 25082.271, -0.068297654, 0.17569353, -286989.25, 63355.594, 0.0000000011462398, 10.001613, 9.997359 
1.3952154e+3, 2.7424896e+2, -176257.48, -512796.6, 5030.513, 0.078132235, 0.08803858, -176182.3, 76197.195, 0.0000063015364, 10.001733, 9.997305 
1.3952385e+3, 2.842468e+2, -40897.73, -284565.0, 5759.8657, 0.08689036, 0.1070606, -40761.652, 113641.445, 0.00007549819, 10.001516, 9.998297 
1.3952605e+3, 2.9424578e+2, -12991.057, -190670.14, 71780.22, -0.07358542, 0.122258544, 12383.516, 68798.74, 0.0003302392, 10.000903, 9.998558 
1.3952833e+3, 3.0424508e+2, 31656.574, -195920.33, 93668.5, -0.20214675, 0.23352845, 65250.617, 65250.617, 0.00088409375, 10.001102, 9.998102 
1.3953066e+3, 3.1424347e+2, 306200.3, 182109.1, 17246.244, -0.3279227, 0.21292126, 308552.63, 308552.63, 0.0017247383, 10.001879, 10.000325 
1.4048785e+3, 1.2424321e+2, -1747586.1, -1662656.0, -58044.098, 0.057469998, 0.23360746, -1633201.8, 89236.88, 0.009133226, 9.999409, 10.000632 
1.4048973e+3, 1.3424344e+2, -1551212.4, -1471305.9, -46764.188, -0.31962922, 0.14063844, -1449751.9, 174680.42, 0.005275387, 9.99992, 10.001039 
1.4049216e+3, 1.442431e+2, -1526175.4, -1616164.8, -89033.99, 0.010248327, 0.093832016, -1471412.5, 55022.285, 0.0021822979, 10.000316, 9.99916 
1.4049418e+3, 1.5424313e+2, -1356937.9, -1500019.8, -49559.3, -0.0825585, 0.16423166, -1341448.8, 86989.47, 0.00051218417, 10.000885, 9.999007 
1.4049634e+3, 1.6424313e+2, -1196131.6, -1301342.1, 46453.74, -0.1123708, 0.24726416, -1178556.8, 151883.36, 0.000037386584, 10.001012, 9.999637 
1.4049871e+3, 1.7424312e+2, -1095901.6, -1176188.8, -14323.787, -0.06008376, 0.23273508, -1093422.6, 139016.84, 0.00000006103049, 10.000924, 9.999861 
1.4050102e+3, 1.8424249e+2, -1080849.4, -1306927.9, -43577.8, -0.03471235, 0.27346408, -1072740.4, 61705.84, 0.0, 10.001158, 9.998186 
1.4050324e+3, 1.9424102e+2, -865243.75, -1149205.5, -28234.379, -0.04421802, 0.2824412, -862463.6, 173999.44, 0.0, 10.001952, 9.998211 
1.4050551e+3, 2.0423946e+2, -720375.6, -967869.75, 20604.215, -0.06849067, 0.2921032, -718672.0, 219805.72, 0.0, 10.002012, 9.998753 
1.4050776e+3, 2.1423778e+2, -716846.56, -889670.06, -25177.684, -0.12054221, 0.20553076, -713253.25, 127237.055, 0.0, 10.001267, 9.998966 
1.4051005e+3, 2.2423631e+2, -765515.3, -1044554.94, -27702.168, -0.114749946, 0.25087243, -762791.7, -20285.662, 0.0, 10.001041, 9.997345 
1.4051239e+3, 2.3423506e+2, -588261.44, -902426.1, 27660.309, -0.026478421, 0.36371258, -585844.7, 58682.293, 0.0, 10.001559, 9.9973955 
1.405147e+3, 2.4423364e+2, -324582.25, -509490.9, 79068.44, 0.013016148, 0.4027148, -295382.88, 251159.33, 0.0, 10.001765, 9.999325 
1.4051695e+3, 2.5423187e+2, -225888.9, -374457.66, 9653.275, -0.02863331, 0.23802644, -225264.3, 223286.6, 0.0, 10.001624, 9.99964 
1.4051926e+3, 2.6422966e+2, -272030.16, -565443.25, 19542.836, -0.030119024, 0.15499826, -270734.22, 79834.16, 0.0000000047036606, 10.001568, 9.997693 
1.4052165e+3, 2.7422696e+2, -149420.6, -451415.6, 61089.8, 0.032397576, 0.09256383, -137531.0, 115065.47, 0.000006310061, 10.001723, 9.997725 
1.4052397e+3, 2.8422514e+2, 33466.97, -248752.3, 102914.08, 0.042256057, 0.123918824, 67009.09, 221625.03, 0.00007173929, 10.002032, 9.998291 
1.4052626e+3, 2.9422414e+2, 215181.45, -83113.17, 54704.457, -0.0070483573, 0.14621484, 224897.28, 281524.47, 0.0003165935, 10.002494, 9.998528 
1.4052859e+3, 3.0422384e+2, 199593.55, -155057.28, 78043.49, -0.10715807, 0.31371465, 216007.88, 216007.88, 0.00085306884, 10.002432, 9.99774 
1.4053091e+3, 3.1422102e+2, 225049.23, 62304.156, -17167.563, -0.21699382, 0.21705872, 226840.48, 226840.48, 0.0016671325, 10.00166, 9.99961 
1.4148769e+3, 1.2422141e+2, -1816231.4, -1815122.6, -77448.66, -0.11491572, 0.20394875, -1738226.4, -15574.8, 0.009556688, 9.999451, 9.999565 
1.4148997e+3, 1.3422169e+2, -1661918.5, -1697944.0, -20642.695, -0.09108067, 0.27639732, -1652534.5, -27882.148, 0.0055341963, 9.999907, 9.999488 
1.4149222e+3, 1.4422113e+2, -1445812.9, -1455988.0, -85952.625, -0.014046599, 0.2346814, -1364797.4, 161860.86, 0.0022969088, 10.000344, 10.000247 
1.4149424e+3, 1.5422148e+2, -1273763.8, -1326605.5, -16677.5, -0.13697544, 0.21973573, -1268940.4, 159710.22, 0.0005425403, 10.000882, 10.000201 
1.4149639e+3, 1.6422096e+2, -1266272.9, -1455557.1, 25575.463, -0.20661305, 0.2369923, -1262878.0, 67776.58, 0.000040406845, 10.001045, 9.998567 
1.414988e+3, 1.742192e+2, -1192072.3, -1363759.1, -6669.736, -0.09344581, 0.17930727, -1191813.5, 40861.63, 0.00000007226826, 10.00087, 9.998604 
1.4150116e+3, 1.8421803e+2, -1039052.25, -1212464.0, -30850.723, -0.04378585, 0.20174879, -1033727.25, 100960.63, 0.0, 10.001126, 9.998847 
1.4150341e+3, 1.9421758e+2, -822503.0, -1041274.3, 12078.633, -0.105693735, 0.2319106, -821838.1, 214853.0, 0.0, 10.00187, 9.99899 
1.4150563e+3, 2.0421647e+2, -785286.2, -1081769.3, -21535.203, -0.16274178, 0.27787182, -783730.1, 154972.06, 0.0, 10.001913, 9.998021 
1.4150783e+3, 2.1421437e+2, -804069.75, -1031850.56, -42163.54, -0.19282183, 0.23630968, -796515.56, 44209.605, 0.0, 10.00109, 9.998081 
1.4151013e+3, 2.2421281e+2, -670476.8, -803529.2, -25897.508, -0.16235979, 0.23744425, -665613.8, 77127.32, 0.0, 10.000853, 9.999087 
1.4151254e+3, 2.3421198e+2, -486920.66, -640291.75, 59580.99, -0.050650597, 0.1988698, -466495.1, 178252.56, 0.0, 10.001344, 9.999295 
1.415149e+3, 2.4421073e+2, -435479.8, -708491.44, 63354.605, 0.01711566, 0.21647115, -421494.28, 125264.75, 0.0, 10.001619, 9.998029 
1.415172e+3, 2.5420883e+2, -353089.3, -610182.06, 19239.729, 0.028116139, 0.18875568, -351657.47, 97121.164, 0.0, 10.001493, 9.998086 
1.4151946e+3, 2.642077e+2, -200430.28, -382785.38, 12625.689, -0.012888013, 0.23561269, -199560.27, 151229.1, 0.000000079284355, 10.001424, 9.999014 
1.4152166e+3, 2.7420753e+2, -67971.19, -244580.42, 82186.93, -0.13120075, 0.2699445, -35642.49, 217146.55, 0.000007370644, 10.001562, 9.999223 
1.4152399e+3, 2.842065e+2, -42534.777, -382367.06, 103997.195, -0.17202635, 0.34187785, -13235.178, 141563.88, 0.00007202747, 10.001922, 9.997426 
1.4152649e+3, 2.9420418e+2, 113141.53, -258951.23, 91701.37, -0.07255739, 0.3314487, 134513.56, 191338.67, 0.0003176136, 10.00232, 9.997412 
1.4152889e+3, 3.0420256e+2, 153215.19, -194324.42, 46374.832, -0.073209025, 0.4333123, 159296.9, 159296.9, 0.0008555456, 10.002213, 9.997559 
1.4153126e+3, 3.1419775e+2, 126282.1, -66459.54, 4103.8794, -0.083589114, 0.14652003, 126369.445, 126369.445, 0.0016671636, 10.001362, 9.99885 
1.424876e+3, 1.24198996e+2, -1763519.9, -1827430.6, -66622.69, -0.15392691, 0.18852884, -1721585.3, 1285.7219, 0.010011913, 9.999999, 9.999209 
1.4249006e+3, 1.3419938e+2, -1699484.0, -1771305.0, -1900.793, 0.033544958, 0.3284696, -1699433.8, -74560.51, 0.0058154534, 9.999931, 9.998957 
1.4249228e+3, 1.4419863e+2, -1454833.4, -1450144.0, -14515.901, 0.036878794, 0.2912434, -1437784.6, 89096.92, 0.002423067, 10.000254, 10.000322 
1.4249437e+3, 1.541988e+2, -1289065.6, -1317814.3, -63508.51, -0.08203251, 0.24610949, -1238325.0, 190549.03, 0.00057589856, 10.000728, 10.0003195 
1.4249651e+3, 1.6419809e+2, -1291225.6, -1501599.4, -25563.828, -0.18025404, 0.25151324, -1288163.8, 42715.508, 0.00004378684, 10.001009, 9.998269 
1.424989e+3, 1.7419621e+2, -1147263.5, -1379346.0, -14206.6045, -0.11086644, 0.21096861, -1146397.1, 86504.91, 0.00000008454083, 10.001325, 9.998281 
1.4250125e+3, 1.8419485e+2, -1000960.6, -1171098.3, 16237.615, -0.056256756, 0.22319686, -999424.8, 135491.78, 0.0, 10.001292, 9.999048 
1.4250356e+3, 1.9419421e+2, -939989.44, -1067251.6, -7608.9873, -0.074123785, 0.2107037, -939536.06, 97384.23, 0.0, 10.000939, 9.999256 
1.425058e+3, 2.0419332e+2, -947578.4, -1145707.0, -25470.12, -0.11290592, 0.25789878, -944356.5, -5427.238, 0.0, 10.000736, 9.99815 
1.4250796e+3, 2.1419188e+2, -829926.7, -1032194.7, -4001.018, -0.16450666, 0.270566, -829847.56, 11099.593, 0.0, 10.000845, 9.998203 
1.4251024e+3, 2.2419061e+2, -632895.9, -747853.0, 52971.68, -0.13824563, 0.2773194, -612209.3, 130750.75, 0.0, 10.000939, 9.999436 
1.4251268e+3, 2.3418961e+2, -488060.94, -599085.0, 1408.0524, -0.023555059, 0.185963, -488043.06, 156922.92, 0.0, 10.001142, 9.999684 
1.4251505e+3, 2.4418841e+2, -499388.3, -763740.2, -3576.1428, 0.03807205, 0.19760224, -499339.97, 47636.938, 0.0, 10.001299, 9.997804 
1.4251733e+3, 2.5418687e+2, -358947.88, -641365.3, 9628.745, 0.026628835, 0.23325114, -358619.97, 90375.71, 0.00000000006254562, 10.001578, 9.997831 
1.4251961e+3, 2.6418576e+2, -157769.05, -389838.5, 31059.822, -0.022591287, 0.3081213, -153683.95, 197323.67, 0.00000036239143, 10.001826, 9.998774 
1.4252184e+3, 2.741853e+2, -16624.145, -241268.25, -46244.21, -0.124605455, 0.33510134, -7476.9805, 245533.1, 0.000010087366, 10.001998, 9.999033 
1.4252421e+3, 2.8418398e+2, -18776.22, -371818.63, -27725.736, -0.15084602, 0.38965473, -16612.082, 138410.4, 0.00007869426, 10.002095, 9.997418 
1.4252672e+3, 2.941814e+2, 115023.125, -251553.69, -11269.403, -0.0503886, 0.3558818, 115369.24, 172419.08, 0.00033370158, 10.002316, 9.997461 
1.4252914e+3, 3.0417928e+2, 191274.4, -162537.66, -2329.0894, -0.021850571, 0.40061277, 191289.73, 191289.73, 0.00088820345, 10.00238, 9.997718 
1.425316e+3, 3.141749e+2, 191022.61, -65466.2, -55284.504, 0.1051964, 0.13430503, 202431.36, 202431.36, 0.0017209378, 10.001915, 9.998605 
1.4348768e+3, 1.2417673e+2, -1728697.8, -1765444.3, -29542.537, -0.13560696, 0.24019031, -1712281.1, 10808.364, 0.010506618, 10.000026, 9.999625 
1.4348999e+3, 1.341768e+2, -1676315.5, -1715988.8, 16231.171, -0.05176819, 0.30816236, -1670521.1, -45429.625, 0.006123269, 9.999904, 9.999342 
1.4349234e+3, 1.4417586e+2, -1503611.1, -1568395.6, -10956.526, 0.039462645, 0.2685776, -1501808.4, 25293.525, 0.002563054, 10.000315, 9.999489 
1.4349453e+3, 1.5417525e+2, -1359371.3, -1463689.0, -34574.566, -0.021722434, 0.24392022, -1348952.6, 80154.38, 0.0006133788, 10.000716, 9.999331 
1.4349666e+3, 1.6417459e+2, -1256096.4, -1432716.5, -32044.143, -0.15325263, 0.28564593, -1250462.4, 80651.37, 0.000047750204, 10.001024, 9.998738 
1.4349896e+3, 1.7417394e+2, -1106037.0, -1297747.3, 7373.8184, -0.20948744, 0.3118569, -1105753.9, 127368.29, 0.00000010052836, 10.001332, 9.998842 
1.435013e+3, 1.8417285e+2, -1017098.8, -1200043.1, -12289.025, -0.17751083, 0.33029282, -1016277.0, 118856.305, 0.0, 10.001273, 9.998859 
1.435037e+3, 1.9417101e+2, -972950.2, -1115174.3, -9889.006, -0.060371332, 0.2232392, -972265.9, 64884.215, 0.0, 10.000847, 9.998975 
1.4350598e+3, 2.041701e+2, -895653.9, -1013982.6, -38699.34, -0.04644421, 0.23703079, -884121.25, 55037.207, 0.0, 10.0006275, 9.9991045 
1.4350808e+3, 2.1417032e+2, -785966.0, -899208.7, 11389.34, -0.13937946, 0.31162092, -784831.9, 56324.414, 0.0, 10.000663, 9.999203 
1.4351034e+3, 2.2416976e+2, -729200.44, -901507.3, 46076.926, -0.14766102, 0.38076705, -717652.8, 25509.813, 0.0, 10.000748, 9.998469 
1.4351279e+3, 2.3416807e+2, -596786.06, -776180.1, 21623.168, -0.04484882, 0.33095, -594216.5, 50964.492, 0.0, 10.000944, 9.998559 
1.4351514e+3, 2.4416667e+2, -472545.53, -673107.1, -9081.082, -0.030323839, 0.35097843, -472135.2, 75060.25, 0.0, 10.00114, 9.998506 
1.4351736e+3, 2.5416565e+2, -326786.28, -534979.1, 31813.814, -0.1326249, 0.35774845, -322033.34, 127171.46, 0.000000006122379, 10.001408, 9.998645 
1.4351967e+3, 2.6416376e+2, -279688.2, -617028.5, 25059.14, -0.15894797, 0.37830624, -277836.84, 73387.0, 0.0000008787704, 10.001707, 9.997276 
1.4352211e+3, 2.7416056e+2, -153897.1, -500884.47, -20812.459, -0.06857912, 0.30404595, -152653.22, 100603.69, 0.000014147242, 10.001881, 9.997315 
1.4352456e+3, 2.8415796e+2, 7432.223, -290037.72, -29663.47, -0.028937252, 0.290966, 10361.397, 165644.06, 0.000090676054, 10.001973, 9.998037 
1.4352697e+3, 2.9415584e+2, 138029.2, -165659.47, 19385.025, -0.06878843, 0.22388624, 139261.58, 196563.13, 0.00036367134, 10.00214, 9.998142 
1.4352936e+3, 3.0415404e+2, 210069.14, -75596.32, -27981.924, -0.07560468, 0.23714572, 212784.25, 212784.25, 0.00095405465, 10.002202, 9.998389 
1.4353189e+3, 3.1415257e+2, 171423.42, -33940.063, -17873.152, 0.15241556, 0.19478305, 172967.36, 172967.36, 0.0018378863, 10.001616, 9.998967 
1.444877e+3, 1.2415276e+2, -1867483.3, -1731183.8, -82214.836, -0.03995222, 0.26936492, -1692545.6, 30782.86, 0.011047917, 9.998626, 10.000535 
1.4448991e+3, 1.3415295e+2, -1657585.9, -1611469.3, -30232.904, -0.08792912, 0.2545833, -1596505.0, 28818.02, 0.00646129, 9.999598, 10.00021 
1.4449234e+3, 1.4415212e+2, -1516888.6, -1630141.1, -6459.2075, 0.010801019, 0.20434979, -1516521.4, 10809.565, 0.0027186894, 10.000482, 9.998971 
1.4449462e+3, 1.5415134e+2, -1356517.5, -1528449.5, -40909.383, 0.0039650006, 0.22310355, -1347279.9, 82062.125, 0.0006559602, 10.001027, 9.998735 
1.4449684e+3, 1.6415079e+2, -1224690.6, -1382191.1, -13139.624, -0.08956363, 0.29476032, -1223602.0, 107747.46, 0.000052490832, 10.001104, 9.999036 
1.444991e+3, 1.7415062e+2, -1132608.4, -1259445.5, -14892.567, -0.16389133, 0.32836044, -1130883.3, 102467.74, 0.00000012546444, 10.000957, 9.9992695 
1.4450143e+3, 1.8414979e+2, -1079357.5, -1254349.6, -20669.605, -0.13995148, 0.3564451, -1076949.3, 58410.203, 0.0, 10.000935, 9.998654 
1.445038e+3, 1.9414787e+2, -945006.25, -1123530.0, -42224.887, -0.033166602, 0.26563257, -935522.9, 101855.91, 0.0, 10.001133, 9.998775 
1.4450608e+3, 2.041468e+2, -773995.8, -904444.56, -57059.438, -0.016828896, 0.25621554, -752559.94, 186828.4, 0.0, 10.001261, 9.999551 
1.4450823e+3, 2.1414676e+2, -644138.1, -768114.44, -74460.36, -0.095825635, 0.25309232, -609240.44, 232145.13, 0.0, 10.001382, 9.999753 
1.445105e+3, 2.2414625e+2, -613208.94, -871118.56, 3475.348, -0.1071118, 0.30726287, -613162.1, 130228.43, 0.0, 10.001644, 9.998251 
1.4451294e+3, 2.3414496e+2, -437795.88, -730447.1, 17143.564, -0.038358744, 0.32687458, -436795.03, 208612.14, 0.0, 10.002153, 9.998296 
1.445153e+3, 2.4414368e+2, -294527.8, -588762.4, 14779.934, -0.027840473, 0.37116373, -293787.25, 253633.95, 0.0, 10.002371, 9.9984865 
1.4451756e+3, 2.5414225e+2, -188476.47, -470934.72, -29298.316, -0.10800837, 0.33903193, -185469.48, 263963.3, 0.000000012932129, 10.002353, 9.998635 
1.4451991e+3, 2.6413995e+2, -180377.33, -591809.0, 6965.287, -0.12042142, 0.3289834, -180259.44, 171195.88, 0.0000016431604, 10.002506, 9.997055 
1.4452238e+3, 2.741364e+2, -1082.4152, -448405.75, 29140.674, -0.036848668, 0.2399055, 807.952, 254300.95, 0.000019343763, 10.003043, 9.997102 
1.4452483e+3, 2.841339e+2, 180461.66, -184183.98, 68514.26, 0.0010437438, 0.2415374, 192910.02, 348427.72, 0.00010742276, 10.003055, 9.998244 
1.4452721e+3, 2.9413274e+2, 169042.25, -115427.375, 58847.313, -0.02306581, 0.2424686, 180735.17, 238261.48, 0.00040939418, 10.002197, 9.99845 
1.4452961e+3, 3.0413073e+2, 225530.05, -87779.234, 41700.613, -0.040116582, 0.22292465, 230985.3, 230985.3, 0.0010586395, 10.002373, 9.9982395 
1.4453217e+3, 3.1412944e+2, 509828.1, 124696.66, -59475.367, 0.17919672, 0.21767266, 518803.63, 518803.63, 0.0020274452, 10.003965, 9.998926 
1.4548776e+3, 1.2412727e+2, -1768747.4, -1546798.3, -162732.11, 0.09184785, 0.2588178, -1460803.1, 262782.88, 0.011640448, 9.998704, 10.001781 
1.4548981e+3, 1.3412803e+2, -1573036.8, -1424965.9, 28576.725, -0.16996415, 0.16124691, -1419642.3, 205923.95, 0.0068325973, 9.999542, 10.00153 
1.4549224e+3, 1.4412753e+2, -1537064.0, -1671423.9, 3484.1338, -0.18925327, 0.09563465, -1536973.8, -9406.529, 0.0028915813, 10.000483, 9.998684 
1.4549462e+3, 1.5412709e+2, -1382675.9, -1573441.9, -10979.355, -0.12281492, 0.17532471, -1382046.0, 47533.055, 0.00070428615, 10.000995, 9.998439 
1.4549696e+3, 1.641268e+2, -1201463.4, -1349014.8, -35327.965, -0.10450796, 0.2798516, -1193441.1, 138144.39, 0.000058062662, 10.00116, 9.999241 
1.454993e+3, 1.7412639e+2, -1118489.0, -1228384.8, -8098.2256, -0.07211122, 0.2657709, -1117895.5, 115691.984, 0.00000016567238, 10.000941, 9.999495 
1.4550163e+3, 1.8412572e+2, -1091331.3, -1277195.0, -28864.47, -0.05727068, 0.3051323, -1086951.9, 48642.35, 0.0, 10.000925, 9.998505 
1.4550388e+3, 1.9412483e+2, -973318.44, -1164546.9, -23548.084, -0.09165528, 0.33882034, -970461.4, 67145.03, 0.0, 10.001051, 9.998539 
1.4550611e+3, 2.0412344e+2, -798788.56, -923171.3, -67050.04, -0.12981471, 0.31518075, -769527.94, 170091.56, 0.0, 10.001126, 9.999483 
1.4550833e+3, 2.1412121e+2, -675646.94, -787350.2, -58547.125, -0.14008024, 0.09494279, -650583.94, 191051.22, 0.0, 10.00119, 9.999711 
1.4551064e+3, 2.2412004e+2, -598689.56, -798465.4, 6501.884, -0.13418812, 0.06001129, -598478.2, 145166.08, 0.0, 10.001457, 9.99884 
1.455131e+3, 2.3412044e+2, -431373.6, -659659.94, 49319.688, -0.11030713, 0.18471177, -421174.13, 224469.58, 0.0, 10.001913, 9.998895 
1.4551553e+3, 2.441196e+2, -364824.56, -698422.6, 3670.807, -0.06991342, 0.27375564, -364784.2, 182868.83, 0.0, 10.0022, 9.997824 
1.455179e+3, 2.5411698e+2, -262098.92, -593251.8, -14653.285, -0.0065704584, 0.19734631, -261451.78, 188225.25, 0.000000017460069, 10.0022135, 9.997869 
1.4552027e+3, 2.641146e+2, -142858.56, -480989.44, 15619.269, -0.025677226, 0.18370092, -142138.6, 209561.28, 0.000002726617, 10.00236, 9.997886 
1.4552261e+3, 2.741125e+2, 33688.79, -323728.06, 63310.313, -0.1457592, 0.14081006, 44571.76, 298293.34, 0.000025176965, 10.002822, 9.998059 
1.45525e+3, 2.841115e+2, 151750.34, -190682.69, 26186.03, -0.15949084, 0.2381492, 153741.23, 309472.78, 0.00012772917, 10.0028305, 9.998308 
1.4552745e+3, 2.941119e+2, 144609.0, -126536.35, 43659.46, -0.03204766, 0.39651662, 151465.6, 209192.36, 0.00046719576, 10.002024, 9.998463 
1.4552987e+3, 3.0410928e+2, 132676.81, -242743.6, 82279.09, -0.033175644, 0.35682768, 149917.75, 149917.75, 0.0011939924, 10.002205, 9.997257 
1.4553243e+3, 3.1410506e+2, 407020.0, -6390.208, 47738.188, -0.022449786, 0.16850963, 412460.9, 412460.9, 0.0022782013, 10.003605, 9.998202 
1.4648779e+3, 1.24104545e+2, -1581317.9, -1468720.0, -3765.4675, 0.19476144, 0.3383986, -1468594.3, 255218.31, 0.012283002, 10.000045, 10.001682 
1.464899e+3, 1.3410498e+2, -1570636.3, -1450759.1, 32118.57, -0.02868025, 0.22894691, -1442696.0, 183099.69, 0.00723705, 9.999679, 10.001285 
1.4649226e+3, 1.441043e+2, -1726312.9, -1753648.3, 14456.243, -0.13513474, 0.16080944, -1720086.1, -192288.67, 0.0030819494, 9.999112, 9.9988 
1.464947e+3, 1.5410356e+2, -1504487.6, -1597374.4, 19656.545, -0.08454192, 0.1799651, -1500499.1, -70689.06, 0.0007585455, 9.999982, 9.998776 
1.464971e+3, 1.6410312e+2, -1303332.5, -1383966.4, 21020.918, -0.036583938, 0.2433251, -1298181.5, 33634.957, 0.00006440502, 10.000407, 9.99936 
1.4649944e+3, 1.7410266e+2, -1180597.0, -1248672.3, 5387.1616, -0.0071943314, 0.21681227, -1180173.4, 53645.0, 0.00000022299002, 10.000471, 9.999583 
1.4650175e+3, 1.8410204e+2, -1135441.3, -1289526.5, 24076.621, -0.011607497, 0.25669247, -1131766.9, 4057.5354, 0.0, 10.000614, 9.998556 
1.4650401e+3, 1.9410141e+2, -954470.1, -1141908.1, 22188.748, -0.06802392, 0.30603448, -951879.25, 85954.89, 0.0, 10.001145, 9.998633 
1.4650625e+3, 2.0410018e+2, -815371.75, -975677.7, -10722.019, -0.09614354, 0.3097212, -814657.8, 125188.914, 0.0, 10.001187, 9.999104 
1.4650847e+3, 2.1409804e+2, -780247.8, -880272.56, -50698.234, -0.07876318, 0.14025763, -759045.4, 82818.32, 0.0, 10.000647, 9.999341 
1.4651081e+3, 2.2409686e+2, -714923.6, -843294.56, 39373.96, -0.068137266, 0.120097496, -703809.1, 40064.676, 0.0, 10.000629, 9.998925 
1.465133e+3, 2.3409688e+2, -477197.28, -667462.25, 19749.762, -0.07458555, 0.1948838, -475168.84, 170707.0, 0.0, 10.001536, 9.999023 
1.4651576e+3, 2.4409583e+2, -354505.8, -678737.25, -9334.6455, -0.038882703, 0.24912408, -354237.28, 193648.95, 0.0, 10.00222, 9.997946 
1.465182e+3, 2.540933e+2, -177460.83, -533248.06, 5590.8574, 0.044777196, 0.17040144, -177373.0, 272535.13, 0.000000044837254, 10.002726, 9.998026 
1.4652056e+3, 2.64091e+2, -114075.164, -469814.88, 46746.008, 0.02142985, 0.15960792, -108035.055, 243893.86, 0.0000038968087, 10.002552, 9.997881 
1.4652282e+3, 2.740891e+2, -166002.72, -427283.84, 4261.834, -0.14610529, 0.14206648, -165933.22, 88015.08, 0.000030518888, 10.001449, 9.998029 
1.4652519e+3, 2.8408784e+2, -87274.47, -317941.53, -28623.277, -0.16444154, 0.21890303, -83775.7, 72185.414, 0.00014669269, 10.00124, 9.998199 
1.4652771e+3, 2.9408747e+2, 181191.88, -119459.74, -66131.15, 0.01269812, 0.31353825, 195095.11, 253059.48, 0.00052426284, 10.002334, 9.998353 
1.4653017e+3, 3.0408487e+2, 196356.06, -221030.63, 29772.48, 0.026300037, 0.2890225, 198469.06, 198469.06, 0.0013359416, 10.002706, 9.997141 
1.4653274e+3, 3.1408197e+2, 202082.89, -63748.04, 33899.2, 0.04594299, 0.24122551, 206337.67, 206337.67, 0.0025510115, 10.002008, 9.998566 
1.4748757e+3, 1.2408374e+2, -1668484.1, -1656517.8, -3416.4749, -0.09419672, 0.43106994, -1655611.0, 68405.26, 0.012969953, 10.000097, 10.00033 
1.4749013e+3, 1.340839e+2, -1708432.4, -1727683.1, 27.532347, 0.18942212, 0.4720757, -1708432.4, -82421.48, 0.0076708426, 9.999649, 9.99938 
1.474924e+3, 1.440825e+2, -1666600.1, -1647057.3, 13377.352, 0.04765018, 0.40462276, -1640262.6, -112241.55, 0.0032881629, 9.999173, 9.999509 
1.4749482e+3, 1.5408096e+2, -1440841.3, -1457054.0, 64257.89, 0.019757224, 0.24975742, -1384180.4, 45852.387, 0.00081847684, 9.999943, 9.999763 
1.474972e+3, 1.6407993e+2, -1293773.0, -1377835.8, 9861.458, -0.009715944, 0.2003142, -1292631.6, 39408.63, 0.000071419374, 10.000458, 9.999378 
1.4749944e+3, 1.740796e+2, -1192824.5, -1266432.5, 16930.652, -0.08117258, 0.18960576, -1189117.0, 44925.207, 0.0000002932695, 10.00044, 9.999473 
1.4750174e+3, 1.8407887e+2, -1116031.1, -1257368.3, 26173.156, -0.11379097, 0.21653014, -1111340.0, 24708.732, 0.0, 10.000634, 9.998774 
1.4750415e+3, 1.9407757e+2, -944990.25, -1108742.8, 51690.387, -0.0679565, 0.17164402, -930038.75, 108023.88, 0.0, 10.001079, 9.9989 
1.4750646e+3, 2.0407693e+2, -867161.3, -1060895.1, -45773.793, -0.034436233, 0.24553546, -856890.75, 83180.16, 0.0, 10.00109, 9.998563 
1.4750862e+3, 2.1407734e+2, -852573.44, -989283.3, -62476.02, -0.017262539, 0.3909233, -828323.6, 13747.149, 0.0, 10.000474, 9.998674 
1.4751093e+3, 2.2407666e+2, -768194.94, -921009.5, 53871.39, -0.016613293, 0.48108572, -751113.2, -7033.563, 0.0, 10.000478, 9.998471 
1.475135e+3, 2.3407435e+2, -529765.44, -739837.44, 66819.79, -0.037403468, 0.36479202, -510312.7, 135790.19, 0.0, 10.001375, 9.998608 
1.47516e+3, 2.4407238e+2, -318304.44, -573015.25, -3844.4502, -0.05616502, 0.3117602, -318246.44, 229873.83, 0.0, 10.002078, 9.998744 
1.475184e+3, 2.5407085e+2, -142924.17, -417073.84, 34581.81, -0.05661363, 0.2417618, -138629.23, 311500.03, 0.000000082863835, 10.002529, 9.99892 
1.4752072e+3, 2.6406893e+2, -187666.97, -582091.3, -1339.6514, -0.08717203, 0.24934384, -187662.42, 164482.69, 0.0000048986644, 10.002375, 9.997192 
1.4752296e+3, 2.7406627e+2, -240345.3, -555687.5, -17396.686, -0.15575092, 0.23507905, -239388.45, 14784.105, 0.00003489947, 10.001338, 9.997195 
1.4752536e+3, 2.8406316e+2, -136482.08, -403348.13, -7131.218, -0.14491299, 0.19792375, -136291.66, 19911.727, 0.00016199038, 10.001156, 9.99766 
1.4752793e+3, 2.940596e+2, 122289.93, -206465.78, -7314.108, -0.031395327, 0.01714221, 122452.57, 180689.86, 0.00057622173, 10.002176, 9.997835 
1.4753045e+3, 3.0405763e+2, 220598.03, -124444.81, -1768.5269, 0.0034364022, 0.051483996, 220607.1, 220607.1, 0.0014704264, 10.00251, 9.997894 
1.4753307e+3, 3.1405967e+2, 243176.0, 112638.266, 60754.055, 0.13009425, 0.4000697, 267075.97, 267075.97, 0.0028070426, 10.00163, 9.999955 
1.4848757e+3, 1.24060236e+2, -1761518.5, -1777762.1, -37636.746, -0.078068495, 0.39853555, -1731137.3, -6892.123, 0.013700781, 9.999773, 9.9996605 
1.4849018e+3, 1.3406006e+2, -1637984.1, -1773452.5, -60942.91, 0.2524122, 0.48443347, -1614603.1, 11643.978, 0.00813248, 10.000451, 9.998695 
1.4849246e+3, 1.4405873e+2, -1496222.0, -1538631.6, 44135.848, 0.14900719, 0.45206547, -1468461.4, 59796.664, 0.0035089266, 10.000266, 9.999708 
1.4849488e+3, 1.5405728e+2, -1361509.3, -1383172.1, 15963.938, 0.06892801, 0.2747559, -1353049.0, 77217.6, 0.0008836724, 10.000355, 10.000054 
1.4849725e+3, 1.6405623e+2, -1330643.1, -1435320.4, -61508.715, 0.010889462, 0.22510575, -1302218.8, 30055.074, 0.00007901186, 10.0004015, 9.999004 
1.484995e+3, 1.7405567e+2, -1182367.0, -1306032.3, -110814.93, -0.063701734, 0.23766798, -1117301.1, 116978.83, 0.00000037325287, 10.000716, 9.999069 
1.4850183e+3, 1.8405484e+2, -1043599.94, -1166396.0, -67142.664, -0.07794002, 0.25333345, -1014015.25, 122272.125, 0.0, 10.000886, 9.99928 
1.485043e+3, 1.9405365e+2, -886889.94, -1012793.2, -41970.773, -0.015072901, 0.16164517, -874181.44, 164115.06, 0.0, 10.001176, 9.999517 
1.4850666e+3, 2.0405316e+2, -794826.2, -1048709.0, -97442.88, 0.0224959, 0.22711495, -761738.75, 178563.73, 0.0, 10.001708, 9.998334 
1.4850882e+3, 2.1405369e+2, -547250.1, -871908.1, -118623.72, 0.02375537, 0.41784975, -508526.16, 333777.44, 0.0, 10.002711, 9.99839 
1.4851113e+3, 2.2405288e+2, -429351.8, -791656.25, 39169.523, 0.011341597, 0.51924866, -425165.5, 319149.8, 0.0, 10.002939, 9.998175 
1.4851367e+3, 2.3405014e+2, -432024.06, -723395.06, 36432.926, -0.03601332, 0.3887817, -427537.6, 218804.17, 0.0, 10.00217, 9.998339 
1.4851618e+3, 2.4404803e+2, -356360.8, -584124.8, -17545.703, -0.05238923, 0.33752182, -355017.13, 193343.2, 0.0, 10.001794, 9.998806 
1.4851865e+3, 2.5404692e+2, -203448.58, -433119.6, -62495.4, -0.020659056, 0.3004794, -187544.39, 262822.8, 0.00000011463164, 10.002066, 9.999033 
1.48521e+3, 2.6404527e+2, -129078.59, -520645.22, -87647.08, -0.041552827, 0.31643564, -110355.23, 242025.44, 0.000005857849, 10.00266, 9.997468 
1.4852323e+3, 2.740427e+2, 132225.27, -343517.88, -65321.582, -0.14581965, 0.28635147, 141031.22, 395436.25, 0.000039275426, 10.003782, 9.997469 
1.4852561e+3, 2.8403932e+2, 259961.4, -255471.38, 20760.408, -0.13608234, 0.225345, 260796.23, 417233.94, 0.00017769578, 10.004084, 9.997256 
1.4852825e+3, 2.9403505e+2, 240740.08, -201843.66, -6981.484, 0.031005425, 0.026424298, 240850.17, 299329.72, 0.0006295016, 10.003216, 9.997372 
1.4853075e+3, 3.0403325e+2, 238437.03, -78690.28, -5031.3237, 0.07487918, 0.091136925, 238516.84, 238516.84, 0.0015966473, 10.002442, 9.998263 
1.4853324e+3, 3.1403458e+2, 307949.1, 212071.64, -32428.879, 0.12552346, 0.3256969, 317887.4, 317887.4, 0.0030272538, 10.0017605, 10.0005865 
1.4948764e+3, 1.2403444e+2, -1722072.1, -1706897.8, -14950.4795, -0.03788781, 0.2994819, -1697719.5, 26775.547, 0.014485426, 9.999827, 10.000118 
1.4949003e+3, 1.3403375e+2, -1605072.8, -1690954.6, -40929.855, 0.031340174, 0.28169918, -1588691.0, 37810.414, 0.008627366, 10.000404, 9.999282 
1.4949241e+3, 1.4403321e+2, -1500012.1, -1578321.6, 21850.346, 0.042566516, 0.303749, -1494327.9, 34178.168, 0.0037456865, 10.000379, 9.999391 
1.4949483e+3, 1.5403272e+2, -1401377.8, -1468045.3, 29429.408, -0.056910597, 0.2753479, -1390245.5, 40263.938, 0.0009542572, 10.000352, 9.999482 
1.4949721e+3, 1.6403213e+2, -1369660.9, -1533705.4, -67471.26, -0.11198187, 0.33561298, -1345475.6, -12959.831, 0.00008722728, 10.00047, 9.998295 
1.4949961e+3, 1.7403091e+2, -1240385.1, -1420358.5, -89850.67, -0.053006656, 0.3582425, -1203207.5, 31323.895, 0.0000004647829, 10.000691, 9.998294 
1.4950201e+3, 1.8403004e+2, -983556.1, -1050499.3, -74034.586, -0.022733996, 0.37575042, -935778.3, 200760.94, 0.0, 10.000916, 10.000065 
1.4950444e+3, 1.9402982e+2, -837902.94, -888222.8, -21955.133, -0.02678233, 0.2868197, -829670.56, 208863.94, 0.0, 10.001075, 10.000422 
1.4950679e+3, 2.0402902e+2, -804797.2, -1045110.94, -77553.3, -0.03853526, 0.26753995, -781942.94, 158596.95, 0.0, 10.001592, 9.99842 
1.4950903e+3, 2.1402732e+2, -571786.4, -885335.25, -70916.37, -0.045295242, 0.23226614, -556492.94, 286068.0, 0.0, 10.002547, 9.998378 
1.4951135e+3, 2.2402571e+2, -462262.5, -823771.9, 565.864, -0.08406089, 0.2622584, -462261.63, 282317.3, 0.0, 10.002775, 9.998038 
1.4951377e+3, 2.3402426e+2, -469650.2, -759521.06, 19256.234, -0.1690791, 0.27513427, -468376.56, 178215.69, 0.0, 10.001984, 9.998183 
1.4951628e+3, 2.4402294e+2, -429305.13, -690583.25, -21268.373, -0.1461815, 0.33779535, -427585.16, 121020.555, 0.0, 10.001598, 9.998168 
1.4951894e+3, 2.5402164e+2, -274150.9, -546702.06, -34399.086, 0.04040128, 0.34942484, -269876.38, 180744.13, 0.00000015644366, 10.001918, 9.998326 
1.4952138e+3, 2.6402014e+2, -84782.4, -391582.63, -59005.74, 0.040134456, 0.37587893, -73825.37, 278808.6, 0.000006865855, 10.002499, 9.998431 
1.4952354e+3, 2.7401826e+2, 178816.61, -196149.63, -7720.779, -0.22544879, 0.3014863, 178975.52, 433621.97, 0.00004412461, 10.003567, 9.998585 
1.4952593e+3, 2.8401592e+2, 210473.5, -310809.13, -17545.086, -0.25901222, 0.2978554, 211063.36, 367730.25, 0.00019465707, 10.003869, 9.996984 
1.4952862e+3, 2.9401332e+2, 188039.61, -271963.34, -16459.434, 0.06155076, 0.3026195, 188627.8, 247323.33, 0.00068026903, 10.003036, 9.996983 
1.4953104e+3, 3.040115e+2, 202019.2, -104084.8, -40260.465, 0.10132061, 0.38551047, 207225.9, 207225.9, 0.001699818, 10.002242, 9.9981785 
1.4953314e+3, 3.1400698e+2, 240538.84, 132555.9, -14238.648, -0.18974136, 0.045717712, 242384.8, 242384.8, 0.0031843882, 10.001505, 10.000163 
1.5048769e+3, 1.24009386e+2, -1649317.9, -1657365.4, -32238.87, 0.019878328, 0.32338083, -1620852.6, 103889.04, 0.015336173, 10.000281, 10.000239 
1.5048997e+3, 1.3400851e+2, -1651561.0, -1658343.3, -81421.04, -0.017845029, 0.23042382, -1573460.5, 53288.492, 0.0091627855, 9.999832, 9.999787 
1.5049244e+3, 1.4400841e+2, -1583809.3, -1639244.4, 14556.845, 0.068322025, 0.27782947, -1580219.3, -51469.31, 0.0040015904, 9.999921, 9.999184 
1.5049489e+3, 1.5400858e+2, -1379000.9, -1483249.3, 8794.813, -0.03133675, 0.34259367, -1378264.1, 52485.51, 0.001031135, 10.000636, 9.999234 
1.5049729e+3, 1.6400811e+2, -1298056.9, -1477451.6, -24130.387, -0.08204132, 0.42094612, -1294867.8, 37887.55, 0.000096309515, 10.000845, 9.998513 
1.5049973e+3, 1.7400631e+2, -1202990.3, -1365025.3, 6146.042, 0.016527018, 0.35296708, -1202757.5, 32016.465, 0.000000575819, 10.000773, 9.998637 
1.5050216e+3, 1.8400532e+2, -1048357.5, -1063441.5, 64503.395, 0.07091045, 0.33169785, -990956.7, 145824.5, 0.0, 10.0004, 10.000215 
1.5050451e+3, 1.9400567e+2, -1007816.5, -949789.9, 32095.29, 0.024873022, 0.28320357, -935538.0, 103232.77, 0.0, 9.999828, 10.000588 
1.5050688e+3, 2.04005e+2, -1003100.2, -1144618.5, 27052.764, -0.0119818635, 0.2691341, -998105.1, -57330.504, 0.0, 10.000255, 9.9983835 
1.5050927e+3, 2.1400282e+2, -613707.7, -915509.25, 6243.2896, -0.03573929, 0.19660772, -613578.6, 229221.44, 0.0, 10.002297, 9.9983 
1.5051165e+3, 2.2400099e+2, -412553.4, -788929.94, 26185.266, -0.056415275, 0.2069713, -410740.38, 334079.3, 0.0, 10.003102, 9.998102 
1.5051405e+3, 2.339997e+2, -434365.72, -731459.56, 20180.229, -0.08685337, 0.22530158, -433001.25, 213829.28, 0.0, 10.002201, 9.998258 
1.5051654e+3, 2.4399818e+2, -389054.25, -728054.1, 70240.71, -0.06353311, 0.289886, -375076.7, 173769.25, 0.0, 10.002121, 9.997653 
1.5051918e+3, 2.5399646e+2, -115828.555, -532197.75, 40183.363, 0.030151036, 0.3139296, -111985.96, 338881.53, 0.00000020302433, 10.003278, 9.997761 
1.5052164e+3, 2.639948e+2, 69119.086, -313408.66, -8876.342, 0.0036962593, 0.35507664, 69324.95, 422208.8, 0.0000077496, 10.003537, 9.998467 
1.5052387e+3, 2.7399313e+2, 36545.12, -252367.63, -55454.027, -0.19538541, 0.29203808, 46823.336, 301717.5, 0.000048509926, 10.002518, 9.998709 
1.5052626e+3, 2.8399113e+2, -23532.982, -373074.44, -55427.76, -0.20401803, 0.29256305, -14954.196, 141956.92, 0.00020995413, 10.002053, 9.997426 
1.5052891e+3, 2.9398906e+2, 157008.95, -221402.97, -38945.29, 0.07501142, 0.3026759, 160975.53, 219908.83, 0.00072184385, 10.002577, 9.997526 
1.5053129e+3, 3.039878e+2, 292121.25, -143387.64, -14271.052, 0.08916268, 0.44143754, 292588.38, 292588.38, 0.0017670484, 10.003198, 9.997462 
1.5053335e+3, 3.1398252e+2, 421385.47, 59951.14, -86005.52, -0.2148522, 0.11766029, 440807.34, 440807.34, 0.0032593366, 10.003437, 9.998744 
1.5148774e+3, 1.2398615e+2, -1641009.8, -1678062.5, -195843.8, -0.031771284, 0.52622586, -1462818.0, 262156.72, 0.016257107, 10.000437, 10.000038 
1.5149e+3, 1.3398482e+2, -1647531.0, -1628333.3, -64343.93, -0.0015632208, 0.35101506, -1572876.1, 54109.313, 0.009740974, 9.999756, 10.000024 
1.5149248e+3, 1.4398475e+2, -1577332.9, -1657687.9, 19249.352, 0.07086852, 0.40302554, -1572959.6, -43973.945, 0.0042781597, 10.000035, 9.99901 
1.5149502e+3, 1.5398486e+2, -1384533.3, -1501915.8, 46002.57, 0.032982714, 0.47708544, -1368653.0, 62334.29, 0.0011151112, 10.000654, 9.999103 
1.5149747e+3, 1.6398422e+2, -1197093.9, -1287286.6, -43458.78, -0.022342337, 0.4857035, -1179561.6, 153430.55, 0.000106548556, 10.000921, 9.99978 
1.5149987e+3, 1.7398201e+2, -1106675.1, -1161695.9, 13788.334, 0.045584533, 0.23173001, -1103413.1, 131592.97, 0.0000007145684, 10.000752, 10.000046 
1.5150225e+3, 1.8398084e+2, -1072214.9, -1119279.3, 30860.428, 0.08462408, 0.13039774, -1056938.1, 80073.63, 0.0, 10.0004225, 9.999824 
1.5150455e+3, 1.9398125e+2, -1060479.4, -1044685.75, 20134.045, 0.03859678, 0.15172502, -1030955.3, 8049.426, 0.0, 9.999765, 9.99997 
1.5150693e+3, 2.0398119e+2, -1032244.2, -1182216.6, 78161.98, -0.014370317, 0.24016991, -998915.0, -57909.027, 0.0, 10.000151, 9.998179 
1.515095e+3, 2.1398033e+2, -652106.4, -950639.6, 95015.53, -0.05055768, 0.3157816, -624431.0, 218589.05, 0.0, 10.002101, 9.998156 
1.5151203e+3, 2.2397882e+2, -431128.5, -777399.4, -10343.398, -0.024775106, 0.35650107, -430819.8, 314216.97, 0.0, 10.002883, 9.998291 
1.5151447e+3, 2.3397632e+2, -442793.2, -713169.2, -918.33813, 0.09493074, 0.23622769, -442790.06, 204267.38, 0.0, 10.002044, 9.998463 
1.515169e+3, 2.4397379e+2, -442569.06, -804905.0, 91501.484, 0.07185781, 0.20618759, -420773.1, 128308.336, 0.0, 10.001965, 9.997207 
1.5151934e+3, 2.5397128e+2, -176288.77, -619789.1, 98058.336, -0.14935055, 0.2038771, -155575.38, 295534.28, 0.00000026346208, 10.003102, 9.9972515 
1.5152176e+3, 2.6396912e+2, -14173.06, -436518.44, -47949.492, -0.25493658, 0.25518054, -8797.698, 344334.84, 0.000008336701, 10.0033245, 9.9977255 
1.5152416e+3, 2.7396744e+2, -43211.277, -374668.66, -72885.6, -0.17926596, 0.2646574, -27892.156, 227255.58, 0.00005112129, 10.002341, 9.997953 
1.5152659e+3, 2.8396514e+2, 21494.873, -248577.02, -53464.52, -0.114539534, 0.23910485, 31693.777, 188861.72, 0.00022272031, 10.001911, 9.99835 
1.5152906e+3, 2.9396233e+2, 212819.72, -71928.25, 1527.0182, -0.052178934, 0.06150955, 212827.9, 272019.9, 0.000756888, 10.002425, 9.998627 
1.5153146e+3, 3.03962e+2, 173502.27, -329535.13, -13322.561, -0.08191412, 0.28120372, 173854.84, 173854.84, 0.0018089807, 10.002964, 9.9962845 
1.5153375e+3, 3.1396082e+2, 212062.9, -282157.8, -26657.572, -0.205836, 0.5113777, 213496.63, 213496.63, 0.0032733746, 10.003074, 9.996551 
1.5248773e+3, 1.2396206e+2, -1887020.5, -1846976.1, -78072.9, -0.015168501, 0.5153396, -1786398.9, -61191.99, 0.017244658, 9.998979, 9.999564 
1.5249012e+3, 1.3396025e+2, -1607320.3, -1684152.9, -39031.652, 0.12864496, 0.35529676, -1590970.9, 36253.957, 0.010359608, 10.000372, 9.999338 
1.5249252e+3, 1.4395963e+2, -1510080.9, -1615298.6, 36382.844, 0.099969685, 0.39100817, -1498725.8, 30506.414, 0.0045741852, 10.000467, 9.999084 
1.5249507e+3, 1.5396006e+2, -1476117.5, -1512135.9, 57845.613, 0.049568746, 0.46758598, -1433542.5, -2311.615, 0.0012060112, 9.999879, 9.9994 
1.5249752e+3, 1.6395974e+2, -1376235.1, -1309059.3, -7751.621, 0.015802711, 0.46886104, -1308176.4, 25055.527, 0.000118081814, 9.999451, 10.000333 
1.5249993e+3, 1.739582e+2, -1205440.3, -1137479.5, -42528.99, 0.08835882, 0.22277686, -1117022.9, 118214.81, 0.0000008766353, 9.999795, 10.000667 
1.5250231e+3, 1.8395722e+2, -1106311.4, -1182935.9, -30998.455, 0.119645216, 0.12843335, -1095341.4, 41900.145, 0.0, 10.000392, 9.99941 
1.5250461e+3, 1.9395718e+2, -822156.44, -991922.06, -62073.848, 0.04223855, 0.16061082, -801881.0, 237360.83, 0.0, 10.001659, 9.999431 
1.5250705e+3, 2.0395698e+2, -730100.75, -1002107.6, 48996.676, 0.000100828525, 0.25093132, -721544.1, 219701.16, 0.0, 10.002061, 9.998496 
1.5250972e+3, 2.1395646e+2, -754889.75, -952480.7, 84168.516, 0.017750362, 0.31705296, -723897.4, 119355.875, 0.0, 10.00118, 9.998584 
1.525123e+3, 2.239551e+2, -676140.56, -922703.0, 12101.203, 0.049752567, 0.35975325, -675548.06, 69719.805, 0.0, 10.001303, 9.998059 
1.5251471e+3, 2.3395254e+2, -329030.66, -689961.4, -38850.57, 0.091782905, 0.26078734, -324896.16, 322395.63, 0.0, 10.002959, 9.998179 
1.5251714e+3, 2.4395002e+2, -207418.28, -675638.75, 64559.82, 0.03296142, 0.24268769, -198679.64, 350636.7, 0.0, 10.003539, 9.99732 
1.525196e+3, 2.5394765e+2, -242605.45, -630215.5, 89425.766, -0.17247225, 0.23768768, -222968.8, 228372.67, 0.0000003530132, 10.002576, 9.997419 
1.5252203e+3, 2.6394537e+2, -195686.27, -548911.56, -536.7826, -0.251851, 0.2773417, -195685.44, 157679.8, 0.000008619123, 10.002172, 9.997513 
1.5252443e+3, 2.7394325e+2, -22022.236, -385765.28, -21192.18, -0.14664218, 0.2670764, -20791.713, 234595.28, 0.000051931653, 10.002584, 9.997753 
1.5252686e+3, 2.8394097e+2, 175450.13, -180100.73, 41507.37, -0.078431636, 0.2538583, 180231.44, 337639.72, 0.00023518385, 10.002996, 9.998306 
1.5252934e+3, 2.939386e+2, 360600.28, -7092.8677, -7809.227, -0.060540147, 0.12760264, 360766.06, 420193.78, 0.00079146493, 10.003457, 9.998594 
1.5253176e+3, 3.0393773e+2, 324568.9, -200358.53, -2034.0178, -0.09175182, 0.27355364, 324576.78, 324576.78, 0.0018451918, 10.003737, 9.996813 
1.5253411e+3, 3.1393686e+2, 249477.34, -267622.2, 60095.98, -0.1390905, 0.48131466, 256369.69, 256369.69, 0.0032714915, 10.003298, 9.996563 
1.5348762e+3, 1.23937145e+2, -1941121.6, -1970457.4, 28908.633, -0.074762166, 0.2676474, -1923372.5, -197935.03, 0.018294634, 9.9990225, 9.998695 
1.5349032e+3, 1.3393506e+2, -1725455.0, -1930024.8, 11186.289, 0.2701768, 0.24808937, -1724845.1, -97380.8, 0.011016667, 10.000378, 9.997647 
1.5349253e+3, 1.4393337e+2, -1468529.3, -1558655.5, -2765.5305, 0.015217697, 0.26063916, -1468444.5, 61041.047, 0.0048880493, 10.0005865, 9.999424 
1.5349494e+3, 1.5393442e+2, -1437060.4, -1413167.6, 43247.13, -0.095589355, 0.33186087, -1380247.1, 51230.574, 0.0013030368, 9.999811, 10.000114 
1.534974e+3, 1.6393498e+2, -1381322.5, -1336362.1, -16932.06, -0.08047851, 0.39079353, -1330698.9, 2772.9922, 0.00013086536, 9.999512, 10.000121 
1.5349989e+3, 1.7393494e+2, -1231344.3, -1187665.9, -20412.496, 0.04970704, 0.33131236, -1179611.6, 55856.258, 0.0000010420176, 9.99978, 10.00033 
1.5350232e+3, 1.8393454e+2, -1134180.9, -1253407.5, -3350.0918, 0.061693337, 0.33609125, -1134086.9, 3382.9678, 0.0, 10.000439, 9.998905 
1.5350468e+3, 1.9393349e+2, -863830.06, -1065772.1, -5114.4478, -0.06810622, 0.31271058, -863700.6, 175781.19, 0.0, 10.001598, 9.998955 
1.5350719e+3, 2.0393237e+2, -693059.75, -887965.94, 11099.764, -0.08667654, 0.30080354, -692429.7, 249062.55, 0.0, 10.001905, 9.9993515 
1.535099e+3, 2.1393123e+2, -714631.5, -823567.5, 62154.273, 0.061009, 0.20446965, -686456.2, 157043.38, 0.0, 10.000988, 9.999559 
1.5351243e+3, 2.239299e+2, -746783.6, -1022141.25, 52228.21, 0.049907602, 0.22384858, -737210.1, 8302.235, 0.0, 10.001095, 9.997478 
1.5351474e+3, 2.3392832e+2, -408693.1, -810480.2, 39133.492, -0.18173614, 0.29635328, -404917.03, 242616.2, 0.0, 10.00276, 9.997451 
1.535172e+3, 2.4392678e+2, -204827.78, -609300.6, 27872.97, -0.28253466, 0.38741565, -202916.03, 346635.38, 0.0, 10.0032835, 9.997896 
1.5351987e+3, 2.539253e+2, -222224.1, -543204.44, 67901.78, -0.16181953, 0.40250498, -208450.83, 243113.83, 0.0000004707298, 10.002391, 9.998104 
1.5352239e+3, 2.639233e+2, -198693.92, -518474.28, -4597.608, -0.12613538, 0.41558096, -198627.83, 154956.61, 0.0000086272985, 10.00201, 9.997802 
1.5352464e+3, 2.739204e+2, -24319.725, -360314.88, 5226.657, -0.2176834, 0.30347952, -24238.44, 231375.52, 0.000052741245, 10.002453, 9.997993 
1.5352704e+3, 2.8391823e+2, 84352.875, -332829.25, 45778.24, -0.21702857, 0.33302772, 89317.14, 246952.75, 0.00024875673, 10.0028305, 9.997343 
1.5352969e+3, 2.9391733e+2, 253173.31, -183966.86, 35371.016, -0.08538993, 0.45852554, 256016.84, 315661.2, 0.0008280964, 10.003251, 9.9974785 
1.5353216e+3, 3.0391476e+2, 420486.9, 60890.883, -23532.26, -0.08060943, 0.41083357, 422020.34, 422020.34, 0.0018910866, 10.0034895, 9.998721 
1.5353438e+3, 3.1391102e+2, 344239.88, 20690.525, 80924.44, -0.2459888, 0.099777974, 363351.38, 363351.38, 0.0032980533, 10.00294, 9.998702 
1.5448764e+3, 1.2391067e+2, -1747033.1, -1821108.5, -32072.262, 0.017093804, 0.11489593, -1735076.8, -9385.579, 0.019406972, 10.000109, 9.999188 
1.5449035e+3, 1.3390963e+2, -1671972.3, -1864651.9, -30611.533, 0.2492056, 0.1583348, -1667225.9, -39518.4, 0.0117135905, 10.000547, 9.998013 
1.5449256e+3, 1.4390868e+2, -1584635.8, -1607358.9, 42640.84, 0.030845968, 0.22285825, -1551868.8, -22147.166, 0.0052204016, 9.999764, 9.999487 
1.5449497e+3, 1.5390924e+2, -1435009.9, -1410530.0, 17743.303, -0.029829571, 0.24189907, -1401214.4, 30505.666, 0.0014059248, 9.99979, 10.000158 
1.5449744e+3, 1.6390985e+2, -1292091.5, -1307200.3, 1016.2005, -0.011556336, 0.30863422, -1292023.4, 41692.418, 0.00014487762, 10.000194, 9.999978 
1.5449989e+3, 1.7391081e+2, -1008637.0, -1101263.4, -13878.418, -0.0006146798, 0.36132863, -1006602.25, 229102.73, 0.000001197513, 10.001386, 10.000145 
1.5450235e+3, 1.8391076e+2, -992940.06, -1200048.3, 23920.535, -0.006106102, 0.4189127, -990213.2, 147492.4, 0.0, 10.001496, 9.998749 
1.5450484e+3, 1.939093e+2, -1061355.8, -1172328.0, 21689.582, -0.0069395867, 0.36925215, -1057267.3, -17545.021, 0.0, 10.000318, 9.998832 
1.5450738e+3, 2.0390788e+2, -946718.8, -1000684.5, 57707.902, 0.020008516, 0.3296606, -909997.06, 31738.533, 0.0, 10.000131, 9.999435 
1.5451004e+3, 2.1390666e+2, -624384.25, -765704.3, 18082.857, 0.07136508, 0.21515347, -622107.1, 221635.42, 0.0, 10.0015545, 9.999685 
1.5451255e+3, 2.2390549e+2, -574514.94, -904573.25, 34550.297, 0.022587547, 0.23061962, -570937.0, 174816.17, 0.0, 10.002148, 9.997773 
1.5451495e+3, 2.3390442e+2, -565374.7, -847474.9, 65549.9, -0.17895424, 0.32407892, -550887.25, 96881.96, 0.0, 10.00154, 9.997779 
1.5451744e+3, 2.4390312e+2, -458578.38, -686960.75, 88917.016, -0.25156885, 0.4057361, -428042.72, 121741.16, 0.000000000009610117, 10.001325, 9.9983225 
1.5452011e+3, 2.5390157e+2, -287530.03, -525552.2, 86469.37, -0.12317211, 0.36747012, -259433.7, 192361.98, 0.0000005675007, 10.001713, 9.998569 
1.5452264e+3, 2.6389962e+2, -177106.97, -526568.6, 45883.465, -0.076134555, 0.37314796, -171183.02, 182630.94, 0.000008574752, 10.002252, 9.997629 
1.5452494e+3, 2.738971e+2, 44458.05, -364879.16, -6579.8896, -0.17673936, 0.3309005, 44563.793, 300406.06, 0.00005426492, 10.0030775, 9.997671 
1.5452737e+3, 2.8389522e+2, 144268.55, -311703.03, 35909.28, -0.18137944, 0.40793917, 147079.2, 304942.03, 0.00026286932, 10.003298, 9.997238 
1.5452999e+3, 2.938942e+2, 154293.02, -245005.22, 57380.457, -0.06281407, 0.53145576, 162375.19, 222247.75, 0.0008684736, 10.002639, 9.99734 
1.5453249e+3, 3.0389053e+2, 331900.66, 20108.486, 31263.422, -0.05335211, 0.38189518, 335004.53, 335004.53, 0.0019580566, 10.002864, 9.998751 
1.5453482e+3, 3.1388745e+2, 544492.25, 140824.17, -71376.8, -0.17191385, 0.14192937, 556741.44, 556741.44, 0.003382468, 10.00421, 9.998927 
1.5548766e+3, 1.238826e+2, -1586837.9, -1512006.5, -6893.219, -0.04850049, 0.08286567, -1511376.9, 214592.11, 0.020587768, 10.000228, 10.001279 
1.5549007e+3, 1.338839e+2, -1493442.8, -1474985.8, -49765.605, -0.09705071, 0.10475076, -1433600.3, 194354.1, 0.012455585, 10.000482, 10.000733 
1.5549256e+3, 1.4388557e+2, -1581457.1, -1616922.8, 13705.2, 0.021446915, 0.27875364, -1576778.3, -46838.273, 0.0055746003, 9.999822, 9.999398 
1.5549512e+3, 1.5388474e+2, -1477576.1, -1497458.9, 32948.813, 0.13467687, 0.20963752, -1453101.6, -21145.848, 0.001515748, 9.999792, 9.9995575 
1.5549761e+3, 1.6388462e+2, -1277558.5, -1303273.1, 27076.768, 0.10042446, 0.24126048, -1260441.4, 73519.61, 0.00016035176, 10.000294, 9.999965 
1.5549989e+3, 1.7388588e+2, -1008324.9, -1093779.5, 38219.56, -0.15776989, 0.3206692, -993725.44, 242222.81, 0.0000013687348, 10.001354, 10.000216 
1.5550233e+3, 1.8388607e+2, -980272.8, -1172260.3, -26256.328, -0.19367684, 0.3880518, -976746.75, 161200.27, 0.0, 10.00149, 9.998943 
1.55505e+3, 1.9388469e+2, -1061844.5, -1153592.8, -12009.354, 0.11541594, 0.32888684, -1060298.5, -20335.922, 0.0, 10.0002365, 9.999 
1.5550761e+3, 2.0388351e+2, -1003113.75, -1105472.6, 86661.78, 0.20147152, 0.33667955, -953647.3, -11672.003, 0.0, 10.000063, 9.998757 
1.5551008e+3, 2.1388277e+2, -698469.8, -887285.75, 84871.13, -0.042784505, 0.34723407, -665929.1, 178052.89, 0.0, 10.001399, 9.998936 
1.5551263e+3, 2.2388187e+2, -532403.1, -769567.2, 7730.547, -0.14784202, 0.38256994, -532151.4, 213838.83, 0.0, 10.001941, 9.9988 
1.5551528e+3, 2.3388067e+2, -503325.3, -687232.3, 54658.72, -0.02538211, 0.34407339, -488306.75, 159694.31, 0.0, 10.001397, 9.998952 
1.5551783e+3, 2.4387898e+2, -460705.4, -649535.44, 86809.4, -0.017189102, 0.30624452, -426862.63, 123152.34, 0.0, 10.001143, 9.998666 
1.5552026e+3, 2.5387654e+2, -292030.78, -497013.66, 111027.92, -0.15760593, 0.15127769, -243420.63, 208612.83, 0.0000005355393, 10.001552, 9.998842 
1.5552275e+3, 2.638745e+2, -252068.61, -641903.56, 63983.64, -0.2115161, 0.16408981, -241835.58, 112217.51, 0.000008556659, 10.002076, 9.996921 
1.5552531e+3, 2.7387345e+2, -44544.44, -503425.84, 41711.168, -0.12986659, 0.34201002, -40783.82, 215288.31, 0.000056489618, 10.002881, 9.996809 
1.555278e+3, 2.8387192e+2, 148015.94, -253493.52, 6328.7515, -0.091171786, 0.48068887, 148115.67, 306206.44, 0.00027893353, 10.00308, 9.997744 
1.5553023e+3, 2.9386926e+2, 178429.67, -150667.3, 49150.7, -0.12006717, 0.3697287, 185613.53, 245726.27, 0.0009152954, 10.002458, 9.998072 
1.555327e+3, 3.0386513e+2, 170682.78, -259052.28, 59752.867, -0.1459457, 0.21465191, 178836.47, 178836.47, 0.0020517935, 10.002643, 9.996927 
1.555353e+3, 3.1386524e+2, 378231.16, -87792.195, 26873.305, -0.15174372, 0.49179262, 379775.72, 379775.72, 0.003534902, 10.003746, 9.997557 
1.5648773e+3, 1.2385692e+2, -1622877.9, -1491940.9, 67711.7, 0.032503974, 0.15478331, -1463223.4, 263000.44, 0.021849003, 9.999822, 10.001627 
1.5648995e+3, 1.3385794e+2, -1606533.4, -1476639.3, -136372.36, -0.19623668, 0.11269733, -1390538.1, 237672.61, 0.013250772, 9.999459, 10.001233 
1.5649256e+3, 1.4386012e+2, -1559557.6, -1564329.4, -103245.99, 0.06854837, 0.28596532, -1458669.9, 71520.78, 0.0059556314, 9.999804, 9.999765 
1.5649515e+3, 1.5385985e+2, -1337453.0, -1402760.0, -50139.477, 0.13742928, 0.25084007, -1310271.6, 121928.26, 0.0016345053, 10.0006485, 9.999787 
1.5649761e+3, 1.6385992e+2, -1236781.4, -1274558.0, -3927.2737, 0.07100445, 0.28321669, -1236377.5, 97825.38, 0.00017771397, 10.000531, 10.000057 
1.5649998e+3, 1.7386077e+2, -1277325.6, -1213135.0, -10545.99, -0.1058993, 0.31612465, -1211446.9, 24746.895, 0.0000016137079, 9.999451, 10.000322 
1.5650247e+3, 1.8386073e+2, -1239418.0, -1288499.8, -31525.143, -0.10424243, 0.35041234, -1224007.8, -85813.42, 0.0, 9.999669, 9.9990225 
1.5650511e+3, 1.9385935e+2, -779522.2, -1012177.7, -46565.887, 0.11982592, 0.2824598, -770548.2, 269661.53, 0.0, 10.002137, 9.999057 
1.5650773e+3, 2.0385836e+2, -599113.44, -919617.5, 63126.938, 0.17758536, 0.31084907, -587128.06, 355093.25, 0.0, 10.002913, 9.998637 
1.5651025e+3, 2.1385817e+2, -703674.7, -898259.6, 77640.62, -0.014651838, 0.3874548, -676492.75, 167732.3, 0.0, 10.00144, 9.998816 
1.5651283e+3, 2.2385746e+2, -660656.6, -803261.6, 36619.41, -0.085039765, 0.439235, -651802.8, 94428.72, 0.0, 10.00092, 9.999062 
1.565155e+3, 2.3385607e+2, -402885.34, -598487.94, 2520.9807, 0.03031549, 0.34315723, -402852.84, 245389.0, 0.0, 10.001901, 9.999313 
1.5651806e+3, 2.4385425e+2, -296678.44, -606723.8, -2409.3418, 0.042605445, 0.28716058, -296659.72, 253596.52, 0.0, 10.002416, 9.998351 
1.5652049e+3, 2.5385183e+2, -223722.47, -506454.72, -49796.867, -0.10909915, 0.17691442, -215208.28, 237068.53, 0.00000039469393, 10.002199, 9.998463 
1.56523e+3, 2.6384974e+2, -241110.94, -601654.44, -65158.61, -0.15246546, 0.1897133, -229696.61, 124600.97, 0.000008163994, 10.002013, 9.997223 
1.5652563e+3, 2.7384827e+2, -164419.75, -516933.5, -31626.588, -0.038629666, 0.29431325, -161604.78, 94712.625, 0.000058543963, 10.001875, 9.997196 
1.5652815e+3, 2.8384656e+2, 26771.223, -286931.94, -5847.0093, -0.0029580386, 0.3839468, 26880.166, 185216.7, 0.00029613846, 10.002133, 9.997988 
1.5653051e+3, 2.9384413e+2, 271757.5, -85461.06, -34446.434, -0.09318724, 0.28444752, 275048.84, 335406.16, 0.00096598663, 10.003002, 9.998273 
1.56533e+3, 3.0384043e+2, 246359.02, -277301.66, 39260.78, -0.12980512, 0.18126267, 249286.19, 249286.19, 0.0021639143, 10.003365, 9.996455 
1.565357e+3, 3.1384113e+2, 270466.8, -144586.77, 73517.484, -0.05675345, 0.56783086, 283104.03, 283104.03, 0.003739025, 10.00294, 9.997576 
1.5748769e+3, 1.2383365e+2, -1703067.8, -1680585.9, -168993.75, -0.045225166, 0.32169512, -1522459.6, 203995.83, 0.023204513, 9.999906, 10.000284 
1.5748996e+3, 1.3383237e+2, -1735075.4, -1743065.1, -123013.24, -0.16573586, 0.23488815, -1615992.1, 12478.783, 0.014108494, 9.999462, 9.999386 
1.5749258e+3, 1.4383255e+2, -1480181.6, -1434398.5, -91124.13, 0.058355246, 0.26820335, -1363334.6, 167137.03, 0.0063687824, 9.999942, 10.000599 
1.5749498e+3, 1.5383464e+2, -1271495.5, -1260262.4, -12962.147, -0.116533674, 0.37086633, -1251752.3, 180700.11, 0.00176415, 10.000625, 10.000779 
1.574974e+3, 1.6383578e+2, -1209741.3, -1228745.9, -54271.867, -0.22124897, 0.44166762, -1164146.1, 170294.81, 0.00019721544, 10.000571, 10.000354 
1.575001e+3, 1.7383564e+2, -1267628.4, -1188465.1, -40400.89, 0.044962633, 0.35317266, -1171487.6, 64952.62, 0.0000019795527, 9.9994335, 10.0005 
1.5750271e+3, 1.8383496e+2, -1228962.1, -1283272.5, 33128.223, 0.14275488, 0.31319416, -1213281.8, -74835.67, 0.0, 9.999727, 9.999035 
1.5750514e+3, 1.9383353e+2, -797762.06, -1027409.9, 55529.78, -0.08829635, 0.24376325, -785039.56, 255422.06, 0.0, 10.002037, 9.999002 
1.5750769e+3, 2.0383266e+2, -590614.06, -877530.25, 9785.749, -0.16418315, 0.2696644, -590280.7, 352191.22, 0.0, 10.002796, 9.998985 
1.5751046e+3, 2.1383275e+2, -700806.6, -858378.4, 30161.758, 0.040836763, 0.33838144, -695230.5, 149242.39, 0.0, 10.001289, 9.999166 
1.5751311e+3, 2.2383219e+2, -705869.5, -859652.7, 53120.4, 0.08766493, 0.3974295, -689304.7, 57173.85, 0.0, 10.000758, 9.998751 
1.5751557e+3, 2.338306e+2, -459101.8, -671867.3, 49797.977, -0.103613295, 0.32305357, -448023.4, 200467.94, 0.0, 10.001715, 9.998899 
1.575181e+3, 2.43829e+2, -394268.6, -761543.75, -16811.74, -0.17946146, 0.3531812, -393500.66, 157005.97, 0.0, 10.002205, 9.99739 
1.5752077e+3, 2.5382745e+2, -323313.4, -675653.9, -44085.273, -0.07233288, 0.42958814, -317881.16, 134644.05, 0.00000029448665, 10.002031, 9.99738 
1.5752336e+3, 2.638252e+2, -190676.48, -456942.7, -78443.28, -0.0076860064, 0.44082353, -169285.25, 185262.2, 0.000007127328, 10.001835, 9.998306 
1.5752585e+3, 2.7382174e+2, -85887.33, -318931.0, -17909.334, -0.017929139, 0.20595187, -84519.03, 172057.61, 0.000059012113, 10.001723, 9.998631 
1.5752833e+3, 2.8381935e+2, -4527.441, -319986.78, 11084.013, -0.04701736, 0.15041788, -4138.471, 154460.05, 0.00030982727, 10.00199, 9.997828 
1.5753083e+3, 2.9381886e+2, 208706.92, -161529.77, 20323.447, -0.103167266, 0.27192193, 209819.2, 270425.16, 0.0010139171, 10.002768, 9.997861 
1.5753336e+3, 3.0381632e+2, 258988.81, -183640.23, 18663.566, -0.13731496, 0.284136, 259774.38, 259774.38, 0.002279307, 10.003101, 9.997209 
1.5753597e+3, 3.1381506e+2, 295100.25, 23076.477, 110231.63, -0.12576924, 0.3717988, 334160.5, 334160.5, 0.003959466, 10.002487, 9.998919 
1.5848766e+3, 1.2380941e+2, -1647550.8, -1681352.4, -186767.66, -0.08377907, 0.39176545, -1476920.8, 249776.81, 0.024665277, 10.000424, 10.000019 
1.5849003e+3, 1.3380714e+2, -1697433.8, -1802978.0, -33981.41, -0.055935025, 0.27492115, -1687439.4, -58716.21, 0.0150364665, 10.000059, 9.998679 
1.5849252e+3, 1.4380705e+2, -1448896.1, -1397765.6, 59994.926, 0.008624718, 0.30787653, -1358116.0, 172609.52, 0.0068181083, 10.000072, 10.000787 
1.5849493e+3, 1.5380886e+2, -1297231.1, -1244332.0, 50839.17, -0.19910245, 0.36121997, -1213473.6, 219231.78, 0.0019058621, 10.00032, 10.001038 
1.584974e+3, 1.638098e+2, -1220190.3, -1270579.6, -37464.457, -0.27356046, 0.41131496, -1200236.8, 134457.77, 0.0002187055, 10.000663, 10.000017 
1.5850022e+3, 1.7380928e+2, -974007.2, -1087936.6, -97239.97, 0.12713677, 0.3235826, -918275.0, 318424.38, 0.000002466339, 10.001639, 10.000118 
1.5850289e+3, 1.8380867e+2, -940988.4, -1112305.1, 631.5439, 0.27379394, 0.2987675, -940986.06, 197719.2, 0.0, 10.001581, 9.99931 
1.5850525e+3, 1.93808e+2, -1024039.56, -1092160.4, 30854.459, -0.083364464, 0.27094084, -1012142.3, 28569.62, 0.0, 10.000299, 9.99939 
1.585078e+3, 2.0380741e+2, -996582.4, -1071303.9, -1096.8898, -0.20360416, 0.30369145, -996566.3, -53847.805, 0.0, 9.999977, 9.999029 
1.5851063e+3, 2.13807e+2, -697817.44, -858909.4, -30986.143, 0.08214051, 0.32226104, -692062.8, 152662.14, 0.0, 10.001281, 9.999183 
1.5851331e+3, 2.238062e+2, -537787.44, -780885.5, 25754.703, 0.1593141, 0.35687009, -535088.9, 211644.28, 0.0, 10.001944, 9.998728 
1.5851574e+3, 2.3380487e+2, -437126.2, -667750.56, 26310.262, -0.105197266, 0.31920034, -434162.72, 214580.19, 0.0, 10.001898, 9.998856 
1.5851825e+3, 2.438033e+2, -467294.03, -791144.6, 709.33746, -0.19702989, 0.356499, -467292.47, 83465.57, 0.0, 10.001714, 9.997405 
1.5852097e+3, 2.5380152e+2, -413074.47, -719517.56, 12617.328, -0.03127518, 0.4109314, -412555.84, 40224.45, 0.00000023115544, 10.001436, 9.997358 
1.5852357e+3, 2.6379943e+2, -226162.95, -412874.53, 39656.25, 0.050440047, 0.41675186, -218089.36, 136711.61, 0.0000061293663, 10.00133, 9.998842 
1.5852602e+3, 2.737969e+2, -46428.313, -226010.27, 18350.104, -0.012873727, 0.20853475, -44572.434, 212246.95, 0.000060026516, 10.001694, 9.999269 
1.5852852e+3, 2.8379488e+2, -17306.85, -371814.06, 45552.523, -0.062658034, 0.18074538, -11547.142, 147289.4, 0.0003212461, 10.0021, 9.997413 
1.5853108e+3, 2.9379407e+2, 122591.05, -262465.16, 6280.2896, -0.09106379, 0.32303813, 122693.45, 183543.53, 0.0010569163, 10.002413, 9.997335 
1.5853369e+3, 3.0379185e+2, 237892.58, -127255.4, 6095.926, -0.08058805, 0.36212635, 237994.31, 237994.31, 0.002384318, 10.002646, 9.997846 
1.585363e+3, 3.137898e+2, 387443.25, 156091.17, 29252.83, -0.040317494, 0.31753835, 391084.72, 391084.72, 0.0041536926, 10.002719, 9.99976 
1.5948765e+3, 1.2378521e+2, -1565921.4, -1570229.5, -118248.56, -0.20807159, 0.41945636, -1449807.3, 277133.06, 0.026239868, 10.000628, 10.0007105 
1.5949018e+3, 1.3378237e+2, -1678294.5, -1767780.1, -25254.389, 0.075909264, 0.21062016, -1671659.3, -42692.836, 0.016040104, 10.0000725, 9.998913 
1.5949233e+3, 1.4378367e+2, -1466690.3, -1471897.9, 55297.08, -0.22689596, 0.39739692, -1413935.8, 117015.875, 0.0073062, 10.00021, 10.0002165 
1.5949497e+3, 1.5378278e+2, -1329564.3, -1324189.6, 70225.3, -0.21720627, 0.23364115, -1256600.3, 176356.1, 0.002060233, 10.000361, 10.000476 
1.5949759e+3, 1.6378225e+2, -1275945.6, -1407343.3, -21576.486, -0.1957942, 0.2124876, -1272493.4, 62467.59, 0.00024185247, 10.000751, 9.999036 
1.5950033e+3, 1.737819e+2, -1052245.5, -1245399.9, -51249.113, 0.057165142, 0.24441937, -1039490.0, 197479.2, 0.0000030340082, 10.00162, 9.999045 
1.5950298e+3, 1.837819e+2, -896770.0, -1032130.3, -52658.78, 0.17494951, 0.31840107, -878697.3, 260273.84, 0.0, 10.001622, 9.999843 
1.5950543e+3, 1.9378279e+2, -982193.56, -989306.56, -6118.3276, 0.02649694, 0.36932907, -978673.1, 62287.113, 0.0, 10.000231, 10.000129 
1.5950795e+3, 2.0378274e+2, -1024329.0, -1108718.8, 24778.695, -0.05628778, 0.42314845, -1017591.4, -74630.81, 0.0, 9.999889, 9.998813 
1.5951069e+3, 2.1378113e+2, -751028.9, -920694.6, 27885.018, 0.011785978, 0.35315728, -746563.4, 98416.0, 0.0, 10.00108, 9.998853 
1.5951338e+3, 2.237798e+2, -552442.56, -768532.2, 17479.45, 0.017520227, 0.3443143, -551037.75, 195954.83, 0.0, 10.001748, 9.998909 
1.5951596e+3, 2.3377904e+2, -451592.38, -652303.7, 40634.5, -0.08169997, 0.3361301, -443677.9, 205317.3, 0.0, 10.001696, 9.999062 
1.5951853e+3, 2.4377732e+2, -446421.53, -697959.8, -15548.085, -0.13387334, 0.3139963, -445464.1, 105545.35, 0.0, 10.0015, 9.998145 
1.5952107e+3, 2.537741e+2, -381482.94, -605516.1, 15466.757, -0.08708483, 0.14212729, -380420.2, 72621.99, 0.00000009760233, 10.001241, 9.998226 
1.595236e+3, 2.6377246e+2, -251114.44, -433280.0, 38058.86, -0.07190414, 0.14473176, -243482.73, 111575.76, 0.0000054247644, 10.001187, 9.998774 
1.595261e+3, 2.7377343e+2, -85302.87, -269118.8, 46175.074, -0.12071195, 0.3024463, -74355.54, 182691.9, 0.0000627863, 10.001527, 9.999053 
1.5952864e+3, 2.837728e+2, -91948.125, -481187.5, 43357.42, -0.16376407, 0.45057815, -87177.02, 71877.85, 0.0003316825, 10.001902, 9.99676 
1.5953127e+3, 2.937695e+2, 46557.273, -373147.94, 38324.62, -0.18762352, 0.41746476, 50028.113, 111121.18, 0.0010853008, 10.002208, 9.996678 
1.5953395e+3, 3.0376676e+2, 221532.56, -91946.79, -3944.769, -0.10199841, 0.42504936, 221582.2, 221582.2, 0.002449286, 10.002374, 9.99821 
1.5953663e+3, 3.1376544e+2, 320327.25, 145696.17, 77289.19, -0.025496665, 0.39759645, 349620.56, 349620.56, 0.0042658485, 10.002199, 9.999928 
1.604876e+3, 1.2376058e+2, -1754041.8, -1671397.6, -3567.203, -0.22824349, 0.44850573, -1671243.9, 55938.715, 0.027939666, 9.999406, 10.000577 
1.6049026e+3, 1.3375786e+2, -1582247.9, -1692083.9, -68779.805, 0.12360632, 0.2308967, -1549150.8, 80056.61, 0.01712635, 10.000652, 9.999142 
1.6049242e+3, 1.4375898e+2, -1433272.9, -1509760.4, 29899.379, -0.17239118, 0.41804415, -1422972.3, 108221.55, 0.007836914, 10.0007105, 9.99969 
1.6049509e+3, 1.5375733e+2, -1360569.8, -1391038.6, 9384.999, -0.12496486, 0.22602764, -1357911.0, 75295.414, 0.0022287087, 10.000397, 9.999977 
1.6049771e+3, 1.6375636e+2, -1356220.4, -1452805.5, 3061.2502, -0.09351121, 0.18980508, -1356123.5, -20908.188, 0.00026665046, 10.00024, 9.998965 
1.6050039e+3, 1.7375623e+2, -1164170.1, -1298037.5, 31553.557, 0.0015016303, 0.24797434, -1157105.5, 80115.07, 0.0000036433328, 10.000848, 9.99906 
1.6050303e+3, 1.8375635e+2, -944429.56, -1067667.6, 38036.324, 0.08107415, 0.33711982, -933635.44, 205585.63, 0.0, 10.001342, 9.999735 
1.6050558e+3, 1.9375691e+2, -730676.0, -881250.94, -9586.332, 0.08452734, 0.3663059, -730068.1, 311145.22, 0.0, 10.001995, 10.000022 
1.6050816e+3, 2.0375656e+2, -720583.1, -987799.0, 30264.719, 0.060149338, 0.4067135, -717198.25, 226018.56, 0.0, 10.002108, 9.998569 
1.6051081e+3, 2.1375483e+2, -694964.0, -919260.25, 14436.564, -0.0010050782, 0.35366592, -694038.6, 151198.22, 0.0, 10.001598, 9.998606 
1.6051346e+3, 2.2375341e+2, -620735.2, -774323.7, 14319.791, -0.025118606, 0.33935314, -619411.44, 127839.6, 0.0, 10.0011635, 9.999141 
1.6051614e+3, 2.3375258e+2, -530717.1, -645129.75, 13807.988, -0.009833495, 0.29183352, -529074.25, 120179.49, 0.0, 10.00097, 9.999435 
1.6051875e+3, 2.4375127e+2, -455381.97, -630922.9, -3659.6462, -0.0319479, 0.25862595, -455305.7, 95957.51, 0.0, 10.0011215, 9.998802 
1.6052121e+3, 2.537492e+2, -234539.38, -458388.47, -473.7783, -0.088324234, 0.13608086, -234538.38, 218744.58, 0.000000007673713, 10.001903, 9.998934 
1.6052373e+3, 2.6374793e+2, -124860.375, -453474.9, 15661.6, -0.11169773, 0.16890886, -124115.63, 231180.53, 0.0000049768487, 10.002406, 9.998055 
1.605263e+3, 2.7374807e+2, -22291.617, -350731.22, -67288.56, -0.10609629, 0.34714296, -9040.594, 248257.17, 0.00006482946, 10.002425, 9.998081 
1.6052888e+3, 2.8374678e+2, 16167.182, -398095.2, -34303.504, -0.13560508, 0.4684696, 18988.512, 178301.73, 0.00033743004, 10.002488, 9.997056 
1.6053148e+3, 2.9374322e+2, 171005.42, -253323.11, 4488.055, -0.21090153, 0.36474487, 171052.88, 232401.83, 0.0010901192, 10.00281, 9.99721 
1.605342e+3, 3.0374065e+2, 210907.48, -118012.78, -14071.661, -0.07349553, 0.36730888, 211508.39, 211508.39, 0.0024526818, 10.00238, 9.998018 
1.6053687e+3, 3.1373882e+2, 18726.625, -80005.41, -57335.16, 0.12048776, 0.3161643, 45019.875, 45019.875, 0.004266189, 10.000429, 9.999221 
1.6148762e+3, 1.2373461e+2, -1805339.4, -1828270.9, 120784.99, -0.21975219, 0.37458128, -1695477.1, 31956.137, 0.02978273, 9.999605, 9.999412 
1.6149019e+3, 1.337341e+2, -1568812.9, -1670902.8, -38748.65, -0.038341098, 0.3743564, -1555771.6, 73669.19, 0.018308382, 10.000674, 9.999284 
1.6149275e+3, 1.4373344e+2, -1450236.9, -1570954.6, 6779.4204, 0.044204988, 0.39959523, -1449857.4, 81590.55, 0.008418617, 10.000812, 9.999225 
1.6149527e+3, 1.5373252e+2, -1397745.4, -1471807.3, 7402.928, -0.021662224, 0.33800724, -1397012.6, 36442.797, 0.0024150687, 10.000413, 9.999416 
1.6149779e+3, 1.6373204e+2, -1271725.6, -1315664.1, 2468.02, -0.08799411, 0.34235668, -1271587.4, 63871.027, 0.0002938315, 10.000385, 9.999844 
1.6150036e+3, 1.737323e+2, -1085561.5, -1144439.0, 62844.133, -0.13070239, 0.3337722, -1045602.6, 191850.72, 0.000004294035, 10.000869, 10.000113 
1.6150299e+3, 1.8373193e+2, -994582.75, -1176725.6, 48258.777, -0.12116445, 0.3487516, -982586.6, 156869.0, 0.0, 10.001368, 9.998969 
1.615057e+3, 1.9373044e+2, -814090.25, -1037750.7, 25225.053, -0.008521776, 0.27110463, -811280.56, 230190.14, 0.0, 10.001927, 9.99898 
1.6150835e+3, 2.0372906e+2, -761570.06, -1043499.56, 222.84816, 0.024199912, 0.28203505, -761569.9, 181915.69, 0.0, 10.001981, 9.998245 
1.6151093e+3, 2.1372813e+2, -735428.6, -967686.4, 5632.35, -0.049911443, 0.3305891, -735292.06, 110205.23, 0.0, 10.001448, 9.9983425 
1.6151357e+3, 2.2372696e+2, -635214.94, -753474.25, -6231.845, -0.07038215, 0.34787408, -634887.44, 112621.414, 0.0, 10.000948, 9.999386 
1.6151628e+3, 2.3372543e+2, -536608.75, -608280.94, 19738.709, 0.00010640194, 0.19195773, -531532.25, 117987.36, 0.0, 10.000765, 9.999786 
1.615189e+3, 2.43725e+2, -440765.16, -559756.56, 6191.6826, -0.012666077, 0.20245083, -440443.84, 111076.836, 0.0, 10.000935, 9.999384 
1.6152136e+3, 2.5372654e+2, -221953.08, -387082.4, 42212.426, -0.14385498, 0.37486392, -211787.95, 241716.58, 0.00000000987263, 10.001705, 9.999518 
1.6152391e+3, 2.637257e+2, -263967.22, -685563.6, 5391.8457, -0.19014737, 0.47932276, -263898.28, 91616.94, 0.000004852571, 10.002167, 9.996572 
1.6152658e+3, 2.7372086e+2, -178534.72, -620752.6, -45848.35, -0.09849731, 0.33029783, -173831.27, 83738.95, 0.00006465758, 10.002208, 9.996322 
1.6152917e+3, 2.837171e+2, 53925.063, -268734.16, -36093.066, -0.11529826, 0.26733565, 57913.184, 217521.48, 0.0003366383, 10.002265, 9.9980545 
1.615317e+3, 2.937155e+2, 234557.98, -60827.125, 39156.383, -0.2890942, 0.20917876, 239660.44, 301275.7, 0.0010767062, 10.002545, 9.998662 
1.615344e+3, 3.0371344e+2, 125363.73, -225636.52, -90383.16, -0.13343097, 0.2036829, 147270.31, 147270.31, 0.0024075846, 10.002103, 9.997395 
1.6153699e+3, 3.1371066e+2, -141427.8, -308246.78, -82743.28, 0.13637389, 0.15401193, -107348.59, -107348.59, 0.0041727168, 10.000037, 9.997812 
1.624877e+3, 1.2370794e+2, -1933055.6, -1898241.3, 122718.14, -0.05310048, 0.2832127, -1791701.9, -64010.1, 0.03179242, 9.998764, 9.999306 
1.6249019e+3, 1.3370897e+2, -1557048.3, -1615830.6, -15059.943, -0.093320765, 0.3857359, -1553414.6, 76270.6, 0.019603958, 10.000519, 9.999731 
1.6249299e+3, 1.43708e+2, -1393195.3, -1565921.3, 39071.727, 0.19387542, 0.36353928, -1384768.1, 146928.23, 0.009062119, 10.001328, 9.999005 
1.6249537e+3, 1.5370756e+2, -1250715.1, -1430254.1, 35331.727, 0.0058122943, 0.37795788, -1244012.4, 189688.22, 0.002624408, 10.001563, 9.999145 
1.6249786e+3, 1.6370712e+2, -1122959.3, -1234143.0, 42697.418, -0.09168531, 0.3991689, -1108454.6, 227248.33, 0.00032476612, 10.00138, 9.999916 
1.6250052e+3, 1.7370676e+2, -1084737.8, -1122331.0, 5739.5894, -0.056656163, 0.31034735, -1083881.0, 153820.36, 0.000005034694, 10.000799, 10.00028 
1.6250317e+3, 1.8370587e+2, -1126120.6, -1278596.5, 17555.543, -0.023084933, 0.282645, -1124125.5, 15582.153, 0.0, 10.000635, 9.998628 
1.6250587e+3, 1.9370432e+2, -906426.94, -1115253.3, 21851.242, -0.00046230067, 0.235324, -904165.0, 137560.14, 0.0, 10.001459, 9.998668 
1.625085e+3, 2.0370306e+2, -768099.6, -1029189.6, 27581.64, -0.0049787676, 0.26689783, -765217.7, 178521.61, 0.0, 10.001846, 9.998413 
1.6251107e+3, 2.1370237e+2, -694567.06, -921425.56, 41525.78, -0.049309015, 0.3138609, -687204.8, 158542.58, 0.0, 10.001596, 9.998595 
1.6251369e+3, 2.2370124e+2, -611727.94, -772619.56, 56388.83, -0.046388384, 0.33503768, -593933.06, 153825.33, 0.0, 10.001233, 9.999118 
1.6251636e+3, 2.336995e+2, -566239.56, -665399.5, 5234.133, 0.013880657, 0.19505806, -565964.06, 83809.72, 0.0, 10.000733, 9.999415 
1.62519e+3, 2.4369894e+2, -486257.03, -596655.1, -335.32272, 0.01832397, 0.22077672, -486256.03, 65521.727, 0.0, 10.000689, 9.999243 
1.6252157e+3, 2.537004e+2, -261506.5, -420494.38, -40826.574, -0.091025636, 0.39780754, -251635.48, 202126.86, 0.000000011745934, 10.001485, 9.999393 
1.6252416e+3, 2.636994e+2, -303713.7, -686371.1, -60745.54, -0.12944414, 0.48726085, -294302.03, 61472.25, 0.0000048598445, 10.001819, 9.996731 
1.6252679e+3, 2.7369443e+2, -278729.75, -647858.1, -11431.084, -0.054347884, 0.3101465, -278376.1, -20546.459, 0.00006306325, 10.001419, 9.996511 
1.625294e+3, 2.83691e+2, -87605.78, -295100.97, 100106.35, -0.053617164, 0.24883854, -47183.87, 112680.17, 0.00033149842, 10.001139, 9.998404 
1.62532e+3, 2.9369003e+2, 69671.89, -105030.36, 58613.367, -0.17364278, 0.22294703, 87514.62, 149378.84, 0.001055369, 10.001265, 9.998973 
1.625347e+3, 3.0368763e+2, 98318.74, -228203.23, -77112.82, -0.02274986, 0.16151808, 115613.945, 115613.945, 0.002338704, 10.001855, 9.997511 
1.625371e+3, 3.1368506e+2, 279120.47, -115714.25, -81249.39, 0.114413194, 0.13305354, 295186.3, 295186.3, 0.004021066, 10.00293, 9.997771 
1.6348763e+3, 1.23681486e+2, -1836279.0, -1726586.3, -89650.39, -0.06509172, 0.24178435, -1676335.9, 51613.254, 0.03398967, 9.99888, 10.000438 
1.6349019e+3, 1.3368241e+2, -1507113.6, -1515204.4, 61164.023, -0.15094225, 0.26365942, -1449861.4, 180079.5, 0.02102759, 10.00053, 10.000433 
1.6349313e+3, 1.4368263e+2, -1357542.1, -1530829.3, 24901.074, 0.1522526, 0.31133592, -1354034.9, 177904.33, 0.009775217, 10.001484, 9.999178 
1.6349539e+3, 1.5368268e+2, -1246026.0, -1421590.0, 52187.88, -0.1643324, 0.36629447, -1231684.4, 202254.94, 0.002860367, 10.001568, 9.999204 
1.634979e+3, 1.6368185e+2, -1163220.6, -1334857.0, 9875.652, -0.23447211, 0.3769271, -1162654.3, 173292.0, 0.00036087315, 10.001445, 9.999199 
1.635008e+3, 1.7367956e+2, -1147601.5, -1251400.5, -11134.169, 0.123796575, 0.18464145, -1146420.6, 91544.22, 0.000005927034, 10.0007925, 9.9994 
1.6350356e+3, 1.8367815e+2, -1101355.4, -1245252.8, 24925.016, 0.25879583, 0.14202674, -1097160.3, 42817.16, 0.0, 10.000704, 9.99883 
1.6350606e+3, 1.9367842e+2, -890804.06, -1070975.0, 61312.664, 0.013775739, 0.24637035, -871918.75, 170059.06, 0.0, 10.0014, 9.999006 
1.6350858e+3, 2.0367827e+2, -740334.4, -939831.6, 10307.339, -0.13368246, 0.339784, -739803.25, 204177.61, 0.0, 10.001707, 9.999096 
1.6351119e+3, 2.1367733e+2, -667366.75, -828406.3, 44536.76, -0.098325044, 0.2916935, -655870.44, 190118.17, 0.0, 10.001431, 9.999318 
1.635138e+3, 2.2367617e+2, -704637.9, -913646.0, 28311.71, -0.081372984, 0.30445796, -700870.75, 47129.457, 0.0, 10.001011, 9.998255 
1.6351637e+3, 2.3367478e+2, -669070.56, -836702.1, -650.1626, -0.066581056, 0.30384076, -669068.0, -19051.47, 0.0, 10.000555, 9.9983225 
1.6351902e+3, 2.4367313e+2, -580039.6, -739634.75, 12843.61, -0.05258754, 0.31760612, -579012.6, -26978.559, 0.0, 10.000469, 9.998364 
1.6352178e+3, 2.5367108e+2, -340000.38, -547098.44, 7658.6563, -0.044313647, 0.22757138, -339717.53, 114335.805, 0.000000006263202, 10.001337, 9.998591 
1.6352443e+3, 2.636695e+2, -212322.14, -466985.6, -79564.336, -0.050797444, 0.23781429, -189507.77, 166561.1, 0.000005059976, 10.001676, 9.998315 
1.6352692e+3, 2.7366892e+2, -164769.48, -374444.22, -4875.7354, -0.08153945, 0.3005912, -164656.17, 93419.78, 0.000060994436, 10.00125, 9.998477 
1.6352949e+3, 2.8366807e+2, -149323.31, -366565.06, 88188.8, -0.09210426, 0.40337873, -118030.8, 42053.68, 0.0003219481, 10.000912, 9.9980135 
1.635323e+3, 2.9366645e+2, -23245.723, -236933.98, 89460.43, -0.023977425, 0.38712007, 9261.633, 71360.13, 0.0010251402, 10.001023, 9.998175 
1.6353503e+3, 3.0366293e+2, 96327.1, -162918.13, -54499.605, 0.09934207, 0.24100058, 107318.25, 107318.25, 0.002254671, 10.001562, 9.998099 
1.6353719e+3, 3.1366146e+2, 306329.47, 44130.85, -11346.133, -0.12823589, 0.22462161, 306819.53, 306819.53, 0.0038411752, 10.002498, 9.999074 
1.6448762e+3, 1.23655096e+2, -1717958.3, -1679521.0, -153146.03, 0.003799312, 0.2590233, -1544392.4, 183815.88, 0.036383986, 9.999789, 10.0003395 
1.6449033e+3, 1.3365611e+2, -1444467.9, -1473126.3, 7769.046, -0.09462396, 0.28960368, -1442497.3, 187701.02, 0.022584815, 10.000948, 10.000525 
1.6449314e+3, 1.4365593e+2, -1408351.8, -1517499.0, -75745.87, 0.058173325, 0.2770701, -1369567.4, 162631.86, 0.010560797, 10.00095, 9.999537 
1.6449551e+3, 1.5365611e+2, -1367765.5, -1438824.6, -56167.316, -0.1306208, 0.30523503, -1336833.6, 97362.38, 0.0031241647, 10.000522, 9.9995985 
1.6449809e+3, 1.6365533e+2, -1324204.3, -1456745.4, -34501.5, -0.11888586, 0.31163415, -1315761.1, 20441.549, 0.0004029895, 10.00053, 9.998804 
1.6450097e+3, 1.7365308e+2, -1068847.5, -1276850.8, -50146.625, 0.17604285, 0.17915192, -1057389.1, 180834.45, 0.0000070009137, 10.0015955, 9.99885 
1.6450368e+3, 1.8365173e+2, -948586.94, -1152035.6, 7192.22, 0.27459824, 0.16955969, -948333.0, 191904.1, 0.0, 10.001688, 9.998977 
1.6450615e+3, 1.9365202e+2, -1004240.8, -1096859.5, 5994.294, 0.027575502, 0.2484665, -1003854.44, 38382.465, 0.0, 10.000513, 9.999241 
1.6450869e+3, 2.0365196e+2, -960792.6, -1009737.6, -19867.348, -0.102087736, 0.3272877, -953743.5, -9504.977, 0.0, 10.000047, 9.999407 
1.6451135e+3, 2.1365148e+2, -722950.7, -810295.4, -38495.582, -0.044220623, 0.28698286, -708406.3, 137835.19, 0.0, 10.000877, 9.999692 
1.6451396e+3, 2.2365057e+2, -659190.8, -906808.75, -41917.848, -0.016675014, 0.31116223, -652287.25, 95963.11, 0.0, 10.001388, 9.998133 
1.6451648e+3, 2.3364899e+2, -564337.9, -809373.3, -32980.605, -0.04024461, 0.31511316, -559976.44, 90292.25, 0.0, 10.001372, 9.998128 
1.6451912e+3, 2.4364704e+2, -432787.72, -683800.0, 95291.99, -0.040780406, 0.31663227, -400711.03, 151578.42, 0.0, 10.001551, 9.998226 
1.6452196e+3, 2.5364453e+2, -240545.53, -519732.03, 114533.33, -0.028136462, 0.1989946, -199572.56, 254741.05, 0.000000005166704, 10.002112, 9.998413 
1.6452466e+3, 2.63643e+2, -103914.555, -359115.1, 3589.5747, -0.019860236, 0.20378438, -103864.08, 252464.19, 0.000005473011, 10.002187, 9.998799 
1.6452707e+3, 2.7364326e+2, -64819.83, -256112.22, -63921.496, -0.05589664, 0.28886014, -45426.24, 212899.31, 0.000058881178, 10.001656, 9.999076 
1.6452962e+3, 2.8364292e+2, -90102.45, -352921.4, 31455.352, -0.061952725, 0.41493386, -86390.17, 73939.01, 0.0003079229, 10.001371, 9.997901 
1.6453245e+3, 2.9364142e+2, -11054.41, -256582.8, 37831.348, 0.036665246, 0.4357553, -5357.489, 56988.063, 0.0009851714, 10.00122, 9.997948 
1.6453522e+3, 3.0363774e+2, 72568.625, -214464.33, -36605.94, 0.16230147, 0.30585024, 77163.51, 77163.51, 0.0021641257, 10.001525, 9.997784 
1.6453744e+3, 3.1363702e+2, 292039.44, 62814.504, -153228.69, -0.10277704, 0.38856184, 368777.56, 368777.56, 0.003669242, 10.002292, 9.999298 
1.654876e+3, 1.2362827e+2, -1785237.6, -1866242.6, -107839.78, -0.053219654, 0.28019, -1710545.3, 17928.793, 0.03897044, 9.999974, 9.998946 
1.6549051e+3, 1.3363037e+2, -1486604.9, -1564808.8, 42216.973, -0.022800513, 0.48992208, -1468163.5, 162290.77, 0.024272982, 10.0009575, 9.999885 
1.6549297e+3, 1.4362803e+2, -1356714.1, -1425164.3, -109107.26, -0.23753195, 0.26999518, -1276590.0, 255884.94, 0.0114189135, 10.001013, 10.000147 
1.6549572e+3, 1.5362793e+2, -1316610.4, -1336864.9, -63710.3, 0.002088827, 0.20093985, -1262227.4, 172242.67, 0.0034161112, 10.00054, 10.000293 
1.6549844e+3, 1.636276e+2, -1307650.4, -1453718.1, -17627.637, 0.13207123, 0.2161645, -1305553.3, 30917.934, 0.00045137366, 10.000653, 9.99877 
1.6550098e+3, 1.7362744e+2, -1075659.6, -1287749.1, -828.2513, 0.0073038023, 0.2990407, -1075656.4, 162819.63, 0.000008273259, 10.001585, 9.998776 
1.6550353e+3, 1.8362674e+2, -940761.4, -1148905.9, -37299.797, -0.0787332, 0.3574362, -934279.06, 206206.33, 0.0, 10.001731, 9.998984 
1.6550612e+3, 1.936251e+2, -1009045.8, -1098371.9, -30398.6, -0.06041054, 0.242598, -999682.4, 42820.164, 0.0, 10.000463, 9.999262 
1.6550879e+3, 2.0362423e+2, -982847.3, -1028101.7, -9910.86, -0.036364503, 0.2421001, -980771.94, -36260.39, 0.0, 9.99993, 9.999335 
1.6551152e+3, 2.136248e+2, -752356.3, -831728.25, 4150.541, 0.014884063, 0.31100002, -752139.8, 94365.98, 0.0, 10.000708, 9.999626 
1.6551416e+3, 2.2362429e+2, -646929.06, -836861.4, -52577.86, 0.02853265, 0.3519513, -633345.7, 115164.65, 0.0, 10.001193, 9.998708 
1.6551664e+3, 2.3362203e+2, -542314.06, -724470.44, -19438.006, -0.01591966, 0.22267053, -540262.94, 110268.63, 0.0, 10.001199, 9.998798 
1.6551925e+3, 2.4362056e+2, -433705.7, -634848.9, 105536.414, -0.08000496, 0.21686885, -388494.63, 164050.77, 0.0, 10.001336, 9.998662 
1.6552208e+3, 2.536205e+2, -244790.05, -475260.44, 148627.06, -0.13255978, 0.2973992, -171958.36, 282588.13, 0.00000000856411, 10.001896, 9.998813 
1.6552478e+3, 2.636195e+2, -181981.17, -472702.94, -25565.771, -0.13661632, 0.3620527, -179750.08, 176806.8, 0.0000057188686, 10.001968, 9.998129 
1.6552724e+3, 2.7361718e+2, -141745.36, -381620.38, -67451.28, -0.091362484, 0.27028355, -124079.516, 134501.16, 0.00005720022, 10.001499, 9.998294 
1.6552974e+3, 2.8361556e+2, -108828.35, -345441.34, 7474.1157, -0.091915056, 0.3034735, -108592.5, 52005.36, 0.0002952708, 10.001167, 9.998053 
1.6553245e+3, 2.9361475e+2, -13763.622, -228874.3, 54936.844, -0.10544005, 0.36170602, -545.58704, 62061.76, 0.0009504649, 10.001062, 9.998219 
1.6553527e+3, 3.0361184e+2, -60771.453, -416564.72, -26947.643, 0.02334833, 0.34539106, -58742.023, -58742.023, 0.002096841, 10.001227, 9.99653 
1.6553776e+3, 3.1361103e+2, 168234.92, -101520.445, -66890.5, -0.06276061, 0.56234306, 183910.64, 183910.64, 0.0035553107, 10.001883, 9.998367 
1.6648763e+3, 1.2360074e+2, -1704613.5, -1884583.3, -14561.748, -0.040064234, 0.24719277, -1703442.9, 25301.229, 0.041736465, 10.000766, 9.998445 
1.6649063e+3, 1.336029e+2, -1558749.1, -1589879.0, 70968.38, 0.037413012, 0.4534747, -1501658.9, 129064.1, 0.026087236, 10.000384, 9.999992 
1.6649303e+3, 1.4360075e+2, -1544539.8, -1506391.4, -34355.25, -0.21137722, 0.24492975, -1486170.4, 46570.844, 0.012349877, 9.999697, 10.000202 
1.6649592e+3, 1.5360063e+2, -1303166.1, -1311588.5, -49888.004, 0.1482488, 0.16259369, -1257311.9, 177424.6, 0.003737191, 10.000581, 10.000431 
1.6649866e+3, 1.6360046e+2, -1254280.8, -1401015.1, 7763.0337, 0.28000554, 0.17866924, -1253871.3, 82864.44, 0.00050616945, 10.000929, 9.998987 
1.6650099e+3, 1.7360052e+2, -1208970.1, -1327716.6, 20646.938, -0.070636496, 0.25851005, -1205482.5, 33255.723, 0.000009797576, 10.000566, 9.998991 
1.6650349e+3, 1.836001e+2, -1130154.9, -1233056.6, 5100.822, -0.21414793, 0.33046517, -1129902.6, 10842.61, 0.0, 10.000409, 9.999038 
1.6650626e+3, 1.9359903e+2, -905131.9, -1039288.8, -12817.62, -0.0066935476, 0.26698047, -903918.2, 138839.27, 0.0, 10.001153, 9.999322 
1.6650899e+3, 2.0359828e+2, -782702.25, -959563.3, 38281.26, 0.11081117, 0.2834844, -774771.94, 169994.4, 0.0, 10.001423, 9.99909 
1.6651164e+3, 2.1359819e+2, -731988.0, -855323.75, 16632.697, 0.06568724, 0.31811535, -729784.4, 116983.86, 0.0, 10.000987, 9.999333 
1.6651428e+3, 2.2359744e+2, -664650.6, -806811.44, -29447.133, 0.035547078, 0.33912283, -658792.4, 89982.93, 0.0, 10.000915, 9.999033 
1.6651683e+3, 2.3359576e+2, -456712.06, -629135.3, -43639.652, 0.018741636, 0.22233297, -446296.25, 204493.28, 0.0, 10.001565, 9.999256 
1.6651945e+3, 2.4359475e+2, -376815.7, -600063.5, 65132.453, -0.028121939, 0.23092535, -359202.84, 193595.39, 0.0, 10.001663, 9.998769 
1.6652222e+3, 2.5359485e+2, -398161.78, -540460.9, 61919.72, -0.11231885, 0.32465383, -374991.1, 79806.75, 0.0000000057748837, 10.000786, 9.998914 
1.6652492e+3, 2.6359382e+2, -393214.78, -591585.56, -64706.16, -0.11983332, 0.3852952, -373974.56, -17165.621, 0.0000055479773, 10.000592, 9.997975 
1.6652744e+3, 2.7359098e+2, -138733.44, -419104.03, -94894.305, -0.047739655, 0.2701715, -109635.41, 149202.5, 0.000055377644, 10.001654, 9.997984 
1.6652994e+3, 2.835889e+2, 39741.742, -279452.1, 5246.367, -0.055787567, 0.27883437, 39827.95, 200687.77, 0.00028510438, 10.002216, 9.997981 
1.6653253e+3, 2.9358813e+2, 93169.57, -180801.86, -22523.68, -0.1702979, 0.34640288, 95008.93, 157877.78, 0.0009269267, 10.001846, 9.998146 
1.6653533e+3, 3.0358562e+2, 48753.57, -348964.25, -8408.8545, -0.045102715, 0.37186593, 48931.277, 48931.277, 0.0020627275, 10.001913, 9.996653 
1.6653809e+3, 3.135841e+2, 279739.1, 7777.7827, 219.0452, 0.0721084, 0.4968131, 279739.28, 279739.28, 0.0035148177, 10.002425, 9.998837 
1.6748765e+3, 1.2357423e+2, -1649192.6, -1789205.9, 28617.857, -0.17894812, 0.32835802, -1643569.1, 85432.66, 0.044670317, 10.000866, 9.999053 
1.6749062e+3, 1.3357386e+2, -1491111.0, -1466292.6, 35154.04, -0.04089861, 0.1890934, -1441421.9, 189580.94, 0.028026333, 10.000445, 10.000842 
1.6749327e+3, 1.4357404e+2, -1561161.8, -1557290.3, -31508.117, 0.026594447, 0.18425715, -1527658.5, 5339.8413, 0.013357116, 9.999767, 9.999816 
1.6749606e+3, 1.5357435e+2, -1340675.6, -1388483.5, -3443.4932, 0.20727298, 0.19321585, -1340428.9, 94564.984, 0.004090086, 10.000574, 9.999907 
1.674987e+3, 1.6357392e+2, -1211309.4, -1333137.3, -13882.464, 0.1955985, 0.19451407, -1209747.5, 127248.984, 0.0005678562, 10.001014, 9.999417 
1.6750099e+3, 1.7357238e+2, -1174605.1, -1250469.5, 13151.86, -0.15438539, 0.06373633, -1172389.8, 66620.22, 0.000011659807, 10.000542, 9.999536 
1.6750352e+3, 1.8357198e+2, -1115980.3, -1217268.9, 13405.353, -0.25813195, 0.10408652, -1114236.1, 26778.58, 0.0, 10.000457, 9.99913 
1.675065e+3, 1.9357373e+2, -915136.0, -1044551.2, 23523.668, 0.085388005, 0.3214813, -910992.75, 132009.63, 0.0, 10.001081, 9.999326 
1.6750926e+3, 2.0357396e+2, -820891.56, -1019888.44, 14366.354, 0.22631553, 0.4497721, -819859.75, 125144.39, 0.0, 10.001333, 9.998723 
1.675117e+3, 2.1357155e+2, -789178.7, -939242.9, 11677.209, 0.010169704, 0.30083433, -788275.5, 58754.16, 0.0, 10.000824, 9.998843 
1.6751423e+3, 2.2357002e+2, -697650.9, -818474.8, -19223.46, -0.113451086, 0.26896098, -694666.06, 54379.418, 0.0, 10.000672, 9.999065 
1.6751693e+3, 2.3357013e+2, -479441.56, -631371.06, -7647.072, -0.037830107, 0.31940585, -479057.66, 171985.73, 0.0, 10.00137, 9.999334 
1.6751964e+3, 2.435695e+2, -419231.47, -634279.44, 26354.65, -0.012133131, 0.36680114, -416048.72, 137000.11, 0.0, 10.001432, 9.998644 
1.6752236e+3, 2.5356776e+2, -435527.78, -575975.7, 44376.156, -0.07801974, 0.29156336, -422681.6, 32384.242, 0.0000000017385277, 10.000602, 9.998758 
1.6752501e+3, 2.6356608e+2, -410428.47, -577467.44, -43843.383, -0.10149376, 0.28846824, -399620.1, -42537.758, 0.0000048816705, 10.000376, 9.998179 
1.6752762e+3, 2.735645e+2, -143844.05, -395675.38, -31315.361, -0.039530996, 0.27255782, -140008.39, 119090.36, 0.000051551386, 10.001502, 9.998222 
1.6753016e+3, 2.8356272e+2, -28498.703, -366903.7, -9351.614, -0.092984416, 0.32177472, -28240.473, 132876.6, 0.0002714196, 10.001981, 9.997499 
1.6753262e+3, 2.9356122e+2, 33336.574, -265808.84, -9821.26, -0.2989293, 0.36868045, 33658.668, 96791.42, 0.0008993855, 10.001656, 9.997664 
1.675354e+3, 3.0355895e+2, 78921.49, -188485.25, -3559.3289, -0.19601758, 0.38227004, 78968.87, 78968.87, 0.0020323566, 10.001521, 9.997932 
1.6753834e+3, 3.1355563e+2, 320165.72, 200657.89, 67212.44, 0.035718244, 0.17750393, 350345.34, 350345.34, 0.0035035976, 10.00198, 10.000371 
1.6848783e+3, 1.2354862e+2, -1570027.8, -1751788.6, 113676.54, -0.08772788, 0.3839003, -1515369.1, 213880.92, 0.04776628, 10.001466, 9.99902 
1.6849066e+3, 1.3354759e+2, -1568888.1, -1480944.9, 19274.828, 0.0053041466, 0.15509076, -1476905.9, 154352.14, 0.030093629, 9.999822, 10.001029 
1.6849336e+3, 1.4354838e+2, -1595098.3, -1601410.6, 26238.963, 0.16172063, 0.20828262, -1571826.4, -38577.234, 0.0144471, 9.9996395, 9.999581 
1.684961e+3, 1.5354852e+2, -1298819.9, -1404076.6, 53297.168, 0.17845522, 0.2307635, -1276546.1, 158703.11, 0.004479329, 10.001006, 9.9996 
1.6849872e+3, 1.6354802e+2, -1127186.1, -1268552.0, 23924.805, 0.10513829, 0.23578125, -1123246.9, 214006.83, 0.0006375465, 10.001494, 9.999628 
1.6850112e+3, 1.7354675e+2, -1058287.9, -1152800.5, 6867.4243, -0.091483, 0.09546712, -1057791.5, 181471.06, 0.00001399049, 10.001169, 9.999893 
1.6850372e+3, 1.835463e+2, -1081907.5, -1208173.1, 28708.514, -0.11290287, 0.11257818, -1075686.6, 65579.25, 0.0, 10.000736, 9.999052 
1.685066e+3, 1.9354743e+2, -1028412.5, -1120319.8, 9491.885, 0.13474259, 0.2834681, -1027442.5, 15816.532, 0.0, 10.000393, 9.999141 
1.6850932e+3, 2.035472e+2, -981492.1, -1107481.0, 13443.935, 0.21328619, 0.38369456, -980073.5, -34808.637, 0.0, 10.000281, 9.998627 
1.6851175e+3, 2.1354504e+2, -825506.75, -957417.9, 8333.948, -0.009446365, 0.26440358, -824982.3, 22306.576, 0.0, 10.000595, 9.998818 
1.685143e+3, 2.2354388e+2, -670388.0, -808383.94, 35382.85, -0.1090265, 0.2708191, -661844.56, 87457.43, 0.0, 10.000845, 9.999077 
1.6851708e+3, 2.3354442e+2, -542930.7, -660018.06, 29235.086, 0.007503673, 0.36569282, -536036.94, 115259.34, 0.0, 10.000907, 9.999383 
1.6851982e+3, 2.4354382e+2, -483650.22, -664742.3, 64959.832, 0.05789338, 0.41338003, -462758.56, 90543.34, 0.0, 10.000994, 9.99863 
1.6852248e+3, 2.5354138e+2, -351617.84, -546259.0, 53631.594, -0.035351418, 0.2697136, -337818.47, 117507.195, 0.0000000018399801, 10.001211, 9.998668 
1.6852511e+3, 2.6353955e+2, -245707.33, -486012.7, 27376.514, -0.08035477, 0.25294617, -242627.94, 114715.15, 0.0000039092515, 10.001457, 9.998287 
1.6852777e+3, 2.735388e+2, -76720.94, -333298.78, 7682.5024, -0.046533518, 0.3041388, -76491.11, 182858.92, 0.000046409757, 10.0018835, 9.998444 
1.6853034e+3, 2.8353706e+2, -12093.856, -365777.16, 35073.19, -0.0961985, 0.34654137, -8649.352, 152717.27, 0.00025645504, 10.002102, 9.99747 
1.6853282e+3, 2.935344e+2, 61486.69, -256516.19, 26025.758, -0.2537679, 0.28449348, 63602.594, 126995.1, 0.000866263, 10.001851, 9.997652 
1.6853559e+3, 3.0353248e+2, 83457.98, -145237.44, 62809.36, -0.13432157, 0.3153711, 99572.58, 99572.58, 0.0019892203, 10.001329, 9.998353 
1.6853844e+3, 3.1352955e+2, 42741.465, 56931.004, 2239.0947, 0.04453926, 0.12703966, 57275.945, 57275.945, 0.0034767648, 10.000034, 10.000376 
1.6948806e+3, 1.235216e+2, -1601429.6, -1853367.5, -94034.516, -0.078226626, 0.15206882, -1570202.4, 159309.4, 0.051028147, 10.001603, 9.998258 
1.6949071e+3, 1.3352408e+2, -1614379.5, -1564971.5, -10852.425, 0.058510594, 0.3371485, -1562692.9, 68796.14, 0.032295942, 9.999773, 10.000461 
1.6949327e+3, 1.4352383e+2, -1585940.8, -1605299.5, 57667.387, 0.062034164, 0.3175683, -1537146.1, -3653.1584, 0.015627254, 9.999727, 9.999518 
1.6949601e+3, 1.5352337e+2, -1304594.3, -1424351.3, 114287.33, -0.043710843, 0.29547754, -1235449.4, 200051.22, 0.004910431, 10.001037, 9.999452 
1.6949868e+3, 1.6352291e+2, -1108042.4, -1247299.4, 3008.9294, -0.119360715, 0.30731854, -1107977.4, 229528.66, 0.0007170378, 10.001571, 9.999736 
1.6950138e+3, 1.7352372e+2, -1051648.0, -1135152.9, 4478.1484, 0.016881099, 0.36196652, -1051408.5, 188086.4, 0.000016975888, 10.001153, 10.000021 
1.6950403e+3, 1.8352318e+2, -1090293.4, -1243476.9, 765.6864, 0.09986714, 0.37078106, -1090289.5, 51208.426, 0.0, 10.000804, 9.998781 
1.6950656e+3, 1.9352008e+2, -1062053.8, -1176006.3, 3744.844, 0.038156, 0.1552367, -1061930.9, -18403.389, 0.0, 10.000329, 9.99879 
1.6950911e+3, 2.0351814e+2, -995460.5, -1098918.8, 8320.6, -0.038400445, 0.09830979, -994795.56, -49248.316, 0.0, 10.000119, 9.998765 
1.6951174e+3, 2.1351859e+2, -831939.4, -940024.0, 31896.9, -0.101392336, 0.21908367, -823228.3, 24318.424, 0.0, 10.000453, 9.999013 
1.6951442e+3, 2.2351883e+2, -689928.1, -799724.5, 27265.053, -0.08922388, 0.3480572, -683530.4, 66016.37, 0.0, 10.000641, 9.99923 
1.6951722e+3, 2.3351865e+2, -569109.06, -659603.4, 47664.164, 0.04770469, 0.35583705, -548635.8, 102912.72, 0.0, 10.000675, 9.999494 
1.6951996e+3, 2.4351764e+2, -528027.25, -689198.56, 61954.3, 0.067807265, 0.35812837, -506964.56, 46593.85, 0.0, 10.000707, 9.998602 
1.6952255e+3, 2.5351548e+2, -381773.78, -565462.1, 76898.945, -0.07957934, 0.25124034, -353831.5, 101748.16, 0.0000000033657745, 10.001027, 9.998627 
1.6952518e+3, 2.6351398e+2, -283293.2, -506424.78, 31718.412, -0.1792089, 0.26811594, -278871.97, 78721.77, 0.0000030031388, 10.001215, 9.9982605 
1.6952784e+3, 2.7351362e+2, -104498.664, -346887.56, 39810.867, -0.1756647, 0.35585994, -98127.445, 161467.36, 0.000041455987, 10.001698, 9.998438 
1.6953048e+3, 2.8351158e+2, -26227.982, -336199.88, 13678.669, -0.19447444, 0.35213795, -25625.531, 135986.75, 0.00024337543, 10.001849, 9.997796 
1.695331e+3, 2.935072e+2, 57851.49, -211693.81, 33007.74, -0.18292966, 0.084550396, 61834.66, 125487.48, 0.00083297, 10.001615, 9.998079 
1.6953585e+3, 3.0350572e+2, -1749.6807, -227188.16, 6402.5024, -0.026292454, 0.14756078, -1567.9945, -1567.9945, 0.0019296512, 10.000945, 9.997964 
1.6953829e+3, 3.135061e+2, -86027.06, -114351.04, 6879.4497, -0.14356339, 0.33713007, -84444.57, -84444.57, 0.0034045347, 9.999649, 9.999364 
1.7048816e+3, 1.2349646e+2, -1811249.1, -1915326.1, -145107.27, -0.041929405, 0.15149128, -1709131.4, 20629.436, 0.054460447, 9.999933, 9.998641 
1.704908e+3, 1.3349879e+2, -1507164.8, -1535886.4, -38074.45, 0.15031303, 0.35334864, -1480832.9, 150905.16, 0.034638863, 10.000639, 10.000252 
1.7049323e+3, 1.4349805e+2, -1470336.6, -1531778.4, 91051.516, 0.022018382, 0.2842227, -1404963.0, 128783.3, 0.016903277, 10.00049, 9.999652 
1.7049599e+3, 1.534982e+2, -1540648.8, -1522089.0, 136821.72, -0.07453458, 0.3092463, -1394232.8, 41515.695, 0.00538814, 9.999368, 9.999571 
1.704987e+3, 1.6349807e+2, -1476853.1, -1437112.5, 68118.984, -0.11666521, 0.35221812, -1386024.9, -48273.57, 0.0008082668, 9.999076, 9.999637 
1.7050152e+3, 1.7349903e+2, -1144456.3, -1191863.4, 35084.563, 0.07879659, 0.43374756, -1125818.5, 113921.6, 0.000020835996, 10.000554, 9.999928 
1.7050418e+3, 1.8349841e+2, -1021640.94, -1212872.8, 24334.385, 0.16312137, 0.4422906, -1018592.94, 123151.32, 0.0, 10.001282, 9.998772 
1.7050657e+3, 1.9349477e+2, -962798.9, -1129428.1, 24328.498, -0.023105463, 0.17180967, -959319.44, 84458.28, 0.0, 10.001001, 9.998799 
1.7050907e+3, 2.034926e+2, -878093.9, -1030238.7, 90562.52, -0.12632194, 0.08658492, -835892.94, 109905.555, 0.0, 10.000875, 9.998862 
1.7051184e+3, 2.1349347e+2, -709807.75, -869843.8, 87889.84, -0.07343629, 0.23643048, -670966.6, 176826.17, 0.0, 10.001251, 9.999103 
1.7051458e+3, 2.2349365e+2, -608394.2, -799435.7, 65623.98, -0.012903111, 0.36940485, -588023.94, 161769.3, 0.0, 10.001376, 9.99887 
1.705173e+3, 2.3349266e+2, -547725.06, -693827.0, 12305.231, 0.0427559, 0.3381855, -546695.94, 105108.53, 0.0, 10.001025, 9.99908 
1.7051998e+3, 2.4349155e+2, -511381.22, -681418.9, 42004.797, 0.038661, 0.35462826, -501570.7, 52245.758, 0.0, 10.000823, 9.998603 
1.7052266e+3, 2.534904e+2, -390390.56, -551730.7, 42797.473, -0.06518045, 0.3395636, -379740.94, 76087.055, 0.0000000026261497, 10.000911, 9.998768 
1.7052534e+3, 2.6348895e+2, -293169.56, -530982.9, 37427.555, -0.12799746, 0.362633, -287418.25, 70422.57, 0.0000021613648, 10.00121, 9.998102 
1.7052804e+3, 2.7348712e+2, -95507.516, -368113.56, 6656.068, -0.1548103, 0.32459265, -95345.09, 164509.63, 0.000036656253, 10.001846, 9.998229 
1.7053069e+3, 2.8348467e+2, -29670.04, -311395.06, -41529.773, -0.15815961, 0.28465515, -23675.582, 138199.8, 0.00022921336, 10.001727, 9.9980135 
1.705333e+3, 2.9348153e+2, -103048.2, -258620.1, -70876.945, -0.07664314, 0.117153615, -75600.15, -11695.211, 0.0007930789, 10.000396, 9.998337 
1.7053601e+3, 3.0348057e+2, -74153.81, -243798.02, -17999.018, 0.09342361, 0.20596986, -72265.164, -72265.164, 0.0018420495, 10.000362, 9.998119 
1.7053834e+3, 3.1348047e+2, 255394.69, 12012.659, -43354.434, -0.17316633, 0.3410294, 262886.9, 262886.9, 0.0032650803, 10.002189, 9.998977 
1.7148817e+3, 1.2347463e+2, -1689552.8, -1670264.9, -57004.633, -0.10695947, 0.5084815, -1622094.3, 107889.555, 0.058051143, 9.999961, 10.000333 
1.7149094e+3, 1.3347234e+2, -1505562.5, -1530037.6, -1920.7826, 0.19330479, 0.24405643, -1505412.6, 126587.15, 0.037118543, 10.000635, 10.000297 
1.7149319e+3, 1.4347114e+2, -1426624.4, -1473063.5, 43794.6, -0.10945082, 0.11135915, -1400274.8, 133733.52, 0.018276531, 10.000614, 10.000003 
1.7149599e+3, 1.5347278e+2, -1520386.6, -1480077.8, 105737.14, -0.029661905, 0.2550772, -1392591.4, 43403.35, 0.005915651, 9.999362, 9.999864 
1.7149876e+3, 1.634735e+2, -1486090.0, -1464019.6, 94087.99, 0.0015075366, 0.37417606, -1380321.9, -42332.37, 0.0009130136, 9.999114, 9.999428 
1.7150152e+3, 1.7347285e+2, -1170180.9, -1236605.9, 100154.11, -0.0005278064, 0.32141212, -1097876.0, 142120.45, 0.000025810483, 10.000525, 9.99963 
1.7150414e+3, 1.8347214e+2, -1003026.1, -1179090.5, 11203.328, -0.04244809, 0.33045217, -1002316.1, 139687.61, 0.0, 10.001296, 9.998999 
1.7150655e+3, 1.9347146e+2, -947817.8, -1083181.3, 23905.502, -0.15501277, 0.32252985, -943720.1, 100289.97, 0.0, 10.000935, 9.999149 
1.7150913e+3, 2.0347059e+2, -891337.9, -1032776.2, 89488.68, -0.18088809, 0.34334368, -847998.2, 98020.29, 0.0, 10.000768, 9.998898 
1.7151202e+3, 2.1346954e+2, -740111.44, -885915.9, 112527.76, -0.030542394, 0.30377942, -678934.44, 169094.1, 0.0, 10.00105, 9.999089 
1.7151476e+3, 2.2346817e+2, -706327.1, -944957.44, 46119.492, 0.018019354, 0.31912747, -697723.9, 52319.34, 0.0, 10.001121, 9.998 
1.7151727e+3, 2.3346643e+2, -646505.3, -859582.6, 14393.459, -0.10862143, 0.3176664, -645537.44, 6527.028, 0.0, 10.000844, 9.998037 
1.7151988e+3, 2.4346542e+2, -543133.44, -688546.56, 32780.32, -0.17226619, 0.40108296, -536085.44, 17991.686, 0.0, 10.000578, 9.998668 
1.7152274e+3, 2.534658e+2, -400866.9, -533339.7, 62845.586, -0.096111566, 0.5133283, -375797.06, 80276.45, 0.0000000000058928205, 10.000733, 9.998981 
1.7152557e+3, 2.6346418e+2, -344030.88, -582836.75, 47169.563, -0.058761574, 0.5187961, -335051.44, 23035.977, 0.0000014626683, 10.00099, 9.99785 
1.7152828e+3, 2.7345932e+2, -155260.48, -431734.4, 48483.043, -0.1047804, 0.21527539, -147004.9, 113124.75, 0.000032258973, 10.001592, 9.997914 
1.715309e+3, 2.8345641e+2, -73738.555, -333289.66, -89476.97, -0.13229807, 0.14434116, -45882.188, 116273.49, 0.00021422842, 10.001427, 9.99801 
1.7153338e+3, 2.9345718e+2, -113264.805, -249842.08, -91764.26, -0.06996841, 0.3529282, -67168.055, -3017.578, 0.0007459909, 10.000267, 9.998456 
1.7153607e+3, 3.0345657e+2, -88668.06, -215686.88, 22428.83, 0.08917239, 0.45804524, -84823.945, -84823.945, 0.0017319225, 10.000133, 9.998419 
1.7153852e+3, 3.134524e+2, 176902.89, 288.47263, 66730.266, -0.27557588, 0.14685738, 199280.33, 199280.33, 0.0030778677, 10.001577, 9.999179 
1.7248821e+3, 1.23449005e+2, -1730462.1, -1633503.6, -7507.0703, -0.004097827, 0.51390123, -1632925.9, 97310.516, 0.06177432, 9.999397, 10.000871 
1.7249098e+3, 1.3344766e+2, -1672539.0, -1598567.8, -11447.604, 0.23828647, 0.31689906, -1596836.6, 35407.402, 0.039721623, 9.999399, 10.000395 
1.7249319e+3, 1.434462e+2, -1620287.9, -1570473.8, 34773.78, -0.08729925, 0.15657862, -1552607.3, -18352.047, 0.019743169, 9.9992695, 9.999987 
1.7249602e+3, 1.5344754e+2, -1404846.8, -1413923.3, 46854.863, 0.04239973, 0.2634803, -1362310.9, 73932.44, 0.006494274, 10.000083, 9.999991 
1.7249879e+3, 1.6344814e+2, -1335524.3, -1387522.3, 79257.48, 0.08344261, 0.3644144, -1278110.4, 60127.78, 0.001032908, 10.000133, 9.99947 
1.7250144e+3, 1.7344703e+2, -1355503.5, -1321867.8, 85653.85, -0.038509835, 0.26034862, -1251396.4, -11146.85, 0.00003215152, 9.999233, 9.999672 
1.7250408e+3, 1.8344632e+2, -1321965.4, -1315605.5, 42688.477, -0.09930405, 0.26160988, -1275978.8, -133721.77, 0.0, 9.999039, 9.999145 
1.7250669e+3, 1.9344684e+2, -986649.25, -1080252.4, 21265.846, -0.08931285, 0.35701343, -982044.4, 62208.69, 0.0, 10.000585, 9.999331 
1.7250936e+3, 2.034466e+2, -803187.2, -1004002.56, 75302.945, -0.054514896, 0.43614435, -778087.0, 168169.33, 0.0, 10.001431, 9.998785 
1.7251217e+3, 2.1344507e+2, -731376.2, -901772.25, 62895.652, 0.020230696, 0.36963427, -710675.3, 137596.02, 0.0, 10.00119, 9.998923 
1.7251487e+3, 2.2344336e+2, -726244.1, -925799.0, 37752.04, 0.030519757, 0.35149527, -719340.94, 30947.736, 0.0, 10.000881, 9.998233 
1.7251733e+3, 2.3344164e+2, -660450.06, -830635.56, 69737.14, -0.095635906, 0.32089987, -635524.44, 16782.496, 0.0, 10.00062, 9.998327 
1.7251995e+3, 2.4344027e+2, -543565.06, -742368.75, 178501.72, -0.1448513, 0.37128145, -438654.47, 115667.29, 0.0, 10.000804, 9.998181 
1.7252289e+3, 2.5343975e+2, -294840.13, -544840.1, 132724.95, -0.05762291, 0.45133173, -237519.22, 218809.19, 0.0000000000049057277, 10.001745, 9.998401 
1.7252576e+3, 2.6343793e+2, -178467.45, -457002.6, 100610.805, 0.00085570785, 0.4507608, -145927.02, 212418.03, 0.0000011502509, 10.001936, 9.998255 
1.7252848e+3, 2.7343404e+2, -243063.3, -412405.94, 128127.36, -0.013770435, 0.18995085, -174157.75, 86219.22, 0.000029351942, 10.000716, 9.998471 
1.7253107e+3, 2.8343192e+2, -222838.44, -448068.3, 70408.9, -0.053861775, 0.18014286, -202639.45, -40243.395, 0.00020332959, 10.000595, 9.997614 
1.7253347e+3, 2.9343265e+2, 186630.25, -174886.92, -17119.762, -0.10492963, 0.44731575, 187439.16, 251833.66, 0.0007056686, 10.002644, 9.997818 
1.7253622e+3, 3.03431e+2, 349108.1, -68259.08, 48576.746, 0.07815498, 0.50919807, 354687.28, 354687.28, 0.001634867, 10.003382, 9.997892 
1.725388e+3, 3.1342658e+2, 97739.305, -100585.12, -39869.66, -0.092870876, 0.2307891, 105454.28, 105454.28, 0.0029108385, 10.001208, 9.998717 
1.7348824e+3, 1.23418525e+2, -1781458.5, -1749133.1, -89602.33, 0.02388183, 0.04927143, -1674247.5, 56281.426, 0.06561491, 9.999482, 10.0 
1.7349085e+3, 1.3342464e+2, -1673660.4, -1591952.1, -20547.572, 0.14577124, 0.56220406, -1587076.0, 45396.49, 0.042436883, 9.999357, 10.000464 
1.734932e+3, 1.4342299e+2, -1640611.0, -1621109.9, 35515.707, -0.038463056, 0.41032347, -1594030.5, -59540.52, 0.021297567, 9.999306, 9.999618 
1.7349604e+3, 1.5342255e+2, -1407122.8, -1419613.0, 85552.35, 0.024026243, 0.3438179, -1327587.9, 108905.71, 0.0071235094, 10.000093, 9.999943 
1.7349875e+3, 1.6342214e+2, -1293109.5, -1333458.6, 40857.723, -0.010510814, 0.33253473, -1267716.9, 70779.2, 0.0011691477, 10.000262, 9.999785 
1.7350131e+3, 1.7342153e+2, -1327392.5, -1273573.4, 58485.832, -0.1305764, 0.24621342, -1236103.5, 4395.863, 0.00004011834, 9.999263, 9.999994 
1.73504e+3, 1.8342099e+2, -1315318.5, -1310946.8, 70407.02, -0.13027884, 0.2431081, -1242691.8, -100188.016, 0.0, 9.999077, 9.999158 
1.7350692e+3, 1.9342084e+2, -1007483.9, -1096568.8, 87363.6, 0.06548363, 0.27445918, -953962.94, 90544.5, 0.0, 10.000468, 9.999274 
1.735097e+3, 2.034206e+2, -843259.1, -1052653.4, 62258.1, 0.1291357, 0.3676597, -826146.75, 120365.83, 0.0, 10.001278, 9.998527 
1.7351225e+3, 2.1342017e+2, -775702.6, -959430.8, 64737.66, -0.029579444, 0.4383516, -755183.56, 93336.91, 0.0, 10.001036, 9.998603 
1.7351483e+3, 2.234193e+2, -677034.25, -770432.2, 16865.283, -0.11400213, 0.47328496, -674082.1, 76446.85, 0.0, 10.000655, 9.999405 
1.7351748e+3, 2.3341796e+2, -579915.1, -625296.94, 71170.57, -0.0393629, 0.33274475, -527905.8, 124629.66, 0.0, 10.000449, 9.99982 
1.735202e+3, 2.434158e+2, -643896.94, -892792.44, 193834.84, -0.012166066, 0.25713328, -537998.9, 16554.893, 0.0, 10.0005665, 9.997262 
1.7352307e+3, 2.5341234e+2, -422456.88, -755834.0, 184462.34, -0.064095736, 0.17485608, -340526.38, 116065.81, 0.000000000000012544113, 10.001522, 9.997057 
1.7352588e+3, 2.6341015e+2, -153014.17, -339660.94, 57148.332, -0.0719498, 0.17620495, -136906.36, 221707.75, 0.0000010511417, 10.001659, 9.999192 
1.7352858e+3, 2.7341092e+2, -173334.97, -225259.9, 95799.53, -0.005527937, 0.24274935, -100042.22, 160557.94, 0.000029114979, 10.000544, 9.999832 
1.7353116e+3, 2.834106e+2, -321056.9, -607413.7, 106027.68, -0.06037766, 0.37916967, -286072.66, -123470.43, 0.00019954766, 10.0004, 9.996618 
1.7353357e+3, 2.934076e+2, 37629.54, -410719.88, 82909.78, -0.29190376, 0.40535396, 52470.168, 117111.07, 0.00068418466, 10.002327, 9.996352 
1.7353642e+3, 3.0340368e+2, 189543.22, -291435.5, -19192.352, -0.10017786, 0.38577715, 190307.83, 190307.83, 0.0015842997, 10.002937, 9.996558 
1.7353915e+3, 3.1340176e+2, -35157.715, -236580.7, -81917.51, 0.07689141, 0.46445307, -6049.014, -6049.014, 0.0028315135, 10.000656, 9.998021 
1.7448829e+3, 1.233937e+2, -1741259.3, -1876282.5, -6010.8486, 0.08576108, 0.026674759, -1740992.3, -10222.419, 0.06957688, 10.000406, 9.9986725 
1.7449084e+3, 1.3339952e+2, -1565153.4, -1553338.6, 5850.2236, 0.17013356, 0.53720635, -1550932.1, 81786.85, 0.045260757, 10.0001955, 10.00034 
1.7449322e+3, 1.4339815e+2, -1540594.4, -1587962.5, 118803.97, 0.031424597, 0.4233419, -1443136.8, 91598.79, 0.022935338, 10.00008, 9.999464 
1.7449607e+3, 1.5339783e+2, -1506179.4, -1479954.8, 132193.19, 0.090988144, 0.377747, -1360225.1, 76512.93, 0.0078018596, 9.999471, 9.999816 
1.7449877e+3, 1.6339728e+2, -1470995.8, -1443463.8, 87713.84, 0.044807635, 0.36676562, -1368442.3, -29700.08, 0.0013223152, 9.999151, 9.999571 
1.745013e+3, 1.7339656e+2, -1217417.0, -1247021.1, 38002.586, -0.09707918, 0.29707694, -1191435.5, 49311.37, 0.000049909977, 10.00014, 9.999758 
1.74504e+3, 1.8339588e+2, -1112595.5, -1215367.1, 58999.05, -0.09933681, 0.29402047, -1085742.0, 57010.797, 0.0000000000000006446772, 10.000487, 9.999123 
1.7450695e+3, 1.9339527e+2, -1099072.8, -1142499.3, 55985.73, 0.09158673, 0.2819442, -1060737.1, -15977.051, 0.0, 9.999849, 9.999246 
1.7450976e+3, 2.0339482e+2, -1076658.0, -1129333.3, 64511.03, 0.160855, 0.34218335, -1033315.3, -86548.625, 0.0, 9.999517, 9.998844 
1.7451233e+3, 2.1339479e+2, -901666.2, -971408.25, 87552.36, 0.005636378, 0.41260818, -842296.0, 6474.0967, 0.0, 9.999971, 9.999025 
1.7451493e+3, 2.2339426e+2, -678421.0, -781710.2, 65671.17, -0.057893395, 0.45883656, -646520.0, 104255.49, 0.0, 10.0006695, 9.999338 
1.7451765e+3, 2.3339315e+2, -403942.47, -558796.06, -13867.573, 0.034688912, 0.359039, -402710.4, 250070.63, 0.0, 10.001729, 9.999673 
1.7452039e+3, 2.4339125e+2, -408728.06, -759160.4, 79162.1, 0.05357904, 0.31112632, -391675.3, 163122.06, 0.0, 10.002105, 9.9974375 
1.7452319e+3, 2.5338793e+2, -445797.13, -744754.1, 144522.56, -0.06952919, 0.22439577, -387355.94, 69477.71, 0.0, 10.001271, 9.997257 
1.74526e+3, 2.6338577e+2, -276317.1, -432256.44, 62701.04, -0.0865171, 0.23100698, -254233.33, 104622.21, 0.0000010008785, 10.00095, 9.9988985 
1.7452873e+3, 2.7338633e+2, -25634.146, -201520.13, -50169.59, 0.04618248, 0.31586453, -12330.126, 248516.5, 0.000030147008, 10.001748, 9.999417 
1.7453134e+3, 2.8338584e+2, -17667.512, -405040.3, -7172.0913, 0.011295821, 0.43873388, -17534.77, 145316.45, 0.00019898178, 10.002234, 9.997124 
1.7453377e+3, 2.9338285e+2, 14377.048, -362293.34, 71822.44, -0.29424766, 0.40688312, 27607.246, 92494.1, 0.0006810842, 10.00188, 9.996911 
1.7453659e+3, 3.0337927e+2, 5742.8877, -352179.94, 81213.836, -0.12607151, 0.3830695, 23308.508, 23308.508, 0.0015907967, 10.001531, 9.996832 
1.7453933e+3, 3.133785e+2, 157641.28, -69738.99, 11341.531, 0.15483098, 0.55104643, 158205.58, 158205.58, 0.0028688698, 10.00165, 9.998685 
1.7548814e+3, 1.2337495e+2, -1855234.5, -2119482.8, -88801.18, -0.15485966, 0.4937659, -1828165.5, -97210.39, 0.07366958, 10.000426, 9.996996 
1.7549089e+3, 1.3337238e+2, -1588055.6, -1595915.9, 18970.543, 0.17438576, 0.22851437, -1572612.4, 60370.746, 0.048192136, 10.000177, 10.00004 
1.7549323e+3, 1.4337209e+2, -1516609.1, -1565387.9, 92160.65, -0.023609381, 0.22275992, -1445665.3, 89321.86, 0.024652572, 10.000189, 9.999574 
1.754961e+3, 1.533735e+2, -1519043.9, -1510337.3, 116746.875, 0.14464252, 0.37099883, -1397862.5, 39112.918, 0.008527423, 9.999476, 9.999611 
1.754988e+3, 1.6337344e+2, -1522596.6, -1558161.4, 91926.95, 0.12396226, 0.45830926, -1446748.0, -107770.13, 0.0014925194, 9.999188, 9.998764 
1.7550138e+3, 1.7337207e+2, -1283482.3, -1369658.3, 85977.2, -0.043373488, 0.4050918, -1230400.3, 10592.523, 0.00006156021, 10.000089, 9.998935 
1.7550404e+3, 1.8337104e+2, -1114660.3, -1226967.1, 32631.27, -0.12787096, 0.41770965, -1105867.5, 37136.215, 0.0000000010737394, 10.000514, 9.999032 
1.7550676e+3, 1.9337022e+2, -1105642.0, -1145991.4, 40710.66, -0.11148674, 0.38273242, -1080381.3, -35370.684, 0.0, 9.999801, 9.9992485 
1.755095e+3, 2.0336933e+2, -1036073.44, -1018906.4, 61565.324, -0.08000661, 0.36626738, -965329.1, -18310.885, 0.0, 9.999402, 9.999657 
1.7551236e+3, 2.1336874e+2, -853063.06, -835667.6, 113726.92, 0.023837691, 0.28050858, -730306.3, 118716.38, 0.0, 9.999813, 10.000036 
1.7551516e+3, 2.2336808e+2, -796928.0, -974606.4, 89735.96, 0.07645027, 0.30481085, -759493.9, -8463.831, 0.0, 10.000446, 9.99812 
1.7551783e+3, 2.3336732e+2, -546696.8, -815951.3, 41228.42, 0.018249266, 0.40343487, -540525.4, 112516.625, 0.0, 10.001556, 9.997991 
1.7552048e+3, 2.433666e+2, -370782.3, -627939.9, 51464.55, -0.07999725, 0.5269986, -360865.22, 194186.72, 0.0, 10.001875, 9.99845 
1.7552322e+3, 2.533661e+2, -361481.75, -529072.75, 125458.21, -0.19260459, 0.57247186, -294408.25, 162647.7, 0.0, 10.001096, 9.998821 
1.7552602e+3, 2.6336426e+2, -409625.22, -669444.4, 68354.06, -0.17441648, 0.5809662, -392739.78, -33665.57, 0.00000094846536, 10.000769, 9.997361 
1.755289e+3, 2.7336025e+2, -198377.83, -510905.78, 2318.4414, 0.027693028, 0.41240302, -198360.64, 62754.105, 0.000030605133, 10.00154, 9.997389 
1.7553161e+3, 2.8335786e+2, 64185.76, -174038.95, -20025.004, 0.018516148, 0.38350716, 65857.32, 228996.02, 0.0002004244, 10.001968, 9.998838 
1.7553398e+3, 2.933582e+2, 132211.02, -43989.46, 75795.3, -0.28570193, 0.44784415, 160328.6, 225462.2, 0.000696972, 10.00157, 9.999245 
1.7553669e+3, 3.033575e+2, 42263.703, -184946.33, 55537.438, -0.19599998, 0.5259851, 55112.26, 55112.26, 0.0016492817, 10.001143, 9.998161 
1.7553933e+3, 3.1335676e+2, 181271.44, 92118.11, 39081.93, -0.064052336, 0.54802936, 195977.8, 195977.8, 0.002997406, 10.001199, 9.999999 
1.7648804e+3, 1.2334987e+2, -1970226.1, -2124592.8, -135803.23, -0.23321956, 0.5300626, -1891205.1, -160001.17, 0.07790593, 9.9994, 9.997446 
1.7649083e+3, 1.3334697e+2, -1654600.1, -1631586.9, -92739.984, 0.13440457, 0.23626104, -1549642.4, 83590.87, 0.05123237, 9.9997015, 10.000029 
1.7649329e+3, 1.4334653e+2, -1638606.4, -1656939.0, -10735.082, 0.061498053, 0.2204104, -1633656.6, -98418.484, 0.026445003, 9.999478, 9.99929 
1.7649603e+3, 1.533476e+2, -1525534.3, -1563548.6, -38717.867, 0.13567619, 0.38413432, -1501409.6, -64177.742, 0.009296644, 9.999667, 9.999151 
1.7649871e+3, 1.6334769e+2, -1429076.9, -1488618.0, 7634.3926, 0.10099164, 0.50394434, -1428113.6, -88879.3, 0.0016790463, 9.999738, 9.99896 
1.7650147e+3, 1.7334685e+2, -1324332.9, -1357355.1, 64187.76, 0.058844756, 0.47178543, -1274566.6, -33322.945, 0.000074904594, 9.999658, 9.999223 
1.7650418e+3, 1.8334605e+2, -1257678.3, -1277989.4, 70411.234, 0.028366081, 0.4850394, -1196694.0, -53442.445, 0.000000009428086, 9.9994545, 9.9992 
1.7650676e+3, 1.9334519e+2, -1119934.9, -1130804.0, 58016.59, -0.06811622, 0.42839018, -1067098.9, -21840.775, 0.0, 9.999619, 9.999446 
1.7650944e+3, 2.0334414e+2, -968374.1, -995325.25, 103609.89, -0.096424446, 0.38871357, -877367.2, 69899.4, 0.0, 9.999914, 9.999572 
1.7651238e+3, 2.1334323e+2, -766757.44, -810766.75, 57444.51, 0.02853903, 0.28984594, -727247.25, 122026.48, 0.0, 10.000486, 9.999882 
1.7651525e+3, 2.2334248e+2, -697359.06, -935030.06, 56974.063, 0.0974919, 0.3187193, -684407.2, 66875.27, 0.0, 10.001168, 9.9980345 
1.7651801e+3, 2.3334205e+2, -456671.38, -776795.7, 93139.89, 0.02308276, 0.45598498, -431544.6, 221748.94, 0.0, 10.002204, 9.997937 
1.765207e+3, 2.433416e+2, -245425.92, -534274.2, 108648.81, -0.07418519, 0.5952623, -209121.27, 346180.44, 0.0, 10.002562, 9.998779 
1.7652334e+3, 2.533413e+2, -256416.95, -439457.7, 72407.93, -0.18745463, 0.62290484, -231237.34, 226064.81, 0.0, 10.001615, 9.999205 
1.7652613e+3, 2.6333967e+2, -358205.7, -651148.06, 86985.35, -0.15985075, 0.63444936, -334323.53, 24994.117, 0.0000007067664, 10.001171, 9.997283 
1.765291e+3, 2.7333573e+2, -180874.83, -524262.75, 122555.52, 0.058750525, 0.49133566, -141621.7, 119737.44, 0.000029110019, 10.001766, 9.997186 
1.765318e+3, 2.8333303e+2, 31788.266, -154900.44, 104972.35, 0.06698398, 0.43458304, 78915.84, 242301.66, 0.00020337792, 10.001602, 9.999152 
1.7653412e+3, 2.933329e+2, -49411.973, -94805.31, 9981.204, -0.22031282, 0.42040378, -47314.223, 18068.41, 0.0007255654, 10.000167, 9.999575 
1.765368e+3, 3.0333254e+2, -11971.895, -193810.2, 16583.982, -0.15383185, 0.50974685, -10471.78, -10471.78, 0.0017280998, 10.000682, 9.9983225 
1.7653964e+3, 3.1333122e+2, 662218.75, 329994.13, -136911.89, -0.009839672, 0.4715526, 711369.44, 711369.44, 0.0031350597, 10.004448, 10.000096 
1.7748816e+3, 1.2331899e+2, -1773292.4, -1741708.0, 12271.813, -0.13163267, 0.17260394, -1737500.4, -5989.0967, 0.08231803, 9.999487, 10.000043 
1.7749065e+3, 1.333237e+2, -1633919.6, -1585695.5, -87033.266, -0.037336513, 0.59390604, -1519496.0, 113969.44, 0.054393712, 9.999682, 10.000364 
1.7749335e+3, 1.4332122e+2, -1683059.9, -1759035.0, -28737.266, 0.14475088, 0.39050126, -1673414.6, -137923.69, 0.02831169, 9.999513, 9.998576 
1.7749584e+3, 1.5332016e+2, -1576104.3, -1668533.5, -19519.068, -0.058079574, 0.41276926, -1572151.3, -134643.97, 0.010105246, 9.999662, 9.998434 
1.7749846e+3, 1.6332008e+2, -1341910.0, -1319223.1, -6586.185, -0.14998695, 0.50633186, -1317449.8, 22061.176, 0.0018804772, 9.9997835, 10.000102 
1.775015e+3, 1.7332098e+2, -1226731.8, -1149679.9, 70196.586, 0.11019804, 0.50593245, -1108132.1, 133366.84, 0.00008970714, 9.9996395, 10.000655 
1.7750438e+3, 1.8332103e+2, -1221086.8, -1216528.1, 60024.33, 0.23959385, 0.50616604, -1158739.8, -15244.198, 0.000000028818846, 9.99951, 9.999596 
1.7750692e+3, 1.9332004e+2, -1109567.3, -1098716.8, 74026.78, 0.10367215, 0.41148466, -1029916.6, 15587.185, 0.0, 9.999566, 9.999693 
1.7750953e+3, 2.0331906e+2, -1054354.0, -1145430.4, 110026.69, -0.018279802, 0.40402827, -980814.06, -33300.938, 0.0, 9.9998, 9.99859 
1.7751233e+3, 2.1331814e+2, -882841.44, -1008610.75, 89474.86, -0.07490912, 0.42422515, -836363.25, 13160.751, 0.0, 10.000309, 9.998603 
1.775152e+3, 2.2331737e+2, -669459.0, -829151.2, 83253.17, -0.10062315, 0.4919669, -633951.3, 117582.31, 0.0, 10.000951, 9.998871 
1.7751816e+3, 2.333171e+2, -390819.56, -599241.94, 144423.72, -0.05354636, 0.5145678, -316934.78, 336603.3, 0.0, 10.002013, 9.999253 
1.7752099e+3, 2.4331602e+2, -306736.53, -593564.3, 70325.33, -0.057722986, 0.52362466, -290421.9, 265127.47, 0.0, 10.002273, 9.9985075 
1.7752355e+3, 2.5331372e+2, -326974.13, -540091.75, 48905.418, -0.15599214, 0.4059564, -316287.38, 141282.7, 0.0, 10.001425, 9.9986 
1.7752627e+3, 2.6331228e+2, -316078.34, -514422.25, 90575.56, -0.15765724, 0.42714128, -280940.9, 78642.51, 0.00000032366296, 10.00096, 9.998324 
1.7752923e+3, 2.7331254e+2, -125868.766, -341851.7, 161096.0, 0.011397068, 0.56914383, -39916.727, 221665.7, 0.00002512301, 10.0014925, 9.998561 
1.7753194e+3, 2.8331104e+2, -89260.33, -346607.78, 42329.773, 0.011054786, 0.60369945, -82476.55, 81120.484, 0.00020098852, 10.001334, 9.99797 
1.7753415e+3, 2.933069e+2, -171927.31, -325890.34, -26879.068, -0.23196502, 0.33618107, -167369.64, -101734.945, 0.0007424793, 10.000066, 9.998035 
1.775369e+3, 3.0330476e+2, -111156.305, -345504.72, 120190.01, -0.16001824, 0.36714083, -60475.117, -60475.117, 0.0017693732, 10.00046, 9.997383 
1.775402e+3, 3.1330404e+2, 486507.13, 162857.25, 49022.85, 0.0474694, 0.4821379, 493769.6, 493769.6, 0.0031776992, 10.003656, 9.999294 
1.7848824e+3, 1.2329055e+2, -1968438.0, -1810509.0, 39696.555, 0.091174684, 0.17355064, -1801092.4, -69296.336, 0.08696164, 9.998086, 10.000227 
1.784904e+3, 1.33298e+2, -1497954.3, -1451890.3, -143434.67, -0.2910148, 0.8158416, -1329650.3, 304072.22, 0.057701517, 10.00039, 10.000977 
1.7849344e+3, 1.4329359e+2, -1489719.0, -1626534.8, -60263.906, 0.24355866, 0.3744107, -1466960.1, 68805.45, 0.030258754, 10.000703, 9.998907 
1.7849582e+3, 1.5329292e+2, -1511950.0, -1606756.1, -627.7517, -0.03944125, 0.40449932, -1511945.9, -74169.305, 0.0109521225, 9.999962, 9.998716 
1.7849842e+3, 1.6329333e+2, -1394922.8, -1323407.1, 56750.445, -0.14293934, 0.5217636, -1292088.6, 47685.543, 0.0020959692, 9.999323, 10.000296 
1.7850147e+3, 1.7329417e+2, -1288206.3, -1154387.0, 9972.88, 0.1516738, 0.49482265, -1153647.9, 88114.66, 0.000105867584, 9.9991255, 10.000864 
1.7850436e+3, 1.8329419e+2, -1271584.8, -1245905.4, -21802.936, 0.30413392, 0.48200023, -1233442.4, -89682.2, 0.0000000562377, 9.9991865, 9.999556 
1.7850694e+3, 1.932935e+2, -1037002.8, -1070454.1, -46240.625, 0.15650816, 0.42621362, -1004555.9, 41210.98, 0.0, 10.000081, 9.999642 
1.785096e+3, 2.0329274e+2, -926523.4, -1091913.5, 20272.656, 0.030790122, 0.4464626, -924074.7, 23700.094, 0.0, 10.000701, 9.998533 
1.7851241e+3, 2.132918e+2, -780399.4, -965449.44, 58941.098, -0.04577001, 0.46939874, -763220.56, 86564.64, 0.0, 10.001028, 9.998563 
1.7851527e+3, 2.2329094e+2, -674504.94, -810239.94, 96180.586, -0.09540131, 0.52460325, -624657.94, 127136.64, 0.0, 10.000841, 9.999055 
1.785182e+3, 2.3329054e+2, -703028.44, -725447.9, 51188.152, -0.09785869, 0.517254, -661837.0, -8037.9673, 0.0, 9.999784, 9.999461 
1.7852105e+3, 2.4328937e+2, -676387.0, -727546.8, -19768.416, -0.08932336, 0.49305138, -669638.56, -113828.42, 0.0, 9.999569, 9.998876 
1.7852373e+3, 2.5328705e+2, -355956.8, -510139.66, 454.43985, -0.08782679, 0.3339392, -355955.47, 101874.836, 0.0, 10.001059, 9.998971 
1.785265e+3, 2.6328602e+2, -159423.16, -371810.2, 72978.13, -0.045548007, 0.34950596, -136764.55, 223073.83, 0.00000018370703, 10.001722, 9.998953 
1.7852935e+3, 2.732872e+2, -176638.73, -306425.4, 69294.05, 0.023424178, 0.5233685, -146596.25, 115229.91, 0.000020759246, 10.000825, 9.999158 
1.7853203e+3, 2.8328586e+2, -169950.36, -429745.03, 6566.429, 0.0038475303, 0.55828214, -169784.5, -5946.295, 0.0001926232, 10.000993, 9.997546 
1.7853442e+3, 2.9328084e+2, 267171.0, -183926.33, -37043.402, -0.12493757, 0.26919177, 270192.72, 336078.44, 0.00073848147, 10.003397, 9.997394 
1.7853722e+3, 3.0327824e+2, 377886.8, -141007.78, 173675.98, -0.05031272, 0.30016395, 430651.38, 430651.38, 0.001753451, 10.0039625, 9.997097 
1.7854048e+3, 3.132773e+2, 5759.656, -165884.7, 51518.555, 0.13496019, 0.43911824, 20035.469, 20035.469, 0.0030955747, 10.000721, 9.998462 
1.7948826e+3, 1.2326401e+2, -2128207.0, -2169251.8, -55894.367, 0.23024657, 0.4519154, -2089186.6, -357123.25, 0.09190124, 9.998193, 9.997724 
1.7948999e+3, 1.3326979e+2, -1433581.9, -1339103.1, -77649.45, -0.7697015, 0.88186127, -1295452.4, 338552.28, 0.06119029, 10.000458, 10.001791 
1.7949353e+3, 1.4326374e+2, -1401390.4, -1449666.5, -103699.42, 0.21915668, 0.17848025, -1319056.8, 217004.08, 0.03230053, 10.000751, 10.0001135 
1.7949598e+3, 1.53266e+2, -1429253.3, -1426385.5, -17737.066, 0.09406929, 0.37302843, -1410024.5, 28013.877, 0.011841973, 9.999936, 9.999962 
1.7949854e+3, 1.6326751e+2, -1434421.6, -1424981.8, 31949.629, 0.0041771806, 0.56029457, -1397405.3, -57381.848, 0.0023264778, 9.999396, 9.999569 
1.7950134e+3, 1.7326637e+2, -1359370.0, -1307147.9, 9294.933, 0.08895571, 0.44186404, -1305542.9, -63507.58, 0.00012352158, 9.999138, 9.999816 
1.7950411e+3, 1.8326548e+2, -1296165.1, -1307659.3, -8847.113, 0.10094183, 0.41510257, -1291362.3, -147316.75, 0.000000085167756, 9.999235, 9.999107 
1.795068e+3, 1.9326559e+2, -1076098.5, -1134261.0, -4323.9063, -0.01091795, 0.4779118, -1075778.8, -29731.723, 0.0, 10.000008, 9.999241 
1.7950958e+3, 2.0326531e+2, -886038.5, -980125.4, 22743.88, -0.07278932, 0.5339035, -880829.0, 67221.37, 0.0, 10.000572, 9.999367 
1.7951259e+3, 2.1326432e+2, -724235.9, -816644.25, 81795.66, 0.0039094565, 0.44507003, -676496.7, 173559.19, 0.0, 10.000876, 9.999665 
1.7951545e+3, 2.232632e+2, -743582.75, -904689.25, 52319.305, -0.011626303, 0.4329051, -728083.2, 23981.846, 0.0, 10.000628, 9.99851 
1.7951807e+3, 2.3326227e+2, -791128.1, -867789.25, 23958.754, -0.20217122, 0.45548308, -784256.3, -130179.13, 0.0, 9.999613, 9.998565 
1.7952083e+3, 2.4326146e+2, -647993.44, -621520.25, 14774.897, -0.27719352, 0.4857625, -614919.9, -58834.39, 0.0, 9.999362, 9.999707 
1.7952386e+3, 2.5326112e+2, -303521.84, -348623.3, 72183.84, -0.08711179, 0.40755567, -250448.22, 207635.83, 0.0, 10.000838, 10.000184 
1.7952678e+3, 2.6326063e+2, -186645.44, -361516.06, 41821.63, 0.043847673, 0.397652, -177158.19, 182926.53, 0.00000013255313, 10.001435, 9.999162 
1.7952941e+3, 2.7325985e+2, -198964.16, -303672.94, 45244.89, -0.017272938, 0.36789316, -182122.58, 79966.16, 0.0000188634, 10.000634, 9.999258 
1.7953207e+3, 2.8325802e+2, -194723.95, -439746.63, 58210.09, -0.08813595, 0.34277076, -181598.13, -17493.754, 0.00018772867, 10.000802, 9.997577 
1.7953485e+3, 2.932549e+2, 219617.39, -191315.47, 78717.01, -0.05494688, 0.23883025, 234180.1, 300314.56, 0.00073076796, 10.003015, 9.997523 
1.795377e+3, 3.0325285e+2, 296886.22, -198949.8, 69453.23, 0.0004016894, 0.32018992, 306431.0, 306431.0, 0.0017121877, 10.003473, 9.996943 
1.7954043e+3, 3.1325108e+2, -84031.805, -256255.0, -6025.275, -0.02697405, 0.38041666, -83821.266, -83821.266, 0.002951239, 10.000348, 9.998 
1.8048841e+3, 1.23237744e+2, -1817030.5, -2046847.5, 136717.17, 0.45520404, 0.50337553, -1753345.8, -21023.016, 0.097200245, 10.000482, 9.997449 
1.8048996e+3, 1.3324271e+2, -1633615.3, -1480097.5, 22972.096, -0.7622848, 0.8865066, -1476733.8, 157538.8, 0.06490086, 9.999198, 10.001372 
1.8049353e+3, 1.4323592e+2, -1764875.6, -1609126.5, -53748.902, 0.28250003, 0.12513572, -1592378.6, -56042.883, 0.034457777, 9.998145, 10.000256 
1.8049598e+3, 1.5323888e+2, -1506880.9, -1429294.1, -56986.27, 0.15450564, 0.3621454, -1399150.1, 39154.938, 0.0127833225, 9.999249, 10.000269 
1.8049851e+3, 1.6324082e+2, -1368978.1, -1411649.6, -7141.3696, 0.02721343, 0.5814528, -1367814.6, -27528.92, 0.0025744103, 9.999932, 9.999404 
1.8050125e+3, 1.7323959e+2, -1232801.8, -1269507.4, 3342.9263, 0.049859256, 0.47629267, -1232499.8, 9799.859, 0.00014305822, 10.000113, 9.999601 
1.8050402e+3, 1.832386e+2, -1182864.1, -1264361.9, 64405.72, 0.06470275, 0.4572113, -1147399.0, -3087.5876, 0.00000010953618, 10.000054, 9.999008 
1.805068e+3, 1.9323868e+2, -1099414.6, -1151272.0, 70970.17, 0.0064992313, 0.52090544, -1049785.0, -3471.6235, 0.0, 9.999884, 9.999176 
1.8050964e+3, 2.0323835e+2, -991888.5, -1016506.56, 112327.82, -0.024705444, 0.572315, -891197.3, 57119.527, 0.0, 9.999785, 9.999502 
1.8051264e+3, 2.132374e+2, -850069.0, -854380.7, 82790.695, 0.021466631, 0.47182843, -769406.06, 80915.4, 0.0, 9.999927, 9.999859 
1.805155e+3, 2.2323623e+2, -785122.0, -908381.06, 44373.113, -0.0046279104, 0.4343198, -770809.6, -18479.104, 0.0, 10.000298, 9.998628 
1.8051812e+3, 2.3323487e+2, -542039.75, -739482.8, 58503.57, -0.20301718, 0.408651, -526006.75, 128338.54, 0.0, 10.001298, 9.998622 
1.8052088e+3, 2.4323414e+2, -331914.63, -460992.25, 86863.27, -0.26214376, 0.4390153, -288238.44, 268113.44, 0.0, 10.001477, 9.999808 
1.8052393e+3, 2.5323474e+2, -420192.97, -400852.5, 41245.39, -0.030048277, 0.45063505, -368158.88, 90182.99, 0.0, 9.99999, 10.000258 
1.805269e+3, 2.632343e+2, -432321.16, -488400.94, 6633.644, 0.11324554, 0.44604313, -431547.16, -71204.74, 0.00000007008213, 9.999791, 9.999078 
1.8052955e+3, 2.73232e+2, 10306.448, -226229.7, -30414.672, -0.015171137, 0.28598118, 14154.67, 276515.84, 0.000018211349, 10.002165, 9.999062 
1.8053223e+3, 2.8323007e+2, 155969.55, -229850.5, -15309.445, -0.09248588, 0.24741878, 156576.08, 320954.3, 0.00018396281, 10.003033, 9.99794 
1.8053512e+3, 2.9322913e+2, -8746.8, -253730.2, -10422.82, 0.01311389, 0.32332113, -8304.161, 58083.613, 0.0007176482, 10.001224, 9.997962 
1.8053795e+3, 3.032276e+2, -43679.676, -304934.7, 35532.945, 0.06243232, 0.4093406, -38933.125, -38933.125, 0.0016599778, 10.000894, 9.997451 
1.8054065e+3, 3.1322578e+2, 328081.75, -58223.504, -48033.26, 0.019357523, 0.43774346, 333964.63, 333964.63, 0.0028120165, 10.003099, 9.998088 
1.8148828e+3, 1.2321183e+2, -1666392.0, -1740503.0, 89219.62, 0.21262844, 0.33481675, -1606838.8, 125734.79, 0.10291468, 10.000565, 9.999547 
1.8149029e+3, 1.3321666e+2, -1751897.0, -1706694.0, -38586.402, -0.384021, 0.8311921, -1684577.1, -50050.8, 0.06887483, 9.999167, 9.999756 
1.814934e+3, 1.4321004e+2, -1807023.8, -1710308.8, -51349.54, 0.31476745, 0.20912953, -1688131.0, -151540.25, 0.036753505, 9.998191, 9.999547 
1.8149582e+3, 1.5321149e+2, -1545101.3, -1517404.8, -2948.666, 0.030729365, 0.35942706, -1517094.4, -78516.484, 0.01378539, 9.999275, 9.999659 
1.8149829e+3, 1.632133e+2, -1331499.3, -1349921.3, -9915.091, -0.22027884, 0.5832797, -1327176.9, 13384.046, 0.002842686, 9.999999, 9.999793 
1.8150118e+3, 1.7321385e+2, -1196865.3, -1197262.6, 19709.992, -0.056657054, 0.60146886, -1177353.0, 65202.54, 0.00016504708, 10.000111, 10.000101 
1.8150407e+3, 1.8321362e+2, -1157966.3, -1220647.5, 46377.41, 0.083512686, 0.61725175, -1133332.9, 11224.741, 0.00000012908751, 10.000084, 9.999296 
1.815069e+3, 1.9321272e+2, -1084485.9, -1116133.9, 73402.41, 0.103273146, 0.5581282, -1025221.2, 21345.328, 0.0, 9.999859, 9.9994335 
1.8150972e+3, 2.0321181e+2, -1046375.6, -1104516.5, 104480.07, 0.05258475, 0.55738306, -966997.1, -18421.785, 0.0, 9.999681, 9.998944 
1.8151253e+3, 2.1321094e+2, -925013.75, -975566.94, 98728.03, -0.07794365, 0.5350956, -848377.94, 2205.4863, 0.0, 9.999775, 9.9991 
1.8151537e+3, 2.232098e+2, -774149.94, -831996.94, 64952.387, -0.17816454, 0.51994765, -731972.25, 20620.775, 0.0, 10.000064, 9.999267 
1.8151826e+3, 2.3320834e+2, -508657.97, -620400.56, 108570.74, -0.21486275, 0.3936062, -442425.97, 212177.5, 0.0, 10.0010805, 9.999546 
1.8152112e+3, 2.432074e+2, -419615.3, -582602.56, 34307.758, -0.18998457, 0.37911355, -412688.16, 143921.7, 0.0, 10.001216, 9.999096 
1.8152396e+3, 2.5320774e+2, -505673.13, -547271.56, -3807.6274, -0.01782331, 0.4552862, -505327.47, -46722.02, 0.0, 9.999858, 9.9993105 
1.8152684e+3, 2.6320687e+2, -495132.13, -578697.2, 62250.938, 0.054070517, 0.48578164, -461941.6, -101328.93, 0.0000000874347, 9.999612, 9.998547 
1.8152972e+3, 2.7320376e+2, -64830.715, -309733.34, 81293.445, -0.086079724, 0.27827445, -40302.613, 222339.23, 0.00001648955, 10.001864, 9.998623 
1.815325e+3, 2.832021e+2, 131741.14, -199268.56, -68181.65, -0.16413186, 0.2822396, 145235.16, 309892.66, 0.00017264257, 10.002672, 9.998328 
1.815352e+3, 2.932035e+2, 20238.268, -160841.75, -56567.41, -0.059020735, 0.5174577, 36456.703, 103101.38, 0.00068279123, 10.001076, 9.99867 
1.8153797e+3, 3.032025e+2, -30304.766, -220248.19, 76634.06, -0.028295223, 0.58354145, -3242.035, -3242.035, 0.0015890675, 10.000668, 9.998137 
1.8154086e+3, 3.131991e+2, 285955.16, 56128.652, 117109.65, -0.12137912, 0.3723036, 335114.22, 335114.22, 0.002703993, 10.002309, 9.999215 
1.82488e+3, 1.2318597e+2, -2016687.3, -1757457.6, 85023.57, 0.05546237, 0.35464108, -1732059.5, 768.11273, 0.10907774, 9.997436, 10.000897 
1.8249042e+3, 1.3319062e+2, -1874278.6, -1843331.1, -138617.14, -0.108062506, 0.8833654, -1719326.8, -84543.14, 0.07313931, 9.998628, 9.999087 
1.8249339e+3, 1.4318405e+2, -1604187.9, -1622702.8, -28598.666, 0.41346192, 0.30108348, -1583385.6, -46536.375, 0.039204508, 9.999664, 9.999421 
1.8249576e+3, 1.531851e+2, -1496424.3, -1520906.3, 20305.139, 0.025261916, 0.43373278, -1484955.8, -46115.02, 0.014855209, 9.999744, 9.9994 
1.8249819e+3, 1.6318646e+2, -1380582.3, -1369387.8, 25553.285, -0.2924316, 0.6292868, -1348825.9, -7998.189, 0.0031336718, 9.999645, 9.9998255 
1.8250117e+3, 1.7318664e+2, -1230462.9, -1193184.3, 38.518517, -0.04813955, 0.5978799, -1193184.1, 49639.176, 0.00019006866, 9.999811, 10.000264 
1.8250416e+3, 1.8318625e+2, -1157964.4, -1201603.0, 27296.148, 0.1729527, 0.57938856, -1144838.6, -13.422947, 0.00000015151502, 10.000007, 9.999463 
1.8250701e+3, 1.931856e+2, -982159.06, -1047584.4, 23394.781, 0.18959594, 0.5320078, -974654.4, 72175.97, 0.0, 10.000501, 9.99959 
1.825098e+3, 2.0318474e+2, -918967.3, -1104258.9, 67465.305, 0.11940597, 0.55157346, -897005.94, 51832.996, 0.0, 10.000824, 9.998383 
1.8251255e+3, 2.1318337e+2, -806883.94, -996448.75, 42217.22, -0.09042943, 0.54858184, -797907.06, 52948.324, 0.0, 10.00093, 9.998386 
1.8251538e+3, 2.2318217e+2, -656799.3, -752144.2, 22391.076, -0.20545596, 0.5580401, -651802.8, 101064.734, 0.0, 10.000727, 9.999513 
1.8251835e+3, 2.3318157e+2, -641416.9, -629068.94, 11178.669, -0.15331182, 0.46941322, -622472.56, 32395.727, 0.0, 9.999913, 10.000057 
1.8252128e+3, 2.4318083e+2, -610305.6, -692454.0, -35563.88, -0.074113, 0.45236716, -597048.6, -40176.95, 0.0, 9.999992, 9.998921 
1.8252411e+3, 2.531801e+2, -240349.89, -455379.1, -51675.492, 0.045180455, 0.45277172, -228576.0, 230302.03, 0.0, 10.001842, 9.998976 
1.8252696e+3, 2.6317883e+2, -95182.86, -370575.75, 68732.75, 0.09672266, 0.45561814, -78981.61, 281907.8, 0.00000011582431, 10.002312, 9.998666 
1.8252987e+3, 2.7317655e+2, -300754.25, -409552.03, 88498.63, -0.010256857, 0.32052252, -251272.2, 11638.808, 0.000015405387, 10.00018, 9.998752 
1.8253268e+3, 2.831753e+2, -262317.75, -346425.63, 19773.465, -0.07823815, 0.34250635, -257901.0, -92978.9, 0.00016033727, 9.999787, 9.998706 
1.8253535e+3, 2.9317638e+2, 282997.13, 1817.8375, -18126.797, -0.079236664, 0.51980954, 284160.9, 351070.13, 0.000639737, 10.002718, 9.999005 
1.8253817e+3, 3.0317485e+2, 398869.22, -37115.684, 72778.54, -0.038687177, 0.5215384, 410697.16, 410697.16, 0.001517877, 10.003705, 9.997932 
1.825412e+3, 3.1317067e+2, 138031.1, -47943.496, -12537.655, 0.08378132, 0.27647176, 138872.53, 138872.53, 0.0026419428, 10.00134, 9.999013 
1.8348765e+3, 1.2315946e+2, -1985002.4, -1711162.3, 236460.61, -0.0931611, 0.4767028, -1574841.1, 158250.92, 0.11569034, 9.997469, 10.001322 
1.834904e+3, 1.3316475e+2, -1841020.4, -1778036.1, -72400.74, -0.045507897, 1.0487396, -1730575.0, -95531.805, 0.07769921, 9.998643, 9.999525 
1.8349339e+3, 1.4315815e+2, -1569005.8, -1570288.5, -25482.834, 0.41515088, 0.41415086, -1544156.1, -7047.0845, 0.04181763, 9.999746, 9.9997425 
1.8349575e+3, 1.5315972e+2, -1491768.1, -1517526.0, 31569.734, 0.023087097, 0.58983254, -1470551.4, -31457.773, 0.015997248, 9.999762, 9.999418 
1.8349817e+3, 1.6316034e+2, -1388629.1, -1403117.6, 11505.848, -0.29995123, 0.7244315, -1382276.9, -41191.42, 0.0034491862, 9.999713, 9.999564 
1.8350121e+3, 1.7315784e+2, -1243679.4, -1231162.4, 13805.815, -0.020237638, 0.45094246, -1222262.8, 20842.021, 0.00021871291, 9.999841, 9.999996 
1.8350421e+3, 1.8315625e+2, -1156610.4, -1200590.1, 30296.11, 0.19589059, 0.32788444, -1141164.9, 3951.4634, 0.00000018976193, 10.000025, 9.999456 
1.8350704e+3, 1.9315717e+2, -993835.3, -1056837.4, 51171.38, 0.1656275, 0.43736833, -965246.2, 81860.03, 0.0, 10.000437, 9.999557 
1.8350984e+3, 2.0315701e+2, -973210.8, -1188224.4, 60917.863, 0.059122972, 0.5500229, -957151.0, -8042.018, 0.0, 10.000701, 9.997866 
1.8351263e+3, 2.1315475e+2, -876499.94, -1100905.5, 54150.246, -0.12795487, 0.51980174, -864116.56, -12979.268, 0.0, 10.000759, 9.99775 
1.8351546e+3, 2.2315343e+2, -699061.06, -782463.6, -10762.546, -0.21917439, 0.561273, -697694.56, 55458.652, 0.0, 10.00048, 9.999427 
1.835184e+3, 2.3315434e+2, -661623.5, -628420.0, -6062.253, -0.113271624, 0.6179452, -627347.75, 27793.494, 0.0, 9.999733, 10.000152 
1.8352135e+3, 2.4315418e+2, -624493.56, -666510.6, 7115.971, -0.022271855, 0.6402558, -623321.1, -66181.71, 0.0, 9.99975, 9.999221 
1.8352431e+3, 2.5315192e+2, -258098.44, -431167.28, 36273.17, 0.053110246, 0.46230552, -250803.5, 208354.23, 0.0, 10.001587, 9.999265 
1.8352722e+3, 2.6315033e+2, -104014.27, -332191.75, 4271.2563, 0.09651015, 0.40038207, -103934.34, 257235.95, 0.000000090536304, 10.002057, 9.999056 
1.8353e+3, 2.7315006e+2, -279578.3, -340660.94, 24689.297, 0.080822475, 0.41460612, -270847.1, -7675.9634, 0.00001528185, 10.00007, 9.999277 
1.8353279e+3, 2.831492e+2, -267311.56, -325422.03, 79109.19, 0.0034110476, 0.43219462, -212090.64, -46914.766, 0.00015301339, 9.999646, 9.99892 
1.8353555e+3, 2.9314777e+2, 246922.56, 4691.9775, 111504.85, -0.18031448, 0.335344, 290434.88, 357617.56, 0.00060723, 10.002394, 9.999173 
1.8353848e+3, 3.0314517e+2, 224771.28, -277591.0, -5005.1606, -0.1388208, 0.2813339, 224821.16, 224821.16, 0.0014659015, 10.00319, 9.996524 
1.835415e+3, 3.131412e+2, -47482.566, -313748.28, 3612.092, 0.19122551, 0.20536226, -47433.574, -47433.574, 0.0026169054, 10.000853, 9.997405 
1.8448737e+3, 1.23130314e+2, -2142300.3, -1806122.9, 204198.2, -0.06287662, 0.48096722, -1709729.6, 23648.752, 0.12272786, 9.996496, 10.00106 
1.8449028e+3, 1.3313599e+2, -1888130.4, -1663888.0, -68345.63, 0.027310237, 0.99661875, -1644699.3, -9373.533, 0.08254445, 9.99778, 10.000712 
1.8449318e+3, 1.431312e+2, -1643652.6, -1570060.3, -23882.662, 0.285148, 0.45999718, -1562989.1, -25615.371, 0.04459436, 9.999058, 10.000089 
1.8449572e+3, 1.5313283e+2, -1596593.8, -1542625.9, -1270.9738, 0.06969302, 0.6201196, -1542596.0, -103238.77, 0.017215712, 9.998937, 9.999644 
1.8449828e+3, 1.631334e+2, -1504727.6, -1480750.9, 36791.36, -0.12686872, 0.74304634, -1454043.9, -112694.41, 0.0037916328, 9.999037, 9.999355 
1.8450125e+3, 1.7313041e+2, -1218465.1, -1253771.4, 17660.322, 0.021442132, 0.4549158, -1211147.9, 32226.27, 0.00025177147, 10.000188, 9.999671 
1.8450421e+3, 1.8312842e+2, -1065045.9, -1200871.3, 24620.152, 0.16047226, 0.32705113, -1060720.9, 84669.37, 0.00000025167606, 10.000832, 9.999069 
1.845071e+3, 1.9312914e+2, -977513.94, -1090279.9, -8240.89, 0.16911402, 0.45342657, -976914.9, 70468.08, 0.0, 10.000714, 9.99919 
1.8450992e+3, 2.0312889e+2, -987255.25, -1160044.8, 22887.057, 0.098109536, 0.56583947, -984275.1, -34888.754, 0.0, 10.000448, 9.998189 
1.8451269e+3, 2.1312685e+2, -924301.1, -1068748.6, 72913.414, -0.10323571, 0.5124021, -893896.25, -42486.023, 0.0, 10.000201, 9.998246 
1.845155e+3, 2.2312556e+2, -783592.0, -860264.06, 69515.16, -0.18021873, 0.5422767, -742542.9, 10882.304, 0.0, 10.00009, 9.999062 
1.8451846e+3, 2.331259e+2, -605833.06, -665550.3, 3209.1724, -0.047962233, 0.5976322, -605661.1, 49760.195, 0.0, 10.0004015, 9.999559 
1.8452144e+3, 2.4312551e+2, -493524.16, -575457.7, 39709.82, 0.0659033, 0.6177491, -477437.03, 79986.31, 0.0, 10.000542, 9.999454 
1.8452446e+3, 2.5312382e+2, -405276.72, -458967.94, 52243.637, 0.12160503, 0.4571316, -373384.9, 86050.74, 0.0, 10.0003805, 9.999654 
1.845274e+3, 2.6312277e+2, -302389.2, -418766.2, 8755.817, 0.149863, 0.42310572, -301734.13, 59708.19, 0.00000009817215, 10.000667, 9.999126 
1.8453011e+3, 2.7312303e+2, -784.4859, -206927.92, -36041.57, 0.08312251, 0.49354818, 5335.2505, 268772.84, 0.000013983738, 10.002001, 9.999258 
1.8453288e+3, 2.8312176e+2, 133407.05, -159406.19, 40249.41, -0.008601912, 0.48432827, 138838.86, 304285.16, 0.00014297603, 10.002531, 9.998673 
1.8453577e+3, 2.9311854e+2, 78884.484, -107129.555, -5552.95, -0.12948476, 0.24458994, 79050.11, 146521.28, 0.000574171, 10.001375, 9.998905 
1.845388e+3, 3.0311617e+2, -64840.844, -331334.25, -78373.08, 0.015289369, 0.20205338, -43500.926, -43500.926, 0.0014107538, 10.000821, 9.997309 
1.8454158e+3, 3.1311366e+2, 178900.64, -97043.89, 53972.195, 0.15165259, 0.18412845, 189081.48, 189081.48, 0.0025697849, 10.001928, 9.998384 
1.8548714e+3, 1.2309865e+2, -2203310.0, -1979040.5, 16196.61, -0.010243811, 0.3628042, -1977876.9, -244191.67, 0.13014582, 9.996667, 9.999787 
1.8549006e+3, 1.3310422e+2, -1761429.3, -1423098.5, 14330.288, 0.01245905, 0.6990135, -1422492.6, 213140.17, 0.08765755, 9.997768, 10.002519 
1.8549274e+3, 1.4310312e+2, -1609369.8, -1508483.6, -24406.387, -0.11359905, 0.41910955, -1502889.5, 34753.984, 0.04753598, 9.999092, 10.00051 
1.8549562e+3, 1.5310438e+2, -1565580.5, -1488529.4, 2245.492, 0.049512148, 0.5112506, -1488464.0, -48832.29, 0.01851746, 9.998975, 10.000001 
1.8549843e+3, 1.6310552e+2, -1508444.5, -1504694.1, 53374.766, 0.08382771, 0.6739753, -1453161.6, -111540.945, 0.0041650403, 9.9991045, 9.999159 
1.8550125e+3, 1.7310421e+2, -1250147.6, -1320058.3, 72034.95, -0.024068113, 0.5950538, -1205034.9, 38597.836, 0.00029041685, 10.000182, 9.999222 
1.8550411e+3, 1.831026e+2, -1109693.3, -1299710.1, 14472.833, -0.050450355, 0.56169176, -1108597.3, 37051.01, 0.0000003514084, 10.000861, 9.998377 
1.8550712e+3, 1.9310147e+2, -1039204.5, -1201346.4, -6522.0376, 0.09321264, 0.57769924, -1038942.56, 8717.895, 0.0, 10.00064, 9.9984665 
1.8551001e+3, 2.031004e+2, -930182.56, -1008917.0, 2410.5793, 0.110351, 0.6067634, -930108.9, 19561.758, 0.0, 10.000311, 9.999291 
1.855127e+3, 2.1309958e+2, -840479.0, -856473.3, 73682.74, -0.10358364, 0.5257083, -774360.7, 77314.445, 0.0, 10.000039, 9.99978 
1.8551551e+3, 2.2309835e+2, -856385.7, -966230.0, 66417.234, -0.20369463, 0.4943719, -825123.8, -71438.17, 0.0, 9.9998865, 9.998439 
1.8551849e+3, 2.3309638e+2, -713588.9, -850056.8, 29804.822, -0.06387677, 0.4296786, -707363.44, -51655.83, 0.0, 10.000228, 9.998382 
1.855215e+3, 2.4309511e+2, -523410.56, -581802.94, 27090.045, 0.056367148, 0.4324674, -512778.53, 44942.38, 0.0, 10.000304, 9.999524 
1.8552455e+3, 2.5309566e+2, -404229.0, -407379.38, 58682.188, 0.15434632, 0.45231095, -347100.88, 112611.77, 0.0, 10.000178, 10.000098 
1.8552747e+3, 2.6309592e+2, -354195.4, -469912.6, 35002.477, 0.14679179, 0.53464544, -344431.6, 17275.467, 0.00000008466028, 10.000427, 9.99889 
1.8553014e+3, 2.7309537e+2, -68022.516, -286241.78, 34009.32, -0.09182131, 0.56313246, -62845.027, 200865.63, 0.000011476472, 10.001755, 9.998828 
1.8553293e+3, 2.8309307e+2, 24697.617, -316765.75, -2474.8992, -0.23566325, 0.5139174, 24715.553, 190447.27, 0.00012753508, 10.002229, 9.997743 
1.8553597e+3, 2.9308864e+2, -20949.666, -247697.47, -29980.346, -0.077868015, 0.24746023, -17052.672, 50720.957, 0.0005320517, 10.00109, 9.998077 
1.8553911e+3, 3.0308774e+2, 47823.44, -5797.2983, -74219.086, 0.21674053, 0.2932145, 99926.12, 99926.12, 0.0013351652, 10.000438, 9.999725 
1.8554156e+3, 3.1308925e+2, 309085.2, 319659.3, 141651.39, -0.121988885, 0.37920663, 456122.28, 456122.28, 0.0024626602, 10.001339, 10.001521 
1.86487e+3, 1.23070255e+2, -2033316.0, -2052623.8, 70960.75, 0.10947696, 0.47890273, -1971355.4, -237394.48, 0.1378835, 9.998545, 9.998347 
1.8648992e+3, 1.33073e+2, -1683195.5, -1311920.1, 20313.146, 0.113803186, 0.46182647, -1310812.0, 325124.4, 0.09301642, 9.997957, 10.00326 
1.8649249e+3, 1.4307523e+2, -1809815.6, -1567147.6, -31576.914, -0.1907547, 0.4612647, -1563106.1, -25192.17, 0.050644647, 9.997578, 10.000815 
1.8649551e+3, 1.5307605e+2, -1513575.1, -1429892.0, -34745.777, 0.055927586, 0.47708252, -1417346.3, 22560.21, 0.01991141, 9.999191, 10.000299 
1.8649846e+3, 1.6307677e+2, -1355181.9, -1452213.8, 33949.3, 0.16654848, 0.58949184, -1344483.4, -2583.3337, 0.0045744055, 10.000237, 9.998968 
1.8650126e+3, 1.7307627e+2, -1254126.9, -1350339.9, 38121.14, -0.013190361, 0.61783564, -1240853.9, 3052.0068, 0.0003360051, 10.000282, 9.998951 
1.8650413e+3, 1.8307506e+2, -1207510.1, -1357045.9, 12114.227, -0.079132326, 0.64096695, -1206535.1, -60615.914, 0.00000050835786, 10.000239, 9.998281 
1.8650714e+3, 1.9307317e+2, -1066730.0, -1218875.4, 16007.286, 0.06971317, 0.58535755, -1065064.1, -17124.99, 0.0, 10.000471, 9.998431 
1.8651006e+3, 2.0307179e+2, -875994.8, -956735.7, 51341.58, 0.122027285, 0.575108, -851052.7, 98899.55, 0.0, 10.000574, 9.999521 
1.8651278e+3, 2.1307154e+2, -734621.1, -774068.7, 10724.541, -0.061405346, 0.521996, -731894.0, 120056.445, 0.0, 10.000621, 10.000068 
1.8651558e+3, 2.2307077e+2, -726584.6, -875900.4, 6093.7236, -0.14276107, 0.50870556, -726336.3, 27619.44, 0.0, 10.000655, 9.998697 
1.8651856e+3, 2.330691e+2, -610686.6, -773435.1, 43828.676, -0.037093695, 0.45373777, -599634.06, 56340.164, 0.0, 10.000817, 9.998634 
1.8652156e+3, 2.4306792e+2, -462725.84, -581152.56, 99316.81, 0.06710386, 0.46101224, -406310.25, 151676.2, 0.0, 10.000836, 9.999275 
1.8652457e+3, 2.5306803e+2, -371921.88, -433778.72, 53420.938, 0.15115325, 0.47583613, -341122.16, 118860.4, 0.0, 10.000582, 9.999724 
1.8652754e+3, 2.6306772e+2, -334428.06, -510170.66, 59766.574, 0.16221993, 0.53712827, -316028.94, 45954.844, 0.000000065173005, 10.000766, 9.998458 
1.8653035e+3, 2.7306634e+2, -83273.18, -345888.84, 30644.883, -0.04148897, 0.5314391, -79744.61, 184252.19, 0.000009433609, 10.001857, 9.99838 
1.8653317e+3, 2.8306404e+2, -7286.018, -317169.25, -27192.613, -0.18272701, 0.50090873, -4917.931, 161101.42, 0.00011541226, 10.0019455, 9.997866 
1.8653603e+3, 2.93061e+2, -121040.08, -270022.0, -31849.504, -0.08958965, 0.34807414, -114516.88, -46467.203, 0.0004964564, 10.000287, 9.998299 
1.865392e+3, 3.030609e+2, 38267.12, -12253.097, 48232.855, 0.28481007, 0.46446392, 67454.06, 67454.06, 0.0012593403, 10.000361, 9.999709 
1.8654174e+3, 3.1306183e+2, 594914.75, 422769.5, -18473.893, -0.15142745, 0.49642694, 596874.94, 596874.94, 0.0023214375, 10.0034075, 10.001237 
1.8748678e+3, 1.23044565e+2, -2143590.8, -2309651.0, 96469.336, -0.028865933, 0.7213992, -2099340.3, -365129.1, 0.14588223, 9.998652, 9.996543 
1.8748985e+3, 1.3304235e+2, -1710712.0, -1373576.8, -7046.3125, 0.21738707, 0.27187887, -1373429.5, 262807.16, 0.0986057, 9.997984, 10.002799 
1.8749239e+3, 1.4304753e+2, -1784015.0, -1535011.9, -5804.8267, -0.08625194, 0.5828522, -1534876.6, 3308.3635, 0.053927336, 9.997658, 10.001 
1.8749538e+3, 1.5304774e+2, -1490604.0, -1390071.1, 40572.816, -0.018201489, 0.5123057, -1375739.9, 64442.29, 0.021407956, 9.999211, 10.000573 
1.8749835e+3, 1.6304718e+2, -1351360.1, -1458632.3, 33949.504, -0.006856362, 0.483657, -1341518.8, 668.5915, 0.0050250688, 10.000298, 9.998898 
1.8750127e+3, 1.7304668e+2, -1265138.4, -1373230.4, 47973.49, -0.06030518, 0.5249797, -1246918.0, -2724.7522, 0.00038988978, 10.000272, 9.998807 
1.875042e+3, 1.830457e+2, -1167128.9, -1279419.3, 3283.2126, -0.07426639, 0.5629445, -1167033.0, -20829.238, 0.000000733184, 10.000269, 9.998801 
1.8750712e+3, 1.9304416e+2, -1032744.8, -1128036.4, 32722.578, -0.0042105406, 0.47845063, -1022590.2, 25629.68, 0.0, 10.00039, 9.999094 
1.8751003e+3, 2.0304294e+2, -927649.56, -1046038.5, 37192.38, 0.008915876, 0.4681421, -916935.1, 33297.637, 0.0, 10.000488, 9.998955 
1.8751283e+3, 2.1304277e+2, -821520.8, -916870.3, 22433.658, -0.08540539, 0.50849783, -816506.4, 35729.008, 0.0, 10.000454, 9.99917 
1.8751568e+3, 2.2304288e+2, -691412.6, -750298.56, -580.92535, -0.13652119, 0.5979766, -691406.94, 62827.68, 0.0, 10.000421, 9.999674 
1.8751863e+3, 2.3304375e+2, -536471.06, -571754.1, 59511.535, -0.07278037, 0.65202904, -492041.28, 164182.97, 0.0, 10.000615, 10.000113 
1.8752158e+3, 2.4304342e+2, -533527.56, -677992.6, 78967.62, -0.025502577, 0.6791981, -498739.44, 59485.68, 0.0, 10.000612, 9.998724 
1.8752451e+3, 2.5304085e+2, -468627.7, -596737.9, 56605.492, 0.009829931, 0.52352333, -447200.4, 13046.698, 0.0, 10.000421, 9.998683 
1.8752755e+3, 2.6303825e+2, -411328.2, -628381.4, 79348.91, 0.06657953, 0.44706336, -385414.2, -23142.836, 0.00000004605578, 10.000576, 9.997745 
1.875307e+3, 2.7303603e+2, -158715.89, -445334.3, 88383.66, 0.09456861, 0.41906023, -133652.89, 130641.99, 0.000008319171, 10.001605, 9.997823 
1.8753353e+3, 2.8303462e+2, 15663.533, -200597.86, -86510.38, -0.037505988, 0.47213915, 46011.336, 212320.8, 0.00010877432, 10.001645, 9.9988165 
1.875359e+3, 2.93035e+2, -75015.86, -116772.08, -71758.945, -0.2703405, 0.54008174, -21159.492, 47144.9, 0.0004725632, 10.000046, 9.999469 
1.8753904e+3, 3.0303517e+2, -145201.2, -323481.06, 116350.1, 0.058238067, 0.6955617, -87769.4, -87769.4, 0.001193127, 10.000079, 9.997702 
1.8754224e+3, 3.1303108e+2, 276489.53, -69105.5, 100058.95, -0.034359798, 0.4878825, 303368.7, 303368.7, 0.002176133, 10.002724, 9.998162 
1.884866e+3, 1.2301505e+2, -2296690.3, -2333252.0, 56614.55, 0.010688126, 0.68227977, -2255478.3, -520979.2, 0.15411249, 9.997351, 9.997022 
1.8848954e+3, 1.3301206e+2, -1647475.6, -1330645.6, -11338.852, 0.09415377, 0.11108481, -1330240.4, 306290.34, 0.10442951, 9.998321, 10.002981 
1.8849236e+3, 1.430196e+2, -1635485.9, -1537406.4, 27811.846, 0.06807884, 0.6847992, -1530068.9, 8387.049, 0.057399224, 9.999021, 10.000316 
1.8849535e+3, 1.5301879e+2, -1540293.9, -1472457.6, -8345.555, 0.028557831, 0.57078785, -1471446.0, -30979.824, 0.023018045, 9.999175, 9.999992 
1.884983e+3, 1.6301729e+2, -1489802.1, -1504460.3, -43757.1, -0.014909635, 0.47449625, -1452764.5, -110282.76, 0.005521801, 9.9992485, 9.999092 
1.8850127e+3, 1.7301647e+2, -1347236.6, -1369687.5, -17206.424, -0.039026342, 0.4492114, -1337917.6, -93429.94, 0.0004532519, 9.999507, 9.999212 
1.8850422e+3, 1.8301584e+2, -1238733.9, -1266220.0, -11602.797, -0.02142032, 0.47876072, -1234490.9, -87997.69, 0.0000010252129, 9.999577, 9.999217 
1.8850718e+3, 1.9301544e+2, -1094053.1, -1109645.0, -14544.533, 0.04118052, 0.4624241, -1085346.9, -36848.11, 0.0, 9.999758, 9.999517 
1.8851008e+3, 2.0301493e+2, -1006263.75, -1086511.4, 17749.78, 0.047252532, 0.49730664, -1002513.06, -52007.42, 0.0, 9.999965, 9.998923 
1.8851288e+3, 2.130145e+2, -818044.7, -926815.9, 29705.055, -0.073980406, 0.52414733, -810461.06, 42050.82, 0.0, 10.000532, 9.999058 
1.8851575e+3, 2.2301431e+2, -640545.0, -743257.06, 22557.336, -0.11692946, 0.59777313, -635809.4, 118704.91, 0.0, 10.00086, 9.999499 
1.8851873e+3, 2.3301479e+2, -515229.13, -586209.8, -54083.895, -0.035908855, 0.6338811, -486030.75, 170476.88, 0.0, 10.000863, 9.999893 
1.885217e+3, 2.430142e+2, -472531.9, -659679.44, -63890.055, 0.024231976, 0.6546204, -452800.8, 105709.945, 0.0, 10.001102, 9.998605 
1.8852465e+3, 2.530116e+2, -253319.67, -512521.88, -57783.83, 0.042947248, 0.5147819, -241021.45, 219511.56, 0.0, 10.001992, 9.998505 
1.8852772e+3, 2.6300898e+2, -182409.02, -514067.34, 30505.89, 0.11278484, 0.4462321, -179626.42, 182931.34, 0.000000017635879, 10.002153, 9.997757 
1.8853086e+3, 2.7300695e+2, -254999.36, -476927.63, 53902.05, 0.1404206, 0.42928395, -242600.33, 21979.809, 0.000007223604, 10.000913, 9.99792 
1.8853365e+3, 2.8300574e+2, -162835.0, -266539.63, -80717.45, -0.007450922, 0.49039236, -118749.99, 47842.617, 0.00010058898, 10.0003605, 9.998967 
1.8853602e+3, 2.9300576e+2, 182575.56, 12562.523, -172811.47, -0.24363388, 0.5107467, 290156.47, 358745.34, 0.0004433926, 10.001792, 9.999516 
1.8853924e+3, 3.0300495e+2, 217020.7, -274588.0, 65389.246, 0.11276048, 0.61562645, 225569.52, 225569.52, 0.00111724, 10.003058, 9.996638 
1.8854256e+3, 3.1300116e+2, 215201.1, -172945.7, 1157.5682, 0.024025224, 0.5633063, 215204.55, 215204.55, 0.0020247423, 10.002605, 9.997518 
1.8948647e+3, 1.22983806e+2, -2077426.5, -1922075.6, -39375.95, 0.07720063, 0.55505234, -1912665.3, -177861.2, 0.16258536, 9.997513, 9.999779 
1.8948889e+3, 1.3298254e+2, -1593298.8, -1230232.6, 39382.895, -0.4082222, 0.020322144, -1226009.8, 410804.3, 0.110513955, 9.99833, 10.003787 
1.8949236e+3, 1.429914e+2, -1736344.9, -1746349.9, 22890.81, 0.13032696, 0.7531498, -1717916.4, -179188.94, 0.06108175, 9.999032, 9.998869 
1.8949535e+3, 1.5298909e+2, -1650865.1, -1699317.3, 7119.3105, 0.09353716, 0.6472088, -1649840.8, -209081.27, 0.024752133, 9.9991665, 9.99844 
1.8949829e+3, 1.6298692e+2, -1437683.8, -1418512.6, -46200.938, 0.0036348482, 0.5558931, -1380913.4, -38128.496, 0.0060684755, 9.999341, 9.999639 
1.8950123e+3, 1.7298573e+2, -1275119.4, -1219231.4, -129.12892, -0.048892017, 0.3918351, -1219231.1, 25558.033, 0.0005270964, 9.999501, 10.000249 
1.895042e+3, 1.829854e+2, -1203915.8, -1204015.9, -17267.7, -0.03647587, 0.3731596, -1186698.0, -39909.652, 0.0000013718216, 9.999624, 9.999619 
1.8950722e+3, 1.9298717e+2, -1087846.8, -1078300.4, -1366.3805, 0.08951038, 0.54757035, -1078108.8, -29334.24, 0.0, 9.999686, 9.999763 
1.8951014e+3, 2.0298791e+2, -990395.44, -1033459.7, 24813.611, 0.09654442, 0.67689645, -979074.1, -28304.846, 0.0, 9.999865, 9.999344 
1.8951291e+3, 2.129867e+2, -804915.9, -866714.2, 61015.43, -0.11810974, 0.57567894, -767421.75, 85358.26, 0.0, 10.000378, 9.999553 
1.8951577e+3, 2.2298494e+2, -764067.9, -942566.2, 12486.161, -0.20288241, 0.51326436, -763198.7, -8402.192, 0.0, 10.000618, 9.998245 
1.8951882e+3, 2.3298259e+2, -665469.6, -847687.25, -39530.84, -0.040578675, 0.42910507, -657263.25, -442.58282, 0.0, 10.000653, 9.998194 
1.8952188e+3, 2.429808e+2, -503357.47, -672075.2, -48526.24, 0.073580004, 0.4275788, -490396.16, 68442.055, 0.0, 10.000864, 9.998642 
1.8952496e+3, 2.529804e+2, -252118.98, -454903.06, -9936.3955, 0.14026937, 0.46334222, -251633.27, 209205.86, 0.0, 10.001755, 9.999015 
1.8952802e+3, 2.629797e+2, -176820.97, -441100.66, -13332.598, 0.17172688, 0.5303895, -176150.05, 186695.13, 0.0000000071100716, 10.001885, 9.998389 
1.8953082e+3, 2.7297872e+2, -244053.13, -395692.75, 18636.453, -0.0014927902, 0.5513284, -241796.3, 23059.809, 0.0000064443307, 10.000673, 9.998589 
1.895335e+3, 2.8297713e+2, -234956.81, -367864.88, -64871.004, -0.21904595, 0.55506986, -208543.27, -41672.188, 0.0000894982, 10.000135, 9.998386 
1.8953627e+3, 2.9297343e+2, 65448.004, -168404.47, -88258.25, -0.18118744, 0.28604108, 95018.4, 163920.48, 0.00040206578, 10.001513, 9.998413 
1.8953966e+3, 3.0297062e+2, 124071.836, -369693.53, 61569.09, 0.2054292, 0.28734925, 131633.28, 131633.28, 0.0010244825, 10.002665, 9.996161 
1.8954264e+3, 3.129716e+2, 169072.28, -83658.18, -8831.12, -0.18704583, 0.7161507, 169380.5, 169380.5, 0.0018685401, 10.001887, 9.998446 
1.9048639e+3, 1.2295426e+2, -1751131.6, -1614194.3, -6805.4043, 0.17463319, 0.51362944, -1613856.9, 121235.02, 0.1713416, 9.999057, 10.001286 
1.9048867e+3, 1.3295393e+2, -1677419.4, -1420519.3, -75473.44, -0.46183357, 0.16011983, -1399987.3, 237106.77, 0.11689223, 9.998506, 10.002225 
1.9049224e+3, 1.4295973e+2, -1918870.8, -1877192.3, -124959.62, 0.19016172, 0.7138712, -1771346.1, -232307.0, 0.06499328, 9.99793, 9.99852 
1.9049534e+3, 1.5295789e+2, -1578546.0, -1625886.0, -15810.629, 0.15855472, 0.6238539, -1573751.3, -132685.0, 0.026617203, 9.999454, 9.998825 
1.904983e+3, 1.6295658e+2, -1323796.1, -1348750.0, -445.6343, 0.06836694, 0.58898693, -1323788.1, 19295.06, 0.0066676727, 10.000063, 9.99977 
1.9050121e+3, 1.7295565e+2, -1298449.1, -1214433.1, -53393.49, 0.006088087, 0.44113737, -1188503.4, 56581.996, 0.0006122247, 9.9992895, 10.000371 
1.9050418e+3, 1.8295522e+2, -1308501.3, -1239990.6, -78997.88, 0.021593997, 0.40212598, -1188140.9, -41055.43, 0.0000017786746, 9.998856, 9.9997425 
1.9050722e+3, 1.9295646e+2, -1078359.6, -1062545.1, -92596.44, 0.13199775, 0.51676697, -977518.94, 71556.31, 0.0, 9.999708, 9.999869 
1.9051018e+3, 2.0295706e+2, -933989.4, -984828.8, -66477.71, 0.14687753, 0.62134695, -888237.1, 62833.266, 0.0, 10.000193, 9.999503 
1.9051298e+3, 2.129564e+2, -828458.94, -860127.06, -83515.836, -0.047120217, 0.56172013, -759289.4, 93785.93, 0.0, 10.000162, 9.999691 
1.9051588e+3, 2.2295478e+2, -819673.06, -995742.56, -91907.8, -0.124286726, 0.5129327, -780439.75, -25349.104, 0.0, 10.000325, 9.998033 
1.9051895e+3, 2.3295163e+2, -634027.4, -869325.8, -68972.35, 0.0111082215, 0.38018337, -615300.2, 41822.945, 0.0, 10.001006, 9.997885 
1.9052202e+3, 2.429496e+2, -446118.3, -636499.6, 1113.3058, 0.1201041, 0.37059128, -446111.8, 113031.71, 0.0, 10.001237, 9.998694 
1.9052511e+3, 2.529498e+2, -390540.28, -502634.0, -9005.324, 0.18177083, 0.44697997, -389821.44, 71317.984, 0.0, 10.000718, 9.999179 
1.9052815e+3, 2.629494e+2, -367717.5, -479787.7, -23380.557, 0.2056364, 0.5184887, -363035.34, 106.0797, 0.000000016068412, 10.000339, 9.998867 
1.9053087e+3, 2.7294844e+2, -221741.31, -335239.38, -36962.97, 0.00384415, 0.48945406, -210765.06, 54385.414, 0.000006020835, 10.0005665, 9.999071 
1.905336e+3, 2.8294706e+2, -75675.89, -300502.34, -23623.652, -0.18631124, 0.4877243, -73220.45, 93942.02, 0.00007835106, 10.001263, 9.998312 
1.9053659e+3, 2.92944e+2, 246867.45, -104315.19, -28548.668, -0.07277877, 0.30755603, 249173.13, 318361.75, 0.00035541714, 10.002871, 9.998194 
1.9054e+3, 3.0294028e+2, 180537.2, -340369.94, 117848.46, 0.27903625, 0.23625004, 205958.3, 205958.3, 0.0009236989, 10.003056, 9.996178 
1.9054294e+3, 3.1293938e+2, 45788.48, -57642.258, -53563.414, 0.0031297128, 0.4710333, 68527.92, 68527.92, 0.001717349, 10.0005865, 9.999302 
1.914861e+3, 1.22924745e+2, -1745104.3, -1591300.9, -107029.336, -0.0815456, 0.37301606, -1536410.5, 198968.3, 0.18042894, 9.999072, 10.001487 
1.9148886e+3, 1.3292593e+2, -1960545.6, -1988412.6, -125475.61, -0.15245351, 0.51451576, -1848232.3, -210859.02, 0.12358676, 9.998528, 9.998116 
1.91492e+3, 1.4292428e+2, -1840248.5, -1740686.0, -106758.84, 0.10253495, 0.5474132, -1672672.4, -133277.72, 0.069141634, 9.998043, 9.999401 
1.9149525e+3, 1.5292521e+2, -1410598.0, -1275976.9, 50115.348, 0.10335566, 0.5050815, -1259369.4, 182017.13, 0.028615344, 9.999439, 10.001265 
1.9149832e+3, 1.6292639e+2, -1327243.8, -1377323.0, -27092.943, 0.04145206, 0.5826637, -1315391.5, 27983.553, 0.0073205116, 10.000153, 9.99953 
1.9150119e+3, 1.7292638e+2, -1364688.6, -1346964.1, -77483.625, 0.018285282, 0.60822797, -1277837.5, -32462.607, 0.00070924795, 9.999271, 9.999466 
1.9150409e+3, 1.8292545e+2, -1315666.8, -1272105.0, -73869.414, 0.027117169, 0.5832565, -1216872.3, -69489.164, 0.0000023137907, 9.998916, 9.9995 
1.9150716e+3, 1.9292347e+2, -1091147.0, -1074980.4, -50427.664, 0.0755731, 0.38680154, -1031992.25, 17407.568, 0.0, 9.999642, 9.999818 
1.9151016e+3, 2.0292243e+2, -964064.6, -1026481.3, -73905.73, 0.075072594, 0.33904102, -915048.2, 36360.293, 0.0, 10.000091, 9.999268 
1.9151309e+3, 2.129236e+2, -869869.44, -910868.6, -76848.86, 0.022366721, 0.48495778, -810833.0, 42564.95, 0.0, 10.0, 9.99942 
1.9151606e+3, 2.2292373e+2, -801534.56, -900876.06, -79616.05, -0.006073036, 0.5947844, -757365.56, -1968.2316, 0.0, 10.000075, 9.998807 
1.9151907e+3, 2.3292185e+2, -595301.56, -735386.4, -29855.732, 0.02318942, 0.49191365, -589203.94, 68211.6, 0.0, 10.000781, 9.998913 
1.9152208e+3, 2.429203e+2, -478083.53, -644920.75, -20676.404, 0.035905935, 0.46600488, -475559.25, 83871.01, 0.0, 10.000984, 9.998758 
1.9152509e+3, 2.529196e+2, -430526.72, -537930.4, -17942.154, 0.061028264, 0.46842685, -427608.7, 33826.33, 0.0, 10.000519, 9.99903 
1.9152808e+3, 2.6291835e+2, -380920.78, -458720.28, -37429.125, 0.0836136, 0.4531879, -365837.84, -2393.2993, 0.000000038925435, 10.000122, 9.999121 
1.9153096e+3, 2.729164e+2, -228883.66, -299281.3, -14763.298, 0.014778131, 0.28748178, -225912.97, 39547.46, 0.0000054500297, 10.000358, 9.999415 
1.9153383e+3, 2.8291568e+2, -95209.49, -286843.5, 11097.456, -0.089304484, 0.32362643, -94568.984, 72896.32, 0.00006657065, 10.001024, 9.998525 
1.9153692e+3, 2.9291692e+2, 208095.33, -103047.18, 49548.35, -0.05021263, 0.5522013, 215795.19, 285248.9, 0.0003045757, 10.002524, 9.998369 
1.9154024e+3, 3.0291355e+2, 158028.25, -306123.22, 30475.666, 0.17552626, 0.48832482, 160020.7, 160020.7, 0.0008128508, 10.002701, 9.996576 
1.9154304e+3, 3.129068e+2, 41019.746, 75637.72, -90790.96, 0.020036176, 0.06752658, 150754.92, 150754.92, 0.001554466, 10.000025, 10.000457 
1.9248588e+3, 1.2289407e+2, -1902586.3, -1631164.6, -125963.336, -0.14200619, 0.34211916, -1581715.5, 153963.22, 0.18987963, 9.997803, 10.001814 
1.9248891e+3, 1.3289638e+2, -1898459.8, -2069567.3, -122265.65, 0.01605922, 0.67460567, -1834787.8, -197124.17, 0.13060497, 9.999422, 9.997134 
1.9249183e+3, 1.4289153e+2, -1610782.1, -1601031.1, 70228.96, 0.0717099, 0.43564785, -1535508.6, 4208.036, 0.07352615, 9.999499, 9.999653 
1.9249512e+3, 1.5289368e+2, -1540972.9, -1274106.4, 71970.9, 0.10707929, 0.45970425, -1255934.0, 185759.95, 0.030745408, 9.998261, 10.001845 
1.9249825e+3, 1.6289562e+2, -1680922.4, -1526206.6, -49846.01, 0.09054696, 0.56963825, -1511538.0, -167863.83, 0.008026891, 9.997649, 9.999705 
1.9250111e+3, 1.7289588e+2, -1376952.9, -1348299.4, -53413.54, 0.043856088, 0.6140493, -1307324.5, -61651.85, 0.0008187495, 9.999168, 9.999511 
1.9250405e+3, 1.8289511e+2, -1166232.8, -1242834.3, 21070.367, 0.047788084, 0.61643064, -1160819.5, -13138.9795, 0.0000031359323, 10.000106, 9.999131 
1.9250713e+3, 1.9289285e+2, -1039281.0, -1103354.3, -4041.8826, 0.07252882, 0.43297577, -1039027.0, 10674.546, 0.0, 10.0002, 9.999355 
1.9251017e+3, 2.0289141e+2, -977305.94, -1048315.94, -39918.523, 0.08602631, 0.37312698, -959387.25, -7672.3433, 0.0, 10.000056, 9.999142 
1.9251312e+3, 2.1289189e+2, -895114.7, -927994.0, -53945.445, 0.075339705, 0.45878953, -855159.56, -1449.7211, 0.0, 9.9998455, 9.999381 
1.9251612e+3, 2.22892e+2, -817898.56, -869531.1, -13668.84, 0.08775248, 0.55563474, -814503.25, -58794.78, 0.0, 9.999828, 9.9991255 
1.925192e+3, 2.328913e+2, -619286.7, -699111.8, -28027.93, 0.105812855, 0.53260857, -610428.56, 47286.12, 0.0, 10.000427, 9.999325 
1.9252221e+3, 2.4289037e+2, -505461.9, -664574.5, -54216.26, 0.101149745, 0.5443697, -488744.6, 70978.93, 0.0, 10.000804, 9.998721 
1.9252512e+3, 2.5288925e+2, -397178.8, -547459.25, -82101.695, 0.05141176, 0.52215743, -361023.3, 100710.76, 0.0, 10.000833, 9.998834 
1.9252808e+3, 2.6288775e+2, -264096.28, -389531.34, -66429.38, 0.058451068, 0.48918277, -235455.45, 128291.29, 0.000000047147957, 10.000882, 9.999226 
1.925311e+3, 2.728856e+2, -105012.88, -220018.2, -83425.68, 0.081231184, 0.28935194, -61192.297, 204570.88, 0.0000044268, 10.001127, 9.99959 
1.9253407e+3, 2.828848e+2, -41433.348, -211341.36, -19537.502, 0.041018065, 0.2919317, -39215.7, 128552.43, 0.000054025306, 10.001203, 9.9989395 
1.9253711e+3, 2.928869e+2, 42516.37, -133610.36, 1167.4796, -0.01781574, 0.5668903, 42524.11, 112273.23, 0.0002523606, 10.001158, 9.9988165 
1.9254035e+3, 3.028847e+2, 43295.535, -272050.0, 21055.479, 0.09678132, 0.55400777, 44695.188, 44695.188, 0.0006949365, 10.001518, 9.99738 
1.9254334e+3, 3.128791e+2, 465492.25, 249892.92, -137533.92, 0.17902087, 0.18328896, 532439.1, 532439.1, 0.0013689925, 10.003001, 10.00025 
1.9348566e+3, 1.22860886e+2, -1860738.5, -1571099.8, 137638.5, -0.19581941, 0.29319704, -1516126.6, 219878.19, 0.1997211, 9.99786, 10.002318 
1.9348875e+3, 1.3286489e+2, -1750366.9, -1751158.5, -90967.76, -0.11247998, 0.611915, -1659794.0, -21826.139, 0.13795441, 9.999379, 9.99934 
1.9349168e+3, 1.4286183e+2, -1618502.4, -1636326.3, 30732.389, -0.07226908, 0.414652, -1595415.9, -55414.766, 0.07814733, 9.999575, 9.999375 
1.9349493e+3, 1.5286344e+2, -1627619.5, -1458169.8, 32194.617, 0.06719501, 0.50310916, -1452259.1, -10271.465, 0.033007, 9.99829, 10.000537 
1.9349805e+3, 1.6286415e+2, -1626794.3, -1429665.3, -29307.404, 0.08039164, 0.54356825, -1425400.3, -81418.766, 0.008786739, 9.997715, 10.0003395 
1.93501e+3, 1.7286411e+2, -1303214.0, -1194419.4, 14169.859, -0.013778633, 0.45883325, -1192604.1, 53375.113, 0.00094156526, 9.999165, 10.000572 
1.93504e+3, 1.8286422e+2, -1185682.9, -1295667.0, 22921.795, -0.053743135, 0.497506, -1181097.0, -33118.824, 0.0000044945964, 10.000156, 9.998746 
1.9350712e+3, 1.9286461e+2, -1107118.3, -1232785.9, 7987.237, 0.017500412, 0.65698487, -1106612.6, -56632.21, 0.0, 10.000141, 9.998502 
1.9351016e+3, 2.0286389e+2, -996904.0, -1062373.4, -59075.793, 0.04709011, 0.7259102, -962099.75, -10109.627, 0.0, 9.999939, 9.9991045 
1.9351308e+3, 2.1286124e+2, -911568.9, -919887.44, -52678.69, 0.019519474, 0.48670635, -862885.5, -8874.1, 0.0, 9.999667, 9.999525 
1.9351608e+3, 2.2285946e+2, -863905.75, -906695.1, -8253.478, 0.032582894, 0.392282, -862368.94, -106343.28, 0.0, 9.999585, 9.998985 
1.935193e+3, 2.3285994e+2, -663607.8, -745168.25, 7248.376, 0.13948308, 0.5072763, -662968.7, -4947.299, 0.0, 10.000232, 9.999101 
1.935224e+3, 2.4285986e+2, -553136.25, -707678.25, -62614.67, 0.1647528, 0.6247022, -530951.7, 29071.627, 0.0, 10.000559, 9.998548 
1.9352522e+3, 2.5285864e+2, -438277.7, -585517.94, -70790.42, 0.0440747, 0.6109458, -409764.53, 52272.42, 0.0, 10.000633, 9.998668 
1.9352815e+3, 2.6285726e+2, -315646.1, -428067.9, -71527.9, 0.0021810438, 0.60614985, -280885.0, 83165.31, 0.00000001782158, 10.000597, 9.999094 
1.9353123e+3, 2.728557e+2, -151514.67, -246151.75, -59089.17, 0.094453014, 0.4735205, -123132.65, 142928.42, 0.0000033385966, 10.000849, 9.999533 
1.9353424e+3, 2.828545e+2, -43128.164, -165558.77, -37821.96, 0.063373946, 0.41882804, -32386.438, 135683.34, 0.00004416703, 10.000974, 9.999374 
1.9353715e+3, 2.928543e+2, 63202.05, -33304.297, 14655.902, -0.1252487, 0.4015677, 65378.67, 135450.16, 0.00021030588, 10.000921, 9.999618 
1.935403e+3, 3.028542e+2, 63230.527, -155929.52, 41352.05, -0.12205206, 0.49441636, 70773.4, 70773.4, 0.0005915153, 10.001203, 9.998327 
1.935436e+3, 3.1285405e+2, 241756.9, -31820.89, 15784.221, 0.0975162, 0.60426956, 242664.58, 242664.58, 0.0011871116, 10.00228, 9.998628 
1.9448556e+3, 1.2282766e+2, -1837749.4, -1682905.4, 252245.28, -0.103451714, 0.25199905, -1496467.9, 239863.52, 0.20999403, 9.998679, 10.001123 
1.9448848e+3, 1.3283353e+2, -1935764.0, -1666709.6, -156446.17, -0.20372339, 0.64860535, -1594904.6, 43369.324, 0.14565058, 9.997307, 10.00098 
1.9449158e+3, 1.4283013e+2, -1851398.1, -1711216.0, -21831.838, -0.02808204, 0.29158977, -1707894.6, -167586.6, 0.083007626, 9.997799, 9.999733 
1.9449477e+3, 1.5283258e+2, -1602231.6, -1487530.3, 685.23883, 0.0780157, 0.4911213, -1487526.1, -45238.383, 0.03539992, 9.998638, 10.000173 
1.944979e+3, 1.6283327e+2, -1434694.4, -1337939.4, 22740.176, 0.10901639, 0.55114436, -1332861.3, 11421.106, 0.009600047, 9.999034, 10.000339 
1.9450098e+3, 1.728325e+2, -1248476.6, -1157132.5, -11002.876, 0.053826597, 0.38668054, -1155825.9, 90460.05, 0.0010784023, 9.999492, 10.0006695 
1.9450405e+3, 1.8283243e+2, -1259488.9, -1330723.5, -47914.824, 0.026933087, 0.4024172, -1235403.4, -87117.19, 0.0000066792873, 9.999675, 9.998728 
1.9450708e+3, 1.9283351e+2, -1175178.8, -1265923.3, -39369.695, -0.0016337358, 0.6366974, -1160479.3, -110195.586, 0.0, 9.999723, 9.998459 
1.945101e+3, 2.0283331e+2, -995250.3, -1068718.0, -38021.89, 0.002281484, 0.7626093, -979116.06, -26826.088, 0.0, 10.0, 9.999024 
1.9451314e+3, 2.128306e+2, -711418.5, -832526.0, -65450.656, 0.06862019, 0.5278295, -682806.44, 171505.58, 0.0, 10.00109, 9.999434 
1.9451621e+3, 2.2282858e+2, -580505.56, -796024.94, -23114.553, 0.12655003, 0.42383352, -578054.4, 178273.94, 0.0, 10.00162, 9.998771 
1.9451934e+3, 2.3282833e+2, -566554.6, -727165.5, -32360.246, 0.13412821, 0.49032435, -560279.8, 98050.58, 0.0, 10.001007, 9.99886 
1.9452238e+3, 2.4282774e+2, -558291.7, -684605.1, -68485.6, 0.12748858, 0.56393206, -528287.0, 32049.396, 0.0, 10.000437, 9.99876 
1.9452529e+3, 2.5282648e+2, -472149.34, -571424.25, -71838.3, 0.087295055, 0.5169572, -434467.72, 27882.326, 0.0, 10.000268, 9.998941 
1.9452827e+3, 2.628255e+2, -350311.4, -418345.1, -10318.322, 0.09833884, 0.5249034, -348780.9, 15578.547, 0.000000002142629, 10.000222, 9.999348 
1.9453134e+3, 2.7282536e+2, -185800.27, -243804.1, 1958.1729, 0.145644, 0.51317334, -185734.23, 80622.72, 0.0000030022966, 10.000489, 9.999743 
1.9453435e+3, 2.8282434e+2, -110650.43, -250412.48, 41970.77, 0.10733562, 0.48622233, -99015.18, 69349.9, 0.00003904193, 10.000733, 9.998917 
1.9453731e+3, 2.9282245e+2, 83870.96, -84263.62, -30299.938, -0.04842512, 0.36201495, 89164.71, 159550.77, 0.00018459432, 10.001308, 9.999094 
1.9454058e+3, 3.028228e+2, 217927.6, -5931.815, -26665.682, -0.00075141055, 0.49413168, 221060.13, 221060.13, 0.00051477127, 10.001956, 9.998988 
1.9454376e+3, 3.128232e+2, 245315.83, -74033.88, -71341.5, 0.046797473, 0.606617, 260528.56, 260528.56, 0.0010271132, 10.002437, 9.998286 
1.9548565e+3, 1.2279589e+2, -1995195.5, -2083303.4, 98922.28, 0.038296133, 0.3643603, -1930961.1, -194317.55, 0.22070916, 9.998909, 9.998009 
1.9548807e+3, 1.3280234e+2, -1837610.8, -1505151.1, -135316.9, -0.37581807, 0.78868467, -1457037.8, 181543.23, 0.15369554, 9.997384, 10.00222 
1.954915e+3, 1.4279646e+2, -1763958.1, -1557677.3, 2084.2854, 0.06641875, 0.05278861, -1557656.1, -17018.457, 0.08810495, 9.997919, 10.000727 
1.9549462e+3, 1.5280102e+2, -1563801.3, -1417924.4, 40000.234, 0.024497988, 0.41312507, -1407676.1, 34918.836, 0.037922986, 9.998667, 10.000649 
1.9549775e+3, 1.6280298e+2, -1461109.0, -1416669.6, 25534.822, 0.023705414, 0.5933083, -1405040.5, -60463.965, 0.010466628, 9.999132, 9.999752 
1.9550104e+3, 1.7280112e+2, -1305341.3, -1285840.1, 14672.988, 0.14377303, 0.4022872, -1277973.4, -31381.305, 0.0012294218, 9.999525, 9.999774 
1.9550419e+3, 1.8279979e+2, -1228015.1, -1279772.6, -53423.727, 0.15052453, 0.3358741, -1194532.3, -45927.55, 0.000009908067, 9.999742, 9.9990425 
1.9550698e+3, 1.9279967e+2, -1138135.6, -1174348.0, -30200.342, -0.088230364, 0.3893659, -1121029.6, -70418.67, 0.0, 9.999661, 9.999117 
1.9550996e+3, 2.0279951e+2, -1025716.25, -1098649.3, -18367.799, -0.17617212, 0.48536915, -1021351.6, -68735.516, 0.0, 9.999852, 9.998891 
1.9551331e+3, 2.1279977e+2, -760710.75, -891310.2, -13614.385, 0.10778734, 0.57833964, -759306.6, 95306.76, 0.0, 10.000907, 9.999116 
1.955165e+3, 2.2279912e+2, -630229.94, -847853.25, -41103.184, 0.23354858, 0.6373467, -622725.44, 133893.27, 0.0, 10.001389, 9.99853 
1.955193e+3, 2.3279648e+2, -612772.94, -773406.94, -44028.027, -0.010939742, 0.48586226, -601496.94, 57144.836, 0.0, 10.0008, 9.998639 
1.9552217e+3, 2.4279407e+2, -565998.9, -639534.6, -86607.76, -0.14130716, 0.37558228, -508677.53, 51985.09, 0.0, 10.000173, 9.999195 
1.9552532e+3, 2.5279275e+2, -453959.2, -487921.2, -63245.85, 0.0693518, 0.2586687, -405454.38, 57219.08, 0.0, 10.00008, 9.999597 
1.9552842e+3, 2.627927e+2, -341582.1, -353568.9, -16031.467, 0.20535764, 0.29335472, -330460.34, 34211.777, 0.00000003752054, 10.000014, 9.999898 
1.9553137e+3, 2.7279475e+2, -174625.13, -178816.45, 22240.7, 0.11924248, 0.444305, -154381.58, 112268.43, 0.0000033251551, 10.000314, 10.000274 
1.9553436e+3, 2.8279454e+2, -251890.86, -477797.66, 37172.563, 0.021747671, 0.52367026, -245931.39, -77278.195, 0.000036409245, 10.000452, 9.997489 
1.955376e+3, 2.9279146e+2, -87433.04, -366871.63, 14045.074, 0.06930474, 0.4629262, -86728.88, -16036.667, 0.00016708692, 10.001005, 9.997293 
1.9554105e+3, 3.0279076e+2, 184031.47, 94.907364, -24544.305, 0.24825887, 0.5912867, 187250.3, 187250.3, 0.00045041088, 10.001609, 9.999208 
1.9554394e+3, 3.1278688e+2, 237594.38, 34129.25, 1467.4553, -0.05402694, 0.19401413, 237604.95, 237604.95, 0.00087241025, 10.001949, 9.999247 
1.9648564e+3, 1.22764096e+2, -2198865.5, -2200531.5, 89731.555, 0.2129144, 0.4389718, -2109963.0, -373003.94, 0.23177752, 9.997693, 9.99774 
1.9648789e+3, 1.3277027e+2, -1649465.8, -1319727.3, -60827.117, -0.31579694, 0.7454039, -1308864.3, 330032.5, 0.1620495, 9.998208, 10.003271 
1.9649136e+3, 1.4276585e+2, -1732035.6, -1549569.0, 57311.508, 0.13344175, 0.10050324, -1533061.3, 7875.461, 0.093428105, 9.9981985, 10.0006275 
1.964945e+3, 1.5276968e+2, -1521512.0, -1422623.3, 14576.588, 0.043329418, 0.40955952, -1420519.4, 22382.041, 0.04057487, 9.999097, 10.00038 
1.9649772e+3, 1.6277115e+2, -1400299.6, -1431533.6, -23216.639, 0.051309526, 0.57125306, -1387936.1, -43047.613, 0.011385711, 9.999733, 9.999363 
1.9650103e+3, 1.727698e+2, -1284711.9, -1316643.8, -23861.76, 0.16454023, 0.46992406, -1271967.3, -25065.979, 0.0013940044, 9.99985, 9.999402 
1.9650418e+3, 1.8276867e+2, -1222731.0, -1249156.6, -62751.152, 0.18777654, 0.43423837, -1171816.8, -22904.25, 0.000014255441, 9.99964, 9.999307 
1.96507e+3, 1.927678e+2, -1170523.1, -1144480.5, -77978.22, 0.004601469, 0.3678133, -1078443.9, -27521.094, 0.0, 9.999224, 9.999539 
1.9651e+3, 2.0276727e+2, -1099073.9, -1111637.0, -5334.725, -0.06231032, 0.39327762, -1097114.3, -144185.02, 0.0, 9.999242, 9.999097 
1.9651337e+3, 2.1276803e+2, -831694.0, -913467.2, 23241.342, 0.121439524, 0.52268094, -825550.0, 29372.268, 0.0, 10.00034, 9.999245 
1.9651659e+3, 2.227678e+2, -694135.5, -864574.06, -5430.154, 0.21771668, 0.61096686, -693962.7, 62961.574, 0.0, 10.000904, 9.998646 
1.965194e+3, 2.3276515e+2, -650411.0, -785992.25, -28782.686, 0.041819256, 0.45381773, -644553.75, 14393.991, 0.0, 10.000511, 9.998695 
1.965223e+3, 2.4276279e+2, -537583.0, -619621.6, -28834.887, -0.035424598, 0.34135166, -528462.2, 32506.297, 0.0, 10.000314, 9.999277 
1.965254e+3, 2.52762e+2, -380733.06, -443515.47, -62896.676, 0.12527524, 0.26695433, -341829.2, 121144.73, 0.0, 10.000536, 9.99969 
1.965285e+3, 2.6276183e+2, -254352.6, -365747.2, -32462.563, 0.2466991, 0.31147838, -245582.8, 119390.484, 0.00000006167767, 10.000854, 9.999412 
1.965315e+3, 2.7276257e+2, -66640.45, -204657.08, -108071.45, 0.17341815, 0.39934903, -7424.015, 259541.75, 0.000003603985, 10.001397, 9.999571 
1.965345e+3, 2.827618e+2, -76786.45, -384425.44, -81273.94, 0.06536544, 0.46525717, -56635.004, 112340.31, 0.00003430298, 10.001622, 9.997562 
1.9653766e+3, 2.9275984e+2, -25692.936, -316886.8, 2516.6023, 0.039993018, 0.4993733, -25671.188, 45331.79, 0.00015136057, 10.001338, 9.997483 
1.9654123e+3, 3.0275893e+2, 170096.97, -54770.715, 80851.7, 0.29098284, 0.6185347, 196149.11, 196149.11, 0.00039140965, 10.001716, 9.998788 
1.9654423e+3, 3.1275526e+2, 407807.44, 135942.34, -90587.64, -0.009705265, 0.30034962, 435226.6, 435226.6, 0.0007268672, 10.002999, 9.999466 
1.9748516e+3, 1.2273386e+2, -1991883.8, -1818560.1, 57476.617, -0.09391616, 0.578735, -1801232.4, -63969.355, 0.24301729, 9.997886, 10.000274 
1.9748792e+3, 1.3273741e+2, -1607025.0, -1259716.4, -50756.164, -0.11698901, 0.5042571, -1252450.9, 386769.53, 0.17062773, 9.9982815, 10.003771 
1.974911e+3, 1.4273834e+2, -1798955.6, -1715064.9, 64212.574, 0.018561449, 0.4278169, -1680311.8, -139106.48, 0.09895461, 9.998302, 9.999445 
1.9749442e+3, 1.527385e+2, -1590305.5, -1577321.1, 55910.656, 0.023041103, 0.4796718, -1527527.0, -84319.19, 0.04335473, 9.999145, 9.999295 
1.9749774e+3, 1.6273765e+2, -1391885.0, -1433357.4, -24153.98, 0.066039644, 0.4817342, -1380787.1, -35567.203, 0.012356995, 9.9998255, 9.999304 
1.9750088e+3, 1.7273848e+2, -1269146.3, -1284658.3, -12859.981, 0.024345905, 0.5831408, -1261884.5, -14669.761, 0.0015709848, 9.999857, 9.999619 
1.97504e+3, 1.827389e+2, -1200764.3, -1214457.6, -88506.25, 0.018507173, 0.68271923, -1118840.3, 30371.264, 0.000019593592, 9.999683, 9.999529 
1.975071e+3, 1.9273771e+2, -1160041.0, -1110982.4, -85071.02, 0.15284677, 0.56349516, -1046974.9, 4245.77, 0.0, 9.999175, 9.999792 
1.975102e+3, 2.0273644e+2, -1084454.3, -1050354.0, 15473.336, 0.19621795, 0.47816464, -1044379.6, -91148.914, 0.0, 9.999111, 9.999579 
1.9751331e+3, 2.1273562e+2, -820387.56, -842923.8, 75106.55, 0.017069837, 0.39265218, -755708.56, 99527.96, 0.0, 10.000141, 9.999822 
1.9751644e+3, 2.2273488e+2, -711101.9, -842428.0, -21213.879, -0.04620974, 0.3826698, -707760.1, 49482.492, 0.0, 10.000644, 9.998929 
1.9751962e+3, 2.3273423e+2, -656858.9, -765994.1, -31538.396, 0.18292584, 0.40028042, -648400.3, 10849.444, 0.0, 10.000354, 9.998914 
1.9752268e+3, 2.4273369e+2, -588502.8, -680049.8, -36747.445, 0.29537383, 0.46685612, -575577.2, -14321.656, 0.0, 10.000113, 9.998963 
1.9752549e+3, 2.527338e+2, -428158.53, -515238.9, -42607.207, 0.15489647, 0.5277489, -410779.75, 52474.28, 0.0, 10.000416, 9.999259 
1.9752844e+3, 2.6273263e+2, -393727.8, -606200.9, -26303.057, 0.093350746, 0.5557246, -390520.06, -25254.611, 0.000000055759365, 10.000645, 9.997857 
1.9753167e+3, 2.7272904e+2, -222232.3, -479057.13, -68786.94, 0.19060287, 0.38482556, -204969.08, 62332.977, 0.0000036492006, 10.001197, 9.997772 
1.9753471e+3, 2.827267e+2, -26016.875, -230493.16, -99115.68, 0.09517162, 0.3547336, 14140.754, 183466.7, 0.00003270768, 10.001399, 9.998735 
1.9753754e+3, 2.9272762e+2, 86535.17, -44409.684, 16084.332, -0.24653979, 0.48231193, 88481.914, 159800.48, 0.00013942833, 10.001163, 9.999441 
1.9754112e+3, 3.0272716e+2, 1500.6267, -301099.22, 98821.23, -0.035868987, 0.59510654, 30914.02, 30914.02, 0.00034788318, 10.001292, 9.997292 
1.9754475e+3, 3.1272712e+2, 296393.66, 68175.94, -22460.973, 0.17568195, 0.8294838, 298583.22, 298583.22, 0.0006198475, 10.002343, 9.999292 
1.9848484e+3, 1.2270339e+2, -2143611.0, -1826490.9, 138514.48, -0.13214375, 0.6118172, -1774509.9, -36946.582, 0.25424254, 9.996536, 10.000898 
1.9848794e+3, 1.3270533e+2, -1511508.3, -1255896.6, -62178.934, 0.037532818, 0.3917217, -1241573.9, 397962.0, 0.17932345, 9.99926, 10.003381 
1.9849102e+3, 1.4270824e+2, -1544442.5, -1622426.4, 37745.19, 0.024888141, 0.5531325, -1529165.9, 12334.363, 0.104643695, 10.000188, 9.99918 
1.9849439e+3, 1.5270704e+2, -1519927.5, -1550604.3, 84896.19, 0.07302446, 0.47899258, -1448995.3, -5481.276, 0.046255346, 9.999656, 9.999242 
1.9849773e+3, 1.6270544e+2, -1503305.9, -1527194.0, 69015.23, 0.1181165, 0.41949475, -1445208.8, -99675.95, 0.013380272, 9.999241, 9.998935 
1.9850083e+3, 1.7270607e+2, -1327946.9, -1366230.0, 14136.766, 0.0020983138, 0.54713744, -1323292.5, -75760.516, 0.0017591557, 9.999686, 9.99914 
1.9850394e+3, 1.8270655e+2, -1152531.6, -1182425.8, -87719.52, -0.018103441, 0.6761979, -1078494.8, 71035.19, 0.0000256483, 9.999967, 9.999612 
1.9850709e+3, 1.9270594e+2, -992461.3, -1005450.9, -108645.12, 0.18412054, 0.59109163, -890117.0, 161415.08, 0.0, 10.0001955, 10.0000305 
1.9851023e+3, 2.0270503e+2, -925638.0, -958338.0, 16136.168, 0.2747897, 0.5222604, -919016.3, 34521.62, 0.0, 10.000135, 9.999719 
1.9851333e+3, 2.1270397e+2, -870672.75, -860440.2, 20776.975, 0.05380138, 0.40610778, -844158.8, 11388.174, 0.0, 9.999768, 9.999883 
1.9851647e+3, 2.2270334e+2, -805719.06, -811816.44, -71831.234, -0.022339966, 0.37793082, -736871.9, 20680.61, 0.0, 9.999662, 9.99961 
1.9851968e+3, 2.3270379e+2, -620281.8, -653680.56, -61958.56, 0.22777827, 0.42356968, -572811.6, 86735.99, 0.0, 10.000194, 9.999759 
1.9852279e+3, 2.4270396e+2, -497653.0, -657121.4, 1609.0787, 0.36256096, 0.5165174, -497636.75, 63909.21, 0.0, 10.000864, 9.998736 
1.9852564e+3, 2.5270337e+2, -234047.64, -487004.2, -32602.861, 0.19068813, 0.5631619, -229913.13, 233639.05, 0.0, 10.002046, 9.998657 
1.9852863e+3, 2.6270148e+2, -127271.17, -536485.56, 4323.131, 0.11630161, 0.5766764, -127225.5, 238346.19, 0.00000004684117, 10.002739, 9.997322 
1.9853187e+3, 2.7269745e+2, -94202.26, -479506.25, 11209.558, 0.2090273, 0.42208484, -93876.414, 173737.17, 0.000003631824, 10.002353, 9.99721 
1.985349e+3, 2.8269494e+2, 74354.836, -174088.55, 22192.723, 0.13227704, 0.40543914, 76321.68, 245960.89, 0.000030883682, 10.002074, 9.998786 
1.9853772e+3, 2.9269546e+2, 220056.25, 35843.27, -27666.127, -0.20484342, 0.47748578, 224121.6, 295754.16, 0.00012822116, 10.002044, 9.999552 
1.9854125e+3, 3.026944e+2, 68752.83, -310875.88, 67902.836, -0.032890942, 0.5391517, 80532.83, 80532.83, 0.00031412428, 10.001892, 9.99694 
1.9854504e+3, 3.126939e+2, 160134.3, -26823.314, -40644.6, 0.28765544, 0.77848166, 168588.17, 168588.17, 0.00054947456, 10.001453, 9.999084 
1.994846e+3, 1.2267293e+2, -2222115.0, -2013273.6, 98326.43, -0.08076911, 0.5752379, -1974265.6, -236408.5, 0.26535824, 9.996643, 9.999557 
1.9948786e+3, 1.3267404e+2, -1571729.9, -1400400.5, 775.6553, 0.014071963, 0.41823468, -1400397.0, 239445.89, 0.18805622, 9.999343, 10.002155 
1.9949108e+3, 1.426753e+2, -1478771.6, -1510374.1, 16640.842, 0.017549539, 0.45116156, -1471625.3, 70199.26, 0.11045076, 10.000333, 9.9999075 
1.994944e+3, 1.5267518e+2, -1443991.6, -1399111.4, 67822.49, 0.094279, 0.39060476, -1350113.1, 93708.016, 0.04926506, 9.999688, 10.000288 
1.9949766e+3, 1.6267443e+2, -1537911.9, -1616236.6, 66115.31, 0.08479613, 0.37681597, -1500230.8, -154402.98, 0.014456319, 9.999312, 9.99829 
1.9950081e+3, 1.7267257e+2, -1406385.9, -1530493.4, 37105.348, -0.0025126708, 0.36286965, -1396138.4, -148284.95, 0.0019582892, 9.999692, 9.998009 
1.9950394e+3, 1.8267147e+2, -1153356.0, -1191179.4, -85847.305, -0.042763416, 0.40907297, -1084362.0, 65507.035, 0.000032105352, 10.000002, 9.999534 
1.9950695e+3, 1.9267246e+2, -982426.9, -968045.7, -91680.39, 0.013054385, 0.459892, -883274.4, 168583.08, 0.0, 10.000134, 10.000312 
1.9951005e+3, 2.0267309e+2, -963241.2, -1009334.25, -8574.682, 0.062817045, 0.5383182, -961697.75, -7847.2246, 0.0, 10.000011, 9.999431 
1.9951339e+3, 2.1267295e+2, -923745.2, -936033.25, 16097.507, 0.12268404, 0.55347174, -912659.06, -56803.855, 0.0, 9.999616, 9.999437 
1.9951661e+3, 2.2267301e+2, -769151.44, -683245.06, -65959.92, 0.14553672, 0.5842308, -647485.56, 110369.62, 0.0, 9.999432, 10.000605 
1.9951957e+3, 2.3267388e+2, -544294.0, -456220.72, -28514.227, 0.08908959, 0.53005993, -447795.13, 212045.97, 0.0, 10.000017, 10.001201 
1.995226e+3, 2.4267358e+2, -557887.2, -719839.3, 24514.11, 0.055422556, 0.49570328, -554257.94, 7582.3457, 0.0, 10.000591, 9.998441 
1.995258e+3, 2.5267082e+2, -321016.06, -616919.9, 20954.912, 0.13663973, 0.39919218, -319539.47, 144328.0, 0.0, 10.001826, 9.997871 
1.9952899e+3, 2.6266846e+2, -158058.55, -529216.4, -12553.164, 0.1835589, 0.40278706, -157634.45, 208257.55, 0.000000042002604, 10.0024395, 9.997514 
1.9953203e+3, 2.7266747e+2, -96795.98, -426193.78, 5934.9014, 0.11955745, 0.50742394, -96689.08, 171215.64, 0.0000035134383, 10.002115, 9.997683 
1.9953503e+3, 2.8266576e+2, -49634.727, -372038.4, -634.7292, 0.0163612, 0.5921702, -49633.477, 120289.53, 0.00002820436, 10.001811, 9.997556 
1.9953814e+3, 2.9266286e+2, 73736.5, -217328.1, -14523.152, -0.021086812, 0.47064897, 74459.37, 146409.03, 0.00011358975, 10.001812, 9.997927 
1.9954158e+3, 3.0266064e+2, 34406.26, -262029.05, 34958.17, 0.07944528, 0.48314464, 38473.035, 38473.035, 0.00027761437, 10.001412, 9.997489 
1.9954492e+3, 3.126575e+2, 18928.04, -176687.78, -13292.313, -0.014955628, 0.3518688, 19827.133, 19827.133, 0.0004899251, 10.000889, 9.998301 
2.004844e+3, 1.2264154e+2, -1900047.9, -2005924.8, 35395.754, -0.07763962, 0.58042425, -1889304.9, -151145.28, 0.27641812, 9.999484, 9.99822 
2.0048788e+3, 1.3264203e+2, -1582675.3, -1444990.5, -6177.6763, 0.092796706, 0.4208353, -1444713.9, 195441.78, 0.1968332, 9.999454, 10.001732 
2.0049112e+3, 1.4264344e+2, -1598060.0, -1569013.8, 13622.979, 0.08692455, 0.4826159, -1563624.5, -21486.617, 0.11636926, 9.999477, 9.999881 
2.0049441e+3, 1.5264277e+2, -1406215.1, -1398989.9, -46290.844, 0.12149691, 0.37958735, -1356170.9, 87968.36, 0.05238356, 10.000033, 10.000115 
2.0049761e+3, 1.6264188e+2, -1367896.5, -1516687.9, -51263.703, 0.072955854, 0.35800275, -1351944.6, -5798.5264, 0.015589432, 10.000382, 9.9984665 
2.0050083e+3, 1.7264013e+2, -1232992.5, -1418982.9, 6731.5176, 0.0041776793, 0.3261215, -1232749.3, 15419.517, 0.0021699998, 10.000731, 9.998282 
2.00504e+3, 1.8263899e+2, -1064686.3, -1158211.6, -42538.42, -0.005146373, 0.35216928, -1048232.9, 101951.016, 0.00003871999, 10.000667, 9.999435 
2.0050697e+3, 1.9263989e+2, -964412.0, -990151.94, -108672.836, 0.008139001, 0.42062634, -867849.7, 184324.67, 0.0, 10.000402, 10.000033 
2.0051004e+3, 2.0264055e+2, -957541.4, -994530.75, -30195.979, 0.043373443, 0.51567084, -940626.3, 13542.107, 0.0, 10.000013, 9.999531 
2.0051335e+3, 2.1264061e+2, -904490.94, -902047.56, 17573.725, 0.12670971, 0.53338295, -885653.1, -29481.994, 0.0, 9.999648, 9.999659 
2.0051658e+3, 2.2264075e+2, -781570.75, -728636.0, -27458.172, 0.16564484, 0.5727765, -716965.8, 41205.254, 0.0, 9.999539, 10.000233 
2.0051955e+3, 2.3264131e+2, -545172.06, -516883.06, -148810.94, 0.053100627, 0.5453548, -381545.94, 278616.22, 0.0, 10.000308, 10.000632 
2.0052262e+3, 2.4264064e+2, -502736.75, -694300.25, -158870.78, 0.029173829, 0.51418734, -413008.22, 149157.64, 0.0, 10.00094, 9.998463 
2.00526e+3, 2.526376e+2, -419662.47, -642161.06, -118765.87, 0.20396565, 0.3700045, -368179.66, 96015.28, 0.0, 10.001035, 9.998084 
2.0052926e+3, 2.6263547e+2, -323993.6, -594073.94, -102047.984, 0.28584543, 0.38034734, -289771.72, 76444.375, 0.000000029896977, 10.0012245, 9.997651 
2.0053218e+3, 2.7263516e+2, -128399.29, -438654.66, -136567.73, 0.09590482, 0.54500437, -76850.06, 191372.92, 0.0000031274246, 10.001856, 9.997732 
2.0053522e+3, 2.8263327e+2, 10509.967, -374257.2, -108231.11, 0.006450948, 0.6160663, 38864.727, 209108.38, 0.000025154262, 10.002348, 9.997292 
2.0053852e+3, 2.9262897e+2, 108088.31, -250665.84, -91200.16, 0.16387002, 0.40822086, 129941.46, 202224.8, 0.00009776422, 10.002266, 9.997481 
2.0054188e+3, 3.0262792e+2, 188971.5, -88530.55, 32015.451, 0.22627456, 0.5292914, 192617.22, 192617.22, 0.00024034745, 10.002024, 9.998409 
2.0054503e+3, 3.126243e+2, 155161.94, -79490.22, -36506.594, -0.0119640175, 0.24609031, 160710.34, 160710.34, 0.0004335503, 10.001653, 9.998632 
2.0148425e+3, 1.2260736e+2, -1982531.6, -2214066.5, 14933.444, -0.26846358, 0.43861845, -1981572.4, -243083.42, 0.28771394, 9.999647, 9.996719 
2.0148796e+3, 1.3260911e+2, -1554190.3, -1389325.6, -5193.4316, 0.19465262, 0.38537362, -1389162.1, 251313.8, 0.20582092, 9.999466, 10.0022335 
2.0149112e+3, 1.4261262e+2, -1642608.8, -1680005.8, 16309.687, 0.08908427, 0.6522427, -1636495.3, -94054.555, 0.12247417, 9.999548, 9.999089 
2.0149437e+3, 1.526097e+2, -1496914.6, -1595667.9, -22376.828, 0.038147304, 0.45444626, -1492080.9, -47611.617, 0.055639356, 10.000058, 9.998736 
2.0149755e+3, 1.6260779e+2, -1279202.3, -1353966.9, -49452.1, -0.056170605, 0.37085629, -1254593.0, 91894.945, 0.016791714, 10.000483, 9.999539 
2.0150086e+3, 1.7260872e+2, -1110837.0, -1159639.8, 25845.941, -0.06378999, 0.4402748, -1099693.5, 148785.02, 0.0023981123, 10.000716, 10.000069 
2.0150408e+3, 1.826091e+2, -1067499.3, -1182084.1, -64098.2, -0.030495014, 0.513067, -1038820.75, 111653.7, 0.000045425786, 10.000732, 9.999246 
2.0150708e+3, 1.9260824e+2, -1028241.94, -1111284.3, -114040.04, 0.056773, 0.4795373, -948399.44, 104083.875, 0.0, 10.000353, 9.999226 
2.015101e+3, 2.0260747e+2, -942416.6, -936296.7, -54518.883, 0.079338014, 0.4637825, -884751.94, 69738.86, 0.0, 9.999896, 9.9999895 
2.0151317e+3, 2.126071e+2, -875401.4, -799541.9, 13302.535, -0.022422995, 0.36426055, -797276.8, 59216.938, 0.0, 9.99947, 10.000449 
2.0151632e+3, 2.226066e+2, -941737.8, -1009551.3, -19145.984, -0.07999712, 0.36059257, -936705.7, -178205.86, 0.0, 9.999304, 9.998424 
2.0151955e+3, 2.3260602e+2, -743215.44, -903223.06, -104414.7, 0.0130174495, 0.46754053, -691678.2, -31167.13, 0.0, 10.000181, 9.998048 
2.0152284e+3, 2.4260503e+2, -517500.2, -672355.56, -152356.55, 0.1249232, 0.5522085, -424025.66, 138498.11, 0.0, 10.000722, 9.998715 
2.0152618e+3, 2.5260356e+2, -369417.8, -491446.94, -102485.33, 0.2771513, 0.46690643, -311159.5, 153375.11, 0.0, 10.000845, 9.999208 
2.0152941e+3, 2.6260224e+2, -360864.13, -609161.56, -92122.484, 0.28319994, 0.48481917, -330418.34, 36128.01, 0.0000000091701935, 10.0009575, 9.99768 
2.0153232e+3, 2.7260074e+2, -180695.55, -491220.25, -92046.09, 0.017252458, 0.5530983, -155461.69, 113103.62, 0.0000023642951, 10.001616, 9.997487 
2.0153539e+3, 2.8259793e+2, -14646.826, -349920.63, -116789.77, -0.07835953, 0.5311129, 22024.818, 192620.19, 0.000021595964, 10.002028, 9.997606 
2.0153882e+3, 2.9259372e+2, 111458.99, -205899.08, -74592.17, 0.21642053, 0.28180093, 128116.86, 200750.95, 0.000083873885, 10.002081, 9.997884 
2.015421e+3, 3.0259562e+2, 190261.28, 13548.251, 2069.9722, 0.20768492, 0.6406947, 190285.52, 190285.52, 0.00020823472, 10.001633, 9.999278 
2.015451e+3, 3.125953e+2, 153462.58, 105150.72, 64667.652, -0.15107962, 0.5647742, 198338.63, 198338.63, 0.00038333618, 10.000912, 10.000223 
2.0248428e+3, 1.22573614e+2, -1966677.3, -2247941.8, -33339.047, -0.19712827, 0.47899622, -1962779.5, -223961.55, 0.29983783, 9.999957, 9.996324 
2.0248792e+3, 1.3257447e+2, -1627439.9, -1375099.5, -90917.13, 0.27509862, 0.29214248, -1345754.9, 295059.38, 0.21537028, 9.998611, 10.002782 
2.0249104e+3, 1.4257935e+2, -1754015.5, -1701786.9, -4833.953, 0.14290093, 0.644218, -1701343.3, -158577.34, 0.12892798, 9.998639, 9.999382 
2.024943e+3, 1.5257654e+2, -1593656.1, -1636368.3, 39881.918, 0.028116262, 0.44953853, -1569772.3, -124978.414, 0.05909158, 9.999369, 9.998791 
2.0249754e+3, 1.6257465e+2, -1367415.9, -1334421.3, 67972.555, -0.060543872, 0.34490392, -1280972.6, 65839.555, 0.018083457, 9.999632, 10.000072 
2.0250094e+3, 1.725766e+2, -1207611.5, -1134355.0, 39670.76, -0.0023493501, 0.4557186, -1116988.9, 131802.89, 0.0026487417, 9.99978, 10.00068 
2.025042e+3, 1.8257758e+2, -1174522.8, -1228521.5, -78285.27, 0.067863375, 0.5491427, -1118711.8, 32069.527, 0.000052423693, 9.999974, 9.999287 
2.0250714e+3, 1.925758e+2, -974908.56, -1107301.3, -102097.96, 0.072707176, 0.4359694, -919425.2, 133373.97, 0.0, 10.000796, 9.999039 
2.025101e+3, 2.0257449e+2, -798246.2, -905416.5, -40290.094, 0.061183464, 0.38841718, -784789.1, 170023.47, 0.0, 10.001059, 9.999628 
2.0251314e+3, 2.1257465e+2, -794131.56, -811900.3, -91571.734, -0.01963169, 0.38355356, -711014.25, 145797.84, 0.0, 10.000249, 9.999978 
2.025163e+3, 2.2257426e+2, -858274.4, -1004098.0, -62903.816, -0.0398672, 0.43167877, -834889.7, -76071.59, 0.0, 10.000025, 9.998107 
2.0251969e+3, 2.3257288e+2, -572163.06, -847162.1, 9722.558, 0.067970574, 0.485064, -571819.75, 89017.12, 0.0, 10.001475, 9.997798 
2.0252304e+3, 2.4257149e+2, -326038.53, -601888.5, 17707.705, 0.18827364, 0.54990965, -324906.47, 237947.19, 0.0, 10.002149, 9.9985 
2.0252626e+3, 2.5257027e+2, -379372.34, -527285.9, -61286.45, 0.27055442, 0.51463014, -357278.94, 107584.98, 0.0, 10.000912, 9.998926 
2.0252942e+3, 2.6256907e+2, -440219.22, -588284.06, -38491.445, 0.26269138, 0.541608, -430810.7, -63935.47, 0.000000001074916, 10.000158, 9.998213 
2.0253244e+3, 2.7256787e+2, -259210.02, -437703.97, 13020.29, 0.044715866, 0.5682885, -258265.23, 10623.976, 0.0000018159459, 10.000707, 9.998285 
2.0253558e+3, 2.8256568e+2, -71522.84, -347567.78, 49568.727, -0.041023713, 0.5500181, -62891.77, 108019.664, 0.000018189116, 10.001486, 9.997889 
2.0253894e+3, 2.9256213e+2, 160399.5, -151646.47, 31182.8, 0.13898693, 0.34958088, 163485.1, 236428.58, 0.000072171526, 10.0023, 9.998139 
2.0254229e+3, 3.0256242e+2, 289648.63, -21585.225, 57397.84, 0.21885489, 0.5554276, 299896.5, 299896.5, 0.00017992329, 10.002604, 9.998607 
2.0254533e+3, 3.1256345e+2, 242823.63, 104880.07, -32567.125, -0.022355236, 0.7206875, 250125.86, 250125.86, 0.0003356384, 10.001646, 9.999898 
2.0348449e+3, 1.2253993e+2, -1890249.0, -2139658.5, -72880.78, -0.057358272, 0.62159866, -1870513.9, -131363.13, 0.3135409, 10.000134, 9.997 
2.0348772e+3, 1.3253796e+2, -1586423.8, -1321980.1, -96770.94, 0.17903021, 0.12533844, -1290350.6, 350821.16, 0.22593072, 9.998714, 10.0032425 
2.0349093e+3, 1.4254333e+2, -1634023.3, -1500715.0, 2800.2498, 0.09898335, 0.44603428, -1500656.1, 42460.047, 0.13594478, 9.998813, 10.000725 
2.0349424e+3, 1.5254319e+2, -1480297.1, -1406679.6, 66526.516, -0.004792953, 0.36041123, -1367457.8, 77655.91, 0.06282382, 9.999391, 10.000378 
2.0349753e+3, 1.6254242e+2, -1362009.3, -1342718.1, 60912.21, -0.08445703, 0.2732388, -1290692.5, 56426.51, 0.019494196, 9.999708, 9.999979 
2.0350102e+3, 1.7254373e+2, -1237087.3, -1209662.0, 53624.004, 0.08300919, 0.36892802, -1168025.1, 81083.664, 0.0029308582, 9.999826, 10.000142 
2.0350432e+3, 1.8254438e+2, -1153266.1, -1195597.4, -61403.7, 0.15851916, 0.45257655, -1109482.6, 41621.934, 0.00006041413, 10.000025, 9.999492 
2.0350714e+3, 1.9254258e+2, -954277.44, -1045609.4, -61961.2, -0.035576314, 0.298417, -922972.2, 130149.68, 0.0, 10.000722, 9.999498 
2.0351003e+3, 2.0254156e+2, -896462.9, -1080984.4, -69527.75, -0.14901817, 0.29370856, -873198.06, 81935.914, 0.0, 10.000938, 9.998481 
2.0351323e+3, 2.1254306e+2, -927900.6, -1058240.5, -112948.6, 0.022085056, 0.5807309, -862669.25, -5541.9204, 0.0, 10.000112, 9.998356 
2.035165e+3, 2.2254358e+2, -819042.3, -862232.3, -34913.92, 0.13338664, 0.7778812, -799584.56, -40457.613, 0.0, 9.999777, 9.999194 
2.0351988e+3, 2.3254171e+2, -473435.13, -585377.44, 80915.234, 0.11335477, 0.599373, -431019.06, 230122.44, 0.0, 10.001239, 9.999705 
2.0352317e+3, 2.425397e+2, -419681.7, -727655.4, -16637.486, 0.08900363, 0.5105864, -418785.5, 144374.0, 0.0, 10.001853, 9.99778 
2.0352618e+3, 2.5253758e+2, -504284.25, -760597.2, -98998.86, 0.09454137, 0.52583826, -470499.8, -5315.1904, 0.0, 10.000792, 9.997387 
2.0352927e+3, 2.625359e+2, -412277.4, -480064.9, -42245.11, 0.08213471, 0.5681831, -392009.97, -24806.057, 0.000000023664393, 9.999962, 9.999042 
2.0353255e+3, 2.7253592e+2, -172834.61, -218286.67, 49402.91, 0.05062179, 0.56277895, -141181.23, 128020.04, 0.0000019634658, 10.000536, 9.999873 
2.0353577e+3, 2.825357e+2, -107112.91, -338961.72, 60275.527, -0.03288733, 0.633179, -92378.95, 78822.016, 0.000016146072, 10.001142, 9.998111 
2.035389e+3, 2.925337e+2, 115802.484, -177580.36, 78124.15, -0.1663231, 0.5970501, 135309.0, 208526.64, 0.00006227005, 10.001997, 9.9981165 
2.035424e+3, 3.025281e+2, 38302.69, -391909.2, 12904.012, 0.038254704, 0.30679023, 38689.395, 38689.395, 0.00015436458, 10.00199, 9.996335 
2.0354576e+3, 3.1252635e+2, 41497.688, -168421.84, 87931.266, 0.19511318, 0.45577788, 73462.94, 73462.94, 0.00029089712, 10.001076, 9.998267 
2.0448464e+3, 1.22506045e+2, -2024276.3, -1985181.0, 64680.87, 0.1964072, 0.49112114, -1937158.5, -197675.53, 0.3294151, 9.998285, 9.9989605 
2.0448752e+3, 1.325052e+2, -1536151.4, -1393298.6, 11612.575, 0.07639948, 0.18084505, -1392360.8, 249132.02, 0.23787552, 9.9997225, 10.002157 
2.0449089e+3, 1.4250945e+2, -1359986.1, -1375529.3, 23946.064, 0.09035746, 0.46230578, -1342582.1, 200867.05, 0.14372098, 10.00091, 10.000717 
2.0449425e+3, 1.5250975e+2, -1372910.5, -1305201.6, -36617.18, 0.06366437, 0.381913, -1289186.8, 156254.27, 0.06692591, 9.999925, 10.000855 
2.0449756e+3, 1.625092e+2, -1472874.6, -1384436.9, -65061.094, 0.025092477, 0.28134242, -1349990.3, -2546.162, 0.021061258, 9.998897, 10.000076 
2.0450097e+3, 1.7251015e+2, -1379236.4, -1285199.1, -59974.047, 0.11654987, 0.34298995, -1256009.9, -6571.02, 0.003256253, 9.998883, 10.000076 
2.0450427e+3, 1.8251096e+2, -1259080.4, -1197583.3, -103469.75, 0.16442297, 0.4330051, -1120389.9, 31044.002, 0.00007088071, 9.999102, 9.999917 
2.0450719e+3, 1.9251055e+2, -974849.1, -985908.06, -104732.76, -0.017221428, 0.3600914, -875499.94, 177937.34, 0.0, 10.000303, 10.000099 
2.0451017e+3, 2.0251009e+2, -876146.7, -1099456.4, -97383.79, -0.102189474, 0.38592902, -839644.8, 115798.53, 0.0, 10.001184, 9.99825 
2.0451337e+3, 2.1251015e+2, -762655.8, -1028362.9, -93706.94, 0.08117894, 0.57476366, -732933.0, 124516.87, 0.0, 10.001468, 9.997911 
2.0451662e+3, 2.2250976e+2, -588483.3, -743301.0, 40582.164, 0.2091892, 0.70585775, -578490.56, 180966.81, 0.0, 10.001321, 9.999278 
2.0451997e+3, 2.3250814e+2, -592139.75, -616864.2, 25103.025, 0.14158385, 0.53115267, -576520.06, 84948.086, 0.0, 10.000307, 9.999945 
2.0452324e+3, 2.4250647e+2, -655301.0, -806647.3, -91438.53, 0.08172742, 0.4530751, -612283.7, -48801.832, 0.0, 10.000075, 9.998098 
2.0452628e+3, 2.5250503e+2, -327374.78, -629004.94, -67873.3, 0.0529815, 0.5015829, -312805.53, 152695.19, 0.0, 10.001822, 9.997785 
2.0452939e+3, 2.6250365e+2, -19009.783, -329408.78, 43243.168, 0.061319992, 0.5653891, -13097.967, 354419.53, 0.00000011200642, 10.002801, 9.998714 
2.0453268e+3, 2.7250317e+2, -48266.92, -227292.78, -40789.645, 0.09225733, 0.5607988, -39411.36, 230111.2, 0.000002326167, 10.001669, 9.999269 
2.0453589e+3, 2.8250277e+2, -120211.305, -292138.56, -67568.3, 0.011015556, 0.6366851, -96835.01, 74689.98, 0.000014696717, 10.000816, 9.998587 
2.0453899e+3, 2.9250166e+2, -24092.064, -153965.66, -29772.781, -0.18439004, 0.62148243, -17592.133, 55939.543, 0.00005375532, 10.000668, 9.998908 
2.0454271e+3, 3.0249685e+2, -66979.18, -451594.53, 44566.32, 0.22032918, 0.36670482, -61882.703, -61882.703, 0.00013253847, 10.001292, 9.996253 
2.0454593e+3, 3.124933e+2, 444948.44, 37845.473, 199258.86, 0.12605587, 0.3733877, 526243.06, 526243.06, 0.00025393235, 10.003729, 9.998421 
2.0548461e+3, 1.22473836e+2, -1795320.0, -1601566.4, -115620.99, 0.26543808, 0.24814151, -1547601.1, 192195.03, 0.3476065, 9.998465, 10.002091 
2.0548725e+3, 1.3247654e+2, -1690168.4, -1704016.6, 106196.62, -0.18495719, 0.47744372, -1590670.4, 51102.813, 0.2513395, 9.999774, 9.999522 
2.0549087e+3, 1.4247772e+2, -1430874.6, -1544400.0, 7801.008, -0.07051486, 0.68039775, -1430341.1, 113422.97, 0.15236652, 10.001032, 9.999306 
2.0549431e+3, 1.5247647e+2, -1408032.1, -1391191.6, -65145.61, 0.10802208, 0.5198705, -1333924.4, 111849.75, 0.071473114, 9.999983, 10.000205 
2.0549758e+3, 1.6247506e+2, -1448518.1, -1367398.8, -89761.516, 0.12828036, 0.37425402, -1309458.5, 38328.22, 0.022826005, 9.999029, 10.000143 
2.0550078e+3, 1.7247579e+2, -1354700.3, -1235220.3, -53147.426, 0.0032502888, 0.3835594, -1215000.8, 34781.38, 0.0036400491, 9.998882, 10.000425 
2.05504e+3, 1.824771e+2, -1206154.5, -1106316.5, -79500.05, -0.05698749, 0.48044837, -1062362.4, 89408.68, 0.00008593674, 9.9991665, 10.00052 
2.0550728e+3, 1.924794e+2, -924683.56, -881007.5, -50340.703, 0.008487115, 0.60710824, -847972.2, 205775.78, 0.0, 10.000282, 10.000836 
2.0551047e+3, 2.0247984e+2, -851959.56, -1020242.2, -88715.87, 0.049670346, 0.6523761, -813829.56, 141913.23, 0.0, 10.00106, 9.998854 
2.055135e+3, 2.1247584e+2, -749775.0, -961530.5, -73341.86, 0.058706235, 0.37609735, -726854.0, 130926.92, 0.0, 10.001287, 9.998459 
2.055166e+3, 2.2247262e+2, -689886.8, -894448.06, 2255.5532, 0.05748054, 0.22481953, -689861.94, 69949.56, 0.0, 10.001072, 9.998357 
2.0551991e+3, 2.3247205e+2, -711558.2, -826416.56, -2134.3997, 0.047310125, 0.2867715, -711518.56, -49700.89, 0.0, 10.000143, 9.998584 
2.0552322e+3, 2.4247172e+2, -611989.4, -648246.0, -59654.813, 0.021931611, 0.38024864, -567769.2, -3947.9214, 0.0, 9.999794, 9.999316 
2.0552644e+3, 2.5247225e+2, -216200.03, -341115.16, 12476.264, 0.030020526, 0.42594147, -214966.13, 250850.06, 0.0, 10.001586, 9.999872 
2.0552969e+3, 2.62472e+2, -162930.28, -549868.1, 12557.345, 0.058525063, 0.5218705, -162523.19, 205297.45, 0.00000017468948, 10.002468, 9.997357 
2.0553283e+3, 2.724696e+2, -255747.86, -612180.4, -70188.016, 0.051074505, 0.5647373, -242424.6, 27428.043, 0.0000023499456, 10.001464, 9.996727 
2.0553592e+3, 2.8246716e+2, -146405.27, -261718.78, -89500.984, -0.07757396, 0.57977366, -97597.34, 74283.35, 0.000012296112, 10.000469, 9.998958 
2.0553917e+3, 2.9246607e+2, 41145.824, 26269.834, -13306.499, -0.10765761, 0.42763957, 48952.063, 122836.48, 0.000044415407, 10.000476, 10.000236 
2.0554316e+3, 3.0246735e+2, -29959.393, -259903.78, 87074.45, 0.51130736, 0.64300674, -707.5746, -707.5746, 0.00011238554, 10.0008335, 9.997773 
2.0554584e+3, 3.124641e+2, 385144.3, 129138.5, 265530.94, -0.36872154, 0.5018661, 551914.94, 551914.94, 0.00022334591, 10.002843, 9.999458 
2.0648454e+3, 1.2244211e+2, -1570434.3, -1400350.6, -158306.1, 0.29902476, 0.25715527, -1305690.1, 434418.38, 0.36771804, 9.999839, 10.003569 
2.0648718e+3, 1.3244483e+2, -1612916.9, -1777134.1, 45843.973, -0.2830202, 0.55218077, -1600985.6, 41097.52, 0.26616043, 10.000839, 9.998449 
2.0649096e+3, 1.4244403e+2, -1650191.3, -1715699.8, 42695.086, 0.019047005, 0.6415911, -1629133.6, -85040.09, 0.1618756, 9.999606, 9.998824 
2.0649432e+3, 1.5244292e+2, -1504142.0, -1453415.3, -25775.428, 0.14988975, 0.51196444, -1442616.9, 3487.3738, 0.07651462, 9.999369, 10.000047 
2.064975e+3, 1.6244213e+2, -1434499.8, -1369097.0, 19194.332, 0.15584333, 0.43923447, -1363880.0, -15768.146, 0.024829434, 9.99917, 10.000049 
2.0650063e+3, 1.7244239e+2, -1304626.5, -1218705.0, 16059.679, -0.024581606, 0.41001734, -1215801.5, 34308.945, 0.0041003036, 9.999266, 10.000343 
2.0650385e+3, 1.8244325e+2, -1220054.3, -1102628.0, -9778.883, -0.09831334, 0.46286115, -1101819.3, 50283.582, 0.000108260756, 9.9990425, 10.000592 
2.0650725e+3, 1.9244578e+2, -1132514.4, -963782.4, -44123.492, 0.03234861, 0.59868777, -952940.7, 101137.37, 0.0, 9.998794, 10.000979 
2.0651054e+3, 2.0244652e+2, -1117320.8, -1112649.6, -84693.92, 0.12697516, 0.65231276, -1030259.06, -74188.766, 0.0, 9.999086, 9.999164 
2.0651363e+3, 2.1244279e+2, -767576.9, -930332.4, -100475.95, 0.084518105, 0.37069255, -719657.44, 138447.42, 0.0, 10.001001, 9.998803 
2.0651674e+3, 2.2243975e+2, -536543.7, -830140.8, -46474.508, 0.05338291, 0.22147307, -529362.7, 230770.67, 0.0, 10.002151, 9.998288 
2.0651998e+3, 2.3243918e+2, -569204.8, -776873.75, -10244.2, 0.037646618, 0.29956892, -568700.7, 93439.555, 0.0, 10.00121, 9.998408 
2.0652322e+3, 2.424389e+2, -492558.94, -585408.2, 35369.367, 0.017806193, 0.4081552, -480620.6, 83522.96, 0.0, 10.000589, 9.999365 
2.0652653e+3, 2.524394e+2, -286932.2, -360328.34, -30283.707, 0.0042594112, 0.44112703, -276050.3, 190088.05, 0.0, 10.001039, 10.000001 
2.0652986e+3, 2.6243913e+2, -336112.47, -639580.1, -115907.914, 0.060244713, 0.5252585, -296907.03, 71235.98, 0.00000012472299, 10.001295, 9.997314 
2.0653301e+3, 2.724366e+2, -331538.28, -650215.44, -79928.875, 0.12619993, 0.5662355, -312614.7, -42439.418, 0.0000018192295, 10.000954, 9.996712 
2.0653605e+3, 2.82434e+2, -100437.51, -252518.92, 55857.297, 0.034633465, 0.5662352, -82126.6, 90077.64, 0.000008845643, 10.000826, 9.998858 
2.0653926e+3, 2.9243243e+2, 169012.72, 56886.727, -384.76834, -0.103329875, 0.3903722, 169014.03, 243227.16, 0.000033872344, 10.001488, 9.999962 
2.0654334e+3, 3.024339e+2, 215465.19, -73114.64, 56674.32, 0.5519871, 0.6158742, 226196.42, 226196.42, 0.00009226449, 10.002161, 9.998462 
2.0654622e+3, 3.1243145e+2, 172922.45, 72402.12, 29.856997, -0.1795615, 0.4736681, 172922.45, 172922.45, 0.00019358228, 10.0011425, 9.999923 
2.0748432e+3, 1.2241135e+2, -1584763.9, -1455958.6, -15367.384, 0.0038405235, 0.58397734, -1454150.6, 286264.78, 0.38886976, 10.00001, 10.002996 
2.0748723e+3, 1.3240989e+2, -1564155.3, -1676436.0, 3884.809, -0.34332043, 0.40540975, -1564021.0, 78403.586, 0.28190908, 10.000974, 9.999081 
2.0749116e+3, 1.4240807e+2, -1596885.9, -1627926.0, 98.33904, 0.2044055, 0.33097413, -1596885.6, -52445.23, 0.17213808, 9.999705, 9.99938 
2.0749421e+3, 1.5240887e+2, -1471075.8, -1393366.5, -22988.535, 0.0716023, 0.35064328, -1387075.1, 59358.26, 0.08207624, 9.9993925, 10.000476 
2.0749728e+3, 1.624102e+2, -1433238.8, -1387144.9, 6644.805, -0.03860678, 0.4662544, -1386206.1, -37784.816, 0.027111659, 9.999257, 9.999883 
2.0750053e+3, 1.7241003e+2, -1331785.5, -1276096.4, 25096.227, -0.06955077, 0.42900762, -1266455.8, -16032.419, 0.0046569863, 9.999276, 9.999939 
2.0750381e+3, 1.8240957e+2, -1242655.5, -1173930.9, -28202.422, -0.08533204, 0.3978157, -1163839.3, -11411.319, 0.00014131474, 9.999145, 10.000055 
2.0750707e+3, 1.9240966e+2, -1178252.9, -1051471.5, -47678.13, -0.03534169, 0.34793976, -1035542.75, 18885.137, 0.0000000002137382, 9.998758, 10.000398 
2.0751035e+3, 2.0240994e+2, -1133271.5, -1121678.5, -43780.418, 0.0038843502, 0.39143124, -1083312.5, -126885.37, 0.0, 9.998976, 9.999155 
2.0751372e+3, 2.1241066e+2, -779760.75, -917533.44, -13559.558, 0.050648578, 0.53782934, -778438.9, 79986.086, 0.0, 10.00083, 9.998976 
2.07517e+3, 2.2241071e+2, -533203.9, -746107.94, -61862.926, 0.066536926, 0.65508616, -516533.78, 243893.3, 0.0, 10.001836, 9.999006 
2.0752007e+3, 2.324092e+2, -541362.5, -663949.0, -36732.22, 0.008909433, 0.55402976, -531198.6, 131239.92, 0.0, 10.000988, 9.999285 
2.075232e+3, 2.4240766e+2, -604265.0, -756123.75, 29630.418, -0.07477181, 0.51847494, -598688.3, -34236.383, 0.0, 10.00033, 9.998315 
2.0752652e+3, 2.524064e+2, -434265.6, -627679.0, -449.24335, -0.1316182, 0.5390497, -434264.56, 32203.467, 0.0, 10.000874, 9.998243 
2.0752989e+3, 2.6240498e+2, -305599.06, -503388.72, -132596.77, -0.07113608, 0.5825937, -239078.98, 129405.13, 0.000000021824269, 10.000995, 9.998391 
2.0753318e+3, 2.7240378e+2, -204654.25, -343998.47, -81702.38, 0.19057518, 0.55508155, -166950.94, 103543.445, 0.00000084431264, 10.000784, 9.998894 
2.0753631e+3, 2.824025e+2, -186561.94, -363751.03, 47674.797, 0.15769753, 0.5700329, -174548.94, -2044.2963, 0.000005133315, 10.0005455, 9.998226 
2.0753926e+3, 2.9240027e+2, 9855.888, -229439.83, 45656.473, -0.27777615, 0.4821272, 18270.996, 92794.516, 0.000023723636, 10.001272, 9.998108 
2.0754321e+3, 3.023969e+2, 103868.59, -142980.42, 28730.963, 0.18384919, 0.34977686, 107168.5, 107168.5, 0.00007269807, 10.001529, 9.998255 
2.0754677e+3, 3.123968e+2, 32552.227, -10351.424, -108633.04, 0.22107053, 0.3924053, 121831.24, 121831.24, 0.00016061905, 10.000353, 9.999684 
2.0848435e+3, 1.2237839e+2, -1691356.1, -1632641.0, 11074.021, 0.05664747, 0.69521534, -1630621.8, 110116.64, 0.40993002, 9.999738, 10.001164 
2.0848735e+3, 1.3237548e+2, -1720994.1, -1659100.6, -16311.376, -0.23077731, 0.31981084, -1655065.1, -12304.082, 0.29801235, 9.999232, 10.000028 
2.0849116e+3, 1.4237477e+2, -1552255.8, -1562997.9, 13609.054, 0.22701871, 0.26860556, -1542996.3, 1768.866, 0.18298064, 9.999855, 9.9997425 
2.0849417e+3, 1.523759e+2, -1445697.9, -1404168.9, -73829.805, 0.10199329, 0.33345968, -1348239.1, 98516.71, 0.088167645, 9.999692, 10.000268 
2.0849727e+3, 1.6237742e+2, -1424020.0, -1415449.4, -46075.91, 0.016453005, 0.49346998, -1373460.0, -24717.607, 0.029713616, 9.999454, 9.999608 
2.0850053e+3, 1.7237653e+2, -1267649.4, -1281543.3, -43596.85, -0.022009201, 0.4167836, -1230449.5, 20301.604, 0.005333032, 9.999855, 9.99964 
2.0850381e+3, 1.8237552e+2, -1128547.3, -1138513.5, -72813.82, -0.035080932, 0.35551322, -1060546.3, 92214.99, 0.00018960002, 10.000015, 9.999887 
2.08507e+3, 1.9237562e+2, -974537.5, -966417.44, -79854.555, -0.034093626, 0.3192693, -890519.75, 164242.28, 0.000000020895914, 10.00022, 10.000276 
2.0851028e+3, 2.0237614e+2, -940620.3, -995847.3, -3541.4612, -0.015435475, 0.3876716, -940394.1, 16365.496, 0.0, 10.000187, 9.999426 
2.0851375e+3, 2.1237773e+2, -860967.94, -905297.06, 28834.36, 0.04125001, 0.5834851, -846763.7, 11985.87, 0.0, 10.000077, 9.99941 
2.0851712e+3, 2.2237842e+2, -751728.7, -830665.2, -31616.498, 0.090035014, 0.7297862, -740626.75, 20118.941, 0.0, 10.000219, 9.999219 
2.0852022e+3, 2.323769e+2, -517128.7, -635949.75, -85874.27, 0.060476437, 0.6121087, -472117.0, 190639.22, 0.0, 10.001055, 9.999458 
2.0852336e+3, 2.4237509e+2, -452179.1, -731176.56, -7431.623, -0.0002030719, 0.5522514, -451981.25, 112790.48, 0.0, 10.001565, 9.997897 
2.0852664e+3, 2.5237274e+2, -414607.34, -692412.94, 18884.375, -0.112829246, 0.52943087, -413329.53, 53469.28, 0.0, 10.001309, 9.997598 
2.0852998e+3, 2.6237085e+2, -225226.42, -409076.75, -47122.402, -0.07650207, 0.5467184, -213852.23, 154966.5, 0.0, 10.001313, 9.99888 
2.0853333e+3, 2.723705e+2, 42625.684, -134546.42, -107997.75, 0.20391926, 0.52615285, 93721.42, 364538.16, 0.000000115745564, 10.002106, 9.999689 
2.0853652e+3, 2.823694e+2, 81290.28, -278088.06, -21630.969, 0.23829038, 0.5253371, 82587.57, 255410.73, 0.0000020138657, 10.002555, 9.997847 
2.085395e+3, 2.923662e+2, 39672.93, -288578.34, -4948.996, -0.17186403, 0.41552895, 39747.527, 114602.23, 0.000014504671, 10.001813, 9.997433 
2.0854332e+3, 3.023631e+2, 78253.09, -193662.86, 64212.227, 0.14223777, 0.357981, 92653.96, 92653.96, 0.000053403415, 10.001437, 9.997983 
2.0854707e+3, 3.1236303e+2, 239116.67, 51921.227, -251082.16, 0.42578682, 0.43947643, 413479.38, 413479.38, 0.00012565745, 10.001801, 9.999457 
2.0948443e+3, 1.22341156e+2, -1879976.4, -2030468.6, -263528.16, 0.06576934, 0.37774628, -1681162.1, 59935.25, 0.42994058, 9.999942, 9.997958 
2.0948742e+3, 1.323414e+2, -1626817.0, -1511624.9, 18721.469, -0.09318935, 0.2782605, -1508658.6, 134436.19, 0.31401625, 9.999249, 10.001449 
2.0949087e+3, 1.4234424e+2, -1531667.6, -1541946.1, 3512.8396, -0.0733024, 0.47323638, -1530581.8, 14485.29, 0.19429262, 9.999953, 9.999854 
2.0949419e+3, 1.5234408e+2, -1493528.6, -1519841.4, -79342.984, 0.11813315, 0.4810129, -1426258.6, 20811.963, 0.094824284, 9.999756, 9.9994135 
2.0949739e+3, 1.6234374e+2, -1433514.6, -1468322.0, -51976.96, 0.16337033, 0.52807194, -1396105.1, -47029.656, 0.032688897, 9.999592, 9.999179 
2.0950058e+3, 1.7234194e+2, -1277790.4, -1310693.0, -22427.238, 0.017337572, 0.38585317, -1266427.5, -15334.237, 0.0061590113, 9.999884, 9.99943 
2.0950378e+3, 1.8234108e+2, -1104913.6, -1106568.8, -76057.09, -0.086244725, 0.34458974, -1029679.6, 123422.91, 0.00026052183, 10.000087, 10.000072 
2.09507e+3, 1.9234352e+2, -959040.8, -926435.6, -65867.74, -0.07417809, 0.5141912, -874883.0, 180198.08, 0.00000016154512, 10.000184, 10.000568 
2.0951028e+3, 2.0234504e+2, -927941.4, -941149.4, -17501.645, -0.06649512, 0.645326, -915839.2, 41229.02, 0.0, 10.000065, 9.999858 
2.0951368e+3, 2.1234395e+2, -854348.44, -847678.06, 33053.363, -0.044067483, 0.5240735, -817792.06, 41287.438, 0.0, 9.999894, 9.999888 
2.0951705e+3, 2.2234288e+2, -804362.75, -880223.4, -18004.676, -0.009298995, 0.46953428, -800306.44, -39216.63, 0.0, 9.999965, 9.998999 
2.0952035e+3, 2.3234233e+2, -580780.1, -722111.06, -42535.13, 0.07284248, 0.49427444, -568966.25, 94126.85, 0.0, 10.000856, 9.998962 
2.0952363e+3, 2.4234116e+2, -483800.6, -727798.7, -15524.92, 0.08173449, 0.52317446, -482816.75, 82286.625, 0.0, 10.001271, 9.998059 
2.0952684e+3, 2.523385e+2, -410142.16, -644585.94, 21021.775, -0.053955745, 0.42916718, -408272.13, 58858.953, 0.0, 10.001141, 9.998007 
2.095301e+3, 2.6233664e+2, -272380.06, -444883.75, -36397.38, -0.11584681, 0.42374125, -265014.88, 104133.91, 0.0, 10.001056, 9.998754 
2.0953342e+3, 2.723366e+2, -24009.732, -218673.1, -60239.457, 0.053450115, 0.47035092, -6876.362, 264267.8, 0.0, 10.001872, 9.999221 
2.095367e+3, 2.8233477e+2, -3695.5095, -347966.56, -46011.336, 0.13255398, 0.43965182, 2347.7578, 175506.83, 0.00000039293647, 10.002108, 9.99758 
2.0953992e+3, 2.9233044e+2, 13031.589, -280810.6, -7961.385, 0.04967361, 0.22047392, 13247.137, 88451.516, 0.000007667558, 10.001544, 9.997615 
2.0954348e+3, 3.023309e+2, -54679.926, -308129.72, 55442.68, 0.13930467, 0.5169796, -43082.41, -43082.41, 0.000037309004, 10.000801, 9.99748 
2.0954712e+3, 3.1232902e+2, 123136.586, 41770.758, -110887.4, 0.2406364, 0.49762246, 200568.5, 200568.5, 0.00009608347, 10.0009, 9.999785 
2.1048433e+3, 1.2230854e+2, -1905121.6, -1914179.6, -193592.16, 0.02645133, 0.40778902, -1716005.5, 25409.03, 0.44859928, 9.999096, 9.999103 
2.1048743e+3, 1.3230748e+2, -1601951.4, -1552551.1, 53725.4, -0.048918933, 0.19961016, -1518119.9, 125306.86, 0.3298663, 9.999814, 10.000804 
2.104909e+3, 1.4231174e+2, -1567944.8, -1592165.0, -54221.086, -0.021570347, 0.5971121, -1524497.9, 20889.0, 0.20615475, 9.999856, 9.999552 
2.1049422e+3, 1.5231094e+2, -1354835.9, -1443055.5, -109188.16, 0.14120686, 0.53826046, -1281184.4, 166212.47, 0.10215144, 10.000786, 9.999453 
2.104974e+3, 1.6230983e+2, -1242484.6, -1364478.5, -32556.795, 0.14198643, 0.5005892, -1234340.0, 115069.59, 0.036114734, 10.000883, 9.999265 
2.1050058e+3, 1.7230864e+2, -1339183.6, -1318440.6, -1188.1962, 0.061100017, 0.40177906, -1318372.9, -66951.586, 0.007176738, 9.999371, 9.999614 
2.105038e+3, 1.8230836e+2, -1366489.4, -1233812.5, 8544.917, 0.025806038, 0.4049309, -1233264.4, -79839.91, 0.0003661867, 9.998289, 10.000066 
2.10507e+3, 1.9231038e+2, -1118860.6, -1008956.44, -17270.43, -0.025719378, 0.53774303, -1006306.44, 49099.89, 0.00000091193453, 9.99912, 10.000511 
2.1051025e+3, 2.0231159e+2, -943544.0, -936376.8, 14631.624, -0.059237517, 0.63586795, -924896.3, 32498.848, 0.0, 9.999863, 10.000007 
2.1051367e+3, 2.1231042e+2, -775539.5, -794334.56, 24305.852, -0.052283432, 0.48771107, -758877.7, 100527.57, 0.0, 10.0003195, 10.000079 
2.1051706e+3, 2.2230928e+2, -712751.5, -844761.75, 2474.3105, -0.0048818956, 0.4187828, -712705.1, 48710.074, 0.0, 10.000652, 9.998898 
2.1052046e+3, 2.323084e+2, -533602.3, -721361.8, -24149.176, 0.09690704, 0.43061695, -530546.0, 132876.92, 0.0, 10.001293, 9.998739 
2.105238e+3, 2.4230717e+2, -397145.22, -653252.56, 3803.9268, 0.13708918, 0.4588654, -397088.75, 168345.38, 0.0, 10.001726, 9.998358 
2.1052697e+3, 2.5230527e+2, -330587.16, -549428.06, 14894.547, -0.027522298, 0.39917442, -329578.06, 137874.42, 0.0, 10.001462, 9.998502 
2.105302e+3, 2.623037e+2, -254494.5, -450352.47, -4043.7092, -0.11368222, 0.3944134, -254411.05, 115055.664, 0.0, 10.001215, 9.998652 
2.105335e+3, 2.723028e+2, -143792.47, -314630.84, -40212.36, 0.0013089546, 0.38947442, -134800.47, 136671.92, 0.0, 10.001197, 9.998893 
2.1053684e+3, 2.8230116e+2, -79470.26, -357988.53, 10828.518, 0.11143017, 0.3901903, -79049.89, 94437.336, 0.00000006547354, 10.001502, 9.997785 
2.105402e+3, 2.922984e+2, 107557.11, -201814.72, 17083.045, 0.1607417, 0.30516303, 108497.555, 184016.44, 0.000004738257, 10.002089, 9.997882 
2.1054368e+3, 3.0229807e+2, 118642.12, -220348.78, 111406.586, 0.23178992, 0.5047267, 151976.98, 151976.98, 0.00002905632, 10.0019455, 9.997536 
2.1054704e+3, 3.1229633e+2, 142727.11, 134429.0, -29854.383, 0.10406432, 0.5017505, 168719.36, 168719.36, 0.00007990105, 10.000638, 10.000557 
2.1148403e+3, 1.2227992e+2, -1615820.9, -1405908.8, -46757.96, -0.2522401, 0.6646411, -1395964.5, 345731.78, 0.46656317, 9.999154, 10.004499 
2.114872e+3, 1.3227396e+2, -1775082.9, -1933857.9, 84670.27, -0.26084274, 0.08617625, -1738403.9, -94649.27, 0.34608045, 9.999918, 9.997826 
2.1149118e+3, 1.4227697e+2, -1605775.1, -1722684.5, -40047.72, 0.2203421, 0.61316377, -1593372.5, -47644.824, 0.21890919, 10.000045, 9.998557 
2.1149427e+3, 1.5227628e+2, -1275828.8, -1306210.6, -70552.52, 0.056172147, 0.4960216, -1218850.3, 228886.75, 0.110347085, 10.000916, 10.000411 
2.1149717e+3, 1.6227548e+2, -1175753.9, -1252172.6, -77370.24, -0.19341238, 0.39902115, -1127672.4, 222074.22, 0.040102176, 10.001008, 10.000001 
2.115005e+3, 1.7227654e+2, -1293858.0, -1235533.0, -55172.53, 0.0004546865, 0.46333852, -1202289.9, 49446.086, 0.008443992, 9.999409, 10.000169 
2.1150379e+3, 1.8227713e+2, -1371861.0, -1259294.1, 2454.4434, 0.15388866, 0.5247723, -1259240.6, -105511.125, 0.00052604213, 9.998352, 9.999858 
2.1150698e+3, 1.9227609e+2, -1160061.1, -1083976.0, 23347.223, 0.006959244, 0.3994942, -1077383.1, -21644.557, 0.0000034897541, 9.999077, 10.000012 
2.1151021e+3, 2.0227565e+2, -975079.0, -964855.5, 24538.479, -0.12779006, 0.3663427, -944902.0, 12839.93, 0.0, 9.999708, 9.999886 
2.1151367e+3, 2.1227707e+2, -807654.1, -808330.75, 46911.492, -0.09076226, 0.47852495, -761079.75, 98647.98, 0.0, 10.000114, 10.000073 
2.1151711e+3, 2.2227748e+2, -761145.1, -875522.6, 15739.104, -0.04171934, 0.5665395, -759018.8, 2704.4258, 0.0, 10.000352, 9.998829 
2.1152055e+3, 2.3227495e+2, -572511.56, -753439.25, 12667.128, 0.0360551, 0.42473537, -571629.0, 92118.26, 0.0, 10.001083, 9.998621 
2.115239e+3, 2.4227297e+2, -416795.16, -624038.06, -7421.5366, 0.023355544, 0.37075603, -416529.72, 149235.94, 0.0, 10.00143, 9.998694 
2.1152702e+3, 2.5227273e+2, -325177.13, -494581.84, 12202.626, -0.13869484, 0.42333457, -324302.66, 143464.14, 0.0, 10.00128, 9.99896 
2.1153025e+3, 2.622716e+2, -313529.1, -494543.2, -17059.209, -0.21507408, 0.44353876, -311935.44, 57841.0, 0.0, 10.000888, 9.998499 
2.1153358e+3, 2.72269e+2, -184158.58, -359263.5, -23729.277, -0.079225056, 0.29187194, -180999.9, 90801.89, 0.0, 10.001027, 9.998665 
2.1153688e+3, 2.8226805e+2, -109848.01, -341948.22, 16474.252, -0.031090992, 0.3548385, -108684.51, 65128.348, 0.00000005479561, 10.001164, 9.998056 
2.1154028e+3, 2.922691e+2, 81327.46, -200943.16, 62256.56, 0.014882844, 0.60786724, 94448.61, 170256.28, 0.0000044706885, 10.001831, 9.998018 
2.1154384e+3, 3.0226406e+2, 15606.509, -224727.78, 45286.0, 0.15747872, 0.33004054, 23856.516, 23856.516, 0.000027145721, 10.001115, 9.997872 
2.1154685e+3, 3.122647e+2, 52948.016, 137730.3, 99771.03, -0.21848595, 0.48007846, 203742.42, 203742.42, 0.00007500409, 9.999889, 10.0009165 
2.1248448e+3, 1.2224204e+2, -1936390.3, -1388960.1, 138962.5, 0.44334278, 0.35303596, -1355705.3, 386367.28, 0.48543465, 9.995086, 10.006957 
2.1248718e+3, 1.3224067e+2, -1789133.1, -1960601.5, -49301.508, -0.2635702, 0.17124873, -1775968.4, -131885.61, 0.3637423, 9.99996, 9.997596 
2.1249126e+3, 1.4224137e+2, -1507585.4, -1657743.8, 15676.017, 0.2649877, 0.48991376, -1505966.3, 40111.184, 0.23315269, 10.000742, 9.99867 
2.1249427e+3, 1.5224218e+2, -1438554.9, -1341607.1, -72468.64, 0.04811885, 0.48268032, -1302894.9, 145177.92, 0.1197026, 9.999441, 10.000885 
2.1249714e+3, 1.6224256e+2, -1507560.5, -1375842.8, -98411.49, -0.17917813, 0.46118638, -1323286.1, 26785.102, 0.044803485, 9.998521, 10.00034 
2.1250044e+3, 1.7224377e+2, -1197569.5, -1164979.6, -113352.83, -0.0040670945, 0.5221944, -1066756.5, 185302.56, 0.01004214, 9.999969, 10.000392 
2.1250373e+3, 1.8224433e+2, -1003540.7, -1079868.3, -41698.594, 0.14894266, 0.5632362, -985177.94, 168874.28, 0.0007722133, 10.000862, 9.999877 
2.1250698e+3, 1.9224258e+2, -938793.2, -989388.2, -6616.3296, 0.032719165, 0.37260213, -937942.3, 118122.945, 0.000010944595, 10.0006275, 9.99992 
2.1251026e+3, 2.022416e+2, -916051.6, -960800.5, 20634.338, -0.054870475, 0.29972035, -907989.44, 50082.402, 0.0, 10.000244, 9.99964 
2.125137e+3, 2.122428e+2, -841141.7, -855337.0, -5858.9966, -0.044686038, 0.42164138, -839035.9, 21023.89, 0.0, 10.000047, 9.999762 
2.1251719e+3, 2.2224304e+2, -800135.1, -892991.56, -11947.817, 0.006767201, 0.51122147, -798622.44, -36565.023, 0.0, 10.000061, 9.998858 
2.1252063e+3, 2.3224068e+2, -630042.56, -761454.75, -7246.873, 0.047954947, 0.37278095, -629644.1, 34436.418, 0.0, 10.0006, 9.998802 
2.12524e+3, 2.4223906e+2, -470594.22, -622961.06, -21776.318, 0.02758434, 0.332236, -467543.03, 98552.875, 0.0, 10.000953, 9.998928 
2.1252713e+3, 2.522393e+2, -373369.34, -494774.28, -53852.633, -0.12971094, 0.41776496, -352924.44, 115167.48, 0.0, 10.00085, 9.99917 
2.1253037e+3, 2.6223844e+2, -312798.38, -500456.56, -61192.527, -0.16584085, 0.45349234, -294607.72, 75491.91, 0.0, 10.000936, 9.998431 
2.1253371e+3, 2.7223542e+2, -147811.02, -359847.63, -90330.46, -0.032613624, 0.2841891, -114547.33, 157584.75, 0.0, 10.001385, 9.998484 
2.12537e+3, 2.8223473e+2, -30328.102, -256400.81, -28898.625, -0.011120336, 0.37566614, -26692.488, 147449.28, 0.000000117451826, 10.00148, 9.998513 
2.1254033e+3, 2.922375e+2, -5486.9663, -162220.28, -4797.645, -0.05897234, 0.7405513, -5340.2466, 70777.695, 0.0000050467984, 10.000876, 9.998752 
2.1254402e+3, 3.0223253e+2, 109727.02, -148400.17, 63037.254, 0.22305234, 0.40230167, 124298.76, 124298.76, 0.00002697455, 10.001533, 9.998253 
2.1254717e+3, 3.1223282e+2, 480986.03, 204332.73, 4018.5417, -0.03709823, 0.5320279, 481044.38, 481044.38, 0.00007158717, 10.003325, 9.999787 
2.1348736e+3, 1.3220754e+2, -1606961.0, -1577115.1, -13429.798, -0.13454366, 0.5210128, -1571961.9, 72450.16, 0.38411817, 9.999987, 10.000473 
2.1349104e+3, 1.4220501e+2, -1429470.8, -1492283.3, -14567.109, -0.079309486, 0.25155145, -1426256.9, 120178.77, 0.24951555, 10.000885, 9.999853 
2.1349417e+3, 1.5220861e+2, -1430793.0, -1339359.3, -120206.97, -0.0051256837, 0.50668305, -1256469.3, 191935.39, 0.13052814, 9.999521, 10.000887 
2.1349727e+3, 1.622109e+2, -1497530.6, -1385707.5, -89669.6, 0.03796471, 0.6770556, -1335946.3, 14439.345, 0.050404422, 9.9986515, 10.000207 
2.1350041e+3, 1.7221034e+2, -1206296.6, -1183486.6, -49966.54, -0.05456123, 0.57497334, -1143640.0, 108750.94, 0.012084308, 9.999972, 10.000259 
2.1350358e+3, 1.8220991e+2, -976370.25, -1044168.4, -42859.055, -0.12574245, 0.51744634, -955624.6, 198768.25, 0.001155736, 10.000946, 10.000085 
2.1350698e+3, 1.9220978e+2, -921317.0, -950881.94, -10083.974, -0.05350418, 0.46014348, -918205.1, 138181.78, 0.000030850606, 10.000609, 10.000198 
2.1351038e+3, 2.022092e+2, -967277.1, -1031584.06, 503.7596, -0.0031940835, 0.42487216, -967273.2, -8886.333, 0.0, 10.0000925, 9.999228 
2.1351378e+3, 2.1220745e+2, -916013.5, -966458.06, -2654.3184, -0.0077798646, 0.31676865, -915874.2, -55471.1, 0.0, 9.999859, 9.99909 
2.1351719e+3, 2.2220607e+2, -834403.94, -889218.4, -4251.417, -0.0065815724, 0.27684596, -834076.1, -71659.36, 0.0, 9.999753, 9.999025 
2.1352068e+3, 2.322056e+2, -630677.6, -717833.7, 25236.578, 0.021918517, 0.28680447, -623897.7, 40524.85, 0.0, 10.000404, 9.999199 
2.1352407e+3, 2.4220522e+2, -511622.1, -641394.9, -26824.443, -0.013610189, 0.3450747, -506295.97, 60130.78, 0.0, 10.00067, 9.998934 
2.1352725e+3, 2.5220492e+2, -402780.88, -522547.97, -45219.19, -0.11202416, 0.38398603, -387625.66, 80802.52, 0.0, 10.000703, 9.999047 
2.1353051e+3, 2.6220396e+2, -366668.25, -550931.25, -57090.36, -0.12502038, 0.42342797, -350413.78, 20024.16, 0.0, 10.000686, 9.998198 
2.1353394e+3, 2.7220157e+2, -195534.88, -418975.63, -56908.875, 0.013712791, 0.3407585, -181875.58, 90591.41, 0.00000000014169585, 10.001208, 9.998163 
2.1353716e+3, 2.8220066e+2, -62166.176, -217531.55, -56248.395, -0.039512318, 0.41547427, -43940.15, 130539.93, 0.000000256191, 10.0010605, 9.998962 
2.135403e+3, 2.9220337e+2, 35706.914, -32836.984, 2771.8306, -0.18715297, 0.68523973, 35818.82, 112270.89, 0.0000052967753, 10.000676, 9.999735 
2.1354412e+3, 3.022021e+2, 17388.941, -150554.47, 111616.375, 0.12122804, 0.6238055, 73093.516, 73093.516, 0.000025200057, 10.000796, 9.998556 
2.1354774e+3, 3.1219795e+2, 118513.625, -236197.73, 101425.76, 0.13641995, 0.34126076, 145467.08, 145467.08, 0.00006359548, 10.0020895, 9.997306 
2.144875e+3, 1.3217442e+2, -1553677.6, -1462168.4, 100612.45, 0.06815497, 0.704362, -1397395.4, 247348.39, 0.40760165, 9.999881, 10.001889 
2.1449097e+3, 1.4217207e+2, -1798478.0, -1600305.3, -20250.05, -0.061010916, 0.3332258, -1598257.3, -51493.54, 0.26811564, 9.9977665, 10.000496 
2.1449411e+3, 1.5217511e+2, -1498694.5, -1355870.4, -115128.03, 0.029689865, 0.5059154, -1291804.9, 156930.6, 0.14296411, 9.998947, 10.001059 
2.1449728e+3, 1.6217719e+2, -1328400.0, -1291624.0, -30505.271, 0.16001774, 0.64273596, -1274393.3, 76322.984, 0.057087187, 9.999774, 10.000323 
2.1450041e+3, 1.7217694e+2, -1268548.6, -1198870.5, 9246.26, -0.0076109474, 0.5555529, -1197664.4, 55053.14, 0.014719365, 9.999504, 10.000366 
2.1450359e+3, 1.8217665e+2, -1240747.8, -1183677.6, 23143.355, -0.12447388, 0.510076, -1175472.3, -20754.701, 0.0017550356, 9.999202, 9.999965 
2.1450703e+3, 1.9217631e+2, -1033823.25, -1025698.8, -1283.4491, -0.013368278, 0.4530547, -1025500.9, 31212.752, 0.00008036648, 9.9999485, 9.999996 
2.1451047e+3, 2.0217542e+2, -940774.3, -1047503.5, 925.74585, 0.08419148, 0.40944287, -940766.3, 17950.623, 0.000000018813253, 10.000398, 9.998971 
2.1451382e+3, 2.1217325e+2, -865230.8, -978530.3, 861.5269, 0.0570124, 0.28496957, -865224.3, -4486.278, 0.0, 10.000348, 9.998778 
2.145172e+3, 2.2217177e+2, -769894.56, -845308.5, 39851.727, 0.04446455, 0.25300917, -752738.3, 10014.748, 0.0, 10.000141, 9.999144 
2.1452071e+3, 2.3217224e+2, -694686.44, -713064.5, 39086.766, 0.027571687, 0.3351834, -663723.06, 1027.1064, 0.0, 9.999827, 9.999505 
2.1452409e+3, 2.4217224e+2, -607095.7, -663461.9, 16149.902, -0.00092369993, 0.40493894, -602796.4, -36045.824, 0.0, 9.999907, 9.999158 
2.145274e+3, 2.521708e+2, -333991.25, -463408.44, 6087.8687, -0.050279878, 0.3105893, -333705.5, 135055.5, 0.0, 10.001069, 9.999274 
2.1453074e+3, 2.6216948e+2, -187946.7, -484224.13, 19172.46, -0.028273476, 0.30592388, -186711.19, 184061.64, 0.0, 10.00198, 9.998039 
2.145341e+3, 2.7216867e+2, -129839.8, -419055.7, -21181.564, 0.055599663, 0.40855324, -128296.734, 144491.98, 0.00000000016893417, 10.001798, 9.997878 
2.1453732e+3, 2.821678e+2, -18469.09, -240484.22, -26756.723, 0.008237898, 0.51516503, -15289.957, 159512.61, 0.0000002738674, 10.001494, 9.998613 
2.1454045e+3, 2.9216707e+2, 131364.5, -3859.114, -77221.37, -0.15712287, 0.48068896, 166390.39, 243196.83, 0.0000047479944, 10.00141, 9.999573 
2.1454427e+3, 3.0216742e+2, 201839.39, -269.83575, 39712.137, 0.17179306, 0.5509465, 209362.34, 209362.34, 0.000021563434, 10.001696, 9.999196 
2.1454813e+3, 3.1216508e+2, -20690.242, -264486.34, -49134.383, 0.40587637, 0.39180863, -11160.281, -11160.281, 0.000054127435, 10.000888, 9.997697 
2.1548763e+3, 1.3214158e+2, -1562066.0, -1494520.5, 47435.29, 0.11041665, 0.7532141, -1470063.5, 175011.92, 0.43279883, 10.000017, 10.001514 
2.1549097e+3, 1.4214215e+2, -1755551.6, -1577624.4, -72163.1, 0.0650847, 0.6865321, -1552036.5, -4971.0273, 0.28823382, 9.9980345, 10.000525 
2.1549404e+3, 1.5214166e+2, -1461786.6, -1316594.9, -57099.95, 0.029956874, 0.47631657, -1296829.8, 152235.7, 0.15688464, 9.999049, 10.001312 
2.1549717e+3, 1.6214158e+2, -1285282.5, -1242934.4, -34060.844, 0.019121565, 0.36368346, -1224002.6, 127059.055, 0.06501248, 9.999966, 10.000589 
2.1550041e+3, 1.721435e+2, -1249447.4, -1163778.4, -2835.1804, 0.017214345, 0.4709416, -1163684.6, 89354.76, 0.018139776, 9.999526, 10.000596 
2.1550366e+3, 1.8214436e+2, -1259875.5, -1246602.5, 24450.56, 0.005152164, 0.54478395, -1227903.9, -72876.164, 0.0026903055, 9.999294, 9.999491 
2.155071e+3, 1.9214216e+2, -1082975.9, -1120144.8, 35678.816, 0.037987825, 0.36249986, -1061331.5, -4285.8174, 0.00019736934, 9.999921, 9.999356 
2.155105e+3, 2.0214029e+2, -969319.0, -1079551.3, -4569.5645, 0.054618485, 0.2646764, -969129.94, -10068.047, 0.0000007869328, 10.000277, 9.998811 
2.1551384e+3, 2.121399e+2, -884786.8, -987819.4, 5200.9663, 0.038480412, 0.3202548, -884524.94, -23458.197, 0.0, 10.000207, 9.998784 
2.1551721e+3, 2.2213984e+2, -801951.2, -860543.94, 20164.516, 0.0046134363, 0.42787585, -795682.3, -32613.307, 0.0, 9.999915, 9.999147 
2.155206e+3, 2.3214035e+2, -713616.94, -717929.0, 38471.035, -0.045412358, 0.507242, -677241.56, -12175.539, 0.0, 9.99967, 9.999549 
2.1552405e+3, 2.4213988e+2, -626743.0, -629190.3, 36295.543, -0.08120448, 0.5110493, -591650.5, -24580.576, 0.0, 9.999599, 9.999532 
2.1552752e+3, 2.521367e+2, -329179.06, -407809.6, 61189.14, -0.043483343, 0.19689995, -295763.3, 173329.16, 0.0, 10.000871, 9.999752 
2.1553096e+3, 2.6213473e+2, -247496.39, -528457.3, 18579.441, -0.03061028, 0.09767378, -246273.1, 124834.52, 0.0, 10.001647, 9.997891 
2.1553423e+3, 2.7213615e+2, -185492.88, -495797.47, -19086.656, -0.020352025, 0.45833525, -184323.28, 88779.92, 0.0, 10.001623, 9.997439 
2.1553744e+3, 2.8213522e+2, -152652.61, -423789.88, -46731.496, -0.047636837, 0.6305811, -144824.28, 30294.496, 0.000000100631844, 10.001123, 9.997517 
2.1554065e+3, 2.9212868e+2, -14982.769, -235327.81, -46292.086, -0.119311385, 0.1458103, -5652.396, 71527.68, 0.0000031808167, 10.001101, 9.99813 
2.1554431e+3, 3.0212793e+2, 116003.16, 30969.9, 13264.569, 0.015430869, 0.18189555, 118024.29, 118024.29, 0.000016664693, 10.000858, 9.99978 
2.1554822e+3, 3.1213418e+2, 16395.785, -30756.004, 17776.713, 0.35281932, 0.7110048, 22346.732, 22346.732, 0.00004561872, 10.000239, 9.999604 
2.1648753e+3, 1.3210858e+2, -1657891.1, -1590105.8, 98848.47, 0.059064563, 0.6346267, -1519501.0, 125898.18, 0.45757636, 9.999631, 10.000752 
2.1649086e+3, 1.4211065e+2, -1692378.5, -1547568.1, 12331.4795, 0.16717, 0.7882474, -1546525.5, 851.2901, 0.3088363, 9.9985075, 10.000502 
2.1649402e+3, 1.5210956e+2, -1399609.8, -1303408.6, 10618.878, 0.088767, 0.5203393, -1302250.5, 147130.67, 0.17204043, 9.99963, 10.001132 
2.1649721e+3, 1.6210872e+2, -1331429.5, -1334692.9, -39172.082, 0.07075622, 0.37043685, -1293855.1, 57528.7, 0.07433442, 9.999919, 9.999962 
2.1650046e+3, 1.7210959e+2, -1207782.9, -1222147.5, -93958.76, 0.088806555, 0.44106975, -1120732.4, 132639.44, 0.022589553, 10.000128, 9.999929 
2.1650374e+3, 1.8210986e+2, -1164387.8, -1210311.0, -76311.86, 0.106178254, 0.50403476, -1107657.9, 47708.258, 0.00413868, 10.000009, 9.999393 
2.1650712e+3, 1.9210827e+2, -1120103.4, -1134919.9, -39932.363, 0.0923277, 0.38256744, -1086897.9, -29518.057, 0.00045452762, 9.999654, 9.9993925 
2.1651052e+3, 2.0210695e+2, -1055611.0, -1089276.6, -8789.266, 0.09296432, 0.32685292, -1053454.5, -94062.86, 0.000007502901, 9.999527, 9.999112 
2.1651389e+3, 2.1210667e+2, -786105.94, -893437.9, 17179.242, 0.053985387, 0.35680106, -783423.3, 77971.04, 0.0, 10.000679, 9.999208 
2.1651728e+3, 2.2210674e+2, -610844.9, -772671.5, 36117.625, 0.03692287, 0.45248994, -603149.8, 160244.9, 0.0, 10.001264, 9.999089 
2.165207e+3, 2.3210727e+2, -621921.44, -706602.94, -1252.5233, 0.039343517, 0.5574164, -621902.9, 43489.168, 0.0, 10.000445, 9.999248 
2.1652412e+3, 2.4210666e+2, -605179.75, -648996.6, 19387.094, 0.055170346, 0.5794737, -597833.5, -30435.412, 0.0, 9.999857, 9.99928 
2.1652764e+3, 2.5210324e+2, -450271.47, -477779.34, -7426.7783, 0.03539016, 0.2593145, -448394.4, 21029.766, 0.0, 10.000107, 9.999627 
2.1653108e+3, 2.6210123e+2, -383193.1, -571604.06, -59348.85, 0.00551911, 0.1541371, -366056.94, 5382.658, 0.0, 10.000601, 9.998104 
2.1653438e+3, 2.7210248e+2, -146359.8, -434071.5, -70657.83, -0.01936055, 0.4721642, -129943.9, 143489.72, 0.0, 10.0017185, 9.997806 
2.1653767e+3, 2.8210115e+2, 61865.875, -337420.84, -36565.582, -0.0026478588, 0.5803296, 65186.83, 240637.94, 0.0000000029805467, 10.002657, 9.9973755 
2.1654089e+3, 2.9209432e+2, 123539.09, -212704.66, -19554.945, -0.016192503, 0.110978656, 124672.53, 202189.25, 0.000001345268, 10.002265, 9.997718 
2.1654451e+3, 3.0209407e+2, 170682.64, -63829.023, 77148.57, 0.11671002, 0.26901755, 193786.47, 193786.47, 0.000010778314, 10.001738, 9.998712 
2.165483e+3, 3.12098e+2, 360754.72, 179667.19, -139838.66, 0.2993403, 0.6849173, 436803.34, 436803.34, 0.00003608632, 10.002452, 9.99997 
2.1748735e+3, 1.3207704e+2, -1707411.9, -1723475.6, -92597.88, -0.16636035, 0.500097, -1622498.3, 23200.98, 0.48078975, 10.000035, 9.999121 
2.174907e+3, 1.4207827e+2, -1702772.8, -1628040.6, 60479.08, 0.057621986, 0.64996254, -1594315.6, -46625.53, 0.32934, 9.998782, 9.999809 
2.1749404e+3, 1.5207897e+2, -1460689.8, -1427631.5, 47919.063, 0.10656205, 0.6551424, -1393470.9, 56210.387, 0.18832743, 9.999655, 10.000116 
2.1749732e+3, 1.620784e+2, -1415053.8, -1549419.8, -42355.723, 0.13778664, 0.6656509, -1402816.6, -51131.93, 0.0852701, 10.000076, 9.998394 
2.175005e+3, 1.720753e+2, -1295862.6, -1423409.6, -79394.266, 0.0891063, 0.47878355, -1257800.5, -4086.9678, 0.028395085, 10.000199, 9.998497 
2.1750368e+3, 1.8207316e+2, -1148032.0, -1200602.1, -95424.03, 0.031530067, 0.38887143, -1075339.0, 80393.72, 0.006367479, 10.000111, 9.999411 
2.1750705e+3, 1.9207445e+2, -1081210.1, -1051435.5, -48055.15, 0.041336395, 0.5024746, -1016014.5, 41703.58, 0.0009868387, 9.999639, 9.99997 
2.1751045e+3, 2.0207508e+2, -1021384.5, -995144.25, 9935.059, 0.034906827, 0.58140445, -991807.06, -32097.648, 0.000047582707, 9.99942, 9.999812 
2.1751393e+3, 2.1207348e+2, -756649.06, -786597.2, 70535.234, 0.004547274, 0.3970161, -699515.94, 162205.72, 0.00000000032497088, 10.000482, 10.000037 
2.175174e+3, 2.2207238e+2, -673380.44, -827117.2, 16913.273, 0.00790236, 0.33083323, -671541.7, 92189.24, 0.0, 10.000945, 9.998867 
2.1752088e+3, 2.3207274e+2, -696334.7, -818432.5, -24313.176, 0.16003208, 0.47817662, -691671.4, -25940.213, 0.0, 10.000269, 9.998561 
2.1752432e+3, 2.4207227e+2, -707171.2, -788777.44, 8705.355, 0.23013787, 0.5859614, -706252.9, -138514.63, 0.0, 9.999562, 9.998453 
2.1752772e+3, 2.5206998e+2, -537055.5, -613214.94, 15984.17, 0.07550183, 0.46261463, -533836.8, -64077.883, 0.0, 9.999922, 9.998782 
2.175311e+3, 2.620685e+2, -400622.2, -519431.53, -33658.195, -0.06517102, 0.4477949, -391749.56, -19978.086, 0.0, 10.00024, 9.998629 
2.1753453e+3, 2.7206776e+2, -111347.08, -301438.03, -7663.8096, -0.06278054, 0.46539304, -111038.59, 162739.97, 0.0, 10.001472, 9.998831 
2.1753791e+3, 2.8206545e+2, 34876.45, -285348.56, -42540.13, -0.06388184, 0.39040175, 40431.313, 216232.03, 0.0, 10.002215, 9.997936 
2.1754114e+3, 2.9206285e+2, 106443.12, -203084.05, -24750.95, -0.030445551, 0.29123577, 108409.805, 186236.42, 0.00000028754212, 10.00207, 9.997875 
2.175448e+3, 3.0206355e+2, -120578.46, -525133.0, 56058.41, 0.18457593, 0.67604464, -112954.234, -112954.234, 0.0000061263827, 10.001189, 9.995774 
2.1754839e+3, 3.1205836e+2, 149648.95, -35841.67, 50966.047, 0.093828835, 0.49021268, 162730.06, 162730.06, 0.000027574106, 10.001522, 9.998924 
2.1849075e+3, 1.420443e+2, -1647751.0, -1762341.5, -122375.86, 0.21352622, 0.57054234, -1569921.9, -21901.775, 0.34983045, 9.999778, 9.998398 
2.1849397e+3, 1.5204434e+2, -1313091.3, -1388953.3, -120746.266, 0.027784843, 0.59262246, -1224458.4, 225563.02, 0.2059314, 10.001011, 9.99984 
2.1849738e+3, 1.6204573e+2, -1527733.6, -1583047.9, -109765.86, 0.26431027, 0.803736, -1442194.3, -90186.75, 0.09816949, 9.999237, 9.998564 
2.1850061e+3, 1.7204177e+2, -1271961.0, -1382061.6, -17995.002, 0.17783296, 0.5118653, -1269094.5, -15051.133, 0.036017943, 10.000289, 9.99872 
2.1850371e+3, 1.8203896e+2, -1002114.6, -1128590.0, 34271.813, 0.011195776, 0.3369474, -993424.8, 162643.22, 0.009796201, 10.001081, 9.999447 
2.1850705e+3, 1.9204059e+2, -910214.9, -970985.94, 15699.456, 0.043169063, 0.4824754, -906398.75, 151650.97, 0.0020521113, 10.0008, 9.99996 
2.1851048e+3, 2.0204161e+2, -901160.25, -937611.75, 71986.21, 0.10373327, 0.6013092, -845128.4, 114908.89, 0.00020967671, 10.000268, 9.999798 
2.18514e+3, 2.1204013e+2, -850157.3, -837662.1, 53856.105, 0.05488294, 0.43333873, -789692.44, 72357.31, 0.00000086887735, 9.999871, 9.999985 
2.1851748e+3, 2.2203884e+2, -827759.3, -913094.5, -13217.98, 0.054464836, 0.35667536, -825758.8, -61697.195, 0.0, 9.999908, 9.998794 
2.18521e+3, 2.3203848e+2, -519989.06, -730001.7, -30845.654, 0.20820375, 0.43923864, -515552.34, 150515.2, 0.0, 10.001476, 9.998586 
2.1852446e+3, 2.4203779e+2, -315601.0, -619629.5, 38756.723, 0.292874, 0.5265639, -310738.2, 257338.23, 0.0, 10.002322, 9.99829 
2.1852776e+3, 2.5203624e+2, -427193.25, -595507.0, 51633.293, 0.10177895, 0.50555986, -412616.25, 57475.633, 0.0, 10.000797, 9.998496 
2.185311e+3, 2.620352e+2, -455090.47, -502648.34, 83789.39, -0.027506972, 0.53057307, -391771.2, -19669.512, 0.0, 9.999666, 9.99903 
2.1853465e+3, 2.7203402e+2, -216956.05, -282734.16, 79845.53, -0.017093897, 0.45695445, -163491.19, 110618.7, 0.0, 10.000438, 9.999473 
2.185381e+3, 2.8203228e+2, -26135.498, -278491.16, 36813.33, -0.02065244, 0.37712488, -20874.879, 155249.69, 0.0, 10.001604, 9.998297 
2.1854141e+3, 2.920307e+2, 278483.4, -117159.555, -6206.051, -0.024210162, 0.37444153, 278580.72, 356720.94, 0.000000027227998, 10.003213, 9.997928 
2.1854512e+3, 3.0202955e+2, 216801.13, -461281.16, 114225.75, 0.27458745, 0.60188127, 235525.86, 235525.86, 0.0000044959556, 10.003846, 9.994982 
2.1854849e+3, 3.1202456e+2, 190368.06, 56072.473, 155086.63, 0.08810409, 0.54958254, 292219.34, 292219.34, 0.000025056477, 10.001348, 9.999715 
2.1949084e+3, 1.4200747e+2, -1680287.6, -1832565.9, -100208.51, 0.23842847, 0.6056848, -1630574.0, -82194.445, 0.371045, 9.99984, 9.997867 
2.1949378e+3, 1.5200493e+2, -1251884.8, -1275320.6, -164721.77, -0.3071016, 0.3253652, -1098464.6, 351944.7, 0.22535217, 10.00112, 10.000781 
2.1949741e+3, 1.6201067e+2, -1376634.9, -1289688.3, -130760.375, 0.29850665, 0.8037057, -1195363.9, 156988.9, 0.113554515, 9.999335, 10.000619 
2.1950074e+3, 1.7200868e+2, -1157381.6, -1135784.9, 35109.137, 0.26297948, 0.5356247, -1109851.0, 144513.56, 0.046104282, 10.000275, 10.000457 
2.1950376e+3, 1.8200676e+2, -977794.75, -1092667.0, 34802.566, -0.10163303, 0.33075088, -968073.4, 188303.39, 0.015073848, 10.001148, 9.999669 
2.1950713e+3, 1.9200668e+2, -945179.06, -1036697.4, 4986.1445, -0.0060249134, 0.34186852, -944908.2, 113467.04, 0.004138987, 10.000776, 9.999521 
2.1951057e+3, 2.0200661e+2, -974178.06, -1064378.8, 42736.195, 0.14012718, 0.40726903, -957146.06, 3229.2122, 0.00072646124, 10.000164, 9.998976 
2.1951401e+3, 2.120064e+2, -946346.44, -991286.7, 44117.76, 0.081249684, 0.46132895, -919306.1, -56925.258, 0.000022642807, 9.99968, 9.999014 
2.1951745e+3, 2.2200587e+2, -867202.0, -921990.0, 16109.348, 0.020053789, 0.519544, -862816.44, -98427.79, 0.000000000011542125, 9.999593, 9.998881 
2.1952105e+3, 2.3200439e+2, -506636.97, -659750.0, 39923.527, 0.08522609, 0.4343766, -496852.38, 169549.95, 0.0, 10.0012865, 9.999159 
2.1952452e+3, 2.4200314e+2, -348223.88, -593359.2, 2476.3806, 0.09358171, 0.41444618, -348198.84, 220214.75, 0.0, 10.001931, 9.9986515 
2.1952774e+3, 2.5200203e+2, -438703.13, -577445.3, -3398.217, -0.0005471274, 0.40895665, -438619.94, 31803.955, 0.0, 10.000619, 9.998703 
2.1953107e+3, 2.6200095e+2, -502050.66, -515890.63, 74570.37, -0.059847593, 0.41973755, -434079.88, -61646.44, 0.0, 9.999325, 9.999088 
2.1953471e+3, 2.720007e+2, -239798.33, -274880.5, 124774.01, -0.019030763, 0.41756627, -131338.45, 143095.2, 0.0, 10.000221, 9.999612 
2.1953826e+3, 2.8200063e+2, -83535.73, -300656.94, 75540.23, -0.06694519, 0.49204403, -59840.027, 116592.11, 0.0, 10.001208, 9.998326 
2.1954165e+3, 2.9199815e+2, 214663.95, -165872.5, 71780.07, -0.121807985, 0.40376908, 227753.48, 306209.03, 0.000000020729713, 10.002858, 9.997762 
2.1954536e+3, 3.019918e+2, 169861.1, -372366.8, 56183.242, 0.09166903, 0.09529293, 175621.36, 175621.36, 0.0000055230016, 10.003096, 9.995919 
2.1954861e+3, 3.1199428e+2, 100727.25, 96562.49, 51242.797, 0.013185968, 0.6332578, 149929.97, 149929.97, 0.000029811183, 10.000472, 10.000363 
2.2049065e+3, 1.419724e+2, -1682116.6, -1792303.8, 143373.25, 0.09586963, 0.5172376, -1583616.0, -34897.055, 0.39437363, 9.999684, 9.998208 
2.204938e+3, 1.5196955e+2, -1466440.3, -1394544.1, -64488.777, -0.2896041, 0.27292728, -1356660.9, 94091.27, 0.24751917, 9.999404, 10.000597 
2.2049738e+3, 1.6197506e+2, -1205501.9, -1177773.9, -113107.984, 0.3193926, 0.7107826, -1077683.4, 275016.3, 0.13222682, 10.000437, 10.000968 
2.2050074e+3, 1.7197451e+2, -1260252.8, -1186106.5, -69040.2, 0.28048328, 0.5756209, -1144815.4, 109884.78, 0.059555795, 9.99948, 10.000525 
2.2050384e+3, 1.8197347e+2, -1347105.4, -1258145.3, -129224.9, 0.0014284262, 0.4508016, -1165959.5, -9253.651, 0.023171267, 9.998543, 9.999789 
2.2050722e+3, 1.919726e+2, -1135886.9, -1120632.0, -145332.67, 0.08989621, 0.3748615, -982726.75, 75985.13, 0.008108057, 9.999427, 9.999617 
2.2051066e+3, 2.0197193e+2, -1002482.75, -1093353.3, -64916.18, 0.22673419, 0.38448188, -968681.2, -7963.897, 0.0021629941, 10.000023, 9.998856 
2.2051404e+3, 2.1197185e+2, -923203.0, -1005356.94, -31401.43, 0.14485791, 0.47178024, -912575.3, -49853.7, 0.00023583506, 9.9999275, 9.998806 
2.2051749e+3, 2.2197132e+2, -815421.6, -872030.9, 33318.73, 0.07782934, 0.5366626, -800007.94, -35278.836, 0.0000019906881, 9.99984, 9.999107 
2.2052109e+3, 2.3197018e+2, -657530.8, -695285.4, 33549.277, 0.08555964, 0.45135278, -637912.56, 28826.336, 0.0, 10.000078, 9.99951 
2.2052461e+3, 2.4196923e+2, -562304.94, -659480.4, -37630.902, 0.10120614, 0.43292785, -549436.56, 19309.82, 0.0, 10.000296, 9.998988 
2.2052786e+3, 2.519685e+2, -424869.03, -518878.13, -80232.695, 0.060913958, 0.42862096, -378885.88, 91865.87, 0.0, 10.00055, 9.999111 
2.2053118e+3, 2.6196727e+2, -291803.03, -444549.22, 48117.418, 0.04061197, 0.40940952, -277909.1, 94852.82, 0.0, 10.00088, 9.998841 
2.2053479e+3, 2.7196598e+2, -111186.43, -281018.56, 55294.68, 0.0011402413, 0.35616842, -94770.17, 180002.94, 0.0, 10.001363, 9.999042 
2.2053841e+3, 2.8196606e+2, -36203.48, -250042.95, -2790.5452, -0.045049205, 0.46893188, -36167.07, 140603.94, 0.0, 10.001414, 9.99857 
2.205419e+3, 2.919648e+2, -23303.957, -207799.67, -17757.994, -0.053273816, 0.47221336, -21610.271, 57171.426, 0.00000007580395, 10.000919, 9.998406 
2.2054556e+3, 3.019583e+2, -24722.225, -348497.7, 42416.254, 0.11580036, 0.040396504, -19257.703, -19257.703, 0.0000083740215, 10.001217, 9.997005 
2.2054888e+3, 3.1196165e+2, 530620.25, 286312.1, -128564.65, 0.0994359, 0.59592646, 585809.0, 585809.0, 0.000042885644, 10.003466, 10.000219 
2.2149074e+3, 1.4194097e+2, -1595706.8, -1602254.0, -52218.863, 0.14094423, 0.4915623, -1546659.0, 2360.5916, 0.4221777, 9.999646, 9.999543 
2.2149412e+3, 1.5193813e+2, -1580790.9, -1607764.1, 18845.125, 0.054262333, 0.44281778, -1571103.6, -120053.05, 0.27423543, 9.999344, 9.999011 
2.214973e+3, 1.6193861e+2, -1268279.9, -1331776.6, -136784.66, 0.12655148, 0.5274613, -1159607.5, 193443.36, 0.15564767, 10.000589, 9.999743 
2.2150052e+3, 1.7193933e+2, -1355533.8, -1386116.5, -114266.13, 0.09828799, 0.6427938, -1255540.4, -491.3097, 0.07778218, 9.999499, 9.999103 
2.2150391e+3, 1.8193917e+2, -1346994.6, -1275716.6, -132080.42, 0.176152, 0.7062224, -1174551.5, -17497.5, 0.035576556, 9.998614, 9.999637 
2.215073e+3, 1.9193819e+2, -1111028.3, -1048149.75, -100426.35, 0.22675516, 0.5800754, -974356.5, 84703.875, 0.0154146915, 9.999342, 10.0001545 
2.2151066e+3, 2.0193739e+2, -982729.5, -1023098.44, -64221.887, 0.20897858, 0.5164799, -935594.9, 25470.236, 0.005714695, 9.999892, 9.999401 
2.2151403e+3, 2.1193637e+2, -906142.1, -937056.2, -27269.936, 0.12801325, 0.45787454, -890253.2, -27180.314, 0.0013616167, 9.999784, 9.999342 
2.2151746e+3, 2.2193547e+2, -847617.2, -865715.94, 28013.594, 0.059595026, 0.4448929, -827227.56, -62147.51, 0.00013056793, 9.99953, 9.999299 
2.2152112e+3, 2.3193559e+2, -684439.7, -701382.6, 54079.887, 0.09332375, 0.4781173, -638171.75, 28907.416, 0.0000045921656, 9.99986, 9.999574 
2.215247e+3, 2.4193576e+2, -611881.44, -654497.75, -42645.613, 0.132248, 0.56113493, -585516.9, -16439.797, 0.000000030624218, 9.999852, 9.999226 
2.2152802e+3, 2.5193533e+2, -433004.63, -475279.94, -61608.402, 0.16687967, 0.5453697, -389008.63, 82069.53, 0.0, 10.000305, 9.999521 
2.2153138e+3, 2.6193368e+2, -388457.97, -559712.5, 49193.29, 0.117352396, 0.4782201, -375332.97, -2241.388, 0.0, 10.00053, 9.998214 
2.215349e+3, 2.7192998e+2, -225941.53, -453949.78, 82315.81, -0.071303606, 0.27992976, -199329.75, 75797.12, 0.0, 10.001095, 9.997974 
2.2153845e+3, 2.8192872e+2, -107983.17, -271637.72, -25865.035, -0.16974077, 0.3278216, -103992.59, 73146.234, 0.0, 10.000894, 9.998657 
2.2154209e+3, 2.9193032e+2, -145.20805, -92901.02, -17359.326, 0.024262698, 0.53841877, 2997.1484, 82119.6, 0.00000027397763, 10.000649, 9.999313 
2.2154568e+3, 3.01928e+2, -9509.36, -188325.55, 86858.44, 0.060397625, 0.39140454, 25734.846, 25734.846, 0.000015050563, 10.000712, 9.998321 
2.21549e+3, 3.1192622e+2, 253402.06, -47388.78, 80026.79, -0.18511091, 0.34076938, 273368.22, 273368.22, 0.00007034586, 10.002478, 9.99838 
2.2248939e+3, 1.4189741e+2, -1616750.0, -931453.25, 134363.83, -0.9556014, 0.065364696, -906050.6, 643396.7, 0.45833316, 9.994402, 10.0102415 
2.2249433e+3, 1.519043e+2, -1557729.1, -1564770.1, -88290.02, 0.36081263, 0.50081766, -1472889.5, -21511.068, 0.30885017, 9.9993725, 9.999263 
2.224972e+3, 1.6190305e+2, -1464647.6, -1503488.9, -138808.11, 0.039172973, 0.44740108, -1343908.1, 9486.948, 0.18666483, 9.999435, 9.999029 
2.2250038e+3, 1.7190354e+2, -1312675.3, -1403694.0, -97167.7, 0.00047003012, 0.58241844, -1250887.6, 4511.723, 0.103338934, 9.999983, 9.998743 
2.2250383e+3, 1.8190366e+2, -1177824.8, -1205428.9, -22328.736, 0.21815975, 0.70024985, -1165376.8, -7972.1646, 0.054786276, 9.999804, 9.999559 
2.2250727e+3, 1.9190349e+2, -1002051.8, -985030.9, -16622.045, 0.2431423, 0.64642155, -974867.25, 84537.13, 0.028543482, 10.000025, 10.000267 
2.2251067e+3, 2.0190312e+2, -919017.5, -981912.6, 390.4685, 0.20733966, 0.6120286, -919015.1, 42390.28, 0.013685946, 10.000309, 9.999472 
2.225141e+3, 2.1190162e+2, -753898.0, -866393.1, -33331.25, 0.1542371, 0.50744444, -744763.9, 118652.49, 0.005262215, 10.000863, 9.999308 
2.2251755e+3, 2.219003e+2, -631236.56, -755627.4, -6789.888, 0.13233699, 0.45277983, -630867.06, 134559.42, 0.001420654, 10.000965, 9.999373 
2.2252111e+3, 2.3190041e+2, -710552.0, -692392.0, -2361.4568, 0.123188406, 0.47025165, -692089.94, -24664.785, 0.0002619265, 9.999572, 9.999782 
2.2252463e+3, 2.4190065e+2, -748885.3, -699224.25, -30980.402, 0.1442547, 0.5421596, -684351.6, -114929.83, 0.000035642544, 9.998798, 9.999443 
2.2252807e+3, 2.5190073e+2, -396795.47, -435240.06, -53451.41, 0.18959428, 0.5566576, -359215.03, 112202.14, 0.0000011567587, 10.0004, 9.9997835 
2.225315e+3, 2.6189932e+2, -277308.06, -519231.0, 43335.793, 0.18632679, 0.50097084, -269779.56, 103648.266, 0.0, 10.001343, 9.9981 
2.2253501e+3, 2.718948e+2, -338317.78, -534481.1, 72895.76, -0.0017027508, 0.25268653, -314195.5, -38724.375, 0.0, 10.000469, 9.997715 
2.2253855e+3, 2.8189301e+2, -260967.16, -340082.97, 38061.19, -0.08285259, 0.26105723, -245629.88, -68141.22, 0.0, 9.999801, 9.9987335 
2.2254218e+3, 2.9189533e+2, 64164.86, -30620.355, -1791.6006, 0.06718585, 0.5349334, 64198.71, 143666.08, 0.00000073017384, 10.000967, 9.999584 
2.2254589e+3, 3.018949e+2, 209076.9, -43166.84, 63960.85, 0.15530416, 0.52649605, 224368.33, 224368.33, 0.00002755439, 10.002011, 9.99872 
2.2254914e+3, 3.1189117e+2, 158195.23, -88994.63, -69815.64, -0.22075018, 0.30819666, 176550.75, 176550.75, 0.000118261974, 10.001754, 9.9984865 
2.2349441e+3, 1.5186855e+2, -1471619.8, -1331741.1, -128785.96, 0.45354864, 0.52958465, -1255129.0, 196602.0, 0.35698506, 9.99912, 10.001498 
2.234971e+3, 1.6186777e+2, -1497789.0, -1560719.9, -115512.88, -0.082673304, 0.41845503, -1409532.8, -55793.92, 0.23053116, 9.999372, 9.998661 
2.235003e+3, 1.718668e+2, -1287920.5, -1324238.1, -79769.305, -0.11450295, 0.37073734, -1224269.3, 31484.797, 0.14104874, 9.999877, 9.99935 
2.2350359e+3, 1.818668e+2, -1181379.9, -1209397.0, -30156.283, -0.048105113, 0.42530257, -1162137.3, -4378.1655, 0.08532412, 9.999787, 9.999539 
2.235071e+3, 1.9186842e+2, -1030870.94, -1029319.4, -1055.0593, 0.032519918, 0.5767551, -1028785.56, 30959.098, 0.05187056, 9.999956, 9.999995 
2.235106e+3, 2.0186928e+2, -979214.56, -1066906.3, 6379.274, 0.068861045, 0.7010882, -978752.94, -17016.074, 0.030293982, 10.000136, 9.998969 
2.2351415e+3, 2.1186738e+2, -822885.7, -962092.6, -4641.689, 0.11750718, 0.6104762, -822731.06, 41023.434, 0.015773455, 10.000658, 9.998749 
2.2351767e+3, 2.218655e+2, -692256.8, -789609.2, -46498.402, 0.13427198, 0.5442248, -673616.8, 92154.234, 0.0069356123, 10.00058, 9.999316 
2.2352102e+3, 2.3186454e+2, -710704.6, -656488.4, -46607.617, 0.051892813, 0.4210645, -629678.75, 38098.59, 0.002541045, 9.999408, 10.000101 
2.2352436e+3, 2.4186398e+2, -792842.1, -711323.0, -16685.367, -0.030093346, 0.39121503, -708040.0, -138260.36, 0.00075579167, 9.998474, 9.999507 
2.2352795e+3, 2.5186485e+2, -424351.53, -433539.06, 19129.348, 0.02057879, 0.4648812, -409272.1, 62495.492, 0.00014769337, 10.000152, 9.9999075 
2.2353154e+3, 2.6186427e+2, -350447.63, -549483.56, 11841.534, 0.0625729, 0.48960504, -349745.6, 24024.242, 0.000007045108, 10.000847, 9.998115 
2.2353514e+3, 2.7186018e+2, -361803.5, -529757.94, 41305.027, 0.06903972, 0.26072198, -352195.06, -76386.26, 0.00000000065814787, 10.000245, 9.997841 
2.2353865e+3, 2.818583e+2, -329977.25, -382204.75, 29363.99, 0.004855744, 0.24542803, -316795.06, -138967.97, 0.0, 9.999408, 9.998611 
2.2354217e+3, 2.918598e+2, -36733.41, -141509.7, 58371.707, -0.07413902, 0.46075782, -10688.3125, 69128.28, 0.0000012574419, 10.000577, 9.99899 
2.2354609e+3, 3.0185854e+2, 9581.24, -267750.78, 48201.37, 0.10698051, 0.47523457, 17719.979, 17719.979, 0.000044073433, 10.001247, 9.997518 
2.2354941e+3, 3.1185797e+2, 87262.63, 13251.671, 34566.99, -0.17781222, 0.64260685, 100895.9, 100895.9, 0.00018419352, 10.0007715, 9.999626 
2.244937e+3, 1.5183172e+2, -1515003.9, -1225155.1, -160608.53, -0.14138912, 0.54334617, -1153750.6, 298349.8, 0.42759266, 9.997881, 10.003444 
2.2449705e+3, 1.6183303e+2, -1366677.1, -1363553.4, -43941.87, -0.042810984, 0.41702282, -1321145.6, 32933.027, 0.29616648, 9.999709, 9.999911 
2.245003e+3, 1.718324e+2, -1291763.1, -1341571.0, -86941.11, -0.065240644, 0.39402825, -1226229.4, 29859.197, 0.19952731, 9.999927, 9.999213 
2.2450359e+3, 1.8183205e+2, -1188812.1, -1248611.5, -66424.375, -0.025371157, 0.4327591, -1145868.3, 12227.947, 0.13536815, 9.999891, 9.999221 
2.2450711e+3, 1.9183303e+2, -997625.25, -1059636.3, -66714.49, 0.039478566, 0.56063783, -955063.3, 105025.89, 0.09319166, 10.000412, 9.999596 
2.2451064e+3, 2.0183356e+2, -917176.56, -1039974.3, -50306.063, 0.11175354, 0.678296, -899199.6, 62886.156, 0.06306426, 10.00053, 9.999011 
2.2451423e+3, 2.1183209e+2, -959114.0, -993179.94, -27524.393, 0.21371387, 0.61276555, -943778.56, -79679.46, 0.0400799, 9.999527, 9.999108 
2.2451775e+3, 2.2183059e+2, -916825.7, -895831.6, 1970.9894, 0.25482285, 0.56023103, -895648.2, -129535.586, 0.023131557, 9.999004, 9.999362 
2.2452103e+3, 2.3182966e+2, -666729.8, -647978.6, -59088.12, 0.10235724, 0.4481378, -597526.9, 70593.75, 0.011994159, 9.999771, 9.999992 
2.2452433e+3, 2.4182887e+2, -523314.7, -639465.9, -19522.791, 0.007406648, 0.42982405, -520121.1, 50005.46, 0.0054928027, 10.000539, 9.999022 
2.24528e+3, 2.5182897e+2, -374300.03, -465619.72, -34859.434, 0.0453627, 0.48305148, -362514.25, 109607.984, 0.002050329, 10.000734, 9.9994135 
2.2453164e+3, 2.6182804e+2, -366273.38, -542605.7, -78371.89, 0.10100192, 0.5019148, -336475.88, 37652.453, 0.0004876709, 10.000654, 9.998266 
2.2453526e+3, 2.7182493e+2, -161569.1, -367800.13, -46027.246, 0.11056526, 0.3282396, -151762.88, 124393.54, 0.000047167257, 10.001336, 9.998434 
2.2453871e+3, 2.8182375e+2, -21879.79, -238795.11, -16835.965, 0.06462392, 0.34038338, -20580.838, 157585.75, 0.00000034188096, 10.001528, 9.998586 
2.2454223e+3, 2.9182422e+2, 113712.59, -136501.83, -21425.03, -0.11335284, 0.5173639, 115533.89, 195699.31, 0.0000013302117, 10.001858, 9.998435 
2.245462e+3, 3.0182123e+2, 108444.195, -237871.98, 32468.639, 0.06813694, 0.38193113, 111461.98, 111461.98, 0.0000584347, 10.001931, 9.997409 
2.2454983e+3, 3.1182173e+2, 352337.0, 263122.5, -28657.191, 0.09863341, 0.6763921, 360749.0, 360749.0, 0.00025945, 10.001949, 10.000789 
2.2549705e+3, 1.6179967e+2, -1316493.6, -1193244.8, -31921.385, -0.119972035, 0.54863995, -1185467.9, 168939.28, 0.39765337, 9.999154, 10.002006 
2.2550043e+3, 1.7180012e+2, -1352573.3, -1464641.0, -101810.02, 0.024725676, 0.6420819, -1292395.8, -35990.676, 0.29298013, 9.999866, 9.998368 
2.255038e+3, 1.817991e+2, -1290079.4, -1405498.8, -95584.984, 0.11946669, 0.7070264, -1236133.9, -77715.195, 0.21888196, 9.999662, 9.998234 
2.2550727e+3, 1.9179685e+2, -1073382.4, -1169546.1, -52910.492, 0.13596854, 0.5709856, -1049970.4, 10472.416, 0.16615056, 10.000176, 9.998917 
2.2551076e+3, 2.0179561e+2, -925490.8, -983363.94, -74328.36, 0.14250723, 0.5235294, -874665.06, 87790.55, 0.12546477, 10.000249, 9.999537 
2.2551431e+3, 2.1179573e+2, -902237.06, -836328.2, -55679.324, 0.2959401, 0.4982573, -804581.9, 59869.29, 0.0914258, 9.99936, 10.000279 
2.2551775e+3, 2.217956e+2, -985061.06, -953817.6, 5315.278, 0.31866214, 0.51133156, -952938.1, -186487.2, 0.062582165, 9.998642, 9.99914 
2.2552109e+3, 2.3179552e+2, -750698.8, -771587.6, -19139.662, 0.17714141, 0.5450277, -739339.25, -70882.45, 0.039919913, 9.999533, 9.99926 
2.2552447e+3, 2.4179505e+2, -701725.3, -849325.6, -25467.404, 0.06765368, 0.6504014, -697454.7, -126989.74, 0.023601582, 9.999873, 9.997888 
2.2552818e+3, 2.5179312e+2, -495120.0, -634141.0, -22600.51, 0.11452224, 0.59349054, -491538.13, -19057.352, 0.012405956, 10.000401, 9.998402 
2.2553174e+3, 2.6179048e+2, -437629.22, -571902.56, -86823.9, 0.11143945, 0.52290386, -395012.9, -20509.768, 0.005154125, 10.000175, 9.998285 
2.2553527e+3, 2.71789e+2, -161424.1, -261140.36, -13306.21, -0.011351436, 0.4205735, -159679.05, 116834.97, 0.0013586987, 10.000905, 9.999362 
2.2553875e+3, 2.8178912e+2, -157166.55, -350076.78, -40531.246, -0.11405803, 0.51835555, -148996.75, 29512.709, 0.00015517221, 10.000843, 9.99813 
2.2554235e+3, 2.917888e+2, 820.34265, -257772.25, 2905.5442, -0.19523554, 0.6979304, 852.98517, 81365.1, 0.0000026982873, 10.001449, 9.997759 
2.2554612e+3, 3.017831e+2, 53856.02, -202314.19, 3650.255, -0.24809054, 0.2925923, 53908.023, 53908.023, 0.000065484004, 10.00135, 9.99791 
2.2555003e+3, 3.1178012e+2, 274484.97, 305391.8, 117161.31, 0.061613597, 0.17985472, 408114.44, 408114.44, 0.00034262822, 10.001147, 10.001449 
2.2650032e+3, 1.7175859e+2, -1297650.4, -1410261.1, -161213.63, -0.053076778, 0.17438713, -1183192.4, 73616.68, 0.44342524, 9.9997425, 9.999123 
2.2650361e+3, 1.8176183e+2, -941595.0, -1230611.5, -1626.8145, -0.21665567, 0.41547516, -941585.8, 217194.98, 0.3585124, 10.002935, 9.997889 
2.2650725e+3, 1.9176008e+2, -1001642.2, -1142006.6, -10779.143, 0.05427159, 0.39400437, -1000819.25, 59981.117, 0.29413474, 10.0009165, 9.99869 
2.2651084e+3, 2.017589e+2, -953286.94, -987566.06, 17398.389, 0.21788976, 0.34754282, -946003.8, 16809.178, 0.24160613, 9.99988, 9.999712 
2.2651412e+3, 2.1175948e+2, -845737.9, -840412.9, -74775.69, 0.15254885, 0.39005882, -768252.3, 96553.95, 0.1940874, 9.999877, 10.000089 
2.2651748e+3, 2.2175983e+2, -834186.0, -958821.06, -67075.06, 0.12947695, 0.4871793, -804947.3, -38144.02, 0.14888066, 9.999954, 9.998499 
2.26521e+3, 2.3176005e+2, -808910.4, -888462.8, -116611.484, 0.15880682, 0.6505323, -725477.9, -56671.02, 0.108788945, 9.999506, 9.998484 
2.2652453e+3, 2.4175917e+2, -743642.44, -853300.75, -56737.055, 0.18551113, 0.7643116, -719570.8, -148751.34, 0.07581198, 9.999413, 9.998114 
2.2652827e+3, 2.517564e+2, -478725.1, -576293.2, 30301.883, 0.20555508, 0.57171077, -470080.16, 2762.4233, 0.048806984, 10.000174, 9.998977 
2.2653179e+3, 2.6175332e+2, -386527.7, -612437.44, 36350.53, 0.14822453, 0.44920796, -380822.7, -5953.796, 0.026684597, 10.000717, 9.997785 
2.2653532e+3, 2.717518e+2, -96161.18, -324787.22, -17455.506, -0.062022332, 0.42140478, -94836.13, 182045.19, 0.010897145, 10.001676, 9.998605 
2.2653882e+3, 2.8175133e+2, -169486.88, -414897.75, -126257.195, -0.10411382, 0.530136, -116131.234, 62752.0, 0.002788968, 10.000974, 9.997645 
2.2654277e+3, 2.9174972e+2, 133143.56, -236066.16, -35916.645, 0.031594355, 0.6350552, 136605.08, 217501.48, 0.0003034348, 10.002554, 9.997383 
2.2654653e+3, 3.0174372e+2, 330863.13, -128623.56, -62910.395, -0.069670476, 0.19633882, 339320.78, 339320.78, 0.000074942734, 10.003569, 9.997356 
2.2655015e+3, 3.1174004e+2, 437431.38, 141983.6, -126985.14, -0.037809048, 0.25996992, 484508.88, 484508.88, 0.00045627946, 10.003176, 9.999456 
2.2751084e+3, 2.0172736e+2, -1072693.8, -1234685.5, 10014.958, 0.15697737, 0.5871809, -1072076.9, -108957.1, 0.4526298, 9.999865, 9.997966 
2.275139e+3, 2.117264e+2, -896639.56, -1043865.1, -112987.31, -0.07749144, 0.6103204, -835400.6, 29733.541, 0.38963944, 10.000389, 9.9983225 
2.2751746e+3, 2.2172402e+2, -1010568.44, -1226646.5, -183022.34, 0.055368, 0.58269846, -906076.0, -138914.23, 0.32267725, 9.999567, 9.996797 
2.2752094e+3, 2.3172204e+2, -994105.8, -1074137.3, -128606.45, 0.14309947, 0.60370684, -899433.5, -230250.64, 0.25840095, 9.998687, 9.997542 
2.2752452e+3, 2.4172002e+2, -857218.6, -861329.56, -22574.047, 0.13681357, 0.6596881, -836606.7, -265404.22, 0.20062341, 9.998465, 9.998481 
2.2752835e+3, 2.5171864e+2, -470974.16, -372267.2, 63937.055, 0.21483336, 0.37698305, -340851.16, 132359.02, 0.14660953, 9.999371, 10.000839 
2.275318e+3, 2.617169e+2, -758672.6, -998501.1, 24484.273, 0.044261396, 0.33920258, -756198.5, -380975.84, 0.09444842, 9.9991, 9.9958725 
2.2753543e+3, 2.7171433e+2, -341754.94, -691670.1, 8853.713, -0.15795673, 0.40162194, -341531.03, -64281.906, 0.04983968, 10.001082, 9.996326 
2.2753894e+3, 2.8171137e+2, -384187.25, -628572.06, -185259.84, -0.122073814, 0.44151723, -284451.3, -105172.8, 0.019500945, 10.000027, 9.996604 
2.2754331e+3, 2.9170755e+2, 8905.993, -328549.1, 30033.89, 0.30757886, 0.3256405, 11558.199, 92870.89, 0.004786881, 10.001902, 9.997026 
2.275472e+3, 3.0170324e+2, 7714.663, -498462.63, -127837.81, 0.19284107, 0.11307411, 38168.55, 38168.55, 0.0007184054, 10.00237, 9.995346 
2.2755e+3, 3.1170386e+2, -177495.89, -702624.3, -8826.287, -0.5611273, 0.9148085, -177347.6, -177347.6, 0.0007782504, 10.001534, 9.994339 
2.2852449e+3, 2.4168342e+2, -181911.95, -291742.44, -96024.586, -0.110472, 0.3128003, -126208.914, 445355.3, 0.45869297, 10.003111, 10.002327 
2.2852851e+3, 2.516885e+2, -1051289.4, -995895.8, -244118.25, 0.5880982, 1.235761, -777908.1, -304399.0, 0.36361384, 9.996845, 9.99778 
2.2853157e+3, 2.6167938e+2, -991956.2, -949232.4, -215952.69, -0.018228998, 0.5620509, -753587.6, -377992.06, 0.26167566, 9.996557, 9.997524 
2.2853582e+3, 2.7167836e+2, -20379.818, -406612.8, 79984.914, 0.055212803, 0.6620288, -4471.033, 273133.5, 0.1640845, 10.003027, 9.997477 
2.2853933e+3, 2.816746e+2, 146420.34, -429426.22, -133992.03, 0.07584707, 0.62295157, 176071.75, 355711.56, 0.0825175, 10.004071, 9.996086 
2.2854339e+3, 2.916684e+2, 234525.58, -264455.56, 147696.08, 0.12009988, 0.31509957, 274965.47, 356664.47, 0.030766618, 10.003545, 9.996773 
2.2854753e+3, 3.016668e+2, 216370.25, -115594.92, 4892.6255, 0.3215279, 0.30804592, 216442.34, 216442.34, 0.009050321, 10.002414, 9.998014 
2.2855005e+3, 3.1166953e+2, -262902.0, -128106.664, 213466.89, -0.47515923, 0.9624089, 28349.55, 28349.55, 0.003966084, 9.998231, 9.999859 
2.2953643e+3, 2.7163604e+2, 6488.4526, -16019.046, 189103.73, 0.33439443, 0.39186662, 184673.02, 462696.53, 0.434636, 10.002279, 10.001752 
2.2953999e+3, 2.816398e+2, -697248.75, -1167349.4, -422372.47, 0.2281834, 0.8769086, -448928.47, -268948.9, 0.25417706, 9.999552, 9.993099 
2.2954302e+3, 2.9163542e+2, 43163.31, -371707.22, 200911.56, -0.6623186, 0.6752557, 124509.7, 206534.2, 0.12176558, 10.002574, 9.996388 
2.295476e+3, 3.0163717e+2, -497972.44, -134590.55, -120007.68, 0.016716588, 0.9383271, -98535.21, -98535.21, 0.053999547, 9.996271, 10.000717 
2.2955054e+3, 3.1163406e+2, 378537.78, 1562029.4, -226816.5, 0.024444686, -0.0033658496, 1604009.8, 1604009.8, 0.0314703, 9.996895, 10.012289 
2.3054379e+3, 2.9159784e+2, -35584.273, 256567.16, -324345.88, -0.4289897, -0.1305816, 466213.75, 548595.94, 0.36121762, 9.99821, 10.004905 
2.3054886e+3, 3.01611e+2, -111270.945, -253899.06, 494699.75, 0.79207826, 0.49733686, 317228.5, 317228.5, 0.21500781, 10.000121, 9.998416 
2.3055027e+3, 3.1160215e+2, 432076.88, -1763792.3, 12713.521, -0.9011597, 1.1630425, 432150.47, 432150.47, 0.167379, 10.011591, 9.982831 
2.3479547e+3, 2.760508e+2, -847206.4, 102717.15, 431031.72, -1.2724323, -0.8925396, 269142.16, 503806.47, 0.45047393, 9.991175, 10.00827 
2.3475671e+3, 2.8605083e+2, -352904.3, -851738.3, -829271.9, 0.48924667, -0.36002883, 263646.75, 400311.84, 0.35483667, 10.001082, 9.994613 
2.3471789e+3, 2.9605332e+2, 768524.2, 515112.56, 329789.9, 1.0423727, 0.08336709, 995111.06, 1033778.9, 0.27931914, 10.006727, 10.001698 
2.3467922e+3, 3.060462e+2, -80442.5, 490264.88, 27956.787, -0.71056604, 0.2186002, 491631.1, 491631.1, 0.22556506, 9.997877, 10.005682 
2.3618625e+3, 1.7652212e+2, -2790641.5, -2316553.3, 195868.66, -0.51689816, -0.36886078, -2246100.3, -1036051.94, 0.43641227, 9.989994, 9.996541 
2.3614724e+3, 1.8651442e+2, -2911012.8, -1715765.9, -190041.14, -0.06309892, -0.30286467, -1686277.3, -574140.0, 0.37760058, 9.986172, 10.001715 
2.3610778e+3, 1.965166e+2, -2093138.6, -1417914.6, 186733.67, 0.19383931, 0.33586103, -1369714.1, -355593.28, 0.3335361, 9.991578, 10.000555 
2.3606811e+3, 2.0649855e+2, -1454645.1, -1258105.6, 177888.63, -0.6104224, -0.62141883, -1153148.1, -236845.38, 0.3009778, 9.996248, 9.998658 
2.3603007e+3, 2.164965e+2, -1490686.1, -1222154.1, 165861.72, 0.07480749, -0.055472385, -1143025.0, -324697.28, 0.2781445, 9.995043, 9.998994 
2.359909e+3, 2.2649607e+2, -377216.53, -767441.06, -141269.0, -0.15110448, 0.7804793, -331443.5, 388890.6, 0.26104885, 10.003735, 9.997257 
2.3595189e+3, 2.3647824e+2, -982148.9, -1014010.6, -87799.75, -0.2724065, -0.12558173, -908846.44, -286336.94, 0.24563135, 9.997806, 9.997727 
2.3591389e+3, 2.4646904e+2, -277611.97, -474547.34, 265839.78, 0.9207753, -0.14044407, -92589.47, 432005.25, 0.23008795, 10.001968, 9.999018 
2.3587419e+3, 2.5646076e+2, -429949.44, -401159.22, 572531.3, 0.17535512, -0.11529587, 157157.95, 583826.0, 0.20983179, 9.9994755, 10.000373 
2.358338e+3, 2.6645517e+2, 141850.33, 363359.25, 29664.32, -0.44380563, -0.2626734, 367263.06, 695980.6, 0.1745766, 10.000666, 10.004935 
2.3579495e+3, 2.7644905e+2, -1538323.3, -1278405.4, 5262.5146, -0.2598684, -0.3210936, -1278298.9, -1047527.0, 0.12480023, 9.992367, 9.995858 
2.3575556e+3, 2.8643978e+2, -83226.25, -241307.28, -404389.56, -0.07024361, -0.23403437, 249774.89, 382639.78, 0.08190906, 10.000452, 9.998552 
2.3571667e+3, 2.9643485e+2, 462502.44, 418313.22, 258165.3, -0.23896913, -0.42264068, 699516.9, 734437.7, 0.055415194, 10.002542, 10.001842 
2.3567942e+3, 3.0642816e+2, -333580.3, -11188.661, -131258.25, 0.58180207, -0.2921897, 35492.45, 35492.45, 0.039869867, 9.997581, 10.00121 
2.3726419e+3, 1.5693817e+2, -1110686.1, -1222480.5, 119280.414, -0.7871337, -0.4755148, -1034855.1, 367116.6, 0.40917477, 10.002299, 10.0003395 
2.3722644e+3, 1.6693039e+2, -1076253.9, -1435798.5, -171079.73, 0.5928162, -0.3901585, -1007860.1, 296182.53, 0.3191415, 10.003084, 9.997076 
2.371859e+3, 1.7691901e+2, -775178.6, -1290403.6, 113206.32, -0.41913614, -0.5228277, -751401.94, 454755.97, 0.25440004, 10.004899, 9.996552 
2.3714602e+3, 1.8690977e+2, -325261.78, -674740.2, 133338.52, -0.7608474, -0.49215317, -280198.9, 828053.5, 0.20803122, 10.006035, 10.000217 
2.3710662e+3, 1.9690682e+2, -145719.05, -613540.8, 20503.803, -0.65746427, -0.07538075, -144822.13, 865462.4, 0.17323056, 10.006604, 9.999594 
2.3706765e+3, 2.0689681e+2, -325646.22, -803493.2, 160482.58, -0.63235515, -0.16394748, -276751.9, 635631.5, 0.14628343, 10.005007, 9.997884 
2.3702925e+3, 2.168836e+2, -461966.63, -793189.56, 140451.84, -0.16790247, -0.5483185, -410428.66, 404084.13, 0.1255341, 10.002825, 9.998288 
2.369904e+3, 2.2687621e+2, -438673.97, -655109.06, 138626.78, -0.06515808, -0.39514703, -371026.72, 345559.6, 0.10829949, 10.001877, 9.998991 
2.369508e+3, 2.3686934e+2, -428591.63, -569618.75, 73225.65, -0.63000727, -0.19899152, -397448.13, 221206.97, 0.09199208, 10.000981, 9.99935 
2.3691148e+3, 2.4686429e+2, -425362.38, -234788.97, -69156.97, -0.6193132, -0.048453514, -212337.66, 308367.06, 0.07586676, 9.998965, 10.002085 
2.3687297e+3, 2.5685918e+2, -916810.5, -727591.3, -89223.555, -0.046217207, 0.13975397, -692155.5, -269401.94, 0.059159197, 9.996323, 9.9991 
2.3683359e+3, 2.6685104e+2, -312901.53, -292104.5, -298522.13, 0.15195386, 0.08942066, -3799.8518, 321031.3, 0.040412202, 9.999377, 10.0 
2.3679437e+3, 2.768394e+2, -178571.67, -586790.4, 144991.94, 0.049401477, -0.20198163, -132314.7, 94628.53, 0.021718558, 10.001666, 9.996043 
2.3675495e+3, 2.8682908e+2, 96825.375, -164540.03, 32993.36, -0.120153695, -0.18290347, 100925.945, 229973.13, 0.00948949, 10.001985, 9.998034 
2.3671617e+3, 2.968217e+2, -187385.3, 35324.277, 373147.78, -0.14791113, -0.32702824, 313378.22, 344501.72, 0.0043450063, 9.998375, 10.000826 
2.366787e+3, 3.0681026e+2, 81391.03, -44823.69, -52490.902, 0.6570745, -0.49387702, 100367.98, 100367.98, 0.0025844683, 10.001117, 9.998935 
2.3830324e+3, 1.4733927e+2, -1223212.8, -1578955.1, 161590.13, -0.24168444, -0.022424718, -1160772.6, 335282.25, 0.38968244, 10.003984, 9.997 
2.3826365e+3, 1.5732922e+2, -1461950.3, -1676812.0, 34434.586, -0.8637476, -0.09827664, -1456566.5, -58410.723, 0.27836236, 10.0001, 9.997508 
2.3822483e+3, 1.673219e+2, -1092297.8, -759267.25, 2081.8645, -0.43674475, -0.23601323, -759254.25, 540966.0, 0.19862524, 9.999002, 10.004475 
2.3818628e+3, 1.7731854e+2, -1030854.5, -934383.0, -49958.43, 0.33690605, -0.3112617, -913174.3, 289067.63, 0.1461588, 9.999945, 10.001624 
2.3814687e+3, 1.8730876e+2, -1068555.8, -1523983.6, -7042.778, 0.3543665, -0.31025317, -1068446.9, 35888.56, 0.11113541, 10.001777, 9.995646 
2.3810737e+3, 1.9729504e+2, -758230.7, -1308236.1, -40033.063, 0.2703142, -0.5446681, -755332.06, 251139.42, 0.08556882, 10.003146, 9.995902 
2.3806831e+3, 2.0728429e+2, -576934.9, -865264.5, 87109.46, 0.30399454, -0.6351827, -552661.1, 355913.2, 0.065839775, 10.002493, 9.998517 
2.3802905e+3, 2.1727376e+2, -829912.7, -1028302.06, 62780.39, 0.09483746, -0.81618595, -811715.0, -1041.9885, 0.050802168, 10.000208, 9.997865 
2.379898e+3, 2.2726622e+2, -736301.8, -738604.4, 85865.625, -0.12655398, -0.7184453, -651579.75, 61166.203, 0.038884565, 9.999476, 9.999464 
2.3795076e+3, 2.3725978e+2, -903936.7, -975706.94, -10689.238, -0.08948302, -0.51622343, -902378.5, -287568.13, 0.028499383, 9.998488, 9.9977045 
2.3791106e+3, 2.4725093e+2, -690656.7, -683979.4, -176273.88, -0.2345331, -0.50838035, -511012.5, 5891.2065, 0.019239577, 9.998722, 9.998881 
2.3787156e+3, 2.572397e+2, -1063195.5, -1055224.6, -113770.89, -0.4028931, -0.6795405, -945369.4, -526347.25, 0.011432521, 9.99661, 9.996671 
2.3783252e+3, 2.6723439e+2, -153978.92, 21335.21, -167448.1, -0.1207272, -0.47598118, 122682.45, 443753.72, 0.005416997, 9.9996605, 10.001884 
2.3779395e+3, 2.7722973e+2, -98906.414, -217240.19, 60732.77, 0.16786648, -0.3886683, -73284.21, 149825.5, 0.001679893, 10.000846, 9.998977 
2.3775457e+3, 2.872211e+2, 65636.06, -230184.55, -125211.75, -0.001469715, -0.28995797, 111518.016, 236716.06, 0.00032890253, 10.002006, 9.997579 
2.3771569e+3, 2.97217e+2, -515100.28, -473828.7, 182117.9, 0.16520922, 0.02488188, -311181.2, -283935.3, 0.000101582686, 9.997606, 9.997748 
2.376774e+3, 3.0720052e+2, -159306.22, -84706.52, 267655.3, -0.24132083, -0.5821563, 148235.44, 148235.44, 0.00014370115, 9.9992285, 9.99954 
2.3934314e+3, 1.3772818e+2, -2083373.8, -934244.4, -188196.83, 0.26043358, -0.6215368, -904207.9, 686047.7, 0.42782584, 9.990299, 10.011881 
2.3930259e+3, 1.4773482e+2, -1312963.5, -1350170.5, -13608.6455, -0.38750535, 0.2836702, -1308517.4, 183663.98, 0.2998544, 10.000942, 10.000386 
2.3926339e+3, 1.5772124e+2, -1441467.6, -1487669.8, 84936.03, -0.4058098, -0.34255642, -1376547.1, 17760.564, 0.19614406, 9.999383, 9.999243 
2.3922427e+3, 1.6771406e+2, -1319939.1, -1187207.9, -45206.957, -0.18033692, -0.33034047, -1173273.6, 123100.984, 0.12585048, 9.998741, 10.000943 
2.391852e+3, 1.7770907e+2, -1421571.4, -1347219.0, -183497.38, 0.14035589, -0.19385776, -1197169.8, 1250.8591, 0.083471425, 9.998089, 9.9994135 
2.391459e+3, 1.8769915e+2, -1165186.5, -1391065.6, -82947.78, 0.06543991, -0.25619426, -1137998.8, -37482.984, 0.057587944, 10.00024, 9.997322 
2.3910652e+3, 1.9768704e+2, -726106.5, -1170767.6, -15132.624, -0.1713314, -0.4693802, -725592.1, 277041.28, 0.03970386, 10.002694, 9.997062 
2.3906744e+3, 2.0767868e+2, -633847.3, -901368.44, -15926.908, -0.044997558, -0.36506385, -632902.44, 271814.8, 0.026570952, 10.001989, 9.998491 
2.3902842e+3, 2.1767117e+2, -786220.56, -958742.94, 217.42393, 0.13408303, -0.21821566, -786220.3, 20572.523, 0.017417854, 10.000275, 9.998306 
2.3898908e+3, 2.2766222e+2, -659133.8, -672412.4, 29927.943, -0.07167975, -0.30119967, -635117.56, 73757.73, 0.011141793, 9.999828, 9.999772 
2.3894973e+3, 2.3765197e+2, -646505.2, -822945.06, 6292.3022, -0.3568773, -0.4803585, -646281.06, -35312.035, 0.0065593217, 10.00009, 9.997966 
2.389103e+3, 2.4764195e+2, -407114.97, -651955.3, -133532.06, -0.28326732, -0.53485066, -348379.1, 164692.47, 0.0032030866, 10.001094, 9.997954 
2.3887111e+3, 2.5763157e+2, -424810.03, -772048.6, 22663.092, -0.11050581, -0.53474146, -423337.13, -8155.711, 0.0011282732, 10.001085, 9.996417 
2.3883195e+3, 2.6762378e+2, -53355.15, -178779.56, -39844.535, -0.06449314, -0.404052, -41767.906, 275487.06, 0.00023273825, 10.001438, 9.9996195 
2.3879302e+3, 2.7761632e+2, -130416.484, -238131.34, -48709.152, -0.14546645, -0.41303253, -111657.086, 107664.4, 0.000018051116, 10.000618, 9.998902 
2.387537e+3, 2.876063e+2, -48513.793, -349985.28, -285400.75, -0.28759128, -0.44387886, 123511.75, 244938.81, 0.000004039042, 10.00144, 9.9970255 
2.3871496e+3, 2.9760206e+2, 109001.87, -252149.05, -89930.43, 0.07852185, 0.011857812, 130156.375, 153636.61, 0.00001362104, 10.0020685, 9.997146 
2.3867649e+3, 3.0758795e+2, 76116.43, 384172.1, -94620.12, -0.30597958, -0.39345074, 410913.56, 410913.56, 0.00005414364, 9.999167, 10.002874 
2.40381e+3, 1.2813278e+2, -2346734.8, -2029386.6, 211625.55, 0.027404994, -0.41444448, -1923555.8, -239278.08, 0.49043512, 9.995413, 9.999006 
2.4034092e+3, 1.3813415e+2, -1866276.6, -1788098.3, -14663.78, -0.68888146, 0.42618734, -1785438.4, -199166.56, 0.36336103, 9.997947, 9.999038 
2.4030186e+3, 1.4812504e+2, -1318363.0, -1216219.0, -10381.452, -0.4256426, 0.15006311, -1215174.5, 273180.5, 0.24041095, 10.0001745, 10.001737 
2.4026306e+3, 1.5811245e+2, -1270803.0, -1334599.8, -98301.73, 0.046420567, -0.5357868, -1199353.8, 191114.19, 0.14389461, 10.00051, 9.999707 
2.4022366e+3, 1.6810507e+2, -1145625.5, -1406690.8, -125151.875, 0.010852179, -0.39138776, -1095321.9, 197218.97, 0.08188297, 10.00155, 9.997949 
2.4018413e+3, 1.7809832e+2, -996768.7, -1354820.1, -148110.39, -0.11214174, -0.12848161, -943443.6, 251167.1, 0.047678713, 10.00203, 9.997494 
2.4014488e+3, 1.8808913e+2, -787480.2, -997030.1, 9521.599, -0.30287415, -0.17307606, -787048.44, 309650.0, 0.028905774, 10.002063, 9.999147 
2.4010561e+3, 1.9807965e+2, -863036.7, -1134339.0, -27718.084, -0.525841, -0.29215327, -860233.8, 138554.16, 0.017015342, 10.001332, 9.99796 
2.4006657e+3, 2.0807332e+2, -824733.3, -993138.6, -104796.484, -0.28783318, -0.017020408, -774502.4, 126355.055, 0.00915297, 10.000733, 9.998454 
2.4002774e+3, 2.1806754e+2, -987808.8, -1091022.4, -92408.61, 0.21697058, 0.3139958, -933573.25, -130649.58, 0.0045936005, 9.999157, 9.997944 
2.3998825e+3, 2.2805712e+2, -669139.75, -665870.56, -3492.9817, -0.11397475, 0.07016547, -663648.6, 41368.734, 0.0022051786, 9.999761, 9.999839 
2.3994862e+3, 2.3804383e+2, -717246.44, -889009.9, -51399.656, -0.7236308, -0.43815404, -703040.2, -95905.79, 0.0009056362, 9.999814, 9.997649 
2.3990959e+3, 2.4803509e+2, -431688.72, -643206.56, -175163.61, -0.33782774, -0.37769917, -332832.78, 176388.61, 0.00023937336, 10.001014, 9.997959 
2.3987092e+3, 2.580272e+2, -628424.7, -992636.9, -55406.387, 0.36415485, -0.16390471, -620182.44, -208877.39, 0.000025130046, 10.000282, 9.995297 
2.3983145e+3, 2.680157e+2, -257850.58, -606844.4, -36219.066, 0.0078063845, -0.16794632, -254131.36, 59283.895, 0.00000030344088, 10.001553, 9.996589 
2.3979183e+3, 2.7800354e+2, -372541.28, -600772.2, -55844.566, -0.6969922, -0.41624612, -359609.7, -144078.86, 0.000000006555133, 10.000071, 9.996696 
2.3975274e+3, 2.8799132e+2, -143585.47, -469306.28, -148332.98, -0.68097025, -0.5701934, -86159.28, 31503.373, 0.00000087941476, 10.001204, 9.996283 
2.3971419e+3, 2.979832e+2, -408682.34, -714158.75, -6445.4907, -0.21441676, -0.30821392, -408546.4, -388789.0, 0.0000072209577, 9.99955, 9.995156 
2.3967598e+3, 3.0797857e+2, -10952.467, 679094.6, 11457.376, -0.104235746, 0.05080893, 679284.8, 679284.8, 0.00003484927, 9.997312, 10.005652 
2.413799e+3, 1.2852705e+2, -1690013.3, -1531186.4, -136068.72, -0.39790505, -0.11345703, -1453052.4, 227356.47, 0.44509998, 9.99883, 10.001887 
2.4134035e+3, 1.3851935e+2, -1686240.3, -1655036.6, -17233.342, -0.47327504, -0.36003372, -1647391.9, -64911.477, 0.31930807, 9.998972, 9.9995165 
2.4130131e+3, 1.485118e+2, -1435322.4, -1500111.6, -8639.868, -0.2893627, -0.3111562, -1434190.0, 50363.758, 0.20041417, 10.000346, 9.999125 
2.4126235e+3, 1.5850285e+2, -1264583.1, -1511206.4, -106988.41, -0.114776805, -0.38944802, -1224639.5, 162001.36, 0.110025235, 10.001348, 9.998026 
2.4122299e+3, 1.6849443e+2, -876914.1, -1236443.9, -127970.61, -0.20368117, -0.32546768, -836016.6, 452708.84, 0.054970514, 10.003265, 9.998299 
2.4118356e+3, 1.7848602e+2, -605852.9, -1104239.6, -108221.22, -0.38862675, -0.26213887, -583367.9, 607442.25, 0.027314784, 10.004454, 9.99806 
2.4114436e+3, 1.8847685e+2, -531930.56, -831221.3, -49548.887, -0.3955189, -0.3566399, -523940.8, 568952.6, 0.013986388, 10.003574, 9.999583 
2.4110517e+3, 1.9846736e+2, -773157.9, -1039416.5, -79949.68, -0.4213135, -0.5046487, -750995.94, 243983.06, 0.006556314, 10.001665, 9.998462 
2.4106595e+3, 2.0846038e+2, -801161.0, -991953.2, -165252.63, -0.25978747, -0.30918875, -705746.06, 191309.69, 0.002469395, 10.000916, 9.998404 
2.4102676e+3, 2.1845374e+2, -783717.06, -994283.44, -87703.19, -0.060378753, -0.038496666, -751973.25, 47159.164, 0.00078321603, 10.000474, 9.998003 
2.4098757e+3, 2.2844446e+2, -508870.13, -638607.5, 518.14795, -0.1305432, -0.14417614, -508868.06, 192351.39, 0.00023610769, 10.000991, 9.999464 
2.4094841e+3, 2.3843354e+2, -440790.97, -743379.56, -52789.73, -0.3422667, -0.3849952, -431845.7, 171472.77, 0.000047296035, 10.0015745, 9.99781 
2.4090917e+3, 2.4842463e+2, -358191.8, -639022.7, -226214.86, -0.15784156, -0.32204926, -232356.16, 273052.16, 0.0000020598873, 10.001617, 9.997713 
2.4087009e+3, 2.5841612e+2, -429693.94, -774030.9, -95514.92, 0.13600089, -0.17091139, -404973.9, 2523.3806, 0.0, 10.00105, 9.996417 
2.4083078e+3, 2.6840574e+2, -194079.7, -517844.22, 29099.447, -0.098341815, -0.1419032, -191485.08, 118112.86, 0.0, 10.001713, 9.997134 
2.4079141e+3, 2.7839506e+2, -432.7691, -308448.56, 73310.8, -0.5465014, -0.25027272, 16125.76, 227826.2, 0.0, 10.001991, 9.997816 
2.4075249e+3, 2.8838348e+2, 76055.305, -230111.75, 40156.06, -0.35178572, -0.43711185, 81234.45, 195055.55, 0.0000001537889, 10.001956, 9.997664 
2.4071394e+3, 2.983749e+2, 41194.137, -344362.13, 261881.97, 0.10685675, -0.28457305, 173601.45, 189516.8, 0.000003139397, 10.001759, 9.996687 
2.4067509e+3, 3.0836898e+2, 96104.04, 555737.1, 127945.54, -0.07955614, 0.02409238, 588952.3, 588952.3, 0.000017282315, 9.998455, 10.004386 
2.4237922e+3, 1.2891623e+2, -1631446.4, -1424603.6, 12121.623, -0.16955261, -0.32098815, -1423895.6, 252694.42, 0.4141129, 9.998383, 10.003152 
2.4233982e+3, 1.3890794e+2, -1412429.9, -1521554.6, -59852.383, -0.23331285, -0.71217775, -1386002.4, 192661.05, 0.28877336, 10.001192, 9.999574 
2.4230069e+3, 1.4890064e+2, -1431255.6, -1673968.5, 18057.168, -0.2169252, -0.5469518, -1429919.5, 50816.96, 0.17287979, 10.000976, 9.997704 
2.422616e+3, 1.5889321e+2, -1472877.4, -1727176.1, 11707.342, -0.1862961, -0.3154463, -1472339.5, -89526.15, 0.08747846, 10.000122, 9.9972 
2.4222238e+3, 1.6888443e+2, -1148162.4, -1301454.9, 43992.48, -0.29858857, -0.30054966, -1136434.5, 148467.66, 0.038149297, 10.000954, 9.998943 
2.4218313e+3, 1.7887539e+2, -995464.75, -1243383.0, 12895.889, -0.40241048, -0.34891608, -994795.75, 192196.17, 0.01570925, 10.001495, 9.998485 
2.4214391e+3, 1.8886569e+2, -852564.3, -972742.94, -20893.383, -0.35404447, -0.5216654, -849035.56, 240042.58, 0.0064830934, 10.001287, 9.999665 
2.4210474e+3, 1.9885573e+2, -1054103.8, -1207349.5, -89404.875, -0.20789786, -0.7147889, -1012979.9, -21813.943, 0.0021827125, 9.999899, 9.998152 
2.4206524e+3, 2.0884767e+2, -881185.94, -1044797.6, -113417.5, -0.25024462, -0.61533356, -823150.0, 70102.32, 0.00044835047, 10.000431, 9.998259 
2.4202578e+3, 2.188399e+2, -892063.4, -1094926.8, -28829.473, -0.28375334, -0.4549722, -888045.94, -92706.41, 0.000068581576, 10.00003, 9.997509 
2.4198696e+3, 2.2883214e+2, -642261.9, -737728.7, 72086.555, -0.06911202, -0.36150035, -603537.5, 93879.26, 0.0000096515805, 10.000401, 9.9990015 
2.4194834e+3, 2.3882376e+2, -777270.9, -974984.44, -31341.883, 0.21773247, -0.31219503, -772421.44, -172924.1, 0.00000040342232, 9.999695, 9.997109 
2.4190871e+3, 2.4881417e+2, -481989.78, -716074.6, -172237.25, 0.015807748, -0.29606405, -390790.53, 110804.82, 0.0, 10.000909, 9.997501 
2.4186906e+3, 2.5880417e+2, -531277.6, -808089.94, -49907.867, -0.2566927, -0.2965714, -522554.4, -118856.18, 0.0, 10.000364, 9.996536 
2.418301e+3, 2.687961e+2, -155582.77, -330590.66, 87763.195, -0.21287213, -0.16545695, -119153.984, 186623.94, 0.0, 10.001361, 9.99853 
2.4179131e+3, 2.7878836e+2, -236794.08, -417256.3, 54725.492, -0.08845799, -0.08338158, -221495.4, -13642.538, 0.0, 10.0004425, 9.997817 
2.4175246e+3, 2.8877857e+2, 21672.451, -59741.113, 23008.121, 0.19132192, -0.19536388, 27724.793, 137672.6, 0.0000000009564638, 10.000941, 9.999227 
2.4171387e+3, 2.9877004e+2, -484756.63, -553514.0, 215218.66, 0.5792924, -0.22895795, -301188.16, -289156.28, 0.0000004799063, 9.99814, 9.996971 
2.4167359e+3, 3.0876148e+2, -373620.97, -54583.01, -182556.92, -0.7459292, -0.18263024, 28330.137, 28330.137, 0.0000055147566, 9.997035, 10.000828 
2.433786e+3, 1.2930888e+2, -1799683.4, -1693718.1, 108482.47, 0.018997641, -0.38875017, -1625971.3, 46768.473, 0.39271495, 9.998577, 10.000128 
2.433391e+3, 1.39302e+2, -1425337.6, -1622863.9, -11801.72, -0.45145282, -0.34968597, -1424635.0, 150172.72, 0.26710206, 10.00158, 9.998508 
2.4329987e+3, 1.4929247e+2, -1312636.4, -1461954.9, -41810.01, -0.4474857, -0.47049537, -1301726.5, 175171.52, 0.15331793, 10.001301, 9.999028 
2.432607e+3, 1.5928298e+2, -1462389.5, -1584999.0, 42172.684, -0.38862485, -0.56393945, -1449284.5, -70296.484, 0.07196278, 9.999639, 9.9984045 
2.4322176e+3, 1.6927667e+2, -1201590.8, -1262392.1, 116037.63, -0.25516248, -0.37569642, -1112037.6, 169015.11, 0.027363949, 10.000299, 9.999534 
2.4318273e+3, 1.7927e+2, -1116186.1, -1293729.8, 80321.75, -0.19865541, -0.22254898, -1085241.6, 97879.516, 0.009079448, 10.000625, 9.998536 
2.431433e+3, 1.8925968e+2, -1033620.44, -1147792.1, -13011.43, -0.289252, -0.39343482, -1032156.4, 53063.043, 0.002868925, 10.000412, 9.998881 
2.4310383e+3, 1.9924887e+2, -1049893.3, -1199363.3, -45212.664, -0.40804878, -0.59178156, -1037281.25, -49959.918, 0.00059867656, 9.999852, 9.99824 
2.4306437e+3, 2.0924133e+2, -788882.0, -933891.94, -29634.16, -0.42091858, -0.48158157, -783059.75, 106338.37, 0.000045539302, 10.000686, 9.998936 
2.4302505e+3, 2.192341e+2, -682432.44, -958406.6, 70076.03, -0.41944814, -0.3097372, -665658.1, 125815.695, 0.0000022398012, 10.001242, 9.997861 
2.4298626e+3, 2.2922468e+2, -696929.4, -872885.56, 112657.8, -0.10351642, -0.31022677, -641967.2, 51601.68, 0.000000052409952, 10.000446, 9.998068 
2.4294758e+3, 2.3921494e+2, -775627.9, -909232.1, 42962.797, 0.20911214, -0.32127598, -763005.06, -167338.61, 0.0, 9.999367, 9.997719 
2.4290799e+3, 2.4920607e+2, -478248.56, -587983.25, -25137.82, -0.03330849, -0.307793, -472764.16, 24990.217, 0.0, 10.000327, 9.9987 
2.4286833e+3, 2.591971e+2, -292222.94, -567284.9, 120385.67, -0.39558154, -0.29346618, -246976.78, 152866.94, 0.0, 10.001347, 9.997736 
2.4282944e+3, 2.6918784e+2, -140471.72, -429534.13, 165422.94, -0.2936654, -0.2364848, -65334.95, 236602.45, 0.0, 10.001781, 9.997723 
2.427908e+3, 2.7917898e+2, 43540.035, -200948.75, 60943.156, -0.050516415, -0.17286138, 57889.05, 261915.31, 0.0, 10.001867, 9.998638 
2.4275173e+3, 2.8917098e+2, 189378.45, 196580.44, 19629.531, 0.0939282, -0.23588257, 212936.55, 319036.9, 0.0, 10.001175, 10.000943 
2.4271281e+3, 2.9916367e+2, -104705.98, -191311.31, 204789.34, 0.25400358, -0.2975329, 61308.813, 69477.73, 0.000000008678429, 9.999797, 9.998691 
2.426733e+3, 3.0915758e+2, 133848.25, -138432.6, -332067.53, -0.26796728, 0.15540491, 356599.28, 356599.28, 0.0000009202062, 10.001488, 9.998321 
2.4441606e+3, 1.1970658e+2, -1667221.0, -1623009.1, 30756.379, -0.124645755, -0.4134018, -1607238.6, 159606.94, 0.4945417, 10.000029, 10.00144 
2.4437772e+3, 1.2970096e+2, -2027349.8, -1878770.6, 91425.375, 0.0460294, -0.29075038, -1835257.3, -166356.84, 0.3775347, 9.99744, 9.999305 
2.4433857e+3, 1.3969481e+2, -1592988.4, -1714262.9, 40878.76, -0.31960392, -0.10338685, -1580495.9, -9531.378, 0.25111946, 9.999977, 9.998655 
2.4429922e+3, 1.496842e+2, -1322617.4, -1416426.5, -91593.69, -0.44310197, -0.38172245, -1266616.9, 206445.84, 0.13882844, 10.000952, 9.999537 
2.4425994e+3, 1.5967335e+2, -1269261.5, -1412332.6, -75708.77, -0.39844298, -0.6680172, -1236637.9, 138524.53, 0.060861234, 10.000723, 9.99905 
2.4422112e+3, 1.6966859e+2, -1154259.5, -1178495.9, 9802.197, -0.158402, -0.4065424, -1150791.4, 126419.56, 0.02025213, 10.0004225, 10.000026 
2.4418224e+3, 1.7966382e+2, -1278579.4, -1390367.8, -57534.53, 0.0751682, -0.10277363, -1254259.0, -74997.805, 0.0052852775, 9.999595, 9.998393 
2.4414265e+3, 1.8965341e+2, -1220113.0, -1310499.6, -112839.09, -0.18516876, -0.25161633, -1143753.4, -62388.33, 0.0012089658, 9.999447, 9.998256 
2.4410298e+3, 1.9964251e+2, -1210449.1, -1264789.4, -79259.84, -0.44020337, -0.41873863, -1153831.8, -170358.69, 0.00012403581, 9.998796, 9.998279 
2.440636e+3, 2.096359e+2, -814496.3, -822198.1, -12526.843, -0.47886086, -0.3135342, -805241.8, 80293.53, 0.000001917801, 10.000119, 9.99988 
2.440244e+3, 2.1962923e+2, -812436.94, -1063080.5, 65759.82, -0.3984247, -0.1587405, -796231.7, -8632.647, 0.000000018702426, 10.000615, 9.997402 
2.4398552e+3, 2.2961819e+2, -680060.3, -978242.44, 92752.586, -0.12870367, -0.24982506, -653563.25, 36148.637, 0.0, 10.001068, 9.997008 
2.439467e+3, 2.3960659e+2, -723771.0, -930928.5, 54591.883, 0.14443539, -0.37682447, -710265.0, -118434.63, 0.0, 9.999981, 9.99727 
2.439072e+3, 2.4959905e+2, -339837.47, -372233.06, 9229.539, -0.09992955, -0.32283762, -337392.5, 156509.17, 0.0, 10.00077, 9.999915 
2.4386768e+3, 2.5959167e+2, -482566.22, -731083.56, 99061.96, -0.40369454, -0.24261619, -447911.4, -51940.137, 0.0, 10.000469, 9.997018 
2.438288e+3, 2.695804e+2, -390507.9, -714297.5, 170161.0, -0.36936665, -0.27804577, -317531.06, -19443.66, 0.0, 10.000864, 9.996165 
2.4379006e+3, 2.7956903e+2, -321378.1, -428009.1, 70720.11, -0.20293097, -0.35722104, -286127.94, -85924.15, 0.0, 9.999677, 9.998141 
2.4375074e+3, 2.8956246e+2, 159653.4, 369200.63, -16649.566, -0.27891654, -0.4275883, 370515.25, 472777.25, 0.0, 10.000263, 10.002526 
2.437114e+3, 2.9955724e+2, -568957.1, -519518.6, 167827.5, -0.39645368, -0.3831988, -374599.7, -370290.5, 0.0, 9.997225, 9.997668 
2.4367341e+3, 3.095516e+2, -438901.56, -554649.4, 50442.594, 0.41790992, 0.16029084, -420004.1, -420004.1, 0.00000009984614, 9.9986725, 9.996596 
2.4541563e+3, 1.2009281e+2, -1740545.0, -1483026.9, -450468.88, 0.08149896, -0.22319846, -1143276.5, 619798.75, 0.48539782, 9.998917, 10.004552 
2.4537647e+3, 1.3009095e+2, -1788582.8, -1473537.6, 123203.98, -0.23233876, -0.06808884, -1431078.8, 234009.56, 0.36593348, 9.997486, 10.002868 
2.4533826e+3, 1.4008677e+2, -1561268.5, -1583537.9, 103876.66, 0.049737155, 0.02709582, -1467931.5, 99197.61, 0.23856215, 9.999858, 9.9996805 
2.4529883e+3, 1.5007642e+2, -1370647.9, -1557385.4, -76701.58, -0.20725496, -0.16982457, -1343182.6, 126045.9, 0.1275105, 10.001106, 9.998431 
2.4525937e+3, 1.6006537e+2, -1230090.9, -1435512.3, -96088.87, -0.4041051, -0.38729975, -1192151.1, 179183.17, 0.052560914, 10.00122, 9.998632 
2.4522044e+3, 1.7005897e+2, -1106413.8, -1141920.4, -58834.77, -0.18303193, -0.28913957, -1062712.1, 210684.39, 0.01541553, 10.000684, 10.00016 
2.4518144e+3, 1.8005283e+2, -1258313.9, -1317708.6, -123669.266, -0.0026376187, -0.1383972, -1160826.3, 14630.472, 0.0031067657, 9.999452, 9.998962 
2.4514192e+3, 1.9004439e+2, -1198230.0, -1205307.8, -146677.94, -0.08675266, -0.16885737, -1055048.3, 22492.723, 0.00048131414, 9.999183, 9.9991045 
2.4510239e+3, 2.0003545e+2, -1093562.8, -1067751.4, -50686.035, -0.22645925, -0.23251012, -1028353.8, -48724.848, 0.000015932997, 9.998961, 9.999535 
2.4506314e+3, 2.100278e+2, -696655.7, -629071.7, 32938.047, -0.2508758, -0.34853712, -615674.56, 266020.4, 0.0000000054715246, 10.000315, 10.001115 
2.45024e+3, 2.2002017e+2, -574762.2, -820582.56, 105897.984, -0.25581455, -0.39769807, -535433.94, 248328.25, 0.0, 10.00163, 9.998588 
2.4498503e+3, 2.3001099e+2, -475939.13, -854182.0, 131553.9, -0.10863286, -0.34059227, -434684.03, 251174.78, 0.0, 10.002289, 9.99732 
2.4494605e+3, 2.4000126e+2, -346328.9, -744875.0, 96828.305, 0.0057438416, -0.27741885, -324049.56, 263912.13, 0.0, 10.002438, 9.997389 
2.4490659e+3, 2.4999271e+2, -226177.28, -464592.34, -4915.642, -0.13539469, -0.22076686, -226075.98, 263970.16, 0.0, 10.002073, 9.998717 
2.4486716e+3, 2.5998428e+2, -282898.8, -550577.25, 11814.024, -0.33247092, -0.15966143, -282378.4, 109749.66, 0.0, 10.00132, 9.9978895 
2.448282e+3, 2.6997375e+2, -414109.94, -557820.7, 133014.52, -0.26283562, -0.2546259, -334783.13, -40550.844, 0.0, 9.999831, 9.997808 
2.4478936e+3, 2.7996334e+2, -385123.84, -388763.28, 164219.25, -0.13959965, -0.35510638, -222714.22, -26378.264, 0.0, 9.998763, 9.998884 
2.447501e+3, 2.8995645e+2, 119617.47, 138871.92, 5799.67, -0.21545762, -0.32694703, 140483.89, 238885.92, 0.0, 10.000708, 10.00081 
2.4471094e+3, 2.9995012e+2, 219418.25, -118976.08, 5581.691, -0.266136, -0.24358845, 219510.3, 219973.88, 0.0, 10.002269, 9.998054 
2.4467278e+3, 3.0994248e+2, 77995.836, -55827.758, 94717.47, 0.45096964, 0.050581377, 127052.086, 127052.086, 0.000000000000427524, 10.00079, 9.999105 
2.4641457e+3, 1.2048301e+2, -1615702.9, -1436460.8, -272278.2, -0.09215515, -0.1653922, -1239433.4, 519820.53, 0.47722325, 9.999537, 10.004216 
2.4637559e+3, 1.3048027e+2, -1474863.4, -1277062.6, 214414.55, -0.252031, -0.09397429, -1139838.3, 521438.3, 0.3557266, 9.999741, 10.003827 
2.4633767e+3, 1.4047708e+2, -1691843.3, -1592576.6, 61485.844, 0.24699017, 0.042544354, -1563191.1, 115.857994, 0.22774403, 9.998571, 10.0001745 
2.4629831e+3, 1.5046793e+2, -1602036.3, -1684806.9, -64488.79, -0.0051858667, -0.043202106, -1566795.5, -101397.53, 0.11809006, 9.999483, 9.998319 
2.4625888e+3, 1.604579e+2, -1380165.6, -1520602.5, -32732.584, -0.2050235, -0.13385895, -1372911.1, -5413.9995, 0.04605504, 10.00014, 9.99857 
2.4621972e+3, 1.7044973e+2, -1242007.3, -1222001.8, -38115.234, -0.14011218, -0.20445332, -1192598.6, 76976.35, 0.012013259, 9.9997835, 10.000036 
2.461806e+3, 1.804422e+2, -1302315.6, -1301775.4, -106425.76, -0.021367295, -0.19570424, -1195619.4, -23972.557, 0.0018483637, 9.998996, 9.999295 
2.4614118e+3, 1.9043534e+2, -1001713.25, -1036841.25, -127813.05, 0.0064412802, -0.1376969, -890263.06, 183452.28, 0.00018026956, 10.000185, 9.99979 
2.4610183e+3, 2.0042805e+2, -869381.75, -917872.0, -41989.547, 0.050629098, -0.09808918, -845140.3, 130645.7, 0.0000007906511, 10.000366, 9.999906 
2.4606265e+3, 2.1041909e+2, -710053.9, -596847.9, -32263.559, -0.008095134, -0.39807633, -588298.44, 289562.97, 0.0, 10.00009, 10.001479 
2.4602354e+3, 2.2041021e+2, -936387.06, -964714.94, -42308.984, -0.03451152, -0.61575496, -905934.1, -125996.914, 0.0, 9.999158, 9.99878 
2.459845e+3, 2.3040353e+2, -717931.44, -868985.9, 7345.3525, -0.05942574, -0.40159684, -717575.06, -35565.344, 0.0, 10.00041, 9.998026 
2.4594544e+3, 2.4039644e+2, -708551.8, -1015008.9, -13815.339, -0.04974745, -0.12640901, -707930.25, -123842.086, 0.0, 10.000493, 9.996444 
2.4590601e+3, 2.503863e+2, -478638.97, -779003.3, -56485.117, -0.14031479, -0.10565251, -468367.88, 17823.852, 0.0, 10.001198, 9.996957 
2.4586666e+3, 2.6037604e+2, -484044.84, -657279.5, -18315.86, -0.20297392, -0.107339345, -482129.5, -93835.04, 0.0, 10.000084, 9.99773 
2.4582763e+3, 2.7036718e+2, -281851.25, -212832.5, 62416.457, -0.07427948, -0.2441253, -176020.69, 114356.3, 0.0, 9.999651, 10.0001955 
2.457887e+3, 2.8035903e+2, -569366.2, -575526.75, 152681.36, 0.07270502, -0.28042978, -419734.06, -227280.31, 0.0, 9.998084, 9.997905 
2.4574961e+3, 2.9035133e+2, -164433.39, -356976.9, 98696.9, -0.030953938, -0.10265687, -122830.83, -28295.77, 0.0, 10.000435, 9.997482 
2.4571082e+3, 3.0034107e+2, -332419.8, -593929.4, 22588.54, 0.13467151, -0.08130745, -330483.0, -330483.0, 0.0, 9.999619, 9.996019 
2.4567166e+3, 3.1032863e+2, -188447.42, 190540.16, 59136.965, -0.05786128, -0.4587978, 199553.48, 199553.48, 0.0, 9.997804, 10.002053 
2.4741384e+3, 1.2087872e+2, -1829075.3, -1932266.9, -157048.27, -0.11827191, -0.14693168, -1715364.4, 39998.82, 0.4678463, 10.000014, 9.998438 
2.4737495e+3, 1.3086833e+2, -1652285.3, -1644702.5, 215067.31, -0.18084143, -0.43454275, -1433393.1, 224074.95, 0.34520847, 10.00009, 10.000033 
2.473364e+3, 1.4086305e+2, -1835494.5, -1738448.3, 27435.21, -0.18999161, -0.21227646, -1731229.3, -171707.25, 0.21743059, 9.997963, 9.999448 
2.4729747e+3, 1.5085742e+2, -1503630.8, -1400243.6, -10400.078, -0.06544854, -0.10205565, -1399207.8, 62371.293, 0.109704144, 9.999174, 10.00043 
2.4725845e+3, 1.6085078e+2, -1367566.8, -1436208.4, 16950.11, 0.030170424, -0.024012765, -1363609.3, 36.07782, 0.040704507, 9.999921, 9.999239 
2.4721901e+3, 1.7084086e+2, -1285120.5, -1306360.3, -29488.02, -0.11094371, -0.23733893, -1264398.3, 1341.8734, 0.00953522, 9.999739, 9.999489 
2.4717958e+3, 1.8083155e+2, -1250058.0, -1256359.3, -53810.723, -0.2586841, -0.35857043, -1199305.8, -31476.49, 0.0011160366, 9.999262, 9.999475 
2.4714036e+3, 1.9082579e+2, -844176.56, -908872.8, -40318.402, -0.16337474, -0.22348423, -824833.56, 245053.3, 0.00006263998, 10.001044, 10.000256 
2.4710114e+3, 2.008195e+2, -716918.4, -971914.06, -46709.504, -0.08844108, -0.0746054, -708631.56, 263317.72, 0.0000000031066179, 10.0019455, 9.998775 
2.470619e+3, 2.1080934e+2, -873017.0, -1003411.9, -157493.45, -0.042316955, -0.22978659, -767759.5, 106286.84, 0.0, 10.000339, 9.998616 
2.4702267e+3, 2.2079924e+2, -1011749.2, -1006285.8, -170167.81, -0.06453808, -0.3563576, -838827.75, -62685.78, 0.0, 9.998575, 9.998802 
2.4698362e+3, 2.3079206e+2, -762390.6, -719873.44, -80793.84, -0.15482248, -0.32092443, -657588.2, 20623.652, 0.0, 9.999276, 9.999643 
2.4694458e+3, 2.4078499e+2, -585529.2, -715871.25, -99291.86, -0.23171273, -0.21601243, -531930.94, 48350.504, 0.0, 10.000201, 9.998657 
2.4690533e+3, 2.5077623e+2, -409316.75, -562639.25, -67957.34, -0.17008305, -0.23652743, -383532.2, 98835.01, 0.0, 10.000777, 9.998703 
2.468661e+3, 2.6076713e+2, -240864.27, -411000.5, 43028.926, -0.115523666, -0.2617319, -230601.0, 153855.06, 0.0, 10.00105, 9.998978 
2.46827e+3, 2.7075878e+2, -70615.73, -141213.5, 29672.61, -0.029741863, -0.34803194, -59800.895, 226733.75, 0.0, 10.00112, 10.000019 
2.4678792e+3, 2.807514e+2, -49208.76, -280723.06, 75631.75, -0.032458667, -0.2958304, -26691.258, 161914.02, 0.0, 10.001357, 9.998363 
2.4674888e+3, 2.907436e+2, 132501.42, -261439.0, 138809.78, -0.22615801, -0.09937038, 176498.89, 267188.34, 0.0, 10.002504, 9.997244 
2.4671035e+3, 3.0073243e+2, 245139.98, -274896.56, 113454.02, 0.13862583, -0.12759335, 268814.0, 268814.0, 0.0, 10.003158, 9.996575 
2.4667083e+3, 3.107178e+2, 418846.28, 475289.9, -23600.082, -0.20305099, -0.66554844, 483857.16, 483857.16, 0.0, 10.001563, 10.002374 
2.4841352e+3, 1.2127109e+2, -1642314.9, -2076706.6, -171889.7, 0.15852354, -0.30467993, -1582526.8, 168988.38, 0.45571515, 10.002989, 9.996101 
2.4837434e+3, 1.3125835e+2, -1544021.5, -1847338.6, 151312.58, -0.1734097, -0.5786945, -1481447.0, 172197.86, 0.33319858, 10.002148, 9.997371 
2.4833548e+3, 1.4125116e+2, -1473189.0, -1580489.5, 57305.066, -0.27494317, -0.34815922, -1448339.5, 107379.086, 0.20679392, 10.000695, 9.9992695 
2.4829665e+3, 1.5124716e+2, -1343709.0, -1241901.4, -29736.104, -0.079061694, -0.14081207, -1233852.4, 223907.33, 0.10179194, 9.999885, 10.001366 
2.4825779e+3, 1.6124205e+2, -1480399.0, -1426063.8, -105665.26, 0.18339407, 0.0069944467, -1344129.5, 15681.052, 0.036105353, 9.998893, 9.999814 
2.4821827e+3, 1.7123169e+2, -1402928.1, -1353017.3, -109201.49, -0.04749552, -0.277215, -1265956.0, -4047.4055, 0.0076701324, 9.99895, 9.999538 
2.4817874e+3, 1.8122183e+2, -1303181.5, -1280990.9, -24209.295, -0.2610137, -0.4464276, -1265455.5, -101452.93, 0.000687035, 9.998952, 9.99943 
2.481396e+3, 1.9121678e+2, -947216.6, -928423.94, -9862.8, -0.2580536, -0.272935, -924198.0, 141855.02, 0.000019881356, 10.000305, 10.000421 
2.4810046e+3, 2.0121078e+2, -994437.3, -1297443.3, -86453.29, -0.16306709, -0.0560192, -971506.0, -3391.6113, 0.0, 10.000921, 9.996996 
2.4806114e+3, 2.111998e+2, -961397.56, -1336623.1, -153582.34, -0.08449987, -0.0650045, -906551.94, -36322.63, 0.0, 10.001044, 9.995913 
2.4802183e+3, 2.2118893e+2, -858454.8, -1003272.56, -42841.703, -0.043971818, -0.06285375, -846730.1, -74390.06, 0.0, 9.999964, 9.998135 
2.4798277e+3, 2.3118044e+2, -607169.0, -525859.6, 7181.5664, -0.2220855, -0.24070945, -525230.2, 149185.39, 0.0, 9.999803, 10.000728 
2.479437e+3, 2.4117252e+2, -685614.44, -604663.7, -81122.125, -0.3246169, -0.34415835, -554480.06, 22005.365, 0.0, 9.998943, 10.000009 
2.4790464e+3, 2.5116542e+2, -370679.28, -281619.84, -108832.414, -0.16021632, -0.43063793, -208559.64, 269989.94, 0.0, 10.000033, 10.000924 
2.4786557e+3, 2.6115796e+2, -457464.53, -532473.4, -35329.563, 0.018394452, -0.45567325, -443444.6, -62826.305, 0.0, 9.999782, 9.998739 
2.4782634e+3, 2.7114987e+2, -252639.33, -348756.8, -35784.49, -0.05492848, -0.44501424, -240780.03, 41916.418, 0.0, 10.000503, 9.998864 
2.4778706e+3, 2.8114206e+2, -319762.06, -494169.6, 63975.926, -0.2589509, -0.33163923, -298811.25, -114037.16, 0.0, 9.999966, 9.99756 
2.4774805e+3, 2.9113376e+2, 11633.386, -191734.67, 144840.19, -0.5586373, -0.27349663, 86919.19, 173781.63, 0.0, 10.001318, 9.998201 
2.4770974e+3, 3.0112493e+2, -191922.72, -502128.56, 45964.66, -0.041168682, -0.15061647, -185255.22, -185255.22, 0.0, 10.000427, 9.99629 
2.4767037e+3, 3.1111333e+2, 35386.85, 218075.13, -156215.7, -0.12685129, -0.43135905, 307692.6, 307692.6, 0.0, 9.999414, 10.001607 
2.4941304e+3, 1.2166359e+2, -1565446.6, -1767026.6, -150684.53, 0.017793162, -0.10042885, -1484951.0, 262726.8, 0.43991756, 10.002698, 9.998527 
2.4937381e+3, 1.3165218e+2, -1510429.6, -1817951.8, 136271.97, -0.2688867, -0.31560466, -1458733.8, 191057.38, 0.31901658, 10.002441, 9.9973955 
2.4933513e+3, 1.4164333e+2, -1519990.3, -1727957.6, 34449.266, -0.04277227, -0.21851954, -1514432.4, 37447.117, 0.19536594, 10.000866, 9.998121 
2.4929577e+3, 1.5163635e+2, -1457978.8, -1456774.8, -68712.58, -0.21714067, -0.15337014, -1388661.5, 65288.37, 0.094030365, 9.999839, 9.999744 
2.4925652e+3, 1.6162933e+2, -1498127.0, -1371483.4, -145753.38, -0.25385502, -0.10232154, -1275891.0, 80127.69, 0.032013185, 9.998528, 10.00036 
2.492174e+3, 1.7162187e+2, -1296631.3, -1105835.5, -95354.45, -0.039527595, -0.25653958, -1066351.1, 191734.77, 0.0062260167, 9.998841, 10.001279 
2.4917822e+3, 1.8161444e+2, -1253296.0, -1200933.0, 26456.648, 0.010447401, -0.31355554, -1189893.3, -29738.941, 0.00043419475, 9.99904, 9.999931 
2.4913892e+3, 1.9160813e+2, -971604.56, -983902.25, 38687.746, -0.22228691, -0.23843154, -938580.06, 123637.85, 0.0000058323185, 10.000286, 10.000068 
2.4909966e+3, 2.0160106e+2, -920093.3, -1216535.4, -49718.184, -0.39422342, -0.10040493, -911977.0, 52313.313, 0.000000000090419006, 10.001183, 9.997428 
2.490604e+3, 2.1159104e+2, -689660.0, -1126038.0, -43868.35, -0.2752968, -0.07490195, -685293.6, 181101.39, 0.0, 10.002474, 9.996689 
2.4902119e+3, 2.2158092e+2, -439795.5, -818260.5, 49518.34, -0.19811782, -0.03578202, -433423.8, 335074.97, 0.0, 10.002845, 9.998011 
2.4898218e+3, 2.3157182e+2, -518124.44, -648095.94, 28071.51, -0.14815335, -0.13117495, -512320.66, 158263.83, 0.0, 10.001066, 9.9993105 
2.4894312e+3, 2.4156304e+2, -616699.75, -633757.56, -88067.92, -0.14059177, -0.18837184, -536748.7, 35917.387, 0.0, 9.999603, 9.99949 
2.4890396e+3, 2.515552e+2, -425703.97, -401229.7, -172435.9, -0.11235818, -0.2671762, -240597.27, 234141.0, 0.0, 9.999954, 10.000178 
2.4886477e+3, 2.615474e+2, -301052.06, -381018.5, -188584.86, -0.08752706, -0.2976693, -148258.45, 228551.36, 0.0, 10.000401, 9.999505 
2.4882564e+3, 2.7154e+2, -102142.12, -194439.39, -122566.89, -0.102414675, -0.2998243, -17323.81, 261554.36, 0.0, 10.00106, 9.999726 
2.487865e+3, 2.8153202e+2, -20586.043, -261197.8, 25984.291, -0.23702314, -0.2737016, -17811.916, 163141.83, 0.0, 10.001448, 9.998486 
2.4874751e+3, 2.9152238e+2, 13839.497, -171000.86, 59148.867, -0.48705983, -0.36702502, 31146.607, 114199.19, 0.0, 10.001076, 9.998534 
2.4870913e+3, 3.0151397e+2, 48063.715, -212868.39, -56837.61, -0.051704556, -0.29191548, 59906.848, 59906.848, 0.0, 10.001183, 9.99794 
2.4866985e+3, 3.1150532e+2, 550976.9, 480659.8, -256102.6, -0.043709718, -0.27981263, 774323.0, 774323.0, 0.0, 10.002561, 10.002032 
2.5041205e+3, 1.2205539e+2, -1701584.5, -1698956.1, -83381.43, -0.38844573, -0.021788716, -1616878.5, 126965.71, 0.42027465, 9.999967, 10.000424 
2.5037333e+3, 1.3204503e+2, -1581338.5, -1869327.9, 83734.09, -0.1892371, -0.13947012, -1558762.3, 87183.375, 0.30251706, 10.001663, 9.99742 
2.5033456e+3, 1.4203584e+2, -1444944.4, -1715182.4, -38640.164, 0.02764262, -0.05364848, -1439528.0, 108508.086, 0.18302314, 10.00147, 9.997968 
2.5029498e+3, 1.5202665e+2, -1441536.9, -1538797.4, -61790.2, -0.25818607, -0.16037704, -1411535.5, 38591.324, 0.08629053, 10.000233, 9.999011 
2.5025555e+3, 1.6201839e+2, -1373718.4, -1287808.8, -39853.254, -0.3495714, -0.18554793, -1272168.4, 80038.58, 0.028287582, 9.999229, 10.000596 
2.502166e+3, 1.7201251e+2, -1055654.6, -937840.4, -90292.65, -0.00951484, -0.24208848, -888938.4, 365319.66, 0.0050760456, 10.000181, 10.001819 
2.5017762e+3, 1.8200624e+2, -1061461.8, -1127188.3, -20040.236, 0.20273806, -0.21869324, -1055833.4, 100481.695, 0.00028139996, 10.000499, 9.99973 
2.5013828e+3, 1.9199894e+2, -905002.2, -1002872.44, -24477.654, -0.16877747, -0.2091964, -899221.7, 159167.88, 0.0000014559199, 10.001048, 9.999565 
2.5009894e+3, 2.0199105e+2, -941377.06, -1178977.5, -101764.06, -0.43575367, -0.13256247, -903750.25, 56719.82, 0.0, 10.000907, 9.997819 
2.5005975e+3, 2.1198224e+2, -849653.2, -1043396.75, -85886.54, -0.38737223, -0.12265057, -817062.1, 45497.7, 0.0, 10.000827, 9.998015 
2.500206e+3, 2.2197323e+2, -883918.06, -1147157.9, -25607.479, -0.25369605, -0.026893426, -881450.1, -116798.586, 0.0, 10.000376, 9.996944 
2.4998164e+3, 2.3196356e+2, -702043.3, -925966.9, -48735.883, -0.024458354, -0.037036024, -691896.0, -25147.832, 0.0, 10.000692, 9.997555 
2.4994257e+3, 2.4195413e+2, -722992.1, -878803.56, -80203.195, 0.121262096, 0.011276192, -689086.2, -120244.9, 0.0, 9.999774, 9.997716 
2.4990322e+3, 2.519452e+2, -573879.8, -617921.1, -105618.48, -0.06768161, -0.05477035, -488010.84, -17084.549, 0.0, 9.999648, 9.998801 
2.4986392e+3, 2.6193684e+2, -499407.06, -476068.3, -90576.586, -0.202526, -0.04483687, -396412.5, -23408.281, 0.0, 9.999136, 9.999444 
2.4982493e+3, 2.7192965e+2, -141080.67, -78735.87, -57540.477, -0.13851729, -0.13909508, -44466.496, 230599.33, 0.0, 10.000266, 10.000885 
2.4978603e+3, 2.8192163e+2, -273000.25, -393700.9, 28678.438, -0.09398706, -0.18887089, -266532.78, -89394.81, 0.0, 9.999903, 9.998288 
2.4974711e+3, 2.9191068e+2, -170075.73, -275748.4, 46968.676, -0.24779671, -0.43397498, -152217.42, -72971.09, 0.0, 9.999985, 9.998289 
2.497084e+3, 3.0190107e+2, -225557.1, -285058.13, -49137.79, -0.15147702, -0.47577506, -197865.33, -197865.33, 0.0, 9.999254, 9.998319 
2.4966924e+3, 3.1189477e+2, 107190.5, 298493.75, -154930.94, -0.20039086, -0.41042516, 384921.28, 384921.28, 0.0, 9.999751, 10.001989 
2.5141126e+3, 1.2244707e+2, -1722581.9, -1623439.5, 27528.068, -0.4893424, 0.11296161, -1616308.9, 123698.77, 0.39734322, 9.999193, 10.001452 
2.513728e+3, 1.3243489e+2, -1629615.9, -1947764.4, 127720.34, -0.14623824, -0.16748527, -1584687.4, 57439.332, 0.28406283, 10.001539, 9.996878 
2.513335e+3, 1.424274e+2, -1406066.0, -1561758.9, -63256.875, -0.50092304, 0.081533425, -1383605.4, 160594.61, 0.16993596, 10.001264, 9.999108 
2.5129437e+3, 1.5241924e+2, -1306733.3, -1274378.6, -59597.184, -0.16628088, -0.10644025, -1228802.1, 217473.78, 0.078587286, 10.000352, 10.000844 
2.5125515e+3, 1.6241102e+2, -1418187.1, -1436376.1, 29578.254, -0.004162924, -0.18870007, -1396336.9, -47983.69, 0.024857625, 9.999505, 9.999411 
2.5121576e+3, 1.7240295e+2, -1108458.6, -1204553.6, -14312.648, -0.21242104, -0.2504549, -1106372.3, 144058.53, 0.0041356636, 10.000885, 9.999625 
2.511765e+3, 1.8239501e+2, -981577.75, -1202238.5, -43224.6, -0.34140953, -0.21088171, -973412.75, 179096.25, 0.00018434241, 10.001534, 9.998703 
2.5113767e+3, 1.9238755e+2, -848658.2, -1058337.1, -41111.902, -0.21102542, -0.13544513, -840885.44, 213702.33, 0.00000026313862, 10.001765, 9.998849 
2.510986e+3, 2.0237975e+2, -776932.9, -961714.94, -185136.16, -0.20046034, -0.04614374, -662414.5, 294252.8, 0.0, 10.001422, 9.999057 
2.5105911e+3, 2.1237119e+2, -820702.75, -858737.1, -161926.78, -0.3072203, -0.15471394, -676680.25, 182067.2, 0.0, 10.000248, 9.999593 
2.510198e+3, 2.2236241e+2, -921471.6, -1101131.8, -35105.33, -0.34051156, -0.14666499, -914855.7, -154023.83, 0.0, 9.999758, 9.9975815 
2.509809e+3, 2.323532e+2, -618118.5, -908875.0, -3369.2903, -0.12791641, -0.09681199, -618079.5, 44846.695, 0.0, 10.001287, 9.997422 
2.509419e+3, 2.4234413e+2, -313257.06, -583513.6, -63856.54, 0.0028699178, -0.027507218, -298928.63, 266088.03, 0.0, 10.002063, 9.998654 
2.509025e+3, 2.5233492e+2, -367534.38, -459474.25, -43099.23, -0.061799098, -0.17034917, -350490.2, 116612.53, 0.0, 10.00067, 9.999463 
2.5086322e+3, 2.6232624e+2, -416064.03, -439313.56, 45247.79, -0.13486329, -0.21249342, -380971.56, -11788.542, 0.0, 9.99961, 9.999496 
2.5082424e+3, 2.7231884e+2, -242996.89, -238997.3, 29201.566, -0.11345386, -0.21742088, -211727.13, 59522.97, 0.0, 9.999922, 10.000012 
2.507853e+3, 2.8231052e+2, -224207.94, -393990.03, 36372.645, -0.12975073, -0.2209395, -216743.9, -43415.938, 0.0, 10.000184, 9.99819 
2.507464e+3, 2.9229966e+2, -151297.45, -342995.1, 32957.93, -0.25858116, -0.39411113, -145789.38, -70353.68, 0.0, 10.000222, 9.997812 
2.5070763e+3, 3.022907e+2, -155592.69, -238745.31, -119128.02, -0.1760806, -0.34497124, -70994.22, -70994.22, 0.0, 9.999485, 9.998573 
2.506686e+3, 3.1228554e+2, -254798.13, 13125.266, -268066.63, 0.03289804, -0.099363446, 178839.14, 178839.14, 0.0, 9.997436, 10.001247 
2.5241107e+3, 1.2283564e+2, -1502274.0, -1547551.5, -24209.457, 0.004713374, 0.029839654, -1491767.5, 244432.78, 0.3720952, 10.001629, 10.001058 
2.5237206e+3, 1.328239e+2, -1784714.9, -1986045.4, 31075.8, -0.23525584, -0.2556762, -1780027.4, -141715.23, 0.26429757, 10.000026, 9.997363 
2.523327e+3, 1.4281763e+2, -1695746.3, -1606944.3, -117959.59, -0.569832, 0.04350671, -1525305.9, 15066.359, 0.15642525, 9.998655, 10.000008 
2.5229374e+3, 1.5281026e+2, -1411703.9, -1275918.4, -232641.7, -0.042013895, -0.12665364, -1101465.1, 340976.06, 0.071005836, 9.999463, 10.001251 
2.522546e+3, 1.6280226e+2, -1405918.3, -1537943.0, -119070.96, 0.24403244, -0.1862273, -1335785.4, 8731.823, 0.021693112, 10.00008, 9.998451 
2.52215e+3, 1.7279296e+2, -1192581.0, -1392742.6, -82373.125, -0.3260498, -0.24641536, -1163041.3, 83568.57, 0.00335279, 10.001051, 9.99824 
2.5217563e+3, 1.8278426e+2, -1097102.4, -1345198.9, -41078.426, -0.5934637, -0.16834809, -1090477.8, 58220.492, 0.00011963712, 10.00109, 9.997939 
2.5213706e+3, 1.9277664e+2, -1121891.4, -1243763.8, -11183.784, -0.17838958, -0.08171695, -1120873.6, -70093.49, 0.00000002568285, 10.000065, 9.998391 
2.520982e+3, 2.0276888e+2, -1039356.6, -1032634.56, -125326.63, 0.06709182, 0.018136777, -910623.9, 42234.508, 0.0, 9.999368, 9.999566 
2.5205848e+3, 2.1276025e+2, -749948.94, -714219.4, -183187.63, -0.19282973, -0.20329873, -548027.44, 306906.1, 0.0, 10.00023, 10.000596 
2.5201902e+3, 2.2275156e+2, -891142.8, -1072527.4, -3657.538, -0.32947105, -0.2526019, -891069.1, -134055.78, 0.0, 10.000007, 9.997626 
2.519802e+3, 2.3274277e+2, -796751.1, -979875.0, 45416.223, -0.21708556, -0.19684133, -786106.3, -127002.62, 0.0, 10.00006, 9.997511 
2.5194117e+3, 2.4273397e+2, -649108.3, -697450.5, -79358.54, -0.101532295, -0.11804928, -590321.44, -29130.193, 0.0, 9.999656, 9.999023 
2.5190184e+3, 2.5272465e+2, -450937.06, -400398.56, -126107.555, -0.03653776, -0.3728796, -297053.47, 166222.4, 0.0, 9.999784, 10.000262 
2.518626e+3, 2.6271585e+2, -560350.9, -663177.8, 8159.382, -0.005814659, -0.4214947, -559707.44, -194350.33, 0.0, 9.999414, 9.998021 
2.518235e+3, 2.72708e+2, -303204.3, -435289.63, 18376.814, -0.086194776, -0.35016, -300695.22, -33261.793, 0.0, 10.000375, 9.998373 
2.517845e+3, 2.826992e+2, -323325.78, -564546.2, 40591.48, -0.216509, -0.25433558, -316678.4, -147158.2, 0.0, 10.000206, 9.996966 
2.5174555e+3, 2.9268876e+2, -250662.88, -425928.2, 58564.348, -0.39156076, -0.36139616, -232895.03, -161269.97, 0.0, 9.999853, 9.997356 
2.5170678e+3, 3.0268145e+2, -409983.8, -516531.53, -150999.25, -0.20720075, -0.06289903, -303136.22, -303136.22, 0.0, 9.998584, 9.997047 
2.5166735e+3, 3.126733e+2, -516591.6, -270896.0, -235012.2, -0.2334132, -0.026308399, -128560.25, -128560.25, 0.0, 9.99662, 9.999577 
2.534106e+3, 1.232194e+2, -1548094.1, -1579789.1, -30245.78, -0.02325141, -0.20160578, -1529795.6, 202642.16, 0.34545994, 10.001243, 10.000774 
2.5337118e+3, 1.332112e+2, -1658895.3, -1592820.6, -29685.271, -0.39178324, -0.41759625, -1581443.1, 53063.855, 0.24384509, 9.99945, 10.000416 
2.5333217e+3, 1.4320436e+2, -1960001.4, -1887785.1, -105788.62, -0.2260101, -0.29297268, -1812112.1, -275541.16, 0.14280653, 9.997594, 9.998542 
2.532928e+3, 1.5319657e+2, -1598203.6, -1609462.1, -211331.81, -0.17557159, -0.27609143, -1392426.1, 46229.973, 0.06363834, 9.99929, 9.998908 
2.5325358e+3, 1.6318896e+2, -1341288.8, -1470774.5, -139894.53, -0.1286095, -0.16772643, -1251882.0, 88853.68, 0.0187796, 10.000377, 9.998769 
2.5321445e+3, 1.7318106e+2, -1068598.3, -1224445.3, -63308.21, -0.26290995, -0.18805474, -1046122.5, 196689.6, 0.0026956536, 10.0013685, 9.99927 
2.531753e+3, 1.8317355e+2, -985953.06, -1112190.8, -87283.83, -0.37574562, -0.113132924, -941357.25, 203528.81, 0.00007576087, 10.001097, 9.9995165 
2.5313622e+3, 1.931665e+2, -1119909.4, -1077124.5, -28922.074, -0.26506954, -0.1108352, -1062543.0, -15584.961, 0.00000000011876218, 9.99934, 9.999887 
2.5309712e+3, 2.0315921e+2, -1117435.1, -1059674.0, -35592.176, -0.18844953, -0.04679478, -1042719.1, -93689.43, 0.0, 9.998759, 9.999664 
2.530578e+3, 2.1315138e+2, -645553.75, -730750.0, -70369.78, -0.21105815, -0.11722333, -605893.1, 245207.55, 0.0, 10.001189, 10.0000305 
2.5301853e+3, 2.2314276e+2, -537055.6, -804454.0, -45218.535, -0.24730831, -0.15475066, -529615.94, 223564.61, 0.0, 10.001941, 9.998549 
2.5297946e+3, 2.3313253e+2, -780546.25, -873344.2, 9278.601, -0.16788085, -0.3165734, -779627.6, -124348.0, 0.0, 9.999644, 9.998492 
2.529403e+3, 2.4312332e+2, -813335.25, -786374.25, -51181.26, -0.14075664, -0.32955086, -746927.94, -189558.66, 0.0, 9.9984665, 9.999013 
2.5290093e+3, 2.5311586e+2, -473631.22, -506360.9, -107504.28, -0.18514933, -0.29705465, -381253.34, 78188.414, 0.0, 9.999957, 9.999487 
2.5286174e+3, 2.6310784e+2, -224784.86, -516855.2, 16259.104, -0.19736922, -0.21652083, -223882.53, 137637.64, 0.0, 10.001681, 9.997956 
2.5282302e+3, 2.7309856e+2, 120062.76, -295564.5, 52087.613, -0.09700521, -0.22910435, 126491.1, 390104.06, 0.0, 10.003433, 9.99791 
2.5278416e+3, 2.830892e+2, 294680.06, -107421.85, 19865.346, -0.11789469, -0.21311663, 295659.1, 461363.44, 0.0, 10.003707, 9.99841 
2.5274497e+3, 2.9307953e+2, 61041.715, -145218.77, 72537.805, -0.3372779, -0.33704358, 83997.08, 151792.36, 0.0, 10.001342, 9.998611 
2.52706e+3, 3.0307144e+2, -104671.65, -367303.2, -16948.004, -0.21849623, -0.17099842, -103582.484, -103582.484, 0.0, 10.000521, 9.997208 
2.5266668e+3, 3.130642e+2, 344273.97, 63308.594, -39112.59, -0.19671908, 0.09789331, 349617.16, 349617.16, 0.0, 10.002617, 9.999116 
2.5440985e+3, 1.23610914e+2, -1609441.6, -1484893.8, 63603.402, -0.10350767, 0.03076883, -1458154.0, 270439.34, 0.31815657, 9.999771, 10.002352 
2.5437054e+3, 1.3360128e+2, -1559039.0, -1427892.8, -28410.043, -0.21750893, -0.44689283, -1422002.9, 208674.53, 0.22319712, 9.999566, 10.001808 
2.5433144e+3, 1.4359361e+2, -1711112.8, -1871318.3, -47553.97, -0.0149641195, -0.43791264, -1698060.6, -165308.94, 0.12934339, 9.999664, 9.997686 
2.5429198e+3, 1.5358551e+2, -1492892.8, -1741295.3, -57910.438, -0.23260686, -0.3057172, -1480055.5, -45208.84, 0.05657354, 10.0007, 9.997377 
2.5425273e+3, 1.6357799e+2, -1262845.6, -1373786.0, 56597.65, -0.2648365, -0.10054849, -1239067.9, 97861.19, 0.016116831, 10.000647, 9.999296 
2.542139e+3, 1.7357072e+2, -1241375.8, -1235103.5, 51528.89, -0.14392161, -0.13030967, -1186615.4, 52381.664, 0.0021455006, 9.999821, 9.999946 
2.5417483e+3, 1.835637e+2, -1196973.3, -1127960.6, -46330.543, -0.12073884, -0.07023279, -1104698.4, 36365.418, 0.000046550977, 9.999264, 10.000307 
2.5413537e+3, 1.935567e+2, -1039593.6, -943735.06, -98454.586, -0.2855407, -0.15248308, -882163.1, 160968.67, 0.0, 9.99948, 10.000757 
2.5409612e+3, 2.0354982e+2, -1078144.6, -1087830.6, -21377.049, -0.30302352, -0.08129921, -1061068.9, -115870.48, 0.0, 9.9993105, 9.99917 
2.5405717e+3, 2.135426e+2, -901183.3, -928894.25, -36743.598, -0.16985558, -0.049812026, -875769.6, -28502.201, 0.0, 9.999823, 9.999299 
2.540181e+3, 2.2353387e+2, -816196.75, -890977.2, -99671.74, -0.072985284, -0.06344966, -747132.8, 2216.4517, 0.0, 9.999895, 9.99893 
2.5397876e+3, 2.3352227e+2, -743401.7, -745875.2, -102248.59, -0.07457968, -0.4685165, -642382.4, 9074.102, 0.0, 9.9995365, 9.999381 
2.5393942e+3, 2.4351317e+2, -805135.8, -892594.2, -45684.13, -0.11627996, -0.4757241, -785625.1, -232081.23, 0.0, 9.999133, 9.99791 
2.539e+3, 2.535078e+2, -501341.84, -648927.06, -57455.426, -0.34584117, -0.15580712, -481611.84, -26008.703, 0.0, 10.000405, 9.998243 
2.5386095e+3, 2.6350036e+2, -398020.8, -671422.44, 102183.586, -0.39115915, 0.0957339, -364050.63, -6369.399, 0.0, 10.000925, 9.997222 
2.538226e+3, 2.7348936e+2, -206462.28, -466157.06, 125541.31, -0.07903046, -0.100117125, -155696.92, 104095.7, 0.0, 10.001355, 9.997703 
2.5378388e+3, 2.8347987e+2, -59558.418, -162119.63, -37382.098, 0.04963809, -0.12098515, -47379.414, 114503.68, 0.0, 10.000887, 9.9993725 
2.5374442e+3, 2.9347143e+2, -76915.11, -13650.657, -16945.338, -0.22867501, -0.31768775, -9397.757, 54555.273, 0.0, 9.999679, 10.000266 
2.5370523e+3, 3.03461e+2, -353863.06, -514026.06, 41718.6, -0.28383037, -0.44980586, -343647.88, -343647.88, 0.0, 9.999104, 9.996828 
2.536661e+3, 3.1345344e+2, 87327.27, 99679.17, 72102.695, -0.28593802, -0.25487033, 165869.94, 165869.94, 0.0, 10.000368, 10.000396 
2.5540873e+3, 1.23997964e+2, -1821427.4, -1672221.0, 201742.72, -0.54306436, -0.6447554, -1531729.4, 193056.75, 0.29081753, 9.998867, 10.00104 
2.5537e+3, 1.3399516e+2, -1653083.3, -1624998.4, 24078.133, -0.005342195, -0.2570493, -1611167.0, 15650.327, 0.2027681, 9.999733, 9.999967 
2.553305e+3, 1.4398754e+2, -1626712.9, -1744224.1, -7215.318, -0.28325936, -0.16352549, -1626271.5, -97373.05, 0.11625642, 9.999944, 9.998392 
2.5529134e+3, 1.5397985e+2, -1379234.0, -1561224.0, 46965.73, -0.2347201, -0.102997705, -1367828.4, 63156.59, 0.04988728, 10.000992, 9.998454 
2.5525218e+3, 1.6397184e+2, -1266482.8, -1384475.6, 80499.9, -0.20761994, 0.010465989, -1225675.4, 107392.89, 0.013707004, 10.000685, 9.999201 
2.5521308e+3, 1.73963e+2, -1340555.4, -1314461.4, 83973.63, -0.19321658, -0.13102107, -1242527.3, -7377.603, 0.0016894786, 9.999287, 9.999658 
2.5517392e+3, 1.839547e+2, -1313132.0, -1280081.0, 17796.088, -0.20141834, -0.13690685, -1272320.9, -135092.11, 0.000027889511, 9.998876, 9.99944 
2.5513473e+3, 1.9394669e+2, -1015280.7, -1060380.5, -32809.223, -0.20313418, -0.20286915, -998019.25, 41290.04, 0.0, 10.000181, 9.999621 
2.5509557e+3, 2.0393904e+2, -892512.56, -976378.0, -57554.016, -0.19008313, -0.14909835, -863235.6, 78148.88, 0.0, 10.00045, 9.9993925 
2.5505644e+3, 2.1393137e+2, -915661.56, -920809.75, -39365.445, -0.12848987, -0.17500566, -878786.1, -35328.566, 0.0, 9.999567, 9.999506 
2.5501728e+3, 2.2392334e+2, -846743.6, -856913.4, -72170.55, -0.10077342, -0.1487421, -779479.06, -33945.45, 0.0, 9.999441, 9.99938 
2.5497803e+3, 2.3391443e+2, -541349.2, -636241.5, -68169.47, -0.11808236, -0.2813192, -505739.88, 141877.67, 0.0, 10.000827, 9.999525 
2.5493878e+3, 2.4390587e+2, -348883.63, -621012.7, -32178.69, -0.16715543, -0.2669637, -345130.34, 204569.44, 0.0, 10.001945, 9.9984455 
2.548995e+3, 2.5389782e+2, -188474.56, -496316.75, -6081.2715, -0.28568792, -0.2102353, -188354.48, 263426.22, 0.0, 10.002416, 9.998377 
2.548605e+3, 2.6388952e+2, -254683.42, -541089.94, 90479.9, -0.303356, -0.07430814, -228494.28, 125371.05, 0.0, 10.001543, 9.997859 
2.5482184e+3, 2.7388042e+2, -560902.2, -628386.9, 117157.016, -0.08200534, -0.057894293, -472725.28, -216765.47, 0.0, 9.99878, 9.997888 
2.5478297e+3, 2.838718e+2, -480552.22, -286056.6, -8426.286, -0.0049108067, -0.036395866, -285692.22, -127648.586, 0.0, 9.997488, 10.000217 
2.5474358e+3, 2.9386336e+2, -258430.8, -84169.43, -38526.824, -0.21538432, -0.2353865, -76031.695, -15915.581, 0.0, 9.998184, 10.000586 
2.5470454e+3, 3.0385295e+2, -190552.13, -168664.4, 44782.38, -0.12707253, -0.501766, -133508.05, -133508.05, 0.0, 9.998896, 9.999378 
2.546652e+3, 3.1384388e+2, -43590.137, 108335.016, 93689.96, -0.45043948, -0.6076277, 152988.03, 152988.03, 0.0, 9.998868, 10.001288 
2.5640836e+3, 1.243944e+2, -1844054.9, -1900485.0, -12828.305, -0.13118403, -0.44418532, -1841275.5, -120381.67, 0.26403108, 9.99948, 9.99891 
2.5636926e+3, 1.3438842e+2, -1645610.4, -1814179.9, 27600.287, 0.021338793, -0.20056768, -1641206.4, -18243.791, 0.18292536, 10.000577, 9.998302 
2.5632975e+3, 1.4438075e+2, -1482374.1, -1626411.4, 34960.38, -0.3190145, -0.028668145, -1474337.0, 50710.305, 0.1037245, 10.000694, 9.998868 
2.5629073e+3, 1.5437306e+2, -1442155.1, -1565043.5, -5938.8276, -0.16187455, -0.027067875, -1441868.9, -14737.203, 0.043632858, 10.00032, 9.998783 
2.5625157e+3, 1.6436487e+2, -1335922.5, -1385511.0, 18544.715, -0.08187337, 0.02549628, -1329754.5, -540.46674, 0.011545959, 10.000108, 9.9994335 
2.562123e+3, 1.7435552e+2, -1215524.1, -1272648.4, 21814.684, -0.2007577, -0.17301765, -1208146.4, 23152.707, 0.0013158798, 10.000267, 9.999447 
2.5617313e+3, 1.8434641e+2, -1169919.4, -1321577.9, 74125.69, -0.19761032, -0.19668974, -1139707.6, -6320.7515, 0.000016496271, 10.0004, 9.998417 
2.5613415e+3, 1.9433738e+2, -1021439.6, -1216647.6, 27595.844, -0.054720014, -0.2475635, -1017613.5, 17866.525, 0.0, 10.000821, 9.998265 
2.5609505e+3, 2.0432895e+2, -838802.0, -918737.44, -28028.762, 0.0042077615, -0.19630916, -829953.44, 107610.61, 0.0, 10.000762, 9.999629 
2.560557e+3, 2.1432088e+2, -820172.1, -850135.56, -49553.55, -0.07872775, -0.2966188, -783385.06, 56255.027, 0.0, 10.000207, 9.999678 
2.560165e+3, 2.2431374e+2, -762794.7, -837708.1, -6271.9146, -0.09921171, -0.16984609, -762273.25, -20564.697, 0.0, 10.000179, 9.999125 
2.5597733e+3, 2.3430733e+2, -587175.75, -691872.56, -22962.256, -0.12755513, -0.05703412, -582361.06, 61411.094, 0.0, 10.000706, 9.999175 
2.559382e+3, 2.4429883e+2, -493045.3, -677754.56, -1401.6553, -0.1350138, -0.013701341, -493034.66, 52819.145, 0.0, 10.000992, 9.99848 
2.5589913e+3, 2.542872e+2, -360671.97, -562439.7, -12910.2705, -0.15316956, -0.36227423, -359849.25, 88114.4, 0.0, 10.001259, 9.99845 
2.5586003e+3, 2.6427832e+2, -442973.84, -612412.25, -3901.6484, -0.12296649, -0.29078826, -442884.06, -92833.26, 0.0, 10.000302, 9.997895 
2.5582096e+3, 2.7427202e+2, -615941.5, -642528.94, 29281.424, -0.08876598, -0.05073469, -597077.4, -344959.22, 0.0, 9.998449, 9.997898 
2.5578183e+3, 2.84264e+2, -560942.94, -375817.16, 6395.866, -0.13252892, 0.06229993, -375596.44, -221397.34, 0.0, 9.997286, 9.9996395 
2.557426e+3, 2.942542e+2, -377076.03, -209500.31, -25534.033, -0.2571439, -0.25726855, -205695.97, -149403.98, 0.0, 9.997779, 9.999846 
2.557039e+3, 3.0424607e+2, -146951.45, 47366.027, 14080.018, 0.10976145, -0.32996625, 48380.945, 48380.945, 0.0, 9.99855, 10.000925 
2.5566456e+3, 3.1424323e+2, -43585.36, 339476.0, 85847.125, -0.28421122, -0.09510505, 357835.13, 357835.13, 0.0, 9.998205, 10.003051 
2.5740734e+3, 1.2478648e+2, -1925649.8, -1862410.8, -55055.887, -0.39727536, -0.42019975, -1830540.5, -113488.05, 0.23823552, 9.998716, 9.9994755 
2.5736842e+3, 1.3477907e+2, -1646607.0, -1757898.3, 71804.78, -0.19688372, -0.38869375, -1611410.1, 7719.934, 0.16394834, 10.000409, 9.998717 
2.573291e+3, 1.447709e+2, -1576470.3, -1744409.8, 30017.725, -0.33204624, -0.24868394, -1571266.1, -50048.723, 0.09188186, 10.0003805, 9.998183 
2.5729004e+3, 1.5476254e+2, -1544177.4, -1684965.3, 1992.998, -0.146462, -0.24261047, -1544149.3, -120840.34, 0.03784501, 9.999952, 9.9981365 
2.5725085e+3, 1.64755e+2, -1296303.3, -1253566.3, 29655.75, -0.11094542, -0.13993137, -1238382.4, 87002.66, 0.009625426, 9.999948, 10.00039 
2.5721154e+3, 1.7474756e+2, -1072603.4, -1114767.9, 82475.555, -0.30362844, -0.2307842, -1008558.2, 218894.23, 0.0010124295, 10.00088, 10.000227 
2.5717244e+3, 1.8473962e+2, -1038182.44, -1275336.3, 90686.05, -0.28864542, -0.15831521, -1007479.6, 122050.9, 0.000009793076, 10.001377, 9.998252 
2.5713363e+3, 1.9473097e+2, -938618.5, -1204952.3, 97436.625, 0.0066750795, -0.13154094, -906778.4, 124844.02, 0.0, 10.001484, 9.998025 
2.5709447e+3, 2.047225e+2, -711595.6, -865625.6, 14804.181, 0.006980234, -0.07256439, -710185.7, 223521.72, 0.0, 10.001615, 9.9996 
2.5705492e+3, 2.1471399e+2, -563499.6, -758728.8, 15422.387, -0.27693868, -0.17047583, -562288.8, 273497.97, 0.0, 10.002032, 9.999459 
2.5701573e+3, 2.247058e+2, -466112.84, -711593.6, 23685.322, -0.30731407, -0.13166195, -463848.44, 274016.25, 0.0, 10.0022, 9.999036 
2.5697684e+3, 2.3469773e+2, -421583.3, -661230.56, 20046.924, -0.06770731, -0.13070308, -419917.94, 220025.28, 0.0, 10.0019245, 9.998842 
2.5693768e+3, 2.446891e+2, -407244.75, -639441.5, 1787.4242, -0.06805036, -0.08222429, -407231.0, 134797.22, 0.0, 10.001521, 9.998506 
2.5689837e+3, 2.5467923e+2, -379986.8, -597168.6, -5857.703, -0.29481998, -0.2027127, -379828.94, 64296.707, 0.0, 10.001141, 9.998307 
2.5685915e+3, 2.6467016e+2, -288404.97, -366315.06, -41231.113, -0.33862072, -0.22283646, -270637.0, 75574.43, 0.0, 10.000514, 9.999497 
2.5682008e+3, 2.7466184e+2, -343083.6, -371326.22, 27406.842, -0.1954399, -0.29503402, -326373.97, -78087.35, 0.0, 9.999586, 9.999248 
2.5678095e+3, 2.8465372e+2, -297247.97, -347262.2, 75740.33, -0.17351747, -0.22483997, -242493.23, -92126.72, 0.0, 9.9994135, 9.998833 
2.5674182e+3, 2.946456e+2, -109158.55, -236352.53, 20356.123, -0.22306955, -0.21232942, -105980.18, -53527.773, 0.0, 10.000146, 9.99857 
2.567032e+3, 3.0463746e+2, 63362.88, 67848.7, -10943.713, 0.16016737, -0.19252606, 76776.984, 76776.984, 0.0, 10.00017, 10.000341 
2.5666353e+3, 3.1462714e+2, 81461.76, 173539.95, -173783.0, -0.51293135, -0.5699271, 307278.84, 307278.84, 0.0, 9.999718, 10.001279 
2.5840667e+3, 1.251766e+2, -1744025.4, -1776433.6, 96931.91, -0.26681048, -0.46126908, -1661952.5, 51276.86, 0.21373183, 9.999778, 9.999644 
2.583677e+3, 1.3516979e+2, -1534481.8, -1647515.0, -15453.082, -0.23435341, -0.4540033, -1532407.3, 82891.54, 0.14603193, 10.000862, 9.999329 
2.583285e+3, 1.4516135e+2, -1516407.1, -1697902.8, -48780.176, -0.23653795, -0.39349422, -1504127.4, 13259.347, 0.080827504, 10.00074, 9.998328 
2.5828937e+3, 1.5515287e+2, -1501670.0, -1682481.4, -55721.8, -0.07191882, -0.39436468, -1485877.3, -66399.42, 0.032553293, 10.000334, 9.997968 
2.5825015e+3, 1.6514568e+2, -1260466.0, -1230174.3, 34213.324, -0.076393686, -0.2589368, -1207904.3, 113646.76, 0.007938516, 10.000127, 10.000462 
2.5821084e+3, 1.7513952e+2, -1217158.9, -1194020.6, -25731.006, -0.28849393, -0.2421989, -1177377.5, 46230.88, 0.00076767127, 9.999909, 10.000147 
2.5817183e+3, 1.8513227e+2, -1208457.8, -1359960.0, -13270.768, -0.23622692, -0.104128696, -1207304.1, -81623.01, 0.000005913737, 10.0002775, 9.998179 
2.5813308e+3, 1.9512372e+2, -1089250.6, -1281186.0, -13246.115, 0.092459165, -0.08641508, -1088340.8, -60569.06, 0.0, 10.000555, 9.997914 
2.5809386e+3, 2.051154e+2, -852404.7, -985579.8, -35800.477, 0.048251376, 0.0072422633, -843390.8, 86464.03, 0.0, 10.000899, 9.999103 
2.5805423e+3, 2.151067e+2, -748273.56, -918010.5, -50115.113, -0.39922065, -0.092392065, -734581.5, 97354.74, 0.0, 10.001081, 9.998814 
2.5801507e+3, 2.2509746e+2, -662116.2, -829889.7, -25519.82, -0.39523104, -0.11256653, -658320.3, 75703.19, 0.0, 10.001122, 9.998702 
2.5797635e+3, 2.3508744e+2, -622286.75, -796675.75, -39293.61, 0.04996864, -0.29467928, -613842.0, 22277.395, 0.0, 10.000866, 9.998387 
2.5793716e+3, 2.450793e+2, -577815.1, -750561.25, -24250.523, 0.025164682, -0.15586679, -574475.3, -36273.387, 0.0, 10.0006, 9.998145 
2.5789753e+3, 2.550722e+2, -575048.0, -740322.7, -21414.898, -0.46363562, 0.003952845, -572318.3, -132039.31, 0.0, 10.000127, 9.997779 
2.5785822e+3, 2.6506278e+2, -288683.84, -212019.4, -69578.7, -0.5670225, -0.08680341, -170912.63, 171451.8, 0.0, 9.999936, 10.000828 
2.5781918e+3, 2.7505118e+2, -246349.98, -180152.64, -37144.12, -0.30431524, -0.6585428, -163499.86, 80957.33, 0.0, 9.999748, 10.000456 
2.5778016e+3, 2.850433e+2, -386333.88, -540272.56, 90312.94, -0.16053529, -0.55098116, -344641.06, -198109.27, 0.0, 9.999565, 9.997394 
2.5774115e+3, 2.950379e+2, -333222.8, -518161.78, 74238.23, -0.1703621, -0.16255116, -307109.3, -258509.61, 0.0, 9.9994755, 9.996927 
2.5770238e+3, 3.050287e+2, -168876.33, -210537.25, 12894.748, 0.083148904, -0.07901078, -165208.16, -165208.16, 0.0, 9.999447, 9.998723 
2.5766334e+3, 3.150191e+2, -8834.193, 269780.0, -119873.69, 0.051435143, -0.2635452, 314255.8, 314255.8, 0.0, 9.998718, 10.0023775 
2.5940612e+3, 1.255671e+2, -1834965.5, -1838781.0, 107086.49, -0.15708569, -0.42184576, -1729769.8, -20368.42, 0.19077115, 9.999341, 9.99936 
2.5936708e+3, 1.3556105e+2, -1585823.5, -1686184.4, 24942.885, -0.18180445, -0.32898197, -1579966.3, 31499.566, 0.12932457, 10.00056, 9.999192 
2.5932792e+3, 1.4555258e+2, -1471281.3, -1537694.0, -72098.336, -0.18690027, -0.32737648, -1425109.8, 88442.734, 0.07062259, 10.000518, 9.999538 
2.592886e+3, 1.5554412e+2, -1424782.8, -1525453.6, -22315.252, -0.15332933, -0.43551058, -1420058.0, -4419.7827, 0.027766839, 10.000373, 9.999015 
2.592494e+3, 1.6553678e+2, -1388846.6, -1495680.6, 13311.024, -0.15288615, -0.2663357, -1387213.1, -69499.25, 0.0064744665, 10.000145, 9.998615 
2.5921026e+3, 1.7553005e+2, -1379778.3, -1479852.8, -42851.65, -0.14906397, -0.10981247, -1363936.9, -144153.38, 0.0005723583, 9.999655, 9.998323 
2.5917122e+3, 1.8552123e+2, -1197409.6, -1254468.4, -43237.05, -0.13835832, -0.09084009, -1174137.8, -52267.42, 0.0000035552432, 9.999912, 9.999086 
2.5913224e+3, 1.9551034e+2, -1018148.7, -1161253.1, -1222.1819, -0.114453994, -0.37934378, -1018138.25, 5837.1563, 0.0, 10.00062, 9.9987335 
2.5909308e+3, 2.0550188e+2, -816608.75, -967613.75, -65994.69, -0.14763753, -0.3441803, -791832.0, 134225.16, 0.0, 10.001128, 9.999122 
2.590538e+3, 2.15495e+2, -687147.8, -906117.94, -56968.285, -0.25269896, -0.22589979, -673213.44, 154909.66, 0.0, 10.001513, 9.998724 
2.5901464e+3, 2.2548643e+2, -577017.7, -755771.2, -70269.99, -0.24469635, -0.19895068, -552701.56, 177503.95, 0.0, 10.0015135, 9.99903 
2.589756e+3, 2.3547626e+2, -527688.25, -736379.4, -49908.223, -0.101730056, -0.3960737, -516366.94, 115936.58, 0.0, 10.001361, 9.9985895 
2.5893638e+3, 2.454682e+2, -439305.06, -583710.25, -60216.098, -0.1245728, -0.31357634, -417490.7, 116894.164, 0.0, 10.001019, 9.999117 
2.5889698e+3, 2.5546163e+2, -456485.88, -581630.4, -12047.006, -0.3216539, -0.16364786, -455336.72, -18881.354, 0.0, 10.000388, 9.998779 
2.5885773e+3, 2.654532e+2, -137446.55, -168094.72, -24666.213, -0.35782278, -0.19776942, -123731.87, 214800.3, 0.0, 10.001046, 10.000614 
2.5881872e+3, 2.7544287e+2, 183383.19, -15892.324, -55014.336, -0.1962342, -0.5656, 197562.2, 438178.66, 0.0, 10.002777, 10.000173 
2.587796e+3, 2.8543475e+2, 88768.414, -205163.2, -38951.152, -0.13305719, -0.5340188, 93842.54, 236535.1, 0.0, 10.002286, 9.998408 
2.5874037e+3, 2.9542813e+2, -202716.61, -368130.94, 12383.361, -0.22338025, -0.3222797, -201794.7, -157028.42, 0.0, 9.999864, 9.997819 
2.587015e+3, 3.0541837e+2, -105748.64, -268596.38, 80412.81, -0.018143665, -0.30237964, -72734.46, -72734.46, 0.0, 10.000133, 9.998065 
2.586622e+3, 3.1540626e+2, 20061.613, -440746.9, -99927.02, -0.42207843, -0.59438634, 40797.82, 40797.82, 0.0, 10.001866, 9.996042 
2.604054e+3, 1.259574e+2, -1682960.1, -1810678.6, -41399.082, -0.16376126, -0.42759117, -1670714.9, 34865.54, 0.16949552, 10.000593, 9.998977 
2.603664e+3, 1.3595131e+2, -1692247.4, -1733791.5, -19004.52, -0.13376687, -0.33415663, -1684865.4, -77223.28, 0.11391175, 9.999747, 9.999277 
2.603272e+3, 1.4594343e+2, -1490419.6, -1505320.5, -77434.91, -0.15193427, -0.30092016, -1420077.5, 89643.76, 0.061296463, 10.000206, 9.999885 
2.602879e+3, 1.5593538e+2, -1247940.3, -1437407.6, -132691.8, -0.16512646, -0.40811127, -1179635.3, 232166.52, 0.023481611, 10.001591, 9.9990425 
2.6024872e+3, 1.6592766e+2, -1218017.4, -1524968.5, -80025.71, -0.123683706, -0.2385924, -1198406.8, 115474.836, 0.005220199, 10.001771, 9.997679 
2.6020968e+3, 1.7592008e+2, -1296098.1, -1568162.6, -68992.195, 0.012676054, -0.055891115, -1279602.8, -63640.875, 0.00041937284, 10.000762, 9.997226 
2.6017055e+3, 1.8591002e+2, -1094328.0, -1163697.5, 18703.482, -0.044354964, -0.13101274, -1089606.5, 28453.244, 0.0000020172258, 10.00045, 9.9994335 
2.6013136e+3, 1.9589761e+2, -1067107.5, -1170258.6, -23361.486, -0.25038636, -0.61479855, -1062063.4, -41888.37, 0.0, 10.000232, 9.998846 
2.6009235e+3, 2.0588925e+2, -912912.2, -990789.8, -61216.15, -0.21434596, -0.5872311, -879300.0, 42953.613, 0.0, 10.000438, 9.999273 
2.600534e+3, 2.1588364e+2, -900549.9, -1011645.8, -36579.11, 0.0006136427, -0.37034583, -889587.6, -65279.855, 0.0, 10.000156, 9.99862 
2.6001415e+3, 2.2587572e+2, -739930.0, -816479.6, -22786.227, -0.065262996, -0.27243635, -733660.75, -7276.171, 0.0, 10.000351, 9.999164 
2.5997475e+3, 2.3586561e+2, -748202.9, -840482.75, -27430.014, -0.28222176, -0.49246547, -740665.06, -112182.31, 0.0, 9.999888, 9.9985695 
2.5993556e+3, 2.4585754e+2, -533480.0, -542638.9, -46977.996, -0.2506713, -0.4420455, -490858.78, 39704.063, 0.0, 10.000084, 9.99983 
2.5989652e+3, 2.5585067e+2, -491218.72, -551659.75, -54104.566, -0.06753512, -0.4153268, -459466.78, -26833.98, 0.0, 10.000015, 9.999161 
2.598574e+3, 2.6584333e+2, -345874.25, -387452.9, -475.4377, -0.029498849, -0.30159497, -345868.8, -11166.74, 0.0, 10.000238, 9.999462 
2.5981835e+3, 2.758351e+2, -276123.78, -386159.88, -32582.248, -0.052830357, -0.3774713, -267199.75, -30424.125, 0.0, 10.000356, 9.9987755 
2.5977907e+3, 2.8582627e+2, -81213.92, -150854.17, -146391.27, -0.10728755, -0.40246335, 34441.355, 173298.5, 0.0, 10.0006275, 9.999555 
2.5973952e+3, 2.9581708e+2, -202123.63, -289578.88, -108008.875, -0.2788269, -0.5912314, -129326.48, -88381.414, 0.0, 9.999662, 9.9984255 
2.597006e+3, 3.0580598e+2, -159722.98, -379562.16, 111396.484, -0.2224928, -0.69088894, -113145.0, -113145.0, 0.0, 10.000299, 9.997143 
2.59662e+3, 3.1579643e+2, 80669.24, 91271.49, 24959.787, -0.06931808, -0.67553926, 111486.89, 111486.89, 0.0, 10.000314, 10.000391 
2.6140472e+3, 1.2634899e+2, -1619292.3, -1504873.0, -95902.27, -0.21592477, -0.123770066, -1450412.6, 251341.03, 0.14988421, 9.999861, 10.001625 
2.6136547e+3, 1.3633992e+2, -1686362.3, -1631653.3, -16197.273, -0.29897273, -0.4964153, -1627217.5, -23385.033, 0.09979623, 9.999401, 10.000126 
2.6132637e+3, 1.463327e+2, -1610485.3, -1700666.6, -9584.684, -0.29891253, -0.35661054, -1609477.9, -103572.04, 0.05285716, 10.000007, 9.9986105 
2.612874e+3, 1.5632597e+2, -1299412.8, -1611407.1, -71556.07, -0.20825244, -0.18221565, -1283784.3, 124196.4, 0.019694533, 10.0018635, 9.997725 
2.6124817e+3, 1.663175e+2, -1033793.3, -1247782.6, -130077.11, -0.1997984, -0.12272187, -972360.25, 337704.47, 0.004163879, 10.002258, 9.999319 
2.6120886e+3, 1.7630789e+2, -1119055.9, -1348668.0, -50124.867, -0.24023895, -0.29512808, -1108590.5, 103565.23, 0.00030229846, 10.001419, 9.998394 
2.6116976e+3, 1.8629898e+2, -1071195.0, -1265779.6, 26886.22, -0.23247391, -0.24751727, -1067548.4, 46696.527, 0.0000010444409, 10.00106, 9.998447 
2.6113075e+3, 1.9628984e+2, -1043247.75, -1250436.9, -14791.994, -0.24360342, -0.28468066, -1042197.06, -25858.84, 0.0, 10.0007, 9.998095 
2.610917e+3, 2.0628181e+2, -759914.2, -729771.8, -64753.832, -0.17105839, -0.2916204, -678358.44, 240054.48, 0.0, 10.000632, 10.000982 
2.6105267e+3, 2.1627447e+2, -728688.7, -770785.06, 9879.343, -0.0587412, -0.388345, -726485.5, 93991.41, 0.0, 10.000579, 10.000081 
2.6101336e+3, 2.262666e+2, -675368.1, -729367.7, 15554.292, -0.16994473, -0.38295725, -671208.25, 51342.563, 0.0, 10.000455, 9.999747 
2.609739e+3, 2.3625793e+2, -682727.25, -781323.4, 41377.99, -0.41778338, -0.47629404, -667663.5, -43028.684, 0.0, 10.000073, 9.998934 
2.6093477e+3, 2.4624993e+2, -531723.1, -653043.75, 11052.067, -0.35324615, -0.38192806, -530724.5, -4009.2666, 0.0, 10.000518, 9.998878 
2.6089585e+3, 2.562422e+2, -310084.94, -577285.9, -45226.004, -0.1143567, -0.30678615, -302637.63, 126157.06, 0.0, 10.001624, 9.998246 
2.6085672e+3, 2.662331e+2, -327152.63, -404701.8, -104038.445, -0.016948918, -0.3247638, -254898.08, 75983.43, 0.0, 10.000367, 9.999316 
2.6081753e+3, 2.7622312e+2, -677683.7, -599791.44, -84688.79, 0.009918737, -0.51969904, -545522.8, -312549.38, 0.0, 9.997544, 9.998698 
2.6077834e+3, 2.8621522e+2, -281092.38, -272511.03, -67569.22, -0.06699839, -0.45140624, -209096.39, -74046.734, 0.0, 9.999274, 9.999397 
2.6073903e+3, 2.9620835e+2, 413480.8, -3577.9712, -95020.37, -0.27064022, -0.3532605, 434109.4, 471227.22, 0.0, 10.003821, 9.998421 
2.6070002e+3, 3.061967e+2, 341835.25, -58619.54, -19987.063, -0.25486624, -0.56265146, 342830.34, 342830.34, 0.0, 10.003246, 9.997968 
2.606615e+3, 3.161922e+2, -126770.71, -226044.4, -229229.1, 0.19625705, -0.09473123, 58134.11, 58134.11, 0.0, 9.9996, 9.998575 
2.6240396e+3, 1.2673819e+2, -1573602.6, -1403236.4, -57808.133, -0.23810361, -0.12541541, -1385473.1, 312471.97, 0.13183987, 9.999822, 10.002387 
2.6236475e+3, 1.3672975e+2, -1466371.4, -1471371.3, -107313.08, -0.2908038, -0.49725735, -1361529.1, 238484.23, 0.08692974, 10.000717, 10.000682 
2.6232567e+3, 1.4672266e+2, -1498637.5, -1707863.5, 1696.2522, -0.27553764, -0.35148385, -1498623.8, 3460.8906, 0.045284748, 10.000925, 9.998177 
2.622868e+3, 1.5671606e+2, -1465980.3, -1722390.9, 8149.926, -0.15835461, -0.10816293, -1465721.5, -61561.633, 0.01638905, 10.000768, 9.997533 
2.6224753e+3, 1.6670702e+2, -1133721.4, -1215337.8, -73684.08, -0.24580343, -0.13592231, -1090299.8, 215947.55, 0.0032885466, 10.001227, 10.000044 
2.6220804e+3, 1.766964e+2, -1078307.1, -1275619.0, -95664.984, -0.41553283, -0.47804874, -1039541.2, 168802.31, 0.00021471751, 10.001457, 9.998899 
2.6216903e+3, 1.8668886e+2, -1079969.0, -1308327.1, 22397.244, -0.32479015, -0.30778506, -1077793.0, 32628.822, 0.00000047553752, 10.001146, 9.998121 
2.6213017e+3, 1.9668286e+2, -1194663.0, -1356161.8, 43023.992, -0.09756874, 0.0041468516, -1183916.4, -171425.08, 0.0, 9.999837, 9.9977865 
2.620911e+3, 2.0667493e+2, -805234.94, -640888.0, 13527.827, -0.06823616, -0.026792306, -639781.94, 274782.72, 0.0, 9.999867, 10.00195 
2.6205188e+3, 2.1666583e+2, -831538.56, -746497.94, -18216.553, -0.11622086, -0.40889952, -742760.06, 73881.24, 0.0, 9.999604, 10.000716 
2.6201254e+3, 2.2665802e+2, -692287.4, -698977.56, -42646.84, -0.24756934, -0.43902093, -652854.6, 65858.414, 0.0, 10.000283, 10.0 
2.6197314e+3, 2.3665075e+2, -713300.7, -819457.0, -62841.984, -0.41754895, -0.4420293, -684120.7, -63336.953, 0.0, 10.000094, 9.9986315 
2.6193404e+3, 2.4664278e+2, -621788.6, -833176.56, 7869.973, -0.39421192, -0.26454794, -621496.06, -98631.35, 0.0, 10.00059, 9.99756 
2.618951e+3, 2.5663406e+2, -602858.4, -883510.06, -25557.988, -0.23446037, -0.17034018, -600549.9, -175595.1, 0.0, 10.000435, 9.996685 
2.618559e+3, 2.666229e+2, -380444.6, -442722.56, -168925.34, -0.08494884, -0.31923836, -239812.19, 87249.62, 0.0, 10.000126, 9.99913 
2.618166e+3, 2.766104e+2, -624868.25, -644780.2, -126322.664, 0.06539977, -0.7744687, -508109.84, -278931.7, 0.0, 9.99831, 9.997986 
2.6177755e+3, 2.8660408e+2, -333780.03, -371414.56, 107553.78, -0.05909087, -0.47534198, -243409.81, -112164.875, 0.0, 9.99937, 9.998618 
2.617386e+3, 2.966005e+2, -6235.3823, -315100.9, 44891.563, -0.33336774, 0.0041540666, 157.0102, 33446.656, 0.0, 10.001527, 9.997363 
2.6169974e+3, 3.0658975e+2, 153361.08, 163.52013, -163471.78, -0.098593816, -0.13413121, 257290.4, 257290.4, 0.0, 10.001427, 9.999216 
2.616602e+3, 3.1657976e+2, -336441.13, -424688.38, 47165.79, -0.4181752, -0.3508882, -315977.56, -315977.56, 0.0, 9.998816, 9.997552 
2.634032e+3, 1.2712677e+2, -1761179.6, -1607250.8, -45571.367, -0.34353647, -0.20422953, -1594770.9, 99365.97, 0.11528824, 9.999108, 10.001078 
2.6336423e+3, 1.3712084e+2, -1552204.0, -1608311.0, -62102.617, -0.18611701, -0.2238361, -1512112.6, 84074.32, 0.07524984, 10.00054, 9.999752 
2.6332512e+3, 1.4711298e+2, -1389341.3, -1420477.8, -9653.49, -0.21510656, -0.2350305, -1386591.3, 111669.58, 0.038529176, 10.000748, 10.000226 
2.6328605e+3, 1.5710406e+2, -1424503.3, -1537994.6, 55019.957, -0.2638967, -0.42920363, -1402209.3, -1861.3093, 0.013527696, 10.000386, 9.9989605 
2.6324674e+3, 1.6709541e+2, -1243524.8, -1406146.6, -24245.672, -0.40039268, -0.40056854, -1239986.9, 62446.883, 0.0025719018, 10.001065, 9.998815 
2.6320735e+3, 1.770867e+2, -1071000.5, -1325064.5, -54706.664, -0.5956554, -0.43295875, -1059721.4, 144798.06, 0.00015054179, 10.001714, 9.998439 
2.6316836e+3, 1.8708e+2, -882864.8, -945796.25, -12524.337, -0.3881448, -0.30335337, -880463.9, 226122.3, 0.0000001940375, 10.001334, 10.000525 
2.631295e+3, 1.9707406e+2, -1050646.4, -1092280.9, 99027.055, -0.060321018, -0.2061605, -970272.1, 38374.293, 0.0, 9.999921, 9.9995775 
2.6309034e+3, 2.0706655e+2, -930030.0, -872156.44, 78225.05, -0.06823565, -0.17399566, -817687.6, 93030.85, 0.0, 9.999757, 10.0004015 
2.6305103e+3, 2.1705812e+2, -831490.56, -908021.1, 26485.549, -0.2532033, -0.3168591, -823218.6, -10421.428, 0.0, 10.000241, 9.999309 
2.630119e+3, 2.2704923e+2, -637875.44, -822593.06, -53467.953, -0.24102838, -0.32237786, -623515.1, 91369.52, 0.0, 10.001252, 9.998701 
2.6297283e+3, 2.3704036e+2, -410693.5, -730652.7, -112720.96, -0.1880246, -0.34887087, -374970.56, 242003.17, 0.0, 10.002329, 9.998185 
2.629336e+3, 2.4703215e+2, -296327.88, -483143.03, -79851.914, -0.21707807, -0.2964882, -266848.1, 252205.3, 0.0, 10.0019045, 9.99936 
2.6289442e+3, 2.57024e+2, -448684.47, -626811.5, 3444.69, -0.27410176, -0.30454156, -448617.88, -27486.12, 0.0, 10.000607, 9.9983835 
2.628551e+3, 2.6701432e+2, -232386.14, -449314.72, -84190.3, -0.25457555, -0.33595493, -203546.0, 119678.7, 0.0, 10.001373, 9.998534 
2.6281574e+3, 2.7700382e+2, 26077.78, -372167.94, -59698.832, -0.18675053, -0.49473232, 34834.363, 260159.83, 0.0, 10.002809, 9.997738 
2.6277682e+3, 2.8699595e+2, -116143.9, -309146.75, 101909.19, -0.095757775, -0.31902078, -72295.73, 55113.504, 0.0, 10.000924, 9.99834 
2.6273805e+3, 2.9698953e+2, -552048.4, -544756.06, 74025.45, -0.056296866, -0.06452094, -474287.0, -444804.13, 0.0, 9.997493, 9.997773 
2.62699e+3, 3.0697963e+2, -233071.56, -181415.48, -90733.34, -0.04901939, -0.15353423, -112905.695, -112905.695, 0.0, 9.998614, 9.999406 
2.6265958e+3, 3.169743e+2, 249738.63, 369483.7, 47164.906, -0.28964823, 0.12743759, 385829.6, 385829.6, 0.0, 10.000377, 10.002362 
2.6440257e+3, 1.2751724e+2, -1432215.3, -1585926.6, 81071.14, -0.28949034, -0.2919658, -1397360.0, 292945.75, 0.10017185, 10.0020485, 9.999888 
2.643637e+3, 1.3751106e+2, -1465222.8, -1605218.8, 31675.81, -0.04616491, -0.1892004, -1458389.3, 133975.61, 0.06469282, 10.001315, 9.99941 
2.6432455e+3, 1.4750355e+2, -1302469.5, -1240735.4, 50054.58, -0.124759056, -0.2315937, -1212795.6, 281637.9, 0.032530583, 10.000736, 10.001501 
2.642853e+3, 1.5749459e+2, -1434890.4, -1458413.0, 28978.762, -0.28874558, -0.5448562, -1415377.1, -18861.639, 0.011066901, 9.999932, 9.999728 
2.6424602e+3, 1.6748606e+2, -1360785.3, -1532227.1, 48248.715, -0.44830412, -0.5044271, -1348139.4, -49538.777, 0.0019930317, 10.00053, 9.99821 
2.6420674e+3, 1.7747793e+2, -1219091.8, -1446912.8, 35037.285, -0.6002782, -0.40141052, -1213825.0, -13140.097, 0.00010503105, 10.000876, 9.998037 
2.6416773e+3, 1.8747123e+2, -851774.1, -752779.75, -24820.326, -0.36964926, -0.34678277, -746905.3, 355843.25, 0.00000008640195, 10.00091, 10.001982 
2.6412883e+3, 1.9746499e+2, -976084.4, -986051.7, -59987.867, 0.01958015, -0.42781186, -920873.5, 83931.57, 0.0, 10.000219, 10.0001335 
2.640896e+3, 2.0745778e+2, -872992.7, -1018043.5, -7535.7656, -0.048853733, -0.31114048, -872602.25, 34275.137, 0.0, 10.000899, 9.998865 
2.640503e+3, 2.1745005e+2, -868217.25, -1136978.0, -32244.9, -0.26816761, -0.23806536, -864402.75, -55445.664, 0.0, 10.000908, 9.997445 
2.6401135e+3, 2.2744028e+2, -731275.7, -1001735.5, -15917.132, -0.16061899, -0.19152188, -730342.2, -19284.473, 0.0, 10.001218, 9.997465 
2.6397252e+3, 2.3742971e+2, -751737.56, -993319.1, -46633.45, 0.08258544, -0.28361332, -743048.25, -129882.26, 0.0, 10.000452, 9.997292 
2.6393324e+3, 2.4742137e+2, -328663.53, -277567.4, -105850.09, -0.017460983, -0.32664245, -194225.88, 321017.6, 0.0, 10.000799, 10.001282 
2.6389372e+3, 2.5741377e+2, -491996.5, -539252.75, -93690.28, -0.24520792, -0.48523542, -419000.84, -1690.6215, 0.0, 9.999919, 9.999317 
2.638543e+3, 2.674064e+2, -378164.06, -579220.5, -91157.28, -0.40388218, -0.29547235, -342988.28, -23606.697, 0.0, 10.0007515, 9.997889 
2.6381493e+3, 2.773988e+2, -341142.9, -669654.7, -69560.26, -0.49396566, -0.119208336, -327021.03, -105562.83, 0.0, 10.000922, 9.996591 
2.6377615e+3, 2.8738838e+2, -278658.8, -413477.13, -35253.145, -0.10848768, -0.13291661, -269997.1, -146430.1, 0.0, 10.000017, 9.998019 
2.637375e+3, 2.9737726e+2, -649401.0, -650769.4, -14303.09, 0.3599759, -0.34569806, -635765.75, -610080.56, 0.0, 9.997192, 9.997171 
2.636979e+3, 3.07368e+2, -209935.73, -180624.72, 27753.344, -0.25143752, -0.3533687, -163895.02, -163895.02, 0.0, 9.998961, 9.999158 
2.6365897e+3, 3.1736124e+2, 119601.0, 260563.48, 197253.81, -0.2291425, -0.24740927, 399549.84, 399549.84, 0.0, 9.999881, 10.001779 
2.6540205e+3, 1.2790994e+2, -1577930.0, -1728823.1, 51819.176, -0.353143, -0.34163252, -1561848.4, 124598.5, 0.086430125, 10.001409, 9.999077 
2.653631e+3, 1.3789918e+2, -1547066.4, -1726526.1, 71696.81, -0.08813127, -0.6365205, -1521940.4, 66616.12, 0.055199515, 10.001087, 9.998677 
2.6532382e+3, 1.4789453e+2, -1351866.8, -1275704.0, 61729.55, -0.18954565, -0.36068702, -1241254.5, 249347.86, 0.027235242, 10.000476, 10.001351 
2.652845e+3, 1.5789075e+2, -1475232.9, -1469365.3, 69875.58, -0.40009302, -0.13469495, -1402361.9, -9723.777, 0.0089680515, 9.999623, 9.999797 
2.6524535e+3, 1.6788161e+2, -1315686.8, -1364950.5, 108865.49, -0.45154837, -0.23273753, -1228701.4, 66023.21, 0.0015322798, 10.000286, 9.99944 
2.6520622e+3, 1.7787078e+2, -1211472.1, -1410576.3, 126329.04, -0.49130479, -0.49925536, -1150183.8, 46644.066, 0.00007382683, 10.000786, 9.998324 
2.651671e+3, 1.8786207e+2, -1010291.7, -1128778.8, -5293.933, -0.36613807, -0.48369503, -1010055.6, 88857.48, 0.000000036839044, 10.001089, 9.99932 
2.6512802e+3, 1.9785416e+2, -966891.56, -1184538.5, -83910.54, -0.20814359, -0.47202522, -938297.7, 62693.62, 0.0, 10.001106, 9.998348 
2.6508895e+3, 2.0784606e+2, -693835.56, -933882.25, -39408.793, -0.18609712, -0.38786697, -687531.4, 215541.63, 0.0, 10.002125, 9.99885 
2.6504984e+3, 2.1783791e+2, -504333.75, -902808.7, -38801.773, -0.26853654, -0.35264352, -500590.56, 304565.22, 0.0, 10.003085, 9.998014 
2.650107e+3, 2.278297e+2, -503404.47, -732349.9, -50412.145, -0.2329334, -0.26983222, -492795.66, 214442.58, 0.0, 10.002033, 9.998945 
2.649716e+3, 2.3782122e+2, -689603.2, -874200.1, 24561.656, -0.15787461, -0.26526546, -686391.0, -77067.96, 0.0, 10.000373, 9.998177 
2.6493245e+3, 2.478127e+2, -476714.47, -568567.06, -51863.5, -0.12730479, -0.23484364, -453365.63, 58042.563, 0.0, 10.000637, 9.999406 
2.6489317e+3, 2.5780427e+2, -321640.84, -554151.1, -153247.6, -0.1588316, -0.27929577, -245541.94, 167949.42, 0.0, 10.001376, 9.998547 
2.6485378e+3, 2.6779556e+2, -266273.06, -416184.78, -186972.0, -0.27551362, -0.2675951, -139791.81, 175781.8, 0.0, 10.000964, 9.998932 
2.6481438e+3, 2.77787e+2, -352590.53, -533963.75, -113298.77, -0.35770884, -0.2789598, -298154.2, -80499.13, 0.0, 10.000099, 9.997951 
2.6477545e+3, 2.8777775e+2, -192833.23, -375862.9, -55527.484, -0.07548016, -0.24088435, -177304.78, -57553.277, 0.0, 10.000454, 9.998155 
2.6473656e+3, 2.9776835e+2, -13393.123, -264602.2, 4816.888, 0.20225808, -0.26462862, -13300.794, 8551.526, 0.0, 10.0010395, 9.998015 
2.6469707e+3, 3.077597e+2, 243416.38, 132674.4, 119138.19, -0.40852186, -0.3009027, 319422.16, 319422.16, 0.0, 10.001531, 10.000129 
2.6465875e+3, 3.1775412e+2, 241448.83, 153600.03, 183908.56, 0.15646249, -0.09659169, 386605.66, 386605.66, 0.0, 10.001201, 10.000472 
2.664015e+3, 1.2830313e+2, -1757356.1, -1843951.9, 71263.914, -0.26039934, -0.3930407, -1717267.9, -34679.004, 0.07399981, 10.000103, 9.9989 
2.6636246e+3, 1.382919e+2, -1482178.3, -1763259.9, 62668.457, -0.098019466, -0.6958585, -1468839.0, 115866.484, 0.046711504, 10.001755, 9.998132 
2.6632318e+3, 1.4828694e+2, -1180208.9, -1302814.3, 15238.228, -0.1873218, -0.36759833, -1178343.4, 308413.97, 0.022592498, 10.00215, 10.0003805 
2.6628387e+3, 1.5828398e+2, -1204536.4, -1380260.8, -56198.902, -0.30662766, 0.029785195, -1188100.5, 200687.28, 0.0071954923, 10.001645, 9.999475 
2.6624477e+3, 1.6827495e+2, -1041891.5, -1130975.5, 9821.151, -0.32783848, -0.120231785, -1040821.6, 250048.58, 0.001170623, 10.001694, 10.000398 
2.6620576e+3, 1.7826377e+2, -1144145.9, -1392012.8, -3493.7183, -0.2792293, -0.51677275, -1144096.6, 48875.563, 0.00005271245, 10.001337, 9.998189 
2.6616654e+3, 1.8825336e+2, -1017976.0, -1411456.3, -67916.59, -0.2835423, -0.5240045, -1006583.1, 88493.64, 0.000000014947995, 10.002221, 9.996859 
2.6612735e+3, 1.9824359e+2, -927590.25, -1375591.8, -95051.66, -0.2610264, -0.46133336, -908257.56, 88920.34, 0.0, 10.00232, 9.996468 
2.660883e+3, 2.0823471e+2, -726380.8, -918542.25, -4718.2637, -0.25004137, -0.41308337, -726265.06, 173001.66, 0.0, 10.001871, 9.999017 
2.6604936e+3, 2.1822612e+2, -904293.8, -1061906.5, -47978.035, -0.22399198, -0.45061165, -890837.9, -89486.414, 0.0, 10.000318, 9.998212 
2.6601005e+3, 2.2821933e+2, -583698.6, -584646.0, -111019.22, -0.3080896, -0.34296238, -473152.1, 230263.81, 0.0, 10.000788, 10.000491 
2.6597065e+3, 2.3821291e+2, -736402.25, -885180.9, -70457.22, -0.37309548, -0.28998983, -708331.9, -102855.05, 0.0, 10.000116, 9.998196 
2.6593164e+3, 2.482044e+2, -731837.94, -945143.75, -33194.55, -0.21631503, -0.11797521, -726791.6, -219222.98, 0.0, 10.000067, 9.9970665 
2.6589265e+3, 2.5819498e+2, -809047.0, -972304.44, -80844.64, -0.024744472, -0.043302566, -775788.4, -366117.44, 0.0, 9.998951, 9.996819 
2.658533e+3, 2.681844e+2, -352891.8, -295983.9, -134610.61, -0.058612842, -0.2514587, -186852.83, 124916.586, 0.0, 9.999837, 10.00022 
2.658139e+3, 2.7817363e+2, -382585.2, -481179.53, -73203.414, -0.09879447, -0.61346394, -343627.3, -129761.68, 0.0, 9.999769, 9.998426 
2.6577473e+3, 2.8816682e+2, -207558.78, -321637.9, -6609.8013, -0.091044754, -0.37967363, -207177.1, -91239.96, 0.0, 10.00027, 9.998525 
2.657355e+3, 2.9816133e+2, -245720.95, -360264.7, 51330.566, -0.2293023, -0.06228433, -226084.47, -208084.48, 0.0, 9.999554, 9.998028 
2.6569638e+3, 3.0815285e+2, 146800.44, 204156.39, 135077.03, -0.5036671, -0.15597354, 313566.2, 313566.2, 0.0, 10.000497, 10.001039 
2.6565793e+3, 3.1814533e+2, -363070.13, -646716.75, -146060.89, -0.022551924, -0.19669743, -301306.5, -301306.5, 0.0, 9.999452, 9.995755 
2.674008e+3, 1.2869698e+2, -1854440.1, -1785491.5, 104263.87, -0.2761056, -0.29098552, -1710150.4, -31418.275, 0.062782034, 9.999124, 9.999737 
2.6736173e+3, 1.386913e+2, -1581371.4, -1873667.8, 137293.23, -0.3206488, -0.108631, -1526998.5, 53794.74, 0.039146993, 10.00137, 9.997553 
2.6732266e+3, 1.4867975e+2, -1347971.4, -1661474.8, 15997.279, -0.21305305, -0.25109735, -1347157.1, 135750.45, 0.018543638, 10.002238, 9.997816 
2.6728362e+3, 1.5866789e+2, -1232814.3, -1551390.3, -54039.137, -0.08288864, -0.5096084, -1223897.4, 161126.42, 0.005710664, 10.002138, 9.998057 
2.6724446e+3, 1.6866171e+2, -920026.7, -994238.56, -25065.41, -0.14795133, -0.38146585, -912354.0, 374727.3, 0.0008890518, 10.00221, 10.001069 
2.6720527e+3, 1.786561e+2, -1044287.94, -1321244.4, -11696.992, -0.2674799, -0.27720574, -1043794.8, 145338.36, 0.000037964888, 10.001917, 9.998382 
2.6716626e+3, 1.886454e+2, -931252.9, -1420892.5, -47829.793, -0.14958608, -0.28693065, -926624.44, 164618.6, 0.0000000057994387, 10.003046, 9.996395 
2.6712722e+3, 1.9863386e+2, -699908.5, -1248719.3, -71996.35, -0.034611844, -0.35534918, -690620.8, 302741.56, 0.0, 10.00377, 9.996644 
2.670878e+3, 2.0862551e+2, -654292.8, -827894.06, -64977.125, -0.23911433, -0.29518294, -632666.6, 262776.63, 0.0, 10.002091, 9.999555 
2.6704833e+3, 2.1861774e+2, -920926.25, -1003236.9, -45550.48, -0.5156486, -0.2907828, -900692.56, -103176.01, 0.0, 9.9998255, 9.998872 
2.6700926e+3, 2.2860919e+2, -608859.2, -627500.7, -61734.77, -0.42823648, -0.36265534, -555745.5, 143850.11, 0.0, 10.000662, 10.000302 
2.6697022e+3, 2.3860079e+2, -396674.88, -649974.2, -96653.16, -0.27442646, -0.47849613, -364007.34, 237666.42, 0.0, 10.002035, 9.998911 
2.6693103e+3, 2.485932e+2, -573146.2, -688586.56, -85225.74, -0.09145861, -0.3492023, -527934.1, -24181.451, 0.0, 10.000305, 9.998742 
2.668918e+3, 2.585856e+2, -849012.7, -825619.75, 42577.22, 0.043757617, -0.22791024, -793161.6, -387327.7, 0.0, 9.997849, 9.99838 
2.6685256e+3, 2.6857638e+2, -380494.16, -326770.8, 87219.09, -0.014063821, -0.3275812, -262370.66, 45550.43, 0.0, 9.999621, 10.000158 
2.668133e+3, 2.785667e+2, 9163.046, -243643.86, 63886.53, -0.087373875, -0.54651374, 24390.527, 234401.3, 0.0, 10.002149, 9.998921 
2.6677394e+3, 2.8855944e+2, -82463.875, -245001.08, 21728.299, -0.20582092, -0.3713655, -79609.33, 32478.172, 0.0, 10.001018, 9.99872 
2.6673448e+3, 2.9855323e+2, -292867.3, -333852.38, 97495.86, -0.44767204, -0.111775614, -213733.63, -199576.2, 0.0, 9.998902, 9.998551 
2.6669574e+3, 3.0854547e+2, -79503.48, 30243.72, 177799.25, -0.37948188, -0.10934978, 161444.52, 161444.52, 0.0, 9.999113, 10.0005665 
2.6665723e+3, 3.1853798e+2, -157189.66, -459954.66, -221438.81, 0.005136104, -0.071444206, -40333.81, -40333.81, 0.0, 10.000221, 9.996742 
2.6840028e+3, 1.2908736e+2, -1484259.3, -1610685.1, -16511.219, -0.08669872, -0.31609878, -1482138.5, 192768.84, 0.05267765, 10.001551, 9.999898 
2.6836115e+3, 1.3908438e+2, -1389416.3, -1775544.4, -95535.92, -0.33374816, 0.113733664, -1367071.8, 209870.42, 0.03242507, 10.002659, 9.997615 
2.683221e+3, 1.4907046e+2, -1386511.1, -1767713.0, -87147.44, -0.21469113, -0.24795707, -1367533.0, 111545.02, 0.015032841, 10.002308, 9.997043 
2.682832e+3, 1.5905467e+2, -1361647.9, -1674312.6, -27934.877, 0.058111127, -0.82373357, -1359171.8, 22059.254, 0.0044764117, 10.001506, 9.997512 
2.6824403e+3, 1.6905008e+2, -919894.25, -1021019.06, -24529.256, -0.04477092, -0.50190365, -914258.44, 369019.34, 0.00066900725, 10.0023575, 10.000813 
2.682048e+3, 1.7904754e+2, -944652.94, -1287043.1, -98913.59, -0.204876, -0.065723136, -918131.94, 267172.94, 0.000027210404, 10.00268, 9.99826 
2.6816586e+3, 1.8903707e+2, -992539.5, -1399973.8, -43159.023, -0.041589092, -0.084642366, -988017.9, 99394.73, 0.000000001728097, 10.002432, 9.9968405 
2.6812696e+3, 1.990252e+2, -1044390.0, -1382178.5, -35104.824, 0.1878543, -0.22740687, -1040780.3, -51245.94, 0.0, 10.001303, 9.99692 
2.6808727e+3, 2.0901705e+2, -712113.9, -826836.0, -87911.46, -0.18197562, -0.17632069, -664504.8, 227105.9, 0.0, 10.001585, 9.999801 
2.6804748e+3, 2.1900965e+2, -841122.2, -1002237.75, -68690.15, -0.62182486, -0.14558601, -815812.6, -22134.633, 0.0, 10.000574, 9.998531 
2.6800853e+3, 2.2899927e+2, -646804.44, -717185.6, -21019.584, -0.4305467, -0.36343786, -641004.8, 54769.652, 0.0, 10.000728, 9.999646 
2.679698e+3, 2.3898876e+2, -725500.4, -810325.4, -125267.4, -0.075146675, -0.64923453, -635660.3, -37788.04, 0.0, 9.999877, 9.998842 
2.6793042e+3, 2.4898227e+2, -449117.25, -362657.34, -202411.13, 0.04338864, -0.58220637, -198911.23, 301023.1, 0.0, 10.000153, 10.000959 
2.678909e+3, 2.5897667e+2, -667900.1, -655133.4, -34377.05, 0.09416419, -0.48694775, -626552.06, -224562.83, 0.0, 9.998855, 9.999032 
2.6785177e+3, 2.6896954e+2, -383642.94, -392758.16, 120930.78, -0.02503987, -0.3738126, -267183.9, 36875.39, 0.0, 9.999942, 9.999521 
2.678127e+3, 2.7896172e+2, -345654.38, -521225.2, 28627.7, -0.14891286, -0.35615474, -341104.4, -134968.13, 0.0, 10.000238, 9.997942 
2.6777312e+3, 2.889529e+2, -205336.8, -311292.84, -117353.414, -0.35195622, -0.32259458, -129557.32, -21327.424, 0.0, 10.000253, 9.99861 
2.6773348e+3, 2.9894432e+2, -448671.53, -505416.1, 15525.468, -0.574223, -0.29612443, -444701.5, -434379.6, 0.0, 9.998356, 9.997627 
2.676952e+3, 3.0893812e+2, -211847.66, -162229.03, 164193.4, -0.08221409, -0.046954665, -20981.201, -20981.201, 0.0, 9.99891, 9.99927 
2.6765656e+3, 3.1892878e+2, -58302.965, 167769.25, -117090.75, 0.06540163, -0.20612776, 217482.66, 217482.66, 0.0, 9.998684, 10.001721 
2.6939994e+3, 1.2947159e+2, -1613972.0, -1744236.6, -27245.584, 0.07727359, -0.53452456, -1608503.0, 62637.13, 0.0436191, 10.001075, 9.999087 
2.6936075e+3, 1.3946645e+2, -1405481.0, -1700023.0, -107843.5, -0.3197001, -0.31702867, -1370217.1, 202980.7, 0.026486209, 10.002245, 9.998298 
2.6932147e+3, 1.494581e+2, -1236521.0, -1375762.4, -121938.86, -0.38558128, -0.34769875, -1165727.6, 309549.4, 0.012009438, 10.001999, 9.999882 
2.6928228e+3, 1.5944865e+2, -1366537.5, -1616783.0, 15069.676, -0.31649756, -0.51853096, -1365633.3, 11733.394, 0.003455713, 10.001223, 9.998031 
2.692433e+3, 1.6944131e+2, -1073479.5, -1382563.9, 33460.273, -0.28086588, -0.31615782, -1069898.8, 209549.39, 0.00049606664, 10.002516, 9.998243 
2.6920432e+3, 1.7943479e+2, -849849.2, -1262505.1, -101983.625, -0.33204657, -0.07387087, -826020.94, 355500.97, 0.00001910138, 10.003389, 9.998084 
2.6916513e+3, 1.8942668e+2, -777488.0, -938322.3, -91153.51, -0.28610188, -0.083386034, -736349.06, 347250.63, 0.0000000002885943, 10.00233, 10.000055 
2.6912594e+3, 1.9941813e+2, -1008949.9, -1187728.0, 20038.162, -0.22043018, -0.16830508, -1006731.5, -21051.12, 0.0, 10.000721, 9.998534 
2.6908678e+3, 2.094088e+2, -719816.75, -923889.8, 12054.995, -0.13070197, -0.22157063, -719107.1, 168661.48, 0.0, 10.001877, 9.999009 
2.690475e+3, 2.1939962e+2, -528961.9, -927282.2, -25815.629, -0.1242754, -0.27770254, -527295.7, 262560.13, 0.0, 10.002976, 9.997887 
2.690082e+3, 2.2939004e+2, -615750.6, -827925.7, -68965.34, -0.20119487, -0.31071317, -595304.44, 96646.195, 0.0, 10.001426, 9.998577 
2.6896885e+3, 2.3938085e+2, -729245.06, -775391.06, -132475.9, -0.2608458, -0.37376365, -617847.9, -23806.611, 0.0, 9.999605, 9.999228 
2.689295e+3, 2.4937437e+2, -215107.3, -171157.13, -175698.25, -0.19860972, -0.3718045, -16065.038, 480033.97, 0.0, 10.001319, 10.001774 
2.6889014e+3, 2.5936824e+2, 34585.758, -240749.38, -93896.58, -0.1523746, -0.38129485, 63558.3, 461711.53, 0.0, 10.003216, 9.999805 
2.6885098e+3, 2.6936066e+2, -154583.7, -328071.2, -24423.994, -0.18080883, -0.32133842, -151210.8, 149016.77, 0.0, 10.001587, 9.999239 
2.6881185e+3, 2.7935266e+2, -452698.7, -570115.8, -78280.77, -0.2275164, -0.2835342, -413557.5, -211250.05, 0.0, 9.999341, 9.998073 
2.6877242e+3, 2.8934324e+2, -184467.16, -325078.63, -180232.66, -0.3518009, -0.3117244, -61313.06, 43091.08, 0.0, 10.000345, 9.998517 
2.6873294e+3, 2.993341e+2, 36414.992, -275366.16, -81818.14, -0.43454963, -0.32982096, 56581.45, 63080.395, 0.0, 10.001545, 9.997691 
2.6869482e+3, 3.0932766e+2, -87641.23, -183018.6, 35684.47, 0.31995755, -0.06071248, -75768.24, -75768.24, 0.0, 9.999965, 9.998676 
2.6865554e+3, 3.1931686e+2, 96211.016, 407136.25, -145678.61, -0.09643722, -0.34087342, 464725.0, 464725.0, 0.0, 9.998812, 10.003342 
2.7039942e+3, 1.2985994e+2, -1424826.3, -1688010.1, 133155.63, 0.08281056, -0.6027294, -1369210.1, 298125.16, 0.03554995, 10.0025015, 9.998819 
2.703603e+3, 1.3985287e+2, -1485763.3, -1679297.1, 29589.033, -0.18501145, -0.5144096, -1481340.5, 88071.31, 0.021269772, 10.001314, 9.9989395 
2.7032086e+3, 1.4984761e+2, -1079569.5, -1127058.3, -75090.29, -0.40776446, -0.36394167, -1024558.9, 446900.75, 0.009415533, 10.002261, 10.001523 
2.7028155e+3, 1.5984192e+2, -1150602.8, -1508916.0, -36892.43, -0.4905623, -0.2744868, -1146843.6, 226668.61, 0.0026134893, 10.002656, 9.998098 
2.7024266e+3, 1.6983223e+2, -1287185.8, -1677631.0, 54832.484, -0.39171174, -0.19165736, -1279631.4, -4010.4038, 0.0003600524, 10.001851, 9.996538 
2.7020383e+3, 1.7982252e+2, -1259119.6, -1448805.0, -37468.586, -0.29686856, -0.12793095, -1251986.6, -74256.84, 0.000012952271, 10.000559, 9.998158 
2.7016443e+3, 1.8981636e+2, -737995.3, -668909.94, -146340.58, -0.41709065, -0.11321625, -553090.5, 526693.3, 0.000000000007316074, 10.001587, 10.002237 
2.7012503e+3, 1.9981024e+2, -834546.7, -1036512.1, -115972.695, -0.46861583, -0.14318463, -781753.06, 200081.56, 0.0, 10.001659, 9.999133 
2.7008626e+3, 2.0980006e+2, -793155.56, -1030644.56, -59878.332, -0.04431104, -0.27122408, -778912.56, 105019.266, 0.0, 10.001711, 9.998353 
2.7004746e+3, 2.1978965e+2, -923340.2, -1226743.1, -90678.02, 0.37011856, -0.38794813, -898305.06, -112271.48, 0.0, 10.00083, 9.996848 
2.7000773e+3, 2.2978155e+2, -722366.94, -945042.5, -111682.05, -0.006970708, -0.21951842, -676005.7, 12113.862, 0.0, 10.001106, 9.9978485 
2.6996788e+3, 2.3977406e+2, -729320.44, -859096.56, -64369.523, -0.43842414, -0.04721124, -702808.9, -112610.11, 0.0, 10.000053, 9.998421 
2.699286e+3, 2.4976693e+2, -289837.06, -186687.7, -76044.21, -0.44091576, -0.10941693, -146378.39, 345881.88, 0.0, 10.000787, 10.001883 
2.698894e+3, 2.5975987e+2, -438348.78, -529356.75, -102665.37, -0.36072487, -0.2241838, -371554.97, 22764.818, 0.0, 10.00037, 9.999158 
2.6985022e+3, 2.6975134e+2, -327689.03, -422456.78, -116858.71, -0.33512202, -0.23735926, -248972.98, 47429.83, 0.0, 10.000575, 9.999007 
2.6981097e+3, 2.797425e+2, -528323.25, -653039.75, -97310.4, -0.30726337, -0.27278662, -475105.28, -276615.16, 0.0, 9.99919, 9.9975395 
2.6977175e+3, 2.8973302e+2, -203342.36, -326041.34, -105309.17, -0.28656352, -0.29535568, -142815.77, -42231.816, 0.0, 10.000358, 9.998436 
2.6973256e+3, 2.9972377e+2, -205430.6, -469058.38, -47493.83, -0.20853676, -0.30407652, -197135.38, -194459.17, 0.0, 10.000367, 9.996906 
2.696944e+3, 3.0971596e+2, -185868.39, -275695.97, -23622.047, 0.64653003, -0.14030583, -180035.25, -180035.25, 0.0, 9.999595, 9.9981785 
2.6965433e+3, 3.1970388e+2, -139319.44, 131706.16, 21250.494, -0.49735507, -0.50241053, 133362.23, 133362.23, 0.0, 9.998113, 10.001758 
2.7139863e+3, 1.3025425e+2, -1499050.6, -1649653.4, 50566.195, -0.31366023, -0.2881913, -1483647.9, 179827.13, 0.028414978, 10.001756, 9.999398 
2.713598e+3, 1.4024603e+2, -1604284.1, -1783650.5, 74292.22, -0.09467434, -0.369397, -1577509.5, -11948.569, 0.016713178, 10.00076, 9.998463 
2.7132043e+3, 1.5023929e+2, -1168951.0, -1290063.6, 5982.06, -0.347766, -0.27654833, -1168656.3, 298968.75, 0.0071980846, 10.002216, 10.000374 
2.712811e+3, 1.6023226e+2, -1143025.6, -1542839.9, -39308.355, -0.57671547, -0.22719951, -1139197.6, 230494.78, 0.0019202423, 10.002901, 9.997734 
2.712422e+3, 1.7022222e+2, -1280568.0, -1585137.1, 10224.661, -0.32290313, -0.22189283, -1280225.1, -8426.133, 0.00025324232, 10.001526, 9.997331 
2.712033e+3, 1.8021227e+2, -1404810.8, -1551977.3, 11028.514, -0.11845669, -0.22557415, -1403988.9, -230083.75, 0.000008369746, 9.999677, 9.997881 
2.71164e+3, 1.902047e+2, -889476.9, -946138.25, -74929.81, -0.24268562, -0.20978816, -837700.75, 238275.83, 0.0, 10.001415, 10.000425 
2.7112466e+3, 2.0019756e+2, -671010.5, -977146.25, -161628.47, -0.40389678, -0.19947247, -601472.1, 376570.1, 0.0, 10.00283, 9.998988 
2.7108553e+3, 2.1018901e+2, -676994.44, -865622.44, -154538.63, -0.24619849, -0.2368828, -590263.4, 289861.63, 0.0, 10.001988, 9.999392 
2.7104637e+3, 2.2018056e+2, -772149.9, -925661.56, -110787.664, -0.1070403, -0.27230704, -714126.8, 68080.414, 0.0, 10.0008135, 9.998942 
2.7100688e+3, 2.3017378e+2, -455655.66, -579442.1, -25056.969, -0.2685786, -0.17605604, -450775.97, 233498.1, 0.0, 10.001853, 10.000046 
2.7096733e+3, 2.4016684e+2, -299020.25, -600057.6, 26006.65, -0.4637217, -0.09223726, -296790.06, 289552.38, 0.0, 10.002698, 9.998934 
2.7092808e+3, 2.5015742e+2, -446190.06, -497070.3, -80855.24, -0.31831512, -0.22645983, -386867.16, 101562.51, 0.0, 10.000673, 9.999828 
2.708888e+3, 2.6014814e+2, -720030.6, -728753.9, -101141.94, -0.18444462, -0.3698428, -623156.3, -232640.97, 0.0, 9.998622, 9.998627 
2.7084953e+3, 2.701395e+2, -339339.72, -429741.56, -68956.22, -0.30334967, -0.378033, -302090.16, -9490.414, 0.0, 10.000408, 9.999068 
2.7081028e+3, 2.8013092e+2, -9795.944, -295067.22, -79842.76, -0.39971507, -0.39944616, 11030.3125, 205714.38, 0.0, 10.002212, 9.99853 
2.707711e+3, 2.9012197e+2, 78503.05, -88535.836, -79061.96, -0.30849653, -0.45020142, 109989.22, 206758.11, 0.0, 10.001838, 9.999368 
2.7073193e+3, 3.0011323e+2, -67548.14, -359407.53, 444.00876, -0.18664794, -0.46278656, -67547.46, -67547.46, 0.0, 10.001018, 9.997363 
2.706935e+3, 3.1010553e+2, -87882.375, -335877.28, -8464.69, 0.50419825, -0.2052557, -87593.79, -87593.79, 0.0, 10.000611, 9.997351 
2.7065346e+3, 3.200942e+2, 54063.836, 215775.52, 72107.29, -0.54354084, -0.38930595, 243257.7, 243257.7, 0.0, 9.999313, 10.001809 
2.7239802e+3, 1.306463e+2, -1346950.0, -1579513.6, -11803.392, -0.4008802, -0.2035735, -1346352.4, 313285.34, 0.022191128, 10.002679, 9.999536 
2.7235934e+3, 1.4063863e+2, -1307354.5, -1646450.9, -45163.453, 0.021809649, -0.1987615, -1301442.4, 260275.55, 0.012784308, 10.002759, 9.998488 
2.7232e+3, 1.5063065e+2, -1161819.4, -1344539.3, -4624.589, -0.26182297, -0.21269006, -1161702.4, 302090.94, 0.00532732, 10.002479, 9.999906 
2.7228066e+3, 1.6062239e+2, -1234395.9, -1569186.9, -12149.862, -0.4800327, -0.23619951, -1233955.5, 131916.45, 0.0013580795, 10.002208, 9.997901 
2.7224177e+3, 1.7061284e+2, -930772.0, -1314258.3, -466.75403, -0.21492691, -0.2599504, -930771.44, 337198.47, 0.00016970174, 10.003526, 9.998227 
2.7220285e+3, 1.8060324e+2, -888906.1, -1361921.1, 21883.264, 0.062294163, -0.2709758, -887895.94, 282172.53, 0.0000049540654, 10.003491, 9.997355 
2.7216357e+3, 1.9059432e+2, -961261.8, -1164885.3, 20497.875, -0.06529761, -0.2604825, -959218.9, 112937.984, 0.0, 10.001715, 9.998763 
2.7212426e+3, 2.0058586e+2, -1203573.0, -1287105.8, -62571.68, -0.20808533, -0.23608498, -1170108.8, -195869.05, 0.0, 9.999466, 9.998453 
2.7208477e+3, 2.1057874e+2, -931969.9, -871477.56, -115345.89, -0.36355534, -0.19447684, -782478.1, 93831.44, 0.0, 9.999837, 10.000332 
2.7204525e+3, 2.2057204e+2, -929282.2, -874525.44, -69414.734, -0.46769708, -0.15429384, -827284.94, -48910.777, 0.0, 9.999262, 10.000039 
2.7200606e+3, 2.3056585e+2, -573026.0, -414459.94, -29679.582, -0.4545158, -0.18161571, -409086.72, 271342.16, 0.0, 10.000158, 10.001977 
2.7196687e+3, 2.4055907e+2, -767858.94, -875825.7, -94862.23, -0.365969, -0.22049046, -712695.4, -130205.73, 0.0, 9.999824, 9.998395 
2.7192754e+3, 2.5054777e+2, -659427.75, -814086.3, -157561.47, -0.11969472, -0.40484583, -561242.25, -76643.23, 0.0, 10.00022, 9.9978285 
2.718882e+3, 2.6053655e+2, -743688.5, -904048.4, -6559.6816, 0.07200234, -0.5543337, -743420.6, -356712.3, 0.0, 9.99925, 9.997135 
2.718489e+3, 2.705279e+2, -364902.63, -435750.9, 80653.45, -0.22441743, -0.54009694, -312236.78, -23442.893, 0.0, 10.000299, 9.999057 
2.7180964e+3, 2.805196e+2, -293911.56, -436382.38, -18339.535, -0.4749465, -0.5305104, -291588.7, -100713.875, 0.0, 10.000365, 9.998454 
2.7177045e+3, 2.905109e+2, 15951.201, -10682.495, -100730.81, -0.38135308, -0.6493091, 104241.62, 197195.1, 0.0, 10.000989, 10.000281 
2.7173114e+3, 3.0050275e+2, -268565.94, -530007.1, -33044.082, -0.3157147, -0.66212195, -264454.1, -264454.1, 0.0, 10.000066, 9.996628 
2.7169245e+3, 3.104958e+2, -242130.72, -520074.88, -25179.566, 0.14197236, -0.26130652, -239868.06, -239868.06, 0.0, 10.000125, 9.996246 
2.7165294e+3, 3.2048458e+2, -113723.01, 184172.94, 33989.785, -0.29090554, -0.39569604, 188001.94, 188001.94, 0.0, 9.998153, 10.002073 
2.733976e+3, 1.3103504e+2, -1536204.3, -1775193.9, -49934.184, -0.42339703, -0.26143673, -1526190.6, 129643.38, 0.016854065, 10.001934, 9.998461 
2.7335873e+3, 1.4103012e+2, -1350528.4, -1646961.6, -59931.645, -0.17798406, 0.036034238, -1338870.1, 219019.56, 0.009467284, 10.002436, 9.998611 
2.7331948e+3, 1.5102106e+2, -1110479.4, -1179099.5, -10756.155, -0.2698009, -0.18790078, -1108832.9, 351136.84, 0.0037924994, 10.00226, 10.001126 
2.732803e+3, 1.6101195e+2, -1217798.4, -1457282.3, 60712.094, -0.3669957, -0.4034767, -1203286.5, 158765.44, 0.0009170214, 10.001906, 9.998794 
2.7324137e+3, 1.7100444e+2, -762390.0, -1140195.4, 126007.086, -0.3222089, -0.29696918, -724220.0, 539909.6, 0.0001065257, 10.004318, 9.999025 
2.7320233e+3, 1.8099698e+2, -573420.0, -1138808.3, 5806.5977, -0.26943356, -0.15705997, -573360.4, 592846.94, 0.0000025959862, 10.005357, 9.997978 
2.7316296e+3, 1.9098827e+2, -935684.2, -1147481.8, -58810.867, -0.13499525, -0.13853699, -920449.7, 147844.39, 0.0, 10.00182, 9.998865 
2.7312356e+3, 2.0097947e+2, -1367233.6, -1344509.6, -19186.37, -0.06608186, -0.14184968, -1333573.4, -363192.66, 0.0, 9.998204, 9.998667 
2.7308416e+3, 2.1097074e+2, -1070386.8, -969958.0, -140.03436, -0.12025783, -0.23439392, -969957.8, -97493.375, 0.0, 9.998974, 10.000089 
2.7304476e+3, 2.209625e+2, -879079.75, -926512.56, -13581.631, -0.22786634, -0.29307827, -875466.1, -100922.59, 0.0, 9.999861, 9.999395 
2.7300543e+3, 2.3095456e+2, -804826.4, -697400.3, -78904.67, -0.29844466, -0.35962012, -655661.6, 20957.979, 0.0, 9.99923, 10.000503 
2.729661e+3, 2.4094729e+2, -801733.1, -720924.1, -161528.95, -0.33747414, -0.38310614, -594823.0, -16134.597, 0.0, 9.998772, 9.999967 
2.7292675e+3, 2.5094074e+2, -323032.66, -328301.13, -62993.13, -0.2504204, -0.358372, -262618.72, 218130.97, 0.0, 10.001028, 10.000826 
2.728874e+3, 2.609335e+2, -141772.06, -466157.63, 151008.44, -0.1736666, -0.3321516, -82356.98, 300462.5, 0.0, 10.002646, 9.998521 
2.7284825e+3, 2.709244e+2, -296134.16, -483336.16, 188180.2, -0.24350579, -0.31343102, -179561.58, 105352.516, 0.0, 10.001033, 9.998423 
2.728091e+3, 2.809151e+2, -424403.75, -541062.94, 111385.125, -0.314024, -0.31024638, -356999.56, -169991.42, 0.0, 9.99948, 9.998202 
2.727698e+3, 2.9090625e+2, -81588.99, -166087.81, -3292.958, -0.3320969, -0.34898528, -81460.85, 7628.201, 0.0, 10.000612, 9.999479 
2.727305e+3, 3.0089742e+2, -7370.9204, -321604.94, -13059.411, -0.34273198, -0.3669227, -6829.112, -6829.112, 0.0, 10.001381, 9.997444 
2.7269176e+3, 3.1088677e+2, -107793.7, -342887.6, 48445.477, 0.14216278, -0.42682022, -98201.945, -98201.945, 0.0, 10.0004425, 9.997364 
2.7265206e+3, 3.2088e+2, -112179.6, 138862.47, 16983.016, -0.25771365, -0.14111629, 140006.16, 140006.16, 0.0, 9.9980955, 10.001866 
2.743973e+3, 1.3142626e+2, -1336652.5, -1781159.1, 144801.5, -0.23062775, -0.29256824, -1293643.8, 358354.7, 0.012358498, 10.003646, 9.997616 
2.7435815e+3, 1.4142017e+2, -1173924.3, -1567158.4, 31207.092, -0.30843145, 0.0023760535, -1171463.0, 382604.72, 0.0067449147, 10.003629, 9.998572 
2.7431902e+3, 1.5141106e+2, -922496.5, -1072596.1, -40176.26, -0.25826356, -0.24140699, -912419.3, 543728.9, 0.0025850076, 10.003443, 10.001284 
2.7427995e+3, 1.6140229e+2, -1081009.3, -1324802.3, -11560.181, -0.19124635, -0.45233545, -1080462.3, 277763.9, 0.0005889778, 10.002528, 9.999391 
2.7424088e+3, 1.7139626e+2, -1130160.9, -1242003.1, 83220.27, -0.3608465, -0.2946911, -1085818.5, 174470.31, 0.00006228534, 10.001403, 9.999745 
2.7420175e+3, 1.8139006e+2, -1270138.1, -1436038.0, -103129.57, -0.42932516, -0.09105576, -1220738.5, -58385.45, 0.0000011486238, 10.000412, 9.998317 
2.7416232e+3, 1.913817e+2, -981799.3, -1114121.3, -197851.44, -0.1293847, -0.10095469, -839339.9, 225095.55, 0.0, 10.001311, 9.999305 
2.741229e+3, 2.0137306e+2, -989876.56, -1199365.8, -46509.316, 0.14268686, -0.113385916, -980015.1, -13495.05, 0.0, 10.0010195, 9.998294 
2.7408358e+3, 2.1136323e+2, -803084.9, -918062.25, -3069.3118, 0.12017255, -0.27346814, -803003.0, 65612.234, 0.0, 10.00113, 9.999409 
2.7404428e+3, 2.213534e+2, -940838.56, -1111629.3, -46588.87, 0.07139358, -0.40310735, -928956.5, -158246.06, 0.0, 10.000154, 9.997976 
2.7400476e+3, 2.3134384e+2, -883740.75, -895135.44, -76175.695, -0.11387071, -0.5061189, -813049.6, -140243.28, 0.0, 9.999447, 9.999004 
2.7396524e+3, 2.4133629e+2, -827770.75, -632969.44, -40228.78, -0.2879637, -0.4770652, -624988.7, -50107.21, 0.0, 9.998212, 10.000841 
2.7392584e+3, 2.5133476e+2, -255669.05, 73708.88, -17023.205, -0.42472902, -0.24905872, 74586.36, 551477.94, 0.0, 9.999956, 10.004069 
2.7388656e+3, 2.6133212e+2, -457567.8, -598874.6, 18058.682, -0.47559053, -0.0062969695, -455296.44, -76381.086, 0.0, 10.000516, 9.998601 
2.7384752e+3, 2.7132252e+2, -473497.5, -659786.75, 13179.625, -0.26131117, -0.0037717102, -472569.7, -191549.95, 0.0, 10.000282, 9.997522 
2.738085e+3, 2.813126e+2, -621098.25, -808077.3, 44698.01, -0.093382, 0.030000595, -610962.5, -427837.8, 0.0, 9.999017, 9.996556 
2.737692e+3, 2.9130402e+2, -222048.48, -372924.7, 29801.004, -0.233998, 0.12270309, -216375.5, -131169.95, 0.0, 10.000374, 9.998122 
2.7372992e+3, 3.0129415e+2, -186476.33, -390262.56, -14520.295, -0.3212419, 0.091773234, -185446.92, -185446.92, 0.0, 10.000222, 9.997508 
2.7369112e+3, 3.1127802e+2, -106950.73, -105332.234, -2970.3936, 0.24541825, -0.71117985, -103062.83, -103062.83, 0.0, 9.999593, 9.99932 
2.7365083e+3, 3.2127902e+2, -374531.4, -127462.42, -190243.44, -0.517271, 0.23625773, -24163.64, -24163.64, 0.0, 9.997142, 10.000422 
2.7539718e+3, 1.3181947e+2, -1489131.5, -1924797.6, 132170.5, -0.08063864, -0.32485616, -1452170.0, 195960.83, 0.008685325, 10.003005, 9.9969015 
2.753575e+3, 1.418077e+2, -1355243.3, -1847798.0, 69356.55, -0.63277936, -0.5203243, -1345663.5, 204594.89, 0.004592608, 10.003265, 9.9967985 
2.7531853e+3, 1.518005e+2, -1077522.5, -1389389.6, -18795.738, -0.37963244, -0.3651765, -1076393.9, 375935.72, 0.0016782222, 10.003456, 9.999087 
2.7527955e+3, 1.6179357e+2, -1092894.9, -1325165.4, -76451.2, -0.18409242, -0.24186261, -1069989.9, 284406.88, 0.0003582281, 10.002454, 9.9994135 
2.7524027e+3, 1.7178717e+2, -1236545.8, -1170998.5, -9276.475, -0.32208946, -0.21354425, -1169711.0, 86749.67, 0.000033741435, 10.000161, 10.000821 
2.7520096e+3, 1.8178032e+2, -1440650.9, -1371149.0, -86479.914, -0.42175913, -0.18491882, -1312699.0, -154171.64, 0.00000040337267, 9.998593, 9.999633 
2.7516168e+3, 1.9177133e+2, -873634.75, -931833.7, -88670.24, -0.15530662, -0.3752903, -809411.2, 251199.14, 0.0, 10.001466, 10.000492 
2.7512237e+3, 2.0176302e+2, -630460.75, -1054472.4, -23438.982, 0.011543665, -0.41570055, -629169.0, 333521.44, 0.0, 10.003555, 9.998081 
2.7508286e+3, 2.117556e+2, -590723.2, -952455.56, -22131.35, -0.12882221, -0.22782929, -589374.2, 275398.94, 0.0, 10.003097, 9.998269 
2.750434e+3, 2.2174796e+2, -574148.06, -798468.25, -92007.88, -0.2640192, -0.09768095, -541238.06, 225616.4, 0.0, 10.0020275, 9.999229 
2.7500385e+3, 2.3173971e+2, -581281.06, -561731.3, -44276.547, -0.2881028, -0.2208412, -526163.5, 142768.38, 0.0, 10.000649, 10.000754 
2.749644e+3, 2.417321e+2, -672900.5, -631517.2, 61824.03, -0.3516411, -0.26974368, -587014.1, -16010.38, 0.0, 9.999491, 10.000255 
2.7492508e+3, 2.5172654e+2, -516783.72, -351105.25, -44008.215, -0.42043614, -0.1884196, -340141.16, 132916.75, 0.0, 9.9993925, 10.001456 
2.7488583e+3, 2.617208e+2, -603566.56, -686282.7, -147973.88, -0.45887733, -0.07088525, -491279.7, -116163.66, 0.0, 9.99949, 9.998505 
2.748468e+3, 2.7171168e+2, -403311.94, -575938.2, -138283.67, -0.2924526, -0.058538973, -326614.84, -49401.473, 0.0, 10.000458, 9.998057 
2.7480775e+3, 2.8170285e+2, -193342.77, -406387.8, -69988.01, -0.15663317, -0.010406896, -172407.97, 6897.363, 0.0, 10.001028, 9.99835 
2.7476856e+3, 2.9169556e+2, -30228.363, -116504.7, 6734.257, -0.21889955, 0.070914276, -29705.889, 51665.617, 0.0, 10.000938, 9.999643 
2.7472922e+3, 3.016868e+2, -74847.63, -219729.27, -6432.3877, -0.30964944, 0.035838634, -74562.61, -74562.61, 0.0, 10.000361, 9.998649 
2.7469e+3, 3.1167245e+2, -135013.08, -93016.56, -77984.27, -0.021040732, -0.6124891, -33252.99, -33252.99, 0.0, 9.999128, 9.999714 
2.7465004e+3, 3.2167464e+2, -1443.4352, 31286.586, -195175.78, -0.42883506, 0.4436737, 210782.25, 210782.25, 0.0, 9.999575, 10.000379 
2.763968e+3, 1.3221237e+2, -1182495.9, -1809882.9, 1486.3334, -0.10635661, -0.31850004, -1182492.4, 461788.4, 0.005822727, 10.005173, 9.99669 
2.7635717e+3, 1.4219892e+2, -1273900.5, -1834599.4, -31136.344, -0.55363303, -0.62941766, -1272176.8, 274245.78, 0.002969682, 10.003918, 9.9965925 
2.763181e+3, 1.521921e+2, -1108531.1, -1480304.9, 40937.676, -0.39750242, -0.38390428, -1104076.8, 344415.22, 0.0010279784, 10.003573, 9.998409 
2.7627903e+3, 1.6218567e+2, -1053299.8, -1296894.1, 32996.824, -0.18749149, -0.1507444, -1048909.3, 301647.47, 0.0002033788, 10.002634, 9.9995575 
2.7623963e+3, 1.7217891e+2, -1045677.7, -1020672.75, 9799.444, -0.22154438, -0.18941626, -1017290.0, 235332.33, 0.000016580547, 10.001191, 10.001382 
2.762003e+3, 1.8217163e+2, -1205813.6, -1174818.1, 10451.17, -0.23859927, -0.2589154, -1171623.5, -16932.598, 0.00000009587778, 9.999894, 10.000348 
2.761611e+3, 1.9216216e+2, -855791.06, -834958.9, -5019.387, -0.11002845, -0.57597315, -833812.56, 222962.66, 0.0, 10.001229, 10.001276 
2.7612182e+3, 2.021538e+2, -934225.25, -1274111.5, -11813.968, -0.05523227, -0.63789976, -933815.1, 25040.332, 0.0, 10.001818, 9.997412 
2.760822e+3, 2.121483e+2, -857009.75, -1157893.1, -21453.35, -0.30601755, -0.19593091, -855487.8, 5440.3164, 0.0, 10.001678, 9.997502 
2.7604258e+3, 2.2214282e+2, -732358.6, -782454.1, -71601.47, -0.47015294, 0.17056498, -681550.2, 81443.98, 0.0, 10.000678, 9.999957 
2.7600303e+3, 2.321362e+2, -390656.25, -282001.7, -111497.71, -0.4198182, 0.04557107, -212299.98, 452750.38, 0.0, 10.001243, 10.002358 
2.7596357e+3, 2.4212849e+2, -729993.44, -923691.75, -11805.966, -0.3562265, -0.032975283, -729276.5, -162156.45, 0.0, 10.000376, 9.997785 
2.7592435e+3, 2.521176e+2, -677271.1, -829613.44, -44613.74, -0.34995288, -0.17399228, -665167.56, -195935.36, 0.0, 10.000099, 9.997783 
2.7588516e+3, 2.6210743e+2, -731078.7, -871291.94, -58847.14, -0.33788246, -0.21820872, -709654.3, -338317.0, 0.0, 9.999244, 9.99735 
2.7584606e+3, 2.7209884e+2, -426148.72, -487446.56, -53773.89, -0.31495053, -0.2107439, -394902.66, -121477.46, 0.0, 10.000019, 9.998835 
2.7580696e+3, 2.8209108e+2, -322578.6, -306743.47, -29423.256, -0.26132488, -0.15225647, -284191.13, -108689.086, 0.0, 9.999561, 9.999731 
2.7576783e+3, 2.9208493e+2, -81721.016, 103669.68, -8107.54, -0.23309018, -0.18932785, 104023.56, 181577.89, 0.0, 9.999591, 10.001785 
2.7572843e+3, 3.0207828e+2, -352325.03, -353691.3, -88023.33, -0.33139768, -0.15449211, -264982.22, -264982.22, 0.0, 9.998592, 9.998553 
2.7568874e+3, 3.120689e+2, -269298.16, -205889.72, -154314.45, -0.44064483, -0.28638172, -80056.305, -80056.305, 0.0, 9.998545, 9.999168 
2.7564946e+3, 3.2206455e+2, -133664.97, 66398.42, 37930.97, -0.23659536, 0.09185394, 73348.49, 73348.49, 0.0, 9.998529, 10.001032 
2.773962e+3, 1.3260531e+2, -1300746.9, -1857114.5, -139623.39, -0.5376692, -0.024907159, -1267673.6, 372777.22, 0.0036892197, 10.004451, 9.996638 
2.773573e+3, 1.4259504e+2, -1230356.6, -1601647.0, -49904.113, -0.09861304, -0.12808053, -1223766.1, 318787.97, 0.0018042208, 10.003383, 9.998408 
2.7731764e+3, 1.5258685e+2, -979473.6, -1138758.0, 75529.98, -0.45071012, -0.274098, -949354.0, 495272.3, 0.00058557204, 10.003298, 10.000856 
2.772782e+3, 1.6257921e+2, -1055390.8, -1287801.4, 45839.7, -0.5510238, -0.3149203, -1046676.25, 300019.4, 0.00010501939, 10.002583, 9.999638 
2.772391e+3, 1.7257242e+2, -1035406.0, -1087861.1, 24898.07, -0.17148732, -0.2965582, -1025470.06, 223291.61, 0.0000068884756, 10.001568, 10.00074 
2.771999e+3, 1.825655e+2, -1136434.0, -1193850.9, 47143.258, 0.028960979, -0.26065764, -1109945.9, 40882.707, 0.00000000965895, 10.000612, 9.999858 
2.7716053e+3, 1.9255707e+2, -895919.2, -919790.5, 60269.47, -0.0792448, -0.4100123, -846414.94, 206493.1, 0.0, 10.001218, 10.000708 
2.7712116e+3, 2.0254886e+2, -942912.75, -1174756.4, -9385.734, -0.18103883, -0.4441, -942533.44, 12455.499, 0.0, 10.001309, 9.99832 
2.770817e+3, 2.1254131e+2, -863080.25, -1036680.94, 28471.922, -0.17675821, -0.30247223, -858529.9, -1456.1709, 0.0, 10.001111, 9.998604 
2.7704218e+3, 2.2253431e+2, -657778.44, -799259.7, 9645.089, -0.23402685, -0.12450448, -657123.94, 102025.96, 0.0, 10.001352, 9.999533 
2.7700257e+3, 2.3252761e+2, -262987.2, -400223.22, -68435.2, -0.34045506, -0.09597395, -234693.86, 426519.16, 0.0, 10.002811, 10.000842 
2.7696303e+3, 2.4252015e+2, -273399.8, -691803.44, -76242.81, -0.4231862, -0.05237721, -259939.61, 303345.84, 0.0, 10.003398, 9.997922 
2.7692372e+3, 2.5251016e+2, -358085.66, -688553.1, -32813.7, -0.4157784, -0.08745995, -354858.94, 110530.86, 0.0, 10.002277, 9.997743 
2.7688447e+3, 2.6250044e+2, -351272.38, -561026.7, 49505.832, -0.3787086, -0.10041242, -340175.22, 27314.033, 0.0, 10.001198, 9.998562 
2.768454e+3, 2.724917e+2, -243575.2, -304710.3, 87936.53, -0.28022778, -0.17285904, -181044.92, 88528.14, 0.0, 10.000753, 9.999794 
2.7680627e+3, 2.8248394e+2, -260282.38, -261721.86, 64541.64, -0.20432225, -0.15806356, -196456.45, -24808.988, 0.0, 9.999802, 9.999938 
2.76767e+3, 2.9247814e+2, -336406.06, -130677.65, -42839.2, -0.20423925, -0.061693862, -122113.664, -48411.2, 0.0, 9.998139, 10.00094 
2.7672753e+3, 3.02471e+2, -490583.7, -400818.4, -142633.58, -0.30600622, -0.029895421, -296172.5, -296172.5, 0.0, 9.99739, 9.99883 
2.7668795e+3, 3.1245998e+2, -112639.22, -119617.62, -164757.84, -0.3808185, -0.34502584, 48666.367, 48666.367, 0.0, 9.99943, 9.999371 
2.7664867e+3, 3.2245323e+2, -24435.346, 52200.4, -74179.65, -0.20326473, -0.18022135, 97374.32, 97374.32, 0.0, 9.999363, 10.000564 
2.783959e+3, 1.3299859e+2, -1333760.0, -1720842.5, -14119.117, -0.4904534, 0.096462026, -1333245.8, 303362.0, 0.0021709546, 10.003438, 9.998109 
2.7835712e+3, 1.4298995e+2, -1217414.4, -1468863.8, 68235.805, 0.17115368, 0.05938059, -1200090.8, 338597.03, 0.0010072378, 10.002765, 9.999692 
2.783172e+3, 1.5298113e+2, -1097864.3, -1103751.9, 32562.545, -0.4090772, -0.24034567, -1068112.8, 372650.75, 0.00030058212, 10.001937, 10.00184 
2.782776e+3, 1.6297284e+2, -1205366.8, -1373957.9, -62480.773, -0.6079949, -0.39936197, -1184735.8, 158100.8, 0.000046417692, 10.001602, 9.999531 
2.7823862e+3, 1.7296582e+2, -867463.94, -1076781.8, -91488.63, -0.08566081, -0.36735916, -833113.3, 411791.03, 0.0000020738605, 10.003017, 10.000135 
2.781995e+3, 1.8295902e+2, -857333.06, -1164191.5, -34006.12, 0.219233, -0.24668184, -853609.7, 293362.34, 0.00000000000031198744, 10.002981, 9.99892 
2.7815995e+3, 1.9295178e+2, -877332.56, -1004410.44, -65810.29, -0.035681218, -0.21438362, -849393.7, 199652.77, 0.0, 10.001782, 9.999832 
2.7812052e+3, 2.0294403e+2, -1009424.9, -1135617.4, -122552.11, -0.1559657, -0.18441023, -934680.06, 16444.611, 0.0, 10.000622, 9.998906 
2.7808124e+3, 2.129346e+2, -787783.0, -858828.56, -93101.52, 0.021391938, -0.3687887, -723657.56, 129560.33, 0.0, 10.001077, 9.999833 
2.7804184e+3, 2.2292595e+2, -848648.6, -1040405.56, -30404.172, 0.08284529, -0.38691097, -843943.3, -88638.48, 0.0, 10.000725, 9.998167 
2.7800217e+3, 2.3291858e+2, -595401.94, -760647.44, -62263.863, -0.20860796, -0.27856526, -574567.9, 82812.75, 0.0, 10.001434, 9.998998 
2.7796257e+3, 2.429113e+2, -620294.0, -887592.1, -85063.43, -0.4177781, -0.092622966, -595520.06, -36063.86, 0.0, 10.001236, 9.997608 
2.779231e+3, 2.5290325e+2, -432948.34, -637370.3, -75779.414, -0.45754927, -0.0041164537, -407920.94, 53619.617, 0.0, 10.001501, 9.99844 
2.778838e+3, 2.6289502e+2, -442781.2, -531812.56, 31131.389, -0.3966691, 0.07346768, -432975.5, -69353.05, 0.0, 10.000415, 9.999085 
2.7784476e+3, 2.7288613e+2, -335091.1, -242025.45, 51219.285, -0.21570714, -0.1293482, -219357.7, 46344.61, 0.0, 9.999772, 10.000642 
2.778056e+3, 2.8287837e+2, -591891.44, -601451.7, -9371.749, -0.09810586, -0.10768231, -586151.1, -418375.16, 0.0, 9.998434, 9.998237 
2.7776608e+3, 2.9287258e+2, -505825.56, -418732.28, -98419.68, -0.16135104, 0.15799169, -354655.78, -284815.4, 0.0, 9.998023, 9.998944 
2.7772653e+3, 3.02864e+2, -567899.1, -484467.38, -74959.7, -0.2774241, 0.19442448, -440397.63, -440397.63, 0.0, 9.997248, 9.998278 
2.7768734e+3, 3.1284806e+2, -204804.4, -92507.086, -72907.81, -0.14846687, -0.6820351, -56632.81, -56632.81, 0.0, 9.998651, 9.999882 
2.7764764e+3, 3.228432e+2, -368595.03, -284320.6, -227489.34, -0.41773605, -0.27457103, -95098.89, -95098.89, 0.0, 9.997964, 9.998897 
2.7939585e+3, 1.3339166e+2, -1217226.5, -1262564.0, -23676.287, -0.18096049, -0.043353233, -1207116.6, 425634.2, 0.0011673695, 10.002612, 10.001618 
2.7935636e+3, 1.433835e+2, -1436367.0, -1729818.5, 70763.66, -0.12046933, -0.178064, -1420194.3, 114625.055, 0.00050489604, 10.002003, 9.9982395 
2.7931678e+3, 1.5337461e+2, -1355959.9, -1449094.1, 22285.02, -0.2567272, -0.2848728, -1350902.3, 86003.95, 0.00013439951, 10.001183, 9.999803 
2.7927735e+3, 1.6336617e+2, -1315556.0, -1489510.0, -22147.414, -0.30518177, -0.31189263, -1312780.5, 26207.191, 0.000016423304, 10.001149, 9.998942 
2.7923808e+3, 1.7335811e+2, -815655.2, -1085414.4, -6546.9824, -0.23711337, -0.35128766, -815496.4, 425567.88, 0.0000003300107, 10.003538, 9.999816 
2.7919877e+3, 1.8335071e+2, -780672.7, -1268755.4, -108792.086, -0.18490668, -0.21617985, -757521.44, 385618.7, 0.0, 10.004092, 9.997678 
2.7915934e+3, 1.9334352e+2, -934039.5, -1210284.4, -165369.13, -0.115466036, -0.016272066, -856697.9, 188525.66, 0.0, 10.002129, 9.998282 
2.7911994e+3, 2.0333639e+2, -884873.7, -920368.3, -185109.3, -0.07255739, 0.11511811, -716662.94, 230635.94, 0.0, 10.0008135, 10.000277 
2.7908063e+3, 2.1332851e+2, -615609.06, -600780.6, -106789.77, 0.0037238856, -0.06678061, -501148.0, 348221.03, 0.0, 10.001498, 10.001415 
2.7904117e+3, 2.2332022e+2, -657895.06, -896352.44, -79211.42, -0.021291977, -0.15665135, -633980.7, 117465.74, 0.0, 10.001736, 9.998677 
2.790015e+3, 2.3331119e+2, -654020.94, -807781.75, -73953.38, -0.24557096, -0.20281987, -624225.7, 29311.049, 0.0, 10.001023, 9.9988985 
2.7896196e+3, 2.4330288e+2, -585436.75, -746817.56, -44722.188, -0.39854878, -0.15163454, -573872.0, -18252.297, 0.0, 10.000855, 9.998781 
2.7892262e+3, 2.53295e+2, -288765.25, -468002.94, -463.2848, -0.3676052, -0.12178297, -288764.06, 168933.88, 0.0, 10.001941, 9.999459 
2.7888325e+3, 2.6328713e+2, -192720.11, -339704.56, 13234.223, -0.33464023, -0.09201021, -191538.03, 168235.19, 0.0, 10.001717, 9.99979 
2.788439e+3, 2.732788e+2, -364979.03, -279922.94, -17728.56, -0.274361, -0.2138145, -276375.66, -14528.48, 0.0, 9.999545, 10.000537 
2.788046e+3, 2.8327084e+2, -560494.3, -580901.56, -8841.118, -0.18505996, -0.20113136, -557196.9, -393272.53, 0.0, 9.998563, 9.99831 
2.7876532e+3, 2.932633e+2, -182330.55, -312907.72, -25696.162, -0.12693575, -0.057965536, -177455.8, -111445.95, 0.0, 10.000385, 9.99855 
2.787258e+3, 3.0325502e+2, 63147.566, -98932.66, 6834.2407, -0.228209, 0.012562842, 63435.227, 63435.227, 0.0, 10.001071, 9.999123 
2.786864e+3, 3.132446e+2, -10163.984, 33671.66, -4815.5566, -0.25704768, -0.32792005, 34194.44, 34194.44, 0.0, 9.999644, 10.00037 
2.7864686e+3, 3.2323653e+2, -342562.8, -533832.75, -166185.13, -0.31353065, -0.13584422, -246459.55, -246459.55, 0.0, 9.999032, 9.996749 
2.8039548e+3, 1.3378406e+2, -1255619.9, -1195295.1, -100159.305, -0.0012831799, -0.22137895, -1120855.1, 508046.0, 0.0005664125, 10.001839, 10.002493 
2.8035578e+3, 1.4377728e+2, -1412668.3, -1781382.4, -112540.7, -0.16311698, -0.25032547, -1381032.4, 149923.84, 0.00022570654, 10.002428, 9.997662 
2.8031626e+3, 1.5376857e+2, -1255026.9, -1511173.1, -53153.52, -0.15408117, -0.26511815, -1244434.9, 188611.3, 0.00005282333, 10.002336, 9.99881 
2.8027692e+3, 1.6376002e+2, -1182221.4, -1451753.8, 83987.55, -0.1352331, -0.23206748, -1158192.6, 176939.33, 0.000004777361, 10.002197, 9.998655 
2.802376e+3, 1.7375137e+2, -910333.4, -1158333.1, 93460.44, -0.32649964, -0.3169198, -879056.6, 358157.25, 0.00000002399446, 10.00298, 9.999561 
2.801982e+3, 1.8374333e+2, -1023108.8, -1470953.0, -57411.473, -0.35813835, -0.18905158, -1015866.06, 123431.32, 0.0, 10.002843, 9.99688 
2.801588e+3, 1.9373587e+2, -1066974.3, -1361694.9, -63980.04, -0.09472417, 0.06747247, -1053684.3, -12296.067, 0.0, 10.001627, 9.99748 
2.801194e+3, 2.0372891e+2, -872993.9, -890237.0, 38350.438, 0.060008228, 0.27550045, -842307.8, 101156.14, 0.0, 10.000778, 10.000516 
2.8007996e+3, 2.137222e+2, -533264.6, -492979.0, -24115.926, -0.011213646, 0.15355596, -481700.3, 363819.97, 0.0, 10.001742, 10.002045 
2.8004047e+3, 2.2371441e+2, -718811.56, -906921.5, -85891.44, -0.103474244, 0.07810537, -685494.4, 62095.586, 0.0, 10.001374, 9.998739 
2.800008e+3, 2.3370421e+2, -714760.25, -802104.0, -107657.06, -0.25727683, -0.12169686, -642254.4, 7434.677, 0.0, 10.000566, 9.999135 
2.7996132e+3, 2.4369498e+2, -701579.1, -732527.6, 2153.6516, -0.3058724, -0.19315359, -701430.0, -149652.44, 0.0, 9.999858, 9.999335 
2.7992216e+3, 2.5368688e+2, -399688.78, -406364.7, 21332.813, -0.21726084, -0.29864419, -381434.38, 72418.766, 0.0, 10.000783, 10.000395 
2.7988273e+3, 2.636792e+2, -435048.56, -516920.78, -63384.06, -0.22371365, -0.27734086, -400530.7, -44607.188, 0.0, 10.000404, 9.999197 
2.7984303e+3, 2.7367145e+2, -389454.72, -342483.1, -117350.91, -0.36398894, -0.32177982, -246290.92, 11702.64, 0.0, 9.999671, 10.000028 
2.7980357e+3, 2.8366292e+2, -596044.75, -652711.44, 15720.214, -0.33356744, -0.30616024, -591975.9, -431898.16, 0.0, 9.998663, 9.9977455 
2.7976462e+3, 2.936524e+2, -323330.53, -370773.44, 19382.354, -0.09503467, -0.479884, -316418.94, -254226.31, 0.0, 9.999477, 9.998567 
2.7972513e+3, 3.036461e+2, -182799.1, -183630.77, -59344.285, -0.222279, -0.22769417, -123869.19, -123869.19, 0.0, 9.999418, 9.999266 
2.7968526e+3, 3.1364605e+2, -125569.875, 37103.414, -77269.52, -0.595969, 0.40807718, 67955.13, 67955.13, 0.0, 9.998786, 10.000712 
2.7964625e+3, 3.2362914e+2, -664567.75, -938500.0, -59544.668, -0.10234535, -0.21366021, -652184.3, -652184.3, 0.0, 9.998253, 9.994206 
2.8139478e+3, 1.341757e+2, -1610205.9, -1688032.0, -94910.05, -0.17747311, -0.25950602, -1546541.4, 78520.914, 0.00024939553, 10.000911, 9.999516 
2.8135535e+3, 1.4417095e+2, -1386489.8, -1590892.0, -141666.55, -0.10072522, -0.01210654, -1314006.9, 213099.98, 0.00009135431, 10.001926, 9.999185 
2.813155e+3, 1.5416327e+2, -1148982.0, -1243979.3, -23874.506, -0.43712997, -0.12421594, -1143319.5, 285860.97, 0.000018191195, 10.002178, 10.000712 
2.812761e+3, 1.6415527e+2, -1144083.5, -1386562.8, 116162.25, -0.5083042, -0.1477817, -1097416.3, 233841.4, 0.000001253609, 10.002277, 9.9990635 
2.812371e+3, 1.7414694e+2, -945254.1, -1154970.5, 166084.92, -0.34762943, -0.20765795, -853695.8, 379642.4, 0.0000000065346386, 10.002673, 9.999732 
2.8119782e+3, 1.8413875e+2, -957532.56, -1198091.3, -56356.94, -0.23980878, -0.18355487, -944984.06, 190435.2, 0.0, 10.002304, 9.998979 
2.8115815e+3, 1.9413005e+2, -940141.9, -1067354.6, 32455.113, -0.11883956, -0.24691841, -932340.2, 105168.64, 0.0, 10.001512, 9.999548 
2.8111866e+3, 2.0412199e+2, -934691.44, -1176625.1, 192434.81, -0.0864305, -0.14358039, -828360.8, 111232.8, 0.0, 10.001437, 9.998223 
2.8107926e+3, 2.1411435e+2, -631923.8, -891027.8, 93901.12, -0.21422789, -0.031996876, -601472.25, 240202.02, 0.0, 10.002512, 9.998958 
2.8103974e+3, 2.2410648e+2, -509072.25, -758064.4, -116599.05, -0.32993147, 0.0430153, -462996.9, 280755.7, 0.0, 10.002562, 9.999197 
2.8100005e+3, 2.340974e+2, -540755.25, -660254.06, -103458.516, -0.39026454, -0.08282959, -481032.25, 164805.44, 0.0, 10.001426, 9.999729 
2.8096056e+3, 2.44089e+2, -529489.2, -595790.9, 34466.336, -0.3884844, -0.12275146, -514818.44, 33098.723, 0.0, 10.000735, 9.999851 
2.809214e+3, 2.5408137e+2, -399774.5, -404756.06, 36608.305, -0.28761527, -0.17609821, -365572.34, 84417.61, 0.0, 10.000686, 10.000481 
2.80882e+3, 2.640736e+2, -343172.75, -498037.56, -79921.26, -0.30909902, -0.15921259, -309325.4, 42737.46, 0.0, 10.001031, 9.999061 
2.8084224e+3, 2.7406517e+2, -78844.92, -268375.94, -129547.66, -0.489248, -0.19540907, -13101.562, 241040.11, 0.0, 10.001989, 9.999487 
2.8080282e+3, 2.8405634e+2, -127453.29, -350908.56, -41480.434, -0.4369863, -0.21443048, -120001.69, 36226.684, 0.0, 10.00141, 9.998538 
2.807638e+3, 2.940463e+2, -349664.8, -349493.34, -26709.531, -0.08171259, -0.35911554, -322869.4, -264536.47, 0.0, 9.998994, 9.999018 
2.8072435e+3, 3.040398e+2, -301097.63, -202670.6, -33265.883, -0.1533942, -0.16884293, -192482.19, -192482.19, 0.0, 9.998356, 9.999658 
2.8068453e+3, 3.140386e+2, 160520.61, 156193.75, -74788.2, -0.5685326, 0.38282225, 233176.67, 233176.67, 0.0, 10.000711, 10.000654 
2.806456e+3, 3.2402197e+2, -103510.15, -496594.53, -63839.234, 0.020773577, -0.27338856, -93402.2, -93402.2, 0.0, 10.001103, 9.99596 
2.823941e+3, 1.3456875e+2, -1553771.9, -1775661.1, 104694.37, -0.22503462, -0.33486667, -1512172.8, 109033.414, 0.00010704309, 10.001757, 9.998526 
2.8235486e+3, 1.445639e+2, -1241894.8, -1421524.0, -157.59583, -0.029851805, -0.021129688, -1241894.6, 281360.56, 0.000035101017, 10.002479, 10.000091 
2.8231493e+3, 1.5455706e+2, -1130748.3, -1151551.5, -39638.68, -0.44899228, -0.11003229, -1100169.3, 325150.34, 0.0000055355054, 10.001958, 10.001463 
2.822755e+3, 1.6454981e+2, -1268641.4, -1407970.3, 75993.12, -0.5163051, -0.11373857, -1235213.1, 92176.26, 0.0000002527922, 10.00128, 9.999413 
2.8223664e+3, 1.7454183e+2, -1234732.8, -1268293.8, 96466.18, -0.25716853, -0.1673731, -1153598.4, 75870.016, 0.0, 10.000619, 9.999972 
2.8219733e+3, 1.845338e+2, -1096707.1, -1118414.5, -137503.77, -0.10981806, -0.20094223, -969629.3, 161915.67, 0.0, 10.000691, 10.00032 
2.8215754e+3, 1.9452469e+2, -800198.8, -854391.25, -149922.44, -0.09547326, -0.465241, -674943.6, 358685.13, 0.0, 10.001792, 10.000909 
2.82118e+3, 2.0451587e+2, -1033471.0, -1460652.5, 103638.02, -0.14241296, -0.42370284, -1009655.25, -73935.445, 0.0, 10.001878, 9.996015 
2.8207862e+3, 2.1450707e+2, -908612.56, -1295857.3, 121978.28, -0.32502356, -0.21622787, -873393.7, -35571.02, 0.0, 10.001874, 9.996443 
2.8203908e+3, 2.2449912e+2, -644451.1, -805142.75, -58488.113, -0.45335352, -0.011739334, -625417.3, 114490.12, 0.0, 10.00162, 9.999303 
2.8199932e+3, 2.3449129e+2, -539224.1, -594109.44, -88613.41, -0.47335178, -0.07380873, -473901.28, 168077.16, 0.0, 10.00125, 10.000224 
2.819598e+3, 2.4448393e+2, -632796.56, -683888.7, 74119.766, -0.45091504, -0.009027755, -579944.0, -35896.09, 0.0, 10.000303, 9.999428 
2.8192064e+3, 2.5447646e+2, -593785.75, -526048.06, 37265.254, -0.35607183, -0.032625917, -509560.2, -63438.246, 0.0, 9.999555, 10.000168 
2.818812e+3, 2.6446855e+2, -634683.9, -720268.94, -26428.29, -0.3991163, 0.032358922, -627180.75, -278981.44, 0.0, 9.999537, 9.998195 
2.8184155e+3, 2.7445927e+2, -281715.25, -412825.63, -51081.48, -0.6002138, -0.05951209, -264163.28, -13874.638, 0.0, 10.000942, 9.998934 
2.818021e+3, 2.8445077e+2, -261050.72, -390972.75, -81697.12, -0.531132, -0.006473639, -221635.72, -69264.41, 0.0, 10.000549, 9.998625 
2.8176293e+3, 2.944425e+2, -352675.9, -278527.38, -100651.18, -0.092970036, -0.05755353, -208339.53, -153886.4, 0.0, 9.998801, 9.999542 
2.817235e+3, 3.044342e+2, -403128.0, -321710.13, 44142.99, -0.08718266, -0.03250631, -302370.56, -302370.56, 0.0, 9.998066, 9.9989605 
2.81684e+3, 3.1442586e+2, -94484.33, -13508.39, 13854.14, -0.3892905, -0.17600907, -11203.687, -11203.687, 0.0, 9.999261, 10.000156 
2.8164485e+3, 3.244172e+2, 7234.1523, 153450.55, -102380.375, -0.12054712, -0.25878766, 206145.97, 206145.97, 0.0, 9.999558, 10.001071 
2.8339338e+3, 1.3496399e+2, -1546891.9, -1564786.9, 152450.56, -0.43596563, -0.3679995, -1403126.4, 214193.92, 0.000050582996, 10.000996, 10.000307 
2.8335428e+3, 1.449555e+2, -1437356.4, -1687041.9, -4838.2544, -0.14402726, -0.4363109, -1437262.8, 82138.31, 0.000015386415, 10.0019455, 9.99849 
2.8331473e+3, 1.5494901e+2, -1355337.4, -1470094.9, -26180.594, -0.08092086, -0.31697395, -1349646.8, 71823.48, 0.0000020566958, 10.001372, 9.9995365 
2.832753e+3, 1.6494183e+2, -1339145.9, -1393654.9, 28469.51, -0.11156517, -0.22723329, -1326988.1, -3444.2302, 0.00000005936716, 10.000612, 9.999813 
2.8323588e+3, 1.7493342e+2, -1336464.8, -1289937.8, 78175.07, -0.27572513, -0.3603164, -1231638.3, -6009.9863, 0.0, 9.999794, 10.000219 
2.8319645e+3, 1.849265e+2, -1217044.8, -1268904.4, -115682.8, -0.29166305, -0.2567522, -1124421.3, 3277.7153, 0.0, 10.00023, 9.999525 
2.8315696e+3, 1.9492026e+2, -816161.6, -975156.25, -132931.34, -0.16364722, -0.14002468, -740770.06, 288993.94, 0.0, 10.002139, 9.999924 
2.8311753e+3, 2.049126e+2, -719664.56, -1001369.7, 24611.03, -0.14266817, -0.0693756, -717530.6, 214311.9, 0.0, 10.002696, 9.998779 
2.8307816e+3, 2.1490301e+2, -692524.5, -917537.9, 167949.34, -0.2632626, -0.1826382, -602880.9, 231060.38, 0.0, 10.00214, 9.998934 
2.830386e+3, 2.2489487e+2, -559705.56, -740463.75, 25081.7, -0.39242104, -0.1261498, -556289.8, 179733.05, 0.0, 10.002055, 9.99955 
2.8299874e+3, 2.3488766e+2, -414687.94, -581189.8, 7287.1978, -0.49990597, -0.07230573, -414369.63, 223721.19, 0.0, 10.002226, 9.99988 
2.829592e+3, 2.4487975e+2, -516109.88, -694004.2, 71751.87, -0.4408182, -0.011165959, -490776.97, 49390.62, 0.0, 10.001313, 9.998895 
2.8292e+3, 2.548706e+2, -673762.25, -683655.0, 36700.016, -0.19361345, -0.085367225, -641676.75, -199418.48, 0.0, 9.999407, 9.999199 
2.8288057e+3, 2.6486197e+2, -598454.8, -559687.5, 87358.93, -0.23882397, -0.10241476, -489587.56, -145247.13, 0.0, 9.999112, 9.999511 
2.8284088e+3, 2.7485326e+2, -260406.47, -318011.47, 112693.414, -0.5916002, -0.1945457, -172893.08, 73526.95, 0.0, 10.0006695, 9.999739 
2.8280142e+3, 2.8484514e+2, -134201.3, -359683.2, 13805.215, -0.55023795, -0.12357211, -133359.22, 15139.982, 0.0, 10.001434, 9.998451 
2.8276217e+3, 2.9483715e+2, -9581.117, -216488.9, -54123.24, -0.114606254, -0.03839807, 3721.2856, 54303.01, 0.0, 10.001457, 9.998743 
2.8272268e+3, 3.048281e+2, -66506.516, -176481.98, 67515.664, -0.114323616, -0.04684967, -34419.477, -34419.477, 0.0, 10.000305, 9.998924 
2.8268316e+3, 3.148178e+2, -310560.9, -219368.48, 24022.186, -0.337348, -0.30120382, -213427.53, -213427.53, 0.0, 9.998027, 9.999405 
2.8264394e+3, 3.2481137e+2, 73864.92, 279518.22, -89217.22, -0.19150625, -0.16487104, 312827.66, 312827.66, 0.0, 9.999342, 10.002151 
2.8439283e+3, 1.3536017e+2, -1446561.8, -1416737.9, 142789.95, -0.33195826, -0.3133879, -1288083.3, 325348.03, 0.000026717651, 10.00105, 10.001391 
2.8435367e+3, 1.4534816e+2, -1545010.0, -1806947.8, -18029.01, -0.10463358, -0.7310963, -1543774.9, -28230.48, 0.000008259606, 10.001429, 9.9979315 
2.8431436e+3, 1.5534228e+2, -1251314.8, -1531347.0, 7748.6416, 0.14440338, -0.45580277, -1251100.5, 166510.58, 0.0000013335809, 10.002488, 9.998595 
2.8427485e+3, 1.6533534e+2, -1141211.8, -1282229.8, 76936.164, 0.118500724, -0.29786056, -1107362.3, 212322.94, 0.000000073245815, 10.001915, 9.999938 
2.8423512e+3, 1.7532663e+2, -1276628.9, -1274868.0, 57408.223, -0.25198847, -0.45194814, -1218333.5, 3440.3367, 0.0, 10.000257, 10.000105 
2.8419566e+3, 1.8532032e+2, -1265529.9, -1351233.5, 20025.887, -0.332145, -0.24975486, -1261081.4, -137238.89, 0.0, 10.000188, 9.998952 
2.8415638e+3, 1.9531564e+2, -918599.3, -1109162.4, 15762.682, -0.14327158, 0.08468341, -917304.3, 108594.03, 0.0, 10.001817, 9.999141 
2.8411707e+3, 2.0530887e+2, -704635.5, -736072.94, 76786.15, -0.07587513, 0.18053263, -641975.7, 285991.16, 0.0, 10.001706, 10.001079 
2.8407767e+3, 2.1529946e+2, -839069.75, -733073.56, 91102.82, -0.13931718, -0.16749215, -680674.7, 149379.5, 0.0, 10.000088, 10.001171 
2.8403807e+3, 2.2529154e+2, -873373.8, -931024.25, 2268.2327, -0.26490322, -0.18206277, -873284.7, -141155.11, 0.0, 10.000127, 9.99917 
2.839982e+3, 2.3528454e+2, -544153.0, -708308.94, -13650.391, -0.45044655, -0.095980264, -543025.6, 91172.66, 0.0, 10.001657, 9.999288 
2.839586e+3, 2.4527578e+2, -533268.94, -816381.5, 20323.303, -0.3594046, -0.025427345, -531817.44, 4466.8447, 0.0, 10.001762, 9.997835 
2.839194e+3, 2.552648e+2, -587265.9, -755935.44, -12907.518, 0.03000884, -0.2095861, -586283.9, -147891.48, 0.0, 10.0005865, 9.998124 
2.8387994e+3, 2.6525572e+2, -455010.4, -371506.22, 154344.44, -0.030940937, -0.26211828, -253366.33, 87109.5, 0.0, 9.999714, 10.000465 
2.8384024e+3, 2.752475e+2, -342616.97, -260799.67, 137914.13, -0.5144108, -0.4391464, -157854.84, 84689.516, 0.0, 9.999801, 10.000507 
2.8380075e+3, 2.8523964e+2, -443340.75, -636754.25, 7430.9053, -0.54584575, -0.3155824, -443055.7, -298433.88, 0.0, 9.999978, 9.99721 
2.837615e+3, 2.952313e+2, -310533.53, -501188.16, -30763.941, -0.15679245, -0.17848575, -305692.4, -258978.9, 0.0, 10.0001, 9.997414 
2.8372186e+3, 3.052224e+2, -264576.0, -329149.97, 19736.168, -0.21160986, -0.06699127, -259021.66, -259021.66, 0.0, 9.999378, 9.99825 
2.8368217e+3, 3.1521237e+2, -465240.72, -377886.1, -18524.367, -0.4024197, -0.26162702, -374120.2, -374120.2, 0.0, 9.99752, 9.998485 
2.8364295e+3, 3.2520372e+2, -183615.6, 38648.234, 183885.47, -0.4216829, -0.2931846, 142374.81, 142374.81, 0.0, 9.9983835, 10.000814 
2.8539246e+3, 1.3575743e+2, -1547395.8, -1397977.5, 65637.53, -0.09643586, -0.043804742, -1373239.4, 236302.8, 0.000013313982, 10.000135, 10.00195 
2.8535306e+3, 1.4574255e+2, -1582537.8, -1717248.0, 31572.242, -0.13813636, -0.8142073, -1575505.3, -63821.055, 0.0000038169696, 10.000764, 9.998841 
2.853135e+3, 1.557383e+2, -1220859.1, -1450608.9, 107571.055, -0.23241776, -0.45882818, -1178356.3, 235374.33, 0.0000005153316, 10.002443, 9.999162 
2.8527403e+3, 1.6573234e+2, -1136854.8, -1327412.4, 26915.248, -0.2296513, -0.20210664, -1133126.1, 182668.73, 0.00000002542409, 10.002172, 9.999488 
2.8523442e+3, 1.757246e+2, -1314527.5, -1352445.9, 50012.484, -0.28537095, -0.20409472, -1280001.3, -62123.902, 0.0, 10.000273, 9.999551 
2.8519505e+3, 1.8571693e+2, -1153989.9, -1173456.6, 117877.37, -0.26924744, -0.15950431, -1045444.75, 74510.76, 0.0, 10.000421, 10.000049 
2.8515586e+3, 1.9570914e+2, -838486.06, -973145.1, 170461.28, -0.14792903, -0.21783972, -722539.0, 299494.38, 0.0, 10.001922, 10.000028 
2.851164e+3, 2.0570262e+2, -805877.8, -861543.94, 52444.945, -0.14971645, -0.09608575, -774337.9, 149761.66, 0.0, 10.001316, 10.0004 
2.8507677e+3, 2.1569616e+2, -1025655.6, -903374.1, 34250.21, -0.25808567, -0.058613166, -894434.44, -68269.29, 0.0, 9.999094, 10.00049 
2.8503725e+3, 2.2568877e+2, -864727.94, -840938.06, 61571.03, -0.30002668, -0.03367696, -790123.5, -61886.703, 0.0, 9.999783, 9.999949 
2.849978e+3, 2.3568034e+2, -368904.84, -568373.8, 86139.875, -0.33731237, -0.12681606, -336855.25, 293461.63, 0.0, 10.002532, 9.999849 
2.8495827e+3, 2.4567135e+2, -182692.98, -582745.8, 25069.37, -0.28332716, -0.1440701, -181128.13, 351275.03, 0.0, 10.0037985, 9.998489 
2.8491879e+3, 2.556614e+2, -67922.46, -454816.3, 57710.285, -0.12947258, -0.23773825, -59497.668, 375001.63, 0.0, 10.003828, 9.998671 
2.8487924e+3, 2.6565254e+2, -99252.875, -256744.52, 138644.78, -0.13616848, -0.26938906, -18551.904, 318030.0, 0.0, 10.002303, 10.000048 
2.8483966e+3, 2.756442e+2, -350940.7, -320778.34, 78133.375, -0.32487231, -0.35919777, -256283.98, -17628.121, 0.0, 9.999867, 10.000111 
2.848001e+3, 2.8563577e+2, -500794.84, -522832.97, 15156.466, -0.35357082, -0.34871665, -493075.22, -352337.47, 0.0, 9.99886, 9.998572 
2.847606e+3, 2.9562685e+2, -394662.4, -422203.5, 64664.64, -0.22995573, -0.34536666, -342318.34, -299488.28, 0.0, 9.998919, 9.998561 
2.84721e+3, 3.0561852e+2, -131292.52, -256710.4, 189867.39, -0.27053386, -0.22967185, 5953.63, 5953.63, 0.0, 10.000104, 9.998463 
2.8468156e+3, 3.1561038e+2, 218478.17, -69252.4, 175313.11, -0.24648924, -0.1865404, 301398.9, 301398.9, 0.0, 10.002143, 9.99846 
2.846422e+3, 3.2560092e+2, -191193.56, -255255.11, 201299.58, -0.35052598, -0.1276734, -19392.322, -19392.322, 0.0, 9.9992695, 9.998513 
2.8639197e+3, 1.361516e+2, -1316310.1, -1534796.0, 168358.66, 0.015345893, -0.2287518, -1224857.6, 380820.94, 0.0000059672334, 10.002688, 9.999817 
2.8635252e+3, 1.4613983e+2, -1212136.9, -1431515.3, 43002.36, -0.04643707, -0.6204078, -1204008.8, 303789.63, 0.0000015122073, 10.002807, 9.999836 
2.8631282e+3, 1.5613542e+2, -1260805.1, -1406347.1, 86089.77, -0.37665632, -0.3594908, -1220850.5, 188991.94, 0.0000000966577, 10.001843, 9.999772 
2.862733e+3, 1.661292e+2, -1222522.8, -1418233.5, -15643.186, -0.36361495, -0.13641529, -1221280.3, 90627.766, 0.00000000026919006, 10.001775, 9.999073 
2.8623378e+3, 1.7612158e+2, -1113509.5, -1297168.9, -5982.9067, -0.22687432, -0.08148011, -1113314.9, 100674.82, 0.0, 10.001804, 9.999206 
2.8619444e+3, 1.8611322e+2, -991102.9, -978206.94, 141793.0, -0.16851097, -0.14640571, -842715.4, 273355.22, 0.0, 10.001123, 10.001039 
2.8615528e+3, 1.9610378e+2, -1050192.6, -994882.3, 127781.28, -0.09880007, -0.463303, -891797.8, 126359.04, 0.0, 10.000217, 10.000678 
2.8611574e+3, 2.060974e+2, -1014542.06, -1086952.1, -13631.762, -0.1435699, -0.2968023, -1012060.8, -91838.7, 0.0, 10.000399, 9.999313 
2.860759e+3, 2.1609257e+2, -901529.1, -980595.2, -28224.156, -0.27696687, 0.00046883337, -892487.8, -70209.93, 0.0, 10.000495, 9.999324 
2.8603652e+3, 2.2608517e+2, -733265.3, -741847.5, 130361.92, -0.26633283, 0.06370502, -607123.9, 117227.25, 0.0, 10.000593, 10.000194 
2.8599742e+3, 2.3607557e+2, -602603.9, -660198.2, 80151.4, -0.151876, -0.2111531, -546233.44, 80207.54, 0.0, 10.000963, 9.999911 
2.859579e+3, 2.4606706e+2, -511088.56, -648002.7, -27231.838, -0.19672485, -0.22136557, -505871.06, 22649.295, 0.0, 10.001309, 9.999137 
2.8591812e+3, 2.5605857e+2, -432933.84, -595584.75, -12161.512, -0.32231644, -0.27792758, -432029.56, -1429.2473, 0.0, 10.001297, 9.998847 
2.8587857e+3, 2.6605025e+2, -430382.22, -549353.5, 21974.953, -0.2521119, -0.1930644, -426453.03, -93772.71, 0.0, 10.000679, 9.998786 
2.8583914e+3, 2.760416e+2, -554935.2, -555429.7, -10762.562, -0.059152067, -0.23576583, -544417.0, -309652.22, 0.0, 9.999101, 9.998859 
2.8579947e+3, 2.8603262e+2, -438136.63, -290925.44, 8406.076, -0.11000321, -0.3043757, -290446.97, -153597.3, 0.0, 9.998591, 10.000229 
2.8575963e+3, 2.9602286e+2, -359272.3, -259623.56, 40949.813, -0.31765404, -0.584656, -244954.88, -206013.58, 0.0, 9.998668, 9.999757 
2.857202e+3, 3.0601552e+2, -224565.2, -281100.03, 224214.81, -0.33071053, -0.42477363, -26842.95, -26842.95, 0.0, 9.999539, 9.998494 
2.8568122e+3, 3.1601006e+2, -118667.07, -302933.13, 200405.34, -0.039975666, -0.1596444, 9769.148, 9769.148, 0.0, 10.000304, 9.99767 
2.8564152e+3, 3.2600018e+2, -535395.6, -621317.8, -2423.2878, -0.15657143, -0.026277103, -535327.3, -535327.3, 0.0, 9.998039, 9.996489 
2.8739128e+3, 1.3654368e+2, -1777458.5, -2356320.5, 196159.33, -0.25966606, -0.6853261, -1717248.5, -115418.68, 0.0000021514043, 10.00217, 9.994409 
2.8735223e+3, 1.4654163e+2, -1169369.9, -1285623.0, -4223.5845, 0.10714625, 0.055400345, -1169216.6, 334656.84, 0.00000043033984, 10.002596, 10.000916 
2.873124e+3, 1.5653403e+2, -1330017.5, -1373133.0, 71475.96, -0.2628239, -0.09889494, -1276919.0, 129027.19, 0.000000019645139, 10.0011015, 10.000354 
2.872728e+3, 1.6652508e+2, -1290026.9, -1462453.6, 7042.2813, -0.28316632, -0.15884371, -1289739.8, 18294.072, 0.0, 10.001386, 9.998947 
2.8723326e+3, 1.7651539e+2, -1065538.0, -1294713.1, 47428.535, -0.26261055, -0.2826518, -1056110.4, 154019.7, 0.0, 10.002219, 9.999026 
2.871938e+3, 1.8650815e+2, -911918.4, -904983.2, 62940.4, -0.2347695, -0.24996129, -845414.94, 266782.4, 0.0, 10.001473, 10.001386 
2.8715447e+3, 1.9650142e+2, -1149785.0, -1040553.44, 100184.586, -0.1659523, -0.3106775, -981064.7, 33192.367, 0.0, 9.999456, 10.000762 
2.8711498e+3, 2.0649368e+2, -1019336.9, -1073975.4, 46279.43, -0.1681759, -0.28983867, -992914.9, -76581.88, 0.0, 10.000329, 9.999413 
2.870754e+3, 2.1648529e+2, -618374.5, -869095.4, 67638.56, -0.25891128, -0.32158974, -601291.25, 217128.11, 0.0, 10.002516, 9.999119 
2.87036e+3, 2.2647728e+2, -555319.25, -775247.0, 79301.02, -0.25179088, -0.25018305, -529707.7, 190792.28, 0.0, 10.0022745, 9.999175 
2.8699672e+3, 2.3646909e+2, -700204.44, -791208.2, 14675.151, -0.18227103, -0.25429708, -697896.5, -75315.66, 0.0, 10.000572, 9.999234 
2.8695717e+3, 2.464612e+2, -646065.6, -607574.44, -92328.17, -0.1927791, -0.24149667, -532507.3, -7850.7705, 0.0, 9.999832, 10.000169 
2.8691742e+3, 2.5645307e+2, -588819.8, -572058.4, -63504.86, -0.28151527, -0.32470658, -516383.63, -89649.766, 0.0, 9.999674, 9.999839 
2.868778e+3, 2.664456e+2, -489412.53, -488781.5, -13692.313, -0.2583249, -0.25892073, -475401.06, -146594.23, 0.0, 9.999777, 9.999677 
2.8683826e+3, 2.7643818e+2, -366035.38, -398855.9, 20375.879, -0.1565471, -0.21801873, -356283.22, -125402.125, 0.0, 9.999993, 9.99954 
2.8679872e+3, 2.864297e+2, -180100.44, -197029.36, 39340.977, -0.07932901, -0.25024253, -148323.63, -15362.914, 0.0, 10.000427, 10.000006 
2.8675914e+3, 2.9642034e+2, 25110.79, -88992.11, -5050.301, -0.09341795, -0.4384409, 25333.883, 60380.77, 0.0, 10.001254, 9.999717 
2.8671953e+3, 3.064126e+2, 2437.151, -77658.4, 107663.16, -0.2744894, -0.3815373, 77259.65, 77259.65, 0.0, 10.000571, 9.999442 
2.8668016e+3, 3.164065e+2, -189589.69, -210456.25, 94335.09, -0.33644047, -0.22651567, -105112.68, -105112.68, 0.0, 9.999119, 9.9989395 
2.8664085e+3, 3.2639915e+2, 45087.613, -111782.33, 29238.967, -0.05422575, -0.006145482, 50360.242, 50360.242, 0.0, 10.000809, 9.998728 
2.8839076e+3, 1.3693993e+2, -1818317.6, -2455283.3, 112788.836, -0.27331463, -0.6816068, -1798935.6, -200988.58, 0.00000033823923, 10.002135, 9.993763 
2.8835163e+3, 1.469395e+2, -1335877.5, -1350036.8, 41782.047, 0.05505583, 0.2514631, -1300579.5, 199399.03, 0.000000039050374, 10.001365, 10.001077 
2.8831193e+3, 1.569309e+2, -1144062.5, -1288971.8, 9584.002, -0.084346496, 0.007717639, -1143431.4, 258631.11, 0.0000000006124831, 10.002377, 10.0003395 
2.8827235e+3, 1.6692106e+2, -1134594.6, -1371204.1, 11983.282, -0.13951154, -0.15234302, -1133989.3, 170167.48, 0.0, 10.002368, 9.99908 
2.882327e+3, 1.7691042e+2, -1118109.8, -1322212.0, 37740.168, -0.23916376, -0.39400047, -1111354.9, 94903.31, 0.0, 10.001825, 9.999028 
2.881931e+3, 1.8690388e+2, -1025815.6, -961838.4, 3568.44, -0.24793337, -0.29468283, -961639.94, 146677.72, 0.0, 10.000763, 10.001327 
2.8815365e+3, 1.9689895e+2, -1210293.0, -1098193.5, 4037.2913, -0.13545042, -0.17941222, -1098048.3, -87687.81, 0.0, 9.999206, 10.000495 
2.8811428e+3, 2.0688994e+2, -1097564.1, -1108913.4, 108909.664, -0.12888241, -0.2705048, -994181.4, -81734.99, 0.0, 9.99988, 9.999367 
2.8807494e+3, 2.1687861e+2, -810465.0, -1003691.9, 79230.484, -0.16757604, -0.60172343, -782131.94, 32425.023, 0.0, 10.001492, 9.998661 
2.8803548e+3, 2.2687033e+2, -761621.06, -944661.9, 56161.58, -0.18974516, -0.49403873, -745763.1, -29122.457, 0.0, 10.001244, 9.998496 
2.8799596e+3, 2.368634e+2, -923745.1, -990661.1, 52940.69, -0.17229319, -0.30178276, -894576.0, -275863.16, 0.0, 9.999529, 9.998363 
2.8795642e+3, 2.4685597e+2, -668556.25, -532498.75, 30216.418, -0.14593847, -0.23172818, -526090.0, -5303.3125, 0.0, 9.999381, 10.0008955 
2.8791678e+3, 2.568478e+2, -629849.9, -544333.2, 17504.139, -0.123372, -0.39317617, -540889.06, -118023.34, 0.0, 9.999287, 10.00021 
2.8787702e+3, 2.6684123e+2, -473341.25, -367404.2, 41287.813, -0.22597115, -0.29932645, -353213.6, -28282.318, 0.0, 9.999524, 10.000585 
2.8783727e+3, 2.7683493e+2, -491077.9, -438383.13, 23277.334, -0.33358255, -0.25550267, -429573.47, -202578.34, 0.0, 9.999169, 9.999638 
2.87798e+3, 2.8682724e+2, -337774.9, -392839.53, 70444.35, -0.098184384, -0.1490876, -289673.66, -160605.44, 0.0, 9.999945, 9.998857 
2.8775883e+3, 2.968183e+2, -227868.86, -357363.53, 37726.656, 0.27063173, -0.20436211, -217679.44, -186528.05, 0.0, 10.000254, 9.998331 
2.877189e+3, 3.0680943e+2, -108071.336, -20088.162, 44853.508, -0.1897683, -0.25227207, -1253.8247, -1253.8247, 0.0, 9.999495, 10.000316 
2.8767878e+3, 3.168009e+2, -454827.72, -254247.78, 50531.375, -0.86451805, -0.43727714, -242236.83, -242236.83, 0.0, 9.997088, 9.999595 
2.8764015e+3, 3.267978e+2, 46774.215, 396254.7, 175395.77, -0.06750461, -0.16823211, 469098.44, 469098.44, 0.0, 9.998993, 10.002931 
2.8939018e+3, 1.373392e+2, -1634604.4, -1785248.8, -114959.734, -0.3115849, -0.2953069, -1572488.6, 21549.22, 0.0000000028010363, 10.000971, 9.998901 
2.8935036e+3, 1.4733037e+2, -1555589.0, -1622495.8, 103459.445, -0.5606639, -0.32496762, -1480308.8, 15829.685, 0.0, 10.000623, 9.999534 
2.893115e+3, 1.5732452e+2, -1240800.4, -1452404.3, 70184.36, -0.06404569, -0.14660105, -1219638.1, 178563.6, 0.0, 10.00223, 9.999282 
2.8927195e+3, 1.6731718e+2, -1039700.8, -1199437.5, -21310.367, -0.06835847, -0.09279508, -1036906.7, 263367.53, 0.0, 10.002463, 10.000214 
2.8923205e+3, 1.7730881e+2, -1099900.8, -1241720.5, 33553.387, -0.36841914, -0.20759279, -1092362.9, 109991.73, 0.0, 10.001616, 9.999692 
2.8919235e+3, 1.8730104e+2, -1092856.6, -1091913.5, -49539.05, -0.34241977, -0.20634742, -1042843.8, 61584.023, 0.0, 10.000681, 10.0004835 
2.891528e+3, 1.9729361e+2, -1231331.4, -1185891.1, -8772.722, -0.18130505, -0.23853952, -1184256.3, -177759.05, 0.0, 9.999329, 9.999858 
2.8911352e+3, 2.0728528e+2, -1048008.44, -1065922.6, 147153.88, -0.15971056, -0.25296876, -909539.3, -961.19574, 0.0, 10.000082, 9.999574 
2.890743e+3, 2.1727607e+2, -724814.75, -870548.6, 134887.89, -0.23612621, -0.38802248, -644370.44, 166298.34, 0.0, 10.0016, 9.999543 
2.890348e+3, 2.2726867e+2, -572259.5, -587276.8, 47601.56, -0.24134877, -0.381662, -531578.06, 181161.19, 0.0, 10.001336, 10.000923 
2.8899518e+3, 2.37262e+2, -679011.4, -637967.2, 159498.27, -0.23927438, -0.36908552, -497676.2, 117125.82, 0.0, 10.000086, 10.000544 
2.8895563e+3, 2.4725538e+2, -548627.1, -485678.44, 197942.78, -0.15839913, -0.296864, -316723.28, 200143.03, 0.0, 10.000159, 10.000875 
2.8891608e+3, 2.5724825e+2, -412499.78, -455586.16, 181153.06, -0.08819787, -0.31174806, -251613.42, 167323.39, 0.0, 10.000716, 10.000172 
2.8887635e+3, 2.6724032e+2, -384448.16, -480334.5, 120644.984, -0.17410773, -0.2614726, -302569.28, 18448.848, 0.0, 10.000745, 9.99924 
2.8883657e+3, 2.7723202e+2, -304424.25, -426521.4, 50517.12, -0.33095634, -0.24906987, -286233.28, -63128.715, 0.0, 10.000689, 9.999006 
2.8879723e+3, 2.87224e+2, -149310.03, -239166.06, 121035.06, -0.16881661, -0.19697905, -65133.395, 60047.36, 0.0, 10.000832, 9.999533 
2.8875804e+3, 2.9721567e+2, -74547.76, -233612.14, 141521.39, 0.13866596, -0.2162485, 8258.197, 35515.223, 0.0, 10.000958, 9.998878 
2.887182e+3, 3.0720565e+2, -260099.17, -270179.72, 26425.045, -0.061923582, -0.3004737, -238238.02, -238238.02, 0.0, 9.999147, 9.998814 
2.8867823e+3, 3.1719506e+2, -583400.75, -429654.03, -42389.12, -0.3605105, -0.49691847, -418741.56, -418741.56, 0.0, 9.996575, 9.998705 
2.8863975e+3, 3.2719132e+2, -33346.727, 222270.84, -26351.027, 0.35229456, -0.13337804, 224959.03, 224959.03, 0.0, 9.998721, 10.002065 
2.9038957e+3, 1.3773562e+2, -981006.0, -1266866.5, -333272.16, -0.4035033, -0.15107526, -761307.8, 828852.8, 0.00000000011876347, 10.004458, 10.000855 
2.903496e+3, 1.477221e+2, -1259143.5, -1560281.8, 11431.548, -0.70315844, -0.68496925, -1258710.1, 233586.81, 0.0, 10.0029545, 9.998886 
2.9031095e+3, 1.5771863e+2, -1320223.0, -1516844.1, 13159.253, -0.038281403, -0.21054089, -1319346.3, 74993.055, 0.0, 10.001759, 9.999091 
2.902714e+3, 1.6771312e+2, -1238038.0, -1179461.9, -84241.08, -0.018989405, -0.03573011, -1119562.8, 176831.81, 0.0, 10.000662, 10.001192 
2.902314e+3, 1.7770639e+2, -1406005.4, -1333325.5, -52382.17, -0.32382628, -0.08320601, -1305912.1, -107453.0, 0.0, 9.999302, 10.000176 
2.9019165e+3, 1.8769781e+2, -1205086.9, -1228227.1, -67837.11, -0.31099588, -0.14006677, -1147840.4, -47298.64, 0.0, 10.000252, 9.999742 
2.901521e+3, 1.9768853e+2, -986696.1, -1130602.3, -463.88873, -0.11034632, -0.30423012, -986694.6, 15936.729, 0.0, 10.001296, 9.999251 
2.9011282e+3, 2.0768121e+2, -913614.44, -976049.2, 217715.39, -0.1375963, -0.2132716, -724889.75, 179814.38, 0.0, 10.00092, 9.999754 
2.9007366e+3, 2.1767423e+2, -956667.0, -919853.25, 161166.05, -0.21919942, -0.16257605, -776046.4, 30728.008, 0.0, 9.999786, 10.000053 
2.9003415e+3, 2.2766759e+2, -601920.7, -354289.28, -15061.071, -0.24781063, -0.23862652, -353376.63, 355456.34, 0.0, 10.000171, 10.003029 
2.899944e+3, 2.3766091e+2, -620923.3, -476746.25, -1908.317, -0.23763956, -0.4543813, -476721.0, 134168.1, 0.0, 9.999981, 10.001678 
2.8995487e+3, 2.4765538e+2, -522857.7, -472730.75, 88154.13, -0.14786337, -0.32548994, -406146.38, 106794.85, 0.0, 10.00047, 10.000724 
2.8991544e+3, 2.5764963e+2, -567909.1, -643305.4, 75902.14, -0.029108794, -0.22034836, -520858.88, -105860.24, 0.0, 10.000275, 9.999028 
2.8987575e+3, 2.6764e+2, -528586.75, -760481.3, 62158.664, -0.112452984, -0.18320908, -512976.2, -195877.02, 0.0, 10.000746, 9.997271 
2.8983593e+3, 2.7762887e+2, -469044.13, -683981.3, 27202.406, -0.25740376, -0.2975565, -465654.84, -246439.25, 0.0, 10.000417, 9.997351 
2.897964e+3, 2.8762063e+2, -160651.78, -84904.35, 84852.87, -0.28077725, -0.28456494, -29856.45, 91436.77, 0.0, 10.000223, 10.000839 
2.89757e+3, 2.9761297e+2, -315653.7, -357134.66, 82347.42, -0.22084367, -0.36411715, -251475.0, -228113.73, 0.0, 9.999498, 9.998682 
2.8971726e+3, 3.0760348e+2, 42273.797, -379773.13, -37354.277, -0.13829951, -0.2574789, 45554.426, 45554.426, 0.0, 10.002531, 9.996262 
2.8967756e+3, 3.1759292e+2, 110125.65, -643115.3, 31517.654, 0.008000617, -0.1692656, 111442.13, 111442.13, 0.0, 10.003938, 9.993559 
2.8963846e+3, 3.2757562e+2, 428651.22, -76187.0, 218554.7, -0.19177897, -0.74043006, 510120.66, 510120.66, 0.0, 10.004507, 9.996928 
2.9138932e+3, 1.3813026e+2, -1142691.3, -1467331.0, -468184.94, -0.40763524, 0.059716962, -809486.25, 776823.5, 0.0000000000007792345, 10.003946, 9.999719 
2.9134962e+3, 1.481158e+2, -1224606.3, -1429908.9, -70523.21, -0.26454186, -0.5922183, -1202715.1, 285732.78, 0.0, 10.002736, 9.999867 
2.9131007e+3, 1.581137e+2, -1354202.4, -1448291.6, -43511.156, -0.39203674, -0.08124238, -1337165.6, 53307.004, 0.0, 10.001171, 9.999846 
2.9127043e+3, 1.6810805e+2, -1307773.8, -1131893.4, -162696.98, -0.24450243, -0.0009395049, -1034890.94, 257635.55, 0.0, 9.999843, 10.0019 
2.9123068e+3, 1.7810099e+2, -1514419.8, -1329885.9, -70242.12, -0.17297655, -0.14933114, -1306191.0, -111598.42, 0.0, 9.998293, 10.000693 
2.911911e+3, 1.8809305e+2, -1168044.6, -1169913.1, 8858.488, -0.13891828, -0.19109397, -1160071.3, -63401.883, 0.0, 10.000298, 10.000128 
2.9115164e+3, 1.9808485e+2, -757158.75, -973195.94, 74684.61, -0.11211333, -0.2775571, -733854.06, 264895.63, 0.0, 10.002619, 9.999711 
2.9111224e+3, 2.080783e+2, -762801.1, -854415.8, 144227.0, -0.14145952, -0.15771109, -657281.9, 243532.98, 0.0, 10.001676, 10.000249 
2.9107288e+3, 2.1807197e+2, -988237.5, -918042.7, 143746.33, -0.24079333, -0.06821166, -805171.06, -2292.937, 0.0, 9.999414, 10.000273 
2.910334e+3, 2.2806433e+2, -706049.4, -572628.06, -18101.066, -0.2513376, -0.16065289, -570215.9, 134733.64, 0.0, 10.000106, 10.001599 
2.9099375e+3, 2.3805627e+2, -422915.47, -452456.72, -79990.195, -0.2621629, -0.37204507, -356343.6, 250679.77, 0.0, 10.00152, 10.001145 
2.9095426e+3, 2.4805081e+2, -267673.78, -290737.5, -62103.3, -0.15429029, -0.2730917, -216040.75, 293032.6, 0.0, 10.001871, 10.001336 
2.9091483e+3, 2.580458e+2, -271929.1, -419874.66, -52462.367, -0.04655603, -0.1436906, -255214.11, 155906.08, 0.0, 10.001821, 9.999855 
2.9087505e+3, 2.6803595e+2, -333287.63, -653034.4, -19831.668, -0.1799565, -0.18706502, -332062.28, -18840.986, 0.0, 10.0018835, 9.997527 
2.908352e+3, 2.7802458e+2, -202114.38, -478066.53, -4748.5693, -0.3974458, -0.3364339, -202032.69, 13306.01, 0.0, 10.001784, 9.998143 
2.907957e+3, 2.8801712e+2, -109581.875, -40359.785, 17374.91, -0.25983867, -0.30449814, -36243.426, 81166.48, 0.0, 10.000409, 10.0010805 
2.9075617e+3, 2.9801095e+2, -251569.88, -115829.61, 169321.34, -0.24308082, -0.25573057, -1282.4379, 18182.176, 0.0, 9.998844, 10.000684 
2.9238915e+3, 1.385258e+2, -1169972.5, -1464695.0, -241821.47, -0.14465435, 0.06485532, -1034150.1, 548292.4, 0.0, 10.003649, 9.9998665 
2.9234928e+3, 1.4851321e+2, -1184336.1, -1403555.1, 102238.26, -0.09549255, -0.38671094, -1144056.0, 340503.3, 0.0, 10.002962, 9.999934 
2.923093e+3, 1.5850957e+2, -1308104.1, -1391976.8, 25706.46, -0.45413646, -0.020660358, -1300852.3, 85744.984, 0.0, 10.001305, 10.000177 
2.9226962e+3, 1.6850331e+2, -1069686.5, -992941.8, -103101.52, -0.2901798, -0.022495678, -921303.44, 367351.13, 0.0, 10.001317, 10.002194 
2.9222998e+3, 1.784959e+2, -1088131.3, -1115834.4, -26704.625, -0.020118613, -0.215072, -1071899.5, 118822.64, 0.0, 10.001175, 10.000802 
2.9219052e+3, 1.8848851e+2, -991630.25, -1091944.0, 79274.89, -0.014623649, -0.20294328, -947977.6, 144818.19, 0.0, 10.001604, 9.999996 
2.9215118e+3, 1.9848095e+2, -890310.6, -1050364.1, 20033.535, -0.019948201, -0.22480018, -887841.2, 107031.07, 0.0, 10.001744, 9.999621 
2.921117e+3, 2.0847492e+2, -813716.44, -802260.6, 18859.592, -0.08129992, -0.10172379, -788278.3, 108652.46, 0.0, 10.001058, 10.000898 
2.9207212e+3, 2.1846895e+2, -1045165.94, -975444.75, 57973.066, -0.15717727, -0.040386733, -942658.2, -143669.75, 0.0, 9.999213, 9.999981 
2.9203263e+3, 2.2846052e+2, -843085.1, -801986.94, 66910.75, -0.20510918, -0.10957859, -752540.94, -51469.883, 0.0, 9.999923, 10.000089 
2.9199314e+3, 2.384515e+2, -671883.6, -701543.06, 29932.621, -0.21641585, -0.28657544, -653308.5, -50148.95, 0.0, 10.00046, 9.999925 
2.9195368e+3, 2.4844578e+2, -401528.63, -300497.8, 5320.1914, -0.13088362, -0.19552743, -300218.4, 204992.53, 0.0, 10.000799, 10.001755 
2.919142e+3, 2.5844067e+2, -520969.56, -527703.0, -32388.64, -0.02600041, -0.1319353, -491773.13, -84517.24, 0.0, 10.000153, 9.9999075 
2.9187438e+3, 2.6843125e+2, -440538.8, -574187.25, 1452.6084, -0.26840276, -0.19703484, -440523.03, -131172.64, 0.0, 10.000789, 9.998483 
2.918344e+3, 2.7842072e+2, -363083.9, -500816.25, 8297.062, -0.5776938, -0.38510546, -362585.9, -151128.14, 0.0, 10.000588, 9.998517 
2.9179505e+3, 2.884142e+2, -168714.52, -94781.625, -25501.844, -0.19743122, -0.26054576, -86838.586, 26682.594, 0.0, 10.000242, 10.000716 
2.9175526e+3, 2.9841003e+2, -247919.3, 152826.63, 368326.63, -0.26328537, -0.0908528, 371755.25, 387314.84, 0.0, 9.9978695, 10.00298 
2.9338872e+3, 1.3892515e+2, -1193496.9, -1265530.9, -217871.23, -0.19029436, 0.04867341, -1008685.7, 569841.9, 0.0, 10.0026655, 10.001686 
2.9334846e+3, 1.489155e+2, -1352619.3, -1630278.9, 60081.89, -0.47089386, -0.082942575, -1340175.9, 140441.69, 0.0, 10.002425, 9.998643 
2.9330906e+3, 1.5890619e+2, -1445646.1, -1567079.0, 29004.744, -0.14952117, -0.15323927, -1439073.9, -56361.535, 0.0, 10.000821, 9.999219 
2.932692e+3, 1.6889957e+2, -1054737.4, -1024041.3, -54996.246, -0.16270801, -0.14201532, -982291.6, 302479.34, 0.0, 10.001598, 10.001835 
2.9322916e+3, 1.7889298e+2, -1012944.2, -1195788.1, 25017.918, -0.33819124, -0.19364835, -1009582.9, 177245.69, 0.0, 10.002167, 9.999786 
2.931898e+3, 1.888847e+2, -1042685.8, -1340626.6, 46928.695, -0.2443391, -0.10131841, -1035468.9, 53449.543, 0.0, 10.0022, 9.998006 
2.9315057e+3, 1.988761e+2, -952042.75, -1122369.6, -36356.746, -0.092146896, -0.050121002, -944606.94, 46405.938, 0.0, 10.00147, 9.999264 
2.931111e+3, 2.0886952e+2, -715381.3, -587817.1, -60616.79, -0.03390713, -0.08710757, -563607.44, 329463.88, 0.0, 10.000998, 10.002412 
2.9307148e+3, 2.188633e+2, -789735.8, -689986.2, 39954.79, -0.08503912, -0.18581475, -675955.75, 119167.766, 0.0, 10.000172, 10.001508 
2.9303202e+3, 2.288571e+2, -646269.5, -590920.94, 121651.6, -0.13120218, -0.15569334, -493835.53, 203347.66, 0.0, 10.000651, 10.001246 
2.929925e+3, 2.388505e+2, -517418.72, -559618.6, 134498.77, -0.21187326, -0.16301689, -402374.9, 196873.38, 0.0, 10.001073, 10.000662 
2.9295298e+3, 2.4884298e+2, -506964.06, -495725.28, 46815.008, -0.15404853, -0.19254941, -454193.6, 47125.04, 0.0, 10.000558, 10.000602 
2.929134e+3, 2.5883526e+2, -552442.4, -554872.2, -4154.604, -0.10241324, -0.25788462, -549328.7, -145938.39, 0.0, 9.999823, 9.999937 
2.9287362e+3, 2.6882735e+2, -422696.78, -451456.22, 50645.688, -0.32420954, -0.25106966, -384428.97, -78960.83, 0.0, 10.000286, 9.999614 
2.9283372e+3, 2.788192e+2, -170485.89, -291081.22, 28312.873, -0.611832, -0.2943249, -164169.55, 43379.95, 0.0, 10.001194, 9.999729 
2.9279426e+3, 2.888121e+2, -52033.55, -115518.85, -38287.664, -0.28065926, -0.23396073, -34041.492, 75577.39, 0.0, 10.001149, 10.000268 
2.9275438e+3, 2.9880688e+2, -41860.582, 95070.984, 223204.88, -0.33419612, -0.06675398, 260074.64, 271745.25, 0.0, 9.999611, 10.00186 
2.9438788e+3, 1.3932464e+2, -1585015.4, -1402543.8, -192828.25, -0.37367007, 0.039233927, -1280456.5, 294154.06, 0.0, 9.999609, 10.002275 
2.9434785e+3, 1.4931546e+2, -1588460.5, -1784637.6, 94858.08, -0.47441787, -0.024399295, -1550096.0, -73398.73, 0.0, 10.000952, 9.998316 
2.9430863e+3, 1.5930496e+2, -1276971.6, -1541801.1, 102909.19, 0.08215845, -0.16987401, -1241684.4, 137119.8, 0.0, 10.002211, 9.998732 
2.942687e+3, 1.6929717e+2, -995228.5, -1101053.4, 15980.039, -0.047477808, -0.1842692, -992868.1, 288006.03, 0.0, 10.002511, 10.00084 
2.9422855e+3, 1.7928985e+2, -1080624.8, -1356161.3, 32608.99, -0.39048997, -0.21399538, -1076818.1, 106121.84, 0.0, 10.002278, 9.998597 
2.9418916e+3, 1.8928139e+2, -1177463.4, -1525566.8, 132719.45, -0.31982124, -0.024032978, -1132635.1, -47598.91, 0.0, 10.001807, 9.996926 
2.9414997e+3, 1.9927256e+2, -1069628.1, -1200733.5, 122365.47, -0.046814267, 0.10621222, -996362.75, -9225.025, 0.0, 10.000808, 9.999034 
2.9411048e+3, 2.0926516e+2, -625832.06, -421267.66, 69310.52, 0.03606592, -0.083030194, -399995.84, 489203.63, 0.0, 10.001126, 10.003457 
2.9407087e+3, 2.192583e+2, -708377.7, -599821.25, 100145.664, 0.064910024, -0.33155498, -540190.4, 251061.45, 0.0, 10.000548, 10.001949 
2.9403138e+3, 2.2925414e+2, -557190.7, -432048.1, 151641.81, -0.036153715, -0.17437203, -330575.47, 362715.22, 0.0, 10.000878, 10.002151 
2.939919e+3, 2.3924974e+2, -657171.75, -658015.1, 74731.93, -0.13678011, -0.058771733, -582860.3, 12474.07, 0.0, 10.0003805, 10.000258 
2.9395226e+3, 2.4924019e+2, -586202.7, -655054.5, 3487.0452, -0.16464292, -0.20205903, -586026.5, -88600.8, 0.0, 10.000719, 9.999332 
2.9391256e+3, 2.592302e+2, -585773.0, -639188.4, 12813.337, -0.15513866, -0.40442315, -582858.4, -183337.45, 0.0, 10.000065, 9.999196 
2.9387286e+3, 2.6922396e+2, -351559.2, -314309.9, 96579.09, -0.32511526, -0.27161494, -234576.02, 67004.23, 0.0, 10.000395, 10.0005045 
2.9383314e+3, 2.79218e+2, -385729.3, -389883.47, 34983.99, -0.52926534, -0.1868749, -352760.8, -149123.27, 0.0, 9.999837, 9.999682 
2.937934e+3, 2.8920957e+2, -180548.14, -205953.05, -45026.47, -0.45073083, -0.23797835, -146466.67, -40747.047, 0.0, 10.000579, 9.999843 
2.937537e+3, 2.9920116e+2, -505244.03, -543266.1, 16149.292, -0.2282722, -0.27001154, -499310.75, -491504.97, 0.0, 9.998568, 9.997865 
2.9538697e+3, 1.3972212e+2, -1763774.5, -1507094.6, -251308.17, -0.49687806, -0.10644869, -1353252.1, 217459.98, 0.0, 9.998503, 10.002102 
2.953475e+3, 1.4971311e+2, -1583631.8, -1647173.1, 159150.17, -0.13599408, -0.24901693, -1453112.1, 19684.875, 0.0, 10.000438, 9.999494 
2.9530782e+3, 1.5970847e+2, -1338848.0, -1630054.4, 151581.52, -0.25524113, 0.11695342, -1274267.4, 100577.17, 0.0, 10.00203, 9.998228 
2.9526818e+3, 1.6969694e+2, -1158237.3, -1442779.1, 2505.1304, -0.060829572, -0.09043536, -1158215.1, 118741.97, 0.0, 10.002506, 9.998506 
2.9522842e+3, 1.7968544e+2, -1106002.9, -1380949.6, 11059.937, -0.056352407, -0.34187755, -1105558.6, 73511.21, 0.0, 10.00213, 9.998511 
2.9518875e+3, 1.896795e+2, -1023118.25, -1182647.9, 133216.75, -0.13022716, -0.080018, -947611.9, 133524.86, 0.0, 10.00167, 9.999362 
2.9514924e+3, 1.9967385e+2, -979697.8, -1029257.2, 224783.2, -0.15473187, 0.17262927, -778332.6, 204867.92, 0.0, 10.000803, 10.000237 
2.9510978e+3, 2.0966583e+2, -601978.6, -515502.72, 173903.84, -0.077722974, -0.04040414, -379542.28, 505727.16, 0.0, 10.001634, 10.002618 
2.950702e+3, 2.1965773e+2, -535708.06, -637482.9, 158481.13, -0.06843728, -0.29824328, -420144.9, 367192.66, 0.0, 10.0021515, 10.000953 
2.950307e+3, 2.2965214e+2, -542252.06, -634286.2, 126624.35, -0.15321708, -0.12289315, -453542.4, 235851.75, 0.0, 10.001827, 10.000337 
2.9499117e+3, 2.3964652e+2, -513217.4, -625854.5, 6038.122, -0.26778087, 0.035453167, -512894.66, 78557.58, 0.0, 10.001421, 10.000001 
2.9495153e+3, 2.4963734e+2, -318785.47, -462573.38, -9484.814, -0.2705552, -0.122706465, -318162.5, 175376.64, 0.0, 10.002141, 10.000042 
2.9491195e+3, 2.5962773e+2, -93112.97, -317424.78, 17483.99, -0.24209587, -0.33384615, -91758.36, 303871.16, 0.0, 10.002911, 10.000101 
2.948724e+3, 2.696215e+2, -129982.71, -197684.86, 40452.445, -0.1528859, -0.2395479, -111086.31, 186602.3, 0.0, 10.001753, 10.000722 
2.948328e+3, 2.7961537e+2, -246356.3, -274478.6, -6857.339, -0.16327573, -0.16217929, -244773.31, -45026.047, 0.0, 10.000423, 10.000248 
2.947929e+3, 2.896047e+2, -54001.547, -142300.42, -27793.822, -0.2767265, -0.47186208, -45981.363, 55870.23, 0.0, 10.001234, 10.000052 
2.9475293e+3, 2.9959944e+2, 42118.47, -218481.2, -79749.97, -0.3134254, -0.18057013, 64586.773, 68495.36, 0.0, 10.001719, 9.998657 
2.9638654e+3, 1.4011818e+2, -1468348.4, -1405039.8, -100638.664, -0.049932823, -0.3438086, -1331194.6, 235635.19, 0.0, 10.000679, 10.001768 
2.9634696e+3, 1.5011153e+2, -1265129.9, -1401391.6, 110706.67, -0.019479558, -0.29674232, -1203269.4, 265620.34, 0.0, 10.002228, 10.000344 
2.9630712e+3, 1.6010773e+2, -1506598.5, -1708754.6, 75522.75, -0.32722154, 0.09564338, -1481500.3, -110574.43, 0.0, 10.000824, 9.998294 
2.9626766e+3, 1.700958e+2, -1340194.4, -1638784.3, 65898.84, -0.025279071, -0.098317, -1326297.3, -53250.32, 0.0, 10.00165, 9.997607 
2.962281e+3, 1.8008344e+2, -1091007.0, -1341063.0, 173712.27, 0.2069972, -0.36589557, -1002007.1, 173165.72, 0.0, 10.002074, 9.998828 
2.961883e+3, 1.9007875e+2, -901045.5, -929197.75, 177067.73, -0.0053637126, -0.10435465, -737495.25, 339728.06, 0.0, 10.001729, 10.001045 
2.9614857e+3, 2.0007452e+2, -1009626.0, -1032020.3, 191897.48, -0.1271121, 0.15691775, -828599.25, 150668.75, 0.0, 10.000601, 10.000307 
2.9610905e+3, 2.1006632e+2, -814484.1, -732839.8, 164351.42, -0.13549213, -0.0007347755, -604316.6, 277024.84, 0.0, 10.000767, 10.001502 
2.9606953e+3, 2.2005746e+2, -933818.8, -1016367.94, 135496.38, -0.13476059, -0.22553341, -833449.94, -50028.594, 0.0, 10.000336, 9.999187 
2.9603e+3, 2.3004979e+2, -740085.1, -927383.3, 149651.72, -0.22694021, -0.08327952, -657195.9, 28305.28, 0.0, 10.001388, 9.9985075 
2.959905e+3, 2.4004255e+2, -600435.94, -755581.56, 78786.21, -0.28546646, 0.059816547, -567442.94, 20134.46, 0.0, 10.001272, 9.999189 
2.959509e+3, 2.500344e+2, -414583.7, -389675.53, 73894.5, -0.3226394, -0.051050268, -327192.97, 162460.88, 0.0, 10.001043, 10.0010395 
2.9591134e+3, 2.6002598e+2, -531957.7, -525011.7, 56801.074, -0.26195228, -0.22454163, -471577.53, -79846.13, 0.0, 10.000004, 10.000035 
2.95872e+3, 2.700195e+2, -331465.03, -294596.6, 44296.97, 0.04832598, -0.15839522, -265051.22, 28742.984, 0.0, 10.000461, 10.000612 
2.9583246e+3, 2.8001237e+2, -391229.5, -387435.28, 37959.285, 0.2445085, -0.1777108, -351325.72, -155461.88, 0.0, 9.999777, 9.999734 
2.957925e+3, 2.8999934e+2, -139890.66, -136642.8, 62495.73, -0.035813417, -0.7461961, -75749.91, 22241.979, 0.0, 10.000614, 10.0003 
2.9575202e+3, 2.9999918e+2, -37010.13, 33560.65, -143550.97, -0.626818, -0.053264726, 146099.28, 146099.28, 0.0, 10.000151, 10.001091 
2.9738623e+3, 1.4051819e+2, -1524137.9, -1519110.0, 249080.45, 0.21755667, -0.08191635, -1272530.8, 290381.06, 0.0, 10.0007715, 10.000911 
2.9734614e+3, 1.505104e+2, -1303011.5, -1416908.3, 13865.36, -0.30935997, -0.13802853, -1301347.9, 163630.39, 0.0, 10.001992, 10.00033 
2.9730663e+3, 1.604988e+2, -1502455.6, -1550708.0, 35389.57, -0.150036, -0.55743504, -1483750.8, -116665.06, 0.0, 10.000204, 9.999668 
2.9726693e+3, 1.7049454e+2, -1194133.5, -1251964.3, 130233.46, -0.1435356, -0.2394627, -1089644.1, 179487.19, 0.0, 10.001301, 10.000428 
2.9722717e+3, 1.8048945e+2, -1041765.8, -1261476.9, 228264.94, -0.25704867, 0.019316118, -898297.25, 272888.97, 0.0, 10.002144, 9.999352 
2.9718754e+3, 1.9048084e+2, -958596.44, -1132597.0, 154158.97, -0.20133631, -0.005578537, -868582.5, 204693.73, 0.0, 10.0020075, 9.999554 
2.9714796e+3, 2.0047225e+2, -1007655.9, -1140300.4, 125465.15, -0.14609315, -0.044529427, -932062.2, 43302.86, 0.0, 10.000997, 9.999401 
2.9710826e+3, 2.104647e+2, -936596.6, -926425.0, 97245.12, -0.23749843, -0.030104471, -834132.8, 43304.2, 0.0, 10.000464, 10.000345 
2.9706863e+3, 2.2045693e+2, -944931.56, -1024148.4, 121158.74, -0.34085542, -0.050416943, -857071.25, -77560.73, 0.0, 10.000138, 9.999278 
2.9702955e+3, 2.304472e+2, -603275.6, -809890.8, 223975.33, -0.11945941, -0.16111949, -459930.84, 221675.3, 0.0, 10.001949, 9.999124 
2.9699036e+3, 2.4043804e+2, -249502.36, -502750.78, 119742.29, 0.022457737, -0.25174496, -201851.2, 381845.8, 0.0, 10.003186, 10.000044 
2.969504e+3, 2.504321e+2, -453417.9, -383524.9, 39178.215, -0.14428425, -0.17407528, -365971.97, 119783.57, 0.0, 10.000545, 10.001376 
2.9691046e+3, 2.604265e+2, -717898.1, -509829.22, 89891.42, -0.28579697, -0.09164963, -476373.2, -88562.65, 0.0, 9.998107, 10.001091 
2.9687107e+3, 2.7042165e+2, -339854.78, -224045.4, 182159.28, -0.117653735, 0.06716984, -90808.9, 199050.69, 0.0, 9.999908, 10.001456 
2.9683152e+3, 2.804155e+2, -5016.7764, -93392.016, 158820.63, -0.038877748, 0.102398016, 115648.69, 307569.66, 0.0, 10.001747, 10.000883 
2.9679164e+3, 2.9040325e+2, -66196.47, -51535.305, 167183.1, -0.16785054, -0.44110662, 108477.84, 202516.81, 0.0, 10.0007515, 10.00092 
2.9675138e+3, 3.0040327e+2, 10543.916, -89836.78, 23375.541, -0.5555848, 0.3253691, 15720.408, 15720.408, 0.0, 10.000906, 9.999961 
2.9838556e+3, 1.4091554e+2, -1296944.3, -1511146.4, 293775.34, 0.052380037, 0.010728521, -1091356.0, 467659.7, 0.0, 10.002669, 10.000075 
2.9834545e+3, 1.5090849e+2, -1315645.6, -1443692.6, -158095.03, -0.43657652, 0.054390386, -1209102.3, 251974.42, 0.0, 10.0019245, 10.000212 
2.983061e+3, 1.6089354e+2, -1428086.3, -1465021.0, -108755.15, 0.07295678, -0.7240728, -1336241.6, 26974.664, 0.0, 10.0004635, 10.000173 
2.982662e+3, 1.708918e+2, -1224147.6, -1139497.1, -128518.016, -0.18852387, -0.26225787, -1046514.1, 218723.31, 0.0, 10.000577, 10.001572 
2.9822636e+3, 1.8088958e+2, -1275952.9, -1407520.8, -152038.39, -0.47841027, 0.17418124, -1176076.9, -8812.645, 0.0, 10.000678, 9.999084 
2.9818684e+3, 1.9087918e+2, -1130005.5, -1321428.6, -161451.14, -0.2931466, 0.016636597, -1038028.06, 31342.65, 0.0, 10.001285, 9.998629 
2.9814735e+3, 2.0086879e+2, -1017260.75, -1228614.0, -89345.75, -0.08594208, -0.1554855, -984553.06, -13076.255, 0.0, 10.001308, 9.998652 
2.9810756e+3, 2.1086141e+2, -692830.6, -931451.8, -55548.3, -0.26295283, -0.06376506, -680533.3, 193017.89, 0.0, 10.00261, 9.999303 
2.9806796e+3, 2.2085458e+2, -631696.06, -873279.1, 51251.258, -0.32222316, 0.052492537, -621272.94, 154345.84, 0.0, 10.002355, 9.999249 
2.9802912e+3, 2.308447e+2, -548773.6, -646135.75, 187950.2, 0.022989033, -0.18019307, -403302.38, 274408.94, 0.0, 10.001851, 10.000258 
2.979901e+3, 2.4083456e+2, -618149.3, -665067.25, 4635.6396, 0.3006417, -0.45662984, -617695.7, -37888.094, 0.0, 10.000696, 10.000116 
2.979498e+3, 2.5083e+2, -505658.06, -374025.78, -139625.66, -0.018928641, -0.27365485, -285481.66, 196374.33, 0.0, 10.00019, 10.001562 
2.9790953e+3, 2.6082668e+2, -634452.94, -477692.3, 29741.46, -0.289406, 0.021276481, -472239.3, -88346.414, 0.0, 9.998843, 10.000945 
2.9787007e+3, 2.7082393e+2, -165168.88, -20871.887, 177803.34, -0.346258, 0.29820096, 98863.53, 384787.8, 0.0, 10.000723, 10.002423 
2.9783052e+3, 2.808198e+2, -75645.83, -91086.35, 69780.72, -0.45099267, 0.4274276, -13159.602, 174807.27, 0.0, 10.001279, 10.001103 
2.977907e+3, 2.908099e+2, -41527.992, 37925.633, 17839.459, -0.3999619, 0.04720882, 41747.254, 131805.56, 0.0, 10.000767, 10.001471 
2.9775107e+3, 3.008055e+2, -376964.56, -632045.94, 161290.84, -0.22104622, 0.4091764, -298880.94, -298880.94, 0.0, 10.000093, 9.996546 
2.9938465e+3, 1.4130412e+2, -1492972.8, -1656758.3, 223933.98, -0.48189843, -0.5548373, -1336427.1, 218772.94, 0.0, 10.0016775, 9.999549 
2.9934484e+3, 1.5130515e+2, -1450867.5, -1515786.9, -253426.11, -0.48446, 0.31253627, -1227830.8, 229362.0, 0.0, 10.00111, 10.000098 
2.993054e+3, 1.612946e+2, -1707654.9, -1851957.1, -166715.36, 0.058570076, 0.05076212, -1598147.6, -238848.58, 0.0, 9.999651, 9.9979105 
2.9926562e+3, 1.7128143e+2, -1580933.1, -1676650.6, -244264.0, -0.048684217, -0.32633644, -1379883.5, -118447.625, 0.0, 9.999707, 9.998311 
2.992258e+3, 1.81271e+2, -1389966.4, -1422065.8, -300842.84, -0.3479963, -0.50641984, -1104745.4, 58799.168, 0.0, 9.999754, 9.9994135 
2.991861e+3, 1.9126612e+2, -1024010.06, -1032840.5, -255253.55, -0.40158784, -0.3012143, -773133.56, 292458.16, 0.0, 10.001037, 10.0007105 
2.9914662e+3, 2.0126069e+2, -926861.0, -1066836.8, -144272.11, -0.27754757, -0.1381754, -836496.94, 131147.64, 0.0, 10.001397, 9.999713 
2.991075e+3, 2.1125323e+2, -435170.0, -725478.56, -68245.484, -0.0008669995, -0.13296801, -419927.25, 449793.0, 0.0, 10.00402, 10.00004 
2.9906803e+3, 2.2124587e+2, -79487.54, -471805.94, -64795.734, -0.0034326203, -0.13935491, -69062.81, 702731.3, 0.0, 10.005485, 10.000507 
2.990282e+3, 2.3124138e+2, -368204.3, -428885.4, -7704.483, -0.42492443, 0.045830514, -367241.38, 306594.78, 0.0, 10.002426, 10.001526 
2.9898846e+3, 2.4123643e+2, -605915.56, -538261.44, -112441.46, -0.67426616, 0.16151087, -454668.97, 121213.73, 0.0, 10.000159, 10.0012665 
2.9894856e+3, 2.5122678e+2, -322287.53, -316127.75, -213953.08, -0.5554786, -0.1741183, -105232.4, 372745.6, 0.0, 10.001497, 10.0013895 
2.9890877e+3, 2.6121834e+2, -82395.414, -194923.23, -45413.348, -0.46294072, -0.36984107, -66354.414, 313707.94, 0.0, 10.002417, 10.001236 
2.988697e+3, 2.7121657e+2, 153433.4, 109222.15, 64036.59, -0.20182136, 0.030052532, 199072.47, 481154.44, 0.0, 10.002967, 10.002307 
2.9883036e+3, 2.8121352e+2, 292105.03, 149536.25, -139716.58, -0.14620587, 0.26631483, 377671.47, 561784.4, 0.0, 10.003389, 10.001824 
2.9879022e+3, 2.912015e+2, 293682.0, 222362.81, -235658.7, -0.30220345, -0.38217947, 496363.84, 582589.56, 0.0, 10.002815, 10.001918 
2.9875037e+3, 3.011933e+2, -118647.945, -500650.34, 31420.91, -0.29916272, -0.40218, -116080.73, -116080.73, 0.0, 10.001512, 9.996982 
3.003844e+3, 1.4170183e+2, -1631497.1, -1602929.6, 2131.1582, -0.19187395, -0.2579016, -1602771.5, -51467.848, 0.0, 9.999873, 10.000909 
3.003446e+3, 1.516981e+2, -1361056.0, -1553915.1, -213204.3, -0.023323236, 0.14144585, -1223488.3, 229860.48, 0.0, 10.002007, 9.9993925 
3.0030492e+3, 1.6168526e+2, -1283644.4, -1751692.9, -112880.97, 0.19342858, -0.27659932, -1257842.9, 97639.33, 0.0, 10.002848, 9.99705 
3.0026466e+3, 1.716791e+2, -945409.5, -1474220.5, 79489.37, -0.39530817, 0.11357089, -933719.3, 323830.78, 0.0, 10.004401, 9.997379 
3.002249e+3, 1.8167105e+2, -618381.06, -1013470.6, 202195.03, -0.65386134, 0.2299386, -533248.0, 626385.5, 0.0, 10.004729, 9.999842 
3.001856e+3, 1.916664e+2, -848337.6, -783234.9, 124026.72, -0.27175903, 0.32239968, -687559.0, 374113.0, 0.0, 10.001397, 10.002227 
3.0014613e+3, 2.0165823e+2, -1253437.5, -1263073.4, 249058.81, -0.14504422, 0.17323513, -1009150.1, -45402.74, 0.0, 9.999182, 9.999436 
3.0010656e+3, 2.1165028e+2, -1282074.6, -1018177.5, 334277.88, -0.3931887, 0.07784813, -790748.6, 75079.73, 0.0, 9.9977045, 10.000981 
3.0006725e+3, 2.216432e+2, -1187537.3, -926720.3, 247075.61, -0.40091577, 0.049576677, -777749.6, -9848.204, 0.0, 9.997497, 10.001194 
3.0002812e+3, 2.3163857e+2, -682105.56, -407750.7, 323326.72, 0.16115819, 0.08473853, -193704.83, 476244.44, 0.0, 9.999548, 10.0029335 
2.999886e+3, 2.4163647e+2, -824505.9, -760046.9, 251684.64, 0.23891751, 0.41937527, -538536.5, 33435.16, 0.0, 9.99917, 10.000157 
2.9994842e+3, 2.5162962e+2, -591699.3, -626509.2, 26666.195, -0.017743861, 0.51130277, -577260.6, -103221.33, 0.0, 10.000507, 9.999579 
2.9990837e+3, 2.6161852e+2, -460370.3, -541016.7, 14744.467, -0.30201134, 0.17829461, -457759.16, -81611.24, 0.0, 10.000602, 9.999637 
2.9986915e+3, 2.716077e+2, -689696.9, -373607.13, 63624.94, -0.19485596, -0.27643746, -361280.9, -83026.28, 0.0, 9.997668, 10.001354 
2.9982978e+3, 2.8160417e+2, -729854.0, -366588.9, -124791.02, -0.16631515, -0.04504983, -327850.9, -147562.34, 0.0, 9.996567, 10.001469 
2.9978976e+3, 2.9160556e+2, -112713.7, 123268.28, -36490.81, -0.15025058, 0.56831825, 128782.164, 211052.84, 0.0, 9.999812, 10.002493 
2.9974973e+3, 3.0159578e+2, -117118.6, -226642.53, 180426.38, -0.27889416, 0.2797336, 16673.27, 16673.27, 0.0, 10.000629, 9.999099 
