coord_x,coord_y,stress_xx,stress_yy,tau_xy,velocity_x,velocity_y,stress_1,eps,damage,lx,ly
4.9981865e+0, 1.2611115e+2, -2110634.0, -1672648.5, 1866.0996, 0.004534336, -0.47888255, -1672640.6, 31423.684, 0.000055290777, 9.99628, 10.002082 
4.998332e+0, 1.3611288e+2, -1989338.0, -1625318.9, -1097.5028, -0.0022322603, -0.4619303, -1625315.5, -19268.855, 0.000019222676, 9.996707, 10.001529 
4.9985537e+0, 1.4611351e+2, -1839879.3, -1523880.1, -3504.4424, -0.002301462, -0.54037035, -1523841.3, -15799.6045, 0.000002703532, 9.997152, 10.001334 
4.998796e+0, 1.5611583e+2, -1676650.4, -1396174.8, -6147.912, -0.00079429726, -0.44475922, -1396040.0, 13981.179, 0.000000021272871, 9.997607, 10.001318 
4.999013e+0, 1.6611737e+2, -1553643.8, -1331844.0, -8114.8, 0.0024812669, -0.4008966, -1331547.5, -19539.334, 0.0, 9.997975, 10.000911 
4.9992174e+0, 1.7611818e+2, -1412570.4, -1218077.0, -5875.094, 0.0070544444, -0.414967, -1217899.6, -3897.5403, 0.0, 9.998293, 10.000866 
4.999377e+0, 1.8611893e+2, -1308112.1, -1194765.5, -5753.4697, 0.004087112, -0.38838854, -1194474.3, -78476.375, 0.0, 9.9986725, 10.00017 
4.999508e+0, 1.9611971e+2, -1152480.5, -1074571.6, -9932.483, -0.0038324113, -0.33102784, -1073325.3, -55331.156, 0.0, 9.999092, 10.00012 
4.9996966e+0, 2.0611982e+2, -1050321.4, -1050809.6, -11371.013, -0.002791608, -0.29296345, -1039191.9, -119196.21, 0.0, 9.999449, 9.999438 
4.9999237e+0, 2.161195e+2, -906639.9, -931550.56, -8114.217, 0.0040596253, -0.27438927, -904230.0, -82228.99, 0.0, 9.999766, 9.999432 
5.000144e+0, 2.261188e+2, -771933.8, -857704.44, -7811.7603, 0.0044901217, -0.26605913, -771228.1, -47219.477, 0.0, 10.000198, 9.999058 
5.000361e+0, 2.3611788e+2, -601647.6, -727500.4, -14645.844, 0.0008141346, -0.2662898, -599965.75, 26052.08, 0.0, 10.000706, 9.999034 
5.000595e+0, 2.4611655e+2, -470690.3, -669003.7, -17834.848, 0.000913701, -0.27684942, -469099.16, 58930.9, 0.0, 10.001171, 9.998539 
5.00084e+0, 2.561149e+2, -310604.5, -544224.7, -16415.645, 0.0034019314, -0.2985167, -309456.7, 120587.78, 0.0, 10.001611, 9.998511 
5.0011075e+0, 2.66113e+2, -170926.48, -488989.03, -12985.365, 0.0023642546, -0.30889085, -170397.22, 161665.83, 0.0, 10.002168, 9.997949 
5.001392e+0, 2.7611092e+2, 20410.996, -344593.4, -13880.896, -0.0009560847, -0.31518373, 20938.117, 255022.55, 0.0, 10.002803, 9.997962 
5.001683e+0, 2.8610894e+2, 184552.86, -243260.47, -18889.328, -0.00072176394, -0.29416287, 185385.27, 321488.75, 0.000000004221918, 10.003381, 9.997706 
5.0019777e+0, 2.9610705e+2, 358492.2, -112795.0, -23703.107, 0.0017496966, -0.2586481, 359681.34, 397802.53, 0.0000065845143, 10.003921, 9.997669 
5.002229e+0, 3.0610374e+2, 459349.72, -93325.52, -21386.457, -0.0026763475, -0.3318578, 460176.06, 460176.06, 0.0000753414, 10.004512, 9.997186 
5.002531e+0, 3.1610128e+2, 544843.7, -59369.223, -16179.498, -0.003595728, -0.29034376, 545276.6, 545276.6, 0.00026863956, 10.005132, 9.997121 
1.4994559e+1, 1.2611084e+2, -2118054.5, -1687627.4, 16444.393, 0.013459908, -0.49625292, -1687000.1, 17066.697, 0.000051840474, 9.996278, 10.001981 
1.4994997e+1, 1.3611284e+2, -1996005.0, -1638947.4, 15112.365, -0.0067088734, -0.44267884, -1638309.0, -32261.494, 0.000017729604, 9.996706, 10.001435 
1.4995661e+1, 1.4611338e+2, -1844225.1, -1532706.3, 13564.091, -0.00689747, -0.52153283, -1532116.8, -24073.307, 0.0000024017909, 9.997151, 10.001274 
1.4996389e+1, 1.5611538e+2, -1680176.9, -1403353.8, 10354.692, -0.002371544, -0.4517572, -1402967.0, 7059.0044, 0.000000014045858, 9.997606, 10.001269 
1.4997038e+1, 1.661169e+2, -1549817.1, -1323815.5, 3712.4407, 0.007443045, -0.41124687, -1323754.6, -11741.627, 0.0, 9.997975, 10.000966 
1.4997652e+1, 1.7611787e+2, -1410067.4, -1212757.4, 6496.5522, 0.021158693, -0.4127753, -1212543.6, 1461.3478, 0.0, 9.998292, 10.000902 
1.4998132e+1, 1.8611868e+2, -1315514.9, -1209996.9, 10067.537, 0.0122603765, -0.37579408, -1209044.9, -93044.61, 0.0, 9.9986725, 10.000066 
1.4998524e+1, 1.9611944e+2, -1158254.8, -1086517.3, 5500.4023, -0.011505408, -0.30953735, -1086098.0, -68100.75, 0.0, 9.999092, 10.000038 
1.499909e+1, 2.061194e+2, -1044811.56, -1039336.7, 507.66663, -0.008378024, -0.2898881, -1039290.0, -119290.0, 0.0, 9.999449, 9.999517 
1.4999771e+1, 2.1611877e+2, -903317.44, -924533.5, 4628.172, 0.012181759, -0.3067944, -902351.75, -80344.625, 0.0, 9.999765, 9.99948 
1.5000433e+1, 2.2611806e+2, -784300.5, -883258.06, 11337.991, 0.013461718, -0.2935058, -783018.06, -59002.88, 0.0, 10.000197, 9.998882 
1.5001084e+1, 2.3611729e+2, -612500.25, -749924.25, 4216.817, 0.002436973, -0.26208672, -612370.94, 13652.903, 0.0, 10.000706, 9.99888 
1.5001783e+1, 2.4611592e+2, -468827.3, -665050.0, -1355.7538, 0.0027313107, -0.269352, -468817.94, 59218.598, 0.0, 10.00117, 9.998567 
1.5002519e+1, 2.5611416e+2, -308861.4, -540571.0, 924.0915, 0.01019834, -0.3061847, -308857.75, 121194.3, 0.0, 10.001611, 9.998536 
1.5003322e+1, 2.6611224e+2, -172006.38, -491177.22, 10898.802, 0.0070862113, -0.3188402, -171634.64, 160435.95, 0.0, 10.002168, 9.997934 
1.5004176e+1, 2.761102e+2, 18106.969, -349243.28, 9664.055, -0.002870397, -0.31786555, 18361.03, 252452.27, 0.0, 10.002803, 9.997931 
1.5005049e+1, 2.8610823e+2, 175035.7, -262852.22, 1416.5277, -0.002173877, -0.29208118, 175040.28, 311151.44, 0.0000000059189293, 10.00338, 9.997572 
1.5005934e+1, 2.961062e+2, 351161.78, -127904.41, -2873.539, 0.005256049, -0.2538663, 351179.03, 389309.84, 0.0000065077284, 10.00392, 9.997566 
1.5006688e+1, 3.061029e+2, 468441.28, -74353.42, 1989.5874, -0.008031039, -0.32507136, 468448.56, 468448.56, 0.00007419149, 10.004512, 9.997316 
1.500759e+1, 3.1610063e+2, 553217.6, -41755.97, 7926.7896, -0.010938528, -0.2835775, 553323.2, 553323.2, 0.00026511407, 10.005131, 9.997242 
2.4990776e+1, 1.2611015e+2, -2141964.3, -1707263.8, -10379.3, 0.013635428, -0.4924964, -1707016.1, -2942.638, 0.000046849033, 9.99615, 10.001908 
2.4991736e+1, 1.3611218e+2, -2006725.1, -1650978.5, -8099.909, -0.001329776, -0.4290209, -1650794.3, -44739.668, 0.000015561249, 9.996662, 10.001374 
2.4992895e+1, 1.4611267e+2, -1849016.1, -1535764.6, -7493.3765, 0.0027402276, -0.510143, -1535585.5, -27534.422, 0.0000019703923, 9.997122, 10.001267 
2.4994038e+1, 1.5611456e+2, -1689732.4, -1408878.9, -6854.345, 0.0048280973, -0.45116198, -1408711.8, 1322.5879, 0.000000006345991, 9.997545, 10.001262 
2.4995056e+1, 1.6611606e+2, -1548177.5, -1324368.6, -16481.125, 0.010695454, -0.41152403, -1323161.4, -11139.97, 0.0, 9.9979925, 10.000954 
2.4996017e+1, 1.7611708e+2, -1386833.6, -1202794.1, -18803.17, 0.020303218, -0.40720272, -1200892.8, 13120.521, 0.0, 9.998457, 10.000892 
2.4996889e+1, 1.861179e+2, -1295830.6, -1200825.9, -13828.531, 0.01394286, -0.36878055, -1198854.0, -82845.555, 0.0, 9.998809, 10.000064 
2.4997696e+1, 1.9611864e+2, -1159118.0, -1087412.5, -10536.407, -0.0033082967, -0.3038682, -1085896.4, -67890.984, 0.0, 9.999088, 10.000034 
2.4998616e+1, 2.0611854e+2, -1039697.7, -1039048.7, -15356.322, -0.0029502204, -0.28826082, -1024013.44, -104004.914, 0.0, 9.999494, 9.999498 
2.4999611e+1, 2.1611784e+2, -874213.1, -913618.9, -18591.785, 0.008969757, -0.3106487, -866826.2, -44810.047, 0.0, 9.999979, 9.999453 
2.500068e+1, 2.2611706e+2, -766687.5, -884190.2, -10199.844, 0.010384136, -0.29834622, -765808.7, -41783.816, 0.0, 10.00036, 9.998798 
2.50018e+1, 2.3611623e+2, -622843.1, -764138.4, -10089.817, 0.0051253918, -0.26489004, -622126.25, 3908.026, 0.0, 10.000674, 9.998798 
2.5002983e+1, 2.4611482e+2, -476391.6, -676269.44, -13847.475, 0.006498996, -0.26871312, -475436.78, 52610.816, 0.0, 10.001151, 9.998499 
2.5004208e+1, 2.5611302e+2, -294953.16, -540499.44, -18582.955, 0.011890502, -0.30090258, -293554.75, 136508.94, 0.0, 10.001735, 9.998477 
2.5005537e+1, 2.6611108e+2, -158743.73, -484310.06, -9082.675, 0.007290716, -0.31342292, -158490.55, 173591.83, 0.0, 10.002256, 9.997938 
2.500694e+1, 2.7610904e+2, 8722.942, -354634.5, -8903.849, -0.0035775676, -0.31494644, 8940.995, 243043.8, 0.0, 10.002742, 9.997923 
2.5008363e+1, 2.86107e+2, 149063.36, -286086.72, -15704.026, -0.0022419463, -0.28884578, 149629.36, 285752.84, 0.0000000086392555, 10.003247, 9.997477 
2.5009787e+1, 2.9610488e+2, 323422.78, -149800.72, -16602.863, 0.006360534, -0.24822484, 324004.56, 362149.03, 0.0000063841276, 10.003766, 9.99749 
2.5011072e+1, 3.0610165e+2, 454562.03, -72343.86, -9139.826, -0.014219088, -0.31642315, 454720.53, 454720.53, 0.00007239121, 10.004379, 9.997394 
2.5012645e+1, 3.1609944e+2, 546458.06, -37601.91, -6472.0347, -0.014585651, -0.27429122, 546529.75, 546529.75, 0.00025964255, 10.005053, 9.997309 
3.498684e+1, 1.261091e+2, -2145362.0, -1713827.5, 7538.119, 0.004641316, -0.4679343, -1713695.9, -9611.357, 0.000040315306, 9.996148, 10.0018635 
3.4988552e+1, 1.3611093e+2, -2008870.6, -1655360.1, 10990.58, 0.01375347, -0.4206878, -1655018.8, -48950.895, 0.000012732851, 9.996662, 10.001345 
3.4990254e+1, 1.461114e+2, -1845557.8, -1528741.1, 8414.1045, 0.02640573, -0.50575244, -1528517.9, -20453.318, 0.0000014374052, 9.997122, 10.001316 
3.499174e+1, 1.5611337e+2, -1687336.4, -1403938.1, 9305.256, 0.020570636, -0.442748, -1403633.0, 6413.3745, 0.0000000013691683, 9.997545, 10.001296 
3.4993064e+1, 1.6611485e+2, -1553823.1, -1335922.1, 1081.3768, 0.012049538, -0.40172482, -1335916.8, -23883.11, 0.0, 9.997992, 10.0008745 
3.4994316e+1, 1.7611578e+2, -1390883.5, -1211208.5, -1969.0409, 0.004288597, -0.39832178, -1211187.0, 2839.8223, 0.0, 9.998457, 10.0008335 
3.4995648e+1, 1.8611656e+2, -1288805.4, -1186305.8, -3303.5872, 0.0089486865, -0.36740112, -1186199.4, -70177.13, 0.0, 9.998809, 10.000163 
3.4997025e+1, 1.961173e+2, -1153922.8, -1076565.3, 940.29974, 0.020638913, -0.31394187, -1076553.9, -58535.23, 0.0, 9.999088, 10.00011 
3.499827e+1, 2.0611724e+2, -1048031.0, -1056249.5, 3036.065, 0.013372044, -0.28802526, -1047031.06, -127010.01, 0.0, 9.999493, 9.99938 
3.4999442e+1, 2.1611668e+2, -881523.6, -928733.6, -952.08167, -0.00574963, -0.28580716, -881504.4, -59476.453, 0.0, 9.999978, 9.999349 
3.5000885e+1, 2.2611578e+2, -766242.9, -883173.1, 1610.2572, -0.0049263816, -0.28052273, -766220.7, -42183.11, 0.0, 10.000359, 9.998806 
3.500251e+1, 2.3611468e+2, -623605.06, -765703.25, 2892.6497, 0.008719816, -0.27485558, -623546.2, 2502.8494, 0.0, 10.000674, 9.998788 
3.500419e+1, 2.4611323e+2, -487816.8, -699971.2, 8147.657, 0.012078972, -0.275059, -487504.34, 40558.926, 0.0, 10.001151, 9.998336 
3.500591e+1, 2.561115e+2, -305124.47, -561464.75, 2978.2124, 0.008415446, -0.28260908, -305089.88, 124989.555, 0.0, 10.001734, 9.998334 
3.500775e+1, 2.6610956e+2, -157305.0, -481100.88, 9131.623, 0.0028723597, -0.29253137, -157047.67, 175050.66, 0.0, 10.002256, 9.997961 
3.5009685e+1, 2.761074e+2, 9713.887, -352396.56, 9561.024, -0.0031981703, -0.30639896, 9966.157, 244085.28, 0.0, 10.002741, 9.997938 
3.5011622e+1, 2.8610528e+2, 144944.25, -294555.03, 3713.9336, -0.0010794423, -0.28455842, 144975.63, 281116.06, 0.000000011844628, 10.003247, 9.997418 
3.501354e+1, 2.9610315e+2, 319864.63, -157124.34, 3522.0796, 0.0048847147, -0.24181712, 319890.63, 358052.75, 0.0000061783935, 10.003766, 9.997439 
3.501538e+1, 3.0609995e+2, 456299.03, -68633.17, 16232.65, -0.021339532, -0.30588496, 456800.53, 456800.53, 0.000069753405, 10.004379, 9.997419 
3.5017696e+1, 3.1609774e+2, 547309.3, -35664.758, 19523.826, -0.014854944, -0.26247114, 547962.44, 547962.44, 0.00025177535, 10.005053, 9.997322 
4.4983086e+1, 1.2610729e+2, -2152912.5, -1718107.1, -15296.408, 0.016887996, -0.46354023, -1717569.6, -13467.254, 0.000032724987, 9.996099, 10.001859 
4.498523e+1, 1.3610911e+2, -2011331.4, -1655674.1, -8191.0435, 0.016328147, -0.41777784, -1655485.6, -49399.24, 0.0000095173555, 9.996642, 10.001352 
4.498741e+1, 1.4610964e+2, -1844170.0, -1522354.9, -12990.951, 0.030513981, -0.5012719, -1521831.4, -13748.861, 0.00000089505704, 9.9971075, 10.001368 
4.4989353e+1, 1.5611167e+2, -1687146.1, -1399460.1, -11922.981, 0.02801914, -0.4354539, -1398966.9, 11096.332, 0.00000000008098328, 9.997527, 10.001335 
4.499106e+1, 1.6611314e+2, -1572583.5, -1351380.5, -19758.586, 0.017623488, -0.39451823, -1349629.5, -37578.72, 0.0, 9.99789, 10.000818 
4.4992664e+1, 1.76114e+2, -1428754.8, -1234659.9, -21225.613, 0.0050955424, -0.39312282, -1232365.8, -18320.807, 0.0, 9.99822, 10.000788 
4.49944e+1, 1.8611476e+2, -1305763.9, -1190749.3, -24553.727, 0.009777806, -0.36428687, -1185726.8, -69686.21, 0.0, 9.998676, 10.000196 
4.499621e+1, 1.961155e+2, -1133798.1, -1064440.6, -25348.756, 0.02437625, -0.31276733, -1056163.9, -38127.35, 0.0, 9.999215, 10.000132 
4.499784e+1, 2.0611547e+2, -1037110.0, -1058783.4, -23686.201, 0.015671961, -0.28306437, -1021899.2, -101860.33, 0.0, 9.999601, 9.9993105 
4.4999358e+1, 2.161149e+2, -899115.06, -944303.9, -24076.504, -0.00749661, -0.27347904, -888691.5, -66645.55, 0.0, 9.999888, 9.999286 
4.5001194e+1, 2.2611392e+2, -777228.1, -890597.94, -20834.73, -0.0066023977, -0.2727931, -773520.44, -49464.14, 0.0, 10.000293, 9.998787 
4.500324e+1, 2.3611267e+2, -610893.7, -762604.1, -21018.906, 0.009647413, -0.27949136, -608035.44, 18033.275, 0.0, 10.000774, 9.99876 
4.5005417e+1, 2.4611117e+2, -480829.16, -707220.4, -9243.446, 0.014987569, -0.27698743, -480452.38, 47631.05, 0.0, 10.001245, 9.998241 
4.5007676e+1, 2.561095e+2, -314788.7, -576098.06, -9622.503, 0.012978327, -0.2717696, -314434.84, 115664.875, 0.0, 10.001711, 9.998244 
4.5009986e+1, 2.6610747e+2, -169373.45, -490785.06, -5204.2446, 0.0042337757, -0.2817311, -169289.2, 162830.0, 0.0, 10.00219, 9.997927 
4.501235e+1, 2.761052e+2, -2071.337, -362232.03, -8735.151, -0.008152567, -0.3043496, -1859.6035, 232281.33, 0.0, 10.002679, 9.997901 
4.5014855e+1, 2.86103e+2, 140597.72, -304600.97, -13924.896, -0.0027627177, -0.28430274, 141032.83, 277195.78, 0.000000014278152, 10.003252, 9.997347 
4.5017442e+1, 2.9610085e+2, 332555.78, -157911.88, -15157.114, 0.012519513, -0.23848622, 333023.75, 371208.88, 0.0000058442592, 10.003883, 9.997378 
4.5019758e+1, 3.0609763e+2, 458675.8, -65139.6, -4134.2715, -0.021804236, -0.30058035, 458708.44, 458708.44, 0.00006616406, 10.004385, 9.99744 
4.502257e+1, 3.1609544e+2, 510564.7, -52310.113, -537.9797, -0.019649498, -0.2621853, 510565.2, 510565.2, 0.00024130901, 10.004795, 9.997332 
5.497951e+1, 1.2610474e+2, -2150285.5, -1713116.1, 3843.3362, 0.048678707, -0.47826627, -1713082.4, -8955.276, 0.000024933155, 9.996101, 10.001892 
5.498177e+1, 1.3610673e+2, -2008118.8, -1648827.3, 11551.433, 0.005961426, -0.42030933, -1648456.3, -42346.383, 0.000006388969, 9.996641, 10.0014 
5.498436e+1, 1.4610736e+2, -1840608.8, -1514649.1, 2858.6833, 0.014844014, -0.49704435, -1514624.0, -6519.047, 0.00000045379167, 9.997107, 10.001421 
5.4986864e+1, 1.5610948e+2, -1683961.3, -1393021.4, 3571.959, 0.026596017, -0.42930916, -1392977.5, 17107.44, 0.0, 9.997528, 10.001379 
5.4989046e+1, 1.6611093e+2, -1574896.9, -1356421.4, -7468.9453, 0.026961267, -0.38973927, -1356166.3, -44093.56, 0.0, 9.997892, 10.000783 
5.499106e+1, 1.7611173e+2, -1431256.6, -1239802.6, -7987.057, 0.022584338, -0.3913139, -1239470.0, -25402.18, 0.0, 9.9982195, 10.000752 
5.499314e+1, 1.861125e+2, -1308169.5, -1195581.0, -4129.971, 0.016227124, -0.35927388, -1195429.6, -79366.11, 0.0, 9.998676, 10.000164 
5.4995257e+1, 1.9611326e+2, -1135973.4, -1068968.5, -5956.203, 0.007500037, -0.3003338, -1068443.1, -50384.13, 0.0, 9.999216, 10.0001 
5.4997325e+1, 2.0611319e+2, -1038546.25, -1061841.3, -12895.336, 0.0036162992, -0.27341542, -1032816.94, -112755.016, 0.0, 9.999602, 9.99929 
5.499936e+1, 2.1611251e+2, -900687.06, -947608.9, -12412.08, 0.003452994, -0.27383766, -897606.06, -75535.875, 0.0, 9.999888, 9.999263 
5.5001605e+1, 2.2611147e+2, -780443.44, -897232.56, -2628.2063, 0.0050959177, -0.2753323, -780384.4, -56303.438, 0.0, 10.000293, 9.998741 
5.5004e+1, 2.361102e+2, -614032.56, -769009.0, -2917.131, 0.0077266716, -0.27863973, -613977.6, 12115.638, 0.0, 10.000773, 9.998717 
5.500666e+1, 2.4610867e+2, -482886.8, -711370.0, 8293.176, 0.014948216, -0.27435875, -482586.2, 45521.867, 0.0, 10.001245, 9.998213 
5.500951e+1, 2.56107e+2, -317282.84, -581270.25, 8032.5034, 0.025180634, -0.26839745, -317038.66, 113085.83, 0.0, 10.001711, 9.998209 
5.5012244e+1, 2.6610485e+2, -175716.16, -504014.4, 13123.441, 0.011088516, -0.28114107, -175192.39, 156952.6, 0.0, 10.002191, 9.997835 
5.501492e+1, 2.7610245e+2, -8421.822, -375416.56, 10102.209, -0.018680554, -0.3087982, -8143.9507, 226024.28, 0.0, 10.002679, 9.99781 
5.501806e+1, 2.8610015e+2, 134574.5, -316919.8, 9829.727, -0.007452207, -0.28804886, 134788.4, 270979.38, 0.000000014996283, 10.003251, 9.997263 
5.502149e+1, 2.9609796e+2, 327293.63, -168534.86, 7835.849, 0.029191505, -0.23820186, 327417.44, 365630.9, 0.0000053587105, 10.003882, 9.997306 
5.5024207e+1, 3.0609474e+2, 459731.8, -62851.13, 11224.667, -0.015754351, -0.30069712, 459972.8, 459972.8, 0.00006164111, 10.004385, 9.997457 
5.5027264e+1, 3.160924e+2, 510922.5, -51765.105, 15936.046, -0.029953128, -0.27370527, 511373.47, 511373.47, 0.0002283014, 10.004796, 9.997335 
6.497552e+1, 1.2610166e+2, -2182325.8, -1719039.1, -12146.925, 0.052785374, -0.49970213, -1718720.9, -14564.013, 0.00001782932, 9.995841, 10.001977 
6.4978355e+1, 1.3610399e+2, -2043727.9, -1656033.8, 212.94945, 0.014638627, -0.4172077, -1656033.6, -49897.047, 0.0000037958928, 9.996354, 10.001489 
6.4981425e+1, 1.4610472e+2, -1874340.1, -1530081.8, -10799.784, 0.021973522, -0.48881835, -1529743.3, -21612.361, 0.0000001737419, 9.996872, 10.001428 
6.49843e+1, 1.5610677e+2, -1703268.8, -1401751.3, -14067.661, 0.02351526, -0.42985484, -1401096.3, 9015.525, 0.0, 9.997394, 10.001384 
6.498692e+1, 1.6610819e+2, -1577203.6, -1358624.9, -27916.338, 0.026128218, -0.39162898, -1355115.9, -43015.918, 0.0, 9.997882, 10.000772 
6.498944e+1, 1.7610903e+2, -1413118.3, -1232407.6, -26371.844, 0.0322265, -0.38913625, -1228637.8, -14542.886, 0.0, 9.99835, 10.00074 
6.49919e+1, 1.8610978e+2, -1300999.4, -1195330.6, -20167.49, 0.021618286, -0.3524762, -1191612.4, -75522.03, 0.0, 9.998739, 10.000134 
6.4994323e+1, 1.9611059e+2, -1158655.3, -1083587.8, -22103.393, -0.00094553316, -0.2886166, -1077563.0, -59477.41, 0.0, 9.999077, 10.000067 
6.4996797e+1, 2.0611043e+2, -1057937.3, -1079025.0, -32965.363, -0.0041597276, -0.2648382, -1033870.56, -113781.09, 0.0, 9.999503, 9.99922 
6.499931e+1, 2.1610959e+2, -890706.6, -950085.5, -35886.73, 0.005723252, -0.27373362, -873820.06, -51720.688, 0.0, 9.999989, 9.999198 
6.500201e+1, 2.261085e+2, -761193.4, -891768.94, -24760.732, 0.009147278, -0.27469787, -756655.75, -32545.248, 0.0, 10.000441, 9.998708 
6.500483e+1, 2.3610729e+2, -602073.8, -766727.7, -24241.754, 0.008310472, -0.27130425, -598578.94, 27543.371, 0.0, 10.000871, 9.998686 
6.5007913e+1, 2.4610573e+2, -472499.13, -707455.44, -11412.906, 0.011555452, -0.26772577, -471946.03, 56191.137, 0.0, 10.00132, 9.998203 
6.501118e+1, 2.5610396e+2, -308236.3, -579487.25, -10201.217, 0.017553417, -0.26751512, -307853.2, 122300.98, 0.0, 10.001784, 9.998186 
6.501444e+1, 2.6610178e+2, -172593.03, -517260.63, -5160.1387, 0.0079872655, -0.27918044, -172515.8, 159659.81, 0.0, 10.002275, 9.997704 
6.5017724e+1, 2.760993e+2, -929.50555, -385280.28, -10967.005, -0.011590892, -0.3010064, -616.8291, 233583.16, 0.0, 10.002788, 9.99769 
6.5021414e+1, 2.8609696e+2, 141120.81, -315400.16, -6788.237, 0.00045064624, -0.2812122, 141221.72, 277445.0, 0.000000013847158, 10.003304, 9.997249 
6.502536e+1, 2.9609466e+2, 316460.3, -175990.27, -4156.9478, 0.031678945, -0.23702149, 316495.4, 354741.3, 0.0000047556837, 10.003818, 9.997286 
6.502852e+1, 3.0609137e+2, 443992.97, -78637.29, -6818.56, -0.019212786, -0.29911882, 444081.94, 444081.94, 0.000056362467, 10.004312, 9.997383 
6.503211e+1, 3.160889e+2, 505234.53, -63671.004, -7833.003, -0.024872992, -0.27732542, 505342.34, 505342.34, 0.0002130695, 10.004796, 9.997253 
7.4971116e+1, 1.2609804e+2, -2173155.0, -1699690.3, 6197.186, 0.028177796, -0.5291865, -1699609.1, 4582.661, 0.000012032456, 9.995839, 10.0021105 
7.497498e+1, 1.3610089e+2, -2034657.8, -1637448.9, 19574.137, 0.04128078, -0.4087372, -1636486.5, -30320.209, 0.000001957589, 9.996355, 10.0016165 
7.4978584e+1, 1.461017e+2, -1877097.9, -1535954.8, 8753.498, 0.051093552, -0.4764815, -1535730.3, -27569.988, 0.00000004027787, 9.996872, 10.001388 
7.498164e+1, 1.561035e+2, -1705841.1, -1406906.0, 5238.18, 0.018564567, -0.43717343, -1406814.3, 3329.6597, 0.0, 9.997393, 10.001349 
7.4984694e+1, 1.661049e+2, -1576292.0, -1356586.3, -10248.83, 0.0149008995, -0.4003743, -1356109.3, -43976.85, 0.0, 9.997881, 10.000787 
7.49878e+1, 1.7610587e+2, -1412350.0, -1230910.3, -9177.988, 0.033441007, -0.3868655, -1230447.3, -16321.298, 0.0, 9.998351, 10.000751 
7.499068e+1, 1.861067e+2, -1302822.9, -1199152.4, -7501.972, 0.025548745, -0.34400812, -1198612.4, -82491.45, 0.0, 9.998739, 10.000109 
7.4993396e+1, 1.9610748e+2, -1161205.5, -1088827.1, -8764.614, -0.0009797225, -0.2775804, -1087780.9, -69664.586, 0.0, 9.999076, 10.0000305 
7.499627e+1, 2.0610721e+2, -1066408.9, -1096543.9, -14601.224, -0.007707774, -0.25728542, -1060494.9, -140373.28, 0.0, 9.999503, 9.9991 
7.499924e+1, 2.1610618e+2, -898398.2, -965984.2, -17739.871, -0.00090866804, -0.2731457, -894024.8, -71891.17, 0.0, 9.999989, 9.999089 
7.500241e+1, 2.2610508e+2, -762865.75, -895175.06, -8509.323, 0.005279986, -0.2708353, -762320.75, -38175.71, 0.0, 10.000441, 9.998684 
7.500572e+1, 2.361039e+2, -603397.1, -769511.3, -7874.982, 0.011044205, -0.25750756, -603024.6, 23131.182, 0.0, 10.000871, 9.998667 
7.500916e+1, 2.4610232e+2, -471854.44, -706150.8, 6028.758, 0.0046116454, -0.25717112, -471699.4, 56471.41, 0.0, 10.001321, 9.998213 
7.501269e+1, 2.5610048e+2, -309021.03, -581038.44, 7373.744, -0.009980149, -0.26915842, -308821.3, 121367.45, 0.0, 10.001783, 9.998176 
7.501659e+1, 2.660982e+2, -184755.4, -542411.56, 14075.596, -0.005178682, -0.27581877, -184202.31, 148008.72, 0.0, 10.0022745, 9.997531 
7.5020754e+1, 2.7609575e+2, -11456.713, -407067.56, 8402.544, 0.012836891, -0.28109583, -11278.328, 222957.86, 0.0, 10.002788, 9.99754 
7.5024915e+1, 2.860933e+2, 144958.92, -307456.22, 12501.703, 0.020684376, -0.26394525, 145304.11, 281563.94, 0.000000011324871, 10.003304, 9.997303 
7.5029063e+1, 2.9609093e+2, 318803.84, -171198.77, 14900.179, 0.019650092, -0.23498751, 319256.53, 357539.03, 0.000004098041, 10.003818, 9.997319 
7.5032693e+1, 3.0608758e+2, 432661.4, -102117.59, 11304.874, -0.032515228, -0.29581308, 432900.28, 432900.28, 0.00005060397, 10.004312, 9.997222 
7.503711e+1, 3.1608498e+2, 493515.03, -87824.81, 11102.887, -0.0049340203, -0.27303725, 493727.03, 493727.03, 0.00019616044, 10.004795, 9.9970875 
8.496673e+1, 1.2609406e+2, -2225685.3, -1713817.4, -18710.229, 0.02640952, -0.5289084, -1713134.4, -8903.293, 0.000007783007, 9.995431, 10.002211 
8.497127e+1, 1.3609704e+2, -2042251.6, -1629641.3, -7863.3076, 0.04110707, -0.40738022, -1629491.4, -23287.543, 0.0000008582932, 9.996254, 10.0017185 
8.4975463e+1, 1.460979e+2, -1887876.1, -1543356.1, -25882.19, 0.054767467, -0.47338894, -1541422.6, -33225.14, 0.00000000288778, 9.996808, 10.001368 
8.4978974e+1, 1.5609969e+2, -1735670.5, -1422383.6, -27765.402, 0.022711031, -0.43355584, -1419941.9, -9760.083, 0.0, 9.997194, 10.001339 
8.4982455e+1, 1.6610116e+2, -1603308.9, -1360981.0, -38407.918, 0.014349395, -0.39483663, -1355039.3, -42869.52, 0.0, 9.997659, 10.000863 
8.4985983e+1, 1.761022e+2, -1433322.9, -1233862.5, -33436.04, 0.025497591, -0.37854207, -1228406.8, -14244.86, 0.0, 9.998177, 10.0008135 
8.498931e+1, 1.86103e+2, -1321995.4, -1212871.6, -34707.76, 0.02036308, -0.34014598, -1202768.0, -86610.805, 0.0, 9.998628, 10.000068 
8.499249e+1, 1.9610365e+2, -1169946.0, -1097637.4, -36434.492, 0.002862134, -0.28291512, -1082463.3, -64309.434, 0.0, 9.999037, 9.9999895 
8.499581e+1, 2.0610337e+2, -1070326.5, -1105680.8, -35969.91, -0.0038781876, -0.25836107, -1047924.8, -127765.34, 0.0, 9.999507, 9.999035 
8.499922e+1, 2.161024e+2, -898192.2, -972442.25, -35439.176, -0.0028123828, -0.2609426, -883992.75, -61821.477, 0.0, 10.000018, 9.99903 
8.500282e+1, 2.2610125e+2, -759881.7, -894714.94, -26579.078, 0.0010544468, -0.26013654, -754831.44, -30648.443, 0.0, 10.000465, 9.998675 
8.500655e+1, 2.3609997e+2, -604498.25, -771828.75, -24797.34, 0.006737648, -0.258097, -600900.75, 25293.81, 0.0, 10.000872, 9.998651 
8.501044e+1, 2.4609832e+2, -477927.06, -718557.56, -12929.655, 0.000093640636, -0.25876474, -477234.3, 50975.97, 0.0, 10.00132, 9.998128 
8.5014427e+1, 2.5609642e+2, -312720.06, -591649.06, -18318.842, -0.014846302, -0.2648743, -311522.1, 118706.72, 0.0, 10.001796, 9.998096 
8.501886e+1, 2.6609418e+2, -180698.55, -543695.25, -5798.0127, -0.00756846, -0.26714703, -180605.95, 151645.36, 0.0, 10.002316, 9.997502 
8.50236e+1, 2.7609167e+2, -2326.3818, -405934.9, -860.677, 0.0149407955, -0.269461, -2324.5464, 231951.89, 0.0, 10.002864, 9.997512 
8.5028297e+1, 2.8608918e+2, 154686.84, -306169.7, 3244.2085, 0.024293456, -0.2571219, 154709.67, 291010.38, 0.000000007967864, 10.003385, 9.997273 
8.5032934e+1, 2.960867e+2, 326951.47, -170817.06, -901.2492, 0.022450048, -0.23711814, 326953.1, 365277.44, 0.0000034232567, 10.003889, 9.997288 
8.5037005e+1, 3.060834e+2, 432111.7, -107206.805, -4041.943, -0.033542585, -0.28875527, 432141.97, 432141.97, 0.00004460003, 10.004329, 9.997179 
8.504193e+1, 3.1608084e+2, 478927.8, -101143.28, 5405.953, 0.0017149952, -0.25779995, 478978.2, 478978.2, 0.00017814554, 10.004722, 9.997031 
9.496236e+1, 1.2608972e+2, -2221067.3, -1704138.0, 11407.226, 0.045631792, -0.4986924, -1703886.4, 388.11606, 0.0000050394015, 9.99543, 10.002277 
9.496725e+1, 1.3609242e+2, -2036739.4, -1618375.8, 21114.326, 0.013703395, -0.41358337, -1617312.9, -11063.739, 0.00000033786506, 9.996255, 10.001796 
9.4972044e+1, 1.4609331e+2, -1887877.0, -1543364.9, -11570.882, 0.032538585, -0.4800586, -1542976.6, -34734.156, 0.0, 9.996808, 10.001368 
9.497629e+1, 1.5609531e+2, -1734765.9, -1420401.5, -12789.724, 0.03498825, -0.41939017, -1419882.0, -9656.539, 0.0, 9.997193, 10.001353 
9.498021e+1, 1.6609691e+2, -1593834.8, -1341175.0, -18911.354, 0.02370999, -0.37526345, -1339767.4, -27555.313, 0.0, 9.997658, 10.000999 
9.4983983e+1, 1.7609803e+2, -1425278.5, -1217120.6, -14410.066, 0.008161067, -0.36423215, -1216127.8, -1924.9191, 0.0, 9.998177, 10.000929 
9.498779e+1, 1.860987e+2, -1325810.0, -1220780.4, -19327.777, 0.005797054, -0.3409347, -1217336.6, -101137.54, 0.0, 9.998628, 10.000014 
9.49916e+1, 1.960991e+2, -1173352.6, -1104710.5, -20559.379, 0.010198516, -0.3047107, -1099023.8, -80825.51, 0.0, 9.999037, 9.999941 
9.499542e+1, 2.060989e+2, -1071116.5, -1107328.1, -16669.668, 0.007077433, -0.2681222, -1064611.4, -144408.25, 0.0, 9.999507, 9.999023 
9.4999266e+1, 2.1609826e+2, -898832.56, -973797.6, -16549.47, -0.00023193097, -0.2370475, -895341.6, -73129.47, 0.0, 10.000018, 9.999021 
9.500324e+1, 2.2609705e+2, -759586.4, -894089.06, -11300.982, -0.0037063458, -0.24249856, -758643.44, -34419.1, 0.0, 10.000465, 9.99868 
9.5007306e+1, 2.3609544e+2, -605557.94, -773953.8, -9246.536, -0.004668228, -0.27317005, -605051.7, 21186.857, 0.0, 10.000871, 9.998636 
9.5011735e+1, 2.460937e+2, -490381.97, -744408.5, 4980.0884, -0.0021311566, -0.27257043, -490284.38, 37971.145, 0.0, 10.001319, 9.997951 
9.5016396e+1, 2.5609186e+2, -322976.8, -613012.9, -75.43588, 0.002523509, -0.25460583, -322976.78, 107297.58, 0.0, 10.001796, 9.99795 
9.5021254e+1, 2.6608965e+2, -172692.27, -527127.06, 14826.74, 0.0005262915, -0.25308728, -172073.13, 160223.3, 0.0, 10.002316, 9.997617 
9.502626e+1, 2.7608716e+2, 4043.6118, -392655.38, 19496.848, -0.005340215, -0.26598018, 4999.5337, 239320.25, 0.0, 10.002864, 9.997603 
9.503155e+1, 2.860846e+2, 146760.84, -322553.16, 22106.928, 0.011140653, -0.26066375, 147799.89, 284145.78, 0.0000000042394483, 10.003385, 9.997161 
9.5037e+1, 2.9608193e+2, 320166.44, -184726.7, 17533.156, 0.03989401, -0.2436424, 320774.56, 359146.0, 0.000002739973, 10.003888, 9.997192 
9.504144e+1, 3.0607882e+2, 437218.47, -96336.51, 10675.865, -0.022468893, -0.27823597, 437432.0, 437432.0, 0.00003849072, 10.004328, 9.997254 
9.504658e+1, 3.1607652e+2, 482551.88, -93333.8, 20938.17, -0.0057085133, -0.2318758, 483312.16, 483312.16, 0.0001594448, 10.004721, 9.997086 
1.0495788e+2, 1.2608458e+2, -2186556.0, -1678567.8, -16445.256, 0.045022365, -0.48286915, -1678036.0, 26289.688, 0.0000035788082, 9.995629, 10.002357 
1.0496332e+2, 1.3608721e+2, -2070294.3, -1623851.9, -5894.4854, 0.008069406, -0.4159578, -1623774.0, -17473.625, 0.000000177014, 9.995979, 10.00189 
1.0496866e+2, 1.4608814e+2, -1938116.0, -1560995.6, -39912.64, 0.03130464, -0.48413923, -1556817.8, -48524.723, 0.0, 9.996436, 10.001426 
1.04973435e+2, 1.5609026e+2, -1763604.3, -1428120.6, -36802.97, 0.04114859, -0.41740125, -1424130.8, -13855.704, 0.0, 9.996969, 10.001408 
1.04977794e+2, 1.6609192e+2, -1619122.5, -1349102.5, -44424.945, 0.026085142, -0.37183282, -1341981.4, -29720.275, 0.0, 9.997467, 10.001038 
1.0498196e+2, 1.7609307e+2, -1457352.1, -1228317.6, -47513.707, -0.0005058998, -0.36202118, -1218852.0, -4600.2813, 0.0, 9.997938, 10.000966 
1.0498622e+2, 1.8609373e+2, -1354664.9, -1231354.1, -53300.09, -0.0029659893, -0.3417529, -1211509.3, -95261.555, 0.0, 9.998416, 10.000043 
1.0499056e+2, 1.9609411e+2, -1191602.6, -1110485.8, -48163.6, 0.008714312, -0.31004116, -1088078.1, -69831.26, 0.0, 9.9988985, 9.999968 
1.0499488e+2, 2.0609394e+2, -1087587.9, -1115138.5, -39157.414, 0.007986129, -0.27277094, -1059853.4, -139601.8, 0.0, 9.999393, 9.999024 
1.0499922e+2, 2.1609335e+2, -916861.7, -982852.5, -38388.117, -0.0002592428, -0.2372486, -899237.5, -76977.195, 0.0, 9.999896, 9.999017 
1.05003655e+2, 2.260921e+2, -771918.25, -905825.9, -36893.055, -0.0055755577, -0.2414135, -762426.56, -38153.766, 0.0, 10.000405, 9.998628 
1.0500816e+2, 2.3609044e+2, -602043.44, -777962.0, -38924.176, -0.009034109, -0.2731393, -593815.8, 32471.994, 0.0, 10.000919, 9.998586 
1.0501309e+2, 2.4608868e+2, -476835.13, -742393.5, -19030.426, -0.0045699556, -0.27038124, -475478.3, 52826.836, 0.0, 10.001431, 9.9979105 
1.0501829e+2, 2.5608686e+2, -303860.66, -607109.44, -13990.192, 0.0049312455, -0.24801323, -303216.6, 127107.57, 0.0, 10.001942, 9.997921 
1.05023615e+2, 2.6608464e+2, -157206.9, -513557.03, 2145.3696, 0.001000175, -0.24750312, -157193.98, 175151.97, 0.0, 10.002397, 9.997671 
1.0502904e+2, 2.760822e+2, -298.29898, -389919.84, 2547.8079, -0.011246991, -0.26479816, -281.6391, 234088.05, 0.0, 10.002813, 9.997647 
1.0503485e+2, 2.8607956e+2, 130434.75, -336230.0, 7276.175, 0.0073674032, -0.26051354, 130548.17, 266943.28, 0.0000000012344323, 10.003297, 9.997109 
1.0504089e+2, 2.960769e+2, 307999.88, -195144.89, 6799.757, 0.043723706, -0.24223052, 308091.75, 346513.16, 0.0000020653147, 10.003823, 9.997153 
1.0504574e+2, 3.0607384e+2, 435663.44, -88501.66, -1851.4761, -0.022288851, -0.26990187, 435669.97, 435669.97, 0.00003242172, 10.004279, 9.997332 
1.05051294e+2, 3.1607154e+2, 481958.63, -86640.66, 9036.029, -0.004239835, -0.23159114, 482102.2, 482102.2, 0.00014043412, 10.004686, 9.9971485 
1.14953294e+2, 1.2607864e+2, -2179967.3, -1665482.4, -4244.6943, 0.02372162, -0.48195454, -1665447.4, 38937.04, 0.000003050449, 9.995632, 10.002445 
1.1495944e+2, 1.3608135e+2, -2062862.4, -1607757.6, 7747.4233, 0.023100566, -0.41527057, -1607625.9, -1268.1189, 0.00000018630364, 9.9959755, 10.002003 
1.14965275e+2, 1.4608239e+2, -1930523.4, -1544661.4, -19773.764, 0.05002026, -0.486306, -1543650.8, -35301.617, 0.0000000000835116, 9.996433, 10.001539 
1.149704e+2, 1.5608452e+2, -1756939.8, -1414536.9, -16880.193, 0.040526994, -0.4279043, -1413706.6, -3376.1772, 0.0, 9.99697, 10.001501 
1.1497521e+2, 1.6608617e+2, -1623296.9, -1357835.0, -26760.586, 0.021016829, -0.38469738, -1355164.3, -42847.29, 0.0, 9.997467, 10.0009775 
1.14979886e+2, 1.7608729e+2, -1460440.0, -1234392.4, -29733.559, -0.00091573864, -0.37202486, -1230546.8, -16238.239, 0.0, 9.997937, 10.000926 
1.149846e+2, 1.8608809e+2, -1347041.8, -1215273.5, -35115.715, -0.006201114, -0.34276307, -1206499.5, -90196.18, 0.0, 9.998414, 10.0001545 
1.1498934e+2, 1.9608872e+2, -1184519.3, -1095776.4, -29840.744, -0.0017529641, -0.29909015, -1086675.4, -68375.63, 0.0, 9.9988985, 10.000069 
1.1499418e+2, 2.0608847e+2, -1086711.8, -1113306.1, -20191.734, -0.001329876, -0.27231306, -1075832.0, -155527.27, 0.0, 9.999393, 9.999037 
1.1499909e+2, 2.1608764e+2, -916825.75, -982788.4, -19353.305, -0.0030339146, -0.26155785, -911566.8, -89251.12, 0.0, 9.999896, 9.999018 
1.1500408e+2, 2.2608644e+2, -779542.3, -921661.25, -17550.076, -0.0046958313, -0.25698692, -777407.1, -53078.773, 0.0, 10.000405, 9.998519 
1.150091e+2, 2.3608498e+2, -608240.0, -790725.6, -19570.97, -0.0066110776, -0.2578993, -606164.7, 20177.494, 0.0, 10.000919, 9.998498 
1.1501448e+2, 2.4608327e+2, -470203.84, -728557.75, 199.61876, -0.007445456, -0.25202233, -470203.7, 58155.453, 0.0, 10.001431, 9.998006 
1.15020104e+2, 2.5608137e+2, -297857.63, -594555.3, 4852.525, -0.007627553, -0.24509466, -297778.28, 132599.95, 0.0, 10.001941, 9.998008 
1.1502594e+2, 2.6607913e+2, -157364.61, -513878.78, 17718.77, -0.0061852466, -0.25040263, -156486.16, 175913.75, 0.0, 10.002396, 9.997669 
1.1503193e+2, 2.760767e+2, -472.8517, -390418.25, 18578.596, -0.0030397156, -0.26602826, 410.30853, 234833.64, 0.0, 10.002813, 9.997643 
1.150382e+2, 2.8607413e+2, 131106.39, -334877.5, 27018.621, 0.012731791, -0.25682467, 132667.75, 269116.03, 0.00000000006210851, 10.003297, 9.997119 
1.15044616e+2, 2.9607153e+2, 309006.5, -192763.13, 26096.176, 0.03389861, -0.23288137, 310360.06, 348834.22, 0.0000014487281, 10.003821, 9.99717 
1.1504991e+2, 3.060685e+2, 440855.1, -77292.125, 13349.472, -0.033177044, -0.26359242, 441198.78, 441198.78, 0.000026621212, 10.004277, 9.99741 
1.15056075e+2, 3.1606594e+2, 486453.44, -77032.37, 24573.59, 0.0053441897, -0.25653782, 487523.06, 487523.06, 0.000121606594, 10.004685, 9.997215 
1.2494864e+2, 1.2607218e+2, -2221921.8, -1682215.3, -19691.25, 0.010765779, -0.48902225, -1681497.8, 22949.623, 0.0000030832873, 9.995329, 10.002477 
1.249554e+2, 1.3607503e+2, -2078252.1, -1608257.1, -11167.515, 0.028106498, -0.41686735, -1607991.9, -1572.1631, 0.0000002714346, 9.99584, 10.002065 
1.2496173e+2, 1.4607614e+2, -1935974.8, -1533968.5, -37224.754, 0.056672014, -0.48782006, -1530550.6, -22140.664, 0.0000000011616538, 9.996338, 10.001658 
1.2496725e+2, 1.5607834e+2, -1771563.6, -1410027.6, -34069.23, 0.03637957, -0.4366005, -1406845.1, 3545.239, 0.0, 9.9968195, 10.001604 
1.2497256e+2, 1.6607998e+2, -1652121.1, -1374785.1, -43976.934, 0.018852381, -0.3948079, -1367978.8, -55601.92, 0.0, 9.997282, 10.00095 
1.24977805e+2, 1.7608114e+2, -1490958.1, -1251026.5, -44351.58, 0.007439339, -0.37900388, -1243090.6, -28721.736, 0.0, 9.997736, 10.000908 
1.2498301e+2, 1.8608199e+2, -1363498.0, -1215434.3, -48261.652, 0.00025765505, -0.34601316, -1201092.4, -84729.31, 0.0, 9.998268, 10.000223 
1.2498818e+2, 1.9608271e+2, -1187539.8, -1090367.5, -46490.99, -0.0053468067, -0.29841012, -1071707.6, -53349.38, 0.0, 9.998848, 10.00013 
1.249935e+2, 2.060825e+2, -1095152.1, -1118364.6, -41262.707, -0.0061480454, -0.2723505, -1063894.5, -143531.31, 0.0, 9.99934, 9.999028 
1.2499893e+2, 2.1608162e+2, -934884.06, -992457.94, -41731.426, -0.0033412965, -0.2657594, -912973.9, -90599.164, 0.0, 9.999777, 9.999009 
1.2500441e+2, 2.2608043e+2, -794251.9, -929844.5, -33216.074, -0.0067974105, -0.2586936, -786552.1, -62164.79, 0.0, 10.000309, 9.998509 
1.2500994e+2, 2.3607902e+2, -610865.7, -792902.75, -28173.488, -0.014681302, -0.2525349, -606605.06, 19795.676, 0.0, 10.000905, 9.998489 
1.2501583e+2, 2.460773e+2, -471627.3, -729348.9, -11977.746, -0.016001275, -0.24731432, -471071.84, 57345.918, 0.0, 10.001422, 9.998005 
1.2502196e+2, 2.5607535e+2, -306230.63, -598902.75, -14551.459, -0.012996634, -0.24597412, -305508.9, 124928.445, 0.0, 10.001885, 9.998005 
1.250283e+2, 2.6607308e+2, -157130.17, -515553.1, -5207.1724, -0.009798553, -0.25108358, -157054.53, 175404.56, 0.0, 10.002405, 9.997654 
1.250348e+2, 2.7607068e+2, 20100.17, -381859.16, -5675.429, -0.005939857, -0.26299164, 20180.287, 254662.61, 0.0, 10.00296, 9.997632 
1.250415e+2, 2.860681e+2, 141120.63, -326573.44, 572.5832, 0.010426051, -0.25517997, 141121.33, 277628.47, 0.0, 10.00335, 9.99715 
1.2504831e+2, 2.9606548e+2, 282447.63, -203034.9, 1651.4777, 0.03211329, -0.23570971, 282453.25, 320986.1, 0.00000094519226, 10.003629, 9.997192 
1.250541e+2, 3.0606246e+2, 415082.44, -96554.984, -12167.166, -0.033905085, -0.26378998, 415371.6, 415371.6, 0.000021322641, 10.00413, 9.997349 
1.2506092e+2, 3.1605968e+2, 495713.94, -79508.81, -11018.473, 0.017367287, -0.272281, 495924.9, 495924.9, 0.000103511986, 10.004779, 9.997153 
1.3494392e+2, 1.2606525e+2, -2224434.8, -1686834.4, -776.0383, 0.005868426, -0.5045497, -1686833.3, 17681.408, 0.0000033913916, 9.995326, 10.002446 
1.3495117e+2, 1.3606821e+2, -2077140.3, -1606772.6, 8213.435, 0.021978071, -0.42032558, -1606629.3, -142.69215, 0.00000039333747, 9.995844, 10.002073 
1.3495801e+2, 1.4606942e+2, -1926753.9, -1515224.4, -19268.69, 0.050142113, -0.4883462, -1514324.1, -5848.5376, 0.0000000035362315, 9.99634, 10.001787 
1.3496397e+2, 1.5607168e+2, -1763906.5, -1393443.6, -16158.322, 0.028105294, -0.443675, -1392740.1, 17714.637, 0.0, 9.996817, 10.001719 
1.3496985e+2, 1.6607338e+2, -1652180.5, -1374443.6, -26872.402, 0.019189084, -0.40251437, -1371867.5, -59426.727, 0.0, 9.99728, 10.000954 
1.349757e+2, 1.7607455e+2, -1490496.4, -1250196.0, -26602.219, 0.024028948, -0.3833574, -1247286.4, -32853.46, 0.0, 9.997736, 10.000915 
1.3498142e+2, 1.8607542e+2, -1361517.5, -1211395.0, -26317.455, 0.016070116, -0.35157624, -1206915.1, -90487.89, 0.0, 9.998268, 10.000252 
1.3498706e+2, 1.9607614e+2, -1186150.3, -1087468.9, -25160.176, -0.0022255282, -0.30775222, -1081424.1, -63001.746, 0.0, 9.998848, 10.00015 
1.3499282e+2, 2.0607601e+2, -1097376.9, -1123027.8, -24892.27, -0.006663319, -0.27288294, -1082200.3, -161773.52, 0.0, 9.99934, 9.998996 
1.3499872e+2, 2.1607526e+2, -936171.94, -995127.4, -24633.514, -0.0013670016, -0.24992591, -927234.25, -104796.88, 0.0, 9.999776, 9.998991 
1.3500467e+2, 2.2607407e+2, -788137.7, -917089.9, -10728.934, -0.012044191, -0.24648164, -787251.1, -62801.35, 0.0, 10.000309, 9.998597 
1.3501064e+2, 2.3607258e+2, -606091.9, -782903.25, -6221.221, -0.033398252, -0.2570129, -605873.25, 20590.096, 0.0, 10.000905, 9.998559 
1.3501711e+2, 2.4607079e+2, -478478.75, -743498.6, 5360.1265, -0.030367067, -0.25621, -478370.38, 50110.66, 0.0, 10.001422, 9.997908 
1.3502386e+2, 2.560688e+2, -312658.1, -612211.25, 3214.4897, -0.011406558, -0.2506516, -312623.6, 117877.94, 0.0, 10.001884, 9.997913 
1.350307e+2, 2.6606655e+2, -159265.2, -519928.9, 15735.783, -0.0100862775, -0.24968594, -158579.95, 173943.55, 0.0, 10.002405, 9.997623 
1.350376e+2, 2.7606416e+2, 18566.908, -384816.22, 14239.611, -0.019944334, -0.25561738, 19068.95, 253615.56, 0.0, 10.002959, 9.997612 
1.3504474e+2, 2.8606153e+2, 144704.17, -319030.53, 10868.698, 0.0003317247, -0.25535336, 144958.77, 281530.3, 0.0, 10.00335, 9.997203 
1.35052e+2, 2.960588e+2, 284394.4, -199273.1, 13361.58, 0.03787129, -0.2505924, 284763.25, 323360.63, 0.0000005800232, 10.00363, 9.997217 
1.3505831e+2, 3.0605578e+2, 401462.34, -124879.59, 12195.186, -0.025014466, -0.27061722, 401744.78, 401744.78, 0.000016654194, 10.00413, 9.997154 
1.3506584e+2, 3.160528e+2, 482345.78, -106442.02, 13201.445, 0.031129455, -0.27942547, 482641.63, 482641.63, 0.000086569016, 10.004775, 9.99697 
1.4493936e+2, 1.2605804e+2, -2224397.3, -1694503.1, -17651.57, 0.016721176, -0.5019183, -1693915.8, 10669.281, 0.000003766588, 9.995359, 10.0023775 
1.4494693e+2, 1.3606085e+2, -2085965.6, -1614310.1, -11203.186, 0.014882464, -0.42660978, -1614044.3, -7485.6475, 0.00000052701, 9.995797, 10.002044 
1.4495419e+2, 1.4606214e+2, -1936020.8, -1509821.3, -42609.598, 0.04082599, -0.49328345, -1505603.1, 2944.0134, 0.000000006774009, 9.996234, 10.001875 
1.449607e+2, 1.560645e+2, -1780405.9, -1392337.0, -42346.4, 0.026534475, -0.4449205, -1387769.9, 22755.043, 0.0, 9.996664, 10.001801 
1.4496706e+2, 1.660663e+2, -1664055.6, -1376773.0, -51080.53, 0.019526321, -0.40075144, -1367960.9, -55450.863, 0.0, 9.997184, 10.000984 
1.4497343e+2, 1.7606752e+2, -1485867.8, -1245159.8, -49007.76, 0.022455173, -0.37867734, -1235564.4, -21062.604, 0.0, 9.997756, 10.000939 
1.4497967e+2, 1.8606837e+2, -1366656.4, -1215181.6, -50145.188, 0.015255484, -0.3491275, -1200085.6, -83589.34, 0.0, 9.998238, 10.00024 
1.4498582e+2, 1.9606902e+2, -1213270.6, -1101037.5, -51829.152, -0.000741861, -0.3109597, -1080764.8, -62272.45, 0.0, 9.998664, 10.000146 
1.4499211e+2, 2.0606892e+2, -1112854.1, -1124495.6, -47885.51, -0.006523447, -0.27445343, -1070436.9, -149940.83, 0.0, 9.999208, 9.999049 
1.4499849e+2, 2.160683e+2, -924786.5, -984179.06, -41360.113, -0.0047750757, -0.2449494, -903565.9, -81060.47, 0.0, 9.999831, 9.99904 
1.4500494e+2, 2.2606711e+2, -783171.25, -914201.1, -29144.191, -0.01570216, -0.24359901, -776981.3, -52463.56, 0.0, 10.000341, 9.998602 
1.4501147e+2, 2.3606555e+2, -624665.5, -791797.75, -30951.72, -0.03506822, -0.262028, -619117.6, 7414.361, 0.0, 10.000777, 9.998559 
1.4501843e+2, 2.4606372e+2, -502223.22, -758232.25, -19439.979, -0.03160407, -0.2630855, -500755.47, 27794.482, 0.0, 10.001273, 9.997878 
1.4502569e+2, 2.560617e+2, -325958.03, -621753.25, -16522.129, -0.013402695, -0.25533792, -325038.03, 105532.55, 0.0, 10.001807, 9.997885 
1.45033e+2, 2.660595e+2, -176618.03, -529774.25, -1151.4127, -0.01403458, -0.25245935, -176614.28, 155978.34, 0.0, 10.002293, 9.99761 
1.450404e+2, 2.7605706e+2, -14367.31, -402163.38, -1845.1545, -0.026488975, -0.25684294, -14358.53, 220257.28, 0.0, 10.00274, 9.997598 
1.4504799e+2, 2.8605437e+2, 132024.34, -328956.1, -10610.645, -0.0055261357, -0.26113868, 132268.44, 268909.84, 0.0, 10.00328, 9.997168 
1.4505573e+2, 2.9605153e+2, 317951.22, -187772.86, -14311.935, 0.034838423, -0.26428458, 318355.94, 357024.16, 0.00000034163278, 10.0038805, 9.997176 
1.4506252e+2, 3.060486e+2, 417546.78, -126283.66, -12960.995, -0.026281983, -0.26663008, 417855.5, 417855.5, 0.000012640404, 10.00428, 9.997072 
1.4507058e+2, 3.1604564e+2, 442528.72, -133151.0, -3890.3591, 0.041526534, -0.26671657, 442555.0, 442555.0, 0.00007099381, 10.004534, 9.996902 
1.5493499e+2, 1.2605055e+2, -2231488.8, -1709698.0, -1621.0492, 0.042235076, -0.48024413, -1709692.9, -5034.361, 0.000004107076, 9.995361, 10.002273 
1.5494263e+2, 1.3605298e+2, -2090928.9, -1624024.0, 5282.227, 0.0064801197, -0.43611336, -1623964.3, -17328.41, 0.00000065226897, 9.995795, 10.001979 
1.549503e+2, 1.4605424e+2, -1933160.3, -1503404.4, -26300.168, 0.028327066, -0.50302714, -1501800.9, 6823.759, 0.000000011338887, 9.996231, 10.00192 
1.5495741e+2, 1.560568e+2, -1777149.1, -1385767.1, -25419.395, 0.030907957, -0.44012, -1384123.1, 26477.604, 0.0, 9.996665, 10.001845 
1.5496425e+2, 1.6605872e+2, -1660020.4, -1368479.9, -29547.277, 0.019154355, -0.38906792, -1365515.5, -52930.766, 0.0, 9.997184, 10.001041 
1.5497099e+2, 1.7606002e+2, -1482827.1, -1238688.8, -28057.953, 0.002354458, -0.36452535, -1235505.6, -20930.115, 0.0, 9.997754, 10.000984 
1.5497774e+2, 1.8606083e+2, -1370344.5, -1222719.3, -34164.53, -0.0025438953, -0.33859476, -1215196.0, -98625.43, 0.0, 9.998238, 10.000189 
1.5498449e+2, 1.9606136e+2, -1215304.8, -1105301.9, -34981.566, -0.0012139142, -0.30831572, -1095120.0, -76552.1, 0.0, 9.998664, 10.000116 
1.5499131e+2, 2.0606126e+2, -1103165.6, -1104425.6, -24396.416, -0.00585459, -0.27711967, -1079391.1, -158819.83, 0.0, 9.9992075, 9.999187 
1.5499823e+2, 2.1606074e+2, -916759.7, -967501.5, -18568.953, -0.013750783, -0.25067282, -910690.4, -88111.43, 0.0, 9.99983, 9.999154 
1.5500526e+2, 2.2605956e+2, -788778.94, -925833.0, -12800.173, -0.018028142, -0.24998446, -787593.75, -63002.547, 0.0, 10.00034, 9.998522 
1.550124e+2, 2.3605792e+2, -629416.44, -801658.75, -14167.301, -0.019942213, -0.2675987, -628258.94, -1652.3892, 0.0, 10.000777, 9.998491 
1.5501982e+2, 2.460561e+2, -499685.5, -752990.06, 657.6412, -0.019927638, -0.26799482, -499683.78, 28940.754, 0.0, 10.001273, 9.997914 
1.5502743e+2, 2.560541e+2, -323667.22, -616993.0, 3328.8489, -0.019112378, -0.25995877, -323629.44, 107014.98, 0.0, 10.001807, 9.997918 
1.5503521e+2, 2.660519e+2, -176598.38, -529689.25, 15604.048, -0.021788245, -0.25918165, -175910.13, 156756.28, 0.0, 10.002292, 9.997611 
1.5504313e+2, 2.7604944e+2, -15132.665, -403702.75, 15470.056, -0.026044395, -0.26657686, -14517.731, 220172.19, 0.0, 10.00274, 9.997588 
1.5505126e+2, 2.8604665e+2, 123567.84, -346343.28, 12006.07, -0.0074221166, -0.27260363, 123874.4, 260591.08, 0.0, 10.003279, 9.997049 
1.5505947e+2, 2.960437e+2, 310153.5, -203432.45, 7265.8833, 0.02331652, -0.27684602, 310256.28, 349001.53, 0.00000019535571, 10.003878, 9.997069 
1.5506667e+2, 3.06041e+2, 418888.22, -122971.51, -3298.8691, -0.037620198, -0.25189212, 418908.3, 418908.3, 0.000009261703, 10.004277, 9.997096 
1.5507518e+2, 3.1603828e+2, 445207.25, -127441.71, 6110.8164, 0.04738882, -0.23408794, 445272.44, 445272.44, 0.00005688464, 10.004533, 9.996942 
1.6493039e+2, 1.2604241e+2, -2229946.3, -1703158.3, -36391.32, 0.047310445, -0.46020517, -1700656.3, 4083.3872, 0.000004370903, 9.995347, 10.002324 
1.6493839e+2, 1.3604471e+2, -2101690.3, -1621400.4, -17045.592, 0.007964905, -0.4343521, -1620796.1, -14078.835, 0.00000075351153, 9.9956875, 10.0020485 
1.6494648e+2, 1.4604603e+2, -1947021.3, -1510053.0, -43356.617, 0.028883934, -0.5013033, -1505792.6, 2913.0461, 0.000000017178404, 9.996136, 10.001921 
1.6495408e+2, 1.5604864e+2, -1780244.9, -1386544.6, -45773.332, 0.034151964, -0.432083, -1381292.9, 29388.629, 0.0, 9.99664, 10.001852 
1.649614e+2, 1.660506e+2, -1665545.0, -1364226.3, -49396.375, 0.018701207, -0.38056442, -1356335.1, -43670.066, 0.0, 9.997116, 10.001103 
1.6496857e+2, 1.7605194e+2, -1505186.0, -1242977.4, -47557.07, -0.006543827, -0.35878307, -1234618.4, -19963.197, 0.0, 9.997573, 10.001042 
1.6497584e+2, 1.8605275e+2, -1386008.4, -1228029.6, -50234.797, -0.010913931, -0.33606914, -1213408.9, -96758.875, 0.0, 9.99812, 10.000209 
1.6498315e+2, 1.9605324e+2, -1204905.5, -1097771.3, -45742.977, -0.0027145275, -0.30956054, -1080898.0, -62250.516, 0.0, 9.998724, 10.000139 
1.6499051e+2, 2.0605315e+2, -1098828.0, -1098386.8, -37341.418, -0.007978103, -0.28190628, -1061265.3, -140614.69, 0.0, 9.999221, 9.999223 
1.6499788e+2, 2.1605262e+2, -941525.0, -976418.25, -39249.234, -0.021578053, -0.25860393, -916019.44, -93361.54, 0.0, 9.999647, 9.999181 
1.6500549e+2, 2.2605145e+2, -813062.75, -941885.8, -34500.71, -0.021922803, -0.25619948, -804404.9, -79734.664, 0.0, 10.000194, 9.998483 
1.6501325e+2, 2.3604983e+2, -625653.1, -803487.25, -32877.508, -0.013605176, -0.2690893, -619769.5, 6916.2866, 0.0, 10.000818, 9.998459 
1.650212e+2, 2.46048e+2, -485385.28, -744496.7, -18423.365, -0.013552869, -0.26918572, -484081.9, 44621.926, 0.0, 10.001365, 9.997928 
1.6502926e+2, 2.5604603e+2, -316107.78, -612092.8, -17788.12, -0.019360382, -0.26380026, -315042.6, 115681.05, 0.0, 10.001854, 9.997929 
1.650375e+2, 2.6604375e+2, -180503.81, -534603.6, -10840.341, -0.023133587, -0.26061058, -180172.25, 152573.28, 0.0, 10.002279, 9.997583 
1.6504584e+2, 2.760414e+2, -28520.979, -412488.5, -12619.821, -0.02481328, -0.26204452, -28106.652, 206662.33, 0.0, 10.002658, 9.997566 
1.6505441e+2, 2.8603858e+2, 96506.21, -355665.75, -6737.7153, -0.009080947, -0.2711632, 96606.586, 233402.61, 0.0, 10.0030775, 9.997082 
1.650631e+2, 2.9603556e+2, 260052.23, -223854.36, -785.0787, 0.015228852, -0.28449872, 260053.5, 298878.63, 0.00000010392393, 10.003518, 9.997102 
1.6507073e+2, 3.0603307e+2, 386960.34, -135389.16, -10069.494, -0.04728208, -0.24264607, 387154.4, 387154.4, 0.0000064948904, 10.0040455, 9.997122 
1.6507976e+2, 3.1603035e+2, 462295.1, -113495.87, -604.18304, 0.047633044, -0.22110075, 462295.75, 462295.75, 0.00004431026, 10.004625, 9.996993 
1.7492557e+2, 1.2603357e+2, -2215287.8, -1672828.3, -23991.77, 0.031117573, -0.44165787, -1671769.3, 33059.1, 0.000004515703, 9.995347, 10.002532 
1.7493418e+2, 1.3603607e+2, -2087338.8, -1591699.4, -3310.8728, 0.018612403, -0.42036214, -1591677.3, 15125.616, 0.0000008179498, 9.9956875, 10.002253 
1.7494275e+2, 1.4603744e+2, -1950201.6, -1516559.0, -24315.139, 0.041905213, -0.48721975, -1515199.9, -6409.4927, 0.000000022541565, 9.996135, 10.001876 
1.7495075e+2, 1.5604001e+2, -1782615.6, -1391324.9, -26980.918, 0.036092117, -0.42054284, -1389473.1, 21294.287, 0.0, 9.996639, 10.00182 
1.7495851e+2, 1.6604191e+2, -1660894.1, -1354460.1, -32219.4, 0.018081982, -0.37525234, -1351109.1, -38357.957, 0.0, 9.997115, 10.001171 
1.7496616e+2, 1.7604324e+2, -1500245.9, -1232736.5, -29675.81, -0.00454214, -0.3616568, -1229484.0, -14743.188, 0.0, 9.997573, 10.001113 
1.7497395e+2, 1.860441e+2, -1379646.6, -1214795.9, -27463.408, -0.010136611, -0.3416049, -1210341.0, -93606.234, 0.0, 9.998119, 10.0003 
1.7498186e+2, 1.9604471e+2, -1199690.9, -1086939.1, -23651.846, -0.0054108896, -0.31444484, -1082178.6, -63447.773, 0.0, 9.998723, 10.000215 
1.7498967e+2, 2.0604458e+2, -1103586.0, -1108243.4, -21324.668, -0.01310387, -0.28876966, -1084463.3, -163729.1, 0.0, 9.99922, 9.999155 
1.7499745e+2, 2.1604396e+2, -945828.75, -985347.3, -22421.959, -0.02846038, -0.2687935, -935702.06, -112959.59, 0.0, 9.999647, 9.999121 
1.7500563e+2, 2.260428e+2, -813043.75, -941870.2, -10924.143, -0.027539331, -0.2623023, -812123.94, -87369.234, 0.0, 10.000193, 9.998483 
1.7501405e+2, 2.3604126e+2, -625624.8, -803423.9, -9800.028, -0.016152503, -0.26650447, -625086.3, 1683.4231, 0.0, 10.000818, 9.998459 
1.7502257e+2, 2.4603944e+2, -486105.78, -745926.5, -28.459997, -0.012630517, -0.26662943, -486105.78, 42682.043, 0.0, 10.001364, 9.997919 
1.7503116e+2, 2.5603738e+2, -317107.84, -614069.3, 218.48492, -0.014523602, -0.26690456, -317107.7, 113700.484, 0.0, 10.001853, 9.997915 
1.7503981e+2, 2.6603517e+2, -184499.69, -542860.44, 3345.3008, -0.018311111, -0.25695565, -184468.45, 148361.53, 0.0, 10.002278, 9.997527 
1.750485e+2, 2.7603287e+2, -30890.451, -417337.3, 1998.9355, -0.022881951, -0.24355936, -30880.111, 203972.84, 0.0, 10.002657, 9.997534 
1.7505747e+2, 2.8603008e+2, 108769.234, -330003.03, 9782.244, -0.010753593, -0.25693965, 108987.22, 245866.63, 0.0, 10.003076, 9.997259 
1.7506656e+2, 2.960271e+2, 271342.97, -200100.5, 16302.073, 0.00990019, -0.28706583, 271906.03, 310813.8, 0.00000004563321, 10.003516, 9.997266 
1.750747e+2, 3.060248e+2, 388877.72, -130946.62, 11654.804, -0.055715036, -0.23864184, 389138.9, 389138.9, 0.000004309572, 10.004043, 9.997154 
1.7508432e+2, 3.16022e+2, 466425.47, -104244.66, 20253.219, 0.041981168, -0.22733721, 467143.34, 467143.34, 0.000033319804, 10.004622, 9.997058 
1.849209e+2, 1.260245e+2, -2225215.5, -1668156.4, -16216.865, 0.036513064, -0.43902093, -1667684.8, 37233.664, 0.000004500078, 9.995238, 10.002616 
1.8492986e+2, 1.3602716e+2, -2083841.4, -1579774.1, -4295.747, 0.019048441, -0.4120362, -1579737.6, 27153.307, 0.0000008390777, 9.995667, 10.002343 
1.8493885e+2, 1.460286e+2, -1953011.6, -1523637.0, -25600.906, 0.037694905, -0.4739633, -1522115.9, -13238.112, 0.000000025661054, 9.9961405, 10.001825 
1.8494733e+2, 1.5603109e+2, -1786109.8, -1397488.1, -29072.959, 0.030352544, -0.40961635, -1395325.3, 15530.722, 0.0, 9.9966345, 10.00178 
1.849556e+2, 1.6603296e+2, -1655578.5, -1346519.3, -36314.39, 0.015187586, -0.3682879, -1342309.8, -29469.818, 0.0, 9.997128, 10.00122 
1.8496378e+2, 1.7603429e+2, -1491085.9, -1223917.9, -34973.465, -0.0017303467, -0.3591614, -1219415.5, -4586.569, 0.0, 9.997617, 10.001153 
1.849721e+2, 1.8603514e+2, -1382807.6, -1221136.8, -36559.38, -0.006689189, -0.34012064, -1213253.8, -96430.97, 0.0, 9.998118, 10.0002575 
1.8498053e+2, 1.9603571e+2, -1216081.3, -1099090.5, -43063.777, -0.004700975, -0.31165668, -1084948.5, -66129.086, 0.0, 9.99863, 10.000176 
1.8498887e+2, 2.0603555e+2, -1106921.6, -1109985.4, -43119.543, -0.013587654, -0.28796437, -1065306.8, -144483.83, 0.0, 9.999198, 9.999154 
1.8499717e+2, 2.1603487e+2, -922697.0, -974663.3, -39231.035, -0.029205803, -0.27208084, -901624.9, -78793.555, 0.0, 9.999808, 9.999116 
1.8500584e+2, 2.260337e+2, -795251.8, -936259.9, -26088.7, -0.030516604, -0.2646481, -790579.8, -65736.12, 0.0, 10.000328, 9.998456 
1.8501478e+2, 2.360322e+2, -631891.1, -809169.94, -27303.855, -0.022495998, -0.2644709, -627781.2, -922.43066, 0.0, 10.000788, 9.998434 
1.8502384e+2, 2.4603033e+2, -505552.97, -756602.0, -21133.861, -0.0136666875, -0.26494378, -503786.3, 25090.785, 0.0, 10.001237, 9.997907 
1.8503302e+2, 2.5602823e+2, -343678.44, -628128.75, -21392.717, -0.00447424, -0.26856485, -342078.53, 88819.234, 0.0, 10.001677, 9.997904 
1.8504207e+2, 2.6602602e+2, -210438.44, -555997.7, -18599.078, -0.011628818, -0.25743216, -209440.27, 123479.29, 0.0, 10.002104, 9.99752 
1.8505102e+2, 2.7602375e+2, -51668.063, -427393.72, -16331.567, -0.029261345, -0.24029781, -50959.52, 183982.7, 0.0, 10.002516, 9.997532 
1.8506041e+2, 2.8602096e+2, 87834.445, -336092.0, -12632.202, -0.016155541, -0.25731993, 88210.52, 225179.31, 0.0, 10.002915, 9.997294 
1.8507001e+2, 2.9601792e+2, 243480.27, -209398.38, -15992.031, 0.014949682, -0.29527754, 244044.28, 283041.78, 0.000000013949684, 10.003307, 9.997302 
1.8507859e+2, 3.0601573e+2, 354297.78, -141126.08, -19650.75, -0.055926807, -0.23877044, 355075.97, 355075.97, 0.0000026617806, 10.0037775, 9.997211 
1.8508866e+2, 3.160129e+2, 425623.88, -112036.71, -9971.827, 0.031429484, -0.24111442, 425808.75, 425808.75, 0.000023943616, 10.004292, 9.997164 
1.9491641e+2, 1.2601519e+2, -2228648.5, -1674741.6, 57.03571, 0.063422225, -0.45233387, -1674741.6, 30268.162, 0.000004294411, 9.995236, 10.002572 
1.9492541e+2, 1.3601798e+2, -2085537.8, -1583266.5, 12377.74, 0.009010287, -0.40941492, -1582961.6, 24019.6, 0.0000008137795, 9.9956665, 10.002319 
1.9493477e+2, 1.4601947e+2, -1957160.0, -1532335.5, -6833.1313, 0.015758544, -0.46150273, -1532225.6, -23257.688, 0.000000025948266, 9.9961405, 10.001766 
1.9494382e+2, 1.5602186e+2, -1789606.4, -1404736.8, -10330.0, 0.016364511, -0.39925745, -1404459.8, 6487.3594, 0.0, 9.9966345, 10.001731 
1.9495267e+2, 1.6602373e+2, -1653627.6, -1342363.8, -17901.785, 0.009621377, -0.3595539, -1341337.5, -28406.469, 0.0, 9.997128, 10.001248 
1.9496143e+2, 1.760251e+2, -1490561.0, -1222805.8, -16455.871, 0.0017286431, -0.351109, -1221798.3, -6878.7007, 0.0, 9.997616, 10.001161 
1.9497028e+2, 1.8602583e+2, -1395386.1, -1247178.9, -17346.643, -0.00066857727, -0.33144695, -1245175.6, -128261.3, 0.0, 9.998118, 10.000079 
1.949792e+2, 1.9602625e+2, -1226812.3, -1121310.6, -23492.414, -0.00072238245, -0.30119, -1116316.0, -97402.96, 0.0, 9.998629, 10.000024 
1.9498812e+2, 2.0602605e+2, -1102484.3, -1100769.4, -20125.975, -0.009602489, -0.27945942, -1081482.6, -160565.69, 0.0, 9.999198, 9.999217 
1.9499703e+2, 2.160254e+2, -919063.94, -967094.0, -16745.967, -0.024037795, -0.26845303, -913801.9, -90877.336, 0.0, 9.999808, 9.999168 
1.9500616e+2, 2.2602418e+2, -799161.0, -944359.4, -8828.28, -0.031023238, -0.26321593, -798626.2, -73689.11, 0.0, 10.000328, 9.998401 
1.9501546e+2, 2.360226e+2, -635476.44, -816669.25, -10062.873, -0.03279445, -0.26309335, -634919.3, -7966.4653, 0.0, 10.000788, 9.9983835 
1.9502506e+2, 2.460207e+2, -506666.3, -758988.2, -4603.3115, -0.016850004, -0.2642196, -506582.38, 22389.238, 0.0, 10.001237, 9.99789 
1.9503483e+2, 2.5601858e+2, -344449.84, -629790.75, -4896.572, 0.010545072, -0.2687996, -344365.84, 86626.6, 0.0, 10.001677, 9.997892 
1.9504425e+2, 2.6601636e+2, -207579.14, -550129.75, -3141.8398, -0.0032646821, -0.26191884, -207550.33, 125463.86, 0.0, 10.002104, 9.997561 
1.9505338e+2, 2.7601403e+2, -49752.645, -423435.0, -976.53796, -0.044004165, -0.25184005, -49750.094, 185286.63, 0.0, 10.002515, 9.99756 
1.9506322e+2, 2.860112e+2, 80479.76, -351272.84, 2002.706, -0.025457898, -0.27187827, 80489.05, 217553.17, 0.0, 10.002914, 9.99719 
1.9507347e+2, 2.9600805e+2, 237156.52, -222363.73, -604.08887, 0.030075675, -0.30913028, 237157.31, 276251.56, 0.0000000023315327, 10.003306, 9.997214 
1.9508244e+2, 3.0600595e+2, 359694.38, -129697.12, -347.84607, -0.04817913, -0.24294983, 359694.63, 359694.63, 0.0000014940416, 10.003777, 9.997291 
1.950928e+2, 3.1600302e+2, 435218.34, -91813.0, 8737.069, 0.01544723, -0.2619822, 435363.16, 435363.16, 0.000016253043, 10.00429, 9.997303 
2.0491177e+2, 1.2600572e+2, -2215325.5, -1681069.9, -5749.9785, 0.06874125, -0.4509208, -1681008.0, 24094.775, 0.000003892583, 9.995383, 10.002458 
2.0492108e+2, 1.3600852e+2, -2078054.5, -1589632.8, 1212.4385, 0.003317637, -0.399971, -1589629.8, 17445.178, 0.00000074131736, 9.995762, 10.002231 
2.0493083e+2, 1.4600997e+2, -1951305.9, -1535847.6, -17393.734, 0.0052735666, -0.44789088, -1535120.8, -26058.664, 0.000000023374444, 9.996208, 10.001709 
2.0494041e+2, 1.5601225e+2, -1785637.1, -1409777.5, -20612.213, 0.010518958, -0.39199778, -1408650.5, 2391.7903, 0.0, 9.996692, 10.001669 
2.0494981e+2, 1.6601402e+2, -1646345.6, -1351808.6, -33261.848, 0.007157715, -0.35209113, -1348099.1, -35071.94, 0.0, 9.997233, 10.001133 
2.0495912e+2, 1.7601532e+2, -1469621.3, -1224467.1, -42959.895, 0.0010711175, -0.338112, -1217157.0, -2140.542, 0.0, 9.99781, 10.001056 
2.049685e+2, 1.8601602e+2, -1366867.5, -1235873.5, -42583.543, -0.0017692619, -0.3164803, -1223247.5, -106235.82, 0.0, 9.998324, 10.000057 
2.0497787e+2, 1.960164e+2, -1204042.1, -1112890.3, -36904.7, -0.0034584196, -0.28721797, -1099822.3, -80811.93, 0.0, 9.998796, 10.000001 
2.0498733e+2, 2.0601611e+2, -1094068.9, -1101464.0, -31557.193, -0.01088693, -0.27041098, -1065993.4, -144978.66, 0.0, 9.999276, 9.999175 
2.0499682e+2, 2.1601535e+2, -928416.25, -975978.06, -36357.72, -0.021909472, -0.26674372, -908752.75, -85729.414, 0.0, 9.999763, 9.999129 
2.050065e+2, 2.2601411e+2, -807265.94, -951200.6, -31832.922, -0.027617756, -0.26058078, -800540.0, -75503.89, 0.0, 10.000285, 9.998374 
2.050163e+2, 2.360126e+2, -630679.94, -817001.3, -31181.447, -0.029448781, -0.25390965, -625600.1, 1451.5756, 0.0, 10.000833, 9.99836 
2.0502633e+2, 2.4601068e+2, -498478.56, -754986.94, -26923.852, -0.015869822, -0.25370577, -495683.0, 33387.438, 0.0, 10.001293, 9.99789 
2.0503649e+2, 2.5600854e+2, -342199.38, -628711.4, -26108.207, 0.0075869733, -0.26078165, -339839.72, 91251.71, 0.0, 10.001693, 9.997892 
2.0504634e+2, 2.6600626e+2, -210769.03, -551636.06, -26454.887, -0.0017751405, -0.2594211, -208728.08, 124385.44, 0.0, 10.002082, 9.997561 
2.0505598e+2, 2.7600387e+2, -57796.473, -427526.47, -27449.945, -0.032292016, -0.25664756, -55769.61, 179366.92, 0.0, 10.0024605, 9.997558 
2.0506619e+2, 2.86001e+2, 67777.77, -358889.34, -22528.777, -0.01565849, -0.2765632, 68964.04, 206128.06, 0.0, 10.002834, 9.997177 
2.0507671e+2, 2.959979e+2, 220624.19, -231713.17, -17977.477, 0.029622938, -0.3086434, 221337.56, 260531.53, 0.000000000097020676, 10.0032, 9.997201 
2.0508611e+2, 3.0599588e+2, 339234.28, -140229.88, -14449.294, -0.051923845, -0.23353101, 339669.34, 339669.34, 0.00000072960836, 10.003639, 9.997284 
2.0509703e+2, 3.1599277e+2, 417160.06, -92006.4, -12381.167, 0.018013678, -0.27171075, 417460.97, 417460.97, 0.000010315032, 10.004129, 9.997378 
2.1490698e+2, 1.2599614e+2, -2228488.5, -1708911.1, 8582.935, 0.05116456, -0.43427518, -1708769.4, -3572.086, 0.0000033185577, 9.995384, 10.002266 
2.1491683e+2, 1.3599876e+2, -2089123.8, -1612912.8, 16032.056, 0.0018266258, -0.38343674, -1612373.6, -5201.6343, 0.00000061904166, 9.995763, 10.00207 
2.1492705e+2, 1.4600009e+2, -1955173.9, -1543725.1, 816.2543, 0.006373385, -0.4330362, -1543723.5, -34563.27, 0.000000017936356, 9.996207, 10.001656 
2.1493714e+2, 1.5600221e+2, -1791062.1, -1420782.3, -2005.3231, 0.012855202, -0.38781852, -1420771.5, -9629.971, 0.0, 9.996691, 10.001594 
2.1494704e+2, 1.6600381e+2, -1664916.6, -1390364.1, -11496.171, 0.0077223196, -0.3458359, -1389883.6, -76755.37, 0.0, 9.997233, 10.000869 
2.1495688e+2, 1.7600498e+2, -1485012.8, -1256664.0, -21649.91, -0.003957756, -0.32003027, -1254629.5, -39509.555, 0.0, 9.997811, 10.000834 
2.1496671e+2, 1.860057e+2, -1357284.5, -1216137.4, -24884.191, -0.010269494, -0.29519653, -1211878.9, -94764.164, 0.0, 9.998325, 10.000193 
2.1497658e+2, 1.9600616e+2, -1196523.3, -1097282.5, -19075.922, -0.0131497905, -0.2697367, -1093742.0, -74630.84, 0.0, 9.998796, 10.000109 
2.1498655e+2, 2.0600577e+2, -1104607.1, -1123333.3, -13227.3125, -0.017618073, -0.26079085, -1097764.4, -176647.95, 0.0, 9.999276, 9.999025 
2.1499658e+2, 2.1600474e+2, -937765.9, -995401.9, -17792.115, -0.022997031, -0.26694113, -932716.0, -109588.195, 0.0, 9.999763, 9.998996 
2.1500686e+2, 2.2600351e+2, -807129.4, -950904.4, -11196.454, -0.020546494, -0.25680572, -806262.7, -81121.78, 0.0, 10.000285, 9.998377 
2.1501729e+2, 2.360021e+2, -630541.94, -816669.1, -11094.815, -0.012717387, -0.23691234, -629882.9, -2727.6113, 0.0, 10.000832, 9.998362 
2.1502766e+2, 2.4600025e+2, -497401.8, -752775.0, -11921.997, -0.0107881045, -0.2334799, -496846.44, 32327.14, 0.0, 10.001293, 9.997906 
2.1503796e+2, 2.5599808e+2, -341513.88, -627235.4, -11152.241, -0.013221052, -0.24459419, -341079.25, 90115.4, 0.0, 10.001692, 9.997903 
2.1504837e+2, 2.659957e+2, -213748.92, -557760.1, -12247.081, -0.0073650745, -0.24997407, -213313.47, 119903.99, 0.0, 10.002081, 9.9975195 
2.1505882e+2, 2.759932e+2, -60172.914, -432448.53, -13197.38, 0.0050117285, -0.2549701, -59705.65, 175535.94, 0.0, 10.0024605, 9.997524 
2.1506931e+2, 2.859904e+2, 72949.13, -348235.13, -8944.182, 0.012603299, -0.27172044, 73138.984, 210407.47, 0.0, 10.002834, 9.997251 
2.1507974e+2, 2.9598746e+2, 224864.56, -223032.94, -3910.1914, 0.013873567, -0.2940033, 224898.7, 264195.38, 0.0, 10.0032, 9.997261 
2.1508959e+2, 3.059855e+2, 332787.88, -153458.48, 3913.224, -0.067121595, -0.21060139, 332819.34, 332819.34, 0.0000002906552, 10.003638, 9.997193 
2.1510135e+2, 3.1598207e+2, 417602.34, -90584.55, 5384.762, 0.03781174, -0.27110237, 417659.4, 417659.4, 0.000006041645, 10.0041275, 9.99739 
2.249024e+2, 1.2598608e+2, -2214131.3, -1717514.1, -14479.545, 0.04734861, -0.4137082, -1717092.3, -11795.383, 0.0000026194793, 9.99555, 10.002128 
2.2491273e+2, 1.3598849e+2, -2058354.0, -1611424.4, -2873.148, 0.004340116, -0.37015206, -1611405.9, -4131.9375, 0.0000004546107, 9.996031, 10.001951 
2.249234e+2, 1.4598976e+2, -1919282.5, -1538804.1, -17729.715, 0.0061629354, -0.4157474, -1537979.8, -28716.63, 0.000000010467296, 9.996508, 10.001545 
2.2493395e+2, 1.5599181e+2, -1757866.1, -1417271.4, -24873.621, 0.010870977, -0.36755526, -1415464.5, -4219.4775, 0.0, 9.996972, 10.001482 
2.2494437e+2, 1.6599327e+2, -1643944.3, -1395194.6, -28319.293, 0.005434718, -0.32715875, -1392011.3, -78778.09, 0.0, 9.997442, 10.000734 
2.2495471e+2, 1.7599425e+2, -1478233.9, -1266907.0, -29018.049, -0.0063648773, -0.30533746, -1262994.9, -47768.29, 0.0, 9.997916, 10.000713 
2.2496507e+2, 1.8599488e+2, -1348131.8, -1213787.9, -37040.49, -0.011200403, -0.28374073, -1204252.1, -87030.09, 0.0, 9.998397, 10.000174 
2.2497544e+2, 1.9599529e+2, -1185665.0, -1094241.8, -42816.74, -0.011183117, -0.26142585, -1077320.9, -58102.18, 0.0, 9.99888, 10.000089 
2.249859e+2, 2.0599483e+2, -1091523.9, -1120966.4, -35681.188, -0.013902839, -0.2556072, -1067646.4, -146422.17, 0.0, 9.999384, 9.998989 
2.2499645e+2, 2.1599375e+2, -920085.44, -990816.25, -31850.428, -0.01841939, -0.26461297, -907857.1, -84621.24, 0.0, 9.999902, 9.9989605 
2.2500724e+2, 2.2599246e+2, -796156.3, -949049.6, -23489.148, -0.014856541, -0.25456506, -792629.0, -67379.625, 0.0, 10.000376, 9.998345 
2.2501819e+2, 2.3599106e+2, -634570.8, -821841.7, -26322.81, -0.005827744, -0.2330066, -630941.25, -3677.0627, 0.0, 10.000818, 9.998333 
2.2502895e+2, 2.459892e+2, -508903.3, -758575.9, -32791.45, -0.0067764465, -0.22843423, -504668.4, 24614.205, 0.0, 10.001215, 9.997904 
2.2503959e+2, 2.5598702e+2, -358066.34, -635402.1, -33357.94, -0.014677378, -0.23843323, -354110.47, 77193.13, 0.0, 10.001579, 9.997901 
2.2505037e+2, 2.6598468e+2, -226897.16, -563480.06, -32074.832, -0.009526393, -0.24262077, -223867.83, 109458.45, 0.0, 10.001988, 9.997525 
2.2506125e+2, 2.7598217e+2, -65089.457, -433956.53, -29640.547, 0.0052541685, -0.24664298, -62722.855, 172627.38, 0.0, 10.002423, 9.997532 
2.2507213e+2, 2.8597936e+2, 71339.77, -346274.13, -27573.707, 0.0132292025, -0.26503667, 73152.51, 210529.7, 0.0, 10.002811, 9.997275 
2.2508293e+2, 2.9597643e+2, 221492.6, -222262.63, -26091.58, 0.013904813, -0.2903389, 223021.44, 262427.06, 0.0, 10.003166, 9.997283 
2.2509314e+2, 3.0597457e+2, 315353.75, -160451.75, -13551.425, -0.069513135, -0.19580138, 315739.4, 315739.4, 0.000000085825576, 10.003512, 9.997207 
2.251053e+2, 3.1597114e+2, 386291.44, -92365.734, -5084.1787, 0.03427478, -0.26110876, 386345.44, 386345.44, 0.0000031779714, 10.003854, 9.99751 
2.3489806e+2, 1.2597552e+2, -2219679.8, -1729404.3, 3473.1794, 0.057139337, -0.3890877, -1729379.6, -23977.908, 0.0000018640146, 9.995551, 10.002046 
2.3490883e+2, 1.3597773e+2, -2063769.0, -1622602.0, 15157.517, 0.010808435, -0.36017612, -1622081.9, -14700.779, 0.0000002777255, 9.996031, 10.001875 
2.3491988e+2, 1.4597896e+2, -1931242.6, -1563836.3, -143.34111, 0.0044595567, -0.395925, -1563836.1, -54465.5, 0.0000000036051038, 9.996508, 10.001373 
2.3493084e+2, 1.55981e+2, -1768114.8, -1439169.0, -7403.461, 0.0041745584, -0.33069646, -1439002.5, -27649.568, 0.0, 9.996975, 10.001331 
2.3494174e+2, 1.6598235e+2, -1643880.6, -1395358.1, -10591.637, -0.000022355358, -0.29570574, -1394907.5, -81565.625, 0.0, 9.997443, 10.000732 
2.3495263e+2, 1.7598313e+2, -1479713.1, -1269785.1, -11068.332, -0.0062999735, -0.29409298, -1269203.1, -53866.563, 0.0, 9.997915, 10.000694 
2.3496354e+2, 1.8598355e+2, -1360594.1, -1239494.9, -18808.945, -0.004683347, -0.28218696, -1236640.8, -119306.805, 0.0, 9.998396, 9.999998 
2.3497444e+2, 1.9598377e+2, -1196075.8, -1115913.9, -24492.127, 0.0023337977, -0.26224875, -1109023.0, -89690.24, 0.0, 9.99888, 9.99994 
2.3498541e+2, 2.059833e+2, -1086065.0, -1109726.1, -16166.087, 0.00015336057, -0.2548774, -1077863.0, -156524.97, 0.0, 9.999384, 9.999066 
2.3499644e+2, 2.1598233e+2, -915742.94, -981818.0, -12576.2295, -0.008319342, -0.25974143, -913430.2, -90082.516, 0.0, 9.999902, 9.9990225 
2.3500764e+2, 2.25981e+2, -800790.8, -958661.94, -6768.0537, -0.010654807, -0.2537634, -800501.2, -75139.6, 0.0, 10.000375, 9.998281 
2.3501897e+2, 2.3597942e+2, -638836.1, -830634.5, -9898.455, -0.008834646, -0.24210638, -638326.6, -10948.32, 0.0, 10.000817, 9.998273 
2.3503019e+2, 2.459775e+2, -510537.13, -761983.0, -19136.402, -0.004072333, -0.23844674, -509089.1, 20308.379, 0.0, 10.001215, 9.99788 
2.3504134e+2, 2.559754e+2, -359313.13, -638073.56, -19366.48, 0.002671377, -0.24227162, -357974.1, 73444.19, 0.0, 10.001579, 9.997883 
2.3505236e+2, 2.6597315e+2, -223131.19, -555765.0, -15739.894, -0.008288413, -0.23741549, -222388.06, 111051.9, 0.0, 10.001988, 9.997579 
2.3506331e+2, 2.759708e+2, -61785.402, -426993.7, -13589.314, -0.030770268, -0.23170371, -61280.445, 174181.97, 0.0, 10.002422, 9.997581 
2.3507465e+2, 2.8596795e+2, 69426.07, -350083.44, -14289.379, -0.013460462, -0.2564028, 69912.234, 207402.33, 0.0, 10.0028105, 9.99725 
2.3508625e+2, 2.959648e+2, 220130.58, -224904.19, -12878.993, 0.028893216, -0.29743415, 220502.98, 260023.64, 0.0, 10.003164, 9.997266 
2.3509674e+2, 3.0596316e+2, 323136.6, -143956.28, -808.71594, -0.059638023, -0.18915738, 323138.0, 323138.0, 0.000000016806371, 10.00351, 9.997321 
2.3510888e+2, 3.1595996e+2, 401714.6, -59705.42, 7294.9937, 0.007760909, -0.24257709, 401829.9, 401829.9, 0.0000014346882, 10.003851, 9.997736 
2.4489373e+2, 1.2596433e+2, -2181174.8, -1721497.0, -13077.845, 0.054281693, -0.38487044, -1721125.3, -15613.336, 0.0000011498672, 9.995862, 10.001949 
2.4490494e+2, 1.3596646e+2, -2037463.5, -1619020.5, -2868.7048, 0.008201733, -0.35485676, -1619000.9, -11508.471, 0.00000012802465, 9.996251, 10.001793 
2.4491644e+2, 1.4596769e+2, -1909411.3, -1562297.5, -12924.346, 0.000592931, -0.38198856, -1561816.9, -52334.766, 0.00000000023702618, 9.996696, 10.001293 
2.4492793e+2, 1.559697e+2, -1742967.5, -1436097.4, -13681.141, 0.0057533453, -0.3126335, -1435488.6, -24023.898, 0.0, 9.997187, 10.001249 
2.449393e+2, 1.6597092e+2, -1624273.3, -1397597.6, -20285.055, 0.0032664575, -0.2810839, -1395796.6, -82341.69, 0.0, 9.997628, 10.000628 
2.4495062e+2, 1.7597151e+2, -1469994.4, -1276783.9, -28348.137, -0.0044146483, -0.2872346, -1272710.4, -57259.242, 0.0, 9.998034, 10.000589 
2.4496202e+2, 1.859718e+2, -1347149.0, -1244825.1, -32882.85, -0.0019169053, -0.2781935, -1235169.1, -117719.31, 0.0, 9.99854, 9.999892 
2.4497348e+2, 1.959719e+2, -1167668.3, -1112385.9, -33561.816, 0.007706019, -0.25795293, -1096548.0, -77098.15, 0.0, 9.99912, 9.999848 
2.44985e+2, 2.0597142e+2, -1047045.9, -1087286.6, -26363.762, 0.008050741, -0.25030273, -1034001.8, -112546.85, 0.0, 9.999636, 9.999099 
2.4499655e+2, 2.1597049e+2, -884158.9, -964247.44, -26644.998, 0.001888209, -0.2548661, -876104.3, -52640.457, 0.0, 10.000109, 9.999043 
2.4500811e+2, 2.2596914e+2, -791257.2, -963620.94, -27112.033, -0.0054845763, -0.24905926, -787093.2, -61614.965, 0.0, 10.000482, 9.998195 
2.4501972e+2, 2.3596746e+2, -648141.7, -842765.5, -31535.197, -0.013598726, -0.23790899, -643159.5, -15663.068, 0.0, 10.000787, 9.998204 
2.4503134e+2, 2.4596556e+2, -508893.25, -752459.94, -35430.68, -0.007809458, -0.23339933, -503843.97, 25671.533, 0.0, 10.001188, 9.997958 
2.4504298e+2, 2.559635e+2, -343343.16, -622325.9, -28273.396, 0.0074591874, -0.23536675, -340506.66, 91028.5, 0.0, 10.001655, 9.997954 
2.4505436e+2, 2.6596135e+2, -218386.3, -550977.3, -24875.854, -0.007498305, -0.22849782, -216536.02, 117020.08, 0.0, 10.00201, 9.997601 
2.4506554e+2, 2.7595904e+2, -80030.43, -433720.9, -25295.154, -0.042553972, -0.2206462, -78230.54, 157347.63, 0.0, 10.002289, 9.9976 
2.4507727e+2, 2.8595617e+2, 40186.215, -365393.34, -26375.994, -0.022838254, -0.24684069, 41894.33, 179500.6, 0.0, 10.002615, 9.997239 
2.4508932e+2, 2.95953e+2, 192279.28, -238504.05, -24144.988, 0.03225259, -0.29167104, 193628.38, 233266.13, 0.0, 10.0029745, 9.997264 
2.4510013e+2, 3.0595148e+2, 296701.78, -146076.56, -13855.968, -0.060074702, -0.17487329, 297134.94, 297134.94, 0.0000000018495133, 10.0032835, 9.997416 
2.4511243e+2, 3.1594837e+2, 375130.97, -47522.688, -7485.088, -0.007665997, -0.2277392, 375263.5, 375263.5, 0.00000052479436, 10.003561, 9.997958 
2.5488943e+2, 1.2595248e+2, -2188802.8, -1737896.4, 1673.4526, 0.038127776, -0.40155324, -1737890.1, -32262.46, 0.0000005982307, 9.995864, 10.001837 
2.5490105e+2, 1.359547e+2, -2043235.3, -1631872.6, 11886.768, -0.0045926273, -0.35402164, -1631529.5, -23921.418, 0.00000003796869, 9.996254, 10.001703 
2.5491306e+2, 1.4595596e+2, -1908320.1, -1560517.6, 5452.4395, -0.006302105, -0.3737602, -1560432.1, -50834.613, 0.0, 9.996698, 10.001305 
2.5492522e+2, 1.5595789e+2, -1743721.9, -1437529.5, 4529.478, 0.015575302, -0.3137733, -1437462.5, -25881.77, 0.0, 9.997186, 10.001241 
2.5493705e+2, 1.6595897e+2, -1639234.9, -1428508.9, -5089.306, 0.015306955, -0.2835773, -1428386.1, -114813.77, 0.0, 9.997628, 10.000417 
2.5494868e+2, 1.759594e+2, -1483429.8, -1304905.1, -12532.545, -0.0010821855, -0.28458628, -1304029.6, -88459.17, 0.0, 9.9980345, 10.000396 
2.5496054e+2, 1.8595962e+2, -1349540.0, -1250013.6, -11010.919, -0.003320096, -0.27152586, -1248810.0, -131240.13, 0.0, 9.998541, 9.999856 
2.5497258e+2, 1.9595973e+2, -1169971.8, -1117254.5, -12049.687, 0.0046780608, -0.24836536, -1114630.9, -95060.984, 0.0, 9.99912, 9.999815 
2.5498465e+2, 2.059592e+2, -1048032.0, -1089342.3, -8519.141, 0.009583424, -0.24178365, -1046344.1, -124768.914, 0.0, 9.999636, 9.999085 
2.5499675e+2, 2.1595822e+2, -885667.4, -967338.1, -9368.932, 0.011991713, -0.25000373, -884606.4, -61022.016, 0.0, 10.000108, 9.9990225 
2.5500864e+2, 2.2595683e+2, -798710.1, -979117.7, -15657.533, 0.0004560979, -0.24056001, -797361.3, -71761.85, 0.0, 10.000482, 9.998089 
2.5502044e+2, 2.3595513e+2, -653699.9, -854397.56, -19450.86, -0.02032903, -0.22050886, -651832.2, -24213.6, 0.0, 10.000787, 9.998125 
2.5503242e+2, 2.4595334e+2, -496361.75, -726472.06, -17906.41, -0.01809764, -0.21344246, -494976.66, 34660.055, 0.0, 10.001188, 9.998137 
2.5504455e+2, 2.5595143e+2, -332016.28, -598667.5, -11423.258, -0.0003053268, -0.21781741, -331527.8, 100126.36, 0.0, 10.001654, 9.998117 
2.5505638e+2, 2.6594928e+2, -219329.06, -552870.25, -14505.668, -0.007486083, -0.21591088, -218699.4, 114975.3, 0.0, 10.00201, 9.997588 
2.5506794e+2, 2.7594692e+2, -80937.48, -435769.88, -14589.285, -0.030987645, -0.21351375, -80338.63, 155358.88, 0.0, 10.002289, 9.997585 
2.5507995e+2, 2.859441e+2, 40460.887, -364904.8, -12903.09, -0.015423895, -0.23647262, 40871.188, 178596.88, 0.0, 10.002615, 9.997242 
2.5509223e+2, 2.9594097e+2, 192934.02, -236904.52, -11014.139, 0.024242265, -0.27350643, 193216.06, 232973.0, 0.0, 10.002974, 9.997275 
2.551033e+2, 3.0593956e+2, 301617.22, -135575.94, -3459.873, -0.07071513, -0.15320848, 301644.6, 301644.6, 0.000000000039700524, 10.003282, 9.997489 
2.5511593e+2, 3.159364e+2, 390102.2, -16106.48, 2845.0955, -0.012969617, -0.21723904, 390122.1, 390122.1, 0.00000015406697, 10.003559, 9.998176 
2.6488513e+2, 1.2594011e+2, -2170209.5, -1731948.3, -24679.896, 0.01680769, -0.41429245, -1730562.8, -24813.85, 0.00000026973817, 9.996006, 10.001808 
2.6489744e+2, 1.3594247e+2, -2011545.1, -1619071.6, -8555.853, -0.0025043576, -0.34925523, -1618885.1, -11157.202, 0.0000000060296985, 9.996483, 10.00168 
2.6490995e+2, 1.4594376e+2, -1878507.3, -1553640.0, -14995.962, -0.0005876844, -0.36298934, -1552949.3, -43231.887, 0.0, 9.996936, 10.001237 
2.6492256e+2, 1.559455e+2, -1721759.1, -1434531.8, -21916.7, 0.021572381, -0.31507346, -1432869.1, -21166.67, 0.0, 9.997371, 10.001172 
2.6493484e+2, 1.6594647e+2, -1609829.5, -1424353.6, -27940.389, 0.02130118, -0.2875194, -1420236.1, -106541.1, 0.0, 9.997873, 10.000327 
2.6494694e+2, 1.7594685e+2, -1432537.8, -1290159.9, -26347.451, 0.0035030602, -0.28395265, -1285440.6, -69747.06, 0.0, 9.9984255, 10.000309 
2.6495925e+2, 1.8594703e+2, -1304879.8, -1236998.3, -22618.145, -0.00006707958, -0.26654258, -1230152.3, -112458.836, 0.0, 9.998884, 9.99978 
2.6497176e+2, 1.959471e+2, -1152354.4, -1116918.0, -26950.38, 0.0071488833, -0.2394128, -1102383.1, -82689.14, 0.0, 9.999276, 9.9997425 
2.649843e+2, 2.0594652e+2, -1045495.3, -1092857.9, -27647.928, 0.011139993, -0.23341471, -1032773.1, -111073.07, 0.0, 9.999674, 9.9990425 
2.6499683e+2, 2.1594545e+2, -892654.44, -974255.1, -30959.979, 0.0123467585, -0.24539386, -882237.75, -58527.66, 0.0, 10.000075, 9.998991 
2.6500916e+2, 2.2594407e+2, -796411.3, -972048.5, -33976.46, 0.0026869187, -0.23475757, -790067.8, -64342.89, 0.0, 10.000472, 9.998142 
2.650213e+2, 2.3594248e+2, -638560.25, -841233.25, -25704.236, -0.01403129, -0.20993608, -635351.1, -7608.0835, 0.0, 10.000866, 9.998178 
2.6503363e+2, 2.4594074e+2, -489684.1, -717589.5, -23611.227, -0.016789297, -0.20230678, -487263.66, 42497.008, 0.0, 10.00121, 9.998188 
2.6504606e+2, 2.559389e+2, -347875.44, -600220.94, -26914.986, -0.010232795, -0.20928402, -345036.63, 86741.336, 0.0, 10.001518, 9.998172 
2.6505822e+2, 2.6593676e+2, -233026.7, -550532.9, -31661.154, -0.015467154, -0.21054749, -229900.28, 103897.77, 0.0, 10.001878, 9.997668 
2.6507026e+2, 2.7593446e+2, -78348.234, -426031.06, -25041.973, -0.027884517, -0.21126904, -76553.836, 159266.36, 0.0, 10.002271, 9.997661 
2.6508254e+2, 2.8593168e+2, 35614.08, -364354.38, -20866.38, -0.015221501, -0.23159283, 36699.73, 174547.5, 0.0, 10.00257, 9.997268 
2.6509497e+2, 2.9592866e+2, 169436.73, -245800.11, -17705.572, 0.011999416, -0.26231164, 170190.33, 210068.81, 0.0, 10.002802, 9.997297 
2.6510635e+2, 3.0592722e+2, 270153.84, -152145.6, -13393.904, -0.08172819, -0.14461997, 270578.22, 270578.22, 0.0, 10.003073, 9.997475 
2.6511937e+2, 3.1592393e+2, 373788.16, -7872.3696, -13647.781, -0.014080256, -0.22286141, 374275.56, 374275.56, 0.000000038019415, 10.00338, 9.998318 
2.7488086e+2, 1.259272e+2, -2165855.0, -1723279.4, -6902.85, -0.011334323, -0.42264345, -1723171.8, -17295.768, 0.00000012804327, 9.996007, 10.001867 
2.7489406e+2, 1.3592981e+2, -2008042.0, -1612101.4, 9132.7705, 0.014799181, -0.3399913, -1611890.9, -4038.6514, 0.0000000018569922, 9.996484, 10.001728 
2.7490705e+2, 1.4593108e+2, -1888907.3, -1575465.4, 1265.743, 0.01811913, -0.34911364, -1575460.3, -65618.484, 0.0, 9.996937, 10.001087 
2.7491993e+2, 1.5593252e+2, -1730783.9, -1453501.3, -5328.0654, 0.022920055, -0.3159791, -1453398.9, -41568.94, 0.0, 9.997371, 10.001041 
2.749327e+2, 1.659334e+2, -1607377.9, -1419498.9, -7183.035, 0.020339241, -0.2925326, -1419224.6, -105401.55, 0.0, 9.997874, 10.00036 
2.749454e+2, 1.7593385e+2, -1430909.4, -1287151.1, -6067.8135, 0.009076386, -0.28511235, -1286895.5, -71075.086, 0.0, 9.998427, 10.000329 
2.7495822e+2, 1.8593404e+2, -1313008.6, -1254182.6, -7900.7793, 0.0077709686, -0.26313508, -1253140.0, -135319.55, 0.0, 9.998885, 9.999661 
2.7497113e+2, 1.9593404e+2, -1160275.6, -1133511.3, -12155.893, 0.014946704, -0.23103534, -1128814.5, -108992.266, 0.0, 9.999277, 9.999628 
2.7498397e+2, 2.0593335e+2, -1050543.5, -1103396.0, -12512.497, 0.012538752, -0.22512726, -1047730.9, -125901.266, 0.0, 9.999674, 9.998971 
2.749968e+2, 2.1593219e+2, -895690.9, -980655.06, -15819.2705, 0.002768675, -0.2408906, -892841.1, -69000.13, 0.0, 10.000075, 9.998947 
2.7500957e+2, 2.259309e+2, -781575.7, -941313.44, -19159.148, 0.000955324, -0.23156486, -779309.9, -53455.25, 0.0, 10.000472, 9.998353 
2.7502236e+2, 2.3592952e+2, -625744.0, -814519.8, -11169.736, 0.004985267, -0.2061745, -625085.44, 2784.4016, 0.0, 10.000865, 9.998362 
2.7503496e+2, 2.4592781e+2, -495323.44, -729107.2, -12106.288, -0.004089613, -0.19990803, -494698.2, 35189.152, 0.0, 10.001209, 9.99811 
2.7504742e+2, 2.5592583e+2, -351861.1, -608395.1, -15045.049, -0.022431122, -0.2096619, -350981.78, 80924.74, 0.0, 10.001518, 9.9981165 
2.7505994e+2, 2.6592377e+2, -221251.73, -525866.5, -16938.424, -0.031429686, -0.21225531, -220312.75, 113613.375, 0.0, 10.001877, 9.997838 
2.7507246e+2, 2.759216e+2, -67445.734, -402801.9, -10810.432, -0.033290304, -0.21384533, -67097.62, 168848.61, 0.0, 10.002268, 9.997822 
2.7508503e+2, 2.8591898e+2, 38401.906, -358120.2, -12257.25, -0.022276044, -0.2321382, 38780.438, 176752.94, 0.0, 10.002568, 9.997312 
2.750976e+2, 2.9591605e+2, 171566.22, -241584.73, -8978.878, -0.0044297003, -0.2577946, 171761.25, 211763.63, 0.0, 10.002803, 9.997326 
2.7510932e+2, 3.0591446e+2, 263333.25, -166617.0, -1888.9364, -0.09317186, -0.14850058, 263341.56, 263341.56, 0.0, 10.003074, 9.9973755 
2.7512276e+2, 3.1591088e+2, 378117.75, 1371.8433, -2164.3694, -0.012200201, -0.24468781, 378130.2, 378130.2, 0.00000000643165, 10.003378, 9.998383 
2.8487676e+2, 1.2591398e+2, -2146889.0, -1716143.5, -21359.379, -0.027133126, -0.415459, -1715087.0, -9081.04, 0.000000073181255, 9.996145, 10.00185 
2.8489074e+2, 1.3591646e+2, -1969938.6, -1595929.4, -12034.8, 0.020256804, -0.34333956, -1595542.5, 12440.424, 0.00000000048290855, 9.996755, 10.001709 
2.8490418e+2, 1.459177e+2, -1846147.9, -1566466.6, -23596.533, 0.020956427, -0.35037294, -1564489.9, -54517.074, 0.0, 9.997281, 10.000983 
2.849174e+2, 1.5591902e+2, -1682628.0, -1440817.3, -26905.236, 0.017385503, -0.31634977, -1437859.9, -25897.916, 0.0, 9.997747, 10.000948 
2.8493068e+2, 1.6591984e+2, -1566267.4, -1402908.3, -29189.033, 0.015312607, -0.29420888, -1397849.5, -83893.74, 0.0, 9.998171, 10.000331 
2.849439e+2, 1.7592026e+2, -1413173.8, -1282251.9, -33184.96, 0.010090961, -0.28895614, -1274320.9, -58367.508, 0.0, 9.998566, 10.000296 
2.8495714e+2, 1.8592037e+2, -1309140.4, -1261508.8, -38458.652, 0.011074896, -0.26568115, -1240089.0, -122134.9, 0.0, 9.998952, 9.999579 
2.8497046e+2, 1.9592033e+2, -1156860.1, -1139880.8, -40052.348, 0.018168848, -0.22979632, -1107428.3, -87471.52, 0.0, 9.999335, 9.999557 
2.849837e+2, 2.0591965e+2, -1038196.56, -1094442.8, -33871.77, 0.0136280935, -0.22238562, -1022294.56, -100330.305, 0.0, 9.999746, 9.998998 
2.849969e+2, 2.159185e+2, -878548.8, -968250.2, -30225.191, 0.00017518557, -0.2383534, -869314.9, -45339.426, 0.0, 10.000175, 9.998984 
2.8501004e+2, 2.2591728e+2, -774397.7, -923530.1, -38682.527, 0.00086880155, -0.23143038, -764961.1, -38972.875, 0.0, 10.00046, 9.998481 
2.8502315e+2, 2.3591599e+2, -649885.8, -812646.9, -36649.0, 0.011742657, -0.20991644, -642014.25, -14011.92, 0.0, 10.000642, 9.998482 
2.8503612e+2, 2.4591437e+2, -527812.5, -738234.06, -31594.125, 0.0020090837, -0.20274934, -523171.13, 6847.8745, 0.0, 10.000958, 9.998167 
2.8504887e+2, 2.559125e+2, -368774.97, -609292.6, -24615.104, -0.022253595, -0.20818882, -366281.66, 65755.875, 0.0, 10.001371, 9.998181 
2.850617e+2, 2.6591057e+2, -241158.05, -521254.5, -25932.932, -0.034242664, -0.2082027, -238777.27, 95278.8, 0.0, 10.001679, 9.997965 
2.850745e+2, 2.7590853e+2, -110704.516, -410101.1, -23012.508, -0.037095316, -0.2085401, -108946.04, 127128.695, 0.0, 10.001913, 9.997942 
2.850874e+2, 2.85906e+2, 2181.4814, -370317.97, -23978.488, -0.027416855, -0.22609454, 3718.6782, 141818.89, 0.0, 10.002297, 9.997357 
2.8510034e+2, 2.9590312e+2, 171923.17, -237354.52, -21343.307, -0.01079823, -0.25130042, 173033.19, 213163.02, 0.0, 10.002789, 9.997361 
2.851123e+2, 3.0590147e+2, 255954.25, -176064.1, -17850.734, -0.09952372, -0.14528623, 256690.58, 256690.58, 0.0, 10.003049, 9.997323 
2.8512594e+2, 3.1589788e+2, 351910.8, 983.68463, -14698.274, -0.019238591, -0.23838577, 352525.38, 352525.38, 0.00000000043435586, 10.003144, 9.998492 
2.9487285e+2, 1.2590045e+2, -2153638.0, -1730927.0, 1654.2267, -0.030812876, -0.3916819, -1730920.5, -24781.549, 0.000000040732502, 9.996148, 10.001747 
2.9488742e+2, 1.3590245e+2, -1976470.6, -1609762.6, 10268.176, 0.012266043, -0.35915866, -1609475.4, -1355.044, 0.0000000000036468957, 9.996756, 10.001614 
2.949013e+2, 1.459036e+2, -1850186.5, -1575054.1, -6021.015, 0.0061115655, -0.36679083, -1574922.4, -64811.863, 0.0, 9.997281, 10.000924 
2.9491502e+2, 1.5590504e+2, -1686397.6, -1449312.3, -9625.877, 0.0042404663, -0.315736, -1448922.1, -36823.637, 0.0, 9.99775, 10.000888 
2.9492873e+2, 1.659058e+2, -1572403.1, -1416297.5, -14507.638, 0.005908721, -0.29202664, -1414960.6, -100867.734, 0.0, 9.998173, 10.000238 
2.9494244e+2, 1.7590602e+2, -1419379.8, -1295171.6, -18481.197, 0.006022377, -0.29533345, -1292480.1, -76387.625, 0.0, 9.998565, 10.000208 
2.949561e+2, 1.8590607e+2, -1312678.5, -1268773.1, -24113.072, 0.009352863, -0.27407637, -1258116.6, -140022.31, 0.0, 9.998951, 9.99953 
2.9496977e+2, 1.9590598e+2, -1159025.0, -1144529.3, -25491.295, 0.016537763, -0.23558412, -1125275.5, -105178.05, 0.0, 9.999335, 9.999525 
2.9498342e+2, 2.059054e+2, -1029266.94, -1076038.4, -17659.13, 0.014212979, -0.22518623, -1023348.44, -101244.305, 0.0, 9.999746, 9.999125 
2.949971e+2, 2.159044e+2, -870185.44, -950980.25, -14759.895, 0.0043870127, -0.23783597, -867573.5, -43459.95, 0.0, 10.000175, 9.999103 
2.9501054e+2, 2.2590323e+2, -771416.5, -917382.75, -31915.678, 0.0023461368, -0.23433523, -764743.2, -38617.29, 0.0, 10.00046, 9.998524 
2.9502374e+2, 2.359019e+2, -645770.1, -804309.9, -29056.986, 0.00618771, -0.22103348, -640612.44, -12471.977, 0.0, 10.000642, 9.998539 
2.9503706e+2, 2.4590044e+2, -514385.3, -710504.0, -16090.25, 0.0012567536, -0.21080828, -513073.97, 17081.576, 0.0, 10.000958, 9.998358 
2.9505035e+2, 2.5589886e+2, -356293.4, -583073.4, -9685.545, -0.01017793, -0.20501254, -355880.5, 76290.555, 0.0, 10.001369, 9.998362 
2.9506344e+2, 2.6589713e+2, -235731.45, -509559.4, -17306.688, -0.024307081, -0.19859979, -234641.97, 99545.89, 0.0, 10.0016775, 9.998046 
2.950764e+2, 2.758952e+2, -105216.71, -398576.28, -13510.732, -0.039404757, -0.19553572, -104595.79, 131609.9, 0.0, 10.001912, 9.998022 
2.9508966e+2, 2.858927e+2, 5187.639, -363782.06, -5524.485, -0.0308776, -0.21363024, 5270.3374, 143501.27, 0.0, 10.0022955, 9.997403 
2.9510316e+2, 2.9588982e+2, 174080.8, -231842.78, -4188.0605, -0.00785112, -0.24307275, 174124.0, 214384.83, 0.0, 10.002784, 9.997401 
2.9511532e+2, 3.0588824e+2, 254907.98, -177768.27, -14294.627, -0.101279244, -0.135405, 255379.73, 255379.73, 0.0, 10.003046, 9.997313 
2.9512894e+2, 3.158849e+2, 363354.38, 23577.078, -10529.935, -0.03514236, -0.20652497, 363680.4, 363680.4, 0.0, 10.003149, 9.998646 
3.0486923e+2, 1.2588641e+2, -2076820.6, -1711787.5, -12616.89, -0.03837521, -0.3771045, -1711351.9, -5075.18, 0.000000022140249, 9.996754, 10.001587 
3.048843e+2, 1.3588807e+2, -1932617.1, -1605076.4, -8775.789, 0.0097467005, -0.36030594, -1604841.4, 3419.805, 0.0, 9.9971285, 10.001466 
3.0489865e+2, 1.4588909e+2, -1816149.1, -1561570.9, -27067.146, 0.0014221491, -0.37376848, -1558724.9, -48472.36, 0.0, 9.997528, 10.000897 
3.0491287e+2, 1.5589042e+2, -1660087.3, -1439620.5, -28663.889, 0.0052393517, -0.33113202, -1435954.8, -23713.793, 0.0, 9.997944, 10.000861 
3.04927e+2, 1.6589116e+2, -1552242.3, -1412014.9, -32840.957, 0.007602428, -0.30520284, -1404704.8, -90469.21, 0.0, 9.998336, 10.000189 
3.0494103e+2, 1.7589143e+2, -1401148.3, -1291308.8, -33607.08, 0.0036383613, -0.29794472, -1281842.0, -65607.164, 0.0, 9.998712, 10.000163 
3.0495504e+2, 1.8589146e+2, -1290619.9, -1258310.4, -35311.563, 0.0040852875, -0.27659458, -1235633.8, -117396.66, 0.0, 9.999104, 9.999528 
3.049691e+2, 1.958913e+2, -1133138.5, -1130748.4, -33519.746, 0.009697897, -0.24581003, -1098402.4, -78161.32, 0.0, 9.999508, 9.999536 
3.0498317e+2, 2.058908e+2, -1019781.2, -1058346.6, -28491.314, 0.011143879, -0.2332432, -1004660.75, -82413.78, 0.0, 9.999755, 9.999241 
3.0499718e+2, 2.1589004e+2, -903746.06, -954618.94, -26091.305, 0.008724296, -0.23634359, -892743.94, -68489.64, 0.0, 9.999891, 9.999214 
3.0501089e+2, 2.2588895e+2, -798085.06, -922941.1, -40420.168, 0.005774665, -0.23147137, -786142.06, -59876.234, 0.0, 10.000245, 9.998589 
3.0502442e+2, 2.3588763e+2, -624541.0, -786011.6, -36327.656, 0.0028545829, -0.22283106, -616744.5, 11535.821, 0.0, 10.000753, 9.998611 
3.05038e+2, 2.4588627e+2, -497621.5, -687366.9, -28618.754, -0.0008821339, -0.21392033, -493398.97, 36895.527, 0.0, 10.001009, 9.998492 
3.050516e+2, 2.5588486e+2, -388257.03, -583797.4, -26141.262, -0.0055707507, -0.20688777, -384822.6, 47485.883, 0.0, 10.001087, 9.998493 
3.05065e+2, 2.658832e+2, -272638.3, -517114.28, -31658.412, -0.02112564, -0.19830342, -268605.25, 65718.78, 0.0, 10.00138, 9.9981365 
3.0507818e+2, 2.7588144e+2, -111174.04, -391331.44, -27322.617, -0.04336293, -0.19219723, -108534.25, 127806.62, 0.0, 10.001828, 9.998112 
3.0509183e+2, 2.8587902e+2, -14894.343, -365308.7, -18279.875, -0.034926232, -0.20719913, -13943.327, 124421.94, 0.0, 10.002123, 9.997476 
3.051057e+2, 2.958763e+2, 109550.52, -255427.86, -15046.586, -0.0070381644, -0.2339441, 110169.78, 150564.3, 0.0, 10.002309, 9.997468 
3.051182e+2, 3.0587465e+2, 210434.13, -198898.94, -22901.324, -0.10153141, -0.13243017, 211711.42, 211711.42, 0.0, 10.00274, 9.997314 
3.051321e+2, 3.1587142e+2, 403391.16, 60142.027, -18473.223, -0.04307946, -0.19034845, 404382.5, 404382.5, 0.0, 10.003351, 9.998799 
3.1486586e+2, 1.2587184e+2, -2091842.4, -1743819.1, 1282.7399, -0.051725652, -0.3717036, -1743814.4, -37394.99, 0.00000002336468, 9.996757, 10.001366 
3.1488147e+2, 1.3587336e+2, -1945988.3, -1634240.5, 5498.166, 0.012076023, -0.34582114, -1634143.6, -25738.018, 0.0, 9.997134, 10.001264 
3.148962e+2, 1.4587417e+2, -1815131.4, -1560627.3, -11511.24, 0.006865717, -0.37050596, -1560107.6, -49709.117, 0.0, 9.997533, 10.000902 
3.1491095e+2, 1.5587516e+2, -1659797.1, -1439058.5, -13248.512, 0.020212416, -0.36280498, -1438266.3, -25876.83, 0.0, 9.997944, 10.000866 
3.1492543e+2, 1.6587593e+2, -1553049.4, -1413486.5, -18682.951, 0.020084856, -0.33410034, -1411028.6, -96645.14, 0.0, 9.998334, 10.000179 
3.1493974e+2, 1.7587651e+2, -1401182.3, -1291690.5, -19368.387, 0.0026310456, -0.29656693, -1288365.4, -71984.91, 0.0, 9.998713, 10.00016 
3.1495407e+2, 1.8587658e+2, -1287108.5, -1251460.4, -20099.875, -0.005022241, -0.27296895, -1242420.0, -124037.59, 0.0, 9.999105, 9.999575 
3.1496847e+2, 1.958763e+2, -1129396.0, -1123152.5, -19118.41, -0.0025602668, -0.26054716, -1106902.6, -86514.81, 0.0, 9.999509, 9.999588 
3.1498283e+2, 2.0587589e+2, -1012305.56, -1042867.8, -23379.535, 0.004239834, -0.24662872, -999656.1, -77263.266, 0.0, 9.999755, 9.999348 
3.149971e+2, 2.1587537e+2, -896410.25, -939491.94, -19695.924, 0.0129647665, -0.23389195, -888763.1, -64365.348, 0.0, 9.999891, 9.999319 
3.1501117e+2, 2.2587444e+2, -792085.7, -910561.3, -21174.604, 0.010896213, -0.2228916, -788415.0, -62007.027, 0.0, 10.000245, 9.998673 
3.1502512e+2, 2.3587319e+2, -618606.06, -773618.4, -18597.982, 0.001593987, -0.21543644, -616405.94, 12015.915, 0.0, 10.000752, 9.998696 
3.1503895e+2, 2.4587186e+2, -492247.72, -676167.5, -25864.123, -0.004478564, -0.21210803, -488679.75, 41756.063, 0.0, 10.001009, 9.9985695 
3.150527e+2, 2.5587043e+2, -382535.63, -572029.7, -22206.326, -0.008463234, -0.21361119, -379968.1, 52481.617, 0.0, 10.001087, 9.998574 
3.1506634e+2, 2.6586887e+2, -265804.34, -502966.72, -14909.006, -0.024805011, -0.2070422, -264870.78, 69593.78, 0.0, 10.00138, 9.998234 
3.1507996e+2, 2.7586722e+2, -104509.72, -377225.1, -11397.568, -0.049231794, -0.19825691, -104034.21, 132446.0, 0.0, 10.001827, 9.998209 
3.1509387e+2, 2.8586498e+2, -8301.535, -351491.1, -11572.23, -0.03978692, -0.20655155, -7911.7666, 130591.42, 0.0, 10.002123, 9.997571 
3.1510797e+2, 2.958624e+2, 116145.375, -242174.5, -7031.2886, -0.008239294, -0.2239643, 116283.29, 156814.17, 0.0, 10.00231, 9.997559 
3.1512094e+2, 3.058607e+2, 211508.6, -197313.45, -144.47667, -0.10047939, -0.13603505, 211508.66, 211508.66, 0.0, 10.002742, 9.997324 
3.1513542e+2, 3.158575e+2, 414193.53, 82132.55, 3810.8218, -0.04481425, -0.19127871, 414237.28, 414237.28, 0.0, 10.003352, 9.99895 
3.2486263e+2, 1.2585665e+2, -2081585.3, -1751317.1, -18499.883, -0.054456495, -0.37562042, -1750284.1, -43716.508, 0.00000007294155, 9.9968815, 10.001253 
3.2487875e+2, 1.3585806e+2, -1900753.6, -1624823.0, -6524.6694, 0.010460481, -0.3505861, -1624668.8, -16113.644, 0.00000000003860718, 9.9974985, 10.001152 
3.248939e+2, 1.4585881e+2, -1760689.6, -1539393.5, -27846.715, 0.0021851498, -0.3740542, -1535943.3, -25394.506, 0.0, 9.997929, 10.000856 
3.2490906e+2, 1.5585968e+2, -1622796.9, -1425061.0, -33555.62, 0.023713298, -0.37307978, -1419521.9, -6981.198, 0.0, 9.998215, 10.000831 
3.2492393e+2, 1.6586047e+2, -1522099.5, -1391463.8, -37251.598, 0.024697691, -0.34375712, -1381587.8, -67053.35, 0.0, 9.998517, 10.000242 
3.2493848e+2, 1.7586118e+2, -1379572.1, -1274779.6, -32792.43, 0.0022102436, -0.29981074, -1265364.0, -48834.043, 0.0, 9.998835, 10.000217 
3.249531e+2, 1.858613e+2, -1294206.0, -1256310.4, -36207.297, -0.0073832427, -0.2731303, -1234392.6, -115861.05, 0.0, 9.9990635, 9.999561 
3.2496783e+2, 1.95861e+2, -1170310.5, -1143307.9, -40031.934, -0.004245596, -0.2601634, -1114561.8, -94024.11, 0.0, 9.999229, 9.999584 
3.2498243e+2, 2.0586064e+2, -1038208.25, -1043944.4, -47234.95, 0.00052377133, -0.24611588, -993754.4, -71211.91, 0.0, 9.999528, 9.999449 
3.2499692e+2, 2.1586023e+2, -884645.7, -922227.25, -43655.48, 0.0051194006, -0.23361607, -855908.6, -31362.268, 0.0, 9.999923, 9.999422 
3.2501134e+2, 2.2585943e+2, -787525.3, -896458.56, -40529.35, 0.0046823216, -0.21908914, -774100.56, -47545.36, 0.0, 10.000226, 9.99878 
3.2502574e+2, 2.3585837e+2, -653555.4, -778967.0, -37002.137, 0.0012733961, -0.20537066, -643452.06, -14884.41, 0.0, 10.0004635, 9.998799 
3.2503983e+2, 2.4585709e+2, -525827.06, -686342.94, -50517.863, -0.0041123666, -0.20332481, -511251.5, 19329.527, 0.0, 10.000753, 9.998623 
3.2505372e+2, 2.5585565e+2, -379286.78, -563640.9, -48244.453, -0.011136291, -0.2114544, -367424.72, 65170.36, 0.0, 10.0010805, 9.998634 
3.2506767e+2, 2.6585415e+2, -257539.34, -484375.16, -34942.86, -0.029317886, -0.20887749, -252278.58, 82330.62, 0.0, 10.001374, 9.998364 
3.2508165e+2, 2.758526e+2, -122079.71, -371487.13, -29265.074, -0.054922204, -0.20212659, -118691.81, 117931.72, 0.0, 10.001646, 9.998336 
3.250959e+2, 2.8585052e+2, -23111.076, -352710.06, -32153.633, -0.04388361, -0.20407969, -20003.664, 118641.38, 0.0, 10.001996, 9.997623 
3.2511032e+2, 2.9584807e+2, 132962.72, -229139.34, -30157.43, -0.00845006, -0.20955501, 135457.17, 176128.47, 0.0, 10.002405, 9.997602 
3.2512373e+2, 3.0584615e+2, 223383.1, -199211.72, -19521.455, -0.09975849, -0.1428813, 224282.95, 224282.95, 0.0, 10.002857, 9.997255 
3.2513875e+2, 3.1584287e+2, 416312.84, 90091.6, -21561.48, -0.047967605, -0.20254892, 417731.78, 417731.78, 0.0, 10.003338, 9.999011 
3.3485958e+2, 1.2584087e+2, -2081305.5, -1751601.0, 4066.2725, -0.04755336, -0.38960212, -1751550.9, -44829.55, 0.00000025481785, 9.996884, 10.00125 
3.3487615e+2, 1.3584214e+2, -1901957.5, -1627477.4, 15816.518, 0.0042210883, -0.37567168, -1626569.0, -17859.033, 0.0000000058941185, 9.997498, 10.001134 
3.3489168e+2, 1.4584297e+2, -1767661.3, -1553993.5, -16925.45, -0.013556243, -0.3848684, -1552661.1, -41957.89, 0.0, 9.997929, 10.000756 
3.3490717e+2, 1.5584397e+2, -1627780.4, -1436256.8, -22710.182, 0.014554082, -0.36128655, -1433600.6, -20906.03, 0.0, 9.998218, 10.000752 
3.3492237e+2, 1.658448e+2, -1512095.5, -1371557.9, -25413.537, 0.020663, -0.33353478, -1367103.5, -52415.387, 0.0, 9.99852, 10.000378 
3.349373e+2, 1.7584544e+2, -1371307.4, -1257778.1, -21311.113, 0.0022186253, -0.30780813, -1253909.6, -37226.176, 0.0, 9.998835, 10.000335 
3.349522e+2, 1.8584561e+2, -1299829.6, -1267802.4, -30013.117, -0.003034994, -0.27733144, -1249798.0, -131113.14, 0.0, 9.999063, 9.999483 
3.3496714e+2, 1.9584543e+2, -1174970.4, -1152855.5, -33051.227, 0.004547228, -0.24457794, -1129061.1, -108370.29, 0.0, 9.9992285, 9.999519 
3.3498195e+2, 2.0584509e+2, -1031554.9, -1030097.5, -32332.342, -0.00010484828, -0.23153903, -998485.6, -75789.96, 0.0, 9.999528, 9.999545 
3.3499664e+2, 2.158446e+2, -877586.1, -907671.5, -29196.938, -0.014947763, -0.23541543, -859784.56, -35084.6, 0.0, 9.999923, 9.999522 
3.350114e+2, 2.2584395e+2, -778600.8, -878087.06, -31611.748, -0.013058748, -0.2200531, -769406.0, -42698.43, 0.0, 10.000226, 9.998906 
3.3502617e+2, 2.3584314e+2, -645264.75, -761773.56, -27772.95, 0.0016205207, -0.19263816, -638983.0, -10265.49, 0.0, 10.0004635, 9.998918 
3.3504063e+2, 2.4584195e+2, -523953.53, -682430.56, -38275.75, -0.00003790827, -0.18761377, -515193.3, 15536.774, 0.0, 10.000752, 9.99865 
3.3505476e+2, 2.5584048e+2, -376600.47, -558015.75, -36208.465, -0.013733319, -0.20062165, -369640.66, 63103.867, 0.0, 10.0010805, 9.998673 
3.3506897e+2, 2.6583904e+2, -246258.64, -460889.9, -24990.945, -0.034723103, -0.20400046, -243387.19, 91370.75, 0.0, 10.001374, 9.998526 
3.350832e+2, 2.758376e+2, -111496.39, -349271.5, -18980.762, -0.060542148, -0.20405614, -109990.76, 126780.02, 0.0, 10.001644, 9.998489 
3.3509785e+2, 2.8583562e+2, -22523.879, -351395.44, -17131.783, -0.047495462, -0.20006046, -21633.848, 117156.95, 0.0, 10.001995, 9.997633 
3.351127e+2, 2.9583338e+2, 132931.58, -229561.28, -14859.715, -0.008164447, -0.1907601, 133539.7, 174355.36, 0.0, 10.002406, 9.997599 
3.3512658e+2, 3.0583104e+2, 213608.23, -220112.2, -1813.1544, -0.0997074, -0.15257615, 213615.81, 213615.81, 0.0, 10.00286, 9.997111 
3.35142e+2, 3.1582752e+2, 414945.3, 86494.05, -4024.3655, -0.053187754, -0.2259365, 414994.63, 414994.63, 0.0, 10.003341, 9.998985 
3.4485677e+2, 1.2582466e+2, -2011852.0, -1721632.5, -16471.135, -0.03770938, -0.39862996, -1720700.8, -13820.733, 0.00000066099744, 9.997376, 10.001218 
3.448737e+2, 1.3582589e+2, -1892461.3, -1627155.1, -6748.6074, 0.0018973299, -0.38732994, -1626983.6, -18114.334, 0.000000050287014, 9.9975815, 10.001096 
3.4488943e+2, 1.4582676e+2, -1773443.9, -1558710.6, -39197.285, -0.024755934, -0.38801104, -1551779.3, -40917.21, 0.0000000000012273421, 9.997898, 10.000738 
3.449054e+2, 1.5582782e+2, -1617822.1, -1432527.4, -39271.094, 0.012139566, -0.35657412, -1424547.9, -11694.641, 0.0, 9.998292, 10.000742 
3.4492093e+2, 1.6582866e+2, -1495170.8, -1356383.5, -44648.707, 0.021441527, -0.32964063, -1343260.6, -28413.996, 0.0, 9.998606, 10.00044 
3.4493613e+2, 1.758293e+2, -1362201.5, -1246198.4, -46339.914, 0.001151085, -0.31027535, -1229960.0, -13118.243, 0.0, 9.998866, 10.000398 
3.4495127e+2, 1.8582954e+2, -1285101.8, -1252933.4, -53350.59, -0.004825313, -0.2795911, -1213295.1, -94452.72, 0.0, 9.99913, 9.999552 
3.4496644e+2, 1.9582947e+2, -1145567.3, -1131236.1, -45013.53, 0.0032025604, -0.24204263, -1092821.4, -71974.18, 0.0, 9.999399, 9.999585 
3.4498146e+2, 2.0582919e+2, -1014390.44, -1018567.8, -39678.55, -0.0016181573, -0.22671638, -976745.6, -53893.945, 0.0, 9.999632, 9.999574 
3.4499645e+2, 2.1582875e+2, -887809.06, -908799.0, -41820.152, -0.017086376, -0.23024207, -855187.1, -30331.088, 0.0, 9.999837, 9.999556 
3.4501147e+2, 2.2582814e+2, -799349.4, -879495.9, -51251.723, -0.01608401, -0.21388409, -774364.1, -47501.07, 0.0, 10.000047, 9.998982 
3.450265e+2, 2.3582742e+2, -669391.3, -765134.25, -50806.492, -0.002552657, -0.18475176, -647456.06, -18583.945, 0.0, 10.000262, 9.998991 
3.450412e+2, 2.4582632e+2, -545066.06, -686445.3, -57043.91, -0.0054658456, -0.17846513, -524920.5, 5963.5054, 0.0, 10.000581, 9.998705 
3.450557e+2, 2.5582492e+2, -387743.06, -557093.94, -53374.523, -0.020450778, -0.19080125, -372324.7, 60573.137, 0.0, 10.000977, 9.99873 
3.4507024e+2, 2.6582348e+2, -256071.53, -459734.88, -49580.367, -0.037570998, -0.19669284, -244642.88, 90268.11, 0.0, 10.001282, 9.998578 
3.4508485e+2, 2.7582204e+2, -125626.29, -350434.53, -51077.89, -0.05567734, -0.20145194, -114565.28, 122358.54, 0.0, 10.001523, 9.99854 
3.4509984e+2, 2.8582016e+2, -30056.941, -352183.8, -44648.55, -0.043006305, -0.19325301, -23982.938, 114960.09, 0.0, 10.001931, 9.997659 
3.4511513e+2, 2.9581806e+2, 141931.92, -223293.36, -41210.11, -0.009838485, -0.17349836, 146524.11, 187490.67, 0.0, 10.00246, 9.997616 
3.4512946e+2, 3.058155e+2, 218976.86, -229152.42, -25850.766, -0.101714924, -0.154451, 220463.16, 220463.16, 0.0, 10.002947, 9.997007 
3.4514534e+2, 3.1581196e+2, 422845.78, 88370.44, -25404.926, -0.052697625, -0.21419045, 424764.4, 424764.4, 0.0, 10.003404, 9.998968 
3.548543e+2, 1.2580802e+2, -2016046.1, -1730668.9, -9781.303, -0.025732484, -0.40230277, -1730334.0, -23290.328, 0.0000013452728, 9.997377, 10.001156 
3.5487124e+2, 1.3580921e+2, -1896503.0, -1636060.9, 1404.7883, 0.0024523283, -0.38505384, -1636053.3, -27020.281, 0.00000017487064, 9.997583, 10.001034 
3.5488725e+2, 1.4581014e+2, -1768803.1, -1549450.6, -24421.559, -0.0320754, -0.3833437, -1546764.5, -35739.113, 0.0000000006565857, 9.997899, 10.000802 
3.5490373e+2, 1.5581119e+2, -1613858.0, -1424278.1, -24884.365, 0.016597899, -0.35944745, -1421066.1, -8049.5396, 0.0, 9.998291, 10.000799 
3.5491958e+2, 1.6581205e+2, -1496333.0, -1358827.3, -34984.363, 0.027070709, -0.33250397, -1350438.3, -35428.406, 0.0, 9.998606, 10.000423 
3.5493496e+2, 1.7581274e+2, -1361809.3, -1245574.6, -36578.77, -0.0014105284, -0.30720776, -1235021.5, -18016.59, 0.0, 9.998866, 10.000402 
3.549503e+2, 1.8581305e+2, -1269607.1, -1221062.8, -43274.395, -0.013191121, -0.27987772, -1195718.4, -76713.98, 0.0, 9.99913, 9.999771 
3.549657e+2, 1.958131e+2, -1131530.9, -1102390.0, -34985.51, -0.008581414, -0.25271004, -1079062.1, -58055.06, 0.0, 9.9994, 9.999783 
3.5498106e+2, 2.0581296e+2, -1017151.44, -1024466.44, -31954.4, -0.004243508, -0.23178887, -988645.9, -65635.484, 0.0, 9.999632, 9.999533 
3.5499647e+2, 2.1581264e+2, -890102.44, -913668.56, -33991.098, -0.0015138709, -0.21815522, -865910.0, -40895.54, 0.0, 9.999837, 9.999522 
3.5501164e+2, 2.2581205e+2, -797606.8, -876053.6, -43165.086, -0.0045348085, -0.2005942, -778506.1, -51484.344, 0.0, 10.000048, 9.999006 
3.5502663e+2, 2.3581125e+2, -667313.6, -761108.5, -42186.31, -0.011306134, -0.18162692, -651131.3, -22099.816, 0.0, 10.000263, 9.999019 
3.5504162e+2, 2.458102e+2, -539334.56, -674727.56, -42239.293, -0.020397974, -0.17583598, -527237.75, 3804.9446, 0.0, 10.000582, 9.998785 
3.5505655e+2, 2.5580892e+2, -382822.44, -546646.5, -39126.754, -0.031448603, -0.1820603, -373957.34, 59097.64, 0.0, 10.000976, 9.998802 
3.550715e+2, 2.6580754e+2, -260034.86, -467908.66, -40746.703, -0.038209256, -0.18702482, -252333.17, 82735.1, 0.0, 10.001281, 9.998523 
3.5508648e+2, 2.75806e+2, -128903.79, -357686.4, -41330.195, -0.040970095, -0.1942142, -121666.33, 115416.164, 0.0, 10.001525, 9.998489 
3.5510185e+2, 2.8580415e+2, -27013.596, -346291.4, -24988.52, -0.03080865, -0.18361764, -25069.686, 114031.86, 0.0, 10.001932, 9.997699 
3.5511753e+2, 2.958021e+2, 144503.97, -217956.89, -21800.51, -0.013436486, -0.15829515, 145810.47, 186934.28, 0.0, 10.00246, 9.997653 
3.551323e+2, 3.0579942e+2, 214213.22, -239054.39, -8921.747, -0.106064, -0.1493275, 214388.75, 214388.75, 0.0, 10.002946, 9.99694 
3.551488e+2, 3.157962e+2, 422388.22, 86982.914, -8159.7095, -0.048530135, -0.17217189, 422586.6, 422586.6, 0.0, 10.003406, 9.998958 
3.648518e+2, 1.257915e+2, -1994228.5, -1724098.6, -17049.604, -0.01702829, -0.37529483, -1723026.8, -15819.602, 0.000002293197, 9.997544, 10.00112 
3.6486906e+2, 1.3579255e+2, -1877765.1, -1631781.3, -2389.0564, 0.017955683, -0.36818725, -1631758.1, -22560.389, 0.00000039420158, 9.997733, 10.000991 
3.6488524e+2, 1.4579341e+2, -1752935.8, -1539527.4, -24207.21, -0.026038174, -0.37161192, -1536816.0, -25625.621, 0.000000005977529, 9.997998, 10.000821 
3.6490202e+2, 1.5579438e+2, -1609945.8, -1420009.9, -28384.936, 0.017873516, -0.35705182, -1415858.6, -2676.7769, 0.0, 9.998307, 10.00082 
3.6491814e+2, 1.6579525e+2, -1497311.6, -1358860.5, -41646.363, 0.025324512, -0.32924584, -1347298.6, -32123.742, 0.0, 9.998597, 10.000427 
3.649338e+2, 1.7579603e+2, -1358936.0, -1242651.0, -41795.02, -0.0060893483, -0.29523557, -1229187.9, -12018.559, 0.0, 9.998879, 10.000416 
3.6494935e+2, 1.8579637e+2, -1262408.3, -1206448.0, -53919.5, -0.020199824, -0.2736046, -1173681.1, -54512.656, 0.0, 9.999132, 9.99987 
3.6496496e+2, 1.9579636e+2, -1130458.9, -1091367.9, -54893.633, -0.017034847, -0.26273933, -1052643.9, -31472.674, 0.0, 9.999362, 9.999876 
3.649806e+2, 2.0579632e+2, -1024681.44, -1024544.25, -54549.992, -0.008103915, -0.2366328, -970062.8, -46889.24, 0.0, 9.999565, 9.999564 
3.6499628e+2, 2.1579623e+2, -900643.44, -915166.7, -51085.176, 0.0035237663, -0.20204951, -856306.4, -31130.531, 0.0, 9.999749, 9.999554 
3.650117e+2, 2.2579567e+2, -799140.1, -874640.44, -55151.516, -0.001923922, -0.18447527, -770056.44, -42873.4, 0.0, 10.000028, 9.999025 
3.650269e+2, 2.3579474e+2, -649311.75, -750045.0, -54577.76, -0.019323096, -0.18106478, -625411.8, 3782.0972, 0.0, 10.000377, 9.99904 
3.6504215e+2, 2.4579369e+2, -528096.4, -664591.44, -55806.496, -0.028810132, -0.17829697, -508184.47, 23020.432, 0.0, 10.000639, 9.998827 
3.6505744e+2, 2.5579253e+2, -400208.75, -551225.44, -55554.566, -0.032893423, -0.1783146, -381973.72, 51242.348, 0.0, 10.00084, 9.9988365 
3.6507276e+2, 2.6579115e+2, -274688.16, -481640.03, -56093.965, -0.037561033, -0.17877492, -260461.92, 74767.52, 0.0, 10.001209, 9.998464 
3.6508808e+2, 2.757896e+2, -106070.54, -351907.38, -56761.887, -0.041822005, -0.1825454, -93597.49, 143647.19, 0.0, 10.001704, 9.998443 
3.6510387e+2, 2.857878e+2, 5301.8486, -322031.1, -36246.06, -0.03225295, -0.16966525, 9267.387, 148530.69, 0.0, 10.002117, 9.997776 
3.6511996e+2, 2.957858e+2, 151338.95, -206247.1, -30189.836, -0.014558142, -0.14327079, 153869.88, 195154.03, 0.0, 10.00247, 9.997728 
3.6513522e+2, 3.0578306e+2, 206664.16, -240974.92, -11983.789, -0.106433615, -0.15069298, 206984.73, 206984.73, 0.0, 10.002887, 9.996955 
3.6515215e+2, 3.1578016e+2, 417358.8, 88661.46, -5456.979, -0.049497943, -0.14119263, 417449.4, 417449.4, 0.0, 10.003353, 9.998995 
3.748494e+2, 1.2577513e+2, -1994834.4, -1725618.1, -11282.8125, -0.012945494, -0.31615925, -1725146.1, -17775.695, 0.000003431768, 9.997545, 10.001109 
3.7486708e+2, 1.357759e+2, -1879674.1, -1635720.9, 5200.503, 0.04912277, -0.33617622, -1635610.1, -26246.746, 0.0000006949508, 9.997732, 10.000964 
3.748834e+2, 1.4577658e+2, -1754833.0, -1543349.6, -12448.638, -0.0059721707, -0.35274452, -1542619.4, -31262.445, 0.00000001953993, 9.997997, 10.000795 
3.7490028e+2, 1.5577742e+2, -1611286.4, -1422902.0, -16873.676, 0.015330332, -0.34927255, -1421402.5, -8053.572, 0.0, 9.998307, 10.0008 
3.749166e+2, 1.6577832e+2, -1495495.6, -1355363.6, -31066.18, 0.015482459, -0.31977618, -1348785.3, -33443.734, 0.0, 9.998598, 10.000451 
3.7493256e+2, 1.7577924e+2, -1357347.0, -1239592.6, -31180.969, -0.013109861, -0.27430815, -1231845.6, -14510.929, 0.0, 9.99888, 10.000437 
3.749484e+2, 1.8577948e+2, -1264053.6, -1210074.4, -45251.902, -0.025968125, -0.26070675, -1184374.5, -65039.863, 0.0, 9.999132, 9.9998455 
3.7496427e+2, 1.9577922e+2, -1131441.0, -1093542.8, -46340.1, -0.02230275, -0.27215976, -1062427.1, -41087.49, 0.0, 9.999362, 9.999862 
3.7498012e+2, 2.0577928e+2, -1017395.75, -1009564.0, -47625.465, -0.013334222, -0.2413332, -965693.7, -42352.54, 0.0, 9.999565, 9.999667 
3.7499598e+2, 2.1577956e+2, -893789.1, -901177.0, -43636.1, -0.002136995, -0.18186066, -853690.9, -28350.768, 0.0, 9.999749, 9.99965 
3.7501162e+2, 2.2577903e+2, -798228.25, -872928.1, -42002.875, -0.00842875, -0.16539827, -779370.9, -52024.07, 0.0, 10.000029, 9.999037 
3.7502715e+2, 2.357779e+2, -648349.5, -748022.8, -41943.688, -0.026794158, -0.18299676, -633048.1, -3688.8372, 0.0, 10.000377, 9.999054 
3.7504277e+2, 2.4577679e+2, -527892.8, -664256.5, -48416.727, -0.031022344, -0.18577574, -512450.8, 18919.77, 0.0, 10.000639, 9.99883 
3.7505835e+2, 2.557757e+2, -400348.13, -551874.94, -47341.36, -0.025227597, -0.1792655, -386773.4, 46607.574, 0.0, 10.000841, 9.998831 
3.7507397e+2, 2.6577434e+2, -279176.13, -491091.63, -37743.73, -0.035684634, -0.17185211, -272654.4, 62740.05, 0.0, 10.001209, 9.998399 
3.750896e+2, 2.7577284e+2, -109625.76, -358765.2, -38881.563, -0.05786341, -0.16702162, -103698.766, 133711.58, 0.0, 10.001701, 9.998397 
3.7510583e+2, 2.857711e+2, 12995.828, -305584.84, -23395.67, -0.04727745, -0.15167592, 14704.773, 154133.02, 0.0, 10.002114, 9.99789 
3.7512243e+2, 2.957692e+2, 159245.92, -189929.36, -17100.287, -0.013828382, -0.1276673, 160081.38, 201528.83, 0.0, 10.00247, 9.997841 
3.7513816e+2, 3.057663e+2, 213248.02, -227457.7, 4967.4907, -0.10332939, -0.15757819, 213304.0, 213304.0, 0.0, 10.002887, 9.997047 
3.7515542e+2, 3.1576377e+2, 423059.78, 100721.414, 11216.727, -0.056473956, -0.12464252, 423449.63, 423449.63, 0.0, 10.003351, 9.999079 
3.8484716e+2, 1.257583e+2, -1994821.3, -1732104.9, -10995.869, 0.011849779, -0.28881952, -1731645.5, -24108.613, 0.000004652705, 9.997574, 10.001051 
3.8486502e+2, 1.3575886e+2, -1847306.9, -1627785.8, 2795.6777, 0.059637807, -0.32215884, -1627750.1, -18218.3, 0.0000010439659, 9.997987, 10.0008955 
3.8488153e+2, 1.4575952e+2, -1712618.0, -1522654.6, -16492.06, -0.0077310707, -0.33897203, -1521233.5, -9707.97, 0.000000039313953, 9.998285, 10.000798 
3.8489872e+2, 1.5576039e+2, -1584061.4, -1409798.4, -19172.744, 0.01960212, -0.3331069, -1407713.9, 5803.045, 0.0, 9.998494, 10.0008 
3.8491532e+2, 1.6576123e+2, -1489690.8, -1360174.4, -38012.6, 0.020752853, -0.30563033, -1349842.1, -34332.145, 0.0, 9.998671, 10.000383 
3.8493142e+2, 1.7576203e+2, -1369606.5, -1252177.5, -45041.55, -0.011553125, -0.26514387, -1236891.1, -19386.604, 0.0, 9.998825, 10.000377 
3.849475e+2, 1.8576226e+2, -1275479.5, -1211346.9, -58687.023, -0.023067443, -0.25246602, -1176537.0, -57032.42, 0.0, 9.999036, 9.999883 
3.849637e+2, 1.9576205e+2, -1139126.8, -1092945.3, -55173.68, -0.01394303, -0.26203012, -1056225.3, -34716.426, 0.0, 9.999291, 9.9999 
3.8497972e+2, 2.0576213e+2, -1015928.06, -1004744.1, -57811.69, -0.007969848, -0.23208219, -952254.56, -28744.701, 0.0, 9.999558, 9.999704 
3.849957e+2, 2.1576242e+2, -879388.4, -890781.5, -58764.082, -0.0062362645, -0.1752716, -826045.44, -536.7451, 0.0, 9.999834, 9.9996805 
3.8501158e+2, 2.2576188e+2, -796162.75, -876433.56, -60237.188, -0.015875526, -0.15919758, -763914.6, -36399.11, 0.0, 10.000062, 9.998997 
3.850274e+2, 2.3576072e+2, -668675.44, -762056.3, -64126.613, -0.033005755, -0.1758332, -636042.4, -6513.8486, 0.0, 10.000256, 9.999016 
3.850433e+2, 2.4575959e+2, -540268.56, -672340.8, -72366.82, -0.03533103, -0.17766915, -508336.72, 23203.332, 0.0, 10.000563, 9.998811 
3.850592e+2, 2.557585e+2, -384875.44, -546806.3, -72753.41, -0.027119553, -0.17021006, -356990.25, 76560.33, 0.0, 10.0009575, 9.99881 
3.8507518e+2, 2.6575714e+2, -273298.56, -493433.3, -60241.633, -0.036899067, -0.16113085, -257891.31, 77673.07, 0.0, 10.001272, 9.998352 
3.850912e+2, 2.7575555e+2, -137222.36, -376071.7, -59961.844, -0.059665855, -0.15418223, -123014.42, 114566.41, 0.0, 10.001529, 9.998361 
3.8510782e+2, 2.8575388e+2, -8259.886, -306305.2, -43135.164, -0.04947907, -0.13673243, -2142.622, 137455.44, 0.0, 10.001927, 9.997975 
3.8512486e+2, 2.9575214e+2, 159788.47, -180267.14, -39143.945, -0.016360223, -0.11072233, 164236.17, 205851.88, 0.0, 10.002434, 9.997925 
3.85141e+2, 3.0574903e+2, 214607.0, -221984.36, -19867.549, -0.104240306, -0.16460867, 215509.23, 215509.23, 0.0, 10.002876, 9.99709 
3.8515872e+2, 3.1574667e+2, 411723.75, 95719.0, -17471.307, -0.055152114, -0.11523887, 412686.78, 412686.78, 0.000000000002787424, 10.003272, 9.999082 
3.9484522e+2, 1.2574102e+2, -2003187.5, -1748699.6, 3290.969, 0.058615766, -0.2957493, -1748657.1, -40950.547, 0.000005817951, 9.99757, 10.000938 
3.948629e+2, 1.3574146e+2, -1855115.1, -1644550.1, 17925.77, 0.048066866, -0.3272207, -1643035.0, -33331.586, 0.0000013925978, 9.997989, 10.00078 
3.9487955e+2, 1.4574222e+2, -1709963.5, -1518027.8, -8678.873, -0.032991298, -0.3305411, -1517636.1, -5939.891, 0.00000005997622, 9.998288, 10.00083 
3.948973e+2, 1.5574329e+2, -1582521.0, -1407078.0, -11505.883, 0.030689768, -0.3083849, -1406326.6, 7358.905, 0.0, 9.998496, 10.000818 
3.9491418e+2, 1.6574399e+2, -1501141.3, -1384156.6, -32290.105, 0.04156878, -0.28666317, -1375835.8, -60155.652, 0.0, 9.998671, 10.000218 
3.9493033e+2, 1.757444e+2, -1379672.9, -1273150.6, -38951.11, -0.0012831916, -0.267979, -1260427.4, -42748.63, 0.0, 9.998824, 10.000234 
3.9494666e+2, 1.8574467e+2, -1268551.5, -1197068.9, -49063.676, -0.011481327, -0.24909404, -1172108.6, -52430.313, 0.0, 9.999036, 9.999981 
3.9496318e+2, 1.9574483e+2, -1132662.5, -1079725.6, -45405.168, 0.008086745, -0.2321342, -1053637.4, -31958.738, 0.0, 9.999291, 9.999991 
3.9497942e+2, 2.0574488e+2, -1018168.6, -1009557.06, -47391.887, 0.007964567, -0.20856093, -966275.75, -42595.996, 0.0, 9.999558, 9.999671 
3.9499548e+2, 2.1574482e+2, -881928.4, -896125.2, -48553.242, -0.008946926, -0.18226327, -839957.4, -14275.9375, 0.0, 9.999834, 9.999644 
3.9501157e+2, 2.2574422e+2, -802739.3, -890196.56, -52966.656, -0.024475817, -0.16603103, -777782.7, -50093.496, 0.0, 10.000062, 9.998902 
3.950276e+2, 2.357432e+2, -674919.6, -775281.3, -56293.82, -0.038126122, -0.15963665, -649687.5, -19986.05, 0.0, 10.000256, 9.998925 
3.950438e+2, 2.4574208e+2, -543203.4, -678603.25, -57555.613, -0.04179505, -0.15414992, -522044.28, 9669.011, 0.0, 10.000564, 9.998768 
3.9506003e+2, 2.5574088e+2, -387714.66, -552681.5, -58445.2, -0.038484387, -0.15153882, -369107.25, 64617.496, 0.0, 10.0009575, 9.99877 
3.950764e+2, 2.6573944e+2, -275157.78, -497539.2, -50789.82, -0.041455857, -0.14674743, -264107.0, 71632.15, 0.0, 10.001272, 9.998323 
3.9509284e+2, 2.7573782e+2, -138606.33, -379633.13, -49856.47, -0.048110485, -0.14339693, -128700.6, 109055.34, 0.0, 10.001532, 9.998336 
3.9510983e+2, 2.8573617e+2, -4196.8354, -298240.4, -24348.016, -0.039535668, -0.124353744, -2194.357, 137578.19, 0.0, 10.001928, 9.998031 
3.951272e+2, 2.9573452e+2, 163435.05, -172280.14, -20859.088, -0.02215128, -0.092942454, 164726.13, 206514.94, 0.0, 10.002432, 9.99798 
3.951438e+2, 3.057312e+2, 213776.45, -223307.73, -5479.153, -0.10936788, -0.1720213, 213845.13, 213845.13, 0.0, 10.002874, 9.997082 
3.9516208e+2, 3.1572887e+2, 406649.0, 85084.81, -2906.366, -0.04762338, -0.115786396, 406675.25, 406675.25, 0.000000001718879, 10.003272, 9.999008 
4.0484312e+2, 1.2572332e+2, -1969292.0, -1734789.8, -15768.131, 0.08105276, -0.30548906, -1733734.3, -25853.752, 0.0000067594556, 9.997813, 10.0009165 
4.048609e+2, 1.357239e+2, -1860292.8, -1651346.9, 7178.2637, 0.0539578, -0.31822428, -1651100.6, -41224.336, 0.0000016759602, 9.997972, 10.000742 
4.0487772e+2, 1.4572473e+2, -1723709.0, -1529453.0, -20957.463, -0.0400721, -0.31120482, -1527217.6, -15348.794, 0.00000007424828, 9.998215, 10.000787 
4.0489578e+2, 1.5572572e+2, -1582352.1, -1411419.1, -29838.877, 0.030692304, -0.29074764, -1406360.0, 7498.963, 0.0, 9.998516, 10.000778 
4.0491292e+2, 1.6572635e+2, -1484690.6, -1377693.4, -48352.24, 0.04413936, -0.27476022, -1359080.8, -43226.42, 0.0, 9.998791, 10.000205 
4.0492925e+2, 1.7572667e+2, -1347731.6, -1258882.1, -43521.027, -0.00039435702, -0.2644396, -1241116.5, -23262.998, 0.0, 9.999049, 10.000223 
4.049458e+2, 1.8572697e+2, -1231051.3, -1177258.8, -51197.008, -0.010218487, -0.24241082, -1146323.0, -26470.408, 0.0, 9.999287, 9.999996 
4.049626e+2, 1.9572726e+2, -1100563.5, -1063154.0, -54046.906, 0.011688086, -0.21387535, -1024666.6, -2815.0662, 0.0, 9.999507, 10.0 
4.0497905e+2, 2.0572723e+2, -1004085.3, -1009922.75, -61244.766, 0.010040584, -0.19428623, -945689.75, -21836.506, 0.0, 9.999686, 9.999607 
4.049953e+2, 2.1572696e+2, -886297.25, -904829.1, -64810.496, -0.011419933, -0.183662, -830093.7, -4236.512, 0.0, 9.999833, 9.999585 
4.0501156e+2, 2.2572634e+2, -805177.1, -893397.9, -66048.09, -0.02777966, -0.16593204, -769864.1, -41998.957, 0.0, 10.000054, 9.998883 
4.0502787e+2, 2.3572543e+2, -665395.1, -773635.3, -63579.605, -0.039586455, -0.14497897, -636020.6, -6144.383, 0.0, 10.000335, 9.9988985 
4.0504438e+2, 2.4572429e+2, -538861.2, -690990.0, -61222.31, -0.043565266, -0.13383122, -517283.53, 14605.079, 0.0, 10.000656, 9.998638 
4.0506098e+2, 2.5572297e+2, -388120.7, -565961.75, -68789.61, -0.042037245, -0.13250576, -364618.5, 69283.54, 0.0, 10.001011, 9.998652 
4.050777e+2, 2.657214e+2, -258515.53, -486937.2, -63688.906, -0.041851502, -0.13514768, -241957.9, 93959.484, 0.0, 10.001376, 9.998346 
4.050945e+2, 2.7571967e+2, -105470.15, -361762.8, -58889.543, -0.041635964, -0.14384982, -92586.484, 145347.89, 0.0, 10.001751, 9.998353 
4.0511188e+2, 2.8571802e+2, 12964.653, -296625.78, -33572.01, -0.033556852, -0.12278171, 16563.373, 156514.13, 0.0, 10.002075, 9.997971 
4.0512958e+2, 2.9571643e+2, 149723.33, -184328.48, -38299.426, -0.02230743, -0.07858925, 154058.14, 196024.64, 0.0, 10.00236, 9.9979315 
4.0514663e+2, 3.057129e+2, 199607.33, -226289.03, -22804.25, -0.10688611, -0.17885709, 200824.88, 200824.88, 0.0, 10.00276, 9.997116 
4.0516543e+2, 3.1571066e+2, 399377.38, 75246.14, -17684.225, -0.035254937, -0.119273596, 400339.34, 400339.34, 0.00000001196501, 10.003249, 9.998952 
4.1484088e+2, 1.257052e+2, -1963638.6, -1723890.0, -12238.872, 0.0769739, -0.31837448, -1723266.8, -15207.989, 0.0000073152505, 9.997817, 10.00099 
4.148591e+2, 1.3570622e+2, -1857410.0, -1645220.1, 13215.947, 0.07798074, -0.29446727, -1644400.1, -34349.668, 0.0000018222407, 9.997971, 10.000785 
4.1487604e+2, 1.4570706e+2, -1732617.5, -1547405.3, -9559.813, -0.028050225, -0.2803548, -1546913.1, -34869.895, 0.00000007352536, 9.998212, 10.000665 
4.1489416e+2, 1.5570773e+2, -1589535.3, -1426324.5, -18667.488, 0.019132799, -0.28031066, -1424216.6, -10179.302, 0.0, 9.998516, 10.000676 
4.1491154e+2, 1.6570833e+2, -1474667.8, -1357298.9, -38769.14, 0.027686989, -0.27011052, -1345649.0, -29616.404, 0.0, 9.998792, 10.000344 
4.1492823e+2, 1.7570883e+2, -1338661.3, -1240495.4, -33785.402, -0.009371746, -0.25440583, -1229991.5, -11962.405, 0.0, 9.99905, 10.000349 
4.14945e+2, 1.8570916e+2, -1235891.6, -1187631.5, -42847.973, -0.019699074, -0.23228046, -1162586.3, -42558.824, 0.0, 9.999288, 9.999925 
4.1496193e+2, 1.9570935e+2, -1105694.9, -1074064.3, -45814.84, -0.003598127, -0.20743561, -1041411.75, -19384.195, 0.0, 9.999508, 9.999926 
4.149786e+2, 2.0570922e+2, -1010814.0, -1024153.5, -55768.89, -0.0020833919, -0.18942696, -961317.44, -37286.953, 0.0, 9.999687, 9.999509 
4.1499507e+2, 2.1570884e+2, -892073.7, -917090.44, -58895.76, -0.013825273, -0.17944498, -844372.7, -18336.908, 0.0, 9.999833, 9.999501 
4.150116e+2, 2.2570823e+2, -801289.75, -885478.75, -55493.1, -0.025986426, -0.15887463, -773732.0, -45688.652, 0.0, 10.000055, 9.998939 
4.1502818e+2, 2.3570745e+2, -662944.94, -768685.06, -52879.785, -0.037670523, -0.13197476, -641038.56, -10985.738, 0.0, 10.000335, 9.998932 
4.1504505e+2, 2.4570623e+2, -553869.5, -722307.06, -47939.844, -0.04099141, -0.116706245, -541180.94, -9114.847, 0.0, 10.000656, 9.998423 
4.15062e+2, 2.557047e+2, -401641.7, -594300.2, -55446.242, -0.038187455, -0.11284368, -386824.13, 47258.227, 0.0, 10.001012, 9.998458 
4.150791e+2, 2.65703e+2, -253351.08, -476454.94, -49688.883, -0.03838947, -0.12597877, -242784.97, 93314.03, 0.0, 10.001376, 9.998419 
4.1509625e+2, 2.7570114e+2, -101488.47, -353614.53, -45274.125, -0.04025672, -0.15537095, -93605.12, 144510.97, 0.0, 10.001751, 9.998408 
4.1511396e+2, 2.8569946e+2, 1257.8805, -321115.0, -23131.53, -0.031756338, -0.13172221, 2909.2004, 143041.83, 0.0, 10.002076, 9.997803 
4.1513196e+2, 2.956979e+2, 139431.84, -206071.19, -27334.453, -0.01749052, -0.0670286, 141581.03, 183729.58, 0.0, 10.002361, 9.997782 
4.1514948e+2, 3.056942e+2, 204555.39, -215842.78, -4441.531, -0.09747624, -0.18467268, 204602.31, 204602.31, 0.0, 10.002759, 9.997189 
4.1516882e+2, 3.1569195e+2, 395600.5, 68782.69, 82.9022, -0.019910734, -0.12911755, 395600.53, 395600.53, 0.000000036873733, 10.003243, 9.998911 
4.2483848e+2, 1.25687e+2, -1975864.6, -1721951.0, -26106.168, 0.06203031, -0.3100327, -1719294.6, -11056.14, 0.000007399852, 9.997701, 10.00106 
4.248573e+2, 1.356881e+2, -1833698.3, -1628957.3, 869.22766, 0.094748214, -0.2830805, -1628953.6, -18724.654, 0.0000017914846, 9.998114, 10.000828 
4.2487442e+2, 1.4568898e+2, -1712833.1, -1545853.3, -21898.896, -0.017949333, -0.26369363, -1543029.0, -30807.498, 0.000000055205398, 9.998383, 10.000592 
4.248926e+2, 1.5568961e+2, -1591234.6, -1434248.4, -27379.332, 0.01115928, -0.26097953, -1429610.3, -15393.557, 0.0, 9.998535, 10.000612 
4.2491022e+2, 1.6569015e+2, -1480137.0, -1356950.8, -49846.277, 0.020000182, -0.2520139, -1339307.8, -23095.451, 0.0, 9.998742, 10.000371 
4.2492726e+2, 1.7569067e+2, -1345073.9, -1240887.5, -53656.61, -0.0038417878, -0.24054804, -1218196.1, 12.247504, 0.0, 9.998995, 10.000373 
4.2494428e+2, 1.8569094e+2, -1244541.5, -1193763.5, -65328.715, -0.015996218, -0.22364597, -1149063.8, -28856.832, 0.0, 9.999237, 9.999907 
4.249613e+2, 1.9569103e+2, -1112980.5, -1080084.8, -64353.094, -0.012916086, -0.20463248, -1030110.8, -7903.3716, 0.0, 9.99947, 9.999902 
4.249782e+2, 2.0569086e+2, -1010410.25, -1032989.56, -72310.86, -0.0115999235, -0.18571775, -948513.06, -24302.08, 0.0, 9.999729, 9.999428 
4.24995e+2, 2.1569046e+2, -871525.25, -915181.7, -74332.98, -0.013784975, -0.169977, -815881.8, 10335.108, 0.0, 10.00001, 9.999429 
4.250118e+2, 2.256898e+2, -767648.0, -866734.94, -69969.336, -0.022370148, -0.15094127, -731457.8, -3233.0757, 0.0, 10.000276, 9.9989605 
4.2502865e+2, 2.3568898e+2, -633429.06, -752871.7, -69671.47, -0.034931473, -0.13103165, -601385.75, 28848.232, 0.0, 10.000531, 9.998946 
4.250458e+2, 2.4568772e+2, -539645.6, -727987.2, -59233.934, -0.037110843, -0.11402007, -522565.38, 9682.283, 0.0, 10.000808, 9.99831 
4.250631e+2, 2.556862e+2, -395966.4, -603831.5, -59258.79, -0.03173974, -0.101863876, -380259.6, 54005.145, 0.0, 10.001104, 9.998347 
4.2508054e+2, 2.656844e+2, -248266.34, -482879.38, -54460.36, -0.035986047, -0.11428184, -236240.92, 100041.54, 0.0, 10.00145, 9.998339 
4.2509797e+2, 2.7568236e+2, -94249.03, -358178.38, -61442.94, -0.04695954, -0.14889647, -80646.16, 157654.73, 0.0, 10.001836, 9.998337 
4.25116e+2, 2.8568065e+2, 13182.16, -315142.0, -40459.207, -0.036024034, -0.12445453, 18094.432, 158411.95, 0.0, 10.002157, 9.997805 
4.2513442e+2, 2.9567918e+2, 149716.64, -200144.66, -32199.828, -0.010289278, -0.05420487, 152655.5, 194988.08, 0.0, 10.002428, 9.99779 
4.2515227e+2, 3.0567542e+2, 199509.66, -211114.63, -845.32526, -0.08844282, -0.18043064, 199511.39, 199511.39, 0.0, 10.002694, 9.997252 
4.2517194e+2, 3.156734e+2, 348690.4, 38816.46, 2349.8015, -0.01637896, -0.1078024, 348708.22, 348708.22, 0.00000007454206, 10.002953, 9.998844 
4.3483588e+2, 1.2566872e+2, -1972153.6, -1713482.9, -12648.553, 0.034674358, -0.27893043, -1712865.9, -4446.415, 0.0000070344795, 9.997697, 10.00112 
4.348555e+2, 1.3566954e+2, -1830574.3, -1623140.4, 15983.064, 0.103553005, -0.28457713, -1621916.1, -11504.525, 0.0000016069694, 9.998116, 10.000867 
4.3487287e+2, 1.4567046e+2, -1714146.1, -1549130.9, -16265.714, -0.010022164, -0.26203477, -1547542.9, -35139.06, 0.000000030249723, 9.998385, 10.000569 
4.3489107e+2, 1.5567133e+2, -1593092.3, -1438045.4, -21530.219, 0.006720732, -0.23259483, -1435111.1, -20714.037, 0.0, 9.998535, 10.0005865 
4.3490893e+2, 1.6567186e+2, -1486860.1, -1370648.3, -40339.36, 0.02107977, -0.2200986, -1358018.3, -41625.04, 0.0, 9.99874, 10.0002775 
4.3492645e+2, 1.7567211e+2, -1351047.3, -1253244.4, -44104.52, 0.01631197, -0.2227529, -1236293.3, -17901.719, 0.0, 9.998995, 10.000288 
4.3494368e+2, 1.8567227e+2, -1242184.6, -1188918.6, -56676.566, 0.0010392705, -0.21645048, -1152929.4, -32538.436, 0.0, 9.999237, 9.99994 
4.3496072e+2, 1.9567233e+2, -1110999.0, -1076019.8, -55466.547, -0.016237378, -0.2054307, -1035350.75, -12959.514, 0.0, 9.99947, 9.99993 
4.3497783e+2, 2.0567216e+2, -1015096.2, -1042795.25, -61706.484, -0.018656641, -0.18327384, -965704.1, -41309.457, 0.0, 9.999729, 9.999361 
4.3499503e+2, 2.1567181e+2, -875931.9, -924426.94, -63784.492, -0.011575368, -0.15531872, -831941.56, -5540.926, 0.0, 10.00001, 9.999366 
4.350121e+2, 2.2567107e+2, -768402.5, -868401.1, -60392.082, -0.017167429, -0.14196682, -739998.1, -11588.984, 0.0, 10.000276, 9.998949 
4.350292e+2, 2.3567003e+2, -633993.94, -754270.2, -59994.777, -0.031514924, -0.14183177, -609185.25, 21234.527, 0.0, 10.000531, 9.998937 
4.3504664e+2, 2.4566878e+2, -540371.25, -729851.06, -48193.82, -0.03215602, -0.12554592, -528817.7, 3615.5925, 0.0, 10.00081, 9.998298 
4.350643e+2, 2.5566733e+2, -397751.63, -607863.6, -48032.56, -0.023094468, -0.09944469, -387291.88, 47157.313, 0.0, 10.001105, 9.99832 
4.3508196e+2, 2.6566553e+2, -264040.06, -515841.84, -40012.75, -0.03485815, -0.10015973, -257834.73, 78633.06, 0.0, 10.001451, 9.998113 
4.3509963e+2, 2.756634e+2, -108234.62, -387245.8, -47291.484, -0.06167062, -0.124882035, -100436.8, 138051.92, 0.0, 10.001835, 9.998137 
4.3511805e+2, 2.8566167e+2, 24617.293, -291254.66, -30270.105, -0.046410527, -0.10135411, 27491.926, 167997.31, 0.0, 10.002156, 9.99797 
4.3513694e+2, 2.956603e+2, 160523.61, -177241.05, -22252.105, -0.0010693994, -0.040045414, 161983.28, 204501.89, 0.0, 10.002426, 9.99795 
4.3515503e+2, 3.0565658e+2, 202914.92, -203356.33, 8705.461, -0.07986583, -0.166825, 203101.38, 203101.38, 0.0, 10.002691, 9.997308 
4.3517476e+2, 3.1565496e+2, 341944.25, 25664.4, 11363.349, -0.02513453, -0.06067136, 342352.0, 342352.0, 0.0000001100893, 10.002949, 9.998756 
4.448335e+2, 1.2565005e+2, -1944350.9, -1692567.3, -27527.973, 0.019831844, -0.25553495, -1689592.8, 19011.02, 0.00000631539, 9.997856, 10.001185 
4.4485357e+2, 1.3565071e+2, -1840730.4, -1623071.3, 3828.4521, 0.10622092, -0.28125364, -1623003.9, -12407.309, 0.0000013346397, 9.998025, 10.000911 
4.4487122e+2, 1.4565161e+2, -1734907.8, -1564097.0, -31953.313, -0.0072549446, -0.26057708, -1558315.3, -45726.36, 0.000000013876045, 9.998264, 10.0005245 
4.4488966e+2, 1.5565252e+2, -1593337.0, -1442971.5, -39177.277, 0.013628451, -0.22233292, -1433376.3, -18794.04, 0.0, 9.998555, 10.000544 
4.4490778e+2, 1.6565306e+2, -1480654.3, -1371706.0, -55971.008, 0.029159628, -0.20580281, -1348076.5, -31497.955, 0.0, 9.998801, 10.000241 
4.4492552e+2, 1.756533e+2, -1350587.6, -1256798.3, -55392.36, 0.022709908, -0.20794855, -1231115.9, -12538.729, 0.0, 9.999015, 10.000254 
4.4494295e+2, 1.8565336e+2, -1238034.4, -1186874.6, -66901.016, 0.0055031977, -0.20744361, -1140830.0, -20252.918, 0.0, 9.999266, 9.99994 
4.4496024e+2, 1.956533e+2, -1100006.5, -1070885.3, -68416.44, -0.013740152, -0.20734113, -1015497.1, 7080.851, 0.0, 9.999546, 9.999928 
4.4497764e+2, 2.0565312e+2, -1009427.25, -1045383.4, -75302.22, -0.01704557, -0.18385725, -949986.75, -25405.14, 0.0, 9.999792, 9.999312 
4.4499502e+2, 2.1565285e+2, -879135.3, -930971.3, -75908.41, -0.0100419065, -0.14456645, -824842.2, 1745.12, 0.0, 10.0000105, 9.99932 
4.4501242e+2, 2.2565207e+2, -762755.6, -866499.06, -69498.37, -0.015789064, -0.13200362, -727905.4, 690.6862, 0.0, 10.000319, 9.998941 
4.4502982e+2, 2.3565091e+2, -610622.1, -743799.1, -69121.51, -0.030481616, -0.14256312, -581232.44, 49374.85, 0.0, 10.000696, 9.998929 
4.4504753e+2, 2.4564958e+2, -513734.0, -719957.56, -59170.7, -0.03300453, -0.13119093, -497962.6, 34658.69, 0.0, 10.001005, 9.998271 
4.4506544e+2, 2.5564814e+2, -376989.7, -601275.75, -60003.527, -0.026929092, -0.10527135, -361945.94, 72691.48, 0.0, 10.001263, 9.998289 
4.450834e+2, 2.6564634e+2, -260828.16, -525803.44, -45502.2, -0.038749877, -0.09822921, -253232.16, 83424.13, 0.0, 10.001522, 9.99801 
4.451014e+2, 2.756442e+2, -122376.11, -404660.06, -44117.06, -0.06313801, -0.10930395, -115641.88, 123035.64, 0.0, 10.001784, 9.998042 
4.4512016e+2, 2.8564245e+2, 9330.253, -295427.7, -30901.754, -0.043873172, -0.087963805, 12432.05, 153126.7, 0.0, 10.002037, 9.997998 
4.4513935e+2, 2.9564092e+2, 142189.13, -182263.03, -33006.074, 0.006456843, -0.04065167, 145512.75, 188221.11, 0.0, 10.002284, 9.997983 
4.4515768e+2, 3.0563727e+2, 186684.38, -200251.8, -4661.8, -0.07368622, -0.17084646, 186740.53, 186740.53, 0.00000000000009396187, 10.002533, 9.997405 
4.451776e+2, 3.15636e+2, 313228.2, 5910.6753, 241.182, -0.027022462, -0.038013346, 313228.38, 313228.38, 0.00000013361628, 10.002778, 9.998703 
4.548313e+2, 1.2563097e+2, -1939172.4, -1682186.4, -24383.963, 0.017754676, -0.2410528, -1679893.3, 28898.393, 0.0000053674253, 9.997857, 10.001257 
4.5485154e+2, 1.3563164e+2, -1837677.8, -1616333.0, 10324.123, 0.102162726, -0.2731432, -1615852.5, -5068.57, 0.0000010357217, 9.998022, 10.000958 
4.5486942e+2, 1.4563245e+2, -1740279.3, -1574697.9, -20869.738, -0.010530635, -0.25950068, -1572108.0, -59331.164, 0.000000007555667, 9.998262, 10.000453 
4.548884e+2, 1.556332e+2, -1597893.6, -1452624.4, -28333.09, 0.03176776, -0.23103562, -1447294.0, -32521.832, 0.0, 9.998555, 10.000477 
4.549067e+2, 1.6563374e+2, -1479096.3, -1368780.8, -48076.42, 0.044312965, -0.20984022, -1350769.4, -34001.125, 0.0, 9.998802, 10.00026 
4.5492443e+2, 1.7563416e+2, -1349526.5, -1254595.1, -47171.23, 0.014962573, -0.1963074, -1235142.0, -16376.89, 0.0, 9.999015, 10.000269 
4.549421e+2, 1.856342e+2, -1240756.9, -1192463.4, -56313.79, -0.003179166, -0.19671483, -1155337.8, -34572.582, 0.0, 9.999266, 9.999902 
4.5495987e+2, 1.9563398e+2, -1102525.5, -1076209.6, -57951.4, -0.0057174987, -0.21047781, -1029941.2, -7173.403, 0.0, 9.999546, 9.999891 
4.549775e+2, 2.0563376e+2, -1011469.56, -1049809.6, -67182.99, -0.0068424135, -0.187445, -960775.1, -36003.375, 0.0, 9.999792, 9.999282 
4.5499504e+2, 2.1563354e+2, -881160.8, -935294.75, -67332.22, -0.009268226, -0.13769893, -835658.9, -8881.956, 0.0, 10.0000105, 9.99929 
4.550127e+2, 2.256328e+2, -763304.0, -867677.8, -55296.473, -0.018365532, -0.1211575, -739456.9, -10671.448, 0.0, 10.000319, 9.998934 
4.550305e+2, 2.356316e+2, -611243.2, -745062.06, -55267.902, -0.032019723, -0.1333178, -591368.94, 39427.777, 0.0, 10.000695, 9.99892 
4.5504844e+2, 2.4563017e+2, -516583.47, -725938.06, -49578.105, -0.039677277, -0.13083223, -505436.22, 27375.389, 0.0, 10.001005, 9.99823 
4.550665e+2, 2.5562853e+2, -379461.7, -606569.2, -50410.938, -0.043115333, -0.11902328, -368774.88, 66054.5, 0.0, 10.001263, 9.998253 
4.550848e+2, 2.6562676e+2, -259658.23, -523653.97, -35705.844, -0.047803488, -0.108139485, -254914.2, 81933.73, 0.0, 10.001523, 9.998024 
4.551033e+2, 2.7562484e+2, -121881.92, -403835.0, -34388.043, -0.05217605, -0.10172741, -117748.42, 121118.96, 0.0, 10.001784, 9.998048 
4.5512232e+2, 2.8562298e+2, 2262.6191, -310299.4, -21692.422, -0.029159475, -0.08368437, 3760.9333, 144646.23, 0.0, 10.002038, 9.997896 
4.5514166e+2, 2.956212e+2, 136361.3, -194662.88, -23839.098, 0.01214536, -0.055179007, 138069.28, 180971.05, 0.0, 10.002285, 9.997898 
4.5516023e+2, 3.0561748e+2, 195874.6, -180843.22, 4726.4204, -0.07006875, -0.19136278, 195933.88, 195933.88, 0.00000000000087855477, 10.002531, 9.9975395 
4.5518038e+2, 3.1561655e+2, 310290.2, 1790.7012, 8955.14, -0.023225868, -0.04043877, 310549.94, 310549.94, 0.00000014519496, 10.0027685, 9.998679 
4.64829e+2, 1.256114e+2, -1966317.6, -1693514.1, -44271.508, 0.01336644, -0.24254301, -1686509.5, 22474.371, 0.000004304928, 9.997664, 10.001271 
4.6484956e+2, 1.3561212e+2, -1832124.6, -1613689.1, -10797.066, 0.10083441, -0.26632765, -1613156.8, -2181.2803, 0.0000007438799, 9.998061, 10.000958 
4.648677e+2, 1.4561291e+2, -1727786.9, -1568904.1, -42303.582, -0.011641854, -0.25395456, -1558342.6, -45374.066, 0.0000000034677494, 9.998349, 10.000451 
4.6488705e+2, 1.5561354e+2, -1600011.1, -1453748.6, -44797.027, 0.045278296, -0.2367215, -1441118.8, -26154.041, 0.0, 9.998542, 10.000476 
4.6490562e+2, 1.656141e+2, -1480031.4, -1365621.4, -61815.344, 0.056454226, -0.21663567, -1338603.3, -21642.436, 0.0, 9.998781, 10.000292 
4.6492344e+2, 1.7561461e+2, -1341067.0, -1247507.5, -60121.008, 0.012624635, -0.19639994, -1218110.6, 846.10364, 0.0, 9.999061, 10.000296 
4.6494135e+2, 1.856147e+2, -1239867.1, -1196493.6, -69361.25, -0.0063016117, -0.19206534, -1145507.9, -24551.361, 0.0, 9.999291, 9.999862 
4.6495944e+2, 1.9561446e+2, -1114638.9, -1086297.4, -71034.04, 0.0014751897, -0.20237985, -1028034.44, -5074.9604, 0.0, 9.999482, 9.999853 
4.6497732e+2, 2.056142e+2, -1016159.2, -1054067.4, -78171.4, 0.00068147684, -0.18034649, -954676.8, -29712.9, 0.0, 9.999769, 9.999264 
4.649951e+2, 2.1561392e+2, -864675.5, -929301.06, -77589.21, -0.009501913, -0.13526149, -812939.5, 14030.148, 0.0, 10.000133, 9.999272 
4.6501303e+2, 2.2561316e+2, -749777.4, -860754.6, -64531.06, -0.020311013, -0.11976241, -720158.75, 8819.549, 0.0, 10.00041, 9.998937 
4.6503112e+2, 2.35612e+2, -621962.75, -749641.06, -63814.445, -0.030859025, -0.12991674, -595537.2, 35452.113, 0.0, 10.00062, 9.998925 
4.6504942e+2, 2.4561058e+2, -528586.06, -730967.0, -55080.535, -0.03726809, -0.12584114, -514566.38, 18437.518, 0.0, 10.000919, 9.998237 
4.6506777e+2, 2.5560898e+2, -375068.5, -603949.6, -52807.105, -0.040676262, -0.11266565, -363472.4, 71549.016, 0.0, 10.001291, 9.998257 
4.650864e+2, 2.6560715e+2, -252778.88, -521109.66, -40298.23, -0.04374813, -0.10573068, -246857.5, 90182.77, 0.0, 10.001574, 9.998017 
4.6510515e+2, 2.7560514e+2, -122330.53, -405109.84, -40733.62, -0.04563124, -0.10783061, -116579.91, 122480.53, 0.0, 10.001786, 9.998038 
4.6512437e+2, 2.8560326e+2, 72.85185, -316909.88, -25244.06, -0.0258121, -0.0905399, 2070.6624, 143149.31, 0.0, 10.002047, 9.997846 
4.6514392e+2, 2.9560143e+2, 141900.55, -196441.9, -24152.309, 0.008268107, -0.055832405, 143615.94, 186710.9, 0.0, 10.002342, 9.997858 
4.651627e+2, 3.0559775e+2, 189951.23, -171448.1, -1567.529, -0.07046853, -0.19804825, 189958.03, 189958.03, 0.00000000000042122027, 10.002438, 9.997649 
4.6518302e+2, 3.1559676e+2, 248120.2, -33749.77, 16.139868, -0.014733675, -0.05916977, 248120.2, 248120.2, 0.00000014428599, 10.002365, 9.998629 
4.7482657e+2, 1.2559123e+2, -1970742.1, -1701220.0, -32996.324, 0.0050997254, -0.26213324, -1697239.1, 11941.569, 0.0000032345054, 9.997658, 10.001222 
4.7484758e+2, 1.3559216e+2, -1835916.3, -1621905.1, 3783.4385, 0.101863585, -0.26102325, -1621838.3, -10666.824, 0.00000048107097, 9.998061, 10.000902 
4.7486606e+2, 1.4559302e+2, -1722722.5, -1558844.1, -35312.99, -0.010907796, -0.24360293, -1551558.8, -38394.758, 0.000000000765976, 9.998351, 10.00052 
4.7488567e+2, 1.5559359e+2, -1595406.4, -1444240.9, -37567.324, 0.05365053, -0.23918049, -1435419.5, -20259.451, 0.0, 9.998542, 10.000541 
4.7490448e+2, 1.6559413e+2, -1477067.1, -1359590.9, -51438.723, 0.065098956, -0.22634962, -1340251.4, -23095.383, 0.0, 9.998781, 10.000334 
4.749225e+2, 1.7559463e+2, -1338424.4, -1242173.9, -49710.9, 0.0152756395, -0.20881058, -1221109.5, -1957.5677, 0.0, 9.999061, 10.000332 
4.7494066e+2, 1.8559483e+2, -1242902.6, -1202904.3, -62218.496, -0.004133576, -0.19371085, -1157549.8, -36398.645, 0.0, 9.999291, 9.999818 
4.7495896e+2, 1.9559477e+2, -1117590.6, -1092461.6, -63437.76, 0.007670429, -0.18284069, -1040356.06, -17203.025, 0.0, 9.999482, 9.999811 
4.7497714e+2, 2.0559447e+2, -1016875.5, -1055606.6, -64551.766, 0.005353467, -0.16243923, -968847.0, -43688.984, 0.0, 9.999769, 9.999253 
4.7499517e+2, 2.1559398e+2, -865194.1, -930547.3, -64304.47, -0.010943028, -0.13717817, -825740.1, 1425.3438, 0.0, 10.000133, 9.999264 
4.750134e+2, 2.2559315e+2, -748819.5, -858912.0, -56722.17, -0.02182307, -0.12770097, -724824.6, 4349.915, 0.0, 10.00041, 9.99895 
4.7503176e+2, 2.3559205e+2, -620928.3, -747471.06, -55604.145, -0.027288554, -0.13239197, -599967.3, 31217.664, 0.0, 10.000619, 9.998941 
4.7505042e+2, 2.4559079e+2, -525222.5, -723930.7, -41214.36, -0.026232364, -0.11646795, -517013.3, 16184.86, 0.0, 10.000919, 9.998285 
4.7506928e+2, 2.555894e+2, -372219.06, -597867.44, -39243.516, -0.020341277, -0.08662769, -365588.88, 69624.78, 0.0, 10.00129, 9.9983 
4.750881e+2, 2.6558745e+2, -255060.45, -525685.0, -32329.955, -0.027088836, -0.09106094, -251251.78, 85981.54, 0.0, 10.001573, 9.997987 
4.7510692e+2, 2.755851e+2, -124437.586, -409307.4, -32547.5, -0.04350556, -0.12695348, -120766.23, 118490.4, 0.0, 10.001785, 9.998011 
4.7512633e+2, 2.855832e+2, -317.3256, -317326.66, -14034.284, -0.033566657, -0.10819628, 302.77164, 141577.44, 0.0, 10.002045, 9.997844 
4.751461e+2, 2.955817e+2, 141431.52, -196491.13, -13694.324, -0.0048183124, -0.043521333, 141985.58, 185273.75, 0.0, 10.002337, 9.99786 
4.7516507e+2, 3.0557796e+2, 195407.27, -159326.84, -4059.7813, -0.07485753, -0.19166309, 195453.72, 195453.72, 0.0, 10.002434, 9.997734 
4.7518548e+2, 3.1557667e+2, 242737.56, -44644.445, -2885.9915, -0.0032847535, -0.094388105, 242766.53, 242766.53, 0.00000012581201, 10.002363, 9.998555 
4.848241e+2, 1.2557071e+2, -1988100.1, -1708271.6, -55060.0, 0.0017591419, -0.27351758, -1697827.6, 11554.327, 0.000002270887, 9.997534, 10.001233 
4.8484567e+2, 1.3557181e+2, -1838759.8, -1622741.8, -10222.0205, 0.10694807, -0.2540464, -1622259.1, -10887.738, 0.0000002759338, 9.99804, 10.000907 
4.8486438e+2, 1.4557274e+2, -1716993.6, -1545383.3, -56728.51, -0.009161634, -0.23410375, -1528326.1, -14963.193, 0.000000000009128432, 9.998344, 10.000615 
4.8488417e+2, 1.555733e+2, -1599984.8, -1436463.8, -56862.395, 0.05701446, -0.24099892, -1418634.5, -3275.887, 0.0, 9.998467, 10.00063 
4.8490322e+2, 1.6557382e+2, -1488892.5, -1363447.8, -66194.96, 0.06984166, -0.23381686, -1334978.8, -17624.205, 0.0, 9.9986925, 10.00035 
4.8492157e+2, 1.7557435e+2, -1345883.8, -1243757.4, -66698.14, 0.020994049, -0.2174039, -1210820.0, 8530.614, 0.0, 9.999001, 10.00035 
4.8493993e+2, 1.8557464e+2, -1247931.4, -1199915.5, -80367.82, -0.000023450259, -0.19588427, -1140046.3, -18697.234, 0.0, 9.999233, 9.999866 
4.8495838e+2, 1.9557473e+2, -1125747.9, -1091376.1, -74325.88, 0.008077633, -0.17289668, -1032275.06, -8925.616, 0.0, 9.999404, 9.999856 
4.8497683e+2, 2.0557444e+2, -1034518.2, -1066726.1, -67083.06, 0.005645742, -0.15310903, -981633.2, -56278.71, 0.0, 9.99966, 9.999229 
4.8499525e+2, 2.1557382e+2, -888608.9, -943900.4, -68062.22, -0.0077149435, -0.13844179, -842792.0, -15428.735, 0.0, 9.999981, 9.999246 
4.8501375e+2, 2.2557299e+2, -764630.8, -861535.9, -63184.715, -0.016704448, -0.13159339, -733459.5, -4086.9688, 0.0, 10.00028, 9.998994 
4.850324e+2, 2.3557197e+2, -626171.7, -744769.06, -59684.86, -0.021127896, -0.13262962, -601335.9, 30046.27, 0.0, 10.000561, 9.998987 
4.8505133e+2, 2.455708e+2, -532162.1, -717716.56, -40234.332, -0.01995378, -0.113998465, -523813.6, 9580.615, 0.0, 10.000831, 9.99837 
4.850705e+2, 2.555695e+2, -395362.78, -600037.5, -35885.477, -0.0149115855, -0.08227976, -389253.38, 46155.008, 0.0, 10.001093, 9.998379 
4.850896e+2, 2.6556754e+2, -286818.3, -542949.8, -29803.67, -0.022381928, -0.0911294, -283396.06, 54031.97, 0.0, 10.001364, 9.997968 
4.8510867e+2, 2.7556506e+2, -147114.38, -422195.94, -29271.041, -0.03924161, -0.13641295, -144034.17, 95418.18, 0.0, 10.001638, 9.9979925 
4.8512825e+2, 2.8556314e+2, -24725.576, -328038.47, -9988.352, -0.030983409, -0.117920145, -24397.008, 117073.54, 0.0, 10.001873, 9.997853 
4.8514828e+2, 2.9556173e+2, 103658.266, -212996.28, -9578.44, -0.004866054, -0.045869373, 103947.74, 147431.2, 0.0, 10.002071, 9.997874 
4.8516738e+2, 3.0555815e+2, 169763.66, -159465.47, -7288.6523, -0.07217011, -0.18841319, 169924.94, 169924.94, 0.0, 10.002206, 9.997843 
4.8518783e+2, 3.1555688e+2, 227116.84, -56894.043, -4897.602, 0.0022046757, -0.09884281, 227201.28, 227201.28, 0.00000009052117, 10.002277, 9.998512 
4.9482164e+2, 1.2554978e+2, -1983779.4, -1698086.3, -40818.637, 0.002838989, -0.27609333, -1692368.6, 17218.959, 0.0000015131092, 9.997528, 10.001306 
4.9484378e+2, 1.3555105e+2, -1834152.0, -1613133.9, 7998.0596, 0.11568023, -0.24557935, -1612844.9, -1269.4775, 0.00000014199817, 9.998039, 10.000974 
4.9486274e+2, 1.4555208e+2, -1708304.8, -1527448.0, -52424.715, -0.007163232, -0.22580145, -1513350.6, 215.06909, 0.0, 9.998343, 10.000738 
4.948826e+2, 1.5555266e+2, -1591992.0, -1419878.3, -52179.81, 0.054532338, -0.24213047, -1405294.6, 10265.941, 0.0, 9.9984665, 10.000745 
4.9490193e+2, 1.6555321e+2, -1489665.3, -1364996.8, -54818.918, 0.07002452, -0.23875572, -1344321.0, -26764.613, 0.0, 9.998692, 10.0003395 
4.9492064e+2, 1.7555371e+2, -1346063.8, -1244164.0, -55301.152, 0.029513316, -0.22177859, -1219920.0, -367.0821, 0.0, 9.999001, 10.000348 
4.949392e+2, 1.8555409e+2, -1238029.0, -1179411.4, -74013.94, 0.00588613, -0.19849828, -1129114.4, -7563.984, 0.0, 9.999233, 10.000007 
4.9495775e+2, 1.9555436e+2, -1116475.3, -1072168.1, -67590.945, 0.0024425893, -0.17278746, -1023192.8, 355.86984, 0.0, 9.999404, 9.999988 
4.9497643e+2, 2.0555413e+2, -1037131.4, -1072218.0, -55014.113, 0.0012614684, -0.1524916, -996931.1, -71377.82, 0.0, 9.99966, 9.999192 
4.949953e+2, 2.1555345e+2, -890768.1, -948507.94, -56040.063, -0.00010639536, -0.13910288, -856598.7, -29035.61, 0.0, 9.999981, 9.999214 
4.9501416e+2, 2.2555265e+2, -759554.4, -851004.56, -52708.363, -0.0051872497, -0.13149408, -735501.56, -5929.444, 0.0, 10.000279, 9.999066 
4.9503303e+2, 2.3555173e+2, -620922.1, -733922.7, -49267.09, -0.012513898, -0.13044682, -602458.94, 29121.73, 0.0, 10.000561, 9.999063 
4.9505216e+2, 2.4555059e+2, -523854.2, -700532.5, -30544.277, -0.018404204, -0.118055955, -518722.72, 14869.248, 0.0, 10.000831, 9.998488 
4.9507147e+2, 2.5554928e+2, -387576.06, -583700.9, -26097.248, -0.024170322, -0.09904914, -384162.84, 51442.75, 0.0, 10.001092, 9.998492 
4.9509087e+2, 2.655474e+2, -287676.56, -544395.9, -19587.266, -0.029537862, -0.10565961, -286190.7, 51433.734, 0.0, 10.001362, 9.997959 
4.9511036e+2, 2.7554503e+2, -148167.88, -423884.84, -19136.006, -0.03312418, -0.13677986, -146846.08, 92801.64, 0.0, 10.001636, 9.997982 
4.9513024e+2, 2.855431e+2, -24026.34, -325981.44, -2512.653, -0.018670904, -0.1199827, -24005.434, 117660.96, 0.0, 10.00187, 9.997869 
4.9515045e+2, 2.9554158e+2, 104832.81, -209913.03, -2261.435, 0.00718244, -0.061720673, 104849.06, 148529.92, 0.0, 10.0020685, 9.997897 
4.9516967e+2, 3.0553824e+2, 178513.14, -140909.2, -4548.0854, -0.06305501, -0.18807958, 178577.89, 178577.89, 0.0, 10.002203, 9.997972 
4.9519008e+2, 3.1553733e+2, 225956.52, -59352.332, -2270.4438, 0.0015411803, -0.07631871, 225974.58, 225974.58, 0.000000050936965, 10.002277, 9.998496 
5.048193e+2, 1.2552887e+2, -1919892.9, -1659141.9, -42023.813, -0.004784844, -0.2678132, -1652536.5, 57256.79, 0.0000009949754, 9.997932, 10.001378 
5.048418e+2, 1.3553019e+2, -1843655.4, -1611040.6, 11504.435, 0.124630935, -0.23819643, -1610473.0, 1307.2766, 0.000000065122016, 9.997945, 10.001034 
5.04861e+2, 1.4553122e+2, -1734728.9, -1533825.3, -53951.758, -0.0028383094, -0.2229357, -1520253.5, -6483.303, 0.0, 9.998136, 10.000795 
5.0488096e+2, 1.5553178e+2, -1590307.1, -1412870.5, -59075.566, 0.048408683, -0.24746647, -1395001.4, 20763.63, 0.0, 9.998452, 10.0008 
5.049005e+2, 1.6553238e+2, -1490991.4, -1360374.1, -61827.605, 0.0644021, -0.24400432, -1335750.1, -17989.832, 0.0, 9.998659, 10.000387 
5.049195e+2, 1.7553301e+2, -1375831.1, -1253122.1, -57965.867, 0.033388406, -0.21988685, -1230070.4, -10314.51, 0.0, 9.998773, 10.000396 
5.0493836e+2, 1.8553343e+2, -1264569.3, -1185666.8, -76349.75, 0.010743087, -0.19764106, -1139178.0, -17425.053, 0.0, 9.999023, 10.000066 
5.049571e+2, 1.9553368e+2, -1115585.0, -1065470.5, -76308.09, 0.0013335506, -0.17958148, -1010210.94, 13540.3545, 0.0, 9.999383, 10.000044 
5.0497603e+2, 2.0553346e+2, -1046033.3, -1077124.6, -67143.414, 0.00084209786, -0.15774475, -992659.4, -66903.734, 0.0, 9.999601, 9.9991865 
5.0499517e+2, 2.1553288e+2, -931690.44, -968382.94, -65650.266, 0.005602653, -0.13545708, -881871.1, -54106.13, 0.0, 9.999701, 9.999212 
5.0501436e+2, 2.2553213e+2, -796054.25, -859730.5, -55513.418, 0.0017790238, -0.12552257, -763897.0, -34123.563, 0.0, 9.999991, 9.9991455 
5.0503355e+2, 2.3553127e+2, -633348.2, -730974.94, -52012.664, -0.008350683, -0.12787549, -610830.94, 20950.34, 0.0, 10.000438, 9.999142 
5.050529e+2, 2.4553016e+2, -532265.1, -695234.4, -39693.8, -0.015800746, -0.1219475, -523111.22, 10680.872, 0.0, 10.000733, 9.998571 
5.050725e+2, 2.5552884e+2, -408873.03, -584778.1, -37922.313, -0.021969829, -0.111352, -401045.88, 34759.492, 0.0, 10.000907, 9.998573 
5.0509214e+2, 2.6552704e+2, -315640.88, -550499.75, -27652.604, -0.025111552, -0.1165745, -312428.97, 25394.244, 0.0, 10.001139, 9.998024 
5.0511193e+2, 2.7552485e+2, -176125.84, -430635.38, -22176.545, -0.024479508, -0.13890879, -174207.95, 65637.09, 0.0, 10.001416, 9.998041 
5.051321e+2, 2.8552294e+2, -57336.04, -342964.56, -7008.9004, -0.009091396, -0.122587785, -57164.152, 84699.664, 0.0, 10.001646, 9.997859 
5.0515246e+2, 2.955213e+2, 70736.3, -226608.27, -8772.83, 0.015185479, -0.07105785, 70994.91, 114874.42, 0.0, 10.001836, 9.997894 
5.0517184e+2, 3.0551815e+2, 171492.69, -127415.29, -11920.418, -0.056085773, -0.18608221, 171967.33, 171967.33, 0.0, 10.002083, 9.998121 
5.051924e+2, 3.1551737e+2, 239497.66, -50871.58, -8790.692, 0.0028201824, -0.07492771, 239763.55, 239763.55, 0.000000020855737, 10.002362, 9.998512 
5.14817e+2, 1.2550797e+2, -1914046.4, -1648600.1, -47179.656, -0.023415618, -0.24842483, -1640463.9, 69534.96, 0.00000067894854, 9.997939, 10.001447 
5.148398e+2, 1.3550924e+2, -1840013.8, -1603458.6, 12313.248, 0.13327228, -0.23100907, -1602819.5, 9166.586, 0.000000029496794, 9.997944, 10.001086 
5.148592e+2, 1.455102e+2, -1736328.8, -1536507.5, -42016.45, 0.0033418695, -0.22509158, -1528032.3, -14055.67, 0.0, 9.998132, 10.000778 
5.1487935e+2, 1.5551065e+2, -1590839.0, -1414058.4, -47616.652, 0.037885964, -0.2571166, -1402048.5, 13923.664, 0.0, 9.998451, 10.000792 
5.148991e+2, 1.6551134e+2, -1483438.8, -1344721.3, -57918.504, 0.052284375, -0.24963214, -1323718.6, -5752.212, 0.0, 9.998659, 10.000495 
5.1491827e+2, 1.7551222e+2, -1368987.9, -1238552.0, -53256.75, 0.0321236, -0.2116317, -1219569.9, 389.49203, 0.0, 9.998771, 10.000497 
5.149374e+2, 1.8551263e+2, -1266598.1, -1189600.0, -62703.12, 0.014171968, -0.19308074, -1154520.1, -32563.592, 0.0, 9.999022, 10.000039 
5.149565e+2, 1.9551268e+2, -1117207.3, -1068934.3, -63201.79, 0.0045349766, -0.19310953, -1025416.94, -1459.7878, 0.0, 9.999383, 10.00002 
5.1497567e+2, 2.055125e+2, -1044134.1, -1073361.5, -63511.723, 0.004278258, -0.16893685, -993576.5, -67614.96, 0.0, 9.999601, 9.999213 
5.1499486e+2, 2.1551213e+2, -929632.75, -964342.25, -61360.344, 0.009347423, -0.12752052, -883220.1, -55251.168, 0.0, 9.9997015, 9.99924 
5.1501435e+2, 2.2551148e+2, -790240.75, -847791.9, -38744.02, 0.004057453, -0.113621, -770755.2, -40778.777, 0.0, 9.999991, 9.999228 
5.15034e+2, 2.3551059e+2, -627664.2, -719073.2, -35788.043, -0.008809342, -0.124996126, -615319.7, 16664.31, 0.0, 10.000437, 9.999224 
5.150537e+2, 2.4550948e+2, -529190.44, -688696.0, -33333.62, -0.012439178, -0.12579212, -522504.6, 11489.985, 0.0, 10.000732, 9.998617 
5.150735e+2, 2.5550815e+2, -405654.66, -577962.94, -31267.006, -0.008857839, -0.119315244, -400156.38, 35851.273, 0.0, 10.000906, 9.998621 
5.1509345e+2, 2.6550648e+2, -306486.34, -531305.9, -17304.053, -0.009609416, -0.123935685, -305162.25, 32862.06, 0.0, 10.001138, 9.998157 
5.151135e+2, 2.7550447e+2, -167571.66, -412682.1, -12037.924, -0.013619657, -0.14248043, -166981.86, 73062.43, 0.0, 10.001414, 9.998165 
5.151338e+2, 2.8550255e+2, -60266.11, -348634.22, -43.939293, -0.0024419257, -0.12552558, -60266.105, 81796.74, 0.0, 10.001644, 9.997822 
5.151543e+2, 2.955009e+2, 67906.45, -231504.63, -1385.524, 0.019197375, -0.074502066, 67912.87, 111992.44, 0.0, 10.001831, 9.997863 
5.15174e+2, 3.0549788e+2, 182568.95, -103303.46, -1302.1361, -0.05129017, -0.1826073, 182574.89, 182574.89, 0.0, 10.002078, 9.99829 
5.151948e+2, 3.1549707e+2, 242096.7, -44653.91, 877.64355, 0.004992494, -0.09210586, 242099.39, 242099.39, 0.0000000053166334, 10.002358, 9.998558 
5.2481496e+2, 1.2548707e+2, -1926204.6, -1668644.0, -34503.734, -0.017381838, -0.24715719, -1664101.9, 46101.42, 0.0000005002885, 9.997917, 10.001319 
5.248378e+2, 1.3548814e+2, -1825758.1, -1611327.1, 15417.312, 0.12778434, -0.23314677, -1610224.3, 1968.5741, 0.000000016983103, 9.998105, 10.000955 
5.248573e+2, 1.4548908e+2, -1709380.1, -1519086.0, -37924.176, -0.0056271115, -0.22618067, -1511806.5, 2377.3184, 0.0, 9.998298, 10.000818 
5.248778e+2, 1.5548962e+2, -1585108.4, -1406973.6, -39743.215, 0.039810885, -0.25302204, -1398508.9, 17669.463, 0.0, 9.998472, 10.000831 
5.248977e+2, 1.6549034e+2, -1485405.6, -1342975.8, -56170.992, 0.054989494, -0.24665913, -1323489.4, -5317.1543, 0.0, 9.998634, 10.00052 
5.24917e+2, 1.7549118e+2, -1365859.1, -1234647.0, -57808.125, 0.02745063, -0.21517281, -1212812.0, 7353.3564, 0.0, 9.998782, 10.000519 
5.249363e+2, 1.854916e+2, -1275330.6, -1195112.9, -63975.4, 0.011698923, -0.19532205, -1159712.9, -37550.348, 0.0, 9.998967, 10.000028 
5.249558e+2, 1.9549172e+2, -1147574.6, -1084328.3, -63599.004, 0.012142995, -0.1874808, -1044924.25, -20761.166, 0.0, 9.999178, 10.000013 
5.249753e+2, 2.0549159e+2, -1059254.0, -1073386.8, -63875.98, 0.013054199, -0.16025297, -1002054.7, -75887.71, 0.0, 9.999467, 9.999277 
5.249946e+2, 2.1549128e+2, -908024.4, -947143.3, -58804.15, 0.011865751, -0.11970196, -865612.06, -37438.473, 0.0, 9.999821, 9.9993 
5.2501434e+2, 2.2549064e+2, -780857.9, -843968.9, -36050.133, 0.0063087097, -0.107653625, -764503.44, -34322.555, 0.0, 10.000059, 9.999221 
5.2503437e+2, 2.3548971e+2, -661723.44, -735564.56, -40047.703, -0.0017712003, -0.121916965, -644174.3, -11985.358, 0.0, 10.000204, 9.999223 
5.2505434e+2, 2.454886e+2, -568403.3, -697588.2, -41365.844, -0.003833353, -0.12650117, -556292.94, -22093.68, 0.0, 10.000421, 9.998706 
5.2507436e+2, 2.5548732e+2, -430186.47, -580087.4, -36159.566, -0.0012786173, -0.12443517, -421919.8, 14291.713, 0.0, 10.000696, 9.998707 
5.2509457e+2, 2.654857e+2, -327677.03, -536121.9, -22365.914, -0.003512633, -0.12835464, -325304.2, 12923.202, 0.0, 10.00097, 9.998204 
5.2511483e+2, 2.754838e+2, -189692.05, -417969.72, -23655.754, -0.009537711, -0.142131, -187266.44, 52980.16, 0.0, 10.001241, 9.998212 
5.251354e+2, 2.8548196e+2, -85142.45, -356531.1, -15237.891, 0.0024976758, -0.12494641, -84289.555, 57975.38, 0.0, 10.001456, 9.997857 
5.2515614e+2, 2.954803e+2, 39674.375, -241070.92, -11035.329, 0.027703324, -0.07679106, 40107.477, 84389.31, 0.0, 10.001621, 9.997898 
5.25176e+2, 3.0547744e+2, 157444.52, -105648.57, -7646.686, -0.044745214, -0.17372847, 157666.58, 157666.58, 0.0, 10.0018635, 9.998377 
5.2519697e+2, 3.1547654e+2, 212940.84, -60112.695, -12254.705, -0.0010674216, -0.10129477, 213489.73, 213489.73, 0.00000000056215, 10.002165, 9.998545 
5.3481317e+2, 1.2546617e+2, -1950463.0, -1719045.4, -32575.707, 0.013996145, -0.2652535, -1714547.3, -4140.8184, 0.00000041209, 9.997918, 10.000974 
5.3483564e+2, 1.3546696e+2, -1848494.4, -1659710.8, 22730.299, 0.10677062, -0.24538496, -1657012.5, -44611.74, 0.000000018082496, 9.99811, 10.000621 
5.348553e+2, 1.4546789e+2, -1702071.9, -1504561.3, -31543.74, -0.03157822, -0.22618684, -1499645.9, 14746.276, 0.0, 9.998301, 10.0009165 
5.348764e+2, 1.5546875e+2, -1578896.5, -1394014.3, -33360.36, 0.05419554, -0.23398916, -1388178.9, 28204.502, 0.0, 9.998472, 10.00092 
5.348965e+2, 1.654694e+2, -1490055.1, -1352533.0, -50646.707, 0.07286819, -0.23411097, -1335894.0, -17516.523, 0.0, 9.998633, 10.000454 
5.349156e+2, 1.7546989e+2, -1370161.0, -1243738.1, -52071.195, 0.01903403, -0.23054594, -1225052.8, -4678.748, 0.0, 9.998782, 10.000457 
5.3493524e+2, 1.8547036e+2, -1275225.0, -1194892.3, -56088.35, 0.0028754692, -0.20464407, -1166071.4, -43700.152, 0.0, 9.998966, 10.00003 
5.349551e+2, 1.9547081e+2, -1147062.1, -1083133.4, -55519.074, 0.024000095, -0.16255449, -1051034.6, -26665.477, 0.0, 9.999177, 10.000023 
5.349749e+2, 2.0547079e+2, -1052176.1, -1058627.9, -50592.49, 0.027092, -0.13135143, -1004706.75, -78334.89, 0.0, 9.999466, 9.999379 
5.349944e+2, 2.1547037e+2, -901554.7, -933839.75, -45947.33, 0.013019316, -0.11186711, -868996.7, -40617.957, 0.0, 9.999821, 9.999392 
5.350144e+2, 2.2546963e+2, -787468.3, -857929.2, -30709.963, 0.008337749, -0.1076995, -775962.4, -45575.53, 0.0, 10.00006, 9.999125 
5.3503466e+2, 2.3546866e+2, -667718.94, -748195.94, -34452.8, 0.012507229, -0.11866297, -654984.5, -22588.44, 0.0, 10.000204, 9.999136 
5.3505486e+2, 2.4546756e+2, -559329.4, -678902.8, -31069.465, 0.00981836, -0.124095656, -551738.4, -17332.21, 0.0, 10.000421, 9.998834 
5.3507507e+2, 2.5546637e+2, -421631.06, -562550.6, -25944.852, 0.0007478022, -0.12672211, -417006.13, 19410.867, 0.0, 10.000697, 9.998827 
5.3509545e+2, 2.6546478e+2, -330330.8, -541643.3, -12341.446, -0.0067142583, -0.12988816, -329612.47, 8819.911, 0.0, 10.000969, 9.998166 
5.3511596e+2, 2.754629e+2, -192331.13, -422848.88, -13659.809, -0.012135995, -0.13822033, -191524.5, 48927.426, 0.0, 10.001238, 9.99818 
5.351368e+2, 2.854611e+2, -78422.625, -341855.97, -9072.878, 0.005557701, -0.12112673, -78110.516, 64359.55, 0.0, 10.001452, 9.99796 
5.3515786e+2, 2.954595e+2, 46102.586, -227333.55, -4633.7383, 0.040035084, -0.07749064, 46181.086, 90667.375, 0.0, 10.001618, 9.997993 
5.3517795e+2, 3.0545685e+2, 157720.28, -104727.72, 3591.8752, -0.03692761, -0.1593636, 157769.44, 157769.44, 0.0, 10.001862, 9.998384 
5.35199e+2, 3.154558e+2, 207456.8, -70797.08, -1230.0394, -0.015162576, -0.10250181, 207462.23, 207462.23, 0.0000000000003731001, 10.002161, 9.998473 
5.448113e+2, 1.2544517e+2, -1937696.9, -1722127.8, -54519.656, 0.027933232, -0.26208672, -1709123.6, 1488.5372, 0.00000036785775, 9.998047, 10.00089 
5.448337e+2, 1.3544579e+2, -1836459.6, -1663733.3, 26424.354, 0.09719519, -0.2500142, -1659781.3, -47172.76, 0.000000024396927, 9.998235, 10.000532 
5.4485345e+2, 1.4544673e+2, -1695375.3, -1500676.4, -26094.695, -0.044468615, -0.22714143, -1497239.6, 17360.424, 0.0, 9.998343, 10.000922 
5.448748e+2, 1.5544772e+2, -1594335.0, -1401198.6, -35180.473, 0.05850155, -0.21998501, -1394989.9, 21599.936, 0.0, 9.998365, 10.000922 
5.448951e+2, 1.6544834e+2, -1503473.4, -1364854.0, -49847.32, 0.07877196, -0.22198662, -1348790.4, -30206.086, 0.0, 9.998567, 10.0004015 
5.449144e+2, 1.7544861e+2, -1354273.8, -1241706.0, -50677.953, 0.014279481, -0.23437491, -1222252.6, -1669.8184, 0.0, 9.998916, 10.000405 
5.4493415e+2, 1.8544905e+2, -1255647.8, -1187878.1, -59232.773, -0.0033374007, -0.20775573, -1153522.9, -30942.38, 0.0, 9.999111, 10.000008 
5.4495424e+2, 1.9544964e+2, -1148204.4, -1085503.9, -60299.555, 0.023736227, -0.15086482, -1048891.9, -24314.227, 0.0, 9.999177, 10.000006 
5.4497427e+2, 2.0544966e+2, -1058656.9, -1053677.6, -50119.56, 0.02908828, -0.117723376, -1005985.94, -79406.16, 0.0, 9.999387, 9.999451 
5.4499424e+2, 2.1544921e+2, -912141.9, -931670.0, -48260.9, 0.014530126, -0.10710136, -872667.2, -44081.02, 0.0, 9.999718, 9.999456 
5.4501444e+2, 2.2544846e+2, -807654.06, -876607.7, -40129.44, 0.010849854, -0.10478318, -789225.1, -58630.48, 0.0, 9.999961, 9.999044 
5.450348e+2, 2.3544744e+2, -683752.5, -764399.75, -42611.7, 0.01711846, -0.11162667, -665409.7, -32804.89, 0.0, 10.000131, 9.99906 
5.4505527e+2, 2.4544632e+2, -565731.4, -677394.8, -37964.105, 0.015840953, -0.116354235, -554046.75, -19431.682, 0.0, 10.000358, 9.998874 
5.450758e+2, 2.5544515e+2, -427980.47, -560777.94, -39528.195, 0.0075057866, -0.12115582, -417105.22, 19520.303, 0.0, 10.000633, 9.998869 
5.450964e+2, 2.6544365e+2, -343611.5, -540206.44, -27006.178, 0.0020159243, -0.12268835, -339969.16, -1329.0371, 0.0, 10.000845, 9.998236 
5.451172e+2, 2.7544186e+2, -222475.64, -429888.63, -20623.996, -0.00016343084, -0.12654734, -220444.78, 20213.762, 0.0, 10.0009985, 9.998246 
5.4513824e+2, 2.854401e+2, -111442.39, -354956.75, -15401.671, 0.017693553, -0.11169492, -110472.14, 32204.398, 0.0, 10.001215, 9.997984 
5.4515946e+2, 2.9543844e+2, 27849.33, -233047.77, -16671.416, 0.049641233, -0.07512805, 28910.324, 73603.67, 0.0, 10.001481, 9.99802 
5.451797e+2, 3.05436e+2, 152149.3, -95973.92, -4156.9507, -0.030355062, -0.14405788, 152218.92, 152218.92, 0.0, 10.001775, 9.998486 
5.4520106e+2, 3.154348e+2, 199416.34, -70007.36, -2627.145, -0.018288832, -0.10767498, 199441.97, 199441.97, 0.000000000015387011, 10.002087, 9.998514 
5.548093e+2, 1.2542407e+2, -1922807.1, -1692758.8, -53741.34, 0.021382863, -0.23607698, -1680823.5, 29996.95, 0.0000003291145, 9.998053, 10.001088 
5.54832e+2, 1.3542467e+2, -1823609.5, -1638239.1, 33316.97, 0.09913507, -0.24557929, -1632432.9, -19617.078, 0.000000025104656, 9.998239, 10.000707 
5.5485183e+2, 1.4542559e+2, -1701967.8, -1514609.1, -25145.004, -0.04393212, -0.22846112, -1511293.1, 3514.1482, 0.0, 9.998344, 10.000827 
5.548731e+2, 1.5542658e+2, -1601163.5, -1415172.8, -33929.67, 0.05185252, -0.21119249, -1409176.5, 7621.1733, 0.0, 9.9983635, 10.000827 
5.548936e+2, 1.6542713e+2, -1506545.4, -1370964.4, -36656.496, 0.071800664, -0.21034534, -1361688.3, -42895.61, 0.0, 9.998565, 10.0003605 
5.5491334e+2, 1.7542735e+2, -1357033.3, -1247609.8, -37888.297, 0.012950806, -0.22619528, -1235771.5, -14979.761, 0.0, 9.998917, 10.000365 
5.5493325e+2, 1.8542771e+2, -1258834.0, -1194855.3, -56897.863, -0.007031136, -0.20426185, -1161570.6, -38780.273, 0.0, 9.999113, 9.99996 
5.5495334e+2, 1.9542818e+2, -1151282.4, -1092068.8, -57540.098, 0.011025482, -0.15257859, -1056965.3, -32176.611, 0.0, 9.999178, 9.999961 
5.549735e+2, 2.0542821e+2, -1055934.4, -1048074.0, -37774.707, 0.018692905, -0.119660504, -1014025.6, -87235.02, 0.0, 9.999387, 9.99949 
5.54994e+2, 2.1542783e+2, -909669.0, -926619.3, -36143.523, 0.016116017, -0.105478875, -881020.25, -52224.45, 0.0, 9.999717, 9.999492 
5.5501443e+2, 2.254271e+2, -812253.9, -886374.7, -33808.043, 0.013682355, -0.098882444, -799149.94, -68345.836, 0.0, 9.999961, 9.998978 
5.5503494e+2, 2.3542605e+2, -688324.8, -774295.75, -36076.273, 0.012019198, -0.10087264, -675192.1, -42377.027, 0.0, 10.000132, 9.998991 
5.550556e+2, 2.4542491e+2, -568799.9, -684187.1, -27755.111, 0.014105164, -0.103417456, -562470.9, -27644.78, 0.0, 10.00036, 9.998827 
5.550765e+2, 2.554237e+2, -430515.06, -566226.94, -29383.78, 0.018590206, -0.108022705, -424426.2, 12410.891, 0.0, 10.000633, 9.998832 
5.550974e+2, 2.654223e+2, -331693.63, -515594.97, -21344.81, 0.02199813, -0.10712622, -329248.7, 9601.855, 0.0, 10.000845, 9.9984045 
5.551184e+2, 2.754207e+2, -211298.28, -406868.06, -14870.325, 0.025416886, -0.107280545, -210174.08, 30692.402, 0.0, 10.000999, 9.9984045 
5.5513966e+2, 2.8541896e+2, -115249.14, -362770.44, -5605.639, 0.038164042, -0.096673325, -115122.26, 27762.123, 0.0, 10.001214, 9.9979315 
5.55161e+2, 2.9541713e+2, 24423.63, -239567.19, -6695.6523, 0.056399323, -0.069868416, 24593.344, 69496.34, 0.0, 10.001478, 9.997977 
5.5518156e+2, 3.0541486e+2, 164367.45, -69277.164, 7459.6294, -0.025373539, -0.12790175, 164605.38, 164605.38, 0.0, 10.001769, 9.9986725 
5.5520314e+2, 3.1541362e+2, 207746.17, -50161.875, 8476.83, -0.012160308, -0.11511984, 208024.48, 208024.48, 0.0000000020600701, 10.002075, 9.998656 
5.648072e+2, 1.2540285e+2, -1923577.8, -1682736.1, -52695.586, 0.016444534, -0.22087926, -1671711.3, 39318.49, 0.00000027083397, 9.998003, 10.001181 
5.648302e+2, 1.3540341e+2, -1825978.5, -1630990.5, 31708.447, 0.10882084, -0.24080098, -1625963.8, -12939.186, 0.000000017878008, 9.998186, 10.000781 
5.648502e+2, 1.4540431e+2, -1698048.1, -1516488.6, -30772.146, -0.038387116, -0.22739422, -1511414.9, 3601.2148, 0.0, 9.998388, 10.0007925 
5.648714e+2, 1.5540533e+2, -1570017.8, -1404014.9, -34907.51, 0.037598968, -0.205031, -1396973.1, 20033.328, 0.0, 9.998595, 10.000792 
5.648921e+2, 1.6540588e+2, -1487353.6, -1368714.1, -32885.117, 0.056933884, -0.200431, -1360208.6, -41206.895, 0.0, 9.998728, 10.000298 
5.649122e+2, 1.7540605e+2, -1379698.1, -1265602.0, -36038.02, 0.014089063, -0.21380246, -1255172.5, -34171.207, 0.0, 9.998792, 10.000301 
5.649323e+2, 1.854063e+2, -1276545.4, -1211337.3, -56526.625, -0.0035125248, -0.19529596, -1178685.8, -55684.805, 0.0, 9.999026, 9.999888 
5.649525e+2, 1.9540662e+2, -1122934.8, -1086032.4, -59157.06, 0.005338781, -0.15178825, -1042515.8, -17514.975, 0.0, 9.999406, 9.999892 
5.6497294e+2, 2.0540664e+2, -1017919.0, -1026995.2, -40954.17, 0.014662339, -0.1184463, -981252.25, -54249.492, 0.0, 9.999637, 9.999514 
5.6499374e+2, 2.1540636e+2, -905147.4, -922316.56, -40643.105, 0.02298514, -0.0965611, -872192.1, -43185.637, 0.0, 9.99974, 9.99951 
5.650144e+2, 2.2540559e+2, -822730.5, -902314.94, -39934.746, 0.022142122, -0.08951847, -806147.2, -75131.98, 0.0, 9.999936, 9.998879 
5.650351e+2, 2.3540439e+2, -683035.44, -782402.3, -44538.633, 0.014125321, -0.0974725, -665994.56, -32966.418, 0.0, 10.000215, 9.998896 
5.65056e+2, 2.454032e+2, -560311.3, -682689.25, -36658.844, 0.016761385, -0.099084266, -550170.3, -15130.385, 0.0, 10.000429, 9.998803 
5.650771e+2, 2.5540203e+2, -438861.03, -572602.0, -36731.94, 0.02781325, -0.09670037, -429436.72, 7613.9346, 0.0, 10.0005865, 9.99881 
5.6509835e+2, 2.6540068e+2, -339242.13, -512307.75, -33814.63, 0.03166141, -0.09243159, -332869.84, 6193.706, 0.0, 10.000764, 9.9984665 
5.6511945e+2, 2.7539915e+2, -213362.2, -400851.53, -35311.95, 0.030082993, -0.09266986, -206932.05, 34146.668, 0.0, 10.000956, 9.9984665 
5.6514084e+2, 2.8539735e+2, -120953.85, -361409.03, -23779.373, 0.04246063, -0.08894541, -118624.79, 24471.91, 0.0, 10.001158, 9.997968 
5.651625e+2, 2.9539546e+2, 10341.578, -242465.14, -18544.648, 0.06477767, -0.07400869, 11694.68, 56810.73, 0.0, 10.001365, 9.998012 
5.651833e+2, 3.0539346e+2, 133147.17, -74261.28, -6785.5938, -0.016059214, -0.11303995, 133368.92, 133368.92, 0.0, 10.001512, 9.998762 
5.65205e+2, 3.1539223e+2, 144513.34, -72604.69, -13349.443, -0.010944493, -0.110387996, 145331.05, 145331.05, 0.000000017271022, 10.001606, 9.998727 
5.7480514e+2, 1.2538153e+2, -1925466.0, -1687073.9, -51370.094, 0.011422808, -0.2174418, -1676475.6, 34764.0, 0.00000019303324, 9.998005, 10.00115 
5.7482857e+2, 1.3538207e+2, -1828341.6, -1636299.8, 38660.215, 0.12642722, -0.23561443, -1628809.1, -15574.656, 0.000000007774616, 9.998187, 10.000745 
5.748487e+2, 1.4538296e+2, -1696018.4, -1512471.1, -22785.207, -0.027598873, -0.22357258, -1509685.0, 5541.195, 0.0, 9.998388, 10.00082 
5.7486975e+2, 1.5538399e+2, -1567855.0, -1400230.6, -27176.357, 0.015142826, -0.2014595, -1395934.8, 21281.373, 0.0, 9.998597, 10.000816 
5.7489055e+2, 1.6538455e+2, -1493353.4, -1381623.5, -30565.852, 0.033474155, -0.19231361, -1373808.3, -54596.895, 0.0, 9.998729, 10.000209 
5.74911e+2, 1.7538472e+2, -1386202.5, -1278966.5, -33237.76, 0.017566292, -0.197116, -1269500.1, -48289.066, 0.0, 9.998791, 10.000211 
5.749314e+2, 1.8538484e+2, -1283678.0, -1225997.8, -42148.266, 0.0072923196, -0.1807034, -1203767.0, -80554.93, 0.0, 9.999025, 9.999788 
5.749519e+2, 1.9538496e+2, -1129510.6, -1099966.4, -45287.027, 0.006623392, -0.14837444, -1067103.1, -41888.957, 0.0, 9.999407, 9.999797 
5.7497257e+2, 2.0538494e+2, -1017283.1, -1025992.6, -37243.22, 0.016900275, -0.114037305, -984140.94, -56924.727, 0.0, 9.999637, 9.99952 
5.7499355e+2, 2.1538478e+2, -904982.06, -922210.2, -36609.51, 0.035036273, -0.08043105, -875986.8, -46768.63, 0.0, 9.99974, 9.999511 
5.750145e+2, 2.2538391e+2, -831797.75, -921395.0, -29512.273, 0.036034998, -0.076706864, -822950.4, -91722.62, 0.0, 9.999937, 9.998748 
5.750354e+2, 2.3538242e+2, -691756.6, -800739.4, -34245.926, 0.023231266, -0.101244, -681888.94, -48644.953, 0.0, 10.000216, 9.99877 
5.750565e+2, 2.4538116e+2, -560391.44, -683134.8, -30794.967, 0.023675608, -0.10323528, -553098.6, -17841.99, 0.0, 10.00043, 9.9988 
5.7507783e+2, 2.5538012e+2, -439256.22, -573623.4, -30829.54, 0.03506762, -0.08724756, -432520.28, 4745.8975, 0.0, 10.000587, 9.998803 
5.7509905e+2, 2.6537877e+2, -342384.3, -518879.0, -26687.018, 0.03122596, -0.07856424, -338437.34, 841.7208, 0.0, 10.000764, 9.998422 
5.7512015e+2, 2.7537715e+2, -215987.64, -406165.78, -28042.71, 0.014572415, -0.08240699, -211938.81, 29356.324, 0.0, 10.000955, 9.99843 
5.7514185e+2, 2.8537533e+2, -113004.07, -344288.53, -15978.853, 0.03096168, -0.08809785, -111905.35, 31408.03, 0.0, 10.001154, 9.998087 
5.751639e+2, 2.9537344e+2, 16945.076, -227371.86, -10964.854, 0.07416971, -0.08703642, 17436.188, 62768.625, 0.0, 10.001359, 9.998118 
5.751849e+2, 3.0537173e+2, 131986.45, -75418.266, -3352.0674, -0.0030307672, -0.09949757, 132040.63, 132040.63, 0.00000000021282408, 10.001506, 9.998757 
5.752065e+2, 3.153705e+2, 144283.34, -72726.77, -10191.574, -0.015059395, -0.09340017, 144760.92, 144760.92, 0.0000000699572, 10.001604, 9.998728 
5.8480316e+2, 1.2536035e+2, -1900767.4, -1685714.1, -40060.13, 0.006611812, -0.21329956, -1678494.1, 32953.04, 0.00000011738098, 9.99822, 10.001055 
5.8482677e+2, 1.353608e+2, -1823285.6, -1645192.0, 50800.05, 0.1272916, -0.23007391, -1631720.6, -18277.334, 0.0000000014227642, 9.998271, 10.000644 
5.8484703e+2, 1.4536157e+2, -1695577.5, -1520829.5, -13100.678, -0.025915017, -0.22024293, -1519852.8, -4416.6006, 0.0, 9.998429, 10.000743 
5.848683e+2, 1.5536252e+2, -1561553.1, -1405458.5, -26128.693, 0.009217664, -0.1995379, -1401201.0, 16226.267, 0.0, 9.998677, 10.000742 
5.8488923e+2, 1.6536309e+2, -1475219.8, -1376349.9, -35704.11, 0.025956597, -0.18671851, -1364804.5, -45381.94, 0.0, 9.998869, 10.000176 
5.8490986e+2, 1.7536329e+2, -1356567.9, -1268645.8, -33844.996, 0.014473245, -0.1837203, -1257126.5, -35704.867, 0.0, 9.999012, 10.0001745 
5.8493054e+2, 1.8536331e+2, -1267026.6, -1233996.0, -34863.54, 0.0076981112, -0.16787533, -1211933.9, -88510.195, 0.0, 9.999209, 9.999644 
5.8495134e+2, 1.9536321e+2, -1132715.8, -1117059.6, -41753.227, 0.00952183, -0.14319518, -1082407.0, -56978.87, 0.0, 9.999453, 9.999657 
5.8497226e+2, 2.0536307e+2, -1012708.06, -1027890.5, -42357.17, 0.019983035, -0.111968905, -977267.25, -49836.105, 0.0, 9.999687, 9.999483 
5.849934e+2, 2.1536289e+2, -882106.2, -915523.06, -45043.668, 0.036439937, -0.07752569, -850771.94, -21338.94, 0.0, 9.999916, 9.999471 
5.8501446e+2, 2.2536196e+2, -814574.7, -924556.1, -36588.26, 0.036901943, -0.07248858, -803514.8, -72071.71, 0.0, 10.000105, 9.998645 
5.8503556e+2, 2.3536037e+2, -692713.8, -812541.94, -39478.316, 0.024442421, -0.09552637, -680876.7, -47416.203, 0.0, 10.000258, 9.998668 
5.850569e+2, 2.4535903e+2, -568361.0, -691863.1, -39386.89, 0.02459712, -0.097114444, -556869.2, -21395.04, 0.0, 10.000397, 9.998756 
5.850783e+2, 2.5535795e+2, -452084.34, -584316.5, -42510.53, 0.03524198, -0.081623256, -439597.1, -2112.6487, 0.0, 10.000519, 9.998763 
5.8509976e+2, 2.6535666e+2, -353750.88, -519461.4, -34821.82, 0.029821549, -0.06895965, -346730.9, -7234.0093, 0.0, 10.000665, 9.998466 
5.8512104e+2, 2.7535516e+2, -231184.4, -408718.38, -29928.178, 0.010936137, -0.064923406, -226274.97, 15236.581, 0.0, 10.00083, 9.998473 
5.8514285e+2, 2.853533e+2, -138943.47, -353104.2, -19420.12, 0.02613488, -0.078016385, -137196.7, 6333.3584, 0.0, 10.00096, 9.998119 
5.85165e+2, 2.9535124e+2, -24628.332, -244263.86, -20830.066, 0.06903062, -0.097465575, -22670.281, 22880.566, 0.0, 10.00106, 9.998146 
5.851863e+2, 3.053498e+2, 95528.48, -92250.12, -14034.09, 0.00042886272, -0.08402424, 96571.555, 96571.555, 0.000000006848287, 10.001252, 9.998763 
5.852082e+2, 3.1534868e+2, 136480.6, -72185.98, -20270.24, -0.0010743112, -0.06713036, 138431.45, 138431.45, 0.00000018333391, 10.001533, 9.998766 
5.948013e+2, 1.2533937e+2, -1911677.6, -1709667.5, -43600.703, 0.001041545, -0.2089436, -1700658.8, 10993.338, 0.000000058921596, 9.998226, 10.000888 
5.9482485e+2, 1.3533968e+2, -1834918.8, -1670262.8, 53153.484, 0.10991279, -0.22417136, -1654594.9, -40944.566, 0.000000000010343272, 9.998274, 10.00047 
5.948454e+2, 1.4534022e+2, -1709062.9, -1549165.0, -3500.1897, -0.034517184, -0.21746238, -1549088.5, -33442.5, 0.0, 9.99843, 10.000548 
5.9486705e+2, 1.5534095e+2, -1574380.4, -1432445.4, -16872.076, 0.020307729, -0.19928701, -1430467.3, -12827.678, 0.0, 9.998678, 10.000557 
5.948882e+2, 1.6534147e+2, -1473233.1, -1372711.1, -30344.188, 0.035106882, -0.18370679, -1364261.5, -44626.098, 0.0, 9.998871, 10.000201 
5.949088e+2, 1.7534176e+2, -1354934.6, -1265862.1, -28286.607, 0.00449738, -0.17373906, -1257638.4, -36005.51, 0.0, 9.999014, 10.000193 
5.9492964e+2, 1.853417e+2, -1280300.4, -1262009.1, -25745.465, -0.0029067744, -0.15690528, -1243833.1, -120197.6, 0.0, 9.99921, 9.999452 
5.949508e+2, 1.9534136e+2, -1145886.5, -1144638.4, -32726.527, 0.013856452, -0.13624617, -1112530.0, -86887.414, 0.0, 9.999453, 9.999468 
5.94972e+2, 2.0534101e+2, -1018417.2, -1039942.3, -33826.22, 0.02385549, -0.11220403, -993682.6, -66035.086, 0.0, 9.999687, 9.9994 
5.949932e+2, 2.1534066e+2, -887760.75, -927473.0, -36592.54, 0.027007265, -0.08779262, -865984.2, -36333.4, 0.0, 9.999917, 9.999389 
5.9501445e+2, 2.2533971e+2, -819889.9, -935815.56, -30868.068, 0.02460319, -0.07694872, -812182.9, -80521.76, 0.0, 10.000106, 9.998568 
5.950358e+2, 2.3533824e+2, -698194.5, -824159.94, -33779.113, 0.017694041, -0.08065032, -689708.0, -56030.3, 0.0, 10.000258, 9.998588 
5.950572e+2, 2.4533683e+2, -574191.44, -704247.2, -34818.035, 0.019486336, -0.08092267, -565456.75, -29764.344, 0.0, 10.000397, 9.998672 
5.950787e+2, 2.5533554e+2, -457341.6, -595601.56, -37876.08, 0.02831386, -0.07945743, -447645.5, -9940.153, 0.0, 10.00052, 9.998685 
5.9510034e+2, 2.6533428e+2, -344748.16, -500934.25, -28692.2, 0.027146136, -0.06342823, -339644.03, 73.02272, 0.0, 10.000665, 9.998592 
5.9512186e+2, 2.753331e+2, -223365.0, -391895.88, -23902.885, 0.018258337, -0.04098035, -220040.4, 21687.648, 0.0, 10.000827, 9.99859 
5.951438e+2, 2.8533122e+2, -143146.38, -360988.4, -15759.812, 0.027374877, -0.059420418, -142012.14, 1734.6942, 0.0, 10.000956, 9.998068 
5.951659e+2, 2.9532883e+2, -28591.313, -251921.33, -16934.46, 0.04987076, -0.10521649, -27314.521, 18456.705, 0.0, 10.001057, 9.9980955 
5.951874e+2, 3.0532762e+2, 95929.46, -90265.88, -3533.866, -0.0057169585, -0.06662411, 95996.51, 95996.51, 0.000000033052434, 10.001246, 9.998779 
5.9521e+2, 3.1532675e+2, 139730.02, -62692.37, -9690.059, 0.028998602, -0.031612746, 140192.83, 140192.83, 0.00000037488923, 10.00152, 9.998837 
6.047995e+2, 1.2531807e+2, -1921564.5, -1731170.8, -54038.27, -0.0021138687, -0.21974076, -1716902.8, -5042.7485, 0.000000021349177, 9.998232, 10.000736 
6.0482305e+2, 1.3531834e+2, -1798061.6, -1669787.4, 49140.516, 0.09161604, -0.2218972, -1653126.3, -39267.01, 0.0, 9.998602, 10.000315 
6.0484385e+2, 1.4531876e+2, -1665870.9, -1547424.6, -7486.2925, -0.045020588, -0.2124403, -1546953.4, -31096.65, 0.0, 9.99881, 10.000377 
6.048659e+2, 1.5531929e+2, -1556204.8, -1442201.4, -19173.488, 0.028876517, -0.1961002, -1439063.1, -21210.53, 0.0, 9.998883, 10.00039 
6.048872e+2, 1.653197e+2, -1445513.5, -1365252.1, -32776.984, 0.04409802, -0.17972307, -1353567.8, -33718.51, 0.0, 9.999087, 10.000148 
6.049078e+2, 1.7531997e+2, -1302650.8, -1246744.6, -37035.363, -0.0014466778, -0.16672687, -1228297.4, -6450.5693, 0.0, 9.9994, 10.000137 
6.049289e+2, 1.8531984e+2, -1233578.0, -1255202.9, -37237.06, -0.011541482, -0.14924724, -1205615.3, -81765.125, 0.0, 9.999599, 9.9993105 
6.0495037e+2, 1.9531934e+2, -1119415.4, -1147559.4, -40435.125, 0.0129888905, -0.1299754, -1090673.6, -64814.797, 0.0, 9.999702, 9.999327 
6.0497177e+2, 2.0531881e+2, -1003310.25, -1045009.44, -39752.535, 0.02233942, -0.1108359, -979271.44, -51406.02, 0.0, 9.999845, 9.9992895 
6.0499305e+2, 2.1531825e+2, -880219.8, -935821.25, -44843.52, 0.017692534, -0.094561644, -855258.6, -25388.213, 0.0, 10.000021, 9.999282 
6.0501444e+2, 2.2531724e+2, -814022.6, -937226.7, -41067.93, 0.016435023, -0.08253012, -801588.3, -69707.016, 0.0, 10.000165, 9.998529 
6.05036e+2, 2.3531583e+2, -698201.75, -828789.94, -41160.973, 0.018418547, -0.07698346, -686310.7, -52413.324, 0.0, 10.000279, 9.998547 
6.050576e+2, 2.453144e+2, -577956.44, -714719.0, -40556.984, 0.020747043, -0.073324904, -566833.8, -30921.287, 0.0, 10.000409, 9.998593 
6.0507923e+2, 2.55313e+2, -458166.38, -604333.5, -43301.563, 0.022770455, -0.072281815, -446301.53, -8374.786, 0.0, 10.00055, 9.9986105 
6.0510087e+2, 2.6531178e+2, -346668.5, -493757.6, -38105.207, 0.022055922, -0.057338323, -337383.06, 2555.4407, 0.0, 10.000617, 9.998665 
6.051226e+2, 2.7531064e+2, -249437.97, -396606.28, -37398.21, 0.019967563, -0.036907762, -240479.69, 1468.8184, 0.0, 10.000613, 9.998661 
6.051446e+2, 2.8530878e+2, -178612.8, -377538.3, -26251.71, 0.027333427, -0.055869564, -175206.73, -31239.775, 0.0, 10.0007105, 9.998073 
6.0516673e+2, 2.9530638e+2, -51746.984, -263096.8, -23574.002, 0.040811952, -0.10055993, -49149.46, -3157.8345, 0.00000000003092486, 10.000897, 9.998095 
6.0518855e+2, 3.053054e+2, 64469.61, -100443.84, -6982.2666, -0.0059468723, -0.045799844, 64764.703, 64764.703, 0.00000008707832, 10.00101, 9.998823 
6.0521144e+2, 3.153043e+2, 81015.984, -77443.35, -11569.913, 0.047994815, -0.032912143, 81856.305, 81856.305, 0.0000006525611, 10.001059, 9.998958 
6.147977e+2, 1.2529641e+2, -1931179.3, -1751357.4, -45450.156, -0.004072368, -0.24729893, -1740522.6, -28451.826, 0.0000000039655865, 9.998232, 10.000598 
6.148215e+2, 1.3529684e+2, -1806909.8, -1689959.5, 62596.54, 0.07219025, -0.22350977, -1662774.5, -48704.633, 0.0, 9.998609, 10.0001745 
6.1484253e+2, 1.4529718e+2, -1675418.9, -1568762.3, -4935.6904, -0.05766298, -0.20508704, -1568534.3, -52465.895, 0.0, 9.998816, 10.000228 
6.148649e+2, 1.5529756e+2, -1566236.8, -1463726.6, -16179.552, 0.03460456, -0.18991217, -1461233.5, -43167.67, 0.0, 9.998886, 10.000241 
6.1488634e+2, 1.652978e+2, -1454821.4, -1385270.3, -21031.03, 0.052729856, -0.17468295, -1379405.4, -59341.188, 0.0, 9.999089, 10.00001 
6.149072e+2, 1.7529793e+2, -1311555.9, -1266279.0, -25634.418, -0.0033797415, -0.16267063, -1254717.8, -32654.56, 0.0, 9.999404, 10.000002 
6.149284e+2, 1.8529768e+2, -1239373.6, -1268185.6, -33602.723, -0.018285774, -0.14492188, -1217219.0, -93151.5, 0.0, 9.999603, 9.99922 
6.1494994e+2, 1.952971e+2, -1125728.6, -1161161.3, -36622.07, 0.00664052, -0.12440055, -1102762.8, -76686.04, 0.0, 9.999704, 9.999232 
6.149715e+2, 2.0529643e+2, -1013059.3, -1065541.8, -33290.004, 0.015165963, -0.10784479, -996911.5, -68826.805, 0.0, 9.9998455, 9.999148 
6.149929e+2, 2.1529569e+2, -889594.25, -955513.25, -38398.125, 0.008327171, -0.09781432, -871949.94, -41858.2, 0.0, 10.000021, 9.999146 
6.150146e+2, 2.2529458e+2, -814034.3, -937485.75, -36823.707, 0.012215176, -0.089124486, -803884.8, -71781.3, 0.0, 10.000165, 9.9985285 
6.1503637e+2, 2.3529314e+2, -698391.2, -829475.06, -36828.855, 0.026263675, -0.084189095, -688752.6, -54633.105, 0.0, 10.000279, 9.998542 
6.1505806e+2, 2.4529175e+2, -583015.06, -725415.2, -35323.09, 0.02806269, -0.07416887, -574734.5, -38599.914, 0.0, 10.000409, 9.998521 
6.150797e+2, 2.5529042e+2, -463478.88, -615149.25, -38150.598, 0.018463558, -0.060646143, -454423.28, -16274.597, 0.0, 10.000548, 9.998537 
6.1510146e+2, 2.652891e+2, -345522.9, -491245.7, -38245.383, 0.0145050585, -0.05084629, -336095.22, 4066.0017, 0.0, 10.000615, 9.998683 
6.1512315e+2, 2.7528775e+2, -247796.89, -393392.28, -37381.51, 0.016031902, -0.05130725, -238760.11, 3412.6145, 0.0, 10.000614, 9.998683 
6.1514527e+2, 2.8528598e+2, -174790.36, -369382.16, -19350.514, 0.025618654, -0.06642876, -172884.77, -28694.42, 0.0, 10.000709, 9.998129 
6.151676e+2, 2.9528394e+2, -49297.6, -256636.31, -16724.217, 0.040761575, -0.08490413, -47957.27, -1745.077, 0.0000000010306047, 10.000891, 9.998142 
6.1518955e+2, 3.05283e+2, 68013.69, -91636.586, -5179.182, -0.0009381901, -0.021992806, 68181.53, 68181.53, 0.00000016756015, 10.001002, 9.998888 
6.1521256e+2, 3.1528148e+2, 91581.195, -54623.918, -10058.243, 0.055791434, -0.06586084, 92269.91, 92269.91, 0.000001002472, 10.001054, 9.999117 
6.2479585e+2, 1.2527442e+2, -1915020.8, -1748666.9, -77284.41, -0.019748416, -0.2568985, -1718304.0, -6017.709, 0.00000000008306351, 9.998366, 10.000551 
6.2482e+2, 1.352749e+2, -1789612.1, -1686659.5, 42639.03, 0.06269284, -0.2197459, -1671293.5, -57008.586, 0.0, 9.998749, 10.000129 
6.2484145e+2, 1.4527522e+2, -1651812.5, -1565503.5, -27802.926, -0.05873134, -0.19904627, -1557322.6, -41038.77, 0.0, 9.999013, 10.0001545 
6.248638e+2, 1.5527551e+2, -1529167.4, -1454280.0, -33326.457, 0.031078137, -0.18560234, -1441597.0, -23314.936, 0.0, 9.999177, 10.000166 
6.248855e+2, 1.6527563e+2, -1427853.0, -1385064.5, -30509.924, 0.047787134, -0.17256038, -1369195.3, -48913.805, 0.0, 9.9993305, 9.999894 
6.2490654e+2, 1.7527562e+2, -1309236.0, -1277874.4, -33727.918, -0.008163061, -0.16335514, -1256360.3, -34078.344, 0.0, 9.9994755, 9.999887 
6.24928e+2, 1.8527527e+2, -1239511.0, -1277898.9, -43977.336, -0.02268065, -0.14634462, -1210721.5, -86434.16, 0.0, 9.999644, 9.999133 
6.2494963e+2, 1.952746e+2, -1112939.0, -1164934.5, -46778.367, 0.0026407172, -0.124626465, -1085419.5, -59122.56, 0.0, 9.999835, 9.999144 
6.2497133e+2, 2.0527384e+2, -998527.9, -1073239.9, -42049.418, 0.010509408, -0.10778814, -979637.75, -51331.715, 0.0, 10.000009, 9.999017 
6.249929e+2, 2.1527293e+2, -876939.06, -963600.75, -46696.92, 0.001993432, -0.09840275, -856566.2, -26251.316, 0.0, 10.00017, 9.999019 
6.250147e+2, 2.2527178e+2, -798874.94, -930281.6, -48179.68, 0.0061972295, -0.08835087, -783103.06, -50775.91, 0.0, 10.00027, 9.998527 
6.2503654e+2, 2.3527038e+2, -693592.3, -827424.94, -48159.49, 0.022429867, -0.08019899, -678063.94, -43721.39, 0.0, 10.000314, 9.998539 
6.250584e+2, 2.4526899e+2, -592302.06, -732538.25, -44339.395, 0.026005141, -0.069811694, -579459.1, -43101.508, 0.0, 10.000357, 9.998497 
6.2508017e+2, 2.552676e+2, -487533.0, -629450.7, -43600.113, 0.01788674, -0.058879934, -475208.4, -36836.145, 0.0, 10.000396, 9.998512 
6.251019e+2, 2.6526618e+2, -369094.72, -507535.4, -45423.33, 0.0139592625, -0.052770868, -355521.72, -15136.156, 0.0, 10.000475, 9.998639 
6.2512374e+2, 2.7526477e+2, -253904.61, -400802.5, -49356.434, 0.014146963, -0.05745351, -238861.7, 3536.2568, 0.0, 10.000591, 9.998643 
6.2514585e+2, 2.8526303e+2, -178763.06, -359416.0, -31226.467, 0.023718448, -0.07205805, -173517.75, -29102.596, 0.0, 10.00063, 9.998235 
6.251683e+2, 2.9526114e+2, -84879.09, -262912.1, -25141.11, 0.04022136, -0.08627986, -81396.875, -34961.453, 0.000000004235602, 10.0006, 9.9982395 
6.2519044e+2, 3.052604e+2, 17662.088, -122105.2, -14356.312, 0.002334121, -0.011479215, 19121.47, 19121.47, 0.000000262113, 10.000684, 9.998832 
6.2521356e+2, 3.1525853e+2, 70392.21, -57880.582, -28182.988, 0.060633413, -0.077879764, 76311.2, 76311.2, 0.0000013873902, 10.000879, 9.999178 
6.347938e+2, 1.2525204e+2, -1910916.0, -1740774.1, -68837.125, -0.051754165, -0.24738872, -1716411.9, -3905.12, 0.0, 9.998368, 10.000605 
6.348188e+2, 1.352526e+2, -1785249.0, -1678463.0, 56084.137, 0.063614555, -0.21002924, -1654420.6, -39916.156, 0.0, 9.998752, 10.000184 
6.348405e+2, 1.4525288e+2, -1650996.4, -1564753.5, -21970.512, -0.047513474, -0.19418329, -1559479.1, -42975.895, 0.0, 9.999016, 10.000158 
6.3486284e+2, 1.5525316e+2, -1528501.5, -1454097.6, -27479.922, 0.017573142, -0.1831758, -1445048.8, -26547.688, 0.0, 9.999182, 10.000165 
6.3488466e+2, 1.652532e+2, -1433981.1, -1398649.0, -25432.486, 0.028165985, -0.1734555, -1385348.9, -64847.81, 0.0, 9.999333, 9.9998 
6.3490593e+2, 1.7525305e+2, -1315697.0, -1291560.0, -28443.635, -0.016210785, -0.16892803, -1272730.5, -50227.33, 0.0, 9.9994755, 9.999794 
6.349276e+2, 1.8525258e+2, -1245413.6, -1290378.0, -36942.523, -0.0248683, -0.15361604, -1224650.0, -100140.68, 0.0, 9.999644, 9.999047 
6.3494945e+2, 1.9525187e+2, -1118767.0, -1177509.6, -39765.453, 0.0008471996, -0.1306446, -1098701.8, -72182.51, 0.0, 9.999837, 9.999057 
6.349713e+2, 2.0525101e+2, -1007003.1, -1091293.9, -36246.133, 0.008173056, -0.11066663, -993560.6, -65031.234, 0.0, 10.0000105, 9.998893 
6.34993e+2, 2.1525003e+2, -885397.9, -981443.1, -40846.023, -0.0016061615, -0.0963344, -870376.3, -39836.68, 0.0, 10.000171, 9.998897 
6.350149e+2, 2.2524887e+2, -798935.6, -930615.9, -46640.285, -0.0018040795, -0.08028901, -784089.7, -51537.586, 0.0, 10.00027, 9.998525 
6.3503677e+2, 2.3524754e+2, -693657.25, -827760.1, -46511.2, 0.007060322, -0.06530141, -679104.9, -44538.285, 0.0, 10.000315, 9.998536 
6.3505864e+2, 2.452461e+2, -590569.25, -729306.0, -42957.28, 0.014562247, -0.060315724, -578345.3, -41763.61, 0.0, 10.000358, 9.998519 
6.350806e+2, 2.5524452e+2, -485923.4, -626497.06, -42132.67, 0.020534562, -0.06628962, -474262.7, -35665.254, 0.0, 10.000397, 9.998532 
6.351024e+2, 2.6524308e+2, -376539.2, -523063.4, -41135.89, 0.019843094, -0.06263391, -365780.47, -25168.988, 0.0, 10.000475, 9.998532 
6.3512427e+2, 2.7524167e+2, -261454.81, -415856.22, -45017.266, 0.013936646, -0.056121998, -249288.28, -6663.984, 0.0, 10.000587, 9.998542 
6.351465e+2, 2.8523993e+2, -168809.94, -337952.5, -32230.824, 0.021375231, -0.073161036, -162876.36, -18234.955, 0.0, 10.000627, 9.998384 
6.351689e+2, 2.9523805e+2, -75549.39, -242743.06, -26086.23, 0.03900155, -0.10307377, -71573.84, -24912.645, 0.000000008608103, 10.000596, 9.99838 
6.351911e+2, 3.0523738e+2, 4983.8286, -147301.0, -6966.2046, 0.0036743027, -0.013104202, 5301.8306, 5301.8306, 0.00000035003856, 10.000678, 9.998661 
6.352144e+2, 3.152355e+2, 66742.99, -63576.55, -20639.975, 0.061753385, -0.07008647, 69933.82, 69933.82, 0.0000017531552, 10.000871, 9.999144 
6.447923e+2, 1.2522957e+2, -1871237.8, -1723586.5, -71929.26, -0.057709806, -0.23500143, -1694339.1, 18388.78, 0.0, 9.99865, 10.0005865 
6.4481753e+2, 1.3523012e+2, -1770027.1, -1672549.3, 52077.918, 0.06032322, -0.1959235, -1649960.9, -35235.53, 0.0, 9.998862, 10.000172 
6.448395e+2, 1.4523031e+2, -1643599.0, -1564628.0, -33305.113, -0.047233254, -0.18879613, -1552457.6, -35732.69, 0.0, 9.999083, 10.000127 
6.4486194e+2, 1.5523042e+2, -1509314.0, -1448499.5, -41586.816, 0.0044098124, -0.18984422, -1427389.1, -8665.322, 0.0, 9.99933, 10.000132 
6.4488393e+2, 1.6523041e+2, -1408115.1, -1394438.0, -41604.508, 0.014282895, -0.18028837, -1359113.8, -38389.355, 0.0, 9.999547, 9.999725 
6.449055e+2, 1.7523028e+2, -1283397.8, -1284235.5, -43327.176, -0.01805191, -0.16486962, -1240487.5, -17761.088, 0.0, 9.999733, 9.99972 
6.449273e+2, 1.8522975e+2, -1211868.0, -1276685.6, -48859.832, -0.024404207, -0.15097682, -1185645.6, -60912.656, 0.0, 9.9998865, 9.999024 
6.4494926e+2, 1.9522887e+2, -1094960.6, -1168802.0, -47141.695, -0.0056019905, -0.1407723, -1072002.4, -45258.61, 0.0, 10.000012, 9.999031 
6.4497125e+2, 2.0522796e+2, -1003747.75, -1099856.0, -42858.465, 0.0038747839, -0.12263605, -987412.06, -58657.41, 0.0, 10.000077, 9.998801 
6.4499325e+2, 2.1522696e+2, -904215.25, -1000507.4, -44984.82, 0.0047574225, -0.09992727, -886469.9, -55704.38, 0.0, 10.000085, 9.998807 
6.450151e+2, 2.252258e+2, -810922.9, -932592.94, -47625.914, 0.0032999406, -0.08151575, -794497.75, -61719.73, 0.0, 10.000173, 9.998558 
6.4503694e+2, 2.3522447e+2, -688990.3, -821971.0, -44957.145, -0.00025425325, -0.07001421, -675217.9, -40425.785, 0.0, 10.000332, 9.998568 
6.450589e+2, 2.4522297e+2, -586812.8, -734515.8, -46282.934, 0.0033118909, -0.066980764, -573508.44, -36700.83, 0.0, 10.000415, 9.998455 
6.4508086e+2, 2.5522137e+2, -486198.13, -633556.56, -52029.387, 0.013144396, -0.07332303, -469679.3, -30855.07, 0.0, 10.000425, 9.99847 
6.4510286e+2, 2.652199e+2, -383978.47, -523278.9, -48663.094, 0.016447427, -0.068625405, -368662.5, -27824.014, 0.0, 10.00041, 9.998562 
6.4512473e+2, 2.7521855e+2, -291177.13, -426603.3, -42746.77, 0.014834764, -0.060049064, -278813.1, -35962.258, 0.0, 10.000369, 9.998572 
6.4514697e+2, 2.8521687e+2, -204432.53, -348939.5, -30361.244, 0.023441976, -0.07771006, -198312.73, -53445.17, 0.0, 10.000356, 9.99844 
6.451694e+2, 2.9521495e+2, -105192.96, -251615.61, -31346.838, 0.03940721, -0.110625274, -98764.336, -51877.195, 0.000000011710588, 10.00037, 9.998427 
6.4519167e+2, 3.0521446e+2, -34723.39, -170940.33, -5414.1094, 0.0057217693, -0.006925753, -34508.54, -34508.54, 0.00000040808163, 10.000425, 9.99862 
6.452151e+2, 3.1521255e+2, 23503.314, -72629.13, -10115.153, 0.06444131, -0.061042026, 24556.111, 24556.111, 0.0000020409286, 10.000524, 9.9992485 
6.547911e+2, 1.2520699e+2, -1877157.1, -1737571.9, -68885.96, -0.036244232, -0.21981949, -1709301.9, 3647.5388, 0.0, 9.998656, 10.000487 
6.5481627e+2, 1.3520749e+2, -1775854.8, -1685609.3, 59456.207, 0.052305814, -0.17718802, -1656092.1, -41144.723, 0.0, 9.998865, 10.000081 
6.548385e+2, 1.4520748e+2, -1648306.1, -1574780.6, -24415.85, -0.059158757, -0.1829274, -1567411.4, -50462.414, 0.0, 9.9990835, 10.000057 
6.548611e+2, 1.5520729e+2, -1513884.0, -1458447.0, -32526.906, -0.008654748, -0.2058273, -1443430.1, -24479.795, 0.0, 9.9993305, 10.000064 
6.548834e+2, 1.6520727e+2, -1411822.0, -1402750.4, -34788.37, 0.00632719, -0.19311468, -1372203.4, -51252.13, 0.0, 9.999549, 9.999668 
6.5490526e+2, 1.7520733e+2, -1286849.5, -1292155.3, -36547.15, -0.013735361, -0.15089451, -1252859.1, -29907.48, 0.0, 9.999736, 9.999664 
6.549272e+2, 1.852068e+2, -1208767.0, -1270906.9, -44432.063, -0.021471485, -0.13806821, -1185619.4, -60661.16, 0.0, 9.999888, 9.9990635 
6.549491e+2, 1.9520569e+2, -1092255.9, -1163606.6, -42695.137, -0.016949465, -0.15495041, -1072293.0, -45322.64, 0.0, 10.000014, 9.999066 
6.5497124e+2, 2.0520467e+2, -1007781.0, -1108587.5, -42782.69, -0.002627946, -0.14379725, -992071.9, -63090.082, 0.0, 10.000078, 9.998741 
6.549935e+2, 2.1520375e+2, -908213.4, -1009135.06, -44728.754, 0.020941777, -0.109253235, -891243.06, -60250.684, 0.0, 10.000086, 9.998747 
6.5501547e+2, 2.2520258e+2, -806079.44, -922788.06, -41723.266, 0.021366756, -0.09194037, -792697.75, -59692.895, 0.0, 10.000173, 9.998625 
6.550373e+2, 2.3520117e+2, -684501.6, -812851.94, -39120.375, 0.00019895044, -0.093893714, -673517.94, -38498.832, 0.0, 10.000332, 9.998631 
6.5505916e+2, 2.4519967e+2, -597349.44, -756435.7, -45952.18, -0.007906275, -0.0894661, -585030.1, -47994.957, 0.0, 10.000414, 9.998305 
6.5508103e+2, 2.5519806e+2, -496636.9, -655066.8, -51544.977, -0.0040809847, -0.08020699, -481343.16, -42290.47, 0.0, 10.000423, 9.998323 
6.551031e+2, 2.6519665e+2, -373019.44, -500414.06, -50051.793, 0.003911083, -0.07092354, -355707.3, -14640.683, 0.0, 10.000409, 9.99872 
6.5512514e+2, 2.7519536e+2, -280307.13, -403989.0, -44130.383, 0.016550485, -0.06866891, -266175.75, -23098.182, 0.0, 10.000368, 9.998729 
6.551473e+2, 2.8519374e+2, -207152.4, -354619.38, -29748.303, 0.029432416, -0.08526191, -201377.47, -56283.79, 0.0, 10.000356, 9.998401 
6.5516967e+2, 2.9519188e+2, -108162.164, -257926.39, -30422.516, 0.040976625, -0.10972592, -102218.164, -55104.82, 0.000000011654482, 10.00037, 9.998384 
6.551921e+2, 3.0519155e+2, -29710.691, -160153.11, -1240.6914, 0.00802771, 0.0064240233, -29698.893, -29698.893, 0.00000041978168, 10.000423, 9.998695 
6.552156e+2, 3.151897e+2, 38015.742, -40551.086, -5955.173, 0.06799165, -0.049944226, 38464.566, 38464.566, 0.000002202322, 10.000514, 9.999474 
6.6479003e+2, 1.2518403e+2, -1838397.9, -1731260.3, -76926.17, -0.026762817, -0.22672682, -1691088.8, 22085.434, 0.0, 9.998977, 10.000376 
6.648152e+2, 1.351845e+2, -1733283.8, -1675911.0, 54520.32, 0.043412592, -0.17781979, -1642990.8, -27818.107, 0.0, 9.999205, 9.999984 
6.6483766e+2, 1.451844e+2, -1607027.4, -1559772.4, -28776.021, -0.06488175, -0.18439028, -1546166.6, -28991.629, 0.0, 9.999389, 10.000013 
6.648605e+2, 1.5518418e+2, -1484542.0, -1449146.0, -34976.69, -0.013573184, -0.20829804, -1427644.6, -8467.823, 0.0, 9.999554, 10.000019 
6.648829e+2, 1.651841e+2, -1393131.9, -1398059.9, -37683.188, 0.0014145368, -0.19473246, -1357832.3, -36654.074, 0.0, 9.999697, 9.999629 
6.6490495e+2, 1.7518416e+2, -1277911.4, -1291996.0, -38214.88, -0.018665299, -0.14984356, -1246095.3, -22916.508, 0.0, 9.999816, 9.999626 
6.6492707e+2, 1.8518363e+2, -1203407.6, -1267415.1, -48203.152, -0.025182232, -0.13559715, -1177551.3, -52365.91, 0.0, 9.999922, 9.999071 
6.649492e+2, 1.9518252e+2, -1091169.9, -1162280.1, -49023.438, -0.01836061, -0.15211566, -1066165.4, -38968.03, 0.0, 10.000018, 9.999073 
6.649713e+2, 2.0518146e+2, -1000252.2, -1102762.1, -49049.805, -0.002586652, -0.14657329, -980563.8, -51354.93, 0.0, 10.000121, 9.99876 
6.649936e+2, 2.1518046e+2, -885619.44, -996044.8, -45055.023, 0.02149607, -0.123223245, -869569.25, -38349.203, 0.0, 10.000232, 9.998766 
6.6501564e+2, 2.2517928e+2, -790973.8, -913314.75, -40886.133, 0.022258878, -0.106488384, -778567.75, -45335.434, 0.0, 10.000268, 9.998644 
6.650375e+2, 2.35178e+2, -697726.6, -816991.9, -42082.41, 0.001412807, -0.09900482, -684373.06, -49127.316, 0.0, 10.000233, 9.99865 
6.6505945e+2, 2.4517654e+2, -622572.7, -764445.0, -45401.07, -0.0077279126, -0.09124634, -609287.75, -72026.42, 0.0, 10.000224, 9.998342 
6.650814e+2, 2.5517493e+2, -521181.16, -662926.8, -37300.066, -0.006164892, -0.08448964, -511964.97, -72686.26, 0.0, 10.000238, 9.998358 
6.651033e+2, 2.6517358e+2, -393739.8, -507858.4, -35253.316, 0.0008642934, -0.07408372, -383727.78, -42435.375, 0.0, 10.000257, 9.998741 
6.6512537e+2, 2.7517238e+2, -292338.1, -407137.16, -39594.047, 0.013588128, -0.06717928, -280006.75, -36703.71, 0.0, 10.000276, 9.998751 
6.6514766e+2, 2.8517082e+2, -207879.11, -345158.94, -23942.605, 0.026903434, -0.08177698, -203823.17, -58504.69, 0.0, 10.000309, 9.998487 
6.651701e+2, 2.9516903e+2, -103863.914, -246788.97, -15832.874, 0.03930847, -0.10749361, -102131.0, -54793.777, 0.000000008469742, 10.000361, 9.998465 
6.6519237e+2, 3.0516875e+2, -46554.69, -167531.55, 12478.542, 0.004440974, 0.009105463, -45280.965, -45280.965, 0.00000038345433, 10.000305, 9.998701 
6.6521585e+2, 3.1516683e+2, -4194.869, -42252.906, 2441.0808, 0.056423884, -0.05430082, -4038.9348, -4038.9348, 0.0000022156387, 10.000145, 9.999639 
6.7478895e+2, 1.2516068e+2, -1846090.5, -1749069.8, -72549.3, -0.031997107, -0.258647, -1710306.6, 3095.3967, 0.0, 9.998984, 10.00025 
6.748143e+2, 1.3516113e+2, -1739487.0, -1690743.5, 62607.54, 0.03317709, -0.19899422, -1647931.3, -32530.336, 0.0, 9.999212, 9.999879 
6.7483705e+2, 1.4516109e+2, -1607724.1, -1562646.3, -22747.387, -0.06429953, -0.19350447, -1553162.5, -35759.637, 0.0, 9.999393, 9.999991 
6.7486006e+2, 1.5516105e+2, -1485601.6, -1452161.3, -28753.451, -0.010355022, -0.19675092, -1435620.0, -16216.776, 0.0, 9.999557, 9.999998 
6.748826e+2, 1.6516095e+2, -1394467.6, -1401267.6, -33245.164, -0.00068033766, -0.18457298, -1364449.0, -43044.168, 0.0, 9.999698, 9.999606 
6.749046e+2, 1.7516077e+2, -1279311.4, -1295203.5, -33830.57, -0.03333165, -0.16191351, -1252506.3, -29098.373, 0.0, 9.999817, 9.999604 
6.749268e+2, 1.8516023e+2, -1205280.1, -1271605.4, -44712.492, -0.03602365, -0.14389671, -1182774.4, -57359.87, 0.0, 9.999923, 9.9990425 
6.749492e+2, 1.9515939e+2, -1092897.6, -1166121.1, -45569.902, -0.009954892, -0.13215664, -1071054.0, -43629.355, 0.0, 10.000019, 9.999047 
6.749715e+2, 2.0515832e+2, -993284.25, -1088614.8, -45091.188, 0.0040440867, -0.13065998, -975335.5, -45899.61, 0.0, 10.000121, 9.9988575 
6.7499363e+2, 2.1515706e+2, -878733.44, -982074.94, -41149.445, 0.0063057733, -0.14159401, -864350.06, -32901.723, 0.0, 10.000233, 9.998862 
6.7501575e+2, 2.2515595e+2, -792974.44, -917808.8, -42317.176, 0.005733576, -0.12514222, -779981.75, -46521.4, 0.0, 10.000268, 9.998613 
6.750378e+2, 2.3515494e+2, -699519.75, -821001.6, -43381.86, 0.0030692336, -0.08580053, -685618.56, -50146.51, 0.0, 10.000233, 9.998622 
6.7505974e+2, 2.4515362e+2, -607354.8, -733084.1, -44912.926, 0.0033764704, -0.0727438, -592959.25, -55473.12, 0.0, 10.000224, 9.998557 
6.7508173e+2, 2.5515205e+2, -506491.56, -632518.7, -36826.563, 0.0062509202, -0.08607616, -496519.47, -57017.1, 0.0, 10.000238, 9.998567 
6.7510366e+2, 2.651507e+2, -401633.88, -524189.84, -34599.73, 0.006838065, -0.07803173, -392540.47, -51024.523, 0.0, 10.000256, 9.99863 
6.7512554e+2, 2.7514952e+2, -300032.66, -422903.47, -38739.957, 0.005968059, -0.056203797, -288838.22, -45310.875, 0.0, 10.000274, 9.998644 
6.7514783e+2, 2.8514808e+2, -194183.73, -316110.72, -21852.572, 0.016034894, -0.06792145, -190385.48, -44843.38, 0.0, 10.000306, 9.998689 
6.751703e+2, 2.951464e+2, -91225.766, -219311.45, -13844.452, 0.034479067, -0.10378903, -89746.44, -42187.414, 0.0000000040864183, 10.000356, 9.998656 
6.751926e+2, 3.0514607e+2, -51515.926, -176820.16, 6573.586, -0.004641407, 0.002169503, -51172.01, -51172.01, 0.0000003121116, 10.0003, 9.99864 
6.752157e+2, 3.1514397e+2, 3012.2773, -27095.3, -3316.874, 0.030267352, -0.07167642, 3373.3584, 3373.3584, 0.0000020914758, 10.000143, 9.999743 
6.8478805e+2, 1.2513739e+2, -1791796.3, -1725639.9, -85458.72, -0.035944596, -0.26177254, -1667080.9, 46549.65, 0.0, 9.999371, 10.000225 
6.848135e+2, 1.3513778e+2, -1699220.4, -1672021.4, 60528.113, 0.022990353, -0.20697634, -1623583.8, -7954.329, 0.0, 9.999492, 9.999872 
6.848365e+2, 1.4513773e+2, -1579568.5, -1555033.5, -23078.008, -0.06358434, -0.20063837, -1541165.0, -23533.496, 0.0, 9.999614, 9.999937 
6.848597e+2, 1.5513776e+2, -1460165.1, -1445853.3, -31722.916, -0.0086988155, -0.19065091, -1420489.1, -857.7589, 0.0, 9.999758, 9.999944 
6.848823e+2, 1.651376e+2, -1377282.0, -1394703.1, -40815.133, -0.0020921654, -0.17920212, -1344258.3, -22624.654, 0.0, 9.999825, 9.99959 
6.8490434e+2, 1.7513727e+2, -1279956.4, -1297017.4, -41001.855, -0.040404204, -0.17042385, -1246607.0, -22968.934, 0.0, 9.99982, 9.99959 
6.849266e+2, 1.8513678e+2, -1205579.6, -1267557.9, -46239.434, -0.041852236, -0.15068397, -1180905.4, -55260.793, 0.0, 9.999904, 9.999079 
6.849493e+2, 1.9513613e+2, -1082122.5, -1156581.8, -42241.074, -0.008515039, -0.12266202, -1063046.3, -35393.45, 0.0, 10.000075, 9.999084 
6.8497163e+2, 2.051351e+2, -984611.4, -1077147.6, -43743.613, 0.00664442, -0.121792406, -967206.56, -37543.1, 0.0, 10.000151, 9.998921 
6.849938e+2, 2.1513374e+2, -888324.3, -979421.8, -42383.41, 0.0045014243, -0.14927523, -871655.4, -39978.848, 0.0, 10.000136, 9.998926 
6.8501586e+2, 2.2513266e+2, -812710.5, -924831.94, -45480.36, 0.0036577252, -0.13300054, -796582.1, -62893.875, 0.0, 10.000123, 9.998635 
6.850379e+2, 2.3513183e+2, -715970.1, -826458.1, -42819.918, 0.004324336, -0.078037255, -701318.2, -65619.48, 0.0, 10.00011, 9.998644 
6.8505996e+2, 2.4513061e+2, -615304.6, -722682.25, -44545.816, 0.006938808, -0.063603535, -599230.9, -61518.957, 0.0, 10.000109, 9.998683 
6.850819e+2, 2.5512904e+2, -515263.3, -622702.8, -43156.152, 0.011305554, -0.08946661, -500075.4, -60347.848, 0.0, 10.000119, 9.998692 
6.8510383e+2, 2.6512772e+2, -419493.4, -529625.25, -39206.05, 0.00991946, -0.08483209, -406962.22, -65221.543, 0.0, 10.00012, 9.998657 
6.851257e+2, 2.7512664e+2, -321172.56, -429951.72, -33483.87, 0.0039693466, -0.057483442, -311692.0, -67940.36, 0.0, 10.000116, 9.998671 
6.8514794e+2, 2.851253e+2, -220316.88, -318089.03, -16439.092, 0.01158174, -0.06576144, -217626.88, -71861.305, 0.0, 10.000082, 9.998783 
6.851704e+2, 2.951237e+2, -134148.39, -229851.95, -16372.063, 0.0299293, -0.100835495, -131425.11, -83643.78, 0.0000000009738006, 10.000018, 9.998747 
6.851926e+2, 3.051233e+2, -94639.695, -197997.8, 702.1942, -0.013041363, -0.004743942, -94634.93, -94634.93, 0.00000022618863, 10.000007, 9.998636 
6.852156e+2, 3.151211e+2, 527.5259, -10894.584, -5445.432, 0.01153697, -0.08779726, 2707.534, 2707.534, 0.0000018666766, 10.000052, 9.999899 
6.947874e+2, 1.2511422e+2, -1784853.0, -1713604.8, -84374.97, -0.040210422, -0.23321195, -1657641.8, 56217.62, 0.0, 9.99938, 10.000303 
6.9481283e+2, 1.3511449e+2, -1691695.6, -1657816.9, 64812.344, 0.012524391, -0.20081098, -1607766.8, 8091.162, 0.0, 9.999497, 9.999968 
6.9483614e+2, 1.451143e+2, -1585656.1, -1568333.4, -17614.852, -0.06297176, -0.20585364, -1557365.6, -39504.977, 0.0, 9.999617, 9.999845 
6.9485945e+2, 1.5511431e+2, -1466160.5, -1459147.6, -26224.152, -0.009087131, -0.19021639, -1436196.5, -16335.189, 0.0, 9.999762, 9.999851 
6.948821e+2, 1.651141e+2, -1377878.3, -1396789.5, -40980.68, -0.0031797106, -0.178803, -1345276.5, -23412.23, 0.0, 9.999827, 9.999574 
6.949041e+2, 1.751137e+2, -1280677.3, -1298714.1, -41187.254, -0.039901882, -0.17532413, -1247532.6, -23663.174, 0.0, 9.99982, 9.999578 
6.949265e+2, 1.8511324e+2, -1198543.5, -1252915.3, -39899.84, -0.04264689, -0.15592697, -1177448.3, -51572.934, 0.0, 9.999903, 9.99918 
6.9494927e+2, 1.9511274e+2, -1074957.4, -1141958.3, -35945.36, -0.014242854, -0.123744175, -1059321.8, -31440.023, 0.0, 10.000075, 9.999186 
6.9497174e+2, 2.0511182e+2, -982280.4, -1072777.8, -44465.516, 0.0049083233, -0.12009562, -964089.1, -34197.63, 0.0, 10.000152, 9.998951 
6.9499403e+2, 2.151105e+2, -885972.0, -974926.2, -43064.64, 0.01581702, -0.14638512, -868539.7, -36635.207, 0.0, 10.000137, 9.998957 
6.950161e+2, 2.2510946e+2, -807521.25, -914482.8, -46052.645, 0.015876684, -0.13008709, -790425.5, -56509.703, 0.0, 10.000124, 9.998706 
6.95038e+2, 2.351087e+2, -710954.75, -816515.3, -43314.016, 0.005184864, -0.07546452, -695457.2, -59531.52, 0.0, 10.000112, 9.998712 
6.9506e+2, 2.451075e+2, -612466.06, -717153.5, -44185.402, 0.0029851664, -0.0635378, -596310.06, -58371.49, 0.0, 10.00011, 9.998721 
6.9508195e+2, 2.551059e+2, -512450.63, -616956.9, -42740.42, 0.008968224, -0.09456456, -497197.22, -57242.973, 0.0, 10.000118, 9.998732 
6.9510394e+2, 2.6510465e+2, -408545.44, -506852.97, -39360.61, 0.009959838, -0.09427491, -394728.2, -52761.613, 0.0, 10.00012, 9.998815 
6.951259e+2, 2.751037e+2, -310675.38, -407935.84, -33580.953, 0.0071391435, -0.070301585, -300207.53, -56231.543, 0.0, 10.000114, 9.998823 
6.95148e+2, 2.8510243e+2, -221115.94, -319557.88, -18722.188, 0.013111527, -0.074611306, -217675.5, -71686.57, 0.0, 10.000081, 9.998774 
6.951704e+2, 2.9510096e+2, -134740.28, -231182.81, -18525.467, 0.025647933, -0.098907016, -131304.17, -83299.95, 0.000000000021633938, 10.000018, 9.998737 
6.951925e+2, 3.051005e+2, -91284.766, -191333.48, 2536.8352, -0.02090142, -0.011793831, -91220.48, -91220.48, 0.00000014519733, 10.000008, 9.998682 
6.9521546e+2, 3.150983e+2, 14195.738, 17362.2, -3793.085, -0.0015173986, -0.10270302, 19889.213, 19889.213, 0.0000015881137, 10.000052, 10.000093 
7.0478684e+2, 1.2509102e+2, -1744176.1, -1698039.4, -80934.67, -0.03892114, -0.20764403, -1636949.8, 77138.48, 0.0, 9.999678, 10.000265 
7.048124e+2, 1.3509114e+2, -1647869.9, -1638253.9, 61662.24, 0.0058319923, -0.18925525, -1581212.5, 34874.88, 0.0, 9.999805, 9.999952 
7.0483583e+2, 1.4509082e+2, -1556134.9, -1558154.5, -24757.254, -0.062037893, -0.2047299, -1532366.9, -14275.813, 0.0, 9.999838, 9.999807 
7.0485914e+2, 1.5509076e+2, -1460773.5, -1460515.0, -28943.48, -0.014593198, -0.19056584, -1431700.5, -11608.068, 0.0, 9.999817, 9.999814 
7.0488185e+2, 1.6509056e+2, -1368229.3, -1394256.5, -40779.863, -0.0071876314, -0.17624164, -1338436.9, -16341.374, 0.0, 9.999904, 9.999554 
7.0490414e+2, 1.7509021e+2, -1241680.3, -1281714.9, -41488.13, -0.03413266, -0.16543198, -1215632.9, 8467.47, 0.0, 10.000096, 9.99956 
7.0492655e+2, 1.8508978e+2, -1154214.9, -1218050.8, -41269.164, -0.036267933, -0.1489701, -1133961.0, -7855.271, 0.0, 10.00015, 9.999299 
7.0494926e+2, 1.9508927e+2, -1067377.5, -1124968.8, -36043.305, -0.016231982, -0.12970246, -1050039.5, -21927.844, 0.0, 10.000072, 9.999304 
7.0497173e+2, 2.0508842e+2, -994251.5, -1071046.4, -44293.094, 0.00079603615, -0.12616836, -974029.5, -43909.082, 0.0, 10.000038, 9.999018 
7.049941e+2, 2.150873e+2, -894127.8, -971449.2, -40296.504, 0.015777983, -0.14034186, -876945.4, -44813.523, 0.0, 10.00005, 9.9990225 
7.050162e+2, 2.2508633e+2, -809024.9, -904355.56, -40907.465, 0.019383984, -0.124702826, -793877.75, -59735.32, 0.0, 10.000068, 9.998802 
7.0503813e+2, 2.3508555e+2, -707254.75, -804019.06, -36298.613, 0.011593917, -0.08289009, -695152.06, -58999.72, 0.0, 10.000092, 9.998807 
7.0506006e+2, 2.450844e+2, -615442.4, -714074.5, -37369.71, 0.0060459715, -0.07244419, -602883.0, -64718.297, 0.0, 10.000071, 9.998761 
7.05082e+2, 2.5508294e+2, -525779.44, -618950.75, -36037.62, 0.0025524048, -0.09426202, -513467.44, -73288.09, 0.0, 10.000009, 9.998771 
7.051039e+2, 2.650818e+2, -423237.9, -502054.75, -34189.277, 0.0036861359, -0.09297034, -410474.22, -68283.32, 0.0, 9.999969, 9.9989195 
7.0512587e+2, 2.7508086e+2, -327439.22, -404231.66, -32333.959, 0.010307514, -0.075317875, -315638.28, -71438.54, 0.0, 9.999949, 9.998928 
7.05148e+2, 2.850797e+2, -238834.4, -326893.16, -18691.855, 0.017031247, -0.077366345, -235031.03, -88819.15, 0.0, 9.999954, 9.998784 
7.0517033e+2, 2.950783e+2, -138846.75, -232197.1, -17347.455, 0.022074824, -0.0923994, -135727.28, -87500.945, 0.0, 9.999987, 9.998746 
7.051924e+2, 3.050777e+2, -94890.55, -199984.95, 2009.8634, -0.027024385, -0.014643964, -94852.125, -94852.125, 0.00000008201181, 10.000013, 9.998619 
7.052154e+2, 3.1507546e+2, 16935.848, 27386.596, -12297.363, -0.008815122, -0.10338595, 35522.723, 35522.723, 0.0000012936833, 10.000034, 10.000171 
7.1478665e+2, 1.2506783e+2, -1755287.3, -1721998.9, -78017.89, -0.032677166, -0.18620469, -1658869.5, 55447.31, 0.0, 9.999681, 10.000099 
7.1481216e+2, 1.3506776e+2, -1656527.8, -1657832.0, 66117.586, 0.0023978716, -0.17201968, -1591059.1, 25258.338, 0.0, 9.999812, 9.999816 
7.1483564e+2, 1.4506729e+2, -1554235.3, -1555595.1, -25778.637, -0.061514046, -0.19680493, -1529127.6, -10805.23, 0.0, 9.999843, 9.999822 
7.1485883e+2, 1.5506718e+2, -1459400.4, -1458054.6, -29597.06, -0.025725655, -0.19170664, -1429122.8, -8798.228, 0.0, 9.999818, 9.999831 
7.1488166e+2, 1.6506702e+2, -1369967.3, -1398151.1, -33329.95, -0.014501764, -0.17160857, -1347872.6, -25545.428, 0.0, 9.999905, 9.999527 
7.149043e+2, 1.7506684e+2, -1242995.0, -1285346.9, -34193.848, -0.023277737, -0.1404107, -1223951.1, 379.4473, 0.0, 10.0001, 9.999535 
7.149269e+2, 1.850664e+2, -1144264.8, -1198276.0, -44429.797, -0.022767492, -0.12936302, -1119277.0, 7058.6, 0.0, 10.000154, 9.9994335 
7.1494937e+2, 1.9506572e+2, -1057720.0, -1105274.5, -39140.84, -0.014599538, -0.14051044, -1035700.25, -7357.7686, 0.0, 10.000072, 9.999438 
7.149717e+2, 2.0506497e+2, -987111.75, -1056530.0, -43989.188, -0.005837886, -0.14020549, -965787.2, -35437.086, 0.0, 10.000038, 9.999117 
7.1499395e+2, 2.1506418e+2, -886973.8, -957049.7, -39965.438, 0.0042915093, -0.13122143, -868862.0, -36503.465, 0.0, 10.0000515, 9.999122 
7.150162e+2, 2.2506331e+2, -800366.75, -886816.7, -40144.14, 0.013963976, -0.11671551, -784600.6, -50232.582, 0.0, 10.000069, 9.998922 
7.1503836e+2, 2.3506239e+2, -698659.8, -786457.5, -35448.71, 0.02316687, -0.10002142, -686134.2, -49755.62, 0.0, 10.000092, 9.998927 
7.1506023e+2, 2.4506132e+2, -612657.1, -708440.5, -39840.773, 0.015846295, -0.09023966, -598251.94, -59861.664, 0.0, 10.000071, 9.9988 
7.150819e+2, 2.5506014e+2, -523242.3, -613805.9, -38427.008, -0.007893133, -0.088829964, -509134.9, -68731.984, 0.0, 10.000009, 9.998806 
7.151037e+2, 2.6505908e+2, -419460.1, -494278.6, -34908.813, -0.0088257585, -0.08132205, -405702.2, -63288.45, 0.0, 9.999969, 9.998974 
7.1512586e+2, 2.750581e+2, -323584.1, -396175.8, -33019.047, 0.013385018, -0.0731128, -310812.2, -66389.22, 0.0, 9.9999485, 9.998983 
7.1514803e+2, 2.8505698e+2, -237054.45, -323238.4, -17548.777, 0.023050606, -0.0745544, -233618.19, -87183.625, 0.0, 9.999954, 9.99881 
7.151702e+2, 2.950557e+2, -137305.98, -229237.19, -16099.092, 0.018587625, -0.08128252, -134568.22, -86120.38, 0.0, 9.999987, 9.998766 
7.151923e+2, 3.0505493e+2, -106070.37, -223761.83, 3142.2114, -0.032138, -0.013315655, -105986.53, -105986.53, 0.00000004119849, 10.000015, 9.998456 
7.152154e+2, 3.1505263e+2, 14757.728, 22232.447, -11082.103, -0.011648719, -0.09160868, 30190.422, 30190.422, 0.0000010048329, 10.000036, 10.000134 
7.2478646e+2, 1.2504452e+2, -1696113.0, -1696663.4, -80247.6, -0.031459756, -0.1726543, -1616140.1, 98406.086, 0.0, 10.000102, 10.000071 
7.24812e+2, 1.3504434e+2, -1628113.6, -1643984.9, 75841.56, -0.0045649027, -0.17114665, -1559793.6, 56753.83, 0.0, 10.000007, 9.999816 
7.248356e+2, 1.4504384e+2, -1539162.3, -1553172.8, -12759.651, -0.05810033, -0.19766936, -1531611.4, -13058.624, 0.0, 9.999969, 9.999778 
7.248587e+2, 1.550438e+2, -1432062.9, -1449716.9, -21143.135, -0.025159223, -0.1788242, -1417978.1, 2576.3467, 0.0, 10.000027, 9.999786 
7.248816e+2, 1.6504368e+2, -1350609.8, -1382166.6, -22431.889, -0.014096291, -0.15512551, -1338962.9, -16406.166, 0.0, 10.0000105, 9.999585 
7.249043e+2, 1.7504352e+2, -1265092.6, -1289501.9, -16911.15, -0.019964993, -0.13035555, -1256442.0, -31882.414, 0.0, 9.999921, 9.999592 
7.249269e+2, 1.8504305e+2, -1180401.0, -1216539.4, -31739.248, -0.018523946, -0.1259788, -1161947.9, -35383.02, 0.0, 9.999909, 9.999426 
7.249494e+2, 1.9504228e+2, -1072393.8, -1113162.1, -37322.457, -0.0113860145, -0.14395313, -1050251.8, -21679.121, 0.0, 9.999975, 9.999431 
7.249717e+2, 2.050416e+2, -980990.3, -1039134.44, -45583.656, -0.004273812, -0.14261414, -955997.1, -25417.604, 0.0, 10.000019, 9.999246 
7.24994e+2, 2.1504101e+2, -879501.56, -939032.3, -39419.1, 0.0034954383, -0.12500694, -859872.1, -27286.467, 0.0, 10.000041, 9.999249 
7.250162e+2, 2.2504024e+2, -804752.3, -883164.25, -42859.957, 0.012760697, -0.1106814, -785871.44, -51277.2, 0.0, 10.000014, 9.998974 
7.2503835e+2, 2.3503928e+2, -717147.4, -789504.6, -43469.4, 0.023510762, -0.102780014, -696770.9, -60165.707, 0.0, 9.99994, 9.99898 
7.2506016e+2, 2.450383e+2, -632370.8, -708074.25, -49267.574, 0.016684584, -0.0919402, -608093.25, -69477.05, 0.0, 9.999893, 9.998887 
7.2508174e+2, 2.5503728e+2, -536821.75, -610618.25, -44306.1, -0.0076121925, -0.0800306, -516061.4, -75434.266, 0.0, 9.999874, 9.998893 
7.251036e+2, 2.650363e+2, -432762.28, -497332.88, -38715.78, -0.008591176, -0.06944746, -414636.75, -71999.49, 0.0, 9.999864, 9.999003 
7.2512573e+2, 2.7503538e+2, -333904.63, -397732.47, -38866.703, 0.014020618, -0.064906485, -315528.2, -70881.555, 0.0, 9.999864, 9.999014 
7.251479e+2, 2.8503424e+2, -240391.53, -318318.44, -20836.332, 0.021180335, -0.0683582, -235170.1, -88512.26, 0.0, 9.999904, 9.998867 
7.251702e+2, 2.95033e+2, -133674.63, -221002.27, -17159.385, 0.011307793, -0.07663019, -130423.914, -81753.586, 0.0, 9.999985, 9.998823 
7.251923e+2, 3.050321e+2, -107688.06, -234689.05, 5336.632, -0.03687556, -0.021099243, -107464.2, -107464.2, 0.000000018939705, 10.000049, 9.998364 
7.2521544e+2, 3.1502995e+2, 25431.73, 28874.264, -4448.433, -0.009706779, -0.07714754, 31922.83, 31922.83, 0.0000007295325, 10.000105, 10.000147 
7.347865e+2, 1.2502114e+2, -1686692.5, -1678893.4, -85370.57, -0.03761031, -0.16777009, -1597333.4, 117442.89, 0.0, 10.000109, 10.000189 
7.348118e+2, 1.3502088e+2, -1617320.5, -1622208.5, 71814.984, -0.0155001, -0.18764779, -1547907.9, 68869.22, 0.0, 10.000009, 9.999965 
7.3483557e+2, 1.4502047e+2, -1546693.0, -1569251.0, -10307.66, -0.051844027, -0.20812656, -1542692.5, -23910.793, 0.0, 9.9999695, 9.999666 
7.348588e+2, 1.5502068e+2, -1439228.0, -1465731.6, -18626.244, -0.0128640225, -0.15147305, -1429620.5, -8838.702, 0.0, 10.000031, 9.999675 
7.3488164e+2, 1.6502063e+2, -1340041.9, -1361206.6, -25769.596, -0.005982979, -0.12611043, -1322766.5, 17.180807, 0.0, 10.000013, 9.999728 
7.3490417e+2, 1.7502025e+2, -1255189.4, -1268975.1, -20204.115, -0.024501853, -0.13558565, -1240734.6, -15947.376, 0.0, 9.999921, 9.999733 
7.3492676e+2, 1.8501969e+2, -1191615.5, -1239626.8, -29151.318, -0.023986598, -0.13947426, -1177857.9, -51064.46, 0.0, 9.9999075, 9.999268 
7.349494e+2, 1.9501893e+2, -1083342.0, -1136115.6, -34830.574, -0.00675925, -0.140082, -1066031.8, -37229.855, 0.0, 9.999976, 9.999273 
7.349718e+2, 2.0501831e+2, -969873.75, -1016445.2, -44988.52, 0.005397716, -0.13313785, -942501.9, -11693.428, 0.0, 10.00002, 9.999402 
7.349941e+2, 2.1501783e+2, -868380.75, -916351.9, -38750.258, 0.013193642, -0.12166228, -846793.4, -13980.255, 0.0, 10.000042, 9.999406 
7.350162e+2, 2.2501712e+2, -805820.25, -885843.5, -45761.613, 0.01567725, -0.106792726, -785044.94, -50223.92, 0.0, 10.000015, 9.998955 
7.3503816e+2, 2.3501623e+2, -718235.1, -792165.56, -46266.145, 0.012774942, -0.091495074, -695980.56, -59148.52, 0.0, 9.999941, 9.998961 
7.3506e+2, 2.4501532e+2, -622915.0, -688738.2, -50024.92, 0.008468099, -0.077839755, -595946.2, -57103.773, 0.0, 9.999894, 9.999021 
7.3508173e+2, 2.5501442e+2, -527372.6, -591175.0, -45042.305, 0.0027994947, -0.06803087, -504078.75, -63226.723, 0.0, 9.999874, 9.999026 
7.3510355e+2, 2.6501352e+2, -432431.8, -496884.78, -38813.15, 0.003815236, -0.057456706, -414210.22, -71348.78, 0.0, 9.999864, 9.999006 
7.3512554e+2, 2.7501258e+2, -333663.34, -397591.94, -38891.844, 0.012026072, -0.05062325, -315285.88, -70415.12, 0.0, 9.999865, 9.999015 
7.351477e+2, 2.8501147e+2, -234122.97, -305535.25, -17724.654, 0.011444667, -0.05860119, -229965.69, -83083.92, 0.0, 9.999904, 9.998955 
7.3517e+2, 2.950102e+2, -127274.96, -207638.64, -14114.452, 0.00052699324, -0.07861934, -124868.09, -75974.2, 0.0, 9.999984, 9.998916 
7.3519224e+2, 3.050092e+2, -109904.41, -239367.56, 7348.136, -0.04140691, -0.037830964, -109488.67, -109488.67, 0.0000000073965225, 10.000048, 9.998333 
7.352156e+2, 3.1500733e+2, 28873.61, 35744.523, -2398.733, -0.0052286717, -0.060385726, 36499.086, 36499.086, 0.0000004773962, 10.000105, 10.000195 
7.447866e+2, 1.249979e+2, -1687180.6, -1688078.8, -70982.62, -0.03615506, -0.16790505, -1616645.6, 98358.47, 0.0, 10.000144, 10.000109 
7.4481183e+2, 1.3499765e+2, -1590208.1, -1614550.8, 70854.87, -0.022810144, -0.1833631, -1530486.8, 86518.664, 0.0, 10.000219, 9.999916 
7.448356e+2, 1.4499722e+2, -1510327.3, -1550293.4, -12725.065, -0.047173068, -0.20254168, -1506619.6, 12390.44, 0.0, 10.000214, 9.999679 
7.448589e+2, 1.5499747e+2, -1416966.5, -1453686.5, -11335.839, -0.008817689, -0.14507742, -1413749.0, 7260.8306, 0.0, 10.000179, 9.999685 
7.4488175e+2, 1.6499738e+2, -1320345.4, -1353253.1, -22201.088, -0.0032738184, -0.12010323, -1309165.6, 13845.901, 0.0, 10.000155, 9.999714 
7.4490416e+2, 1.7499697e+2, -1223610.0, -1255503.0, -28781.676, -0.02297668, -0.13105513, -1206652.5, 18363.012, 0.0, 10.000146, 9.999717 
7.4492675e+2, 1.8499638e+2, -1162932.4, -1227713.5, -36209.266, -0.021821285, -0.13685302, -1146740.4, -19718.424, 0.0, 10.0001135, 9.99925 
7.449494e+2, 1.949956e+2, -1072283.1, -1132855.8, -31311.826, -0.0024624649, -0.14009474, -1059007.0, -29975.986, 0.0, 10.000061, 9.999254 
7.449719e+2, 2.04995e+2, -972461.56, -1013083.25, -42410.38, 0.009871022, -0.1309011, -945749.3, -14712.003, 0.0, 9.999983, 9.999442 
7.449941e+2, 2.1499461e+2, -889302.25, -921710.44, -44921.41, 0.01593035, -0.11236282, -857751.7, -24710.564, 0.0, 9.999879, 9.999447 
7.450161e+2, 2.2499397e+2, -827555.4, -889237.3, -52774.06, 0.015394355, -0.09689873, -797271.4, -62222.855, 0.0, 9.999837, 9.999018 
7.45038e+2, 2.3499309e+2, -726216.6, -789020.06, -47407.832, 0.008037771, -0.0871425, -700753.8, -63694.5, 0.0, 9.999857, 9.9990225 
7.450598e+2, 2.4499223e+2, -622342.25, -680213.56, -49965.824, 0.0054726903, -0.07437235, -593538.4, -54469.29, 0.0, 9.999864, 9.999093 
7.450816e+2, 2.5499144e+2, -524751.94, -581638.25, -49575.39, 0.0077189715, -0.0612039, -496039.75, -54962.11, 0.0, 9.999857, 9.9991 
7.451035e+2, 2.649906e+2, -428229.63, -490885.2, -43141.453, 0.006781341, -0.049703036, -406241.25, -63154.793, 0.0, 9.999876, 9.999042 
7.451253e+2, 2.7498972e+2, -322837.16, -388441.56, -40996.832, 0.0032725325, -0.04388032, -303134.84, -58039.293, 0.0, 9.999923, 9.999049 
7.451475e+2, 2.849886e+2, -229683.8, -302338.03, -21422.523, 0.0029415595, -0.05204401, -223837.66, -76731.37, 0.0, 9.99993, 9.998963 
7.4516994e+2, 2.9498732e+2, -138826.28, -212084.05, -23928.549, 0.004265322, -0.07290035, -131703.02, -82584.74, 0.0, 9.9999, 9.998925 
7.4519235e+2, 3.0498618e+2, -120740.77, -237630.67, 358.91736, -0.035738125, -0.050526857, -120739.67, -120739.67, 0.0000000015345106, 9.999945, 9.998394 
7.452156e+2, 3.149846e+2, 32768.188, 51038.918, -2965.8755, -0.012165633, -0.05313284, 51508.31, 51508.31, 0.00000026410652, 10.000074, 10.000314 
7.547868e+2, 1.2497485e+2, -1708649.8, -1731974.5, -67957.47, -0.028386725, -0.1740718, -1651361.3, 63868.38, 0.0, 10.000141, 9.999809 
7.5481194e+2, 1.3497464e+2, -1608590.4, -1653501.3, 73223.375, -0.026874822, -0.15704814, -1554456.6, 62775.383, 0.0, 10.000222, 9.999647 
7.548359e+2, 1.4497413e+2, -1499632.5, -1529372.6, -14545.79, -0.044685468, -0.17973831, -1493701.1, 25536.568, 0.0, 10.000218, 9.999821 
7.548591e+2, 1.5497412e+2, -1406454.1, -1432775.5, -12636.249, -0.013590477, -0.16038759, -1401369.9, 19868.406, 0.0, 10.000182, 9.999828 
7.5488186e+2, 1.64974e+2, -1332601.0, -1379586.3, -22506.3, -0.006402428, -0.13831747, -1323560.0, -319.62372, 0.0, 10.000159, 9.999532 
7.549044e+2, 1.7497374e+2, -1235945.5, -1282041.4, -29210.875, -0.015507823, -0.11671864, -1221784.9, 3459.3594, 0.0, 10.000149, 9.999534 
7.549269e+2, 1.8497317e+2, -1153857.5, -1209583.1, -38398.754, -0.0120591335, -0.11761107, -1134277.8, -7027.0874, 0.0, 10.000115, 9.999374 
7.5494945e+2, 1.9497226e+2, -1063466.6, -1115046.3, -33422.62, 0.0013950403, -0.14401758, -1047040.5, -17780.814, 0.0, 10.000062, 9.999376 
7.549718e+2, 2.0497169e+2, -977691.75, -1024368.06, -46489.91, 0.009004209, -0.1361409, -949010.9, -17744.879, 0.0, 9.999984, 9.999365 
7.549939e+2, 2.1497142e+2, -894398.75, -932763.56, -49014.96, 0.0116058, -0.09718784, -860946.3, -27676.68, 0.0, 9.99988, 9.999371 
7.5501585e+2, 2.2497083e+2, -817431.75, -868606.06, -52085.082, 0.011708917, -0.08091963, -784988.25, -49711.6, 0.0, 9.999838, 9.999159 
7.550378e+2, 2.3496988e+2, -716292.9, -768761.6, -46706.758, 0.008957421, -0.08960494, -688957.06, -51669.992, 0.0, 9.999858, 9.999162 
7.5505966e+2, 2.4496907e+2, -621322.4, -678364.6, -50266.83, 0.007465286, -0.08135239, -592048.94, -52752.746, 0.0, 9.999864, 9.999105 
7.550814e+2, 2.5496837e+2, -523855.3, -579868.4, -49943.508, 0.0072090444, -0.05910118, -494601.72, -53297.77, 0.0, 9.999857, 9.999112 
7.5510323e+2, 2.649676e+2, -423799.3, -481699.8, -41524.645, 0.0004320344, -0.045741282, -402129.28, -58817.043, 0.0, 9.999875, 9.999105 
7.5512505e+2, 2.7496672e+2, -318150.8, -378792.1, -39360.266, -0.012198827, -0.044798043, -298786.72, -53465.668, 0.0, 9.999923, 9.999116 
7.5514734e+2, 2.8496563e+2, -234518.17, -312574.53, -22929.252, -0.0047784843, -0.048868746, -228281.03, -80949.55, 0.0, 9.999931, 9.998894 
7.5517e+2, 2.949644e+2, -143776.61, -222753.31, -25365.508, 0.021045562, -0.058878563, -136331.61, -86988.19, 0.0, 9.999901, 9.998852 
7.551924e+2, 3.0496308e+2, -110080.68, -216191.08, 5046.2, -0.021084595, -0.05827099, -109841.24, -109841.24, 0.00000000001992495, 9.999947, 9.998541 
7.5521547e+2, 3.1496167e+2, 46047.266, 77954.26, 1616.1979, -0.030871464, -0.056920562, 78035.92, 78035.92, 0.000000109993245, 10.000076, 10.000499 
7.647871e+2, 1.2495173e+2, -1662844.1, -1722734.0, -76210.32, -0.03472974, -0.17437646, -1610906.8, 104549.27, 0.0, 10.000511, 9.999694 
7.6481223e+2, 1.3495152e+2, -1587561.9, -1652803.3, 78045.9, -0.025400499, -0.1485844, -1535593.8, 81865.26, 0.0, 10.000408, 9.999562 
7.6483625e+2, 1.4495096e+2, -1483042.9, -1517906.0, -7123.779, -0.032741867, -0.17351653, -1481643.4, 37821.746, 0.0, 10.000318, 9.999851 
7.648592e+2, 1.5495087e+2, -1388128.6, -1420526.0, -13498.754, -0.019407852, -0.16658343, -1383241.4, 38224.57, 0.0, 10.000294, 9.999858 
7.6488197e+2, 1.649507e+2, -1323266.9, -1384264.6, -23642.234, -0.013525896, -0.14608695, -1315176.4, 8292.071, 0.0, 10.000263, 9.99945 
7.649047e+2, 1.7495044e+2, -1229965.5, -1288330.3, -22842.102, -0.0072290967, -0.115047954, -1222088.8, 3384.017, 0.0, 10.00023, 9.999452 
7.6492715e+2, 1.8494989e+2, -1144578.5, -1198001.8, -32969.934, -0.0021089138, -0.11239812, -1128857.5, -1378.4681, 0.0, 10.000149, 9.999437 
7.6494944e+2, 1.9494903e+2, -1065244.3, -1108796.6, -32500.6, -0.00093472266, -0.1413959, -1047899.0, -18411.85, 0.0, 10.00002, 9.999439 
7.649717e+2, 2.0494846e+2, -986086.6, -1036245.8, -45867.15, 0.0028122948, -0.13269106, -958890.2, -27396.656, 0.0, 9.999961, 9.999294 
7.649938e+2, 2.1494816e+2, -886315.0, -936805.44, -48165.73, 0.010284038, -0.0891786, -857179.5, -23681.252, 0.0, 9.99997, 9.999299 
7.650158e+2, 2.2494759e+2, -796793.9, -850823.6, -52896.902, 0.014514363, -0.071887866, -764412.75, -28907.379, 0.0, 9.999947, 9.9992285 
7.650377e+2, 2.3494668e+2, -707089.6, -756591.8, -53055.61, 0.01504754, -0.08321887, -673295.75, -35780.906, 0.0, 9.999888, 9.99923 
7.650596e+2, 2.449459e+2, -624392.56, -679179.2, -59626.7, 0.012780224, -0.07612934, -586167.75, -46644.31, 0.0, 9.999841, 9.999111 
7.650812e+2, 2.5494522e+2, -530948.6, -582642.8, -60060.344, 0.007510497, -0.053593017, -491409.84, -49878.652, 0.0, 9.999806, 9.999118 
7.6510304e+2, 2.649444e+2, -434940.5, -491853.34, -52910.816, -0.0018359472, -0.04302606, -403319.28, -59779.195, 0.0, 9.99982, 9.999062 
7.651249e+2, 2.7494338e+2, -326949.97, -388015.38, -58836.832, -0.014646343, -0.047818486, -291195.28, -45645.074, 0.0, 9.999884, 9.99907 
7.651472e+2, 2.8494242e+2, -229925.5, -304639.6, -44058.406, -0.006224393, -0.045476146, -209518.44, -61958.41, 0.0, 9.999938, 9.998944 
7.651699e+2, 2.949414e+2, -127853.83, -209253.14, -37704.895, 0.021942843, -0.037950136, -113072.67, -63503.113, 0.0, 9.999986, 9.998903 
7.651924e+2, 3.0493987e+2, -102095.59, -216854.8, -6785.0854, -0.016964613, -0.056734554, -101695.82, -101695.82, 0.0, 10.000021, 9.9985 
7.652155e+2, 3.1493843e+2, 39366.45, 70480.33, -24054.492, -0.02690217, -0.05373331, 83570.15, 83570.15, 0.000000028836135, 10.00005, 10.00046 
7.747873e+2, 1.2492857e+2, -1656486.1, -1710934.8, -80048.99, -0.057653062, -0.16858733, -1599158.6, 116524.8, 0.0, 10.000517, 9.999772 
7.748127e+2, 1.3492833e+2, -1579354.1, -1636527.3, 73316.98, -0.018455228, -0.158881, -1529247.9, 88438.29, 0.0, 10.000411, 9.999673 
7.748367e+2, 1.4492775e+2, -1488943.4, -1530817.8, -8305.103, -0.010974625, -0.18494561, -1487356.4, 32335.703, 0.0, 10.00032, 9.999762 
7.748594e+2, 1.5492772e+2, -1394081.0, -1433633.8, -14458.722, -0.026542498, -0.16338019, -1389359.3, 32333.643, 0.0, 10.000297, 9.999767 
7.748821e+2, 1.6492753e+2, -1321424.3, -1381165.4, -25050.252, -0.02512541, -0.14281975, -1312310.6, 11385.176, 0.0, 10.000265, 9.99947 
7.749049e+2, 1.7492715e+2, -1228196.9, -1285253.3, -24080.82, 0.0016888436, -0.1263088, -1219392.1, 6309.0483, 0.0, 10.000232, 9.999472 
7.749274e+2, 1.849266e+2, -1144290.9, -1197878.9, -37852.344, 0.007971151, -0.12173358, -1124709.0, 2997.9565, 0.0, 10.000151, 9.999438 
7.7494943e+2, 1.9492593e+2, -1065046.9, -1108730.6, -37490.934, -0.009663644, -0.1322777, -1043499.44, -13786.227, 0.0, 10.000021, 9.99944 
7.749715e+2, 2.0492536e+2, -990584.2, -1045849.4, -45647.957, -0.009043872, -0.12035487, -964856.7, -33136.836, 0.0, 9.999961, 9.9992285 
7.749937e+2, 2.149249e+2, -890934.25, -946765.25, -47939.387, 0.01171146, -0.08832453, -863374.94, -29647.85, 0.0, 9.999971, 9.999231 
7.7501583e+2, 2.2492427e+2, -797000.75, -851658.6, -55217.664, 0.023634523, -0.06994903, -762719.1, -26984.516, 0.0, 9.999948, 9.999223 
7.750377e+2, 2.3492351e+2, -707129.06, -757055.7, -55286.14, 0.026141517, -0.0681472, -671431.6, -33689.04, 0.0, 9.999889, 9.999228 
7.7505946e+2, 2.4492273e+2, -624483.2, -679778.44, -60975.324, 0.021211158, -0.058854453, -585180.25, -45429.414, 0.0, 9.999842, 9.999106 
7.7508104e+2, 2.5492197e+2, -530881.8, -583128.0, -61371.117, 0.008268488, -0.044985335, -490305.38, -48546.047, 0.0, 9.999808, 9.999113 
7.7510285e+2, 2.6492098e+2, -445037.0, -513437.84, -50584.91, -0.0006042423, -0.041606322, -418175.97, -74406.01, 0.0, 9.999822, 9.998913 
7.751249e+2, 2.749198e+2, -337527.63, -410297.13, -56350.48, -0.0048395395, -0.05196691, -306836.1, -61053.29, 0.0, 9.999885, 9.998918 
7.7514714e+2, 2.8491887e+2, -218465.88, -281049.03, -42232.094, -0.0018872314, -0.041082457, -197195.94, -49404.188, 0.0, 9.999938, 9.999106 
7.7516973e+2, 2.9491827e+2, -115783.37, -184507.39, -36026.348, 0.007232201, -0.01114582, -100359.38, -50562.64, 0.0, 9.999987, 9.999073 
7.751923e+2, 3.0491656e+2, -117316.48, -248807.0, -5830.777, -0.023713533, -0.04693021, -117058.43, -117058.43, 0.0, 10.000022, 9.998281 
7.7521574e+2, 3.1491485e+2, 22026.68, 34652.5, -22799.156, -0.0034353607, -0.04505924, 51996.605, 51996.605, 0.0000000029769756, 10.000048, 10.000215 
7.8478783e+2, 1.24905474e+2, -1648970.9, -1707533.6, -68290.12, -0.054274607, -0.17379808, -1603949.3, 111960.08, 0.0, 10.000569, 9.99977 
7.8481305e+2, 1.3490522e+2, -1564214.0, -1625864.4, 76984.266, -0.023772212, -0.16816016, -1512112.9, 105799.02, 0.0, 10.000501, 9.999702 
7.848372e+2, 1.4490464e+2, -1482505.1, -1539497.8, -6140.1543, -0.005254702, -0.18992616, -1481851.1, 38066.934, 0.0, 10.000415, 9.999657 
7.848598e+2, 1.5490463e+2, -1391151.0, -1444109.0, -13164.245, -0.01693912, -0.15624319, -1388059.1, 33859.977, 0.0, 10.000367, 9.999661 
7.848824e+2, 1.6490439e+2, -1314447.6, -1376310.9, -25361.033, -0.016422972, -0.13505669, -1305379.9, 18542.771, 0.0, 10.000307, 9.999483 
7.8490514e+2, 1.7490391e+2, -1227302.9, -1283412.1, -24946.873, 0.004969992, -0.1296112, -1217815.4, 8113.2104, 0.0, 10.000232, 9.999484 
7.849275e+2, 1.8490334e+2, -1141048.9, -1197881.6, -40456.227, 0.009366777, -0.12988116, -1120026.5, 7908.148, 0.0, 10.00018, 9.999424 
7.849495e+2, 1.9490264e+2, -1046549.94, -1101413.3, -41431.305, -0.006649011, -0.1389844, -1024292.06, 5648.754, 0.0, 10.000155, 9.999425 
7.8497154e+2, 2.0490208e+2, -975114.75, -1045816.44, -48759.24, -0.0067093605, -0.12245734, -950239.8, -18292.152, 0.0, 10.0001, 9.999162 
7.849937e+2, 2.1490164e+2, -889811.75, -953843.06, -51251.723, 0.011014197, -0.081717715, -861397.75, -27442.504, 0.0, 10.000012, 9.999162 
7.850157e+2, 2.24901e+2, -794782.75, -849371.94, -58058.64, 0.021815935, -0.062391203, -757922.8, -21959.656, 0.0, 9.999958, 9.999232 
7.850376e+2, 2.3490016e+2, -699020.3, -751694.7, -57210.758, 0.025112847, -0.068510756, -662375.6, -24404.186, 0.0, 9.99994, 9.999239 
7.8505933e+2, 2.4489936e+2, -610775.4, -676379.56, -61703.566, 0.020689787, -0.061344523, -573696.8, -33716.977, 0.0, 9.99995, 9.999078 
7.8508085e+2, 2.548986e+2, -506356.7, -574813.2, -64246.863, 0.0079112705, -0.043079782, -467789.13, -25800.752, 0.0, 9.999992, 9.999082 
7.851027e+2, 2.6489764e+2, -422024.88, -506256.56, -50051.816, -0.0015010544, -0.03664517, -398727.2, -54728.0, 0.0, 9.999997, 9.998878 
7.851248e+2, 2.748964e+2, -328020.9, -409775.88, -47456.48, -0.0069668777, -0.045094535, -306263.84, -60251.434, 0.0, 9.999968, 9.998881 
7.85147e+2, 2.848955e+2, -219384.39, -285442.8, -35952.945, -0.0073430617, -0.03141507, -203592.05, -55570.46, 0.0, 9.999949, 9.999071 
7.8516954e+2, 2.948949e+2, -125102.664, -192899.84, -44504.74, -0.0035311321, 0.0011759095, -103056.76, -53029.965, 0.0, 9.999939, 9.999039 
7.851922e+2, 3.0489302e+2, -122765.375, -243349.67, -11117.851, -0.027883062, -0.051790304, -121748.88, -121748.88, 0.0, 9.99995, 9.998352 
7.8521585e+2, 3.1489158e+2, 16332.854, 35313.418, -7240.141, 0.0066700717, -0.03340767, 37759.848, 37759.848, 0.0, 9.999994, 10.000244 
7.947887e+2, 1.2488246e+2, -1655279.6, -1720885.9, -69248.87, -0.02389065, -0.19105648, -1611457.4, 104676.05, 0.0, 10.000569, 9.99968 
7.9481333e+2, 1.3488223e+2, -1568228.1, -1634512.8, 73850.4, -0.04212925, -0.17615038, -1520424.3, 97711.836, 0.0, 10.000502, 9.999642 
7.948374e+2, 1.4488168e+2, -1490927.8, -1557536.0, -8471.289, -0.016931208, -0.18788187, -1489867.3, 30275.365, 0.0, 10.000417, 9.999532 
7.948604e+2, 1.5488163e+2, -1399551.3, -1462031.8, -14962.459, 0.009869156, -0.14491469, -1396152.9, 25991.785, 0.0, 10.000369, 9.999537 
7.94883e+2, 1.6488135e+2, -1313953.6, -1375717.1, -28137.328, 0.013469611, -0.122606896, -1303057.5, 21091.188, 0.0, 10.000308, 9.999487 
7.949053e+2, 1.748808e+2, -1226807.5, -1282743.3, -27777.707, 0.0024173423, -0.12461261, -1215357.1, 10797.696, 0.0, 10.000233, 9.999489 
7.949276e+2, 1.8488008e+2, -1143309.9, -1202896.8, -41503.32, 0.0014869162, -0.13663915, -1122013.4, 6148.3833, 0.0, 10.000181, 9.99939 
7.9494977e+2, 1.948792e+2, -1048715.9, -1106405.1, -42489.176, 0.008041705, -0.16177459, -1026205.44, 3964.3896, 0.0, 10.000156, 9.999391 
7.949718e+2, 2.0487864e+2, -979751.2, -1055955.6, -52268.766, 0.009964202, -0.13931711, -953171.06, -20994.25, 0.0, 10.000102, 9.999091 
7.9499364e+2, 2.1487843e+2, -894645.75, -964267.56, -54766.65, 0.008146106, -0.06950883, -864563.0, -30380.158, 0.0, 10.000013, 9.99909 
7.950155e+2, 2.2487776e+2, -793016.06, -846049.06, -58910.984, 0.0089428695, -0.04916152, -754928.94, -18737.979, 0.0, 9.999959, 9.999255 
7.950373e+2, 2.3487666e+2, -697062.5, -748034.94, -57978.367, 0.0118900845, -0.08404575, -659215.94, -21014.596, 0.0, 9.999941, 9.999264 
7.9505914e+2, 2.4487579e+2, -614572.0, -684637.9, -60234.875, 0.0111219315, -0.08321365, -579923.2, -39712.715, 0.0, 9.999951, 9.999021 
7.950809e+2, 2.5487515e+2, -510462.16, -583509.44, -62656.35, 0.0063492963, -0.047369033, -474461.34, -32243.057, 0.0, 9.999992, 9.9990225 
7.9510266e+2, 2.648743e+2, -416945.34, -495936.6, -51232.363, -0.0045188344, -0.027960239, -391752.0, -47524.16, 0.0, 9.999997, 9.998949 
7.951246e+2, 2.7487323e+2, -322554.84, -398983.7, -48594.24, -0.021187792, -0.028151602, -298949.03, -52709.75, 0.0, 9.9999695, 9.998955 
7.9514676e+2, 2.8487223e+2, -234828.13, -317991.9, -36329.57, -0.022996707, -0.016850365, -221193.25, -72943.54, 0.0, 9.99995, 9.998847 
7.9516935e+2, 2.9487124e+2, -141227.2, -226146.55, -44718.383, -0.010685097, 0.0012417543, -122022.0, -71762.51, 0.0, 9.999937, 9.998811 
7.951921e+2, 3.0486923e+2, -99749.305, -194897.48, -9366.089, -0.029567784, -0.06920392, -98836.1, -98836.1, 0.0, 9.999947, 9.998687 
7.9521585e+2, 3.1486842e+2, 35332.58, 75881.43, -5459.712, 0.0026713563, -0.022026176, 76603.69, 76603.69, 0.0, 9.999989, 10.000526 
8.047893e+2, 1.2485939e+2, -1653275.6, -1733603.0, -75221.66, -0.020977912, -0.20459078, -1608166.6, 108191.73, 0.0, 10.000642, 9.9995575 
8.048139e+2, 1.3485909e+2, -1548557.8, -1635335.9, 62818.0, -0.043214206, -0.18762614, -1515600.9, 102761.31, 0.0, 10.000682, 9.999551 
8.04838e+2, 1.448585e+2, -1461860.8, -1546370.9, -18990.076, -0.008635048, -0.19609925, -1457789.6, 62579.477, 0.0, 10.000629, 9.999506 
8.048609e+2, 1.5485844e+2, -1378087.4, -1454430.9, -17564.4, 0.017110644, -0.15104364, -1374240.1, 48131.12, 0.0, 10.000528, 9.999513 
8.048834e+2, 1.6485812e+2, -1292455.0, -1369467.5, -27185.928, 0.017571194, -0.12922107, -1283825.3, 40550.348, 0.0, 10.000474, 9.99945 
8.0490565e+2, 1.748575e+2, -1194758.0, -1271495.5, -30152.223, 0.001352131, -0.1345877, -1184328.0, 42054.25, 0.0, 10.000471, 9.999451 
8.049279e+2, 1.8485677e+2, -1115526.6, -1194436.4, -47764.266, 0.001962766, -0.145133, -1093029.0, 35360.64, 0.0, 10.000393, 9.999345 
8.0495e+2, 1.9485591e+2, -1040984.5, -1107793.6, -49635.496, 0.017111164, -0.16341588, -1014559.75, 15838.14, 0.0, 10.000233, 9.999345 
8.04972e+2, 2.0485534e+2, -976243.7, -1055900.1, -56717.094, 0.01978339, -0.14064343, -946767.4, -14362.178, 0.0, 10.0001335, 9.999076 
8.049937e+2, 2.1485502e+2, -882998.25, -960247.1, -55157.434, 0.010307035, -0.07779673, -854286.3, -19874.613, 0.0, 10.000101, 9.999075 
8.0501544e+2, 2.2485432e+2, -778751.9, -843489.94, -58005.5, 0.00418894, -0.057997216, -744695.06, -8274.867, 0.0, 10.000076, 9.999216 
8.0503726e+2, 2.3485325e+2, -682705.1, -745484.25, -62063.027, 0.0010405139, -0.0861224, -644545.25, -6114.453, 0.0, 10.000059, 9.999225 
8.05059e+2, 2.4485241e+2, -601425.9, -675266.94, -63141.125, 0.00043274782, -0.08287609, -565203.2, -24763.408, 0.0, 10.000029, 9.999047 
8.0508083e+2, 2.5485176e+2, -509166.22, -579697.75, -59383.84, 0.0025907473, -0.049809773, -475365.97, -32918.832, 0.0, 9.999988, 9.99905 
8.051026e+2, 2.648509e+2, -421943.72, -500213.66, -48188.26, -0.00599404, -0.031994406, -399000.88, -54544.242, 0.0, 9.999971, 9.998932 
8.0512446e+2, 2.7484983e+2, -322229.34, -400846.7, -52288.31, -0.025517939, -0.03202149, -296122.13, -49653.793, 0.0, 9.99998, 9.998937 
8.051467e+2, 2.8484884e+2, -239156.6, -325872.1, -38801.832, -0.02838488, -0.015062746, -224329.48, -75850.72, 0.0, 9.999946, 9.9987955 
8.051692e+2, 2.948479e+2, -154726.2, -238153.19, -34728.082, -0.015216868, 0.013428549, -142162.13, -91673.734, 0.0, 9.999868, 9.998761 
8.0519193e+2, 3.0484575e+2, -116276.05, -190991.6, -341.02765, -0.029668918, -0.07359986, -116274.49, -116274.49, 0.0, 9.999783, 9.998792 
8.0521566e+2, 3.1484506e+2, -7983.0493, 57982.375, -13504.082, 0.0066708913, -0.02561593, 60639.8, 60639.8, 0.0, 9.99968, 10.000552 
8.1478965e+2, 1.24836266e+2, -1663878.0, -1755973.9, -71919.95, -0.050809227, -0.21390443, -1624527.5, 92056.516, 0.0, 10.000643, 9.999404 
8.148147e+2, 1.3483576e+2, -1557278.6, -1654011.5, 63502.41, -0.026467184, -0.2030091, -1525821.0, 92768.95, 0.0, 10.000684, 9.999421 
8.1483895e+2, 1.4483511e+2, -1455890.1, -1534953.1, -23107.35, 0.020913145, -0.21540652, -1449632.0, 70965.484, 0.0, 10.000632, 9.999583 
8.1486124e+2, 1.548351e+2, -1372020.5, -1442759.9, -21322.117, 0.0037656229, -0.17529275, -1366090.8, 56507.895, 0.0, 10.000531, 9.999592 
8.1488365e+2, 1.6483475e+2, -1297755.9, -1381305.8, -27386.559, -0.005685564, -0.15561453, -1289579.1, 35023.86, 0.0, 10.000477, 9.999368 
8.149061e+2, 1.7483404e+2, -1200144.0, -1283513.1, -30263.564, 0.0014151827, -0.16030347, -1190316.6, 36294.195, 0.0, 10.000474, 9.999367 
8.1492835e+2, 1.848334e+2, -1119201.9, -1202768.3, -53817.055, 0.010862434, -0.15567529, -1092852.0, 35766.05, 0.0, 10.000396, 9.999287 
8.149502e+2, 1.9483279e+2, -1044802.94, -1116201.0, -55891.43, 0.020344181, -0.14361323, -1014182.5, 16442.277, 0.0, 10.000234, 9.999287 
8.149721e+2, 2.0483214e+2, -973633.75, -1050853.5, -58255.777, 0.022412777, -0.12609136, -942354.75, -9722.1045, 0.0, 10.000134, 9.99911 
8.1499386e+2, 2.1483144e+2, -880187.56, -954792.8, -56590.824, 0.017275523, -0.106391676, -849711.06, -15069.302, 0.0, 10.000102, 9.999113 
8.1501555e+2, 2.2483069e+2, -785702.0, -858273.6, -58858.832, 0.0074061593, -0.08889291, -752842.9, -16192.015, 0.0, 10.000077, 9.999115 
8.150372e+2, 2.3482995e+2, -689881.8, -760714.2, -62760.93, -0.007595465, -0.075098395, -653233.9, -14574.16, 0.0, 10.000059, 9.99912 
8.150589e+2, 2.4482918e+2, -594028.2, -660201.3, -64724.85, -0.011549919, -0.06071956, -554423.44, -13755.694, 0.0, 10.00003, 9.999151 
8.150807e+2, 2.5482842e+2, -501336.03, -563898.0, -60969.99, -0.0037180288, -0.050397277, -464090.8, -21415.813, 0.0, 9.9999895, 9.999159 
8.151025e+2, 2.6482743e+2, -428725.63, -514827.72, -47922.2, -0.006548929, -0.048152905, -407356.72, -62671.18, 0.0, 9.999972, 9.998831 
8.1512445e+2, 2.7482617e+2, -329610.16, -416383.16, -51777.375, -0.020521915, -0.055143837, -305444.56, -58745.125, 0.0, 9.99998, 9.99883 
8.151467e+2, 2.8482533e+2, -231663.44, -310509.6, -41658.742, -0.024167232, -0.025000807, -213731.22, -65022.457, 0.0, 9.999946, 9.998901 
8.151691e+2, 2.948248e+2, -146436.53, -221572.66, -37597.61, -0.01845416, 0.036597487, -130854.44, -80140.586, 0.0, 9.99987, 9.998875 
8.151917e+2, 3.048225e+2, -123674.15, -206745.81, -4020.321, -0.029457, -0.06598144, -123480.04, -123480.04, 0.0, 9.9997835, 9.998684 
8.152154e+2, 3.1482145e+2, -23292.951, 27379.182, -17008.736, 0.017451812, -0.044940855, 32558.904, 32558.904, 0.0000000016901937, 9.999674, 10.000345 
8.247903e+2, 1.248131e+2, -1636991.1, -1742080.1, -80459.914, -0.058312774, -0.21284623, -1593438.1, 123372.84, 0.0, 10.000824, 9.999412 
8.2481545e+2, 1.348126e+2, -1547946.3, -1645527.4, 64303.547, -0.020753587, -0.20659064, -1516018.4, 102798.195, 0.0, 10.000731, 9.999456 
8.2483965e+2, 1.4481188e+2, -1454556.5, -1537810.5, -20760.158, 0.03649078, -0.22423838, -1449667.0, 71157.24, 0.0, 10.000657, 9.999552 
8.248619e+2, 1.5481174e+2, -1357500.0, -1439612.9, -27387.834, 0.0041603553, -0.19332734, -1349203.4, 73623.02, 0.0, 10.0006485, 9.9995575 
8.248841e+2, 1.6481137e+2, -1284919.8, -1373673.5, -35495.094, -0.010065768, -0.17527215, -1272470.5, 52360.57, 0.0, 10.000559, 9.99938 
8.249065e+2, 1.7481077e+2, -1212493.1, -1288127.0, -31159.14, 0.0031060076, -0.17318375, -1201309.9, 25528.336, 0.0, 10.000384, 9.999379 
8.2492864e+2, 1.8481018e+2, -1138933.3, -1218439.3, -50801.695, 0.014568297, -0.15848875, -1114179.5, 14665.541, 0.0, 10.000287, 9.999231 
8.249505e+2, 1.9480965e+2, -1042827.8, -1121545.6, -52858.74, 0.021778028, -0.13325888, -1016284.0, 14567.722, 0.0, 10.000275, 9.999229 
8.249722e+2, 2.0480895e+2, -956714.06, -1036965.6, -53614.145, 0.021935204, -0.12089263, -929873.06, 2986.9136, 0.0, 10.000226, 9.999161 
8.2499397e+2, 2.1480805e+2, -871769.7, -944800.4, -50822.7, 0.0153356185, -0.12560129, -845704.56, -10834.55, 0.0, 10.000134, 9.999166 
8.2501554e+2, 2.248073e+2, -791679.44, -866782.2, -49895.508, 0.0061164144, -0.10768058, -766783.5, -29904.582, 0.0, 10.000061, 9.9990635 
8.250372e+2, 2.3480676e+2, -701490.75, -772240.6, -50189.59, -0.005866861, -0.06693874, -675462.25, -36575.715, 0.0, 10.000006, 9.999066 
8.250589e+2, 2.4480602e+2, -598868.5, -663273.1, -52908.727, -0.011088684, -0.050168637, -569132.75, -28237.996, 0.0, 10.0, 9.999144 
8.2508063e+2, 2.54805e+2, -492908.78, -560327.6, -57651.426, -0.009353965, -0.064216785, -459834.88, -16931.133, 0.0, 10.00005, 9.999154 
8.2510245e+2, 2.6480386e+2, -421601.0, -514499.53, -47973.758, -0.01199793, -0.07357359, -401274.4, -56359.215, 0.0, 10.000035, 9.998802 
8.2512444e+2, 2.7480263e+2, -335561.72, -422360.78, -46489.7, -0.01903737, -0.07810794, -315362.4, -68433.3, 0.0, 9.999953, 9.998801 
8.2514656e+2, 2.848018e+2, -238172.42, -315480.94, -37993.32, -0.022109581, -0.04014228, -222626.64, -73688.61, 0.0, 9.999909, 9.998884 
8.251689e+2, 2.948014e+2, -142871.03, -221225.31, -43147.824, -0.022334326, 0.03445023, -123767.96, -72825.664, 0.0, 9.999902, 9.998862 
8.251914e+2, 3.0479908e+2, -122038.914, -198196.53, -13960.846, -0.033247147, -0.07869116, -119560.34, -119560.34, 0.0, 9.999762, 9.998753 
8.25215e+2, 3.14798e+2, -54634.137, 8021.3193, -14492.214, 0.015421408, -0.059613515, 11210.99, 11210.99, 0.000000023716037, 9.999476, 10.000306 
8.3479124e+2, 1.2478992e+2, -1623899.1, -1715863.8, -81666.0, -0.04482866, -0.20076334, -1576160.0, 140879.31, 0.0, 10.000827, 9.999591 
8.348161e+2, 1.347896e+2, -1533229.3, -1615366.5, 60256.074, -0.02703121, -0.19706713, -1501377.3, 117664.25, 0.0, 10.000732, 9.999662 
8.3484036e+2, 1.4478886e+2, -1464658.4, -1559240.0, -21379.23, 0.036740787, -0.22155811, -1460050.4, 60998.438, 0.0, 10.000659, 9.999405 
8.348626e+2, 1.5478842e+2, -1368030.9, -1462080.8, -27699.092, 0.018620243, -0.2050129, -1360479.4, 62574.97, 0.0, 10.00065, 9.999402 
8.3488476e+2, 1.6478801e+2, -1277049.5, -1357983.0, -42084.69, 0.005221323, -0.18805422, -1259132.4, 65927.195, 0.0, 10.000561, 9.999487 
8.3490694e+2, 1.7478763e+2, -1204621.3, -1272127.6, -37768.55, 0.0064215213, -0.17265724, -1187721.3, 39342.953, 0.0, 10.000385, 9.999489 
8.349289e+2, 1.8478714e+2, -1142728.1, -1226513.8, -51380.78, 0.012681796, -0.15318552, -1118326.1, 10744.286, 0.0, 10.000287, 9.999176 
8.3495075e+2, 1.947865e+2, -1046693.94, -1129955.3, -53425.617, 0.02117046, -0.13245371, -1020594.2, 10484.246, 0.0, 10.000276, 9.999171 
8.3497244e+2, 2.0478573e+2, -951900.4, -1027501.2, -57203.266, 0.018143166, -0.12519902, -921136.3, 11950.702, 0.0, 10.000228, 9.999226 
8.3499396e+2, 2.1478485e+2, -866794.2, -935003.44, -54522.875, 0.0042296685, -0.13555536, -836588.1, -1491.8408, 0.0, 10.000136, 9.999232 
8.3501554e+2, 2.2478418e+2, -791807.06, -867503.94, -52213.89, 0.000021062182, -0.114466555, -765166.8, -28062.402, 0.0, 10.000062, 9.999059 
8.350373e+2, 2.3478375e+2, -701755.56, -773234.75, -52439.297, 0.0058717337, -0.061468616, -674034.94, -34923.625, 0.0, 10.000007, 9.99906 
8.35059e+2, 2.4478288e+2, -606839.8, -680137.56, -51189.72, 0.0014268801, -0.050824765, -580532.1, -39411.324, 0.0, 10.0, 9.999028 
8.350806e+2, 2.5478148e+2, -501170.38, -577576.0, -55653.59, -0.0145450905, -0.09078614, -471869.28, -28736.0, 0.0, 10.00005, 9.999036 
8.351024e+2, 2.6478025e+2, -418961.16, -509060.2, -50854.156, -0.022522837, -0.10796597, -396072.44, -50926.88, 0.0, 10.000035, 9.99884 
8.351243e+2, 2.7477914e+2, -332581.88, -416543.0, -49335.906, -0.021496747, -0.10102833, -309782.8, -62625.285, 0.0, 9.999954, 9.998841 
8.351464e+2, 2.8477833e+2, -247273.47, -334597.94, -37839.633, -0.022667607, -0.06009026, -233158.3, -83991.61, 0.0, 9.999909, 9.998753 
8.351687e+2, 2.9477775e+2, -152681.3, -240890.27, -42691.246, -0.026806824, 0.008851513, -135403.8, -84230.24, 0.0, 9.999898, 9.998729 
8.3519113e+2, 3.0477536e+2, -106557.96, -165321.6, -23713.717, -0.04067867, -0.11037858, -98182.24, -98182.24, 0.0, 9.999758, 9.9989805 
8.3521426e+2, 3.1477472e+2, -46644.523, 24791.887, -24434.492, 0.000005904239, -0.07366848, 32349.94, 32349.94, 0.00000010288848, 9.9994755, 10.0004225 
8.4479237e+2, 1.2476686e+2, -1574541.5, -1691364.9, -69446.8, -0.030737042, -0.19557261, -1542207.5, 175058.3, 0.0, 10.0011635, 9.999596 
8.448169e+2, 1.3476653e+2, -1497676.6, -1594712.6, 55152.938, -0.027759587, -0.19463061, -1472738.3, 146529.1, 0.0, 10.000963, 9.999693 
8.44841e+2, 1.4476576e+2, -1447456.1, -1552281.4, -25035.105, 0.038013306, -0.22357392, -1441783.9, 79490.664, 0.0, 10.000783, 9.999392 
8.448633e+2, 1.547652e+2, -1366108.9, -1462404.5, -20221.25, 0.021013854, -0.21668422, -1362034.9, 61246.094, 0.0, 10.0006695, 9.999391 
8.4488535e+2, 1.6476479e+2, -1278506.6, -1361626.9, -36697.074, 0.010187329, -0.19800788, -1264623.8, 60662.54, 0.0, 10.000564, 9.99946 
8.449074e+2, 1.7476453e+2, -1194710.8, -1270268.1, -42996.457, 0.015955318, -0.16870531, -1175253.8, 52036.64, 0.0, 10.000465, 9.999462 
8.449293e+2, 1.8476406e+2, -1129418.5, -1214545.4, -55374.945, 0.019437093, -0.14862315, -1102139.0, 27157.527, 0.0, 10.000355, 9.999226 
8.449509e+2, 1.9476333e+2, -1049921.0, -1125626.0, -49058.1, 0.01686497, -0.14171094, -1025809.7, 5495.3076, 0.0, 10.000229, 9.999224 
8.4497255e+2, 2.0476255e+2, -959073.0, -1029271.3, -49202.625, 0.010225906, -0.14020471, -933733.3, -419.77997, 0.0, 10.000172, 9.99924 
8.44994e+2, 2.147617e+2, -857868.94, -929186.25, -50693.59, 0.00091049407, -0.14742333, -831548.75, 3773.4287, 0.0, 10.000192, 9.999245 
8.4501565e+2, 2.2476108e+2, -775908.0, -859323.75, -51226.574, -0.001683181, -0.12261379, -751557.5, -14227.595, 0.0, 10.00017, 9.999063 
8.450373e+2, 2.347607e+2, -687792.8, -765969.0, -50853.27, 0.0023153229, -0.065528, -662740.94, -23404.287, 0.0, 10.000101, 9.9990635 
8.45059e+2, 2.4475983e+2, -607006.56, -683390.7, -45018.203, -0.0022293145, -0.053927436, -586162.44, -44816.16, 0.0, 10.000013, 9.999 
8.450805e+2, 2.547584e+2, -524236.22, -592095.06, -43255.29, -0.01617725, -0.09623093, -503190.88, -59831.594, 0.0, 9.999907, 9.999004 
8.451023e+2, 2.647571e+2, -440210.2, -515639.78, -35034.676, -0.023165973, -0.11491009, -426448.44, -81076.92, 0.0, 9.999874, 9.998873 
8.4512424e+2, 2.7475604e+2, -334740.3, -413875.66, -34188.3, -0.022367924, -0.10844187, -322016.1, -74633.26, 0.0, 9.999925, 9.998874 
8.451463e+2, 2.8475523e+2, -256789.03, -343455.2, -23101.34, -0.022852564, -0.06801558, -251015.81, -101623.74, 0.0, 9.999864, 9.9987135 
8.451685e+2, 2.9475456e+2, -187668.2, -262018.6, -21739.473, -0.025164943, -0.0000539978, -181778.34, -130378.5, 0.0, 9.999677, 9.99869 
8.4519076e+2, 3.047522e+2, -131203.98, -163342.72, -6748.4805, -0.039577022, -0.12455072, -129844.445, -129844.445, 0.00000000024035085, 9.99953, 9.999104 
8.4521353e+2, 3.1475177e+2, -55262.47, 21142.617, -15640.179, -0.0066844523, -0.078212745, 24220.209, 24220.209, 0.00000026211356, 9.999415, 10.000425 
8.547936e+2, 1.24743916e+2, -1586383.0, -1718032.0, -73489.89, -0.0199774, -0.1983694, -1553548.4, 163941.64, 0.0, 10.001171, 9.99941 
8.5481787e+2, 1.347434e+2, -1508811.9, -1618720.1, 46916.477, -0.022613674, -0.20005634, -1491508.8, 127985.14, 0.0, 10.000966, 9.999526 
8.5484177e+2, 1.447426e+2, -1437958.3, -1533261.8, -29811.936, 0.040570423, -0.23072195, -1429401.0, 92100.336, 0.0, 10.000785, 9.999522 
8.548638e+2, 1.5474214e+2, -1356247.9, -1442570.5, -24367.572, 0.010444662, -0.22805455, -1349844.4, 73661.65, 0.0, 10.000671, 9.999526 
8.548859e+2, 1.6474175e+2, -1289660.9, -1385367.5, -40315.38, 0.0038119457, -0.20482114, -1274942.1, 50568.95, 0.0, 10.000566, 9.999297 
8.5490805e+2, 1.7474148e+2, -1206282.6, -1294932.6, -46734.54, 0.031581905, -0.16125102, -1186196.3, 41320.367, 0.0, 10.000467, 9.999292 
8.5492975e+2, 1.8474095e+2, -1118176.5, -1191780.0, -60254.316, 0.034955207, -0.14469667, -1084374.0, 45149.223, 0.0, 10.000357, 9.999381 
8.54951e+2, 1.9474016e+2, -1038281.0, -1101921.8, -53976.44, 0.008713112, -0.16113065, -1007443.6, 24087.62, 0.0, 10.00023, 9.999386 
8.5497254e+2, 2.0473938e+2, -961476.1, -1034642.7, -48842.79, -0.002117836, -0.16616485, -937035.2, -3495.8403, 0.0, 10.000173, 9.999204 
8.5499424e+2, 2.1473862e+2, -860555.1, -935211.94, -50178.492, 0.0051949914, -0.16123575, -835343.2, 204.4027, 0.0, 10.000193, 9.999204 
8.550158e+2, 2.2473802e+2, -775078.2, -857973.6, -53968.8, 0.00093028136, -0.1319268, -748477.8, -10922.476, 0.0, 10.000171, 9.999072 
8.5503715e+2, 2.347376e+2, -686671.75, -763993.06, -53500.57, -0.016454732, -0.07900777, -659325.1, -19762.713, 0.0, 10.000102, 9.999077 
8.550587e+2, 2.4473684e+2, -603390.2, -676096.56, -49099.895, -0.022091173, -0.05972923, -578650.4, -37079.203, 0.0, 10.000014, 9.999049 
8.550804e+2, 2.5473565e+2, -520728.03, -584993.7, -47271.277, -0.014656168, -0.08133766, -495702.38, -52120.57, 0.0, 9.999907, 9.999054 
8.5510224e+2, 2.6473448e+2, -438649.03, -512302.7, -33149.742, -0.0143687725, -0.09536267, -425926.7, -80333.484, 0.0, 9.999873, 9.998896 
8.551241e+2, 2.747333e+2, -333485.8, -410642.4, -31921.234, -0.021837698, -0.10120448, -321991.66, -74386.39, 0.0, 9.999921, 9.998898 
8.551461e+2, 2.8473246e+2, -254409.95, -337839.78, -29437.293, -0.023056045, -0.06487112, -245069.14, -95454.66, 0.0, 9.999861, 9.9987545 
8.551682e+2, 2.9473191e+2, -184709.83, -255918.97, -28104.27, -0.018516015, 0.0066565294, -174954.34, -123332.78, 0.0, 9.999677, 9.998733 
8.5519034e+2, 3.0472952e+2, -129456.64, -160046.27, -10139.33, -0.031135367, -0.12240957, -126401.05, -126401.05, 0.0000000059514194, 9.999531, 9.9991255 
8.55213e+2, 3.147291e+2, -63073.14, 5461.4414, -18634.283, -0.006073817, -0.0775057, 10200.353, 10200.353, 0.0000005093443, 9.999412, 10.0003195 
8.647949e+2, 1.2472096e+2, -1583446.3, -1721172.1, -73109.914, -0.006023223, -0.20685834, -1551874.3, 165840.47, 0.00000000000000000000885557, 10.001211, 9.999369 
8.648189e+2, 1.3472049e+2, -1493403.4, -1613309.1, 54355.004, -0.02337591, -0.20269373, -1472431.5, 147286.64, 0.0, 10.001081, 9.999507 
8.6484265e+2, 1.4471966e+2, -1413720.1, -1523654.5, -19232.55, 0.039066408, -0.23239662, -1410452.6, 111273.055, 0.0, 10.000961, 9.999503 
8.648646e+2, 1.5471911e+2, -1327996.6, -1431092.6, -25490.564, 0.009370823, -0.23734926, -1322038.4, 101692.72, 0.0, 10.0008745, 9.999507 
8.648864e+2, 1.6471872e+2, -1273524.9, -1378528.4, -45682.316, 0.0040458795, -0.21370845, -1256432.8, 69303.62, 0.0, 10.000681, 9.999289 
8.6490846e+2, 1.7471853e+2, -1221238.4, -1302740.3, -39790.355, 0.033223957, -0.16033216, -1205034.0, 22707.293, 0.0, 10.000368, 9.999287 
8.6493003e+2, 1.8471801e+2, -1136545.8, -1198453.9, -45992.64, 0.03470425, -0.14275469, -1112060.9, 17686.922, 0.0, 10.000221, 9.9994 
8.6495125e+2, 1.9471717e+2, -1032870.06, -1097045.5, -50506.69, 0.0033197845, -0.16829807, -1005120.1, 26636.13, 0.0, 10.0002575, 9.999407 
8.6497265e+2, 2.047164e+2, -951748.2, -1024983.2, -48219.316, -0.0071258214, -0.17465104, -927818.6, 5945.4673, 0.0, 10.000218, 9.999248 
8.649944e+2, 2.1471576e+2, -872049.7, -935576.1, -43029.09, 0.006368318, -0.16227227, -850330.2, -14558.891, 0.0, 10.0000925, 9.999249 
8.6501586e+2, 2.2471519e+2, -801260.25, -869338.1, -44269.33, 0.0025794387, -0.13315305, -779456.3, -41677.625, 0.0, 9.999986, 9.999083 
8.650371e+2, 2.347147e+2, -715135.75, -776541.2, -44462.3, -0.020397924, -0.08858839, -691805.56, -52019.137, 0.0, 9.999902, 9.999086 
8.650586e+2, 2.4471396e+2, -626137.5, -682755.3, -40682.88, -0.027384188, -0.06895408, -604883.44, -63088.582, 0.0, 9.99984, 9.999087 
8.6508024e+2, 2.547129e+2, -532985.2, -586486.1, -39890.82, -0.016623884, -0.08091223, -511705.84, -67901.68, 0.0, 9.9998045, 9.999092 
8.6510205e+2, 2.6471177e+2, -455764.75, -513511.2, -23765.588, -0.013210835, -0.095646024, -447241.9, -101426.875, 0.0, 9.999726, 9.998958 
8.651239e+2, 2.7471054e+2, -375980.0, -424086.78, -20066.158, -0.017776769, -0.113613665, -368709.03, -120881.6, 0.0, 9.9996, 9.99896 
8.6514586e+2, 2.8470975e+2, -292028.28, -347072.06, -15753.251, -0.017941084, -0.07910346, -287838.66, -138002.7, 0.0, 9.999565, 9.998833 
8.6516786e+2, 2.9470938e+2, -185880.58, -247169.72, -11853.543, -0.014602281, 0.0022414222, -183667.94, -131826.67, 0.0, 9.999629, 9.998815 
8.651899e+2, 3.0470708e+2, -122389.21, -149091.45, 4011.457, -0.026807297, -0.12356798, -121799.59, -121799.59, 0.000000027135602, 9.999548, 9.999192 
8.652123e+2, 3.1470674e+2, -86659.93, -12796.134, -1996.1787, -0.003465612, -0.0770049, -12742.227, -12742.227, 0.00000083365, 9.999281, 10.000257 
8.747963e+2, 1.24698e+2, -1575394.8, -1704870.4, -74570.42, 0.008683682, -0.22164717, -1541381.6, 176558.02, 0.0000000055054987, 10.001211, 9.999481 
8.748198e+2, 1.3469781e+2, -1483501.5, -1593437.6, 49232.766, -0.031236662, -0.20223823, -1464676.9, 155262.81, 0.0, 10.001084, 9.999642 
8.748435e+2, 1.4469701e+2, -1425601.8, -1549440.5, -22507.184, 0.03238158, -0.22821826, -1421638.0, 100309.0, 0.0, 10.000965, 9.999324 
8.748655e+2, 1.5469615e+2, -1340550.1, -1458188.8, -28827.396, 0.018111836, -0.2443393, -1333865.8, 90090.27, 0.0, 10.000878, 9.999319 
8.7488717e+2, 1.6469571e+2, -1262295.5, -1356122.1, -57493.867, 0.011269383, -0.22447346, -1235003.6, 90958.31, 0.0, 10.000684, 9.999441 
8.749086e+2, 1.7469573e+2, -1209588.1, -1279032.8, -51656.777, 0.020259833, -0.16600837, -1182068.5, 45895.59, 0.0, 10.000369, 9.999449 
8.7493e+2, 1.846953e+2, -1144885.0, -1215996.0, -45008.566, 0.017836412, -0.14291747, -1123082.3, 6887.6436, 0.0, 10.000222, 9.99928 
8.749514e+2, 1.9469437e+2, -1041629.6, -1115719.4, -49294.027, 0.0003486418, -0.16301402, -1017012.3, 14967.562, 0.0, 10.000259, 9.999278 
8.749729e+2, 2.0469363e+2, -942644.0, -1006647.8, -53134.61, -0.004889895, -0.16534159, -912618.44, 21369.238, 0.0, 10.00022, 9.999373 
8.7499446e+2, 2.1469314e+2, -862400.0, -916154.8, -48065.77, 0.0042895363, -0.15052685, -834207.3, 1785.6919, 0.0, 10.000094, 9.999382 
8.7501585e+2, 2.2469261e+2, -800436.6, -868138.25, -47671.734, 0.0029538248, -0.12645306, -775819.75, -37819.777, 0.0, 9.999988, 9.99909 
8.7503713e+2, 2.34692e+2, -714798.75, -776223.5, -47681.83, -0.009931657, -0.09430787, -688794.25, -48785.65, 0.0, 9.999903, 9.999089 
8.750585e+2, 2.4469121e+2, -624482.5, -679472.06, -42095.137, -0.01841579, -0.08141237, -601698.44, -59681.098, 0.0, 9.99984, 9.99911 
8.7507993e+2, 2.5469017e+2, -531220.06, -582921.5, -41069.25, -0.02213442, -0.094549514, -508543.06, -64516.76, 0.0, 9.999804, 9.999117 
8.751017e+2, 2.6468903e+2, -449171.03, -499950.34, -28242.209, -0.019731598, -0.11513931, -436583.63, -90546.69, 0.0, 9.999726, 9.999051 
8.751236e+2, 2.7468777e+2, -369335.06, -410433.9, -24561.688, -0.010641139, -0.14467111, -357860.2, -109810.84, 0.0, 9.9996, 9.999053 
8.751455e+2, 2.846871e+2, -284527.88, -331281.1, -13266.752, -0.007983553, -0.10972272, -281025.63, -130968.92, 0.0, 9.999563, 9.998942 
8.751675e+2, 2.9468697e+2, -178377.05, -230695.94, -8935.619, -0.013244797, -0.012876644, -176893.02, -124833.79, 0.0, 9.999625, 9.99893 
8.7518936e+2, 3.046849e+2, -115683.33, -134482.78, -5018.083, -0.026350273, -0.12808189, -114427.73, -114427.73, 0.00000006425192, 9.999544, 9.999295 
8.752116e+2, 3.146847e+2, -88456.984, -16552.277, -11346.064, -0.0004992532, -0.08117994, -14804.433, -14804.433, 0.0000011924308, 9.99928, 10.000232 
8.8479775e+2, 1.2467527e+2, -1551663.4, -1696321.9, -61519.727, 0.030170834, -0.22700234, -1529039.0, 189123.23, 0.00000006865042, 10.001387, 9.999455 
8.84821e+2, 1.346751e+2, -1445778.9, -1576259.4, 46887.625, -0.033189967, -0.20632584, -1430677.8, 189484.42, 0.0, 10.0013485, 9.999633 
8.848445e+2, 1.4467433e+2, -1406139.5, -1543533.8, -31220.877, 0.028094688, -0.22621001, -1399377.9, 122791.45, 0.0, 10.001114, 9.999292 
8.8486636e+2, 1.5467353e+2, -1370707.9, -1476355.3, -25836.436, 0.023733916, -0.23236635, -1364728.0, 59450.145, 0.0, 10.000688, 9.999287 
8.8488775e+2, 1.6467306e+2, -1293355.9, -1368616.8, -49724.65, 0.015303251, -0.21534166, -1268627.8, 57556.574, 0.0, 10.000461, 9.999463 
8.849089e+2, 1.7467293e+2, -1195756.3, -1269916.1, -54677.492, 0.010179695, -0.17449275, -1166771.5, 61416.074, 0.0, 10.000454, 9.999471 
8.849302e+2, 1.8467252e+2, -1121816.1, -1195739.6, -43884.7, 0.0055155125, -0.154842, -1101401.6, 28791.361, 0.0, 10.000341, 9.999362 
8.849516e+2, 1.9467178e+2, -1058118.0, -1114109.1, -32084.834, -0.0013066303, -0.16214627, -1043532.0, -11331.256, 0.0, 10.000105, 9.999363 
8.84973e+2, 2.0467117e+2, -974307.75, -1021141.75, -29751.186, -0.0049804705, -0.15815593, -959863.3, -25655.64, 0.0, 10.0, 9.999379 
8.849944e+2, 2.1467069e+2, -869582.1, -919026.9, -34534.45, -0.004190094, -0.14459385, -851833.06, -15619.476, 0.0, 10.000043, 9.999387 
8.850157e+2, 2.2467016e+2, -796725.7, -859048.5, -40503.383, -0.0031507527, -0.122960396, -776783.7, -38563.344, 0.0, 9.999982, 9.999155 
8.8503706e+2, 2.3466957e+2, -724391.06, -773330.3, -36195.508, -0.00162905, -0.093986765, -705170.0, -64941.96, 0.0, 9.999805, 9.999155 
8.8505834e+2, 2.4466877e+2, -645144.06, -688337.3, -25326.441, -0.0069979774, -0.08706322, -633456.44, -91219.86, 0.0, 9.999695, 9.999119 
8.8507974e+2, 2.5466764e+2, -551854.7, -591820.06, -25665.219, -0.020509398, -0.109975986, -539310.25, -95063.914, 0.0, 9.999659, 9.9991255 
8.851013e+2, 2.646665e+2, -466168.47, -508205.16, -19173.34, -0.021774625, -0.13147, -458737.06, -112479.92, 0.0, 9.999611, 9.999049 
8.8512313e+2, 2.7466533e+2, -376845.88, -414121.34, -22791.08, -0.009420721, -0.15160143, -366042.16, -117773.25, 0.0, 9.99955, 9.999052 
8.8514507e+2, 2.846647e+2, -288670.8, -320167.2, -12115.397, -0.0025825088, -0.11700926, -284549.72, -134274.06, 0.0, 9.999479, 9.999058 
8.8516706e+2, 2.9466462e+2, -204602.08, -229561.97, -7273.5166, -0.00211046, -0.03130291, -202637.2, -150359.63, 0.0, 9.999387, 9.999052 
8.851888e+2, 3.0466264e+2, -147003.47, -141620.56, -10241.2, -0.017396074, -0.14384224, -133723.06, -133723.06, 0.00000010587227, 9.999295, 9.999365 
8.8521075e+2, 3.146626e+2, -103577.78, -29640.684, -19300.773, -0.0072015487, -0.08561661, -24905.594, -24905.594, 0.0000015115112, 9.999202, 10.000179 
8.9479935e+2, 1.2465283e+2, -1563434.8, -1722209.9, -58935.766, 0.055273853, -0.22202884, -1543949.6, 174432.19, 0.00000033535434, 10.001392, 9.999276 
8.9482236e+2, 1.3465236e+2, -1456797.4, -1600439.6, 44898.082, -0.028685821, -0.2147681, -1443918.4, 176467.03, 0.00000000007521531, 10.001354, 9.999464 
8.948456e+2, 1.4465164e+2, -1396998.3, -1525773.8, -47469.47, 0.026643911, -0.2261047, -1381391.4, 141000.89, 0.0, 10.001119, 9.999413 
8.94867e+2, 1.546513e+2, -1361506.3, -1457244.6, -42105.344, 0.025557553, -0.20048514, -1345623.5, 78773.414, 0.0, 10.000687, 9.999418 
8.9488816e+2, 1.6465081e+2, -1301939.0, -1386205.1, -50226.32, 0.015441766, -0.18541099, -1278513.9, 47889.29, 0.0, 10.000459, 9.999343 
8.949093e+2, 1.7465015e+2, -1204389.1, -1288429.5, -54926.16, 0.0028559905, -0.18568099, -1177253.1, 51158.25, 0.0, 10.000456, 9.999343 
8.949304e+2, 1.8464968e+2, -1101405.1, -1154143.4, -52850.996, -0.0023341964, -0.17876364, -1068710.3, 61706.465, 0.0, 10.000344, 9.999646 
8.9495164e+2, 1.9464946e+2, -1036855.9, -1070394.6, -41273.77, -0.001760079, -0.16582012, -1009074.9, 23343.813, 0.0, 10.000107, 9.999662 
8.949729e+2, 2.0464903e+2, -982142.7, -1037762.44, -28696.164, -0.0074892333, -0.15314871, -969991.8, -35567.992, 0.0, 10.000001, 9.999265 
8.9499426e+2, 2.1464837e+2, -878317.8, -937650.1, -33181.883, -0.019226342, -0.14444971, -863474.2, -27041.459, 0.0, 10.000044, 9.999259 
8.9501554e+2, 2.246478e+2, -788184.5, -841780.5, -47101.51, -0.015928464, -0.12266546, -760791.3, -22351.516, 0.0, 9.999984, 9.999273 
8.950369e+2, 2.3464742e+2, -715317.4, -755066.6, -42936.887, 0.004312345, -0.08779655, -687878.44, -47433.76, 0.0, 9.999807, 9.99928 
8.9505816e+2, 2.4464662e+2, -645280.4, -689154.75, -26936.994, 0.0065677036, -0.086092696, -632477.94, -90025.27, 0.0, 9.999696, 9.999113 
8.9507943e+2, 2.5464532e+2, -552588.1, -593568.75, -26947.32, -0.012168034, -0.12710822, -539225.7, -94761.234, 0.0, 9.999659, 9.999114 
8.951009e+2, 2.6464415e+2, -472827.38, -522071.06, -21397.05, -0.01963476, -0.14489485, -464829.13, -118353.39, 0.0, 9.99961, 9.998955 
8.9512265e+2, 2.7464318e+2, -383635.8, -428279.94, -24719.207, -0.013869619, -0.13572459, -372651.5, -124165.21, 0.0, 9.99955, 9.998955 
8.951445e+2, 2.8464255e+2, -280447.66, -302984.06, -14978.567, -0.001647357, -0.10209902, -272972.06, -122479.04, 0.0, 9.999478, 9.999177 
8.9516664e+2, 2.946422e+2, -196290.03, -211416.83, -10195.079, 0.017580403, -0.052543733, -191159.16, -138662.8, 0.0, 9.999382, 9.999179 
8.951883e+2, 3.0464032e+2, -145378.7, -137052.95, -13070.205, -0.0010020706, -0.17007388, -127498.69, -127498.69, 0.00000013409642, 9.9992895, 9.9994 
8.952098e+2, 3.1464046e+2, -109919.97, -41867.89, -21772.361, -0.023448912, -0.094255865, -35498.297, -35498.297, 0.0000016978646, 9.999197, 10.000098 
9.0480095e+2, 1.2463061e+2, -1512075.0, -1704700.0, -45639.984, 0.057934422, -0.22052056, -1501808.4, 216791.08, 0.0000010631732, 10.001777, 9.99921 
9.048238e+2, 1.3463004e+2, -1483717.6, -1619349.3, 62130.09, -0.014042801, -0.21770579, -1459559.9, 161044.44, 0.000000007369457, 10.001196, 9.99941 
9.0484667e+2, 1.4462933e+2, -1435450.4, -1545044.8, -27563.295, 0.039862137, -0.22457053, -1428908.6, 93702.75, 0.0, 10.000858, 9.999406 
9.048676e+2, 1.5462914e+2, -1343581.5, -1449220.0, -32736.725, 0.016310247, -0.18501343, -1334259.1, 90355.68, 0.0, 10.0008135, 9.999413 
9.0488863e+2, 1.6462861e+2, -1273197.1, -1371059.4, -38171.406, 0.0018483187, -0.17257154, -1260069.3, 66551.875, 0.0, 10.000651, 9.999354 
9.049097e+2, 1.7462775e+2, -1217968.5, -1293436.1, -32229.17, 0.004911064, -0.19468844, -1206078.1, 22552.686, 0.0, 10.000357, 9.999356 
9.049307e+2, 1.8462725e+2, -1119898.1, -1158490.0, -32589.709, 0.002824297, -0.19338596, -1101320.3, 29315.885, 0.0, 10.000198, 9.999686 
9.049517e+2, 1.946272e+2, -1021664.5, -1058527.5, -40643.23, -0.0076963524, -0.16727361, -995468.7, 37167.805, 0.0, 10.000192, 9.999702 
9.049729e+2, 2.0462684e+2, -974168.2, -1037589.6, -34926.977, -0.013694703, -0.14720601, -958704.1, -24062.84, 0.0, 10.0000725, 9.999231 
9.049942e+2, 2.1462615e+2, -913384.6, -958591.1, -32696.422, -0.013170659, -0.13767114, -896239.1, -59588.137, 0.0, 9.999822, 9.999222 
9.0501547e+2, 2.2462562e+2, -821226.94, -846624.75, -42619.445, -0.009058993, -0.11855731, -789454.75, -50796.754, 0.0, 9.999709, 9.999372 
9.0503657e+2, 2.3462527e+2, -715093.56, -743304.2, -40162.81, -0.0014584607, -0.090781786, -686631.1, -45969.445, 0.0, 9.99976, 9.999384 
9.050577e+2, 2.4462448e+2, -643897.44, -692386.8, -27199.266, -0.00087155786, -0.08953675, -631705.8, -89036.58, 0.0, 9.9997225, 9.999077 
9.0507907e+2, 2.546232e+2, -565971.56, -604600.2, -29575.686, -0.008402371, -0.12318937, -549962.2, -105280.83, 0.0, 9.999587, 9.999072 
9.051005e+2, 2.6462206e+2, -483182.22, -519636.5, -17838.055, -0.010473045, -0.13794717, -475905.9, -129213.37, 0.0, 9.999508, 9.999021 
9.051222e+2, 2.7462116e+2, -387599.28, -422321.0, -9051.223, -0.0058246898, -0.13085614, -385381.47, -136678.98, 0.0, 9.999489, 9.999024 
9.05144e+2, 2.846206e+2, -291951.25, -302188.5, 177.15996, 0.0038606138, -0.096796356, -291948.2, -141239.75, 0.0, 9.9993725, 9.999233 
9.051659e+2, 2.9462036e+2, -227161.13, -219640.98, -708.967, 0.018382125, -0.043148585, -219574.73, -166864.03, 0.0, 9.999142, 9.999238 
9.051875e+2, 3.0461857e+2, -183459.77, -150607.45, -2174.6213, 0.0043920297, -0.15678476, -150464.13, -150464.13, 0.0000001316986, 9.999008, 9.999442 
9.0520906e+2, 3.146186e+2, -147166.8, -67026.65, -9805.04, -0.0061771977, -0.094832785, -65844.46, -65844.46, 0.0000016698094, 9.998973, 10.000033 
9.1480243e+2, 1.2460865e+2, -1506187.0, -1695911.4, -63226.156, 0.032476563, -0.22230044, -1487047.5, 231767.03, 0.0000026057617, 10.00179, 9.999266 
9.148252e+2, 1.3460818e+2, -1479313.3, -1609855.5, 39818.305, 0.010335688, -0.21514086, -1468126.5, 152691.75, 0.00000007607973, 10.001194, 9.999476 
9.148478e+2, 1.4460745e+2, -1446349.6, -1566780.8, -29240.934, 0.068194635, -0.22179736, -1439625.4, 83200.45, 0.0, 10.0008545, 9.999259 
9.1486824e+2, 1.5460706e+2, -1354107.6, -1471833.6, -34018.14, -0.004540799, -0.18636514, -1344984.8, 79847.01, 0.0, 10.000815, 9.999256 
9.14889e+2, 1.646065e+2, -1262540.5, -1350060.1, -49178.41, -0.026426801, -0.17726925, -1240471.4, 86366.81, 0.0, 10.000655, 9.999496 
9.1491014e+2, 1.7460576e+2, -1206897.3, -1270716.0, -43417.9, 0.016292885, -0.20153596, -1184924.1, 43921.266, 0.0, 10.000358, 9.999513 
9.149311e+2, 1.8460526e+2, -1134853.5, -1189614.8, -33196.223, 0.02135468, -0.19851567, -1119202.9, 11647.915, 0.0, 10.000197, 9.999474 
9.149518e+2, 1.9460504e+2, -1037363.3, -1091623.8, -41123.945, -0.019265894, -0.1664456, -1015226.6, 17627.479, 0.0, 10.000194, 9.9994755 
9.1497284e+2, 2.0460464e+2, -970954.5, -1031560.4, -44427.348, -0.024062485, -0.14033401, -947479.56, -12619.798, 0.0, 10.000074, 9.999272 
9.149943e+2, 2.1460406e+2, -909540.5, -951171.25, -42511.945, 0.0136647895, -0.12432571, -883021.44, -46153.246, 0.0, 9.999824, 9.999272 
9.1501546e+2, 2.2460353e+2, -815601.0, -835394.25, -41314.09, 0.017405141, -0.11069481, -783014.75, -44139.99, 0.0, 9.999711, 9.999448 
9.1503614e+2, 2.3460306e+2, -709321.25, -731700.1, -38395.637, -0.018646393, -0.10275107, -680517.9, -39638.816, 0.0, 9.999761, 9.999463 
9.150572e+2, 2.4460234e+2, -648402.94, -702046.4, -32049.652, -0.029046847, -0.09746373, -633432.5, -90546.17, 0.0, 9.999723, 9.999011 
9.1507864e+2, 2.546013e+2, -570962.3, -615282.7, -34553.867, -0.009302375, -0.098977804, -552073.25, -107176.13, 0.0, 9.999588, 9.998999 
9.1510016e+2, 2.6460028e+2, -467957.6, -488105.9, -18483.547, 0.0052218614, -0.11119239, -456981.1, -110073.46, 0.0, 9.999507, 9.999238 
9.1512185e+2, 2.7459925e+2, -372125.22, -389484.9, -9558.182, 0.013625688, -0.13648409, -367893.88, -118976.28, 0.0, 9.999485, 9.999252 
9.1514343e+2, 2.8459886e+2, -293064.0, -303491.4, -8128.991, 0.013324284, -0.100994825, -288620.4, -137698.31, 0.0, 9.999368, 9.999228 
9.151648e+2, 2.94599e+2, -228244.75, -221667.25, -9123.627, 0.0018241223, -0.0051081073, -215257.73, -162336.73, 0.0, 9.999141, 9.999225 
9.151864e+2, 3.0459732e+2, -179880.66, -143269.48, -3105.613, -0.00050023774, -0.10644337, -143007.9, -143007.9, 0.00000009563079, 9.999007, 9.999493 
9.1520846e+2, 3.1459695e+2, -151007.47, -74051.87, -9793.253, 0.040074423, -0.09204025, -72825.15, -72825.15, 0.0000014046396, 9.998967, 9.999988 
9.2480415e+2, 1.2458702e+2, -1540949.3, -1718063.8, -50459.1, 0.037637886, -0.22200964, -1527582.5, 191443.97, 0.000005355975, 10.001575, 9.999216 
9.2482644e+2, 1.3458659e+2, -1469669.8, -1609803.0, 39241.45, 0.010022328, -0.20722842, -1459429.4, 161600.72, 0.00000033393198, 10.001282, 9.9994335 
9.248487e+2, 1.4458579e+2, -1424064.4, -1563474.4, -18418.336, 0.06754994, -0.21615018, -1421672.0, 101366.516, 0.0, 10.00104, 9.999191 
9.2486906e+2, 1.5458518e+2, -1350114.8, -1477240.6, -16166.021, -0.001010422, -0.19314852, -1348091.3, 76955.0, 0.0, 10.000876, 9.999189 
9.2488956e+2, 1.6458459e+2, -1258552.4, -1346478.4, -38710.105, -0.02380706, -0.18473493, -1243938.8, 83114.15, 0.0, 10.000677, 9.99951 
9.249105e+2, 1.74584e+2, -1194999.8, -1262943.3, -43835.54, 0.011874362, -0.19579843, -1173513.1, 55545.285, 0.0, 10.000431, 9.999529 
9.249313e+2, 1.845835e+2, -1136157.1, -1203284.5, -27982.73, 0.017092835, -0.18833403, -1126022.4, 5041.5674, 0.0, 10.000246, 9.999355 
9.24952e+2, 1.945831e+2, -1054885.4, -1113568.6, -27805.766, -0.0148418825, -0.16226189, -1043803.1, -10733.549, 0.0, 10.000133, 9.999353 
9.249729e+2, 2.0458265e+2, -977352.56, -1033218.4, -32275.162, -0.018559406, -0.13825837, -962601.4, -27525.113, 0.0, 10.000026, 9.999284 
9.249941e+2, 2.1458209e+2, -893718.4, -941602.94, -33288.164, 0.011125339, -0.11956568, -876656.56, -39572.58, 0.0, 9.999925, 9.999289 
9.250151e+2, 2.2458157e+2, -801346.9, -827720.3, -31416.693, 0.012306086, -0.10661962, -780461.6, -41371.363, 0.0, 9.999805, 9.9994545 
9.2503583e+2, 2.3458105e+2, -722655.2, -737330.94, -33958.926, -0.019513836, -0.10339271, -695250.4, -54155.504, 0.0, 9.999666, 9.99947 
9.250568e+2, 2.4458037e+2, -669854.06, -707703.5, -28963.8, -0.027360413, -0.09627674, -654180.44, -111078.52, 0.0, 9.999557, 9.999053 
9.2507815e+2, 2.5457948e+2, -583469.1, -616665.3, -23268.836, -0.00723558, -0.088263035, -571485.2, -126373.38, 0.0, 9.999482, 9.999041 
9.250996e+2, 2.6457855e+2, -485079.0, -487283.72, -7876.8584, 0.008713733, -0.09593568, -478227.75, -131106.38, 0.0, 9.999351, 9.999319 
9.251212e+2, 2.7457762e+2, -414893.84, -400714.34, -9823.075, 0.019556051, -0.12268664, -395689.75, -146559.33, 0.0, 9.999151, 9.999336 
9.251427e+2, 2.8457722e+2, -332964.63, -314007.16, -10483.56, 0.018532688, -0.09290952, -309352.56, -158218.02, 0.0, 9.999056, 9.999305 
9.251639e+2, 2.9457736e+2, -231875.19, -214445.45, -4826.52, 0.0032382358, -0.0070237396, -213198.19, -160064.58, 0.0, 9.999077, 9.999305 
9.2518544e+2, 3.045759e+2, -173257.03, -126910.875, 6183.4424, 0.0044232295, -0.098161526, -126100.07, -126100.07, 0.00000004550982, 9.998997, 9.99961 
9.252074e+2, 3.145757e+2, -172721.78, -80719.586, 4004.8481, 0.052757483, -0.074152805, -80545.586, -80545.586, 0.0000009683944, 9.998803, 10.000021 
9.348061e+2, 1.24565765e+2, -1552834.8, -1742373.3, -56150.805, 0.071921624, -0.22112846, -1537449.0, 181785.42, 0.000009813605, 10.001573, 9.999051 
9.348274e+2, 1.3456531e+2, -1480766.4, -1633801.1, 28550.676, -0.016677057, -0.1929385, -1475613.4, 145625.88, 0.0000009955157, 10.001286, 9.999268 
9.348494e+2, 1.4456438e+2, -1422306.6, -1561323.3, -24853.361, 0.035517443, -0.206525, -1417997.0, 105252.02, 0.00000000002439963, 10.001046, 9.999205 
9.348702e+2, 1.5456358e+2, -1348345.6, -1474005.6, -22232.123, 0.027413113, -0.20570539, -1344528.3, 80729.61, 0.0, 10.000877, 9.999212 
9.348906e+2, 1.6456296e+2, -1267152.1, -1364546.6, -47505.434, 0.011143182, -0.19547786, -1247818.6, 79446.21, 0.0, 10.000677, 9.999387 
9.349107e+2, 1.7456253e+2, -1203837.6, -1281890.8, -53118.977, -0.008820005, -0.17714772, -1176949.9, 52319.496, 0.0, 10.000433, 9.999399 
9.349312e+2, 1.8456201e+2, -1137621.4, -1206918.1, -32806.063, -0.011219174, -0.16230282, -1124554.5, 6720.8374, 0.0, 10.000248, 9.9993305 
9.3495226e+2, 1.9456142e+2, -1055931.4, -1116234.1, -32404.074, 0.0054282215, -0.15460247, -1041820.75, -8537.923, 0.0, 10.0001335, 9.999334 
9.349731e+2, 2.0456082e+2, -978507.06, -1036090.44, -36332.938, 0.0032294844, -0.14102833, -960940.94, -25650.535, 0.0, 10.000027, 9.999264 
9.349937e+2, 2.1456026e+2, -894910.1, -944540.06, -37388.063, -0.02067981, -0.12335686, -874851.4, -37553.2, 0.0, 9.999926, 9.999269 
9.3501455e+2, 2.2455972e+2, -805691.1, -837275.9, -36767.82, -0.024669841, -0.10637378, -781467.6, -42163.06, 0.0, 9.999807, 9.999389 
9.350356e+2, 2.3455925e+2, -727011.94, -746999.94, -39258.35, -0.0048250137, -0.093044795, -696495.44, -55186.22, 0.0, 9.999668, 9.999403 
9.350566e+2, 2.4455859e+2, -659606.0, -687006.6, -31821.67, 0.003430245, -0.08614272, -638660.75, -95344.7, 0.0, 9.999558, 9.999194 
9.350776e+2, 2.5455773e+2, -572695.8, -594702.2, -25923.992, -0.0023703647, -0.090665966, -555536.56, -110211.2, 0.0, 9.999483, 9.999191 
9.350989e+2, 2.645569e+2, -488420.9, -494565.97, -15182.502, 0.0002694477, -0.09209752, -476003.16, -128669.32, 0.0, 9.9993515, 9.999269 
9.351202e+2, 2.7455622e+2, -418611.63, -409053.53, -17158.217, 0.012567902, -0.090428196, -396021.25, -146680.17, 0.0, 9.999153, 9.999278 
9.3514174e+2, 2.8455573e+2, -321994.63, -291255.28, -9750.706, 0.01935852, -0.07278562, -288423.22, -137077.36, 0.0, 9.999056, 9.999462 
9.3516314e+2, 2.9455546e+2, -221302.23, -190588.28, -3885.9797, 0.020458784, -0.04650276, -190104.23, -136755.84, 0.0, 9.999068, 9.999474 
9.351846e+2, 3.0455422e+2, -163011.28, -103013.27, -843.79486, 0.017886069, -0.12973776, -103001.41, -103001.41, 0.000000010385675, 9.998985, 9.999781 
9.35206e+2, 3.1455484e+2, -166895.77, -67205.98, -2818.4014, 0.033974797, -0.046144024, -67126.36, -67126.36, 0.00000050425, 9.998796, 10.000117 
9.448079e+2, 1.2454466e+2, -1547557.9, -1749351.9, -44406.055, 0.0907531, -0.22487886, -1538218.4, 181222.95, 0.000016619406, 10.00165, 9.998966 
9.448287e+2, 1.3454415e+2, -1458491.4, -1632345.0, 41447.484, -0.02279713, -0.19283932, -1449115.8, 172331.1, 0.0000023427797, 10.00148, 9.999183 
9.448504e+2, 1.4454317e+2, -1400612.1, -1552808.5, -11381.277, 0.023723934, -0.20568715, -1399765.8, 123691.3, 0.0000000053592455, 10.0012045, 9.999186 
9.4487107e+2, 1.5454237e+2, -1359299.4, -1480820.8, -11860.333, 0.0358523, -0.20477463, -1358152.8, 67313.06, 0.0, 10.00081, 9.999197 
9.4489133e+2, 1.6454169e+2, -1283245.3, -1384243.6, -31343.758, 0.023291346, -0.19434686, -1274308.8, 53164.508, 0.0, 10.00062, 9.999278 
9.449112e+2, 1.7454113e+2, -1176497.8, -1280901.8, -35376.418, -0.012840392, -0.17632277, -1165639.9, 63839.363, 0.0, 10.000675, 9.999289 
9.449315e+2, 1.8454057e+2, -1098440.1, -1191693.8, -20021.22, -0.018922132, -0.16068788, -1094323.4, 37162.67, 0.0, 10.000534, 9.999296 
9.449524e+2, 1.9453996e+2, -1055149.6, -1119113.5, -20702.836, 0.008946401, -0.1502824, -1049033.6, -15540.224, 0.0, 10.0001545, 9.999305 
9.449732e+2, 2.0453937e+2, -990714.56, -1042677.9, -17763.75, 0.0068831393, -0.13611658, -985222.44, -49721.496, 0.0, 9.999947, 9.999257 
9.4499356e+2, 2.1453877e+2, -892540.7, -944062.2, -17451.826, -0.029829888, -0.120706476, -887185.8, -49677.113, 0.0, 9.999946, 9.999262 
9.4501424e+2, 2.2453816e+2, -802785.0, -845791.7, -21102.104, -0.03368182, -0.105983235, -794160.44, -54644.594, 0.0, 9.99987, 9.9993 
9.4503534e+2, 2.3453759e+2, -728010.0, -758018.06, -25907.887, 0.001352474, -0.094636366, -713075.06, -71553.05, 0.0, 9.999707, 9.999309 
9.4505626e+2, 2.4453692e+2, -657022.06, -681655.25, -21778.791, 0.014482162, -0.08435934, -644318.4, -100789.336, 0.0, 9.999558, 9.99923 
9.450771e+2, 2.5453618e+2, -578075.6, -592580.4, -23996.074, 0.0013702611, -0.07925548, -560259.94, -114722.86, 0.0, 9.999427, 9.999233 
9.4509816e+2, 2.645354e+2, -495492.63, -499014.16, -17823.031, -0.0006702475, -0.07991322, -479343.6, -131798.3, 0.0, 9.999308, 9.99926 
9.451194e+2, 2.7453458e+2, -412098.72, -407176.28, -16597.145, 0.010290323, -0.08822024, -392858.84, -143305.3, 0.0, 9.999204, 9.999268 
9.451407e+2, 2.8453407e+2, -329952.6, -291941.25, -12665.396, 0.019797286, -0.07454137, -288107.75, -136549.11, 0.0, 9.998987, 9.99949 
9.4516206e+2, 2.9453388e+2, -281929.78, -216181.14, -17193.936, 0.02814468, -0.04374055, -211956.25, -158395.75, 0.0, 9.998636, 9.999506 
9.4518334e+2, 3.045328e+2, -222231.8, -116613.91, -14656.916, 0.024321148, -0.1199307, -114617.66, -114617.66, 0.00000000032400083, 9.998515, 9.999913 
9.452047e+2, 3.1453335e+2, -180186.66, -65467.55, -18433.36, 0.026575563, -0.05452864, -62578.395, -62578.395, 0.00000016973306, 9.998671, 10.000189 
9.548094e+2, 1.2452374e+2, -1546392.4, -1748701.8, -45811.96, 0.087945886, -0.23300372, -1536502.0, 183144.25, 0.000026449812, 10.001656, 9.998969 
9.5483035e+2, 1.3452317e+2, -1458085.0, -1632176.4, 35224.324, -0.0075301654, -0.208291, -1451228.0, 170424.28, 0.0000047469885, 10.001482, 9.999184 
9.548517e+2, 1.4452222e+2, -1404323.1, -1561102.4, -25297.523, 0.033692297, -0.21491817, -1400342.3, 123320.016, 0.000000046136613, 10.001206, 9.999128 
9.548718e+2, 1.5452158e+2, -1363432.4, -1489706.5, -26473.623, 0.023315124, -0.18971851, -1358106.8, 67562.56, 0.0, 10.000811, 9.999136 
9.5489186e+2, 1.6452083e+2, -1289780.3, -1398133.1, -29807.152, 0.010966677, -0.18034343, -1282121.8, 45555.996, 0.0, 10.00062, 9.999184 
9.5491195e+2, 1.7451988e+2, -1182700.9, -1294664.4, -33134.047, -0.00006242492, -0.19372109, -1173630.3, 56057.617, 0.0, 10.000678, 9.999193 
9.5493215e+2, 1.8451917e+2, -1101078.0, -1198279.8, -33796.535, -0.005326665, -0.18426214, -1090482.3, 41213.58, 0.0, 10.000538, 9.999249 
9.549525e+2, 1.9451877e+2, -1057937.3, -1125580.9, -35344.605, -0.0045183618, -0.14951746, -1042839.2, -9138.091, 0.0, 10.000156, 9.999259 
9.549729e+2, 2.0451824e+2, -990400.6, -1042411.0, -18799.37, -0.008284836, -0.123474084, -984317.06, -48609.484, 0.0, 9.999948, 9.999259 
9.549936e+2, 2.1451762e+2, -891926.4, -943161.0, -17740.807, -0.01675358, -0.111665905, -886383.1, -48667.594, 0.0, 9.999947, 9.999268 
9.550143e+2, 2.245169e+2, -810745.75, -862813.75, -27167.139, -0.014850869, -0.10539483, -799152.3, -59428.28, 0.0, 9.999872, 9.999183 
9.55035e+2, 2.3451604e+2, -736333.44, -775878.7, -32098.414, -0.00070493435, -0.10790715, -718406.4, -76673.16, 0.0, 9.999709, 9.999186 
9.550557e+2, 2.4451536e+2, -661551.44, -691676.44, -26747.564, 0.006032955, -0.09090237, -645916.9, -102175.93, 0.0, 9.99956, 9.999162 
9.550765e+2, 2.5451487e+2, -582276.0, -601911.7, -28728.97, 0.0036533964, -0.05459797, -561733.6, -115986.71, 0.0, 9.999429, 9.999168 
9.550975e+2, 2.6451403e+2, -493473.0, -495212.56, -21501.584, 0.0052467776, -0.059519485, -472823.6, -125067.87, 0.0, 9.999309, 9.999286 
9.551186e+2, 2.7451277e+2, -410221.3, -402811.3, -20080.988, 0.012117727, -0.114905804, -386096.4, -136328.61, 0.0, 9.999201, 9.999299 
9.551397e+2, 2.8451225e+2, -337199.97, -306278.4, -24977.646, 0.019524973, -0.09785261, -292363.72, -140590.78, 0.0, 9.998983, 9.999393 
9.551606e+2, 2.945126e+2, -288839.28, -230916.28, -29687.553, 0.026519673, -0.0015871729, -218403.47, -164633.34, 0.0, 9.998637, 9.999405 
9.5518184e+2, 3.045116e+2, -215755.66, -102749.85, -8846.414, 0.023570463, -0.071014896, -102061.52, -102061.52, 0.0, 9.998512, 10.0000105 
9.552033e+2, 3.145113e+2, -179444.47, -59756.996, -10881.244, 0.027852455, -0.100720316, -58775.785, -58775.785, 0.000000027453995, 9.9986515, 10.000238 
9.64811e+2, 1.24503195e+2, -1509078.8, -1727339.1, -31508.408, 0.068554275, -0.22927278, -1504621.1, 215226.89, 0.00003990401, 10.001899, 9.998998 
9.648318e+2, 1.3450265e+2, -1460624.5, -1630424.0, 46432.043, 0.0055535003, -0.20370442, -1448757.0, 173096.36, 0.000008636752, 10.001454, 9.9992075 
9.64853e+2, 1.4450166e+2, -1413959.4, -1576982.5, -11426.638, 0.04830193, -0.21219593, -1413162.4, 110701.336, 0.00000019058375, 10.00119, 9.999026 
9.648726e+2, 1.545009e+2, -1322444.9, -1481684.4, -16369.608, 0.010689914, -0.18938658, -1320779.5, 105092.75, 0.0, 10.001143, 9.99903 
9.6489245e+2, 1.6450004e+2, -1244060.0, -1385621.0, -17766.766, -0.0048734657, -0.1794678, -1241864.3, 86017.516, 0.0, 10.000977, 9.999097 
9.649127e+2, 1.7449905e+2, -1190891.4, -1307850.3, -20110.96, 0.009166196, -0.18807255, -1187529.9, 42362.227, 0.0, 10.000663, 9.999109 
9.649328e+2, 1.8449827e+2, -1111422.9, -1208624.9, -22641.313, 0.008767516, -0.1801603, -1106407.8, 25492.99, 0.0, 10.000491, 9.999201 
9.649527e+2, 1.9449772e+2, -1012225.3, -1108650.4, -24571.572, -0.009736618, -0.15504307, -1006324.9, 27582.234, 0.0, 10.000493, 9.999212 
9.649729e+2, 2.0449713e+2, -942712.5, -1030258.06, -11774.861, -0.0168425, -0.13058342, -941156.44, -5242.0767, 0.0, 10.000322, 9.999161 
9.649936e+2, 2.144965e+2, -900300.25, -958302.9, -18860.426, -0.009540649, -0.110360205, -894706.9, -56784.137, 0.0, 9.999938, 9.999167 
9.6501416e+2, 2.2449572e+2, -836709.2, -877984.8, -26178.615, -0.005014512, -0.09995917, -824011.75, -84080.13, 0.0, 9.999706, 9.999158 
9.650346e+2, 2.3449484e+2, -744926.2, -782272.06, -23515.21, -0.0039512343, -0.103657216, -733571.75, -91630.625, 0.0, 9.99966, 9.999165 
9.650552e+2, 2.4449411e+2, -664023.2, -700120.94, -15249.951, -0.0015107057, -0.087898724, -658443.2, -114493.73, 0.0, 9.999576, 9.999096 
9.650759e+2, 2.5449353e+2, -585070.94, -610682.5, -17660.473, 0.0023954036, -0.052919276, -576062.0, -130105.58, 0.0, 9.999442, 9.999102 
9.6509683e+2, 2.6449272e+2, -502540.03, -498109.53, -13489.758, 0.007868702, -0.05273304, -486654.34, -138689.03, 0.0, 9.999241, 9.999298 
9.651177e+2, 2.744916e+2, -444929.84, -417508.63, -13617.054, 0.015749706, -0.09536134, -411895.56, -161919.42, 0.0, 9.998955, 9.999317 
9.6513855e+2, 2.8449106e+2, -369109.44, -324399.34, -16458.906, 0.020922752, -0.07989135, -318993.9, -167012.44, 0.0, 9.998777, 9.999369 
9.651593e+2, 2.944912e+2, -276386.94, -227687.53, -15953.072, 0.021787642, -0.0019037678, -222926.95, -168946.38, 0.0, 9.998735, 9.999379 
9.651803e+2, 3.044903e+2, -211620.77, -92018.93, 7686.6646, 0.019812481, -0.06454741, -91526.945, -91526.945, 0.0, 9.998504, 10.000088 
9.652017e+2, 3.1449017e+2, -265541.3, -97022.06, 4242.6094, 0.030702978, -0.08493502, -96915.32, -96915.32, 0.00000000015790982, 9.998043, 10.000275 
9.748125e+2, 1.2448308e+2, -1504972.9, -1719738.1, -43043.832, 0.027401173, -0.21519895, -1496667.1, 223378.94, 0.000057479218, 10.001902, 9.999048 
9.7483337e+2, 1.3448271e+2, -1457519.9, -1624105.3, 29972.883, 0.01558817, -0.17743185, -1452291.1, 169757.94, 0.000014404859, 10.001454, 9.999251 
9.7485435e+2, 1.4448155e+2, -1424456.8, -1599203.0, -13214.115, 0.06713383, -0.19606365, -1423463.1, 100597.52, 0.0000005546723, 10.001191, 9.998874 
9.748736e+2, 1.5448034e+2, -1333068.8, -1504973.3, -17759.168, -0.002180914, -0.20451291, -1331253.3, 94820.9, 0.0, 10.001148, 9.998868 
9.748933e+2, 1.6447937e+2, -1248904.1, -1397030.3, -29124.936, -0.024432298, -0.19270284, -1243383.4, 84701.51, 0.0, 10.000981, 9.999017 
9.749134e+2, 1.7447872e+2, -1195948.6, -1318915.0, -32067.164, 0.014599517, -0.15884395, -1188088.6, 42003.305, 0.0, 10.000665, 9.999033 
9.749334e+2, 1.8447791e+2, -1115055.8, -1216572.4, -23327.2, 0.023110319, -0.14748514, -1109952.0, 22148.506, 0.0, 10.000492, 9.9991455 
9.749532e+2, 1.9447687e+2, -1015421.8, -1116193.4, -24653.803, -0.0067914147, -0.16684172, -1009713.6, 24397.598, 0.0, 10.000496, 9.99916 
9.749732e+2, 2.04476e+2, -956232.75, -1059246.4, -25991.334, -0.018846286, -0.15769403, -950046.4, -13925.209, 0.0, 10.000325, 9.998961 
9.749935e+2, 2.1447536e+2, -914570.5, -988528.9, -33686.22, -0.008275916, -0.116779104, -901527.5, -63397.266, 0.0, 9.99994, 9.99896 
9.7501385e+2, 2.2447468e+2, -832062.56, -868858.9, -28738.49, -0.0043038656, -0.08972294, -816337.5, -76198.99, 0.0, 9.999707, 9.99922 
9.7503424e+2, 2.3447399e+2, -739172.7, -770842.9, -25242.492, -0.008612345, -0.082317255, -725209.56, -83063.81, 0.0, 9.999661, 9.999243 
9.750547e+2, 2.4447317e+2, -668329.25, -709494.56, -20068.785, -0.008353811, -0.075496845, -660164.7, -116010.0, 0.0, 9.999577, 9.999032 
9.750753e+2, 2.5447223e+2, -590147.94, -621234.7, -22390.988, -0.0023288478, -0.07351012, -578434.2, -132268.4, 0.0, 9.999441, 9.99903 
9.75096e+2, 2.6447147e+2, -503075.66, -498925.75, -23533.762, 0.0071415785, -0.059592832, -477375.66, -129201.55, 0.0, 9.999239, 9.999294 
9.751166e+2, 2.7447107e+2, -445061.5, -417567.44, -23766.143, 0.020384597, -0.03205802, -403858.84, -153679.98, 0.0, 9.998953, 9.999317 
9.7513735e+2, 2.844705e+2, -366936.38, -319089.0, -17854.475, 0.023128493, -0.02238, -313160.97, -160976.34, 0.0, 9.998773, 9.999408 
9.751579e+2, 2.9446968e+2, -274813.0, -222158.27, -16685.107, 0.013926873, -0.04218776, -217316.38, -163124.42, 0.0, 9.998725, 9.999423 
9.751787e+2, 3.044689e+2, -209350.64, -84728.1, -7848.1606, 0.012898057, -0.098751955, -84235.805, -84235.805, 0.0, 9.998492, 10.000144 
9.751997e+2, 3.1446984e+2, -265153.7, -94691.43, -11126.32, 0.032955553, -0.016697057, -93968.266, -93968.266, 0.0, 9.998035, 10.000296 
9.8481435e+2, 1.24463186e+2, -1499311.5, -1720476.8, -31944.848, 0.021535026, -0.20556758, -1494789.9, 225451.55, 0.00007951568, 10.001956, 9.999018 
9.8483485e+2, 1.3446265e+2, -1442911.3, -1621568.6, 29189.416, 0.012372162, -0.17902955, -1438263.1, 183982.5, 0.000022398126, 10.001575, 9.999209 
9.8485553e+2, 1.4446141e+2, -1409725.4, -1603286.1, -2181.769, 0.06311846, -0.200702, -1409700.8, 114557.414, 0.0000013019285, 10.001341, 9.998773 
9.8487484e+2, 1.544602e+2, -1319567.8, -1509656.8, -1638.6852, -0.000486351, -0.19680555, -1319553.6, 106718.086, 0.0, 10.001289, 9.998767 
9.848943e+2, 1.6445915e+2, -1230191.0, -1398492.3, -19417.59, -0.021053785, -0.18382145, -1227979.8, 100303.54, 0.0, 10.001156, 9.998922 
9.849142e+2, 1.7445828e+2, -1165969.0, -1314721.1, -24239.748, 0.014969783, -0.16363348, -1162118.8, 68173.55, 0.0, 10.000916, 9.99894 
9.84934e+2, 1.8445735e+2, -1087574.9, -1212556.9, -9409.505, 0.023063779, -0.15509254, -1086870.4, 45431.543, 0.0, 10.000721, 9.999063 
9.8495376e+2, 1.9445634e+2, -1008052.06, -1121622.0, -12578.129, -0.004266275, -0.16317837, -1006675.7, 27636.656, 0.0, 10.0005865, 9.999079 
9.8497355e+2, 2.044554e+2, -949801.94, -1067174.9, -19778.184, -0.017075373, -0.15173185, -946558.75, -10235.79, 0.0, 10.000418, 9.998861 
9.849935e+2, 2.1445458e+2, -882393.3, -984232.7, -20065.484, -0.011187044, -0.11989224, -878582.4, -40248.516, 0.0, 10.00021, 9.998858 
9.850136e+2, 2.2445379e+2, -795551.1, -859188.3, -9977.837, -0.009361665, -0.09478071, -794023.3, -53680.12, 0.0, 9.999993, 9.999148 
9.8503387e+2, 2.344531e+2, -729257.06, -773680.9, -17533.83, -0.012796484, -0.08093034, -723170.5, -80819.945, 0.0, 9.9997635, 9.999173 
9.850542e+2, 2.4445227e+2, -676393.7, -709693.44, -17613.254, -0.010678895, -0.07318372, -668806.3, -124446.68, 0.0, 9.999506, 9.9990635 
9.8507464e+2, 2.544513e+2, -620710.06, -631609.56, -12419.937, -0.001547319, -0.07673704, -612596.8, -166226.1, 0.0, 9.999213, 9.999068 
9.85095e+2, 2.644506e+2, -546314.0, -521405.3, -11337.34, 0.007781879, -0.058887057, -517017.84, -168639.16, 0.0, 9.99895, 9.999278 
9.851154e+2, 2.7445033e+2, -479621.7, -436051.22, -13465.545, 0.016639382, -0.016265165, -432225.56, -181843.05, 0.0, 9.998725, 9.9993 
9.8513585e+2, 2.8444973e+2, -405457.88, -332883.56, -4781.41, 0.018176448, -0.009253579, -332569.9, -180181.31, 0.0, 9.998489, 9.999449 
9.8515636e+2, 2.9444876e+2, -342908.13, -249734.94, -3533.7407, 0.012275005, -0.052777104, -249601.11, -195203.45, 0.0, 9.998236, 9.999469 
9.8517686e+2, 3.0444816e+2, -265089.0, -92289.16, 3830.8333, 0.011677964, -0.099755295, -92204.27, -92204.27, 0.0, 9.998028, 10.000315 
9.8519754e+2, 3.1444952e+2, -277249.38, -83543.47, 8869.383, 0.02603951, 0.0057717254, -83138.2, -83138.2, 0.0, 9.997881, 10.000445 
9.9481654e+2, 1.2444356e+2, -1507486.8, -1737920.6, -40733.02, 0.048899308, -0.20131281, -1500498.5, 219934.95, 0.00010622788, 10.001956, 9.9988985 
9.948363e+2, 1.3444254e+2, -1452391.1, -1641629.3, 15026.613, -0.0046672453, -0.21064635, -1451205.4, 171237.23, 0.00003292342, 10.001576, 9.999072 
9.948566e+2, 1.4444123e+2, -1412740.5, -1610134.9, -4586.988, 0.0349444, -0.22805575, -1412634.0, 111821.88, 0.0000026281716, 10.001343, 9.998725 
9.948762e+2, 1.5444058e+2, -1322095.8, -1515575.6, -3350.6587, 0.015988825, -0.16530181, -1322037.8, 104426.664, 0.00000000019976186, 10.001292, 9.998726 
9.9489576e+2, 1.6443947e+2, -1237569.3, -1414803.8, -27970.902, 0.006058662, -0.15154307, -1233259.8, 95216.81, 0.0, 10.001159, 9.998809 
9.9491507e+2, 1.7443776e+2, -1173295.4, -1331171.5, -33388.715, 0.010036617, -0.20335391, -1166524.5, 63968.47, 0.0, 10.000919, 9.998826 
9.949345e+2, 1.8443662e+2, -1095046.3, -1229044.0, -15111.203, 0.007894257, -0.20431629, -1093363.3, 39141.434, 0.0, 10.000725, 9.998948 
9.9495435e+2, 1.9443618e+2, -1015627.4, -1137973.1, -18029.836, -0.0023518128, -0.14403659, -1013025.7, 21484.479, 0.0, 10.000588, 9.998966 
9.949741e+2, 2.0443538e+2, -949581.2, -1067329.4, -27832.707, -0.011472971, -0.11222814, -943333.7, -6814.1885, 0.0, 10.00042, 9.99886 
9.949936e+2, 2.1443416e+2, -881744.2, -983509.6, -28232.986, -0.018406846, -0.11968773, -874436.25, -35902.7, 0.0, 10.000212, 9.998863 
9.950135e+2, 2.2443308e+2, -809832.0, -889406.9, -18815.947, -0.02043618, -0.11516466, -805607.2, -65061.492, 0.0, 9.999994, 9.99894 
9.9503356e+2, 2.3443219e+2, -744304.6, -805394.3, -26205.14, -0.01663936, -0.09905077, -734604.0, -92048.54, 0.0, 9.999764, 9.998956 
9.950537e+2, 2.444314e+2, -667632.4, -691927.06, -28359.174, -0.008686112, -0.08074162, -648928.44, -104364.27, 0.0, 9.999507, 9.999186 
9.950739e+2, 2.544308e+2, -610531.75, -610887.7, -23081.158, 0.0041310126, -0.06327544, -587627.9, -141056.33, 0.0, 9.999214, 9.99921 
9.95094e+2, 2.644301e+2, -548551.4, -526327.1, -19609.139, 0.009310422, -0.050586995, -514900.47, -166321.23, 0.0, 9.99895, 9.999245 
9.95114e+2, 2.744294e+2, -482662.13, -442205.66, -21398.307, 0.005007105, -0.045683492, -432987.84, -182400.73, 0.0, 9.998723, 9.999259 
9.9513423e+2, 2.844288e+2, -403121.53, -327359.6, -13378.641, 0.0062423702, -0.038853552, -325066.5, -172472.98, 0.0, 9.998486, 9.999489 
9.951546e+2, 2.9442835e+2, -340412.72, -243420.3, -12000.194, 0.01504153, -0.035849795, -241957.66, -187359.44, 0.0, 9.99823, 9.999516 
9.9517494e+2, 3.0442804e+2, -247437.42, -53951.59, -1114.9115, 0.014357525, -0.06928521, -53945.168, -53945.168, 0.0, 9.998019, 10.000583 
9.9519527e+2, 3.1442913e+2, -260802.52, -46718.77, 4478.3315, 0.009623438, -0.018833268, -46625.13, -46625.13, 0.0, 9.997869, 10.000705 
1.0048186e+3, 1.24423884e+2, -1515627.8, -1747559.9, -37044.547, 0.06193047, -0.20810762, -1509854.6, 210771.81, 0.00013782152, 10.001925, 9.998847 
1.0048379e+3, 1.3442287e+2, -1402886.6, -1625360.5, 19061.406, -0.014733072, -0.2085565, -1401265.3, 221370.31, 0.000046236724, 10.001949, 9.999003 
1.00485794e+3, 1.4442152e+2, -1352966.3, -1590190.6, -357.76657, 0.017301505, -0.22313434, -1352965.8, 171683.64, 0.00000474816, 10.001792, 9.998646 
1.0048776e+3, 1.5442078e+2, -1314165.8, -1520785.3, -2554.0261, 0.024322733, -0.16153324, -1314134.1, 112524.77, 0.000000004412824, 10.001386, 9.998645 
1.004897e+3, 1.6441959e+2, -1239632.5, -1421367.9, -22203.44, 0.01950719, -0.14850907, -1236959.1, 91712.6, 0.0, 10.001169, 9.998759 
1.004916e+3, 1.7441785e+2, -1135957.0, -1318239.3, -22284.313, 0.0018798438, -0.19978447, -1133272.3, 97416.12, 0.0, 10.001198, 9.99878 
1.0049352e+3, 1.844166e+2, -1054438.8, -1220063.8, -5770.987, -0.004820864, -0.20305993, -1054238.0, 78462.836, 0.0, 10.001049, 9.998853 
1.00495495e+3, 1.94416e+2, -1009632.1, -1145835.3, -7820.341, 0.002052387, -0.149313, -1009184.56, 25523.186, 0.0, 10.000676, 9.998869 
1.00497454e+3, 2.0441514e+2, -952898.06, -1073886.6, -15125.918, -0.0027460055, -0.117410205, -951035.7, -14318.039, 0.0, 10.00042, 9.998815 
1.00499384e+3, 2.1441397e+2, -870073.0, -982454.3, -18936.396, -0.021673728, -0.11604451, -866967.94, -28236.826, 0.0, 10.000312, 9.998821 
1.0050134e+3, 2.2441283e+2, -802183.8, -894338.06, -12076.549, -0.02713391, -0.11184557, -800627.5, -59883.625, 0.0, 10.000086, 9.998862 
1.0050333e+3, 2.3441173e+2, -758122.3, -820700.2, -9742.941, -0.015711827, -0.10796796, -756640.5, -113884.82, 0.0, 9.999708, 9.998877 
1.00505315e+3, 2.4441092e+2, -683916.0, -697366.06, -9097.906, -0.0051599205, -0.09103677, -679327.4, -134562.53, 0.0, 9.999387, 9.999206 
1.00507304e+3, 2.5441045e+2, -620431.06, -612406.1, -12722.303, 0.0036785533, -0.061069485, -603078.56, -156307.86, 0.0, 9.999134, 9.999237 
1.00509286e+3, 2.6440978e+2, -557509.5, -530504.3, -11503.758, 0.0074292924, -0.04776961, -526268.4, -177490.23, 0.0, 9.99889, 9.999245 
1.0051127e+3, 2.7440894e+2, -493490.1, -447386.88, -10586.861, 0.0052719093, -0.057616107, -445072.0, -194284.67, 0.0, 9.998651, 9.999257 
1.00513265e+3, 2.8440833e+2, -424244.78, -335727.47, -5710.3477, 0.0069965473, -0.052454792, -335360.63, -182566.69, 0.0, 9.998334, 9.999504 
1.0051526e+3, 2.9440805e+2, -383180.66, -261852.97, -7333.282, 0.013577063, -0.034045633, -261411.33, -206613.97, 0.0, 9.99793, 9.999533 
1.00517265e+3, 3.044079e+2, -299803.34, -67196.19, 1956.5751, 0.010890932, -0.055093784, -67179.73, -67179.73, 0.0, 9.997609, 10.000689 
1.00519285e+3, 3.1440896e+2, -324220.0, -66628.81, -3828.9783, 0.0030789177, -0.019747185, -66571.914, -66571.914, 0.0, 9.997389, 10.000799 
1.0148204e+3, 1.2440416e+2, -1514833.0, -1745119.1, -31094.441, 0.05503733, -0.22882095, -1510708.4, 210111.77, 0.00017450533, 10.001921, 9.998867 
1.0148398e+3, 1.3440375e+2, -1402160.8, -1624836.3, 20378.047, -0.0180885, -0.17062536, -1400311.3, 222512.61, 0.000062540406, 10.001953, 9.999005 
1.0148597e+3, 1.4440235e+2, -1360218.0, -1607024.3, -14558.745, 0.010347928, -0.18351497, -1359362.3, 165475.92, 0.000007860604, 10.001799, 9.998528 
1.01487905e+3, 1.5440086e+2, -1322554.4, -1538943.8, -18126.887, 0.024039099, -0.18662705, -1321046.4, 105808.72, 0.000000028517778, 10.001388, 9.99852 
1.0148981e+3, 1.6439955e+2, -1238635.6, -1419755.9, -22185.754, 0.018555833, -0.17640096, -1235957.6, 92911.12, 0.0, 10.00117, 9.99877 
1.01491705e+3, 1.7439859e+2, -1133820.5, -1314825.8, -21173.521, -0.009755923, -0.15192942, -1131376.6, 99501.36, 0.0, 10.001202, 9.998802 
1.0149362e+3, 1.8439738e+2, -1059198.3, -1231135.0, -19316.887, -0.015130166, -0.1497693, -1057054.8, 75835.055, 0.0, 10.001054, 9.9987755 
1.0149557e+3, 1.9439586e+2, -1015035.75, -1157858.3, -22272.363, 0.008669931, -0.17911552, -1011643.1, 23261.713, 0.0, 10.000679, 9.998786 
1.014975e+3, 2.0439471e+2, -959030.1, -1087174.0, -20158.08, 0.008746505, -0.16801645, -955933.9, -19016.592, 0.0, 10.000421, 9.998723 
1.01499416e+3, 2.1439403e+2, -876127.25, -995578.44, -23252.691, -0.021125287, -0.10908891, -871760.44, -32833.926, 0.0, 10.000314, 9.998731 
1.01501346e+3, 2.2439305e+2, -798568.2, -887499.8, -25955.082, -0.029555775, -0.08475876, -791547.4, -50609.64, 0.0, 10.000088, 9.998909 
1.01503305e+3, 2.3439175e+2, -753864.75, -812553.0, -24034.186, -0.010355367, -0.10783804, -745278.44, -102327.15, 0.0, 9.99971, 9.998932 
1.01505265e+3, 2.4439077e+2, -689414.5, -709454.8, -18841.607, -0.00044616396, -0.10401628, -678094.3, -133132.6, 0.0, 9.999389, 9.999122 
1.0150721e+3, 2.5439027e+2, -626497.0, -625503.94, -21886.96, -0.0027113978, -0.06963143, -604107.9, -157139.64, 0.0, 9.999135, 9.999147 
1.0150917e+3, 2.6438963e+2, -555622.4, -526789.9, -19924.219, 0.0020859784, -0.050253946, -516613.38, -167637.9, 0.0, 9.99889, 9.99927 
1.0151114e+3, 2.7438888e+2, -491263.7, -442479.16, -18816.05, 0.01588378, -0.05290714, -436065.13, -185081.67, 0.0, 9.998648, 9.999292 
1.015131e+3, 2.8438827e+2, -425894.0, -338849.28, -19936.762, 0.018879974, -0.050508194, -334500.25, -181510.03, 0.0, 9.998332, 9.999484 
1.01515055e+3, 2.9438782e+2, -384491.88, -264774.72, -21745.182, 0.008393957, -0.04603222, -260947.34, -205951.98, 0.0, 9.997929, 9.999513 
1.01517014e+3, 3.0438775e+2, -302899.6, -73486.93, -5359.678, 0.0016548879, -0.05621176, -73361.78, -73361.78, 0.0, 9.997608, 10.000647 
1.0151902e+3, 3.14389e+2, -329330.63, -75477.164, -10060.511, 0.0027740663, -0.0037947935, -75079.08, -75079.08, 0.0, 9.99738, 10.000743 
1.0248223e+3, 1.243849e+2, -1495432.3, -1741081.5, -15341.231, 0.037512697, -0.21955292, -1494477.9, 226531.39, 0.0002164286, 10.002078, 9.998818 
1.0248418e+3, 1.3438445e+2, -1423222.9, -1643079.1, 25145.64, -0.007372828, -0.15722519, -1420383.6, 202630.31, 0.00008198819, 10.001845, 9.998932 
1.0248615e+3, 1.4438301e+2, -1382917.1, -1618424.3, -15377.912, 0.020457597, -0.17138535, -1381917.3, 143111.48, 0.000012107449, 10.001645, 9.998523 
1.0248803e+3, 1.5438144e+2, -1309608.6, -1532538.6, -10233.589, 0.0154267615, -0.18006735, -1309139.9, 117906.055, 0.00000009714164, 10.001476, 9.998521 
1.0248992e+3, 1.6438015e+2, -1220691.8, -1418327.3, -3197.7703, 0.004072536, -0.16864078, -1220640.0, 108419.66, 0.0, 10.001326, 9.998705 
1.0249182e+3, 1.743792e+2, -1139903.3, -1325513.5, -8578.283, -0.013472124, -0.13537614, -1139507.6, 91561.22, 0.0, 10.001194, 9.998733 
1.02493726e+3, 1.8437791e+2, -1069083.9, -1239957.5, -18452.578, -0.0140599795, -0.13510036, -1067113.9, 65967.484, 0.0, 10.001004, 9.998738 
1.0249564e+3, 1.9437622e+2, -1007524.75, -1157930.5, -18339.86, 0.0066944743, -0.17910756, -1005320.75, 29776.848, 0.0, 10.000747, 9.998753 
1.0249755e+3, 2.0437495e+2, -949428.8, -1087244.9, -7056.717, 0.0070642116, -0.17542884, -949068.44, -11957.619, 0.0, 10.000507, 9.99868 
1.0249945e+3, 2.1437424e+2, -882123.44, -1003074.4, -6164.055, -0.018337604, -0.115420505, -881810.06, -42689.938, 0.0, 10.000293, 9.998689 
1.02501355e+3, 2.2437327e+2, -807308.6, -893718.5, -15840.725, -0.025985038, -0.08920887, -804496.25, -63364.785, 0.0, 10.000037, 9.99889 
1.0250327e+3, 2.3437196e+2, -752349.1, -813609.75, -20088.771, -0.010787312, -0.1086194, -746349.2, -103204.1, 0.0, 9.999729, 9.998915 
1.025052e+3, 2.4437103e+2, -676659.1, -698317.5, -10121.334, -0.0034716697, -0.10294758, -672665.6, -127510.29, 0.0, 9.999456, 9.999165 
1.02507114e+3, 2.5437057e+2, -610364.2, -612075.4, -3014.3582, -0.006215922, -0.06948771, -608086.4, -160925.3, 0.0, 9.999223, 9.999196 
1.0250906e+3, 2.6436993e+2, -554585.1, -527220.25, -501.89932, -0.001131205, -0.051328268, -527211.06, -178043.02, 0.0, 9.998902, 9.99926 
1.02510996e+3, 2.7436918e+2, -518021.94, -456424.2, -3698.3538, 0.0135556115, -0.055907406, -456202.94, -205026.52, 0.0, 9.99847, 9.999281 
1.02512926e+3, 2.8436854e+2, -451611.16, -350700.63, -4317.269, 0.016941922, -0.05431102, -350516.28, -197332.89, 0.0, 9.998155, 9.999487 
1.0251484e+3, 2.943681e+2, -376358.72, -260152.2, -4203.695, 0.0067934194, -0.048696283, -260000.33, -204811.97, 0.0, 9.997983, 9.999518 
1.0251677e+3, 3.043681e+2, -304813.06, -76357.81, 8173.1406, 0.0014434503, -0.053234566, -76065.78, -76065.78, 0.0, 9.997603, 10.000628 
1.0251872e+3, 3.143692e+2, -392416.5, -109272.93, 4433.538, 0.0027127685, -0.008583473, -109203.52, -109203.52, 0.0, 9.996962, 10.000711 
1.03482395e+3, 1.2436618e+2, -1504134.3, -1759599.8, -19061.09, 0.005850722, -0.1788505, -1502719.9, 218473.48, 0.0002637313, 10.002079, 9.998692 
1.03484385e+3, 1.3436504e+2, -1434635.6, -1666226.6, 16231.404, 0.018010478, -0.16984151, -1433503.6, 189701.72, 0.00010469639, 10.001842, 9.998775 
1.0348634e+3, 1.4436352e+2, -1375317.5, -1602309.8, -21631.348, 0.04880919, -0.18893336, -1373274.5, 151946.55, 0.000017566988, 10.001642, 9.998635 
1.0348816e+3, 1.5436265e+2, -1300151.0, -1513401.3, -16365.667, -0.0018541755, -0.14071502, -1298902.3, 128328.52, 0.00000023822265, 10.001477, 9.998652 
1.03490025e+3, 1.643614e+2, -1230604.0, -1439672.1, -8327.015, -0.024833687, -0.12345103, -1230272.9, 98970.875, 0.0, 10.0013275, 9.998557 
1.0349195e+3, 1.743597e+2, -1151299.5, -1349667.9, -13711.615, -0.009496932, -0.15071541, -1150356.3, 80904.59, 0.0, 10.001195, 9.998567 
1.0349383e+3, 1.8435822e+2, -1068744.0, -1239853.9, -28224.494, -0.0015742608, -0.16026042, -1064208.6, 69066.61, 0.0, 10.001005, 9.998738 
1.034957e+3, 1.9435708e+2, -1006129.4, -1155812.3, -28320.363, -0.0039176545, -0.14911485, -1000950.3, 34335.49, 0.0, 10.00075, 9.998766 
1.0349758e+3, 2.043559e+2, -948753.94, -1086542.9, -15650.853, -0.008017013, -0.13899662, -946998.56, -9700.736, 0.0, 10.00051, 9.998684 
1.0349947e+3, 2.1435463e+2, -881503.06, -1002446.9, -14563.95, -0.013670744, -0.13490136, -879774.0, -40462.188, 0.0, 10.000295, 9.9986925 
1.03501365e+3, 2.2435343e+2, -813092.56, -906356.44, -27440.19, -0.016749026, -0.1252068, -805618.1, -64293.09, 0.0, 10.000039, 9.998802 
1.03503235e+3, 2.343524e+2, -758553.1, -827205.0, -31734.695, -0.01695216, -0.11031971, -746131.25, -102794.1, 0.0, 9.999732, 9.998821 
1.0350513e+3, 2.4435167e+2, -664972.5, -674677.4, -18928.803, -0.014197649, -0.088018976, -650284.06, -104938.46, 0.0, 9.999457, 9.999327 
1.0350704e+3, 2.5435132e+2, -597737.75, -585861.44, -11468.056, -0.007440795, -0.060859784, -578885.4, -131536.1, 0.0, 9.999222, 9.999377 
1.0350895e+3, 2.6435068e+2, -558384.06, -534905.7, -15939.798, -0.0027703315, -0.050817534, -526848.75, -177492.75, 0.0, 9.9989, 9.999209 
1.0351083e+3, 2.7434972e+2, -522438.53, -465902.94, -19436.002, -0.001132335, -0.06581342, -459865.84, -208499.44, 0.0, 9.998471, 9.999216 
1.0351272e+3, 2.8434908e+2, -449998.66, -347532.5, -10508.252, 0.0017194984, -0.063343726, -346465.94, -193092.25, 0.0, 9.998154, 9.999509 
1.03514634e+3, 2.9434884e+2, -374846.7, -256154.22, -9555.607, 0.0075383787, -0.042738732, -255389.84, -200013.0, 0.0, 9.997978, 9.999548 
1.0351654e+3, 3.0434886e+2, -305760.8, -77823.04, -13904.283, 0.008617006, -0.04611054, -76978.01, -76978.01, 0.0, 9.997601, 10.000621 
1.0351842e+3, 3.1434965e+2, -392813.16, -111476.31, -18171.012, 0.0022227175, -0.032938983, -110307.54, -110307.54, 0.0, 9.996967, 10.000694 
1.04482606e+3, 1.2434737e+2, -1495471.5, -1761882.3, -10153.228, -0.002222779, -0.16470547, -1495085.0, 226293.03, 0.00031664252, 10.002166, 9.998633 
1.0448457e+3, 1.34346e+2, -1448133.1, -1682929.9, 25142.775, 0.025701659, -0.17005916, -1445471.0, 177921.72, 0.00013079311, 10.001794, 9.998683 
1.044865e+3, 1.4434442e+2, -1375938.5, -1600000.8, -3711.6118, 0.05228248, -0.19128695, -1375877.0, 149532.06, 0.000024312307, 10.001628, 9.998657 
1.0448832e+3, 1.5434371e+2, -1264546.3, -1492647.0, -5953.903, -0.0065773968, -0.13153648, -1264390.9, 163026.03, 0.0000004785213, 10.001707, 9.998684 
1.0449016e+3, 1.6434245e+2, -1200756.9, -1433870.5, -7637.867, -0.028862258, -0.11218654, -1200506.9, 128922.914, 0.0, 10.00157, 9.99848 
1.0449207e+3, 1.7434056e+2, -1162609.5, -1364175.5, -7403.9956, -0.0017669926, -0.14904496, -1162337.9, 69111.14, 0.0, 10.001157, 9.998485 
1.0449393e+3, 1.8433905e+2, -1083202.8, -1248339.5, -14120.708, 0.005194293, -0.15846977, -1082004.0, 51460.074, 0.0, 10.000914, 9.998724 
1.04495764e+3, 1.9433802e+2, -985503.0, -1146728.1, -15578.155, -0.014545843, -0.13539535, -984011.56, 51461.844, 0.0, 10.0008955, 9.998757 
1.0449762e+3, 2.0433682e+2, -923136.06, -1073475.8, -10908.479, -0.021644294, -0.125915, -922348.7, 15136.624, 0.0, 10.000684, 9.99869 
1.044995e+3, 2.143354e+2, -891403.8, -1006275.44, -10231.511, -0.011629628, -0.13782722, -890499.6, -50999.34, 0.0, 10.000224, 9.9987 
1.0450137e+3, 2.2433418e+2, -831414.5, -913776.94, -15362.822, -0.010207592, -0.13255006, -828642.25, -87128.57, 0.0, 9.9999075, 9.998815 
1.0450321e+3, 2.3433325e+2, -750772.4, -821876.4, -11675.052, -0.020344086, -0.10783202, -748904.44, -105379.57, 0.0, 9.999779, 9.998835 
1.0450507e+3, 2.4433257e+2, -658123.75, -663382.06, -3996.9265, -0.021311048, -0.08455898, -655968.75, -110436.02, 0.0, 9.999471, 9.999397 
1.0450695e+3, 2.5433218e+2, -634714.06, -595005.8, -5220.0664, -0.010433594, -0.06737341, -594331.06, -146794.88, 0.0, 9.998932, 9.999454 
1.0450882e+3, 2.6433158e+2, -600890.7, -548863.7, -6061.4165, -0.0043012025, -0.061323646, -548166.9, -198624.47, 0.0, 9.998582, 9.999266 
1.0451067e+3, 2.7433074e+2, -517949.44, -457368.0, -549.39825, -0.0043603443, -0.07289284, -457363.03, -205811.08, 0.0, 9.998475, 9.999272 
1.04512535e+3, 2.8433013e+2, -443618.78, -344294.75, 9478.29, -0.0024931775, -0.06948168, -343398.34, -189839.42, 0.0, 9.9981985, 9.99951 
1.0451442e+3, 2.9432985e+2, -415031.16, -275524.84, 7324.3403, 0.002822298, -0.05107968, -275141.38, -219578.94, 0.0, 9.997704, 9.999547 
1.0451628e+3, 3.0432993e+2, -341123.56, -87330.805, 945.38104, 0.0064734938, -0.052488912, -87327.28, -87327.28, 0.0, 9.997327, 10.000687 
1.0451813e+3, 3.1433082e+2, -369111.1, -92773.35, 2321.4565, 0.006605487, -0.03694939, -92753.85, -92753.85, 0.0, 9.9971, 10.000758 
1.05482824e+3, 1.2432848e+2, -1494315.0, -1759654.5, -19016.44, 0.010564644, -0.1825474, -1492959.1, 228604.34, 0.0003754382, 10.002166, 9.998649 
1.0548474e+3, 1.343274e+2, -1450137.5, -1686851.8, 11252.251, 0.014604391, -0.15731093, -1449603.9, 173971.55, 0.00016041061, 10.001792, 9.998657 
1.0548665e+3, 1.4432578e+2, -1381306.4, -1611112.3, -1300.9926, 0.028924383, -0.17714232, -1381299.0, 144293.02, 0.000032450233, 10.001627, 9.998582 
1.0548849e+3, 1.5432462e+2, -1269608.0, -1503818.3, -2897.1528, 0.0012860624, -0.15365995, -1269572.3, 158031.69, 0.0000008393984, 10.001709, 9.998607 
1.0549034e+3, 1.643233e+2, -1200694.5, -1434788.8, -22234.668, -0.0072249332, -0.1364672, -1198601.3, 131016.29, 0.0, 10.001574, 9.998472 
1.0549219e+3, 1.7432185e+2, -1162238.0, -1364031.4, -23225.24, 0.009936164, -0.13016716, -1159599.4, 72033.766, 0.0, 10.001159, 9.998486 
1.05494015e+3, 1.8432042e+2, -1085135.3, -1252855.4, -16060.05, 0.005989978, -0.12894124, -1083611.3, 50036.293, 0.0, 10.000915, 9.9986925 
1.0549585e+3, 1.9431904e+2, -987477.8, -1151522.6, -16491.523, -0.025566062, -0.13808031, -985836.4, 49823.88, 0.0, 10.000897, 9.998724 
1.0549768e+3, 2.0431775e+2, -922355.7, -1072774.0, -27495.0, -0.034170188, -0.1365795, -917487.44, 20185.475, 0.0, 10.000687, 9.998693 
1.0549952e+3, 2.1431656e+2, -890377.5, -1005048.75, -27866.742, -0.012337953, -0.124304205, -883964.1, -44278.703, 0.0, 10.000227, 9.998707 
1.0550137e+3, 2.2431548e+2, -823503.4, -898106.6, -21238.727, -0.0064680413, -0.1113057, -817880.75, -76183.4, 0.0, 9.99991, 9.998921 
1.0550319e+3, 2.3431453e+2, -742358.2, -804771.94, -16544.951, -0.021219328, -0.10118383, -738243.6, -94535.305, 0.0, 9.99978, 9.998952 
1.05505005e+3, 2.4431373e+2, -659639.0, -666846.44, -23206.898, -0.025122266, -0.09227344, -639757.7, -94040.92, 0.0, 9.999472, 9.999373 
1.0550682e+3, 2.543132e+2, -636496.2, -599524.2, -25236.596, -0.0152657665, -0.08832403, -586727.3, -139005.52, 0.0, 9.998935, 9.999421 
1.0550867e+3, 2.6431265e+2, -589500.0, -525986.8, -10726.803, -0.005925452, -0.08233496, -524224.06, -174496.72, 0.0, 9.998584, 9.999422 
1.05510525e+3, 2.7431214e+2, -506102.47, -432581.88, -4040.1636, 0.0028752682, -0.07745486, -432360.53, -180627.2, 0.0, 9.998473, 9.999444 
1.05512366e+3, 2.8431162e+2, -445960.84, -348813.16, -7724.873, 0.0032949704, -0.07274424, -348202.75, -194463.34, 0.0, 9.998196, 9.99948 
1.0551417e+3, 2.9431114e+2, -417383.7, -281296.38, -10540.327, -0.007111686, -0.072168805, -280484.84, -224739.5, 0.0, 9.997706, 9.999506 
1.05516e+3, 3.0431125e+2, -330920.34, -67617.74, -7356.173, -0.0046222843, -0.07110174, -67412.39, -67412.39, 0.0, 9.997332, 10.00082 
1.0551785e+3, 3.1431267e+2, -358587.38, -71573.81, -5492.477, 0.0137184765, -0.019342385, -71468.74, -71468.74, 0.0, 9.997101, 10.000903 
1.0648306e+3, 1.2430994e+2, -1478896.0, -1754769.3, -14541.452, 0.022657113, -0.17612441, -1478131.6, 243614.44, 0.00044022893, 10.002284, 9.998626 
1.0648493e+3, 1.3430883e+2, -1417293.5, -1678986.4, 6964.598, 0.007924585, -0.14728747, -1417108.3, 206649.83, 0.0001936281, 10.002053, 9.998585 
1.0648679e+3, 1.4430712e+2, -1356479.8, -1600282.5, 2132.0823, 0.012352375, -0.17034183, -1356461.1, 169314.05, 0.00004209593, 10.001803, 9.99857 
1.0648866e+3, 1.5430583e+2, -1298786.8, -1518476.0, 5942.6914, 0.013544627, -0.15954083, -1298626.1, 129162.1, 0.0000013547506, 10.001513, 9.9986 
1.064905e+3, 1.6430452e+2, -1239990.8, -1454571.3, -15755.997, 0.009528823, -0.14173384, -1238840.0, 90961.914, 0.0, 10.001308, 9.998464 
1.06492296e+3, 1.7430323e+2, -1153485.0, -1360697.6, -17897.902, -0.00037292702, -0.1178841, -1151950.4, 79865.76, 0.0, 10.001224, 9.998476 
1.0649411e+3, 1.8430185e+2, -1068170.6, -1243384.6, -7115.242, -0.010606437, -0.11206872, -1067882.1, 65948.195, 0.0, 10.001027, 9.998704 
1.06495924e+3, 1.9430037e+2, -1017311.94, -1164268.6, -3899.917, -0.021282284, -0.13332689, -1017208.5, 18635.545, 0.0, 10.000687, 9.998737 
1.0649774e+3, 2.0429906e+2, -958193.8, -1085569.5, -16445.322, -0.023741802, -0.13540694, -956104.8, -18248.127, 0.0, 10.0004225, 9.998733 
1.06499545e+3, 2.1429801e+2, -882281.1, -996475.7, -14654.204, -0.015449331, -0.11540778, -880430.6, -40562.77, 0.0, 10.000263, 9.998749 
1.0650134e+3, 2.2429697e+2, -814851.1, -888324.6, -9397.085, -0.012425762, -0.10173174, -813668.3, -71789.36, 0.0, 9.999946, 9.998971 
1.0650315e+3, 2.34296e+2, -790642.9, -822135.25, -9933.84, -0.01573598, -0.100130625, -787771.2, -143881.28, 0.0, 9.999423, 9.999003 
1.0650495e+3, 2.4429518e+2, -712033.4, -686772.0, -16449.035, -0.018509725, -0.09796613, -678663.75, -132765.36, 0.0, 9.999089, 9.99942 
1.0650671e+3, 2.5429463e+2, -623258.3, -587597.6, -12892.8125, -0.021066658, -0.09861658, -583424.6, -135521.36, 0.0, 9.999002, 9.999471 
1.0650852e+3, 2.6429415e+2, -560715.8, -505093.9, 2113.6172, -0.014374976, -0.09193309, -505013.72, -155105.5, 0.0, 9.998752, 9.999484 
1.0651036e+3, 2.7429378e+2, -528612.3, -436035.53, 714.03, 0.0045291674, -0.07923133, -436030.03, -184117.19, 0.0, 9.998287, 9.999509 
1.06512174e+3, 2.8429335e+2, -472480.88, -350159.2, -3515.947, 0.0062108906, -0.07202599, -350058.22, -196140.44, 0.0, 9.997966, 9.999581 
1.0651394e+3, 2.9429293e+2, -391102.97, -256741.83, 4090.1643, -0.014776602, -0.07626151, -256617.42, -200694.58, 0.0, 9.997836, 9.999612 
1.06515735e+3, 3.0429304e+2, -301448.6, -59027.47, 4863.9683, -0.016769117, -0.082098864, -58929.918, -58929.918, 0.0, 9.99756, 10.000769 
1.0651754e+3, 3.142944e+2, -364178.28, -80710.24, -9142.009, 0.004718844, -0.025703022, -80415.72, -80415.72, 0.0, 9.997092, 10.000845 
1.074833e+3, 1.24291845e+2, -1483593.3, -1764625.5, -17434.217, 0.032613005, -0.14305338, -1482515.9, 239409.19, 0.0005108164, 10.002284, 9.998558 
1.0748512e+3, 1.3429034e+2, -1425648.0, -1696796.0, -1762.6132, 0.0057225563, -0.14023149, -1425636.6, 198303.8, 0.00023041679, 10.002054, 9.998462 
1.0748696e+3, 1.4428852e+2, -1352793.1, -1593147.1, -8593.331, 0.0027152211, -0.17151335, -1352486.4, 173472.02, 0.000053336094, 10.001804, 9.998619 
1.0748883e+3, 1.5428741e+2, -1294526.6, -1509422.4, -5255.957, 0.030250238, -0.14847776, -1294398.1, 133571.1, 0.0000020676762, 10.001511, 9.998663 
1.0749064e+3, 1.6428618e+2, -1241121.5, -1456754.3, -19507.371, 0.021138795, -0.12710129, -1239370.9, 90611.29, 0.0000000000166348, 10.0013075, 9.998449 
1.0749238e+3, 1.7428476e+2, -1154711.4, -1363809.9, -21116.574, -0.033559587, -0.11230852, -1152600.1, 79397.64, 0.0, 10.001225, 9.998454 
1.0749417e+3, 1.8428338e+2, -1064240.6, -1236076.6, -19708.215, -0.045578606, -0.10818935, -1062009.3, 72002.875, 0.0, 10.00103, 9.998753 
1.0749602e+3, 1.9428204e+2, -1012974.0, -1155832.5, -17096.121, -0.0017714971, -0.12107803, -1010956.56, 25067.984, 0.0, 10.000689, 9.9987955 
1.0749781e+3, 2.0428081e+2, -952767.06, -1074952.9, -23247.672, 0.009905262, -0.1222819, -948493.3, -10456.926, 0.0, 10.000424, 9.998805 
1.0749956e+3, 2.1427973e+2, -876847.75, -985895.06, -20842.371, -0.020975662, -0.11117359, -872999.9, -32952.62, 0.0, 10.000265, 9.99882 
1.0750132e+3, 2.2427867e+2, -815068.4, -889591.25, -28338.365, -0.028332828, -0.1037935, -805516.6, -63458.184, 0.0, 9.9999485, 9.998961 
1.075031e+3, 2.3427765e+2, -791200.94, -824303.25, -29580.48, -0.004243323, -0.10459284, -773856.0, -129786.26, 0.0, 9.999427, 9.998988 
1.0750487e+3, 2.4427688e+2, -703832.5, -670570.4, -20712.53, -0.0018374401, -0.10168976, -660638.25, -114560.67, 0.0, 9.999092, 9.999531 
1.0750662e+3, 2.542765e+2, -614563.44, -569711.3, -15830.566, -0.027976494, -0.09863514, -564686.8, -116605.984, 0.0, 9.9990015, 9.999594 
1.0750838e+3, 2.642761e+2, -562963.2, -509736.84, -14044.07, -0.02961512, -0.0904897, -506258.53, -156173.39, 0.0, 9.998751, 9.999454 
1.0751018e+3, 2.7427566e+2, -531227.6, -442123.72, -16177.376, 0.0006733698, -0.07809563, -439277.53, -187186.9, 0.0, 9.998289, 9.999467 
1.0751196e+3, 2.8427538e+2, -456609.0, -317843.38, -8776.366, 0.0060971444, -0.067309335, -317290.5, -163196.28, 0.0, 9.997967, 9.999803 
1.0751372e+3, 2.9427525e+2, -374440.88, -221734.48, -290.43677, -0.020629114, -0.06430111, -221733.92, -165638.6, 0.0, 9.997833, 9.999854 
1.0751548e+3, 3.042752e+2, -317675.38, -92703.03, -11327.541, -0.030036036, -0.086019725, -92134.12, -92134.12, 0.0, 9.997558, 10.000539 
1.07517235e+3, 3.142761e+2, -380999.6, -117811.03, -26044.045, -0.019734474, -0.054415278, -115258.58, -115258.58, 0.0, 9.9971, 10.0005865 
1.0848352e+3, 1.24273755e+2, -1490179.6, -1762211.3, -8179.1274, 0.03128125, -0.11722293, -1489933.9, 232169.84, 0.0005868399, 10.002215, 9.998608 
1.0848534e+3, 1.3427211e+2, -1406853.0, -1687131.9, 10926.575, 0.008699551, -0.12920813, -1406427.6, 217692.27, 0.00027068684, 10.002182, 9.9984665 
1.08487144e+3, 1.4427027e+2, -1331081.0, -1585850.3, -1668.4775, -0.0004293555, -0.16363998, -1331070.1, 195067.95, 0.00006622561, 10.001968, 9.9985895 
1.0848898e+3, 1.5426911e+2, -1297879.3, -1514792.4, -6897.9497, 0.030915326, -0.1390709, -1297660.1, 130489.016, 0.000003027, 10.001505, 9.998628 
1.0849077e+3, 1.6426788e+2, -1248701.0, -1450580.9, -11039.12, 0.023229795, -0.11978546, -1248099.1, 82062.805, 0.000000000186287, 10.001214, 9.998536 
1.0849251e+3, 1.7426652e+2, -1158476.1, -1354809.4, -3083.3438, -0.03291499, -0.1117734, -1158427.8, 73749.26, 0.0, 10.001154, 9.998549 
1.08494274e+3, 1.8426517e+2, -1074632.6, -1243823.5, -8948.43, -0.044691075, -0.106413096, -1074160.8, 60030.14, 0.0, 10.000971, 9.998727 
1.08496085e+3, 1.9426392e+2, -1024281.25, -1165156.6, -14156.199, 0.0013560412, -0.10741468, -1022872.8, 13330.208, 0.0, 10.000628, 9.998759 
1.08497865e+3, 2.0426272e+2, -957082.5, -1065008.4, -17432.951, 0.014376979, -0.10730834, -954336.5, -16121.944, 0.0, 10.000343, 9.998912 
1.0849959e+3, 2.1426164e+2, -887008.1, -977323.0, -11368.15, -0.016177962, -0.109290056, -885599.2, -45374.207, 0.0, 10.000138, 9.99894 
1.08501315e+3, 2.242606e+2, -819003.44, -884154.75, -22525.676, -0.025484553, -0.108952284, -811973.8, -69738.39, 0.0, 9.99989, 9.999026 
1.0850305e+3, 2.3425967e+2, -763174.8, -803789.2, -18923.299, -0.006771236, -0.10819598, -755724.6, -111478.95, 0.0, 9.99959, 9.99905 
1.0850477e+3, 2.4425896e+2, -683244.5, -662033.7, -5849.161, -0.004945544, -0.10195017, -660527.6, -114274.69, 0.0, 9.99924, 9.999518 
1.0850651e+3, 2.5425863e+2, -641602.06, -584462.06, -11147.551, -0.025051907, -0.093712464, -582364.3, -134108.02, 0.0, 9.998824, 9.999578 
1.0850824e+3, 2.6425824e+2, -592722.0, -514411.16, -13544.588, -0.029818965, -0.08589771, -512134.7, -161874.25, 0.0, 9.998506, 9.999539 
1.08509995e+3, 2.7425784e+2, -520137.3, -426229.66, -6172.8403, -0.01487271, -0.08056982, -425825.63, -173560.34, 0.0, 9.998321, 9.99956 
1.08511746e+3, 2.842576e+2, -445743.72, -311796.34, 691.51953, -0.010421607, -0.06941667, -311792.75, -157524.56, 0.0, 9.998038, 9.999809 
1.0851349e+3, 2.9425758e+2, -404378.75, -236061.73, -8356.123, -0.01876628, -0.05722104, -235647.9, -179379.36, 0.0, 9.997628, 9.999854 
1.08515225e+3, 3.0425745e+2, -341059.8, -103532.055, -19142.738, -0.027690321, -0.0880666, -101999.2, -101999.2, 0.0, 9.997396, 10.000541 
1.0851693e+3, 3.142582e+2, -333830.38, -93696.04, -15048.111, -0.041164506, -0.068787, -92756.72, -92756.72, 0.0, 9.997419, 10.000598 
1.0948373e+3, 1.2425571e+2, -1479154.8, -1737905.9, -2647.2861, 0.01605795, -0.101549484, -1479127.6, 243154.33, 0.00066826155, 10.002209, 9.998777 
1.0948556e+3, 1.342542e+2, -1397391.9, -1667562.4, 9839.193, 0.016664557, -0.11364786, -1397034.1, 227262.05, 0.00031450897, 10.002182, 9.998601 
1.0948734e+3, 1.4425237e+2, -1338738.4, -1602560.3, -17817.14, 0.0030825539, -0.14608903, -1337540.6, 188773.03, 0.000080840386, 10.001971, 9.998474 
1.0948911e+3, 1.5425101e+2, -1307596.5, -1535276.4, -24641.822, 0.014819505, -0.13166985, -1304960.0, 123367.44, 0.0000043066148, 10.001506, 9.998487 
1.0949088e+3, 1.6424969e+2, -1235865.1, -1423993.9, -14550.914, 0.014978674, -0.12014045, -1234746.3, 95594.48, 0.0000000006358386, 10.001214, 9.998719 
1.0949265e+3, 1.7424849e+2, -1143459.0, -1324023.1, -5437.9893, 0.002115061, -0.11630773, -1143295.4, 89057.84, 0.0, 10.001155, 9.998761 
1.09494396e+3, 1.8424726e+2, -1081662.1, -1259106.9, -21467.012, -0.0070197918, -0.10684702, -1079102.0, 55264.094, 0.0, 10.000974, 9.998622 
1.0949613e+3, 1.9424602e+2, -1033240.75, -1184504.4, -27414.885, -0.0119487, -0.09245248, -1028425.44, 7953.8154, 0.0, 10.00063, 9.998626 
1.0949786e+3, 2.0424484e+2, -947096.06, -1044970.25, -25882.695, -0.010964147, -0.0904854, -940672.94, -2281.9766, 0.0, 10.000345, 9.999049 
1.0949961e+3, 2.1424374e+2, -875245.5, -953657.75, -19310.11, -0.0014841723, -0.1097548, -870748.06, -30347.322, 0.0, 10.00014, 9.999102 
1.0950133e+3, 2.2424278e+2, -809007.44, -864087.56, -33808.844, -0.00403104, -0.117210545, -792941.4, -50531.574, 0.0, 9.999892, 9.999164 
1.0950299e+3, 2.3424202e+2, -753327.06, -783989.3, -30285.77, -0.023095904, -0.110959046, -734713.06, -90295.336, 0.0, 9.999592, 9.999186 
1.0950468e+3, 2.4424139e+2, -692326.3, -681546.9, -21045.701, -0.027733387, -0.09888198, -665211.75, -118787.19, 0.0, 9.999242, 9.999384 
1.095064e+3, 2.5424096e+2, -652180.9, -606904.94, -26386.287, -0.0129720755, -0.08406895, -594776.4, -146346.63, 0.0, 9.998825, 9.999424 
1.09508105e+3, 2.6424056e+2, -579185.25, -486553.03, -20724.418, -0.015645778, -0.078188464, -482127.78, -131693.66, 0.0, 9.998506, 9.999731 
1.095098e+3, 2.7424026e+2, -504593.94, -394034.3, -12644.611, -0.041733578, -0.08639398, -392606.6, -140169.52, 0.0, 9.998321, 9.999783 
1.0951151e+3, 2.8424e+2, -459712.2, -341078.7, -13669.597, -0.042843666, -0.07803709, -339523.97, -185084.11, 0.0, 9.998039, 9.999609 
1.0951326e+3, 2.9423988e+2, -419997.38, -269584.7, -22926.574, -0.009902937, -0.054786094, -266167.75, -209725.16, 0.0, 9.997632, 9.999622 
1.0951498e+3, 3.042397e+2, -324985.66, -71914.68, -18822.203, -0.010971555, -0.08834528, -70522.43, -70522.43, 0.0, 9.997403, 10.000756 
1.0951665e+3, 3.142407e+2, -314655.34, -55464.895, -13676.471, -0.06073306, -0.06622842, -54745.242, -54745.242, 0.0, 9.997425, 10.000858 
1.10483944e+3, 1.24237634e+2, -1408780.4, -1699140.9, 15739.989, 0.0012233538, -0.1141802, -1407929.6, 314529.53, 0.00075576623, 10.002672, 9.99882 
1.1048578e+3, 1.342363e+2, -1409261.3, -1671283.0, 11286.517, 0.025923517, -0.108174615, -1408776.0, 215695.52, 0.00036234639, 10.002093, 9.998618 
1.10487536e+3, 1.4423461e+2, -1364987.9, -1610411.1, -13173.441, 0.012714001, -0.13218819, -1364282.9, 162205.05, 0.00009737699, 10.001772, 9.998516 
1.1048927e+3, 1.5423308e+2, -1264514.9, -1509442.4, -6350.997, 0.008404184, -0.13866207, -1264350.3, 164152.7, 0.0000060098255, 10.001781, 9.998531 
1.10491015e+3, 1.6423172e+2, -1185808.4, -1401938.9, 2430.9436, 0.00950512, -0.13314216, -1185781.0, 144735.67, 0.0000000015512864, 10.001568, 9.998699 
1.1049277e+3, 1.7423064e+2, -1159138.9, -1334272.3, -6608.237, 0.020332988, -0.115093276, -1158889.9, 73638.52, 0.0, 10.0010605, 9.998735 
1.1049451e+3, 1.8422948e+2, -1110503.9, -1267181.0, -23785.014, 0.014350952, -0.09912026, -1106972.8, 27567.955, 0.0, 10.0007515, 9.9986725 
1.1049619e+3, 1.9422826e+2, -1017164.3, -1170154.5, -15286.376, -0.015014033, -0.088829465, -1015651.9, 20901.922, 0.0, 10.000713, 9.998684 
1.104979e+3, 2.042271e+2, -925349.1, -1028647.56, -15111.967, -0.020596977, -0.08846978, -923183.75, 15381.3955, 0.0, 10.00047, 9.999101 
1.1049962e+3, 2.142261e+2, -899707.7, -959587.1, -17376.664, 0.0062942165, -0.10582271, -895030.44, -54456.383, 0.0, 9.999948, 9.999153 
1.1050132e+3, 2.242252e+2, -843716.94, -870122.9, -32128.426, 0.0078912405, -0.11389457, -822184.44, -79602.14, 0.0, 9.999609, 9.999258 
1.1050294e+3, 2.3422448e+2, -756993.9, -774750.25, -31173.908, -0.024659628, -0.11197388, -733458.56, -88869.195, 0.0, 9.999519, 9.999283 
1.1050459e+3, 2.4422391e+2, -691731.9, -682451.4, -28876.158, -0.035926692, -0.10112324, -657845.0, -111249.24, 0.0, 9.999252, 9.9993725 
1.1050626e+3, 2.5422347e+2, -665345.44, -615456.94, -25448.584, -0.018878942, -0.08314186, -604766.3, -156165.31, 0.0, 9.998745, 9.999403 
1.1050795e+3, 2.6422307e+2, -595264.1, -492108.06, -10467.082, -0.018810242, -0.07778076, -491056.72, -140451.14, 0.0, 9.998387, 9.99975 
1.10509634e+3, 2.7422276e+2, -516395.47, -397163.7, -16224.729, -0.04122344, -0.09131727, -394995.3, -142386.52, 0.0, 9.998229, 9.9998045 
1.1051132e+3, 2.8422254e+2, -458908.28, -337679.75, -22910.512, -0.04438064, -0.08262518, -333494.47, -178883.25, 0.0, 9.998033, 9.999635 
1.10513024e+3, 2.9422247e+2, -395075.8, -254575.05, -14135.046, -0.021740565, -0.05199353, -253167.1, -196554.3, 0.0, 9.997791, 9.999648 
1.1051472e+3, 3.0422217e+2, -290450.38, -63370.59, 2646.015, -0.02166057, -0.093989104, -63339.76, -63339.76, 0.0, 9.997676, 10.000683 
1.1051642e+3, 3.1422305e+2, -273448.56, -42777.41, -15263.3, -0.053960223, -0.07861611, -41771.832, -41771.832, 0.0, 9.99774, 10.000793 
1.1148421e+3, 1.2421954e+2, -1414857.0, -1712687.3, 1659.0989, -0.015658459, -0.16107565, -1414847.8, 307787.28, 0.00085056474, 10.002676, 9.998726 
1.11485995e+3, 1.3421851e+2, -1417586.0, -1687866.5, -11002.001, 0.036445722, -0.11387355, -1417138.9, 207506.8, 0.00041499882, 10.0020895, 9.998507 
1.1148773e+3, 1.4421701e+2, -1351510.3, -1581521.0, -14182.898, 0.028630579, -0.12204847, -1350639.0, 176021.38, 0.00011616446, 10.001767, 9.998716 
1.1148945e+3, 1.5421538e+2, -1247966.4, -1475886.1, -5775.0796, 0.011713051, -0.1601675, -1247820.1, 180855.14, 0.000008247579, 10.001784, 9.998761 
1.1149116e+3, 1.64214e+2, -1201204.5, -1435353.1, -15576.163, 0.0067086457, -0.15923268, -1200172.9, 130516.414, 0.0000000033697685, 10.001573, 9.998468 
1.1149288e+3, 1.7421296e+2, -1177889.3, -1373857.8, -26235.428, 0.021197926, -0.10831134, -1174437.8, 58264.13, 0.0, 10.001062, 9.998464 
1.1149459e+3, 1.8421185e+2, -1096053.3, -1237504.9, -26925.248, 0.018763563, -0.08304696, -1091101.4, 43612.992, 0.0, 10.0007515, 9.998877 
1.1149626e+3, 1.9421065e+2, -999419.25, -1134004.8, -16942.271, -0.008031913, -0.09655423, -997319.25, 39407.25, 0.0, 10.000715, 9.998932 
1.11497946e+3, 2.0420957e+2, -927445.9, -1033888.0, -33695.043, -0.014480148, -0.10149974, -917676.1, 21060.746, 0.0, 10.000473, 9.9990635 
1.1149962e+3, 2.1420869e+2, -903487.56, -968234.8, -37354.844, 0.007134933, -0.097664386, -886430.06, -45685.3, 0.0, 9.99995, 9.999094 
1.1150127e+3, 2.2420785e+2, -840066.44, -863210.44, -36825.902, 0.0100597255, -0.099150464, -813037.2, -70284.484, 0.0, 9.999611, 9.999305 
1.1150291e+3, 2.3420706e+2, -752670.3, -766209.8, -34444.297, -0.012005598, -0.11127772, -724336.75, -79576.234, 0.0, 9.99952, 9.999342 
1.1150452e+3, 2.4420647e+2, -684377.1, -667582.9, -46616.656, -0.029878696, -0.108556, -628613.1, -81846.48, 0.0, 9.999253, 9.999475 
1.1150612e+3, 2.5420615e+2, -657507.4, -599960.0, -44230.918, -0.04228603, -0.09054235, -575967.25, -127197.086, 0.0, 9.998748, 9.999509 
1.11507766e+3, 2.6420575e+2, -605301.1, -513781.06, -16992.75, -0.039066177, -0.08443023, -510727.84, -159953.0, 0.0, 9.99839, 9.9996 
1.1150947e+3, 2.7420527e+2, -528256.06, -422099.28, -21437.934, -0.014884291, -0.09562021, -417933.47, -165152.92, 0.0, 9.99823, 9.999634 
1.1151115e+3, 2.842051e+2, -442304.5, -303491.53, -31190.732, -0.016643714, -0.08339421, -296805.2, -142022.72, 0.0, 9.998033, 9.99987 
1.11512765e+3, 2.9420537e+2, -375878.5, -215493.69, -22620.547, -0.053365845, -0.048327226, -212364.36, -155584.8, 0.0, 9.997793, 9.999916 
1.1151446e+3, 3.042049e+2, -314343.3, -113857.49, 4681.1763, -0.058692086, -0.10416543, -113748.25, -113748.25, 0.0, 9.997679, 10.000335 
1.1151622e+3, 3.1420526e+2, -299809.2, -97517.305, -11949.616, -0.023397608, -0.10172011, -96813.87, -96813.87, 0.0, 9.997739, 10.000419 
1.1248447e+3, 1.24202125e+2, -1409459.3, -1715075.3, 10298.146, -0.015509627, -0.16291544, -1409112.6, 313692.63, 0.0009537465, 10.002736, 9.99868 
1.12486206e+3, 1.3420095e+2, -1393365.3, -1682408.9, -6654.3296, 0.029935263, -0.12661125, -1393212.1, 231605.64, 0.00047316175, 10.002283, 9.99845 
1.12487905e+3, 1.441995e+2, -1324263.4, -1557603.0, 2728.8203, 0.020925125, -0.12830937, -1324231.5, 202600.31, 0.00013752929, 10.001909, 9.998812 
1.12489626e+3, 1.5419811e+2, -1262093.9, -1470424.3, 2549.9485, 0.016108615, -0.15477353, -1262062.6, 166781.7, 0.00001111389, 10.001636, 9.99887 
1.1249132e+3, 1.6419679e+2, -1230157.8, -1450947.0, -13342.017, 0.012076993, -0.15223277, -1229354.5, 101503.18, 0.0000000061074554, 10.001383, 9.998452 
1.1249298e+3, 1.7419562e+2, -1165972.6, -1370979.0, -6191.574, 0.012631438, -0.11357595, -1165785.9, 67085.914, 0.0, 10.001158, 9.998437 
1.12494655e+3, 1.8419446e+2, -1077966.5, -1228169.0, 2268.446, 0.01078928, -0.09093355, -1077932.3, 56952.465, 0.0, 10.0008745, 9.998881 
1.1249634e+3, 1.9419338e+2, -1028469.1, -1147124.1, -5461.6763, 0.0043109143, -0.09379256, -1028218.25, 8677.768, 0.0, 10.000513, 9.998939 
1.12498e+3, 2.0419236e+2, -955687.5, -1040525.6, -33196.543, 0.0029324107, -0.09593409, -944242.06, -5336.187, 0.0, 10.00025, 9.9991255 
1.12499624e+3, 2.1419147e+2, -873586.75, -946263.5, -28087.998, 0.008669522, -0.09999587, -863996.75, -23083.242, 0.0, 10.000124, 9.99916 
1.1250125e+3, 2.2419064e+2, -804860.94, -847030.25, -22707.713, 0.0060701044, -0.10272243, -794958.5, -52037.23, 0.0, 9.999857, 9.999297 
1.1250286e+3, 2.3418993e+2, -771724.2, -776680.44, -25865.688, -0.0076210815, -0.10693177, -748218.2, -103289.38, 0.0, 9.999396, 9.99933 
1.12504445e+3, 2.4418935e+2, -704798.8, -671250.56, -43712.03, -0.024813328, -0.10459231, -641204.7, -94269.95, 0.0, 9.999087, 9.999529 
1.12505995e+3, 2.5418895e+2, -619068.94, -574654.5, -45205.844, -0.046768174, -0.09826361, -546495.75, -97557.53, 0.0, 9.998983, 9.999569 
1.1250762e+3, 2.6418853e+2, -559496.1, -496940.9, -16932.436, -0.04500137, -0.09528169, -492651.72, -141708.8, 0.0, 9.998728, 9.999553 
1.125093e+3, 2.7418807e+2, -526780.4, -427642.72, -13270.884, -0.011453776, -0.097455874, -425896.97, -172948.28, 0.0, 9.998267, 9.999577 
1.1251095e+3, 2.84188e+2, -448447.1, -304621.7, -20078.4, -0.013813277, -0.07872263, -301871.28, -146920.89, 0.0, 9.997984, 9.999886 
1.1251254e+3, 2.9418826e+2, -352575.6, -201828.64, -29173.049, -0.0644649, -0.041917734, -196379.92, -139432.94, 0.0, 9.997944, 9.999937 
1.12514205e+3, 3.0418774e+2, -303787.03, -117575.2, -2325.007, -0.07014032, -0.10457679, -117546.18, -117546.18, 0.0, 9.99779, 10.000256 
1.1251599e+3, 3.141881e+2, -340215.22, -123823.875, 2969.6523, -0.01642651, -0.09474146, -123783.13, -123783.13, 0.0, 9.997492, 10.000357 
1.1348476e+3, 1.2418547e+2, -1410668.4, -1716320.5, 1897.0337, 0.0025256188, -0.118272185, -1410656.5, 312312.5, 0.0010656647, 10.00273, 9.998674 
1.1348642e+3, 1.3418365e+2, -1393621.4, -1683157.6, -23863.158, 0.005045826, -0.14604302, -1391667.8, 233319.55, 0.00053702114, 10.002284, 9.9984455 
1.1348806e+3, 1.4418216e+2, -1325306.1, -1560275.4, -8345.055, -0.012326448, -0.15175094, -1325010.1, 201991.7, 0.00016162105, 10.00191, 9.998794 
1.1348979e+3, 1.541813e+2, -1263687.6, -1473672.1, -8172.11, 0.021325076, -0.12177504, -1263370.0, 165639.83, 0.000014669085, 10.001634, 9.998848 
1.1349147e+3, 1.6418016e+2, -1215924.5, -1421532.5, -22132.744, 0.02592102, -0.11081636, -1213569.0, 117452.31, 0.000000009421829, 10.001382, 9.998654 
1.1349308e+3, 1.741786e+2, -1149897.0, -1338411.9, -14730.736, -0.0056752646, -0.13084958, -1148752.9, 84284.56, 0.0, 10.001161, 9.998659 
1.13494724e+3, 1.8417734e+2, -1091717.4, -1257617.4, -11280.537, -0.010148373, -0.12346334, -1090953.9, 44097.44, 0.0, 10.000877, 9.998678 
1.1349641e+3, 1.9417645e+2, -1044995.25, -1182047.5, -19421.742, 0.021808617, -0.080723815, -1042296.1, -5234.063, 0.0, 10.000515, 9.998699 
1.1349805e+3, 2.0417549e+2, -944625.9, -1018129.25, -38936.863, 0.031576652, -0.07160735, -927835.4, 11236.468, 0.0, 10.000252, 9.999279 
1.13499634e+3, 2.1417442e+2, -859953.75, -918630.5, -32970.71, 0.010747242, -0.112688094, -845158.1, -4077.8716, 0.0, 10.000126, 9.99935 
1.1350122e+3, 2.2417359e+2, -809071.1, -856432.1, -39257.645, -0.004241686, -0.12460576, -786904.9, -43816.95, 0.0, 9.999859, 9.999232 
1.13502786e+3, 2.3417306e+2, -777330.94, -789065.0, -43197.97, -0.01144867, -0.099068426, -739603.4, -94509.164, 0.0, 9.999399, 9.999244 
1.1350436e+3, 2.4417251e+2, -704275.7, -670844.7, -48517.53, -0.020916708, -0.08940781, -636243.94, -89143.82, 0.0, 9.999089, 9.999531 
1.1350591e+3, 2.541719e+2, -618105.0, -573006.5, -48723.336, -0.033202585, -0.10641719, -541867.44, -92762.23, 0.0, 9.998984, 9.99958 
1.13507494e+3, 2.6417145e+2, -556004.56, -490096.06, -32861.22, -0.03730621, -0.110303745, -476511.72, -125401.79, 0.0, 9.998729, 9.999599 
1.135091e+3, 2.741712e+2, -522740.38, -420123.47, -30071.316, -0.030235255, -0.09650804, -411960.56, -158847.1, 0.0, 9.99827, 9.999627 
1.1351073e+3, 2.8417113e+2, -461888.16, -333397.78, -22402.83, -0.035256978, -0.06838399, -329603.78, -174488.53, 0.0, 9.997987, 9.999687 
1.13512345e+3, 2.941712e+2, -367881.56, -233830.9, -30061.197, -0.056664694, -0.03312545, -227398.28, -170283.02, 0.0, 9.997944, 9.999718 
1.13514e+3, 3.0417064e+2, -291468.88, -92715.08, -12331.792, -0.05783316, -0.09601402, -91952.87, -91952.87, 0.0, 9.997791, 10.000426 
1.1351572e+3, 3.141715e+2, -322657.63, -89341.6, -7830.3643, -0.032381687, -0.054538812, -89079.1, -89079.1, 0.0, 9.9974985, 10.00059 
1.1448503e+3, 1.24168724e+2, -1419477.4, -1719810.8, 26483.537, 0.004022022, -0.11702799, -1417159.9, 305973.1, 0.0011858052, 10.002668, 9.99868 
1.1448664e+3, 1.3416685e+2, -1364802.9, -1667117.8, -6275.952, 0.00023616587, -0.1501534, -1364672.6, 260478.75, 0.00060623867, 10.002474, 9.998464 
1.1448826e+3, 1.4416544e+2, -1289125.4, -1547101.6, 8209.923, -0.015176899, -0.15044847, -1288864.4, 238301.13, 0.00018835878, 10.002178, 9.9987545 
1.14489965e+3, 1.5416455e+2, -1254236.0, -1474210.9, 6036.5103, 0.025586275, -0.11812757, -1254070.4, 175103.8, 0.000018936791, 10.001722, 9.998802 
1.1449161e+3, 1.6416341e+2, -1207122.5, -1405736.5, -6162.547, 0.03093537, -0.10813442, -1206931.4, 124254.09, 0.000000013934886, 10.001393, 9.998757 
1.144932e+3, 1.7416193e+2, -1128291.3, -1315017.4, -6550.508, -0.008246246, -0.13389242, -1128061.8, 105138.55, 0.0, 10.001253, 9.998775 
1.14494815e+3, 1.8416066e+2, -1079332.1, -1257305.0, -9949.198, -0.013629169, -0.12958293, -1078777.6, 56436.332, 0.0, 10.000988, 9.998627 
1.1449647e+3, 1.9415972e+2, -1045116.0, -1189288.6, -5878.681, 0.026462818, -0.08627871, -1044876.75, -7651.0493, 0.0, 10.000546, 9.998633 
1.14498086e+3, 2.0415875e+2, -948117.3, -1017844.56, -14176.831, 0.03821204, -0.075632766, -945345.1, -6109.2813, 0.0, 10.00022, 9.999295 
1.1449964e+3, 2.1415773e+2, -868826.44, -919918.56, -19877.855, 0.01091964, -0.11425334, -862003.9, -20760.037, 0.0, 10.000053, 9.999375 
1.1450119e+3, 2.2415692e+2, -812382.44, -861146.4, -39107.887, -0.0061321855, -0.122717634, -790678.56, -47427.305, 0.0, 9.999851, 9.999204 
1.14502735e+3, 2.3415643e+2, -750438.4, -779861.1, -40111.527, -0.009485935, -0.09195305, -722425.5, -77167.82, 0.0, 9.9996, 9.999209 
1.1450427e+3, 2.4415587e+2, -669305.3, -657131.3, -38805.316, -0.018143168, -0.08116068, -623938.5, -76674.63, 0.0, 9.999344, 9.999502 
1.1450581e+3, 2.541552e+2, -606405.3, -570403.2, -41691.563, -0.033820853, -0.10294353, -542992.5, -93722.99, 0.0, 9.999079, 9.999552 
1.1450736e+3, 2.6415467e+2, -545383.4, -485849.78, -36036.223, -0.042528205, -0.11116606, -468876.1, -117601.56, 0.0, 9.998806, 9.999591 
1.14508934e+3, 2.741544e+2, -486337.2, -403299.66, -38335.723, -0.041489255, -0.10076754, -388307.94, -135029.81, 0.0, 9.998525, 9.9996195 
1.1451052e+3, 2.8415427e+2, -436366.38, -333672.4, -24094.977, -0.044347048, -0.06999657, -328300.06, -173019.77, 0.0, 9.998217, 9.999574 
1.1451213e+3, 2.941543e+2, -386479.06, -256519.16, -24157.482, -0.052743454, -0.024826407, -252173.95, -194892.58, 0.0, 9.997876, 9.999595 
1.14513785e+3, 3.0415365e+2, -307103.4, -100838.09, -6809.5625, -0.05392669, -0.087720774, -100613.53, -100613.53, 0.0, 9.997688, 10.00042 
1.1451547e+3, 3.1415465e+2, -288286.25, -67935.766, -17391.977, -0.045123514, -0.032857683, -66571.484, -66571.484, 0.0, 9.997716, 10.000632 
1.1548528e+3, 1.241519e+2, -1419258.4, -1717784.6, 27117.887, -0.014404415, -0.1643141, -1416815.0, 306481.88, 0.0013130474, 10.002661, 9.998698 
1.15486905e+3, 1.3415067e+2, -1361851.1, -1661184.6, -13571.45, 0.016397113, -0.13846722, -1361237.0, 264072.25, 0.0006802244, 10.002474, 9.998505 
1.15488514e+3, 1.4414938e+2, -1293149.4, -1556294.0, -8256.072, 0.014134363, -0.123115554, -1292890.6, 234431.55, 0.00021757523, 10.002181, 9.998691 
1.1549014e+3, 1.541479e+2, -1259313.9, -1485276.8, -11556.599, 0.028727766, -0.14464179, -1258724.4, 170612.67, 0.000023929451, 10.001723, 9.998726 
1.1549173e+3, 1.6414659e+2, -1207282.6, -1406596.4, -12737.894, 0.026301285, -0.1456538, -1206471.9, 124878.14, 0.000000023716384, 10.001395, 9.998751 
1.15493335e+3, 1.741456e+2, -1127798.0, -1314756.9, -12072.072, 0.00500127, -0.122585215, -1127021.8, 106338.5, 0.0, 10.001256, 9.9987755 
1.1549492e+3, 1.8414447e+2, -1071932.0, -1242852.6, -26055.666, 0.00063266925, -0.108548634, -1068048.3, 67323.99, 0.0, 10.000991, 9.998725 
1.1549651e+3, 1.9414319e+2, -1037055.56, -1173469.5, -22887.955, 0.018088885, -0.1105306, -1033317.8, 4068.7559, 0.0, 10.000549, 9.998741 
1.1549808e+3, 2.0414214e+2, -956412.4, -1035748.25, -21523.873, 0.02238724, -0.108450346, -950949.2, -11551.541, 0.0, 10.000222, 9.999172 
1.15499645e+3, 2.1414138e+2, -878352.75, -940306.7, -26324.87, 0.008982553, -0.104952075, -868677.9, -27273.832, 0.0, 10.000055, 9.999235 
1.1550119e+3, 2.2414067e+2, -812046.8, -861067.1, -48387.25, 0.000255131, -0.097180925, -782316.06, -38904.836, 0.0, 9.999853, 9.999204 
1.1550271e+3, 2.3414e+2, -749215.5, -777921.06, -49538.145, -0.002058359, -0.08548474, -711992.8, -66573.61, 0.0, 9.999602, 9.999222 
1.1550421e+3, 2.4413936e+2, -673473.25, -666323.6, -48615.523, -0.016724788, -0.0798094, -621151.6, -73725.65, 0.0, 9.999345, 9.999438 
1.155057e+3, 2.5413877e+2, -610916.2, -580358.0, -51333.297, -0.04842992, -0.08802676, -542078.2, -92647.01, 0.0, 9.999081, 9.999483 
1.1550723e+3, 2.6413816e+2, -549882.94, -495814.4, -46266.09, -0.060630698, -0.09804734, -469263.2, -117826.31, 0.0, 9.998808, 9.999521 
1.1550878e+3, 2.741376e+2, -491022.28, -413421.1, -48543.793, -0.04603397, -0.11022193, -390076.8, -136634.05, 0.0, 9.998526, 9.999551 
1.1551035e+3, 2.8413737e+2, -438293.8, -338160.3, -36256.863, -0.042181827, -0.08324315, -326410.9, -170965.19, 0.0, 9.998218, 9.999542 
1.15511924e+3, 2.9413757e+2, -387984.88, -260719.08, -36176.598, -0.053127643, -0.016415073, -251154.36, -193708.92, 0.0, 9.99788, 9.999564 
1.1551354e+3, 3.0413684e+2, -319464.75, -127837.234, -6357.8315, -0.05848735, -0.07896151, -127626.53, -127626.53, 0.0, 9.997693, 10.000233 
1.15515225e+3, 3.141376e+2, -298790.03, -90501.836, -15775.42, -0.05547127, -0.025979223, -89313.805, -89313.805, 0.0, 9.997718, 10.000477 
1.1648556e+3, 1.24135666e+2, -1364161.6, -1690826.3, 45076.215, -0.022655647, -0.18080647, -1358055.8, 365399.47, 0.0014461256, 10.003039, 9.9987 
1.1648716e+3, 1.3413455e+2, -1366938.5, -1660044.3, -4681.814, 0.02429429, -0.1455132, -1366863.8, 258602.47, 0.0007584584, 10.002424, 9.998536 
1.1648873e+3, 1.4413331e+2, -1322088.0, -1575163.9, 4144.648, 0.029847234, -0.12595879, -1322020.3, 205458.47, 0.00024917058, 10.002005, 9.998646 
1.16490304e+3, 1.5413165e+2, -1244461.3, -1484089.1, 2265.514, 0.023880232, -0.15954177, -1244439.9, 185055.66, 0.000029664654, 10.001852, 9.998672 
1.16491884e+3, 1.6413032e+2, -1174274.3, -1388959.4, 4720.282, 0.015881462, -0.16290517, -1174170.5, 157338.56, 0.00000004774233, 10.001615, 9.998766 
1.1649347e+3, 1.7412944e+2, -1126070.0, -1311484.6, 6977.126, 0.010328622, -0.12911458, -1125807.9, 107710.16, 0.0, 10.001258, 9.998796 
1.1649503e+3, 1.8412839e+2, -1073259.5, -1240642.9, -11071.151, 0.0079679815, -0.11123328, -1072530.4, 62998.953, 0.0, 10.00097, 9.99875 
1.1649657e+3, 1.9412707e+2, -1001359.56, -1153524.4, -14580.243, 0.007877398, -0.118555136, -999975.06, 37568.656, 0.0, 10.000783, 9.998765 
1.16498105e+3, 2.0412597e+2, -924911.94, -1033170.5, -16016.2705, 0.00951546, -0.11553949, -922592.1, 16963.178, 0.0, 10.000494, 9.999058 
1.16499655e+3, 2.1412522e+2, -886530.6, -958184.0, -19873.887, 0.014401675, -0.103033304, -881387.56, -39824.684, 0.0, 10.00006, 9.999109 
1.1650118e+3, 2.2412446e+2, -822567.25, -863440.1, -36233.047, 0.009846709, -0.091601156, -801404.6, -57834.066, 0.0, 9.99977, 9.999227 
1.1650266e+3, 2.3412381e+2, -735470.2, -766968.6, -35430.867, -0.007975411, -0.08347279, -712445.9, -66867.75, 0.0, 9.99968, 9.99926 
1.1650414e+3, 2.4412316e+2, -657282.25, -670050.1, -38770.598, -0.026254838, -0.07607173, -624373.5, -76788.49, 0.0, 9.999507, 9.999334 
1.16505615e+3, 2.5412253e+2, -598496.0, -587506.4, -45729.484, -0.045160834, -0.075690314, -546942.75, -97351.83, 0.0, 9.999223, 9.999365 
1.1650711e+3, 2.641218e+2, -536463.06, -491995.4, -42746.84, -0.053515702, -0.08831212, -466045.88, -114448.234, 0.0, 9.998912, 9.999497 
1.1650863e+3, 2.7412105e+2, -486203.4, -412929.13, -41343.11, -0.047778077, -0.11807533, -394325.56, -140720.8, 0.0, 9.998567, 9.999534 
1.1651017e+3, 2.8412077e+2, -432728.06, -341600.03, -26300.713, -0.047086548, -0.093533196, -334554.1, -178946.06, 0.0, 9.998283, 9.999487 
1.1651172e+3, 2.9412112e+2, -361882.94, -254696.6, -28805.084, -0.052884728, -0.009340208, -247446.02, -189839.13, 0.0, 9.998088, 9.999505 
1.1651332e+3, 3.041202e+2, -295420.03, -121517.58, 9780.9795, -0.06096914, -0.08021591, -120969.19, -120969.19, 0.0, 9.997882, 10.000185 
1.1651498e+3, 3.141208e+2, -307631.72, -93888.6, 12167.873, -0.07075112, -0.04410037, -93198.15, -93198.15, 0.0, 9.997654, 10.0004835 
1.1748585e+3, 1.24120094e+2, -1365179.1, -1693421.6, 29728.904, -0.020531796, -0.16703449, -1362508.4, 361098.8, 0.0015842223, 10.003041, 9.998682 
1.174874e+3, 1.3411859e+2, -1365839.0, -1657302.9, -28623.941, 0.023004761, -0.17185585, -1363054.5, 262567.03, 0.0008407167, 10.002421, 9.998557 
1.1748893e+3, 1.4411728e+2, -1324678.4, -1580002.0, -3166.8901, 0.030664897, -0.16027166, -1324639.1, 202995.58, 0.0002831922, 10.002001, 9.998614 
1.1749048e+3, 1.5411589e+2, -1246409.3, -1488728.4, -3536.1106, 0.0105220685, -0.16240218, -1246357.8, 183291.33, 0.000036181405, 10.001853, 9.998639 
1.1749203e+3, 1.6411462e+2, -1171511.0, -1384267.4, -8431.233, -0.00060652907, -0.15906273, -1171177.5, 160484.64, 0.00000010132158, 10.001618, 9.998797 
1.1749359e+3, 1.741135e+2, -1122971.6, -1305826.0, -6833.209, 0.0072805206, -0.15386075, -1122716.6, 110956.85, 0.0, 10.001261, 9.998836 
1.1749513e+3, 1.8411241e+2, -1076699.1, -1248525.0, -18975.88, 0.007863405, -0.13829394, -1074628.4, 61056.73, 0.0, 10.000973, 9.998694 
1.1749663e+3, 1.9411139e+2, -1005247.94, -1162528.1, -21829.928, -0.0043076584, -0.11035376, -1002274.25, 35422.71, 0.0, 10.000787, 9.998702 
1.17498145e+3, 2.0411032e+2, -932122.56, -1049085.8, -31860.67, -0.0005127186, -0.09670477, -924006.9, 15701.757, 0.0, 10.000497, 9.998948 
1.1749967e+3, 2.141092e+2, -894091.8, -974663.56, -36479.707, 0.02681941, -0.10829065, -880029.56, -38309.453, 0.0, 10.000062, 9.998996 
1.1750117e+3, 2.2410832e+2, -819312.1, -857342.1, -40839.13, 0.022349996, -0.10580456, -793278.2, -49549.08, 0.0, 9.999772, 9.999269 
1.17502615e+3, 2.3410784e+2, -730974.8, -758317.4, -38766.652, -0.027087368, -0.08598265, -703539.44, -57804.902, 0.0, 9.999681, 9.999318 
1.17504075e+3, 2.4410722e+2, -667356.2, -691683.44, -48805.09, -0.04690407, -0.07012198, -629221.8, -81480.836, 0.0, 9.999509, 9.999186 
1.17505565e+3, 2.5410646e+2, -609993.8, -611971.2, -56150.7, -0.024897506, -0.065942, -554823.1, -105074.19, 0.0, 9.999225, 9.999197 
1.1750703e+3, 2.6410562e+2, -534997.1, -489604.94, -55081.094, -0.022182396, -0.081860885, -452727.22, -100970.305, 0.0, 9.998914, 9.999514 
1.17508486e+3, 2.7410477e+2, -483269.13, -407784.38, -53677.59, -0.047268588, -0.124243155, -379908.38, -126144.12, 0.0, 9.9985695, 9.999568 
1.1750998e+3, 2.8410447e+2, -438287.84, -354256.66, -33639.582, -0.059531, -0.100853115, -342449.1, -186681.66, 0.0, 9.998287, 9.999399 
1.17511526e+3, 2.9410484e+2, -368470.16, -269225.7, -35671.992, -0.052889384, -0.003737818, -257734.44, -199968.33, 0.0, 9.998091, 9.999404 
1.175131e+3, 3.0410376e+2, -288901.38, -108613.97, 1995.1083, -0.062261257, -0.09104912, -108591.89, -108591.89, 0.0, 9.997884, 10.000273 
1.1751472e+3, 3.141042e+2, -295894.1, -69813.93, 4297.8076, -0.09143958, -0.08353357, -69732.26, -69732.26, 0.0, 9.997654, 10.000649 
1.18486166e+3, 1.24104634e+2, -1365061.9, -1699434.9, 39840.637, -0.011227226, -0.1670917, -1360380.4, 363377.72, 0.0017273793, 10.00307, 9.998626 
1.1848765e+3, 1.3410307e+2, -1343135.8, -1648662.4, -30256.875, 0.01916254, -0.17691407, -1340168.1, 285605.13, 0.0009271282, 10.002587, 9.998536 
1.1848914e+3, 1.4410171e+2, -1293534.5, -1562893.3, 7347.4214, 0.028860878, -0.16799152, -1293334.3, 234452.48, 0.00031980837, 10.002207, 9.998632 
1.1849066e+3, 1.5410036e+2, -1230884.4, -1478415.3, 12101.857, 0.002414033, -0.17044245, -1230294.1, 199506.47, 0.0000435681, 10.001948, 9.998663 
1.1849218e+3, 1.6409913e+2, -1166906.9, -1382912.8, 2950.6519, -0.008080169, -0.1652114, -1166866.6, 164946.78, 0.00000019883093, 10.001655, 9.998789 
1.1849371e+3, 1.7409804e+2, -1115910.0, -1303642.6, 179.40486, 0.010715909, -0.15495203, -1115909.9, 117914.875, 0.0, 10.001315, 9.998824 
1.18495226e+3, 1.8409695e+2, -1067369.8, -1245233.3, -6788.927, 0.014578246, -0.13756335, -1067111.0, 68725.51, 0.0, 10.001042, 9.998684 
1.18496716e+3, 1.9409588e+2, -994936.9, -1158541.0, -5477.813, -0.0051394315, -0.112981595, -994753.6, 43094.766, 0.0, 10.000862, 9.9986925 
1.1849819e+3, 2.0409477e+2, -919756.3, -1050648.4, -19082.924, -0.005224247, -0.1011854, -917030.94, 22829.768, 0.0, 10.000615, 9.99888 
1.1849968e+3, 2.1409358e+2, -868560.75, -970337.2, -21457.375, 0.023388151, -0.11186117, -864221.9, -22348.68, 0.0, 10.000273, 9.998923 
1.1850115e+3, 2.2409268e+2, -787923.5, -844901.25, -17673.455, 0.019635657, -0.10725844, -782886.75, -39004.008, 0.0, 10.0, 9.999243 
1.1850257e+3, 2.340922e+2, -711267.25, -750960.5, -20940.818, -0.03025758, -0.084135674, -702262.44, -56374.74, 0.0, 9.999826, 9.999299 
1.18504025e+3, 2.4409157e+2, -659689.5, -696279.6, -37505.76, -0.049260672, -0.06761289, -636254.56, -88360.12, 0.0, 9.9995985, 9.999111 
1.1850548e+3, 2.540907e+2, -605720.06, -618824.0, -39159.75, -0.024385694, -0.06674555, -572567.94, -122664.08, 0.0, 9.999293, 9.999117 
1.1850693e+3, 2.640898e+2, -520946.53, -486934.94, -35892.04, -0.017849764, -0.08212674, -464223.78, -112311.17, 0.0, 9.999029, 9.999476 
1.1850836e+3, 2.7408895e+2, -448593.25, -394691.2, -39842.38, -0.03771584, -0.117990054, -373540.53, -119620.836, 0.0, 9.998824, 9.999535 
1.1850983e+3, 2.8408864e+2, -397862.66, -335063.97, -19491.844, -0.05420863, -0.094300285, -329505.88, -173583.13, 0.0, 9.998567, 9.999395 
1.1851133e+3, 2.9408893e+2, -347622.47, -259298.28, -13864.356, -0.06545353, -0.0069826837, -257173.11, -199251.33, 0.0, 9.998235, 9.999402 
1.1851288e+3, 3.0408776e+2, -287916.97, -109195.54, 23252.656, -0.08018034, -0.10379677, -106219.79, -106219.79, 0.0, 9.997896, 10.000262 
1.1851448e+3, 3.140883e+2, -309544.78, -70310.52, 15555.307, -0.09479349, -0.080237165, -69303.34, -69303.34, 0.0, 9.997535, 10.000703 
1.1948649e+3, 1.24089345e+2, -1372571.1, -1714355.6, 29026.709, 0.00434412, -0.18349962, -1370123.5, 353784.2, 0.0018763061, 10.003067, 9.998526 
1.1948789e+3, 1.3408804e+2, -1347739.6, -1658875.6, -48755.297, 0.012529154, -0.15972051, -1340278.6, 285642.25, 0.0010180003, 10.002589, 9.998466 
1.1948936e+3, 1.4408672e+2, -1288456.3, -1553108.6, -3575.7104, 0.024269236, -0.1478, -1288407.9, 239526.11, 0.00035919753, 10.002209, 9.998699 
1.1949085e+3, 1.540851e+2, -1225007.4, -1466735.6, 1881.2458, -0.00056519517, -0.18377858, -1224992.8, 204956.94, 0.00005194898, 10.001949, 9.998743 
1.19492345e+3, 1.6408385e+2, -1170146.4, -1390340.9, -9893.519, -0.0065690447, -0.18179299, -1169702.8, 162259.72, 0.00000035173326, 10.001657, 9.998737 
1.1949386e+3, 1.740831e+2, -1119895.0, -1312811.8, -12896.556, 0.020723278, -0.13200268, -1119036.6, 114934.805, 0.0, 10.001317, 9.99876 
1.1949535e+3, 1.8408206e+2, -1065071.0, -1241299.3, -14497.36, 0.028068213, -0.10848132, -1063886.4, 72096.6, 0.0, 10.001044, 9.99871 
1.19496815e+3, 1.9408059e+2, -991815.8, -1152898.9, -12587.202, 0.00523624, -0.12629913, -990838.1, 47159.734, 0.0, 10.000865, 9.998731 
1.1949825e+3, 2.0407934e+2, -921108.2, -1054340.5, -31684.266, -0.0047804816, -0.12906086, -913957.1, 26054.102, 0.0, 10.000618, 9.998854 
1.194997e+3, 2.1407838e+2, -870346.0, -974930.6, -34534.516, 0.004177823, -0.11398446, -859971.6, -17949.46, 0.0, 10.000276, 9.998891 
1.19501136e+3, 2.2407755e+2, -794254.94, -858873.06, -24912.555, 0.0015360315, -0.09621948, -785765.56, -41734.344, 0.0, 10.000003, 9.999146 
1.19502574e+3, 2.3407692e+2, -718087.7, -765711.56, -27404.822, -0.018020427, -0.07784403, -705594.94, -59557.34, 0.0, 9.999827, 9.999197 
1.19504005e+3, 2.4407616e+2, -659764.3, -696975.94, -48353.348, -0.033676397, -0.06824211, -626560.6, -78515.125, 0.0, 9.999599, 9.999106 
1.195054e+3, 2.5407517e+2, -604981.6, -618030.9, -50270.926, -0.043386023, -0.07792047, -560813.7, -110757.8, 0.0, 9.999295, 9.999122 
1.1950681e+3, 2.6407427e+2, -527370.6, -501109.06, -43464.285, -0.040524486, -0.08923146, -468835.4, -116770.49, 0.0, 9.999032, 9.999378 
1.1950827e+3, 2.740736e+2, -455789.7, -410287.13, -47019.95, -0.01998059, -0.099861085, -380803.38, -126732.09, 0.0, 9.998826, 9.999428 
1.19509704e+3, 2.840733e+2, -391650.94, -322913.2, -30938.736, -0.032084793, -0.0743193, -311038.94, -154964.67, 0.0, 9.998569, 9.999478 
1.1951112e+3, 2.9407337e+2, -340133.94, -244703.16, -25391.982, -0.09084297, -0.01892311, -238367.53, -180293.4, 0.0, 9.998238, 9.999501 
1.19512625e+3, 3.0407214e+2, -296020.7, -126775.23, 10698.187, -0.11502823, -0.11889427, -126101.664, -126101.664, 0.0, 9.997898, 10.000141 
1.1951425e+3, 3.1407318e+2, -314840.1, -80917.95, 2699.351, -0.08253192, -0.034075662, -80886.805, -80886.805, 0.0, 9.997532, 10.000632 
1.2048682e+3, 1.24074444e+2, -1373936.9, -1720812.9, 39399.59, 0.021131976, -0.18296745, -1369518.0, 354535.75, 0.002031728, 10.003084, 9.998472 
1.20488144e+3, 1.3407312e+2, -1327268.5, -1651355.9, -41871.844, 0.0009792252, -0.15876457, -1321946.1, 304121.0, 0.001113559, 10.002741, 9.998444 
1.20489575e+3, 1.4407176e+2, -1260565.1, -1536036.4, 7270.312, 0.018754002, -0.150318, -1260373.4, 267707.03, 0.0004014388, 10.002386, 9.99873 
1.2049105e+3, 1.5407017e+2, -1214992.8, -1457899.9, 9243.066, 0.0070943967, -0.18711919, -1214641.6, 215454.08, 0.000061428385, 10.002002, 9.998778 
1.2049252e+3, 1.6406895e+2, -1163745.3, -1388740.0, -858.86884, 0.0022266125, -0.18310307, -1163741.9, 168366.33, 0.00000057087306, 10.001707, 9.998723 
1.2049399e+3, 1.7406824e+2, -1088656.0, -1299837.8, -435.08932, 0.013911246, -0.12784661, -1088655.1, 145462.06, 0.0, 10.001542, 9.99874 
1.20495446e+3, 1.840672e+2, -1033099.75, -1220614.5, -2368.3684, 0.019705044, -0.1044928, -1033069.9, 103058.734, 0.0, 10.001243, 9.998756 
1.204969e+3, 1.9406573e+2, -1005429.8, -1153532.6, 111.202705, 0.015442246, -0.13029774, -1005429.75, 32713.604, 0.0, 10.000747, 9.998783 
1.20498314e+3, 2.0406446e+2, -952041.56, -1079292.4, -15226.225, 0.0067825955, -0.13408823, -950245.0, -10088.075, 0.0, 10.000449, 9.998763 
1.2049972e+3, 2.1406347e+2, -854082.44, -978896.56, -23370.666, -0.0077367765, -0.11047361, -849850.0, -7681.2666, 0.0, 10.000439, 9.998785 
1.2050112e+3, 2.2406262e+2, -756232.1, -838996.8, -17630.623, -0.014209586, -0.08901701, -752632.94, -8454.751, 0.0, 10.0002575, 9.99916 
1.2050256e+3, 2.34062e+2, -716091.2, -761542.2, -11285.701, -0.0092728725, -0.07344821, -713443.2, -67258.99, 0.0, 9.999828, 9.999225 
1.2050397e+3, 2.440612e+2, -672757.5, -708634.0, -25183.959, -0.019007308, -0.064930595, -659776.25, -111584.11, 0.0, 9.999535, 9.999057 
1.20505325e+3, 2.5406018e+2, -588223.8, -616105.8, -31637.713, -0.04967266, -0.07357578, -567591.75, -117388.58, 0.0, 9.999437, 9.999065 
1.2050671e+3, 2.6405928e+2, -503148.0, -496961.4, -29479.742, -0.055910256, -0.08245048, -470413.13, -118200.21, 0.0, 9.999231, 9.99931 
1.2050814e+3, 2.7405855e+2, -454265.75, -416965.7, -30503.656, -0.02724077, -0.088408165, -399862.44, -145642.56, 0.0, 9.99887, 9.99936 
1.2050956e+3, 2.8405827e+2, -380405.84, -306324.5, -10823.865, -0.03283167, -0.06270924, -304775.44, -148552.88, 0.0, 9.998599, 9.999577 
1.20510966e+3, 2.9405835e+2, -300067.25, -212184.03, -4646.894, -0.087697305, -0.014924079, -211939.02, -153718.1, 0.0, 9.998458, 9.999619 
1.20512426e+3, 3.0405706e+2, -277374.0, -133867.56, 21050.117, -0.11244463, -0.12220043, -130843.57, -130843.57, 0.0, 9.998096, 9.999996 
1.2051399e+3, 3.140581e+2, -339749.0, -102830.62, 10019.69, -0.08475832, -0.021715024, -102407.62, -102407.62, 0.0, 9.997406, 10.000542 
1.2148715e+3, 1.2405998e+2, -1374413.4, -1721536.9, 31741.037, 0.038455546, -0.1652606, -1371534.9, 352660.84, 0.0021936102, 10.003082, 9.998468 
1.214884e+3, 1.3405834e+2, -1325313.9, -1647884.3, -55361.24, -0.016210875, -0.17489691, -1316077.0, 310134.47, 0.0012136708, 10.002743, 9.998467 
1.2148981e+3, 1.4405689e+2, -1260677.1, -1537029.4, -7427.117, 0.011666193, -0.17694421, -1260477.6, 267748.0, 0.00044641417, 10.002388, 9.998723 
1.2149127e+3, 1.5405563e+2, -1215570.8, -1459749.5, -5634.8257, 0.025580902, -0.18028976, -1215440.9, 214797.36, 0.00007201624, 10.002004, 9.998766 
1.2149271e+3, 1.6405447e+2, -1162131.6, -1386095.1, -8292.6455, 0.018495206, -0.16850387, -1161825.0, 170425.25, 0.0000008702971, 10.001709, 9.998741 
1.21494114e+3, 1.7405349e+2, -1086422.6, -1296286.1, -6954.375, -0.01026278, -0.14267723, -1086192.5, 148069.1, 0.0, 10.001545, 9.998764 
1.21495545e+3, 1.8405242e+2, -1027983.3, -1211208.6, -20333.156, -0.011296008, -0.12606144, -1025754.0, 110519.11, 0.0, 10.001246, 9.998819 
1.2149698e+3, 1.9405128e+2, -1000220.3, -1143653.5, -18919.785, 0.025236452, -0.12523232, -997766.6, 40517.93, 0.0, 10.00075, 9.99885 
1.2149839e+3, 2.040501e+2, -963124.25, -1103062.4, -17533.885, 0.029351275, -0.11633755, -960960.75, -20663.137, 0.0, 10.000452, 9.9986 
1.21499754e+3, 2.1404885e+2, -866676.06, -1005690.44, -23844.357, -0.012587383, -0.10103531, -862699.9, -20387.105, 0.0, 10.000441, 9.998601 
1.2150113e+3, 2.240479e+2, -747639.06, -821788.44, -32450.654, -0.02782153, -0.08533915, -735443.3, 8880.233, 0.0, 10.000258, 9.999278 
1.2150255e+3, 2.3404741e+2, -705171.3, -739653.56, -27439.965, -0.00412849, -0.071067065, -690005.56, -43677.996, 0.0, 9.999831, 9.999375 
1.21503934e+3, 2.440467e+2, -679043.9, -722393.94, -29842.447, -0.0056327144, -0.0580366, -663835.56, -115501.06, 0.0, 9.9995365, 9.998961 
1.21505275e+3, 2.540457e+2, -596494.25, -633652.8, -34825.13, -0.043872043, -0.054075543, -575602.3, -125256.37, 0.0, 9.999438, 9.998945 
1.2150663e+3, 2.6404467e+2, -505784.66, -502861.28, -41512.063, -0.06430014, -0.0620648, -462785.2, -110428.48, 0.0, 9.999232, 9.9992695 
1.21507995e+3, 2.740438e+2, -456008.78, -421453.03, -43276.906, -0.059193015, -0.083758965, -392132.47, -137766.8, 0.0, 9.998872, 9.999329 
1.215094e+3, 2.8404352e+2, -372594.0, -290866.6, -16060.997, -0.05671653, -0.059794966, -287823.6, -131455.69, 0.0, 9.998601, 9.999682 
1.2151084e+3, 2.940439e+2, -291782.66, -194956.03, -9227.05, -0.058005903, 0.004180134, -194084.58, -135722.0, 0.0, 9.998457, 9.999738 
1.2151227e+3, 3.040425e+2, -288870.72, -157731.47, -2067.6372, -0.074485235, -0.11407914, -157698.88, -157698.88, 0.0, 9.9980955, 9.999833 
1.2151371e+3, 3.1404307e+2, -346595.97, -118004.36, -14865.462, -0.1016596, -0.04019177, -117041.7, -117041.7, 0.0, 9.997409, 10.000437 
1.2248745e+3, 1.2404548e+2, -1379063.1, -1713546.3, 35091.62, 0.040620368, -0.15947011, -1375421.1, 348917.28, 0.0023606704, 10.003008, 9.998558 
1.2248867e+3, 1.3404384e+2, -1314113.1, -1629798.5, -51011.387, -0.024032518, -0.18006177, -1306075.0, 320278.56, 0.0013175874, 10.002766, 9.99858 
1.2249005e+3, 1.4404239e+2, -1254038.1, -1537066.6, -4330.4717, 0.01726833, -0.18718001, -1253971.9, 274395.66, 0.0004937232, 10.002448, 9.9986925 
1.22491464e+3, 1.5404125e+2, -1217438.3, -1465637.0, -5875.363, 0.025970472, -0.17346726, -1217299.3, 213080.19, 0.000083587045, 10.002013, 9.99872 
1.2249287e+3, 1.6404013e+2, -1168690.0, -1383344.4, -2388.5596, 0.015907126, -0.15814163, -1168663.4, 163727.92, 0.0000012652538, 10.001639, 9.998793 
1.22494265e+3, 1.7403907e+2, -1109825.9, -1300460.4, 2425.1833, -0.011477731, -0.14772181, -1109795.0, 124608.15, 0.0, 10.001354, 9.998826 
1.2249565e+3, 1.84038e+2, -1044761.0, -1219570.1, -14874.813, -0.013138952, -0.13466364, -1043504.3, 92910.33, 0.0, 10.001133, 9.9988165 
1.2249706e+3, 1.9403698e+2, -963915.9, -1127205.0, -19843.277, 0.01910743, -0.12051813, -961539.06, 76886.02, 0.0, 10.001004, 9.998839 
1.2249844e+3, 2.0403585e+2, -913265.94, -1075315.9, -10946.427, 0.023623457, -0.10656403, -912529.9, 27907.773, 0.0, 10.000779, 9.9986315 
1.22499794e+3, 2.1403456e+2, -868396.7, -1002066.6, -318.38638, -0.010678612, -0.098086186, -868395.9, -25942.91, 0.0, 10.00041, 9.998639 
1.2250116e+3, 2.2403361e+2, -774767.1, -840727.25, -10546.171, -0.02444842, -0.082385205, -773121.94, -28658.063, 0.0, 10.000099, 9.999224 
1.2250253e+3, 2.3403315e+2, -703779.7, -745835.4, -22273.834, -0.008605028, -0.057951365, -694175.94, -47707.945, 0.0, 9.999871, 9.999312 
1.22503884e+3, 2.4403246e+2, -669279.4, -716838.1, -26307.098, -0.010182471, -0.042995602, -657597.2, -109122.02, 0.0, 9.9996, 9.998968 
1.2250521e+3, 2.5403133e+2, -619321.8, -642800.56, -21240.69, -0.03723358, -0.049600918, -606792.25, -156305.2, 0.0, 9.999274, 9.9989605 
1.22506544e+3, 2.640303e+2, -528346.6, -513332.13, -20398.398, -0.056919347, -0.06190442, -499103.38, -146605.36, 0.0, 9.999077, 9.999271 
1.22507885e+3, 2.740295e+2, -428121.06, -407715.13, -20178.432, -0.06619779, -0.07814712, -395306.8, -140800.19, 0.0, 9.9990635, 9.9993305 
1.2250926e+3, 2.8402922e+2, -339924.06, -274466.3, -1083.367, -0.064740844, -0.051677153, -274448.38, -117939.766, 0.0, 9.998824, 9.999687 
1.2251068e+3, 2.9402956e+2, -321272.5, -208646.58, -3201.2332, -0.047815718, 0.009150131, -208555.66, -150052.38, 0.0, 9.998253, 9.999741 
1.2251209e+3, 3.0402806e+2, -324956.94, -177240.3, 2065.8542, -0.060911816, -0.11819429, -177211.4, -177211.4, 0.0, 9.997858, 9.999813 
1.22513466e+3, 3.1402862e+2, -298666.0, -87278.62, 157.64015, -0.10285194, -0.044341013, -87278.5, -87278.5, 0.0, 9.997706, 10.000504 
1.2348773e+3, 1.2403097e+2, -1366802.8, -1687331.0, 30066.926, 0.02587628, -0.16779643, -1364006.8, 360474.78, 0.0025307094, 10.003004, 9.99874 
1.23488955e+3, 1.3402966e+2, -1299890.9, -1600719.8, -60729.496, -0.022203567, -0.17370299, -1288093.8, 338398.8, 0.0014240493, 10.002767, 9.998779 
1.2349032e+3, 1.440283e+2, -1257851.6, -1545583.0, -20644.803, 0.03616836, -0.18002397, -1256377.9, 272127.66, 0.00054276333, 10.00245, 9.998634 
1.2349165e+3, 1.5402707e+2, -1223099.6, -1477984.0, -22821.787, 0.0074467896, -0.16660543, -1221072.4, 209446.63, 0.00009593835, 10.002014, 9.998635 
1.2349301e+3, 1.6402596e+2, -1162460.6, -1371087.1, -14121.499, -0.0066457368, -0.15226339, -1161509.1, 171022.0, 0.0000017602412, 10.001641, 9.998877 
1.23494424e+3, 1.7402497e+2, -1102456.9, -1285755.0, -8670.367, 0.010460757, -0.14298455, -1102047.8, 132494.0, 0.0, 10.001356, 9.998927 
1.234958e+3, 1.8402393e+2, -1049749.8, -1230665.5, -20680.531, 0.014651759, -0.13020475, -1047415.9, 89137.0, 0.0, 10.001135, 9.998739 
1.2349714e+3, 1.940228e+2, -969828.25, -1140500.6, -24953.5, -0.0031321314, -0.11586625, -966254.7, 72309.99, 0.0, 10.001007, 9.998747 
1.23498484e+3, 2.0402169e+2, -896997.6, -1042553.75, -24274.447, -0.010877195, -0.10449127, -893056.1, 47520.74, 0.0, 10.000782, 9.998856 
1.2349984e+3, 2.1402061e+2, -849792.3, -964403.0, -14399.94, -0.00236621, -0.10187614, -848010.75, -5421.5293, 0.0, 10.000414, 9.998897 
1.2350118e+3, 2.2401977e+2, -790259.0, -873715.56, -19688.32, -0.004394473, -0.08053495, -785847.5, -41248.21, 0.0, 10.000101, 9.998997 
1.235025e+3, 2.3401925e+2, -723040.9, -786443.06, -30704.533, -0.022645539, -0.034134395, -710608.94, -64003.42, 0.0, 9.999872, 9.999034 
1.2350382e+3, 2.4401844e+2, -661750.7, -701781.7, -37999.973, -0.032553453, -0.019688834, -638817.2, -90202.97, 0.0, 9.999602, 9.999071 
1.2350515e+3, 2.5401714e+2, -608940.7, -621921.25, -33010.125, -0.030195009, -0.059874352, -581788.8, -131162.11, 0.0, 9.999276, 9.999104 
1.2350648e+3, 2.6401612e+2, -525448.75, -507854.16, -21217.723, -0.03475155, -0.081663325, -493682.25, -141045.22, 0.0, 9.999078, 9.99931 
1.2350781e+3, 2.7401558e+2, -426276.84, -403884.66, -19697.902, -0.04941097, -0.07160311, -392423.3, -137780.17, 0.0, 9.999063, 9.999357 
1.23509146e+3, 2.8401533e+2, -346617.4, -288257.78, -19674.43, -0.057663307, -0.03849688, -282244.63, -125599.55, 0.0, 9.998822, 9.999594 
1.23510495e+3, 2.9401535e+2, -328404.75, -224196.95, -23630.727, -0.05676626, -0.0002386179, -219088.72, -160445.4, 0.0, 9.998255, 9.999634 
1.2351185e+3, 3.0401376e+2, -317518.66, -162566.61, -3758.784, -0.07146515, -0.13491699, -162475.48, -162475.48, 0.0, 9.99786, 9.999913 
1.23513244e+3, 3.1401473e+2, -284167.44, -56226.184, -4171.513, -0.090375826, -0.032698363, -56149.867, -56149.867, 0.0, 9.997701, 10.00072 
1.2448804e+3, 1.24017e+2, -1340741.5, -1676097.9, 56377.684, 0.018875156, -0.16734794, -1331517.4, 393101.56, 0.002701762, 10.003192, 9.998727 
1.2448921e+3, 1.3401583e+2, -1324472.6, -1614455.0, -55300.637, -0.024402875, -0.15906782, -1314284.5, 312344.53, 0.0015319061, 10.002607, 9.998762 
1.2449057e+3, 1.4401446e+2, -1289406.3, -1553888.0, -16476.518, 0.051831298, -0.16715676, -1288383.8, 240258.33, 0.00059303787, 10.002205, 9.998695 
1.2449185e+3, 1.5401326e+2, -1212108.4, -1464545.1, -6905.8125, 0.00012726439, -0.15760125, -1211919.6, 218735.39, 0.00010892868, 10.002056, 9.998707 
1.24493174e+3, 1.6401213e+2, -1140271.8, -1367376.5, 2162.707, -0.019246828, -0.1448957, -1140251.1, 192415.92, 0.0000023447426, 10.001824, 9.998814 
1.2449457e+3, 1.740111e+2, -1091026.9, -1288864.8, -6103.3857, 0.019043261, -0.13417268, -1090838.8, 143839.67, 0.0, 10.001472, 9.998849 
1.2449592e+3, 1.8401001e+2, -1042026.2, -1219224.3, -16602.668, 0.02734321, -0.12322666, -1040484.0, 96205.836, 0.0, 10.001156, 9.998807 
1.2449723e+3, 1.9400893e+2, -981966.1, -1136776.1, -7599.6343, -0.011357801, -0.115189634, -981593.94, 57107.32, 0.0, 10.000884, 9.998832 
1.2449854e+3, 2.0400788e+2, -919339.4, -1047758.2, -10138.134, -0.025288405, -0.10464625, -918544.0, 22168.7, 0.0, 10.000607, 9.998904 
1.2449988e+3, 2.1400692e+2, -860324.2, -964350.44, -17095.748, -0.0017869902, -0.09472591, -857586.7, -14862.8, 0.0, 10.00032, 9.998941 
1.24501206e+3, 2.2400609e+2, -798496.8, -879896.4, -21223.783, 0.0021394726, -0.07158965, -793295.4, -48561.7, 0.0, 10.000055, 9.998976 
1.2450249e+3, 2.340055e+2, -732108.6, -793471.7, -13473.012, -0.023244074, -0.031940423, -729280.8, -82539.67, 0.0, 9.999823, 9.999008 
1.24503784e+3, 2.4400465e+2, -654920.7, -690287.1, -12342.6875, -0.036366034, -0.021146268, -651039.2, -102289.195, 0.0, 9.999615, 9.999144 
1.2450508e+3, 2.5400344e+2, -579029.25, -598122.3, -12297.294, -0.031556237, -0.060178544, -573007.9, -122246.81, 0.0, 9.999442, 9.9991865 
1.245064e+3, 2.6400247e+2, -510519.53, -497393.3, -2635.3765, -0.02926852, -0.08008903, -496883.97, -144113.55, 0.0, 9.999167, 9.999337 
1.2450772e+3, 2.74002e+2, -471122.22, -422743.4, -1543.9844, -0.030570228, -0.067113474, -422694.2, -167917.94, 0.0, 9.998744, 9.999381 
1.2450904e+3, 2.840018e+2, -399198.94, -316117.03, -2511.3435, -0.04032637, -0.03183299, -316041.2, -159262.98, 0.0, 9.998473, 9.99957 
1.24510325e+3, 2.940018e+2, -306042.28, -216654.47, -1862.3402, -0.06308866, 0.0070936596, -216615.67, -157838.67, 0.0, 9.998424, 9.999603 
1.24511644e+3, 3.0400014e+2, -279747.34, -141895.03, 13809.852, -0.081958205, -0.13199568, -140525.19, -140525.19, 0.0, 9.99811, 9.999934 
1.24513015e+3, 3.1400114e+2, -319899.97, -58929.13, 6058.677, -0.07258309, -0.032344993, -58788.547, -58788.547, 0.0, 9.997394, 10.000849 
1.2548836e+3, 1.2400365e+2, -1356134.5, -1708749.5, 36762.684, 0.019108355, -0.15791841, -1352342.5, 372407.38, 0.002872962, 10.003195, 9.998501 
1.2548946e+3, 1.3400234e+2, -1342213.6, -1651527.4, -78113.91, -0.031176098, -0.13607877, -1323606.1, 303156.22, 0.001640651, 10.002606, 9.998508 
1.254908e+3, 1.440009e+2, -1276987.8, -1527885.1, -24110.959, 0.06353506, -0.1487069, -1274691.8, 254084.94, 0.0006444068, 10.002202, 9.998876 
1.2549205e+3, 1.5399985e+2, -1195872.4, -1431466.1, -12730.821, 0.004249748, -0.14633128, -1195186.5, 235600.47, 0.00012257921, 10.002058, 9.998934 
1.2549335e+3, 1.6399872e+2, -1154928.3, -1398883.4, -10872.071, -0.021696577, -0.13601431, -1154444.8, 178354.02, 0.0000030126384, 10.001828, 9.998596 
1.2549472e+3, 1.7399745e+2, -1108941.9, -1327163.3, -19797.105, 0.013825177, -0.12117553, -1107160.5, 127652.445, 0.0, 10.001476, 9.998585 
1.2549603e+3, 1.8399629e+2, -1027000.4, -1188997.9, -27519.402, 0.024311425, -0.113464236, -1022453.1, 114372.13, 0.0, 10.001159, 9.999014 
1.2549731e+3, 1.9399531e+2, -963331.9, -1098940.5, -18139.668, -0.0057421904, -0.118706636, -960947.3, 77887.3, 0.0, 10.000886, 9.999091 
1.2549861e+3, 2.0399436e+2, -928138.5, -1066886.8, -21047.197, -0.019725226, -0.107451916, -925016.06, 15828.948, 0.0, 10.000608, 9.998772 
1.254999e+3, 2.1399345e+2, -872136.25, -989737.5, -27929.193, -0.008995446, -0.076519415, -865840.4, -22983.6, 0.0, 10.000323, 9.998767 
1.255012e+3, 2.2399259e+2, -785627.3, -853817.44, -30242.277, -0.004985718, -0.055200424, -774147.5, -29280.379, 0.0, 10.000057, 9.999155 
1.2550248e+3, 2.3399185e+2, -716321.25, -761324.75, -22123.889, -0.010892883, -0.051136594, -707266.8, -60391.875, 0.0, 9.999825, 9.999229 
1.2550376e+3, 2.4399108e+2, -651968.25, -684722.0, -18792.254, -0.022189379, -0.04730886, -643418.2, -94535.59, 0.0, 9.999616, 9.999182 
1.2550502e+3, 2.5399026e+2, -577598.5, -595500.6, -18302.803, -0.041243248, -0.050859194, -566175.2, -115284.92, 0.0, 9.999443, 9.999205 
1.255063e+3, 2.6398945e+2, -509323.2, -495238.13, -17045.95, -0.040248416, -0.057708193, -483837.2, -130938.74, 0.0, 9.999167, 9.999352 
1.2550762e+3, 2.7398878e+2, -469823.25, -420451.1, -16714.73, -0.010117996, -0.06487335, -415324.7, -160418.4, 0.0, 9.998744, 9.999397 
1.255089e+3, 2.8398857e+2, -396800.03, -311326.47, -4763.0693, -0.013577655, -0.03180442, -311061.84, -154153.38, 0.0, 9.998473, 9.999603 
1.2551017e+3, 2.9398882e+2, -304011.53, -211941.58, -2613.1619, -0.06726412, 0.030765273, -211867.47, -152962.56, 0.0, 9.99842, 9.999638 
1.2551145e+3, 3.0398715e+2, -283832.2, -150049.33, -9633.666, -0.092838645, -0.10984813, -149359.17, -149359.17, 0.0, 9.998107, 9.999881 
1.2551278e+3, 3.1398776e+2, -316055.88, -52196.824, -19767.092, -0.05063615, -0.041739624, -50724.184, -50724.184, 0.0, 9.997397, 10.000894 
1.2648867e+3, 1.23990424e+2, -1390821.1, -1728906.4, 33716.234, 0.036139272, -0.14385651, -1387491.5, 337388.56, 0.0030443578, 10.002972, 9.998469 
1.2648973e+3, 1.3398899e+2, -1314733.9, -1645177.4, -68779.04, -0.05169977, -0.12918732, -1300989.8, 325904.25, 0.0017503432, 10.002826, 9.998446 
1.2649103e+3, 1.4398743e+2, -1227478.9, -1508100.6, -11625.282, 0.05393227, -0.14789528, -1226998.0, 301911.53, 0.00069703115, 10.002562, 9.998837 
1.2649228e+3, 1.5398648e+2, -1188134.9, -1431786.1, -20032.68, 0.009542886, -0.13235515, -1186498.9, 244420.3, 0.00013704965, 10.00213, 9.998897 
1.2649353e+3, 1.6398539e+2, -1162674.1, -1392984.8, -21240.633, -0.014324937, -0.11976269, -1160731.6, 172198.75, 0.0000037895563, 10.001735, 9.998681 
1.2649485e+3, 1.7398408e+2, -1114643.6, -1318622.5, -3292.0837, 0.0059603, -0.118963, -1114590.5, 120353.61, 0.0, 10.00139, 9.998685 
1.2649614e+3, 1.839829e+2, -1043432.5, -1201116.8, -2150.1697, 0.0127451215, -0.11749837, -1043403.2, 93553.266, 0.0, 10.001066, 9.998975 
1.264974e+3, 1.9398193e+2, -984070.06, -1115113.9, -16377.326, -0.0047672684, -0.11740398, -982054.3, 56912.113, 0.0, 10.000772, 9.999034 
1.2649867e+3, 2.0398103e+2, -938852.0, -1060923.1, -24853.756, -0.014077505, -0.1009834, -933985.75, 6990.704, 0.0, 10.000488, 9.99887 
1.2649992e+3, 2.1398027e+2, -879960.75, -980480.5, -10488.641, -0.009968113, -0.065315686, -878877.94, -35891.54, 0.0, 10.000215, 9.998881 
1.265012e+3, 2.2397946e+2, -799746.5, -859377.25, -5224.9287, -0.00782888, -0.04626158, -799292.1, -54295.98, 0.0, 9.999956, 9.999165 
1.2650247e+3, 2.339786e+2, -731930.06, -768900.6, -13667.078, -0.00884664, -0.05455799, -727426.3, -80421.22, 0.0, 9.999719, 9.999228 
1.265037e+3, 2.4397786e+2, -665529.06, -681020.56, -17100.398, -0.017182078, -0.052453287, -654502.0, -105489.39, 0.0, 9.99948, 9.999272 
1.2650496e+3, 2.5397724e+2, -599743.6, -594665.4, -10838.547, -0.03614126, -0.04259118, -586072.5, -135054.48, 0.0, 9.999242, 9.999307 
1.2650621e+3, 2.6397657e+2, -531304.7, -502042.6, -10250.302, -0.037946355, -0.045323335, -498809.25, -145784.23, 0.0, 9.9990015, 9.999386 
1.2650748e+3, 2.7397582e+2, -466364.53, -415663.5, -10050.035, -0.0148701295, -0.061495084, -413744.06, -158710.66, 0.0, 9.998755, 9.999424 
1.2650876e+3, 2.8397566e+2, -397192.7, -306913.47, 6178.721, -0.013830648, -0.029115764, -306492.53, -149457.19, 0.0, 9.998451, 9.999643 
1.2651001e+3, 2.9397607e+2, -354340.38, -231397.2, 9052.474, -0.04607108, 0.04455855, -230734.22, -171703.78, 0.0, 9.9980545, 9.99968 
1.2651126e+3, 3.039744e+2, -333214.72, -178083.42, -2977.6238, -0.069485195, -0.09832249, -178026.3, -178026.3, 0.0, 9.997787, 9.999841 
1.2651254e+3, 3.1397477e+2, -267047.4, -21598.06, -12828.436, -0.049781296, -0.050502304, -20929.402, -20929.402, 0.0, 9.9977045, 10.000956 
1.27489e+3, 1.23977385e+2, -1379319.4, -1704090.6, 28076.283, 0.070189856, -0.12451664, -1376910.0, 348099.16, 0.003216271, 10.002968, 9.998643 
1.2748997e+3, 1.339758e+2, -1304720.6, -1625471.8, -74587.625, -0.08641968, -0.13893545, -1288224.4, 338799.1, 0.0018611854, 10.00283, 9.998581 
1.2749125e+3, 1.4397411e+2, -1245456.1, -1546952.3, -27739.771, 0.022092521, -0.16543716, -1242925.1, 286115.16, 0.0007511169, 10.002567, 9.998569 
1.2749249e+3, 1.5397319e+2, -1209754.9, -1477623.1, -37039.76, 0.0155424625, -0.115895644, -1204727.5, 226323.69, 0.0001525157, 10.002132, 9.998581 
1.2749372e+3, 1.6397217e+2, -1135160.3, -1336544.4, -35062.863, 0.0027213017, -0.09596619, -1129230.1, 203831.53, 0.000004722807, 10.001737, 9.999068 
1.2749498e+3, 1.73971e+2, -1081494.3, -1250613.8, -16596.48, -0.004664711, -0.12761779, -1079881.0, 155190.6, 0.0, 10.001392, 9.999151 
1.2749623e+3, 1.8396986e+2, -1063496.0, -1243636.5, -13775.2, -0.0077466853, -0.13572267, -1062448.6, 74634.41, 0.0, 10.001068, 9.998683 
1.2749748e+3, 1.9396874e+2, -1010101.75, -1170067.4, -27646.717, -0.008658593, -0.11123942, -1005458.4, 33638.066, 0.0, 10.000774, 9.998656 
1.2749872e+3, 2.039679e+2, -916034.0, -1014400.8, -35423.24, -0.008490106, -0.0849402, -904605.4, 36501.5, 0.0, 10.000491, 9.999189 
1.2749997e+3, 2.1396741e+2, -851414.94, -922079.94, -20912.0, -0.004976823, -0.061183155, -845690.2, -2577.4194, 0.0, 10.0002165, 9.999282 
1.2750119e+3, 2.239667e+2, -810650.44, -882775.06, -14327.544, -0.006721519, -0.045074906, -807908.56, -62787.703, 0.0, 9.999958, 9.999003 
1.2750241e+3, 2.3396574e+2, -747364.6, -801555.3, -22426.313, -0.01707144, -0.04240194, -739287.56, -92155.734, 0.0, 9.99972, 9.999003 
1.2750366e+3, 2.4396497e+2, -655889.2, -661444.2, -25782.594, -0.021377968, -0.036787637, -632734.94, -83594.86, 0.0, 9.99948, 9.999407 
1.275049e+3, 2.5396445e+2, -587027.25, -568660.3, -19310.277, -0.016855715, -0.03537498, -556461.0, -105316.625, 0.0, 9.999243, 9.999486 
1.2750612e+3, 2.6396385e+2, -527913.06, -495514.2, -18842.1, -0.022873914, -0.042729266, -486865.16, -133714.72, 0.0, 9.9990015, 9.999431 
1.2750733e+3, 2.7396312e+2, -463841.0, -411054.63, -18500.955, -0.044153593, -0.05686806, -405216.06, -150058.16, 0.0, 9.998756, 9.999455 
1.2750857e+3, 2.8396302e+2, -393882.06, -300568.03, -7380.989, -0.040484957, -0.023735829, -299987.8, -142828.56, 0.0, 9.998452, 9.999687 
1.2750985e+3, 2.9396346e+2, -351212.38, -225160.27, -5112.178, -0.0009439917, 0.04839602, -224953.27, -165799.17, 0.0, 9.9980545, 9.999723 
1.275111e+3, 3.0396175e+2, -335292.75, -182524.3, -6278.618, -0.013722542, -0.09727524, -182266.69, -182266.69, 0.0, 9.9977865, 9.999811 
1.2751228e+3, 3.1396204e+2, -262183.38, -11385.829, -14379.614, -0.06976746, -0.05649901, -10564.059, -10564.059, 0.0, 9.997703, 10.001027 
1.284893e+3, 1.23964496e+2, -1380737.3, -1699012.3, 39567.285, 0.07949253, -0.109202266, -1375892.1, 349244.72, 0.0033890037, 10.002935, 9.998692 
1.2849024e+3, 1.3396284e+2, -1310304.9, -1627652.4, -72875.49, -0.09537415, -0.13157597, -1294369.9, 332781.5, 0.0019731622, 10.0027895, 9.998584 
1.284915e+3, 1.4396109e+2, -1251496.9, -1551567.1, -33304.133, 0.02893548, -0.16264077, -1247845.0, 281323.53, 0.0008066489, 10.002534, 9.998552 
1.284927e+3, 1.5396024e+2, -1214843.1, -1481943.5, -21572.412, 0.018582964, -0.10468551, -1213112.1, 218067.19, 0.00016903538, 10.002107, 9.998563 
1.2849389e+3, 1.6395928e+2, -1131442.4, -1324811.9, -14075.914, 0.0014169781, -0.082959965, -1130423.1, 202766.11, 0.00000585612, 10.00172, 9.999155 
1.2849511e+3, 1.7395811e+2, -1073374.1, -1235506.4, -23105.793, -0.010220273, -0.12247065, -1070145.6, 165052.69, 0.0, 10.001401, 9.999249 
1.2849632e+3, 1.8395697e+2, -1060584.3, -1238724.0, -24596.166, -0.013114421, -0.13657536, -1057250.5, 79958.75, 0.0, 10.001075, 9.998713 
1.2849754e+3, 1.9395587e+2, -1015225.5, -1169719.9, -8828.91, -0.0073030987, -0.115160696, -1014722.6, 24500.283, 0.0, 10.00073, 9.99868 
1.2849876e+3, 2.0395508e+2, -925879.8, -1016395.25, -8537.715, -0.003982741, -0.08437337, -925081.56, 16151.361, 0.0, 10.000413, 9.999212 
1.2849997e+3, 2.1395478e+2, -861288.75, -924005.2, -22181.324, -0.0027432244, -0.045249447, -854236.75, -10999.321, 0.0, 10.000138, 9.999306 
1.2850118e+3, 2.2395414e+2, -823301.6, -882461.3, -24431.172, -0.0051549226, -0.02543617, -814516.75, -69271.95, 0.0, 9.999845, 9.99906 
1.285024e+3, 2.3395309e+2, -771767.6, -806525.8, -11913.901, -0.01391671, -0.0367086, -768076.0, -120819.92, 0.0, 9.999524, 9.999063 
1.285036e+3, 2.4395232e+2, -685721.56, -673661.1, -4960.5195, -0.01702176, -0.035900477, -671883.0, -122618.72, 0.0, 9.999267, 9.999426 
1.2850483e+3, 2.539519e+2, -606243.7, -576211.3, -10520.343, -0.012004472, -0.025049046, -572892.75, -121624.766, 0.0, 9.999104, 9.9995 
1.2850602e+3, 2.6395136e+2, -532647.6, -488633.13, -16428.97, -0.018684387, -0.031006116, -483177.13, -129903.67, 0.0, 9.998931, 9.999512 
1.285072e+3, 2.7395067e+2, -459850.06, -399021.28, -12239.922, -0.041869484, -0.056166004, -396650.75, -141370.27, 0.0, 9.998741, 9.999545 
1.285084e+3, 2.8395054e+2, -387394.75, -293722.94, -4727.7715, -0.037386075, -0.029768594, -293484.94, -136203.4, 0.0, 9.998482, 9.99972 
1.2850967e+3, 2.93951e+2, -340636.75, -217413.11, -4792.055, 0.0062038815, 0.042603154, -217227.03, -157950.81, 0.0, 9.9981165, 9.999746 
1.2851089e+3, 3.0394933e+2, -334927.72, -185203.64, 568.7204, -0.0052884673, -0.098805726, -185201.48, -185201.48, 0.0, 9.997803, 9.999784 
1.2851205e+3, 3.139496e+2, -277654.72, -9643.493, -6428.8125, -0.059011683, -0.056100383, -9489.373, -9489.373, 0.0, 9.997559, 10.001107 
1.2948959e+3, 1.2395181e+2, -1386752.3, -1711580.4, 31719.615, 0.061871834, -0.09857475, -1383683.9, 341578.47, 0.0035624073, 10.002935, 9.998606 
1.2949052e+3, 1.3395014e+2, -1320060.1, -1648395.0, -79023.69, -0.07812273, -0.10671672, -1302030.6, 325246.63, 0.0020858154, 10.00279, 9.998443 
1.294918e+3, 1.4394842e+2, -1234462.4, -1516640.0, -49027.367, 0.07541153, -0.1388058, -1226186.8, 303107.44, 0.00086324645, 10.002535, 9.998792 
1.2949291e+3, 1.5394768e+2, -1194620.9, -1440697.0, -38073.82, 0.01877861, -0.0986554, -1188864.6, 242438.52, 0.0001865044, 10.002109, 9.998845 
1.2949404e+3, 1.6394672e+2, -1146668.0, -1357317.5, -27008.367, -0.018791873, -0.081066474, -1143260.3, 190052.55, 0.0000072252774, 10.001723, 9.998932 
1.2949523e+3, 1.7394547e+2, -1092550.3, -1276329.9, -35543.047, -0.01095784, -0.103553034, -1085915.6, 149408.22, 0.0, 10.001404, 9.998969 
1.2949644e+3, 1.8394428e+2, -1035574.9, -1187826.9, -37902.26, -0.003393637, -0.11984762, -1026661.2, 110673.79, 0.0, 10.001078, 9.999061 
1.2949763e+3, 1.9394329e+2, -985138.7, -1108224.4, -22110.063, -0.0008084458, -0.12914602, -981287.5, 58058.023, 0.0, 10.000732, 9.999102 
1.2949881e+3, 2.0394261e+2, -944643.5, -1056220.6, -19332.15, -0.0008117853, -0.09952515, -941388.94, -34.555847, 0.0, 10.000416, 9.998939 
1.2949999e+3, 2.1394238e+2, -885736.7, -975596.06, -32543.734, -0.0033596887, -0.017623795, -875188.7, -31828.357, 0.0, 10.000141, 9.998951 
1.2950118e+3, 2.2394179e+2, -804436.3, -844114.1, -36299.754, -0.0032632332, 0.012647778, -782907.94, -37539.836, 0.0, 9.999847, 9.999323 
1.2950236e+3, 2.3394068e+2, -747680.5, -757398.2, -23827.791, 0.00023099942, -0.037410725, -728221.2, -80843.16, 0.0, 9.999527, 9.999399 
1.2950353e+3, 2.439399e+2, -692198.1, -687945.6, -11395.143, -0.0044342917, -0.049671903, -678480.06, -129094.68, 0.0, 9.9992695, 9.999328 
1.2950473e+3, 2.5393963e+2, -616388.44, -597850.0, -16139.854, -0.02135917, -0.01162706, -588507.0, -137118.06, 0.0, 9.9991045, 9.999352 
1.295059e+3, 2.639391e+2, -524831.8, -472713.84, -22736.896, -0.025350047, -0.010298662, -464189.06, -110794.695, 0.0, 9.998931, 9.999622 
1.2950711e+3, 2.739383e+2, -449992.5, -378391.0, -18551.658, -0.009411972, -0.05944803, -373869.84, -118468.414, 0.0, 9.998739, 9.999689 
1.2950829e+3, 2.8393814e+2, -386405.1, -291435.97, -16960.045, -0.0058686836, -0.04696264, -288498.03, -131095.55, 0.0, 9.998479, 9.999738 
1.2950945e+3, 2.9393864e+2, -340655.03, -217557.55, -17606.275, -0.023119448, 0.027766371, -215088.89, -155691.75, 0.0, 9.998116, 9.999746 
1.2951063e+3, 3.0393708e+2, -337514.6, -190368.22, -8154.275, -0.042263627, -0.1024825, -189917.72, -189917.72, 0.0, 9.9978, 9.999751 
1.2951185e+3, 3.139374e+2, -273147.7, 923.10266, -14128.248, -0.019904295, -0.04905071, 1649.4835, 1649.4835, 0.0, 9.997552, 10.0011835 
1.3048989e+3, 1.2393945e+2, -1328756.3, -1676083.0, 46599.465, 0.057283662, -0.08922398, -1322612.9, 402771.63, 0.0037353144, 10.003305, 9.998671 
1.3049082e+3, 1.3393784e+2, -1317941.6, -1646087.0, -50702.387, -0.07321648, -0.09523989, -1310286.1, 317112.9, 0.002198173, 10.002801, 9.998452 
1.3049208e+3, 1.4393616e+2, -1250431.1, -1517115.9, -21201.357, 0.10189316, -0.1261117, -1248756.1, 280659.22, 0.00092024496, 10.002396, 9.998856 
1.3049313e+3, 1.5393548e+2, -1184276.4, -1428036.3, -26630.674, 0.016397202, -0.084930874, -1181400.9, 250022.45, 0.00020472471, 10.002149, 9.998913 
1.304942e+3, 1.6393453e+2, -1130400.6, -1354211.6, -19037.742, -0.033007365, -0.069356866, -1128792.9, 204640.25, 0.000008878654, 10.001857, 9.998888 
1.3049538e+3, 1.7393313e+2, -1083707.4, -1277852.1, -10737.615, -0.009607733, -0.09850593, -1083115.4, 152330.19, 0.0, 10.001492, 9.998916 
1.3049656e+3, 1.8393198e+2, -1028856.2, -1175154.6, -14913.49, 0.0052716294, -0.11487991, -1027351.44, 110105.07, 0.0, 10.001084, 9.999144 
1.304977e+3, 1.9393118e+2, -995179.6, -1101861.4, -23909.813, 0.0017872524, -0.11418448, -990066.0, 49398.676, 0.0, 10.000616, 9.9992 
1.3049884e+3, 2.0393051e+2, -975709.25, -1079049.8, -23101.188, 0.00033734232, -0.08553452, -970780.2, -29307.006, 0.0, 10.000237, 9.998867 
1.305e+3, 2.1393003e+2, -914139.75, -999436.56, -16602.375, 0.0034487958, -0.0210472, -911022.1, -67540.13, 0.0, 9.99999, 9.998859 
1.3050117e+3, 2.2392935e+2, -808449.6, -834440.25, -14865.138, 0.0041047316, 0.0028036092, -801700.3, -56209.918, 0.0, 9.99977, 9.999426 
1.3050231e+3, 2.3392847e+2, -730462.94, -734846.7, -18194.898, 0.00062816497, -0.037152413, -714328.4, -66830.68, 0.0, 9.999584, 9.999526 
1.3050346e+3, 2.4392782e+2, -682167.3, -681050.2, -11142.284, -0.006175686, -0.044150334, -670452.5, -120948.93, 0.0, 9.9993305, 9.999345 
1.3050462e+3, 2.5392756e+2, -635256.75, -606543.6, -5012.9023, -0.017998448, -0.008333721, -605693.56, -154186.16, 0.0, 9.998974, 9.999355 
1.305058e+3, 2.63927e+2, -561549.25, -485415.7, -6473.796, -0.01776979, -0.010180887, -484869.13, -131356.14, 0.0, 9.998657, 9.999666 
1.3050698e+3, 2.739262e+2, -495572.28, -394811.44, -9401.071, 0.0008321088, -0.06387111, -393941.8, -138421.94, 0.0, 9.998403, 9.999738 
1.3050812e+3, 2.8392607e+2, -430843.44, -306049.06, -13457.191, 0.0031351366, -0.052746993, -304614.4, -147093.84, 0.0, 9.998145, 9.999798 
1.3050926e+3, 2.939267e+2, -371258.25, -225563.69, -10563.451, -0.020995986, 0.025760934, -224801.78, -165287.48, 0.0, 9.997877, 9.999806 
1.3051039e+3, 3.0392522e+2, -364846.03, -201190.84, 4670.3193, -0.043385148, -0.098062485, -201057.67, -201057.67, 0.0, 9.997604, 9.99977 
1.305116e+3, 3.1392547e+2, -296864.94, 3578.37, 3069.0378, -0.015309871, -0.053149223, 3609.7173, 3609.7173, 0.0, 9.99733, 10.001309 
1.3149023e+3, 1.239275e+2, -1313204.9, -1644567.1, 23831.385, 0.06553108, -0.080280475, -1311499.8, 414002.84, 0.003906043, 10.003308, 9.998887 
1.314911e+3, 1.3392593e+2, -1306087.5, -1622351.3, -70064.09, -0.081042595, -0.09775667, -1291260.9, 336255.1, 0.0023090318, 10.002804, 9.998615 
1.3149232e+3, 1.4392431e+2, -1258962.9, -1535359.3, -32151.5, 0.10750598, -0.12512174, -1255272.1, 274259.34, 0.000976971, 10.002397, 9.99873 
1.3149333e+3, 1.5392369e+2, -1195152.0, -1451340.3, -36254.543, 0.010895449, -0.06351013, -1190120.3, 241419.34, 0.00022350362, 10.002151, 9.998753 
1.3149439e+3, 1.639227e+2, -1120408.1, -1334460.8, -32796.277, -0.04146219, -0.047717847, -1115495.9, 218053.75, 0.000010883257, 10.00186, 9.9990225 
1.3149555e+3, 1.7392118e+2, -1071109.6, -1252758.5, -24817.547, -0.0062456196, -0.107381076, -1067780.0, 167782.86, 0.0, 10.001494, 9.999086 
1.3149667e+3, 1.8392006e+2, -1041429.1, -1202310.9, -32545.22, 0.012662841, -0.12176768, -1035094.9, 102478.734, 0.0, 10.001088, 9.998957 
1.3149776e+3, 1.9391955e+2, -1010798.1, -1135227.8, -41814.77, 0.00031617013, -0.07029736, -998051.94, 41528.215, 0.0, 10.000619, 9.998971 
1.3149886e+3, 2.039188e+2, -966656.94, -1061117.3, -33432.734, -0.00077344844, -0.042283725, -956021.44, -14432.066, 0.0, 10.000239, 9.998989 
1.315e+3, 2.1391769e+2, -902081.3, -975270.94, -25853.842, 0.017359525, -0.05531096, -893869.9, -50267.477, 0.0, 9.999993, 9.999024 
1.3150115e+3, 2.2391686e+2, -812223.06, -843062.1, -22057.25, 0.01669749, -0.05481503, -800730.06, -55118.246, 0.0, 9.999772, 9.999367 
1.3150226e+3, 2.3391648e+2, -736028.06, -747098.75, -24946.191, -0.012601484, -0.03600653, -716010.5, -68395.305, 0.0, 9.999586, 9.999442 
1.3150339e+3, 2.4391608e+2, -673091.5, -662859.3, -23526.477, -0.022241818, -0.01955259, -643899.06, -94280.12, 0.0, 9.999331, 9.99947 
1.3150454e+3, 2.5391564e+2, -624342.5, -584437.3, -17854.855, -0.002560118, -0.015062344, -577614.9, -125991.33, 0.0, 9.998975, 9.999507 
1.3150568e+3, 2.6391503e+2, -563328.06, -489512.13, -15742.296, 0.0034263574, -0.030363586, -486295.06, -132665.55, 0.0, 9.998658, 9.999639 
1.315068e+3, 2.7391434e+2, -498837.2, -401884.9, -18046.195, -0.010544012, -0.06929851, -398634.8, -142998.64, 0.0, 9.998403, 9.99969 
1.3150793e+3, 2.839143e+2, -424233.0, -292324.56, -22429.684, -0.009809191, -0.04740874, -288614.97, -130978.91, 0.0, 9.998144, 9.999893 
1.3150907e+3, 2.939151e+2, -363868.22, -209676.84, -19578.166, 0.010660111, 0.035670813, -207229.78, -147601.6, 0.0, 9.997873, 9.999918 
1.3151018e+3, 3.039137e+2, -360853.13, -192037.16, -4601.4775, -0.010954759, -0.08613834, -191911.83, -191911.83, 0.0, 9.997599, 9.999837 
1.315113e+3, 3.1391382e+2, -285871.53, 27460.512, -5264.5806, -0.04418134, -0.066272244, 27548.941, 27548.941, 0.0, 9.997324, 10.001477 
1.3249056e+3, 1.2391609e+2, -1319008.4, -1648335.8, 61524.363, 0.0745394, -0.08915759, -1307889.9, 417724.28, 0.004073657, 10.003275, 9.998878 
1.3249137e+3, 1.3391455e+2, -1294445.0, -1624718.4, -46553.504, -0.09017498, -0.09699621, -1288008.5, 339619.06, 0.0024175402, 10.002919, 9.998543 
1.3249257e+3, 1.4391291e+2, -1229850.4, -1526474.0, -9630.253, 0.11249287, -0.120095596, -1229538.0, 300105.4, 0.0010328876, 10.002621, 9.998683 
1.3249357e+3, 1.5391211e+2, -1159787.4, -1438971.9, -4053.2703, 0.0125825545, -0.072879024, -1159728.5, 271924.3, 0.00024265106, 10.002415, 9.99871 
1.3249458e+3, 1.6391107e+2, -1098543.1, -1328574.9, -11381.258, -0.040949855, -0.057873387, -1097981.4, 235682.1, 0.000013283229, 10.002031, 9.99898 
1.3249569e+3, 1.7390972e+2, -1091134.9, -1267064.3, -21021.846, -0.002236318, -0.09643212, -1088657.9, 147017.92, 0.0, 10.001378, 9.999044 
1.3249677e+3, 1.8390863e+2, -1072752.8, -1226667.9, -28170.686, 0.018296687, -0.10150392, -1067758.8, 69927.83, 0.0, 10.000914, 9.998873 
1.3249783e+3, 1.9390795e+2, -999937.0, -1139577.1, -26373.756, 0.004343606, -0.05948306, -995121.9, 44573.098, 0.0, 10.000736, 9.998883 
1.324989e+3, 2.0390707e+2, -931707.2, -1035977.9, -15157.848, 0.0013885966, -0.040954944, -929548.4, 12156.479, 0.0, 10.000445, 9.999063 
1.3250001e+3, 2.1390598e+2, -898358.4, -963023.0, -13378.519, 0.017484691, -0.06262933, -895699.75, -51982.93, 0.0, 9.999975, 9.999117 
1.3250111e+3, 2.2390515e+2, -840815.75, -863124.75, -7523.36, 0.017068384, -0.06356783, -838515.75, -92789.97, 0.0, 9.999604, 9.999309 
1.3250221e+3, 2.3390478e+2, -770200.2, -771983.5, -9602.823, -0.008834214, -0.035637792, -761447.7, -113718.086, 0.0, 9.999389, 9.999366 
1.325033e+3, 2.439044e+2, -699495.8, -667324.6, -15311.221, -0.016712196, -0.01808028, -661202.56, -111468.96, 0.0, 9.999116, 9.999543 
1.3250443e+3, 2.5390393e+2, -650327.7, -586511.7, -15128.294, 0.002047034, -0.024498777, -583107.0, -131369.06, 0.0, 9.998754, 9.999599 
1.3250554e+3, 2.6390338e+2, -594643.75, -499081.94, -10350.102, 0.0069075827, -0.04074964, -497973.78, -144230.69, 0.0, 9.998421, 9.999686 
1.3250662e+3, 2.7390286e+2, -535385.25, -414665.4, -5975.5664, -0.008014819, -0.066022456, -414370.34, -158622.05, 0.0, 9.998133, 9.999732 
1.3250774e+3, 2.839029e+2, -456740.9, -297664.5, -5753.3433, -0.0075717205, -0.043089334, -297456.7, -139709.08, 0.0, 9.997878, 9.999984 
1.3250884e+3, 2.9390362e+2, -386042.3, -209660.5, -4432.621, 0.012770017, 0.023451254, -209549.17, -149808.89, 0.0, 9.997677, 10.000012 
1.3250993e+3, 3.0390245e+2, -387913.1, -196753.83, 5582.87, -0.008846512, -0.090686604, -196590.92, -196590.92, 0.0, 9.997378, 9.999909 
1.3251102e+3, 3.1390274e+2, -331054.7, 25143.463, 5557.372, -0.036944855, -0.05681861, 25230.148, 25230.148, 0.0, 9.996931, 10.00165 
1.334909e+3, 1.2390529e+2, -1336543.0, -1684960.5, 43024.87, 0.08341444, -0.117014535, -1331308.6, 394409.7, 0.0042385682, 10.003275, 9.998625 
1.3349165e+3, 1.3390376e+2, -1316574.6, -1671566.8, -60165.363, -0.100786336, -0.09270431, -1306654.8, 321078.63, 0.0025235927, 10.002921, 9.998221 
1.3349284e+3, 1.43902e+2, -1227595.1, -1522561.8, -18742.688, 0.116557375, -0.110596046, -1226409.0, 303341.6, 0.0010875799, 10.002623, 9.99871 
1.3349381e+3, 1.5390076e+2, -1154159.8, -1428353.6, -12077.093, 0.021466747, -0.11373775, -1153628.8, 278134.1, 0.00026189684, 10.0024185, 9.998781 
1.334948e+3, 1.6389965e+2, -1113850.4, -1361620.1, -34593.773, -0.031463746, -0.10056201, -1109111.0, 224663.25, 0.000016032998, 10.002035, 9.998752 
1.3349584e+3, 1.7389877e+2, -1109250.4, -1305689.6, -46121.734, 0.0022528258, -0.065651774, -1098960.5, 136823.38, 0.00000000003443261, 10.001381, 9.998778 
1.3349688e+3, 1.838977e+2, -1071200.3, -1224366.1, -37136.957, 0.021822372, -0.053896993, -1062671.0, 75124.38, 0.0, 10.0009165, 9.998888 
1.3349791e+3, 1.9389637e+2, -995890.3, -1132164.4, -33190.42, 0.013699619, -0.08172173, -988236.5, 51572.58, 0.0, 10.000739, 9.998934 
1.3349895e+3, 2.0389536e+2, -929709.25, -1032756.6, -31894.455, 0.006661585, -0.08166868, -920636.4, 21183.34, 0.0, 10.000448, 9.999084 
1.335e+3, 2.1389487e+2, -896700.6, -960500.8, -31215.09, 0.0037491224, -0.043260045, -883968.94, -40143.62, 0.0, 9.999977, 9.999134 
1.3350107e+3, 2.2389422e+2, -844743.25, -872232.2, -16554.77, 0.0050059604, -0.023685409, -836971.0, -91138.63, 0.0, 9.999607, 9.999246 
1.3350216e+3, 2.3389341e+2, -775014.6, -782703.7, -17370.047, 0.011440782, -0.036045134, -761068.75, -113227.56, 0.0, 9.999391, 9.999292 
1.3350324e+3, 2.4389276e+2, -698115.8, -664969.06, -27942.117, 0.009942004, -0.039588246, -649054.9, -99207.18, 0.0, 9.999117, 9.999559 
1.335043e+3, 2.5389242e+2, -648137.0, -582588.3, -28196.125, -0.004008653, -0.03646335, -572128.6, -120277.88, 0.0, 9.9987545, 9.999626 
1.3350537e+3, 2.6389205e+2, -586315.25, -482273.03, -20666.201, -0.00716438, -0.041432943, -478318.38, -124464.28, 0.0, 9.998422, 9.999803 
1.3350646e+3, 2.7389178e+2, -526453.5, -396170.72, -15747.937, 0.0074953833, -0.054619297, -394294.22, -138437.5, 0.0, 9.998132, 9.999861 
1.3350755e+3, 2.838919e+2, -451546.3, -286645.4, -12602.152, 0.008795224, -0.0399924, -285687.88, -127832.24, 0.0, 9.997875, 10.000062 
1.335086e+3, 2.9389226e+2, -381509.06, -199979.67, -10773.718, -0.013736564, -0.009828753, -199342.5, -139491.48, 0.0, 9.997674, 10.00008 
1.3350965e+3, 3.0389127e+2, -383134.5, -186183.16, -9202.825, -0.036242474, -0.11087031, -185754.08, -185754.08, 0.0, 9.997375, 9.999985 
1.3351075e+3, 3.138922e+2, -320107.84, 49510.418, -9406.974, 0.0034048301, -0.025025556, 49749.676, 49749.676, 0.0, 9.996923, 10.0018215 
1.3449125e+3, 1.23895004e+2, -1323927.3, -1695066.9, 45871.414, 0.09106625, -0.11455769, -1318341.8, 407477.3, 0.0044024647, 10.003435, 9.998478 
1.3449195e+3, 1.3389324e+2, -1273359.6, -1673800.3, -42708.465, -0.110713445, -0.09286122, -1268855.4, 358981.72, 0.0026278205, 10.00332, 9.9980135 
1.3449313e+3, 1.4389142e+2, -1175941.9, -1498197.6, -4796.4463, 0.12129967, -0.10593897, -1175870.5, 353984.63, 0.0011408281, 10.002981, 9.998703 
1.3449405e+3, 1.5389012e+2, -1168579.8, -1432913.9, -3054.3604, 0.03170163, -0.115827374, -1168544.4, 263322.56, 0.00028088767, 10.00231, 9.998801 
1.3449499e+3, 1.6388895e+2, -1153678.8, -1396756.1, -24419.129, -0.02174224, -0.10371519, -1151250.0, 182628.88, 0.000018979208, 10.001831, 9.998609 
1.3449599e+3, 1.7388798e+2, -1081334.8, -1310244.8, -28228.184, 0.0036739316, -0.061121475, -1077905.3, 157984.89, 0.0000000014653116, 10.001652, 9.998616 
1.3449699e+3, 1.8388684e+2, -1016653.0, -1203800.5, -15906.85, 0.020741995, -0.04658621, -1015310.6, 122592.16, 0.0, 10.001317, 9.998836 
1.3449799e+3, 1.938854e+2, -998983.7, -1137789.1, -18881.08, 0.018622864, -0.078725286, -996461.2, 43455.91, 0.0, 10.000736, 9.998896 
1.34499e+3, 2.0388435e+2, -948478.9, -1042288.75, -20185.617, 0.011894903, -0.080020405, -944319.8, -2392.0122, 0.0, 10.000322, 9.999079 
1.345e+3, 2.138839e+2, -869488.75, -947150.56, -21009.33, 0.00042334147, -0.03890554, -864169.56, -20236.91, 0.0, 10.000164, 9.999135 
1.3450103e+3, 2.2388324e+2, -817864.2, -865174.94, -10859.392, 0.001730058, -0.019107522, -815490.7, -69550.95, 0.0, 9.999819, 9.999191 
1.345021e+3, 2.3388232e+2, -809678.44, -805803.9, -11601.127, 0.021346137, -0.034695446, -795979.4, -148029.66, 0.0, 9.999182, 9.999233 
1.3450316e+3, 2.4388163e+2, -752928.75, -690378.9, -16313.961, 0.022111746, -0.04120277, -686379.6, -136422.6, 0.0, 9.998738, 9.999566 
1.3450417e+3, 2.5388128e+2, -671102.6, -591721.6, -17231.467, -0.006186125, -0.04035364, -588142.5, -136182.47, 0.0, 9.99859, 9.999641 
1.345052e+3, 2.6388097e+2, -589138.1, -474184.22, -13925.293, -0.015933529, -0.043094154, -472521.38, -118558.76, 0.0, 9.9983635, 9.999886 
1.3450626e+3, 2.738809e+2, -537561.06, -390940.6, -12520.719, 0.0039316923, -0.04813012, -389879.06, -133915.58, 0.0, 9.998012, 9.999952 
1.3450731e+3, 2.83881e+2, -479960.7, -294423.06, -10705.131, 0.007948206, -0.035159346, -293807.44, -135845.6, 0.0, 9.997658, 10.000113 
1.3450834e+3, 2.9388136e+2, -433811.16, -220199.25, -10991.288, -0.015720768, -0.019391162, -219635.19, -159676.97, 0.0, 9.997296, 10.000123 
1.3450937e+3, 3.0388045e+2, -440335.97, -211408.83, -15069.442, -0.04114916, -0.11037724, -210421.13, -210421.13, 0.0, 9.996974, 10.000004 
1.3451043e+3, 3.1388146e+2, -342890.97, 50374.527, -19428.068, -0.003413067, -0.018317824, 51331.98, 51331.98, 0.0, 9.996717, 10.001925 
1.354916e+3, 1.2388528e+2, -1327320.1, -1701927.0, 33652.137, 0.09678193, -0.07937236, -1324321.1, 401594.38, 0.0045679878, 10.003434, 9.998431 
1.3549228e+3, 1.3388303e+2, -1279166.6, -1687200.1, -47381.62, -0.12013394, -0.09768912, -1273736.9, 354201.4, 0.0027314809, 10.0033245, 9.99792 
1.3549343e+3, 1.4388119e+2, -1178372.1, -1504661.4, -28707.336, 0.12627807, -0.10672252, -1175865.6, 354090.84, 0.0011927416, 10.002986, 9.998657 
1.354943e+3, 1.5388024e+2, -1171027.9, -1438698.0, -29045.584, 0.043098178, -0.078276746, -1167912.3, 264052.6, 0.00029931884, 10.002312, 9.998762 
1.3549519e+3, 1.6387899e+2, -1157555.3, -1405419.1, -33604.492, -0.011967504, -0.06634322, -1153080.1, 180896.86, 0.00002192539, 10.001833, 9.998549 
1.3549614e+3, 1.7387739e+2, -1084849.5, -1318757.5, -35123.684, 0.0018572651, -0.08297054, -1079689.1, 156304.97, 0.0000000068048798, 10.001656, 9.998556 
1.3549711e+3, 1.8387604e+2, -1024597.6, -1221640.6, -36516.543, 0.014751037, -0.07997624, -1018048.0, 119960.766, 0.0, 10.001322, 9.998712 
1.3549806e+3, 1.9387509e+2, -1007618.8, -1156834.5, -41091.805, 0.018877117, -0.05070425, -997051.2, 42967.83, 0.0, 10.00074, 9.998764 
1.3549903e+3, 2.0387411e+2, -950639.75, -1047692.1, -28015.54, 0.016791407, -0.036110267, -943133.25, -1104.1099, 0.0, 10.000325, 9.999042 
1.3550003e+3, 2.1387309e+2, -870655.5, -950430.75, -26891.938, 0.0072679436, -0.049362406, -862437.0, -18398.22, 0.0, 10.000167, 9.999112 
1.3550101e+3, 2.238722e+2, -820725.94, -872013.8, -32824.81, 0.0070829596, -0.049643602, -804715.56, -58667.73, 0.0, 9.999822, 9.999145 
1.3550201e+3, 2.3387155e+2, -812848.2, -813339.56, -35422.77, 0.020902399, -0.031599898, -777670.25, -129614.86, 0.0, 9.999185, 9.999181 
1.3550301e+3, 2.4387097e+2, -753025.75, -691407.7, -23314.953, 0.019737296, -0.023029633, -683580.2, -133518.45, 0.0, 9.998741, 9.999558 
1.3550402e+3, 2.538705e+2, -671019.6, -591929.4, -21948.195, -0.00487947, -0.036556143, -586246.8, -134180.75, 0.0, 9.998591, 9.99964 
1.3550504e+3, 2.6387015e+2, -586302.3, -468378.03, -25426.36, -0.019826818, -0.04603265, -463129.34, -109060.23, 0.0, 9.998363, 9.999927 
1.3550605e+3, 2.738701e+2, -534224.25, -384187.1, -24681.738, -0.018634884, -0.04610758, -380231.16, -124162.14, 0.0, 9.998012, 10.0 
1.3550706e+3, 2.8387037e+2, -478865.3, -292019.16, -23044.07, -0.010248784, -0.02842024, -289219.06, -131152.36, 0.0, 9.997656, 10.000131 
1.3550809e+3, 2.9387075e+2, -433885.84, -219255.81, -23242.74, 0.00535502, -0.006519271, -216767.66, -156705.03, 0.0, 9.997291, 10.000133 
1.3550907e+3, 3.038699e+2, -444012.63, -217879.06, -23792.504, -0.02500264, -0.09000098, -215402.88, -215402.88, 0.0, 9.996967, 9.999964 
1.3551004e+3, 3.1387055e+2, -340985.5, 54630.81, -26438.475, -0.056824464, -0.033048596, 56389.836, 56389.836, 0.0, 9.996715, 10.001957 
1.3649195e+3, 1.2387576e+2, -1297332.1, -1688163.8, 50839.01, 0.105661266, -0.0657275, -1290827.4, 435182.25, 0.0047382293, 10.003646, 9.998423 
1.3649261e+3, 1.3387346e+2, -1289425.3, -1695993.3, -18771.332, -0.119770065, -0.08615147, -1288560.4, 339472.6, 0.0028363883, 10.003271, 9.997885 
1.3649374e+3, 1.4387164e+2, -1200119.8, -1524351.4, -9634.465, 0.13741831, -0.08713752, -1199833.8, 330217.25, 0.0012438492, 10.002878, 9.998573 
1.3649455e+3, 1.5387048e+2, -1153342.3, -1440094.5, -14705.46, 0.04457613, -0.06916349, -1152590.1, 279470.94, 0.0003170788, 10.002477, 9.9986725 
1.3649538e+3, 1.6386911e+2, -1126188.9, -1396326.6, -13057.368, -0.014654008, -0.06475804, -1125559.3, 208515.1, 0.00002472805, 10.002075, 9.998495 
1.3649632e+3, 1.7386743e+2, -1087123.8, -1325350.1, -13120.227, 0.004888257, -0.08268246, -1086403.4, 149688.58, 0.000000016360648, 10.001664, 9.998507 
1.3649724e+3, 1.8386601e+2, -1037872.9, -1242795.1, -19711.68, 0.01900802, -0.07765889, -1035994.0, 102113.28, 0.0, 10.001294, 9.998579 
1.3649814e+3, 1.9386499e+2, -981264.94, -1160164.3, -26036.994, 0.016826943, -0.042503845, -977552.56, 62566.074, 0.0, 10.000991, 9.99862 
1.3649908e+3, 2.038639e+2, -913028.25, -1032608.7, -10065.615, 0.014360556, -0.028636707, -912186.94, 29942.781, 0.0, 10.000597, 9.999013 
1.3650003e+3, 2.1386276e+2, -886702.5, -959546.94, -8099.8013, 0.013695517, -0.052129783, -885812.7, -41672.727, 0.0, 10.000064, 9.999099 
1.36501e+3, 2.238618e+2, -852252.56, -896011.8, -18216.607, 0.013433358, -0.055624697, -845661.8, -99512.19, 0.0, 9.999644, 9.9990635 
1.3650194e+3, 2.3386115e+2, -787901.7, -811248.7, -24642.783, 0.013448717, -0.030057155, -772307.3, -124149.69, 0.0, 9.999401, 9.99909 
1.3650289e+3, 2.4386054e+2, -710880.2, -670303.4, -11407.433, 0.008530745, -0.018604197, -667316.25, -117152.02, 0.0, 9.999029, 9.999563 
1.3650388e+3, 2.5386003e+2, -688999.2, -598286.94, -8848.584, -0.0045445515, -0.03653298, -597431.9, -145263.22, 0.0, 9.998461, 9.999659 
1.3650484e+3, 2.6385972e+2, -635372.3, -489105.72, -10608.459, -0.016538972, -0.04610542, -488340.3, -134168.89, 0.0, 9.998015, 9.999949 
1.3650583e+3, 2.7385977e+2, -568977.7, -397951.66, -11947.227, -0.025599424, -0.04023989, -397121.1, -140950.36, 0.0, 9.997763, 10.000024 
1.3650681e+3, 2.8386006e+2, -512187.44, -305415.22, -15805.406, -0.018016426, -0.021527713, -304214.06, -146045.78, 0.0, 9.997417, 10.000152 
1.365078e+3, 2.938604e+2, -485563.22, -241791.23, -16725.541, 0.011132081, -0.0038210358, -240649.02, -180484.48, 0.0, 9.996928, 10.000152 
1.3650875e+3, 3.038597e+2, -499596.66, -242312.3, -7044.6665, -0.019695725, -0.07614288, -242119.55, -242119.55, 0.0, 9.996578, 9.999983 
1.3650969e+3, 3.1386024e+2, -373774.75, 48614.566, -3063.5188, -0.06951852, -0.034167908, 48636.785, 48636.785, 0.0, 9.996449, 10.002043 
1.3749233e+3, 1.2386647e+2, -1295258.1, -1684270.1, 28316.232, 0.1167911, -0.075457305, -1293207.8, 432893.25, 0.0049160505, 10.003648, 9.99845 
1.3749292e+3, 1.3386457e+2, -1287862.4, -1693082.4, -33343.95, -0.10945597, -0.057545546, -1285137.0, 342983.72, 0.0029444871, 10.003272, 9.997906 
1.3749404e+3, 1.4386283e+2, -1209036.4, -1543246.0, -25503.049, 0.15476696, -0.04610119, -1207101.5, 323036.56, 0.0012949365, 10.002878, 9.998445 
1.3749477e+3, 1.5386091e+2, -1162966.1, -1461117.8, -30095.428, 0.03574369, -0.0889962, -1159958.6, 272196.44, 0.0003342444, 10.0024805, 9.998528 
1.3749556e+3, 1.6385928e+2, -1129207.0, -1403923.3, -28908.535, -0.030358683, -0.09986884, -1126198.0, 207972.78, 0.000027345353, 10.002079, 9.998441 
1.3749649e+3, 1.7385815e+2, -1089342.0, -1331168.9, -28933.37, 0.012548091, -0.060303878, -1085928.5, 150254.83, 0.000000027808229, 10.001668, 9.998466 
1.3749738e+3, 1.838568e+2, -1047801.0, -1264486.5, -31988.814, 0.033341013, -0.03943755, -1043177.25, 95020.86, 0.0, 10.001298, 9.998429 
1.3749824e+3, 1.9385512e+2, -991929.1, -1183403.1, -37608.188, 0.012327098, -0.053976435, -984807.25, 55408.586, 0.0, 10.000995, 9.998459 
1.3749912e+3, 2.0385374e+2, -914158.56, -1035973.75, -29410.988, 0.004402566, -0.05757135, -907429.3, 34800.16, 0.0, 10.000601, 9.998989 
1.3750005e+3, 2.1385296e+2, -886684.56, -960513.2, -28228.236, 0.019515278, -0.04744592, -877128.44, -32892.227, 0.0, 10.000067, 9.999091 
1.3750097e+3, 2.2385205e+2, -860221.56, -913507.94, -28403.365, 0.02054275, -0.037296787, -847921.06, -101676.05, 0.0, 9.999647, 9.998943 
1.3750187e+3, 2.3385109e+2, -797010.4, -830911.56, -33381.098, -0.0011223613, -0.030025491, -776522.75, -128266.305, 0.0, 9.999403, 9.998955 
1.3750279e+3, 2.4385032e+2, -709895.9, -668954.25, -31083.523, -0.011692857, -0.027848165, -652206.25, -101941.48, 0.0, 9.99903, 9.999573 
1.3750373e+3, 2.538499e+2, -686672.0, -594078.9, -29695.33, -0.0056014694, -0.039975286, -585373.8, -133105.78, 0.0, 9.998462, 9.999688 
1.3750467e+3, 2.6384965e+2, -635519.7, -489678.75, -20541.186, -0.006668498, -0.04292859, -486840.8, -132570.81, 0.0, 9.998015, 9.999947 
1.375056e+3, 2.738498e+2, -569782.6, -399275.53, -20298.477, -0.017558692, -0.03073725, -396892.34, -140623.17, 0.0, 9.99776, 10.000017 
1.3750656e+3, 2.8385e+2, -511520.78, -303606.03, -32099.363, -0.01601142, -0.01459917, -298763.13, -140495.88, 0.0, 9.997415, 10.000167 
1.3750748e+3, 2.9385027e+2, -484406.63, -239563.58, -34074.73, 0.000875905, -0.010264448, -234909.86, -174645.28, 0.0, 9.996927, 10.000168 
1.3750839e+3, 3.0384976e+2, -494709.03, -232261.05, -12061.613, -0.02641183, -0.067992166, -231707.89, -231707.89, 0.0, 9.996577, 10.000053 
1.3750936e+3, 3.138504e+2, -365558.03, 66935.18, -5249.811, -0.044087186, -0.02111005, 66998.9, 66998.9, 0.0, 9.996443, 10.002172 
1.384927e+3, 1.2385762e+2, -1309388.9, -1693604.9, 37958.29, 0.129174, -0.07892183, -1305674.8, 420512.94, 0.0051032617, 10.003563, 9.9984255 
1.3849325e+3, 1.338557e+2, -1296254.6, -1699779.5, -18983.072, -0.10466413, -0.06082522, -1295363.5, 332844.25, 0.003057239, 10.003226, 9.997882 
1.3849434e+3, 1.4385399e+2, -1210632.8, -1553038.0, -11548.017, 0.16607702, -0.039561152, -1210243.8, 319980.97, 0.0013467348, 10.002907, 9.9983635 
1.3849503e+3, 1.538519e+2, -1147469.8, -1462923.4, -11494.244, 0.035929833, -0.09324651, -1147051.5, 285192.06, 0.0003509688, 10.002627, 9.998443 
1.3849579e+3, 1.6385016e+2, -1107982.4, -1406870.5, -13055.859, -0.034003634, -0.105782256, -1107413.3, 226847.19, 0.000029813278, 10.002283, 9.9983225 
1.3849667e+3, 1.7384903e+2, -1072734.0, -1337196.4, -19869.578, 0.017219678, -0.05285307, -1071249.5, 165023.7, 0.000000039188958, 10.001843, 9.99834 
1.3849753e+3, 1.838476e+2, -1031042.2, -1264010.9, -20405.164, 0.040092688, -0.026994217, -1029268.44, 109020.18, 0.0, 10.001447, 9.998361 
1.3849834e+3, 1.938458e+2, -978890.94, -1183807.9, -18475.473, 0.011274958, -0.04929439, -977238.5, 63069.13, 0.0, 10.001114, 9.998399 
1.3849919e+3, 2.0384432e+2, -903630.2, -1043475.2, -15486.779, -0.0013518386, -0.05512072, -901935.7, 40386.61, 0.0, 10.000728, 9.998876 
1.3850006e+3, 2.1384348e+2, -866741.5, -964195.94, -23831.527, 0.014137606, -0.0385735, -861225.94, -16896.266, 0.0, 10.000262, 9.998971 
1.3850094e+3, 2.2384252e+2, -846298.3, -910926.4, -22923.313, 0.016365541, -0.027488759, -838993.25, -92654.11, 0.0, 9.999763, 9.998904 
1.385018e+3, 2.3384143e+2, -826560.1, -847855.6, -19767.52, -0.0031558098, -0.028580198, -814755.06, -166403.67, 0.0, 9.999213, 9.998929 
1.3850266e+3, 2.4384059e+2, -750463.8, -691569.06, -15542.736, -0.014498282, -0.03097406, -687718.9, -137358.63, 0.0, 9.998767, 9.999543 
1.3850355e+3, 2.5384015e+2, -686030.75, -596831.3, -19114.654, -0.01402462, -0.040574905, -592907.75, -140544.2, 0.0, 9.998482, 9.999658 
1.3850446e+3, 2.6383993e+2, -626100.1, -484200.22, -12396.345, -0.014331344, -0.038304087, -483125.4, -128760.09, 0.0, 9.998078, 9.999952 
1.3850537e+3, 2.738402e+2, -608275.7, -416252.63, -11458.59, -0.014119092, -0.018436141, -415571.25, -159207.33, 0.0, 9.997492, 10.000029 
1.3850628e+3, 2.8384042e+2, -560404.0, -320913.53, -18753.158, -0.013018445, -0.004505714, -319453.97, -161091.94, 0.0, 9.997054, 10.00022 
1.3850716e+3, 2.9384062e+2, -491228.8, -236255.98, -17925.168, -0.015130999, -0.013738859, -235001.97, -174641.92, 0.0, 9.996854, 10.000225 
1.3850805e+3, 3.0384028e+2, -506449.13, -230984.14, 3149.884, -0.041879024, -0.056381892, -230948.13, -230948.13, 0.0, 9.996469, 10.0001135 
1.3850899e+3, 3.1384102e+2, -452905.72, 35945.168, 9399.885, -0.024570694, -0.008419975, 36125.848, 36125.848, 0.0, 9.995797, 10.002271 
1.3949306e+3, 1.23849265e+2, -1315466.5, -1705897.9, 15602.905, 0.14180005, -0.07596798, -1314843.9, 411425.16, 0.005300489, 10.003562, 9.9983425 
1.3949358e+3, 1.3384688e+2, -1301633.1, -1711510.4, -32197.71, -0.105876245, -0.09668696, -1299119.3, 329174.56, 0.0031755816, 10.003227, 9.997802 
1.3949464e+3, 1.4384519e+2, -1212473.4, -1557805.8, -23266.17, 0.1706526, -0.068585575, -1210913.0, 319397.8, 0.0013999565, 10.00291, 9.99833 
1.394953e+3, 1.5384348e+2, -1148606.1, -1466265.1, -22484.367, 0.045127753, -0.08166997, -1147022.6, 285303.4, 0.0003674642, 10.00263, 9.99842 
1.3949601e+3, 1.6384175e+2, -1120911.8, -1434885.9, -29490.838, -0.02545337, -0.08176579, -1118165.8, 216177.19, 0.00003219316, 10.002287, 9.998129 
1.3949685e+3, 1.7384009e+2, -1087115.3, -1368330.4, -36775.066, 0.0187307, -0.06037975, -1082385.8, 153975.64, 0.00000005013657, 10.001848, 9.998124 
1.3949767e+3, 1.838385e+2, -1029987.7, -1262977.9, -33680.09, 0.03888389, -0.04063729, -1025216.75, 113161.97, 0.0, 10.001451, 9.998366 
1.3949846e+3, 1.9383706e+2, -975894.75, -1178746.4, -31130.168, 0.013460587, -0.028691463, -971224.94, 69169.03, 0.0, 10.001117, 9.998432 
1.3949926e+3, 2.0383565e+2, -917601.4, -1073546.9, -32609.943, -0.0031255153, -0.021525303, -911056.94, 31351.197, 0.0, 10.000731, 9.998668 
1.3950007e+3, 2.1383435e+2, -883033.25, -999030.4, -41312.152, -0.0025817244, -0.02529944, -869824.2, -25403.898, 0.0, 10.000265, 9.998731 
1.3950089e+3, 2.2383314e+2, -843010.25, -905131.06, -43113.78, 0.0006168032, -0.025896678, -820933.6, -74501.63, 0.0, 9.999765, 9.998943 
1.3950172e+3, 2.3383217e+2, -820641.5, -836505.8, -40075.5, 0.0070043616, -0.025695385, -787720.7, -139278.19, 0.0, 9.999216, 9.999006 
1.3950256e+3, 2.4383134e+2, -755342.06, -702438.94, -26870.607, -0.00020942524, -0.028003799, -691184.9, -140733.92, 0.0, 9.998769, 9.999469 
1.3950339e+3, 2.538308e+2, -692524.94, -610746.25, -29089.947, -0.029767947, -0.03844949, -601454.25, -148998.63, 0.0, 9.998482, 9.999563 
1.3950424e+3, 2.6383057e+2, -625621.4, -483462.5, -32430.709, -0.039562244, -0.03232952, -476413.6, -121955.76, 0.0, 9.998078, 9.999959 
1.3950512e+3, 2.7383092e+2, -606725.4, -413168.47, -32721.563, -0.016212782, -0.0028543726, -407786.44, -151331.02, 0.0, 9.99749, 10.000051 
1.3950598e+3, 2.8383118e+2, -554928.7, -309358.8, -26919.805, -0.0101881, 0.009318012, -306442.47, -147989.22, 0.0, 9.997052, 10.000301 
1.3950682e+3, 2.9383132e+2, -485873.44, -224300.77, -24455.414, -0.036734417, -0.014392565, -222033.98, -161582.33, 0.0, 9.996849, 10.00031 
1.3950767e+3, 3.0383125e+2, -503506.1, -224274.81, -19230.104, -0.06586969, -0.041383862, -222956.69, -222956.69, 0.0, 9.996464, 10.000162 
1.3950858e+3, 3.13832e+2, -448296.0, 45105.996, -13532.565, -0.012941399, 0.0064613293, 45476.88, 45476.88, 0.0, 9.995797, 10.002335 
1.4049344e+3, 1.2384119e+2, -1301955.5, -1709535.1, 16582.113, 0.14948353, -0.07091698, -1301282.0, 425066.4, 0.0055082403, 10.003701, 9.998249 
1.4049391e+3, 1.3383861e+2, -1279915.5, -1708584.4, -21695.662, -0.105490126, -0.10294971, -1278820.1, 349555.03, 0.0033006065, 10.003411, 9.997732 
1.4049494e+3, 1.4383693e+2, -1191748.6, -1556849.5, -14401.779, 0.1765058, -0.06626941, -1191181.5, 339210.78, 0.0014556336, 10.003094, 9.998247 
1.4049558e+3, 1.5383519e+2, -1134802.8, -1468719.8, -17775.959, 0.049430184, -0.074851684, -1133859.1, 298548.84, 0.00038406154, 10.002766, 9.998337 
1.4049627e+3, 1.638334e+2, -1107244.1, -1434485.5, -27136.438, -0.022920962, -0.07437125, -1105009.1, 229416.47, 0.00003454216, 10.002408, 9.998073 
1.4049704e+3, 1.7383166e+2, -1069413.0, -1365431.4, -23233.205, 0.020452864, -0.057516962, -1067600.6, 168844.17, 0.00000006103049, 10.001995, 9.998073 
1.4049783e+3, 1.8383001e+2, -1017120.0, -1265651.4, -14613.29, 0.039435532, -0.037086397, -1016263.75, 122198.984, 0.0, 10.001578, 9.998286 
1.4049858e+3, 1.9382855e+2, -974954.2, -1187809.5, -20938.395, 0.011778581, -0.016523957, -972914.06, 67564.02, 0.0, 10.001165, 9.998346 
1.4049932e+3, 2.038271e+2, -921581.25, -1081737.8, -25863.736, -0.006261543, -0.0070977337, -917508.06, 24984.79, 0.0, 10.000732, 9.9986105 
1.405001e+3, 2.1382567e+2, -886611.2, -1006734.5, -21454.225, -0.0061057243, -0.018506031, -882894.44, -38388.168, 0.0, 10.000268, 9.998676 
1.4050087e+3, 2.2382437e+2, -839083.06, -906399.3, -19270.482, -0.0030112956, -0.023578981, -833956.9, -87438.24, 0.0, 9.999807, 9.998914 
1.4050165e+3, 2.3382336e+2, -802739.94, -830787.6, -24485.693, 0.0037948587, -0.023001313, -788546.44, -140017.42, 0.0, 9.999352, 9.998979 
1.4050244e+3, 2.4382252e+2, -745222.1, -702275.2, -12228.58, -0.0019959253, -0.025199924, -699037.4, -148499.81, 0.0, 9.99886, 9.999425 
1.4050323e+3, 2.538219e+2, -721024.7, -629556.4, -10931.147, -0.028456835, -0.035732415, -628268.1, -175725.34, 0.0, 9.998309, 9.9995165 
1.4050403e+3, 2.6382166e+2, -669652.7, -512522.84, -17831.771, -0.040044956, -0.028654065, -510524.63, -155978.97, 0.0, 9.997811, 9.9998865 
1.4050485e+3, 2.7382192e+2, -625412.56, -430199.4, -26063.502, -0.026417268, 0.0022918333, -426779.5, -170235.27, 0.0, 9.997398, 9.999977 
1.4050567e+3, 2.838222e+2, -567222.9, -306835.03, -20534.56, -0.02286282, 0.014670824, -305225.6, -146683.16, 0.0, 9.996933, 10.000375 
1.4050648e+3, 2.9382244e+2, -547258.25, -243236.27, -17549.809, -0.04047116, -0.0068504782, -242226.55, -181686.72, 0.0, 9.996384, 10.000403 
1.4050728e+3, 3.0382267e+2, -581043.9, -249394.11, -15520.939, -0.065977655, -0.013543034, -248669.33, -248669.33, 0.0, 9.995881, 10.00027 
1.4050815e+3, 3.138234e+2, -487412.0, 39030.957, -4746.721, -0.015436502, 0.020103764, 39073.754, 39073.754, 0.0, 9.995475, 10.002447 
1.4149381e+3, 1.2383342e+2, -1308841.4, -1724469.1, -4883.9463, 0.15116116, -0.06414049, -1308784.0, 417641.44, 0.0057284734, 10.003703, 9.998146 
1.4149426e+3, 1.3383096e+2, -1283819.9, -1717535.8, -33214.246, -0.10345347, -0.07890712, -1281291.0, 347160.4, 0.00343434, 10.003413, 9.99767 
1.4149526e+3, 1.4382929e+2, -1201160.5, -1577283.5, -27861.629, 0.18363142, -0.032013066, -1199107.9, 331360.78, 0.001515353, 10.003096, 9.998107 
1.4149585e+3, 1.5382707e+2, -1144749.6, -1490383.5, -30606.105, 0.048421446, -0.07283981, -1142060.4, 290428.72, 0.00040130108, 10.0027685, 9.998188 
1.414965e+3, 1.6382511e+2, -1101151.0, -1423108.9, -42810.76, -0.026968267, -0.083891265, -1095555.6, 238952.39, 0.000036934056, 10.002412, 9.99815 
1.4149725e+3, 1.738237e+2, -1061121.0, -1349635.1, -39193.477, 0.022209879, -0.044218305, -1055891.5, 180631.84, 0.00000007226826, 10.002, 9.998179 
1.4149798e+3, 1.8382211e+2, -1028450.3, -1290509.3, -30549.012, 0.041638132, -0.016213072, -1024936.25, 113604.2, 0.0, 10.001582, 9.998114 
1.4149868e+3, 1.9382028e+2, -989155.9, -1218424.9, -36542.73, 0.0060326722, -0.012705312, -983472.3, 57087.598, 0.0, 10.001169, 9.998135 
1.4149939e+3, 2.0381866e+2, -914929.44, -1068912.8, -43183.68, -0.011130777, -0.011789521, -903645.75, 38930.684, 0.0, 10.000735, 9.998698 
1.4150013e+3, 2.1381742e+2, -877148.5, -988111.1, -38827.05, 0.0032963771, -0.01844358, -864911.9, -20324.195, 0.0, 10.000271, 9.998803 
1.4150086e+3, 2.2381617e+2, -845874.06, -921518.75, -36167.17, 0.0053044627, -0.020890275, -831364.8, -84765.484, 0.0, 9.99981, 9.99881 
1.4150156e+3, 2.3381503e+2, -811861.56, -850700.1, -41142.63, -0.012830438, -0.020392863, -785785.56, -137174.53, 0.0, 9.999355, 9.998842 
1.415023e+3, 2.4381407e+2, -746130.2, -705070.25, -32039.336, -0.020154582, -0.022314914, -687547.7, -136927.38, 0.0, 9.998862, 9.999405 
1.4150308e+3, 2.538135e+2, -720940.4, -629982.94, -31008.582, -0.010806924, -0.032148223, -620417.6, -167792.39, 0.0, 9.99831, 9.999514 
1.4150383e+3, 2.6381314e+2, -680569.9, -535488.5, -33144.2, -0.016512256, -0.026968513, -528275.25, -173646.1, 0.0, 9.99781, 9.99973 
1.4150457e+3, 2.7381316e+2, -637912.4, -456277.2, -40652.78, -0.04464136, -0.002890749, -447593.6, -190962.77, 0.0, 9.997397, 9.9998 
1.4150533e+3, 2.838134e+2, -562792.25, -297654.56, -39728.77, -0.051056232, 0.011671786, -291829.5, -133199.36, 0.0, 9.996931, 10.000441 
1.4150612e+3, 2.9381394e+2, -540714.2, -229521.98, -37432.875, -0.028315816, 0.0093130525, -225082.56, -164457.5, 0.0, 9.996381, 10.0005 
1.4150688e+3, 3.038145e+2, -570366.6, -226940.77, -30738.0, -0.044499297, 0.027462231, -224211.28, -224211.28, 0.0, 9.995878, 10.000426 
1.4150769e+3, 3.1381515e+2, -477087.72, 60483.875, -17509.38, -0.03178677, 0.034155816, 61053.574, 61053.574, 0.0, 9.995474, 10.002596 
1.4249419e+3, 1.2382596e+2, -1338265.9, -1742016.8, -8739.825, 0.16451809, -0.04088749, -1338076.8, 388423.44, 0.0059650266, 10.003517, 9.998114 
1.4249459e+3, 1.3382342e+2, -1279928.1, -1712624.5, -21155.912, -0.1087445, -0.06505028, -1278896.1, 349630.44, 0.0035795863, 10.003429, 9.997695 
1.4249557e+3, 1.438218e+2, -1185940.3, -1573056.3, -15139.792, 0.17813882, -0.011961626, -1185349.1, 345194.0, 0.0015810293, 10.003216, 9.998077 
1.4249614e+3, 1.5381956e+2, -1139781.1, -1491445.0, -9741.163, 0.056292668, -0.052007996, -1139511.5, 293052.47, 0.00041995206, 10.00282, 9.998155 
1.4249675e+3, 1.6381755e+2, -1100115.6, -1430665.1, -22190.719, -0.016361225, -0.06487663, -1098632.6, 235951.06, 0.000039492217, 10.002456, 9.9980755 
1.4249745e+3, 1.73816e+2, -1044212.56, -1350430.0, -33034.31, 0.018919464, -0.030021463, -1040689.44, 195910.8, 0.00000008454083, 10.002156, 9.998098 
1.4249815e+3, 1.8381433e+2, -1003935.8, -1278107.8, -31520.95, 0.034507662, -0.0067782816, -1000358.56, 138259.4, 0.0, 10.00175, 9.998117 
1.424988e+3, 1.9381247e+2, -987094.1, -1215328.8, -21610.105, 0.0109822415, -0.008329009, -985066.0, 55571.207, 0.0, 10.001176, 9.998152 
1.4249948e+3, 2.0381083e+2, -930245.44, -1086047.0, -22419.098, -0.0019543574, -0.0073827663, -927083.6, 15570.302, 0.0, 10.000673, 9.99861 
1.4250016e+3, 2.1380953e+2, -881677.0, -1001480.0, -35026.418, 0.0042010867, -0.0063841916, -872188.0, -27522.037, 0.0, 10.000289, 9.998702 
1.4250083e+3, 2.2380826e+2, -838302.8, -918585.5, -40554.453, 0.00031670273, -0.006961305, -821382.9, -74704.73, 0.0, 9.9998665, 9.998802 
1.425015e+3, 2.3380706e+2, -807783.7, -848157.7, -35799.367, -0.019918462, -0.013453909, -786871.94, -138181.95, 0.0, 9.999381, 9.998846 
1.4250219e+3, 2.4380608e+2, -749889.4, -707906.3, -24692.621, -0.024515385, -0.017917324, -696488.44, -145789.2, 0.0, 9.998841, 9.999395 
1.425029e+3, 2.5380555e+2, -735160.4, -637784.4, -25068.787, -0.005100692, -0.022861505, -631709.56, -179005.78, 0.0, 9.998218, 9.999504 
1.4250362e+3, 2.6380515e+2, -710122.94, -558159.5, -20481.568, -0.010305278, -0.017090697, -555447.4, -200739.33, 0.0, 9.997644, 9.999654 
1.4250429e+3, 2.7380502e+2, -679037.7, -485565.94, -20894.953, -0.052681077, -0.001015219, -483335.0, -226623.44, 0.0, 9.997156, 9.999714 
1.42505e+3, 2.838052e+2, -597359.6, -307304.53, -18547.842, -0.061531655, 0.011726632, -306123.28, -147411.77, 0.0, 9.996665, 10.000502 
1.4250576e+3, 2.9380593e+2, -565497.9, -232312.16, -18105.09, -0.023222046, 0.021911286, -231331.22, -170626.48, 0.0, 9.996173, 10.000581 
1.4250647e+3, 3.038068e+2, -597912.8, -233121.1, -13278.061, -0.038085647, 0.063287206, -232638.42, -232638.42, 0.0, 9.99566, 10.000487 
1.425072e+3, 3.1380728e+2, -524434.44, 40442.473, -6234.425, -0.043689076, 0.047535937, 40511.273, 40511.273, 0.0, 9.995138, 10.002618 
1.4349456e+3, 1.2381883e+2, -1336651.1, -1738375.3, -22620.441, 0.18927589, -0.002296093, -1335381.4, 391191.1, 0.0062221796, 10.003515, 9.99814 
1.4349492e+3, 1.3381605e+2, -1272386.3, -1697543.5, -25042.33, -0.12197768, -0.061281614, -1270916.4, 357684.13, 0.0037388662, 10.003431, 9.997799 
1.4349587e+3, 1.4381455e+2, -1179695.9, -1561264.5, -29874.465, 0.15917967, -0.0060903616, -1177371.1, 353244.25, 0.0016542807, 10.00322, 9.9981575 
1.4349644e+3, 1.5381274e+2, -1133477.0, -1479461.3, -25253.129, 0.073065765, -0.012224811, -1131643.5, 300988.72, 0.00044086375, 10.002823, 9.998237 
1.4349702e+3, 1.6381073e+2, -1115992.4, -1464787.6, -34511.65, 0.009141489, -0.017085873, -1112610.5, 222041.61, 0.000042391872, 10.00246, 9.99784 
1.4349766e+3, 1.7380857e+2, -1063174.6, -1391046.4, -44591.75, 0.010349789, -0.014946556, -1057218.3, 179456.9, 0.00000010052836, 10.00216, 9.997818 
1.434983e+3, 1.8380666e+2, -990927.56, -1252340.3, -52234.38, 0.01755081, -0.008985387, -980876.75, 157818.38, 0.0, 10.001754, 9.998294 
1.4349894e+3, 1.938051e+2, -969741.9, -1180606.0, -43397.992, 0.026402716, -0.0035072546, -961159.44, 79550.55, 0.0, 10.00118, 9.998389 
1.4349955e+3, 2.0380355e+2, -948234.6, -1124602.0, -37729.625, 0.021146236, 0.006000295, -940502.25, 2223.1133, 0.0, 10.000677, 9.998343 
1.4350018e+3, 2.1380205e+2, -904520.9, -1049998.6, -49213.426, -0.0035790168, 0.017802147, -889436.56, -44695.453, 0.0, 10.000292, 9.998368 
1.435008e+3, 2.2380063e+2, -831982.56, -906444.25, -58003.516, -0.01834843, 0.018331133, -800289.2, -53533.996, 0.0, 9.999868, 9.998885 
1.4350145e+3, 2.3379943e+2, -797702.5, -828085.1, -53571.87, -0.017756728, -0.0022973123, -757209.7, -108443.59, 0.0, 9.999384, 9.998983 
1.4350207e+3, 2.4379846e+2, -749704.5, -708370.75, -46979.676, -0.015316957, -0.0122615155, -677713.06, -126938.43, 0.0, 9.998843, 9.9993925 
1.4350273e+3, 2.5379798e+2, -736416.2, -641200.06, -47908.76, -0.011513012, -0.007955511, -621267.2, -168488.55, 0.0, 9.9982195, 9.999481 
1.4350337e+3, 2.637976e+2, -709808.8, -558132.0, -38584.773, -0.021678435, 0.001046113, -548880.75, -194098.02, 0.0, 9.997645, 9.999654 
1.4350401e+3, 2.7379742e+2, -678796.0, -485309.72, -38210.918, -0.051230207, 0.008085258, -478036.94, -221250.11, 0.0, 9.997155, 9.999718 
1.4350468e+3, 2.8379753e+2, -593713.9, -299826.75, -36181.0, -0.055262506, 0.015037272, -295437.97, -136650.9, 0.0, 9.996663, 10.000555 
1.4350536e+3, 2.9379842e+2, -561443.56, -224051.39, -35924.656, -0.025458854, 0.030924205, -220268.64, -159489.19, 0.0, 9.996172, 10.000639 
1.4350604e+3, 3.0379954e+2, -600280.6, -238077.77, -32258.121, -0.04666391, 0.09393108, -235227.27, -235227.27, 0.0, 9.995659, 10.000455 
1.435067e+3, 3.137998e+2, -531849.5, 25194.865, -23291.75, -0.052524824, 0.06222291, 26167.068, 26167.068, 0.0, 9.995136, 10.002516 
1.4449492e+3, 1.2381178e+2, -1313763.1, -1721217.0, -13446.469, 0.18983023, 0.018278254, -1313319.9, 413323.5, 0.006502495, 10.00365, 9.998192 
1.4449528e+3, 1.3380896e+2, -1248413.0, -1671194.8, -4282.989, -0.116861984, -0.05966793, -1248369.6, 380301.5, 0.0039134515, 10.003534, 9.997929 
1.444962e+3, 1.4380753e+2, -1172572.8, -1559899.9, -22838.348, 0.16643411, -0.0018176518, -1171230.8, 359454.06, 0.0017359345, 10.00328, 9.9981365 
1.4449672e+3, 1.5380587e+2, -1133586.8, -1483688.1, -28613.21, 0.07493038, 0.009732926, -1131263.6, 301437.44, 0.000464682, 10.002842, 9.998197 
1.4449726e+3, 1.6380386e+2, -1116029.5, -1469739.9, -32225.521, 0.009519647, 0.009653353, -1113117.5, 221603.77, 0.000045794342, 10.002482, 9.997794 
1.4449789e+3, 1.738015e+2, -1054972.6, -1392129.5, -24734.13, 0.016177932, -0.0041114893, -1053167.8, 183578.34, 0.00000012546444, 10.00224, 9.997771 
1.4449848e+3, 1.8379954e+2, -966397.75, -1234216.6, -35708.895, 0.024719803, -0.00192031, -961718.4, 177048.05, 0.0, 10.001897, 9.998348 
1.4449906e+3, 1.9379821e+2, -932378.94, -1154985.6, -41021.33, 0.027652605, 0.019420259, -925060.25, 115718.625, 0.0, 10.001406, 9.998456 
1.4449963e+3, 2.0379671e+2, -923749.7, -1122092.3, -34802.984, 0.020700606, 0.03349087, -917820.1, 24973.672, 0.0, 10.000886, 9.99826 
1.4450023e+3, 2.1379496e+2, -907272.56, -1063186.9, -29493.508, 0.0013812413, 0.03233059, -901879.94, -57068.008, 0.0, 10.000326, 9.9982605 
1.4450079e+3, 2.2379343e+2, -847341.94, -912158.6, -33381.69, -0.010537403, 0.02604098, -833224.56, -86397.4, 0.0, 9.999757, 9.9988985 
1.4450137e+3, 2.3379226e+2, -825902.1, -838288.4, -37592.063, -0.011297839, 0.007635478, -793996.44, -145159.17, 0.0, 9.999177, 9.999013 
1.4450195e+3, 2.4379134e+2, -779492.7, -723785.8, -36180.684, -0.014379592, -0.00077115913, -705979.06, -155133.6, 0.0, 9.998645, 9.999382 
1.4450254e+3, 2.537909e+2, -742030.7, -645795.75, -37212.34, -0.022831319, 0.0050049857, -633085.2, -180235.56, 0.0, 9.998189, 9.999463 
1.4450313e+3, 2.6379052e+2, -703003.75, -547716.8, -26719.39, -0.03431405, 0.013874395, -543247.94, -188394.4, 0.0, 9.997663, 9.999718 
1.4450373e+3, 2.7379033e+2, -693044.9, -483689.75, -21523.123, -0.047842156, 0.016682072, -481499.94, -224643.22, 0.0, 9.997022, 9.999792 
1.4450434e+3, 2.8379047e+2, -626173.2, -317312.84, -15735.006, -0.04803292, 0.018961627, -316513.28, -157656.38, 0.0, 9.996449, 10.000537 
1.4450498e+3, 2.937913e+2, -590137.56, -241263.22, -21876.598, -0.033796985, 0.033862066, -239896.77, -179046.66, 0.0, 9.99599, 10.0006075 
1.4450556e+3, 3.0379257e+2, -618906.75, -239824.25, -20210.914, -0.060751945, 0.11172551, -238749.75, -238749.75, 0.0, 9.995501, 10.000518 
1.445062e+3, 3.1379274e+2, -550963.25, 16371.041, -1055.6267, -0.05584163, 0.061962195, 16373.005, 16373.005, 0.0, 9.995004, 10.002518 
1.4549527e+3, 1.2380487e+2, -1308307.1, -1710993.0, -28672.865, 0.16422178, 0.020097498, -1306275.8, 420436.75, 0.006806065, 10.0036545, 9.998261 
1.4549565e+3, 1.3380216e+2, -1237515.3, -1649132.9, -9314.566, -0.093090124, -0.06073775, -1237304.6, 391433.47, 0.004103462, 10.003536, 9.99808 
1.4549658e+3, 1.438008e+2, -1181413.3, -1579008.5, -39276.695, 0.20040192, 0.000086091764, -1177570.4, 353180.9, 0.0018261567, 10.003282, 9.998005 
1.45497e+3, 1.5379897e+2, -1144970.3, -1508369.0, -45701.746, 0.06139918, 0.013699769, -1139310.9, 293459.28, 0.00049169204, 10.002845, 9.998027 
1.454975e+3, 1.6379695e+2, -1105708.4, -1449580.5, -42687.46, -0.016044889, 0.0154098775, -1100488.5, 234302.39, 0.0000497536, 10.002486, 9.9979315 
1.4549813e+3, 1.7379479e+2, -1041679.25, -1365843.6, -34120.867, 0.036249988, 0.0024671804, -1038126.7, 198686.44, 0.00000016567238, 10.002244, 9.997951 
1.4549871e+3, 1.8379298e+2, -970711.4, -1244575.3, -53522.043, 0.056019146, 0.014481411, -960623.06, 178208.69, 0.0, 10.001902, 9.998276 
1.454992e+3, 1.937918e+2, -939210.8, -1170513.5, -59608.945, 0.014570926, 0.0604308, -924752.75, 116091.24, 0.0, 10.00141, 9.998348 
1.454997e+3, 2.0379028e+2, -917024.1, -1109300.8, -55579.184, -0.003667545, 0.075067125, -902114.56, 40744.67, 0.0, 10.00089, 9.998346 
1.4550027e+3, 2.1378829e+2, -898752.75, -1046601.94, -50391.883, 0.01880798, 0.037163146, -883211.2, -38332.65, 0.0, 10.000329, 9.998374 
1.4550081e+3, 2.2378664e+2, -851019.1, -920803.06, -54795.14, 0.023474572, 0.016095426, -820949.9, -74055.61, 0.0, 9.99976, 9.998838 
1.455013e+3, 2.3378558e+2, -831154.75, -850185.5, -58884.465, -0.00078434224, 0.016404374, -781021.8, -132118.03, 0.0, 9.999179, 9.99893 
1.455018e+3, 2.4378468e+2, -780761.9, -727267.94, -53154.68, -0.021959694, 0.016705303, -694510.1, -143598.13, 0.0, 9.998647, 9.999358 
1.4550233e+3, 2.5378412e+2, -742952.25, -648232.44, -53393.316, -0.039121766, 0.016063558, -624221.44, -171304.3, 0.0, 9.99819, 9.999448 
1.4550287e+3, 2.6378378e+2, -694384.06, -530250.06, -49079.645, -0.048424486, 0.021307161, -516693.8, -161773.08, 0.0, 9.997663, 9.999838 
1.4550343e+3, 2.7378374e+2, -683101.06, -463544.5, -44726.492, -0.04308707, 0.024629587, -454782.78, -197861.05, 0.0, 9.997022, 9.999931 
1.45504e+3, 2.837839e+2, -632022.25, -329911.84, -32838.465, -0.040351357, 0.023525791, -326383.63, -167462.02, 0.0, 9.996449, 10.000452 
1.4550456e+3, 2.9378453e+2, -598502.9, -258693.25, -38185.555, -0.04847674, 0.031123055, -254455.06, -193537.84, 0.0, 9.995988, 10.000489 
1.455051e+3, 3.037859e+2, -608657.8, -218422.61, -38168.285, -0.08076357, 0.11706461, -214724.47, -214724.47, 0.0, 9.995499, 10.000668 
1.455057e+3, 3.1378603e+2, -544375.75, 30196.645, -17035.146, -0.054515846, 0.048580855, 30701.266, 30701.266, 0.0, 9.995002, 10.002615 
1.4649564e+3, 1.2379849e+2, -1257772.9, -1694311.6, -9544.291, 0.15515022, 0.02784497, -1257564.4, 469211.94, 0.007131705, 10.00404, 9.998191 
1.4649603e+3, 1.3379586e+2, -1236592.0, -1647931.4, 7052.7993, -0.085487925, -0.047046814, -1236471.1, 392329.94, 0.004308656, 10.003542, 9.998085 
1.4649689e+3, 1.4379448e+2, -1202977.0, -1596317.4, -27510.531, 0.20930056, 0.016897261, -1201062.3, 329752.25, 0.001924857, 10.003165, 9.997941 
1.4649728e+3, 1.5379256e+2, -1128145.8, -1508139.0, -26573.996, 0.056143682, 0.026746271, -1126296.4, 306538.5, 0.0005218786, 10.002996, 9.997954 
1.4649774e+3, 1.6379054e+2, -1070013.0, -1415943.6, -23449.709, -0.024311407, 0.02600072, -1068430.6, 266425.1, 0.0000541964, 10.002663, 9.998076 
1.4649835e+3, 1.7378855e+2, -1054795.5, -1352463.3, -16284.605, 0.04217342, 0.013115453, -1053907.3, 182968.0, 0.00000022299002, 10.002071, 9.998124 
1.464989e+3, 1.8378684e+2, -1018574.4, -1275619.9, -34799.234, 0.067054555, 0.02745604, -1013946.5, 124946.24, 0.0, 10.001609, 9.998202 
1.4649934e+3, 1.937856e+2, -954729.2, -1189889.8, -40993.094, 0.016535513, 0.078905806, -947788.2, 93118.414, 0.0, 10.001356, 9.9982395 
1.464998e+3, 2.037841e+2, -900236.3, -1088982.3, -44257.26, -0.0044748737, 0.0953685, -890374.1, 52548.02, 0.0, 10.000954, 9.998454 
1.465003e+3, 2.1378219e+2, -891030.8, -1027509.9, -38757.094, 0.024787122, 0.0538543, -880792.7, -35852.99, 0.0, 10.000318, 9.998509 
1.4650078e+3, 2.2378057e+2, -856058.5, -925185.0, -39073.0, 0.032273915, 0.029582608, -838455.5, -91500.98, 0.0, 9.999735, 9.99882 
1.4650121e+3, 2.3377945e+2, -824839.7, -851328.06, -40028.684, 0.004401989, 0.026996152, -795921.06, -146956.33, 0.0, 9.999242, 9.998892 
1.4650169e+3, 2.4377851e+2, -772856.4, -722505.44, -32016.266, -0.018975837, 0.024954278, -706952.0, -155978.56, 0.0, 9.998698, 9.999366 
1.4650215e+3, 2.5377798e+2, -759944.44, -654762.44, -30466.617, -0.035854824, 0.023274578, -646574.9, -193596.23, 0.0, 9.998067, 9.999461 
1.4650264e+3, 2.6377767e+2, -717692.44, -535952.94, -28650.287, -0.04709673, 0.030319044, -531543.4, -176561.56, 0.0, 9.997479, 9.9998865 
1.4650312e+3, 2.7377775e+2, -687973.94, -459990.72, -31275.346, -0.04721054, 0.03879511, -455778.13, -198796.67, 0.0, 9.9969635, 9.999984 
1.4650363e+3, 2.8377786e+2, -635651.3, -333081.5, -18437.047, -0.047266252, 0.035255045, -331962.2, -172980.98, 0.0, 9.996431, 10.000438 
1.4650415e+3, 2.937784e+2, -616470.1, -269627.4, -16898.256, -0.054345913, 0.032276507, -268806.06, -207827.97, 0.0, 9.995875, 10.000468 
1.4650464e+3, 3.0377987e+2, -627849.25, -217495.38, -14707.892, -0.08694879, 0.12671755, -216968.89, -216968.89, 0.0, 9.995325, 10.000756 
1.4650519e+3, 3.1378004e+2, -571037.44, 16785.672, 2184.8262, -0.06383457, 0.049864076, 16793.793, 16793.793, 0.0, 9.9948225, 10.002608 
1.4749604e+3, 1.2379271e+2, -1272861.0, -1726512.5, -36706.113, 0.16284071, 0.04019616, -1269910.3, 456923.9, 0.00747905, 10.004044, 9.997968 
1.4749636e+3, 1.3379009e+2, -1246630.5, -1669706.8, -12404.829, -0.09476236, -0.017968949, -1246267.1, 382592.47, 0.004529196, 10.003545, 9.997934 
1.4749719e+3, 1.4378867e+2, -1202741.0, -1596806.6, -36317.277, 0.19209054, 0.049311228, -1199422.0, 331451.84, 0.00203202, 10.003168, 9.997937 
1.4749758e+3, 1.5378664e+2, -1126327.1, -1505428.8, -33285.082, 0.059071183, 0.048619926, -1123426.9, 309468.25, 0.0005551443, 10.003, 9.9979725 
1.4749803e+3, 1.6378464e+2, -1059078.1, -1394611.5, -44535.914, -0.015141335, 0.04104814, -1053267.4, 281647.94, 0.000059017875, 10.002667, 9.998221 
1.4749855e+3, 1.737828e+2, -1042836.7, -1328949.0, -38965.137, 0.033644043, 0.027819674, -1037625.06, 199307.16, 0.0000002932695, 10.002075, 9.998284 
1.4749905e+3, 1.8378109e+2, -1023514.56, -1287106.3, -46004.918, 0.05731134, 0.037041962, -1015716.0, 123233.414, 0.0, 10.001613, 9.998122 
1.4749949e+3, 1.937796e+2, -962115.6, -1206495.6, -50436.16, 0.03335143, 0.07493268, -952115.56, 88851.125, 0.0, 10.00136, 9.998124 
1.4749992e+3, 2.037781e+2, -891027.75, -1071130.3, -66579.23, 0.01809553, 0.094482355, -869087.9, 73894.766, 0.0, 10.000958, 9.998575 
1.4750034e+3, 2.1377666e+2, -879826.75, -1005400.94, -62578.64, 0.019178392, 0.08231983, -853966.75, -8971.35, 0.0, 10.00032, 9.998661 
1.4750074e+3, 2.2377522e+2, -854252.0, -922436.8, -57884.7, 0.015699916, 0.066406585, -821166.06, -74157.85, 0.0, 9.999738, 9.998838 
1.4750114e+3, 2.3377384e+2, -824526.06, -851573.9, -57929.504, 0.0041918266, 0.039411765, -778562.8, -129542.34, 0.0, 9.999244, 9.99889 
1.4750156e+3, 2.4377279e+2, -770193.44, -717706.06, -54418.16, -0.005739883, 0.023900263, -683534.0, -132503.8, 0.0, 9.998699, 9.999398 
1.4750198e+3, 2.5377235e+2, -757096.8, -649456.3, -53399.54, -0.013731986, 0.026621507, -627460.2, -174425.53, 0.0, 9.998069, 9.999497 
1.4750239e+3, 2.6377213e+2, -719334.7, -539909.06, -47533.227, -0.030898858, 0.040998627, -528094.56, -173057.53, 0.0, 9.99748, 9.99986 
1.4750281e+3, 2.7377224e+2, -690516.56, -465626.78, -49443.156, -0.0600485, 0.059174508, -455236.5, -198200.11, 0.0, 9.9969635, 9.999946 
1.4750324e+3, 2.8377238e+2, -631978.06, -325687.78, -38168.637, -0.068732135, 0.054066416, -321003.03, -161966.73, 0.0, 9.99643, 10.00049 
1.4750373e+3, 2.937728e+2, -611752.3, -260065.0, -37000.766, -0.05227598, 0.037081704, -256214.33, -195180.9, 0.0, 9.995875, 10.000535 
1.4750418e+3, 3.0377442e+2, -625833.6, -213711.03, -33245.613, -0.08009943, 0.14032629, -211046.36, -211046.36, 0.0, 9.995325, 10.000784 
1.4750466e+3, 3.1377462e+2, -578825.4, 414.19183, -13653.963, -0.084066555, 0.06758, 735.86743, 735.86743, 0.0, 9.994822, 10.002498 
1.4849646e+3, 1.2378741e+2, -1259766.1, -1732715.1, -22629.158, 0.1639099, 0.056011964, -1258685.9, 468201.53, 0.007850265, 10.004191, 9.997852 
1.4849673e+3, 1.3378479e+2, -1206129.8, -1654979.4, 16701.29, -0.098246366, 0.0038590364, -1205509.1, 423403.56, 0.0047662053, 10.003848, 9.997889 
1.4849752e+3, 1.437833e+2, -1162722.3, -1585179.6, -1009.0274, 0.18346488, 0.06895802, -1162719.9, 368208.03, 0.0021480296, 10.003479, 9.997867 
1.484979e+3, 1.5378119e+2, -1119015.3, -1509867.8, -4212.6597, 0.06070557, 0.066819556, -1118969.8, 313980.56, 0.0005915989, 10.003087, 9.997899 
1.484983e+3, 1.6377917e+2, -1055836.8, -1382834.6, -30697.906, -0.008956402, 0.05938099, -1052979.9, 281990.78, 0.0000641918, 10.002647, 9.99831 
1.4849877e+3, 1.7377748e+2, -1026809.9, -1308768.6, -30754.553, 0.03495164, 0.047780883, -1023494.4, 213491.33, 0.00000037325287, 10.002133, 9.998394 
1.4849922e+3, 1.8377578e+2, -1017705.06, -1280930.5, -30059.24, 0.058682315, 0.052996617, -1014316.06, 124686.195, 0.0, 10.001639, 9.998151 
1.4849962e+3, 1.9377421e+2, -986525.06, -1216169.0, -24175.81, 0.04240615, 0.07861515, -984007.56, 57013.023, 0.0, 10.001185, 9.998141 
1.4850001e+3, 2.0377271e+2, -919518.2, -1082038.3, -43865.5, 0.027343132, 0.09551132, -908434.44, 34602.297, 0.0, 10.0007515, 9.998599 
1.4850037e+3, 2.137714e+2, -873746.56, -999599.2, -50656.14, 0.016715182, 0.09506729, -855890.6, -10842.227, 0.0, 10.000352, 9.998685 
1.4850073e+3, 2.2377008e+2, -827320.44, -897341.5, -49743.0, 0.007662129, 0.084163286, -801502.5, -54442.39, 0.0, 9.999872, 9.998945 
1.4850107e+3, 2.3376876e+2, -813204.2, -832905.0, -41486.09, 0.00029576352, 0.052184336, -780415.1, -131343.94, 0.0, 9.999267, 9.999006 
1.4850143e+3, 2.4376772e+2, -774581.6, -720268.5, -36321.496, -0.0064589055, 0.032366186, -702073.9, -150993.47, 0.0, 9.998673, 9.9993925 
1.485018e+3, 2.5376722e+2, -754647.75, -650906.44, -40598.57, -0.012887832, 0.031958807, -636907.44, -183821.83, 0.0, 9.998098, 9.999473 
1.4850214e+3, 2.6376703e+2, -712000.56, -531225.25, -34058.1, -0.030250365, 0.04769895, -525021.56, -169933.64, 0.0, 9.99751, 9.999905 
1.485025e+3, 2.7376726e+2, -696176.6, -462323.97, -29563.668, -0.06263783, 0.07323258, -458644.4, -201558.5, 0.0, 9.996901, 9.999998 
1.4850289e+3, 2.837674e+2, -645487.2, -330650.5, -14650.738, -0.075046055, 0.064952955, -329970.2, -170884.64, 0.0, 9.996333, 10.000503 
1.485033e+3, 2.9376766e+2, -617646.1, -262110.67, -18152.973, -0.062740624, 0.031392083, -261186.22, -200102.3, 0.0, 9.995832, 10.000541 
1.485037e+3, 3.0376938e+2, -625529.5, -205626.44, -16137.538, -0.091062374, 0.14046706, -205007.16, -205007.16, 0.0, 9.995295, 10.000853 
1.4850411e+3, 3.137698e+2, -596079.25, -14795.625, 9445.133, -0.09310065, 0.07798301, -14642.193, -14642.193, 0.0, 9.994735, 10.002434 
1.4949687e+3, 1.2378266e+2, -1260692.3, -1735376.5, -43485.82, 0.15689847, 0.07471727, -1256741.4, 470194.2, 0.00825018, 10.004194, 9.997833 
1.4949712e+3, 1.3378005e+2, -1202126.6, -1647319.3, 3166.852, -0.095761515, 0.017829163, -1202104.1, 426856.1, 0.0050221593, 10.003851, 9.99794 
1.4949787e+3, 1.4377843e+2, -1172191.6, -1606077.9, -16615.365, 0.1835541, 0.07522838, -1171556.3, 359420.2, 0.0022740522, 10.003483, 9.997723 
1.494982e+3, 1.5377624e+2, -1130374.9, -1534781.4, -19446.117, 0.060559556, 0.08157474, -1129442.0, 303558.4, 0.0006317744, 10.003091, 9.997727 
1.4949857e+3, 1.6377422e+2, -1053386.1, -1379126.3, -49972.414, -0.0063121156, 0.08136138, -1045892.1, 289129.03, 0.000069858055, 10.002652, 9.998335 
1.4949898e+3, 1.737726e+2, -1022624.6, -1301435.6, -50492.332, 0.046032757, 0.07293566, -1013762.2, 223273.28, 0.00000046463128, 10.002137, 9.998444 
1.4949939e+3, 1.8377097e+2, -1007702.4, -1261615.3, -47694.78, 0.071045816, 0.07534972, -999039.0, 140012.14, 0.0, 10.001644, 9.998282 
1.4949974e+3, 1.9376943e+2, -975772.0, -1195255.0, -41295.203, 0.043516207, 0.08991507, -968259.56, 72808.7, 0.0, 10.00119, 9.998283 
1.4950007e+3, 2.0376787e+2, -924508.6, -1093662.4, -59096.047, 0.023046512, 0.09828688, -905908.06, 37176.49, 0.0, 10.000755, 9.998518 
1.495004e+3, 2.137664e+2, -880896.4, -1015573.0, -65463.563, 0.01722014, 0.09221461, -854320.25, -9221.443, 0.0, 10.000355, 9.998574 
1.4950071e+3, 2.237651e+2, -813542.1, -869727.4, -71203.21, 0.007849553, 0.08304656, -765090.06, -17979.613, 0.0, 9.999875, 9.999134 
1.49501e+3, 2.3376419e+2, -796686.94, -799517.7, -63763.914, -0.0076539842, 0.0653179, -734322.7, -85205.586, 0.0, 9.9992695, 9.999235 
1.4950128e+3, 2.437633e+2, -777827.56, -727765.6, -57353.684, -0.021312252, 0.050314922, -690218.7, -139094.13, 0.0, 9.998674, 9.999341 
1.4950158e+3, 2.537626e+2, -760926.06, -664468.5, -61276.055, -0.033081777, 0.039337963, -634718.0, -181585.94, 0.0, 9.998099, 9.99938 
1.4950188e+3, 2.6376233e+2, -704281.06, -515641.63, -55824.547, -0.045131996, 0.050501745, -500359.38, -145224.48, 0.0, 9.997511, 10.000012 
1.495022e+3, 2.737628e+2, -686603.56, -442788.97, -51459.586, -0.055706188, 0.0808451, -432372.88, -175242.3, 0.0, 9.996901, 10.0001335 
1.4950253e+3, 2.837629e+2, -647730.3, -335610.03, -32885.883, -0.06700077, 0.06785915, -332182.72, -173053.08, 0.0, 9.996333, 10.000469 
1.4950287e+3, 2.9376295e+2, -621722.06, -270950.1, -36013.176, -0.08562582, 0.015680589, -267290.84, -206160.58, 0.0, 9.995832, 10.000481 
1.495032e+3, 3.037647e+2, -617912.1, -190531.86, -36433.254, -0.11965383, 0.12746324, -187448.25, -187448.25, 0.0, 9.995296, 10.0009575 
1.4950359e+3, 3.1376538e+2, -597660.3, -18689.598, -8687.962, -0.0918775, 0.082484685, -18559.256, -18559.256, 0.0, 9.994736, 10.002408 
1.504973e+3, 1.2377816e+2, -1223999.5, -1724319.5, -30457.838, 0.15224846, 0.08026358, -1222152.1, 504828.78, 0.008684618, 10.004481, 9.99777 
1.5049751e+3, 1.3377573e+2, -1163176.4, -1628241.1, 18122.777, -0.101823874, 0.040610842, -1162471.3, 466532.72, 0.0053004283, 10.004122, 9.99794 
1.5049821e+3, 1.4377405e+2, -1152609.1, -1600628.9, -6737.527, 0.17515783, 0.09291642, -1152507.8, 378512.9, 0.0024118153, 10.003637, 9.997684 
1.5049851e+3, 1.5377165e+2, -1150833.8, -1549666.5, -1235.3584, 0.07201867, 0.08409118, -1150830.0, 282216.5, 0.0006764208, 10.002974, 9.997681 
1.5049882e+3, 1.637696e+2, -1077869.0, -1385064.4, -21492.338, 0.01178062, 0.08224918, -1076372.6, 258694.88, 0.0000762831, 10.00246, 9.998385 
1.5049921e+3, 1.7376824e+2, -1011125.3, -1288414.5, -20689.746, 0.048190985, 0.09293344, -1009590.06, 227489.52, 0.00000057502143, 10.002186, 9.998508 
1.5049957e+3, 1.8376675e+2, -983138.06, -1241550.6, -24175.549, 0.06667469, 0.1015424, -980895.8, 158198.13, 0.0, 10.00178, 9.998354 
1.5049987e+3, 1.9376512e+2, -974912.9, -1186789.4, -24273.217, 0.048101034, 0.101565324, -972167.6, 68943.63, 0.0, 10.001163, 9.998354 
1.5050016e+3, 2.0376356e+2, -941495.75, -1094570.0, -36919.48, 0.03077917, 0.10239407, -933056.56, 10070.948, 0.0, 10.000609, 9.998582 
1.5050043e+3, 2.1376221e+2, -904760.4, -1019828.06, -30196.73, 0.018454988, 0.100773014, -897317.4, -52176.387, 0.0, 10.000162, 9.998637 
1.5050068e+3, 2.2376102e+2, -837315.7, -874996.1, -38137.223, 0.006197735, 0.09477614, -813618.9, -66466.95, 0.0, 9.999687, 9.999187 
1.5050091e+3, 2.3376013e+2, -808528.8, -799526.56, -45140.004, -0.006115584, 0.07751095, -758663.8, -109505.836, 0.0, 9.999166, 9.999285 
1.5050115e+3, 2.4375929e+2, -782477.3, -722458.94, -43574.492, -0.019983128, 0.061478913, -699559.8, -148394.97, 0.0, 9.998612, 9.999407 
1.5050139e+3, 2.537586e+2, -769453.06, -661057.44, -36485.836, -0.037747413, 0.047696322, -649920.56, -196748.75, 0.0, 9.998011, 9.999445 
1.5050162e+3, 2.637584e+2, -716201.44, -521246.53, -27812.498, -0.05113258, 0.057175394, -517356.38, -162182.03, 0.0, 9.99743, 10.000011 
1.5050188e+3, 2.7375883e+2, -689762.25, -445686.7, -34695.74, -0.055501726, 0.08697817, -440850.44, -183680.42, 0.0, 9.996887, 10.000119 
1.5050216e+3, 2.837589e+2, -642191.9, -332826.6, -18488.139, -0.06678895, 0.0713386, -331725.63, -172556.3, 0.0, 9.996372, 10.000468 
1.5050246e+3, 2.937589e+2, -611627.0, -265674.2, -17471.283, -0.09512546, 0.014695564, -264794.1, -203623.77, 0.0, 9.995902, 10.000483 
1.5050271e+3, 3.0376074e+2, -601383.3, -172471.6, -19555.64, -0.1341509, 0.12843607, -171581.83, -171581.83, 0.0, 9.995368, 10.001045 
1.5050305e+3, 3.137615e+2, -598293.56, -25671.06, 7559.5557, -0.10939654, 0.08578866, -25571.28, -25571.28, 0.0, 9.994761, 10.002346 
1.5149775e+3, 1.2377398e+2, -1231487.3, -1740755.8, -50172.973, 0.14933695, 0.072630405, -1226591.3, 500431.7, 0.0091579985, 10.004485, 9.997657 
1.5149792e+3, 1.3377188e+2, -1166819.0, -1636477.0, 3935.1365, -0.11706151, 0.072515875, -1166786.0, 462257.25, 0.005603989, 10.004125, 9.997883 
1.5149856e+3, 1.4377017e+2, -1147930.8, -1592096.3, -31345.691, 0.15761995, 0.12243405, -1145729.6, 385330.75, 0.0025628468, 10.003641, 9.997742 
1.5149882e+3, 1.5376745e+2, -1145450.4, -1539763.5, -26836.756, 0.09514714, 0.074080765, -1143632.3, 289456.16, 0.000726107, 10.002977, 9.997747 
1.5149911e+3, 1.6376539e+2, -1071859.3, -1373932.1, -33977.563, 0.04534252, 0.06178892, -1068084.5, 267024.88, 0.00008370529, 10.002464, 9.998461 
1.5149942e+3, 1.7376444e+2, -1005111.75, -1277243.3, -31093.867, 0.04112063, 0.10780143, -1001604.1, 235513.63, 0.00000071310234, 10.002191, 9.998584 
1.514997e+3, 1.8376313e+2, -982110.44, -1240856.0, -46098.625, 0.045197636, 0.1315927, -974142.75, 164987.75, 0.0, 10.001784, 9.998358 
1.5149999e+3, 1.9376132e+2, -974809.3, -1188022.0, -47620.277, 0.0559958, 0.113596596, -964656.9, 76492.766, 0.0, 10.001167, 9.998344 
1.5150023e+3, 2.0375979e+2, -926588.56, -1064956.6, -54466.336, 0.050286766, 0.108039714, -907721.4, 35444.184, 0.0, 10.000613, 9.998784 
1.5150043e+3, 2.1375881e+2, -887945.3, -986167.4, -46786.16, 0.020204255, 0.12073697, -869226.9, -24051.703, 0.0, 10.000165, 9.998868 
1.5150064e+3, 2.2375773e+2, -842902.1, -887725.56, -56985.36, 0.002564588, 0.11919943, -804079.75, -56894.93, 0.0, 9.99969, 9.9991 
1.5150084e+3, 2.337566e+2, -817492.7, -819156.6, -64182.17, 0.0048607625, 0.088791214, -754137.1, -104943.12, 0.0, 9.999167, 9.999149 
1.5150103e+3, 2.437557e+2, -769895.8, -697194.1, -65151.65, -0.0027224505, 0.06598621, -658938.5, -107736.86, 0.0, 9.998614, 9.99958 
1.515012e+3, 2.5375527e+2, -753968.25, -629511.6, -58324.637, -0.02748709, 0.05692945, -606451.5, -153246.05, 0.0, 9.998012, 9.999662 
1.5150137e+3, 2.637551e+2, -724246.2, -538427.06, -47516.246, -0.04876904, 0.0675416, -526981.56, -171774.73, 0.0, 9.997431, 9.999894 
1.5150157e+3, 2.7375534e+2, -701251.9, -470253.84, -53972.88, -0.062018994, 0.09176108, -458265.25, -201060.39, 0.0, 9.996888, 9.99995 
1.5150179e+3, 2.8375533e+2, -640075.2, -329323.56, -35610.5, -0.07453717, 0.075541876, -325295.0, -166089.8, 0.0, 9.996374, 10.000492 
1.5150204e+3, 2.937555e+2, -607802.3, -257885.05, -34488.97, -0.09219125, 0.028074127, -254518.11, -193313.27, 0.0, 9.995901, 10.000538 
1.5150225e+3, 3.037574e+2, -596984.06, -163408.38, -41206.1, -0.13555329, 0.14290932, -159526.98, -159526.98, 0.0, 9.995366, 10.001109 
1.5150249e+3, 3.137581e+2, -605128.06, -40704.543, -12309.365, -0.14578636, 0.089908935, -40436.22, -40436.22, 0.0, 9.994763, 10.002243 
1.524982e+3, 1.23770565e+2, -1213113.4, -1744005.8, -16347.14, 0.1360347, 0.0752765, -1212610.5, 514446.5, 0.009671757, 10.004669, 9.997545 
1.5249833e+3, 1.3376851e+2, -1151639.3, -1636758.5, 40750.24, -0.113598526, 0.0877522, -1148240.0, 480837.4, 0.0059343725, 10.004266, 9.997811 
1.5249893e+3, 1.4376675e+2, -1120929.6, -1571573.1, -3170.0671, 0.15835105, 0.13180701, -1120907.4, 410187.97, 0.0027279695, 10.003798, 9.997807 
1.5249914e+3, 1.5376411e+2, -1103776.0, -1510458.6, 1081.6896, 0.09103689, 0.08344427, -1103773.1, 329348.78, 0.00078103994, 10.003226, 9.9978285 
1.5249936e+3, 1.6376203e+2, -1043078.44, -1362843.8, -1727.9086, 0.04162865, 0.06984236, -1043069.1, 292073.3, 0.00009220657, 10.002676, 9.998434 
1.5249963e+3, 1.7376101e+2, -1012575.44, -1285779.6, -7345.424, 0.04512521, 0.111382075, -1012378.1, 224773.95, 0.0000008739153, 10.002162, 9.998538 
1.5249988e+3, 1.8375972e+2, -996981.8, -1236741.4, -31045.168, 0.051906418, 0.133799, -993027.1, 146137.8, 0.0, 10.001635, 9.998457 
1.525001e+3, 1.9375807e+2, -978171.44, -1176091.8, -24281.627, 0.0573997, 0.119863585, -975236.0, 65946.35, 0.0, 10.001087, 9.998465 
1.5250029e+3, 2.0375668e+2, -925619.94, -1057801.4, -25534.58, 0.05017777, 0.11898523, -920858.75, 22338.195, 0.0, 10.000593, 9.998842 
1.5250047e+3, 2.137558e+2, -881984.56, -977916.1, -31203.6, 0.024630671, 0.13762516, -872728.1, -27522.287, 0.0, 10.000185, 9.998915 
1.5250063e+3, 2.2375481e+2, -834556.4, -872971.2, -48081.973, 0.009423323, 0.13675767, -801987.3, -54772.453, 0.0, 9.999702, 9.999194 
1.5250076e+3, 2.337537e+2, -819862.6, -808734.0, -38806.15, 0.010309355, 0.098005176, -775095.25, -125871.59, 0.0, 9.999104, 9.99925 
1.525009e+3, 2.4375284e+2, -777495.44, -700397.56, -34537.74, 0.0011963211, 0.07464219, -687188.6, -135957.83, 0.0, 9.998562, 9.999582 
1.52501e+3, 2.5375253e+2, -740056.25, -624180.0, -44967.336, -0.024863495, 0.0781794, -608777.2, -155543.34, 0.0, 9.998115, 9.999648 
1.5250112e+3, 2.637524e+2, -697326.56, -523916.63, -41519.496, -0.0487909, 0.09070207, -514488.25, -159253.13, 0.0, 9.997611, 9.999906 
1.5250126e+3, 2.7375248e+2, -682345.44, -459279.7, -35245.223, -0.06717603, 0.09916375, -453843.28, -196609.27, 0.0, 9.997012, 9.999965 
1.5250142e+3, 2.837524e+2, -637813.3, -329931.28, -10053.886, -0.081197456, 0.0777409, -329603.3, -170368.66, 0.0, 9.9964, 10.000475 
1.5250163e+3, 2.9375264e+2, -628770.9, -269893.13, -14597.249, -0.09416499, 0.04280381, -269300.38, -208066.86, 0.0, 9.995768, 10.000519 
1.5250178e+3, 3.037546e+2, -602026.1, -155232.92, -18944.898, -0.1410684, 0.15747401, -154431.06, -154431.06, 0.0, 9.995288, 10.001202 
1.5250196e+3, 3.1375533e+2, -564875.6, -27696.95, 15596.145, -0.1766203, 0.09695154, -27244.521, -27244.521, 0.0, 9.9950695, 10.002184 
1.5349863e+3, 1.23767965e+2, -1221129.4, -1761740.1, -36248.164, 0.11103252, 0.08781648, -1218709.8, 508372.8, 0.01022504, 10.004673, 9.997423 
1.5349878e+3, 1.3376567e+2, -1157935.8, -1650645.9, 24882.414, -0.09139599, 0.085997224, -1156682.3, 472423.78, 0.006292166, 10.00427, 9.997716 
1.5349934e+3, 1.4376378e+2, -1115411.5, -1561240.5, -24708.213, 0.17737898, 0.120836, -1114046.3, 417079.03, 0.0029077136, 10.003801, 9.997876 
1.5349942e+3, 1.5376164e+2, -1096680.9, -1496938.9, -20869.105, 0.059233434, 0.11227683, -1095595.8, 337550.9, 0.00084122276, 10.00323, 9.99792 
1.5349959e+3, 1.6375965e+2, -1052185.8, -1383224.3, -21724.268, 0.00010013194, 0.106578246, -1050766.1, 284400.25, 0.00010173792, 10.00268, 9.998293 
1.5349987e+3, 1.73758e+2, -1024197.6, -1311440.3, -26904.627, 0.06003425, 0.103723034, -1021699.3, 215483.0, 0.0000010362653, 10.002167, 9.998361 
1.5350008e+3, 1.8375652e+2, -982726.0, -1208653.6, -51721.31, 0.086546056, 0.10832122, -971448.5, 167748.73, 0.0, 10.001639, 9.998649 
1.5350021e+3, 1.9375536e+2, -960366.25, -1140559.4, -44907.195, 0.052115593, 0.12033004, -949794.8, 91414.55, 0.0, 10.001092, 9.998707 
1.5350033e+3, 2.0375422e+2, -931393.44, -1071173.8, -41446.664, 0.03030914, 0.13506353, -920028.06, 23193.56, 0.0, 10.000597, 9.99875 
1.5350048e+3, 2.1375318e+2, -891466.7, -998895.5, -46196.836, 0.031619675, 0.15137818, -874333.5, -29100.352, 0.0, 10.000189, 9.99877 
1.5350062e+3, 2.2375219e+2, -814886.9, -833275.75, -69365.984, 0.026509501, 0.14747444, -754108.6, -6866.2705, 0.0, 9.999705, 9.999466 
1.5350068e+3, 2.3375137e+2, -796107.1, -760523.4, -60764.08, 0.009947123, 0.105174355, -715000.0, -65752.69, 0.0, 9.999106, 9.999581 
1.5350074e+3, 2.4375068e+2, -789266.1, -725796.94, -51308.504, -0.008429015, 0.08739524, -697202.0, -145949.31, 0.0, 9.998565, 9.999408 
1.5350081e+3, 2.5375032e+2, -757142.56, -660625.25, -60782.09, -0.029986419, 0.11137281, -631273.6, -178016.08, 0.0, 9.9981165, 9.999397 
1.5350088e+3, 2.6375017e+2, -687520.1, -504471.44, -62335.297, -0.051549748, 0.12653366, -485260.1, -130000.36, 0.0, 9.997613, 10.000039 
1.5350096e+3, 2.7375016e+2, -669005.9, -432031.78, -56865.723, -0.07150665, 0.10885067, -419092.44, -161834.33, 0.0, 9.997012, 10.000153 
1.5350105e+3, 2.8375006e+2, -642300.94, -339465.75, -32725.955, -0.08729388, 0.07768259, -335969.56, -176711.27, 0.0, 9.996399, 10.000411 
1.535012e+3, 2.9375038e+2, -635191.9, -284263.53, -37630.594, -0.101318784, 0.0590186, -280273.7, -219016.7, 0.0, 9.99577, 10.00042 
1.5350129e+3, 3.037523e+2, -593450.4, -138723.31, -28351.764, -0.15103056, 0.17199402, -136962.44, -136962.44, 0.0, 9.995292, 10.001315 
1.5350142e+3, 3.137531e+2, -566717.06, -31224.563, 10541.842, -0.20283923, 0.1077378, -31017.113, -31017.113, 0.0, 9.995066, 10.002163 
1.5449911e+3, 1.23765886e+2, -1157095.1, -1736979.0, -16151.866, 0.09480689, 0.09371787, -1156645.6, 570457.7, 0.010818331, 10.00515, 9.997362 
1.5449922e+3, 1.3376358e+2, -1161787.5, -1656419.0, 51710.727, -0.078767575, 0.09404902, -1156439.4, 472687.78, 0.006678679, 10.004263, 9.997679 
1.5449972e+3, 1.4376155e+2, -1135739.3, -1570718.5, 11670.085, 0.18679594, 0.11775741, -1135426.4, 395721.34, 0.0031029813, 10.003662, 9.997877 
1.5449975e+3, 1.5375954e+2, -1053368.6, -1475632.9, 9867.164, 0.04678426, 0.12172087, -1053138.1, 380029.63, 0.0009068006, 10.003528, 9.997922 
1.5449986e+3, 1.6375756e+2, -993974.75, -1357946.4, -3647.9917, -0.016116576, 0.119622655, -993938.2, 341249.03, 0.0001122654, 10.003094, 9.998266 
1.545001e+3, 1.7375576e+2, -1025760.6, -1315420.3, -131.58194, 0.06740365, 0.10448237, -1025760.56, 211444.16, 0.0000011877057, 10.0021715, 9.99833 
1.5450026e+3, 1.8375425e+2, -1000366.25, -1211669.9, -13423.138, 0.10195525, 0.105558775, -999517.0, 139702.94, 0.0, 10.001496, 9.998695 
1.5450032e+3, 1.9375329e+2, -936964.3, -1122789.5, -19398.422, 0.050864764, 0.12889542, -934960.9, 106269.5, 0.0, 10.001225, 9.998763 
1.5450041e+3, 2.0375222e+2, -901996.9, -1054007.3, -25464.047, 0.024128491, 0.14844678, -897844.6, 45397.293, 0.0, 10.000788, 9.998775 
1.5450051e+3, 2.1375112e+2, -906651.6, -1003912.7, -19299.773, 0.03908579, 0.15840611, -902961.94, -57707.664, 0.0, 10.000075, 9.998789 
1.5450057e+3, 2.237502e+2, -841146.94, -836816.8, -40061.46, 0.037276357, 0.15479782, -798861.94, -51598.7, 0.0, 9.999488, 9.999546 
1.5450057e+3, 2.3374957e+2, -790700.7, -748109.1, -49592.406, 0.007529012, 0.12432858, -715433.5, -66167.26, 0.0, 9.999103, 9.999667 
1.5450059e+3, 2.4374898e+2, -776223.94, -721009.06, -45589.8, -0.01786763, 0.111012995, -695319.2, -144048.31, 0.0, 9.998662, 9.9993925 
1.545006e+3, 2.537485e+2, -757936.7, -664440.7, -39414.65, -0.036500555, 0.1269079, -650042.2, -196765.2, 0.0, 9.998128, 9.999365 
1.5450063e+3, 2.6374832e+2, -691345.94, -499341.6, -38372.86, -0.054827575, 0.13910428, -491956.66, -136677.2, 0.0, 9.997559, 10.000099 
1.5450065e+3, 2.7374846e+2, -675047.5, -426926.44, -42413.555, -0.07149795, 0.12766436, -419876.6, -162600.31, 0.0, 9.996939, 10.000222 
1.545007e+3, 2.8374842e+2, -642011.6, -342286.8, -18445.531, -0.08757171, 0.09772966, -341155.9, -181880.05, 0.0, 9.996416, 10.000382 
1.5450078e+3, 2.937486e+2, -598884.75, -271005.22, -19208.797, -0.106825255, 0.07034152, -269883.7, -208608.16, 0.0, 9.99604, 10.00038 
1.5450083e+3, 3.0375037e+2, -554382.44, -102455.49, -7079.2593, -0.15455559, 0.16567948, -102344.625, -102344.625, 0.0, 9.995487, 10.001469 
1.5450092e+3, 3.1375146e+2, -622952.9, -54997.434, 36502.938, -0.20446642, 0.11010791, -52660.973, -52660.973, 0.0, 9.994668, 10.00219 
1.5549962e+3, 1.2376439e+2, -1156966.6, -1737372.9, -51504.094, 0.086470716, 0.094321884, -1152431.6, 574687.0, 0.011457464, 10.005154, 9.997359 
1.5549965e+3, 1.3376227e+2, -1160239.0, -1653615.3, 17690.047, -0.076130316, 0.11175985, -1159605.5, 469534.63, 0.0070975726, 10.004266, 9.997697 
1.5550007e+3, 1.4376009e+2, -1140530.9, -1582022.5, 2557.3315, 0.18609501, 0.12269733, -1140516.0, 390646.06, 0.0033156676, 10.003667, 9.997799 
1.5550011e+3, 1.5375784e+2, -1059359.9, -1489622.8, 4585.2026, 0.05348268, 0.11201045, -1059311.0, 373873.94, 0.0009784765, 10.003532, 9.997825 
1.5550019e+3, 1.6375585e+2, -987236.4, -1345508.1, -35270.06, -0.007246456, 0.10918719, -983797.25, 351407.56, 0.0001239549, 10.0030985, 9.99835 
1.5550031e+3, 1.7375435e+2, -1017402.8, -1299471.9, -35335.707, 0.06707937, 0.11350815, -1013043.56, 224175.48, 0.0000013544981, 10.002175, 9.998439 
1.555004e+3, 1.8375294e+2, -1006834.25, -1226546.9, -26698.992, 0.097947866, 0.12534247, -1003636.4, 135596.66, 0.0, 10.001501, 9.998592 
1.5550046e+3, 1.9375181e+2, -945748.8, -1142512.5, -29315.91, 0.053445045, 0.14563257, -941473.9, 99771.64, 0.0, 10.00123, 9.998627 
1.5550049e+3, 2.0375067e+2, -891686.0, -1033996.94, -50174.34, 0.031265467, 0.15934272, -875775.0, 67482.98, 0.0, 10.000792, 9.998911 
1.5550053e+3, 2.1374966e+2, -893715.9, -978274.0, -45941.953, 0.04675992, 0.15881492, -873559.5, -28290.178, 0.0, 10.000079, 9.998964 
1.5550053e+3, 2.237488e+2, -848849.94, -854060.75, -55486.543, 0.041548073, 0.1588485, -795907.7, -48629.875, 0.0, 9.999492, 9.999427 
1.5550049e+3, 2.337483e+2, -801534.4, -771845.5, -63271.54, 0.002928777, 0.15541252, -721700.4, -72419.65, 0.0, 9.999106, 9.999504 
1.5550044e+3, 2.437477e+2, -766073.06, -701011.0, -64176.023, -0.027456665, 0.14529748, -661591.9, -110306.12, 0.0, 9.998665, 9.99953 
1.5550041e+3, 2.5374705e+2, -744985.25, -638413.75, -58565.15, -0.04476777, 0.12461227, -612520.94, -159228.22, 0.0, 9.99813, 9.999544 
1.555004e+3, 2.6374686e+2, -692338.1, -502289.3, -60228.8, -0.05892747, 0.12836683, -484809.72, -129514.96, 0.0, 9.9975605, 10.000079 
1.5550035e+3, 2.7374732e+2, -678247.2, -434813.56, -64596.652, -0.06777392, 0.15552239, -418734.47, -161445.36, 0.0, 9.9969425, 10.000168 
1.5550034e+3, 2.8374738e+2, -641415.44, -342212.9, -32583.125, -0.082929134, 0.13763608, -338705.72, -179417.78, 0.0, 9.996419, 10.000382 
1.5550038e+3, 2.9374722e+2, -598230.5, -269791.56, -32546.441, -0.11132265, 0.076422855, -266597.44, -205307.58, 0.0, 9.996039, 10.00039 
1.5550038e+3, 3.0374876e+2, -541493.56, -75594.87, -35246.58, -0.1522246, 0.13816947, -72943.45, -72943.45, 0.0, 9.995484, 10.001656 
1.555004e+3, 3.1375027e+2, -617759.06, -44684.656, 8462.849, -0.18252562, 0.10499913, -44559.71, -44559.71, 0.0, 9.994668, 10.002262 
1.5650013e+3, 1.2376346e+2, -1171092.5, -1749059.8, -27596.287, 0.09073999, 0.09362194, -1169777.9, 557350.5, 0.01215318, 10.005081, 9.997313 
1.5650009e+3, 1.3376139e+2, -1087288.5, -1622823.6, 37198.355, -0.088398464, 0.120747454, -1084717.0, 544432.0, 0.007554796, 10.004794, 9.997652 
1.5650046e+3, 1.4375906e+2, -1060128.3, -1548495.6, 21385.064, 0.16493082, 0.12132743, -1059193.5, 471978.84, 0.0035487264, 10.004247, 9.997748 
1.5650046e+3, 1.5375681e+2, -1099709.1, -1515159.9, 26394.863, 0.06670964, 0.11446744, -1098038.9, 335156.84, 0.0010575854, 10.0032835, 9.997768 
1.5650049e+3, 1.6375484e+2, -1054085.0, -1373391.5, -13564.536, 0.015491344, 0.11650906, -1053509.9, 281705.53, 0.00013719169, 10.002623, 9.998387 
1.5650053e+3, 1.7375346e+2, -974057.2, -1273166.3, -18716.41, 0.05735488, 0.12638961, -972890.56, 264338.0, 0.0000015912761, 10.002452, 9.998486 
1.5650056e+3, 1.8375205e+2, -931143.3, -1193287.6, -10444.008, 0.0788043, 0.13716838, -930727.9, 208514.56, 0.0, 10.002036, 9.998562 
1.5650058e+3, 1.9375077e+2, -950294.9, -1149483.8, -6672.824, 0.062461272, 0.14637735, -950071.6, 91184.77, 0.0, 10.001222, 9.998583 
1.5650058e+3, 2.037496e+2, -924348.25, -1043371.94, -28106.31, 0.050474852, 0.15829621, -918045.0, 25224.1, 0.0, 10.000542, 9.998966 
1.5650053e+3, 2.1374878e+2, -888348.44, -968138.25, -32573.662, 0.046911772, 0.1707665, -876739.5, -31460.639, 0.0, 10.000085, 9.99903 
1.5650047e+3, 2.2374803e+2, -831874.56, -846595.1, -38755.184, 0.034153357, 0.17811854, -799786.94, -52500.32, 0.0, 9.999613, 9.999419 
1.565004e+3, 2.337475e+2, -802361.6, -774550.94, -35916.754, 0.0065518026, 0.17291038, -749941.7, -100651.38, 0.0, 9.999112, 9.999482 
1.5650032e+3, 2.4374689e+2, -773729.06, -694868.56, -37058.098, -0.017952645, 0.15997766, -680187.4, -128892.01, 0.0, 9.998572, 9.999616 
1.5650024e+3, 2.537463e+2, -761289.5, -635040.1, -38386.066, -0.03785067, 0.13440886, -624285.1, -170983.73, 0.0, 9.997972, 9.999642 
1.5650015e+3, 2.637461e+2, -708562.75, -517518.78, -41941.574, -0.056769464, 0.1381373, -508716.53, -153413.4, 0.0, 9.997483, 10.000011 
1.5650004e+3, 2.7374658e+2, -651643.9, -432478.38, -49395.805, -0.074021496, 0.17420803, -421859.94, -164561.72, 0.0, 9.997172, 10.0000725 
1.5649998e+3, 2.8374663e+2, -600004.6, -316285.2, -21425.957, -0.09062767, 0.16036473, -314676.25, -155379.17, 0.0, 9.996679, 10.000434 
1.5649998e+3, 2.937465e+2, -613695.8, -268592.75, -17404.56, -0.10850889, 0.092341624, -267717.22, -206419.03, 0.0, 9.995897, 10.000465 
1.5649992e+3, 3.0374792e+2, -571710.3, -82957.086, -22915.111, -0.14271583, 0.13429871, -81885.06, -81885.06, 0.0, 9.995248, 10.001718 
1.5649986e+3, 3.1374973e+2, -600304.44, -42970.938, 10808.378, -0.1875557, 0.1253296, -42761.41, -42761.41, 0.0, 9.994819, 10.0022 
1.5750065e+3, 1.23763174e+2, -1177577.0, -1763595.8, -40238.582, 0.10602799, 0.09275498, -1174826.9, 552304.6, 0.0129162045, 10.005087, 9.997212 
1.5750054e+3, 1.33761e+2, -1095251.6, -1640100.3, 25620.443, -0.11587129, 0.12115512, -1094049.5, 535103.8, 0.008056732, 10.004798, 9.997533 
1.5750085e+3, 1.4375852e+2, -1061187.5, -1551904.4, -12474.19, 0.123220965, 0.11382738, -1060870.6, 470307.66, 0.0038056222, 10.0042515, 9.997725 
1.5750082e+3, 1.5375645e+2, -1100418.9, -1518043.0, -10452.273, 0.08628704, 0.12887534, -1100157.5, 333042.4, 0.0011457113, 10.003288, 9.997747 
1.5750079e+3, 1.6375458e+2, -1054451.8, -1375780.0, -23918.523, 0.051820535, 0.14146471, -1052681.0, 282537.84, 0.0001523179, 10.002627, 9.99837 
1.5750076e+3, 1.7375308e+2, -974812.94, -1276256.4, -25073.379, 0.037910566, 0.14328927, -972741.6, 264491.5, 0.0000019351096, 10.002457, 9.998463 
1.5750073e+3, 1.8375155e+2, -927862.0, -1187935.6, -38342.3, 0.044059284, 0.14136276, -922327.06, 216921.02, 0.0, 10.00204, 9.998598 
1.5750071e+3, 1.9375013e+2, -946677.5, -1143386.9, -37460.344, 0.077694975, 0.1311582, -939785.2, 101477.766, 0.0, 10.001225, 9.998623 
1.5750065e+3, 2.0374899e+2, -926149.2, -1048438.3, -46785.03, 0.08166157, 0.14527556, -910303.5, 32971.93, 0.0, 10.0005455, 9.998931 
1.5750054e+3, 2.1374848e+2, -891047.44, -975083.1, -49253.85, 0.03937869, 0.19417325, -868323.94, -23040.977, 0.0, 10.00009, 9.998981 
1.5750043e+3, 2.2374786e+2, -824611.06, -832845.0, -56834.004, 0.014690026, 0.21244809, -771745.1, -24455.168, 0.0, 9.999617, 9.999513 
1.5750031e+3, 2.3374712e+2, -793853.7, -758062.1, -53972.934, 0.018137237, 0.1767972, -719095.5, -69800.21, 0.0, 9.999116, 9.999595 
1.575002e+3, 2.437465e+2, -771346.1, -691043.1, -58306.055, 0.010391148, 0.15522732, -660401.0, -109100.73, 0.0, 9.998575, 9.999641 
1.5750004e+3, 2.537462e+2, -759910.4, -633255.3, -59880.75, -0.016225016, 0.15636316, -609427.3, -156123.89, 0.0, 9.997974, 9.999655 
1.5749991e+3, 2.6374605e+2, -716822.44, -535710.56, -53671.543, -0.04900218, 0.16823061, -521000.13, -165695.03, 0.0, 9.997486, 9.9998865 
1.5749975e+3, 2.7374616e+2, -661270.7, -453451.56, -59730.836, -0.090384796, 0.18332176, -437507.2, -180202.9, 0.0, 9.997174, 9.999928 
1.5749964e+3, 2.8374615e+2, -592754.7, -302191.0, -47719.74, -0.1108858, 0.16558376, -294554.6, -135250.58, 0.0, 9.996681, 10.000531 
1.5749957e+3, 2.9374635e+2, -603873.1, -249149.78, -46036.383, -0.09981593, 0.11767306, -243272.52, -181971.27, 0.0, 9.995899, 10.000599 
1.5749948e+3, 3.0374774e+2, -576517.06, -93598.72, -39507.81, -0.1276309, 0.15340084, -90387.914, -90387.914, 0.0, 9.995249, 10.001645 
1.5749931e+3, 3.137497e+2, -615036.7, -72989.48, -2179.3916, -0.21978149, 0.17178392, -72980.71, -72980.71, 0.0, 9.994814, 10.001997 
1.5850118e+3, 1.23763464e+2, -1124897.8, -1745308.1, -15881.945, 0.09634922, 0.09832584, -1124491.5, 602637.8, 0.013751951, 10.005491, 9.997142 
1.5850103e+3, 1.3376126e+2, -1093002.9, -1648271.5, 51983.582, -0.114285275, 0.13262905, -1088178.1, 540973.3, 0.008607348, 10.004859, 9.997446 
1.5850125e+3, 1.4375862e+2, -1065035.3, -1556252.9, 4438.1357, 0.120547235, 0.11467109, -1064995.1, 466182.94, 0.0040888996, 10.004239, 9.9977 
1.5850116e+3, 1.5375657e+2, -1050858.3, -1496654.1, 3983.7244, 0.08508132, 0.13497953, -1050822.8, 382376.44, 0.0012439591, 10.003642, 9.997724 
1.5850107e+3, 1.637547e+2, -998885.1, -1353414.4, 1899.7272, 0.052818704, 0.15027612, -998874.94, 336343.28, 0.00016938407, 10.003031, 9.998328 
1.58501e+3, 1.7375314e+2, -987077.44, -1287173.4, 222.09608, 0.04010626, 0.15025328, -987077.25, 250156.11, 0.0000023797534, 10.002396, 9.998416 
1.5850092e+3, 1.8375161e+2, -959162.94, -1195582.5, -22899.201, 0.044940412, 0.1468498, -956965.4, 182283.1, 0.0, 10.001796, 9.998662 
1.5850084e+3, 1.9375023e+2, -937720.9, -1130307.8, -21073.896, 0.07387309, 0.13601705, -935441.8, 105820.516, 0.0, 10.001251, 9.998699 
1.5850072e+3, 2.0374915e+2, -901679.0, -1039129.75, -22119.5, 0.07669752, 0.1499284, -898207.06, 45067.383, 0.0, 10.000727, 9.998906 
1.5850055e+3, 2.137486e+2, -873859.2, -971176.56, -23513.148, 0.038629293, 0.19929475, -868475.94, -23193.264, 0.0, 10.000228, 9.99894 
1.5850039e+3, 2.2374801e+2, -810676.56, -822361.3, -35533.305, 0.016884154, 0.22158465, -780508.56, -33218.81, 0.0, 9.999699, 9.999544 
1.5850024e+3, 2.3374741e+2, -790332.0, -751666.56, -38841.863, 0.020915389, 0.19559686, -727612.1, -78318.01, 0.0, 9.999122, 9.999635 
1.5850006e+3, 2.4374686e+2, -765945.5, -688541.5, -46329.613, 0.011559268, 0.1793375, -666875.6, -115577.055, 0.0, 9.998614, 9.999639 
1.5849985e+3, 2.5374654e+2, -725102.1, -617484.8, -49951.29, -0.020011652, 0.17849192, -597873.44, -144571.55, 0.0, 9.9982195, 9.999643 
1.5849966e+3, 2.6374635e+2, -683771.1, -521499.28, -41103.43, -0.052954964, 0.18605927, -511681.75, -156377.67, 0.0, 9.997723, 9.999868 
1.5849946e+3, 2.7374637e+2, -679421.0, -464247.53, -38076.125, -0.087287165, 0.19525799, -457708.47, -200404.28, 0.0, 9.997061, 9.9999075 
1.5849929e+3, 2.837464e+2, -626422.94, -321309.28, -30141.832, -0.10781694, 0.18403423, -318360.1, -159056.5, 0.0, 9.996465, 10.000503 
1.5849915e+3, 2.9374674e+2, -595494.44, -247739.63, -41923.89, -0.10686065, 0.15694681, -242756.84, -181457.9, 0.0, 9.995971, 10.000573 
1.58499e+3, 3.037479e+2, -549129.6, -88320.23, -36749.535, -0.1330066, 0.17198956, -85407.86, -85407.86, 0.0, 9.995473, 10.001573 
1.5849881e+3, 3.1374976e+2, -601942.94, -82390.92, 4969.118, -0.22405231, 0.18758588, -82343.4, -82343.4, 0.0, 9.994974, 10.001854 
1.5950169e+3, 1.237644e+2, -1127408.9, -1751164.3, -39110.75, 0.0607403, 0.11196825, -1124966.1, 602154.8, 0.0146590425, 10.005496, 9.997101 
1.5950154e+3, 1.3376223e+2, -1096705.6, -1656684.6, 27567.236, -0.08412947, 0.1548888, -1095351.8, 533791.25, 0.00920677, 10.004863, 9.997387 
1.5950172e+3, 1.437594e+2, -1066593.0, -1560912.4, -18782.652, 0.15623008, 0.12387594, -1065880.4, 465290.88, 0.004399184, 10.004244, 9.997666 
1.5950151e+3, 1.5375721e+2, -1052652.0, -1501748.6, -18840.443, 0.06282118, 0.13302253, -1051863.0, 381330.25, 0.001352556, 10.003646, 9.997687 
1.5950134e+3, 1.6375524e+2, -1003141.0, -1363768.3, -22155.453, 0.018222904, 0.14323261, -1001784.94, 333428.22, 0.00018821016, 10.003035, 9.998257 
1.5950127e+3, 1.7375365e+2, -991809.2, -1298538.0, -23863.654, 0.06381723, 0.14728883, -989963.7, 247265.58, 0.0000028938316, 10.0024, 9.998337 
1.5950115e+3, 1.837522e+2, -952404.6, -1183101.9, -43892.324, 0.08132074, 0.15353775, -944335.9, 194907.86, 0.0, 10.001801, 9.998747 
1.5950094e+3, 1.9375111e+2, -929519.75, -1114746.1, -41367.617, 0.050729442, 0.16077341, -920700.8, 120553.82, 0.0, 10.001256, 9.998805 
1.5950075e+3, 2.0375004e+2, -902429.6, -1042137.6, -40791.71, 0.03504436, 0.17222765, -891391.44, 51874.836, 0.0, 10.0007305, 9.998885 
1.5950057e+3, 2.1374911e+2, -876116.5, -977149.75, -41776.496, 0.04438396, 0.18633543, -861080.06, -15801.941, 0.0, 10.000232, 9.9988985 
1.5950038e+3, 2.2374846e+2, -812818.25, -828035.2, -56347.746, 0.040544674, 0.20592651, -763567.6, -16281.397, 0.0, 9.9997015, 9.999505 
1.5950015e+3, 2.337483e+2, -792577.9, -757564.8, -59749.844, 0.014725512, 0.22939862, -712809.6, -63522.367, 0.0, 9.999125, 9.999594 
1.594999e+3, 2.437479e+2, -768225.7, -694457.06, -61052.754, -0.014816044, 0.23222585, -660011.94, -108721.05, 0.0, 9.998618, 9.999598 
1.5949965e+3, 2.5374722e+2, -727455.7, -623504.94, -63523.28, -0.049396433, 0.2005828, -593403.25, -140105.92, 0.0, 9.998222, 9.999602 
1.594994e+3, 2.6374686e+2, -677362.1, -509387.3, -63548.867, -0.06887364, 0.19145451, -488054.5, -132753.8, 0.0, 9.9977255, 9.999951 
1.594992e+3, 2.737471e+2, -672264.1, -450259.72, -61731.7, -0.065705776, 0.2098633, -434248.97, -176950.33, 0.0, 9.997063, 10.000004 
1.5949897e+3, 2.837473e+2, -637655.94, -345439.34, -48106.543, -0.08255578, 0.21561049, -337723.47, -178426.92, 0.0, 9.996467, 10.000338 
1.5949874e+3, 2.9374766e+2, -609074.1, -277016.84, -59291.414, -0.12944244, 0.21035871, -266747.5, -205455.38, 0.0, 9.995974, 10.000372 
1.5949853e+3, 3.0374828e+2, -554079.8, -99445.37, -54568.754, -0.15871201, 0.19007444, -92987.336, -92987.336, 0.0, 9.995475, 10.001496 
1.5949833e+3, 3.1374973e+2, -608323.9, -95219.72, -11104.745, -0.20285384, 0.17164284, -94979.5, -94979.5, 0.0, 9.99497, 10.001769 
1.6050224e+3, 1.2376587e+2, -1098442.6, -1746866.9, -21284.555, 0.050221797, 0.12647252, -1097744.6, 629362.75, 0.015633041, 10.005748, 9.997008 
1.6050203e+3, 1.3376361e+2, -1086597.6, -1664861.5, 37934.85, -0.07348657, 0.17377172, -1084119.6, 545011.06, 0.009853169, 10.004995, 9.997267 
1.6050215e+3, 1.4376062e+2, -1055689.4, -1551209.4, -5821.08, 0.16385311, 0.1304977, -1055621.0, 475539.66, 0.004736078, 10.004304, 9.997703 
1.6050187e+3, 1.5375845e+2, -1039730.75, -1489240.0, 807.83954, 0.05623778, 0.13627687, -1039729.3, 393452.4, 0.0014713834, 10.003711, 9.997741 
1.6050163e+3, 1.6375649e+2, -995600.1, -1365970.0, 787.0902, 0.008987137, 0.14656182, -995598.5, 339602.84, 0.0002086687, 10.003115, 9.998201 
1.6050151e+3, 1.7375487e+2, -980345.2, -1300965.1, -977.92755, 0.06916235, 0.15613738, -980342.2, 256875.83, 0.0000034510517, 10.002516, 9.998264 
1.6050133e+3, 1.8375342e+2, -936090.3, -1176108.0, -22681.408, 0.089168355, 0.16639453, -933965.75, 205267.22, 0.0, 10.001918, 9.998736 
1.6050106e+3, 1.9375235e+2, -920338.0, -1110528.9, -28749.408, 0.04151149, 0.17530906, -916087.2, 125156.49, 0.0, 10.001322, 9.998801 
1.6050081e+3, 2.0375128e+2, -894381.4, -1030576.94, -28343.643, 0.020756103, 0.18422557, -888718.25, 54536.926, 0.0, 10.000755, 9.998951 
1.605006e+3, 2.1375033e+2, -870401.5, -965926.44, -21142.857, 0.04439331, 0.18926772, -865931.06, -20664.38, 0.0, 10.0002365, 9.998972 
1.6050035e+3, 2.2374968e+2, -813441.1, -837886.25, -33178.785, 0.04498514, 0.20976818, -790305.2, -43030.4, 0.0, 9.999741, 9.999417 
1.6050006e+3, 2.337496e+2, -778395.0, -763147.25, -42488.082, 0.0075811613, 0.2504866, -727604.5, -78328.07, 0.0, 9.999278, 9.99948 
1.6049975e+3, 2.4374922e+2, -749634.0, -685007.2, -45778.54, -0.026590325, 0.26173842, -661286.4, -110005.96, 0.0, 9.998745, 9.999599 
1.6049947e+3, 2.5374848e+2, -743960.25, -629454.44, -44556.414, -0.05450521, 0.22333786, -614159.6, -160872.6, 0.0, 9.998103, 9.999618 
1.6049917e+3, 2.637481e+2, -702147.7, -516867.1, -45230.18, -0.070007354, 0.20920345, -506415.25, -151124.78, 0.0, 9.997539, 9.999989 
1.604989e+3, 2.7374837e+2, -664090.3, -441941.1, -48433.09, -0.06811647, 0.22810256, -431840.9, -174553.03, 0.0, 9.997102, 10.00004 
1.6049862e+3, 2.8374857e+2, -620261.8, -344886.63, -33522.22, -0.08616528, 0.23727491, -340864.63, -181579.23, 0.0, 9.996622, 10.000265 
1.6049834e+3, 2.937489e+2, -601875.25, -283067.28, -36342.31, -0.13240115, 0.23381598, -278976.94, -217695.52, 0.0, 9.996066, 10.000284 
1.6049807e+3, 3.0374917e+2, -554422.25, -97598.63, -26370.777, -0.1513528, 0.18013331, -96081.38, -96081.38, 0.0, 9.995466, 10.001513 
1.6049783e+3, 3.1375065e+2, -631197.7, -101477.18, 24103.576, -0.19319168, 0.16482435, -100382.67, -100382.67, 0.0, 9.994795, 10.001809 
1.6150284e+3, 1.2376793e+2, -1108819.8, -1769249.1, -47366.63, 0.06194147, 0.14410038, -1105439.9, 621648.3, 0.016672444, 10.0057535, 9.996854 
1.6150254e+3, 1.3376547e+2, -1099778.3, -1692862.9, 8923.531, -0.08239263, 0.18950908, -1099644.0, 529470.25, 0.010546741, 10.004998, 9.997074 
1.6150257e+3, 1.437623e+2, -1048068.44, -1536561.1, -29241.563, 0.14369214, 0.1347682, -1046324.25, 484821.7, 0.005100424, 10.004309, 9.997803 
1.6150224e+3, 1.537603e+2, -1029524.2, -1469664.1, -21788.248, 0.0649122, 0.14477298, -1028448.25, 404716.06, 0.0016011106, 10.003716, 9.997873 
1.6150196e+3, 1.6375844e+2, -997639.94, -1372076.8, -22154.25, 0.024556737, 0.16028571, -996333.7, 338848.75, 0.00023102766, 10.00312, 9.9981575 
1.6150177e+3, 1.7375682e+2, -984741.3, -1311594.0, -23635.76, 0.055913977, 0.17664383, -983041.0, 254158.69, 0.0000040571285, 10.00252, 9.99819 
1.615015e+3, 1.8375526e+2, -943325.94, -1192560.1, -45155.535, 0.06802506, 0.18549067, -935397.06, 203819.0, 0.0, 10.001923, 9.998623 
1.615012e+3, 1.9375393e+2, -928184.7, -1128304.6, -51010.668, 0.046019137, 0.17995271, -915932.2, 125297.414, 0.0, 10.001327, 9.998678 
1.6150089e+3, 2.0375282e+2, -883423.75, -1009355.4, -47934.55, 0.033740677, 0.18633589, -867254.1, 75987.11, 0.0, 10.000759, 9.999096 
1.6150062e+3, 2.1375223e+2, -857067.9, -939692.4, -40129.496, 0.03839441, 0.2078621, -840786.06, 4462.5337, 0.0, 10.000241, 9.999151 
1.6150032e+3, 2.2375166e+2, -822804.75, -858699.06, -50220.176, 0.029672084, 0.23283674, -787421.2, -40165.29, 0.0, 9.999744, 9.999273 
1.6149998e+3, 2.3375125e+2, -791235.7, -790998.8, -59009.42, -0.00074717094, 0.2588014, -732107.75, -82845.734, 0.0, 9.999281, 9.999289 
1.6149963e+3, 2.4375075e+2, -746697.5, -680008.44, -68158.484, -0.02398366, 0.26795158, -637475.2, -86207.48, 0.0, 9.998748, 9.999634 
1.6149929e+3, 2.5375026e+2, -739077.4, -620290.06, -67595.08, -0.035694405, 0.24694037, -589702.06, -136430.38, 0.0, 9.998105, 9.9996805 
1.6149893e+3, 2.6374996e+2, -702978.44, -519679.1, -61300.81, -0.05682328, 0.23961611, -501067.9, -145793.92, 0.0, 9.99754, 9.9999695 
1.6149859e+3, 2.7375013e+2, -665673.2, -446639.16, -63464.156, -0.094711974, 0.25001547, -429579.4, -172306.78, 0.0, 9.997106, 10.000008 
1.6149825e+3, 2.837502e+2, -618703.2, -342911.44, -52816.324, -0.11900947, 0.24871969, -333142.72, -173871.66, 0.0, 9.996625, 10.000278 
1.6149797e+3, 2.9375035e+2, -600358.3, -280280.94, -56166.082, -0.11700598, 0.22635786, -270711.22, -209443.33, 0.0, 9.996065, 10.000305 
1.6149765e+3, 3.0375037e+2, -547824.94, -84392.83, -49835.367, -0.11246876, 0.14148867, -79094.336, -79094.336, 0.0, 9.995465, 10.001604 
1.614973e+3, 3.1375238e+2, -619851.44, -78985.78, 1026.977, -0.1956076, 0.16817878, -78983.836, -78983.836, 0.0, 9.994797, 10.001964 
1.6250342e+3, 1.237704e+2, -1087086.5, -1760860.8, -38283.805, 0.071204685, 0.1596567, -1084918.3, 642147.1, 0.017780537, 10.005923, 9.996828 
1.6250303e+3, 1.337679e+2, -1086091.9, -1691682.3, 24314.06, -0.07960929, 0.20656765, -1085117.3, 543974.6, 0.011290924, 10.005123, 9.99702 
1.6250299e+3, 1.4376462e+2, -1027305.3, -1522877.9, -2783.9805, 0.1341877, 0.1436627, -1027289.7, 503834.8, 0.005494853, 10.00444, 9.997831 
1.6250263e+3, 1.5376273e+2, -993585.3, -1448126.1, -2174.7224, 0.055806424, 0.15899456, -993574.94, 439566.6, 0.0017434268, 10.003948, 9.997909 
1.6250229e+3, 1.6376087e+2, -968337.94, -1365279.9, -12481.486, 0.017319683, 0.17594801, -967945.9, 367213.6, 0.00025601638, 10.003356, 9.998091 
1.62502e+3, 1.7375912e+2, -979431.0, -1318301.1, -16055.6045, 0.05064055, 0.18790667, -978672.0, 258506.28, 0.0000047593935, 10.002599, 9.998105 
1.625017e+3, 1.837575e+2, -936154.94, -1188122.8, -28899.635, 0.064399466, 0.19362904, -932882.8, 206312.72, 0.0, 10.00197, 9.998629 
1.6250134e+3, 1.9375615e+2, -895017.1, -1110333.3, -24187.35, 0.044366103, 0.1870467, -892333.56, 148875.34, 0.0, 10.001548, 9.998693 
1.6250098e+3, 2.037551e+2, -844803.4, -984399.3, -23043.229, 0.030860307, 0.19385436, -841097.94, 102122.0, 0.0, 10.000999, 9.99915 
1.6250063e+3, 2.1375458e+2, -853065.06, -931201.06, -25433.31, 0.0286696, 0.2178753, -845515.9, -289.648, 0.0, 10.000242, 9.9992075 
1.6250028e+3, 2.2375403e+2, -845325.7, -871783.75, -31139.807, 0.019491294, 0.24375565, -824721.4, -77488.086, 0.0, 9.999601, 9.999251 
1.6249989e+3, 2.3375358e+2, -812604.8, -805068.94, -28134.986, -0.0013765884, 0.2686736, -780450.7, -131210.33, 0.0, 9.999152, 9.999252 
1.6249952e+3, 2.4375308e+2, -756370.1, -682434.9, -36192.305, -0.01948717, 0.27899367, -667667.7, -116421.33, 0.0, 9.998674, 9.999652 
1.624991e+3, 2.5375265e+2, -731757.25, -613935.06, -39648.03, -0.033023547, 0.2618655, -601835.7, -148586.25, 0.0, 9.998145, 9.999703 
1.624987e+3, 2.6375234e+2, -696419.25, -521810.66, -33043.496, -0.054711074, 0.2548056, -515766.63, -160514.78, 0.0, 9.997611, 9.99992 
1.624983e+3, 2.7375242e+2, -676011.2, -458299.7, -37251.344, -0.09176751, 0.26190352, -452102.25, -194850.39, 0.0, 9.997066, 9.999946 
1.624979e+3, 2.8375253e+2, -631698.94, -338844.2, -28993.457, -0.11879215, 0.26414606, -336001.34, -176751.45, 0.0, 9.996493, 10.000368 
1.6249755e+3, 2.9375288e+2, -619962.2, -277009.44, -26679.22, -0.12337241, 0.25033432, -274946.38, -213702.2, 0.0, 9.995878, 10.000416 
1.6249721e+3, 3.037527e+2, -578211.8, -100918.91, -22274.93, -0.1063661, 0.14097306, -99881.6, -99881.6, 0.0, 9.995267, 10.001585 
1.6249679e+3, 3.1375477e+2, -637380.4, -80456.07, 19005.111, -0.17448728, 0.17827071, -79808.27, -79808.27, 0.0, 9.994648, 10.002025 
1.6350402e+3, 1.2377334e+2, -1080126.8, -1746107.9, -64551.06, 0.076191455, 0.17527473, -1073927.8, 653110.6, 0.018962061, 10.005927, 9.996929 
1.6350356e+3, 1.3377096e+2, -1080505.4, -1680513.6, -6092.2715, -0.06618217, 0.22486325, -1080443.5, 548619.8, 0.012089663, 10.005128, 9.997095 
1.6350342e+3, 1.4376764e+2, -1029861.75, -1529819.4, -23174.727, 0.13419886, 0.15708569, -1028789.8, 502306.1, 0.0059220344, 10.004447, 9.997782 
1.6350299e+3, 1.5376574e+2, -997922.5, -1458591.1, -20965.33, 0.029068008, 0.17889525, -996970.4, 436142.78, 0.0019000283, 10.003952, 9.997836 
1.6350259e+3, 1.6376376e+2, -974643.06, -1379673.5, -40020.85, -0.01254837, 0.19361825, -970726.5, 364405.75, 0.00028448043, 10.003359, 9.997991 
1.6350228e+3, 1.7376179e+2, -985964.9, -1333484.3, -44684.984, 0.052968934, 0.19025062, -980311.2, 256842.56, 0.000005611926, 10.002604, 9.997999 
1.635019e+3, 1.8376009e+2, -927052.2, -1171021.8, -46247.473, 0.077875055, 0.19117568, -918579.6, 220591.77, 0.0, 10.001975, 9.998745 
1.6350147e+3, 1.9375902e+2, -884148.0, -1089187.9, -39717.484, 0.03631785, 0.19632693, -876723.3, 164458.28, 0.0, 10.001553, 9.998837 
1.6350107e+3, 2.0375805e+2, -847235.1, -990714.0, -49721.668, 0.011671601, 0.2064783, -831688.9, 111502.65, 0.0, 10.001003, 9.999106 
1.6350065e+3, 2.1375734e+2, -857558.25, -941856.56, -53509.707, 0.015121475, 0.21950041, -831591.06, 13608.748, 0.0, 10.000246, 9.999134 
1.6350023e+3, 2.2375678e+2, -838427.06, -858815.4, -48775.06, 0.014365802, 0.24298768, -798792.25, -51584.996, 0.0, 9.999605, 9.99934 
1.6349982e+3, 2.3375654e+2, -804247.25, -789111.4, -44087.953, 0.0054655126, 0.2802113, -751946.56, -102734.53, 0.0, 9.999156, 9.999361 
1.6349937e+3, 2.4375616e+2, -756139.5, -683332.3, -54762.43, -0.013498052, 0.294961, -653977.7, -102760.78, 0.0, 9.998677, 9.999645 
1.6349891e+3, 2.537556e+2, -732824.44, -617515.56, -58345.79, -0.04683085, 0.26797742, -593144.0, -139923.0, 0.0, 9.998149, 9.999679 
1.6349845e+3, 2.637552e+2, -702002.8, -534684.56, -52272.75, -0.06404614, 0.25446805, -519696.38, -164471.66, 0.0, 9.997614, 9.999831 
1.6349803e+3, 2.7375516e+2, -682761.8, -473170.66, -56597.973, -0.059446156, 0.2635423, -458863.56, -201637.25, 0.0, 9.997067, 9.999844 
1.6349758e+3, 2.8375548e+2, -620398.1, -316207.63, -50709.543, -0.08583168, 0.28382993, -307976.88, -148754.06, 0.0, 9.996495, 10.0005245 
1.634971e+3, 2.9375637e+2, -606166.0, -249640.0, -48732.18, -0.15207067, 0.3068676, -243099.0, -181887.81, 0.0, 9.995881, 10.000604 
1.634967e+3, 3.0375606e+2, -587183.94, -120648.0, -44510.453, -0.13368334, 0.17953229, -116439.39, -116439.39, 0.0, 9.99527, 10.00145 
1.634963e+3, 3.1375775e+2, -639807.44, -85756.445, -2675.4946, -0.13039958, 0.1930849, -85743.52, -85743.52, 0.0, 9.994647, 10.001989 
1.6450465e+3, 1.2377698e+2, -1082232.8, -1748690.4, -14851.245, 0.11340819, 0.17081876, -1081901.9, 645101.3, 0.020220434, 10.005929, 9.996909 
1.645041e+3, 1.3377461e+2, -1036990.94, -1664397.1, 29701.418, -0.07336089, 0.22860008, -1035588.0, 593439.75, 0.012944794, 10.00546, 9.997045 
1.6450387e+3, 1.4377126e+2, -978644.4, -1514263.8, 4680.939, 0.104219705, 0.16213565, -978603.44, 552457.44, 0.0063830446, 10.004845, 9.997696 
1.6450338e+3, 1.5376933e+2, -999727.8, -1469916.9, 4487.7217, 0.026664374, 0.19037013, -999685.0, 433393.88, 0.0020716307, 10.003988, 9.99774 
1.6450293e+3, 1.6376731e+2, -989035.4, -1390948.0, -11678.82, -0.006218817, 0.20672548, -988696.25, 346402.53, 0.00031690818, 10.003282, 9.99795 
1.6450253e+3, 1.7376521e+2, -956719.6, -1323376.6, -11478.636, 0.03594015, 0.19827549, -956360.6, 280760.4, 0.0000066388466, 10.002824, 9.997961 
1.645021e+3, 1.837635e+2, -887923.44, -1149458.5, -14071.477, 0.05505598, 0.19725223, -887168.5, 251970.4, 0.0, 10.002234, 9.998767 
1.6450164e+3, 1.9376248e+2, -900901.25, -1094210.9, -16994.871, 0.036011316, 0.20531586, -899418.5, 141730.1, 0.0, 10.001426, 9.998863 
1.6450116e+3, 2.0376155e+2, -878749.06, -1002076.6, -28782.469, 0.020521583, 0.2164739, -872362.5, 70795.56, 0.0, 10.000772, 9.999139 
1.6450067e+3, 2.1376087e+2, -837609.75, -928701.6, -25482.63, 0.011450498, 0.22732306, -830965.7, 14200.457, 0.0, 10.00037, 9.999164 
1.6450019e+3, 2.237603e+2, -803484.75, -841021.75, -19855.021, 0.005643517, 0.24885014, -794931.5, -47758.016, 0.0, 9.999843, 9.999347 
1.6449973e+3, 2.3376006e+2, -810833.5, -792250.7, -23853.088, 0.003750434, 0.28509218, -775943.25, -126764.914, 0.0, 9.999113, 9.99936 
1.6449924e+3, 2.4375969e+2, -776221.7, -688726.1, -33460.434, -0.013304516, 0.3008146, -677397.0, -126213.984, 0.0, 9.998523, 9.999681 
1.644987e+3, 2.537592e+2, -728876.25, -611203.3, -32353.2, -0.052900117, 0.27703077, -602894.7, -149708.34, 0.0, 9.998158, 9.999716 
1.6449821e+3, 2.6375878e+2, -697773.1, -537095.5, -28365.195, -0.06834209, 0.2634427, -532235.06, -177044.9, 0.0, 9.997664, 9.999789 
1.6449775e+3, 2.737587e+2, -701983.44, -488505.56, -30518.549, -0.050031476, 0.2695418, -484228.38, -227035.44, 0.0, 9.9969635, 9.999787 
1.6449724e+3, 2.8375906e+2, -638309.06, -317362.78, -23687.016, -0.07262567, 0.29486668, -315624.03, -156434.9, 0.0, 9.996342, 10.000589 
1.644967e+3, 2.9376012e+2, -606830.7, -240943.06, -29827.488, -0.1482464, 0.33011368, -238527.45, -177352.11, 0.0, 9.99584, 10.000682 
1.6449624e+3, 3.037597e+2, -597075.3, -132570.13, -33163.934, -0.12332251, 0.19092871, -130214.29, -130214.29, 0.0, 9.9952345, 10.001383 
1.6449577e+3, 3.1376147e+2, -660785.56, -84760.74, 14386.284, -0.1208067, 0.21908908, -84401.664, -84401.664, 0.0, 9.994458, 10.002086 
1.655053e+3, 1.2378138e+2, -1092079.0, -1769632.6, -28791.795, 0.17848355, 0.14858353, -1090857.6, 636101.6, 0.021558354, 10.005934, 9.996764 
1.6550462e+3, 1.3377894e+2, -1049350.9, -1690841.8, 11584.191, -0.1008597, 0.2182685, -1049141.8, 579842.9, 0.01385702, 10.005465, 9.996862 
1.6550429e+3, 1.4377551e+2, -987032.0, -1532861.6, -25997.545, 0.045133583, 0.1589811, -985796.56, 545222.56, 0.006878125, 10.00485, 9.997567 
1.655038e+3, 1.5377352e+2, -1007679.6, -1488071.1, -28142.24, 0.04761484, 0.19353549, -1006036.6, 427001.9, 0.0022582854, 10.003993, 9.997614 
1.655033e+3, 1.6377147e+2, -987680.0, -1389869.4, -30993.127, 0.03489716, 0.2154046, -985305.7, 349753.38, 0.00035339769, 10.003286, 9.997955 
1.6550277e+3, 1.7376947e+2, -954490.44, -1320203.6, -28573.703, -0.00034963037, 0.2118854, -952271.4, 284808.84, 0.000007849871, 10.002828, 9.997982 
1.6550227e+3, 1.8376774e+2, -892991.75, -1161271.3, -42837.24, -0.003828239, 0.21176791, -886317.8, 252780.42, 0.0, 10.002238, 9.998685 
1.6550179e+3, 1.9376655e+2, -907245.7, -1108843.0, -47268.332, 0.04325286, 0.21420453, -896713.0, 144396.89, 0.0, 10.0014305, 9.998761 
1.6550127e+3, 2.037656e+2, -871183.0, -987909.56, -45391.805, 0.056981895, 0.22429954, -855609.2, 87510.51, 0.0, 10.000776, 9.999235 
1.6550072e+3, 2.1376508e+2, -828273.25, -910729.25, -39954.98, 0.017256701, 0.24128987, -812089.1, 33036.324, 0.0, 10.000374, 9.999286 
1.6550016e+3, 2.2376454e+2, -808687.6, -853211.6, -45255.793, -0.0071266377, 0.26119983, -780514.7, -33382.293, 0.0, 9.999846, 9.999262 
1.6549963e+3, 2.3376405e+2, -818409.3, -809369.5, -50512.156, -0.006663197, 0.28323638, -763175.44, -114035.56, 0.0, 9.999117, 9.999242 
1.6549909e+3, 2.4376363e+2, -770830.6, -678887.0, -47810.953, -0.01912013, 0.29653615, -658531.6, -107386.43, 0.0, 9.998527, 9.999748 
1.6549852e+3, 2.537634e+2, -721816.8, -597891.4, -44778.547, -0.05124477, 0.28915173, -583404.8, -130258.664, 0.0, 9.998162, 9.999807 
1.6549797e+3, 2.637631e+2, -697319.9, -537694.6, -52174.746, -0.06773297, 0.2821567, -522153.9, -167005.06, 0.0, 9.997668, 9.999784 
1.6549742e+3, 2.7376288e+2, -702745.0, -491557.13, -55833.977, -0.06435231, 0.28031078, -477704.38, -220551.94, 0.0, 9.996967, 9.999766 
1.6549687e+3, 2.8376314e+2, -640279.94, -322535.53, -42416.348, -0.079971366, 0.29721233, -316970.72, -157821.05, 0.0, 9.996345, 10.000553 
1.6549632e+3, 2.9376402e+2, -609685.1, -247428.83, -47684.7, -0.11149328, 0.31890213, -241257.13, -180119.42, 0.0, 9.99584, 10.000639 
1.6549581e+3, 3.0376354e+2, -597366.3, -133876.44, -60290.766, -0.07506286, 0.17455111, -126162.2, -126162.2, 0.0, 9.995235, 10.001375 
1.6549519e+3, 3.1376582e+2, -645308.4, -53494.246, -14588.608, -0.1471264, 0.2571301, -53134.848, -53134.848, 0.0, 9.99446, 10.002301 
1.6650593e+3, 1.23786494e+2, -1020566.75, -1735813.6, -10067.852, 0.18136835, 0.15273921, -1020425.06, 706484.6, 0.022977654, 10.0064535, 9.996745 
1.6650517e+3, 1.3378398e+2, -1017964.2, -1680038.4, 34870.03, -0.091907844, 0.2178398, -1016132.75, 612802.6, 0.014827686, 10.005712, 9.996816 
1.6650479e+3, 1.4378044e+2, -984301.4, -1546198.9, -5145.8833, 0.047827255, 0.15791444, -984254.25, 546716.56, 0.0074083344, 10.004937, 9.997432 
1.665042e+3, 1.5377836e+2, -1001220.06, -1501578.9, -10687.081, 0.04057912, 0.19929114, -1000991.94, 432000.03, 0.0024604215, 10.004112, 9.997463 
1.6650361e+3, 1.637763e+2, -970519.75, -1378042.4, -3156.358, 0.024579013, 0.22545531, -970495.3, 364517.8, 0.0003940118, 10.003391, 9.997986 
1.6650306e+3, 1.7377435e+2, -950594.6, -1312337.0, 2511.3599, -0.0048692026, 0.22323088, -950577.2, 286456.06, 0.000009278141, 10.0028305, 9.998034 
1.6650248e+3, 1.8377264e+2, -898060.75, -1167942.1, -17432.736, -0.00693198, 0.22466274, -896939.3, 242111.58, 0.0, 10.002224, 9.998645 
1.6650191e+3, 1.9377144e+2, -894807.56, -1108773.3, -20240.32, 0.03475339, 0.22889471, -892909.75, 148153.69, 0.0, 10.001543, 9.998706 
1.6650134e+3, 2.0377046e+2, -852344.4, -976819.8, -11234.633, 0.048355743, 0.23976223, -851338.5, 91735.12, 0.0, 10.000899, 9.99925 
1.6650075e+3, 2.1376997e+2, -836425.06, -911963.8, -12603.905, 0.016638428, 0.25631332, -834377.56, 10701.275, 0.0, 10.000308, 9.999308 
1.6650015e+3, 2.237694e+2, -827039.1, -861786.0, -25149.38, -0.0047455337, 0.27269328, -813845.8, -66760.086, 0.0, 9.999722, 9.999263 
1.6649954e+3, 2.3376882e+2, -815437.7, -808435.0, -23671.832, -0.009532868, 0.28611925, -788006.94, -138913.16, 0.0, 9.999142, 9.999235 
1.6649894e+3, 2.4376836e+2, -771885.7, -681393.2, -14752.516, -0.021030465, 0.2992488, -679048.9, -127949.58, 0.0, 9.998529, 9.999729 
1.6649833e+3, 2.5376824e+2, -765925.25, -621777.0, -20047.795, -0.041888125, 0.3054482, -619040.75, -165941.11, 0.0, 9.997872, 9.999782 
1.6649774e+3, 2.63768e+2, -742540.8, -550649.75, -31048.287, -0.055339124, 0.29950866, -545751.2, -190649.03, 0.0, 9.997322, 9.999862 
1.6649713e+3, 2.737677e+2, -701106.44, -480825.6, -27093.717, -0.06323052, 0.27941823, -477542.13, -220436.11, 0.0, 9.996938, 9.999853 
1.6649652e+3, 2.8376794e+2, -623403.06, -303781.06, -7545.806, -0.08430851, 0.28832778, -303603.03, -144500.28, 0.0, 9.996416, 10.000647 
1.664959e+3, 2.93769e+2, -627365.25, -246240.27, -3898.611, -0.109177105, 0.315803, -246200.39, -185111.14, 0.0, 9.995679, 10.000723 
1.6649534e+3, 3.0376846e+2, -638667.4, -167934.58, -17102.248, -0.058482334, 0.16998793, -167314.06, -167314.06, 0.0, 9.995015, 10.0012455 
1.6649464e+3, 3.137707e+2, -640872.0, -41586.54, 15635.254, -0.14057802, 0.26249447, -41178.895, -41178.895, 0.0, 9.994451, 10.002386 
1.6750652e+3, 1.2379237e+2, -1013892.44, -1721310.1, -32635.29, 0.12049015, 0.1842404, -1012390.06, 714463.56, 0.024476636, 10.006459, 9.996844 
1.675058e+3, 1.3378972e+2, -1012501.56, -1668287.8, 6628.8223, -0.047986567, 0.22694029, -1012434.56, 616445.06, 0.015858086, 10.005713, 9.996896 
1.6750535e+3, 1.4378609e+2, -994394.06, -1568038.5, -36005.867, 0.10989235, 0.15864554, -992142.9, 538773.06, 0.007975874, 10.00494, 9.997282 
1.6750458e+3, 1.537839e+2, -1013152.2, -1528272.8, -41911.36, 0.006019778, 0.2076437, -1009764.44, 423174.47, 0.0026794984, 10.004119, 9.997278 
1.675039e+3, 1.6378178e+2, -966343.7, -1371340.5, -25505.736, -0.036066234, 0.23694728, -964743.7, 370217.25, 0.00043910698, 10.003398, 9.99803 
1.6750336e+3, 1.7377988e+2, -944759.9, -1301616.5, -18521.803, 0.021614004, 0.23233308, -943801.1, 293178.88, 0.000010990718, 10.002834, 9.998107 
1.6750276e+3, 1.8377823e+2, -898003.94, -1169015.6, -42499.08, 0.044339344, 0.23610254, -891495.7, 247501.3, 0.0, 10.002226, 9.998638 
1.6750205e+3, 1.937771e+2, -895570.5, -1111766.6, -45556.973, 0.010352601, 0.24938905, -886362.9, 154646.48, 0.0, 10.001547, 9.998685 
1.6750138e+3, 2.037761e+2, -856730.2, -987261.25, -33527.07, -0.0052445927, 0.26284528, -848622.3, 94397.66, 0.0, 10.000903, 9.999178 
1.6750076e+3, 2.1377547e+2, -841740.25, -924325.25, -34274.582, 0.009619659, 0.27238563, -829368.8, 15657.719, 0.0, 10.000312, 9.999223 
1.6750014e+3, 2.2377482e+2, -821164.56, -851020.8, -46362.418, 0.012582421, 0.28347924, -787386.2, -40352.426, 0.0, 9.999725, 9.999336 
1.6749947e+3, 2.337743e+2, -808010.9, -794488.8, -44618.395, -0.005140112, 0.2938185, -756122.1, -107081.43, 0.0, 9.9991455, 9.9993305 
1.674988e+3, 2.4377388e+2, -779173.94, -698111.56, -38212.723, -0.019351669, 0.30915487, -682938.25, -131892.31, 0.0, 9.998534, 9.999614 
1.6749814e+3, 2.5377372e+2, -775650.25, -643426.5, -43637.402, -0.025102777, 0.32604808, -630323.5, -177275.95, 0.0, 9.997876, 9.999633 
1.674975e+3, 2.637734e+2, -731487.25, -529020.6, -45512.426, -0.031396315, 0.31542927, -519260.38, -164209.61, 0.0, 9.997325, 10.0000105 
1.6749683e+3, 2.7377298e+2, -687347.4, -453498.94, -40299.28, -0.046408307, 0.26650634, -446748.97, -189694.53, 0.0, 9.996941, 10.000041 
1.6749614e+3, 2.8377336e+2, -607845.5, -272800.44, -32831.047, -0.08570161, 0.26800737, -269613.63, -110564.52, 0.0, 9.996419, 10.000859 
1.6749543e+3, 2.937749e+2, -612463.6, -216481.66, -30665.465, -0.14272894, 0.3217293, -214120.95, -153090.23, 0.0, 9.995682, 10.000928 
1.6749482e+3, 3.037744e+2, -656879.0, -206575.75, -37934.875, -0.07486039, 0.17851828, -203402.38, -203402.38, 0.0, 9.995016, 10.000981 
1.6749413e+3, 3.1377596e+2, -644571.56, -50018.99, -6042.16, -0.100192375, 0.23457797, -49957.59, -49957.59, 0.0, 9.9944515, 10.002329 
1.6850716e+3, 1.2379876e+2, -967247.4, -1695885.9, -12827.073, 0.10401463, 0.20355436, -967021.6, 759771.2, 0.026049774, 10.006787, 9.996864 
1.6850637e+3, 1.3379611e+2, -1017332.75, -1669437.4, 14503.787, -0.0319749, 0.24639103, -1017010.3, 611808.1, 0.01694759, 10.005684, 9.9969015 
1.6850585e+3, 1.4379247e+2, -1008417.8, -1576273.3, -16702.793, 0.12927188, 0.17802346, -1007926.94, 522927.78, 0.00858258, 10.004854, 9.997266 
1.68505e+3, 1.5379024e+2, -968082.3, -1508589.9, -9789.631, -0.0027684784, 0.2239797, -967905.06, 464973.16, 0.0029175156, 10.004441, 9.997256 
1.6850424e+3, 1.6378805e+2, -910258.6, -1343618.4, 5428.3267, -0.05335906, 0.24838823, -910190.6, 424710.06, 0.0004894315, 10.003782, 9.998034 
1.6850364e+3, 1.7378609e+2, -959027.8, -1307813.5, 6072.1245, 0.02642364, 0.23679587, -958922.1, 277997.94, 0.000013084683, 10.002735, 9.998112 
1.6850297e+3, 1.8378446e+2, -935299.06, -1187418.5, -10744.794, 0.054994527, 0.24154317, -934841.94, 204094.97, 0.0, 10.001974, 9.9986315 
1.685022e+3, 1.9378345e+2, -879884.44, -1105233.6, -12229.32, 0.00057845376, 0.26841146, -879222.75, 161725.83, 0.0, 10.001661, 9.998674 
1.6850147e+3, 2.0378247e+2, -824075.75, -974782.25, -6421.329, -0.021188723, 0.2861943, -823802.7, 119156.53, 0.0, 10.001143, 9.999146 
1.6850081e+3, 2.137817e+2, -847044.3, -930813.75, -5458.697, 0.010449881, 0.2853083, -846690.1, -1723.1605, 0.0, 10.000295, 9.999185 
1.6850011e+3, 2.2378099e+2, -838936.06, -853897.5, -10641.498, 0.02255118, 0.29040414, -833409.0, -86434.5, 0.0, 9.999581, 9.999384 
1.6849938e+3, 2.3378055e+2, -812182.8, -789877.9, -11271.767, 0.0009967979, 0.30228928, -785173.75, -136193.56, 0.0, 9.99909, 9.999388 
1.6849865e+3, 2.4378015e+2, -778957.06, -701581.1, -7720.5503, -0.0157372, 0.31922755, -700818.25, -149833.13, 0.0, 9.998553, 9.999578 
1.6849793e+3, 2.5377998e+2, -770679.06, -646607.0, -6995.236, -0.021114767, 0.33764684, -646213.9, -193226.16, 0.0, 9.997936, 9.99958 
1.6849723e+3, 2.6377964e+2, -726727.9, -508789.16, -1658.9847, -0.023819376, 0.32487494, -508776.53, -153785.78, 0.0, 9.997282, 10.000169 
1.6849652e+3, 2.7377936e+2, -727696.8, -452155.84, 3508.5273, -0.03178043, 0.26818556, -452111.2, -195118.75, 0.0, 9.996576, 10.000224 
1.6849577e+3, 2.8377986e+2, -664751.0, -294700.06, 4936.1465, -0.0762047, 0.26795375, -294634.22, -135648.47, 0.0, 9.996007, 10.000906 
1.6849498e+3, 2.937815e+2, -616377.06, -216133.98, -7403.046, -0.1537519, 0.330332, -215997.11, -155030.1, 0.0, 9.995647, 10.000946 
1.6849433e+3, 3.0378103e+2, -651479.0, -207665.4, -21596.096, -0.07590403, 0.1948438, -206617.02, -206617.02, 0.0, 9.995071, 10.000946 
1.6849357e+3, 3.1378233e+2, -674106.2, -39621.438, 27950.953, -0.08345007, 0.22488086, -38392.496, -38392.496, 0.0, 9.994145, 10.002547 
1.6950786e+3, 1.23805694e+2, -972794.94, -1704968.5, -47530.715, 0.12656395, 0.21289079, -969722.25, 757004.56, 0.027691767, 10.006786, 9.996802 
1.6950694e+3, 1.3380319e+2, -1022190.4, -1680286.0, -26826.283, -0.043490108, 0.27612254, -1021098.7, 607652.9, 0.018094067, 10.005691, 9.996825 
1.6950631e+3, 1.4379962e+2, -999809.6, -1560355.9, -35042.234, 0.10706095, 0.21557279, -997627.5, 533159.44, 0.00922896, 10.004864, 9.997373 
1.6950546e+3, 1.5379739e+2, -958103.8, -1489126.0, -25304.367, 0.013054707, 0.24792506, -956900.75, 475908.88, 0.0031761837, 10.004445, 9.99739 
1.6950464e+3, 1.6379513e+2, -912984.4, -1350245.8, -31403.418, -0.029252863, 0.25960034, -910740.56, 424091.78, 0.0005459454, 10.003784, 9.997989 
1.695039e+3, 1.7379299e+2, -963213.5, -1318211.3, -33395.477, 0.009712018, 0.23667678, -960099.2, 276754.13, 0.00001570412, 10.00274, 9.998038 
1.6950314e+3, 1.837913e+2, -935318.75, -1189257.6, -25482.79, 0.025692549, 0.24124587, -932786.8, 206083.97, 0.0, 10.001979, 9.998618 
1.6950236e+3, 1.9379045e+2, -879771.0, -1106414.4, -23497.338, 0.005114001, 0.2858789, -877360.5, 163520.69, 0.0, 10.001665, 9.998666 
1.695016e+3, 2.0378953e+2, -823643.8, -975040.5, -35689.242, -0.00028857592, 0.30967638, -815652.5, 127239.02, 0.0, 10.001146, 9.9991455 
1.6950084e+3, 2.1378863e+2, -846503.75, -930942.6, -37007.47, 0.018693756, 0.2952274, -832580.25, 12320.096, 0.0, 10.000298, 9.999184 
1.6950007e+3, 2.2378786e+2, -837196.6, -851705.44, -30066.01, 0.024810832, 0.29384914, -813522.25, -66614.055, 0.0, 9.999585, 9.999399 
1.694993e+3, 2.3378749e+2, -810606.0, -788103.56, -28682.383, 0.008914083, 0.3115057, -768544.6, -119631.7, 0.0, 9.999095, 9.999399 
1.6949852e+3, 2.4378712e+2, -775727.5, -696377.25, -29274.447, -0.010268806, 0.32933068, -686746.06, -135828.63, 0.0, 9.998557, 9.999614 
1.6949771e+3, 2.537869e+2, -767443.1, -641333.56, -29004.0, -0.030267196, 0.34013683, -634982.75, -182062.05, 0.0, 9.99794, 9.999616 
1.6949695e+3, 2.6378667e+2, -714801.2, -485596.16, -26798.871, -0.033112127, 0.32800725, -482504.5, -127581.766, 0.0, 9.997287, 10.000327 
1.694962e+3, 2.737867e+2, -714940.9, -427123.72, -21921.713, -0.019860273, 0.2848989, -425463.63, -168542.97, 0.0, 9.996579, 10.000396 
1.694954e+3, 2.8378725e+2, -673577.1, -314014.0, -8898.69, -0.05602072, 0.2885823, -313793.88, -154880.42, 0.0, 9.996009, 10.000774 
1.6949457e+3, 2.9378864e+2, -629127.25, -243291.83, -19697.408, -0.14172941, 0.34111515, -242288.86, -181389.69, 0.0, 9.995647, 10.00076 
1.6949385e+3, 3.0378827e+2, -637679.06, -179839.38, -53182.04, -0.06160945, 0.21898422, -173743.0, -173743.0, 0.0, 9.995072, 10.001139 
1.6949297e+3, 3.1378973e+2, -639371.4, 31387.096, -9171.64, -0.09124838, 0.23731776, 31512.482, 31512.482, 0.0, 9.994147, 10.003036 
1.7050855e+3, 1.2381356e+2, -995842.9, -1719161.1, -4294.395, 0.14683774, 0.22243848, -995817.4, 730833.4, 0.029398922, 10.00665, 9.996767 
1.7050752e+3, 1.3381103e+2, -981010.75, -1664426.3, 12631.441, -0.045872018, 0.28656584, -980777.3, 647898.7, 0.019294634, 10.006007, 9.99678 
1.705068e+3, 1.4380747e+2, -942591.75, -1532625.8, 9228.495, 0.096492924, 0.22982037, -942447.44, 588263.94, 0.009914274, 10.005266, 9.997368 
1.7050591e+3, 1.5380524e+2, -969839.06, -1494474.0, 9768.375, 0.02514108, 0.26261097, -969657.25, 463076.84, 0.003456453, 10.004366, 9.997391 
1.7050503e+3, 1.6380297e+2, -942400.0, -1364272.8, -5933.4854, -0.011443854, 0.27352858, -942316.6, 392440.1, 0.00060951454, 10.003583, 9.997989 
1.7050417e+3, 1.738008e+2, -927863.0, -1301407.1, -4257.737, 0.0058439593, 0.24866155, -927814.44, 308963.3, 0.000019016989, 10.002986, 9.998035 
1.7050335e+3, 1.8379907e+2, -893015.44, -1175494.8, 13024.91, 0.015037844, 0.25224903, -892416.2, 246379.45, 0.0, 10.0023, 9.998557 
1.7050254e+3, 1.9379815e+2, -912320.7, -1129894.3, 11070.155, 0.011345929, 0.29720405, -911758.9, 129048.195, 0.0, 10.001477, 9.998594 
1.7050171e+3, 2.0379724e+2, -877042.0, -996307.5, -7231.288, 0.012517494, 0.32252872, -876605.1, 66212.51, 0.0, 10.000763, 9.999183 
1.7050086e+3, 2.1379642e+2, -854822.56, -929346.8, -6073.256, 0.02112385, 0.3119284, -854330.9, -9505.503, 0.0, 10.000218, 9.999231 
1.7050003e+3, 2.2379565e+2, -829825.75, -847796.2, 6271.7354, 0.02308959, 0.3083788, -827853.4, -81020.49, 0.0, 9.999637, 9.999399 
1.704992e+3, 2.3379515e+2, -826520.4, -796466.4, 5917.2847, 0.013098557, 0.31451818, -795343.3, -146504.8, 0.0, 9.998991, 9.99939 
1.7049837e+3, 2.4379477e+2, -801523.0, -700550.5, 3063.7488, -0.004395882, 0.32742894, -700457.6, -149614.44, 0.0, 9.998347, 9.999685 
1.704975e+3, 2.5379467e+2, -795471.5, -645705.44, 5857.072, -0.029291615, 0.34425065, -645476.7, -192631.33, 0.0, 9.997711, 9.999695 
1.7049667e+3, 2.6379463e+2, -732264.06, -481916.66, 8028.762, -0.033432577, 0.33952987, -481659.44, -126813.62, 0.0, 9.997118, 10.000432 
1.7049585e+3, 2.737948e+2, -706356.0, -410815.2, 7607.4165, -0.016932892, 0.3040021, -410619.5, -153777.89, 0.0, 9.996589, 10.000502 
1.7049499e+3, 2.8379542e+2, -683149.6, -318214.1, 22687.793, -0.04786799, 0.30338645, -316809.03, -157974.66, 0.0, 9.995944, 10.000775 
1.7049411e+3, 2.9379657e+2, -709260.4, -284310.8, 23556.31, -0.121781036, 0.33852962, -283009.0, -222186.22, 0.0, 9.995111, 10.000736 
1.7049336e+3, 3.0379644e+2, -712329.25, -213526.13, -6671.857, -0.0380647, 0.24104322, -213436.9, -213436.9, 0.0, 9.994554, 10.001156 
1.7049238e+3, 3.1379792e+2, -582518.6, 84964.78, 16771.555, -0.1167725, 0.25657296, 85385.93, 85385.93, 0.0, 9.994428, 10.003267 
1.7150922e+3, 1.238224e+2, -997744.06, -1721959.4, -23597.654, 0.16084759, 0.23344734, -996975.94, 729588.5, 0.03116703, 10.006655, 9.996747 
1.7150812e+3, 1.3381964e+2, -982954.6, -1667973.0, -11744.858, -0.039638016, 0.27827293, -982753.3, 645838.5, 0.02054612, 10.006009, 9.996756 
1.7150734e+3, 1.4381601e+2, -950946.0, -1550428.3, -23415.23, 0.09672033, 0.22120686, -950032.8, 580595.4, 0.010637432, 10.005269, 9.997246 
1.7150635e+3, 1.5381378e+2, -978531.25, -1514333.3, -24308.068, 0.0334714, 0.26827055, -977430.7, 455220.7, 0.0037588668, 10.004372, 9.997252 
1.7150539e+3, 1.6381156e+2, -938763.56, -1358910.1, -29647.885, 0.00017886583, 0.29036474, -936681.75, 397992.06, 0.00068088766, 10.00359, 9.998023 
1.7150448e+3, 1.7380953e+2, -922991.6, -1293005.5, -26592.146, 0.014137951, 0.27247775, -921090.3, 315603.06, 0.00002321552, 10.002991, 9.998092 
1.7150357e+3, 1.8380776e+2, -900564.0, -1192508.3, -16880.527, 0.021843145, 0.27413476, -899591.2, 239120.36, 0.0, 10.002304, 9.99844 
1.7150268e+3, 1.9380654e+2, -921583.2, -1150564.6, -19592.814, 0.019047502, 0.30247614, -919918.8, 120807.555, 0.0, 10.001481, 9.998451 
1.715018e+3, 2.0380554e+2, -871799.44, -986852.0, -28470.332, 0.017212113, 0.32530817, -865139.8, 77597.99, 0.0, 10.000767, 9.999248 
1.7150089e+3, 2.13805e+2, -847837.7, -916340.9, -25852.129, 0.017690301, 0.33532566, -839176.5, 5565.8926, 0.0, 10.000223, 9.999321 
1.7149998e+3, 2.2380431e+2, -830805.25, -851384.9, -16871.936, 0.017128136, 0.3336922, -821332.94, -74583.83, 0.0, 9.999641, 9.999374 
1.714991e+3, 2.3380348e+2, -828707.1, -802458.9, -17479.996, 0.013144125, 0.31134447, -793724.56, -144967.05, 0.0, 9.998995, 9.999348 
1.7149821e+3, 2.4380301e+2, -794016.5, -686316.6, -19968.69, 0.0013667021, 0.3137472, -682733.44, -131970.55, 0.0, 9.998351, 9.999783 
1.7149729e+3, 2.5380322e+2, -786802.0, -629183.3, -16878.934, -0.018252203, 0.35014194, -627396.06, -174633.8, 0.0, 9.997715, 9.999808 
1.7149639e+3, 2.638034e+2, -728782.3, -476118.16, -11131.616, -0.024756962, 0.35957086, -475628.7, -120867.98, 0.0, 9.997121, 10.000472 
1.7149551e+3, 2.7380362e+2, -704057.9, -407076.28, -10937.901, -0.023289828, 0.32553056, -406673.97, -149917.88, 0.0, 9.996592, 10.000527 
1.7149459e+3, 2.8380418e+2, -673896.7, -299891.06, -6457.555, -0.052325524, 0.3122017, -299779.6, -141030.17, 0.0, 9.995946, 10.000902 
1.7149366e+3, 2.9380524e+2, -699653.56, -265502.72, -6997.1426, -0.094494894, 0.32232904, -265389.97, -204651.13, 0.0, 9.995113, 10.000866 
1.7149284e+3, 3.0380544e+2, -723831.9, -238575.48, -13263.714, -0.0057654753, 0.26148432, -238213.2, -238213.2, 0.0, 9.994555, 10.000984 
1.7149179e+3, 3.1380683e+2, -585685.2, 77396.125, 8844.168, -0.1598895, 0.2871012, 77514.07, 77514.07, 0.0, 9.99443, 10.003216 
1.725099e+3, 1.2383172e+2, -976994.3, -1712496.6, 3917.6064, 0.15838163, 0.22936252, -976973.5, 749500.1, 0.032992773, 10.00682, 9.996733 
1.7250873e+3, 1.3382906e+2, -984834.9, -1669695.4, 11129.13, -0.03956113, 0.28426564, -984654.06, 643846.3, 0.021846345, 10.006011, 9.996742 
1.7250787e+3, 1.4382547e+2, -957461.2, -1556853.4, 524.6418, 0.09781962, 0.23491627, -957460.75, 573075.6, 0.011397331, 10.005244, 9.997212 
1.725068e+3, 1.5382312e+2, -957831.56, -1508170.5, 5728.22, 0.041328214, 0.27289113, -957771.94, 474788.84, 0.0040834663, 10.004535, 9.997215 
1.7250578e+3, 1.6382086e+2, -906547.3, -1345383.3, 7507.3613, 0.0100820605, 0.29372063, -906418.94, 428164.78, 0.00076068443, 10.003822, 9.998003 
1.725048e+3, 1.7381892e+2, -907253.1, -1287579.3, 5093.418, 0.017709276, 0.28720576, -907184.94, 329417.7, 0.000028535813, 10.00311, 9.998071 
1.7250381e+3, 1.8381715e+2, -892889.4, -1194785.4, 8853.034, 0.024435893, 0.29334158, -892629.94, 245990.92, 0.0, 10.002384, 9.998384 
1.7250286e+3, 1.9381581e+2, -904096.44, -1149058.4, 10593.896, 0.029307561, 0.31523558, -903639.1, 136997.78, 0.0, 10.001633, 9.998387 
1.7250188e+3, 2.0381474e+2, -850356.7, -980229.1, 8262.589, 0.025599603, 0.33611926, -849833.1, 92815.93, 0.0, 10.000932, 9.999212 
1.7250091e+3, 2.1381423e+2, -837161.0, -914732.94, 2149.665, 0.009116037, 0.3519076, -837101.5, 7552.14, 0.0, 10.000314, 9.999287 
1.7249994e+3, 2.2381353e+2, -829185.56, -846606.9, 3053.443, 0.0049494514, 0.35222116, -828665.9, -82005.72, 0.0, 9.999638, 9.999407 
1.72499e+3, 2.338127e+2, -844634.1, -805576.94, 7220.777, 0.017910577, 0.32498777, -804284.7, -155616.45, 0.0, 9.998869, 9.999386 
1.7249803e+3, 2.438122e+2, -817472.44, -694288.94, 8838.016, 0.013139565, 0.32212377, -693658.06, -142984.38, 0.0, 9.9981785, 9.999809 
1.7249706e+3, 2.5381243e+2, -800118.5, -632746.06, 5064.221, -0.014918461, 0.35445327, -632593.0, -179919.69, 0.0, 9.997615, 9.99983 
1.724961e+3, 2.6381266e+2, -740584.8, -471668.0, 7552.6504, -0.021954913, 0.3673595, -471456.06, -116785.02, 0.0, 9.997, 10.000559 
1.7249517e+3, 2.738131e+2, -739965.56, -413692.06, 12212.574, -0.00963085, 0.3450486, -413235.6, -156571.08, 0.0, 9.996302, 10.00062 
1.7249419e+3, 2.838137e+2, -706764.06, -306532.34, 15944.652, -0.037967432, 0.3276153, -305898.13, -147240.7, 0.0, 9.995684, 10.000981 
1.7249317e+3, 2.9381463e+2, -684395.06, -250171.25, 10290.274, -0.09186808, 0.3182662, -249927.53, -189279.67, 0.0, 9.995187, 10.000934 
1.7249231e+3, 3.0381522e+2, -718488.2, -238047.3, 14368.857, 0.00081130944, 0.29188064, -237617.94, -237617.94, 0.0, 9.994604, 10.000963 
1.724912e+3, 3.1381634e+2, -663377.3, 45417.902, 44472.973, -0.16174224, 0.29494014, 48197.438, 48197.438, 0.0, 9.9938755, 10.003262 
1.7351057e+3, 1.2384159e+2, -979844.5, -1715534.8, -21333.904, 0.13719982, 0.21238495, -979226.4, 747151.1, 0.03487667, 10.006818, 9.996714 
1.7350931e+3, 1.3383928e+2, -985926.75, -1671630.4, -19572.785, -0.04604054, 0.30418035, -985368.5, 643032.9, 0.023194455, 10.006015, 9.996729 
1.7350839e+3, 1.4383587e+2, -954087.75, -1550705.4, -26350.441, 0.09895135, 0.27024716, -952926.2, 577509.75, 0.012192178, 10.005249, 9.997253 
1.7350726e+3, 1.5383326e+2, -953589.44, -1500489.6, -21144.271, 0.048389804, 0.2764456, -952773.2, 479689.0, 0.0044291248, 10.004539, 9.997268 
1.7350617e+3, 1.6383086e+2, -911845.5, -1357618.0, -19375.178, 0.017798983, 0.28371856, -911005.0, 423481.38, 0.00084910233, 10.003825, 9.997919 
1.735051e+3, 1.7382896e+2, -913826.9, -1302948.8, -21620.688, 0.016554454, 0.2930317, -912629.25, 323876.28, 0.000035226243, 10.003115, 9.997964 
1.7350405e+3, 1.8382724e+2, -892451.3, -1195542.0, -18957.88, 0.022833016, 0.3102493, -891270.1, 247253.56, 0.0, 10.002389, 9.998379 
1.7350303e+3, 1.9382595e+2, -902947.94, -1148190.5, -17371.281, 0.041797493, 0.33526167, -901723.56, 138815.33, 0.0, 10.0016365, 9.998393 
1.7350198e+3, 2.0382479e+2, -859729.9, -1001171.6, -15172.001, 0.0369184, 0.35447273, -858120.7, 84431.04, 0.0, 10.000936, 9.999067 
1.7350091e+3, 2.1382403e+2, -848138.94, -938965.5, -20415.719, -0.0049705175, 0.36180627, -843761.0, 798.3524, 0.0, 10.000318, 9.99912 
1.7349988e+3, 2.2382331e+2, -822867.94, -834897.7, -24503.738, -0.013714338, 0.3645582, -803651.7, -57085.254, 0.0, 9.999641, 9.999487 
1.7349888e+3, 2.3382276e+2, -836203.5, -789579.0, -20814.277, 0.027433533, 0.3556222, -781639.1, -133067.86, 0.0, 9.998873, 9.9994955 
1.7349787e+3, 2.438223e+2, -820715.56, -702569.44, -12213.424, 0.030873744, 0.352599, -701320.1, -150743.98, 0.0, 9.998183, 9.999752 
1.7349681e+3, 2.5382215e+2, -805245.44, -644680.2, -14887.619, -0.019637417, 0.35708973, -643311.5, -190732.31, 0.0, 9.997618, 9.999748 
1.734958e+3, 2.6382232e+2, -731431.7, -453858.38, -17213.408, -0.025452964, 0.3627372, -452794.97, -98217.38, 0.0, 9.997003, 10.000682 
1.7349483e+3, 2.7382314e+2, -729042.75, -392304.63, -13127.776, 0.023637032, 0.36265993, -391793.63, -135225.92, 0.0, 9.9963045, 10.000767 
1.7349379e+3, 2.8382385e+2, -704716.5, -303409.28, -2695.6414, -0.0052257054, 0.34987292, -303391.2, -144831.84, 0.0, 9.995687, 10.001002 
1.7349267e+3, 2.9382467e+2, -684448.5, -251056.61, -7279.886, -0.11428246, 0.32671347, -250934.36, -190383.55, 0.0, 9.995188, 10.000929 
1.7349175e+3, 3.0382565e+2, -709521.1, -220319.05, -11365.339, -0.018736752, 0.3330847, -220055.14, -220055.14, 0.0, 9.994605, 10.001086 
1.7349063e+3, 3.138264e+2, -653867.4, 63801.363, 11440.21, -0.12101625, 0.28744587, 63983.684, 63983.684, 0.0, 9.993878, 10.003387 
1.7451122e+3, 1.23852424e+2, -997973.6, -1721881.6, -2997.289, 0.12564053, 0.23807694, -997961.2, 728312.3, 0.036819603, 10.006695, 9.996727 
1.7450993e+3, 1.3385016e+2, -988187.9, -1668748.6, -3834.1501, -0.042062484, 0.3304469, -988166.3, 640130.8, 0.024587521, 10.005993, 9.9967575 
1.7450893e+3, 1.4384678e+2, -947201.5, -1535847.6, -6900.068, 0.10890687, 0.29619592, -947120.6, 583210.25, 0.013017767, 10.005255, 9.997351 
1.7450772e+3, 1.5384412e+2, -956615.8, -1489661.1, 1664.8372, 0.05170161, 0.28605497, -956610.6, 475746.2, 0.0047929315, 10.004469, 9.997374 
1.7450655e+3, 1.638417e+2, -927559.8, -1374245.0, 8649.381, 0.018909337, 0.28858304, -927392.4, 406988.66, 0.0009454653, 10.003759, 9.997835 
1.7450541e+3, 1.7383981e+2, -914531.5, -1315628.5, 5508.649, 0.022709299, 0.31133103, -914455.8, 321944.97, 0.000043436936, 10.003166, 9.997851 
1.7450431e+3, 1.8383808e+2, -878939.1, -1188736.6, 3303.2974, 0.02974231, 0.33437195, -878903.9, 259515.4, 0.0000000000000006446772, 10.002482, 9.998379 
1.7450319e+3, 1.9383673e+2, -898183.5, -1144270.6, 4380.439, 0.042228173, 0.35282224, -898105.56, 142328.83, 0.0, 10.001665, 9.998405 
1.7450209e+3, 2.0383552e+2, -869850.6, -1016503.3, 13198.045, 0.036683932, 0.36786574, -868672.3, 73775.5, 0.0, 10.000914, 9.998971 
1.7450096e+3, 2.1383464e+2, -864025.8, -959437.6, 11698.857, 0.0032219142, 0.37560755, -862612.3, -18155.377, 0.0, 10.000266, 9.999002 
1.7449985e+3, 2.2383387e+2, -835175.56, -842493.06, 1298.8228, -0.0032924947, 0.38204193, -834951.8, -88487.16, 0.0, 9.999566, 9.99947 
1.7449878e+3, 2.338334e+2, -848633.8, -795899.5, -4957.699, 0.029927049, 0.38116175, -795437.44, -146968.52, 0.0, 9.998792, 9.99949 
1.7449768e+3, 2.4383296e+2, -830371.8, -699191.25, 8779.185, 0.030001858, 0.37592268, -698606.3, -148132.78, 0.0, 9.998085, 9.99982 
1.7449658e+3, 2.538327e+2, -819571.8, -642848.8, 18206.715, -0.015859103, 0.36373347, -640992.56, -188515.64, 0.0, 9.997485, 9.999823 
1.7449549e+3, 2.6383293e+2, -753900.9, -465029.38, 14305.293, -0.015888337, 0.36944178, -464322.7, -109847.74, 0.0, 9.996853, 10.000675 
1.7449446e+3, 2.7383396e+2, -749850.56, -404280.16, 5268.087, 0.038717993, 0.39154315, -404199.84, -147735.98, 0.0, 9.996174, 10.000746 
1.7449336e+3, 2.8383467e+2, -717116.9, -294919.0, 16678.938, 0.0075579076, 0.37466514, -294261.1, -135805.45, 0.0, 9.995543, 10.001128 
1.7449218e+3, 2.9383525e+2, -706919.0, -245588.22, 22561.771, -0.11206179, 0.31828904, -244487.44, -184039.28, 0.0, 9.994967, 10.001071 
1.744912e+3, 3.0383673e+2, -743483.44, -224782.3, 17891.594, -0.0108690765, 0.35902357, -224165.9, -224165.9, 0.0, 9.994324, 10.001189 
1.7449e+3, 3.1383744e+2, -699409.8, 39599.883, 28818.572, -0.11137976, 0.29673538, 40721.992, 40721.992, 0.0, 9.99358, 10.003364 
1.755119e+3, 1.2386424e+2, -996969.1, -1717639.1, -24608.879, 0.11897796, 0.30539972, -996129.8, 730031.4, 0.03881763, 10.006696, 9.996758 
1.7551054e+3, 1.3386168e+2, -984732.5, -1660403.3, -30251.424, -0.027783118, 0.3628248, -983380.75, 644806.44, 0.026018962, 10.005994, 9.996816 
1.7550947e+3, 1.4385825e+2, -937494.25, -1515746.9, -35915.56, 0.12767833, 0.31312516, -935272.06, 594948.8, 0.013867779, 10.005258, 9.997491 
1.7550817e+3, 1.5385571e+2, -945260.0, -1467676.5, -27983.127, 0.050957236, 0.30150855, -943765.3, 488479.25, 0.00517075, 10.004476, 9.997523 
1.755069e+3, 1.6385336e+2, -933245.8, -1388063.9, -14415.147, 0.013036663, 0.307996, -932789.4, 401478.44, 0.0010481908, 10.003766, 9.997739 
1.7550574e+3, 1.7385149e+2, -922827.75, -1334387.6, -16673.482, 0.03560226, 0.34187016, -922153.4, 314135.22, 0.000053070675, 10.00317, 9.997722 
1.7550457e+3, 1.8384969e+2, -878449.44, -1189096.9, -26335.615, 0.044211354, 0.3653347, -876232.6, 262075.28, 0.0000000010737394, 10.002486, 9.998376 
1.7550334e+3, 1.938482e+2, -896411.3, -1142367.8, -25987.031, 0.030545844, 0.36807305, -893695.56, 146628.03, 0.0, 10.00167, 9.998417 
1.7550217e+3, 2.0384687e+2, -873371.3, -1025489.44, -11286.259, 0.025131216, 0.3769149, -872538.5, 69798.91, 0.0, 10.000918, 9.998909 
1.7550102e+3, 2.1384603e+2, -868552.06, -970470.06, -11950.04, 0.033611085, 0.39311305, -867169.7, -22822.906, 0.0, 10.000271, 9.998926 
1.7549986e+3, 2.238452e+2, -843097.7, -860657.75, -26647.72, 0.035628248, 0.40415597, -823820.8, -77465.37, 0.0, 9.999571, 9.999344 
1.7549866e+3, 2.338446e+2, -857264.0, -815329.5, -33181.145, 0.024852546, 0.40160757, -797046.1, -148684.42, 0.0, 9.9987955, 9.999355 
1.7549747e+3, 2.438441e+2, -816764.06, -672331.5, -13548.039, 0.010070928, 0.39241195, -671071.7, -120705.11, 0.0, 9.998089, 10.000004 
1.7549634e+3, 2.5384402e+2, -803124.75, -610147.8, -3218.7146, -0.0038504885, 0.3747113, -610094.1, -157726.89, 0.0, 9.997489, 10.000047 
1.754952e+3, 2.638444e+2, -763571.9, -486502.97, -9986.404, 0.0063763615, 0.3879245, -486143.5, -131779.69, 0.0, 9.996857, 10.000527 
1.7549407e+3, 2.7384543e+2, -763529.9, -433752.53, -19195.627, 0.035501167, 0.43193883, -432638.97, -176285.13, 0.0, 9.996176, 10.000545 
1.7549291e+3, 2.83846e+2, -701427.6, -263406.5, -4557.4146, 0.0002633963, 0.40200695, -263359.1, -105011.76, 0.0, 9.9955435, 10.001346 
1.754917e+3, 2.9384634e+2, -686950.3, -205402.33, 1319.9049, -0.08649786, 0.292335, -205398.72, -145057.7, 0.0, 9.99497, 10.001347 
1.7549066e+3, 3.0384833e+2, -737626.7, -213570.3, -9069.32, 0.022719989, 0.36936232, -213413.39, -213413.39, 0.0, 9.994326, 10.0012665 
1.7548934e+3, 3.138494e+2, -713318.3, 10656.889, -6633.7534, -0.13233629, 0.33868697, 10717.668, 10717.668, 0.0, 9.993577, 10.003167 
1.7651255e+3, 1.23876534e+2, -991341.8, -1709274.5, 18806.258, 0.11998833, 0.3317897, -990849.5, 735193.06, 0.04086617, 10.006728, 9.996801 
1.7651114e+3, 1.3387385e+2, -991138.0, -1655200.0, 8744.398, -0.022770803, 0.37116635, -991022.9, 637046.56, 0.027483525, 10.005925, 9.996882 
1.7650999e+3, 1.438705e+2, -941211.25, -1513037.3, 3365.893, 0.13319986, 0.32246202, -941191.44, 588910.94, 0.014737025, 10.00522, 9.997526 
1.7650862e+3, 1.5386815e+2, -914517.25, -1448641.0, 2544.9375, 0.052360572, 0.3257599, -914505.1, 517619.22, 0.005558585, 10.004675, 9.997556 
1.765073e+3, 1.6386582e+2, -904044.6, -1378396.3, 9913.499, 0.01469352, 0.33566192, -903837.56, 430309.78, 0.0011552874, 10.003989, 9.997696 
1.7650607e+3, 1.7386374e+2, -938183.9, -1347578.9, 12133.386, 0.043135453, 0.35540175, -937824.6, 298345.38, 0.00006374245, 10.003093, 9.997667 
1.765048e+3, 1.8386184e+2, -900961.6, -1203885.4, 7008.3247, 0.050314, 0.371464, -900799.6, 237390.78, 0.000000009428086, 10.002351, 9.998338 
1.7650351e+3, 1.9386032e+2, -872838.94, -1135093.0, 3160.1855, 0.024431232, 0.37757295, -872800.8, 167404.97, 0.0, 10.001852, 9.998378 
1.7650226e+3, 2.0385896e+2, -841565.9, -1020125.8, 9839.2, 0.017089978, 0.38918048, -841025.4, 101194.6, 0.0, 10.001183, 9.998817 
1.7650105e+3, 2.1385802e+2, -878794.06, -986218.7, 6218.37, 0.039324835, 0.40651512, -878435.3, -34204.79, 0.0, 10.000249, 9.998827 
1.764998e+3, 2.2385715e+2, -861652.9, -872781.8, -2637.7068, 0.044336088, 0.41841725, -861059.3, -114819.3, 0.0, 9.99946, 9.999312 
1.7649853e+3, 2.338565e+2, -844753.2, -812041.0, -1178.3086, 0.019563707, 0.41633797, -811998.6, -163752.02, 0.0, 9.998896, 9.999329 
1.7649728e+3, 2.4385604e+2, -797493.75, -657380.25, 15351.031, 0.003176625, 0.40963966, -655718.1, -105466.89, 0.0, 9.9981985, 10.000052 
1.7649609e+3, 2.538561e+2, -826889.44, -614994.7, 12279.772, 0.006897728, 0.39893046, -614285.4, -162034.83, 0.0, 9.9973, 10.000104 
1.7649488e+3, 2.638565e+2, -807436.6, -509821.44, 7862.4634, 0.021641348, 0.415549, -509613.88, -155367.23, 0.0, 9.996568, 10.0005045 
1.7649369e+3, 2.7385744e+2, -778225.0, -444389.4, 11415.189, 0.034599036, 0.45345634, -443999.53, -187761.69, 0.0, 9.996094, 10.000509 
1.7649245e+3, 2.8385794e+2, -702948.1, -249247.5, 25604.752, -0.0038555185, 0.41322625, -247807.06, -89575.09, 0.0, 9.995472, 10.001476 
1.764912e+3, 2.938584e+2, -727096.8, -206836.05, 21964.604, -0.07208417, 0.29658505, -205910.38, -145685.9, 0.0, 9.99462, 10.001504 
1.764901e+3, 3.038609e+2, -775618.0, -207991.47, 16370.12, 0.04658346, 0.40501934, -207519.75, -207519.75, 0.0, 9.993965, 10.001477 
1.764887e+3, 3.1386197e+2, -722052.3, -7138.5156, 21674.398, -0.13094199, 0.3570926, -6482.005, -6482.005, 0.0, 9.993579, 10.003042 
1.7751323e+3, 1.23889364e+2, -990244.1, -1703630.9, -6067.9136, 0.12611875, 0.31991932, -990192.5, 735724.7, 0.042969972, 10.006725, 9.996844 
1.7751172e+3, 1.3388674e+2, -987161.06, -1645886.4, -21594.145, -0.027748859, 0.3565174, -986453.94, 641489.6, 0.028983915, 10.005928, 9.996947 
1.7751051e+3, 1.4388353e+2, -946580.3, -1524486.0, -18317.63, 0.12470484, 0.3247132, -946000.3, 583974.94, 0.01562517, 10.005223, 9.997446 
1.775091e+3, 1.538814e+2, -920632.94, -1462252.8, -18094.203, 0.055948887, 0.3586502, -920029.1, 511966.97, 0.005954358, 10.004678, 9.997462 
1.7750771e+3, 1.6387904e+2, -903532.2, -1378615.3, -22433.773, 0.023671396, 0.37120697, -902475.2, 431544.38, 0.0012651546, 10.003993, 9.997694 
1.7750639e+3, 1.7387658e+2, -936517.06, -1346131.4, -21516.127, 0.045234334, 0.35221997, -935390.0, 300655.13, 0.000074936936, 10.0030985, 9.997675 
1.7750505e+3, 1.8387449e+2, -906021.0, -1216359.3, -13009.616, 0.04805002, 0.3534338, -905476.6, 232590.25, 0.000000028818846, 10.002357, 9.998251 
1.775037e+3, 1.9387309e+2, -879198.1, -1149898.8, -15084.385, 0.023482472, 0.38125753, -878360.2, 161721.14, 0.0, 10.001857, 9.998276 
1.7750236e+3, 2.0387176e+2, -849824.56, -1038749.2, -22953.348, 0.0116406875, 0.4041281, -847075.9, 95019.89, 0.0, 10.001185, 9.99869 
1.7750105e+3, 2.1387061e+2, -887160.5, -1005225.06, -28227.926, 0.02006085, 0.4160859, -880758.7, -36650.2, 0.0, 10.000254, 9.998695 
1.7749973e+3, 2.2386967e+2, -857233.4, -865258.4, -24513.408, 0.022848714, 0.42550793, -836406.25, -90287.375, 0.0, 9.999465, 9.999363 
1.7749842e+3, 2.338691e+2, -838712.3, -801311.0, -21298.688, 0.014138252, 0.42533028, -791668.25, -143544.03, 0.0, 9.9989, 9.999401 
1.774971e+3, 2.4386874e+2, -803541.56, -671743.06, -16115.636, 0.0090849325, 0.42726913, -669801.1, -119672.95, 0.0, 9.998203, 9.999953 
1.7749582e+3, 2.5386888e+2, -835086.3, -633391.1, -20564.826, 0.016141722, 0.43632194, -631315.7, -179188.11, 0.0, 9.997303, 9.999977 
1.7749456e+3, 2.6386923e+2, -800335.0, -496317.9, -10862.562, 0.029601082, 0.45235005, -495930.28, -141806.11, 0.0, 9.996571, 10.000598 
1.774933e+3, 2.7386996e+2, -768908.06, -426464.72, -5402.013, 0.03455026, 0.45602307, -426379.53, -170262.84, 0.0, 9.996097, 10.000632 
1.77492e+3, 2.838705e+2, -699709.44, -243665.83, -4427.2563, -0.0065239244, 0.4083422, -243622.86, -85512.43, 0.0, 9.995474, 10.001514 
1.7749067e+3, 2.9387134e+2, -724398.44, -202041.67, -9546.279, -0.06800784, 0.3318777, -201867.27, -141767.9, 0.0, 9.994621, 10.001538 
1.7748952e+3, 3.0387428e+2, -752018.25, -159869.42, 1044.7384, 0.062003877, 0.46674457, -159867.58, -159867.58, 0.0, 9.993966, 10.001809 
1.7748807e+3, 3.1387517e+2, -727331.75, -19453.467, -859.0069, -0.108604014, 0.36974972, -19452.424, -19452.424, 0.0, 9.993582, 10.002958 
1.785139e+3, 1.2390294e+2, -1018745.8, -1718293.4, 17120.037, 0.12631348, 0.32421714, -1018327.1, 707457.7, 0.045143127, 10.006543, 9.996825 
1.7851232e+3, 1.339003e+2, -990656.94, -1646115.1, -7968.8506, -0.028834324, 0.35987344, -990560.06, 637251.4, 0.030529056, 10.005909, 9.996952 
1.7851104e+3, 1.4389716e+2, -943844.0, -1521232.5, -1174.5037, 0.12549134, 0.3338841, -943841.56, 586001.06, 0.016536072, 10.005242, 9.9974575 
1.7850956e+3, 1.5389507e+2, -939525.94, -1469335.0, 6681.3423, 0.06087351, 0.37041503, -939441.7, 492421.7, 0.006358386, 10.004544, 9.997477 
1.785081e+3, 1.6389275e+2, -915674.2, -1379739.0, 3831.9812, 0.02815521, 0.38382483, -915642.56, 418243.97, 0.0013769802, 10.003893, 9.997733 
1.785067e+3, 1.7389031e+2, -902273.06, -1324783.6, 5760.784, 0.042299088, 0.36235154, -902194.56, 333716.97, 0.00008619833, 10.003317, 9.997715 
1.7850529e+3, 1.8388817e+2, -874277.25, -1210924.9, 16468.29, 0.04428764, 0.36206266, -873473.56, 264459.8, 0.0000000562377, 10.002621, 9.998159 
1.7850389e+3, 1.9388667e+2, -903276.9, -1173594.0, 13436.9375, 0.028307194, 0.3901712, -902610.56, 137338.52, 0.0, 10.001746, 9.998164 
1.7850249e+3, 2.038852e+2, -891618.75, -1072314.3, 1489.3868, 0.01690721, 0.4129545, -891606.5, 50358.406, 0.0, 10.000959, 9.998567 
1.7850107e+3, 2.1388394e+2, -887819.2, -1019479.5, -4574.9067, 0.01343879, 0.42476538, -887660.44, -43681.31, 0.0, 10.000312, 9.998569 
1.7849968e+3, 2.2388291e+2, -837958.2, -859515.5, 29.359701, 0.013944227, 0.43582243, -837958.1, -91967.83, 0.0, 9.999615, 9.99933 
1.784983e+3, 2.3388238e+2, -849433.5, -808707.7, -3954.9558, 0.017573351, 0.43932554, -808327.1, -160331.66, 0.0, 9.998839, 9.999379 
1.7849693e+3, 2.43882e+2, -821151.5, -683569.4, -5193.8022, 0.015425499, 0.44436535, -683373.56, -133374.1, 0.0, 9.9981, 9.999921 
1.7849554e+3, 2.5388214e+2, -820961.44, -630549.2, -3990.6914, 0.011126517, 0.4559769, -630465.56, -178466.34, 0.0, 9.997419, 9.99994 
1.7849422e+3, 2.638825e+2, -772570.6, -474563.06, 15554.712, 0.02085207, 0.46964812, -473753.38, -119757.516, 0.0, 9.996726, 10.000671 
1.7849289e+3, 2.7388316e+2, -774063.94, -419209.56, 19204.72, 0.032681715, 0.46309626, -418173.22, -162185.25, 0.0, 9.99602, 10.000718 
1.7849153e+3, 2.8388372e+2, -726114.7, -259670.72, 8992.568, -0.007300399, 0.41504455, -259497.42, -101516.016, 0.0, 9.995309, 10.001483 
1.7849012e+3, 2.938847e+2, -731868.94, -208823.36, -2930.1467, -0.07422, 0.35564914, -208806.95, -148837.1, 0.0, 9.994585, 10.001508 
1.7848891e+3, 3.038878e+2, -737481.06, -119392.03, 13899.308, 0.064572096, 0.4916729, -119079.625, -119079.625, 0.0, 9.993923, 10.002107 
1.7848745e+3, 3.1388882e+2, -780891.2, -59944.684, 766.02625, -0.082355514, 0.37606636, -59943.87, -59943.87, 0.0, 9.99328, 10.002824 
1.7951454e+3, 1.239173e+2, -1026445.3, -1731904.9, -2404.8306, 0.11707034, 0.34487003, -1026437.1, 699207.75, 0.047398686, 10.006543, 9.996731 
1.795129e+3, 1.3391457e+2, -995629.25, -1655704.5, -31973.4, -0.02563683, 0.38007283, -994084.1, 633588.56, 0.03212755, 10.005911, 9.996887 
1.7951156e+3, 1.439114e+2, -937805.1, -1508756.5, -27189.684, 0.1357231, 0.34910494, -936513.25, 593191.25, 0.017474705, 10.005245, 9.997545 
1.7951003e+3, 1.5390916e+2, -931535.25, -1453679.0, -19639.465, 0.06626402, 0.36161307, -930797.56, 500928.53, 0.0067728683, 10.004547, 9.997583 
1.7950849e+3, 1.6390693e+2, -910722.06, -1370769.9, -18417.734, 0.0273921, 0.37440744, -909985.9, 423762.34, 0.001490863, 10.003896, 9.997794 
1.7950702e+3, 1.7390488e+2, -897541.75, -1316481.0, -15860.821, 0.034307484, 0.3856248, -896942.1, 338827.2, 0.00009724471, 10.003321, 9.997771 
1.7950554e+3, 1.8390284e+2, -880975.6, -1226407.0, -15040.83, 0.0386072, 0.3967147, -880321.94, 257468.39, 0.000000085167756, 10.0026245, 9.998053 
1.7950408e+3, 1.9390102e+2, -911240.3, -1191934.0, -19068.102, 0.03866203, 0.40433303, -909950.9, 129858.48, 0.0, 10.001751, 9.998037 
1.7950259e+3, 2.038993e+2, -900003.1, -1091521.9, -23171.256, 0.032800164, 0.41611248, -897239.56, 44588.047, 0.0, 10.000964, 9.998434 
1.7950112e+3, 2.1389794e+2, -896439.56, -1039118.06, -28134.406, 0.019272417, 0.4322667, -891092.2, -47249.37, 0.0, 10.000317, 9.998433 
1.7949964e+3, 2.2389685e+2, -846072.4, -878037.0, -27759.06, 0.017012505, 0.44871107, -830023.44, -84168.5, 0.0, 9.999619, 9.999202 
1.794982e+3, 2.3389626e+2, -857794.6, -827661.56, -32203.725, 0.029475689, 0.45847183, -807174.2, -159313.19, 0.0, 9.998843, 9.9992485 
1.7949674e+3, 2.438958e+2, -818590.0, -679807.56, -30153.385, 0.021953542, 0.46142644, -673539.2, -123673.46, 0.0, 9.998104, 9.999947 
1.7949528e+3, 2.538958e+2, -816819.75, -623754.2, -28483.195, -0.008901527, 0.45783946, -619639.7, -167773.52, 0.0, 9.997424, 9.999986 
1.7949386e+3, 2.6389614e+2, -768316.9, -467716.53, -9954.446, -0.0055867024, 0.4670303, -467387.25, -113524.805, 0.0, 9.996732, 10.000717 
1.7949249e+3, 2.7389702e+2, -770479.06, -413464.97, -6433.6636, 0.029448874, 0.47409543, -413349.06, -157496.53, 0.0, 9.996025, 10.000757 
1.7949106e+3, 2.838976e+2, -733773.8, -276959.53, -17712.709, -0.00569435, 0.43311396, -276273.75, -118427.99, 0.0, 9.995312, 10.001365 
1.7948955e+3, 2.938984e+2, -739622.1, -226008.0, -29568.271, -0.09394153, 0.36778966, -224311.39, -164474.44, 0.0, 9.994587, 10.00139 
1.7948829e+3, 3.0390134e+2, -718765.4, -81077.89, -9698.844, 0.05059832, 0.47842935, -80930.414, -80930.414, 0.0, 9.993923, 10.002371 
1.7948681e+3, 3.1390297e+2, -794352.25, -88655.78, -33319.203, -0.050095487, 0.4021896, -87086.12, -87086.12, 0.0, 9.993281, 10.002627 
1.805152e+3, 1.2393202e+2, -1037120.44, -1732804.5, 17892.152, 0.11930225, 0.35222954, -1036660.6, 688840.94, 0.049741283, 10.006466, 9.996761 
1.8051349e+3, 1.3392943e+2, -1004466.9, -1652419.9, -8102.465, -0.02752871, 0.3930351, -1004365.56, 623162.6, 0.033784337, 10.005828, 9.996948 
1.8051209e+3, 1.4392635e+2, -944719.56, -1509010.5, -1142.1929, 0.13382225, 0.36699572, -944717.25, 584841.94, 0.0184457, 10.005192, 9.997566 
1.8051048e+3, 1.5392403e+2, -927371.4, -1449557.3, -881.70874, 0.06986482, 0.3698292, -927369.9, 504211.75, 0.0072011575, 10.004573, 9.997598 
1.8050888e+3, 1.6392177e+2, -906536.2, -1364605.3, -4482.253, 0.032678198, 0.3794277, -906492.4, 427111.47, 0.0016078085, 10.003911, 9.997828 
1.8050735e+3, 1.7391981e+2, -913995.75, -1320170.5, -4121.675, 0.034152407, 0.39747325, -913953.94, 321669.75, 0.00010803382, 10.003192, 9.997807 
1.805058e+3, 1.8391782e+2, -905553.8, -1244636.1, -7524.8003, 0.0370605, 0.41240272, -905386.9, 232257.45, 0.000000109468616, 10.002487, 9.9979925 
1.8050425e+3, 1.9391589e+2, -908590.25, -1198399.1, -8930.971, 0.042472735, 0.41900235, -908315.25, 131349.27, 0.0, 10.001806, 9.997965 
1.805027e+3, 2.0391409e+2, -886750.7, -1095925.3, -7325.5215, 0.037797242, 0.42946208, -886494.5, 55189.42, 0.0, 10.001105, 9.998334 
1.8050113e+3, 2.139126e+2, -895851.6, -1050198.5, -10036.764, 0.018449077, 0.44395956, -895201.7, -51501.523, 0.0, 10.000373, 9.998328 
1.804996e+3, 2.239114e+2, -849856.0, -886401.2, -9378.777, 0.013178624, 0.4586114, -847589.6, -101876.46, 0.0, 9.999624, 9.999141 
1.8049808e+3, 2.3391074e+2, -860741.56, -835565.8, -9642.13, 0.027022196, 0.46704724, -832297.3, -184577.53, 0.0, 9.998854, 9.999188 
1.8049654e+3, 2.4391022e+2, -819240.4, -682299.4, -3848.7202, 0.0174979, 0.46774763, -682191.3, -132466.22, 0.0, 9.99811, 9.999926 
1.80495e+3, 2.5391015e+2, -820328.6, -626992.44, -6806.146, -0.020647848, 0.45922422, -626753.1, -175027.13, 0.0, 9.997408, 9.99997 
1.804935e+3, 2.6391047e+2, -777248.44, -468686.22, 5663.4883, -0.016803408, 0.4646093, -468582.3, -114859.78, 0.0, 9.996658, 10.000745 
1.8049209e+3, 2.7391142e+2, -795462.3, -421803.25, 7832.831, 0.030829279, 0.47278228, -421639.13, -165927.0, 0.0, 9.99584, 10.000788 
1.8049058e+3, 2.839121e+2, -773261.25, -299691.03, 637.1708, -0.0013921803, 0.44125837, -299690.16, -141985.66, 0.0, 9.995059, 10.001329 
1.8048899e+3, 2.9391298e+2, -774852.44, -245656.36, -3101.4685, -0.10152607, 0.38900062, -245638.19, -185943.05, 0.0, 9.994358, 10.001365 
1.8048768e+3, 3.0391553e+2, -714361.3, -52682.84, 26657.596, 0.042950734, 0.4542571, -51610.6, -51610.6, 0.0, 9.993843, 10.002604 
1.8048616e+3, 3.1391764e+2, -778030.7, -94148.6, -11682.124, -0.033648603, 0.4011054, -93949.11, -93949.11, 0.0, 9.993453, 10.002506 
1.8151586e+3, 1.23947166e+2, -1029335.56, -1713064.5, -186.19514, 0.13066596, 0.34651446, -1029335.5, 696018.75, 0.052168753, 10.006465, 9.996902 
1.8151407e+3, 1.3394485e+2, -993548.44, -1627669.0, -31779.234, -0.0357388, 0.39903298, -991959.75, 635417.94, 0.035502475, 10.00583, 9.997119 
1.8151258e+3, 1.4394198e+2, -948842.9, -1517620.1, -24358.305, 0.11904276, 0.38755712, -947801.6, 581604.9, 0.019454405, 10.005195, 9.997507 
1.8151094e+3, 1.5393962e+2, -933076.06, -1462575.3, -24172.44, 0.07201557, 0.39436382, -931974.9, 499455.06, 0.0076475735, 10.004576, 9.997509 
1.8150929e+3, 1.6393726e+2, -906160.06, -1365284.8, -31146.092, 0.043847088, 0.39822745, -904056.8, 429396.53, 0.0017297401, 10.003915, 9.997823 
1.8150766e+3, 1.7393513e+2, -912692.75, -1319170.4, -30929.246, 0.04115313, 0.39804772, -910352.8, 325121.78, 0.000118796386, 10.003197, 9.997812 
1.8150605e+3, 1.8393308e+2, -906860.94, -1249081.3, -33007.12, 0.039118133, 0.40955725, -903706.5, 233789.16, 0.00000012626741, 10.002491, 9.997961 
1.8150443e+3, 1.9393131e+2, -910130.3, -1203376.4, -34104.17, 0.039638277, 0.43420506, -906216.25, 133298.58, 0.0, 10.001811, 9.99793 
1.815028e+3, 2.0392953e+2, -891190.0, -1106759.3, -34062.887, 0.0314351, 0.4528344, -885935.6, 55598.395, 0.0, 10.001109, 9.99826 
1.8150117e+3, 2.139279e+2, -900732.44, -1061993.4, -36794.742, 0.010694372, 0.4600427, -892733.75, -49182.332, 0.0, 10.000377, 9.998246 
1.8149956e+3, 2.2392656e+2, -849629.0, -887578.25, -37306.367, 0.0023151024, 0.46591035, -826749.1, -81183.74, 0.0, 9.999628, 9.999132 
1.8149795e+3, 2.3392579e+2, -859932.3, -835638.75, -37617.168, 0.0100066755, 0.46486104, -808255.9, -160683.42, 0.0, 9.9988575, 9.9991865 
1.8149634e+3, 2.439252e+2, -823744.56, -693475.94, -29409.096, 0.0016215481, 0.46271703, -687144.4, -137566.25, 0.0, 9.998115, 9.999847 
1.8149474e+3, 2.539251e+2, -825871.25, -640224.0, -32158.47, -0.024169013, 0.4597407, -634811.2, -183231.75, 0.0, 9.997413, 9.999879 
1.8149318e+3, 2.6392534e+2, -776457.44, -468562.78, -23845.787, -0.012633646, 0.4623077, -466726.9, -113150.07, 0.0, 9.996662, 10.000746 
1.8149167e+3, 2.7392617e+2, -794120.44, -420144.3, -22333.43, 0.03592207, 0.45951682, -418815.3, -163247.78, 0.0, 9.995842, 10.0008 
1.814901e+3, 2.83927e+2, -769207.8, -292318.28, -25917.629, 0.0045202184, 0.43974414, -290913.84, -133355.44, 0.0, 9.99506, 10.001381 
1.8148842e+3, 2.9392827e+2, -769267.9, -235688.67, -27990.021, -0.09576477, 0.4184587, -234224.42, -174679.16, 0.0, 9.994362, 10.001433 
1.8148705e+3, 3.0393025e+2, -700682.75, -26026.453, 13264.278, 0.042731177, 0.41666892, -25765.768, -25765.768, 0.0, 9.993848, 10.002786 
1.814855e+3, 3.1393293e+2, -782002.75, -103674.61, -36599.664, -0.03624144, 0.39910182, -101705.56, -101705.56, 0.0, 9.993456, 10.00244 
1.8251649e+3, 1.23963214e+2, -1046723.4, -1719037.9, 44559.58, 0.1372833, 0.34825328, -1043782.9, 681414.3, 0.05467818, 10.006348, 9.996914 
1.8251465e+3, 1.3396087e+2, -990593.0, -1622074.5, -1881.2428, -0.034029208, 0.3949106, -990587.4, 636633.44, 0.037285738, 10.005846, 9.9971485 
1.825131e+3, 1.4395806e+2, -945502.4, -1520108.9, -2871.8518, 0.11534477, 0.39075172, -945488.06, 583761.06, 0.020507235, 10.005244, 9.997464 
1.8251137e+3, 1.5395574e+2, -946159.4, -1474293.8, -692.78033, 0.06547134, 0.4070848, -946158.44, 485114.22, 0.008117125, 10.004514, 9.997457 
1.8250966e+3, 1.6395336e+2, -919406.25, -1371597.5, -6210.9897, 0.038981266, 0.41194573, -919321.0, 413975.56, 0.0018592761, 10.003827, 9.99782 
1.8250799e+3, 1.739511e+2, -911546.06, -1318279.0, -7069.742, 0.044793297, 0.39979473, -911423.2, 323895.44, 0.000130009, 10.003207, 9.997812 
1.825063e+3, 1.8394902e+2, -906544.0, -1253043.0, -12631.537, 0.04591606, 0.4091548, -906084.1, 231255.98, 0.00000013249935, 10.002515, 9.997921 
1.8250461e+3, 1.9394735e+2, -927101.4, -1216467.5, -15297.314, 0.041110083, 0.44712088, -926294.94, 113063.9, 0.0, 10.0017185, 9.997883 
1.8250291e+3, 2.0394558e+2, -908197.9, -1113087.9, -11425.244, 0.029578827, 0.46987227, -907562.75, 33815.098, 0.0, 10.000987, 9.998273 
1.825012e+3, 2.1394387e+2, -902805.8, -1060434.8, -7271.293, 0.00898686, 0.46640545, -902471.1, -59075.59, 0.0, 10.000355, 9.998266 
1.8249951e+3, 2.2394241e+2, -849308.25, -892805.8, -9001.668, -0.00054546504, 0.4639663, -847518.94, -102108.92, 0.0, 9.999656, 9.999082 
1.8249783e+3, 2.3394156e+2, -864234.56, -844119.06, -14492.381, 0.0033916784, 0.45950562, -836536.3, -189118.27, 0.0, 9.998859, 9.999126 
1.8249615e+3, 2.4394093e+2, -829558.44, -698546.94, -5104.7847, -0.00560342, 0.4587999, -698348.3, -148924.34, 0.0, 9.998088, 9.999825 
1.8249448e+3, 2.5394088e+2, -835870.0, -647519.2, -3121.0603, -0.027029768, 0.46210337, -647467.5, -196042.67, 0.0, 9.997357, 9.999854 
1.8249285e+3, 2.6394108e+2, -785702.56, -476300.97, 4231.92, -0.012947436, 0.46150115, -476243.1, -122820.22, 0.0, 9.996614, 10.000714 
1.8249126e+3, 2.7394176e+2, -794721.9, -423817.34, 1624.7738, 0.035048757, 0.4485796, -423810.22, -168395.11, 0.0, 9.995854, 10.000768 
1.824896e+3, 2.839427e+2, -769528.44, -288708.75, -4302.938, 0.004491478, 0.44276288, -288670.25, -131265.5, 0.0, 9.995044, 10.001413 
1.8248786e+3, 2.939443e+2, -789907.25, -239563.17, -6333.858, -0.0926317, 0.45249087, -239490.28, -180102.4, 0.0, 9.994197, 10.001486 
1.8248641e+3, 3.039457e+2, -731825.25, -32611.871, 43095.457, 0.039426975, 0.38126993, -29965.73, -29965.73, 0.0, 9.9936, 10.002858 
1.8248482e+3, 3.1394872e+2, -816834.1, -114301.61, -26076.088, -0.039276134, 0.39646235, -113335.07, -113335.07, 0.0, 9.993193, 10.002493 
1.8351713e+3, 1.23980165e+2, -1056082.9, -1737400.9, 30258.15, 0.13661063, 0.35623866, -1054741.8, 670288.75, 0.05727209, 10.006354, 9.996785 
1.8351525e+3, 1.3397749e+2, -999701.9, -1639650.8, -20719.348, -0.02251159, 0.38098216, -999031.75, 628025.7, 0.039140385, 10.005846, 9.997028 
1.8351364e+3, 1.439746e+2, -948705.75, -1525567.4, -29325.23, 0.122157, 0.37724185, -947218.8, 581868.06, 0.021611623, 10.005242, 9.997429 
1.8351182e+3, 1.5397242e+2, -947421.2, -1477576.0, -27870.674, 0.049662612, 0.40833727, -945960.0, 485149.75, 0.008615396, 10.004516, 9.997435 
1.8351004e+3, 1.6397008e+2, -919987.8, -1374269.5, -29793.662, 0.018042106, 0.42065236, -918042.1, 415091.25, 0.0019994976, 10.003831, 9.997801 
1.835083e+3, 1.7396776e+2, -912200.0, -1321265.8, -30140.313, 0.045126818, 0.40269563, -909991.2, 325164.88, 0.0001423853, 10.003211, 9.997791 
1.8350656e+3, 1.8396561e+2, -909940.0, -1261621.6, -41644.4, 0.056945346, 0.41134998, -905075.94, 232102.03, 0.00000012564814, 10.002519, 9.997862 
1.8350479e+3, 1.9396396e+2, -930736.06, -1225914.6, -44709.28, 0.046509814, 0.45778865, -924112.8, 115084.02, 0.0, 10.001724, 9.997817 
1.83503e+3, 2.0396219e+2, -901181.75, -1100427.9, -35123.574, 0.03201807, 0.48048168, -895171.4, 46044.3, 0.0, 10.000993, 9.998359 
1.8350124e+3, 2.1396045e+2, -894656.3, -1045236.44, -30280.518, 0.013143428, 0.46303186, -888795.25, -45562.4, 0.0, 10.00036, 9.99837 
1.8349947e+3, 2.2395894e+2, -855699.75, -907626.94, -37610.99, 0.0042181374, 0.4527516, -835961.1, -90713.39, 0.0, 9.99966, 9.99898 
1.8349771e+3, 2.3395798e+2, -872484.75, -862884.8, -43540.957, 0.0069649345, 0.45111006, -823880.06, -176622.9, 0.0, 9.998863, 9.998998 
1.8349595e+3, 2.4395736e+2, -827382.6, -695702.06, -31667.492, -0.0042759567, 0.45627716, -688482.25, -139219.02, 0.0, 9.998093, 9.999844 
1.834942e+3, 2.539574e+2, -832731.5, -642699.1, -29429.008, -0.029471278, 0.46650976, -638246.0, -186983.16, 0.0, 9.997361, 9.9998865 
1.834925e+3, 2.6395753e+2, -789849.8, -486797.6, -23246.082, -0.018285993, 0.4621209, -485024.8, -131763.47, 0.0, 9.996619, 10.000642 
1.8349084e+3, 2.7395803e+2, -800105.25, -436913.94, -26409.043, 0.027803771, 0.4390236, -435003.7, -179747.89, 0.0, 9.995859, 10.000677 
1.834891e+3, 2.839591e+2, -768698.4, -288499.8, -35701.414, -0.0018592535, 0.4498686, -285860.03, -128615.65, 0.0, 9.995048, 10.001414 
1.8348728e+3, 2.9396102e+2, -788264.1, -236924.5, -36423.24, -0.09345834, 0.49265745, -234528.67, -175304.88, 0.0, 9.994197, 10.001505 
1.8348576e+3, 3.0396166e+2, -734539.2, -39324.82, 28270.084, 0.031497117, 0.34852955, -38177.145, -38177.145, 0.0, 9.993602, 10.002813 
1.8348414e+3, 3.1396514e+2, -803019.0, -87527.89, -52435.484, -0.041156076, 0.41254696, -83705.52, -83705.52, 0.0, 9.993197, 10.002677 
1.8451777e+3, 1.2399764e+2, -1013580.44, -1715112.1, 44768.348, 0.12834747, 0.36713573, -1010735.06, 714124.3, 0.059957653, 10.006681, 9.996782 
1.8451583e+3, 1.3399477e+2, -1028322.8, -1652217.8, -2918.234, -0.0055212434, 0.3696263, -1028309.1, 598578.8, 0.041073877, 10.005648, 9.997036 
1.8451416e+3, 1.4399186e+2, -1002202.2, -1551646.1, 2135.749, 0.14061584, 0.3648918, -1002193.9, 526723.56, 0.022774566, 10.004874, 9.997424 
1.8451226e+3, 1.5398979e+2, -952859.3, -1480877.1, 4837.557, 0.043681435, 0.40940621, -952815.0, 478124.6, 0.009147634, 10.004486, 9.997425 
1.845104e+3, 1.639875e+2, -912339.4, -1373812.6, -3984.0186, 0.0049637426, 0.4287919, -912305.0, 420658.1, 0.0021533754, 10.003901, 9.997769 
1.8450864e+3, 1.7398512e+2, -942010.2, -1339296.1, -6638.4253, 0.048912928, 0.40815428, -941899.25, 293087.1, 0.0001568468, 10.003024, 9.997756 
1.8450682e+3, 1.8398294e+2, -941061.94, -1272417.9, -12916.319, 0.066078685, 0.4135596, -940559.25, 196449.36, 0.00000011027377, 10.00229, 9.997896 
1.8450496e+3, 1.9398127e+2, -921608.94, -1216584.0, -8551.079, 0.04405516, 0.45579904, -921361.25, 117665.984, 0.0, 10.001769, 9.997858 
1.845031e+3, 2.039795e+2, -886678.44, -1093489.0, -1859.1005, 0.027691666, 0.47669268, -886661.75, 54384.14, 0.0, 10.001096, 9.998355 
1.8450128e+3, 2.1397777e+2, -918946.56, -1057728.8, -6217.647, 0.020937687, 0.46108568, -918668.56, -75605.7, 0.0, 10.000198, 9.99836 
1.8449944e+3, 2.2397624e+2, -891904.25, -928442.0, -13714.956, 0.014300196, 0.45090622, -887329.06, -142251.13, 0.0, 9.99943, 9.998946 
1.844976e+3, 2.3397522e+2, -877400.1, -869297.56, -13527.231, 0.0052142423, 0.44763935, -859228.0, -212139.84, 0.0, 9.99885, 9.998959 
1.8449576e+3, 2.439746e+2, -817282.1, -694721.56, -3080.6199, -0.010499031, 0.4569052, -694644.2, -145549.78, 0.0, 9.998181, 9.999806 
1.8449393e+3, 2.539747e+2, -833495.8, -646984.4, -7072.3936, -0.029908463, 0.47710994, -646716.56, -195623.27, 0.0, 9.997376, 9.999848 
1.8449216e+3, 2.6397473e+2, -799052.1, -494895.1, -3113.1055, -0.017222075, 0.46809202, -494863.22, -141770.64, 0.0, 9.996575, 10.000606 
1.8449041e+3, 2.73975e+2, -813997.0, -447927.0, -3099.46, 0.024611453, 0.4254621, -447900.75, -192811.48, 0.0, 9.995786, 10.000636 
1.844886e+3, 2.8397614e+2, -777709.1, -290582.53, -11717.178, -0.0044484786, 0.44429865, -290300.84, -133223.72, 0.0, 9.994979, 10.001431 
1.844867e+3, 2.9397842e+2, -790215.2, -235766.75, -10823.846, -0.09007121, 0.51846004, -235555.53, -176502.45, 0.0, 9.994178, 10.001521 
1.8448511e+3, 3.0397844e+2, -764107.4, -83497.125, 56838.26, 0.02090297, 0.32552242, -78783.17, -78783.17, 0.0, 9.993531, 10.0025425 
1.8448345e+3, 3.139819e+2, -826654.56, -81186.414, -53436.125, -0.046576343, 0.4151659, -77375.53, -77375.53, 0.0, 9.992963, 10.002831 
1.8551841e+3, 1.24015674e+2, -1008933.44, -1700326.4, 13846.688, 0.11148048, 0.38014263, -1008656.25, 716027.4, 0.062737815, 10.006675, 9.996895 
1.8551642e+3, 1.340127e+2, -1020855.7, -1634447.9, -40515.31, 0.015523441, 0.3602945, -1018192.06, 608520.06, 0.04308964, 10.00565, 9.99716 
1.8551467e+3, 1.4400984e+2, -1001596.6, -1550905.8, -14414.219, 0.16900237, 0.35333493, -1001218.6, 527522.0, 0.023999702, 10.004879, 9.997429 
1.855127e+3, 1.5400787e+2, -953647.2, -1483255.1, -9634.374, 0.046800558, 0.41025677, -953472.0, 477290.22, 0.009717185, 10.004488, 9.997409 
1.8551078e+3, 1.6400564e+2, -915633.25, -1381528.9, -35211.402, -0.001030427, 0.43662974, -912987.06, 419798.6, 0.0023231863, 10.0039015, 9.997718 
1.8550894e+3, 1.7400318e+2, -944989.75, -1347391.1, -39418.574, 0.055723805, 0.41613147, -941164.75, 293645.06, 0.00017441528, 10.00303, 9.9977 
1.8550704e+3, 1.8400095e+2, -931989.5, -1255822.0, -33449.645, 0.0730766, 0.4154698, -928570.5, 208261.78, 0.00000010372912, 10.0022955, 9.998009 
1.8550512e+3, 1.9399926e+2, -911519.3, -1197588.3, -27604.057, 0.03365732, 0.44144285, -908880.06, 129970.29, 0.0, 10.001774, 9.997988 
1.855032e+3, 2.039975e+2, -892975.8, -1108205.4, -33738.484, 0.016368376, 0.45919785, -887811.06, 53057.742, 0.0, 10.0011, 9.998254 
1.855013e+3, 2.139958e+2, -927198.06, -1076549.1, -39200.797, 0.03214971, 0.4606473, -917534.1, -74648.31, 0.0, 10.000203, 9.998231 
1.854994e+3, 2.239943e+2, -889653.4, -925462.25, -35791.688, 0.02941899, 0.45814952, -867537.6, -122636.52, 0.0, 9.9994335, 9.998966 
1.8549748e+3, 2.3399325e+2, -874064.94, -864196.56, -34193.17, -0.0020617647, 0.44910625, -834583.4, -187671.77, 0.0, 9.998855, 9.998993 
1.8549556e+3, 2.4399261e+2, -823724.3, -709980.75, -31512.049, -0.024640022, 0.46087313, -701834.0, -152915.98, 0.0, 9.998186, 9.999701 
1.8549368e+3, 2.5399274e+2, -841241.1, -664799.1, -36418.246, -0.028542107, 0.49416623, -657577.8, -206660.84, 0.0, 9.99738, 9.999725 
1.8549182e+3, 2.6399264e+2, -798973.7, -496287.66, -32041.309, -0.009738938, 0.47963437, -492933.06, -140015.69, 0.0, 9.996579, 10.000596 
1.8549e+3, 2.7399263e+2, -813230.4, -447830.13, -32230.238, 0.025394887, 0.40803465, -445009.0, -190092.66, 0.0, 9.995789, 10.000636 
1.854881e+3, 2.8399375e+2, -775363.3, -287522.34, -41537.03, -0.003510026, 0.42562908, -284010.97, -127107.08, 0.0, 9.994984, 10.001452 
1.8548612e+3, 2.9399633e+2, -789194.56, -235704.89, -39180.246, -0.08277698, 0.5280704, -232945.17, -174068.3, 0.0, 9.994183, 10.00152 
1.8548445e+3, 3.0399585e+2, -800303.2, -160282.1, 36174.406, 0.006936443, 0.3111642, -158243.98, -158243.98, 0.0, 9.993535, 10.002014 
1.8548273e+3, 3.1399897e+2, -818315.7, -64711.48, -86445.37, -0.05480468, 0.41908264, -54922.55, -54922.55, 0.0, 9.992963, 10.002946 
1.8651909e+3, 1.2403431e+2, -1052140.3, -1712809.5, 45083.305, 0.12364307, 0.3793695, -1049078.0, 675423.3, 0.06560432, 10.006341, 9.9969635 
1.8651699e+3, 1.3403146e+2, -997064.75, -1614177.8, -18542.209, 0.008318147, 0.36696562, -996508.1, 630020.1, 0.045182306, 10.005798, 9.997229 
1.8651517e+3, 1.440287e+2, -969961.6, -1540392.3, 9218.173, 0.1568818, 0.3658902, -969812.7, 558743.4, 0.02528475, 10.005134, 9.997377 
1.8651316e+3, 1.5402655e+2, -986686.56, -1506165.4, 10871.66, 0.06629428, 0.41085836, -986459.2, 444120.4, 0.010324384, 10.004294, 9.997344 
1.8651119e+3, 1.6402425e+2, -957252.0, -1397140.0, -15977.786, 0.023457156, 0.43379653, -956672.4, 375931.3, 0.0025100296, 10.0036, 9.997754 
1.8650922e+3, 1.7402193e+2, -928835.06, -1334440.1, -13888.417, 0.046251293, 0.4223099, -928360.06, 306266.4, 0.00019592533, 10.003121, 9.997743 
1.8650727e+3, 1.8401976e+2, -901249.94, -1240633.5, -7876.088, 0.05303018, 0.42491636, -901067.25, 235581.14, 0.00000012857653, 10.002508, 9.99801 
1.8650529e+3, 1.94018e+2, -923373.4, -1203482.0, -12376.579, 0.037181642, 0.44577733, -922827.56, 115839.38, 0.0, 10.001696, 9.997984 
1.865033e+3, 2.0401621e+2, -909108.9, -1110442.3, -22188.62, 0.028223354, 0.45881194, -906692.5, 33993.023, 0.0, 10.000968, 9.998301 
1.8650132e+3, 2.1401453e+2, -899600.56, -1057408.3, -15475.484, 0.029634234, 0.45638528, -898097.25, -55395.0, 0.0, 10.00037, 9.99828 
1.8649934e+3, 2.2401303e+2, -857743.8, -915257.44, -6039.671, 0.02154158, 0.4558636, -857116.4, -112399.06, 0.0, 9.999678, 9.998917 
1.8649735e+3, 2.3401202e+2, -880190.44, -873926.3, -12055.979, -0.0020888299, 0.45753387, -864602.25, -217874.34, 0.0, 9.998845, 9.998928 
1.8649538e+3, 2.4401139e+2, -845149.75, -718631.3, -12745.162, -0.020264508, 0.47117698, -717360.2, -168625.72, 0.0, 9.998035, 9.999711 
1.8649341e+3, 2.540114e+2, -857823.94, -670916.8, -8308.247, -0.025247127, 0.49291646, -670548.2, -219814.22, 0.0, 9.997263, 9.999739 
1.8649147e+3, 2.6401123e+2, -813346.44, -503666.53, 1527.6272, -0.011926272, 0.47083575, -503659.0, -150924.23, 0.0, 9.996486, 10.000588 
1.8648955e+3, 2.740112e+2, -828042.44, -455921.88, -465.3541, 0.0129387695, 0.39925173, -455921.28, -201187.56, 0.0, 9.995695, 10.000624 
1.8648757e+3, 2.8401232e+2, -789087.9, -294277.03, -11844.783, -0.009917205, 0.41717488, -293993.63, -137272.34, 0.0, 9.994894, 10.001447 
1.8648556e+3, 2.9401487e+2, -804794.25, -246753.38, -10599.825, -0.064325064, 0.5161721, -246552.11, -187857.28, 0.0, 9.994095, 10.001485 
1.8648379e+3, 3.0401427e+2, -836573.6, -209679.33, 79419.734, 0.0033871592, 0.30391186, -199774.33, -199774.33, 0.0, 9.993427, 10.001725 
1.8648201e+3, 3.1401703e+2, -803354.44, -16275.125, -33157.332, -0.06928271, 0.40508866, -14880.774, -14880.774, 0.0, 9.992892, 10.003311 
1.8751974e+3, 1.24053575e+2, -1053935.8, -1712218.6, 29557.908, 0.1600803, 0.3648036, -1052611.3, 671701.3, 0.06854513, 10.006338, 9.996971 
1.8751752e+3, 1.340511e+2, -998248.44, -1614601.5, -38650.125, -0.025969822, 0.3893416, -995834.25, 630502.06, 0.047342073, 10.005799, 9.997227 
1.8751562e+3, 1.4404841e+2, -977559.4, -1556278.9, -20593.56, 0.106244996, 0.40182683, -976827.5, 551536.1, 0.026624046, 10.005136, 9.99727 
1.8751362e+3, 1.5404579e+2, -994426.06, -1523285.5, -20248.342, 0.10133011, 0.4110296, -993651.94, 436739.72, 0.010967852, 10.004297, 9.997227 
1.875116e+3, 1.6404334e+2, -948992.3, -1381569.5, -35032.715, 0.07671701, 0.42038316, -946173.5, 386243.56, 0.0027142912, 10.003604, 9.997861 
1.8750952e+3, 1.7404132e+2, -919186.0, -1316432.4, -31551.637, 0.020330373, 0.42674282, -916695.6, 317741.03, 0.00022189613, 10.003127, 9.997865 
1.8750747e+3, 1.840393e+2, -908471.0, -1257443.6, -36934.473, 0.0062282616, 0.4421425, -904604.75, 231852.55, 0.00000020880177, 10.002513, 9.997894 
1.8750548e+3, 1.9403747e+2, -932409.44, -1224204.0, -42414.43, 0.054396298, 0.46848837, -926369.25, 112108.15, 0.0, 10.001701, 9.997841 
1.8750344e+3, 2.040356e+2, -895488.44, -1084143.1, -44855.59, 0.06260852, 0.47478572, -885366.44, 55130.125, 0.0, 10.000974, 9.99848 
1.8750134e+3, 2.1403389e+2, -883856.25, -1026541.1, -37096.902, 0.013090484, 0.4484051, -874787.75, -32275.219, 0.0, 10.000375, 9.99849 
1.8749928e+3, 2.2403242e+2, -866081.56, -934218.1, -35814.3, -0.009541878, 0.4447642, -850720.0, -106192.914, 0.0, 9.999682, 9.998786 
1.8749724e+3, 2.3403151e+2, -891276.4, -898611.4, -42463.92, 0.005162521, 0.4730831, -852321.9, -205784.4, 0.0, 9.998849, 9.998758 
1.874952e+3, 2.4403083e+2, -836476.4, -702237.75, -40998.785, 0.0027345608, 0.48743084, -690706.56, -142162.1, 0.0, 9.998039, 9.999824 
1.8749315e+3, 2.5403062e+2, -847191.44, -650689.06, -36188.023, -0.020292865, 0.4726496, -644236.5, -193691.42, 0.0, 9.997268, 9.999877 
1.874911e+3, 2.6403043e+2, -813892.4, -506664.13, -27234.012, -0.024557453, 0.44117972, -504268.66, -151723.06, 0.0, 9.9964905, 10.000567 
1.8748909e+3, 2.7403066e+2, -829973.94, -461634.13, -29688.04, -0.013739856, 0.39908892, -459256.63, -204714.4, 0.0, 9.995699, 10.000585 
1.8748705e+3, 2.8403175e+2, -791607.4, -300949.97, -41378.887, -0.024114363, 0.41901964, -297484.8, -140954.58, 0.0, 9.994897, 10.001402 
1.87485e+3, 2.9403389e+2, -809871.25, -258912.03, -39371.895, -0.03389461, 0.48252484, -256112.72, -197604.73, 0.0, 9.994099, 10.001402 
1.8748315e+3, 3.0403355e+2, -839124.6, -217117.33, 59280.54, 0.010474323, 0.30492306, -211517.98, -211517.98, 0.0, 9.993433, 10.001674 
1.8748127e+3, 3.1403607e+2, -758389.6, 74190.68, -60519.438, -0.09112694, 0.38171294, 78566.78, 78566.78, 0.0, 9.9929, 10.003931 
1.8852037e+3, 1.2407355e+2, -1063328.1, -1720811.1, 64922.54, 0.15260118, 0.3504085, -1056978.8, 667137.7, 0.071559995, 10.00631, 9.996921 
1.8851809e+3, 1.3407122e+2, -1011043.94, -1627085.5, -11600.014, -0.02767415, 0.39481848, -1010825.6, 615314.1, 0.04956519, 10.005752, 9.997159 
1.8851613e+3, 1.4406858e+2, -981471.6, -1554846.6, 257.2709, 0.09933456, 0.4176022, -981471.5, 546695.0, 0.028014, 10.005104, 9.9972925 
1.8851405e+3, 1.5406583e+2, -987001.1, -1516106.9, 9387.515, 0.09832049, 0.40952587, -986834.56, 443360.84, 0.011646351, 10.004339, 9.997254 
1.8851197e+3, 1.640633e+2, -941170.7, -1379578.8, 5787.693, 0.077454746, 0.41292366, -941094.25, 391126.94, 0.0029361465, 10.003669, 9.997842 
1.8850982e+3, 1.7406137e+2, -921012.5, -1319921.9, -981.99365, 0.023229284, 0.42930424, -921010.06, 313230.3, 0.00025257785, 10.003128, 9.997839 
1.8850772e+3, 1.8405937e+2, -912005.8, -1257627.5, -18523.846, 0.007349154, 0.44837248, -911015.8, 225245.19, 0.0000003626038, 10.002485, 9.997905 
1.8850563e+3, 1.940575e+2, -932186.56, -1222636.3, -14556.604, 0.048369966, 0.46872345, -931458.8, 106822.82, 0.0, 10.001699, 9.99785 
1.8850353e+3, 2.0405565e+2, -890446.94, -1075290.8, -8857.716, 0.05446343, 0.47465417, -890023.44, 50277.215, 0.0, 10.000983, 9.998535 
1.8850137e+3, 2.1405406e+2, -881597.7, -1018931.6, -12487.931, 0.009877056, 0.45681483, -880471.4, -38156.098, 0.0, 10.000365, 9.998547 
1.8849924e+3, 2.2405265e+2, -866392.0, -931936.9, -20048.156, -0.008972488, 0.45529142, -860746.2, -116416.98, 0.0, 9.999673, 9.998804 
1.8849713e+3, 2.3405167e+2, -886504.5, -894651.9, -14655.829, 0.008148567, 0.47572568, -875366.75, -229026.53, 0.0, 9.9988785, 9.99877 
1.8849501e+3, 2.4405096e+2, -832913.44, -696270.56, -9388.746, 0.0066890125, 0.48324984, -695628.5, -147281.06, 0.0, 9.99805, 9.999858 
1.8849286e+3, 2.5405073e+2, -859572.75, -652343.3, -12913.841, -0.018726544, 0.46466014, -651541.6, -201193.9, 0.0, 9.997168, 9.999911 
1.8849075e+3, 2.6405063e+2, -837215.94, -519388.53, -6431.115, -0.025157494, 0.43828014, -519258.44, -166910.98, 0.0, 9.996342, 10.000549 
1.8848866e+3, 2.7405092e+2, -847567.56, -472794.75, -8394.252, -0.013662164, 0.40983623, -472606.8, -218263.73, 0.0, 9.995594, 10.000556 
1.8848655e+3, 2.8405187e+2, -793768.0, -303409.66, -17462.137, -0.020203425, 0.41692722, -302788.6, -146455.9, 0.0, 9.994892, 10.001385 
1.8848442e+3, 2.9405358e+2, -794671.56, -256404.47, -13121.477, -0.028010657, 0.44224828, -256084.78, -197770.33, 0.0, 9.994227, 10.001354 
1.8848246e+3, 3.0405384e+2, -850584.2, -231063.7, 84744.305, -0.015723085, 0.33198628, -219680.67, -219680.67, 0.0, 9.993394, 10.001595 
1.8848053e+3, 3.14056e+2, -812455.75, 81995.51, -45358.55, -0.09309187, 0.37648028, 84289.8, 84289.8, 0.0, 9.992387, 10.00423 
1.8952096e+3, 1.2409425e+2, -1071537.1, -1736893.0, 48637.63, 0.10259113, 0.33616117, -1068000.5, 655912.4, 0.074663915, 10.00632, 9.996806 
1.895187e+3, 1.3409181e+2, -1021322.7, -1647385.8, -31752.135, 0.00095972937, 0.3839365, -1019716.44, 606221.8, 0.05185819, 10.005753, 9.997021 
1.8951666e+3, 1.4408924e+2, -973366.3, -1536426.8, -27062.758, 0.13269609, 0.4137711, -972068.56, 555896.1, 0.02945563, 10.005103, 9.997421 
1.8951444e+3, 1.5408663e+2, -976099.56, -1494605.9, -19212.547, 0.05810085, 0.4067422, -975388.6, 454602.4, 0.012359157, 10.004345, 9.997401 
1.8951227e+3, 1.6408415e+2, -950333.5, -1400826.6, -15119.601, 0.027562568, 0.41198087, -949826.6, 382189.66, 0.0031752933, 10.003675, 9.997694 
1.8951017e+3, 1.7408206e+2, -932698.8, -1345784.5, -20944.549, 0.05426296, 0.43021628, -931639.56, 302398.28, 0.0002879766, 10.003132, 9.997662 
1.89508e+3, 1.8407996e+2, -902978.0, -1240366.5, -46921.62, 0.054659292, 0.4434493, -896574.0, 239485.78, 0.0000005824179, 10.002488, 9.998023 
1.8950577e+3, 1.9407804e+2, -920888.44, -1201201.9, -43608.875, 0.018905032, 0.44689634, -914260.8, 123819.26, 0.0, 10.001705, 9.997996 
1.8950358e+3, 2.040763e+2, -895086.1, -1086898.4, -31974.693, 0.0042755017, 0.45931137, -889896.44, 50201.7, 0.0, 10.000988, 9.998454 
1.8950143e+3, 2.1407504e+2, -888202.4, -1034507.0, -34847.645, 0.019954119, 0.48155612, -880326.2, -38215.258, 0.0, 10.00037, 9.998439 
1.8949924e+3, 2.240737e+2, -854769.44, -909645.9, -48528.27, 0.022836003, 0.48666322, -826459.56, -82335.2, 0.0, 9.999678, 9.998957 
1.8949702e+3, 2.3407249e+2, -873132.94, -868818.1, -43517.223, 0.0064233444, 0.4653113, -827404.9, -181268.22, 0.0, 9.998883, 9.998947 
1.8949479e+3, 2.440717e+2, -835942.94, -704458.2, -41254.27, -0.008977383, 0.4590631, -692586.3, -144442.27, 0.0, 9.9980545, 9.999802 
1.8949257e+3, 2.5407168e+2, -864630.3, -664491.1, -45127.266, -0.020672612, 0.4695852, -654786.44, -204643.77, 0.0, 9.997171, 9.999828 
1.894904e+3, 2.6407167e+2, -838508.44, -523731.56, -34171.785, -0.013278602, 0.46279043, -520064.63, -167923.47, 0.0, 9.9963455, 10.000519 
1.8948825e+3, 2.7407196e+2, -848900.7, -477629.38, -35657.285, 0.014081357, 0.43183446, -474235.84, -220098.58, 0.0, 9.9956, 10.000522 
1.8948604e+3, 2.840726e+2, -792455.5, -302927.06, -42111.45, 0.0019983512, 0.41058278, -299330.88, -143201.16, 0.0, 9.994899, 10.001387 
1.894838e+3, 2.940739e+2, -794773.75, -259250.78, -37903.89, -0.04885276, 0.39425707, -256581.28, -198465.83, 0.0, 9.994236, 10.001333 
1.8948174e+3, 3.040751e+2, -858749.8, -250023.13, 47292.45, -0.077664584, 0.38691694, -246370.84, -246370.84, 0.0, 9.9934, 10.001464 
1.8947978e+3, 3.1407693e+2, -817913.1, 70665.22, -86681.3, -0.07281946, 0.4094424, 79042.055, 79042.055, 0.0, 9.992384, 10.004156 
1.905216e+3, 1.24115996e+2, -1015847.0, -1712439.1, 78363.81, 0.08953116, 0.35027868, -1007140.2, 716560.0, 0.07786792, 10.006777, 9.996757 
1.9051927e+3, 1.3411336e+2, -1027340.94, -1658326.9, -1802.9979, 0.008672463, 0.38693434, -1027335.75, 598391.94, 0.05422698, 10.00576, 9.99694 
1.9051716e+3, 1.4411072e+2, -990666.75, -1542937.4, 7980.029, 0.13252608, 0.41321942, -990551.5, 537203.4, 0.030949457, 10.004983, 9.997433 
1.9051486e+3, 1.5410812e+2, -948637.44, -1478664.3, 7209.6997, 0.03909901, 0.40557504, -948539.4, 481241.2, 0.013103825, 10.004532, 9.997418 
1.9051263e+3, 1.6410565e+2, -921563.4, -1388682.3, 5961.9795, 0.0076831025, 0.41161364, -921487.25, 410318.34, 0.0034298787, 10.003886, 9.997674 
1.9051047e+3, 1.7410354e+2, -958010.9, -1361042.6, 9602.844, 0.05829648, 0.43216923, -957782.2, 276045.47, 0.00032763038, 10.0029745, 9.997631 
1.9050825e+3, 1.8410146e+2, -935906.8, -1250618.5, -10087.766, 0.065448835, 0.4469238, -935583.8, 200265.86, 0.00000084087617, 10.002241, 9.998071 
1.9050595e+3, 1.940996e+2, -909813.94, -1189816.3, -13989.655, 0.011827492, 0.45133272, -909116.75, 128752.67, 0.0, 10.001758, 9.998048 
1.9050366e+3, 2.0409793e+2, -871983.3, -1073148.0, -6141.8467, -0.0081947055, 0.46611598, -871796.0, 68091.03, 0.0, 10.00114, 9.998474 
1.9050145e+3, 2.1409671e+2, -893119.4, -1035161.6, -1167.5133, 0.019666692, 0.49238703, -893109.75, -51210.17, 0.0, 10.000333, 9.998451 
1.904992e+3, 2.2409543e+2, -864860.0, -906553.8, -14171.761, 0.027451633, 0.5003084, -860499.1, -116586.61, 0.0, 9.9995775, 9.999024 
1.904969e+3, 2.3409429e+2, -866576.6, -857371.7, -17724.348, 0.005738218, 0.47925046, -843662.0, -197738.17, 0.0, 9.998896, 9.999018 
1.9049461e+3, 2.4409348e+2, -821926.75, -704279.2, -23348.906, -0.010554333, 0.46921587, -699814.7, -151883.28, 0.0, 9.998183, 9.999739 
1.904923e+3, 2.5409332e+2, -833615.8, -658110.8, -27778.188, -0.01774978, 0.47359407, -653819.1, -203887.72, 0.0, 9.997425, 9.999747 
1.9049002e+3, 2.640933e+2, -808288.4, -511804.2, -18769.076, -0.013068705, 0.4711451, -510620.75, -158690.64, 0.0, 9.996569, 10.000492 
1.9048779e+3, 2.7409366e+2, -854848.6, -482708.6, -20151.934, 0.0042948993, 0.45104077, -481620.53, -227695.27, 0.0, 9.995573, 10.000498 
1.9048552e+3, 2.8409415e+2, -806265.25, -308257.2, -15984.64, -0.005751086, 0.41379136, -307744.66, -151825.36, 0.0, 9.994802, 10.001394 
1.9048324e+3, 2.9409513e+2, -782686.9, -253212.3, -11400.74, -0.046464786, 0.3647989, -252966.94, -195058.86, 0.0, 9.994322, 10.00133 
1.9048105e+3, 3.040971e+2, -836880.56, -234693.34, 63595.99, -0.1058951, 0.4342625, -228050.36, -228050.36, 0.0, 9.993532, 10.001503 
1.9047903e+3, 3.140985e+2, -833536.7, 37607.207, -60019.496, -0.06745233, 0.4112937, 41722.95, 41722.95, 0.0, 9.992391, 10.003923 
1.9152229e+3, 1.24138765e+2, -1019278.1, -1713863.3, 45997.957, 0.10808922, 0.38924605, -1016245.25, 707233.25, 0.08115684, 10.006772, 9.99675 
1.9151984e+3, 1.3413586e+2, -1031042.75, -1665116.8, -38556.88, -0.0038666641, 0.4035591, -1028706.75, 596801.3, 0.05666219, 10.005765, 9.996894 
1.9151762e+3, 1.4413302e+2, -997304.2, -1558164.8, -10307.557, 0.100491785, 0.41690665, -997114.9, 530422.1, 0.032488514, 10.004992, 9.997326 
1.9151533e+3, 1.5413028e+2, -955842.56, -1494852.5, -9432.495, 0.040320598, 0.4058431, -955677.56, 473886.56, 0.013874297, 10.004536, 9.997307 
1.9151303e+3, 1.6412778e+2, -915143.94, -1376567.6, -26643.0, 0.016046397, 0.41112205, -913610.7, 417978.75, 0.0036962153, 10.00389, 9.997758 
1.9151075e+3, 1.741258e+2, -950027.75, -1346624.9, -24459.56, 0.035597783, 0.43496916, -948524.94, 285085.13, 0.0003705665, 10.002981, 9.997728 
1.9150844e+3, 1.8412384e+2, -937160.6, -1255647.1, -29238.482, 0.040448386, 0.45913637, -934498.7, 201132.27, 0.0000011196438, 10.002248, 9.9980345 
1.9150613e+3, 1.9412214e+2, -912391.4, -1197321.1, -31506.73, 0.026775915, 0.48172608, -908949.06, 128700.91, 0.0, 10.001764, 9.997995 
1.915038e+3, 2.0412046e+2, -863748.8, -1057968.8, -34781.797, 0.01606073, 0.49429137, -857707.8, 81959.91, 0.0, 10.001144, 9.998578 
1.9150148e+3, 2.1411903e+2, -883982.44, -1018066.0, -30728.328, 0.008682593, 0.48943594, -877275.8, -35594.125, 0.0, 10.000337, 9.998568 
1.9149913e+3, 2.241178e+2, -865980.0, -910771.9, -39375.188, 0.004832903, 0.49703842, -843077.06, -99383.016, 0.0, 9.999582, 9.998995 
1.9149679e+3, 2.3411703e+2, -868926.44, -864176.4, -42290.227, 0.0060391393, 0.51774764, -824194.56, -178492.25, 0.0, 9.998901, 9.99897 
1.9149444e+3, 2.441162e+2, -826749.94, -716421.3, -50539.457, 0.0017827443, 0.51341355, -696770.25, -149060.11, 0.0, 9.998189, 9.999654 
1.9149205e+3, 2.5411555e+2, -838974.75, -671860.8, -55295.273, -0.0104077775, 0.47651127, -655221.3, -205506.44, 0.0, 9.997434, 9.999651 
1.9148967e+3, 2.6411536e+2, -809343.8, -516675.3, -54899.633, -0.02559842, 0.4632945, -506716.0, -155000.89, 0.0, 9.996576, 10.000456 
1.914873e+3, 2.7411595e+2, -855865.9, -486778.75, -56999.492, -0.044872284, 0.4673406, -478176.6, -224468.5, 0.0, 9.995578, 10.000469 
1.9148496e+3, 2.8411636e+2, -805217.25, -308096.63, -34989.754, -0.044775512, 0.42671674, -305645.97, -149943.5, 0.0, 9.994808, 10.001394 
1.9148271e+3, 2.941171e+2, -780892.2, -252730.64, -29612.113, -0.019922022, 0.35481524, -251075.58, -193382.23, 0.0, 9.994332, 10.00133 
1.9148041e+3, 3.0411968e+2, -820598.5, -204249.63, 21918.578, -0.09941658, 0.47391194, -203471.14, -203471.14, 0.0, 9.993543, 10.001709 
1.9147825e+3, 3.1412083e+2, -862027.7, -23807.059, -99297.32, -0.07962254, 0.40424573, -12204.692, -12204.692, 0.0, 9.992396, 10.003501 
1.9252296e+3, 1.24161966e+2, -1042632.7, -1723964.4, 63567.6, 0.10775261, 0.41026768, -1036752.6, 686499.9, 0.084487684, 10.006616, 9.996753 
1.9252042e+3, 1.3415898e+2, -1007851.94, -1655813.4, -23192.543, -0.009739683, 0.41996464, -1007022.9, 618259.75, 0.059135307, 10.005964, 9.99686 
1.9251813e+3, 1.4415607e+2, -959208.6, -1538722.6, 16660.65, 0.082845144, 0.42870623, -958730.06, 568581.94, 0.03405545, 10.005273, 9.997322 
1.9251578e+3, 1.5415326e+2, -956062.7, -1495055.0, 25358.531, 0.03809649, 0.4115132, -954872.25, 474467.4, 0.014660548, 10.004541, 9.997301 
1.9251342e+3, 1.6415076e+2, -918908.2, -1375055.1, 4105.3926, 0.01814017, 0.4165993, -918871.25, 412493.66, 0.0039695455, 10.003854, 9.997784 
1.9251105e+3, 1.7414889e+2, -913685.56, -1325781.4, -141.1253, 0.025071232, 0.4476378, -913685.5, 319699.25, 0.00041562846, 10.003221, 9.997754 
1.9250868e+3, 1.8414696e+2, -898017.44, -1237776.4, -2817.742, 0.028728602, 0.47508055, -897994.06, 237411.36, 0.0000014320457, 10.002525, 9.998021 
1.925063e+3, 1.941452e+2, -916659.25, -1201417.3, -3240.071, 0.030332385, 0.49565277, -916622.4, 120802.71, 0.0, 10.001747, 9.997973 
1.9250391e+3, 2.0414352e+2, -876964.06, -1054482.4, -10031.111, 0.024700357, 0.5067865, -876399.06, 63043.76, 0.0, 10.001015, 9.998662 
1.925015e+3, 2.141422e+2, -876216.75, -1003746.9, -8847.155, 0.007420807, 0.5018211, -875605.94, -34150.203, 0.0, 10.000348, 9.998658 
1.9249909e+3, 2.2414102e+2, -858801.44, -909502.3, -18232.668, -0.0011413321, 0.5114688, -852925.7, -109458.2, 0.0, 9.999644, 9.998972 
1.9249667e+3, 2.3414026e+2, -873519.06, -870140.56, -21019.773, 0.0033863017, 0.53650147, -850742.25, -205266.39, 0.0, 9.998889, 9.998933 
1.9249424e+3, 2.441394e+2, -837368.9, -718111.2, -28020.648, 0.0053672446, 0.52966195, -711855.6, -164371.55, 0.0, 9.998105, 9.999681 
1.924918e+3, 2.5413865e+2, -859806.5, -678182.0, -24099.205, 0.0017019591, 0.48209494, -675038.75, -225549.38, 0.0, 9.997278, 9.9996805 
1.9248933e+3, 2.6413846e+2, -817364.2, -521777.53, -19196.77, -0.022195248, 0.46675003, -520536.03, -169046.42, 0.0, 9.996531, 10.000441 
1.9248684e+3, 2.7413908e+2, -812203.75, -467673.56, -20996.285, -0.0700709, 0.47768307, -466398.72, -212916.6, 0.0, 9.99589, 10.000448 
1.9248444e+3, 2.8413945e+2, -762762.44, -286000.7, 4113.5737, -0.06522408, 0.43536988, -285965.2, -130488.54, 0.0, 9.995096, 10.001406 
1.9248214e+3, 2.9414016e+2, -814007.7, -265010.9, 10185.317, 0.0011354506, 0.35854512, -264822.0, -207354.22, 0.0, 9.994094, 10.00136 
1.9247973e+3, 3.04143e+2, -835288.8, -173477.6, 63957.98, -0.10661965, 0.48270756, -167353.31, -167353.31, 0.0, 9.993283, 10.002044 
1.9247751e+3, 3.141442e+2, -832409.6, -46905.145, -40698.28, -0.092788674, 0.38743064, -44802.13, -44802.13, 0.0, 9.9927635, 10.003163 
1.935236e+3, 1.2418562e+2, -1043346.2, -1722771.0, 42675.01, 0.08848603, 0.41443253, -1040676.25, 682345.7, 0.08781111, 10.006625, 9.996756 
1.9352101e+3, 1.3418274e+2, -1010862.0, -1660725.1, -46516.434, -0.009968197, 0.43582276, -1007549.3, 617501.75, 0.06160988, 10.005968, 9.996827 
1.9351864e+3, 1.4417985e+2, -954646.2, -1528068.0, -9573.938, 0.07788172, 0.44728702, -954486.4, 572593.44, 0.035627738, 10.005274, 9.9973955 
1.9351621e+3, 1.5417705e+2, -950186.9, -1483405.4, -1720.23, 0.032241367, 0.42250383, -950181.3, 478926.0, 0.015451561, 10.004545, 9.997381 
1.935138e+3, 1.6417457e+2, -921203.7, -1381257.3, -19925.95, 0.0137923425, 0.4286341, -920342.25, 410790.06, 0.0042458093, 10.003858, 9.997742 
1.9351137e+3, 1.7417276e+2, -916819.25, -1333979.1, -23699.984, 0.02612367, 0.47003722, -915477.06, 317674.9, 0.0004620174, 10.003224, 9.997698 
1.9350892e+3, 1.8417078e+2, -897626.06, -1238782.0, -31189.438, 0.029585006, 0.4943182, -894798.06, 240375.45, 0.0000018185868, 10.002529, 9.998014 
1.9350646e+3, 1.9416879e+2, -915940.25, -1201944.6, -31900.24, 0.022492843, 0.4932051, -912425.4, 124769.82, 0.0, 10.001752, 9.997969 
1.93504e+3, 2.0416714e+2, -872271.75, -1046720.3, -34686.54, 0.0178446, 0.50414544, -865627.9, 73584.78, 0.0, 10.0010195, 9.998714 
1.9350155e+3, 2.1416616e+2, -871457.8, -995854.56, -32912.73, 0.015570177, 0.52941424, -863286.5, -22064.387, 0.0, 10.000354, 9.998712 
1.9349906e+3, 2.2416504e+2, -860135.1, -914216.75, -45497.074, 0.0089615695, 0.5430476, -834249.7, -91016.305, 0.0, 9.999649, 9.998939 
1.9349656e+3, 2.3416393e+2, -875537.2, -876355.06, -48424.65, -0.0025159335, 0.53557974, -827519.75, -182274.6, 0.0, 9.998895, 9.99889 
1.9349404e+3, 2.4416298e+2, -827141.8, -698966.5, -57954.113, 0.0000815901, 0.5182674, -676648.6, -129394.78, 0.0, 9.99811, 9.999812 
1.9349153e+3, 2.5416258e+2, -848709.8, -657075.0, -54148.766, 0.018761287, 0.4899444, -642833.06, -193577.42, 0.0, 9.997283, 9.999825 
1.93489e+3, 2.6416254e+2, -816988.75, -523001.53, -42908.934, -0.0023429727, 0.48092556, -516866.78, -165612.4, 0.0, 9.996536, 10.000432 
1.9348642e+3, 2.7416304e+2, -812681.44, -471826.63, -44073.36, -0.07101402, 0.48213854, -466220.06, -212971.9, 0.0, 9.9959, 10.000417 
1.9348395e+3, 2.841634e+2, -760057.0, -283946.94, -32303.986, -0.067157425, 0.44010526, -281765.13, -126522.38, 0.0, 9.995108, 10.001416 
1.9348155e+3, 2.9416424e+2, -809629.8, -257926.88, -27586.02, 0.016813815, 0.37573928, -256550.97, -199318.64, 0.0, 9.994099, 10.001408 
1.9347905e+3, 3.041669e+2, -802009.7, -106171.14, 43333.67, -0.12792407, 0.45750728, -103482.9, -103482.9, 0.0, 9.993287, 10.002505 
1.9347675e+3, 3.1416875e+2, -847030.2, -81705.766, -47599.344, -0.1096791, 0.3864857, -78756.695, -78756.695, 0.0, 9.99278, 10.002917 
1.9452427e+3, 1.24210075e+2, -998111.0, -1698733.3, 76482.72, 0.08822327, 0.4118211, -989859.06, 732923.56, 0.091097645, 10.006986, 9.99676 
1.945216e+3, 1.3420717e+2, -1001652.9, -1658670.1, -14233.313, -0.015463753, 0.43495315, -1001344.6, 623467.3, 0.0640603, 10.006066, 9.996791 
1.9451915e+3, 1.4420426e+2, -962147.06, -1533912.5, 22523.205, 0.059555434, 0.44806373, -961261.25, 565579.9, 0.037188586, 10.005241, 9.99737 
1.9451666e+3, 1.5420154e+2, -953963.3, -1487594.8, 22795.807, 0.02870874, 0.43449867, -952991.3, 475876.78, 0.016239954, 10.004537, 9.9973545 
1.9451417e+3, 1.6419911e+2, -925430.0, -1382029.9, 3256.3267, 0.016264541, 0.44483945, -925406.75, 405486.25, 0.004523041, 10.003828, 9.997747 
1.9451168e+3, 1.7419723e+2, -931557.4, -1339972.0, 3358.242, 0.021954762, 0.48016223, -931529.75, 301383.6, 0.0005095096, 10.003122, 9.9977045 
1.9450916e+3, 1.8419525e+2, -904960.25, -1235529.3, -925.91235, 0.02244077, 0.5028777, -904957.6, 229977.13, 0.0000023367377, 10.002454, 9.998071 
1.9450665e+3, 1.9419338e+2, -899718.8, -1186977.1, 2251.2202, 0.017273268, 0.5066312, -899701.2, 137254.19, 0.0, 10.001837, 9.998029 
1.9450411e+3, 2.0419176e+2, -854834.7, -1039553.4, -2019.057, 0.017476559, 0.5191609, -854812.56, 84159.94, 0.0, 10.001148, 9.9987 
1.945016e+3, 2.1419072e+2, -872187.8, -998641.5, -7045.92, 0.02389351, 0.5411776, -871796.44, -30813.742, 0.0, 10.000362, 9.998687 
1.9449903e+3, 2.2418958e+2, -859415.75, -902156.06, -18802.924, 0.019675234, 0.5493698, -852321.3, -109327.25, 0.0, 9.999607, 9.99904 
1.9449645e+3, 2.3418848e+2, -867828.0, -859920.06, -10860.156, 0.0021727337, 0.53413445, -852316.5, -207311.48, 0.0, 9.998897, 9.999 
1.9449386e+3, 2.4418762e+2, -820282.0, -697230.44, -21874.008, 0.0013153368, 0.5191866, -693457.75, -146444.8, 0.0, 9.998168, 9.999794 
1.9449127e+3, 2.5418735e+2, -832259.44, -652415.56, -31981.572, 0.019256083, 0.5060327, -646897.56, -197883.47, 0.0, 9.997414, 9.999792 
1.9448864e+3, 2.6418728e+2, -799814.3, -507158.94, -23849.488, -0.00253253, 0.49667713, -505228.1, -154215.13, 0.0, 9.996625, 10.000496 
1.94486e+3, 2.7418765e+2, -824787.9, -469573.25, -17905.592, -0.06899114, 0.4794705, -468672.97, -215665.52, 0.0, 9.995787, 10.000485 
1.9448344e+3, 2.8418815e+2, -778768.4, -294484.78, -7896.6514, -0.059419077, 0.4464236, -294356.06, -139355.28, 0.0, 9.994989, 10.001398 
1.9448099e+3, 2.9418933e+2, -785000.56, -245267.81, -7011.6045, 0.026299614, 0.41936994, -245176.73, -188189.42, 0.0, 9.994268, 10.0014105 
1.9447836e+3, 3.041915e+2, -753747.94, -50256.438, 60652.063, -0.15052399, 0.43618268, -45065.58, -45065.58, 0.0, 9.993482, 10.002794 
1.9447602e+3, 3.1419387e+2, -878663.0, -107024.68, -26923.447, -0.10212588, 0.39070997, -106086.43, -106086.43, 0.0, 9.992611, 10.002823 
1.9552499e+3, 1.2423532e+2, -1001883.25, -1700921.4, 46103.69, 0.10249288, 0.40210634, -998855.7, 723678.9, 0.0943528, 10.006981, 9.996748 
1.9552219e+3, 1.342323e+2, -1005362.94, -1666493.0, -46985.035, -0.02574552, 0.41916302, -1002040.5, 622524.7, 0.06648782, 10.006076, 9.996736 
1.9551964e+3, 1.4422931e+2, -969700.7, -1552112.4, -3674.291, 0.02905411, 0.43333623, -969677.5, 556918.0, 0.03873763, 10.005254, 9.997241 
1.9551711e+3, 1.5422674e+2, -962774.1, -1507819.4, -3336.7368, 0.026854483, 0.44745448, -962753.7, 465868.3, 0.017025642, 10.004543, 9.997214 
1.9551456e+3, 1.642243e+2, -921982.4, -1376565.1, -22916.105, 0.02448789, 0.46438706, -920830.06, 409817.2, 0.0048014936, 10.003834, 9.997785 
1.9551198e+3, 1.7422226e+2, -926622.7, -1332248.8, -22692.248, 0.012527834, 0.47831643, -925357.1, 307311.8, 0.0005582377, 10.00313, 9.997755 
1.9550939e+3, 1.8422037e+2, -896317.25, -1219960.1, -23888.365, 0.0072854753, 0.5014199, -894563.56, 240125.95, 0.000003033972, 10.0024605, 9.998177 
1.9550683e+3, 1.942189e+2, -891142.5, -1171234.1, -20251.387, 0.014263626, 0.5358622, -889685.9, 147020.14, 0.0, 10.0018425, 9.9981365 
1.9550423e+3, 2.0421733e+2, -860835.1, -1053955.3, -30364.586, 0.023056757, 0.5513945, -856173.4, 82549.484, 0.0, 10.001153, 9.9986 
1.9550163e+3, 2.1421582e+2, -879420.56, -1015702.44, -35687.023, 0.032338906, 0.5371663, -870641.1, -29903.117, 0.0, 10.000368, 9.998569 
1.95499e+3, 2.2421457e+2, -842650.4, -869382.8, -44909.945, 0.031071344, 0.5307156, -809159.8, -66409.7, 0.0, 9.999613, 9.999265 
1.9549635e+3, 2.3421389e+2, -849222.7, -823280.8, -36422.16, 0.01727927, 0.5317661, -797588.9, -152832.88, 0.0, 9.998901, 9.99925 
1.9549368e+3, 2.4421322e+2, -832307.0, -724321.0, -49073.355, 0.008572662, 0.53202933, -705352.06, -158590.1, 0.0, 9.998174, 9.999607 
1.9549099e+3, 2.5421286e+2, -847189.2, -685839.6, -59399.938, 0.0019954324, 0.5312241, -666330.7, -217565.08, 0.0, 9.99742, 9.999561 
1.9548829e+3, 2.6421264e+2, -789495.5, -488288.3, -54643.543, -0.023973275, 0.5148229, -478681.53, -127915.31, 0.0, 9.996633, 10.000624 
1.9548559e+3, 2.742129e+2, -812609.0, -446534.28, -49212.34, -0.06354311, 0.46877608, -440033.97, -187272.92, 0.0, 9.995792, 10.000643 
1.9548297e+3, 2.8421363e+2, -782242.6, -303805.5, -35332.08, -0.04133991, 0.45378363, -301210.34, -146458.47, 0.0, 9.994995, 10.001333 
1.954804e+3, 2.9421535e+2, -787893.7, -254250.19, -33790.8, 0.027662257, 0.49163887, -252119.03, -195385.33, 0.0, 9.994277, 10.001347 
1.9547768e+3, 3.0421668e+2, -745155.94, -36238.258, 27206.877, -0.17599244, 0.41908267, -35195.645, -35195.645, 0.0, 9.993494, 10.002887 
1.9547531e+3, 3.1421944e+2, -871282.3, -95020.16, -41339.04, -0.069251806, 0.40783548, -92824.89, -92824.89, 0.0, 9.992621, 10.002902 
1.9652566e+3, 1.24261305e+2, -1026242.94, -1719858.5, 72448.28, 0.09455049, 0.39493343, -1018756.5, 703523.06, 0.097608976, 10.006855, 9.996667 
1.9652282e+3, 1.342583e+2, -980079.56, -1664641.4, -24479.992, -0.023145864, 0.42528978, -979205.25, 645105.25, 0.06891689, 10.0063305, 9.996622 
1.9652016e+3, 1.4425524e+2, -920733.5, -1530557.1, 16043.94, 0.017400552, 0.4379557, -920311.7, 606030.44, 0.040288843, 10.005631, 9.997205 
1.9651756e+3, 1.542526e+2, -942331.0, -1500971.8, 22809.389, 0.011888193, 0.45119855, -941401.2, 486967.97, 0.01781394, 10.004707, 9.997181 
1.9651493e+3, 1.6425017e+2, -905553.5, -1363735.3, 13443.329, 0.012288292, 0.46771246, -905159.44, 425235.16, 0.005082299, 10.00393, 9.997825 
1.965123e+3, 1.7424816e+2, -891262.6, -1309653.9, 13076.542, 0.009639979, 0.48063758, -890854.3, 341561.47, 0.0006082207, 10.003353, 9.997801 
1.9650964e+3, 1.842463e+2, -867403.9, -1205396.1, 3957.0828, 0.0093601225, 0.5075772, -867357.56, 267078.28, 0.0000039260876, 10.002661, 9.998178 
1.9650699e+3, 1.9424497e+2, -896117.7, -1173679.6, -1639.0366, 0.016043628, 0.5532059, -896108.0, 140343.8, 0.0, 10.001813, 9.998132 
1.9650434e+3, 2.0424342e+2, -874164.44, -1055922.4, -11605.087, 0.024432594, 0.5706194, -873426.44, 65042.098, 0.0, 10.001046, 9.998636 
1.9650166e+3, 2.1424182e+2, -873257.6, -1008167.4, -6006.275, 0.03266296, 0.5453059, -872990.75, -32506.46, 0.0, 10.000395, 9.998606 
1.9649896e+3, 2.2424059e+2, -825380.25, -852000.06, -15313.021, 0.03162087, 0.53523386, -818401.2, -75905.125, 0.0, 9.999697, 9.999341 
1.9649623e+3, 2.3424006e+2, -839054.1, -809429.25, -20633.637, 0.02026132, 0.54356706, -798841.75, -154341.48, 0.0, 9.998937, 9.999327 
1.9649349e+3, 2.4423946e+2, -829803.6, -725666.94, -34744.332, 0.012288379, 0.54862565, -715139.1, -168633.56, 0.0, 9.998205, 9.99958 
1.9649073e+3, 2.5423905e+2, -836974.06, -684646.06, -30947.799, 0.0027740372, 0.5473773, -678598.6, -230088.75, 0.0, 9.997511, 9.999523 
1.9648795e+3, 2.6423877e+2, -765984.9, -472794.25, -25002.453, -0.029037671, 0.52355385, -470677.4, -120165.98, 0.0, 9.99678, 10.000657 
1.9648516e+3, 2.742389e+2, -781500.1, -427518.94, -29636.05, -0.07461299, 0.46643725, -425054.9, -172548.14, 0.0, 9.995992, 10.000674 
1.9648246e+3, 2.8423977e+2, -759280.56, -297669.88, -19216.414, -0.045930944, 0.46548465, -296871.28, -142374.92, 0.0, 9.995178, 10.001286 
1.9647984e+3, 2.9424182e+2, -782709.1, -256526.34, -15506.673, 0.037389092, 0.5351627, -256069.77, -199593.61, 0.0, 9.994338, 10.0013 
1.9647701e+3, 3.0424246e+2, -767229.8, -56351.875, 31693.07, -0.17956741, 0.40596455, -54941.7, -54941.7, 0.0, 9.993387, 10.002798 
1.9647458e+3, 3.1424576e+2, -892375.3, -79309.305, -27050.092, -0.050650615, 0.45417917, -78410.36, -78410.36, 0.0, 9.99237, 10.00313 
1.9752632e+3, 1.2428807e+2, -1035043.5, -1740231.5, 53210.676, 0.06671068, 0.39084092, -1031051.06, 690966.44, 0.100899816, 10.006879, 9.996515 
1.9752346e+3, 1.3428518e+2, -992749.8, -1690727.3, -43105.06, -0.009734846, 0.45137912, -990097.9, 633950.1, 0.071372606, 10.006333, 9.996445 
1.9752073e+3, 1.44282e+2, -919674.6, -1526205.6, -15942.263, 0.021438891, 0.45984238, -919255.9, 606825.06, 0.041856486, 10.005628, 9.997238 
1.9751799e+3, 1.5427914e+2, -938071.56, -1493845.9, -11130.111, -0.015540298, 0.44649372, -937848.75, 490260.97, 0.018610215, 10.004715, 9.997228 
1.975153e+3, 1.6427669e+2, -901938.56, -1359140.0, -9002.889, -0.018901207, 0.45641038, -901761.4, 428373.66, 0.005366466, 10.003941, 9.997853 
1.9751264e+3, 1.7427488e+2, -888864.94, -1306331.4, -8217.103, 0.012757919, 0.4871616, -888703.25, 343450.9, 0.000659297, 10.003357, 9.997824 
1.9750993e+3, 1.8427305e+2, -875054.56, -1222508.8, -26719.992, 0.02739195, 0.5209014, -873011.75, 261162.5, 0.000004997438, 10.002663, 9.998061 
1.9750717e+3, 1.942715e+2, -903979.9, -1192120.6, -32774.992, 0.0223356, 0.55869925, -900298.9, 135894.25, 0.0, 10.001818, 9.998004 
1.9750443e+3, 2.0426998e+2, -861880.3, -1032794.2, -35819.133, 0.021526594, 0.57702166, -854677.1, 83532.88, 0.0, 10.001053, 9.998794 
1.9750169e+3, 2.142687e+2, -859757.9, -982271.75, -29427.766, 0.024479128, 0.56553847, -853055.94, -12833.813, 0.0, 10.000401, 9.998783 
1.9749892e+3, 2.2426759e+2, -830735.3, -865161.56, -42690.02, 0.020793598, 0.5629063, -801918.75, -59686.2, 0.0, 9.9997015, 9.99925 
1.9749612e+3, 2.3426692e+2, -846015.44, -826090.2, -48214.92, 0.010815632, 0.5701987, -786819.4, -142580.88, 0.0, 9.998942, 9.999211 
1.9749331e+3, 2.4426629e+2, -819575.75, -706873.94, -60206.566, 0.012401589, 0.5695301, -680761.2, -134516.89, 0.0, 9.998212, 9.999708 
1.974905e+3, 2.5426584e+2, -825311.9, -663053.1, -56159.33, 0.022173915, 0.553509, -645512.1, -197264.23, 0.0, 9.997519, 9.99967 
1.9748764e+3, 2.6426554e+2, -770365.75, -484602.9, -53743.957, -0.017391339, 0.5217484, -474829.44, -124579.97, 0.0, 9.996788, 10.000574 
1.9748473e+3, 2.7426568e+2, -787922.94, -443667.97, -59153.836, -0.104064755, 0.47323528, -433787.1, -181541.6, 0.0, 9.996, 10.000562 
1.9748195e+3, 2.8426653e+2, -760871.1, -304022.34, -50906.723, -0.07539507, 0.48223498, -298418.56, -144183.2, 0.0, 9.995187, 10.00124 
1.974793e+3, 2.942685e+2, -784123.8, -262833.72, -47714.734, 0.05619028, 0.5479394, -258502.3, -202286.2, 0.0, 9.994349, 10.001253 
1.9747637e+3, 3.0426875e+2, -786519.4, -99292.24, -8812.924, -0.15966195, 0.39621592, -99179.24, -99179.24, 0.0, 9.993396, 10.002501 
1.9747381e+3, 3.1427258e+2, -864422.5, -22957.889, -40562.574, -0.05227114, 0.5266477, -21007.104, -21007.104, 0.0, 9.992373, 10.003517 
1.9852701e+3, 1.24315836e+2, -961302.0, -1709637.9, 74054.59, 0.03343092, 0.41280508, -954044.06, 767701.8, 0.10423569, 10.007509, 9.996427 
1.985241e+3, 1.3431266e+2, -999356.7, -1703681.0, -15981.247, -0.0060178, 0.4543368, -998994.25, 624784.94, 0.073861316, 10.006346, 9.996347 
1.9852127e+3, 1.4430928e+2, -945713.3, -1538896.8, 17797.313, 0.024067966, 0.44961676, -945179.8, 580634.4, 0.04344391, 10.005452, 9.997234 
1.9851847e+3, 1.5430665e+2, -912786.94, -1481012.1, 19420.357, -0.019841885, 0.4595652, -912123.94, 515717.1, 0.019415896, 10.004899, 9.997225 
1.9851568e+3, 1.6430427e+2, -867664.9, -1341205.5, 17259.807, -0.023645027, 0.47784805, -867036.6, 462829.03, 0.0056543597, 10.004178, 9.99786 
1.9851296e+3, 1.7430235e+2, -906420.2, -1313836.1, 15982.727, 0.015548275, 0.49759918, -905794.2, 326091.47, 0.000711388, 10.003237, 9.9978285 
1.9851018e+3, 1.8430048e+2, -903413.7, -1234102.9, 3027.4995, 0.03280399, 0.5251743, -903386.0, 230520.25, 0.000006217688, 10.002462, 9.998076 
1.9850735e+3, 1.9429894e+2, -889885.8, -1183448.9, 6652.347, 0.023596784, 0.56230277, -889735.2, 146189.95, 0.0, 10.001911, 9.998017 
1.9850454e+3, 2.0429744e+2, -829616.94, -1013658.25, 3316.5286, 0.01967857, 0.5837638, -829557.2, 108384.47, 0.0, 10.001264, 9.998822 
1.9850172e+3, 2.1429628e+2, -845474.44, -972162.0, -2383.8806, 0.020883033, 0.58122146, -845429.6, -5476.7925, 0.0, 10.000488, 9.998808 
1.9849887e+3, 2.2429521e+2, -825619.1, -859939.2, -19547.918, 0.0167881, 0.58110625, -816767.9, -74804.97, 0.0, 9.999728, 9.999271 
1.9849601e+3, 2.342945e+2, -838159.9, -819653.4, -15560.048, 0.00837715, 0.58247507, -810803.1, -166833.86, 0.0, 9.998989, 9.999231 
1.9849312e+3, 2.4429385e+2, -809733.0, -690388.8, -23129.969, 0.012302853, 0.57545644, -686062.8, -140087.94, 0.0, 9.998233, 9.999809 
1.9849025e+3, 2.5429347e+2, -826770.2, -651710.6, -22253.895, 0.024993965, 0.5521189, -648926.0, -200948.42, 0.0, 9.997459, 9.999775 
1.9848731e+3, 2.642932e+2, -782856.9, -492426.47, -20366.77, -0.017325697, 0.5197989, -491005.2, -141026.56, 0.0, 9.996714, 10.000554 
1.9848432e+3, 2.7429336e+2, -791824.56, -449167.4, -20721.89, -0.1129556, 0.48059997, -447918.8, -195944.27, 0.0, 9.995994, 10.0005245 
1.9848146e+3, 2.8429422e+2, -748948.9, -301200.47, -9934.292, -0.08345202, 0.4909247, -300980.2, -147015.27, 0.0, 9.995286, 10.001209 
1.9847873e+3, 2.9429603e+2, -758040.1, -255070.67, -7449.926, 0.05834667, 0.5451597, -254960.34, -199013.23, 0.0, 9.994552, 10.001207 
1.9847572e+3, 3.042962e+2, -794798.6, -146395.61, 15221.615, -0.15150523, 0.41091752, -146038.47, -146038.47, 0.0, 9.993527, 10.002112 
1.9847305e+3, 3.142998e+2, -855441.3, 1671.8757, 3758.93, -0.0483182, 0.55496246, 1688.3605, 1688.3605, 0.0, 9.992352, 10.003695 
1.9952771e+3, 1.2434458e+2, -968786.25, -1717930.6, 33393.785, -0.0077780145, 0.45718664, -967300.6, 754164.4, 0.107598744, 10.0075, 9.996369 
1.9952472e+3, 1.3434073e+2, -1002230.56, -1710457.6, -56734.43, -0.011192185, 0.4366191, -997714.5, 625789.44, 0.07637232, 10.006359, 9.996299 
1.9952182e+3, 1.443371e+2, -947221.25, -1545197.3, -3413.2205, 0.025792502, 0.41131058, -947201.75, 578339.7, 0.045047108, 10.00547, 9.997185 
1.9951896e+3, 1.5433511e+2, -916599.9, -1489868.6, -841.0097, -0.0030083451, 0.48936513, -916598.7, 510964.7, 0.02023053, 10.004902, 9.997165 
1.9951613e+3, 1.6433288e+2, -869936.75, -1346185.8, -16600.621, -0.004515712, 0.5294123, -869358.8, 460228.06, 0.0059462725, 10.004176, 9.997828 
1.9951329e+3, 1.7433056e+2, -906999.8, -1317693.9, -18741.6, 0.017720379, 0.51160365, -906146.4, 325464.22, 0.0007647005, 10.003245, 9.9978 
1.9951043e+3, 1.8432856e+2, -892898.8, -1215459.5, -18048.004, 0.02598126, 0.52072656, -891892.1, 241739.97, 0.0000075719613, 10.002473, 9.998201 
1.9950755e+3, 1.9432719e+2, -879391.2, -1163892.0, -13223.028, 0.019707562, 0.5642612, -878777.94, 156870.33, 0.0, 10.001917, 9.998151 
1.9950466e+3, 2.043258e+2, -837076.3, -1030975.1, -24455.166, 0.018475695, 0.5910974, -834039.5, 103624.47, 0.0, 10.001267, 9.998703 
1.9950177e+3, 2.1432452e+2, -854328.8, -992675.4, -30559.83, 0.021732759, 0.5925821, -847879.0, -8202.079, 0.0, 10.000494, 9.998667 
1.9949885e+3, 2.243234e+2, -815789.8, -841777.1, -46599.152, 0.019442732, 0.5897872, -780406.6, -38718.957, 0.0, 9.999734, 9.999395 
1.9949591e+3, 2.3432274e+2, -827112.9, -798893.75, -42295.824, 0.012758834, 0.57962185, -768416.1, -124722.914, 0.0, 9.998994, 9.999373 
1.9949296e+3, 2.443221e+2, -804590.25, -682019.56, -51277.65, 0.011618882, 0.5657233, -663396.94, -117698.92, 0.0, 9.9982395, 9.999866 
1.9948998e+3, 2.5432178e+2, -822241.25, -644558.3, -50430.086, 0.01027606, 0.54362714, -631243.0, -183543.36, 0.0, 9.997466, 9.999823 
1.9948696e+3, 2.6432163e+2, -779485.3, -487746.53, -47012.53, -0.029500477, 0.518188, -480357.78, -130658.2, 0.0, 9.996719, 10.000586 
1.9948392e+3, 2.7432194e+2, -788672.9, -445592.3, -47159.805, -0.10048358, 0.4878581, -439227.8, -187533.02, 0.0, 9.996002, 10.000547 
1.9948101e+3, 2.8432268e+2, -748956.7, -304436.47, -37105.273, -0.06940059, 0.4903893, -301360.47, -147674.42, 0.0, 9.9952965, 10.0011835 
1.9947818e+3, 2.9432428e+2, -760564.75, -263296.16, -36801.87, 0.042378996, 0.5266595, -260587.28, -204917.19, 0.0, 9.994561, 10.001148 
1.9947506e+3, 3.043248e+2, -828929.5, -220327.88, -31304.832, -0.15627714, 0.4523777, -218721.88, -218721.88, 0.0, 9.993536, 10.001602 
1.994723e+3, 3.1432727e+2, -858698.0, -9266.125, -14229.454, -0.043193724, 0.5346346, -9027.824, -9027.824, 0.0, 9.992365, 10.003615 
2.0052844e+3, 1.2437356e+2, -992300.75, -1726580.1, 49073.805, -0.0108529115, 0.45539802, -989035.56, 732145.9, 0.110965624, 10.007331, 9.99639 
2.0052536e+3, 1.3436984e+2, -955051.75, -1677882.6, -31002.053, -0.020919748, 0.44201213, -953724.56, 669494.2, 0.07889495, 10.006698, 9.996355 
2.0052238e+3, 1.4436613e+2, -894733.06, -1524066.8, 27772.443, 0.005310117, 0.41007936, -893509.8, 631747.0, 0.046664502, 10.005885, 9.997127 
2.0051946e+3, 1.5436415e+2, -932219.7, -1505083.5, 29161.629, 0.0031571744, 0.49679092, -930739.0, 496540.22, 0.021055728, 10.004833, 9.997092 
2.0051654e+3, 1.6436197e+2, -890591.2, -1350570.4, 18833.291, 0.007554758, 0.54192513, -889821.4, 439481.4, 0.0062433016, 10.004015, 9.997874 
2.005136e+3, 1.7435968e+2, -866535.6, -1292298.3, 21858.04, 0.008101386, 0.523545, -865416.44, 365909.75, 0.00081958406, 10.003502, 9.997848 
2.0051067e+3, 1.8435769e+2, -836095.8, -1181767.6, 22597.621, 0.010924621, 0.5290617, -834624.8, 298722.63, 0.000009033603, 10.00284, 9.998254 
2.0050775e+3, 1.943563e+2, -867207.7, -1151919.9, 20633.035, 0.020447303, 0.5657293, -865720.2, 169643.06, 0.0, 10.001979, 9.9982 
2.005048e+3, 2.0435488e+2, -850878.9, -1035449.5, 8429.538, 0.025968438, 0.5899417, -850494.7, 86884.08, 0.0, 10.001167, 9.998719 
2.0050181e+3, 2.1435367e+2, -864111.1, -995949.8, 12748.229, 0.02419983, 0.5942505, -862889.75, -23498.16, 0.0, 10.000424, 9.998675 
2.0049882e+3, 2.2435257e+2, -821400.9, -840523.7, -464.31628, 0.019863116, 0.5916002, -821389.6, -79987.375, 0.0, 9.999682, 9.999427 
2.004958e+3, 2.3435189e+2, -832967.9, -798047.0, -5211.1226, 0.014960818, 0.5777716, -797285.94, -153878.13, 0.0, 9.998941, 9.999403 
2.0049277e+3, 2.4435127e+2, -797300.0, -669297.25, -16955.303, 0.009979172, 0.560413, -667089.44, -121677.1, 0.0, 9.998253, 9.999945 
2.0048971e+3, 2.54351e+2, -793216.25, -620764.4, -13864.791, -0.0021551417, 0.5365433, -619656.75, -172243.78, 0.0, 9.997626, 9.999907 
2.0048663e+3, 2.6435092e+2, -757783.0, -477906.28, -14935.084, -0.035727363, 0.51695454, -477111.56, -127699.64, 0.0, 9.996875, 10.000576 
2.0048355e+3, 2.7435133e+2, -795295.4, -450510.72, -18278.662, -0.07948975, 0.49819532, -449544.38, -198137.78, 0.0, 9.995968, 10.000528 
2.0048054e+3, 2.84352e+2, -757692.44, -309642.9, -3473.109, -0.05352467, 0.49165395, -309615.97, -156216.88, 0.0, 9.995244, 10.001171 
2.004776e+3, 2.943533e+2, -742376.6, -257274.33, -4308.373, 0.0141851865, 0.50439364, -257236.06, -201850.5, 0.0, 9.994701, 10.001119 
2.0047441e+3, 3.0435434e+2, -812294.75, -221744.2, -4859.6763, -0.15858635, 0.4869873, -221704.22, -221704.22, 0.0, 9.993695, 10.001514 
2.0047154e+3, 3.1435603e+2, -871451.56, -21033.781, 67469.234, -0.035072505, 0.5011436, -15714.278, -15714.278, 0.0, 9.992308, 10.003559 
2.015292e+3, 1.2440287e+2, -987333.06, -1713168.6, 23967.06, 0.018618513, 0.41470435, -986542.56, 734351.8, 0.11435019, 10.007345, 9.996481 
2.01526e+3, 1.3439995e+2, -945983.3, -1656337.6, -52765.355, -0.035820555, 0.46782875, -942085.25, 680838.44, 0.08144134, 10.006706, 9.996503 
2.0152292e+3, 1.4439633e+2, -900653.06, -1536753.0, -8473.048, -0.03620752, 0.44096467, -900540.25, 624420.7, 0.048305914, 10.005891, 9.997039 
2.0151994e+3, 1.543938e+2, -938063.8, -1519785.6, -9131.866, -0.00094493246, 0.48336804, -937920.5, 489068.25, 0.021898188, 10.004843, 9.996988 
2.0151694e+3, 1.643915e+2, -882070.9, -1335537.1, -1029.9628, 0.012482588, 0.51874554, -882068.56, 446944.9, 0.0065485914, 10.004024, 9.997974 
2.0151393e+3, 1.7438968e+2, -858367.94, -1276850.9, 3248.3152, -0.012967202, 0.53391623, -858342.7, 372690.03, 0.0008767598, 10.003505, 9.997954 
2.0151092e+3, 1.8438782e+2, -838368.8, -1187351.9, -8311.321, -0.012217772, 0.5496463, -838171.0, 294881.7, 0.000010560831, 10.00284, 9.998218 
2.0150794e+3, 1.943862e+2, -869593.5, -1158605.5, -10971.595, 0.02563634, 0.566691, -869177.56, 165893.11, 0.0, 10.001983, 9.998155 
2.0150492e+3, 2.0438471e+2, -840358.5, -1015795.6, -18959.324, 0.04168696, 0.5801713, -838333.0, 98753.53, 0.0, 10.001173, 9.998853 
2.0150186e+3, 2.1438365e+2, -852994.3, -974921.3, -14122.646, 0.02795025, 0.58611715, -851379.9, -12282.639, 0.0, 10.000429, 9.998819 
2.0149878e+3, 2.2438262e+2, -826080.7, -852283.25, -27501.346, 0.017816193, 0.5867298, -808719.44, -67612.23, 0.0, 9.999687, 9.999346 
2.0149569e+3, 2.3438188e+2, -838889.6, -812522.3, -32062.188, 0.014701024, 0.5774742, -791039.06, -147925.28, 0.0, 9.998947, 9.999303 
2.014926e+3, 2.4438125e+2, -789664.3, -655990.44, -39887.56, 0.007044585, 0.55985194, -644992.94, -99874.445, 0.0, 9.99826, 10.000035 
2.0148946e+3, 2.5438103e+2, -784692.8, -605909.06, -36665.996, -0.012395468, 0.5307315, -598681.56, -151563.22, 0.0, 9.997635, 10.000007 
2.0148632e+3, 2.6438105e+2, -760739.75, -486994.72, -48267.99, -0.035811573, 0.51620525, -478733.22, -129616.73, 0.0, 9.996883, 10.000511 
2.0148316e+3, 2.743815e+2, -799113.3, -460969.16, -51777.7, -0.049550902, 0.51199305, -453218.44, -202107.63, 0.0, 9.995975, 10.000456 
2.0148008e+3, 2.8438202e+2, -757399.3, -311688.84, -24453.275, -0.03602647, 0.4946776, -310351.25, -157246.25, 0.0, 9.995252, 10.001156 
2.0147702e+3, 2.9438302e+2, -741506.1, -259399.16, -27182.248, -0.028465036, 0.47778246, -257871.4, -202776.8, 0.0, 9.994715, 10.001101 
2.0147377e+3, 3.0438474e+2, -785377.8, -169554.13, -58285.023, -0.15915321, 0.51482075, -164086.25, -164086.25, 0.0, 9.993707, 10.001869 
2.0147076e+3, 3.1438628e+2, -875142.9, -30250.092, 31654.637, -0.025117667, 0.475786, -29065.783, -29065.783, 0.0, 9.99231, 10.003497 
2.0252994e+3, 1.2443335e+2, -960796.3, -1702632.9, 61907.383, 0.012492575, 0.39609304, -955665.56, 764929.8, 0.11782007, 10.007595, 9.99644 
2.0252669e+3, 1.344307e+2, -918876.4, -1637439.1, -17344.04, -0.031344008, 0.47376415, -918458.0, 704164.4, 0.08405475, 10.006913, 9.996529 
2.025235e+3, 1.444271e+2, -866208.1, -1509080.8, 17389.084, -0.04378423, 0.44311222, -865738.1, 658921.25, 0.049994875, 10.006107, 9.9971285 
2.0252042e+3, 1.544245e+2, -892256.25, -1487332.3, 28674.424, -0.00943026, 0.47059762, -890877.7, 535809.56, 0.022769561, 10.005131, 9.99707 
2.0251735e+3, 1.6442224e+2, -856863.7, -1325487.0, 50941.324, 0.0074417493, 0.50641274, -851390.06, 477321.72, 0.006867334, 10.004213, 9.997951 
2.0251428e+3, 1.7442058e+2, -881076.1, -1291044.0, 45345.9, -0.009596427, 0.54217666, -876120.4, 354609.84, 0.0009376677, 10.003367, 9.997921 
2.0251119e+3, 1.8441875e+2, -874815.1, -1199966.4, 26610.277, -0.0050441213, 0.5624354, -872651.75, 260098.25, 0.000012160716, 10.002573, 9.998257 
2.0250814e+3, 1.9441701e+2, -887229.1, -1162249.1, 29144.084, 0.030718064, 0.5631945, -884174.6, 150594.11, 0.0, 10.001844, 9.998195 
2.0250502e+3, 2.0441552e+2, -842122.3, -1012393.75, 23461.467, 0.044502888, 0.5712762, -838948.75, 97835.79, 0.0, 10.001146, 9.998887 
2.0250191e+3, 2.1441455e+2, -843373.9, -966200.2, 19376.76, 0.028493265, 0.5857157, -840389.56, -1595.38, 0.0, 10.000482, 9.998852 
2.0249875e+3, 2.2441354e+2, -816546.56, -852491.06, 731.5648, 0.016753772, 0.58961487, -816531.7, -75727.69, 0.0, 9.999777, 9.999299 
2.0249557e+3, 2.3441271e+2, -832179.5, -815003.5, -1154.3104, 0.012265313, 0.5769126, -814926.3, -172114.58, 0.0, 9.999022, 9.999248 
2.024924e+3, 2.4441208e+2, -784553.5, -647643.2, -6867.327, 0.0043105986, 0.5586499, -647299.6, -102482.91, 0.0, 9.998274, 10.000084 
2.0248921e+3, 2.5441194e+2, -795734.0, -604942.94, -7366.151, -0.012794745, 0.53368443, -604659.0, -157843.38, 0.0, 9.997536, 10.000059 
2.02486e+3, 2.64412e+2, -770680.44, -489150.8, -22814.023, -0.031586427, 0.52146363, -487314.03, -138500.86, 0.0, 9.996808, 10.000531 
2.0248276e+3, 2.7441245e+2, -781040.3, -449631.06, -19518.578, -0.040663082, 0.51473576, -448485.47, -197677.95, 0.0, 9.996092, 10.000475 
2.024796e+3, 2.844129e+2, -752155.3, -305728.06, 15294.689, -0.035725042, 0.4904592, -305204.7, -152402.48, 0.0, 9.995277, 10.001182 
2.0247647e+3, 2.9441386e+2, -793960.44, -279862.66, 14044.585, -0.045525964, 0.46657026, -279479.25, -224686.88, 0.0, 9.994338, 10.001139 
2.0247316e+3, 3.0441588e+2, -799088.2, -144172.84, -29056.408, -0.13054319, 0.5170831, -142886.23, -142886.23, 0.0, 9.993479, 10.0021515 
2.0246999e+3, 3.144176e+2, -828773.7, -31402.504, 61573.746, -0.040454056, 0.47080913, -26675.74, -26675.74, 0.0, 9.992733, 10.003283 
2.0353065e+3, 1.24464974e+2, -973673.94, -1726534.1, 34584.52, -0.026205491, 0.39362612, -972088.56, 748196.44, 0.121460065, 10.007604, 9.996259 
2.0352739e+3, 1.3446213e+2, -926664.06, -1652524.5, -39993.84, -0.01030869, 0.4625029, -924467.1, 697847.5, 0.086791016, 10.006918, 9.996426 
2.0352413e+3, 1.4445849e+2, -850834.2, -1476600.5, -16222.897, -0.021886334, 0.42096177, -850413.9, 673938.0, 0.051762037, 10.006111, 9.997363 
2.0352091e+3, 1.5445623e+2, -874448.9, -1451707.9, -7124.1216, -0.022249725, 0.45809257, -874360.94, 552014.3, 0.023684278, 10.00514, 9.997312 
2.0351775e+3, 1.644541e+2, -866522.6, -1348346.8, 19397.777, -0.006645748, 0.503104, -865742.94, 462655.4, 0.007205689, 10.004222, 9.99779 
2.0351462e+3, 1.7445235e+2, -892638.25, -1317324.8, 14081.381, 0.016645432, 0.54822373, -892171.9, 338247.2, 0.0010042681, 10.003374, 9.99774 
2.0351149e+3, 1.8445045e+2, -867123.94, -1186216.8, -484.65622, 0.030137336, 0.5677085, -867123.2, 265316.63, 0.000013938443, 10.002579, 9.99835 
2.0350832e+3, 1.944487e+2, -878564.94, -1146653.1, 2491.3257, 0.035297066, 0.5555512, -878541.75, 155916.2, 0.0, 10.001851, 9.998301 
2.0350514e+3, 2.0444721e+2, -846743.5, -1024177.3, -867.0757, 0.03473548, 0.56367326, -846739.25, 89734.086, 0.0, 10.001152, 9.998806 
2.0350194e+3, 2.1444632e+2, -848877.7, -979785.9, -4679.676, 0.025670586, 0.59338623, -848710.6, -10227.773, 0.0, 10.000487, 9.998757 
2.0349872e+3, 2.2444528e+2, -817243.75, -856238.3, -26699.71, 0.016217023, 0.6002181, -803680.2, -63186.96, 0.0, 9.9997835, 9.999272 
2.0349547e+3, 2.344443e+2, -832820.9, -818630.0, -28599.568, 0.0074228067, 0.575712, -796258.9, -153756.55, 0.0, 9.999028, 9.999222 
2.0349222e+3, 2.4444364e+2, -783916.75, -648793.3, -33983.668, 0.0018129525, 0.5568975, -640727.8, -96220.15, 0.0, 9.99828, 10.000074 
2.0348898e+3, 2.5444365e+2, -795316.2, -606384.0, -34546.816, -0.0031778358, 0.54589856, -600265.1, -153759.52, 0.0, 9.997541, 10.000049 
2.0348568e+3, 2.6444373e+2, -763031.2, -475612.8, -49666.094, -0.023465902, 0.5327033, -467272.5, -118769.65, 0.0, 9.996814, 10.000624 
2.0348236e+3, 2.744441e+2, -772784.44, -435339.94, -46308.92, -0.05485452, 0.50628906, -429100.16, -178602.6, 0.0, 9.996099, 10.000571 
2.034791e+3, 2.8444457e+2, -746581.56, -296893.9, -20014.076, -0.053976152, 0.4791514, -296004.9, -143513.4, 0.0, 9.995285, 10.001242 
2.034759e+3, 2.9444578e+2, -787152.1, -267549.63, -22400.467, -0.03439102, 0.4706108, -266585.72, -212105.92, 0.0, 9.994342, 10.0012245 
2.0347257e+3, 3.0444762e+2, -785075.8, -116960.22, -58043.777, -0.06994004, 0.4913283, -111955.055, -111955.055, 0.0, 9.993484, 10.002338 
2.0346923e+3, 3.1445026e+2, -854599.75, -89248.4, 31171.16, -0.08235684, 0.5195437, -87980.96, -87980.96, 0.0, 9.992747, 10.002881 
2.045314e+3, 1.2449771e+2, -946928.75, -1716934.0, 65132.305, -0.03801181, 0.4067475, -941458.3, 778506.06, 0.12531577, 10.00787, 9.996199 
2.045281e+3, 1.3449474e+2, -928684.25, -1647862.0, 6513.8247, 0.0010442422, 0.45970187, -928625.25, 693369.75, 0.08968456, 10.006904, 9.996461 
2.0452474e+3, 1.44491e+2, -856844.94, -1479356.5, 28813.332, -0.015760781, 0.40908226, -855514.1, 668518.7, 0.05362935, 10.0060835, 9.997355 
2.0452143e+3, 1.5448882e+2, -837242.1, -1434457.3, 20158.564, -0.02415361, 0.45590767, -836562.44, 589493.06, 0.024653893, 10.005417, 9.997295 
2.0451817e+3, 1.644867e+2, -818848.1, -1331350.3, 36210.25, -0.010114972, 0.5059972, -816302.4, 511776.2, 0.0075688707, 10.004584, 9.997731 
2.0451498e+3, 1.7448488e+2, -871328.7, -1314219.1, 38101.23, 0.019389097, 0.5504703, -868074.8, 362025.66, 0.0010784114, 10.003554, 9.997672 
2.0451175e+3, 1.8448298e+2, -845529.8, -1171640.6, 34690.797, 0.032612666, 0.56952786, -841880.4, 290241.22, 0.00001608478, 10.002712, 9.998384 
2.045085e+3, 1.9448124e+2, -840690.94, -1123605.4, 32400.309, 0.029191222, 0.55745304, -837027.8, 197111.25, 0.0, 10.002094, 9.998339 
2.0450525e+3, 2.0447975e+2, -824199.06, -1017393.4, 22434.242, 0.02846332, 0.56602734, -821628.1, 114526.15, 0.0, 10.001328, 9.998765 
2.0450197e+3, 2.1447882e+2, -867776.2, -993975.2, 20908.816, 0.029719807, 0.59647894, -864402.2, -26237.764, 0.0, 10.000383, 9.998709 
2.044987e+3, 2.2447774e+2, -841830.1, -864275.9, 7024.678, 0.0232561, 0.601518, -839812.94, -99637.734, 0.0, 9.999602, 9.999303 
2.0449537e+3, 2.3447676e+2, -831888.5, -814112.94, 8954.099, 0.008329878, 0.5726945, -810384.56, -168200.25, 0.0, 9.999021, 9.999254 
2.0449205e+3, 2.4447612e+2, -773871.44, -640086.7, 3163.5664, -0.0018935666, 0.55439276, -640011.94, -95822.59, 0.0, 9.998337, 10.000106 
2.0448871e+3, 2.544762e+2, -796041.4, -603471.8, 4797.9043, -0.008532652, 0.5484574, -603352.3, -157165.48, 0.0, 9.997526, 10.000074 
2.0448536e+3, 2.6447633e+2, -761009.8, -460177.94, -5679.05, -0.024275478, 0.5326543, -460070.78, -111887.08, 0.0, 9.99677, 10.000749 
2.0448197e+3, 2.744767e+2, -767616.06, -417746.38, -82.22889, -0.046795428, 0.49821666, -417746.34, -167568.55, 0.0, 9.996075, 10.000702 
2.0447862e+3, 2.844774e+2, -751287.8, -293668.84, 17587.355, -0.051284157, 0.48176837, -292993.9, -140824.13, 0.0, 9.995233, 10.0012865 
2.0447531e+3, 2.9447886e+2, -797092.2, -265877.3, 13196.583, -0.045452204, 0.49601477, -265549.7, -211394.08, 0.0, 9.99425, 10.001278 
2.0447193e+3, 3.044802e+2, -771287.9, -108768.88, -17960.33, -0.045532536, 0.461125, -108282.35, -108282.35, 0.0, 9.993576, 10.002347 
2.0446849e+3, 3.1448334e+2, -806986.7, -81175.29, 50877.465, -0.09621964, 0.5448458, -77626.27, -77626.27, 0.0, 9.993141, 10.002745 
2.0553221e+3, 1.2453156e+2, -947645.0, -1711969.0, 26937.28, -0.028056461, 0.43491298, -946696.8, 772936.75, 0.12937145, 10.007873, 9.996235 
2.0552878e+3, 1.3452847e+2, -919293.06, -1625506.1, -26340.61, 0.003178715, 0.46248657, -918311.94, 703352.2, 0.09272941, 10.006918, 9.99661 
2.0552534e+3, 1.4452463e+2, -872433.7, -1513073.0, 4822.114, -0.023880744, 0.40383327, -872397.4, 651305.6, 0.05559787, 10.006098, 9.997107 
2.0552197e+3, 1.545223e+2, -855296.4, -1473606.4, -3775.3735, -0.016842937, 0.4634755, -855273.3, 570454.7, 0.02568205, 10.005421, 9.997026 
2.0551863e+3, 1.6452008e+2, -817340.9, -1329259.5, -824.02783, -0.0051650982, 0.5155837, -817339.56, 510413.0, 0.007960077, 10.004586, 9.997746 
2.0551531e+3, 1.7451815e+2, -868014.75, -1310402.4, 125.00455, -0.00029391717, 0.5491369, -868014.7, 361760.13, 0.0011617148, 10.003564, 9.997696 
2.0551199e+3, 1.8451624e+2, -846655.0, -1176898.6, 11360.506, 0.004252083, 0.56794447, -846264.6, 285531.13, 0.000018863731, 10.002721, 9.998346 
2.055087e+3, 1.945146e+2, -842913.6, -1129853.6, 9877.585, 0.012584106, 0.56854165, -842574.0, 191238.4, 0.0, 10.002097, 9.998297 
2.0550537e+3, 2.0451309e+2, -824817.3, -1020159.7, -11732.168, 0.025061684, 0.57783246, -824115.2, 111712.67, 0.0, 10.001331, 9.998747 
2.0550203e+3, 2.1451199e+2, -868284.1, -996953.94, -13668.724, 0.040497568, 0.59486204, -866848.1, -29008.69, 0.0, 10.000388, 9.998688 
2.0549865e+3, 2.2451088e+2, -835821.75, -854004.75, -14675.928, 0.03788332, 0.5936877, -827649.44, -87799.03, 0.0, 9.999608, 9.9993725 
2.0549527e+3, 2.3451e+2, -825400.06, -803048.7, -11923.761, 0.014793311, 0.5683371, -797882.06, -156023.8, 0.0, 9.999027, 9.999329 
2.0549187e+3, 2.4450944e+2, -768768.8, -632012.75, -26216.934, -0.0073224735, 0.5512012, -627159.06, -83296.6, 0.0, 9.998343, 10.000159 
2.0548843e+3, 2.545095e+2, -791623.4, -596691.94, -25058.1, -0.029854491, 0.5406296, -593522.3, -147662.28, 0.0, 9.997533, 10.000119 
2.0548502e+3, 2.645097e+2, -749640.0, -439117.78, -31778.098, -0.03433532, 0.52088994, -435899.03, -88042.54, 0.0, 9.996777, 10.000893 
2.0548162e+3, 2.745103e+2, -755589.5, -395665.84, -26469.799, -0.014963199, 0.49076945, -393729.6, -143880.61, 0.0, 9.996082, 10.000852 
2.0547818e+3, 2.8451133e+2, -749308.1, -292104.5, -19612.398, -0.0268534, 0.4992271, -291264.75, -139426.92, 0.0, 9.995239, 10.001296 
2.0547469e+3, 2.9451305e+2, -796455.06, -266364.28, -23223.617, -0.08187224, 0.5450349, -265348.78, -211528.22, 0.0, 9.994253, 10.001275 
2.0547129e+3, 3.0451348e+2, -783138.5, -136217.05, -34457.438, -0.06050325, 0.42528483, -134386.89, -134386.89, 0.0, 9.993585, 10.002156 
2.0546782e+3, 3.1451684e+2, -792169.0, -56956.855, 18377.494, -0.072525784, 0.551924, -56497.777, -56497.777, 0.0, 9.993164, 10.002902 
2.0653301e+3, 1.2456604e+2, -961871.3, -1725002.9, 46813.016, -0.015134616, 0.44747958, -959010.4, 760285.75, 0.13356838, 10.007827, 9.996162 
2.065295e+3, 1.3456288e+2, -876312.06, -1599401.3, -6180.4614, 0.0032227417, 0.4669128, -876259.25, 745067.94, 0.09588676, 10.00725, 9.996643 
2.0652595e+3, 1.4455906e+2, -823875.44, -1491132.5, 25047.883, -0.032190893, 0.40970182, -822936.5, 700429.4, 0.057648644, 10.006475, 9.997082 
2.0652254e+3, 1.5455672e+2, -855266.7, -1477074.1, 31753.475, -0.006065964, 0.471452, -853649.4, 571741.8, 0.02676351, 10.005445, 9.996989 
2.065191e+3, 1.6455442e+2, -820984.75, -1336172.1, 42165.28, 0.0073600053, 0.52103484, -817556.56, 509859.8, 0.008379798, 10.004588, 9.997697 
2.0651567e+3, 1.7455237e+2, -816863.56, -1290822.3, 37416.94, -0.0061705695, 0.5473298, -813927.8, 415511.75, 0.001255363, 10.003942, 9.997646 
2.0651226e+3, 1.845504e+2, -800213.8, -1163571.1, 42365.785, -0.006286075, 0.56749874, -795339.56, 336121.6, 0.000022594933, 10.003083, 9.9982605 
2.0650889e+3, 1.9454877e+2, -867968.44, -1151666.0, 36428.688, 0.013368057, 0.5800163, -863365.44, 170112.7, 0.0, 10.001971, 9.998206 
2.0650549e+3, 2.0454723e+2, -860314.44, -1033693.5, 16808.848, 0.028688788, 0.58862454, -858699.9, 76794.24, 0.0, 10.001076, 9.998775 
2.0650205e+3, 2.14546e+2, -858955.75, -988544.44, 18017.215, 0.037230525, 0.5895266, -856497.4, -18990.992, 0.0, 10.00044, 9.998718 
2.0649861e+3, 2.2454488e+2, -815956.2, -834505.44, 21651.854, 0.033111047, 0.5821928, -801676.2, -62159.02, 0.0, 9.999705, 9.999456 
2.0649517e+3, 2.3454414e+2, -844786.75, -802636.44, 24598.691, 0.0145964315, 0.563624, -791319.4, -149795.84, 0.0, 9.998857, 9.999413 
2.064917e+3, 2.4454372e+2, -792247.3, -631029.1, 12758.44, -0.0065555596, 0.5508255, -630025.75, -86499.3, 0.0, 9.998134, 10.000265 
2.0648818e+3, 2.5454387e+2, -780639.6, -579314.06, 17667.168, -0.031940006, 0.54015386, -577775.5, -132252.45, 0.0, 9.9975605, 10.000223 
2.0648469e+3, 2.6454413e+2, -739520.9, -429269.13, 5252.698, -0.035136294, 0.52021235, -429180.22, -81661.125, 0.0, 9.996829, 10.000933 
2.064812e+3, 2.7454478e+2, -779014.3, -402764.03, 1082.7236, -0.010626315, 0.49318945, -402760.9, -153249.44, 0.0, 9.995908, 10.000885 
2.0647769e+3, 2.8454596e+2, -753173.7, -282983.75, 8066.578, -0.024467971, 0.5103506, -282845.4, -131346.36, 0.0, 9.99517, 10.00139 
2.0647413e+3, 2.9454786e+2, -732369.9, -226361.63, 12571.425, -0.08652955, 0.56269443, -226049.5, -172569.55, 0.0, 9.994658, 10.001352 
2.0647065e+3, 3.0454788e+2, -745084.1, -146128.22, 3455.1985, -0.055325273, 0.41580418, -146108.28, -146108.28, 0.0, 9.993972, 10.001899 
2.0646714e+3, 3.1455106e+2, -798571.6, -31120.953, 36221.156, -0.07614127, 0.5478842, -29415.225, -29415.225, 0.0, 9.992999, 10.003158 
2.0753379e+3, 1.2460112e+2, -974288.94, -1750030.9, 21442.021, -0.0006184903, 0.4424708, -973696.75, 745255.7, 0.13783647, 10.007841, 9.995983 
2.075302e+3, 1.34598e+2, -883423.94, -1610177.8, -24336.393, 0.00037104724, 0.4741623, -882609.9, 738374.0, 0.09910842, 10.007252, 9.996562 
2.0752658e+3, 1.4459431e+2, -814623.9, -1470185.1, -9825.049, -0.041827958, 0.4274503, -814476.7, 708544.6, 0.05975542, 10.006477, 9.997237 
2.0752308e+3, 1.5459202e+2, -842817.4, -1453324.0, -5736.6357, 0.007584625, 0.4789045, -842763.5, 582281.94, 0.027888017, 10.005459, 9.997148 
2.0751958e+3, 1.6458969e+2, -827435.94, -1353247.8, 17883.174, 0.026889537, 0.52116454, -826828.4, 500242.25, 0.008825725, 10.004601, 9.997575 
2.0751606e+3, 1.7458747e+2, -825480.94, -1310156.4, 13876.805, 0.00037432055, 0.54463893, -825083.94, 404011.2, 0.0013595878, 10.003944, 9.997515 
2.0751257e+3, 1.845854e+2, -810454.6, -1185755.6, 2070.1545, -0.0006989479, 0.56833935, -810443.25, 320674.88, 0.000027570592, 10.003083, 9.998111 
2.075091e+3, 1.9458374e+2, -877643.5, -1174055.9, -4541.823, 0.030886766, 0.5923126, -877573.94, 155562.64, 0.0, 10.001977, 9.998052 
2.0750558e+3, 2.0458211e+2, -854854.9, -1024862.3, -7027.7227, 0.039126113, 0.59847933, -854564.8, 80588.55, 0.0, 10.001082, 9.998835 
2.0750208e+3, 2.1458074e+2, -853343.1, -978922.44, -4877.417, 0.019422289, 0.5803958, -853154.0, -15988.115, 0.0, 10.000444, 9.998784 
2.0749857e+3, 2.2457965e+2, -809336.94, -822906.5, -9112.791, 0.008408005, 0.56715566, -804760.56, -65584.57, 0.0, 9.999711, 9.9995365 
2.0749505e+3, 2.3457909e+2, -838469.06, -791572.2, -6531.8716, 0.007538902, 0.5583274, -790679.4, -149498.67, 0.0, 9.998861, 9.999488 
2.074915e+3, 2.4457885e+2, -781199.0, -610269.94, -8524.345, 0.00058371417, 0.55324244, -609845.9, -66664.04, 0.0, 9.998138, 10.000407 
2.0748797e+3, 2.5457922e+2, -768860.06, -557661.3, -3158.2026, -0.014165403, 0.54803234, -557614.1, -112437.63, 0.0, 9.997568, 10.00037 
2.0748438e+3, 2.6457953e+2, -744276.25, -441954.34, -28993.383, -0.02674521, 0.53140235, -439198.9, -92026.72, 0.0, 9.996837, 10.000844 
2.0748076e+3, 2.745801e+2, -785596.7, -418430.6, -34267.594, -0.03606638, 0.5051777, -415259.78, -166093.55, 0.0, 9.995913, 10.000778 
2.0747717e+3, 2.845812e+2, -739893.7, -258087.7, -12251.165, -0.045654543, 0.5143041, -257776.39, -106621.9, 0.0, 9.995177, 10.00156 
2.074736e+3, 2.945831e+2, -719267.7, -204405.22, -6237.5815, -0.05708471, 0.5480202, -204329.66, -151194.8, 0.0, 9.994677, 10.001496 
2.0747007e+3, 3.0458334e+2, -766889.2, -196275.56, -33124.375, -0.029103532, 0.43435585, -194359.13, -194359.13, 0.0, 9.993989, 10.001549 
2.0746641e+3, 3.145858e+2, -773314.1, 18962.525, -16506.87, -0.107466914, 0.52642155, 19306.293, 19306.293, 0.0, 9.993005, 10.003502 
2.085346e+3, 1.2463703e+2, -942324.8, -1737164.3, 52662.33, 0.00019830605, 0.41961062, -938850.9, 779748.8, 0.14211492, 10.008158, 9.995921 
2.0853093e+3, 1.3463403e+2, -891776.1, -1610908.8, 21504.023, 0.017101193, 0.46218374, -891133.7, 729496.9, 0.10235395, 10.007202, 9.996578 
2.0852722e+3, 1.4463052e+2, -827033.5, -1481497.1, 33435.348, -0.029364787, 0.43583524, -825329.75, 697336.94, 0.06189422, 10.006429, 9.997176 
2.0852363e+3, 1.5462817e+2, -792422.6, -1434499.9, 23029.709, 0.004319472, 0.488012, -791597.6, 633094.06, 0.029042784, 10.005853, 9.997086 
2.0852004e+3, 1.6462573e+2, -767839.5, -1323804.9, 39149.008, 0.023072688, 0.5252573, -765096.3, 561621.4, 0.009292312, 10.005018, 9.997575 
2.0851645e+3, 1.7462343e+2, -834286.94, -1314263.4, 43615.402, 0.0132786445, 0.5390891, -830355.8, 398386.7, 0.0014731691, 10.003886, 9.997513 
2.0851287e+3, 1.8462129e+2, -839117.94, -1213276.1, 36762.234, 0.012372375, 0.5637587, -835540.1, 295225.94, 0.000033957902, 10.002948, 9.997986 
2.085093e+3, 1.9461961e+2, -849235.2, -1174652.5, 31083.078, 0.025372222, 0.60031545, -846292.8, 186492.86, 0.0, 10.002237, 9.99792 
2.0850572e+3, 2.0461795e+2, -805440.75, -995694.8, 31725.64, 0.027668888, 0.6087786, -800289.8, 134513.13, 0.0, 10.001404, 9.998878 
2.0850213e+3, 2.1461657e+2, -853106.6, -973022.94, 31888.592, 0.016181743, 0.5818777, -845154.1, -8338.832, 0.0, 10.000425, 9.998832 
2.0849851e+3, 2.2461547e+2, -824936.5, -825202.7, 26753.992, 0.005543636, 0.56550574, -798315.25, -59490.34, 0.0, 9.999586, 9.999578 
2.084949e+3, 2.3461495e+2, -829183.25, -782410.44, 25780.863, -0.0035547893, 0.55934227, -770989.1, -130160.11, 0.0, 9.998909, 9.999526 
2.0849131e+3, 2.4461475e+2, -781565.1, -609587.8, 18314.238, -0.008233756, 0.55555475, -607659.1, -64829.105, 0.0, 9.9981365, 10.000411 
2.0848769e+3, 2.546151e+2, -814565.06, -579226.3, 12280.117, -0.008414112, 0.5518645, -578587.3, -133762.38, 0.0, 9.997257, 10.00037 
2.0848405e+3, 2.6461548e+2, -784400.06, -455651.22, -14876.872, -0.019390868, 0.5387529, -454979.38, -108159.11, 0.0, 9.996541, 10.00089 
2.0848034e+3, 2.7461612e+2, -766592.5, -403689.53, -8666.633, -0.04237557, 0.5147969, -403482.7, -154669.1, 0.0, 9.996023, 10.000823 
2.0847668e+3, 2.846172e+2, -712669.75, -236393.48, 16435.271, -0.048286673, 0.5140902, -235827.02, -85024.6, 0.0, 9.995331, 10.001633 
2.084731e+3, 2.94619e+2, -756399.2, -216876.9, 13603.715, -0.03565255, 0.5325973, -216534.13, -163750.17, 0.0, 9.994402, 10.001541 
2.0846947e+3, 3.0461985e+2, -812840.94, -221236.95, -4773.96, -0.013815685, 0.48015723, -221198.42, -221198.42, 0.0, 9.9936905, 10.001519 
2.084657e+3, 3.1462163e+2, -727479.0, 58030.273, 23103.996, -0.12121022, 0.504185, 58709.24, 58709.24, 0.0, 9.993251, 10.003649 
2.0953538e+3, 1.2467375e+2, -945141.7, -1734135.8, 14408.225, -0.011249056, 0.38030294, -944878.6, 773359.56, 0.14636481, 10.008154, 9.995942 
2.0953166e+3, 1.3467093e+2, -887643.5, -1599983.0, -10472.011, 0.050682954, 0.43207827, -887489.56, 732778.1, 0.105597146, 10.007214, 9.996659 
2.0952791e+3, 1.446676e+2, -843773.1, -1517012.9, 12941.787, 0.0017781687, 0.4341492, -843524.44, 678778.25, 0.06404622, 10.006442, 9.996912 
2.095242e+3, 1.5466511e+2, -811010.94, -1474453.5, 2642.5657, -0.015069063, 0.49892795, -811000.44, 613329.94, 0.03021407, 10.005856, 9.996812 
2.095205e+3, 1.6466255e+2, -761380.8, -1310725.9, -1648.9373, -0.0026350326, 0.5339573, -761375.9, 564981.7, 0.009771755, 10.005018, 9.997667 
2.0951687e+3, 1.7466019e+2, -825949.9, -1299318.8, 1587.3326, 0.032039665, 0.53100353, -825944.56, 402437.3, 0.0015937355, 10.003893, 9.997614 
2.0951319e+3, 1.8465802e+2, -845770.8, -1229861.4, 10027.984, 0.032087892, 0.55352294, -845509.2, 284896.38, 0.000041748957, 10.002955, 9.99787 
2.0950948e+3, 1.9465636e+2, -857191.2, -1192904.3, 5157.3276, -0.0030937002, 0.60358024, -857112.0, 175313.88, 0.0, 10.00224, 9.997796 
2.0950581e+3, 2.0465471e+2, -804004.75, -994331.75, -3823.8638, -0.0054538315, 0.6196419, -803927.94, 130515.41, 0.0, 10.001406, 9.998888 
2.0950215e+3, 2.1465336e+2, -851122.1, -971063.2, -3910.7349, 0.0276685, 0.59436584, -850994.75, -14539.637, 0.0, 10.00043, 9.998845 
2.0949848e+3, 2.2465223e+2, -824670.06, -826886.94, 1744.4739, 0.02446878, 0.57717454, -823711.6, -85247.06, 0.0, 9.999591, 9.999567 
2.0949477e+3, 2.3465168e+2, -829154.8, -784745.5, 1244.9739, -0.019359529, 0.5667574, -784710.6, -144241.61, 0.0, 9.998916, 9.999509 
2.0949109e+3, 2.4465133e+2, -791654.1, -632971.2, -14215.159, -0.03387813, 0.5580671, -631707.8, -89236.266, 0.0, 9.998143, 10.000249 
2.0948741e+3, 2.5465152e+2, -825911.25, -604289.2, -21065.637, -0.015602084, 0.5511463, -602304.6, -157835.33, 0.0, 9.99726, 10.000199 
2.094837e+3, 2.6465192e+2, -771141.3, -429909.25, -35185.746, -0.0132949315, 0.5416439, -426318.9, -79854.555, 0.0, 9.996545, 10.001067 
2.0947996e+3, 2.7465278e+2, -750932.25, -374839.94, -27858.732, -0.02820871, 0.5222151, -372787.53, -124333.08, 0.0, 9.996035, 10.001019 
2.0947625e+3, 2.846538e+2, -714515.2, -243637.55, -19030.977, -0.031080058, 0.50956756, -242869.64, -92425.875, 0.0, 9.995341, 10.00158 
2.0947254e+3, 2.946554e+2, -761693.6, -228580.8, -23811.186, -0.023218147, 0.5160671, -227519.39, -175090.97, 0.0, 9.994401, 10.001464 
2.0946883e+3, 3.046573e+2, -792060.6, -178956.94, -22548.943, -0.010865848, 0.5565872, -178128.75, -178128.75, 0.0, 9.99369, 10.001812 
2.0946501e+3, 3.146586e+2, -731616.2, 44054.58, -1789.2115, -0.115630925, 0.50290126, 44058.707, 44058.707, 0.0, 9.993269, 10.003547 
2.1053621e+3, 1.2471169e+2, -969113.44, -1756625.6, 38715.51, 0.0032143304, 0.37564316, -967214.7, 750651.0, 0.15056853, 10.00804, 9.995842 
2.105324e+3, 1.3470882e+2, -863502.44, -1593603.5, 13027.1045, 0.043424927, 0.42915258, -863270.06, 756626.0, 0.108818665, 10.007455, 9.99659 
2.1052854e+3, 1.4470553e+2, -816505.8, -1515723.5, 36314.29, -0.008199992, 0.44606298, -814624.9, 707306.0, 0.06619152, 10.006717, 9.996787 
2.1052478e+3, 1.5470278e+2, -829665.0, -1497327.5, 35431.445, -0.00879753, 0.49776372, -827790.0, 596171.3, 0.03138544, 10.005792, 9.996684 
2.1052103e+3, 1.647001e+2, -781157.1, -1323516.9, 24075.363, 0.005978512, 0.52928144, -780090.5, 545899.3, 0.010254602, 10.0049, 9.997634 
2.1051726e+3, 1.7469777e+2, -804587.6, -1292048.5, 17104.928, 0.028758926, 0.5340869, -803988.2, 424025.56, 0.0017181638, 10.004057, 9.997583 
2.1051347e+3, 1.8469559e+2, -816893.3, -1218934.1, 28709.928, 0.026861668, 0.5579764, -814853.5, 315184.06, 0.000050741073, 10.003171, 9.997839 
2.1050969e+3, 1.9469383e+2, -860605.8, -1197649.8, 29971.443, -0.0002467488, 0.6023636, -857961.4, 174097.39, 0.0, 10.002234, 9.997765 
2.1050593e+3, 2.0469217e+2, -814403.0, -1003568.2, 19741.906, -0.003299891, 0.61997646, -812364.6, 121712.0, 0.0, 10.001357, 9.998847 
2.1050219e+3, 2.1469083e+2, -837088.44, -968906.94, 14425.394, 0.020215245, 0.6043473, -835528.3, 559.8748, 0.0, 10.00055, 9.9988 
2.1049844e+3, 2.2468972e+2, -808136.8, -819616.25, 21635.584, 0.017219007, 0.5894574, -791492.56, -53394.83, 0.0, 9.999712, 9.999557 
2.1049465e+3, 2.346891e+2, -841816.2, -791731.1, 20960.723, -0.015810728, 0.5735485, -784116.6, -144014.13, 0.0, 9.9988365, 9.999496 
2.104909e+3, 2.4468866e+2, -807707.44, -646561.9, 9182.88, -0.029397966, 0.5593435, -646040.3, -103934.33, 0.0, 9.998062, 10.000193 
2.1048713e+3, 2.546887e+2, -810096.9, -603363.25, 10299.565, -0.021239674, 0.5471533, -602851.4, -158746.2, 0.0, 9.997401, 10.000135 
2.1048334e+3, 2.6468915e+2, -757033.25, -412522.1, -1290.3298, -0.015531342, 0.54126954, -412517.25, -66417.27, 0.0, 9.9966, 10.001158 
2.1047954e+3, 2.746902e+2, -800633.9, -387674.75, -1410.4938, -0.0112599, 0.5330186, -387669.94, -139581.94, 0.0, 9.99565, 10.001113 
2.1047576e+3, 2.8469127e+2, -778958.6, -273850.8, 4477.379, -0.014718297, 0.51905733, -273811.13, -123734.04, 0.0, 9.9949, 10.001583 
2.1047194e+3, 2.946928e+2, -764285.56, -227803.8, 4383.3125, -0.030731985, 0.51820874, -227767.98, -175705.16, 0.0, 9.994379, 10.001477 
2.1046819e+3, 3.0469504e+2, -749054.56, -116421.27, 20474.879, -0.022728572, 0.57383317, -115759.305, -115759.305, 0.0, 9.993809, 10.002182 
2.1046436e+3, 3.1469646e+2, -769370.4, 1816.1573, 36665.207, -0.09447001, 0.49809116, 3555.441, 3555.441, 0.0, 9.993118, 10.003326 
2.1153703e+3, 1.2475076e+2, -984575.94, -1788096.1, 11420.162, 0.037882432, 0.39772546, -984413.6, 733069.4, 0.15471306, 10.008048, 9.995623 
2.1153308e+3, 1.3474768e+2, -878271.56, -1621297.9, -6645.301, -0.00065256306, 0.45083264, -878212.1, 741303.7, 0.11199272, 10.007462, 9.996377 
2.1152915e+3, 1.447443e+2, -818599.1, -1518779.6, 4472.6763, -0.05466296, 0.47082722, -818570.56, 702980.75, 0.068302326, 10.0067215, 9.996765 
2.1152537e+3, 1.5474117e+2, -830581.3, -1499870.3, 1650.917, 0.020570327, 0.48512897, -830577.25, 593007.75, 0.032536704, 10.005796, 9.996666 
2.1152154e+3, 1.6473834e+2, -791670.56, -1347213.9, -7191.986, 0.044901125, 0.5117143, -791577.44, 534037.5, 0.010730598, 10.004906, 9.997471 
2.1151763e+3, 1.7473616e+2, -815483.2, -1316825.9, -13882.592, 0.004183699, 0.547619, -815099.06, 412539.34, 0.0018430135, 10.004063, 9.997413 
2.1151377e+3, 1.8473394e+2, -813425.94, -1213705.9, -5570.0015, -0.0017695773, 0.57662755, -813348.44, 316314.0, 0.000060592425, 10.003176, 9.997875 
2.1150996e+3, 1.94732e+2, -856605.4, -1191624.4, -4391.961, 0.033092037, 0.59708786, -856547.8, 175136.9, 0.0, 10.00224, 9.997806 
2.115061e+3, 2.0473024e+2, -820956.75, -1019478.6, -9933.153, 0.032720096, 0.6098983, -820460.94, 113242.29, 0.0, 10.001363, 9.998737 
2.1150222e+3, 2.1472898e+2, -844521.44, -986180.1, -14825.119, -0.0070325476, 0.6114889, -842986.56, -7271.4497, 0.0, 10.000554, 9.998682 
2.1149836e+3, 2.2472785e+2, -809026.4, -823487.4, -10298.498, -0.016514998, 0.60256535, -803673.56, -65948.58, 0.0, 9.999717, 9.99953 
2.1149455e+3, 2.3472713e+2, -842477.2, -795402.56, -11211.927, 0.007792529, 0.5798675, -792868.56, -153138.33, 0.0, 9.998842, 9.999471 
2.1149072e+3, 2.4472663e+2, -803843.8, -640972.7, -15513.285, 0.0059870165, 0.55890137, -639508.2, -97774.21, 0.0, 9.998069, 10.000231 
2.1148686e+3, 2.5472665e+2, -805959.56, -598043.7, -14258.369, -0.025793323, 0.53956944, -597070.44, -153337.08, 0.0, 9.997411, 10.000169 
2.1148299e+3, 2.6472715e+2, -757399.56, -416089.22, -37447.53, -0.026811542, 0.5380496, -412028.88, -66300.93, 0.0, 9.996608, 10.001132 
2.1147913e+3, 2.7472836e+2, -803045.9, -392960.25, -38302.957, 0.008157766, 0.5482729, -389413.34, -141698.16, 0.0, 9.995646, 10.0010805 
2.1147524e+3, 2.847295e+2, -775190.8, -266422.53, -16401.818, -0.00011876783, 0.5433511, -265894.3, -116191.0, 0.0, 9.994897, 10.001638 
2.1147136e+3, 2.9473108e+2, -754855.4, -212056.89, -15351.1045, -0.060817327, 0.5383193, -211623.1, -159934.97, 0.0, 9.9943905, 10.001582 
2.1146753e+3, 3.0473295e+2, -716771.8, -53124.29, -6303.1597, -0.051024403, 0.527343, -53064.426, -53064.426, 0.0, 9.993821, 10.002613 
2.1146369e+3, 3.1473547e+2, -794847.06, -51159.707, 2967.3245, -0.05423175, 0.52547216, -51147.867, -51147.867, 0.0, 9.993114, 10.002967 
2.1253784e+3, 1.2479023e+2, -968587.75, -1775714.0, 9257.978, 0.03896967, 0.42481735, -968481.56, 748615.56, 0.15876716, 10.008205, 9.995629 
2.1253383e+3, 1.3478678e+2, -871678.6, -1618143.1, 8977.155, 0.010603519, 0.44480413, -871570.7, 747562.25, 0.11507908, 10.0075445, 9.996357 
2.1252984e+3, 1.4478345e+2, -815762.94, -1515495.5, 16924.344, -0.037598465, 0.46879965, -815353.8, 705814.1, 0.07034342, 10.006753, 9.996771 
2.1252595e+3, 1.5478031e+2, -827775.3, -1496893.8, 15073.876, 0.026556088, 0.48536265, -827435.94, 595765.4, 0.033646185, 10.005821, 9.996673 
2.1252201e+3, 1.647775e+2, -790339.2, -1355172.8, 13772.06, 0.044697482, 0.5140382, -790003.56, 535228.0, 0.011189851, 10.004959, 9.997388 
2.1251802e+3, 1.7477524e+2, -805975.56, -1321481.9, 12137.495, 0.0034647165, 0.55351686, -805689.94, 421566.1, 0.0019648077, 10.004173, 9.997325 
2.1251406e+3, 1.8477301e+2, -794665.7, -1200056.9, 17644.156, -0.0024349685, 0.5832186, -793899.2, 335381.13, 0.000070876886, 10.003288, 9.997912 
2.1251018e+3, 1.9477105e+2, -844802.5, -1181009.6, 17851.377, 0.033580776, 0.6000072, -843857.3, 187444.58, 0.0, 10.002304, 9.997846 
2.1250622e+3, 2.0476925e+2, -823900.06, -1030943.9, 17266.764, 0.03292466, 0.6111748, -822469.94, 110850.83, 0.0, 10.0013895, 9.998643 
2.1250227e+3, 2.147679e+2, -852291.06, -1000642.5, 12899.781, -0.009577438, 0.6146635, -851177.75, -15843.742, 0.0, 10.000551, 9.998582 
2.1249832e+3, 2.247667e+2, -813731.25, -826482.56, 16268.385, -0.01905418, 0.60435885, -802633.8, -65289.016, 0.0, 9.999692, 9.999519 
2.1249443e+3, 2.3476592e+2, -848306.6, -799104.4, 15867.31, 0.009453724, 0.5761824, -794431.2, -155080.77, 0.0, 9.99881, 9.999459 
2.1249053e+3, 2.4476543e+2, -819453.56, -644067.5, 16474.59, 0.012905557, 0.5564709, -642533.44, -101179.56, 0.0, 9.997947, 10.000266 
2.124866e+3, 2.5476554e+2, -848580.44, -614385.8, 17089.807, -0.013388585, 0.5451281, -613145.3, -169793.11, 0.0, 9.997105, 10.000202 
2.1248265e+3, 2.64766e+2, -794431.7, -439356.25, -8788.312, -0.018949602, 0.54375255, -439138.88, -93791.68, 0.0, 9.996382, 10.001079 
2.1247868e+3, 2.7476713e+2, -788809.06, -392564.78, -12179.029, 0.0015040435, 0.54868114, -392190.78, -144854.63, 0.0, 9.995776, 10.0010195 
2.1247473e+3, 2.8476843e+2, -754811.5, -245859.88, 12684.714, -0.006885873, 0.5562243, -245543.92, -96221.0, 0.0, 9.994995, 10.00173 
2.1247077e+3, 2.947703e+2, -794309.94, -216841.39, 17246.738, -0.05359998, 0.5730743, -216326.77, -165022.94, 0.0, 9.994063, 10.001704 
2.124669e+3, 3.0477142e+2, -773866.75, -77256.96, 14439.94, -0.05315856, 0.4807322, -76957.766, -76957.766, 0.0, 9.99342, 10.002638 
2.1246299e+3, 3.1477472e+2, -821590.2, -72219.46, -10781.839, -0.04157998, 0.55713826, -72064.37, -72064.37, 0.0, 9.9929695, 10.002891 
2.1353862e+3, 1.24830104e+2, -960735.4, -1749585.4, -17600.559, 0.011068225, 0.45247948, -960342.9, 756364.94, 0.16267826, 10.008209, 9.99581 
2.1353464e+3, 1.348262e+2, -866781.6, -1602627.1, -12323.914, 0.0705572, 0.4142992, -866575.25, 752171.7, 0.11803262, 10.00754, 9.996482 
2.1353059e+3, 1.44823e+2, -816529.1, -1513996.8, -15032.499, 0.034310892, 0.44328105, -816205.3, 704575.1, 0.07228328, 10.006748, 9.996787 
2.1352652e+3, 1.5482025e+2, -826488.0, -1494889.5, -18422.111, 0.0105523, 0.49777618, -825980.6, 596829.7, 0.03469684, 10.005826, 9.996687 
2.1352248e+3, 1.6481751e+2, -791292.75, -1359154.8, -14842.648, 0.009154374, 0.53485066, -790905.06, 533935.06, 0.011624648, 10.004965, 9.99736 
2.1351846e+3, 1.74815e+2, -807462.06, -1326102.4, -16673.006, 0.024958318, 0.5521104, -806926.6, 419940.5, 0.0020804617, 10.004175, 9.997294 
2.1351443e+3, 1.8481272e+2, -792359.2, -1196741.1, -18535.443, 0.022113804, 0.5781099, -791511.4, 337380.22, 0.000081117694, 10.003291, 9.997936 
2.1351038e+3, 1.9481096e+2, -842239.94, -1177549.9, -18251.123, 0.001615298, 0.61066186, -841249.44, 189661.4, 0.0, 10.002307, 9.9978695 
2.1350633e+3, 2.0480914e+2, -829775.9, -1045095.6, -13419.397, -0.0014748601, 0.6236303, -828942.75, 103986.94, 0.0, 10.001394, 9.998546 
2.1350232e+3, 2.1480756e+2, -858323.4, -1015486.06, -17539.738, 0.012872751, 0.61415684, -856389.7, -21444.225, 0.0, 10.000557, 9.99848 
2.1349831e+3, 2.248062e+2, -813231.4, -827881.1, -16036.264, 0.009239414, 0.5946362, -802926.25, -65968.55, 0.0, 9.999698, 9.999509 
2.1349429e+3, 2.3480536e+2, -847935.25, -800544.25, -16493.854, -0.012326103, 0.5620739, -795368.94, -156405.16, 0.0, 9.998816, 9.999449 
2.1349028e+3, 2.4480498e+2, -817577.25, -642286.4, -14886.874, -0.009767071, 0.5524425, -641031.1, -100064.85, 0.0, 9.9979515, 10.0002775 
2.1348633e+3, 2.5480536e+2, -847216.0, -613048.3, -14444.879, 0.016938655, 0.5647033, -612160.6, -169198.23, 0.0, 9.9971075, 10.000213 
2.134823e+3, 2.6480573e+2, -800230.4, -453209.4, -31976.19, 0.00871138, 0.55827093, -450287.6, -105328.945, 0.0, 9.996386, 10.000984 
2.1347822e+3, 2.7480644e+2, -793941.44, -407203.88, -35991.918, -0.0338634, 0.53262997, -403882.78, -156930.8, 0.0, 9.995789, 10.000915 
2.134742e+3, 2.848079e+2, -745627.8, -230345.4, -23885.936, -0.03669279, 0.556931, -229240.55, -80303.65, 0.0, 9.995006, 10.001834 
2.1347024e+3, 2.9481035e+2, -786935.0, -201555.56, -18028.424, -0.005575925, 0.6243597, -201000.86, -150090.02, 0.0, 9.994059, 10.001814 
2.1346624e+3, 3.0481037e+2, -803784.56, -138505.34, -3864.0227, -0.027169578, 0.43338954, -138482.9, -138482.9, 0.0, 9.993412, 10.002223 
2.1346228e+3, 3.1481406e+2, -802959.75, -35807.37, -31735.535, -0.058340877, 0.5906602, -34496.777, -34496.777, 0.0, 9.992974, 10.00314 
2.1453945e+3, 1.24870725e+2, -949172.4, -1732929.6, 19304.09, 0.019569324, 0.443709, -948697.25, 767612.44, 0.16639216, 10.008301, 9.995877 
2.145354e+3, 1.3486686e+2, -896633.94, -1616527.6, 23465.414, 0.079774134, 0.41002777, -895869.94, 722478.7, 0.12081853, 10.007332, 9.996471 
2.1453124e+3, 1.4486377e+2, -849323.44, -1530017.6, 18639.068, 0.05309861, 0.45296645, -848813.44, 671567.56, 0.07410174, 10.006521, 9.99678 
2.145271e+3, 1.5486102e+2, -819852.25, -1490867.8, 14389.437, 0.02409328, 0.5070191, -819543.8, 602867.4, 0.035677478, 10.005881, 9.996685 
2.1452297e+3, 1.6485824e+2, -779186.75, -1353007.5, 13801.601, 0.018396616, 0.54180294, -778855.0, 545586.3, 0.012029109, 10.005055, 9.997356 
2.1451887e+3, 1.7485568e+2, -827624.44, -1336073.6, 13134.659, 0.032676082, 0.55444974, -827285.4, 399183.44, 0.0021874444, 10.004043, 9.997288 
2.1451475e+3, 1.8485336e+2, -813541.94, -1208791.0, 11375.685, 0.024736907, 0.5778225, -813214.8, 315278.75, 0.00009083706, 10.003159, 9.997915 
2.1451059e+3, 1.9485155e+2, -829777.44, -1173472.8, 7224.898, -0.005575591, 0.61048687, -829625.6, 200887.25, 0.0, 10.002406, 9.997848 
2.1450648e+3, 2.048497e+2, -819011.6, -1043772.7, 8181.3423, -0.008501993, 0.62247485, -818714.2, 113817.875, 0.0, 10.001489, 9.9985075 
2.1450236e+3, 2.1484804e+2, -884689.44, -1032529.5, 7775.277, 0.017477145, 0.6106145, -884281.6, -49732.996, 0.0, 10.000399, 9.998437 
2.1449827e+3, 2.2484663e+2, -841876.3, -843809.9, 17631.373, 0.016942937, 0.5895372, -825185.25, -88623.71, 0.0, 9.999515, 9.999485 
2.1449417e+3, 2.3484576e+2, -845414.25, -801540.44, 15353.161, -0.011428963, 0.5572131, -796701.5, -158133.69, 0.0, 9.998847, 9.999425 
2.1449009e+3, 2.4484542e+2, -802166.75, -638820.8, 11069.488, -0.011341111, 0.5546254, -638074.06, -97503.91, 0.0, 9.998078, 10.000238 
2.1448603e+3, 2.5484586e+2, -836184.75, -612038.75, 7320.5977, 0.018105298, 0.5796367, -611799.9, -169233.89, 0.0, 9.997205, 10.000171 
2.1448193e+3, 2.648462e+2, -796149.3, -447782.78, -442.0565, 0.0054849954, 0.56950533, -447782.22, -103219.45, 0.0, 9.996402, 10.001012 
2.1447776e+3, 2.7484673e+2, -809214.1, -411234.56, 4671.4873, -0.048204288, 0.5257143, -411179.75, -164622.45, 0.0, 9.995674, 10.00094 
2.1447368e+3, 2.848482e+2, -749437.6, -229697.1, 12781.43, -0.04236676, 0.55134284, -229382.97, -80841.234, 0.0, 9.994973, 10.001852 
2.1446966e+3, 2.9485086e+2, -754878.1, -187023.77, 11719.786, 0.014499222, 0.63317835, -186781.98, -136267.81, 0.0, 9.994287, 10.001802 
2.1446557e+3, 3.0485058e+2, -829121.3, -193796.98, 23934.258, -0.027878916, 0.43820262, -192896.6, -192896.6, 0.0, 9.993427, 10.001834 
2.1446155e+3, 3.14854e+2, -856497.6, -16747.826, 4204.658, -0.042118598, 0.6044998, -16726.773, -16726.773, 0.0, 9.992419, 10.003536 
2.155403e+3, 1.2491211e+2, -955977.7, -1741121.9, -16254.2705, 0.056854635, 0.40365142, -955641.3, 760261.5, 0.16987748, 10.008292, 9.995827 
2.1553609e+3, 1.3490869e+2, -905998.75, -1637211.0, -8679.663, 0.043392695, 0.42926925, -905895.75, 712042.7, 0.12342012, 10.007342, 9.996325 
2.1553186e+3, 1.4490572e+2, -851396.9, -1536011.9, -3511.1917, 0.025021795, 0.4933037, -851378.9, 668591.44, 0.075789265, 10.006534, 9.996735 
2.1552773e+3, 1.5490259e+2, -822810.56, -1496765.4, -8598.135, 0.06460575, 0.51291335, -822700.9, 599303.3, 0.03658096, 10.005879, 9.996647 
2.1552351e+3, 1.6489968e+2, -779395.75, -1353049.6, -23426.256, 0.0674523, 0.53604007, -778440.7, 545594.75, 0.012398727, 10.005052, 9.99736 
2.1551926e+3, 1.7489724e+2, -826626.3, -1335987.3, -24301.5, 0.026878554, 0.5604871, -825469.56, 400591.94, 0.0022839617, 10.004047, 9.997288 
2.1551502e+3, 1.8489484e+2, -818359.7, -1221224.9, -16193.367, 0.007067747, 0.5823397, -817709.8, 310376.88, 0.00009963724, 10.003164, 9.997829 
2.1551085e+3, 1.9489281e+2, -835113.44, -1186318.0, -20270.078, 0.011130192, 0.59996897, -833947.4, 196160.95, 0.0, 10.00241, 9.99776 
2.1550661e+3, 2.0489086e+2, -817944.25, -1043357.06, -31867.678, 0.010270339, 0.607967, -813525.56, 118602.84, 0.0, 10.0014925, 9.99851 
2.155024e+3, 2.148893e+2, -883733.1, -1032346.3, -32183.178, 0.00354462, 0.6038656, -877063.0, -42918.797, 0.0, 10.000402, 9.998439 
2.1549822e+3, 2.2488792e+2, -844889.7, -852157.9, -6608.24, 0.004118169, 0.5892074, -840982.2, -104825.445, 0.0, 9.999519, 9.999428 
2.1549407e+3, 2.3488703e+2, -848267.06, -810194.75, -8966.5205, 0.013070867, 0.5620314, -808188.75, -170025.53, 0.0, 9.998854, 9.999364 
2.154899e+3, 2.4488664e+2, -808159.2, -654206.3, -21410.787, 0.008384118, 0.563005, -651284.06, -111117.664, 0.0, 9.998087, 10.000132 
2.1548572e+3, 2.5488698e+2, -842092.6, -627443.7, -25498.201, -0.012658508, 0.5896177, -624456.4, -182292.47, 0.0, 9.997213, 10.000063 
2.1548152e+3, 2.6488733e+2, -784788.94, -427269.75, -28444.99, -0.030810382, 0.5774099, -425020.75, -80860.38, 0.0, 9.99641, 10.001151 
2.1547735e+3, 2.7488795e+2, -798250.7, -390674.53, -23308.695, -0.039566107, 0.5278541, -389345.88, -143193.03, 0.0, 9.995679, 10.001081 
2.1547319e+3, 2.848893e+2, -754708.56, -242588.63, -13773.86, -0.02229767, 0.5386053, -242218.42, -94080.15, 0.0, 9.994977, 10.001763 
2.1546906e+3, 2.9489163e+2, -763805.56, -209278.1, -15303.56, 0.0025794634, 0.5973613, -208856.08, -158741.11, 0.0, 9.994298, 10.001646 
2.1546489e+3, 3.04892e+2, -854583.75, -249936.6, -16046.043, -0.058547445, 0.49774694, -249511.06, -249511.06, 0.0, 9.993436, 10.001447 
2.1546084e+3, 3.1489426e+2, -821084.0, 57109.004, -24526.54, 0.007457801, 0.5797926, 57793.46, 57793.46, 0.0, 9.9924135, 10.004049 
2.1654111e+3, 1.2495445e+2, -983661.2, -1757057.1, 2280.8643, 0.059761092, 0.3900095, -983654.44, 731832.75, 0.1731264, 10.008097, 9.995809 
2.1653682e+3, 1.3495106e+2, -874188.3, -1631031.0, 15943.989, 0.031617, 0.4290793, -873852.6, 743670.5, 0.12583102, 10.007666, 9.996209 
2.1653254e+3, 1.4494804e+2, -810976.6, -1516761.8, 15137.686, 0.025703644, 0.49628034, -810652.1, 708903.56, 0.07733963, 10.006859, 9.996709 
2.165283e+3, 1.5494478e+2, -854524.75, -1514617.4, 10694.452, 0.0765313, 0.5067036, -854351.5, 567239.1, 0.03740149, 10.0056715, 9.996622 
2.1652402e+3, 1.6494183e+2, -820182.25, -1371687.1, 724.217, 0.07927909, 0.52993757, -820181.3, 503440.66, 0.012729883, 10.004768, 9.997366 
2.1651965e+3, 1.7493948e+2, -810202.0, -1326998.3, -640.9195, 0.028044492, 0.5637542, -810201.2, 415445.78, 0.0023686772, 10.004162, 9.997292 
2.1651533e+3, 1.8493707e+2, -804680.6, -1221769.1, 2355.6082, 0.007297176, 0.5854895, -804667.3, 323005.28, 0.00010718182, 10.003294, 9.99776 
2.1651106e+3, 1.9493486e+2, -876278.5, -1213795.6, -1298.746, 0.01984522, 0.59360135, -876273.5, 153422.61, 0.0, 10.002165, 9.997686 
2.1650676e+3, 2.0493288e+2, -849921.5, -1064210.8, -11338.905, 0.014384827, 0.6037429, -849323.2, 82393.75, 0.0, 10.001301, 9.998457 
2.1650241e+3, 2.1493138e+2, -843159.1, -1018365.3, -16955.945, -0.010376838, 0.6136933, -841533.25, -7800.898, 0.0, 10.00071, 9.998384 
2.1649815e+3, 2.2493002e+2, -793975.06, -826040.56, 7033.2397, -0.010123965, 0.60347676, -792500.25, -56755.457, 0.0, 9.9998665, 9.999437 
2.1649395e+3, 2.349291e+2, -860795.0, -815350.75, 9339.205, 0.017288538, 0.57115287, -813506.4, -175754.9, 0.0, 9.998769, 9.999368 
2.164897e+3, 2.4492863e+2, -840400.56, -671589.3, 6081.3384, 0.015137829, 0.56705624, -671370.5, -131615.25, 0.0, 9.997877, 10.000111 
2.1648543e+3, 2.5492892e+2, -846624.1, -631370.2, 8180.9893, -0.020960547, 0.58959335, -631059.75, -189306.1, 0.0, 9.997194, 10.000043 
2.1648115e+3, 2.649293e+2, -780465.4, -414686.88, 4958.482, -0.0414961, 0.58039564, -414619.7, -70870.4, 0.0, 9.996399, 10.001241 
2.1647687e+3, 2.749301e+2, -819633.0, -390946.13, 6306.1094, -0.037065778, 0.5375819, -390853.4, -145113.88, 0.0, 9.995492, 10.001168 
2.1647269e+3, 2.8493127e+2, -783372.2, -258805.31, 23533.297, -0.015286381, 0.5300422, -257751.67, -110025.24, 0.0, 9.994794, 10.001739 
2.1646848e+3, 2.9493323e+2, -772890.5, -218638.63, 25605.629, 0.00011140677, 0.55590725, -217458.19, -167750.83, 0.0, 9.994262, 10.001598 
2.164642e+3, 3.0493456e+2, -867418.9, -245844.55, 29369.53, -0.06285996, 0.5535547, -244459.92, -244459.92, 0.0, 9.993308, 10.001535 
2.1646008e+3, 3.1493607e+2, -865874.6, 46763.055, 68572.9, 0.033611253, 0.54733026, 51886.656, 51886.656, 0.0, 9.992064, 10.004143 
2.1754189e+3, 1.2499768e+2, -984877.94, -1757634.5, -14845.075, 0.032193113, 0.3971175, -984592.9, 730470.4, 0.17614065, 10.008111, 9.995801 
2.1753757e+3, 1.3499394e+2, -883683.94, -1647315.0, 1783.8824, 0.041485168, 0.41139957, -883679.75, 733422.8, 0.12804946, 10.007653, 9.996105 
2.1753323e+3, 1.4499073e+2, -815480.0, -1522151.9, -25826.838, 0.050984565, 0.46650308, -814537.3, 704599.56, 0.07874981, 10.006844, 9.996681 
2.1752886e+3, 1.5498757e+2, -855931.1, -1519077.9, -32143.982, 0.06186961, 0.49013194, -854376.7, 566794.0, 0.038136646, 10.005676, 9.996592 
2.1752447e+3, 1.6498473e+2, -819487.4, -1373202.4, -21314.213, 0.057132192, 0.523768, -818668.1, 504533.03, 0.013021174, 10.004779, 9.997353 
2.1752007e+3, 1.7498244e+2, -810638.3, -1329083.3, -22874.23, 0.03579961, 0.5643539, -809631.0, 415594.7, 0.002440955, 10.004163, 9.997279 
2.1751568e+3, 1.8497998e+2, -809231.25, -1232097.1, -39568.21, 0.023629144, 0.5870864, -805560.6, 321691.13, 0.0001132015, 10.003294, 9.997692 
2.1751128e+3, 1.9497766e+2, -880345.44, -1224301.9, -42968.52, 0.02044426, 0.5911753, -875058.9, 154217.8, 0.0, 10.002169, 9.997615 
2.1750686e+3, 2.0497566e+2, -857826.8, -1083238.0, -32584.127, 0.0043659373, 0.609814, -853211.1, 78087.02, 0.0, 10.0013075, 9.998325 
2.1750246e+3, 2.1497424e+2, -851179.6, -1037492.5, -38160.992, -0.024470212, 0.64043987, -843666.4, -10352.68, 0.0, 10.000716, 9.998252 
2.1749812e+3, 2.2497287e+2, -788513.25, -817107.25, -33352.81, -0.026475688, 0.63260424, -766522.3, -31196.057, 0.0, 9.999872, 9.999498 
2.174938e+3, 2.3497184e+2, -856008.8, -807344.9, -31407.834, 0.000034412522, 0.5842902, -791946.56, -154613.3, 0.0, 9.998773, 9.999423 
2.1748948e+3, 2.449713e+2, -835920.7, -664311.7, -19293.553, 0.008503454, 0.56643975, -662169.3, -122831.86, 0.0, 9.997882, 10.000161 
2.1748513e+3, 2.5497153e+2, -841797.5, -623977.4, -17479.309, -0.0050922963, 0.5792768, -622583.6, -181247.6, 0.0, 9.997202, 10.0000925 
2.1748078e+3, 2.6497203e+2, -777534.3, -411105.38, -29698.057, -0.025100172, 0.57821065, -408714.03, -65383.805, 0.0, 9.996405, 10.001266 
2.1747641e+3, 2.7497303e+2, -817335.1, -388364.84, -27649.357, -0.042748064, 0.55453587, -386590.03, -141271.92, 0.0, 9.995497, 10.001186 
2.1747215e+3, 2.8497404e+2, -780319.1, -254267.86, 2678.3206, -0.02325589, 0.5251604, -254254.22, -106947.2, 0.0, 9.994798, 10.00177 
2.1746792e+3, 2.9497558e+2, -768212.9, -211008.17, 2412.0579, 0.009092664, 0.50876516, -210997.73, -161705.63, 0.0, 9.994266, 10.001651 
2.1746355e+3, 3.0497828e+2, -825961.0, -161226.52, -19082.24, -0.03855258, 0.6071852, -160679.19, -160679.19, 0.0, 9.993308, 10.002119 
2.1745925e+3, 3.1497973e+2, -894299.56, -12126.443, 40694.145, 0.025582965, 0.5397529, -10253.224, -10253.224, 0.0, 9.992061, 10.003742 
2.185427e+3, 1.2504162e+2, -940405.5, -1720017.3, -6857.894, 0.029042538, 0.41662332, -940345.2, 774288.8, 0.17892016, 10.008464, 9.995887 
2.1853833e+3, 1.3503784e+2, -937934.06, -1674375.1, 18136.385, 0.05668926, 0.42601517, -937487.7, 679185.5, 0.1300783, 10.007233, 9.99612 
2.1853392e+3, 1.4503445e+2, -879969.25, -1554228.9, -3081.431, 0.07492895, 0.4641881, -879955.2, 638753.44, 0.080023825, 10.00637, 9.996686 
2.1852942e+3, 1.5503126e+2, -826771.94, -1502986.6, -6738.879, 0.05256183, 0.48368523, -826704.8, 594037.6, 0.03879, 10.005887, 9.996597 
2.1852493e+3, 1.6502838e+2, -781420.06, -1359757.3, 1634.8638, 0.04235922, 0.51706624, -781415.44, 541357.7, 0.013274725, 10.005072, 9.997301 
2.1852048e+3, 1.7502604e+2, -849424.75, -1353457.9, -3493.4421, 0.044861417, 0.5602187, -849400.56, 375397.7, 0.0025015625, 10.003924, 9.997225 
2.1851599e+3, 1.8502359e+2, -852179.2, -1254922.4, -21262.412, 0.034930144, 0.58612335, -851059.75, 275764.8, 0.00011767672, 10.003013, 9.997668 
2.1851148e+3, 1.9502127e+2, -857845.25, -1215608.0, -22268.256, 0.012068797, 0.59398973, -856464.56, 172384.88, 0.0000000000000090331685, 10.002337, 9.99759 
2.1850698e+3, 2.0501924e+2, -827780.56, -1070025.6, -1717.734, -0.0065052374, 0.6120083, -827768.4, 103102.914, 0.0, 10.001524, 9.998309 
2.1850254e+3, 2.1501775e+2, -873322.9, -1049565.1, 621.57196, -0.020997168, 0.63828, -873320.7, -40433.11, 0.0, 10.000575, 9.998235 
2.184981e+3, 2.2501643e+2, -807645.6, -821758.2, 2507.7947, -0.024351565, 0.63421303, -807213.2, -72313.36, 0.0, 9.999726, 9.999535 
2.1849366e+3, 2.3501553e+2, -824491.0, -788044.6, 1777.741, -0.014686751, 0.5973469, -787958.1, -151052.45, 0.0, 9.998976, 9.999455 
2.1848923e+3, 2.4501497e+2, -805043.75, -645047.75, 14612.742, -0.0059962887, 0.57579917, -643724.06, -104814.27, 0.0, 9.998079, 10.0001955 
2.1848483e+3, 2.5501508e+2, -863774.06, -630880.75, 14783.469, -0.0019392527, 0.57063234, -629946.1, -189036.75, 0.0, 9.997039, 10.000122 
2.1848042e+3, 2.6501557e+2, -807847.4, -423923.88, 3793.4385, -0.0152460765, 0.5668918, -423886.4, -80982.99, 0.0, 9.996194, 10.001277 
2.1847598e+3, 2.7501664e+2, -810879.6, -383845.13, 4915.187, -0.037876252, 0.55374783, -383788.56, -138898.28, 0.0, 9.995541, 10.001194 
2.184716e+3, 2.8501767e+2, -794994.6, -262954.3, 32771.67, -0.022569964, 0.52736276, -260943.31, -114064.27, 0.0, 9.994709, 10.001751 
2.1846728e+3, 2.9501924e+2, -849421.8, -247387.64, 26758.373, 0.0074088504, 0.51271385, -246200.67, -197336.4, 0.0, 9.993701, 10.001671 
2.1846287e+3, 3.0502194e+2, -846355.75, -125835.94, -6079.8306, -0.018444678, 0.5915741, -125784.64, -125784.64, 0.0, 9.992977, 10.00252 
2.1845847e+3, 3.1502384e+2, -853913.3, -37557.06, 51687.31, 0.018530726, 0.5352166, -34297.51, -34297.51, 0.0, 9.992536, 10.003336 
2.1954356e+3, 1.2508628e+2, -937851.2, -1703932.0, -45208.504, 0.044403203, 0.44936535, -935192.5, 779006.44, 0.18146586, 10.008434, 9.996027 
2.1953906e+3, 1.3508269e+2, -932818.94, -1660596.0, -21994.273, 0.07586597, 0.46871468, -932154.9, 684080.4, 0.13192739, 10.0072365, 9.996216 
2.1953455e+3, 1.4507915e+2, -877894.6, -1551134.9, -19096.61, 0.096808046, 0.48597324, -877353.4, 640918.0, 0.08117475, 10.006378, 9.996706 
2.1952999e+3, 1.5507579e+2, -826554.9, -1500997.6, -23435.93, 0.0474516, 0.48568562, -825741.5, 594564.7, 0.039372534, 10.005879, 9.996618 
2.1952541e+3, 1.6507277e+2, -789770.0, -1375753.6, -40332.133, 0.033826705, 0.5094629, -787007.06, 535331.0, 0.013497127, 10.005061, 9.997199 
2.1952087e+3, 1.7507033e+2, -856366.6, -1369278.0, -45707.848, 0.05480328, 0.5519907, -852325.25, 372039.53, 0.0025532444, 10.003926, 9.997118 
2.1951628e+3, 1.8506788e+2, -851084.7, -1255189.1, -45522.113, 0.04118433, 0.58326536, -846020.1, 280371.16, 0.00012102814, 10.003018, 9.997665 
2.1951169e+3, 1.9506566e+2, -856861.44, -1215740.3, -46515.586, -0.0053277942, 0.6021437, -850930.44, 177484.48, 0.00000000000007150772, 10.002342, 9.997589 
2.1950713e+3, 2.0506357e+2, -821021.9, -1057930.4, -36628.434, -0.018500417, 0.610298, -815488.0, 114948.91, 0.0, 10.001528, 9.998393 
2.1950258e+3, 2.1506186e+2, -866563.4, -1037515.6, -33988.39, -0.000106286425, 0.6070066, -860053.75, -27599.191, 0.0, 10.000579, 9.998318 
2.1949807e+3, 2.2506063e+2, -807389.3, -823539.7, -24718.32, -0.0038586222, 0.608242, -789460.56, -54994.47, 0.0, 9.999731, 9.999522 
2.1949352e+3, 2.3506013e+2, -823953.4, -789836.2, -25602.055, -0.027301606, 0.61103284, -776130.2, -139661.05, 0.0, 9.998983, 9.999441 
2.1948901e+3, 2.4505961e+2, -803639.06, -644971.94, -24518.049, -0.029066114, 0.59563416, -641269.7, -102796.81, 0.0, 9.998087, 10.000195 
2.1948452e+3, 2.5505942e+2, -863368.4, -631901.0, -24591.3, -0.0128585305, 0.5626299, -629317.25, -188842.83, 0.0, 9.997043, 10.000115 
2.1948002e+3, 2.6505974e+2, -808873.44, -427698.38, -21266.016, -0.012746474, 0.54555666, -426515.6, -84045.93, 0.0, 9.996197, 10.001252 
2.1947554e+3, 2.7506086e+2, -811690.4, -387779.13, -20315.092, -0.021279095, 0.53629285, -386807.78, -142351.11, 0.0, 9.995545, 10.001167 
2.1947107e+3, 2.850621e+2, -800707.6, -276585.5, -6707.383, -0.012360057, 0.5382326, -276499.7, -130056.414, 0.0, 9.994711, 10.001658 
2.1946666e+3, 2.95064e+2, -851857.06, -253055.19, -12590.476, -0.0074532493, 0.5668641, -252790.58, -204365.64, 0.0, 9.993699, 10.001636 
2.1946219e+3, 3.0506533e+2, -833339.94, -99650.5, -24951.078, -0.0044734357, 0.49852395, -98802.95, -98802.95, 0.0, 9.992977, 10.002702 
2.1945772e+3, 3.1506863e+2, -879665.6, -95018.055, 40902.816, 0.014161015, 0.5696476, -92891.59, -92891.59, 0.0, 9.992549, 10.002936 
2.2054438e+3, 1.2513168e+2, -1004738.3, -1729876.8, -13790.16, 0.07645608, 0.46598217, -1004476.2, 709279.5, 0.18378514, 10.007849, 9.996116 
2.2053976e+3, 1.3512814e+2, -896452.56, -1630031.3, 9128.624, 0.06518902, 0.4831462, -896338.94, 719451.8, 0.13360918, 10.007498, 9.996298 
2.205352e+3, 1.4512452e+2, -835279.44, -1524941.9, 9354.149, 0.0907041, 0.4881345, -835152.56, 682674.7, 0.082217544, 10.006693, 9.996732 
2.2053054e+3, 1.551213e+2, -885037.06, -1527437.4, 5667.4854, 0.060162064, 0.49954784, -884987.06, 534873.7, 0.039897535, 10.005455, 9.996638 
2.205259e+3, 1.6511826e+2, -869588.25, -1419789.3, -8681.714, 0.044745818, 0.5237033, -869451.3, 452441.56, 0.013696794, 10.004532, 9.997149 
2.2052124e+3, 1.7511563e+2, -861113.8, -1376728.4, -10751.494, 0.045242365, 0.55413896, -860889.75, 363031.72, 0.0025996165, 10.003921, 9.997067 
2.2051658e+3, 1.8511315e+2, -828364.44, -1237654.6, -4374.092, 0.027922507, 0.58289456, -828317.7, 297630.56, 0.00012391152, 10.003151, 9.99772 
2.2051188e+3, 1.9511105e+2, -869975.0, -1215661.4, -1950.8495, -0.006934651, 0.6096462, -869964.0, 158006.38, 0.00000000000029186663, 10.002229, 9.9976425 
2.2050725e+3, 2.05109e+2, -841508.9, -1056521.4, 6138.1377, -0.015937753, 0.6130959, -841333.8, 88657.9, 0.0, 10.001344, 9.998489 
2.2050263e+3, 2.1510719e+2, -872314.5, -1029090.0, 8819.462, 0.0001638745, 0.59231466, -871819.94, -39810.453, 0.0, 10.000496, 9.998413 
2.2049803e+3, 2.2510597e+2, -821025.6, -833230.94, 21185.48, -0.0047626104, 0.5921902, -805081.4, -71060.36, 0.0, 9.999656, 9.99949 
2.204934e+3, 2.3510556e+2, -849528.6, -805235.06, 18437.879, -0.029255474, 0.6101179, -798564.56, -162540.73, 0.0, 9.998826, 9.999409 
2.2048882e+3, 2.451051e+2, -810820.3, -648002.06, 14455.459, -0.033695444, 0.6012672, -646728.6, -108701.305, 0.0, 9.998041, 10.000194 
2.2048423e+3, 2.5510487e+2, -826801.4, -613735.9, 14073.289, -0.021099785, 0.5647384, -612810.4, -172781.56, 0.0, 9.997296, 10.000115 
2.2047967e+3, 2.6510507e+2, -770226.1, -417241.66, 20481.693, -0.015644899, 0.539402, -416057.2, -74031.97, 0.0, 9.996502, 10.001174 
2.2047509e+3, 2.75106e+2, -802552.8, -391719.03, 16568.357, -0.01061676, 0.52259237, -391051.94, -147037.83, 0.0, 9.995649, 10.001087 
2.2047056e+3, 2.851074e+2, -795032.5, -272159.3, 24039.547, -0.006397937, 0.5410311, -271056.38, -125057.04, 0.0, 9.994748, 10.001669 
2.2046599e+3, 2.9510954e+2, -830648.75, -240348.5, 26110.416, -0.021777784, 0.5950042, -239195.83, -191217.9, 0.0, 9.993839, 10.001653 
2.2046147e+3, 3.051098e+2, -837244.1, -128951.2, 10264.997, 0.005109565, 0.43170342, -128802.47, -128802.47, 0.0, 9.9930725, 10.002452 
2.2045696e+3, 3.1511384e+2, -895083.7, -84314.35, 48095.42, 0.008750984, 0.6040597, -81471.266, -81471.266, 0.0, 9.992369, 10.003096 
2.2154522e+3, 1.2517785e+2, -1004277.4, -1726409.4, -22343.424, 0.11962129, 0.47329414, -1003586.7, 709717.3, 0.18589337, 10.007854, 9.99614 
2.2154048e+3, 1.351742e+2, -896692.2, -1624283.1, -1916.1113, 0.026561063, 0.47305873, -896687.2, 718652.7, 0.13513532, 10.007479, 9.996347 
2.2153582e+3, 1.4517058e+2, -836963.9, -1524336.8, -32439.143, 0.059142582, 0.47318262, -835436.4, 681940.1, 0.08316371, 10.006675, 9.996749 
2.2153111e+3, 1.5516776e+2, -884362.75, -1527131.6, -38131.875, 0.08927334, 0.52498096, -882108.5, 537297.94, 0.040375926, 10.005457, 9.996643 
2.2152637e+3, 1.651648e+2, -869412.4, -1422081.3, -30468.13, 0.072717205, 0.5581582, -867737.75, 453700.2, 0.013880934, 10.0045395, 9.997132 
2.215216e+3, 1.7516193e+2, -861549.3, -1379123.8, -32783.586, 0.016607212, 0.56550515, -859481.06, 363987.84, 0.0026436986, 10.003922, 9.997052 
2.2151685e+3, 1.8515939e+2, -821330.5, -1224416.8, -37999.11, -0.003943432, 0.5846905, -817779.56, 307716.38, 0.00012688585, 10.003152, 9.997813 
2.2151214e+3, 1.9515744e+2, -862679.8, -1202582.9, -35509.684, 0.0067757103, 0.61652017, -859009.75, 168506.64, 0.0, 10.0022335, 9.997733 
2.215074e+3, 2.0515546e+2, -834191.3, -1043718.4, -24852.395, 0.00035525495, 0.6202875, -831283.9, 98252.336, 0.0, 10.001349, 9.998576 
2.2150266e+3, 2.1515371e+2, -865295.06, -1016829.9, -22011.5, -0.020740528, 0.59448904, -862162.5, -30609.584, 0.0, 10.000501, 9.998497 
2.2149795e+3, 2.251524e+2, -824864.9, -843494.0, -9321.349, -0.027189413, 0.58631855, -821001.8, -87436.74, 0.0, 9.999661, 9.999419 
2.2149329e+3, 2.3515183e+2, -853293.0, -815332.75, -12148.797, -0.020030037, 0.59375125, -811777.6, -176207.33, 0.0, 9.998832, 9.999339 
2.2148862e+3, 2.4515139e+2, -810903.44, -650781.75, -13156.001, -0.019449104, 0.592188, -649708.0, -112134.27, 0.0, 9.998048, 10.0001745 
2.2148393e+3, 2.5515136e+2, -826187.9, -616146.44, -13539.971, -0.026993811, 0.5783126, -615277.2, -175704.19, 0.0, 9.997308, 10.000095 
2.2147927e+3, 2.6515144e+2, -778992.1, -439405.22, -12277.664, -0.024545368, 0.54948395, -438961.9, -97391.234, 0.0, 9.996514, 10.001019 
2.2147466e+3, 2.75152e+2, -811792.44, -414229.6, -17235.1, -0.007216664, 0.5106992, -413483.84, -169920.28, 0.0, 9.995659, 10.000931 
2.2147001e+3, 2.8515342e+2, -786698.75, -257693.78, -11598.906, -0.0059552197, 0.533983, -257439.6, -111891.35, 0.0, 9.994756, 10.001767 
2.2146535e+3, 2.9515576e+2, -825731.5, -233155.75, -7568.2026, -0.03573119, 0.5984316, -233059.11, -185535.28, 0.0, 9.993847, 10.0017 
2.2146079e+3, 3.0515525e+2, -886867.7, -234844.6, -17624.252, 0.010132547, 0.39311948, -234368.55, -234368.55, 0.0, 9.993081, 10.001723 
2.2145617e+3, 3.151589e+2, -840339.6, 26055.008, 12748.045, 0.003566703, 0.59557235, 26242.541, 26242.541, 0.0, 9.992376, 10.003853 
2.22546e+3, 1.25225e+2, -975535.56, -1712229.3, 16976.574, 0.122111924, 0.4745885, -975144.56, 737697.8, 0.18781011, 10.008131, 9.996101 
2.2254121e+3, 1.3522136e+2, -950577.44, -1650322.3, 35709.434, 0.03915342, 0.4748688, -948759.8, 666118.1, 0.13651869, 10.007047, 9.996377 
2.2253647e+3, 1.4521767e+2, -902705.0, -1557228.9, -71.79831, 0.07670287, 0.46726915, -902705.0, 614210.44, 0.084022865, 10.006185, 9.996756 
2.2253165e+3, 1.55215e+2, -871092.06, -1519259.1, -5136.4014, 0.08340133, 0.5333757, -871051.3, 547892.94, 0.040815268, 10.005553, 9.996648 
2.225268e+3, 1.6521211e+2, -836743.3, -1397995.5, 10077.152, 0.060847275, 0.5722524, -836562.44, 484412.6, 0.014054082, 10.004737, 9.997201 
2.2252198e+3, 1.7520928e+2, -883771.2, -1382017.8, 13697.172, 0.015364746, 0.57713467, -883394.94, 339610.47, 0.0026872884, 10.003739, 9.997119 
2.2251713e+3, 1.8520671e+2, -859053.44, -1240819.4, 7827.1157, 0.0011548772, 0.59127796, -858893.0, 266139.47, 0.00013034987, 10.00289, 9.997825 
2.2251233e+3, 1.9520469e+2, -869066.9, -1203694.3, 3414.089, 0.014112796, 0.61525935, -869032.06, 158021.48, 0.000000000039864764, 10.002185, 9.997746 
2.2250752e+3, 2.0520273e+2, -820150.8, -1033541.6, 8237.133, 0.004057477, 0.61941904, -819833.3, 109239.7, 0.0, 10.001435, 9.998603 
2.2250271e+3, 2.1520108e+2, -843075.7, -1002835.25, 5979.6455, -0.026481863, 0.60222614, -842852.2, -11763.609, 0.0, 10.000645, 9.998522 
2.2249793e+3, 2.2519976e+2, -809427.8, -842987.4, 14718.574, -0.03300441, 0.59393024, -803887.25, -70786.12, 0.0, 9.999803, 9.9993515 
2.2249316e+3, 2.35199e+2, -846145.0, -818731.1, 11427.427, -0.016945802, 0.59297734, -814592.44, -179484.23, 0.0, 9.998916, 9.999273 
2.2248843e+3, 2.4519856e+2, -807809.75, -646453.3, 14578.759, -0.013904921, 0.5925337, -645146.7, -108034.86, 0.0, 9.998062, 10.000194 
2.2248366e+3, 2.5519863e+2, -835417.06, -617862.8, 16909.32, -0.024907498, 0.5888556, -616556.4, -177446.69, 0.0, 9.997238, 10.000114 
2.2247893e+3, 2.6519868e+2, -796513.0, -455556.25, 21090.723, -0.022389887, 0.5589788, -454256.56, -113148.97, 0.0, 9.996433, 10.000943 
2.2247422e+3, 2.7519903e+2, -818477.94, -424957.4, 21608.537, -0.0025531382, 0.50895596, -423774.44, -180672.14, 0.0, 9.99565, 10.000858 
2.2246948e+3, 2.852003e+2, -766991.44, -241589.98, 26846.941, -0.0052533043, 0.51661617, -240221.73, -95133.31, 0.0, 9.994867, 10.0018215 
2.2246473e+3, 2.9520246e+2, -795726.5, -218339.2, 26876.863, -0.042201303, 0.56004894, -217090.8, -170025.53, 0.0, 9.994057, 10.0016985 
2.2246008e+3, 3.0520242e+2, -911630.7, -278465.94, 28659.79, 0.017802643, 0.42221177, -277171.3, -277171.3, 0.0, 9.993053, 10.001434 
2.2245537e+3, 3.1520516e+2, -878873.3, 62126.504, 79233.03, -0.004288728, 0.55605423, 68751.35, 68751.35, 0.0, 9.991883, 10.004335 
2.2354677e+3, 1.252731e+2, -984377.0, -1727059.4, -13659.326, 0.087463796, 0.47515363, -984125.9, 728245.25, 0.18956243, 10.00811, 9.996012 
2.2354195e+3, 1.3526957e+2, -951959.94, -1651058.3, 718.78156, 0.09704919, 0.4875199, -951959.2, 662446.5, 0.13778362, 10.007042, 9.996375 
2.2353713e+3, 1.4526576e+2, -904094.1, -1560230.4, -21377.842, 0.1363962, 0.46954954, -903398.3, 613046.1, 0.084812246, 10.006184, 9.996738 
2.2353216e+3, 1.5526298e+2, -873297.94, -1522788.1, -27335.57, 0.043956645, 0.5261506, -872149.5, 546325.2, 0.041224405, 10.005546, 9.996631 
2.2352722e+3, 1.652602e+2, -827824.7, -1378664.1, -26056.605, 0.012196638, 0.5681464, -826594.9, 493909.56, 0.014219858, 10.00473, 9.997339 
2.2352237e+3, 1.7525765e+2, -873932.7, -1363544.1, -22849.264, 0.040109083, 0.5898385, -872868.7, 349662.72, 0.0027317724, 10.003743, 9.997247 
2.2351746e+3, 1.852551e+2, -863625.9, -1253168.6, -17931.494, 0.04053657, 0.6024001, -862802.2, 261756.16, 0.00013473061, 10.002897, 9.997739 
2.2351255e+3, 1.9525279e+2, -873828.06, -1216050.4, -22259.264, 0.014453798, 0.60631025, -872386.3, 154196.0, 0.0000000005492505, 10.002192, 9.997661 
2.2350764e+3, 2.0525077e+2, -822153.5, -1040030.44, -20700.236, -0.004659924, 0.6113967, -820204.2, 108398.4, 0.0, 10.001441, 9.998558 
2.2350276e+3, 2.1524929e+2, -845103.44, -1009484.3, -22848.297, -0.017101187, 0.61550313, -841986.75, -11369.809, 0.0, 10.00065, 9.998476 
2.234979e+3, 2.2524795e+2, -814476.9, -855877.8, -17846.828, -0.022504669, 0.61466616, -807845.75, -75216.08, 0.0, 9.999808, 9.999263 
2.2349304e+3, 2.3524708e+2, -851057.94, -831417.9, -21376.416, -0.020750947, 0.60817754, -817713.8, -183075.63, 0.0, 9.998921, 9.999186 
2.2348821e+3, 2.4524654e+2, -803569.44, -640136.25, -16460.416, -0.01737789, 0.60292554, -638494.94, -101852.664, 0.0, 9.998069, 10.0002365 
2.2348337e+3, 2.5524664e+2, -831377.1, -611850.2, -14533.546, -0.014417235, 0.5965068, -610892.2, -172252.61, 0.0, 9.997244, 10.000155 
2.2347857e+3, 2.6524675e+2, -795888.1, -456550.56, -9016.977, -0.008720049, 0.5678159, -456311.13, -115674.42, 0.0, 9.996438, 10.0009365 
2.2347376e+3, 2.7524707e+2, -817116.75, -424974.53, -7930.8945, 0.0032371723, 0.5171367, -424814.2, -182183.22, 0.0, 9.995658, 10.000856 
2.2346897e+3, 2.8524792e+2, -766666.94, -243747.84, -4640.1904, -0.0043596425, 0.4877829, -243706.67, -99086.01, 0.0, 9.994875, 10.001805 
2.2346413e+3, 2.9524955e+2, -799244.0, -228946.25, -5699.0728, -0.041170787, 0.4773258, -228889.31, -182285.98, 0.0, 9.994066, 10.001623 
2.234594e+3, 3.052514e+2, -899474.9, -255067.92, -15841.014, 0.027762957, 0.52454704, -254678.75, -254678.75, 0.0, 9.993055, 10.001596 
2.2345454e+3, 3.1525275e+2, -871427.06, 77516.54, 16892.037, -0.015018883, 0.49923503, 77817.14, 77817.14, 0.0, 9.991876, 10.004449 
2.2454756e+3, 1.2532206e+2, -1007371.1, -1739799.6, 6597.217, 0.0848525, 0.48721635, -1007311.7, 704580.56, 0.19117694, 10.00793, 9.996008 
2.2454263e+3, 1.353187e+2, -943459.6, -1633443.5, 23713.5, 0.085758775, 0.5059277, -942645.6, 671279.56, 0.13895865, 10.007067, 9.996483 
2.2453775e+3, 1.4531484e+2, -906890.9, -1557247.0, 12993.348, 0.13208917, 0.4780106, -906631.44, 609332.7, 0.08555222, 10.006152, 9.996772 
2.2453266e+3, 1.5531188e+2, -919582.4, -1542528.5, 11605.214, 0.043935925, 0.5159741, -919366.25, 498629.4, 0.0416123, 10.005205, 9.996656 
2.2452766e+3, 1.6530915e+2, -872093.5, -1396436.6, 10194.424, 0.013588556, 0.55990416, -871895.4, 448129.66, 0.01438093, 10.00441, 9.99737 
2.2452271e+3, 1.7530684e+2, -870285.5, -1358229.1, 4997.5703, 0.04152365, 0.601668, -870234.3, 351815.8, 0.0027782088, 10.003757, 9.997273 
2.2451775e+3, 1.8530428e+2, -844873.8, -1238706.4, 12404.807, 0.044321764, 0.61291414, -844483.44, 279593.2, 0.0001404254, 10.003007, 9.997783 
2.2451277e+3, 1.9530182e+2, -875115.0, -1211874.9, 17088.455, 0.021861864, 0.5973275, -874250.06, 151851.45, 0.0000000024737916, 10.002167, 9.9977 
2.245078e+3, 2.0529978e+2, -835566.6, -1056544.6, 21352.385, 0.0022074862, 0.60383326, -833522.3, 94599.88, 0.0, 10.001397, 9.998464 
2.2450283e+3, 2.1529837e+2, -845383.94, -1019787.6, 14384.579, -0.013993127, 0.62737274, -844205.5, -14068.981, 0.0, 10.000697, 9.998381 
2.2449787e+3, 2.2529702e+2, -808477.1, -859397.9, 12196.819, -0.019699208, 0.63063174, -805706.44, -73556.48, 0.0, 9.999882, 9.999201 
2.2449294e+3, 2.3529597e+2, -849087.4, -836570.5, 10542.939, -0.015686616, 0.614697, -830568.4, -196408.48, 0.0, 9.998966, 9.9991255 
2.2448802e+3, 2.4529533e+2, -798420.9, -635083.75, 17633.176, -0.012564195, 0.60235584, -633201.8, -97037.195, 0.0, 9.998098, 10.000254 
2.244831e+3, 2.552954e+2, -826782.06, -607077.7, 17358.572, -0.011538037, 0.59223706, -605714.6, -167552.67, 0.0, 9.99727, 10.000173 
2.244782e+3, 2.6529557e+2, -796546.0, -455681.25, 22540.586, -0.0069170254, 0.5702198, -454197.16, -114038.94, 0.0, 9.996434, 10.000941 
2.2447331e+3, 2.7529603e+2, -827000.1, -428363.25, 24273.625, 0.0042550955, 0.5316235, -426890.66, -184739.42, 0.0, 9.99559, 10.000863 
2.2446844e+3, 2.8529665e+2, -794243.25, -263317.25, 23372.818, 0.000068019035, 0.48525086, -262290.28, -118147.4, 0.0, 9.994719, 10.001743 
2.2446352e+3, 2.952979e+2, -839639.75, -253856.23, 17969.07, -0.028361322, 0.44341975, -253305.55, -207176.16, 0.0, 9.993817, 10.00157 
2.244587e+3, 3.053005e+2, -875264.9, -200921.84, 16121.818, 0.026778951, 0.5499898, -200536.63, -200536.63, 0.0, 9.993045, 10.001971 
2.2445372e+3, 3.1530157e+2, -829160.8, 62938.977, 41900.094, -0.031748574, 0.46045625, 64902.617, 64902.617, 0.0, 9.992323, 10.004129 
2.2554837e+3, 1.2537186e+2, -1008254.06, -1733454.4, -15637.513, 0.10601034, 0.50891197, -1007917.06, 703489.06, 0.19265635, 10.007902, 9.996068 
2.2554326e+3, 1.353687e+2, -936057.06, -1609939.9, -4047.5442, 0.011886242, 0.5295617, -936032.75, 677404.0, 0.1400511, 10.007044, 9.996659 
2.2553828e+3, 1.4536488e+2, -904611.06, -1549661.0, -19634.697, 0.07086267, 0.49205002, -904013.94, 611460.94, 0.08624998, 10.006141, 9.996832 
2.2553323e+3, 1.5536171e+2, -915448.4, -1534946.4, -21827.484, 0.08031773, 0.50376785, -914680.25, 502827.34, 0.04198272, 10.005207, 9.99671 
2.2552815e+3, 1.6535895e+2, -877266.3, -1410018.8, -13325.215, 0.059861325, 0.5482693, -876933.25, 442603.9, 0.014538231, 10.004417, 9.997275 
2.2552304e+3, 1.7535678e+2, -875354.5, -1370802.4, -18915.088, 0.019735679, 0.61265576, -874633.44, 346928.4, 0.002826804, 10.003761, 9.997189 
2.2551799e+3, 1.8535425e+2, -833181.7, -1216263.9, -18435.057, 0.014243073, 0.6230936, -832296.6, 291291.16, 0.00014756004, 10.00301, 9.997938 
2.2551298e+3, 1.9535175e+2, -863728.7, -1190896.3, -13554.122, 0.036443457, 0.58828956, -863168.1, 162443.5, 0.0000000066937957, 10.002173, 9.997843 
2.2550793e+3, 2.053497e+2, -846194.8, -1081315.9, -4081.9036, 0.024033232, 0.5962264, -846123.94, 81508.44, 0.0, 10.001404, 9.998292 
2.2550288e+3, 2.1534832e+2, -855892.2, -1043870.6, -11316.117, -0.017541273, 0.63811976, -855213.44, -25565.63, 0.0, 10.000702, 9.998215 
2.2549786e+3, 2.2534685e+2, -811301.2, -867421.2, -21408.477, -0.02461206, 0.64232457, -804066.94, -72404.414, 0.0, 9.9998865, 9.9991455 
2.2549282e+3, 2.353456e+2, -851460.0, -844077.9, -23259.15, -0.0016072189, 0.6121789, -824218.75, -190544.88, 0.0, 9.998973, 9.999073 
2.2548781e+3, 2.4534485e+2, -799169.4, -639370.25, -13469.505, 0.0003274862, 0.58982354, -638242.9, -102563.2, 0.0, 9.998105, 10.000224 
2.254828e+3, 2.553448e+2, -827763.3, -611876.8, -14197.002, -0.01743983, 0.5744271, -610947.2, -173269.5, 0.0, 9.997277, 10.000139 
2.2547783e+3, 2.653451e+2, -795601.9, -455886.13, -10210.024, -0.018048774, 0.5660914, -455579.53, -115906.61, 0.0, 9.996439, 10.00094 
2.2547285e+3, 2.7534583e+2, -827144.25, -430124.47, -8599.278, -0.000028833258, 0.55538386, -429938.28, -188274.69, 0.0, 9.995592, 10.000853 
2.2546789e+3, 2.8534645e+2, -802877.8, -282301.88, -11820.112, 0.008193799, 0.5119639, -282033.63, -138377.88, 0.0, 9.994719, 10.001616 
2.2546291e+3, 2.9534742e+2, -842809.5, -261873.4, -16892.434, -0.0033875108, 0.45865408, -261382.63, -215738.27, 0.0, 9.993818, 10.001517 
2.2545797e+3, 3.0534962e+2, -834507.25, -118626.14, -10658.165, 0.013233991, 0.49306765, -118467.49, -118467.49, 0.0, 9.99305, 10.002536 
2.254529e+3, 3.1535217e+2, -879845.3, -47964.945, 591.93604, -0.0511719, 0.5069031, -47964.523, -47964.523, 0.0, 9.992342, 10.003362 
2.265491e+3, 1.2542245e+2, -1052342.0, -1752412.3, 16183.467, 0.09851668, 0.5210948, -1051968.0, 658943.6, 0.19396085, 10.007509, 9.996124 
2.2654392e+3, 1.3541946e+2, -967877.3, -1608664.5, 23629.389, 0.0030410555, 0.54281795, -967007.2, 645933.6, 0.14102922, 10.006718, 9.996824 
2.2653887e+3, 1.4541587e+2, -925192.9, -1548323.0, 10729.214, 0.06631762, 0.5159058, -925008.2, 589968.3, 0.086886786, 10.005943, 9.996933 
2.2653374e+3, 1.5541278e+2, -908715.7, -1520864.3, 11975.31, 0.080820896, 0.52607024, -908481.5, 508526.6, 0.042328157, 10.005217, 9.996799 
2.2652858e+3, 1.6540992e+2, -875135.94, -1415453.8, 26774.25, 0.06447895, 0.5607328, -873812.44, 445226.0, 0.014689164, 10.004466, 9.997212 
2.2652341e+3, 1.7540751e+2, -889714.56, -1383424.5, 22950.986, 0.026193593, 0.6098844, -888649.94, 332415.34, 0.0028763514, 10.003693, 9.997132 
2.2651829e+3, 1.8540499e+2, -837102.2, -1209015.9, 18814.4, 0.01744867, 0.6190196, -836152.8, 286938.28, 0.0001558526, 10.00295, 9.998014 
2.2651318e+3, 1.9540265e+2, -850186.3, -1176187.6, 16761.549, 0.03273495, 0.593913, -849326.8, 175786.2, 0.000000012732063, 10.002236, 9.9979105 
2.2650805e+3, 2.0540062e+2, -846512.7, -1089035.8, 26219.682, 0.023835609, 0.60528326, -843710.4, 83423.27, 0.0, 10.001439, 9.9982195 
2.2650293e+3, 2.1539915e+2, -879844.75, -1062500.9, 25347.418, -0.0055509433, 0.64576954, -876392.5, -47242.02, 0.0, 10.000573, 9.998146 
2.2649783e+3, 2.253976e+2, -830235.1, -876246.75, 18275.27, -0.013338267, 0.6462187, -823859.75, -92693.82, 0.0, 9.999761, 9.999143 
2.2649272e+3, 2.3539627e+2, -848976.2, -842931.75, 19832.793, -0.0019135779, 0.61026686, -825892.25, -192714.67, 0.0, 9.998996, 9.999067 
2.2648762e+3, 2.4539548e+2, -793656.3, -644258.1, 29293.895, -0.0016222689, 0.58830726, -638719.5, -103535.914, 0.0, 9.99818, 10.000151 
2.2648253e+3, 2.553954e+2, -826627.06, -619209.44, 24751.73, -0.013167543, 0.5782482, -616296.6, -179114.64, 0.0, 9.997324, 10.000063 
2.2647746e+3, 2.653956e+2, -796931.75, -464069.47, 23401.46, -0.014749123, 0.5697182, -462432.3, -123253.94, 0.0, 9.996468, 10.000867 
2.2647241e+3, 2.7539623e+2, -831478.2, -439920.2, 18552.36, -0.0023345775, 0.5559473, -439043.13, -197872.47, 0.0, 9.995601, 10.000778 
2.2646736e+3, 2.8539696e+2, -796897.06, -276601.38, 18238.432, 0.010336414, 0.52906847, -275962.8, -132801.33, 0.0, 9.994753, 10.001636 
2.264623e+3, 2.9539827e+2, -821577.75, -244443.52, 24497.424, 0.008480214, 0.5046325, -243405.56, -198258.89, 0.0, 9.99394, 10.0015745 
2.2645722e+3, 3.0539954e+2, -818433.44, -101422.23, 16958.65, -0.016100645, 0.43997633, -101021.35, -101021.35, 0.0, 9.993125, 10.002615 
2.2645214e+3, 3.1540325e+2, -899859.9, -68339.26, -1980.3998, -0.046740327, 0.56564206, -68334.54, -68334.54, 0.0, 9.992253, 10.003263 
2.275498e+3, 1.2547383e+2, -1050784.0, -1745564.8, -3528.1592, 0.064032555, 0.5250802, -1050766.0, 659643.3, 0.19502562, 10.007503, 9.996176 
2.2754464e+3, 1.3547097e+2, -960726.3, -1591478.8, -1583.0061, 0.050093904, 0.54783666, -960722.3, 651715.1, 0.14183886, 10.006708, 9.996967 
2.2753948e+3, 1.454678e+2, -918517.56, -1532733.6, -14176.486, 0.10975712, 0.5484955, -918190.56, 596278.8, 0.08742665, 10.005939, 9.9970455 
2.275342e+3, 1.55465e+2, -901986.7, -1507247.0, -14110.45, 0.04728918, 0.57887614, -901657.9, 514840.06, 0.0426314, 10.005217, 9.996896 
2.2752897e+3, 1.6546199e+2, -878069.4, -1422838.6, -1519.0863, 0.030991673, 0.5945683, -878065.1, 440464.34, 0.0148276165, 10.004467, 9.997164 
2.275238e+3, 1.7545904e+2, -892179.9, -1390466.1, -5188.145, 0.059370406, 0.5942086, -892125.8, 328435.0, 0.0029247, 10.003696, 9.997085 
2.275186e+3, 1.8545647e+2, -837572.7, -1212313.0, -7152.078, 0.05135652, 0.6017495, -837436.2, 285150.78, 0.0001647627, 10.0029545, 9.997992 
2.2751337e+3, 1.9545446e+2, -851164.7, -1180299.4, -9445.6455, 0.010568462, 0.6141346, -850893.8, 173712.28, 0.00000001851255, 10.00224, 9.997883 
2.2750817e+3, 2.0545249e+2, -845039.06, -1087917.0, -5588.4185, 0.0023395147, 0.6307335, -844910.56, 81715.945, 0.0, 10.001443, 9.998228 
2.27503e+3, 2.154508e+2, -878125.25, -1061260.5, -6061.9077, 0.021904513, 0.64963686, -877924.8, -49279.652, 0.0, 10.000579, 9.998155 
2.274978e+3, 2.2544919e+2, -827233.06, -872394.6, -9703.4375, 0.013476841, 0.6417179, -825236.44, -94575.56, 0.0, 9.999766, 9.999169 
2.2749257e+3, 2.3544794e+2, -846145.44, -839591.25, -8424.437, -0.017548056, 0.6093795, -833828.94, -201157.55, 0.0, 9.9990015, 9.99909 
2.274874e+3, 2.4544719e+2, -802040.75, -664402.8, -2944.2813, -0.018771606, 0.5989592, -664339.8, -129662.945, 0.0, 9.998188, 10.000011 
2.2748224e+3, 2.5544715e+2, -834794.94, -639153.6, -7494.188, 0.0018847676, 0.6050879, -638867.0, -202191.61, 0.0, 9.997332, 9.999925 
2.274771e+3, 2.6544702e+2, -808273.1, -490220.4, -10118.74, 0.003791478, 0.581061, -489898.8, -151223.56, 0.0, 9.996474, 10.000688 
2.2747195e+3, 2.7544707e+2, -842243.0, -464556.53, -15766.05, -0.0029191412, 0.5304471, -463899.53, -223225.97, 0.0, 9.995605, 10.000609 
2.2746682e+3, 2.8544816e+2, -785007.1, -254138.6, -13855.259, 0.005056662, 0.5359538, -253777.22, -111116.125, 0.0, 9.994757, 10.00179 
2.2746167e+3, 2.9545036e+2, -809178.94, -221814.31, -6170.0776, 0.004131024, 0.58592683, -221749.5, -177112.81, 0.0, 9.993948, 10.001729 
2.2745647e+3, 3.0545017e+2, -848365.0, -166560.28, -17518.68, -0.063347936, 0.39117518, -166110.45, -166110.45, 0.0, 9.993133, 10.002167 
2.2745137e+3, 3.1545398e+2, -853605.3, 26188.867, -12054.399, -0.029237458, 0.56831783, 26353.998, 26353.998, 0.0, 9.992256, 10.003913 
2.2855054e+3, 1.2552622e+2, -1041132.6, -1735349.1, 34450.645, 0.054030087, 0.5254457, -1039427.2, 670469.1, 0.19578752, 10.007574, 9.996212 
2.2854526e+3, 1.3552344e+2, -976440.1, -1589387.5, 31409.938, 0.045350216, 0.54644763, -974834.75, 637089.3, 0.14242628, 10.006542, 9.997062 
2.2854006e+3, 1.4552054e+2, -945145.44, -1546166.9, 24350.688, 0.10546897, 0.57045114, -944160.5, 569793.25, 0.08782966, 10.005743, 9.997045 
2.285347e+3, 1.5551777e+2, -908888.44, -1509849.5, 18365.893, 0.041215293, 0.6048488, -908327.7, 507654.8, 0.042869117, 10.005171, 9.996897 
2.285294e+3, 1.655147e+2, -874246.06, -1410577.3, 27284.033, 0.026162906, 0.6109485, -872861.6, 445152.63, 0.014943634, 10.004456, 9.99725 
2.2852416e+3, 1.7551163e+2, -898073.94, -1384294.4, 32208.729, 0.059243884, 0.5916604, -895949.56, 324096.16, 0.0029687032, 10.003623, 9.997159 
2.285189e+3, 1.8550907e+2, -857923.2, -1229626.4, 34917.926, 0.05370558, 0.60214037, -854671.44, 267400.34, 0.00017362126, 10.002852, 9.997919 
2.2851357e+3, 1.955072e+2, -871142.5, -1197123.0, 28002.008, 0.012549001, 0.63539433, -868754.56, 155335.97, 0.000000023014687, 10.00214, 9.997812 
2.285083e+3, 2.055052e+2, -856121.4, -1090643.5, 25148.39, 0.005559109, 0.6533327, -853455.0, 72656.305, 0.0, 10.001362, 9.998245 
2.2850305e+3, 2.1550335e+2, -884479.5, -1062304.6, 24532.182, 0.02824931, 0.6571589, -881157.2, -53026.316, 0.0, 10.000531, 9.998168 
2.2849777e+3, 2.2550172e+2, -827025.44, -873816.3, 23174.441, 0.018649474, 0.64625996, -817490.6, -87343.94, 0.0, 9.99978, 9.99915 
2.2849248e+3, 2.355005e+2, -835207.9, -836470.1, 20322.926, -0.017219096, 0.621524, -815506.3, -183349.63, 0.0, 9.999091, 9.999065 
2.2848724e+3, 2.454997e+2, -797446.7, -676810.25, 18489.377, -0.016586013, 0.6142245, -674040.06, -139877.25, 0.0, 9.998287, 9.999876 
2.2848198e+3, 2.554995e+2, -836003.0, -653709.56, 14051.536, 0.0111157885, 0.6192619, -652632.8, -216469.67, 0.0, 9.997389, 9.999794 
2.2847676e+3, 2.654992e+2, -806125.56, -496995.03, 16522.795, 0.010040258, 0.5888605, -496114.4, -157949.63, 0.0, 9.996528, 10.000612 
2.284715e+3, 2.754991e+2, -834748.3, -467960.72, 18509.299, -0.00579766, 0.52949154, -467029.03, -226864.33, 0.0, 9.995692, 10.000542 
2.2846629e+3, 2.8550023e+2, -756607.56, -234378.56, 22749.432, -0.00089364644, 0.5387845, -233389.42, -91237.47, 0.0, 9.99493, 10.00184 
2.2846106e+3, 2.9550254e+2, -769896.6, -199743.0, 20591.701, -0.0063363197, 0.59723324, -199000.28, -154873.97, 0.0, 9.994208, 10.001753 
2.2845577e+3, 3.0550233e+2, -871777.5, -205722.94, -2839.2773, -0.07180214, 0.41606355, -205710.83, -205710.83, 0.0, 9.993095, 10.001914 
2.2845057e+3, 3.155055e+2, -893289.3, 60109.52, 49141.227, -0.025345406, 0.5512, 62635.72, 62635.72, 0.0, 9.991763, 10.004379 
2.295513e+3, 1.2557952e+2, -1041507.8, -1733514.4, 6361.4443, 0.060156625, 0.51691175, -1041449.3, 667924.44, 0.19619025, 10.007563, 9.99623 
2.2954588e+3, 1.3557681e+2, -974738.5, -1585696.5, -1458.0017, -0.004912954, 0.5402599, -974735.0, 636666.06, 0.14274602, 10.006538, 9.997094 
2.2954057e+3, 1.4557405e+2, -952630.44, -1563781.0, 4146.043, 0.060043376, 0.58368665, -952602.3, 560827.56, 0.088060774, 10.005742, 9.996926 
2.2953522e+3, 1.5557106e+2, -916288.1, -1525161.1, -2347.3665, 0.059822213, 0.60722035, -916279.06, 499182.56, 0.043017562, 10.005163, 9.996798 
2.2952986e+3, 1.6556802e+2, -861923.4, -1384589.4, -2656.9326, 0.04603463, 0.6118068, -861909.9, 455582.9, 0.015025009, 10.004451, 9.997434 
2.295245e+3, 1.7556523e+2, -885886.7, -1360687.8, 1970.7244, 0.027505666, 0.601587, -885878.5, 333641.97, 0.003004176, 10.003625, 9.997323 
2.2951914e+3, 1.8556274e+2, -866892.1, -1250335.3, 8531.048, 0.026845329, 0.61916494, -866702.44, 254843.55, 0.00018165498, 10.002857, 9.997778 
2.295138e+3, 1.9556078e+2, -879367.9, -1216281.0, 1662.2506, 0.037887294, 0.656953, -879359.7, 144207.22, 0.00000002796664, 10.002144, 9.997682 
2.2950844e+3, 2.0555869e+2, -854753.06, -1090202.4, -5083.5107, 0.03190194, 0.67260027, -854643.4, 70945.2, 0.0, 10.001367, 9.998248 
2.2950308e+3, 2.1555677e+2, -883265.3, -1062243.3, -5365.865, 0.0130212605, 0.6689096, -883104.56, -55496.402, 0.0, 10.000537, 9.998168 
2.2949773e+3, 2.2555512e+2, -832074.75, -886771.94, -1870.218, 0.0024676225, 0.6605174, -832010.9, -102386.92, 0.0, 9.999785, 9.999061 
2.2949238e+3, 2.3555392e+2, -840151.75, -849676.0, -5656.9653, -0.0005510947, 0.6464387, -837519.4, -205885.4, 0.0, 9.999099, 9.998974 
2.2948706e+3, 2.4555293e+2, -806853.8, -699136.1, -15605.16, 0.005042869, 0.6336378, -696920.94, -163278.77, 0.0, 9.998295, 9.999722 
2.2948171e+3, 2.555524e+2, -844793.3, -674499.25, -20388.074, 0.013547269, 0.6204301, -672092.3, -236446.2, 0.0, 9.9973955, 9.999651 
2.2947639e+3, 2.655521e+2, -802911.2, -492969.03, -15685.814, 0.002782104, 0.5932849, -492177.22, -154529.56, 0.0, 9.996534, 10.00064 
2.2947104e+3, 2.755522e+2, -830763.6, -463392.22, -12816.999, -0.012249308, 0.5534511, -462945.6, -223301.05, 0.0, 9.995704, 10.00057 
2.2946575e+3, 2.85553e+2, -761274.3, -247417.58, -5513.676, -0.007705042, 0.536202, -247358.42, -105723.67, 0.0, 9.994941, 10.001748 
2.2946045e+3, 2.9555464e+2, -779036.9, -221113.7, -10419.313, -0.021643844, 0.53484744, -220919.19, -177302.44, 0.0, 9.994214, 10.001606 
2.294551e+3, 3.05556e+2, -875089.5, -213579.66, -57150.684, -0.038090445, 0.5209481, -208678.48, -208678.48, 0.0, 9.993093, 10.001864 
2.2944969e+3, 3.15558e+2, -886370.75, 76057.16, 28439.674, -0.05344238, 0.53750765, 76896.81, 76896.81, 0.0, 9.991754, 10.004495 
2.30552e+3, 1.2563372e+2, -1056311.4, -1744497.3, 28046.951, 0.03220175, 0.51996964, -1055170.3, 653672.44, 0.19616835, 10.007446, 9.99621 
2.3054649e+3, 1.3563102e+2, -976378.1, -1589170.3, 13094.581, -0.012127484, 0.5488954, -976098.44, 634772.0, 0.14274992, 10.006543, 9.997061 
2.3054111e+3, 1.4562841e+2, -958313.9, -1556454.9, 32340.445, 0.053386576, 0.6035313, -956570.3, 556327.6, 0.08808629, 10.00566, 9.997013 
2.3053569e+3, 1.556252e+2, -957752.94, -1536121.5, 39771.105, 0.049856316, 0.5971554, -955030.94, 459900.53, 0.04305411, 10.004828, 9.9968815 
2.3053025e+3, 1.6562219e+2, -901042.3, -1395017.0, 41912.43, 0.035605732, 0.59929204, -897511.4, 419450.53, 0.015059047, 10.004147, 9.997505 
2.3052482e+3, 1.7561968e+2, -888038.75, -1354490.5, 38042.586, 0.016646551, 0.6103469, -884956.5, 334030.3, 0.003026295, 10.003586, 9.99738 
2.3051941e+3, 1.8561718e+2, -876245.75, -1267912.3, 37756.277, 0.022058712, 0.63081425, -872639.3, 248373.45, 0.00018800807, 10.002855, 9.997654 
2.3051402e+3, 1.9561495e+2, -910261.25, -1243869.0, 30865.477, 0.045565594, 0.6561721, -907429.56, 115607.26, 0.000000034904282, 10.001992, 9.997562 
2.3050857e+3, 2.0561278e+2, -860068.3, -1089111.8, 28679.906, 0.03900732, 0.66857177, -856531.75, 68527.47, 0.0, 10.00132, 9.998276 
2.3050313e+3, 2.1561094e+2, -843881.8, -1040736.25, 29029.148, 0.008483554, 0.66914827, -839690.25, -12612.684, 0.0, 10.000803, 9.998184 
2.304977e+3, 2.2560924e+2, -798572.4, -882984.3, 27317.098, -0.00071547757, 0.66440845, -790503.44, -61409.863, 0.0, 10.000073, 9.998945 
2.3049231e+3, 2.3560794e+2, -836872.6, -860662.3, 20988.012, 0.008493405, 0.6536388, -824643.1, -193538.14, 0.0, 9.999181, 9.998857 
2.3048688e+3, 2.4560685e+2, -804804.44, -707169.2, 10802.078, 0.011190407, 0.64060616, -705988.3, -172873.64, 0.0, 9.998353, 9.999636 
2.3048145e+3, 2.556062e+2, -825231.9, -673385.06, 10790.316, 0.0045311116, 0.6249801, -672622.1, -237501.84, 0.0, 9.99757, 9.999572 
2.3047602e+3, 2.6560593e+2, -769867.8, -470451.0, 18147.861, -0.004247509, 0.6029405, -469355.03, -132233.78, 0.0, 9.9967375, 10.000693 
2.3047063e+3, 2.756062e+2, -803579.7, -444481.84, 23070.97, -0.0036457104, 0.57168823, -443005.7, -203889.44, 0.0, 9.99587, 10.000617 
2.3046523e+3, 2.856068e+2, -764355.56, -261854.77, 29025.611, -0.006259894, 0.5431687, -260183.73, -119075.695, 0.0, 9.99498, 10.001627 
2.3045984e+3, 2.9560813e+2, -812909.7, -249708.13, 19981.707, -0.044304583, 0.5239831, -249000.08, -205906.44, 0.0, 9.99404, 10.001492 
2.3045444e+3, 3.0560994e+2, -840612.5, -176012.92, -21331.156, 0.0018432311, 0.55273575, -175328.97, -175328.97, 0.0, 9.993244, 10.002047 
2.3044886e+3, 3.1561136e+2, -794300.06, 71378.78, 79413.164, -0.091163196, 0.49514008, 78603.46, 78603.46, 0.0, 9.992604, 10.004049 
2.3155266e+3, 1.2568873e+2, -1061251.9, -1754272.4, 2879.9277, -0.024758894, 0.52479845, -1061239.9, 647064.25, 0.19564378, 10.007424, 9.996153 
2.3154716e+3, 1.3568608e+2, -984055.1, -1602817.3, -15522.107, 0.016237702, 0.5700193, -983666.0, 626666.25, 0.14238118, 10.006525, 9.996963 
2.315417e+3, 1.4568356e+2, -943356.6, -1522880.5, 4041.0933, 0.07783423, 0.62832457, -943328.44, 569029.75, 0.08786979, 10.005655, 9.997248 
2.3153614e+3, 1.5568013e+2, -941590.44, -1504483.0, 10567.723, 0.01389796, 0.57615125, -941392.06, 473000.28, 0.042958017, 10.004837, 9.997096 
2.3153062e+3, 1.6567717e+2, -902836.4, -1401752.1, 21364.729, -0.001408278, 0.57547003, -901923.1, 414498.94, 0.015035459, 10.004154, 9.9974575 
2.3152517e+3, 1.7567493e+2, -891807.8, -1363162.8, 16783.623, 0.02495323, 0.6178306, -891210.94, 327234.06, 0.0030313248, 10.003585, 9.997325 
2.3151968e+3, 1.856723e+2, -885358.3, -1287975.5, 6024.846, 0.036782864, 0.63669133, -885268.2, 235204.23, 0.00019204567, 10.002855, 9.997519 
2.3151419e+3, 1.9566967e+2, -918060.2, -1262754.5, 138.90347, 0.035899725, 0.634579, -918060.1, 104440.57, 0.000000043907978, 10.001999, 9.997433 
2.3150869e+3, 2.0566742e+2, -856467.3, -1084597.0, 10228.108, 0.027859239, 0.64277965, -856009.6, 68514.04, 0.0, 10.001328, 9.998305 
2.315032e+3, 2.1566574e+2, -841370.7, -1038130.56, 9599.367, 0.014371366, 0.65748435, -840903.5, -14363.753, 0.0, 10.000809, 9.998201 
2.314977e+3, 2.25664e+2, -809289.1, -907668.1, -5498.6724, 0.008472533, 0.6571706, -808982.75, -80426.51, 0.0, 10.000079, 9.9987755 
2.314922e+3, 2.356625e+2, -846838.8, -883873.06, -12175.406, 0.009250598, 0.6430571, -843194.56, -212624.19, 0.0, 9.9991865, 9.998696 
2.314867e+3, 2.4566138e+2, -805852.1, -712112.1, -18615.527, 0.0010947599, 0.63507885, -708550.6, -175969.52, 0.0, 9.99836, 9.9996 
2.3148118e+3, 2.5566083e+2, -825463.8, -677324.3, -19230.074, -0.01707739, 0.6323804, -674868.75, -240282.53, 0.0, 9.997581, 9.999542 
2.3147568e+3, 2.6566064e+2, -764032.2, -461595.63, -15621.667, -0.011234463, 0.61797416, -460790.88, -124204.664, 0.0, 9.996746, 10.000752 
2.3147021e+3, 2.7566096e+2, -799454.94, -438336.0, -10222.369, 0.021083256, 0.5857455, -438046.84, -199466.6, 0.0, 9.995875, 10.000659 
2.3146474e+3, 2.8566155e+2, -774928.9, -285463.06, -7073.4424, 0.0041424576, 0.5617771, -285360.88, -144788.64, 0.0, 9.994982, 10.001467 
2.3145919e+3, 2.9566294e+2, -818738.44, -264066.5, -16487.47, -0.07517147, 0.5657639, -263576.88, -221019.44, 0.0, 9.994043, 10.001393 
2.3145379e+3, 3.0566403e+2, -810706.7, -118066.02, -46354.34, 0.04791896, 0.5025899, -114977.57, -114977.57, 0.0, 9.993257, 10.002441 
2.314481e+3, 3.1566647e+2, -857854.56, -68977.23, 25344.014, -0.10259971, 0.5192105, -68163.84, -68163.84, 0.0, 9.992633, 10.003075 
2.3255336e+3, 1.2574461e+2, -1095285.6, -1755184.0, 27126.14, -0.028392604, 0.5371843, -1094172.4, 613584.4, 0.19453236, 10.007043, 9.99633 
2.3254777e+3, 1.357418e+2, -1021516.44, -1614036.0, 18400.133, 0.004351976, 0.5582457, -1020945.56, 588840.56, 0.14157605, 10.006185, 9.99704 
2.3254222e+3, 1.4573944e+2, -959743.94, -1524672.8, 46260.355, 0.058690865, 0.62627083, -955980.9, 555829.5, 0.08737049, 10.005504, 9.997308 
2.325366e+3, 1.5573606e+2, -917962.5, -1485621.8, 42397.875, 0.0016135034, 0.57378095, -914813.3, 499030.63, 0.042708673, 10.004982, 9.997153 
2.3253103e+3, 1.6573311e+2, -893437.25, -1397661.8, 46371.207, -0.0076594916, 0.572421, -889208.1, 426665.56, 0.014946517, 10.004228, 9.997447 
2.3252548e+3, 1.7573084e+2, -934336.25, -1384591.1, 43842.14, 0.024001544, 0.6160133, -930107.0, 287790.0, 0.003017356, 10.003302, 9.997311 
2.3251994e+3, 1.8572822e+2, -918929.25, -1302677.6, 42244.832, 0.03472303, 0.6363647, -914333.75, 205590.61, 0.00019354452, 10.0026245, 9.997526 
2.3251435e+3, 1.9572559e+2, -897995.25, -1252736.4, 45685.434, 0.027387355, 0.63472825, -892206.1, 129746.336, 0.000000051889515, 10.002142, 9.997429 
2.3250881e+3, 2.0572323e+2, -843070.75, -1091992.6, 53417.844, 0.021908775, 0.63953453, -832091.75, 91884.805, 0.0, 10.001486, 9.998176 
2.3250327e+3, 2.1572134e+2, -866369.4, -1063218.3, 39679.69, 0.01846633, 0.6487604, -858671.94, -32677.258, 0.0, 10.000699, 9.99808 
2.324977e+3, 2.2571957e+2, -832940.44, -918675.4, 19893.65, 0.0136015965, 0.6504837, -828549.3, -100537.56, 0.0, 9.999921, 9.998774 
2.3249212e+3, 2.3571815e+2, -853390.3, -887436.44, 25593.469, 0.008088356, 0.6438442, -839675.6, -209650.14, 0.0, 9.999149, 9.998688 
2.324865e+3, 2.45717e+2, -802011.8, -714123.9, 26741.705, -0.0037080662, 0.64035857, -706626.75, -174590.4, 0.0, 9.998408, 9.999561 
2.3248091e+3, 2.5571644e+2, -812764.94, -675088.1, 25063.158, -0.022625826, 0.6404917, -670667.5, -236625.61, 0.0, 9.997689, 9.999502 
2.3247534e+3, 2.6571622e+2, -741482.5, -450554.34, 21336.049, -0.014757688, 0.62651384, -448997.94, -112955.54, 0.0, 9.996905, 10.000749 
2.324698e+3, 2.7571648e+2, -773633.56, -426039.5, 20553.756, 0.020078527, 0.5924136, -424828.34, -186791.4, 0.0, 9.996059, 10.000652 
2.3246421e+3, 2.8571722e+2, -755439.7, -274900.78, 24652.459, 0.00068162975, 0.5814458, -273639.38, -133611.66, 0.0, 9.995117, 10.001471 
2.3245858e+3, 2.9571885e+2, -804645.0, -254179.69, 27918.984, -0.07921501, 0.6116004, -252767.3, -210757.03, 0.0, 9.994134, 10.001414 
2.3245312e+3, 3.0571917e+2, -776331.9, -86809.67, 1967.9749, 0.060265183, 0.46426564, -86804.055, -86804.055, 0.0, 9.993436, 10.002566 
2.3244736e+3, 3.1572288e+2, -855151.25, -96281.055, 22085.768, -0.09486922, 0.5957371, -95638.83, -95638.83, 0.0, 9.992776, 10.002817 
2.335541e+3, 1.2580125e+2, -1076339.4, -1706813.5, 3306.2466, 0.0066607646, 0.5461322, -1076322.0, 630879.7, 0.19275999, 10.007026, 9.996671 
2.3354831e+3, 1.357982e+2, -1007325.25, -1587974.8, -8464.911, -0.04257016, 0.51905686, -1007201.9, 602030.3, 0.14027734, 10.006191, 9.99724 
2.335427e+3, 1.4579602e+2, -964878.3, -1540661.0, 27939.895, 0.003063006, 0.6026379, -963525.75, 547728.94, 0.08655158, 10.005512, 9.997195 
2.3353708e+3, 1.557929e+2, -925337.44, -1501313.8, 22442.488, 0.00999323, 0.58804226, -924464.3, 488822.38, 0.04228814, 10.004973, 9.997052 
2.3353145e+3, 1.6578992e+2, -893747.8, -1398335.4, 12398.828, 0.01218528, 0.587108, -893443.4, 421873.9, 0.014786598, 10.004223, 9.997447 
2.3352581e+3, 1.757874e+2, -932332.8, -1383865.9, 10879.409, 0.014115763, 0.605783, -932070.8, 285272.13, 0.0029836546, 10.003311, 9.9973135 
2.3352017e+3, 1.8578489e+2, -908670.7, -1285130.4, 24548.889, 0.017314939, 0.63106334, -907076.6, 212292.27, 0.0001924848, 10.002636, 9.997644 
2.3351455e+3, 1.9578263e+2, -890786.06, -1240024.0, 27362.516, 0.019648701, 0.6551516, -888655.25, 132737.45, 0.000000054038466, 10.002147, 9.997517 
2.3350893e+3, 2.0578012e+2, -863521.4, -1136428.4, 24533.715, 0.02041706, 0.65725005, -861333.4, 62085.184, 0.0, 10.001489, 9.997871 
2.3350333e+3, 2.1577771e+2, -884159.56, -1102579.1, 11186.104, 0.020551529, 0.64329994, -883588.1, -58145.2, 0.0, 10.000704, 9.997809 
2.3349768e+3, 2.257759e+2, -821752.7, -897942.8, -8465.072, 0.0146106975, 0.6450911, -820823.5, -93362.875, 0.0, 9.999927, 9.998916 
2.3349199e+3, 2.3577477e+2, -843298.5, -869046.6, -2903.088, 0.004616833, 0.6561, -842975.25, -213504.44, 0.0, 9.999155, 9.998814 
2.3348632e+3, 2.4577372e+2, -805287.9, -723761.0, -367.26086, -0.0031411014, 0.6566007, -723759.3, -192278.52, 0.0, 9.998415, 9.999494 
2.3348066e+3, 2.55773e+2, -816148.0, -685186.2, -2470.9849, -0.011481039, 0.6494339, -685139.6, -251651.75, 0.0, 9.997698, 9.999432 
2.3347503e+3, 2.657726e+2, -746992.9, -464868.0, -11259.636, -0.015096105, 0.62816167, -464419.34, -128928.95, 0.0, 9.996913, 10.000649 
2.3346937e+3, 2.7577275e+2, -777509.94, -437675.6, -13284.19, -0.00943474, 0.5898412, -437157.1, -199669.88, 0.0, 9.996069, 10.00057 
2.3346369e+3, 2.8577375e+2, -742846.2, -252455.8, -13949.869, -0.018807612, 0.60135686, -252059.28, -112583.95, 0.0, 9.995128, 10.001623 
2.3345801e+3, 2.9577586e+2, -794923.2, -237013.92, -7430.477, -0.056346424, 0.6634457, -236914.98, -195462.38, 0.0, 9.994142, 10.001532 
2.3345244e+3, 3.057754e+2, -787378.2, -111779.8, -20706.67, 0.03606851, 0.44146043, -111145.74, -111145.74, 0.0, 9.993441, 10.002395 
2.3344666e+3, 3.157792e+2, -820609.7, -28751.99, -35623.195, -0.0562599, 0.60282266, -27152.645, -27152.645, 0.0, 9.992785, 10.003281 
2.3455477e+3, 1.258588e+2, -1096768.5, -1714449.9, 45048.42, -0.003732968, 0.5373867, -1093500.4, 613136.56, 0.19028847, 10.00681, 9.996726 
2.3454893e+3, 1.3585554e+2, -1002902.7, -1594071.1, 17290.271, -0.058474008, 0.49866238, -1002397.44, 606271.8, 0.13845581, 10.00626, 9.997155 
2.3454322e+3, 1.4585342e+2, -967111.4, -1545931.4, 48450.766, -0.01696136, 0.59444547, -963083.8, 547607.8, 0.08539431, 10.005512, 9.997157 
2.3453754e+3, 1.558504e+2, -975265.2, -1530368.5, 47333.934, 0.0045533446, 0.59517205, -971257.94, 441465.34, 0.041686594, 10.004635, 9.997014 
2.3453183e+3, 1.6584739e+2, -926442.5, -1412190.5, 40510.547, 0.010418912, 0.59441984, -923087.1, 391667.13, 0.01455185, 10.00399, 9.997461 
2.3452613e+3, 1.7584477e+2, -901899.3, -1367429.1, 39122.973, 0.006399305, 0.6022153, -898634.3, 318146.5, 0.00292928, 10.00352, 9.997323 
2.345204e+3, 1.8584229e+2, -876998.4, -1266070.3, 49787.707, 0.0067495625, 0.62884223, -870728.3, 248078.16, 0.00018867207, 10.002843, 9.997672 
2.3451474e+3, 1.9584015e+2, -908221.8, -1245422.5, 44857.0, 0.00925167, 0.66328746, -902356.6, 118472.516, 0.00000004796778, 10.00202, 9.997538 
2.3450905e+3, 2.0583765e+2, -888104.94, -1146066.8, 50258.363, 0.014415204, 0.6649796, -878659.06, 44195.813, 0.0, 10.001316, 9.997886 
2.3450337e+3, 2.1583514e+2, -884265.1, -1101318.9, 58883.55, 0.02170233, 0.64297223, -869319.9, -44439.906, 0.0, 10.000704, 9.997816 
2.3449765e+3, 2.2583331e+2, -807237.94, -894609.6, 39935.418, 0.017544897, 0.6454694, -791735.2, -64837.152, 0.0, 10.000047, 9.998878 
2.3449191e+3, 2.3583221e+2, -816341.06, -859158.75, 31515.004, 0.0058539608, 0.66359913, -799650.94, -170742.69, 0.0, 9.999359, 9.99878 
2.3448618e+3, 2.4583112e+2, -780722.44, -708827.2, 30004.035, -0.00040389568, 0.66234285, -697950.94, -167032.55, 0.0, 9.998576, 9.9995165 
2.3448044e+3, 2.5583032e+2, -811793.9, -680909.94, 34443.37, -0.004961247, 0.64680165, -672399.25, -239473.42, 0.0, 9.997724, 9.999446 
2.3447469e+3, 2.6582995e+2, -747739.9, -474690.47, 28705.045, -0.015848957, 0.6289691, -471705.4, -136776.67, 0.0, 9.996955, 10.000559 
2.3446895e+3, 2.7583012e+2, -759457.25, -437073.5, 25901.445, -0.025327893, 0.6039944, -435005.75, -198079.75, 0.0, 9.996233, 10.000492 
2.3446321e+3, 2.85831e+2, -694398.44, -226231.94, 15243.465, -0.027269704, 0.6085038, -225736.14, -86820.91, 0.0, 9.995452, 10.001644 
2.3445745e+3, 2.9583284e+2, -724461.9, -203512.6, 12258.365, -0.04165735, 0.64592165, -203224.31, -162329.8, 0.0, 9.994632, 10.001523 
2.3445173e+3, 3.0583307e+2, -750938.2, -83419.766, 5275.8633, 0.007735179, 0.4898993, -83378.07, -83378.07, 0.0, 9.99365, 10.002485 
2.3444597e+3, 3.1583634e+2, -857919.44, -42425.156, 7149.7695, -0.0033938328, 0.58442056, -42362.477, -42362.477, 0.0, 9.992518, 10.003312 
2.3555537e+3, 1.259171e+2, -1102983.8, -1740345.1, 27018.254, -0.05253317, 0.5066116, -1101840.5, 604223.25, 0.18714982, 10.0068245, 9.99654 
2.3554954e+3, 1.3591377e+2, -1021361.75, -1639204.9, -1361.617, -0.048433926, 0.4941239, -1021358.75, 586738.9, 0.1361351, 10.00625, 9.996837 
2.3554374e+3, 1.4591157e+2, -966945.3, -1547863.4, 18483.488, -0.007743696, 0.5987047, -966357.8, 543763.5, 0.08391258, 10.005508, 9.997147 
2.3553796e+3, 1.5590852e+2, -973234.0, -1531031.5, 17029.852, -0.013825863, 0.59592664, -972714.56, 439439.34, 0.040909037, 10.004648, 9.9970045 
2.3553221e+3, 1.6590552e+2, -924037.7, -1411123.1, 23586.521, -0.010595569, 0.5955206, -922898.2, 391286.72, 0.014242085, 10.004001, 9.997466 
2.3552644e+3, 1.759029e+2, -902117.2, -1368705.6, 20991.2, 0.00048735144, 0.60463494, -901174.7, 315036.34, 0.0028531053, 10.003518, 9.997317 
2.3552068e+3, 1.8590036e+2, -882585.2, -1278436.6, 19477.53, 0.002016581, 0.6292919, -881629.1, 236608.42, 0.0001817398, 10.002841, 9.99759 
2.3551492e+3, 1.958981e+2, -911010.5, -1253545.1, 15422.796, -0.0039305594, 0.66033083, -910317.44, 109944.445, 0.000000035210917, 10.002025, 9.997482 
2.3550916e+3, 2.0589575e+2, -865742.0, -1102386.0, 28252.096, 0.0039739464, 0.6637155, -862415.8, 59869.918, 0.0, 10.001323, 9.998185 
2.3550344e+3, 2.1589361e+2, -865555.56, -1064933.5, 36354.55, 0.021551998, 0.6474512, -859133.56, -34827.184, 0.0, 10.000709, 9.998066 
2.3549765e+3, 2.2589177e+2, -822765.4, -929548.5, 14832.8125, 0.022133809, 0.65114, -820743.3, -94418.75, 0.0, 10.000053, 9.998637 
2.3549184e+3, 2.358904e+2, -829675.4, -889946.44, 5186.8125, 0.0115312915, 0.6662154, -829232.25, -200893.84, 0.0, 9.999367, 9.998568 
2.3548602e+3, 2.4588919e+2, -772474.8, -694689.44, -2295.2268, 0.004135366, 0.6575059, -694621.75, -164272.1, 0.0, 9.998584, 9.999613 
2.354802e+3, 2.558884e+2, -804772.9, -668877.2, 2369.1477, -0.0038909959, 0.6321245, -668835.9, -236479.55, 0.0, 9.997729, 9.999528 
2.3547436e+3, 2.6588815e+2, -753352.3, -489126.34, 935.9215, -0.016949838, 0.6286811, -489123.03, -154765.1, 0.0, 9.996962, 10.00046 
2.3546855e+3, 2.758885e+2, -764261.5, -450769.78, -2314.7488, -0.025864715, 0.63477707, -450752.7, -214399.0, 0.0, 9.996244, 10.000396 
2.3546274e+3, 2.858889e+2, -701986.0, -246221.83, -16425.54, -0.023777246, 0.601378, -245630.63, -107282.56, 0.0, 9.995465, 10.001503 
2.3545688e+3, 2.9588977e+2, -732828.75, -227058.17, -20058.973, -0.037711814, 0.55392903, -226263.88, -185926.67, 0.0, 9.994654, 10.001353 
2.3545104e+3, 3.058922e+2, -723546.4, -30882.895, -39387.29, -0.02594956, 0.61194825, -28650.389, -28650.389, 0.0, 9.993663, 10.002843 
2.3544522e+3, 3.1589442e+2, -906746.44, -142456.42, -7181.939, 0.017010162, 0.5627896, -142388.94, -142388.94, 0.0, 9.992511, 10.00263 
2.3655602e+3, 1.2597622e+2, -1076979.9, -1713496.5, 32307.19, -0.08182528, 0.515728, -1075344.3, 630139.9, 0.18344507, 10.006968, 9.996654 
2.3655012e+3, 1.3597271e+2, -1043451.75, -1655323.1, 21601.72, -0.047570482, 0.48712733, -1042690.06, 564829.44, 0.13338608, 10.006076, 9.996809 
2.3654428e+3, 1.4597043e+2, -983636.7, -1559220.8, 51829.207, -0.008433849, 0.58695716, -979006.9, 530537.1, 0.082146205, 10.005389, 9.997126 
2.3653843e+3, 1.5596744e+2, -946372.0, -1519407.1, 49983.258, -0.022741994, 0.59337556, -942044.9, 469531.4, 0.039971486, 10.00485, 9.9969845 
2.365326e+3, 1.6596442e+2, -906636.6, -1401111.5, 56840.633, -0.020138945, 0.59461844, -900186.9, 413420.44, 0.013860574, 10.004121, 9.997475 
2.3652676e+3, 1.7596179e+2, -939404.5, -1385399.5, 53948.523, -0.0051514907, 0.60027844, -932971.56, 282662.22, 0.0027546647, 10.003261, 9.997324 
2.3652092e+3, 1.8595925e+2, -918407.06, -1290873.9, 56535.07, -0.0013499842, 0.6238103, -910014.94, 207645.38, 0.00017147174, 10.00258, 9.997628 
2.3651509e+3, 1.9595702e+2, -908324.56, -1247068.4, 59919.03, -0.0057339733, 0.65515935, -898038.06, 121646.414, 0.000000020158883, 10.002027, 9.997523 
2.3650928e+3, 2.0595473e+2, -855502.25, -1088461.3, 66133.625, 0.0023308413, 0.6600378, -838037.25, 83670.305, 0.0, 10.00136, 9.99826 
2.3650347e+3, 2.1595268e+2, -874467.2, -1061213.1, 57540.125, 0.018965207, 0.6464889, -858161.6, -34434.61, 0.0, 10.000619, 9.998132 
2.3649763e+3, 2.2595084e+2, -833670.44, -938107.0, 40339.383, 0.021412471, 0.64971334, -819903.8, -94158.5, 0.0, 9.999999, 9.998603 
2.3649177e+3, 2.3594938e+2, -818507.1, -887397.5, 45109.633, 0.014944637, 0.66188794, -796195.4, -168435.16, 0.0, 9.999461, 9.998537 
2.3648587e+3, 2.4594817e+2, -747397.06, -680135.0, 31837.87, 0.007265753, 0.6526314, -667455.2, -137683.42, 0.0, 9.998751, 9.999629 
2.3647995e+3, 2.5594738e+2, -776946.1, -653035.9, 30756.605, -0.0045778267, 0.6288315, -645821.56, -214043.48, 0.0, 9.997915, 9.999545 
2.3647405e+3, 2.6594716e+2, -732220.6, -480364.2, 33529.4, -0.017815048, 0.6291423, -475976.88, -142197.48, 0.0, 9.997118, 10.000442 
2.3646817e+3, 2.7594754e+2, -750769.3, -446423.44, 35541.7, -0.022343459, 0.64023703, -442327.97, -206553.06, 0.0, 9.996352, 10.000371 
2.3646228e+3, 2.8594774e+2, -698238.3, -252907.97, 21552.627, -0.022478307, 0.59478605, -251867.31, -114096.125, 0.0, 9.995534, 10.001422 
2.3645632e+3, 2.959483e+2, -742727.3, -240870.44, 20827.15, -0.048625108, 0.52509874, -240007.6, -200243.84, 0.0, 9.994629, 10.001267 
2.3645042e+3, 3.0595148e+2, -692663.25, -1899.8374, -5396.4683, -0.020680742, 0.65526956, -1857.681, -1857.681, 0.0, 9.993818, 10.002966 
2.364445e+3, 3.1595317e+2, -847860.0, -184767.98, 30504.398, 0.026512185, 0.5387168, -183367.64, -183367.64, 0.0, 9.993225, 10.001992 
2.375567e+3, 1.2603606e+2, -1055704.5, -1674423.0, 4822.7715, -0.097923234, 0.5474138, -1055667.0, 649232.06, 0.17930436, 10.006965, 9.996967 
2.375507e+3, 1.3603234e+2, -1028676.25, -1629000.8, -6456.393, -0.056741714, 0.47802708, -1028606.8, 578328.0, 0.13029607, 10.006089, 9.996985 
2.375448e+3, 1.4602996e+2, -983349.7, -1565414.0, 32907.48, -0.018946774, 0.5630577, -981495.1, 527464.6, 0.08014275, 10.005402, 9.997079 
2.3753889e+3, 1.5602711e+2, -948670.5, -1526627.4, 29616.42, -0.023147566, 0.5884083, -947156.9, 463833.88, 0.03889407, 10.004849, 9.996938 
2.3753299e+3, 1.660241e+2, -906744.1, -1402747.8, 25237.268, -0.019429402, 0.59187686, -905463.4, 407558.53, 0.013414004, 10.00412, 9.997466 
2.3752707e+3, 1.7602138e+2, -938231.3, -1385886.9, 23274.123, -0.011180516, 0.58971363, -937024.56, 278024.84, 0.0026356173, 10.003268, 9.99732 
2.3752117e+3, 1.8601888e+2, -907980.9, -1272386.0, 36268.254, -0.0037655167, 0.61273813, -904406.3, 212668.89, 0.00015821184, 10.002588, 9.997753 
2.3751529e+3, 1.9601682e+2, -900530.5, -1233288.4, 38848.86, 0.0030980934, 0.6475888, -896055.1, 123042.33, 0.0000000080542115, 10.002032, 9.997618 
2.375094e+3, 2.060145e+2, -865098.25, -1110822.3, 38774.863, 0.008766787, 0.65398115, -859124.9, 61996.074, 0.0, 10.001366, 9.998107 
2.3750351e+3, 2.160123e+2, -882191.9, -1079881.0, 31231.277, 0.013300319, 0.6407594, -877375.25, -54232.887, 0.0, 10.000625, 9.998003 
2.3749761e+3, 2.2601047e+2, -821646.1, -915934.0, 20836.41, 0.015005958, 0.6417294, -817246.8, -92086.22, 0.0, 10.000006, 9.9987545 
2.374917e+3, 2.3600912e+2, -808071.8, -868669.25, 23972.709, 0.015909554, 0.6503407, -799735.0, -172560.94, 0.0, 9.999469, 9.998665 
2.3748572e+3, 2.4600798e+2, -751846.56, -692464.1, 171.14734, 0.008898758, 0.64762944, -692463.6, -163278.48, 0.0, 9.998758, 9.999543 
2.3747973e+3, 2.5600725e+2, -780370.56, -663352.44, -1207.0142, -0.007457823, 0.63723207, -663339.94, -232148.22, 0.0, 9.997924, 9.999473 
2.3747376e+3, 2.6600695e+2, -727319.06, -473077.84, 3544.118, -0.019061606, 0.63030285, -473028.47, -139834.84, 0.0, 9.997126, 10.000491 
2.374678e+3, 2.7600715e+2, -746913.8, -441063.78, 6235.587, -0.0162789, 0.61868846, -440936.72, -205746.55, 0.0, 9.996359, 10.000407 
2.3746179e+3, 2.8600752e+2, -699537.4, -257650.22, -13074.319, -0.02405033, 0.5883457, -257263.72, -120078.734, 0.0, 9.995537, 10.00139 
2.3745574e+3, 2.960085e+2, -742678.3, -241941.7, -15108.528, -0.072802685, 0.562499, -241486.27, -202312.2, 0.0, 9.994629, 10.001264 
2.3744982e+3, 3.060108e+2, -702397.1, -24897.926, -29457.506, 0.027478253, 0.6151406, -23619.533, -23619.533, 0.0, 9.993825, 10.002807 
2.374438e+3, 3.1601235e+2, -859494.4, -216568.86, 21700.977, 0.025438856, 0.5091117, -215837.2, -215837.2, 0.0, 9.993257, 10.00176 
2.3855737e+3, 1.2609653e+2, -1055701.6, -1672967.3, 39563.08, -0.09203364, 0.54074836, -1053176.3, 651130.1, 0.17484803, 10.006923, 9.996996 
2.3855132e+3, 1.3609292e+2, -1004884.5, -1624640.1, 16873.56, -0.0639031, 0.48966423, -1004425.44, 601915.9, 0.12694384, 10.006295, 9.996913 
2.3854531e+3, 1.4609037e+2, -960774.5, -1548698.4, 54521.14, -0.032318752, 0.56192434, -955761.25, 552606.2, 0.077945895, 10.005542, 9.997124 
2.3853935e+3, 1.5608746e+2, -967888.1, -1531782.6, 56600.59, -0.02442304, 0.57664794, -962263.0, 448135.66, 0.037698235, 10.004693, 9.996976 
2.3853338e+3, 1.660845e+2, -924839.44, -1411075.1, 54644.945, -0.020390239, 0.58304614, -918773.9, 393655.6, 0.012912636, 10.003995, 9.997466 
2.3852737e+3, 1.7608185e+2, -918604.8, -1375986.6, 53107.03, -0.020293564, 0.5911301, -912519.44, 301937.0, 0.0025001972, 10.0034075, 9.997317 
2.3852141e+3, 1.8607935e+2, -884736.2, -1260907.6, 63618.945, -0.010742757, 0.6125834, -874268.1, 242214.38, 0.00014292392, 10.002753, 9.997749 
2.3851548e+3, 1.9607717e+2, -897409.25, -1231300.6, 56116.41, 0.0051776464, 0.63849765, -888230.25, 130275.25, 0.0000000017673162, 10.002057, 9.997616 
2.3850952e+3, 2.0607486e+2, -856230.06, -1100782.6, 58492.54, 0.013251054, 0.6440898, -842959.8, 77568.94, 0.0, 10.001408, 9.998153 
2.3850356e+3, 2.1607274e+2, -855648.75, -1061564.3, 64141.867, 0.015609605, 0.63561034, -837303.25, -14753.749, 0.0, 10.000789, 9.998047 
2.3849761e+3, 2.2607094e+2, -811431.7, -903965.44, 55239.844, 0.016653499, 0.63532066, -785642.56, -61075.125, 0.0, 10.000051, 9.998812 
2.384916e+3, 2.3606959e+2, -838465.3, -876692.7, 51217.98, 0.018378727, 0.639232, -802910.75, -176329.83, 0.0, 9.999238, 9.998718 
2.3848557e+3, 2.4606855e+2, -777432.94, -701651.6, 28505.785, 0.007919771, 0.64397186, -692126.25, -163534.92, 0.0, 9.998575, 9.999565 
2.384795e+3, 2.56068e+2, -766442.75, -652861.56, 34268.254, -0.014696528, 0.64774364, -643323.56, -212726.56, 0.0, 9.99801, 9.9995 
2.3847343e+3, 2.6606768e+2, -702259.25, -450117.2, 39281.473, -0.019828118, 0.6351032, -444139.22, -111540.58, 0.0, 9.997257, 10.000582 
2.3846743e+3, 2.7606782e+2, -740653.9, -429284.06, 44815.227, -0.002087732, 0.6086939, -422962.22, -188367.11, 0.0, 9.996369, 10.00048 
2.3846135e+3, 2.860682e+2, -697516.56, -257898.45, 25670.021, -0.021014156, 0.58118457, -256404.61, -119814.97, 0.0, 9.995563, 10.001372 
2.3845518e+3, 2.9606918e+2, -719286.44, -232322.73, 22318.076, -0.09849453, 0.5585217, -231302.0, -192722.64, 0.0, 9.994804, 10.001241 
2.3844925e+3, 3.0607143e+2, -693570.6, -67658.56, 3688.1892, 0.06099604, 0.6295682, -67636.836, -67636.836, 0.0, 9.994093, 10.002381 
2.3844309e+3, 3.1607297e+2, -801320.9, -132465.23, 24986.9, 0.00711139, 0.5620169, -131533.08, -131533.08, 0.0, 9.993417, 10.002258 
2.3955806e+3, 1.261576e+2, -1064065.4, -1698610.1, 16661.258, -0.07300098, 0.5003179, -1063628.1, 640078.8, 0.1701817, 10.006923, 9.996784 
2.395519e+3, 1.3615435e+2, -1018034.5, -1663909.3, -3850.4197, -0.06911549, 0.5175944, -1018011.56, 587727.94, 0.12339901, 10.006301, 9.996643 
2.3954582e+3, 1.4615165e+2, -951835.7, -1534514.8, 25313.736, -0.04778519, 0.57735586, -950738.06, 557029.5, 0.07559833, 10.005549, 9.997219 
2.395398e+3, 1.5614846e+2, -960593.56, -1519942.6, 26477.344, -0.027958717, 0.55832607, -959343.0, 450457.25, 0.036409866, 10.004699, 9.997056 
2.3953374e+3, 1.6614558e+2, -923774.25, -1412048.9, 32583.986, -0.023933118, 0.5695216, -921609.44, 390220.84, 0.012370855, 10.004003, 9.997458 
2.3952769e+3, 1.7614318e+2, -919097.0, -1379893.4, 30565.17, -0.03221165, 0.6040588, -917078.44, 296776.88, 0.002354465, 10.003414, 9.99729 
2.3952165e+3, 1.8614057e+2, -892972.25, -1280787.8, 37577.363, -0.021995582, 0.62272, -889364.75, 226517.84, 0.00012687426, 10.00276, 9.997613 
2.3951565e+3, 1.9613804e+2, -903280.0, -1246269.4, 30925.785, 0.0003891474, 0.62799793, -900513.9, 117394.91, 0.000000000116293294, 10.002064, 9.997513 
2.3950964e+3, 2.061358e+2, -840143.9, -1069804.9, 36058.55, 0.01567644, 0.63062155, -834615.5, 85315.89, 0.0, 10.001413, 9.998365 
2.3950364e+3, 2.1613395e+2, -841952.25, -1035266.06, 40797.484, 0.02591178, 0.6306927, -833694.94, -11746.034, 0.0, 10.000793, 9.998228 
2.3949759e+3, 2.261322e+2, -814042.1, -911824.9, 25034.242, 0.026230486, 0.63031566, -808005.56, -84039.09, 0.0, 10.000056, 9.998758 
2.3949152e+3, 2.3613076e+2, -840174.3, -882178.9, 21318.84, 0.021552488, 0.62893534, -831250.2, -205268.89, 0.0, 9.999241, 9.998681 
2.394854e+3, 2.4612986e+2, -768560.94, -685336.25, 6957.865, 0.003549055, 0.64210916, -684758.56, -156767.77, 0.0, 9.99858, 9.999679 
2.3947927e+3, 2.561295e+2, -757087.44, -636479.0, 11403.768, -0.026922146, 0.66041076, -635410.25, -205415.86, 0.0, 9.998017, 9.999612 
2.3947316e+3, 2.661293e+2, -693009.0, -433676.22, 4913.158, -0.01994965, 0.64427036, -433583.2, -101588.336, 0.0, 9.997264, 10.000694 
2.3946707e+3, 2.7612948e+2, -733541.3, -416226.94, 11057.285, 0.021677008, 0.61185145, -415842.1, -181852.14, 0.0, 9.996372, 10.000571 
2.3946089e+3, 2.861298e+2, -700422.44, -265103.0, -3865.8616, -0.012780533, 0.57207996, -265068.66, -129082.875, 0.0, 9.995563, 10.001326 
2.3945461e+3, 2.9613024e+2, -723946.56, -244435.19, -7542.958, -0.1285754, 0.5046515, -244316.56, -206335.23, 0.0, 9.99481, 10.001158 
2.3944864e+3, 3.0613345e+2, -740739.0, -169789.2, -22004.594, 0.07474218, 0.7107795, -168942.4, -168942.4, 0.0, 9.994106, 10.001677 
2.3944241e+3, 3.1613395e+2, -711544.8, 47726.95, -44099.85, -0.0054582064, 0.6057343, 50279.766, 50279.766, 0.0, 9.993434, 10.003492 
2.4055874e+3, 1.2621957e+2, -1059466.0, -1695180.0, 24700.152, -0.05925622, 0.50628406, -1058507.8, 644592.0, 0.16539222, 10.006919, 9.996811 
2.4055251e+3, 1.3621628e+2, -1026879.25, -1671842.9, 21700.918, -0.06794571, 0.5214768, -1026149.94, 578983.0, 0.11972328, 10.006223, 9.996625 
2.4054636e+3, 1.4621343e+2, -954975.4, -1537183.9, 50529.01, -0.05720918, 0.5703235, -950622.56, 556539.56, 0.07314302, 10.00552, 9.997213 
2.4054024e+3, 1.5621035e+2, -947531.8, -1515551.1, 46467.645, -0.03693956, 0.56082684, -943755.56, 465438.2, 0.03505795, 10.004801, 9.997035 
2.4053413e+3, 1.6620742e+2, -912616.9, -1418323.5, 51574.734, -0.031155497, 0.5755203, -907410.56, 403813.75, 0.011804689, 10.004134, 9.997349 
2.40528e+3, 1.7620489e+2, -911951.7, -1385671.0, 41527.207, -0.037624553, 0.60864973, -908338.9, 304912.16, 0.0022045295, 10.003508, 9.997203 
2.4052192e+3, 1.8620226e+2, -868206.56, -1256175.3, 53670.418, -0.02758742, 0.6246419, -860918.9, 254359.47, 0.00011121557, 10.002881, 9.997721 
2.4051584e+3, 1.9619982e+2, -869051.7, -1218243.4, 62759.0, -0.006275761, 0.6270211, -858114.8, 159188.72, 0.000000000004061441, 10.002255, 9.99761 
2.4050976e+3, 2.061976e+2, -830784.9, -1061098.0, 62943.676, 0.013083456, 0.6309052, -814705.25, 104620.19, 0.0, 10.001465, 9.998397 
2.4050368e+3, 2.1619585e+2, -870887.3, -1043234.06, 54161.363, 0.030537162, 0.6346297, -855280.06, -33937.406, 0.0, 10.000575, 9.998276 
2.4049759e+3, 2.2619419e+2, -822449.25, -894335.8, 46589.99, 0.028609395, 0.6317587, -799549.1, -76190.09, 0.0, 9.999911, 9.998944 
2.4049143e+3, 2.3619285e+2, -807020.7, -846742.4, 60539.664, 0.015862927, 0.62433773, -763167.3, -137795.0, 0.0, 9.999391, 9.99885 
2.4048525e+3, 2.4619204e+2, -742066.7, -664932.5, 51038.434, -0.0025222455, 0.63692844, -639528.1, -112147.25, 0.0, 9.998734, 9.999741 
2.4047905e+3, 2.5619176e+2, -756995.25, -628882.4, 50566.02, -0.028279265, 0.65811855, -611329.06, -181944.97, 0.0, 9.997992, 9.999674 
2.4047285e+3, 2.6619166e+2, -688680.3, -422556.06, 34628.168, -0.021372275, 0.64463735, -418124.03, -86740.35, 0.0, 9.99726, 10.000769 
2.4046667e+3, 2.7619192e+2, -705761.75, -394818.38, 37118.406, 0.017012956, 0.61581767, -390448.8, -157071.3, 0.0, 9.996534, 10.000636 
2.4046043e+3, 2.8619215e+2, -676141.0, -257327.84, 22355.838, -0.015486174, 0.56689346, -256137.89, -120763.6, 0.0, 9.995752, 10.001285 
2.4045408e+3, 2.9619235e+2, -711007.6, -245014.33, 19155.455, -0.12450906, 0.47905004, -244228.23, -206855.56, 0.0, 9.994932, 10.001093 
2.4044804e+3, 3.0619586e+2, -742675.6, -211826.78, 22882.426, 0.07474752, 0.7389556, -210842.25, -210842.25, 0.0, 9.994277, 10.001302 
2.4044172e+3, 3.1619444e+2, -661907.2, 105308.8, -16441.902, -0.027281972, 0.4810519, 105661.0, 105661.0, 0.0, 9.993641, 10.003782 
2.4155943e+3, 1.2628232e+2, -1043427.44, -1671949.6, 1227.0132, -0.053484853, 0.5390577, -1043425.06, 659060.8, 0.1605343, 10.006927, 9.996998 
2.4155313e+3, 1.3627873e+2, -1014282.5, -1650310.0, -1114.6318, -0.06313644, 0.50683403, -1014280.5, 590240.56, 0.11596839, 10.0062275, 9.996772 
2.4154687e+3, 1.4627582e+2, -958197.1, -1551183.4, 25056.717, -0.06261898, 0.54791605, -957140.25, 549410.56, 0.07062327, 10.00553, 9.997114 
2.415407e+3, 1.5627305e+2, -952362.56, -1532374.8, 20619.904, -0.050990075, 0.58138096, -951630.44, 456949.03, 0.033672128, 10.004817, 9.996913 
2.415345e+3, 1.6626996e+2, -925610.7, -1449985.0, 28699.262, -0.041931707, 0.59704334, -924044.6, 386567.3, 0.011229429, 10.004146, 9.9971285 
2.4152835e+3, 1.7626697e+2, -922005.75, -1408473.4, 19089.307, -0.037750926, 0.6045653, -921257.8, 291385.8, 0.0020556925, 10.0035095, 9.997047 
2.415222e+3, 1.8626443e+2, -846274.75, -1211482.5, 31091.969, -0.028482256, 0.6191091, -843646.6, 271023.13, 0.00009683322, 10.002879, 9.998031 
2.4151604e+3, 1.9626242e+2, -851378.2, -1182204.3, 38419.207, -0.014928872, 0.63564223, -846975.1, 169714.8, 0.000000000003904099, 10.002254, 9.997861 
2.4150988e+3, 2.0626028e+2, -841397.44, -1084596.4, 29796.602, 0.0054082717, 0.64467597, -837800.0, 80911.43, 0.0, 10.001467, 9.998238 
2.4150373e+3, 2.1625836e+2, -876376.06, -1056799.1, 23087.287, 0.028858049, 0.6476321, -873468.56, -52737.492, 0.0, 10.000579, 9.998183 
2.4149753e+3, 2.2625683e+2, -792697.75, -835197.06, 27817.156, 0.023158494, 0.6400621, -778942.5, -56196.91, 0.0, 9.999918, 9.999351 
2.4149133e+3, 2.3625582e+2, -780788.1, -795377.3, 40120.875, 0.0010064836, 0.62512213, -747304.1, -122549.75, 0.0, 9.999398, 9.999202 
2.414851e+3, 2.4625507e+2, -741366.06, -666528.8, 22615.854, -0.010196946, 0.6277776, -660225.25, -133463.1, 0.0, 9.998742, 9.999729 
2.4147883e+3, 2.562547e+2, -756896.7, -630715.7, 21787.814, -0.018419277, 0.6394366, -627059.5, -198292.7, 0.0, 9.997995, 9.999662 
2.4147256e+3, 2.6625466e+2, -687157.1, -421453.13, 6610.6274, -0.025143035, 0.63520235, -421288.75, -90522.95, 0.0, 9.997264, 10.000778 
2.4146628e+3, 2.762551e+2, -703048.44, -392802.13, 8466.453, -0.020783076, 0.6203254, -392571.25, -159812.75, 0.0, 9.996545, 10.000648 
2.4145997e+3, 2.8625524e+2, -677515.3, -263081.7, -10056.109, -0.031169461, 0.5672432, -262837.8, -128082.21, 0.0, 9.99576, 10.001244 
2.4145359e+3, 2.962555e+2, -714677.6, -254073.23, -10990.12, -0.08079708, 0.48729774, -253811.16, -217058.02, 0.0, 9.994933, 10.001033 
2.4144743e+3, 3.062584e+2, -750104.9, -230513.77, -15.106652, 0.061771408, 0.6985483, -230513.77, -230513.77, 0.0, 9.994285, 10.001173 
2.4144104e+3, 3.1625798e+2, -703674.9, 10168.291, -60020.83, -0.063764885, 0.55579215, 15179.735, 15179.735, 0.0, 9.993668, 10.00312 
2.425601e+3, 1.2634571e+2, -1038646.7, -1679315.1, 35689.844, -0.0553712, 0.53824234, -1036664.7, 665200.3, 0.15562136, 10.006977, 9.99691 
2.4255374e+3, 1.363422e+2, -1009664.7, -1659581.0, 23308.852, -0.06643243, 0.52392435, -1008829.8, 595070.2, 0.11216765, 10.006292, 9.9966755 
2.4254741e+3, 1.4633909e+2, -945458.75, -1555280.1, 44345.797, -0.07039543, 0.5560131, -942250.8, 563680.75, 0.068074755, 10.00566, 9.997021 
2.4254116e+3, 1.5633622e+2, -923356.1, -1526335.3, 39051.703, -0.06045772, 0.58699876, -920837.44, 487123.8, 0.032276973, 10.005057, 9.996837 
2.425349e+3, 1.6633303e+2, -894855.56, -1427575.1, 56963.02, -0.047909576, 0.59595907, -888832.6, 421161.38, 0.0106571, 10.00433, 9.997191 
2.4252866e+3, 1.7632999e+2, -916031.6, -1399680.0, 66156.61, -0.0372001, 0.59284776, -907145.56, 304880.16, 0.0019119421, 10.0035305, 9.997095 
2.4252246e+3, 1.8632752e+2, -871569.0, -1227875.1, 69746.9, -0.025034549, 0.6160605, -858402.56, 255648.86, 0.00008427863, 10.002729, 9.997987 
2.4251623e+3, 1.9632566e+2, -899280.9, -1205919.9, 51430.637, -0.011072119, 0.6526718, -890884.7, 125186.29, 0.0000000000084542815, 10.001931, 9.99785 
2.4251e+3, 2.0632358e+2, -855281.1, -1067080.3, 48774.746, 0.0021082296, 0.6552403, -844588.7, 73503.086, 0.0, 10.001272, 9.998448 
2.4250376e+3, 2.1632162e+2, -845823.94, -1019520.75, 68004.305, 0.014136981, 0.6369742, -822367.2, -2256.4019, 0.0, 10.000697, 9.99838 
2.424975e+3, 2.2632025e+2, -775457.56, -813417.8, 71407.09, 0.010219599, 0.6299177, -720551.2, 1572.4778, 0.0, 9.999984, 9.999465 
2.4249123e+3, 2.3631947e+2, -803302.75, -792558.8, 61853.266, -0.0021664188, 0.62721, -735844.7, -111714.33, 0.0, 9.999191, 9.999318 
2.4248494e+3, 2.463188e+2, -764437.7, -663278.2, 42092.19, -0.009286315, 0.6273594, -648054.75, -121917.6, 0.0, 9.9985285, 9.999851 
2.4247861e+3, 2.5631845e+2, -757392.6, -617878.5, 50876.66, -0.016612712, 0.6295698, -601296.25, -173154.92, 0.0, 9.997942, 9.999773 
2.4247226e+3, 2.663184e+2, -678224.0, -412513.16, 39533.492, -0.029654797, 0.62172776, -406755.94, -76615.87, 0.0, 9.997312, 10.0008135 
2.4246591e+3, 2.7631885e+2, -689178.9, -383869.5, 41667.18, -0.036175806, 0.6021981, -378285.1, -146151.73, 0.0, 9.996635, 10.000663 
2.4245952e+3, 2.8631917e+2, -651814.56, -256980.27, 20104.232, -0.036857594, 0.5703507, -255959.23, -121830.22, 0.0, 9.99597, 10.001182 
2.424531e+3, 2.9631987e+2, -658372.06, -231421.94, 18821.674, -0.06444355, 0.5446045, -230593.8, -194471.7, 0.0, 9.995347, 10.000985 
2.4244685e+3, 3.063214e+2, -702603.2, -221067.88, 31605.125, 0.040518355, 0.62619287, -219002.36, -219002.36, 0.0, 9.994674, 10.001048 
2.424404e+3, 3.163223e+2, -678781.8, 13420.098, -25396.908, -0.053372364, 0.6302408, 14350.659, 14350.659, 0.0, 9.993881, 10.003038 
2.4356076e+3, 1.2640978e+2, -1052768.9, -1721920.8, 11217.287, -0.06475897, 0.5153719, -1052580.9, 648656.06, 0.1506388, 10.006984, 9.996589 
2.4355432e+3, 1.3640659e+2, -1022176.1, -1701114.6, 1245.4506, -0.07860131, 0.56367564, -1022173.8, 581096.5, 0.10833144, 10.006316, 9.996381 
2.4354795e+3, 1.4640316e+2, -948771.2, -1571844.5, 23978.344, -0.08234741, 0.58471936, -947849.75, 557455.44, 0.06551705, 10.005679, 9.9969 
2.4354163e+3, 1.5639982e+2, -925724.0, -1535197.1, 16878.36, -0.06637377, 0.5798306, -925256.94, 482082.03, 0.030887833, 10.005062, 9.996776 
2.4353532e+3, 1.6639666e+2, -873646.06, -1384810.6, 27631.896, -0.049689222, 0.57682544, -872156.7, 437213.72, 0.010095576, 10.00433, 9.997487 
2.43529e+3, 1.7639393e+2, -901269.5, -1370722.6, 36268.063, -0.03660609, 0.57535326, -898484.1, 312913.7, 0.0017756827, 10.003533, 9.997295 
2.435227e+3, 1.8639147e+2, -897722.2, -1284338.3, 40071.223, -0.018164776, 0.6154634, -893612.6, 219811.33, 0.0000737132, 10.002734, 9.997601 
2.4351643e+3, 1.963895e+2, -916397.06, -1243936.6, 23513.555, 0.004237408, 0.6770143, -914717.7, 100729.195, 0.00000000002968512, 10.001937, 9.997589 
2.4351011e+3, 2.0638743e+2, -815966.25, -987892.1, 28201.215, 0.0025142224, 0.66208905, -811458.56, 106008.164, 0.0, 10.001278, 9.998992 
2.4350378e+3, 2.163856e+2, -813722.75, -955088.7, 46068.242, -0.013723814, 0.6026692, -800035.3, 19446.756, 0.0, 10.000702, 9.998822 
2.4349746e+3, 2.2638437e+2, -788318.3, -842470.8, 41911.59, -0.009976895, 0.6014819, -765497.6, -44003.918, 0.0, 9.9999895, 9.999266 
2.4349114e+3, 2.3638372e+2, -812277.3, -813051.44, 32574.031, 0.0065454287, 0.63145524, -780088.06, -156587.28, 0.0, 9.999194, 9.999178 
2.434848e+3, 2.4638318e+2, -746455.4, -627760.5, 19426.912, -0.00012508656, 0.6366391, -624661.75, -99155.5, 0.0, 9.99853, 10.000096 
2.4347839e+3, 2.5638297e+2, -740924.44, -585920.6, 27943.838, -0.024308918, 0.6287267, -581036.8, -153528.8, 0.0, 9.997946, 9.999992 
2.4347198e+3, 2.663829e+2, -674341.06, -406619.9, 13282.589, -0.03455271, 0.60347587, -405962.53, -76455.43, 0.0, 9.997315, 10.0008545 
2.4346556e+3, 2.763831e+2, -688409.7, -384553.5, 14729.037, -0.025068551, 0.5590632, -383841.2, -152338.42, 0.0, 9.99664, 10.000659 
2.434591e+3, 2.8638384e+2, -658171.25, -274433.34, -4193.742, -0.031826768, 0.5768202, -274387.53, -140892.4, 0.0, 9.995982, 10.001059 
2.434526e+3, 2.9638547e+2, -658410.75, -239435.17, -4231.824, -0.0842059, 0.6565374, -239392.42, -203912.48, 0.0, 9.995376, 10.000919 
2.4344626e+3, 3.0638477e+2, -708057.44, -238028.33, -1278.4065, 0.009908524, 0.51765186, -238024.86, -238024.86, 0.0, 9.994693, 10.000924 
2.434398e+3, 3.16386e+2, -645431.75, 83932.55, -31951.775, -0.022745928, 0.57484597, 85329.61, 85329.61, 0.0, 9.993874, 10.003528 
2.4456145e+3, 1.2647483e+2, -1054755.5, -1740533.8, 27592.46, -0.058766004, 0.5388218, -1053647.1, 646953.3, 0.14556226, 10.007005, 9.99645 
2.4455495e+3, 1.3647144e+2, -982951.4, -1693035.4, 29379.455, -0.08862332, 0.57943106, -981737.94, 620897.94, 0.10445189, 10.00665, 9.996274 
2.4454851e+3, 1.4646782e+2, -914172.0, -1560653.5, 52231.625, -0.091643125, 0.5892076, -909979.2, 594693.3, 0.0629527, 10.005952, 9.996844 
2.445421e+3, 1.5646432e+2, -927248.4, -1540287.3, 49417.117, -0.06472704, 0.5785465, -923290.4, 483417.0, 0.029509937, 10.005069, 9.996736 
2.4453574e+3, 1.6646127e+2, -876174.7, -1378352.3, 51615.62, -0.04576452, 0.58322614, -870924.3, 437813.47, 0.00954815, 10.004281, 9.997553 
2.4452935e+3, 1.7645873e+2, -893982.2, -1359789.0, 44291.344, -0.035430703, 0.5962681, -889808.1, 320954.97, 0.0016475271, 10.003555, 9.997357 
2.4452297e+3, 1.8645622e+2, -879963.1, -1270275.1, 61013.246, -0.020127967, 0.6238554, -870647.94, 242141.75, 0.00006496568, 10.002837, 9.997644 
2.445166e+3, 1.9645399e+2, -885455.4, -1222527.5, 73958.09, -0.0007846563, 0.658583, -869942.0, 144872.5, 0.00000000008671795, 10.002127, 9.9976425 
2.4451023e+3, 2.0645203e+2, -793636.94, -966175.94, 71654.33, -0.0038749932, 0.6464565, -767760.25, 149073.08, 0.0, 10.0013895, 9.999084 
2.4450383e+3, 2.1645047e+2, -817451.4, -946389.2, 55963.125, -0.020681737, 0.6056331, -796549.8, 22296.254, 0.0, 10.000636, 9.998911 
2.4449743e+3, 2.2644931e+2, -795433.7, -839584.7, 48115.9, -0.012846638, 0.60588634, -764570.8, -43713.75, 0.0, 9.999919, 9.999316 
2.4449107e+3, 2.3644863e+2, -804227.0, -802023.1, 57697.0, 0.010837417, 0.6289237, -745417.56, -122552.94, 0.0, 9.999225, 9.999236 
2.4448462e+3, 2.4644813e+2, -734135.6, -608320.06, 49083.594, 0.0042816484, 0.6306983, -591436.94, -66567.53, 0.0, 9.998563, 10.000212 
2.4447815e+3, 2.5644803e+2, -737963.9, -572234.3, 47073.49, -0.024203189, 0.62077, -559797.0, -132927.06, 0.0, 9.997919, 10.000097 
2.4447168e+3, 2.66448e+2, -684456.44, -412098.63, 23896.766, -0.034330025, 0.5981752, -410017.8, -81149.22, 0.0, 9.997254, 10.000843 
2.4446522e+3, 2.7644825e+2, -698132.44, -390547.88, 21084.242, -0.020687489, 0.5594565, -389109.3, -158244.83, 0.0, 9.996586, 10.00064 
2.4445869e+3, 2.8644904e+2, -668271.56, -283990.88, 6286.717, -0.029084954, 0.5855307, -283888.06, -151031.28, 0.0, 9.995938, 10.001011 
2.444521e+3, 2.964507e+2, -680932.7, -256375.72, 11354.893, -0.09081463, 0.6750536, -256072.25, -221230.77, 0.0, 9.995252, 10.000859 
2.444457e+3, 3.0644962e+2, -690701.3, -210615.22, 26259.027, 0.0064809043, 0.49690673, -209183.22, -209183.22, 0.0, 9.994735, 10.001091 
2.4443918e+3, 3.1645173e+2, -550244.1, 150987.81, 22822.277, -0.03325808, 0.61708575, 151729.8, 151729.8, 0.0, 9.994439, 10.003714 
2.4556214e+3, 1.2654069e+2, -1045275.25, -1734672.0, 15994.719, -0.045080066, 0.5918482, -1044904.4, 655052.25, 0.14037374, 10.007034, 9.996477 
2.455556e+3, 1.3653679e+2, -978852.0, -1689601.6, 15003.7, -0.0974006, 0.5793674, -978535.44, 623460.44, 0.10051832, 10.006645, 9.996302 
2.4554907e+3, 1.4653307e+2, -914761.5, -1564725.5, 21024.113, -0.098765515, 0.57798165, -914082.1, 589951.2, 0.06037728, 10.005942, 9.996821 
2.4554263e+3, 1.5652971e+2, -929410.8, -1546596.4, 18116.832, -0.057956714, 0.5815986, -928879.5, 477187.75, 0.028142247, 10.005064, 9.996696 
2.4553616e+3, 1.6652678e+2, -886477.25, -1401501.3, 25168.477, -0.03826703, 0.6102088, -885250.2, 422846.78, 0.009014244, 10.004281, 9.997396 
2.4552968e+3, 1.7652436e+2, -898007.25, -1370113.0, 17988.06, -0.034202043, 0.6507035, -897322.9, 312799.1, 0.0015266156, 10.003558, 9.997288 
2.4552321e+3, 1.8652166e+2, -849887.44, -1209687.9, 34928.168, -0.03035329, 0.6396884, -846528.1, 265620.72, 0.00005768095, 10.00284, 9.998062 
2.4551678e+3, 1.965191e+2, -863294.25, -1177926.0, 47308.414, -0.025326636, 0.60035, -856334.8, 157839.3, 0.00000000016280782, 10.002128, 9.997951 
2.4551032e+3, 2.0651731e+2, -817887.44, -1018399.9, 43668.113, -0.01667237, 0.61069745, -808790.0, 107402.0, 0.0, 10.001392, 9.998727 
2.4550389e+3, 2.1651615e+2, -834681.8, -984490.06, 28644.297, -0.0070051975, 0.6458429, -829391.6, -11188.346, 0.0, 10.000641, 9.99865 
2.454974e+3, 2.26515e+2, -774945.56, -799435.2, 22649.014, 0.000975142, 0.642636, -761443.3, -41229.035, 0.0, 9.999925, 9.999592 
2.4549094e+3, 2.3651414e+2, -786865.5, -768645.94, 31748.895, 0.0098580485, 0.61812365, -744725.75, -122503.266, 0.0, 9.99923, 9.999465 
2.4548444e+3, 2.4651358e+2, -735901.3, -614527.06, 24132.252, 0.003909724, 0.60852367, -609904.94, -85677.65, 0.0, 9.998569, 10.000169 
2.4547793e+3, 2.565135e+2, -740026.8, -578465.75, 21214.01, -0.015419781, 0.6062762, -575726.6, -149498.92, 0.0, 9.997922, 10.000055 
2.4547139e+3, 2.6651368e+2, -690464.94, -426058.78, -3068.4749, -0.029297033, 0.6074103, -426023.16, -97797.83, 0.0, 9.997255, 10.00075 
2.4546485e+3, 2.7651417e+2, -701759.4, -399293.9, -5079.729, -0.026357507, 0.60559136, -399208.6, -168989.19, 0.0, 9.996586, 10.000583 
2.4545825e+3, 2.865146e+2, -666484.8, -281179.47, -21684.234, -0.028368358, 0.59668815, -279962.97, -147747.84, 0.0, 9.995937, 10.001034 
2.4545161e+3, 2.965154e+2, -683900.0, -263305.8, -16841.293, -0.07643229, 0.59616095, -262632.53, -228424.56, 0.0, 9.99525, 10.000816 
2.4544519e+3, 3.0651605e+2, -651867.8, -132434.27, 14425.537, 0.02913266, 0.56850374, -132033.95, -132033.95, 0.0, 9.99474, 10.001628 
2.454386e+3, 3.1651762e+2, -623504.6, -6970.1963, -26111.604, -0.050644346, 0.5746114, -5866.288, -5866.288, 0.0, 9.994459, 10.002621 
2.4656284e+3, 1.2660661e+2, -979969.0, -1690382.6, 30379.1, -0.059179496, 0.593376, -978672.3, 720639.06, 0.1350646, 10.007473, 9.996577 
2.4655622e+3, 1.3660285e+2, -998880.94, -1691854.6, 32923.863, -0.09070902, 0.5834271, -997320.2, 604028.56, 0.09652134, 10.006432, 9.9963875 
2.4654964e+3, 1.4659916e+2, -960825.7, -1589018.0, 39638.39, -0.086499035, 0.58229446, -958334.44, 545051.4, 0.057781138, 10.005599, 9.996819 
2.465431e+3, 1.5659575e+2, -952230.7, -1558372.9, 38201.48, -0.04841191, 0.5844715, -949832.56, 455587.56, 0.026776709, 10.004904, 9.996691 
2.4653655e+3, 1.665928e+2, -897332.1, -1411198.0, 53450.48, -0.03220732, 0.61454976, -891831.25, 415619.1, 0.008488611, 10.004228, 9.997354 
2.4653001e+3, 1.7659037e+2, -898298.8, -1371499.0, 52608.375, -0.031967543, 0.6583191, -892520.6, 316955.3, 0.0014106233, 10.003566, 9.997272 
2.4652348e+3, 1.8658768e+2, -842403.4, -1193082.8, 56682.805, -0.029952284, 0.642745, -833468.94, 278033.34, 0.00005134986, 10.00284, 9.998173 
2.4651697e+3, 1.9658513e+2, -863103.8, -1166051.4, 47626.625, -0.02598773, 0.593795, -855792.8, 157733.81, 0.00000000021615258, 10.002084, 9.998051 
2.4651045e+3, 2.0658338e+2, -817604.9, -1018122.6, 53114.746, -0.018767433, 0.6062787, -804404.44, 111139.6, 0.0, 10.001399, 9.998723 
2.4650393e+3, 2.1658233e+2, -817466.5, -973952.25, 61853.992, -0.009957781, 0.6517181, -795970.4, 21584.795, 0.0, 10.000755, 9.998664 
2.464974e+3, 2.2658122e+2, -754936.06, -778195.0, 54734.625, -0.0014723531, 0.6480254, -710609.06, 8956.569, 0.0, 10.000016, 9.999691 
2.4649085e+3, 2.3658036e+2, -781420.0, -754822.9, 51523.668, 0.008156366, 0.6156942, -714909.25, -93335.95, 0.0, 9.999225, 9.99956 
2.464843e+3, 2.4657986e+2, -738811.6, -610880.44, 46388.684, 0.006261512, 0.6029631, -595830.1, -72252.4, 0.0, 9.998532, 10.000209 
2.4647771e+3, 2.5657982e+2, -742545.1, -575562.06, 48758.805, -0.0068071955, 0.600493, -562367.25, -136789.28, 0.0, 9.997892, 10.000087 
2.4647109e+3, 2.6658002e+2, -693672.7, -429371.6, 28816.656, -0.02073229, 0.6097824, -426266.22, -98691.055, 0.0, 9.997246, 10.000729 
2.4646448e+3, 2.7658066e+2, -701724.6, -400788.1, 32479.9, -0.021628834, 0.62297946, -397322.47, -167753.89, 0.0, 9.996597, 10.000565 
2.4645783e+3, 2.8658092e+2, -659500.4, -278866.88, 13582.395, -0.020503484, 0.60262364, -278382.8, -146817.02, 0.0, 9.995995, 10.0010195 
2.4645115e+3, 2.965814e+2, -663517.56, -251427.55, 15334.939, -0.06000868, 0.56819755, -250857.69, -217295.52, 0.0, 9.995385, 10.00083 
2.4644463e+3, 3.0658293e+2, -599776.3, -86724.76, 51217.152, 0.013206909, 0.61774176, -81661.8, -81661.8, 0.0, 9.995015, 10.001805 
2.4643801e+3, 3.165844e+2, -630593.1, -105539.87, -65885.32, -0.06459363, 0.6069101, -97398.6, -97398.6, 0.0, 9.994827, 10.001763 
2.4756353e+3, 1.2667277e+2, -968652.75, -1673656.6, -2179.6367, -0.095482714, 0.55784935, -968646.0, 730017.44, 0.12962642, 10.007458, 9.996716 
2.4755687e+3, 1.3666953e+2, -988142.0, -1675335.6, -449.73682, -0.07288732, 0.5886934, -988141.75, 612553.3, 0.0924444, 10.006436, 9.996499 
2.4755019e+3, 1.4666598e+2, -957480.4, -1589548.0, 15291.393, -0.059808746, 0.5966128, -957110.7, 545620.06, 0.055145044, 10.005612, 9.996811 
2.4754357e+3, 1.5666246e+2, -949657.5, -1557369.6, 13473.22, -0.03717567, 0.5881519, -949358.94, 455407.38, 0.02539747, 10.004912, 9.996696 
2.4753696e+3, 1.6665937e+2, -893886.75, -1406426.0, 29305.71, -0.027683493, 0.60081, -892216.56, 414581.38, 0.007961856, 10.004231, 9.997387 
2.4753034e+3, 1.7665675e+2, -897559.1, -1371138.4, 27483.18, -0.02941022, 0.6250143, -895969.56, 312855.38, 0.0012961519, 10.003566, 9.997277 
2.4752375e+3, 1.8665424e+2, -854674.94, -1219988.3, 28724.082, -0.020259855, 0.6349867, -852430.2, 258420.14, 0.000045391018, 10.002841, 9.997991 
2.4751717e+3, 1.96652e+2, -869061.1, -1180611.4, 20775.719, -0.0044893934, 0.63515925, -867681.8, 145190.64, 0.00000000023303823, 10.002088, 9.9979515 
2.4751057e+3, 2.0665021e+2, -794969.0, -973139.56, 29824.975, -0.01124428, 0.63043284, -790109.0, 124780.85, 0.0, 10.001403, 9.999033 
2.4750395e+3, 2.1664894e+2, -799309.6, -938086.8, 37513.465, -0.030034464, 0.6233508, -789818.3, 27083.787, 0.0, 10.000758, 9.998912 
2.4749736e+3, 2.2664791e+2, -760540.5, -792021.75, 25383.025, -0.020219048, 0.6226139, -746413.7, -27501.975, 0.0, 10.000021, 9.999597 
2.4749075e+3, 2.3664728e+2, -784328.56, -763245.06, 22403.691, 0.005911164, 0.6225705, -749026.9, -128109.336, 0.0, 9.99923, 9.999502 
2.4748413e+3, 2.4664685e+2, -730409.06, -595703.2, 21710.422, 0.011091038, 0.6147211, -592290.6, -69369.42, 0.0, 9.998537, 10.000313 
2.4747749e+3, 2.566468e+2, -735513.2, -563209.1, 23576.41, 0.0007402932, 0.6027435, -560041.4, -135120.22, 0.0, 9.997897, 10.000172 
2.4747083e+3, 2.6664704e+2, -690246.7, -424154.22, 3287.302, -0.0080628935, 0.6047444, -424113.63, -97195.07, 0.0, 9.997249, 10.000766 
2.4746414e+3, 2.7664763e+2, -700599.3, -400598.22, 8163.535, -0.0043663727, 0.6120151, -400376.25, -171464.0, 0.0, 9.996601, 10.0005665 
2.4745744e+3, 2.8664795e+2, -664730.7, -291708.84, -10389.16, -0.0051861047, 0.6008563, -291419.72, -160510.19, 0.0, 9.995997, 10.000933 
2.4745068e+3, 2.966485e+2, -661041.25, -247624.39, -8090.8955, -0.0448451, 0.58366483, -247466.1, -214560.61, 0.0, 9.995386, 10.000858 
2.4744405e+3, 3.0665028e+2, -617659.56, -126886.62, 43385.297, -0.047271978, 0.6665558, -123080.78, -123080.78, 0.0, 9.995023, 10.001528 
2.4743748e+3, 3.1665125e+2, -569183.1, 11843.076, -100715.516, -0.075701855, 0.6408865, 28805.955, 28805.955, 0.0, 9.994861, 10.002558 
2.4856423e+3, 1.2674013e+2, -989891.06, -1682637.9, 31802.084, -0.10253091, 0.5453421, -988434.2, 709568.94, 0.12403509, 10.00724, 9.996747 
2.485575e+3, 1.3673703e+2, -962323.56, -1660760.9, 28401.82, -0.06337522, 0.5874704, -961170.5, 638862.8, 0.08825525, 10.006602, 9.996518 
2.4855076e+3, 1.4673345e+2, -935038.94, -1583041.8, 42431.367, -0.04858705, 0.59706676, -932272.3, 569796.9, 0.052439336, 10.005788, 9.996768 
2.4854407e+3, 1.5672988e+2, -951096.56, -1562104.3, 38399.227, -0.03245347, 0.58651745, -948692.8, 455412.84, 0.023984134, 10.004918, 9.996658 
2.4853735e+3, 1.6672672e+2, -905041.06, -1415603.5, 53622.047, -0.024141578, 0.5994537, -899470.1, 406667.72, 0.007423581, 10.004173, 9.99735 
2.4853069e+3, 1.7672409e+2, -909190.25, -1377848.1, 46488.477, -0.024068635, 0.62430954, -904623.3, 303542.06, 0.0011798906, 10.003495, 9.997263 
2.4852403e+3, 1.8672161e+2, -857025.0, -1213689.4, 54829.18, -0.014443537, 0.6362004, -848786.5, 261403.83, 0.000039335002, 10.002798, 9.998052 
2.4851736e+3, 1.9671947e+2, -863471.2, -1169742.8, 62751.777, 0.0014803702, 0.6405596, -851112.7, 161098.86, 0.00000000017417703, 10.002097, 9.998019 
2.4851069e+3, 2.0671773e+2, -797527.56, -965830.75, 66676.48, -0.005498683, 0.6350776, -774314.1, 139914.25, 0.0, 10.001353, 9.999104 
2.48504e+3, 2.1671647e+2, -818112.3, -937050.25, 57012.418, -0.025324315, 0.62306076, -795198.2, 21042.373, 0.0, 10.000591, 9.998997 
2.4849734e+3, 2.2671553e+2, -761054.5, -778284.44, 49751.82, -0.022307983, 0.620733, -719177.25, -928.13214, 0.0, 9.999963, 9.999716 
2.4849065e+3, 2.3671503e+2, -752550.2, -736314.2, 61897.363, -0.005163011, 0.62264854, -682004.75, -61751.234, 0.0, 9.999404, 9.9996 
2.4848396e+3, 2.4671464e+2, -704884.7, -584575.5, 59682.44, 0.006934743, 0.6159379, -559991.9, -37734.96, 0.0, 9.998722, 10.0002985 
2.4847727e+3, 2.5671455e+2, -725160.25, -559361.94, 52786.36, 0.012000728, 0.603647, -543982.56, -119725.2, 0.0, 9.997978, 10.000156 
2.4847053e+3, 2.6671475e+2, -672317.94, -416892.44, 29524.47, 0.00024024089, 0.6070997, -413524.13, -87269.086, 0.0, 9.997383, 10.000749 
2.4846376e+3, 2.7671537e+2, -666946.44, -386515.7, 29438.887, -0.0089115435, 0.61813974, -383458.6, -155209.73, 0.0, 9.996846, 10.000543 
2.4845703e+3, 2.8671563e+2, -630016.2, -280257.38, 12213.302, -0.0023092518, 0.6043987, -279831.44, -149584.55, 0.0, 9.9962635, 10.00088 
2.4845025e+3, 2.96716e+2, -615694.56, -226747.34, 18063.762, -0.022822091, 0.57754666, -225910.2, -193665.89, 0.0, 9.995707, 10.000844 
2.484435e+3, 3.0671814e+2, -620891.3, -148621.6, 71096.7, -0.07648754, 0.7058043, -138150.67, -138150.67, 0.0, 9.995093, 10.001342 
2.4843696e+3, 3.1671745e+2, -605610.3, 66890.23, -61260.324, -0.011949753, 0.535546, 72425.08, 72425.08, 0.0, 9.994304, 10.003202 
2.4956495e+3, 1.2680857e+2, -987450.9, -1688937.1, 11051.181, -0.08765339, 0.5502189, -987276.8, 710055.1, 0.118253455, 10.007245, 9.9966955 
2.4955814e+3, 1.3680531e+2, -964437.1, -1671002.4, 4773.1255, -0.063210465, 0.5834994, -964404.9, 634958.94, 0.08391667, 10.006592, 9.996454 
2.4955131e+3, 1.4680162e+2, -940058.5, -1598789.6, 11533.454, -0.05171277, 0.58886886, -939856.6, 561544.44, 0.049636178, 10.005787, 9.996663 
2.4954453e+3, 1.5679795e+2, -955780.9, -1576402.0, 8217.786, -0.033194035, 0.5803944, -955672.06, 447766.34, 0.022521613, 10.004926, 9.996559 
2.4953777e+3, 1.6679487e+2, -911204.06, -1431676.0, 29120.04, -0.02148196, 0.60825217, -909579.9, 395890.72, 0.006868071, 10.00418, 9.997238 
2.4953103e+3, 1.767923e+2, -911336.0, -1384302.9, 21798.504, -0.016957348, 0.65202844, -910333.5, 297164.25, 0.0010604773, 10.003499, 9.997219 
2.4952427e+3, 1.8678977e+2, -838215.5, -1176283.4, 29350.918, -0.012829385, 0.6452445, -835686.2, 273836.53, 0.000032980974, 10.0028, 9.99831 
2.4951756e+3, 1.967875e+2, -849497.6, -1142169.4, 36577.31, -0.00743287, 0.6129184, -844995.56, 166548.55, 0.00000000005180779, 10.002098, 9.998211 
2.4951081e+3, 2.067859e+2, -808831.8, -991159.7, 38435.62, -0.0011390316, 0.62203526, -801060.6, 112499.48, 0.0, 10.001357, 9.998931 
2.4950407e+3, 2.1678486e+2, -822770.4, -949254.75, 30337.854, 0.0038709599, 0.6499473, -815870.1, -299.1739, 0.0, 10.000597, 9.998913 
2.4949731e+3, 2.2678402e+2, -738101.9, -733225.7, 29526.055, -0.00834696, 0.6418182, -706037.25, 11541.142, 0.0, 9.9999695, 10.000025 
2.4949056e+3, 2.3678353e+2, -735088.06, -703026.7, 39748.23, -0.026523232, 0.61542946, -676198.25, -56616.633, 0.0, 9.999412, 9.999828 
2.4948381e+3, 2.4678311e+2, -714711.7, -607772.7, 30978.227, -0.0067773424, 0.60622674, -599447.06, -77861.734, 0.0, 9.99873, 10.000138 
2.4947707e+3, 2.5678298e+2, -734114.56, -580436.8, 25524.033, 0.02716754, 0.60354805, -576308.5, -152721.53, 0.0, 9.997984, 10.000011 
2.4947026e+3, 2.6678318e+2, -677572.9, -430859.3, 8637.477, 0.0030066008, 0.61729354, -430557.28, -104972.08, 0.0, 9.997391, 10.000651 
2.4946341e+3, 2.7678382e+2, -669772.9, -396549.63, 6704.9434, -0.038555395, 0.64120877, -396385.2, -168806.1, 0.0, 9.996859, 10.000471 
2.4945661e+3, 2.867839e+2, -630110.1, -284297.1, -10549.174, -0.014158095, 0.61531925, -283975.6, -154397.23, 0.0, 9.996275, 10.000851 
2.494498e+3, 2.9678392e+2, -619006.3, -237471.63, -1261.3368, 0.004885006, 0.55587995, -237467.47, -205888.84, 0.0, 9.995718, 10.000768 
2.4944302e+3, 3.0678627e+2, -629605.0, -168095.77, 38740.688, -0.06207141, 0.71534663, -164866.33, -164866.33, 0.0, 9.995094, 10.001211 
2.4943638e+3, 3.167864e+2, -647319.94, -15200.264, -61078.316, -0.0059772525, 0.64377046, -9352.689, -9352.689, 0.0, 9.99428, 10.002651 
2.5056565e+3, 1.2687771e+2, -979910.9, -1689678.8, 29071.697, -0.090326905, 0.5595755, -978722.1, 717932.44, 0.11225599, 10.007279, 9.996671 
2.5055876e+3, 1.3687438e+2, -988996.75, -1687771.8, 24045.8, -0.05462109, 0.58717245, -988170.3, 610517.0, 0.07940986, 10.006398, 9.99643 
2.5055188e+3, 1.468706e+2, -959944.3, -1613458.4, 35793.945, -0.04563899, 0.5908999, -957989.7, 542735.4, 0.04672576, 10.005652, 9.996625 
2.50545e+3, 1.568669e+2, -948354.56, -1576035.1, 36844.844, -0.034006756, 0.583089, -946199.1, 456563.56, 0.02100816, 10.004991, 9.996528 
2.5053817e+3, 1.6686374e+2, -903586.7, -1428144.6, 63883.48, -0.02097725, 0.6052799, -895918.7, 408876.78, 0.0062971474, 10.004237, 9.9972315 
2.5053135e+3, 1.7686106e+2, -917875.75, -1384801.6, 62889.66, -0.011700019, 0.6408361, -909553.56, 297269.84, 0.00093912566, 10.003448, 9.997237 
2.5052455e+3, 1.8685864e+2, -843292.25, -1168071.6, 66081.48, -0.008591951, 0.63978124, -830361.75, 278485.56, 0.000026457765, 10.002725, 9.9984 
2.5051773e+3, 1.9685659e+2, -852435.4, -1133430.8, 61235.203, -0.0069958665, 0.61924666, -839670.75, 171196.14, 0.0000000000010010511, 10.002039, 9.998296 
2.505109e+3, 2.0685498e+2, -803691.0, -984637.0, 67783.12, 0.00044662482, 0.6236497, -781115.7, 131767.06, 0.0, 10.00138, 9.998961 
2.5050414e+3, 2.1685386e+2, -801219.2, -935321.8, 73151.164, 0.009830599, 0.6403232, -769038.56, 45855.824, 0.0, 10.000735, 9.998939 
2.5049728e+3, 2.2685306e+2, -729602.06, -731288.2, 62196.3, -0.00522145, 0.6380607, -668243.1, 48658.625, 0.0, 10.000043, 10.0 
2.5049046e+3, 2.3685266e+2, -748366.6, -709332.6, 48096.004, -0.030364938, 0.624568, -676944.5, -58039.934, 0.0, 9.999326, 9.999824 
2.5048363e+3, 2.4685226e+2, -713032.75, -600469.5, 41127.926, -0.012149657, 0.61474425, -587043.7, -66135.64, 0.0, 9.998718, 10.000191 
2.5047687e+3, 2.5685212e+2, -707208.4, -563533.3, 51606.902, 0.023431102, 0.6065816, -546918.06, -124008.586, 0.0, 9.9981575, 10.000042 
2.5046998e+3, 2.6685223e+2, -657271.5, -430365.84, 43308.742, -0.0005875382, 0.61781114, -422380.66, -97472.13, 0.0, 9.997576, 10.000564 
2.504631e+3, 2.7685276e+2, -655704.94, -397151.66, 40825.035, -0.0421169, 0.63788754, -390858.66, -163954.6, 0.0, 9.996992, 10.0004 
2.504562e+3, 2.8685293e+2, -608316.25, -276440.63, 22965.488, -0.012524909, 0.6253947, -274858.97, -145956.4, 0.0, 9.99644, 10.000822 
2.5044936e+3, 2.9685318e+2, -603035.94, -240584.88, 32377.941, 0.012872713, 0.5945068, -237715.27, -206814.92, 0.0, 9.995878, 10.000668 
2.504425e+3, 3.0685455e+2, -625862.94, -184562.45, 60006.066, -0.049538534, 0.67537206, -176548.63, -176548.63, 0.0, 9.995203, 10.001043 
2.5043574e+3, 3.1685463e+2, -618464.8, -12569.878, -16472.355, -0.045212433, 0.6046617, -12122.377, -12122.377, 0.0, 9.994534, 10.002543 
2.5156632e+3, 1.2694755e+2, -980777.2, -1694899.0, -1431.6321, -0.10832996, 0.5734648, -980774.3, 715196.44, 0.106055066, 10.007244, 9.996648 
2.515594e+3, 1.3694416e+2, -987471.06, -1690270.0, -5522.7095, -0.03862551, 0.5968481, -987427.7, 610576.3, 0.074752785, 10.006391, 9.996419 
2.515524e+3, 1.469404e+2, -957219.6, -1613409.3, 12310.6455, -0.032093935, 0.600918, -956988.75, 543052.8, 0.043725677, 10.005656, 9.996626 
2.5154546e+3, 1.5693669e+2, -946500.06, -1574799.6, 12095.499, -0.036243286, 0.5933503, -946267.25, 455811.63, 0.019457318, 10.004991, 9.996538 
2.5153854e+3, 1.6693333e+2, -898861.3, -1419804.6, 34888.24, -0.02324429, 0.5925379, -896535.2, 407577.66, 0.0057189576, 10.004237, 9.997292 
2.5153166e+3, 1.769304e+2, -914023.7, -1378414.5, 34476.797, -0.008054506, 0.5956988, -911478.06, 294664.53, 0.0008186864, 10.003449, 9.997283 
2.5152478e+3, 1.8692823e+2, -848005.4, -1179703.3, 40780.82, -0.0018987108, 0.6219577, -843065.1, 265099.3, 0.000020140478, 10.002728, 9.998322 
2.5151792e+3, 1.9692665e+2, -853327.2, -1137211.8, 36290.145, 0.0015004032, 0.6567106, -848761.5, 161418.88, 0.0, 10.002043, 9.998271 
2.5151104e+3, 2.0692493e+2, -788849.44, -955754.4, 44070.816, -0.001366183, 0.63830405, -777927.4, 134269.5, 0.0, 10.001384, 9.999161 
2.5150415e+3, 2.1692339e+2, -793590.94, -921217.44, 48944.78, -0.0077932957, 0.5949444, -776982.06, 37229.21, 0.0, 10.000738, 9.999037 
2.5149727e+3, 2.2692259e+2, -755074.56, -786352.8, 35493.477, -0.012605227, 0.61009943, -731927.5, -15707.799, 0.0, 10.000047, 9.999622 
2.5149038e+3, 2.3692235e+2, -764990.1, -746396.9, 21897.64, -0.015687663, 0.6503609, -731904.1, -113681.13, 0.0, 9.999332, 9.999569 
2.514835e+3, 2.4692203e+2, -693969.75, -563292.94, 19465.545, -0.009369654, 0.6422257, -560455.0, -40229.457, 0.0, 9.998724, 10.000445 
2.5147662e+3, 2.5692192e+2, -691967.7, -534978.06, 29425.463, -0.0020223232, 0.61311054, -529643.94, -107418.64, 0.0, 9.998165, 10.0002365 
2.514697e+3, 2.6692188e+2, -662834.06, -444582.5, 20195.809, -0.010885483, 0.60701734, -442729.4, -118503.88, 0.0, 9.997582, 10.000465 
2.5146276e+3, 2.7692205e+2, -661125.94, -410137.06, 18584.557, -0.01621157, 0.6039142, -408768.4, -182543.88, 0.0, 9.996994, 10.000312 
2.5145587e+3, 2.8692263e+2, -609808.75, -282360.9, 1564.9354, 0.0044676648, 0.63630295, -282353.4, -154133.7, 0.0, 9.996447, 10.000781 
2.5144893e+3, 2.9692385e+2, -610802.5, -261120.84, 9536.588, -0.0003580047, 0.7067174, -260860.95, -230652.34, 0.0, 9.995892, 10.000523 
2.5144202e+3, 3.0692276e+2, -642800.4, -220984.38, 31184.441, -0.045369502, 0.565358, -218691.4, -218691.4, 0.0, 9.995204, 10.000794 
2.514352e+3, 3.1692258e+2, -564202.5, 100841.09, -44201.406, -0.024003204, 0.47595453, 103766.02, 103766.02, 0.0, 9.994525, 10.00333 
2.5256702e+3, 1.270179e+2, -1023400.06, -1700327.4, 6533.805, -0.1004649, 0.593022, -1023337.0, 671945.44, 0.09970029, 10.006795, 9.996825 
2.5256002e+3, 1.3701448e+2, -999338.1, -1680036.5, 14277.18, -0.03432271, 0.59804416, -999038.8, 598276.3, 0.0699931, 10.006206, 9.996575 
2.5255296e+3, 1.4701077e+2, -965673.94, -1609809.4, 40064.473, -0.030077932, 0.5975083, -963191.5, 536160.25, 0.0406722, 10.005552, 9.996697 
2.5254595e+3, 1.5700714e+2, -958780.4, -1572651.3, 43111.01, -0.03518767, 0.5916768, -955767.56, 445620.56, 0.017890876, 10.0048685, 9.996609 
2.5253898e+3, 1.670038e+2, -909403.1, -1419154.3, 64305.855, -0.021087235, 0.58755016, -901416.0, 402005.5, 0.00514381, 10.004143, 9.997339 
2.52532e+3, 1.7700085e+2, -918659.44, -1377074.3, 62894.72, -0.00380242, 0.5847291, -910186.8, 295264.2, 0.0007022553, 10.0034075, 9.99731 
2.5252506e+3, 1.8699859e+2, -861080.8, -1196169.9, 69103.89, 0.00055503304, 0.60843664, -847389.25, 260084.63, 0.000014471007, 10.002687, 9.998224 
2.525181e+3, 1.9699691e+2, -867211.94, -1150594.3, 62628.42, 0.00035345583, 0.643702, -853987.94, 155503.25, 0.0, 10.001982, 9.998205 
2.5251114e+3, 2.0699523e+2, -797023.5, -955611.3, 62723.027, -0.0035793209, 0.63147146, -775214.94, 136292.36, 0.0, 10.001316, 9.999191 
2.525042e+3, 2.1699381e+2, -802860.5, -923209.8, 55197.46, -0.00993069, 0.59531844, -781378.9, 32141.793, 0.0, 10.0006695, 9.999053 
2.5249726e+3, 2.2699293e+2, -755485.3, -794586.56, 52608.85, -0.012974424, 0.6082335, -718911.8, -3381.7827, 0.0, 10.000085, 9.999545 
2.524903e+3, 2.3699257e+2, -740610.44, -739641.1, 60582.773, -0.012928369, 0.6440185, -679541.06, -62005.97, 0.0, 9.999527, 9.999518 
2.5248334e+3, 2.4699232e+2, -666432.6, -544275.44, 54888.37, -0.0116194645, 0.64389503, -523236.25, -3699.3027, 0.0, 9.998894, 10.000492 
2.524764e+3, 2.5699237e+2, -681510.0, -526289.6, 48814.48, -0.013231552, 0.62623113, -512214.5, -90679.47, 0.0, 9.998227, 10.000263 
2.5246942e+3, 2.6699218e+2, -663572.6, -452262.84, 35662.203, -0.016742423, 0.6099423, -446406.53, -122869.875, 0.0, 9.997614, 10.000395 
2.5246245e+3, 2.769921e+2, -662395.6, -417859.3, 36312.055, -0.0101130335, 0.5907412, -412581.16, -187043.06, 0.0, 9.997022, 10.000243 
2.524555e+3, 2.8699288e+2, -603230.06, -286016.25, 19984.014, 0.013752463, 0.6482125, -284762.25, -157230.63, 0.0, 9.996528, 10.000714 
2.524485e+3, 2.9699433e+2, -592480.4, -258445.78, 23462.225, 0.011141948, 0.74958575, -256805.88, -227287.58, 0.0, 9.996051, 10.00046 
2.524415e+3, 3.0699223e+2, -624435.25, -202764.56, 56114.883, -0.05560028, 0.505562, -195424.7, -195424.7, 0.0, 9.9952965, 10.000872 
2.5243467e+3, 3.16995e+2, -559892.3, 126162.016, -1019.35724, 0.014480255, 0.70227736, 126163.52, 126163.52, 0.0, 9.994455, 10.003537 
2.535677e+3, 1.2708877e+2, -1000540.56, -1658308.1, -12329.478, -0.075030364, 0.6163069, -1000309.56, 694279.75, 0.09326032, 10.006773, 9.99715 
2.535606e+3, 1.370854e+2, -980600.06, -1641741.9, -6488.765, -0.040507782, 0.593011, -980536.4, 616084.0, 0.06518889, 10.006186, 9.99685 
2.5355348e+3, 1.4708178e+2, -958109.9, -1595649.3, 15266.803, -0.037790928, 0.5840038, -957744.5, 540911.1, 0.037606183, 10.00554, 9.996802 
2.5354642e+3, 1.5707827e+2, -951940.9, -1559264.9, 17393.46, -0.031356964, 0.580228, -951443.1, 449247.4, 0.016331626, 10.004862, 9.996706 
2.5353935e+3, 1.6707511e+2, -907696.2, -1416756.6, 37015.906, -0.015259092, 0.5894527, -905018.7, 397703.25, 0.0045815986, 10.004141, 9.997358 
2.5353232e+3, 1.7707235e+2, -918637.6, -1378614.1, 35764.816, 0.0002717483, 0.6037302, -915873.4, 288876.03, 0.0005927213, 10.003409, 9.9973 
2.535253e+3, 1.8706971e+2, -869873.75, -1216283.3, 42893.88, -0.0014917868, 0.5980452, -864641.44, 242134.45, 0.000009804418, 10.002691, 9.998087 
2.5351825e+3, 1.970674e+2, -875407.6, -1169458.0, 37118.285, -0.00996756, 0.58388346, -870794.5, 138004.92, 0.0, 10.001986, 9.998076 
2.5351125e+3, 2.0706594e+2, -806276.5, -977027.06, 38871.816, -0.0058568283, 0.6056082, -797843.7, 112970.6, 0.0, 10.00132, 9.999045 
2.5350428e+3, 2.1706507e+2, -806819.5, -933996.3, 32172.977, 0.0028417388, 0.6405942, -799143.75, 13679.271, 0.0, 10.000676, 9.998979 
2.5349724e+3, 2.2706407e+2, -740171.06, -765405.44, 32229.947, -0.0069107884, 0.63154846, -718176.6, -3343.5742, 0.0, 10.000092, 9.999744 
2.534902e+3, 2.3706327e+2, -730492.25, -721118.8, 38701.348, -0.02331056, 0.6041625, -686821.44, -69980.17, 0.0, 9.999533, 9.999645 
2.534832e+3, 2.4706312e+2, -678996.6, -572828.44, 29110.1, -0.018998925, 0.61879414, -565370.6, -46527.965, 0.0, 9.998899, 10.000296 
2.534762e+3, 2.5706342e+2, -692559.25, -551540.9, 23244.646, -0.008766376, 0.64674145, -547808.2, -126968.89, 0.0, 9.998232, 10.000091 
2.5346917e+3, 2.670631e+2, -667140.6, -461736.0, 11978.232, -0.018306682, 0.6287375, -461039.84, -138197.44, 0.0, 9.997618, 10.00033 
2.5346214e+3, 2.770629e+2, -666794.9, -429415.75, 13895.71, -0.0277192, 0.60169107, -428605.06, -203759.94, 0.0, 9.997027, 10.000164 
2.5345513e+3, 2.8706354e+2, -612451.44, -307013.9, -28.964743, 0.013984209, 0.6579233, -307013.9, -180174.33, 0.0, 9.996531, 10.00057 
2.5344813e+3, 2.9706433e+2, -591884.56, -257722.64, -697.22845, 0.051063307, 0.7062947, -257721.19, -228888.94, 0.0, 9.996049, 10.000468 
2.53441e+3, 3.0706316e+2, -586513.9, -124881.56, 23188.098, -0.082193874, 0.52576154, -123719.734, -123719.734, 0.0, 9.995295, 10.0014105 
2.534341e+3, 3.1706712e+2, -629785.5, -26121.777, -15050.298, 0.025000375, 0.80453914, -25746.783, -25746.783, 0.0, 9.994475, 10.002487 
2.5456834e+3, 1.2716037e+2, -1038073.6, -1677943.1, 29913.127, -0.060060047, 0.6126484, -1036678.3, 657209.2, 0.0867985, 10.006453, 9.997154 
2.545612e+3, 1.3715696e+2, -1026083.0, -1662471.5, 18248.676, -0.03812008, 0.5873958, -1025560.1, 570359.0, 0.060390845, 10.005815, 9.996885 
2.54554e+3, 1.4715342e+2, -994188.9, -1597995.8, 35480.836, -0.03351756, 0.5781039, -992111.1, 505842.22, 0.0345629, 10.005205, 9.996945 
2.5454688e+3, 1.5715007e+2, -977327.44, -1557299.4, 38710.016, -0.018954162, 0.57496685, -974755.1, 425231.34, 0.014799312, 10.0046215, 9.996833 
2.5453976e+3, 1.6714698e+2, -925718.4, -1419945.9, 58117.684, -0.009148475, 0.5845131, -918976.1, 383040.8, 0.004040654, 10.003996, 9.997404 
2.545326e+3, 1.7714426e+2, -924651.5, -1377712.8, 57874.887, -0.006120478, 0.59893775, -917375.3, 286668.72, 0.0004923833, 10.003356, 9.99733 
2.545255e+3, 1.8714158e+2, -874951.0, -1224201.8, 68778.62, -0.007741391, 0.5922898, -861894.44, 244176.53, 0.0000063079933, 10.002686, 9.998034 
2.5451842e+3, 1.9713919e+2, -876330.7, -1174567.1, 68476.484, -0.010174803, 0.57575595, -861359.7, 146735.78, 0.0, 10.002005, 9.99803 
2.5451136e+3, 2.0713764e+2, -806792.0, -982937.4, 77281.57, -0.0061912066, 0.59719324, -777692.9, 132418.06, 0.0, 10.001347, 9.998989 
2.545043e+3, 2.1713676e+2, -805946.8, -937628.75, 76294.88, -0.00011583587, 0.63476336, -771011.1, 41109.035, 0.0, 10.000705, 9.998937 
2.5449723e+3, 2.2713572e+2, -742229.6, -766744.1, 68791.95, -0.00891904, 0.6259618, -684611.44, 29518.965, 0.0, 10.000084, 9.999736 
2.5449014e+3, 2.3713487e+2, -740600.8, -727189.3, 59854.88, -0.022957377, 0.5959285, -673665.7, -57526.813, 0.0, 9.999474, 9.999629 
2.5448307e+3, 2.4713466e+2, -682261.2, -582621.06, 50626.09, -0.016238403, 0.6114597, -561412.7, -43271.668, 0.0, 9.998919, 10.0002165 
2.54476e+3, 2.571349e+2, -676452.06, -551835.1, 53285.207, -0.0031123778, 0.6440105, -532157.9, -112019.36, 0.0, 9.9983835, 10.000012 
2.5446892e+3, 2.6713464e+2, -634496.94, -452498.53, 45918.473, -0.018093705, 0.635871, -441569.53, -119427.99, 0.0, 9.997875, 10.000267 
2.5446182e+3, 2.7713445e+2, -621592.56, -413336.34, 47322.695, -0.03713397, 0.6177972, -403087.44, -178943.45, 0.0, 9.997367, 10.000108 
2.5445476e+3, 2.871347e+2, -586685.8, -297528.4, 38395.367, 0.008253835, 0.64262515, -292517.0, -166375.17, 0.0, 9.996724, 10.000541 
2.544477e+3, 2.9713508e+2, -594291.56, -259975.86, 43999.164, 0.05723458, 0.6512018, -254282.13, -226143.48, 0.0, 9.996038, 10.000458 
2.5444052e+3, 3.071351e+2, -573600.6, -127798.46, 28660.105, -0.07316361, 0.5950057, -125963.49, -125963.49, 0.0, 9.995427, 10.001324 
2.5443357e+3, 3.1713542e+2, -627497.4, -79035.695, -29844.0, 0.066560246, 0.52761436, -77416.54, -77416.54, 0.0, 9.994737, 10.00199 
2.5556898e+3, 1.2723267e+2, -1053577.4, -1715899.8, 7114.8975, -0.053874206, 0.58976585, -1053500.9, 639676.6, 0.08036003, 10.006425, 9.996898 
2.5556174e+3, 1.3722917e+2, -1034734.7, -1687256.6, -3307.9358, -0.029610218, 0.5810949, -1034717.94, 560493.6, 0.05563637, 10.005808, 9.996719 
2.5555453e+3, 1.4722574e+2, -982012.7, -1576350.5, 15015.979, -0.0201942, 0.5777462, -981633.56, 515611.4, 0.03157008, 10.005204, 9.997097 
2.555473e+3, 1.5722252e+2, -967930.2, -1538838.0, 17088.285, 0.00004154269, 0.57514817, -967419.2, 431856.9, 0.013310266, 10.004616, 9.996965 
2.555401e+3, 1.6721942e+2, -922691.44, -1413610.0, 34613.16, -0.0035422512, 0.5739565, -920263.0, 381043.7, 0.0035275028, 10.003989, 9.997453 
2.5553292e+3, 1.7721659e+2, -921781.1, -1371698.0, 33934.92, -0.022299983, 0.5736438, -919236.0, 284098.72, 0.00040250548, 10.003351, 9.9973755 
2.5552577e+3, 1.8721418e+2, -874551.1, -1224271.3, 43524.414, -0.017603874, 0.59176946, -869215.75, 236143.4, 0.0000039351035, 10.002684, 9.998035 
2.5551862e+3, 1.972122e+2, -875056.2, -1173403.5, 43581.44, -0.0013217014, 0.615753, -868820.3, 138559.52, 0.0, 10.002007, 9.998039 
2.5551146e+3, 2.0721035e+2, -805372.06, -982023.56, 53448.004, -0.0053877854, 0.60420495, -790459.56, 118938.266, 0.0, 10.001351, 9.998996 
2.555043e+3, 2.172088e+2, -807868.0, -943438.5, 52893.8, -0.018841965, 0.57842046, -789673.06, 21739.303, 0.0, 10.000708, 9.998898 
2.554972e+3, 2.2720785e+2, -757980.25, -801682.1, 46027.555, -0.018754816, 0.5927238, -728880.2, -15457.903, 0.0, 10.00009, 9.999496 
2.554901e+3, 2.3720737e+2, -751896.75, -753213.2, 37147.05, -0.011854331, 0.62109596, -715402.06, -99973.81, 0.0, 9.99948, 9.99945 
2.5548297e+3, 2.4720696e+2, -679418.3, -579136.1, 29897.02, -0.003126327, 0.62211394, -570899.5, -53467.055, 0.0, 9.998923, 10.00024 
2.5547582e+3, 2.5720683e+2, -674996.8, -551490.8, 32976.52, 0.0031072465, 0.6144865, -543237.5, -123804.1, 0.0, 9.99839, 10.000014 
2.5546867e+3, 2.6720673e+2, -638414.6, -464003.47, 26447.39, -0.015957901, 0.6301442, -460081.25, -138646.86, 0.0, 9.997885, 10.000186 
2.554615e+3, 2.7720675e+2, -621963.44, -418316.84, 25824.969, -0.03674629, 0.64240175, -415092.94, -191658.42, 0.0, 9.99738, 10.000071 
2.554544e+3, 2.8720638e+2, -577305.1, -280745.63, 12136.371, -0.0054706666, 0.59860104, -280249.8, -154811.27, 0.0, 9.996731, 10.000656 
2.5544727e+3, 2.9720652e+2, -599317.5, -270953.6, 21591.951, 0.020235421, 0.57489, -269539.88, -242102.16, 0.0, 9.996036, 10.000386 
2.554401e+3, 3.0720803e+2, -645949.1, -279930.47, 1348.9875, -0.015702385, 0.7283085, -279925.5, -279925.5, 0.0, 9.995431, 10.00028 
2.5543302e+3, 3.1720588e+2, -528974.56, 123563.195, -48143.72, 0.07217857, 0.49419916, 127096.08, 127096.08, 0.0, 9.994742, 10.003382 
2.565696e+3, 1.2730555e+2, -1093619.4, -1727222.8, 20164.283, -0.036998406, 0.5876812, -1092978.3, 599484.9, 0.073981225, 10.006044, 9.997003 
2.565623e+3, 1.3730225e+2, -1039940.1, -1679770.5, 28477.986, -0.025977852, 0.58667225, -1038675.06, 555820.7, 0.050954442, 10.005704, 9.9968195 
2.56555e+3, 1.4729884e+2, -991420.06, -1572181.9, 45347.67, -0.016064933, 0.58091146, -987900.5, 508628.0, 0.028648874, 10.00509, 9.997179 
2.5654775e+3, 1.5729564e+2, -997785.44, -1544461.6, 42909.94, 0.008945665, 0.5714457, -994437.8, 404121.44, 0.011876926, 10.004369, 9.997044 
2.5654048e+3, 1.6729257e+2, -959385.6, -1425597.8, 59860.305, 0.0031414214, 0.56923455, -951822.44, 348767.0, 0.003046675, 10.003714, 9.997501 
2.5653324e+3, 1.772898e+2, -955554.25, -1382110.9, 58280.92, -0.020211317, 0.5701687, -947734.6, 254882.44, 0.0003233886, 10.003098, 9.997424 
2.5652596e+3, 1.8728746e+2, -905072.06, -1235889.4, 67377.95, -0.017162846, 0.5912891, -891875.5, 212765.31, 0.0000024760313, 10.002466, 9.998059 
2.5651878e+3, 1.9728552e+2, -899835.9, -1184193.6, 68618.28, -0.0013721387, 0.6195036, -884143.56, 122517.25, 0.0, 10.001836, 9.998045 
2.5651157e+3, 2.0728357e+2, -821841.44, -999063.8, 75706.36, -0.0076521365, 0.60336787, -793904.8, 114774.93, 0.0, 10.001283, 9.998909 
2.5650436e+3, 2.1728185e+2, -805943.1, -950887.94, 67483.97, -0.023841087, 0.5683535, -779388.56, 31307.422, 0.0, 10.000763, 9.998817 
2.564972e+3, 2.2728081e+2, -751378.56, -807423.5, 65228.83, -0.021165881, 0.58357155, -708407.6, 4299.05, 0.0, 10.000178, 9.999411 
2.5649002e+3, 2.372803e+2, -745531.5, -759316.44, 67696.51, -0.008974125, 0.61848694, -684377.5, -69664.484, 0.0, 9.999569, 9.999362 
2.5648284e+3, 2.4727976e+2, -678343.6, -591398.1, 57519.426, -0.00017402474, 0.6210729, -562771.2, -46052.832, 0.0, 9.998992, 10.00012 
2.5647563e+3, 2.5727952e+2, -676588.3, -562006.75, 49654.45, 0.003306191, 0.6123143, -543483.3, -124762.44, 0.0, 9.998426, 9.999922 
2.5646845e+3, 2.6727936e+2, -643179.4, -467493.3, 43422.824, -0.01067509, 0.62569374, -457346.88, -136624.36, 0.0, 9.997863, 10.00017 
2.5646126e+3, 2.7727932e+2, -634162.25, -423716.1, 46313.83, -0.021835793, 0.6339277, -413974.53, -191251.52, 0.0, 9.9973, 10.000069 
2.5645405e+3, 2.8727892e+2, -558472.9, -268173.22, 27532.414, -0.0032524534, 0.58802414, -265585.1, -140858.1, 0.0, 9.996852, 10.00068 
2.5644684e+3, 2.9727915e+2, -546672.1, -249685.97, 29524.885, -0.0018317428, 0.5725534, -246779.2, -220054.08, 0.0, 9.996425, 10.0003395 
2.5643963e+3, 3.072806e+2, -635515.5, -309167.3, 38122.414, 0.01137839, 0.7406397, -304773.2, -304773.2, 0.0, 9.995656, 9.999968 
2.5643244e+3, 3.1728032e+2, -471817.94, 231850.39, 36162.883, 0.041416, 0.7194272, 233703.98, 233703.98, 0.0, 9.994784, 10.0041065 
2.5757018e+3, 1.2737902e+2, -1067676.4, -1675202.0, 9118.762, -0.013002986, 0.60016936, -1067539.6, 624204.75, 0.067706555, 10.006022, 9.997379 
2.5756285e+3, 1.373761e+2, -1021146.5, -1640085.0, 12128.949, -0.027667716, 0.6030263, -1020908.94, 572863.25, 0.046373896, 10.00568, 9.997106 
2.5755548e+3, 1.4737272e+2, -991668.56, -1572816.4, 17794.965, -0.02044993, 0.58800393, -991124.2, 504680.25, 0.025816666, 10.005072, 9.997186 
2.5754818e+3, 1.5736939e+2, -996751.56, -1542684.6, 16631.896, 0.009145926, 0.56441367, -996245.4, 401590.97, 0.010508793, 10.00436, 9.997063 
2.5754085e+3, 1.6736643e+2, -956684.94, -1421389.9, 36843.86, 0.011164431, 0.5693484, -953781.94, 346083.6, 0.0026015108, 10.003714, 9.997533 
2.5753352e+3, 1.7736383e+2, -952419.4, -1377361.1, 35030.656, -0.0022043048, 0.58588666, -949550.94, 252340.58, 0.0002549894, 10.0031, 9.9974575 
2.5752622e+3, 1.8736136e+2, -902322.06, -1232544.9, 43584.945, -0.008310991, 0.59041715, -896666.3, 207250.05, 0.0000016380604, 10.002471, 9.998082 
2.5751892e+3, 1.9735914e+2, -899968.4, -1186967.0, 46053.613, -0.010109077, 0.5898573, -892759.44, 113179.11, 0.0, 10.001842, 9.998026 
2.5751168e+3, 2.073573e+2, -834357.1, -1027606.2, 56397.56, -0.012607699, 0.5966252, -819102.4, 88854.37, 0.0, 10.001288, 9.998713 
2.5750443e+3, 2.173558e+2, -814312.56, -970618.06, 47541.75, -0.016031811, 0.60437083, -800988.2, 8983.078, 0.0, 10.000768, 9.998682 
2.574972e+3, 2.2735454e+2, -746675.06, -800053.75, 42592.742, -0.016747337, 0.59763706, -723100.44, -11116.534, 0.0, 10.000184, 9.999461 
2.5748995e+3, 2.373536e+2, -746062.75, -762493.06, 44999.77, -0.014597117, 0.58605087, -708534.4, -94540.79, 0.0, 9.999574, 9.999341 
2.5748268e+3, 2.473531e+2, -698223.9, -634729.2, 35559.35, -0.008017492, 0.60872436, -618807.25, -102808.14, 0.0, 9.998997, 9.999823 
2.5747547e+3, 2.5735298e+2, -690523.9, -593106.0, 27383.182, -0.0035852257, 0.6419032, -585936.5, -167935.45, 0.0, 9.998431, 9.999708 
2.5746822e+3, 2.673524e+2, -640440.4, -462910.47, 20727.133, -0.0018682579, 0.6216756, -460522.63, -140516.1, 0.0, 9.997863, 10.000203 
2.5746098e+3, 2.7735195e+2, -634132.06, -423544.44, 25368.615, 0.008526239, 0.5831517, -420531.5, -198520.48, 0.0, 9.997295, 10.000074 
2.5745374e+3, 2.873523e+2, -566865.5, -287988.03, 10621.827, 0.017923223, 0.61900496, -287584.06, -163576.72, 0.0, 9.996857, 10.000545 
2.5744644e+3, 2.973531e+2, -544429.25, -251409.58, 6763.678, -0.0024885023, 0.6727556, -251253.53, -225254.06, 0.0, 9.996448, 10.0003195 
2.5743917e+3, 3.0735236e+2, -583075.06, -202397.78, 3489.8735, -0.0076347277, 0.58000916, -202365.78, -202365.78, 0.0, 9.995661, 10.000701 
2.5743192e+3, 3.1735358e+2, -602616.4, -35715.105, -9491.948, 0.07127837, 0.65746194, -35556.223, -35556.223, 0.0, 9.994761, 10.002282 
2.5857076e+3, 1.2745307e+2, -1094481.6, -1691734.3, 37139.766, -0.0054197595, 0.60863477, -1092181.0, 598837.5, 0.061586857, 10.005806, 9.997362 
2.5856334e+3, 1.3745011e+2, -1082717.6, -1667182.3, 15415.955, -0.017921897, 0.6083487, -1082311.3, 510736.22, 0.04192476, 10.0052, 9.9971485 
2.5855592e+3, 1.4744689e+2, -1037718.2, -1571918.5, 19842.512, -0.018409366, 0.59227175, -1036982.2, 458095.97, 0.023089958, 10.004638, 9.997398 
2.5854856e+3, 1.5744376e+2, -1019106.7, -1534049.1, 31095.535, 0.00008706477, 0.5689742, -1017235.75, 379871.8, 0.009214491, 10.004122, 9.997234 
2.5854117e+3, 1.6744085e+2, -975546.5, -1425625.8, 55505.164, 0.010352843, 0.5716352, -968802.5, 330333.47, 0.002194862, 10.003567, 9.997573 
2.585338e+3, 1.7743824e+2, -966147.4, -1380774.5, 53416.23, 0.01255171, 0.584738, -959376.3, 241785.58, 0.00019710924, 10.002996, 9.997482 
2.5852644e+3, 1.8743573e+2, -905041.8, -1237870.9, 59316.4, -0.0015117564, 0.586464, -894786.5, 208400.67, 0.0000011329788, 10.002475, 9.998041 
2.5851908e+3, 1.9743344e+2, -883374.6, -1182378.3, 56493.07, -0.020128306, 0.5825711, -873056.94, 132153.16, 0.0, 10.001975, 9.997991 
2.5851178e+3, 2.0743154e+2, -831662.7, -1031614.25, 70918.75, -0.018378876, 0.5886282, -809063.5, 98165.28, 0.0, 10.001335, 9.99866 
2.5850448e+3, 2.1743e+2, -836173.56, -986255.3, 71788.25, -0.009424953, 0.5981439, -807365.06, 1878.58, 0.0, 10.000646, 9.9986315 
2.5849718e+3, 2.2742867e+2, -765515.6, -816731.25, 64181.344, -0.012226241, 0.59363335, -722022.0, -10765.195, 0.0, 10.000093, 9.999388 
2.5848988e+3, 2.3742767e+2, -748283.0, -771724.25, 58017.902, -0.018014235, 0.5834761, -700813.7, -87546.48, 0.0, 9.9995985, 9.999263 
2.5848258e+3, 2.4742702e+2, -688552.3, -642277.8, 56330.848, -0.012371597, 0.60230553, -604517.6, -89243.62, 0.0, 9.999121, 9.999708 
2.5847527e+3, 2.574267e+2, -666497.8, -591222.2, 60331.918, -0.0053063296, 0.62975484, -557750.6, -140472.92, 0.0, 9.998644, 9.999617 
2.58468e+3, 2.674261e+2, -610072.06, -451669.5, 51122.098, -0.002642076, 0.6111038, -436603.53, -117319.81, 0.0, 9.998092, 10.000168 
2.584607e+3, 2.7742565e+2, -606161.2, -412846.34, 50967.293, 0.0076266, 0.5792901, -400231.97, -178943.84, 0.0, 9.997505, 10.000045 
2.584534e+3, 2.8742608e+2, -560515.8, -288010.34, 42101.742, 0.024455845, 0.6242069, -281653.94, -158370.33, 0.0, 9.996918, 10.000513 
2.5844607e+3, 2.9742682e+2, -559407.2, -253207.42, 43079.234, 0.015680736, 0.67579937, -247262.05, -221986.23, 0.0, 9.996323, 10.000367 
2.584387e+3, 3.0742562e+2, -532924.06, -133811.73, 18183.766, -0.018407663, 0.51577646, -132984.98, -132984.98, 0.0, 9.995818, 10.001093 
2.5843143e+3, 3.1742638e+2, -592308.3, -151175.75, -14056.166, 0.11190093, 0.5171988, -150728.33, -150728.33, 0.0, 9.995362, 10.001194 
2.5957128e+3, 1.2752774e+2, -1115506.0, -1741540.1, 14085.664, -0.01266955, 0.61534363, -1115189.1, 575096.9, 0.055670004, 10.005784, 9.997031 
2.5956386e+3, 1.3752435e+2, -1092955.3, -1690912.5, -6617.054, 0.0014282448, 0.6035048, -1092882.0, 499438.78, 0.037639957, 10.005182, 9.996996 
2.5955638e+3, 1.4752135e+2, -1011997.7, -1519948.3, 504.51868, -0.010830447, 0.59327865, -1011997.2, 482351.94, 0.020488804, 10.004631, 9.997761 
2.5954893e+3, 1.5751871e+2, -999011.5, -1493592.9, 10649.441, -0.018093737, 0.5837795, -998782.3, 397590.66, 0.008003922, 10.004119, 9.997516 
2.5954148e+3, 1.6751583e+2, -973685.25, -1422017.6, 33221.24, 0.00093247415, 0.5761491, -971236.94, 327163.78, 0.0018292197, 10.003562, 9.9976015 
2.5953412e+3, 1.7751306e+2, -966666.3, -1381919.8, 32087.938, 0.02423929, 0.56947297, -964201.44, 236226.7, 0.00014928778, 10.002993, 9.997479 
2.5952667e+3, 1.8751056e+2, -912642.5, -1255084.6, 40664.414, 0.0033129833, 0.58054036, -907879.9, 194573.48, 0.0000007786236, 10.002477, 9.997925 
2.5951925e+3, 1.9750835e+2, -887066.6, -1191963.8, 36302.586, -0.031901892, 0.59618133, -882803.9, 121671.92, 0.0, 10.001979, 9.997925 
2.5951186e+3, 2.0750622e+2, -825972.9, -1021722.94, 45002.184, -0.025176402, 0.5784457, -816122.7, 90373.414, 0.0, 10.001339, 9.998729 
2.5950453e+3, 2.1750437e+2, -835032.9, -985646.5, 47923.68, -0.0034596424, 0.54952604, -821077.2, -12563.774, 0.0, 10.0006485, 9.998636 
2.5949717e+3, 2.2750321e+2, -780205.75, -849249.1, 45849.7, -0.007630528, 0.5727419, -757334.56, -46808.94, 0.0, 10.000097, 9.999165 
2.594898e+3, 2.3750247e+2, -757671.8, -793585.5, 39250.15, -0.02046393, 0.6133618, -732465.94, -119931.95, 0.0, 9.999604, 9.999112 
2.5948244e+3, 2.475015e+2, -682985.6, -633388.2, 37938.4, -0.013391546, 0.6009091, -612862.56, -98319.02, 0.0, 9.999127, 9.999768 
2.594751e+3, 2.5750068e+2, -664113.06, -589097.6, 41105.46, -0.0014515603, 0.56977034, -570959.25, -154407.84, 0.0, 9.998651, 9.99963 
2.5946775e+3, 2.6750043e+2, -618205.44, -471504.3, 28444.688, -0.014944605, 0.594808, -466182.1, -147627.89, 0.0, 9.998099, 10.0000305 
2.594604e+3, 2.7750054e+2, -610575.3, -425344.63, 28184.033, -0.02954737, 0.6339908, -421151.2, -200597.52, 0.0, 9.997515, 9.999956 
2.5945306e+3, 2.8750014e+2, -553517.56, -274346.03, 18544.826, 0.013937438, 0.59548783, -273119.53, -150562.7, 0.0, 9.996917, 10.000609 
2.5944573e+3, 2.9749995e+2, -554832.44, -240288.95, 21725.588, 0.053453967, 0.54713005, -238795.45, -214238.23, 0.0, 9.996304, 10.000467 
2.5943825e+3, 3.075009e+2, -542759.44, -156233.67, 489.1559, -0.014917393, 0.5989028, -156233.06, -156233.06, 0.0, 9.995822, 10.00094 
2.5943094e+3, 3.1750104e+2, -511977.97, -402.0082, -6058.309, 0.09691359, 0.5496002, -330.2731, -330.2731, 0.0, 9.995423, 10.002204 
2.6057184e+3, 1.2760252e+2, -1124655.5, -1732693.6, 11153.489, -0.023965674, 0.61051047, -1124451.0, 565102.25, 0.049998254, 10.00563, 9.997165 
2.6056436e+3, 1.3759926e+2, -1126805.6, -1694817.0, 17998.05, 0.0038617107, 0.5990587, -1126235.9, 465350.72, 0.033554863, 10.00487, 9.997118 
2.6055682e+3, 1.4759637e+2, -1044980.06, -1528099.4, 26279.35, -0.0069014095, 0.59231555, -1043554.8, 450059.13, 0.018035667, 10.004361, 9.997832 
2.605493e+3, 1.5759385e+2, -1017350.3, -1492888.1, 15541.325, -0.01581254, 0.5871008, -1016842.94, 378794.0, 0.006886745, 10.003952, 9.997599 
2.605418e+3, 1.6759102e+2, -995665.9, -1419502.4, 31658.576, -0.0020534855, 0.57596374, -993314.2, 304349.72, 0.0015061373, 10.003358, 9.997715 
2.6053435e+3, 1.7758828e+2, -1000949.5, -1386810.0, 37111.39, 0.014799199, 0.5623583, -997412.56, 202278.0, 0.00011086662, 10.002712, 9.997578 
2.6052687e+3, 1.8758583e+2, -945236.8, -1265765.4, 59202.043, 0.0012605306, 0.5727434, -934651.7, 167063.52, 0.00000050618763, 10.002236, 9.997964 
2.6051942e+3, 1.9758369e+2, -907765.75, -1197677.0, 62490.836, -0.021957515, 0.5909304, -894869.44, 108867.6, 0.0, 10.001824, 9.997958 
2.60512e+3, 2.0758158e+2, -837439.25, -1028131.8, 63584.758, -0.020641753, 0.5737177, -818182.2, 87575.125, 0.0, 10.00127, 9.998715 
2.6050457e+3, 2.1757968e+2, -834813.8, -988523.3, 61430.01, -0.010429571, 0.5436645, -813280.06, -5505.136, 0.0, 10.000669, 9.998605 
2.6049715e+3, 2.2757842e+2, -780215.44, -860739.25, 67886.77, -0.014135879, 0.565943, -741549.3, -31761.3, 0.0, 10.000153, 9.999057 
2.6048973e+3, 2.3757757e+2, -754563.2, -800612.4, 69105.484, -0.021710396, 0.6063472, -704747.5, -92950.04, 0.0, 9.999668, 9.99903 
2.6048234e+3, 2.4757652e+2, -684484.1, -636868.2, 64074.168, -0.013937133, 0.5916092, -592321.8, -78514.19, 0.0, 9.999135, 9.999739 
2.6047495e+3, 2.5757563e+2, -677182.44, -598893.44, 59960.313, -0.0038093121, 0.55740273, -566431.1, -150615.25, 0.0, 9.998582, 9.999593 
2.6046753e+3, 2.6757532e+2, -625253.5, -482908.06, 47964.35, -0.020908667, 0.58538705, -468254.6, -150435.44, 0.0, 9.998091, 9.999953 
2.604601e+3, 2.7757543e+2, -598334.44, -422815.13, 51755.86, -0.037656244, 0.628829, -408690.4, -188871.19, 0.0, 9.997618, 9.999922 
2.6045275e+3, 2.875749e+2, -515533.53, -246481.73, 41520.977, 0.015217451, 0.574632, -240219.81, -118396.445, 0.0, 9.997142, 10.0006895 
2.6044533e+3, 2.975746e+2, -504374.13, -212937.03, 41131.457, 0.062366474, 0.5096038, -207243.25, -183418.88, 0.0, 9.996644, 10.000486 
2.604378e+3, 3.07576e+2, -551976.6, -189004.25, 8681.978, -0.027133333, 0.62094545, -188796.7, -188796.7, 0.0, 9.995884, 10.000684 
2.6043046e+3, 3.1757635e+2, -503199.72, 104920.805, 16082.361, 0.10769482, 0.611394, 105345.82, 105345.82, 0.0, 9.995051, 10.003105 
2.6157233e+3, 1.2767752e+2, -1094225.4, -1666109.6, -16859.057, -0.037867118, 0.5952228, -1093728.8, 595089.8, 0.044605166, 10.0055895, 9.997649 
2.615648e+3, 1.3767485e+2, -1106564.1, -1651444.8, -7944.52, -0.01055235, 0.5968191, -1106448.3, 484396.47, 0.02969874, 10.004849, 9.997428 
2.6155722e+3, 1.4767197e+2, -1058899.3, -1557777.3, 10818.656, -0.00768864, 0.5911839, -1058664.8, 434207.7, 0.015748292, 10.004349, 9.997638 
2.6154968e+3, 1.576692e+2, -1025092.94, -1508294.0, -1754.9209, 0.0037763598, 0.58144367, -1025086.56, 369812.3, 0.005869248, 10.003941, 9.997501 
2.615421e+3, 1.6766648e+2, -983522.4, -1395446.1, 7567.794, 0.000040099425, 0.5718245, -983383.4, 313541.56, 0.0012257247, 10.003358, 9.997883 
2.6153454e+3, 1.7766394e+2, -987334.44, -1361623.3, 15470.65, -0.013911949, 0.56200415, -986696.06, 212253.11, 0.00008099668, 10.002721, 9.997749 
2.6152706e+3, 1.8766156e+2, -932727.9, -1241825.0, 44314.93, -0.006720104, 0.56279176, -926500.0, 174472.69, 0.0000003029647, 10.002241, 9.998129 
2.615196e+3, 1.9765943e+2, -900865.1, -1183930.4, 45508.21, 0.008603773, 0.5680279, -893728.7, 109265.18, 0.0, 10.001822, 9.998055 
2.6151207e+3, 2.0765753e+2, -844978.9, -1045185.9, 41076.043, -0.0061491476, 0.5753545, -836879.1, 68133.33, 0.0, 10.001271, 9.998599 
2.6150456e+3, 2.1765588e+2, -839800.4, -1000893.8, 40367.4, -0.031737685, 0.58111346, -830251.06, -23222.768, 0.0, 10.000672, 9.99852 
2.614971e+3, 2.2765428e+2, -779806.0, -862154.4, 50071.637, -0.031896934, 0.57211035, -756153.6, -47109.324, 0.0, 10.000157, 9.999047 
2.6148966e+3, 2.376529e+2, -756079.4, -806047.1, 50142.594, -0.020782676, 0.55895764, -725041.2, -113982.89, 0.0, 9.999674, 9.998993 
2.6148224e+3, 2.4765205e+2, -694109.44, -658530.7, 42510.266, -0.014102296, 0.57524043, -630237.7, -117171.18, 0.0, 9.999138, 9.999591 
2.614748e+3, 2.5765157e+2, -684450.1, -615163.0, 39080.01, -0.013991757, 0.5995368, -597581.9, -182510.83, 0.0, 9.998583, 9.999483 
2.614673e+3, 2.6765078e+2, -626639.7, -486784.38, 29283.498, -0.019420668, 0.5817245, -480900.4, -163821.27, 0.0, 9.998091, 9.999929 
2.6145986e+3, 2.7765012e+2, -597360.75, -421923.28, 33397.37, -0.012760921, 0.5501374, -415780.63, -196694.27, 0.0, 9.997618, 9.99993 
2.6145244e+3, 2.8765032e+2, -512176.25, -242182.63, 22824.545, 0.029365988, 0.56691694, -240266.69, -119183.55, 0.0, 9.9971485, 10.000718 
2.6144496e+3, 2.9765102e+2, -508829.3, -227382.83, 17973.654, 0.037972346, 0.59669346, -226239.64, -203164.88, 0.0, 9.996662, 10.000381 
2.614373e+3, 3.0765042e+2, -576260.75, -239523.4, -27000.805, -0.06323021, 0.5407858, -237372.14, -237372.14, 0.0, 9.99588, 10.000341 
2.6143e+3, 3.1765133e+2, -515283.97, 94244.74, -18985.773, 0.16349767, 0.6079157, 94835.55, 94835.55, 0.0, 9.99499, 10.003061 
2.6257282e+3, 1.277532e+2, -1160241.9, -1679274.6, 7906.672, -0.048213966, 0.58792007, -1160121.5, 527955.25, 0.039510798, 10.005008, 9.997833 
2.6256523e+3, 1.377508e+2, -1119779.1, -1639690.9, -664.703, -0.018649314, 0.59892666, -1119778.3, 470321.66, 0.026086714, 10.004664, 9.997596 
2.625576e+3, 1.4774802e+2, -1081875.3, -1557052.1, 27945.604, -0.014194526, 0.5902474, -1080237.4, 411889.44, 0.013634968, 10.004134, 9.997743 
2.6255003e+3, 1.5774529e+2, -1073182.3, -1518111.6, 33149.344, 0.00014913252, 0.5734562, -1070726.0, 323427.2, 0.0049531385, 10.003554, 9.997618 
2.625424e+3, 1.677427e+2, -1005657.5, -1389506.3, 46480.867, -0.0065347482, 0.5671698, -1000109.25, 296068.56, 0.0009863466, 10.00314, 9.998025 
2.625348e+3, 1.7774038e+2, -969093.6, -1337079.9, 51218.094, -0.025789525, 0.5643944, -962097.8, 236102.14, 0.000058453912, 10.002785, 9.997884 
2.6252726e+3, 1.8773806e+2, -935186.7, -1231933.5, 73253.33, -0.013467855, 0.5620992, -918088.94, 182133.66, 0.00000016598092, 10.002182, 9.998222 
2.6251972e+3, 1.9773595e+2, -943513.6, -1198015.8, 69568.01, 0.011109766, 0.5602356, -925738.7, 76504.83, 0.0, 10.001507, 9.998108 
2.6251218e+3, 2.0773405e+2, -876816.4, -1068480.1, 67994.6, -0.0044315876, 0.5719548, -855145.0, 49117.207, 0.0, 10.001093, 9.998523 
2.625046e+3, 2.1773241e+2, -831268.0, -1003287.3, 67972.4, -0.034698315, 0.5869146, -807651.44, -1373.0759, 0.0, 10.000766, 9.998456 
2.624971e+3, 2.2773069e+2, -780235.8, -868429.3, 71929.87, -0.033077136, 0.5740063, -739961.75, -31666.605, 0.0, 10.000186, 9.998987 
2.624896e+3, 2.3772915e+2, -782635.06, -825362.25, 69595.87, -0.017635414, 0.5514634, -731197.6, -120887.36, 0.0, 9.999525, 9.998929 
2.624821e+3, 2.4772821e+2, -711759.9, -677823.2, 65840.414, -0.0085092, 0.56708556, -626799.75, -114480.27, 0.0, 9.999068, 9.999489 
2.624746e+3, 2.5772765e+2, -676617.3, -619918.5, 64757.242, -0.0068969233, 0.5944762, -577577.1, -163252.27, 0.0, 9.998677, 9.999403 
2.624671e+3, 2.6772678e+2, -618316.06, -485995.2, 53272.473, -0.017277926, 0.57388866, -467213.53, -150879.72, 0.0, 9.998166, 9.999896 
2.624596e+3, 2.7772602e+2, -599174.1, -423197.75, 57427.434, -0.015936641, 0.537242, -406115.34, -187773.52, 0.0, 9.997613, 9.999922 
2.6245213e+3, 2.8772634e+2, -493703.44, -231652.22, 48325.03, 0.035986606, 0.5654435, -223024.61, -102687.35, 0.0, 9.997273, 10.000729 
2.6244462e+3, 2.9772717e+2, -464940.97, -207766.05, 36182.97, 0.053417344, 0.6082266, -202772.3, -180444.88, 0.0, 9.996972, 10.000366 
2.6243687e+3, 3.07726e+2, -535704.06, -219979.92, -4432.618, -0.09676124, 0.49720457, -219917.7, -219917.7, 0.0, 9.996162, 10.000338 
2.6242945e+3, 3.1772712e+2, -497711.03, 53941.758, 26684.563, 0.14958186, 0.5870093, 55229.535, 55229.535, 0.0, 9.99533, 10.002616 
2.635733e+3, 1.278296e+2, -1162673.0, -1689254.5, -4452.688, -0.057293877, 0.5893276, -1162635.4, 524692.25, 0.034729037, 10.005002, 9.9977665 
2.6356566e+3, 1.3782717e+2, -1119643.8, -1635951.1, -15145.565, -0.023136454, 0.60450274, -1119199.9, 470151.63, 0.022726301, 10.004631, 9.99764 
2.6355797e+3, 1.4782456e+2, -1061069.6, -1511063.9, 5962.8115, -0.02642521, 0.5890001, -1060990.6, 430385.9, 0.011698813, 10.004112, 9.998072 
2.635503e+3, 1.5782206e+2, -1055275.6, -1479734.6, 12940.534, -0.023336306, 0.56323934, -1054881.5, 338518.84, 0.0041374727, 10.003542, 9.997889 
2.6354268e+3, 1.678197e+2, -999770.6, -1375783.5, 33259.086, -0.020300103, 0.56237805, -996851.5, 298571.3, 0.0007851616, 10.003129, 9.998127 
2.6353502e+3, 1.7781757e+2, -965087.5, -1326964.0, 34622.934, -0.023148311, 0.5697867, -961804.7, 235638.53, 0.00004180925, 10.002773, 9.997961 
2.6352745e+3, 1.8781532e+2, -935064.5, -1231923.1, 47351.277, -0.020297362, 0.5702262, -927694.56, 171770.61, 0.00000008213487, 10.002179, 9.998226 
2.6351982e+3, 1.9781318e+2, -943086.25, -1199343.9, 47734.836, -0.01348161, 0.5669036, -934483.2, 67002.92, 0.0, 10.001512, 9.998099 
2.6351225e+3, 2.078111e+2, -879545.44, -1076434.6, 56353.375, -0.014215391, 0.56300443, -864557.06, 38949.74, 0.0, 10.001099, 9.998468 
2.6350468e+3, 2.1780922e+2, -835173.7, -1013341.7, 52753.35, -0.018503726, 0.55984205, -820725.7, -15200.267, 0.0, 10.00077, 9.998387 
2.6349708e+3, 2.2780764e+2, -788627.3, -887308.8, 46850.58, -0.017931847, 0.5723639, -769927.75, -62386.91, 0.0, 10.000189, 9.998858 
2.634895e+3, 2.3780635e+2, -789704.8, -841231.44, 47135.914, -0.013708207, 0.5873274, -761750.94, -152197.4, 0.0, 9.999526, 9.998821 
2.63482e+3, 2.4780497e+2, -716195.94, -688669.2, 50971.504, 0.0032708726, 0.56634045, -649635.56, -138068.75, 0.0, 9.999071, 9.999415 
2.634745e+3, 2.5780374e+2, -680287.5, -629866.7, 48040.676, 0.019264076, 0.5357632, -600823.4, -187245.06, 0.0, 9.998683, 9.999333 
2.634669e+3, 2.678033e+2, -622272.25, -495717.34, 31194.166, -0.0154424785, 0.5634198, -488446.16, -172862.84, 0.0, 9.998168, 9.999831 
2.6345927e+3, 2.7780324e+2, -602784.7, -431517.03, 38761.637, -0.05241926, 0.60449624, -423152.9, -205568.28, 0.0, 9.997612, 9.999867 
2.6345184e+3, 2.8780288e+2, -494499.78, -235179.36, 37375.73, 0.0346746, 0.56805223, -229899.89, -110313.445, 0.0, 9.997277, 10.000705 
2.6344436e+3, 2.9780278e+2, -456878.25, -193927.7, 16656.146, 0.11654634, 0.5165061, -192876.84, -171291.36, 0.0, 9.99698, 10.00046 
2.634364e+3, 3.0780303e+2, -508004.9, -165042.19, -41244.63, -0.12683439, 0.5206984, -160151.86, -160151.86, 0.0, 9.996168, 10.000714 
2.634289e+3, 3.1780395e+2, -537057.44, -38243.23, 21702.152, 0.103248924, 0.57166284, -37300.805, -37300.805, 0.0, 9.995364, 10.001972 
2.6457375e+3, 1.2790638e+2, -1157956.3, -1673626.6, 10516.567, -0.0683127, 0.57682455, -1157741.9, 528832.44, 0.03027736, 10.004957, 9.997896 
2.6456603e+3, 1.3790415e+2, -1195622.3, -1657947.3, 14163.826, -0.032406975, 0.5982951, -1195188.8, 393407.6, 0.019627592, 10.004024, 9.997779 
2.6455832e+3, 1.479017e+2, -1132661.5, -1528798.4, 36492.563, -0.036189605, 0.5860528, -1129327.9, 361292.13, 0.009943062, 10.003541, 9.998221 
2.645506e+3, 1.5789935e+2, -1090023.3, -1479003.0, 31458.326, -0.033328153, 0.56218445, -1087495.6, 305146.8, 0.0034202537, 10.003231, 9.998041 
2.6454294e+3, 1.6789714e+2, -1040226.06, -1378839.0, 50513.23, -0.027336838, 0.56178707, -1032851.3, 261812.2, 0.00061876065, 10.002786, 9.998268 
2.6453525e+3, 1.7789516e+2, -1025357.8, -1341927.6, 52317.016, -0.02583529, 0.56918365, -1016935.9, 179746.75, 0.00002971142, 10.002303, 9.998082 
2.6452762e+3, 1.8789299e+2, -972425.3, -1242089.6, 65236.57, -0.021450652, 0.57050264, -957472.56, 141231.02, 0.000000036221024, 10.001895, 9.99829 
2.6451996e+3, 1.9789091e+2, -942084.9, -1195775.9, 70142.12, -0.014556818, 0.5683785, -923983.2, 76740.52, 0.0, 10.0015135, 9.998119 
2.6451233e+3, 2.0788871e+2, -892193.1, -1094647.1, 79831.28, -0.012863936, 0.5590967, -864501.8, 38243.887, 0.0, 10.00107, 9.998354 
2.645047e+3, 2.1788663e+2, -863732.0, -1035448.25, 70650.04, -0.013257438, 0.54850084, -838400.9, -33634.477, 0.0, 10.000614, 9.998307 
2.644971e+3, 2.2788505e+2, -777111.9, -882632.7, 66686.12, -0.011175928, 0.5635847, -744838.75, -38056.945, 0.0, 10.000277, 9.998845 
2.6448947e+3, 2.3788379e+2, -730061.5, -816812.3, 74195.46, -0.0065094735, 0.5849391, -687492.75, -78698.91, 0.0, 9.999959, 9.998778 
2.644819e+3, 2.4788229e+2, -684245.8, -688314.44, 74798.92, 0.008262465, 0.5644574, -611453.56, -100645.22, 0.0, 9.99936, 9.999276 
2.644743e+3, 2.5788093e+2, -688818.3, -644323.56, 68129.8, 0.022026086, 0.5311526, -594900.75, -182079.14, 0.0, 9.998675, 9.999235 
2.644667e+3, 2.6788038e+2, -606355.75, -490651.53, 54706.152, -0.010575113, 0.5553317, -468881.88, -154054.55, 0.0, 9.998294, 9.999803 
2.6445904e+3, 2.7788028e+2, -549805.5, -407978.2, 63429.117, -0.046169832, 0.5941493, -383749.84, -166921.02, 0.0, 9.997988, 9.9998455 
2.6445153e+3, 2.8787985e+2, -495077.8, -238026.64, 59427.3, 0.035145547, 0.5556558, -224952.69, -106121.234, 0.0, 9.997289, 10.000677 
2.6444402e+3, 2.978797e+2, -522646.94, -215830.3, 37124.965, 0.11693071, 0.5037289, -211402.06, -190570.88, 0.0, 9.996493, 10.000541 
2.6443604e+3, 3.0788052e+2, -469731.22, -107161.31, -24457.139, -0.10548985, 0.53998524, -105519.0, -105519.0, 0.0, 9.996267, 10.001061 
2.6442844e+3, 3.178811e+2, -481447.06, -60207.145, 52024.945, 0.11133509, 0.53433937, -53876.97, -53876.97, 0.0, 9.995959, 10.001533 
2.655742e+3, 1.2798361e+2, -1141405.3, -1635679.3, -24169.482, -0.08426449, 0.55281866, -1140226.3, 545590.1, 0.026173525, 10.004918, 9.998184 
2.655664e+3, 1.3798177e+2, -1179500.0, -1628218.6, -14374.437, -0.045193102, 0.5837711, -1179040.0, 408794.4, 0.01680133, 10.004027, 9.997983 
2.6555863e+3, 1.4797948e+2, -1132465.6, -1531760.6, 24991.271, -0.043295346, 0.5826452, -1130907.5, 358949.47, 0.008369928, 10.003546, 9.998201 
2.655509e+3, 1.5797722e+2, -1088725.0, -1475212.9, 17911.97, -0.033620313, 0.5693362, -1087896.6, 303982.63, 0.0027981969, 10.003221, 9.998075 
2.655432e+3, 1.6797508e+2, -1029868.56, -1357338.3, 32076.91, -0.03036077, 0.56491953, -1026756.06, 267143.7, 0.00048341588, 10.002781, 9.998421 
2.6553544e+3, 1.7797315e+2, -1014759.56, -1321908.1, 34986.688, -0.033778023, 0.5631846, -1010824.7, 185093.44, 0.00002102674, 10.002308, 9.9982195 
2.6552776e+3, 1.8797109e+2, -964210.75, -1227214.3, 50792.37, -0.016953684, 0.5634726, -954742.4, 143195.36, 0.000000014940222, 10.0019, 9.998392 
2.655201e+3, 1.9796914e+2, -939644.44, -1192675.8, 54835.516, 0.0066298186, 0.56379884, -928271.94, 71684.46, 0.0, 10.001517, 9.99814 
2.6551244e+3, 2.0796686e+2, -904593.2, -1122181.8, 62552.875, -0.0017278141, 0.5600401, -887892.25, 14086.895, 0.0, 10.001074, 9.998165 
2.6550475e+3, 2.1796466e+2, -870338.44, -1050705.5, 55616.39, -0.020449635, 0.5539478, -854567.94, -50566.54, 0.0, 10.000617, 9.998203 
2.654971e+3, 2.2796288e+2, -770489.0, -871113.75, 55890.523, -0.012837943, 0.54704237, -745601.1, -39582.684, 0.0, 10.000282, 9.998924 
2.6548946e+3, 2.3796141e+2, -728425.25, -816904.06, 58452.715, 0.0043900292, 0.541479, -699358.1, -91326.195, 0.0, 9.9999695, 9.998775 
2.654818e+3, 2.479602e+2, -698544.56, -720437.94, 47535.56, 0.0051591704, 0.5626766, -660711.56, -150667.38, 0.0, 9.999366, 9.999055 
2.6547414e+3, 2.579592e+2, -698879.6, -666163.56, 45753.734, -0.0021558122, 0.5876652, -633931.56, -221877.05, 0.0, 9.998675, 9.999087 
2.654665e+3, 2.6795796e+2, -605476.56, -491086.25, 43793.04, -0.0010055384, 0.5473333, -476245.9, -162179.58, 0.0, 9.9983, 9.999799 
2.6545885e+3, 2.7795687e+2, -547528.0, -407285.44, 46045.58, 0.01108867, 0.4901421, -393518.75, -177442.53, 0.0, 9.998001, 9.999846 
2.6545122e+3, 2.8795722e+2, -499756.38, -246968.44, 26151.271, 0.034543436, 0.5289777, -244291.39, -126218.89, 0.0, 9.997281, 10.000622 
2.6544353e+3, 2.9795823e+2, -525181.5, -213723.75, 14207.184, 0.03463064, 0.5975171, -213077.03, -193014.58, 0.0, 9.996456, 10.000575 
2.6543573e+3, 3.0795828e+2, -449269.5, -66049.42, -26168.166, -0.006619022, 0.5373795, -64270.785, -64270.785, 0.0, 9.996269, 10.001345 
2.65428e+3, 3.1795865e+2, -502464.06, -112898.414, 32242.158, 0.087526225, 0.49020964, -110247.945, -110247.945, 0.0, 9.995994, 10.001157 
2.6657462e+3, 1.2806149e+2, -1221748.5, -1665422.5, 7667.4966, -0.09274073, 0.5210657, -1221616.0, 463435.3, 0.022423627, 10.004299, 9.99827 
2.6656678e+3, 1.3805994e+2, -1168619.1, -1615671.8, 5055.2876, -0.05425526, 0.57404405, -1168562.0, 418505.13, 0.01424739, 10.0040655, 9.998048 
2.6655895e+3, 1.4805773e+2, -1136661.1, -1532602.0, 43657.117, -0.050682656, 0.57779187, -1131904.6, 357184.75, 0.0069746636, 10.003512, 9.998209 
2.6655117e+3, 1.5805547e+2, -1134973.8, -1491653.3, 38951.645, -0.038024236, 0.56425637, -1130769.5, 260342.45, 0.0022651928, 10.00288, 9.998122 
2.6654342e+3, 1.6805343e+2, -1061674.3, -1358239.3, 54856.688, -0.033848412, 0.5613834, -1051852.5, 241279.05, 0.00037478036, 10.002506, 9.998544 
2.6653564e+3, 1.7805164e+2, -1021300.06, -1313933.3, 54794.008, -0.037401907, 0.5614283, -1011376.7, 183771.86, 0.000014821744, 10.002222, 9.998312 
2.6652792e+3, 1.8804957e+2, -969751.94, -1228585.6, 64424.59, -0.024132548, 0.55813086, -954603.06, 142565.11, 0.000000005798, 10.001863, 9.998398 
2.665202e+3, 1.9804756e+2, -944550.06, -1194282.5, 61095.76, -0.004083529, 0.5540005, -930404.56, 68782.74, 0.0, 10.001485, 9.998143 
2.665125e+3, 2.0804533e+2, -902531.8, -1121289.9, 74557.805, -0.0046369615, 0.55409884, -879537.75, 21671.885, 0.0, 10.001093, 9.998158 
2.665048e+3, 2.1804316e+2, -861323.2, -1047076.2, 78659.17, -0.012356036, 0.55366945, -832489.75, -29258.322, 0.0, 10.000688, 9.998191 
2.664971e+3, 2.2804129e+2, -791851.9, -887352.9, 74591.97, -0.004014064, 0.541739, -751035.56, -45786.3, 0.0, 10.000166, 9.998866 
2.6648942e+3, 2.3803969e+2, -781770.0, -847061.5, 68360.73, 0.010676135, 0.5280358, -738660.0, -131395.83, 0.0, 9.999628, 9.998729 
2.6648173e+3, 2.4803844e+2, -700623.75, -725505.8, 64344.168, 0.008408146, 0.55197567, -647528.94, -138252.38, 0.0, 9.999374, 9.999013 
2.66474e+3, 2.5803748e+2, -628496.56, -634991.94, 73651.66, -0.001673753, 0.58377767, -558021.06, -146734.31, 0.0, 9.999174, 9.99906 
2.6646632e+3, 2.6803616e+2, -582071.5, -481548.9, 70178.78, 0.011067458, 0.53896844, -445489.53, -132190.34, 0.0, 9.998472, 9.999779 
2.6645863e+3, 2.7803496e+2, -605220.9, -439154.44, 69988.63, 0.04014537, 0.4727833, -413592.44, -198282.25, 0.0, 9.997628, 9.999804 
2.6645094e+3, 2.8803533e+2, -517631.25, -270449.6, 42958.387, 0.041477248, 0.52747715, -263196.56, -145889.97, 0.0, 9.997227, 10.0004835 
2.6644313e+3, 2.9803643e+2, -455840.06, -179106.8, 27657.38, 0.0053581693, 0.61774546, -176369.72, -157073.3, 0.0, 9.996931, 10.000582 
2.6643538e+3, 3.080363e+2, -418077.56, -19084.533, -6164.239, 0.048019916, 0.5164713, -18989.322, -18989.322, 0.0, 9.99635, 10.001627 
2.6642752e+3, 3.1803724e+2, -522048.66, -146112.53, 56568.01, 0.028336674, 0.5089374, -137785.08, -137785.08, 0.0, 9.995968, 10.000938 
2.6757503e+3, 1.2814003e+2, -1227376.8, -1679427.9, -859.6809, -0.09527794, 0.48470804, -1227375.1, 456904.38, 0.01901623, 10.004292, 9.998177 
2.6756713e+3, 1.3813868e+2, -1174611.8, -1626590.0, -7955.6636, -0.06339448, 0.568773, -1174471.8, 411822.38, 0.011951165, 10.0040455, 9.997985 
2.6755926e+3, 1.4813647e+2, -1135960.3, -1531181.1, 19237.967, -0.06081383, 0.5718711, -1135026.1, 353290.9, 0.005744597, 10.003504, 9.998225 
2.6755145e+3, 1.5813412e+2, -1130509.5, -1485158.4, 18854.213, -0.04580181, 0.5487474, -1129510.0, 260830.47, 0.0018121655, 10.002887, 9.998166 
2.675436e+3, 1.6813223e+2, -1055002.8, -1346268.6, 44420.645, -0.037010457, 0.5520834, -1048378.8, 243979.81, 0.00028800286, 10.00251, 9.998626 
2.6753584e+3, 1.781306e+2, -1019458.5, -1310084.3, 43027.77, -0.037574504, 0.56273615, -1013221.94, 181151.98, 0.000010388344, 10.002217, 9.998343 
2.6752806e+3, 1.8812843e+2, -976423.94, -1243574.9, 50509.11, -0.042920925, 0.5543199, -967193.4, 129201.49, 0.0000000017280947, 10.0018635, 9.998297 
2.6752028e+3, 1.9812626e+2, -945377.75, -1198198.8, 47413.84, -0.04564854, 0.54036623, -936778.3, 61637.83, 0.0, 10.001491, 9.998116 
2.6751256e+3, 2.0812412e+2, -891646.5, -1100460.1, 59939.336, -0.020355461, 0.541849, -875664.3, 24772.88, 0.0, 10.001097, 9.998302 
2.6750487e+3, 2.1812212e+2, -857191.0, -1040269.44, 61901.535, 0.01126608, 0.5469351, -838225.8, -35769.055, 0.0, 10.000691, 9.998238 
2.674971e+3, 2.2812027e+2, -805395.25, -916965.56, 53563.77, 0.014766745, 0.547993, -783843.1, -79368.38, 0.0, 10.000169, 9.998663 
2.6748934e+3, 2.3811859e+2, -788314.25, -861198.2, 51863.684, 0.011080318, 0.5463723, -761369.6, -154879.0, 0.0, 9.999626, 9.998634 
2.6748165e+3, 2.4811701e+2, -690679.44, -707004.5, 58147.02, 0.019052485, 0.53024143, -640124.8, -131618.9, 0.0, 9.99938, 9.99914 
2.6747394e+3, 2.5811565e+2, -620073.5, -622398.94, 59029.844, 0.026102733, 0.5127261, -562194.94, -151675.89, 0.0, 9.999191, 9.99914 
2.6746613e+3, 2.6811498e+2, -585524.0, -490017.97, 35983.035, 0.024070162, 0.5331944, -477978.6, -165452.83, 0.0, 9.998473, 9.9997225 
2.6745838e+3, 2.7811465e+2, -616154.9, -457902.72, 43842.83, 0.03287615, 0.55979675, -446568.16, -232038.77, 0.0, 9.997607, 9.999687 
2.6745063e+3, 2.8811422e+2, -535910.1, -308179.7, 32931.613, 0.060432207, 0.5524184, -303513.13, -186979.08, 0.0, 9.997222, 10.00023 
2.6744288e+3, 2.9811406e+2, -455076.38, -183744.0, 10850.731, 0.05079887, 0.5400013, -183310.77, -164774.77, 0.0, 9.996954, 10.000541 
2.6743495e+3, 3.0811453e+2, -400669.6, 17461.18, -33642.36, 0.024163093, 0.48336074, 20150.709, 20150.709, 0.0, 9.996343, 10.0018835 
2.674271e+3, 3.1811678e+2, -518459.94, -135651.6, 62409.168, 0.028189005, 0.58775645, -125733.98, -125733.98, 0.0, 9.995951, 10.0010195 
2.6857543e+3, 1.2821919e+2, -1259530.5, -1693559.9, 14793.849, -0.088529035, 0.47532383, -1259026.9, 424475.4, 0.015928002, 10.004049, 9.998194 
2.6856747e+3, 1.3821785e+2, -1236006.5, -1652755.3, 13007.579, -0.0835223, 0.55785614, -1235601.0, 349916.47, 0.009892713, 10.0036, 9.998017 
2.6855955e+3, 1.4821567e+2, -1175931.3, -1544898.9, 39933.34, -0.08042279, 0.5613933, -1171658.8, 315881.16, 0.0046648285, 10.003206, 9.998272 
2.6855168e+3, 1.5821339e+2, -1134434.9, -1480628.9, 41726.5, -0.0564455, 0.5395933, -1129476.6, 260086.3, 0.0014291723, 10.002836, 9.998219 
2.685438e+3, 1.682115e+2, -1070597.3, -1348272.9, 68034.89, -0.043745667, 0.5397046, -1054823.8, 236757.27, 0.00021846486, 10.002384, 9.998671 
2.68536e+3, 1.7820987e+2, -1058020.5, -1323488.6, 65342.582, -0.04181026, 0.5468537, -1042808.7, 150787.66, 0.0000072154403, 10.001934, 9.998384 
2.685282e+3, 1.8820783e+2, -996395.44, -1248606.6, 81815.55, -0.04494176, 0.54846853, -972180.0, 123436.195, 0.0000000002885943, 10.001711, 9.998332 
2.685204e+3, 1.982058e+2, -937833.8, -1191315.4, 83072.13, -0.0456361, 0.5467702, -913035.1, 84601.24, 0.0, 10.001534, 9.998138 
2.6851264e+3, 2.0820358e+2, -908103.56, -1110013.8, 82069.0, -0.017551847, 0.5411001, -878953.9, 20704.38, 0.0, 10.000996, 9.998282 
2.685049e+3, 2.1820146e+2, -902629.2, -1060848.6, 76188.87, 0.017152822, 0.5347214, -871906.8, -70227.77, 0.0, 10.000379, 9.998245 
2.684971e+3, 2.2819963e+2, -798884.3, -909133.5, 83528.7, 0.01832471, 0.536779, -753930.1, -50233.75, 0.0, 10.000198, 9.9987 
2.684893e+3, 2.3819803e+2, -717438.75, -825216.2, 95561.28, 0.011725431, 0.5394999, -661619.0, -55907.598, 0.0, 10.00011, 9.998647 
2.6848155e+3, 2.4819636e+2, -679183.44, -707256.75, 90778.97, 0.026682213, 0.52023727, -601362.3, -93634.81, 0.0, 9.999488, 9.9990835 
2.684738e+3, 2.581949e+2, -689755.9, -659522.5, 77525.85, 0.043054536, 0.49712816, -595653.3, -185911.31, 0.0, 9.9987335, 9.999103 
2.6846597e+3, 2.6819435e+2, -588442.06, -494613.8, 50422.117, 0.031490833, 0.5309342, -472656.16, -160908.08, 0.0, 9.998472, 9.999688 
2.6845813e+3, 2.7819416e+2, -516771.34, -414378.4, 60060.97, 0.02561785, 0.5772243, -386654.66, -172904.23, 0.0, 9.998313, 9.999644 
2.6845038e+3, 2.8819355e+2, -484258.03, -291843.3, 59237.688, 0.06334995, 0.5598554, -275068.53, -159311.58, 0.0, 9.997619, 10.000148 
2.6844254e+3, 2.981931e+2, -487196.25, -212455.38, 47426.84, 0.071456105, 0.5277243, -204498.8, -186736.88, 0.0, 9.996796, 10.000418 
2.6843455e+3, 3.081936e+2, -394685.16, -4710.822, -25975.342, 0.015106208, 0.49514458, -2988.2693, -2988.2693, 0.0, 9.996497, 10.001654 
2.6842666e+3, 3.1819576e+2, -452352.28, -82707.25, 65744.42, 0.04326805, 0.607829, -71362.26, -71362.26, 0.0, 9.99632, 10.001203 
2.695758e+3, 1.2829897e+2, -1254380.5, -1679939.1, -2948.9, -0.078828655, 0.4858486, -1254360.1, 428360.03, 0.013135274, 10.004024, 9.9983015 
2.695678e+3, 1.3829745e+2, -1229511.1, -1639237.5, -3339.5674, -0.11145646, 0.54175454, -1229483.9, 355252.7, 0.008054957, 10.003591, 9.998117 
2.695598e+3, 1.4829536e+2, -1172827.5, -1538161.9, 26201.51, -0.10659981, 0.5470396, -1170957.9, 315800.16, 0.0037221035, 10.003198, 9.998324 
2.695519e+3, 1.5829325e+2, -1132825.6, -1475750.1, 26756.945, -0.0705652, 0.5355741, -1130750.5, 258029.03, 0.0011068882, 10.002825, 9.99826 
2.6954404e+3, 1.6829126e+2, -1070473.6, -1349559.0, 50741.414, -0.05463806, 0.5246941, -1061534.5, 229264.14, 0.00016239303, 10.002386, 9.998662 
2.6953617e+3, 1.7828947e+2, -1052964.9, -1317246.0, 52309.574, -0.050379697, 0.51650906, -1042987.8, 149827.67, 0.000004929021, 10.001948, 9.998423 
2.6952836e+3, 1.8828778e+2, -985583.4, -1228315.1, 76461.07, -0.03146572, 0.5412893, -963506.0, 131326.33, 0.000000000007316074, 10.001717, 9.998471 
2.6952055e+3, 1.9828616e+2, -935304.3, -1186003.6, 71079.21, -0.00680868, 0.57104623, -916554.0, 80294.484, 0.0, 10.001531, 9.9981785 
2.695127e+3, 2.082837e+2, -920489.8, -1136811.8, 57844.742, 0.0019077499, 0.5506835, -905993.5, -7120.3354, 0.0, 10.000997, 9.998099 
2.6950487e+3, 2.1828115e+2, -904324.94, -1065821.4, 59991.52, 0.004071164, 0.51696104, -884478.6, -83580.266, 0.0, 10.0003805, 9.998212 
2.6949707e+3, 2.2827937e+2, -780143.1, -872633.0, 82356.24, 0.006699829, 0.5078292, -731936.25, -29021.842, 0.0, 10.000204, 9.998949 
2.694893e+3, 2.3827796e+2, -708948.44, -811425.75, 84631.266, 0.012202874, 0.5072919, -661253.56, -56327.004, 0.0, 10.000123, 9.998736 
2.6948148e+3, 2.4827652e+2, -696971.06, -745535.56, 59990.58, 0.03017394, 0.52432287, -656534.75, -149593.44, 0.0, 9.99949, 9.998821 
2.6947367e+3, 2.582752e+2, -704057.2, -686927.7, 55468.52, 0.04689841, 0.543127, -639366.56, -230411.13, 0.0, 9.99872, 9.998922 
2.694658e+3, 2.682741e+2, -589900.56, -498893.28, 46405.246, 0.033126384, 0.5302049, -479404.4, -168437.8, 0.0, 9.998474, 9.99966 
2.6945794e+3, 2.7827325e+2, -510407.9, -408690.88, 46274.48, 0.020149829, 0.51169443, -390789.53, -177814.61, 0.0, 9.998342, 9.999671 
2.6945007e+3, 2.8827327e+2, -474652.4, -275671.56, 25364.154, 0.044721738, 0.5486274, -272489.28, -157513.84, 0.0, 9.99763, 10.000256 
2.6944217e+3, 2.982737e+2, -508261.84, -253204.94, 24102.78, 0.052155767, 0.60024333, -250947.22, -233975.08, 0.0, 9.9967785, 10.000148 
2.694342e+3, 3.0827343e+2, -458013.06, -137590.77, -33472.13, 0.040263176, 0.5617346, -134131.53, -134131.53, 0.0, 9.9965, 10.000742 
2.6942626e+3, 3.1827387e+2, -428873.66, -42585.58, 77622.266, 0.0042951517, 0.5664364, -27571.418, -27571.418, 0.0, 9.996347, 10.00147 
2.7057612e+3, 1.2837915e+2, -1317380.0, -1695283.3, 14879.374, -0.090240724, 0.4991166, -1316795.1, 365139.06, 0.010621851, 10.003512, 9.998441 
2.705681e+3, 1.3837759e+2, -1272516.8, -1644855.4, 14947.143, -0.09960854, 0.5360315, -1271917.6, 312033.03, 0.006423762, 10.003226, 9.998252 
2.705601e+3, 1.4837554e+2, -1216007.6, -1546942.1, 46639.89, -0.10344658, 0.5342133, -1209560.1, 276411.5, 0.0029037185, 10.002851, 9.998428 
2.7055213e+3, 1.5837349e+2, -1175625.0, -1484662.4, 51272.297, -0.08398493, 0.5206736, -1167340.5, 220651.77, 0.0008365411, 10.002484, 9.99836 
2.705442e+3, 1.6837168e+2, -1080273.8, -1345599.9, 81746.83, -0.06802815, 0.51825243, -1057110.0, 232899.9, 0.000116990734, 10.002287, 9.998734 
2.7053633e+3, 1.7837004e+2, -1024768.6, -1296214.9, 86009.91, -0.058171075, 0.5200445, -999810.44, 192214.95, 0.0000032501778, 10.002116, 9.998484 
2.705285e+3, 1.8836835e+2, -1000204.5, -1231526.9, 102799.945, -0.031235851, 0.5417549, -961122.9, 132919.48, 0.0, 10.001605, 9.9985 
2.705207e+3, 1.9836672e+2, -1004924.7, -1214875.4, 91795.65, 0.001192402, 0.56619686, -970450.2, 25608.844, 0.0, 10.001036, 9.998217 
2.705128e+3, 2.083643e+2, -926941.75, -1134004.8, 91191.6, 0.0028944092, 0.54760194, -892507.0, 5576.0605, 0.0, 10.000932, 9.998148 
2.7050492e+3, 2.1836181e+2, -821688.25, -1020457.44, 106417.0, -0.005478772, 0.51677644, -775464.2, 24643.385, 0.0, 10.00093, 9.998256 
2.7049708e+3, 2.2836006e+2, -749601.94, -856397.6, 117086.29, -0.00262477, 0.50867814, -674312.06, 27811.27, 0.0, 10.000412, 9.998959 
2.7048925e+3, 2.3835865e+2, -760834.44, -837255.0, 101454.195, 0.0067993295, 0.5083902, -690633.56, -86498.18, 0.0, 9.999775, 9.998724 
2.704814e+3, 2.4835713e+2, -701612.25, -755770.3, 79465.26, 0.028253848, 0.524494, -644738.9, -138587.88, 0.0, 9.999498, 9.998745 
2.704735e+3, 2.5835574e+2, -624722.7, -652929.0, 89563.016, 0.047314137, 0.54335684, -548159.25, -139993.02, 0.0, 9.999288, 9.99888 
2.704656e+3, 2.6835462e+2, -553236.3, -481240.0, 87972.734, 0.029774942, 0.5301143, -422185.16, -112007.72, 0.0, 9.998732, 9.999655 
2.704577e+3, 2.7835372e+2, -548026.25, -426346.78, 84514.14, 0.014243511, 0.5080006, -383051.44, -170865.53, 0.0, 9.998086, 9.99967 
2.7044982e+3, 2.8835362e+2, -474597.6, -276948.94, 47721.496, 0.041814737, 0.5324682, -266030.0, -151842.17, 0.0, 9.997642, 10.000238 
2.7044183e+3, 2.9835394e+2, -454099.94, -249217.73, 45404.66, 0.04766062, 0.5792408, -239606.33, -223420.66, 0.0, 9.9972515, 9.999945 
2.7043384e+3, 3.08354e+2, -420788.78, -187387.89, 21378.785, 0.046186965, 0.62209874, -185445.81, -185445.81, 0.0, 9.997051, 10.000132 
2.7042586e+3, 3.183531e+2, -430982.38, -18176.969, 100019.3, 0.013270606, 0.54513884, 4780.1665, 4780.1665, 0.0, 9.996227, 10.001693 
2.715764e+3, 1.2845978e+2, -1304735.3, -1673673.3, 4660.4053, -0.1160137, 0.51359016, -1304676.4, 376467.84, 0.008380471, 10.003524, 9.998585 
2.7156845e+3, 1.3845825e+2, -1263689.6, -1625324.9, 2872.8865, -0.058236048, 0.5386355, -1263666.8, 319493.1, 0.0049883644, 10.003214, 9.998394 
2.7156034e+3, 1.4845619e+2, -1206586.1, -1528226.0, 32223.564, -0.078938186, 0.52265936, -1203389.5, 281791.0, 0.0021987616, 10.002849, 9.99856 
2.7155235e+3, 1.5845415e+2, -1164356.5, -1464506.3, 40150.91, -0.097734675, 0.49690333, -1159078.3, 228122.58, 0.0006109036, 10.002494, 9.998496 
2.715444e+3, 1.6845271e+2, -1071385.1, -1327967.1, 75903.5, -0.08347041, 0.51936436, -1050612.6, 238602.36, 0.00008038522, 10.002287, 9.9988575 
2.715365e+3, 1.7845151e+2, -1022172.8, -1288906.8, 73705.74, -0.06521968, 0.5524954, -1003161.06, 188065.72, 0.0000019955633, 10.002105, 9.998541 
2.715286e+3, 1.8844952e+2, -1005794.7, -1243845.3, 79602.61, -0.043380234, 0.548105, -981629.2, 111617.48, 0.0, 10.001604, 9.998418 
2.7152073e+3, 1.9844744e+2, -1001028.0, -1209851.4, 77408.19, -0.020455359, 0.5340744, -975463.44, 19804.262, 0.0, 10.001045, 9.998248 
2.7151284e+3, 2.0844536e+2, -908786.5, -1098896.0, 92736.75, -0.013574274, 0.5332905, -871042.5, 26245.523, 0.0, 10.000939, 9.998387 
2.7150497e+3, 2.1844344e+2, -814634.7, -1007720.6, 98806.016, -0.011865392, 0.5354165, -773035.8, 26271.152, 0.0, 10.000935, 9.9983425 
2.7149707e+3, 2.2844169e+2, -765539.8, -891061.75, 91697.99, -0.010147621, 0.54013526, -717181.6, -15858.304, 0.0, 10.000416, 9.998721 
2.7148917e+3, 2.3844007e+2, -769500.56, -855248.44, 82466.43, -0.0053549623, 0.5429609, -719428.9, -116090.766, 0.0, 9.999771, 9.998605 
2.714813e+3, 2.4843821e+2, -693934.7, -741433.7, 73104.35, 0.020593429, 0.5188549, -640818.8, -135461.83, 0.0, 9.999501, 9.998843 
2.714734e+3, 2.5843647e+2, -615833.7, -639614.44, 76912.76, 0.043509524, 0.49354094, -549897.6, -142522.89, 0.0, 9.999307, 9.998964 
2.7146545e+3, 2.684359e+2, -551844.44, -480623.53, 62280.547, 0.020181196, 0.53289217, -444491.6, -135111.39, 0.0, 9.998737, 9.999659 
2.7145746e+3, 2.7843568e+2, -554351.2, -436400.06, 63168.504, 0.005630034, 0.57779807, -408955.84, -197573.8, 0.0, 9.998069, 9.999611 
2.7144954e+3, 2.8843445e+2, -488529.13, -305317.53, 33474.332, 0.058187198, 0.5079744, -299393.06, -185998.7, 0.0, 9.997636, 10.000049 
2.7144155e+3, 2.9843348e+2, -459448.38, -265572.06, 33767.863, 0.06577015, 0.44052616, -259858.98, -244454.02, 0.0, 9.997271, 9.9998255 
2.714335e+3, 3.0843532e+2, -427501.44, -208755.4, 17732.13, 0.02050833, 0.6763908, -207327.31, -207327.31, 0.0, 9.997079, 9.999974 
2.7142552e+3, 3.1843352e+2, -436315.22, -12311.538, -59684.4, 0.08528198, 0.5223688, -4070.313, -4070.313, 0.0, 9.996157, 10.001766 
2.7257672e+3, 1.2854065e+2, -1313527.5, -1664944.0, 26426.816, -0.12133704, 0.49843898, -1311551.4, 368799.63, 0.006411681, 10.003403, 9.998702 
2.7256867e+3, 1.385392e+2, -1307594.0, -1632358.9, 25394.523, -0.066625066, 0.5198785, -1305620.3, 276745.2, 0.0037448152, 10.002851, 9.998519 
2.725606e+3, 1.4853732e+2, -1234279.6, -1527820.8, 58837.234, -0.08050292, 0.5119087, -1222925.5, 261458.8, 0.0016017432, 10.002602, 9.998679 
2.7255255e+3, 1.585355e+2, -1168381.8, -1458406.9, 63881.64, -0.09064172, 0.49668685, -1154934.5, 231468.31, 0.0004257093, 10.002436, 9.998563 
2.725446e+3, 1.6853406e+2, -1110788.9, -1351979.8, 88395.82, -0.07997659, 0.5198856, -1081861.5, 206555.97, 0.000051505755, 10.002042, 9.998808 
2.7253664e+3, 1.785328e+2, -1093054.4, -1322473.3, 75293.7, -0.06878079, 0.55172086, -1070550.9, 119879.33, 0.0000010805744, 10.001618, 9.998543 
2.725287e+3, 1.8853085e+2, -1018402.2, -1240115.9, 86885.84, -0.054776937, 0.5473442, -988410.25, 104039.266, 0.0, 10.00148, 9.998501 
2.725208e+3, 1.9852884e+2, -943624.2, -1171114.1, 94581.51, -0.038363267, 0.53228015, -909438.2, 85031.445, 0.0, 10.001397, 9.998342 
2.7251288e+3, 2.0852683e+2, -899454.7, -1082958.0, 105573.56, -0.023772735, 0.52840525, -851334.44, 45154.57, 0.0, 10.000959, 9.998484 
2.7250502e+3, 2.1852498e+2, -880392.5, -1030525.75, 101225.93, -0.011139502, 0.52895534, -829436.56, -30929.71, 0.0, 10.000449, 9.998418 
2.7249706e+3, 2.2852328e+2, -786204.2, -899688.44, 102575.67, -0.011140447, 0.53779423, -725722.44, -25199.662, 0.0, 10.000273, 9.998728 
2.7248913e+3, 2.3852172e+2, -714374.06, -827502.94, 109208.055, -0.010943806, 0.54538596, -647950.94, -45413.453, 0.0, 10.00015, 9.9986105 
2.7248123e+3, 2.4851984e+2, -679168.0, -735092.5, 96332.22, 0.014673855, 0.52001673, -606821.8, -102265.12, 0.0, 9.999612, 9.998832 
2.724733e+3, 2.5851807e+2, -660892.5, -658165.0, 91522.86, 0.039224107, 0.49074137, -567995.75, -161420.86, 0.0, 9.998989, 9.998987 
2.724653e+3, 2.6851752e+2, -550901.4, -473685.06, 75960.57, 0.023231495, 0.52770495, -427084.06, -118504.375, 0.0, 9.998722, 9.99971 
2.7245727e+3, 2.7851728e+2, -492762.88, -408943.03, 79274.59, 0.016740775, 0.5716248, -361181.88, -150600.98, 0.0, 9.998508, 9.999585 
2.7244928e+3, 2.8851587e+2, -452373.88, -309716.1, 48407.67, 0.05755704, 0.49546385, -294841.1, -182245.31, 0.0, 9.997984, 9.999848 
2.7244124e+3, 2.9851463e+2, -450128.63, -266740.22, 49692.03, 0.05041135, 0.4226612, -254140.98, -239531.6, 0.0, 9.997364, 9.999769 
2.724332e+3, 3.08517e+2, -468103.03, -206994.75, 52849.59, 0.046783406, 0.69634134, -196703.36, -196703.36, 0.0, 9.996715, 10.000158 
2.724251e+3, 3.1851473e+2, -380556.4, 16794.281, -63996.453, 0.06972949, 0.48423693, 26847.08, 26847.08, 0.0, 9.996536, 10.00178 
2.7357706e+3, 1.2862183e+2, -1304988.8, -1650825.3, 5040.597, -0.1141048, 0.46232536, -1304915.4, 374638.63, 0.0047228583, 10.00341, 9.998796 
2.735689e+3, 1.3862047e+2, -1297133.8, -1616610.0, 9545.482, -0.11439355, 0.48441258, -1296848.8, 284718.5, 0.0026956985, 10.00287, 9.998619 
2.7356082e+3, 1.4861895e+2, -1225723.9, -1513896.0, 52855.56, -0.10188379, 0.5016229, -1216335.3, 267247.75, 0.0011116491, 10.002614, 9.998771 
2.7355278e+3, 1.586175e+2, -1169211.8, -1460213.0, 53428.684, -0.06652968, 0.51563966, -1159712.3, 225886.22, 0.00027898268, 10.002433, 9.998554 
2.735448e+3, 1.6861571e+2, -1124605.3, -1382563.1, 71304.79, -0.061381996, 0.51934934, -1106207.3, 181409.6, 0.000029933104, 10.002047, 9.998597 
2.735368e+3, 1.7861396e+2, -1094427.8, -1329486.5, 64109.54, -0.07028554, 0.52218205, -1078079.6, 111555.125, 0.00000046990914, 10.001634, 9.998489 
2.7352884e+3, 1.8861242e+2, -1002362.9, -1209061.6, 84996.734, -0.06581454, 0.5413132, -971900.6, 119749.73, 0.0, 10.001487, 9.998713 
2.735209e+3, 1.9861092e+2, -935134.56, -1153564.9, 85813.81, -0.05332029, 0.55956495, -905454.2, 88210.76, 0.0, 10.001395, 9.998465 
2.7351293e+3, 2.0860869e+2, -902120.0, -1089613.6, 85241.85, -0.02804823, 0.53196096, -869159.94, 26526.234, 0.0, 10.00096, 9.99844 
2.73505e+3, 2.1860643e+2, -875297.25, -1021206.94, 87417.92, -0.0037009066, 0.49577835, -834391.2, -36683.74, 0.0, 10.000451, 9.998483 
2.7349707e+3, 2.2860488e+2, -769065.44, -866000.6, 99816.09, -0.00568913, 0.5006971, -706571.94, -6850.2114, 0.0, 10.0002775, 9.998959 
2.7348915e+3, 2.3860362e+2, -705161.56, -811547.25, 98113.61, -0.010893292, 0.51658255, -646749.06, -45015.527, 0.0, 10.00016, 9.998716 
2.7348116e+3, 2.4860206e+2, -688640.8, -756098.4, 70733.766, 0.009989724, 0.53050965, -644005.7, -140255.63, 0.0, 9.999614, 9.998688 
2.7347314e+3, 2.5860056e+2, -666084.0, -667229.2, 72990.63, 0.033308614, 0.53991807, -593663.7, -187897.27, 0.0, 9.998978, 9.998932 
2.7346516e+3, 2.6859936e+2, -544825.06, -461410.78, 69340.445, 0.04094361, 0.51095206, -422200.78, -114424.2, 0.0, 9.99872, 9.999797 
2.7345714e+3, 2.7859846e+2, -491018.34, -409907.38, 66272.31, 0.052062307, 0.475696, -372766.25, -162982.25, 0.0, 9.998525, 9.999573 
2.7344903e+3, 2.885979e+2, -467058.7, -343385.22, 23708.432, 0.035138953, 0.5012265, -338996.06, -227204.17, 0.0, 9.997993, 9.999615 
2.7344087e+3, 2.9859775e+2, -450152.72, -265992.2, 24442.006, -0.010871506, 0.5564765, -262803.44, -249006.8, 0.0, 9.997356, 9.999781 
2.734329e+3, 3.0859882e+2, -436173.34, -131012.17, 26429.955, 0.143252, 0.6660565, -128739.99, -128739.99, 0.0, 9.99667, 10.000704 
2.7342466e+3, 3.1859735e+2, -380705.4, -2060.159, 8767.918, 0.015840303, 0.48741278, -1857.2374, -1857.2374, 0.0, 9.996599, 10.001629 
2.7457735e+3, 1.2870377e+2, -1323301.9, -1652826.8, 24396.936, -0.11690104, 0.44980162, -1321505.5, 357244.84, 0.003322423, 10.003253, 9.9988575 
2.7456912e+3, 1.3870251e+2, -1295969.8, -1612214.6, 28983.87, -0.13233484, 0.4788901, -1293335.4, 287427.1, 0.0018434938, 10.002863, 9.998651 
2.7456102e+3, 1.4870098e+2, -1244566.5, -1527540.4, 69735.09, -0.117004775, 0.49638188, -1228314.6, 254463.89, 0.00072674, 10.002507, 9.998727 
2.7455297e+3, 1.5869947e+2, -1206046.5, -1478572.1, 62283.555, -0.073036954, 0.5098201, -1192486.8, 192307.7, 0.00016885014, 10.002186, 9.998545 
2.7454495e+3, 1.6869769e+2, -1129758.8, -1381259.8, 90221.984, -0.067668214, 0.51179624, -1100741.1, 186071.83, 0.000015330175, 10.002, 9.998627 
2.745369e+3, 1.7869593e+2, -1063638.8, -1311962.6, 96579.96, -0.07841899, 0.5118924, -1030498.8, 158331.97, 0.00000014082715, 10.001839, 9.9985075 
2.7452892e+3, 1.8869437e+2, -1010038.0, -1214103.8, 108100.11, -0.07130862, 0.53111446, -963422.5, 127424.016, 0.0, 10.001445, 9.998695 
2.7452096e+3, 1.9869289e+2, -986885.3, -1172549.5, 94094.65, -0.055640645, 0.5513105, -947537.2, 45323.883, 0.0, 10.001018, 9.998514 
2.74513e+3, 2.0869075e+2, -904715.8, -1073997.6, 100118.586, -0.032046136, 0.5212373, -858254.4, 36626.617, 0.0, 10.0008745, 9.998586 
2.7450502e+3, 2.1868856e+2, -821282.2, -983070.06, 112391.625, -0.009653174, 0.48003653, -763699.75, 33201.336, 0.0, 10.000774, 9.998586 
2.7449706e+3, 2.2868702e+2, -773620.94, -867428.6, 111985.84, -0.008146187, 0.4804416, -699113.06, -197.50055, 0.0, 10.000248, 9.9989605 
2.7448907e+3, 2.3868573e+2, -775979.0, -839659.06, 95246.445, -0.008526154, 0.4934118, -707391.56, -106463.79, 0.0, 9.999653, 9.998766 
2.744811e+3, 2.4868435e+2, -699451.9, -748123.56, 79320.0, 0.01051015, 0.5159422, -640818.5, -137875.95, 0.0, 9.999488, 9.9988 
2.74473e+3, 2.5868303e+2, -602834.2, -628344.56, 98782.734, 0.03012845, 0.53551435, -515986.53, -111029.69, 0.0, 9.999382, 9.9990015 
2.74465e+3, 2.686817e+2, -526285.06, -456458.9, 90600.99, 0.037308507, 0.49319234, -394276.84, -87308.42, 0.0, 9.99887, 9.999756 
2.7445695e+3, 2.7868056e+2, -530627.3, -432812.13, 76863.02, 0.05065876, 0.4423323, -390616.06, -181638.11, 0.0, 9.998274, 9.999534 
2.744488e+3, 2.8868043e+2, -487686.16, -358132.56, 39925.5, 0.04337617, 0.51151437, -346816.78, -235834.28, 0.0, 9.997877, 9.999566 
2.744406e+3, 2.9868066e+2, -430539.6, -260840.0, 51948.473, 0.004218914, 0.6113135, -246200.45, -233216.5, 0.0, 9.997516, 9.999736 
2.7443254e+3, 3.086804e+2, -348497.88, -90147.28, 21147.117, 0.110744715, 0.5889547, -88427.74, -88427.74, 0.0, 9.997282, 10.000687 
2.744243e+3, 3.1868008e+2, -365825.16, 5019.317, 12300.348, 0.051870912, 0.5276014, 5426.853, 5426.853, 0.0, 9.996705, 10.001624 
2.755776e+3, 1.2878634e+2, -1319718.0, -1648767.3, 9291.713, -0.12723014, 0.45410514, -1319455.9, 358484.84, 0.0022101887, 10.003262, 9.998882 
2.7556938e+3, 1.3878524e+2, -1294493.1, -1616357.3, 14293.957, -0.12788217, 0.49702704, -1293859.5, 286091.97, 0.0011839488, 10.002889, 9.998611 
2.7556124e+3, 1.487834e+2, -1252158.9, -1550037.9, 56722.633, -0.12830454, 0.4952425, -1241723.3, 240247.28, 0.0004408729, 10.002533, 9.998562 
2.7555314e+3, 1.587815e+2, -1203798.6, -1479290.1, 52535.3, -0.105253786, 0.48385563, -1194120.3, 189869.9, 0.000092119764, 10.002206, 9.998531 
2.755451e+3, 1.6878e+2, -1113436.8, -1349205.8, 84777.984, -0.09463573, 0.49869573, -1086117.8, 199887.55, 0.0000067003803, 10.002005, 9.998846 
2.7553707e+3, 1.7877863e+2, -1060989.5, -1304852.4, 86384.664, -0.09253084, 0.518044, -1033490.06, 154528.67, 0.00000002516068, 10.001829, 9.998563 
2.7552906e+3, 1.8877672e+2, -1026704.4, -1248771.0, 90969.35, -0.0719125, 0.5163795, -994197.4, 95840.82, 0.0, 10.001442, 9.99846 
2.7552104e+3, 1.9877477e+2, -987289.7, -1175265.1, 82787.76, -0.046224058, 0.5093067, -956027.6, 36030.13, 0.0, 10.001022, 9.998495 
2.7551305e+3, 2.0877303e+2, -882088.94, -1028713.2, 98033.94, -0.036264986, 0.49746212, -832986.56, 61086.883, 0.0, 10.000878, 9.998897 
2.7550507e+3, 2.187714e+2, -812904.5, -966818.44, 102037.01, -0.030532472, 0.4839705, -762057.25, 34030.348, 0.0, 10.000776, 9.998698 
2.7549705e+3, 2.2876966e+2, -789897.9, -902522.2, 87582.8, -0.018890943, 0.477952, -742086.06, -43981.65, 0.0, 10.000251, 9.99872 
2.75489e+3, 2.38768e+2, -777068.25, -841395.56, 78902.77, -0.0036791866, 0.47427535, -724025.44, -123904.664, 0.0, 9.999647, 9.998758 
2.75481e+3, 2.4876663e+2, -673188.0, -694157.0, 77215.72, 0.01667773, 0.47252974, -605748.2, -103613.68, 0.0, 9.999488, 9.999173 
2.7547294e+3, 2.5876543e+2, -588349.8, -601949.25, 88657.7, 0.029523091, 0.47234434, -506231.44, -102085.02, 0.0, 9.999394, 9.999178 
2.7546483e+3, 2.6876453e+2, -540155.9, -486515.2, 66168.14, 0.007899384, 0.47704077, -441938.38, -135783.31, 0.0, 9.998872, 9.999551 
2.754567e+3, 2.787638e+2, -538173.7, -445110.6, 56549.938, 0.0029566207, 0.48403382, -418409.1, -210247.1, 0.0, 9.998256, 9.99946 
2.7544862e+3, 2.887634e+2, -479052.97, -336759.13, 26453.984, 0.09159209, 0.5235467, -332000.2, -221832.3, 0.0, 9.99786, 9.999723 
2.7544042e+3, 2.9876316e+2, -442925.9, -285735.06, 41483.477, 0.118881404, 0.5639776, -275459.1, -263286.06, 0.0, 9.997509, 9.99957 
2.7543202e+3, 3.0876148e+2, -396648.3, -199398.97, 12311.208, -0.10183304, 0.4580692, -198633.55, -198633.55, 0.0, 9.997316, 9.999923 
2.7542403e+3, 3.187625e+2, -355147.22, 41629.145, -61193.117, 0.13904747, 0.58662677, 50852.3, 50852.3, 0.0, 9.996655, 10.001894 
2.7657792e+3, 1.2886928e+2, -1357672.6, -1681783.0, 29474.21, -0.13419329, 0.4567328, -1355014.0, 322113.56, 0.001372136, 10.003064, 9.99875 
2.7656963e+3, 1.3886808e+2, -1284388.3, -1619862.6, 23539.617, -0.13068818, 0.50135523, -1282744.6, 296395.56, 0.0007033293, 10.002996, 9.998534 
2.7656144e+3, 1.4886613e+2, -1232075.8, -1540873.6, 68099.62, -0.1350005, 0.49375516, -1217724.6, 263435.2, 0.00024307612, 10.002676, 9.998554 
2.7655333e+3, 1.5886417e+2, -1188818.0, -1468996.4, 72538.016, -0.116511784, 0.47538647, -1171151.9, 212027.98, 0.000043879605, 10.002299, 9.998556 
2.7654523e+3, 1.6886272e+2, -1129481.4, -1350825.0, 98650.44, -0.09997967, 0.4923413, -1091896.1, 193297.89, 0.0000023972784, 10.001871, 9.998898 
2.7653718e+3, 1.7886144e+2, -1110605.8, -1321948.4, 91191.66, -0.09018839, 0.51502544, -1076697.9, 110508.47, 0.0000000017471812, 10.001462, 9.998621 
2.7652916e+3, 1.8885945e+2, -1048753.1, -1253785.9, 109665.02, -0.070172295, 0.5024429, -1001149.5, 88076.55, 0.0, 10.00127, 9.998507 
2.7652112e+3, 1.9885741e+2, -968351.3, -1159090.3, 118788.23, -0.04675462, 0.48157257, -911385.7, 79860.49, 0.0, 10.001127, 9.998553 
2.765131e+3, 2.0885576e+2, -887201.0, -1024431.4, 124149.445, -0.042662017, 0.47465107, -813967.2, 79293.79, 0.0, 10.000819, 9.998952 
2.7650508e+3, 2.188543e+2, -851379.5, -976925.8, 108999.22, -0.042641606, 0.47157744, -788369.94, 6903.9, 0.0, 10.00048, 9.99877 
2.7649704e+3, 2.2885264e+2, -785447.25, -891553.8, 104775.23, -0.02401338, 0.466953, -721059.06, -23769.246, 0.0, 10.000248, 9.998795 
2.76489e+3, 2.3885101e+2, -719969.06, -806957.3, 118024.65, 0.00046063273, 0.46068466, -637679.4, -38373.64, 0.0, 10.000014, 9.998815 
2.764809e+3, 2.488496e+2, -661407.25, -686781.06, 101605.93, 0.017754797, 0.4516934, -571699.25, -70379.22, 0.0, 9.999566, 9.999184 
2.7647284e+3, 2.5884837e+2, -631253.5, -618803.06, 85195.65, 0.025213737, 0.4449289, -539605.5, -136273.17, 0.0, 9.999087, 9.999208 
2.7646464e+3, 2.688476e+2, -550763.2, -488142.84, 66651.45, -0.00032931956, 0.4653188, -445813.75, -140474.45, 0.0, 9.998789, 9.9995775 
2.764565e+3, 2.7884707e+2, -502923.16, -426505.72, 73569.48, -0.0066998038, 0.49086973, -381814.66, -174470.17, 0.0, 9.998497, 9.999468 
2.764484e+3, 2.8884646e+2, -447370.84, -325145.47, 35999.965, 0.10389849, 0.5079036, -315330.3, -205977.84, 0.0, 9.998099, 9.999685 
2.7644017e+3, 2.9884586e+2, -427318.13, -291997.8, 40889.117, 0.14910974, 0.5196311, -280602.2, -269241.7, 0.0, 9.99768, 9.999443 
2.7643168e+3, 3.088442e+2, -418817.06, -246274.44, 41362.203, -0.16072716, 0.4425046, -236871.45, -236871.45, 0.0, 9.997324, 9.999596 
2.764237e+3, 3.1884506e+2, -277428.75, 88818.44, -49221.31, 0.14041995, 0.5818774, 95318.12, 95318.12, 0.0, 9.997152, 10.001975 
2.7757818e+3, 1.2895258e+2, -1368982.8, -1716199.8, 26081.908, -0.13859852, 0.45904934, -1367034.5, 309276.53, 0.00078054046, 10.003107, 9.998493 
2.775699e+3, 1.3895105e+2, -1292829.9, -1636507.6, 17227.38, -0.14115398, 0.49425063, -1291968.5, 286359.2, 0.00037844517, 10.00299, 9.998425 
2.7756166e+3, 1.489492e+2, -1225755.1, -1526850.8, 54302.4, -0.13882124, 0.49139228, -1216261.0, 264085.13, 0.0001182932, 10.002668, 9.998655 
2.7755353e+3, 1.589474e+2, -1185766.6, -1463942.4, 57712.348, -0.110484205, 0.4809778, -1174268.5, 208095.42, 0.000017562852, 10.002301, 9.998591 
2.7754542e+3, 1.6894583e+2, -1135318.9, -1365301.3, 82517.24, -0.08734772, 0.49171352, -1108775.4, 175603.8, 0.0000006379883, 10.001879, 9.9987955 
2.7753732e+3, 1.7894438e+2, -1104728.1, -1312839.6, 79446.35, -0.07417348, 0.50475276, -1077866.6, 108526.62, 0.00000000000031093438, 10.001472, 9.998679 
2.7752924e+3, 1.889426e+2, -1027438.56, -1211705.6, 104788.61, -0.066895075, 0.4896163, -980039.9, 108370.1, 0.0, 10.001277, 9.998794 
2.775212e+3, 1.989408e+2, -960818.06, -1144094.1, 110612.71, -0.057940103, 0.46772388, -908815.25, 81611.48, 0.0, 10.001127, 9.998657 
2.7751315e+3, 2.0893897e+2, -900791.75, -1053780.9, 110857.94, -0.051234115, 0.4527424, -842598.1, 49845.785, 0.0, 10.000821, 9.998751 
2.775051e+3, 2.1893726e+2, -848301.0, -971786.56, 97888.31, -0.045238055, 0.4415228, -794310.06, 149.9212, 0.0, 10.000483, 9.998805 
2.7749702e+3, 2.2893597e+2, -757995.0, -836026.7, 97316.09, -0.023450267, 0.44674185, -692164.94, 4306.8394, 0.0, 10.000251, 9.999176 
2.7748895e+3, 2.3893483e+2, -712463.8, -793771.25, 105900.76, 0.0020400654, 0.45482543, -639681.7, -41199.156, 0.0, 10.000022, 9.998903 
2.7748084e+3, 2.4893327e+2, -688897.4, -744976.4, 81930.14, 0.012599302, 0.45669797, -630341.5, -129842.67, 0.0, 9.999567, 9.998785 
2.7747267e+3, 2.5893176e+2, -641740.0, -638680.7, 69037.26, 0.015689809, 0.4572679, -571156.1, -168641.39, 0.0, 9.999077, 9.999079 
2.7746454e+3, 2.6893097e+2, -532465.56, -448723.1, 56194.863, 0.016664308, 0.45672485, -420515.34, -115993.8, 0.0, 9.99878, 9.999853 
2.7745634e+3, 2.789304e+2, -497222.2, -416151.9, 60736.54, 0.030287435, 0.45505363, -383666.34, -177140.22, 0.0, 9.998501, 9.999538 
2.7744812e+3, 2.8892946e+2, -466971.56, -367879.03, 18767.523, 0.06816942, 0.46049413, -364443.66, -255906.64, 0.0, 9.998103, 9.999392 
2.7743983e+3, 2.9892874e+2, -430442.66, -300469.3, 24727.18, 0.06694398, 0.48331416, -295923.97, -285377.25, 0.0, 9.9976845, 9.999385 
2.7743152e+3, 3.0892897e+2, -403230.4, -209574.53, 28070.379, -0.0018586, 0.5745249, -205587.81, -205587.81, 0.0, 9.997303, 9.999859 
2.7742332e+3, 3.1892753e+2, -292052.3, 45795.055, -38986.438, 0.062400237, 0.47055528, 50235.59, 50235.59, 0.0, 9.9971895, 10.001671 
2.7857843e+3, 1.2903601e+2, -1348807.6, -1695196.9, 16045.368, -0.15256754, 0.47564605, -1348066.0, 327428.16, 0.0003964739, 10.003199, 9.998592 
2.7857015e+3, 1.390345e+2, -1338616.6, -1646354.6, 28071.059, -0.15114927, 0.5017343, -1336077.0, 241433.4, 0.00017875065, 10.0026245, 9.998532 
2.785619e+3, 1.4903273e+2, -1266163.5, -1534718.1, 71879.64, -0.1428516, 0.497542, -1248135.0, 231392.64, 0.00004867195, 10.002344, 9.998756 
2.7855372e+3, 1.59031e+2, -1205902.9, -1468190.1, 73928.125, -0.10795676, 0.48725933, -1186500.8, 195043.4, 0.000005576068, 10.002143, 9.998637 
2.7854556e+3, 1.6902933e+2, -1143945.9, -1375950.3, 98666.3, -0.088456094, 0.48869914, -1107660.3, 175900.1, 0.000000095714476, 10.001851, 9.998734 
2.7853742e+3, 1.7902772e+2, -1091213.6, -1303326.8, 99526.59, -0.08053974, 0.49077272, -1051827.6, 133748.23, 0.0, 10.001555, 9.998704 
2.7852935e+3, 1.8902601e+2, -1012588.75, -1189445.0, 120240.67, -0.07519057, 0.47488564, -951760.9, 135830.33, 0.0, 10.001317, 9.998925 
2.7852127e+3, 1.9902435e+2, -960727.8, -1134563.4, 114697.68, -0.067260794, 0.45565674, -903735.0, 85871.05, 0.0, 10.001091, 9.998739 
2.785132e+3, 2.0902257e+2, -903771.2, -1057380.5, 120291.58, -0.054508347, 0.44364682, -837855.75, 53767.51, 0.0, 10.000814, 9.998728 
2.7850512e+3, 2.1902087e+2, -840224.94, -964073.3, 117675.73, -0.04106423, 0.4346211, -769174.75, 24465.125, 0.0, 10.000525, 9.998836 
2.78497e+3, 2.2901973e+2, -759872.75, -826476.9, 101928.586, -0.02063878, 0.44608876, -685943.94, 9706.569, 0.0, 10.000197, 9.999265 
2.784889e+3, 2.3901871e+2, -731056.7, -797353.94, 90986.555, 0.0019066228, 0.46044213, -667368.44, -69708.67, 0.0, 9.999875, 9.998948 
2.7848077e+3, 2.4901706e+2, -675865.6, -742998.25, 83392.055, 0.011611022, 0.4545022, -619537.94, -119861.234, 0.0, 9.99968, 9.998742 
2.7847257e+3, 2.590154e+2, -586496.7, -614697.2, 93272.28, 0.015048777, 0.4452975, -506264.9, -104571.06, 0.0, 9.999473, 9.99905 
2.7846438e+3, 2.690146e+2, -498026.38, -436222.16, 64360.805, 0.025639096, 0.44590127, -395729.22, -92028.21, 0.0, 9.999039, 9.999812 
2.7845618e+3, 2.7901402e+2, -490440.8, -417881.13, 47113.777, 0.047824398, 0.44646406, -394697.22, -188991.39, 0.0, 9.998572, 9.999491 
2.784479e+3, 2.8901294e+2, -442964.97, -365145.88, 14662.058, 0.049098335, 0.44533715, -362475.03, -254757.47, 0.0, 9.998311, 9.999308 
2.7843952e+3, 2.9901206e+2, -374724.5, -274403.1, 35050.12, 0.016166467, 0.46071544, -263370.6, -253642.53, 0.0, 9.998076, 9.999372 
2.7843133e+3, 3.0901235e+2, -327667.28, -162755.52, 25432.662, 0.07403664, 0.5540877, -158922.39, -158922.39, 0.0, 9.997784, 9.999946 
2.7842298e+3, 3.1901056e+2, -268425.53, 44175.723, -25538.455, 0.044525478, 0.4104629, 46248.387, 46248.387, 0.0, 9.997412, 10.001552 
2.795787e+3, 1.2911963e+2, -1325874.9, -1644947.5, -5766.8784, -0.17540984, 0.50200576, -1325770.6, 348905.78, 0.00017317134, 10.003184, 9.998946 
2.7957037e+3, 1.3911837e+2, -1315164.3, -1606100.1, 10850.006, -0.1596931, 0.52152073, -1314760.1, 261928.61, 0.000070444825, 10.002658, 9.998794 
2.795621e+3, 1.4911671e+2, -1255557.3, -1518997.1, 63628.34, -0.1468002, 0.5113453, -1240994.3, 237710.31, 0.000015787457, 10.002368, 9.998854 
2.795539e+3, 1.59115e+2, -1201966.8, -1460923.9, 64082.473, -0.110349305, 0.49434912, -1186976.4, 193744.16, 0.0000012231325, 10.002145, 9.998688 
2.795457e+3, 1.6911319e+2, -1146010.6, -1381566.1, 86865.85, -0.10213584, 0.482988, -1117442.0, 165295.81, 0.0000000036433885, 10.001854, 9.998696 
2.7953753e+3, 1.7911142e+2, -1091501.0, -1306090.8, 89546.15, -0.10639435, 0.472604, -1059043.6, 125710.92, 0.0, 10.001562, 9.998683 
2.7952942e+3, 1.8910973e+2, -1012842.06, -1192024.3, 111907.055, -0.0936548, 0.45861802, -959081.3, 127688.43, 0.0, 10.001324, 9.998906 
2.7952135e+3, 1.9910812e+2, -956020.56, -1126311.9, 105201.9, -0.07431994, 0.44544697, -905825.06, 82958.93, 0.0, 10.001095, 9.9987955 
2.7951324e+3, 2.0910658e+2, -893770.1, -1037373.06, 109581.8, -0.052749988, 0.44666076, -834561.56, 56237.418, 0.0, 10.000815, 9.998866 
2.7950516e+3, 2.1910514e+2, -840149.6, -964238.9, 106171.44, -0.032461546, 0.4517727, -779223.06, 13590.367, 0.0, 10.0005245, 9.998836 
2.79497e+3, 2.2910386e+2, -775006.5, -859191.0, 89105.86, -0.016388133, 0.46595144, -718551.25, -23725.285, 0.0, 10.0002, 9.999041 
2.7948886e+3, 2.3910265e+2, -730641.5, -797028.94, 80368.266, 0.00034600624, 0.47716424, -676881.9, -80043.96, 0.0, 9.999875, 9.998952 
2.794807e+3, 2.4910094e+2, -652081.1, -694596.25, 76711.8, 0.015475708, 0.44303584, -593736.0, -94882.016, 0.0, 9.999681, 9.999075 
2.794725e+3, 2.590993e+2, -581575.44, -607445.8, 81834.586, 0.023701454, 0.4061718, -511660.03, -110790.4, 0.0, 9.999483, 9.999096 
2.7946424e+3, 2.690985e+2, -526802.6, -497891.88, 44924.72, 0.023993395, 0.43383208, -465154.16, -162276.28, 0.0, 9.999043, 9.999388 
2.79456e+3, 2.7909786e+2, -503948.6, -445987.78, 31107.617, 0.038595792, 0.47070107, -432452.94, -227568.72, 0.0, 9.9985695, 9.999301 
2.7944767e+3, 2.8909686e+2, -432345.28, -343506.3, 4823.2446, 0.052560013, 0.46931392, -343245.2, -236351.03, 0.0, 9.99831, 9.999458 
2.794393e+3, 2.990958e+2, -374126.06, -274404.72, 24843.598, 0.012149575, 0.45379022, -268558.2, -259653.44, 0.0, 9.998079, 9.999371 
2.7943102e+3, 3.0909374e+2, -339416.0, -190760.53, 10585.678, 0.02240118, 0.32893056, -190010.5, -190010.5, 0.0, 9.997795, 9.99975 
2.794227e+3, 3.1909484e+2, -262632.56, 60429.086, -34066.83, 0.058902986, 0.48360205, 63982.348, 63982.348, 0.0, 9.997398, 10.001667 
2.8057894e+3, 1.2920347e+2, -1372532.0, -1670143.5, 15453.662, -0.18814039, 0.49910942, -1371731.8, 302122.88, 0.00006091152, 10.002877, 9.99892 
2.8057057e+3, 1.3920219e+2, -1318540.9, -1604063.5, 11714.669, -0.15566392, 0.5178631, -1318061.0, 257806.31, 0.000021139993, 10.002621, 9.998825 
2.8056228e+3, 1.4920059e+2, -1262960.5, -1513282.5, 60779.8, -0.148503, 0.50770015, -1248983.3, 228899.05, 0.000003520904, 10.00228, 9.998935 
2.8055406e+3, 1.5919895e+2, -1222125.8, -1458922.1, 61882.504, -0.12002732, 0.49017107, -1206929.1, 172968.19, 0.00000010922115, 10.001958, 9.99879 
2.8054586e+3, 1.691972e+2, -1147273.0, -1369772.3, 94370.516, -0.107525066, 0.4730907, -1112638.1, 169275.34, 0.0, 10.001796, 9.998804 
2.8053764e+3, 1.7919546e+2, -1073501.5, -1290521.8, 104780.44, -0.10651181, 0.45648053, -1031169.4, 152759.92, 0.0, 10.00166, 9.998741 
2.8052953e+3, 1.8919374e+2, -1007065.06, -1193294.3, 126235.586, -0.09497657, 0.4411586, -943317.44, 142627.31, 0.0, 10.001385, 9.998866 
2.8052142e+3, 1.991921e+2, -957350.8, -1124993.5, 116504.29, -0.076217525, 0.4279757, -897647.7, 90311.89, 0.0, 10.00108, 9.99881 
2.805133e+3, 2.0919067e+2, -900734.7, -1032377.7, 114600.08, -0.0484438, 0.43425354, -834398.5, 55575.14, 0.0, 10.000734, 9.998938 
2.8050518e+3, 2.1918935e+2, -856858.4, -969880.6, 108898.164, -0.022292582, 0.44516596, -790681.6, 1305.4564, 0.0, 10.000403, 9.998855 
2.8049698e+3, 2.2918798e+2, -768464.6, -864801.2, 102276.84, -0.012827602, 0.45415378, -703580.94, -9580.099, 0.0, 10.000286, 9.998959 
2.8048882e+3, 2.3918661e+2, -684213.7, -771936.7, 101077.125, -0.0035326655, 0.458584, -617891.6, -21877.305, 0.0, 10.000186, 9.998972 
2.8048065e+3, 2.4918509e+2, -617746.75, -660948.44, 85790.18, 0.0170106, 0.43117815, -550879.75, -52851.383, 0.0, 9.999847, 9.999224 
2.8047243e+3, 2.5918362e+2, -582580.4, -606880.8, 77368.88, 0.03234595, 0.40196186, -516413.44, -116371.74, 0.0, 9.999475, 9.999103 
2.8046414e+3, 2.6918256e+2, -512646.06, -516041.38, 48615.906, 0.024293058, 0.41971743, -465698.2, -163645.48, 0.0, 9.999252, 9.999161 
2.8045583e+3, 2.7918163e+2, -442004.06, -426815.72, 49994.047, 0.029744558, 0.44648564, -383842.38, -179780.0, 0.0, 9.999045, 9.999201 
2.804475e+3, 2.8918085e+2, -359848.56, -302336.22, 22116.533, 0.05472036, 0.46701798, -294814.88, -188745.39, 0.0, 9.998785, 9.999511 
2.804391e+3, 2.9917997e+2, -319637.22, -252969.39, 33009.688, 0.020314928, 0.46563947, -239390.73, -231313.08, 0.0, 9.998477, 9.999326 
2.804307e+3, 3.0917656e+2, -313985.47, -201610.13, 14889.91, -0.020763537, 0.222656, -199670.66, -199670.66, 0.0, 9.998071, 9.999542 
2.804224e+3, 3.1917912e+2, -216941.4, 95080.65, -35315.473, 0.040464506, 0.5324007, 99027.82, 99027.82, 0.0, 9.997662, 10.001776 
2.815792e+3, 1.2928756e+2, -1390065.4, -1714128.6, 5473.1563, -0.19493765, 0.474929, -1389972.9, 283056.2, 0.000015047588, 10.00291, 9.998603 
2.8157082e+3, 1.3928601e+2, -1327718.9, -1625329.4, 2192.9685, -0.14413086, 0.49522513, -1327702.8, 247342.78, 0.0000040322857, 10.002629, 9.998675 
2.8156248e+3, 1.4928445e+2, -1257231.6, -1504777.5, 49033.348, -0.14936471, 0.48949313, -1247873.0, 229187.27, 0.00000035591447, 10.002292, 9.998989 
2.815542e+3, 1.5928294e+2, -1209289.0, -1437350.5, 53451.223, -0.13521688, 0.47695434, -1197383.1, 181690.81, 0.0000000005064632, 10.001978, 9.99893 
2.81546e+3, 1.6928141e+2, -1129744.1, -1336507.4, 90331.93, -0.10612733, 0.4607003, -1095839.1, 185248.03, 0.0, 10.001807, 9.999028 
2.8153783e+3, 1.7927985e+2, -1065314.5, -1274299.3, 97353.125, -0.08553726, 0.44333237, -1026991.3, 156108.97, 0.0, 10.001661, 9.998853 
2.8152964e+3, 1.8927808e+2, -1011534.44, -1202945.6, 115030.54, -0.08176399, 0.42240202, -957601.8, 127514.65, 0.0, 10.001384, 9.998802 
2.815215e+3, 1.9927631e+2, -959681.56, -1130105.9, 104673.77, -0.07461333, 0.40338078, -909920.75, 77211.94, 0.0, 10.00108, 9.998776 
2.8151333e+3, 2.0927484e+2, -900757.0, -1033565.44, 101312.85, -0.041917536, 0.40720943, -846025.7, 43121.44, 0.0, 10.000737, 9.998929 
2.8150517e+3, 2.1927348e+2, -854290.06, -965841.94, 100110.2, -0.009685485, 0.4146085, -795466.6, -4305.7925, 0.0, 10.000406, 9.998881 
2.81497e+3, 2.2927202e+2, -763752.3, -856408.9, 99785.83, -0.0099428035, 0.40926963, -700064.56, -6889.2593, 0.0, 10.00029, 9.999016 
2.814888e+3, 2.392706e+2, -682000.56, -769259.56, 93183.05, -0.011980863, 0.4037038, -622738.8, -27549.695, 0.0, 10.000192, 9.998989 
2.8148058e+3, 2.4926949e+2, -621784.2, -670686.7, 70517.06, 0.015326085, 0.42067567, -571599.5, -74399.625, 0.0, 9.99985, 9.999157 
2.8147233e+3, 2.5926843e+2, -585550.06, -613138.0, 64907.465, 0.039951153, 0.43685612, -532987.0, -133776.9, 0.0, 9.999473, 9.999063 
2.8146404e+3, 2.692668e+2, -512873.16, -517767.88, 40960.426, 0.026906183, 0.40163267, -474287.03, -173061.22, 0.0, 9.999256, 9.999148 
2.814557e+3, 2.7926522e+2, -440901.25, -428481.28, 41478.633, 0.023349479, 0.36542085, -392750.34, -189509.4, 0.0, 9.999061, 9.999184 
2.8144735e+3, 2.892649e+2, -362564.88, -311894.88, 11118.69, 0.053891003, 0.433029, -309562.44, -204318.28, 0.0, 9.998798, 9.99944 
2.8143895e+3, 2.9926458e+2, -325142.03, -268265.97, 19141.217, 0.03418029, 0.49890682, -262424.16, -255177.17, 0.0, 9.99849, 9.999216 
2.8143048e+3, 3.092613e+2, -329515.72, -235373.34, -2465.967, -0.039918497, 0.28480357, -235308.8, -235308.8, 0.0, 9.998074, 9.99931 
2.814221e+3, 3.1926244e+2, -208261.23, 113448.59, -61158.234, 0.015029661, 0.47281298, 124682.7, 124682.7, 0.0, 9.997651, 10.001912 
2.8257945e+3, 1.2937205e+2, -1395202.5, -1705724.0, 15359.094, -0.1947187, 0.46639138, -1394444.8, 277755.9, 0.0000019580384, 10.00283, 9.998698 
2.8257102e+3, 1.3937047e+2, -1327264.8, -1618561.6, 32569.709, -0.1607326, 0.47552022, -1323667.6, 250549.25, 0.00000028892157, 10.002606, 9.998732 
2.8256264e+3, 1.4936899e+2, -1256956.9, -1505803.8, 78991.71, -0.15929414, 0.47745043, -1234000.3, 242230.58, 0.0000000018666946, 10.002303, 9.998975 
2.8255436e+3, 1.5936755e+2, -1202252.6, -1429233.8, 79555.69, -0.13541575, 0.47379935, -1177145.9, 201097.97, 0.0, 10.002009, 9.998969 
2.8254613e+3, 1.6936594e+2, -1136828.0, -1330603.4, 109547.17, -0.106989846, 0.4442275, -1087470.0, 192787.3, 0.0, 10.00172, 9.999109 
2.8253794e+3, 1.7936432e+2, -1089269.5, -1275776.9, 108471.13, -0.087262824, 0.41206744, -1039476.94, 142793.53, 0.0, 10.001456, 9.99894 
2.8252974e+3, 1.8936269e+2, -1020395.4, -1198497.5, 131962.9, -0.07746833, 0.3983987, -950247.56, 134037.72, 0.0, 10.001288, 9.998877 
2.8252158e+3, 1.9936109e+2, -952237.06, -1125672.0, 128095.92, -0.064793475, 0.38978794, -884266.2, 102033.95, 0.0, 10.001131, 9.99878 
2.8251338e+3, 2.0935951e+2, -888239.6, -1039691.1, 118115.22, -0.03505886, 0.3907693, -823660.0, 64655.92, 0.0, 10.000879, 9.998817 
2.825052e+3, 2.19358e+2, -825216.75, -953140.3, 112920.54, -0.0060943333, 0.39263865, -759401.2, 30930.215, 0.0, 10.000615, 9.998867 
2.82497e+3, 2.293566e+2, -743378.0, -836150.25, 116468.37, -0.0040023397, 0.38813233, -664398.44, 27946.684, 0.0, 10.000388, 9.999106 
2.824888e+3, 2.3935528e+2, -685022.1, -768924.1, 108674.16, -0.0036217016, 0.38562328, -610482.94, -16125.024, 0.0, 10.000167, 9.9990015 
2.8248054e+3, 2.4935418e+2, -613029.94, -677968.94, 80000.11, 0.015464226, 0.41138798, -559161.2, -62792.176, 0.0, 9.999963, 9.999051 
2.8247225e+3, 2.5935313e+2, -547489.2, -597100.7, 73542.445, 0.03121418, 0.43609813, -494681.7, -96301.914, 0.0, 9.999746, 9.999039 
2.824639e+3, 2.6935148e+2, -470283.78, -489637.75, 56448.844, 0.02190214, 0.39492905, -422688.47, -122293.266, 0.0, 9.999518, 9.999214 
2.8245556e+3, 2.7934986e+2, -409400.63, -415385.8, 60571.742, 0.024361817, 0.34925646, -351747.6, -149337.34, 0.0, 9.999289, 9.999162 
2.8244722e+3, 2.8934926e+2, -329405.53, -314911.53, 23405.965, 0.049213465, 0.4028797, -297656.3, -193240.34, 0.0, 9.999111, 9.999267 
2.8243876e+3, 2.9934868e+2, -267887.1, -248447.53, 22399.55, 0.025543896, 0.4621256, -233749.81, -227328.89, 0.0, 9.99892, 9.999143 
2.8243026e+3, 3.0934614e+2, -261837.23, -201250.48, 9749.138, -0.024457984, 0.31809923, -199720.38, -199720.38, 0.0, 9.998536, 9.999319 
2.8242186e+3, 3.1934625e+2, -156091.16, 94105.78, -38728.34, -0.0012244671, 0.41142806, 99963.45, 99963.45, 0.0, 9.998205, 10.00151 
2.835797e+3, 1.2945691e+2, -1367065.0, -1648204.1, 7485.747, -0.18789828, 0.46984422, -1366865.9, 304503.25, 0.000000043183437, 10.0028305, 9.999093 
2.835712e+3, 1.394555e+2, -1312796.4, -1589439.9, 22143.281, -0.20313108, 0.45986536, -1311035.1, 262346.88, 0.000000000017311715, 10.002608, 9.998931 
2.8356284e+3, 1.4945412e+2, -1261242.1, -1517733.3, 67254.4, -0.17901023, 0.4717255, -1244677.1, 230717.77, 0.0, 10.002315, 9.998888 
2.8355455e+3, 1.594527e+2, -1203775.9, -1436611.5, 68537.336, -0.1238166, 0.47914153, -1185099.4, 192308.5, 0.0, 10.002026, 9.998912 
2.8354627e+3, 1.6945079e+2, -1138003.3, -1336867.4, 99063.23, -0.10980313, 0.42352924, -1097077.8, 182346.23, 0.0, 10.001736, 9.999061 
2.83538e+3, 1.7944889e+2, -1083085.1, -1265695.4, 100696.4, -0.10876066, 0.3640967, -1038462.44, 142977.42, 0.0, 10.001466, 9.999006 
2.8352985e+3, 1.894476e+2, -1006108.8, -1170558.8, 126377.2, -0.081089206, 0.3702007, -937562.0, 145889.13, 0.0, 10.001294, 9.999066 
2.8352168e+3, 1.9944641e+2, -950548.8, -1122926.1, 119988.24, -0.047500324, 0.38692594, -889002.3, 96459.766, 0.0, 10.001132, 9.998799 
2.8351346e+3, 2.0944466e+2, -903132.94, -1071376.6, 107877.305, -0.02855397, 0.3841894, -850455.7, 37024.566, 0.0, 10.00088, 9.9986 
2.8350523e+3, 2.1944289e+2, -829364.06, -962148.4, 104011.85, -0.013456378, 0.3796, -772360.94, 17137.709, 0.0, 10.000615, 9.998806 
2.8349704e+3, 2.2944173e+2, -735252.2, -820385.7, 108165.266, 0.005165975, 0.392151, -661579.3, 29931.0, 0.0, 10.000391, 9.999214 
2.834888e+3, 2.3944066e+2, -685273.2, -770103.25, 100397.016, 0.023011437, 0.40598148, -618699.25, -25178.441, 0.0, 10.000168, 9.998994 
2.8348053e+3, 2.4943915e+2, -623577.5, -700825.56, 72071.305, 0.016828453, 0.40151438, -580433.06, -84896.9, 0.0, 9.999966, 9.998895 
2.8347218e+3, 2.5943765e+2, -547182.44, -598755.5, 64767.258, 0.002981049, 0.39533922, -503257.1, -105705.83, 0.0, 9.999754, 9.999024 
2.834638e+3, 2.694366e+2, -459047.13, -468304.47, 47452.234, 0.008258962, 0.40347996, -415998.34, -116437.75, 0.0, 9.999524, 9.999359 
2.8345546e+3, 2.7943558e+2, -411777.9, -422144.72, 52647.605, 0.0313198, 0.4084526, -364059.16, -162489.81, 0.0, 9.999294, 9.999114 
2.8344706e+3, 2.8943387e+2, -350831.44, -361411.47, 16575.926, 0.038556665, 0.37558246, -338721.88, -235136.53, 0.0, 9.999119, 9.998944 
2.8343856e+3, 2.9943216e+2, -268780.13, -252369.72, 10897.815, -0.0064860983, 0.34206924, -246933.52, -241332.23, 0.0, 9.998928, 9.999113 
2.8343016e+3, 3.094309e+2, -239385.95, -155805.39, -7140.0415, 0.0307893, 0.3098251, -155199.83, -155199.83, 0.0, 9.998539, 9.999632 
2.834216e+3, 3.1943083e+2, -243694.23, -90303.7, -33574.953, -0.030816678, 0.38368705, -83276.56, -83276.56, 0.0, 9.998217, 10.000237 
2.845799e+3, 1.2954217e+2, -1403483.3, -1647491.1, 17570.047, -0.20417354, 0.48677167, -1402224.6, 268308.94, 0.0, 10.002503, 9.999255 
2.8457144e+3, 1.395408e+2, -1352635.1, -1596634.8, 19337.377, -0.18591867, 0.46669704, -1351112.1, 221433.03, 0.0, 10.002285, 9.999038 
2.8456303e+3, 1.4953925e+2, -1287112.4, -1529822.6, 67734.47, -0.17147037, 0.4573035, -1269489.0, 205070.33, 0.0, 10.002137, 9.99889 
2.8455472e+3, 1.5953767e+2, -1201833.5, -1429986.4, 74504.49, -0.1290097, 0.44626063, -1179658.9, 196914.66, 0.0, 10.002016, 9.9989605 
2.845464e+3, 1.6953595e+2, -1118497.0, -1317761.9, 112078.89, -0.109538905, 0.4034677, -1068168.4, 210419.27, 0.0, 10.001831, 9.999144 
2.8453815e+3, 1.7953427e+2, -1058871.6, -1250545.3, 119797.69, -0.10152023, 0.3597587, -1001293.44, 179308.05, 0.0, 10.001621, 9.999033 
2.8452992e+3, 1.8953294e+2, -1008829.25, -1178231.6, 131613.44, -0.07223768, 0.36291024, -937017.25, 145596.58, 0.0, 10.001307, 9.999007 
2.8452176e+3, 1.9953163e+2, -967857.1, -1128537.9, 112660.55, -0.03751685, 0.37411436, -909824.94, 74801.234, 0.0, 10.001003, 9.998821 
2.845135e+3, 2.0952995e+2, -893798.75, -1054961.0, 118534.04, -0.023281358, 0.3714983, -831049.4, 55594.02, 0.0, 10.0008955, 9.998705 
2.8450528e+3, 2.195283e+2, -801161.0, -945672.3, 132379.27, -0.013171446, 0.36998954, -722601.7, 66058.95, 0.0, 10.000799, 9.998829 
2.8449705e+3, 2.2952722e+2, -724930.25, -826821.06, 123574.94, 0.010167761, 0.3975111, -642211.1, 48460.97, 0.0, 10.000514, 9.999109 
2.844888e+3, 2.395262e+2, -681245.4, -770889.75, 105039.375, 0.033916008, 0.42472112, -611864.7, -19181.824, 0.0, 10.000209, 9.998968 
2.8448048e+3, 2.4952456e+2, -605292.94, -685898.2, 90349.35, 0.022044066, 0.40584314, -546664.75, -51965.652, 0.0, 10.000067, 9.998947 
2.844721e+3, 2.5952294e+2, -521959.5, -585543.75, 93316.24, 0.0018267002, 0.38375083, -455168.34, -58453.242, 0.0, 9.999927, 9.999031 
2.8446373e+3, 2.6952198e+2, -443740.47, -467899.44, 62189.805, 0.010869914, 0.40524048, -392467.88, -93744.03, 0.0, 9.999661, 9.999294 
2.8445536e+3, 2.7952105e+2, -400662.2, -418609.9, 56143.332, 0.0372733, 0.42530417, -352780.06, -152048.14, 0.0, 9.999379, 9.999097 
2.8444695e+3, 2.8951916e+2, -337348.3, -353311.4, 42953.277, 0.027246723, 0.3745021, -301641.3, -198892.25, 0.0, 9.999207, 9.998957 
2.8443843e+3, 2.9951724e+2, -242120.81, -229125.3, 57008.82, -0.031013852, 0.31864023, -178245.13, -173478.81, 0.0, 9.999069, 9.999203 
2.8443003e+3, 3.0951616e+2, -166319.9, -105571.016, 28089.404, 0.07099189, 0.29219466, -94573.71, -94573.71, 0.0, 9.99898, 9.999763 
2.8442138e+3, 3.195161e+2, -209049.23, -138575.58, 1062.9207, -0.060906123, 0.37096712, -138559.55, -138559.55, 0.0, 9.998737, 9.999654 
2.855801e+3, 1.296278e+2, -1404374.0, -1650636.1, 7679.649, -0.24098746, 0.5145825, -1404134.8, 265559.94, 0.0, 10.002508, 9.999231 
2.855717e+3, 1.3962637e+2, -1347661.1, -1590992.4, 11843.097, -0.12025357, 0.490373, -1347086.1, 224620.27, 0.0, 10.002304, 9.999067 
2.8556323e+3, 1.4962442e+2, -1279399.1, -1518518.0, 63028.375, -0.1415561, 0.43522722, -1263803.0, 209920.5, 0.0, 10.002155, 9.99896 
2.8555486e+3, 1.5962252e+2, -1190884.1, -1409600.3, 69088.51, -0.14961575, 0.3822693, -1170888.4, 204851.81, 0.0, 10.002025, 9.999097 
2.8554657e+3, 1.6962142e+2, -1104574.6, -1290358.3, 104289.51, -0.10792654, 0.3854656, -1057805.5, 219942.83, 0.0, 10.001836, 9.99933 
2.8553832e+3, 1.796204e+2, -1060108.8, -1254353.0, 109333.984, -0.07036358, 0.3943507, -1010989.25, 168766.84, 0.0, 10.001625, 9.999006 
2.8553006e+3, 1.896186e+2, -1028662.8, -1220768.3, 119018.05, -0.053042494, 0.3737219, -971772.94, 110000.67, 0.0, 10.00131, 9.998714 
2.8552184e+3, 1.9961676e+2, -965099.44, -1123811.0, 105222.875, -0.035462126, 0.35155416, -912663.0, 71129.055, 0.0, 10.001006, 9.998854 
2.8551358e+3, 2.0961544e+2, -865385.7, -996983.9, 116020.46, -0.018910233, 0.3532404, -797804.6, 88000.56, 0.0, 10.000898, 9.999102 
2.8550532e+3, 2.1961422e+2, -795601.9, -934481.0, 125502.086, -0.0047596144, 0.36367333, -721609.8, 66207.58, 0.0, 10.000799, 9.998906 
2.8549704e+3, 2.2961305e+2, -747769.4, -874854.0, 111078.914, 0.010134644, 0.40373123, -683342.4, 6488.454, 0.0, 10.000515, 9.99878 
2.8548878e+3, 2.3961188e+2, -683966.25, -777403.3, 96273.586, 0.025988042, 0.44172248, -623674.4, -31830.158, 0.0, 10.000211, 9.998923 
2.8548047e+3, 2.4961047e+2, -585571.3, -646275.8, 85849.586, 0.03200291, 0.42681476, -524866.4, -31008.803, 0.0, 10.000071, 9.999219 
2.8547212e+3, 2.5960907e+2, -520944.9, -584960.9, 85844.51, 0.030839458, 0.40461168, -461335.25, -65464.426, 0.0, 9.99993, 9.999034 
2.854637e+3, 2.6960757e+2, -465895.53, -514507.7, 51064.906, 0.030881908, 0.39736137, -433647.13, -135761.73, 0.0, 9.999663, 9.998975 
2.854553e+3, 2.7960616e+2, -399056.0, -415058.44, 46006.113, 0.042065706, 0.39340493, -360360.5, -160461.52, 0.0, 9.999376, 9.999124 
2.8544682e+3, 2.8960526e+2, -309141.7, -293275.44, 38434.203, 0.016207423, 0.40858045, -261964.17, -160058.1, 0.0, 9.999198, 9.999374 
2.8543827e+3, 2.996043e+2, -228131.27, -199014.7, 54890.195, -0.050312284, 0.4125262, -156784.98, -152871.84, 0.0, 9.9990635, 9.9994135 
2.854299e+3, 3.0960193e+2, -172934.44, -121866.57, 27541.938, 0.08749633, 0.25687084, -109843.34, -109843.34, 0.0, 9.998989, 9.999647 
2.854212e+3, 3.196023e+2, -180039.19, -77508.33, -32491.02, -0.07727481, 0.3803829, -68079.36, -68079.36, 0.0, 9.998731, 10.000077 
2.8658032e+3, 1.297129e+2, -1434521.1, -1654471.4, 1228.8567, -0.21786891, 0.49351075, -1434514.3, 234345.1, 0.0, 10.0022545, 9.999328 
2.865719e+3, 1.3971159e+2, -1368787.4, -1584730.3, 14971.537, -0.108056076, 0.47041738, -1367754.4, 203115.28, 0.0, 10.002089, 9.999213 
2.8656343e+3, 1.4970984e+2, -1286290.8, -1501659.0, 74865.34, -0.13253744, 0.4169037, -1262823.5, 210061.13, 0.0, 10.002024, 9.999138 
2.8655502e+3, 1.5970808e+2, -1195392.9, -1402532.0, 82558.89, -0.1428019, 0.3649667, -1166513.9, 208385.7, 0.0, 10.001957, 9.999177 
2.865467e+3, 1.6970703e+2, -1125000.1, -1305589.1, 101618.22, -0.10235901, 0.37165326, -1079355.8, 197552.34, 0.0, 10.001721, 9.999279 
2.8653842e+3, 1.7970602e+2, -1080243.9, -1260918.8, 94767.18, -0.06540073, 0.3858106, -1039655.1, 139261.22, 0.0, 10.001474, 9.999033 
2.8653014e+3, 1.8970434e+2, -1022792.75, -1206177.8, 124793.45, -0.052977532, 0.36928064, -959627.5, 121305.28, 0.0, 10.001302, 9.998817 
2.865219e+3, 1.9970262e+2, -941432.2, -1102081.6, 134299.77, -0.039971136, 0.3499195, -865268.94, 117681.086, 0.0, 10.001128, 9.998942 
2.8651363e+3, 2.0970139e+2, -867292.9, -991242.56, 128764.03, -0.01573288, 0.35422063, -786365.44, 98596.93, 0.0, 10.00086, 9.999158 
2.8650537e+3, 2.1970025e+2, -819429.8, -939119.7, 119254.484, 0.0063985866, 0.3663587, -745846.7, 41127.277, 0.0, 10.000608, 9.998965 
2.8649706e+3, 2.2969905e+2, -735428.9, -864792.44, 124893.78, 0.009794274, 0.3993008, -659461.5, 29526.178, 0.0, 10.000585, 9.998815 
2.8648877e+3, 2.3969783e+2, -631119.06, -745258.5, 130683.32, 0.014350531, 0.43093127, -545587.7, 45413.816, 0.0, 10.000549, 9.99898 
2.8648046e+3, 2.4969657e+2, -566898.9, -632053.44, 105976.02, 0.03433021, 0.424276, -488605.97, 4407.642, 0.0, 10.000179, 9.999263 
2.8647208e+3, 2.596953e+2, -540079.4, -591681.7, 96059.14, 0.04835112, 0.4109886, -466416.66, -71390.95, 0.0, 9.99979, 9.999055 
2.8646365e+3, 2.6969373e+2, -441415.06, -504295.9, 82841.14, 0.03869945, 0.39911294, -384248.75, -87207.76, 0.0, 9.99984, 9.99896 
2.864552e+3, 2.7969226e+2, -326223.75, -381512.16, 90921.164, 0.039535128, 0.39012372, -258837.13, -59781.527, 0.0, 9.999888, 9.999105 
2.8644672e+3, 2.8969136e+2, -240956.89, -264917.9, 56246.848, 0.02230885, 0.40951264, -195428.78, -94365.836, 0.0, 9.99969, 9.9993305 
2.864382e+3, 2.9969046e+2, -159821.27, -153332.05, 40342.055, -0.036633465, 0.42021614, -116104.336, -113034.72, 0.0, 9.99948, 9.999525 
2.864298e+3, 3.0968842e+2, -143542.63, -86979.03, 30184.686, 0.07694748, 0.27892417, -73896.89, -73896.89, 0.0, 9.999105, 9.999828 
2.8642103e+3, 3.1968877e+2, -104156.14, -33259.953, -7841.3726, -0.08966517, 0.38378844, -32403.025, -32403.025, 0.0, 9.999222, 10.000143 
2.8758058e+3, 1.2979767e+2, -1415916.8, -1623963.8, -4060.9797, -0.15228106, 0.43662563, -1415837.5, 252188.69, 0.0, 10.002289, 9.999521 
2.8757206e+3, 1.3979661e+2, -1349221.3, -1548996.1, 11714.133, -0.1400684, 0.41806725, -1348536.8, 221497.14, 0.0, 10.002109, 9.99945 
2.8756356e+3, 1.4979549e+2, -1267335.5, -1464205.5, 73083.516, -0.14107463, 0.40274104, -1243170.9, 228871.88, 0.0, 10.00203, 9.999392 
2.875552e+3, 1.597943e+2, -1194629.6, -1400844.3, 76476.305, -0.11437228, 0.38606393, -1169363.5, 204689.19, 0.0, 10.001955, 9.999189 
2.8754684e+3, 1.6979273e+2, -1142768.8, -1343744.5, 91821.41, -0.09406709, 0.36037648, -1107135.4, 168931.69, 0.0, 10.001725, 9.999017 
2.8753853e+3, 1.7979118e+2, -1073592.3, -1248715.5, 87594.67, -0.08344584, 0.33936912, -1037299.6, 140781.73, 0.0, 10.00148, 9.999115 
2.875302e+3, 1.8979016e+2, -990608.94, -1140085.6, 118700.125, -0.06994779, 0.35193896, -925077.75, 155013.23, 0.0, 10.001304, 9.99927 
2.8752196e+3, 1.9978917e+2, -933620.6, -1085834.4, 125600.2, -0.050478846, 0.36817795, -862868.1, 119232.4, 0.0, 10.001126, 9.999055 
2.8751367e+3, 2.0978777e+2, -886390.5, -1031599.5, 117842.58, -0.014013028, 0.3735867, -820581.56, 63533.734, 0.0, 10.000861, 9.998881 
2.875054e+3, 2.1978635e+2, -815452.06, -931440.44, 114049.32, 0.017946772, 0.37760276, -745498.75, 40631.574, 0.0, 10.000609, 9.999019 
2.874971e+3, 2.2978519e+2, -706916.94, -806784.8, 125644.18, 0.008946578, 0.38367122, -621647.8, 66494.766, 0.0, 10.000588, 9.999211 
2.8748876e+3, 2.3978408e+2, -621071.44, -725690.6, 123760.16, -0.00021182296, 0.3906188, -539020.06, 51134.414, 0.0, 10.000553, 9.999112 
2.874804e+3, 2.497828e+2, -582139.94, -663907.7, 88652.586, 0.027728533, 0.39598215, -525398.1, -33230.81, 0.0, 10.000178, 9.999045 
2.87472e+3, 2.5978157e+2, -537113.56, -584983.25, 89412.37, 0.05093655, 0.40118742, -468487.94, -74307.85, 0.0, 9.999785, 9.9991045 
2.874636e+3, 2.6978052e+2, -417076.38, -455742.88, 88080.59, 0.03260024, 0.41344273, -346232.2, -50042.234, 0.0, 9.999846, 9.99929 
2.8745514e+3, 2.797794e+2, -330276.66, -396210.72, 88084.53, 0.0264871, 0.41938522, -269192.06, -70991.66, 0.0, 9.999912, 9.998994 
2.8744668e+3, 2.8977728e+2, -281808.53, -354440.75, 49433.69, 0.04698862, 0.36624697, -256785.0, -156564.2, 0.0, 9.99971, 9.998707 
2.8743815e+3, 2.9977536e+2, -158351.53, -151767.11, 25122.258, 0.017485984, 0.32211432, -129722.266, -127483.47, 0.0, 9.999487, 9.999533 
2.874296e+3, 3.0977592e+2, -108679.34, -6354.1406, 15247.182, 0.03275716, 0.39396164, -4130.5234, -4130.5234, 0.0, 9.999072, 10.000398 
2.8742093e+3, 3.1977513e+2, -136279.98, -102877.04, 58554.703, -0.086411536, 0.35435307, -58688.508, -58688.508, 0.0, 9.99923, 9.999663 
2.8858078e+3, 1.298832e+2, -1424962.0, -1636873.5, 24748.22, -0.13364841, 0.3970845, -1422110.3, 245074.5, 0.0, 10.002264, 9.999444 
2.8857222e+3, 1.3988207e+2, -1362364.9, -1554441.0, 26223.146, -0.13649711, 0.3793294, -1358849.1, 210344.67, 0.0, 10.002015, 9.999456 
2.8856376e+3, 1.4988117e+2, -1295913.6, -1470747.3, 75744.74, -0.13722807, 0.37902492, -1267662.9, 203538.28, 0.0, 10.001804, 9.9994545 
2.8855538e+3, 1.5988019e+2, -1239167.0, -1416917.9, 70288.56, -0.107521504, 0.37775683, -1214731.8, 158477.58, 0.0, 10.001626, 9.999238 
2.88547e+3, 1.698786e+2, -1163252.4, -1351167.8, 99877.59, -0.08843805, 0.34796837, -1120083.9, 155140.22, 0.0, 10.001574, 9.999038 
2.8853863e+3, 1.7987701e+2, -1065891.0, -1237297.5, 108194.33, -0.080448896, 0.32007933, -1013568.6, 163670.36, 0.0, 10.001501, 9.999182 
2.8853032e+3, 1.8987614e+2, -996887.0, -1130151.1, 118704.33, -0.06932572, 0.33804464, -927392.1, 151855.19, 0.0, 10.001206, 9.999385 
2.8852203e+3, 1.9987534e+2, -957958.06, -1085992.9, 108977.945, -0.051226653, 0.36086145, -895585.5, 85669.65, 0.0, 10.00091, 9.999159 
2.8851372e+3, 2.0987396e+2, -884067.1, -1020368.0, 122159.01, -0.01617386, 0.36079368, -812334.4, 70935.1, 0.0, 10.000834, 9.998972 
2.8850543e+3, 2.198726e+2, -785223.1, -900230.75, 139189.63, 0.014973758, 0.3585648, -692126.7, 93157.445, 0.0, 10.000748, 9.999166 
2.8849712e+3, 2.2987163e+2, -728652.2, -793820.3, 139576.89, 0.010398072, 0.36624113, -617906.44, 69387.805, 0.0, 10.00034, 9.999419 
2.8848878e+3, 2.3987071e+2, -694335.06, -743030.4, 130160.95, 0.0051084245, 0.37451512, -586264.1, 3039.8354, 0.0, 9.999974, 9.999271 
2.884804e+3, 2.4986951e+2, -572956.75, -650666.9, 114695.26, 0.02499444, 0.3762952, -490713.84, 602.6242, 0.0, 10.000207, 9.999121 
2.88472e+3, 2.5986832e+2, -432461.47, -524318.4, 132960.9, 0.04071345, 0.38118744, -337720.0, 55608.875, 0.0, 10.000467, 9.999189 
2.8846356e+3, 2.6986748e+2, -370644.88, -430421.2, 110064.05, 0.023793649, 0.40873143, -286483.06, 8853.974, 0.0, 10.000157, 9.999311 
2.884551e+3, 2.7986652e+2, -362502.78, -409950.63, 91437.04, 0.022015018, 0.42628902, -291762.13, -94415.67, 0.0, 9.999687, 9.999007 
2.8844666e+3, 2.8986412e+2, -276080.8, -371462.47, 101300.97, 0.06116038, 0.35726115, -211806.02, -112436.38, 0.0, 9.999841, 9.998524 
2.884381e+3, 2.9986194e+2, -60487.813, -137185.42, 88839.664, 0.040299192, 0.307413, -2073.4204, -682.6533, 0.0, 10.000307, 9.999236 
2.8842947e+3, 3.0986267e+2, 19090.27, -11934.868, -7732.2725, -0.034878056, 0.44692, 20910.555, 20910.555, 0.0, 10.000242, 9.999798 
2.884209e+3, 3.1986076e+2, 31868.033, -90160.16, 54904.723, -0.083602995, 0.35457203, 52934.68, 52934.68, 0.0, 10.000678, 9.999058 
2.8958097e+3, 1.2996931e+2, -1446208.1, -1679535.3, 14925.614, -0.14863475, 0.37008417, -1445257.1, 221079.47, 0.0, 10.002258, 9.999153 
2.8957242e+3, 1.3996793e+2, -1370298.4, -1578498.1, 18972.352, -0.10638331, 0.35089964, -1368583.6, 199766.64, 0.0, 10.002048, 9.999275 
2.895639e+3, 1.4996687e+2, -1298798.5, -1483388.4, 68581.4, -0.12473009, 0.34770122, -1276107.5, 194252.1, 0.0, 10.001832, 9.999355 
2.8955546e+3, 1.5996581e+2, -1231097.6, -1403865.5, 66695.945, -0.11793605, 0.3458483, -1208346.3, 164022.5, 0.0, 10.001641, 9.99932 
2.8954712e+3, 1.6996464e+2, -1144242.0, -1312610.9, 98489.3, -0.0849031, 0.3348466, -1098861.1, 175518.02, 0.0, 10.001576, 9.999302 
2.8953877e+3, 1.7996344e+2, -1064220.8, -1232767.5, 101153.18, -0.060227867, 0.3242492, -1016835.6, 159554.42, 0.0, 10.001495, 9.999216 
2.8953043e+3, 1.8996228e+2, -1010642.6, -1159202.5, 106193.43, -0.05378631, 0.32693586, -955328.75, 123073.1, 0.0, 10.001206, 9.999186 
2.8952208e+3, 1.9996114e+2, -949903.5, -1070301.4, 102355.484, -0.044534735, 0.32975343, -891356.6, 89056.81, 0.0, 10.000913, 9.999266 
2.8951377e+3, 2.0996e+2, -853423.8, -957045.06, 120783.91, -0.022499336, 0.31698212, -773807.3, 108617.49, 0.0, 10.000835, 9.999407 
2.8950548e+3, 2.1995893e+2, -770372.8, -868904.9, 129929.664, -0.0012720698, 0.30955106, -680682.5, 103752.89, 0.0, 10.000744, 9.999383 
2.894971e+3, 2.2995836e+2, -728766.4, -793739.94, 121822.81, 0.014370993, 0.34807968, -635173.06, 51269.625, 0.0, 10.000338, 9.999422 
2.8948876e+3, 2.3995776e+2, -681717.94, -715811.44, 126880.75, 0.02840594, 0.38426608, -570743.94, 17705.977, 0.0, 9.9999695, 9.999461 
2.894804e+3, 2.499567e+2, -545153.9, -594239.5, 127980.82, 0.025557363, 0.365818, -439383.84, 51076.914, 0.0, 10.000212, 9.999507 
2.8947198e+3, 2.5995559e+2, -423196.28, -510248.72, 134875.53, 0.015622701, 0.34907335, -324997.63, 67474.266, 0.0, 10.000488, 9.999276 
2.8946352e+3, 2.699546e+2, -394046.2, -482194.25, 89975.05, 0.011501698, 0.3812853, -337930.25, -43447.484, 0.0, 10.000168, 9.998953 
2.8945503e+3, 2.7995345e+2, -350592.66, -384352.63, 77223.125, 0.027747575, 0.4064626, -288426.2, -91931.45, 0.0, 9.9996805, 9.999187 
2.894466e+3, 2.8995207e+2, -250177.61, -314929.7, 124589.77, 0.06350132, 0.392796, -153825.95, -55318.336, 0.0, 9.999833, 9.998914 
2.894381e+3, 2.999505e+2, -108799.336, -239340.78, 102426.51, 0.01905377, 0.3917316, -52614.48, -52092.543, 0.0, 10.000318, 9.998528 
2.8942934e+3, 3.0994803e+2, -123723.086, -315627.78, -18197.629, -0.13832025, 0.3786551, -122012.71, -122012.71, 0.0, 10.000276, 9.997695 
2.8942093e+3, 3.1994572e+2, -8767.852, -190709.55, 154544.78, -0.08284453, 0.43795928, 79592.8, 79592.8, 0.0, 10.0007515, 9.998332 
2.9058114e+3, 1.3005538e+2, -1517334.1, -1725402.1, 21590.36, -0.13721777, 0.33576152, -1515117.4, 150372.72, 0.0, 10.00182, 9.999051 
2.9057258e+3, 1.4005406e+2, -1358854.0, -1583255.3, 29368.857, -0.10242094, 0.33270437, -1355073.9, 212430.4, 0.0, 10.00217, 9.999185 
2.9056406e+3, 1.5005296e+2, -1286766.1, -1488874.3, 71950.95, -0.11913613, 0.33530685, -1263768.4, 205746.17, 0.0, 10.001963, 9.999255 
2.9055563e+3, 1.6005187e+2, -1228593.4, -1401809.5, 71298.9, -0.11025448, 0.3351861, -1203020.9, 168503.56, 0.0, 10.001655, 9.999328 
2.9054725e+3, 1.7005071e+2, -1163234.6, -1308236.8, 95759.74, -0.080468394, 0.31693053, -1115626.0, 157908.38, 0.0, 10.001388, 9.999423 
2.9053888e+3, 1.8004954e+2, -1108839.6, -1246215.1, 91725.21, -0.05793881, 0.30052558, -1062934.5, 112610.055, 0.0, 10.001153, 9.9992895 
2.905305e+3, 1.9004846e+2, -1026462.2, -1163850.5, 108563.13, -0.04368349, 0.3075028, -966685.2, 110870.695, 0.0, 10.001083, 9.999214 
2.9052216e+3, 2.0004742e+2, -931170.7, -1049795.8, 116256.75, -0.028324103, 0.31520638, -859970.4, 119596.555, 0.0, 10.000991, 9.999369 
2.905138e+3, 2.100465e+2, -868155.9, -942191.94, 120421.45, -0.018961037, 0.30752498, -779191.1, 102385.05, 0.0, 10.000638, 9.999604 
2.9050547e+3, 2.2004567e+2, -826140.0, -880608.8, 115192.46, -0.010716823, 0.30444616, -735006.25, 48578.31, 0.0, 10.000295, 9.999519 
2.904971e+3, 2.3004517e+2, -731567.06, -783589.75, 110744.92, 0.00726484, 0.34134144, -643819.75, 41771.477, 0.0, 10.000269, 9.999525 
2.9048875e+3, 2.400447e+2, -630395.8, -668264.94, 124915.53, 0.027444487, 0.377087, -522987.94, 64609.492, 0.0, 10.000224, 9.999664 
2.9048035e+3, 2.5004402e+2, -576103.56, -567945.8, 126800.35, 0.030156855, 0.36633125, -445158.75, 44445.62, 0.0, 9.999823, 9.999874 
2.9047194e+3, 2.600433e+2, -551459.2, -543857.94, 139398.03, 0.020220347, 0.35463727, -408208.72, -16597.172, 0.0, 9.999487, 9.999527 
2.9046348e+3, 2.7004236e+2, -400471.22, -462653.0, 126872.3, -0.0006979538, 0.37217337, -300935.84, -7313.4697, 0.0, 10.00003, 9.999151 
2.9045498e+3, 2.8004134e+2, -198943.38, -266732.16, 137326.48, 0.010924173, 0.3876126, -91390.27, 104242.99, 0.0, 10.00054, 9.999575 
2.904465e+3, 2.900409e+2, -386397.72, -273071.63, 155488.42, 0.07103098, 0.40323696, -164243.44, -66607.55, 0.0, 9.998447, 9.99986 
2.9158133e+3, 1.3014145e+2, -1513050.1, -1718507.8, 35057.332, -0.108865134, 0.29845566, -1507233.0, 157411.53, 0.0, 10.001829, 9.999093 
2.9157275e+3, 1.4014043e+2, -1362864.9, -1587615.8, 30860.094, -0.11900609, 0.3231706, -1358704.5, 207952.0, 0.0, 10.002153, 9.999163 
2.915642e+3, 1.5013938e+2, -1294581.4, -1503914.9, 59024.28, -0.11860885, 0.3377887, -1279085.8, 189580.77, 0.0, 10.001957, 9.999155 
2.9155576e+3, 1.6013823e+2, -1231649.3, -1409694.6, 60823.094, -0.088691115, 0.34140128, -1212855.0, 157822.03, 0.0, 10.00166, 9.999271 
2.9154733e+3, 1.7013676e+2, -1161788.8, -1308404.4, 85797.81, -0.07591695, 0.29495713, -1122245.8, 150444.11, 0.0, 10.0014, 9.999417 
2.9153895e+3, 1.8013538e+2, -1099306.5, -1229176.0, 86328.7, -0.07130844, 0.25331753, -1056217.4, 118484.66, 0.0, 10.0011635, 9.999402 
2.9153058e+3, 1.901347e+2, -1009834.25, -1129875.8, 106282.15, -0.0379781, 0.28088102, -947796.06, 128913.22, 0.0, 10.001085, 9.999447 
2.9152223e+3, 2.0013413e+2, -925703.44, -1037371.44, 107533.99, -0.0029286148, 0.31600362, -860372.25, 118343.586, 0.0, 10.000985, 9.999457 
2.9151383e+3, 2.1013342e+2, -870493.6, -947235.6, 104895.836, -0.006529946, 0.33184156, -797170.94, 83552.85, 0.0, 10.000637, 9.999571 
2.9150546e+3, 2.2013274e+2, -821422.9, -871353.06, 108084.65, -0.016097276, 0.34288946, -735457.6, 47274.137, 0.0, 10.000296, 9.999583 
2.9149708e+3, 2.3013203e+2, -716738.94, -753491.0, 111251.03, -0.011964036, 0.3449213, -622356.5, 62383.477, 0.0, 10.000271, 9.999731 
2.914887e+3, 2.4013148e+2, -615074.6, -637898.75, 116471.93, 0.0020503988, 0.350886, -509457.0, 77289.79, 0.0, 10.00023, 9.999871 
2.9148033e+3, 2.5013146e+2, -553868.1, -520402.06, 107781.57, 0.039845143, 0.37934133, -428062.38, 60684.965, 0.0, 9.999816, 10.000204 
2.914719e+3, 2.6013145e+2, -524055.9, -483010.28, 141885.02, 0.05536848, 0.40216175, -360171.5, 30576.258, 0.0, 9.999469, 9.999954 
2.9146343e+3, 2.7013075e+2, -344370.56, -348150.84, 154613.4, -0.015272392, 0.38428703, -191635.75, 101119.66, 0.0, 10.000038, 9.999934 
2.9145497e+3, 2.801302e+2, -156583.47, -188465.25, 130449.9, -0.038817618, 0.369832, -41104.082, 153657.5, 0.0, 10.000581, 10.000093 
2.9144633e+3, 2.9013062e+2, -292530.3, -82686.29, 15776.003, 0.087785915, 0.38227636, -81506.88, 15248.747, 0.0, 9.998452, 10.001174 
2.9258147e+3, 1.3022763e+2, -1543662.4, -1726855.9, 11468.325, -0.09274109, 0.32197246, -1542947.3, 120852.13, 0.0, 10.00159, 9.999151 
2.925729e+3, 1.4022641e+2, -1432068.4, -1610265.6, 3828.674, -0.10975924, 0.3208448, -1431986.1, 133826.9, 0.0, 10.00163, 9.99926 
2.925644e+3, 1.5022537e+2, -1332799.0, -1509592.1, 35728.984, -0.111971684, 0.3237552, -1325851.4, 141971.34, 0.0, 10.001637, 9.99927 
2.925559e+3, 1.6022427e+2, -1237258.9, -1407021.8, 49458.5, -0.08148296, 0.3229553, -1223900.9, 145931.53, 0.0, 10.0015955, 9.999322 
2.9254746e+3, 1.7022298e+2, -1151403.3, -1303882.1, 74681.81, -0.06421231, 0.29192194, -1120919.5, 150924.47, 0.0, 10.00147, 9.999415 
2.9253903e+3, 1.8022175e+2, -1078012.5, -1213920.8, 74823.305, -0.0567619, 0.26408663, -1044891.0, 128964.15, 0.0, 10.001285, 9.99945 
2.9253066e+3, 1.9022109e+2, -1021436.5, -1123930.8, 86369.21, -0.033431128, 0.28414407, -972255.0, 103607.164, 0.0, 10.000953, 9.999553 
2.9252228e+3, 2.0022053e+2, -972418.25, -1054891.4, 80807.5, -0.0072902455, 0.3109427, -922933.8, 54934.67, 0.0, 10.00064, 9.999505 
2.9251388e+3, 2.1021986e+2, -881308.06, -952191.9, 78926.52, -0.004485543, 0.33027166, -830231.06, 49645.23, 0.0, 10.00056, 9.999576 
2.9250547e+3, 2.2021927e+2, -789758.75, -845732.6, 86544.78, -0.0074123614, 0.3464349, -726788.2, 55095.516, 0.0, 10.000466, 9.999679 
2.9249707e+3, 2.3021874e+2, -720807.56, -730897.56, 91504.82, -0.0086586075, 0.347933, -634208.75, 49681.19, 0.0, 10.0001335, 9.999954 
2.9248866e+3, 2.4021836e+2, -661924.3, -642537.2, 96967.69, -0.001164071, 0.34956613, -554779.75, 31115.074, 0.0, 9.9998255, 10.000036 
2.9248026e+3, 2.5021842e+2, -532142.6, -488494.6, 79008.055, 0.036941655, 0.36852887, -428351.78, 59542.652, 0.0, 9.999867, 10.0004015 
2.9247183e+3, 2.6021862e+2, -442720.47, -397717.38, 110411.85, 0.056038078, 0.38727465, -307537.53, 82354.984, 0.0, 9.999823, 10.000373 
2.9246336e+3, 2.702187e+2, -401085.97, -289990.16, 130736.11, -0.013294556, 0.37889898, -203490.53, 88401.85, 0.0, 9.999273, 10.000706 
2.924549e+3, 2.8021878e+2, -363296.53, -234250.58, 104035.336, -0.037032165, 0.35969895, -176353.92, 17537.725, 0.0, 9.998919, 10.0005865 
2.9244623e+3, 2.9021916e+2, 14567.096, 89309.195, -84912.17, 0.092112646, 0.332795, 144710.3, 240596.19, 0.0, 10.000432, 10.001419 
2.935816e+3, 1.3031381e+2, -1539696.3, -1716594.1, 12414.499, -0.08504684, 0.38579935, -1538829.3, 124125.9, 0.0, 10.001583, 9.999225 
2.9357308e+3, 1.4031208e+2, -1420999.3, -1583597.0, 6493.1914, -0.080777235, 0.32145593, -1420740.4, 144232.81, 0.0, 10.001615, 9.999451 
2.935645e+3, 1.5031101e+2, -1315353.5, -1469826.9, 34903.816, -0.10175238, 0.29538384, -1307833.0, 159149.33, 0.0, 10.001621, 9.999552 
2.9355603e+3, 1.6031006e+2, -1230705.5, -1388959.4, 46653.785, -0.08724267, 0.28432155, -1217975.8, 151014.38, 0.0, 10.001576, 9.999456 
2.9354757e+3, 1.7030929e+2, -1152935.6, -1303955.5, 68451.305, -0.047129057, 0.30475146, -1126527.3, 144470.05, 0.0, 10.001455, 9.999422 
2.935392e+3, 1.8030857e+2, -1079727.6, -1215639.6, 64881.426, -0.019069146, 0.3242933, -1053728.3, 119276.46, 0.0, 10.001276, 9.999443 
2.935307e+3, 1.9030757e+2, -1021252.0, -1124778.9, 72542.31, -0.031500988, 0.31347865, -983898.44, 91116.266, 0.0, 10.000957, 9.999546 
2.935223e+3, 2.0030661e+2, -969930.3, -1052158.6, 73729.516, -0.040708724, 0.29973716, -926626.4, 50398.273, 0.0, 10.000649, 9.999519 
2.935139e+3, 2.1030582e+2, -877388.4, -944917.9, 76513.33, -0.011865277, 0.30287525, -827520.9, 51512.547, 0.0, 10.000562, 9.999624 
2.935055e+3, 2.2030525e+2, -781035.75, -827105.8, 78691.88, 0.016354177, 0.31505266, -722076.7, 58963.605, 0.0, 10.000463, 9.999808 
2.9349706e+3, 2.303053e+2, -704173.25, -696075.4, 76931.89, 0.017425565, 0.3520596, -623085.94, 59954.97, 0.0, 10.000131, 10.0001955 
2.9348862e+3, 2.4030533e+2, -653682.5, -625587.9, 92338.36, 0.016263751, 0.37596372, -546234.44, 38806.87, 0.0, 9.999825, 10.000154 
2.934802e+3, 2.5030482e+2, -526677.06, -479835.16, 82164.47, 0.018496396, 0.33126542, -417818.75, 69227.25, 0.0, 9.999878, 10.000457 
2.9347172e+3, 2.603047e+2, -409345.22, -334379.22, 98100.22, 0.016654769, 0.30283415, -266844.94, 122201.67, 0.0, 9.999846, 10.000797 
2.934633e+3, 2.7030605e+2, -347098.2, -175040.52, 103874.97, 0.009754619, 0.35449728, -126195.445, 164837.83, 0.0, 9.999258, 10.001504 
2.934548e+3, 2.8030705e+2, -331876.4, -163453.13, 117498.62, 0.017862925, 0.35748097, -103104.99, 89918.15, 0.0, 9.998892, 10.001087 
2.9344618e+3, 2.9030696e+2, -7077.258, 31843.777, 2899.6243, 0.06709367, 0.28972772, 32058.613, 127080.875, 0.0, 10.000493, 10.00099 
2.9458168e+3, 1.3039878e+2, -1568491.0, -1706474.6, 2862.3938, -0.087248586, 0.33571693, -1568431.6, 93690.11, 0.0, 10.001279, 9.999442 
2.945732e+3, 1.4039743e+2, -1461997.0, -1581786.3, 5405.744, -0.06530117, 0.28952113, -1461753.5, 102382.125, 0.0, 10.001239, 9.999645 
2.9456463e+3, 1.5039665e+2, -1367122.1, -1477414.6, 24173.516, -0.09256448, 0.2764525, -1362056.5, 104085.59, 0.0, 10.001188, 9.99971 
2.945561e+3, 1.6039588e+2, -1296185.0, -1412459.0, 29128.313, -0.08747881, 0.2704609, -1289296.1, 78852.41, 0.0, 10.001089, 9.999532 
2.9454768e+3, 1.7039512e+2, -1210397.3, -1328044.3, 50545.15, -0.053149965, 0.28542972, -1191664.3, 78491.59, 0.0, 10.001042, 9.999458 
2.9453924e+3, 1.8039438e+2, -1120803.3, -1232596.4, 48215.832, -0.031104308, 0.3013176, -1102881.1, 69282.086, 0.0, 10.000978, 9.999472 
2.9453078e+3, 1.903935e+2, -1016811.25, -1120963.3, 56984.43, -0.04057706, 0.2979686, -991691.8, 82480.31, 0.0, 10.000975, 9.999566 
2.9452232e+3, 2.0039262e+2, -923459.9, -1027253.56, 60860.305, -0.044959664, 0.2912807, -895373.8, 80807.06, 0.0, 10.000952, 9.999549 
2.945139e+3, 2.1039185e+2, -853653.1, -929826.5, 62289.082, -0.015007422, 0.29153, -818729.4, 59460.06, 0.0, 10.000703, 9.999663 
2.945055e+3, 2.2039129e+2, -782781.0, -825419.5, 59960.453, 0.014660087, 0.3008251, -740462.5, 39733.508, 0.0, 10.000434, 9.999837 
2.9449704e+3, 2.3039131e+2, -690673.8, -685358.56, 42226.164, 0.019420553, 0.33381176, -645706.5, 36489.86, 0.0, 10.000199, 10.000239 
2.9448858e+3, 2.4039134e+2, -623893.56, -603095.0, 54981.938, 0.019430747, 0.34997517, -557537.5, 26659.055, 0.0, 9.999989, 10.000233 
2.9448014e+3, 2.5039086e+2, -494993.63, -453432.44, 55991.637, 0.01234768, 0.29707542, -414489.53, 71711.2, 0.0, 10.000039, 10.000565 
2.9447168e+3, 2.6039088e+2, -374424.88, -300387.1, 53440.938, 0.006117307, 0.2701854, -272395.72, 115803.914, 0.0, 10.000004, 10.000959 
2.944632e+3, 2.7039257e+2, -315933.16, -145522.64, 6798.724, 0.018853005, 0.33736482, -145251.83, 144931.05, 0.0, 9.999398, 10.001645 
2.944547e+3, 2.8039348e+2, -295913.28, -154579.92, 20014.674, 0.03457085, 0.32213503, -151800.23, 40373.453, 0.0, 9.99916, 10.001026 
2.9444626e+3, 2.9039356e+2, 108659.234, 77456.13, -36432.723, 0.081109375, 0.2973947, 132690.39, 226861.5, 0.0, 10.001326, 10.000904 
2.9558176e+3, 1.304829e+2, -1553009.1, -1662182.4, 3591.8599, -0.0997601, 0.21338928, -1552891.1, 108404.27, 0.0, 10.001228, 9.99977 
2.9557326e+3, 1.4048259e+2, -1453281.0, -1556430.4, 6241.7363, -0.061569776, 0.24134284, -1452904.6, 110394.85, 0.0, 10.001208, 9.999833 
2.955647e+3, 1.5048231e+2, -1364704.4, -1469186.8, 20931.895, -0.0831288, 0.2703474, -1360666.9, 104635.14, 0.0, 10.001174, 9.999774 
2.955562e+3, 1.6048175e+2, -1294517.9, -1407487.9, 27315.283, -0.080860026, 0.27947766, -1288259.9, 79047.53, 0.0, 10.001081, 9.999569 
2.9554772e+3, 1.704805e+2, -1204451.4, -1317111.9, 48769.35, -0.07737005, 0.23966718, -1186272.9, 83045.945, 0.0, 10.001047, 9.999532 
2.9553926e+3, 1.8047933e+2, -1115033.0, -1223019.0, 46573.617, -0.0848509, 0.20710202, -1097721.4, 73608.21, 0.0, 10.000989, 9.999533 
2.955308e+3, 1.904789e+2, -1013540.3, -1114324.9, 56811.492, -0.057285607, 0.24418406, -987992.3, 85341.51, 0.0, 10.000975, 9.999612 
2.9552242e+3, 2.004786e+2, -921296.1, -1020970.6, 55647.55, -0.021169638, 0.28778857, -896431.3, 78905.73, 0.0, 10.000943, 9.999596 
2.9551393e+3, 2.1047795e+2, -852448.3, -926498.2, 50725.867, -0.0152867865, 0.2978504, -826672.3, 50671.746, 0.0, 10.000699, 9.999689 
2.955055e+3, 2.2047734e+2, -788394.4, -836681.4, 50652.96, -0.0145220775, 0.30394703, -756425.2, 22925.56, 0.0, 10.000431, 9.999762 
2.95497e+3, 2.304768e+2, -701321.8, -706828.06, 32493.623, -0.003533333, 0.2910325, -671464.9, 9891.6, 0.0, 10.0001955, 10.000094 
2.9548854e+3, 2.4047635e+2, -619012.0, -593699.44, 52224.26, 0.008379352, 0.26814738, -552619.75, 30741.334, 0.0, 9.99999, 10.000297 
2.9548013e+3, 2.5047654e+2, -479694.88, -424039.5, 59466.367, 0.019729696, 0.26755905, -386211.8, 99146.54, 0.0, 10.000049, 10.000763 
2.9547167e+3, 2.6047727e+2, -381244.78, -317352.72, 39169.508, 0.02506101, 0.29710883, -298753.72, 88596.9, 0.0, 10.000014, 10.000839 
2.954631e+3, 2.704782e+2, -356725.22, -229899.06, -16936.809, 0.008620211, 0.3276951, -227676.23, 61665.516, 0.0, 9.999396, 10.001066 
2.9545453e+3, 2.804778e+2, -341383.3, -250197.6, 49637.47, 0.0024683997, 0.24675392, -228391.73, -37046.152, 0.0, 9.999166, 10.000366 
2.954464e+3, 2.9047775e+2, 116181.96, 86784.86, 60128.406, 0.11888583, 0.25902498, 163382.3, 256726.95, 0.0, 10.001362, 10.000948 
2.965818e+3, 1.3056879e+2, -1624540.9, -1676648.4, 7756.5884, -0.121457025, 0.25002325, -1623410.8, 37041.78, 0.0, 10.0006485, 9.999951 
2.9657334e+3, 1.4056878e+2, -1519898.4, -1578405.1, 8494.39, -0.0625421, 0.29211938, -1518690.1, 43763.6, 0.0, 10.000704, 9.9999275 
2.965648e+3, 1.5056854e+2, -1409755.9, -1486947.8, 18620.094, -0.06748358, 0.31899887, -1405499.1, 58957.164, 0.0, 10.000844, 9.999813 
2.9655626e+3, 1.6056807e+2, -1315931.8, -1415213.3, 27179.328, -0.050880175, 0.3335258, -1308978.1, 57482.79, 0.0, 10.00092, 9.999597 
2.965478e+3, 1.7056668e+2, -1212795.8, -1327008.0, 42790.69, -0.05399537, 0.28277105, -1198542.5, 69931.4, 0.0, 10.00101, 9.999485 
2.9653934e+3, 1.8056536e+2, -1110318.8, -1225686.0, 29898.691, -0.06229718, 0.23699395, -1103030.6, 67455.84, 0.0, 10.001035, 9.9994955 
2.965309e+3, 1.905647e+2, -1022114.06, -1117686.8, 35698.96, -0.036130078, 0.25377002, -1010251.9, 62240.805, 0.0, 10.000907, 9.999624 
2.9652247e+3, 2.0056418e+2, -945557.75, -1031127.7, 28443.545, -0.00889012, 0.2747747, -936965.8, 37532.176, 0.0, 10.000767, 9.999613 
2.9651397e+3, 2.1056357e+2, -861277.6, -920912.06, 23302.574, -0.016816426, 0.2807703, -853252.06, 23252.03, 0.0, 10.000591, 9.999781 
2.9650548e+3, 2.2056301e+2, -788387.06, -841282.6, 32283.96, -0.026648019, 0.28534958, -773100.75, 5409.1157, 0.0, 10.000445, 9.999725 
2.96497e+3, 2.3056228e+2, -680231.5, -719592.56, 13480.853, -0.019679489, 0.27043986, -676057.1, 4460.217, 0.0, 10.000432, 9.999896 
2.964885e+3, 2.405617e+2, -574644.94, -582900.94, 26360.049, -0.007813482, 0.24774031, -552091.6, 30431.883, 0.0, 10.000333, 10.000211 
2.964801e+3, 2.505619e+2, -498922.78, -447092.5, 14163.554, 0.015810858, 0.25570968, -443474.6, 41045.957, 0.0, 9.999968, 10.000648 
2.9647163e+3, 2.6056254e+2, -429710.94, -367529.7, -23910.736, 0.034332316, 0.28947538, -359398.5, 27114.926, 0.0, 9.999789, 10.0006075 
2.9646304e+3, 2.705629e+2, -242194.89, -228598.84, -68771.664, 0.019923655, 0.30464554, -166290.03, 122219.2, 0.0, 10.000408, 10.000592 
2.9645452e+3, 2.8056198e+2, -125930.38, -193668.55, 28231.555, 0.00964546, 0.2152001, -115707.11, 74811.086, 0.0, 10.000843, 9.999952 
2.9644644e+3, 2.9056168e+2, -56920.57, -27364.666, 68743.67, 0.11078578, 0.23628053, 28171.54, 120692.86, 0.0, 10.000304, 10.000677 
2.9758182e+3, 1.3065559e+2, -1609785.3, -1661104.1, -7012.1895, -0.1449581, 0.3729218, -1608844.4, 50756.965, 0.0, 10.000715, 10.000025 
2.9757336e+3, 1.4065543e+2, -1522375.6, -1573366.4, 5417.422, -0.06467908, 0.39409843, -1521806.4, 39797.285, 0.0, 10.000662, 9.999982 
2.9756483e+3, 1.5065499e+2, -1404537.0, -1479802.1, 15310.031, -0.050480746, 0.3942093, -1401541.9, 62066.117, 0.0, 10.000861, 9.999853 
2.9755637e+3, 1.6065463e+2, -1307880.0, -1408691.0, 26568.654, -0.011799781, 0.41453716, -1301306.5, 64304.875, 0.0, 10.000965, 9.9996195 
2.9754794e+3, 1.7065348e+2, -1221391.9, -1347364.6, 43839.027, 0.002002792, 0.39601827, -1207637.5, 59985.445, 0.0, 10.00102, 9.99934 
2.9753947e+3, 1.806522e+2, -1119760.3, -1242949.6, 28260.516, 0.020797616, 0.372274, -1113586.5, 56049.14, 0.0, 10.001025, 9.999382 
2.97531e+3, 1.906508e+2, -1023245.5, -1119695.0, 31579.242, 0.0134186195, 0.31555676, -1013825.9, 57823.703, 0.0, 10.000906, 9.999611 
2.9752252e+3, 2.0064932e+2, -944881.1, -1030637.4, 24317.629, -0.01122657, 0.24692255, -938465.4, 35198.625, 0.0, 10.000771, 9.999615 
2.97514e+3, 2.106487e+2, -849598.56, -896193.9, 17029.945, -0.019440372, 0.23830724, -844037.94, 31631.498, 0.0, 10.000589, 9.999952 
2.975055e+3, 2.206483e+2, -789332.7, -841018.8, 30169.117, -0.02030492, 0.24583946, -775451.2, 2221.7231, 0.0, 10.000436, 9.999733 
2.9749697e+3, 2.3064788e+2, -697978.2, -755792.44, 13407.131, -0.029359112, 0.2762786, -695020.4, -15342.077, 0.0, 10.000428, 9.999649 
2.9748848e+3, 2.4064746e+2, -592778.0, -620645.1, 16110.922, -0.032219924, 0.29596657, -585411.2, -3727.9092, 0.0, 10.000333, 9.999951 
2.9748002e+3, 2.506469e+2, -531371.94, -513035.34, -558.8219, -0.0010644015, 0.26272607, -513018.3, -29330.838, 0.0, 9.999961, 10.000197 
2.9747155e+3, 2.6064655e+2, -453060.84, -414558.1, -15513.167, 0.033115514, 0.24276765, -409085.53, -23396.385, 0.0, 9.999783, 10.000288 
2.974631e+3, 2.7064675e+2, -257649.14, -268702.94, -38542.465, 0.055925544, 0.2669341, -224239.33, 63446.51, 0.0, 10.000443, 10.000299 
2.9745463e+3, 2.806463e+2, -121967.37, -200498.38, 21466.434, 0.056194115, 0.24240981, -116482.59, 73207.11, 0.0, 10.000913, 9.99987 
2.974464e+3, 2.9064557e+2, -121876.46, -145169.08, 47078.027, 0.07998871, 0.24598545, -85025.586, 6672.6733, 0.0, 10.000237, 9.999896 
2.9858196e+3, 1.3073781e+2, -1528374.6, -1630642.8, -76733.76, -0.05982782, 0.12964718, -1487298.3, 171496.55, 0.0, 10.001323, 9.999939 
2.985734e+3, 1.4073747e+2, -1590331.0, -1583210.0, -44640.816, -0.018213391, 0.1322952, -1541987.9, 18811.326, 0.0, 10.00011, 10.000175 
2.9856485e+3, 1.5073696e+2, -1424289.6, -1465314.9, -10864.409, -0.09131555, 0.10067987, -1421590.0, 41214.008, 0.0, 10.000633, 10.000057 
2.9855633e+3, 1.6073616e+2, -1297757.6, -1372461.5, -9399.041, -0.12354376, 0.056457665, -1296593.3, 68218.37, 0.0, 10.00091, 9.999889 
2.985479e+3, 1.7073655e+2, -1214886.8, -1285614.0, 35876.227, -0.093842424, 0.14901288, -1199874.9, 66933.17, 0.0, 10.000824, 9.999853 
2.9853943e+3, 1.8073681e+2, -1125148.0, -1209555.8, 64250.66, -0.09562451, 0.2303904, -1090479.8, 78326.33, 0.0, 10.000843, 9.999695 
2.9853097e+3, 1.9073626e+2, -1027186.8, -1112817.9, 73127.5, -0.084519885, 0.24723698, -985262.75, 85549.41, 0.0, 10.000846, 9.999685 
2.985225e+3, 2.0073578e+2, -938130.0, -1024148.1, 75456.63, -0.047790393, 0.27047643, -894285.8, 78531.34, 0.0, 10.000802, 9.999645 
2.98514e+3, 2.1073498e+2, -847563.3, -912478.3, 49642.71, -0.01960814, 0.25719464, -820709.0, 54114.61, 0.0, 10.000674, 9.999802 
2.985055e+3, 2.2073427e+2, -802193.7, -870722.2, 41275.9, -0.004239638, 0.25058344, -782813.4, -5983.631, 0.0, 10.000445, 9.999526 
2.9849702e+3, 2.3073378e+2, -708743.8, -781469.56, 31316.377, -0.0074220565, 0.29488477, -697117.4, -18281.498, 0.0, 10.000442, 9.999468 
2.984885e+3, 2.4073319e+2, -581948.7, -661549.1, 28568.328, -0.014801967, 0.32348388, -572757.0, 8085.6987, 0.0, 10.000604, 9.99954 
2.9848003e+3, 2.5073186e+2, -454869.28, -539465.7, -2157.002, -0.002703613, 0.2648087, -454814.3, 28040.129, 0.0, 10.000755, 9.999636 
2.9847157e+3, 2.6073065e+2, -337077.78, -412444.44, -17766.342, 0.025616437, 0.21446644, -333099.66, 51764.664, 0.0, 10.000806, 9.999812 
2.984631e+3, 2.7073044e+2, -263603.44, -322867.38, -45498.895, 0.07112009, 0.24077688, -238938.06, 47926.953, 0.0, 10.000618, 9.999846 
2.9845467e+3, 2.8073013e+2, -183333.16, -249399.4, -10580.383, 0.06511009, 0.26241183, -181680.1, 7187.441, 0.0, 10.000572, 9.999703 
2.984464e+3, 2.9072872e+2, -57700.367, -185369.77, 14544.75, 0.05634418, 0.21781626, -56064.32, 34819.44, 0.0, 10.000977, 9.999279 
2.9958203e+3, 1.308236e+2, -1626820.4, -1716709.1, 47874.652, -0.086791486, 0.25207898, -1606099.1, 51853.785, 0.0, 10.000789, 9.999619 
2.9957333e+3, 1.4082356e+2, -1561698.9, -1551610.4, 56172.035, -0.06497554, 0.3015329, -1500256.5, 59698.406, 0.0, 10.000202, 10.000361 
2.9956496e+3, 1.5082449e+2, -1505154.9, -1487014.4, 70690.6, -0.007941598, 0.39341426, -1424814.5, 37131.31, 0.0, 9.99997, 10.000245 
2.9955643e+3, 1.6082336e+2, -1465017.9, -1415860.1, 27042.69, -0.060053173, 0.2997927, -1403895.5, -39938.918, 0.0, 9.99957, 10.000254 
2.99548e+3, 1.7082292e+2, -1314579.1, -1233465.6, -17134.744, -0.03751815, 0.2325699, -1229994.6, 35966.28, 0.0, 9.999677, 10.000779 
2.9953954e+3, 1.8082398e+2, -1234376.8, -1199672.1, -58792.563, -0.03945203, 0.30426922, -1155724.6, 12226.117, 0.0, 9.999794, 10.000282 
2.9953104e+3, 1.9082312e+2, -1076655.9, -1124547.8, -38762.555, -0.052366175, 0.26477146, -1055039.3, 14921.41, 0.0, 10.000429, 9.999818 
2.995226e+3, 2.0082377e+2, -945061.8, -1029533.56, -19229.918, 0.0054955585, 0.3792799, -940890.2, 31065.176, 0.0, 10.000747, 9.999642 
2.9951409e+3, 2.1082206e+2, -817359.6, -949274.25, -8426.705, 0.00731001, 0.30516556, -816823.5, 57146.984, 0.0, 10.001095, 9.99935 
2.9950547e+3, 2.2082017e+2, -711161.94, -872354.56, 1510.1302, -0.05242634, 0.2295963, -711147.8, 64839.67, 0.0, 10.001263, 9.999123 
2.99497e+3, 2.3081952e+2, -691933.9, -785211.7, -4104.7925, -0.009280755, 0.27567214, -691753.56, -13758.741, 0.0, 10.000606, 9.999364 
2.9948857e+3, 2.408187e+2, -601984.4, -732138.94, 14568.775, 0.034546968, 0.3077035, -600373.56, -20369.828, 0.0, 10.000727, 9.998997 
2.9948008e+3, 2.508168e+2, -491588.56, -631710.94, 1226.9799, 0.009863065, 0.2599205, -491577.8, -9556.673, 0.0, 10.000825, 9.998967 
2.994716e+3, 2.6081493e+2, -380411.53, -508232.44, -21319.293, 0.008901344, 0.20722738, -376949.47, 7088.8857, 0.0, 10.000831, 9.999142 
2.9946312e+3, 2.7081397e+2, -311498.28, -421859.84, -52511.023, 0.058041684, 0.22542688, -290506.06, -4458.907, 0.0, 10.000616, 9.9991665 
2.9945463e+3, 2.8081334e+2, -210047.05, -298450.88, -1867.5767, 0.022992346, 0.26743966, -210007.63, -21953.998, 0.0, 10.00055, 9.999373 
2.9944646e+3, 2.9081208e+2, -69865.95, -214935.25, 38111.86, 0.058858555, 0.25396323, -60462.89, 29605.914, 0.0, 10.001003, 9.999061 
