coord_x,coord_y,stress_xx,stress_yy,tau_xy,velocity_x,velocity_y,stress_1,eps,damage,lx,ly
4.9994797e+0, 1.2526518e+2, -1744959.9, -1684867.6, -17962.14, -0.03217671, 0.13884339, -1679907.9, 32503.844, 0.0013801174, 9.999593, 10.000398 
5.000001e+0, 1.3526314e+2, -1713266.4, -1772844.6, -13442.033, 0.009504723, 0.03279885, -1710374.0, -95940.29, 0.0008364695, 9.999805, 9.999018 
5.000099e+0, 1.4526439e+2, -1565989.4, -1580940.6, -16136.421, 0.017425809, 0.2223572, -1555681.1, -39258.227, 0.00038681776, 9.999843, 9.999639 
4.9998218e+0, 1.5526348e+2, -1493537.5, -1506752.1, -16148.358, -0.0039303172, 0.16884072, -1482697.0, -64264.38, 0.00011816065, 9.999718, 9.999535 
4.9997568e+0, 1.6526279e+2, -1406640.5, -1436655.0, -4280.0225, -0.011416249, 0.15716752, -1406042.1, -85602.1, 0.000016018055, 9.999738, 9.999335 
4.999885e+0, 1.7526199e+2, -1285489.4, -1327160.5, 5478.9844, -0.006496038, 0.13604389, -1284781.0, -62332.81, 0.00000013955699, 9.999896, 9.999338 
4.999988e+0, 1.8526153e+2, -1162405.6, -1194268.8, 3133.175, 0.0000924615, 0.14761776, -1162100.4, -37647.54, 0.0, 9.99997, 9.999544 
5.000072e+0, 1.9526152e+2, -1067521.9, -1101660.1, -6179.296, 0.008754097, 0.18619993, -1066437.8, -39984.4, 0.0, 9.999967, 9.999509 
5.000085e+0, 2.0526072e+2, -978406.9, -1038458.4, 2830.7568, 0.006572416, 0.17165595, -978273.75, -49812.875, 0.0, 10.000037, 9.999234 
5.000031e+0, 2.1525921e+2, -860392.06, -931210.44, 20433.773, -0.0058125276, 0.08984627, -854919.1, -24444.041, 0.0, 10.000176, 9.99923 
5.00002e+0, 2.2525881e+2, -735411.2, -761128.0, 10127.403, -0.0034359114, 0.10123135, -731901.9, 576.6849, 0.0, 10.000107, 9.999759 
5.000045e+0, 2.3525941e+2, -677329.6, -685435.56, -14530.732, 0.012063563, 0.17884795, -666297.25, -31824.703, 0.0, 9.999846, 9.999731 
5.0001353e+0, 2.4525887e+2, -595571.94, -674050.44, -5453.426, 0.009741706, 0.18671866, -595194.75, -58716.637, 0.0, 10.000074, 9.999028 
5.0002915e+0, 2.5525725e+2, -401615.1, -533782.5, -581.3064, -0.008494391, 0.11789574, -401612.53, 36881.746, 0.0, 10.000751, 9.998992 
5.000341e+0, 2.6525623e+2, -299786.13, -458431.9, -13437.766, -0.010111277, 0.12878886, -298655.97, 41848.73, 0.0, 10.000882, 9.998773 
5.0002927e+0, 2.7525577e+2, -255980.7, -387751.53, -9468.9795, 0.0034365344, 0.19948646, -255303.73, -12794.256, 0.0, 10.000515, 9.998761 
5.0003535e+0, 2.8525457e+2, -168367.78, -333666.1, 6291.7295, 0.0046751495, 0.22201145, -168128.66, -23607.309, 0.000000004221918, 10.00061, 9.998413 
5.000512e+0, 2.9525256e+2, 8337.162, -194102.11, 619.4093, -0.0056682387, 0.17262645, 8339.058, 54880.145, 0.0000065845143, 10.001135, 9.9984455 
5.000609e+0, 3.052501e+2, 8442.656, -300014.63, -10410.395, -0.007425256, 0.14035824, 8793.606, 8793.606, 0.00007542163, 10.001364, 9.997279 
5.000642e+0, 3.152476e+2, 202802.9, 118387.305, -7739.881, -0.0010848555, 0.15931655, 203506.69, 203506.69, 0.00027006015, 10.001298, 10.000185 
1.499843e+1, 1.2526496e+2, -1736946.5, -1665901.3, -13154.369, -0.09728647, 0.17444031, -1663543.9, 48871.863, 0.00135349, 9.999585, 10.000533 
1.5000005e+1, 1.3526282e+2, -1704757.5, -1753725.0, -5596.282, 0.028591316, 0.04739983, -1704126.0, -89688.45, 0.0008181531, 9.999802, 9.999152 
1.5000296e+1, 1.4526388e+2, -1565282.8, -1577522.9, -21722.885, 0.05228888, 0.21054259, -1548834.3, -32405.986, 0.00037595516, 9.999835, 9.999666 
1.4999464e+1, 1.5526286e+2, -1492228.6, -1502480.9, -20284.496, -0.0117475465, 0.14346732, -1476432.5, -57992.86, 0.00011312574, 9.999712, 9.999568 
1.4999272e+1, 1.6526243e+2, -1387238.0, -1395137.0, 727.5561, -0.034158513, 0.1423046, -1387171.6, -66727.53, 0.000014709239, 9.999733, 9.999624 
1.4999656e+1, 1.7526229e+2, -1267614.5, -1289024.4, 11477.461, -0.019451534, 0.16002901, -1262624.6, -40179.676, 0.00000010097208, 9.999892, 9.999602 
1.4999963e+1, 1.852618e+2, -1179604.1, -1228235.5, 2546.7659, 0.0002610713, 0.166196, -1179471.1, -55020.84, 0.0, 9.999964, 9.999314 
1.5000217e+1, 1.952611e+2, -1082532.0, -1131763.9, -5641.0747, 0.026269438, 0.161261, -1081893.9, -55435.3, 0.0, 9.999963, 9.999305 
1.5000254e+1, 2.0526075e+2, -944395.8, -966253.25, 7370.7075, 0.019618776, 0.17512457, -942142.56, -13680.839, 0.0, 10.000031, 9.999734 
1.5000094e+1, 2.152607e+2, -828592.5, -863992.06, 26033.664, -0.017256469, 0.19045115, -814811.6, 15648.925, 0.0, 10.000172, 9.999696 
1.5000059e+1, 2.2525996e+2, -780506.0, -852834.75, -469.21512, -0.0105098365, 0.17790414, -780503.0, -48035.72, 0.0, 10.0001, 9.999133 
1.5000135e+1, 2.3525868e+2, -721646.2, -776365.7, -22872.824, 0.036278177, 0.13112897, -713344.7, -78863.91, 0.0, 9.999843, 9.999109 
1.5000404e+1, 2.4525794e+2, -585458.5, -651858.8, 19259.104, 0.029012185, 0.14497557, -580276.8, -43788.33, 0.0, 10.00007, 9.999183 
1.5000872e+1, 2.5525773e+2, -390189.34, -508751.28, 24428.133, -0.025623117, 0.19892296, -385353.5, 53137.535, 0.0, 10.000745, 9.999167 
1.5001023e+1, 2.6525667e+2, -291579.28, -439873.88, -27792.148, -0.030295538, 0.19306797, -286541.8, 53958.844, 0.0, 10.000876, 9.998903 
1.5000877e+1, 2.75255e+2, -250415.17, -374562.25, -22046.564, 0.010103541, 0.1286867, -246616.28, -4100.116, 0.0, 10.000509, 9.998856 
1.500106e+1, 2.8525355e+2, -178223.84, -352736.34, 25225.426, 0.0142573975, 0.12797326, -174650.72, -30120.41, 0.0000000059189293, 10.000606, 9.998285 
1.5001532e+1, 2.9525226e+2, 182.84137, -209401.14, 20918.723, -0.017499827, 0.16484767, 2250.3577, 48794.113, 0.0000065077284, 10.001129, 9.998343 
1.500183e+1, 3.0525008e+2, 11138.098, -292631.2, -13289.875, -0.021728355, 0.16382518, 11718.42, 11718.42, 0.000074265045, 10.001358, 9.997334 
1.5001915e+1, 3.1524745e+2, 204779.3, 125447.1, -4893.1353, -0.004103337, 0.16653314, 205079.97, 205079.97, 0.00026651216, 10.001287, 10.000239 
2.4998468e+1, 1.2526463e+2, -1685223.0, -1630516.8, 15456.747, -0.0679038, 0.16059515, -1626451.8, 85967.16, 0.0013145427, 9.999899, 10.000625 
2.4999517e+1, 1.3526279e+2, -1728864.8, -1757994.1, 18068.66, 0.009504079, 0.05518207, -1720221.5, -105783.74, 0.0007913486, 9.999606, 9.999219 
2.4999693e+1, 1.452638e+2, -1605273.5, -1604332.6, 1970.9775, 0.020637035, 0.21457931, -1602776.6, -86347.516, 0.00036019128, 9.999593, 9.9996 
2.499916e+1, 1.5526256e+2, -1477862.9, -1502430.0, -4069.6082, -0.019953556, 0.13134171, -1477206.3, -58763.055, 0.00010584406, 9.99984, 9.999507 
2.499913e+1, 1.6526225e+2, -1352187.5, -1363428.4, 8238.377, -0.03070529, 0.13679442, -1347834.9, -27388.27, 0.000012859098, 9.999911, 9.999756 
2.4999563e+1, 1.752625e+2, -1268219.1, -1275383.1, 6734.2207, -0.014678716, 0.18176469, -1264173.5, -41730.27, 0.00000006033416, 9.999829, 9.999727 
2.4999891e+1, 1.85262e+2, -1198411.6, -1244963.9, 1798.9257, 0.0014340022, 0.18478492, -1198342.1, -73893.586, 0.0, 9.999868, 9.999246 
2.5000125e+1, 1.9526094e+2, -1078670.3, -1136692.6, 4953.8677, 0.017976347, 0.14997663, -1078250.4, -51789.75, 0.0, 10.000019, 9.999244 
2.500021e+1, 2.052607e+2, -940977.25, -949822.5, 6682.6934, 0.014135849, 0.169209, -937386.25, -8923.325, 0.0, 9.99999, 9.9998665 
2.5000155e+1, 2.152611e+2, -874755.7, -872127.6, -2665.294, -0.0092299525, 0.22023924, -870470.06, -40013.105, 0.0, 9.999794, 9.999822 
2.5000226e+1, 2.2526032e+2, -798396.5, -885348.44, -14222.213, -0.0024000518, 0.20564757, -796129.4, -63665.05, 0.0, 10.000079, 9.99892 
2.5000414e+1, 2.3525849e+2, -596695.2, -739366.4, -5892.383, 0.03202134, 0.12485916, -596452.2, 38031.004, 0.0, 10.000801, 9.998901 
2.5000763e+1, 2.4525763e+2, -495881.56, -609414.0, 34953.676, 0.027055599, 0.13670897, -485983.22, 50508.867, 0.0, 10.000687, 9.999177 
2.5001276e+1, 2.5525764e+2, -526320.75, -574315.44, 27586.54, -0.013088537, 0.21463943, -513754.63, -75262.46, 0.0, 9.99981, 9.999167 
2.500157e+1, 2.6525655e+2, -428215.72, -511414.66, -19986.06, -0.017162522, 0.20629394, -423663.72, -83161.43, 0.0, 9.999963, 9.998853 
2.500168e+1, 2.7525455e+2, -173136.95, -343793.66, -27769.129, 0.012041664, 0.11528416, -168732.08, 73789.02, 0.0, 10.001067, 9.998798 
2.5001964e+1, 2.8525305e+2, -71343.17, -298290.5, 8369.686, 0.008023601, 0.11333809, -71034.92, 73500.46, 0.0000000086392555, 10.0013275, 9.998311 
2.500236e+1, 2.9525203e+2, -47601.35, -229436.66, 14486.252, -0.030661078, 0.17214088, -46454.508, 91.50622, 0.0000063841276, 10.000788, 9.998371 
2.5002804e+1, 3.0524987e+2, -64972.496, -317213.28, -2647.4946, -0.03129814, 0.16588652, -64944.71, -64944.71, 0.00007245626, 10.000785, 9.99744 
2.5003228e+1, 3.1524718e+2, 213341.88, 140988.03, 12240.8, -0.00226519, 0.15502194, 215356.67, 215356.67, 0.0002610093, 10.001301, 10.0003395 
3.499959e+1, 1.252642e+2, -1682554.4, -1623805.4, 147.80896, 0.05203776, 0.0934068, -1623805.0, 88616.26, 0.0012623775, 9.999895, 10.000672 
3.4998527e+1, 1.3526303e+2, -1728373.9, -1757047.5, 8416.04, -0.050901357, 0.055330526, -1726086.3, -111651.71, 0.000755357, 9.999607, 9.999225 
3.499828e+1, 1.4526416e+2, -1615150.5, -1625052.8, 9988.126, -0.08149767, 0.23358789, -1608953.6, -92528.2, 0.00033918672, 9.999594, 9.999458 
3.4998906e+1, 1.552626e+2, -1488471.0, -1523601.5, 5117.9336, -0.03056935, 0.13446012, -1487740.6, -69297.45, 0.00009620481, 9.999837, 9.999364 
3.4999326e+1, 1.652622e+2, -1354180.0, -1366018.9, 4673.5703, -0.0034421573, 0.14036113, -1352557.5, -32109.633, 0.000010539653, 9.999905, 9.999742 
3.4999603e+1, 1.752626e+2, -1269389.1, -1276982.9, 4532.5425, 0.0053238515, 0.20088112, -1267273.4, -44829.95, 0.000000028001644, 9.999826, 9.999718 
3.499976e+1, 1.8526214e+2, -1191806.0, -1230209.4, 6878.734, 0.000712042, 0.2024241, -1190611.0, -66163.086, 0.0, 9.999864, 9.99935 
3.4999794e+1, 1.9526103e+2, -1073287.9, -1124401.4, 10926.08, -0.017665239, 0.15304834, -1071050.3, -44590.85, 0.0, 10.000014, 9.9993305 
3.4999943e+1, 2.0526052e+2, -957945.5, -982859.2, -1138.2472, -0.012158349, 0.15333962, -957893.6, -29429.125, 0.0, 9.999983, 9.999643 
3.5000214e+1, 2.1526046e+2, -890223.8, -903180.56, -8488.395, 0.016276302, 0.17947283, -886024.06, -55559.71, 0.0, 9.99979, 9.99961 
3.5000518e+1, 2.2525986e+2, -783729.25, -853390.25, 12418.151, 0.01807553, 0.182434, -781581.75, -49111.867, 0.0, 10.000073, 9.999143 
3.500088e+1, 2.3525882e+2, -582267.56, -708947.2, 20593.35, -0.0022839045, 0.16005374, -579003.94, 55475.918, 0.0, 10.000798, 9.999113 
3.50012e+1, 2.4525787e+2, -507537.8, -631673.94, 1382.0455, 0.0016451606, 0.16029535, -507522.44, 28966.572, 0.0, 10.00068, 9.999027 
3.5001493e+1, 2.55257e+2, -539081.25, -598911.06, -3250.354, 0.026741654, 0.16605316, -538905.2, -100407.56, 0.0, 9.999803, 9.9990015 
3.5001975e+1, 2.6525584e+2, -444430.22, -544110.44, 20974.945, 0.026409345, 0.16761835, -440196.47, -99686.79, 0.0, 9.999959, 9.99863 
3.50027e+1, 2.7525443e+2, -187491.63, -372136.2, 13242.926, 0.00627921, 0.16053158, -186546.66, 55977.54, 0.0, 10.001061, 9.998607 
3.5003054e+1, 2.8525314e+2, -59083.805, -271171.97, -12202.61, -0.01616496, 0.17700543, -58384.027, 86152.55, 0.000000011844628, 10.001321, 9.998501 
3.5002977e+1, 2.9525188e+2, -36673.414, -204374.13, -4340.8413, -0.0484218, 0.19505163, -36561.13, 9986.763, 0.0000061783935, 10.00078, 9.998547 
3.5003528e+1, 3.0524948e+2, -54178.88, -293819.13, 15567.4375, -0.037874825, 0.14592312, -53171.82, -53171.82, 0.00006980898, 10.000781, 9.997603 
3.500456e+1, 3.1524685e+2, 224019.7, 164250.17, 36921.52, -0.0011669406, 0.12808962, 241635.44, 241635.44, 0.00025310565, 10.001297, 10.000501 
4.499923e+1, 1.2526418e+2, -1760954.5, -1662682.0, -8236.787, 0.053963535, 0.0825473, -1661996.4, 50425.188, 0.0011988538, 9.999359, 10.000668 
4.499799e+1, 1.352631e+2, -1710089.4, -1753652.5, -4067.8057, -0.07287179, 0.059518892, -1709712.8, -95278.81, 0.0007112032, 9.999757, 9.999177 
4.4997805e+1, 1.4526427e+2, -1561908.8, -1597584.1, 6617.742, -0.10609238, 0.2400565, -1560720.6, -44295.81, 0.00031351, 9.999952, 9.999475 
4.499873e+1, 1.5526275e+2, -1465849.9, -1511648.3, 11754.528, -0.038870018, 0.14511147, -1463009.3, -44567.156, 0.000084590996, 9.999988, 9.999375 
4.4999298e+1, 1.6526233e+2, -1347278.4, -1373602.1, 9034.652, -0.0010805898, 0.15188426, -1344475.9, -24028.533, 0.000007991499, 10.0, 9.999644 
4.4999585e+1, 1.752626e+2, -1250440.4, -1277528.8, 2137.361, 0.0124807935, 0.21062462, -1250272.8, -27828.04, 0.000000008983813, 9.999999, 9.999631 
4.4999713e+1, 1.8526217e+2, -1170918.8, -1205029.5, 6078.1064, 0.0059927753, 0.21200839, -1169868.0, -45419.363, 0.0, 9.999943, 9.999485 
4.499967e+1, 1.9526121e+2, -1090040.9, -1118676.0, 11885.394, -0.02202852, 0.16432081, -1085750.5, -59293.008, 0.0, 9.99984, 9.9994545 
4.4999868e+1, 2.0526053e+2, -983472.06, -1027842.2, 1301.1376, -0.016195737, 0.15584904, -983433.94, -54969.45, 0.0, 9.999948, 9.999352 
4.500028e+1, 2.1526001e+2, -844154.4, -911366.8, -11986.136, 0.021791644, 0.16464676, -842080.8, -11610.694, 0.0, 10.000237, 9.999338 
4.5000756e+1, 2.2525945e+2, -741272.56, -807437.4, 15448.058, 0.025401477, 0.1747321, -737843.5, -5368.391, 0.0, 10.000255, 9.9993725 
4.50013e+1, 2.3525894e+2, -679637.8, -730781.3, 23240.883, -0.0009396764, 0.18070465, -670654.5, -36175.695, 0.0, 10.000022, 9.999337 
4.5001656e+1, 2.4525797e+2, -586711.5, -692047.2, -9892.574, 0.0015981477, 0.17815273, -585790.5, -49302.637, 0.0, 10.000232, 9.998829 
4.5001832e+1, 2.552566e+2, -400830.1, -554396.9, -18285.24, 0.028578088, 0.15293975, -398682.88, 39819.13, 0.0, 10.000847, 9.998805 
4.5002365e+1, 2.6525536e+2, -316985.16, -492426.75, 27197.791, 0.023960266, 0.16217673, -312865.56, 27649.639, 0.0, 10.000875, 9.998545 
4.5003292e+1, 2.7525428e+2, -295281.13, -432784.1, 28554.25, -0.0051577613, 0.1954599, -289587.25, -47060.3, 0.0, 10.000358, 9.998529 
4.5003867e+1, 2.85253e+2, -183112.56, -324375.8, -5354.89, -0.022564242, 0.21141095, -182909.86, -38370.664, 0.000000014278152, 10.000442, 9.99856 
4.5004022e+1, 2.9525137e+2, 14003.915, -175291.38, -8168.3105, -0.037807163, 0.1917484, 14355.733, 60908.67, 0.0000058442592, 10.001107, 9.99859 
4.5004576e+1, 3.052488e+2, 11665.55, -267853.88, 1121.3142, -0.034133185, 0.12752743, 11670.049, 11670.049, 0.00006621042, 10.001259, 9.997553 
4.5005405e+1, 3.1524658e+2, 157591.75, 124264.055, 7605.1274, -0.024293168, 0.15266955, 159245.16, 159245.16, 0.0002425997, 10.000871, 10.000434 
5.499733e+1, 1.2526461e+2, -1763250.6, -1669069.1, 4522.608, -0.07421558, 0.1297801, -1668852.4, 43567.188, 0.0011275938, 9.999367, 10.000621 
5.4997903e+1, 1.3526309e+2, -1716496.4, -1766512.1, 10214.155, -0.05800457, 0.07163449, -1714490.9, -100055.086, 0.00066134764, 9.999755, 9.99909 
5.499827e+1, 1.452641e+2, -1549736.4, -1571055.1, 7708.9033, -0.05595054, 0.23384579, -1547240.9, -30813.607, 0.00028458898, 9.999947, 9.99966 
5.4998606e+1, 1.55263e+2, -1453850.6, -1487164.6, 13980.765, -0.05121329, 0.16200556, -1448760.9, -30320.887, 0.00007188515, 9.9999895, 9.999542 
5.499902e+1, 1.652626e+2, -1359234.0, -1398576.4, 8216.322, -0.030345239, 0.17063169, -1357587.1, -37141.617, 0.0000055425044, 10.000001, 9.999473 
5.499952e+1, 1.7526253e+2, -1262543.9, -1301539.3, 2155.4148, 0.0048130546, 0.21216674, -1262425.1, -39978.066, 0.00000000116644, 9.999994, 9.999469 
5.4999745e+1, 1.852621e+2, -1160006.8, -1180423.9, 1864.3638, 0.013829809, 0.21415164, -1159838.0, -35387.223, 0.0, 9.999935, 9.999658 
5.499975e+1, 1.9526148e+2, -1079225.1, -1095444.0, 8998.642, 0.00075200276, 0.18318433, -1075221.0, -48765.85, 0.0, 9.999837, 9.999615 
5.499996e+1, 2.052607e+2, -1007983.8, -1077862.4, 11949.465, -0.0021188243, 0.17545153, -1005996.9, -77533.88, 0.0, 9.999944, 9.999011 
5.500035e+1, 2.1525973e+2, -868427.0, -960531.56, -807.4285, 0.0043277997, 0.17534648, -868419.9, -37945.54, 0.0, 10.000232, 9.999004 
5.5000925e+1, 2.2525913e+2, -725245.94, -771860.9, 6223.1025, 0.016031984, 0.18173812, -724429.44, 8050.5376, 0.0, 10.000246, 9.99962 
5.5001664e+1, 2.3525883e+2, -663717.9, -697081.75, 15790.171, 0.032856926, 0.1874979, -657429.9, -22949.826, 0.0, 10.000019, 9.99957 
5.5002105e+1, 2.452579e+2, -603247.75, -725792.75, 12840.026, 0.022765782, 0.18893322, -601916.8, -65427.977, 0.0, 10.000229, 9.998599 
5.500229e+1, 2.552564e+2, -417279.0, -587625.2, 4496.461, -0.011186557, 0.1751979, -417160.4, 21345.035, 0.0, 10.000842, 9.99858 
5.500274e+1, 2.6525512e+2, -313458.3, -483863.66, 7437.0713, -0.027649442, 0.18859737, -313134.34, 27384.629, 0.0, 10.000871, 9.998605 
5.5003446e+1, 2.752541e+2, -292677.94, -425871.4, 10297.677, -0.026508233, 0.22083233, -291886.5, -49357.246, 0.0, 10.000353, 9.998579 
5.500438e+1, 2.852526e+2, -188669.02, -336099.66, 18948.506, -0.016357595, 0.21695818, -186272.63, -41729.418, 0.000000014996283, 10.000442, 9.998479 
5.5005485e+1, 2.952506e+2, 8603.524, -185784.63, 17386.07, -0.0033030717, 0.16442959, 10146.29, 56707.266, 0.0000053587105, 10.001104, 9.99852 
5.5005944e+1, 3.0524796e+2, -7188.154, -306281.8, -13407.166, -0.024331493, 0.109552406, -6588.367, -6588.367, 0.000061679886, 10.001256, 9.997291 
5.5005735e+1, 3.1524634e+2, 137121.66, 83231.77, -1264.0614, -0.08031966, 0.22473375, 137151.28, 137151.28, 0.00022953504, 10.000867, 10.000154 
6.499652e+1, 1.2526476e+2, -1715468.3, -1618891.9, -38588.617, -0.101564266, 0.21448374, -1605367.3, 107055.38, 0.001052614, 9.999578, 10.00086 
6.499767e+1, 1.352628e+2, -1739565.4, -1754931.3, -11775.89, -0.043571316, 0.09198087, -1733187.8, -118746.445, 0.00060904585, 9.999499, 9.999291 
6.4998186e+1, 1.4526375e+2, -1608675.5, -1578946.3, -6837.46, -0.034046352, 0.22779204, -1577449.0, -61016.71, 0.000254567, 9.999455, 9.999843 
6.499833e+1, 1.552632e+2, -1518556.1, -1498481.1, -855.58954, -0.051479835, 0.19350444, -1498444.8, -80005.87, 0.00005931439, 9.999461, 9.999719 
6.4998704e+1, 1.652628e+2, -1419486.3, -1432471.0, 4068.3643, -0.042189397, 0.1968535, -1418316.9, -97872.89, 0.0000034805446, 9.999609, 9.999429 
6.499929e+1, 1.7526224e+2, -1280333.6, -1314937.8, 6952.82, -0.011242758, 0.1939248, -1278989.0, -56538.43, 0.00000000000024211628, 9.999893, 9.999426 
6.499967e+1, 1.8526185e+2, -1138504.4, -1168195.3, 1153.0292, 0.0064162295, 0.19877033, -1138459.8, -14005.408, 0.0, 10.000075, 9.999673 
6.4999884e+1, 1.9526167e+2, -1029941.9, -1069576.8, -4153.694, 0.014352194, 0.21181718, -1029511.25, -3056.759, 0.0, 10.000168, 9.999633 
6.500017e+1, 2.0526099e+2, -982863.56, -1069557.3, 9051.807, 0.015165522, 0.21401629, -981928.56, -53467.203, 0.0, 10.000134, 9.998976 
6.50005e+1, 2.1525979e+2, -905879.56, -982505.7, 19190.363, 0.008302348, 0.19403201, -901342.2, -70867.75, 0.0, 9.999993, 9.998967 
6.5001017e+1, 2.2525895e+2, -772603.06, -810265.0, 18620.553, 0.013659776, 0.1859125, -764951.4, -32469.18, 0.0, 9.999988, 9.99948 
6.50017e+1, 2.352584e+2, -661566.2, -710768.56, -1023.3116, 0.030376995, 0.17975247, -661544.94, -27059.98, 0.0, 10.000098, 9.999437 
6.500232e+1, 2.4525748e+2, -592696.1, -722898.94, 10884.824, 0.01750005, 0.18893458, -591792.44, -55298.48, 0.0, 10.00031, 9.998581 
6.500291e+1, 2.5525624e+2, -451016.6, -605100.2, 17823.207, -0.021297362, 0.20096134, -448981.8, -10473.324, 0.0, 10.000616, 9.998569 
6.5003467e+1, 2.6525488e+2, -321622.84, -481903.5, 4020.7527, -0.037407506, 0.20728812, -321522.03, 19000.068, 0.0, 10.000791, 9.998656 
6.5004003e+1, 2.7525353e+2, -215799.97, -383929.38, 6142.732, -0.031131655, 0.2014416, -215575.83, 26958.709, 0.0, 10.00086, 9.998622 
6.500504e+1, 2.8525198e+2, -126765.305, -316140.06, 36033.758, -0.017433472, 0.19771193, -120140.63, 24408.13, 0.000000013847158, 10.00091, 9.998391 
6.500648e+1, 2.9525027e+2, -24193.766, -210469.58, 32488.46, -0.003892096, 0.18072945, -18690.049, 27874.79, 0.0000047556837, 10.000917, 9.998441 
6.5006983e+1, 3.0524758e+2, -58189.277, -336495.97, -7708.13, -0.029669976, 0.12695947, -57975.953, -57975.953, 0.000056396846, 10.000931, 9.997238 
6.5006524e+1, 3.1524616e+2, 145356.14, 76114.41, 21785.959, -0.09279454, 0.26682252, 151640.44, 151640.44, 0.00021421611, 10.000972, 10.000053 
7.499681e+1, 1.252646e+2, -1678056.3, -1541887.3, -44574.953, -0.033483256, 0.3317696, -1528593.5, 183837.45, 0.0009783517, 9.99958, 10.001389 
7.499722e+1, 1.352622e+2, -1704001.1, -1683705.9, -13895.018, -0.039606385, 0.117136635, -1676647.5, -62196.695, 0.00055803865, 9.999509, 9.999776 
7.4997497e+1, 1.4526315e+2, -1595256.3, -1552235.0, -7238.171, -0.050494753, 0.21965344, -1551049.9, -34609.742, 0.00022607559, 9.99946, 10.000024 
7.499791e+1, 1.5526335e+2, -1506047.3, -1471957.4, -134.06552, -0.04000378, 0.24107218, -1471956.9, -53518.24, 0.000048170983, 9.999458, 9.999903 
7.499836e+1, 1.6526295e+2, -1413657.5, -1418758.5, 14584.865, -0.037776195, 0.23121971, -1401401.9, -80958.93, 0.0000019773436, 9.999602, 9.999525 
7.499889e+1, 1.7526177e+2, -1274336.5, -1302621.8, 18289.172, -0.041569386, 0.1552818, -1265359.8, -42904.633, 0.0, 9.999894, 9.99951 
7.4999464e+1, 1.8526137e+2, -1148399.1, -1188576.4, 4425.173, -0.022848481, 0.16448055, -1147917.6, -23458.125, 0.0, 10.000075, 9.999533 
7.5000083e+1, 1.9526179e+2, -1039506.06, -1088370.8, -610.2298, 0.016692605, 0.25088555, -1039498.44, -13042.778, 0.0, 10.000163, 9.999506 
7.5000495e+1, 2.0526138e+2, -964112.56, -1029027.75, 3453.8938, 0.033467047, 0.27172902, -963929.3, -35469.79, 0.0, 10.000128, 9.999257 
7.500071e+1, 2.1526016e+2, -888317.94, -945186.9, 14737.773, 0.029420983, 0.22100826, -884725.5, -54255.08, 0.0, 9.99999, 9.999225 
7.500101e+1, 2.2525892e+2, -809108.2, -885489.25, 22475.629, 0.013796991, 0.18656641, -802985.4, -70503.5, 0.0, 9.999985, 9.998965 
7.500139e+1, 2.3525761e+2, -696918.6, -783660.1, 3825.2078, -0.011017676, 0.15688524, -696750.25, -62256.68, 0.0, 10.000095, 9.998939 
7.5002295e+1, 2.4525666e+2, -579317.2, -693754.6, 22047.938, -0.01671621, 0.17652486, -575216.3, -38712.953, 0.0, 10.000305, 9.998783 
7.5003695e+1, 2.5525603e+2, -437632.13, -576548.2, 29265.82, -0.0061093527, 0.23120864, -431718.38, 6792.7793, 0.0, 10.000613, 9.998766 
7.500454e+1, 2.6525465e+2, -318292.0, -474765.06, 5955.3145, -0.009460239, 0.21897933, -318065.7, 22458.873, 0.0, 10.00079, 9.998706 
7.5004965e+1, 2.7525255e+2, -213703.25, -378602.06, 9598.465, -0.021453565, 0.13727714, -213146.42, 29396.438, 0.0, 10.000856, 9.998661 
7.500584e+1, 2.852512e+2, -133845.13, -329987.3, 35854.516, -0.029087255, 0.15269937, -127496.46, 17059.531, 0.000000011324871, 10.000908, 9.998297 
7.500701e+1, 2.952504e+2, -30322.758, -222406.06, 33106.734, -0.043857403, 0.23973748, -24776.738, 21787.826, 0.000004098041, 10.000916, 9.99836 
7.500765e+1, 3.0524772e+2, -47343.645, -314171.44, -6748.92, -0.056467246, 0.18075596, -47173.055, -47173.055, 0.000050636394, 10.000931, 9.997391 
7.500775e+1, 3.1524608e+2, 150965.4, 88947.39, 28311.14, -0.069784895, 0.2821918, 161945.44, 161945.44, 0.00019719645, 10.000967, 10.000142 
8.4996176e+1, 1.2526403e+2, -1770266.0, -1587718.5, 26204.959, -0.023225777, 0.3169867, -1584031.1, 128405.6, 0.00090933184, 9.998953, 10.001377 
8.4996665e+1, 1.3526212e+2, -1746158.0, -1709366.0, 16240.133, -0.03284878, 0.15552889, -1703223.1, -88769.98, 0.0005120121, 9.999243, 9.999728 
8.4997004e+1, 1.4526296e+2, -1585474.9, -1531064.9, 2632.6409, -0.045524195, 0.24212475, -1530937.9, -14494.416, 0.00020159004, 9.999457, 10.000171 
8.499751e+1, 1.5526287e+2, -1471296.9, -1439541.0, 5636.1836, -0.033881143, 0.2222958, -1438570.3, -20127.088, 0.000039447743, 9.999631, 10.000042 
8.499806e+1, 1.6526258e+2, -1395591.0, -1406796.3, 19119.713, -0.033456612, 0.21322374, -1381269.9, -60823.617, 0.0000010481418, 9.999714, 9.999554 
8.499871e+1, 1.7526181e+2, -1299210.4, -1311686.6, 16806.559, -0.04007073, 0.17679217, -1287521.6, -65066.8, 0.0, 9.999712, 9.999535 
8.4999394e+1, 1.852614e+2, -1199778.8, -1231010.0, 351.7159, -0.023095148, 0.19101965, -1199774.8, -75314.81, 0.0, 9.999799, 9.999375 
8.500011e+1, 1.9526142e+2, -1077484.3, -1122859.1, -6434.818, 0.012586751, 0.25215694, -1076589.3, -50128.363, 0.0, 9.999973, 9.99936 
8.5000575e+1, 2.0526096e+2, -948654.9, -1000048.0, -10334.1045, 0.028415296, 0.26571777, -946654.75, -18189.87, 0.0, 10.000141, 9.99945 
8.500083e+1, 2.1526003e+2, -830908.9, -897475.9, -6608.238, 0.027468853, 0.22415957, -830259.25, 212.53175, 0.0, 10.000298, 9.999406 
8.500121e+1, 2.2525877e+2, -759046.7, -887001.75, 14441.387, 0.013138107, 0.19453615, -757437.06, -24954.104, 0.0, 10.000439, 9.998736 
8.500171e+1, 2.3525728e+2, -642480.6, -781676.5, 16295.364, -0.0123910345, 0.16731751, -640598.44, -6100.7437, 0.0, 10.000574, 9.998721 
8.50027e+1, 2.452562e+2, -556967.1, -681489.25, 33037.766, -0.014143572, 0.18383354, -548744.6, -12235.684, 0.0, 10.000452, 9.998796 
8.5004145e+1, 2.5525552e+2, -511844.47, -611185.0, 25807.309, 0.003706655, 0.2312839, -505540.2, -67023.45, 0.0, 10.000098, 9.998776 
8.500518e+1, 2.6525408e+2, -393834.84, -511466.84, 7914.6816, 0.0014870537, 0.21559575, -393304.72, -52774.484, 0.0, 10.000271, 9.998704 
8.5005933e+1, 2.75252e+2, -204952.75, -374020.7, 6468.9595, -0.012945371, 0.13375022, -204705.6, 37843.098, 0.0, 10.000914, 9.998665 
8.5006833e+1, 2.852507e+2, -105484.695, -322168.16, 18602.371, -0.031432007, 0.15942208, -103899.27, 40662.08, 0.000000007967864, 10.001125, 9.998247 
8.5007715e+1, 2.952501e+2, -27590.19, -226188.03, 17832.34, -0.067269765, 0.26888692, -26001.709, 20567.041, 0.0000034232567, 10.000956, 9.998315 
8.50084e+1, 3.0524716e+2, -20710.063, -275449.88, -9453.442, -0.07779256, 0.17672183, -20359.725, -20359.725, 0.00004462947, 10.001001, 9.997623 
8.5008895e+1, 3.1524554e+2, 193653.3, 123830.664, 33509.563, -0.063060075, 0.2580435, 207133.0, 207133.0, 0.00017905688, 10.001197, 10.000272 
9.499455e+1, 1.2526305e+2, -1808730.0, -1668148.0, 33527.01, -0.083141945, 0.17021878, -1660561.6, 51878.816, 0.0008487081, 9.998955, 10.000824 
9.4996035e+1, 1.3526253e+2, -1786601.1, -1794502.9, 27259.563, -0.02169257, 0.20777339, -1763007.6, -148559.22, 0.00047347447, 9.999248, 9.999143 
9.499673e+1, 1.4526317e+2, -1577134.0, -1513722.8, 8605.286, -0.01938372, 0.2966944, -1512575.8, 3866.3071, 0.00018256163, 9.999457, 10.000289 
9.499707e+1, 1.5526178e+2, -1463805.3, -1424835.3, 12982.788, -0.042033616, 0.13535056, -1420906.1, -2453.2927, 0.00003354367, 9.999634, 10.000141 
9.4997734e+1, 1.6526163e+2, -1399514.3, -1414618.1, 18976.027, -0.038567606, 0.1408442, -1386642.6, -66188.24, 0.00000057940093, 9.999713, 9.9995 
9.499875e+1, 1.7526236e+2, -1302906.6, -1318757.5, 17301.375, -0.007606153, 0.2582758, -1291801.9, -69352.02, 0.0, 9.999709, 9.999487 
9.4999474e+1, 1.8526192e+2, -1211759.3, -1255213.9, 6409.6436, 0.004148821, 0.2797425, -1210833.5, -86377.66, 0.0, 9.999796, 9.99921 
9.499994e+1, 1.9526051e+2, -1088981.3, -1146615.5, 657.4277, -0.0020797327, 0.2157177, -1088973.8, -62503.51, 0.0, 9.999973, 9.999197 
9.50004e+1, 2.052597e+2, -942290.7, -986132.0, -4690.2734, -0.0036745826, 0.19621184, -941794.5, -13317.022, 0.0, 10.000137, 9.999547 
9.500086e+1, 2.1525934e+2, -824248.7, -882963.9, -205.8317, -0.00034231326, 0.20321798, -824248.0, 6230.449, 0.0, 10.000294, 9.999507 
9.500162e+1, 2.2525854e+2, -755983.9, -879441.3, 19064.803, 0.008722448, 0.20992364, -753106.8, -20621.406, 0.0, 10.000434, 9.998791 
9.5002645e+1, 2.3525739e+2, -639532.4, -774572.75, 21233.707, 0.0235939, 0.21040754, -636272.3, -1774.9454, 0.0, 10.00057, 9.998772 
9.500353e+1, 2.4525608e+2, -569398.5, -706745.94, 19085.64, 0.022538949, 0.21155682, -566795.7, -30285.045, 0.0, 10.00045, 9.998624 
9.5004267e+1, 2.5525463e+2, -524728.5, -636998.1, 13949.792, 0.0054603247, 0.19985025, -523021.2, -84495.875, 0.0, 10.000094, 9.998601 
9.500537e+1, 2.6525322e+2, -398656.03, -520481.72, 31794.305, -0.0066502015, 0.19618416, -390857.5, -50318.246, 0.0, 10.000267, 9.998645 
9.5006883e+1, 2.7525187e+2, -208189.4, -380590.0, 30163.121, -0.010135245, 0.19126508, -203064.44, 39487.617, 0.0, 10.000913, 9.998621 
9.500798e+1, 2.8525054e+2, -105638.89, -322197.06, 11113.392, -0.029745564, 0.2196037, -105070.06, 39494.72, 0.0000000042394483, 10.001124, 9.998247 
9.500858e+1, 2.9524934e+2, -29527.264, -228632.47, 12605.503, -0.07662638, 0.26781532, -28732.373, 17845.03, 0.000002739973, 10.000948, 9.9983015 
9.5009226e+1, 3.0524594e+2, 329.80432, -229753.47, -2226.64, -0.09611268, 0.11406918, 351.35068, 351.35068, 0.000038513957, 10.000995, 9.99794 
9.5009935e+1, 3.152446e+2, 205372.52, 148874.11, 45684.38, -0.080278344, 0.19107331, 230836.25, 230836.25, 0.00016021931, 10.001195, 10.000445 
1.04993716e+2, 1.2526229e+2, -1812978.1, -1673828.9, -18524.842, -0.061770156, 0.12745664, -1671405.0, 41040.645, 0.00079770345, 9.998943, 10.000789 
1.0499511e+2, 1.3526197e+2, -1794764.5, -1804653.1, 15720.061, -0.036838267, 0.19167891, -1783229.5, -168777.4, 0.0004431459, 9.99922, 9.999085 
1.0499596e+2, 1.452625e+2, -1593523.4, -1535078.6, 2761.025, -0.039844513, 0.27804044, -1534948.5, -18500.766, 0.00016917764, 9.999402, 10.00017 
1.0499667e+2, 1.5526111e+2, -1491773.4, -1451747.4, -11852.088, -0.039168075, 0.12959318, -1448501.1, -30041.408, 0.000030278157, 9.999499, 10.000022 
1.0499751e+2, 1.6526106e+2, -1405536.5, -1408473.3, -8944.6875, -0.027984293, 0.1463663, -1397940.5, -77479.836, 0.0000004316036, 9.999631, 9.999582 
1.0499852e+2, 1.7526199e+2, -1283306.6, -1300047.3, -1407.8363, -0.0057707587, 0.27503443, -1283189.0, -60735.355, 0.0, 9.9998045, 9.99957 
1.0499927e+2, 1.8526152e+2, -1197435.6, -1242227.4, 1279.3195, 0.00016113109, 0.28837425, -1197399.1, -72939.77, 0.0, 9.999868, 9.999265 
1.0499978e+2, 1.9525991e+2, -1105833.6, -1149698.1, 10996.635, -0.008032748, 0.19815002, -1103231.3, -76756.03, 0.0, 9.999834, 9.999243 
1.05000354e+2, 2.0525905e+2, -987425.44, -1029017.4, 6876.771, -0.011066013, 0.18100934, -986317.9, -57834.555, 0.0, 9.999918, 9.999358 
1.0500095e+2, 2.1525879e+2, -864269.3, -921941.94, -11111.706, -0.010493832, 0.2161539, -862202.5, -31717.826, 0.0, 10.000106, 9.99933 
1.0500192e+2, 2.25258e+2, -786341.7, -888703.56, -5165.6978, 0.008165102, 0.22978278, -786081.7, -53589.613, 0.0, 10.000203, 9.998838 
1.05003245e+2, 2.3525676e+2, -687811.7, -793382.3, -4403.9663, 0.0434854, 0.21850948, -687628.3, -53123.797, 0.0, 10.000218, 9.998813 
1.0500417e+2, 2.4525546e+2, -549969.6, -692173.3, 4743.5757, 0.035882343, 0.21552525, -549811.56, -13294.271, 0.0, 10.00056, 9.998671 
1.05004735e+2, 2.552541e+2, -360462.22, -552627.06, 14649.405, -0.011678006, 0.20548338, -359351.84, 79178.7, 0.0, 10.0012, 9.998648 
1.05005905e+2, 2.6525268e+2, -267026.97, -471471.1, 36403.984, -0.027765643, 0.20783682, -260738.19, 79806.47, 0.0, 10.001231, 9.998518 
1.0500768e+2, 2.7525127e+2, -248437.42, -414149.06, 28590.531, -0.011309657, 0.21394482, -243643.34, -1084.3495, 0.0, 10.000697, 9.998496 
1.05009034e+2, 2.8525e+2, -162882.2, -342821.3, 13280.459, -0.0156942, 0.24373163, -161907.31, -17335.33, 0.0000000012344323, 10.0007, 9.998311 
1.05009906e+2, 2.9524878e+2, 10426.1455, -202765.14, 19271.938, -0.05057022, 0.28689545, 12154.2705, 58737.723, 0.0000020653147, 10.001192, 9.9983635 
1.05010554e+2, 3.0524504e+2, 44460.07, -215442.78, -11240.963, -0.07868177, 0.09976481, 44945.344, 44945.344, 0.00003243676, 10.001324, 9.997883 
1.05011106e+2, 3.1524366e+2, 174091.94, 107277.33, 8919.642, -0.07734378, 0.17775795, 175262.2, 175262.2, 0.00014106146, 10.001093, 10.00021 
1.1499367e+2, 1.2526172e+2, -1779269.8, -1604368.8, -9858.53, 0.036338445, 0.18761124, -1603814.9, 108637.44, 0.0007564602, 9.998945, 10.001265 
1.14993826e+2, 1.3526042e+2, -1762139.4, -1736514.9, 26496.432, -0.087555364, 0.10517086, -1719895.6, -105431.12, 0.00042056636, 9.999217, 9.999554 
1.1499459e+2, 1.4526092e+2, -1620359.1, -1589599.5, 6479.2407, -0.11731006, 0.18373564, -1588290.4, -71829.445, 0.00016082273, 9.999397, 9.999798 
1.1499631e+2, 1.5526086e+2, -1515766.6, -1502445.5, -7285.5273, -0.026100611, 0.20484994, -1499234.8, -80770.69, 0.000029173776, 9.999503, 9.999672 
1.1499741e+2, 1.6526087e+2, -1388946.6, -1374707.8, -3216.1292, -0.0023839683, 0.23140174, -1374015.0, -53549.977, 0.0000005105562, 9.999634, 9.999813 
1.1499799e+2, 1.7526068e+2, -1267549.9, -1267617.4, 5447.735, -0.040010642, 0.2276539, -1262135.8, -39669.457, 0.0, 9.9998045, 9.999793 
1.1499873e+2, 1.8526022e+2, -1179489.6, -1204112.3, -240.16518, -0.041184396, 0.21630692, -1179487.4, -55016.914, 0.0, 9.999865, 9.999528 
1.1499964e+2, 1.9525962e+2, -1088370.4, -1113122.9, 10459.202, -0.007187173, 0.19855382, -1084542.8, -58066.754, 0.0, 9.999833, 9.9994955 
1.1500043e+2, 2.05259e+2, -1021365.5, -1098396.4, 13483.205, 0.004062007, 0.22027326, -1019073.6, -90591.02, 0.0, 9.999913, 9.998884 
1.1500111e+2, 2.1525836e+2, -896847.8, -988774.2, -3712.3442, -0.005442336, 0.26268265, -896698.1, -66207.63, 0.0, 10.000102, 9.998873 
1.1500214e+2, 2.2525713e+2, -784474.56, -883748.2, -4939.035, 0.008810222, 0.2537976, -784229.44, -51726.477, 0.0, 10.000198, 9.998875 
1.1500348e+2, 2.3525544e+2, -685541.5, -787860.0, -2664.2, 0.044822395, 0.19191405, -685472.2, -50953.145, 0.0, 10.000216, 9.998852 
1.150046e+2, 2.4525435e+2, -532691.3, -655428.25, 28386.785, 0.023379115, 0.19624552, -526443.94, 10084.792, 0.0, 10.000556, 9.998925 
1.1500555e+2, 2.5525385e+2, -342756.9, -515156.5, 38067.086, -0.051280864, 0.24820313, -334725.56, 103806.945, 0.0, 10.001197, 9.998907 
1.15006775e+2, 2.6525247e+2, -280846.03, -499314.53, 15463.249, -0.06461152, 0.25097862, -279756.97, 60789.55, 0.0, 10.001227, 9.998329 
1.1500831e+2, 2.7525035e+2, -263025.72, -443440.66, 9721.145, -0.018642178, 0.20004377, -262503.44, -19933.72, 0.0, 10.000692, 9.998297 
1.15009986e+2, 2.85249e+2, -154988.2, -324684.47, 31104.307, 0.009220841, 0.22990938, -149466.63, -4883.4946, 0.00000000006210851, 10.000693, 9.998439 
1.1501166e+2, 2.9524845e+2, 19622.436, -183502.89, 38213.137, 0.005552311, 0.32641372, 26573.45, 73160.26, 0.0000014487281, 10.001191, 9.998496 
1.1501236e+2, 3.052445e+2, 14330.428, -276616.13, -20466.367, -0.030051712, 0.13506795, 15763.061, 15763.061, 0.000026628812, 10.001319, 9.997464 
1.1501239e+2, 3.1524274e+2, 127580.14, 13255.919, 4425.1597, -0.060297832, 0.21623771, 127751.164, 127751.164, 0.00012208533, 10.001083, 9.999568 
1.2499236e+2, 1.2526056e+2, -1812939.6, -1580257.9, -34186.24, 0.03175831, 0.22717696, -1575339.1, 137127.4, 0.0007247361, 9.998541, 10.001627 
1.2499295e+2, 1.3525924e+2, -1809222.1, -1719693.1, -7515.067, -0.07205947, 0.10806838, -1719066.8, -104590.56, 0.00040489552, 9.998726, 9.999907 
1.2499389e+2, 1.4525971e+2, -1685039.1, -1627885.5, -17979.238, -0.10540689, 0.17021382, -1622700.0, -106227.72, 0.00015657058, 9.998983, 9.999735 
1.2499563e+2, 1.5526009e+2, -1546182.4, -1523733.4, -10326.602, -0.034626976, 0.23965909, -1519705.8, -101233.01, 0.000029665785, 9.999323, 9.999613 
1.2499679e+2, 1.6526005e+2, -1409235.1, -1371420.8, -5922.8374, -0.017896714, 0.2587419, -1370514.8, -50040.613, 0.0000007617598, 9.999437, 9.999931 
1.2499745e+2, 1.752594e+2, -1326850.6, -1283340.6, -6655.8857, -0.050892755, 0.19784386, -1282345.3, -59866.63, 0.0, 9.999341, 9.999909 
1.2499833e+2, 1.8525894e+2, -1229299.4, -1219183.1, -17272.865, -0.048259057, 0.1777431, -1206243.0, -81761.11, 0.0, 9.999482, 9.99961 
1.24999404e+2, 1.9525877e+2, -1081995.8, -1101078.9, -21063.791, -0.013040727, 0.19558077, -1068413.1, -41930.29, 0.0, 9.999838, 9.999576 
1.2500048e+2, 2.0525825e+2, -997623.94, -1094432.0, -6610.402, 0.007822914, 0.22606958, -997174.6, -68685.83, 0.0, 10.000109, 9.998817 
1.2500152e+2, 2.1525739e+2, -872463.9, -984807.8, 5288.801, 0.015344765, 0.25279436, -872215.44, -41715.824, 0.0, 10.000301, 9.998804 
1.2500261e+2, 2.2525609e+2, -733315.6, -862347.9, 16125.268, 0.017448872, 0.24181315, -731330.94, 1182.0122, 0.0, 10.000563, 9.998847 
1.2500373e+2, 2.3525447e+2, -589451.94, -744236.56, 12620.424, 0.014437057, 0.18997978, -588429.7, 46098.527, 0.0, 10.000887, 9.998828 
1.25005e+2, 2.4525338e+2, -492996.4, -633570.8, 31270.336, -0.0038325163, 0.194037, -486354.25, 50183.52, 0.0, 10.000817, 9.99895 
1.2500647e+2, 2.552528e+2, -460780.9, -570241.8, 22574.855, -0.037794936, 0.23813853, -456307.9, -17765.902, 0.0, 10.000379, 9.998923 
1.2500785e+2, 2.6525143e+2, -387493.84, -557927.8, -4232.6807, -0.04487617, 0.2418929, -387388.78, -46832.383, 0.0, 10.000526, 9.998263 
1.2500921e+2, 2.752493e+2, -191328.77, -416459.0, -1928.384, -0.022436319, 0.197946, -191312.25, 51267.86, 0.0, 10.001216, 9.998231 
1.2501101e+2, 2.8524798e+2, -38744.637, -264786.9, 26132.37, 0.004498248, 0.23238203, -35762.85, 108830.414, 0.0, 10.001472, 9.998476 
1.2501305e+2, 2.9524752e+2, 37255.375, -171252.42, 24213.363, 0.019665899, 0.33448982, 40030.266, 86625.92, 0.00000094519226, 10.001297, 9.998529 
1.2501389e+2, 3.0524364e+2, 25308.828, -267517.3, -24333.557, -0.011679577, 0.14451925, 27317.146, 27317.146, 0.000021325412, 10.001378, 9.997499 
1.2501402e+2, 3.1524232e+2, 199529.27, 21530.164, 35893.0, -0.034545403, 0.2639062, 206494.44, 206494.44, 0.000103857135, 10.00169, 9.999335 
1.3498975e+2, 1.2525879e+2, -1797885.6, -1546843.8, -31688.87, -0.08460148, 0.2490441, -1542905.5, 169582.63, 0.0007016644, 9.998531, 10.001861 
1.349925e+2, 1.352584e+2, -1791958.4, -1686230.5, 560.95886, 0.0077249086, 0.20130374, -1686227.5, -71740.42, 0.00039489288, 9.998735, 10.000133 
1.3499388e+2, 1.4525886e+2, -1666138.1, -1590175.8, -6535.545, -0.0070209177, 0.23829556, -1589617.6, -73135.68, 0.00015526546, 9.99899, 9.99999 
1.3499458e+2, 1.5525874e+2, -1529879.8, -1489197.8, 2575.9392, -0.071742356, 0.2343242, -1489035.3, -70549.42, 0.000031126172, 9.99932, 9.999851 
1.349956e+2, 1.6525856e+2, -1409883.6, -1371790.1, -9892.8125, -0.08199682, 0.22745752, -1369374.3, -48886.004, 0.0000011270397, 9.999433, 9.999931 
1.349969e+2, 1.752581e+2, -1326179.4, -1282415.4, -9288.831, -0.040274277, 0.18416958, -1280525.4, -58034.45, 0.0, 9.999343, 9.999915 
1.3499808e+2, 1.8525769e+2, -1235618.3, -1232276.4, -4382.744, -0.022838248, 0.17258063, -1229256.9, -104762.9, 0.0, 9.999482, 9.99952 
1.349991e+2, 1.9525741e+2, -1088109.6, -1113701.5, -7285.6255, -0.028359542, 0.18938598, -1086180.9, -59684.918, 0.0, 9.999837, 9.99949 
1.3500047e+2, 2.052568e+2, -974806.4, -1045919.44, 267.22882, -0.0034620604, 0.19802523, -974805.4, -46303.246, 0.0, 10.000104, 9.999153 
1.3500217e+2, 2.1525589e+2, -850457.7, -938046.1, 13413.26, 0.049520377, 0.18616922, -848449.6, -17937.584, 0.0, 10.000296, 9.999128 
1.3500331e+2, 2.252549e+2, -741094.56, -876998.4, 27972.727, 0.030949073, 0.19454119, -735562.25, -3040.1086, 0.0, 10.000556, 9.99875 
1.3500397e+2, 2.3525386e+2, -595832.75, -757268.25, 24731.4, -0.050598215, 0.21192342, -592128.94, 42403.18, 0.0, 10.000886, 9.998739 
1.3500538e+2, 2.4525255e+2, -507708.03, -663291.9, 14268.927, -0.048914414, 0.20763847, -506410.22, 30134.355, 0.0, 10.000814, 9.998748 
1.3500749e+2, 2.5525102e+2, -475572.9, -600293.8, 7450.703, 0.025990961, 0.1747453, -475129.38, -36570.3, 0.0, 10.000376, 9.998719 
1.3500912e+2, 2.6524958e+2, -384903.6, -551551.44, 21303.309, 0.029027753, 0.18013196, -382223.4, -41649.12, 0.0, 10.000523, 9.99831 
1.3501039e+2, 2.752482e+2, -186629.1, -406738.28, 24311.979, -0.028085098, 0.20826659, -183975.72, 58614.395, 0.0, 10.001217, 9.998297 
1.350121e+2, 2.8524697e+2, -43223.477, -272922.66, 18918.734, -0.034402296, 0.25169063, -41675.703, 102926.664, 0.0, 10.001468, 9.998423 
1.3501404e+2, 2.9524603e+2, 32316.605, -180021.66, 18767.365, -0.011872593, 0.30931804, 33962.586, 80572.78, 0.0000005800232, 10.00129, 9.998473 
1.3501513e+2, 3.0524242e+2, 57810.586, -197080.52, -13490.426, -0.02575348, 0.12506433, 58522.594, 58522.594, 0.000016654767, 10.001368, 9.997988 
1.35016e+2, 3.1524232e+2, 212392.3, 49719.67, 50977.984, -0.009165498, 0.31912008, 227047.39, 227047.39, 0.000086807726, 10.001686, 9.99953 
1.4498813e+2, 1.252574e+2, -1779007.1, -1548602.5, 22971.887, -0.10801944, 0.24767174, -1546334.5, 166166.75, 0.0006852014, 9.998707, 10.001764 
1.4499126e+2, 1.3525712e+2, -1769034.0, -1681185.5, 33778.68, 0.0026585073, 0.21429542, -1669699.1, -55199.668, 0.00038852147, 9.998918, 10.000078 
1.4499298e+2, 1.4525738e+2, -1659104.0, -1572003.9, 9350.547, 0.005418683, 0.22809531, -1571011.4, -54515.62, 0.00015533686, 9.998973, 10.000124 
1.44994e+2, 1.5525728e+2, -1587895.6, -1503691.9, 8137.6294, -0.038415093, 0.2122015, -1502912.6, -84413.69, 0.00003278088, 9.998862, 9.999972 
1.449951e+2, 1.6525717e+2, -1480199.9, -1421053.9, -10547.232, -0.05393562, 0.21403137, -1419229.3, -98728.414, 0.0000015078091, 9.999016, 9.999794 
1.4499626e+2, 1.7525686e+2, -1324246.3, -1296326.5, -21588.824, -0.04278874, 0.19950376, -1284577.4, -62073.883, 0.0, 9.999419, 9.999783 
1.4499754e+2, 1.8525645e+2, -1206032.1, -1210412.5, -12500.556, -0.032062627, 0.19147849, -1195531.4, -71024.734, 0.0, 9.999652, 9.999589 
1.4499894e+2, 1.9525604e+2, -1099580.9, -1112129.5, -4480.48, -0.022963068, 0.1875454, -1098145.4, -71636.03, 0.0, 9.999727, 9.999555 
1.4500053e+2, 2.0525533e+2, -1002816.44, -1058523.3, -2242.0095, 0.0027221404, 0.18220411, -1002726.3, -74210.34, 0.0, 9.9999075, 9.999162 
1.4500235e+2, 2.1525437e+2, -866155.0, -943974.3, -14675.128, 0.043207046, 0.16463797, -863479.56, -32953.41, 0.0, 10.000183, 9.999142 
1.4500366e+2, 2.252535e+2, -765372.9, -875893.44, -4120.5684, 0.021529734, 0.17875199, -765219.44, -32684.648, 0.0, 10.000334, 9.998864 
1.4500454e+2, 2.3525274e+2, -664283.6, -778391.6, 7598.6426, -0.055289716, 0.2108936, -663779.8, -29237.857, 0.0, 10.000364, 9.998846 
1.4500616e+2, 2.4525139e+2, -550069.3, -710131.3, -1579.9153, -0.044399932, 0.21056592, -550053.75, -13498.475, 0.0, 10.000637, 9.998512 
1.4500843e+2, 2.5524956e+2, -381782.25, -581186.8, -11810.839, 0.043397, 0.17269397, -381085.13, 57488.7, 0.0, 10.001132, 9.998486 
1.4501016e+2, 2.6524803e+2, -266332.0, -486977.34, 12089.729, 0.042875852, 0.17579977, -265671.56, 74918.44, 0.0, 10.001304, 9.998377 
1.4501151e+2, 2.752467e+2, -191828.14, -401965.28, 15333.457, -0.0324294, 0.2027271, -190715.17, 51888.89, 0.0, 10.00115, 9.998362 
1.4501327e+2, 2.8524542e+2, -106808.41, -313832.94, -3536.6084, -0.04418824, 0.2405623, -106748.01, 37868.85, 0.0, 10.001077, 9.998329 
1.450152e+2, 2.952443e+2, -2510.4106, -208128.44, -7471.51, -0.015249675, 0.28978297, -2239.277, 44387.94, 0.00000034163278, 10.001099, 9.998372 
1.450164e+2, 3.0524078e+2, 57092.74, -169973.58, -36543.715, -0.0281742, 0.10800304, 62829.113, 62829.113, 0.000012640429, 10.001242, 9.998235 
1.4501764e+2, 3.1524104e+2, 165471.42, 18393.742, 7606.5874, 0.003578619, 0.3149451, 165863.77, 165863.77, 0.00007115946, 10.0014, 9.999453 
1.5498745e+2, 1.2525639e+2, -1807152.6, -1608912.9, 28751.13, -0.048264157, 0.21967639, -1604827.3, 107679.09, 0.0006719969, 9.998714, 10.001346 
1.5498921e+2, 1.3525537e+2, -1792296.4, -1729458.1, 41692.535, -0.09435721, 0.14663155, -1708671.6, -94158.16, 0.00038301162, 9.998917, 9.999748 
1.5499116e+2, 1.4525527e+2, -1658795.5, -1570193.0, 4701.575, -0.074899666, 0.13930976, -1569944.3, -53430.21, 0.00015494693, 9.998968, 10.000138 
1.5499389e+2, 1.5525566e+2, -1586910.8, -1502554.3, 4981.8774, 0.06298443, 0.17292967, -1502261.0, -83749.04, 0.000033834087, 9.998866, 9.999979 
1.549953e+2, 1.6525584e+2, -1498809.6, -1460399.5, 3873.5632, 0.06320789, 0.21808027, -1460012.8, -139500.44, 0.0000017896223, 9.999019, 9.999522 
1.5499549e+2, 1.7525569e+2, -1342969.4, -1334807.5, -6207.359, -0.06286839, 0.24429895, -1331459.8, -108943.586, 0.0, 9.999418, 9.999519 
1.5499672e+2, 1.8525524e+2, -1190678.3, -1177859.5, -10083.124, -0.08117364, 0.23444472, -1172321.1, -47801.07, 0.0, 9.999648, 9.999814 
1.549989e+2, 1.9525464e+2, -1084648.1, -1080948.3, -1006.65753, 0.00042886022, 0.18928589, -1080692.1, -54169.23, 0.0, 9.999725, 9.999769 
1.5500066e+2, 2.0525381e+2, -1025745.75, -1105197.3, 7732.9478, 0.023576315, 0.17828761, -1025000.1, -96469.7, 0.0, 9.999903, 9.998844 
1.5500203e+2, 2.1525279e+2, -887454.7, -988096.2, -3887.1804, -0.0064858026, 0.18685602, -887304.8, -56762.652, 0.0, 10.000181, 9.99884 
1.5500365e+2, 2.2525187e+2, -742617.7, -827459.75, -3412.9856, -0.014265264, 0.19283685, -742480.6, -9929.376, 0.0, 10.000329, 9.999199 
1.5500544e+2, 2.3525105e+2, -642778.3, -732970.44, 9669.397, -0.001628539, 0.1867562, -641753.3, -7195.475, 0.0, 10.0003605, 9.99916 
1.550073e+2, 2.452499e+2, -570204.56, -750747.3, 16728.807, 0.006720307, 0.20311111, -568667.56, -32097.797, 0.0, 10.000632, 9.998236 
1.5500923e+2, 2.5524846e+2, -400199.88, -619238.2, 7065.9194, 0.010009667, 0.23168828, -399972.16, 38614.168, 0.0, 10.001131, 9.998225 
1.5501097e+2, 2.6524675e+2, -260665.98, -474167.16, 6188.43, -0.007380367, 0.22761083, -260486.75, 80117.0, 0.0, 10.0013, 9.9984665 
1.5501262e+2, 2.7524477e+2, -186862.08, -390301.66, 10019.889, -0.038591, 0.18033375, -186369.77, 56252.375, 0.0, 10.001145, 9.998444 
1.5501453e+2, 2.8524324e+2, -117150.836, -334698.2, -3401.6582, -0.027591242, 0.19734807, -117097.664, 27539.223, 0.0, 10.001074, 9.998188 
1.550165e+2, 2.9524228e+2, -11024.59, -227036.53, -4619.991, 0.0036900607, 0.27615395, -10925.824, 35720.875, 0.00000019535571, 10.001103, 9.99824 
1.5501767e+2, 3.052387e+2, 56512.566, -170490.5, -30324.172, -0.02540346, 0.093775146, 60493.6, 60493.6, 0.000009261703, 10.00124, 9.998231 
1.5501897e+2, 3.1523848e+2, 140655.73, -31361.08, 16721.28, -0.006554978, 0.2508417, 142266.08, 142266.08, 0.00005700469, 10.001392, 9.999112 
1.6498643e+2, 1.2525466e+2, -1795524.0, -1623409.6, -16236.258, -0.029749935, 0.18026017, -1621891.4, 90628.336, 0.00065754744, 9.998879, 10.001166 
1.6498804e+2, 1.3525368e+2, -1828153.6, -1759209.4, 14063.756, -0.09303116, 0.12362608, -1756450.9, -141923.0, 0.00037533476, 9.998724, 9.999636 
1.6499001e+2, 1.452534e+2, -1686663.3, -1589830.5, -13924.787, -0.07971275, 0.10763041, -1587867.9, -71336.99, 0.00015252095, 9.998803, 10.000083 
1.649929e+2, 1.5525384e+2, -1558751.3, -1494727.4, -20515.11, 0.06669905, 0.14959961, -1488717.9, -70189.516, 0.000033788867, 9.999084, 9.999927 
1.6499454e+2, 1.6525407e+2, -1466775.1, -1438893.6, -6222.9243, 0.075518645, 0.19920598, -1437567.8, -117039.62, 0.0000018950186, 9.999212, 9.999577 
1.6499498e+2, 1.7525399e+2, -1371979.9, -1343523.4, 7381.07, -0.043733172, 0.2272259, -1341722.8, -119191.52, 0.0, 9.999195, 9.999567 
1.6499642e+2, 1.8525358e+2, -1221329.6, -1205536.5, 8037.4736, -0.06799641, 0.22460595, -1202165.6, -77630.19, 0.0, 9.999495, 9.999699 
1.6499875e+2, 1.9525298e+2, -1039200.25, -1071192.4, -9974.663, -0.0048817038, 0.19252981, -1036345.1, -9805.788, 0.0, 10.000091, 9.9996605 
1.6500063e+2, 2.0525222e+2, -964315.3, -1065445.3, -6791.3, 0.011115821, 0.18756972, -963861.25, -35314.805, 0.0, 10.00028, 9.998935 
1.6500208e+2, 2.1525127e+2, -893069.4, -981202.4, 11881.543, -0.016210094, 0.19512744, -891495.7, -60939.23, 0.0, 10.0001, 9.998927 
1.6500393e+2, 2.2525024e+2, -776331.2, -859073.6, 13555.283, -0.010336854, 0.19316868, -774167.06, -41600.566, 0.0, 10.000164, 9.999062 
1.6500612e+2, 2.3524916e+2, -638999.6, -745959.2, -9826.101, 0.025721293, 0.17458084, -638104.44, -3528.063, 0.0, 10.000451, 9.999026 
1.6500811e+2, 2.4524799e+2, -560511.0, -740193.44, 567.4469, 0.022186011, 0.19354522, -560509.2, -23920.49, 0.0, 10.000672, 9.998288 
1.6500992e+2, 2.5524676e+2, -441076.9, -632356.3, 15067.58, -0.018714976, 0.23820466, -439897.28, -1294.2415, 0.0, 10.000822, 9.998283 
1.650118e+2, 2.6524514e+2, -316701.4, -494679.97, 10626.203, -0.03483995, 0.23841336, -316069.22, 24549.914, 0.0, 10.000888, 9.998523 
1.6501378e+2, 2.7524316e+2, -222079.05, -402097.7, 10741.546, -0.023092445, 0.18369803, -221440.38, 21196.805, 0.0, 10.00088, 9.998489 
1.6501588e+2, 2.8524154e+2, -122868.58, -357559.25, 7379.038, -0.0025788746, 0.1981731, -122636.805, 22016.385, 0.0, 10.001121, 9.998008 
1.6501787e+2, 2.9524046e+2, 42623.582, -221241.4, 1658.0991, 0.007645737, 0.2811369, 42634.0, 89299.46, 0.00000010392393, 10.001559, 9.998059 
1.6501907e+2, 3.0523697e+2, 129663.06, -119068.18, -28131.268, -0.032431807, 0.10975058, 132805.0, 132805.0, 0.0000064948904, 10.001673, 9.998374 
1.6502053e+2, 3.1523648e+2, 141613.39, -50725.098, 27466.05, 0.0071136137, 0.22935383, 145458.69, 145458.69, 0.000044405664, 10.001483, 9.998935 
1.7498504e+2, 1.2525222e+2, -1791647.6, -1614942.8, -26929.133, -0.06028822, 0.13085666, -1610930.0, 101611.26, 0.0006370072, 9.998878, 10.001225 
1.7498775e+2, 1.3525206e+2, -1820051.4, -1744004.3, 9563.687, 0.0038496195, 0.14480706, -1742820.0, -128276.96, 0.00036284848, 9.99873, 9.999738 
1.7498949e+2, 1.452518e+2, -1695208.0, -1608144.0, -4259.791, -0.013177102, 0.13170096, -1607936.0, -91389.6, 0.00014707113, 9.998806, 9.999955 
1.7499101e+2, 1.552518e+2, -1566735.3, -1511403.0, -9793.669, -0.03286896, 0.14271843, -1509720.8, -91172.73, 0.00003249045, 9.999084, 9.999812 
1.7499278e+2, 1.6525184e+2, -1439855.4, -1382813.4, -7542.0103, -0.022405684, 0.15771468, -1381833.1, -61284.777, 0.0000018022155, 9.99921, 9.999963 
1.7499475e+2, 1.7525174e+2, -1346632.8, -1290730.3, 7769.2285, 0.012008775, 0.14799038, -1289670.6, -67121.91, 0.0, 9.999194, 9.99993 
1.7499664e+2, 1.8525143e+2, -1253724.1, -1272548.0, 30102.793, 0.0037096923, 0.16203356, -1231596.3, -107043.52, 0.0, 9.999493, 9.999239 
1.7499849e+2, 1.9525106e+2, -1069953.4, -1134632.0, 12275.756, -0.04117975, 0.19673018, -1067701.9, -41143.11, 0.0, 10.000088, 9.999226 
1.7500043e+2, 2.0525052e+2, -929343.06, -992085.75, -13933.665, -0.03718635, 0.20966476, -926387.94, 2176.2563, 0.0, 10.000277, 9.99944 
1.7500246e+2, 2.152498e+2, -860404.06, -912254.06, 6153.2026, 0.010846495, 0.18929964, -859683.9, -29114.707, 0.0, 10.000095, 9.999403 
1.750045e+2, 2.252486e+2, -819851.1, -948200.9, 23944.094, 0.029896962, 0.18009648, -815529.75, -82949.09, 0.0, 10.000159, 9.998452 
1.7500657e+2, 2.3524703e+2, -680095.06, -831247.25, 1506.3993, 0.023760378, 0.17275707, -680080.06, -45482.234, 0.0, 10.000451, 9.998442 
1.7500857e+2, 2.4524565e+2, -533829.0, -684309.1, 5858.8687, -0.001136269, 0.1802193, -533601.25, 3011.0403, 0.0, 10.00067, 9.998673 
1.7501049e+2, 2.552445e+2, -414881.25, -577205.1, 20950.324, -0.045408953, 0.19222194, -412220.9, 26403.09, 0.0, 10.000819, 9.998664 
1.7501262e+2, 2.6524326e+2, -315379.47, -491665.28, 9813.569, -0.0419101, 0.20796165, -314834.84, 25801.355, 0.0, 10.000886, 9.998546 
1.75015e+2, 2.7524188e+2, -220620.73, -399574.0, 11695.27, 0.009835458, 0.21238127, -219859.64, 22789.63, 0.0, 10.000882, 9.998507 
1.7501727e+2, 2.852403e+2, -139231.92, -391240.9, 23463.844, 0.025368549, 0.24307214, -137065.89, 7599.9697, 0.0, 10.001121, 9.997776 
1.750193e+2, 2.9523873e+2, 25676.873, -254873.95, 18545.22, -0.007463572, 0.30428854, 26897.455, 73581.16, 0.00000004563321, 10.001554, 9.997831 
1.7502052e+2, 3.052355e+2, 150094.2, -76755.12, -35455.676, -0.053667657, 0.15507941, 155506.66, 155506.66, 0.000004309572, 10.001672, 9.998666 
1.7502232e+2, 3.1523514e+2, 143223.38, -49644.17, 21950.715, 0.03595305, 0.25475195, 145690.1, 145690.1, 0.000033397264, 10.001491, 9.998939 
1.8498357e+2, 1.2524942e+2, -1888442.3, -1657434.3, -60913.11, -0.060478266, 0.09742701, -1642356.5, 70212.11, 0.0006065531, 9.998196, 10.001262 
1.8498677e+2, 1.3524994e+2, -1806158.8, -1724206.4, -22272.908, 0.030789088, 0.16822721, -1718544.3, -103979.914, 0.00034376056, 9.998769, 9.999853 
1.8498863e+2, 1.4524978e+2, -1640090.8, -1572449.6, -26015.295, 0.0031643547, 0.15568641, -1563601.4, -47034.555, 0.00013809917, 9.999145, 10.000037 
1.8499e+2, 1.5524969e+2, -1526953.8, -1482696.1, -17151.566, -0.052954216, 0.14760606, -1476827.5, -58258.445, 0.000029920388, 9.999316, 9.999897 
1.8499187e+2, 1.6524963e+2, -1405939.0, -1354511.8, -26131.496, -0.04412363, 0.146475, -1343564.1, -22994.887, 0.0000015280342, 9.999392, 10.00007 
1.849941e+2, 1.7524955e+2, -1311408.3, -1261777.3, -32933.73, 0.018206446, 0.12562326, -1245356.4, -22787.44, 0.0, 9.999385, 10.000036 
1.849962e+2, 1.8524933e+2, -1281835.5, -1285311.8, 7387.462, 0.021137815, 0.14206176, -1275984.5, -151412.52, 0.0, 9.999296, 9.999247 
1.8499821e+2, 1.952491e+2, -1208554.9, -1200388.5, 24357.7, -0.028372822, 0.19012414, -1179774.1, -153197.05, 0.0, 9.999132, 9.999235 
1.850004e+2, 2.0524853e+2, -1051316.9, -1051804.4, -1807.5444, -0.02480847, 0.20224966, -1049736.8, -121153.875, 0.0, 9.999444, 9.999432 
1.8500274e+2, 2.1524768e+2, -846610.4, -906557.3, -21864.523, 0.02589913, 0.16916512, -839483.1, -8893.887, 0.0, 10.000195, 9.999394 
1.8500493e+2, 2.2524655e+2, -761058.3, -925773.8, -3069.4675, 0.035724517, 0.16818166, -761001.1, -28400.695, 0.0, 10.000587, 9.9984 
1.8500698e+2, 2.352452e+2, -653472.4, -823898.44, 15804.081, 0.010058837, 0.1887829, -652019.25, -17403.447, 0.0, 10.000657, 9.998393 
1.8500915e+2, 2.4524377e+2, -539598.1, -683867.06, 20821.607, -0.0064963996, 0.19342443, -536653.2, -22.60885, 0.0, 10.000618, 9.998701 
1.850114e+2, 2.5524235e+2, -462493.03, -597315.0, 7761.126, -0.017336754, 0.17474766, -462047.72, -23403.22, 0.0, 10.000481, 9.998688 
1.8501362e+2, 2.6524103e+2, -346264.16, -509663.13, -8629.075, -0.019347021, 0.18340003, -345809.72, -5152.312, 0.0, 10.000689, 9.998516 
1.8501587e+2, 2.7523977e+2, -175591.86, -380377.03, -11288.701, -0.008138575, 0.20222543, -174971.45, 67698.305, 0.0, 10.001204, 9.998483 
1.8501826e+2, 2.8523833e+2, -107314.34, -363351.34, 6039.325, 0.0022756534, 0.24158677, -107171.97, 37513.23, 0.0, 10.0012865, 9.997888 
1.8502058e+2, 2.9523695e+2, -51928.137, -280952.38, 25194.38, -0.0035340362, 0.3084246, -49189.32, -2487.9507, 0.000000013949684, 10.000972, 9.997931 
1.8502194e+2, 3.0523413e+2, 77591.19, -111859.1, -20134.5, -0.05429025, 0.19736512, 79707.414, 79707.414, 0.0000026617806, 10.001175, 9.998664 
1.8502389e+2, 3.1523338e+2, 176773.1, -55497.16, 11983.131, 0.026886946, 0.25661078, 177389.69, 177389.69, 0.000023992492, 10.00182, 9.998739 
1.9498204e+2, 1.2524623e+2, -1887188.8, -1654661.5, -43284.207, -0.035574492, 0.079529844, -1646865.6, 65736.4, 0.0005643703, 9.998195, 10.001281 
1.9498509e+2, 1.3524732e+2, -1796978.9, -1705355.6, -149.76341, -0.01598139, 0.19415104, -1705355.4, -90763.34, 0.00031730495, 9.99877, 9.999983 
1.949874e+2, 1.4524734e+2, -1619263.5, -1529533.5, -19871.164, -0.035619367, 0.17975016, -1525329.9, -8737.711, 0.00012543245, 9.9991455, 10.000332 
1.949899e+2, 1.5524746e+2, -1506541.1, -1441212.5, -10186.297, 0.0039163907, 0.16392766, -1439661.1, -21069.648, 0.000026112697, 9.99932, 10.000181 
1.9499178e+2, 1.652475e+2, -1418244.1, -1379990.3, -26994.418, 0.0071676387, 0.16491461, -1366033.4, -45442.168, 0.0000011234973, 9.999392, 9.999895 
1.9499305e+2, 1.7524739e+2, -1322433.8, -1284398.6, -32883.48, -0.027395293, 0.1604315, -1265429.5, -42837.64, 0.0, 9.999384, 9.999882 
1.949951e+2, 1.8524723e+2, -1248292.1, -1215105.3, 793.6525, -0.019133018, 0.16478193, -1215086.3, -90493.09, 0.0, 9.999293, 9.999729 
1.9499795e+2, 1.9524707e+2, -1177054.5, -1134376.4, 19289.285, 0.031157626, 0.17314191, -1126950.4, -100355.98, 0.0, 9.999129, 9.99969 
1.9500056e+2, 2.0524627e+2, -1088486.0, -1128017.9, 26129.102, 0.04532848, 0.16616009, -1075488.9, -146886.36, 0.0, 9.999439, 9.998911 
1.9500294e+2, 2.152449e+2, -881724.75, -978728.25, 6583.5327, 0.026323562, 0.13349658, -881279.94, -50663.125, 0.0, 10.000191, 9.9989 
1.9500521e+2, 2.2524403e+2, -726178.44, -852656.56, -1082.5574, 0.00476067, 0.15674187, -726169.1, 6456.8955, 0.0, 10.000585, 9.998903 
1.9500735e+2, 2.3524363e+2, -619883.9, -753320.1, 18677.172, -0.017977279, 0.22274922, -617318.9, 17311.434, 0.0, 10.000653, 9.998879 
1.9500987e+2, 2.4524236e+2, -563176.6, -732266.3, 15074.631, 0.0034914406, 0.2337028, -561843.25, -25199.68, 0.0, 10.000615, 9.99837 
1.9501269e+2, 2.552403e+2, -485767.94, -645375.2, 3614.6409, 0.062338635, 0.18511802, -485686.1, -47021.42, 0.0, 10.000479, 9.998359 
1.9501482e+2, 2.6523846e+2, -352490.0, -522453.78, 10189.425, 0.030027747, 0.16461919, -351881.3, -11198.447, 0.0, 10.000688, 9.998429 
1.9501635e+2, 2.7523682e+2, -180616.36, -390321.63, 7641.72, -0.079413086, 0.15309805, -180338.27, 62360.477, 0.0, 10.001201, 9.998417 
1.9501877e+2, 2.8523558e+2, -76223.484, -297823.72, -6235.234, -0.07467222, 0.19399498, -76048.18, 68663.13, 0.0, 10.001283, 9.998339 
1.9502176e+2, 2.9523498e+2, -22356.037, -219934.02, 15413.076, 0.015989663, 0.2933138, -21160.89, 25557.785, 0.0000000023315327, 10.000974, 9.998349 
1.9502328e+2, 3.0523276e+2, 57040.36, -154981.42, 3155.8171, -0.03829295, 0.23725693, 57087.32, 57087.32, 0.0000014940416, 10.001178, 9.998365 
1.9502519e+2, 3.152312e+2, 147191.75, -116838.21, 35407.254, -0.027937995, 0.24343064, 151857.53, 151857.53, 0.00001627015, 10.001819, 9.998319 
2.049808e+2, 1.2524408e+2, -1780257.0, -1602058.8, 10534.596, -0.015353622, 0.108544156, -1601438.1, 111186.016, 0.0005112227, 9.998926, 10.00129 
2.0498388e+2, 1.3524497e+2, -1761694.5, -1676401.0, 52756.535, -0.023920566, 0.19144015, -1651209.6, -36594.25, 0.00028397882, 9.998961, 10.00009 
2.0498632e+2, 1.4524493e+2, -1652799.8, -1538622.6, 12854.861, -0.046472818, 0.16120979, -1537193.3, -20577.31, 0.000109345056, 9.998884, 10.000396 
2.0498906e+2, 1.5524535e+2, -1593983.0, -1475706.3, 4290.024, 0.019404873, 0.17012945, -1475550.9, -56938.688, 0.000021261263, 9.998687, 10.00025 
2.049911e+2, 1.6524547e+2, -1499434.3, -1428434.3, -5471.083, 0.026404032, 0.18027359, -1428015.1, -107403.85, 0.00000067965186, 9.998875, 9.999812 
2.0499243e+2, 1.7524524e+2, -1322929.5, -1293670.0, -5636.8916, -0.027954133, 0.17252485, -1292621.6, -70008.14, 0.0, 9.999419, 9.999802 
2.0499463e+2, 1.8524495e+2, -1179507.3, -1183460.6, 2927.4182, -0.02041761, 0.16830075, -1177951.6, -53335.758, 0.0, 9.999772, 9.999717 
2.0499764e+2, 1.9524464e+2, -1057556.9, -1078309.9, -16508.244, 0.046150457, 0.16278987, -1048434.8, -21817.16, 0.0, 9.999956, 9.999677 
2.0500048e+2, 2.052438e+2, -1006956.06, -1107285.9, 2617.538, 0.060518697, 0.15763591, -1006887.9, -78261.234, 0.0, 10.000079, 9.998745 
2.0500311e+2, 2.152424e+2, -899191.5, -1004554.4, 8781.412, 0.026209453, 0.14139445, -898464.6, -67822.695, 0.0, 10.000147, 9.998745 
2.0500557e+2, 2.2524156e+2, -772863.9, -852383.44, -11012.908, 0.0032420426, 0.16439678, -771366.8, -38715.848, 0.0, 10.000166, 9.999106 
2.0500784e+2, 2.352412e+2, -679951.75, -759771.5, -15067.588, -0.008779831, 0.21418838, -677202.1, -42548.027, 0.0, 10.000145, 9.99908 
2.0501044e+2, 2.4524006e+2, -593204.75, -743096.75, -8595.877, 0.009902174, 0.22779897, -592713.44, -56047.844, 0.0, 10.000394, 9.998402 
2.0501329e+2, 2.5523823e+2, -423893.66, -612431.3, 6720.7964, 0.0540839, 0.20017068, -423654.4, 15029.967, 0.0, 10.000891, 9.998386 
2.0501557e+2, 2.652364e+2, -310857.5, -512819.4, 25987.707, 0.019816386, 0.18216908, -307567.1, 33135.715, 0.0, 10.001018, 9.998337 
2.0501736e+2, 2.7523452e+2, -245882.14, -431677.84, 20916.676, -0.07960518, 0.15724358, -243556.47, -835.17346, 0.0, 10.000795, 9.998328 
2.050199e+2, 2.8523308e+2, -124630.336, -312890.7, -10763.79, -0.06940707, 0.17605756, -124016.914, 20718.986, 0.0, 10.000914, 9.998414 
2.0502298e+2, 2.9523224e+2, 35707.477, -184436.4, -17368.832, 0.02286547, 0.24592674, 37069.41, 83814.1, 0.000000000097020676, 10.001341, 9.998417 
2.0502461e+2, 3.052306e+2, 114635.58, -122781.82, -18196.072, -0.042229068, 0.23897932, 116022.06, 116022.06, 0.00000072960836, 10.001554, 9.998407 
2.0502685e+2, 3.1522897e+2, 106644.04, -134986.39, 33930.016, -0.028943943, 0.23534133, 111318.12, 111318.12, 0.00001031642, 10.001533, 9.998333 
2.1497984e+2, 1.25243e+2, -1780969.4, -1604003.0, 8186.724, -0.006924753, 0.18501115, -1603625.1, 109009.77, 0.00045034575, 9.998927, 10.001276 
2.1498312e+2, 1.3524288e+2, -1756219.0, -1666007.1, 54962.203, 0.0044646114, 0.15944262, -1640011.8, -25377.178, 0.0002457903, 9.998964, 10.00016 
2.1498534e+2, 1.452425e+2, -1663704.1, -1561546.0, 4871.764, -0.032976367, 0.10004087, -1561314.3, -44676.05, 0.00009091271, 9.998886, 10.000237 
2.1498747e+2, 1.5524335e+2, -1604527.8, -1497025.4, -1822.5049, -0.009006999, 0.16653448, -1496994.5, -78363.3, 0.000015871614, 9.998684, 10.000105 
2.1498983e+2, 1.6524355e+2, -1499059.9, -1427043.1, 14778.374, 0.009732461, 0.1925203, -1424128.5, -103498.766, 0.00000031009594, 9.998872, 9.999823 
2.1499228e+2, 1.7524311e+2, -1323124.1, -1294804.9, 15115.003, 0.014058073, 0.16150871, -1288253.3, -65619.4, 0.0, 9.999421, 9.999793 
2.1499476e+2, 1.8524249e+2, -1215113.9, -1257270.8, 9672.786, 0.013630397, 0.15240932, -1213000.4, -88360.46, 0.0, 9.999772, 9.99921 
2.1499728e+2, 1.9524181e+2, -1091875.9, -1149064.8, -9012.207, 0.01459909, 0.15878667, -1090489.3, -63842.16, 0.0, 9.999954, 9.999192 
2.1500014e+2, 2.0524102e+2, -994241.6, -1079794.6, 4787.9336, 0.018266346, 0.17631564, -993974.5, -65319.137, 0.0, 10.000075, 9.998936 
2.1500324e+2, 2.152402e+2, -886916.5, -978185.4, 11845.077, 0.023025623, 0.1936422, -885404.3, -54739.723, 0.0, 10.000143, 9.998928 
2.15006e+2, 2.2523913e+2, -780327.25, -866845.2, -12343.228, 0.028472941, 0.191411, -778600.7, -45925.414, 0.0, 10.000162, 9.99901 
2.1500844e+2, 2.3523788e+2, -686682.8, -772796.9, -14920.78, 0.03532959, 0.16251405, -684170.8, -49483.543, 0.0, 10.000141, 9.998992 
2.1501085e+2, 2.452369e+2, -566026.8, -686095.94, 9412.916, 0.010704443, 0.17613958, -565293.4, -28596.648, 0.0, 10.000391, 9.9987955 
2.150132e+2, 2.5523618e+2, -396997.03, -555823.3, 25226.557, -0.04451099, 0.21934116, -393086.56, 45617.066, 0.0, 10.000887, 9.998777 
2.1501587e+2, 2.6523483e+2, -319004.13, -528798.75, 17200.982, -0.052409217, 0.23577994, -317603.2, 23114.158, 0.0, 10.001014, 9.998229 
2.1501882e+2, 2.7523288e+2, -254526.61, -449246.28, 13619.15, -0.012469949, 0.21364072, -253578.67, -10841.018, 0.0, 10.000793, 9.998208 
2.1502167e+2, 2.852308e+2, -145725.08, -356284.03, 4098.2993, 0.014629844, 0.18763018, -145645.33, -886.1893, 0.0, 10.000912, 9.998117 
2.1502423e+2, 2.9522872e+2, 16297.454, -225142.42, -1180.1782, 0.012867637, 0.16604844, 16303.223, 63082.78, 0.0, 10.001341, 9.998138 
2.1502589e+2, 3.0522755e+2, 140737.28, -66948.27, -18889.957, -0.06975068, 0.20225358, 142441.42, 142441.42, 0.0000002906552, 10.001548, 9.998794 
2.1502884e+2, 3.152267e+2, 137274.16, -70984.56, 31005.184, 0.015648719, 0.23851806, 141792.14, 141792.14, 0.0000060416633, 10.001532, 9.998774 
2.2497867e+2, 1.2524104e+2, -1807904.3, -1641591.3, -18028.7, -0.01312737, 0.20087661, -1639659.4, 72994.54, 0.0003861587, 9.998852, 10.001055 
2.2498222e+2, 1.3524066e+2, -1802882.9, -1702402.3, 16457.172, 0.030633641, 0.16410206, -1699775.5, -85118.8, 0.00020573656, 9.998707, 10.000034 
2.2498444e+2, 1.4524016e+2, -1658238.3, -1554084.6, -24546.799, -0.013383138, 0.09533429, -1548589.4, -31927.717, 0.00007189719, 9.998903, 10.000281 
2.2498636e+2, 1.5524113e+2, -1495123.0, -1438971.9, -17987.701, -0.024743484, 0.16971974, -1433703.9, -15051.141, 0.000010694928, 9.999413, 10.000153 
2.2498898e+2, 1.6524132e+2, -1393683.6, -1388021.8, 6427.4976, -0.00028769483, 0.1957935, -1383829.4, -63178.008, 0.000000092361944, 9.999645, 9.999719 
2.2499211e+2, 1.7524071e+2, -1300947.6, -1295444.5, -2545.935, 0.04477977, 0.15885748, -1294447.4, -71789.97, 0.0, 9.999623, 9.999691 
2.2499481e+2, 1.8523999e+2, -1231118.8, -1287952.8, 196.55008, 0.043994695, 0.15460095, -1231118.0, -106452.89, 0.0, 9.999761, 9.999005 
2.2499721e+2, 1.9523923e+2, -1091466.5, -1170695.1, 3226.5425, 0.0064664213, 0.17428704, -1091335.4, -64661.58, 0.0, 10.000051, 9.998998 
2.2500004e+2, 2.0523846e+2, -975762.75, -1051546.9, 18231.191, -0.0002741843, 0.19285147, -971605.0, -42923.35, 0.0, 10.000118, 9.999109 
2.2500327e+2, 2.1523769e+2, -898143.25, -964975.56, 23246.201, 0.019158714, 0.20063286, -890852.8, -60163.934, 0.0, 9.999987, 9.999093 
2.2500618e+2, 2.2523655e+2, -789564.56, -886095.75, 7379.918, 0.03169279, 0.19029686, -789003.6, -56303.746, 0.0, 10.000163, 9.998878 
2.2500885e+2, 2.3523512e+2, -626315.3, -758314.2, 1357.5541, 0.038703013, 0.15489477, -626301.3, 8412.822, 0.0, 10.000618, 9.998862 
2.2501141e+2, 2.4523404e+2, -504704.9, -649294.25, 12076.127, 0.009200656, 0.16191944, -503703.22, 33021.336, 0.0, 10.000781, 9.99886 
2.2501387e+2, 2.5523332e+2, -423919.44, -561812.1, 1184.4703, -0.055560485, 0.19786805, -423909.28, 14821.916, 0.0, 10.000672, 9.998839 
2.2501671e+2, 2.6523212e+2, -356288.78, -543861.5, -19650.324, -0.05558952, 0.22567669, -354252.28, -13508.766, 0.0, 10.000746, 9.998255 
2.2501993e+2, 2.752305e+2, -225155.9, -432321.16, -13164.709, 0.007960719, 0.23337778, -224322.67, 18438.594, 0.0, 10.000984, 9.998233 
2.2502293e+2, 2.852284e+2, -105092.17, -334811.2, 6437.3594, 0.036913138, 0.20690343, -104911.914, 39870.918, 0.0, 10.001183, 9.998135 
2.2502562e+2, 2.9522607e+2, 14012.689, -225657.47, 22097.215, 0.018700903, 0.15574871, 16032.987, 62838.824, 0.0, 10.001323, 9.998144 
2.2502725e+2, 3.0522513e+2, 120038.2, -81109.625, -9303.884, -0.08155248, 0.21814434, 120467.63, 120467.63, 0.000000085825576, 10.001422, 9.998758 
2.2503026e+2, 3.1522393e+2, 141590.27, -51702.79, 3910.3716, 0.006667998, 0.22011003, 141669.34, 141669.34, 0.0000031779714, 10.001487, 9.998928 
2.3497726e+2, 1.2523821e+2, -1837910.3, -1703810.8, -30434.416, -0.041412912, 0.15946221, -1697226.9, 15454.093, 0.00032267286, 9.998853, 10.000627 
2.3498113e+2, 1.3523836e+2, -1826506.9, -1749977.9, 12138.5625, 0.051751055, 0.20622368, -1748098.8, -133416.75, 0.0001666326, 9.9987, 9.999711 
2.3498356e+2, 1.452379e+2, -1642087.1, -1519248.8, -5573.0405, 0.008614606, 0.14699195, -1518996.4, -2309.8987, 0.00005400246, 9.998898, 10.000524 
2.3498572e+2, 1.5523869e+2, -1478161.9, -1405315.9, 1399.3307, -0.031191103, 0.17928794, -1405289.0, 13387.879, 0.000006396683, 9.999419, 10.000381 
2.3498856e+2, 1.6523872e+2, -1407747.9, -1418318.0, 5030.4917, -0.008060199, 0.19000448, -1405736.5, -85060.15, 0.000000013163342, 9.999651, 9.999508 
2.349919e+2, 1.7523803e+2, -1314703.6, -1323982.9, -2665.6812, 0.06169725, 0.16474156, -1313992.4, -91307.94, 0.0, 9.999622, 9.999496 
2.3499483e+2, 1.8523741e+2, -1224802.5, -1273718.6, 10764.107, 0.06755473, 0.1745232, -1222538.5, -97846.875, 0.0, 9.999757, 9.9991045 
2.3499739e+2, 1.952369e+2, -1084703.1, -1156462.4, 14177.56, 0.019423354, 0.21010618, -1082003.6, -55305.957, 0.0, 10.000051, 9.999096 
2.3500018e+2, 2.0523605e+2, -965128.6, -1028823.5, 12917.4, 0.0021101364, 0.20779975, -962608.7, -33903.105, 0.0, 10.000115, 9.999266 
2.3500317e+2, 2.152349e+2, -888494.9, -943598.75, 19489.113, 0.011664134, 0.1620707, -882298.7, -51583.695, 0.0, 9.999981, 9.999243 
2.3500614e+2, 2.2523385e+2, -802114.9, -910874.4, 24030.807, 0.010128211, 0.16116257, -797041.8, -64317.016, 0.0, 10.000157, 9.99871 
2.3500907e+2, 2.352329e+2, -637902.6, -781950.44, 18678.129, -0.0006215445, 0.1917787, -635520.1, -785.3385, 0.0, 10.000617, 9.9987 
2.3501214e+2, 2.4523148e+2, -523954.53, -689167.1, 7517.415, 0.0026925877, 0.1849023, -523613.2, 13135.947, 0.0, 10.00078, 9.998588 
2.3501527e+2, 2.5522962e+2, -443486.44, -601473.9, -2183.921, 0.017048994, 0.13573508, -443456.28, -4689.1167, 0.0, 10.000668, 9.99857 
2.3501807e+2, 2.6522827e+2, -345493.94, -520074.5, -11576.344, 0.006747345, 0.15275414, -344729.66, -3948.313, 0.0, 10.000741, 9.998421 
2.3502061e+2, 2.7522737e+2, -212649.67, -405581.25, -3755.779, -0.021640945, 0.21631004, -212576.6, 30215.59, 0.0, 10.000981, 9.998418 
2.350237e+2, 2.8522596e+2, -83034.52, -288509.16, 11640.994, -0.00542778, 0.23307826, -82377.12, 62429.906, 0.0, 10.00118, 9.998455 
2.3502713e+2, 2.9522428e+2, 33900.21, -184344.42, 27941.65, 0.036391992, 0.21358062, 37420.76, 84244.555, 0.0, 10.001322, 9.998429 
2.3502868e+2, 3.0522332e+2, 88146.96, -145610.47, -8097.248, -0.08008958, 0.28476056, 88427.11, 88427.11, 0.000000016806371, 10.001415, 9.998318 
2.3503105e+2, 3.152207e+2, 131595.81, -70702.02, 2795.6868, -0.06489573, 0.18703884, 131634.44, 131634.44, 0.0000014346882, 10.00148, 9.9988 
2.4497609e+2, 1.2523508e+2, -1880766.4, -1728075.3, -75984.51, -0.028859451, 0.1544767, -1696706.9, 16005.885, 0.00026299746, 9.998572, 10.000596 
2.4497996e+2, 1.3523556e+2, -1748937.6, -1705201.6, -478.51865, 0.039875362, 0.2276158, -1705196.4, -90485.7, 0.0001305452, 9.999201, 9.999778 
2.4498266e+2, 1.4523512e+2, -1557259.4, -1484059.9, -13005.353, -0.0018132802, 0.16865511, -1481817.9, 34897.258, 0.000038366878, 9.999504, 10.000474 
2.449854e+2, 1.5523575e+2, -1472787.4, -1407355.8, -28968.035, -0.0078071654, 0.18886086, -1396374.1, 22332.992, 0.000003303544, 9.999476, 10.00034 
2.4498835e+2, 1.6523576e+2, -1430098.0, -1433012.8, -34896.195, 0.013435688, 0.20272163, -1396628.8, -75921.914, 0.00000000018007511, 9.999515, 9.999474 
2.4499136e+2, 1.7523523e+2, -1315106.5, -1327227.6, -30796.305, 0.04525776, 0.19643699, -1289780.1, -67066.25, 0.0, 9.999634, 9.999469 
2.449944e+2, 1.8523465e+2, -1214361.0, -1248288.3, -1779.9401, 0.050449967, 0.20245422, -1214267.9, -89547.65, 0.0, 9.99974, 9.999288 
2.449975e+2, 1.9523409e+2, -1104538.9, -1145890.1, 7425.0854, 0.036544077, 0.21282858, -1103246.0, -76520.23, 0.0, 9.999828, 9.999275 
2.4500045e+2, 2.052332e+2, -983011.8, -1042262.75, -1943.6705, 0.02211892, 0.20109278, -982948.1, -54214.684, 0.0, 10.000014, 9.999223 
2.4500325e+2, 2.1523206e+2, -846150.5, -928159.75, -11447.021, 0.005066542, 0.16004469, -844582.7, -13839.693, 0.0, 10.000292, 9.9992 
2.4500632e+2, 2.2523099e+2, -755391.3, -893859.25, 731.5147, -0.005113372, 0.16236942, -755387.44, -22634.553, 0.0, 10.000502, 9.998661 
2.4500965e+2, 2.3523001e+2, -636468.6, -786759.06, 2677.697, -0.0078124837, 0.19354859, -636420.94, -1657.7949, 0.0, 10.000649, 9.9986515 
2.4501297e+2, 2.4522851e+2, -537651.25, -703606.75, -8610.249, 0.010911681, 0.18627015, -537205.75, -427.41873, 0.0, 10.00072, 9.998517 
2.4501626e+2, 2.5522658e+2, -440032.9, -607169.4, -3235.0806, 0.046437133, 0.13728882, -439970.3, -1172.787, 0.0, 10.000724, 9.998505 
2.450191e+2, 2.6522523e+2, -318364.8, -493061.72, 5995.202, 0.0278084, 0.15131381, -318159.3, 22652.283, 0.0, 10.000867, 9.998546 
2.4502154e+2, 2.752244e+2, -183108.27, -377777.97, 8426.762, -0.035562642, 0.20836926, -182744.17, 60077.043, 0.0, 10.001125, 9.99854 
2.450246e+2, 2.8522313e+2, -88068.8, -285991.5, 1023.1997, -0.02986307, 0.22837172, -88063.51, 56771.48, 0.0, 10.001123, 9.9985 
2.4502812e+2, 2.9522157e+2, -25688.754, -209314.7, -3457.8013, 0.024760947, 0.22039111, -25623.664, 21227.26, 0.0, 10.000897, 9.998462 
2.4502993e+2, 3.052208e+2, 36261.258, -187353.7, -21405.494, -0.08310613, 0.31728274, 38291.855, 38291.855, 0.0000000018495133, 10.001133, 9.998166 
2.450328e+2, 3.15218e+2, 182838.75, -25924.379, 1986.1056, -0.049174156, 0.21436669, 182857.64, 182857.64, 0.00000052479436, 10.001745, 9.9989805 
2.5497517e+2, 1.2523162e+2, -1856050.6, -1674335.6, -57662.6, 0.019155161, 0.18323752, -1657582.4, 55167.496, 0.000209724, 9.998561, 10.000971 
2.549787e+2, 1.3523227e+2, -1715807.5, -1639101.3, 23593.135, -0.010202485, 0.2269567, -1632425.6, -17682.332, 0.00009902971, 9.99921, 10.000228 
2.549817e+2, 1.452318e+2, -1579771.4, -1532379.9, -14865.107, -0.050920725, 0.16005099, -1528103.1, -11355.186, 0.000025643241, 9.999512, 10.000138 
2.549854e+2, 1.5523228e+2, -1495090.5, -1452672.6, -30045.523, 0.0422042, 0.19908392, -1437104.5, -18361.094, 0.0000014046367, 9.999472, 10.000031 
2.5498837e+2, 1.6523245e+2, -1421429.1, -1413507.4, -31072.473, 0.061446074, 0.2342806, -1386144.4, -65401.465, 0.0, 9.999508, 9.99961 
2.549905e+2, 1.752323e+2, -1305207.3, -1307579.6, -25837.77, -0.007789756, 0.25386792, -1280528.4, -57782.5, 0.0, 9.999638, 9.999602 
2.5499353e+2, 1.852317e+2, -1194963.0, -1208245.8, 1223.2887, -0.011312536, 0.23807667, -1194851.3, -70100.086, 0.0, 9.999742, 9.999561 
2.5499752e+2, 1.9523074e+2, -1086179.8, -1107215.1, 11328.892, 0.05503651, 0.18204518, -1081238.9, -54480.81, 0.0, 9.9998255, 9.999541 
2.5500083e+2, 2.052299e+2, -1001035.3, -1078310.3, 8301.874, 0.057147577, 0.17190461, -1000153.5, -71388.086, 0.0, 10.000009, 9.998979 
2.5500345e+2, 2.1522914e+2, -863136.2, -962542.06, -415.15762, -0.0030991272, 0.1955151, -863134.44, -32361.646, 0.0, 10.000289, 9.998965 
2.550067e+2, 2.2522797e+2, -750737.25, -883818.8, 5728.559, -0.016770586, 0.19402541, -750491.1, -17706.855, 0.0, 10.0005, 9.998732 
2.5501052e+2, 2.352264e+2, -632657.3, -777486.94, 8650.41, 0.013879979, 0.16051501, -632142.5, 2656.8218, 0.0, 10.000644, 9.998718 
2.5501388e+2, 2.4522513e+2, -528683.4, -683832.6, -9069.488, 0.0297306, 0.1667054, -528155.0, 8657.077, 0.0, 10.000715, 9.998655 
2.5501683e+2, 2.5522417e+2, -429830.88, -585672.75, -2330.3013, 0.030190224, 0.20170815, -429796.03, 9026.317, 0.0, 10.000723, 9.998652 
2.5501975e+2, 2.65223e+2, -312689.94, -482109.8, 15558.115, 0.0052780844, 0.21980514, -311273.06, 29561.395, 0.0, 10.00087, 9.998621 
2.5502262e+2, 2.7522156e+2, -179328.66, -369898.9, 18138.49, -0.03842484, 0.20947063, -177617.6, 65230.875, 0.0, 10.001123, 9.998596 
2.5502563e+2, 2.852198e+2, -104640.44, -318810.84, -8641.105, -0.041347586, 0.1932311, -104292.36, 40574.4, 0.0, 10.001118, 9.998277 
2.5502858e+2, 2.9521796e+2, -40635.227, -238966.94, -10553.876, -0.0206601, 0.17655434, -40075.203, 6811.953, 0.0, 10.000893, 9.99826 
2.5503096e+2, 3.052176e+2, 44817.563, -169945.6, 2412.7014, -0.094386354, 0.31492886, 44844.664, 44844.664, 0.000000000039700524, 10.001133, 9.998287 
2.5503552e+2, 3.1521577e+2, 216706.98, 42998.4, 21096.38, 0.044888373, 0.29830825, 219232.36, 219232.36, 0.00000015406697, 10.00175, 9.999453 
2.6497397e+2, 1.2522845e+2, -1788102.8, -1630577.3, -10680.884, 0.023754252, 0.18655892, -1629856.4, 82925.375, 0.0001649167, 9.998978, 10.00107 
2.6497784e+2, 1.3522926e+2, -1745823.5, -1633021.1, 54760.965, 0.0003939933, 0.22681832, -1610810.3, 3961.8853, 0.000073287774, 9.998915, 10.000412 
2.6498097e+2, 1.4522877e+2, -1665008.8, -1587483.4, 8473.881, -0.048688617, 0.15652654, -1586567.9, -69790.98, 0.000016155976, 9.998987, 10.000013 
2.6498455e+2, 1.5522915e+2, -1544646.3, -1488826.0, 6871.2666, 0.027841028, 0.1963568, -1487992.5, -69217.984, 0.00000046134082, 9.999186, 9.999922 
2.6498777e+2, 1.6522929e+2, -1413235.8, -1404925.0, 19028.063, 0.049506877, 0.2318181, -1389603.9, -68829.35, 0.0, 9.999545, 9.999652 
2.6499036e+2, 1.7522919e+2, -1243768.9, -1273768.4, 16025.887, -0.0027669664, 0.2517823, -1236818.3, -14041.887, 0.0, 10.000042, 9.9996395 
2.6499352e+2, 1.852286e+2, -1131735.0, -1187470.5, 14680.14, -0.008358933, 0.2395287, -1128104.9, -3323.487, 0.0, 10.000217, 9.9994755 
2.649973e+2, 1.9522761e+2, -1050267.9, -1099573.5, -3405.7126, 0.038028106, 0.18959293, -1050033.8, -23244.602, 0.0, 10.000114, 9.999455 
2.6500076e+2, 2.0522669e+2, -989404.06, -1088026.6, -5810.9277, 0.042552322, 0.18317734, -989062.9, -60265.297, 0.0, 10.0001545, 9.998842 
2.6500386e+2, 2.1522582e+2, -867428.4, -979343.3, -6871.699, 0.004993767, 0.20784032, -867008.0, -36201.37, 0.0, 10.000322, 9.998835 
2.650073e+2, 2.2522463e+2, -758593.94, -872961.6, 189.37073, -0.00087007345, 0.20526734, -758593.6, -25775.502, 0.0, 10.000383, 9.998862 
2.650111e+2, 2.3522317e+2, -666429.44, -779184.56, 6905.3633, 0.023203239, 0.16991957, -666008.1, -31176.59, 0.0, 10.000349, 9.998849 
2.6501447e+2, 2.4522203e+2, -556231.44, -690704.7, -6320.5576, 0.026086353, 0.17905527, -555935.06, -19092.137, 0.0, 10.000499, 9.998713 
2.6501736e+2, 2.552212e+2, -412168.44, -570590.0, -6756.7695, 0.008198854, 0.21970837, -411880.78, 26971.355, 0.0, 10.000816, 9.998711 
2.650204e+2, 2.6522e+2, -304394.97, -476073.75, 3572.6301, -0.019729132, 0.23496242, -304320.66, 36543.336, 0.0, 10.000917, 9.998639 
2.6502347e+2, 2.7521852e+2, -221203.63, -388049.2, 1857.9243, -0.053011708, 0.21607277, -221182.94, 21695.334, 0.0, 10.000829, 9.998612 
2.6502666e+2, 2.852167e+2, -129865.66, -339273.22, -20242.758, -0.04148281, 0.19610962, -127926.805, 16970.316, 0.0, 10.000983, 9.9982 
2.6502988e+2, 2.9521474e+2, 17034.078, -219891.78, -13461.056, -0.0013691568, 0.17751084, 17796.422, 64715.03, 0.0, 10.0013275, 9.998181 
2.6503244e+2, 3.0521402e+2, 85798.26, -165808.23, 4992.3623, -0.075623244, 0.292518, 85897.27, 85897.27, 0.0, 10.001482, 9.998147 
2.650372e+2, 3.152121e+2, 193281.64, 53533.266, -3585.8462, 0.04976138, 0.28007898, 193373.6, 193373.6, 0.000000038019415, 10.001499, 9.999643 
2.749725e+2, 1.2522556e+2, -1798938.0, -1653372.0, -23537.355, -0.023184484, 0.16500883, -1649660.8, 63147.66, 0.00012966055, 9.9989805, 10.000912 
2.7497745e+2, 1.3522653e+2, -1752082.8, -1644324.3, 52182.336, 0.06794732, 0.22831833, -1623197.0, -8399.5, 0.00005392466, 9.998908, 10.000338 
2.7498043e+2, 1.4522606e+2, -1659565.9, -1574510.1, 15299.94, 0.0008020193, 0.15852122, -1571841.6, -55039.527, 0.0000098627, 9.99898, 10.000106 
2.7498293e+2, 1.5522635e+2, -1538102.0, -1475825.5, 15191.022, -0.055589225, 0.17964932, -1472317.6, -53516.957, 0.00000011248763, 9.999188, 10.00001 
2.7498654e+2, 1.6522627e+2, -1416909.9, -1413204.9, 37109.52, -0.027162194, 0.19415627, -1377901.6, -57099.844, 0.0, 9.999548, 9.999594 
2.7499104e+2, 1.7522587e+2, -1247825.1, -1282147.4, 34292.977, 0.057693504, 0.19023971, -1226639.0, -3833.7388, 0.0, 10.000041, 9.999582 
2.749944e+2, 1.8522534e+2, -1164055.6, -1253538.5, 10152.062, 0.056365825, 0.20712145, -1162918.3, -38107.207, 0.0, 10.000214, 9.999023 
2.7499688e+2, 1.9522469e+2, -1081842.6, -1164715.1, -6719.6646, -0.01711779, 0.23622032, -1081301.4, -54482.582, 0.0, 10.000113, 9.999009 
2.7500024e+2, 2.0522358e+2, -991335.6, -1091129.3, 238.2173, -0.024396332, 0.23506157, -991335.06, -62504.977, 0.0, 10.000151, 9.998822 
2.750044e+2, 2.1522206e+2, -869156.9, -981799.0, -24.462318, 0.026631838, 0.19668834, -869156.8, -38312.203, 0.0, 10.000318, 9.99882 
2.7500808e+2, 2.2522098e+2, -746482.9, -846237.9, -1328.6129, 0.03911462, 0.19571643, -746465.2, -13610.638, 0.0, 10.000377, 9.999048 
2.7501142e+2, 2.3522033e+2, -653380.06, -751838.4, 6534.5005, 0.01859461, 0.22122648, -652948.3, -18088.305, 0.0, 10.000348, 9.999037 
2.7501467e+2, 2.4521917e+2, -557661.9, -693860.9, 5049.6694, -0.0019313274, 0.2224043, -557474.9, -20603.906, 0.0, 10.0005, 9.998691 
2.750179e+2, 2.552176e+2, -414857.25, -575223.0, 5201.192, -0.023897395, 0.19192979, -414688.72, 24198.217, 0.0, 10.000811, 9.998682 
2.75021e+2, 2.6521632e+2, -307479.75, -480587.44, -488.00336, -0.05185435, 0.19808923, -307478.38, 33421.73, 0.0, 10.000911, 9.9986105 
2.7502403e+2, 2.7521524e+2, -223045.11, -390505.66, -276.4786, -0.081771076, 0.22776225, -223044.66, 19865.926, 0.0, 10.000824, 9.998597 
2.7502775e+2, 2.8521374e+2, -125647.97, -330886.72, -7120.076, -0.032655045, 0.23493394, -125401.26, 19524.965, 0.0, 10.000983, 9.998259 
2.7503198e+2, 2.952119e+2, 20065.059, -214562.52, -270.69067, 0.077266015, 0.2223224, 20065.371, 67010.84, 0.0, 10.001329, 9.998218 
2.7503437e+2, 3.0521014e+2, 57471.23, -224432.38, 4373.2446, -0.033297718, 0.2508255, 57539.055, 57539.055, 0.0, 10.001482, 9.997743 
2.750378e+2, 3.15207e+2, 184709.3, 37870.05, -8169.424, -0.043731917, 0.15531753, 185162.4, 185162.4, 0.00000000643165, 10.001491, 9.999539 
2.8497136e+2, 1.2522256e+2, -1791589.5, -1670965.5, -51595.477, -0.043283325, 0.16128644, -1651907.3, 60929.49, 0.00010364884, 9.999124, 10.000723 
2.8497654e+2, 1.3522339e+2, -1722926.3, -1640206.9, 29275.393, 0.07513105, 0.21870738, -1630894.4, -16066.746, 0.000040612387, 9.999151, 10.000249 
2.8497973e+2, 1.4522289e+2, -1616200.8, -1566273.9, -5453.365, 0.012893627, 0.15591699, -1565685.3, -48852.39, 0.0000062724685, 9.999333, 9.999992 
2.8498232e+2, 1.5522327e+2, -1484623.5, -1461831.1, -22575.777, -0.053050134, 0.19619587, -1447938.3, -29107.385, 0.000000028346124, 9.999606, 9.999905 
2.8498617e+2, 1.6522299e+2, -1391449.4, -1401754.0, -4255.782, -0.026881723, 0.19743954, -1389919.0, -69085.66, 0.0, 9.999727, 9.999585 
2.8499094e+2, 1.7522217e+2, -1292685.0, -1304671.5, -5032.191, 0.060371492, 0.15198666, -1290852.5, -68012.49, 0.0, 9.99974, 9.999574 
2.8499448e+2, 1.852216e+2, -1218913.3, -1297268.0, -20832.23, 0.058059573, 0.17392991, -1213718.9, -88872.32, 0.0, 9.999912, 9.998868 
2.8499702e+2, 1.9522128e+2, -1075863.3, -1179000.8, -16369.321, -0.019937295, 0.25121385, -1073327.5, -46474.844, 0.0, 10.000227, 9.998856 
2.850004e+2, 2.0522021e+2, -959751.94, -1067534.3, 3289.543, -0.02817688, 0.25829092, -959651.7, -30787.9, 0.0, 10.000331, 9.9988985 
2.8500465e+2, 2.1521847e+2, -874650.0, -975520.94, 9106.504, 0.02472013, 0.19154926, -873834.5, -42955.223, 0.0, 10.000242, 9.9988985 
2.8500834e+2, 2.2521733e+2, -766717.9, -855110.44, 4733.2656, 0.03383698, 0.18023431, -766465.1, -33575.754, 0.0, 10.000234, 9.999057 
2.850116e+2, 2.3521675e+2, -660486.6, -754405.5, -1206.9681, 0.0052190307, 0.21166673, -660471.1, -25576.82, 0.0, 10.000295, 9.999045 
2.8501505e+2, 2.4521561e+2, -562131.1, -693442.7, 3457.46, -0.013196904, 0.21140914, -562040.2, -25134.953, 0.0, 10.000458, 9.9987135 
2.8501862e+2, 2.5521398e+2, -427362.28, -578640.44, 5977.0767, -0.024451336, 0.1738943, -427126.5, 11794.852, 0.0, 10.000714, 9.998705 
2.8502196e+2, 2.6521266e+2, -318498.22, -492243.5, -9666.903, -0.04017061, 0.17898223, -317962.0, 22972.967, 0.0, 10.000863, 9.998553 
2.8502512e+2, 2.7521157e+2, -216080.14, -392815.28, -12763.817, -0.055082828, 0.21165891, -215163.1, 27783.209, 0.0, 10.000896, 9.998547 
2.8502893e+2, 2.8521016e+2, -120158.19, -330314.0, -10772.11, -0.013182762, 0.2339434, -119607.48, 25353.473, 0.0, 10.001031, 9.9982395 
2.850332e+2, 2.9520863e+2, 11886.759, -220359.8, -10603.74, 0.068899974, 0.24862313, 12369.892, 59347.375, 0.0, 10.001285, 9.9981985 
2.8503567e+2, 3.052063e+2, 33606.523, -244182.84, -7853.9204, -0.042731702, 0.2290034, 33828.4, 33828.4, 0.0, 10.001354, 9.997668 
2.8503922e+2, 3.1520307e+2, 146314.27, 26648.242, -5092.2153, -0.03232175, 0.13102719, 146530.56, 146530.56, 0.00000000043435586, 10.001193, 9.999607 
2.9497048e+2, 1.2521948e+2, -1807175.6, -1704067.5, -60273.13, -0.04526019, 0.1749292, -1676307.9, 36558.74, 0.000085497144, 9.999126, 10.000494 
2.9497513e+2, 1.3521983e+2, -1730763.1, -1656376.1, 31074.928, 0.018185072, 0.19669098, -1645103.1, -30240.62, 0.000032281903, 9.999151, 10.000138 
2.949788e+2, 1.4521925e+2, -1639266.1, -1614097.0, 4666.2197, -0.015551059, 0.14850499, -1613259.8, -96390.73, 0.0000046245973, 9.999332, 9.999665 
2.949828e+2, 1.5521991e+2, -1506339.6, -1506548.1, -12581.383, 0.030867971, 0.24839321, -1493862.1, -74997.21, 0.00000001715619, 9.999605, 9.9995985 
2.9498664e+2, 1.6521947e+2, -1388826.9, -1395796.4, -4924.5903, 0.045196973, 0.24421738, -1386278.8, -65409.668, 0.0, 9.999725, 9.999628 
2.949901e+2, 1.7521806e+2, -1290417.4, -1298953.3, -3918.3572, 0.0021921275, 0.1361117, -1288891.5, -66010.695, 0.0, 9.999735, 9.999615 
2.9499376e+2, 1.8521738e+2, -1210505.4, -1278637.3, -9125.634, -0.00622172, 0.13862526, -1209304.3, -84416.24, 0.0, 9.9999075, 9.998999 
2.9499775e+2, 1.9521736e+2, -1066616.6, -1159303.4, -4410.5425, 0.02756592, 0.23418494, -1066407.1, -39516.215, 0.0, 10.000225, 9.998992 
2.9500133e+2, 2.0521657e+2, -948526.75, -1042949.94, -398.2296, 0.028717512, 0.25278616, -948525.06, -19626.365, 0.0, 10.000325, 9.999069 
2.950046e+2, 2.1521507e+2, -863716.5, -952010.2, 6512.1274, -0.003302966, 0.1920215, -863238.75, -32328.041, 0.0, 10.000238, 9.999063 
2.9500803e+2, 2.252137e+2, -778754.25, -878992.25, 6503.53, -0.019828731, 0.15832753, -778334.06, -45411.367, 0.0, 10.000229, 9.998896 
2.9501164e+2, 2.3521246e+2, -672180.75, -777871.94, 1780.8704, -0.019925991, 0.14144248, -672150.75, -37216.266, 0.0, 10.000291, 9.998887 
2.9501554e+2, 2.4521133e+2, -558012.94, -683755.56, 12721.339, -0.0110752005, 0.14646477, -556738.8, -19793.287, 0.0, 10.000453, 9.998782 
2.9501963e+2, 2.5521034e+2, -423132.22, -569056.94, 16114.736, 0.0041599358, 0.16443929, -421373.8, 17581.68, 0.0, 10.000711, 9.998773 
2.9502338e+2, 2.6520905e+2, -325380.63, -505934.4, -8922.036, 0.013487713, 0.17598085, -324940.8, 16028.05, 0.0, 10.00086, 9.998461 
2.950268e+2, 2.752075e+2, -222728.33, -406255.56, -11116.695, 0.0212727, 0.16810042, -222057.4, 20928.098, 0.0, 10.000895, 9.998456 
2.950302e+2, 2.8520602e+2, -127118.66, -344105.3, -2339.6116, 0.010987857, 0.19498362, -127093.43, 17907.766, 0.0, 10.001028, 9.998145 
2.9503354e+2, 2.9520485e+2, 4962.564, -232543.4, -365.87042, -0.028772084, 0.25660068, 4963.128, 51977.82, 0.0, 10.001275, 9.998119 
2.950364e+2, 3.0520254e+2, 49951.152, -208342.02, -13554.229, -0.10516234, 0.22650428, 50660.48, 50660.48, 0.0, 10.001347, 9.997919 
2.950415e+2, 3.1520012e+2, 165301.55, 64055.45, -14887.612, 0.07407456, 0.18955728, 167445.3, 167445.3, 0.0, 10.001202, 9.99986 
3.0496925e+2, 1.2521562e+2, -1953034.1, -1775445.8, -104021.76, -0.03266523, 0.19231609, -1727473.9, -14568.882, 0.000073591786, 9.998136, 10.000481 
3.0497435e+2, 1.3521585e+2, -1683595.8, -1625489.5, 8899.319, 0.009534041, 0.19318171, -1624157.1, -9255.16, 0.000027638554, 9.999439, 10.000212 
3.049784e+2, 1.4521523e+2, -1552650.4, -1573686.6, -20837.621, -0.017798906, 0.13788037, -1539826.8, -22918.154, 0.000004191702, 9.999935, 9.999652 
3.0498266e+2, 1.5521586e+2, -1499460.8, -1504819.5, -17576.219, 0.055902835, 0.2383773, -1484360.9, -65456.6, 0.000000032166714, 9.9996605, 9.999584 
3.049865e+2, 1.6521552e+2, -1406959.4, -1410755.0, 1350.4598, 0.064801626, 0.24674992, -1406528.0, -85620.04, 0.0, 9.999629, 9.999571 
3.0498967e+2, 1.7521429e+2, -1281067.1, -1300651.3, -6201.328, -0.018196419, 0.16330585, -1279268.6, -56350.1, 0.0, 9.9998255, 9.999559 
3.0499345e+2, 1.8521357e+2, -1194528.5, -1257535.0, -10593.131, -0.02890056, 0.15787837, -1192795.1, -67869.14, 0.0, 9.99996, 9.999119 
3.0499795e+2, 1.952133e+2, -1083124.8, -1152768.8, -7765.8975, 0.038232066, 0.21595557, -1082269.4, -55338.99, 0.0, 10.0000515, 9.99912 
3.050017e+2, 2.0521253e+2, -970795.1, -1040372.3, -14019.288, 0.045499846, 0.22490522, -968076.56, -39139.332, 0.0, 10.000116, 9.999187 
3.0500478e+2, 2.1521133e+2, -868378.6, -942000.7, -11793.469, -0.006978229, 0.18178548, -866535.6, -35589.39, 0.0, 10.000154, 9.999172 
3.0500817e+2, 2.2521e+2, -781839.44, -896734.8, -5956.5205, -0.030323032, 0.15398484, -781531.44, -48573.35, 0.0, 10.000277, 9.998752 
3.0501196e+2, 2.3520856e+2, -654234.5, -784510.44, -10512.627, -0.025035264, 0.1317356, -653391.6, -18419.092, 0.0, 10.000481, 9.99875 
3.0501598e+2, 2.4520743e+2, -550256.5, -673563.44, -2135.9717, -0.009721539, 0.13981731, -550219.56, -13235.725, 0.0, 10.000479, 9.99884 
3.0502024e+2, 2.552066e+2, -480993.56, -590546.8, -13.79344, 0.013761674, 0.16863567, -480993.56, -42001.633, 0.0, 10.000286, 9.99883 
3.0502415e+2, 2.6520535e+2, -384164.16, -534324.8, -11505.116, 0.02310453, 0.18065065, -383287.75, -42282.855, 0.0, 10.000458, 9.998459 
3.0502775e+2, 2.752037e+2, -211672.78, -400805.72, -8630.331, 0.022813499, 0.16476463, -211279.78, 31742.695, 0.0, 10.000972, 9.998454 
3.0503127e+2, 2.8520223e+2, -105342.38, -321907.94, 2486.9353, 0.008534672, 0.18576165, -105313.83, 39724.223, 0.0, 10.001128, 9.99825 
3.0503464e+2, 2.9520112e+2, -37650.984, -241209.78, 17833.373, -0.028311135, 0.24283579, -36100.45, 10950.077, 0.0, 10.000931, 9.998226 
3.0503768e+2, 3.0519873e+2, 15479.017, -208581.75, 13014.258, -0.09468828, 0.19470423, 16232.398, 16232.398, 0.0, 10.001039, 9.998066 
3.05043e+2, 3.1519738e+2, 198195.98, 82765.76, -4160.0073, 0.09144667, 0.24729267, 198345.7, 198345.7, 0.0, 10.001416, 9.999885 
3.1496763e+2, 1.25211e+2, -1940093.8, -1747465.4, -65579.54, -0.008067965, 0.21481623, -1727258.8, -14306.758, 0.00006650563, 9.99813, 10.000677 
3.149741e+2, 1.3521145e+2, -1662890.6, -1584635.3, 58341.117, 0.040325247, 0.21082853, -1553515.8, 61429.902, 0.000025576577, 9.999449, 10.000488 
3.1497848e+2, 1.4521085e+2, -1531233.4, -1530931.0, -31893.031, -0.0042108614, 0.12655354, -1499188.9, 17762.35, 0.000004447986, 9.999942, 9.999943 
3.1498197e+2, 1.5521114e+2, -1480987.6, -1464608.6, -27182.783, 0.01980905, 0.16429058, -1444408.5, -25459.506, 0.00000006594377, 9.999653, 9.999864 
3.149858e+2, 1.6521116e+2, -1420010.6, -1436120.3, 8358.88, 0.030173182, 0.20392556, -1416457.3, -95507.43, 0.0, 9.999621, 9.999401 
3.1498963e+2, 1.7521091e+2, -1292387.1, -1324233.8, 1553.039, -0.0049357493, 0.23491058, -1292311.6, -69358.29, 0.0, 9.999826, 9.999397 
3.1499356e+2, 1.8521018e+2, -1186647.9, -1241286.5, -7899.233, -0.015810622, 0.23409389, -1185528.8, -60568.234, 0.0, 9.99996, 9.99923 
3.1499773e+2, 1.9520907e+2, -1075813.8, -1136781.5, -3881.645, 0.009450163, 0.19527909, -1075567.6, -48596.563, 0.0, 10.000048, 9.999232 
3.1500158e+2, 2.0520808e+2, -967483.56, -1031427.6, -12872.65, 0.019303018, 0.17363219, -964989.44, -36009.93, 0.0, 10.000108, 9.999253 
3.150051e+2, 2.1520725e+2, -864910.2, -933665.44, -9580.493, 0.010906351, 0.16048643, -863600.2, -32614.332, 0.0, 10.000148, 9.999232 
3.1500876e+2, 2.2520623e+2, -791440.4, -915623.5, 1488.8142, -0.00070956, 0.16696125, -791422.5, -58426.887, 0.0, 10.000272, 9.998624 
3.1501257e+2, 2.3520504e+2, -663052.25, -802553.3, -2543.3572, -0.012491578, 0.18176925, -663005.9, -27997.363, 0.0, 10.00048, 9.998627 
3.1501645e+2, 2.4520387e+2, -547313.94, -666902.56, -10031.328, -0.011793185, 0.19036268, -546478.3, -9458.014, 0.0, 10.000477, 9.998887 
3.1502038e+2, 2.5520277e+2, -477375.9, -582563.6, -6416.927, -0.0003830482, 0.18620615, -476985.88, -37955.203, 0.0, 10.000284, 9.998885 
3.1502423e+2, 2.6520154e+2, -378487.44, -522110.84, 7298.236, -0.014864384, 0.19355448, -378117.53, -37074.5, 0.0, 10.000457, 9.998544 
3.1502798e+2, 2.752002e+2, -206452.78, -388498.28, 11032.3125, -0.052337307, 0.20062092, -205786.64, 37270.715, 0.0, 10.000966, 9.998542 
3.150321e+2, 2.8519875e+2, -86207.74, -279998.13, -5599.665, -0.021790097, 0.2051214, -86046.07, 59025.645, 0.0, 10.00112, 9.998542 
3.1503648e+2, 2.9519737e+2, -16404.479, -198141.42, 11364.715, 0.06272539, 0.20645605, -15696.556, 31388.61, 0.0, 10.0009365, 9.998519 
3.1503952e+2, 3.051949e+2, 19212.43, -202525.78, 26440.98, -0.018054292, 0.13324596, 22321.762, 22321.762, 0.0, 10.001045, 9.998104 
3.150436e+2, 3.1519467e+2, 184069.64, 55590.965, 5132.846, 0.012027797, 0.29358515, 184274.38, 184274.38, 0.0, 10.001407, 9.999703 
3.2496655e+2, 1.2520659e+2, -1693201.4, -1641085.8, -6328.87, -0.015682701, 0.17944312, -1640328.3, 72665.2, 0.00006287029, 9.999881, 10.000561 
3.2497337e+2, 1.3520727e+2, -1731857.1, -1620696.1, 104110.23, 0.04881369, 0.19857658, -1558259.1, 56726.527, 0.000025189593, 9.998987, 10.0004635 
3.2497805e+2, 1.4520675e+2, -1664203.5, -1586027.1, -4556.6694, 0.007503344, 0.12304164, -1585762.5, -68772.17, 0.0000050024137, 9.998991, 10.000022 
3.2498157e+2, 1.5520695e+2, -1460969.6, -1445760.8, -17789.158, 0.009491231, 0.14359942, -1434018.9, -15030.1455, 0.000000115129794, 9.99975, 9.999946 
3.2498556e+2, 1.65207e+2, -1360349.9, -1413795.0, 10285.555, 0.023365498, 0.18560486, -1358438.8, -37449.32, 0.0, 10.000059, 9.999342 
3.2498968e+2, 1.7520693e+2, -1274055.8, -1320889.6, 10626.09, 0.01261612, 0.23911071, -1271757.6, -48765.58, 0.0, 9.999978, 9.999346 
3.249936e+2, 1.8520628e+2, -1192310.9, -1231226.0, 2900.8987, 0.000055731965, 0.24215819, -1192095.9, -67097.41, 0.0, 9.9998665, 9.999344 
3.2499748e+2, 1.9520515e+2, -1114273.1, -1143555.1, 5795.36, -0.0029480823, 0.19117045, -1113167.9, -86159.56, 0.0, 9.999732, 9.999338 
3.2500133e+2, 2.052041e+2, -1025894.25, -1076638.9, -5337.586, 0.0020765853, 0.16473277, -1025338.9, -96321.22, 0.0, 9.999779, 9.999102 
3.2500514e+2, 2.1520314e+2, -897639.6, -964608.2, -19214.148, 0.010475552, 0.1536472, -892518.44, -61491.895, 0.0, 9.9999895, 9.999096 
3.250091e+2, 2.2520222e+2, -785582.06, -891198.2, 1616.6837, 0.010281224, 0.16816738, -785557.3, -52521.996, 0.0, 10.00022, 9.9988165 
3.2501322e+2, 2.3520137e+2, -651710.44, -776297.2, 20831.97, 0.004438271, 0.19718355, -648319.44, -13275.468, 0.0, 10.000468, 9.998813 
3.2501712e+2, 2.452002e+2, -529965.8, -678541.75, 8746.209, -0.0028648004, 0.2050457, -529452.75, 7603.046, 0.0, 10.000682, 9.998709 
3.2502082e+2, 2.5519875e+2, -404913.56, -567145.6, -6002.076, -0.013068016, 0.1865395, -404691.8, 34378.375, 0.0, 10.000866, 9.998712 
3.2502466e+2, 2.6519746e+2, -310345.13, -474572.88, 7725.5034, -0.035844803, 0.18723693, -309982.5, 31100.912, 0.0, 10.00086, 9.998676 
3.2502863e+2, 2.7519625e+2, -238969.0, -389418.63, 14107.673, -0.06803434, 0.19496666, -237657.56, 5438.1533, 0.0, 10.000678, 9.998675 
3.2503295e+2, 2.85195e+2, -133084.97, -290432.38, -9989.098, -0.027234219, 0.20574264, -132453.36, 12654.449, 0.0, 10.000745, 9.998651 
3.2503757e+2, 2.9519385e+2, 3833.4631, -176964.31, -8451.775, 0.072663665, 0.21966979, 4227.6997, 51346.44, 0.0, 10.001027, 9.998621 
3.2504085e+2, 3.051912e+2, 44087.754, -198326.53, 4330.8105, -0.0013666899, 0.12714152, 44165.098, 44165.098, 0.0, 10.00125, 9.9980345 
3.2504505e+2, 3.151909e+2, 159109.78, 1052.6807, -32040.242, 0.012881323, 0.28898627, 165357.78, 165357.78, 0.0, 10.001417, 9.999324 
3.349659e+2, 1.2520243e+2, -1722500.6, -1706183.9, -52155.21, -0.07242075, 0.08688205, -1661552.9, 51475.83, 0.000061273975, 9.999899, 10.000105 
3.3497223e+2, 1.3520324e+2, -1757223.9, -1671018.8, 73265.61, 0.035357308, 0.1560938, -1629117.4, -14095.515, 0.000025556885, 9.998978, 10.000123 
3.3497715e+2, 1.45203e+2, -1675111.0, -1606372.4, 25025.813, 0.017803418, 0.12777685, -1598226.5, -81200.78, 0.0000055599335, 9.9989805, 9.999887 
3.3498138e+2, 1.5520337e+2, -1468684.1, -1462442.1, 11283.997, 0.01626819, 0.17822967, -1453855.5, -34832.37, 0.00000016881297, 9.999754, 9.999829 
3.3498576e+2, 1.6520312e+2, -1355741.1, -1405797.6, 6392.6016, 0.03403735, 0.1944783, -1354937.6, -33911.086, 0.0, 10.000065, 9.999395 
3.349899e+2, 1.7520235e+2, -1270668.8, -1313193.6, 8083.29, 0.033550777, 0.17385663, -1269184.1, -46149.195, 0.0, 9.999974, 9.999402 
3.3499366e+2, 1.8520184e+2, -1185812.1, -1215853.3, -2480.3296, 0.016867245, 0.18063138, -1185608.8, -60568.773, 0.0, 9.999858, 9.999454 
3.3499727e+2, 1.9520155e+2, -1108125.4, -1130465.3, 1628.3868, -0.0021405753, 0.2036868, -1108007.3, -80965.3, 0.0, 9.999729, 9.99943 
3.3500102e+2, 2.0520058e+2, -1052245.8, -1130127.1, 2322.8843, -0.010375519, 0.19932482, -1052176.5, -123124.8, 0.0, 9.999773, 9.998737 
3.3500496e+2, 2.1519898e+2, -922013.4, -1014843.1, -10536.275, -0.011305078, 0.16060959, -920832.5, -89764.11, 0.0, 9.999988, 9.998753 
3.3500922e+2, 2.2519797e+2, -750169.06, -816669.8, 10446.194, -0.0007101166, 0.15711269, -748566.75, -15489.419, 0.0, 10.000216, 9.9993305 
3.350139e+2, 2.3519756e+2, -616937.6, -703506.7, 30626.455, 0.023029203, 0.17788498, -607198.25, 27880.664, 0.0, 10.000465, 9.999314 
3.3501798e+2, 2.4519642e+2, -559251.9, -738463.4, 15267.806, 0.0140911825, 0.18425593, -557960.5, -20870.182, 0.0, 10.000678, 9.998299 
3.3502156e+2, 2.551946e+2, -433804.53, -625946.56, 1355.7443, -0.026998715, 0.16992502, -433794.97, 5315.4907, 0.0, 10.000861, 9.99831 
3.350255e+2, 2.6519307e+2, -299036.7, -449664.16, 134.93674, -0.041960374, 0.16179009, -299036.56, 42089.547, 0.0, 10.0008545, 9.99885 
3.350297e+2, 2.7519184e+2, -225915.44, -362334.03, 7932.0337, -0.029971518, 0.14726086, -225455.77, 17681.887, 0.0, 10.000678, 9.998861 
3.3503386e+2, 2.8519094e+2, -138366.3, -301537.34, 126.42325, -0.01307942, 0.18738256, -138366.2, 6780.1313, 0.0, 10.000745, 9.998574 
3.3503783e+2, 2.951905e+2, -2824.4063, -189249.7, 3133.2185, -0.001054551, 0.28198332, -2771.7617, 44379.44, 0.0, 10.0010195, 9.99854 
3.350416e+2, 3.051876e+2, 29565.258, -226509.95, 9462.356, -0.046438895, 0.17533512, 29914.43, 29914.43, 0.0, 10.001242, 9.997845 
3.350472e+2, 3.1518602e+2, 120498.6, -78951.4, -27882.205, 0.08259339, 0.22820508, 124323.07, 124323.07, 0.0, 10.001417, 9.998774 
3.4496525e+2, 1.2519851e+2, -1875530.8, -1802296.5, -104997.25, -0.081831284, 0.07355528, -1727714.6, -14649.031, 0.000060228966, 9.998946, 9.999905 
3.4497154e+2, 1.3519923e+2, -1638183.0, -1627256.3, 47805.7, 0.02475203, 0.14523752, -1584602.8, 30457.576, 0.000025763518, 9.999849, 10.000003 
3.4497666e+2, 1.4519894e+2, -1528832.0, -1557054.6, 14127.736, 0.016429966, 0.130374, -1522975.4, -5910.513, 0.000005876301, 10.000076, 9.999696 
3.44981e+2, 1.5519919e+2, -1502677.8, -1498974.8, -7303.3125, 0.011920141, 0.18577595, -1493291.9, -74227.99, 0.0000002059256, 9.999607, 9.999648 
3.4498549e+2, 1.651988e+2, -1435755.9, -1430419.1, -15094.357, 0.03203415, 0.18978639, -1417759.1, -96690.68, 0.0, 9.999456, 9.999519 
3.449897e+2, 1.751979e+2, -1312493.9, -1319843.9, -9079.638, 0.034459606, 0.1435012, -1306373.8, -83296.516, 0.0, 9.999628, 9.999523 
3.4499353e+2, 1.851974e+2, -1191848.8, -1231509.3, -22813.508, 0.01737302, 0.15150194, -1181451.6, -56369.414, 0.0, 9.999871, 9.999339 
3.4499717e+2, 1.9519727e+2, -1050106.0, -1113821.5, -35988.074, -0.0038735035, 0.20121007, -1033900.7, -6816.9595, 0.0, 10.000179, 9.999326 
3.4500107e+2, 2.0519641e+2, -959593.2, -1076658.1, -22216.334, -0.009801886, 0.20906869, -955518.9, -26426.129, 0.0, 10.000372, 9.998816 
3.450052e+2, 2.1519487e+2, -847491.75, -970344.75, -2867.809, -0.0063932315, 0.16924986, -847424.8, -16316.375, 0.0, 10.000462, 9.99883 
3.450095e+2, 2.2519383e+2, -722345.06, -796900.8, 11645.095, -0.0025350524, 0.15592812, -720568.5, 12548.884, 0.0, 10.000379, 9.999388 
3.4501398e+2, 2.351933e+2, -660729.25, -717970.25, -3700.949, 0.0041522062, 0.15879278, -660491.0, -25371.08, 0.0, 10.000136, 9.999373 
3.4501827e+2, 2.4519216e+2, -628617.4, -763702.6, -7624.149, 0.0021289594, 0.15972361, -628188.44, -91057.49, 0.0, 10.000166, 9.998372 
3.4502238e+2, 2.551905e+2, -489143.72, -644485.56, 13801.954, -0.009379558, 0.15142953, -487926.97, -48777.215, 0.0, 10.000446, 9.998383 
3.4502646e+2, 2.6518902e+2, -329245.1, -466813.28, 14984.813, -0.018572891, 0.14678691, -327631.78, 13532.974, 0.0, 10.000658, 9.998827 
3.450305e+2, 2.7518776e+2, -210575.13, -358537.7, 6538.824, -0.023516849, 0.13319553, -210286.72, 32889.707, 0.0, 10.000798, 9.99883 
3.450347e+2, 2.8518683e+2, -119042.86, -312961.75, -2974.478, -0.015118326, 0.1780348, -118997.25, 26189.047, 0.0, 10.000966, 9.998389 
3.4503895e+2, 2.9518628e+2, 7838.7437, -204112.23, -9609.662, -0.0020587135, 0.2808323, 8273.545, 55466.895, 0.0, 10.001178, 9.998363 
3.450429e+2, 3.0518353e+2, 54066.266, -171944.1, 8075.8477, -0.040160593, 0.17841946, 54354.465, 54354.465, 0.0, 10.001226, 9.998226 
3.450484e+2, 3.1518185e+2, 72226.164, -96819.234, 5661.2876, 0.08286413, 0.18287167, 72415.55, 72415.55, 0.0, 10.001063, 9.998819 
3.5496452e+2, 1.2519482e+2, -1872667.4, -1794175.9, -81569.36, -0.045638204, 0.14058325, -1742902.1, -29797.975, 0.00005843651, 9.998936, 9.999965 
3.5497123e+2, 1.3519523e+2, -1628547.9, -1609398.5, 83426.04, 0.00580654, 0.16743077, -1534999.5, 80101.35, 0.000025162195, 9.999858, 10.000122 
3.549765e+2, 1.4519465e+2, -1545230.9, -1593852.0, -3045.3271, -0.009860846, 0.13234386, -1545040.9, -27933.406, 0.0000057861466, 10.000087, 9.999439 
3.549805e+2, 1.5519443e+2, -1520950.3, -1535841.9, -24091.201, -0.003038884, 0.16557007, -1503180.5, -84069.375, 0.00000020730299, 9.999602, 9.999398 
3.549848e+2, 1.6519403e+2, -1423006.0, -1402622.1, -9274.702, 0.01701717, 0.17189486, -1399033.8, -77918.67, 0.0, 9.99945, 9.999713 
3.5498908e+2, 1.7519356e+2, -1299482.4, -1293295.1, -1706.2996, 0.0093291355, 0.14853147, -1292855.8, -69736.94, 0.0, 9.999629, 9.999704 
3.5499316e+2, 1.8519296e+2, -1215094.9, -1279821.5, -11482.937, -0.005739468, 0.15588388, -1213118.1, -87992.97, 0.0, 9.999871, 9.999008 
3.5499728e+2, 1.9519228e+2, -1071791.4, -1158741.1, -23956.932, -0.010510398, 0.18251738, -1065627.6, -38493.902, 0.0, 10.000177, 9.999019 
3.5500157e+2, 2.0519155e+2, -923852.6, -1001045.3, -19232.459, 0.0014594905, 0.19282012, -919326.3, 9814.584, 0.0, 10.000366, 9.999337 
3.5500595e+2, 2.151908e+2, -813156.2, -897821.75, 989.4244, 0.022420965, 0.17969242, -813144.6, 18002.117, 0.0, 10.000456, 9.9993305 
3.550099e+2, 2.251898e+2, -751295.4, -855829.9, 2041.5732, 0.0016518369, 0.16475153, -751255.5, -18100.018, 0.0, 10.000374, 9.998985 
3.5501355e+2, 2.3518859e+2, -687993.1, -774334.44, -11977.498, -0.054577485, 0.14005318, -686362.4, -51195.566, 0.0, 10.000135, 9.998987 
3.5501805e+2, 2.4518743e+2, -590105.0, -683036.8, 2275.2341, -0.041008264, 0.13142811, -590049.3, -52871.496, 0.0, 10.000163, 9.998928 
3.550233e+2, 2.551864e+2, -450915.97, -564259.6, 24395.65, 0.036240328, 0.13037397, -445888.16, -6699.9727, 0.0, 10.0004425, 9.998935 
3.5502762e+2, 2.6518527e+2, -345085.66, -498799.9, 19982.848, 0.030263834, 0.14128457, -342530.34, -1330.8326, 0.0, 10.000654, 9.99861 
3.55031e+2, 2.7518404e+2, -227204.98, -392259.3, 12701.066, -0.05169543, 0.15270282, -226233.34, 16978.646, 0.0, 10.000794, 9.9986 
3.5503545e+2, 2.8518263e+2, -141181.38, -357610.7, 3933.7107, -0.036052704, 0.1781687, -141109.9, 4117.6685, 0.0, 10.000961, 9.998086 
3.5504076e+2, 2.9518113e+2, -11880.668, -243970.73, -948.45, 0.063665785, 0.21700053, -11876.793, 35368.242, 0.0, 10.001173, 9.998091 
3.5504463e+2, 3.051789e+2, 118799.23, -36874.65, 1940.7745, 0.011099499, 0.13689794, 118823.414, 118823.414, 0.0, 10.001223, 9.999156 
3.5504872e+2, 3.1517833e+2, 116789.84, -3561.6663, -2955.3677, 0.003926688, 0.15679316, 116862.375, 116862.375, 0.0, 10.0010605, 9.999462 
3.6496374e+2, 1.2519044e+2, -1863431.0, -1776102.9, -97812.52, -0.01989911, 0.17576331, -1712651.0, 498.01443, 0.000055122826, 9.998941, 10.000085 
3.6497068e+2, 1.3519074e+2, -1695918.8, -1620921.9, 82690.55, -0.0065509407, 0.1743967, -1567624.6, 47521.195, 0.000023501116, 9.999304, 10.00031 
3.6497626e+2, 1.4519025e+2, -1602333.0, -1609605.9, -14438.604, -0.020271992, 0.13168454, -1591080.0, -73929.14, 0.00000526637, 9.999644, 9.999545 
3.6498016e+2, 1.5518998e+2, -1471467.4, -1500061.3, -9823.799, -0.008711076, 0.14994557, -1468417.6, -49263.586, 0.00000017249042, 9.999888, 9.999505 
3.6498442e+2, 1.651896e+2, -1343818.9, -1380495.1, 16695.94, 0.006807403, 0.15897721, -1337357.0, -16199.144, 0.0, 10.000063, 9.999568 
3.649887e+2, 1.7518917e+2, -1229905.0, -1275077.9, -2287.9822, -0.016337236, 0.15513583, -1229789.4, -6627.615, 0.0, 10.0001745, 9.999566 
3.6499298e+2, 1.8518852e+2, -1173581.1, -1253560.5, -10840.277, -0.026149718, 0.1606398, -1172138.0, -46969.387, 0.0, 10.000128, 9.999064 
3.649974e+2, 1.9518767e+2, -1100222.6, -1165993.5, 4795.4644, -0.008759141, 0.16562347, -1099874.9, -72696.73, 0.0, 9.999952, 9.999078 
3.6500174e+2, 2.0518695e+2, -984237.0, -1024418.6, 7306.148, 0.0029206567, 0.17102751, -982949.75, -53764.74, 0.0, 9.999925, 9.999391 
3.65006e+2, 2.1518636e+2, -871669.6, -919955.4, -8683.067, 0.0028645888, 0.16876204, -870155.6, -38966.113, 0.0, 10.000028, 9.999385 
3.6501002e+2, 2.2518544e+2, -792247.7, -885734.56, -16944.045, -0.014734447, 0.1637723, -789271.4, -56073.297, 0.0, 10.000136, 9.998895 
3.6501384e+2, 2.3518422e+2, -677291.56, -778927.2, -8322.928, -0.045492873, 0.14865553, -676614.5, -41404.215, 0.0, 10.000251, 9.998899 
3.6501843e+2, 2.4518315e+2, -546229.4, -644233.56, 13633.38, -0.026266595, 0.14308254, -544368.1, -7147.514, 0.0, 10.000388, 9.999085 
3.650238e+2, 2.5518224e+2, -424235.88, -534398.25, 4521.545, 0.037491344, 0.13840614, -424050.63, 15178.534, 0.0, 10.000551, 9.999088 
3.6502826e+2, 2.6518115e+2, -341947.6, -500947.6, -9988.502, 0.029745717, 0.14945425, -341322.56, -82.93967, 0.0, 10.0006895, 9.998578 
3.6503193e+2, 2.7517992e+2, -226043.64, -394779.38, -4381.8423, -0.042625785, 0.16535667, -225929.92, 17322.21, 0.0, 10.000815, 9.998573 
3.650364e+2, 2.8517842e+2, -146819.81, -346977.7, 10060.576, -0.029860506, 0.1766934, -146315.4, -1046.8959, 0.0, 10.000863, 9.998206 
3.6504167e+2, 2.951767e+2, -57795.855, -253112.6, 35533.11, 0.056547288, 0.1825072, -51532.336, -4244.717, 0.0, 10.000801, 9.998208 
3.6504576e+2, 3.051752e+2, 102831.96, -31603.594, 29627.94, 0.006741969, 0.15232736, 109071.95, 109071.95, 0.0, 10.001057, 9.999273 
3.6505e+2, 3.1517482e+2, 202025.44, 32465.115, -41694.277, -0.0045250785, 0.18159848, 211723.25, 211723.25, 0.0, 10.001664, 9.999421 
3.7496275e+2, 1.251853e+2, -1852420.3, -1751994.1, -97705.56, -0.016730934, 0.17835817, -1692354.0, 20846.387, 0.00005010573, 9.998936, 10.000253 
3.749699e+2, 1.3518578e+2, -1678428.0, -1584469.0, 98147.164, -0.011665565, 0.16710858, -1522637.0, 92558.29, 0.000020857056, 9.999302, 10.000562 
3.7497595e+2, 1.451857e+2, -1569123.9, -1539934.0, -5053.609, -0.01552675, 0.12956782, -1539083.9, -21888.748, 0.000004428325, 9.99964, 10.000025 
3.7498003e+2, 1.5518582e+2, -1438240.6, -1431237.5, 36.730026, -0.012605619, 0.13897073, -1431237.4, -12044.75, 0.00000011962439, 9.999889, 9.999977 
3.7498438e+2, 1.6518547e+2, -1377336.6, -1450666.3, 20638.133, -0.007284794, 0.15170051, -1371927.3, -50730.77, 0.0, 10.000064, 9.999086 
3.7498862e+2, 1.7518471e+2, -1262261.4, -1342692.6, 2315.983, -0.04382503, 0.1628473, -1262194.8, -38988.78, 0.0, 10.0001745, 9.999102 
3.7499288e+2, 1.8518403e+2, -1142674.9, -1188984.0, -18172.238, -0.046412274, 0.16547602, -1136395.4, -11182.686, 0.0, 10.000126, 9.999509 
3.749974e+2, 1.9518344e+2, -1070674.3, -1104060.5, -1062.2609, -0.001838079, 0.15084131, -1070640.5, -43423.42, 0.0, 9.999949, 9.999504 
3.7500152e+2, 2.0518258e+2, -1013721.8, -1084659.5, 10903.99, -0.008814542, 0.14397852, -1012083.56, -82858.29, 0.0, 9.999921, 9.99898 
3.750053e+2, 2.1518153e+2, -899985.75, -977773.5, -4109.0435, -0.06806168, 0.13605225, -899769.3, -68532.34, 0.0, 10.000024, 9.99899 
3.7500978e+2, 2.2518076e+2, -777558.56, -854346.6, -13275.603, -0.05475445, 0.1529145, -775328.1, -42082.895, 0.0, 10.000133, 9.999112 
3.750148e+2, 2.3518023e+2, -662686.1, -747857.2, -3717.3196, 0.02856074, 0.18416157, -662524.2, -27273.865, 0.0, 10.000247, 9.999114 
3.7501952e+2, 2.4517928e+2, -563219.94, -678766.94, 19450.656, 0.04302882, 0.19371338, -560033.56, -22774.014, 0.0, 10.000385, 9.99885 
3.750239e+2, 2.55178e+2, -440687.66, -568518.75, 11209.407, -0.008022394, 0.1753997, -439712.16, -439.5467, 0.0, 10.000551, 9.998854 
3.7502843e+2, 2.651767e+2, -332096.13, -480090.66, -6059.8613, -0.022006236, 0.17169277, -331848.44, 9436.577, 0.0, 10.000688, 9.998722 
3.7503314e+2, 2.7517548e+2, -215440.52, -371080.13, 714.3838, -0.0003613572, 0.17092045, -215437.23, 27859.68, 0.0, 10.000808, 9.99874 
3.7503758e+2, 2.8517425e+2, -109192.76, -266955.88, 7454.81, -0.0013223836, 0.17309292, -108841.27, 36467.934, 0.0, 10.000855, 9.99876 
3.7504166e+2, 2.951731e+2, -21307.926, -177580.83, 34086.953, -0.026839146, 0.17720328, -14196.354, 33124.77, 0.0, 10.000802, 9.998726 
3.7504616e+2, 3.0517218e+2, 54971.24, -131247.75, 50798.105, -0.056391675, 0.22372806, 67926.94, 67926.94, 0.0, 10.001058, 9.998588 
3.7505218e+2, 3.1517127e+2, 150567.97, -70906.75, -20744.469, 0.047217607, 0.2642265, 152494.25, 152494.25, 0.0, 10.001651, 9.998716 
3.849619e+2, 1.2518045e+2, -1790042.0, -1726819.8, -75146.84, -0.015952539, 0.16314384, -1676905.9, 36341.438, 0.00004363311, 9.999387, 10.000206 
3.84969e+2, 1.3518097e+2, -1713385.1, -1600193.0, 114968.01, -0.020409275, 0.15575804, -1528645.5, 86596.38, 0.000017489165, 9.999055, 10.000573 
3.849754e+2, 1.451811e+2, -1615469.9, -1557300.0, 3498.7415, -0.016244141, 0.13608986, -1557090.3, -39850.375, 0.0000034194288, 9.9993, 10.000069 
3.8497978e+2, 1.5518127e+2, -1425945.5, -1420047.4, -28489.969, -0.028716795, 0.14535521, -1394354.3, 24882.916, 0.00000006772674, 9.999951, 10.000024 
3.849843e+2, 1.6518092e+2, -1375816.6, -1444284.6, -23388.607, -0.01953386, 0.1544788, -1368589.9, -47348.86, 0.0, 10.000049, 9.999139 
3.849886e+2, 1.7518017e+2, -1330581.3, -1369279.3, -1790.033, -0.036758024, 0.15999772, -1330498.6, -107248.25, 0.0, 9.999677, 9.99916 
3.849929e+2, 1.8517955e+2, -1194203.3, -1201329.9, -5541.5527, -0.038546536, 0.1592956, -1191178.3, -65922.01, 0.0, 9.999718, 9.999621 
3.8499734e+2, 1.9517905e+2, -1036914.44, -1075388.5, -14486.105, -0.011245239, 0.14323974, -1032070.1, -4811.148, 0.0, 10.000128, 9.999615 
3.8500145e+2, 2.0517823e+2, -980233.5, -1078573.0, -7742.595, -0.023094516, 0.13850628, -979627.6, -50360.586, 0.0, 10.000195, 9.998888 
3.850052e+2, 2.1517713e+2, -917047.8, -995738.56, 340.50308, -0.07594321, 0.13660072, -917046.3, -85766.516, 0.0, 9.9999485, 9.998902 
3.8500986e+2, 2.2517632e+2, -774145.94, -846234.0, 13191.419, -0.05560355, 0.1505581, -771807.9, -38519.305, 0.0, 10.000128, 9.99917 
3.8501534e+2, 2.3517571e+2, -591678.0, -707522.0, 9248.046, 0.034209132, 0.16983576, -590944.4, 44349.12, 0.0, 10.000708, 9.99917 
3.850201e+2, 2.4517481e+2, -503598.94, -667612.0, 16328.516, 0.04009151, 0.18636423, -501989.16, 35313.727, 0.0, 10.00087, 9.998693 
3.8502422e+2, 2.5517362e+2, -438135.22, -584247.06, 13202.304, -0.033469185, 0.19355649, -436951.88, 2364.2969, 0.0, 10.000642, 9.998702 
3.8502887e+2, 2.6517236e+2, -348532.66, -475778.6, 1556.7323, -0.039701555, 0.1927658, -348513.63, -7184.987, 0.0, 10.000522, 9.998832 
3.8503397e+2, 2.7517104e+2, -253651.17, -377387.34, 4745.632, 0.01809421, 0.17349525, -253469.44, -10129.03, 0.0, 10.000492, 9.998849 
3.8503852e+2, 2.8516972e+2, -141292.17, -285313.78, -6989.6353, 0.018559607, 0.16202317, -140953.75, 4399.3135, 0.0, 10.000646, 9.998735 
3.8504246e+2, 2.9516843e+2, 4510.122, -169492.48, -25662.617, -0.037460763, 0.15607508, 8216.021, 55581.98, 0.0, 10.000996, 9.998689 
3.8504726e+2, 3.0516782e+2, 71742.9, -151430.63, -2066.1287, -0.0638774, 0.247678, 71762.02, 71762.02, 0.0, 10.001293, 9.998336 
3.8505378e+2, 3.1516632e+2, 119903.375, -101788.93, -45220.93, 0.050500065, 0.25517952, 128772.73, 128772.73, 0.000000000002787424, 10.001508, 9.998574 
3.9496124e+2, 1.2517585e+2, -1809628.9, -1766174.5, -100357.5, -0.022235395, 0.12957634, -1685219.1, 28070.836, 0.0000362571, 9.999383, 9.999938 
3.9496788e+2, 1.3517633e+2, -1729089.5, -1632783.9, 105062.77, -0.03767603, 0.13916184, -1565364.8, 49921.094, 0.000013744367, 9.999054, 10.000351 
3.9497462e+2, 1.4517646e+2, -1645212.3, -1617583.6, 29371.201, -0.029450975, 0.15118326, -1598940.3, -81654.89, 0.0000023661473, 9.999293, 9.999659 
3.9497942e+2, 1.5517631e+2, -1453116.8, -1476701.8, -4177.235, -0.060419485, 0.16943252, -1452398.8, -33110.92, 0.000000028035489, 9.999952, 9.999635 
3.9498425e+2, 1.6517596e+2, -1334285.1, -1358236.8, -38899.086, -0.033629715, 0.16806677, -1305560.1, 15731.382, 0.0, 10.00005, 9.99973 
3.949887e+2, 1.7517553e+2, -1290098.1, -1284443.0, -14867.885, 0.0022707917, 0.14699703, -1272136.3, -48840.98, 0.0, 9.999673, 9.999744 
3.9499295e+2, 1.8517505e+2, -1210010.9, -1233354.5, 9904.934, -0.006307046, 0.1424246, -1206374.6, -81075.26, 0.0, 9.999714, 9.999403 
3.9499718e+2, 1.951745e+2, -1052119.6, -1106104.3, 1134.2554, -0.039785523, 0.14268188, -1052095.8, -24791.736, 0.0, 10.000125, 9.999406 
3.9500144e+2, 2.0517388e+2, -964838.1, -1045563.44, -17623.682, -0.043216255, 0.15474913, -961158.3, -31847.875, 0.0, 10.00019, 9.999117 
3.950057e+2, 2.1517318e+2, -901999.25, -963537.0, -7819.1343, -0.023944082, 0.17083983, -901021.3, -69703.164, 0.0, 9.999945, 9.9991255 
3.9501035e+2, 2.2517213e+2, -781796.5, -861137.6, 34672.113, -0.020588584, 0.1567635, -768780.1, -35452.14, 0.0, 10.000123, 9.99907 
3.9501542e+2, 2.3517074e+2, -599106.2, -722217.4, 31033.736, -0.029996645, 0.10551667, -591725.7, 43614.19, 0.0, 10.000705, 9.999071 
3.9502025e+2, 2.4516973e+2, -510078.6, -680062.3, 7083.529, -0.036859155, 0.12156539, -509783.94, 27566.662, 0.0, 10.000865, 9.99861 
3.9502478e+2, 2.551691e+2, -444538.97, -595562.25, 5093.58, -0.042589962, 0.19305067, -444367.38, -5007.442, 0.0, 10.000633, 9.998629 
3.9502952e+2, 2.6516807e+2, -343534.4, -463811.9, 83.79583, -0.027226811, 0.21246417, -343534.38, -2163.7712, 0.0, 10.000515, 9.998918 
3.950344e+2, 2.7516663e+2, -248629.63, -367679.47, 4246.493, 0.009881065, 0.17332336, -248478.34, -5095.788, 0.0, 10.000495, 9.998914 
3.9503926e+2, 2.8516483e+2, -183057.89, -372734.25, 5338.2407, 0.026422385, 0.14368615, -182907.78, -37507.85, 0.0, 10.0006485, 9.998134 
3.95044e+2, 2.9516277e+2, -38399.938, -255681.27, -11566.767, 0.018619329, 0.120198995, -37785.926, 9635.915, 0.0, 10.000983, 9.998103 
3.95049e+2, 3.051621e+2, 82502.65, -126202.26, 5907.78, -0.020988747, 0.22526765, 82669.75, 82669.75, 0.0, 10.001282, 9.998515 
3.950548e+2, 3.1516007e+2, 147795.97, -42905.53, -37053.094, -0.0033531708, 0.16293076, 154742.33, 154742.33, 0.000000001718879, 10.001506, 9.998978 
4.0496054e+2, 1.2517098e+2, -1862476.3, -1799342.6, -140270.36, -0.015923832, 0.119604856, -1687131.0, 26206.463, 0.000028702449, 9.999055, 9.999868 
4.0496722e+2, 1.3517149e+2, -1603416.5, -1576162.4, 90605.734, -0.053823598, 0.13650513, -1498164.6, 117168.164, 0.000010028613, 9.999932, 10.000318 
4.049742e+2, 1.4517167e+2, -1549600.3, -1587382.6, 23039.87, -0.035540525, 0.16259308, -1538696.9, -21364.713, 0.0000013962007, 10.000017, 9.999518 
4.0497887e+2, 1.5517123e+2, -1558880.3, -1542240.8, 6733.0933, -0.077526584, 0.16578546, -1539857.6, -120519.39, 0.000000006286357, 9.999289, 9.999506 
4.0498376e+2, 1.6517091e+2, -1434487.8, -1389768.0, -27378.7, -0.047852926, 0.16452987, -1376778.9, -55437.07, 0.0, 9.999289, 9.99988 
4.049885e+2, 1.7517076e+2, -1237826.3, -1243152.0, -38084.316, 0.002338485, 0.15771109, -1202311.9, 21030.4, 0.0, 9.999962, 9.999889 
4.0499288e+2, 1.8517037e+2, -1147719.8, -1208472.9, -23578.117, -0.0043105274, 0.15642473, -1139642.9, -14297.2705, 0.0, 10.000165, 9.999356 
4.0499714e+2, 1.9516969e+2, -1079773.6, -1124063.8, -20514.178, -0.047221486, 0.14947116, -1071732.0, -44380.035, 0.0, 9.999955, 9.999364 
4.0500155e+2, 2.0516907e+2, -971903.56, -1038871.3, -37010.625, -0.045125026, 0.15983292, -955477.94, -26119.91, 0.0, 10.000098, 9.9992075 
4.050061e+2, 2.1516852e+2, -804404.75, -906447.7, -38473.965, -0.008526909, 0.17881577, -791524.44, 39839.207, 0.0, 10.000571, 9.999215 
4.0501076e+2, 2.2516744e+2, -719104.7, -839356.0, 52.21703, -0.013665981, 0.16082875, -719104.7, 14268.865, 0.0, 10.000591, 9.998994 
4.050156e+2, 2.3516585e+2, -679897.5, -769130.5, -2620.81, -0.054970514, 0.099692665, -679820.6, -44433.207, 0.0, 10.000185, 9.998999 
4.050205e+2, 2.4516475e+2, -617472.2, -723058.75, -22019.201, -0.055412278, 0.10679962, -613064.3, -75665.516, 0.0, 10.00009, 9.998689 
4.0502548e+2, 2.5516412e+2, -488867.9, -608202.6, -12956.662, -0.019252058, 0.16971976, -487477.34, -48069.688, 0.0, 10.000291, 9.998708 
4.0503028e+2, 2.6516312e+2, -348506.28, -478558.97, -12996.282, -0.004334702, 0.19569297, -347220.28, -5802.3457, 0.0, 10.000534, 9.998807 
4.0503487e+2, 2.751618e+2, -207233.58, -360325.75, -24556.846, -0.007511461, 0.17858028, -203390.97, 40038.574, 0.0, 10.0008335, 9.998802 
4.050399e+2, 2.8515992e+2, -131164.72, -357200.97, -6566.8623, 0.008938691, 0.14878982, -130974.1, 14473.886, 0.0, 10.001045, 9.998049 
4.050453e+2, 2.9515752e+2, -19517.443, -255252.05, 14531.005, 0.039929412, 0.10002075, -18625.11, 28847.566, 0.0, 10.00115, 9.998026 
4.050506e+2, 3.0515677e+2, 80410.65, -130983.46, 45302.42, 0.011287661, 0.20334443, 89710.016, 89710.016, 0.0, 10.001284, 9.998482 
4.0505615e+2, 3.1515425e+2, 163906.53, -4918.7573, -18374.064, -0.014611703, 0.09521004, 165883.13, 165883.13, 0.00000001196501, 10.001484, 9.999251 
4.1495973e+2, 1.2516578e+2, -1854529.3, -1780323.9, -119779.164, -0.0053476887, 0.1303458, -1692032.6, 21357.605, 0.000021697306, 9.999045, 10.000003 
4.1496697e+2, 1.3516645e+2, -1590887.9, -1552416.5, 124532.49, -0.07269587, 0.14730768, -1445642.9, 169740.23, 0.000006740833, 9.999941, 10.000478 
4.1497418e+2, 1.4516675e+2, -1540386.0, -1568780.6, -4243.9688, -0.03947751, 0.17012212, -1539765.3, -22384.627, 0.0000006540361, 10.00002, 9.999645 
4.1497815e+2, 1.5516606e+2, -1550031.0, -1522900.4, -19501.57, -0.08132438, 0.13450265, -1512710.1, -93321.91, 0.0000000002364484, 9.999284, 9.999641 
4.149829e+2, 1.6516575e+2, -1456318.4, -1433568.6, -2372.6965, -0.06504156, 0.14396988, -1433323.8, -111931.91, 0.0, 9.999283, 9.999582 
4.1498804e+2, 1.7516588e+2, -1258993.9, -1286199.4, -12774.523, -0.04075342, 0.19245096, -1253935.9, -30544.502, 0.0, 9.999959, 9.999595 
4.1499275e+2, 1.851655e+2, -1139269.8, -1190614.4, -32315.178, -0.037398368, 0.20156558, -1123670.6, 1724.4768, 0.0, 10.000163, 9.999479 
4.1499722e+2, 1.9516464e+2, -1071764.3, -1106457.4, -27533.209, -0.035465132, 0.1645178, -1056568.9, -29166.129, 0.0, 9.99995, 9.999487 
4.150018e+2, 2.0516385e+2, -975774.2, -1045698.44, -19517.64, -0.031091908, 0.15427397, -970695.2, -41285.375, 0.0, 10.000093, 9.999163 
4.1500643e+2, 2.1516311e+2, -808352.5, -913082.2, -20642.457, -0.031985145, 0.16043127, -804430.7, 26985.766, 0.0, 10.000566, 9.999173 
4.1501114e+2, 2.2516218e+2, -723421.44, -847243.25, -15651.963, -0.037501648, 0.16237982, -721473.56, 11951.672, 0.0, 10.0005865, 9.998942 
4.150159e+2, 2.3516107e+2, -683628.1, -775978.44, -17029.201, -0.0441534, 0.15253767, -680588.06, -45152.03, 0.0, 10.000181, 9.998954 
4.1502097e+2, 2.451599e+2, -600939.6, -687912.4, -14911.746, -0.019454336, 0.14227574, -598454.0, -61006.52, 0.0, 10.000086, 9.998931 
4.150263e+2, 2.551587e+2, -472754.94, -574595.56, -5033.6895, 0.03401778, 0.123055875, -472506.72, -33047.336, 0.0, 10.00029, 9.998939 
4.1503114e+2, 2.6515758e+2, -370494.47, -523523.97, -2258.8618, 0.026805403, 0.1422028, -370461.16, -28990.455, 0.0, 10.000531, 9.998499 
4.1503543e+2, 2.7515662e+2, -229648.55, -403989.34, -12310.886, -0.037737977, 0.1896253, -228783.52, 14697.83, 0.0, 10.000822, 9.9985075 
4.150405e+2, 2.8515497e+2, -102259.05, -294650.78, -3113.3572, -0.037562214, 0.17724285, -102208.67, 43288.62, 0.0, 10.001035, 9.998484 
4.150463e+2, 2.951527e+2, 10439.208, -192609.56, 18335.201, 0.023541486, 0.09624228, 12081.583, 59600.055, 0.0, 10.001149, 9.998457 
4.1505206e+2, 3.0515185e+2, 63558.566, -165980.9, 52128.477, 0.029366083, 0.18283632, 74842.27, 74842.27, 0.0, 10.001284, 9.99824 
4.1505787e+2, 3.1514886e+2, 171688.4, 14528.124, -10872.496, 0.005670883, 0.05005924, 172437.0, 172437.0, 0.000000036873733, 10.001471, 9.99939 
4.249589e+2, 1.2516074e+2, -1797913.3, -1749073.8, -110563.13, -0.0052084625, 0.14925337, -1660265.8, 53174.64, 0.000015823704, 9.99942, 10.000036 
4.2496625e+2, 1.3516136e+2, -1697351.0, -1597718.6, 135451.53, -0.10039229, 0.1530273, -1503213.1, 112220.836, 0.0000041887733, 9.999184, 10.000533 
4.2497385e+2, 1.4516178e+2, -1624333.5, -1595612.6, -12832.65, -0.042792406, 0.1803641, -1590714.3, -73284.64, 0.00000021832761, 9.999386, 9.999766 
4.249778e+2, 1.5516107e+2, -1456082.0, -1463958.5, -31426.564, -0.07179108, 0.12985986, -1428347.9, -8911.134, 0.0, 9.999871, 9.999763 
4.2498258e+2, 1.651607e+2, -1355263.1, -1397240.1, 9182.304, -0.060441, 0.13343729, -1353342.4, -31901.707, 0.0, 10.000031, 9.99947 
4.2498782e+2, 1.7516072e+2, -1270847.1, -1304416.3, 11195.528, -0.05818922, 0.18411884, -1267455.9, -44014.723, 0.0, 9.999932, 9.999482 
4.2499268e+2, 1.8516026e+2, -1174590.6, -1218311.4, -20974.215, -0.049029175, 0.19590332, -1166155.9, -40709.926, 0.0, 9.999968, 9.999384 
4.2499745e+2, 1.9515936e+2, -1053052.5, -1107945.4, -33363.176, -0.017631749, 0.1626514, -1037297.06, -9842.327, 0.0, 10.000125, 9.9993925 
4.2500213e+2, 2.0515853e+2, -954851.06, -1028748.75, -18380.338, -0.0140550155, 0.15083815, -950531.8, -21069.68, 0.0, 10.000209, 9.999224 
4.2500672e+2, 2.151578e+2, -854088.6, -928514.5, -12855.498, -0.042941697, 0.14999174, -851930.7, -20462.389, 0.0, 10.000223, 9.999232 
4.2501146e+2, 2.2515693e+2, -785221.44, -884567.4, -21380.822, -0.04537054, 0.1594064, -780815.4, -47338.69, 0.0, 10.000195, 9.998875 
4.2501628e+2, 2.3515597e+2, -695445.94, -788682.4, -24939.83, -0.020789534, 0.17207569, -689194.0, -53707.05, 0.0, 10.000131, 9.99889 
4.2502138e+2, 2.4515478e+2, -564575.06, -659345.3, -8821.624, 0.006181512, 0.157572, -563760.9, -26262.531, 0.0, 10.000289, 9.999029 
4.250268e+2, 2.5515336e+2, -412403.06, -535061.9, -10905.557, 0.034599237, 0.108177565, -411441.0, 28069.945, 0.0, 10.000659, 9.999031 
4.2503175e+2, 2.6515222e+2, -336580.25, -515497.38, -10155.662, 0.024250748, 0.1228604, -336005.66, 5516.666, 0.0, 10.000799, 9.998426 
4.2503634e+2, 2.7515137e+2, -250056.58, -421013.72, -3496.6213, -0.021867262, 0.19008213, -249985.1, -6452.6694, 0.0, 10.000712, 9.998444 
4.2504147e+2, 2.851498e+2, -140906.14, -301987.34, 3843.633, -0.027726457, 0.18301685, -140814.47, 4733.2065, 0.0, 10.000721, 9.998585 
4.250471e+2, 2.951475e+2, -28546.902, -199993.6, -1822.5688, 0.004507208, 0.092083916, -28527.53, 19040.746, 0.0, 10.000832, 9.998559 
4.2505315e+2, 3.0514672e+2, 8633.314, -206859.56, 27903.266, 0.02804566, 0.18150449, 12187.762, 12187.762, 0.0, 10.000968, 9.998112 
4.2505944e+2, 3.151439e+2, 137970.7, 25574.037, -28243.533, 0.035144262, 0.08051879, 144668.72, 144668.72, 0.00000007454206, 10.0011215, 9.999635 
4.349582e+2, 1.251559e+2, -1803686.5, -1761041.6, -131460.55, -0.02340636, 0.17704119, -1649185.5, 64302.254, 0.0000113764345, 9.999421, 9.999953 
4.3496504e+2, 1.3515618e+2, -1701236.3, -1606514.9, 129327.8, -0.13915546, 0.15425216, -1516148.6, 99336.586, 0.0000025044064, 9.999185, 10.000473 
4.3497318e+2, 1.4515676e+2, -1616201.4, -1577943.1, 6469.8223, -0.04943286, 0.19375, -1576878.6, -59399.297, 0.000000047491298, 9.999382, 9.999889 
4.349779e+2, 1.5515625e+2, -1448259.5, -1447233.6, -13003.933, -0.053848423, 0.15086128, -1434732.5, -15248.721, 0.0, 9.999869, 9.999878 
4.3498284e+2, 1.6515575e+2, -1351132.8, -1388231.8, 4678.1255, -0.03947526, 0.1322855, -1350551.9, -29063.854, 0.0, 10.00003, 9.999533 
4.349878e+2, 1.7515534e+2, -1266722.1, -1295274.9, 8308.635, -0.052110378, 0.13333535, -1264480.4, -40988.918, 0.0, 9.99993, 9.999546 
4.3499273e+2, 1.851547e+2, -1197573.1, -1264894.0, -15509.252, -0.042522945, 0.14070606, -1194171.9, -68673.79, 0.0, 9.999963, 9.999066 
4.3499777e+2, 1.9515385e+2, -1075664.4, -1153609.3, -27202.764, 0.003339616, 0.14402202, -1067109.6, -39601.594, 0.0, 10.00012, 9.999082 
4.350025e+2, 2.0515312e+2, -944100.25, -1004986.25, -18087.236, 0.003261005, 0.14897628, -939132.44, -9617.4375, 0.0, 10.000202, 9.99939 
4.3500692e+2, 2.1515255e+2, -843445.2, -905229.94, -11673.545, -0.04473724, 0.14781222, -841313.2, -9793.966, 0.0, 10.000218, 9.999393 
4.3501168e+2, 2.2515169e+2, -791688.06, -897281.44, -24432.67, -0.04100213, 0.15304913, -786308.75, -52780.938, 0.0, 10.000192, 9.998789 
4.3501675e+2, 2.3515056e+2, -701593.4, -801032.2, -26796.836, 0.01318877, 0.15761594, -694831.94, -59291.63, 0.0, 10.000129, 9.998807 
4.3502182e+2, 2.4514939e+2, -568474.75, -666682.06, 4772.976, 0.019568669, 0.15199333, -568243.3, -30691.592, 0.0, 10.000285, 9.9989805 
4.3502688e+2, 2.5514814e+2, -416291.4, -541884.5, 3485.5671, -0.021094467, 0.12572776, -416194.75, 23367.617, 0.0, 10.000653, 9.998987 
4.3503216e+2, 2.6514706e+2, -325880.5, -491958.03, -14026.407, -0.015464991, 0.13817514, -324704.2, 16868.623, 0.0, 10.000793, 9.99859 
4.3503764e+2, 2.7514613e+2, -239153.13, -397745.94, -6687.29, 0.036288533, 0.18024229, -238871.66, 4711.199, 0.0, 10.000709, 9.998605 
4.3504283e+2, 2.8514445e+2, -157205.2, -334707.47, 7385.333, 0.034263317, 0.16649444, -156898.45, -11299.231, 0.0, 10.000716, 9.998362 
4.3504766e+2, 2.9514205e+2, -44981.6, -232544.73, 3381.9749, -0.021636233, 0.08752256, -44920.64, 2701.4714, 0.0, 10.000825, 9.998338 
4.3505388e+2, 3.0514136e+2, 6658.7305, -209222.14, 32653.15, 0.0034417403, 0.19857295, 11489.594, 11489.594, 0.0, 10.000962, 9.998098 
4.350609e+2, 3.1513935e+2, 160959.58, 75384.766, -20233.621, 0.06555227, 0.1788452, 165502.52, 165502.52, 0.0000001100893, 10.001114, 9.99998 
4.4495723e+2, 1.2515055e+2, -1876558.8, -1795929.6, -169164.56, -0.03972309, 0.19642948, -1662342.3, 51198.17, 0.000008277144, 9.998924, 9.999952 
4.4496426e+2, 1.351504e+2, -1673781.0, -1593389.5, 106860.48, -0.14614682, 0.13098334, -1519414.9, 96127.055, 0.0000015575915, 9.999372, 10.000474 
4.449729e+2, 1.4515115e+2, -1575778.0, -1556395.6, -10432.548, -0.029402228, 0.18614359, -1551847.5, -34312.89, 0.000000013935479, 9.999652, 9.9999075 
4.449776e+2, 1.5515096e+2, -1474324.5, -1457185.0, -41375.887, -0.05763745, 0.17567508, -1423500.8, -3964.6846, 0.0, 9.99968, 9.999901 
4.4498268e+2, 1.651505e+2, -1393661.3, -1400346.6, -36580.363, -0.043996558, 0.1534686, -1360271.1, -38731.176, 0.0, 9.999702, 9.999607 
4.4498783e+2, 1.751498e+2, -1289224.5, -1297408.0, -32364.64, -0.035006054, 0.11823683, -1260694.0, -37148.492, 0.0, 9.99974, 9.999622 
4.4499284e+2, 1.8514916e+2, -1203309.4, -1261789.6, -31208.906, -0.026616098, 0.1197842, -1189782.9, -64231.305, 0.0, 9.9999, 9.999117 
4.4499785e+2, 1.9514857e+2, -1063572.8, -1142260.9, -16173.756, -0.004093545, 0.14484027, -1060378.1, -32819.504, 0.0, 10.00018, 9.99913 
4.4500262e+2, 2.0514788e+2, -957580.4, -1025398.06, -17086.213, -0.003626319, 0.1545624, -953518.8, -23952.969, 0.0, 10.000171, 9.999264 
4.4500715e+2, 2.1514705e+2, -900032.3, -946077.2, -33182.0, -0.02906537, 0.14281449, -882668.2, -51094.94, 0.0, 9.999889, 9.999271 
4.4501203e+2, 2.2514617e+2, -798257.7, -879865.44, -30706.39, -0.02017686, 0.14403583, -787994.56, -54412.72, 0.0, 10.000059, 9.998971 
4.4501725e+2, 2.3514524e+2, -612520.06, -738552.06, -14194.899, 0.022261653, 0.14922959, -610941.1, 24650.541, 0.0, 10.000656, 9.998981 
4.4502234e+2, 2.4514417e+2, -509850.44, -655123.0, 14342.708, 0.018171716, 0.15321767, -508447.94, 29153.986, 0.0, 10.000759, 9.998832 
4.4502732e+2, 2.55143e+2, -463811.47, -580312.75, 4657.7305, -0.031292774, 0.14611277, -463625.56, -24012.87, 0.0, 10.000395, 9.998848 
4.450327e+2, 2.6514173e+2, -380189.0, -521607.4, -16531.887, -0.022356682, 0.15083356, -378282.13, -36657.29, 0.0, 10.000436, 9.998559 
4.4503853e+2, 2.7514043e+2, -218693.16, -392010.22, -25081.555, 0.044148833, 0.16126367, -215136.47, 28501.56, 0.0, 10.000867, 9.998569 
4.450438e+2, 2.8513873e+2, -117901.45, -324511.2, -18226.76, 0.047094777, 0.14886986, -116305.84, 29349.006, 0.0, 10.001022, 9.998285 
4.450486e+2, 2.9513657e+2, -39423.727, -237358.4, -12710.778, -0.011297194, 0.099745125, -38610.816, 9064.985, 0.0, 10.0008955, 9.998272 
4.4505498e+2, 3.051355e+2, -13460.069, -246458.92, 23316.783, 0.019121857, 0.18868749, -11149.611, -11149.611, 0.00000000000009396187, 10.000941, 9.997853 
4.4506195e+2, 3.1513354e+2, 168867.48, 81315.96, -48002.875, 0.05971182, 0.2004395, 190057.83, 190057.83, 0.00000013361628, 10.001159, 10.0 
4.549559e+2, 1.2514465e+2, -1869372.1, -1781432.9, -162812.72, -0.06304916, 0.20423025, -1656757.0, 56841.707, 0.0000061456926, 9.998926, 10.000051 
4.5496386e+2, 1.35144e+2, -1668907.3, -1583559.8, 125739.086, -0.12348976, 0.08116362, -1493450.4, 122154.11, 0.0000010596042, 9.999372, 10.000543 
4.5497298e+2, 1.4514492e+2, -1583165.4, -1570573.8, -8005.656, 0.0135563295, 0.15657143, -1566684.9, -49089.188, 0.000000007555667, 9.999646, 9.999812 
4.5497698e+2, 1.5514527e+2, -1480714.8, -1469652.0, -39367.324, -0.08780347, 0.20637552, -1435429.4, -15836.045, 0.0, 9.999678, 9.999816 
4.54982e+2, 1.6514497e+2, -1387016.3, -1386515.9, -36011.99, -0.07874089, 0.19974603, -1350753.1, -29156.984, 0.0, 9.999702, 9.9997015 
4.5498782e+2, 1.7514409e+2, -1283278.0, -1284008.0, -30181.494, -0.008741013, 0.13862091, -1253459.3, -29856.072, 0.0, 9.999735, 9.999717 
4.5499295e+2, 1.8514363e+2, -1175093.0, -1201209.6, -20720.371, -0.003915709, 0.13174519, -1163659.4, -38052.867, 0.0, 9.999891, 9.9995365 
4.5499766e+2, 1.9514355e+2, -1035549.8, -1082854.8, -5403.577, -0.04331472, 0.16527829, -1034940.4, -7333.8716, 0.0, 10.000175, 9.999539 
4.5500243e+2, 2.0514277e+2, -987565.2, -1086559.0, -28335.127, -0.03848973, 0.16836725, -980028.56, -50413.957, 0.0, 10.000165, 9.998847 
4.5500734e+2, 2.1514133e+2, -928698.25, -1004761.25, -42773.07, 0.002053214, 0.13541359, -909494.0, -77863.766, 0.0, 9.999886, 9.99887 
4.550124e+2, 2.2514042e+2, -768188.4, -816168.2, -8597.296, 0.015342244, 0.13207401, -766694.4, -33055.492, 0.0, 10.000053, 9.999412 
4.550177e+2, 2.3514003e+2, -582816.94, -676040.9, 8088.2793, 0.0043243514, 0.14772004, -582120.4, 53520.703, 0.0, 10.000653, 9.999413 
4.5502293e+2, 2.4513918e+2, -527528.06, -691088.0, -208.95375, -0.0006886301, 0.16239163, -527527.75, 10121.184, 0.0, 10.000756, 9.998588 
4.5502803e+2, 2.5513786e+2, -481551.94, -615564.6, -8692.702, 0.00051990256, 0.16813226, -480990.44, -41328.305, 0.0, 10.000388, 9.99861 
4.5503336e+2, 2.6513627e+2, -396868.5, -555003.5, -705.0521, 0.0009485299, 0.1600633, -396865.34, -55186.76, 0.0, 10.00043, 9.998332 
4.550389e+2, 2.7513433e+2, -235035.66, -425449.53, -8063.1343, -0.0013587236, 0.13314648, -234694.83, 9003.196, 0.0, 10.000864, 9.998341 
4.5504445e+2, 2.8513265e+2, -114064.26, -314943.63, -23756.652, 0.007665684, 0.12977742, -111292.95, 34421.656, 0.0, 10.001017, 9.998354 
4.5504993e+2, 2.9513103e+2, -34675.254, -225957.77, -17586.602, 0.030272132, 0.12911709, -33071.777, 14657.644, 0.0, 10.000889, 9.998353 
4.5505646e+2, 3.051291e+2, -47798.18, -315722.47, 31099.666, 0.070352994, 0.15278463, -44235.613, -44235.613, 0.00000000000087855477, 10.000934, 9.997381 
4.5506263e+2, 3.151264e+2, 146474.23, 37220.227, -35638.48, 0.010456134, 0.13604677, 157071.53, 157071.53, 0.00000014519496, 10.00115, 9.999701 
4.649551e+2, 1.2513846e+2, -1822891.8, -1757249.9, -160999.0, -0.05398872, 0.18460596, -1625760.5, 87898.9, 0.000004581255, 9.999243, 10.00006 
4.6496314e+2, 1.3513815e+2, -1675285.3, -1588992.8, 127743.55, -0.13151613, 0.09695699, -1497305.8, 118356.46, 0.0000007444035, 9.999336, 10.000523 
4.6497265e+2, 1.4513919e+2, -1616504.8, -1582602.9, -12960.137, 0.029910138, 0.18338113, -1578216.1, -60563.844, 0.0000000034677494, 9.999401, 9.999848 
4.6497652e+2, 1.5513918e+2, -1522199.5, -1484930.1, -36728.992, -0.08580268, 0.19289163, -1462379.0, -42725.88, 0.0, 9.9993725, 9.999858 
4.6498156e+2, 1.6513886e+2, -1407537.5, -1393207.6, -22296.145, -0.085982606, 0.18276598, -1376953.5, -55297.504, 0.0, 9.999548, 9.999731 
4.6498755e+2, 1.7513834e+2, -1253617.8, -1266439.4, -22315.197, -0.018023439, 0.15297939, -1236810.8, -13150.727, 0.0, 9.999924, 9.999746 
4.649928e+2, 1.85138e+2, -1156099.3, -1179170.1, -33004.008, -0.010775575, 0.15052877, -1132672.8, -7010.843, 0.0, 9.999967, 9.999652 
4.6499756e+2, 1.9513783e+2, -1095531.5, -1099153.0, -40708.668, -0.045130014, 0.1644077, -1056593.4, -28931.22, 0.0, 9.999709, 9.999653 
4.6500248e+2, 2.0513703e+2, -1038374.44, -1106206.4, -54619.95, -0.033437915, 0.15781964, -1007997.06, -78327.15, 0.0, 9.999797, 9.99889 
4.650075e+2, 2.1513562e+2, -879916.5, -976989.2, -36085.055, 0.013983003, 0.12451703, -867972.2, -36287.203, 0.0, 10.000202, 9.998908 
4.6501273e+2, 2.2513472e+2, -734565.9, -807312.2, 2026.5018, 0.026809271, 0.12217783, -734509.5, -815.7606, 0.0, 10.000316, 9.999347 
4.6501815e+2, 2.3513429e+2, -660251.7, -720024.6, -19917.514, 0.008359334, 0.14087735, -654222.8, -18526.414, 0.0, 10.000151, 9.9993515 
4.6502346e+2, 2.4513339e+2, -591015.9, -717402.06, -41229.426, 0.0037923148, 0.15248868, -578755.5, -41050.785, 0.0, 10.000303, 9.998624 
4.650287e+2, 2.5513202e+2, -424848.13, -585074.3, -29849.994, 0.012400915, 0.14870812, -419467.75, 20250.465, 0.0, 10.000763, 9.998638 
4.6503413e+2, 2.6513037e+2, -345484.3, -538641.6, -5119.059, 0.013138486, 0.14099069, -345348.72, -3613.6433, 0.0, 10.000819, 9.998258 
4.6503964e+2, 2.751285e+2, -295429.44, -462301.6, -2505.338, 0.0051221177, 0.124347895, -295391.84, -51636.926, 0.0, 10.000484, 9.998269 
4.6504524e+2, 2.8512692e+2, -171375.22, -347040.56, -7825.308, 0.0065318746, 0.13541904, -171027.31, -25256.291, 0.0, 10.000642, 9.998314 
4.650509e+2, 2.9512545e+2, 16632.182, -204532.14, -11525.06, 0.020776598, 0.15294836, 17231.14, 65015.74, 0.0, 10.001254, 9.998324 
4.6505758e+2, 3.0512306e+2, 13034.153, -283734.5, 40944.316, 0.07065257, 0.1274408, 18579.504, 18579.504, 0.00000000000042122027, 10.001337, 9.997407 
4.6506363e+2, 3.1512064e+2, 114839.07, 28325.744, 12290.296, 0.0070959614, 0.14163004, 116551.18, 116551.18, 0.00000014428599, 10.000901, 9.999761 
4.749547e+2, 1.2513198e+2, -1830183.8, -1771364.3, -165789.89, -0.021535587, 0.13671282, -1632395.9, 81326.766, 0.0000033199578, 9.999237, 9.999967 
4.74962e+2, 1.3513291e+2, -1683052.8, -1606591.3, 133633.95, -0.1780308, 0.18305779, -1505826.9, 109887.84, 0.00000048107097, 9.999341, 10.0004015 
4.749719e+2, 1.4513399e+2, -1602929.8, -1556651.9, -13683.488, 0.011105405, 0.2721265, -1552908.8, -35204.727, 0.000000000765976, 9.99941, 10.000023 
4.7497624e+2, 1.5513267e+2, -1510738.6, -1460034.5, -36908.543, -0.052659113, 0.13350984, -1440609.8, -20894.03, 0.0, 9.999369, 10.000031 
4.7498134e+2, 1.6513218e+2, -1411238.1, -1399317.1, -8162.6187, -0.067205034, 0.10071672, -1395170.5, -73450.8, 0.0, 9.999541, 9.999692 
4.7498697e+2, 1.7513254e+2, -1256425.6, -1271657.8, -7608.5264, -0.069260836, 0.16191754, -1253276.3, -29560.34, 0.0, 9.999922, 9.999711 
4.7499233e+2, 1.851323e+2, -1169041.1, -1205951.1, -43308.91, -0.054445975, 0.1784705, -1140419.0, -14701.198, 0.0, 9.999966, 9.999469 
4.749976e+2, 1.9513144e+2, -1107829.6, -1124653.8, -49340.35, -0.010616897, 0.14240803, -1066189.4, -38464.11, 0.0, 9.999708, 9.999478 
4.750027e+2, 2.0513067e+2, -1005622.9, -1036046.94, -39592.203, 0.009786201, 0.122582875, -978420.9, -48689.02, 0.0, 9.999787, 9.999375 
4.750076e+2, 2.1512996e+2, -847142.0, -908199.56, -20777.182, 0.0036560732, 0.11033805, -840742.5, -9004.934, 0.0, 10.000198, 9.999382 
4.7501287e+2, 2.2512907e+2, -774722.6, -889768.1, -4971.6484, 0.0101019135, 0.11481079, -774508.1, -40761.86, 0.0, 10.000311, 9.998783 
4.7501853e+2, 2.3512803e+2, -698880.7, -799520.5, -25363.553, 0.031636667, 0.12776381, -692849.9, -57092.098, 0.0, 10.000147, 9.998808 
4.75024e+2, 2.4512684e+2, -570387.0, -673611.44, -24417.943, 0.028640077, 0.12268969, -564902.3, -27133.117, 0.0, 10.0002985, 9.998927 
4.7502935e+2, 2.5512546e+2, -404194.88, -541974.75, -12495.427, 0.0013389961, 0.08925005, -403070.8, 36710.04, 0.0, 10.000762, 9.998935 
4.7503492e+2, 2.6512414e+2, -340704.66, -528359.44, -18229.248, 0.011638716, 0.09504064, -338950.22, 2844.0386, 0.0, 10.000817, 9.998329 
4.7504067e+2, 2.751229e+2, -290828.78, -451448.5, -14389.344, 0.058728665, 0.13442676, -289549.88, -45740.996, 0.0, 10.000479, 9.998347 
4.7504625e+2, 2.851215e+2, -182456.6, -368382.7, 14862.583, 0.039580096, 0.16526714, -181276.0, -35451.69, 0.0, 10.000635, 9.998171 
4.7505152e+2, 2.9511976e+2, 7275.4346, -223086.89, 12056.994, -0.043118764, 0.16988105, 7904.7695, 55746.297, 0.0, 10.001251, 9.998199 
4.7505838e+2, 3.051172e+2, 47588.125, -209610.53, 23720.783, 0.017305693, 0.11035001, 49757.535, 49757.535, 0.0, 10.001328, 9.997921 
4.7506484e+2, 3.151161e+2, 143121.31, 90428.06, 2576.822, 0.039006867, 0.20616682, 143247.02, 143247.02, 0.00000012581201, 10.000889, 10.000193 
4.849539e+2, 1.2512599e+2, -1818562.9, -1753332.1, -167610.1, -0.02104059, 0.13496968, -1615193.6, 98587.4, 0.0000022837717, 9.999269, 10.000073 
4.8496112e+2, 1.351269e+2, -1691950.9, -1604483.6, 149448.3, -0.19486018, 0.17621034, -1492501.5, 123271.06, 0.0000002759338, 9.99925, 10.00046 
4.849714e+2, 1.4512806e+2, -1617392.4, -1565003.9, 1672.2761, 0.027772008, 0.26765695, -1564950.6, -47189.652, 0.000000000009128432, 9.999317, 10.00001 
4.8497573e+2, 1.551266e+2, -1515235.4, -1463904.3, -38731.01, -0.03802298, 0.1175019, -1443106.8, -23332.916, 0.0, 9.999344, 10.000017 
4.8498082e+2, 1.6512609e+2, -1436937.4, -1410433.5, -5178.9565, -0.058363304, 0.0814013, -1409457.5, -87679.336, 0.0, 9.99936, 9.999703 
4.8498666e+2, 1.7512651e+2, -1328948.1, -1305545.8, -2077.6008, -0.06612841, 0.14912218, -1305362.8, -81589.07, 0.0, 9.999419, 9.999722 
4.8499218e+2, 1.8512617e+2, -1223517.8, -1241635.3, -38161.75, -0.049169913, 0.1611472, -1193354.3, -67577.76, 0.0, 9.99963, 9.999386 
4.8499757e+2, 1.951251e+2, -1076172.8, -1118280.3, -37783.348, -0.00021065392, 0.1116969, -1053973.3, -26186.844, 0.0, 9.999964, 9.999399 
4.8500276e+2, 2.0512438e+2, -951414.4, -996688.2, -31814.342, 0.019258812, 0.09473342, -935005.4, -5213.005, 0.0, 10.000101, 9.9994955 
4.8500776e+2, 2.1512398e+2, -860498.2, -901269.8, -40885.227, 0.0074170306, 0.10138164, -835198.3, -3403.8474, 0.0, 10.00005, 9.999502 
4.850131e+2, 2.2512312e+2, -803874.1, -915249.75, -24813.846, 0.008699219, 0.1077762, -798595.9, -64792.855, 0.0, 10.00016, 9.99868 
4.8501873e+2, 2.3512183e+2, -665328.5, -795154.56, -12604.792, 0.022594364, 0.1060712, -664116.06, -28298.37, 0.0, 10.000427, 9.998703 
4.850244e+2, 2.4512058e+2, -532472.4, -645169.75, 2553.7415, 0.02341363, 0.09731202, -532414.56, 5415.2188, 0.0, 10.000514, 9.999019 
4.8503006e+2, 2.5511938e+2, -447472.66, -552043.94, -2415.287, 0.010753422, 0.070254646, -447416.9, -7577.2056, 0.0, 10.00042, 9.99903 
4.8503578e+2, 2.651182e+2, -364617.9, -530201.56, -18930.123, 0.024640186, 0.08140489, -362481.3, -20629.76, 0.0, 10.000613, 9.998415 
4.850415e+2, 2.751171e+2, -198203.58, -398080.75, -14791.949, 0.06470033, 0.12478148, -197114.83, 46750.09, 0.0, 10.001077, 9.998426 
4.8504716e+2, 2.851158e+2, -110468.34, -333297.53, 23873.805, 0.0446246, 0.16643904, -107939.23, 37939.99, 0.0, 10.001127, 9.998175 
4.8505265e+2, 2.9511425e+2, -60709.168, -254235.17, 29590.764, -0.03278166, 0.19053036, -56285.75, -8390.548, 0.0, 10.000777, 9.998214 
4.8505944e+2, 3.0511144e+2, -34232.09, -234699.0, 23408.572, 0.022773482, 0.09559173, -31534.953, -31534.953, 0.0, 10.000705, 9.998048 
4.850654e+2, 3.1511077e+2, 134330.47, 77468.37, -23348.557, 0.007133471, 0.2222864, 142689.1, 142689.1, 0.00000009052117, 10.000867, 10.000114 
4.9495274e+2, 1.2512046e+2, -1797603.5, -1710087.4, -172380.58, -0.06856502, 0.18162741, -1575997.6, 137836.86, 0.0000015131136, 9.9992695, 10.00037 
4.9496052e+2, 1.3512014e+2, -1676188.1, -1571029.9, 150675.16, -0.18202674, 0.07340826, -1464023.5, 151812.45, 0.00000014199817, 9.999246, 10.000692 
4.9497125e+2, 1.4512132e+2, -1632222.3, -1594770.3, 3815.6377, 0.0784218, 0.16810171, -1594385.5, -76561.875, 0.0, 9.999312, 9.999808 
4.9497494e+2, 1.5512097e+2, -1528990.3, -1492288.4, -37015.297, -0.0502259, 0.14792587, -1469324.9, -49497.332, 0.0, 9.999344, 9.999822 
4.949801e+2, 1.6512057e+2, -1432004.3, -1401669.6, -4237.5947, -0.06878778, 0.13066338, -1401088.8, -79257.76, 0.0, 9.999366, 9.999761 
4.9498665e+2, 1.7512022e+2, -1325223.4, -1297701.9, 1092.4885, -0.008959324, 0.1143062, -1297658.5, -73825.164, 0.0, 9.999418, 9.999776 
4.9499235e+2, 1.8511964e+2, -1223741.4, -1240088.3, -25610.957, 0.0038603675, 0.09812532, -1205031.3, -79193.08, 0.0, 9.999622, 9.999401 
4.9499735e+2, 1.9511881e+2, -1075195.0, -1116217.0, -24879.44, -0.017760867, 0.07133487, -1063461.8, -35616.098, 0.0, 9.999963, 9.9994135 
4.9500257e+2, 2.0511816e+2, -968621.4, -1031375.06, -34389.64, -0.010355155, 0.07381888, -953445.5, -23594.041, 0.0, 10.000096, 9.99926 
4.9500796e+2, 2.151177e+2, -876606.4, -934470.44, -41848.383, 0.023259345, 0.096149534, -854662.56, -22806.94, 0.0, 10.000048, 9.999276 
4.9501336e+2, 2.2511686e+2, -781347.2, -866902.1, -15284.262, 0.01901461, 0.099554926, -778698.6, -44834.695, 0.0, 10.000154, 9.999015 
4.9501875e+2, 2.3511569e+2, -642378.56, -747528.94, -2376.9846, -0.020241093, 0.07682448, -642324.8, -6448.7065, 0.0, 10.000427, 9.99903 
4.9502453e+2, 2.4511465e+2, -541213.5, -662646.6, -1571.0507, -0.013906522, 0.077350065, -541193.1, -3306.76, 0.0, 10.000511, 9.9989 
4.9503073e+2, 2.5511375e+2, -455417.4, -568046.06, -5370.37, 0.037037887, 0.09073125, -455161.94, -15267.055, 0.0, 10.000417, 9.998921 
4.9503663e+2, 2.6511252e+2, -358657.2, -516959.53, -2114.4036, 0.04816438, 0.09881154, -358628.97, -16721.787, 0.0, 10.000609, 9.9985075 
4.9504215e+2, 2.7511105e+2, -192197.03, -385040.16, 2852.907, 0.020398512, 0.094818674, -192154.83, 51768.313, 0.0, 10.001075, 9.998517 
4.9504805e+2, 2.851099e+2, -101794.56, -313759.72, 10050.406, 0.019453537, 0.13905999, -101319.086, 44616.703, 0.0, 10.0011215, 9.998312 
4.950542e+2, 2.95109e+2, -50824.99, -232105.45, 17443.756, 0.046229128, 0.21626002, -49161.72, -1216.1035, 0.0, 10.000771, 9.998368 
4.9506077e+2, 3.0510578e+2, -53473.438, -272814.28, 29234.38, 0.08254919, 0.08503337, -49643.86, -49643.86, 0.0, 10.000697, 9.997789 
4.9506527e+2, 3.1510457e+2, 94348.51, -3564.9817, -9728.385, -0.095719956, 0.18435852, 95305.734, 95305.734, 0.000000050936965, 10.000859, 9.999559 
5.0495213e+2, 1.2511453e+2, -1791704.8, -1715105.3, -179070.44, -0.06008013, 0.190437, -1570284.6, 143607.17, 0.0000009949754, 9.999348, 10.000296 
5.049597e+2, 1.3511361e+2, -1676471.0, -1586192.1, 118125.06, -0.18552707, 0.03761885, -1504875.6, 111022.97, 0.000000065122016, 9.999306, 10.000562 
5.0497085e+2, 1.4511472e+2, -1622096.9, -1592028.9, -28247.193, 0.105830155, 0.13151821, -1575064.1, -57176.85, 0.0, 9.999391, 9.99979 
5.0497454e+2, 1.5511468e+2, -1494501.5, -1477914.1, -59293.41, -0.038972743, 0.14404526, -1426337.1, -6448.7876, 0.0, 9.999589, 9.999804 
5.0497967e+2, 1.6511434e+2, -1386876.4, -1379108.9, -25001.629, -0.06501422, 0.13431416, -1357691.1, -35799.79, 0.0, 9.999671, 9.999769 
5.049862e+2, 1.7511386e+2, -1296676.3, -1282977.4, -23984.344, -0.0006965875, 0.10290852, -1264883.6, -40988.484, 0.0, 9.99961, 9.999785 
5.0499207e+2, 1.8511331e+2, -1209875.8, -1224109.6, -37656.938, 0.010800206, 0.08664144, -1178669.1, -52769.715, 0.0, 9.999677, 9.999485 
5.0499725e+2, 1.9511274e+2, -1079477.1, -1109006.8, -32763.82, -0.020306204, 0.075363494, -1058305.0, -30400.527, 0.0, 9.999893, 9.999497 
5.0500256e+2, 2.0511208e+2, -989546.7, -1048551.25, -44538.477, -0.014170808, 0.07761672, -965625.56, -35715.223, 0.0, 9.999982, 9.999198 
5.05008e+2, 2.151114e+2, -896911.2, -950875.94, -40518.305, 0.023922417, 0.08458218, -875213.2, -43296.11, 0.0, 9.999936, 9.999217 
5.0501347e+2, 2.251106e+2, -790746.5, -854040.5, -2719.595, 0.025126934, 0.0873572, -790629.9, -56705.043, 0.0, 10.000013, 9.999172 
5.050192e+2, 2.3510975e+2, -664466.1, -740736.56, -4000.4294, -0.00752508, 0.07789759, -664256.9, -28323.213, 0.0, 10.000202, 9.999186 
5.050251e+2, 2.4510883e+2, -559539.75, -687316.7, -14137.014, -0.0063971044, 0.09042574, -557994.3, -20051.31, 0.0, 10.000454, 9.998758 
5.050312e+2, 2.5510785e+2, -413287.84, -563784.3, -20640.566, 0.026821312, 0.114213675, -410508.3, 29444.826, 0.0, 10.000775, 9.998778 
5.050372e+2, 2.6510653e+2, -318455.94, -487280.0, -17055.79, 0.032526467, 0.111701965, -316750.1, 25216.684, 0.0, 10.000842, 9.998599 
5.050429e+2, 2.751048e+2, -246911.11, -401644.5, -14312.475, 0.010451439, 0.07580654, -245598.38, -1614.4401, 0.0, 10.000658, 9.998602 
5.050489e+2, 2.851037e+2, -163551.66, -348293.78, -19902.234, 0.0106756585, 0.12440144, -161431.92, -15435.896, 0.0, 10.000718, 9.998269 
5.05055e+2, 2.9510322e+2, -21318.39, -221445.69, -27085.889, 0.03591251, 0.24383013, -17717.295, 30285.98, 0.0, 10.000989, 9.998336 
5.050617e+2, 3.050999e+2, 17978.674, -218244.45, -770.5675, 0.084857136, 0.098392814, 17981.188, 17981.188, 0.0, 10.0011015, 9.997971 
5.0506634e+2, 3.1509873e+2, 108684.05, -18108.193, -4688.1064, -0.08309115, 0.18088901, 108857.15, 108857.15, 0.000000020855737, 10.001049, 9.99937 
5.14952e+2, 1.2510811e+2, -1824001.9, -1780013.6, -184555.63, -0.004233148, 0.15788986, -1616146.1, 97807.086, 0.00000067894854, 9.999337, 9.999855 
5.1495874e+2, 1.3510741e+2, -1709420.1, -1655742.5, 118019.6, -0.21343043, 0.074698396, -1561548.4, 54411.88, 0.000000029496794, 9.99931, 10.000083 
5.1497024e+2, 1.4510831e+2, -1611336.0, -1571456.4, -21812.934, 0.09876197, 0.16565777, -1561842.9, -43891.55, 0.0, 9.999397, 9.999928 
5.149744e+2, 1.5510768e+2, -1484841.4, -1457383.9, -51538.676, -0.006320146, 0.10514692, -1417776.8, 2180.0745, 0.0, 9.999587, 9.999946 
5.149795e+2, 1.6510737e+2, -1389362.8, -1383180.5, -27928.656, -0.048820704, 0.09136749, -1358172.5, -36213.05, 0.0, 9.999666, 9.999743 
5.1498544e+2, 1.7510739e+2, -1297918.4, -1286040.6, -25745.342, -0.04689607, 0.11458467, -1265558.1, -41599.152, 0.0, 9.999612, 9.9997635 
5.149913e+2, 1.8510722e+2, -1199042.9, -1202166.0, -30424.348, -0.035942838, 0.12829176, -1170140.0, -44179.94, 0.0, 9.999679, 9.999635 
5.1499724e+2, 1.9510686e+2, -1069261.3, -1087477.4, -24160.85, -0.009399399, 0.12342555, -1052548.8, -24585.979, 0.0, 9.999891, 9.999647 
5.150027e+2, 2.0510614e+2, -983622.6, -1033960.3, -46756.117, 0.0055556577, 0.1056253, -955691.5, -25722.488, 0.0, 9.999972, 9.999303 
5.1500773e+2, 2.151051e+2, -889859.44, -936012.3, -41658.15, 0.0071144216, 0.06655776, -865313.2, -33334.445, 0.0, 9.999934, 9.99932 
5.150135e+2, 2.2510438e+2, -792506.25, -856790.7, 3857.7449, 0.023748083, 0.07066065, -792275.6, -58289.813, 0.0, 10.00001, 9.999155 
5.1502e+2, 2.3510395e+2, -665727.5, -743302.4, 3782.4712, 0.057492293, 0.10781867, -665543.5, -29553.201, 0.0, 10.0002, 9.999169 
5.15026e+2, 2.4510308e+2, -572221.5, -712861.5, -2832.3796, 0.041348852, 0.13416627, -572164.44, -34164.566, 0.0, 10.000451, 9.998585 
5.150315e+2, 2.5510177e+2, -425929.0, -589225.6, -8336.409, -0.021858698, 0.14023569, -425504.53, 14509.956, 0.0, 10.0007715, 9.998606 
5.150375e+2, 2.6510018e+2, -313808.53, -476391.28, -24109.936, -0.023667492, 0.120364174, -310308.53, 31721.762, 0.0, 10.000836, 9.998676 
5.1504374e+2, 2.7509838e+2, -241668.1, -390325.6, -20126.21, 0.03116202, 0.06799564, -238991.47, 5055.8057, 0.0, 10.000655, 9.998682 
5.1504964e+2, 2.8509727e+2, -180613.81, -382058.34, -9922.183, 0.013932888, 0.121996254, -180126.27, -34066.28, 0.0, 10.000711, 9.99804 
5.1505494e+2, 2.9509687e+2, -37605.895, -253125.45, -15832.064, -0.06701946, 0.27175102, -36449.082, 11619.216, 0.0, 10.00098, 9.998122 
5.150622e+2, 3.0509385e+2, 58837.4, -130846.445, -3525.0906, 0.026486231, 0.13357876, 58902.883, 58902.883, 0.0, 10.001091, 9.998576 
5.150686e+2, 3.1509313e+2, 121178.65, 9962.084, 1303.0796, 0.035815448, 0.20970848, 121193.914, 121193.914, 0.0000000053166334, 10.001041, 9.999566 
5.249515e+2, 1.251016e+2, -1825349.8, -1785295.6, -197456.72, 0.00971779, 0.14361827, -1606853.0, 107163.72, 0.0000005002885, 9.999352, 9.99981 
5.249582e+2, 1.3510114e+2, -1671664.9, -1648586.3, 130076.99, -0.21463148, 0.09383885, -1529537.8, 86484.12, 0.000000016983103, 9.999615, 9.999985 
5.2497e+2, 1.45102e+2, -1568025.3, -1547691.6, -2438.9243, 0.12400001, 0.18404245, -1547403.3, -29389.865, 0.0, 9.999682, 9.999954 
5.2497405e+2, 1.5510109e+2, -1501629.1, -1462500.8, -42219.273, 0.005163685, 0.09421651, -1435533.0, -15511.807, 0.0, 9.999459, 9.999971 
5.2497905e+2, 1.6510077e+2, -1414913.6, -1391977.6, -14281.737, -0.049872354, 0.07543173, -1385129.4, -63105.71, 0.0, 9.999475, 9.999776 
5.249851e+2, 1.7510101e+2, -1273357.1, -1271219.1, -9924.3955, -0.0534404, 0.11758242, -1262306.3, -38285.277, 0.0, 9.999765, 9.999792 
5.2499104e+2, 1.851009e+2, -1175761.5, -1189523.0, -20596.922, -0.038788572, 0.13540599, -1160926.4, -34904.766, 0.0, 9.999831, 9.999648 
5.2499706e+2, 1.9510044e+2, -1101530.9, -1101145.5, -25723.969, -0.004267739, 0.12140651, -1075613.5, -47588.246, 0.0, 9.999661, 9.999663 
5.250027e+2, 2.0509976e+2, -1001188.1, -1033394.1, -45658.043, 0.0155243, 0.101191804, -968876.6, -38845.313, 0.0, 9.999812, 9.999383 
5.2500796e+2, 2.1509884e+2, -834627.1, -900390.75, -43715.03, 0.019867212, 0.06734721, -812807.75, 19231.725, 0.0, 10.000276, 9.9994 
5.2501386e+2, 2.2509813e+2, -726795.8, -835162.5, -5168.263, 0.031426117, 0.07293237, -726549.9, 7496.6875, 0.0, 10.0005045, 9.999065 
5.250203e+2, 2.3509759e+2, -626395.44, -734079.44, -11841.833, 0.050839055, 0.106357016, -625108.56, 10944.133, 0.0, 10.000513, 9.999082 
5.250264e+2, 2.4509665e+2, -571050.44, -710087.9, -12982.044, 0.031590063, 0.13113433, -569848.6, -31785.615, 0.0, 10.000449, 9.998605 
5.2503204e+2, 2.550954e+2, -491827.16, -618707.56, -5569.618, -0.024011912, 0.13908924, -491583.13, -51505.777, 0.0, 10.000311, 9.998626 
5.2503806e+2, 2.650939e+2, -379768.3, -509792.5, -18387.004, -0.021711148, 0.1283955, -377218.2, -35125.688, 0.0, 10.00039, 9.998662 
5.250445e+2, 2.750922e+2, -240104.42, -390356.84, -21858.168, 0.03421528, 0.08951325, -236989.17, 7119.533, 0.0, 10.000671, 9.998673 
5.2505034e+2, 2.8509104e+2, -168249.8, -372489.94, -1775.2092, 0.016325006, 0.13361013, -168234.36, -22112.123, 0.0, 10.000781, 9.998072 
5.2505577e+2, 2.9509038e+2, -73352.76, -267459.66, 9643.09, -0.06800124, 0.2564835, -72874.875, -24742.383, 0.0, 10.000722, 9.998149 
5.2506304e+2, 3.050877e+2, 32323.646, -116044.38, 16623.2, 0.02044763, 0.13740224, 34163.305, 34163.305, 0.0, 10.000789, 9.998823 
5.250694e+2, 3.150875e+2, 98146.05, -14547.179, -12.4635315, 0.017203426, 0.23767349, 98146.05, 98146.05, 0.00000000056215, 10.000938, 9.999448 
5.3495044e+2, 1.2509504e+2, -1802144.4, -1739035.9, -187276.75, -0.036878347, 0.1513073, -1580673.8, 133407.89, 0.00000041209, 9.99936, 10.000124 
5.3495806e+2, 1.3509476e+2, -1653120.4, -1611229.6, 140440.39, -0.19149062, 0.09359027, -1490181.4, 125902.27, 0.000000018082496, 9.999618, 10.000241 
5.349702e+2, 1.4509572e+2, -1573240.3, -1557168.6, -11209.552, 0.17878816, 0.18525356, -1551412.1, -33338.46, 0.0, 9.999676, 9.999892 
5.349734e+2, 1.5509494e+2, -1506007.8, -1471719.5, -50305.344, -0.010430967, 0.11212769, -1435717.1, -15635.95, 0.0, 9.99946, 9.9999075 
5.349783e+2, 1.6509457e+2, -1409501.8, -1381361.0, -4616.3896, -0.07604197, 0.08949614, -1380623.1, -58539.145, 0.0, 9.999476, 9.999848 
5.349851e+2, 1.750947e+2, -1268443.4, -1260663.1, 1517.3717, -0.022545364, 0.11203185, -1260377.6, -36296.258, 0.0, 9.9997635, 9.9998665 
5.349912e+2, 1.8509434e+2, -1184953.8, -1207377.6, -27520.705, -0.0005186823, 0.107681856, -1166448.8, -40364.6, 0.0, 9.999826, 9.999529 
5.349967e+2, 1.9509351e+2, -1110213.6, -1118894.4, -31656.813, -0.0082920585, 0.06792839, -1082601.0, -54508.816, 0.0, 9.99966, 9.999542 
5.350025e+2, 2.0509295e+2, -997836.3, -1025386.4, -28817.154, 0.011649715, 0.06384695, -979671.1, -49573.816, 0.0, 9.999808, 9.99944 
5.350086e+2, 2.1509267e+2, -831660.44, -893064.94, -25952.537, 0.059083633, 0.086380705, -822161.2, 9938.271, 0.0, 10.00027, 9.999454 
5.3501445e+2, 2.2509189e+2, -738936.94, -859218.44, -5665.493, 0.04461426, 0.093005925, -738670.6, -4563.3374, 0.0, 10.000499, 9.998903 
5.3502e+2, 2.3509066e+2, -637762.8, -757681.9, -11056.448, -0.028937986, 0.0734638, -636751.94, -631.0124, 0.0, 10.000512, 9.998921 
5.3502613e+2, 2.4508959e+2, -556871.2, -679997.3, -18461.91, -0.037685826, 0.08131548, -554162.56, -16030.077, 0.0, 10.000446, 9.998813 
5.3503275e+2, 2.5508872e+2, -477686.84, -589447.1, -10049.698, 0.016344802, 0.110525526, -476790.38, -36648.54, 0.0, 10.00031, 9.998827 
5.3503907e+2, 2.6508763e+2, -387742.13, -525625.44, -8154.9355, 0.033974126, 0.13430473, -387261.47, -45107.81, 0.0, 10.000387, 9.998555 
5.3504497e+2, 2.750863e+2, -247768.06, -405157.03, -10855.565, 0.016288938, 0.1387697, -247022.86, -2854.3738, 0.0, 10.000667, 9.998574 
5.3505117e+2, 2.8508496e+2, -148975.8, -330861.3, -4544.6616, 0.013911177, 0.15899622, -148862.31, -2679.3567, 0.0, 10.000773, 9.998362 
5.350575e+2, 2.9508376e+2, -54067.145, -227286.08, 8902.689, 0.028089426, 0.19888799, -53610.785, -5414.8853, 0.0, 10.000721, 9.9984255 
5.350643e+2, 3.0508146e+2, 23235.275, -132893.88, 22094.566, 0.062113516, 0.10955432, 26301.754, 26301.754, 0.0, 10.000781, 9.99871 
5.3506875e+2, 3.150817e+2, 67020.31, -75595.164, 14226.342, -0.14488414, 0.2656182, 68425.586, 68425.586, 0.0000000000003731001, 10.000924, 9.999035 
5.449499e+2, 1.2508838e+2, -1764919.0, -1688482.9, -177527.55, -0.034295548, 0.14318272, -1545106.1, 169041.03, 0.00000036785775, 9.9994755, 10.000415 
5.449574e+2, 1.3508826e+2, -1681733.8, -1598390.3, 144738.67, -0.20070395, 0.08037467, -1489443.9, 126702.08, 0.000000024396927, 9.999307, 10.00048 
5.449699e+2, 1.4508928e+2, -1622291.4, -1592812.4, -6281.8945, 0.19408429, 0.16916727, -1591529.5, -73394.18, 0.0, 9.9993925, 9.9997835 
5.44973e+2, 1.5508853e+2, -1469247.1, -1466369.8, -52738.68, -0.007907688, 0.111194395, -1415050.1, 5093.1387, 0.0, 9.999765, 9.999797 
5.4497796e+2, 1.6508812e+2, -1349869.1, -1349606.8, -10308.038, -0.07447989, 0.0875977, -1339429.0, -17282.328, 0.0, 9.999873, 9.999875 
5.44985e+2, 1.7508811e+2, -1276884.0, -1261130.6, -8265.294, -0.0045152823, 0.09343449, -1257589.9, -33444.87, 0.0, 9.999692, 9.999896 
5.4499114e+2, 1.850877e+2, -1205397.9, -1218297.8, -35325.027, 0.015596657, 0.082962476, -1175938.8, -49790.68, 0.0, 9.999691, 9.999518 
5.449964e+2, 1.950869e+2, -1078826.8, -1104966.8, -32445.33, -0.0148483515, 0.04745901, -1056917.9, -28761.783, 0.0, 9.999881, 9.999532 
5.4500234e+2, 2.0508637e+2, -967794.8, -1014604.7, -17693.867, 0.0010246518, 0.048458975, -961859.3, -31698.24, 0.0, 10.00003, 9.999408 
5.4500884e+2, 2.1508609e+2, -852799.44, -906727.9, -22387.164, 0.062455386, 0.07612208, -844717.2, -12554.097, 0.0, 10.000139, 9.999423 
5.4501486e+2, 2.2508536e+2, -786870.6, -885515.75, -9740.904, 0.04777374, 0.089581236, -785917.94, -51746.875, 0.0, 10.000184, 9.998874 
5.450203e+2, 2.3508418e+2, -689521.0, -785429.7, -6417.695, -0.040219184, 0.079002276, -689093.44, -52908.543, 0.0, 10.00017, 9.998895 
5.4502636e+2, 2.4508315e+2, -573022.25, -668768.0, -8507.675, -0.04718869, 0.08446192, -572272.2, -34076.313, 0.0, 10.000255, 9.998981 
5.450332e+2, 2.5508234e+2, -447604.6, -555866.8, -3325.982, 0.024000794, 0.09981645, -447502.53, -7298.7734, 0.0, 10.000437, 9.998996 
5.450396e+2, 2.650813e+2, -369318.38, -526441.8, 4629.8657, 0.04519131, 0.12520929, -369182.06, -26966.975, 0.0, 10.000556, 9.998467 
5.450456e+2, 2.7508003e+2, -261771.42, -422102.66, 1526.2949, 0.018042423, 0.14594628, -261756.89, -17526.502, 0.0, 10.000613, 9.998484 
5.450518e+2, 2.8507873e+2, -145894.0, -314619.28, -1328.6528, 0.011618693, 0.16824432, -145883.53, 361.09662, 0.0, 10.000731, 9.998493 
5.450583e+2, 2.9507756e+2, -20197.352, -195850.16, -684.4212, 0.026578117, 0.19952719, -20194.686, 28061.553, 0.0, 10.000891, 9.998558 
5.45065e+2, 3.0507556e+2, 28161.197, -131332.73, 7527.482, 0.054443695, 0.1328667, 28515.678, 28515.678, 0.0, 10.000818, 9.998703 
5.450693e+2, 3.1507522e+2, -6995.866, -135846.86, 12113.441, -0.16055234, 0.23233941, -5866.957, -5866.957, 0.000000000015387011, 10.000523, 9.998814 
5.549498e+2, 1.2508154e+2, -1743954.3, -1644238.6, -181614.98, 0.012167571, 0.11588635, -1505762.1, 208451.77, 0.0000003291145, 9.999473, 10.000719 
5.5495626e+2, 1.3508172e+2, -1663166.4, -1560860.3, 138498.78, -0.24734947, 0.054636654, -1464370.0, 151838.47, 0.000000025104656, 9.999311, 10.000735 
5.54969e+2, 1.4508267e+2, -1634897.3, -1620038.1, 6650.3994, 0.16193643, 0.13717479, -1617496.4, -99298.39, 0.0, 9.999396, 9.999596 
5.5497295e+2, 1.5508187e+2, -1481769.3, -1492626.0, -38273.58, 0.009616256, 0.09137781, -1448541.0, -28333.537, 0.0, 9.999764, 9.999618 
5.549781e+2, 1.6508138e+2, -1351207.1, -1351104.5, -17909.99, -0.0480865, 0.069122225, -1333245.8, -11033.708, 0.0, 9.999868, 9.9998665 
5.549847e+2, 1.7508122e+2, -1277893.3, -1262552.4, -14871.76, -0.002832691, 0.0616638, -1253489.5, -29277.74, 0.0, 9.99969, 9.999887 
5.549907e+2, 1.8508095e+2, -1199223.9, -1204821.0, -28889.33, 0.004981154, 0.061458945, -1172997.9, -46784.473, 0.0, 9.999687, 9.999613 
5.5499613e+2, 1.950806e+2, -1072885.0, -1091667.8, -24875.123, -0.026316741, 0.060372204, -1055687.5, -27470.572, 0.0, 9.999876, 9.999626 
5.5500215e+2, 2.0507999e+2, -976527.25, -1031528.75, -14092.353, -0.019207476, 0.05473537, -973126.75, -42904.145, 0.0, 10.000025, 9.999294 
5.5500865e+2, 2.1507914e+2, -861773.25, -923944.4, -17782.748, 0.026991514, 0.036222693, -857046.25, -24815.832, 0.0, 10.0001335, 9.999308 
5.5501497e+2, 2.2507854e+2, -780347.9, -870912.94, -10860.08, 0.037649073, 0.06237861, -779063.8, -44826.035, 0.0, 10.000179, 9.998976 
5.550209e+2, 2.3507816e+2, -682772.6, -770999.94, -6648.0796, 0.013605648, 0.122823454, -682274.5, -46029.69, 0.0, 10.000167, 9.998995 
5.550271e+2, 2.4507737e+2, -564046.25, -649576.44, -2253.1348, -0.00008121155, 0.13955154, -563986.94, -25733.61, 0.0, 10.000252, 9.999114 
5.550334e+2, 2.550762e+2, -438439.0, -536263.7, 3839.8413, -0.0032941652, 0.10634269, -438288.5, 1974.7404, 0.0, 10.000434, 9.999131 
5.550398e+2, 2.6507488e+2, -374604.34, -536919.9, 6108.3237, 0.0092858635, 0.101317324, -374374.78, -32097.986, 0.0, 10.000553, 9.998397 
5.550464e+2, 2.7507344e+2, -267855.1, -434301.56, 4301.448, 0.035561524, 0.11045365, -267744.0, -23449.463, 0.0, 10.00061, 9.998402 
5.550526e+2, 2.8507236e+2, -149930.64, -320662.47, 4353.681, 0.0066520395, 0.16008031, -149819.7, -3512.2427, 0.0, 10.000722, 9.998456 
5.550582e+2, 2.9507184e+2, -24062.193, -201242.53, 5653.5454, -0.07429923, 0.25742286, -23881.982, 24431.795, 0.0, 10.000879, 9.998526 
5.550652e+2, 3.0507e+2, 34053.05, -116214.71, -5185.3696, -0.005756437, 0.20825508, 34231.773, 34231.773, 0.0, 10.000806, 9.998813 
5.55071e+2, 3.150682e+2, -7487.681, -136446.6, 8365.559, -0.04234989, 0.14382766, -6947.2725, -6947.2725, 0.0000000020600701, 10.000521, 9.99881 
5.649496e+2, 1.2507516e+2, -1752007.6, -1673379.4, -147647.83, 0.03990793, 0.10585458, -1559901.1, 154374.06, 0.00000027083397, 9.999529, 10.00049 
5.649557e+2, 1.350752e+2, -1616196.8, -1568141.0, 121594.08, -0.2563898, 0.055995636, -1468223.5, 148048.97, 0.000000017878008, 9.99976, 10.00047 
5.6496865e+2, 1.4507598e+2, -1563471.4, -1574758.5, -12622.8955, 0.16388558, 0.12888359, -1555287.9, -37023.89, 0.0, 9.999839, 9.999693 
5.649727e+2, 1.5507524e+2, -1469099.9, -1475222.8, -36070.78, 0.0058934414, 0.08145014, -1435960.9, -15689.064, 0.0, 9.999805, 9.999717 
5.649779e+2, 1.6507477e+2, -1370085.3, -1371891.0, -17476.195, -0.052544735, 0.061276797, -1353488.6, -31212.504, 0.0, 9.999792, 9.99976 
5.649845e+2, 1.7507455e+2, -1269453.0, -1271010.1, -24361.13, 0.0030023633, 0.05959191, -1245858.0, -21580.945, 0.0, 9.999803, 9.999775 
5.6499064e+2, 1.850743e+2, -1168836.0, -1198219.9, -36540.72, 0.015955439, 0.069508016, -1144144.3, -17865.092, 0.0, 9.99993, 9.999541 
5.649963e+2, 1.9507402e+2, -1034202.2, -1080760.5, -46071.81, -0.018884122, 0.08305512, -1005862.25, 22420.152, 0.0, 10.000175, 9.999557 
5.650022e+2, 2.0507339e+2, -949646.75, -1013309.4, -44350.844, -0.022531915, 0.07594621, -926886.56, 3401.774, 0.0, 10.000187, 9.999341 
5.6500846e+2, 2.1507241e+2, -880829.9, -927409.1, -36910.063, 0.006796596, 0.04019536, -860475.94, -28178.957, 0.0, 9.999978, 9.999358 
5.6501484e+2, 2.2507182e+2, -804487.6, -872704.9, -17770.223, 0.022720426, 0.06138037, -800136.2, -65832.41, 0.0, 9.999971, 9.9990635 
5.650212e+2, 2.3507161e+2, -677088.0, -758308.3, -15258.274, 0.025202077, 0.12922221, -674316.2, -38007.3, 0.0, 10.000164, 9.9990835 
5.6502753e+2, 2.4507084e+2, -562315.44, -658331.06, -16678.512, 0.012121098, 0.14809681, -559500.75, -21183.398, 0.0, 10.000305, 9.999029 
5.650336e+2, 2.5506955e+2, -448956.84, -551230.44, -28463.736, -0.01574791, 0.11233351, -441568.8, -1239.7703, 0.0, 10.000402, 9.999044 
5.650401e+2, 2.6506832e+2, -387907.06, -531235.56, -33129.145, -0.011128275, 0.11152978, -380620.03, -38277.883, 0.0, 10.000411, 9.998504 
5.650467e+2, 2.7506706e+2, -301978.25, -437809.5, -22417.809, 0.02316443, 0.12969208, -298374.0, -54016.652, 0.0, 10.000323, 9.998513 
5.65053e+2, 2.8506586e+2, -206844.92, -354955.78, -8059.9307, -0.003786014, 0.16579328, -206407.61, -60036.195, 0.0, 10.000361, 9.998393 
5.650587e+2, 2.95065e+2, -80820.08, -237805.13, -10263.352, -0.0867393, 0.23326054, -80151.93, -31769.953, 0.0, 10.000528, 9.998445 
5.6506586e+2, 3.050637e+2, 23086.771, -95654.2, -28599.363, -0.009251929, 0.23066501, 29616.043, 29616.043, 0.0, 10.000618, 9.999045 
5.650718e+2, 3.15062e+2, 24181.469, -92963.99, -2726.0667, -0.015314258, 0.15359856, 24244.873, 24244.873, 0.000000017271022, 10.000615, 9.999064 
5.7494915e+2, 1.2506932e+2, -1807456.9, -1792356.9, -133968.31, 0.03874277, 0.114461854, -1665726.0, 48604.336, 0.00000019303324, 9.999543, 9.999668 
5.7495576e+2, 1.3506873e+2, -1672892.8, -1687494.9, 129784.47, -0.23047405, 0.08553904, -1550204.1, 66133.52, 0.000000007774616, 9.999765, 9.999649 
5.749688e+2, 1.4506915e+2, -1536411.3, -1517468.5, -15521.917, 0.19681072, 0.14489576, -1508756.5, 9576.843, 0.0, 9.999835, 10.000088 
5.749722e+2, 1.5506868e+2, -1441327.1, -1417362.6, -36922.33, -0.023156112, 0.081833646, -1390526.9, 29809.188, 0.0, 9.9998045, 10.0001135 
5.749773e+2, 1.6506831e+2, -1385784.6, -1404609.9, -17585.902, -0.09246623, 0.0644111, -1375250.8, -52912.11, 0.0, 9.999791, 9.9995365 
5.749844e+2, 1.7506811e+2, -1285115.6, -1304010.4, -23307.492, 0.010625742, 0.08740462, -1269413.6, -45072.973, 0.0, 9.999803, 9.999549 
5.7499087e+2, 1.8506773e+2, -1186308.6, -1233641.4, -27949.926, 0.04483568, 0.1071726, -1173351.3, -47006.043, 0.0, 9.9999275, 9.999299 
5.7499665e+2, 1.9506715e+2, -1051682.3, -1115671.9, -36768.004, 0.004438806, 0.11547589, -1034937.4, -6584.8643, 0.0, 10.00017, 9.999319 
5.750025e+2, 2.0506655e+2, -935720.06, -983395.75, -52922.652, -0.011666657, 0.11211957, -901514.4, 28843.873, 0.0, 10.000182, 9.999549 
5.7500845e+2, 2.150659e+2, -866742.4, -897248.6, -44332.742, -0.0013580032, 0.0888189, -835112.1, -2749.495, 0.0, 9.999974, 9.999567 
5.750146e+2, 2.2506523e+2, -799300.56, -861203.6, -11074.39, 0.0000070373662, 0.08707759, -797379.0, -63010.09, 0.0, 9.999969, 9.999145 
5.75021e+2, 2.3506454e+2, -672152.4, -747164.75, -7534.175, -0.0072070686, 0.09785147, -671403.2, -35026.0, 0.0, 10.00016, 9.999162 
5.750276e+2, 2.4506359e+2, -584021.8, -702941.6, -13649.05, -0.013104648, 0.109953135, -582475.3, -44087.387, 0.0, 10.000303, 9.998723 
5.750341e+2, 2.5506243e+2, -471323.44, -596615.44, -24366.252, -0.017007992, 0.117634915, -466751.63, -26350.572, 0.0, 10.000399, 9.998734 
5.750404e+2, 2.6506156e+2, -369501.34, -491910.25, -36745.402, -0.01863646, 0.15549515, -359318.06, -16907.012, 0.0, 10.000406, 9.998776 
5.7504666e+2, 2.7506086e+2, -282456.6, -396306.2, -25283.85, -0.021427095, 0.20376287, -277094.1, -32675.203, 0.0, 10.0003195, 9.998801 
5.750531e+2, 2.8505924e+2, -212776.89, -366459.94, -2665.2058, -0.023272045, 0.18681172, -212730.69, -66294.22, 0.0, 10.000357, 9.998317 
5.7505995e+2, 2.95057e+2, -88492.52, -253200.9, -2884.1008, -0.018901058, 0.12644118, -88442.04, -39981.24, 0.0, 10.000525, 9.998341 
5.75067e+2, 3.0505654e+2, 44692.992, -49124.035, -29279.703, 0.038519908, 0.19807403, 53081.043, 53081.043, 0.00000000021282408, 10.00061, 9.999369 
5.7507175e+2, 3.1505662e+2, 55677.63, -23703.803, 3534.0164, -0.082271844, 0.2621037, 55834.65, 55834.65, 0.0000000699572, 10.000599, 9.999548 
5.84949e+2, 1.2506303e+2, -1734568.5, -1775631.4, -154785.77, 0.045973014, 0.121116236, -1598958.5, 115432.85, 0.00000011738098, 10.000126, 9.9995 
5.849556e+2, 1.3506217e+2, -1660770.4, -1700823.4, 147514.97, -0.23224667, 0.08484744, -1531928.8, 84472.734, 0.0000000014227642, 9.999935, 9.999474 
5.8496875e+2, 1.450624e+2, -1547456.4, -1531782.1, 9005.817, 0.2096591, 0.1364446, -1527680.9, -9281.354, 0.0, 9.999799, 10.000006 
5.849721e+2, 1.550621e+2, -1448388.3, -1430145.4, -50570.52, -0.015506651, 0.097482935, -1387880.3, 32520.96, 0.0, 9.999797, 10.00003 
5.849771e+2, 1.6506171e+2, -1369162.6, -1405426.4, -36833.816, -0.09378241, 0.08655947, -1346239.8, -23835.525, 0.0, 9.999942, 9.999458 
5.849843e+2, 1.7506132e+2, -1227051.4, -1284651.3, -32189.605, 0.0031462912, 0.09766362, -1212658.6, 11749.66, 0.0, 10.000239, 9.999471 
5.8499086e+2, 1.8506083e+2, -1155788.0, -1226792.3, -33199.51, 0.040141538, 0.114392996, -1142683.5, -16269.476, 0.0, 10.000172, 9.999228 
5.8499664e+2, 1.9506022e+2, -1119323.6, -1155974.0, -30055.57, 0.0079229465, 0.12765507, -1102447.3, -74025.875, 0.0, 9.99974, 9.999249 
5.850025e+2, 2.0505962e+2, -1001287.4, -1016439.06, -39524.684, -0.0076934393, 0.1284983, -968619.06, -38191.71, 0.0, 9.999739, 9.999536 
5.8500844e+2, 2.1505901e+2, -839370.2, -885499.44, -48968.543, -0.0036526867, 0.10886212, -808306.3, 24125.498, 0.0, 10.000169, 9.999554 
5.8501464e+2, 2.2505827e+2, -748193.5, -832907.75, -28382.418, -0.0048742546, 0.10082261, -739563.5, -5125.226, 0.0, 10.000302, 9.999178 
5.850212e+2, 2.3505743e+2, -671180.56, -743114.94, -29288.139, -0.011906397, 0.09497559, -660764.2, -24317.467, 0.0, 10.000151, 9.999195 
5.850277e+2, 2.4505648e+2, -618308.25, -716617.06, -23579.656, -0.014062352, 0.10199927, -612945.1, -74487.67, 0.0, 10.000055, 9.998749 
5.850343e+2, 2.550554e+2, -525602.0, -619187.44, -10172.026, -0.0113953715, 0.115745306, -524509.1, -84038.96, 0.0, 10.000011, 9.998766 
5.850407e+2, 2.6505458e+2, -400629.28, -499243.47, -12418.293, -0.01741883, 0.15705109, -399089.53, -56610.125, 0.0, 10.00016, 9.998844 
5.8504695e+2, 2.7505398e+2, -250099.06, -373848.53, -17791.555, -0.033766832, 0.20739734, -247591.95, -3105.9395, 0.0, 10.000511, 9.998864 
5.8505344e+2, 2.8505236e+2, -174044.38, -338265.06, -2898.53, -0.03303204, 0.18314984, -173993.23, -27489.793, 0.0, 10.000582, 9.998403 
5.850604e+2, 2.9505005e+2, -108650.03, -255023.78, 7054.385, -0.012095025, 0.10448702, -108310.836, -59781.992, 0.0, 10.000354, 9.99841 
5.8506745e+2, 3.0504993e+2, -7565.2827, -81827.83, -22258.197, 0.040215373, 0.20870815, -1405.0, -1405.0, 0.000000006848287, 10.000285, 9.999299 
5.850722e+2, 3.1504983e+2, 40279.09, -13439.754, -15398.064, -0.08661938, 0.26638556, 44379.785, 44379.785, 0.00000018333391, 10.000416, 9.999706 
5.9494936e+2, 1.2505633e+2, -1697332.3, -1701390.6, -152672.66, 0.056944914, 0.12789243, -1546675.3, 167782.63, 0.000000058921596, 10.000136, 10.000006 
5.9495515e+2, 1.3505559e+2, -1625706.1, -1629164.9, 139541.13, -0.26559353, 0.052023698, -1487883.6, 128580.07, 0.000000000010343272, 9.999938, 9.999964 
5.9496844e+2, 1.4505574e+2, -1588425.0, -1616264.4, 7764.275, 0.19803354, 0.10210954, -1586406.0, -67943.59, 0.0, 9.999796, 9.999428 
5.949724e+2, 1.550555e+2, -1488923.4, -1514353.4, -49775.58, 0.026536865, 0.12821658, -1450264.5, -29797.555, 0.0, 9.999797, 9.999453 
5.9497744e+2, 1.6505496e+2, -1365281.1, -1396602.8, -26329.684, -0.059990965, 0.12731554, -1350306.8, -27834.031, 0.0, 9.999938, 9.99952 
5.949843e+2, 1.7505415e+2, -1222054.4, -1274494.9, -20701.773, -0.0226248, 0.09034897, -1214867.1, 9612.7705, 0.0, 10.000239, 9.99954 
5.949906e+2, 1.8505359e+2, -1148928.9, -1212062.5, -49902.434, -0.002101373, 0.09073315, -1121447.3, 5038.014, 0.0, 10.000169, 9.9993305 
5.949962e+2, 1.9505325e+2, -1112512.1, -1141723.4, -45868.33, -0.011125574, 0.120318994, -1078980.1, -50491.16, 0.0, 9.999738, 9.999349 
5.950022e+2, 2.0505261e+2, -1018755.56, -1051469.1, -23978.465, -0.013281962, 0.12565477, -1006086.3, -75590.86, 0.0, 9.999734, 9.999297 
5.950086e+2, 2.150517e+2, -856988.3, -920522.5, -32404.084, -0.0024870164, 0.09971472, -843377.3, -10872.803, 0.0, 10.000162, 9.999316 
5.9501505e+2, 2.2505096e+2, -749926.44, -835216.4, -34912.434, 0.005231899, 0.10181096, -737458.1, -2946.351, 0.0, 10.000297, 9.999166 
5.9502155e+2, 2.3505035e+2, -672585.56, -745335.4, -34586.563, 0.007629737, 0.121168904, -658767.2, -22249.686, 0.0, 10.000148, 9.999181 
5.95028e+2, 2.4504952e+2, -593989.25, -665650.44, -25555.55, 0.0055434597, 0.12505081, -585809.4, -47283.55, 0.0, 10.000053, 9.999101 
5.950344e+2, 2.5504848e+2, -500717.13, -566942.6, -11345.662, -0.0011332516, 0.10761368, -498827.3, -58290.945, 0.0, 10.000009, 9.9991255 
5.95041e+2, 2.6504752e+2, -410161.22, -518687.97, 136.14163, -0.009726978, 0.117544904, -410161.03, -67613.92, 0.0, 10.000157, 9.998713 
5.9504753e+2, 2.7504647e+2, -260845.48, -395054.56, -3856.4502, -0.019947827, 0.14021237, -260734.77, -16176.035, 0.0, 10.000505, 9.998721 
5.9505403e+2, 2.850453e+2, -159748.86, -306631.34, -12032.687, -0.038619235, 0.15339819, -158769.67, -12197.187, 0.0, 10.000573, 9.998625 
5.950602e+2, 2.950441e+2, -94542.234, -223111.64, -1744.3115, -0.06683775, 0.16838317, -94518.58, -45932.42, 0.0, 10.000342, 9.998635 
5.9506726e+2, 3.050438e+2, -39592.355, -146124.66, -18403.309, -0.004266723, 0.26645496, -36502.81, -36502.81, 0.000000033052434, 10.000276, 9.998863 
5.950731e+2, 3.1504178e+2, 31185.438, -31525.646, -4081.1514, -0.040207323, 0.17038307, 31449.918, 31449.918, 0.00000037488923, 10.000413, 9.999583 
6.0494953e+2, 1.2504916e+2, -1715786.8, -1681585.8, -164242.05, 0.078240894, 0.11857352, -1533556.4, 180972.81, 0.000000021349177, 9.999887, 10.000262 
6.04955e+2, 1.3504882e+2, -1610727.0, -1593242.4, 93331.266, -0.26979348, 0.057745315, -1508244.9, 108284.62, 0.0, 9.999919, 10.000219 
6.0496825e+2, 1.4504892e+2, -1573507.6, -1625102.6, -22178.334, 0.1972665, 0.0972539, -1565284.8, -46756.09, 0.0, 9.9999695, 9.999283 
6.049723e+2, 1.5504855e+2, -1440435.3, -1506329.8, -46654.926, 0.026624406, 0.12527059, -1416266.8, 4268.5615, 0.0, 10.000197, 9.999313 
6.049774e+2, 1.6504802e+2, -1335234.1, -1379095.0, -12633.751, -0.060593195, 0.1292654, -1331855.4, -9313.677, 0.0, 10.000132, 9.999547 
6.0498434e+2, 1.7504732e+2, -1292732.0, -1305495.4, -11238.509, -0.02171374, 0.1004141, -1286189.6, -61641.926, 0.0, 9.999742, 9.999567 
6.049906e+2, 1.8504678e+2, -1193477.4, -1218872.1, -36885.945, -0.0011881688, 0.09637678, -1167164.5, -40612.28, 0.0, 9.999801, 9.999461 
6.049962e+2, 1.9504641e+2, -1018828.75, -1082254.6, -31893.701, -0.014393999, 0.10939034, -1005564.8, 22990.445, 0.0, 10.00032, 9.999476 
6.050022e+2, 2.0504567e+2, -947865.0, -1051668.6, -12180.269, -0.014106168, 0.11324873, -946454.94, -15891.965, 0.0, 10.000368, 9.99899 
6.050087e+2, 2.1504457e+2, -910803.75, -981001.56, -26596.316, 0.0058519794, 0.10012838, -901865.2, -69289.91, 0.0, 9.999941, 9.999008 
6.050153e+2, 2.2504379e+2, -806156.44, -845285.8, -23154.813, 0.015868025, 0.1075005, -795407.4, -60824.387, 0.0, 9.999838, 9.999317 
6.0502166e+2, 2.3504333e+2, -675669.9, -729896.6, -11819.014, 0.012928344, 0.124719724, -673205.8, -36619.355, 0.0, 10.000054, 9.999331 
6.0502803e+2, 2.4504255e+2, -567334.9, -649728.25, -7655.2144, -0.0021272846, 0.12376738, -566629.7, -28035.852, 0.0, 10.000224, 9.999127 
6.050343e+2, 2.5504148e+2, -449597.97, -539993.0, -19428.201, -0.028744625, 0.09980398, -445599.22, -4994.623, 0.0, 10.000349, 9.999147 
6.0504097e+2, 2.6504046e+2, -385543.94, -500111.34, -12082.437, -0.029912643, 0.1046662, -384283.56, -41668.086, 0.0, 10.000295, 9.9987755 
6.05048e+2, 2.7503946e+2, -322994.9, -418044.6, -2358.1235, -0.0063989908, 0.12323419, -322936.44, -78309.336, 0.0, 10.000047, 9.998785 
6.050545e+2, 2.850384e+2, -220512.61, -322775.63, -4176.436, -0.02514631, 0.14475921, -220342.33, -73703.49, 0.0, 10.000099, 9.998742 
6.050604e+2, 2.9503757e+2, -69930.93, -200790.52, -3745.1943, -0.086817436, 0.17967759, -69823.836, -21175.291, 0.00000000003092486, 10.000464, 9.998731 
6.050675e+2, 3.0503705e+2, -5854.382, -179887.73, -21379.781, -0.031835426, 0.27122295, -3266.3877, -3266.3877, 0.00000008707832, 10.000723, 9.998416 
6.050739e+2, 3.1503412e+2, 88838.44, -19173.29, -7975.878, -0.027678024, 0.13207623, 89424.22, 89424.22, 0.0000006525611, 10.000877, 9.999445 
6.1494976e+2, 1.2504159e+2, -1716982.6, -1683775.9, -153228.67, 0.109391294, 0.0966418, -1546253.6, 168350.81, 0.0000000039655865, 9.999886, 10.000248 
6.149552e+2, 1.3504194e+2, -1611222.0, -1593256.1, 93138.36, -0.24784443, 0.1037144, -1508668.5, 107930.14, 0.0, 9.999916, 10.00022 
6.149683e+2, 1.4504196e+2, -1552855.9, -1582813.0, -16065.771, 0.20248716, 0.122310005, -1545869.3, -27271.309, 0.0, 9.99997, 9.999574 
6.1497205e+2, 1.5504126e+2, -1418973.9, -1463230.3, -37228.258, -0.018917535, 0.08732203, -1397793.9, 22812.717, 0.0, 10.000201, 9.999608 
6.149772e+2, 1.6504088e+2, -1335878.5, -1380181.4, -27604.979, -0.10038866, 0.09191024, -1322636.1, -24.964827, 0.0, 10.000131, 9.99954 
6.1498433e+2, 1.750408e+2, -1293572.3, -1307143.0, -25522.592, 0.003564097, 0.12774402, -1273948.4, -49336.69, 0.0, 9.999741, 9.999557 
6.1499083e+2, 1.8504041e+2, -1183859.8, -1197770.4, -18222.135, 0.039772276, 0.13112834, -1171310.6, -44695.87, 0.0, 9.999795, 9.999609 
6.149967e+2, 1.950397e+2, -1008618.8, -1060735.5, -11979.566, -0.0043561603, 0.0940363, -1005997.06, 22623.191, 0.0, 10.000319, 9.999624 
6.1500263e+2, 2.0503877e+2, -975009.7, -1106500.5, -28971.016, -0.013329934, 0.09021555, -968909.56, -38279.58, 0.0, 10.000362, 9.998616 
6.1500883e+2, 2.1503763e+2, -937170.2, -1034930.5, -42290.688, 0.01782964, 0.11078467, -921414.7, -88770.75, 0.0, 9.999938, 9.998639 
6.150152e+2, 2.2503684e+2, -785578.44, -801366.7, -15704.849, 0.023497714, 0.11930568, -775895.3, -41243.637, 0.0, 9.999833, 9.999621 
6.150216e+2, 2.3503637e+2, -654300.25, -684942.56, -3260.4873, 0.0028721706, 0.10589273, -653957.1, -17303.607, 0.0, 10.000052, 9.999641 
6.150279e+2, 2.4503553e+2, -588968.8, -693872.44, -3658.8713, -0.03806164, 0.09809942, -588841.4, -50179.945, 0.0, 10.000219, 9.998826 
6.15034e+2, 2.5503433e+2, -471842.94, -584957.1, -14133.662, -0.09797411, 0.09117048, -470103.7, -29428.734, 0.0, 10.000344, 9.998841 
6.150408e+2, 2.650335e+2, -368744.75, -464078.44, -21629.584, -0.0824367, 0.11725913, -364066.9, -21382.377, 0.0, 10.00029, 9.999025 
6.1504817e+2, 2.75033e+2, -304988.8, -379703.06, -11381.429, 0.005563059, 0.158405, -303293.5, -58602.57, 0.0, 10.000043, 9.99905 
6.1505485e+2, 2.8503188e+2, -219763.36, -320359.78, 8939.571, 0.006081982, 0.16008246, -218975.11, -72272.89, 0.0, 10.000094, 9.998761 
6.15061e+2, 2.9503047e+2, -71036.85, -201944.58, 10834.789, -0.078889966, 0.1376578, -70146.15, -21430.164, 0.0000000010306047, 10.00046, 9.998725 
6.15068e+2, 3.050296e+2, -42218.965, -252714.08, -16207.816, -0.04998889, 0.22025943, -40978.297, -40978.297, 0.00000016756015, 10.000711, 9.997921 
6.150745e+2, 3.1502688e+2, 72645.625, -46604.473, 1928.9045, -0.054023996, 0.1474278, 72676.82, 72676.82, 0.000001002472, 10.000852, 9.999269 
6.249499e+2, 1.250348e+2, -1643423.4, -1680646.3, -97098.23, 0.10124468, 0.08831455, -1563169.0, 151501.3, 0.00000000008306351, 10.000525, 9.999962 
6.2495524e+2, 1.3503505e+2, -1601503.4, -1616915.1, 112549.66, -0.24164353, 0.1119047, -1496396.1, 120270.516, 0.0, 10.000104, 9.999967 
6.2496835e+2, 1.4503492e+2, -1563823.3, -1577093.8, 1332.933, 0.21500173, 0.124070525, -1563690.8, -45022.953, 0.0, 9.999846, 9.999673 
6.249721e+2, 1.5503441e+2, -1456158.9, -1469646.3, -34148.875, -0.017076034, 0.095878996, -1428094.3, -7419.8965, 0.0, 9.999896, 9.999711 
6.249772e+2, 1.6503409e+2, -1356348.6, -1385874.6, -39687.46, -0.103831865, 0.10117332, -1328767.3, -6089.4087, 0.0, 9.999973, 9.9995775 
6.2498426e+2, 1.7503402e+2, -1240432.5, -1277294.8, -35554.676, 0.0040490334, 0.1312266, -1218815.6, 5862.845, 0.0, 10.000089, 9.999594 
6.2499076e+2, 1.850336e+2, -1153875.5, -1201357.1, -24937.805, 0.044445254, 0.13917433, -1143184.9, -16502.646, 0.0, 10.000077, 9.999449 
6.249968e+2, 1.9503286e+2, -1077278.9, -1111872.8, -43261.727, 0.0014191053, 0.11652637, -1047984.4, -19295.254, 0.0, 9.999924, 9.999464 
6.250028e+2, 2.0503196e+2, -1010019.5, -1095067.8, -56176.152, -0.009614782, 0.1118216, -982087.56, -51389.453, 0.0, 9.999999, 9.998871 
6.2500894e+2, 2.1503092e+2, -865115.6, -971871.1, -23465.313, 0.01567324, 0.11611736, -860185.5, -27476.316, 0.0, 10.000311, 9.998893 
6.2501514e+2, 2.2503006e+2, -725952.8, -795235.25, 9637.746, 0.014953219, 0.1154642, -724637.1, 10080.037, 0.0, 10.0003395, 9.999418 
6.250215e+2, 2.3502937e+2, -664356.94, -712787.75, -17457.387, -0.013176376, 0.1003315, -658720.25, -21998.07, 0.0, 10.000081, 9.999436 
6.250279e+2, 2.4502851e+2, -630882.44, -705419.3, -21053.725, -0.046537444, 0.09703946, -625346.75, -86616.24, 0.0, 9.999894, 9.998904 
6.2503415e+2, 2.5502747e+2, -549725.1, -614053.9, -4353.907, -0.08496106, 0.09863796, -549431.8, -108689.89, 0.0, 9.999772, 9.998917 
6.2504095e+2, 2.6502666e+2, -433262.94, -505789.88, -7204.404, -0.07157357, 0.12838212, -432554.22, -89803.1, 0.0, 9.999893, 9.99893 
6.2504816e+2, 2.7502605e+2, -280016.88, -378553.6, -24189.918, -0.008675848, 0.17071892, -274398.78, -29640.07, 0.0, 10.00026, 9.998953 
6.250551e+2, 2.8502488e+2, -170139.36, -297911.13, -13605.168, -0.0056803813, 0.16533215, -168706.73, -21935.523, 0.0, 10.000442, 9.998748 
6.250616e+2, 2.9502323e+2, -77059.92, -207328.97, -15858.397, -0.061219916, 0.123132005, -75157.18, -26370.49, 0.000000004235602, 10.000429, 9.998703 
6.2506866e+2, 3.0502215e+2, -92476.805, -271990.94, -27687.768, -0.036178656, 0.18626639, -88303.34, -88303.34, 0.000000262113, 10.000344, 9.997966 
6.25075e+2, 3.1501997e+2, 260.91644, -49386.24, 30654.236, -0.05353661, 0.15997492, 14882.139, 14882.139, 0.0000013873902, 10.000213, 9.999557 
6.3494986e+2, 1.2502879e+2, -1680815.3, -1760638.8, -101002.13, 0.04962229, 0.092526875, -1612125.1, 102601.375, 0.0, 10.000533, 9.999411 
6.349552e+2, 1.3502818e+2, -1637335.5, -1691696.5, 95066.37, -0.25531045, 0.0806734, -1565640.4, 51093.035, 0.0, 10.000106, 9.999453 
6.349684e+2, 1.4502785e+2, -1570783.3, -1591396.9, 315.2065, 0.23077822, 0.1025228, -1570778.5, -52040.516, 0.0, 9.999846, 9.999575 
6.3497245e+2, 1.55028e+2, -1463444.1, -1484174.6, -32071.842, 0.029627178, 0.1511084, -1440104.3, -19365.682, 0.0, 9.999893, 9.999613 
6.3497746e+2, 1.6502768e+2, -1351032.4, -1374403.0, -36363.355, -0.07524031, 0.15702872, -1324522.9, -1781.1073, 0.0, 9.99997, 9.999658 
6.349841e+2, 1.7502691e+2, -1234256.6, -1265605.3, -30821.39, -0.02367068, 0.11000453, -1215352.9, 9395.087, 0.0, 10.000092, 9.999673 
6.349905e+2, 1.8502632e+2, -1187634.0, -1270575.0, -31432.34, 0.008108671, 0.11964057, -1177068.1, -50313.445, 0.0, 10.000074, 9.998975 
6.349967e+2, 1.950259e+2, -1110473.9, -1180310.1, -48908.54, 0.000095625175, 0.17743732, -1085297.8, -56536.074, 0.0, 9.999922, 9.998996 
6.3500285e+2, 2.0502529e+2, -949436.44, -968177.4, -45422.33, -0.006486512, 0.17883165, -912428.06, 18339.016, 0.0, 9.999993, 9.999744 
6.3500905e+2, 2.1502443e+2, -804260.8, -845228.0, -11399.707, -0.0029494981, 0.11476148, -801302.4, 31468.803, 0.0, 10.000309, 9.9997635 
6.350152e+2, 2.2502345e+2, -776829.6, -899172.9, -813.23083, -0.012842844, 0.09382166, -776824.2, -42044.61, 0.0, 10.000333, 9.998708 
6.350214e+2, 2.3502234e+2, -714298.6, -815845.3, -26539.65, -0.038395494, 0.10773972, -707780.75, -70988.39, 0.0, 10.000078, 9.99873 
6.350279e+2, 2.4502152e+2, -600307.5, -641336.5, -26106.205, -0.032018676, 0.12097244, -587619.94, -48819.05, 0.0, 9.999891, 9.999346 
6.3503486e+2, 2.5502095e+2, -518240.97, -548635.8, -8619.812, 0.0071465713, 0.12399403, -515966.63, -75161.35, 0.0, 9.999772, 9.999366 
6.350416e+2, 2.6502e+2, -464258.75, -569908.4, 6252.6216, 0.00010419663, 0.1399251, -463890.0, -121074.89, 0.0, 9.999891, 9.99849 
6.35048e+2, 2.7501875e+2, -312020.22, -443649.3, -9370.621, -0.053166814, 0.15892823, -311356.47, -66525.98, 0.0, 10.000255, 9.998509 
6.350549e+2, 2.850173e+2, -174857.45, -305787.34, -14132.169, -0.06521089, 0.1574815, -173349.44, -26503.51, 0.0, 10.000433, 9.998698 
6.350623e+2, 2.9501587e+2, -81861.08, -214492.81, -15631.247, -0.035640623, 0.13797486, -80043.766, -31183.447, 0.000000008608103, 10.000417, 9.998659 
6.3506943e+2, 3.0501476e+2, -53538.555, -189082.06, -32816.684, 0.0071909465, 0.17366396, -46011.27, -46011.27, 0.00000035003856, 10.000335, 9.99854 
6.3507545e+2, 3.1501338e+2, 52359.69, 60895.695, 29264.174, -0.0356276, 0.16978565, 86201.46, 86201.46, 0.0000017531552, 10.000204, 10.0003195 
6.449503e+2, 1.2502226e+2, -1715716.3, -1778428.3, -129063.875, 0.044810805, 0.09628526, -1614254.0, 100536.16, 0.0, 10.000298, 9.999403 
6.4495546e+2, 1.3502164e+2, -1580235.6, -1660833.1, 89899.96, -0.25871417, 0.0810801, -1522015.4, 94781.83, 0.0, 10.000487, 9.999479 
6.4496845e+2, 1.4502117e+2, -1504294.0, -1570172.9, 17649.648, 0.22844903, 0.09235431, -1499863.5, 18939.605, 0.0, 10.00035, 9.999477 
6.449726e+2, 1.5502131e+2, -1444144.4, -1485674.4, -14945.985, 0.039608404, 0.15143457, -1439324.9, -18521.37, 0.0, 10.000073, 9.999516 
6.449775e+2, 1.6502091e+2, -1353530.1, -1391800.9, -17025.313, -0.06839361, 0.16033618, -1347052.5, -24244.563, 0.0, 10.000022, 9.999514 
6.4498407e+2, 1.7501995e+2, -1232847.4, -1281193.8, -30020.33, -0.032847475, 0.10838202, -1218477.5, 6339.2144, 0.0, 10.000171, 9.999528 
6.4499056e+2, 1.8501931e+2, -1172835.0, -1260327.8, -29945.08, -0.0013389352, 0.1209072, -1163567.8, -36743.816, 0.0, 10.000163, 9.9990015 
6.449967e+2, 1.9501907e+2, -1095221.1, -1169373.6, -10663.371, 0.0035753534, 0.19045517, -1093718.1, -64888.934, 0.0, 10.000013, 9.999025 
6.450028e+2, 2.0501846e+2, -957787.94, -970407.94, -8646.916, -0.0038904718, 0.19088666, -953393.5, -22559.213, 0.0, 9.999929, 9.999759 
6.4500904e+2, 2.1501747e+2, -862439.9, -872118.8, -41030.67, -0.0150046265, 0.11237845, -825964.25, 6875.0864, 0.0, 9.999905, 9.999774 
6.4501524e+2, 2.2501644e+2, -833267.9, -925694.56, -42987.83, -0.022687783, 0.08651268, -816365.25, -81517.266, 0.0, 9.999941, 9.998715 
6.450215e+2, 2.3501539e+2, -719596.25, -817493.6, -16279.229, -0.030427596, 0.1051176, -716960.2, -80100.15, 0.0, 10.000039, 9.998737 
6.4502805e+2, 2.4501453e+2, -567844.0, -636083.06, -4902.101, -0.018434566, 0.11990561, -567493.7, -28624.953, 0.0, 10.000159, 9.999252 
6.450349e+2, 2.5501385e+2, -447891.66, -525397.1, -28836.176, 0.012979137, 0.12107466, -438340.16, 2534.0696, 0.0, 10.0003, 9.999271 
6.450417e+2, 2.6501277e+2, -415268.34, -550510.9, -17051.004, 0.004419051, 0.12681523, -413151.75, -70266.266, 0.0, 10.000248, 9.998451 
6.4504814e+2, 2.7501124e+2, -352101.16, -467105.28, -4048.5244, -0.04327606, 0.12736842, -351958.78, -107056.26, 0.0, 9.999999, 9.998471 
6.450551e+2, 2.850099e+2, -250888.58, -345723.97, 7372.4707, -0.06054739, 0.1368296, -250318.88, -103401.48, 0.0, 9.999925, 9.998668 
6.450624e+2, 2.9500878e+2, -141486.61, -246347.77, 5857.5894, -0.048285976, 0.15448593, -141160.42, -92231.16, 0.000000011710588, 10.000021, 9.9986315 
6.4506954e+2, 3.0500746e+2, -73456.37, -177952.67, -25394.348, -0.005862487, 0.15769653, -67611.984, -67611.984, 0.00000040808163, 10.000108, 9.998726 
6.450759e+2, 3.150063e+2, 70713.16, 96556.02, 6855.0854, -0.008609724, 0.1571683, 98261.81, 98261.81, 0.0000020409286, 10.000214, 10.000561 
6.5495104e+2, 1.2501521e+2, -1676871.6, -1699484.6, -110037.734, 0.08929929, 0.099086426, -1577561.1, 137300.25, 0.0, 10.000302, 9.999943 
6.54956e+2, 1.3501546e+2, -1541278.3, -1578551.1, 94680.04, -0.25575545, 0.11308089, -1463417.9, 153439.77, 0.0, 10.000482, 10.000046 
6.5496856e+2, 1.4501491e+2, -1511688.0, -1584615.6, 3792.7656, 0.20312943, 0.092219956, -1511491.3, 7371.7295, 0.0, 10.000345, 9.99938 
6.549724e+2, 1.5501441e+2, -1450798.9, -1500419.1, -24803.37, 0.00843827, 0.09631073, -1440526.9, -19657.902, 0.0, 10.000076, 9.9994135 
6.549774e+2, 1.650138e+2, -1380091.6, -1447063.5, -12300.465, -0.08794999, 0.11112065, -1377903.9, -55027.69, 0.0, 10.000023, 9.999134 
6.549843e+2, 1.7501314e+2, -1259507.1, -1336435.8, -24505.037, -0.026114063, 0.12567738, -1252364.5, -27479.79, 0.0, 10.00017, 9.99915 
6.5499085e+2, 1.8501262e+2, -1136057.1, -1182951.6, -36834.465, 0.012409417, 0.14222527, -1115840.4, 11049.63, 0.0, 10.000158, 9.999536 
6.5499675e+2, 1.9501233e+2, -1058124.3, -1092269.1, -16112.367, 0.009534096, 0.1539657, -1051721.6, -22829.9, 0.0, 10.000011, 9.999556 
6.550028e+2, 2.0501147e+2, -1018576.3, -1095201.3, -10168.38, -0.0048221047, 0.14633925, -1017249.9, -86350.31, 0.0, 9.999925, 9.998905 
6.5500885e+2, 2.1501005e+2, -922702.0, -996628.4, -41516.11, -0.023090519, 0.10903971, -904078.6, -71164.96, 0.0, 9.999902, 9.99892 
6.5501523e+2, 2.2500907e+2, -783598.94, -821455.75, -40151.457, -0.018203195, 0.09428785, -758137.9, -23215.732, 0.0, 9.999936, 9.9994335 
6.550219e+2, 2.3500852e+2, -669179.56, -713113.9, -12295.693, 0.00852284, 0.09231941, -665972.5, -29047.377, 0.0, 10.000039, 9.9994545 
6.5502834e+2, 2.4500756e+2, -612726.25, -728430.0, -78.89118, -0.008895676, 0.09287802, -612726.2, -73792.11, 0.0, 10.000155, 9.99862 
6.550344e+2, 2.550062e+2, -492796.88, -617222.75, -22777.18, -0.06934579, 0.08896008, -488758.4, -47809.65, 0.0, 10.000295, 9.998643 
6.550413e+2, 2.6500487e+2, -391556.1, -500190.3, -26656.129, -0.060399335, 0.08793676, -385367.84, -42405.684, 0.0, 10.000243, 9.998799 
6.550488e+2, 2.7500364e+2, -328251.38, -416375.38, -12616.696, 0.017209265, 0.07857903, -326480.63, -81506.05, 0.0, 9.999993, 9.998821 
6.5505564e+2, 2.8500265e+2, -252360.19, -347962.22, 10831.628, 0.0031695187, 0.10740011, -251148.33, -104163.016, 0.0, 9.999921, 9.998654 
6.5506184e+2, 2.95002e+2, -143589.16, -248705.98, 10113.856, -0.10248415, 0.17223985, -142624.89, -93631.2, 0.000000011654482, 10.000011, 9.99862 
6.5506893e+2, 3.050002e+2, -87899.32, -205351.42, -21804.094, -0.077659294, 0.13543652, -83982.195, -83982.195, 0.00000041978168, 10.000097, 9.998542 
6.5507644e+2, 3.1499866e+2, 50238.27, 58647.105, 13120.028, 0.02280623, 0.120184705, 68219.92, 68219.92, 0.000002202322, 10.0001955, 10.000308 
6.6495144e+2, 1.250084e+2, -1652383.0, -1691512.0, -75061.98, 0.08507938, 0.09561754, -1594377.8, 120550.414, 0.0, 10.000484, 9.999911 
6.6495633e+2, 1.3500878e+2, -1607520.9, -1609325.5, 67452.91, -0.24489708, 0.12377854, -1540964.3, 75959.24, 0.0, 10.000025, 10.000053 
6.6496867e+2, 1.4500818e+2, -1562635.1, -1598812.8, -25745.549, 0.20180508, 0.09151144, -1549259.1, -30330.012, 0.0, 9.999952, 9.999473 
6.649725e+2, 1.5500763e+2, -1390794.5, -1461275.0, -38983.934, -0.0025099756, 0.08264587, -1373483.6, 47450.855, 0.0, 10.000444, 9.999505 
6.6497755e+2, 1.6500708e+2, -1319342.4, -1425769.3, -15960.723, -0.09555359, 0.0990666, -1317000.4, 5940.7915, 0.0, 10.000476, 9.999061 
6.649845e+2, 1.7500646e+2, -1283383.6, -1355567.4, -6718.647, -0.017251724, 0.12927598, -1282763.6, -57814.42, 0.0, 10.000042, 9.999079 
6.6499096e+2, 1.8500587e+2, -1157150.6, -1190423.9, -16158.851, 0.018086003, 0.13830826, -1150594.9, -23639.725, 0.0, 10.000004, 9.999558 
6.6499674e+2, 1.9500528e+2, -1005412.44, -1064894.8, -35804.816, -0.008716016, 0.119011186, -988607.7, 40351.285, 0.0, 10.000365, 9.999574 
6.6500276e+2, 2.0500433e+2, -967917.0, -1093787.1, -34939.47, -0.016641738, 0.11119745, -958868.8, -27900.795, 0.0, 10.00037, 9.9987 
6.65009e+2, 2.1500303e+2, -919296.94, -1016851.2, -18136.201, 0.0009905646, 0.10586351, -916034.4, -83052.01, 0.0, 10.000022, 9.998722 
6.6501546e+2, 2.2500208e+2, -780710.2, -810790.3, -3475.8188, 0.011376088, 0.09980011, -780313.75, -45323.016, 0.0, 9.999917, 9.999515 
6.65022e+2, 2.3500144e+2, -661288.3, -700401.94, -24474.977, 0.012201246, 0.08230876, -649516.3, -12522.92, 0.0, 10.000055, 9.999534 
6.6502833e+2, 2.4500036e+2, -635274.9, -756232.6, -21054.955, -0.018876756, 0.073453516, -631714.6, -92711.2, 0.0, 10.000073, 9.998469 
6.650344e+2, 2.549988e+2, -550782.75, -661970.44, -9314.418, -0.08036988, 0.06533212, -550007.8, -108987.16, 0.0, 9.999969, 9.998492 
6.650413e+2, 2.6499754e+2, -422659.88, -502444.16, -6603.946, -0.065951735, 0.06882458, -422116.94, -79083.11, 0.0, 9.999974, 9.998912 
6.650489e+2, 2.7499652e+2, -307002.75, -393303.34, -11153.71, 0.022704074, 0.07355081, -305584.53, -60541.457, 0.0, 10.000085, 9.998935 
6.650558e+2, 2.849956e+2, -246148.36, -355049.06, 1498.0033, 0.020528216, 0.10453153, -246127.77, -99074.61, 0.0, 10.00001, 9.998563 
6.65062e+2, 2.949947e+2, -185112.11, -278300.1, -6959.662, -0.072123654, 0.15654242, -184595.2, -135531.5, 0.000000008469742, 9.999769, 9.998531 
6.65069e+2, 3.0499256e+2, -134054.8, -231641.72, -25213.521, -0.06727715, 0.09309906, -127925.375, -127925.375, 0.00000038345433, 9.999799, 9.998504 
6.650764e+2, 3.149914e+2, 17414.672, 21406.22, 18652.76, 0.003922724, 0.12208829, 38169.67, 38169.67, 0.0000022156387, 10.000061, 10.000116 
6.749514e+2, 1.2500188e+2, -1695628.5, -1781684.3, -80693.51, 0.029591825, 0.084407456, -1647207.9, 67782.47, 0.0, 10.0004835, 9.999295 
6.749565e+2, 1.3500169e+2, -1646976.8, -1691486.4, 48196.06, -0.23221119, 0.11316374, -1616145.4, 848.62494, 0.0, 10.000028, 9.999488 
6.7496884e+2, 1.4500102e+2, -1542187.9, -1557500.6, -10685.713, 0.21953909, 0.090298995, -1536698.8, -17697.727, 0.0, 9.999956, 9.999754 
6.74973e+2, 1.5500106e+2, -1371352.3, -1420575.4, -20235.64, 0.0035675624, 0.10947969, -1364101.5, 56898.293, 0.0, 10.0004425, 9.999786 
6.74978e+2, 1.6500072e+2, -1303673.9, -1391499.5, -33337.508, -0.09527003, 0.1232117, -1292453.0, 30549.684, 0.0, 10.000468, 9.9993 
6.7498463e+2, 1.7500001e+2, -1266729.4, -1320765.4, -22645.184, -0.0092147095, 0.11906378, -1258494.3, -33484.414, 0.0, 10.000041, 9.999318 
6.749909e+2, 1.8499908e+2, -1193096.9, -1264454.1, -3421.323, 0.01197384, 0.109058194, -1192933.1, -65913.93, 0.0, 10.000001, 9.999051 
6.7499673e+2, 1.9499795e+2, -1041653.0, -1139359.0, -22191.41, -0.053870518, 0.08565252, -1036849.0, -7818.312, 0.0, 10.0003605, 9.999064 
6.750029e+2, 2.0499705e+2, -937158.7, -1028413.9, -49115.836, -0.042533785, 0.085679, -915747.2, 15292.263, 0.0, 10.000363, 9.999152 
6.750096e+2, 2.149964e+2, -887887.75, -951161.25, -31073.451, 0.05499818, 0.101399094, -875179.9, -42134.37, 0.0, 10.000018, 9.999175 
6.750159e+2, 2.2499546e+2, -820184.4, -891527.8, 1018.2748, 0.06294256, 0.101238854, -820169.8, -85116.0, 0.0, 9.999912, 9.998963 
6.750217e+2, 2.349942e+2, -700375.75, -781045.94, -18638.781, -0.02071999, 0.074852295, -696277.44, -59212.758, 0.0, 10.000052, 9.998981 
6.750281e+2, 2.4499296e+2, -613251.06, -709680.0, -25468.73, -0.050475303, 0.061088983, -606937.6, -67860.92, 0.0, 10.00007, 9.99879 
6.75035e+2, 2.5499168e+2, -528961.6, -615931.25, -12727.118, -0.02459076, 0.050928514, -527137.44, -86047.55, 0.0, 9.999966, 9.998811 
6.7504174e+2, 2.6499066e+2, -431648.56, -520196.03, -2667.2424, -0.017415898, 0.070357166, -431568.28, -88467.9, 0.0, 9.99997, 9.998792 
6.750485e+2, 2.749899e+2, -316205.75, -410581.47, -6308.864, -0.028644979, 0.11050898, -315785.88, -70677.734, 0.0, 10.000077, 9.99882 
6.7505556e+2, 2.8498864e+2, -258851.05, -380189.56, -8038.381, -0.009480811, 0.12575874, -258320.84, -111199.82, 0.0, 10.000004, 9.998392 
6.7506295e+2, 2.9498693e+2, -198376.58, -303870.97, -14631.494, 0.037224688, 0.10945607, -196384.88, -147245.89, 0.0000000040864183, 9.999762, 9.99836 
6.7506963e+2, 3.0498463e+2, -127598.05, -216644.02, -14658.325, 0.018823616, 0.033129312, -125247.13, -125247.13, 0.0000003121116, 9.999792, 9.9986105 
6.750757e+2, 3.1498465e+2, 5798.4404, 1352.102, 30561.04, -0.07281976, 0.16779155, 34217.066, 34217.066, 0.0000020914758, 10.000044, 9.999986 
6.849518e+2, 1.249953e+2, -1719864.1, -1807190.5, -77271.516, 0.032588996, 0.0814636, -1674772.9, 40280.715, 0.0, 10.000378, 9.999171 
6.8495685e+2, 1.3499498e+2, -1569900.3, -1664035.4, 70393.19, -0.22796032, 0.10502345, -1532288.6, 84770.29, 0.0, 10.000601, 9.999399 
6.849689e+2, 1.449942e+2, -1477190.3, -1535303.9, 24056.18, 0.20906192, 0.079275005, -1468524.4, 50542.945, 0.0, 10.0004425, 9.999672 
6.849733e+2, 1.5499426e+2, -1431182.0, -1458741.5, -12808.8125, 0.00834587, 0.11123339, -1426148.3, -5082.185, 0.0, 10.000073, 9.999701 
6.849783e+2, 1.649939e+2, -1355853.5, -1404949.8, -47138.13, -0.08670696, 0.120397694, -1327254.5, -4185.4834, 0.0, 10.000062, 9.999402 
6.8498486e+2, 1.7499307e+2, -1206120.9, -1280213.0, -48926.71, -0.007871614, 0.093599685, -1181797.3, 43279.176, 0.0, 10.000409, 9.999418 
6.8499106e+2, 1.8499213e+2, -1151839.3, -1257866.9, -20183.254, 0.012456223, 0.08394987, -1148127.1, -21041.246, 0.0, 10.000341, 9.998932 
6.8499684e+2, 1.9499113e+2, -1121954.3, -1190070.3, -9706.51, -0.050354794, 0.08435471, -1120598.1, -91500.93, 0.0, 9.999865, 9.998954 
6.85003e+2, 2.0499031e+2, -1004482.6, -1049886.3, -29159.445, -0.040999718, 0.09342477, -990229.8, -59124.457, 0.0, 9.999856, 9.999248 
6.850097e+2, 2.1498969e+2, -836948.94, -916315.0, -39655.754, 0.04896986, 0.10291722, -820531.0, 12579.542, 0.0, 10.000323, 9.999268 
6.85016e+2, 2.2498867e+2, -767009.25, -894230.94, -14417.623, 0.055054814, 0.10147166, -765395.8, -30275.729, 0.0, 10.000399, 9.998711 
6.8502176e+2, 2.3498718e+2, -713596.44, -814697.4, -12897.687, -0.025105482, 0.07891101, -711977.0, -74842.84, 0.0, 10.000081, 9.998735 
6.8502814e+2, 2.4498595e+2, -629104.3, -699602.3, -13308.216, -0.04095161, 0.07067149, -626675.75, -87529.56, 0.0, 9.999886, 9.998947 
6.8503517e+2, 2.549849e+2, -540014.6, -603333.94, -13351.035, 0.007948161, 0.06690815, -537314.6, -96158.38, 0.0, 9.999814, 9.998969 
6.850419e+2, 2.649839e+2, -460125.6, -546031.6, -89.63124, 0.009555078, 0.08403488, -460125.5, -116958.91, 0.0, 9.999828, 9.998683 
6.850484e+2, 2.749829e+2, -343644.4, -436115.44, -4628.601, -0.034420766, 0.112531796, -343413.3, -98236.08, 0.0, 9.999941, 9.99871 
6.850555e+2, 2.849816e+2, -248384.19, -372504.0, -4850.785, -0.01839024, 0.12551711, -248194.89, -101004.086, 0.0, 10.000065, 9.998415 
6.8506306e+2, 2.9497996e+2, -134574.78, -269443.6, 1914.2577, 0.053605363, 0.11496393, -134547.63, -85340.28, 0.0000000009738006, 10.000185, 9.998392 
6.8506956e+2, 3.0497766e+2, -99109.55, -184254.0, 8407.359, 0.031003885, 0.032149576, -98287.33, -98287.33, 0.00000022618863, 9.9999075, 9.998777 
6.8507534e+2, 3.1497794e+2, -116784.59, -68239.82, 54598.203, -0.07180751, 0.17183912, -32761.787, -32761.787, 0.0000018666766, 9.999249, 9.99989 
6.9495285e+2, 1.24988705e+2, -1693523.9, -1755801.5, -56649.582, 0.093093514, 0.08292162, -1660019.0, 55098.777, 0.0, 10.000389, 9.99952 
6.949573e+2, 1.349887e+2, -1543301.1, -1607076.0, 76914.74, -0.23616043, 0.09833496, -1491925.8, 125191.94, 0.0, 10.000594, 9.999792 
6.9496894e+2, 1.4498773e+2, -1509807.4, -1600702.1, 7436.8994, 0.16591175, 0.056970067, -1509203.0, 9924.672, 0.0, 10.000434, 9.999228 
6.949734e+2, 1.5498734e+2, -1461937.6, -1523254.6, -25451.232, 0.0073381397, 0.087777376, -1452750.1, -31617.121, 0.0, 10.000076, 9.999257 
6.9497854e+2, 1.6498666e+2, -1359976.5, -1413776.6, -35079.6, -0.07580034, 0.09024032, -1342670.4, -19530.447, 0.0, 10.000063, 9.999341 
6.9498515e+2, 1.7498566e+2, -1210976.0, -1289486.9, -36048.813, -0.017049668, 0.052696668, -1196935.0, 28213.79, 0.0, 10.000405, 9.999357 
6.9499147e+2, 1.8498503e+2, -1132712.5, -1216266.0, -39213.914, 0.015373292, 0.06273449, -1117191.5, 9963.474, 0.0, 10.000334, 9.999222 
6.949972e+2, 1.9498482e+2, -1102008.1, -1147865.4, -27333.771, -0.0000056149674, 0.11388879, -1089259.6, -60101.344, 0.0, 9.999861, 9.999246 
6.950031e+2, 2.0498411e+2, -1023711.2, -1089087.8, -12472.766, -0.014527629, 0.13310173, -1021412.44, -90246.83, 0.0, 9.999852, 9.998981 
6.9500935e+2, 2.1498291e+2, -856638.6, -956241.8, -21699.713, -0.020218207, 0.110806346, -852116.44, -18939.176, 0.0, 10.000319, 9.998997 
6.9501567e+2, 2.2498168e+2, -764076.7, -887166.9, -27213.277, -0.01610254, 0.10085927, -758328.7, -23139.383, 0.0, 10.000394, 9.998761 
6.9502205e+2, 2.3498042e+2, -710383.75, -808005.44, -24560.32, -0.003969732, 0.09446611, -704553.0, -67351.26, 0.0, 10.00008, 9.998783 
6.950285e+2, 2.4497935e+2, -628749.4, -698702.5, -16490.307, 0.0061335927, 0.101357654, -625056.94, -85845.08, 0.0, 9.999885, 9.998954 
6.9503504e+2, 2.5497845e+2, -539850.7, -602303.9, -15440.486, 0.015319421, 0.11213089, -536241.8, -95022.04, 0.0, 9.99981, 9.998979 
6.9504184e+2, 2.6497722e+2, -467866.44, -560995.9, 3801.1719, 0.013031931, 0.10848897, -467711.56, -124479.08, 0.0, 9.999824, 9.998583 
6.950487e+2, 2.7497557e+2, -352594.66, -452764.6, 471.11447, 0.0006163523, 0.081374094, -352592.44, -107342.33, 0.0, 9.999933, 9.998599 
6.950556e+2, 2.849744e+2, -234592.56, -342026.3, -299.77725, -0.011209474, 0.10524534, -234591.73, -87329.45, 0.0, 10.000057, 9.998629 
6.9506246e+2, 2.9497373e+2, -120339.734, -237161.84, 7468.1436, -0.02485205, 0.1718437, -119864.25, -70595.29, 0.000000000021633938, 10.000173, 9.998619 
6.950689e+2, 3.0497167e+2, -84102.71, -151179.3, -17283.314, -0.031939212, 0.08881854, -79911.31, -79911.31, 0.00000014519733, 9.9999, 9.999008 
6.950753e+2, 3.1497136e+2, -122801.484, -78415.18, 29849.11, -0.0032936628, 0.14477713, -63412.832, -63412.832, 0.0000015881137, 9.99924, 9.999825 
7.0495325e+2, 1.2498153e+2, -1665399.6, -1726254.3, -57649.8, 0.093897924, 0.049438868, -1630640.1, 84547.35, 0.0, 10.000512, 9.999663 
7.049579e+2, 1.3498196e+2, -1564541.6, -1596862.3, 43020.38, -0.23070484, 0.09279955, -1534746.4, 82435.94, 0.0, 10.000364, 9.999971 
7.0496917e+2, 1.4498109e+2, -1541616.4, -1629957.4, -25835.15, 0.15519492, 0.05518445, -1534615.8, -15424.047, 0.0, 10.000277, 9.999102 
7.0497364e+2, 1.5498044e+2, -1421515.8, -1518290.0, -34510.168, 0.009755687, 0.074577145, -1410470.0, 10730.129, 0.0, 10.000418, 9.9991255 
7.0497876e+2, 1.6497971e+2, -1320696.4, -1399003.3, -25085.352, -0.07353052, 0.08025213, -1313349.6, 9858.368, 0.0, 10.00035, 9.999305 
7.0498526e+2, 1.7497885e+2, -1263577.8, -1318245.8, -24674.88, -0.032175474, 0.06020961, -1254087.9, -28872.121, 0.0, 10.00006, 9.999325 
7.049916e+2, 1.8497823e+2, -1170363.3, -1232423.9, -39590.676, 0.005547353, 0.07174015, -1151091.4, -23869.682, 0.0, 10.000069, 9.999237 
7.049975e+2, 1.9497788e+2, -1024823.25, -1109757.1, -50766.54, 0.018290112, 0.1075959, -1001103.5, 28122.518, 0.0, 10.000386, 9.999254 
7.0500344e+2, 2.0497711e+2, -945873.5, -1058468.9, -31054.717, 0.004458729, 0.12369726, -937876.4, -6642.535, 0.0, 10.000416, 9.99892 
7.050095e+2, 2.1497594e+2, -884189.06, -975538.3, -25388.504, -0.028640404, 0.10975993, -877607.1, -44361.664, 0.0, 10.000157, 9.99894 
7.050158e+2, 2.2497478e+2, -806988.7, -896221.5, -28363.283, -0.023832528, 0.10374326, -798736.4, -63479.414, 0.0, 10.000051, 9.998864 
7.0502234e+2, 2.3497362e+2, -700705.4, -791813.06, -22598.367, 0.016387993, 0.09756807, -695408.06, -58139.7, 0.0, 10.000096, 9.998886 
7.050287e+2, 2.4497256e+2, -601693.25, -695132.56, -11287.676, 0.02524154, 0.104146436, -600349.0, -61070.555, 0.0, 10.000112, 9.99887 
7.050349e+2, 2.5497156e+2, -503002.38, -593924.2, -18769.49, 0.003567876, 0.11379237, -499280.06, -57992.766, 0.0, 10.000104, 9.998895 
7.0504165e+2, 2.649702e+2, -451942.22, -561351.75, -2866.3484, 0.0051020607, 0.109945364, -451867.16, -108566.2, 0.0, 9.999968, 9.998511 
7.050488e+2, 2.749685e+2, -392237.7, -479322.1, -4294.937, 0.030954467, 0.0831267, -392026.38, -146706.7, 0.0, 9.999694, 9.998532 
7.0505565e+2, 2.8496745e+2, -309255.94, -358360.8, -1400.4565, 0.020582795, 0.10904574, -309216.03, -161884.95, 0.0, 9.99946, 9.998804 
7.0506215e+2, 2.9496697e+2, -236482.11, -272758.97, 2247.1912, -0.027805207, 0.18063702, -236343.44, -187008.38, 0.0, 9.999288, 9.998801 
7.050684e+2, 3.0496517e+2, -131138.64, -156219.98, -26210.303, -0.049039416, 0.10392097, -114623.36, -114623.36, 0.00000008201181, 9.9995, 9.999166 
7.05075e+2, 3.1496453e+2, -7981.387, -33174.367, 11428.896, 0.0035962157, 0.116439685, -3569.3135, -3569.3135, 0.0000012936833, 10.00007, 9.999737 
7.149531e+2, 1.24973804e+2, -1670598.0, -1736740.3, -53263.785, 0.030447949, -0.021181379, -1640973.5, 74288.76, 0.0, 10.000509, 9.999595 
7.1495837e+2, 1.3497485e+2, -1565953.6, -1600925.1, 36701.38, -0.21751311, 0.088082835, -1542785.4, 74466.91, 0.0, 10.00037, 9.99994 
7.149696e+2, 1.4497428e+2, -1529243.5, -1604661.4, -23620.223, 0.1701059, 0.073177576, -1522456.6, -3197.4927, 0.0, 10.000278, 9.999273 
7.1497405e+2, 1.5497358e+2, -1410124.0, -1493892.0, -28828.777, 0.011819471, 0.071209446, -1401161.5, 20106.01, 0.0, 10.000414, 9.999295 
7.14979e+2, 1.6497307e+2, -1321187.8, -1398194.3, -36316.652, -0.08395541, 0.089412816, -1306762.8, 16510.48, 0.0, 10.000342, 9.999313 
7.1498513e+2, 1.7497267e+2, -1262798.9, -1316651.6, -34773.793, -0.055786997, 0.11539565, -1245745.1, -20468.295, 0.0, 10.00006, 9.999336 
7.149914e+2, 1.8497175e+2, -1190391.9, -1273554.6, -28410.174, -0.021242822, 0.11006381, -1181613.1, -54327.316, 0.0, 10.000066, 9.998957 
7.1499777e+2, 1.9497032e+2, -1045437.5, -1151601.6, -38565.04, 0.0006934476, 0.066564694, -1032907.3, -3607.2854, 0.0, 10.000381, 9.99897 
7.1500397e+2, 2.0496933e+2, -936228.06, -1036987.7, -41702.15, 0.012327354, 0.066012904, -921207.6, 10102.145, 0.0, 10.000409, 9.999071 
7.150101e+2, 2.1496879e+2, -874112.7, -953810.0, -34880.83, 0.02137092, 0.099063836, -861003.0, -27687.97, 0.0, 10.000153, 9.999093 
7.1501637e+2, 2.2496793e+2, -795545.56, -871941.1, -27508.291, 0.029204078, 0.10923998, -786671.3, -51348.203, 0.0, 10.000048, 9.999033 
7.1502256e+2, 2.349668e+2, -689694.94, -768060.5, -20304.4, 0.03357205, 0.08829718, -684746.56, -47412.58, 0.0, 10.0000925, 9.999052 
7.150287e+2, 2.4496558e+2, -615131.75, -721836.3, -12191.554, 0.013277774, 0.07946134, -613756.5, -74410.79, 0.0, 10.000106, 9.998689 
7.1503466e+2, 2.5496426e+2, -516489.97, -621570.56, -18583.518, -0.030025685, 0.073583804, -513300.28, -71941.73, 0.0, 10.000102, 9.998706 
7.150414e+2, 2.6496297e+2, -454056.25, -565868.3, -13442.015, -0.016812121, 0.0889303, -452462.94, -109090.984, 0.0, 9.999968, 9.998481 
7.1504873e+2, 2.7496177e+2, -394398.72, -483070.1, -13993.727, 0.05361481, 0.11644535, -392242.7, -146856.66, 0.0, 9.999691, 9.998508 
7.1505564e+2, 2.849607e+2, -299942.47, -338297.34, -8499.144, 0.07293415, 0.13627988, -298143.5, -150746.25, 0.0, 9.999457, 9.998943 
7.150621e+2, 2.9495975e+2, -227650.89, -252969.53, -3177.0886, 0.039028063, 0.14357907, -227258.31, -177852.95, 0.0, 9.999282, 9.99894 
7.1506816e+2, 3.0495816e+2, -126060.195, -143720.47, -4923.442, -0.024557365, 0.07826822, -124780.36, -124780.36, 0.00000004119849, 9.999492, 9.999256 
7.150745e+2, 3.1495768e+2, -18968.822, -51389.555, 32513.455, -0.057026695, 0.09662464, 1151.2512, 1151.2512, 0.0000010048329, 10.000051, 9.999621 
7.249536e+2, 1.2496725e+2, -1657060.6, -1749797.5, -21330.846, 0.019513197, -0.010129351, -1652389.5, 62937.01, 0.0, 10.000682, 9.999423 
7.2495884e+2, 1.3496804e+2, -1564444.5, -1616649.6, 46007.633, -0.20759758, 0.08977615, -1537650.5, 79668.984, 0.0, 10.000454, 9.999791 
7.2496974e+2, 1.4496744e+2, -1521954.5, -1589553.8, -9482.4375, 0.15953277, 0.07360979, -1520649.5, -1322.9722, 0.0, 10.000278, 9.999376 
7.249743e+2, 1.549669e+2, -1420586.4, -1487640.3, -19410.918, -0.0006681243, 0.07740296, -1415372.6, 5960.256, 0.0, 10.000295, 9.999394 
7.249793e+2, 1.6496643e+2, -1328008.4, -1411334.1, -38794.035, -0.08802291, 0.09888867, -1312743.5, 10594.747, 0.0, 10.000339, 9.999225 
7.249855e+2, 1.7496595e+2, -1217662.6, -1305321.6, -46701.5, -0.043070726, 0.12513436, -1197444.9, 27898.328, 0.0, 10.000415, 9.999244 
7.249917e+2, 1.8496495e+2, -1141592.9, -1254344.5, -25496.344, -0.01358994, 0.11730389, -1136095.5, -8742.625, 0.0, 10.000419, 9.998919 
7.249979e+2, 1.9496341e+2, -1051547.9, -1157940.3, -17327.984, -0.019456046, 0.06764175, -1048796.8, -19429.361, 0.0, 10.000356, 9.998937 
7.2500414e+2, 2.0496227e+2, -963602.9, -1055039.6, -29440.486, -0.0009135235, 0.056322772, -954943.75, -23565.47, 0.0, 10.000242, 9.999027 
7.250106e+2, 2.1496151e+2, -888775.3, -966061.0, -38694.055, 0.049384963, 0.07430344, -872732.7, -39347.137, 0.0, 10.000073, 9.999047 
7.250167e+2, 2.2496071e+2, -800719.75, -869582.06, -33292.992, 0.058610484, 0.08709275, -787255.94, -51862.504, 0.0, 9.99999, 9.999077 
7.2502255e+2, 2.3495981e+2, -698543.75, -767016.6, -36805.684, 0.0241745, 0.08555913, -682513.0, -45110.965, 0.0, 10.000009, 9.999099 
7.2502863e+2, 2.4495864e+2, -627603.75, -734662.3, -27806.367, -0.0018882549, 0.082535766, -620812.44, -81398.95, 0.0, 10.00005, 9.998629 
7.250349e+2, 2.5495717e+2, -519922.16, -629567.1, -25212.152, -0.018087436, 0.06884835, -514402.63, -72974.66, 0.0, 10.000106, 9.99865 
7.250415e+2, 2.6495588e+2, -436579.5, -558286.25, -20929.205, -0.0047463607, 0.08458937, -433081.0, -89639.18, 0.0, 10.000092, 9.998473 
7.250484e+2, 2.7495474e+2, -347696.84, -461482.72, -21441.322, 0.038344465, 0.12083923, -343790.66, -98335.586, 0.0, 10.000015, 9.998502 
7.250552e+2, 2.8495362e+2, -235758.55, -313405.4, -20282.855, 0.06273025, 0.1376944, -230779.55, -83312.6, 0.0, 9.999923, 9.99889 
7.250619e+2, 2.9495248e+2, -153300.03, -223076.9, -29628.781, 0.065903954, 0.13037282, -142416.56, -92939.3, 0.0, 9.999817, 9.998889 
7.25068e+2, 3.0495122e+2, -115042.64, -133304.5, -31495.918, 0.0060440316, 0.09810054, -91380.79, -91380.79, 0.000000018939705, 9.999546, 9.999302 
7.2507423e+2, 3.149506e+2, -161617.52, -126955.07, -1243.5679, -0.041036554, 0.099103324, -126910.51, -126910.51, 0.0000007295325, 9.9991, 9.99956 
7.3495466e+2, 1.2496187e+2, -1677206.4, -1791466.9, -19863.305, 0.054211687, 0.08109103, -1673851.8, 41528.22, 0.0, 10.00068, 9.99914 
7.3495936e+2, 1.3496156e+2, -1583732.0, -1655485.5, 36064.24, -0.20443684, 0.09744657, -1568738.6, 48645.02, 0.0, 10.00045, 9.999525 
7.349697e+2, 1.4496058e+2, -1518965.9, -1582786.0, -10761.485, 0.118762776, 0.055056196, -1517200.0, 2193.8823, 0.0, 10.000277, 9.999424 
7.349743e+2, 1.5496044e+2, -1417166.5, -1481720.6, -17603.9, -0.031830203, 0.09242071, -1412678.0, 8718.097, 0.0, 10.0002985, 9.9994335 
7.349796e+2, 1.649598e+2, -1342864.5, -1441943.1, -36639.76, -0.09080601, 0.1075233, -1330787.1, -7384.37, 0.0, 10.000338, 9.999016 
7.349863e+2, 1.7495868e+2, -1232569.5, -1335974.9, -43660.445, 0.0032495405, 0.09014358, -1216601.0, 8813.505, 0.0, 10.000413, 9.999034 
7.349925e+2, 1.8495779e+2, -1126941.8, -1222743.6, -28762.547, 0.02537737, 0.093374014, -1118969.8, 8453.14, 0.0, 10.000414, 9.999138 
7.34998e+2, 1.9495714e+2, -1036274.2, -1125834.8, -19542.107, -0.044651803, 0.10958103, -1032195.8, -2767.7087, 0.0, 10.000354, 9.999159 
7.35004e+2, 2.0495595e+2, -980702.06, -1089579.8, -36591.83, -0.038573463, 0.09350315, -969547.06, -38107.754, 0.0, 10.000238, 9.998793 
7.350107e+2, 2.149542e+2, -906410.2, -1001492.75, -44693.938, 0.052358303, 0.036262568, -888700.25, -55243.44, 0.0, 10.000068, 9.998807 
7.350167e+2, 2.2495311e+2, -807291.6, -882093.1, -33695.22, 0.061599564, 0.038046125, -794351.7, -58883.855, 0.0, 9.999986, 9.998994 
7.350221e+2, 2.3495267e+2, -704417.06, -779273.56, -35862.984, -0.013902683, 0.08973673, -690008.8, -52536.33, 0.0, 10.000009, 9.999016 
7.3502845e+2, 2.4495175e+2, -622388.94, -723803.8, -26224.826, -0.023119662, 0.11277587, -616008.9, -76527.2, 0.0, 10.000049, 9.998704 
7.3503554e+2, 2.5495034e+2, -515258.16, -618417.5, -22589.313, 0.03531946, 0.09842602, -510528.5, -69033.0, 0.0, 10.000099, 9.99873 
7.3504204e+2, 2.6494893e+2, -436942.88, -557285.4, -24060.213, 0.037401654, 0.096489444, -432310.78, -88800.42, 0.0, 10.000084, 9.998484 
7.3504794e+2, 2.7494746e+2, -348486.34, -461846.63, -23465.252, -0.016562136, 0.09850393, -343821.1, -98294.68, 0.0, 10.00001, 9.998502 
7.3505443e+2, 2.849462e+2, -252156.28, -346427.97, -24219.574, -0.011555141, 0.11433142, -246298.02, -98758.05, 0.0, 9.999918, 9.998666 
7.350616e+2, 2.9494515e+2, -169450.48, -255323.56, -31809.05, 0.049858447, 0.1386478, -158951.44, -109400.75, 0.0, 9.999811, 9.99867 
7.3506784e+2, 3.0494434e+2, -116974.31, -136386.06, -47773.21, 0.03769162, 0.16152488, -77931.0, -77931.0, 0.0000000073965225, 9.999542, 9.999283 
7.350741e+2, 3.1494346e+2, -166525.89, -133956.02, -18583.695, 0.0405147, 0.13748221, -125531.586, -125531.586, 0.0000004773962, 9.999086, 9.999518 
7.4495554e+2, 1.249554e+2, -1663003.9, -1780788.4, -50575.816, 0.06897568, 0.11304472, -1644267.5, 71176.53, 0.0, 10.000762, 9.999172 
7.4496e+2, 1.3495483e+2, -1546367.0, -1632614.6, 14320.431, -0.19668478, 0.096948065, -1544051.5, 73398.14, 0.0, 10.000688, 9.999566 
7.4496984e+2, 1.449537e+2, -1490164.4, -1583498.3, -22062.441, 0.09842259, 0.045796778, -1485212.0, 34249.04, 0.0, 10.000535, 9.999295 
7.4497455e+2, 1.5495355e+2, -1404588.8, -1490172.6, -41388.375, -0.04205798, 0.096020505, -1387847.9, 33615.758, 0.0, 10.000447, 9.999305 
7.4498e+2, 1.6495284e+2, -1325185.3, -1429375.5, -51509.883, -0.091144495, 0.1089943, -1304019.5, 19451.598, 0.0, 10.000442, 9.999051 
7.449869e+2, 1.7495158e+2, -1214943.3, -1323397.5, -40905.777, 0.009458824, 0.07368511, -1201245.0, 24238.621, 0.0, 10.000517, 9.999069 
7.4499303e+2, 1.8495074e+2, -1124120.1, -1218607.9, -31839.1, 0.035548583, 0.07893474, -1114392.9, 13098.532, 0.0, 10.00042, 9.999164 
7.4499834e+2, 1.9495033e+2, -1064696.0, -1137156.3, -38748.89, -0.03439864, 0.11711101, -1047878.0, -18383.576, 0.0, 10.000147, 9.999183 
7.450042e+2, 2.0494917e+2, -1006989.06, -1113686.1, -50548.406, -0.037803352, 0.107873425, -986844.7, -55338.97, 0.0, 10.000107, 9.998691 
7.450106e+2, 2.1494724e+2, -878109.2, -998622.56, -49591.715, 0.033610046, 0.041524284, -860326.06, -26800.473, 0.0, 10.00031, 9.99871 
7.450167e+2, 2.2494608e+2, -756314.6, -865415.2, -33420.367, 0.046091292, 0.044823695, -746891.06, -11353.492, 0.0, 10.000369, 9.998924 
7.450224e+2, 2.349457e+2, -671566.7, -770978.06, -35307.68, -0.0033735728, 0.10923546, -660302.8, -22761.115, 0.0, 10.000267, 9.998948 
7.450287e+2, 2.4494475e+2, -611382.6, -713702.44, -27052.135, -0.0084465, 0.13109569, -604670.6, -65119.48, 0.0, 10.000105, 9.998746 
7.4503547e+2, 2.5494325e+2, -542789.75, -627220.6, -27640.654, 0.031671517, 0.1015, -534545.8, -92979.7, 0.0, 9.999891, 9.99877 
7.4504185e+2, 2.649419e+2, -472688.84, -555492.8, -23286.111, 0.031876568, 0.095170885, -466589.6, -123009.57, 0.0, 9.999755, 9.998655 
7.4504787e+2, 2.7494067e+2, -380598.56, -458451.94, -11137.79, -0.006726802, 0.10341645, -379036.53, -133443.5, 0.0, 9.999706, 9.998672 
7.450543e+2, 2.849394e+2, -286497.4, -369287.94, 3113.7908, -0.0051100976, 0.115714744, -286380.47, -138774.22, 0.0, 9.999709, 9.99861 
7.4506116e+2, 2.949382e+2, -180981.94, -267036.75, 6098.961, 0.034167983, 0.12756488, -180551.83, -130932.484, 0.0, 9.999758, 9.998615 
7.4506736e+2, 3.049377e+2, -83384.05, -137445.14, -11688.526, 0.025323758, 0.19200759, -80965.11, -80965.11, 0.0000000015345106, 9.999847, 9.999129 
7.450739e+2, 3.1493658e+2, -38285.023, -80857.6, 2201.4521, 0.06587257, 0.1614485, -38171.484, -38171.484, 0.00000026410652, 10.000005, 9.99944 
7.549562e+2, 1.2494787e+2, -1640479.3, -1734650.6, -46063.926, 0.052029606, 0.08522338, -1621694.3, 93824.2, 0.0, 10.000763, 9.999489 
7.5496083e+2, 1.3494782e+2, -1523357.5, -1583793.8, 10289.455, -0.18801135, 0.08718105, -1521653.8, 95863.8, 0.0, 10.000684, 9.999903 
7.549703e+2, 1.449468e+2, -1511901.4, -1627765.4, -27735.957, 0.09500178, 0.0449363, -1505604.0, 13923.88, 0.0, 10.000532, 9.998993 
7.549751e+2, 1.5494627e+2, -1425081.5, -1533227.0, -44197.574, -0.03396907, 0.088886745, -1409316.6, 12218.843, 0.0, 10.000449, 9.999009 
7.549804e+2, 1.649456e+2, -1304499.3, -1386801.5, -49485.418, -0.09353369, 0.10292659, -1281290.3, 42252.53, 0.0, 10.0004425, 9.999344 
7.54987e+2, 1.7494468e+2, -1194515.8, -1281826.8, -37820.027, -0.02790188, 0.07442798, -1180411.8, 45138.8, 0.0, 10.000519, 9.999354 
7.549932e+2, 1.8494383e+2, -1137076.3, -1244109.1, -42890.18, 0.012211342, 0.07255378, -1122010.1, 5548.225, 0.0, 10.000414, 9.998992 
7.549989e+2, 1.9494304e+2, -1077624.6, -1163208.4, -48842.78, 0.009526985, 0.09065188, -1055479.9, -25913.725, 0.0, 10.000143, 9.999005 
7.5500464e+2, 2.0494199e+2, -1005764.25, -1110062.1, -44058.434, -0.0001418629, 0.0995351, -989644.2, -58066.83, 0.0, 10.000101, 9.998718 
7.550105e+2, 2.1494064e+2, -876280.56, -994154.56, -41949.92, -0.010226545, 0.08947039, -862875.56, -29283.617, 0.0, 10.000306, 9.998742 
7.5501674e+2, 2.2493961e+2, -760178.56, -872051.5, -37978.44, 0.007824528, 0.10671703, -748504.0, -12901.33, 0.0, 10.000362, 9.998881 
7.5502324e+2, 2.3493892e+2, -675712.9, -778161.3, -38859.824, 0.05289033, 0.14370197, -662640.9, -25031.379, 0.0, 10.00026, 9.998901 
7.550293e+2, 2.4493767e+2, -612011.9, -713835.3, -35562.58, 0.04035365, 0.13779342, -600821.25, -61199.51, 0.0, 10.0001, 9.998747 
7.5503474e+2, 2.549359e+2, -543469.6, -627993.4, -35086.188, -0.030948335, 0.07921407, -530803.3, -89163.67, 0.0, 9.999888, 9.998766 
7.5504106e+2, 2.6493475e+2, -449263.84, -506464.44, -25364.82, -0.024141962, 0.08085229, -439636.5, -95985.84, 0.0, 9.999753, 9.998993 
7.550483e+2, 2.7493432e+2, -356582.78, -407859.53, -11788.672, 0.062766045, 0.13239, -354002.38, -108347.41, 0.0, 9.999702, 9.999022 
7.5505483e+2, 2.8493327e+2, -281111.88, -356804.44, 4941.544, 0.07693447, 0.14059973, -280790.63, -133124.78, 0.0, 9.999703, 9.998698 
7.5506073e+2, 2.9493162e+2, -176775.39, -256155.4, 9016.144, 0.014957324, 0.10260718, -175764.2, -126081.31, 0.0, 9.999748, 9.998694 
7.5506663e+2, 3.049313e+2, -102714.7, -175082.22, -6555.609, -0.03465495, 0.19465527, -102125.64, -102125.64, 0.00000000001992495, 9.999837, 9.998875 
7.5507355e+2, 3.1493002e+2, -47946.508, -97588.414, 8299.357, 0.029683515, 0.17505766, -46595.74, -46595.74, 0.000000109993245, 9.99999, 9.999332 
7.649566e+2, 1.2494032e+2, -1674573.3, -1751779.9, -31157.484, 0.032747388, 0.04851225, -1663568.1, 52023.996, 0.0, 10.000528, 9.999486 
7.649615e+2, 1.3494061e+2, -1528047.1, -1585624.3, -10683.688, -0.1820879, 0.08579783, -1526128.6, 91459.93, 0.0, 10.000651, 9.999906 
7.649709e+2, 1.449398e+2, -1496562.0, -1607629.5, -48226.867, 0.096527286, 0.05569332, -1478544.1, 41053.07, 0.0, 10.000583, 9.999107 
7.649758e+2, 1.5493917e+2, -1418013.5, -1517246.9, -33423.535, -0.011054364, 0.07884258, -1407805.9, 13799.144, 0.0, 10.0004425, 9.999122 
7.6498103e+2, 1.6493858e+2, -1310642.3, -1386562.4, -25684.078, -0.07510764, 0.09439419, -1302769.5, 20841.697, 0.0, 10.000383, 9.999375 
7.649873e+2, 1.7493795e+2, -1207890.4, -1284498.4, -34528.62, -0.045898452, 0.09030557, -1194624.9, 30991.807, 0.0, 10.00041, 9.99939 
7.649934e+2, 1.8493702e+2, -1136670.4, -1253124.9, -50519.617, -0.01400946, 0.0827358, -1117809.0, 9816.471, 0.0, 10.000457, 9.99891 
7.649992e+2, 1.9493577e+2, -1028034.6, -1148573.8, -50333.965, 0.004940099, 0.06375398, -1009780.75, 19857.35, 0.0, 10.000524, 9.998921 
7.6500493e+2, 2.0493484e+2, -936150.3, -1060383.4, -30440.68, 0.0011631985, 0.08149945, -929092.44, 2555.667, 0.0, 10.000509, 9.998863 
7.650107e+2, 2.1493419e+2, -852408.8, -966806.6, -20775.867, -0.020673629, 0.12693937, -848752.56, -15096.945, 0.0, 10.0004015, 9.998884 
7.650169e+2, 2.249332e+2, -784456.8, -891932.94, -21195.422, -0.0035549442, 0.14492491, -780427.9, -44762.043, 0.0, 10.000234, 9.998806 
7.6502335e+2, 2.3493187e+2, -718347.6, -807743.7, -26419.0, 0.05132385, 0.12617132, -711123.8, -73444.8, 0.0, 10.000008, 9.99882 
7.650293e+2, 2.4493054e+2, -637659.4, -721063.94, -19455.887, 0.04515605, 0.11409255, -633344.1, -93651.92, 0.0, 9.999901, 9.998794 
7.6503474e+2, 2.5492924e+2, -535696.06, -619044.06, -16517.705, -0.023579711, 0.10008143, -532541.94, -90836.52, 0.0, 9.99992, 9.998812 
7.6504093e+2, 2.6492825e+2, -431069.16, -504796.47, -17083.771, -0.018621547, 0.115538396, -427302.97, -83587.67, 0.0, 9.99991, 9.998927 
7.65048e+2, 2.7492756e+2, -337563.44, -405941.5, -35892.285, 0.06277642, 0.14904301, -322182.84, -76460.77, 0.0, 9.999866, 9.998955 
7.6505464e+2, 2.8492635e+2, -265556.78, -339595.28, -33275.063, 0.08445697, 0.14273739, -252799.98, -105065.95, 0.0, 9.999768, 9.998786 
7.650607e+2, 2.949247e+2, -186636.98, -251747.7, -30430.98, 0.043017752, 0.09515072, -174628.95, -124878.305, 0.0, 9.99964, 9.998777 
7.650665e+2, 3.0492455e+2, -124447.734, -186181.7, -27515.635, -0.020731863, 0.19766827, -113964.01, -113964.01, 0.0, 9.999688, 9.998871 
7.650732e+2, 3.1492293e+2, -48103.18, -72273.26, 1765.8717, 0.0014798685, 0.14627513, -47974.844, -47974.844, 0.000000028836135, 9.999879, 9.99956 
7.749568e+2, 1.24932826e+2, -1698613.6, -1799272.8, -20695.045, 0.0034236063, 0.007050941, -1694524.9, 21139.518, 0.00000000003061157, 10.000519, 9.999166 
7.749622e+2, 1.3493328e+2, -1551546.1, -1633735.1, -6915.9287, -0.18429928, 0.09322306, -1550968.3, 66694.27, 0.0, 10.000649, 9.999575 
7.749715e+2, 1.4493269e+2, -1458227.9, -1529003.5, -55838.914, 0.09544166, 0.07776964, -1427507.5, 92161.3, 0.0, 10.000586, 9.999645 
7.7497655e+2, 1.5493223e+2, -1380631.0, -1440537.0, -38343.46, 0.02388369, 0.06384843, -1361928.0, 59744.055, 0.0, 10.000444, 9.999648 
7.749818e+2, 1.6493182e+2, -1327458.0, -1420154.9, -25651.176, -0.038806718, 0.08178526, -1320833.1, 2843.0293, 0.0, 10.000379, 9.999146 
7.749877e+2, 1.7493139e+2, -1223819.6, -1317165.3, -33315.203, -0.046937376, 0.12170313, -1213149.1, 12532.401, 0.0, 10.000408, 9.999166 
7.7499354e+2, 1.8493031e+2, -1136481.9, -1251840.8, -48789.734, -0.046736218, 0.109413765, -1118614.3, 9078.5, 0.0, 10.000452, 9.998921 
7.7499914e+2, 1.9492853e+2, -1027671.6, -1147464.6, -47668.184, -0.051286634, 0.03607749, -1011018.5, 18691.523, 0.0, 10.000521, 9.998932 
7.7500504e+2, 2.0492773e+2, -918922.1, -1022698.2, -35448.434, -0.038133297, 0.05314456, -907969.44, 23748.475, 0.0, 10.000502, 9.999125 
7.7501136e+2, 2.149279e+2, -835190.0, -929636.7, -24782.875, -0.0001416728, 0.15418641, -829081.94, 4634.375, 0.0, 10.000396, 9.999142 
7.7501726e+2, 2.2492686e+2, -793585.5, -909920.56, -30653.883, 0.010155098, 0.15946661, -786002.56, -50275.703, 0.0, 10.000229, 9.998685 
7.7502275e+2, 2.3492455e+2, -727114.4, -825398.5, -34484.16, -0.010585595, 0.05720926, -716222.3, -78472.26, 0.0, 10.000005, 9.998701 
7.750288e+2, 2.4492337e+2, -631923.8, -708035.75, -19406.14, 0.0021575855, 0.059927862, -627261.5, -87499.14, 0.0, 9.999896, 9.998885 
7.750354e+2, 2.549233e+2, -529311.25, -605035.7, -15154.271, 0.04985112, 0.16200712, -526391.1, -84627.59, 0.0, 9.999916, 9.99891 
7.750415e+2, 2.6492235e+2, -464606.2, -573995.5, -18785.465, 0.04610021, 0.19879736, -461470.06, -117696.22, 0.0, 9.9999075, 9.998454 
7.750472e+2, 2.7492043e+2, -372292.4, -476946.44, -36410.883, -0.009960689, 0.15763834, -360870.94, -115077.11, 0.0, 9.99986, 9.99847 
7.7505374e+2, 2.8491879e+2, -258452.52, -323614.63, -38397.17, 0.012635261, 0.12464118, -240676.17, -92865.83, 0.0, 9.999763, 9.9988985 
7.750611e+2, 2.9491746e+2, -179398.22, -236286.86, -32843.01, 0.11411901, 0.0968107, -164394.38, -114571.38, 0.0, 9.999638, 9.998885 
7.750671e+2, 3.0491742e+2, -110806.25, -156012.33, -19054.746, 0.06292262, 0.1965436, -103846.125, -103846.125, 0.0, 9.9996805, 9.999082 
7.7507275e+2, 3.1491548e+2, -15994.562, -1756.375, 8749.391, -0.031152481, 0.08657845, 2404.307, 2404.307, 0.0000000029769756, 9.999862, 10.000054 
7.849577e+2, 1.24926016e+2, -1606432.0, -1757296.1, -2260.4983, 0.0048929444, 0.012875148, -1606398.1, 109333.72, 0.0000000009851104, 10.00116, 9.999146 
7.8496283e+2, 1.349267e+2, -1561491.5, -1642612.3, 23629.71, -0.17590845, 0.12665418, -1555110.4, 62617.824, 0.0, 10.0006, 9.999538 
7.849718e+2, 1.4492616e+2, -1482135.9, -1530352.8, -19765.959, 0.0789568, 0.110758305, -1475068.9, 44665.086, 0.0, 10.000375, 9.99974 
7.8497684e+2, 1.5492542e+2, -1353123.9, -1416525.0, -35379.004, 0.003928467, 0.05936465, -1337320.8, 84418.11, 0.0, 10.0005865, 9.999744 
7.849822e+2, 1.6492495e+2, -1299283.1, -1412486.1, -35111.367, -0.05045621, 0.069379754, -1289277.3, 34466.094, 0.0, 10.000598, 9.999093 
7.8498816e+2, 1.7492472e+2, -1227098.3, -1325226.3, -31406.938, -0.041115306, 0.13364469, -1217907.0, 7840.672, 0.0, 10.000414, 9.999107 
7.84994e+2, 1.8492375e+2, -1144728.5, -1250173.3, -31730.477, -0.035318214, 0.1340603, -1135916.6, -8158.64, 0.0, 10.00037, 9.998972 
7.8499967e+2, 1.9492203e+2, -1031286.75, -1143162.3, -28450.443, -0.047972377, 0.060757056, -1024467.4, 5307.1855, 0.0, 10.00047, 9.998985 
7.850055e+2, 2.0492116e+2, -934754.2, -1018330.2, -31370.441, -0.037384227, 0.06414997, -924289.5, 7492.9688, 0.0, 10.000342, 9.999231 
7.850116e+2, 2.1492116e+2, -887923.9, -943527.25, -33565.035, 0.0035925554, 0.13774073, -872141.75, -38360.01, 0.0, 9.999985, 9.999245 
7.850173e+2, 2.2492011e+2, -839403.9, -939666.9, -32188.512, 0.00543442, 0.13879009, -829959.6, -94167.27, 0.0, 9.9999485, 9.998616 
7.850226e+2, 2.3491791e+2, -696578.25, -818373.56, -33928.844, -0.03644404, 0.05525932, -687764.44, -49949.586, 0.0, 10.000249, 9.998631 
7.850287e+2, 2.4491675e+2, -571057.9, -686667.2, -25306.36, -0.020908086, 0.06669967, -565761.1, -25933.783, 0.0, 10.00035, 9.998813 
7.8503555e+2, 2.549166e+2, -487900.63, -593543.56, -35106.758, 0.054345857, 0.16785255, -477298.2, -35468.637, 0.0, 10.000237, 9.998834 
7.850417e+2, 2.6491556e+2, -436678.6, -565846.3, -29768.545, 0.061332792, 0.20165527, -430148.2, -86307.39, 0.0, 10.000121, 9.998407 
7.850472e+2, 2.7491355e+2, -352504.5, -473004.25, -16422.666, -0.0017664251, 0.15586314, -350306.38, -104444.734, 0.0, 10.00002, 9.998421 
7.8505355e+2, 2.8491187e+2, -236244.39, -312605.53, -7426.878, 0.012580437, 0.12324857, -235528.77, -87650.41, 0.0, 9.999913, 9.998901 
7.8506064e+2, 2.9491058e+2, -159677.13, -226022.56, -12007.739, 0.10633709, 0.10038861, -157570.73, -107680.19, 0.0, 9.999771, 9.99889 
7.850668e+2, 3.049105e+2, -129500.234, -168734.27, -4710.0215, 0.071182646, 0.19862713, -128942.72, -128942.72, 0.0, 9.999568, 9.999048 
7.8507286e+2, 3.1490847e+2, -75381.85, -2998.9116, -909.9965, 0.020874182, 0.08134261, -2987.4731, -2987.4731, 0.0, 9.999336, 10.0002985 
7.9495907e+2, 1.2491998e+2, -1585633.3, -1716066.9, -18994.158, 0.021760264, 0.06848849, -1582923.5, 132870.3, 0.0000000034592607, 10.001166, 9.999427 
7.949636e+2, 1.3492095e+2, -1543031.4, -1605194.3, 1795.415, -0.15820567, 0.18496732, -1542979.5, 74805.7, 0.0, 10.000604, 9.999794 
7.949719e+2, 1.4492022e+2, -1506990.5, -1580913.3, -14112.533, 0.04485417, 0.1540192, -1504387.9, 15404.468, 0.0, 10.000372, 9.999393 
7.9497665e+2, 1.5491876e+2, -1377169.9, -1465528.6, -26893.344, -0.077028796, 0.065803505, -1369628.1, 52176.766, 0.0, 10.000584, 9.99941 
7.9498214e+2, 1.64918e+2, -1291637.9, -1396204.5, -42909.35, -0.11677559, 0.057509843, -1276284.3, 47528.23, 0.0, 10.000595, 9.999207 
7.9498863e+2, 1.749179e+2, -1219353.0, -1309617.9, -38057.94, -0.030505896, 0.12575042, -1205448.6, 20366.14, 0.0, 10.000415, 9.999216 
7.9499495e+2, 1.8491735e+2, -1139077.0, -1237118.9, -28942.572, 0.017139792, 0.15556757, -1131170.6, -3349.5742, 0.0, 10.000365, 9.9990635 
7.950008e+2, 1.9491625e+2, -1025610.0, -1130141.1, -24669.756, 0.01214048, 0.13674633, -1020080.4, 9751.2295, 0.0, 10.000465, 9.999077 
7.950062e+2, 2.0491515e+2, -938941.3, -1025970.6, -45755.16, 0.0006814257, 0.113861024, -919312.75, 12528.911, 0.0, 10.000338, 9.999182 
7.950114e+2, 2.14914e+2, -891984.44, -951043.25, -46945.71, -0.012108816, 0.07805914, -866053.2, -32201.635, 0.0, 9.99998, 9.999196 
7.9501694e+2, 2.2491294e+2, -842049.8, -943849.9, -22150.256, -0.021537598, 0.082741536, -837439.06, -101577.05, 0.0, 9.999942, 9.99859 
7.9502296e+2, 2.3491193e+2, -698817.1, -822458.56, -22332.225, -0.028622108, 0.11963529, -694907.1, -57033.777, 0.0, 10.000246, 9.998604 
7.95029e+2, 2.4491066e+2, -588288.06, -721825.94, -29758.414, -0.026352588, 0.13460834, -581956.7, -42069.668, 0.0, 10.000346, 9.998573 
7.95035e+2, 2.5490913e+2, -505827.3, -629456.8, -38482.72, -0.014004135, 0.11989149, -494827.34, -52924.31, 0.0, 10.000231, 9.99859 
7.9504144e+2, 2.6490787e+2, -411180.44, -511390.7, -34046.234, 0.022449996, 0.12473574, -400707.78, -56791.88, 0.0, 10.000114, 9.998785 
7.950481e+2, 2.7490684e+2, -326219.75, -417597.2, -19023.643, 0.08380253, 0.1383507, -322417.5, -76491.6, 0.0, 10.000015, 9.998804 
7.9505414e+2, 2.8490558e+2, -245853.48, -331486.4, -11919.992, 0.08143231, 0.13658735, -244225.2, -96286.96, 0.0, 9.999908, 9.998775 
7.9505956e+2, 2.9490417e+2, -169585.48, -245191.5, -15759.319, 0.012431764, 0.11430883, -166432.13, -116479.39, 0.0, 9.9997635, 9.998763 
7.9506564e+2, 3.049039e+2, -146671.98, -202858.38, -14328.056, -0.0042673014, 0.21060175, -143229.16, -143229.16, 0.0, 9.999562, 9.9988165 
7.950735e+2, 3.1490183e+2, -74789.87, -567.9465, -9069.132, 0.1490569, 0.114866816, 524.13666, 524.13666, 0.0, 9.999331, 10.000318 
8.0496e+2, 1.24913886e+2, -1658158.5, -1749678.6, -19083.07, 0.030198595, 0.12033063, -1654338.9, 61515.93, 0.0000000057252847, 10.000661, 9.999441 
8.0496436e+2, 1.3491412e+2, -1502321.9, -1585998.8, -26270.91, -0.15567873, 0.16264659, -1494757.8, 123094.71, 0.0, 10.000886, 9.999789 
8.0497223e+2, 1.4491327e+2, -1450093.9, -1560280.8, -35589.176, 0.027701812, 0.12538388, -1439598.6, 80261.6, 0.0, 10.000793, 9.9993305 
8.049771e+2, 1.549123e+2, -1398492.8, -1483565.6, -28315.46, -0.08355481, 0.09139865, -1389930.1, 31938.508, 0.0, 10.000471, 9.99934 
8.049826e+2, 1.6491151e+2, -1315424.4, -1406492.0, -33181.883, -0.11475671, 0.08422075, -1304616.6, 19259.76, 0.0, 10.000426, 9.999219 
8.049893e+2, 1.7491089e+2, -1181204.6, -1289891.9, -37075.406, -0.027021563, 0.09779416, -1169762.1, 56121.363, 0.0, 10.000671, 9.999228 
8.049954e+2, 1.8491034e+2, -1099994.0, -1198971.6, -36124.836, 0.021193821, 0.120165095, -1088211.8, 39677.39, 0.0, 10.000551, 9.999235 
8.050011e+2, 1.9490984e+2, -1071930.5, -1133357.8, -26835.959, 0.016925639, 0.14300929, -1061858.1, -31964.738, 0.0, 10.000066, 9.999247 
8.0500644e+2, 2.0490879e+2, -988875.44, -1077045.4, -39264.477, 0.0013980583, 0.12800881, -973924.94, -42021.58, 0.0, 10.000112, 9.9989395 
8.0501163e+2, 2.1490712e+2, -803537.1, -935318.2, -56321.117, -0.022356309, 0.06455827, -782746.5, 51172.965, 0.0, 10.000705, 9.998953 
8.050173e+2, 2.2490601e+2, -715632.2, -865013.9, -40229.816, -0.026002545, 0.06817823, -705486.94, 30443.58, 0.0, 10.000733, 9.99875 
8.050234e+2, 2.3490542e+2, -697795.8, -803925.06, -27305.0, -0.0091654025, 0.13291593, -691182.8, -53246.344, 0.0, 10.000175, 9.998765 
8.050293e+2, 2.449042e+2, -656449.44, -757959.3, -16369.119, -0.004895177, 0.1456859, -653875.06, -113925.89, 0.0, 9.999893, 9.998544 
8.050351e+2, 2.549023e+2, -555407.5, -656855.06, -10993.085, -0.014620345, 0.09598609, -554229.94, -112260.92, 0.0, 9.999907, 9.998558 
8.050414e+2, 2.6490095e+2, -440093.44, -517947.53, -10626.891, 0.016505165, 0.08934419, -438668.94, -94686.164, 0.0, 9.999885, 9.99885 
8.0504805e+2, 2.7490008e+2, -351045.03, -421995.47, -20621.361, 0.09124271, 0.11641376, -345486.94, -99496.27, 0.0, 9.999813, 9.99887 
8.05054e+2, 2.84899e+2, -268843.88, -345282.56, -19869.352, 0.090446696, 0.12696625, -263987.6, -115985.93, 0.0, 9.999763, 9.998749 
8.0505925e+2, 2.9489768e+2, -173495.3, -250010.97, -17860.037, 0.009654054, 0.11564595, -169531.77, -119516.21, 0.0, 9.99975, 9.998736 
8.050652e+2, 3.048972e+2, -137785.94, -223001.4, -13949.185, -0.006580689, 0.20334187, -135560.66, -135560.66, 0.0, 9.999728, 9.998598 
8.0507314e+2, 3.1489518e+2, -26911.385, 23886.06, -11943.217, 0.16269445, 0.13541152, 26553.965, 26553.965, 0.0, 9.999655, 10.000329 
8.149606e+2, 1.2490784e+2, -1676698.8, -1787028.9, -7910.1587, 0.01628142, 0.17444353, -1676134.5, 39779.164, 0.000000004999778, 10.000657, 9.9991865 
8.1496507e+2, 1.349062e+2, -1522582.4, -1625725.1, -18457.146, -0.17516105, 0.059014652, -1519379.0, 98550.38, 0.0, 10.000879, 9.999518 
8.14973e+2, 1.4490536e+2, -1434937.0, -1529119.6, -49473.18, 0.02042275, 0.025174988, -1413726.1, 106211.02, 0.0, 10.0007925, 9.999546 
8.1497824e+2, 1.5490606e+2, -1382492.4, -1452788.8, -39479.55, -0.016872572, 0.13608485, -1364782.0, 57147.66, 0.0, 10.000479, 9.999549 
8.149838e+2, 1.6490552e+2, -1322097.0, -1420577.0, -25025.332, -0.046627462, 0.1482858, -1316102.5, 7832.4805, 0.0, 10.000428, 9.999121 
8.1498986e+2, 1.7490368e+2, -1188754.4, -1303664.9, -27773.19, -0.034963645, 0.04829399, -1182393.8, 43559.94, 0.0, 10.000664, 9.999136 
8.1499547e+2, 1.8490277e+2, -1083550.1, -1163325.1, -55082.195, -0.027957395, 0.027528577, -1055429.9, 72532.1, 0.0, 10.000544, 9.999484 
8.150006e+2, 1.9490282e+2, -1054664.5, -1097241.9, -45036.926, -0.035739426, 0.08090892, -1026138.2, 3821.3643, 0.0, 10.000064, 9.999496 
8.1500614e+2, 2.0490208e+2, -1020005.7, -1140671.1, -18217.82, -0.037890147, 0.10693802, -1017315.2, -85347.99, 0.0, 10.000108, 9.998505 
8.150123e+2, 2.1490051e+2, -835305.44, -1000166.3, -33850.21, -0.030294152, 0.09636129, -828625.75, 5359.531, 0.0, 10.0007, 9.99851 
8.150182e+2, 2.2489929e+2, -691623.3, -814499.7, -61688.563, -0.011568641, 0.09484097, -665997.56, 70000.055, 0.0, 10.0007305, 9.999098 
8.150238e+2, 2.3489843e+2, -673223.06, -752474.5, -47933.992, 0.018705525, 0.095449015, -650656.6, -12652.664, 0.0, 10.000174, 9.99912 
8.150297e+2, 2.4489738e+2, -645191.6, -734058.1, -16792.945, 0.03962179, 0.09898195, -642124.2, -102110.43, 0.0, 9.999889, 9.99871 
8.1503564e+2, 2.5489607e+2, -544139.25, -632826.1, -10076.792, 0.050116625, 0.09456446, -543008.75, -100981.18, 0.0, 9.999903, 9.998725 
8.150415e+2, 2.6489478e+2, -458077.4, -554316.0, -13178.018, 0.04136875, 0.09627358, -456305.56, -112264.195, 0.0, 9.99988, 9.998603 
8.1504714e+2, 2.748934e+2, -369516.25, -459197.94, -21985.455, 0.014417159, 0.09529551, -364416.5, -118361.03, 0.0, 9.999807, 9.998618 
8.150532e+2, 2.848921e+2, -262613.9, -331745.47, -20884.314, 0.032517873, 0.09670957, -256794.7, -108726.414, 0.0, 9.99976, 9.998844 
8.150599e+2, 2.9489103e+2, -168051.48, -238358.78, -16637.762, 0.094447814, 0.09624828, -164313.06, -114233.37, 0.0, 9.999747, 9.998818 
8.150656e+2, 3.0489033e+2, -154666.27, -256303.81, -15252.86, 0.06221936, 0.17139322, -152426.6, -152426.6, 0.0, 9.999722, 9.998372 
8.1507164e+2, 3.1488848e+2, -30593.95, 19080.137, -14539.202, 0.0502161, 0.14243677, 23022.725, 23022.725, 0.0000000016901937, 9.999642, 10.000302 
8.249613e+2, 1.249009e+2, -1604217.9, -1750552.4, -9669.198, 0.003228122, 0.14459544, -1603581.8, 112399.51, 0.0000000017683296, 10.001149, 9.999198 
8.2496595e+2, 1.3489951e+2, -1561849.1, -1648078.4, -8136.0835, -0.16174285, 0.055158243, -1561088.1, 56906.695, 0.0, 10.000624, 9.999489 
8.249737e+2, 1.448988e+2, -1478723.0, -1540481.6, -28295.451, 0.030719833, 0.0307736, -1467719.5, 52281.8, 0.0, 10.00045, 9.999635 
8.24979e+2, 1.5489937e+2, -1341483.3, -1422833.9, -28870.688, 0.0012437684, 0.119538695, -1332278.8, 89716.4, 0.0, 10.000717, 9.9996395 
8.2498443e+2, 1.6489892e+2, -1287320.4, -1396457.9, -14452.739, -0.031030718, 0.13272494, -1285438.9, 38560.68, 0.0, 10.000636, 9.999184 
8.249902e+2, 1.7489739e+2, -1251415.0, -1327429.0, -6179.431, -0.035311103, 0.05993536, -1250916.0, -24901.076, 0.0, 10.000206, 9.999193 
8.2499576e+2, 1.8489647e+2, -1139009.1, -1196654.0, -35102.098, -0.03912206, 0.03780947, -1122412.5, 5610.5923, 0.0, 10.000193, 9.999424 
8.250008e+2, 1.9489613e+2, -978270.8, -1067244.4, -49753.203, -0.053413447, 0.058433875, -956015.9, 74008.37, 0.0, 10.000619, 9.999434 
8.250064e+2, 2.0489532e+2, -941496.25, -1096813.5, -11949.442, -0.054206613, 0.076995015, -940582.25, -8549.712, 0.0, 10.000621, 9.998558 
8.250126e+2, 2.14894e+2, -906331.44, -1028367.94, 9064.8955, -0.03704197, 0.086572185, -905661.8, -71613.516, 0.0, 10.000187, 9.998565 
8.250185e+2, 2.2489288e+2, -784187.4, -855292.8, -19862.709, -0.010760518, 0.09126214, -779015.1, -42955.473, 0.0, 10.000078, 9.999133 
8.250241e+2, 2.3489197e+2, -651097.3, -737678.9, -31766.244, 0.023852708, 0.08214071, -640692.8, -2626.1196, 0.0, 10.000308, 9.999156 
8.2502985e+2, 2.448909e+2, -593310.7, -707674.2, -18318.648, 0.050930317, 0.080659196, -590448.06, -50371.367, 0.0, 10.00024, 9.998721 
8.2503575e+2, 2.548896e+2, -548492.94, -633391.7, -24126.166, 0.07012967, 0.07745901, -542115.9, -100025.87, 0.0, 9.999867, 9.998738 
8.250414e+2, 2.648884e+2, -471812.88, -557159.1, -13054.994, 0.05374528, 0.087423086, -469860.56, -125757.81, 0.0, 9.999771, 9.998635 
8.250469e+2, 2.7488723e+2, -344130.97, -443057.56, -2014.5912, 0.0017703787, 0.10242191, -344089.97, -97974.84, 0.0, 9.999967, 9.9986515 
8.25053e+2, 2.848859e+2, -238733.88, -337689.63, -4217.9614, 0.022746425, 0.10486037, -238554.4, -90425.82, 0.0, 9.999999, 9.998688 
8.250599e+2, 2.9488447e+2, -163174.6, -253098.52, -19953.322, 0.117235586, 0.088199124, -158945.98, -108802.61, 0.0, 9.999856, 9.998664 
8.250655e+2, 3.0488336e+2, -161049.83, -262803.34, -20271.39, 0.07966367, 0.13089608, -157160.05, -157160.05, 0.0, 9.999692, 9.9983425 
8.25071e+2, 3.1488198e+2, -48434.74, 20393.98, -10383.464, 0.022664677, 0.14923164, 21926.31, 21926.31, 0.000000023716037, 9.999477, 10.00039 
8.3496225e+2, 1.2489313e+2, -1584145.6, -1710268.8, -26772.525, -0.025098149, 0.029300906, -1578697.9, 137359.45, 0.000000000051048894, 10.001151, 9.999475 
8.34967e+2, 1.3489409e+2, -1543539.3, -1613353.6, -27147.447, -0.118513785, 0.15099603, -1534225.5, 83822.56, 0.0, 10.000635, 9.9997225 
8.349744e+2, 1.448936e+2, -1483426.3, -1550473.4, -20241.137, 0.054632932, 0.14126468, -1477789.4, 42262.934, 0.0, 10.000452, 9.999564 
8.3497936e+2, 1.548922e+2, -1346343.8, -1430550.9, -18598.547, -0.032858968, 0.040850073, -1342418.9, 79645.97, 0.0, 10.000709, 9.99959 
8.349846e+2, 1.6489169e+2, -1271304.4, -1362296.4, -31085.053, -0.072804525, 0.03828729, -1261699.0, 62370.676, 0.0, 10.00063, 9.999422 
8.3499056e+2, 1.748921e+2, -1234657.0, -1294021.3, -21693.383, -0.031138476, 0.13473317, -1227574.6, -1508.0897, 0.0, 10.000211, 9.999421 
8.3499616e+2, 1.8489149e+2, -1166039.8, -1252345.0, -20120.488, -0.016224269, 0.15121473, -1161579.5, -33507.32, 0.0, 10.000192, 9.9990425 
8.350015e+2, 1.948898e+2, -1006309.7, -1123668.6, -33736.715, -0.039159, 0.07409694, -997302.75, 32784.547, 0.0, 10.00061, 9.999051 
8.350071e+2, 2.0488851e+2, -904234.56, -1018439.06, -29107.734, -0.050611638, 0.037865736, -897243.7, 34855.617, 0.0, 10.000615, 9.999099 
8.3501273e+2, 2.1488763e+2, -868013.75, -948309.3, -7606.715, -0.045200948, 0.035961613, -867299.5, -33191.426, 0.0, 10.000183, 9.999115 
8.350185e+2, 2.2488682e+2, -804567.5, -896947.4, -12646.748, -0.026139185, 0.057215128, -802867.44, -66751.03, 0.0, 10.000074, 9.998849 
8.3502424e+2, 2.3488607e+2, -671880.8, -780300.4, -23107.951, 0.004888347, 0.093169324, -667161.1, -29036.674, 0.0, 10.000305, 9.998865 
8.3502984e+2, 2.4488477e+2, -603212.75, -727797.4, -32791.496, 0.027361276, 0.09247162, -595108.94, -54971.355, 0.0, 10.000238, 9.998585 
8.350353e+2, 2.5488293e+2, -558596.0, -653916.1, -37328.76, 0.041007176, 0.0454524, -545717.5, -103561.36, 0.0, 9.999865, 9.998599 
8.3504117e+2, 2.6488188e+2, -450485.5, -513252.56, -6118.2817, 0.048539765, 0.061420437, -449894.7, -105727.77, 0.0, 9.999771, 9.998937 
8.350473e+2, 2.7488157e+2, -323234.3, -398974.4, 6163.7095, 0.050553307, 0.13335389, -322736.0, -76566.055, 0.0, 9.999962, 9.998957 
8.350533e+2, 2.8488034e+2, -268856.3, -398210.88, -9055.012, 0.058884695, 0.1496665, -268225.53, -120042.805, 0.0, 9.99999, 9.998276 
8.3505934e+2, 2.9487813e+2, -193600.03, -313705.16, -23575.086, 0.07155881, 0.096817054, -189138.3, -138932.1, 0.0, 9.9998455, 9.998253 
8.350648e+2, 3.048764e+2, -148717.63, -236541.89, -27699.475, 0.039243367, 0.08626615, -140711.2, -140711.2, 0.0, 9.999687, 9.998526 
8.350709e+2, 3.1487548e+2, -33412.82, 51770.12, -17452.012, 0.06996082, 0.13864619, 55206.97, 55206.97, 0.00000010288848, 9.9994755, 10.0006075 
8.449631e+2, 1.2488697e+2, -1629285.0, -1714231.9, 3348.8281, -0.03590153, 0.035454344, -1629153.3, 86964.88, 0.0, 10.000764, 9.999634 
8.4496784e+2, 1.3488804e+2, -1486185.6, -1570526.3, -10660.533, -0.11661001, 0.15288432, -1484859.0, 133248.06, 0.0, 10.000967, 9.999853 
8.44975e+2, 1.4488758e+2, -1429704.5, -1533110.9, -3217.7427, 0.049600687, 0.14506808, -1429604.4, 90506.305, 0.0, 10.000859, 9.999485 
8.4497994e+2, 1.5488611e+2, -1386471.3, -1458955.6, -2815.7942, -0.036013108, 0.043144543, -1386362.0, 35762.816, 0.0, 10.000473, 9.999508 
8.449851e+2, 1.6488558e+2, -1299834.9, -1369745.3, -22217.053, -0.07683966, 0.040882565, -1293372.0, 30757.838, 0.0, 10.000408, 9.999478 
8.4499085e+2, 1.7488605e+2, -1161320.0, -1252311.0, -27903.695, -0.043209568, 0.13769726, -1153444.6, 72680.89, 0.0, 10.000687, 9.999477 
8.449966e+2, 1.8488543e+2, -1100374.5, -1225676.6, -15441.322, -0.020192165, 0.1514162, -1098499.8, 29631.553, 0.0, 10.000662, 9.999 
8.450022e+2, 1.9488363e+2, -1052609.0, -1150633.5, -3413.1387, -0.018321645, 0.06933625, -1052490.3, -22342.582, 0.0, 10.000312, 9.99901 
8.450077e+2, 2.0488243e+2, -970904.94, -1032217.7, -9642.201, -0.02230883, 0.035701826, -969424.3, -37265.48, 0.0, 10.000078, 9.999264 
8.45013e+2, 2.1488181e+2, -888272.9, -939565.06, -18177.21, -0.02824943, 0.042469215, -882484.4, -48319.62, 0.0, 9.999964, 9.999281 
8.4501857e+2, 2.2488105e+2, -822657.8, -910889.2, -11115.922, -0.022398368, 0.06381508, -821278.94, -85106.39, 0.0, 9.999974, 9.9988 
8.450243e+2, 2.3488018e+2, -702380.56, -800893.44, -4902.2114, -0.006505414, 0.092708625, -702137.2, -63954.94, 0.0, 10.000121, 9.998812 
8.450299e+2, 2.448789e+2, -591490.5, -712806.9, -7912.7407, 0.00916642, 0.09217433, -590976.56, -50781.297, 0.0, 10.000279, 9.998668 
8.450353e+2, 2.548772e+2, -467998.22, -600654.94, 2521.7656, 0.024901075, 0.051345456, -467950.28, -25738.352, 0.0, 10.000446, 9.998684 
8.4504116e+2, 2.648761e+2, -381323.75, -488898.94, 26978.172, 0.044872478, 0.06499515, -374937.22, -30714.486, 0.0, 10.000286, 9.998856 
8.4504735e+2, 2.748756e+2, -353073.06, -422331.25, 8697.638, 0.07033332, 0.12696752, -351997.5, -105769.89, 0.0, 9.999798, 9.998874 
8.4505326e+2, 2.8487438e+2, -322826.4, -419574.53, 945.24536, 0.07322004, 0.14319451, -322817.2, -174576.72, 0.0, 9.999601, 9.998316 
8.4505886e+2, 2.9487228e+2, -213992.06, -318460.5, 18864.057, 0.05229739, 0.098658204, -210690.11, -160427.83, 0.0, 9.999684, 9.998297 
8.450643e+2, 3.0487025e+2, -144782.72, -224448.14, 24539.723, 0.019164344, 0.05303949, -137830.36, -137830.36, 0.00000000024035085, 9.999672, 9.998614 
8.4507054e+2, 3.1486964e+2, -16612.533, 66103.72, 23582.266, 0.07841246, 0.123998925, 72354.6, 72354.6, 0.00000026211356, 9.999564, 10.000663 
8.549637e+2, 1.2488255e+2, -1628018.6, -1711862.3, 10377.573, -0.04585605, 0.16709521, -1626753.3, 89409.25, 0.0, 10.000765, 9.99965 
8.5496837e+2, 1.3488135e+2, -1487717.8, -1572771.0, -3280.2715, -0.15672202, 0.060786657, -1487591.5, 130580.02, 0.0, 10.000963, 9.99984 
8.549755e+2, 1.4488079e+2, -1433817.8, -1541407.4, -18669.223, 0.012215823, 0.04265116, -1430670.3, 89505.92, 0.0, 10.000856, 9.999431 
8.5498065e+2, 1.5488109e+2, -1390713.3, -1469945.6, -16092.073, -0.013927927, 0.12724534, -1387569.6, 34604.855, 0.0, 10.000481, 9.99943 
8.5498583e+2, 1.6488059e+2, -1310849.6, -1392733.3, -12420.85, -0.048922498, 0.13973859, -1309007.0, 15172.511, 0.0, 10.000409, 9.99932 
8.549912e+2, 1.7487922e+2, -1171837.0, -1272953.3, -17280.674, -0.07280985, 0.06751081, -1168965.4, 57226.363, 0.0, 10.000682, 9.999338 
8.5499686e+2, 1.8487824e+2, -1079217.4, -1180697.6, -29111.23, -0.053661592, 0.03815433, -1071459.4, 56740.785, 0.0, 10.000656, 9.999311 
8.5500276e+2, 1.9487767e+2, -1030526.94, -1105129.9, -16636.656, 0.0060315104, 0.045299377, -1026985.06, 3219.9778, 0.0, 10.000313, 9.999323 
8.5500824e+2, 2.0487711e+2, -985830.06, -1062757.3, -15157.487, 0.027509985, 0.07038329, -982951.2, -50740.336, 0.0, 10.000075, 9.999055 
8.550134e+2, 2.1487656e+2, -903870.44, -971046.5, -22591.05, 0.01108936, 0.1056532, -896979.94, -62762.027, 0.0, 9.99996, 9.999067 
8.5501873e+2, 2.2487563e+2, -810863.0, -885619.4, -6916.9795, -0.0023640199, 0.112095855, -810228.44, -74000.91, 0.0, 9.9999695, 9.998976 
8.5502434e+2, 2.3487432e+2, -689787.25, -774347.5, 1000.2881, -0.0136097735, 0.07990755, -689775.44, -51535.625, 0.0, 10.000119, 9.998995 
8.5503e+2, 2.4487327e+2, -571569.06, -671221.6, -2137.33, -0.0071403966, 0.0775213, -571523.25, -31273.547, 0.0, 10.000277, 9.998955 
8.550357e+2, 2.5487244e+2, -448284.6, -558578.7, 9010.433, 0.019422596, 0.09507302, -447553.34, -5295.9707, 0.0, 10.000441, 9.998976 
8.550414e+2, 2.6487118e+2, -414107.9, -555865.1, 8065.907, 0.04143801, 0.10049399, -413650.44, -69380.53, 0.0, 10.000281, 9.998399 
8.5504705e+2, 2.7486947e+2, -386844.38, -491215.44, -8640.142, 0.056740362, 0.08629664, -386133.97, -139846.2, 0.0, 9.999793, 9.998404 
8.5505277e+2, 2.8486806e+2, -289403.16, -350100.06, 4401.8047, 0.061025027, 0.08680874, -289085.6, -140783.92, 0.0, 9.9996, 9.998794 
8.550586e+2, 2.9486695e+2, -180219.17, -247549.11, 23467.52, 0.054282255, 0.09118923, -172846.9, -122534.914, 0.0, 9.99968, 9.998786 
8.550639e+2, 3.04865e+2, -146181.08, -226328.66, 20603.291, 0.01621011, 0.028811822, -141194.88, -141194.88, 0.0000000059514194, 9.999667, 9.998604 
8.550697e+2, 3.1486434e+2, -25877.203, 50317.406, 20039.068, 0.040702246, 0.09598954, 55266.227, 55266.227, 0.0000005093443, 9.99955, 10.000561 
8.649649e+2, 1.2487699e+2, -1566702.3, -1689104.1, 13681.038, -0.030748831, 0.17656839, -1565191.8, 151024.84, 0.00000000000000000000885557, 10.001217, 9.999587 
8.649693e+2, 1.3487548e+2, -1543000.3, -1610832.9, -9300.308, -0.14872497, 0.04845369, -1541748.3, 76480.37, 0.0, 10.000634, 9.999737 
8.6497605e+2, 1.448749e+2, -1490359.6, -1573443.0, -20254.977, 0.001550004, 0.03545388, -1485684.6, 34549.117, 0.0, 10.000489, 9.999388 
8.6498106e+2, 1.548753e+2, -1341343.5, -1451229.0, -17740.111, -0.03341938, 0.13472177, -1338550.5, 83680.97, 0.0, 10.000841, 9.999384 
8.649863e+2, 1.6487473e+2, -1246197.8, -1358214.1, -6006.227, -0.059204224, 0.14136134, -1245876.6, 78360.33, 0.0, 10.000835, 9.999352 
8.6499196e+2, 1.7487316e+2, -1202380.6, -1283073.0, 3220.7388, -0.05840624, 0.043808945, -1202252.3, 23998.215, 0.0, 10.000452, 9.999379 
8.6499745e+2, 1.8487225e+2, -1130655.0, -1191159.6, -11994.919, -0.041279495, 0.014108444, -1128363.8, -105.836784, 0.0, 10.000242, 9.999438 
8.650029e+2, 1.9487204e+2, -1035740.7, -1093831.9, -14942.249, -0.011131328, 0.045634635, -1032122.6, -1862.9755, 0.0, 10.000217, 9.999446 
8.6500823e+2, 2.048716e+2, -955461.94, -1058566.5, -6100.1636, 0.0060311235, 0.08065869, -955102.25, -22837.46, 0.0, 10.000329, 9.998962 
8.650136e+2, 2.1487091e+2, -820214.4, -941333.2, -5483.1567, 0.009968285, 0.112616874, -819966.7, 14306.918, 0.0, 10.00058, 9.998973 
8.650191e+2, 2.2486997e+2, -719665.56, -823197.9, 8059.2725, 0.007924956, 0.112897225, -719041.94, 17241.268, 0.0, 10.000516, 9.999142 
8.650246e+2, 2.3486872e+2, -677902.06, -749319.25, 13338.534, -0.00074300525, 0.069093525, -675492.1, -37198.066, 0.0, 10.000118, 9.9991665 
8.650303e+2, 2.4486776e+2, -629399.25, -706739.44, 5567.761, 0.006249574, 0.07074595, -629000.5, -88697.55, 0.0, 9.999914, 9.998885 
8.65036e+2, 2.5486708e+2, -528012.7, -605336.94, -11702.058, 0.029835569, 0.11045806, -526280.56, -83970.516, 0.0, 9.999929, 9.9989 
8.650415e+2, 2.6486573e+2, -451611.8, -567129.25, -17437.945, 0.038954485, 0.106621586, -449036.88, -104713.26, 0.0, 9.999995, 9.998458 
8.6504674e+2, 2.7486363e+2, -338019.63, -461056.97, 3892.1191, 0.03256881, 0.049296, -337896.63, -91552.33, 0.0, 10.000099, 9.998464 
8.6505234e+2, 2.8486237e+2, -213479.9, -292015.03, 31622.205, 0.03970455, 0.050684147, -202330.16, -53973.848, 0.0, 10.00003, 9.998985 
8.6505836e+2, 2.948619e+2, -148711.16, -210191.6, 26899.377, 0.060297083, 0.10204794, -138603.64, -88243.84, 0.0, 9.999803, 9.998982 
8.6506367e+2, 3.0485988e+2, -155093.44, -233193.7, 11327.215, 0.02481897, 0.022059292, -153483.78, -153483.78, 0.000000027135602, 9.999618, 9.99858 
8.6506903e+2, 3.148591e+2, -58333.684, 15296.308, 5946.6113, 0.022569692, 0.08055453, 15773.483, 15773.483, 0.00000083365, 9.99941, 10.000387 
8.749664e+2, 1.24870315e+2, -1575186.6, -1706344.6, -7122.8945, -0.0037914945, 0.061048772, -1574800.9, 141479.36, 0.0000000055054987, 10.001215, 9.99947 
8.749704e+2, 1.3487045e+2, -1554066.3, -1634071.5, -30746.643, -0.09936387, 0.11494537, -1543615.4, 74662.69, 0.0, 10.000634, 9.9995775 
8.7497663e+2, 1.4486995e+2, -1495918.1, -1585007.9, -7984.8345, 0.009885954, 0.12262035, -1495208.1, 25074.84, 0.0, 10.000489, 9.999309 
8.7498134e+2, 1.5486874e+2, -1344936.0, -1458708.3, -3982.8916, -0.09467155, 0.06577794, -1344796.8, 77498.805, 0.0, 10.00084, 9.999333 
8.749867e+2, 1.6486803e+2, -1228425.3, -1321141.0, -21222.373, -0.10886818, 0.04699089, -1223798.4, 100503.51, 0.0, 10.000834, 9.999608 
8.749929e+2, 1.7486787e+2, -1185072.3, -1247588.0, -11024.436, -0.004368454, 0.06754363, -1183185.1, 43116.227, 0.0, 10.000453, 9.999622 
8.749982e+2, 1.8486747e+2, -1135960.3, -1201371.9, -13922.387, 0.012001989, 0.07915005, -1133120.3, -4816.107, 0.0, 10.000238, 9.999371 
8.7500244e+2, 1.9486679e+2, -1040972.1, -1103879.0, -15904.628, -0.0716544, 0.06987094, -1037179.6, -6868.4497, 0.0, 10.000213, 9.999379 
8.750076e+2, 2.0486593e+2, -954822.25, -1056124.6, 2158.7039, -0.08919011, 0.06691113, -954776.3, -22456.014, 0.0, 10.000323, 9.998982 
8.750137e+2, 2.1486492e+2, -818808.8, -938049.1, 3883.246, -0.03426944, 0.063176386, -818682.5, 15648.945, 0.0, 10.000577, 9.998997 
8.750196e+2, 2.2486408e+2, -709570.5, -801622.75, -7819.946, 0.0055298433, 0.06485034, -708910.94, 27428.63, 0.0, 10.000513, 9.999291 
8.7502503e+2, 2.3486339e+2, -667736.8, -727533.2, -1622.6384, 0.030220285, 0.061580315, -667692.8, -29348.152, 0.0, 10.000114, 9.999319 
8.750306e+2, 2.448624e+2, -658810.3, -767594.75, 4931.0903, 0.046553504, 0.07483304, -658587.25, -118232.77, 0.0, 9.999912, 9.998468 
8.750361e+2, 2.5486112e+2, -558483.25, -668200.6, -10336.877, 0.052016936, 0.097669296, -557517.8, -115148.31, 0.0, 9.9999275, 9.99847 
8.750414e+2, 2.648597e+2, -413237.94, -486945.75, -12981.2, 0.033723492, 0.08144784, -411018.56, -66634.82, 0.0, 9.999992, 9.99901 
8.7504643e+2, 2.748581e+2, -298525.22, -377945.56, 8970.496, -0.0061060996, 0.015080131, -297524.6, -51127.375, 0.0, 10.000093, 9.999037 
8.7505203e+2, 2.8485727e+2, -220561.05, -306017.03, 22437.9, 0.0056306785, 0.035379604, -215027.86, -66623.55, 0.0, 10.000026, 9.998891 
8.7505823e+2, 2.9485714e+2, -156534.97, -224786.9, 19664.094, 0.06741897, 0.13205728, -151274.92, -100869.38, 0.0, 9.999795, 9.998886 
8.750634e+2, 3.0485487e+2, -158463.63, -238607.94, 4971.211, 0.04237584, 0.033079367, -158156.44, -158156.44, 0.00000006425192, 9.999612, 9.998546 
8.7506837e+2, 3.148538e+2, -74824.23, -16967.379, -54.760002, 0.012176176, 0.0663203, -16967.328, -16967.328, 0.0000011924308, 9.999403, 10.000168 
8.849673e+2, 1.2486457e+2, -1617657.6, -1728813.9, -6978.977, -0.0146723995, 0.035166763, -1617221.1, 99114.93, 0.00000006865043, 10.000932, 9.999454 
8.8497126e+2, 1.34865e+2, -1478489.9, -1604370.8, -26726.076, -0.105061695, 0.12446607, -1473050.6, 145281.05, 0.0, 10.001183, 9.999517 
8.849774e+2, 1.4486454e+2, -1413906.9, -1552280.0, 7435.8066, 0.007133036, 0.14315462, -1413508.5, 106827.91, 0.0, 10.0010805, 9.9992485 
8.8498217e+2, 1.5486301e+2, -1376977.0, -1479935.3, 11661.766, -0.082660265, 0.059267737, -1375672.6, 46679.273, 0.0, 10.000647, 9.99928 
8.8498735e+2, 1.6486229e+2, -1278903.5, -1330355.5, -14570.708, -0.099714816, 0.03521105, -1275063.8, 49294.37, 0.0, 10.000424, 9.999741 
8.849932e+2, 1.7486243e+2, -1180997.8, -1231632.9, -15074.218, -0.017333966, 0.07233596, -1176849.9, 49504.586, 0.0, 10.00042, 9.999749 
8.849985e+2, 1.8486214e+2, -1108829.1, -1193776.9, -12643.68, 0.0009798625, 0.08948962, -1106987.1, 21369.299, 0.0, 10.000446, 9.999323 
8.850029e+2, 1.9486135e+2, -1000850.3, -1089254.6, -13787.26, -0.058225874, 0.07546798, -998750.0, 31614.736, 0.0, 10.000509, 9.999337 
8.850081e+2, 2.0486048e+2, -940067.75, -1026946.94, 8958.992, -0.0700323, 0.061316017, -939153.5, -6779.7813, 0.0, 10.000331, 9.999178 
8.8501406e+2, 2.1485946e+2, -904014.8, -956785.6, 22736.65, -0.028607344, 0.0381033, -895569.94, -61186.35, 0.0, 9.999897, 9.999195 
8.850198e+2, 2.2485866e+2, -805877.1, -858082.56, 14428.641, 0.003241483, 0.03943029, -802154.75, -65763.6, 0.0, 9.999895, 9.999202 
8.850252e+2, 2.348581e+2, -639811.44, -724847.06, 444.6908, 0.024305137, 0.058379263, -639809.1, -1412.924, 0.0, 10.000353, 9.999223 
8.850306e+2, 2.4485716e+2, -576995.75, -721441.2, 9355.322, 0.037517913, 0.07744311, -576392.3, -35986.25, 0.0, 10.000445, 9.9985285 
8.8503605e+2, 2.548558e+2, -520881.94, -642747.56, 29318.623, 0.041103046, 0.086816184, -514195.3, -71773.95, 0.0, 10.0001545, 9.998535 
8.850413e+2, 2.6485443e+2, -412386.34, -476906.0, 34696.477, 0.025798311, 0.06652111, -397269.6, -52834.574, 0.0, 9.999957, 9.999096 
8.850464e+2, 2.7485296e+2, -325365.53, -380974.44, 19325.496, -0.007118541, 0.0071973344, -319309.03, -72861.984, 0.0, 9.999868, 9.999124 
8.85052e+2, 2.8485224e+2, -246794.69, -325153.78, 13803.854, 0.00525859, 0.035441026, -244434.1, -95980.695, 0.0, 9.999875, 9.998832 
8.850581e+2, 2.9485214e+2, -137230.08, -222580.44, 12409.174, 0.06276859, 0.14108202, -135462.5, -85007.89, 0.0, 9.999957, 9.998824 
8.850631e+2, 3.0484977e+2, -109330.305, -211101.1, -1006.4806, 0.03274823, 0.03525481, -109320.35, -109320.35, 0.00000010587227, 9.999931, 9.998581 
8.850677e+2, 3.1484887e+2, -28991.676, -13466.937, -4762.8115, -0.011526448, 0.08379462, -12122.234, -12122.234, 0.0000015115112, 9.999798, 10.000002 
8.949676e+2, 1.2485983e+2, -1614524.8, -1720702.5, -505.4812, -0.08463624, 0.09977316, -1614522.4, 101861.21, 0.00000033567557, 10.000925, 9.999512 
8.9497185e+2, 1.3485919e+2, -1478043.9, -1603668.5, -16919.926, -0.16574812, 0.079631895, -1475804.9, 142584.16, 0.00000000007521531, 10.0011835, 9.999521 
8.9497834e+2, 1.4485875e+2, -1412935.1, -1552510.9, -10893.098, -0.0066238437, 0.09989761, -1412090.1, 108303.21, 0.0, 10.001089, 9.999244 
8.9498365e+2, 1.5485819e+2, -1378727.3, -1483760.8, -4498.4253, -0.0031431757, 0.11503452, -1378535.0, 43864.918, 0.0, 10.000647, 9.999255 
8.949885e+2, 1.6485757e+2, -1280367.3, -1332385.6, -15325.929, -0.03854483, 0.10463713, -1276187.8, 48217.516, 0.0, 10.000421, 9.999729 
8.949929e+2, 1.7485687e+2, -1181325.9, -1231759.3, -15037.171, -0.09947844, 0.057768844, -1177182.9, 49226.668, 0.0, 10.000417, 9.999749 
8.9499813e+2, 1.8485628e+2, -1110823.5, -1197507.6, -11490.704, -0.077897266, 0.04597955, -1109326.1, 19088.238, 0.0, 10.000443, 9.999299 
8.9500433e+2, 1.9485578e+2, -1002396.94, -1092785.8, -11744.266, 0.026460296, 0.06276107, -1000895.94, 29523.979, 0.0, 10.00051, 9.999312 
8.9500976e+2, 2.048552e+2, -914430.0, -973277.9, -8688.38, 0.06084415, 0.06331208, -913174.0, 19250.965, 0.0, 10.000329, 9.999548 
8.9501446e+2, 2.1485454e+2, -878375.9, -902630.5, 6030.3813, 0.02374492, 0.03765006, -876959.3, -42529.58, 0.0, 9.999893, 9.99957 
8.950196e+2, 2.2485375e+2, -829520.56, -906401.0, 29970.49, -0.003041929, 0.038170587, -819217.8, -82780.29, 0.0, 9.999891, 9.998873 
8.950251e+2, 2.3485288e+2, -664061.56, -774829.8, 18015.701, -0.021133274, 0.058852345, -661205.06, -22756.615, 0.0, 10.00035, 9.998881 
8.950305e+2, 2.44852e+2, -540990.44, -646127.75, -1608.5775, -0.02296398, 0.07631868, -540965.8, -508.1385, 0.0, 10.0004425, 9.999047 
8.9503574e+2, 2.5485113e+2, -483502.9, -564379.56, 19046.172, -0.005505846, 0.078206465, -479242.06, -36776.66, 0.0, 10.000151, 9.999076 
8.950411e+2, 2.6484987e+2, -438154.1, -530174.5, 30394.355, 0.011347458, 0.063906185, -429021.25, -84544.04, 0.0, 9.999955, 9.998732 
8.9504665e+2, 2.7484825e+2, -352842.16, -437304.84, 16921.201, 0.026206564, 0.026128558, -349578.3, -103084.77, 0.0, 9.999865, 9.998739 
8.950522e+2, 2.8484726e+2, -249616.39, -330283.13, 17925.8, 0.03554337, 0.050654348, -245812.3, -97308.984, 0.0, 9.999871, 9.998798 
8.950578e+2, 2.948469e+2, -139513.86, -226520.89, 17687.664, 0.040055946, 0.13015161, -136055.58, -85548.88, 0.0, 9.999952, 9.998799 
8.950626e+2, 3.0484462e+2, -103644.0, -198684.94, -6156.1406, -0.0105130505, 0.029109947, -103246.91, -103246.91, 0.00000013409642, 9.9999275, 9.998669 
8.950671e+2, 3.1484428e+2, -39374.605, -31260.438, -8084.3096, -0.055138897, 0.12241549, -26272.303, -26272.303, 0.0000016978646, 9.999782, 9.999887 
9.0496844e+2, 1.2485516e+2, -1615834.0, -1728837.9, 34400.977, -0.08929345, 0.13159989, -1606185.4, 110243.73, 0.0000010657902, 10.000944, 9.99945 
9.049728e+2, 1.3485387e+2, -1532265.9, -1640891.4, 9756.566, -0.16988805, 0.05686957, -1531396.5, 87044.59, 0.000000007369457, 10.000858, 9.999422 
9.049792e+2, 1.4485343e+2, -1447083.3, -1555862.1, 5637.9487, -0.012580711, 0.07474341, -1446791.8, 73653.67, 0.0, 10.0008, 9.999359 
9.049843e+2, 1.5485331e+2, -1352716.3, -1458984.3, 20166.95, -0.0052053677, 0.1253369, -1349017.8, 73429.24, 0.0, 10.0007715, 9.999366 
9.04989e+2, 1.6485272e+2, -1256693.0, -1344982.1, 15002.08, -0.036925867, 0.12195903, -1254213.5, 70238.86, 0.0, 10.000686, 9.999516 
9.0499336e+2, 1.7485158e+2, -1175752.6, -1252284.1, -1902.0917, -0.09896754, 0.052364934, -1175705.4, 50756.582, 0.0, 10.000558, 9.999539 
9.049986e+2, 1.848509e+2, -1100744.9, -1175662.0, 3235.504, -0.07380205, 0.034906592, -1100605.4, 27862.453, 0.0, 10.0004425, 9.999449 
9.0500486e+2, 1.9485068e+2, -1016505.6, -1083016.0, 15549.847, 0.04041648, 0.06432788, -1013049.7, 17420.21, 0.0, 10.000342, 9.99946 
9.050103e+2, 2.0485018e+2, -917207.6, -980864.2, 4571.271, 0.07508035, 0.06825294, -916881.06, 15592.842, 0.0, 10.000337, 9.999492 
9.0501463e+2, 2.1484941e+2, -804136.94, -873562.2, -15234.981, 0.026103238, 0.036937688, -800940.8, 33539.01, 0.0, 10.000432, 9.99951 
9.0501964e+2, 2.2484866e+2, -766492.4, -866617.4, 15216.275, -0.005913896, 0.038742553, -764231.0, -27743.383, 0.0, 10.000284, 9.998956 
9.050252e+2, 2.3484793e+2, -725535.4, -794868.8, 34063.027, -0.021587716, 0.06702982, -711600.94, -73103.51, 0.0, 9.999887, 9.998966 
9.050306e+2, 2.4484718e+2, -618054.5, -657250.1, 19196.88, -0.029306002, 0.0812094, -610218.9, -69713.88, 0.0, 9.999803, 9.999279 
9.050356e+2, 2.548464e+2, -482385.56, -537695.56, 15783.014, -0.027323317, 0.06909196, -478198.72, -35688.29, 0.0, 10.000047, 9.999309 
9.0504104e+2, 2.6484525e+2, -416070.94, -540818.7, 22626.637, -0.008541328, 0.060264174, -412093.75, -67572.14, 0.0, 10.000199, 9.998541 
9.050467e+2, 2.748437e+2, -309857.63, -438766.66, 21446.965, 0.026949676, 0.048424676, -306383.1, -59844.137, 0.0, 10.000255, 9.998542 
9.050522e+2, 2.8484258e+2, -201377.8, -302090.22, 31703.098, 0.033314157, 0.07111573, -192229.1, -43678.848, 0.0, 10.00018, 9.998844 
9.050575e+2, 2.9484195e+2, -134027.52, -217358.17, 35502.227, 0.009558791, 0.11868932, -120953.39, -70397.74, 0.0, 9.999964, 9.998856 
9.050622e+2, 3.0483973e+2, -118078.05, -186739.8, 15393.16, -0.036060072, 0.012167311, -114785.016, -114785.016, 0.0000001316986, 9.999749, 9.998835 
9.050668e+2, 3.148398e+2, -81474.836, -57676.56, 15594.281, -0.048475243, 0.13252005, -49960.113, -49960.113, 0.0000016698094, 9.999516, 9.999835 
9.149699e+2, 1.2485061e+2, -1622755.5, -1747343.8, 28832.346, -0.04120963, 0.13189775, -1616406.6, 100065.64, 0.000002613721, 10.00096, 9.999315 
9.149741e+2, 1.3484912e+2, -1545488.8, -1666877.3, 6137.201, -0.12357387, 0.05504575, -1545179.3, 73308.04, 0.00000007607973, 10.000852, 9.999248 
9.1498e+2, 1.448486e+2, -1432886.8, -1524886.9, 4476.8843, -0.019074647, 0.06539513, -1432669.4, 87822.76, 0.0, 10.000793, 9.999575 
9.149842e+2, 1.5484849e+2, -1336453.4, -1425175.6, 19850.979, -0.09229076, 0.09072521, -1332214.4, 90278.125, 0.0, 10.0007715, 9.999598 
9.1498905e+2, 1.6484782e+2, -1284744.1, -1404784.6, 8813.001, -0.09824947, 0.08994981, -1284100.5, 40398.363, 0.0, 10.00069, 9.999104 
9.149947e+2, 1.7484663e+2, -1205362.1, -1314084.9, -6928.376, -0.018980427, 0.057347603, -1204922.4, 21588.791, 0.0, 10.000558, 9.999116 
9.149999e+2, 1.8484607e+2, -1078564.0, -1128957.3, -1743.5127, 0.009962503, 0.05625167, -1078503.8, 50012.598, 0.0, 10.00044, 9.999771 
9.150046e+2, 1.9484611e+2, -993891.7, -1035145.56, 11566.595, -0.019117165, 0.07970671, -990870.0, 39644.4, 0.0, 10.000338, 9.999792 
9.150095e+2, 2.0484547e+2, -952739.44, -1053714.8, 6876.459, -0.03121383, 0.07658956, -952273.3, -19753.346, 0.0, 10.000332, 9.998995 
9.1501456e+2, 2.1484411e+2, -839820.94, -947132.94, -11841.107, -0.023944391, 0.03568881, -838529.9, -3996.3386, 0.0, 10.000429, 9.999006 
9.1501987e+2, 2.2484335e+2, -732735.9, -796216.25, -831.3722, -0.0071651717, 0.040208384, -732725.0, 3816.245, 0.0, 10.000282, 9.99944 
9.1502553e+2, 2.3484328e+2, -690584.3, -721624.44, 19251.793, 0.020070087, 0.08339777, -681375.75, -42832.953, 0.0, 9.999884, 9.999472 
9.150308e+2, 2.4484272e+2, -621647.25, -664492.7, 27373.396, 0.013869198, 0.09372604, -608310.25, -67762.69, 0.0, 9.999801, 9.99923 
9.150357e+2, 2.5484166e+2, -487569.88, -547821.94, 25513.484, -0.02804201, 0.06009626, -478217.88, -35661.79, 0.0, 10.000043, 9.999241 
9.1504097e+2, 2.6484048e+2, -418384.1, -545020.4, 24967.645, -0.03643366, 0.05500929, -413639.25, -69071.35, 0.0, 10.000196, 9.998513 
9.1504663e+2, 2.748392e+2, -311855.94, -442069.63, 24971.607, -0.008739622, 0.07330817, -307231.28, -60648.05, 0.0, 10.00025, 9.998522 
9.15052e+2, 2.8483817e+2, -194191.53, -285484.5, 23074.025, -0.0064097275, 0.09663096, -188691.05, -40096.926, 0.0, 10.000173, 9.998961 
9.15057e+2, 2.948373e+2, -126924.93, -199958.58, 28459.7, -0.031545676, 0.10780022, -117144.52, -66543.266, 0.0, 9.999952, 9.9989805 
9.1506183e+2, 3.048351e+2, -100963.84, -150254.75, 7131.093, -0.046178848, -0.01416483, -99952.89, -99952.89, 0.00000009563079, 9.999743, 9.999089 
9.150668e+2, 3.1483543e+2, -78921.2, -51739.926, 9657.63, -0.0040164683, 0.10556373, -48657.973, -48657.973, 0.0000014046396, 9.999513, 9.999877 
9.2497134e+2, 1.2484557e+2, -1596618.0, -1732836.4, 21326.645, -0.009081766, 0.090145886, -1593357.1, 123162.62, 0.0000053718704, 10.001136, 9.999328 
9.249751e+2, 1.3484454e+2, -1533405.5, -1663927.4, 9369.46, -0.11469257, 0.061697636, -1532736.4, 85794.75, 0.00000033393198, 10.000947, 9.999222 
9.249806e+2, 1.448441e+2, -1441196.5, -1538528.4, 7063.9688, -0.03321391, 0.08589166, -1440686.5, 79849.195, 0.0, 10.000779, 9.999488 
9.2498463e+2, 1.5484357e+2, -1359813.8, -1445206.4, -3513.3745, -0.12217997, 0.07654846, -1359669.5, 62871.137, 0.0, 10.000651, 9.9995165 
9.249896e+2, 1.6484286e+2, -1295103.4, -1404529.6, -7525.7944, -0.113388106, 0.07287798, -1294588.3, 29959.291, 0.0, 10.000602, 9.999146 
9.249956e+2, 1.7484203e+2, -1190590.4, -1302549.6, 11205.513, 0.012029395, 0.07276534, -1189479.9, 37076.4, 0.0, 10.000642, 9.999154 
9.2500067e+2, 1.848415e+2, -1073677.3, -1147703.6, 11978.611, 0.040057056, 0.08227321, -1071787.3, 56774.33, 0.0, 10.000565, 9.999582 
9.250048e+2, 1.9484122e+2, -1003359.5, -1060761.8, -16011.081, -0.041937027, 0.09351379, -999195.6, 31367.91, 0.0, 10.000365, 9.999601 
9.2500937e+2, 2.0484051e+2, -958932.1, -1038341.75, -9518.49, -0.06838477, 0.08572266, -957807.1, -25237.375, 0.0, 10.000212, 9.999157 
9.250148e+2, 2.1483934e+2, -874818.3, -945408.56, 21347.016, -0.034532703, 0.048242465, -868864.94, -34284.254, 0.0, 10.000109, 9.999172 
9.2502016e+2, 2.248386e+2, -770849.4, -821175.0, 31333.809, -0.0020675631, 0.04753283, -755825.44, -19237.686, 0.0, 10.000051, 9.999381 
9.250256e+2, 2.3483832e+2, -673747.7, -720655.1, 6646.3047, 0.028920654, 0.07626707, -672824.2, -34233.227, 0.0, 10.000031, 9.999407 
9.2503077e+2, 2.4483764e+2, -588956.3, -648082.06, 7927.6367, 0.021391654, 0.07753037, -587911.8, -47314.92, 0.0, 10.000022, 9.999236 
9.250358e+2, 2.5483656e+2, -487418.06, -546992.6, 10251.025, -0.027944356, 0.041848086, -485703.5, -43097.684, 0.0, 10.00004, 9.9992485 
9.2504096e+2, 2.6483554e+2, -431109.9, -529272.9, 16776.629, -0.045286562, 0.040974718, -428321.88, -83705.69, 0.0, 10.000014, 9.99871 
9.250465e+2, 2.7483457e+2, -344570.16, -435264.6, 31808.33, -0.027805481, 0.069799334, -334526.6, -87898.55, 0.0, 9.999928, 9.998723 
9.250518e+2, 2.8483364e+2, -249011.28, -318588.3, 27489.373, -0.026578419, 0.097576834, -239461.27, -90823.28, 0.0, 9.999826, 9.998901 
9.2505676e+2, 2.948327e+2, -166476.63, -226118.9, 16752.9, -0.042428233, 0.108151555, -162093.1, -111446.36, 0.0, 9.999711, 9.998919 
9.250616e+2, 3.0483067e+2, -81591.05, -111807.375, -4183.197, -0.04675257, -0.0066024144, -81022.61, -81022.61, 0.00000004550982, 9.999751, 9.99935 
9.2506653e+2, 3.148311e+2, -9088.408, -8324.086, -2812.837, -0.0007448841, 0.10085022, -5867.5684, -5867.5684, 0.0000009683944, 9.999951, 9.999965 
9.349724e+2, 1.24840066e+2, -1587901.5, -1712638.9, 10580.9795, -0.011266314, -0.0016972673, -1587010.4, 129560.93, 0.000009857008, 10.001127, 9.99947 
9.3497574e+2, 1.3484024e+2, -1525318.1, -1648042.0, 3224.812, -0.1467752, 0.07979086, -1525233.5, 93337.98, 0.0000009955157, 10.000953, 9.999328 
9.3498117e+2, 1.4484006e+2, -1466221.4, -1594466.9, 792.5888, -0.05854104, 0.1419807, -1466216.5, 54358.45, 0.00000000002439963, 10.000793, 9.999098 
9.349855e+2, 1.5483862e+2, -1388396.9, -1504253.5, -8328.507, -0.09801791, 0.08412433, -1387801.3, 34789.117, 0.0, 10.000649, 9.999113 
9.3499047e+2, 1.6483787e+2, -1261156.6, -1332783.3, -6861.89, -0.08632143, 0.070565715, -1260505.3, 64092.582, 0.0, 10.000596, 9.999641 
9.34996e+2, 1.7483781e+2, -1155578.1, -1229051.1, 12897.852, -0.009191796, 0.0978696, -1153379.8, 73216.91, 0.0, 10.000639, 9.9996605 
9.3500096e+2, 1.8483722e+2, -1124349.0, -1252380.1, 3626.4814, 0.011733064, 0.113456085, -1124246.4, 4356.335, 0.0, 10.000561, 9.998866 
9.3500525e+2, 1.9483607e+2, -1054143.3, -1166333.9, -23795.611, -0.030318582, 0.1062653, -1049304.9, -18688.154, 0.0, 10.000365, 9.998878 
9.3500996e+2, 2.0483536e+2, -901634.8, -919548.94, -15019.333, -0.03829555, 0.09597371, -893104.5, 39518.453, 0.0, 10.000212, 9.999974 
9.3501514e+2, 2.148352e+2, -816526.3, -823728.3, 17239.14, -0.008561009, 0.075179555, -802516.1, 32104.697, 0.0, 10.000105, 10.00001 
9.3502027e+2, 2.2483444e+2, -814324.8, -910369.9, 29328.018, 0.005612498, 0.061785802, -806077.44, -69450.734, 0.0, 10.000045, 9.998771 
9.3502533e+2, 2.3483309e+2, -718970.2, -813581.8, 6121.229, 0.0028036847, 0.04633573, -718575.8, -79934.32, 0.0, 10.000027, 9.998771 
9.350305e+2, 2.4483196e+2, -585244.25, -640188.5, 7935.864, -0.00878502, 0.033304173, -584121.0, -43468.58, 0.0, 10.000021, 9.999291 
9.3503577e+2, 2.548311e+2, -482302.72, -536301.06, 11852.525, -0.029931411, 0.013450841, -479815.66, -37156.19, 0.0, 10.000039, 9.999324 
9.3504107e+2, 2.6483038e+2, -402400.03, -468543.78, 13397.639, -0.038934387, 0.017416025, -399789.34, -55123.074, 0.0, 10.00001, 9.999129 
9.350464e+2, 2.7482975e+2, -316481.72, -375308.34, 29474.266, -0.03439028, 0.03882848, -304255.2, -57582.156, 0.0, 9.999922, 9.999139 
9.3505156e+2, 2.8482905e+2, -265738.44, -352777.66, 22955.29, -0.031423703, 0.07579172, -260055.39, -111373.984, 0.0, 9.999823, 9.998669 
9.3505657e+2, 2.9482818e+2, -183645.81, -261649.61, 14174.073, -0.029951194, 0.11991345, -181150.1, -130458.43, 0.0, 9.999708, 9.998676 
9.350614e+2, 3.048264e+2, -64950.336, -75591.87, 2769.0576, -0.044339743, 0.03333016, -64272.914, -64272.914, 0.000000010385675, 9.999744, 9.999601 
9.3506604e+2, 3.1482685e+2, -3158.3433, 8284.691, 7013.6045, -0.046162076, 0.10904387, 11614.495, 11614.495, 0.00000050425, 9.999933, 10.000087 
9.4497293e+2, 1.2483505e+2, -1653370.3, -1736992.5, -10999.807, -0.045450285, -0.012415287, -1651947.5, 64672.336, 0.000016753027, 10.000647, 9.9995365 
9.449765e+2, 1.3483521e+2, -1531585.0, -1646848.0, -22902.967, -0.15998194, 0.06387262, -1527200.9, 91419.27, 0.000002343361, 10.000893, 9.999364 
9.449821e+2, 1.4483511e+2, -1445150.5, -1587544.9, -20290.88, -0.050148305, 0.13377415, -1442315.5, 78307.46, 0.0000000053592455, 10.000957, 9.999065 
9.449866e+2, 1.5483369e+2, -1364293.4, -1496419.8, -2786.2026, -0.068386786, 0.08219627, -1364234.8, 58403.805, 0.0, 10.000833, 9.999078 
9.4499123e+2, 1.64833e+2, -1246309.8, -1314656.9, 463.14432, -0.07114218, 0.07197435, -1246306.6, 78338.85, 0.0, 10.000651, 9.999739 
9.449962e+2, 1.7483306e+2, -1181242.4, -1229745.3, -12107.652, -0.04846865, 0.098945275, -1178387.9, 48255.355, 0.0, 10.000414, 9.9997635 
9.4500107e+2, 1.8483247e+2, -1156374.1, -1258261.3, -5229.771, -0.025627285, 0.10669834, -1156106.4, -27457.594, 0.0, 10.000302, 9.998949 
9.450058e+2, 1.9483124e+2, -1053297.1, -1156946.1, 27743.072, -0.006318407, 0.08482227, -1046338.44, -15675.795, 0.0, 10.000334, 9.998957 
9.450106e+2, 2.0483054e+2, -899907.9, -942983.6, 30025.13, 0.0021158974, 0.08033417, -884494.56, 48174.88, 0.0, 10.000329, 9.999756 
9.450154e+2, 2.1483041e+2, -806311.75, -843768.9, -19317.777, -0.00045694932, 0.08728842, -798134.25, 36534.508, 0.0, 10.000284, 9.999785 
9.450203e+2, 2.2482972e+2, -767837.7, -858416.4, -13212.681, -0.0043551833, 0.07642154, -765949.75, -29275.502, 0.0, 10.000237, 9.999035 
9.450253e+2, 2.3482838e+2, -675908.8, -762472.1, 30341.68, -0.010384084, 0.037502382, -666332.94, -27646.594, 0.0, 10.000193, 9.9990425 
9.4503045e+2, 2.4482727e+2, -588594.2, -668082.75, 56322.703, -0.018170653, 0.02081768, -559404.75, -18707.506, 0.0, 10.000112, 9.999057 
9.4503576e+2, 2.5482634e+2, -507754.8, -575524.94, 34871.652, -0.027694382, 0.017017478, -493016.53, -50309.47, 0.0, 9.999981, 9.999083 
9.45041e+2, 2.6482558e+2, -415165.44, -455732.3, 13396.183, -0.035102915, 0.024244206, -411140.94, -66426.55, 0.0, 9.99984, 9.999299 
9.450461e+2, 2.7482504e+2, -335778.13, -364537.9, 10558.186, -0.039513405, 0.036663562, -332318.25, -85599.21, 0.0, 9.999702, 9.999318 
9.4505125e+2, 2.8482434e+2, -280766.72, -355964.5, 10907.074, -0.03894112, 0.06576293, -279216.66, -130490.25, 0.0, 9.9997015, 9.998706 
9.450563e+2, 2.9482347e+2, -164504.63, -248216.4, 21215.418, -0.03258674, 0.10380619, -159434.94, -108698.19, 0.0, 9.999823, 9.998714 
9.4506115e+2, 3.0482185e+2, -57968.195, -94952.62, 9662.982, -0.046025816, 0.035745, -55595.723, -55595.723, 0.00000000032400083, 9.999891, 9.999399 
9.4506586e+2, 3.1482205e+2, -27571.412, -40254.133, -24247.42, -0.0557454, 0.11344347, -8849.847, -8849.847, 0.00000016973306, 9.999925, 9.999758 
9.549728e+2, 1.24830656e+2, -1651440.6, -1737304.6, -8431.375, -0.1319251, 0.06300199, -1650620.5, 66043.69, 0.00002677623, 10.000663, 9.999527 
9.5497745e+2, 1.3482954e+2, -1535219.4, -1653362.6, -13420.01, -0.15706566, 0.014396717, -1533714.1, 84962.19, 0.0000047533053, 10.000887, 9.999323 
9.549835e+2, 1.4482932e+2, -1423700.3, -1541357.8, -25155.953, -0.011649296, 0.059642397, -1418547.4, 102131.805, 0.000000046136613, 10.000949, 9.999386 
9.549877e+2, 1.5482886e+2, -1341463.3, -1448713.9, -6769.339, -0.037013996, 0.07048801, -1341037.8, 81646.54, 0.0, 10.000832, 9.999406 
9.549919e+2, 1.6482836e+2, -1267330.0, -1359146.0, -8995.163, -0.07281048, 0.07872411, -1266457.1, 58232.625, 0.0, 10.000653, 9.9994335 
9.54996e+2, 1.748278e+2, -1202727.1, -1274905.1, -20793.332, -0.1079347, 0.07687403, -1197165.5, 29530.035, 0.0, 10.000415, 9.999454 
9.550009e+2, 1.848273e+2, -1095172.5, -1130968.3, -5346.0034, -0.07523284, 0.06320218, -1094391.1, 34308.07, 0.0, 10.000301, 9.999824 
9.550065e+2, 1.9482683e+2, -991389.3, -1027802.5, 28664.402, 0.027295833, 0.029840402, -975638.1, 55062.594, 0.0, 10.00033, 9.9998455 
9.550114e+2, 2.048261e+2, -988925.4, -1126870.1, 27069.7, 0.049417038, 0.03899726, -983803.5, -51094.637, 0.0, 10.000324, 9.998496 
9.5501554e+2, 2.1482508e+2, -897377.75, -1031867.56, -21140.613, -0.012934475, 0.08418948, -894132.9, -59408.75, 0.0, 10.000279, 9.998496 
9.5502025e+2, 2.2482444e+2, -689336.06, -694690.1, -16285.324, -0.034716308, 0.09141033, -675509.25, 61220.64, 0.0, 10.000233, 10.000162 
9.5502543e+2, 2.3482426e+2, -593760.0, -591852.75, 28859.57, -0.013417788, 0.04864719, -563931.06, 74794.33, 0.0, 10.000191, 10.000216 
9.550306e+2, 2.4482353e+2, -626097.56, -745212.56, 50920.71, -0.00994831, 0.03839085, -607296.8, -66565.63, 0.0, 10.000108, 9.998529 
9.550358e+2, 2.5482222e+2, -548117.25, -658131.9, 30585.207, -0.025249338, 0.053620152, -540186.06, -97437.75, 0.0, 9.999975, 9.998517 
9.550408e+2, 2.648212e+2, -419974.5, -465969.2, 7823.7246, -0.037495494, 0.06389556, -418680.13, -73920.09, 0.0, 9.99984, 9.999229 
9.5504576e+2, 2.7482048e+2, -339225.13, -372180.13, 6467.676, -0.047175925, 0.06225813, -338001.25, -91235.42, 0.0, 9.999703, 9.999267 
9.550508e+2, 2.848196e+2, -260649.52, -312818.13, 15392.7705, -0.05283468, 0.06461976, -256446.39, -107673.445, 0.0, 9.999696, 9.999004 
9.5505595e+2, 2.948186e+2, -144782.5, -204767.78, 27180.758, -0.05450032, 0.059196603, -134298.58, -83516.695, 0.0, 9.999812, 9.999018 
9.5506096e+2, 3.0481693e+2, -104139.49, -189303.7, 10686.541, -0.05629, 0.0023646767, -102819.01, -102819.01, 0.0, 9.999883, 9.998755 
9.5506597e+2, 3.1481683e+2, -83077.13, -152011.33, -19155.906, -0.041411832, 0.11453973, -78111.63, -78111.63, 0.000000027453995, 9.999908, 9.998999 
9.649736e+2, 1.2482622e+2, -1599642.0, -1711845.8, 24120.11, -0.12566668, 0.08919946, -1594676.8, 122031.234, 0.000040530904, 10.00102, 9.999526 
9.649784e+2, 1.3482463e+2, -1549109.1, -1661831.4, 24930.729, -0.149342, -0.00410559, -1543841.4, 74882.47, 0.000008656152, 10.000801, 9.999305 
9.6498424e+2, 1.4482439e+2, -1445819.0, -1530037.4, 9159.896, -0.012619049, 0.029899444, -1444834.3, 75892.17, 0.00000019058375, 10.000705, 9.99958 
9.649883e+2, 1.5482427e+2, -1345732.1, -1428331.8, 14906.62, -0.058965907, 0.054428425, -1343124.4, 79603.12, 0.0, 10.000707, 9.999604 
9.6499234e+2, 1.6482383e+2, -1282993.8, -1381809.3, 9577.253, -0.08618992, 0.06722294, -1282074.0, 42658.207, 0.0, 10.000612, 9.999296 
9.6499664e+2, 1.7482312e+2, -1209728.1, -1293409.3, 10064.084, -0.08334074, 0.061276454, -1208534.8, 18206.066, 0.0, 10.000433, 9.999316 
9.650014e+2, 1.8482263e+2, -1080484.6, -1112230.6, 13254.097, -0.051684845, 0.051122043, -1075678.5, 53066.098, 0.0, 10.000352, 9.9999275 
9.6500665e+2, 1.9482239e+2, -977123.3, -1008619.6, -12634.086, 0.0069459635, 0.029202329, -972681.75, 58061.508, 0.0, 10.000377, 9.999954 
9.650115e+2, 2.0482165e+2, -991960.9, -1134874.8, -2265.5427, 0.020986432, 0.03539858, -991925.0, -59173.707, 0.0, 10.000333, 9.998436 
9.650158e+2, 2.1482037e+2, -911053.0, -1045493.4, 40698.645, -0.011548635, 0.06208624, -899692.5, -64923.063, 0.0, 10.0002165, 9.998433 
9.6502054e+2, 2.2481973e+2, -707301.7, -703468.5, 52400.188, -0.025450312, 0.071848065, -652949.9, 83825.9, 0.0, 10.000111, 10.00016 
9.650255e+2, 2.348198e+2, -619592.1, -604141.5, 7629.055, -0.02074447, 0.053098768, -601009.44, 37760.17, 0.0, 10.000013, 10.000216 
9.6503055e+2, 2.4481927e+2, -639159.3, -737517.9, 9267.639, -0.018447652, 0.056772288, -638293.75, -97520.26, 0.0, 9.999958, 9.998653 
9.6503586e+2, 2.5481814e+2, -542234.2, -640840.5, 39696.64, -0.018160008, 0.07706032, -528239.44, -85451.3, 0.0, 9.999955, 9.998646 
9.650409e+2, 2.6481697e+2, -407133.44, -492100.5, 40523.883, -0.02719639, 0.0815786, -390905.5, -46104.203, 0.0, 10.000069, 9.99894 
9.6504575e+2, 2.7481574e+2, -275608.1, -374644.0, 19401.176, -0.046367377, 0.061020985, -271943.03, -25130.145, 0.0, 10.000283, 9.99897 
9.650507e+2, 2.8481477e+2, -180530.92, -260615.84, 6511.5044, -0.05648138, 0.059940066, -180004.94, -31183.547, 0.0, 10.000188, 9.999126 
9.650557e+2, 2.9481402e+2, -138569.95, -187103.36, 3363.307, -0.056600437, 0.06843101, -138338.0, -87511.05, 0.0, 9.999792, 9.999148 
9.6506065e+2, 3.0481255e+2, -144558.3, -187895.19, 14097.276, -0.053457726, 0.01595883, -140376.13, -140376.13, 0.0, 9.999517, 9.99894 
9.6506566e+2, 3.1481227e+2, -158564.89, -174639.17, 45333.68, -0.03277541, 0.09278661, -120561.414, -120561.414, 0.00000000015790982, 9.999331, 9.999122 
9.749755e+2, 1.2482177e+2, -1599291.6, -1710010.4, 10488.693, -0.044938084, 0.059607122, -1598306.8, 118444.125, 0.000058506626, 10.001016, 9.999541 
9.749792e+2, 1.3482061e+2, -1548476.3, -1660783.8, 18303.26, -0.14156474, 0.008984419, -1545568.5, 73193.516, 0.00001444443, 10.000802, 9.999311 
9.749845e+2, 1.4482044e+2, -1441710.9, -1522197.1, 9162.835, -0.05937617, 0.046803303, -1440681.0, 80082.62, 0.0000005546723, 10.000707, 9.999634 
9.749882e+2, 1.5482001e+2, -1342278.6, -1420723.1, 15559.128, -0.1369538, 0.034831226, -1339305.3, 83462.19, 0.0, 10.000704, 9.999659 
9.749927e+2, 1.6481954e+2, -1280960.6, -1376924.9, 1948.0758, -0.11508477, 0.03868373, -1280921.1, 43851.375, 0.0, 10.000609, 9.999331 
9.749982e+2, 1.7481905e+2, -1207848.3, -1288880.9, 3415.122, 0.022768209, 0.052709967, -1207704.6, 19074.246, 0.0, 10.00043, 9.99935 
9.750027e+2, 1.848185e+2, -1127504.0, -1209266.4, 12993.169, 0.04125171, 0.070060134, -1125488.9, 3295.6694, 0.0, 10.000349, 9.999264 
9.750063e+2, 1.9481793e+2, -1024606.06, -1106858.1, -11845.092, -0.06953947, 0.08202878, -1022934.25, 7855.534, 0.0, 10.000374, 9.999281 
9.7501075e+2, 2.0481724e+2, -913054.4, -970405.4, -8010.3467, -0.08617468, 0.06928538, -911956.56, 20839.725, 0.0, 10.000329, 9.999568 
9.750162e+2, 2.1481636e+2, -829846.44, -876392.44, 35979.777, 0.00065356615, 0.021533148, -810268.8, 24535.326, 0.0, 10.000214, 9.999596 
9.7502106e+2, 2.2481562e+2, -786957.56, -868042.4, 47324.254, 0.019880965, 0.017638056, -765184.06, -28372.557, 0.0, 10.000107, 9.999032 
9.750254e+2, 2.3481505e+2, -702488.6, -774992.4, 4111.9355, -0.034599602, 0.052167118, -702256.1, -63437.723, 0.0, 10.000008, 9.999045 
9.750303e+2, 2.4481453e+2, -585570.8, -625772.7, 8334.188, -0.045811683, 0.07840785, -583911.56, -43088.117, 0.0, 9.999955, 9.999423 
9.750359e+2, 2.548141e+2, -485307.3, -522630.63, 40046.938, -0.009973943, 0.08580707, -459787.34, -16960.854, 0.0, 9.999954, 9.999458 
9.7504115e+2, 2.648129e+2, -443807.0, -567036.44, 48669.563, -0.0075689983, 0.07366583, -426903.56, -82065.15, 0.0, 10.000063, 9.998428 
9.750461e+2, 2.7481094e+2, -314466.34, -453888.97, 28939.225, -0.041755695, 0.032809734, -308698.22, -61838.27, 0.0, 10.000277, 9.998429 
9.75051e+2, 2.8480992e+2, -185078.1, -269631.94, -8305.291, -0.05474237, 0.054569487, -184270.03, -35398.848, 0.0, 10.000185, 9.999067 
9.7505563e+2, 2.9480982e+2, -142829.97, -194264.28, -9848.723, -0.045108017, 0.13382216, -141008.63, -90137.14, 0.0, 9.9997835, 9.9991045 
9.750603e+2, 3.0480874e+2, -77479.65, -45614.105, 7312.0254, -0.04246954, 0.07666013, -44016.363, -44016.363, 0.0, 9.999504, 9.999926 
9.7506493e+2, 3.148083e+2, -92553.58, -33693.504, 41157.22, -0.039190877, 0.035616867, -12526.667, -12526.667, 0.0, 9.999315, 10.000097 
9.849768e+2, 1.2481745e+2, -1618672.4, -1707980.8, -9504.593, -0.004266861, 0.061825875, -1617672.1, 99120.81, 0.00008108169, 10.0008335, 9.999643 
9.8498e+2, 1.3481633e+2, -1541121.0, -1648226.4, 7397.9487, -0.14664504, 0.0065396754, -1540612.5, 78190.42, 0.000022462764, 10.000813, 9.999393 
9.84985e+2, 1.4481618e+2, -1447907.9, -1531504.8, -1985.4506, -0.078688905, 0.044807475, -1447860.8, 72943.25, 0.0000013019285, 10.00069, 9.9995775 
9.8498875e+2, 1.5481567e+2, -1385900.3, -1447273.3, -4998.835, -0.13807906, 0.032371633, -1385495.8, 37312.965, 0.0, 10.00043, 9.999608 
9.849933e+2, 1.6481516e+2, -1305448.1, -1391248.9, -15703.991, -0.10669629, 0.034419462, -1302664.3, 22150.322, 0.0, 10.000453, 9.999309 
9.849988e+2, 1.748146e+2, -1158046.3, -1267497.8, -19835.453, 0.03159835, 0.043813147, -1154562.4, 72259.01, 0.0, 10.000784, 9.999326 
9.850033e+2, 1.8481402e+2, -1074538.9, -1193910.0, 489.4579, 0.049163353, 0.06222707, -1074536.9, 54291.18, 0.0, 10.000755, 9.999173 
9.8500663e+2, 1.9481343e+2, -1034246.9, -1121257.9, 18529.922, -0.066638745, 0.081921, -1030465.1, 369.26285, 0.0, 10.000349, 9.999194 
9.8501086e+2, 2.0481284e+2, -922969.56, -945188.9, 19033.998, -0.09305625, 0.07198549, -912040.2, 20799.2, 0.0, 10.000132, 9.999836 
9.850161e+2, 2.148122e+2, -823934.56, -842648.06, -4788.9536, -0.022491174, 0.020558277, -822780.25, 12062.971, 0.0, 10.000121, 9.999871 
9.85021e+2, 2.248115e+2, -799211.25, -903480.4, 7200.1045, 0.0007488436, 0.01599713, -798716.44, -61865.934, 0.0, 10.000152, 9.998767 
9.850256e+2, 2.3481067e+2, -690726.1, -800144.4, 29736.332, -0.02723779, 0.054799475, -683166.94, -44305.582, 0.0, 10.000222, 9.998769 
9.8503053e+2, 2.4481e+2, -539976.7, -599100.06, 42478.867, -0.03490629, 0.077097066, -517785.63, 23082.81, 0.0, 10.00025, 9.999464 
9.8503584e+2, 2.5480944e+2, -443495.72, -497565.66, 14939.922, -0.021439016, 0.069355905, -439642.3, 3229.428, 0.0, 10.00022, 9.999502 
9.850411e+2, 2.6480833e+2, -444134.25, -557812.75, 14001.643, -0.018612042, 0.05794092, -442435.1, -97552.484, 0.0, 10.00002, 9.998511 
9.850462e+2, 2.7480665e+2, -399246.53, -484835.2, 39187.832, -0.027328627, 0.03635908, -384014.66, -137113.22, 0.0, 9.999654, 9.998515 
9.85051e+2, 2.8480566e+2, -285891.25, -326109.88, 23413.404, -0.036217064, 0.06255157, -275136.8, -126224.37, 0.0, 9.999528, 9.998995 
9.850554e+2, 2.9480538e+2, -172276.81, -216834.88, 18600.082, -0.04407374, 0.1301727, -165533.13, -114617.97, 0.0, 9.999619, 9.999028 
9.850598e+2, 3.048044e+2, -46470.086, -7323.187, 9906.525, -0.045320988, 0.078216165, -4959.0166, -4959.0166, 0.0, 9.999618, 10.000133 
9.8506445e+2, 3.1480417e+2, -43991.508, 9799.496, -18792.258, -0.033437785, 0.03353356, 15714.3125, 15714.3125, 0.0, 9.999561, 10.000278 
9.9497753e+2, 1.2481332e+2, -1607508.9, -1684111.9, -18659.875, -0.020957094, 0.092970595, -1603205.3, 113628.35, 0.000108580556, 10.000831, 9.999808 
9.949806e+2, 1.3481186e+2, -1531361.6, -1627651.3, 7979.938, -0.16731927, -0.01048423, -1530704.8, 88140.95, 0.000033028722, 10.000812, 9.999536 
9.9498576e+2, 1.4481166e+2, -1459056.8, -1554576.1, -12223.901, -0.07469652, 0.025160143, -1457517.3, 63329.848, 0.0000026281716, 10.0006895, 9.99942 
9.9498993e+2, 1.5481135e+2, -1397079.5, -1469987.8, -14315.233, -0.066008985, 0.046630666, -1394369.5, 28481.568, 0.00000000019976186, 10.000427, 9.999454 
9.949942e+2, 1.6481076e+2, -1312061.8, -1404117.3, -4511.1157, -0.065474935, 0.05310407, -1311841.3, 13016.745, 0.0, 10.000448, 9.999223 
9.949987e+2, 1.7480983e+2, -1164070.5, -1280115.1, -7304.559, -0.059962776, 0.034305096, -1163612.5, 63255.59, 0.0, 10.000783, 9.99924 
9.950033e+2, 1.8480921e+2, -1040766.4, -1123498.1, -15587.335, -0.032953065, 0.028556237, -1037927.06, 90947.4, 0.0, 10.000753, 9.999658 
9.950078e+2, 1.9480895e+2, -999772.1, -1049345.1, 2753.615, 0.0130316205, 0.030476328, -999619.6, 31256.783, 0.0, 10.000347, 9.999689 
9.950119e+2, 2.0480853e+2, -964639.6, -1031035.7, 16707.701, -0.0026706292, 0.04378759, -960672.4, -27792.19, 0.0, 10.000128, 9.9992485 
9.950156e+2, 2.1480797e+2, -867267.25, -931318.8, -5565.985, -0.08291927, 0.05883064, -866787.2, -31901.012, 0.0, 10.000115, 9.999266 
9.9502033e+2, 2.2480735e+2, -758673.8, -818374.3, 8440.244, -0.08508888, 0.06693412, -757503.5, -20611.31, 0.0, 10.000146, 9.999354 
9.9502605e+2, 2.3480669e+2, -648014.0, -711043.75, 32453.355, -0.0023272124, 0.05954238, -634291.6, 4606.556, 0.0, 10.000219, 9.999383 
9.950312e+2, 2.4480566e+2, -589066.0, -699780.44, 40994.793, 0.009794298, 0.050495904, -575539.3, -34630.92, 0.0, 10.000244, 9.9987755 
9.950357e+2, 2.5480428e+2, -494046.6, -601777.44, 14873.883, -0.05518002, 0.029568847, -492030.75, -49107.52, 0.0, 10.0002165, 9.998789 
9.9504066e+2, 2.6480332e+2, -398246.66, -463106.84, 180.02226, -0.06207529, 0.03905028, -398246.16, -53313.195, 0.0, 10.000022, 9.999163 
9.950461e+2, 2.748029e+2, -352084.7, -385879.72, 26348.742, -0.007828322, 0.073194765, -337680.72, -90743.586, 0.0, 9.999648, 9.999198 
9.950508e+2, 2.8480202e+2, -292559.1, -337333.2, 27119.14, -0.0063036773, 0.08189791, -279780.44, -130834.98, 0.0, 9.9995165, 9.998923 
9.950548e+2, 2.9480073e+2, -178132.94, -228581.39, 24297.494, -0.059290625, 0.05484884, -168333.89, -117375.8, 0.0, 9.999617, 9.998948 
9.9505925e+2, 3.0479962e+2, -86046.04, -90758.89, 8009.363, -0.066748455, 0.019577948, -80053.65, -80053.65, 0.0, 9.99962, 9.999558 
9.950641e+2, 3.147999e+2, -90125.13, -80909.914, -17021.41, -0.024324685, 0.086702004, -67883.51, -67883.51, 0.0, 9.999538, 9.999666 
1.0049782e+3, 1.2480861e+2, -1616668.9, -1681450.8, -30230.99, -0.031720504, 0.072270975, -1604753.1, 112125.74, 0.00014134821, 10.000735, 9.999876 
1.0049815e+3, 1.3480732e+2, -1546527.0, -1628707.4, -2120.0469, -0.15923549, -0.020598862, -1546472.4, 72417.19, 0.000046426092, 10.00068, 9.999593 
1.0049867e+3, 1.4480714e+2, -1457315.3, -1561105.0, -21415.363, -0.053944603, 0.019200988, -1453070.3, 67820.46, 0.00000474816, 10.000734, 9.999353 
1.00499086e+3, 1.5480667e+2, -1340173.6, -1451177.3, -20180.996, -0.0355707, 0.029673634, -1336618.5, 86278.125, 0.000000004412824, 10.000853, 9.999378 
1.0049949e+3, 1.648061e+2, -1266808.3, -1361590.3, 3803.4673, -0.05121159, 0.0328599, -1266655.9, 58247.234, 0.0, 10.000668, 9.99941 
1.0049989e+3, 1.7480542e+2, -1239581.9, -1294079.1, 21340.117, -0.09066333, 0.020427892, -1232220.0, -5310.0703, 0.0, 10.000168, 9.99944 
1.0050034e+3, 1.8480495e+2, -1139880.3, -1165266.5, 10075.756, -0.0665389, 0.016588345, -1136367.4, -7452.743, 0.0, 10.000049, 9.99971 
1.0050082e+3, 1.9480468e+2, -997169.75, -1042502.94, -5870.213, 0.020955902, 0.014518537, -996422.0, 34495.035, 0.0, 10.000341, 9.999739 
1.0050125e+3, 2.0480427e+2, -919548.1, -1022325.56, 11730.422, 0.018083215, 0.0303096, -918226.3, 14694.926, 0.0, 10.000495, 9.99913 
1.0050159e+3, 2.148037e+2, -819572.3, -921897.3, 24843.516, -0.080281086, 0.056348592, -813859.5, 21067.914, 0.0, 10.000502, 9.999144 
1.0050205e+3, 2.2480302e+2, -732745.7, -801338.44, 32134.771, -0.08741314, 0.061835844, -720043.25, 16890.623, 0.0, 10.000306, 9.999393 
1.0050261e+3, 2.3480219e+2, -693111.2, -728154.0, 11253.251, 0.0028445497, 0.034160227, -689808.6, -50867.81, 0.0, 9.999891, 9.999423 
1.00503124e+3, 2.4480109e+2, -671486.56, -749283.06, 27989.662, 0.018181426, 0.019505294, -662463.06, -121511.15, 0.0, 9.999722, 9.998686 
1.00503586e+3, 2.5479972e+2, -558333.06, -642544.6, 47232.484, -0.047836073, 0.01216482, -537163.2, -94195.984, 0.0, 9.999821, 9.998697 
1.0050406e+3, 2.647989e+2, -403417.03, -446791.16, 31929.094, -0.061526258, 0.032624837, -386506.22, -41530.73, 0.0, 9.999908, 9.999327 
1.0050457e+3, 2.747987e+2, -295175.47, -339708.6, 18498.072, -0.019970963, 0.07270185, -288494.16, -41517.832, 0.0, 9.999959, 9.999365 
1.0050504e+3, 2.847978e+2, -235283.84, -320098.0, 7313.9243, -0.017973946, 0.07114081, -234657.75, -85672.88, 0.0, 9.999956, 9.998829 
1.00505464e+3, 2.947961e+2, -141740.02, -221968.36, -43.281815, -0.05662557, 0.01653742, -141740.0, -90738.42, 0.0, 9.999915, 9.998849 
1.0050591e+3, 3.0479497e+2, -74924.08, -106961.1, -10464.9, -0.053497143, -0.009287636, -71808.67, -71808.67, 0.0, 9.99979, 9.999366 
1.0050639e+3, 3.1479532e+2, -106469.49, -112281.06, -7141.7075, -0.0035781567, 0.085539274, -101665.055, -101665.055, 0.0, 9.999528, 9.999455 
1.01497866e+3, 1.2480332e+2, -1618097.3, -1682226.5, -41094.27, -0.058488447, -0.004493447, -1598038.1, 118890.58, 0.0001798155, 10.000727, 9.999873 
1.0149824e+3, 1.3480273e+2, -1547659.6, -1629693.3, -2659.3252, -0.12742992, -0.024923954, -1547573.5, 71360.19, 0.000062927356, 10.000675, 9.999588 
1.01498775e+3, 1.4480269e+2, -1457299.9, -1560870.9, -17210.76, -0.0214666, 0.02580744, -1454514.9, 66419.375, 0.000007860604, 10.000731, 9.999357 
1.01499155e+3, 1.5480167e+2, -1340047.8, -1451438.9, -15298.852, -0.05110815, -0.017871741, -1337984.8, 84960.27, 0.000000028517778, 10.000854, 9.999377 
1.01499535e+3, 1.6480121e+2, -1234262.8, -1294523.1, -15636.597, -0.06954648, -0.02382471, -1230447.0, 94502.26, 0.0, 10.0006695, 9.999869 
1.0149993e+3, 1.7480142e+2, -1206219.4, -1224633.6, 2334.1074, -0.06334724, 0.0026842447, -1205928.1, 21018.045, 0.0, 10.000167, 9.999918 
1.0150035e+3, 1.8480125e+2, -1166736.6, -1220361.1, 19070.75, -0.054399125, 0.025031801, -1160646.1, -31698.037, 0.0, 10.000045, 9.999334 
1.0150079e+3, 1.948007e+2, -1025022.3, -1099767.1, 4804.697, -0.046038162, 0.032901447, -1024714.7, 6240.9585, 0.0, 10.000339, 9.999348 
1.0150124e+3, 2.048001e+2, -895670.5, -972038.9, 10706.032, -0.034938104, 0.03160172, -894198.06, 38763.867, 0.0, 10.000491, 9.999478 
1.0150171e+3, 2.1479945e+2, -794649.3, -869553.75, 24769.87, -0.018543025, 0.013825368, -787199.25, 47767.21, 0.0, 10.000499, 9.999505 
1.0150216e+3, 2.247985e+2, -769685.5, -876594.75, 15339.169, -0.0108577665, 0.00075295026, -767528.2, -30553.045, 0.0, 10.000299, 9.998879 
1.0150259e+3, 2.3479722e+2, -730221.94, -805168.2, -4201.6167, -0.012992986, -0.019887023, -729987.1, -90998.49, 0.0, 9.99989, 9.998894 
1.0150307e+3, 2.447963e+2, -636906.06, -677808.2, 30576.736, -0.01129578, -0.01300965, -620571.5, -79573.17, 0.0, 9.999722, 9.999177 
1.0150361e+3, 2.5479585e+2, -522673.03, -567959.44, 51482.133, -0.00471033, 0.01636759, -489074.6, -46070.926, 0.0, 9.999817, 9.999212 
1.01504095e+3, 2.6479512e+2, -426168.03, -491929.72, 34222.598, -0.02304846, 0.03486252, -411590.1, -66579.66, 0.0, 9.999898, 9.999022 
1.0150452e+3, 2.747942e+2, -317278.06, -385876.94, 22378.521, -0.06824496, 0.033406872, -310623.28, -63604.56, 0.0, 9.99996, 9.999047 
1.0150498e+3, 2.8479302e+2, -245092.4, -342400.06, 6150.81, -0.07510257, 0.031988032, -244705.16, -95675.055, 0.0, 9.999962, 9.998673 
1.01505466e+3, 2.9479164e+2, -155166.05, -246131.94, 213.14853, -0.041455556, 0.021202479, -155165.55, -104120.55, 0.0, 9.999897, 9.9986925 
1.0150593e+3, 3.047905e+2, -64665.68, -80136.875, -19168.053, -0.0118202325, -0.0041650706, -51731.16, -51731.16, 0.0, 9.999767, 9.99956 
1.0150635e+3, 3.1479037e+2, -92795.93, -82128.1, -13088.048, 0.014340405, 0.021868853, -73328.805, -73328.805, 0.0, 9.999522, 9.999663 
1.02497935e+3, 1.2479899e+2, -1652607.9, -1717786.8, -23.430622, -0.0577662, -0.03691443, -1652607.8, 64361.176, 0.00022439056, 10.000573, 9.9997015 
1.0249834e+3, 1.347985e+2, -1520349.3, -1637313.5, 30882.26, -0.10799224, -0.03052157, -1512696.1, 106278.72, 0.0000828242, 10.00095, 9.999403 
1.0249887e+3, 1.447985e+2, -1417080.1, -1523681.8, 3620.6418, -0.01267214, 0.027720213, -1416957.3, 104017.89, 0.000012107546, 10.00093, 9.999517 
1.02499194e+3, 1.5479754e+2, -1391244.3, -1456855.4, 16042.619, -0.07155144, -0.025893003, -1387531.6, 35452.766, 0.00000009714164, 10.000421, 9.999548 
1.02499574e+3, 1.6479716e+2, -1294696.4, -1323910.4, 8514.31, -0.08542988, -0.035327718, -1292396.0, 32591.77, 0.0, 10.0002575, 9.999866 
1.02499984e+3, 1.7479736e+2, -1161717.9, -1204742.6, -11150.133, -0.036300495, -0.0063112034, -1158999.9, 67984.76, 0.0, 10.000478, 9.999905 
1.025004e+3, 1.8479715e+2, -1124244.0, -1212687.3, 1034.1198, -0.026694633, 0.017295642, -1124231.9, 4755.4473, 0.0, 10.000392, 9.999219 
1.0250078e+3, 1.947965e+2, -1083903.1, -1140739.8, 6296.6235, -0.06539303, 0.026316192, -1083214.0, -52217.645, 0.0, 9.9999895, 9.999234 
1.02501236e+3, 2.0479587e+2, -981850.9, -1001832.06, 19474.887, -0.05897926, 0.022528466, -969953.5, -36950.703, 0.0, 9.999849, 9.999582 
1.0250174e+3, 2.1479525e+2, -859893.9, -888742.5, 13521.427, -0.0024068474, -0.0030245462, -854547.25, -19540.73, 0.0, 9.999999, 9.999614 
1.025022e+3, 2.2479428e+2, -790958.3, -901493.56, 4437.854, 0.010459451, -0.017519448, -790780.44, -53764.934, 0.0, 10.000217, 9.998748 
1.025026e+3, 2.3479293e+2, -649367.8, -781235.0, 12931.734, -0.024687631, -0.029167341, -648111.56, -9081.366, 0.0, 10.000512, 9.998757 
1.0250306e+3, 2.4479215e+2, -521543.13, -613853.1, 44475.15, -0.030373618, -0.0075074276, -503601.94, 37437.05, 0.0, 10.00048, 9.99925 
1.025036e+3, 2.5479195e+2, -478903.9, -538497.8, 30931.129, -0.004498665, 0.039794985, -465752.13, -22710.668, 0.0, 10.000081, 9.999287 
1.0250409e+3, 2.6479107e+2, -438222.75, -507661.34, 11852.528, -0.01306368, 0.045302756, -436255.38, -91206.1, 0.0, 9.999859, 9.998932 
1.02504514e+3, 2.7478957e+2, -343203.1, -408077.0, 14680.219, -0.058710482, -0.0017049684, -340035.75, -92973.14, 0.0, 9.999826, 9.998958 
1.0250498e+3, 2.8478834e+2, -281156.6, -366162.1, 6211.5313, -0.06570888, -0.0052020843, -280705.13, -131630.11, 0.0, 9.999744, 9.998613 
1.0250545e+3, 2.9478732e+2, -202016.6, -275334.13, 6983.9634, -0.03128427, 0.027918614, -201357.27, -150270.66, 0.0, 9.999605, 9.9986315 
1.0250591e+3, 3.0478626e+2, -65767.77, -69013.87, -2826.3472, -0.005874644, 0.009451207, -64131.6, -64131.6, 0.0, 9.99971, 9.999662 
1.0250633e+3, 3.1478575e+2, -8436.938, -31610.195, -9185.549, 0.009613002, -0.016274396, -5237.6187, -5237.6187, 0.0, 10.000057, 9.999753 
1.03498e+3, 1.24795675e+2, -1679936.1, -1773018.9, 4211.126, -0.046351843, -0.02709369, -1679746.0, 37253.04, 0.00027553758, 10.000567, 9.999325 
1.0349844e+3, 1.3479467e+2, -1546884.9, -1691794.3, 46592.82, -0.10520903, -0.036044825, -1533196.8, 85815.27, 0.000106410545, 10.000948, 9.99903 
1.03498936e+3, 1.4479469e+2, -1395215.6, -1478177.0, -15167.804, -0.032600906, 0.027888324, -1392529.5, 128483.234, 0.000017580353, 10.000928, 9.999831 
1.03499204e+3, 1.5479437e+2, -1367766.5, -1407465.9, -2840.83, -0.09964717, 0.0049769385, -1367564.3, 55450.2, 0.00000023822265, 10.000418, 9.999888 
1.0349958e+3, 1.6479392e+2, -1327762.8, -1393121.1, 15099.062, -0.10165984, -0.0035350632, -1324443.3, 575.2159, 0.0, 10.000258, 9.999391 
1.0350006e+3, 1.7479332e+2, -1196514.1, -1276936.0, -2868.411, -0.013506776, -0.007073975, -1196411.9, 30612.926, 0.0, 10.000477, 9.999411 
1.0350048e+3, 1.8479271e+2, -1115047.9, -1193322.0, -14982.394, 0.011237902, -0.0049541607, -1112278.1, 16753.385, 0.0, 10.00039, 9.999353 
1.03500806e+3, 1.9479214e+2, -1073734.9, -1119159.0, -9353.512, -0.03938956, -0.0039282013, -1071884.3, -40845.957, 0.0, 9.999987, 9.999384 
1.0350122e+3, 2.047916e+2, -992241.75, -1022654.9, 23090.186, -0.05611839, 0.0029474057, -979800.6, -46757.156, 0.0, 9.9998455, 9.999441 
1.0350172e+3, 2.147911e+2, -870185.2, -909835.9, 18794.092, -0.033650465, 0.004327488, -862692.75, -27645.521, 0.0, 9.999997, 9.99947 
1.03502184e+3, 2.2479038e+2, -774241.8, -866277.56, 14043.342, -0.026277572, 0.0072378316, -772146.7, -35092.25, 0.0, 10.000215, 9.998991 
1.0350264e+3, 2.3478937e+2, -632365.9, -745376.3, 24207.154, -0.03535837, 0.0050938805, -627398.94, 11666.299, 0.0, 10.000508, 9.999007 
1.035031e+3, 2.447886e+2, -546590.44, -664125.94, 29692.428, -0.043535154, 0.032568283, -539515.25, 1558.5607, 0.0, 10.000471, 9.998909 
1.0350356e+3, 2.5478804e+2, -503279.8, -589734.06, 17134.096, -0.049574375, 0.081733055, -500007.9, -56927.69, 0.0, 10.000082, 9.998934 
1.03504054e+3, 2.6478687e+2, -431285.38, -493802.2, 10640.949, -0.033992235, 0.06672989, -429523.84, -84432.57, 0.0, 9.999861, 9.999026 
1.0350457e+3, 2.74785e+2, -337303.44, -393703.44, 14575.92, 0.004136366, -0.028238134, -333759.2, -86651.73, 0.0, 9.999816, 9.999062 
1.03505015e+3, 2.8478375e+2, -278806.5, -358381.44, 1480.7181, 0.004786178, -0.03988345, -278778.94, -129659.49, 0.0, 9.999731, 9.998673 
1.0350541e+3, 2.9478317e+2, -196440.0, -264634.34, 4748.541, -0.033108957, 0.031869024, -196110.94, -144984.4, 0.0, 9.999609, 9.998703 
1.0350585e+3, 3.047823e+2, -66126.305, -72214.05, 11621.711, -0.04145694, 0.027677163, -57156.46, -57156.46, 0.0, 9.999719, 9.999638 
1.0350631e+3, 3.1478146e+2, -14842.419, -40296.26, 7471.6113, -0.02260393, -0.02453828, -12811.309, -12811.309, 0.0, 10.000037, 9.999703 
1.0449811e+3, 1.2479211e+2, -1627436.6, -1726987.9, -50833.33, -0.014108337, 0.013553114, -1606067.1, 110967.945, 0.0003338259, 10.000834, 9.999513 
1.044985e+3, 1.347908e+2, -1660030.4, -1724611.8, 41795.797, -0.10339191, -0.04522955, -1639504.6, -20454.87, 0.00013404706, 10.000076, 9.999226 
1.0449896e+3, 1.4479081e+2, -1532934.5, -1540968.9, 1298.4316, -0.0498781, 0.007510127, -1532729.9, -11680.273, 0.000024406929, 9.9999695, 9.999861 
1.0449926e+3, 1.547908e+2, -1352633.0, -1397998.6, -12678.212, -0.098614156, 0.013121483, -1349330.3, 73718.09, 0.0000004785213, 10.00051, 9.999909 
1.0449963e+3, 1.6479032e+2, -1288868.4, -1395913.0, 1717.3059, -0.09453077, 0.008587045, -1288840.9, 36212.258, 0.0, 10.000618, 9.999199 
1.045001e+3, 1.7478931e+2, -1239112.8, -1318804.8, 4902.0884, -0.013537089, -0.015783774, -1238812.4, -11748.065, 0.0, 10.0002775, 9.999218 
1.0450051e+3, 1.8478858e+2, -1126266.8, -1189494.3, 4946.65, 0.011085728, -0.019377274, -1125882.0, 3189.992, 0.0, 10.000276, 9.9994335 
1.04500845e+3, 1.9478819e+2, -971231.9, -1060244.6, 5142.0366, -0.033623353, -0.007743043, -970935.8, 60140.17, 0.0, 10.00065, 9.999468 
1.0450125e+3, 2.0478766e+2, -884284.56, -995015.9, 31146.979, -0.052840922, 0.0047333976, -876124.75, 56956.63, 0.0, 10.000693, 9.999222 
1.04501724e+3, 2.1478696e+2, -829479.8, -915107.56, 19448.955, -0.042206317, 0.00820206, -825269.3, 9818.965, 0.0, 10.000385, 9.999246 
1.0450219e+3, 2.2478622e+2, -778484.1, -853919.44, 12564.509, -0.033180248, 0.017193627, -776446.4, -39350.688, 0.0, 10.000123, 9.99912 
1.0450266e+3, 2.3478547e+2, -709771.6, -767436.0, 12403.456, -0.026700743, 0.023851892, -707216.9, -68113.195, 0.0, 9.999911, 9.999143 
1.04503125e+3, 2.4478458e+2, -643637.9, -718625.94, 17012.928, -0.034005683, 0.03772778, -639958.56, -98845.83, 0.0, 9.999838, 9.998839 
1.04503565e+3, 2.547836e+2, -533035.9, -611475.44, 23723.637, -0.05579012, 0.05103608, -526419.0, -83296.06, 0.0, 9.999912, 9.998865 
1.0450404e+3, 2.647824e+2, -425308.44, -491828.75, 27827.535, -0.038889028, 0.039619967, -415202.6, -70068.34, 0.0, 9.9999075, 9.999017 
1.0450456e+3, 2.74781e+2, -337608.75, -394871.38, 22762.021, 0.019087609, -0.011042545, -329663.28, -82516.16, 0.0, 9.999818, 9.999052 
1.0450502e+3, 2.8477988e+2, -257061.34, -324501.94, 12367.521, 0.024829637, -0.018412618, -254864.88, -105707.36, 0.0, 9.99978, 9.998882 
1.045054e+3, 2.9477915e+2, -157827.4, -221618.61, 23247.33, -0.022884004, 0.0151005145, -150254.44, -99089.73, 0.0, 9.999769, 9.99892 
1.0450582e+3, 3.0477822e+2, -78714.47, -85549.766, 39080.613, -0.03270492, 0.0020411715, -42902.355, -42902.355, 0.0, 9.999665, 9.999572 
1.045063e+3, 3.1477752e+2, -101897.89, -91340.24, 31802.715, -0.0069444273, -0.0327347, -64381.22, -64381.22, 0.0, 9.999478, 9.999621 
1.0549822e+3, 1.2478831e+2, -1573756.1, -1614604.5, -87132.84, 0.019764759, 0.08271918, -1504685.8, 212390.81, 0.00039971265, 10.000829, 10.000287 
1.054985e+3, 1.3478693e+2, -1605354.3, -1611184.8, 14803.322, -0.104168124, -0.05827421, -1593181.9, 25905.105, 0.00016604259, 10.000075, 10.000004 
1.0549895e+3, 1.4478695e+2, -1551117.9, -1579467.5, 20686.926, -0.06750429, -0.034167524, -1540215.4, -19130.15, 0.000032768716, 9.999971, 9.999596 
1.0549934e+3, 1.5478693e+2, -1374433.8, -1441774.1, 8069.996, -0.07297211, -0.000625628, -1373480.3, 49605.2, 0.0000008393984, 10.000504, 9.999613 
1.0549972e+3, 1.6478643e+2, -1283901.5, -1384896.8, -11520.533, -0.06987354, 0.0044497293, -1282604.0, 42486.95, 0.0, 10.000614, 9.999276 
1.05500095e+3, 1.7478539e+2, -1232633.4, -1305156.4, -8064.8086, -0.03835789, -0.031498663, -1231747.4, -4645.176, 0.0, 10.000277, 9.999312 
1.055005e+3, 1.847848e+2, -1124426.1, -1185767.0, 17173.87, -0.029484523, -0.026931345, -1119945.3, 9163.161, 0.0, 10.000275, 9.99946 
1.0550089e+3, 1.9478473e+2, -969697.5, -1056800.3, 18954.465, -0.050987106, 0.01275988, -965751.56, 65357.566, 0.0, 10.0006485, 9.999493 
1.0550132e+3, 2.047841e+2, -906016.1, -1039563.3, 18648.36, -0.053050023, 0.028379643, -903461.0, 29654.889, 0.0, 10.00069, 9.998918 
1.05501786e+3, 2.1478285e+2, -851941.44, -960984.9, 7647.0503, -0.031177094, 0.00916111, -851407.75, -16278.635, 0.0, 10.000381, 9.998933 
1.0550223e+3, 2.2478189e+2, -778312.4, -852797.44, 3293.491, -0.013909669, 0.011344904, -778167.0, -41028.09, 0.0, 10.000119, 9.999129 
1.0550269e+3, 2.3478122e+2, -708003.06, -764484.1, 4607.295, -0.0013068954, 0.026408127, -707629.7, -68484.55, 0.0, 9.999912, 9.999163 
1.05503134e+3, 2.4478015e+2, -630039.6, -690551.25, 19196.975, -0.004905898, 0.010119315, -624463.4, -83308.26, 0.0, 9.999838, 9.999033 
1.05503574e+3, 2.5477865e+2, -519595.0, -582975.06, 27286.895, -0.026351621, -0.050229605, -509466.0, -66296.84, 0.0, 9.999908, 9.999064 
1.0550404e+3, 2.6477775e+2, -433255.28, -506935.9, 24607.63, -0.03105171, -0.03797095, -425792.72, -80614.56, 0.0, 9.9999, 9.998917 
1.05504505e+3, 2.7477753e+2, -344657.56, -410081.75, 21256.527, -0.018342286, 0.04557448, -338357.84, -91176.29, 0.0, 9.99982, 9.998947 
1.0550495e+3, 2.8477675e+2, -234398.73, -277616.7, 12923.896, -0.009941597, 0.05762019, -230828.84, -81639.9, 0.0, 9.99978, 9.999205 
1.05505385e+3, 2.9477525e+2, -136476.77, -175012.67, 24478.467, -0.0033479696, -0.017029397, -124592.69, -73392.086, 0.0, 9.999759, 9.999246 
1.0550583e+3, 3.0477414e+2, -86385.13, -98841.586, 32073.342, 0.016798878, -0.06250472, -59940.89, -59940.89, 0.0, 9.999653, 9.999486 
1.055063e+3, 3.147739e+2, -107064.38, -102637.79, 28342.49, 0.043750174, -0.041866962, -76422.31, -76422.31, 0.0, 9.999481, 9.999543 
1.0649823e+3, 1.24784224e+2, -1717098.3, -1675298.8, -36089.28, -0.0005115079, 0.056417502, -1654494.4, 62621.547, 0.00047318285, 9.999814, 10.000359 
1.0649856e+3, 1.3478321e+2, -1513040.4, -1559175.3, 17556.25, -0.084928006, -0.05747926, -1507119.4, 112003.59, 0.00020250746, 10.000675, 10.000073 
1.0649901e+3, 1.447832e+2, -1422139.1, -1525730.1, 1719.1133, -0.04536712, -0.03423959, -1422110.6, 99010.55, 0.000042863663, 10.000894, 9.99952 
1.064994e+3, 1.5478283e+2, -1405191.9, -1464884.1, 2885.061, -0.0539374, -0.027246986, -1405052.8, 18071.81, 0.0000013547858, 10.000331, 9.999536 
1.06499754e+3, 1.6478229e+2, -1354026.0, -1412412.5, -9954.264, -0.0616629, -0.024798311, -1352375.6, -27245.064, 0.0, 10.000109, 9.999329 
1.0650012e+3, 1.7478155e+2, -1227683.0, -1296554.8, -10137.724, -0.049263354, -0.038050387, -1226221.8, 917.39667, 0.0, 10.000284, 9.999368 
1.06500514e+3, 1.8478103e+2, -1124940.4, -1194965.3, 18363.38, -0.042446297, -0.025402158, -1120417.0, 8728.002, 0.0, 10.00031, 9.999379 
1.0650094e+3, 1.9478081e+2, -1042374.8, -1101028.0, 10906.642, -0.049323943, 0.008180914, -1040412.4, -9265.01, 0.0, 10.00019, 9.999409 
1.0650137e+3, 2.0478013e+2, -981273.56, -1068972.0, 10823.324, -0.04527795, 0.023222083, -979957.56, -46803.25, 0.0, 10.000144, 9.998979 
1.0650181e+3, 2.1477902e+2, -876062.06, -965442.1, 26663.291, -0.02702651, 0.009202607, -868712.4, -33546.207, 0.0, 10.000184, 9.998998 
1.0650224e+3, 2.24778e+2, -773080.4, -858605.4, 35529.164, -0.015126129, 0.005307439, -760246.5, -23070.018, 0.0, 10.000191, 9.999055 
1.06502675e+3, 2.3477708e+2, -676320.8, -757368.56, 28282.771, -0.010656403, 0.0034463222, -667427.1, -28241.959, 0.0, 10.000167, 9.999088 
1.0650312e+3, 2.4477603e+2, -586796.44, -654226.94, 40131.18, -0.007275345, -0.014859304, -568097.7, -26902.846, 0.0, 10.00007, 9.99917 
1.0650359e+3, 2.5477478e+2, -511295.2, -563048.94, 42665.027, -0.0052040606, -0.062741384, -487273.0, -44067.168, 0.0, 9.999897, 9.999206 
1.0650404e+3, 2.64774e+2, -452933.22, -521070.0, 39769.176, -0.012498605, -0.0460687, -434635.2, -89421.4, 0.0, 9.9997835, 9.998877 
1.0650447e+3, 2.7477372e+2, -363938.94, -423679.63, 39220.867, -0.029598212, 0.03490334, -344509.03, -97290.99, 0.0, 9.999706, 9.998908 
1.0650492e+3, 2.847728e+2, -254315.97, -292874.66, 23269.463, -0.019777725, 0.044443253, -243376.77, -94150.55, 0.0, 9.999669, 9.999152 
1.0650539e+3, 2.9477125e+2, -148141.47, -186468.08, 5865.4785, 0.020492299, -0.034543023, -147263.9, -96025.11, 0.0, 9.999704, 9.999192 
1.0650583e+3, 3.0477017e+2, -80603.73, -80075.64, 774.9687, 0.04824188, -0.08191833, -79520.97, -79520.97, 0.0, 9.999624, 9.999629 
1.0650625e+3, 3.1477022e+2, -117702.36, -91212.71, 9414.245, 0.05858929, -0.043640714, -88207.81, -88207.81, 0.0, 9.999338, 9.999691 
1.0749813e+3, 1.2477998e+2, -1764604.8, -1772267.1, -12144.987, -0.08909676, -0.065512255, -1755701.0, -38549.06, 0.00055371417, 9.999808, 9.999695 
1.0749866e+3, 1.3477966e+2, -1560604.4, -1655550.4, 51868.066, -0.049889505, -0.041840818, -1537763.9, 81392.95, 0.00024334127, 10.000667, 9.999416 
1.0749916e+3, 1.4477967e+2, -1415011.5, -1509891.8, -18190.406, 0.010574576, 0.0095675895, -1411643.6, 109513.14, 0.00005483326, 10.000888, 9.999632 
1.07499436e+3, 1.5477861e+2, -1395429.9, -1445122.6, -18085.139, -0.04381137, -0.065995365, -1389545.0, 33620.2, 0.000002073113, 10.000332, 9.99967 
1.07499756e+3, 1.6477798e+2, -1351288.5, -1407817.5, -5232.4053, -0.07260973, -0.08023077, -1350808.3, -25636.994, 0.0000000000166348, 10.000113, 9.999359 
1.0750014e+3, 1.7477784e+2, -1226633.8, -1293767.1, -3461.2732, -0.049217887, -0.03642437, -1226455.8, 719.03815, 0.0, 10.00028, 9.999389 
1.07500546e+3, 1.8477735e+2, -1139486.9, -1224318.3, 12679.936, -0.03298476, -0.013141091, -1137632.1, -8451.16, 0.0, 10.000306, 9.999181 
1.0750098e+3, 1.9477649e+2, -1057178.1, -1131045.5, 6047.6206, -0.031377785, -0.019941328, -1056686.3, -25496.264, 0.0, 10.000187, 9.999206 
1.07501395e+3, 2.0477588e+2, -952078.1, -1008070.7, 10689.114, -0.03222489, -0.010466982, -950106.94, -16910.813, 0.0, 10.000142, 9.999398 
1.0750182e+3, 2.1477552e+2, -845556.75, -902158.9, 27679.86, -0.03235661, 0.0070607434, -834270.9, 928.3197, 0.0, 10.000183, 9.999433 
1.0750224e+3, 2.247746e+2, -784202.3, -881744.2, 33189.81, -0.039802324, -0.0002617134, -773980.25, -36772.242, 0.0, 10.00019, 9.998897 
1.0750265e+3, 2.347731e+2, -688706.0, -782733.0, 27633.258, -0.056560438, -0.04418685, -681186.3, -41963.117, 0.0, 10.000164, 9.998916 
1.075031e+3, 2.4477221e+2, -581669.25, -643028.56, 33223.652, -0.043237273, -0.038865667, -567126.6, -25894.969, 0.0, 10.000066, 9.999249 
1.07503586e+3, 2.5477204e+2, -505324.75, -550939.1, 36924.82, 0.0034899851, 0.01064148, -484731.34, -41498.54, 0.0, 9.999897, 9.9992895 
1.0750404e+3, 2.6477116e+2, -452171.9, -519487.03, 37320.4, 0.013076525, 0.014777985, -435573.7, -90332.9, 0.0, 9.999783, 9.998888 
1.0750446e+3, 2.7476954e+2, -363494.8, -422251.4, 37550.33, -0.017662002, -0.040349383, -345195.97, -97939.805, 0.0, 9.999702, 9.99892 
1.075049e+3, 2.847682e+2, -284083.22, -353231.75, 24039.055, -0.008067966, -0.056831412, -276547.44, -127278.4, 0.0, 9.999661, 9.998741 
1.0750538e+3, 2.9476714e+2, -176940.86, -246626.75, 9592.499, 0.042701725, -0.04065951, -175644.53, -124365.38, 0.0, 9.999705, 9.998779 
1.0750581e+3, 3.0476633e+2, -56968.61, -31058.195, -7725.471, 0.057508517, -0.059052136, -28929.627, -28929.627, 0.0, 9.999623, 9.999967 
1.0750616e+3, 3.1476665e+2, -93122.49, -39592.18, 1265.5431, 0.03272184, -0.032776795, -39562.277, -39562.277, 0.0, 9.999334, 10.000048 
1.0849814e+3, 1.24776e+2, -1702800.0, -1762623.9, -47729.555, -0.08366798, -0.099699266, -1676384.0, 40804.43, 0.00064071716, 10.000321, 9.999514 
1.0849871e+3, 1.347758e+2, -1639725.5, -1711838.4, 60211.484, -0.044132456, -0.04715415, -1605600.1, 13593.724, 0.00028839763, 10.000203, 9.999252 
1.0849921e+3, 1.4477585e+2, -1504305.1, -1546819.3, -11126.155, 0.0009081965, 0.014087017, -1501569.4, 19624.807, 0.00006873226, 10.000253, 9.999683 
1.0849949e+3, 1.5477479e+2, -1379149.3, -1431491.8, -20899.152, -0.03762447, -0.06858535, -1371828.6, 51374.08, 0.0000030594845, 10.00042, 9.999721 
1.08499795e+3, 1.647742e+2, -1304023.3, -1387801.9, -4274.1113, -0.063059844, -0.07943315, -1303805.8, 21402.678, 0.000000000186287, 10.000449, 9.999333 
1.0850018e+3, 1.7477417e+2, -1221169.0, -1293745.5, -7252.2827, -0.049287893, -0.020017771, -1220451.5, 6759.6035, 0.0, 10.000333, 9.999362 
1.0850057e+3, 1.8477371e+2, -1145419.4, -1215744.9, 14237.294, -0.037089314, 0.0022834272, -1142646.4, -13429.556, 0.0, 10.000217, 9.999281 
1.0850099e+3, 1.9477277e+2, -1059673.1, -1120541.6, 29730.309, -0.035925247, -0.024796644, -1047561.75, -16335.632, 0.0, 10.000119, 9.99931 
1.08501405e+3, 2.0477208e+2, -953682.44, -1012993.75, 38860.668, -0.03697519, -0.025946777, -934454.44, -1221.7124, 0.0, 10.00015, 9.999361 
1.08501844e+3, 2.1477169e+2, -827267.9, -897840.75, 19223.98, -0.03794881, -0.0073839463, -822371.06, 12865.515, 0.0, 10.000329, 9.999392 
1.0850226e+3, 2.247709e+2, -762751.0, -857094.06, 7485.007, -0.042873986, -0.004923761, -762160.8, -24916.686, 0.0, 10.000277, 9.999024 
1.0850266e+3, 2.3476973e+2, -707075.8, -777061.06, 22314.938, -0.05391733, -0.02998548, -700566.1, -61310.207, 0.0, 9.999975, 9.999046 
1.085031e+3, 2.4476893e+2, -620237.25, -673360.25, 37452.418, -0.040301688, -0.016890012, -600883.7, -59620.004, 0.0, 9.999851, 9.999145 
1.0850358e+3, 2.547686e+2, -510627.13, -565383.3, 25893.998, 0.001085558, 0.029284626, -500321.53, -57054.766, 0.0, 9.999912, 9.999183 
1.0850404e+3, 2.647676e+2, -424857.97, -497609.47, 22508.13, 0.017598223, 0.019697307, -418457.4, -73181.41, 0.0, 9.999934, 9.998964 
1.0850447e+3, 2.747658e+2, -324177.94, -394646.94, 26711.01, 0.006401737, -0.06121526, -315197.66, -67905.69, 0.0, 9.999936, 9.998997 
1.0850489e+3, 2.847644e+2, -260939.53, -355456.94, 26198.693, 0.013504882, -0.078776896, -254163.47, -104858.484, 0.0, 9.999878, 9.998622 
1.08505346e+3, 2.947635e+2, -186213.23, -265161.66, 31124.332, 0.041049924, -0.03457532, -175418.8, -124104.31, 0.0, 9.999702, 9.998653 
1.0850576e+3, 3.047625e+2, -72737.39, -60468.957, 4449.961, 0.05069438, -0.054120153, -59024.867, -59024.867, 0.0, 9.999609, 9.99977 
1.0850611e+3, 3.1476256e+2, -58230.8, -42864.14, -29579.719, 0.039386548, -0.03130543, -19986.166, -19986.166, 0.0, 9.999661, 9.999866 
1.0949827e+3, 1.24772355e+2, -1681801.8, -1716404.5, -59895.863, 0.0054391995, -0.04664979, -1636758.5, 80466.336, 0.000734217, 10.00031, 9.999836 
1.0949871e+3, 1.3477172e+2, -1615862.8, -1662877.4, 57782.56, -0.071129456, -0.07254629, -1576988.8, 42244.273, 0.00033773432, 10.000205, 9.999588 
1.0949915e+3, 1.4477184e+2, -1505244.8, -1548759.0, -5002.9644, -0.07888603, -0.020594124, -1504676.9, 16555.693, 0.0000845864, 10.000253, 9.99967 
1.0949952e+3, 1.547714e+2, -1382809.4, -1437735.6, -14020.965, -0.03906948, -0.03532051, -1379437.4, 43799.12, 0.0000043925156, 10.000414, 9.999681 
1.09499864e+3, 1.64771e+2, -1310415.9, -1400359.5, -9356.015, -0.03815345, -0.021605575, -1309453.0, 15788.38, 0.0000000006358386, 10.000445, 9.99925 
1.0950021e+3, 1.7477064e+2, -1227071.0, -1306174.3, -11661.033, -0.052290052, 0.0122319935, -1225387.9, 1859.5562, 0.0, 10.000332, 9.999277 
1.0950057e+3, 1.8477018e+2, -1117700.3, -1157897.5, 9050.224, -0.05885473, 0.02031445, -1115756.6, 13495.541, 0.0, 10.0002165, 9.999679 
1.0950097e+3, 1.9476965e+2, -1031151.1, -1060860.9, 25521.23, -0.064971685, -0.007712759, -1016476.3, 14778.992, 0.0, 10.000117, 9.999721 
1.0950139e+3, 2.0476878e+2, -988501.4, -1085043.0, 43813.008, -0.062288687, -0.022991536, -971582.8, -38319.18, 0.0, 10.000147, 9.998868 
1.0950187e+3, 2.1476759e+2, -864059.2, -973491.2, 25962.354, -0.04672487, -0.033105034, -858212.1, -22934.463, 0.0, 10.000325, 9.998876 
1.0950231e+3, 2.2476697e+2, -735214.75, -799302.56, -4840.9243, -0.027804743, -0.00821574, -734851.2, 2433.165, 0.0, 10.000273, 9.999423 
1.09502696e+3, 2.3476699e+2, -677680.7, -715820.56, 10926.284, -0.005991901, 0.044736248, -674772.3, -35489.18, 0.0, 9.999973, 9.999468 
1.0950313e+3, 2.447662e+2, -640101.25, -714739.8, 39077.54, -0.0014483703, 0.050591633, -623385.5, -82095.06, 0.0, 9.99985, 9.998862 
1.0950355e+3, 2.5476456e+2, -531955.6, -608531.44, 29006.941, -0.015006562, -0.005725254, -522208.47, -78901.3, 0.0, 9.999907, 9.998891 
1.09504014e+3, 2.6476327e+2, -416397.2, -478433.25, 22418.81, -0.0015825554, -0.030677624, -409143.53, -63824.566, 0.0, 9.9999275, 9.9991 
1.0950449e+3, 2.7476245e+2, -314489.56, -373786.34, 28359.121, 0.038557973, -0.02908901, -303110.3, -55785.13, 0.0, 9.999933, 9.999142 
1.09504916e+3, 2.847615e+2, -250693.8, -333726.47, 20968.996, 0.042419925, -0.022215704, -245698.8, -96365.04, 0.0, 9.999874, 9.998774 
1.0950529e+3, 2.9476035e+2, -175977.44, -243249.28, 26502.543, 0.01142449, -0.01792528, -166790.94, -115446.19, 0.0, 9.999699, 9.998806 
1.0950569e+3, 3.0475876e+2, -124769.01, -166741.48, 5351.0957, 0.022129241, -0.06900161, -124097.54, -124097.54, 0.0, 9.999601, 9.999044 
1.09506115e+3, 3.1475818e+2, -107984.914, -145180.72, -24015.527, 0.069672935, -0.036221053, -96208.03, -96208.03, 0.0, 9.999656, 9.999166 
1.10498294e+3, 1.247682e+2, -1718683.5, -1694651.9, -73251.336, 0.018593684, -0.033639, -1632437.4, 84829.47, 0.00083503575, 9.9998865, 10.000189 
1.1049872e+3, 1.3476779e+2, -1640833.1, -1632860.0, 52041.297, -0.054039847, -0.07429425, -1584652.8, 34618.16, 0.0003918232, 9.999847, 9.999968 
1.1049916e+3, 1.4476806e+2, -1541024.6, -1571522.4, 2400.961, -0.08940372, -0.024832133, -1540836.8, -19568.107, 0.000102570426, 10.00003, 9.999621 
1.10499546e+3, 1.547677e+2, -1399595.0, -1452156.0, -10701.871, -0.050136257, -0.026340263, -1397499.5, 25773.563, 0.0000061708192, 10.000328, 9.999623 
1.104999e+3, 1.647673e+2, -1314676.1, -1392891.8, -13018.512, -0.048329864, -0.014236872, -1312566.3, 12712.1045, 0.0000000015512864, 10.000379, 9.999332 
1.1050022e+3, 1.7476682e+2, -1241286.6, -1303409.4, -4196.8135, -0.06222072, 0.0016532912, -1241004.4, -13719.942, 0.0, 10.000195, 9.999362 
1.1050059e+3, 1.847664e+2, -1122059.6, -1163010.3, 16515.182, -0.06598682, 0.00970787, -1116229.3, 13059.509, 0.0, 10.000198, 9.999652 
1.1050099e+3, 1.9476603e+2, -989831.56, -1044012.1, -666.06055, -0.06777407, 0.0020621852, -989823.4, 41467.52, 0.0, 10.000415, 9.999692 
1.1050143e+3, 2.0476526e+2, -956775.25, -1066324.5, 15058.928, -0.060130008, -0.0061553265, -954742.94, -21444.17, 0.0, 10.000351, 9.998898 
1.1050189e+3, 2.1476401e+2, -911402.06, -992686.8, 36248.348, -0.039846584, -0.024816126, -897585.75, -62272.74, 0.0, 9.999986, 9.998907 
1.1050232e+3, 2.2476332e+2, -791661.7, -824107.75, 14879.664, -0.020697476, -0.008114473, -785871.25, -48551.2, 0.0, 9.999876, 9.999444 
1.1050271e+3, 2.347633e+2, -665511.2, -707653.94, -141.37265, -0.003850204, 0.037191354, -665510.7, -26191.486, 0.0, 10.000048, 9.999488 
1.10503115e+3, 2.4476251e+2, -622493.5, -702984.94, 21419.652, 0.00039587443, 0.040044535, -617148.44, -75822.02, 0.0, 9.999958, 9.99889 
1.10503525e+3, 2.547609e+2, -575282.1, -626699.1, 33475.89, -0.009510276, -0.01403655, -558782.06, -115439.61, 0.0, 9.999598, 9.998915 
1.1050398e+3, 2.6475963e+2, -486333.56, -516133.88, 40595.77, 0.004050538, -0.037980426, -457989.84, -112635.484, 0.0, 9.999463, 9.999064 
1.1050447e+3, 2.747588e+2, -372110.6, -405632.6, 31933.645, 0.04257249, -0.035339322, -352806.53, -105445.125, 0.0, 9.999556, 9.999105 
1.1050491e+3, 2.8475797e+2, -275473.38, -331561.44, 14850.0625, 0.051649876, -0.01600174, -271784.28, -122415.664, 0.0, 9.999645, 9.9988985 
1.1050528e+3, 2.947572e+2, -157726.33, -220516.11, 16948.861, 0.031124812, 0.011349667, -153443.45, -102067.445, 0.0, 9.999764, 9.99893 
1.1050568e+3, 3.0475548e+2, -104791.75, -165987.11, 18904.965, 0.03851178, -0.053072788, -99422.555, -99422.555, 0.0, 9.999776, 9.998965 
1.1050608e+3, 3.147547e+2, -115068.984, -153088.98, 33971.88, 0.072076514, -0.032505933, -95149.97, -95149.97, 0.0, 9.999626, 9.999126 
1.1149821e+3, 1.2476354e+2, -1692906.1, -1639724.6, -81772.63, -0.05339657, -0.06677091, -1580328.0, 136986.42, 0.000944546, 9.999881, 10.000568 
1.11498766e+3, 1.3476409e+2, -1612412.4, -1573272.9, 53015.09, 0.003163951, -0.052895453, -1536330.9, 82976.06, 0.00045159098, 9.999845, 10.000379 
1.11499205e+3, 1.4476459e+2, -1546540.6, -1581853.0, 13595.64, -0.034744795, 0.001146345, -1541912.8, -20610.969, 0.00012308804, 10.000025, 9.999553 
1.1149956e+3, 1.5476373e+2, -1405197.1, -1463559.6, 655.1565, -0.07524519, -0.04058609, -1405189.8, 18121.998, 0.000008505592, 10.000327, 9.999545 
1.1149989e+3, 1.6476312e+2, -1298039.4, -1358097.0, -21066.805, -0.09905845, -0.056849875, -1291386.5, 33932.1, 0.0000000033697685, 10.000377, 9.999572 
1.1150023e+3, 1.747628e+2, -1224083.1, -1267190.5, -11233.137, -0.08133224, -0.052246943, -1221331.5, 5990.1025, 0.0, 10.000192, 9.999612 
1.1150061e+3, 1.8476243e+2, -1153741.0, -1228265.6, 22904.281, -0.06192388, -0.029052187, -1147264.5, -17938.477, 0.0, 10.0001955, 9.999207 
1.1150106e+3, 1.9476202e+2, -1022898.44, -1112500.1, 7260.0063, -0.047502354, 0.0055312617, -1022314.0, 9017.976, 0.0, 10.000413, 9.999224 
1.1150149e+3, 2.0476153e+2, -919537.6, -988393.75, 112.21384, -0.034502883, 0.024725031, -919537.44, 13800.024, 0.0, 10.000348, 9.999434 
1.115019e+3, 2.1476096e+2, -872147.06, -910383.6, 21838.25, -0.019672295, 0.016887963, -862240.94, -26898.469, 0.0, 9.999982, 9.999474 
1.11502305e+3, 2.2476001e+2, -816455.2, -874872.8, 19477.309, -0.02392921, -0.005077744, -810556.75, -73205.65, 0.0, 9.999872, 9.999098 
1.1150266e+3, 2.347587e+2, -691928.5, -761578.06, 6648.604, -0.049299806, -0.05110372, -691299.56, -51935.91, 0.0, 10.000043, 9.999121 
1.1150308e+3, 2.447579e+2, -600377.94, -656204.7, 7708.652, -0.03763084, -0.04639062, -599333.06, -57962.22, 0.0, 9.999954, 9.999214 
1.1150352e+3, 2.5475767e+2, -551711.44, -578100.0, 20705.912, 0.014416775, 0.0039773425, -540353.25, -96980.95, 0.0, 9.9995985, 9.999248 
1.1150396e+3, 2.6475665e+2, -500816.4, -546653.8, 43970.426, 0.032100897, -0.0033867182, -474150.2, -128768.125, 0.0, 9.999465, 9.998854 
1.1150439e+3, 2.7475476e+2, -388580.47, -438053.3, 36672.05, 0.013907559, -0.08139992, -369081.94, -121681.38, 0.0, 9.999548, 9.998886 
1.11504845e+3, 2.8475392e+2, -269739.28, -317674.6, 19040.387, 0.034978535, -0.060443692, -263096.72, -113687.445, 0.0, 9.999636, 9.998999 
1.1150532e+3, 2.9475412e+2, -149773.22, -204564.9, 23968.416, 0.096130505, 0.0554326, -140768.28, -89360.68, 0.0, 9.999766, 9.99904 
1.1150571e+3, 3.0475277e+2, -67540.87, -88765.914, 14694.478, 0.09776044, -0.0035475707, -60027.35, -60027.35, 0.0, 9.999777, 9.999496 
1.11506015e+3, 3.1475222e+2, -73927.67, -65289.65, 31264.225, 0.037744902, -0.015056034, -38047.52, -38047.52, 0.0, 9.999616, 9.999735 
1.1249816e+3, 1.2475965e+2, -1696673.5, -1654258.8, -37649.613, -0.0842663, -0.07463989, -1632254.5, 85097.55, 0.0010643419, 9.999911, 10.000454 
1.1249878e+3, 1.3476008e+2, -1551536.6, -1553204.0, 64553.848, 0.012115387, -0.061964054, -1487811.1, 131534.5, 0.00051804923, 10.000304, 10.000295 
1.1249923e+3, 1.4476058e+2, -1493848.4, -1551883.8, 3883.8674, -0.03631818, -0.007828423, -1493589.6, 27751.19, 0.00014661087, 10.000368, 9.999593 
1.1249959e+3, 1.5475987e+2, -1454684.6, -1483534.1, -4094.1848, -0.06281092, -0.038439773, -1454114.9, -30765.086, 0.00001150662, 9.9999695, 9.999581 
1.12499915e+3, 1.6475932e+2, -1355684.4, -1375570.1, -20105.834, -0.085289, -0.054972865, -1343197.3, -17841.309, 0.0000000061074554, 9.999935, 9.999665 
1.1250026e+3, 1.7475896e+2, -1200315.6, -1245161.6, -22680.52, -0.081587136, -0.06342748, -1190845.1, 36513.465, 0.0, 10.00031, 9.999707 
1.1250064e+3, 1.847586e+2, -1140981.9, -1229203.3, 14022.87, -0.06549349, -0.041747645, -1138806.5, -9443.443, 0.0, 10.000315, 9.999142 
1.1250108e+3, 1.9475822e+2, -1098720.4, -1156620.3, 26468.32, -0.044293378, 0.0033448949, -1088444.5, -57074.688, 0.0, 9.999926, 9.999155 
1.125015e+3, 2.0475782e+2, -984832.56, -999501.3, 23305.43, -0.03168228, 0.026397016, -967734.7, -34360.31, 0.0, 9.999812, 9.999617 
1.12501904e+3, 2.147574e+2, -855381.0, -881250.25, 16013.213, -0.02641117, 0.015404215, -847731.0, -12354.299, 0.0, 10.000007, 9.999661 
1.12502284e+3, 2.247565e+2, -793766.94, -868601.0, 15355.03, -0.032500558, -0.010843198, -790738.8, -53354.223, 0.0, 10.000049, 9.999056 
1.12502664e+3, 2.3475508e+2, -712221.5, -776210.7, 24030.498, -0.052188344, -0.061387572, -704202.1, -64803.703, 0.0, 9.999927, 9.999076 
1.1250307e+3, 2.4475423e+2, -604133.5, -658271.2, 21003.611, -0.037274163, -0.061057683, -596940.5, -55534.06, 0.0, 9.99993, 9.99921 
1.12503506e+3, 2.5475395e+2, -484436.47, -545587.2, 7990.005, 0.015268074, -0.015780985, -483409.75, -40001.574, 0.0, 10.000062, 9.999248 
1.12503946e+3, 2.64753e+2, -418628.94, -502359.06, 29645.178, 0.034963857, -0.015485907, -409195.66, -63778.633, 0.0, 10.000011, 9.998895 
1.1250437e+3, 2.7475137e+2, -353187.88, -417020.94, 40029.676, 0.019710347, -0.071467526, -333908.3, -86474.945, 0.0, 9.999773, 9.998922 
1.12504825e+3, 2.8475055e+2, -270188.88, -315768.34, 34191.242, 0.038902428, -0.05208368, -251888.3, -102446.12, 0.0, 9.999623, 9.999018 
1.1250529e+3, 2.947505e+2, -178835.94, -216594.67, 29943.248, 0.094582975, 0.03746408, -162317.16, -110874.17, 0.0, 9.999559, 9.999057 
1.12505674e+3, 3.0474913e+2, -94160.02, -79215.98, 1180.6539, 0.09501426, -0.035958976, -79123.27, -79123.27, 0.0, 9.999499, 9.999695 
1.1250597e+3, 3.147492e+2, -77054.96, -33555.61, -9140.172, 0.04086541, -0.005655684, -31713.102, -31713.102, 0.0, 9.999453, 10.0000305 
1.1349816e+3, 1.2475661e+2, -1739458.1, -1740649.0, -27790.102, -0.07851516, -0.05502537, -1712257.1, 5121.961, 0.0011953667, 9.999903, 9.999864 
1.1349877e+3, 1.3475591e+2, -1591749.8, -1636226.1, 81352.68, -0.032912366, -0.10057852, -1529650.6, 89735.59, 0.00059164723, 10.000301, 9.999726 
1.1349921e+3, 1.4475612e+2, -1484990.8, -1532550.1, -9955.748, -0.100964874, -0.05102633, -1482990.8, 38394.227, 0.00017336896, 10.000363, 9.999728 
1.13499634e+3, 1.5475616e+2, -1444334.1, -1462315.0, -18730.025, -0.015907396, -0.020709071, -1432548.6, -9162.187, 0.000015247707, 9.99997, 9.999727 
1.13499984e+3, 1.6475596e+2, -1359774.8, -1383678.6, -7980.368, -0.0108752465, -0.009360154, -1357355.4, -31965.854, 0.000000009421829, 9.999933, 9.999611 
1.1350029e+3, 1.7475538e+2, -1204664.5, -1253865.0, -8684.247, -0.06719985, -0.031457122, -1203176.6, 24217.879, 0.0, 10.000308, 9.999648 
1.1350066e+3, 1.8475495e+2, -1119726.5, -1184679.9, -1667.7876, -0.08193644, -0.028143266, -1119683.8, 9715.614, 0.0, 10.000312, 9.99945 
1.1350105e+3, 1.947547e+2, -1076426.5, -1109761.3, 11212.119, -0.05988382, -0.0044476185, -1073006.3, -41602.637, 0.0, 9.999923, 9.999479 
1.1350145e+3, 2.047542e+2, -997076.7, -1023931.4, 28571.254, -0.054234635, -0.00075985806, -978934.9, -45526.066, 0.0, 9.999807, 9.999452 
1.1350187e+3, 2.1475342e+2, -868467.8, -908168.2, 23181.664, -0.06306237, -0.02816919, -857798.9, -22383.799, 0.0, 10.000005, 9.999478 
1.1350227e+3, 2.2475284e+2, -776799.44, -832780.5, 9572.244, -0.05054089, -0.024514342, -775207.94, -37787.95, 0.0, 10.000045, 9.999304 
1.1350269e+3, 2.3475249e+2, -694331.25, -738724.06, 19362.357, -0.015189583, 0.0048311884, -687072.94, -47649.555, 0.0, 9.999924, 9.999335 
1.1350309e+3, 2.4475148e+2, -627338.7, -705155.1, 25111.082, -0.0016061965, -0.0065781814, -619939.06, -78506.055, 0.0, 9.999926, 9.998891 
1.1350348e+3, 2.5474975e+2, -508886.25, -594189.5, 13784.224, -0.010361654, -0.073285595, -506714.16, -63264.547, 0.0, 10.000052, 9.998919 
1.135039e+3, 2.647488e+2, -399547.53, -460841.44, 21137.07, 0.008455485, -0.07233139, -392965.3, -47506.676, 0.0, 10.000002, 9.999185 
1.1350438e+3, 2.747487e+2, -331298.8, -372920.25, 33147.9, 0.055824127, -0.0042367615, -312970.44, -65511.23, 0.0, 9.999778, 9.999224 
1.135048e+3, 2.8474793e+2, -276449.03, -329144.97, 31921.205, 0.0601193, 0.009541317, -261406.42, -111939.52, 0.0, 9.999625, 9.998925 
1.1350518e+3, 2.9474634e+2, -187886.48, -232147.86, 29197.633, 0.021311397, -0.04595061, -173380.17, -121897.766, 0.0, 9.999545, 9.998957 
1.1350556e+3, 3.0474454e+2, -103978.88, -96156.45, -544.34045, 0.023781335, -0.15230814, -96118.75, -96118.75, 0.0, 9.999483, 9.999587 
1.13505945e+3, 3.1474578e+2, -73834.17, -29403.98, -6858.8843, 0.07195768, 0.0069991355, -28369.242, -28369.242, 0.0, 9.999462, 10.000055 
1.1449818e+3, 1.2475299e+2, -1705943.8, -1748892.1, -57327.695, -0.06898896, -0.04488435, -1666200.3, 51212.863, 0.0013373722, 10.000239, 9.999645 
1.144988e+3, 1.347519e+2, -1630340.8, -1676478.5, 81387.75, -0.017892921, -0.108004466, -1568815.6, 50609.39, 0.000672049, 10.000128, 9.9995365 
1.14499204e+3, 1.4475201e+2, -1511480.5, -1539876.5, -8163.75, -0.11852451, -0.06260709, -1509300.8, 12124.889, 0.0002032588, 10.000157, 9.999779 
1.1449964e+3, 1.547523e+2, -1402822.6, -1435727.1, -26631.6, -0.012685617, -0.014748849, -1387971.3, 35453.332, 0.000019742625, 10.000228, 9.999785 
1.145e+3, 1.6475222e+2, -1325380.1, -1360306.5, -5134.4844, 0.00055047584, 0.0053593726, -1324641.0, 785.2137, 0.000000013934886, 10.00014, 9.999672 
1.1450031e+3, 1.7475173e+2, -1260975.5, -1274790.1, 2178.068, -0.06574522, -0.017409159, -1260640.3, -33209.35, 0.0, 9.999893, 9.999705 
1.1450066e+3, 1.8475133e+2, -1176047.6, -1205525.6, 1883.5181, -0.088155456, -0.016382392, -1175927.8, -46492.332, 0.0, 9.9999, 9.999505 
1.1450105e+3, 1.9475107e+2, -1032356.56, -1082390.1, -6533.319, -0.071223795, 0.0034193187, -1031517.56, -78.16906, 0.0, 10.000199, 9.999533 
1.1450144e+3, 2.0475051e+2, -935701.3, -996301.06, 7439.822, -0.06530031, -0.0009655485, -934801.3, -1356.2777, 0.0, 10.000237, 9.9994335 
1.14501856e+3, 2.147496e+2, -872173.06, -911749.4, 12419.942, -0.06920361, -0.040204193, -868598.3, -33145.793, 0.0, 9.999989, 9.999461 
1.1450227e+3, 2.2474912e+2, -796085.8, -833984.44, -858.61426, -0.054521907, -0.029750241, -796066.4, -58609.797, 0.0, 9.99988, 9.999374 
1.14502676e+3, 2.3474908e+2, -689172.5, -728153.1, -5597.6147, -0.021393621, 0.025885087, -688384.6, -48927.773, 0.0, 9.999927, 9.999406 
1.1450308e+3, 2.4474818e+2, -638468.75, -709270.7, 5453.174, -0.0031625992, 0.018771483, -638051.2, -96585.44, 0.0, 9.999845, 9.998901 
1.1450348e+3, 2.5474626e+2, -571139.56, -623341.3, 17021.955, 0.0002502034, -0.06641923, -566079.5, -122595.39, 0.0, 9.999621, 9.998926 
1.14503905e+3, 2.6474524e+2, -456011.47, -479444.16, 30195.717, 0.0240888, -0.07798736, -435338.72, -89845.01, 0.0, 9.999577, 9.999263 
1.1450437e+3, 2.7474514e+2, -333523.03, -364307.3, 24646.943, 0.06818398, -0.01699004, -319856.78, -72363.23, 0.0, 9.9997225, 9.999309 
1.14504784e+3, 2.8474447e+2, -256494.5, -318072.88, 17953.594, 0.06921583, 0.0026586098, -251642.34, -102142.39, 0.0, 9.999758, 9.998937 
1.1450514e+3, 2.947431e+2, -172471.34, -224648.55, 22314.01, 0.02799976, -0.03390442, -164230.22, -112716.555, 0.0, 9.999651, 9.998957 
1.14505515e+3, 3.04741e+2, -88247.88, -121614.625, 130.06863, 0.020913858, -0.15293911, -88247.375, -88247.375, 0.0, 9.999734, 9.999291 
1.1450591e+3, 3.1474185e+2, 188.47575, -10133.03, -25991.424, 0.05580396, -0.003310235, 21526.543, 21526.543, 0.0, 10.000045, 9.999907 
1.1549821e+3, 1.2474887e+2, -1698171.4, -1729188.0, -64753.402, -0.061737694, -0.04308078, -1647095.1, 70358.484, 0.001489488, 10.000225, 9.999787 
1.15498886e+3, 1.3474818e+2, -1617952.5, -1650993.0, 79186.39, 0.054004826, -0.08503724, -1553581.5, 65880.3, 0.00075867696, 10.000129, 9.999711 
1.1549926e+3, 1.447483e+2, -1512919.9, -1543533.1, -5540.757, -0.09222093, -0.043252345, -1511947.9, 9514.053, 0.0002361324, 10.000159, 9.999753 
1.1549962e+3, 1.5474834e+2, -1404687.0, -1439340.4, -23790.756, -0.0570006, -0.019775858, -1392582.3, 30881.346, 0.000024990082, 10.000226, 9.999762 
1.15499966e+3, 1.6474824e+2, -1313910.1, -1335445.5, -15433.462, -0.05653954, -0.0097201755, -1305859.3, 19606.016, 0.000000023716384, 10.000135, 9.9998455 
1.1550028e+3, 1.7474802e+2, -1249063.1, -1249331.6, -7251.6333, -0.0796971, -0.020822847, -1241944.5, -14477.467, 0.0, 9.999889, 9.999882 
1.15500644e+3, 1.8474776e+2, -1190703.4, -1235282.8, 11406.74, -0.08775833, -0.006447161, -1187954.3, -58483.61, 0.0, 9.999896, 9.999303 
1.1550106e+3, 1.9474742e+2, -1047490.3, -1113786.5, 4610.585, -0.08182548, 0.026431508, -1047171.2, -15694.811, 0.0, 10.000198, 9.999318 
1.1550146e+3, 2.0474683e+2, -927645.0, -979239.56, -3047.9333, -0.06912087, 0.025535498, -927465.56, 6016.8716, 0.0, 10.000236, 9.999552 
1.1550188e+3, 2.1474597e+2, -863391.25, -892718.44, 2440.2083, -0.046921264, -0.021316756, -863189.6, -27700.965, 0.0, 9.999984, 9.999595 
1.1550226e+3, 2.2474535e+2, -804242.5, -848757.06, -805.1445, -0.047042336, -0.027398406, -804228.0, -66734.02, 0.0, 9.999871, 9.999277 
1.1550261e+3, 2.3474497e+2, -697247.0, -743960.9, -3540.1223, -0.07284641, 0.0021979127, -696980.25, -57481.96, 0.0, 9.999922, 9.999299 
1.1550303e+3, 2.4474436e+2, -616345.4, -662108.2, -2976.413, -0.045355912, 0.016006624, -616152.56, -74648.49, 0.0, 9.999838, 9.9992285 
1.1550348e+3, 2.5474352e+2, -547217.4, -574560.06, 9461.998, 0.042411223, 0.0036373294, -544262.4, -100750.99, 0.0, 9.999623, 9.99926 
1.1550392e+3, 2.647423e+2, -466078.7, -500242.5, 35135.227, 0.07758999, -0.03528482, -444093.0, -98570.89, 0.0, 9.999577, 9.99912 
1.15504324e+3, 2.7474073e+2, -345480.56, -386788.2, 31014.465, 0.053548627, -0.11081649, -328872.1, -81335.73, 0.0, 9.999713, 9.999159 
1.1550475e+3, 2.847402e+2, -247664.84, -297003.13, 14736.179, 0.061823905, -0.07293259, -243598.61, -94057.55, 0.0, 9.999745, 9.999088 
1.1550519e+3, 2.9474083e+2, -160270.84, -201745.33, 21359.053, 0.10584282, 0.074409164, -151238.27, -99702.266, 0.0, 9.99966, 9.999111 
1.1550554e+3, 3.047386e+2, -126435.695, -202394.53, 11407.476, 0.07944195, -0.038747415, -124759.516, -124759.516, 0.0, 9.999741, 9.998734 
1.15505844e+3, 3.1473744e+2, -29171.924, -68345.65, -11910.884, -0.013375405, -0.0347592, -25834.688, -25834.688, 0.0, 10.000032, 9.999514 
1.1649823e+3, 1.2474446e+2, -1628779.8, -1683376.0, -70164.39, -0.08602839, -0.07495013, -1580790.3, 136706.47, 0.0016512593, 10.0006485, 9.999898 
1.16498925e+3, 1.3474436e+2, -1629265.8, -1640671.9, 68930.56, 0.082726225, -0.07190168, -1565802.8, 53696.54, 0.0008513687, 9.999981, 9.999854 
1.1649925e+3, 1.4474463e+2, -1556598.9, -1551024.6, 11169.806, -0.09354581, -0.029201116, -1542299.5, -20801.754, 0.00027198074, 9.999801, 9.999874 
1.16499625e+3, 1.5474439e+2, -1417888.3, -1432211.1, 1180.3951, -0.074858665, -0.045156714, -1417791.6, 5709.563, 0.00003101119, 10.000076, 9.999884 
1.1649995e+3, 1.6474426e+2, -1304496.8, -1335478.5, -1971.5479, -0.07475353, -0.040679075, -1304371.8, 21131.395, 0.00000004774233, 10.00022, 9.9998045 
1.1650028e+3, 1.7474432e+2, -1200501.9, -1230762.3, -11932.986, -0.08599489, -0.020210821, -1196362.5, 31140.701, 0.0, 10.000245, 9.999838 
1.16500646e+3, 1.8474413e+2, -1156067.6, -1215983.5, 12252.139, -0.08437548, 0.0040109255, -1153659.0, -24152.877, 0.0, 10.000121, 9.999327 
1.1650107e+3, 1.947437e+2, -1098011.4, -1134817.9, 22795.56, -0.07180259, 0.023388598, -1087117.6, -55605.24, 0.0, 9.999838, 9.999348 
1.1650148e+3, 2.0474312e+2, -1000875.8, -1020401.7, 17328.348, -0.058804505, 0.023539642, -990749.4, -57230.836, 0.0, 9.999761, 9.999497 
1.1650188e+3, 2.1474238e+2, -877035.0, -905910.2, 7701.6797, -0.044024773, -0.0072430377, -875109.2, -39584.605, 0.0, 9.999919, 9.999535 
1.1650225e+3, 2.2474167e+2, -797182.25, -839036.5, 1891.1183, -0.04886326, -0.019395068, -797097.0, -59566.43, 0.0, 9.999892, 9.999333 
1.1650259e+3, 2.3474106e+2, -731447.5, -753474.6, 9020.876, -0.07589182, -0.018448954, -728224.6, -88688.43, 0.0, 9.999658, 9.999361 
1.1650299e+3, 2.4474053e+2, -640699.7, -665080.2, 10617.686, -0.046735376, -0.00474497, -636724.0, -95183.08, 0.0, 9.999634, 9.999308 
1.16503455e+3, 2.5474006e+2, -510109.1, -547432.4, 3638.9368, 0.044143833, 0.012975264, -509757.63, -66213.04, 0.0, 9.999841, 9.999341 
1.16503894e+3, 2.647389e+2, -416712.1, -482994.75, 25431.953, 0.07572191, -0.02349716, -408078.63, -62523.574, 0.0, 9.999947, 9.999059 
1.165043e+3, 2.7473697e+2, -320633.75, -383213.1, 26170.805, 0.043269105, -0.12549174, -311131.8, -63559.06, 0.0, 9.99992, 9.999084 
1.1650472e+3, 2.847364e+2, -225188.77, -295290.94, 3220.3027, 0.05571828, -0.087244004, -225041.14, -75462.72, 0.0, 9.999937, 9.999008 
1.16505176e+3, 2.9473722e+2, -113567.56, -188077.94, -11113.841, 0.11673855, 0.08820469, -111945.17, -60373.484, 0.0, 10.000021, 9.99903 
1.1650554e+3, 3.0473492e+2, -84739.17, -191027.63, -6718.6367, 0.09044969, -0.024576057, -84316.164, -84316.164, 0.0, 10.000066, 9.998655 
1.1650585e+3, 3.1473354e+2, -24828.135, -54289.086, 7708.0005, -0.013504781, -0.032837637, -22933.322, -22933.322, 0.0, 10.00001, 9.999622 
1.1749823e+3, 1.24739856e+2, -1623145.5, -1671425.3, -92735.984, -0.14566036, -0.1370113, -1551459.0, 166082.63, 0.0018234614, 10.000648, 9.999981 
1.17498904e+3, 1.3474053e+2, -1621282.9, -1623594.9, 45246.426, 0.06339104, -0.06790322, -1577177.6, 42359.047, 0.0009506097, 9.999976, 9.999974 
1.17499195e+3, 1.4474106e+2, -1539290.1, -1513209.4, 20539.717, -0.12817848, -0.01910743, -1501920.1, 19611.898, 0.00031097958, 9.999792, 10.000137 
1.17499635e+3, 1.5474051e+2, -1399693.9, -1393860.3, 11682.337, -0.06969639, -0.09125022, -1384736.1, 38800.652, 0.00003785508, 10.000073, 10.000148 
1.175e+3, 1.6474037e+2, -1322662.4, -1373649.1, -2098.8738, -0.058661174, -0.08923344, -1322576.1, 2962.9575, 0.00000010132158, 10.00022, 9.999543 
1.17500305e+3, 1.7474069e+2, -1219441.5, -1270269.1, -11029.272, -0.087650046, -0.016268255, -1217151.4, 10387.524, 0.0, 10.000244, 9.999568 
1.1750067e+3, 1.8474057e+2, -1138949.4, -1179550.3, 408.414, -0.08250702, 0.015813814, -1138945.3, -9403.865, 0.0, 10.000117, 9.999579 
1.1750109e+3, 1.9474001e+2, -1079904.1, -1096277.5, 11710.974, -0.043330833, -0.00477813, -1073802.1, -42255.38, 0.0, 9.999833, 9.999614 
1.17501475e+3, 2.0473942e+2, -1017447.0, -1053990.5, 21505.137, -0.036974203, -0.0067399414, -1007499.44, -73946.63, 0.0, 9.999756, 9.999269 
1.1750184e+3, 2.1473882e+2, -894434.1, -941545.8, 13532.966, -0.06413523, 0.0009268112, -890823.44, -55263.6, 0.0, 9.999916, 9.999291 
1.1750222e+3, 2.2473815e+2, -784298.06, -811367.9, -7838.1274, -0.06448761, -0.0058136918, -782192.3, -44626.49, 0.0, 9.9998865, 9.999526 
1.175026e+3, 2.3473741e+2, -716808.5, -723204.94, 76.51842, -0.03399593, -0.037038665, -716807.6, -77237.266, 0.0, 9.999657, 9.99957 
1.1750299e+3, 2.447367e+2, -652510.5, -688658.06, 17034.03, -0.010494769, -0.04442771, -645748.44, -104172.38, 0.0, 9.999629, 9.999147 
1.17503405e+3, 2.5473598e+2, -522471.47, -572068.5, 12222.499, 0.0038267474, -0.037685916, -519623.0, -76039.81, 0.0, 9.999836, 9.999175 
1.1750383e+3, 2.6473504e+2, -415543.0, -479621.0, 25296.174, 0.016880961, -0.04175733, -406760.5, -61168.504, 0.0, 9.99994, 9.999085 
1.1750427e+3, 2.74734e+2, -318159.78, -378947.94, 27298.893, 0.029082933, -0.06231181, -307700.1, -60097.867, 0.0, 9.999922, 9.999114 
1.1750471e+3, 2.8473303e+2, -250784.2, -348577.16, 6254.3643, 0.04337343, -0.04251886, -250385.83, -100774.16, 0.0, 9.999938, 9.998643 
1.17505126e+3, 2.947322e+2, -140829.52, -242401.22, -6823.1367, 0.05938584, 0.0070650675, -140373.2, -88752.46, 0.0, 10.0000105, 9.998662 
1.1750552e+3, 3.047299e+2, -53502.785, -123294.5, -7339.4614, 0.052202735, -0.11062612, -52739.3, -52739.3, 0.0, 10.0000515, 9.999128 
1.1750589e+3, 3.147303e+2, 24764.363, 48258.887, 10775.799, 0.03874353, 0.008032283, 52452.64, 52452.64, 0.0, 10.0000105, 10.000327 
1.18498266e+3, 1.2473628e+2, -1729049.8, -1723303.8, -55001.145, -0.14480495, -0.13824318, -1671100.6, 46476.074, 0.0020081834, 9.999926, 9.99997 
1.18498914e+3, 1.3473691e+2, -1577964.9, -1598822.3, 67711.63, 0.062473357, -0.07727515, -1519883.5, 99688.41, 0.0010574218, 10.000258, 10.000008 
1.1849917e+3, 1.4473747e+2, -1470089.9, -1482365.6, 35313.86, -0.16074124, -0.026667422, -1440384.5, 81182.39, 0.00035351914, 10.000279, 10.0001135 
1.1849964e+3, 1.5473706e+2, -1424701.4, -1408201.6, 2637.7708, -0.06582918, -0.08209187, -1407790.1, 15780.067, 0.00004562391, 9.999912, 10.000126 
1.1850001e+3, 1.6473688e+2, -1387252.3, -1410053.5, -7616.6016, -0.036322452, -0.081641, -1384942.0, -59368.82, 0.00000019883093, 9.9998, 9.999496 
1.1850033e+3, 1.7473693e+2, -1261822.4, -1295607.0, -487.66092, -0.07285321, -0.029149342, -1261815.4, -34239.81, 0.0, 9.999975, 9.999524 
1.1850069e+3, 1.8473679e+2, -1130542.1, -1159667.6, 9394.27, -0.07722874, -0.005256139, -1127775.0, 1803.0114, 0.0, 10.000108, 9.99972 
1.18501075e+3, 1.947364e+2, -1015186.94, -1049188.4, 9959.417, -0.049428247, -0.021611184, -1012484.5, 19096.113, 0.0, 10.000209, 9.999757 
1.18501455e+3, 2.0473593e+2, -980027.94, -1048364.25, 19143.46, -0.04405487, -0.015364017, -975030.6, -41444.906, 0.0, 10.000066, 9.99916 
1.18501835e+3, 2.1473533e+2, -940654.6, -975863.06, 19385.383, -0.062494215, 0.006526833, -932072.94, -96479.48, 0.0, 9.999653, 9.999182 
1.1850221e+3, 2.247346e+2, -821793.44, -829334.9, 4939.625, -0.05618871, -0.0008112841, -819349.8, -81749.586, 0.0, 9.99963, 9.999526 
1.185026e+3, 2.3473372e+2, -660893.25, -695900.2, -3244.7756, -0.022533393, -0.049658287, -660595.0, -20989.254, 0.0, 10.000039, 9.999572 
1.1850299e+3, 2.4473283e+2, -579396.44, -656982.56, 7358.885, -0.006905716, -0.07179257, -578704.6, -37092.14, 0.0, 10.000148, 9.999114 
1.1850337e+3, 2.5473195e+2, -513390.4, -571906.75, 10152.579, -0.011076913, -0.07537497, -511679.0, -68058.33, 0.0, 9.999917, 9.999137 
1.1850381e+3, 2.6473114e+2, -428850.03, -494579.44, 28396.355, 0.004438252, -0.06428737, -418281.56, -72652.67, 0.0, 9.999886, 9.99901 
1.18504286e+3, 2.747304e+2, -299294.0, -377832.38, 20687.715, 0.04050985, -0.04341855, -294177.94, -46540.965, 0.0, 10.000088, 9.999041 
1.18504725e+3, 2.847294e+2, -204770.81, -314774.2, 12081.512, 0.04904136, -0.03113571, -203459.55, -53812.563, 0.0, 10.000206, 9.998744 
1.18505105e+3, 2.947281e+2, -105493.234, -214522.9, 34477.223, 0.029781101, -0.042195976, -95505.77, -43846.176, 0.0, 10.000206, 9.99876 
1.1850549e+3, 3.047258e+2, -54006.293, -135969.9, 25877.59, 0.024477668, -0.15849887, -46519.99, -46519.99, 0.0, 10.000103, 9.999016 
1.1850592e+3, 3.147266e+2, 16769.225, 56107.348, -7597.2676, 0.058175676, 0.01317077, 57523.598, 57523.598, 0.0, 9.999907, 10.000429 
1.1949831e+3, 1.2473387e+2, -1739071.5, -1741725.8, -35476.176, -0.09060386, -0.07649594, -1704897.6, 12703.209, 0.0022081332, 9.999915, 9.999849 
1.1949895e+3, 1.3473359e+2, -1582767.0, -1608866.5, 81248.6, 0.07615588, -0.100196585, -1513526.9, 106077.41, 0.0011730703, 10.0002575, 9.99994 
1.19499154e+3, 1.4473392e+2, -1491422.0, -1527367.1, 21505.361, -0.19589284, -0.052515306, -1481367.9, 40233.67, 0.00040013902, 10.000281, 9.9998045 
1.19499624e+3, 1.5473412e+2, -1446324.3, -1453206.0, -11174.247, -0.066334106, -0.017453514, -1438073.1, -14472.221, 0.00005450229, 9.999912, 9.999818 
1.19500026e+3, 1.6473386e+2, -1376036.9, -1386190.3, -2622.543, -0.012138454, -0.016016943, -1375399.5, -49795.13, 0.00000035173326, 9.999796, 9.999661 
1.19500354e+3, 1.7473315e+2, -1249767.6, -1270099.1, 6057.3184, -0.044307053, -0.058326844, -1248099.9, -20487.477, 0.0, 9.999972, 9.999701 
1.195007e+3, 1.8473285e+2, -1129434.4, -1157180.3, 12004.617, -0.07277439, -0.060591534, -1124961.5, 4654.0303, 0.0, 10.000106, 9.999738 
1.1950105e+3, 1.9473295e+2, -1014332.75, -1047089.0, 13365.285, -0.0934744, -0.028433224, -1009571.5, 22042.135, 0.0, 10.000206, 9.999773 
1.1950143e+3, 2.047327e+2, -980308.25, -1047941.5, 2574.3047, -0.08409885, -0.0013977329, -980210.44, -46593.89, 0.0, 10.00006, 9.999165 
1.1950182e+3, 2.14732e+2, -940414.6, -975203.4, 3329.2007, -0.041012704, 0.009546426, -940098.94, -104474.05, 0.0, 9.999651, 9.999188 
1.19502194e+3, 2.2473112e+2, -835380.06, -856858.06, 18189.012, -0.026304599, -0.004648, -824996.44, -87363.07, 0.0, 9.999627, 9.999339 
1.19502574e+3, 2.3472999e+2, -674444.56, -723979.6, 12421.919, -0.043295555, -0.056787286, -671504.06, -31862.113, 0.0, 10.000038, 9.999381 
1.1950297e+3, 2.4472897e+2, -574483.94, -646088.4, -1225.3984, -0.038450792, -0.086769305, -574462.94, -32813.184, 0.0, 10.000144, 9.999191 
1.1950337e+3, 2.5472808e+2, -507716.7, -559700.1, 2179.208, -0.0072370656, -0.10105329, -507625.5, -63968.895, 0.0, 9.999913, 9.999223 
1.1950382e+3, 2.6472718e+2, -443517.06, -524471.9, 35345.76, 0.032159213, -0.09266277, -430256.72, -84591.19, 0.0, 9.999882, 9.998807 
1.1950433e+3, 2.747263e+2, -314537.28, -408160.66, 29237.574, 0.07665175, -0.067714006, -306156.88, -58480.105, 0.0, 10.000081, 9.998836 
1.1950476e+3, 2.8472552e+2, -162748.02, -226808.88, 12857.503, 0.071567684, -0.052089483, -160263.77, -10579.66, 0.0, 10.000201, 9.999351 
1.19505115e+3, 2.9472485e+2, -63031.6, -125067.47, 37055.73, 0.014851126, -0.06088465, -45725.223, 5962.548, 0.0, 10.000199, 9.999378 
1.1950548e+3, 3.0472258e+2, -110136.43, -251375.45, 18704.104, -0.0049701612, -0.16885136, -107701.445, -107701.445, 0.0, 10.000097, 9.998226 
1.195059e+3, 3.1472245e+2, -26542.81, -31825.244, -12389.566, 0.043213245, -0.007848646, -16516.06, -16516.06, 0.0, 9.999898, 9.999828 
1.2049833e+3, 1.247311e+2, -1663535.6, -1717838.5, -39911.594, -0.09177099, -0.026794396, -1642415.6, 75213.3, 0.0024257244, 10.000491, 9.999734 
1.2049898e+3, 1.3473022e+2, -1606910.4, -1627847.6, 65720.96, 0.08787281, -0.100673415, -1550829.5, 68807.7, 0.0012988481, 10.000122, 9.999875 
1.2049916e+3, 1.4473036e+2, -1533340.5, -1552286.6, 14875.304, -0.20906733, -0.06961466, -1525178.0, -3541.374, 0.00045139206, 10.000013, 9.999762 
1.2049963e+3, 1.5473077e+2, -1409727.4, -1439672.4, -90.33432, -0.062152274, -0.0079296045, -1409727.1, 13907.06, 0.00006471426, 10.000182, 9.99978 
1.20500036e+3, 1.6473062e+2, -1315133.9, -1345134.0, 20839.008, -0.0008651526, 0.0008735937, -1304457.8, 21178.77, 0.00000057087306, 10.000166, 9.9997635 
1.20500356e+3, 1.7472988e+2, -1242255.8, -1255074.9, 22843.531, -0.04603385, -0.05543376, -1224939.6, 2704.1318, 0.0, 9.999975, 9.999801 
1.205007e+3, 1.8472947e+2, -1170105.6, -1190815.0, 24422.43, -0.07832569, -0.066520035, -1153933.4, -24285.775, 0.0, 9.9998865, 9.999612 
1.20501064e+3, 1.9472945e+2, -1067075.9, -1086266.4, 14079.857, -0.09140492, -0.03675305, -1059632.6, -27984.75, 0.0, 9.999906, 9.999647 
1.20501444e+3, 2.047291e+2, -981306.7, -1040508.1, -4365.1763, -0.07609845, -0.014649957, -980986.56, -47335.22, 0.0, 10.000021, 9.999234 
1.20501816e+3, 2.1472842e+2, -848467.1, -922949.94, 214.37875, -0.030737214, -0.011399561, -848466.5, -12807.831, 0.0, 10.000247, 9.99926 
1.20502196e+3, 2.247275e+2, -768461.1, -848249.3, 21508.17, -0.020044675, -0.021124585, -763032.6, -25365.281, 0.0, 10.000188, 9.999128 
1.2050256e+3, 2.3472635e+2, -722567.25, -770954.2, 12092.819, -0.047595996, -0.054225583, -719713.3, -80035.95, 0.0, 9.999812, 9.9991665 
1.2050296e+3, 2.4472532e+2, -616229.75, -662027.2, 400.16907, -0.041211564, -0.076808006, -616226.25, -74540.49, 0.0, 9.999841, 9.999228 
1.20503396e+3, 2.5472438e+2, -446269.25, -524679.2, -619.5122, 0.0032198783, -0.09835011, -446264.38, -2572.0781, 0.0, 10.000314, 9.9992695 
1.2050384e+3, 2.6472333e+2, -379687.75, -497800.06, 28127.127, 0.039217867, -0.104185775, -373331.66, -27629.584, 0.0, 10.00034, 9.998768 
1.2050432e+3, 2.7472216e+2, -349020.4, -429827.13, 33396.867, 0.065061994, -0.100954674, -337004.47, -89289.07, 0.0, 9.999866, 9.998791 
1.2050475e+3, 2.847215e+2, -237606.11, -264139.88, 9211.319, 0.062551156, -0.07586755, -234721.88, -84999.67, 0.0, 9.999694, 9.999339 
1.20505124e+3, 2.9472122e+2, -112038.56, -149961.08, -17575.215, 0.03004325, -0.041173924, -105146.05, -53423.563, 0.0, 9.99987, 9.999364 
1.205055e+3, 3.0471897e+2, -114159.75, -275654.84, -36047.33, 0.0027696476, -0.13802764, -106478.93, -106478.93, 0.0, 10.000167, 9.998025 
1.20505884e+3, 3.147179e+2, 69220.49, 12664.942, -19639.814, 0.017385364, -0.051972274, 75371.7, 75371.7, 0.0, 10.000561, 9.999816 
1.2149832e+3, 1.2472809e+2, -1673104.4, -1736895.8, -47273.824, -0.15236548, 0.014883314, -1647972.4, 69687.1, 0.0026624324, 10.000486, 9.999606 
1.21499e+3, 1.3472696e+2, -1610968.6, -1636985.6, 51930.71, 0.09347034, -0.078887716, -1570441.9, 49228.125, 0.0014356553, 10.000124, 9.999812 
1.2149917e+3, 1.4472686e+2, -1517764.5, -1520091.5, 19800.67, -0.20589785, -0.07816223, -1499093.1, 22577.928, 0.0005075534, 10.000013, 9.999984 
1.2149966e+3, 1.5472713e+2, -1394065.5, -1406619.1, 6520.7144, -0.056408297, -0.05419555, -1391291.5, 32378.0, 0.000076397075, 10.000178, 10.000009 
1.2150005e+3, 1.6472724e+2, -1313860.9, -1342043.9, 12334.561, -0.0072321086, -0.0323658, -1309225.1, 16443.746, 0.0000008702971, 10.000163, 9.999787 
1.2150032e+3, 1.7472719e+2, -1241159.6, -1252790.8, 15379.234, -0.08099216, -0.020404547, -1230533.1, -2864.123, 0.0, 9.999974, 9.999818 
1.21500656e+3, 1.8472677e+2, -1188949.4, -1229136.6, 23711.621, -0.09786042, -0.020826818, -1177962.6, -48289.164, 0.0, 9.999883, 9.9993515 
1.21501096e+3, 1.947259e+2, -1086038.8, -1125762.1, 14535.056, -0.045507673, -0.046464305, -1081288.4, -49605.723, 0.0, 9.999905, 9.999377 
1.2150149e+3, 2.0472518e+2, -972081.7, -1021611.06, 2489.772, -0.023343477, -0.056277964, -971956.9, -38267.1, 0.0, 10.000021, 9.999364 
1.2150184e+3, 2.147246e+2, -838896.5, -902520.75, 8442.955, -0.035221692, -0.05699236, -837795.1, -2100.8032, 0.0, 10.000243, 9.999402 
1.215022e+3, 2.247238e+2, -786741.3, -884662.75, 6459.185, -0.04094626, -0.049666356, -786317.1, -48615.46, 0.0, 10.00018, 9.998882 
1.2150256e+3, 2.3472281e+2, -740696.94, -808363.06, -1984.8275, -0.038680922, -0.04264445, -740638.8, -100927.04, 0.0, 9.99981, 9.998911 
1.2150298e+3, 2.4472184e+2, -616971.94, -663149.56, 16703.799, -0.018608853, -0.04359637, -611563.2, -69842.96, 0.0, 9.999837, 9.999222 
1.2150344e+3, 2.547209e+2, -446057.13, -524221.16, 18087.445, 0.019074218, -0.06680555, -442074.56, 1652.7025, 0.0, 10.000313, 9.999273 
1.2150386e+3, 2.6471967e+2, -370951.9, -479712.88, 11287.671, 0.025056845, -0.09806977, -369792.78, -24054.805, 0.0, 10.0003395, 9.998894 
1.2150423e+3, 2.7471814e+2, -340878.78, -411359.9, 17114.057, -0.002894752, -0.1436, -336942.97, -89190.51, 0.0, 9.999858, 9.998921 
1.2150467e+3, 2.8471735e+2, -285476.72, -362779.1, 15430.344, 0.012566586, -0.10318757, -282510.5, -132749.48, 0.0, 9.999689, 9.998664 
1.2150516e+3, 2.9471725e+2, -160879.08, -251070.08, -9624.52, 0.07466474, 0.017477235, -159863.45, -108099.805, 0.0, 9.999868, 9.998671 
1.2150555e+3, 3.04715e+2, -82266.22, -210044.1, -20434.998, 0.04718165, -0.06503863, -79077.695, -79077.695, 0.0, 10.000169, 9.998475 
1.21505894e+3, 3.1471306e+2, 112788.57, 106782.25, 446.65, -0.034861017, -0.11319179, 112821.61, 112821.61, 0.0, 10.000546, 10.00047 
1.2249834e+3, 1.2472427e+2, -1679316.9, -1736810.3, -37871.023, -0.17851983, -0.030185921, -1660518.0, 57177.777, 0.0029179724, 10.000432, 9.999632 
1.2249903e+3, 1.3472366e+2, -1597843.6, -1618798.4, 59530.19, 0.10616507, -0.08091983, -1547875.9, 71825.46, 0.0015834377, 10.000165, 9.999916 
1.2249916e+3, 1.4472368e+2, -1532548.4, -1526894.1, 38447.066, -0.2056359, -0.0743319, -1491170.4, 30531.031, 0.00056846405, 9.999913, 9.999984 
1.22499645e+3, 1.547237e+2, -1459070.3, -1438365.6, 6181.5054, -0.06029758, -0.073509656, -1436660.5, -12958.141, 0.00008951281, 9.999736, 10.000003 
1.2250004e+3, 1.6472377e+2, -1368581.9, -1363768.0, 6382.559, -0.010444127, -0.05752322, -1359353.6, -33651.617, 0.0000012652538, 9.999767, 9.999827 
1.22500315e+3, 1.7472394e+2, -1232234.8, -1242938.8, 10107.206, -0.08203448, -0.030204715, -1226150.0, 1549.6016, 0.0, 10.000013, 9.999866 
1.2250067e+3, 1.8472356e+2, -1161448.8, -1229589.4, 24798.252, -0.09323833, -0.02264495, -1153379.5, -23675.967, 0.0, 10.000133, 9.999228 
1.2250111e+3, 1.9472255e+2, -1061934.4, -1128683.6, 24957.844, -0.033445403, -0.05003163, -1053634.6, -21919.56, 0.0, 10.000133, 9.999247 
1.22501515e+3, 2.0472169e+2, -961351.25, -1021220.56, 15832.959, -0.010322209, -0.0627813, -957421.94, -23698.482, 0.0, 10.000115, 9.999321 
1.22501865e+3, 2.1472104e+2, -866405.44, -919423.9, 7282.386, -0.0283723, -0.06637008, -865423.4, -29695.105, 0.0, 10.0000725, 9.999368 
1.2250222e+3, 2.2472018e+2, -788357.44, -885673.75, 2871.727, -0.035459798, -0.06428659, -788272.75, -50536.996, 0.0, 10.000172, 9.9988785 
1.2250257e+3, 2.347191e+2, -652501.75, -766423.5, 11235.947, -0.029880209, -0.06562158, -651404.1, -11657.904, 0.0, 10.000418, 9.998905 
1.22502975e+3, 2.4471809e+2, -565983.56, -664808.4, 33425.94, -0.014530904, -0.059602488, -555739.6, -13984.027, 0.0, 10.0003, 9.998987 
1.2250343e+3, 2.5471717e+2, -538874.7, -595546.3, 15154.521, 0.010086067, -0.057806153, -535076.75, -91312.82, 0.0, 9.99979, 9.999035 
1.22503854e+3, 2.6471588e+2, -443022.2, -512516.88, -626.35516, 0.01081022, -0.08268126, -443016.53, -97241.195, 0.0, 9.999837, 9.998909 
1.2250425e+3, 2.7471423e+2, -247993.34, -363859.88, -5476.7354, -0.014260495, -0.14461361, -247735.06, 54.961803, 0.0, 10.000486, 9.998944 
1.22504674e+3, 2.8471315e+2, -158992.52, -327032.6, 491.45667, -0.000074684904, -0.12203248, -158991.08, -9190.037, 0.0, 10.000669, 9.998436 
1.2250515e+3, 2.9471263e+2, -109677.94, -252982.06, 8997.121, 0.056753792, -0.018420998, -109115.27, -57306.84, 0.0, 10.000334, 9.998433 
1.2250557e+3, 3.0471057e+2, -80251.19, -207865.33, 11211.749, 0.038294107, -0.06900137, -79273.65, -79273.65, 0.0, 10.000177, 9.998485 
1.22505955e+3, 3.1470868e+2, 74255.55, 104628.734, -6203.8755, -0.011847282, -0.116973214, 105847.04, 105847.04, 0.0, 10.00021, 10.000617 
1.2349838e+3, 1.2471973e+2, -1668489.9, -1712826.6, -36717.25, -0.18100281, -0.16252483, -1647767.8, 69968.96, 0.0031899144, 10.000425, 9.9998 
1.2349906e+3, 1.3472044e+2, -1580234.5, -1581196.5, 49278.25, 0.12323144, -0.1067579, -1531434.9, 88295.24, 0.0017411282, 10.000159, 10.000177 
1.2349915e+3, 1.4472091e+2, -1549998.1, -1561673.9, 29484.035, -0.2130755, -0.057298258, -1525779.6, -4052.763, 0.0006337289, 9.999906, 9.999748 
1.2349961e+3, 1.5472059e+2, -1476374.9, -1475126.1, -345.08826, -0.07761396, -0.06537016, -1475037.1, -51304.902, 0.00010392506, 9.999738, 9.99975 
1.2350001e+3, 1.6472033e+2, -1364452.1, -1354835.4, 14373.495, -0.015437314, -0.07386509, -1344487.4, -18752.084, 0.0000017603737, 9.999765, 9.99989 
1.2350034e+3, 1.7472017e+2, -1227443.6, -1232903.0, 19324.857, -0.052019138, -0.0854369, -1210656.6, 17078.25, 0.0, 10.000011, 9.999936 
1.23500705e+3, 1.8471986e+2, -1161490.6, -1229097.1, 23242.17, -0.069071144, -0.07406304, -1154271.1, -24533.39, 0.0, 10.000129, 9.999233 
1.235011e+3, 1.947194e+2, -1061936.4, -1128192.5, 24465.72, -0.058007374, -0.047585294, -1053881.5, -22136.98, 0.0, 10.00013, 9.999252 
1.2350149e+3, 2.0471872e+2, -977034.06, -1052910.8, 12942.089, -0.039479677, -0.032693647, -974887.25, -41135.38, 0.0, 10.000111, 9.999106 
1.2350188e+3, 2.1471782e+2, -881843.9, -951695.25, 5377.5625, -0.013073185, -0.040175363, -881432.3, -45672.336, 0.0, 10.0000725, 9.999146 
1.2350226e+3, 2.2471668e+2, -771785.44, -851286.56, 10705.391, -0.0071136924, -0.06614693, -770369.1, -32599.732, 0.0, 10.000171, 9.999116 
1.2350263e+3, 2.3471528e+2, -635443.44, -730699.9, 20801.201, -0.023656556, -0.12293947, -631099.2, 8681.184, 0.0, 10.000416, 9.999153 
1.23503e+3, 2.447141e+2, -599433.3, -734001.94, 14087.858, -0.03120986, -0.123946756, -597974.3, -56182.953, 0.0, 10.000298, 9.998513 
1.2350337e+3, 2.5471318e+2, -573677.4, -667159.4, -3129.3457, -0.028804654, -0.0717982, -573572.75, -129770.7, 0.0, 9.999786, 9.998546 
1.2350382e+3, 2.6471198e+2, -451267.88, -528683.25, 22998.678, -0.0089443475, -0.059325278, -444950.84, -99136.84, 0.0, 9.999831, 9.998802 
1.2350433e+3, 2.747104e+2, -254901.83, -378324.44, 20533.281, 0.028802335, -0.103117496, -251575.45, -3747.5908, 0.0, 10.000485, 9.998846 
1.2350476e+3, 2.8470886e+2, -143155.06, -294061.3, -10943.476, 0.022223338, -0.1306663, -142365.6, 7476.464, 0.0, 10.000668, 9.998664 
1.235051e+3, 2.947074e+2, -95188.7, -219982.88, -1441.4266, -0.03162914, -0.1484995, -95172.055, -43315.402, 0.0, 10.000321, 9.998666 
1.2350552e+3, 3.047057e+2, -114785.805, -277212.3, 12862.722, -0.03328794, -0.14948618, -113773.5, -113773.5, 0.0, 10.000166, 9.998014 
1.2350607e+3, 3.1470478e+2, 43989.82, 42618.88, -218.64462, 0.07916259, -0.051501334, 44023.848, 44023.848, 0.0, 10.000205, 10.000193 
1.24498405e+3, 1.2471608e+2, -1755380.5, -1752941.4, -45426.36, -0.17545226, -0.17582914, -1708718.3, 9053.873, 0.003475539, 9.999823, 9.999813 
1.2449906e+3, 1.3471694e+2, -1618040.1, -1589325.9, 11059.117, 0.12564142, -0.11210519, -1585560.4, 34203.707, 0.0019075654, 9.999856, 10.000267 
1.2449912e+3, 1.4471747e+2, -1546574.1, -1561206.5, -985.0147, -0.232279, -0.061873507, -1546508.1, -24747.934, 0.0007030745, 9.999934, 9.999738 
1.2449958e+3, 1.547173e+2, -1422716.6, -1449688.1, -14053.214, -0.08907733, -0.05453121, -1416725.3, 7038.803, 0.00011956255, 10.000111, 9.999743 
1.245e+3, 1.6471697e+2, -1314182.9, -1335214.3, 9256.561, -0.016674988, -0.06621354, -1310689.1, 15078.273, 0.0000023468863, 10.000132, 9.999847 
1.2450036e+3, 1.7471652e+2, -1233158.8, -1240817.6, 4219.9316, -0.047829945, -0.10286022, -1231289.6, -3519.9216, 0.0, 9.999995, 9.999888 
1.2450071e+3, 1.8471609e+2, -1185597.1, -1242167.8, 3584.5977, -0.067883104, -0.10046679, -1185370.9, -55597.234, 0.0, 9.99997, 9.999219 
1.245011e+3, 1.9471572e+2, -1075079.4, -1135580.1, 2426.2324, -0.06726989, -0.06389725, -1074982.3, -43202.902, 0.0, 10.000046, 9.999241 
1.24501504e+3, 2.047151e+2, -972533.25, -1057877.5, -1944.8898, -0.048905622, -0.03916641, -972488.94, -38702.816, 0.0, 10.000174, 9.999041 
1.2450191e+3, 2.1471421e+2, -843874.25, -940896.7, 488.65076, -0.01392697, -0.038154446, -843871.75, -8077.457, 0.0, 10.000365, 9.999079 
1.24502294e+3, 2.2471298e+2, -750335.75, -852225.7, -2091.5962, -0.0012665925, -0.06474038, -750292.9, -12488.034, 0.0, 10.000366, 9.999015 
1.2450266e+3, 2.3471138e+2, -678803.2, -762164.9, -19420.393, -0.012927292, -0.1322584, -674500.94, -34683.082, 0.0, 10.000164, 9.999057 
1.24503024e+3, 2.4471004e+2, -605727.3, -737524.44, -23992.645, -0.026386544, -0.14503919, -601495.5, -59665.32, 0.0, 10.000258, 9.9985075 
1.2450338e+3, 2.5470898e+2, -445642.94, -606026.2, -7009.4575, -0.04183834, -0.105841435, -445337.16, -1495.6262, 0.0, 10.000669, 9.998539 
1.24503836e+3, 2.6470777e+2, -348861.7, -493924.9, 40509.703, -0.021265801, -0.08617369, -338315.8, 7537.6626, 0.0, 10.000598, 9.998671 
1.2450437e+3, 2.7470636e+2, -333732.25, -431021.8, 34529.74, 0.038103055, -0.10064349, -322722.9, -74856.48, 0.0, 10.000008, 9.998713 
1.2450481e+3, 2.8470477e+2, -256140.27, -349697.47, -6533.8584, 0.03743156, -0.12622425, -255686.16, -105804.69, 0.0, 9.999896, 9.998652 
1.24505125e+3, 2.9470304e+2, -100914.94, -223284.83, -18425.871, -0.028158654, -0.17095609, -98200.664, -46301.953, 0.0, 10.000285, 9.998659 
1.2450554e+3, 3.0470157e+2, -83086.68, -273995.56, 267.61285, -0.03899727, -0.14270292, -83086.305, -83086.305, 0.0, 10.000437, 9.997905 
1.2450609e+3, 3.147004e+2, 56217.81, 37737.223, 16461.332, 0.07522099, -0.05762173, 65854.98, 65854.98, 0.0, 10.000337, 10.000094 
1.2549838e+3, 1.2471344e+2, -1766778.3, -1776392.8, -32899.156, -0.1677934, -0.06635356, -1738337.0, -20536.477, 0.0037739007, 9.999819, 9.999656 
1.2549904e+3, 1.3471328e+2, -1624037.3, -1602855.3, 11681.297, 0.10901236, -0.09762103, -1597678.5, 22123.646, 0.0020822603, 9.999858, 10.000174 
1.2549907e+3, 1.4471342e+2, -1531941.8, -1530307.5, 3584.4707, -0.26874834, -0.090737954, -1527448.3, -5647.1763, 0.0007764397, 9.999931, 9.999951 
1.2549959e+3, 1.5471388e+2, -1406631.6, -1415996.1, -7187.4663, -0.097589865, -0.04233493, -1402735.9, 21061.389, 0.00013646827, 10.000108, 9.999977 
1.2550001e+3, 1.6471377e+2, -1326203.5, -1358746.8, 2508.4978, -0.01850254, -0.035837464, -1326011.3, -213.209, 0.0000030208696, 10.000125, 9.99969 
1.2550034e+3, 1.7471306e+2, -1244740.8, -1265398.5, -1095.8604, -0.07245702, -0.08151574, -1244682.8, -16879.127, 0.0, 9.999996, 9.99972 
1.2550068e+3, 1.8471232e+2, -1188143.9, -1247302.8, 5208.2847, -0.09317851, -0.10042928, -1187688.9, -57878.34, 0.0, 9.999969, 9.999185 
1.2550111e+3, 1.9471157e+2, -1077288.9, -1140217.5, 4988.584, -0.06426575, -0.099442095, -1076895.9, -45076.96, 0.0, 10.000045, 9.99921 
1.2550153e+3, 2.0471087e+2, -967659.6, -1047070.1, 3578.6711, -0.04259371, -0.08373559, -967498.6, -33672.8, 0.0, 10.00017, 9.999117 
1.2550193e+3, 2.1471028e+2, -839043.9, -929736.0, 7431.12, -0.03302648, -0.060216736, -838439.0, -2608.1104, 0.0, 10.0003605, 9.999158 
1.2550232e+3, 2.2470915e+2, -781382.25, -916115.5, -10749.76, -0.019992484, -0.059652492, -780529.94, -42688.363, 0.0, 10.000362, 9.998579 
1.2550269e+3, 2.3470744e+2, -710324.6, -827414.8, -26800.82, -0.0006974922, -0.09410008, -704481.75, -64623.44, 0.0, 10.000162, 9.998611 
1.2550308e+3, 2.4470592e+2, -574143.44, -671449.2, -9476.631, -0.0038751848, -0.12342704, -573229.1, -31357.225, 0.0, 10.000255, 9.998963 
1.2550347e+3, 2.547046e+2, -412200.75, -536732.7, 9433.86, -0.0323442, -0.15871471, -411490.16, 32391.955, 0.0, 10.000669, 9.999016 
1.2550388e+3, 2.6470333e+2, -360099.97, -517567.63, 19133.805, -0.029307215, -0.16151148, -357808.38, -11915.048, 0.0, 10.000598, 9.998508 
1.2550434e+3, 2.7470213e+2, -346608.53, -456760.1, 13699.819, 0.008734594, -0.137636, -344930.22, -97024.59, 0.0, 10.000002, 9.99854 
1.2550479e+3, 2.8470087e+2, -275442.66, -388343.88, 7950.698, 0.03990395, -0.1108645, -274885.5, -124966.086, 0.0, 9.999889, 9.99839 
1.2550525e+3, 2.9469952e+2, -119335.68, -261982.23, -1829.2015, 0.061211895, -0.086534254, -119312.23, -67377.51, 0.0, 10.000286, 9.998394 
1.2550564e+3, 3.0469817e+2, -64045.004, -234585.23, -3100.2686, 0.016124217, -0.048255604, -63988.66, -63988.66, 0.0, 10.000437, 9.998177 
1.2550601e+3, 3.1469566e+2, 70000.26, 69549.55, 17934.686, -0.031547025, -0.12805949, 87711.0, 87711.0, 0.0, 10.000322, 10.00032 
1.2649839e+3, 1.2470998e+2, -1719211.1, -1763297.0, -22206.207, -0.16636726, -0.027903875, -1709965.0, 7870.608, 0.004085261, 10.000187, 9.999568 
1.2649903e+3, 1.3470961e+2, -1581533.9, -1585554.1, 9759.0625, 0.09653991, -0.07483365, -1573580.1, 46258.707, 0.0022650692, 10.000166, 10.000144 
1.2649904e+3, 1.4470947e+2, -1519884.3, -1521932.4, -2033.7067, -0.28947213, -0.0969818, -1518631.3, 3208.6448, 0.00085386867, 10.000006, 9.999972 
1.2649958e+3, 1.5470985e+2, -1454619.3, -1437359.8, -29594.94, -0.09347063, -0.059898153, -1415162.0, 8674.294, 0.00015477135, 9.999772, 9.999991 
1.2650003e+3, 1.6470975e+2, -1379766.9, -1394273.9, -20208.928, -0.009328543, -0.0483334, -1365549.1, -39712.203, 0.0000038088367, 9.9998, 9.999601 
1.2650032e+3, 1.7470919e+2, -1235651.8, -1270710.9, -19314.809, -0.08152887, -0.07048237, -1227097.9, 743.9997, 0.0, 10.000103, 9.999631 
1.2650068e+3, 1.8470846e+2, -1150215.6, -1221992.1, -9727.773, -0.101785176, -0.084788546, -1148920.6, -19072.201, 0.0, 10.0002, 9.999246 
1.2650113e+3, 1.947076e+2, -1067777.5, -1128063.8, -4316.218, -0.05456168, -0.102214396, -1067470.0, -35613.06, 0.0, 10.00008, 9.999276 
1.2650155e+3, 2.0470676e+2, -993114.8, -1060447.0, -507.90726, -0.026458839, -0.10432254, -993111.0, -59246.23, 0.0, 10.000001, 9.999106 
1.2650195e+3, 2.1470597e+2, -898808.56, -959669.5, -4705.27, -0.023386294, -0.097781755, -898446.94, -62575.47, 0.0, 9.999956, 9.999146 
1.2650235e+3, 2.247049e+2, -822079.75, -940193.6, -10552.567, -0.017434478, -0.089157544, -821144.4, -83262.49, 0.0, 10.000103, 9.998537 
1.2650272e+3, 2.3470351e+2, -669014.1, -812180.06, 1960.664, -0.0067142732, -0.08771565, -668987.25, -29091.023, 0.0, 10.000466, 9.998569 
1.2650312e+3, 2.4470201e+2, -531345.94, -662400.9, 17497.342, -0.0013780727, -0.10708683, -529050.06, 12859.853, 0.0, 10.000599, 9.99886 
1.2650356e+3, 2.5470042e+2, -446263.13, -564423.8, -8518.773, -0.0032684344, -0.16139974, -445652.13, -1729.1351, 0.0, 10.0004835, 9.998915 
1.2650396e+3, 2.64699e+2, -374090.63, -527640.56, -28851.4, -0.010354526, -0.1711442, -368848.53, -22913.037, 0.0, 10.000517, 9.998479 
1.2650435e+3, 2.746978e+2, -248862.84, -412712.88, -25334.492, -0.022062577, -0.14141306, -245035.05, 2912.38, 0.0, 10.000687, 9.998512 
1.2650478e+3, 2.8469652e+2, -173420.0, -347623.28, -7657.363, 0.005100173, -0.11252851, -173084.06, -23122.387, 0.0, 10.000626, 9.998315 
1.265053e+3, 2.9469514e+2, -118703.22, -270301.38, -4662.0903, 0.073990725, -0.08761688, -118559.984, -66581.97, 0.0, 10.000328, 9.998316 
1.2650569e+3, 3.046941e+2, -84116.84, -223895.83, -3708.9617, 0.033706684, -0.021950321, -84018.5, -84018.5, 0.0, 10.000212, 9.998358 
1.2650603e+3, 3.1469128e+2, 66248.81, 73247.39, 9159.069, -0.052361716, -0.1478121, 79552.875, 79552.875, 0.0, 10.000273, 10.00037 
1.274984e+3, 1.247058e+2, -1721362.3, -1765702.0, -11580.089, -0.1784717, -0.058985785, -1718520.1, -643.59625, 0.0044096503, 10.000176, 9.999557 
1.2749903e+3, 1.3470607e+2, -1579285.5, -1580744.4, 8051.7036, 0.08578714, -0.04403979, -1571930.3, 47942.914, 0.0024558255, 10.000166, 10.000176 
1.2749904e+3, 1.4470571e+2, -1532120.9, -1547729.6, -12966.737, -0.29907295, -0.08046765, -1524791.0, -2915.024, 0.00093550276, 10.000006, 9.999796 
1.2749957e+3, 1.5470526e+2, -1468551.8, -1467081.8, -38170.582, -0.08147845, -0.107321456, -1429639.1, -5758.696, 0.00017466526, 9.999774, 9.999787 
1.2750001e+3, 1.6470495e+2, -1382384.0, -1398900.8, -10519.932, 0.0064985505, -0.10416694, -1377268.1, -51384.813, 0.0000047674703, 9.999796, 9.999573 
1.2750034e+3, 1.7470492e+2, -1237050.4, -1273264.0, -8207.29, -0.077818125, -0.070240214, -1235277.1, -7393.2734, 0.0, 10.0001, 9.999615 
1.2750071e+3, 1.8470459e+2, -1140269.9, -1200262.5, -15471.097, -0.09835901, -0.055015754, -1136515.1, -6628.334, 0.0, 10.0001955, 9.999398 
1.2750115e+3, 1.9470388e+2, -1056801.1, -1105299.0, -9153.778, -0.040226713, -0.0717241, -1055130.9, -23238.098, 0.0, 10.000079, 9.9994335 
1.2750158e+3, 2.047028e+2, -1000073.0, -1074982.0, -3424.371, -0.0025049744, -0.100137375, -999916.8, -66014.51, 0.0, 10.0, 9.999007 
1.2750198e+3, 2.1470135e+2, -906644.0, -975569.7, -6681.9146, 0.011607434, -0.15061174, -906002.2, -70086.63, 0.0, 9.999953, 9.99904 
1.2750237e+3, 2.2470029e+2, -798384.3, -889816.06, 1331.1737, 0.0017463722, -0.15312028, -798364.94, -60439.54, 0.0, 10.000097, 9.998886 
1.2750274e+3, 2.3469964e+2, -644034.5, -759995.7, 15856.806, -0.03327731, -0.11240418, -641905.3, -1973.9304, 0.0, 10.000464, 9.998928 
1.2750316e+3, 2.4469836e+2, -577932.75, -758996.06, 13123.252, -0.02159098, -0.09573467, -576986.56, -35042.53, 0.0, 10.000597, 9.9981985 
1.2750363e+3, 2.546964e+2, -494864.2, -664662.7, -11695.945, 0.04169011, -0.11507785, -494062.34, -50098.414, 0.0, 10.000479, 9.998229 
1.2750405e+3, 2.6469478e+2, -367951.16, -513817.06, -22045.662, 0.03230677, -0.116765864, -364692.1, -18712.256, 0.0, 10.000511, 9.998577 
1.2750438e+3, 2.746935e+2, -240308.7, -395081.34, -16971.082, -0.05897732, -0.11144295, -238469.64, 9521.876, 0.0, 10.000686, 9.998634 
1.2750477e+3, 2.8469184e+2, -165881.45, -332621.84, -18299.027, -0.07104548, -0.12940213, -163896.83, -13889.022, 0.0, 10.000627, 9.998418 
1.2750526e+3, 2.9468986e+2, -112627.55, -255349.61, -14167.202, 0.006098468, -0.172805, -111234.84, -59206.465, 0.0, 10.000317, 9.998425 
1.2750569e+3, 3.0468935e+2, -80304.87, -213466.28, -257.63065, 0.010199262, -0.064193554, -80304.37, -80304.37, 0.0, 10.0002, 9.998435 
1.2750612e+3, 3.1468746e+2, 55219.875, 52260.113, 18300.24, 0.00082886254, -0.10604928, 72099.98, 72099.98, 0.0, 10.000264, 10.000229 
1.284984e+3, 1.2470153e+2, -1746430.9, -1771901.3, -10423.411, -0.18328293, -0.08080954, -1742709.0, -24791.617, 0.0047468157, 9.999981, 9.999607 
1.2849903e+3, 1.34702e+2, -1637957.3, -1600424.6, -3795.6643, 0.105596736, -0.052630484, -1600044.6, 19867.346, 0.0026545508, 9.999726, 10.000252 
1.2849905e+3, 1.4470159e+2, -1575141.9, -1576808.3, -10585.351, -0.28022218, -0.09717609, -1565356.9, -43441.387, 0.0010215283, 9.999746, 9.999721 
1.2849957e+3, 1.547011e+2, -1415665.6, -1450823.8, -27387.818, -0.089282066, -0.11784803, -1400700.6, 23219.574, 0.00019628371, 10.000177, 9.999703 
1.2850001e+3, 1.6470075e+2, -1313220.4, -1366200.3, 4080.5862, -0.002843773, -0.11583988, -1312907.9, 13015.885, 0.0000059623408, 10.000275, 9.999565 
1.2850036e+3, 1.7470062e+2, -1254282.4, -1282077.0, 5901.721, -0.063460544, -0.090938926, -1253081.3, -25156.115, 0.0, 9.999986, 9.999609 
1.2850073e+3, 1.8470028e+2, -1177986.5, -1216977.9, -3770.2285, -0.07800499, -0.0745502, -1177625.4, -47697.44, 0.0, 9.999931, 9.99941 
1.2850116e+3, 1.946997e+2, -1047760.75, -1099546.4, -9624.358, -0.032999806, -0.078651935, -1046029.94, -14097.39, 0.0, 10.000135, 9.999445 
1.285016e+3, 2.0469867e+2, -963654.44, -1056750.9, -7306.6216, -0.00225616, -0.10515976, -963084.44, -29142.646, 0.0, 10.000249, 9.999012 
1.28502e+3, 2.1469712e+2, -861177.06, -952468.1, -3488.0244, 0.0096739, -0.16594955, -861044.0, -25087.97, 0.0, 10.000261, 9.999048 
1.285024e+3, 2.2469608e+2, -754850.5, -858182.94, 11112.223, 0.0013153704, -0.17007913, -753669.06, -15703.681, 0.0, 10.000352, 9.9989805 
1.285028e+3, 2.3469561e+2, -628468.8, -741049.25, 4596.805, -0.02846958, -0.12120807, -628281.44, 11687.783, 0.0, 10.000524, 9.999029 
1.2850322e+3, 2.4469437e+2, -588382.6, -781190.4, -1873.8456, -0.021472434, -0.10088117, -588364.44, -46382.363, 0.0, 10.0006, 9.998045 
1.2850368e+3, 2.5469226e+2, -494251.6, -682593.7, 10673.839, 0.02611105, -0.12110998, -493648.63, -49643.992, 0.0, 10.000562, 9.998066 
1.2850408e+3, 2.6469055e+2, -368891.97, -516724.47, 22197.232, 0.020800505, -0.11811989, -365630.94, -19609.512, 0.0, 10.000515, 9.998554 
1.2850444e+3, 2.7468932e+2, -273204.97, -412794.03, 15497.048, -0.04429525, -0.103407115, -271505.2, -23472.951, 0.0, 10.000468, 9.998617 
1.2850484e+3, 2.8468758e+2, -179264.48, -336378.94, 1506.8485, -0.062814094, -0.13230632, -179250.03, -29200.904, 0.0, 10.0005245, 9.998442 
1.2850527e+3, 2.946853e+2, -59272.746, -226986.14, -2528.9373, -0.027629863, -0.20824707, -59234.62, -7162.826, 0.0, 10.0006695, 9.99845 
1.285057e+3, 3.04685e+2, -29063.135, -187117.3, 5347.2954, -0.017291691, -0.08060974, -28882.432, -28882.432, 0.0, 10.000546, 9.998447 
1.2850617e+3, 3.146833e+2, 22031.29, 6392.519, 18596.191, 0.033797976, -0.10594813, 34385.18, 34385.18, 0.0, 10.000165, 9.999962 
1.294984e+3, 1.246973e+2, -1739751.3, -1759152.0, -9563.403, -0.19070461, -0.091588736, -1735829.8, -17872.672, 0.0050962004, 9.999984, 9.999695 
1.2949906e+3, 1.3469751e+2, -1631312.5, -1584899.6, -14576.967, 0.1521814, -0.10125418, -1580701.1, 39253.113, 0.0028611089, 9.999719, 10.000362 
1.2949908e+3, 1.4469713e+2, -1575220.4, -1575063.4, 2400.5837, -0.23789053, -0.14801337, -1572740.0, -50782.184, 0.00111182, 9.999738, 9.999738 
1.2949955e+3, 1.5469743e+2, -1412943.5, -1445566.4, -10976.373, -0.11994313, -0.09110956, -1409594.3, 14360.804, 0.000219555, 10.000178, 9.99974 
1.295e+3, 1.6469717e+2, -1312121.0, -1364293.4, -7225.791, -0.041841317, -0.08368174, -1311138.8, 14818.759, 0.0000074533, 10.000275, 9.999579 
1.2950037e+3, 1.7469631e+2, -1253951.6, -1281772.4, -5225.627, -0.041663297, -0.13292484, -1253002.4, -25037.473, 0.0, 9.999987, 9.999611 
1.2950076e+3, 1.8469563e+2, -1188094.5, -1237690.3, 2053.0498, -0.04383009, -0.14339347, -1188009.6, -58038.645, 0.0, 9.999929, 9.9992695 
1.2950118e+3, 1.9469517e+2, -1058127.5, -1120416.1, -2272.1692, -0.035847154, -0.12239913, -1058044.8, -26069.057, 0.0, 10.000132, 9.999304 
1.2950158e+3, 2.046944e+2, -956752.75, -1041395.44, -8105.5127, -0.029975522, -0.11908707, -955983.5, -22000.656, 0.0, 10.000243, 9.999121 
1.2950198e+3, 2.1469332e+2, -852952.5, -935549.1, -3318.7568, -0.031030595, -0.1448764, -852819.4, -16826.842, 0.0, 10.000261, 9.999166 
1.295024e+3, 2.2469236e+2, -766201.5, -881489.3, 16244.471, -0.020709733, -0.14092205, -763956.3, -25954.848, 0.0, 10.00035, 9.998821 
1.2950288e+3, 2.346915e+2, -640627.75, -765730.75, 11454.259, 0.004713504, -0.11440173, -639587.6, 421.90683, 0.0, 10.00052, 9.998862 
1.295033e+3, 2.4469005e+2, -565168.94, -731794.56, -3446.9832, -0.0046617878, -0.12244117, -565097.7, -23073.877, 0.0, 10.000593, 9.998387 
1.2950365e+3, 2.5468794e+2, -469266.97, -630666.5, 10213.1455, -0.052837044, -0.1781275, -468623.28, -24578.54, 0.0, 10.000561, 9.998424 
1.2950408e+3, 2.6468638e+2, -378896.72, -538200.8, 20494.645, -0.047879107, -0.1741872, -376302.3, -30242.207, 0.0, 10.000516, 9.998407 
1.2950455e+3, 2.746854e+2, -285329.97, -436148.16, 15419.335, 0.016448498, -0.116631374, -283769.66, -35700.21, 0.0, 10.000459, 9.998462 
1.2950498e+3, 2.8468376e+2, -184932.14, -346329.03, 7969.52, 0.024480406, -0.121648304, -184539.58, -34453.973, 0.0, 10.000515, 9.998379 
1.2950534e+3, 2.9468152e+2, -63432.063, -234828.8, 5377.5483, -0.033137187, -0.19281535, -63263.508, -11155.38, 0.0, 10.000667, 9.998397 
1.2950571e+3, 3.046811e+2, -32388.385, -195798.4, -8727.444, -0.053476, -0.06998769, -31923.59, -31923.59, 0.0, 10.000551, 9.998387 
1.2950619e+3, 3.1467894e+2, -7935.321, -51251.19, 10029.4795, 0.037360683, -0.13578288, -5725.7754, -5725.7754, 0.0, 10.000145, 9.999576 
1.304984e+3, 1.24692716e+2, -1728063.1, -1754878.1, -13686.562, -0.18306404, -0.12019759, -1722311.1, -4310.19, 0.0054552136, 10.000071, 9.999682 
1.3049904e+3, 1.3469325e+2, -1593878.0, -1569913.3, -44147.77, 0.14580011, -0.094199285, -1536150.6, 83845.28, 0.003073975, 9.99999, 10.000335 
1.3049905e+3, 1.4469293e+2, -1541936.3, -1544200.5, -11501.673, -0.23507792, -0.13943811, -1531511.1, -9512.257, 0.0012055306, 9.999903, 9.999869 
1.3049957e+3, 1.546933e+2, -1448148.1, -1447314.5, -17002.13, -0.10132377, -0.090116315, -1430724.0, -6729.318, 0.000244213, 9.999872, 9.999875 
1.3050002e+3, 1.6469304e+2, -1359047.1, -1388670.4, -18556.842, -0.024488155, -0.088394456, -1350115.5, -24118.775, 0.000009295233, 9.999962, 9.999561 
1.3050038e+3, 1.7469212e+2, -1223449.4, -1269562.6, -19989.232, -0.04476076, -0.14073594, -1215990.8, 12014.24, 0.0, 10.000207, 9.999588 
1.3050076e+3, 1.846914e+2, -1145049.4, -1219639.3, -7903.788, -0.04905095, -0.1534341, -1144221.0, -14209.338, 0.0, 10.000237, 9.999244 
1.305012e+3, 1.946909e+2, -1076435.0, -1131418.9, -4771.9233, -0.025331724, -0.13360338, -1076024.0, -44007.18, 0.0, 10.000017, 9.999283 
1.305016e+3, 2.0469017e+2, -990041.25, -1061378.0, -4434.663, -0.020168955, -0.12414255, -989766.6, -55742.74, 0.0, 10.000032, 9.999084 
1.3050199e+3, 2.1468921e+2, -848656.7, -937443.44, -12434.994, -0.040454123, -0.13441828, -846948.0, -10915.046, 0.0, 10.000309, 9.999129 
1.3050243e+3, 2.2468823e+2, -760706.06, -873588.06, 3390.078, -0.029667497, -0.13176727, -760604.3, -22562.158, 0.0, 10.000364, 9.998869 
1.3050292e+3, 2.3468722e+2, -687412.7, -782362.1, 13023.324, 0.017548544, -0.12566456, -685658.8, -45607.223, 0.0, 10.000174, 9.998915 
1.3050336e+3, 2.4468586e+2, -600381.0, -724383.8, 9471.162, 0.0053792717, -0.13715172, -599661.75, -57597.313, 0.0, 10.000247, 9.998605 
1.305037e+3, 2.5468412e+2, -445722.0, -594373.2, 11948.055, -0.07331393, -0.17748517, -444767.78, -686.7544, 0.0, 10.000615, 9.998647 
1.3050412e+3, 2.6468262e+2, -352392.3, -533777.44, 9769.059, -0.07274732, -0.1745381, -351867.7, -5772.19, 0.0, 10.000735, 9.998331 
1.3050461e+3, 2.746814e+2, -274751.13, -440927.2, 7776.5903, 0.017418833, -0.13724864, -274388.0, -26280.08, 0.0, 10.000574, 9.998373 
1.3050504e+3, 2.8467977e+2, -185005.34, -347330.22, 14654.6875, 0.03400927, -0.13591856, -183692.92, -33568.81, 0.0, 10.00052, 9.998369 
1.305054e+3, 2.9467785e+2, -73795.23, -240226.25, 13994.38, -0.03424957, -0.1710569, -72626.71, -20483.44, 0.0, 10.000598, 9.998394 
1.3050576e+3, 3.046774e+2, -28016.754, -180066.69, -6825.878, -0.060453247, -0.06011611, -27710.94, -27710.94, 0.0, 10.0005245, 9.998508 
1.3050619e+3, 3.146748e+2, -2130.1907, -72070.4, 25087.49, 0.023045518, -0.17666717, 5937.9487, 5937.9487, 0.0, 10.000283, 9.999369 
1.3149843e+3, 1.246879e+2, -1738894.3, -1774826.0, -8772.64, -0.1701618, -0.16176206, -1736866.9, -18818.785, 0.005819013, 10.000057, 9.999553 
1.3149898e+3, 1.346893e+2, -1605406.8, -1594596.6, -47840.055, 0.0834435, -0.031619925, -1551857.3, 68178.836, 0.0032902497, 9.999994, 10.000163 
1.3149899e+3, 1.4468907e+2, -1524102.6, -1508324.9, -14778.744, -0.27789158, -0.07166308, -1499461.3, 22576.625, 0.0013013786, 9.9999075, 10.000114 
1.3149962e+3, 1.5468875e+2, -1432757.5, -1413885.1, -18294.56, -0.037277862, -0.11513964, -1402736.6, 21301.918, 0.00026992275, 9.999866, 10.000108 
1.315001e+3, 1.646884e+2, -1364278.9, -1398369.9, -11311.831, 0.045636516, -0.1301086, -1360867.0, -34825.98, 0.00001153221, 9.999956, 9.999498 
1.3150036e+3, 1.7468813e+2, -1227186.8, -1277498.5, -10938.554, -0.075674765, -0.11356992, -1224911.5, 3133.099, 0.0, 10.000207, 9.999535 
1.3150075e+3, 1.8468766e+2, -1138959.9, -1206630.9, -16902.082, -0.09898216, -0.10397758, -1134973.1, -4923.8965, 0.0, 10.000235, 9.999336 
1.3150123e+3, 1.9468693e+2, -1069615.1, -1117969.4, -13471.798, -0.0039013776, -0.11398946, -1066115.3, -34059.758, 0.0, 10.000019, 9.999375 
1.3150166e+3, 2.0468599e+2, -1003249.56, -1088804.9, 4081.1338, 0.025125751, -0.1213244, -1003055.3, -68990.74, 0.0, 10.000032, 9.998897 
1.3150203e+3, 2.1468481e+2, -863030.56, -966675.2, -1968.3866, -0.021720974, -0.13440137, -862993.25, -26916.44, 0.0, 10.000305, 9.998931 
1.3150246e+3, 2.2468375e+2, -744423.2, -838128.94, -4539.008, -0.02994976, -0.14195162, -744203.9, -6116.814, 0.0, 10.000357, 9.999117 
1.3150294e+3, 2.346828e+2, -669304.94, -744667.2, 5984.836, 0.0076085157, -0.15511876, -668832.6, -28737.588, 0.0, 10.000172, 9.999174 
1.3150339e+3, 2.4468182e+2, -593623.75, -710295.75, 22379.057, 0.006127539, -0.14605126, -589478.44, -47374.582, 0.0, 10.000246, 9.998702 
1.3150379e+3, 2.5468084e+2, -440003.9, -581121.2, 27044.697, -0.039782185, -0.11996634, -434998.44, 9114.839, 0.0, 10.000608, 9.998742 
1.315042e+3, 2.6467934e+2, -355114.3, -538002.94, 4879.903, -0.057882387, -0.12016886, -354984.2, -8856.746, 0.0, 10.000728, 9.998306 
1.315046e+3, 2.7467728e+2, -276958.7, -445624.03, 3677.505, -0.04412586, -0.16384037, -276878.53, -28731.152, 0.0, 10.000574, 9.998342 
1.3150503e+3, 2.8467557e+2, -181465.31, -341406.13, 17319.324, -0.036956888, -0.17335576, -179611.36, -29446.9, 0.0, 10.000524, 9.998409 
1.3150546e+3, 2.9467434e+2, -72928.164, -234445.19, 18947.498, -0.037942696, -0.14175141, -70735.21, -18558.16, 0.0, 10.00058, 9.998444 
1.3150583e+3, 3.0467385e+2, -10256.856, -139743.48, -14230.926, -0.045950152, -0.05043539, -8711.288, -8711.288, 0.0, 10.000508, 9.998794 
1.3150619e+3, 3.14671e+2, -3140.4631, -73245.88, 22654.344, -0.016703041, -0.22215612, 3543.0437, 3543.0437, 0.0, 10.00028, 9.999361 
1.3249844e+3, 1.2468398e+2, -1724093.3, -1786175.3, 33268.797, -0.17457342, -0.1552615, -1709633.0, 8452.309, 0.006183249, 10.0002365, 9.999391 
1.3249898e+3, 1.3468502e+2, -1590699.3, -1607601.8, -18570.404, 0.0790849, -0.039840445, -1578747.5, 41329.68, 0.0035072896, 10.000184, 9.999981 
1.3249901e+3, 1.4468458e+2, -1504871.1, -1499015.3, 4223.748, -0.27204707, -0.09342217, -1496803.8, 25277.432, 0.0013982238, 10.000041, 10.000113 
1.324996e+3, 1.5468425e+2, -1428608.5, -1412452.5, -17451.785, -0.042928007, -0.13827313, -1401299.8, 22781.748, 0.00029637254, 9.999896, 10.000103 
1.3250008e+3, 1.6468395e+2, -1376952.3, -1404856.4, -5669.5156, 0.04406778, -0.14655063, -1375844.4, -49760.832, 0.000014169166, 9.99987, 9.9994955 
1.3250041e+3, 1.7468385e+2, -1263590.4, -1295242.9, -3035.5723, -0.05421271, -0.11220946, -1263301.9, -35215.95, 0.0, 9.999958, 9.999533 
1.3250078e+3, 1.8468346e+2, -1164996.5, -1215005.5, -16699.482, -0.07465076, -0.0970401, -1159932.8, -29842.506, 0.0, 10.000039, 9.999372 
1.3250121e+3, 1.9468269e+2, -1051198.0, -1104831.4, -18480.516, -0.002443554, -0.11553507, -1045446.9, -13350.044, 0.0, 10.000128, 9.999413 
1.3250166e+3, 2.046818e+2, -984302.25, -1066645.1, 13119.602, 0.02542182, -0.12627171, -982262.5, -48156.973, 0.0, 10.000107, 9.999013 
1.3250208e+3, 2.1468076e+2, -906285.0, -973559.44, 29038.486, 0.0011164262, -0.13637872, -895484.6, -59368.465, 0.0, 9.99995, 9.999054 
1.325025e+3, 2.246798e+2, -794632.56, -860614.4, 31058.941, -0.01111471, -0.14159161, -782312.8, -44187.234, 0.0, 10.000006, 9.999131 
1.3250294e+3, 2.3467888e+2, -651033.44, -734200.2, 21622.143, -0.008107051, -0.1528509, -645747.9, -5614.511, 0.0, 10.000292, 9.999188 
1.3250339e+3, 2.446779e+2, -563752.1, -695752.9, 30514.367, -0.014132019, -0.14424619, -557039.56, -14897.235, 0.0, 10.000451, 9.998703 
1.3250385e+3, 2.5467688e+2, -459171.22, -589656.94, 26299.242, -0.03111475, -0.12217281, -454070.06, -9917.919, 0.0, 10.000476, 9.998746 
1.3250427e+3, 2.6467544e+2, -382062.22, -539002.6, -3853.0854, -0.049868558, -0.124310665, -381967.7, -35801.92, 0.0, 10.000493, 9.998413 
1.3250464e+3, 2.7467346e+2, -280960.47, -435191.44, 3747.0461, -0.06906052, -0.16753188, -280869.5, -32685.46, 0.0, 10.000495, 9.998451 
1.3250504e+3, 2.8467172e+2, -197051.33, -350437.0, 22763.29, -0.06928344, -0.18371773, -193744.42, -43543.445, 0.0, 10.000426, 9.998393 
1.3250549e+3, 2.946703e+2, -117569.984, -257044.86, 17141.223, -0.04806213, -0.16891369, -115494.25, -63278.914, 0.0, 10.000278, 9.998432 
1.3250588e+3, 3.046697e+2, -23819.877, -120508.73, -16535.953, -0.04055709, -0.10113069, -21070.064, -21070.064, 0.0, 10.000306, 9.999022 
1.3250622e+3, 3.1466776e+2, 34284.49, -55129.895, 16181.501, -0.019064473, -0.20549075, 37122.79, 37122.79, 0.0, 10.00054, 9.99936 
1.3349843e+3, 1.2468104e+2, -1738195.0, -1816265.1, 36508.195, -0.20923585, -0.0981446, -1723783.0, -5671.0356, 0.0065457188, 10.000237, 9.999185 
1.3349904e+3, 1.3468054e+2, -1606855.8, -1638029.1, -21952.637, 0.13109545, -0.11782445, -1595519.1, 24599.17, 0.0037237175, 10.000172, 9.999778 
1.3349906e+3, 1.4467953e+2, -1523280.9, -1535339.3, -3660.8, -0.22157407, -0.20424552, -1522256.6, -128.50009, 0.0014951822, 10.000031, 9.999868 
1.3349952e+3, 1.5467985e+2, -1444165.4, -1445518.6, -22439.361, -0.122741885, -0.15980186, -1422392.5, 1730.6575, 0.00032323142, 9.999899, 9.999876 
1.335e+3, 1.6467978e+2, -1374338.9, -1399569.9, -3606.429, -0.036203105, -0.13738355, -1373833.5, -47710.01, 0.000017128494, 9.99987, 9.999533 
1.3350046e+3, 1.7467937e+2, -1261055.8, -1290071.3, -118.78453, 0.016934272, -0.13715307, -1261055.3, -32926.6, 0.00000000003443261, 9.999958, 9.999569 
1.3350087e+3, 1.8467887e+2, -1166575.1, -1218124.6, -15006.331, 0.021023333, -0.13314676, -1162524.9, -32390.67, 0.0, 10.000037, 9.999352 
1.3350122e+3, 1.9467822e+2, -1052431.8, -1107524.5, -15377.811, -0.023417655, -0.13813019, -1048430.06, -16289.598, 0.0, 10.000127, 9.999395 
1.3350162e+3, 2.0467761e+2, -956405.0, -1007522.94, 6092.4746, -0.02372207, -0.1381873, -955688.9, -21542.734, 0.0, 10.0001, 9.999422 
1.335021e+3, 2.1467708e+2, -876774.1, -912293.6, 22692.143, 0.024975013, -0.14145377, -865718.2, -29567.268, 0.0, 9.9999485, 9.999476 
1.3350254e+3, 2.2467636e+2, -809445.06, -891218.2, 40177.37, 0.024176849, -0.1324215, -793008.56, -54850.92, 0.0, 10.000005, 9.998921 
1.3350296e+3, 2.3467547e+2, -667693.44, -768247.2, 32894.656, -0.031669606, -0.11930671, -657888.5, -17722.191, 0.0, 10.000288, 9.998958 
1.3350339e+3, 2.446741e+2, -572215.2, -712123.06, 31431.137, -0.057887085, -0.13172013, -565478.4, -23298.959, 0.0, 10.000445, 9.998594 
1.3350388e+3, 2.5467226e+2, -467269.72, -606044.7, 28224.42, -0.050665952, -0.18226756, -461748.97, -17551.637, 0.0, 10.000473, 9.998635 
1.3350432e+3, 2.6467088e+2, -365084.16, -503984.13, -3364.5264, -0.0520132, -0.18565004, -365002.7, -18792.398, 0.0, 10.000493, 9.998654 
1.3350469e+3, 2.7466995e+2, -264550.63, -398635.3, 5725.2173, -0.06352602, -0.14910594, -264306.63, -16088.784, 0.0, 10.0004835, 9.998709 
1.3350509e+3, 2.8466824e+2, -204926.48, -364524.0, 18370.404, -0.0692086, -0.16776909, -202839.27, -52605.586, 0.0, 10.000415, 9.998302 
1.3350551e+3, 2.946658e+2, -123939.51, -271024.28, 14127.212, -0.06749604, -0.24802922, -122594.914, -70337.086, 0.0, 10.000281, 9.998336 
1.335059e+3, 3.0466494e+2, -10704.008, -94504.266, -7408.0684, -0.047957566, -0.20815761, -10054.163, -10054.163, 0.0, 10.000311, 9.999199 
1.335063e+3, 3.1466502e+2, 33686.793, -51530.82, 30260.297, 0.0037123333, -0.13069259, 43338.832, 43338.832, 0.0, 10.000518, 9.999395 
1.3449843e+3, 1.2467699e+2, -1766179.9, -1817220.5, 11795.224, -0.20925818, -0.10678914, -1763585.9, -45435.504, 0.0069055543, 9.999994, 9.999294 
1.3449906e+3, 1.3467638e+2, -1614983.6, -1630242.8, -31377.754, 0.1322152, -0.14722316, -1590321.1, 29835.63, 0.0039389143, 10.000067, 9.999882 
1.3449909e+3, 1.4467537e+2, -1520700.8, -1548602.8, 4051.031, -0.20332386, -0.23314394, -1520124.5, 2042.1532, 0.0015916337, 10.000112, 9.999739 
1.3449953e+3, 1.546758e+2, -1416700.4, -1447908.9, -10045.012, -0.11319668, -0.16462134, -1413746.8, 10415.178, 0.0003501717, 10.000156, 9.999735 
1.345e+3, 1.646757e+2, -1342521.9, -1380271.5, 12308.357, -0.030446803, -0.13739468, -1338863.3, -12700.499, 0.000020254476, 10.000072, 9.999568 
1.3450046e+3, 1.7467517e+2, -1271374.4, -1290248.4, 15603.782, 0.02505272, -0.15344349, -1262575.8, -34407.38, 0.0000000014653116, 9.9998665, 9.999612 
1.3450088e+3, 1.846746e+2, -1200778.9, -1233437.9, 8497.946, 0.030294606, -0.15810777, -1198700.0, -68525.53, 0.0, 9.999798, 9.999363 
1.3450122e+3, 1.94674e+2, -1090086.5, -1124096.0, 8502.991, -0.016762061, -0.16216351, -1088079.0, -55898.055, 0.0, 9.999863, 9.999409 
1.3450162e+3, 2.0467353e+2, -967378.75, -1003088.9, 18349.072, -0.02230212, -0.15366566, -959631.2, -25445.564, 0.0, 9.999984, 9.99951 
1.345021e+3, 2.1467324e+2, -838604.0, -883865.2, 8865.156, 0.016761458, -0.14003295, -836929.56, -741.69226, 0.0, 10.000167, 9.999566 
1.3450254e+3, 2.2467259e+2, -763857.94, -868724.1, 28576.15, 0.013356416, -0.12781428, -756576.5, -18382.648, 0.0, 10.000317, 9.998925 
1.3450298e+3, 2.3467158e+2, -645785.3, -756410.44, 36557.125, -0.037438847, -0.12684433, -634796.25, 5407.449, 0.0, 10.000437, 9.998965 
1.3450342e+3, 2.4467023e+2, -579689.2, -710809.25, 38470.313, -0.065085664, -0.14219204, -569235.5, -27018.541, 0.0, 10.000377, 9.998634 
1.345039e+3, 2.5466847e+2, -518221.3, -625780.06, 44850.98, -0.06637331, -0.18607362, -501973.3, -57739.293, 0.0, 10.000105, 9.998676 
1.3450433e+3, 2.6466715e+2, -424960.06, -525707.2, 21226.93, -0.05955338, -0.18728316, -420670.3, -74423.84, 0.0, 10.000054, 9.998715 
1.3450475e+3, 2.7466625e+2, -291728.06, -403985.5, 13934.127, -0.044075858, -0.15292938, -290024.34, -41770.62, 0.0, 10.000266, 9.998775 
1.3450515e+3, 2.8466466e+2, -207841.27, -355684.75, 19433.18, -0.047296323, -0.16981392, -205329.55, -55061.26, 0.0, 10.000354, 9.998391 
1.3450553e+3, 2.946624e+2, -115064.22, -255707.63, 27718.275, -0.07053492, -0.24608839, -109798.59, -57508.34, 0.0, 10.0002985, 9.998431 
1.3450593e+3, 3.046611e+2, -12340.676, -92459.01, 15836.407, -0.059643462, -0.25315505, -9323.995, -9323.995, 0.0, 10.00029, 9.999224 
1.3450633e+3, 3.146616e+2, 1851.0067, -66563.47, 39968.484, -0.01652968, -0.1344885, 20251.895, 20251.895, 0.0, 10.0003, 9.999397 
1.3549846e+3, 1.24671906e+2, -1739527.4, -1758636.4, 15902.7, -0.18080187, -0.17926823, -1730529.8, -12330.286, 0.0072628423, 9.999979, 9.999705 
1.3549902e+3, 1.3467263e+2, -1585533.0, -1568637.1, -28846.057, 0.07752122, -0.12909853, -1547027.4, 73164.36, 0.004152666, 10.000066, 10.000305 
1.3549908e+3, 1.4467216e+2, -1523368.9, -1555096.5, 4338.1943, -0.2266052, -0.18147406, -1522786.4, -590.07, 0.0016872559, 10.000114, 9.999694 
1.3549964e+3, 1.5467212e+2, -1422067.9, -1459152.3, -8748.79, -0.016541876, -0.15165292, -1420107.5, 4089.7207, 0.0003769789, 10.000155, 9.999659 
1.355001e+3, 1.646718e+2, -1339918.4, -1374263.9, 2848.131, 0.059438273, -0.14568348, -1339683.8, -13483.216, 0.000023370363, 10.000069, 9.999611 
1.3550039e+3, 1.7467132e+2, -1267109.9, -1281727.4, 7757.7197, -0.033054993, -0.16176449, -1263760.4, -35555.625, 0.0000000068048798, 9.999867, 9.99967 
1.3550079e+3, 1.8467075e+2, -1198889.8, -1228979.3, 9328.664, -0.053583622, -0.17156258, -1196232.3, -66021.84, 0.0, 9.999794, 9.999395 
1.3550125e+3, 1.9467005e+2, -1087643.1, -1119419.1, 10595.53, 0.014881179, -0.18847029, -1084434.1, -52216.07, 0.0, 9.999864, 9.999441 
1.3550167e+3, 2.0466952e+2, -983767.94, -1037291.5, 23672.176, 0.02761085, -0.17402019, -974800.7, -40576.996, 0.0, 9.999984, 9.999275 
1.3550207e+3, 2.1466929e+2, -855741.3, -919061.44, 15561.819, -0.025560874, -0.13199747, -852123.5, -15896.942, 0.0, 10.000164, 9.999327 
1.3550252e+3, 2.2466855e+2, -750357.8, -839362.8, 31856.572, -0.046356365, -0.12730485, -740130.9, -1897.2092, 0.0, 10.00031, 9.999131 
1.3550302e+3, 2.3466727e+2, -631412.06, -725495.6, 41164.0, -0.029188909, -0.17472342, -615944.56, 24300.621, 0.0, 10.00043, 9.999181 
1.3550349e+3, 2.4466626e+2, -566456.2, -682433.8, 28290.605, -0.039688442, -0.17620866, -559923.2, -17668.32, 0.0, 10.000372, 9.998832 
1.3550389e+3, 2.5466555e+2, -505288.78, -597368.6, 35665.098, -0.08176703, -0.13525961, -493090.63, -48828.41, 0.0, 10.000097, 9.998876 
1.3550432e+3, 2.646643e+2, -435595.84, -546550.7, 29094.379, -0.075502016, -0.13077019, -428429.63, -82155.32, 0.0, 10.000048, 9.998575 
1.3550481e+3, 2.746625e+2, -302471.63, -426279.44, 23780.102, -0.014623115, -0.17625338, -298061.22, -49769.74, 0.0, 10.000265, 9.998623 
1.3550523e+3, 2.8466102e+2, -188893.27, -316845.97, 18290.95, -0.0085578915, -0.18708926, -186329.9, -36025.152, 0.0, 10.000355, 9.998658 
1.3550557e+3, 2.9465994e+2, -97055.18, -215973.94, 27991.473, -0.06493073, -0.16786689, -90795.914, -38482.49, 0.0, 10.000287, 9.998711 
1.3550591e+3, 3.046581e+2, -23798.725, -113396.92, 17227.137, -0.082615055, -0.24080598, -20600.6, -20600.6, 0.0, 10.000277, 9.999086 
1.3550629e+3, 3.146574e+2, 411.4122, -67994.42, 44393.47, -0.08500697, -0.22684272, 22249.727, 22249.727, 0.0, 10.000294, 9.999392 
1.3649848e+3, 1.2466734e+2, -1717067.1, -1736382.9, 24183.62, -0.1654956, -0.20658879, -1700684.3, 17559.111, 0.0076198755, 10.00008, 9.99981 
1.3649902e+3, 1.3466835e+2, -1601565.6, -1559997.3, -46646.313, 0.07289611, -0.13953319, -1529714.3, 90518.19, 0.004366158, 9.999886, 10.000452 
1.3649908e+3, 1.4466813e+2, -1567844.5, -1568383.3, -15386.867, -0.2188799, -0.17803751, -1552724.6, -30490.201, 0.0017823466, 9.999775, 9.999766 
1.3649966e+3, 1.5466808e+2, -1463788.5, -1472240.5, -17728.959, -0.0012653914, -0.15686935, -1449788.8, -25552.822, 0.0004035849, 9.999838, 9.999722 
1.3650009e+3, 1.6466776e+2, -1359499.5, -1376679.3, -3163.8577, 0.06896521, -0.15671912, -1358935.4, -32696.041, 0.000026350568, 9.999904, 9.999674 
1.3650037e+3, 1.7466734e+2, -1251160.8, -1267036.4, 176.84428, -0.04077378, -0.17408085, -1251158.8, -22915.992, 0.000000016360648, 9.999947, 9.999733 
1.3650076e+3, 1.8466684e+2, -1168355.5, -1214418.4, 7550.158, -0.06124613, -0.1788691, -1167149.5, -36901.977, 0.0, 10.000004, 9.999394 
1.3650124e+3, 1.9466624e+2, -1053328.0, -1103151.3, 5536.6904, 0.022484379, -0.1853376, -1052720.1, -20465.883, 0.0, 10.000099, 9.999439 
1.3650168e+3, 2.0466566e+2, -963416.25, -1038746.44, 24028.197, 0.03338727, -0.17221117, -956404.56, -22143.818, 0.0, 10.000173, 9.999173 
1.3650207e+3, 2.1466517e+2, -855274.56, -929874.94, 24821.357, -0.039958563, -0.14406724, -847770.7, -11504.326, 0.0, 10.000218, 9.999226 
1.3650253e+3, 2.246644e+2, -770712.5, -839416.9, 36381.168, -0.059278727, -0.14277504, -755028.1, -16753.988, 0.0, 10.000132, 9.999215 
1.3650307e+3, 2.3466328e+2, -704796.4, -751230.9, 34454.883, -0.017233824, -0.18258345, -686466.3, -46182.113, 0.0, 9.999886, 9.999266 
1.3650353e+3, 2.4466248e+2, -630071.2, -698656.9, 16737.37, -0.014401028, -0.17437789, -626204.6, -83912.664, 0.0, 9.999874, 9.99896 
1.3650393e+3, 2.54662e+2, -489816.16, -574410.2, 17007.309, -0.056084484, -0.12262979, -486524.94, -42228.086, 0.0, 10.00014, 9.999011 
1.3650435e+3, 2.646608e+2, -403915.1, -529659.1, 16971.986, -0.060354028, -0.123470426, -401664.63, -55355.875, 0.0, 10.000262, 9.998586 
1.3650483e+3, 2.7465877e+2, -310759.63, -429353.25, 21768.646, -0.022571366, -0.19017309, -306890.1, -58562.06, 0.0, 10.000209, 9.998627 
1.3650523e+3, 2.8465745e+2, -197161.47, -313109.03, 14847.272, -0.020090042, -0.19053447, -195290.44, -44950.4, 0.0, 10.000267, 9.998725 
1.365056e+3, 2.9465684e+2, -68683.94, -193845.08, 7110.2646, -0.05518805, -0.13074924, -68281.305, -15937.15, 0.0, 10.000447, 9.998784 
1.3650598e+3, 3.046546e+2, -8104.2607, -127439.81, -16246.847, -0.070956044, -0.2362433, -5931.892, -5931.892, 0.0, 10.000478, 9.998893 
1.3650627e+3, 3.1465372e+2, 7916.5117, -59294.45, 3204.313, -0.119566485, -0.21927768, 8068.933, 8068.933, 0.0, 10.000321, 9.999437 
1.3749848e+3, 1.2466326e+2, -1732751.6, -1768410.6, 14786.829, -0.17363542, -0.19478606, -1727417.8, -9135.6455, 0.0079810945, 10.000075, 9.999594 
1.3749903e+3, 1.3466366e+2, -1612543.0, -1581151.5, -55119.223, 0.11734845, -0.17616135, -1539536.9, 80740.98, 0.0045821774, 9.999879, 10.000309 
1.374991e+3, 1.446634e+2, -1554220.0, -1539278.1, -15732.46, -0.18215878, -0.22025836, -1529332.9, -7052.576, 0.0018779465, 9.99977, 9.999969 
1.3749957e+3, 1.5466373e+2, -1448433.6, -1440351.9, -14992.395, -0.07228195, -0.18183988, -1428865.4, -4587.776, 0.00043006244, 9.999837, 9.999942 
1.3750002e+3, 1.6466366e+2, -1355118.9, -1367245.3, -2457.6167, -0.009719579, -0.17201209, -1354639.8, -28361.127, 0.000029160963, 9.999901, 9.999741 
1.3750042e+3, 1.7466329e+2, -1246774.5, -1258405.8, 1387.4456, 0.00009700527, -0.18994579, -1246611.4, -18329.377, 0.000000027808229, 9.999948, 9.999792 
1.3750084e+3, 1.8466295e+2, -1171008.4, -1220189.0, 9302.139, 0.005378374, -0.18034483, -1169307.8, -39022.31, 0.0, 10.000004, 9.999356 
1.3750124e+3, 1.9466263e+2, -1055987.3, -1108827.6, 8704.377, 0.0034535532, -0.1532186, -1054590.4, -22301.094, 0.0, 10.000099, 9.999401 
1.3750167e+3, 2.0466197e+2, -961978.3, -1034790.5, 24342.854, -0.00859886, -0.14798598, -954589.7, -20293.348, 0.0, 10.000168, 9.999204 
1.3750212e+3, 2.1466097e+2, -853759.7, -925760.3, 26369.03, -0.030025827, -0.17566215, -845135.5, -8828.71, 0.0, 10.000213, 9.999257 
1.3750258e+3, 2.2466017e+2, -774337.2, -845826.56, 26480.209, -0.029229801, -0.17500535, -765597.25, -27282.227, 0.0, 10.000126, 9.999174 
1.3750306e+3, 2.3465966e+2, -708180.0, -757513.8, 25491.16, -0.003511331, -0.15078872, -697375.0, -57054.645, 0.0, 9.999882, 9.999226 
1.3750353e+3, 2.4465889e+2, -627124.7, -691985.06, 25841.07, 0.008719479, -0.13727538, -618088.3, -75760.38, 0.0, 9.99987, 9.999007 
1.37504e+3, 2.546579e+2, -486788.5, -567451.2, 28088.89, 0.005870149, -0.14582846, -477971.06, -33633.426, 0.0, 10.000135, 9.999061 
1.3750441e+3, 2.646566e+2, -393205.44, -507362.34, 15635.535, -0.01883703, -0.16333517, -391102.66, -44753.02, 0.0, 10.00026, 9.99874 
1.375048e+3, 2.7465507e+2, -300547.0, -406979.7, 21549.54, -0.07254617, -0.1978365, -296349.4, -47985.61, 0.0, 10.000202, 9.998785 
1.375052e+3, 2.8465387e+2, -207862.0, -333479.44, 22120.355, -0.08664438, -0.18309018, -204080.6, -53705.973, 0.0, 10.000259, 9.9985895 
1.3750567e+3, 2.946531e+2, -80173.45, -215084.95, 16608.299, -0.04738842, -0.1281974, -78158.96, -25777.012, 0.0, 10.000436, 9.998644 
1.3750607e+3, 3.0465066e+2, -26833.436, -166064.5, -20311.422, -0.03176096, -0.23380932, -23930.86, -23930.86, 0.0, 10.000475, 9.99863 
1.375063e+3, 3.1465033e+2, 13053.559, -47501.332, -134.8677, -0.13102359, -0.1360888, 13053.859, 13053.859, 0.0, 10.000316, 9.999522 
1.384985e+3, 1.2465933e+2, -1749116.3, -1783019.0, 44468.258, -0.16670227, -0.2068578, -1718478.0, -159.19354, 0.008351057, 9.999994, 9.999532 
1.3849904e+3, 1.3465957e+2, -1593070.8, -1569720.3, -14560.407, 0.118024416, -0.2037115, -1562732.3, 57583.574, 0.004803759, 10.000005, 10.000326 
1.3849908e+3, 1.4465934e+2, -1525960.9, -1532951.9, 27001.623, -0.1751046, -0.24386309, -1502229.5, 20088.709, 0.0019753822, 9.999995, 9.999904 
1.3849954e+3, 1.5465957e+2, -1432562.4, -1440831.3, 4182.7173, -0.08812626, -0.2092972, -1430815.6, -6498.898, 0.00045665295, 9.999981, 9.99987 
1.3849999e+3, 1.6465949e+2, -1342247.9, -1373180.0, 3291.227, -0.025559435, -0.19189468, -1341901.6, -15583.247, 0.00003186285, 10.000042, 9.999632 
1.3850044e+3, 1.7465921e+2, -1214870.5, -1255319.1, -6338.8286, 0.011641022, -0.18908595, -1213900.4, 14421.311, 0.000000039188958, 10.00022, 9.999682 
1.3850085e+3, 1.8465889e+2, -1133220.6, -1197660.4, -6250.8496, 0.021486595, -0.17343982, -1132619.9, -2294.601, 0.0, 10.000247, 9.999392 
1.3850124e+3, 1.9465852e+2, -1053528.1, -1102850.8, -2300.1824, -0.0034519744, -0.15566778, -1053421.1, -21092.088, 0.0, 10.000097, 9.999442 
1.3850166e+3, 2.0465784e+2, -989052.5, -1049803.6, 16280.626, -0.018475838, -0.15379387, -984964.56, -50628.24, 0.0, 9.999991, 9.999185 
1.3850212e+3, 2.1465684e+2, -895659.1, -948777.3, 12996.183, -0.021652684, -0.17911045, -892649.9, -56302.715, 0.0, 9.999937, 9.999231 
1.3850258e+3, 2.2465612e+2, -795018.44, -849345.6, 13125.065, -0.020366479, -0.17404535, -792013.75, -53658.62, 0.0, 9.999957, 9.999231 
1.3850304e+3, 2.3465572e+2, -676555.25, -734301.3, 18198.73, -0.014507804, -0.14353928, -671298.44, -30939.1, 0.0, 10.000068, 9.999293 
1.3850352e+3, 2.44655e+2, -582983.56, -664656.2, 31217.672, -0.0047585834, -0.13097115, -572418.06, -30051.703, 0.0, 10.000153, 9.999057 
1.3850401e+3, 2.5465396e+2, -474009.28, -555923.9, 32609.363, 0.009174555, -0.14817129, -462613.25, -18237.111, 0.0, 10.000203, 9.999106 
1.3850446e+3, 2.6465267e+2, -397072.56, -504694.56, 9066.358, -0.009993524, -0.16783167, -396314.13, -49926.22, 0.0, 10.0002165, 9.998778 
1.385048e+3, 2.7465123e+2, -299295.88, -401822.44, 3697.4082, -0.06961109, -0.19873123, -299162.7, -50761.156, 0.0, 10.000193, 9.998823 
1.385052e+3, 2.8465012e+2, -227657.36, -345777.63, 8004.9434, -0.08910505, -0.17805094, -227117.33, -76705.234, 0.0, 10.000137, 9.998562 
1.3850568e+3, 2.946494e+2, -137823.1, -245178.31, 8423.865, -0.05485553, -0.11485031, -137166.11, -84746.734, 0.0, 10.000053, 9.998619 
1.385061e+3, 3.0464673e+2, -75154.14, -208946.27, -16180.552, -0.024929967, -0.22993028, -73225.11, -73225.11, 0.0, 10.000231, 9.998451 
1.3850637e+3, 3.1464615e+2, 81154.695, 10380.152, 7937.779, -0.10572542, -0.14163536, 82034.04, 82034.04, 0.0, 10.000679, 9.9997425 
1.3949852e+3, 1.2465562e+2, -1743757.8, -1770073.5, 41371.055, -0.1502431, -0.24466999, -1713502.6, 4850.0776, 0.008733579, 9.999985, 9.999626 
1.39499e+3, 1.3465622e+2, -1581649.3, -1544351.5, -14153.972, 0.06988748, -0.22374515, -1539588.5, 80757.28, 0.005033633, 9.999998, 10.0005045 
1.3949905e+3, 1.4465603e+2, -1551158.8, -1584557.5, 24890.508, -0.20608462, -0.2514333, -1537884.8, -15537.023, 0.002076125, 9.999991, 9.999552 
1.3949959e+3, 1.5465567e+2, -1458843.9, -1495383.9, 3243.4758, -0.05078882, -0.23824748, -1458558.1, -34205.406, 0.00048381835, 9.99998, 9.999496 
1.3950005e+3, 1.646553e+2, -1362014.8, -1414934.5, 7933.2334, 0.019004088, -0.21430393, -1360851.0, -34492.95, 0.000034571214, 10.000044, 9.999346 
1.3950044e+3, 1.7465517e+2, -1234058.1, -1295451.0, 194.38054, -0.00979955, -0.1719764, -1234057.5, -5695.984, 0.00000005013657, 10.00022, 9.999408 
1.3950084e+3, 1.8465473e+2, -1126337.3, -1182728.0, -12680.746, -0.018505359, -0.15854843, -1123617.0, 6749.493, 0.0, 10.000242, 9.999496 
1.3950126e+3, 1.9465396e+2, -1045259.9, -1086080.9, -8127.0176, -0.0010538853, -0.19271828, -1043701.4, -11328.076, 0.0, 10.000097, 9.9995575 
1.3950169e+3, 2.0465331e+2, -994722.5, -1061193.4, 12994.196, 0.00019478759, -0.19052114, -992272.6, -57892.305, 0.0, 9.999989, 9.999108 
1.3950212e+3, 2.1465284e+2, -901463.9, -960820.6, 10935.025, -0.017048359, -0.15456547, -899513.44, -63126.33, 0.0, 9.999936, 9.99915 
1.3950257e+3, 2.2465222e+2, -784636.8, -827744.0, 16032.459, -0.03493357, -0.1399482, -779327.9, -40933.82, 0.0, 9.999955, 9.999381 
1.3950302e+3, 2.3465149e+2, -665927.5, -711651.3, 22652.676, -0.053560924, -0.15943386, -656605.4, -16204.591, 0.0, 10.000064, 9.999452 
1.395035e+3, 2.446508e+2, -579768.06, -657183.06, 32875.527, -0.0587741, -0.15472874, -567691.0, -25283.984, 0.0, 10.000147, 9.999111 
1.3950399e+3, 2.546502e+2, -471271.9, -549080.0, 35458.074, -0.04891168, -0.13152742, -457537.56, -13125.171, 0.0, 10.000197, 9.999157 
1.3950446e+3, 2.6464903e+2, -403803.3, -517938.03, 8857.784, -0.036714643, -0.13902798, -403119.97, -56696.387, 0.0, 10.000212, 9.998691 
1.3950488e+3, 2.746473e+2, -306468.53, -415235.47, 4919.0063, -0.020571297, -0.18838516, -306246.53, -57805.72, 0.0, 10.000185, 9.998735 
1.3950528e+3, 2.8464615e+2, -222992.61, -336904.72, 5675.6494, -0.0348225, -0.17130408, -222710.52, -72258.336, 0.0, 10.000139, 9.998623 
1.3950565e+3, 2.946456e+2, -134371.67, -238083.08, 7475.16, -0.08398956, -0.09661774, -133835.66, -81378.28, 0.0, 10.000052, 9.99867 
1.3950609e+3, 3.0464277e+2, -80325.71, -219456.3, 591.1967, -0.056687757, -0.22856444, -80323.195, -80323.195, 0.0, 10.000229, 9.99838 
1.3950649e+3, 3.1464112e+2, 102901.58, 60427.363, 26182.842, -0.05606984, -0.24108663, 115377.31, 115377.31, 0.0, 10.000658, 10.000096 
1.4049853e+3, 1.2465158e+2, -1809733.6, -1805148.0, 11234.395, -0.10341399, -0.26182765, -1795974.8, -77583.76, 0.009133226, 9.999545, 9.9995985 
1.4049898e+3, 1.3465239e+2, -1578532.8, -1535989.6, -52286.055, 0.052322555, -0.22597691, -1500813.8, 119568.55, 0.005275387, 9.99999, 10.000566 
1.4049904e+3, 1.4465232e+2, -1530059.5, -1592114.9, -18033.855, -0.22726648, -0.23709203, -1525199.4, -2816.171, 0.0021822979, 10.000215, 9.999392 
1.4049959e+3, 1.5465158e+2, -1435372.6, -1502703.3, -25070.723, -0.042014547, -0.24522, -1427063.0, -2671.0002, 0.00051218417, 10.000223, 9.999328 
1.4050005e+3, 1.6465102e+2, -1340295.5, -1408014.9, 528.1759, 0.028714854, -0.23076949, -1340291.4, -13892.13, 0.000037386584, 10.00021, 9.999312 
1.4050044e+3, 1.7465088e+2, -1241502.3, -1302262.8, 9847.963, -0.029340627, -0.18438226, -1239946.0, -11543.452, 0.00000006103049, 10.000183, 9.999378 
1.4050084e+3, 1.8465044e+2, -1135700.5, -1194566.0, -2433.3508, -0.043245103, -0.16701181, -1135600.0, -5192.1313, 0.0, 10.000211, 9.999431 
1.4050128e+3, 1.9464964e+2, -1018693.94, -1080637.4, -13271.503, -0.0075925807, -0.19691189, -1015970.25, 16445.504, 0.0, 10.000314, 9.99949 
1.405017e+3, 2.0464905e+2, -946326.8, -1024757.25, 4363.335, 0.00020714675, -0.19196877, -946084.8, -11662.327, 0.0, 10.000266, 9.999224 
1.4050211e+3, 2.146487e+2, -875295.44, -933829.6, 16851.117, -0.02356766, -0.15534888, -870790.94, -34363.598, 0.0, 10.000057, 9.999275 
1.4050256e+3, 2.2464815e+2, -781305.06, -833266.44, 31826.723, -0.042664737, -0.13865383, -766201.25, -27767.664, 0.0, 10.0000105, 9.999314 
1.4050302e+3, 2.3464738e+2, -659585.0, -717392.3, 19884.47, -0.05824817, -0.15362276, -653405.7, -12964.613, 0.0, 10.000145, 9.999373 
1.405035e+3, 2.4464664e+2, -594102.9, -665626.7, 9469.872, -0.062846124, -0.15067025, -592870.3, -50422.023, 0.0, 10.000055, 9.999099 
1.4050397e+3, 2.546459e+2, -542585.9, -584341.0, 5434.4443, -0.055170003, -0.1391191, -541890.2, -97435.29, 0.0, 9.999711, 9.999148 
1.4050445e+3, 2.6464483e+2, -475684.75, -538174.7, -5555.0786, -0.036957193, -0.14482532, -475194.78, -128729.37, 0.0, 9.999658, 9.998817 
1.4050491e+3, 2.746434e+2, -333114.22, -412270.28, 5535.2954, -0.0059700827, -0.17475875, -332729.0, -84249.61, 0.0, 9.999937, 9.998874 
1.4050533e+3, 2.8464234e+2, -210279.05, -330039.88, 13552.668, -0.018650606, -0.15548715, -208764.52, -58274.6, 0.0, 10.000224, 9.998629 
1.4050569e+3, 2.946416e+2, -65592.55, -205659.78, 9898.1045, -0.080132, -0.10090536, -64896.54, -12399.279, 0.0, 10.000526, 9.998664 
1.4050613e+3, 3.0463895e+2, -47835.684, -208207.3, -807.73645, -0.04969709, -0.21129414, -47831.617, -47831.617, 0.0, 10.000471, 9.998341 
1.4050654e+3, 3.1463698e+2, 27777.13, 56508.734, 18626.74, -0.04484696, -0.25354138, 65665.94, 65665.94, 0.0, 10.000003, 10.000385 
1.4149857e+3, 1.2464726e+2, -1822851.4, -1830106.0, 19738.045, -0.033500236, -0.26240316, -1806410.1, -87976.42, 0.009556688, 9.999534, 9.999433 
1.4149897e+3, 1.3464817e+2, -1584614.4, -1547012.4, -36117.54, 0.06362231, -0.2078878, -1525095.4, 95329.48, 0.0055341963, 9.999985, 10.000492 
1.4149904e+3, 1.446483e+2, -1526524.8, -1585787.1, -19256.621, -0.24168369, -0.19750379, -1520817.3, 1606.5884, 0.0022969088, 10.000217, 9.999435 
1.414996e+3, 1.5464737e+2, -1432411.6, -1496300.9, -24648.955, -0.066633105, -0.23019798, -1424007.4, 426.309, 0.0005425403, 10.000221, 9.999373 
1.4150006e+3, 1.6464667e+2, -1326766.6, -1379267.3, -2031.8676, -0.0026011951, -0.24170968, -1326688.1, -246.84512, 0.000040406845, 10.000206, 9.999512 
1.4150044e+3, 1.7464642e+2, -1226726.6, -1272330.8, 8536.568, -0.049066894, -0.22661638, -1225181.1, 3263.2185, 0.00000007226826, 10.000185, 9.999583 
1.4150085e+3, 1.8464607e+2, -1152538.6, -1230102.4, 19.20134, -0.056622505, -0.19842133, -1152538.6, -22089.414, 0.0, 10.000212, 9.9991865 
1.4150128e+3, 1.9464563e+2, -1036691.2, -1118485.0, -9517.048, -0.025382433, -0.16808723, -1035598.44, -3142.289, 0.0, 10.000314, 9.999231 
1.415017e+3, 2.0464508e+2, -925128.7, -980404.6, -4410.5874, -0.021165758, -0.15818399, -924778.94, 9683.47, 0.0, 10.000263, 9.99953 
1.415021e+3, 2.1464448e+2, -852579.3, -886401.4, 8963.383, -0.044403378, -0.18141545, -850350.7, -13883.237, 0.0, 10.000053, 9.999603 
1.4150254e+3, 2.2464389e+2, -802418.4, -875867.2, 35671.496, -0.048300922, -0.17014706, -787945.75, -49472.266, 0.0, 10.000004, 9.999026 
1.4150307e+3, 2.346434e+2, -681541.56, -762996.56, 25499.463, -0.03063879, -0.12704383, -674217.56, -33737.457, 0.0, 10.000144, 9.999062 
1.4150354e+3, 2.4464248e+2, -600225.6, -678412.2, -2890.2175, -0.019612303, -0.120335415, -600118.94, -57629.08, 0.0, 10.000053, 9.999012 
1.4150399e+3, 2.546411e+2, -548548.2, -596100.7, -6447.9863, -0.014403179, -0.16785072, -547689.4, -103186.27, 0.0, 9.999707, 9.99907 
1.4150444e+3, 2.6464003e+2, -452651.75, -490730.28, 4693.834, -0.01628313, -0.18186201, -452081.7, -105568.734, 0.0, 9.999658, 9.999145 
1.4150487e+3, 2.746395e+2, -309502.4, -363243.28, 17602.412, -0.029928148, -0.16090071, -304250.2, -55732.47, 0.0, 9.999935, 9.999212 
1.4150532e+3, 2.8463864e+2, -212080.08, -333378.53, 25316.252, -0.044561483, -0.13388623, -207008.38, -56482.62, 0.0, 10.000222, 9.998607 
1.4150578e+3, 2.9463744e+2, -70215.37, -212713.64, 23947.123, -0.049915656, -0.12197767, -66298.66, -13760.342, 0.0, 10.000514, 9.998622 
1.4150622e+3, 3.0463538e+2, -51056.44, -214943.73, -15938.879, -0.011326973, -0.17111333, -49520.69, -49520.69, 0.0, 10.000469, 9.998296 
1.4150651e+3, 3.1463364e+2, 37618.14, 76389.39, -778.486, -0.080332406, -0.18395074, 76405.016, 76405.016, 0.0, 10.000005, 10.000523 
1.4249851e+3, 1.2464297e+2, -1796449.4, -1831289.9, 4102.7646, -0.048892483, -0.22491568, -1795972.8, -77496.09, 0.010011913, 9.999775, 9.999309 
1.4249898e+3, 1.3464321e+2, -1589380.1, -1555883.5, -45341.316, 0.07763568, -0.23003215, -1524296.1, 96178.22, 0.0058154534, 9.99998, 10.000434 
1.4249909e+3, 1.4464346e+2, -1533856.8, -1568478.0, -34032.16, -0.21537861, -0.21399356, -1512985.6, 9486.398, 0.002423067, 10.000079, 9.999619 
1.4249961e+3, 1.54643e+2, -1435870.1, -1476705.4, -30902.318, -0.07487047, -0.21881367, -1419249.5, 5227.2827, 0.00057589856, 10.000106, 9.999563 
1.4250004e+3, 1.6464241e+2, -1343985.9, -1386273.6, -10583.5205, -0.023707248, -0.22935756, -1341485.0, -15002.155, 0.00004378684, 10.000083, 9.999522 
1.4250045e+3, 1.7464186e+2, -1253208.9, -1284149.0, -16673.143, -0.057186026, -0.24536969, -1245934.3, -17445.684, 0.00000008454083, 10.000002, 9.999589 
1.4250085e+3, 1.8464151e+2, -1181626.1, -1239056.0, -16671.393, -0.06057479, -0.21899068, -1177137.5, -46643.977, 0.0, 9.999993, 9.999229 
1.425013e+3, 1.9464146e+2, -1065681.1, -1126967.1, -3997.2356, -0.03663966, -0.1554803, -1065421.5, -32924.44, 0.0, 10.000093, 9.999277 
1.4250171e+3, 2.0464095e+2, -941624.56, -1000142.56, -6560.6255, -0.03053789, -0.13724825, -940898.06, -6395.0757, 0.0, 10.000202, 9.999423 
1.4250213e+3, 2.1464005e+2, -822709.25, -884783.44, -28115.53, -0.043077555, -0.17950167, -811868.1, 24642.861, 0.0, 10.000314, 9.999489 
1.4250256e+3, 2.2463934e+2, -779511.0, -867328.3, -11469.213, -0.038512565, -0.17269738, -778037.8, -39519.61, 0.0, 10.000172, 9.999004 
1.4250308e+3, 2.3463894e+2, -741203.1, -792852.56, -1334.3398, -0.015358699, -0.11873989, -741168.7, -100644.664, 0.0, 9.99974, 9.99905 
1.4250354e+3, 2.4463803e+2, -660615.5, -703669.1, -10128.51, -0.0038288843, -0.11233966, -658351.75, -115817.98, 0.0, 9.999623, 9.999044 
1.4250398e+3, 2.546366e+2, -522675.28, -579155.44, -6018.9355, -0.0043562157, -0.17123677, -522041.0, -77493.3, 0.0, 9.9998665, 9.999109 
1.4250442e+3, 2.646356e+2, -400699.6, -464571.34, 6926.7007, -0.014445607, -0.18169032, -399957.06, -53400.168, 0.0, 10.00001, 9.999154 
1.4250486e+3, 2.746352e+2, -292680.56, -354308.16, -6017.0547, -0.039498378, -0.14307043, -292098.6, -43538.81, 0.0, 10.000045, 9.999222 
1.4250532e+3, 2.8463432e+2, -247229.89, -340993.66, -11748.987, -0.052020025, -0.12606235, -245780.11, -95211.76, 0.0, 9.999939, 9.998691 
1.4250578e+3, 2.9463282e+2, -187030.88, -259078.9, -7009.299, -0.03838432, -0.15178104, -186355.3, -133771.63, 0.0, 9.999671, 9.998709 
1.4250626e+3, 3.0463135e+2, -141312.45, -274256.34, -37051.645, 0.0045261006, -0.13807562, -131683.52, -131683.52, 0.0, 9.999918, 9.998154 
1.4250654e+3, 3.146296e+2, 139463.78, 111747.01, -34302.08, -0.084148414, -0.1397444, 162601.17, 162601.17, 0.0, 10.000762, 10.000401 
1.4349839e+3, 1.24638736e+2, -1803639.3, -1843640.8, 3894.1824, -0.15290342, -0.15246707, -1803263.6, -84744.016, 0.010506618, 9.999763, 9.999229 
1.43499e+3, 1.3463762e+2, -1592984.3, -1561141.6, -37587.594, 0.08778543, -0.2922064, -1536242.4, 84287.68, 0.006123269, 9.999971, 10.000401 
1.4349915e+3, 1.4463788e+2, -1513091.3, -1525290.1, -34930.387, -0.1565341, -0.28674442, -1483731.8, 38795.39, 0.002563054, 10.000077, 9.999918 
1.4349963e+3, 1.5463853e+2, -1413035.0, -1429859.1, -30043.953, -0.06965037, -0.21155366, -1390247.6, 34273.047, 0.0006133788, 10.000107, 9.999885 
1.4350004e+3, 1.6463833e+2, -1356874.9, -1413305.1, -15050.928, -0.037916925, -0.19230114, -1353111.5, -26588.207, 0.000047750204, 10.000084, 9.999336 
1.4350043e+3, 1.7463726e+2, -1267872.4, -1314265.0, -19915.21, -0.05657711, -0.24004976, -1260496.0, -31961.113, 0.00000010052836, 10.0, 9.999383 
1.4350085e+3, 1.8463682e+2, -1159253.1, -1192175.8, -14696.809, -0.05909353, -0.22822492, -1153647.0, -23106.66, 0.0, 9.9999895, 9.999554 
1.435013e+3, 1.9463713e+2, -1041047.06, -1076622.9, -240.2631, -0.044790864, -0.16060509, -1041045.44, -8507.013, 0.0, 10.000094, 9.999623 
1.4350173e+3, 2.046367e+2, -979034.5, -1077177.6, -3177.1223, -0.032896724, -0.12968695, -978931.75, -44387.742, 0.0, 10.000198, 9.998897 
1.4350218e+3, 2.1463543e+2, -862045.75, -966717.75, -23590.342, -0.021545047, -0.15008241, -856974.75, -20417.13, 0.0, 10.000314, 9.998927 
1.4350261e+3, 2.2463453e+2, -762744.9, -832596.2, -27750.648, -0.015083666, -0.14705071, -753062.25, -14494.69, 0.0, 10.000171, 9.999244 
1.4350305e+3, 2.3463404e+2, -722639.44, -754251.6, -17083.027, -0.015613247, -0.12756978, -715171.9, -74599.17, 0.0, 9.999738, 9.999317 
1.4350349e+3, 2.4463332e+2, -650156.44, -681273.56, -1974.4484, -0.020059139, -0.12514904, -650031.7, -107451.76, 0.0, 9.999619, 9.999202 
1.4350395e+3, 2.5463235e+2, -512180.2, -557471.8, 4157.241, -0.027620398, -0.15139093, -511801.75, -67212.95, 0.0, 9.999865, 9.99926 
1.435044e+3, 2.6463145e+2, -420994.06, -506749.25, 9121.425, -0.033159234, -0.14723244, -420034.6, -73437.24, 0.0, 10.000009, 9.998866 
1.4350487e+3, 2.7463064e+2, -314953.5, -399464.44, -2546.6348, -0.038414262, -0.11812351, -314876.84, -66271.836, 0.0, 10.000038, 9.998916 
1.4350532e+3, 2.846294e+2, -236396.81, -318348.97, -20253.826, -0.046595074, -0.12817518, -231664.5, -81047.375, 0.0, 9.999937, 9.998848 
1.4350575e+3, 2.946277e+2, -175999.52, -236135.28, -15143.076, -0.052048903, -0.19348282, -172401.53, -119767.695, 0.0, 9.999669, 9.998868 
1.4350624e+3, 3.0462685e+2, -154143.42, -300746.84, -6489.7275, -0.006796556, -0.11516571, -153856.69, -153856.69, 0.0, 9.999916, 9.9979725 
1.4350665e+3, 3.1462508e+2, 111867.7, 57394.023, -3006.3481, -0.06297853, -0.09933841, 112033.12, 112033.12, 0.0, 10.000749, 10.000033 
1.4449836e+3, 1.2463413e+2, -1774337.5, -1825825.5, 27132.275, -0.15491298, -0.15122826, -1762679.5, -44114.496, 0.011047917, 9.99995, 9.999261 
1.4449897e+3, 1.3463312e+2, -1629265.1, -1573108.6, -4590.1807, 0.078845404, -0.2860805, -1572735.9, 47838.74, 0.00646129, 9.9997, 10.000448 
1.4449915e+3, 1.4463358e+2, -1569821.6, -1555881.3, -2220.7266, -0.15164773, -0.26236284, -1555536.0, -32965.95, 0.0027186894, 9.999703, 9.9998865 
1.4449964e+3, 1.5463404e+2, -1430424.6, -1441391.8, -24434.54, -0.049863465, -0.20142283, -1410865.9, 13699.5, 0.0006559602, 10.000004, 9.999854 
1.4450008e+3, 1.6463378e+2, -1349716.5, -1419023.3, -25323.955, -0.020677961, -0.18260579, -1341449.5, -14880.817, 0.000052490832, 10.000176, 9.999249 
1.4450043e+3, 1.7463276e+2, -1240026.6, -1311067.9, -24258.475, -0.060378928, -0.21608871, -1232533.4, -3953.4446, 0.00000012546444, 10.000237, 9.9992895 
1.4450085e+3, 1.8463221e+2, -1122739.4, -1178547.1, -24938.604, -0.06770353, -0.20730472, -1113219.1, 17367.049, 0.0, 10.000258, 9.999517 
1.4450131e+3, 1.9463229e+2, -1024097.7, -1072250.1, -40827.395, -0.043476813, -0.1601991, -1000776.2, 31810.0, 0.0, 10.00023, 9.999588 
1.4450176e+3, 2.0463178e+2, -980913.0, -1075347.9, -38683.22, -0.02794314, -0.13679244, -967090.44, -32498.123, 0.0, 10.0001745, 9.99892 
1.445022e+3, 2.1463062e+2, -891457.9, -977564.56, -16372.673, -0.020029122, -0.1498795, -888449.8, -51844.793, 0.0, 10.0001, 9.998954 
1.4450261e+3, 2.246297e+2, -782190.75, -840337.44, -14920.969, -0.017380504, -0.14968757, -778585.44, -39970.645, 0.0, 10.000031, 9.999257 
1.4450303e+3, 2.3462911e+2, -688843.94, -736880.9, -25406.123, -0.023145383, -0.14387433, -677900.2, -37279.4, 0.0, 9.999967, 9.999326 
1.4450346e+3, 2.446284e+2, -603878.44, -660250.3, -11258.174, -0.030226873, -0.13745353, -601713.2, -59085.727, 0.0, 9.999941, 9.999191 
1.4450392e+3, 2.5462765e+2, -498529.38, -552189.6, -18574.385, -0.038330037, -0.14033216, -492727.28, -48092.86, 0.0, 9.999963, 9.999249 
1.4450438e+3, 2.6462674e+2, -444651.47, -522741.03, -19670.033, -0.03743178, -0.13372368, -439976.63, -93333.555, 0.0, 9.999865, 9.998825 
1.4450486e+3, 2.746257e+2, -378446.4, -433966.7, -13192.648, -0.027242292, -0.12637646, -375471.03, -126817.875, 0.0, 9.99962, 9.9988785 
1.445053e+3, 2.846243e+2, -272918.56, -343907.56, -18679.006, -0.036881182, -0.14652558, -268303.66, -117636.87, 0.0, 9.999722, 9.9987755 
1.4450572e+3, 2.9462257e+2, -100324.8, -208813.4, -32823.94, -0.06382038, -0.2072416, -91166.766, -38482.902, 0.0, 10.000227, 9.998787 
1.4450623e+3, 3.046221e+2, -87106.57, -239690.66, -14977.432, -0.011672908, -0.10045587, -85650.305, -85650.305, 0.0, 10.000255, 9.998229 
1.4450671e+3, 3.1461993e+2, -37805.824, -16126.251, 15084.271, -0.020669326, -0.15104571, -8390.887, -8390.887, 0.0, 9.999728, 10.000018 
1.4549845e+3, 1.24629244e+2, -1765226.6, -1807770.4, 6327.3047, -0.0631132, -0.22196235, -1764305.6, -45693.66, 0.011640448, 9.999951, 9.999386 
1.4549892e+3, 1.3462979e+2, -1622058.9, -1557906.4, -13987.016, 0.049354404, -0.21233961, -1554989.5, 65618.016, 0.0068325973, 9.999696, 10.000556 
1.4549907e+3, 1.4463061e+2, -1595718.4, -1608318.1, 6098.9966, -0.20264532, -0.13903996, -1593249.9, -70649.84, 0.0028915813, 9.999698, 9.999529 
1.4549968e+3, 1.5462962e+2, -1457805.6, -1496600.3, -13071.541, -0.020332897, -0.1877708, -1453812.4, -29202.174, 0.00070428615, 9.999998, 9.999477 
1.4550014e+3, 1.6462885e+2, -1350108.4, -1421043.8, -24439.834, 0.021086952, -0.19889623, -1342503.3, -15884.938, 0.000058062662, 10.000178, 9.999237 
1.4550045e+3, 1.746284e+2, -1238675.9, -1310027.1, -21851.07, -0.072578095, -0.1749265, -1232515.9, -3892.4187, 0.00000016567238, 10.000242, 9.999296 
1.4550085e+3, 1.8462777e+2, -1151550.4, -1238050.6, -27126.15, -0.09182225, -0.15629779, -1143747.5, -13116.869, 0.0, 10.000257, 9.99911 
1.4550135e+3, 1.9462699e+2, -1053733.6, -1134311.4, -41739.184, -0.03432252, -0.15413864, -1036010.8, -3370.7627, 0.0, 10.000231, 9.999162 
1.4550178e+3, 2.0462623e+2, -941539.9, -993579.4, -42769.934, -0.017528743, -0.15833166, -917496.75, 17151.023, 0.0, 10.000174, 9.999483 
1.4550218e+3, 2.1462561e+2, -849145.6, -889747.44, -18953.404, -0.042787038, -0.17943016, -841673.2, -5020.178, 0.0, 10.000098, 9.999558 
1.4550258e+3, 2.2462487e+2, -798280.25, -872543.44, -18250.152, -0.050574433, -0.18065116, -794037.6, -55377.734, 0.0, 10.000025, 9.99904 
1.45503e+3, 2.346241e+2, -705930.56, -772713.3, -27144.79, -0.039821543, -0.16849054, -696289.1, -55620.938, 0.0, 9.999967, 9.999081 
1.4550345e+3, 2.446233e+2, -616399.8, -686510.4, -10523.753, -0.03573608, -0.15061055, -614854.25, -72177.8, 0.0, 9.999941, 9.999012 
1.4550392e+3, 2.5462255e+2, -511692.22, -578720.4, -16370.681, -0.039732955, -0.13661249, -507907.63, -63223.344, 0.0, 9.999958, 9.99907 
1.4550439e+3, 2.6462153e+2, -431819.13, -494760.9, -27854.006, -0.031484712, -0.13908982, -421263.1, -74569.26, 0.0, 9.999858, 9.999021 
1.4550485e+3, 2.7462035e+2, -364142.16, -403381.8, -20880.715, -0.010840297, -0.16823588, -355109.88, -106405.414, 0.0, 9.999616, 9.999091 
1.455053e+3, 2.8461897e+2, -291835.56, -383418.25, 31.677992, -0.026160514, -0.18285897, -291835.56, -141117.9, 0.0, 9.999721, 9.998506 
1.4550574e+3, 2.9461747e+2, -122429.016, -253493.55, -11279.266, -0.07690139, -0.1920048, -121465.42, -68731.96, 0.0, 10.00022, 9.998485 
1.4550626e+3, 3.046171e+2, -41127.62, -144049.7, -31726.93, -0.014889291, -0.09129555, -32133.414, -32133.414, 0.0, 10.000252, 9.998887 
1.4550674e+3, 3.1461442e+2, -20842.572, 20450.646, -6270.995, 0.03214065, -0.26610935, 21381.986, 21381.986, 0.0, 9.999721, 10.000274 
1.4649844e+3, 1.2462443e+2, -1849145.6, -1845249.3, -17771.785, -0.0507963, -0.24754828, -1829319.3, -110660.45, 0.012283001, 9.999363, 9.999412 
1.464989e+3, 1.3462533e+2, -1565047.5, -1534976.8, -41006.285, 0.048628338, -0.19825366, -1506336.4, 114314.984, 0.00723705, 10.00011, 10.000515 
1.4649907e+3, 1.4462627e+2, -1494520.8, -1579467.3, -23782.86, -0.20754573, -0.10252385, -1488315.4, 34327.78, 0.0030819494, 10.0004835, 9.999346 
1.4649968e+3, 1.5462476e+2, -1403194.3, -1490885.6, -31383.723, -0.03562758, -0.186347, -1393119.8, 31539.164, 0.0007585455, 10.000463, 9.999291 
1.4650016e+3, 1.646238e+2, -1315441.1, -1397654.5, -37534.824, 0.0133302715, -0.2073407, -1300882.6, 25786.213, 0.00006440502, 10.00039, 9.999294 
1.465005e+3, 1.7462361e+2, -1231407.1, -1298241.8, -32087.604, -0.052167855, -0.16520368, -1218496.0, 10174.995, 0.00000022299002, 10.00026, 9.999366 
1.465009e+3, 1.8462297e+2, -1171829.3, -1256730.6, -22806.318, -0.066494904, -0.14699385, -1166090.9, -35412.875, 0.0, 10.000159, 9.999027 
1.4650136e+3, 1.9462189e+2, -1078641.6, -1156232.8, -13384.771, -0.032784123, -0.16517556, -1076397.6, -43707.453, 0.0, 10.000105, 9.99907 
1.465018e+3, 2.0462109e+2, -961091.7, -998320.94, -21488.54, -0.021107187, -0.17046629, -951276.4, -16578.16, 0.0, 10.000019, 9.999524 
1.465022e+3, 2.1462072e+2, -876818.5, -898225.3, -41325.27, -0.031424716, -0.17038785, -844833.06, -8131.896, 0.0, 9.999888, 9.999601 
1.465026e+3, 2.2462007e+2, -809271.44, -872966.94, -45235.617, -0.039453477, -0.16790658, -785797.06, -47090.03, 0.0, 9.999928, 9.9990835 
1.46503e+3, 2.3461917e+2, -674301.94, -752387.8, -33936.023, -0.04682916, -0.17342922, -661614.75, -20898.889, 0.0, 10.000162, 9.9991255 
1.4650345e+3, 2.4461824e+2, -604507.7, -691580.1, -14343.014, -0.039532803, -0.16654696, -602205.9, -59480.785, 0.0, 10.000071, 9.998914 
1.4650393e+3, 2.5461733e+2, -572022.6, -619196.75, -16350.772, -0.015306497, -0.15564919, -566909.56, -122175.25, 0.0, 9.999595, 9.998967 
1.4650439e+3, 2.6461628e+2, -492056.25, -531822.3, -23946.027, -0.0006810691, -0.15360521, -480814.6, -134069.97, 0.0, 9.999479, 9.998948 
1.4650482e+3, 2.7461514e+2, -344514.88, -402253.97, -39571.402, 0.0011655636, -0.17029725, -324401.3, -75645.92, 0.0, 9.999785, 9.999018 
1.4650527e+3, 2.8461385e+2, -264402.84, -349196.53, -9798.692, -0.02024488, -0.18411641, -263285.25, -112517.49, 0.0, 9.999819, 9.998693 
1.4650574e+3, 2.9461244e+2, -206820.86, -271751.2, 13641.431, -0.06212868, -0.20447701, -204071.31, -151289.83, 0.0, 9.999545, 9.998683 
1.4650626e+3, 3.0461213e+2, -126472.2, -165022.13, -9203.538, -0.0055907294, -0.11381533, -124387.64, -124387.64, 0.0, 9.999579, 9.999065 
1.4650673e+3, 3.1460965e+2, -1499.0986, 3399.6602, -28905.895, 0.03967534, -0.28459278, 29959.766, 29959.766, 0.0, 9.999969, 10.000035 
1.4749831e+3, 1.2461977e+2, -1855083.8, -1855570.6, -901.9594, -0.11873627, -0.22502863, -1854393.0, -135688.4, 0.012969934, 9.999352, 9.999346 
1.4749894e+3, 1.3461985e+2, -1578040.8, -1561103.6, -13006.095, 0.06903648, -0.24321167, -1554052.0, 66653.3, 0.0076708426, 10.000107, 10.000335 
1.4749916e+3, 1.4462064e+2, -1495167.3, -1583602.4, -25270.06, -0.17627732, -0.15053596, -1488455.8, 34242.977, 0.0032881629, 10.000492, 9.999314 
1.4749967e+3, 1.5461946e+2, -1403749.1, -1492678.9, -32026.139, -0.098213755, -0.19779302, -1393416.3, 31295.09, 0.00081847684, 10.0004635, 9.99928 
1.4750013e+3, 1.6461869e+2, -1307042.3, -1379952.0, -44262.598, -0.04747108, -0.207262, -1286154.9, 40564.652, 0.000071419374, 10.000388, 9.999417 
1.4750057e+3, 1.7461841e+2, -1222492.9, -1280281.5, -37222.16, -0.002462295, -0.18643801, -1204266.4, 24455.824, 0.0000002932695, 10.000262, 9.999489 
1.4750099e+3, 1.8461785e+2, -1154814.4, -1222457.3, -26114.406, 0.003461182, -0.17872041, -1145905.8, -15177.935, 0.0, 10.000161, 9.999262 
1.4750136e+3, 1.9461702e+2, -1061048.6, -1121156.1, -15273.993, -0.042930182, -0.1943935, -1057390.0, -24653.693, 0.0, 10.000109, 9.9993105 
1.4750177e+3, 2.0461638e+2, -995928.94, -1069928.6, -27369.68, -0.043797016, -0.17421865, -986906.06, -52162.44, 0.0, 10.000015, 9.999035 
1.4750223e+3, 2.14616e+2, -913002.8, -973679.5, -45948.508, 0.011443497, -0.122858256, -888280.44, -51531.26, 0.0, 9.999888, 9.9990835 
1.4750265e+3, 2.246153e+2, -789093.0, -830878.25, -37527.996, 0.013945305, -0.11184381, -767033.9, -28277.873, 0.0, 9.999927, 9.999374 
1.4750302e+3, 2.346143e+2, -651936.44, -705597.7, -24326.322, -0.047454044, -0.15837711, -642550.3, -1786.6046, 0.0, 10.000159, 9.999449 
1.4750344e+3, 2.4461319e+2, -606910.9, -695433.4, -31320.438, -0.04545923, -0.18520369, -596950.06, -54176.688, 0.0, 10.000064, 9.998891 
1.4750391e+3, 2.5461203e+2, -574735.9, -624406.3, -33069.2, 0.030946715, -0.19762146, -558214.56, -113430.016, 0.0, 9.999592, 9.998933 
1.4750439e+3, 2.6461098e+2, -515199.8, -580821.2, -12669.631, 0.051919166, -0.17805204, -512838.63, -166043.1, 0.0, 9.999482, 9.998612 
1.475048e+3, 2.746101e+2, -369746.03, -454115.3, -25968.064, 0.0056454623, -0.13223912, -362393.97, -113588.125, 0.0, 9.999782, 9.998665 
1.4750527e+3, 2.846089e+2, -221522.64, -259287.98, -18553.695, -0.02300675, -0.14873973, -213932.78, -63115.74, 0.0, 9.999814, 9.999313 
1.4750573e+3, 2.946074e+2, -161789.86, -176705.94, 5262.8433, -0.024961837, -0.24367692, -160119.94, -107291.68, 0.0, 9.999538, 9.999339 
1.4750624e+3, 3.0460715e+2, -144682.69, -203419.17, 5112.5703, 0.012508759, -0.16911565, -144241.0, -144241.0, 0.0, 9.999579, 9.998802 
1.4750668e+3, 3.146059e+2, -50479.523, -98371.59, -13920.787, -0.0055506364, -0.18644574, -46727.168, -46727.168, 0.0, 9.999968, 9.999338 
1.4849825e+3, 1.24615006e+2, -1720962.5, -1789680.6, -77.1152, -0.1493181, -0.20433424, -1720962.5, -2210.223, 0.013700743, 10.000271, 9.999353 
1.4849895e+3, 1.3461456e+2, -1571850.1, -1570139.1, 430.1362, 0.065956496, -0.2647802, -1570037.0, 50720.805, 0.00813248, 10.000202, 10.000227 
1.484992e+3, 1.4461535e+2, -1531646.4, -1577811.5, -13165.461, -0.15959907, -0.17575088, -1528155.8, -5404.8726, 0.0035089266, 10.000141, 9.999523 
1.4849971e+3, 1.5461467e+2, -1442491.1, -1485100.5, -3092.651, -0.084074594, -0.19627053, -1442267.9, -17509.688, 0.0008836724, 10.000086, 9.999513 
1.4850017e+3, 1.646141e+2, -1349362.4, -1402050.9, -8102.6523, -0.03839619, -0.1972878, -1348144.5, -21380.127, 0.00007901186, 10.000108, 9.999398 
1.4850059e+3, 1.7461365e+2, -1226888.6, -1285819.6, -14479.262, -0.0029333846, -0.19021983, -1223523.3, 5245.6484, 0.00000037325287, 10.000247, 9.999457 
1.4850101e+3, 1.8461306e+2, -1129692.9, -1208921.5, -17883.719, 0.00045860227, -0.18359129, -1125843.1, 4931.8213, 0.0, 10.000328, 9.999274 
1.485014e+3, 1.9461241e+2, -1026672.56, -1102481.5, -25516.545, -0.04185308, -0.18364497, -1018884.1, 13897.617, 0.0, 10.000339, 9.999327 
1.485018e+3, 2.0461172e+2, -963483.75, -1066062.3, -35502.168, -0.03908082, -0.1635499, -952395.2, -17605.875, 0.0, 10.000291, 9.998928 
1.4850223e+3, 2.1461104e+2, -879485.06, -970456.8, -25318.604, 0.01874851, -0.1314923, -872913.3, -36115.785, 0.0, 10.000175, 9.998967 
1.4850266e+3, 2.2461024e+2, -777384.6, -831899.1, -7460.614, 0.027671367, -0.12187996, -776382.06, -37576.605, 0.0, 10.000037, 9.999312 
1.4850304e+3, 2.3460938e+2, -698559.8, -735456.75, -24610.713, -0.023715613, -0.14892147, -686250.6, -45438.207, 0.0, 9.999873, 9.999381 
1.4850345e+3, 2.4460828e+2, -626608.9, -698013.9, -48331.965, -0.027485322, -0.17343934, -602222.75, -59400.88, 0.0, 9.999901, 9.998951 
1.485039e+3, 2.54607e+2, -489745.3, -576486.06, -45044.195, 0.024966177, -0.20426324, -470585.94, -25752.49, 0.0, 10.000147, 9.998994 
1.4850435e+3, 2.6460588e+2, -419765.78, -540396.4, -5339.819, 0.037084345, -0.19196427, -419529.88, -72685.195, 0.0, 10.000163, 9.99856 
1.4850478e+3, 2.74605e+2, -353481.94, -452311.03, 2549.3345, -0.00078411825, -0.14105947, -353416.22, -104561.19, 0.0, 9.999921, 9.998609 
1.4850524e+3, 2.8460386e+2, -236148.98, -265020.53, -8010.272, -0.015046326, -0.15028583, -234075.48, -83209.586, 0.0, 9.99971, 9.999323 
1.4850572e+3, 2.9460245e+2, -162082.16, -175956.48, -35191.26, 0.0047800397, -0.23559436, -133150.83, -80274.44, 0.0, 9.999534, 9.999347 
1.4850621e+3, 3.0460197e+2, -134909.42, -189718.38, -25038.94, 0.028742524, -0.190267, -125193.09, -125193.09, 0.0, 9.99961, 9.998881 
1.4850667e+3, 3.1460148e+2, -59088.453, -116520.97, -18108.744, -0.01286145, -0.13980244, -53855.48, -53855.48, 0.0, 9.99997, 9.99921 
1.4949828e+3, 1.2461025e+2, -1717498.9, -1781719.1, -16069.103, -0.1473637, -0.18071137, -1713702.5, 5098.124, 0.014485369, 10.000268, 9.99941 
1.4949894e+3, 1.3460955e+2, -1577197.1, -1579989.8, -2129.7783, 0.039151814, -0.2629049, -1576046.8, 44761.74, 0.008627366, 10.000197, 10.000161 
1.4949922e+3, 1.446105e+2, -1499130.4, -1510607.9, -17239.432, -0.1586764, -0.17689247, -1486699.6, 36099.7, 0.0037456865, 10.000141, 9.999986 
1.494998e+3, 1.5461046e+2, -1408573.6, -1415133.4, -5365.865, 0.0014223336, -0.1812503, -1405564.6, 19234.352, 0.0009542572, 10.000087, 9.999993 
1.4950025e+3, 1.646101e+2, -1360782.5, -1426868.1, -4562.7407, 0.033643864, -0.17612995, -1360469.0, -33666.348, 0.00008722728, 10.000112, 9.999228 
1.4950058e+3, 1.7460938e+2, -1240617.0, -1314928.6, -9275.73, -0.055644963, -0.17722754, -1239476.6, -10665.802, 0.0000004647829, 10.000248, 9.999258 
1.4950097e+3, 1.8460867e+2, -1145060.0, -1240488.4, -18626.338, -0.07874467, -0.16156825, -1141553.3, -10734.285, 0.0, 10.000325, 9.99906 
1.4950143e+3, 1.9460809e+2, -1041217.2, -1133653.1, -25143.213, -0.032519452, -0.1329375, -1034820.7, -1994.6584, 0.0, 10.000341, 9.999112 
1.4950185e+3, 2.0460716e+2, -945173.8, -1028144.44, -40515.3, -0.009988284, -0.13871667, -928671.9, 6163.2095, 0.0, 10.00029, 9.999189 
1.4950222e+3, 2.1460587e+2, -859422.3, -929010.7, -29372.322, -0.012153123, -0.19590108, -848682.25, -11836.228, 0.0, 10.000175, 9.999252 
1.4950262e+3, 2.246049e+2, -807747.8, -894212.1, -14372.931, -0.001866561, -0.19822337, -805421.2, -66565.94, 0.0, 10.000033, 9.998887 
1.4950308e+3, 2.3460439e+2, -730308.75, -800955.2, -30137.824, 0.020994827, -0.1449738, -719199.0, -78337.21, 0.0, 9.99987, 9.998933 
1.4950348e+3, 2.446035e+2, -618269.5, -680445.06, -39286.465, 0.01153845, -0.13132198, -599258.56, -56388.152, 0.0, 9.999898, 9.999074 
1.4950386e+3, 2.5460222e+2, -480278.63, -556002.5, -34313.24, -0.034905296, -0.17502038, -467043.38, -22162.406, 0.0, 10.000142, 9.999137 
1.4950429e+3, 2.64601e+2, -404040.06, -506869.94, -13346.782, -0.04722188, -0.1951151, -402335.94, -55443.824, 0.0, 10.000158, 9.998794 
1.4950477e+3, 2.7459982e+2, -337122.47, -417656.28, -4862.8066, -0.02189373, -0.19665384, -336829.9, -87926.695, 0.0, 9.999918, 9.998848 
1.4950523e+3, 2.8459865e+2, -277705.53, -352495.66, -13816.054, -0.00019871174, -0.18897226, -275234.9, -124320.24, 0.0, 9.999713, 9.998721 
1.4950569e+3, 2.9459757e+2, -208016.9, -270748.6, -39539.42, 0.021773972, -0.17978583, -188913.14, -135987.14, 0.0, 9.999529, 9.998698 
1.495062e+3, 3.045965e+2, -106717.01, -130199.3, -11595.497, 0.037551057, -0.17678975, -101956.336, -101956.336, 0.0, 9.999605, 9.999293 
1.4950669e+3, 3.1459633e+2, -28205.377, -50570.668, -961.5091, 0.008025433, -0.14345285, -28164.117, -28164.117, 0.0, 9.999963, 9.999667 
1.5049829e+3, 1.24606e+2, -1740807.0, -1789687.8, 10588.434, -0.15867008, -0.15423435, -1738611.9, -19768.252, 0.015336017, 10.0000925, 9.99944 
1.5049896e+3, 1.3460514e+2, -1580786.4, -1591476.4, 33659.535, 0.047032826, -0.24345838, -1552050.1, 68802.37, 0.009162785, 10.000215, 10.000073 
1.5049927e+3, 1.4460596e+2, -1473785.0, -1501660.1, 2022.7399, -0.14034885, -0.1626676, -1473639.0, 49205.29, 0.0040015904, 10.000332, 9.999955 
1.5049984e+3, 1.5460597e+2, -1352638.3, -1390875.1, -26618.832, 0.0074425717, -0.16136985, -1338983.6, 85860.27, 0.001031135, 10.000483, 9.9999695 
1.5050028e+3, 1.646056e+2, -1294974.0, -1395124.5, -38091.387, 0.03051214, -0.15524548, -1282132.8, 44714.8, 0.000096309515, 10.000561, 9.999229 
1.5050061e+3, 1.7460485e+2, -1198136.0, -1293662.4, -28458.758, -0.062060878, -0.16127633, -1190300.5, 38555.535, 0.000000575819, 10.000537, 9.999265 
1.5050101e+3, 1.846041e+2, -1129787.3, -1237336.0, -26884.713, -0.07787112, -0.14806847, -1123441.1, 7423.3477, 0.0, 10.000451, 9.99902 
1.5050147e+3, 1.9460347e+2, -1048334.5, -1142339.1, -22277.45, -0.015116923, -0.11922098, -1043322.4, -10450.061, 0.0, 10.000316, 9.999064 
1.5050189e+3, 2.0460255e+2, -932755.7, -1002887.25, -31595.56, 0.006039555, -0.12950724, -920620.94, 14259.885, 0.0, 10.000294, 9.99936 
1.5050225e+3, 2.1460134e+2, -814722.0, -887344.06, -29696.271, -0.018571967, -0.19654365, -804125.0, 32764.71, 0.0, 10.000398, 9.999431 
1.5050264e+3, 2.246003e+2, -775539.0, -895059.0, -15904.757, -0.014938058, -0.20709154, -773458.75, -34559.58, 0.0, 10.000327, 9.998739 
1.5050307e+3, 2.3459956e+2, -716020.0, -812485.0, -12209.759, 0.019652713, -0.16028307, -714498.56, -73590.02, 0.0, 10.00005, 9.998767 
1.5050349e+3, 2.4459861e+2, -618540.1, -687167.3, -2641.926, 0.015303852, -0.1409233, -618438.6, -75520.39, 0.0, 9.9999275, 9.999013 
1.5050387e+3, 2.5459749e+2, -505780.16, -574667.3, -14161.559, -0.035500534, -0.16579656, -502982.5, -58054.766, 0.0, 9.999996, 9.999079 
1.5050429e+3, 2.645962e+2, -417687.8, -496354.28, -14835.333, -0.046766765, -0.19229399, -414983.06, -68044.4, 0.0, 9.999993, 9.998944 
1.5050477e+3, 2.7459484e+2, -328899.03, -395904.63, -14302.031, -0.012848081, -0.2285442, -325974.03, -77023.74, 0.0, 9.9999, 9.999006 
1.5050521e+3, 2.8459376e+2, -265142.97, -372904.84, -7391.082, 0.0071370346, -0.21390107, -264638.4, -113677.02, 0.0, 9.999915, 9.998484 
1.5050566e+3, 2.9459292e+2, -147942.75, -269964.16, -5656.962, 0.0143011995, -0.14993006, -147681.06, -94709.6, 0.0, 10.000064, 9.998446 
1.5050615e+3, 3.045913e+2, -59387.31, -105905.77, 23612.568, 0.025115663, -0.1907373, -49502.23, -49502.23, 0.0, 9.999925, 9.999307 
1.5050669e+3, 3.145911e+2, -89119.625, -56659.563, 1762.8696, 0.0351047, -0.16077554, -56564.1, -56564.1, 0.0, 9.999444, 9.999876 
1.5149827e+3, 1.2460234e+2, -1739799.1, -1785462.9, -565.523, -0.1825306, -0.11654666, -1739792.1, -20912.0, 0.01625663, 10.000083, 9.999474 
1.5149902e+3, 1.346014e+2, -1587620.6, -1605225.0, 38348.266, 0.084152386, -0.20604934, -1557077.3, 63811.703, 0.0097409645, 10.000213, 9.99998 
1.5149933e+3, 1.4460184e+2, -1512221.4, -1581481.6, 6071.951, -0.11148239, -0.1316739, -1511693.0, 11191.952, 0.0042781597, 10.00033, 9.999408 
1.5149982e+3, 1.5460123e+2, -1391683.4, -1472255.8, -20711.902, -0.06774059, -0.13652222, -1386671.0, 38221.51, 0.0011151112, 10.000483, 9.999412 
1.5150025e+3, 1.6460064e+2, -1281371.3, -1367410.8, -40064.234, -0.050808035, -0.13402133, -1265604.5, 61294.31, 0.000106548556, 10.000562, 9.99942 
1.515007e+3, 1.7460006e+2, -1182922.0, -1262392.9, -29563.766, -0.026791709, -0.14232154, -1173130.5, 55773.375, 0.0000007145684, 10.000537, 9.999479 
1.5150112e+3, 1.8459935e+2, -1121631.3, -1220292.4, -32805.203, -0.0024664353, -0.14327101, -1111719.1, 19192.004, 0.0, 10.000449, 9.999138 
1.5150154e+3, 1.9459857e+2, -1039977.2, -1125574.0, -27243.723, 0.008379315, -0.14181338, -1032041.75, 878.4147, 0.0, 10.000317, 9.99918 
1.5150192e+3, 2.045979e+2, -928065.9, -992904.5, -29008.883, 0.0067850742, -0.13572028, -916982.0, 17944.328, 0.0, 10.000291, 9.999431 
1.515023e+3, 2.1459745e+2, -810583.3, -877702.75, -25554.043, -0.0040955567, -0.1337529, -801961.7, 34966.777, 0.0, 10.000392, 9.999499 
1.5150267e+3, 2.2459647e+2, -768512.8, -879008.44, -26419.336, -0.015404015, -0.14903465, -762520.94, -23583.85, 0.0, 10.0003195, 9.998854 
1.5150303e+3, 2.3459491e+2, -707861.25, -795788.3, -21847.701, -0.028641313, -0.19433016, -702731.9, -61779.344, 0.0, 10.00005, 9.998882 
1.5150344e+3, 2.4459364e+2, -636190.25, -723967.2, -422.13766, -0.018718002, -0.20193386, -636188.2, -93223.055, 0.0, 9.999927, 9.998761 
1.5150392e+3, 2.5459272e+2, -524562.3, -613027.25, -10178.059, 0.018402541, -0.17646271, -523406.44, -78432.59, 0.0, 9.999992, 9.998817 
1.5150437e+3, 2.6459154e+2, -414127.94, -488478.06, -17131.379, 0.033722714, -0.18322083, -410370.5, -63386.13, 0.0, 9.99999, 9.999 
1.5150478e+3, 2.745901e+2, -324979.56, -387199.5, -15813.896, 0.022996439, -0.23549864, -321190.97, -72194.68, 0.0, 9.999896, 9.999067 
1.515052e+3, 2.8458905e+2, -256001.27, -354071.25, -1817.1107, 0.003895499, -0.22365703, -255967.61, -104961.414, 0.0, 9.999914, 9.998614 
1.5150563e+3, 2.945885e+2, -138777.56, -250981.6, 1706.9479, -0.02214934, -0.1465481, -138751.6, -85738.47, 0.0, 10.000063, 9.998578 
1.515061e+3, 3.045863e+2, -85702.67, -161721.48, 7450.4614, -0.012653449, -0.23387998, -84979.35, -84979.35, 0.0, 9.9999275, 9.998923 
1.5150665e+3, 3.1458563e+2, -89310.24, -55879.3, -9447.034, 0.057789814, -0.21072085, -53394.42, -53394.42, 0.0, 9.999437, 9.999886 
1.5249833e+3, 1.24597766e+2, -1678016.1, -1747301.1, -34679.785, -0.15626436, -0.13097852, -1663640.4, 55284.008, 0.017243471, 10.00048, 9.999544 
1.5249906e+3, 1.3459699e+2, -1528149.6, -1579504.3, 19393.691, 0.078609705, -0.20151424, -1521648.6, 99282.46, 0.010359546, 10.000637, 9.999954 
1.5249936e+3, 1.4459726e+2, -1478848.6, -1590017.4, -2392.2505, -0.123912394, -0.1326818, -1478797.3, 44131.758, 0.0045741852, 10.000664, 9.99919 
1.5249985e+3, 1.5459628e+2, -1405063.4, -1502637.9, -4593.269, -0.077184536, -0.15291081, -1404847.6, 20093.135, 0.0012060112, 10.000494, 9.999198 
1.525003e+3, 1.6459559e+2, -1299265.4, -1364621.4, -12901.073, -0.04857069, -0.15336521, -1296811.0, 30137.197, 0.000118081814, 10.000393, 9.999519 
1.5250076e+3, 1.7459525e+2, -1194466.5, -1255684.3, -12177.957, -0.0050785737, -0.15082185, -1192132.9, 36817.777, 0.0000008766353, 10.000405, 9.999589 
1.5250118e+3, 1.8459462e+2, -1115483.9, -1206975.0, -20604.656, 0.014079651, -0.15263729, -1111057.8, 19898.975, 0.0, 10.000446, 9.999232 
1.5250157e+3, 1.945938e+2, -1005250.3, -1098511.0, -17390.57, -0.009358822, -0.16416374, -1002113.0, 30852.54, 0.0, 10.000511, 9.999272 
1.5250194e+3, 2.0459317e+2, -917180.75, -995441.1, -27086.963, -0.013349892, -0.15598138, -908720.25, 26251.459, 0.0, 10.0004015, 9.99936 
1.5250233e+3, 2.1459281e+2, -859527.56, -910811.25, -36623.645, 0.009452539, -0.13415796, -840461.56, -3487.3987, 0.0, 10.000097, 9.999414 
1.5250272e+3, 2.24592e+2, -791377.25, -865065.9, -34994.758, 0.007670149, -0.13986918, -777406.9, -38425.516, 0.0, 10.000056, 9.999075 
1.5250306e+3, 2.3459065e+2, -651578.7, -742351.75, -23496.193, -0.025897251, -0.18800585, -645857.4, -4863.888, 0.0, 10.000324, 9.999116 
1.5250346e+3, 2.4458934e+2, -572878.06, -704476.3, 7218.799, -0.022504818, -0.2064971, -572483.25, -29477.33, 0.0, 10.000411, 9.998661 
1.5250394e+3, 2.5458813e+2, -491461.5, -610044.9, 7343.3657, 0.02398391, -0.19995494, -491008.5, -45990.484, 0.0, 10.0002775, 9.9987 
1.5250438e+3, 2.645869e+2, -386671.06, -481692.78, 2087.7214, 0.04455354, -0.2029167, -386625.2, -39595.703, 0.0, 10.000208, 9.998941 
1.525048e+3, 2.745857e+2, -283612.97, -373452.03, -7479.8267, 0.03411375, -0.22747657, -282994.47, -33954.74, 0.0, 10.000209, 9.999012 
1.5250522e+3, 2.8458464e+2, -223299.69, -331579.56, 1400.3687, 0.008676982, -0.21330395, -223281.58, -72232.21, 0.0, 10.000112, 9.998673 
1.5250562e+3, 2.9458392e+2, -157685.7, -252881.27, -2190.9639, -0.03304968, -0.16073552, -157635.3, -104577.88, 0.0, 9.999905, 9.99864 
1.5250607e+3, 3.0458158e+2, -123894.32, -204107.69, -101.779, -0.03594336, -0.25683478, -123894.19, -123894.19, 0.0, 9.999771, 9.998706 
1.525066e+3, 3.14581e+2, -32953.082, -7619.4175, -1299.5034, 0.047590714, -0.20040214, -7552.9336, -7552.9336, 0.0, 9.999736, 10.000073 
1.5349846e+3, 1.2459234e+2, -1673294.6, -1736791.0, -44688.54, -0.08137628, -0.19525653, -1650224.8, 68750.97, 0.018292114, 10.000476, 9.99962 
1.5349907e+3, 1.3459194e+2, -1526521.9, -1577851.9, 25514.244, 0.026190016, -0.2313852, -1515997.5, 104981.164, 0.011016453, 10.000642, 9.999966 
1.5349938e+3, 1.4459224e+2, -1469728.9, -1570652.1, -9980.256, -0.18225855, -0.16580422, -1468751.4, 54224.5, 0.0048880493, 10.000664, 9.999323 
1.5349995e+3, 1.5459116e+2, -1395951.6, -1482431.4, -11185.558, -0.024900509, -0.21026592, -1394528.3, 30459.71, 0.0013030368, 10.000489, 9.999339 
1.5350042e+3, 1.6459054e+2, -1299818.6, -1365824.1, -13958.015, 0.03157062, -0.21287122, -1296988.4, 30006.568, 0.00013086536, 10.000391, 9.999514 
1.5350083e+3, 1.745904e+2, -1194462.4, -1257008.1, -11402.292, 0.0008532878, -0.18622798, -1192448.6, 36547.47, 0.0000010420176, 10.000409, 9.999578 
1.5350118e+3, 1.8458994e+2, -1110523.8, -1196831.6, -19197.479, -0.030877443, -0.175289, -1106446.3, 24554.385, 0.0, 10.000445, 9.999302 
1.5350156e+3, 1.9458918e+2, -1000931.6, -1088781.5, -14797.09, -0.072002776, -0.18693873, -998506.25, 34501.94, 0.0, 10.000506, 9.999342 
1.5350193e+3, 2.0458837e+2, -933439.2, -1028578.9, -38799.82, -0.05928555, -0.1910238, -919622.44, 15394.434, 0.0, 10.000397, 9.999136 
1.5350236e+3, 2.1458751e+2, -876028.9, -945513.0, -47296.82, 0.019965887, -0.19719067, -852085.4, -15058.935, 0.0, 10.000098, 9.999177 
1.5350276e+3, 2.2458695e+2, -769474.75, -819466.9, -26162.852, 0.051170673, -0.1786849, -758286.56, -19254.838, 0.0, 10.000054, 9.99939 
1.5350313e+3, 2.3458679e+2, -628430.25, -693420.1, -12394.849, 0.02454089, -0.14163814, -626146.56, 14884.876, 0.0, 10.0003195, 9.9994545 
1.5350352e+3, 2.4458572e+2, -570722.44, -698514.4, 2787.4163, 0.0001140906, -0.15520087, -570661.7, -27621.0, 0.0, 10.000403, 9.998706 
1.5350392e+3, 2.545837e+2, -490079.03, -607185.56, 3864.749, -0.020150138, -0.23535311, -489951.63, -44891.32, 0.0, 10.000277, 9.998721 
1.5350434e+3, 2.6458225e+2, -397943.94, -505723.84, 2617.1465, -0.016574139, -0.2513789, -397880.44, -50806.316, 0.0, 10.00021, 9.998776 
1.535048e+3, 2.7458155e+2, -295662.94, -398547.44, -5604.864, 0.0153747, -0.20741245, -295358.5, -46277.633, 0.0, 10.000207, 9.998841 
1.5350522e+3, 2.8458047e+2, -225775.88, -336236.22, -5075.8555, 0.016012402, -0.18497542, -225543.11, -74451.93, 0.0, 10.00011, 9.998644 
1.5350562e+3, 2.9457915e+2, -160028.61, -257253.95, -7851.301, -0.021670789, -0.18828905, -159398.66, -106294.51, 0.0, 9.999902, 9.998612 
1.5350603e+3, 3.0457705e+2, -126381.164, -209526.97, -1357.1438, -0.046615716, -0.25657004, -126359.02, -126359.02, 0.0, 9.99977, 9.998671 
1.5350652e+3, 3.145768e+2, -6418.5483, 47283.637, 5991.175, -0.009174752, -0.16431656, 47943.914, 47943.914, 0.0, 9.999735, 10.000451 
1.5449852e+3, 1.2458736e+2, -1673982.5, -1737392.4, -34570.12, -0.0732863, -0.24162152, -1658780.1, 60242.035, 0.019402182, 10.000473, 9.999618 
1.5449913e+3, 1.3458706e+2, -1553541.9, -1597624.0, 44923.906, 0.020964107, -0.26089016, -1525543.3, 95481.2, 0.011713042, 10.000486, 9.999903 
1.5449944e+3, 1.4458737e+2, -1489028.5, -1569623.8, -342.78058, -0.17180948, -0.1957984, -1489027.0, 33994.703, 0.005220401, 10.000487, 9.999414 
1.5450002e+3, 1.5458634e+2, -1390032.3, -1468053.1, -7272.078, -0.001963174, -0.24403222, -1389360.3, 35672.426, 0.0014059248, 10.00048, 9.999442 
1.5450048e+3, 1.645858e+2, -1289983.9, -1364176.5, -7696.0654, 0.048122175, -0.2431662, -1289194.0, 37845.09, 0.00014487762, 10.00047, 9.999488 
1.5450084e+3, 1.7458577e+2, -1190055.3, -1258427.4, -7456.9517, -0.009552819, -0.20358956, -1189251.5, 39788.504, 0.000001197513, 10.000455, 9.999548 
1.5450121e+3, 1.8458538e+2, -1108742.3, -1180599.4, -14458.321, -0.044877805, -0.19005905, -1105942.3, 25101.785, 0.0, 10.000393, 9.999438 
1.545016e+3, 1.9458467e+2, -1022907.25, -1083551.9, -6255.4336, -0.06568554, -0.21163444, -1022268.75, 10781.875, 0.0, 10.000289, 9.999482 
1.5450197e+3, 2.0458393e+2, -944769.56, -1036916.5, -19986.398, -0.050843418, -0.21313372, -940621.3, -5562.681, 0.0, 10.000333, 9.999108 
1.5450238e+3, 2.1458322e+2, -811563.2, -918209.6, -14851.088, 0.008779785, -0.20155518, -809533.7, 27533.938, 0.0, 10.000558, 9.999142 
1.5450276e+3, 2.2458264e+2, -705474.94, -798579.4, 870.3697, 0.03569108, -0.17879008, -705466.8, 33606.902, 0.0, 10.000539, 9.9993 
1.5450317e+3, 2.3458228e+2, -647523.3, -713493.44, -18878.031, 0.022303082, -0.1531025, -642503.2, -1427.5565, 0.0, 10.0002365, 9.999357 
1.5450355e+3, 2.4458125e+2, -598180.0, -696446.25, -15076.911, 0.00024171284, -0.16427892, -595918.8, -52834.207, 0.0, 10.000151, 9.998842 
1.5450394e+3, 2.545795e+2, -473481.03, -582814.94, -7284.498, -0.03219345, -0.22569346, -472997.8, -27897.068, 0.0, 10.000321, 9.998867 
1.5450436e+3, 2.6457825e+2, -392993.47, -511641.34, -5616.3613, -0.033897, -0.23080298, -392728.22, -45614.855, 0.0, 10.00028, 9.998702 
1.5450479e+3, 2.7457744e+2, -332664.28, -425998.63, -8846.43, 0.0010576377, -0.18623157, -331833.22, -82711.625, 0.0, 9.999996, 9.998754 
1.5450524e+3, 2.8457624e+2, -240855.16, -333108.75, 6224.285, 0.017421154, -0.17998405, -240437.11, -89303.73, 0.0, 9.999963, 9.998735 
1.5450567e+3, 2.945747e+2, -111104.13, -222543.22, 10290.884, 0.011327245, -0.21503808, -110161.79, -57014.375, 0.0, 10.000192, 9.998712 
1.5450606e+3, 3.0457294e+2, -91050.85, -215909.95, 8806.527, -0.023546016, -0.24298811, -90432.77, -90432.77, 0.0, 10.000117, 9.998458 
1.5450646e+3, 3.145724e+2, -7025.566, 48521.574, 3711.492, -0.05287377, -0.15885761, 48768.47, 48768.47, 0.0, 9.999728, 10.000462 
1.554985e+3, 1.2458294e+2, -1680936.1, -1747783.3, -54090.71, -0.1323234, -0.26107848, -1650775.5, 68287.06, 0.020579461, 10.000459, 9.999554 
1.5549922e+3, 1.3458245e+2, -1562554.1, -1615566.5, 45539.344, 0.060631245, -0.2895436, -1536368.8, 84699.3, 0.012454377, 10.000484, 9.99978 
1.5549956e+3, 1.4458272e+2, -1486321.1, -1565213.0, -1824.0167, -0.09683168, -0.22237962, -1486279.0, 36786.94, 0.005574592, 10.00049, 9.999445 
1.5550005e+3, 1.5458189e+2, -1386011.0, -1461811.3, -7268.81, -0.013858255, -0.25523233, -1385320.3, 39754.41, 0.001515748, 10.000486, 9.999484 
1.5550049e+3, 1.6458143e+2, -1292833.6, -1370142.0, -9558.356, -0.0035328988, -0.24441674, -1291669.4, 35410.832, 0.00016035176, 10.00047, 9.999447 
1.5550087e+3, 1.7458138e+2, -1194231.5, -1266135.4, -7985.5674, -0.039562788, -0.20339729, -1193355.3, 35726.92, 0.0000013687348, 10.00045, 9.999497 
1.5550128e+3, 1.8458098e+2, -1095862.5, -1153255.8, -19128.92, -0.034173362, -0.19693433, -1090071.3, 41015.24, 0.0, 10.000389, 9.999629 
1.555017e+3, 1.9458029e+2, -1008305.06, -1053885.3, -9697.45, 0.0069404645, -0.23739971, -1006327.7, 26764.885, 0.0, 10.00029, 9.999686 
1.5550208e+3, 2.045799e+2, -933795.6, -1014129.06, -12717.706, 0.009876471, -0.22140259, -931830.4, 3266.3906, 0.0, 10.000332, 9.999266 
1.555024e+3, 2.1457997e+2, -801801.1, -896331.9, -5953.1807, -0.02748522, -0.14795019, -801427.75, 35670.17, 0.0, 10.00055, 9.999297 
1.5550275e+3, 2.2457907e+2, -740733.25, -870467.0, -10387.818, -0.0433525, -0.14095406, -739906.75, -799.336, 0.0, 10.000531, 9.99881 
1.5550312e+3, 2.3457713e+2, -684270.3, -790120.8, -29162.277, -0.03394859, -0.22211465, -676767.75, -35641.664, 0.0, 10.000236, 9.998832 
1.5550354e+3, 2.4457593e+2, -583034.0, -665193.7, -8793.587, -0.025163742, -0.23362254, -582103.4, -38965.832, 0.0, 10.000151, 9.999058 
1.5550399e+3, 2.5457567e+2, -456387.4, -546877.7, 741.8984, -0.017108385, -0.17325255, -456381.3, -11241.687, 0.0, 10.000318, 9.999116 
1.555044e+3, 2.645749e+2, -392465.22, -509646.84, -14944.268, -0.011730797, -0.14256264, -390589.38, -43441.938, 0.0, 10.000276, 9.998718 
1.5550478e+3, 2.7457348e+2, -332989.78, -427215.66, -17252.064, -0.010709136, -0.16043481, -329930.38, -80768.69, 0.0, 9.999997, 9.998745 
1.5550523e+3, 2.8457192e+2, -225256.88, -301714.34, 15248.968, 0.009894156, -0.19650486, -222327.77, -71151.82, 0.0, 9.999966, 9.99895 
1.5550573e+3, 2.9457048e+2, -95250.305, -189863.83, 20657.313, 0.056238446, -0.24790716, -90936.78, -37748.8, 0.0, 10.000191, 9.998938 
1.5550612e+3, 3.0456915e+2, -121423.36, -277885.9, -4356.9253, 0.023745343, -0.22167636, -121302.13, -121302.13, 0.0, 10.000112, 9.998036 
1.5550639e+3, 3.1456766e+2, -35230.98, -10879.0205, -3592.482, -0.08999847, -0.18600999, -10360.104, -10360.104, 0.0, 9.99973, 10.000053 
1.5649857e+3, 1.2457862e+2, -1646893.9, -1740350.3, -70178.42, -0.12720731, -0.26131213, -1609309.9, 109793.875, 0.02183582, 10.000739, 9.999471 
1.564993e+3, 1.3457796e+2, -1519490.0, -1611951.9, 40667.496, 0.07245203, -0.29113415, -1504148.8, 116962.59, 0.013248415, 10.000857, 9.999626 
1.5649965e+3, 1.4457822e+2, -1434014.8, -1538622.8, -12880.621, -0.070565805, -0.21794277, -1432452.0, 90657.68, 0.0059555885, 10.000846, 9.999456 
1.5650012e+3, 1.5457752e+2, -1352190.0, -1442712.6, -21879.975, -0.022531446, -0.24008687, -1347178.9, 77938.44, 0.0016345053, 10.000709, 9.999506 
1.5650052e+3, 1.6457707e+2, -1279948.0, -1361323.3, -23025.0, -0.023802184, -0.2318242, -1273884.9, 53237.98, 0.00017771397, 10.00055, 9.999467 
1.565009e+3, 1.7457686e+2, -1205959.8, -1269533.4, -18090.658, -0.042953078, -0.20687193, -1201172.4, 27953.732, 0.0000016137079, 10.000362, 9.999515 
1.5650131e+3, 1.8457651e+2, -1115110.4, -1154196.0, -28755.463, -0.026642676, -0.20008369, -1099885.4, 31244.61, 0.0, 10.000221, 9.999702 
1.5650174e+3, 1.945761e+2, -1023205.75, -1052811.9, -30690.99, 0.017731769, -0.22039258, -1003934.4, 29199.25, 0.0, 10.000153, 9.999759 
1.565021e+3, 2.0457579e+2, -958250.3, -1019510.5, -33903.98, 0.01722585, -0.20293136, -943189.25, -8052.3726, 0.0, 10.000136, 9.999323 
1.5650243e+3, 2.145757e+2, -851182.0, -914245.94, -35468.953, -0.032028694, -0.15022999, -835255.44, 1883.4431, 0.0, 10.000187, 9.999349 
1.5650278e+3, 2.2457471e+2, -774141.8, -889299.7, -32246.834, -0.05453691, -0.15236901, -765726.9, -26577.758, 0.0, 10.000316, 9.998784 
1.5650316e+3, 2.345728e+2, -642054.56, -773249.4, -17120.639, -0.046727315, -0.22906704, -639857.1, 1311.0885, 0.0, 10.000543, 9.998799 
1.5650356e+3, 2.4457166e+2, -539165.8, -642688.25, 11572.125, -0.0319431, -0.233852, -537888.0, 5291.453, 0.0, 10.000446, 9.999068 
1.56504e+3, 2.5457153e+2, -504988.03, -568564.7, 2364.617, -0.008675217, -0.16351515, -504900.22, -59719.773, 0.0, 9.999978, 9.999129 
1.5650442e+3, 2.6457068e+2, -449927.66, -535322.7, -15633.473, 0.00039747494, -0.13693339, -447155.6, -99967.17, 0.0, 9.999874, 9.998735 
1.565048e+3, 2.745691e+2, -305480.13, -412342.9, -18158.664, -0.008246789, -0.17722657, -302478.8, -53274.316, 0.0, 10.000181, 9.998759 
1.5650523e+3, 2.8456753e+2, -184376.17, -279930.25, 8436.793, 0.0062483805, -0.21654701, -183636.98, -32417.93, 0.0, 10.000237, 9.998968 
1.5650572e+3, 2.945663e+2, -121019.54, -199136.67, -3206.2139, 0.050138902, -0.24272889, -120888.17, -67659.234, 0.0, 10.000002, 9.998963 
1.5650612e+3, 3.0456546e+2, -135273.88, -274871.25, -18401.273, 0.03267239, -0.17651251, -132889.02, -132889.02, 0.0, 9.999974, 9.998123 
1.5650639e+3, 3.1456316e+2, 22710.0, 5045.5205, 21618.451, -0.07460474, -0.23269321, 37230.832, 37230.832, 0.0, 10.000177, 9.9999485 
1.574987e+3, 1.2457446e+2, -1655602.5, -1759093.0, -84979.336, -0.058756545, -0.2422791, -1607853.8, 111291.43, 0.023184983, 10.000739, 9.999343 
1.5749936e+3, 1.3457368e+2, -1532581.4, -1641143.3, 44759.08, 0.05104503, -0.26625168, -1516507.5, 104646.53, 0.014104312, 10.000862, 9.999425 
1.5749972e+3, 1.4457393e+2, -1435817.8, -1541533.9, -19878.295, -0.09798123, -0.18153544, -1432203.5, 90949.305, 0.006368667, 10.000843, 9.999437 
1.5750018e+3, 1.5457329e+2, -1352848.4, -1443619.1, -26797.469, -0.030176165, -0.19817065, -1345527.6, 79632.7, 0.00176415, 10.000707, 9.999501 
1.5750058e+3, 1.6457273e+2, -1273853.6, -1349265.4, -30898.594, -0.017341783, -0.20405538, -1262810.6, 64355.996, 0.00019721544, 10.000552, 9.99955 
1.5750095e+3, 1.7457224e+2, -1200058.6, -1257967.9, -24916.963, -0.022741482, -0.21416502, -1190813.5, 38357.91, 0.0000019795527, 10.000364, 9.999595 
1.5750133e+3, 1.84572e+2, -1119238.5, -1162796.0, -32366.023, -0.02467977, -0.1998468, -1102006.0, 29168.316, 0.0, 10.00022, 9.999644 
1.5750168e+3, 1.9457209e+2, -1028566.7, -1063060.9, -33125.508, -0.037166286, -0.16151224, -1008467.25, 24706.564, 0.0, 10.000148, 9.999691 
1.5750207e+3, 2.0457159e+2, -961680.2, -1026079.8, -32732.563, -0.034213472, -0.15809421, -947964.3, -12785.2705, 0.0, 10.000133, 9.99928 
1.5750247e+3, 2.1457045e+2, -854498.94, -921037.06, -32611.346, -0.007339826, -0.20760703, -841181.2, -3990.7627, 0.0, 10.000185, 9.999303 
1.5750287e+3, 2.2456962e+2, -745201.5, -829056.4, -24084.77, -0.0006711193, -0.21227485, -738776.2, 422.45007, 0.0, 10.000314, 9.9992 
1.5750323e+3, 2.3456927e+2, -611976.75, -709926.94, -7715.3013, -0.019677378, -0.17492783, -611372.75, 29829.613, 0.0, 10.000537, 9.999237 
1.5750362e+3, 2.445684e+2, -552677.94, -669969.94, -4722.9033, -0.023445604, -0.16545673, -552488.06, -9277.388, 0.0, 10.000442, 9.998884 
1.57504e+3, 2.5456706e+2, -520169.03, -600616.8, -13630.122, -0.0094963275, -0.19475362, -517922.44, -72699.234, 0.0, 9.999979, 9.99891 
1.5750441e+3, 2.6456568e+2, -448387.78, -532893.5, -4061.5083, -0.001053344, -0.21350965, -448193.03, -100956.65, 0.0, 9.999876, 9.998753 
1.5750483e+3, 2.745642e+2, -303065.94, -408212.13, -4447.3955, 0.001969389, -0.24098872, -302878.16, -53627.496, 0.0, 10.000183, 9.998788 
1.5750524e+3, 2.8456295e+2, -197302.38, -307104.25, 1324.0145, 0.0009033489, -0.24323273, -197286.42, -46023.152, 0.0, 10.000238, 9.998783 
1.5750568e+3, 2.9456228e+2, -133348.36, -226235.08, -9950.864, -0.007723884, -0.19500163, -132294.3, -79024.13, 0.0, 10.000007, 9.998776 
1.575061e+3, 3.0456188e+2, -92771.46, -186664.69, -10508.413, 0.0017238085, -0.10467045, -91609.74, -91609.74, 0.0, 9.999974, 9.998729 
1.5750647e+3, 3.145589e+2, 35284.59, 31804.705, 32392.393, -0.02282153, -0.2892511, 65983.734, 65983.734, 0.0, 10.000174, 10.000134 
1.5849881e+3, 1.2457041e+2, -1612270.9, -1729990.6, -88835.96, -0.038592655, -0.22572814, -1564564.8, 154620.2, 0.024637632, 10.001014, 9.99941 
1.5849942e+3, 1.345692e+2, -1545282.9, -1653275.5, 64971.902, 0.036169987, -0.2878713, -1514798.8, 106398.586, 0.01502948, 10.000804, 9.999368 
1.584998e+3, 1.4456931e+2, -1466137.0, -1561169.4, 5157.817, -0.08741295, -0.21081008, -1465857.9, 57339.363, 0.0068178168, 10.000659, 9.999389 
1.5850024e+3, 1.545689e+2, -1370191.5, -1457177.8, -7346.9263, -0.026428798, -0.20022357, -1369575.3, 55627.96, 0.0019058621, 10.000612, 9.999452 
1.5850064e+3, 1.6456841e+2, -1273274.4, -1340422.8, -15000.544, -0.016424442, -0.20062567, -1270075.6, 57133.16, 0.0002187055, 10.00052, 9.999625 
1.58501e+3, 1.7456779e+2, -1190177.1, -1244207.5, -11053.769, -0.018668717, -0.23231314, -1188003.3, 41210.773, 0.000002466339, 10.000395, 9.999673 
1.5850136e+3, 1.8456747e+2, -1114573.8, -1171595.8, -16225.589, -0.025590554, -0.2237132, -1110280.0, 20937.293, 0.0, 10.000303, 9.999543 
1.585017e+3, 1.9456759e+2, -1021359.4, -1071776.3, -21057.195, -0.054794826, -0.17136344, -1013721.6, 19495.572, 0.0, 10.000253, 9.99958 
1.5850206e+3, 2.0456702e+2, -945494.0, -1013656.1, -15317.305, -0.04865297, -0.17198734, -942210.1, -6986.9023, 0.0, 10.000227, 9.999318 
1.585025e+3, 2.1456566e+2, -843690.4, -911177.25, -10962.257, 0.00467651, -0.24697752, -841954.4, -4718.4995, 0.0, 10.00024, 9.999343 
1.585029e+3, 2.2456494e+2, -762680.2, -830227.3, -11206.787, 0.020340886, -0.2453582, -760869.4, -21626.502, 0.0, 10.000163, 9.999264 
1.5850326e+3, 2.345651e+2, -687469.1, -738702.25, -23314.924, -0.010374483, -0.16352893, -678447.7, -37205.27, 0.0, 9.999988, 9.999304 
1.5850364e+3, 2.445643e+2, -605410.44, -693857.8, -29193.045, -0.02109434, -0.15128143, -596643.9, -53393.62, 0.0, 10.000075, 9.998896 
1.5850402e+3, 2.545625e+2, -448513.53, -565554.2, -23495.918, -0.009226928, -0.22642796, -443972.88, 1293.8722, 0.0, 10.00047, 9.998914 
1.5850443e+3, 2.645611e+2, -353560.0, -490923.47, -5129.3794, 0.000028014083, -0.24642839, -353368.75, -6088.4316, 0.0, 10.000544, 9.998718 
1.5850486e+3, 2.7456012e+2, -297551.97, -408863.5, -11578.453, 0.008140285, -0.2219739, -296360.34, -47069.723, 0.0, 10.000237, 9.998755 
1.5850526e+3, 2.845589e+2, -238572.1, -337922.03, -10887.757, -0.00026671484, -0.21213946, -237392.9, -86089.66, 0.0, 10.000004, 9.998682 
1.5850563e+3, 2.945578e+2, -163592.27, -251438.52, -17532.613, -0.030447572, -0.19885112, -160222.33, -106907.41, 0.0, 9.999847, 9.998678 
1.5850608e+3, 3.0455744e+2, -82345.97, -141801.19, -8287.77, 0.0020068442, -0.11835748, -81212.31, -81212.31, 0.0, 9.999876, 9.999084 
1.5850653e+3, 3.1455496e+2, 19627.469, 21286.092, 10927.765, 0.020207819, -0.28482878, 31415.969, 31415.969, 0.0, 10.000081, 10.000106 
1.5949889e+3, 1.245666e+2, -1596243.1, -1695226.9, -114272.74, -0.07000507, -0.20364061, -1521205.1, 198016.84, 0.026202215, 10.001009, 9.999656 
1.594995e+3, 1.3456456e+2, -1538236.8, -1640375.6, 57127.9, 0.025414946, -0.35684118, -1512679.4, 108561.29, 0.016029086, 10.000811, 9.999454 
1.5949991e+3, 1.4456442e+2, -1471848.1, -1574085.0, 1122.338, -0.043624792, -0.30581573, -1471835.8, 51406.86, 0.007305444, 10.000663, 9.999299 
1.5950032e+3, 1.545644e+2, -1377964.4, -1473164.6, -9113.604, -0.0152149955, -0.24665143, -1377099.9, 48146.023, 0.002060233, 10.000611, 9.999344 
1.5950067e+3, 1.6456412e+2, -1269241.0, -1332102.3, -20959.363, -0.025185918, -0.2216514, -1262893.6, 64355.73, 0.00024185247, 10.000519, 9.999683 
1.5950103e+3, 1.745635e+2, -1185686.3, -1235124.4, -15465.762, -0.034792174, -0.2609308, -1181246.8, 48006.96, 0.0000030340082, 10.000395, 9.999736 
1.5950137e+3, 1.8456295e+2, -1124235.6, -1191767.6, -18881.18, -0.03521373, -0.270108, -1119315.1, 11943.628, 0.0, 10.000302, 9.999406 
1.5950173e+3, 1.9456264e+2, -1031943.44, -1094046.9, -22277.775, -0.037395094, -0.24867894, -1024778.56, 8485.0205, 0.0, 10.000253, 9.999428 
1.5950212e+3, 2.0456207e+2, -938777.94, -1000118.8, -15365.109, -0.028046453, -0.24372016, -935144.4, 124.93008, 0.0, 10.000227, 9.999413 
1.5950252e+3, 2.1456131e+2, -836988.2, -896199.75, -9857.064, 0.00012245747, -0.2687395, -835390.4, 1885.0851, 0.0, 10.000235, 9.99945 
1.5950291e+3, 2.2456068e+2, -782598.1, -870777.2, -17971.367, 0.0042315596, -0.25161073, -779076.1, -39794.043, 0.0, 10.000157, 9.998988 
1.5950327e+3, 2.345603e+2, -708181.75, -781762.2, -28552.299, -0.021625761, -0.19469781, -698402.1, -57113.734, 0.0, 9.999986, 9.999009 
1.5950364e+3, 2.4455936e+2, -592331.0, -666858.06, -14751.985, -0.02835785, -0.19119088, -589517.25, -46218.98, 0.0, 10.000073, 9.9990835 
1.5950407e+3, 2.5455782e+2, -433805.56, -535019.3, -6986.231, -0.0114801135, -0.2597915, -433325.63, 11985.858, 0.0, 10.000468, 9.9991255 
1.5950449e+3, 2.645569e+2, -359912.44, -504150.25, -14878.662, 0.0010035307, -0.23615865, -358393.66, -11073.044, 0.0, 10.000543, 9.998629 
1.5950488e+3, 2.7455676e+2, -304942.66, -424511.97, -21347.37, 0.0061036814, -0.11873853, -301245.72, -51921.074, 0.0, 10.000237, 9.998649 
1.5950526e+3, 2.8455535e+2, -239376.66, -340064.13, -16144.795, -0.0024832622, -0.123489425, -236851.25, -85511.73, 0.0, 10.000005, 9.998668 
1.5950562e+3, 2.9455274e+2, -163726.34, -253090.89, -20969.225, -0.026329221, -0.2599468, -159050.61, -105686.26, 0.0, 9.999851, 9.998667 
1.595061e+3, 3.04552e+2, -76494.28, -129621.74, 95.17584, 0.025655625, -0.22105454, -76494.12, -76494.12, 0.0, 9.999875, 9.999168 
1.5950657e+3, 3.145515e+2, 1621.4264, -17125.996, 16272.983, 0.05146521, -0.19778496, 11027.396, 11027.396, 0.0, 10.000085, 9.999841 
1.6049899e+3, 1.24562524e+2, -1616754.4, -1690031.8, -108049.02, -0.06360829, -0.23042169, -1539301.1, 179960.19, 0.027890507, 10.000804, 9.999789 
1.6049956e+3, 1.345608e+2, -1546079.8, -1648633.1, 61511.652, 0.012165091, -0.34892315, -1517275.4, 104001.68, 0.017110147, 10.000776, 9.9994135 
1.605e+3, 1.4456059e+2, -1454158.1, -1558731.1, 11166.138, -0.012394098, -0.30539864, -1452979.1, 70300.23, 0.007835286, 10.000758, 9.999357 
1.6050039e+3, 1.5456036e+2, -1343219.0, -1449257.1, 12354.321, -0.012984171, -0.27144364, -1341798.6, 83484.89, 0.0022287087, 10.000823, 9.999404 
1.6050074e+3, 1.6456003e+2, -1236239.5, -1326316.8, -2074.808, -0.032952715, -0.25159594, -1236191.8, 91095.7, 0.00026665046, 10.000794, 9.999588 
1.605011e+3, 1.7455952e+2, -1154207.8, -1230913.4, -11374.024, -0.027803559, -0.2691904, -1152556.8, 76734.42, 0.0000036433328, 10.000663, 9.999633 
1.6050144e+3, 1.845589e+2, -1103449.0, -1201721.8, -20787.455, -0.020788763, -0.27285087, -1099232.8, 32064.674, 0.0, 10.000533, 9.999225 
1.6050178e+3, 1.9455825e+2, -1022092.1, -1110338.6, -28346.385, -0.02724557, -0.26618853, -1013771.3, 19534.28, 0.0, 10.000412, 9.999238 
1.6050215e+3, 2.0455758e+2, -927808.75, -1000282.6, -24841.74, -0.023367375, -0.25841454, -920111.3, 15201.072, 0.0, 10.000327, 9.999363 
1.6050255e+3, 2.1455702e+2, -831962.6, -898593.7, -31226.922, -0.001787592, -0.25874478, -819615.8, 17700.94, 0.0, 10.000292, 9.999405 
1.6050293e+3, 2.2455627e+2, -770977.2, -877654.25, -40435.48, 0.0009448359, -0.24562937, -757382.75, -18058.193, 0.0, 10.000294, 9.998875 
1.6050327e+3, 2.3455541e+2, -665694.75, -774940.2, -40621.555, -0.021658108, -0.22645187, -652245.8, -10910.352, 0.0, 10.000339, 9.998886 
1.6050366e+3, 2.445544e+2, -561278.94, -650035.06, -19625.822, -0.03198144, -0.22310479, -557132.94, -13786.83, 0.0, 10.00028, 9.999098 
1.6050409e+3, 2.5455332e+2, -485866.5, -557209.3, -26926.662, -0.02622433, -0.24753983, -476844.56, -31489.057, 0.0, 10.000101, 9.999148 
1.605045e+3, 2.6455256e+2, -440102.38, -537682.44, -47293.95, -0.011655255, -0.21352129, -420942.56, -73578.945, 0.0, 9.999973, 9.99867 
1.6050488e+3, 2.745522e+2, -349981.3, -442165.94, -45278.797, 0.01076124, -0.12387263, -331461.94, -82092.15, 0.0, 9.999912, 9.998682 
1.6050528e+3, 2.845508e+2, -231625.5, -325058.25, -20958.484, 0.0071704793, -0.13344581, -227139.56, -75755.24, 0.0, 10.0000105, 9.998768 
1.6050564e+3, 2.9454842e+2, -93528.76, -206355.75, -18922.303, -0.025114374, -0.25159547, -90439.85, -37033.766, 0.0, 10.00028, 9.998779 
1.605061e+3, 3.0454746e+2, -17382.023, -117341.66, -644.3475, 0.025487794, -0.23610044, -17377.871, -17377.871, 0.0, 10.000352, 9.9990225 
1.6050658e+3, 3.1454742e+2, -6414.224, -51872.715, -12675.35, 0.0533572, -0.15093005, -3118.8066, -3118.8066, 0.0, 10.000166, 9.99956 
1.6149911e+3, 1.24558315e+2, -1617424.3, -1691999.3, -120195.1, -0.0253882, -0.30122384, -1528865.8, 190436.08, 0.029721467, 10.000807, 9.999777 
1.6149962e+3, 1.3455796e+2, -1559193.6, -1676983.1, 59733.547, -0.0063360953, -0.2628325, -1534203.4, 87102.64, 0.018286213, 10.000779, 9.999219 
1.6150011e+3, 1.4455788e+2, -1440106.3, -1528721.8, 11049.354, 0.0021570197, -0.2071874, -1438749.4, 84557.71, 0.008415702, 10.000755, 9.999565 
1.6150047e+3, 1.5455686e+2, -1327716.8, -1417408.0, 15208.163, -0.02372547, -0.2748968, -1325208.1, 100107.805, 0.0024150638, 10.000823, 9.999622 
1.6150081e+3, 1.6455616e+2, -1253798.1, -1363130.4, -7823.7256, -0.04493022, -0.2898085, -1253241.1, 74081.49, 0.0002938315, 10.000794, 9.999335 
1.6150117e+3, 1.745559e+2, -1173930.9, -1272127.8, -16019.561, 0.00038699625, -0.2567089, -1171383.6, 57942.64, 0.000004294035, 10.000662, 9.9993515 
1.6150153e+3, 1.8455528e+2, -1119922.6, -1235848.4, -26206.127, 0.014593451, -0.23219456, -1114273.8, 17059.574, 0.0, 10.000532, 9.998991 
1.6150182e+3, 1.9455442e+2, -1038936.0, -1145063.9, -32448.082, -0.028243655, -0.22437699, -1029801.44, 3541.9866, 0.0, 10.00041, 9.999001 
1.6150217e+3, 2.0455356e+2, -941329.5, -1028139.44, -26883.162, -0.03937716, -0.21576811, -933678.6, 1673.9154, 0.0, 10.000324, 9.999173 
1.6150257e+3, 2.1455279e+2, -845252.25, -926102.2, -31423.748, -0.0038804857, -0.21714444, -834475.4, 2884.4265, 0.0, 10.00029, 9.999217 
1.6150297e+3, 2.2455172e+2, -769541.7, -874963.3, -39034.336, 0.006986976, -0.22685945, -756662.06, -17291.783, 0.0, 10.000293, 9.998895 
1.6150331e+3, 2.3455037e+2, -663538.06, -770691.2, -37762.49, -0.013182158, -0.25806195, -651567.25, -10183.384, 0.0, 10.000338, 9.998917 
1.6150369e+3, 2.445494e+2, -572796.75, -673205.44, -25639.787, -0.0347034, -0.24639477, -566628.5, -23234.342, 0.0, 10.000276, 9.998941 
1.6150406e+3, 2.5454897e+2, -497911.22, -581603.3, -31802.893, -0.057984482, -0.19008483, -487197.63, -41798.477, 0.0, 10.000097, 9.998983 
1.6150446e+3, 2.6454797e+2, -429255.97, -515596.9, -48750.457, -0.042855818, -0.17910829, -407308.88, -59899.188, 0.0, 9.999973, 9.998822 
1.6150488e+3, 2.7454627e+2, -337708.3, -418494.84, -45273.402, 0.018426483, -0.23749891, -317427.9, -68001.26, 0.0, 9.999918, 9.998843 
1.6150528e+3, 2.845451e+2, -217620.83, -296568.1, -10663.439, 0.025552083, -0.24066538, -216205.88, -64767.703, 0.0, 10.000011, 9.998963 
1.6150567e+3, 2.9454482e+2, -79411.586, -176648.56, -7134.8677, -0.03294882, -0.17223424, -78890.84, -25450.004, 0.0, 10.0002775, 9.998985 
1.6150612e+3, 3.045437e+2, -42983.746, -170713.55, -6313.4834, -0.00449989, -0.16322917, -42672.438, -42672.438, 0.0, 10.000351, 9.998656 
1.6150656e+3, 3.1454256e+2, -24166.824, -89527.875, -24431.1, 0.021524912, -0.14944263, -16044.219, -16044.219, 0.0, 10.000169, 9.999301 
1.6249922e+3, 1.245544e+2, -1616010.9, -1699828.6, -133156.17, 0.0060768127, -0.31175166, -1518324.1, 201016.05, 0.031719536, 10.000858, 9.9997 
1.6249968e+3, 1.345543e+2, -1492324.9, -1665973.3, 45750.883, -0.048963737, -0.23011911, -1481008.4, 140334.47, 0.019575521, 10.00134, 9.9990225 
1.625002e+3, 1.4455388e+2, -1373929.5, -1503364.4, -29132.29, 0.008493241, -0.19370799, -1367674.9, 155672.19, 0.009057564, 10.001245, 9.999503 
1.6250055e+3, 1.5455273e+2, -1365151.4, -1441852.8, -48677.56, -0.013322066, -0.26905763, -1341532.1, 83824.5, 0.002624381, 10.000596, 9.999563 
1.6250087e+3, 1.6455193e+2, -1330654.6, -1423422.1, -67766.67, -0.03860129, -0.2827279, -1294917.9, 32446.537, 0.00032476612, 10.000369, 9.999126 
1.6250123e+3, 1.7455155e+2, -1193435.3, -1305900.3, -71952.89, -0.006447774, -0.23771136, -1158348.0, 71022.195, 0.000005034694, 10.000635, 9.999132 
1.6250159e+3, 1.8455082e+2, -1084533.1, -1214487.9, -74618.96, 0.008815767, -0.21496587, -1050565.9, 80812.46, 0.0, 10.000759, 9.999027 
1.6250189e+3, 1.9454981e+2, -990301.9, -1115767.0, -61649.07, -0.01707587, -0.2249287, -965080.0, 68308.4, 0.0, 10.000722, 9.99905 
1.6250221e+3, 2.0454891e+2, -906069.7, -1029725.25, -43334.246, -0.029916273, -0.21643811, -892395.6, 43002.414, 0.0, 10.000648, 9.999005 
1.625026e+3, 2.1454817e+2, -824847.06, -936172.56, -48905.547, -0.019828593, -0.1973505, -806414.7, 30991.676, 0.0, 10.000517, 9.999039 
1.6250297e+3, 2.245471e+2, -742837.2, -845678.1, -48463.176, -0.013991027, -0.20548186, -723598.3, 15818.638, 0.0, 10.000407, 9.99904 
1.6250335e+3, 2.345457e+2, -653628.56, -747928.44, -38779.72, -0.015184579, -0.2568798, -639729.5, 1700.0282, 0.0, 10.00033, 9.999075 
1.625037e+3, 2.4454471e+2, -590642.3, -689251.1, -24410.438, -0.027721241, -0.25019506, -584930.4, -41491.05, 0.0, 10.000187, 9.998873 
1.6250406e+3, 2.5454435e+2, -522613.4, -602581.56, -26529.104, -0.055658083, -0.17953731, -514612.9, -69168.26, 0.0, 9.999968, 9.9989 
1.6250446e+3, 2.6454324e+2, -421221.25, -496317.56, -29768.283, -0.04433188, -0.1802363, -410852.66, -63396.715, 0.0, 9.999963, 9.99896 
1.625049e+3, 2.7454126e+2, -288024.66, -377450.97, -28580.041, 0.016174382, -0.28279638, -279671.03, -30196.7, 0.0, 10.000188, 9.998994 
1.625053e+3, 2.8454027e+2, -209252.02, -297109.6, -8708.104, 0.027911397, -0.27701485, -208397.22, -56913.164, 0.0, 10.000092, 9.998919 
1.6250567e+3, 2.9454064e+2, -180109.6, -230913.4, -26486.018, -0.022034494, -0.13611224, -168813.19, -115332.125, 0.0, 9.999613, 9.998931 
1.625061e+3, 3.0453917e+2, -145796.48, -226450.17, -9754.111, -0.010012067, -0.15599987, -144633.6, -144633.6, 0.0, 9.999671, 9.998602 
1.625066e+3, 3.145374e+2, 21398.695, -42696.746, -8957.102, 0.011995268, -0.20150597, 22626.883, 22626.883, 0.0, 10.000371, 9.999527 
1.6349933e+3, 1.2455099e+2, -1624943.8, -1718109.1, -114623.03, 0.021685408, -0.2486847, -1547799.4, 171575.33, 0.03390636, 10.000857, 9.999572 
1.6349974e+3, 1.3454981e+2, -1505461.9, -1694441.8, 63055.242, -0.12086882, -0.25342095, -1486354.8, 135032.58, 0.020992927, 10.001345, 9.998827 
1.6350032e+3, 1.4454864e+2, -1398173.1, -1553602.5, -54381.9, -0.0012171092, -0.26634628, -1381035.4, 142363.75, 0.009768749, 10.001242, 9.99916 
1.6350064e+3, 1.5454802e+2, -1390185.5, -1494554.3, -72562.78, 0.015602287, -0.2527274, -1352991.1, 72413.77, 0.0028602842, 10.000596, 9.999203 
1.6350093e+3, 1.6454732e+2, -1342378.0, -1447321.0, -59963.74, -0.017059745, -0.22949257, -1315169.4, 12243.177, 0.00036087315, 10.000366, 9.998964 
1.6350126e+3, 1.745465e+2, -1204987.6, -1329981.5, -61330.164, -0.05165235, -0.21238104, -1179921.8, 49500.977, 0.000005927034, 10.000634, 9.998968 
1.635016e+3, 1.8454553e+2, -1063440.5, -1170892.8, -75894.13, -0.042830333, -0.22098956, -1024180.5, 107251.914, 0.0, 10.000758, 9.999328 
1.6350198e+3, 1.9454448e+2, -967699.75, -1069290.9, -62049.418, 0.003253539, -0.26734856, -938306.06, 95134.51, 0.0, 10.000722, 9.999371 
1.6350232e+3, 2.0454364e+2, -916915.6, -1051802.0, -48408.758, 0.0012643423, -0.25995952, -901340.8, 34108.117, 0.0, 10.000645, 9.998857 
1.6350262e+3, 2.1454316e+2, -837737.6, -962540.1, -52850.832, -0.05224951, -0.19900277, -818364.0, 19092.545, 0.0, 10.000513, 9.998859 
1.6350296e+3, 2.245424e+2, -724755.8, -807204.9, -51644.633, -0.06512555, -0.18086256, -699899.9, 39564.895, 0.0, 10.0004015, 9.999308 
1.6350336e+3, 2.3454136e+2, -634098.25, -706893.2, -40218.2, -0.03147742, -0.22431119, -616252.94, 25219.746, 0.0, 10.000326, 9.999359 
1.6350375e+3, 2.4454035e+2, -590699.2, -689184.4, -31939.094, -0.015777081, -0.23485374, -581248.2, -37766.063, 0.0, 10.000184, 9.998876 
1.6350411e+3, 2.5453946e+2, -522856.56, -604371.75, -32931.293, -0.022305485, -0.2145916, -511215.2, -65722.88, 0.0, 9.999971, 9.998888 
1.6350448e+3, 2.6453838e+2, -412948.03, -479497.66, -21184.836, -0.018897207, -0.21612321, -406776.53, -59273.695, 0.0, 9.999963, 9.999076 
1.635049e+3, 2.7453712e+2, -279429.78, -359831.94, -18305.383, -0.0019437664, -0.2600599, -275458.3, -25944.777, 0.0, 10.000187, 9.999116 
1.6350529e+3, 2.8453612e+2, -227926.56, -337375.22, -25051.535, 0.007909131, -0.24385121, -222465.1, -70942.234, 0.0, 10.000095, 9.998641 
1.6350566e+3, 2.9453582e+2, -200528.19, -275710.03, -42438.387, 0.0025393546, -0.14407983, -181426.13, -127898.54, 0.0, 9.9996195, 9.998621 
1.6350609e+3, 3.0453384e+2, -129462.375, -192069.86, 14744.523, 0.0049276277, -0.2120805, -126163.734, -126163.734, 0.0, 9.999669, 9.998838 
1.6350663e+3, 3.1453165e+2, 68522.61, 57872.16, 17877.803, 0.017346606, -0.32456827, 81851.445, 81851.445, 0.0, 10.0003605, 10.000222 
1.6449943e+3, 1.2454676e+2, -1539269.0, -1673037.4, -114801.414, 0.02322616, -0.24364313, -1473289.1, 246128.22, 0.036291655, 10.001454, 9.999596 
1.6449983e+3, 1.345458e+2, -1549812.0, -1707616.6, 65928.336, -0.14672652, -0.23265342, -1525893.5, 95533.53, 0.022544228, 10.000999, 9.998902 
1.6450046e+3, 1.445443e+2, -1462168.4, -1598266.3, -37601.18, 0.033418782, -0.27858958, -1452470.9, 70971.33, 0.010552243, 10.000857, 9.999039 
1.6450071e+3, 1.5454365e+2, -1311518.5, -1471695.1, -39295.598, 0.0074187513, -0.2537762, -1302397.5, 123051.164, 0.0031239854, 10.0012045, 9.999065 
1.6450098e+3, 1.6454287e+2, -1211251.4, -1390553.3, -6676.6895, -0.038315687, -0.22856344, -1211003.1, 116454.164, 0.0004029895, 10.001295, 9.998904 
1.6450134e+3, 1.7454194e+2, -1142352.4, -1305490.5, -1328.399, -0.048928577, -0.21773991, -1142341.5, 87126.34, 0.0000070009137, 10.001091, 9.998914 
1.645017e+3, 1.845409e+2, -1055587.0, -1172696.5, -30895.68, -0.035122994, -0.2273466, -1047936.06, 83541.99, 0.0, 10.000838, 9.999276 
1.6450202e+3, 1.9453984e+2, -1001349.3, -1091580.5, -46843.617, -0.009250375, -0.2696818, -981428.44, 52058.09, 0.0, 10.000519, 9.999314 
1.6450235e+3, 2.04539e+2, -951991.1, -1056424.3, -33160.773, -0.012896122, -0.26524478, -942351.3, -6856.6235, 0.0, 10.000353, 9.998964 
1.6450268e+3, 2.1453853e+2, -849840.25, -955550.7, -17638.816, -0.046046123, -0.21459487, -846974.7, -9473.121, 0.0, 10.000378, 9.998972 
1.6450301e+3, 2.2453783e+2, -749850.06, -826036.25, -20551.209, -0.053416073, -0.19048278, -744659.94, -5151.0605, 0.0, 10.000258, 9.999247 
1.6450338e+3, 2.3453699e+2, -691599.5, -742507.4, -37815.695, -0.032480653, -0.20853631, -671469.1, -29953.283, 0.0, 9.999967, 9.999288 
1.6450375e+3, 2.4453597e+2, -632347.1, -703219.94, -35457.99, -0.016876752, -0.21930847, -617653.6, -74128.07, 0.0, 9.999873, 9.998928 
1.6450411e+3, 2.5453484e+2, -514053.75, -594063.9, -32667.908, -0.008423273, -0.23043387, -502410.03, -56872.504, 0.0, 10.000007, 9.99894 
1.645045e+3, 2.6453382e+2, -403560.88, -475768.34, -18148.111, -0.008649728, -0.22931662, -399256.28, -51709.066, 0.0, 10.000032, 9.999066 
1.6450489e+3, 2.7453297e+2, -316536.8, -379628.0, -26734.945, -0.01734526, -0.22991523, -306731.7, -57177.73, 0.0, 9.999942, 9.999097 
1.6450527e+3, 2.8453186e+2, -240610.34, -343360.22, -35486.57, -0.013579818, -0.2256085, -229545.86, -77981.555, 0.0, 10.000009, 9.998641 
1.6450565e+3, 2.9453078e+2, -115383.74, -233634.31, -33731.684, -0.00040554747, -0.20209713, -106438.28, -52862.555, 0.0, 10.000202, 9.998628 
1.6450605e+3, 3.0452895e+2, -97517.68, -167291.14, 33915.85, -0.0011434173, -0.25619197, -83748.8, -83748.8, 0.0, 9.999849, 9.99892 
1.6450663e+3, 3.1452724e+2, -114668.16, 8536.333, 22463.527, 0.046709333, -0.32937244, 12504.254, 12504.254, 0.0, 9.998935, 10.000569 
1.6549957e+3, 1.2454181e+2, -1526316.6, -1647209.5, -115478.96, -0.0052008913, -0.29359236, -1456420.5, 263046.78, 0.038870342, 10.00146, 9.999775 
1.6549996e+3, 1.3454235e+2, -1526715.3, -1660458.8, 47781.625, -0.12833086, -0.16579196, -1511398.6, 110062.984, 0.024226949, 10.001004, 9.999225 
1.6550063e+3, 1.4454086e+2, -1456196.1, -1584001.6, -28341.604, 0.10939287, -0.22958903, -1450193.1, 73282.82, 0.011408221, 10.00085, 9.99914 
1.6550077e+3, 1.5453963e+2, -1306199.5, -1460408.8, -25833.238, -0.042638004, -0.2733597, -1301986.9, 123501.08, 0.0034157853, 10.001203, 9.999145 
1.6550104e+3, 1.6453858e+2, -1207693.8, -1383599.8, -14178.184, -0.108010076, -0.2806805, -1206558.3, 120940.07, 0.00045137366, 10.001295, 9.998954 
1.655015e+3, 1.7453785e+2, -1138935.6, -1298902.3, -8233.437, -0.0020189765, -0.25280723, -1138513.0, 90992.8, 0.000008273259, 10.00109, 9.9989605 
1.6550185e+3, 1.8453696e+2, -1083949.0, -1231394.6, -43077.406, 0.027410284, -0.23306346, -1072286.1, 59229.14, 0.0, 10.000836, 9.998875 
1.6550204e+3, 1.9453588e+2, -1031556.1, -1154606.4, -58255.984, -0.056544974, -0.23241374, -1008351.7, 25174.756, 0.0, 10.000519, 9.998882 
1.6550232e+3, 2.0453495e+2, -926923.06, -1004367.6, -33106.39, -0.0750041, -0.23282151, -914699.8, 20835.875, 0.0, 10.000352, 9.999323 
1.6550274e+3, 2.1453424e+2, -822560.6, -898822.3, -15747.906, -0.0060350527, -0.24466255, -819436.6, 18104.977, 0.0, 10.000376, 9.999363 
1.6550311e+3, 2.2453344e+2, -777281.3, -882786.75, -31335.445, 0.015874146, -0.23417234, -768676.4, -29126.738, 0.0, 10.000257, 9.998859 
1.6550338e+3, 2.345326e+2, -720811.3, -804511.0, -47407.63, -0.02090712, -0.20915696, -699424.3, -57865.047, 0.0, 9.9999695, 9.998861 
1.6550371e+3, 2.4453156e+2, -625496.9, -689341.94, -30504.93, -0.033673465, -0.20367421, -613265.2, -69695.17, 0.0, 9.999873, 9.999024 
1.655041e+3, 2.545304e+2, -505596.72, -576761.9, -25808.953, -0.018226955, -0.22807708, -497222.25, -51641.52, 0.0, 10.000006, 9.999061 
1.6550449e+3, 2.6452944e+2, -413722.9, -497264.56, -20263.236, -0.017409142, -0.22021095, -409067.44, -61477.89, 0.0, 10.000031, 9.99892 
1.6550486e+3, 2.7452874e+2, -327615.72, -403888.4, -27360.91, -0.03379008, -0.19091186, -318815.94, -69219.93, 0.0, 9.999946, 9.998929 
1.6550525e+3, 2.845273e+2, -221948.05, -305436.28, -27674.656, -0.039509878, -0.22171257, -213607.66, -61998.652, 0.0, 10.0000105, 9.998901 
1.6550563e+3, 2.9452538e+2, -94013.55, -189964.84, -25652.354, -0.03741911, -0.31021765, -87586.016, -33959.605, 0.0, 10.000203, 9.998928 
1.6550602e+3, 3.0452448e+2, -101325.59, -174630.56, 786.4361, -0.03395423, -0.28929812, -101317.16, -101317.16, 0.0, 9.999846, 9.998872 
1.6550657e+3, 3.145241e+2, -116830.734, 3842.9607, -3212.7593, 0.0872294, -0.22000726, 3928.435, 3928.435, 0.0, 9.998936, 10.000536 
1.6649972e+3, 1.2453796e+2, -1517907.4, -1663339.3, -68648.38, -0.0056450046, -0.2814635, -1490622.3, 228883.34, 0.04162856, 10.001618, 9.999583 
1.6650003e+3, 1.3453843e+2, -1509904.1, -1647920.1, 42220.28, -0.15122731, -0.16429101, -1498013.1, 123487.23, 0.026035924, 10.00111, 9.999257 
1.6650075e+3, 1.4453681e+2, -1451799.1, -1574085.0, -17288.006, 0.14015347, -0.24670841, -1449402.1, 74113.83, 0.012337034, 10.000848, 9.9992075 
1.665009e+3, 1.54536e+2, -1324862.9, -1461666.3, -14481.04, -0.04020256, -0.25415093, -1323346.8, 102177.27, 0.003736676, 10.001041, 9.999213 
1.6650116e+3, 1.6453509e+2, -1236324.4, -1397708.1, -19528.43, -0.11674379, -0.2505274, -1233994.9, 93538.13, 0.00050616945, 10.0011, 9.998951 
1.665016e+3, 1.7453422e+2, -1155026.8, -1307809.1, -20326.012, -0.0015310469, -0.23864883, -1152368.9, 77172.86, 0.000009797576, 10.000984, 9.998951 
1.6650192e+3, 1.8453316e+2, -1088191.1, -1254373.5, -49439.324, 0.030145345, -0.22276874, -1074595.3, 56957.574, 0.0, 10.000896, 9.998688 
1.665021e+3, 1.94532e+2, -996047.06, -1158648.6, -48279.516, -0.06083716, -0.21238287, -982792.4, 50773.31, 0.0, 10.000855, 9.998692 
1.6650237e+3, 2.0453097e+2, -875029.56, -977549.3, -23727.76, -0.08014142, -0.21291794, -869804.2, 65771.625, 0.0, 10.000702, 9.999337 
1.6650279e+3, 2.1453018e+2, -817287.94, -893699.06, -35308.48, -0.004885937, -0.23596324, -803470.9, 34110.67, 0.0, 10.000402, 9.999385 
1.6650313e+3, 2.2452927e+2, -780758.2, -899195.06, -53065.41, 0.022390213, -0.23167911, -760460.8, -20870.395, 0.0, 10.000298, 9.998726 
1.6650341e+3, 2.3452827e+2, -665243.2, -793975.75, -49965.508, -0.010963349, -0.20680998, -648125.9, -6523.708, 0.0, 10.0004225, 9.998714 
1.6650373e+3, 2.4452718e+2, -561484.94, -656890.0, -26447.78, -0.029600147, -0.20072332, -554643.75, -11030.18, 0.0, 10.000306, 9.999039 
1.6650409e+3, 2.5452608e+2, -519194.0, -581103.7, -31039.635, -0.030967236, -0.2225071, -506312.06, -60688.97, 0.0, 9.999905, 9.999079 
1.6650446e+3, 2.6452512e+2, -460292.97, -518104.6, -19440.64, -0.032220107, -0.21670967, -454363.66, -106732.08, 0.0, 9.999706, 9.998933 
1.6650485e+3, 2.745243e+2, -359386.03, -418280.53, -14802.784, -0.03148446, -0.1981603, -355874.78, -106235.734, 0.0, 9.999724, 9.998937 
1.6650523e+3, 2.845228e+2, -273279.56, -326806.0, -13503.607, -0.0279167, -0.23848557, -270065.84, -118413.03, 0.0, 9.999645, 9.99893 
1.6650562e+3, 2.9452088e+2, -200129.72, -236274.58, -33168.188, -0.026636742, -0.3313804, -180429.92, -126759.57, 0.0, 9.999455, 9.998969 
1.6650596e+3, 3.0452046e+2, -159382.52, -190136.45, -24121.475, -0.03890811, -0.2689446, -146153.6, -146153.6, 0.0, 9.999395, 9.998981 
1.6650648e+3, 3.1452e+2, -43546.125, 27507.54, -9088.282, 0.08994587, -0.21625185, 28651.576, 28651.576, 0.0, 9.99949, 10.000432 
1.6749988e+3, 1.2453517e+2, -1553828.0, -1739241.4, -56173.79, 0.008359029, -0.21369532, -1538137.1, 181395.48, 0.04455171, 10.00162, 9.999051 
1.6750008e+3, 1.3453405e+2, -1527531.9, -1685806.9, 21551.285, -0.22187217, -0.22851409, -1524649.9, 96892.99, 0.027968736, 10.001113, 9.998995 
1.6750081e+3, 1.4453208e+2, -1449546.4, -1569264.5, -13482.052, 0.11904389, -0.33192912, -1448046.9, 75515.33, 0.013341848, 10.000847, 9.999242 
1.6750106e+3, 1.5453278e+2, -1321297.3, -1454050.8, -6073.1777, 0.011609575, -0.19573289, -1321020.0, 104536.766, 0.004089343, 10.001039, 9.999268 
1.6750132e+3, 1.6453242e+2, -1240718.5, -1406956.5, -23826.479, -0.06801007, -0.13711026, -1237371.0, 90190.14, 0.0005678562, 10.001099, 9.998889 
1.6750164e+3, 1.7453097e+2, -1160072.4, -1318928.0, -24422.61, -0.05046044, -0.17549296, -1156402.4, 73173.516, 0.000011659807, 10.000985, 9.998875 
1.6750197e+3, 1.8452953e+2, -1086077.6, -1249724.8, -51568.82, -0.030247089, -0.19672234, -1071182.8, 60407.836, 0.0, 10.000895, 9.998721 
1.6750222e+3, 1.9452818e+2, -993610.75, -1153861.6, -48826.027, -0.026257694, -0.20993534, -979906.2, 53698.26, 0.0, 10.0008545, 9.998726 
1.675025e+3, 2.0452705e+2, -897862.8, -1024654.44, -34852.195, -0.032912906, -0.20551693, -888914.3, 46701.01, 0.0, 10.0007, 9.999016 
1.6750279e+3, 2.1452633e+2, -841534.7, -944211.06, -45455.223, -0.044229224, -0.18900274, -824303.3, 13318.212, 0.0, 10.0004015, 9.99904 
1.6750312e+3, 2.2452529e+2, -773667.5, -883708.9, -48820.574, -0.035490226, -0.18341763, -755130.56, -15499.121, 0.0, 10.000293, 9.998835 
1.6750346e+3, 2.3452398e+2, -656711.56, -775922.3, -43584.85, -0.0054935166, -0.20232038, -642476.3, -831.4112, 0.0, 10.00042, 9.998841 
1.6750379e+3, 2.4452277e+2, -567290.1, -668686.25, -40177.68, -0.008280313, -0.21054064, -553300.1, -9643.495, 0.0, 10.000303, 9.99896 
1.6750407e+3, 2.545218e+2, -525057.75, -594506.9, -43997.51, -0.0510526, -0.21291962, -503732.53, -58067.465, 0.0, 9.9999075, 9.998986 
1.675044e+3, 2.6452073e+2, -448328.38, -494341.53, -18357.693, -0.05669176, -0.21964838, -441901.84, -94227.84, 0.0, 9.999709, 9.999096 
1.6750483e+3, 2.7451956e+2, -346177.03, -391838.53, -12098.0, -0.01521437, -0.25223017, -343169.75, -93485.945, 0.0, 9.999727, 9.999118 
1.6750525e+3, 2.845182e+2, -287164.03, -356651.5, -19512.256, 0.016263442, -0.27534047, -282059.88, -130363.55, 0.0, 9.999648, 9.998724 
1.6750562e+3, 2.9451716e+2, -214125.03, -266341.72, -37623.695, 0.025478883, -0.26241004, -194438.31, -140730.45, 0.0, 9.999458, 9.998762 
1.6750593e+3, 3.045168e+2, -141944.69, -154423.17, -20459.834, -0.020174794, -0.19595051, -126793.914, -126793.914, 0.0, 9.999395, 9.999228 
1.6750638e+3, 3.145152e+2, -60666.727, -8371.765, 12951.487, 0.039936215, -0.28123873, -5339.9414, -5339.9414, 0.0, 9.999491, 10.000185 
1.6850008e+3, 1.24531604e+2, -1530832.0, -1761560.0, -56655.26, 0.023201171, -0.1863859, -1517671.0, 201897.16, 0.04763037, 10.00194, 9.998742 
1.685002e+3, 1.3453016e+2, -1453803.8, -1656460.1, -7794.5205, -0.25096485, -0.22911948, -1453504.4, 168077.69, 0.030026976, 10.001668, 9.998929 
1.6850092e+3, 1.4452817e+2, -1380265.4, -1537481.6, -22738.086, 0.114944294, -0.33023232, -1377042.8, 146558.86, 0.014428621, 10.001337, 9.999225 
1.6850117e+3, 1.5452893e+2, -1318302.5, -1453906.5, -20670.945, 0.023272699, -0.1840329, -1315221.5, 110373.516, 0.0044782558, 10.001064, 9.999256 
1.6850142e+3, 1.6452856e+2, -1263224.1, -1419068.5, -37127.89, -0.058322445, -0.12585217, -1254830.9, 72768.67, 0.0006375465, 10.00095, 9.998877 
1.6850173e+3, 1.7452699e+2, -1153594.9, -1316710.3, -33995.46, -0.06614829, -0.17549655, -1146793.4, 82822.52, 0.00001399049, 10.001036, 9.998865 
1.6850203e+3, 1.8452561e+2, -1056343.4, -1222907.0, -57034.668, -0.044506557, -0.19584256, -1038685.56, 92944.336, 0.0, 10.001045, 9.998833 
1.6850233e+3, 1.9452454e+2, -972269.3, -1131252.1, -50175.805, -0.007906721, -0.19206645, -957758.1, 75882.375, 0.0, 10.000948, 9.9988365 
1.6850258e+3, 2.0452338e+2, -897241.6, -1045346.44, -34331.875, -0.009689662, -0.18591619, -889670.3, 45981.18, 0.0, 10.000793, 9.998829 
1.6850284e+3, 2.1452229e+2, -829889.06, -960483.1, -36123.25, -0.05002365, -0.18575023, -820563.1, 17098.666, 0.0, 10.000577, 9.998842 
1.6850312e+3, 2.2452112e+2, -763429.9, -866466.6, -27616.299, -0.052138917, -0.18976541, -756494.8, -16821.928, 0.0, 10.000312, 9.998943 
1.6850348e+3, 2.3451993e+2, -711952.8, -788680.9, -23832.77, -0.01112841, -0.20912568, -705152.7, -63468.664, 0.0, 9.999984, 9.998962 
1.6850379e+3, 2.4451873e+2, -628380.3, -700474.25, -17676.281, -0.0050961217, -0.22154178, -624279.6, -80584.58, 0.0, 9.999897, 9.998937 
1.6850406e+3, 2.5451759e+2, -501081.56, -587123.2, -19226.59, -0.041333787, -0.23443055, -496980.7, -51275.887, 0.0, 10.000092, 9.998948 
1.685044e+3, 2.6451647e+2, -408107.56, -482752.7, -1967.2323, -0.046080537, -0.24267457, -408055.75, -60340.996, 0.0, 10.00002, 9.999025 
1.685048e+3, 2.7451536e+2, -364807.25, -409168.9, -15969.775, -0.011020652, -0.26274455, -359656.34, -109931.67, 0.0, 9.999636, 9.999042 
1.685052e+3, 2.845142e+2, -314362.97, -364583.25, -20103.176, 0.017795624, -0.26918584, -307307.03, -155570.88, 0.0, 9.99944, 9.99877 
1.6850556e+3, 2.9451326e+2, -212072.94, -257925.67, -20084.488, 0.03359163, -0.24461615, -204519.72, -150773.52, 0.0, 9.999441, 9.998828 
1.6850586e+3, 3.0451283e+2, -157501.23, -131319.36, 3670.6418, -0.01738904, -0.20237848, -130814.48, -130814.48, 0.0, 9.999159, 9.999498 
1.6850625e+3, 3.145116e+2, -205186.2, -86944.54, 50592.36, 0.0018186755, -0.27529377, -68252.39, -68252.39, 0.0, 9.998535, 10.000107 
1.6950028e+3, 1.245271e+2, -1539360.1, -1779073.0, -26971.744, 0.025553271, -0.21775652, -1536362.8, 183251.13, 0.05086495, 10.001939, 9.998622 
1.6950037e+3, 1.3452673e+2, -1446531.1, -1638691.3, -18833.938, -0.24261464, -0.16490337, -1444702.6, 176915.06, 0.032215923, 10.001662, 9.999053 
1.6950107e+3, 1.44525e+2, -1386628.5, -1550539.1, -35006.984, 0.12458881, -0.24198917, -1379465.0, 144169.22, 0.015604373, 10.001335, 9.999138 
1.6950125e+3, 1.5452448e+2, -1323855.1, -1466854.8, -30557.307, -0.00974187, -0.21792905, -1317599.0, 108039.93, 0.0049088504, 10.001069, 9.9991665 
1.6950148e+3, 1.6452353e+2, -1259550.9, -1412054.4, -35134.508, -0.09295374, -0.21482795, -1251845.8, 75802.6, 0.0007170378, 10.000951, 9.998926 
1.6950186e+3, 1.7452225e+2, -1149437.0, -1308770.0, -29751.95, -0.051822446, -0.23955007, -1144062.8, 85598.9, 0.000016975888, 10.001037, 9.99892 
1.6950217e+3, 1.8452138e+2, -1044542.8, -1197755.3, -60496.44, -0.016576841, -0.22044466, -1023535.8, 108134.9, 0.0, 10.001041, 9.999008 
1.6950242e+3, 1.9452107e+2, -960017.25, -1105738.0, -53097.66, -0.007865656, -0.15898558, -942722.25, 90951.73, 0.0, 10.000946, 9.999014 
1.6950266e+3, 2.0451999e+2, -901690.06, -1053531.1, -42462.75, -0.012579309, -0.15383065, -890622.0, 45062.5, 0.0, 10.000789, 9.9987755 
1.6950291e+3, 2.1451809e+2, -834871.3, -970523.56, -43127.758, -0.025951024, -0.22665425, -822320.94, 15381.793, 0.0, 10.000574, 9.9987755 
1.6950317e+3, 2.2451672e+2, -755992.9, -850497.7, -39870.207, -0.032033935, -0.25077146, -741419.5, -1704.2529, 0.0, 10.000309, 9.999055 
1.6950345e+3, 2.3451608e+2, -703803.6, -772314.94, -34518.297, -0.03116584, -0.22744939, -689428.44, -47708.45, 0.0, 9.999985, 9.999075 
1.6950376e+3, 2.44515e+2, -627488.1, -698446.8, -10468.845, -0.022787908, -0.23421457, -625975.8, -82246.58, 0.0, 9.999894, 9.998952 
1.6950412e+3, 2.545135e+2, -500441.94, -585860.44, -9830.85, -0.00489378, -0.28637505, -499325.1, -53582.254, 0.0, 10.000091, 9.998958 
1.6950445e+3, 2.6451233e+2, -429686.7, -527965.5, -14541.32, -0.0036983239, -0.2849897, -427580.3, -79826.02, 0.0, 10.00002, 9.998715 
1.6950476e+3, 2.7451167e+2, -387476.1, -457786.16, -27983.092, -0.024630358, -0.22855735, -377698.63, -127936.42, 0.0, 9.999641, 9.998706 
1.695051e+3, 2.8451055e+2, -294305.47, -324401.38, -19896.24, -0.027556846, -0.22009043, -284407.44, -132634.33, 0.0, 9.999445, 9.999044 
1.6950548e+3, 2.945091e+2, -189955.28, -211075.64, -17650.97, -0.006382998, -0.2767836, -179946.7, -126160.46, 0.0, 9.999435, 9.999154 
1.6950576e+3, 3.0450845e+2, -136702.66, -88641.45, -18280.953, -0.03509456, -0.29196483, -82478.3, -82478.3, 0.0, 9.99916, 9.999793 
1.6950607e+3, 3.145095e+2, -189829.98, -58704.35, 44805.53, -0.039632168, -0.16316795, -44856.727, -44856.727, 0.0, 9.998549, 10.000294 
1.705005e+3, 1.2452324e+2, -1489892.1, -1765628.8, 28688.781, 0.031189937, -0.22401835, -1486938.9, 232713.11, 0.054258425, 10.002353, 9.998515 
1.7050055e+3, 1.3452303e+2, -1429740.5, -1630156.4, -17978.764, -0.23137535, -0.1542903, -1428140.5, 193513.84, 0.034540452, 10.001788, 9.99905 
1.705012e+3, 1.4452153e+2, -1376936.1, -1552469.6, -24964.674, 0.123354115, -0.20575726, -1373454.8, 150214.23, 0.016874576, 10.001435, 9.999075 
1.7050135e+3, 1.5452047e+2, -1277202.0, -1451448.3, -18907.62, -0.021401959, -0.22884545, -1275173.9, 150504.8, 0.0053858333, 10.001423, 9.999102 
1.7050159e+3, 1.6451938e+2, -1207269.0, -1375712.1, -19055.285, -0.10117213, -0.24186009, -1205140.3, 122548.81, 0.00080826663, 10.001261, 9.999026 
1.7050196e+3, 1.7451845e+2, -1158359.1, -1301486.5, -11533.177, -0.042838793, -0.2432002, -1157435.8, 72262.695, 0.000020835996, 10.000925, 9.999025 
1.7050228e+3, 1.8451762e+2, -1092557.3, -1219617.9, -43817.313, -0.0040647155, -0.22351737, -1078912.1, 52794.492, 0.0, 10.000706, 9.99902 
1.705025e+3, 1.9451705e+2, -1005126.44, -1125995.0, -50583.926, -0.009263337, -0.18969047, -986750.6, 46961.66, 0.0, 10.000632, 9.999024 
1.7050274e+3, 2.0451601e+2, -928307.94, -1059750.8, -43170.715, -0.015308351, -0.18456091, -915397.2, 20325.432, 0.0, 10.000579, 9.998833 
1.7050298e+3, 2.1451451e+2, -836803.8, -965271.8, -36143.777, -0.0159337, -0.22253017, -827333.2, 10404.224, 0.0, 10.000536, 9.99883 
1.7050323e+3, 2.2451325e+2, -732904.25, -841917.1, -34457.05, -0.022643195, -0.2378544, -722926.25, 16822.736, 0.0, 10.00048, 9.999031 
1.7050347e+3, 2.3451236e+2, -644137.5, -747068.8, -42873.516, -0.038645327, -0.23738916, -628619.2, 13136.725, 0.0, 10.000411, 9.9990425 
1.7050377e+3, 2.4451123e+2, -585112.44, -675497.0, -21026.61, -0.02883066, -0.24711585, -580460.4, -36694.86, 0.0, 10.000175, 9.998974 
1.7050412e+3, 2.5450996e+2, -550602.3, -606856.75, -20661.7, 0.013421078, -0.27989215, -543829.0, -98051.77, 0.0, 9.999735, 9.998983 
1.7050445e+3, 2.645088e+2, -494654.7, -560813.75, -12252.884, 0.017003305, -0.27484158, -492458.3, -144669.72, 0.0, 9.999584, 9.998699 
1.7050472e+3, 2.74508e+2, -371076.66, -452386.53, -4711.1807, -0.029202214, -0.2306857, -370804.6, -121006.27, 0.0, 9.999766, 9.998682 
1.7050505e+3, 2.8450704e+2, -269851.1, -295050.84, 3859.1487, -0.04519196, -0.21617627, -269273.34, -117465.266, 0.0, 9.999539, 9.9992 
1.7050539e+3, 2.9450592e+2, -264031.13, -228994.39, -5817.3564, -0.016178295, -0.2576568, -228053.75, -174236.13, 0.0, 9.998852, 9.999311 
1.7050566e+3, 3.045048e+2, -221937.52, -134814.1, -20701.865, -0.019978011, -0.32014808, -130145.21, -130145.21, 0.0, 9.998597, 9.999746 
1.705059e+3, 3.145062e+2, -146659.95, -19018.87, 24163.986, -0.071595244, -0.15594769, -14597.489, -14597.489, 0.0, 9.998767, 10.000461 
1.7150074e+3, 1.2451979e+2, -1500863.3, -1785781.1, 48151.266, 0.032567237, -0.22589278, -1492945.6, 226738.75, 0.05779923, 10.002339, 9.998387 
1.7150073e+3, 1.3451909e+2, -1437628.6, -1647194.1, -39567.227, -0.22380024, -0.19489953, -1430407.0, 191285.06, 0.03699678, 10.001791, 9.998934 
1.7150132e+3, 1.4451778e+2, -1379623.6, -1558761.3, -27918.875, 0.1042415, -0.21855289, -1375373.3, 148332.17, 0.018240586, 10.001438, 9.999032 
1.7150152e+3, 1.545169e+2, -1280051.6, -1457328.4, -18724.559, -0.01506436, -0.21920839, -1278095.5, 147618.86, 0.0059123994, 10.001422, 9.999063 
1.7150174e+3, 1.6451609e+2, -1198021.3, -1355797.0, -31652.447, -0.086714566, -0.20844758, -1191908.1, 135813.95, 0.0009130127, 10.001257, 9.9991665 
1.7150205e+3, 1.7451555e+2, -1147644.9, -1280276.5, -23542.105, -0.042477623, -0.18625887, -1143590.1, 86136.5, 0.000025810483, 10.000928, 9.99917 
1.7150234e+3, 1.8451436e+2, -1103104.4, -1241689.1, -47615.02, -0.011615631, -0.20457357, -1088321.6, 43415.914, 0.0, 10.000705, 9.99887 
1.7150255e+3, 1.9451247e+2, -1016571.9, -1150241.1, -52345.785, -0.015230107, -0.28553054, -998512.75, 35242.832, 0.0, 10.000632, 9.998859 
1.7150278e+3, 2.0451143e+2, -917268.56, -1035984.8, -44819.387, -0.021436656, -0.27874544, -902248.2, 33517.883, 0.0, 10.000575, 9.998999 
1.7150302e+3, 2.1451153e+2, -825251.0, -940332.6, -36429.473, -0.023091735, -0.17399427, -814688.56, 23077.45, 0.0, 10.00053, 9.999004 
1.7150328e+3, 2.2451065e+2, -746352.2, -868327.2, -36985.668, -0.026881136, -0.15163194, -736013.56, 3760.9795, 0.0, 10.000472, 9.998854 
1.7150351e+3, 2.345087e+2, -658056.25, -775750.2, -43883.023, -0.03580831, -0.23923613, -643495.56, -1703.2802, 0.0, 10.000408, 9.998847 
1.7150378e+3, 2.4450737e+2, -583744.06, -671976.4, -36358.824, -0.026218476, -0.26067477, -570692.06, -26887.758, 0.0, 10.000172, 9.999 
1.715041e+3, 2.545069e+2, -548111.94, -602237.44, -35119.51, 0.008445304, -0.21535836, -530837.7, -85029.18, 0.0, 9.999736, 9.999015 
1.7150441e+3, 2.6450586e+2, -476024.7, -522911.75, -5591.6504, 0.0121423155, -0.21349274, -475367.06, -127548.6, 0.0, 9.999586, 9.99896 
1.715047e+3, 2.7450433e+2, -352111.63, -412621.56, 3726.4282, -0.027795048, -0.26852578, -351883.0, -102049.16, 0.0, 9.9997635, 9.998959 
1.7150499e+3, 2.8450352e+2, -267457.88, -289381.72, -20186.623, -0.039431512, -0.25627533, -255448.86, -103607.055, 0.0, 9.999536, 9.999241 
1.7150529e+3, 2.9450354e+2, -264042.72, -230284.7, -28241.22, -0.002970698, -0.18525134, -214262.83, -160421.75, 0.0, 9.998857, 9.9993 
1.7150557e+3, 3.0450183e+2, -250767.45, -197743.44, -15436.269, 0.021012919, -0.28609362, -193577.03, -193577.03, 0.0, 9.998608, 9.999311 
1.7150575e+3, 3.1450108e+2, -128977.195, 15903.112, 36733.043, -0.10439273, -0.29369664, 24684.215, 24684.215, 0.0, 9.998773, 10.000699 
1.7250098e+3, 1.24516316e+2, -1404940.9, -1724326.8, 65956.73, 0.0063811317, -0.23841597, -1391856.1, 327861.8, 0.061463173, 10.0029955, 9.998496 
1.7250095e+3, 1.3451558e+2, -1402060.4, -1628504.9, -53563.008, -0.19405662, -0.21410348, -1390029.8, 231696.11, 0.03957232, 10.0020485, 9.998938 
1.7250146e+3, 1.4451452e+2, -1383712.8, -1565438.9, -11340.446, 0.0992702, -0.21126351, -1383007.9, 140729.22, 0.019698907, 10.0014305, 9.99899 
1.7250165e+3, 1.5451361e+2, -1300558.6, -1472183.0, -2212.4795, -0.01429489, -0.20931259, -1300530.1, 125216.55, 0.0064899237, 10.001302, 9.999019 
1.7250186e+3, 1.6451278e+2, -1198010.9, -1354573.8, -21070.508, -0.08317961, -0.19761442, -1195224.8, 132529.81, 0.001032905, 10.001253, 9.999176 
1.7250216e+3, 1.7451221e+2, -1095119.0, -1254063.4, -24741.2, -0.043901097, -0.17981827, -1091356.9, 138402.0, 0.00003215152, 10.001285, 9.999178 
1.7250243e+3, 1.8451096e+2, -1033606.06, -1211366.9, -48967.09, -0.016419215, -0.20321691, -1021009.8, 110760.336, 0.0, 10.001197, 9.99884 
1.7250262e+3, 1.9450901e+2, -969934.1, -1131874.1, -45686.13, -0.021969132, -0.28677157, -957934.44, 75854.555, 0.0, 10.00097, 9.998823 
1.7250285e+3, 2.045079e+2, -898181.2, -1032035.3, -39734.695, -0.027548542, -0.28243208, -887274.56, 48525.6, 0.0, 10.000729, 9.998952 
1.7250307e+3, 2.1450794e+2, -837104.25, -951025.6, -50432.74, -0.02572621, -0.18161577, -817986.2, 19814.818, 0.0, 10.000473, 9.998958 
1.7250331e+3, 2.2450705e+2, -775853.5, -879328.06, -50572.063, -0.021383561, -0.15768832, -755242.44, -15432.787, 0.0, 10.0002575, 9.99888 
1.7250355e+3, 2.3450522e+2, -704011.06, -793984.06, -41918.85, -0.017650157, -0.2348233, -687507.94, -45681.43, 0.0, 10.000079, 9.9988785 
1.725038e+3, 2.4450395e+2, -621619.44, -690723.7, -31651.484, -0.015567759, -0.25156197, -609313.6, -65475.387, 0.0, 9.999918, 9.998992 
1.7250405e+3, 2.5450343e+2, -543391.4, -601962.94, -36672.4, -0.011976154, -0.21032564, -525746.1, -79903.0, 0.0, 9.99978, 9.998995 
1.7250434e+3, 2.6450244e+2, -472639.9, -494649.66, -4111.213, -0.008042771, -0.21348277, -471897.06, -124044.7, 0.0, 9.999495, 9.999197 
1.7250466e+3, 2.7450112e+2, -441271.9, -427187.88, 2508.1433, -0.011575132, -0.27305225, -426754.56, -176889.52, 0.0, 9.999031, 9.999209 
1.7250493e+3, 2.8450048e+2, -366532.75, -331333.28, -25541.016, -0.024630409, -0.25966242, -317915.38, -166044.1, 0.0, 9.998833, 9.99929 
1.7250516e+3, 2.945006e+2, -252047.83, -224221.95, -34152.656, -0.028467188, -0.18409945, -201257.06, -147386.66, 0.0, 9.99894, 9.999301 
1.7250544e+3, 3.0449906e+2, -239716.48, -212281.56, -7955.5366, 0.032734707, -0.25668916, -210141.56, -210141.56, 0.0, 9.998771, 9.999133 
1.725056e+3, 3.1449774e+2, -185764.72, 29815.25, 55577.555, -0.10053063, -0.3050821, 43299.934, 43299.934, 0.0, 9.998207, 10.001068 
1.7350122e+3, 1.2451284e+2, -1390853.1, -1688539.5, 60815.95, -0.057351742, -0.26333982, -1378908.1, 340844.25, 0.06523749, 10.002979, 9.998759 
1.7350121e+3, 1.3451245e+2, -1395866.1, -1613356.5, -89542.08, -0.14705451, -0.21533152, -1363745.1, 258011.17, 0.042257246, 10.002044, 9.99905 
1.7350161e+3, 1.4451168e+2, -1387153.5, -1572002.9, -18805.127, 0.10535237, -0.18528546, -1385259.8, 138504.33, 0.021244539, 10.001428, 9.998947 
1.7350177e+3, 1.545106e+2, -1302843.3, -1478963.5, -5965.381, -0.023434957, -0.197224, -1302641.4, 123134.15, 0.007118056, 10.001309, 9.99897 
1.7350198e+3, 1.6450949e+2, -1206007.6, -1371930.9, -20655.04, -0.09778849, -0.2073283, -1203475.1, 124311.25, 0.0011691411, 10.001255, 9.999057 
1.7350228e+3, 1.7450842e+2, -1103984.1, -1272532.9, -22782.857, -0.05006836, -0.2253566, -1100958.9, 128836.47, 0.00004011834, 10.001284, 9.999052 
1.7350255e+3, 1.8450743e+2, -1029008.94, -1200615.0, -57011.97, -0.021145673, -0.22042415, -1011794.9, 120009.72, 0.0, 10.00119, 9.998919 
1.7350273e+3, 1.9450668e+2, -964638.06, -1120269.0, -52883.97, -0.03289585, -0.19383915, -948368.6, 85444.0, 0.0, 10.000966, 9.998906 
1.735029e+3, 2.045054e+2, -917399.56, -1070985.6, -49654.668, -0.03788104, -0.19589168, -902744.5, 33080.81, 0.0, 10.000723, 9.998688 
1.7350313e+3, 2.1450365e+2, -857596.06, -993555.0, -58651.066, -0.026755072, -0.24610125, -835791.56, 2051.1035, 0.0, 10.000471, 9.998668 
1.7350335e+3, 2.245024e+2, -760054.44, -845443.1, -56943.934, -0.009701958, -0.25584066, -731577.0, 8277.793, 0.0, 10.000253, 9.999116 
1.735036e+3, 2.3450191e+2, -686786.94, -757060.75, -46694.848, 0.011462797, -0.22425635, -663485.75, -21626.762, 0.0, 10.000073, 9.999136 
1.735038e+3, 2.4450095e+2, -626913.5, -700606.25, -36275.44, -0.0011205104, -0.22016048, -612053.4, -68185.51, 0.0, 9.999911, 9.998928 
1.73504e+3, 2.544995e+2, -548987.5, -613934.7, -39856.73, -0.050371543, -0.26425773, -530050.06, -84168.336, 0.0, 9.99978, 9.998913 
1.7350425e+3, 2.644985e+2, -457844.88, -464275.2, -20080.416, -0.04631333, -0.27371323, -440723.84, -92832.93, 0.0, 9.9994955, 9.999405 
1.7350459e+3, 2.744983e+2, -424995.75, -395196.03, -13181.117, 0.012772222, -0.24247055, -390202.47, -140309.92, 0.0, 9.999038, 9.999427 
1.7350483e+3, 2.8449783e+2, -361596.7, -323145.03, -22029.424, -0.0072133746, -0.22679901, -313131.72, -161234.28, 0.0, 9.998839, 9.999345 
1.7350498e+3, 2.9449692e+2, -251477.23, -224447.36, -27442.623, -0.09591781, -0.25767022, -207372.25, -153465.27, 0.0, 9.998943, 9.9993 
1.7350529e+3, 3.044964e+2, -235558.0, -203462.5, -27655.025, 0.011360189, -0.22704718, -187536.34, -187536.34, 0.0, 9.99877, 9.999194 
1.7350546e+3, 3.1449533e+2, -154374.8, 94466.53, 15059.304, -0.062007487, -0.2638641, 95374.57, 95374.57, 0.0, 9.99821, 10.00151 
1.7450146e+3, 1.2451004e+2, -1521354.9, -1749067.6, 90148.96, -0.063924275, -0.24353082, -1489987.0, 229792.81, 0.069128506, 10.002006, 9.998812 
1.7450143e+3, 1.3450925e+2, -1384584.3, -1617627.6, -101302.45, -0.13349815, -0.22725554, -1346705.5, 275081.88, 0.045049455, 10.002176, 9.998958 
1.7450173e+3, 1.4450833e+2, -1283347.1, -1522512.4, -27766.832, 0.047314655, -0.20789377, -1280165.8, 243630.81, 0.022873743, 10.00217, 9.998929 
1.7450193e+3, 1.5450743e+2, -1208084.1, -1434848.9, -14783.323, -0.02410175, -0.19907385, -1207124.5, 218681.39, 0.0077954754, 10.001976, 9.99895 
1.7450215e+3, 1.6450627e+2, -1148113.0, -1348075.1, -26139.25, -0.07311776, -0.21053563, -1144752.5, 183064.38, 0.0013223072, 10.001671, 9.99902 
1.7450243e+3, 1.7450486e+2, -1112181.8, -1280715.9, -23407.22, -0.040892746, -0.25888318, -1108991.1, 120838.13, 0.000049909977, 10.001247, 9.999013 
1.7450266e+3, 1.8450393e+2, -1060526.3, -1213591.4, -54392.348, -0.020274393, -0.24859557, -1043166.5, 88671.86, 0.0000000000000006446772, 10.000966, 9.998937 
1.745028e+3, 1.9450365e+2, -979967.9, -1125137.0, -56621.664, -0.03294105, -0.17412363, -960495.2, 73346.92, 0.0, 10.000853, 9.998925 
1.7450298e+3, 2.0450251e+2, -916711.7, -1060394.3, -44645.906, -0.037351288, -0.1715695, -903969.1, 31884.598, 0.0, 10.000686, 9.998777 
1.7450318e+3, 2.1450037e+2, -853386.5, -981306.6, -26961.934, -0.024419835, -0.26738328, -847935.94, -10062.121, 0.0, 10.000457, 9.998757 
1.7450339e+3, 2.2449903e+2, -768334.9, -852639.25, -18367.332, -0.006042689, -0.28775764, -764507.0, -24620.395, 0.0, 10.000211, 9.999086 
1.745036e+3, 2.3449881e+2, -707776.06, -771467.2, -32427.063, 0.015717704, -0.22636583, -694172.1, -52282.95, 0.0, 9.9999485, 9.999097 
1.745038e+3, 2.4449801e+2, -629827.0, -679948.44, -18301.496, 0.0006673809, -0.21379678, -623855.75, -79958.945, 0.0, 9.999797, 9.999124 
1.7450397e+3, 2.544966e+2, -536169.75, -584219.9, -1338.4678, -0.054726973, -0.27274498, -536132.5, -90223.11, 0.0, 9.999769, 9.999121 
1.745042e+3, 2.6449573e+2, -456449.0, -472648.97, 6902.094, -0.052346356, -0.2798095, -453907.16, -105989.53, 0.0, 9.999547, 9.999321 
1.7450449e+3, 2.7449563e+2, -424586.9, -406434.53, -12427.195, 0.0087063, -0.2290218, -400122.0, -150203.0, 0.0, 9.999093, 9.999322 
1.745047e+3, 2.8449503e+2, -362004.97, -300797.3, -13809.191, -0.015410492, -0.22767654, -297826.03, -145901.06, 0.0, 9.998741, 9.999545 
1.7450483e+3, 2.9449388e+2, -304393.4, -229638.6, -7411.323, -0.1103926, -0.30301493, -228910.9, -174974.81, 0.0, 9.998496, 9.999478 
1.7450517e+3, 3.0449426e+2, -287469.78, -235046.23, -5848.403, 0.022917237, -0.19024038, -234401.7, -234401.7, 0.0, 9.998441, 9.999137 
1.7450528e+3, 3.1449273e+2, -118538.695, 91955.99, -11044.971, -0.07988255, -0.26881582, 92533.945, 92533.945, 0.0, 9.998544, 10.001332 
1.755017e+3, 1.2450807e+2, -1536073.9, -1776389.1, 107886.945, -0.015364147, -0.16996507, -1494746.4, 225052.86, 0.0731461, 10.001989, 9.998636 
1.7550163e+3, 1.3450602e+2, -1405283.8, -1661301.1, -95431.07, -0.15790483, -0.25024554, -1373626.3, 248192.8, 0.04794812, 10.002178, 9.998656 
1.7550182e+3, 1.4450447e+2, -1284580.4, -1524152.0, -35126.32, -0.08107241, -0.27589777, -1279536.4, 244297.53, 0.02458278, 10.002169, 9.998919 
1.7550214e+3, 1.5450408e+2, -1208816.8, -1435650.3, -21524.363, -0.019919822, -0.21631302, -1206792.4, 219045.36, 0.008520388, 10.001974, 9.998946 
1.7550237e+3, 1.6450313e+2, -1146131.9, -1342742.0, -42210.37, -0.013065552, -0.2090102, -1137452.9, 190393.67, 0.0014925124, 10.001664, 9.999061 
1.7550257e+3, 1.7450154e+2, -1109584.3, -1275511.4, -38614.24, -0.020855542, -0.27915862, -1101038.1, 128822.48, 0.00006156021, 10.001246, 9.999049 
1.7550275e+3, 1.8450041e+2, -1063274.4, -1219397.8, -59313.75, -0.01998896, -0.2866531, -1043296.5, 88575.086, 0.0000000010737394, 10.000965, 9.998898 
1.7550291e+3, 1.9449994e+2, -983338.06, -1132579.3, -59599.355, -0.025307812, -0.22818872, -962458.3, 71419.47, 0.0, 10.000853, 9.998875 
1.7550305e+3, 2.0449913e+2, -886429.6, -996878.75, -52855.363, -0.0284507, -0.20892343, -865211.75, 70674.016, 0.0, 10.000682, 9.999216 
1.7550322e+3, 2.1449804e+2, -821892.56, -914599.25, -34035.254, -0.02247301, -0.24563566, -810739.1, 27155.664, 0.0, 10.000449, 9.99922 
1.7550339e+3, 2.2449693e+2, -790519.56, -897363.25, -27819.27, -0.014655957, -0.25446954, -783710.1, -43804.5, 0.0, 10.000204, 9.998783 
1.7550357e+3, 2.344959e+2, -732384.56, -822982.0, -40303.082, -0.0072312374, -0.24162848, -717050.7, -75132.945, 0.0, 9.9999485, 9.998744 
1.7550376e+3, 2.444951e+2, -598202.8, -613865.0, -19349.85, -0.013355747, -0.23204659, -585159.44, -41233.82, 0.0, 9.999795, 9.999578 
1.7550397e+3, 2.5449473e+2, -501792.72, -512537.03, -803.16785, -0.030219726, -0.23627013, -501733.0, -55806.047, 0.0, 9.999767, 9.999615 
1.7550418e+3, 2.6449403e+2, -483248.5, -528584.5, -8950.0, -0.031491503, -0.23302354, -481545.6, -133612.16, 0.0, 9.999547, 9.998938 
1.7550437e+3, 2.7449298e+2, -454123.3, -469083.44, -27323.463, -0.026696507, -0.23381145, -433274.53, -183329.2, 0.0, 9.999096, 9.998891 
1.7550454e+3, 2.8449202e+2, -338362.5, -252025.11, -23047.777, -0.05222566, -0.2629813, -246257.75, -94302.92, 0.0, 9.998742, 9.999879 
1.7550471e+3, 2.944914e+2, -278329.25, -178558.89, -15615.162, -0.079152524, -0.3215643, -176172.05, -122213.08, 0.0, 9.9985075, 9.999824 
1.7550506e+3, 3.0449256e+2, -296390.0, -255529.48, -1032.5321, 0.058705185, -0.14034824, -255503.4, -255503.4, 0.0, 9.998448, 9.998993 
1.7550507e+3, 3.1449062e+2, -195104.47, -64554.293, -50180.895, -0.13374756, -0.24221453, -47494.945, -47494.945, 0.0, 9.998534, 10.00026 
1.7650193e+3, 1.24504976e+2, -1449170.1, -1721306.0, 88742.96, -0.020559916, -0.17635243, -1422788.8, 297040.78, 0.07730057, 10.002598, 9.998718 
1.7650189e+3, 1.3450313e+2, -1371802.1, -1639290.0, -93806.48, -0.1194628, -0.23968509, -1342184.3, 279663.1, 0.050952706, 10.002406, 9.998695 
1.7650197e+3, 1.4450146e+2, -1297281.6, -1528504.1, -30103.111, -0.13233492, -0.28057697, -1293426.8, 230436.38, 0.026366603, 10.002075, 9.998933 
1.765023e+3, 1.5450102e+2, -1253659.6, -1455708.1, -16346.368, -0.03760051, -0.22744681, -1252345.8, 173521.19, 0.009289176, 10.001659, 9.998959 
1.7650253e+3, 1.6450007e+2, -1184991.8, -1366150.0, -34935.035, -0.011805363, -0.21734591, -1178488.3, 149387.23, 0.0016790415, 10.001421, 9.999015 
1.765027e+3, 1.7449859e+2, -1091720.4, -1272847.1, -40024.598, -0.022302233, -0.2742602, -1083270.1, 146619.45, 0.000074904594, 10.001397, 9.998995 
1.7650285e+3, 1.8449743e+2, -1011469.2, -1176296.9, -55938.105, -0.021007678, -0.28684655, -994278.25, 137622.39, 0.000000009428086, 10.001245, 9.999058 
1.7650299e+3, 1.9449688e+2, -957178.44, -1101279.5, -42026.48, -0.021334156, -0.25397384, -945817.3, 88089.484, 0.0, 10.000954, 9.999041 
1.7650312e+3, 2.044962e+2, -895277.5, -995622.3, -44315.758, -0.021247745, -0.23323196, -878508.44, 57404.99, 0.0, 10.000598, 9.999265 
1.7650326e+3, 2.144955e+2, -860558.56, -928168.1, -59131.793, -0.015075882, -0.23674813, -826250.7, 11668.796, 0.0, 10.000165, 9.999263 
1.765034e+3, 2.244945e+2, -816791.75, -900039.3, -44966.65, -0.010822256, -0.23910345, -797141.25, -57212.027, 0.0, 9.999982, 9.998871 
1.7650357e+3, 2.344933e+2, -705256.5, -799891.8, -25896.242, -0.011791354, -0.25060084, -698633.7, -56691.47, 0.0, 10.000093, 9.998831 
1.7650373e+3, 2.4449247e+2, -600333.94, -624875.94, -16782.693, -0.016234776, -0.24392277, -591814.7, -47864.086, 0.0, 9.999824, 9.999489 
1.7650391e+3, 2.5449225e+2, -605863.1, -574085.8, -44677.22, -0.01978045, -0.22394058, -542556.06, -96604.32, 0.0, 9.999102, 9.999513 
1.7650409e+3, 2.644917e+2, -578138.56, -549640.44, -45617.82, -0.027472837, -0.2120186, -516098.03, -168140.95, 0.0, 9.998791, 9.999157 
1.7650425e+3, 2.744907e+2, -457199.8, -443790.22, -15643.102, -0.049929056, -0.22711073, -433475.6, -183508.61, 0.0, 9.998962, 9.999127 
1.7650439e+3, 2.8448975e+2, -339012.13, -266990.72, -9511.096, -0.07389445, -0.2638463, -265755.84, -113779.62, 0.0, 9.998802, 9.999747 
1.7650457e+3, 2.9448912e+2, -326998.78, -219774.23, -42019.07, -0.07051905, -0.31262574, -205269.86, -151288.4, 0.0, 9.998252, 9.999663 
1.7650487e+3, 3.044901e+2, -308254.38, -208382.11, -14.833371, 0.03783274, -0.16415511, -208382.11, -208382.11, 0.0, 9.998137, 9.999466 
1.7650492e+3, 3.1448823e+2, -223505.97, -100497.484, -42776.953, -0.12782925, -0.31067622, -87084.18, -87084.18, 0.0, 9.998438, 10.000057 
1.7750216e+3, 1.2450102e+2, -1433066.3, -1679464.5, 68875.56, -0.07357219, -0.2426755, -1415120.6, 304747.8, 0.081620745, 10.002578, 9.999025 
1.7750223e+3, 1.345006e+2, -1350934.1, -1591937.5, -100126.93, -0.024971735, -0.19650517, -1314764.0, 307108.47, 0.054072574, 10.002401, 9.999028 
1.7750221e+3, 1.444993e+2, -1294029.0, -1520584.1, -46901.035, -0.11267235, -0.2228817, -1284703.5, 239181.13, 0.028222809, 10.002072, 9.998991 
1.7750242e+3, 1.5449826e+2, -1251150.6, -1451118.8, -31019.318, -0.080877244, -0.23223987, -1246449.4, 179443.9, 0.010097322, 10.001661, 9.99899 
1.7750262e+3, 1.6449714e+2, -1194573.5, -1386568.1, -36714.094, -0.07394599, -0.23524244, -1187792.4, 140111.55, 0.0018804749, 10.001423, 9.998875 
1.7750281e+3, 1.7449594e+2, -1102512.4, -1295036.3, -39896.68, -0.048093878, -0.24527621, -1094572.1, 135344.36, 0.00008970714, 10.001395, 9.998844 
1.7750297e+3, 1.8449499e+2, -987966.5, -1126804.1, -66339.664, -0.026097571, -0.24924654, -961364.9, 170560.86, 0.000000028818846, 10.00124, 9.999401 
1.775031e+3, 1.9449444e+2, -932006.06, -1048296.06, -51679.613, -0.024600925, -0.25125697, -912358.9, 121570.64, 0.0, 10.000948, 9.999408 
1.7750318e+3, 2.0449366e+2, -919742.4, -1045844.44, -60147.12, -0.020112103, -0.24489032, -895655.0, 40282.137, 0.0, 10.000594, 9.998922 
1.7750329e+3, 2.1449263e+2, -887458.44, -984669.75, -73776.02, -0.005386942, -0.24183708, -847715.9, -9767.332, 0.0, 10.000166, 9.998876 
1.7750342e+3, 2.244917e+2, -783559.44, -830819.4, -41236.652, 0.002327868, -0.24084784, -759662.2, -19704.445, 0.0, 9.99998, 9.999348 
1.7750359e+3, 2.34491e+2, -669633.9, -724676.44, -19865.209, -0.0008449681, -0.25348434, -663213.3, -21250.102, 0.0, 10.000087, 9.9993515 
1.7750372e+3, 2.4449012e+2, -644916.94, -716921.44, -41777.918, -0.011373104, -0.25144738, -625768.9, -81796.47, 0.0, 9.999821, 9.998859 
1.7750382e+3, 2.5448912e+2, -654424.25, -676284.1, -69595.164, -0.027793832, -0.23705427, -594905.94, -148921.5, 0.0, 9.999106, 9.99881 
1.7750396e+3, 2.6448867e+2, -521256.8, -432506.03, -40007.58, -0.04468894, -0.21626826, -417133.78, -69144.58, 0.0, 9.998795, 9.99996 
1.7750412e+3, 2.7448884e+2, -394607.16, -315164.06, -7773.257, -0.06722958, -0.20713668, -314410.63, -64426.063, 0.0, 9.998967, 10.000009 
1.7750426e+3, 2.844882e+2, -379127.9, -351044.7, -29055.3, -0.085876055, -0.23007138, -332815.9, -180825.94, 0.0, 9.998804, 9.999169 
1.7750438e+3, 2.9448688e+2, -371654.9, -313982.97, -60075.81, -0.08641825, -0.27995455, -276181.0, -222176.47, 0.0, 9.998257, 9.999015 
1.7750458e+3, 3.0448666e+2, -230205.1, -46357.063, 13050.092, -0.044301942, -0.2701346, -45435.348, -45435.348, 0.0, 9.998137, 10.00058 
1.7750488e+3, 3.1448725e+2, -178799.33, -8970.734, -60773.773, -0.028260522, -0.28606027, 10536.659, 10536.659, 0.0, 9.998445, 10.000682 
1.7850234e+3, 1.2449811e+2, -1504837.5, -1720280.9, 98123.625, -0.1125292, -0.27751812, -1466846.5, 253049.14, 0.08616123, 10.002074, 9.998984 
1.7850249e+3, 1.3449818e+2, -1390253.4, -1606560.6, -73133.97, 0.010512112, -0.18396166, -1367847.5, 254048.34, 0.057330903, 10.002106, 9.999064 
1.785024e+3, 1.444969e+2, -1290885.6, -1515145.1, -35654.023, -0.13731189, -0.2109277, -1285353.6, 238554.42, 0.030156005, 10.002087, 9.999019 
1.785026e+3, 1.5449557e+2, -1190150.1, -1419145.1, -22959.574, -0.082464546, -0.25374866, -1187870.8, 238048.28, 0.0109433, 10.00208, 9.999007 
1.7850278e+3, 1.6449441e+2, -1140859.8, -1361941.9, -28446.068, -0.065685585, -0.25802732, -1137258.4, 190671.4, 0.0020959685, 10.0018, 9.998861 
1.7850295e+3, 1.744936e+2, -1133514.9, -1311684.6, -22988.086, -0.0467777, -0.23065151, -1130596.6, 99342.77, 0.000105867584, 10.001192, 9.998826 
1.7850308e+3, 1.8449269e+2, -1054907.3, -1159316.8, -52107.027, -0.028423376, -0.22734512, -1033352.4, 98595.91, 0.0000000562377, 10.000784, 9.999396 
1.7850316e+3, 1.9449185e+2, -978790.3, -1071478.4, -67139.875, -0.028113736, -0.25867411, -943552.94, 90401.9, 0.0, 10.000632, 9.999399 
1.7850323e+3, 2.0449099e+2, -914538.56, -1035656.3, -72528.4, -0.024983542, -0.26170278, -880610.7, 55352.293, 0.0, 10.000598, 9.998989 
1.7850332e+3, 2.1449022e+2, -803717.25, -936751.06, -53718.746, -0.012614206, -0.24148472, -784734.44, 53237.617, 0.0, 10.00071, 9.998941 
1.7850342e+3, 2.244894e+2, -716703.2, -798016.25, -24784.57, -0.0019916112, -0.23200813, -709744.3, 30235.865, 0.0, 10.000436, 9.999352 
1.7850357e+3, 2.3448867e+2, -725461.94, -751008.0, -44388.402, 0.0053068143, -0.24901867, -692045.3, -50059.24, 0.0, 9.9997015, 9.999356 
1.7850369e+3, 2.4448773e+2, -710267.75, -736841.6, -60038.395, -0.0023864687, -0.25528312, -662063.6, -118068.195, 0.0, 9.999322, 9.998963 
1.7850375e+3, 2.5448677e+2, -609532.06, -642682.06, -29365.914, -0.026706107, -0.2533374, -592386.4, -146379.27, 0.0, 9.999362, 9.998917 
1.7850384e+3, 2.6448628e+2, -480310.22, -410172.53, 8507.602, -0.05261638, -0.23893689, -409155.34, -61143.703, 0.0, 9.9990635, 9.999984 
1.7850398e+3, 2.7448648e+2, -481269.75, -355637.47, -24041.355, -0.08023553, -0.22858886, -351194.0, -101186.96, 0.0, 9.998365, 10.000022 
1.7850411e+3, 2.8448603e+2, -479353.7, -390408.16, -52545.645, -0.08005764, -0.23566976, -366041.47, -214030.77, 0.0, 9.998077, 9.999249 
1.7850423e+3, 2.9448515e+2, -367695.47, -299001.06, -32028.18, -0.043729454, -0.25010452, -286385.16, -232364.25, 0.0, 9.998228, 9.999131 
1.7850435e+3, 3.0448434e+2, -215667.06, -10695.109, 50174.234, -0.102518216, -0.32170546, 927.7622, 927.7622, 0.0, 9.998113, 10.000837 
1.7850472e+3, 3.1448567e+2, -265788.4, -29216.951, -99903.01, 0.0011873787, -0.28993398, 7326.662, 7326.662, 0.0, 9.997759, 10.000872 
1.7950252e+3, 1.2449627e+2, -1531878.1, -1773199.3, 68983.84, -0.14070053, -0.2772422, -1513550.4, 206360.33, 0.09098768, 10.002054, 9.998619 
1.7950267e+3, 1.344959e+2, -1408690.6, -1644768.3, -71624.44, -0.014371384, -0.20172438, -1388659.9, 233257.58, 0.060760994, 10.002105, 9.998802 
1.7950253e+3, 1.4449432e+2, -1293414.5, -1519194.6, -37496.684, -0.20973875, -0.24361949, -1287350.1, 236583.08, 0.03217915, 10.002084, 9.998992 
1.7950284e+3, 1.5449291e+2, -1192256.3, -1422299.8, -22261.5, -0.048074014, -0.29069394, -1190121.8, 235822.47, 0.011831271, 10.002075, 9.998987 
1.7950302e+3, 1.6449192e+2, -1133892.0, -1346618.6, -50418.742, 0.007176199, -0.28402886, -1122547.1, 205405.86, 0.0023264778, 10.001795, 9.99897 
1.7950308e+3, 1.7449148e+2, -1125563.6, -1295340.8, -44928.266, -0.021720046, -0.22947839, -1114407.4, 115551.22, 0.00012352158, 10.001192, 9.998939 
1.7950314e+3, 1.8449053e+2, -1079931.9, -1211895.0, -58664.008, -0.03258479, -0.22108816, -1057623.9, 74344.77, 0.000000085167756, 10.000785, 9.999036 
1.7950322e+3, 1.9448906e+2, -1005504.56, -1127823.1, -71328.96, -0.035263125, -0.27697903, -972704.94, 61278.207, 0.0, 10.000634, 9.999013 
1.7950328e+3, 2.0448819e+2, -881955.3, -967606.75, -68338.84, -0.03880797, -0.28267533, -844132.2, 91859.2, 0.0, 10.000595, 9.999458 
1.7950337e+3, 2.144882e+2, -768757.56, -863220.1, -47442.742, -0.038809262, -0.23582292, -749044.06, 88946.59, 0.0, 10.000703, 9.999451 
1.7950346e+3, 2.2448754e+2, -749859.56, -866401.06, -50302.203, -0.026742078, -0.21452844, -731151.1, 8846.083, 0.0, 10.000432, 9.998885 
1.7950355e+3, 2.3448622e+2, -762221.5, -828025.0, -70223.7, 0.0014446022, -0.23766883, -717573.94, -75562.41, 0.0, 9.999702, 9.998828 
1.7950362e+3, 2.4448532e+2, -651671.2, -615216.7, -59197.727, 0.005942304, -0.25380072, -571503.6, -27483.521, 0.0, 9.999321, 9.999799 
1.7950368e+3, 2.5448504e+2, -545869.2, -510232.13, -26114.914, -0.019504098, -0.27047262, -496435.97, -50415.785, 0.0, 9.99936, 9.999828 
1.7950375e+3, 2.6448447e+2, -531126.75, -516941.5, -15565.31, -0.053684287, -0.28128347, -506929.03, -158903.81, 0.0, 9.999067, 9.99925 
1.7950381e+3, 2.7448356e+2, -538241.9, -477241.38, -47108.65, -0.0952189, -0.29864502, -451621.3, -201585.78, 0.0, 9.998377, 9.999183 
1.7950395e+3, 2.8448325e+2, -428690.1, -286411.5, -47623.09, -0.0618803, -0.28278604, -271942.63, -119903.62, 0.0, 9.998082, 9.999961 
1.7950416e+3, 2.94484e+2, -308399.63, -176545.81, -25583.55, 0.049607374, -0.21271887, -171755.84, -117725.51, 0.0, 9.998229, 9.999971 
1.7950411e+3, 3.0448297e+2, -256333.08, -95455.83, 37421.137, -0.14875212, -0.32374218, -87177.414, -87177.414, 0.0, 9.998113, 10.000256 
1.7950445e+3, 3.1448287e+2, -251306.83, -4882.517, -74797.05, -0.04772306, -0.36257678, 16043.571, 16043.571, 0.0, 9.997781, 10.00103 
1.8050271e+3, 1.2449419e+2, -1519392.1, -1777704.8, 38893.223, -0.15941428, -0.29774678, -1513663.1, 206266.83, 0.09616451, 10.002211, 9.998505 
1.8050294e+3, 1.344939e+2, -1329741.6, -1606096.6, -48553.348, -0.0065491674, -0.21040747, -1321459.4, 300476.78, 0.06440308, 10.002698, 9.99878 
1.8050273e+3, 1.4449239e+2, -1222594.3, -1497670.9, -29035.162, -0.23870778, -0.23995613, -1219562.9, 304388.94, 0.03431206, 10.002651, 9.998871 
1.8050306e+3, 1.5449092e+2, -1212207.8, -1446520.8, -24351.326, -0.048721712, -0.2796262, -1209703.8, 216260.33, 0.01276939, 10.002003, 9.998856 
1.805032e+3, 1.6448984e+2, -1160141.8, -1351517.1, -58042.086, 0.018624293, -0.27833024, -1143914.3, 184059.42, 0.002574409, 10.001586, 9.999035 
1.8050322e+3, 1.7448927e+2, -1079316.8, -1264554.6, -57869.016, -0.023327539, -0.24318962, -1062724.5, 167254.98, 0.00014305822, 10.001475, 9.999012 
1.8050325e+3, 1.844883e+2, -1016593.5, -1185935.5, -57845.11, -0.035475653, -0.23817196, -998720.7, 133268.84, 0.00000010953618, 10.001242, 9.998992 
1.8050331e+3, 1.9448696e+2, -975941.44, -1118877.3, -46502.777, -0.025199894, -0.27674064, -962144.06, 71859.3, 0.0, 10.000863, 9.998962 
1.8050335e+3, 2.0448612e+2, -886378.0, -966396.7, -37775.184, -0.027694002, -0.27759004, -871362.7, 64648.707, 0.0, 10.000552, 9.999487 
1.8050341e+3, 2.1448603e+2, -821545.4, -884447.4, -54682.83, -0.042468775, -0.24203104, -789914.06, 48097.11, 0.0, 10.000325, 9.999485 
1.8050347e+3, 2.2448537e+2, -793394.2, -884632.44, -71537.6, -0.038129337, -0.22647682, -754167.94, -14149.91, 0.0, 10.000122, 9.99891 
1.8050352e+3, 2.344841e+2, -725401.7, -807523.2, -52221.35, -0.008575796, -0.24628554, -700031.6, -57999.445, 0.0, 9.999944, 9.998852 
1.8050356e+3, 2.4448334e+2, -607882.2, -575618.2, -37287.035, 0.0019202813, -0.2573138, -551123.0, -7083.758, 0.0, 9.999541, 9.999966 
1.805036e+3, 2.544833e+2, -605373.4, -519389.56, -60326.93, -0.013207613, -0.26807988, -488302.84, -42266.375, 0.0, 9.998868, 10.000003 
1.8050362e+3, 2.644828e+2, -610213.75, -558618.44, -52910.285, -0.050723344, -0.27894607, -525551.7, -177511.11, 0.0, 9.998538, 9.99922 
1.8050364e+3, 2.7448174e+2, -508289.6, -468095.53, -27461.283, -0.10581667, -0.3057594, -454162.97, -204110.36, 0.0, 9.998605, 9.999135 
1.8050377e+3, 2.8448132e+2, -363518.38, -246795.6, -9766.685, -0.05907524, -0.3011192, -245984.02, -93926.945, 0.0, 9.998494, 10.000035 
1.8050401e+3, 2.9448208e+2, -311233.0, -164255.48, -42630.46, 0.08650894, -0.23962463, -152785.7, -98737.836, 0.0, 9.998152, 10.000093 
1.8050388e+3, 3.0448142e+2, -336489.5, -150784.97, -4844.0024, -0.17426844, -0.31435636, -150658.7, -150658.7, 0.0, 9.997637, 10.000104 
1.8050423e+3, 3.1448185e+2, -341050.28, -19777.037, -34988.77, -0.0009012464, -0.28118432, -16010.685, -16010.685, 0.0, 9.997043, 10.001284 
1.8150292e+3, 1.2449189e+2, -1513599.1, -1758908.4, 10073.35, -0.17590553, -0.33366287, -1513186.1, 206766.69, 0.10174683, 10.002199, 9.998637 
1.8150324e+3, 1.3449219e+2, -1317919.8, -1578173.0, -29736.287, 0.026199883, -0.20945519, -1314565.3, 307386.72, 0.06829826, 10.002691, 9.998991 
1.8150301e+3, 1.4449106e+2, -1239355.0, -1530013.4, -52315.742, -0.23358232, -0.20044905, -1230225.5, 293738.6, 0.0365772, 10.002644, 9.998649 
1.815032e+3, 1.5448953e+2, -1230239.6, -1483476.9, -47698.42, -0.086924054, -0.22114155, -1221553.4, 204425.4, 0.013766695, 10.002001, 9.998604 
1.8150333e+3, 1.644881e+2, -1158897.4, -1349998.4, -63410.793, -0.034750264, -0.24077131, -1139770.9, 188221.1, 0.0028426799, 10.001588, 9.999045 
1.8150333e+3, 1.7448692e+2, -1076934.4, -1260393.0, -60665.49, -0.0553704, -0.27163076, -1058688.4, 171314.06, 0.00016504708, 10.001477, 9.999042 
1.8150337e+3, 1.8448597e+2, -998597.8, -1148040.6, -71339.984, -0.04210297, -0.2768971, -970010.56, 162000.45, 0.00000012908751, 10.001239, 9.999255 
1.8150342e+3, 1.9448549e+2, -956624.94, -1079284.3, -59246.04, -0.00047859637, -0.25835648, -932681.94, 101333.93, 0.0, 10.000863, 9.999235 
1.8150344e+3, 2.0448472e+2, -915647.4, -1027450.06, -46235.42, 0.0048976997, -0.24805643, -899004.4, 37019.383, 0.0, 10.000552, 9.999068 
1.8150346e+3, 2.144837e+2, -853654.25, -951625.75, -61421.77, -0.028436393, -0.26053727, -824076.44, 13957.916, 0.0, 10.000325, 9.999025 
1.8150347e+3, 2.2448282e+2, -757314.5, -808721.4, -77780.15, -0.04060099, -0.26618403, -701100.8, 38942.348, 0.0, 10.000117, 9.9994335 
1.815035e+3, 2.3448224e+2, -685302.3, -724163.7, -56807.76, -0.02637487, -0.27460495, -644694.06, -2645.4597, 0.0, 9.999942, 9.999427 
1.815035e+3, 2.444817e+2, -642793.06, -648984.44, -60979.418, -0.016220849, -0.2687285, -584830.8, -40776.97, 0.0, 9.999544, 9.999461 
1.8150349e+3, 2.544814e+2, -644663.56, -602642.0, -83598.51, -0.014512622, -0.24896069, -537454.4, -91397.5, 0.0, 9.998873, 9.99943 
1.8150349e+3, 2.644812e+2, -563394.8, -461955.34, -51209.273, -0.049485877, -0.23241109, -440599.56, -92541.016, 0.0, 9.99854, 9.999883 
1.8150349e+3, 2.7448103e+2, -457323.34, -362103.53, -23284.992, -0.116688505, -0.24559526, -356714.44, -106655.734, 0.0, 9.998604, 9.999865 
1.815036e+3, 2.844802e+2, -399408.28, -324118.47, -20684.016, -0.07544555, -0.28923348, -318810.3, -166744.81, 0.0, 9.998503, 9.999502 
1.815038e+3, 2.9447925e+2, -346335.97, -245475.27, -53168.824, 0.06207887, -0.34137788, -222624.36, -168549.34, 0.0, 9.998183, 9.999523 
1.8150364e+3, 3.0447957e+2, -321687.84, -120467.734, -30753.602, -0.18273203, -0.29717278, -115872.43, -115872.43, 0.0, 9.9976425, 10.000307 
1.8150394e+3, 3.144803e+2, -322037.22, 21163.184, 19875.807, -0.007644034, -0.255353, 22310.418, 22310.418, 0.0, 9.997032, 10.001572 
1.8250315e+3, 1.2449053e+2, -1486047.3, -1738220.8, -1155.4897, -0.16955048, -0.30413246, -1486042.0, 233925.19, 0.10776605, 10.002401, 9.99868 
1.825035e+3, 1.3449045e+2, -1330717.5, -1572757.8, -7745.5205, 0.039903685, -0.22851382, -1330469.9, 291498.56, 0.072472624, 10.002555, 9.9991 
1.8250327e+3, 1.4448927e+2, -1263969.9, -1554244.1, -54149.285, -0.22661074, -0.22508737, -1254197.5, 269783.0, 0.038990494, 10.002528, 9.998537 
1.8250342e+3, 1.5448786e+2, -1185201.3, -1475162.0, -42416.926, -0.10551259, -0.2212847, -1179123.6, 246871.33, 0.01482972, 10.0023775, 9.998477 
1.8250348e+3, 1.6448644e+2, -1089576.8, -1313865.4, -49244.45, -0.052644067, -0.23661524, -1079241.0, 248767.5, 0.0031336541, 10.002057, 9.999066 
1.8250349e+3, 1.7448507e+2, -1068768.9, -1253308.6, -48153.395, -0.045567963, -0.2858279, -1056959.5, 173060.39, 0.00019006866, 10.001522, 9.999067 
1.825035e+3, 1.8448414e+2, -1014368.1, -1153319.8, -66026.266, -0.025457589, -0.2933419, -987998.44, 144029.81, 0.00000015151502, 10.001122, 9.999273 
1.825035e+3, 1.9448385e+2, -950698.44, -1074423.5, -75067.06, -0.003129908, -0.25592443, -915288.0, 118743.4, 0.0, 10.000898, 9.99925 
1.8250349e+3, 2.0448308e+2, -906774.5, -1024581.44, -56253.6, -0.0011352826, -0.24514511, -884228.06, 51811.168, 0.0, 10.00062, 9.999055 
1.825035e+3, 2.1448185e+2, -862514.5, -957006.94, -39715.973, -0.018409004, -0.2782873, -848039.06, -9987.398, 0.0, 10.000271, 9.999014 
1.8250349e+3, 2.2448097e+2, -772152.6, -802966.06, -49492.867, -0.028207775, -0.2880904, -735723.94, 4336.3687, 0.0, 9.99996, 9.99955 
1.8250348e+3, 2.3448065e+2, -714103.56, -723698.5, -64099.008, -0.028680323, -0.28204086, -654622.75, -12559.489, 0.0, 9.999684, 9.999554 
1.8250345e+3, 2.4448022e+2, -661330.44, -669384.1, -77474.875, -0.027636427, -0.2680108, -587777.8, -43709.965, 0.0, 9.999467, 9.999358 
1.8250339e+3, 2.5447983e+2, -589925.8, -589369.7, -67614.99, -0.027049929, -0.24808754, -522032.2, -75959.55, 0.0, 9.999306, 9.999312 
1.8250336e+3, 2.6447958e+2, -495480.97, -417317.7, -30593.889, -0.055515874, -0.23262022, -406767.1, -58692.58, 0.0, 9.998957, 9.999988 
1.8250334e+3, 2.744795e+2, -484910.9, -362582.75, -50025.215, -0.10713425, -0.2457394, -344730.6, -94657.88, 0.0, 9.998362, 9.999977 
1.8250343e+3, 2.844787e+2, -466141.63, -373652.1, -50290.164, -0.07595378, -0.2889096, -351576.47, -199497.1, 0.0, 9.998119, 9.999346 
1.825036e+3, 2.944775e+2, -342363.13, -260266.67, -53776.777, 0.02512223, -0.34767333, -233662.13, -179570.58, 0.0, 9.998284, 9.9993725 
1.8250345e+3, 3.0447793e+2, -288754.5, -110110.04, -48711.01, -0.15387292, -0.28455368, -97691.305, -97691.305, 0.0, 9.997895, 10.000255 
1.8250369e+3, 3.1447798e+2, -337614.0, -2842.9338, 32199.16, 0.043246165, -0.30512777, 225.9333, 225.9333, 0.0, 9.996991, 10.001429 
1.835034e+3, 1.2449009e+2, -1494100.4, -1749397.0, -38331.625, -0.16176258, -0.211948, -1488469.3, 231504.11, 0.11422007, 10.002385, 9.998615 
1.8350375e+3, 1.344887e+2, -1333588.9, -1575067.6, -1761.1661, 0.03102054, -0.26445377, -1333576.0, 288409.16, 0.07692826, 10.00255, 9.999086 
1.8350352e+3, 1.4448704e+2, -1265264.9, -1556072.6, -60799.117, -0.2246067, -0.30836874, -1253065.4, 270935.47, 0.041556932, 10.002527, 9.998527 
1.8350364e+3, 1.544859e+2, -1185819.6, -1475942.6, -46509.957, -0.11070629, -0.27895388, -1178546.0, 247466.88, 0.015961973, 10.002376, 9.998474 
1.835037e+3, 1.6448475e+2, -1089037.3, -1311715.0, -68477.54, -0.041830227, -0.265857, -1069664.5, 258359.17, 0.003449119, 10.002052, 9.999084 
1.835037e+3, 1.744837e+2, -1067503.0, -1251525.3, -67288.92, 0.002944694, -0.2868494, -1045523.56, 184508.84, 0.00021871291, 10.001524, 9.999079 
1.8350364e+3, 1.8448271e+2, -1030065.5, -1187186.1, -74725.164, 0.010420303, -0.2877916, -1000202.7, 131839.06, 0.00000018976193, 10.001126, 9.99904 
1.8350355e+3, 1.9448198e+2, -967484.25, -1110681.5, -81746.05, -0.036785014, -0.26996124, -930414.6, 103635.695, 0.0, 10.000902, 9.999001 
1.8350351e+3, 2.0448117e+2, -879711.9, -968106.7, -68519.67, -0.04919005, -0.2678292, -842371.8, 93686.34, 0.0, 10.000618, 9.999444 
1.8350352e+3, 2.1448041e+2, -832384.3, -895259.0, -50713.465, -0.014852502, -0.2963572, -804154.56, 33909.344, 0.0, 10.000273, 9.999438 
1.8350351e+3, 2.2447973e+2, -793182.75, -846493.4, -59283.207, -0.0038974902, -0.29509857, -754838.06, -14767.576, 0.0, 9.999958, 9.999251 
1.8350345e+3, 2.344793e+2, -738044.4, -773775.2, -72465.97, -0.020927532, -0.26876724, -681274.06, -39197.246, 0.0, 9.999684, 9.99921 
1.8350337e+3, 2.4447882e+2, -640688.1, -625733.75, -83042.56, -0.03676943, -0.25391656, -549832.44, -5750.4233, 0.0, 9.999462, 9.9996605 
1.835033e+3, 2.5447845e+2, -565980.5, -540030.8, -71464.0, -0.05377077, -0.26423585, -480373.38, -34288.934, 0.0, 9.999307, 9.999652 
1.8350324e+3, 2.6447785e+2, -526913.1, -484289.78, -51380.242, -0.0710787, -0.27990463, -449976.7, -101887.28, 0.0, 9.998961, 9.999526 
1.8350321e+3, 2.7447715e+2, -519073.6, -436703.13, -70371.06, -0.08262303, -0.3095335, -396351.2, -146255.36, 0.0, 9.998372, 9.999464 
1.8350326e+3, 2.8447664e+2, -451115.06, -344411.2, -45437.55, -0.06673813, -0.3036071, -327684.6, -175584.63, 0.0, 9.998128, 9.999543 
1.8350336e+3, 2.9447672e+2, -324691.25, -225099.11, -47895.434, -0.034551904, -0.25763878, -205803.78, -151705.17, 0.0, 9.99829, 9.999611 
1.835033e+3, 3.0447644e+2, -309126.34, -152159.08, -83918.95, -0.08553042, -0.26538646, -115742.44, -115742.44, 0.0, 9.997894, 9.999967 
1.8350337e+3, 3.1447572e+2, -401365.75, -144269.44, 20927.463, 0.01982452, -0.3287436, -142577.1, -142577.1, 0.0, 9.997022, 10.000447 
1.8450369e+3, 1.2448935e+2, -1435080.9, -1726687.0, -41649.85, -0.14374198, -0.18963636, -1429248.8, 290732.8, 0.121078186, 10.002905, 9.998521 
1.84504e+3, 1.3448773e+2, -1285520.3, -1553749.4, 27991.707, 0.013916755, -0.26310417, -1282630.3, 339364.56, 0.08165061, 10.002932, 9.999063 
1.8450382e+3, 1.4448604e+2, -1220516.6, -1518382.8, -35382.703, -0.20109633, -0.314754, -1216371.3, 307638.72, 0.044275217, 10.002792, 9.998654 
1.845039e+3, 1.5448485e+2, -1166965.6, -1451965.9, -14384.901, -0.101918794, -0.302739, -1166241.4, 259780.36, 0.017166656, 10.002447, 9.998603 
1.8450391e+3, 1.6448377e+2, -1086090.0, -1314189.8, -38885.086, -0.039747052, -0.28940162, -1079643.4, 248388.63, 0.0037913383, 10.002091, 9.999047 
1.8450385e+3, 1.744829e+2, -1038895.94, -1242809.8, -43642.96, 0.00052050734, -0.2872629, -1029947.8, 200091.47, 0.00025177147, 10.001745, 9.999031 
1.8450378e+3, 1.8448187e+2, -992590.75, -1184918.9, -41596.25, 0.0068489425, -0.28249124, -983979.94, 148069.44, 0.00000025167606, 10.001453, 9.998897 
1.8450366e+3, 1.9448084e+2, -930332.5, -1109191.4, -42839.46, -0.036665376, -0.2804385, -920601.25, 113459.97, 0.0, 10.001229, 9.998852 
1.8450359e+3, 2.0447992e+2, -832110.44, -938826.56, -42528.21, -0.047794737, -0.28331915, -817235.6, 118834.59, 0.0, 10.000918, 9.9995 
1.8450357e+3, 2.1447933e+2, -795696.2, -869762.2, -53329.387, -0.016010504, -0.30232567, -767802.56, 70271.71, 0.0, 10.000493, 9.999506 
1.8450351e+3, 2.2447875e+2, -775282.8, -846467.4, -63787.945, -0.006209323, -0.29152808, -737829.1, 2250.8948, 0.0, 10.000119, 9.999173 
1.8450344e+3, 2.3447832e+2, -727504.75, -778693.5, -59616.918, -0.021979207, -0.2548056, -688220.44, -46133.848, 0.0, 9.999801, 9.99912 
1.8450332e+3, 2.4447778e+2, -652773.4, -628052.4, -71484.15, -0.037958726, -0.24338438, -567867.94, -23775.605, 0.0, 9.999366, 9.99969 
1.845032e+3, 2.5447723e+2, -640308.3, -570695.5, -84135.38, -0.05524739, -0.27649015, -514451.1, -68354.95, 0.0, 9.998777, 9.999694 
1.8450311e+3, 2.6447648e+2, -595623.4, -529934.56, -56208.5, -0.065424934, -0.30347705, -497677.88, -149575.58, 0.0, 9.998546, 9.999413 
1.845031e+3, 2.7447566e+2, -474121.5, -429205.47, -46969.715, -0.064074926, -0.32687232, -399600.88, -149491.38, 0.0, 9.998743, 9.999336 
1.845031e+3, 2.844753e+2, -395051.0, -315677.5, -16804.527, -0.061947033, -0.30429813, -312266.34, -160153.7, 0.0, 9.998506, 9.999558 
1.8450312e+3, 2.944756e+2, -414783.88, -267607.25, -40318.414, -0.06293766, -0.23988448, -257286.0, -203176.97, 0.0, 9.997669, 9.999618 
1.845031e+3, 3.0447462e+2, -412604.28, -210246.89, -78021.96, -0.033135295, -0.31139463, -183658.0, -183658.0, 0.0, 9.997224, 9.999888 
1.8450306e+3, 3.1447357e+2, -342828.97, -118248.31, 41270.785, -0.0075628394, -0.4030693, -110904.21, -110904.21, 0.0, 9.997432, 10.000429 
1.8550397e+3, 1.2448835e+2, -1444415.4, -1742470.0, -72156.414, -0.1457039, -0.2313882, -1427865.9, 292125.44, 0.12828696, 10.002897, 9.9984255 
1.8550427e+3, 1.344875e+2, -1288691.5, -1556098.5, 31069.164, -0.016537085, -0.22903542, -1285129.1, 336868.63, 0.08661796, 10.002927, 9.999051 
1.8550414e+3, 1.444862e+2, -1207465.0, -1487024.4, -48175.977, -0.16395433, -0.25051698, -1199395.9, 324612.88, 0.047144454, 10.00278, 9.998888 
1.8550417e+3, 1.544847e+2, -1151680.8, -1418674.8, -26664.494, -0.08406607, -0.29256213, -1149043.8, 276978.16, 0.018449815, 10.002445, 9.998835 
1.8550411e+3, 1.6448346e+2, -1092098.5, -1327335.6, -52031.29, -0.05125518, -0.30337933, -1081103.8, 246929.55, 0.0041641076, 10.002093, 9.998957 
1.8550397e+3, 1.7448263e+2, -1045708.4, -1257924.4, -55333.223, -0.055446915, -0.28661633, -1032147.3, 197893.56, 0.00029041685, 10.001747, 9.998927 
1.8550389e+3, 1.8448156e+2, -997481.6, -1195070.6, -50168.004, -0.04003782, -0.27829367, -985473.7, 146577.97, 0.0000003514084, 10.0014515, 9.998829 
1.8550383e+3, 1.9448033e+2, -934976.4, -1119530.5, -49664.223, -0.0065317093, -0.2892715, -922460.4, 111604.414, 0.0, 10.00123, 9.998781 
1.8550372e+3, 2.0447925e+2, -851478.1, -979073.4, -57719.97, -0.0007501327, -0.29253587, -829242.44, 106833.58, 0.0, 10.000917, 9.999225 
1.8550362e+3, 2.1447851e+2, -816325.75, -912587.2, -67367.07, -0.025925422, -0.29632485, -781662.2, 56421.26, 0.0, 10.000492, 9.999213 
1.855035e+3, 2.244779e+2, -766208.75, -827018.44, -75381.35, -0.03797028, -0.2773512, -715331.4, 24758.361, 0.0, 10.000116, 9.99931 
1.855034e+3, 2.3447762e+2, -716325.75, -756120.3, -69414.48, -0.034196764, -0.24154384, -664013.1, -21919.86, 0.0, 9.999802, 9.999275 
1.8550326e+3, 2.4447697e+2, -669962.5, -664539.0, -92437.99, -0.034098215, -0.2384879, -574773.0, -30673.104, 0.0, 9.999368, 9.999439 
1.855031e+3, 2.54476e+2, -658188.94, -609792.44, -104636.56, -0.036946323, -0.28538996, -526592.56, -80483.86, 0.0, 9.998784, 9.999423 
1.8550299e+3, 2.6447532e+2, -579694.75, -497625.63, -50011.83, -0.042040147, -0.30371335, -473968.47, -125854.17, 0.0, 9.9985485, 9.999634 
1.8550298e+3, 2.7447507e+2, -456282.53, -392976.6, -37120.566, -0.054114897, -0.29641083, -375845.88, -125731.1, 0.0, 9.998746, 9.999584 
1.8550295e+3, 2.8447458e+2, -405986.56, -340098.22, -46517.605, -0.06601883, -0.2901104, -316040.6, -163922.16, 0.0, 9.99851, 9.99939 
1.8550289e+3, 2.9447395e+2, -428972.66, -300127.63, -73439.46, -0.070061326, -0.29736084, -266858.72, -212734.38, 0.0, 9.99768, 9.999391 
1.8550287e+3, 3.0447227e+2, -402175.7, -191405.9, -73630.195, 0.0034764677, -0.43157846, -168231.94, -168231.94, 0.0, 9.997236, 10.000011 
1.8550287e+3, 3.144734e+2, -266023.0, 35945.78, -97.49424, 0.049017105, -0.32540452, 35945.813, 35945.813, 0.0, 9.997455, 10.001477 
1.8650432e+3, 1.2448816e+2, -1449370.9, -1758195.3, -36423.156, -0.097479716, -0.26211894, -1445133.3, 274857.88, 0.13577262, 10.002942, 9.998285 
1.8650454e+3, 1.3448726e+2, -1259889.6, -1550475.5, 75856.26, -0.051967964, -0.25611913, -1241279.5, 380719.38, 0.091802955, 10.0032, 9.998965 
1.8650445e+3, 1.444862e+2, -1178025.9, -1478520.8, -34213.44, -0.14216472, -0.24704541, -1174179.6, 349828.34, 0.05016522, 10.003029, 9.99883 
1.8650441e+3, 1.5448469e+2, -1166858.0, -1432524.6, -35693.637, -0.08060529, -0.284642, -1162145.9, 263875.6, 0.019819729, 10.002371, 9.998774 
1.865043e+3, 1.6448335e+2, -1109650.3, -1347328.9, -59692.535, -0.05830043, -0.29574734, -1095500.9, 232533.08, 0.0045722285, 10.002023, 9.998853 
1.8650416e+3, 1.7448236e+2, -1009764.06, -1252975.6, -65401.305, -0.07147115, -0.28518122, -993292.7, 236751.19, 0.0003360051, 10.002047, 9.9988165 
1.8650402e+3, 1.8448125e+2, -949117.25, -1152486.9, -63546.44, -0.05310425, -0.2843539, -930893.94, 201160.89, 0.00000050835786, 10.001701, 9.999001 
1.8650393e+3, 1.9448012e+2, -968018.44, -1114184.1, -46158.06, -0.0006867392, -0.30262214, -954662.44, 79403.13, 0.0, 10.000915, 9.998969 
1.8650381e+3, 2.0447911e+2, -919241.1, -1032129.8, -26781.715, 0.009209829, -0.30004382, -913209.7, 22866.428, 0.0, 10.000542, 9.999041 
1.8650366e+3, 2.1447837e+2, -803635.0, -929752.4, -31366.22, -0.030813899, -0.28244987, -796264.75, 41820.37, 0.0, 10.00068, 9.999004 
1.8650351e+3, 2.2447772e+2, -709593.9, -792851.06, -49128.766, -0.04445167, -0.26175913, -686828.56, 53263.855, 0.0, 10.000477, 9.99937 
1.8650338e+3, 2.344773e+2, -703859.44, -741121.1, -51570.266, -0.026688833, -0.2479337, -667657.8, -25561.469, 0.0, 9.999852, 9.999352 
1.8650322e+3, 2.4447651e+2, -666991.44, -687164.1, -69352.6, -0.023926899, -0.24976811, -606995.56, -62891.676, 0.0, 9.999495, 9.999221 
1.8650301e+3, 2.544755e+2, -577376.9, -597757.56, -80189.87, -0.035325307, -0.27983, -506732.47, -60618.09, 0.0, 9.999456, 9.999181 
1.8650287e+3, 2.6447478e+2, -495157.53, -449532.75, -28001.943, -0.039616928, -0.2876446, -436227.1, -88106.914, 0.0, 9.9991, 9.999698 
1.8650283e+3, 2.7447465e+2, -509891.16, -408123.06, -28305.586, -0.04174612, -0.28030634, -400780.03, -150660.8, 0.0, 9.998335, 9.999677 
1.8650278e+3, 2.8447402e+2, -494568.53, -370173.03, -40316.793, -0.04642441, -0.2952037, -358249.22, -206125.72, 0.0, 9.99785, 9.999499 
1.865027e+3, 2.944731e+2, -420429.75, -284765.53, -47638.98, -0.038441133, -0.34350806, -269708.16, -215575.95, 0.0, 9.997692, 9.999488 
1.8650259e+3, 3.0447194e+2, -381849.28, -184471.81, -24922.193, -0.00029848775, -0.42651352, -181373.61, -181373.61, 0.0, 9.997386, 9.999988 
1.8650253e+3, 3.1447387e+2, -322601.25, 37525.133, -360.42746, -0.0063064015, -0.23897977, 37525.492, 37525.492, 0.0, 9.996943, 10.001732 
1.8750468e+3, 1.244886e+2, -1466084.8, -1790864.9, -37605.67, -0.03443823, -0.30005974, -1461787.3, 258195.53, 0.14346069, 10.0029335, 9.998066 
1.8750483e+3, 1.3448708e+2, -1274697.8, -1576357.1, 84297.734, -0.09900681, -0.33796534, -1252739.5, 369258.16, 0.09718228, 10.003195, 9.998774 
1.8750475e+3, 1.444861e+2, -1202384.8, -1525743.3, -56656.266, -0.14460951, -0.29519078, -1192745.3, 331262.03, 0.05334204, 10.00302, 9.998498 
1.8750462e+3, 1.5448478e+2, -1190762.8, -1481872.3, -58283.223, -0.09478257, -0.28038257, -1179527.5, 246493.16, 0.021286089, 10.002367, 9.998439 
1.875045e+3, 1.644834e+2, -1120288.3, -1368233.1, -60184.4, -0.06504135, -0.27174705, -1106451.6, 221583.1, 0.0050208755, 10.002017, 9.9987135 
1.8750437e+3, 1.7448205e+2, -1019820.06, -1273436.6, -63085.547, -0.051716313, -0.2841662, -1004994.56, 225054.03, 0.00038988978, 10.002044, 9.998679 
1.8750422e+3, 1.8448089e+2, -920376.6, -1092928.3, -91258.61, -0.037238088, -0.2977994, -881067.25, 250991.97, 0.000000733184, 10.0017, 9.999411 
1.8750401e+3, 1.9448018e+2, -937383.5, -1050845.5, -74332.76, -0.022094876, -0.31894228, -900606.4, 133457.56, 0.0, 10.000914, 9.999406 
1.8750383e+3, 2.0447944e+2, -926251.8, -1046777.06, -23083.684, -0.020319369, -0.3060561, -921981.94, 14089.142, 0.0, 10.000541, 9.998941 
1.8750373e+3, 2.1447885e+2, -813828.7, -950028.4, -24107.547, -0.033809844, -0.26182547, -809687.5, 28392.42, 0.0, 10.000675, 9.998868 
1.8750359e+3, 2.2447807e+2, -711005.4, -795438.6, -70579.13, -0.029201334, -0.24519712, -670980.56, 69108.29, 0.0, 10.000473, 9.999354 
1.875034e+3, 2.3447722e+2, -704546.25, -742596.75, -73217.55, -0.0038713594, -0.2732524, -647922.5, -5825.9985, 0.0, 9.99985, 9.999344 
1.8750319e+3, 2.4447633e+2, -680416.9, -715204.5, -71161.8, -0.010707845, -0.2772514, -624553.94, -80448.66, 0.0, 9.999495, 9.99903 
1.8750294e+3, 2.5447556e+2, -591846.4, -629475.6, -79657.57, -0.054494612, -0.260737, -528811.6, -82697.48, 0.0, 9.999462, 9.998961 
1.8750277e+3, 2.644748e+2, -500687.0, -462804.56, -55108.96, -0.06194013, -0.25648218, -423472.56, -75351.59, 0.0, 9.999105, 9.999604 
1.8750268e+3, 2.7447426e+2, -513326.66, -418224.63, -55281.49, -0.032018255, -0.27994817, -392856.9, -142732.88, 0.0, 9.998345, 9.999603 
1.875026e+3, 2.8447357e+2, -467041.2, -314043.97, -47776.03, -0.007902959, -0.31881636, -300350.63, -148221.83, 0.0, 9.997855, 9.999883 
1.8750253e+3, 2.94473e+2, -391771.8, -224722.03, -52496.8, 0.028999642, -0.3729127, -209594.4, -155461.14, 0.0, 9.997689, 9.999903 
1.8750228e+3, 3.0447355e+2, -391584.78, -209074.97, -41880.406, -0.051254526, -0.29984182, -199923.56, -199923.56, 0.0, 9.9974, 9.999814 
1.8750224e+3, 3.1447333e+2, -339074.72, -4481.9004, -33139.84, 0.0016556992, -0.299554, -1231.1392, -1231.1392, 0.0, 9.996981, 10.001425 
1.8850508e+3, 1.24489486e+2, -1242876.0, -1687908.9, -43108.875, -0.024640173, -0.30798244, -1238738.6, 481234.38, 0.15130897, 10.004846, 9.997884 
1.8850508e+3, 1.3448766e+2, -1301129.0, -1614544.3, 63675.45, -0.13926299, -0.3502376, -1288686.3, 333305.5, 0.1027529, 10.003133, 9.998517 
1.8850504e+3, 1.4448683e+2, -1283563.8, -1556458.1, -43560.305, -0.1198014, -0.28301778, -1276779.3, 247220.81, 0.05668712, 10.002395, 9.998588 
1.8850487e+3, 1.544853e+2, -1125180.8, -1438006.4, -14949.142, -0.109774634, -0.29954603, -1124468.0, 301546.56, 0.022858981, 10.002782, 9.998539 
1.8850471e+3, 1.6448385e+2, -1038634.06, -1333674.5, -5286.17, -0.08195751, -0.30238414, -1038539.4, 289489.72, 0.0055146767, 10.002603, 9.998668 
1.8850458e+3, 1.7448255e+2, -1066248.0, -1301691.4, -3892.6948, -0.034605525, -0.30212831, -1066183.6, 163858.94, 0.0004532519, 10.001752, 9.998625 
1.8850438e+3, 1.8448144e+2, -979882.2, -1127960.5, -41785.438, -0.019081095, -0.30625927, -968904.8, 163148.25, 0.0000010252129, 10.00132, 9.999353 
1.885041e+3, 1.9448072e+2, -869390.75, -1025055.8, -63261.934, -0.042265322, -0.32375252, -846923.9, 187134.44, 0.0, 10.0014105, 9.999343 
1.8850389e+3, 2.0447999e+2, -840111.4, -995694.44, -23639.74, -0.04183326, -0.31145048, -836598.75, 99466.58, 0.0, 10.001092, 9.999026 
1.885038e+3, 2.1447943e+2, -864976.75, -964394.1, -10311.236, -0.012191816, -0.27179787, -863918.56, -25845.438, 0.0, 10.00028, 9.99896 
1.8850364e+3, 2.2447859e+2, -815350.56, -866792.75, -50862.215, 0.0030482016, -0.25670382, -784075.7, -43992.918, 0.0, 9.999852, 9.999163 
1.8850338e+3, 2.3447756e+2, -711848.8, -769388.06, -69702.11, -0.00013432019, -0.2821705, -665212.4, -23118.936, 0.0, 9.999904, 9.999133 
1.8850313e+3, 2.444767e+2, -641599.06, -686641.06, -63696.25, -0.014954578, -0.2775585, -596559.6, -52457.246, 0.0, 9.999719, 9.999118 
1.8850288e+3, 2.5447616e+2, -617449.0, -630223.1, -49979.64, -0.039769877, -0.24594957, -573449.94, -127341.88, 0.0, 9.999238, 9.9990635 
1.8850268e+3, 2.6447544e+2, -556469.06, -504148.78, -24667.28, -0.04241565, -0.24253632, -494353.0, -146238.02, 0.0, 9.998787, 9.999473 
1.8850252e+3, 2.744746e+2, -522731.78, -438239.13, -31934.086, -0.029565401, -0.28144526, -427527.56, -177405.88, 0.0, 9.99835, 9.999463 
1.885024e+3, 2.8447387e+2, -444270.34, -299282.28, -23536.998, -0.0063633025, -0.31516668, -295557.06, -143430.14, 0.0, 9.997996, 9.999915 
1.8850234e+3, 2.9447353e+2, -375024.56, -212591.97, -53836.758, 0.06769734, -0.3496256, -196368.63, -142239.73, 0.0, 9.997789, 9.999937 
1.88502e+3, 3.0447453e+2, -363276.94, -178914.61, -60078.566, -0.07102826, -0.24392648, -161064.88, -161064.88, 0.0, 9.997522, 9.999963 
1.8850194e+3, 3.144736e+2, -365587.22, -42101.35, -12079.626, 0.012461458, -0.32548878, -41650.9, -41650.9, 0.0, 9.996912, 10.001194 
1.8950549e+3, 1.2449074e+2, -1261042.6, -1713902.3, -83692.23, -0.10300979, -0.2948372, -1246070.6, 473891.8, 0.15932071, 10.004825, 9.997697 
1.8950537e+3, 1.3448897e+2, -1324864.6, -1661465.1, 8047.457, -0.1783145, -0.3001495, -1324672.4, 297309.38, 0.108536236, 10.003123, 9.998191 
1.8950534e+3, 1.4448832e+2, -1253685.8, -1488228.3, -32929.688, -0.07443985, -0.21976012, -1249150.1, 274837.06, 0.060219586, 10.002383, 9.999075 
1.8950513e+3, 1.5448628e+2, -1091683.1, -1366053.8, 273.07672, -0.13092668, -0.34036112, -1091682.9, 334320.6, 0.024547812, 10.002776, 9.999046 
1.8950495e+3, 1.6448472e+2, -1036066.3, -1327178.3, -35081.168, -0.1158701, -0.38066804, -1031898.44, 296118.6, 0.0060573337, 10.002598, 9.998716 
1.8950477e+3, 1.744839e+2, -1064785.4, -1298907.5, -34847.523, -0.023586638, -0.33701283, -1059708.6, 170317.34, 0.0005270964, 10.001751, 9.998646 
1.8950453e+3, 1.8448284e+2, -1016238.4, -1203428.5, -40189.195, -0.0022458406, -0.31250894, -1007974.7, 124062.55, 0.0000013718216, 10.001319, 9.9988365 
1.895042e+3, 1.9448167e+2, -909002.7, -1106026.5, -58060.535, -0.06457215, -0.318755, -893165.9, 140883.48, 0.0, 10.001404, 9.998792 
1.89504e+3, 2.0448068e+2, -822754.7, -959072.9, -51839.258, -0.0591909, -0.31539872, -805281.0, 130778.3, 0.0, 10.001087, 9.999281 
1.8950386e+3, 2.1448007e+2, -845172.4, -922217.2, -38876.605, 0.029442882, -0.31066346, -828964.8, 9100.273, 0.0, 10.000275, 9.999252 
1.8950365e+3, 2.2447921e+2, -840870.94, -919940.75, -50092.566, 0.048976973, -0.29567382, -816591.44, -76516.555, 0.0, 9.99985, 9.998798 
1.8950336e+3, 2.3447824e+2, -740824.0, -830137.44, -65630.71, -0.019221462, -0.2754306, -706098.0, -64010.082, 0.0, 9.999905, 9.998716 
1.8950309e+3, 2.4447753e+2, -615520.3, -633637.06, -80004.266, -0.039981924, -0.2503054, -544063.25, 32.699165, 0.0, 9.9997225, 9.99948 
1.8950285e+3, 2.5447723e+2, -587639.2, -570220.06, -66231.63, 0.0049503855, -0.2356398, -512127.8, -66030.83, 0.0, 9.999244, 9.999474 
1.8950263e+3, 2.6447648e+2, -567138.5, -528121.1, -40507.645, 0.015293306, -0.24721433, -502669.2, -154565.88, 0.0, 9.998793, 9.999306 
1.8950234e+3, 2.744754e+2, -536327.06, -469746.8, -47888.23, -0.04122034, -0.286474, -444714.44, -194600.95, 0.0, 9.998361, 9.999243 
1.8950216e+3, 2.8447482e+2, -465016.13, -342938.6, -32023.854, -0.04570091, -0.2857816, -335048.0, -182929.05, 0.0, 9.998, 9.999614 
1.8950213e+3, 2.9447457e+2, -398779.44, -263884.88, -55154.645, 0.0772135, -0.27528924, -244204.84, -190084.53, 0.0, 9.997795, 9.999583 
1.8950176e+3, 3.044747e+2, -328353.3, -110959.16, -81555.15, -0.07270788, -0.2578206, -83765.48, -83765.48, 0.0, 9.997539, 10.0004225 
1.8950166e+3, 3.1447476e+2, -403756.53, -123534.18, 33152.984, 0.030575873, -0.2959278, -119665.28, -119665.28, 0.0, 9.996923, 10.000628 
1.9050589e+3, 1.24493085e+2, -1424366.5, -1800072.8, -38246.477, -0.10332953, -0.25141728, -1420512.6, 299427.94, 0.16752878, 10.003496, 9.997734 
1.9050568e+3, 1.3449067e+2, -1279663.5, -1658819.4, 39855.2, -0.19662532, -0.3023499, -1275519.4, 346446.44, 0.11456048, 10.003587, 9.99799 
1.9050565e+3, 1.444899e+2, -1134991.8, -1434112.0, 9486.5205, -0.036261678, -0.22307467, -1134691.3, 389281.13, 0.0639551, 10.003278, 9.999042 
1.905054e+3, 1.5448795e+2, -1144841.6, -1394656.1, 2726.514, -0.1136529, -0.3302173, -1144811.9, 281175.6, 0.02635815, 10.00242, 9.999016 
1.9050518e+3, 1.6448644e+2, -1115371.4, -1362191.4, -55295.17, -0.11264167, -0.36640736, -1103549.8, 224450.61, 0.0066510234, 10.002037, 9.998746 
1.9050495e+3, 1.7448555e+2, -989693.94, -1259339.6, -56550.94, -0.031097662, -0.33187613, -978314.1, 251695.33, 0.0006122247, 10.002253, 9.998675 
1.9050469e+3, 1.8448439e+2, -932175.2, -1178670.1, -50552.824, -0.0062040286, -0.31208003, -922210.3, 209811.39, 0.0000017786746, 10.001964, 9.998695 
1.9050436e+3, 1.9448309e+2, -969030.4, -1152194.6, -41290.465, -0.048074882, -0.3154317, -960152.6, 73883.18, 0.0, 10.001067, 9.998636 
1.9050409e+3, 2.0448202e+2, -890443.2, -983381.44, -24120.23, -0.0434314, -0.3160595, -884556.2, 51490.305, 0.0, 10.000589, 9.999352 
1.9050391e+3, 2.1448134e+2, -786129.6, -884127.3, -28333.188, 0.019287808, -0.32688853, -778527.6, 59524.285, 0.0, 10.00064, 9.999337 
1.9050366e+3, 2.2448052e+2, -753923.9, -881001.3, -28225.908, 0.03476428, -0.31143108, -747936.56, -7875.589, 0.0, 10.000461, 9.998772 
1.9050336e+3, 2.3447974e+2, -729689.3, -829217.5, -16966.943, -0.012277167, -0.2688604, -726876.4, -84803.71, 0.0, 10.0, 9.998676 
1.9050306e+3, 2.4447897e+2, -640429.2, -654205.6, -38316.344, -0.027371736, -0.24231452, -608386.8, -64305.484, 0.0, 9.999593, 9.9994 
1.9050278e+3, 2.5447834e+2, -593231.75, -582548.4, -63219.438, 0.010391257, -0.2532248, -524445.4, -78359.945, 0.0, 9.99925, 9.999384 
1.9050251e+3, 2.6447743e+2, -552902.25, -534212.2, -52310.105, 0.029205307, -0.26990658, -490418.97, -142325.48, 0.0, 9.998948, 9.999189 
1.9050224e+3, 2.744765e+2, -498600.16, -463444.4, -54742.965, -0.008742037, -0.28529823, -423526.4, -173423.17, 0.0, 9.998674, 9.999133 
1.9050197e+3, 2.8447604e+2, -438398.88, -335428.56, -25832.291, -0.03786212, -0.26082322, -329311.38, -177203.8, 0.0, 9.998207, 9.999565 
1.9050185e+3, 2.9447588e+2, -446977.2, -303304.5, -27040.486, 0.037385475, -0.23794627, -298383.78, -244275.52, 0.0, 9.997537, 9.999435 
1.9050153e+3, 3.0447507e+2, -370538.16, -125529.734, -62997.22, -0.047631823, -0.30614772, -110280.79, -110280.79, 0.0, 9.997224, 10.000476 
1.9050142e+3, 3.1447485e+2, -403079.72, -108133.85, 64466.527, 0.10217707, -0.38404188, -94658.97, -94658.97, 0.0, 9.99687, 10.000758 
1.915063e+3, 1.24496415e+2, -1417618.1, -1768024.6, -10052.966, -0.053311385, -0.18520243, -1417330.0, 302578.47, 0.17597282, 10.003467, 9.997964 
1.9150604e+3, 1.3449275e+2, -1289186.3, -1672674.0, 44440.53, -0.2003899, -0.35192013, -1284103.6, 337840.34, 0.12084207, 10.003576, 9.997899 
1.9150601e+3, 1.4449157e+2, -1172358.4, -1508280.0, -19031.371, -0.011965, -0.28494793, -1171283.5, 352671.5, 0.06789752, 10.003273, 9.998502 
1.915057e+3, 1.5449025e+2, -1184046.4, -1476525.9, -28023.771, -0.065209836, -0.2714936, -1181385.5, 244581.55, 0.028290106, 10.002419, 9.99845 
1.9150542e+3, 1.6448887e+2, -1115708.4, -1361503.9, -49249.387, -0.07857792, -0.26667863, -1106207.8, 221772.3, 0.007296161, 10.002031, 9.9987545 
1.9150516e+3, 1.7448744e+2, -988500.06, -1255081.1, -46513.17, -0.060613856, -0.28853148, -980617.5, 249375.88, 0.0007092475, 10.002245, 9.998709 
1.9150485e+3, 1.8448606e+2, -917637.5, -1147766.1, -81791.9, -0.03559048, -0.3023123, -891529.2, 240477.45, 0.0000023137907, 10.001959, 9.998911 
1.9150452e+3, 1.9448495e+2, -953984.0, -1120762.8, -73840.164, 0.002294236, -0.31049213, -925990.44, 108027.45, 0.0, 10.001064, 9.998855 
1.9150418e+3, 2.0448391e+2, -897786.2, -999032.6, -23415.977, 0.0017297264, -0.31273243, -892632.9, 43394.734, 0.0, 10.000589, 9.999246 
1.9150391e+3, 2.1448316e+2, -795635.94, -903152.5, -24341.133, -0.045983776, -0.32073244, -790382.0, 47652.164, 0.0, 10.000636, 9.999208 
1.9150364e+3, 2.2448243e+2, -732887.8, -837014.56, -43910.22, -0.04232471, -0.3032649, -716843.2, 23198.475, 0.0, 10.000458, 9.999077 
1.9150339e+3, 2.3448193e+2, -706978.56, -781389.8, -32575.998, 0.016823014, -0.26246616, -694732.7, -52684.055, 0.0, 9.999995, 9.999008 
1.9150306e+3, 2.4448092e+2, -677379.7, -731367.94, -50673.29, 0.019857874, -0.2548431, -646959.0, -102899.35, 0.0, 9.999593, 9.998871 
1.9150268e+3, 2.5447938e+2, -633606.06, -668512.9, -74255.27, -0.029088259, -0.29942462, -574780.6, -128706.195, 0.0, 9.999258, 9.998791 
1.9150238e+3, 2.6447818e+2, -556475.9, -542832.25, -62296.13, -0.004346593, -0.3093713, -486985.53, -138899.28, 0.0, 9.998952, 9.999128 
1.9150217e+3, 2.744777e+2, -497851.72, -464266.84, -63915.93, 0.06309538, -0.27770066, -414974.25, -164882.27, 0.0, 9.998682, 9.9991255 
1.9150186e+3, 2.8447744e+2, -422259.94, -304355.22, -50571.918, 0.012701691, -0.24222279, -285635.8, -133541.81, 0.0, 9.998217, 9.999774 
1.9150151e+3, 2.9447725e+2, -441749.5, -297659.3, -46236.64, -0.058303323, -0.24104962, -284098.78, -230004.52, 0.0, 9.997557, 9.999466 
1.9150129e+3, 3.0447543e+2, -392490.5, -175160.7, -70743.625, -0.0020145173, -0.38790333, -154161.73, -154161.73, 0.0, 9.997239, 10.000128 
1.9150105e+3, 3.144762e+2, -334831.1, 29611.61, 99285.51, 0.04716826, -0.34880754, 54904.676, 54904.676, 0.0, 9.996881, 10.001702 
1.925067e+3, 1.2449884e+2, -1296377.8, -1682186.1, 3251.226, -0.049156867, -0.20612563, -1296350.4, 423533.75, 0.18468487, 10.004424, 9.998148 
1.925064e+3, 1.3449538e+2, -1317691.4, -1692468.3, 26724.67, -0.17495593, -0.3477789, -1315795.3, 306121.88, 0.1273857, 10.003398, 9.997846 
1.9250634e+3, 1.4449395e+2, -1243048.3, -1566567.0, -21063.545, 0.025680728, -0.2907175, -1241682.5, 282248.13, 0.07204244, 10.002866, 9.99829 
1.9250596e+3, 1.5449247e+2, -1133507.5, -1477445.5, -9080.868, -0.06957683, -0.27366716, -1133268.0, 292677.56, 0.030339934, 10.002893, 9.998216 
1.9250564e+3, 1.6449098e+2, -1033862.5, -1319810.8, -9826.163, -0.0901331, -0.26548144, -1033525.25, 294434.5, 0.007991714, 10.002592, 9.99877 
1.9250539e+3, 1.7448962e+2, -1038360.4, -1276277.9, -9700.186, -0.046728175, -0.28367957, -1037965.5, 192006.72, 0.000818734, 10.001891, 9.998733 
1.9250505e+3, 1.8448827e+2, -981445.5, -1176861.4, -58124.55, -0.015447369, -0.2973742, -965463.94, 166521.17, 0.0000031359323, 10.001516, 9.998923 
1.9250464e+3, 1.944871e+2, -881575.1, -1085166.6, -67631.23, 0.008237796, -0.3116338, -861156.5, 172840.06, 0.0, 10.00156, 9.998858 
1.9250429e+3, 2.0448601e+2, -802364.94, -966722.2, -19990.889, 0.0021525458, -0.3140049, -799968.4, 136038.52, 0.0, 10.001306, 9.999122 
1.9250397e+3, 2.144852e+2, -797570.56, -919594.75, -23474.512, -0.042034324, -0.31190592, -793210.44, 44803.836, 0.0, 10.00069, 9.999069 
1.9250368e+3, 2.2448443e+2, -772405.06, -850324.0, -56808.617, -0.038379267, -0.29460782, -742480.1, -2458.0256, 0.0, 10.000164, 9.9991255 
1.9250338e+3, 2.3448382e+2, -738672.25, -790333.44, -67239.91, 0.016921747, -0.2709725, -692472.1, -50442.86, 0.0, 9.999752, 9.9990635 
1.9250302e+3, 2.4448273e+2, -695030.25, -737570.8, -68452.8, 0.015028123, -0.27467972, -644619.2, -100578.695, 0.0, 9.999462, 9.998891 
1.9250259e+3, 2.5448123e+2, -625093.06, -663068.7, -48408.69, -0.0373552, -0.31638613, -592081.5, -146026.52, 0.0, 9.999311, 9.998802 
1.9250229e+3, 2.644801e+2, -555956.0, -550643.56, -16972.586, -0.0009541508, -0.31778648, -536120.56, -188054.19, 0.0, 9.998993, 9.999055 
1.9250207e+3, 2.7447957e+2, -535352.2, -490233.5, -24490.0, 0.09405398, -0.28265795, -479495.94, -229423.25, 0.0, 9.998462, 9.999052 
1.9250168e+3, 2.844791e+2, -459318.88, -317654.44, -25987.535, 0.024915244, -0.26488534, -313037.63, -160960.72, 0.0, 9.997945, 9.999813 
1.9250122e+3, 2.944789e+2, -455364.4, -304092.22, -30294.047, -0.103867404, -0.27483103, -298251.03, -244172.83, 0.0, 9.997466, 9.999464 
1.925011e+3, 3.0447733e+2, -405427.84, -222096.92, -35746.816, 0.07779497, -0.3733217, -215373.4, -215373.4, 0.0, 9.997329, 9.999762 
1.9250073e+3, 3.1447852e+2, -319509.94, 34265.234, 91449.6, 0.03159649, -0.258319, 56506.37, 56506.37, 0.0, 9.997002, 10.001675 
1.9350709e+3, 1.2450046e+2, -1294409.9, -1666563.6, -2350.34, -0.10109106, -0.30294544, -1294395.0, 425471.47, 0.1936979, 10.00441, 9.998292 
1.9350679e+3, 1.3449849e+2, -1322789.1, -1696658.8, -6735.0654, -0.13182747, -0.29386172, -1322667.9, 299218.1, 0.13419849, 10.003387, 9.997821 
1.9350667e+3, 1.4449702e+2, -1239819.6, -1553879.6, -21235.334, 0.06745778, -0.24431968, -1238390.3, 285509.6, 0.07638745, 10.002854, 9.998383 
1.935062e+3, 1.5449455e+2, -1129586.5, -1465506.6, -6340.77, -0.12949277, -0.33370018, -1129466.9, 296456.25, 0.032504734, 10.002885, 9.998302 
1.9350584e+3, 1.644928e+2, -1033769.8, -1319368.8, -34965.387, -0.15186217, -0.356562, -1029551.4, 298388.1, 0.008736665, 10.00259, 9.998775 
1.9350561e+3, 1.7449206e+2, -1038169.2, -1276619.5, -35211.656, 0.0050115343, -0.31432062, -1033078.2, 196868.3, 0.0009414751, 10.001893, 9.998731 
1.9350527e+3, 1.8449092e+2, -994777.6, -1204842.5, -57587.23, 0.04947177, -0.29796273, -980026.5, 151931.27, 0.0000044945964, 10.001516, 9.998732 
1.9350477e+3, 1.9448945e+2, -895903.75, -1113920.8, -63955.836, -0.03323061, -0.3207545, -878527.1, 155445.38, 0.0, 10.001555, 9.998665 
1.9350436e+3, 2.0448822e+2, -814411.56, -990842.56, -41137.305, -0.045227308, -0.32025093, -805291.3, 130693.61, 0.0, 10.001299, 9.99896 
1.9350411e+3, 2.1448745e+2, -810157.75, -944157.7, -44338.97, 0.02716476, -0.29868287, -796815.06, 41177.742, 0.0, 10.000682, 9.998905 
1.9350377e+3, 2.2448646e+2, -787092.25, -880673.2, -71752.305, 0.043013435, -0.2846631, -748222.1, -8218.973, 0.0, 10.000161, 9.9989195 
1.9350332e+3, 2.3448533e+2, -753418.9, -821274.44, -80390.6, -0.016243936, -0.29383153, -700089.9, -58074.543, 0.0, 9.999752, 9.998851 
1.935029e+3, 2.4448435e+2, -655919.3, -657533.0, -73848.55, -0.044820487, -0.30022806, -582873.2, -38848.523, 0.0, 9.999465, 9.999441 
1.9350255e+3, 2.544838e+2, -581847.2, -575407.94, -52677.043, -0.01947832, -0.30553883, -525852.25, -79824.03, 0.0, 9.999319, 9.999402 
1.9350222e+3, 2.6448303e+2, -561270.25, -562942.0, -35948.355, 0.03562819, -0.2974769, -526148.0, -178112.84, 0.0, 9.998997, 9.998969 
1.9350189e+3, 2.7448195e+2, -545575.94, -512969.53, -43315.91, 0.07773194, -0.30035186, -482990.3, -232943.72, 0.0, 9.998466, 9.998895 
1.9350144e+3, 2.8448093e+2, -466732.75, -335648.47, -44981.7, -0.0059976582, -0.32902336, -321697.66, -169640.1, 0.0, 9.997953, 9.999687 
1.9350097e+3, 2.9448056e+2, -454298.13, -308157.72, -43400.26, -0.107544765, -0.34110427, -296240.63, -242179.05, 0.0, 9.997489, 9.999428 
1.9350095e+3, 3.0448064e+2, -428020.9, -272773.94, -36820.465, 0.19162299, -0.25723243, -264483.78, -264483.78, 0.0, 9.997345, 9.999406 
1.9350031e+3, 3.1448022e+2, -362271.53, -60389.758, -20594.693, -0.088928126, -0.26127663, -58991.242, -58991.242, 0.0, 9.997022, 10.001018 
1.9450754e+3, 1.2450281e+2, -1310473.5, -1673551.5, 10086.5, -0.08383989, -0.3489329, -1310193.5, 409648.7, 0.2030519, 10.004319, 9.9982815 
1.9450715e+3, 1.3450137e+2, -1288929.6, -1681499.9, -22224.002, -0.13416965, -0.28047928, -1287675.5, 334181.44, 0.14129186, 10.003699, 9.997776 
1.9450696e+3, 1.4449972e+2, -1192695.9, -1519121.9, -17492.219, 0.04837746, -0.2521865, -1191761.3, 332111.53, 0.08093128, 10.003176, 9.998468 
1.9450648e+3, 1.5449724e+2, -1156266.5, -1467780.3, -5310.8604, -0.10840636, -0.35209447, -1156176.0, 269719.38, 0.034782283, 10.002656, 9.998395 
1.9450611e+3, 1.6449544e+2, -1074088.1, -1346698.6, -39054.457, -0.12334428, -0.38170952, -1068603.5, 259308.61, 0.009530246, 10.002353, 9.998698 
1.9450583e+3, 1.744946e+2, -977884.44, -1257206.4, -47526.313, -0.0018532443, -0.3395897, -970019.4, 259901.23, 0.0010781297, 10.002353, 9.998641 
1.9450544e+3, 1.8449351e+2, -902390.8, -1154851.5, -59538.453, 0.032213286, -0.3153042, -889054.2, 242877.27, 0.0000066792873, 10.00213, 9.998778 
1.9450493e+3, 1.9449228e+2, -880517.25, -1100839.0, -48869.168, -0.031998668, -0.32052442, -870164.2, 163779.48, 0.0, 10.001637, 9.998714 
1.945045e+3, 2.0449103e+2, -849013.75, -1025768.75, -27685.53, -0.03704018, -0.31638578, -844778.8, 91177.53, 0.0, 10.001143, 9.998794 
1.9450417e+3, 2.1448992e+2, -826899.3, -972434.1, -34948.06, 0.02778989, -0.3088434, -818942.1, 19025.84, 0.0, 10.000657, 9.998722 
1.9450378e+3, 2.2448877e+2, -763090.6, -860759.75, -43449.76, 0.0388524, -0.30585676, -746559.4, -6579.4, 0.0, 10.000293, 9.998991 
1.945033e+3, 2.3448765e+2, -700138.5, -786201.7, -30528.396, -0.019149493, -0.3214561, -690409.3, -48418.164, 0.0, 10.00008, 9.998933 
1.9450288e+3, 2.4448676e+2, -625048.2, -646084.25, -33707.605, -0.041430194, -0.3207669, -600255.7, -56256.184, 0.0, 9.999696, 9.999407 
1.9450247e+3, 2.544864e+2, -616685.44, -596887.0, -61446.39, -0.008895958, -0.30208597, -544547.56, -98545.375, 0.0, 9.999103, 9.999358 
1.945021e+3, 2.644858e+2, -610352.5, -562570.0, -64154.83, 0.037339937, -0.28641737, -518002.25, -169994.39, 0.0, 9.998557, 9.999183 
1.945017e+3, 2.7448484e+2, -595332.56, -513402.22, -47405.395, 0.06648712, -0.30577287, -491714.22, -241696.28, 0.0, 9.998026, 9.999103 
1.945012e+3, 2.8448376e+2, -529824.56, -372551.1, -25274.91, -0.00390236, -0.34324047, -368589.06, -216560.13, 0.0, 9.99755, 9.999627 
1.9450071e+3, 2.9448348e+2, -490840.47, -317610.3, -16813.178, -0.09394617, -0.33683366, -315993.56, -261961.31, 0.0, 9.997207, 9.999496 
1.9450064e+3, 3.0448398e+2, -434100.2, -265286.13, 30177.035, 0.16598152, -0.22949287, -260053.88, -260053.88, 0.0, 9.997261, 9.999497 
1.945e+3, 3.1448323e+2, -306017.47, -41556.75, -9916.207, -0.12579638, -0.26293293, -41185.453, -41185.453, 0.0, 9.997446, 10.000942 
1.9550805e+3, 1.2450596e+2, -1328215.5, -1696091.3, 8981.192, -0.019439958, -0.3350557, -1327996.3, 391814.16, 0.2127519, 10.004294, 9.998101 
1.9550747e+3, 1.345041e+2, -1298208.0, -1695377.5, -40275.13, -0.18550646, -0.30443788, -1294165.1, 327664.9, 0.1486615, 10.003692, 9.997686 
1.955072e+3, 1.4450207e+2, -1189481.3, -1509727.1, -35193.535, -0.035227373, -0.31007472, -1185659.3, 338190.1, 0.08566716, 10.003178, 9.998539 
1.9550684e+3, 1.5450047e+2, -1151177.1, -1455412.9, -23757.766, -0.014752327, -0.32977694, -1149333.0, 276529.78, 0.03716917, 10.002655, 9.998481 
1.9550645e+3, 1.644988e+2, -1085976.1, -1370589.9, -40032.688, -0.013050121, -0.3430892, -1080452.5, 247425.78, 0.01037135, 10.002348, 9.998538 
1.9550599e+3, 1.744972e+2, -990623.1, -1283408.5, -45846.74, -0.06900638, -0.3604289, -983611.94, 246283.0, 0.0012287758, 10.00235, 9.998464 
1.9550554e+3, 1.8449602e+2, -884095.3, -1116340.0, -76072.97, -0.0703396, -0.34857845, -861395.8, 270510.72, 0.000009908067, 10.002126, 9.999046 
1.9550513e+3, 1.9449551e+2, -861046.3, -1059953.6, -65431.836, 0.007108214, -0.30872893, -841452.3, 192458.13, 0.0, 10.001634, 9.998998 
1.9550468e+3, 2.0449437e+2, -862594.56, -1053864.4, -45335.188, 0.022005454, -0.30101264, -852393.2, 83528.53, 0.0, 10.001142, 9.998603 
1.9550417e+3, 2.1449257e+2, -842053.7, -1003818.44, -51109.047, -0.043326665, -0.3424589, -827259.06, 10681.617, 0.0, 10.000655, 9.998508 
1.9550373e+3, 2.2449127e+2, -738637.7, -810379.25, -50997.848, -0.053312775, -0.35808223, -712158.7, 27794.781, 0.0, 10.000292, 9.999339 
1.9550334e+3, 2.3449072e+2, -673966.06, -731447.06, -36458.203, 0.00385353, -0.35371062, -656282.25, -14324.666, 0.0, 10.000075, 9.999312 
1.9550289e+3, 2.4448991e+2, -669130.5, -737630.2, -54530.89, 0.020364817, -0.3367511, -638985.75, -95019.625, 0.0, 9.999694, 9.998779 
1.9550239e+3, 2.54489e+2, -663766.1, -696553.2, -81625.664, -0.009906366, -0.3059623, -596904.0, -150926.17, 0.0, 9.999109, 9.998671 
1.9550192e+3, 2.6448834e+2, -573892.06, -488836.6, -83902.05, 0.001602123, -0.28373283, -437299.66, -89314.28, 0.0, 9.998564, 9.999687 
1.9550149e+3, 2.7448794e+2, -553805.75, -431982.63, -67047.19, 0.05260707, -0.30116162, -402309.72, -152321.53, 0.0, 9.998043, 9.999656 
1.95501e+3, 2.8448746e+2, -526927.75, -369711.97, -40490.83, 0.024994737, -0.30741906, -359896.4, -207904.08, 0.0, 9.997562, 9.99964 
1.9550046e+3, 2.9448766e+2, -479176.22, -294774.5, -26632.727, -0.067885995, -0.25711557, -291005.06, -237013.92, 0.0, 9.9972105, 9.999654 
1.9550021e+3, 3.0448702e+2, -393688.5, -183110.13, 40914.23, -0.00513311, -0.30500296, -175440.08, -175440.08, 0.0, 9.997268, 10.000059 
1.9549993e+3, 3.1448638e+2, -289717.44, -19072.81, -91880.266, 0.056379516, -0.3654012, 9171.717, 9171.717, 0.0, 9.997491, 10.001077 
1.9650848e+3, 1.2450937e+2, -1349992.8, -1719312.4, 26271.648, 0.0022869925, -0.32300267, -1348133.3, 371643.88, 0.2227051, 10.004223, 9.997938 
1.9650786e+3, 1.345074e+2, -1264915.6, -1668343.0, -28906.35, -0.17095912, -0.30640298, -1262855.0, 358942.22, 0.15626137, 10.003962, 9.997739 
1.9650751e+3, 1.4450514e+2, -1140766.9, -1491331.8, -24588.111, -0.060354754, -0.33522335, -1139050.6, 384768.03, 0.09057809, 10.003595, 9.998473 
1.9650716e+3, 1.545037e+2, -1103231.8, -1438958.0, -28861.963, 0.0063835783, -0.3310372, -1100768.6, 325062.25, 0.039660398, 10.00304, 9.998407 
1.9650672e+3, 1.645021e+2, -1052620.5, -1352602.0, -30883.014, 0.016344443, -0.33458006, -1049474.0, 278371.63, 0.0112578245, 10.002575, 9.998551 
1.9650622e+3, 1.7450045e+2, -1005008.44, -1287553.4, -23710.836, -0.08202631, -0.35865462, -1003032.44, 226830.06, 0.001392616, 10.002243, 9.998485 
1.9650573e+3, 1.8449917e+2, -917089.1, -1135726.9, -65601.445, -0.09621097, -0.35635766, -898916.2, 232958.8, 0.000014255441, 10.001918, 9.99901 
1.9650528e+3, 1.9449852e+2, -869059.9, -1067896.9, -81095.59, 0.005318409, -0.3276324, -840179.8, 193700.58, 0.0, 10.001601, 9.998957 
1.9650482e+3, 2.044974e+2, -830431.2, -1020558.3, -59561.305, 0.030769285, -0.32334843, -813313.56, 122577.7, 0.0, 10.001287, 9.99876 
1.9650427e+3, 2.1449581e+2, -783603.4, -957134.0, -38503.62, -0.041508533, -0.3601609, -775443.75, 62463.746, 0.0, 10.0009775, 9.9986725 
1.9650376e+3, 2.2449468e+2, -729311.0, -812054.75, -42884.78, -0.054864757, -0.36456758, -711094.8, 28823.852, 0.0, 10.000385, 9.999281 
1.9650333e+3, 2.3449425e+2, -769523.75, -785372.5, -64441.844, 0.0060196575, -0.34054574, -712520.9, -70598.484, 0.0, 9.999456, 9.999239 
1.9650283e+3, 2.4449341e+2, -767078.6, -773491.1, -62073.02, 0.028453711, -0.32867092, -708129.1, -164197.56, 0.0, 9.998974, 9.998879 
1.9650231e+3, 2.5449222e+2, -669069.5, -686260.06, -30177.6, 0.0006177808, -0.33390677, -646286.94, -200341.66, 0.0, 9.999021, 9.998782 
1.9650178e+3, 2.6449162e+2, -536181.7, -458314.78, -24346.773, -0.012188785, -0.31846744, -451328.97, -103376.555, 0.0, 9.998773, 9.999794 
1.9650126e+3, 2.7449167e+2, -530311.5, -408949.72, -43784.766, 0.0053331037, -0.3002688, -394802.3, -144851.06, 0.0, 9.998158, 9.999756 
1.9650076e+3, 2.8449148e+2, -494375.28, -345433.7, -21268.586, 0.024593623, -0.2885717, -342456.13, -190503.16, 0.0, 9.997751, 9.999717 
1.9650029e+3, 2.944915e+2, -421421.25, -246813.42, -834.97314, 0.015003004, -0.26378292, -246809.42, -192856.22, 0.0, 9.997522, 9.999831 
1.9649981e+3, 3.0449092e+2, -444122.56, -145415.11, 53815.85, -0.10499594, -0.34452865, -136015.31, -136015.31, 0.0, 9.996655, 10.000612 
1.9649957e+3, 3.1449088e+2, -553012.56, -89274.67, -63858.383, 0.05744661, -0.39753526, -80641.85, -80641.85, 0.0, 9.995444, 10.001578 
1.9750889e+3, 1.24512985e+2, -1359645.3, -1730831.3, 24774.842, -0.024011962, -0.31389752, -1357998.9, 361743.7, 0.23273359, 10.004215, 9.997863 
1.9750834e+3, 1.345113e+2, -1258763.1, -1640882.5, -34995.82, -0.100551985, -0.28586417, -1255584.5, 366174.0, 0.16400285, 10.003943, 9.997937 
1.975079e+3, 1.4450894e+2, -1158433.0, -1522459.0, -41635.18, -0.037818015, -0.32689577, -1153731.6, 370049.3, 0.095634826, 10.003585, 9.998247 
1.975074e+3, 1.5450694e+2, -1120987.6, -1476324.9, -47463.26, -0.04735678, -0.3547295, -1114757.0, 311042.44, 0.04225016, 10.003041, 9.998153 
1.9750693e+3, 1.6450535e+2, -1040537.9, -1327643.6, -43833.582, -0.03887773, -0.35386077, -1033994.7, 293819.7, 0.012187517, 10.002578, 9.998723 
1.9750647e+3, 1.7450431e+2, -991893.44, -1260543.6, -34921.51, -0.04576197, -0.33405113, -987428.25, 242395.64, 0.0015681973, 10.002243, 9.998671 
1.9750595e+3, 1.845029e+2, -941133.75, -1185001.4, -77056.18, -0.050710697, -0.3386251, -918826.4, 213011.1, 0.000019593592, 10.001914, 9.998674 
1.9750541e+3, 1.945012e+2, -894597.0, -1120892.8, -91003.125, -0.040587336, -0.37834832, -862541.56, 171312.8, 0.0, 10.001599, 9.998594 
1.975049e+3, 2.0450002e+2, -795932.44, -948625.06, -70091.48, -0.013790341, -0.3846135, -768637.2, 167228.52, 0.0, 10.001284, 9.999257 
1.9750442e+3, 2.1449956e+2, -746960.94, -879486.25, -47582.875, 0.028033867, -0.36095017, -731646.25, 106222.88, 0.0, 10.000969, 9.999211 
1.9750388e+3, 2.244989e+2, -763574.75, -882722.4, -75684.43, 0.028569842, -0.3248798, -726830.5, 13045.789, 0.0, 10.000381, 9.998798 
1.9750324e+3, 2.3449813e+2, -806941.7, -864332.2, -97248.414, -0.016474899, -0.28311974, -734243.3, -92356.65, 0.0, 9.99946, 9.998696 
1.9750269e+3, 2.4449712e+2, -708296.9, -653340.1, -61612.684, -0.019600881, -0.29652116, -613356.06, -69459.12, 0.0, 9.998979, 9.999703 
1.9750223e+3, 2.54496e+2, -604997.7, -555629.5, -27319.178, 0.015938502, -0.3857611, -543494.56, -97588.82, 0.0, 9.999028, 9.999678 
1.9750164e+3, 2.6449552e+2, -555504.44, -500313.03, -46669.01, -0.010392142, -0.391213, -473691.4, -125781.1, 0.0, 9.99878, 9.999502 
1.9750099e+3, 2.7449587e+2, -554475.7, -461452.84, -65532.168, -0.07992685, -0.30482438, -427603.94, -177695.36, 0.0, 9.998166, 9.999393 
1.975005e+3, 2.8449562e+2, -483028.63, -323652.9, -30775.553, -0.007915237, -0.287265, -317916.6, -166004.38, 0.0, 9.997757, 9.999864 
1.9750017e+3, 2.9449487e+2, -405124.66, -219540.83, -10288.417, 0.1478542, -0.3574391, -218972.2, -165052.33, 0.0, 9.997548, 10.000008 
1.9749942e+3, 3.0449557e+2, -406647.06, -72230.94, -3960.9727, -0.14301169, -0.34255534, -72184.03, -72184.03, 0.0, 9.996675, 10.001105 
1.974992e+3, 3.1449655e+2, -484944.56, 46085.418, 6215.0513, 0.12393824, -0.34799266, 46158.15, 46158.15, 0.0, 9.995463, 10.0025015 
1.9850929e+3, 1.2451697e+2, -1341213.8, -1714282.9, 27725.918, -0.054132633, -0.28491005, -1339164.5, 380540.34, 0.24265848, 10.004416, 9.997885 
1.9850878e+3, 1.3451518e+2, -1244625.9, -1607791.0, -34960.92, -0.056334708, -0.2911283, -1241290.9, 380430.06, 0.17177686, 10.003979, 9.998164 
1.9850828e+3, 1.4451297e+2, -1156622.0, -1533928.3, -37180.855, -0.020258857, -0.32173014, -1152993.0, 370748.7, 0.10079038, 10.003674, 9.998124 
1.9850773e+3, 1.5451096e+2, -1076221.6, -1467169.8, -38144.383, -0.046103045, -0.3372215, -1072534.8, 353226.47, 0.04492615, 10.003435, 9.998023 
1.9850722e+3, 1.6450927e+2, -985621.44, -1303313.4, -40202.73, -0.037960496, -0.336116, -980612.94, 347164.2, 0.013157884, 10.002978, 9.998695 
1.9850671e+3, 1.7450808e+2, -989058.3, -1261315.4, -49056.38, -0.026716158, -0.3286753, -980488.9, 249298.6, 0.0017538491, 10.002276, 9.998648 
1.9850615e+3, 1.8450667e+2, -950302.94, -1176142.5, -72932.62, -0.03799446, -0.33964843, -928797.8, 203002.98, 0.0000256483, 10.001795, 9.998793 
1.9850554e+3, 1.9450508e+2, -887306.8, -1103536.4, -51855.953, -0.06492588, -0.3797184, -875513.94, 158302.17, 0.0, 10.001591, 9.998717 
1.9850498e+3, 2.04504e+2, -808730.6, -948320.94, -36146.99, -0.042861473, -0.3841955, -799925.7, 135900.56, 0.0, 10.00117, 9.999312 
1.9850451e+3, 2.1450365e+2, -813494.4, -905334.25, -52917.33, 0.033815812, -0.35542834, -789350.9, 48477.902, 0.0, 10.000488, 9.999264 
1.9850391e+3, 2.2450295e+2, -798929.44, -890443.9, -78106.055, 0.042653963, -0.33052933, -754164.4, -14328.208, 0.0, 10.0001, 9.998879 
1.9850321e+3, 2.3450196e+2, -713501.1, -809660.8, -53515.72, -0.024100816, -0.31852043, -689639.3, -47791.18, 0.0, 10.000063, 9.998779 
1.985026e+3, 2.4450116e+2, -611728.0, -592640.8, -17215.629, -0.03116734, -0.32129812, -582500.44, -38644.12, 0.0, 9.999585, 9.9998255 
1.985021e+3, 2.5450072e+2, -661248.06, -568561.56, -41152.11, 0.020697698, -0.3555102, -552927.44, -107068.305, 0.0, 9.998584, 9.999802 
1.9850148e+3, 2.6450032e+2, -678180.7, -557566.75, -77712.266, -0.004956229, -0.36035755, -519506.4, -171643.16, 0.0, 9.9979315, 9.999517 
1.9850077e+3, 2.7450016e+2, -627165.0, -495756.3, -70354.49, -0.08847742, -0.32803923, -465196.34, -215329.66, 0.0, 9.997668, 9.999395 
1.9850026e+3, 2.8449994e+2, -525165.6, -316208.3, -13371.072, -0.00937991, -0.3184453, -315356.2, -163486.42, 0.0, 9.997352, 10.000109 
1.9849993e+3, 2.9449967e+2, -486641.38, -233826.44, 9941.204, 0.1768627, -0.36288142, -233436.13, -179564.2, 0.0, 9.996886, 10.000226 
1.9849911e+3, 3.0450073e+2, -447111.72, -102499.875, -20679.508, -0.123126656, -0.3200107, -101263.375, -101263.375, 0.0, 9.996444, 10.001008 
1.9849879e+3, 3.1450176e+2, -352652.9, 99155.96, 45143.566, 0.13087577, -0.30944085, 103622.43, 103622.43, 0.0, 9.996418, 10.002406 
1.9950968e+3, 1.24521166e+2, -1345602.1, -1708070.4, 11302.679, -0.103367485, -0.25192398, -1345250.0, 374415.34, 0.2523796, 10.004387, 9.997956 
1.9950917e+3, 1.34519e+2, -1237123.8, -1583857.1, -45483.715, -0.044741917, -0.31802037, -1231256.6, 390427.66, 0.17949809, 10.003974, 9.998366 
1.9950865e+3, 1.4451721e+2, -1158368.0, -1536128.0, -45021.188, -0.014229597, -0.31546605, -1153076.5, 370624.38, 0.105994724, 10.003683, 9.998108 
1.9950812e+3, 1.5451568e+2, -1078515.6, -1469944.4, -45426.105, 0.004444411, -0.28077203, -1073312.9, 352403.6, 0.04767173, 10.003432, 9.998007 
1.9950756e+3, 1.6451386e+2, -1003146.0, -1337525.6, -64755.26, 0.0121673765, -0.28249705, -991043.6, 336690.7, 0.0141666755, 10.00297, 9.998465 
1.9950694e+3, 1.7451176e+2, -1006171.6, -1297155.9, -73240.42, -0.02880662, -0.34236652, -988776.9, 240976.83, 0.0019487245, 10.002275, 9.998403 
1.9950631e+3, 1.8451041e+2, -911265.56, -1095339.5, -80447.44, -0.061533976, -0.35937393, -881062.6, 250702.86, 0.000032105352, 10.001795, 9.999349 
1.9950569e+3, 1.945101e+2, -846772.3, -1018249.25, -57127.65, -0.07224452, -0.33152434, -829483.3, 204283.1, 0.0, 10.001584, 9.999308 
1.9950508e+3, 2.0450927e+2, -837555.1, -1007268.25, -60257.387, -0.06059321, -0.32195574, -818336.8, 117437.01, 0.0, 10.001165, 9.998912 
1.995045e+3, 2.1450797e+2, -845428.75, -971898.4, -76206.05, -0.027301943, -0.34412402, -809638.3, 28149.182, 0.0, 10.000488, 9.998808 
1.9950387e+3, 2.245067e+2, -752716.44, -795224.94, -79726.32, -0.014018951, -0.3818168, -691459.94, 48339.54, 0.0, 10.000102, 9.999534 
1.9950323e+3, 2.3450567e+2, -664462.9, -707476.1, -52840.03, -0.021366388, -0.44550315, -628920.4, 12887.372, 0.0, 10.000059, 9.999484 
1.9950259e+3, 2.4450542e+2, -653020.8, -678822.2, -53046.105, -0.01163931, -0.40255642, -611329.2, -67518.35, 0.0, 9.999585, 9.999234 
1.9950195e+3, 2.5450623e+2, -706093.7, -664076.7, -77429.01, 0.011278736, -0.24521811, -604856.7, -159049.78, 0.0, 9.998592, 9.999143 
1.9950129e+3, 2.6450586e+2, -655084.06, -511894.06, -89511.336, 0.0032247654, -0.22561133, -468867.4, -121055.02, 0.0, 9.997939, 9.999828 
1.995006e+3, 2.745043e+2, -601898.4, -447143.44, -79345.42, -0.027353263, -0.36785203, -413692.34, -163865.5, 0.0, 9.997682, 9.999723 
1.9950001e+3, 2.8450418e+2, -499245.03, -265995.06, -31753.045, 0.012261595, -0.3824944, -261749.7, -109922.35, 0.0, 9.997366, 10.000446 
1.9949952e+3, 2.9450566e+2, -467426.0, -197860.63, -11477.605, 0.09265773, -0.28822982, -197372.81, -143560.88, 0.0, 9.9969015, 10.000466 
1.9949885e+3, 3.0450618e+2, -493700.3, -201929.77, -32140.418, -0.038599852, -0.27246237, -198431.23, -198431.23, 0.0, 9.996454, 10.000321 
1.9949833e+3, 3.1450683e+2, -453423.25, -116045.28, 131299.63, 0.023691518, -0.23549919, -70969.055, -70969.055, 0.0, 9.996441, 10.000917 
2.0051014e+3, 1.24526106e+2, -1291102.4, -1687440.4, 52884.7, -0.10994557, -0.26278755, -1284167.1, 435449.2, 0.261941, 10.004982, 9.997864 
2.0050961e+3, 1.3452378e+2, -1205540.5, -1578764.4, -11950.823, -0.036726374, -0.3324513, -1205158.3, 416479.44, 0.18716745, 10.004334, 9.998238 
2.0050901e+3, 1.4452231e+2, -1136750.8, -1514197.6, -7604.1367, -0.032105677, -0.29400796, -1136597.6, 387053.78, 0.111234374, 10.003832, 9.998187 
2.0050849e+3, 1.5452076e+2, -1069767.1, -1455137.9, -2498.5176, 0.017049031, -0.27000564, -1069750.9, 355916.03, 0.05047925, 10.003462, 9.998092 
2.0050788e+3, 1.6451888e+2, -1000401.44, -1343827.0, -20482.32, 0.033573076, -0.27794838, -999184.2, 328500.97, 0.01521361, 10.003026, 9.998393 
2.005072e+3, 1.7451666e+2, -974800.75, -1291187.8, -19038.107, -0.023413524, -0.342166, -973659.25, 256046.73, 0.0021533365, 10.002534, 9.998319 
2.0050651e+3, 1.8451524e+2, -888331.44, -1083362.6, -33905.918, -0.057592735, -0.3603847, -882605.06, 249113.19, 0.00003871999, 10.001951, 9.999353 
2.0050585e+3, 1.9451502e+2, -894724.6, -1039593.56, -55261.113, -0.052867018, -0.32650077, -876051.8, 157666.4, 0.0, 10.001251, 9.999319 
2.0050518e+3, 2.0451419e+2, -884152.06, -1023554.25, -60933.95, -0.048604157, -0.31897283, -861272.44, 74452.86, 0.0, 10.000821, 9.998964 
2.0050453e+3, 2.145128e+2, -807959.1, -948572.94, -40637.344, -0.04848018, -0.35454038, -797059.8, 40679.996, 0.0, 10.000724, 9.998854 
2.0050387e+3, 2.2451161e+2, -708706.6, -758473.4, -41758.746, -0.036615435, -0.3936714, -684979.56, 54771.223, 0.0, 10.000339, 9.999671 
2.0050322e+3, 2.3451084e+2, -719467.44, -718534.5, -59149.0, -0.008093807, -0.4447265, -659850.1, -18094.16, 0.0, 9.999616, 9.999621 
2.0050253e+3, 2.4451056e+2, -738659.7, -736454.44, -74524.22, 0.0029287466, -0.40488753, -663024.7, -119265.21, 0.0, 9.999069, 9.999087 
2.005018e+3, 2.5451103e+2, -700248.44, -679292.9, -63640.473, -0.007991531, -0.266519, -625273.4, -179513.64, 0.0, 9.998713, 9.998978 
2.005011e+3, 2.6451072e+2, -593342.06, -456260.8, -49290.28, -0.006157842, -0.2433789, -440377.78, -92613.06, 0.0, 9.998256, 10.000054 
2.0050041e+3, 2.7450964e+2, -584022.75, -410096.6, -46236.605, 0.0148587525, -0.35995114, -398569.06, -148795.66, 0.0, 9.997686, 9.999974 
2.0049977e+3, 2.8450963e+2, -504884.28, -285177.3, -10676.596, 0.021423042, -0.36904278, -284659.7, -132887.08, 0.0, 9.9974, 10.000297 
2.0049916e+3, 2.9451087e+2, -420044.63, -206677.88, -34645.707, 0.003561658, -0.28098872, -201193.22, -147432.69, 0.0, 9.997365, 10.000181 
2.0049857e+3, 3.04511e+2, -451240.22, -197640.25, -67946.86, 0.021417249, -0.2784474, -180582.63, -180582.63, 0.0, 9.996817, 10.000175 
2.0049796e+3, 3.145106e+2, -584247.06, -186314.1, 153443.06, 0.048510246, -0.33992812, -134018.89, -134018.89, 0.0, 9.9955845, 10.000843 
2.0151067e+3, 1.24531634e+2, -1309127.5, -1711685.1, 21797.506, -0.08443668, -0.32537332, -1307950.6, 411608.84, 0.27163702, 10.004972, 9.9976425 
2.0151003e+3, 1.3452944e+2, -1236201.0, -1633718.0, -29133.521, -0.040141776, -0.3379315, -1234077.1, 387504.56, 0.19494843, 10.004315, 9.997807 
2.0150936e+3, 1.4452823e+2, -1131932.5, -1497041.3, -19117.55, -0.082024485, -0.25978968, -1130934.3, 392659.38, 0.11657595, 10.0038185, 9.998328 
2.0150879e+3, 1.5452619e+2, -1061026.9, -1433348.1, -13914.733, -0.013295638, -0.30092606, -1060507.5, 365105.06, 0.05336776, 10.00346, 9.998243 
2.0150818e+3, 1.6452432e+2, -996020.44, -1334258.3, -38341.215, 0.021449892, -0.3171733, -991728.75, 335901.2, 0.016304638, 10.003026, 9.99846 
2.0150745e+3, 1.7452268e+2, -971459.4, -1283834.4, -35909.254, -0.014364533, -0.32841086, -967384.56, 262260.6, 0.0023698893, 10.002531, 9.998371 
2.0150672e+3, 1.845211e+2, -925944.94, -1161111.5, -59100.633, -0.030491993, -0.34345838, -911927.6, 219732.39, 0.00004542485, 10.001948, 9.998822 
2.0150602e+3, 1.9451974e+2, -934208.5, -1122241.1, -79494.78, -0.012089461, -0.36431295, -905105.0, 128567.17, 0.0, 10.001253, 9.998752 
2.015053e+3, 2.0451868e+2, -848649.6, -951046.44, -64536.023, -0.01104322, -0.37541378, -817469.75, 118211.78, 0.0, 10.000824, 9.999461 
2.0150462e+3, 2.1451809e+2, -770772.25, -870027.2, -41860.094, -0.03485171, -0.3859812, -755475.5, 82210.914, 0.0, 10.000716, 9.999397 
2.015039e+3, 2.2451758e+2, -736982.44, -816770.9, -66976.51, -0.029672423, -0.36564502, -698918.94, 40772.09, 0.0, 10.000335, 9.999274 
2.015032e+3, 2.3451735e+2, -749851.8, -783187.25, -84527.74, 0.010773844, -0.31723374, -680364.1, -38670.19, 0.0, 9.999621, 9.999176 
2.0150244e+3, 2.4451648e+2, -716354.94, -692670.2, -88212.84, 0.009227715, -0.32872683, -615508.4, -71805.07, 0.0, 9.999078, 9.999385 
2.0150164e+3, 2.54515e+2, -677075.5, -633163.5, -76144.055, -0.042716555, -0.41908458, -575873.2, -130154.39, 0.0, 9.998719, 9.999293 
2.015009e+3, 2.645147e+2, -582855.8, -436650.13, -71141.45, -0.037397135, -0.4133674, -407747.4, -60025.875, 0.0, 9.998263, 10.000187 
2.0150019e+3, 2.7451602e+2, -569493.8, -384084.06, -66149.55, 0.032545418, -0.30631956, -362903.22, -113195.3, 0.0, 9.997702, 10.000146 
2.014995e+3, 2.8451622e+2, -548725.56, -379417.8, -14177.514, 0.015006872, -0.2778298, -378238.8, -226531.86, 0.0, 9.997414, 9.999644 
2.0149879e+3, 2.9451522e+2, -476415.7, -327589.84, -38666.2, -0.09741434, -0.3369995, -318143.63, -264424.84, 0.0, 9.997379, 9.999345 
2.0149827e+3, 3.0451494e+2, -420286.34, -137615.66, -108125.5, 0.04928297, -0.3435428, -100999.305, -100999.305, 0.0, 9.996833, 10.000581 
2.0149755e+3, 3.1451544e+2, -480740.6, 26943.27, 29941.951, 0.08942766, -0.37826642, 28703.072, 28703.072, 0.0, 9.995597, 10.002298 
2.0251118e+3, 1.2453813e+2, -1336527.0, -1723405.0, 26403.596, -0.057447284, -0.33804843, -1334733.4, 384761.34, 0.2820627, 10.004759, 9.997653 
2.0251049e+3, 1.3453569e+2, -1197564.5, -1635225.3, -2488.902, -0.039669715, -0.34871265, -1197550.4, 423969.47, 0.20318702, 10.004799, 9.9975605 
2.0250975e+3, 1.4453441e+2, -1053370.6, -1459759.1, 4048.8767, -0.10188578, -0.26497963, -1053330.4, 470202.25, 0.12217261, 10.004458, 9.998313 
2.0250915e+3, 1.545323e+2, -1042347.5, -1424769.6, -4041.9407, -0.005629555, -0.31127018, -1042304.75, 383247.16, 0.056387335, 10.003611, 9.998229 
2.0250848e+3, 1.6453041e+2, -1009522.4, -1347604.1, -31951.607, 0.037313487, -0.3272392, -1006529.2, 321040.34, 0.017454358, 10.002966, 9.998395 
2.0250772e+3, 1.7452879e+2, -968980.25, -1289786.9, -39757.79, -0.010435679, -0.32966715, -964126.5, 265458.3, 0.002602448, 10.002581, 9.998305 
2.0250693e+3, 1.8452711e+2, -895144.75, -1159763.9, -54352.855, -0.030555403, -0.34386975, -884415.6, 247185.1, 0.0000523828, 10.00222, 9.998699 
2.0250617e+3, 1.9452551e+2, -849168.8, -1096531.3, -44852.598, -0.008472007, -0.37519932, -841287.1, 192328.3, 0.0, 10.001903, 9.998615 
2.0250544e+3, 2.0452438e+2, -776947.4, -913037.5, -29531.566, -0.0024142268, -0.3881444, -770815.4, 164810.17, 0.0, 10.001303, 9.999491 
2.025047e+3, 2.1452391e+2, -818659.1, -888268.44, -46878.46, -0.018029932, -0.38961828, -795077.5, 42551.215, 0.0, 10.000369, 9.999438 
2.0250393e+3, 2.245235e+2, -815720.9, -867845.3, -74665.23, -0.01700391, -0.35809833, -762700.0, -23067.125, 0.0, 9.999853, 9.999155 
2.0250316e+3, 2.3452327e+2, -727792.75, -787119.75, -69118.95, 0.0050389725, -0.2963319, -682240.9, -40604.05, 0.0, 9.999837, 9.999044 
2.0250235e+3, 2.4452233e+2, -649025.94, -629854.94, -70133.516, -0.0012420951, -0.31798345, -568654.9, -25008.73, 0.0, 9.999413, 9.999654 
2.025015e+3, 2.5452077e+2, -688671.0, -607058.56, -62739.926, -0.04182572, -0.444453, -573021.94, -127361.664, 0.0, 9.998506, 9.999575 
2.025007e+3, 2.6452047e+2, -646860.9, -489409.34, -60117.508, -0.039033987, -0.445729, -469080.25, -121417.85, 0.0, 9.99792, 9.99999 
2.0249996e+3, 2.745218e+2, -587050.4, -417207.94, -82418.11, 0.016550167, -0.3168455, -383789.16, -134139.55, 0.0, 9.997688, 9.999924 
2.0249923e+3, 2.8452176e+2, -577172.9, -392344.66, -23173.648, 0.0055681677, -0.29659957, -389483.44, -237832.56, 0.0, 9.997217, 9.999648 
2.024985e+3, 2.9452056e+2, -605260.8, -380408.1, 5316.704, -0.081335284, -0.37958896, -380282.47, -326617.94, 0.0, 9.99646, 9.999423 
2.0249794e+3, 3.0452055e+2, -499901.9, -155830.83, -24899.373, 0.07939632, -0.38106918, -154038.28, -154038.28, 0.0, 9.996196, 10.000765 
2.0249712e+3, 3.145219e+2, -366627.56, 67501.195, 31802.531, 0.04319212, -0.33859792, 69818.555, 69818.555, 0.0, 9.996444, 10.002169 
2.0351167e+3, 1.245456e+2, -1337844.4, -1705311.5, 12262.4, -0.048577286, -0.29864186, -1337435.6, 381986.22, 0.2939576, 10.004724, 9.997828 
2.0351095e+3, 1.3454255e+2, -1209172.1, -1651521.1, 1567.8696, -0.044323456, -0.35862672, -1209166.6, 412285.47, 0.21231765, 10.004792, 9.997452 
2.0351018e+3, 1.4454089e+2, -1066057.8, -1480609.1, -22046.225, -0.10038666, -0.30037686, -1064888.5, 458579.78, 0.12822329, 10.004459, 9.998153 
2.0350955e+3, 1.5453903e+2, -1056269.6, -1451531.5, -32733.592, 0.033456553, -0.3045601, -1053577.1, 371908.6, 0.05960954, 10.003605, 9.99805 
2.0350882e+3, 1.6453701e+2, -1023393.8, -1375430.9, -46092.805, 0.075132445, -0.31282073, -1017458.9, 310046.03, 0.018685577, 10.002961, 9.998208 
2.0350796e+3, 1.7453493e+2, -982422.4, -1317529.0, -51784.137, -0.01581054, -0.34585038, -974602.6, 254922.84, 0.002857233, 10.002579, 9.998117 
2.0350713e+3, 1.8453327e+2, -877129.2, -1122389.3, -65311.54, -0.06135346, -0.3597518, -860821.4, 270719.5, 0.000060137387, 10.002219, 9.998958 
2.0350634e+3, 1.9453229e+2, -830941.25, -1057562.0, -54494.83, -0.046050135, -0.35715237, -818518.06, 215030.55, 0.0, 10.001897, 9.998886 
2.0350553e+3, 2.0453122e+2, -807759.9, -976986.6, -62662.4, -0.025998486, -0.35638198, -787083.2, 148474.8, 0.0, 10.001301, 9.999054 
2.0350474e+3, 2.145302e+2, -851727.7, -957333.25, -79615.77, -0.0021268015, -0.36618584, -808996.1, 28571.557, 0.0, 10.000369, 9.998965 
2.0350394e+3, 2.2452924e+2, -804138.1, -845090.75, -75900.984, -0.0021201735, -0.37114045, -745999.94, -6422.6914, 0.0, 9.999857, 9.99931 
2.0350312e+3, 2.3452847e+2, -715502.44, -761173.6, -67560.945, -0.029141331, -0.3815787, -667022.2, -25436.791, 0.0, 9.999833, 9.999225 
2.0350227e+3, 2.4452807e+2, -632897.7, -597356.0, -102670.39, -0.03188362, -0.37162843, -510929.84, 32659.19, 0.0, 9.999414, 9.999877 
2.0350137e+3, 2.5452828e+2, -670330.9, -571738.44, -95810.266, -0.010531328, -0.34239307, -513286.22, -67700.805, 0.0, 9.998515, 9.999813 
2.0350051e+3, 2.6452792e+2, -682196.2, -565310.44, -70331.36, -0.015666712, -0.34091282, -532309.0, -184720.44, 0.0, 9.997929, 9.999465 
2.0349967e+3, 2.7452686e+2, -628373.7, -506190.53, -90631.84, -0.040055763, -0.39248672, -457982.94, -208383.23, 0.0, 9.997701, 9.999309 
2.0349893e+3, 2.8452626e+2, -530635.56, -297874.22, -52353.504, -0.0090022385, -0.42582217, -286640.84, -135035.25, 0.0, 9.997226, 10.000294 
2.0349827e+3, 2.9452676e+2, -533050.56, -235108.5, -23409.87, 0.05349236, -0.41134754, -233280.36, -179681.02, 0.0, 9.996478, 10.000413 
2.0349759e+3, 3.0452758e+2, -496614.4, -150964.17, -17281.564, 0.09272044, -0.39103904, -150102.3, -150102.3, 0.0, 9.996202, 10.000796 
2.0349671e+3, 3.145279e+2, -457999.34, -129091.81, 38760.01, -0.01123582, -0.4271463, -124585.88, -124585.88, 0.0, 9.996468, 10.00081 
2.045122e+3, 1.24553435e+2, -1223422.8, -1646491.3, 27818.02, -0.05780263, -0.2995087, -1221601.5, 497743.22, 0.30789477, 10.005931, 9.997829 
2.045115e+3, 1.3455035e+2, -1209625.1, -1668693.6, 26475.17, -0.007619235, -0.3462377, -1208103.3, 413271.7, 0.22269097, 10.004919, 9.997275 
2.0451067e+3, 1.4454821e+2, -1108941.0, -1514791.0, 1263.7411, -0.052203428, -0.31871057, -1108937.0, 414458.84, 0.13490143, 10.004222, 9.997997 
2.0450993e+3, 1.545462e+2, -1026249.56, -1453573.4, -9502.068, 0.024365319, -0.31997398, -1026038.4, 399376.84, 0.063105345, 10.003913, 9.997886 
2.0450912e+3, 1.645442e+2, -943885.8, -1329098.8, -6751.9087, 0.04798084, -0.32414594, -943767.5, 383667.06, 0.02002416, 10.003492, 9.998269 
2.0450824e+3, 1.745422e+2, -923733.1, -1281852.1, 4950.7783, -0.010699584, -0.35220763, -923664.7, 305788.6, 0.0031421313, 10.002952, 9.998182 
2.0450737e+3, 1.8454054e+2, -863851.25, -1133643.0, -12519.646, -0.046153482, -0.3627087, -863271.56, 268197.22, 0.00006977841, 10.002385, 9.9988 
2.0450652e+3, 1.9453943e+2, -858026.75, -1088223.9, -35678.656, -0.048475888, -0.3571955, -852623.7, 180854.9, 0.0, 10.001788, 9.998727 
2.0450567e+3, 2.0453826e+2, -819954.9, -996842.56, -55978.05, -0.03128864, -0.35301512, -803728.5, 131760.89, 0.0, 10.001281, 9.998927 
2.045048e+3, 2.1453714e+2, -785028.44, -939746.9, -48941.93, 0.007618472, -0.3590953, -770846.6, 66653.2, 0.0, 10.000891, 9.998835 
2.0450395e+3, 2.24536e+2, -736656.1, -811334.06, -26858.182, 0.0090577025, -0.37620497, -727999.9, 11510.903, 0.0, 10.000318, 9.999319 
2.0450307e+3, 2.3453493e+2, -758017.0, -779513.2, -32436.576, -0.031004867, -0.41710848, -734594.1, -93073.07, 0.0, 9.999534, 9.999242 
2.0450218e+3, 2.4453455e+2, -705368.0, -641963.75, -91025.836, -0.036384217, -0.40258497, -577277.44, -33753.04, 0.0, 9.99896, 9.999789 
2.0450124e+3, 2.545351e+2, -658126.06, -575645.0, -108997.8, -0.005767358, -0.32806554, -500346.7, -54828.94, 0.0, 9.998642, 9.999724 
2.0450033e+3, 2.6453468e+2, -626579.75, -533913.2, -65354.523, -0.007904744, -0.33029923, -500134.13, -152612.83, 0.0, 9.998293, 9.999505 
2.0449945e+3, 2.7453312e+2, -598874.06, -487421.1, -39713.348, -0.031310055, -0.43639156, -474718.13, -225181.7, 0.0, 9.997887, 9.999346 
2.0449866e+3, 2.845325e+2, -509335.8, -276856.38, -7771.915, 0.0012959663, -0.4752299, -276596.84, -125054.98, 0.0, 9.997326, 10.000389 
2.0449793e+3, 2.945335e+2, -511971.13, -207080.1, -29679.127, 0.05589338, -0.42441761, -204217.89, -150686.5, 0.0, 9.996547, 10.000572 
2.0449717e+3, 3.0453485e+2, -538757.9, -154276.55, -36838.668, 0.081293605, -0.37167612, -150778.72, -150778.72, 0.0, 9.995847, 10.00094 
2.044963e+3, 3.1453496e+2, -599426.1, -177268.25, 56968.332, -0.015539339, -0.43218446, -169715.75, -169715.75, 0.0, 9.995417, 10.000981 
2.0551275e+3, 1.2456185e+2, -1244476.6, -1664767.6, -9106.219, -0.10584713, -0.31376278, -1244279.4, 474981.78, 0.32403496, 10.00591, 9.997671 
2.0551206e+3, 1.3455895e+2, -1229793.6, -1703493.6, -2085.292, 0.061365806, -0.3186468, -1229784.4, 391505.38, 0.23443684, 10.004907, 9.997041 
2.0551118e+3, 1.4455624e+2, -1122889.4, -1537511.5, -9669.693, 0.034127656, -0.3264973, -1122664.0, 400652.4, 0.14229883, 10.004215, 9.997838 
2.0551026e+3, 1.5455383e+2, -1038757.1, -1477302.3, -18029.092, -0.038242783, -0.35378298, -1038017.2, 387323.44, 0.06692825, 10.00391, 9.997726 
2.0550938e+3, 1.645519e+2, -924770.44, -1288354.1, -25357.416, -0.04897725, -0.35499278, -923010.44, 404348.16, 0.021495463, 10.00349, 9.998556 
2.0550855e+3, 1.7455056e+2, -903153.9, -1239227.4, -13673.158, 0.000102271224, -0.34769705, -902598.5, 326770.75, 0.0034661766, 10.002952, 9.998476 
2.0550767e+3, 1.8454883e+2, -902621.4, -1214528.5, -34100.813, 0.010559965, -0.3538496, -898936.7, 232448.89, 0.0000827448, 10.002385, 9.998246 
2.0550671e+3, 1.9454685e+2, -900181.3, -1175271.5, -55958.63, -0.02045739, -0.3765267, -889233.9, 144172.5, 0.0, 10.001785, 9.998132 
2.0550579e+3, 2.0454538e+2, -807864.3, -972190.3, -70092.086, -0.022513924, -0.37794045, -782028.94, 153391.67, 0.0, 10.001281, 9.999096 
2.0550491e+3, 2.1454465e+2, -771940.6, -911209.9, -61031.69, 0.00720607, -0.36700773, -748980.2, 88445.67, 0.0, 10.000883, 9.999035 
2.0550399e+3, 2.2454366e+2, -747451.4, -833770.9, -54623.313, 0.013437819, -0.3717771, -720994.56, 18439.746, 0.0, 10.000316, 9.9991665 
2.0550305e+3, 2.3454252e+2, -769685.1, -804242.2, -60164.87, -0.0051219813, -0.4027758, -724366.9, -82922.01, 0.0, 9.999535, 9.999073 
2.055021e+3, 2.4454165e+2, -732330.94, -699694.7, -103887.73, -0.018640228, -0.41057077, -610851.3, -67397.94, 0.0, 9.998966, 9.99939 
2.0550108e+3, 2.5454113e+2, -686691.3, -636614.56, -120009.78, -0.031467333, -0.40253243, -539059.0, -93600.52, 0.0, 9.998648, 9.999304 
2.0550014e+3, 2.6454067e+2, -583957.94, -446805.22, -81352.86, -0.018482827, -0.41410926, -408981.34, -61519.48, 0.0, 9.998297, 10.000102 
2.0549932e+3, 2.7454042e+2, -548621.7, -386073.22, -54765.555, 0.036052607, -0.45034954, -369343.53, -119882.37, 0.0, 9.997897, 10.000039 
2.0549844e+3, 2.8454047e+2, -539211.56, -341957.53, -37150.434, 0.029894162, -0.4442627, -335192.7, -183731.89, 0.0, 9.997338, 9.999937 
2.0549746e+3, 2.9454067e+2, -555913.7, -304192.22, -58629.48, -0.08076262, -0.4163723, -291206.5, -237744.94, 0.0, 9.99657, 9.999895 
2.0549673e+3, 3.04542e+2, -528726.75, -131267.13, -64299.605, 0.050043453, -0.3327638, -121123.83, -121123.83, 0.0, 9.995839, 10.0011015 
2.0549588e+3, 3.1454235e+2, -514359.03, -8078.7646, 81866.65, 0.02743499, -0.40566966, 4830.111, 4830.111, 0.0, 9.995434, 10.002143 
2.0651333e+3, 1.24570325e+2, -1315897.5, -1691684.1, -17903.86, -0.0751124, -0.34139144, -1315046.4, 404131.34, 0.34207493, 10.00528, 9.997709 
2.0651256e+3, 1.345678e+2, -1199405.0, -1666100.3, 10620.29, 0.051195234, -0.31875753, -1199163.5, 422038.38, 0.24742888, 10.005186, 9.997163 
2.0651162e+3, 1.4456493e+2, -1052623.8, -1510448.4, 21937.81, 0.030064225, -0.34610924, -1051574.9, 471655.38, 0.15040398, 10.004869, 9.997723 
2.0651065e+3, 1.5456255e+2, -991766.94, -1467435.1, 16162.471, -0.04745376, -0.3547142, -991218.44, 434036.2, 0.07110451, 10.004335, 9.997589 
2.0650971e+3, 1.6456059e+2, -883825.6, -1277517.1, -3686.9856, -0.061280955, -0.34799072, -883791.06, 443482.22, 0.023120021, 10.003821, 9.998475 
2.0650886e+3, 1.7455919e+2, -854222.25, -1223275.8, -20314.307, -0.011282697, -0.3409012, -853107.4, 376177.3, 0.0038376052, 10.0033245, 9.998405 
2.0650794e+3, 1.845574e+2, -851156.6, -1199641.8, -39917.82, 0.010990011, -0.34404832, -846642.7, 284658.97, 0.00010035138, 10.002784, 9.998156 
2.0650694e+3, 1.9455536e+2, -846493.1, -1160356.4, -26625.2, 0.0035887128, -0.36203423, -844250.5, 189072.7, 0.0, 10.002199, 9.998035 
2.0650595e+3, 2.0455372e+2, -778859.4, -974960.7, -30173.168, 0.0007693608, -0.36802566, -774321.75, 161017.36, 0.0, 10.001552, 9.998946 
2.0650499e+3, 2.1455269e+2, -788898.1, -935687.94, -50640.9, 0.0022520213, -0.3723368, -773122.94, 64224.37, 0.0, 10.000839, 9.998887 
2.06504e+3, 2.2455157e+2, -762043.8, -848073.7, -55307.613, 0.005031767, -0.37811875, -734992.94, 4363.524, 0.0, 10.000249, 9.9991 
2.0650305e+3, 2.3455054e+2, -733038.7, -793374.9, -53950.11, 0.0123845395, -0.3924944, -701394.75, -60029.363, 0.0, 9.999818, 9.99901 
2.0650202e+3, 2.4454942e+2, -684827.0, -693903.3, -75532.63, 0.00003535346, -0.41240343, -613696.3, -70320.555, 0.0, 9.999368, 9.999235 
2.0650095e+3, 2.545483e+2, -663646.9, -643251.8, -73453.29, -0.03727886, -0.44895834, -579291.56, -133904.67, 0.0, 9.998884, 9.999143 
2.0649998e+3, 2.6454788e+2, -591858.4, -444974.03, -51667.152, -0.02684901, -0.45080918, -428620.6, -81230.55, 0.0, 9.99822, 10.000151 
2.0649907e+3, 2.7454844e+2, -626440.44, -416148.94, -71680.22, 0.047013674, -0.41720122, -394040.28, -144658.05, 0.0, 9.997332, 10.000104 
2.0649812e+3, 2.8454837e+2, -643450.4, -410692.38, -65076.074, 0.022563413, -0.41290578, -393733.6, -242350.72, 0.0, 9.996704, 9.99977 
2.0649704e+3, 2.9454768e+2, -606101.56, -358126.06, -63162.414, -0.13103685, -0.46008402, -342964.78, -289571.4, 0.0, 9.996358, 9.999624 
2.0649634e+3, 3.0454946e+2, -493637.25, -100230.16, -46963.168, 0.06872321, -0.31476498, -94701.59, -94701.59, 0.0, 9.996022, 10.0012245 
2.0649546e+3, 3.1454894e+2, -505386.2, -2356.6929, 63808.785, 0.05052469, -0.4987315, 5611.1777, 5611.1777, 0.0, 9.995487, 10.002158 
2.0751394e+3, 1.2457898e+2, -1317603.0, -1670212.4, -23087.86, 0.0121896705, -0.3676445, -1316097.6, 402995.44, 0.36133727, 10.005269, 9.997954 
2.0751296e+3, 1.3457695e+2, -1185667.4, -1607650.5, 9777.159, -0.04769744, -0.34032023, -1185440.9, 435670.13, 0.26132846, 10.005174, 9.9976015 
2.07512e+3, 1.4457422e+2, -1063832.3, -1523217.1, 5383.7437, -0.07191973, -0.3711074, -1063769.1, 459368.34, 0.15911435, 10.004863, 9.997625 
2.0751113e+3, 1.5457225e+2, -1002494.0, -1487120.0, -903.7072, -0.009650186, -0.3258958, -1002492.3, 422666.2, 0.07563237, 10.004335, 9.997456 
2.0751017e+3, 1.6457012e+2, -913227.9, -1338085.5, -21131.678, 0.004407547, -0.30793917, -912179.4, 415000.56, 0.024911316, 10.003822, 9.998053 
2.0750916e+3, 1.7456797e+2, -884488.2, -1285944.5, -36794.246, -0.048749514, -0.33322796, -881143.8, 348056.6, 0.0042627356, 10.003322, 9.997978 
2.0750816e+3, 1.8456616e+2, -826670.06, -1148484.3, -60586.016, -0.04782464, -0.33348912, -815641.9, 315575.78, 0.00012354909, 10.002781, 9.998508 
2.0750718e+3, 1.945649e+2, -820702.94, -1105701.8, -46316.04, 0.019472187, -0.31279913, -813364.94, 219864.84, 0.0, 10.002193, 9.998414 
2.0750615e+3, 2.045632e+2, -812199.8, -1044511.25, -55806.64, 0.035193745, -0.322475, -799489.2, 135756.67, 0.0, 10.001552, 9.99847 
2.0750505e+3, 2.1456113e+2, -826238.3, -1012312.8, -75328.61, -0.011146624, -0.3752216, -799566.25, 37698.86, 0.0, 10.0008335, 9.998364 
2.07504e+3, 2.2455965e+2, -760290.2, -845307.06, -71013.62, -0.019353831, -0.39446363, -720034.5, 19243.898, 0.0, 10.000251, 9.999118 
2.0750302e+3, 2.3455888e+2, -730556.9, -788644.44, -67879.945, 0.016675668, -0.38656917, -685768.2, -44484.414, 0.0, 9.999818, 9.999043 
2.0750198e+3, 2.445578e+2, -678470.3, -681769.06, -93716.34, 0.015045897, -0.4082875, -586388.8, -43096.05, 0.0, 9.999372, 9.999318 
2.0750086e+3, 2.5455654e+2, -656561.9, -630576.44, -91342.05, -0.029655572, -0.4679122, -551307.7, -106003.6, 0.0, 9.998892, 9.999228 
2.0749979e+3, 2.645562e+2, -627463.9, -520460.84, -85278.49, -0.035625435, -0.43929717, -473290.47, -125983.44, 0.0, 9.998226, 9.99963 
2.0749877e+3, 2.745569e+2, -664475.0, -498444.56, -104512.08, -0.00046253193, -0.3339962, -447989.53, -198688.72, 0.0, 9.997345, 9.999534 
2.0749776e+3, 2.8455606e+2, -634907.9, -396330.5, -81928.4, -0.02664834, -0.38530052, -370905.5, -219595.48, 0.0, 9.9967165, 9.999864 
2.074967e+3, 2.9455408e+2, -595117.75, -340249.3, -78352.52, -0.114786744, -0.5697378, -318088.75, -264758.7, 0.0, 9.996376, 9.999739 
2.0749602e+3, 3.045573e+2, -485392.3, -84274.086, -64576.44, 0.14799988, -0.29565084, -74134.19, -74134.19, 0.0, 9.99603, 10.00133 
2.0749494e+3, 3.145573e+2, -575377.94, -149490.2, -55982.37, -0.011535622, -0.43246448, -142254.33, -142254.33, 0.0, 9.995497, 10.0011425 
2.0851456e+3, 1.2458908e+2, -1258732.5, -1657285.4, 26109.133, 0.032938227, -0.374453, -1257029.4, 461963.38, 0.38093877, 10.006194, 9.997668 
2.085135e+3, 1.3458686e+2, -1148513.9, -1591875.0, 35412.793, -0.0528197, -0.357864, -1145703.1, 475309.63, 0.2756783, 10.005641, 9.997529 
2.0851253e+3, 1.44584e+2, -1046202.06, -1521481.5, 13922.026, -0.06557116, -0.39232454, -1045794.6, 477245.78, 0.16827026, 10.005097, 9.997526 
2.0851158e+3, 1.5458208e+2, -979183.8, -1484200.1, 10536.854, -0.014804488, -0.3345303, -978964.06, 446096.75, 0.08048801, 10.004571, 9.997361 
2.0851058e+3, 1.6457981e+2, -899743.94, -1352215.4, 2315.7566, -0.0011284188, -0.31708124, -899732.1, 427351.7, 0.026876792, 10.004016, 9.997861 
2.0850949e+3, 1.7457733e+2, -878877.1, -1306130.1, 1750.6298, -0.041721232, -0.35331303, -878869.94, 350238.1, 0.0047472673, 10.003459, 9.997775 
2.0850842e+3, 1.845754e+2, -815318.4, -1151231.5, -29248.41, -0.047857855, -0.35118064, -812790.7, 318336.1, 0.00015303373, 10.002893, 9.998436 
2.0850737e+3, 1.9457424e+2, -804986.44, -1104385.3, -50464.484, -0.009823451, -0.31403118, -796709.3, 236428.58, 0.0, 10.002331, 9.998356 
2.085063e+3, 2.0457251e+2, -780100.5, -1046657.6, -63127.92, 0.009361331, -0.31604534, -765906.0, 169248.39, 0.0, 10.001852, 9.998308 
2.0850517e+3, 2.1457027e+2, -742108.44, -990105.56, -57352.42, 0.005923749, -0.3706999, -729487.25, 107688.305, 0.0, 10.0014925, 9.9981985 
2.0850408e+3, 2.2456858e+2, -676087.94, -825219.44, -48115.664, 0.0050047645, -0.39099568, -661911.5, 77279.48, 0.0, 10.000919, 9.998933 
2.0850302e+3, 2.3456763e+2, -702624.1, -795770.8, -64549.555, 0.008051435, -0.38351402, -669600.2, -28401.527, 0.0, 10.0001, 9.998857 
2.085019e+3, 2.4456647e+2, -679805.94, -675074.44, -96609.41, 0.001867829, -0.4066792, -580801.8, -37593.645, 0.0, 9.9993305, 9.999383 
2.0850076e+3, 2.5456527e+2, -689072.0, -636798.5, -95190.125, -0.010615734, -0.46687806, -564222.06, -119004.36, 0.0, 9.998629, 9.999311 
2.0849961e+3, 2.6456487e+2, -661218.8, -564926.2, -78026.94, -0.016812555, -0.4362437, -521386.78, -174165.36, 0.0, 9.9981165, 9.999377 
2.0849851e+3, 2.7456534e+2, -616102.7, -505835.88, -76752.68, -0.01896989, -0.32747227, -466467.06, -217247.78, 0.0, 9.997811, 9.999257 
2.084974e+3, 2.8456444e+2, -551857.4, -314281.4, -37731.785, -0.039447915, -0.38739428, -308432.84, -157203.84, 0.0, 9.997104, 10.000241 
2.0849636e+3, 2.9456273e+2, -643303.2, -319158.97, -15693.872, -0.066113085, -0.5871986, -318400.9, -265156.3, 0.0, 9.995852, 10.000139 
2.0849559e+3, 3.0456597e+2, -657800.3, -196926.89, 11248.558, 0.14960578, -0.31311914, -196652.5, -196652.5, 0.0, 9.994971, 10.001068 
2.0849441e+3, 3.1456703e+2, -683188.8, -159139.73, -49841.977, -0.056459535, -0.32205036, -154441.42, -154441.42, 0.0, 9.9945755, 10.00152 
2.0951511e+3, 1.2460051e+2, -1309541.5, -1737230.3, 14493.801, -0.027513735, -0.36228713, -1309050.9, 409827.1, 0.40002844, 10.006153, 9.996885 
2.0951414e+3, 1.3459745e+2, -1189315.5, -1669232.5, 21563.846, 0.025175111, -0.37020987, -1188348.5, 432559.34, 0.2900507, 10.005625, 9.996933 
2.0951313e+3, 1.4459418e+2, -1056720.4, -1532896.8, -2593.097, 0.03767998, -0.4115409, -1056706.3, 466233.75, 0.17772983, 10.005089, 9.997451 
2.0951197e+3, 1.5459196e+2, -983456.25, -1488954.9, -5995.5654, -0.06829558, -0.37885648, -983385.2, 441576.75, 0.08565696, 10.004572, 9.997329 
2.095109e+3, 1.6458958e+2, -899597.6, -1351108.9, -17309.252, -0.080790065, -0.37203318, -898935.06, 428050.25, 0.029029649, 10.004019, 9.9978695 
2.095099e+3, 1.745872e+2, -878555.0, -1306073.6, -17488.193, 0.0050747315, -0.39900258, -877840.8, 351167.53, 0.0052997805, 10.003461, 9.997775 
2.0950876e+3, 1.8458505e+2, -849083.7, -1222874.9, -49393.29, 0.006573922, -0.39518133, -842666.94, 288363.0, 0.0001898094, 10.002897, 9.997944 
2.0950752e+3, 1.9458331e+2, -841398.06, -1179708.4, -69418.5, -0.08815908, -0.36401054, -827707.94, 205340.42, 0.0, 10.002328, 9.997841 
2.0950639e+3, 2.0458157e+2, -768606.7, -1023075.4, -76136.04, -0.07940746, -0.34781986, -747566.7, 187498.75, 0.0, 10.001852, 9.998471 
2.0950536e+3, 2.1457997e+2, -729808.2, -963162.2, -67984.08, 0.048815347, -0.35896778, -711446.8, 125632.914, 0.0, 10.001485, 9.998387 
2.0950425e+3, 2.2457829e+2, -705306.8, -885165.4, -76977.516, 0.074798524, -0.36806688, -676860.4, 62234.945, 0.0, 10.000915, 9.998525 
2.0950301e+3, 2.3457666e+2, -734258.3, -860799.56, -93525.58, -0.018401768, -0.38341954, -684612.1, -43500.914, 0.0, 10.000096, 9.998413 
2.0950179e+3, 2.445753e+2, -675200.5, -666732.3, -123768.6, -0.042536523, -0.4057743, -547125.44, -4002.3132, 0.0, 9.999335, 9.999438 
2.0950064e+3, 2.545744e+2, -682135.2, -625378.8, -121108.21, 0.013288224, -0.44460395, -529368.4, -84239.44, 0.0, 9.99864, 9.999385 
2.0949946e+3, 2.6457375e+2, -658378.0, -562337.3, -91509.445, 0.02356494, -0.44385058, -507013.9, -159879.19, 0.0, 9.99813, 9.999389 
2.0949829e+3, 2.7457353e+2, -612551.5, -503266.2, -87877.73, -0.016290603, -0.40512845, -454427.84, -205288.25, 0.0, 9.99783, 9.999266 
2.0949717e+3, 2.8457347e+2, -505089.3, -218728.83, -85489.72, -0.016379936, -0.41546112, -195148.55, -44007.848, 0.0, 9.99711, 10.000895 
2.0949602e+3, 2.9457363e+2, -593616.0, -216272.84, -63637.016, 0.01596725, -0.4913768, -205829.8, -152693.84, 0.0, 9.995853, 10.000846 
2.0949496e+3, 3.045751e+2, -699726.06, -286508.13, -6731.482, 0.053624652, -0.40766656, -286398.5, -286398.5, 0.0, 9.994979, 10.000451 
2.0949388e+3, 3.1457555e+2, -535533.75, 137153.44, -51060.09, -0.057788398, -0.40728045, 141007.06, 141007.06, 0.0, 9.99462, 10.003533 
2.1051572e+3, 1.2461147e+2, -1285561.9, -1718323.5, -3505.8232, -0.039563708, -0.38121012, -1285533.5, 433235.78, 0.41800404, 10.006633, 9.9967785 
2.105147e+3, 1.3460864e+2, -1192615.8, -1672848.6, 19284.13, 0.014790296, -0.362335, -1191842.6, 428954.9, 0.30415845, 10.005706, 9.99687 
2.1051365e+3, 1.446054e+2, -1061836.5, -1541385.3, 25875.988, 0.040696047, -0.39182684, -1060444.4, 462385.13, 0.1874165, 10.00513, 9.997375 
2.1051244e+3, 1.5460257e+2, -930747.8, -1467328.3, 20656.998, -0.06875481, -0.4136252, -929953.75, 494903.03, 0.09115161, 10.005024, 9.99726 
2.105113e+3, 1.6459996e+2, -827889.3, -1336870.5, -7908.047, -0.08594025, -0.41533878, -827766.5, 499115.72, 0.03139429, 10.00463, 9.997672 
2.1051025e+3, 1.7459783e+2, -825976.94, -1302115.9, -24630.621, -0.0055430643, -0.3987247, -824706.2, 404197.25, 0.0059327553, 10.0039215, 9.997579 
2.1050906e+3, 1.8459558e+2, -799261.94, -1213411.3, -45741.875, -0.005775658, -0.38720292, -794270.06, 336655.94, 0.00023581006, 10.003306, 9.99781 
2.1050777e+3, 1.9459338e+2, -777498.25, -1163872.9, -38791.8, -0.09866793, -0.3895092, -773642.06, 259306.53, 0.0, 10.002831, 9.997707 
2.1050659e+3, 2.0459151e+2, -721213.1, -1006392.5, -39615.707, -0.089465715, -0.37769353, -715812.2, 219154.88, 0.0, 10.002205, 9.998416 
2.1050552e+3, 2.1459012e+2, -744630.6, -975867.9, -52407.098, 0.039828736, -0.36041906, -733307.6, 103671.88, 0.0, 10.001409, 9.998336 
2.1050432e+3, 2.2458842e+2, -746537.06, -915231.75, -63866.574, 0.07117041, -0.3651674, -725085.44, 13910.288, 0.0, 10.000677, 9.998431 
2.10503e+3, 2.3458648e+2, -751594.9, -879106.9, -55099.285, -0.009922667, -0.40279466, -731084.9, -90069.86, 0.0, 10.000022, 9.9983225 
2.1050173e+3, 2.4458513e+2, -660809.5, -674779.2, -68684.98, -0.036936224, -0.411836, -598755.1, -55727.78, 0.0, 9.999501, 9.999303 
2.1050051e+3, 2.545846e+2, -621704.56, -612194.9, -83063.195, 0.0000906291, -0.39870578, -533750.56, -88719.945, 0.0, 9.999126, 9.99924 
2.1049927e+3, 2.6458386e+2, -633166.4, -526940.8, -68261.88, 0.01420986, -0.4121758, -493562.8, -146525.3, 0.0, 9.998201, 9.9995985 
2.1049805e+3, 2.7458304e+2, -770360.2, -554007.06, -49722.887, 0.0059621492, -0.4552389, -543126.75, -294079.84, 0.0, 9.996636, 9.999495 
2.1049683e+3, 2.8458345e+2, -680348.94, -281132.03, -42551.668, 0.0056287283, -0.43596542, -276646.94, -125604.57, 0.0, 9.995813, 10.001092 
2.104956e+3, 2.9458514e+2, -586711.0, -193679.22, -59491.383, 0.009090142, -0.38157377, -184871.66, -131848.44, 0.0, 9.995818, 10.001018 
2.1049443e+3, 3.0458465e+2, -652322.56, -251474.8, -3049.6072, 0.006094267, -0.5022201, -251451.61, -251451.61, 0.0, 9.9952545, 10.000558 
2.1049328e+3, 3.1458542e+2, -589292.06, 150395.98, 33022.117, -0.06564377, -0.48460627, 151867.28, 151867.28, 0.0, 9.994089, 10.003879 
2.1151641e+3, 1.2462182e+2, -1284853.8, -1679641.0, -17871.709, -0.024559861, -0.4416479, -1284046.3, 434621.3, 0.43460283, 10.006545, 9.997289 
2.1151516e+3, 1.3462037e+2, -1181058.1, -1611455.4, -3774.2178, -0.0900879, -0.33620518, -1181025.0, 439657.28, 0.31788054, 10.005689, 9.997325 
2.1151406e+3, 1.446176e+2, -1073470.6, -1558767.1, 21055.752, -0.059492093, -0.33394638, -1072558.9, 450150.5, 0.19731341, 10.005134, 9.997254 
2.1151298e+3, 1.5461382e+2, -941022.2, -1486118.6, 17736.463, -0.023354303, -0.43755886, -940445.7, 484300.28, 0.097002886, 10.005032, 9.9971285 
2.1151184e+3, 1.6461089e+2, -855232.4, -1394009.0, -32475.309, -0.025080182, -0.44647366, -853281.94, 473493.25, 0.034003187, 10.004634, 9.99728 
2.1151057e+3, 1.746091e+2, -852937.94, -1358892.5, -49431.742, -0.07687026, -0.35381955, -848153.7, 380640.38, 0.0066628275, 10.003925, 9.997189 
2.1150933e+3, 1.8460691e+2, -783337.8, -1181693.1, -63083.89, -0.08621933, -0.32968256, -773586.5, 357229.34, 0.00029476336, 10.003309, 9.998028 
2.1150811e+3, 1.9460434e+2, -760961.8, -1129367.0, -54245.48, -0.04660568, -0.39182913, -753140.5, 279699.1, 0.00000000000010610821, 10.00283, 9.997946 
2.1150686e+3, 2.0460218e+2, -741633.5, -1049004.3, -67880.81, -0.025280157, -0.40560102, -727309.94, 207550.25, 0.0, 10.002203, 9.998125 
2.1150559e+3, 2.1460065e+2, -768360.9, -1023221.2, -79735.34, -0.025893904, -0.3728891, -745470.8, 91405.07, 0.0, 10.001399, 9.998017 
2.1150433e+3, 2.2459885e+2, -730625.7, -881907.9, -87732.87, -0.008749584, -0.37989116, -690427.94, 48465.293, 0.0, 10.000674, 9.998662 
2.1150306e+3, 2.3459692e+2, -732642.4, -841240.3, -77974.4, 0.02814109, -0.4414467, -691923.56, -51012.21, 0.0, 10.000027, 9.998581 
2.1150173e+3, 2.4459581e+2, -683234.3, -722748.8, -83495.945, 0.014584604, -0.42692018, -617189.94, -74267.61, 0.0, 9.999506, 9.998971 
2.1150036e+3, 2.5459573e+2, -647188.56, -667307.06, -97061.164, -0.054438, -0.33274278, -559666.75, -114742.63, 0.0, 9.999135, 9.998858 
2.1149902e+3, 2.6459503e+2, -603921.6, -467558.63, -126965.086, -0.046379007, -0.33962065, -391626.1, -44695.29, 0.0, 9.998207, 10.000004 
2.1149772e+3, 2.7459377e+2, -736512.6, -486088.47, -108661.37, 0.038998872, -0.46980825, -445513.47, -196571.9, 0.0, 9.996645, 9.999957 
2.1149641e+3, 2.845943e+2, -697202.1, -318954.53, -45579.957, 0.017852493, -0.45315537, -313539.53, -162604.16, 0.0, 9.995823, 10.000829 
2.1149509e+3, 2.9459682e+2, -609276.94, -247372.03, -58634.39, -0.09176831, -0.28345352, -238109.39, -185199.61, 0.0, 9.995845, 10.000637 
2.1149397e+3, 3.0459502e+2, -598907.6, -139781.58, -52739.008, 0.008756369, -0.5537649, -133801.42, -133801.42, 0.0, 9.995254, 10.001325 
2.1149272e+3, 3.1459782e+2, -696168.8, -75995.25, 45733.457, -0.03266145, -0.41370085, -72640.87, -72640.87, 0.0, 9.994103, 10.002319 
2.12517e+3, 1.2463388e+2, -1399243.6, -1735571.1, 36147.6, -0.020071713, -0.45604724, -1395402.4, 323145.47, 0.44994795, 10.005229, 9.99736 
2.1251573e+3, 1.3463208e+2, -1171116.1, -1607423.9, 24556.938, -0.11417244, -0.37817866, -1169738.4, 450827.9, 0.33127943, 10.005908, 9.997263 
2.1251458e+3, 1.4462933e+2, -1005239.56, -1542979.5, 28862.795, -0.092055105, -0.35803315, -1003694.8, 518899.16, 0.20746607, 10.005901, 9.996992 
2.125135e+3, 1.5462594e+2, -929378.6, -1505908.6, 16643.316, -0.024711214, -0.39796567, -928898.56, 495729.56, 0.10325645, 10.005268, 9.996878 
2.125123e+3, 1.6462296e+2, -842697.2, -1389085.8, -27613.87, -0.018028714, -0.39770842, -841305.1, 485352.72, 0.03689344, 10.0047455, 9.997257 
2.1251096e+3, 1.7462061e+2, -780273.2, -1325527.9, -19281.406, -0.0883391, -0.3578549, -779592.2, 449088.66, 0.007510853, 10.00444, 9.997169 
2.1250966e+3, 1.8461818e+2, -714045.4, -1160567.4, -37518.984, -0.09648256, -0.35108635, -710914.75, 419789.7, 0.0003731331, 10.003841, 9.997915 
2.1250843e+3, 1.946157e+2, -758218.9, -1141063.5, -57478.56, -0.032343015, -0.39186206, -749775.56, 282952.22, 0.0000000000129771185, 10.002906, 9.997828 
2.125071e+3, 2.0461352e+2, -760098.75, -1062066.3, -75227.54, -0.009733399, -0.40114662, -742395.6, 192353.4, 0.0, 10.002097, 9.998085 
2.1250571e+3, 2.1461183e+2, -764167.25, -1025072.1, -67833.625, -0.035369027, -0.38075566, -747584.9, 89181.61, 0.0, 10.001448, 9.997979 
2.1250437e+3, 2.2461015e+2, -707262.1, -856521.25, -64996.41, -0.026866607, -0.38108698, -682926.56, 55856.27, 0.0, 10.000777, 9.998786 
2.1250305e+3, 2.3460859e+2, -714283.0, -817923.5, -65980.27, 0.020534717, -0.41675788, -682206.06, -41409.246, 0.0, 10.0000925, 9.998708 
2.1250169e+3, 2.446075e+2, -705006.75, -730804.25, -59456.13, 0.0133834025, -0.40884304, -657066.3, -114258.37, 0.0, 9.999346, 9.998993 
2.1250024e+3, 2.5460705e+2, -734877.1, -707707.2, -45109.09, -0.048475116, -0.35352588, -674181.9, -229367.84, 0.0, 9.998525, 9.998875 
2.1249886e+3, 2.6460654e+2, -642275.56, -464207.8, -82106.02, -0.039562777, -0.34916526, -432128.4, -85309.76, 0.0, 9.997851, 10.000197 
2.1249741e+3, 2.7460605e+2, -628367.1, -410523.6, -85055.19, 0.031359285, -0.4243116, -381248.63, -132427.36, 0.0, 9.99729, 10.000163 
2.12496e+3, 2.8460643e+2, -631937.7, -302281.0, -9700.838, -0.008601161, -0.4267627, -301995.78, -151179.03, 0.0, 9.996336, 10.000693 
2.1249461e+3, 2.9460818e+2, -737630.25, -329759.44, -9285.976, -0.11462714, -0.3193874, -329548.13, -276747.97, 0.0, 9.995056, 10.00045 
2.1249348e+3, 3.046074e+2, -697814.6, -175360.38, -23818.807, 0.025229488, -0.48224518, -174276.72, -174276.72, 0.0, 9.994521, 10.001433 
2.1249217e+3, 3.1461105e+2, -744533.75, -116760.945, 6205.7783, 0.0077593313, -0.26729554, -116699.61, -116699.61, 0.0, 9.993842, 10.002166 
2.135175e+3, 1.246475e+2, -1432303.8, -1804494.3, 53889.465, -0.040037118, -0.42732736, -1424658.1, 293753.3, 0.46467888, 10.005119, 9.996954 
2.1351635e+3, 1.3464382e+2, -1208185.6, -1689706.5, 41150.3, -0.06973068, -0.4824886, -1204694.3, 415755.16, 0.34472114, 10.0059, 9.99667 
2.1351519e+3, 1.4464061e+2, -1032254.9, -1598617.9, 10409.048, -0.06871498, -0.4578522, -1032063.7, 490419.7, 0.21806057, 10.00591, 9.996606 
2.1351399e+3, 1.5463884e+2, -953689.7, -1556129.4, -4625.7686, -0.07593119, -0.29865158, -953654.2, 470849.8, 0.11000679, 10.005277, 9.99653 
2.1351275e+3, 1.6463608e+2, -822863.06, -1344131.5, -38279.27, -0.06701719, -0.27359542, -820067.0, 506464.03, 0.040116668, 10.004749, 9.997566 
2.1351145e+3, 1.7463233e+2, -758077.1, -1278550.0, -28637.158, -0.045858152, -0.40873495, -756506.2, 472058.2, 0.008503734, 10.00444, 9.997492 
2.1351011e+3, 1.8462938e+2, -746098.2, -1227016.8, -70665.77, -0.042581633, -0.4476694, -735929.6, 394662.88, 0.00048067392, 10.0038395, 9.997461 
2.1350867e+3, 1.9462743e+2, -792935.75, -1211892.6, -90282.555, -0.059457753, -0.38727525, -774308.6, 258305.17, 0.000000000014668022, 10.002899, 9.997346 
2.1350728e+3, 2.0462544e+2, -745577.06, -1031776.8, -98825.625, -0.04472338, -0.36331666, -714768.7, 219865.66, 0.0, 10.002094, 9.998296 
2.1350591e+3, 2.1462354e+2, -747368.5, -990853.6, -89591.05, 0.006912368, -0.38617623, -717956.1, 118696.36, 0.0, 10.001448, 9.998216 
2.135045e+3, 2.2462213e+2, -706786.44, -856009.4, -89570.58, 0.01285045, -0.3721363, -664822.75, 73843.04, 0.0, 10.000778, 9.998789 
2.13503e+3, 2.3462135e+2, -715985.2, -820783.25, -90065.8, -0.03690404, -0.3294333, -664184.8, -23511.994, 0.0, 10.000089, 9.998692 
2.1350156e+3, 2.4462007e+2, -678251.6, -676114.06, -90660.87, -0.042792775, -0.35553673, -586515.7, -43830.566, 0.0, 9.999349, 9.999368 
2.1350017e+3, 2.5461844e+2, -704986.94, -648683.0, -75263.13, 0.010976407, -0.45871964, -596479.0, -151777.83, 0.0, 9.998536, 9.999275 
2.1349871e+3, 2.6461825e+2, -642496.8, -466905.75, -104990.46, 0.028752081, -0.44231054, -417839.84, -71137.484, 0.0, 9.99786, 10.0001745 
2.1349709e+3, 2.7461964e+2, -629886.6, -417798.9, -108685.625, -0.020576049, -0.32516775, -371994.6, -123306.68, 0.0, 9.997307, 10.000106 
2.1349555e+3, 2.846197e+2, -633894.4, -308043.1, -60793.902, -0.0742473, -0.35522902, -297070.3, -146382.67, 0.0, 9.996344, 10.00065 
2.1349417e+3, 2.946191e+2, -735697.94, -327225.7, -51350.758, -0.06680584, -0.47759253, -320869.1, -268174.34, 0.0, 9.995061, 10.000465 
2.1349294e+3, 3.046214e+2, -725860.6, -235823.83, -31236.111, 0.046332266, -0.31252986, -233840.78, -233840.78, 0.0, 9.994527, 10.001018 
2.1349145e+3, 3.1462213e+2, -652933.5, 75220.25, -94090.266, -0.08933302, -0.34491095, 87181.87, 87181.87, 0.0, 9.993842, 10.00348 
2.1451797e+3, 1.2466003e+2, -1463523.5, -1815188.4, 60392.813, -0.061563835, -0.4441673, -1453441.1, 264847.38, 0.47999632, 10.00477, 9.997059 
2.1451694e+3, 1.3465677e+2, -1171570.1, -1656929.9, 62545.094, -0.09096654, -0.4603163, -1163639.9, 456682.7, 0.35897473, 10.006384, 9.996678 
2.1451579e+3, 1.4465335e+2, -971108.06, -1551196.4, 18291.99, -0.09831213, -0.4560928, -970531.8, 551826.44, 0.22948946, 10.006503, 9.996643 
2.1451452e+3, 1.5465136e+2, -886099.4, -1512512.8, 27433.248, -0.078067765, -0.32389316, -884900.25, 539480.3, 0.11741898, 10.005817, 9.996568 
2.1451323e+3, 1.6464858e+2, -771515.75, -1317806.0, 2973.2974, -0.054620255, -0.30192024, -771499.56, 554908.06, 0.04374336, 10.0051365, 9.99756 
2.1451192e+3, 1.7464502e+2, -764457.4, -1283641.6, -12165.14, -0.03663791, -0.41576368, -764172.5, 464266.88, 0.0096748825, 10.004413, 9.997468 
2.1451047e+3, 1.8464209e+2, -779700.2, -1261450.4, -67483.09, -0.03627147, -0.44317356, -770425.8, 360042.06, 0.0006300481, 10.003691, 9.997294 
2.1450897e+3, 1.9464001e+2, -792997.7, -1231305.3, -66170.14, -0.054671206, -0.37900335, -783226.0, 249265.23, 0.000000045114895, 10.002985, 9.9971695 
2.1450749e+3, 2.0463799e+2, -702093.9, -996301.2, -57554.004, -0.03904394, -0.3551054, -691235.7, 243276.6, 0.0, 10.002333, 9.998424 
2.1450607e+3, 2.1463613e+2, -693999.9, -950137.1, -57671.344, 0.016510395, -0.38499427, -681613.7, 154915.48, 0.0, 10.001751, 9.998348 
2.1450457e+3, 2.2463477e+2, -673785.6, -839164.8, -67446.016, 0.0132427635, -0.37457734, -649767.5, 88774.43, 0.0, 10.001, 9.998798 
2.1450298e+3, 2.3463401e+2, -719026.94, -821117.6, -67502.914, -0.057957053, -0.3295661, -685442.06, -44893.066, 0.0, 10.000064, 9.9987 
2.1450147e+3, 2.4463287e+2, -707866.5, -670687.2, -76945.93, -0.06273657, -0.35168955, -610117.2, -67557.18, 0.0, 9.999063, 9.999541 
2.145e+3, 2.5463143e+2, -771079.25, -658878.94, -78079.87, 0.014310533, -0.45276886, -618834.94, -174261.13, 0.0, 9.997992, 9.999466 
2.1449843e+3, 2.646314e+2, -734947.44, -504018.6, -95884.96, 0.030771257, -0.43905795, -469396.53, -122822.61, 0.0, 9.997193, 10.00024 
2.1449678e+3, 2.746328e+2, -713722.06, -453066.9, -93152.766, -0.031754583, -0.3212736, -423198.63, -174639.39, 0.0, 9.996709, 10.000153 
2.144952e+3, 2.846329e+2, -682869.8, -320212.47, -57607.44, -0.06320633, -0.3532166, -311281.56, -160722.92, 0.0, 9.995958, 10.000752 
2.144937e+3, 2.9463214e+2, -748187.9, -314006.72, -33806.902, -0.029582353, -0.5024818, -311390.16, -258822.86, 0.0, 9.994892, 10.000638 
2.1449237e+3, 3.046351e+2, -789622.06, -239015.53, 39133.914, 0.0385778, -0.29761076, -236248.03, -236248.03, 0.0, 9.993968, 10.001265 
2.1449082e+3, 3.1463465e+2, -715210.56, 99479.36, 3522.6367, -0.08378095, -0.46606424, 99494.586, 99494.586, 0.0, 9.993195, 10.003952 
2.1551843e+3, 1.24671705e+2, -1429231.3, -1729030.6, 85518.65, -0.09325114, -0.4925283, -1406552.4, 311624.16, 0.49751824, 10.005084, 9.997599 
2.1551748e+3, 1.346709e+2, -1150806.5, -1588191.5, 90978.1, -0.18496962, -0.31914943, -1132637.4, 487548.4, 0.37508798, 10.006469, 9.997215 
2.1551636e+3, 1.4466752e+2, -960424.8, -1501191.9, -692.4338, -0.18797415, -0.35769606, -960423.94, 561795.3, 0.24226297, 10.006492, 9.997037 
2.1551517e+3, 1.546635e+2, -869538.6, -1460420.8, 7505.5723, -0.03662246, -0.46649593, -869443.3, 554814.56, 0.1256933, 10.005812, 9.996927 
2.1551383e+3, 1.6466044e+2, -796929.9, -1366274.1, -21634.342, 0.012485643, -0.4737111, -796109.0, 530178.8, 0.047859944, 10.00513, 9.997229 
2.1551234e+3, 1.7465861e+2, -790282.4, -1336482.9, -36845.195, -0.06327968, -0.37975764, -787808.1, 440498.56, 0.011067231, 10.004412, 9.997107 
2.1551082e+3, 1.8465619e+2, -772328.4, -1246973.4, -92071.51, -0.078687854, -0.3415788, -755094.2, 375237.5, 0.0008381487, 10.003693, 9.997395 
2.155093e+3, 1.946533e+2, -784208.5, -1214606.1, -89618.9, -0.02259961, -0.36996937, -766293.44, 266068.0, 0.00000065828607, 10.00299, 9.997284 
2.1550776e+3, 2.0465103e+2, -700028.44, -992390.56, -78081.59, 0.0025342912, -0.3779109, -680481.9, 253902.17, 0.0, 10.002333, 9.99845 
2.1550623e+3, 2.1464956e+2, -694209.3, -947873.56, -76984.13, -0.010259671, -0.37468255, -672673.9, 163723.58, 0.0, 10.001738, 9.998371 
2.1550463e+3, 2.24648e+2, -674381.9, -838208.4, -100754.664, -0.027122011, -0.38480437, -626444.1, 111967.85, 0.0, 10.00099, 9.998811 
2.15503e+3, 2.3464648e+2, -717429.3, -818782.0, -101204.84, -0.047009088, -0.41647893, -654922.1, -14495.718, 0.0, 10.000067, 9.998716 
2.1550137e+3, 2.4464571e+2, -708720.56, -673832.6, -117919.94, -0.05027578, -0.3992964, -572073.4, -29639.32, 0.0, 9.999068, 9.999517 
2.1549973e+3, 2.5464588e+2, -771418.5, -661277.8, -118517.055, -0.042679355, -0.33770686, -585661.4, -141228.08, 0.0, 9.997997, 9.999448 
2.1549809e+3, 2.6464576e+2, -722179.1, -479879.9, -116170.5, -0.03597513, -0.33991614, -433181.94, -86747.48, 0.0, 9.997203, 10.000403 
2.1549648e+3, 2.7464545e+2, -700603.3, -428418.97, -111815.18, -0.010776991, -0.41282642, -388375.63, -139939.39, 0.0, 9.996718, 10.000318 
2.1549487e+3, 2.8464597e+2, -664686.2, -282496.25, -98581.2, 0.020830894, -0.42237565, -258566.7, -108135.93, 0.0, 9.995958, 10.001012 
2.1549322e+3, 2.9464725e+2, -723781.25, -265941.2, -72131.1, 0.0006218742, -0.39582193, -254846.06, -202427.39, 0.0, 9.994902, 10.000963 
2.154917e+3, 3.0464834e+2, -729913.94, -116595.58, 3965.724, -0.014140125, -0.43538445, -116569.94, -116569.94, 0.0, 9.993971, 10.002107 
2.1549012e+3, 3.1465098e+2, -753901.5, 12149.645, 19289.438, -0.112569585, -0.38451377, 12635.051, 12635.051, 0.0, 9.993217, 10.003345 
2.1651821e+3, 1.3468559e+2, -1001345.4, -1515425.4, 114408.74, -0.21685322, -0.2640701, -977033.44, 643009.06, 0.39374405, 10.008353, 9.99714 
2.1651706e+3, 1.4468142e+2, -970397.25, -1486994.6, 30927.201, -0.10395961, -0.39009964, -968552.3, 553530.3, 0.2566349, 10.006416, 9.997207 
2.1651572e+3, 1.5467767e+2, -904316.94, -1461613.6, 28232.871, -0.043869186, -0.48633322, -902890.3, 521227.47, 0.13494708, 10.005518, 9.997063 
2.1651429e+3, 1.646748e+2, -829636.6, -1392868.0, 14482.328, -0.018564628, -0.47630754, -829264.5, 496881.78, 0.052559547, 10.004959, 9.9971285 
2.165128e+3, 1.7467305e+2, -743190.8, -1325577.8, 17534.992, -0.047690015, -0.36375958, -742663.3, 485502.6, 0.012741325, 10.004799, 9.996996 
2.1651123e+3, 1.846706e+2, -669899.3, -1180264.6, -36821.176, -0.053674564, -0.33001345, -667256.5, 462934.88, 0.0011293857, 10.004324, 9.997548 
2.1650963e+3, 1.9466758e+2, -698104.1, -1155928.5, -33917.813, -0.027992176, -0.38811833, -695605.0, 336616.16, 0.0000036037882, 10.003507, 9.997437 
2.1650799e+3, 2.0466532e+2, -679563.5, -994605.9, -28118.566, -0.0151103875, -0.39633316, -677073.5, 257169.64, 0.0, 10.002525, 9.9983425 
2.1650638e+3, 2.1466403e+2, -753349.75, -988495.4, -39187.957, -0.019689426, -0.35996145, -746990.9, 89264.414, 0.0, 10.001386, 9.998261 
2.1650471e+3, 2.2466245e+2, -741657.25, -862822.56, -60410.02, -0.028198998, -0.36981967, -716685.06, 21585.227, 0.0, 10.000496, 9.998878 
2.1650301e+3, 2.3466066e+2, -735590.75, -819425.3, -56988.96, -0.03509526, -0.4370422, -706763.44, -66476.14, 0.0, 9.999908, 9.998787 
2.165013e+3, 2.4465993e+2, -680890.2, -656011.2, -72727.67, -0.04013619, -0.42317033, -594666.8, -52372.24, 0.0, 9.999239, 9.999558 
2.1649954e+3, 2.5466043e+2, -698808.8, -620600.2, -69448.31, -0.054799475, -0.33086178, -580003.75, -135713.27, 0.0, 9.998471, 9.999498 
2.1649781e+3, 2.6466036e+2, -690341.0, -446840.88, -67096.54, -0.050961506, -0.33482853, -429576.47, -83285.6, 0.0, 9.997347, 10.000559 
2.1649612e+3, 2.7465987e+2, -819337.0, -467800.66, -63634.055, 0.008232482, -0.44176894, -456636.38, -208341.8, 0.0, 9.99583, 10.000474 
2.1649444e+3, 2.846608e+2, -797609.06, -321354.56, -39424.387, 0.051280677, -0.43079877, -318113.06, -167827.81, 0.0, 9.994941, 10.001234 
2.1649268e+3, 2.9466295e+2, -750000.7, -252723.84, -20742.572, -0.014938688, -0.3383024, -251860.13, -199595.81, 0.0, 9.994616, 10.00119 
2.1649104e+3, 3.046633e+2, -748934.0, -89828.87, 19026.867, -0.05134021, -0.48249543, -89280.06, -89280.06, 0.0, 9.993693, 10.002421 
2.1648936e+3, 3.1466633e+2, -839376.75, -45051.68, -3268.9492, -0.16372173, -0.4257365, -45038.227, -45038.227, 0.0, 9.992701, 10.0032015 
2.1751907e+3, 1.3470073e+2, -1050786.6, -1570926.5, 35024.34, -0.1913086, -0.28857467, -1048438.8, 571454.75, 0.41420075, 10.008312, 9.996543 
2.1751794e+3, 1.4469503e+2, -986550.7, -1495314.3, 7986.4243, 0.13327348, -0.5433713, -986425.4, 535523.3, 0.2721831, 10.006401, 9.997143 
2.1751621e+3, 1.546937e+2, -914483.7, -1473856.4, 2588.7214, -0.10473817, -0.39101943, -914471.75, 509490.2, 0.14512122, 10.005527, 9.996974 
2.1751465e+3, 1.6469145e+2, -823530.0, -1375153.5, 10701.813, -0.14740889, -0.31894854, -823322.44, 502662.4, 0.057942823, 10.004966, 9.997248 
2.1751332e+3, 1.746882e+2, -735568.94, -1308056.9, 14814.041, 0.0042417687, -0.3684409, -735185.9, 492832.4, 0.014787167, 10.0048, 9.997116 
2.1751174e+3, 1.846852e+2, -657695.3, -1153620.1, -64887.965, 0.03187304, -0.40560725, -649345.8, 480702.22, 0.0015407312, 10.004319, 9.997734 
2.1750994e+3, 1.9468267e+2, -686382.6, -1130133.8, -62119.684, -0.07342794, -0.43011442, -677850.7, 354220.56, 0.000013465528, 10.003499, 9.997618 
2.1750818e+3, 2.0468071e+2, -696943.8, -1030458.44, -69061.07, -0.092234634, -0.40823993, -683208.94, 250881.66, 0.0, 10.002522, 9.998099 
2.175065e+3, 2.1467945e+2, -771640.06, -1026653.1, -79439.24, -0.017877059, -0.34440252, -748918.4, 87185.8, 0.0, 10.001385, 9.998001 
2.1750478e+3, 2.24678e+2, -733553.44, -846133.56, -82051.14, 0.004725146, -0.33378562, -690339.94, 47778.684, 0.0, 10.000496, 9.998993 
2.17503e+3, 2.3467644e+2, -727337.44, -801200.4, -77750.28, -0.026569784, -0.39111257, -678193.1, -38060.24, 0.0, 9.999902, 9.998916 
2.1750122e+3, 2.4467537e+2, -673686.75, -641241.1, -101844.84, -0.03462627, -0.42226452, -554335.1, -12192.47, 0.0, 9.999239, 9.9996605 
2.1749942e+3, 2.5467494e+2, -689985.1, -605134.9, -98690.2, -0.028758993, -0.43198505, -540137.25, -95990.766, 0.0, 9.998483, 9.9996 
2.1749759e+3, 2.646751e+2, -679845.9, -425836.47, -125303.68, -0.017433, -0.42416754, -374428.13, -28283.834, 0.0, 9.99735, 10.000703 
2.1749572e+3, 2.7467602e+2, -808126.0, -445664.53, -118935.125, 0.024085263, -0.40605095, -410123.2, -161987.97, 0.0, 9.995833, 10.000625 
2.1749389e+3, 2.8467727e+2, -784191.0, -296767.8, -54945.54, 0.020096231, -0.37819615, -290650.75, -140527.44, 0.0, 9.994952, 10.001399 
2.1749204e+3, 2.9467908e+2, -739893.0, -236582.98, -40708.21, -0.10058492, -0.33652025, -233311.73, -181205.53, 0.0, 9.994635, 10.001293 
2.1749043e+3, 3.0467975e+2, -773241.2, -135008.64, -33317.535, -0.04477225, -0.43648088, -133274.1, -133274.1, 0.0, 9.993674, 10.002118 
2.1748875e+3, 3.146819e+2, -789132.44, 52554.754, -99847.195, -0.03782605, -0.4412974, 64237.22, 64237.22, 0.0, 9.992713, 10.003875 
2.1851993e+3, 1.3471691e+2, -1119630.6, -1646833.3, 36508.12, -0.15046905, -0.378799, -1117114.4, 502619.9, 0.4344679, 10.008, 9.995954 
2.1851858e+3, 1.4471173e+2, -968551.0, -1481776.4, 73999.266, 0.09874768, -0.5509534, -958094.5, 563690.56, 0.2880677, 10.006688, 9.997142 
2.185168e+3, 1.547106e+2, -801434.0, -1407536.1, 84370.49, -0.11467548, -0.3786877, -789908.6, 633887.2, 0.15608908, 10.006496, 9.996983 
2.1851522e+3, 1.6470827e+2, -711680.6, -1334389.6, 95165.6, -0.14533763, -0.30889988, -697461.56, 628358.0, 0.06413898, 10.005886, 9.997091 
2.1851379e+3, 1.7470457e+2, -748968.94, -1331707.6, 81377.87, -0.0017980372, -0.38751057, -737818.1, 490039.7, 0.017329425, 10.004789, 9.996961 
2.1851216e+3, 1.8470147e+2, -709396.0, -1173978.9, -12064.879, 0.024064828, -0.42486846, -709082.9, 420805.34, 0.002125942, 10.003945, 9.997775 
2.1851029e+3, 1.9469936e+2, -692897.6, -1126772.4, -20705.953, -0.073579066, -0.4161412, -691911.7, 339995.78, 0.000039466046, 10.003428, 9.997676 
2.1850845e+3, 2.0469736e+2, -656699.9, -1015915.1, -32096.54, -0.08985461, -0.39641526, -653854.5, 280072.13, 0.0, 10.002823, 9.998054 
2.185067e+3, 2.1469563e+2, -664657.75, -980742.06, -29335.389, -0.016842406, -0.37343854, -661958.2, 173986.22, 0.0, 10.002144, 9.997951 
2.1850486e+3, 2.246941e+2, -647659.9, -817781.9, -32553.883, 0.009802319, -0.36253867, -641643.25, 96316.625, 0.0, 10.001142, 9.998877 
2.18503e+3, 2.3469286e+2, -751841.3, -825930.6, -47942.035, -0.0111611495, -0.37545988, -728299.3, -88327.3, 0.0, 9.99979, 9.998799 
2.1850115e+3, 2.4469188e+2, -751839.5, -654442.4, -71564.734, -0.0140168965, -0.4017009, -616578.44, -74597.625, 0.0, 9.998599, 9.999877 
2.1849924e+3, 2.546913e+2, -803767.8, -635475.25, -60375.12, -0.0033014175, -0.44775638, -616056.3, -172071.38, 0.0, 9.997599, 9.999817 
2.1849729e+3, 2.6469153e+2, -751058.2, -464833.8, -91103.52, -0.008422804, -0.4449069, -438296.5, -92314.44, 0.0, 9.9968815, 10.000661 
2.184953e+3, 2.746926e+2, -719586.06, -408749.94, -99155.055, -0.012303528, -0.40389195, -379813.75, -131841.97, 0.0, 9.996467, 10.000573 
2.1849339e+3, 2.846938e+2, -694392.75, -241011.03, -43386.12, -0.012270248, -0.38248378, -236896.55, -86936.125, 0.0, 9.995516, 10.00151 
2.1849152e+3, 2.946956e+2, -836973.75, -273132.63, -38814.086, -0.055505197, -0.3584938, -270473.25, -218529.33, 0.0, 9.993925, 10.001384 
2.1848975e+3, 3.046965e+2, -910276.25, -226764.83, -22303.766, -0.0516623, -0.4229889, -226037.8, -226037.8, 0.0, 9.992843, 10.00189 
2.18488e+3, 3.146992e+2, -817435.25, 114479.84, -69278.34, -0.05001441, -0.34932822, 119601.83, 119601.83, 0.0, 9.992196, 10.004549 
2.1952075e+3, 1.3473397e+2, -1172189.5, -1734347.3, -16055.285, -0.11454144, -0.52552915, -1171731.4, 447835.03, 0.45348373, 10.007811, 9.995427 
2.1951894e+3, 1.4473124e+2, -983019.9, -1480094.5, 66798.516, -0.19850855, -0.42378405, -974199.8, 547395.06, 0.30406445, 10.006642, 9.9971895 
2.1951748e+3, 1.5472823e+2, -802332.25, -1395043.0, 79914.016, -0.079600334, -0.44556412, -791746.7, 631874.5, 0.16800271, 10.006512, 9.997081 
2.1951592e+3, 1.6472514e+2, -741705.2, -1393774.5, 58415.242, -0.02518126, -0.43842992, -736513.44, 589138.2, 0.07137658, 10.0059, 9.996674 
2.195142e+3, 1.7472197e+2, -778555.75, -1392554.3, 42731.445, -0.068311855, -0.4197569, -775596.06, 452089.94, 0.020533953, 10.004795, 9.99654 
2.1951245e+3, 1.8471931e+2, -714559.6, -1186928.1, -30524.877, -0.07581006, -0.38929316, -712595.25, 417118.16, 0.0029594165, 10.003956, 9.997682 
2.1951064e+3, 1.947174e+2, -698055.6, -1138328.4, -37604.4, -0.035845865, -0.35024536, -694866.9, 336864.44, 0.000097971104, 10.003429, 9.997597 
2.1950878e+3, 2.0471512e+2, -646610.75, -995040.2, -56226.605, -0.015462464, -0.36354825, -637762.06, 295990.56, 0.000000012688071, 10.002822, 9.998198 
2.1950689e+3, 2.1471253e+2, -655108.6, -959159.3, -52266.55, -0.020637471, -0.4430781, -646374.9, 189401.9, 0.0, 10.002135, 9.998103 
2.1950495e+3, 2.2471069e+2, -673235.56, -870041.75, -81666.14, -0.014697786, -0.45175898, -643761.7, 94033.305, 0.0, 10.001137, 9.998521 
2.19503e+3, 2.3470983e+2, -777240.94, -879687.2, -97437.36, 0.004626424, -0.39119598, -718382.94, -78577.08, 0.0, 9.999793, 9.99843 
2.1950102e+3, 2.4470936e+2, -728821.56, -607386.06, -110728.06, 0.016817791, -0.3633585, -541821.0, -10.599355, 0.0, 9.998602, 10.000199 
2.1949902e+3, 2.5470945e+2, -779789.25, -586995.94, -98152.6, 0.015743464, -0.3775844, -545819.9, -102012.9, 0.0, 9.997602, 10.000149 
2.1949697e+3, 2.647095e+2, -766348.9, -498045.88, -108836.27, -0.02856159, -0.3974036, -459449.13, -113643.85, 0.0, 9.996887, 10.000431 
2.1949485e+3, 2.747095e+2, -733794.4, -442217.34, -114634.4, -0.10791185, -0.4381809, -402546.06, -154740.53, 0.0, 9.996483, 10.000337 
2.1949293e+3, 2.847103e+2, -691801.7, -236564.16, -104436.414, -0.047485217, -0.44674712, -213748.77, -63950.9, 0.0, 9.995519, 10.00154 
2.194911e+3, 2.947123e+2, -831846.0, -262134.1, -99188.836, 0.12247762, -0.40105215, -245358.92, -193580.64, 0.0, 9.993921, 10.001462 
2.19489e+3, 3.0471346e+2, -910748.94, -232492.23, -43153.766, -0.09500325, -0.4444959, -229757.63, -229757.63, 0.0, 9.992863, 10.0018425 
2.1948712e+3, 3.1471586e+2, -808295.2, 136029.58, -10362.688, -0.14192137, -0.39194524, 136143.28, 136143.28, 0.0, 9.992199, 10.004688 
2.2052163e+3, 1.3475475e+2, -1306200.4, -1719947.6, 17453.338, 0.09548604, -0.35622552, -1305465.4, 313897.97, 0.47251797, 10.00573, 9.996534 
2.2051959e+3, 1.4475094e+2, -988521.1, -1508310.4, 118856.02, -0.23955563, -0.3926701, -962632.7, 558768.56, 0.32120705, 10.006892, 9.996837 
2.2051816e+3, 1.5474719e+2, -776557.6, -1415210.6, 114495.61, -0.08422341, -0.45133954, -756651.7, 666784.06, 0.18154064, 10.006995, 9.996702 
2.2051653e+3, 1.6474375e+2, -673221.25, -1371124.3, 58539.473, -0.024414334, -0.45163667, -668345.06, 657124.75, 0.08004692, 10.006522, 9.996531 
2.205147e+3, 1.7474073e+2, -669390.06, -1353068.1, 62175.17, -0.094344445, -0.40310147, -663781.75, 563720.5, 0.024611821, 10.005644, 9.996403 
2.2051287e+3, 1.84738e+2, -606302.06, -1142307.8, 11320.956, -0.099079326, -0.3708831, -606063.06, 523467.1, 0.00413739, 10.004743, 9.997608 
2.20511e+3, 1.947357e+2, -644990.9, -1119821.5, 3576.9812, -0.023803674, -0.36298856, -644963.94, 386587.6, 0.00021465281, 10.003825, 9.997533 
2.2050911e+3, 2.0473328e+2, -636029.25, -999629.94, -21330.303, 0.008331518, -0.3818145, -634782.2, 298792.03, 0.00000016341261, 10.002937, 9.998111 
2.205071e+3, 2.1473081e+2, -660895.44, -970361.4, -37187.56, -0.008547633, -0.43847546, -656489.44, 179108.0, 0.0, 10.002134, 9.998026 
2.2050507e+3, 2.2472899e+2, -656229.5, -858594.2, -74815.96, -0.012530224, -0.4445763, -631573.5, 106042.086, 0.0, 10.001243, 9.998548 
2.20503e+3, 2.3472795e+2, -705429.56, -840867.56, -61320.21, 0.0016494956, -0.40310767, -681791.94, -42164.523, 0.0, 10.000271, 9.998466 
2.2050093e+3, 2.4472742e+2, -636248.6, -567430.5, -65574.31, 0.016271383, -0.38184705, -527785.7, 13846.788, 0.0, 9.999258, 10.000157 
2.2049883e+3, 2.547275e+2, -699034.4, -553771.06, -82619.516, 0.027233263, -0.38801283, -516396.66, -72767.47, 0.0, 9.998182, 10.000097 
2.2049668e+3, 2.647277e+2, -743661.8, -473773.13, -88885.2, -0.016048532, -0.39559567, -447129.88, -101504.07, 0.0, 9.996987, 10.000548 
2.2049446e+3, 2.7472797e+2, -853625.7, -486483.06, -68780.46, -0.103949144, -0.42591476, -474020.78, -226397.75, 0.0, 9.995604, 10.000456 
2.2049241e+3, 2.8472832e+2, -823634.44, -316863.66, -51966.91, -0.05366894, -0.4765172, -311589.6, -161970.34, 0.0, 9.994687, 10.0013895 
2.204905e+3, 2.9472935e+2, -773048.1, -244804.06, -60798.977, 0.112411395, -0.516109, -237896.64, -186287.05, 0.0, 9.994375, 10.001363 
2.2048832e+3, 3.0473238e+2, -828910.94, -194572.81, -16522.264, -0.06331424, -0.36636353, -194142.75, -194142.75, 0.0, 9.993426, 10.001834 
2.2048637e+3, 3.147334e+2, -932788.75, 23614.021, 56158.92, -0.053714372, -0.440641, 26900.32, 26900.32, 0.0, 9.991575, 10.004214 
2.2152193e+3, 1.347752e+2, -1286551.8, -1507228.5, 59553.92, -0.17352307, -0.26120153, -1271505.8, 347658.7, 0.4945051, 10.004924, 9.999124 
2.2152045e+3, 1.4477074e+2, -1035692.94, -1610095.3, 124905.805, -0.05846491, -0.44912183, -1009707.3, 511497.97, 0.3414629, 10.006927, 9.996116 
2.215188e+3, 1.5476732e+2, -835994.2, -1534489.3, 118876.83, -0.13424172, -0.39936063, -816316.9, 606923.94, 0.1978039, 10.006996, 9.995882 
2.2151707e+3, 1.6476391e+2, -673477.44, -1355510.6, 29966.986, -0.14022914, -0.35576352, -672163.25, 653112.4, 0.09068408, 10.006525, 9.9966345 
2.2151528e+3, 1.7476071e+2, -661803.56, -1334879.0, 32206.67, -0.08603184, -0.34048942, -660265.94, 567041.9, 0.029814322, 10.005661, 9.99652 
2.2151338e+3, 1.8475738e+2, -608795.44, -1148980.6, -21457.674, -0.05343994, -0.3692737, -607944.44, 521395.28, 0.0057744044, 10.004756, 9.997557 
2.2151138e+3, 1.9475415e+2, -647656.0, -1127016.4, -29109.287, -0.041066114, -0.44954926, -645894.8, 385474.1, 0.00042424534, 10.003833, 9.99748 
2.2150938e+3, 2.0475176e+2, -657438.8, -1046168.0, -50507.016, -0.019280516, -0.4473294, -650983.7, 282408.38, 0.0000010850493, 10.002944, 9.997788 
2.2150736e+3, 2.1475036e+2, -683534.8, -1017064.7, -65116.03, 0.011629631, -0.36363795, -671272.8, 164135.1, 0.0, 10.0021305, 9.997707 
2.2150522e+3, 2.2474882e+2, -628648.7, -800237.1, -110077.836, 0.01015187, -0.34568262, -574880.1, 162543.08, 0.0, 10.001237, 9.998952 
2.21503e+3, 2.3474714e+2, -675538.56, -778878.75, -96403.91, -0.024514234, -0.41086715, -617830.8, 21606.855, 0.0, 10.00027, 9.998892 
2.215008e+3, 2.4474595e+2, -665200.6, -627359.1, -106949.33, -0.01792032, -0.45605433, -537669.75, 3778.2522, 0.0, 9.999257, 9.999747 
2.2149864e+3, 2.5474545e+2, -727773.25, -616067.8, -122702.64, 0.026305089, -0.4788656, -537104.1, -93651.59, 0.0, 9.998193, 9.999665 
2.2149642e+3, 2.6474616e+2, -709213.1, -404188.2, -141998.08, 0.025175128, -0.44111624, -348317.56, -2872.8816, 0.0, 9.996993, 10.001024 
2.2149412e+3, 2.7474794e+2, -818210.94, -415356.03, -122717.88, -0.012321752, -0.36736512, -380917.63, -133492.66, 0.0, 9.995611, 10.000941 
2.2149189e+3, 2.8474784e+2, -848149.7, -367126.1, -66912.76, -0.03570115, -0.4695533, -357991.66, -208566.67, 0.0, 9.994686, 10.001044 
2.2148974e+3, 2.9474652e+2, -790590.7, -283005.0, -68691.32, -0.08042609, -0.7056505, -273873.3, -222434.45, 0.0, 9.994382, 10.001097 
2.2148775e+3, 3.0475318e+2, -821463.5, -179296.17, -85411.01, 0.026354296, -0.19356622, -168130.3, -168130.3, 0.0, 9.9934225, 10.001943 
2.2148557e+3, 3.1475163e+2, -1016267.75, -160472.63, 7576.2163, -0.021248369, -0.52495277, -160405.56, -160405.56, 0.0, 9.991613, 10.002936 
2.2252129e+3, 1.447908e+2, -908412.44, -1501766.4, 114761.7, 0.005965067, -0.5144078, -886989.6, 634018.6, 0.36685938, 10.008489, 9.996119 
2.2251953e+3, 1.547883e+2, -790958.25, -1503982.0, 161197.89, -0.13767774, -0.3708963, -756208.7, 666826.94, 0.2179075, 10.007532, 9.995863 
2.2251773e+3, 1.6478492e+2, -633269.0, -1338530.4, 95978.34, -0.16579388, -0.3173256, -620440.7, 704629.2, 0.10384488, 10.00694, 9.996562 
2.2251587e+3, 1.7478094e+2, -567563.9, -1293271.8, 85049.805, -0.08513468, -0.3736717, -557729.7, 669379.0, 0.036414642, 10.006391, 9.996458 
2.2251388e+3, 1.8477732e+2, -502865.03, -1118613.8, 17958.49, -0.046450436, -0.4188658, -502341.72, 626801.25, 0.007995189, 10.00559, 9.997364 
2.225118e+3, 1.9477433e+2, -533548.9, -1091696.8, -1525.878, -0.048443787, -0.45432368, -533544.7, 497625.63, 0.0007681168, 10.004706, 9.997301 
2.225097e+3, 2.0477198e+2, -552863.44, -1008596.75, -19817.48, -0.029703347, -0.43315226, -552003.25, 381190.34, 0.000005509597, 10.00372, 9.997672 
2.2250757e+3, 2.1477039e+2, -615915.44, -996015.4, -20939.975, 0.010927258, -0.3581365, -614765.3, 220446.61, 0.0, 10.002647, 9.997602 
2.2250535e+3, 2.247688e+2, -587258.2, -768823.1, -73235.09, 0.0150516, -0.3444156, -561400.9, 175826.73, 0.0, 10.001473, 9.999052 
2.2250302e+3, 2.3476723e+2, -677603.0, -767194.8, -84198.53, -0.016695317, -0.4085567, -627025.56, 12214.779, 0.0, 10.000204, 9.999002 
2.2250073e+3, 2.4476606e+2, -712197.6, -645249.4, -90560.77, -0.008575854, -0.4607908, -582174.2, -40923.934, 0.0, 9.998916, 9.999787 
2.2249843e+3, 2.5476542e+2, -812106.7, -650562.6, -71189.164, 0.03800187, -0.5013219, -623668.4, -180412.25, 0.0, 9.997591, 9.999717 
2.2249609e+3, 2.647661e+2, -753008.9, -418787.47, -77051.29, 0.040630694, -0.46885496, -401879.44, -56631.17, 0.0, 9.996666, 10.0010805 
2.2249372e+3, 2.7476805e+2, -737315.6, -369453.88, -94081.11, 0.012322942, -0.37906587, -346788.97, -99562.59, 0.0, 9.996139, 10.001002 
2.2249141e+3, 2.8476822e+2, -787438.1, -337062.0, -38036.98, -0.018384892, -0.46215713, -333872.16, -184647.9, 0.0, 9.9951, 10.001051 
2.2248912e+3, 2.947669e+2, -926433.44, -355216.38, -13268.811, -0.09412531, -0.69769144, -354908.3, -303669.97, 0.0, 9.993479, 10.001037 
2.2248703e+3, 3.047734e+2, -943717.0, -158828.42, -21498.967, 0.024863202, -0.23194614, -158239.97, -158239.97, 0.0, 9.992246, 10.002648 
2.2248466e+3, 3.147714e+2, -1051263.1, -160617.25, 82659.18, -0.08131416, -0.68247473, -153010.78, -153010.78, 0.0, 9.991315, 10.003073 
2.235221e+3, 1.4481106e+2, -919128.6, -1446093.3, 87651.92, -0.050929036, -0.58138806, -904931.6, 615879.06, 0.39891595, 10.008392, 9.996797 
2.2352031e+3, 1.5480998e+2, -771039.0, -1399692.3, 129583.48, -0.10078254, -0.3656695, -745375.75, 677446.1, 0.24272595, 10.007542, 9.996573 
2.2351846e+3, 1.648067e+2, -657279.6, -1370662.0, 76501.195, -0.114022255, -0.33240187, -649168.1, 675686.0, 0.120046824, 10.006962, 9.996328 
2.2351651e+3, 1.7480132e+2, -587823.3, -1327527.1, 63329.246, -0.100706354, -0.49896133, -582440.6, 644465.06, 0.044693124, 10.006399, 9.996219 
2.2351442e+3, 1.8479772e+2, -525787.9, -1165912.4, -14061.481, -0.08089005, -0.51620597, -525479.1, 603461.7, 0.010919537, 10.005603, 9.997033 
2.2351228e+3, 1.9479612e+2, -554592.94, -1137711.8, -32678.303, -0.0506569, -0.38140875, -552767.3, 478189.88, 0.0012863271, 10.004716, 9.996982 
2.2351006e+3, 2.0479381e+2, -547377.5, -997079.75, -58896.914, -0.027382357, -0.34376243, -539791.8, 393188.56, 0.000017500723, 10.003719, 9.997751 
2.235078e+3, 2.1479079e+2, -610081.3, -982717.4, -58980.055, -0.014574489, -0.41952226, -600968.9, 234041.6, 0.0, 10.002641, 9.997697 
2.235055e+3, 2.2478884e+2, -602891.5, -799642.06, -119776.45, 0.000102320424, -0.43665743, -546269.7, 190759.92, 0.0, 10.001467, 9.998844 
2.2350308e+3, 2.3478809e+2, -692261.0, -797709.9, -130812.47, 0.018858487, -0.397719, -603947.25, 35089.406, 0.0, 10.000203, 9.998795 
2.2350065e+3, 2.4478756e+2, -677480.7, -573257.0, -141302.66, 0.038961105, -0.3994475, -474763.1, 66277.45, 0.0, 9.998916, 10.000282 
2.2349823e+3, 2.5478727e+2, -774042.06, -572891.94, -121015.266, 0.053798474, -0.45573354, -516113.75, -73072.71, 0.0, 9.997596, 10.000249 
2.2349575e+3, 2.647875e+2, -780541.75, -475204.72, -98991.39, 0.026756702, -0.47798756, -445920.03, -100882.586, 0.0, 9.996663, 10.000695 
2.234933e+3, 2.7478832e+2, -761788.9, -422223.5, -113748.53, -0.030442743, -0.46208543, -387641.6, -140613.17, 0.0, 9.996146, 10.000637 
2.2349092e+3, 2.8478938e+2, -758434.9, -279945.7, -99877.336, -0.008029731, -0.4565584, -259934.69, -110916.61, 0.0, 9.99511, 10.00144 
2.234886e+3, 2.9479048e+2, -915923.8, -337609.75, -75209.23, 0.049099904, -0.48946026, -327988.9, -276980.63, 0.0, 9.993493, 10.001152 
2.2348619e+3, 3.0479285e+2, -868146.8, 3378.5828, -57265.64, -0.052366797, -0.4831091, 7125.2505, 7125.2505, 0.0, 9.992227, 10.00377 
2.2348379e+3, 3.1479618e+2, -945335.3, 61731.78, -63857.92, -0.06761382, -0.5548273, 65764.84, 65764.84, 0.0, 9.991295, 10.004615 
2.2452287e+3, 1.4483443e+2, -1042350.75, -1502626.5, 133696.95, -0.04643126, -0.46607092, -1006333.94, 514247.4, 0.43894303, 10.007406, 9.996738 
2.2452107e+3, 1.5483193e+2, -755451.0, -1386726.1, 141758.6, -0.11562824, -0.38664004, -725079.06, 697528.1, 0.2731773, 10.007975, 9.996491 
2.2451916e+3, 1.6482824e+2, -593157.56, -1316389.1, 70739.18, -0.1270564, -0.38892284, -586303.56, 738339.6, 0.13986622, 10.00755, 9.99642 
2.2451718e+3, 1.7482369e+2, -488940.47, -1260562.9, 80470.68, -0.08751747, -0.48551437, -480637.72, 746048.6, 0.054920863, 10.007113, 9.996335 
2.2451504e+3, 1.8482025e+2, -418745.8, -1133564.1, 8734.044, -0.064951956, -0.48136294, -418639.1, 710080.6, 0.014633408, 10.006458, 9.996843 
2.2451277e+3, 1.9481815e+2, -446077.97, -1106605.1, -3356.7336, -0.05757271, -0.37467712, -446060.9, 584680.56, 0.0020037019, 10.005559, 9.996789 
2.2451045e+3, 2.0481563e+2, -456192.28, -946904.2, -38402.805, -0.039043162, -0.35322407, -453205.06, 479561.75, 0.000040802755, 10.00432, 9.997806 
2.2450808e+3, 2.1481264e+2, -580432.94, -960043.3, -42969.598, -0.009007904, -0.43134758, -575629.8, 259166.16, 0.0, 10.002811, 9.99777 
2.2450563e+3, 2.2481075e+2, -603285.06, -790978.25, -91446.4, 0.008400539, -0.4507927, -566098.75, 170715.58, 0.0, 10.001426, 9.998923 
2.245031e+3, 2.3481005e+2, -693394.75, -788669.6, -79547.3, 0.017563311, -0.41174364, -648311.6, -9490.768, 0.0, 10.000155, 9.9988785 
2.2450057e+3, 2.4480976e+2, -654068.06, -554917.4, -88684.38, 0.038605712, -0.39702114, -502892.34, 37930.47, 0.0, 9.999048, 10.000343 
2.24498e+3, 2.5480986e+2, -699086.9, -529778.56, -104462.89, 0.06298072, -0.42210346, -479975.2, -37155.02, 0.0, 9.998081, 10.00031 
2.2449541e+3, 2.6481003e+2, -742666.9, -447139.06, -75095.945, 0.02311841, -0.45464277, -429151.44, -84334.27, 0.0, 9.996883, 10.00078 
2.2449285e+3, 2.7481046e+2, -856668.2, -456663.16, -52263.355, -0.057137404, -0.48877844, -449947.38, -203135.06, 0.0, 9.995451, 10.000732 
2.244904e+3, 2.8481194e+2, -830628.06, -270776.66, -31504.473, 0.0025948659, -0.46424973, -269009.38, -120211.98, 0.0, 9.994429, 10.001828 
2.2448806e+3, 2.9481417e+2, -869372.75, -274023.25, -14005.24, 0.13758175, -0.41983086, -273693.97, -222918.66, 0.0, 9.993642, 10.001514 
2.2448532e+3, 3.0481496e+2, -913842.94, -33118.066, -26804.29, -0.10225939, -0.5853144, -32303.05, -32303.05, 0.0, 9.991978, 10.003638 
2.2448294e+3, 3.14821e+2, -1099528.5, 33243.68, -93567.164, 0.0073608467, -0.37523115, 40920.316, 40920.316, 0.0, 9.990032, 10.005033 
2.2552365e+3, 1.4486057e+2, -1096989.8, -1595623.6, 147014.64, -0.00624118, -0.18699637, -1056872.4, 463451.03, 0.4888033, 10.007634, 9.996017 
2.255218e+3, 1.5485409e+2, -822752.8, -1503077.5, 148332.06, -0.19053268, -0.4316703, -791818.4, 630573.2, 0.31060496, 10.00807, 9.995639 
2.2551985e+3, 1.6484964e+2, -587439.94, -1268096.0, 56853.67, -0.20562834, -0.48040968, -582723.75, 741712.9, 0.16397218, 10.007578, 9.996804 
2.2551794e+3, 1.7484789e+2, -467839.88, -1200737.8, 67320.05, -0.050414015, -0.34062794, -461707.53, 764744.4, 0.06728195, 10.007143, 9.996741 
2.2551575e+3, 1.8484475e+2, -425465.25, -1144062.5, -22756.215, -0.0055144387, -0.32214338, -424745.34, 703736.06, 0.01913647, 10.006471, 9.996766 
2.2551331e+3, 1.9484037e+2, -451983.72, -1117031.1, -35817.766, -0.07631483, -0.43409342, -450060.25, 580463.75, 0.0029102303, 10.005554, 9.99672 
2.2551084e+3, 2.0483737e+2, -456417.06, -946106.44, -92915.27, -0.06787378, -0.45738703, -439379.75, 493173.88, 0.000078152654, 10.004314, 9.997814 
2.2550839e+3, 2.1483578e+2, -579781.8, -957071.25, -96501.02, 0.021340078, -0.3973069, -556532.0, 278037.75, 0.0, 10.002803, 9.997795 
2.2550581e+3, 2.2483435e+2, -578769.06, -737287.06, -137991.47, 0.03517137, -0.3917284, -498894.03, 237689.16, 0.0, 10.001414, 9.999298 
2.2550307e+3, 2.3483306e+2, -666517.56, -732617.7, -125922.375, -0.025041236, -0.45075488, -569380.25, 69213.67, 0.0, 10.000154, 9.999265 
2.2550042e+3, 2.448326e+2, -682907.1, -613885.25, -125899.15, -0.012124137, -0.45151192, -517852.72, 22745.12, 0.0, 9.999044, 9.99994 
2.254978e+3, 2.5483304e+2, -727427.94, -590604.2, -141458.27, 0.059597787, -0.3999299, -501883.56, -59288.992, 0.0, 9.99809, 9.999888 
2.2549511e+3, 2.6483363e+2, -701920.5, -363871.0, -131082.8, 0.024228895, -0.4006332, -318998.44, 25590.111, 0.0, 9.996887, 10.00135 
2.2549236e+3, 2.748344e+2, -818169.44, -377403.56, -104252.34, -0.079265885, -0.46023184, -353989.06, -107410.06, 0.0, 9.995452, 10.001277 
2.2548984e+3, 2.8483582e+2, -807043.56, -221306.45, -62976.582, 0.011897472, -0.48371577, -214611.92, -66048.79, 0.0, 9.994426, 10.0021715 
2.2548746e+3, 2.9483795e+2, -823323.0, -181442.9, -52464.293, 0.17862257, -0.48567796, -177183.0, -126642.516, 0.0, 9.993653, 10.002146 
2.2548448e+3, 3.0483958e+2, -1001016.7, -212859.28, -109309.81, -0.14910853, -0.5502377, -197979.97, -197979.97, 0.0, 9.991974, 10.002405 
2.2548191e+3, 3.1484362e+2, -1129465.4, -27258.887, 73610.734, -0.022321137, -0.3819733, -22364.535, -22364.535, 0.0, 9.990023, 10.0046215 
2.265227e+3, 1.5487887e+2, -631480.3, -1479481.1, 220693.4, -0.24707595, -0.50418574, -577482.9, 844666.1, 0.35631397, 10.011123, 9.994434 
2.265208e+3, 1.6487494e+2, -430144.06, -1215436.9, 171894.69, -0.08534542, -0.4214661, -394165.94, 930023.2, 0.19265984, 10.009313, 9.996432 
2.2651872e+3, 1.7487232e+2, -313760.0, -1157727.5, 142175.7, -0.039928336, -0.32761407, -290452.6, 935760.2, 0.081618875, 10.008555, 9.996387 
2.2651641e+3, 1.8486877e+2, -314214.44, -1091056.5, 18534.785, -0.03042728, -0.3324025, -313772.47, 814474.06, 0.024249302, 10.007296, 9.9967375 
2.2651389e+3, 1.9486442e+2, -404963.84, -1092253.4, 7857.0737, -0.058863543, -0.4406436, -404874.03, 625415.0, 0.0039385664, 10.005879, 9.996733 
2.265113e+3, 2.048616e+2, -421665.7, -908425.56, -49325.92, -0.04625821, -0.45605817, -416717.53, 515599.28, 0.00012574285, 10.004466, 9.997999 
2.2650866e+3, 2.1486032e+2, -534187.4, -913721.25, -41605.313, 0.009675222, -0.38216996, -529680.06, 304649.72, 0.0, 10.003026, 9.997984 
2.2650594e+3, 2.2485904e+2, -529770.44, -699366.7, -76560.01, 0.016846726, -0.37661338, -500322.53, 236019.03, 0.0, 10.001689, 9.999426 
2.265031e+3, 2.3485772e+2, -618957.75, -695627.6, -83195.71, -0.019964013, -0.44937122, -565689.75, 72662.53, 0.0, 10.00042, 9.999391 
2.2650032e+3, 2.4485725e+2, -675046.44, -608462.6, -72846.95, -0.00023185955, -0.45961112, -561660.6, -21304.148, 0.0, 9.999089, 9.999955 
2.2649758e+3, 2.548577e+2, -787891.25, -618874.8, -56316.293, 0.062090013, -0.40894854, -601829.25, -159475.8, 0.0, 9.997671, 9.999895 
2.2649477e+3, 2.648584e+2, -764840.2, -382710.56, -51305.82, 0.03072771, -0.3998262, -375941.97, -31595.633, 0.0, 9.996408, 10.0014515 
2.2649191e+3, 2.7485937e+2, -846096.06, -381751.16, -62114.234, -0.048683595, -0.44576913, -373585.88, -127250.97, 0.0, 9.995222, 10.001358 
2.2648928e+3, 2.8486088e+2, -853688.5, -234641.48, -31380.469, 0.022156041, -0.47135803, -233054.83, -84736.11, 0.0, 9.994066, 10.002253 
2.2648671e+3, 2.948631e+2, -902206.56, -194075.14, -47109.69, 0.11606621, -0.4730026, -190954.83, -140659.78, 0.0, 9.993003, 10.002372 
2.2648367e+3, 3.0486527e+2, -1021585.0, -232484.16, -106981.77, -0.1379058, -0.4951291, -218237.39, -218237.39, 0.0, 9.9918785, 10.002314 
2.2648093e+3, 3.1486833e+2, -1046276.6, -19440.668, 255445.84, -0.045121267, -0.4014777, 40596.32, 40596.32, 0.0, 9.99074, 10.004325 
2.2752377e+3, 1.5490599e+2, -794200.75, -1707862.4, 123667.04, -0.2860231, -0.59778607, -777757.94, 644124.4, 0.40975338, 10.010727, 9.992924 
2.2752205e+3, 1.6490375e+2, -515637.75, -1346549.6, 146424.78, 0.20527841, -0.22417668, -490589.6, 833315.1, 0.22495167, 10.009387, 9.995367 
2.2751956e+3, 1.7489693e+2, -389608.53, -1302262.9, 112316.74, -0.064011835, -0.44091934, -375989.4, 849980.8, 0.0971195, 10.008599, 9.99534 
2.2751702e+3, 1.8489233e+2, -317613.6, -1091057.3, -31423.87, -0.13794579, -0.50034213, -316339.0, 811676.2, 0.029532509, 10.007303, 9.996736 
2.2751452e+3, 1.9489014e+2, -404161.53, -1085653.6, -40947.543, -0.01074439, -0.39498204, -401710.0, 628327.94, 0.0049512396, 10.005863, 9.996786 
2.2751182e+3, 2.048881e+2, -399819.06, -858545.6, -100968.76, 0.019637633, -0.35311252, -378578.66, 553479.5, 0.00017208426, 10.004446, 9.998352 
2.2750892e+3, 2.1488611e+2, -512313.1, -864491.2, -91329.29, -0.04970829, -0.3872806, -490037.88, 344039.47, 0.0, 10.003008, 9.998331 
2.2750603e+3, 2.2488472e+2, -540322.6, -718353.2, -122765.5, -0.04944716, -0.40373877, -477696.6, 258393.8, 0.0, 10.001677, 9.999301 
2.2750318e+3, 2.3488393e+2, -629323.0, -715740.94, -129187.48, 0.026373336, -0.40985048, -536310.0, 101787.26, 0.0, 10.000413, 9.999256 
2.2750029e+3, 2.4488357e+2, -644565.6, -544527.7, -127051.17, 0.06938484, -0.42477402, -458004.0, 82096.05, 0.0, 9.999086, 10.000397 
2.2749737e+3, 2.5488368e+2, -756089.9, -554115.06, -108596.77, 0.06483104, -0.45178953, -506806.47, -64708.65, 0.0, 9.997675, 10.000339 
2.2749443e+3, 2.648843e+2, -792864.3, -440964.97, -97148.516, 0.041793842, -0.45168084, -415926.78, -71835.63, 0.0, 9.9964075, 10.001052 
2.2749153e+3, 2.7488548e+2, -871812.75, -438026.16, -108298.266, 0.030745031, -0.44006026, -412491.7, -166411.45, 0.0, 9.995234, 10.000967 
2.274887e+3, 2.8488702e+2, -865129.25, -258899.14, -73705.484, 0.023181925, -0.42941785, -250066.7, -102001.625, 0.0, 9.994067, 10.002086 
2.2748582e+3, 2.9488942e+2, -919162.8, -225828.67, -87665.72, -0.07333872, -0.39735422, -214915.92, -164874.63, 0.0, 9.992987, 10.002163 
2.2748296e+3, 3.048924e+2, -952783.4, -86562.13, -153851.19, -0.04396234, -0.376525, -60047.91, -60047.91, 0.0, 9.991863, 10.003324 
2.2747998e+3, 3.1489512e+2, -1093386.9, -142016.75, 109279.93, -0.05627814, -0.42461243, -129625.61, -129625.61, 0.0, 9.990828, 10.003451 
2.2852442e+3, 1.5493198e+2, -1213669.5, -1023951.0, 184491.77, -0.17624196, -0.23249573, -911360.3, 510269.53, 0.4669122, 10.000255, 10.004996 
2.2852322e+3, 1.6493098e+2, -141080.08, -1193717.8, 143215.95, 0.23366408, -0.28231803, -121942.84, 1201692.5, 0.25810176, 10.013499, 9.994698 
2.2852053e+3, 1.7492387e+2, -144588.1, -1225927.5, 136198.98, -0.07424755, -0.4632145, -127697.13, 1098008.6, 0.1122353, 10.010882, 9.994769 
2.2851777e+3, 1.8491939e+2, -159568.3, -990211.94, 18526.633, -0.15454625, -0.49669245, -159155.3, 968595.25, 0.03431866, 10.008357, 9.996944 
2.2851512e+3, 1.949175e+2, -381940.7, -1050362.8, 23718.152, -0.006268146, -0.37967044, -381100.13, 648669.8, 0.0057709045, 10.005918, 9.997001 
2.2851226e+3, 2.0491561e+2, -434251.75, -854965.94, -14596.762, 0.032288894, -0.342223, -433745.9, 498042.72, 0.00020371804, 10.004121, 9.998532 
2.285092e+3, 2.1491359e+2, -521727.47, -849848.5, -18817.697, -0.04064334, -0.3958117, -520651.8, 313156.13, 0.0, 10.00286, 9.998504 
2.2850621e+3, 2.2491232e+2, -557507.94, -722445.94, -50055.883, -0.03838205, -0.40959615, -543505.56, 192314.56, 0.0, 10.001538, 9.999341 
2.2850323e+3, 2.3491183e+2, -674661.3, -734441.8, -43529.543, 0.046798397, -0.39048722, -651747.75, -13922.765, 0.0, 10.000087, 9.999285 
2.285002e+3, 2.4491161e+2, -659136.0, -529385.2, -35869.254, 0.0835517, -0.40093088, -520129.5, 19696.81, 0.0, 9.99889, 10.000596 
2.2849715e+3, 2.5491172e+2, -708065.8, -509026.63, -36855.684, 0.06319616, -0.44557375, -502421.34, -60598.176, 0.0, 9.99791, 10.000536 
2.284941e+3, 2.6491234e+2, -738811.4, -427129.56, -21485.87, 0.042149175, -0.4531284, -425655.4, -81838.8, 0.0, 9.996829, 10.000945 
2.2849107e+3, 2.7491343e+2, -816850.94, -421827.7, -11985.193, 0.043045368, -0.43672174, -421464.4, -175657.92, 0.0, 9.995652, 10.000876 
2.2848809e+3, 2.849149e+2, -849566.94, -257510.45, 30399.67, 0.0027940457, -0.42503214, -255953.66, -108161.07, 0.0, 9.9942, 10.002031 
2.2848503e+3, 2.9491717e+2, -1016235.1, -290068.9, 20679.889, -0.1398166, -0.40077338, -289480.47, -239709.02, 0.0, 9.992398, 10.002005 
2.2848217e+3, 3.0492076e+2, -1022578.1, -78880.1, -47550.473, 0.017105546, -0.31839663, -76490.21, -76490.21, 0.0, 9.991212, 10.003689 
2.28479e+3, 3.1492323e+2, -1143911.1, -193998.81, 103330.98, -0.11377508, -0.44097018, -182888.47, -182888.47, 0.0, 9.9906025, 10.003201 
2.2952434e+3, 1.649568e+2, -200894.14, -1228943.5, 69616.09, 0.011205897, -0.5746562, -196201.39, 1127178.4, 0.2876726, 10.013521, 9.994394 
2.295216e+3, 1.7495301e+2, -173919.92, -1250020.8, 52811.508, -0.07789239, -0.3956967, -171334.31, 1054086.5, 0.12483936, 10.010851, 9.994606 
2.2951868e+3, 1.8494965e+2, -142867.4, -939176.06, -66293.06, -0.09473044, -0.3332436, -137386.2, 990069.1, 0.037877448, 10.008315, 9.997333 
2.2951566e+3, 1.9494632e+2, -361676.7, -1000382.44, -59723.563, -0.05078611, -0.3975772, -356140.1, 673347.06, 0.0062576975, 10.005886, 9.99736 
2.2951262e+3, 2.0494401e+2, -436106.47, -855788.06, -59446.066, -0.009538415, -0.4205057, -427848.7, 503660.9, 0.0002138001, 10.004108, 9.998533 
2.2950958e+3, 2.1494266e+2, -525084.44, -852973.75, -61287.258, 0.02988734, -0.40771568, -514003.44, 319519.7, 0.0, 10.002843, 9.998491 
2.2950642e+3, 2.2494173e+2, -544760.75, -693745.9, -102941.73, 0.043825455, -0.3955913, -492185.88, 243346.4, 0.0, 10.001527, 9.999544 
2.2950323e+3, 2.3494129e+2, -661684.25, -706630.06, -96091.63, 0.03414443, -0.3917311, -585472.6, 52063.895, 0.0, 10.000082, 9.999479 
2.2950006e+3, 2.4494128e+2, -662176.75, -535879.25, -73775.39, 0.038387336, -0.38614985, -501916.84, 37619.195, 0.0, 9.998889, 10.000552 
2.294969e+3, 2.549418e+2, -710004.2, -514827.13, -74275.64, 0.049225893, -0.3875925, -489776.38, -48246.348, 0.0, 9.997915, 10.000494 
2.2949375e+3, 2.6494238e+2, -723993.8, -397912.84, -66522.586, 0.025370032, -0.40560722, -384864.0, -41340.758, 0.0, 9.996835, 10.001143 
2.2949058e+3, 2.749431e+2, -799024.5, -388455.03, -54538.727, -0.019471139, -0.44284043, -381333.8, -135819.33, 0.0, 9.9956665, 10.0011 
2.2948745e+3, 2.849445e+2, -847011.25, -252234.53, -38696.68, -0.041322306, -0.45614251, -249727.45, -102226.48, 0.0, 9.994199, 10.0020685 
2.2948432e+3, 2.9494646e+2, -1027450.7, -310499.9, -48806.848, -0.084582694, -0.46378228, -307192.6, -257709.1, 0.0, 9.992384, 10.001872 
2.294813e+3, 3.0494988e+2, -1044922.56, -126722.16, -65780.34, 0.0333883, -0.3705774, -122033.56, -122033.56, 0.0, 9.991215, 10.003361 
2.2947805e+3, 3.1495357e+2, -1099516.5, -95456.77, 38745.902, -0.11114767, -0.3538817, -93963.82, -93963.82, 0.0, 9.990588, 10.003878 
2.3052566e+3, 1.6498715e+2, -68006.12, -1152494.0, 43774.42, -0.09128241, -0.57268673, -66242.07, 1256841.8, 0.30750963, 10.015155, 9.99439 
2.3052268e+3, 1.7498368e+2, -215733.25, -1253907.4, 47039.234, -0.06578593, -0.36169282, -213606.27, 1011515.6, 0.13245042, 10.010531, 9.994731 
2.305195e+3, 1.8498057e+2, -199873.92, -935789.56, -13018.992, -0.052069057, -0.29628658, -199643.67, 927509.75, 0.039599493, 10.007784, 9.997614 
2.3051624e+3, 1.9497727e+2, -317909.13, -949954.25, -10850.844, -0.06388048, -0.38749236, -317722.9, 711461.5, 0.006361906, 10.0060625, 9.997623 
2.30513e+3, 2.0497501e+2, -374548.0, -816401.8, 13544.085, -0.02929232, -0.42038, -374133.22, 557072.8, 0.00020465067, 10.004488, 9.998622 
2.3050989e+3, 2.149738e+2, -511077.66, -836937.75, 18981.545, 0.05750489, -0.40011573, -509975.7, 323242.6, 0.0, 10.002898, 9.998574 
2.3050661e+3, 2.2497292e+2, -533584.9, -670779.44, -15571.47, 0.07619986, -0.39374515, -531839.7, 203387.08, 0.0, 10.001527, 9.9997015 
2.3050322e+3, 2.3497245e+2, -615765.4, -667856.9, -11309.876, 0.029817319, -0.40785012, -613415.75, 23815.04, 0.0, 10.000323, 9.99963 
2.3049992e+3, 2.4497248e+2, -640659.2, -540402.8, 15505.102, 0.024441274, -0.3979442, -538059.6, 1170.607, 0.0, 9.999098, 10.000422 
2.304967e+3, 2.5497314e+2, -734202.1, -542011.7, 7083.5083, 0.055702146, -0.37224776, -541751.0, -100526.914, 0.0, 9.997813, 10.000358 
2.3049341e+3, 2.6497376e+2, -764541.7, -400001.7, 4845.041, 0.03166425, -0.3853124, -399937.3, -56720.195, 0.0, 9.99648, 10.001301 
2.3049009e+3, 2.749745e+2, -874327.7, -406960.78, 12328.691, -0.028914558, -0.4368299, -406635.78, -161428.02, 0.0, 9.995074, 10.001259 
2.3048684e+3, 2.8497604e+2, -922748.6, -288255.7, 13408.114, -0.044451565, -0.4420155, -287972.5, -140780.2, 0.0, 9.993676, 10.002074 
2.3048358e+3, 2.949782e+2, -1034025.0, -307409.88, 1204.9427, -0.056932967, -0.4296965, -307407.88, -258235.53, 0.0, 9.99231, 10.00193 
2.3048045e+3, 3.0498037e+2, -1017307.44, -91138.555, 57214.133, 0.047932573, -0.47703972, -87617.54, -87617.54, 0.0, 9.991296, 10.0035715 
2.3047712e+3, 3.1498462e+2, -1134412.0, -94730.984, 92192.73, -0.090796754, -0.41372472, -86619.17, -86619.17, 0.0, 9.990281, 10.004027 
2.3152718e+3, 1.650215e+2, -70519.87, -1130087.5, -75053.33, -0.105077595, -0.30296972, -65229.957, 1257522.8, 0.31118405, 10.015069, 9.994658 
2.3152375e+3, 1.7501558e+2, -201080.1, -1205560.9, -81885.95, -0.045947198, -0.36474445, -194448.48, 1030363.2, 0.132954, 10.010472, 9.995107 
2.3152031e+3, 1.8501204e+2, -191755.13, -911620.5, -70939.81, -0.031059733, -0.37640917, -184830.89, 942015.3, 0.039164037, 10.007748, 9.997803 
2.3151685e+3, 1.950101e+2, -310106.75, -928195.5, -66639.09, -0.056861117, -0.34765404, -303003.72, 725860.06, 0.0061133336, 10.006037, 9.9977865 
2.3151346e+3, 2.0500837e+2, -364047.03, -790354.3, -43424.94, -0.034518946, -0.3442858, -359668.6, 571211.5, 0.00018232694, 10.004469, 9.99881 
2.3151013e+3, 2.1500686e+2, -501800.5, -811560.8, -35820.188, 0.035712965, -0.3745095, -497712.25, 335182.9, 0.0, 10.002871, 9.998762 
2.3150674e+3, 2.2500576e+2, -528039.3, -656202.75, -59088.215, 0.055363648, -0.4040888, -504955.2, 229949.84, 0.0, 10.001513, 9.999809 
2.3150325e+3, 2.3500519e+2, -608892.94, -652240.7, -54643.418, 0.027260808, -0.44011757, -571781.94, 65127.15, 0.0, 10.000317, 9.999742 
2.3149985e+3, 2.450051e+2, -656212.6, -572911.8, -33631.31, 0.038007624, -0.4378572, -561028.9, -22118.975, 0.0, 9.999098, 10.000199 
2.3149648e+3, 2.5500563e+2, -748892.7, -574757.75, -41200.805, 0.076209575, -0.4022519, -565501.56, -124595.34, 0.0, 9.997822, 10.00013 
2.3149309e+3, 2.6500642e+2, -756186.44, -383196.4, -49773.93, 0.05741116, -0.39061666, -376668.53, -33769.98, 0.0, 9.99648, 10.001417 
2.3148963e+3, 2.750076e+2, -867404.1, -392823.3, -41294.48, 0.004694573, -0.41206932, -389256.97, -144370.92, 0.0, 9.995072, 10.001358 
2.3148623e+3, 2.850095e+2, -923913.9, -289663.66, -37347.59, -0.009126452, -0.38472822, -287472.03, -140605.38, 0.0, 9.993671, 10.002067 
2.3148282e+3, 2.9501227e+2, -1010522.3, -263377.56, -44800.45, -0.049538396, -0.3141979, -260700.81, -211861.66, 0.0, 9.992328, 10.002225 
2.3147954e+3, 3.0501267e+2, -957137.75, 31557.36, 26985.148, 0.035212047, -0.60785073, 32293.336, 32293.336, 0.0, 9.991301, 10.004415 
2.3147607e+3, 3.1501815e+2, -1139258.3, -101701.22, -65620.055, -0.16054, -0.47367176, -97567.56, -97567.56, 0.0, 9.990271, 10.003982 
2.3252876e+3, 1.6505623e+2, -36498.945, -1111780.1, -71824.55, -0.00048399187, -0.26402512, -31722.564, 1290690.9, 0.29646638, 10.015078, 9.99479 
2.3252478e+3, 1.7505012e+2, -209238.83, -1202199.1, -75819.46, -0.039429307, -0.35648015, -203482.86, 1020991.2, 0.12579583, 10.010292, 9.995215 
2.3252104e+3, 1.850465e+2, -232959.56, -921291.9, 18571.047, -0.047807384, -0.3852584, -232458.89, 894050.0, 0.03661832, 10.007384, 9.997907 
2.3251745e+3, 1.9504462e+2, -345449.53, -930432.4, 24469.998, -0.021954855, -0.36009037, -344427.75, 684097.4, 0.0055762175, 10.005725, 9.99792 
2.3251392e+3, 2.0504302e+2, -417368.13, -806872.2, 42057.742, -0.0013715745, -0.3545931, -412878.6, 517661.56, 0.00015265659, 10.004062, 9.998894 
2.3251037e+3, 2.1504165e+2, -587727.5, -842218.0, 42260.316, 0.013602833, -0.37648585, -580893.4, 251660.8, 0.0, 10.0022335, 9.998859 
2.3250681e+3, 2.250407e+2, -611515.6, -694096.8, 39717.453, 0.02312743, -0.39619032, -595514.06, 139048.7, 0.0, 10.000927, 9.999832 
2.3250327e+3, 2.3504025e+2, -643339.3, -665533.4, 38951.914, 0.032883417, -0.4208744, -613934.56, 22630.959, 0.0, 10.000065, 9.999772 
2.3249975e+3, 2.4504007e+2, -678084.2, -585361.94, 55688.23, 0.053309716, -0.4275804, -559262.5, -20695.42, 0.0, 9.998956, 10.000182 
2.3249626e+3, 2.550403e+2, -785799.25, -594369.4, 62906.234, 0.07630679, -0.41779983, -575548.06, -134981.95, 0.0, 9.997576, 10.0001135 
2.3249273e+3, 2.6504108e+2, -777008.9, -410347.38, 57736.56, 0.060364574, -0.39921156, -401470.75, -58911.582, 0.0, 9.99641, 10.001265 
2.3248918e+3, 2.7504238e+2, -829371.8, -391609.7, 41803.84, 0.031354543, -0.39061657, -387653.4, -143107.06, 0.0, 9.995406, 10.001206 
2.3248565e+3, 2.850441e+2, -845416.7, -239871.61, 36624.336, 0.015805714, -0.37782106, -237664.55, -91135.79, 0.0, 9.994159, 10.002175 
2.3248206e+3, 2.9504672e+2, -943570.8, -213220.69, 36138.82, -0.050321586, -0.33198822, -211436.84, -162935.13, 0.0, 9.992713, 10.002382 
2.3247863e+3, 3.050479e+2, -969989.94, 7160.4824, 62428.84, -0.0028950796, -0.5486676, 11132.83, 11132.83, 0.0, 9.991293, 10.00425 
2.3247504e+3, 3.150535e+2, -1150538.4, -79821.12, -100651.195, -0.19701885, -0.38410157, -70441.71, -70441.71, 0.0, 9.990084, 10.004219 
2.3353484e+3, 1.5509465e+2, -1239403.4, -1311529.5, -234236.02, -0.22279674, -0.38528055, -1038470.56, 381564.94, 0.49221143, 10.002402, 10.000656 
2.3353046e+3, 1.6509128e+2, -20645.904, -1122911.4, -205190.38, 0.19000559, -0.4294778, 16311.814, 1338379.4, 0.26729736, 10.014744, 9.994762 
2.3352578e+3, 1.7508699e+2, -217131.22, -1236490.3, -220381.53, -0.059050288, -0.3357113, -171525.92, 1052586.5, 0.11243223, 10.010198, 9.995043 
2.3352173e+3, 1.850836e+2, -228195.31, -913299.3, -38734.188, -0.10826357, -0.32932866, -226012.33, 900132.8, 0.03235996, 10.007362, 9.997967 
2.335181e+3, 1.9508058e+2, -342386.8, -917113.9, -29307.53, 0.032781094, -0.42530552, -340896.2, 687274.7, 0.004823007, 10.00569, 9.99803 
2.3351438e+3, 2.0507875e+2, -421651.88, -810807.9, -24501.746, 0.06265532, -0.44856378, -420115.28, 510072.66, 0.000120486264, 10.00404, 9.998878 
2.3351055e+3, 2.1507801e+2, -589683.6, -843872.8, -21211.523, -0.016285583, -0.40548846, -587925.7, 244271.34, 0.0, 10.002222, 9.998855 
2.3350686e+3, 2.2507761e+2, -615251.1, -702099.4, 8448.686, -0.024321184, -0.3696616, -614436.9, 119764.61, 0.0, 10.000927, 9.999778 
2.3350327e+3, 2.3507756e+2, -646457.44, -671906.9, 7762.812, 0.038641825, -0.34942994, -644276.44, -8075.3936, 0.0, 10.000063, 9.99973 
2.3349966e+3, 2.4507734e+2, -664681.56, -557766.8, 2556.0051, 0.06548814, -0.36590964, -557705.75, -19503.314, 0.0, 9.998956, 10.000373 
2.3349597e+3, 2.5507715e+2, -771575.06, -565438.2, 11469.78, 0.048801664, -0.41826287, -564801.94, -124597.75, 0.0, 9.997578, 10.000312 
2.3349233e+3, 2.650777e+2, -807559.5, -474625.34, 19732.21, 0.037185326, -0.41288495, -473459.97, -131260.48, 0.0, 9.996412, 10.000823 
2.3348872e+3, 2.750788e+2, -854924.94, -450436.94, 3628.042, 0.045089923, -0.37948442, -450404.38, -206214.84, 0.0, 9.995429, 10.000792 
2.3348506e+3, 2.8507987e+2, -828755.5, -209130.53, -19318.348, 0.022394665, -0.42202273, -208528.81, -62350.105, 0.0, 9.994173, 10.002379 
2.334813e+3, 2.9508168e+2, -943457.44, -215908.08, -15965.985, -0.0786882, -0.47714016, -215557.88, -167398.22, 0.0, 9.9927225, 10.00236 
2.3347771e+3, 3.0508596e+2, -1057633.9, -173749.03, 4504.9355, -0.052681893, -0.30838856, -173726.06, -173726.06, 0.0, 9.991288, 10.00301 
2.3347415e+3, 3.1508836e+2, -1159577.8, -115369.484, -2180.6558, -0.1088537, -0.36217585, -115364.93, -115364.93, 0.0, 9.990138, 10.003958 
2.3453566e+3, 1.5513533e+2, -638904.1, -1358989.3, -34373.4, -0.114463806, -0.33628488, -637267.0, 782369.4, 0.428494, 10.011796, 9.995036 
2.3453157e+3, 1.6512892e+2, -615498.9, -1403686.9, -197675.36, 0.16622508, -0.49631992, -568701.0, 752995.6, 0.23016936, 10.008546, 9.995402 
2.3452674e+3, 1.7512563e+2, -364672.4, -1267514.4, -153177.61, -0.052353505, -0.3632409, -339391.94, 884339.4, 0.095455974, 10.008695, 9.99553 
2.3452246e+3, 1.8512239e+2, -232002.16, -946432.56, 50639.78, -0.094602615, -0.3441696, -228430.61, 897332.25, 0.027030393, 10.007437, 9.997687 
2.345186e+3, 1.9511898e+2, -440339.25, -992716.3, 38902.78, 0.030433016, -0.45081228, -437612.88, 590180.6, 0.003928166, 10.005135, 9.997773 
2.3451474e+3, 2.0511706e+2, -488873.5, -848046.7, 51806.703, 0.059518207, -0.46642706, -481550.28, 448261.47, 0.00008849341, 10.003598, 9.998834 
2.3451081e+3, 2.1511653e+2, -523260.1, -814388.0, 53706.7, -0.0008634398, -0.3974435, -513668.4, 318150.28, 0.0, 10.002689, 9.998831 
2.3450698e+3, 2.2511603e+2, -542582.0, -682033.8, 86513.86, -0.0122674825, -0.36355093, -501193.78, 232630.3, 0.0, 10.001492, 9.999644 
2.3450327e+3, 2.3511554e+2, -668806.25, -695845.06, 80763.74, 0.028831106, -0.37134072, -600438.2, 35389.68, 0.0, 9.999967, 9.999612 
2.3449951e+3, 2.4511527e+2, -700653.9, -588048.56, 63817.59, 0.05175863, -0.38211703, -559247.3, -21416.8, 0.0, 9.998765, 10.000257 
2.3449576e+3, 2.5511533e+2, -740938.7, -561703.0, 48288.69, 0.054109633, -0.39743224, -549521.25, -109690.46, 0.0, 9.997836, 10.000213 
2.3449199e+3, 2.651158e+2, -761576.0, -460910.03, 62736.86, 0.038401723, -0.38820398, -448344.53, -106517.516, 0.0, 9.996766, 10.000747 
2.3448823e+3, 2.7511662e+2, -843498.6, -450592.22, 72041.875, 0.019473158, -0.3772859, -437799.4, -193979.45, 0.0, 9.995534, 10.000739 
2.3448445e+3, 2.8511757e+2, -826828.0, -218312.64, 40335.92, -0.0023618212, -0.42430565, -215650.58, -69840.18, 0.0, 9.994232, 10.002288 
2.3448059e+3, 2.9511923e+2, -943495.7, -244306.13, 22197.34, -0.05721202, -0.48003113, -243602.13, -195809.27, 0.0, 9.992846, 10.002106 
2.3447683e+3, 3.0512372e+2, -1018120.6, -222156.94, 70037.414, -0.07952687, -0.2428543, -216041.28, -216041.28, 0.0, 9.991851, 10.002406 
2.3447321e+3, 3.1512508e+2, -1108816.9, -85794.65, 133082.75, -0.05602917, -0.35115644, -68765.66, -68765.66, 0.0, 9.990471, 10.003998 
2.3553684e+3, 1.5517363e+2, -544918.3, -1307106.6, -217429.92, -0.107746996, -0.39500877, -487254.53, 932002.8, 0.36162132, 10.011534, 9.995644 
2.3553221e+3, 1.6516882e+2, -514718.06, -1235060.5, -192903.48, -0.05634285, -0.47755784, -466312.4, 854991.5, 0.19111395, 10.008484, 9.996646 
2.3552762e+3, 1.7516579e+2, -290184.88, -1125450.8, -152223.8, -0.026027516, -0.44114596, -263307.56, 960025.9, 0.07755021, 10.008613, 9.996586 
2.3552327e+3, 1.8516266e+2, -278017.1, -1036946.4, -32891.883, -0.01875772, -0.42542788, -276594.25, 848770.0, 0.02137299, 10.007371, 9.997077 
2.3551907e+3, 1.9515955e+2, -485708.8, -1084276.5, -41046.094, -0.03465875, -0.43808913, -482907.22, 544488.0, 0.0029813533, 10.0051155, 9.997154 
2.3551504e+3, 2.0515773e+2, -492940.2, -857216.6, 19265.691, -0.009690289, -0.41150245, -491924.13, 437489.47, 0.000058167938, 10.0036, 9.998771 
2.3551114e+3, 2.1515705e+2, -529655.94, -823507.1, 23136.063, 0.051937625, -0.35309422, -527845.5, 303575.06, 0.0, 10.00267, 9.998778 
2.355072e+3, 2.2515582e+2, -558802.9, -713567.56, 30121.299, 0.052500285, -0.37811446, -553147.2, 180284.7, 0.0, 10.00148, 9.9994335 
2.3550323e+3, 2.3515409e+2, -683636.3, -726501.2, 25078.234, -0.0042552287, -0.488125, -672079.8, -36632.75, 0.0, 9.999964, 9.999403 
2.3549934e+3, 2.4515375e+2, -730431.4, -651714.56, 27776.137, 0.008442233, -0.47552535, -642900.4, -105448.31, 0.0, 9.998771, 9.999818 
2.3549555e+3, 2.5515473e+2, -767595.4, -620571.9, 12904.613, 0.08296724, -0.35430768, -619447.75, -180001.02, 0.0, 9.997849, 9.999804 
2.3549168e+3, 2.6515538e+2, -739135.44, -416533.34, 14405.2705, 0.06002089, -0.3235045, -415891.38, -74449.09, 0.0, 9.996774, 10.001048 
2.3548771e+3, 2.7515578e+2, -820510.9, -404367.4, 25361.88, -0.05150185, -0.38239473, -402827.44, -159389.6, 0.0, 9.995539, 10.001055 
2.3548381e+3, 2.8515717e+2, -853988.56, -275390.53, -11851.767, -0.064064875, -0.38245225, -275147.88, -129724.11, 0.0, 9.994233, 10.001896 
2.3547994e+3, 2.9515946e+2, -973881.94, -314975.03, -25250.693, 0.0018695528, -0.33766976, -314008.78, -266607.7, 0.0, 9.992876, 10.001608 
2.35476e+3, 3.05161e+2, -1011315.2, -215057.73, 40606.22, -0.07592582, -0.36519328, -212992.33, -212992.33, 0.0, 9.9918785, 10.002442 
2.3547217e+3, 3.1516442e+2, -1076691.4, -11312.302, -32366.416, -0.16093433, -0.2907774, -10329.91, -10329.91, 0.0, 9.990445, 10.004517 
2.365432e+3, 1.4521946e+2, -1019184.56, -1529263.5, -190192.33, -0.008602311, -0.35408357, -956075.9, 560727.75, 0.47467288, 10.008419, 9.996197 
2.3653784e+3, 1.5521473e+2, -778942.1, -1460161.4, -218111.89, -0.07012261, -0.43678892, -715091.94, 703760.4, 0.2997876, 10.008325, 9.99587 
2.3653299e+3, 1.6521056e+2, -558553.2, -1238564.4, -97364.67, -0.071334325, -0.47400126, -544887.06, 776006.7, 0.15480243, 10.007675, 9.996974 
2.365284e+3, 1.7520751e+2, -494998.72, -1201229.0, -103516.19, -0.016794115, -0.46946543, -480138.44, 742784.06, 0.060853437, 10.006858, 9.9968605 
2.3652396e+3, 1.8520442e+2, -476571.0, -1150546.0, -21407.5, -0.008638011, -0.45277092, -475891.72, 649061.1, 0.016055508, 10.0060215, 9.996932 
2.3651956e+3, 1.9520152e+2, -474228.34, -1097905.6, 3033.283, -0.04493919, -0.4312555, -474213.6, 552769.1, 0.0020879195, 10.005274, 9.996984 
2.3651539e+3, 2.0519939e+2, -448475.75, -873971.6, 76743.82, -0.027389059, -0.40757704, -435057.16, 493947.2, 0.000032246717, 10.004072, 9.998427 
2.3651135e+3, 2.1519795e+2, -578225.8, -883361.25, 59651.453, 0.04322702, -0.38846266, -566978.94, 264039.53, 0.0, 10.002495, 9.998451 
2.3650733e+3, 2.2519644e+2, -610634.25, -757048.8, 58125.523, 0.052693512, -0.4162098, -590364.9, 142667.95, 0.0, 10.001206, 9.999266 
2.3650323e+3, 2.3519488e+2, -664604.8, -733991.44, 57091.82, 0.007580195, -0.49502134, -632491.7, 2555.758, 0.0, 10.000169, 9.999252 
2.3649922e+3, 2.4519452e+2, -705648.75, -648062.56, 81806.31, 0.010515677, -0.46848398, -590130.1, -53077.395, 0.0, 9.998979, 9.999742 
2.3649529e+3, 2.551954e+2, -806559.75, -645943.9, 93170.04, 0.057379, -0.34970757, -603247.7, -164198.75, 0.0, 9.997612, 9.9997425 
2.3649131e+3, 2.6519608e+2, -788728.75, -427007.66, 99407.805, 0.035856124, -0.31653365, -401488.84, -60444.582, 0.0, 9.996379, 10.001165 
2.3648725e+3, 2.7519673e+2, -854749.44, -408658.5, 94235.49, -0.0380697, -0.36579952, -389568.44, -146530.56, 0.0, 9.995256, 10.001161 
2.3648325e+3, 2.8519824e+2, -832436.56, -277939.5, 65124.168, -0.05003645, -0.3482009, -270393.53, -125371.195, 0.0, 9.994441, 10.001777 
2.3647922e+3, 2.9520056e+2, -848204.25, -260463.88, 68912.57, -0.02447689, -0.28688523, -252492.0, -205492.72, 0.0, 9.99377, 10.001549 
2.3647521e+3, 3.0520102e+2, -986875.2, -243811.56, 130623.88, -0.052279565, -0.40479612, -221517.92, -221517.92, 0.0, 9.992221, 10.00208 
2.3647119e+3, 3.1520328e+2, -1045696.7, -8980.603, -32218.523, -0.17201121, -0.4031154, -7980.2974, -7980.2974, 0.0, 9.990717, 10.0044 
2.3754367e+3, 1.4526278e+2, -963856.44, -1540197.9, -222201.39, -0.34875712, -0.4014455, -888137.3, 628240.8, 0.40170592, 10.008273, 9.996154 
2.3753873e+3, 1.5525818e+2, -744557.94, -1479931.6, -239003.22, -0.006452501, -0.46616724, -673706.1, 744719.3, 0.24789044, 10.008259, 9.995743 
2.3753388e+3, 1.6525386e+2, -566460.2, -1299062.4, -126364.6, 0.08883643, -0.48628584, -545276.44, 775192.3, 0.12401996, 10.007621, 9.996506 
2.3752905e+3, 1.7525062e+2, -517072.38, -1264485.4, -133041.67, -0.03290923, -0.45300862, -494096.84, 728403.4, 0.04663948, 10.006821, 9.996445 
2.375245e+3, 1.8524756e+2, -457852.44, -1113036.5, -47280.26, -0.06185392, -0.4305055, -454458.13, 670071.8, 0.0115182, 10.0060005, 9.997202 
2.3752011e+3, 1.952447e+2, -462716.75, -1069004.5, -23689.07, -0.010013752, -0.4300696, -461792.56, 564764.9, 0.0013375647, 10.005247, 9.997196 
2.3751582e+3, 2.0524189e+2, -493756.88, -964461.7, 18413.385, -0.0014826299, -0.45281008, -493037.66, 435547.78, 0.000014026109, 10.004054, 9.997816 
2.3751153e+3, 2.1523917e+2, -623167.75, -973419.0, 4125.931, -0.033210937, -0.5005056, -623119.1, 207494.13, 0.0, 10.002479, 9.997842 
2.3750737e+3, 2.2523783e+2, -619770.6, -776326.06, 20091.201, -0.012641776, -0.47368148, -617233.4, 115394.16, 0.0, 10.001205, 9.999135 
2.3750329e+3, 2.3523776e+2, -672700.06, -750291.4, 19165.219, 0.057856303, -0.38945672, -668224.4, -33594.76, 0.0, 10.000164, 9.999144 
2.3749916e+3, 2.4523753e+2, -685272.5, -606493.0, 28950.064, 0.05351156, -0.3613942, -596998.6, -60365.18, 0.0, 9.9989805, 10.000027 
2.3749498e+3, 2.5523728e+2, -785740.8, -604468.6, 41504.707, -0.030243585, -0.38490874, -595417.5, -156779.52, 0.0, 9.997619, 10.000025 
2.3749086e+3, 2.652379e+2, -794637.1, -440788.13, 55823.15, -0.038719364, -0.368774, -432190.38, -91556.93, 0.0, 9.996382, 10.001071 
2.3748687e+3, 2.7523926e+2, -861085.7, -426617.84, 54547.844, 0.04620177, -0.3318623, -419874.0, -177252.98, 0.0, 9.995274, 10.00103 
2.3748276e+3, 2.852407e+2, -820709.44, -257944.02, 38967.22, 0.04042622, -0.32317176, -255258.64, -110651.92, 0.0, 9.994458, 10.001906 
2.374785e+3, 2.9524255e+2, -816191.2, -200648.0, 36309.777, -0.123109914, -0.32243958, -198513.56, -151926.36, 0.0, 9.993795, 10.001948 
2.3747446e+3, 3.0524367e+2, -1036026.2, -345715.16, 52749.61, -0.045904055, -0.37140086, -341707.6, -341707.6, 0.0, 9.992219, 10.001382 
2.3747039e+3, 3.1524363e+2, -1020348.5, 19724.953, -37551.758, -0.042285807, -0.5013511, 21078.992, 21078.992, 0.0, 9.990798, 10.004569 
2.3855007e+3, 1.3530678e+2, -1184177.6, -1370727.3, -26965.682, 0.20772989, -0.57815635, -1180358.0, 433592.2, 0.48685274, 10.005486, 10.000619 
2.3854448e+3, 1.4530635e+2, -1025386.1, -1552359.5, -216413.72, -0.29342294, -0.4529124, -947903.4, 568048.4, 0.3453944, 10.006813, 9.996704 
2.385395e+3, 1.5530276e+2, -790036.3, -1465271.5, -197967.55, 0.017291024, -0.4729638, -736275.9, 681711.0, 0.20713438, 10.00729, 9.996254 
2.3853461e+3, 1.6529863e+2, -649047.06, -1388451.0, -69423.83, 0.0972534, -0.481996, -642585.25, 677442.75, 0.09957302, 10.006991, 9.996176 
2.3852968e+3, 1.7529488e+2, -575354.25, -1333702.6, -64901.637, -0.032411415, -0.4661069, -569839.9, 652226.0, 0.035310876, 10.006505, 9.996114 
2.3852505e+3, 1.852915e+2, -500194.1, -1145841.9, 7569.7026, -0.068857245, -0.4506395, -500105.34, 623993.56, 0.007934116, 10.005742, 9.997098 
2.385206e+3, 1.9528854e+2, -530898.3, -1115031.6, 2299.5894, -0.018772634, -0.44938007, -530889.25, 495237.78, 0.00077598006, 10.004835, 9.997076 
2.3851618e+3, 2.0528565e+2, -558178.1, -1008466.8, 30115.885, -0.004777966, -0.46499056, -556172.9, 371982.94, 0.000004433278, 10.003671, 9.997697 
2.3851177e+3, 2.1528295e+2, -654662.6, -1002181.06, 50238.72, -0.024928646, -0.4988009, -647545.7, 182638.52, 0.0, 10.002323, 9.997719 
2.3850746e+3, 2.2528157e+2, -631712.44, -796009.8, 101732.0, -0.009455365, -0.46291435, -583102.56, 149096.78, 0.0, 10.001184, 9.99901 
2.3850329e+3, 2.3528142e+2, -670693.0, -762357.44, 101012.27, 0.04628902, -0.37197793, -605601.5, 28600.87, 0.0, 10.000236, 9.999026 
2.3849905e+3, 2.452811e+2, -658263.0, -594183.06, 90665.44, 0.0353887, -0.3465434, -530062.9, 6144.1484, 0.0, 9.999173, 10.000017 
2.3849472e+3, 2.5528064e+2, -730368.94, -578667.06, 79429.96, -0.04464957, -0.38474262, -544688.7, -106476.0, 0.0, 9.998006, 10.000014 
2.384905e+3, 2.652811e+2, -732441.3, -422901.84, 87077.25, -0.04784366, -0.3799615, -400087.47, -59877.76, 0.0, 9.996865, 10.000958 
2.384864e+3, 2.7528232e+2, -809824.5, -413758.88, 82979.61, 0.04855895, -0.346875, -397076.5, -154877.55, 0.0, 9.995679, 10.000921 
2.3848222e+3, 2.8528383e+2, -814614.06, -255087.25, 76246.7, 0.052225318, -0.32378134, -244883.2, -100699.11, 0.0, 9.994502, 10.001904 
2.3847786e+3, 2.952859e+2, -868398.0, -222350.45, 58602.51, -0.10699339, -0.29976013, -217077.7, -170914.95, 0.0, 9.993426, 10.001976 
2.3847364e+3, 3.0528674e+2, -968488.4, -277601.03, 65428.816, -0.08374956, -0.39594436, -271459.38, -271459.38, 0.0, 9.992534, 10.001696 
2.3846944e+3, 3.1528926e+2, -946618.8, 150048.63, 14619.521, -0.07601379, -0.29555675, 150243.47, 150243.47, 0.0, 9.990907, 10.005406 
2.3955032e+3, 1.3535471e+2, -1318252.8, -1806896.4, -6861.16, -0.09145803, -0.40145445, -1318156.4, 295322.9, 0.43752068, 10.005564, 9.996009 
2.3954554e+3, 1.4535014e+2, -942766.06, -1414155.6, -200258.3, 0.07946308, -0.5227341, -869178.75, 646346.1, 0.3035853, 10.006762, 9.997751 
2.395402e+3, 1.5534839e+2, -713170.25, -1329559.8, -193167.56, -0.0066699074, -0.4609651, -657637.5, 759900.06, 0.17639498, 10.007223, 9.997267 
2.3953518e+3, 1.6534472e+2, -656333.6, -1426783.6, -87857.84, -0.034093842, -0.46087617, -646441.8, 673131.06, 0.080956824, 10.006947, 9.995937 
2.3953034e+3, 1.7534012e+2, -593786.25, -1379090.8, -83860.15, -0.023005104, -0.5051244, -584931.0, 636689.7, 0.026693884, 10.0064745, 9.995819 
2.3952563e+3, 1.8533617e+2, -532872.44, -1213248.6, -24967.23, -0.03827956, -0.50867873, -531957.5, 591703.2, 0.005279442, 10.005721, 9.996648 
2.3952103e+3, 1.9533294e+2, -564961.0, -1180873.9, -29878.664, -0.07452702, -0.48826414, -563514.94, 462177.47, 0.00040222186, 10.00481, 9.996638 
2.395165e+3, 2.0533061e+2, -536955.9, -961899.6, -18800.877, -0.03735268, -0.44398886, -536125.7, 391590.6, 0.00000085980406, 10.003657, 9.998024 
2.3951209e+3, 2.1532914e+2, -635055.2, -958685.5, 2740.649, 0.060348473, -0.3863964, -635032.0, 194700.67, 0.0, 10.002309, 9.998026 
2.3950766e+3, 2.2532748e+2, -640490.75, -814300.44, 66873.95, 0.055547312, -0.38756287, -617739.0, 114010.76, 0.0, 10.0011835, 9.998886 
2.3950322e+3, 2.3532574e+2, -680207.4, -782731.8, 65524.895, -0.036285706, -0.44251794, -648275.06, -14508.43, 0.0, 10.0002365, 9.998887 
2.3949888e+3, 2.4532513e+2, -679833.25, -641232.94, 45226.66, -0.04706475, -0.42183167, -611360.44, -75586.305, 0.0, 9.999179, 9.999693 
2.3949456e+3, 2.5532553e+2, -751032.5, -624834.56, 35721.12, 0.008543146, -0.34716275, -615425.06, -177651.45, 0.0, 9.998017, 9.999693 
2.3949024e+3, 2.6532567e+2, -740669.3, -442762.3, 40850.547, 0.0066059353, -0.34872544, -437262.22, -97488.63, 0.0, 9.996876, 10.000818 
2.3948589e+3, 2.753258e+2, -811573.2, -423059.97, 36181.008, -0.037009347, -0.40852067, -419719.25, -177947.27, 0.0, 9.995702, 10.000848 
2.394816e+3, 2.8532758e+2, -823952.2, -277415.34, 33575.63, -0.024044817, -0.3523221, -275360.4, -131605.36, 0.0, 9.994512, 10.001747 
2.3947732e+3, 2.9533038e+2, -893906.5, -278144.16, 24411.873, 0.0065825004, -0.2371222, -277177.88, -231449.58, 0.0, 9.993435, 10.00159 
2.3947282e+3, 3.0533034e+2, -877271.44, -92414.3, 23462.705, -0.1513859, -0.4558132, -91713.52, -91713.52, 0.0, 9.992548, 10.002962 
2.3946849e+3, 3.1533566e+2, -1078398.6, -128823.15, -195087.17, -0.12547182, -0.2200481, -90305.516, -90305.516, 0.0, 9.990927, 10.003484 
2.4055086e+3, 1.3540156e+2, -1224938.4, -1865610.0, -22011.723, -0.15467024, -0.3734199, -1224183.0, 388836.84, 0.40251222, 10.006939, 9.994946 
2.405462e+3, 1.4539596e+2, -1051575.3, -1477327.3, -116534.1, 0.16205187, -0.54579467, -1021765.44, 493310.34, 0.27317968, 10.005514, 9.997713 
2.4054086e+3, 1.5539412e+2, -810613.75, -1380871.5, -156751.66, -0.0039200103, -0.48944122, -770366.6, 646722.56, 0.15366943, 10.006257, 9.997301 
2.4053581e+3, 1.6539073e+2, -707643.4, -1450045.3, -86927.83, -0.055144697, -0.46829396, -697600.8, 621521.06, 0.06710995, 10.006459, 9.996011 
2.4053098e+3, 1.7538658e+2, -622226.5, -1388160.9, -64940.938, -0.016556442, -0.47388795, -616759.44, 604406.4, 0.020352203, 10.006219, 9.995878 
2.405262e+3, 1.8538262e+2, -569471.5, -1224173.5, 3885.6387, -0.029137628, -0.4840832, -569448.44, 553757.3, 0.0034214659, 10.005433, 9.996709 
2.4052143e+3, 1.9537905e+2, -638961.94, -1211862.4, 31966.582, -0.08396681, -0.5026854, -637183.75, 388056.4, 0.00018238918, 10.004284, 9.996677 
2.4051683e+3, 2.0537664e+2, -598409.9, -1014224.56, 41171.086, -0.05318814, -0.45664072, -594372.56, 332892.66, 0.000000053009718, 10.003337, 9.997818 
2.4051231e+3, 2.1537529e+2, -604686.8, -965715.9, 21873.205, 0.05418861, -0.36423022, -603366.44, 225915.02, 0.0, 10.002614, 9.9978285 
2.4050777e+3, 2.2537355e+2, -591424.4, -787806.3, 69763.72, 0.051635087, -0.36550292, -569164.4, 162135.05, 0.0, 10.001512, 9.998908 
2.4050322e+3, 2.3537152e+2, -698970.94, -789899.75, 79581.195, -0.043127026, -0.45014945, -652782.9, -19464.88, 0.0, 10.000103, 9.9989 
2.4049875e+3, 2.4537082e+2, -727985.6, -680208.25, 76681.5, -0.04813413, -0.43090364, -623780.56, -88454.41, 0.0, 9.998919, 9.99955 
2.4049436e+3, 2.5537127e+2, -777664.7, -652920.1, 79888.86, 0.024715453, -0.3344967, -613938.9, -176613.45, 0.0, 9.997902, 9.999556 
2.4048992e+3, 2.6537123e+2, -748009.56, -445032.8, 95843.34, 0.02052285, -0.34484446, -417259.72, -77932.9, 0.0, 9.996823, 10.000827 
2.4048544e+3, 2.753711e+2, -812507.5, -421936.3, 99490.695, -0.03924054, -0.4336015, -398053.34, -156725.98, 0.0, 9.995694, 10.000857 
2.40481e+3, 2.8537288e+2, -807180.4, -282509.44, 104306.79, -0.049785633, -0.36839825, -262533.34, -119222.84, 0.0, 9.994689, 10.001624 
2.4047661e+3, 2.9537576e+2, -863882.9, -275955.13, 99484.875, -0.041356314, -0.23222885, -259577.27, -214292.94, 0.0, 9.993697, 10.001477 
2.4047212e+3, 3.05376e+2, -827273.2, 12838.839, 91388.92, -0.10546871, -0.45221728, 22665.355, 22665.355, 0.0, 9.992543, 10.003687 
2.4046774e+3, 3.1538042e+2, -1073704.9, -290758.88, -162440.53, 0.04512689, -0.37854573, -258394.61, -258394.61, 0.0, 9.991673, 10.0020075 
2.415568e+3, 1.2545238e+2, -1055715.3, -1553480.4, -119837.18, -0.082838535, -0.2880835, -1028366.94, 682156.94, 0.49351224, 10.010258, 9.997206 
2.4155167e+3, 1.3544767e+2, -1133022.1, -1618876.5, -103055.29, -0.03982926, -0.4599343, -1112066.8, 500501.9, 0.37789717, 10.006907, 9.99674 
2.4154659e+3, 1.4544359e+2, -1076492.3, -1597089.0, -104831.445, -0.010325841, -0.5182273, -1056175.4, 458431.75, 0.25111747, 10.005605, 9.996793 
2.415415e+3, 1.5543991e+2, -841763.44, -1488777.6, -137486.61, 0.018024364, -0.5533664, -813760.3, 602881.5, 0.13687527, 10.0062895, 9.996524 
2.4153653e+3, 1.6543667e+2, -678192.56, -1399451.3, -93505.13, 0.015234855, -0.5022239, -666267.56, 652407.0, 0.056867916, 10.006453, 9.996365 
2.415316e+3, 1.7543411e+2, -598964.06, -1337911.9, -75059.74, -0.019072922, -0.3832105, -591416.8, 629285.6, 0.015773408, 10.006185, 9.996242 
2.4152671e+3, 1.8543068e+2, -538172.94, -1153388.5, -38309.395, -0.04221175, -0.38549572, -535796.6, 586939.3, 0.0021822217, 10.0054, 9.997213 
2.415219e+3, 1.954267e+2, -612124.75, -1150761.8, -10166.144, -0.056717336, -0.4939348, -611932.94, 412838.97, 0.00007011337, 10.004258, 9.997111 
2.4151714e+3, 2.054236e+2, -650066.94, -1119851.8, 14441.289, -0.057907894, -0.5002364, -649623.44, 277180.47, 0.0, 10.003327, 9.997099 
2.4151245e+3, 2.1542133e+2, -655699.2, -1068499.8, -4035.9307, -0.048122387, -0.42775843, -655659.75, 173171.47, 0.0, 10.002598, 9.997133 
2.4150784e+3, 2.2541972e+2, -581020.9, -765296.6, 17965.629, -0.021413634, -0.3922047, -579285.7, 151562.95, 0.0, 10.001506, 9.999066 
2.415033e+3, 2.3541868e+2, -689236.75, -769502.7, 28094.953, 0.02147425, -0.3938282, -680380.1, -47522.97, 0.0, 10.000099, 9.999044 
2.4149872e+3, 2.4541804e+2, -725271.75, -675338.06, 36894.6, 0.028635722, -0.37551495, -655756.56, -120892.65, 0.0, 9.9989195, 9.999584 
2.4149412e+3, 2.5541782e+2, -773148.4, -646042.4, 40512.97, -0.0051717223, -0.34851232, -634227.75, -197358.72, 0.0, 9.9979105, 9.999599 
2.4148957e+3, 2.654178e+2, -736918.3, -424390.56, 51850.625, -0.010917982, -0.368302, -416012.72, -77142.87, 0.0, 9.99683, 10.000967 
2.4148509e+3, 2.754182e+2, -805095.9, -410770.72, 58373.89, 0.034021053, -0.41979644, -402310.84, -161445.6, 0.0, 9.995708, 10.000928 
2.414805e+3, 2.8541973e+2, -811442.75, -293321.28, 66339.43, -0.025952991, -0.37315622, -284962.16, -142111.34, 0.0, 9.994696, 10.001548 
2.4147576e+3, 2.9542202e+2, -845747.1, -244253.33, 61294.977, -0.25343835, -0.28961936, -238070.64, -193239.7, 0.0, 9.99372, 10.001685 
2.4147151e+3, 3.0542392e+2, -812943.0, 36999.15, 46905.8, 0.044036306, -0.3771409, 39579.906, 39579.906, 0.0, 9.992563, 10.003845 
2.4146692e+3, 3.1542808e+2, -955769.06, -59019.465, 35026.7, 0.04820015, -0.32002723, -57653.418, -57653.418, 0.0, 9.991728, 10.003573 
2.4255788e+3, 1.2549827e+2, -1395927.0, -1697863.1, -37382.684, 0.24815407, -0.4841053, -1391367.5, 318710.2, 0.4764371, 10.005311, 9.99762 
2.4255241e+3, 1.3549568e+2, -1087491.3, -1566626.5, -68241.59, 0.02345142, -0.4795688, -1077961.4, 534137.3, 0.36007658, 10.007066, 9.9971075 
2.4254717e+3, 1.4549212e+2, -885284.06, -1537448.5, -56318.1, -0.055802777, -0.4767281, -880456.44, 633675.56, 0.23465933, 10.00748, 9.996268 
2.4254213e+3, 1.5548797e+2, -761908.25, -1495585.4, -65847.72, 0.0018886923, -0.5077403, -756045.25, 660127.8, 0.12417261, 10.007059, 9.996083 
2.4253714e+3, 1.654844e+2, -671374.3, -1379582.1, -33755.824, 0.014935657, -0.47571838, -669769.0, 648439.94, 0.049185097, 10.006388, 9.996526 
2.4253215e+3, 1.7548163e+2, -671772.3, -1356317.5, -29818.63, -0.016298503, -0.3938416, -670475.9, 549761.9, 0.012474573, 10.0055895, 9.9964 
2.4252722e+3, 1.8547839e+2, -629815.75, -1195726.0, -30604.367, -0.034026306, -0.38357875, -628165.44, 494103.8, 0.0013846612, 10.004761, 9.997229 
2.4252231e+3, 1.9547495e+2, -655939.4, -1169699.4, -39678.41, -0.03646491, -0.44118953, -652893.0, 371408.28, 0.00002188882, 10.003949, 9.997128 
2.4251749e+3, 2.0547178e+2, -676972.2, -1118635.1, 10695.613, -0.043513253, -0.45952842, -676713.3, 249619.98, 0.0, 10.003084, 9.997223 
2.4251267e+3, 2.1546903e+2, -703699.56, -1078668.4, 49799.277, -0.05548761, -0.4469347, -697198.5, 131165.25, 0.0, 10.002217, 9.997244 
2.4250796e+3, 2.2546738e+2, -624537.2, -788008.6, 77885.305, -0.032705627, -0.41672137, -593371.0, 137009.95, 0.0, 10.001217, 9.999048 
2.425033e+3, 2.3546669e+2, -687755.44, -770263.44, 75058.32, 0.028110227, -0.38006565, -643361.06, -10974.664, 0.0, 10.000119, 9.999027 
2.424986e+3, 2.45466e+2, -699072.3, -660896.9, 89090.484, 0.031453084, -0.3694984, -588872.25, -54478.33, 0.0, 9.999096, 9.999597 
2.424939e+3, 2.554653e+2, -738689.6, -627482.56, 89803.84, -0.023320472, -0.3862663, -577461.8, -141059.2, 0.0, 9.998143, 9.999613 
2.4248923e+3, 2.6546547e+2, -705426.94, -419726.56, 84218.016, -0.028465945, -0.3849574, -396748.97, -58346.6, 0.0, 9.997094, 10.00087 
2.4248464e+3, 2.7546635e+2, -784145.6, -411954.03, 71241.414, 0.04228831, -0.37306583, -398783.72, -158389.66, 0.0, 9.995901, 10.000827 
2.4247995e+3, 2.8546765e+2, -783723.25, -251083.28, 93118.07, -0.01685938, -0.35922638, -235273.31, -92891.31, 0.0, 9.994762, 10.001805 
2.4247509e+3, 2.9546946e+2, -829839.5, -205996.45, 109568.96, -0.2744436, -0.35097128, -187311.88, -142946.17, 0.0, 9.993703, 10.001954 
2.424708e+3, 3.0547243e+2, -850633.2, -49778.41, 52183.418, 0.08685913, -0.31006378, -46392.473, -46392.473, 0.0, 9.992604, 10.003228 
2.424659e+3, 3.154748e+2, -942470.06, 84365.21, 93632.695, -0.13012718, -0.3666398, 92833.336, 92833.336, 0.0, 9.991232, 10.004797 
2.435582e+3, 1.2554918e+2, -1411097.3, -1812276.4, -8821.966, 0.05002255, -0.41534454, -1410903.4, 298673.6, 0.4632523, 10.005458, 9.996695 
2.4355313e+3, 1.3554527e+2, -1112011.0, -1663956.3, -35957.055, 0.041719984, -0.45416117, -1109678.5, 501935.34, 0.34604263, 10.007091, 9.996264 
2.4354795e+3, 1.4554144e+2, -887380.06, -1569672.8, -71471.56, -0.0046682646, -0.4281701, -879973.7, 633677.3, 0.22156669, 10.0074625, 9.996063 
2.4354278e+3, 1.55538e+2, -770424.8, -1525904.4, -82002.52, -0.053427104, -0.3688064, -761626.44, 654059.06, 0.11411004, 10.007023, 9.995897 
2.435377e+3, 1.6553375e+2, -673479.4, -1386341.6, -61586.367, -0.050390046, -0.395782, -668197.8, 649529.25, 0.043242116, 10.006354, 9.996498 
2.4353272e+3, 1.7552915e+2, -677462.4, -1365605.4, -58182.605, -0.015593707, -0.49298614, -672577.7, 547193.94, 0.010065804, 10.005563, 9.996351 
2.4352771e+3, 1.8552583e+2, -662681.6, -1262197.6, -58933.44, -0.010595044, -0.46588272, -656943.3, 464862.0, 0.0008825945, 10.004746, 9.99678 
2.435227e+3, 1.9552368e+2, -685441.4, -1227380.6, -67173.086, -0.027425375, -0.34780696, -677239.44, 346589.28, 0.000005286762, 10.00393, 9.996743 
2.435178e+3, 2.0552108e+2, -614774.06, -988087.94, -19955.23, -0.013345095, -0.3410451, -613710.44, 312144.0, 0.0, 10.003076, 9.998124 
2.4351296e+3, 2.1551824e+2, -647263.8, -958989.44, 18753.102, 0.022524325, -0.42646143, -646139.7, 181740.81, 0.0, 10.002203, 9.998074 
2.435081e+3, 2.2551644e+2, -639168.1, -817690.06, 37129.67, 0.012256936, -0.4405423, -631753.7, 98143.875, 0.0, 10.001212, 9.998848 
2.4350324e+3, 2.3551552e+2, -702651.75, -800465.56, 34096.12, -0.032113817, -0.4058034, -691939.56, -60033.01, 0.0, 10.0001135, 9.998825 
2.4349844e+3, 2.4551456e+2, -699752.7, -663180.9, 51490.156, -0.043226115, -0.4106056, -626826.06, -92909.164, 0.0, 9.999097, 9.999581 
2.4349368e+3, 2.5551367e+2, -739367.0, -632365.5, 53461.074, -0.03560889, -0.44677678, -610232.8, -174305.88, 0.0, 9.998156, 9.999575 
2.4348892e+3, 2.6551414e+2, -728544.2, -469917.56, 37872.047, -0.034014657, -0.39430562, -464485.84, -126560.836, 0.0, 9.997101, 10.000524 
2.4348418e+3, 2.755156e+2, -800768.44, -451048.8, 25489.662, -0.018911127, -0.29183152, -449200.75, -209286.45, 0.0, 9.995918, 10.000552 
2.4347942e+3, 2.855166e+2, -742646.75, -169193.06, 50981.563, -0.028580295, -0.32560807, -164695.94, -22791.305, 0.0, 9.994774, 10.002364 
2.434746e+3, 2.9551795e+2, -807858.25, -163347.84, 70281.69, -0.117992125, -0.41674042, -155772.89, -111883.625, 0.0, 9.993713, 10.002243 
2.4347e+3, 3.055215e+2, -950668.44, -254401.3, 2707.494, 0.041841716, -0.2537545, -254390.77, -254390.77, 0.0, 9.99259, 10.00183 
2.4346496e+3, 3.1552228e+2, -1012127.2, -67460.125, -23307.715, -0.16296336, -0.3469782, -66885.41, -66885.41, 0.0, 9.99125, 10.003752 
2.445588e+3, 1.2559919e+2, -1236481.0, -1703957.9, -11065.631, -0.01787974, -0.37809327, -1236219.3, 472869.03, 0.4511391, 10.007696, 9.99639 
2.4455383e+3, 1.3559493e+2, -1055958.4, -1653202.9, -15177.184, 0.03766209, -0.4233394, -1055572.9, 555555.44, 0.33351332, 10.007663, 9.996061 
2.4454871e+3, 1.4559092e+2, -902961.56, -1584650.4, -60795.21, 0.011369202, -0.4103684, -897582.1, 615585.56, 0.21021527, 10.007259, 9.996049 
2.4454346e+3, 1.5558732e+2, -819394.5, -1558108.1, -64715.84, -0.04914633, -0.36121574, -813767.8, 601435.75, 0.105666816, 10.006613, 9.99587 
2.445383e+3, 1.6558309e+2, -722487.4, -1404613.4, -38621.67, -0.048792586, -0.38842788, -720307.6, 596937.25, 0.038464226, 10.005947, 9.996569 
2.4453326e+3, 1.755786e+2, -707879.6, -1372352.8, -30837.217, -0.007300564, -0.4810984, -706451.56, 512836.38, 0.008266643, 10.005307, 9.996428 
2.4452817e+3, 1.8557529e+2, -683812.44, -1259188.9, -8285.787, 0.004779558, -0.46084204, -683693.1, 437628.0, 0.00057047745, 10.004547, 9.996896 
2.445231e+3, 1.9557314e+2, -706145.3, -1223289.1, 20576.4, -0.003673293, -0.35406172, -705327.9, 318016.5, 0.00000082284765, 10.003735, 9.996862 
2.4451809e+3, 2.055706e+2, -634396.06, -984537.56, 54247.68, -0.0010218662, -0.35007322, -626184.0, 299185.1, 0.0, 10.002891, 9.998236 
2.4451315e+3, 2.1556786e+2, -662738.7, -954337.75, 33616.418, 0.012730354, -0.434989, -658913.44, 168480.3, 0.0, 10.002048, 9.998179 
2.4450818e+3, 2.2556613e+2, -667376.75, -828167.44, 27119.137, -0.007363247, -0.44710284, -662926.0, 66484.164, 0.0, 10.00101, 9.998871 
2.445032e+3, 2.3556527e+2, -741243.44, -815836.9, 40654.79, -0.05038608, -0.40834054, -723369.0, -91949.81, 0.0, 9.999841, 9.998847 
2.4449831e+3, 2.4556436e+2, -721102.56, -663555.7, 81914.234, -0.048041273, -0.41186988, -605508.3, -72079.46, 0.0, 9.99891, 9.999668 
2.444935e+3, 2.5556356e+2, -735775.56, -621657.5, 89200.695, -0.013086415, -0.44787818, -572827.5, -137389.83, 0.0, 9.998142, 9.999655 
2.4448863e+3, 2.6556405e+2, -736843.7, -472807.0, 77461.26, -0.027477533, -0.3948278, -451759.72, -114324.51, 0.0, 9.997042, 10.000531 
2.444837e+3, 2.755655e+2, -835073.0, -466689.03, 91438.13, -0.058978587, -0.29453206, -445241.5, -205816.52, 0.0, 9.995685, 10.000555 
2.4447885e+3, 2.8556648e+2, -757235.1, -192588.63, 111441.04, -0.048516497, -0.32201853, -171390.0, -29974.266, 0.0, 9.994746, 10.002215 
2.4447405e+3, 2.955678e+2, -779344.06, -176451.95, 73895.79, -0.06031146, -0.39713162, -167526.75, -124126.15, 0.0, 9.99402, 10.0020075 
2.4446921e+3, 3.0557066e+2, -908715.3, -271463.47, 26145.049, -0.0044269036, -0.27038077, -270392.6, -270392.6, 0.0, 9.99304, 10.001494 
2.4446416e+3, 3.1557262e+2, -921078.5, -62559.87, 51648.574, -0.11088136, -0.21750759, -59463.85, -59463.85, 0.0, 9.992052, 10.003393 
2.4555957e+3, 1.2564851e+2, -1213772.6, -1678905.3, -11628.479, 0.0025539873, -0.36759683, -1213482.1, 495126.78, 0.43810195, 10.00769, 9.996692 
2.4555457e+3, 1.3564491e+2, -1032696.4, -1607223.5, -14441.473, 0.0008824985, -0.38030112, -1032333.6, 578306.5, 0.32099986, 10.007627, 9.996401 
2.455494e+3, 1.4564064e+2, -893639.06, -1579329.5, -79273.3, -0.010142847, -0.4123133, -884593.5, 628087.25, 0.19958663, 10.007238, 9.996105 
2.4554414e+3, 1.5563609e+2, -811327.06, -1549471.8, -85543.26, -0.0001856845, -0.4647454, -801543.1, 613182.9, 0.09819909, 10.006601, 9.995939 
2.4553894e+3, 1.6563244e+2, -712092.44, -1386077.4, -59927.832, 0.0060159285, -0.44328818, -706805.44, 609956.6, 0.034477375, 10.005937, 9.996703 
2.4553376e+3, 1.7562975e+2, -698976.94, -1350551.8, -53340.273, 0.0030436628, -0.37077016, -694639.2, 524149.6, 0.0068884958, 10.005284, 9.996591 
2.4552861e+3, 1.8562655e+2, -642549.9, -1171304.6, -37752.195, 0.010763821, -0.37946904, -639868.0, 480950.88, 0.00037785215, 10.004533, 9.997508 
2.4552348e+3, 1.9562322e+2, -672138.25, -1148323.3, -8930.715, 0.027144186, -0.45246863, -671970.8, 350878.7, 0.000000047828348, 10.003713, 9.99739 
2.4551836e+3, 2.0562032e+2, -681061.4, -1078843.3, 23340.502, -0.009140947, -0.4755239, -679696.56, 245181.6, 0.0, 10.002877, 9.997596 
2.4551326e+3, 2.1561788e+2, -708103.25, -1042886.7, 3520.4673, -0.088027954, -0.4672316, -708066.25, 118837.7, 0.0, 10.00202, 9.997586 
2.4550821e+3, 2.2561641e+2, -653093.25, -797565.4, -15391.239, -0.09119636, -0.43534076, -651471.75, 77447.52, 0.0, 10.001002, 9.999086 
2.455032e+3, 2.3561585e+2, -725647.94, -785699.25, -1750.5298, -0.03186282, -0.39001516, -725596.94, -94671.6, 0.0, 9.999846, 9.999053 
2.4549827e+3, 2.4561533e+2, -707131.4, -636108.56, 51107.332, 0.014455444, -0.3744288, -609386.4, -76455.46, 0.0, 9.998915, 9.999856 
2.4549335e+3, 2.5561494e+2, -721464.0, -593566.25, 57418.5, 0.03781504, -0.38522282, -571571.3, -136636.22, 0.0, 9.998147, 9.999846 
2.4548833e+3, 2.6561517e+2, -712109.06, -421503.25, 24319.443, -0.012268414, -0.38772357, -419482.13, -82548.555, 0.0, 9.99704, 10.000886 
2.4548323e+3, 2.7561593e+2, -814814.1, -425881.9, 43896.996, -0.088649385, -0.38986313, -420989.03, -182061.95, 0.0, 9.9956875, 10.000834 
2.454783e+3, 2.8561732e+2, -817407.25, -318685.16, 84393.05, -0.077578366, -0.3467028, -304791.34, -163876.17, 0.0, 9.994747, 10.001351 
2.4547341e+3, 2.956193e+2, -829503.0, -285238.53, 43479.65, -0.09453112, -0.2657319, -281786.94, -238889.64, 0.0, 9.994037, 10.001254 
2.4546844e+3, 3.056196e+2, -853489.44, -166239.17, -12263.907, -0.09399779, -0.39966485, -166020.39, -166020.39, 0.0, 9.993076, 10.002202 
2.4546343e+3, 3.1562212e+2, -839466.6, 102991.445, 23960.113, -0.040487222, -0.3631613, 103600.19, 103600.19, 0.0, 9.992075, 10.004516 
2.4656035e+3, 1.2569925e+2, -1165260.3, -1655278.8, 35878.816, 0.004088314, -0.34952575, -1162647.1, 545465.7, 0.42316014, 10.008057, 9.996787 
2.4655533e+3, 1.3569565e+2, -1011837.06, -1592240.9, 27956.807, 0.01273968, -0.37145433, -1010493.56, 599650.0, 0.30774245, 10.007657, 9.9965315 
2.4655013e+3, 1.4569141e+2, -885748.0, -1572545.6, -42822.152, 0.0046481793, -0.4086272, -883088.3, 629095.56, 0.18911493, 10.007208, 9.996157 
2.4654482e+3, 1.5568686e+2, -786799.2, -1529967.3, -46158.938, 0.017001847, -0.46477622, -783943.2, 630286.3, 0.091309406, 10.006714, 9.996016 
2.4653955e+3, 1.6568345e+2, -689058.56, -1351612.5, -20774.39, 0.021116296, -0.43579513, -688407.8, 627855.7, 0.031032493, 10.005986, 9.996913 
2.4653427e+3, 1.756811e+2, -711782.8, -1331785.6, -9492.287, 0.011045984, -0.34687784, -711637.5, 506649.0, 0.005802785, 10.005089, 9.99681 
2.4652906e+3, 1.85678e+2, -672039.8, -1168790.3, -8472.11, 0.009032302, -0.36362702, -671895.3, 448419.94, 0.00025887167, 10.004262, 9.997654 
2.4652383e+3, 1.956745e+2, -691039.4, -1143028.9, -15244.401, 0.017271405, -0.46621373, -690525.8, 331820.94, 0.0000000002215969, 10.003519, 9.99752 
2.465186e+3, 2.056717e+2, -734505.06, -1098237.3, 21810.26, -0.014889365, -0.48777363, -733201.94, 191172.5, 0.0, 10.002485, 9.99765 
2.465134e+3, 2.1566959e+2, -816092.25, -1087606.8, 49319.445, -0.07930274, -0.452072, -807411.1, 18986.602, 0.0, 10.001255, 9.997644 
2.4650827e+3, 2.2566819e+2, -721447.94, -826570.75, 57659.21, -0.07761667, -0.4161922, -695988.25, 32424.438, 0.0, 10.000521, 9.999118 
2.465032e+3, 2.356675e+2, -676257.7, -757903.06, 57689.49, -0.015091415, -0.38497916, -646408.1, -15988.114, 0.0, 10.000172, 9.999086 
2.4649814e+3, 2.4566701e+2, -673863.6, -611997.8, 85584.52, 0.017096726, -0.3696649, -551927.7, -19502.646, 0.0, 9.999111, 9.999925 
2.4649312e+3, 2.5566676e+2, -810419.56, -628301.7, 82422.2, 0.013092151, -0.37428397, -596539.0, -162111.38, 0.0, 9.997506, 9.999914 
2.4648799e+3, 2.6566687e+2, -742035.9, -425918.28, 51255.934, -0.04032486, -0.3967829, -417815.25, -81388.65, 0.0, 9.996793, 10.000974 
2.4648283e+3, 2.7566737e+2, -661196.3, -346175.25, 48380.117, -0.09012843, -0.43066078, -338912.6, -100491.4, 0.0, 9.996715, 10.000889 
2.4647783e+3, 2.8566888e+2, -701821.8, -295852.1, 85322.61, -0.056820568, -0.35901847, -278648.84, -138240.69, 0.0, 9.995685, 10.001056 
2.464728e+3, 2.9567105e+2, -866089.94, -327875.3, 84295.914, -0.080703914, -0.23343182, -314981.66, -272591.25, 0.0, 9.993901, 10.001022 
2.4646765e+3, 3.0567032e+2, -874913.4, -164837.88, 46233.96, -0.15375496, -0.4639842, -161840.19, -161840.19, 0.0, 9.992886, 10.0023 
2.464627e+3, 3.1567347e+2, -772157.9, 134251.17, -9132.789, 0.013965376, -0.3696575, 134343.19, 134343.19, 0.0, 9.992544, 10.004503 
2.4756111e+3, 1.2575118e+2, -1150120.3, -1661575.6, 28570.043, -0.020599756, -0.32479662, -1148529.3, 559073.5, 0.40611988, 10.008106, 9.996668 
2.4755614e+3, 1.3574702e+2, -1009609.5, -1604480.1, 19356.746, 0.054095574, -0.3934706, -1008980.3, 600659.8, 0.29347163, 10.007607, 9.99643 
2.4755086e+3, 1.4574304e+2, -881108.3, -1570090.3, -58114.69, 0.042706713, -0.40071264, -876240.75, 635437.9, 0.17850675, 10.00715, 9.996208 
2.4754547e+3, 1.557394e+2, -781895.8, -1521104.8, -61619.57, 0.0027771955, -0.37376451, -776794.5, 636921.94, 0.084742986, 10.006674, 9.9960985 
2.4754012e+3, 1.6573589e+2, -673302.3, -1315009.3, -50980.32, -0.0006990051, -0.3735539, -669277.44, 646473.6, 0.02795561, 10.005951, 9.997184 
2.475348e+3, 1.7573269e+2, -700225.56, -1299511.1, -41158.918, 0.011709456, -0.3978267, -697411.94, 520369.25, 0.004919946, 10.005046, 9.997054 
2.4752945e+3, 1.8572964e+2, -695620.9, -1214030.4, -34394.965, -0.0030201084, -0.40469038, -693348.8, 426461.5, 0.00018420441, 10.004242, 9.997355 
2.4752413e+3, 1.9572689e+2, -709993.8, -1179716.9, -41399.184, -0.03549563, -0.40164676, -706373.0, 315463.97, 0.00000000023303823, 10.003504, 9.997277 
2.4751885e+3, 2.0572461e+2, -686994.44, -999849.56, -23003.75, -0.019681169, -0.3954949, -685312.0, 238547.13, 0.0, 10.002483, 9.998328 
2.4751362e+3, 2.1572284e+2, -773522.56, -998122.9, 6734.83, 0.028467797, -0.39286938, -773320.75, 52555.836, 0.0, 10.001246, 9.998265 
2.4750842e+3, 2.2572133e+2, -730691.75, -846684.0, 45111.676, 0.026294112, -0.38974157, -715212.6, 12679.097, 0.0, 10.000522, 9.9989805 
2.4750319e+3, 2.3572019e+2, -686100.9, -778414.94, 41691.914, -0.007832644, -0.39005363, -670059.1, -40155.47, 0.0, 10.000169, 9.998949 
2.4749799e+3, 2.4571937e+2, -679242.6, -623247.0, 23484.021, -0.043239433, -0.39728966, -614702.06, -82790.164, 0.0, 9.999109, 9.999849 
2.4749275e+3, 2.557189e+2, -815445.75, -640571.9, 25250.404, -0.09618652, -0.41777006, -636998.94, -203082.48, 0.0, 9.997511, 9.999828 
2.4748757e+3, 2.6571903e+2, -754887.8, -454500.72, 47079.28, -0.11461833, -0.42206466, -447294.9, -111379.71, 0.0, 9.996798, 10.000777 
2.4748252e+3, 2.7571982e+2, -669230.6, -370159.7, 41136.668, -0.0640625, -0.40767533, -364604.6, -126697.11, 0.0, 9.996742, 10.000712 
2.4747744e+3, 2.8572112e+2, -681037.94, -258866.22, 14503.343, 0.011755315, -0.36145908, -258368.55, -118472.56, 0.0, 9.9957075, 10.0013 
2.4747221e+3, 2.957227e+2, -842931.6, -282433.1, 17057.191, -0.03182619, -0.3221567, -281914.5, -240031.61, 0.0, 9.99391, 10.001331 
2.4746692e+3, 3.0572322e+2, -909068.56, -231891.64, 29858.451, -0.15905051, -0.42328665, -230577.66, -230577.66, 0.0, 9.992868, 10.001849 
2.4746189e+3, 3.1572652e+2, -846555.2, -45030.89, -63178.66, -0.048855755, -0.24752818, -40081.51, -40081.51, 0.0, 9.99262, 10.003252 
2.4856201e+3, 1.2580365e+2, -1012098.0, -1637640.8, 42883.152, -0.009657315, -0.36320713, -1009171.94, 697913.44, 0.387136, 10.009702, 9.99615 
2.4855684e+3, 1.3579908e+2, -1035665.5, -1677639.8, 19007.715, 0.025915427, -0.41641104, -1035103.2, 574026.7, 0.2781566, 10.007441, 9.996 
2.4855149e+3, 1.4579542e+2, -949143.44, -1559177.9, -23318.49, 0.013822023, -0.39895856, -948253.4, 562912.8, 0.1676222, 10.00629, 9.996687 
2.4854606e+3, 1.5579256e+2, -840863.2, -1503597.3, -1373.8032, 0.0025403022, -0.34009957, -840860.4, 572334.94, 0.07834047, 10.005988, 9.996544 
2.4854067e+3, 1.657891e+2, -764442.3, -1370240.8, -6822.7446, 0.011176151, -0.35079777, -764365.5, 550864.06, 0.025129134, 10.005337, 9.997099 
2.4853526e+3, 1.7578539e+2, -793252.1, -1352021.9, -20441.834, 0.026033629, -0.4157408, -792505.25, 424760.34, 0.0041789697, 10.004432, 9.99699 
2.4852984e+3, 1.8578249e+2, -744478.3, -1217748.0, 7615.379, 0.0057242583, -0.41373172, -744355.8, 374938.1, 0.00013555613, 10.003822, 9.997531 
2.4852444e+3, 1.9578037e+2, -708459.75, -1158267.6, 29961.266, -0.037111964, -0.36567718, -706472.8, 314842.1, 0.00000000017417703, 10.003433, 9.997455 
2.485191e+3, 2.0577823e+2, -655030.8, -975666.7, 20614.871, -0.016488416, -0.35495988, -653710.9, 269624.6, 0.0, 10.002669, 9.998404 
2.4851377e+3, 2.1577626e+2, -711554.0, -959924.2, 8094.3237, 0.052344657, -0.3776898, -711290.5, 114063.695, 0.0, 10.0016365, 9.998339 
2.4850847e+3, 2.2577475e+2, -722179.4, -837515.0, 49734.484, 0.049317673, -0.38192433, -703695.4, 23674.012, 0.0, 10.000562, 9.9990225 
2.4850318e+3, 2.357737e+2, -787073.5, -822427.44, 56755.8, -0.0008469702, -0.37595433, -745305.56, -115924.914, 0.0, 9.999461, 9.998984 
2.4849786e+3, 2.4577288e+2, -726800.25, -642772.75, 41321.266, -0.054048624, -0.38508213, -625857.7, -94469.0, 0.0, 9.998772, 9.999876 
2.4849251e+3, 2.5577235e+2, -690544.0, -578678.3, 50505.75, -0.119886905, -0.412265, -559249.94, -125856.57, 0.0, 9.9983635, 9.999842 
2.4848725e+3, 2.6577243e+2, -677415.06, -426214.72, 90196.0, -0.12373189, -0.41669142, -397183.97, -61791.66, 0.0, 9.997373, 10.000691 
2.4848215e+3, 2.7577314e+2, -793574.94, -438207.2, 89861.6, -0.041864052, -0.40287325, -416776.38, -179391.02, 0.0, 9.995932, 10.000632 
2.4847698e+3, 2.8577432e+2, -773984.5, -297815.03, 45705.184, 0.021559082, -0.36472085, -293467.72, -154093.08, 0.0, 9.9950485, 10.001348 
2.4847163e+3, 2.957759e+2, -739642.9, -224779.53, 33271.168, -0.042466864, -0.33017296, -222638.4, -181277.03, 0.0, 9.994583, 10.001404 
2.4846624e+3, 3.0577692e+2, -743550.94, -126674.24, 74670.95, -0.17464879, -0.3946328, -117764.26, -117764.26, 0.0, 9.993901, 10.00207 
2.4846111e+3, 3.1577882e+2, -845948.4, -78648.49, 14714.654, -0.09142427, -0.37923366, -78366.41, -78366.41, 0.0, 9.992778, 10.002941 
2.49563e+3, 1.258566e+2, -1038430.25, -1722948.4, -10150.323, 0.017037597, -0.44413063, -1038279.8, 668281.7, 0.36647746, 10.009555, 9.995338 
2.4955747e+3, 1.3585187e+2, -1057877.6, -1776292.5, -37647.594, -0.06788024, -0.43514693, -1055910.3, 552702.6, 0.2618965, 10.007439, 9.995327 
2.49552e+3, 1.4584851e+2, -891616.94, -1453489.1, -29931.322, -0.07562026, -0.40004387, -890027.0, 620619.9, 0.1564397, 10.006314, 9.997475 
2.4954666e+3, 1.5584628e+2, -795741.1, -1403849.3, -12481.226, 0.00809728, -0.35652858, -795485.06, 617182.06, 0.07202908, 10.005949, 9.997253 
2.4954121e+3, 1.6584297e+2, -795176.56, -1432456.6, -39489.85, 0.04837057, -0.36230645, -792738.9, 521961.5, 0.022486165, 10.005305, 9.99669 
2.495357e+3, 1.758391e+2, -816422.5, -1402007.1, -49712.1, 0.047952462, -0.4035713, -812232.25, 404508.7, 0.0035413487, 10.004433, 9.996649 
2.4953023e+3, 1.8583643e+2, -702778.25, -1132097.9, -4829.699, 0.031149676, -0.39330822, -702723.94, 416043.25, 0.00010185649, 10.003823, 9.99812 
2.495248e+3, 1.9583482e+2, -676509.2, -1085124.8, 14437.845, 0.002975582, -0.35358292, -675999.7, 344782.0, 0.00000000005180779, 10.0034, 9.997975 
2.4951936e+3, 2.058325e+2, -691284.5, -1047272.2, -17403.13, -0.009414056, -0.36144474, -690435.75, 232368.55, 0.0, 10.002649, 9.997923 
2.4951386e+3, 2.1582982e+2, -743102.4, -1024189.1, -27972.197, -0.011216783, -0.40602607, -740345.75, 84485.18, 0.0, 10.001628, 9.997904 
2.4950847e+3, 2.2582836e+2, -709555.56, -811955.6, 9955.367, -0.007475268, -0.39273816, -708596.7, 18249.479, 0.0, 10.000562, 9.999199 
2.4950312e+3, 2.3582792e+2, -774890.25, -798705.8, 17551.693, 0.0011085602, -0.3429809, -765588.2, -136736.36, 0.0, 9.999464, 9.999147 
2.4949776e+3, 2.4582747e+2, -716658.4, -623719.2, 24255.182, -0.017438134, -0.3324652, -617769.94, -86913.5, 0.0, 9.998777, 10.000006 
2.4949238e+3, 2.5582713e+2, -679599.5, -560456.44, 31818.844, -0.06327544, -0.3531853, -552491.25, -119632.48, 0.0, 9.99838, 9.999961 
2.4948704e+3, 2.6582706e+2, -675019.7, -424098.0, 33583.51, -0.0684537, -0.3787193, -419680.9, -84822.49, 0.0, 9.997381, 10.000704 
2.4948177e+3, 2.7582723e+2, -793053.94, -436887.1, 36309.6, -0.02750585, -0.41574124, -433223.2, -196367.88, 0.0, 9.995927, 10.000645 
2.4947642e+3, 2.8582847e+2, -785303.44, -319915.28, 27673.518, -0.037004583, -0.36936238, -318275.5, -179430.86, 0.0, 9.995039, 10.001203 
2.4947098e+3, 2.958307e+2, -748747.8, -250431.66, 19479.768, -0.13666375, -0.25308585, -249671.33, -208845.44, 0.0, 9.99461, 10.001217 
2.494656e+3, 3.0583137e+2, -685627.75, -18226.535, 33393.195, -0.1864612, -0.37895256, -16559.88, -16559.88, 0.0, 9.993949, 10.002794 
2.4946047e+3, 3.158341e+2, -820509.6, -31406.43, -49733.77, 0.0035904474, -0.35741296, -28284.277, -28284.277, 0.0, 9.992801, 10.003254 
2.5056383e+3, 1.2591079e+2, -1130248.3, -1806323.8, -1559.5011, -0.014475182, -0.48550484, -1130244.6, 575783.56, 0.34450436, 10.008332, 9.9953575 
2.5055826e+3, 1.3590643e+2, -985548.75, -1733926.6, 11630.632, -0.0425466, -0.43895897, -985368.06, 622708.75, 0.24490304, 10.007963, 9.995361 
2.5055268e+3, 1.4590302e+2, -813215.3, -1425788.3, 22516.898, -0.044267483, -0.4051261, -812388.75, 697723.25, 0.14503711, 10.006916, 9.997398 
2.5054723e+3, 1.5590042e+2, -865945.25, -1445035.6, -6940.89, 0.011952561, -0.38945714, -865862.06, 546274.06, 0.0658029, 10.005419, 9.99722 
2.505417e+3, 1.6589738e+2, -848543.56, -1423356.1, -11561.81, 0.041733418, -0.38261086, -848311.1, 465855.6, 0.019995041, 10.00477, 9.997007 
2.5053614e+3, 1.7589422e+2, -753889.44, -1339093.9, 24881.36, 0.04357233, -0.38400683, -752833.44, 463366.8, 0.0029833494, 10.004726, 9.996936 
2.505306e+3, 1.8589172e+2, -690077.4, -1135559.9, 50038.64, 0.038747597, -0.3657433, -684526.0, 433699.7, 0.00007665515, 10.003955, 9.998031 
2.5052512e+3, 1.9588986e+2, -786302.3, -1144125.4, 21924.918, 0.03245018, -0.3389009, -784963.9, 235279.77, 0.0000000000010010511, 10.002673, 9.997919 
2.5051957e+3, 2.0588753e+2, -775373.25, -1063660.5, 6447.974, 0.008118269, -0.35713866, -775229.1, 147037.3, 0.0, 10.001971, 9.998136 
2.50514e+3, 2.1588498e+2, -721588.44, -992080.2, 40628.72, -0.027141007, -0.40955725, -715617.6, 108673.54, 0.0, 10.001688, 9.998093 
2.505085e+3, 2.2588363e+2, -661501.06, -795537.9, 74988.85, -0.030568859, -0.3893521, -627947.1, 98358.336, 0.0, 10.000924, 9.999136 
2.5050306e+3, 2.3588327e+2, -728249.7, -781826.94, 68596.12, -0.00691811, -0.32365924, -681396.9, -53085.97, 0.0, 9.999812, 9.999094 
2.5049764e+3, 2.4588284e+2, -704574.2, -620700.25, 79760.87, -0.007649072, -0.30457366, -572523.4, -42207.867, 0.0, 9.998877, 9.999976 
2.5049222e+3, 2.5588253e+2, -729835.44, -586965.94, 71588.81, -0.028469995, -0.3197768, -557267.7, -124949.79, 0.0, 9.998049, 9.999936 
2.504868e+3, 2.658824e+2, -691193.56, -428899.44, 51605.555, -0.03970332, -0.34656554, -419111.47, -84794.06, 0.0, 9.997261, 10.000727 
2.5048134e+3, 2.7588254e+2, -711280.3, -394119.5, 54273.08, -0.028816959, -0.393983, -385089.3, -148774.86, 0.0, 9.996475, 10.000673 
2.504759e+3, 2.8588346e+2, -706072.1, -274348.25, 69301.336, -0.061781857, -0.38160723, -263496.6, -125190.8, 0.0, 9.995554, 10.001266 
2.504704e+3, 2.9588535e+2, -762750.2, -257815.77, 77790.47, -0.16230704, -0.3054324, -246103.02, -205813.55, 0.0, 9.994521, 10.001205 
2.504651e+3, 3.0588657e+2, -700555.56, -26934.205, 68380.516, -0.07854131, -0.3684689, -20062.867, -20062.867, 0.0, 9.993853, 10.002779 
2.5045976e+3, 3.158894e+2, -736111.1, 18041.672, -35775.367, 0.0046053207, -0.34552005, 19734.975, 19734.975, 0.0, 9.993347, 10.003327 
2.5156456e+3, 1.2596597e+2, -1087167.6, -1715028.9, -13622.377, -0.10749719, -0.49688545, -1086872.3, 618614.8, 0.32165912, 10.008243, 9.996026 
2.5155914e+3, 1.359625e+2, -950830.3, -1662075.0, -2703.6719, 0.07488229, -0.42980146, -950820.0, 656704.7, 0.22747405, 10.007887, 9.995891 
2.515535e+3, 1.4595875e+2, -857089.0, -1531609.0, -26946.914, 0.08143184, -0.41065663, -856014.2, 653549.7, 0.13355984, 10.006877, 9.996597 
2.5154775e+3, 1.5595497e+2, -904041.75, -1538970.5, -53283.723, 0.0075931093, -0.4341014, -899601.25, 512001.2, 0.059698474, 10.005423, 9.996577 
2.5154212e+3, 1.6595232e+2, -783398.6, -1289737.9, -11243.639, -0.005731874, -0.40913305, -783149.06, 530479.56, 0.017646221, 10.004773, 9.997928 
2.5153658e+3, 1.759506e+2, -704028.3, -1226755.5, 19089.057, 0.0117242485, -0.35790202, -703332.1, 512313.1, 0.0024909033, 10.0046835, 9.997729 
2.5153098e+3, 1.8594816e+2, -743404.4, -1240163.1, 1491.0442, 0.028258683, -0.3327488, -743399.9, 374271.28, 0.000056666635, 10.003923, 9.99733 
2.515254e+3, 1.9594541e+2, -827977.4, -1229267.0, -20660.893, 0.045834113, -0.32460922, -826916.44, 192785.11, 0.0, 10.002664, 9.997341 
2.5151977e+3, 2.0594327e+2, -717491.25, -944090.56, -2547.1208, 0.033231843, -0.34323645, -717462.6, 204259.92, 0.0, 10.00197, 9.998958 
2.515142e+3, 2.1594164e+2, -674260.25, -889484.25, 28635.93, -0.0026024946, -0.38643727, -670515.3, 153220.53, 0.0, 10.001665, 9.99881 
2.515086e+3, 2.2594044e+2, -682575.75, -837800.3, 33487.652, -0.02406277, -0.37036481, -675659.4, 50088.89, 0.0, 10.000915, 9.998853 
2.51503e+3, 2.3593964e+2, -746942.25, -821580.56, 28126.998, -0.033136506, -0.31865048, -737529.75, -109771.086, 0.0, 9.999813, 9.998822 
2.5149748e+3, 2.4593893e+2, -718872.0, -651990.6, 47279.848, -0.027243704, -0.3025933, -627520.44, -97753.766, 0.0, 9.99888, 9.999762 
2.5149202e+3, 2.5593844e+2, -742516.4, -615738.56, 39567.684, -0.021041483, -0.3127791, -604402.94, -172631.38, 0.0, 9.998056, 9.999737 
2.514865e+3, 2.659385e+2, -688900.44, -425262.22, 20474.195, -0.042339705, -0.32115325, -423681.66, -89911.57, 0.0, 9.997262, 10.000753 
2.5148097e+3, 2.7593893e+2, -705580.5, -386621.8, 23791.47, -0.059469104, -0.33718777, -384856.94, -149093.55, 0.0, 9.9964905, 10.000719 
2.5147545e+3, 2.8593925e+2, -685261.8, -235089.33, 28657.873, -0.04775877, -0.40006864, -233272.31, -95513.94, 0.0, 9.995566, 10.001531 
2.514699e+3, 2.959398e+2, -746623.25, -226319.0, 42031.992, -0.09116311, -0.48178995, -222945.39, -183193.83, 0.0, 9.994526, 10.001422 
2.5146464e+3, 3.0594233e+2, -743961.7, -120095.164, 52249.906, 0.11841636, -0.39297506, -115749.414, -115749.414, 0.0, 9.993861, 10.002136 
2.5145882e+3, 3.1594327e+2, -739981.3, 6398.985, 46728.477, -0.22762823, -0.4955396, 9313.127, 9313.127, 0.0, 9.993373, 10.003229 
2.5256538e+3, 1.2602168e+2, -1093742.6, -1691186.3, -6766.5186, -0.06621718, -0.495903, -1093666.0, 611276.6, 0.29838362, 10.007759, 9.996459 
2.5255987e+3, 1.360187e+2, -1015011.75, -1666742.9, -10594.963, 0.069555804, -0.42241734, -1014839.56, 592134.5, 0.20991299, 10.007008, 9.996284 
2.525541e+3, 1.4601508e+2, -920166.9, -1576755.0, -28195.742, 0.058343716, -0.404856, -918958.3, 590053.1, 0.12216576, 10.006346, 9.996539 
2.5254828e+3, 1.5601118e+2, -857116.5, -1521567.0, -9454.59, -0.014891946, -0.43248641, -856982.0, 554069.44, 0.05376756, 10.005765, 9.996527 
2.525426e+3, 1.6600852e+2, -761798.56, -1274991.9, 33116.023, -0.015383414, -0.40985885, -759670.44, 553407.75, 0.015441736, 10.004896, 9.997969 
2.5253698e+3, 1.7600684e+2, -821410.06, -1275012.0, 3675.4136, 0.025438858, -0.35850376, -821380.3, 393714.1, 0.0020561395, 10.0038395, 9.997803 
2.5253132e+3, 1.8600446e+2, -839592.2, -1262828.9, -9719.843, 0.03539392, -0.34221318, -839369.1, 277750.47, 0.00004051296, 10.003165, 9.997538 
2.5252563e+3, 1.9600174e+2, -800372.1, -1192283.3, 29143.332, 0.028721057, -0.3504752, -798216.8, 220932.63, 0.0, 10.002755, 9.997549 
2.5251997e+3, 2.0599999e+2, -705635.6, -916003.56, 53018.508, 0.03384708, -0.34729615, -693029.0, 228137.8, 0.0, 10.001959, 9.999154 
2.5251433e+3, 2.1599902e+2, -771977.1, -914971.3, 39131.465, 0.045724984, -0.34255746, -761969.0, 61205.29, 0.0, 10.000905, 9.998999 
2.5250867e+3, 2.2599782e+2, -777003.4, -881394.1, 37572.54, 0.01444208, -0.3351223, -764886.56, -39699.977, 0.0, 10.000262, 9.998864 
2.5250295e+3, 2.3599659e+2, -734095.75, -814467.9, 51887.5, -0.038596816, -0.3284204, -708652.3, -81451.52, 0.0, 9.999901, 9.998827 
2.5249738e+3, 2.4599575e+2, -676309.25, -640025.94, 82278.89, -0.039362606, -0.32152215, -573912.44, -44702.258, 0.0, 9.999213, 9.999681 
2.5249183e+3, 2.5599527e+2, -713990.8, -610639.9, 83629.82, -0.0145432595, -0.31886744, -564008.2, -132793.2, 0.0, 9.998294, 9.999655 
2.5248623e+3, 2.6599532e+2, -675928.6, -433504.84, 63618.44, -0.03826053, -0.31376034, -417824.0, -84610.21, 0.0, 9.997419, 10.000617 
2.524806e+3, 2.7599582e+2, -707365.44, -403041.88, 53230.816, -0.062607266, -0.31082195, -393999.66, -158792.53, 0.0, 9.996551, 10.000574 
2.5247505e+3, 2.8599584e+2, -620048.8, -222897.1, 39414.21, -0.019141966, -0.38715875, -219023.31, -81818.2, 0.0, 9.996102, 10.001353 
2.5246948e+3, 2.9599568e+2, -561399.7, -155053.86, 15336.972, -0.01786131, -0.52104837, -154475.81, -115271.0, 0.0, 9.995879, 10.001256 
2.5246403e+3, 3.0599904e+2, -659379.06, -91565.04, 13023.314, 0.08988548, -0.33606276, -91266.5, -91266.5, 0.0, 9.994501, 10.002022 
2.5245807e+3, 3.1600046e+2, -866202.8, -56735.234, 79754.51, -0.2881, -0.378815, -48952.09, -48952.09, 0.0, 9.992523, 10.003203 
2.535663e+3, 1.2607795e+2, -1069052.8, -1668867.8, -26904.555, 0.06585901, -0.48000675, -1067848.4, 636546.25, 0.27507544, 10.007688, 9.996698 
2.5356042e+3, 1.3607508e+2, -995358.7, -1632851.3, -30271.79, -0.041176632, -0.41893402, -993924.44, 612499.44, 0.1924841, 10.006931, 9.996555 
2.5355458e+3, 1.4607197e+2, -887837.44, -1506691.5, -47134.2, -0.08802683, -0.39029506, -884268.1, 624186.6, 0.110997684, 10.006288, 9.997052 
2.5354877e+3, 1.5606885e+2, -834909.2, -1468608.3, -30999.71, -0.055142645, -0.39234573, -833396.3, 577089.1, 0.048064336, 10.005711, 9.99692 
2.5354308e+3, 1.6606578e+2, -813685.3, -1380735.4, -4550.671, 0.004843751, -0.38863748, -813648.8, 498868.13, 0.013389727, 10.00487, 9.997253 
2.5353742e+3, 1.7606294e+2, -860042.3, -1355470.0, -30015.406, 0.07401782, -0.3817811, -858230.44, 356316.4, 0.0016752974, 10.003836, 9.997254 
2.5353163e+3, 1.8606062e+2, -770009.56, -1119284.3, -22228.834, 0.054846756, -0.3885591, -768600.5, 347969.63, 0.000027817086, 10.003165, 9.998524 
2.5352582e+3, 1.9605878e+2, -743767.5, -1069703.9, 12883.885, -0.021858929, -0.40989566, -743259.0, 275328.9, 0.0, 10.002729, 9.998404 
2.5352013e+3, 2.0605761e+2, -733820.9, -972502.0, 13520.747, 0.010396152, -0.36568692, -733057.44, 187542.77, 0.0, 10.001947, 9.998775 
2.5351447e+3, 2.1605705e+2, -794616.75, -962311.8, 3954.316, 0.11066865, -0.28179196, -794523.56, 28083.676, 0.0, 10.000903, 9.998676 
2.5350875e+3, 2.2605573e+2, -757216.75, -842347.44, 25097.018, 0.08160997, -0.28613573, -750368.8, -25747.805, 0.0, 10.000268, 9.999131 
2.5350296e+3, 2.3605405e+2, -717109.56, -780085.44, 36472.316, -0.02834204, -0.35161904, -700413.25, -73775.47, 0.0, 9.999901, 9.999065 
2.5349727e+3, 2.4605317e+2, -672488.3, -633134.56, 46184.305, -0.04705869, -0.35989603, -602610.1, -73963.71, 0.0, 9.999215, 9.999729 
2.5349164e+3, 2.5605297e+2, -711009.1, -607514.1, 48842.043, -0.018047526, -0.33712885, -588104.44, -157455.94, 0.0, 9.998304, 9.999673 
2.5348595e+3, 2.6605293e+2, -697765.44, -481482.16, 29619.09, -0.027318086, -0.32416195, -477499.28, -144850.36, 0.0, 9.997426, 10.000287 
2.534803e+3, 2.7605313e+2, -730769.75, -455738.1, 23049.56, -0.034213178, -0.31412357, -453819.75, -219173.47, 0.0, 9.996564, 10.000208 
2.5347468e+3, 2.8605312e+2, -665493.9, -322790.6, 29426.316, 0.016166762, -0.34063447, -320282.25, -183635.03, 0.0, 9.996123, 10.000659 
2.5346908e+3, 2.9605284e+2, -596118.0, -239229.75, -4088.2458, 0.019844834, -0.41924578, -239182.92, -200531.52, 0.0, 9.995929, 10.000656 
2.534632e+3, 3.0605695e+2, -626730.06, -24406.553, -72917.195, -0.15042178, -0.15722103, -15704.919, -15704.919, 0.0, 9.9945, 10.002484 
2.534575e+3, 3.1605774e+2, -881582.0, -110556.36, 211.44391, -0.10367036, -0.30532604, -110556.3, -110556.3, 0.0, 9.992575, 10.0028305 
2.5456706e+3, 1.2613614e+2, -1070807.6, -1677836.5, 1224.1741, 0.11862676, -0.3835936, -1070805.1, 633024.06, 0.2520686, 10.007478, 9.996709 
2.5456104e+3, 1.3613269e+2, -1060759.9, -1669044.4, -11176.12, -0.07820274, -0.38069022, -1060554.6, 545308.4, 0.17540264, 10.00624, 9.996635 
2.5455514e+3, 1.4612952e+2, -969248.44, -1510621.4, -20496.97, -0.11322321, -0.38339156, -968473.5, 539419.5, 0.10017107, 10.005425, 9.997436 
2.5454935e+3, 1.5612665e+2, -921009.1, -1473702.8, -11530.189, -0.00041903462, -0.39824846, -920768.7, 489150.94, 0.042632997, 10.004901, 9.997272 
2.5454354e+3, 1.6612366e+2, -872729.06, -1409204.6, 35896.78, 0.052391827, -0.3999541, -870337.8, 441611.9, 0.011497517, 10.004454, 9.997257 
2.5453776e+3, 1.761208e+2, -826766.8, -1336451.1, 56477.492, 0.058896318, -0.39421207, -820583.6, 393396.72, 0.0013462098, 10.004053, 9.997279 
2.5453192e+3, 1.8611866e+2, -738517.8, -1079378.0, 51725.9, 0.031518456, -0.39372873, -730841.2, 385160.28, 0.000018404051, 10.003279, 9.998742 
2.5452608e+3, 1.9611716e+2, -797407.3, -1073264.8, 32961.742, -0.015810125, -0.40213433, -793523.44, 224491.72, 0.0, 10.002269, 9.9986 
2.545203e+3, 2.0611593e+2, -797234.1, -1015265.3, 22714.014, 0.0116162, -0.36500964, -794892.94, 125135.25, 0.0, 10.001569, 9.998661 
2.5451452e+3, 2.1611509e+2, -776049.5, -961705.44, 30600.348, 0.08920698, -0.2997051, -771135.94, 50903.293, 0.0, 10.001071, 9.998598 
2.5450873e+3, 2.2611386e+2, -725057.75, -805648.75, 63009.215, 0.074069895, -0.30000478, -690560.94, 33491.113, 0.0, 10.0004015, 9.999317 
2.5450292e+3, 2.3611252e+2, -746899.25, -773796.0, 67950.45, 0.001607488, -0.3489029, -691079.1, -65014.324, 0.0, 9.999613, 9.999244 
2.5449717e+3, 2.4611177e+2, -709587.5, -640417.56, 71641.086, -0.025566485, -0.3571284, -595450.25, -67378.4, 0.0, 9.9989195, 9.999819 
2.5449142e+3, 2.5611156e+2, -713623.0, -602177.75, 76021.58, -0.02827493, -0.34301868, -563643.9, -133570.0, 0.0, 9.998262, 9.999727 
2.544857e+3, 2.6611143e+2, -655445.94, -482442.5, 70554.5, -0.028004142, -0.32889104, -457317.7, -125242.02, 0.0, 9.997814, 10.000092 
2.5447997e+3, 2.7611148e+2, -613465.6, -420593.44, 72007.27, -0.0014086977, -0.31376424, -396676.03, -162600.42, 0.0, 9.997467, 10.000012 
2.5447428e+3, 2.861116e+2, -656094.0, -335083.44, 95764.164, 0.015311221, -0.30968842, -308685.75, -172609.36, 0.0, 9.996264, 10.0005045 
2.5446856e+3, 2.961117e+2, -810856.44, -358489.44, 102924.18, -0.03971308, -0.33245802, -336172.72, -298094.78, 0.0, 9.994526, 10.000511 
2.5446263e+3, 3.0611506e+2, -648111.6, -46934.766, 27036.996, -0.17939752, -0.12811962, -45721.27, -45721.27, 0.0, 9.994415, 10.002366 
2.5445697e+3, 3.1611308e+2, -603619.44, -30711.531, 22584.566, 0.010304348, -0.53961957, -29822.605, -29822.605, 0.0, 9.994728, 10.002333 
2.5556776e+3, 1.261959e+2, -1070905.3, -1697815.6, -33877.4, 0.098966375, -0.22266142, -1069079.9, 634169.6, 0.22961618, 10.007378, 9.996568 
2.5556168e+3, 1.3619138e+2, -1060247.1, -1686740.6, -42862.652, -0.06362827, -0.3139477, -1057328.3, 547964.3, 0.15883274, 10.006201, 9.996537 
2.5555572e+3, 1.4618766e+2, -945833.8, -1475290.8, -34408.16, -0.046517096, -0.3825617, -943607.06, 563719.4, 0.08977346, 10.005424, 9.997704 
2.5554994e+3, 1.561846e+2, -897877.4, -1430094.9, -26396.691, 0.12773687, -0.4425968, -896571.4, 512781.8, 0.03750633, 10.004899, 9.997575 
2.5554407e+3, 1.6618215e+2, -833025.3, -1324505.5, 22774.262, 0.11852719, -0.4378436, -831972.25, 479404.47, 0.009769565, 10.004437, 9.997848 
2.5553808e+3, 1.7618024e+2, -799364.0, -1270989.3, 39070.0, -0.017211627, -0.3950299, -796149.3, 417247.4, 0.0010661423, 10.004013, 9.997749 
2.5553218e+3, 1.8617839e+2, -774900.6, -1150196.4, 13684.885, -0.029909557, -0.36115524, -774402.25, 341013.44, 0.000011845724, 10.003254, 9.99827 
2.5552633e+3, 1.9617675e+2, -827183.75, -1133349.8, -1267.5769, 0.03669565, -0.33482465, -827178.5, 190253.83, 0.0, 10.002258, 9.998194 
2.5552043e+3, 2.0617491e+2, -788882.5, -999649.94, 5238.37, 0.032208018, -0.34855956, -788752.4, 130698.98, 0.0, 10.001572, 9.998769 
2.5551453e+3, 2.161731e+2, -769222.0, -946100.5, 12643.946, -0.019252202, -0.3908524, -768322.75, 53147.594, 0.0, 10.001061, 9.998712 
2.555087e+3, 2.2617216e+2, -717982.25, -791054.06, 34102.965, -0.0067576435, -0.3715012, -704539.3, 18940.613, 0.0, 10.0004, 9.99942 
2.5550294e+3, 2.3617193e+2, -738513.94, -758288.94, 39346.664, 0.045177095, -0.3194388, -707831.44, -82349.195, 0.0, 9.999619, 9.99935 
2.554971e+3, 2.4617144e+2, -700673.0, -623851.94, 45703.434, 0.023298189, -0.31410977, -602561.8, -75074.7, 0.0, 9.998924, 9.999933 
2.5549123e+3, 2.5617096e+2, -706447.4, -589892.25, 52231.2, -0.050788645, -0.3380692, -569911.44, -140419.63, 0.0, 9.99827, 9.99981 
2.5548545e+3, 2.6617077e+2, -658581.56, -492035.25, 56916.023, -0.045895044, -0.32743037, -474442.88, -142948.48, 0.0, 9.997825, 10.000022 
2.5547972e+3, 2.7617085e+2, -609024.4, -419340.38, 52999.76, 0.022286113, -0.30609572, -405536.25, -172041.22, 0.0, 9.997498, 10.000008 
2.5547385e+3, 2.8617126e+2, -624835.8, -270951.78, 27748.453, -0.02277312, -0.2960863, -268789.22, -133296.83, 0.0, 9.996263, 10.000948 
2.5546783e+3, 2.9617226e+2, -794790.0, -314528.72, 53092.4, -0.18732268, -0.2691266, -308729.44, -271245.9, 0.0, 9.994476, 10.000839 
2.554622e+3, 3.0617312e+2, -720283.06, -203519.08, 60164.668, -0.01031773, -0.27361143, -196606.81, -196606.81, 0.0, 9.99444, 10.001282 
2.554564e+3, 3.1617308e+2, -559723.9, 46895.504, -63170.566, -0.006502057, -0.38776195, 53403.965, 53403.965, 0.0, 9.9948, 10.002825 
2.5656846e+3, 1.262552e+2, -1098042.6, -1672426.1, -2820.7837, 0.08076215, -0.21949235, -1098028.8, 604642.1, 0.20790952, 10.0067215, 9.9971075 
2.5656235e+3, 1.362513e+2, -1040127.7, -1628321.4, 29465.787, 0.026297946, -0.3000937, -1038655.3, 566050.5, 0.14289957, 10.006052, 9.997008 
2.5655633e+3, 1.4624782e+2, -937690.9, -1488988.3, 56410.598, 0.03215247, -0.35646343, -931977.94, 574759.56, 0.07987305, 10.005511, 9.997555 
2.565504e+3, 1.5624472e+2, -882785.94, -1436992.5, 41035.035, 0.11932898, -0.40275723, -879764.06, 529001.7, 0.032710835, 10.005046, 9.997457 
2.5654447e+3, 1.6624224e+2, -858677.6, -1330960.1, 52103.523, 0.09165279, -0.39712393, -852997.7, 457792.16, 0.008208251, 10.004229, 9.997903 
2.5653842e+3, 1.7624031e+2, -912466.5, -1317632.1, 33316.645, -0.018447557, -0.36194298, -909745.1, 303064.7, 0.0008310689, 10.003203, 9.997818 
2.5653246e+3, 1.862384e+2, -871599.4, -1191384.8, 17894.438, -0.023216492, -0.3414522, -870601.2, 244227.9, 0.000007464854, 10.002571, 9.998315 
2.5652653e+3, 1.9623663e+2, -835091.5, -1132747.1, 37668.62, 0.043814532, -0.3308786, -830398.44, 186447.94, 0.0, 10.002188, 9.998231 
2.565206e+3, 2.0623478e+2, -769284.44, -988251.75, 59105.11, 0.035242755, -0.34552422, -754349.1, 164515.9, 0.0, 10.001704, 9.99878 
2.565146e+3, 2.1623302e+2, -754866.56, -938168.7, 56387.07, -0.023363004, -0.38167667, -738909.9, 81973.35, 0.0, 10.00116, 9.998716 
2.565087e+3, 2.2623205e+2, -713530.2, -794278.0, 59913.29, -0.018150873, -0.36288756, -681656.94, 41236.504, 0.0, 10.000457, 9.999369 
2.5650287e+3, 2.3623174e+2, -736956.0, -760593.56, 54144.992, 0.03364134, -0.31227404, -693354.9, -68457.92, 0.0, 9.999647, 9.999318 
2.5649697e+3, 2.4623129e+2, -701404.6, -616684.1, 58410.305, 0.022107081, -0.3054772, -586890.7, -59989.152, 0.0, 9.998892, 9.999995 
2.5649104e+3, 2.562309e+2, -717404.44, -585923.1, 61027.523, -0.035404667, -0.32748803, -561963.25, -133057.95, 0.0, 9.998159, 9.999888 
2.564852e+3, 2.6623082e+2, -714980.6, -494352.6, 80863.73, -0.044008058, -0.31728593, -467888.94, -136982.72, 0.0, 9.9973345, 10.00024 
2.5647938e+3, 2.7623108e+2, -752098.06, -466851.22, 94637.234, -0.0015224877, -0.3000373, -438309.1, -205404.06, 0.0, 9.996428, 10.0001955 
2.5647345e+3, 2.8623155e+2, -646844.44, -277592.47, 47622.11, -0.044966694, -0.2943247, -271549.56, -136648.25, 0.0, 9.9961, 10.0009775 
2.5646734e+3, 2.9623264e+2, -564726.06, -202509.19, 43466.426, -0.18942977, -0.26370317, -197366.19, -160475.2, 0.0, 9.996057, 10.000844 
2.5646177e+3, 3.0623248e+2, -662970.1, -203816.77, 98755.33, 0.102334164, -0.35425106, -183477.33, -183477.33, 0.0, 9.994953, 10.001034 
2.5645575e+3, 3.1623623e+2, -682682.5, 47755.918, 13117.13, -0.07573707, -0.06372031, 47991.395, 47991.395, 0.0, 9.993702, 10.003359 
2.5756907e+3, 1.2631421e+2, -1026961.0, -1543536.5, -21458.242, 0.056302957, -0.33828983, -1026071.2, 676021.44, 0.18714096, 10.00666, 9.998214 
2.5756308e+3, 1.3631234e+2, -977222.2, -1514315.0, 8677.532, 0.16994861, -0.32455647, -977082.0, 627022.8, 0.12772715, 10.006047, 9.997881 
2.5755695e+3, 1.4630967e+2, -963516.0, -1560716.6, 38243.734, 0.11293145, -0.30671632, -961076.94, 545052.56, 0.070536576, 10.005518, 9.997053 
2.5755078e+3, 1.5630668e+2, -916564.1, -1510214.9, 21433.898, -0.007969265, -0.29236513, -915791.25, 492369.2, 0.028271966, 10.005025, 9.996966 
2.5754476e+3, 1.6630372e+2, -887737.4, -1390829.9, 14709.894, -0.013192377, -0.29165608, -887307.7, 422883.5, 0.006815169, 10.004216, 9.9975 
2.575388e+3, 1.7630096e+2, -931660.9, -1358410.1, -213.0597, 0.041178484, -0.30120936, -931660.75, 280559.2, 0.0006366626, 10.003203, 9.9975395 
2.5753278e+3, 1.8629864e+2, -835956.6, -1120630.1, 5197.3145, 0.03922818, -0.33412287, -835861.75, 278379.7, 0.0000046197197, 10.002582, 9.998796 
2.575267e+3, 1.9629678e+2, -807244.94, -1074278.9, 23772.24, 0.0048867003, -0.38215023, -805145.1, 211111.92, 0.0, 10.002182, 9.998637 
2.5752074e+3, 2.0629552e+2, -776823.75, -1003596.5, 38752.734, 0.02202015, -0.35124525, -770384.25, 147885.39, 0.0, 10.001699, 9.99868 
2.575148e+3, 2.1629474e+2, -765037.1, -956015.3, 36266.46, 0.06524829, -0.27793586, -758382.1, 61897.047, 0.0, 10.0011425, 9.998604 
2.5750878e+3, 2.2629341e+2, -729231.7, -826252.8, 30113.236, 0.033609796, -0.27945384, -720645.1, 1648.5304, 0.0, 10.00045, 9.999154 
2.5750273e+3, 2.3629189e+2, -750272.56, -787871.5, 24072.633, -0.03860906, -0.3289632, -738528.44, -114218.78, 0.0, 9.999642, 9.999135 
2.574968e+3, 2.4629126e+2, -701475.4, -616879.7, 29608.707, -0.03100373, -0.33080417, -607546.3, -81230.61, 0.0, 9.99889, 9.999996 
2.574909e+3, 2.5629133e+2, -710336.3, -574239.44, 32309.438, 0.011865065, -0.30708656, -566958.7, -138644.2, 0.0, 9.998169, 9.999966 
2.5748494e+3, 2.662916e+2, -679478.56, -421265.72, 44790.297, -0.023047049, -0.29870236, -413716.97, -83405.375, 0.0, 9.997332, 10.000746 
2.5747892e+3, 2.7629212e+2, -727489.9, -412817.88, 64893.777, -0.08040856, -0.3024346, -399960.4, -167653.92, 0.0, 9.99641, 10.000577 
2.5747302e+3, 2.8629237e+2, -679102.6, -346326.72, 47505.16, -0.055794824, -0.30493903, -339678.0, -205374.22, 0.0, 9.996105, 10.000505 
2.5746706e+3, 2.962927e+2, -575837.8, -243986.8, 32348.605, -0.047339, -0.30545208, -240862.89, -204562.28, 0.0, 9.996132, 10.0005245 
2.5746134e+3, 3.0629316e+2, -588283.3, -54884.11, 32500.814, 0.17039023, -0.3765073, -52911.086, -52911.086, 0.0, 9.994974, 10.0020485 
2.5745496e+3, 3.1629634e+2, -770730.0, -127325.86, 39390.742, -0.1972029, -0.23783532, -124923.24, -124923.24, 0.0, 9.993662, 10.002179 
2.5856975e+3, 1.2637538e+2, -995630.5, -1564944.3, 38518.195, 0.0811375, -0.37891233, -993036.3, 708453.6, 0.16750593, 10.006944, 9.997875 
2.5856367e+3, 1.363733e+2, -938120.0, -1525801.9, -8883.519, 0.15805103, -0.35168406, -937985.75, 665520.56, 0.113445766, 10.006401, 9.997611 
2.5855747e+3, 1.463707e+2, -938799.7, -1546250.8, 5310.517, 0.0941197, -0.31932184, -938753.25, 566778.4, 0.061831415, 10.005647, 9.9970875 
2.5855124e+3, 1.5636788e+2, -945299.94, -1520497.4, 19079.545, -0.01806396, -0.28955403, -944667.75, 462893.5, 0.02421163, 10.004791, 9.997006 
2.5854513e+3, 1.6636506e+2, -900210.0, -1390963.3, 41230.77, -0.016874328, -0.2802476, -896770.06, 412820.97, 0.0055896994, 10.004103, 9.997554 
2.585391e+3, 1.7636237e+2, -883389.25, -1330634.9, 56726.98, 0.047188513, -0.2857855, -876306.4, 335312.9, 0.00047878033, 10.003517, 9.997579 
2.5853303e+3, 1.8636003e+2, -793646.06, -1108878.5, 58136.176, 0.04603383, -0.31722376, -783266.2, 330375.2, 0.0000028007903, 10.0029125, 9.998717 
2.5852692e+3, 1.9635807e+2, -794022.2, -1072917.0, 34927.02, 0.0064928094, -0.36621654, -789714.7, 225943.56, 0.0, 10.002296, 9.9985895 
2.5852087e+3, 2.0635678e+2, -804696.94, -1000538.4, 37844.574, 0.025584782, -0.34262118, -797638.25, 120032.23, 0.0, 10.00144, 9.998823 
2.5851488e+3, 2.1635607e+2, -858099.5, -985929.44, 52816.504, 0.08082139, -0.27731296, -839100.6, -19422.137, 0.0, 10.000444, 9.998733 
2.585088e+3, 2.2635481e+2, -813204.5, -868181.4, 70216.87, 0.041019797, -0.27469906, -765287.2, -43594.977, 0.0, 9.9998865, 9.999135 
2.5850266e+3, 2.3635337e+2, -759926.3, -793855.3, 76859.37, -0.051565945, -0.3142459, -698181.5, -74473.375, 0.0, 9.999585, 9.999119 
2.5849664e+3, 2.4635269e+2, -693852.56, -609100.6, 81711.42, -0.045103565, -0.32063776, -559430.5, -33716.09, 0.0, 9.998928, 10.00003 
2.584907e+3, 2.5635263e+2, -728725.9, -580497.56, 86131.2, 0.0130797895, -0.30985296, -540983.0, -113269.43, 0.0, 9.998036, 9.999984 
2.5848463e+3, 2.6635277e+2, -658246.25, -425924.75, 74803.18, -0.022777246, -0.30527794, -403923.16, -74211.14, 0.0, 9.997547, 10.0006075 
2.584786e+3, 2.763532e+2, -612757.56, -369770.28, 46189.09, -0.0847448, -0.30543697, -361286.47, -129577.9, 0.0, 9.997255, 10.0004635 
2.5847265e+3, 2.863536e+2, -623176.9, -316159.22, 38853.594, -0.031401653, -0.2951488, -311318.56, -177613.8, 0.0, 9.996477, 10.000533 
2.584667e+3, 2.9635397e+2, -678177.3, -290247.28, 57664.914, 0.012332837, -0.29096544, -281856.97, -246156.69, 0.0, 9.995417, 10.000552 
2.5846073e+3, 3.0635425e+2, -597929.3, -50019.813, 7484.2144, 0.110953115, -0.3830995, -49917.6, -49917.6, 0.0, 9.994873, 10.002129 
2.5845432e+3, 3.1635556e+2, -740806.3, -183216.77, -9387.782, -0.21978638, -0.4355932, -183058.75, -183058.75, 0.0, 9.994179, 10.001542 
2.5957048e+3, 1.2643833e+2, -1074441.1, -1750856.4, 16445.625, 0.1262582, -0.3547228, -1074041.6, 626826.06, 0.14913984, 10.006878, 9.996439 
2.5956413e+3, 1.3643427e+2, -1012432.06, -1693672.5, -28327.787, 0.014693714, -0.38437468, -1011256.1, 591653.06, 0.10015762, 10.006329, 9.996428 
2.595579e+3, 1.4643107e+2, -910842.6, -1485609.1, -23407.598, -0.0036673574, -0.38495153, -909890.94, 595050.25, 0.053813685, 10.005595, 9.997539 
2.595518e+3, 1.5642853e+2, -916758.06, -1456391.4, -8930.313, 0.06391469, -0.3754646, -916610.3, 490356.03, 0.020546116, 10.004756, 9.997465 
2.595456e+3, 1.6642635e+2, -872666.6, -1330441.6, 20714.186, 0.058375366, -0.3465698, -871731.25, 437257.72, 0.004528457, 10.004082, 9.997981 
2.595394e+3, 1.7642452e+2, -868633.6, -1293211.3, 35706.867, 0.002480694, -0.3070191, -865651.6, 345356.94, 0.00035322845, 10.003485, 9.997853 
2.5953326e+3, 1.8642244e+2, -839010.7, -1199146.9, 36100.902, 0.0033475219, -0.2901174, -835427.5, 277602.44, 0.0000016193491, 10.002892, 9.998109 
2.5952718e+3, 1.9642034e+2, -828993.7, -1141998.1, 12123.432, 0.037258457, -0.29092997, -828524.8, 186526.1, 0.0, 10.002279, 9.998126 
2.59521e+3, 2.0641851e+2, -778752.94, -947811.2, 1687.3671, 0.04007732, -0.32376695, -778736.1, 138331.89, 0.0, 10.001442, 9.9991865 
2.5951484e+3, 2.1641698e+2, -834745.44, -937916.1, 20741.035, 0.02321591, -0.37609908, -830731.9, -11650.678, 0.0, 10.000443, 9.999064 
2.5950873e+3, 2.2641626e+2, -802439.75, -846620.2, 59804.617, 0.0052770753, -0.3428945, -760776.0, -39686.883, 0.0, 9.999887, 9.999284 
2.5950265e+3, 2.3641612e+2, -749747.1, -773943.1, 62850.664, -0.012670583, -0.2656602, -697840.7, -74747.9, 0.0, 9.999588, 9.999257 
2.5949657e+3, 2.4641551e+2, -690012.06, -602118.6, 46957.71, -0.023573274, -0.27624643, -581750.94, -56652.76, 0.0, 9.998928, 10.00008 
2.5949043e+3, 2.5641477e+2, -733608.0, -592101.56, 55432.133, -0.040381014, -0.33906046, -572972.94, -145869.75, 0.0, 9.99804, 9.999905 
2.5948438e+3, 2.6641437e+2, -716072.2, -547379.44, 63243.418, -0.047068235, -0.33779013, -526302.6, -197194.33, 0.0, 9.997551, 9.999773 
2.5947836e+3, 2.764143e+2, -652866.2, -460140.75, 29554.59, -0.017654425, -0.30241886, -455710.38, -224598.3, 0.0, 9.997283, 9.999831 
2.5947237e+3, 2.8641504e+2, -579347.25, -228755.47, -4734.001, 0.032133166, -0.26283872, -228691.55, -95586.43, 0.0, 9.996488, 10.001131 
2.594662e+3, 2.9641634e+2, -652523.44, -232548.73, 23465.287, -0.012891682, -0.22332628, -231241.72, -196151.08, 0.0, 9.995394, 10.000961 
2.5945997e+3, 3.064158e+2, -676834.7, -211950.05, -7053.961, -0.13588277, -0.35807338, -211843.05, -211843.05, 0.0, 9.994862, 10.001024 
2.5945392e+3, 3.164166e+2, -646808.1, -2219.0903, 13395.2705, -0.0011773723, -0.36319974, -1940.842, -1940.842, 0.0, 9.994229, 10.002767 
2.6057115e+3, 1.2650062e+2, -1071214.6, -1767583.4, -23185.355, 0.13523418, -0.3600999, -1070443.5, 629813.3, 0.13208443, 10.0068445, 9.996345 
2.605647e+3, 1.364967e+2, -1088608.5, -1741799.0, 5993.7236, 0.0038156502, -0.36642495, -1088553.5, 513745.06, 0.08790714, 10.00571, 9.996395 
2.605584e+3, 1.4649351e+2, -979925.6, -1495792.9, 39391.445, -0.008880123, -0.37680072, -976935.0, 527395.4, 0.046511892, 10.004957, 9.997768 
2.6055226e+3, 1.5649092e+2, -944489.8, -1445268.6, 38363.0, 0.08594137, -0.39337903, -941568.0, 464787.06, 0.017282207, 10.004445, 9.99769 
2.60546e+3, 1.6648889e+2, -915861.6, -1330013.1, 49326.15, 0.07231777, -0.36714107, -910067.8, 398307.72, 0.003625257, 10.003693, 9.99817 
2.6053968e+3, 1.7648734e+2, -956415.75, -1317564.5, 49379.227, -0.012688533, -0.31766808, -949785.94, 260606.19, 0.0002556899, 10.002808, 9.998011 
2.6053348e+3, 1.8648541e+2, -922049.94, -1242876.8, 80746.78, -0.01957289, -0.28919712, -902873.5, 209538.95, 0.00000086705097, 10.002343, 9.998071 
2.6052734e+3, 1.9648342e+2, -854571.3, -1157721.5, 92580.54, 0.022981359, -0.27664772, -828534.0, 185899.64, 0.0, 10.002124, 9.998091 
2.6052114e+3, 2.064815e+2, -752572.75, -944025.4, 64136.285, 0.031257696, -0.30928224, -733073.2, 183378.77, 0.0, 10.001664, 9.999104 
2.605149e+3, 2.164798e+2, -746663.0, -899500.1, 49999.44, 0.01792587, -0.3689543, -731759.4, 86707.72, 0.0, 10.001068, 9.999026 
2.6050872e+3, 2.2647913e+2, -737160.56, -789385.75, 86759.9, 0.0022911567, -0.342215, -672668.8, 47804.926, 0.0, 10.000227, 9.999513 
2.6050258e+3, 2.3647918e+2, -787472.06, -771331.3, 97353.35, -0.00732671, -0.26869488, -681714.44, -59240.305, 0.0, 9.999245, 9.999437 
2.6049644e+3, 2.4647848e+2, -705301.2, -631550.2, 79250.02, -0.013808805, -0.28104812, -581016.5, -56536.195, 0.0, 9.998922, 9.999878 
2.6049027e+3, 2.564775e+2, -615874.7, -555244.0, 66614.98, -0.028641565, -0.34493244, -512370.72, -85882.23, 0.0, 9.998937, 9.999724 
2.6048413e+3, 2.6647702e+2, -634495.8, -509453.53, 96132.055, -0.03716081, -0.34429193, -457300.06, -128805.484, 0.0, 9.998121, 9.999757 
2.6047808e+3, 2.7647692e+2, -721280.94, -494788.97, 123007.26, -0.0071534887, -0.30962265, -440836.16, -210337.94, 0.0, 9.996825, 9.999811 
2.6047197e+3, 2.864777e+2, -615656.3, -245047.64, 83773.125, 0.043156732, -0.26142773, -226991.13, -94499.87, 0.0, 9.996241, 10.001134 
2.6046574e+3, 2.9647917e+2, -576052.06, -202998.58, 63337.13, 0.003598966, -0.20878056, -192538.47, -158061.77, 0.0, 9.995958, 10.000889 
2.6045933e+3, 3.064782e+2, -721708.94, -303331.06, 31340.77, -0.22345561, -0.3435824, -300996.34, -300996.34, 0.0, 9.9948635, 10.000391 
2.6045346e+3, 3.1647983e+2, -641797.0, 129105.6, 74738.82, 0.14078358, -0.21032897, 136284.66, 136284.66, 0.0, 9.993715, 10.003913 
2.615718e+3, 1.2656254e+2, -1016695.44, -1641840.1, -59607.82, 0.11524015, -0.3892257, -1011062.56, 688591.06, 0.11632534, 10.006717, 9.997314 
2.6156536e+3, 1.3656044e+2, -1038963.3, -1627283.9, -27644.643, 0.08663355, -0.3089084, -1037667.2, 564008.2, 0.07668927, 10.005636, 9.997216 
2.6155895e+3, 1.4655772e+2, -978158.5, -1497694.1, 21262.07, 0.050643407, -0.30853763, -977289.8, 526412.1, 0.03992214, 10.004943, 9.997765 
2.6155263e+3, 1.5655482e+2, -944591.4, -1448304.4, 17769.879, 0.053297646, -0.35474715, -943965.3, 461764.28, 0.014412344, 10.004442, 9.997672 
2.6154628e+3, 1.6655256e+2, -917785.3, -1335839.1, 16126.633, 0.03445087, -0.349625, -917164.1, 390587.97, 0.0028702114, 10.003694, 9.998131 
2.6153994e+3, 1.7655078e+2, -953812.3, -1311537.3, 20742.367, -0.008300233, -0.31963763, -952613.6, 257156.84, 0.0001820931, 10.002802, 9.998056 
2.6153368e+3, 1.8654893e+2, -888538.7, -1175345.0, 73543.6, -0.02913589, -0.3124405, -870780.0, 241009.28, 0.00000042407203, 10.002348, 9.998534 
2.6152748e+3, 1.9654718e+2, -834682.4, -1114166.3, 83180.79, -0.034742627, -0.31894773, -811799.44, 202007.64, 0.0, 10.0021105, 9.998398 
2.6152125e+3, 2.0654567e+2, -791368.4, -1022148.06, 42342.773, 0.0006083841, -0.2956703, -783844.75, 131978.53, 0.0, 10.001651, 9.998575 
2.6151502e+3, 2.1654439e+2, -777600.44, -959717.9, 27488.152, 0.05358321, -0.2608619, -773541.94, 44295.375, 0.0, 10.001047, 9.998625 
2.6150873e+3, 2.2654328e+2, -716003.44, -745713.75, 50367.46, 0.026192693, -0.2782765, -678346.2, 41500.84, 0.0, 10.000225, 9.999815 
2.6150244e+3, 2.3654239e+2, -774069.0, -744609.06, 65981.14, -0.04056426, -0.32705992, -691733.7, -69880.734, 0.0, 9.999245, 9.999622 
2.6149628e+3, 2.4654156e+2, -738038.1, -700353.7, 79537.42, -0.0171259, -0.33439368, -637457.1, -113595.84, 0.0, 9.998925, 9.999405 
2.614902e+3, 2.565409e+2, -631884.8, -594172.4, 59394.09, 0.04341796, -0.3229594, -550713.1, -124843.39, 0.0, 9.998959, 9.999448 
2.61484e+3, 2.6654074e+2, -574682.8, -388129.9, 45257.094, 0.006151726, -0.32364428, -377730.4, -49859.438, 0.0, 9.998129, 10.000588 
2.6147768e+3, 2.7654108e+2, -679912.56, -407792.88, 81383.9, -0.061262313, -0.3291009, -385310.56, -155443.9, 0.0, 9.996817, 10.000415 
2.6147154e+3, 2.8654155e+2, -665681.5, -348451.25, 75094.836, -0.011255089, -0.29513076, -331572.8, -199709.53, 0.0, 9.996236, 10.000428 
2.6146537e+3, 2.9654223e+2, -616815.5, -296398.9, 42241.133, 0.039409116, -0.25175378, -290923.72, -257063.86, 0.0, 9.995993, 10.000233 
2.6145893e+3, 3.0654132e+2, -732991.2, -327254.84, -28174.955, -0.07964581, -0.3403007, -325307.7, -325307.7, 0.0, 9.994862, 10.00023 
2.6145267e+3, 3.1654376e+2, -634471.1, 141472.45, -66155.72, 0.0039933287, -0.11789265, 147072.38, 147072.38, 0.0, 9.993703, 10.004017 
2.625724e+3, 1.2662639e+2, -1099266.0, -1640008.6, 7397.3, 0.1242554, -0.37590358, -1099164.9, 599866.06, 0.10183037, 10.005769, 9.997783 
2.6256588e+3, 1.366249e+2, -1036803.94, -1587325.5, 12090.749, 0.082978174, -0.27760357, -1036538.5, 564506.3, 0.06646873, 10.005421, 9.997601 
2.625594e+3, 1.4662224e+2, -980189.6, -1512656.1, 54570.875, 0.032991145, -0.27929556, -974654.4, 528416.06, 0.03401378, 10.004968, 9.997645 
2.6255304e+3, 1.5661909e+2, -944918.06, -1457100.0, 40815.19, 0.022718266, -0.33939704, -941685.94, 463415.2, 0.011913969, 10.004472, 9.997595 
2.6254666e+3, 1.6661678e+2, -886677.9, -1305715.6, 34746.035, 0.022176968, -0.3411381, -883816.4, 423307.34, 0.0022491682, 10.003848, 9.99826 
2.6254022e+3, 1.7661509e+2, -890487.6, -1263601.6, 51211.113, 0.016146513, -0.3151667, -883586.4, 325554.16, 0.00012833992, 10.003168, 9.998205 
2.6253393e+3, 1.866133e+2, -860848.3, -1137912.6, 104379.02, -0.0010689073, -0.3183889, -825926.9, 285231.2, 0.00000019125741, 10.00244, 9.998744 
2.6252767e+3, 1.9661164e+2, -883511.5, -1118001.6, 94389.77, -0.019762004, -0.33578318, -850238.06, 162936.42, 0.0, 10.001695, 9.9985695 
2.6252136e+3, 2.0661029e+2, -858816.4, -1058432.0, 71792.88, -0.004109252, -0.30149755, -835677.75, 79511.57, 0.0, 10.001207, 9.998538 
2.6251507e+3, 2.1660921e+2, -808346.9, -979132.8, 90172.91, 0.030910736, -0.24349587, -769550.0, 47652.176, 0.0, 10.000862, 9.998577 
2.6250875e+3, 2.2660783e+2, -684721.75, -750415.06, 97129.59, 0.017433923, -0.2726785, -615035.2, 104179.266, 0.0, 10.000529, 9.999634 
2.6250243e+3, 2.3660648e+2, -648527.1, -701020.56, 77749.555, -0.017499588, -0.35049433, -592713.6, 28511.297, 0.0, 10.000183, 9.999468 
2.624962e+3, 2.4660575e+2, -689287.3, -676537.8, 104009.79, 0.0023283972, -0.33900303, -578707.56, -55475.074, 0.0, 9.999261, 9.999406 
2.6249003e+3, 2.5660554e+2, -767933.56, -656736.25, 117576.53, 0.046969544, -0.28284225, -582275.5, -157038.13, 0.0, 9.998016, 9.999471 
2.6248375e+3, 2.6660535e+2, -647888.56, -410260.44, 77091.71, -0.004790445, -0.2939281, -387441.5, -60202.652, 0.0, 9.997575, 10.000702 
2.6247737e+3, 2.7660537e+2, -575188.06, -346839.03, 58651.133, -0.08442993, -0.34020418, -332655.53, -103418.89, 0.0, 9.997495, 10.0005045 
2.6247114e+3, 2.8660586e+2, -592779.75, -319812.03, 68680.11, -0.016629716, -0.30714506, -303505.84, -172272.4, 0.0, 9.996766, 10.000368 
2.6246497e+3, 2.9660666e+2, -658049.06, -320161.72, 82837.72, 0.07354677, -0.24289478, -300945.75, -267716.53, 0.0, 9.9957285, 10.0001955 
2.6245844e+3, 3.066064e+2, -641542.0, -244303.63, 46546.97, -0.05076616, -0.2816962, -238922.31, -238922.31, 0.0, 9.995327, 10.000572 
2.6245198e+3, 3.1660786e+2, -551181.25, 104814.375, -4119.316, -0.08987599, -0.1854229, 104840.24, 104840.24, 0.0, 9.994615, 10.003322 
2.6357296e+3, 1.2669182e+2, -1096042.0, -1633084.1, -6881.2397, 0.14236675, -0.3293683, -1095953.9, 602438.25, 0.0885595, 10.005693, 9.99786 
2.6356632e+3, 1.366901e+2, -1033338.2, -1586884.9, -1347.3927, 0.0035208764, -0.26240593, -1033334.94, 567071.94, 0.057199568, 10.005401, 9.997611 
2.635598e+3, 1.4668716e+2, -993211.94, -1547073.6, 35549.926, -0.04807503, -0.27849248, -990939.44, 511495.75, 0.028747082, 10.004963, 9.997415 
2.635534e+3, 1.5668374e+2, -960221.2, -1481414.0, 21575.98, -0.009966278, -0.34249744, -959329.56, 445139.7, 0.009758187, 10.004425, 9.997453 
2.6354703e+3, 1.6668156e+2, -873265.2, -1271974.6, 9567.414, 0.027935337, -0.34144554, -873035.75, 433454.6, 0.0017460019, 10.0038185, 9.9985075 
2.6354057e+3, 1.7668019e+2, -877259.56, -1235654.8, 25340.354, 0.053236548, -0.30738464, -875476.75, 333026.28, 0.0000901775, 10.003163, 9.998402 
2.6353422e+3, 1.866785e+2, -864308.75, -1145317.1, 75649.22, 0.057961337, -0.3078315, -845237.75, 265281.56, 0.00000008629741, 10.002438, 9.998696 
2.6352787e+3, 1.9667678e+2, -884459.4, -1115588.0, 68717.56, 0.052784927, -0.32833353, -865572.1, 146964.13, 0.0, 10.001673, 9.998599 
2.635215e+3, 2.0667532e+2, -829283.4, -997495.44, 58735.758, 0.0106675215, -0.3269623, -810804.25, 103746.37, 0.0, 10.001207, 9.998959 
2.6351503e+3, 2.1667416e+2, -791194.5, -943808.3, 78078.805, -0.051564302, -0.31698787, -758327.06, 58235.43, 0.0, 10.000859, 9.998823 
2.6350874e+3, 2.2667275e+2, -731924.5, -848265.8, 84815.36, -0.022663414, -0.3216661, -687248.3, 31328.242, 0.0, 10.000526, 9.998965 
2.6350248e+3, 2.3667136e+2, -682818.5, -772334.3, 59672.637, 0.05361883, -0.33695057, -652983.56, -32393.105, 0.0, 10.00018, 9.998981 
2.6349616e+3, 2.4667104e+2, -655956.9, -607564.25, 55485.12, 0.04067732, -0.29446545, -571229.06, -48634.82, 0.0, 9.999258, 9.999883 
2.6348975e+3, 2.5667143e+2, -746921.2, -613923.06, 77642.24, -0.028732399, -0.2238505, -578194.7, -153603.13, 0.0, 9.998015, 9.999766 
2.634834e+3, 2.6667073e+2, -694847.94, -507783.88, 74747.01, -0.07572244, -0.25484607, -481585.56, -154986.84, 0.0, 9.997572, 10.000034 
2.634771e+3, 2.766697e+2, -601885.4, -410715.88, 48120.24, -0.0827115, -0.34247425, -399286.6, -170676.92, 0.0, 9.997528, 10.0000515 
2.634709e+3, 2.8667057e+2, -543186.94, -221046.88, 25409.326, 0.033515375, -0.2938047, -219054.98, -88452.734, 0.0, 9.996781, 10.00104 
2.6346457e+3, 2.9667264e+2, -612596.3, -220815.64, 52488.035, 0.11787002, -0.167247, -213905.55, -181322.58, 0.0, 9.995704, 10.000892 
2.634578e+3, 3.0667365e+2, -570741.75, -108216.1, 45114.15, -0.2044371, -0.1658907, -103856.81, -103856.81, 0.0, 9.995366, 10.0014925 
2.634515e+3, 3.166733e+2, -644230.7, -98830.78, -22010.982, -0.021323422, -0.31840894, -97943.914, -97943.914, 0.0, 9.994673, 10.001887 
2.6457348e+3, 1.2675773e+2, -1125781.3, -1665042.9, 23360.559, 0.10715654, -0.27855894, -1124771.1, 572976.94, 0.07645902, 10.005473, 9.997725 
2.6456684e+3, 1.3675529e+2, -998867.8, -1582091.1, 11653.511, 0.010192459, -0.2684944, -998635.06, 601134.25, 0.04883673, 10.005656, 9.997522 
2.6456028e+3, 1.4675239e+2, -983633.4, -1529602.4, 34358.41, -0.035243392, -0.28482896, -981479.6, 520317.66, 0.024084868, 10.004961, 9.997531 
2.6455384e+3, 1.5674935e+2, -1035942.1, -1508220.1, 42193.1, -0.005384638, -0.31974554, -1032202.2, 371625.34, 0.007915984, 10.003857, 9.9975395 
2.6454735e+3, 1.6674717e+2, -946114.8, -1316314.4, 37326.57, 0.02804159, -0.31722307, -942388.75, 363460.16, 0.0013442558, 10.003361, 9.998421 
2.6454088e+3, 1.7674558e+2, -880716.94, -1243787.3, 27199.373, 0.053247344, -0.29479718, -878690.6, 329173.3, 0.00006369034, 10.003173, 9.998338 
2.6453444e+3, 1.8674393e+2, -851225.4, -1137835.8, 58102.258, 0.05823498, -0.2899873, -839894.7, 269985.25, 0.000000036839044, 10.002528, 9.998701 
2.6452804e+3, 1.9674233e+2, -882838.75, -1108810.8, 57171.36, 0.055223867, -0.2983947, -869197.7, 142697.72, 0.0, 10.001663, 9.998647 
2.6452157e+3, 2.0674084e+2, -812279.7, -964209.2, 56085.453, 0.014335163, -0.31452742, -793818.7, 120090.54, 0.0, 10.00122, 9.999179 
2.6451513e+3, 2.1673961e+2, -761055.94, -910238.25, 58343.27, -0.04493692, -0.33417693, -740948.75, 74971.84, 0.0, 10.000988, 9.99899 
2.6450875e+3, 2.2673827e+2, -745891.44, -866902.06, 80682.35, -0.025529513, -0.3317328, -705547.7, 12386.333, 0.0, 10.000484, 9.998857 
2.6450247e+3, 2.3673703e+2, -740789.56, -809335.1, 95089.2, 0.042623807, -0.32047528, -673985.25, -54038.008, 0.0, 9.9998255, 9.998897 
2.6449606e+3, 2.4673656e+2, -623202.2, -590162.5, 75624.47, 0.028939081, -0.2902122, -529274.56, -7321.8594, 0.0, 9.999478, 9.999894 
2.6448956e+3, 2.5673664e+2, -570031.44, -529686.8, 63213.523, -0.038281396, -0.2504878, -483504.97, -59552.414, 0.0, 9.999237, 9.999755 
2.6448315e+3, 2.6673618e+2, -604145.94, -481927.78, 76097.99, -0.08377095, -0.2506165, -445439.6, -119481.34, 0.0, 9.998273, 9.999873 
2.644768e+3, 2.7673557e+2, -696748.9, -468298.66, 86657.836, -0.077303424, -0.2805198, -439146.78, -211180.52, 0.0, 9.996929, 9.999945 
2.6447052e+3, 2.8673613e+2, -600468.94, -232511.67, 50121.414, 0.0460187, -0.2622844, -225806.55, -95845.68, 0.0, 9.996323, 10.001181 
2.6446414e+3, 2.9673767e+2, -553303.2, -169641.7, 37223.152, 0.114110336, -0.20446151, -166063.66, -134118.42, 0.0, 9.996017, 10.00109 
2.6445726e+3, 3.067392e+2, -560150.1, -59743.074, -2929.2002, -0.29065984, -0.18194076, -59725.93, -59725.93, 0.0, 9.995253, 10.00188 
2.6445103e+3, 3.167393e+2, -631504.0, -130382.56, -43515.555, 0.0627939, -0.3230215, -126631.9, -126631.9, 0.0, 9.994939, 10.001534 
2.6557392e+3, 1.2682411e+2, -1139171.5, -1701870.6, 27492.688, 0.024047237, -0.22094664, -1137831.5, 559267.4, 0.06546169, 10.005459, 9.997457 
2.6556745e+3, 1.3682058e+2, -1016303.44, -1610339.5, 10717.532, 0.07865153, -0.29340157, -1016110.1, 583020.94, 0.04133292, 10.005575, 9.99736 
2.6556084e+3, 1.4681795e+2, -963781.06, -1482267.9, -7832.991, 0.047095876, -0.29802564, -963662.75, 537493.5, 0.019989276, 10.004911, 9.997884 
2.6555422e+3, 1.5681584e+2, -1019563.7, -1475277.0, 5927.0483, 0.021582885, -0.27569106, -1019486.6, 383690.25, 0.006358025, 10.003854, 9.997768 
2.6554766e+3, 1.6681354e+2, -973130.3, -1372259.8, 30659.203, 0.019135805, -0.27092418, -970789.0, 334410.94, 0.0010277816, 10.003356, 9.99804 
2.6554114e+3, 1.7681132e+2, -907927.25, -1292326.9, 17284.508, 0.01662128, -0.27511516, -907151.6, 300070.97, 0.000045503482, 10.003136, 9.998025 
2.655346e+3, 1.8680958e+2, -850445.5, -1134264.9, 26598.51, 0.004476647, -0.26607978, -847974.3, 261265.28, 0.000000014947995, 10.002517, 9.998733 
2.655281e+3, 1.9680825e+2, -878934.4, -1103503.0, 30121.932, -0.010803944, -0.25330156, -874964.25, 136288.28, 0.0, 10.001672, 9.99868 
2.6552168e+3, 2.0680682e+2, -809447.7, -961033.3, 48633.445, 0.0076222243, -0.26719657, -795186.3, 118078.95, 0.0, 10.001227, 9.999199 
2.655153e+3, 2.168055e+2, -757530.25, -898851.3, 48662.14, 0.03775037, -0.29679266, -742395.0, 72881.67, 0.0, 10.000968, 9.99908 
2.655088e+3, 2.2680435e+2, -716619.7, -805096.1, 56775.625, 0.0030729137, -0.30463597, -688882.25, 28404.84, 0.0, 10.000478, 9.999285 
2.6550233e+3, 2.3680343e+2, -720636.56, -769039.6, 73534.125, -0.0581786, -0.3035463, -667423.75, -48127.79, 0.0, 9.999828, 9.999173 
2.6549593e+3, 2.4680223e+2, -655133.4, -658313.1, 66652.11, -0.03408586, -0.32889676, -590052.2, -68743.64, 0.0, 9.999484, 9.999425 
2.6548955e+3, 2.5680107e+2, -588348.6, -573997.2, 46586.016, 0.015151635, -0.36608323, -534037.5, -110716.09, 0.0, 9.999262, 9.99944 
2.6548302e+3, 2.6680157e+2, -575698.25, -425170.28, 22990.576, -0.026392277, -0.28137904, -421737.16, -96419.4, 0.0, 9.99828, 10.000261 
2.6547647e+3, 2.7680302e+2, -680471.6, -431862.72, 43508.74, -0.075306915, -0.1431352, -424468.25, -197163.16, 0.0, 9.996915, 10.000203 
2.654701e+3, 2.8680256e+2, -634611.9, -301721.9, 40679.164, 0.00948163, -0.21231876, -296823.03, -167513.95, 0.0, 9.996312, 10.000712 
2.6546362e+3, 2.9680142e+2, -575879.75, -223927.55, 19409.531, 0.039994363, -0.37504873, -222860.38, -191541.6, 0.0, 9.996045, 10.000706 
2.6545677e+3, 3.068028e+2, -570613.06, -80985.13, -43698.402, -0.2730689, -0.3463301, -77115.71, -77115.71, 0.0, 9.995245, 10.0017395 
2.654505e+3, 3.1680566e+2, -559550.75, 1216.4493, 111032.46, 0.06254854, -0.20149836, 22400.705, 22400.705, 0.0, 9.994998, 10.002419 
2.6657444e+3, 1.2689026e+2, -1079975.9, -1672928.3, 29759.76, -0.006755359, -0.2046425, -1078486.0, 617965.75, 0.05550073, 10.005828, 9.997489 
2.66568e+3, 1.3688669e+2, -1107491.8, -1651043.1, 25709.004, 0.09978675, -0.2852053, -1106278.5, 492206.28, 0.034632523, 10.004866, 9.997423 
2.6656133e+3, 1.4688422e+2, -1038488.9, -1505771.4, -658.0506, 0.08280634, -0.281057, -1038487.94, 462020.66, 0.016415153, 10.004322, 9.998001 
2.6655462e+3, 1.5688239e+2, -988011.25, -1446612.8, -2447.5898, 0.05491742, -0.24126813, -987998.2, 414528.6, 0.00505174, 10.004012, 9.997887 
2.6654798e+3, 1.6688016e+2, -960759.5, -1356254.6, 41465.164, 0.024221022, -0.24015184, -956458.9, 348090.22, 0.00078039774, 10.003402, 9.998126 
2.6654136e+3, 1.7687786e+2, -972127.7, -1314335.5, 57769.832, -0.017167544, -0.26012242, -962638.44, 243933.8, 0.000032798478, 10.00266, 9.998101 
2.665348e+3, 1.8687604e+2, -879423.0, -1143435.0, 78355.53, -0.019438328, -0.2637889, -857919.44, 250670.2, 0.0000000057994387, 10.002302, 9.998771 
2.665283e+3, 1.9687463e+2, -810531.75, -1067650.8, 81773.82, 0.001932665, -0.25834256, -786728.2, 223874.42, 0.0, 10.002134, 9.998701 
2.665218e+3, 2.0687322e+2, -757434.6, -947728.0, 94733.516, 0.022221493, -0.264149, -718315.4, 194299.89, 0.0, 10.00164, 9.999088 
2.6651537e+3, 2.1687193e+2, -759891.4, -905976.7, 82835.75, 0.04163943, -0.27945715, -722494.0, 92132.766, 0.0, 10.000981, 9.999022 
2.6650885e+3, 2.2687085e+2, -722043.94, -789579.7, 70155.82, -0.00254594, -0.28807217, -677952.25, 38684.43, 0.0, 10.000365, 9.999443 
2.6650226e+3, 2.3686999e+2, -721178.44, -754608.56, 69651.95, -0.07071648, -0.2942679, -666264.0, -47619.48, 0.0, 9.999766, 9.999301 
2.6649582e+3, 2.4686885e+2, -709623.94, -689903.7, 83448.25, -0.051256794, -0.31693313, -615735.06, -95078.37, 0.0, 9.999136, 9.999374 
2.6648942e+3, 2.5686768e+2, -705127.0, -632876.7, 91108.35, 0.0037972745, -0.3492729, -570992.9, -148323.11, 0.0, 9.998473, 9.999414 
2.6648283e+3, 2.6686805e+2, -591074.3, -426284.38, 49521.48, -0.021389978, -0.28086075, -412547.63, -87880.79, 0.0, 9.998151, 10.000314 
2.664762e+3, 2.768693e+2, -534364.44, -361953.06, 43979.555, -0.050710294, -0.16640303, -351382.63, -124727.74, 0.0, 9.997925, 10.000194 
2.6646972e+3, 2.8686866e+2, -544322.06, -293642.44, 43139.69, 0.00022173366, -0.23272334, -286426.22, -157765.73, 0.0, 9.997087, 10.000393 
2.6646316e+3, 2.968673e+2, -609843.6, -273620.53, 34007.164, -0.013807334, -0.38614184, -270215.38, -239542.4, 0.0, 9.995958, 10.000405 
2.6645634e+3, 3.068681e+2, -515173.9, -90572.23, -27696.578, -0.22299604, -0.38205525, -88773.22, -88773.22, 0.0, 9.995789, 10.001409 
2.6645e+3, 3.1687117e+2, -489146.38, 44306.0, 135312.95, 0.019444538, -0.19287185, 76665.84, 76665.84, 0.0, 9.995448, 10.002495 
2.67575e+3, 1.2695634e+2, -1062333.8, -1636133.9, -3137.9417, -0.009496409, -0.21831995, -1062316.6, 633488.8, 0.04652174, 10.00578, 9.997771 
2.675684e+3, 1.3695355e+2, -1095315.0, -1624066.4, -1475.4185, 0.073577665, -0.24811843, -1095310.9, 502519.8, 0.02867458, 10.004834, 9.997623 
2.675617e+3, 1.4695117e+2, -1046927.5, -1522196.8, -9549.738, 0.076068446, -0.23828465, -1046735.7, 453118.78, 0.013310729, 10.004298, 9.997903 
2.6755503e+3, 1.5694912e+2, -995133.75, -1450646.6, -13340.634, 0.089776084, -0.21346137, -994743.4, 407132.88, 0.0039619626, 10.003959, 9.997888 
2.6754832e+3, 1.6694704e+2, -932804.9, -1293377.4, 15641.59, 0.038292017, -0.22370696, -932127.6, 371768.63, 0.0005869594, 10.003377, 9.99857 
2.675416e+3, 1.7694508e+2, -944918.56, -1259394.1, 35077.49, -0.05474871, -0.25285405, -941053.44, 264860.7, 0.000023679344, 10.002663, 9.998478 
2.67535e+3, 1.869432e+2, -875750.25, -1137401.6, 73344.4, -0.018916117, -0.28082883, -856593.4, 251337.55, 0.000000001728097, 10.002304, 9.998813 
2.6752856e+3, 1.9694151e+2, -815740.7, -1073392.8, 73317.47, 0.07961129, -0.30685946, -796338.56, 213607.38, 0.0, 10.00211, 9.998676 
2.67522e+3, 2.0694007e+2, -776883.3, -986487.94, 70577.91, 0.052351493, -0.30103242, -755333.9, 156625.8, 0.0, 10.001631, 9.998828 
2.6751536e+3, 2.1693884e+2, -776590.2, -939448.56, 59593.344, -0.037466876, -0.2831842, -757113.06, 56858.73, 0.0, 10.000973, 9.998797 
2.675088e+3, 2.269377e+2, -729211.0, -804753.44, 48080.316, -0.041059203, -0.28261906, -705839.9, 10143.419, 0.0, 10.000363, 9.999341 
2.675023e+3, 2.3693673e+2, -722496.1, -756844.2, 46925.27, -0.0022617679, -0.29128385, -689700.9, -71707.6, 0.0, 9.999761, 9.9992895 
2.6749572e+3, 2.4693641e+2, -684167.4, -636893.94, 58065.176, -0.025678208, -0.25180262, -597838.9, -77841.72, 0.0, 9.999133, 9.999741 
2.6748914e+3, 2.5693652e+2, -686567.44, -596832.1, 69545.75, -0.08715636, -0.19165729, -558936.75, -136939.67, 0.0, 9.998482, 9.99966 
2.6748258e+3, 2.6693553e+2, -613498.3, -474275.53, 41865.574, -0.07491784, -0.25075018, -462655.94, -138649.94, 0.0, 9.998154, 9.999985 
2.6747605e+3, 2.7693412e+2, -551349.44, -405423.03, 28993.152, -0.0044100583, -0.36762893, -399873.63, -173855.55, 0.0, 9.997956, 9.999883 
2.6746944e+3, 2.8693432e+2, -551529.06, -313894.88, -2992.375, 0.020831726, -0.32791138, -313857.22, -185841.0, 0.0, 9.997107, 10.000246 
2.674627e+3, 2.9693556e+2, -624894.25, -305400.3, 909.10205, -0.053373247, -0.20774963, -305397.72, -275392.2, 0.0, 9.995957, 10.00019 
2.67456e+3, 3.0693525e+2, -556924.5, -185122.23, -17991.059, -0.13966103, -0.2678467, -184253.7, -184253.7, 0.0, 9.995817, 10.000748 
2.6744947e+3, 3.16935e+2, -561685.2, -106158.16, -39220.023, -0.01441967, -0.33449277, -102806.055, -102806.055, 0.0, 9.995442, 10.001466 
2.6857555e+3, 1.2702334e+2, -1061558.9, -1626489.8, 34007.73, 0.009469284, -0.25111166, -1059519.0, 635629.56, 0.038470972, 10.005683, 9.9978895 
2.6856887e+3, 1.370212e+2, -1082982.1, -1601654.4, 27642.959, 0.054083843, -0.2293407, -1081513.0, 515655.53, 0.023398835, 10.004826, 9.997782 
2.6856208e+3, 1.4701898e+2, -1073239.3, -1512140.9, 42145.65, 0.053768948, -0.2202102, -1069228.8, 429961.88, 0.0106240995, 10.004009, 9.998109 
2.6855537e+3, 1.5701684e+2, -1086381.5, -1473379.9, 58598.754, 0.08231303, -0.22088477, -1077703.1, 323509.53, 0.0030553308, 10.003238, 9.9980755 
2.685486e+3, 1.6701493e+2, -994595.56, -1312945.0, 84806.555, 0.05562708, -0.22653733, -973413.0, 329818.22, 0.00043506903, 10.002912, 9.998658 
2.6854187e+3, 1.7701323e+2, -919954.2, -1239689.0, 80978.9, -0.0073783593, -0.2362456, -900614.56, 304632.25, 0.000016890075, 10.002806, 9.998542 
2.6853526e+3, 1.8701129e+2, -865405.8, -1144326.3, 103968.836, 0.01073222, -0.26666695, -830915.9, 276348.53, 0.0000000002885943, 10.002432, 9.998701 
2.6852873e+3, 1.9700934e+2, -846977.25, -1095557.1, 90775.41, 0.07082962, -0.3067327, -817357.6, 191924.17, 0.0, 10.001929, 9.998609 
2.6852208e+3, 2.0700796e+2, -801246.75, -984716.7, 96566.48, 0.028284311, -0.29755056, -759788.7, 151506.16, 0.0, 10.00141, 9.998944 
2.685154e+3, 2.1700697e+2, -786321.44, -937109.94, 111747.28, -0.061910894, -0.26718357, -726913.06, 86391.66, 0.0, 10.000881, 9.998856 
2.6850882e+3, 2.2700569e+2, -750809.2, -839048.9, 102713.68, -0.049802225, -0.2683158, -683140.56, 32177.56, 0.0, 10.000321, 9.999125 
2.6850227e+3, 2.3700443e+2, -735593.1, -774457.06, 93115.63, 0.017125132, -0.28489736, -659903.5, -42571.754, 0.0, 9.999723, 9.999185 
2.6849562e+3, 2.470043e+2, -658746.4, -591845.75, 97846.32, -0.010759706, -0.2387384, -521889.94, -2556.7673, 0.0, 9.999171, 10.00003 
2.6848897e+3, 2.5700483e+2, -652648.2, -556443.7, 105470.93, -0.08980628, -0.165835, -488623.8, -67295.79, 0.0, 9.998616, 9.999869 
2.6848236e+3, 2.6700363e+2, -608058.8, -484345.25, 97291.96, -0.08495648, -0.24296623, -430911.16, -107572.83, 0.0, 9.998249, 9.999867 
2.684758e+3, 2.7700174e+2, -563955.4, -422730.06, 94874.82, -0.011530439, -0.39557043, -375074.47, -149719.19, 0.0, 9.997921, 9.999779 
2.6846913e+3, 2.870021e+2, -525833.1, -304383.7, 51781.473, 0.0034183096, -0.3382718, -292873.84, -165521.33, 0.0, 9.997301, 10.000215 
2.6846227e+3, 2.970037e+2, -555650.94, -283613.4, 70784.336, -0.07778157, -0.17335427, -266297.47, -236959.42, 0.0, 9.99649, 10.000078 
2.6845565e+3, 3.070032e+2, -528652.25, -217347.55, 101833.664, -0.06372035, -0.21797942, -186995.19, -186995.19, 0.0, 9.996216, 10.000331 
2.6844895e+3, 3.1700185e+2, -476904.5, -88434.836, -69060.35, -0.067446746, -0.3543525, -76522.87, -76522.87, 0.0, 9.996131, 10.001251 
2.6957613e+3, 1.2709114e+2, -1060942.3, -1624767.9, 4172.1826, 0.031875163, -0.2941636, -1060911.4, 633571.4, 0.03128744, 10.005648, 9.9979105 
2.695693e+3, 1.370895e+2, -1085929.0, -1592829.5, -267.38577, 0.03548621, -0.22249384, -1085928.9, 510570.28, 0.018750457, 10.004737, 9.997886 
2.6956242e+3, 1.4708753e+2, -1047091.75, -1451575.0, 13567.066, 0.015672976, -0.2225472, -1046637.25, 451881.2, 0.008310092, 10.00397, 9.9985485 
2.6955563e+3, 1.5708546e+2, -1062333.8, -1427163.5, 34538.35, 0.033658568, -0.25869516, -1059092.9, 341445.22, 0.0023040082, 10.003249, 9.998389 
2.695489e+3, 1.6708374e+2, -1006363.4, -1342306.0, 81045.08, 0.07409821, -0.24506071, -987833.56, 314721.97, 0.00031532926, 10.00293, 9.998449 
2.6954225e+3, 1.7708227e+2, -938278.5, -1275618.9, 74284.91, 0.10981903, -0.21001497, -922644.9, 281925.97, 0.000011633443, 10.002793, 9.998302 
2.6953554e+3, 1.8708023e+2, -886028.3, -1186788.4, 85305.914, 0.06050939, -0.22470622, -863517.5, 243073.13, 0.000000000007316074, 10.002428, 9.998412 
2.695288e+3, 1.9707803e+2, -855837.25, -1113674.1, 72413.28, -0.023928601, -0.2631553, -836892.1, 171718.92, 0.0, 10.001925, 9.9984865 
2.6952213e+3, 2.0707686e+2, -768318.8, -916004.2, 77154.68, -0.04513983, -0.25763056, -735364.56, 175256.83, 0.0, 10.001405, 9.99942 
2.695155e+3, 2.1707624e+2, -769426.2, -895679.94, 92061.445, -0.04036138, -0.23412143, -720927.3, 91698.97, 0.0, 10.00085, 9.999156 
2.6950884e+3, 2.2707479e+2, -776761.5, -891182.06, 81133.086, -0.03365274, -0.24573334, -734696.44, -20054.873, 0.0, 10.000313, 9.998771 
2.6950216e+3, 2.3707306e+2, -750385.94, -807329.56, 71303.22, -0.022858055, -0.27344275, -702080.2, -85420.03, 0.0, 9.99973, 9.998957 
2.6949555e+3, 2.4707244e+2, -643506.56, -561553.75, 75901.25, -0.007337544, -0.2802755, -516274.38, 2390.9397, 0.0, 9.999174, 10.000237 
2.694889e+3, 2.5707245e+2, -638828.75, -530404.56, 86575.24, -0.004292788, -0.27736586, -482468.6, -61805.32, 0.0, 9.998625, 10.000046 
2.694822e+3, 2.670724e+2, -600424.2, -469170.88, 85863.16, -0.052170828, -0.25460595, -426726.53, -104062.98, 0.0, 9.998251, 9.999972 
2.694755e+3, 2.7707243e+2, -553786.5, -405165.63, 80850.516, -0.093280226, -0.22621578, -369663.28, -144999.23, 0.0, 9.997933, 9.999895 
2.6946875e+3, 2.8707194e+2, -519155.3, -293805.7, 22131.686, -0.0570262, -0.2587432, -291652.72, -164984.28, 0.0, 9.997311, 10.000285 
2.694619e+3, 2.970714e+2, -551049.44, -281785.4, 47015.74, -0.07276586, -0.31349438, -273812.2, -245139.39, 0.0, 9.996518, 10.000079 
2.6945528e+3, 3.070721e+2, -535431.7, -240175.31, 105141.1, -0.03153118, -0.2319239, -206561.31, -206561.31, 0.0, 9.996251, 10.000157 
2.6944843e+3, 3.17072e+2, -412515.16, 27751.645, -215995.94, -0.17165233, -0.23774599, 116022.13, 116022.13, 0.0, 9.996182, 10.002039 
2.705767e+3, 1.2716077e+2, -1062145.8, -1653268.5, 25524.639, 0.03147441, -0.27228743, -1061045.6, 632754.6, 0.02491928, 10.005721, 9.997674 
2.705697e+3, 1.3715869e+2, -1226872.9, -1676695.8, 15867.06, 0.046210904, -0.22132479, -1226313.9, 369508.2, 0.014685768, 10.0037985, 9.997761 
2.7056277e+3, 1.471566e+2, -1122978.4, -1468006.3, 52192.805, 0.024185536, -0.23689747, -1115255.9, 382585.9, 0.006333513, 10.003355, 9.998727 
2.7055594e+3, 1.5715459e+2, -1005781.25, -1388871.4, 54466.36, 0.03564556, -0.28514335, -998187.94, 401671.75, 0.0016866758, 10.003591, 9.998486 
2.705492e+3, 1.6715294e+2, -966205.06, -1348817.4, 90382.555, 0.06744134, -0.2524146, -945928.94, 355948.03, 0.00022097027, 10.003317, 9.998218 
2.7054247e+3, 1.7715156e+2, -946185.0, -1296383.8, 81470.3, 0.09699018, -0.18569583, -928159.5, 275733.38, 0.000007542903, 10.002814, 9.998148 
2.7053574e+3, 1.8714954e+2, -882165.7, -1171799.5, 108678.12, 0.052411538, -0.19940339, -845922.2, 259990.5, 0.0, 10.002401, 9.998528 
2.70529e+3, 1.9714732e+2, -837422.44, -1095805.5, 119394.57, -0.021077933, -0.24926503, -790700.56, 217232.34, 0.0, 10.002017, 9.998564 
2.7052227e+3, 2.071461e+2, -797638.44, -944159.25, 93354.08, -0.03481632, -0.24459961, -752230.94, 157713.42, 0.0, 10.0012665, 9.999291 
2.7051556e+3, 2.171454e+2, -842677.4, -935275.7, 69330.805, -0.019470563, -0.21667074, -805607.7, 6343.104, 0.0, 10.000369, 9.999113 
2.7050886e+3, 2.2714406e+2, -785941.2, -867371.1, 90435.555, -0.021776546, -0.22817995, -727478.06, -13514.158, 0.0, 10.000132, 9.99902 
2.7050215e+3, 2.3714253e+2, -676213.5, -755112.4, 120013.29, -0.024773678, -0.259728, -589332.2, 26646.928, 0.0, 10.000173, 9.9991 
2.7049544e+3, 2.4714163e+2, -595949.8, -567221.06, 100612.67, -0.0054942663, -0.28447616, -479952.56, 38034.44, 0.0, 9.999627, 9.999979 
2.7048877e+3, 2.5714114e+2, -628028.8, -543786.4, 78533.47, 0.015506129, -0.30670932, -496791.34, -76801.0, 0.0, 9.998782, 9.999875 
2.70482e+3, 2.6714143e+2, -615796.75, -462228.4, 74777.34, -0.04258171, -0.25326508, -431833.0, -109845.0, 0.0, 9.998089, 10.000095 
2.704752e+3, 2.771421e+2, -615568.9, -418970.97, 71204.23, -0.104431294, -0.16916586, -395891.47, -171909.2, 0.0, 9.997448, 10.0000305 
2.7046844e+3, 2.8714144e+2, -502911.1, -265663.25, 21873.104, -0.08924631, -0.2351971, -263663.53, -137675.73, 0.0, 9.997339, 10.000463 
2.7046153e+3, 2.9714036e+2, -412101.7, -195894.42, 52465.68, -0.11786017, -0.36605015, -183835.48, -155838.58, 0.0, 9.997393, 10.000246 
2.7045494e+3, 3.071415e+2, -487273.22, -190996.36, 127883.5, 0.016205002, -0.25400487, -143433.02, -143433.02, 0.0, 9.996474, 10.000385 
2.70448e+3, 3.1714198e+2, -510823.88, 11647.134, -169130.9, -0.16975833, -0.22907169, 61617.758, 61617.758, 0.0, 9.995379, 10.00231 
2.715772e+3, 1.272318e+2, -1111987.3, -1720213.3, -49782.156, 0.0050993985, -0.20285983, -1107939.6, 585165.3, 0.019340336, 10.005533, 9.997294 
2.715701e+3, 1.3722862e+2, -1238462.4, -1718286.8, -35444.047, 0.07177653, -0.22627817, -1235858.3, 359280.16, 0.011177259, 10.00386, 9.997446 
2.7156314e+3, 1.4722618e+2, -1113306.9, -1469193.1, 62788.766, 0.06569776, -0.2604001, -1102554.0, 394606.94, 0.004670326, 10.003436, 9.998682 
2.7155632e+3, 1.572242e+2, -1014233.44, -1404922.9, 57824.293, 0.0744599, -0.30149496, -1005854.8, 393322.8, 0.0011884103, 10.003579, 9.998383 
2.7154946e+3, 1.6722253e+2, -988127.3, -1389812.3, 71792.45, 0.03498759, -0.25041068, -975681.56, 325513.9, 0.00014779682, 10.003296, 9.997947 
2.7154264e+3, 1.7722112e+2, -954285.25, -1311403.1, 65314.383, -0.03383394, -0.16315119, -942714.6, 260498.14, 0.0000045032148, 10.002805, 9.998052 
2.715359e+3, 1.872192e+2, -850347.5, -1103836.8, 96035.26, -0.0049392823, -0.18983872, -818073.3, 287157.4, 0.0, 10.00239, 9.999001 
2.715293e+3, 1.9721718e+2, -827858.7, -1067878.8, 101018.88, 0.06543098, -0.2653601, -791001.8, 216246.22, 0.0, 10.001979, 9.9987755 
2.7152246e+3, 2.0721564e+2, -849397.4, -1049718.9, 59029.465, 0.047651164, -0.25612956, -833297.0, 75967.01, 0.0, 10.001257, 9.998571 
2.7151558e+3, 2.1721445e+2, -868034.0, -989569.2, 44202.047, -0.010266925, -0.21019368, -853658.25, -42380.41, 0.0, 10.000374, 9.998739 
2.7150887e+3, 2.2721356e+2, -725267.0, -744152.25, 93182.68, -0.014986203, -0.2142615, -641049.75, 72235.24, 0.0, 10.00014, 9.999864 
2.7150217e+3, 2.3721287e+2, -642472.3, -684648.3, 115259.88, 0.004517744, -0.24330074, -546387.2, 68901.56, 0.0, 10.000167, 9.999588 
2.7149537e+3, 2.4721187e+2, -649511.25, -678000.1, 69190.016, -0.009333447, -0.25051188, -593114.6, -75816.21, 0.0, 9.999624, 9.99922 
2.7148855e+3, 2.572109e+2, -663395.25, -622208.7, 47963.152, -0.047141116, -0.2459479, -590604.75, -171295.73, 0.0, 9.998801, 9.99933 
2.7148175e+3, 2.6721057e+2, -605891.06, -442830.63, 47906.645, -0.05743337, -0.24064443, -429797.53, -108484.984, 0.0, 9.998089, 10.00023 
2.7147502e+3, 2.7721056e+2, -604297.6, -395343.75, 51416.563, -0.035696182, -0.23931357, -383377.2, -160065.0, 0.0, 9.997443, 10.000196 
2.7146813e+3, 2.8721052e+2, -481852.47, -223463.78, 25523.684, -0.09891686, -0.27085164, -220966.67, -95654.99, 0.0, 9.997343, 10.000752 
2.714611e+3, 2.9721066e+2, -378191.53, -135620.84, 44903.598, -0.25634727, -0.30508828, -127575.34, -100266.7, 0.0, 9.997434, 10.000643 
2.7145466e+3, 3.0721134e+2, -431237.97, -77694.445, 74036.47, 0.12853204, -0.3032123, -62816.387, -62816.387, 0.0, 9.99648, 10.001164 
2.7144757e+3, 3.1721252e+2, -557114.9, -73101.66, -21477.865, -0.1064942, -0.26982307, -72150.46, -72150.46, 0.0, 9.995344, 10.001737 
2.7257764e+3, 1.2730272e+2, -1319265.5, -1796393.4, -28431.809, 0.009119977, -0.18389764, -1317577.3, 374833.56, 0.014542966, 10.003945, 9.997541 
2.7257052e+3, 1.3729955e+2, -1077075.6, -1629319.6, 18168.666, 0.08497308, -0.22782761, -1076478.5, 517964.44, 0.00821102, 10.004925, 9.997542 
2.7256352e+3, 1.4729694e+2, -1002073.8, -1472278.1, 100827.195, 0.07801216, -0.25111663, -981365.25, 515102.56, 0.003305692, 10.004447, 9.998171 
2.7255663e+3, 1.5729468e+2, -1066534.8, -1468206.9, 69009.58, 0.083327554, -0.26833463, -1055009.3, 343479.22, 0.00079891447, 10.0033865, 9.998038 
2.7254975e+3, 1.6729273e+2, -1025598.7, -1385360.9, 100692.76, 0.032417174, -0.24366044, -999333.6, 301174.75, 0.00009313198, 10.002947, 9.998143 
2.7254283e+3, 1.7729105e+2, -949581.25, -1291311.8, 120337.61, -0.050023463, -0.20112565, -911458.25, 291068.44, 0.0000024128854, 10.002765, 9.998207 
2.7253607e+3, 1.8728936e+2, -894330.94, -1127663.9, 126447.62, -0.025233878, -0.20913285, -838950.75, 265592.34, 0.0, 10.002103, 9.998973 
2.725294e+3, 1.9728774e+2, -932489.56, -1119480.1, 100899.375, 0.050091542, -0.24078818, -888427.4, 118130.29, 0.0, 10.001269, 9.99876 
2.7252257e+3, 2.072862e+2, -860004.44, -1055257.3, 93893.0, 0.04892288, -0.22994857, -822180.44, 86393.22, 0.0, 10.00119, 9.998565 
2.7251568e+3, 2.1728481e+2, -720505.1, -920569.06, 124749.41, 0.013371468, -0.20152442, -660634.6, 149954.48, 0.0, 10.001399, 9.998718 
2.725089e+3, 2.2728375e+2, -651950.6, -716970.3, 134474.33, 0.001955892, -0.21494968, -546112.25, 166485.53, 0.0, 10.000683, 9.999787 
2.7250215e+3, 2.3728295e+2, -732704.6, -732492.75, 92861.914, 0.008248359, -0.24807836, -639736.75, -25134.027, 0.0, 9.999571, 9.999544 
2.724953e+3, 2.4728207e+2, -701481.06, -702453.25, 71763.96, -0.007855355, -0.24099752, -630201.56, -113590.4, 0.0, 9.999269, 9.999221 
2.7248845e+3, 2.572813e+2, -597802.8, -591533.44, 102114.445, -0.040824898, -0.21643202, -492505.6, -73885.52, 0.0, 9.999262, 9.999315 
2.724816e+3, 2.6728058e+2, -523417.2, -407278.53, 97491.12, -0.05893859, -0.2442796, -351872.9, -31246.0, 0.0, 9.998679, 10.000188 
2.7247477e+3, 2.7727997e+2, -553988.25, -371085.6, 90597.3, -0.040660143, -0.30079204, -333807.7, -111175.48, 0.0, 9.997792, 10.000193 
2.7246782e+3, 2.872805e+2, -529527.9, -233978.67, 63766.375, -0.09333194, -0.2802966, -220807.69, -96181.31, 0.0, 9.996969, 10.000856 
2.724608e+3, 2.972817e+2, -547891.5, -197189.98, 66564.09, -0.24425559, -0.2164568, -184980.97, -158367.6, 0.0, 9.99619, 10.000814 
2.7245423e+3, 3.0728155e+2, -415504.9, -23885.648, 65615.52, 0.06350337, -0.331198, -13184.241, -13184.241, 0.0, 9.996396, 10.001571 
2.724471e+3, 3.1728327e+2, -377103.28, -40807.617, -17747.348, -0.1402587, -0.27495968, -39873.63, -39873.63, 0.0, 9.996825, 10.00124 
2.7357802e+3, 1.2737365e+2, -1271822.6, -1690766.1, 4063.736, 0.025282087, -0.1993932, -1271783.3, 419933.25, 0.010521888, 10.003913, 9.998277 
2.7357098e+3, 1.3737133e+2, -1060923.3, -1582266.9, 32830.96, 0.082396664, -0.22714025, -1058864.0, 534873.4, 0.0057777287, 10.004855, 9.997899 
2.7356395e+3, 1.4736865e+2, -1068804.6, -1605027.1, 56208.973, 0.064391546, -0.21675524, -1062976.0, 432788.5, 0.0022274116, 10.004414, 9.997277 
2.7355695e+3, 1.5736592e+2, -1103734.6, -1547287.3, 37180.85, 0.062368292, -0.19592607, -1100639.5, 297153.56, 0.0005081635, 10.003391, 9.997496 
2.7355006e+3, 1.6736351e+2, -984444.06, -1301889.8, 95268.4, 0.053366523, -0.23398355, -958048.0, 341768.03, 0.00005459018, 10.002954, 9.998714 
2.7354318e+3, 1.7736135e+2, -930453.94, -1245559.0, 106558.76, 0.027324924, -0.29187542, -897802.5, 304032.78, 0.0000011019603, 10.002736, 9.998535 
2.7353626e+3, 1.8735997e+2, -930274.6, -1199568.4, 93246.58, -0.018090554, -0.25180462, -901139.0, 202710.95, 0.0, 10.00209, 9.998486 
2.7352938e+3, 1.97359e+2, -947686.44, -1151805.4, 78483.83, -0.06440264, -0.1748396, -920998.7, 84863.125, 0.0, 10.001271, 9.998539 
2.735226e+3, 2.0735773e+2, -813638.1, -960912.5, 103440.6, -0.023740483, -0.16914661, -760301.3, 147572.6, 0.0, 10.001196, 9.99921 
2.7351582e+3, 2.1735638e+2, -705908.7, -883777.9, 122426.25, 0.044744756, -0.19512372, -643523.94, 166361.64, 0.0, 10.001369, 9.998987 
2.7350897e+3, 2.273546e+2, -723313.25, -862451.8, 92198.0, 0.024985109, -0.23191445, -677382.06, 34520.88, 0.0, 10.0006695, 9.998795 
2.7350205e+3, 2.3735279e+2, -771592.1, -815169.4, 60127.76, -0.024827009, -0.2702902, -729426.94, -115505.914, 0.0, 9.9995775, 9.998975 
2.7349523e+3, 2.4735226e+2, -645497.44, -588728.0, 71927.28, -0.0018488916, -0.25494826, -539787.25, -23862.006, 0.0, 9.999277, 10.0 
2.7348843e+3, 2.5735235e+2, -558100.25, -513659.03, 95938.0, 0.031976763, -0.21880268, -437401.94, -19478.78, 0.0, 9.999279, 9.999844 
2.7348146e+3, 2.673515e+2, -540308.44, -443680.4, 65459.043, -0.052321203, -0.26605555, -410636.38, -90705.44, 0.0, 9.998684, 9.999936 
2.7347443e+3, 2.7735037e+2, -564900.8, -398805.38, 58498.67, -0.14449358, -0.34690097, -380270.5, -158329.13, 0.0, 9.997811, 9.999994 
2.7346754e+3, 2.873514e+2, -539500.56, -253927.7, 31074.516, -0.06385616, -0.2594821, -250585.45, -126653.914, 0.0, 9.996961, 10.000727 
2.7346057e+3, 2.9735342e+2, -561128.6, -216032.66, 47273.723, -0.0378699, -0.10269108, -209673.92, -183761.9, 0.0, 9.99615, 10.000706 
2.734535e+3, 3.073521e+2, -424381.56, -39705.418, 89583.91, -0.28401726, -0.32894996, -19866.184, -19866.184, 0.0, 9.996385, 10.001468 
2.7344686e+3, 3.173536e+2, -390328.25, -107159.26, -127232.55, -0.062083896, -0.26952854, -58390.684, -58390.684, 0.0, 9.996959, 10.000738 
2.745784e+3, 1.2744403e+2, -1295316.3, -1676289.8, 14367.521, 0.04061437, -0.23050739, -1294775.3, 396251.1, 0.0072620837, 10.003623, 9.99852 
2.7457142e+3, 1.3744208e+2, -1157298.1, -1604850.8, -2.351881, 0.08051269, -0.24585316, -1157298.1, 435745.03, 0.0038601784, 10.00408, 9.998117 
2.745643e+3, 1.4743975e+2, -1126243.5, -1621906.6, 18931.186, 0.05045451, -0.2167744, -1125521.5, 369546.16, 0.001416466, 10.003977, 9.99737 
2.7455726e+3, 1.574373e+2, -1059239.3, -1515651.5, 59685.168, 0.04348555, -0.17464893, -1051563.4, 345531.1, 0.00030295522, 10.003656, 9.997583 
2.7455032e+3, 1.6743498e+2, -974715.1, -1293613.6, 114703.37, 0.0503377, -0.20725052, -937744.1, 361372.44, 0.000029338584, 10.003006, 9.998745 
2.7454343e+3, 1.7743284e+2, -1001152.3, -1277167.9, 91861.625, 0.050602913, -0.26896927, -973374.94, 227760.63, 0.00000039166414, 10.002243, 9.998554 
2.7453646e+3, 1.8743129e+2, -957078.4, -1220265.9, 88575.02, -0.0008115222, -0.24097016, -930045.4, 173106.4, 0.0, 10.001943, 9.998413 
2.745295e+3, 1.9743013e+2, -868462.4, -1112624.0, 102136.125, -0.06603547, -0.1740182, -831371.9, 173793.63, 0.0, 10.001815, 9.998546 
2.7452266e+3, 2.0742892e+2, -783968.1, -919535.3, 120962.74, -0.03355133, -0.176642, -713091.75, 194084.56, 0.0, 10.001287, 9.999449 
2.745159e+3, 2.1742772e+2, -803998.1, -912925.5, 109707.87, 0.038688954, -0.21230088, -735978.75, 73206.87, 0.0, 10.000622, 9.999145 
2.7450898e+3, 2.2742605e+2, -768931.0, -902389.7, 106116.055, 0.024699427, -0.23282634, -710307.1, 895.4681, 0.0, 10.000437, 9.9986315 
2.7450204e+3, 2.3742431e+2, -656871.2, -772095.25, 132993.08, -0.01605276, -0.24559164, -569547.7, 43673.727, 0.0, 10.000422, 9.998862 
2.7449515e+3, 2.4742372e+2, -570859.2, -546994.0, 124696.5, 0.0016881468, -0.23562562, -433660.47, 81566.17, 0.0, 9.999769, 10.000048 
2.744883e+3, 2.5742364e+2, -619580.0, -539954.5, 94725.46, 0.029229457, -0.21877028, -477015.28, -59789.668, 0.0, 9.998846, 9.99987 
2.7448127e+3, 2.6742294e+2, -574596.25, -468365.8, 56550.46, -0.05755188, -0.24831325, -443897.66, -124665.6, 0.0, 9.998489, 9.999857 
2.744742e+3, 2.774221e+2, -501631.6, -381154.84, 59045.777, -0.14413826, -0.2956307, -357042.38, -135802.08, 0.0, 9.998309, 9.999873 
2.7446726e+3, 2.8742272e+2, -420597.06, -226234.31, 23591.096, -0.044324923, -0.22396868, -223411.89, -100177.68, 0.0, 9.997909, 10.000458 
2.7446026e+3, 2.974241e+2, -402204.7, -169401.98, 35339.945, -0.0014197289, -0.10658169, -164155.53, -138934.25, 0.0, 9.997372, 10.000438 
2.7445304e+3, 3.0742252e+2, -420688.5, -71198.34, 75999.67, -0.3392158, -0.32965562, -55386.89, -55386.89, 0.0, 9.996554, 10.001169 
2.7444658e+3, 3.1742463e+2, -550734.9, -134723.1, -129173.69, 0.050121285, -0.18876131, -97877.414, -97877.414, 0.0, 9.99565, 10.001176 
2.7557874e+3, 1.2751408e+2, -1287580.8, -1684668.8, 30280.764, 0.051832236, -0.27360284, -1285284.9, 405053.72, 0.0047290754, 10.003725, 9.99841 
2.7557176e+3, 1.3751218e+2, -1158008.9, -1593575.9, 10576.292, 0.07008883, -0.27634817, -1157752.3, 434604.2, 0.0024218347, 10.00402, 9.998224 
2.7556467e+3, 1.4751045e+2, -1075876.1, -1505063.0, 6702.841, 0.031559087, -0.24122955, -1075771.5, 418603.13, 0.00084080716, 10.003918, 9.998202 
2.7555758e+3, 1.5750888e+2, -1026952.8, -1439836.0, 43074.715, 0.021350304, -0.19353689, -1022506.8, 373885.47, 0.00016702582, 10.003616, 9.998124 
2.7555057e+3, 1.675071e+2, -1006734.1, -1356721.3, 84350.555, 0.025840603, -0.16653983, -987465.56, 310945.1, 0.000014111729, 10.00299, 9.998321 
2.755436e+3, 1.775053e+2, -1019302.4, -1314669.0, 68864.78, 0.02391624, -0.15181, -1004035.7, 196393.05, 0.00000009505926, 10.00224, 9.998299 
2.7553666e+3, 1.8750322e+2, -937639.94, -1180330.8, 85133.945, 0.024085267, -0.18601173, -910754.1, 191694.84, 0.0, 10.001944, 9.998689 
2.7552977e+3, 1.9750115e+2, -859863.0, -1088585.6, 92769.664, 0.026016384, -0.2345651, -826967.0, 177501.69, 0.0, 10.001785, 9.998726 
2.7552283e+3, 2.0749983e+2, -796253.6, -942680.7, 95381.46, 0.010139345, -0.24684264, -749226.4, 157254.16, 0.0, 10.001275, 9.999297 
2.7551585e+3, 2.1749888e+2, -801357.25, -906502.3, 90891.14, -0.0127133215, -0.24487148, -748929.44, 59558.95, 0.0, 10.000615, 9.999193 
2.7550897e+3, 2.2749816e+2, -722795.0, -808557.94, 106698.66, 0.0008177714, -0.21455884, -650683.3, 59813.14, 0.0, 10.0004425, 9.999274 
2.755021e+3, 2.3749754e+2, -636181.1, -728632.8, 124606.414, 0.028199788, -0.17468452, -549502.56, 63001.555, 0.0, 10.000417, 9.999165 
2.754951e+3, 2.474964e+2, -622349.5, -653101.0, 89606.484, -0.0017898525, -0.18573594, -546809.1, -32293.352, 0.0, 9.999764, 9.999322 
2.7548805e+3, 2.574952e+2, -652170.06, -611120.7, 66117.88, -0.06460287, -0.21404701, -562415.06, -145887.36, 0.0, 9.998859, 9.999376 
2.7548108e+3, 2.6749495e+2, -566547.56, -453771.16, 49830.324, -0.0737488, -0.18529424, -434908.53, -116378.31, 0.0, 9.998494, 9.999958 
2.7547413e+3, 2.774951e+2, -499333.97, -383497.22, 49453.47, -0.032001752, -0.13833472, -365256.66, -144728.02, 0.0, 9.998337, 9.9998455 
2.7546704e+3, 2.8749436e+2, -447680.97, -286746.8, 3908.0112, -0.04855146, -0.17794792, -286651.97, -164116.77, 0.0, 9.997927, 10.000033 
2.754598e+3, 2.9749343e+2, -428735.1, -232198.97, 13893.05, -0.18354778, -0.24641638, -231221.73, -206678.34, 0.0, 9.997402, 9.999992 
2.7545303e+3, 3.0749285e+2, -451376.53, -144779.63, 35113.848, 0.0049902247, -0.3195094, -140809.52, -140809.52, 0.0, 9.996589, 10.000652 
2.754459e+3, 3.1749588e+2, -445260.22, 117930.07, -23006.264, -0.14349194, -0.0673869, 118868.31, 118868.31, 0.0, 9.995537, 10.002949 
2.7657917e+3, 1.2758507e+2, -1106799.1, -1613171.1, 33629.547, 0.056663267, -0.264401, -1104575.4, 585068.94, 0.0028624567, 10.005025, 9.998281 
2.765721e+3, 1.3758323e+2, -1234838.8, -1622909.9, 15796.012, 0.034217723, -0.24955763, -1234196.9, 357465.56, 0.0014041578, 10.003453, 9.998297 
2.7656496e+3, 1.4758176e+2, -1172558.5, -1482802.8, 18505.518, 0.008641757, -0.22885463, -1171458.5, 322218.78, 0.00045776708, 10.002956, 9.998817 
2.765579e+3, 1.5758051e+2, -1102535.0, -1427485.0, 37780.71, 0.03438282, -0.20821309, -1098200.3, 297490.3, 0.000083043655, 10.002888, 9.99856 
2.7655083e+3, 1.6757892e+2, -1045999.06, -1384707.6, 82933.03, 0.025322603, -0.17305298, -1026783.0, 270924.16, 0.000005757098, 10.002765, 9.998235 
2.765438e+3, 1.7757729e+2, -965766.5, -1287596.1, 89313.09, -0.0071869446, -0.13451731, -942642.2, 257082.13, 0.00000000965895, 10.00261, 9.998304 
2.7653685e+3, 1.8757525e+2, -914358.44, -1145277.5, 107839.09, 0.01643383, -0.175457, -871830.06, 229913.61, 0.0, 10.002004, 9.9988985 
2.765299e+3, 1.9757317e+2, -926393.8, -1101860.9, 112054.48, 0.06603437, -0.24797277, -871813.0, 131950.16, 0.0, 10.001249, 9.998891 
2.7652293e+3, 2.0757191e+2, -839818.8, -964915.5, 122691.17, 0.039304655, -0.25719792, -764652.2, 141122.11, 0.0, 10.000983, 9.999284 
2.7651593e+3, 2.1757112e+2, -762132.9, -887659.56, 126131.06, -0.017200753, -0.23821265, -684012.25, 123768.88, 0.0, 10.00089, 9.999188 
2.76509e+3, 2.2757046e+2, -725320.94, -805828.6, 112915.414, -0.013080061, -0.20026234, -645698.75, 64090.08, 0.0, 10.000413, 9.999306 
2.7650207e+3, 2.3756991e+2, -724706.44, -767580.5, 88501.76, 0.020458825, -0.15784043, -655082.44, -43286.156, 0.0, 9.999797, 9.999194 
2.7649504e+3, 2.4756882e+2, -628928.4, -660919.5, 76735.37, -0.013510599, -0.16377479, -566539.2, -52731.496, 0.0, 9.9997425, 9.999277 
2.7648798e+3, 2.575676e+2, -514316.22, -551088.5, 99428.336, -0.07994921, -0.1861753, -431588.34, -15768.858, 0.0, 9.99984, 9.999313 
2.7648094e+3, 2.6756725e+2, -478353.2, -426604.78, 78467.305, -0.072693385, -0.1567941, -369855.78, -52032.344, 0.0, 9.999169, 9.999817 
2.7647394e+3, 2.7756724e+2, -529318.25, -412729.66, 63144.9, -0.0073250574, -0.11201508, -385085.03, -165261.05, 0.0, 9.998198, 9.99971 
2.764668e+3, 2.8756627e+2, -475953.1, -315489.72, 32227.695, -0.05085009, -0.16051027, -309259.0, -187426.73, 0.0, 9.997805, 9.999891 
2.764595e+3, 2.9756507e+2, -424107.63, -252532.22, 57017.13, -0.21263273, -0.24502596, -235312.72, -211469.97, 0.0, 9.99754, 9.999782 
2.764528e+3, 3.0756396e+2, -456546.8, -200262.78, 74082.26, 0.12576681, -0.32695553, -180389.4, -180389.4, 0.0, 9.996789, 10.000171 
2.764453e+3, 3.175664e+2, -296036.28, 249766.34, 37452.137, -0.34295332, -0.09906502, 252324.27, 252324.27, 0.0, 9.996313, 10.003475 
2.7757964e+3, 1.2765688e+2, -1129320.0, -1640812.8, -22232.97, 0.047543425, -0.21036609, -1128355.4, 560588.5, 0.0015760622, 10.004941, 9.998127 
2.7757233e+3, 1.376551e+2, -1238865.0, -1622841.5, -21842.303, -0.02882615, -0.17819943, -1237626.5, 353335.47, 0.0007342051, 10.003415, 9.998315 
2.775652e+3, 1.4765358e+2, -1141866.4, -1420725.3, 19696.64, -0.018402014, -0.19116667, -1140482.0, 352494.22, 0.00022181349, 10.002959, 9.999244 
2.7755818e+3, 1.576522e+2, -1077551.0, -1376300.5, 34176.258, 0.07403782, -0.22251028, -1073691.3, 321297.47, 0.00003543484, 10.002889, 9.998912 
2.7755108e+3, 1.6765058e+2, -1034373.75, -1357907.0, 78036.555, 0.039791983, -0.21682906, -1016534.8, 280469.84, 0.0000017161015, 10.002752, 9.9984255 
2.77544e+3, 1.7764895e+2, -958852.56, -1262623.0, 78429.76, -0.051277112, -0.19721806, -939798.2, 259222.8, 0.00000000000031198744, 10.0025625, 9.9985 
2.77537e+3, 1.8764745e+2, -908496.8, -1126392.3, 79104.72, -0.021157349, -0.20189509, -882807.4, 218228.38, 0.0, 10.001973, 9.999044 
2.7753e+3, 1.9764607e+2, -919334.75, -1083210.8, 89927.55, 0.055319898, -0.21677153, -879614.25, 123434.96, 0.0, 10.00123, 9.999029 
2.77523e+3, 2.0764507e+2, -832349.0, -950403.0, 119668.61, 0.0539019, -0.21258673, -757941.5, 147116.6, 0.0, 10.000987, 9.999382 
2.77516e+3, 2.176443e+2, -769647.8, -900556.56, 117480.09, 0.016561706, -0.19882904, -700618.56, 106446.25, 0.0, 10.000876, 9.999108 
2.7750897e+3, 2.2764292e+2, -765680.4, -889603.8, 89289.57, -0.020370072, -0.19407359, -718959.6, -9879.223, 0.0, 10.000411, 9.998733 
2.7750194e+3, 2.3764145e+2, -740297.9, -801495.8, 71998.336, -0.050394226, -0.1918436, -692666.06, -81568.09, 0.0, 9.999802, 9.99896 
2.7749497e+3, 2.4764101e+2, -582025.44, -565825.06, 81932.914, -0.03419581, -0.16581929, -491592.88, 21509.004, 0.0, 9.999749, 9.999928 
2.77488e+3, 2.5764096e+2, -485923.56, -497193.28, 93843.7, -0.017274275, -0.13269877, -397545.72, 17554.87, 0.0, 9.999859, 9.999676 
2.7748084e+3, 2.6763982e+2, -507698.94, -487997.22, 40645.66, -0.0578612, -0.16981909, -456025.72, -138913.42, 0.0, 9.999171, 9.999395 
2.7747366e+3, 2.7763835e+2, -547964.75, -450095.7, 33764.734, -0.08692629, -0.22928324, -439577.34, -220449.81, 0.0, 9.99819, 9.999458 
2.7746657e+3, 2.876385e+2, -464594.53, -294364.38, 24277.305, -0.04746197, -0.16916828, -290969.78, -169844.63, 0.0, 9.997809, 10.000037 
2.7745938e+3, 2.9763913e+2, -412302.25, -239517.72, 39725.72, -0.073061235, -0.07793219, -230821.83, -207705.1, 0.0, 9.997586, 9.999851 
2.7745226e+3, 3.0763572e+2, -489833.53, -263812.22, 40988.977, -0.0505385, -0.3737206, -256608.45, -256608.45, 0.0, 9.996767, 9.999744 
2.7744496e+3, 3.1763664e+2, -370106.5, 64333.7, 2159.018, -0.26487166, -0.2399846, 64344.43, 64344.43, 0.0, 9.996398, 10.002187 
2.7858004e+3, 1.2773019e+2, -1222190.8, -1669631.8, 25120.592, 0.04597985, -0.16228528, -1220784.8, 467442.3, 0.00076552347, 10.004223, 9.998278 
2.7857265e+3, 1.3772821e+2, -1279481.8, -1641815.1, 55096.633, -0.022690412, -0.15927304, -1271288.9, 318957.22, 0.00033414474, 10.003131, 9.9983225 
2.7856547e+3, 1.4772643e+2, -1173049.8, -1483857.9, 102872.414, -0.0126376, -0.1699706, -1142085.4, 350177.97, 0.00009108268, 10.002958, 9.99881 
2.7855846e+3, 1.5772478e+2, -1056461.4, -1386070.4, 60040.277, 0.080336235, -0.18943073, -1045865.4, 348414.03, 0.000011753326, 10.003125, 9.998729 
2.7855134e+3, 1.6772313e+2, -1041744.4, -1316934.0, 81403.12, 0.04968042, -0.20409225, -1019468.0, 276826.97, 0.00000025139548, 10.002508, 9.998825 
2.785442e+3, 1.7772156e+2, -1073627.4, -1285244.3, 94421.8, -0.033319764, -0.21619967, -1037622.94, 160686.89, 0.0, 10.001628, 9.998797 
2.785371e+3, 1.8772036e+2, -1000670.0, -1165677.0, 97109.8, -0.018634291, -0.2050242, -955748.44, 144573.52, 0.0, 10.001322, 9.999087 
2.785301e+3, 1.9771938e+2, -916463.9, -1077023.1, 104979.03, 0.034471057, -0.18423869, -864586.7, 137745.5, 0.0, 10.001239, 9.999064 
2.785231e+3, 2.0771842e+2, -809473.7, -946091.94, 133826.97, 0.04342063, -0.17376351, -727530.4, 176810.84, 0.0, 10.001178, 9.999318 
2.785161e+3, 2.1771748e+2, -738567.56, -890366.9, 117030.36, 0.0351885, -0.16866553, -674979.4, 131370.33, 0.0, 10.001111, 9.9990635 
2.7850902e+3, 2.2771592e+2, -720169.8, -868895.9, 101961.37, -0.017942535, -0.17891668, -668334.7, 40032.03, 0.0, 10.000732, 9.998718 
2.785019e+3, 2.3771426e+2, -675444.1, -765592.2, 125640.14, -0.07634749, -0.19344847, -587037.44, 23348.158, 0.0, 10.000231, 9.998998 
2.7849492e+3, 2.4771391e+2, -586309.3, -550561.44, 126717.51, -0.03660933, -0.16711819, -440463.5, 71924.57, 0.0, 9.999649, 10.00008 
2.7848795e+3, 2.577141e+2, -599978.2, -544118.56, 99696.86, 0.023109704, -0.12815776, -468513.16, -54128.684, 0.0, 9.9990425, 9.999745 
2.7848074e+3, 2.6771274e+2, -571316.3, -534133.06, 42119.176, -0.04023924, -0.1752479, -506684.75, -190286.7, 0.0, 9.998808, 9.99925 
2.7847344e+3, 2.77711e+2, -487982.34, -429937.8, 57481.37, -0.1068275, -0.24855377, -394567.53, -176151.14, 0.0, 9.998649, 9.999372 
2.784663e+3, 2.877114e+2, -377447.53, -247276.17, 57410.62, -0.06004931, -0.1569899, -225574.03, -105162.75, 0.0, 9.99839, 10.000079 
2.7845913e+3, 2.977126e+2, -344833.16, -215032.97, 57747.54, -0.066877544, -0.018433973, -193060.73, -170662.44, 0.0, 9.998087, 9.999777 
2.7845195e+3, 3.077084e+2, -399292.2, -256875.8, 35869.527, -0.06149369, -0.36627138, -248351.75, -248351.75, 0.0, 9.997554, 9.999409 
2.784447e+3, 3.1770903e+2, -399217.88, -5353.2856, 19926.271, -0.14444824, -0.22404021, -4347.7495, -4347.7495, 0.0, 9.996443, 10.001685 
2.7958044e+3, 1.278046e+2, -1209149.3, -1618121.3, -21851.766, 0.045607086, -0.12000457, -1207985.0, 479512.9, 0.0003149128, 10.00412, 9.998679 
2.79573e+3, 1.3780238e+2, -1268726.3, -1638446.5, 22831.896, 0.03119585, -0.177195, -1267321.6, 322196.03, 0.00012577139, 10.003214, 9.998305 
2.7956578e+3, 1.478002e+2, -1240437.3, -1639007.8, 110213.984, 0.012222655, -0.15739532, -1211990.8, 279549.53, 0.00002907313, 10.003021, 9.997716 
2.7955872e+3, 1.5779814e+2, -1106414.3, -1479704.8, 61880.297, 0.048349094, -0.11590892, -1096423.8, 297139.34, 0.0000024460635, 10.00308, 9.998108 
2.7955157e+3, 1.6779645e+2, -1009687.25, -1241207.0, 50960.516, 0.055206526, -0.14706253, -998966.6, 296612.38, 0.0000000042322403, 10.002467, 9.999366 
2.795444e+3, 1.7779496e+2, -1050480.8, -1233179.1, 68504.18, 0.037070308, -0.20103167, -1027648.0, 169943.89, 0.0, 10.001609, 9.999165 
2.7953726e+3, 1.8779388e+2, -1002655.3, -1172441.4, 93985.625, 0.014119775, -0.18765216, -960898.7, 138704.11, 0.0, 10.001332, 9.999036 
2.7953014e+3, 1.9779304e+2, -922914.06, -1089793.3, 102603.84, -0.006306475, -0.14956672, -874104.94, 127507.195, 0.0, 10.001235, 9.99898 
2.7952313e+3, 2.077919e+2, -823821.06, -976455.9, 132732.92, 0.00890701, -0.1405639, -747029.44, 156594.03, 0.0, 10.001178, 9.999111 
2.7951622e+3, 2.1779071e+2, -742431.75, -893340.44, 111089.55, 0.03066529, -0.14220588, -683594.44, 122040.56, 0.0, 10.001088, 9.999055 
2.7950907e+3, 2.2778949e+2, -685726.3, -795946.06, 83934.195, -0.0076759965, -0.15168206, -640426.75, 67220.66, 0.0, 10.000724, 9.999225 
2.7950191e+3, 2.3778833e+2, -658016.25, -727875.7, 105629.305, -0.06127261, -0.16433598, -581691.1, 27968.332, 0.0, 10.000222, 9.999262 
2.7949488e+3, 2.4778749e+2, -613698.4, -606290.4, 103037.19, -0.02319347, -0.17250797, -506890.66, 4776.2773, 0.0, 9.999643, 9.999701 
2.7948785e+3, 2.5778687e+2, -615314.7, -577146.25, 80749.016, 0.028434124, -0.17556779, -513256.9, -99584.99, 0.0, 9.999046, 9.999518 
2.7948058e+3, 2.6778612e+2, -561057.0, -513882.8, 36783.676, -0.020971885, -0.16810155, -493773.34, -178092.88, 0.0, 9.998808, 9.999392 
2.794733e+3, 2.777853e+2, -478246.2, -416755.3, 50461.594, -0.06996475, -0.15810432, -388410.53, -170720.98, 0.0, 9.998677, 9.99945 
2.794661e+3, 2.8778514e+2, -382649.8, -260070.1, 44803.53, -0.0964847, -0.12427481, -245440.23, -125749.22, 0.0, 9.9984, 9.999987 
2.7945876e+3, 2.977852e+2, -365456.16, -254135.42, 44239.438, -0.20840187, -0.083896905, -238695.83, -217006.13, 0.0, 9.998069, 9.999518 
2.7945188e+3, 3.0778214e+2, -414352.16, -303220.0, 10905.33, 0.11913532, -0.2829564, -302159.97, -302159.97, 0.0, 9.997611, 9.999067 
2.794443e+3, 3.1778356e+2, -381824.6, 45600.004, -70437.8, -0.16834709, -0.044317354, 56908.66, 56908.66, 0.0, 9.996404, 10.002041 
2.805808e+3, 1.2787825e+2, -1310696.3, -1684567.8, -16029.217, 0.040768452, -0.15531814, -1310010.3, 376764.25, 0.00010351229, 10.003497, 9.998524 
2.8057334e+3, 1.3787602e+2, -1128008.6, -1575116.1, -11161.54, 0.03972049, -0.19561382, -1127730.1, 461064.8, 0.00003585604, 10.004197, 9.998268 
2.805661e+3, 1.4787391e+2, -1149808.5, -1566649.0, 112868.516, 0.015546781, -0.18683624, -1121209.1, 369607.38, 0.00000603324, 10.003521, 9.997972 
2.8055897e+3, 1.5787187e+2, -1198331.0, -1514154.3, 141973.52, 0.042972058, -0.16137162, -1143892.5, 248945.11, 0.00000016363987, 10.002406, 9.9981985 
2.8055176e+3, 1.6787034e+2, -1109674.9, -1320725.1, 115721.56, 0.056491338, -0.15933725, -1058588.9, 236264.73, 0.0, 10.001922, 9.999081 
2.8054455e+3, 1.7786907e+2, -1048115.3, -1244683.8, 90283.484, 0.049228717, -0.16692702, -1012942.06, 183924.92, 0.0, 10.001692, 9.999041 
2.8053737e+3, 1.8786798e+2, -947033.75, -1131626.4, 124440.43, 0.022772731, -0.15833838, -884397.7, 214480.22, 0.0, 10.001656, 9.999161 
2.8053027e+3, 1.9786699e+2, -855999.25, -1050413.8, 140851.4, 0.00009172722, -0.14325495, -782068.06, 218819.67, 0.0, 10.001658, 9.999048 
2.8052324e+3, 2.0786574e+2, -837016.75, -989944.25, 169572.28, 0.008206853, -0.14346018, -727465.8, 175434.61, 0.0, 10.001121, 9.999045 
2.8051624e+3, 2.1786447e+2, -839747.3, -936494.5, 155841.84, 0.0236764, -0.14804614, -724944.0, 79969.375, 0.0, 10.000409, 9.9990835 
2.805091e+3, 2.2786352e+2, -760135.25, -802665.1, 119681.4, 0.0007711661, -0.14527969, -659844.3, 47078.258, 0.0, 10.000092, 9.999481 
2.8050193e+3, 2.3786275e+2, -695280.5, -731499.5, 125234.01, -0.027046701, -0.1417645, -586853.4, 22076.627, 0.0, 9.9999075, 9.999388 
2.8049484e+3, 2.478617e+2, -613201.6, -631719.0, 124342.516, -0.01779153, -0.16131637, -497773.56, 13166.394, 0.0, 9.999762, 9.999467 
2.804877e+3, 2.5786066e+2, -547462.0, -558058.1, 112884.445, -0.005655304, -0.1836316, -439751.34, -26801.566, 0.0, 9.999577, 9.999391 
2.8048047e+3, 2.6786008e+2, -479356.25, -462898.1, 75125.81, -0.03719294, -0.15841271, -395552.0, -80595.5, 0.0, 9.999319, 9.9994955 
2.804732e+3, 2.778597e+2, -427400.0, -387564.56, 82361.88, -0.050018415, -0.120259814, -322746.25, -105784.33, 0.0, 9.9990015, 9.9994955 
2.8046593e+3, 2.878592e+2, -399514.03, -278670.28, 64730.402, -0.086041175, -0.11252123, -250543.7, -131576.73, 0.0, 9.99833, 9.999891 
2.804585e+3, 2.9785874e+2, -446778.28, -297172.8, 71543.58, -0.21979822, -0.11188652, -268467.4, -247496.1, 0.0, 9.997532, 9.999478 
2.804516e+3, 3.0785704e+2, -408341.6, -280227.03, 86218.125, 0.09687425, -0.18547735, -236874.36, -236874.36, 0.0, 9.997564, 9.999248 
2.804439e+3, 3.178583e+2, -224274.97, 109952.43, -72571.04, -0.20658614, 0.023978464, 125029.69, 125029.69, 0.0, 9.997541, 10.001931 
2.815811e+3, 1.279514e+2, -1357241.4, -1773683.8, 10941.359, 0.016431348, -0.24349305, -1356954.1, 329100.1, 0.00002429662, 10.003471, 9.99792 
2.815737e+3, 1.3794935e+2, -1153673.6, -1594900.1, 671.0011, 0.0058265873, -0.21619023, -1153672.6, 434403.3, 0.000006466996, 10.004054, 9.9982 
2.8156638e+3, 1.4794756e+2, -1075353.0, -1390982.5, 69032.23, 0.0015222417, -0.25017312, -1060915.3, 429176.16, 0.00000052844416, 10.003427, 9.999224 
2.8155917e+3, 1.5794598e+2, -1156992.1, -1425364.9, 103672.19, 0.0588647, -0.29967228, -1121608.8, 270495.72, 0.0000000005064632, 10.002392, 9.998816 
2.8155193e+3, 1.6794479e+2, -1171778.0, -1454281.8, 105083.586, 0.047751516, -0.22483145, -1136976.9, 157143.06, 0.0, 10.001941, 9.998156 
2.8154466e+3, 1.7794381e+2, -1086933.6, -1326636.0, 86631.82, -0.0005034708, -0.115120344, -1058901.9, 137233.56, 0.0, 10.001696, 9.998477 
2.8153753e+3, 1.8794258e+2, -928351.5, -1093048.8, 127767.39, 0.009824969, -0.11990269, -858694.2, 239453.53, 0.0, 10.001655, 9.999427 
2.8153044e+3, 1.9794129e+2, -846637.94, -1024662.0, 133895.9, 0.043226313, -0.16149072, -774866.7, 225292.0, 0.0, 10.001631, 9.999239 
2.8152338e+3, 2.0793994e+2, -836818.1, -986656.1, 141991.58, 0.035280038, -0.17871016, -751192.8, 150979.25, 0.0, 10.001106, 9.999075 
2.8151622e+3, 2.1793866e+2, -841563.7, -933877.3, 133730.92, 0.0078981295, -0.18617669, -746248.2, 57937.305, 0.0, 10.0003805, 9.999116 
2.815091e+3, 2.2793798e+2, -758823.0, -800708.06, 113175.73, 0.0058365986, -0.16033514, -664668.44, 41524.176, 0.0, 10.000093, 9.999495 
2.8150195e+3, 2.3793754e+2, -693956.8, -731482.1, 118963.72, 0.0127431555, -0.124379285, -592285.25, 15911.986, 0.0, 9.999918, 9.999384 
2.8149477e+3, 2.4793659e+2, -618516.4, -644350.25, 118121.72, -0.02408049, -0.12947117, -512607.44, -2400.6428, 0.0, 9.999765, 9.999381 
2.8148755e+3, 2.579355e+2, -548644.1, -563847.56, 104857.09, -0.085615225, -0.14789219, -451113.53, -38896.01, 0.0, 9.999589, 9.999347 
2.814803e+3, 2.6793465e+2, -474525.13, -454784.53, 64235.35, -0.093319915, -0.14796622, -399665.56, -85439.266, 0.0, 9.999327, 9.999548 
2.8147307e+3, 2.77934e+2, -423463.63, -382736.66, 66195.55, -0.053023193, -0.14100616, -333843.22, -117609.414, 0.0, 9.999014, 9.999524 
2.814658e+3, 2.8793356e+2, -407083.03, -294663.97, 33533.504, -0.022822598, -0.12413608, -285421.16, -167182.2, 0.0, 9.998327, 9.999785 
2.8145835e+3, 2.9793328e+2, -428045.03, -258557.73, 53683.344, -0.0989795, -0.10043239, -242984.95, -222742.73, 0.0, 9.997532, 9.999745 
2.8145102e+3, 3.079334e+2, -346721.34, -151098.44, 103164.79, -0.1777367, -0.06352575, -106747.81, -106747.81, 0.0, 9.997559, 10.000138 
2.8144377e+3, 3.179329e+2, -260194.27, 12150.407, -137210.89, -0.09912842, -0.09350404, 69290.6, 69290.6, 0.0, 9.997621, 10.001232 
2.825814e+3, 1.2802538e+2, -1414516.1, -1772745.3, 20703.36, 0.0231461, -0.25285327, -1413323.6, 272004.75, 0.000003329977, 10.002947, 9.998184 
2.8257403e+3, 1.3802333e+2, -1341229.9, -1655228.5, 49079.8, 0.020577654, -0.25057083, -1333737.1, 253612.33, 0.00000050691085, 10.002638, 9.998468 
2.8256664e+3, 1.480219e+2, -1212314.0, -1432981.8, 65299.117, 0.002130102, -0.2709766, -1194438.9, 294922.78, 0.0000000023756648, 10.002389, 9.999433 
2.8255937e+3, 1.5802073e+2, -1169347.0, -1406263.9, 44221.344, 0.041792903, -0.29930916, -1161362.0, 230008.9, 0.0, 10.002204, 9.999034 
2.8255206e+3, 1.6801955e+2, -1147771.5, -1429391.9, 89127.086, 0.034576643, -0.24396981, -1121934.9, 171451.11, 0.0, 10.002048, 9.998277 
2.825448e+3, 1.780184e+2, -1055144.9, -1308666.4, 133938.86, 0.0009202128, -0.1605782, -997493.3, 197909.06, 0.0, 10.001898, 9.998507 
2.8253764e+3, 1.8801719e+2, -938822.25, -1114662.9, 172579.8, 0.0102934735, -0.15142372, -833057.8, 264357.1, 0.0, 10.0016575, 9.999275 
2.8253058e+3, 1.9801599e+2, -888744.5, -1051806.6, 147057.75, 0.037877124, -0.16869952, -802128.94, 197297.1, 0.0, 10.00138, 9.999167 
2.8252342e+3, 2.0801476e+2, -864117.2, -994104.8, 135562.7, 0.032557465, -0.1767288, -778773.25, 122665.63, 0.0, 10.000899, 9.999122 
2.8251627e+3, 2.1801357e+2, -836935.44, -924939.1, 136882.42, 0.016718231, -0.17939577, -737156.4, 66295.305, 0.0, 10.000384, 9.999175 
2.8250912e+3, 2.2801289e+2, -715895.06, -774049.94, 134883.7, 0.011798215, -0.15869638, -606990.25, 98468.34, 0.0, 10.000365, 9.999545 
2.8250197e+3, 2.3801243e+2, -613342.06, -689361.9, 136937.77, 0.016504286, -0.12888017, -509236.88, 98226.234, 0.0, 10.00046, 9.999411 
2.8249472e+3, 2.4801147e+2, -596698.9, -638203.3, 127251.48, -0.020228533, -0.13159813, -488518.6, 20954.21, 0.0, 9.999934, 9.999341 
2.8248748e+3, 2.5801042e+2, -600977.5, -589643.44, 121107.05, -0.081742145, -0.14485219, -474070.9, -62587.137, 0.0, 9.999229, 9.999344 
2.824802e+3, 2.6800966e+2, -509165.78, -460334.0, 90718.96, -0.10323436, -0.14000049, -390802.75, -77311.16, 0.0, 9.999043, 9.999646 
2.8247294e+3, 2.7800915e+2, -426371.94, -376362.2, 91470.28, -0.06880665, -0.12923482, -306540.6, -91042.79, 0.0, 9.998969, 9.999586 
2.8246564e+3, 2.8800848e+2, -335763.2, -270964.38, 53347.93, -0.024311064, -0.13047318, -240948.05, -123443.266, 0.0, 9.998865, 9.999689 
2.8245816e+3, 2.9800797e+2, -251081.22, -166456.0, 75914.086, -0.08326243, -0.124808714, -121858.84, -102348.64, 0.0, 9.9987135, 9.999811 
2.824508e+3, 3.0800888e+2, -228103.16, -55113.926, 95757.305, -0.18545297, -0.032680858, -12570.641, -12570.641, 0.0, 9.998208, 10.000483 
2.824436e+3, 3.1800732e+2, -237960.7, -44956.152, -153859.05, -0.027251601, -0.18711704, 40160.11, 40160.11, 0.0, 9.9980755, 10.000615 
2.835817e+3, 1.2810002e+2, -1356813.9, -1637457.1, 10371.779, 0.05543681, -0.20146069, -1356431.0, 328166.72, 0.00000016214108, 10.002887, 9.999139 
2.8357428e+3, 1.3809793e+2, -1315622.3, -1589012.4, 39221.63, 0.057514794, -0.29177636, -1310106.8, 276509.63, 0.0000000020979667, 10.002582, 9.99895 
2.8356686e+3, 1.4809684e+2, -1255451.8, -1520514.5, 59193.14, -0.000053942957, -0.257623, -1242833.5, 245794.22, 0.0, 10.0023775, 9.998839 
2.8355953e+3, 1.5809609e+2, -1176235.6, -1422839.6, 40620.676, -0.010310558, -0.1924015, -1169716.9, 220919.95, 0.0, 10.002212, 9.998918 
2.8355226e+3, 1.6809456e+2, -1081566.9, -1293172.9, 84196.25, 0.01942655, -0.22803047, -1052154.3, 240497.45, 0.0, 10.002051, 9.999209 
2.83545e+3, 1.7809287e+2, -1023117.7, -1238398.1, 124711.44, 0.044500582, -0.2862542, -966017.6, 228650.06, 0.0, 10.001882, 9.998997 
2.835378e+3, 1.8809186e+2, -973754.56, -1187292.3, 161237.84, 0.017248467, -0.24175128, -887139.75, 209539.9, 0.0, 10.0016575, 9.998777 
2.8353065e+3, 1.9809109e+2, -913698.9, -1099468.3, 133421.97, -0.02173295, -0.16806287, -844013.6, 154676.38, 0.0, 10.001361, 9.998851 
2.8352347e+3, 2.0809016e+2, -859348.75, -984452.06, 115356.664, 0.001000619, -0.14141323, -790675.9, 110025.2, 0.0, 10.000898, 9.999189 
2.8351632e+3, 2.1808916e+2, -832104.0, -913480.3, 124937.664, 0.036292784, -0.13160399, -741396.0, 61315.96, 0.0, 10.000378, 9.999258 
2.835091e+3, 2.2808827e+2, -711429.56, -764562.2, 140657.47, 0.0149014825, -0.1407377, -594851.56, 109868.766, 0.0, 10.000362, 9.999613 
2.8350192e+3, 2.3808742e+2, -612166.56, -684697.0, 131566.11, -0.018082803, -0.15551005, -511959.06, 94768.69, 0.0, 10.000448, 9.999449 
2.834947e+3, 2.4808635e+2, -597696.25, -640341.4, 99232.35, -0.006595128, -0.16915613, -517521.47, -8783.125, 0.0, 9.999933, 9.999327 
2.8348744e+3, 2.5808534e+2, -594760.9, -580603.56, 100980.27, -0.0037355777, -0.17664993, -486454.13, -75705.21, 0.0, 9.999244, 9.9994 
2.834801e+3, 2.6808515e+2, -498162.66, -438179.72, 88754.08, -0.06760126, -0.13325335, -374486.75, -61734.582, 0.0, 9.9990425, 9.999801 
2.8347275e+3, 2.7808514e+2, -417111.25, -360375.1, 88667.93, -0.10920469, -0.08341991, -295647.78, -80894.26, 0.0, 9.998981, 9.999691 
2.8346542e+3, 2.88084e+2, -339730.22, -282010.72, 50018.586, -0.10495281, -0.13023052, -253123.22, -136359.42, 0.0, 9.998877, 9.999608 
2.834579e+3, 2.9808277e+2, -259328.05, -190789.02, 67943.36, -0.18533607, -0.18691446, -148961.89, -130187.25, 0.0, 9.998742, 9.999631 
2.834509e+3, 3.080831e+2, -248596.17, -107243.766, 69629.8, 0.1348253, -0.120231085, -78705.88, -78705.88, 0.0, 9.998244, 10.00011 
2.834432e+3, 3.1808242e+2, -276580.16, -125662.28, -50266.844, -0.19126675, -0.14975381, -110452.555, -110452.555, 0.0, 9.99809, 10.000047 
2.84582e+3, 1.2817504e+2, -1380209.6, -1607153.3, 37215.598, 0.099575914, -0.18849872, -1374262.6, 309600.38, 0.00000000032983427, 10.00254, 9.9995165 
2.8457445e+3, 1.3817322e+2, -1412208.5, -1608395.9, 38769.066, 0.04582486, -0.28680235, -1404825.1, 181053.14, 0.0, 10.0018, 9.999194 
2.8456703e+3, 1.4817224e+2, -1336576.6, -1575122.5, 91412.87, -0.019013762, -0.2410074, -1305575.4, 182314.39, 0.0, 10.001888, 9.9987 
2.8455973e+3, 1.5817152e+2, -1175254.3, -1427453.5, 93276.516, -0.019514972, -0.15719123, -1144504.9, 245394.86, 0.0, 10.00224, 9.998873 
2.8455243e+3, 1.6816993e+2, -1060100.3, -1262299.6, 98771.53, 0.011124045, -0.20698826, -1019860.0, 272054.2, 0.0, 10.002114, 9.999388 
2.8454515e+3, 1.7816813e+2, -1018311.0, -1217737.6, 95807.36, 0.033974733, -0.2939395, -979742.75, 214186.98, 0.0, 10.0018425, 9.999153 
2.845379e+3, 1.8816723e+2, -990157.6, -1195355.0, 142444.38, 0.004116089, -0.24556747, -917208.94, 178731.83, 0.0, 10.001547, 9.998775 
2.845307e+3, 1.9816665e+2, -926752.7, -1102582.3, 144942.47, -0.031312756, -0.15389101, -845146.6, 152803.33, 0.0, 10.001255, 9.998883 
2.8452352e+3, 2.0816569e+2, -836665.75, -960680.44, 134182.77, -0.004420023, -0.1358774, -750855.9, 149104.73, 0.0, 10.000999, 9.999304 
2.8451633e+3, 2.1816467e+2, -773891.5, -878002.6, 149444.75, 0.03666701, -0.14077404, -667695.6, 134275.64, 0.0, 10.000748, 9.999321 
2.8450912e+3, 2.2816381e+2, -705842.5, -770370.0, 163742.67, 0.006380206, -0.14421615, -571215.2, 132764.55, 0.0, 10.00044, 9.999535 
2.845019e+3, 2.3816298e+2, -662232.1, -708493.8, 141722.06, -0.03498429, -0.1486535, -541765.7, 64221.754, 0.0, 10.000105, 9.99945 
2.8449464e+3, 2.4816188e+2, -595964.3, -619833.1, 107829.54, -0.012172111, -0.1779906, -499410.72, 8587.2295, 0.0, 9.999863, 9.999501 
2.8448737e+3, 2.5816083e+2, -537062.75, -539747.9, 127201.836, 0.01632485, -0.20505936, -411196.38, -1188.2296, 0.0, 9.999589, 9.999512 
2.8448004e+3, 2.681608e+2, -429424.44, -410340.03, 118326.66, -0.047947068, -0.14286578, -301171.44, 10838.396, 0.0, 9.999538, 9.999753 
2.8447264e+3, 2.7816105e+2, -341185.0, -329925.63, 98732.2, -0.10083585, -0.06516614, -236662.75, -22653.076, 0.0, 9.999522, 9.999644 
2.8446525e+3, 2.8815973e+2, -303982.78, -268455.6, 50035.934, -0.11077668, -0.1250757, -233123.61, -117102.34, 0.0, 9.999139, 9.999576 
2.8445774e+3, 2.9815817e+2, -285646.44, -217290.1, 73336.65, -0.1961702, -0.2079514, -170558.38, -152523.77, 0.0, 9.9986315, 9.999498 
2.8445077e+3, 3.0815792e+2, -200247.64, -125720.164, 80955.42, 0.16424036, -0.17241164, -73863.945, -73863.945, 0.0, 9.998765, 9.999731 
2.8444293e+3, 3.18158e+2, -194130.44, -93582.48, -40736.98, -0.26108718, -0.09381249, -79149.62, -79149.62, 0.0, 9.998689, 9.99998 
2.855822e+3, 1.282503e+2, -1402174.6, -1624380.9, 4016.5925, 0.12521845, -0.20534591, -1402102.0, 281023.25, 0.0, 10.002422, 9.999452 
2.855746e+3, 1.3824902e+2, -1398418.4, -1597719.8, 20201.514, 0.0010426557, -0.24720208, -1396391.3, 188745.25, 0.0, 10.001879, 9.999229 
2.8556716e+3, 1.4824803e+2, -1315909.9, -1541969.0, 101600.76, -0.04364018, -0.2187785, -1276957.9, 210190.1, 0.0, 10.001928, 9.998909 
2.8555992e+3, 1.5824711e+2, -1184621.1, -1430957.5, 96552.695, 0.0015466497, -0.17298295, -1151287.4, 237872.08, 0.0, 10.0021715, 9.998882 
2.855526e+3, 1.6824567e+2, -1093337.8, -1323847.1, 88343.69, -0.001183451, -0.1821598, -1063374.5, 227799.45, 0.0, 10.002082, 9.998981 
2.8554523e+3, 1.7824413e+2, -1027557.6, -1237985.3, 87031.43, -0.033445407, -0.20763162, -996226.9, 196962.0, 0.0, 10.001845, 9.999013 
2.8553802e+3, 1.8824327e+2, -961731.4, -1137195.8, 132201.13, -0.02621881, -0.1763463, -890800.2, 204398.17, 0.0, 10.001548, 9.999175 
2.8553087e+3, 1.9824263e+2, -908177.1, -1056886.9, 133675.78, -0.0026485776, -0.12915808, -829568.4, 167637.66, 0.0, 10.0012245, 9.999211 
2.8552362e+3, 2.0824142e+2, -827498.06, -939977.1, 124658.6, 0.0111669125, -0.15807872, -746979.94, 152237.55, 0.0, 10.000992, 9.99945 
2.8551635e+3, 2.182401e+2, -774604.94, -875402.1, 139003.0, 0.014596812, -0.20489112, -677146.0, 124083.63, 0.0, 10.000729, 9.999349 
2.855091e+3, 2.2823949e+2, -722155.7, -804917.44, 151172.97, -0.016232736, -0.16725478, -606802.25, 96434.664, 0.0, 10.000441, 9.999298 
2.8550187e+3, 2.382391e+2, -661899.56, -711107.0, 129999.445, -0.05295329, -0.11000579, -554196.06, 51046.53, 0.0, 10.000117, 9.999427 
2.854946e+3, 2.4823804e+2, -569091.7, -564087.5, 98066.38, -0.041679185, -0.159056, -468491.28, 38760.402, 0.0, 9.999862, 9.999886 
2.854873e+3, 2.5823689e+2, -523193.94, -514722.6, 120561.39, -0.027618874, -0.2322755, -398322.5, 10938.734, 0.0, 9.999604, 9.999678 
2.8547996e+3, 2.682367e+2, -448256.44, -453180.72, 119361.76, -0.045092087, -0.17055832, -331331.44, -20066.715, 0.0, 9.999553, 9.999454 
2.8547266e+3, 2.782368e+2, -351893.66, -357852.2, 91813.72, -0.043817908, -0.07543476, -263010.88, -49744.387, 0.0, 9.999545, 9.999442 
2.8546524e+3, 2.8823566e+2, -304033.38, -269617.3, 28969.674, -0.03359718, -0.113388814, -253130.27, -137852.77, 0.0, 9.999142, 9.999567 
2.8545764e+3, 2.982342e+2, -287029.97, -225117.03, 62329.344, -0.12408653, -0.18456963, -186480.05, -169189.5, 0.0, 9.998652, 9.999435 
2.8545028e+3, 3.0823335e+2, -222135.95, -176823.5, 94653.125, -0.17708197, -0.18582946, -102152.87, -102152.87, 0.0, 9.99879, 9.99937 
2.85443e+3, 3.1823352e+2, -154220.47, -20791.092, -151972.72, -0.031321246, -0.06926437, 78465.766, 78465.766, 0.0, 9.998713, 10.000479 
2.8658238e+3, 1.283256e+2, -1599461.3, -1778569.4, 34919.664, 0.101164244, -0.22856046, -1592894.0, 89493.11, 0.0, 10.001318, 9.998928 
2.8657478e+3, 1.3832425e+2, -1290066.1, -1572805.5, 9773.069, -0.00482407, -0.2280048, -1289728.8, 294672.63, 0.0, 10.002739, 9.998984 
2.8656736e+3, 1.4832333e+2, -1264082.0, -1487631.8, 59572.09, -0.039792813, -0.20221913, -1249198.0, 237214.1, 0.0, 10.002161, 9.999167 
2.8656006e+3, 1.5832251e+2, -1325683.6, -1469877.6, 68375.34, 0.014012379, -0.1731379, -1298416.9, 90005.33, 0.0, 10.00108, 9.999139 
2.8655273e+3, 1.683215e+2, -1188248.8, -1347316.8, 108632.44, 0.010552108, -0.16166814, -1133147.4, 157284.97, 0.0, 10.001335, 9.999181 
2.865454e+3, 1.7832047e+2, -1006094.06, -1214614.6, 132695.73, -0.0221229, -0.15326467, -941599.0, 250843.45, 0.0, 10.001935, 9.999133 
2.8653815e+3, 1.8831934e+2, -965919.4, -1141053.3, 145506.84, -0.021208847, -0.15123749, -883662.25, 210791.8, 0.0, 10.00153, 9.999156 
2.8653094e+3, 1.983182e+2, -956375.1, -1073914.3, 128015.77, -0.0050371704, -0.15377219, -874283.44, 122182.36, 0.0, 10.00087, 9.999263 
2.8652367e+3, 2.0831707e+2, -834030.56, -929419.7, 122832.57, 0.008571376, -0.18234943, -749957.9, 148517.88, 0.0, 10.000891, 9.999569 
2.8651643e+3, 2.1831603e+2, -716961.94, -834733.44, 129922.82, 0.018436246, -0.21224362, -633203.1, 167281.63, 0.0, 10.001071, 9.999463 
2.8650913e+3, 2.2831552e+2, -708849.8, -788730.9, 145292.45, -0.015860839, -0.17582648, -598108.06, 104383.22, 0.0, 10.000491, 9.999385 
2.8650185e+3, 2.3831517e+2, -709532.44, -720196.4, 154627.78, -0.053005088, -0.12294123, -560144.75, 44352.08, 0.0, 9.999735, 9.999547 
2.8649455e+3, 2.483144e+2, -545511.1, -537132.44, 129903.586, -0.047820013, -0.15758304, -411350.66, 95152.59, 0.0, 9.999958, 10.000023 
2.8648722e+3, 2.583135e+2, -407350.3, -451129.3, 128450.55, -0.040918693, -0.21443352, -298937.5, 109572.46, 0.0, 10.000364, 9.999749 
2.864799e+3, 2.6831302e+2, -420036.47, -445176.13, 122843.7, -0.05394573, -0.18247472, -309121.16, 1394.6895, 0.0, 9.999772, 9.999402 
2.8647256e+3, 2.783127e+2, -454344.75, -416206.66, 117957.85, -0.032752614, -0.12302566, -315786.44, -103265.305, 0.0, 9.998889, 9.999353 
2.8646514e+3, 2.883118e+2, -295956.63, -284444.25, 67072.32, -0.007726331, -0.12194409, -222881.58, -108350.82, 0.0, 9.999283, 9.999396 
2.8645757e+3, 2.9831073e+2, -99188.54, -146424.05, 83636.71, -0.09120281, -0.13921186, -35898.887, -19357.266, 0.0, 9.999992, 9.999334 
2.864501e+3, 3.083096e+2, -125216.63, -128628.66, 122611.4, -0.22322416, -0.16268349, -4299.3774, -4299.3774, 0.0, 9.999454, 9.99938 
2.86443e+3, 3.18309e+2, -113718.08, -3312.4639, -100409.61, 0.080787025, -0.12505816, 56068.496, 56068.496, 0.0, 9.99901, 10.000451 
2.8758243e+3, 1.2840098e+2, -1641274.3, -1887440.5, 85613.04, 0.0447972, -0.24621323, -1614427.3, 67220.27, 0.0, 10.001417, 9.99813 
2.8757504e+3, 1.3839912e+2, -1336214.0, -1644715.5, 36254.008, 0.0055769165, -0.2249391, -1332010.9, 251659.5, 0.0, 10.002637, 9.998539 
2.8756756e+3, 1.4839828e+2, -1251131.6, -1449953.1, 17415.955, -0.025640886, -0.19506493, -1249617.6, 236062.95, 0.0, 10.002112, 9.999451 
2.8756016e+3, 1.5839778e+2, -1291602.5, -1407474.3, 48557.285, 0.012492722, -0.16564186, -1273944.9, 113741.96, 0.0, 10.001115, 9.999551 
2.875529e+3, 1.6839747e+2, -1138931.5, -1249595.6, 133265.58, 0.04382106, -0.1419943, -1049967.5, 239721.47, 0.0, 10.001353, 9.999844 
2.8754565e+3, 1.7839716e+2, -990187.6, -1171922.6, 137130.42, 0.05411683, -0.120687515, -916550.9, 275139.78, 0.0, 10.001893, 9.999446 
2.8753832e+3, 1.8839543e+2, -994226.75, -1195947.1, 117166.43, 0.0096467985, -0.16531457, -940488.25, 153219.69, 0.0, 10.001512, 9.998788 
2.8753096e+3, 1.9839339e+2, -972727.56, -1105352.5, 112948.195, -0.043787245, -0.22497916, -908064.3, 87664.38, 0.0, 10.000858, 9.999053 
2.8752372e+3, 2.0839272e+2, -827894.8, -917575.25, 132295.69, -0.013482489, -0.20704086, -733046.8, 164688.08, 0.0, 10.000892, 9.999652 
2.8751653e+3, 2.1839249e+2, -706598.3, -807683.8, 125511.21, 0.03215284, -0.1679715, -621835.4, 177901.52, 0.0, 10.001046, 9.999661 
2.8750917e+3, 2.2839189e+2, -682051.5, -730208.8, 114661.39, 0.0052496763, -0.17351726, -588967.8, 112775.234, 0.0, 10.00048, 9.999792 
2.875018e+3, 2.3839122e+2, -693331.7, -685978.0, 141138.73, -0.03532285, -0.18943408, -548468.25, 55281.844, 0.0, 9.999732, 9.999784 
2.8749454e+3, 2.4839096e+2, -553641.4, -558209.5, 149419.27, -0.03374061, -0.17128487, -406488.72, 99263.766, 0.0, 9.999973, 9.999872 
2.8748727e+3, 2.5839078e+2, -404202.25, -453046.25, 128714.19, -0.040794656, -0.14575256, -297613.66, 110140.34, 0.0, 10.0004, 9.99972 
2.8747982e+3, 2.683898e+2, -404855.9, -412860.47, 85962.27, -0.08115605, -0.17843355, -322802.8, -13039.522, 0.0, 9.999769, 9.999624 
2.8747237e+3, 2.783887e+2, -449566.0, -408079.63, 102465.766, -0.08692538, -0.2176677, -324278.5, -112504.555, 0.0, 9.998894, 9.999408 
2.87465e+3, 2.883882e+2, -317390.72, -334643.84, 100768.96, -0.045189574, -0.1539254, -224879.75, -111098.9, 0.0, 9.999303, 9.999043 
2.8745756e+3, 2.9838789e+2, -100340.96, -160149.61, 92946.69, -0.09511887, -0.06325487, -32606.389, -16819.94, 0.0, 10.000044, 9.999214 
2.8745034e+3, 3.0838707e+2, -95492.33, -70781.32, 88312.35, 0.08522407, -0.07685294, 6035.6494, 6035.6494, 0.0, 9.999477, 9.999764 
2.8744265e+3, 3.1838468e+2, -158576.9, -96314.49, 2039.2977, -0.124797404, -0.24476221, -96247.77, -96247.77, 0.0, 9.999018, 9.9998045 
2.8858256e+3, 1.284763e+2, -1470797.4, -1723452.8, 45739.297, 0.04739725, -0.19288102, -1462771.9, 218142.25, 0.0, 10.002229, 9.998868 
2.8857523e+3, 1.3847482e+2, -1491102.8, -1663150.6, 74758.29, 0.04356847, -0.20067213, -1463157.8, 119772.555, 0.0, 10.001329, 9.999043 
2.885677e+3, 1.484741e+2, -1361172.9, -1501037.3, 52340.36, -0.013905577, -0.17793033, -1343755.1, 141183.98, 0.0, 10.001349, 9.999467 
2.8856024e+3, 1.5847358e+2, -1217726.8, -1369572.4, 72227.625, -0.014473065, -0.1479481, -1188858.8, 198086.52, 0.0, 10.001612, 9.999572 
2.8855297e+3, 1.684733e+2, -1121841.0, -1241648.6, 131447.4, 0.032203898, -0.12409231, -1037291.1, 251656.84, 0.0, 10.0014715, 9.999841 
2.885458e+3, 1.7847297e+2, -1081809.1, -1205640.6, 90574.72, 0.069298804, -0.10722146, -1034010.06, 156940.27, 0.0, 10.001218, 9.999538 
2.8853843e+3, 1.884714e+2, -1036519.06, -1188208.6, 78623.93, 0.01785318, -0.1542516, -1003120.3, 89845.04, 0.0, 10.001102, 9.999037 
2.88531e+3, 1.9846962e+2, -933354.6, -1061254.1, 118240.805, -0.044702176, -0.21211722, -862877.94, 132104.84, 0.0, 10.0010195, 9.999279 
2.885238e+3, 2.084692e+2, -833960.3, -900775.8, 159391.67, -0.011394198, -0.19066106, -704512.94, 192473.67, 0.0, 10.000766, 9.999828 
2.8851658e+3, 2.1846914e+2, -776364.8, -821207.5, 154003.81, 0.04195125, -0.14772359, -643158.75, 155827.83, 0.0, 10.000482, 9.999841 
2.885092e+3, 2.2846863e+2, -683318.75, -711546.06, 119678.1, 0.011283588, -0.16279265, -576924.94, 124066.59, 0.0, 10.000389, 9.999963 
2.8850177e+3, 2.38468e+2, -602342.44, -630964.56, 135675.36, -0.032080486, -0.19084324, -480225.47, 122772.21, 0.0, 10.000309, 9.999884 
2.884945e+3, 2.484678e+2, -576067.44, -576935.5, 153137.34, -0.031195952, -0.16494367, -423363.5, 81636.516, 0.0, 9.999857, 9.999798 
2.884872e+3, 2.5846767e+2, -555066.56, -526079.3, 137754.05, -0.03021255, -0.12414177, -402058.56, 4943.0015, 0.0, 9.999374, 9.999706 
2.8847978e+3, 2.6846674e+2, -390373.75, -399714.9, 80761.695, -0.06847781, -0.15812922, -314147.7, -5137.2813, 0.0, 9.999847, 9.999672 
2.8847232e+3, 2.7846554e+2, -239632.3, -297057.3, 83485.61, -0.07516162, -0.21149178, -180059.73, 30961.7, 0.0, 10.000295, 9.999493 
2.884649e+3, 2.8846478e+2, -261903.3, -311885.16, 116675.164, -0.05378403, -0.17874977, -167572.64, -54542.695, 0.0, 9.999706, 9.999002 
2.8845748e+3, 2.9846424e+2, -241097.92, -244702.94, 125800.92, -0.11708372, -0.10448016, -117086.59, -102049.56, 0.0, 9.999157, 9.999061 
2.884503e+3, 3.0846393e+2, -98151.28, -124390.836, 69332.5, 0.12562485, -0.03438805, -40708.152, -40708.152, 0.0, 9.999698, 9.999299 
2.884425e+3, 3.1846097e+2, 2275.2205, 6216.53, -52566.188, -0.18843427, -0.22129457, 56848.99, 56848.99, 0.0, 10.000007, 10.000052 
2.8958282e+3, 1.2855157e+2, -1350146.8, -1458959.5, 14707.078, 0.08493797, -0.09130313, -1348194.0, 331990.84, 0.0, 10.002176, 10.000705 
2.895754e+3, 1.3855125e+2, -1416569.8, -1499995.4, 52493.145, 0.09677303, -0.15638638, -1391234.1, 190948.25, 0.0, 10.001295, 10.000179 
2.8956783e+3, 1.4855063e+2, -1376026.9, -1530512.3, 60323.633, -0.0048149964, -0.14680943, -1355262.5, 128926.41, 0.0, 10.001343, 9.999269 
2.8956032e+3, 1.585499e+2, -1241005.4, -1415628.8, 75500.34, -0.06285955, -0.11754225, -1212889.0, 173309.1, 0.0, 10.001601, 9.999261 
2.8955305e+3, 1.6854897e+2, -1162707.8, -1322039.6, 122039.55, -0.021315845, -0.112603545, -1096633.1, 191575.88, 0.0, 10.0014515, 9.999298 
2.8954586e+3, 1.7854798e+2, -1094859.5, -1222913.9, 83768.64, 0.023825562, -0.114891894, -1053451.1, 136768.81, 0.0, 10.001176, 9.99944 
2.895385e+3, 1.8854733e+2, -985381.4, -1078776.0, 77402.65, 0.0058233202, -0.11971903, -941680.6, 150544.64, 0.0, 10.001085, 9.999798 
2.895311e+3, 1.9854681e+2, -894857.25, -976716.94, 113100.15, -0.019902226, -0.12421057, -815508.7, 178720.03, 0.0, 10.000999, 9.999869 
2.8952384e+3, 2.0854639e+2, -816261.6, -862476.7, 148032.78, 0.010371596, -0.13865416, -689543.7, 206687.84, 0.0, 10.000758, 10.000095 
2.895166e+3, 2.1854602e+2, -769952.0, -803044.3, 145521.19, 0.043500863, -0.1525115, -640039.3, 158194.7, 0.0, 10.00046, 9.999975 
2.895092e+3, 2.2854576e+2, -689044.56, -722969.94, 118324.086, -0.0025953765, -0.14049451, -586473.5, 113763.11, 0.0, 10.000385, 9.9998865 
2.8950176e+3, 2.385455e+2, -605253.3, -637645.6, 126400.53, -0.061022494, -0.12515086, -494015.53, 108224.02, 0.0, 10.000311, 9.999837 
2.8949445e+3, 2.4854486e+2, -576253.56, -575852.06, 131231.94, -0.041182816, -0.14146088, -444820.72, 59425.55, 0.0, 9.999852, 9.999808 
2.8948715e+3, 2.5854418e+2, -553906.6, -525894.56, 135488.47, -0.014053649, -0.1561298, -403690.13, 2563.176, 0.0, 9.999383, 9.999702 
2.894798e+3, 2.6854393e+2, -399189.47, -422464.9, 105770.78, -0.014835416, -0.11711355, -304418.1, 3839.1082, 0.0, 9.999864, 9.999509 
2.894724e+3, 2.785434e+2, -221407.17, -274950.28, 77686.07, 0.004504093, -0.09002045, -166009.14, 44253.664, 0.0, 10.000359, 9.999615 
2.8946486e+3, 2.885415e+2, -241911.33, -265331.78, 89918.56, -0.034429137, -0.203334, -162943.67, -50664.74, 0.0, 9.999694, 9.999321 
2.8945726e+3, 2.9853946e+2, -259524.13, -271058.1, 123048.3, -0.19221976, -0.30185634, -142107.73, -127811.58, 0.0, 9.99911, 9.998898 
2.8944996e+3, 3.0853945e+2, -198111.64, -330691.8, 100287.47, -0.15902486, -0.10793786, -144185.45, -144185.45, 0.0, 9.9997, 9.997881 
2.8944272e+3, 3.185373e+2, 94073.31, 189914.52, -98930.305, 0.060831558, -0.10167219, 251919.3, 251919.3, 0.0, 10.0000305, 10.001309 
2.9058304e+3, 1.2862764e+2, -1425557.6, -1517573.6, 65110.24, 0.14096597, -0.05395175, -1391840.6, 287601.44, 0.0, 10.001747, 10.000513 
2.9057544e+3, 1.3862729e+2, -1476614.1, -1532571.3, 6277.5713, 0.055904478, -0.10439867, -1475918.5, 105522.29, 0.0, 10.000895, 10.00015 
2.905679e+3, 1.4862667e+2, -1404658.9, -1521167.0, 39438.484, -0.012933069, -0.11004972, -1392564.3, 90882.05, 0.0, 10.001044, 9.9994755 
2.9056048e+3, 1.586259e+2, -1267946.1, -1421150.8, 68568.56, -0.011080544, -0.10406435, -1241740.0, 143714.66, 0.0, 10.001383, 9.999328 
2.9055318e+3, 1.6862486e+2, -1237105.8, -1375388.9, 119611.2, -0.0016712659, -0.0984751, -1168090.3, 119376.91, 0.0, 10.001017, 9.999142 
2.9054588e+3, 1.7862384e+2, -1184864.3, -1254577.5, 112560.54, -0.003123472, -0.092574365, -1101886.9, 87592.52, 0.0, 10.000506, 9.999546 
2.9053855e+3, 1.8862367e+2, -1014419.56, -1033104.8, 112803.79, -0.0045262966, -0.08808385, -910572.2, 180907.08, 0.0, 10.000627, 10.000333 
2.905312e+3, 1.9862372e+2, -888484.0, -935225.0, 126497.99, 0.0018257904, -0.086135074, -783215.75, 210260.31, 0.0, 10.000874, 10.0002165 
2.905239e+3, 2.0862323e+2, -846582.1, -875310.06, 129688.96, 0.023390986, -0.118703224, -730464.1, 165015.33, 0.0, 10.000542, 10.000112 
2.9051661e+3, 2.1862268e+2, -818569.0, -822648.3, 119178.484, 0.04029507, -0.15378816, -701412.7, 96071.234, 0.0, 10.000109, 10.000011 
2.905092e+3, 2.2862257e+2, -702079.3, -719389.1, 109945.875, -0.012040799, -0.13391551, -600448.25, 99036.984, 0.0, 10.000253, 9.999976 
2.9050177e+3, 2.3862255e+2, -574763.8, -618415.44, 122435.55, -0.065528825, -0.103201106, -472223.94, 129262.13, 0.0, 10.000503, 9.999877 
2.9049444e+3, 2.4862185e+2, -502567.8, -535734.25, 114857.8, -0.037500564, -0.1255505, -403102.28, 100391.31, 0.0, 10.000339, 9.999849 
2.9048708e+3, 2.586212e+2, -461992.7, -463664.47, 129302.63, -0.0036061632, -0.14898874, -333523.22, 71978.055, 0.0, 9.999937, 9.999863 
2.9047975e+3, 2.686215e+2, -469318.78, -411241.9, 136920.08, 0.010894189, -0.08202686, -300314.84, 7184.947, 0.0, 9.999189, 9.999908 
2.9047236e+3, 2.786217e+2, -443461.34, -324023.94, 150530.38, 0.060331192, -0.023103332, -221799.08, -12300.502, 0.0, 9.998598, 10.000119 
2.9046476e+3, 2.8862002e+2, -335930.97, -189623.02, 163163.22, -0.026517361, -0.19294092, -83964.97, 27545.424, 0.0, 9.998533, 10.0004 
2.9158324e+3, 1.2870432e+2, -1553947.1, -1764582.8, 22492.094, 0.20012406, -0.05413393, -1551572.1, 127116.92, 0.0, 10.001669, 9.998852 
2.915754e+3, 1.3870305e+2, -1528695.0, -1654358.4, -6374.265, -0.061574552, -0.046884604, -1528372.5, 52331.242, 0.0, 10.000956, 9.999284 
2.9156798e+3, 1.4870226e+2, -1365307.5, -1445291.9, 56985.89, -0.036398377, -0.073883384, -1335681.0, 147028.69, 0.0, 10.001068, 9.999986 
2.915607e+3, 1.587016e+2, -1251297.6, -1373274.9, 71292.51, 0.11350234, -0.10578589, -1218466.0, 166248.2, 0.0, 10.001325, 9.999684 
2.9155332e+3, 1.6870101e+2, -1227940.8, -1353561.9, 100088.66, 0.07489321, -0.07918102, -1172586.6, 114135.58, 0.0, 10.001002, 9.999299 
2.915459e+3, 1.787005e+2, -1164662.9, -1218037.8, 103834.56, -0.020516722, -0.040596507, -1084141.0, 104588.766, 0.0, 10.00053, 9.999785 
2.9153857e+3, 1.8870038e+2, -990259.7, -984615.7, 123553.46, -0.016997866, -0.060900554, -863852.0, 226876.3, 0.0, 10.000632, 10.000664 
2.9153126e+3, 1.9870037e+2, -886572.1, -921355.75, 124664.01, 0.0141345905, -0.09496379, -778092.6, 214632.27, 0.0, 10.000831, 10.000332 
2.9152393e+3, 2.0869976e+2, -864419.6, -908726.4, 110019.76, 0.024438625, -0.12543227, -774345.0, 120384.77, 0.0, 10.000525, 9.99989 
2.9151654e+3, 2.1869911e+2, -824383.56, -832031.3, 111431.914, 0.020272404, -0.15205066, -716709.94, 80026.32, 0.0, 10.000096, 9.999953 
2.9150918e+3, 2.2869901e+2, -683830.5, -681524.56, 121218.305, -0.016934477, -0.1448631, -561453.75, 137283.7, 0.0, 10.000252, 10.000238 
2.9150182e+3, 2.3869908e+2, -565648.5, -600273.44, 125823.234, -0.05051135, -0.12703297, -455952.28, 144785.06, 0.0, 10.000506, 9.999998 
2.9149446e+3, 2.4869883e+2, -499651.13, -528225.75, 104055.09, -0.026779821, -0.113493524, -408907.06, 93834.47, 0.0, 10.000335, 9.9999 
2.9148707e+3, 2.5869864e+2, -435462.66, -417758.5, 105986.9, -0.013692395, -0.09810193, -320254.66, 84490.63, 0.0, 9.999971, 10.000164 
2.9147962e+3, 2.686994e+2, -402320.38, -273930.13, 103743.92, -0.000022528215, -0.055685796, -216126.0, 90612.76, 0.0, 9.999189, 10.000855 
2.9147223e+3, 2.7870038e+2, -391131.66, -204978.0, 154882.56, 0.061692882, -0.01482775, -117356.445, 91372.81, 0.0, 9.998563, 10.000954 
2.914646e+3, 2.8870043e+2, -212133.33, 67591.06, 136363.13, -0.029109389, -0.13558215, 123065.336, 233788.34, 0.0, 9.99855, 10.002156 
2.925833e+3, 1.2878014e+2, -1669829.4, -1852035.5, -21100.049, 0.16212253, -0.060191464, -1667417.9, 10527.657, 0.0, 10.001009, 9.998568 
2.9257554e+3, 1.3877864e+2, -1426278.5, -1619102.0, 18358.637, -0.022429625, -0.04717025, -1424546.3, 155418.33, 0.0, 10.001718, 9.999159 
2.925681e+3, 1.4877793e+2, -1332329.8, -1405771.3, 71898.766, -0.0030817108, -0.07736272, -1288317.3, 193652.25, 0.0, 10.001192, 10.000199 
2.925608e+3, 1.5877746e+2, -1370128.4, -1405990.9, 75802.79, 0.12442052, -0.11101929, -1310164.9, 73806.42, 0.0, 10.0004, 9.9999075 
2.925534e+3, 1.6877712e+2, -1254285.1, -1339077.6, 113752.5, 0.07597287, -0.080505766, -1175285.0, 110690.85, 0.0, 10.000701, 9.999545 
2.9254594e+3, 1.7877688e+2, -1067763.4, -1168478.1, 113946.73, -0.022862706, -0.038254716, -993542.56, 194438.05, 0.0, 10.001176, 9.999817 
2.925386e+3, 1.887765e+2, -1011293.06, -1033127.44, 90047.02, -0.0012448753, -0.06277533, -931503.9, 158479.2, 0.0, 10.000651, 10.000322 
2.925313e+3, 1.9877614e+2, -1019395.56, -996593.25, 57157.832, 0.049802586, -0.10069446, -949710.56, 42273.742, 0.0, 9.999966, 10.000233 
2.9252392e+3, 2.0877595e+2, -900123.06, -895040.25, 66515.234, 0.03021603, -0.10852205, -831017.9, 62967.613, 0.0, 10.000144, 10.000169 
2.9251653e+3, 2.1877584e+2, -754470.44, -773889.06, 99158.85, -0.0048356727, -0.108333886, -664546.7, 131439.77, 0.0, 10.000467, 10.0001745 
2.9250917e+3, 2.2877578e+2, -719586.4, -677751.44, 103935.414, -0.011660031, -0.11632423, -592649.5, 105337.58, 0.0, 9.999913, 10.000427 
2.925018e+3, 2.3877582e+2, -741186.8, -663840.06, 110209.54, -0.0056937723, -0.12020137, -585715.44, 14271.601, 0.0, 9.999206, 10.000192 
2.9249445e+3, 2.4877593e+2, -610319.94, -546001.3, 109875.34, -0.0075618746, -0.097301774, -463675.66, 38311.953, 0.0, 9.999416, 10.000223 
2.92487e+3, 2.5877622e+2, -449960.13, -391195.34, 118722.266, -0.028192436, -0.06699104, -298273.6, 105712.97, 0.0, 9.99972, 10.000473 
2.924795e+3, 2.6877707e+2, -334068.06, -188206.58, 75631.84, -0.017891001, -0.052920565, -156070.36, 149908.08, 0.0, 9.999424, 10.001334 
2.9247203e+3, 2.7877814e+2, -305662.66, -137585.84, 117277.695, 0.05831773, -0.04806387, -77344.98, 130622.49, 0.0, 9.999018, 10.001213 
2.9246446e+3, 2.887789e+2, -56343.727, 130114.914, -3148.3806, -0.027714264, -0.10107624, 130168.06, 240124.78, 0.0, 9.999657, 10.00207 
2.9358324e+3, 1.2885529e+2, -1625009.3, -1749869.0, 8533.555, 0.050392233, -0.0743856, -1624428.8, 52780.48, 0.0, 10.000975, 9.999283 
2.9357582e+3, 1.3885412e+2, -1415826.4, -1570836.4, 26171.348, 0.13161133, -0.09235935, -1411527.0, 167696.77, 0.0, 10.001604, 9.999544 
2.9356822e+3, 1.4885366e+2, -1339645.1, -1411586.6, 37960.074, 0.06836075, -0.110387266, -1323320.0, 157906.77, 0.0, 10.001151, 10.000178 
2.935607e+3, 1.5885343e+2, -1358754.0, -1390096.4, 61585.188, 0.038842596, -0.118406914, -1310877.4, 72349.234, 0.0, 10.000434, 10.000001 
2.9355338e+3, 1.688532e+2, -1231947.1, -1294545.0, 134047.17, 0.01401973, -0.10214902, -1125593.4, 159635.78, 0.0, 10.000709, 9.999847 
2.9354605e+3, 1.7885295e+2, -1086443.1, -1195217.5, 112930.586, -0.014762164, -0.08018239, -1015485.7, 171746.73, 0.0, 10.001123, 9.999659 
2.935387e+3, 1.8885206e+2, -1077770.8, -1166949.5, 60346.68, 0.035608917, -0.08882719, -1047327.25, 41915.668, 0.0, 10.000632, 9.999413 
2.9353136e+3, 1.9885115e+2, -1037907.7, -1035330.4, 47042.3, 0.09534769, -0.10526374, -989559.06, 1694.39, 0.0, 9.999968, 9.999965 
2.9352394e+3, 2.0885178e+2, -847705.06, -786311.56, 82585.664, 0.039001256, -0.072200656, -728902.25, 164343.9, 0.0, 10.000143, 10.0009165 
2.9351652e+3, 2.1885282e+2, -725151.25, -705962.94, 97798.52, -0.037994627, -0.027674852, -617289.06, 177945.63, 0.0, 10.000437, 10.000655 
2.9350916e+3, 2.2885285e+2, -715994.2, -664634.3, 73639.586, -0.0016955811, -0.04646908, -612325.5, 84908.46, 0.0, 9.999889, 10.000528 
2.935018e+3, 2.3885272e+2, -722332.9, -625913.6, 98141.23, 0.058209706, -0.080813795, -564780.3, 34455.06, 0.0, 9.999208, 10.000453 
2.9349437e+3, 2.488531e+2, -565521.56, -458099.1, 126328.266, 0.018697673, -0.07781744, -374537.88, 126694.1, 0.0, 9.9994335, 10.000822 
2.9348692e+3, 2.5885385e+2, -420361.03, -336811.16, 119982.44, -0.060243513, -0.055476934, -251539.14, 151685.75, 0.0, 9.999751, 10.00083 
2.9347938e+3, 2.688545e+2, -333772.63, -191772.3, 59306.348, -0.050256502, -0.07356762, -170261.56, 134956.73, 0.0, 9.999446, 10.001294 
2.934719e+3, 2.7885482e+2, -315666.34, -194562.75, 108801.96, 0.026552808, -0.12666003, -130597.94, 76616.664, 0.0, 9.999159, 10.00076 
2.934644e+3, 2.8885567e+2, -161741.75, -107559.125, 39038.55, -0.056102302, -0.04577539, -87132.57, 22076.25, 0.0, 9.999729, 10.000404 
2.945833e+3, 1.2893045e+2, -1633945.9, -1699167.3, -2850.5435, 0.046857417, -0.07280204, -1633821.5, 42652.266, 0.0, 10.000665, 9.999788 
2.9457593e+3, 1.389297e+2, -1602897.5, -1625273.9, 7091.6523, 0.17014231, -0.09788438, -1600839.3, -22356.578, 0.0, 10.000165, 9.9998665 
2.945683e+3, 1.4892955e+2, -1435283.8, -1470963.4, 8691.912, 0.06698127, -0.08613057, -1433278.9, 47204.645, 0.0, 10.00055, 10.000062 
2.9456073e+3, 1.5892941e+2, -1281597.3, -1360013.5, 23100.334, -0.010416213, -0.072915755, -1275298.3, 107185.66, 0.0, 10.000992, 9.99994 
2.945534e+3, 1.6892904e+2, -1228504.9, -1276426.0, 87663.695, -0.007867841, -0.078257486, -1161586.1, 122900.43, 0.0, 10.000658, 9.999999 
2.945461e+3, 1.7892867e+2, -1224407.3, -1252078.6, 58463.33, 0.0006805422, -0.08466449, -1178164.8, 8325.157, 0.0, 10.0001335, 9.999747 
2.945387e+3, 1.8892789e+2, -1135568.4, -1202672.8, 47428.34, 0.04375386, -0.08139832, -1111024.1, -22524.166, 0.0, 10.000263, 9.999349 
2.9453132e+3, 1.9892718e+2, -951245.6, -990299.44, 88100.32, 0.094495855, -0.07422522, -880534.1, 109975.484, 0.0, 10.000539, 10.000004 
2.9452392e+3, 2.089278e+2, -852824.6, -774458.5, 97396.34, 0.0423616, -0.05432512, -708658.94, 183843.81, 0.0, 10.000039, 10.001052 
2.945165e+3, 2.1892875e+2, -855945.06, -758021.5, 74720.66, -0.032677285, -0.027356226, -717650.0, 76841.72, 0.0, 9.999483, 10.000762 
2.9450908e+3, 2.2892906e+2, -720400.7, -647754.9, 44717.37, -0.015196519, -0.03604157, -626467.06, 70021.086, 0.0, 9.999768, 10.000707 
2.945017e+3, 2.3892917e+2, -582897.5, -539400.44, 76496.74, 0.034051996, -0.063342206, -481620.7, 116866.16, 0.0, 10.000077, 10.000629 
2.944943e+3, 2.4892958e+2, -514253.5, -410747.2, 86066.914, 0.022114769, -0.07815057, -362071.75, 138410.94, 0.0, 9.999682, 10.00103 
2.9448685e+3, 2.5893044e+2, -490591.78, -357208.88, 51328.215, -0.02618815, -0.06611224, -339743.72, 62730.285, 0.0, 9.99921, 10.000953 
2.944793e+3, 2.6893118e+2, -341550.63, -218014.86, -17174.676, -0.04100709, -0.06635903, -215671.58, 88794.88, 0.0, 9.999479, 10.001106 
2.944718e+3, 2.789311e+2, -238035.81, -199014.63, 30624.426, 0.00024418955, -0.13255823, -182213.8, 24253.475, 0.0, 9.999872, 10.000379 
2.9446438e+3, 2.8893226e+2, -137358.94, -138500.39, 34869.39, -0.015601638, 0.019867945, -103055.6, 5405.1875, 0.0, 10.000068, 10.00002 
2.9558343e+3, 1.290056e+2, -1617305.9, -1646391.4, -25317.75, 0.11238591, -0.0554642, -1602651.4, 73087.875, 0.0, 10.000593, 10.000184 
2.9557586e+3, 1.3900536e+2, -1586162.1, -1589910.6, 7298.7246, 0.111484796, -0.068970054, -1580500.9, -2759.3552, 0.0, 10.000164, 10.000109 
2.9556826e+3, 1.4900559e+2, -1447870.5, -1500036.8, 30655.613, 0.0072673503, -0.014422095, -1433703.3, 46036.87, 0.0, 10.000562, 9.999858 
2.9556078e+3, 1.590054e+2, -1296224.0, -1387467.0, 26442.715, -0.033226907, 0.01777553, -1289114.6, 92628.05, 0.0, 10.000978, 9.999758 
2.9555342e+3, 1.6900471e+2, -1226199.9, -1269867.8, 68720.05, -0.0016791979, -0.017187048, -1175928.6, 107819.2, 0.0, 10.000649, 10.000049 
2.9554608e+3, 1.7900409e+2, -1206755.5, -1211233.6, 46626.457, 0.011875222, -0.05907115, -1162314.4, 23437.867, 0.0, 10.000116, 10.000035 
2.955387e+3, 1.8900397e+2, -1091092.1, -1106621.0, 59126.95, 0.024855435, -0.04437928, -1039221.94, 48532.42, 0.0, 10.000248, 10.000015 
2.9553133e+3, 1.9900416e+2, -936713.75, -952109.5, 86187.94, 0.05138104, -0.007215015, -857880.6, 131873.19, 0.0, 10.000504, 10.000283 
2.9552388e+3, 2.0900396e+2, -885146.44, -839313.1, 69277.625, 0.037272032, -0.049273126, -789260.2, 102495.42, 0.0, 10.000029, 10.000612 
2.9551646e+3, 2.1900368e+2, -872752.5, -790095.56, 68288.37, -0.0047973925, -0.10191378, -751603.3, 42153.984, 0.0, 9.999471, 10.000547 
2.9550898e+3, 2.290044e+2, -702263.9, -608551.56, 61945.902, -0.054230202, -0.083811685, -577736.6, 118012.97, 0.0, 9.999762, 10.000978 
2.9550156e+3, 2.3900518e+2, -572786.9, -520387.7, 74992.2, -0.08134834, -0.067761324, -467150.22, 130591.04, 0.0, 10.000084, 10.000757 
2.9549423e+3, 2.4900538e+2, -525734.5, -434480.75, 64552.23, -0.001061698, -0.09755803, -401058.28, 98681.37, 0.0, 9.999681, 10.000869 
2.9548687e+3, 2.59006e+2, -496865.44, -373004.97, 44669.977, 0.0694109, -0.095950365, -358575.78, 43158.23, 0.0, 9.999221, 10.000839 
2.9547927e+3, 2.6900724e+2, -357125.13, -257621.75, 5904.283, 0.0061381105, -0.02662354, -257272.64, 46449.965, 0.0, 9.999511, 10.000819 
2.9547173e+3, 2.790072e+2, -240649.8, -226339.14, 36180.57, -0.04478169, -0.054129947, -196613.14, 9110.555, 0.0, 9.999957, 10.000155 
2.9546446e+3, 2.8900748e+2, -66183.86, -8334.49, 50928.39, 0.060361646, -0.010311614, 21309.918, 129032.445, 0.0, 10.000137, 10.000884 
2.965834e+3, 1.290811e+2, -1622883.4, -1619572.0, 5220.4634, 0.11532538, -0.07441776, -1615751.0, 59248.137, 0.0, 10.000432, 10.0004425 
2.9657575e+3, 1.3908134e+2, -1566975.0, -1600552.3, 33822.38, 0.02074233, -0.04903738, -1546003.8, 30992.53, 0.0, 10.000378, 9.999936 
2.9656827e+3, 1.4908078e+2, -1461705.8, -1561901.9, 49959.406, -0.018515838, -0.032564897, -1441052.5, 37950.484, 0.0, 10.000703, 9.999368 
2.9656088e+3, 1.5908009e+2, -1314874.1, -1416290.4, 22864.697, 0.021844849, -0.013449738, -1309957.5, 71053.43, 0.0, 10.000931, 9.999587 
2.965535e+3, 1.6907932e+2, -1240749.1, -1279848.5, 41455.875, 0.025233643, -0.05251078, -1214464.6, 68552.62, 0.0, 10.000555, 10.00003 
2.9654607e+3, 1.7907867e+2, -1209419.0, -1200748.5, 18600.18, 0.010219246, -0.09421609, -1185985.0, -963.27814, 0.0, 10.000037, 10.000152 
2.965387e+3, 1.890791e+2, -1093308.1, -1052632.0, 35833.46, 0.030563923, -0.06224039, -1031767.2, 55250.543, 0.0, 9.999988, 10.000515 
2.9653132e+3, 1.9907963e+2, -996488.5, -975032.06, 38425.05, 0.056002043, -0.025322951, -945865.7, 43147.44, 0.0, 10.000063, 10.00034 
2.9652384e+3, 2.0907937e+2, -899023.9, -869008.06, 15029.189, 0.031155925, -0.05938802, -862776.5, 28239.65, 0.0, 10.0000305, 10.000409 
2.965164e+3, 2.1907915e+2, -790281.8, -746564.1, 46917.86, -0.0026295925, -0.09761728, -716663.0, 76355.664, 0.0, 10.000019, 10.000584 
2.9650897e+3, 2.290799e+2, -695753.94, -589804.9, 44304.883, -0.046437908, -0.08833578, -573719.9, 121290.13, 0.0, 9.999731, 10.001126 
2.965015e+3, 2.390808e+2, -673950.5, -549100.06, 45944.28, -0.08017591, -0.08009865, -534015.4, 62984.24, 0.0, 9.999293, 10.000948 
2.9649413e+3, 2.4908109e+2, -577161.5, -464343.06, 42464.473, -0.0046799304, -0.10545091, -450146.13, 48850.9, 0.0, 9.999337, 10.000837 
2.9648677e+3, 2.5908163e+2, -450146.94, -372518.28, 42504.637, 0.0760252, -0.10421727, -353772.22, 47220.09, 0.0, 9.999627, 10.000653 
2.9647925e+3, 2.6908255e+2, -269720.56, -267177.78, 11182.39, 0.014733192, -0.030751279, -257194.73, 45789.703, 0.0, 10.000335, 10.000359 
2.9647171e+3, 2.7908218e+2, -123063.23, -187468.9, 11355.952, -0.04474155, -0.052268587, -121119.61, 83869.43, 0.0, 10.000853, 9.999997 
2.9646444e+3, 2.8908208e+2, -145576.31, -6568.4126, -15826.502, 0.07445473, -0.051109467, -4789.284, 102200.12, 0.0, 9.999456, 10.001225 
2.975834e+3, 1.291568e+2, -1669821.4, -1638824.4, -17021.525, 0.0617979, -0.12502395, -1631302.6, 42953.008, 0.0, 10.000097, 10.00047 
2.9757565e+3, 1.3915737e+2, -1601274.0, -1671680.1, 28054.266, -0.09131808, -0.04874457, -1591462.6, -15212.669, 0.0, 10.000381, 9.999445 
2.9756832e+3, 1.4915518e+2, -1488297.6, -1651704.4, 55380.914, -0.016089216, -0.1324567, -1471296.9, 6975.36, 0.0, 10.0008545, 9.998677 
2.9756105e+3, 1.5915366e+2, -1303149.9, -1429761.5, 19074.738, 0.1321039, -0.15086354, -1300338.6, 79949.46, 0.0, 10.001098, 9.999413 
2.9755357e+3, 1.6915298e+2, -1228615.4, -1282391.4, 22865.96, 0.06627023, -0.17048506, -1220207.3, 62086.793, 0.0, 10.000677, 9.999951 
2.9754606e+3, 1.7915255e+2, -1196395.0, -1200757.3, 6085.0522, 0.00010926238, -0.17845656, -1192112.0, -7814.5425, 0.0, 10.000155, 10.0000925 
2.9753867e+3, 1.8915331e+2, -1058812.8, -997578.9, 36793.832, 0.054239985, -0.13358809, -980329.5, 105960.33, 0.0, 10.00006, 10.000857 
2.9753134e+3, 1.991536e+2, -1005425.3, -994242.3, 37467.195, 0.08882757, -0.1310963, -961951.7, 26335.889, 0.0, 10.000067, 10.000207 
2.9752383e+3, 2.091541e+2, -895353.3, -861279.56, 13651.896, 0.023379883, -0.08956396, -856484.6, 33799.754, 0.0, 10.00003, 10.000462 
2.9751635e+3, 2.1915509e+2, -776487.3, -711379.06, 44435.88, -0.022733042, -0.022083709, -688848.5, 103427.414, 0.0, 9.99999, 10.000839 
2.9750896e+3, 2.2915563e+2, -693652.4, -584899.1, 30221.975, 0.0054965117, -0.046719875, -577064.94, 117203.65, 0.0, 9.999727, 10.0011635 
2.975015e+3, 2.3915617e+2, -658929.8, -516524.44, 34898.87, 0.024317255, -0.08890974, -508431.78, 87828.79, 0.0, 9.999287, 10.001175 
2.9749405e+3, 2.4915679e+2, -571156.94, -453979.94, 51923.95, 0.0050537027, -0.0964559, -434282.34, 63971.83, 0.0, 9.999347, 10.000902 
2.9748663e+3, 2.591574e+2, -462330.28, -406028.06, 60046.727, -0.01930095, -0.085963756, -367861.03, 32387.445, 0.0, 9.999662, 10.000406 
2.974792e+3, 2.691571e+2, -305800.78, -351907.06, 42952.55, -0.023237111, -0.08508981, -280105.9, 22146.428, 0.0, 10.000375, 9.999759 
2.9747182e+3, 2.7915612e+2, -119906.305, -194296.64, -5797.1455, -0.01482389, -0.12838368, -119457.25, 84805.766, 0.0, 10.000925, 9.999911 
2.974643e+3, 2.8915638e+2, -176822.34, -70186.6, -74960.64, 0.031231044, -0.091407664, -31515.922, 74742.914, 0.0, 9.999478, 10.000766 
2.9858333e+3, 1.2923217e+2, -1851998.8, -1765868.6, -40508.45, 0.09333168, -0.043810755, -1749810.6, -76293.94, 0.0, 9.998996, 10.00015 
2.985758e+3, 1.3923188e+2, -1654219.4, -1657141.8, -47074.285, 0.05377432, -0.03934629, -1608583.6, -33063.3, 0.0, 9.99985, 9.999802 
2.9856834e+3, 1.4923187e+2, -1456780.1, -1533973.0, 87613.06, -0.060721837, 0.018703584, -1399638.8, 77881.43, 0.0, 10.000645, 9.99958 
2.9856095e+3, 1.5923071e+2, -1308287.5, -1395691.4, 83696.61, -0.04845792, -0.034683447, -1257570.3, 121961.22, 0.0, 10.0009365, 9.999708 
2.985536e+3, 1.692303e+2, -1148824.8, -1257908.5, 89080.52, 0.015494795, -0.023106113, -1098914.9, 182620.98, 0.0, 10.00132, 9.999793 
2.9854614e+3, 1.7922994e+2, -926353.2, -1082077.3, 78786.0, 0.0070796395, -0.011983635, -893446.4, 290093.34, 0.0, 10.00209, 9.99996 
2.9853866e+3, 1.8922941e+2, -943078.06, -1002112.44, 37084.945, -0.021486586, -0.053380392, -925197.4, 160347.81, 0.0, 10.001137, 10.0002985 
2.9853123e+3, 1.9922967e+2, -985073.75, -962782.6, 34607.656, -0.00926573, -0.027303986, -937570.06, 49972.76, 0.0, 10.000125, 10.000392 
2.9852372e+3, 2.0923026e+2, -870500.44, -818223.75, 32549.494, -0.04455053, -0.002830585, -802616.6, 86921.87, 0.0, 10.000067, 10.000742 
2.985162e+3, 2.1923065e+2, -828841.56, -744386.94, 46866.004, -0.115420625, -0.0064968974, -723530.44, 68005.37, 0.0, 9.999658, 10.000777 
2.9850885e+3, 2.292309e+2, -687403.4, -591176.9, 31375.377, -0.039662734, -0.05120508, -581850.6, 111680.58, 0.0, 9.999812, 10.001079 
2.9850152e+3, 2.3923117e+2, -509661.84, -475833.5, 12863.964, 0.07072833, -0.1018209, -471497.47, 124028.24, 0.0, 10.000448, 10.000895 
2.98494e+3, 2.4923171e+2, -455710.3, -433284.34, -8845.912, 0.022906678, -0.08924954, -430215.16, 67305.484, 0.0, 10.000289, 10.000591 
2.9848656e+3, 2.5923225e+2, -425448.13, -394561.13, -5366.0884, -0.051519483, -0.060562707, -393655.4, 5860.6157, 0.0, 9.999935, 10.0003605 
2.9847923e+3, 2.692319e+2, -352949.97, -343499.34, 39006.81, -0.0147971315, -0.09047633, -308932.7, -7412.7847, 0.0, 9.999899, 10.00006 
2.9847187e+3, 2.7923128e+2, -233939.64, -194942.25, 22417.328, 0.023728382, -0.13139744, -184730.08, 18795.43, 0.0, 9.999904, 10.000429 
2.9846418e+3, 2.8923136e+2, -158259.63, -94203.5, -47520.594, -0.010395273, -0.13422257, -68925.336, 36596.652, 0.0, 9.999681, 10.000592 
2.99583e+3, 1.293051e+2, -1685862.5, -1707831.6, 124910.74, -0.15277444, -0.0704017, -1571454.3, 101347.91, 0.0, 10.000271, 9.999912 
2.995759e+3, 1.3930397e+2, -1559682.1, -1487980.6, -34373.52, 0.20593971, -0.17398806, -1474164.3, 100651.18, 0.0, 9.99997, 10.000902 
2.995687e+3, 1.4930627e+2, -1453278.4, -1312450.1, -55431.51, 0.3037669, -0.06374297, -1293249.5, 183542.42, 0.0, 9.999667, 10.001596 
2.9956096e+3, 1.5930761e+2, -1471599.8, -1425449.4, -222431.94, -0.089863054, -0.013654486, -1224898.9, 153878.27, 0.0, 9.999528, 10.000221 
2.9955357e+3, 1.6930544e+2, -1444852.3, -1439862.1, -103528.74, -0.0910046, -0.18018897, -1338798.4, -57998.29, 0.0, 9.999374, 9.999521 
2.9954636e+3, 1.7930713e+2, -1393557.9, -1353447.4, -66369.89, 0.055354904, 0.039248966, -1304168.9, -121383.125, 0.0, 9.998998, 9.999629 
2.9953888e+3, 1.893049e+2, -1151708.0, -1258458.0, -64684.223, 0.12973203, -0.07235456, -1121220.4, -36412.457, 0.0, 10.000308, 9.998969 
2.9953116e+3, 1.9930431e+2, -957083.1, -924468.3, -11433.234, -0.06092704, -0.08200003, -920859.6, 65954.164, 0.0, 10.000162, 10.000659 
2.995237e+3, 2.0930545e+2, -998830.56, -837441.75, 4476.0127, -0.047000814, -0.041693326, -837317.7, 51484.67, 0.0, 9.998979, 10.0011425 
2.995162e+3, 2.1930575e+2, -911546.7, -831494.7, -4391.9375, -0.05624217, -0.053998884, -831254.44, -40455.457, 0.0, 9.999291, 10.000355 
2.9950884e+3, 2.2930647e+2, -729062.56, -633579.06, 4544.312, -0.018081319, -0.023626495, -633363.25, 59426.96, 0.0, 9.999625, 10.0008745 
2.9950157e+3, 2.393059e+2, -546631.75, -580604.56, 17421.258, 0.098528475, -0.109235816, -539286.3, 55507.848, 0.0, 10.000571, 10.000112 
2.9949406e+3, 2.4930589e+2, -499306.2, -523979.6, -23508.514, 0.05122372, -0.08361553, -485093.97, 11701.84, 0.0, 10.000294, 9.999959 
2.9948655e+3, 2.5930625e+2, -416738.44, -376490.34, -12064.309, -0.017279489, -0.027957309, -373151.13, 25643.178, 0.0, 9.999927, 10.000492 
2.9947922e+3, 2.693069e+2, -265559.16, -172098.88, 45540.004, 0.030992087, -0.045823492, -153578.73, 147208.05, 0.0, 9.999927, 10.001232 
2.9947186e+3, 2.7930772e+2, -173035.7, -37241.363, 13767.701, 0.042922568, -0.06986945, -35859.566, 166916.89, 0.0, 9.999818, 10.00153 
2.9946402e+3, 2.893085e+2, -136350.25, 3456.4338, -21142.125, -0.08763047, -0.091730826, 6583.679, 111348.34, 0.0, 9.999526, 10.00131 
