coord_x,coord_y,stress_xx,stress_yy,tau_xy,velocity_x,velocity_y,stress_1,eps,damage,lx,ly
5.002718e+0, 1.2353483e+2, -1123674.5, -1552271.5, 23862.236, 0.04233148, 0.15322937, -1122350.1, 606991.44, 0.00141431, 10.004546, 9.998922 
5.0018895e+0, 1.3352855e+2, -1249466.0, -1753834.0, -11681.492, -0.004893332, -0.23265892, -1249195.6, 382202.0, 0.000850591, 10.003853, 9.997193 
5.001408e+0, 1.4352405e+2, -1119154.6, -1453628.8, -19475.9, -0.023814755, -0.4713189, -1118024.4, 415413.2, 0.00039082466, 10.003271, 9.998857 
5.0014436e+0, 1.5352406e+2, -1063099.4, -1355891.5, -8003.044, -0.0015828406, -0.3973399, -1062880.8, 372553.34, 0.00011897274, 10.002896, 9.999036 
5.001318e+0, 1.6352443e+2, -1032769.8, -1276613.4, -7916.5186, 0.012392384, -0.26833552, -1032513.06, 304917.1, 0.000016044252, 10.002372, 9.999163 
5.000959e+0, 1.7352465e+2, -1056554.8, -1244858.9, -28719.584, 0.01635523, -0.17937507, -1052271.9, 187160.36, 0.00000013955699, 10.00157, 9.999093 
5.0006175e+0, 1.8352391e+2, -1065966.8, -1237402.5, -8529.056, 0.010448317, -0.1451329, -1065543.5, 75899.86, 0.0, 10.001005, 9.998743 
5.000299e+0, 1.9352171e+2, -1005063.8, -1176541.8, 39781.984, -0.012620778, -0.24642737, -996284.1, 47183.836, 0.0, 10.000833, 9.998573 
5.0001514e+0, 2.0352061e+2, -866266.7, -945694.75, 72559.07, -0.017038371, -0.2537938, -823264.2, 122217.22, 0.0, 10.0006275, 9.99958 
5.000304e+0, 2.1352135e+2, -799376.5, -852592.56, 66199.61, 0.0110419905, -0.16917945, -754637.7, 92838.5, 0.0, 10.000369, 9.999672 
5.0001293e+0, 2.2352172e+2, -760016.2, -778184.2, 64612.203, 0.014518169, -0.098428994, -703852.56, 45621.273, 0.0, 9.999949, 9.999711 
4.9993843e+0, 2.335214e+2, -768657.2, -743989.3, 73680.25, -0.025783096, -0.118178494, -681617.75, -30140.709, 0.0, 9.999267, 9.999605 
4.9990696e+0, 2.4352081e+2, -715833.7, -627426.3, 82208.36, -0.03274912, -0.15147468, -578290.94, -24808.662, 0.0, 9.998779, 9.999969 
4.9995166e+0, 2.5351948e+2, -641658.5, -549416.4, 45108.45, 0.018282773, -0.29995131, -531024.5, -75531.27, 0.0, 9.9986515, 9.999893 
4.999593e+0, 2.6351902e+2, -530137.8, -374802.66, 10490.03, 0.03624738, -0.35845262, -374097.44, -16602.021, 0.000000019594776, 9.998446, 10.000514 
4.9989992e+0, 2.7352068e+2, -481106.8, -295618.5, -27372.438, -0.0054540574, -0.26861987, -291663.47, -32187.355, 0.00000061394036, 9.998089, 10.000558 
4.998619e+0, 2.8352207e+2, -590495.2, -515331.84, -14492.233, -0.019431733, -0.103755414, -512634.4, -351170.47, 0.000004739669, 9.997607, 9.998605 
4.99858e+0, 2.9352114e+2, -634377.3, -543052.06, 88373.41, 0.0133206425, -0.03839601, -489241.38, -425760.1, 0.00003407196, 9.996874, 9.998097 
4.9985018e+0, 3.0351716e+2, -475925.7, -239708.55, 151557.06, 0.011597012, -0.31067887, -165673.48, -165673.48, 0.00018243087, 9.996756, 9.999907 
4.9983454e+0, 3.1351998e+2, -30541.7, 444163.03, 47588.67, -0.056184817, -0.08717263, 448886.72, 448886.72, 0.0005320596, 9.997773, 10.004121 
1.5008138e+1, 1.23530135e+2, -1189638.5, -1670609.8, -14595.066, 0.12585555, -0.4131934, -1189196.0, 540179.0, 0.0013832492, 10.0044775, 9.998147 
1.5005653e+1, 1.3352837e+2, -1310505.1, -1871736.5, -34823.176, -0.016286628, -0.25599274, -1308352.6, 323045.53, 0.0008303754, 10.003827, 9.996401 
1.5004236e+1, 1.4352643e+2, -1106484.5, -1420089.5, -37011.793, -0.06978453, -0.20341186, -1102175.5, 431244.16, 0.00037924486, 10.0032425, 9.999106 
1.5004314e+1, 1.535259e+2, -1037019.1, -1292821.8, -17367.12, -0.006322143, -0.21508993, -1035845.4, 399574.3, 0.000113649534, 10.002862, 9.999489 
1.5003978e+1, 1.6352506e+2, -1059844.0, -1324614.3, -38221.47, 0.03963674, -0.22156149, -1054436.9, 282989.72, 0.000014715262, 10.002338, 9.998855 
1.5002881e+1, 1.7352328e+2, -1090913.8, -1306983.1, -55892.965, 0.048854753, -0.2829777, -1077311.6, 162137.23, 0.00000010097208, 10.0015335, 9.998688 
1.5001842e+1, 1.8352242e+2, -997368.7, -1082147.3, -20206.979, 0.030875193, -0.28323597, -992798.7, 148661.1, 0.0, 10.0009575, 9.999832 
1.5000887e+1, 1.935233e+2, -915681.8, -978850.8, 37108.848, -0.03896748, -0.20527394, -898535.94, 144914.28, 0.0, 10.000786, 9.999952 
1.5000454e+1, 2.0352371e+2, -862138.3, -926467.6, 60998.457, -0.051361494, -0.14829277, -825343.75, 120102.86, 0.0, 10.0005865, 9.999735 
1.5000911e+1, 2.135233e+2, -812210.75, -865977.44, 60602.594, 0.033198677, -0.16560695, -772796.4, 74657.21, 0.0, 10.000317, 9.999608 
1.5000376e+1, 2.235231e+2, -744361.8, -731785.6, 38798.07, 0.042679146, -0.16323732, -698769.4, 50687.496, 0.0, 9.999897, 10.000056 
1.4998144e+1, 2.3352341e+2, -746618.5, -684103.8, 51393.816, -0.077671215, -0.152129, -655208.5, -3755.953, 0.0, 9.999213, 10.000043 
1.4997214e+1, 2.4352358e+2, -775444.94, -741119.44, 71526.2, -0.09778816, -0.09962201, -684725.75, -131274.61, 0.0, 9.998738, 9.999213 
1.4998557e+1, 2.5352338e+2, -711030.25, -681480.0, 43471.008, 0.055340283, -0.038150437, -650341.8, -194885.13, 0.0, 9.998601, 9.999016 
1.4998777e+1, 2.635226e+2, -595579.0, -500970.34, -4464.957, 0.10844691, -0.046138357, -500760.1, -143293.58, 0.0000000045160005, 9.998408, 9.999671 
1.499701e+1, 2.7352136e+2, -550031.0, -427703.47, -38030.1, -0.01582588, -0.1492837, -416844.38, -157366.52, 0.00000044568839, 9.998043, 9.999678 
1.4995842e+1, 2.8352186e+2, -435201.2, -179764.78, -41496.84, -0.059085105, -0.120869525, -173192.52, -11722.027, 0.000003862279, 9.997558, 10.000936 
1.499574e+1, 2.9352382e+2, -433966.06, -114491.03, 65172.055, 0.0394059, -0.04861784, -101707.625, -38262.668, 0.000030142082, 9.996822, 10.001069 
1.49955e+1, 3.0352062e+2, -618013.5, -522794.13, 178690.4, 0.034572985, -0.33091787, -385479.7, -385479.7, 0.0001696507, 9.996717, 9.997985 
1.4995004e+1, 3.135206e+2, -261216.31, -10521.646, 98117.01, -0.1720318, -0.10722479, 23312.994, 23312.994, 0.00050278765, 9.997683, 10.0010395 
2.5013065e+1, 1.2352977e+2, -1180177.6, -1652437.1, -12613.539, 0.17283249, -0.56437457, -1179841.0, 549536.3, 0.0013394254, 10.004499, 9.998252 
2.5010055e+1, 1.3352987e+2, -1278560.4, -1843986.1, 29153.139, 0.03496007, -0.23424438, -1277061.1, 354322.47, 0.0008013017, 10.003998, 9.99651 
2.5008124e+1, 1.4352871e+2, -1085298.6, -1423047.4, 70487.49, -0.013776418, -0.104668684, -1071178.3, 462220.6, 0.00036252377, 10.003449, 9.9989805 
2.5007772e+1, 1.5352729e+2, -1048165.5, -1320115.9, 44554.414, 0.053744745, -0.19406608, -1041052.06, 394356.6, 0.0001060576, 10.002883, 9.999287 
2.5006706e+1, 1.6352588e+2, -1069376.5, -1318755.9, 8461.714, 0.08520418, -0.24676673, -1069089.8, 268331.2, 0.000012859101, 10.00224, 9.998933 
2.5004393e+1, 1.7352426e+2, -1099123.1, -1298197.8, 25351.803, 0.053635344, -0.30443978, -1095945.3, 143494.53, 0.00000006033416, 10.0014305, 9.998793 
2.5002706e+1, 1.8352368e+2, -951915.6, -1007743.3, 101052.18, 0.018610701, -0.30336884, -874992.8, 266453.53, 0.0, 10.0010395, 10.000302 
2.500215e+1, 1.9352506e+2, -795771.3, -861750.1, 98839.85, -0.018755453, -0.23214208, -724560.8, 318869.06, 0.0, 10.001352, 10.000481 
2.5001508e+1, 2.0352566e+2, -792349.7, -917516.9, 58039.652, -0.033091396, -0.17463143, -769579.25, 175844.05, 0.0, 10.001171, 9.999514 
2.500066e+1, 2.1352495e+2, -875695.9, -937346.44, 26927.924, -0.00940434, -0.19126882, -865590.56, -18156.05, 0.0, 10.000056, 9.999243 
2.4999556e+1, 2.2352447e+2, -799630.06, -755864.2, 11374.113, -0.008084961, -0.19843195, -753084.75, -3643.571, 0.0, 9.999496, 10.000085 
2.4998079e+1, 2.3352458e+2, -637694.9, -623600.0, 2577.5562, -0.03955002, -0.21719429, -623143.44, 28294.178, 0.0, 9.99992, 10.000117 
2.4997191e+1, 2.4352482e+2, -621163.3, -698027.3, 24491.61, -0.032727994, -0.15085185, -614022.75, -60587.297, 0.0, 9.999939, 9.998921 
2.4997276e+1, 2.5352508e+2, -644750.75, -689639.6, 33416.395, 0.036624715, -0.010431125, -626940.94, -171503.17, 0.0, 9.999236, 9.998645 
2.4996716e+1, 2.6352423e+2, -641459.06, -565119.06, 16733.916, 0.06894431, 0.014031182, -561612.06, -204162.75, 0.00000000030772893, 9.998281, 9.999286 
2.4995054e+1, 2.7352202e+2, -742829.0, -564740.6, 13976.6045, 0.041640792, -0.15069194, -563650.4, -304179.2, 0.00000033210142, 9.996917, 9.999273 
2.4993762e+1, 2.83522e+2, -549468.3, -179399.25, 18893.164, 0.030764563, -0.17015596, -178437.2, -16969.523, 0.0000031221457, 9.996526, 10.001437 
2.4993107e+1, 2.9352447e+2, -252769.72, 49474.086, -38252.266, 0.04951951, -0.11556254, 54240.17, 117672.97, 0.000025684236, 9.997739, 10.001753 
2.4992444e+1, 3.035219e+2, -502711.84, -445849.2, 14181.658, 0.023180235, -0.3861149, -442508.5, -442508.5, 0.0001534223, 9.997424, 9.998172 
2.4991839e+1, 3.1352198e+2, -768642.75, -307222.53, 130202.195, -0.091526255, -0.15965623, -273018.0, -273018.0, 0.00046499635, 9.994436, 10.000563 
3.5017377e+1, 1.2353361e+2, -1114043.9, -1509766.9, -39587.84, 0.13520508, -0.32293832, -1110122.4, 619227.3, 0.0012830369, 10.004482, 9.99924 
3.5014984e+1, 1.3353308e+2, -1198326.3, -1676495.1, 12534.801, 0.11853763, -0.16329455, -1197997.9, 433356.06, 0.0007630368, 10.004003, 9.997654 
3.5012993e+1, 1.4353089e+2, -1119994.9, -1491006.6, 45714.938, 0.11860883, -0.18336421, -1114445.0, 418930.53, 0.00034052675, 10.003434, 9.998522 
3.5011718e+1, 1.5352821e+2, -1102609.3, -1425102.9, 26810.383, 0.14909764, -0.3251272, -1100395.6, 335005.28, 0.00009623152, 10.002857, 9.998575 
3.500943e+1, 1.6352691e+2, -1036275.44, -1248010.8, -23809.943, 0.123824485, -0.34747732, -1033631.0, 303781.84, 0.000010539653, 10.002229, 9.999425 
3.500538e+1, 1.7352757e+2, -1050646.8, -1195971.0, -2686.0154, 0.00016232123, -0.24480581, -1050597.1, 188808.61, 0.000000028001644, 10.001426, 9.9994955 
3.5003144e+1, 1.8352768e+2, -961327.44, -1023547.0, 104790.87, -0.0495203, -0.21135627, -883125.94, 258277.19, 0.0, 10.001023, 10.000202 
3.5004026e+1, 1.9352697e+2, -818210.5, -899610.8, 114675.47, 0.023594784, -0.32190824, -737226.8, 306180.13, 0.0, 10.001315, 10.00024 
3.500324e+1, 2.0352647e+2, -838189.6, -1000085.1, 19772.867, 0.015807103, -0.33871508, -835809.7, 109602.055, 0.0, 10.001122, 9.998969 
3.4999442e+1, 2.1352626e+2, -924199.5, -1024158.06, -12550.751, -0.14392775, -0.24347946, -922647.7, -75228.305, 0.0, 10.000001, 9.9986725 
3.4997585e+1, 2.2352576e+2, -821248.2, -787548.44, 16495.59, -0.16246068, -0.2110826, -780818.1, -31391.248, 0.0, 9.999443, 9.999893 
3.499912e+1, 2.3352495e+2, -652867.25, -642656.6, 22878.623, 0.06502765, -0.30762002, -624320.6, 27111.455, 0.0, 9.999867, 10.000013 
3.4998932e+1, 2.4352452e+2, -612692.25, -671715.9, 864.0965, 0.13984275, -0.31069028, -612679.6, -59244.51, 0.0, 9.999902, 9.999122 
3.499562e+1, 2.5352457e+2, -634814.94, -658334.3, 8522.052, -0.0621516, -0.21165484, -632051.7, -176615.23, 0.0, 9.999189, 9.998883 
3.4993362e+1, 2.6352394e+2, -636596.9, -547664.7, -34805.074, -0.1025202, -0.18501861, -535662.8, -178218.81, 0.00000000006499392, 9.99825, 9.99942 
3.4993017e+1, 2.7352265e+2, -738460.06, -544361.06, -34576.473, 0.13780743, -0.27253416, -538385.6, -278929.06, 0.00000028362408, 9.996869, 9.999436 
3.499229e+1, 2.8352252e+2, -643742.5, -364722.06, 48388.01, 0.22412317, -0.25717878, -356568.8, -195112.95, 0.0000026203563, 9.996487, 10.000183 
3.4990597e+1, 2.9352313e+2, -362757.0, -169366.5, 10823.626, 0.016657645, -0.23479019, -168762.61, -105317.69, 0.000020827198, 9.997699, 10.000269 
3.4989274e+1, 3.0352095e+2, -341813.53, -105841.95, -78110.75, -0.04139539, -0.48951852, -82328.84, -82328.84, 0.0001336939, 9.997398, 10.00052 
3.498874e+1, 3.135241e+2, -620648.6, 8937.814, 23016.004, 0.13941729, -0.23487505, 9778.097, 9778.097, 0.000419702, 9.994393, 10.002756 
4.5022538e+1, 1.23539254e+2, -900551.7, -1401643.9, 142713.86, 0.13915528, -0.17554925, -862756.7, 866540.9, 0.0012168303, 10.005918, 9.999301 
4.5019454e+1, 1.3353726e+2, -1100657.3, -1618741.6, 107229.69, 0.13946466, -0.17015369, -1079340.6, 551971.44, 0.0007171898, 10.004621, 9.997761 
4.5016834e+1, 1.4353423e+2, -1104746.0, -1527838.1, 123205.76, 0.14879148, -0.26291388, -1071483.1, 461857.6, 0.0003141771, 10.003731, 9.998131 
4.5014998e+1, 1.5353204e+2, -1031651.94, -1448104.5, 115548.46, 0.15973118, -0.3062379, -1001740.4, 433624.2, 0.000084591054, 10.003581, 9.998078 
4.5012128e+1, 1.6353092e+2, -876170.4, -1170047.3, 57958.063, 0.11915827, -0.2823052, -865153.0, 472222.88, 0.000007991499, 10.003325, 9.999434 
4.5007503e+1, 1.7353117e+2, -831826.44, -1080559.9, 25974.89, -0.0007072548, -0.22820863, -829142.9, 410226.94, 0.000000008983813, 10.002882, 9.99959 
4.500486e+1, 1.8353076e+2, -830121.7, -1043269.1, 101726.51, -0.040825114, -0.22063695, -789365.06, 352006.6, 0.0, 10.002283, 9.999463 
4.5005557e+1, 1.935294e+2, -874372.06, -1025674.44, 60021.496, 0.04725937, -0.3079052, -853453.7, 189931.64, 0.0, 10.001356, 9.999358 
4.5004427e+1, 2.0352851e+2, -868154.56, -988230.44, -37228.72, 0.042171538, -0.32405758, -857548.8, 87845.9, 0.0, 10.0008, 9.9992075 
4.500013e+1, 2.1352835e+2, -770655.7, -902072.6, -1089.2184, -0.11391306, -0.26482114, -770646.6, 76750.56, 0.0, 10.000844, 9.999105 
4.4997996e+1, 2.2352779e+2, -681843.2, -790700.8, 82176.27, -0.12572318, -0.23578142, -637705.1, 111698.86, 0.0, 10.0007105, 9.999258 
4.4999635e+1, 2.3352669e+2, -652296.94, -732030.2, 35091.434, 0.112905785, -0.28146866, -639052.75, 12363.601, 0.0, 10.000264, 9.999205 
4.49991e+1, 2.4352592e+2, -622166.4, -631281.0, -29609.83, 0.18211557, -0.2891424, -596765.2, -43341.367, 0.0, 9.999646, 9.999522 
4.4994733e+1, 2.5352558e+2, -653532.2, -600891.1, -4565.0957, -0.046173245, -0.28806826, -600498.2, -145073.67, 0.0, 9.998775, 9.99948 
4.4991603e+1, 2.635248e+2, -606785.75, -526136.0, -15788.031, -0.10936094, -0.30939415, -523155.5, -165725.63, 0.00000000016705606, 9.998425, 9.999485 
4.4990844e+1, 2.735239e+2, -431909.5, -400338.88, -30747.941, 0.13099848, -0.356947, -381561.03, -122122.88, 0.00000025695456, 9.998988, 9.999408 
4.4989967e+1, 2.8352368e+2, -410640.97, -356972.47, 59101.74, 0.24337159, -0.3095068, -318898.38, -157458.77, 0.0000021581377, 9.998544, 9.999244 
4.498859e+1, 2.9352355e+2, -624272.06, -417210.03, 44938.18, 0.11208933, -0.2521894, -407877.8, -344436.9, 0.000016077325, 9.996432, 9.999179 
4.4986838e+1, 3.035214e+2, -533010.5, -102671.055, -78392.77, 0.06531512, -0.47921258, -88835.45, -88835.45, 0.00011232623, 9.995668, 10.00138 
4.4984588e+1, 3.135247e+2, -212968.02, 244869.77, -124531.91, 0.15933979, -0.3230419, 276550.28, 276550.28, 0.00037058155, 9.99701, 10.003124 
5.502819e+1, 1.2354674e+2, -952540.6, -1525465.9, 85437.12, 0.08521042, -0.112505, -940071.3, 789149.06, 0.0011433244, 10.0059805, 9.99842 
5.502334e+1, 1.3354252e+2, -1157056.1, -1744896.1, 60073.297, 0.05206514, -0.24579231, -1150979.9, 480277.5, 0.0006662655, 10.004659, 9.996876 
5.5019504e+1, 1.435388e+2, -1126681.4, -1580216.6, 109800.51, 0.02940087, -0.33893707, -1101497.3, 431796.63, 0.0002850591, 10.003757, 9.997758 
5.5017406e+1, 1.535388e+2, -1047453.3, -1486215.4, 114760.58, 0.027524328, -0.13729839, -1019250.0, 416049.72, 0.000071885835, 10.003605, 9.997804 
5.5014604e+1, 1.6353792e+2, -910776.44, -1242955.6, 38655.406, 0.023467116, -0.050964445, -906337.44, 430972.28, 0.0000055425044, 10.003331, 9.998932 
5.501065e+1, 1.7353508e+2, -871430.2, -1159383.0, 11469.637, 0.015426787, -0.2526524, -870974.06, 368357.56, 0.00000000116644, 10.002871, 9.999053 
5.5007726e+1, 1.8353295e+2, -928780.2, -1245073.6, 66317.414, 0.008329556, -0.32666358, -915438.2, 225913.25, 0.0, 10.00227, 9.998084 
5.500655e+1, 1.9353232e+2, -981202.44, -1246974.5, 27730.24, -0.00084893376, -0.19105563, -978339.94, 65025.32, 0.0, 10.001356, 9.997838 
5.500494e+1, 2.0353176e+2, -797451.5, -838129.75, -43999.086, 0.0046858373, -0.1319319, -769318.0, 176054.23, 0.0, 10.000785, 10.000245 
5.5002606e+1, 2.1353123e+2, -672558.56, -692622.6, 3751.317, 0.039105292, -0.25423822, -671880.1, 175487.8, 0.0, 10.000818, 10.000556 
5.5000675e+1, 2.2353056e+2, -759952.4, -946988.6, 64843.887, 0.06072833, -0.27348164, -739670.8, 9701.465, 0.0, 10.000685, 9.998196 
5.4999495e+1, 2.3352982e+2, -763606.8, -954880.4, 19801.291, 0.063032195, -0.13794167, -761578.44, -110188.07, 0.0, 10.000229, 9.997691 
5.499756e+1, 2.4352904e+2, -586058.9, -546496.4, -62984.367, 0.054771364, -0.08531725, -500260.0, 53141.5, 0.0, 9.999607, 10.000121 
5.4994375e+1, 2.535281e+2, -593123.5, -463370.56, -34576.688, 0.03153583, -0.2405641, -454731.7, 670.05725, 0.0, 9.998725, 10.000446 
5.499129e+1, 2.635269e+2, -610623.3, -531043.6, -5369.6855, 0.008477305, -0.3598456, -530682.94, -173276.05, 0.00000000012003064, 9.998408, 9.999461 
5.498844e+1, 2.735258e+2, -451104.1, -431049.4, -7266.9243, -0.016898602, -0.4059079, -428693.06, -169277.22, 0.00000017731924, 9.998948, 9.999216 
5.498674e+1, 2.8352556e+2, -460200.7, -454047.3, -10738.861, 0.057788234, -0.32665196, -445953.1, -284534.2, 0.0000014062957, 9.998519, 9.9985895 
5.498695e+1, 2.9352567e+2, -680442.25, -520660.47, -31157.418, 0.29567364, -0.16941608, -514799.75, -451378.66, 0.00001153016, 9.996377, 9.998494 
5.498501e+1, 3.0352327e+2, -579505.4, -191041.19, -45805.15, 0.30852804, -0.35808, -185713.22, -185713.22, 0.000091940805, 9.995634, 10.00079 
5.4979086e+1, 3.135236e+2, -317188.75, 37630.332, -63763.125, -0.11152759, -0.43621328, 48741.035, 48741.035, 0.00032222702, 9.996971, 10.001717 
6.503253e+1, 1.235511e+2, -1337044.0, -1730273.6, -75661.95, 0.056274142, -0.1528091, -1322988.3, 406188.06, 0.0010659134, 10.003428, 9.998239 
6.5027505e+1, 1.335472e+2, -1203365.9, -1773672.8, -53610.12, 0.02073027, -0.24651715, -1198370.1, 432840.84, 0.00061331526, 10.004366, 9.996817 
6.502327e+1, 1.435435e+2, -1055220.9, -1557415.1, 26070.08, 0.0057949815, -0.3309866, -1053871.1, 479376.75, 0.00025505535, 10.004301, 9.997652 
6.502037e+1, 1.5354349e+2, -1191039.8, -1566648.4, 35607.016, 0.013194426, -0.11860559, -1187694.0, 247560.22, 0.00005932674, 10.00267, 9.9977 
6.5017265e+1, 1.635424e+2, -1138552.5, -1397759.0, 11715.005, 0.027854504, -0.031055216, -1138024.1, 199242.84, 0.0000034805446, 10.001956, 9.998532 
6.5013796e+1, 1.7353898e+2, -916117.8, -1232775.3, -7339.2134, 0.050026372, -0.2461431, -915947.8, 323347.5, 0.00000000000024211628, 10.002783, 9.998593 
6.5010744e+1, 1.8353657e+2, -831831.25, -1215431.9, 62193.98, 0.049015578, -0.3155169, -821999.6, 319318.7, 0.0, 10.003014, 9.997927 
6.500844e+1, 1.9353613e+2, -872297.7, -1205274.4, 116955.38, 0.014591181, -0.15002057, -835323.7, 208006.36, 0.0, 10.002151, 9.997741 
6.50062e+1, 2.0353553e+2, -686269.06, -781310.44, 104174.07, 0.016860688, -0.09025061, -619288.9, 326047.7, 0.0, 10.001533, 10.000277 
6.5004075e+1, 2.1353461e+2, -595924.3, -647421.6, 46802.86, 0.0824481, -0.2568682, -568254.8, 279079.72, 0.0, 10.001309, 10.000629 
6.500167e+1, 2.2353372e+2, -781631.8, -968606.0, 52208.363, 0.09984307, -0.2968403, -768041.56, -18701.703, 0.0, 10.00058, 9.998104 
6.4998835e+1, 2.3353305e+2, -957987.5, -1061306.6, 96893.086, 0.04028676, -0.14162673, -899842.75, -248485.64, 0.0, 9.998944, 9.997586 
6.499622e+1, 2.4353226e+2, -785493.8, -652570.94, 93074.95, 0.030156996, -0.08045695, -604664.25, -51295.94, 0.0, 9.998266, 10.000049 
6.4994097e+1, 2.5353125e+2, -523088.25, -436843.63, 46860.902, 0.10869427, -0.23439331, -416283.3, 39085.973, 0.0, 9.99923, 10.000392 
6.499129e+1, 2.6353005e+2, -461484.0, -482098.28, 24096.111, 0.11232683, -0.33940974, -445583.16, -88208.23, 0.00000000000043891748, 9.999534, 9.999254 
6.4987284e+1, 2.7352896e+2, -502520.13, -483694.5, 10819.216, -0.0128261065, -0.363169, -478766.6, -219380.89, 0.00000007111923, 9.998714, 9.998966 
6.4984643e+1, 2.835285e+2, -495117.28, -440791.47, 8364.433, 0.018412147, -0.2990109, -439532.78, -278142.03, 0.0000006300397, 9.998145, 9.998863 
6.4984375e+1, 2.935285e+2, -419853.38, -350396.88, 58525.867, 0.32507744, -0.19405635, -317071.25, -253679.33, 0.000007787418, 9.99797, 9.998897 
6.498211e+1, 3.0352673e+2, -349431.4, -161589.84, 136668.34, 0.36200204, -0.31728902, -89681.34, -89681.34, 0.0000752456, 9.997566, 10.000055 
6.49759e+1, 3.1352645e+2, -471670.13, -213588.3, 86997.305, -0.107675456, -0.35169864, -187001.17, -187001.17, 0.00028007472, 9.996673, 10.000133 
7.503528e+1, 1.2355234e+2, -1288223.5, -1642804.8, -53605.863, -0.03586253, -0.29468852, -1280296.5, 448868.72, 0.0009896588, 10.003489, 9.998808 
7.5031763e+1, 1.3355128e+2, -1147948.0, -1667198.8, -16929.324, -0.0036194222, -0.17477782, -1147396.8, 483776.53, 0.0005617422, 10.004401, 9.997533 
7.5027925e+1, 1.4354831e+2, -1039057.94, -1527483.0, -24963.092, 0.029496325, -0.23659933, -1037785.4, 495417.5, 0.00022655488, 10.00432, 9.997848 
7.5023764e+1, 1.5354612e+2, -1183086.6, -1554319.9, -22952.51, 0.07383055, -0.24885093, -1181672.9, 253555.31, 0.000048209964, 10.002689, 9.997777 
7.5019956e+1, 1.6354439e+2, -1157739.0, -1438923.9, 28845.207, 0.09070417, -0.21870495, -1154810.4, 182436.92, 0.000001977347, 10.001963, 9.998246 
7.501678e+1, 1.7354292e+2, -938279.56, -1283282.0, 28384.645, 0.057585213, -0.20599543, -935959.8, 303300.7, 0.0, 10.002803, 9.998237 
7.501378e+1, 1.8354164e+2, -755539.4, -1059598.5, 35922.055, 0.040749904, -0.18745147, -751353.1, 389919.0, 0.0, 10.003023, 9.998992 
7.50111e+1, 1.9354083e+2, -783602.5, -1019552.6, 86683.945, 0.05538979, -0.1853972, -755180.06, 288099.6, 0.0, 10.002143, 9.999021 
7.500806e+1, 2.0353983e+2, -758118.1, -924182.4, 90544.03, 0.0396048, -0.19721198, -718298.5, 226989.28, 0.0, 10.001507, 9.999307 
7.5004363e+1, 2.1353851e+2, -696656.3, -849370.9, 42483.242, -0.03012872, -0.27264628, -685633.6, 161663.3, 0.0, 10.001278, 9.999258 
7.500081e+1, 2.235373e+2, -725743.3, -844648.75, -4977.1807, -0.05321125, -0.30588657, -725535.3, 23771.408, 0.0, 10.000546, 9.998969 
7.499749e+1, 2.3353635e+2, -878658.6, -886055.9, 39162.184, 0.0041441927, -0.2999683, -843020.8, -191703.84, 0.0, 9.998898, 9.998811 
7.499495e+1, 2.4353558e+2, -843546.5, -763365.94, 114109.93, 0.06846586, -0.2756511, -682508.7, -129184.56, 0.0, 9.998228, 9.999303 
7.4993783e+1, 2.5353512e+2, -605049.94, -599846.2, 87109.945, 0.14603636, -0.26785794, -515299.25, -59972.953, 0.0, 9.999197, 9.999289 
7.4991465e+1, 2.635344e+2, -494627.84, -545082.44, 261.87024, 0.16854534, -0.24678606, -494626.5, -137293.1, 0.0, 9.999508, 9.998835 
7.49872e+1, 2.735334e+2, -531476.94, -532543.2, -15875.495, 0.098262586, -0.22873224, -516125.63, -256778.31, 0.000000009748358, 9.998667, 9.998652 
7.498351e+1, 2.8353268e+2, -412712.3, -264371.56, -3980.2239, 0.08231912, -0.22626759, -264264.84, -102910.31, 0.00000018216522, 9.998122, 10.000085 
7.498074e+1, 2.9353204e+2, -320107.3, -135475.88, 56096.69, 0.15517163, -0.33086652, -119768.305, -56415.223, 0.000005368871, 9.997934, 10.000391 
7.4978036e+1, 3.035317e+2, -418561.03, -303600.4, 107548.06, 0.18890578, -0.35651398, -239135.75, -239135.75, 0.00006268461, 9.997557, 9.9990835 
7.497482e+1, 3.1353322e+2, -608418.8, -481395.84, 61331.008, 0.09858571, -0.07691019, -456616.88, -456616.88, 0.00024571895, 9.996599, 9.998328 
8.503834e+1, 1.23555385e+2, -1303735.6, -1591805.6, -24222.852, -0.057038777, -0.29610312, -1301713.0, 427425.03, 0.00091916835, 10.00312, 9.999336 
8.5035414e+1, 1.3355543e+2, -1428577.4, -1716433.4, 8041.4546, 0.03961589, -0.14236794, -1428352.9, 202781.6, 0.0005151357, 10.002111, 9.998292 
8.5031664e+1, 1.4355278e+2, -1381564.0, -1675514.4, 2480.6753, 0.096183695, -0.2211936, -1381543.0, 151617.2, 0.0002021097, 10.001888, 9.998007 
8.5026747e+1, 1.5355028e+2, -1115615.4, -1512507.0, -720.2909, 0.08453117, -0.27411634, -1115614.0, 319574.22, 0.00003951026, 10.003111, 9.997862 
8.5022485e+1, 1.6354859e+2, -933042.0, -1316044.9, 70213.195, 0.07550705, -0.24955042, -920576.06, 416630.72, 0.0000010481427, 10.003446, 9.998374 
8.5019517e+1, 1.735478e+2, -1019550.44, -1305031.6, 100877.86, 0.08488342, -0.18165253, -987501.94, 251711.69, 0.0, 10.00217, 9.998392 
8.501639e+1, 1.835468e+2, -980786.75, -1122713.8, 101908.2, 0.08848021, -0.16238435, -927568.56, 213652.89, 0.0, 10.001281, 9.999402 
8.5012984e+1, 1.9354557e+2, -905741.25, -1025668.94, 84104.99, 0.0854729, -0.24661964, -862412.75, 180816.34, 0.0, 10.0010805, 9.999491 
8.5009325e+1, 2.0354433e+2, -903243.06, -1075449.0, 74503.34, 0.051216032, -0.27847782, -875484.4, 69754.805, 0.0, 10.000857, 9.998586 
8.500526e+1, 2.1354307e+2, -870171.06, -1035652.5, 52404.043, -0.028783094, -0.25318688, -854971.94, -7718.805, 0.0, 10.000526, 9.998345 
8.500143e+1, 2.2354174e+2, -674734.7, -774962.1, 13650.349, -0.05041174, -0.26479614, -672908.8, 76356.766, 0.0, 10.000702, 9.9993725 
8.499808e+1, 2.3354025e+2, -416261.66, -592301.5, 4915.8906, 0.032987308, -0.37270495, -416124.5, 235150.2, 0.0, 10.001768, 9.999443 
8.499514e+1, 2.4353917e+2, -391758.75, -591388.25, 57255.81, 0.1024175, -0.39924166, -376503.03, 176779.25, 0.0, 10.001529, 9.998894 
8.4992945e+1, 2.535388e+2, -661597.06, -690006.2, 59760.02, 0.1508922, -0.3248454, -614376.6, -159089.89, 0.0, 9.999086, 9.99872 
8.4989977e+1, 2.6353827e+2, -773468.75, -686702.56, 26090.232, 0.16568804, -0.24975595, -679461.6, -322167.13, 0.0, 9.99762, 9.998776 
8.4985757e+1, 2.7353752e+2, -649145.6, -586578.6, 29364.52, 0.13026595, -0.21093735, -574956.0, -315648.7, 0.0, 9.997841, 9.998685 
8.498176e+1, 2.8353664e+2, -424458.5, -261915.69, 33410.313, 0.10451814, -0.22348732, -255316.22, -94000.0, 0.000000023853914, 9.998001, 10.000162 
8.497815e+1, 2.935357e+2, -289384.56, -108212.36, -13635.349, 0.097373925, -0.36947563, -107191.89, -43874.117, 0.0000039776505, 9.998092, 10.000503 
8.497527e+1, 3.0353627e+2, -323271.03, -198460.53, 6404.0913, 0.1392273, -0.33349133, -198132.8, -198132.8, 0.000053629374, 9.99796, 9.999611 
8.4972745e+1, 3.135382e+2, -488374.2, -366926.56, 89662.055, 0.20768912, -0.06827616, -319360.66, -319360.66, 0.00021910039, 9.997183, 9.998828 
9.5041466e+1, 1.2356017e+2, -1263526.1, -1510224.4, -75046.26, -0.07793422, -0.16161673, -1242490.5, 486604.94, 0.00085725985, 10.003135, 9.999888 
9.5038307e+1, 1.3355954e+2, -1368457.3, -1600532.0, -29961.75, 0.10697264, -0.15042806, -1364651.5, 266444.03, 0.00047618797, 10.002148, 9.99907 
9.5034355e+1, 1.4355685e+2, -1363712.9, -1643404.5, 35589.75, 0.16680473, -0.2882579, -1359255.3, 173865.27, 0.00018310016, 10.00191, 9.998214 
9.502915e+1, 1.5355591e+2, -1106658.5, -1498444.6, 50986.75, 0.0018233918, -0.1958602, -1100131.8, 335002.63, 0.00003359176, 10.003132, 9.997946 
9.502474e+1, 1.6355501e+2, -894619.94, -1236584.1, 33328.316, -0.05332189, -0.120663, -891402.0, 445742.97, 0.00000057940093, 10.003448, 9.9989195 
9.502187e+1, 1.7355363e+2, -975752.9, -1215766.1, 54416.27, 0.09255541, -0.1723621, -963991.8, 275162.84, 0.0, 10.002174, 9.999004 
9.501842e+1, 1.8355204e+2, -998428.3, -1158310.8, 86880.94, 0.1573183, -0.2358595, -960306.44, 180859.73, 0.0, 10.001277, 9.999159 
9.501394e+1, 1.935503e+2, -934568.0, -1082634.1, 81227.49, 0.06267757, -0.3347967, -898697.44, 144481.17, 0.0, 10.00107, 9.999104 
9.5009905e+1, 2.0354897e+2, -939182.3, -1146094.5, 59940.88, 0.015205596, -0.33340976, -923072.2, 22118.76, 0.0, 10.000841, 9.998108 
9.500661e+1, 2.135483e+2, -909807.56, -1110820.5, 43880.133, 0.045912933, -0.20149928, -900646.25, -53442.96, 0.0, 10.000495, 9.997846 
9.500345e+1, 2.2354703e+2, -684780.2, -788072.4, 44380.625, 0.071910314, -0.17376919, -668331.06, 80885.54, 0.0, 10.0006695, 9.999298 
9.500048e+1, 2.3354474e+2, -422457.53, -595601.6, 48206.133, 0.087969, -0.36107177, -409940.97, 241289.86, 0.0, 10.001726, 9.999441 
9.499667e+1, 2.4354301e+2, -400282.66, -600776.75, -20144.385, 0.095645726, -0.44919965, -398278.7, 154963.98, 0.0, 10.001494, 9.998843 
9.499146e+1, 2.5354227e+2, -671429.75, -702439.8, -30184.18, 0.08631688, -0.40752545, -653001.2, -197750.77, 0.0, 9.99905, 9.998652 
9.49867e+1, 2.6354164e+2, -759051.0, -650764.8, 18812.096, 0.07054094, -0.3518378, -647589.75, -290331.34, 0.0, 9.997593, 9.999037 
9.4982797e+1, 2.7354115e+2, -633299.75, -543284.9, 42320.113, 0.041616384, -0.31674397, -526513.2, -267246.7, 0.0, 9.997795, 9.999005 
9.497927e+1, 2.8354043e+2, -502244.2, -417288.75, 34353.965, 0.046978794, -0.28991503, -405135.4, -243859.6, 0.000000004406078, 9.997975, 9.999105 
9.4976455e+1, 2.9353946e+2, -388193.97, -302890.8, -5124.718, 0.11052641, -0.30996373, -302584.03, -239298.06, 0.0000031202694, 9.998045, 9.999187 
9.497368e+1, 3.035404e+2, -183242.06, 96596.85, -16623.627, 0.17728135, -0.24839133, 97580.91, 97580.91, 0.00004667503, 9.997939, 10.001649 
9.4969386e+1, 3.1354144e+2, -302958.22, 34406.816, 67779.39, 0.13148817, -0.32965052, 47514.94, 47514.94, 0.0001974869, 9.997111, 10.001619 
1.05044916e+2, 1.2356586e+2, -1252073.5, -1574395.4, 122570.55, -0.05938, -0.20672712, -1210758.8, 518276.0, 0.0008055487, 10.003495, 9.999279 
1.0504132e+2, 1.3356489e+2, -1128919.3, -1542832.5, 62992.547, 0.10217037, -0.17794876, -1119544.8, 511497.1, 0.000445758, 10.004027, 9.998568 
1.05037116e+2, 1.4356215e+2, -1069062.9, -1465952.6, 85700.164, 0.15989889, -0.30688685, -1051348.4, 481720.34, 0.00016961314, 10.003779, 9.998533 
1.0503193e+2, 1.535621e+2, -1204847.3, -1498197.1, 120057.1, 0.013285042, -0.16766268, -1161977.4, 273093.97, 0.000030295558, 10.002249, 9.998378 
1.0502722e+2, 1.6356148e+2, -1182060.1, -1386009.6, 99197.32, -0.05087659, -0.084050894, -1141771.3, 195306.8, 0.0000004316036, 10.001527, 9.998815 
1.050236e+2, 1.7355934e+2, -983385.6, -1241247.8, 52914.832, 0.048167694, -0.19437516, -972949.56, 266147.34, 0.0, 10.002228, 9.998797 
1.0501968e+2, 1.8355727e+2, -860452.06, -1145468.8, 43921.8, 0.09810364, -0.27456698, -853837.1, 287277.53, 0.0, 10.002451, 9.998678 
1.0501525e+2, 1.9355558e+2, -871117.1, -1112075.6, 20995.39, 0.05505238, -0.31937015, -869301.44, 173826.5, 0.0, 10.001754, 9.998571 
1.0501124e+2, 2.0355414e+2, -877767.6, -1110217.3, 23478.572, 0.04626194, -0.29873645, -875419.9, 69721.48, 0.0, 10.001241, 9.998158 
1.05007984e+2, 2.1355315e+2, -816223.6, -1047476.1, 50692.883, 0.10779466, -0.21542743, -805599.3, 41556.16, 0.0, 10.001064, 9.998002 
1.05004564e+2, 2.2355177e+2, -742061.7, -858968.75, 79136.87, 0.12920427, -0.19089359, -702131.0, 47038.883, 0.0, 10.0004635, 9.998912 
1.0500089e+2, 2.335498e+2, -828402.9, -843065.1, 44435.336, 0.087629974, -0.29742202, -790698.0, -139514.36, 0.0, 9.9991665, 9.998975 
1.0499643e+2, 2.4354817e+2, -806411.1, -779923.94, -55790.508, 0.06677314, -0.3562123, -735826.7, -182630.7, 0.0, 9.998634, 9.99899 
1.0499068e+2, 2.535471e+2, -599136.7, -638342.3, -53045.234, 0.08766844, -0.37350377, -562188.06, -106982.21, 0.0, 9.999424, 9.998909 
1.0498557e+2, 2.6354605e+2, -412502.34, -465012.6, 41515.53, 0.08487326, -0.3771293, -389636.5, -32420.926, 0.0, 9.999895, 9.999198 
1.0498159e+2, 2.7354518e+2, -331329.5, -381391.9, 51991.75, 0.043598317, -0.39995065, -298657.13, -39432.543, 0.0, 9.999797, 9.999151 
1.0497782e+2, 2.835446e+2, -310713.63, -326278.63, 54745.69, 0.040511582, -0.36738503, -263200.03, -101967.91, 0.0000000012345152, 9.999294, 9.999099 
1.0497455e+2, 2.9354477e+2, -384983.22, -303619.97, 98545.14, 0.11707592, -0.26828504, -237689.5, -174454.55, 0.0000025058646, 9.9980755, 9.999169 
1.0497121e+2, 3.035461e+2, -309923.2, 59070.234, 81489.625, 0.18757947, -0.17312425, 76265.36, 76265.36, 0.000040625986, 9.996963, 10.001867 
1.04965575e+2, 3.135453e+2, -417245.34, 47851.91, -19191.855, 0.09842871, -0.4681901, 48642.504, 48642.504, 0.00017793833, 9.996022, 10.002246 
1.15048334e+2, 1.2357228e+2, -1372635.6, -1834671.3, 129059.58, -0.091965, -0.44434026, -1339029.9, 389927.72, 0.0007644851, 10.003539, 9.997471 
1.15044266e+2, 1.3357145e+2, -1251445.3, -1798164.5, 83419.266, -0.016507834, -0.22740656, -1239000.4, 391973.84, 0.00042328305, 10.004035, 9.996809 
1.15039855e+2, 1.4356868e+2, -1041207.2, -1406724.8, 35655.063, 0.046999868, -0.27371505, -1037761.6, 495243.22, 0.00016114951, 10.003774, 9.998943 
1.1503486e+2, 1.5356886e+2, -1144908.8, -1379146.6, 66315.016, 0.071387485, -0.18887362, -1127437.4, 307561.38, 0.000029175992, 10.002276, 9.999179 
1.1502979e+2, 1.63568e+2, -1231665.0, -1497640.3, 111437.5, 0.042147886, -0.14052764, -1191147.5, 145858.4, 0.0000005105562, 10.001557, 9.998039 
1.150246e+2, 1.7356487e+2, -1051839.5, -1387568.6, 83055.98, -0.085868604, -0.25067437, -1032416.0, 206624.72, 0.0, 10.002244, 9.9977865 
1.150201e+2, 1.8356241e+2, -911387.8, -1247086.4, 22779.111, -0.11475129, -0.28149262, -909849.1, 231218.13, 0.0, 10.002434, 9.997991 
1.1501675e+2, 1.9356135e+2, -917462.1, -1203485.8, -3599.315, 0.019518541, -0.19795693, -917416.8, 125660.23, 0.0, 10.001736, 9.997953 
1.150132e+2, 2.0355986e+2, -840056.06, -1027585.94, 10939.775, 0.110853, -0.17153797, -839420.06, 105670.08, 0.0, 10.00122, 9.998737 
1.15009226e+2, 2.1355757e+2, -764685.56, -933510.7, 46627.055, 0.11722729, -0.29468182, -752663.9, 94445.91, 0.0, 10.001033, 9.9988 
1.1500468e+2, 2.2355591e+2, -794966.4, -961562.0, 33264.805, 0.08774403, -0.31432843, -788569.9, -39444.313, 0.0, 10.000431, 9.998223 
1.1499921e+2, 2.3355542e+2, -900022.25, -982209.25, -1525.4192, -0.00450838, -0.18463913, -899993.94, -248860.53, 0.0, 9.999124, 9.998041 
1.1499435e+2, 2.4355459e+2, -790172.6, -733647.5, -39689.938, -0.012453962, -0.12186944, -713185.7, -160043.45, 0.0, 9.998582, 9.999333 
1.1499052e+2, 2.535532e+2, -565636.25, -558579.94, -20500.295, 0.12058461, -0.22327745, -541306.4, -86153.33, 0.0, 9.999381, 9.999477 
1.1498648e+2, 2.6355156e+2, -410786.28, -455310.0, 40666.03, 0.17932518, -0.32520783, -386687.44, -29521.486, 0.0, 9.999868, 9.999279 
1.1498203e+2, 2.7354953e+2, -337017.3, -387165.8, 52209.62, 0.09992017, -0.46110454, -304172.97, -44991.098, 0.0, 9.999769, 9.999127 
1.1497731e+2, 2.8354907e+2, -242121.48, -177635.48, 11125.265, 0.054006517, -0.45564777, -175770.08, -14584.866, 0.00000000007947066, 9.9992695, 10.000132 
1.14972316e+2, 2.9355165e+2, -306632.78, -129400.7, 54512.03, 0.07864043, -0.23812398, -113976.54, -50812.184, 0.000001910546, 9.998027, 10.00039 
1.1496768e+2, 3.035534e+2, -428224.9, -173276.4, 45401.438, 0.13397442, -0.10320135, -165432.6, -165432.6, 0.000034739915, 9.996914, 10.00029 
1.1496106e+2, 3.135497e+2, -538719.3, -181716.5, -45379.09, 0.027453534, -0.49325722, -176038.61, -176038.61, 0.00015856141, 9.995933, 10.000708 
1.2505212e+2, 1.2357867e+2, -1481872.1, -1919209.5, -29949.514, -0.033679128, -0.4561356, -1479830.6, 249062.31, 0.00073289365, 10.00294, 9.997176 
1.2504715e+2, 1.3357809e+2, -1409624.3, -1892414.3, 37396.125, -0.07688588, -0.19305731, -1406744.8, 224163.23, 0.00040756346, 10.003033, 9.996646 
1.2504229e+2, 1.4357491e+2, -1149163.6, -1464217.8, 17979.941, -0.04755089, -0.27139154, -1148140.8, 384801.5, 0.00015683354, 10.003062, 9.998887 
1.2503754e+2, 1.5357359e+2, -1034163.9, -1333364.6, -27778.984, 0.072080486, -0.32865432, -1031606.6, 403341.3, 0.000029665802, 10.003071, 9.999108 
1.2503251e+2, 1.6357237e+2, -1042043.44, -1421810.6, 34815.42, 0.09150242, -0.30776224, -1038878.06, 298079.94, 0.0000007617598, 10.002929, 9.997898 
1.2502709e+2, 1.735708e+2, -1029815.4, -1397483.0, 69330.82, -0.06905457, -0.24482173, -1017176.2, 221804.44, 0.0, 10.002476, 9.997612 
1.2502238e+2, 1.8356898e+2, -960896.7, -1279269.4, 51751.895, -0.11193825, -0.19661799, -952695.6, 188307.28, 0.0, 10.002133, 9.997914 
1.2501886e+2, 1.9356705e+2, -898509.44, -1202202.9, 58781.58, 0.051595237, -0.19269083, -887528.94, 155492.72, 0.0, 10.001906, 9.99788 
1.2501489e+2, 2.0356514e+2, -776181.7, -979037.06, 92441.64, 0.14224707, -0.21316363, -740375.9, 204662.75, 0.0, 10.001582, 9.998895 
1.250101e+2, 2.1356325e+2, -752216.6, -905966.6, 77904.1, 0.105561614, -0.31537366, -719643.8, 127408.84, 0.0, 10.001026, 9.998992 
1.2500487e+2, 2.2356178e+2, -771601.75, -930914.1, 55523.93, 0.06140739, -0.33337963, -754160.0, -5094.792, 0.0, 10.000503, 9.998401 
1.24998875e+2, 2.3356111e+2, -758135.6, -894876.44, 93882.66, 0.008261436, -0.23839821, -710366.2, -59291.69, 0.0, 10.000014, 9.998211 
1.2499377e+2, 2.4356031e+2, -667361.06, -710623.5, 125417.75, 0.024513468, -0.17006172, -561722.8, -8638.428, 0.0, 9.99958, 9.99901 
1.2499024e+2, 2.5355932e+2, -613197.0, -629614.2, 75226.03, 0.1640539, -0.19117618, -545733.0, -90637.68, 0.0, 9.999256, 9.999054 
1.2498605e+2, 2.63558e+2, -567989.6, -487259.53, 79661.33, 0.21484281, -0.25146267, -438320.25, -81213.98, 0.0, 9.998603, 9.999668 
1.2498068e+2, 2.735562e+2, -644781.7, -475448.97, 118190.13, 0.10832162, -0.4153728, -414728.6, -155611.66, 0.0, 9.997408, 9.999654 
1.24975204e+2, 2.8355575e+2, -614685.2, -344718.2, 77416.04, 0.049330156, -0.44506705, -324093.9, -162974.89, 0.00000000021645001, 9.996658, 10.000241 
1.24969795e+2, 2.9355794e+2, -511754.47, -220630.58, 29057.232, 0.09838246, -0.27382082, -217758.69, -154655.25, 0.0000014014497, 9.996587, 10.000458 
1.2496478e+2, 3.0355963e+2, -496987.9, -249446.38, 24306.656, 0.1711353, -0.13326748, -247082.23, -247082.23, 0.000028974657, 9.996613, 9.999921 
1.2495734e+2, 3.135575e+2, -410318.16, -126123.84, 47011.727, 0.022098387, -0.32111225, -118549.01, -118549.01, 0.0001384936, 9.996837, 10.000658 
1.3505602e+2, 1.2358507e+2, -1399294.6, -1750047.3, -39601.293, 0.04032391, -0.23840812, -1394879.1, 333960.88, 0.00070911285, 10.0029545, 9.998327 
1.3504985e+2, 1.3358495e+2, -1300526.3, -1674253.4, 44546.793, -0.12231293, -0.07393162, -1295289.9, 335552.44, 0.00039723277, 10.003076, 9.998117 
1.3504429e+2, 1.4358084e+2, -1187606.6, -1550413.8, 15290.12, -0.16491075, -0.3017955, -1186963.4, 345917.4, 0.0001554688, 10.003086, 9.998285 
1.3503978e+2, 1.5357637e+2, -1098415.4, -1468256.5, -24317.348, -0.02013408, -0.5866498, -1096823.3, 338094.84, 0.000031126172, 10.0030775, 9.9981785 
1.3503526e+2, 1.6357464e+2, -1012096.3, -1357318.5, 17855.55, 0.066456825, -0.58275217, -1011175.25, 325758.56, 0.0000011270397, 10.002919, 9.998346 
1.350309e+2, 1.7357713e+2, -978845.75, -1294335.6, 56535.42, 0.052779175, -0.17810266, -969020.6, 269896.03, 0.0, 10.002492, 9.99831 
1.3502635e+2, 1.8357705e+2, -924592.6, -1206938.0, 39111.0, 0.062417515, -0.019016258, -919275.0, 221646.44, 0.0, 10.00214, 9.998411 
1.3502142e+2, 1.9357266e+2, -864729.0, -1132299.6, 53548.953, 0.10596504, -0.30725938, -854410.2, 188551.9, 0.0, 10.001904, 9.998362 
1.350162e+2, 2.0356993e+2, -798515.25, -1021106.8, 70547.76, 0.10760532, -0.42418477, -778039.5, 166947.63, 0.0, 10.001562, 9.998616 
1.3501051e+2, 2.1357013e+2, -785663.44, -966650.4, 60678.45, 0.034094445, -0.27903146, -767203.0, 79781.375, 0.0, 10.000989, 9.998592 
1.3500498e+2, 2.2356935e+2, -703353.44, -782654.1, 33484.586, 0.0150595, -0.24915028, -691106.1, 57883.0, 0.0, 10.000472, 9.9994335 
1.349997e+2, 2.3356687e+2, -671494.4, -709587.2, 77973.586, 0.08256717, -0.46344277, -610274.7, 40732.54, 0.0, 9.999989, 9.9994955 
1.349946e+2, 2.435653e+2, -743602.25, -858305.94, 110294.125, 0.14118883, -0.5031536, -676639.9, -123617.22, 0.0, 9.999538, 9.998016 
1.3498978e+2, 2.5356543e+2, -715248.6, -831460.5, 66419.85, 0.18532227, -0.27789, -685105.5, -230072.98, 0.0, 9.999215, 9.997687 
1.349842e+2, 2.6356542e+2, -525742.0, -392192.34, 36633.188, 0.16268988, -0.15532957, -382803.75, -25767.506, 0.0, 9.998571, 10.000337 
1.3497733e+2, 2.7356523e+2, -580281.3, -329270.38, 76675.84, 0.023644866, -0.25841013, -307701.7, -48671.953, 0.0, 9.9973545, 10.000684 
1.3497129e+2, 2.8356463e+2, -674622.44, -457731.78, 67214.33, -0.012382424, -0.33211794, -438591.25, -277557.72, 0.000000004047862, 9.9966135, 9.999485 
1.3496694e+2, 2.9356351e+2, -593695.1, -380913.97, 30361.342, 0.14718291, -0.3837502, -376666.53, -313613.3, 0.0000011638989, 9.996545, 9.999377 
1.3496247e+2, 3.0356467e+2, -440006.88, -121289.95, 29657.25, 0.2725635, -0.26988718, -118553.77, -118553.77, 0.00002372901, 9.996576, 10.000817 
1.3495415e+2, 3.1356892e+2, -318100.4, 82730.7, 68070.766, 0.0023479273, 0.06043601, 93975.31, 93975.31, 0.000118264084, 9.996769, 10.002125 
1.4506042e+2, 1.2359067e+2, -1188119.0, -1603425.1, 35371.97, 0.12833562, -0.2231082, -1185127.9, 543659.06, 0.0006915333, 10.004206, 9.998735 
1.4505339e+2, 1.3359071e+2, -1256749.4, -1585946.4, 47327.84, -0.074197255, -0.10275902, -1250080.3, 380703.75, 0.0003904708, 10.003074, 9.99873 
1.4504743e+2, 1.4358692e+2, -1283321.4, -1623127.1, 27477.68, -0.13141753, -0.32465383, -1281113.8, 251704.66, 0.00015548867, 10.0025425, 9.998049 
1.4504309e+2, 1.5358278e+2, -1130408.8, -1529761.6, 25693.371, 0.00822714, -0.5367339, -1128762.4, 306093.28, 0.00003278088, 10.003055, 9.99777 
1.4503846e+2, 1.6358092e+2, -986311.56, -1328742.5, 56137.75, 0.08959757, -0.5278628, -977343.3, 359530.13, 0.0000015078091, 10.003026, 9.998488 
1.4503331e+2, 1.7358251e+2, -1037027.2, -1300080.1, 47898.08, 0.07035834, -0.23609973, -1028577.1, 210285.13, 0.0, 10.00199, 9.998514 
1.4502814e+2, 1.8358225e+2, -1032056.5, -1235035.1, 25537.271, 0.071825415, -0.11580105, -1028892.94, 111974.266, 0.0, 10.001305, 9.998616 
1.450229e+2, 1.9357888e+2, -950356.1, -1153599.5, 15360.019, 0.10029622, -0.32176095, -949201.9, 93696.914, 0.0, 10.001225, 9.998543 
1.4501749e+2, 2.0357667e+2, -884081.1, -1079050.4, 18657.076, 0.10696351, -0.3913154, -882311.8, 62608.273, 0.0, 10.001051, 9.998463 
1.4501174e+2, 2.1357653e+2, -848880.2, -1023088.56, 13480.363, 0.076563425, -0.25809267, -847843.25, -920.51624, 0.0, 10.000666, 9.998362 
1.4500596e+2, 2.2357562e+2, -720560.94, -772234.6, -26635.291, 0.07534394, -0.23517956, -709290.1, 39639.66, 0.0, 10.000279, 9.999598 
1.4500009e+2, 2.335734e+2, -668723.6, -683700.7, -68016.414, 0.12730655, -0.44228473, -607784.75, 43159.5, 0.0, 9.999905, 9.999715 
1.449943e+2, 2.4357189e+2, -758152.94, -848459.3, -42969.96, 0.17088103, -0.49634624, -740974.5, -188016.27, 0.0, 9.99936, 9.998172 
1.4498875e+2, 2.535717e+2, -809138.75, -858816.5, 18448.162, 0.19760713, -0.3184564, -803037.3, -348067.22, 0.0, 9.998499, 9.997842 
1.4498259e+2, 2.6357183e+2, -579072.44, -411471.56, 48350.613, 0.1676252, -0.19373587, -398523.38, -41550.367, 0.0, 9.998176, 10.000397 
1.449755e+2, 2.735726e+2, -378064.84, -225838.69, 13412.684, 0.040273115, -0.20493971, -224665.92, 34294.43, 0.0, 9.998716, 10.000739 
1.449691e+2, 2.8357244e+2, -394372.5, -356610.5, -23265.842, 0.0066535715, -0.22687203, -345528.34, -184566.47, 0.000000009906891, 9.998675, 9.999191 
1.4496414e+2, 2.9357076e+2, -460230.66, -353829.16, -13705.749, 0.16299881, -0.3001087, -352092.06, -289105.44, 0.0000010384059, 9.997621, 9.999044 
1.449594e+2, 3.0357108e+2, -358986.63, -35703.715, 29173.518, 0.29572925, -0.2719891, -33092.152, -33092.152, 0.000019000812, 9.996935, 10.001227 
1.4495099e+2, 3.1357595e+2, -273815.1, 159659.16, 13211.042, 0.011754164, 0.07221247, 160061.42, 160061.42, 0.0000984148, 9.996827, 10.002628 
1.5506507e+2, 1.2359539e+2, -1205531.6, -1647105.5, -18738.748, 0.15210153, -0.41216, -1204737.9, 523996.7, 0.0006774441, 10.004235, 9.998422 
1.5505756e+2, 1.3359538e+2, -1267896.3, -1613189.8, 6259.2334, 0.02751989, -0.2756065, -1267782.8, 362950.22, 0.0003846977, 10.003086, 9.998539 
1.5505148e+2, 1.4359313e+2, -1273920.9, -1606217.0, 35473.098, 0.01107636, -0.33861494, -1270176.3, 262578.8, 0.00015508269, 10.002554, 9.99816 
1.5504737e+2, 1.5359278e+2, -1117386.0, -1506079.1, 49183.96, 0.119708866, -0.18551598, -1111259.0, 323502.03, 0.000033834087, 10.003071, 9.997925 
1.550419e+2, 1.6359116e+2, -999722.75, -1354448.9, 22315.574, 0.12371365, -0.15287614, -998324.44, 338453.22, 0.0000017896223, 10.003019, 9.998315 
1.5503418e+2, 1.73587e+2, -1051746.6, -1331395.1, 11916.602, -0.050671548, -0.41499594, -1051239.8, 187577.02, 0.0, 10.001995, 9.998296 
1.5502764e+2, 1.8358468e+2, -1039860.1, -1254005.1, 15196.7295, -0.117315635, -0.48181307, -1038787.06, 102052.25, 0.0, 10.001314, 9.998483 
1.550232e+2, 1.9358572e+2, -960469.9, -1171013.3, 16191.512, -0.0020922588, -0.23582341, -959232.0, 83599.57, 0.0, 10.001212, 9.998429 
1.5501858e+2, 2.0358533e+2, -890647.2, -1089202.5, 3223.6245, 0.10391673, -0.114133954, -890594.9, 54242.797, 0.0, 10.001032, 9.9984045 
1.5501359e+2, 2.1358241e+2, -855855.56, -1029859.4, 1543.9857, 0.18633705, -0.25393575, -855841.9, -8973.906, 0.0, 10.000632, 9.99833 
1.550076e+2, 2.2358058e+2, -777982.44, -883058.2, -44062.383, 0.20555413, -0.29011887, -761951.2, -13064.116, 0.0, 10.000242, 9.998855 
1.5499991e+2, 2.3358071e+2, -732640.06, -810920.94, -78447.484, 0.11207428, -0.17848708, -684110.8, -33224.707, 0.0, 9.999877, 9.998857 
1.5499283e+2, 2.4358007e+2, -671003.7, -659778.06, -76083.55, 0.07848089, -0.1520958, -589100.6, -36209.027, 0.0, 9.999327, 9.999483 
1.5498695e+2, 2.535781e+2, -697887.6, -619635.75, -10931.413, 0.1616968, -0.31423226, -618137.4, -163228.81, 0.0, 9.998462, 9.999502 
1.549811e+2, 2.6357722e+2, -620603.7, -491602.97, 59314.492, 0.19478685, -0.3660723, -468476.25, -111559.234, 0.0, 9.998152, 9.999856 
1.5497513e+2, 2.7357826e+2, -448588.0, -364196.7, 37149.496, 0.12399486, -0.2618236, -350173.5, -91263.55, 0.0, 9.99868, 9.999807 
1.5496853e+2, 2.8357914e+2, -382608.22, -327251.78, -58267.285, 0.07430421, -0.13286723, -290422.94, -129517.984, 0.000000005626964, 9.998653, 9.999403 
1.5496124e+2, 2.9357976e+2, -434532.5, -293389.6, -49208.676, 0.101458855, -0.01920682, -277927.2, -215023.8, 0.00000082513446, 9.997585, 9.999477 
1.5495548e+2, 3.0357885e+2, -369502.4, -47641.258, 19114.887, 0.20225231, -0.13367575, -46510.027, -46510.027, 0.000014599608, 9.9969, 10.001158 
1.5494768e+2, 3.135786e+2, -311247.97, 95580.72, 23828.104, -0.016711282, -0.28430843, 96971.586, 96971.586, 0.00007959566, 9.996775, 10.002209 
1.65068e+2, 1.23601e+2, -1557498.1, -1798688.1, -72659.27, 0.14836252, -0.42918393, -1537300.6, 191379.22, 0.0006619325, 10.00174, 9.998581 
1.6506074e+2, 1.3360097e+2, -1225843.5, -1553445.6, -13929.273, 0.033456527, -0.32798278, -1225252.3, 405425.0, 0.00037663046, 10.003217, 9.9988785 
1.650547e+2, 1.4359912e+2, -1111266.0, -1516372.1, 25172.127, 0.024067815, -0.37373427, -1109707.9, 422986.94, 0.00015263926, 10.003631, 9.998255 
1.6505016e+2, 1.5359946e+2, -1226898.3, -1553704.0, 23485.146, 0.13329741, -0.15600272, -1225219.1, 209475.86, 0.000033788867, 10.002295, 9.997971 
1.6504437e+2, 1.6359802e+2, -1173303.4, -1452710.8, 15429.346, 0.12795673, -0.103129715, -1172454.0, 164256.58, 0.0000018950186, 10.00188, 9.998193 
1.6503654e+2, 1.7359322e+2, -914431.25, -1280851.1, 7692.17, -0.062303435, -0.41559464, -914269.8, 324485.84, 0.0, 10.003004, 9.9981575 
1.650298e+2, 1.8359058e+2, -765790.9, -1121742.4, -3742.2446, -0.12653983, -0.5053225, -765751.56, 375029.56, 0.0, 10.003202, 9.998479 
1.6502495e+2, 1.935919e+2, -880443.0, -1129541.8, -4214.027, 0.025753852, -0.23421906, -880371.75, 162398.88, 0.0, 10.001752, 9.998452 
1.6501996e+2, 2.0359164e+2, -933240.25, -1087603.5, 13728.247, 0.15873085, -0.10708782, -932028.9, 12746.298, 0.0, 10.000644, 9.998604 
1.6501468e+2, 2.1358868e+2, -908882.6, -1029877.9, 29450.766, 0.25806233, -0.2734216, -902095.0, -55289.28, 0.0, 10.000158, 9.998561 
1.6500826e+2, 2.2358699e+2, -861157.9, -939458.25, 24092.377, 0.2744957, -0.303424, -854338.7, -105513.84, 0.0, 9.999748, 9.998702 
1.6499986e+2, 2.3358762e+2, -815964.94, -873311.6, 31369.781, 0.14460552, -0.119576596, -802138.56, -151315.89, 0.0, 9.999413, 9.998647 
1.6499211e+2, 2.4358729e+2, -637798.0, -585271.25, 42223.527, 0.078035824, -0.07342573, -561809.44, -8983.529, 0.0, 9.999302, 10.000007 
1.6498566e+2, 2.5358528e+2, -489849.75, -447137.88, 25863.719, 0.13349535, -0.3026682, -434952.7, 19885.773, 0.0, 9.999574, 10.000154 
1.6497944e+2, 2.6358426e+2, -531820.75, -518234.8, 46043.227, 0.17097309, -0.38039878, -478486.13, -121638.99, 0.0, 9.999052, 9.999243 
1.6497344e+2, 2.7358493e+2, -718693.25, -585094.06, 22859.371, 0.16253568, -0.23028278, -581291.0, -322442.72, 0.0, 9.997212, 9.998998 
1.649665e+2, 2.8358564e+2, -666525.44, -424354.8, -30943.34, 0.114015564, -0.08899703, -420463.56, -259617.38, 0.00000000009995645, 9.996538, 9.999753 
1.649584e+2, 2.935864e+2, -355278.5, -193450.63, -16055.648, 0.047543034, -0.010113507, -191873.06, -129035.63, 0.00000049216277, 9.997868, 10.000027 
1.6495226e+2, 3.0358523e+2, -217690.7, 93.66517, 19773.352, 0.13826738, -0.17813458, 1874.3917, 1874.3917, 0.000010365808, 9.998038, 10.000943 
1.649445e+2, 3.135845e+2, -450011.78, -45287.137, 1078.1935, 0.023381988, -0.34213078, -45284.26, -45284.26, 0.000061981555, 9.9961405, 10.001542 
1.7506902e+2, 1.2360754e+2, -1509855.4, -1703236.1, -32583.088, 0.057292722, -0.2708695, -1504513.0, 224109.28, 0.0006403698, 10.001756, 9.999228 
1.7506287e+2, 1.3360745e+2, -1167300.6, -1430918.0, 41949.33, -0.08603585, -0.25647867, -1160786.3, 469830.16, 0.00036364503, 10.003218, 9.999718 
1.75057e+2, 1.4360482e+2, -1103190.4, -1503658.4, -15395.015, -0.116666734, -0.43380293, -1102599.4, 430038.56, 0.00014712822, 10.003643, 9.998338 
1.7505133e+2, 1.5360282e+2, -1228852.9, -1558498.3, -24637.158, 0.008824396, -0.44658962, -1227021.6, 207636.02, 0.00003249045, 10.002299, 9.997934 
1.7504574e+2, 1.6360159e+2, -1176304.4, -1461283.6, 42300.68, 0.06640065, -0.36936828, -1170158.0, 166513.17, 0.0000018022155, 10.001886, 9.998132 
1.7504027e+2, 1.7360118e+2, -919088.44, -1291424.8, 53157.133, -0.0004298002, -0.23444691, -911648.06, 327030.47, 0.0, 10.003008, 9.998082 
1.7503443e+2, 1.8359992e+2, -759187.6, -1106169.1, -47651.46, 0.008919013, -0.18894626, -752762.56, 387930.03, 0.0, 10.00319, 9.998594 
1.7502794e+2, 1.9359735e+2, -872858.75, -1110371.0, -56500.1, 0.14177561, -0.32018292, -860103.4, 182613.03, 0.0, 10.001735, 9.998594 
1.7502144e+2, 2.0359561e+2, -903713.5, -1022508.0, -12892.589, 0.23585883, -0.36902314, -902330.4, 42402.32, 0.0, 10.000626, 9.99906 
1.750149e+2, 2.1359532e+2, -875718.25, -957104.0, 15038.077, 0.25664207, -0.31993926, -873028.44, -26292.2, 0.0, 10.00014, 9.99907 
1.750078e+2, 2.2359487e+2, -836003.56, -879426.56, 8990.719, 0.24786106, -0.27260563, -834215.6, -85472.875, 0.0, 9.999716, 9.999129 
1.7499979e+2, 2.3359412e+2, -793088.75, -818854.1, 23048.514, 0.18846984, -0.26969337, -779566.94, -128812.45, 0.0, 9.999379, 9.999038 
1.7499204e+2, 2.4359347e+2, -660568.7, -626585.0, 45976.355, 0.13205922, -0.26378, -594561.06, -41799.313, 0.0, 9.999277, 9.999734 
1.7498478e+2, 2.535932e+2, -522878.9, -506057.25, 39067.32, 0.08145488, -0.28524035, -474505.63, -19745.521, 0.0, 9.999533, 9.999768 
1.7497759e+2, 2.6359296e+2, -580289.6, -614895.0, -15592.017, 0.07241106, -0.23307203, -574300.8, -217537.6, 0.0, 9.999035, 9.998588 
1.749703e+2, 2.7359268e+2, -772965.2, -690557.5, -44217.992, 0.12092563, -0.11036092, -671321.4, -412545.94, 0.0, 9.997178, 9.998293 
1.7496286e+2, 2.8359193e+2, -636912.94, -357050.88, -759.8896, 0.09052439, -0.09303503, -357048.8, -196263.08, 0.0, 9.996512, 10.000227 
1.7495552e+2, 2.935907e+2, -316916.72, -106197.055, 39131.49, -0.036203787, -0.2772905, -99164.87, -36375.26, 0.00000022526268, 9.997832, 10.000644 
1.7494972e+2, 3.0359006e+2, -243365.73, -47715.12, -37192.273, 0.0732752, -0.413736, -40883.58, -40883.58, 0.0000067412816, 9.998017, 10.000624 
1.7494121e+2, 3.1359372e+2, -527010.4, -189979.89, -55508.625, 0.06360946, -0.09319671, -181073.05, -181073.05, 0.000045960638, 9.996077, 10.00058 
1.8507166e+2, 1.2361484e+2, -1429198.6, -1707559.6, 153488.55, 0.11139839, -0.25829086, -1361183.8, 367363.53, 0.0006094214, 10.002487, 9.998845 
1.8506582e+2, 1.3361458e+2, -1342167.9, -1550577.4, 140799.1, -0.056617286, -0.23005672, -1271206.9, 359338.28, 0.000344243, 10.002149, 9.999416 
1.8506005e+2, 1.4361155e+2, -1306616.9, -1617445.6, 13680.568, -0.10644489, -0.42231494, -1306016.0, 226555.3, 0.00013810549, 10.002311, 9.998196 
1.8505403e+2, 1.5360847e+2, -1071547.1, -1496574.3, -14084.088, -0.005867444, -0.53164244, -1071080.9, 363519.28, 0.000029920388, 10.003437, 9.997812 
1.8504836e+2, 1.6360688e+2, -961841.3, -1374636.6, 41931.375, 0.06317048, -0.47588173, -957625.0, 378992.03, 0.0000015280342, 10.003445, 9.9979725 
1.8504325e+2, 1.7360742e+2, -1141737.5, -1419068.3, 37342.89, 0.06895456, -0.22900754, -1136797.3, 101819.88, 0.0, 10.001566, 9.997904 
1.8503729e+2, 1.8360654e+2, -1120319.5, -1258609.4, -60281.023, 0.10668502, -0.14319827, -1097732.1, 42896.195, 0.0, 10.000617, 9.998784 
1.8502994e+2, 1.9360347e+2, -924650.9, -1107642.8, -67428.484, 0.19395474, -0.3493511, -902488.94, 140167.03, 0.0, 10.00126, 9.99884 
1.8502241e+2, 2.0360163e+2, -772263.1, -931183.44, -26605.787, 0.23319821, -0.43391207, -767927.2, 176745.38, 0.0, 10.00141, 9.999306 
1.8501462e+2, 2.13602e+2, -778315.6, -881489.4, -26359.766, 0.18964674, -0.34335905, -771971.1, 74698.125, 0.0, 10.000685, 9.999324 
1.8500698e+2, 2.2360204e+2, -762434.6, -821252.75, -37200.117, 0.17537242, -0.27189073, -744422.75, 4248.1865, 0.0, 10.00011, 9.999346 
1.8499964e+2, 2.336015e+2, -718171.8, -759213.3, -41301.117, 0.21924509, -0.26746166, -692574.44, -41893.375, 0.0, 9.9997835, 9.999257 
1.8499209e+2, 2.43601e+2, -691283.8, -673672.56, -19497.81, 0.21513838, -0.24797109, -661084.2, -108396.055, 0.0, 9.999209, 9.999441 
1.8498419e+2, 2.5360072e+2, -734671.56, -649018.75, -33518.805, 0.13450016, -0.23394185, -637461.25, -182772.6, 0.0, 9.998258, 9.999397 
1.8497632e+2, 2.6360035e+2, -712349.75, -656632.0, -58355.47, 0.09483875, -0.18033642, -619826.5, -263133.38, 0.0, 9.998041, 9.9987755 
1.8496838e+2, 2.7359977e+2, -478220.47, -512914.13, -17980.979, 0.120772555, -0.11638971, -470582.75, -211877.23, 0.0, 9.999058, 9.9986 
1.8496044e+2, 2.8359866e+2, -272663.22, -167201.73, 67404.69, 0.07801607, -0.15787022, -134352.55, 26364.438, 0.0, 9.998949, 10.000357 
1.8495287e+2, 2.935972e+2, -442585.63, -158203.4, 60443.895, -0.036591012, -0.37623784, -145889.58, -83167.68, 0.000000073239775, 9.996936, 10.000715 
1.8494706e+2, 3.035971e+2, -490589.3, -203787.66, -21631.762, 0.0847456, -0.4459265, -202165.28, -202165.28, 0.000003933053, 9.996473, 10.000299 
1.849384e+2, 3.136012e+2, -213153.52, -111801.39, -27469.44, 0.056024425, -0.044583745, -104835.164, -104835.164, 0.000032239117, 9.998539, 9.999936 
1.9507565e+2, 1.2362275e+2, -1519988.9, -1904070.8, 124298.78, 0.2409411, -0.39623955, -1483272.5, 245184.06, 0.0005667599, 10.002525, 9.997478 
1.9506948e+2, 1.336223e+2, -1439584.1, -1750976.9, 128325.44, 0.085954435, -0.2507594, -1393516.3, 236948.08, 0.00031768825, 10.002151, 9.998035 
1.9506377e+2, 1.4361939e+2, -1330542.0, -1672941.9, 43758.24, 0.023415573, -0.33637527, -1325038.3, 207456.14, 0.00012543336, 10.002329, 9.99781 
1.9505814e+2, 1.5361641e+2, -1088224.1, -1530224.3, 30987.627, 0.051436715, -0.41054195, -1086062.3, 348460.5, 0.000026112697, 10.003433, 9.997584 
1.9505207e+2, 1.6361393e+2, -980788.44, -1412617.6, -15683.259, 0.08279953, -0.4201974, -980219.6, 356328.34, 0.0000011234973, 10.003436, 9.997717 
1.9504532e+2, 1.7361195e+2, -1160531.0, -1457707.1, -29478.426, 0.111753196, -0.40036628, -1157635.0, 80936.08, 0.0, 10.001565, 9.997638 
1.950383e+2, 1.8361053e+2, -1102688.1, -1224360.3, -51506.25, 0.13630593, -0.36176744, -1083812.8, 56774.547, 0.0, 10.000622, 9.999022 
1.9503082e+2, 1.9361027e+2, -901377.56, -1058836.9, -39281.832, 0.1467167, -0.3214217, -892121.9, 150467.56, 0.0, 10.001256, 9.999179 
1.9502275e+2, 2.0360969e+2, -773997.06, -928507.5, -49524.01, 0.118543305, -0.29876217, -759486.25, 185108.3, 0.0, 10.001383, 9.999337 
1.950137e+2, 2.1360864e+2, -785079.94, -888381.2, -50423.402, 0.020618733, -0.35052297, -764548.1, 82057.2, 0.0, 10.000655, 9.99929 
1.9500567e+2, 2.2360843e+2, -765579.75, -821383.4, -55234.242, 0.027811415, -0.29993954, -731599.94, 17009.752, 0.0, 10.000082, 9.999358 
1.9499934e+2, 2.336098e+2, -720401.06, -755829.3, -50825.2, 0.20440584, -0.10841332, -684291.5, -33689.348, 0.0, 9.999748, 9.999297 
1.9499221e+2, 2.4360985e+2, -717638.5, -723164.06, -55372.43, 0.30079117, -0.022818634, -664959.94, -112354.99, 0.0, 9.999186, 9.999114 
1.9498377e+2, 2.5360772e+2, -767608.8, -709481.0, -67128.76, 0.25906757, -0.15234052, -665394.5, -210769.8, 0.0, 9.998222, 9.999001 
1.9497555e+2, 2.6360637e+2, -639480.94, -500287.8, -32341.273, 0.20769009, -0.2207654, -493140.38, -136503.4, 0.0, 9.998019, 9.99986 
1.949676e+2, 2.7360618e+2, -388812.66, -322699.66, 24827.105, 0.12525599, -0.25093287, -314414.7, -55776.156, 0.0, 9.999034, 9.999921 
1.9495915e+2, 2.8360578e+2, -289941.06, -200125.39, 4052.0112, 0.04585065, -0.28714854, -199942.95, -39302.87, 0.0, 9.998938, 10.000135 
1.9495037e+2, 2.9360586e+2, -487530.75, -241288.11, -12692.774, 0.012609953, -0.30523333, -240635.58, -178000.97, 0.000000013907536, 9.99689, 10.000168 
1.9494414e+2, 3.0360633e+2, -515677.0, -245184.61, 34387.32, 0.14185819, -0.27328676, -240881.45, -240881.45, 0.0000021091166, 9.996434, 10.00003 
1.9493587e+2, 3.1360707e+2, -240239.94, -156279.53, 67750.71, -0.0672887, -0.19135943, -118557.18, -118557.18, 0.000021823846, 9.99849, 9.999654 
2.0507929e+2, 1.23629e+2, -1172290.5, -1823931.3, -28832.893, 0.21571949, -0.50962293, -1171017.3, 557371.2, 0.0005130484, 10.0053005, 9.99669 
2.0507306e+2, 1.3362798e+2, -1089320.1, -1671191.4, 11375.894, 0.090057604, -0.34143436, -1089097.8, 541307.75, 0.00028433636, 10.004944, 9.99724 
2.0506734e+2, 1.4362542e+2, -1068814.5, -1546445.0, -21539.867, 0.059185494, -0.3454912, -1067845.1, 464589.94, 0.00010935022, 10.004132, 9.9978075 
2.0506157e+2, 1.5362376e+2, -1185066.1, -1563201.9, -14391.389, 0.09116263, -0.30010772, -1184519.1, 249933.67, 0.000021261263, 10.002705, 9.997708 
2.050551e+2, 1.6362166e+2, -1178068.6, -1489900.9, -44140.22, 0.11597168, -0.2872547, -1171940.9, 164534.08, 0.00000067965186, 10.002006, 9.997873 
2.0504747e+2, 1.7361857e+2, -1013646.6, -1368787.6, -35924.555, 0.1250805, -0.39220318, -1010049.06, 228457.75, 0.0, 10.002499, 9.997798 
2.0503958e+2, 1.8361671e+2, -873017.4, -1118395.4, -34739.61, 0.12324326, -0.4057944, -868193.94, 272332.6, 0.0, 10.002224, 9.998975 
2.0503126e+2, 1.9361705e+2, -992876.9, -1113753.9, -59613.54, 0.096523054, -0.29460534, -968423.75, 74100.32, 0.0, 10.000671, 9.999085 
2.0502281e+2, 2.0361686e+2, -987903.56, -1014288.1, -68569.07, 0.06589946, -0.23947187, -931269.25, 13257.527, 0.0, 9.999838, 9.999495 
2.0501417e+2, 2.1361566e+2, -840886.4, -895052.9, -58056.79, 0.029066738, -0.32084557, -803906.44, 42632.035, 0.0, 10.000182, 9.999476 
2.0500599e+2, 2.2361529e+2, -772795.0, -838142.25, -64321.53, 0.050455183, -0.2906188, -733324.1, 15219.7295, 0.0, 10.000096, 9.999231 
2.049985e+2, 2.3361644e+2, -799045.94, -813836.5, -85057.57, 0.16902801, -0.10498732, -721062.75, -70524.984, 0.0, 9.999299, 9.999113 
2.0499058e+2, 2.436162e+2, -754576.2, -723560.1, -70906.93, 0.23657762, -0.04452767, -666485.1, -113942.46, 0.0, 9.998855, 9.999272 
2.0498204e+2, 2.5361377e+2, -630764.7, -620128.3, -41246.93, 0.22395587, -0.22588612, -583858.1, -129293.31, 0.0, 9.999061, 9.999211 
2.0497397e+2, 2.6361263e+2, -486777.38, -397587.44, 16714.553, 0.2032933, -0.29619595, -394557.97, -37983.16, 0.0, 9.998938, 10.000126 
2.0496657e+2, 2.7361348e+2, -484068.47, -337967.28, -8830.985, 0.16117626, -0.2472269, -337435.44, -78869.01, 0.0, 9.998246, 10.000196 
2.0495811e+2, 2.836136e+2, -453276.72, -319715.22, -106185.11, 0.09856093, -0.23400885, -261056.97, -100492.61, 0.0, 9.997997, 9.999767 
2.0494846e+2, 2.9361334e+2, -292530.5, -200943.92, -131013.66, 0.056084853, -0.23852526, -107951.04, -45386.703, 0.0000000026409164, 9.998468, 9.999682 
2.0494182e+2, 3.036138e+2, -222110.4, -104058.37, -20175.191, 0.16852252, -0.17944242, -100705.63, -100705.63, 0.000001406237, 9.998456, 10.000027 
2.0493369e+2, 3.1361318e+2, -350496.06, -169413.69, 40541.094, -0.08475784, -0.24464832, -160751.61, -160751.61, 0.000015573223, 9.997577, 9.999995 
2.1508238e+2, 1.2363366e+2, -1189615.9, -1859284.4, -56709.63, -0.023499647, -0.5941896, -1184847.5, 543494.5, 0.00045149343, 10.005297, 9.996452 
2.1507645e+2, 1.3363175e+2, -1102120.8, -1697757.0, -434.5594, -0.072740875, -0.49272993, -1102120.5, 528247.0, 0.00024600755, 10.004944, 9.997059 
2.150706e+2, 1.4362979e+2, -1043900.6, -1494462.9, -71698.96, -0.035615273, -0.44230908, -1032766.1, 499626.25, 0.00009091891, 10.00413, 9.998166 
2.1506426e+2, 1.5363055e+2, -1151992.5, -1494996.8, -63928.27, 0.077214316, -0.1999358, -1140465.1, 293925.13, 0.000015871614, 10.002709, 9.998173 
2.1505739e+2, 1.6363007e+2, -1140004.0, -1410030.5, -38556.824, 0.13409263, -0.07472149, -1134606.4, 201791.69, 0.00000031009594, 10.002001, 9.998425 
2.150496e+2, 1.7362727e+2, -975481.94, -1283946.0, -13957.868, 0.08079219, -0.20787095, -974851.6, 263572.8, 0.0, 10.002477, 9.998388 
2.15041e+2, 1.8362501e+2, -901557.4, -1172487.4, -85682.33, 0.037320144, -0.27889672, -876734.44, 263712.28, 0.0, 10.002199, 9.998618 
2.1503118e+2, 1.9362383e+2, -1029385.2, -1187143.9, -113940.64, 0.011922712, -0.27095082, -969684.56, 72775.97, 0.0, 10.000662, 9.998587 
2.1502252e+2, 2.0362307e+2, -971381.75, -976339.1, -67211.74, 0.0460332, -0.25209525, -906603.0, 37866.047, 0.0, 9.999823, 9.999762 
2.1501592e+2, 2.136231e+2, -817540.9, -837539.75, -41360.23, 0.17694917, -0.25183824, -784988.5, 61479.777, 0.0, 10.000145, 9.9998865 
2.1500775e+2, 2.2362264e+2, -797543.4, -882992.8, -92086.81, 0.21114783, -0.24412699, -738752.6, 9720.847, 0.0, 10.000066, 9.9989395 
2.1499693e+2, 2.3362137e+2, -832540.6, -873959.56, -111588.29, 0.07785733, -0.26058823, -739756.4, -89267.94, 0.0, 9.999261, 9.998718 
2.1498707e+2, 2.4362004e+2, -712102.44, -631075.3, -71371.8, -0.006592106, -0.31271297, -589520.1, -37018.742, 0.0, 9.998835, 9.999919 
2.1497889e+2, 2.536188e+2, -577753.9, -500844.44, -30014.61, -0.0042438293, -0.45519835, -490517.6, -36008.38, 0.0, 9.999021, 10.000051 
2.1497148e+2, 2.6361912e+2, -532566.9, -484834.75, -6962.033, 0.055440184, -0.4059641, -483840.03, -127333.375, 0.0, 9.998906, 9.999539 
2.1496518e+2, 2.736217e+2, -549028.2, -463005.25, -32184.736, 0.19100471, -0.102979526, -452296.66, -193807.1, 0.0, 9.998206, 9.999356 
2.1495727e+2, 2.8362203e+2, -490441.7, -389321.97, -97996.79, 0.20642559, 0.004784298, -329610.94, -169120.67, 0.0, 9.997965, 9.999306 
2.1494703e+2, 2.9361957e+2, -324978.94, -265777.8, -111071.875, 0.05887948, -0.18530034, -180429.88, -117917.64, 0.000000034055795, 9.998453, 9.999248 
2.1494001e+2, 3.036194e+2, -208180.84, -71029.35, -48711.277, 0.13838586, -0.166368, -55489.57, -55489.57, 0.0000015569075, 9.99844, 10.000261 
2.1493165e+2, 3.1361964e+2, -301019.8, -54059.793, 25684.697, -0.06220114, -0.19022408, -51416.78, -51416.78, 0.000013189906, 9.997522, 10.000815 
2.2508611e+2, 1.2364065e+2, -1340965.8, -1862450.5, -63978.285, -0.109724954, -0.4608895, -1333231.4, 395049.5, 0.0003865991, 10.003952, 9.997078 
2.2508039e+2, 1.3363804e+2, -1342545.1, -1732004.1, 50060.047, -0.071208775, -0.5035621, -1336213.4, 294093.63, 0.0002058078, 10.002946, 9.997783 
2.2507426e+2, 1.4363596e+2, -1274414.1, -1595808.6, 22204.893, 0.00091771624, -0.51188236, -1272887.3, 259442.83, 0.00007189735, 10.002502, 9.9982605 
2.2506669e+2, 1.5363674e+2, -1116358.6, -1480853.3, -6274.5728, 0.04111369, -0.26584226, -1116250.6, 318078.44, 0.000010694928, 10.002964, 9.998153 
2.2505894e+2, 1.6363662e+2, -1038976.2, -1318458.8, -10505.792, 0.06671316, -0.11754286, -1038581.8, 297751.72, 0.000000092361944, 10.002508, 9.998811 
2.2505075e+2, 1.7363474e+2, -1239698.1, -1364427.1, -4958.95, 0.05291522, -0.20456938, -1239501.3, -1151.2363, 0.0, 10.000455, 9.998815 
2.2504196e+2, 1.8363276e+2, -1277246.6, -1368042.5, -46551.99, 0.041920528, -0.2654313, -1257621.0, -117251.58, 0.0, 9.999682, 9.9984865 
2.2503221e+2, 1.9363089e+2, -994440.6, -1195649.8, -56561.633, 0.03424102, -0.30553442, -979630.75, 62760.918, 0.0, 10.001017, 9.998355 
2.2502321e+2, 2.0363003e+2, -784168.6, -908806.5, -27977.682, 0.06382996, -0.27464312, -778176.5, 166226.34, 0.0, 10.001208, 9.999558 
2.2501549e+2, 2.136309e+2, -931784.5, -913610.56, -54788.79, 0.15692109, -0.17161682, -867160.3, -20764.756, 0.0, 9.999452, 9.999699 
2.2500679e+2, 2.236306e+2, -947100.1, -907958.9, -69081.1, 0.17108807, -0.15516937, -855729.75, -107331.15, 0.0, 9.998838, 9.999358 
2.2499636e+2, 2.3362833e+2, -664762.0, -737207.5, -22536.17, 0.051089816, -0.32199788, -658323.7, -7904.3013, 0.0, 10.00017, 9.999219 
2.2498654e+2, 2.4362695e+2, -461765.88, -504931.0, 16352.398, -0.026544625, -0.41040206, -456270.63, 96160.53, 0.0, 10.000531, 9.999966 
2.2497776e+2, 2.5362727e+2, -544179.3, -487797.53, -16701.682, -0.0270896, -0.39629722, -483221.5, -28795.443, 0.0, 9.999264, 10.000022 
2.2496988e+2, 2.6362798e+2, -648858.2, -595760.9, -19592.137, 0.03417662, -0.28137946, -589314.3, -232893.36, 0.0, 9.998346, 9.999048 
2.2496328e+2, 2.7362922e+2, -609518.25, -554837.6, -29889.592, 0.18878491, -0.057742804, -541670.1, -283252.25, 0.0, 9.998063, 9.998795 
2.2495516e+2, 2.8362882e+2, -472923.84, -372748.3, -31363.006, 0.19984938, 0.0018032303, -363739.34, -203312.84, 0.00000000075483947, 9.998041, 9.999387 
2.2494493e+2, 2.9362646e+2, -340065.6, -259350.95, -6214.619, 0.014148525, -0.18921764, -258875.27, -196428.4, 0.0000002669958, 9.998285, 9.999374 
2.2493784e+2, 3.0362654e+2, -316162.1, -121734.59, 24590.83, 0.117334254, -0.15558802, -118672.62, -118672.62, 0.0000027230408, 9.997683, 10.000278 
2.2492948e+2, 3.13627e+2, -497264.06, -86114.68, 69938.64, 0.052760616, -0.15937172, -74543.414, -74543.414, 0.000014136897, 9.995891, 10.001389 
2.3509021e+2, 1.2364995e+2, -1238946.3, -1655778.3, -111013.42, -0.11360989, -0.119361684, -1211224.1, 516980.75, 0.00032278398, 10.003978, 9.998486 
2.3508474e+2, 1.3364673e+2, -1228395.1, -1502821.6, 12578.15, 0.06207307, -0.37665793, -1227819.9, 402405.63, 0.00016663916, 10.002976, 9.999344 
2.3507819e+2, 1.4364374e+2, -1284554.4, -1615829.4, 29023.588, 0.13578974, -0.55702007, -1282030.9, 250219.05, 0.00005400246, 10.0025, 9.998124 
2.350688e+2, 1.536423e+2, -1143287.5, -1538746.1, 14669.148, -0.056487266, -0.49288344, -1142744.1, 291525.25, 0.000006396683, 10.002973, 9.997751 
2.3505966e+2, 1.6364136e+2, -1027786.7, -1292236.3, -78814.17, -0.1207783, -0.41397804, -1006079.5, 330202.13, 0.000000013163342, 10.002495, 9.998999 
2.3505089e+2, 1.7364095e+2, -1215920.0, -1317221.5, -79677.85, 0.011495412, -0.38192126, -1172156.5, 66127.6, 0.0, 10.0004635, 9.999136 
2.3504235e+2, 1.8363997e+2, -1274846.0, -1359311.8, -14994.097, 0.10420328, -0.3646055, -1272263.3, -131968.52, 0.0, 9.999668, 9.998554 
2.3503424e+2, 1.9363822e+2, -992701.44, -1190533.6, -2789.1533, 0.12757014, -0.3938112, -992662.1, 49655.684, 0.0, 10.00101, 9.998393 
2.3502468e+2, 2.0363763e+2, -832189.2, -1002550.1, -82139.05, 0.08438542, -0.3107281, -799037.4, 145291.66, 0.0, 10.001183, 9.998927 
2.3501278e+2, 2.1363904e+2, -989237.7, -1023711.25, -118133.875, -0.06745518, -0.080174804, -887089.7, -40769.55, 0.0, 9.999413, 9.9989605 
2.3500298e+2, 2.2363922e+2, -875146.4, -749646.56, -36173.05, -0.09992191, -0.020993222, -739966.9, 8351.901, 0.0, 9.998802, 10.0004635 
2.3499669e+2, 2.3363735e+2, -571644.9, -535026.25, 32182.268, 0.05988126, -0.28463295, -516309.47, 134020.78, 0.0, 10.000134, 10.000625 
2.349889e+2, 2.4363692e+2, -505713.75, -590178.44, -21643.533, 0.14725068, -0.33381632, -500490.72, 51841.273, 0.0, 10.000504, 9.999394 
2.349786e+2, 2.5363907e+2, -613399.94, -621191.94, -63070.113, 0.12274981, -0.048403226, -554105.6, -99789.7, 0.0, 9.99922, 9.999126 
2.3496908e+2, 2.6363924e+2, -679841.4, -652765.94, -37506.914, 0.114413895, 0.07988242, -626428.4, -270110.3, 0.0, 9.998317, 9.99867 
2.3496068e+2, 2.7363598e+2, -634443.7, -596308.75, -35457.285, 0.11645356, -0.11705383, -575117.2, -316765.22, 0.0, 9.99802, 9.9985285 
2.3495169e+2, 2.8363386e+2, -435537.0, -287078.2, -26271.88, 0.042740945, -0.2439676, -282566.13, -122192.98, 0.00000003119879, 9.998006, 9.999992 
2.3494202e+2, 2.936341e+2, -294934.38, -157050.61, 5305.574, -0.11532742, -0.24907668, -156846.77, -94478.72, 0.00000087505157, 9.998248, 10.000094 
2.3493521e+2, 3.0363512e+2, -332354.06, -147212.36, -35810.453, 0.08157964, -0.14652172, -140527.22, -140527.22, 0.0000050395365, 9.997649, 10.00012 
2.3492688e+2, 3.1363538e+2, -482636.6, -36544.82, 23383.719, 0.19071159, -0.15219045, -35322.418, -35322.418, 0.00001767749, 9.995812, 10.001765 
2.4509563e+2, 1.236595e+2, -1102621.6, -1616603.0, 138402.16, -0.017178087, -0.1295296, -1067723.0, 660387.25, 0.00026305972, 10.005034, 9.998245 
2.4508885e+2, 1.3365646e+2, -1065986.3, -1454117.6, 120878.0, 0.11548478, -0.34141976, -1031419.1, 598710.8, 0.00013054525, 10.004222, 9.999081 
2.4508138e+2, 1.436535e+2, -1199910.3, -1599463.5, 80490.875, 0.17219009, -0.49412304, -1184304.8, 347849.66, 0.000038366878, 10.003189, 9.997902 
2.450713e+2, 1.5365118e+2, -1322592.9, -1649875.9, 74698.99, -0.04478954, -0.49667928, -1306349.8, 127832.39, 0.000003303544, 10.001856, 9.997525 
2.4506147e+2, 1.636496e+2, -1202819.6, -1386832.9, -20243.807, -0.12821575, -0.4648845, -1200618.9, 135581.69, 0.00000000018007511, 10.001338, 9.998905 
2.450521e+2, 1.7364904e+2, -983820.5, -1213761.5, -55474.555, 0.007028369, -0.43850017, -971136.6, 267068.28, 0.0, 10.002095, 9.999057 
2.4504307e+2, 1.8364851e+2, -921026.8, -1170584.8, 19870.014, 0.09446139, -0.3809818, -919454.6, 220757.42, 0.0, 10.00202, 9.998716 
2.450347e+2, 1.9364803e+2, -1052967.6, -1197412.5, 41756.266, 0.1001828, -0.30298707, -1041765.44, 457.8045, 0.0, 10.000501, 9.998592 
2.4502476e+2, 2.0364752e+2, -1055978.4, -1139427.3, -30536.434, 0.045210123, -0.21321994, -1045997.9, -101764.195, 0.0, 9.99977, 9.99867 
2.4501228e+2, 2.1364704e+2, -885052.6, -1011536.25, -46189.32, -0.09986996, -0.13800272, -869981.1, -23739.064, 0.0, 10.000295, 9.998622 
2.4500218e+2, 2.2364652e+2, -695549.2, -677930.5, 37352.2, -0.12201305, -0.12304488, -648362.9, 99884.305, 0.0, 10.000096, 10.000334 
2.4499601e+2, 2.3364596e+2, -795547.1, -652405.3, -7109.2534, 0.056702856, -0.24474297, -652053.1, -1806.2334, 0.0, 9.998638, 10.00054 
2.449883e+2, 2.4364609e+2, -868740.5, -792475.7, -107223.28, 0.15921004, -0.2231399, -716806.06, -164561.84, 0.0, 9.998133, 9.999148 
2.4497801e+2, 2.5364742e+2, -620666.56, -655001.2, -109015.805, 0.1392653, 0.0058609364, -527474.6, -73237.65, 0.0, 9.999301, 9.9988575 
2.449683e+2, 2.636468e+2, -437706.03, -513916.5, -43490.633, 0.12725957, 0.06109604, -417988.75, -61742.73, 0.0, 9.999874, 9.998878 
2.449594e+2, 2.73643e+2, -413332.44, -458801.88, -4971.8115, 0.11955034, -0.21951005, -412795.16, -154513.13, 0.0, 9.999399, 9.998812 
2.4494988e+2, 2.8364113e+2, -352953.47, -226935.52, 11464.568, 0.039079987, -0.33987987, -225901.02, -65602.43, 0.00000009380251, 9.998491, 10.000168 
2.4493952e+2, 2.9364285e+2, -484468.94, -231477.44, -12891.198, -0.120074525, -0.21555611, -230822.27, -168541.63, 0.0000015673739, 9.996878, 10.000243 
2.449322e+2, 3.0364364e+2, -560587.25, -296319.66, -66062.84, 0.08752548, -0.12779054, -280725.2, -280725.2, 0.000007492646, 9.996255, 9.999769 
2.4492407e+2, 3.1364313e+2, -251873.44, 70554.99, -14565.25, 0.25319633, -0.17144182, 71211.62, 71211.62, 0.000021673697, 9.997423, 10.00172 
2.5510213e+2, 1.2366937e+2, -1226672.0, -1882390.6, 90722.81, 0.11148671, -0.47141683, -1214351.4, 513645.34, 0.0002098232, 10.005062, 9.996411 
2.5509262e+2, 1.3366717e+2, -1202660.9, -1743638.8, 89621.24, 0.06162044, -0.39976707, -1188200.3, 441821.03, 0.00009902971, 10.004244, 9.997084 
2.550838e+2, 1.4366513e+2, -1223581.0, -1649365.8, 29288.072, 0.08552425, -0.33147576, -1221575.9, 310468.75, 0.000025643241, 10.003192, 9.997559 
2.55074e+2, 1.5366322e+2, -1324085.0, -1655732.3, 27402.645, 0.029995307, -0.28731197, -1321836.0, 112232.52, 0.0000014046367, 10.001868, 9.9974785 
2.550642e+2, 1.6366124e+2, -1229268.1, -1441636.6, -4677.9043, 0.0023241295, -0.27637786, -1229165.1, 106926.1, 0.0, 10.001336, 9.998531 
2.5505424e+2, 1.7365906e+2, -1011767.3, -1273784.5, -23544.162, 0.0031792733, -0.3709677, -1009668.5, 228444.03, 0.0, 10.002105, 9.99864 
2.5504404e+2, 1.8365839e+2, -903584.94, -1132813.5, -28798.488, -0.018813457, -0.3132262, -900022.3, 240098.86, 0.0, 10.002011, 9.998981 
2.5503346e+2, 1.9366024e+2, -1027150.6, -1141309.9, -12702.354, -0.08142178, -0.03862778, -1025754.4, 16354.187, 0.0, 10.000488, 9.998984 
2.5502333e+2, 2.036596e+2, -1055839.3, -1130999.8, -22612.855, -0.07884888, 0.010469016, -1049560.4, -105442.85, 0.0, 9.999735, 9.998745 
2.5501388e+2, 2.1365476e+2, -885872.8, -1009537.6, -22068.371, 0.02400064, -0.35110918, -882052.6, -35890.434, 0.0, 10.000276, 9.998647 
2.5500423e+2, 2.2365238e+2, -793087.06, -873204.2, -11314.666, 0.06825406, -0.46698824, -791519.75, -43335.008, 0.0, 10.000067, 9.999006 
2.5499424e+2, 2.3365414e+2, -909928.0, -879733.94, -60176.2, 0.011676758, -0.20320772, -832789.94, -182620.27, 0.0, 9.998595, 9.999001 
2.5498468e+2, 2.4365444e+2, -867570.8, -782760.7, -78271.11, -0.023424516, -0.07976844, -736145.75, -183977.64, 0.0, 9.998103, 9.999228 
2.5497586e+2, 2.536522e+2, -602063.56, -608215.94, -61496.62, -0.01525371, -0.24076715, -543566.25, -89375.984, 0.0, 9.999264, 9.999197 
2.549674e+2, 2.6365057e+2, -385169.6, -398227.88, -55822.137, 0.04252271, -0.34099048, -335496.06, 20709.574, 0.0, 9.999846, 9.999686 
2.5495937e+2, 2.7365014e+2, -358519.0, -333867.1, -19489.988, 0.16728929, -0.3659442, -323132.5, -64924.25, 0.0, 9.99935, 9.999696 
2.5494963e+2, 2.836507e+2, -379858.13, -273740.78, -47075.04, 0.15888262, -0.28513238, -255867.94, -95665.15, 0.00000013915765, 9.998454, 9.999865 
2.549373e+2, 2.9365262e+2, -526781.25, -304006.53, -74304.7, -0.03562924, -0.091145486, -281497.16, -219311.39, 0.0000020008988, 9.996812, 9.999777 
2.5492865e+2, 3.0365196e+2, -608173.94, -380855.8, -37912.406, 0.1024241, -0.10255596, -374699.47, -374699.47, 0.000009108913, 9.996197, 9.999216 
2.549209e+2, 3.1364998e+2, -294310.1, -5250.6343, 51482.746, 0.17482881, -0.22616413, 3644.9138, 3644.9138, 0.000024996654, 9.997373, 10.0012245 
2.651077e+2, 1.23679124e+2, -1252573.9, -1940296.4, -130873.234, 0.16310662, -0.55210614, -1228510.8, 499388.88, 0.00016536088, 10.005083, 9.995996 
2.6509693e+2, 1.3367733e+2, -1174458.8, -1788976.1, -28970.969, 0.050407015, -0.38902405, -1173096.0, 456829.25, 0.00007329516, 10.004686, 9.99656 
2.650872e+2, 1.4367582e+2, -1125714.9, -1595107.3, -32995.086, 0.07680192, -0.24309425, -1123406.9, 408539.22, 0.000016155976, 10.003837, 9.997619 
2.650767e+2, 1.5367392e+2, -1243382.6, -1601418.8, -30071.13, 0.090333626, -0.20948385, -1240874.6, 193093.52, 0.00000046134082, 10.002358, 9.997615 
2.6506644e+2, 1.6367199e+2, -1232874.3, -1450964.9, 15940.56, 0.093676254, -0.19963272, -1231715.3, 104274.35, 0.0, 10.001347, 9.998464 
2.650563e+2, 1.736699e+2, -1169184.9, -1361621.0, 23141.824, 0.054051567, -0.27286163, -1166441.0, 71569.67, 0.0, 10.001076, 9.998535 
2.650455e+2, 1.83669e+2, -1100245.5, -1227014.3, -17529.254, -0.0024576844, -0.23153293, -1097866.3, 42155.176, 0.0, 10.000659, 9.998985 
2.650337e+2, 1.9367015e+2, -1107593.6, -1179162.0, -41407.125, -0.075576745, -0.030047672, -1088650.8, -46636.266, 0.0, 9.999932, 9.998992 
2.650232e+2, 2.036693e+2, -1033810.5, -1090311.3, 3719.4578, -0.06438172, -0.01288562, -1033566.7, -89542.87, 0.0, 9.999764, 9.999006 
2.650148e+2, 2.136651e+2, -835230.2, -952624.7, 28131.938, 0.080807574, -0.34007242, -828836.94, 17223.686, 0.0, 10.000487, 9.998932 
2.6500523e+2, 2.2366285e+2, -716978.56, -893469.2, 31807.451, 0.12162386, -0.43605617, -711421.2, 36660.44, 0.0, 10.000833, 9.998499 
2.649936e+2, 2.3366407e+2, -671430.7, -835770.75, 35332.88, -0.004350645, -0.16704294, -664156.2, -14081.768, 0.0, 10.000537, 9.998367 
2.649832e+2, 2.4366368e+2, -570891.9, -635933.4, 100066.39, -0.077929504, -0.07649528, -498194.38, 53885.63, 0.0, 10.000123, 9.999263 
2.6497483e+2, 2.536606e+2, -549758.0, -563404.2, 106550.61, -0.05390448, -0.3348886, -449812.22, 4295.5625, 0.0, 9.999547, 9.999363 
2.6496646e+2, 2.6365918e+2, -501688.13, -415025.66, 62446.477, 0.016108818, -0.43748495, -382349.28, -26228.951, 0.0, 9.998884, 10.00003 
2.6495793e+2, 2.736609e+2, -517889.38, -367041.97, 49312.11, 0.15798731, -0.28914118, -352352.28, -94247.61, 0.0, 9.998077, 10.000074 
2.6494798e+2, 2.836623e+2, -459045.44, -325508.6, 22542.098, 0.17383598, -0.13657172, -321805.97, -161714.03, 0.00000017298198, 9.997965, 9.999745 
2.6493558e+2, 2.9366285e+2, -234693.61, -179606.8, 12942.748, 0.013058211, -0.061235294, -176717.42, -114629.586, 0.0000022405377, 9.998885, 9.999632 
2.6492566e+2, 3.036612e+2, -320025.03, -209576.5, 68845.82, 0.10008916, -0.17857543, -176542.81, -176542.81, 0.00001010162, 9.99802, 9.999517 
2.649156e+2, 3.1366122e+2, -739530.3, -202078.06, 227726.97, 0.06521286, -0.13687174, -118563.78, -118563.78, 0.00002797797, 9.994226, 10.001391 
2.751121e+2, 1.236886e+2, -1188988.8, -1806826.9, -159760.69, 0.074289754, -0.3897437, -1150122.8, 577696.8, 0.00013125803, 10.0050745, 9.996916 
2.751016e+2, 1.3368697e+2, -1106278.3, -1647169.0, -43869.785, 0.03878967, -0.30869117, -1102743.3, 527098.06, 0.00005412564, 10.004688, 9.997528 
2.7509147e+2, 1.4368564e+2, -1095778.9, -1535231.9, -87994.54, 0.111106165, -0.2171183, -1078814.1, 453043.7, 0.000009862749, 10.003841, 9.998031 
2.750793e+2, 1.5368336e+2, -1216119.9, -1549276.1, -82684.78, 0.107349835, -0.2550363, -1196727.5, 237152.58, 0.00000011248763, 10.002379, 9.997963 
2.7506807e+2, 1.6368185e+2, -1214540.5, -1418228.4, -2605.4055, 0.11745771, -0.23017573, -1214507.3, 121388.14, 0.0, 10.0013685, 9.998677 
2.7505815e+2, 1.7368151e+2, -1154214.6, -1330943.8, 16619.795, 0.1187089, -0.15090182, -1152665.4, 85234.72, 0.0, 10.001078, 9.998743 
2.7504733e+2, 1.8368031e+2, -1123722.8, -1270535.9, -45057.26, 0.107762955, -0.14034925, -1110997.5, 28916.047, 0.0, 10.000637, 9.998697 
2.7503526e+2, 1.936778e+2, -1132993.9, -1229761.9, -65526.445, 0.078467175, -0.27097183, -1099924.1, -57983.664, 0.0, 9.9999275, 9.998645 
2.7502424e+2, 2.0367676e+2, -1004362.75, -1027241.94, 21804.209, 0.05630989, -0.26992333, -991179.44, -47228.03, 0.0, 9.999754, 9.999447 
2.7501494e+2, 2.1367808e+2, -798751.44, -869640.0, 60040.47, 0.034795854, -0.10481771, -764473.75, 81463.555, 0.0, 10.000454, 9.999517 
2.75005e+2, 2.2367795e+2, -703922.44, -857205.7, 23014.049, 0.0098290695, -0.033568423, -700541.6, 47396.484, 0.0, 10.000793, 9.998768 
2.7499405e+2, 2.3367558e+2, -660737.9, -805166.8, 27177.209, -0.022102237, -0.14448257, -655793.2, -5830.871, 0.0, 10.0005, 9.998595 
2.7498385e+2, 2.4367371e+2, -572329.9, -633058.9, 77131.71, -0.0344304, -0.21793891, -519801.06, 32179.592, 0.0, 10.000099, 9.999292 
2.7497488e+2, 2.5367257e+2, -556482.56, -569618.1, 87409.445, -0.011895659, -0.28045872, -475394.5, -21404.607, 0.0, 9.99951, 9.99934 
2.7496544e+2, 2.636727e+2, -518068.47, -437472.2, 30122.545, 0.017131142, -0.2246408, -427458.22, -71468.336, 0.0, 9.998838, 9.999895 
2.74955e+2, 2.7367505e+2, -534992.3, -393285.75, 23015.422, 0.04910472, 0.007253988, -389641.4, -131669.22, 0.00000000009324417, 9.998037, 9.999914 
2.749447e+2, 2.8367588e+2, -455429.13, -311532.8, 48682.81, 0.04370547, 0.10168893, -296610.06, -136643.23, 0.00000023612336, 9.997938, 9.999852 
2.7493432e+2, 2.9367343e+2, -226521.05, -155508.63, 53206.605, -0.01436978, -0.1353793, -127048.96, -65061.3, 0.0000024950837, 9.998851, 9.999814 
2.7492318e+2, 3.036714e+2, -239988.11, -32558.71, -54921.703, 0.04339289, -0.35785902, -18914.42, -18914.42, 0.000010927285, 9.997982, 10.000746 
2.7490774e+2, 3.1367686e+2, -699000.1, -85974.97, 99056.484, -0.1572123, 0.09263208, -70366.23, -70366.23, 0.000030095847, 9.994093, 10.002249 
2.851164e+2, 1.2369995e+2, -1235792.4, -1769570.1, -17023.959, 0.031392228, -0.2552381, -1235250.0, 492467.34, 0.00010697663, 10.004497, 9.99745 
2.8510615e+2, 1.3369831e+2, -1214156.1, -1646347.3, 52446.414, 0.07788437, -0.22326852, -1207882.8, 421853.88, 0.000041329215, 10.003719, 9.998001 
2.850958e+2, 1.4369707e+2, -1153201.4, -1528469.9, -9117.938, 0.19407159, -0.16281581, -1152979.9, 378769.97, 0.0000062880904, 10.0033, 9.998338 
2.8508204e+2, 1.5369444e+2, -1032105.7, -1430852.9, -15442.28, 0.08936977, -0.26248083, -1031508.56, 402264.6, 0.000000028346124, 10.003504, 9.998239 
2.8506973e+2, 1.6369288e+2, -957458.3, -1283930.1, 56029.45, 0.059126087, -0.26279423, -948110.2, 387677.66, 0.0, 10.003099, 9.998763 
2.8505954e+2, 1.7369294e+2, -1058689.5, -1281203.9, 54370.887, 0.12347129, -0.14641683, -1046114.75, 191674.3, 0.0, 10.001721, 9.998776 
2.8504872e+2, 1.8369178e+2, -1036654.06, -1230582.9, 32262.762, 0.1566671, -0.13212556, -1031427.56, 108374.516, 0.0, 10.001246, 9.998675 
2.8503692e+2, 1.9368868e+2, -802944.44, -1076850.4, 32875.813, 0.13963808, -0.31588104, -799053.75, 242779.89, 0.0, 10.002214, 9.998595 
2.8502557e+2, 2.0368765e+2, -662983.5, -873669.2, 97008.336, 0.09613397, -0.30813733, -625121.1, 318723.63, 0.0, 10.002138, 9.999352 
2.8501496e+2, 2.1369001e+2, -828868.9, -894488.06, 73145.73, 0.002322224, -0.026921358, -781511.4, 64310.938, 0.0, 10.000294, 9.999424 
2.8500456e+2, 2.2369014e+2, -902587.56, -942994.44, 33032.39, -0.041804887, 0.07184726, -884069.94, -136248.36, 0.0, 9.99939, 9.998855 
2.849945e+2, 2.3368664e+2, -717432.25, -818631.3, 26904.287, 0.00010050088, -0.16338925, -710724.25, -60868.086, 0.0, 10.000051, 9.998719 
2.8498435e+2, 2.4368486e+2, -569489.5, -570859.9, 54122.305, 0.01888015, -0.25843093, -516048.03, 35824.895, 0.0, 9.999854, 9.999841 
2.8497392e+2, 2.5368592e+2, -693024.9, -566471.94, 97454.2, 0.003001279, -0.16167942, -513553.6, -59693.395, 0.0, 9.998278, 9.999957 
2.849633e+2, 2.636867e+2, -720504.44, -547002.56, 104036.79, -0.0054689446, -0.071692586, -498293.63, -142440.42, 0.0, 9.997495, 9.999794 
2.8495258e+2, 2.7368718e+2, -560871.8, -426067.06, 90490.29, 0.0078046666, -0.0049207783, -380635.16, -122782.33, 0.0000000018932573, 9.997946, 9.999734 
2.849421e+2, 2.8368735e+2, -497631.0, -290163.6, 118329.43, 0.014682832, 0.01948613, -236536.13, -76682.99, 0.00000028816427, 9.997467, 10.000231 
2.8493187e+2, 2.936864e+2, -676685.8, -314707.72, 139772.95, 0.022810977, -0.115306415, -267019.0, -205159.64, 0.0000027347362, 9.995517, 10.000329 
2.849199e+2, 3.03685e+2, -632862.6, -149484.6, 7118.499, 0.06712019, -0.33526394, -149379.78, -149379.78, 0.000011893844, 9.99497, 10.001396 
2.8490287e+2, 3.1368992e+2, -364258.4, 89688.0, 95649.48, -0.15910544, 0.0035147457, 109018.79, 109018.79, 0.000031796684, 9.996332, 10.002377 
2.9512036e+2, 1.23713315e+2, -1227415.8, -1759545.8, -59667.637, -0.04599649, -0.13282005, -1220807.3, 506784.6, 0.000090415575, 10.004523, 9.997509 
2.951105e+2, 1.3371131e+2, -1214123.0, -1650794.9, 24171.959, 0.13198836, -0.13537487, -1212789.0, 416822.97, 0.000033578646, 10.003739, 9.997961 
2.9510015e+2, 1.4370997e+2, -1141168.6, -1502682.9, -10974.278, 0.2881571, -0.08766371, -1140835.9, 390787.9, 0.0000046865553, 10.003294, 9.998518 
2.9508469e+2, 1.5370713e+2, -1021440.3, -1400787.6, -4927.025, -0.0036345185, -0.23117666, -1021376.3, 412271.56, 0.00000001715619, 10.003474, 9.998457 
2.9507115e+2, 1.6370507e+2, -967153.1, -1299587.5, 8688.501, -0.11394514, -0.29051185, -966926.2, 368740.66, 0.0, 10.0030775, 9.998666 
2.950605e+2, 1.737042e+2, -1067209.3, -1300378.5, 5885.39, 0.03660596, -0.25367707, -1067060.8, 170616.56, 0.0, 10.001729, 9.998638 
2.950496e+2, 1.837034e+2, -1021722.3, -1199738.5, 54775.676, 0.1129114, -0.2052259, -1006218.1, 133468.83, 0.0, 10.0012455, 9.998889 
2.9503858e+2, 1.937027e+2, -786622.25, -1039962.7, 73481.82, 0.07336193, -0.17560844, -766851.6, 274843.56, 0.0, 10.002201, 9.998856 
2.9502702e+2, 2.0370184e+2, -715789.44, -974313.2, 38463.98, 0.021464696, -0.13543041, -710188.0, 233517.05, 0.0, 10.002102, 9.998678 
2.9501474e+2, 2.137008e+2, -892022.56, -1015092.94, 6849.203, -0.054922864, -0.11404423, -891642.56, -45925.69, 0.0, 10.00025, 9.998616 
2.9500374e+2, 2.2369936e+2, -915384.1, -958676.94, 42194.29, -0.0668488, -0.12367951, -889607.7, -141874.67, 0.0, 9.999342, 9.99877 
2.9499492e+2, 2.3369727e+2, -723137.1, -819679.9, 55848.316, 0.030482741, -0.21945815, -697590.06, -47834.227, 0.0, 10.000004, 9.998734 
2.9498458e+2, 2.4369723e+2, -498399.72, -417100.2, 1728.7496, 0.051859017, -0.18960582, -417063.44, 134692.81, 0.0, 9.9998255, 10.000912 
2.9497173e+2, 2.5370046e+2, -611779.4, -391536.25, 41443.008, -0.04862669, 0.005416985, -383996.1, 69724.03, 0.0, 9.998246, 10.001176 
2.9496008e+2, 2.6370096e+2, -729657.06, -558977.94, 109953.336, -0.08595479, 0.004791147, -505132.1, -149420.13, 0.0, 9.997465, 9.999725 
2.949504e+2, 2.736971e+2, -584596.2, -467516.94, 111374.0, -0.012229915, -0.3409904, -400235.03, -142486.89, 0.0000000016821552, 9.997909, 9.999468 
2.9493997e+2, 2.836967e+2, -457619.56, -196161.31, 50486.402, 0.050176073, -0.38539135, -186751.28, -26999.924, 0.00000022409213, 9.997423, 10.000897 
2.94928e+2, 2.937017e+2, -628917.4, -199526.3, 72733.49, 0.07880983, -0.004408535, -187540.72, -125837.73, 0.0000026529046, 9.995447, 10.001154 
2.9491556e+2, 3.0370197e+2, -639264.6, -146512.13, 45970.234, 0.13403346, -0.10914131, -142260.13, -142260.13, 0.000012290724, 9.994903, 10.001448 
2.9490072e+2, 3.1370005e+2, -410576.6, -2303.777, 163353.48, -0.027116429, -0.4442383, 55009.68, 55009.68, 0.000033071607, 9.996311, 10.001755 
3.0512604e+2, 1.23726144e+2, -1224471.4, -1718265.3, -73269.445, 0.08345285, -0.06786182, -1213829.0, 513640.84, 0.00007904222, 10.004377, 9.997865 
3.05114e+2, 1.3372342e+2, -1171957.6, -1605536.9, 20495.916, 0.105020314, -0.16416211, -1170991.0, 458502.3, 0.000029149944, 10.003912, 9.998197 
3.0510285e+2, 1.4372213e+2, -1156227.0, -1504536.0, 6536.0615, 0.23830058, -0.12929258, -1156104.4, 375398.97, 0.000004277796, 10.003172, 9.998563 
3.0508772e+2, 1.5372e+2, -1226756.8, -1501054.8, -12735.341, 0.023949599, -0.2032725, -1226166.8, 207355.9, 0.000000032166714, 10.0020685, 9.998446 
3.0507404e+2, 1.6371807e+2, -1214186.5, -1426243.9, -7808.151, -0.046863344, -0.24207786, -1213899.4, 121641.29, 0.0, 10.001409, 9.998602 
3.050625e+2, 1.7371662e+2, -1110970.4, -1326940.1, -10708.312, 0.080108, -0.26045388, -1110440.6, 127115.445, 0.0, 10.00145, 9.99859 
3.0505088e+2, 1.8371575e+2, -1012264.6, -1174120.4, 73376.67, 0.11744698, -0.22380875, -983952.1, 155613.3, 0.0, 10.001221, 9.999078 
3.0503938e+2, 1.937159e+2, -1010846.2, -1121033.6, 85972.49, 0.018055012, -0.13197948, -963829.25, 77735.414, 0.0, 10.000548, 9.999093 
3.050276e+2, 2.0371513e+2, -971775.25, -1108359.5, 50461.465, -0.041450676, -0.09213185, -955154.6, -11580.99, 0.0, 10.000391, 9.998584 
3.0501553e+2, 2.1371293e+2, -787876.44, -982627.6, 58541.508, -0.03579965, -0.1714417, -771633.75, 73964.164, 0.0, 10.001036, 9.998465 
3.0500436e+2, 2.2371128e+2, -675543.9, -807433.0, 148073.78, -0.010932361, -0.20599478, -579394.25, 168221.97, 0.0, 10.000836, 9.999087 
3.0499473e+2, 2.337106e+2, -806106.94, -814544.6, 181526.84, 0.048164994, -0.20141773, -628749.94, 20874.414, 0.0, 9.999247, 9.999131 
3.0498368e+2, 2.4371102e+2, -714810.06, -540838.3, 105769.836, 0.049183164, -0.13770309, -490879.66, 60740.445, 0.0, 9.9984255, 10.000734 
3.049703e+2, 2.537133e+2, -535153.2, -381077.88, 29119.361, -0.04329338, -0.014632184, -375758.13, 77837.23, 0.0, 9.998891, 10.000934 
3.0495828e+2, 2.6371333e+2, -485925.22, -403284.2, 73202.11, -0.08608938, -0.06646029, -360545.6, -4954.271, 0.0, 9.998974, 10.00007 
3.0494836e+2, 2.7370965e+2, -475282.28, -367977.44, 122225.71, -0.032707993, -0.43633, -288146.88, -30526.045, 0.00000000014964384, 9.99846, 9.999887 
3.049374e+2, 2.8370926e+2, -400931.75, -216054.27, 24586.678, 0.022296349, -0.48442847, -212840.38, -53217.75, 0.00000013461268, 9.998019, 10.000468 
3.049244e+2, 2.9371428e+2, -345176.84, -125307.625, -66975.32, 0.06787424, -0.04571199, -106512.625, -44933.965, 0.0000024042524, 9.997669, 10.000588 
3.0491152e+2, 3.037151e+2, -321393.75, 32459.182, -103850.42, 0.14236456, -0.0744805, 60686.03, 60686.03, 0.000011913728, 9.996967, 10.001684 
3.04898e+2, 3.1371248e+2, -540995.7, -56872.492, 39555.363, 0.11942447, -0.51317537, -53661.91, -53661.91, 0.0000326923, 9.995372, 10.001838 
3.1513318e+2, 1.2373844e+2, -1177252.1, -1623454.4, -99098.516, 0.3414005, -0.05846775, -1156233.1, 571118.06, 0.0000709735, 10.004394, 9.9985075 
3.151166e+2, 1.3373488e+2, -1133916.1, -1525878.9, 5557.24, -0.033426158, -0.29445583, -1133837.4, 495541.4, 0.00002673591, 10.003915, 9.99874 
3.1510386e+2, 1.437337e+2, -1167625.8, -1529725.9, -36272.484, 0.012935843, -0.27127618, -1164028.0, 367359.25, 0.0000044998383, 10.003176, 9.998389 
3.1509095e+2, 1.5373296e+2, -1244122.8, -1539929.0, -51503.863, 0.13266478, -0.17921746, -1235411.8, 197985.95, 0.00000006594377, 10.00208, 9.998174 
3.1507823e+2, 1.6373183e+2, -1212620.9, -1425784.6, -15297.661, 0.22268257, -0.12389403, -1211528.6, 123881.79, 0.0, 10.001418, 9.998602 
3.1506535e+2, 1.7373012e+2, -1107511.6, -1320602.6, -5999.1865, 0.21640125, -0.17066954, -1107342.9, 130083.02, 0.0, 10.001455, 9.9986315 
3.1505233e+2, 1.8372883e+2, -1000243.5, -1151068.0, 49122.168, 0.13315167, -0.1848419, -985655.8, 153781.55, 0.0, 10.0012245, 9.999236 
3.150392e+2, 1.9372824e+2, -1000034.4, -1094631.1, 64439.453, -0.061385576, -0.18468042, -967397.94, 74044.34, 0.0, 10.000529, 9.999285 
3.1502727e+2, 2.0372748e+2, -942678.56, -1038246.3, 64792.53, -0.123920724, -0.17680967, -909955.5, 33495.28, 0.0, 10.00035, 9.999084 
3.1501722e+2, 2.1372645e+2, -755932.25, -907228.25, 86815.75, 0.021373786, -0.19339769, -716429.94, 129034.98, 0.0, 10.000998, 9.9990015 
3.1500623e+2, 2.2372602e+2, -628529.5, -703432.4, 96078.016, 0.085190676, -0.16801332, -562861.6, 184608.86, 0.0, 10.000808, 9.999816 
3.149937e+2, 2.3372656e+2, -759228.25, -709246.1, 125272.52, 0.01767489, -0.113506675, -606496.2, 42966.117, 0.0, 9.999209, 9.999874 
3.1498143e+2, 2.4372616e+2, -818422.4, -749330.5, 110168.74, -0.021729518, -0.11127367, -668418.3, -116952.65, 0.0, 9.998399, 9.999315 
3.1496957e+2, 2.537244e+2, -661668.5, -634292.6, 48644.62, -0.0154926935, -0.22275533, -597446.8, -143960.36, 0.0, 9.998851, 9.999214 
3.1495783e+2, 2.6372376e+2, -432013.75, -288760.3, 55381.227, -0.034264125, -0.27796447, -269847.2, 85643.875, 0.0, 9.99896, 10.000865 
3.149463e+2, 2.7372482e+2, -395644.63, -197741.84, 106378.49, -0.09330375, -0.28850386, -151408.14, 106062.55, 0.00000000001473293, 9.998433, 10.001071 
3.1493416e+2, 2.8372496e+2, -518102.97, -449776.53, 7381.163, -0.10543245, -0.28186256, -448988.25, -289520.9, 0.000000108201135, 9.99798, 9.998882 
3.1492084e+2, 2.9372394e+2, -490233.38, -418442.34, -75543.65, -0.06352595, -0.25346386, -370699.75, -309211.1, 0.0000022594174, 9.997637, 9.99859 
3.1490764e+2, 3.037242e+2, -291219.0, 97532.98, -158258.11, 0.04949214, -0.24105637, 153811.44, 153811.44, 0.000011524727, 9.996958, 10.002136 
3.1489432e+2, 3.137273e+2, -487661.72, 69478.51, -19534.39, 0.1967623, -0.19037738, 70162.58, 70162.58, 0.00003194629, 9.995305, 10.002736 
3.251373e+2, 1.2375178e+2, -1289736.3, -1658902.6, -9996.513, 0.36344185, -0.08492027, -1289465.8, 437752.75, 0.000065485816, 10.003538, 9.998674 
3.2511973e+2, 1.3374828e+2, -1298819.9, -1599679.4, 44471.746, -0.051379763, -0.32197532, -1292384.0, 336862.0, 0.000025738174, 10.002757, 9.99879 
3.2510665e+2, 1.4374717e+2, -1273797.8, -1572984.6, 7836.819, 0.01968632, -0.29557785, -1273592.6, 257661.56, 0.000005011868, 10.002417, 9.998453 
3.2509357e+2, 1.5374665e+2, -1128808.0, -1473094.8, 13844.112, 0.1523237, -0.19048715, -1128252.3, 305010.88, 0.000000115129794, 10.00283, 9.998267 
3.250806e+2, 1.6374558e+2, -958858.7, -1297541.4, 88761.46, 0.2346689, -0.13709468, -937006.2, 398268.8, 0.0, 10.003146, 9.998644 
3.250674e+2, 1.7374365e+2, -834577.1, -1187546.3, 91153.14, 0.1842052, -0.20638826, -812427.1, 424864.1, 0.0, 10.0033245, 9.998643 
3.2505402e+2, 1.837422e+2, -776819.4, -1037504.9, 101475.36, 0.10456043, -0.23915282, -741975.94, 397327.47, 0.0, 10.002741, 9.999282 
3.2504043e+2, 1.9374156e+2, -939672.4, -1059792.3, 94113.52, -0.00742967, -0.24899858, -888087.56, 153221.31, 0.0, 10.000922, 9.999333 
3.2502803e+2, 2.0374095e+2, -1005242.94, -1060387.3, 138191.67, -0.050882693, -0.23212047, -891899.6, 51416.758, 0.0, 9.999887, 9.999156 
3.250177e+2, 2.1374045e+2, -883747.0, -958776.8, 127514.12, 0.01764912, -0.20385833, -788343.8, 56982.66, 0.0, 10.00008, 9.999088 
3.250061e+2, 2.2374049e+2, -707426.7, -699893.0, 66637.62, 0.028637016, -0.15297073, -636915.9, 110411.695, 0.0, 10.000081, 10.000195 
3.2499254e+2, 2.337414e+2, -639219.44, -603429.4, 60395.504, -0.049349677, -0.104835875, -558333.56, 90980.55, 0.0, 9.999819, 10.000311 
3.2497975e+2, 2.4374084e+2, -709247.6, -766875.94, 96482.18, -0.07959299, -0.11761368, -637368.8, -86049.484, 0.0, 9.999447, 9.998693 
3.2496828e+2, 2.53738e+2, -701261.2, -738761.25, 106871.32, -0.030505762, -0.25991523, -611507.56, -158153.83, 0.0, 9.998945, 9.998453 
3.249565e+2, 2.6373732e+2, -512073.5, -289290.1, 119482.8, -0.024601167, -0.28950956, -237328.66, 118031.56, 0.0, 9.998252, 10.001199 
3.249443e+2, 2.7374e+2, -531742.7, -209609.55, 109861.67, -0.08000267, -0.18581934, -175709.39, 81613.93, 0.00000000010851988, 9.9972725, 10.001548 
3.2493162e+2, 2.8374046e+2, -686845.1, -515809.72, 67556.91, -0.09524056, -0.18252127, -492344.78, -333028.97, 0.00000014601811, 9.996756, 9.999021 
3.2491812e+2, 2.937377e+2, -583093.94, -456422.6, 139391.33, -0.06246822, -0.33179086, -366652.56, -305301.2, 0.000002235968, 9.996974, 9.99865 
3.2490408e+2, 3.0373788e+2, -329576.13, 23317.217, 81837.36, 0.003548929, -0.307536, 41371.91, 41371.91, 0.000011294619, 9.996944, 10.001629 
3.2488924e+2, 3.1374198e+2, -363406.94, 104637.805, 90671.305, 0.11745931, -0.10157874, 121589.05, 121589.05, 0.000031418378, 9.996278, 10.002503 
3.3513838e+2, 1.2376621e+2, -1305009.6, -1698263.0, -46330.33, 0.095302165, -0.13643563, -1299625.1, 427446.25, 0.000062317085, 10.003572, 9.998386 
3.3512324e+2, 1.3376343e+2, -1326282.6, -1660604.8, 15387.939, 0.016846072, -0.25681716, -1325575.9, 303520.72, 0.000025687143, 10.002774, 9.9983635 
3.3511114e+2, 1.437624e+2, -1250696.8, -1523197.6, 15177.607, 0.21609357, -0.21499088, -1249854.0, 281251.7, 0.00000555994, 10.002411, 9.9987955 
3.350954e+2, 1.5376112e+2, -1097185.3, -1404494.4, 33089.836, 0.045655068, -0.22976577, -1093662.6, 339455.5, 0.00000016881297, 10.002821, 9.99874 
3.3508107e+2, 1.6375943e+2, -958783.06, -1294080.9, 93712.11, -0.040154014, -0.2676386, -934369.2, 400764.4, 0.0, 10.00313, 9.998678 
3.3506858e+2, 1.7375723e+2, -839130.2, -1191615.6, 101259.28, -0.042860206, -0.36185798, -812112.1, 425039.88, 0.0, 10.0033, 9.99863 
3.3505583e+2, 1.8375586e+2, -787666.3, -1050762.4, 38327.832, 0.0024942898, -0.38379773, -782196.44, 356967.34, 0.0, 10.0027, 9.99921 
3.3504286e+2, 1.9375582e+2, -947950.6, -1072784.9, 28360.154, 0.13865148, -0.32499346, -941809.8, 99355.22, 0.0, 10.000906, 9.999252 
3.350299e+2, 2.0375554e+2, -1031314.56, -1110425.8, 134003.06, 0.14109138, -0.25508142, -931150.94, 12019.761, 0.0, 9.999871, 9.998819 
3.3501685e+2, 2.1375486e+2, -916502.25, -1015589.06, 138526.31, -0.07884143, -0.20712936, -818926.4, 26257.215, 0.0, 10.000033, 9.99872 
3.3500388e+2, 2.2375463e+2, -708862.7, -694218.75, 54777.473, -0.20773746, -0.16638318, -646276.06, 100912.38, 0.0, 10.000043, 10.000253 
3.3499104e+2, 2.3375513e+2, -636895.06, -588928.7, 52535.324, -0.18775201, -0.17081875, -555161.06, 94018.85, 0.0, 9.999777, 10.000432 
3.349785e+2, 2.4375507e+2, -694821.6, -734498.25, 75559.42, -0.15961081, -0.15043198, -636539.6, -85358.62, 0.0, 9.9994335, 9.998921 
3.3496633e+2, 2.5375414e+2, -689173.25, -707818.56, 90260.695, -0.12508602, -0.123176865, -607755.06, -154558.2, 0.0, 9.998919, 9.998677 
3.3495423e+2, 2.6375407e+2, -529935.06, -319411.88, 81770.69, -0.08384024, -0.09897961, -291382.63, 63816.15, 0.0, 9.998222, 10.001006 
3.3494207e+2, 2.737551e+2, -554175.0, -245610.36, 75196.84, -0.031442434, -0.1340265, -228260.52, 28919.352, 0.000000000044508567, 9.997228, 10.00132 
3.3492956e+2, 2.8375566e+2, -555466.6, -239159.05, 68333.08, 0.01868457, -0.19372945, -225028.1, -65859.516, 0.00000018850986, 9.996733, 10.000933 
3.3491614e+2, 2.9375583e+2, -434331.6, -142871.77, 153279.55, 0.03556498, -0.27385035, -77102.68, -15937.695, 0.0000021997091, 9.996949, 10.000815 
3.349008e+2, 3.037563e+2, -444160.75, -205704.75, 63115.035, -0.026105635, -0.27011627, -190029.73, -190029.73, 0.000010789971, 9.996909, 10.000071 
3.3488247e+2, 3.1375632e+2, -476653.8, -111137.58, 66647.086, -0.2073797, -0.27450997, -99364.56, -99364.56, 0.000030295108, 9.996201, 10.001056 
3.4514073e+2, 1.23780474e+2, -1353083.9, -1730678.3, -27043.186, -0.008428373, -0.2431596, -1351156.9, 375769.3, 0.00006045153, 10.003281, 9.998306 
3.451262e+2, 1.3377854e+2, -1318215.1, -1685804.1, 31413.602, 0.034270752, -0.25285637, -1315549.9, 313396.56, 0.000025769237, 10.002952, 9.998109 
3.4511456e+2, 1.4377777e+2, -1252883.3, -1523506.6, 47723.535, 0.3214798, -0.17059766, -1244714.0, 286240.75, 0.000005876301, 10.002387, 9.998809 
3.4509766e+2, 1.5377626e+2, -1281807.0, -1490021.9, 27621.092, 0.057026416, -0.21494202, -1278205.3, 154763.78, 0.0000002059256, 10.00153, 9.998778 
3.4508255e+2, 1.6377446e+2, -1298251.6, -1433593.0, 79759.27, -0.081416614, -0.2752053, -1261323.8, 73661.36, 0.0, 10.000689, 9.9988985 
3.450698e+2, 1.7377241e+2, -1319729.8, -1394066.4, 101568.36, -0.07421276, -0.3793087, -1248742.5, -11740.901, 0.0, 9.999873, 9.99889 
3.450569e+2, 1.8377116e+2, -1203205.9, -1273527.4, 56727.207, -0.017693544, -0.39549974, -1171626.4, -32613.672, 0.0, 9.999944, 9.999009 
3.4504402e+2, 1.9377114e+2, -894797.1, -1078573.1, 27012.096, 0.1392061, -0.3076677, -890909.0, 150106.2, 0.0, 10.001404, 9.998974 
3.4503075e+2, 2.0377082e+2, -745676.8, -948497.6, 130576.74, 0.14732711, -0.23675196, -681756.1, 261265.0, 0.0, 10.001719, 9.999044 
3.450168e+2, 2.1376994e+2, -874999.8, -962913.56, 177682.33, -0.09084635, -0.23670006, -735917.8, 109115.06, 0.0, 10.000171, 9.999019 
3.450034e+2, 2.2376946e+2, -851551.8, -807417.2, 135047.56, -0.21748851, -0.21900676, -692645.9, 54393.71, 0.0, 9.999265, 9.999844 
3.4499088e+2, 2.3376967e+2, -724794.0, -686244.4, 82140.72, -0.15811193, -0.20260254, -621147.3, 27890.059, 0.0, 9.99942, 9.99993 
3.4497812e+2, 2.4376976e+2, -695926.4, -674199.5, 71837.09, -0.12264325, -0.16133672, -612409.06, -61371.5, 0.0, 9.999172, 9.999459 
3.449649e+2, 2.5376973e+2, -735705.8, -655233.5, 111086.89, -0.12664232, -0.11432766, -577320.44, -124278.94, 0.0, 9.998276, 9.999351 
3.44952e+2, 2.6376972e+2, -601575.06, -404241.8, 134281.11, -0.11287817, -0.09756646, -336275.53, 18766.072, 0.0, 9.997946, 10.000557 
3.4493965e+2, 2.7376974e+2, -411559.72, -242808.14, 97253.88, -0.060018584, -0.1748347, -198429.94, 58606.45, 0.0, 9.998498, 10.000725 
3.4492686e+2, 2.8377014e+2, -283800.16, -53951.12, 20172.549, -0.0045825224, -0.23318695, -52194.12, 106832.57, 0.00000016974016, 9.99837, 10.001413 
3.4491313e+2, 2.9377148e+2, -363386.44, -44360.73, -21251.986, 0.029220408, -0.2588734, -42951.25, 18055.959, 0.0000019719364, 9.997152, 10.001398 
3.4489775e+2, 3.0377156e+2, -476263.9, -306880.97, -111983.67, -0.023883713, -0.29389095, -251169.47, -251169.47, 0.0000096256135, 9.9970455, 9.999313 
3.4488007e+2, 3.1377e+2, -155964.47, -9206.89, -39535.363, -0.18187654, -0.36921528, 765.93494, 765.93494, 0.00002817607, 9.998605, 10.0006075 
3.5514402e+2, 1.2379454e+2, -1340892.8, -1712843.3, -46359.453, -0.028714562, -0.4016871, -1335201.6, 391581.3, 0.00005848329, 10.003313, 9.998412 
3.5512847e+2, 1.3379368e+2, -1320341.9, -1693906.3, 20096.453, -0.044326086, -0.3011217, -1319263.9, 309531.16, 0.000025162211, 10.00297, 9.998043 
3.5511678e+2, 1.4379336e+2, -1274750.0, -1572707.8, 14603.841, 0.29460552, -0.1539129, -1274036.0, 256765.08, 0.0000057861466, 10.002403, 9.998465 
3.551002e+2, 1.53792e+2, -1305191.4, -1544077.0, -1347.2345, 0.15022631, -0.14511563, -1305183.8, 127632.54, 0.00000020730299, 10.001554, 9.998397 
3.5508484e+2, 1.6379054e+2, -1266892.1, -1368800.8, 45444.125, 0.07220808, -0.16793329, -1249571.3, 85259.15, 0.0, 10.000692, 9.99934 
3.5507095e+2, 1.7378914e+2, -1280952.3, -1314242.5, 74051.914, 0.046736557, -0.26237705, -1221697.8, 15142.911, 0.0, 9.999877, 9.999434 
3.5505712e+2, 1.8378805e+2, -1231435.9, -1328763.9, 99399.82, 0.00669259, -0.27614906, -1169426.9, -30576.168, 0.0, 9.99993, 9.998636 
3.5504374e+2, 1.9378746e+2, -932402.0, -1149795.0, 86049.89, -0.035853952, -0.19647315, -902464.06, 138396.02, 0.0, 10.001376, 9.998497 
3.5503048e+2, 2.0378672e+2, -693335.2, -833947.75, 83609.36, -0.05541568, -0.17610374, -654400.94, 288467.16, 0.0, 10.001692, 9.999845 
3.5501745e+2, 2.1378571e+2, -811049.7, -822500.9, 122380.055, -0.050754823, -0.28878295, -694261.4, 150612.7, 0.0, 10.000136, 9.999998 
3.5500458e+2, 2.2378504e+2, -919500.3, -940548.9, 131386.44, -0.033317138, -0.3037442, -798217.3, -51337.08, 0.0, 9.99923, 9.998947 
3.54992e+2, 2.3378502e+2, -810262.4, -857839.44, 91483.75, 0.005556008, -0.19698037, -739524.9, -90638.46, 0.0, 9.999394, 9.998765 
3.5497862e+2, 2.4378487e+2, -641301.56, -554431.5, 39489.434, 0.0034372366, -0.15050825, -539163.75, 11725.931, 0.0, 9.999145, 10.000296 
3.549638e+2, 2.5378457e+2, -662256.44, -493664.47, 79127.31, -0.0699949, -0.23971693, -462344.94, -9456.584, 0.0, 9.998238, 10.000477 
3.549497e+2, 2.6378423e+2, -656478.94, -512597.34, 147800.52, -0.14224866, -0.28828886, -420159.13, -65270.08, 0.0, 9.99792, 9.9998255 
3.5493675e+2, 2.737839e+2, -485315.28, -392755.44, 122519.914, -0.20620164, -0.305657, -308066.06, -51173.457, 0.0, 9.998484, 9.9997015 
3.549233e+2, 2.837839e+2, -356980.88, -204023.58, -22011.99, -0.20199172, -0.29981527, -200918.86, -42028.184, 0.00000011654808, 9.998362, 10.000387 
3.5490885e+2, 2.9378453e+2, -440560.78, -195749.73, -65938.63, -0.119288355, -0.29893202, -179119.23, -118239.13, 0.0000016005947, 9.997115, 10.000376 
3.548949e+2, 3.037835e+2, -474867.1, -296424.22, -64053.97, -0.018380618, -0.3825336, -275812.25, -275812.25, 0.00000802472, 9.997014, 9.999402 
3.5488203e+2, 3.1378317e+2, -114272.97, 86519.586, 20472.21, 0.13468571, -0.36744347, 88585.61, 88585.61, 0.000025457135, 9.99857, 10.001279 
3.651485e+2, 1.23810425e+2, -1403925.3, -1705400.4, -45600.664, 0.12595262, -0.38257083, -1397178.8, 329448.03, 0.000055231107, 10.002718, 9.99875 
3.6513022e+2, 1.3380937e+2, -1420334.0, -1715319.3, 21035.857, -0.120838515, -0.32689837, -1418841.5, 209797.66, 0.0000235055, 10.002165, 9.998282 
3.651178e+2, 1.4380877e+2, -1330342.9, -1587053.9, 60741.707, 0.18180111, -0.22827776, -1316695.9, 213951.17, 0.00000526637, 10.001972, 9.998571 
3.6510235e+2, 1.5380736e+2, -1179827.4, -1471318.4, 73575.68, 0.1729426, -0.23139657, -1162308.9, 270353.4, 0.00000017249042, 10.00236, 9.998508 
3.6508718e+2, 1.6380626e+2, -1018400.6, -1258075.9, 116566.46, 0.15324838, -0.22078657, -971059.3, 363614.44, 0.0, 10.002437, 9.99926 
3.65072e+2, 1.738058e+2, -980049.2, -1181153.3, 88230.07, 0.06352573, -0.21035904, -946828.06, 289849.7, 0.0, 10.001994, 9.99933 
3.6505762e+2, 1.8380493e+2, -1008344.2, -1216351.3, 138921.19, -0.012905562, -0.19749676, -938808.56, 199878.0, 0.0, 10.001437, 9.998684 
3.650446e+2, 1.9380337e+2, -1027284.75, -1187029.0, 167469.22, -0.05050842, -0.22211863, -921615.8, 119087.84, 0.0, 10.000684, 9.998578 
3.6503136e+2, 2.0380224e+2, -908924.94, -946035.06, 126616.984, -0.06210233, -0.24015436, -799510.7, 143203.67, 0.0, 10.000258, 9.999762 
3.6501777e+2, 2.1380183e+2, -791039.75, -825206.1, 70081.086, -0.039767746, -0.2799066, -735989.75, 108724.99, 0.0, 10.000337, 9.999882 
3.6500457e+2, 2.2380127e+2, -783714.75, -888723.4, 84771.21, -0.0005195608, -0.2739588, -736505.2, 10214.832, 0.0, 10.000214, 9.998834 
3.649922e+2, 2.3380052e+2, -768916.25, -851992.56, 120330.06, 0.07075824, -0.22603954, -683156.56, -34424.168, 0.0, 9.999732, 9.998646 
3.6497852e+2, 2.438e+2, -608812.7, -546119.4, 76580.805, 0.07078869, -0.20884731, -494718.06, 56020.42, 0.0, 9.999394, 10.000235 
3.6496276e+2, 2.537998e+2, -517177.5, -428567.88, 21775.533, -0.04604067, -0.2803255, -423505.78, 29228.842, 0.0, 9.999254, 10.000436 
3.6494812e+2, 2.637993e+2, -559139.75, -541893.9, 62914.285, -0.14133902, -0.31458172, -487014.38, -132276.72, 0.0, 9.99892, 9.999142 
3.6493528e+2, 2.7379844e+2, -567535.8, -523122.75, 48824.105, -0.18981701, -0.30748037, -491692.34, -234941.8, 0.0, 9.998303, 9.998899 
3.6492136e+2, 2.8379795e+2, -452039.97, -313243.44, -84883.2, -0.21092613, -0.28166807, -273000.13, -114244.125, 0.000000055764154, 9.997974, 9.999826 
3.6490545e+2, 2.9379794e+2, -348751.5, -210276.9, -103413.75, -0.2089997, -0.28542748, -155062.58, -94311.13, 0.0000011854916, 9.998, 9.99985 
3.6489147e+2, 3.0379626e+2, -381773.8, -213376.11, -38542.15, -0.08037259, -0.4237585, -204973.97, -204973.97, 0.0000066145303, 9.9974985, 9.999736 
3.648808e+2, 3.137978e+2, -428493.53, -22150.287, 39863.934, 0.27385324, -0.2643454, -18276.404, -18276.404, 0.00002317202, 9.99624, 10.001654 
3.7515372e+2, 1.2382804e+2, -1362583.4, -1624064.8, -63045.664, 0.35115772, -0.1914702, -1348176.3, 378282.0, 0.000050234245, 10.002736, 9.999299 
3.7513143e+2, 1.3382559e+2, -1379346.5, -1635603.6, 2704.6365, -0.22781436, -0.33039483, -1379318.0, 249160.89, 0.000020862959, 10.002187, 9.998818 
3.7511766e+2, 1.4382388e+2, -1292664.4, -1506336.4, 67964.84, -0.041303873, -0.3958451, -1272878.4, 257615.1, 0.000004428325, 10.001963, 9.999129 
3.7510398e+2, 1.538223e+2, -1139256.4, -1389432.3, 91692.945, 0.087654926, -0.47370943, -1109248.9, 323258.78, 0.00000011962439, 10.002369, 9.999066 
3.7508944e+2, 1.6382158e+2, -1063301.6, -1347822.1, 100546.81, 0.12416269, -0.43009824, -1031356.1, 303159.78, 0.0, 10.002421, 9.998651 
3.750729e+2, 1.7382237e+2, -1033818.4, -1294312.4, 74117.734, -0.05586974, -0.21820752, -1014206.4, 222306.61, 0.0, 10.001997, 9.998552 
3.7505814e+2, 1.8382175e+2, -975874.06, -1144946.1, 109008.35, -0.10984536, -0.16107963, -922463.9, 216057.03, 0.0, 10.001421, 9.99918 
3.7504646e+2, 1.9381884e+2, -985154.7, -1093523.8, 142412.16, 0.05852295, -0.38572276, -886967.4, 153578.9, 0.0, 10.00066, 9.9992285 
3.7503326e+2, 2.0381738e+2, -984057.6, -1097823.3, 123224.65, 0.09463327, -0.42642835, -905220.25, 37339.918, 0.0, 10.000238, 9.998731 
3.750176e+2, 2.1381828e+2, -882233.9, -1007283.75, 77449.336, -0.09497522, -0.2114145, -845221.06, -665.4587, 0.0, 10.000304, 9.998648 
3.7500337e+2, 2.2381808e+2, -742950.06, -793926.6, 65627.12, -0.15093267, -0.13060124, -698035.44, 48523.8, 0.0, 10.00017, 9.999505 
3.7499133e+2, 2.3381615e+2, -708535.4, -716622.25, 105139.88, 0.006066844, -0.29443592, -607361.2, 41214.48, 0.0, 9.999687, 9.999596 
3.749778e+2, 2.4381512e+2, -683502.44, -690729.1, 68226.586, 0.051697973, -0.33733135, -618793.56, -68209.63, 0.0, 9.9993515, 9.999262 
3.7496167e+2, 2.5381547e+2, -608067.06, -611513.56, 20569.828, -0.08807411, -0.2346745, -589148.44, -136568.36, 0.0, 9.999229, 9.99919 
3.749471e+2, 2.638149e+2, -610747.75, -644194.75, 37509.383, -0.13769479, -0.17131105, -586402.6, -231815.0, 0.0, 9.998899, 9.998449 
3.7493512e+2, 2.7381322e+2, -615118.2, -610721.1, 28631.898, -0.043202415, -0.18607187, -584203.5, -327592.4, 0.0, 9.998256, 9.99832 
3.7492087e+2, 2.8381222e+2, -466051.84, -332106.94, -88298.24, -0.063234605, -0.17593144, -288255.7, -129632.89, 0.00000003400916, 9.99793, 9.999721 
3.749029e+2, 2.9381183e+2, -354039.97, -216200.95, -98966.8, -0.27193087, -0.21504773, -164520.61, -103899.33, 0.0000008994765, 9.997976, 9.999822 
3.7488735e+2, 3.038098e+2, -349458.7, -140532.61, -83812.47, -0.24756952, -0.41268596, -111066.35, -111066.35, 0.000005653272, 9.997473, 10.00025 
3.748759e+2, 3.1381384e+2, -433775.78, -11771.302, -10270.513, 0.14862981, -0.054252066, -11521.491, -11521.491, 0.000021689997, 9.996146, 10.001772 
3.851556e+2, 1.2384445e+2, -1466910.0, -1642574.6, -1492.9265, 0.31377065, -0.2010095, -1466897.3, 259399.08, 0.000043715605, 10.001892, 9.999573 
3.851336e+2, 1.3384248e+2, -1477985.4, -1655428.0, 14833.048, -0.18489128, -0.31814164, -1476754.0, 151557.84, 0.0000174898, 10.001389, 9.999067 
3.8512e+2, 1.4384073e+2, -1409774.9, -1549173.1, 86486.41, 0.044288617, -0.4068037, -1368398.0, 161928.28, 0.0000034194288, 10.001091, 9.99926 
3.8510525e+2, 1.538392e+2, -1325749.1, -1464578.1, 71650.04, 0.051909164, -0.49157375, -1295403.4, 136936.1, 0.00000006772674, 10.001027, 9.999198 
3.850903e+2, 1.6383837e+2, -1279439.4, -1465231.1, 73564.66, 0.045661595, -0.46093282, -1253838.9, 80509.65, 0.0, 10.000985, 9.998542 
3.8507435e+2, 1.738388e+2, -1190555.8, -1382286.1, 88030.195, -0.059539285, -0.27513334, -1156269.3, 80079.82, 0.0, 10.000973, 9.998442 
3.8505962e+2, 1.8383817e+2, -1043650.75, -1169063.9, 133007.22, -0.075138554, -0.21301763, -959309.6, 179047.13, 0.0, 10.000917, 9.999258 
3.8504735e+2, 1.9383585e+2, -968490.6, -1075909.4, 116366.85, 0.08194783, -0.38954282, -894036.25, 146340.16, 0.0, 10.000728, 9.99932 
3.850338e+2, 2.0383449e+2, -966505.3, -1122124.1, 118787.06, 0.112086676, -0.41442195, -902312.4, 40077.19, 0.0, 10.000492, 9.998445 
3.850181e+2, 2.1383469e+2, -924990.0, -1067097.3, 136952.63, -0.066234544, -0.2363639, -841756.1, 2635.8645, 0.0, 10.00017, 9.998305 
3.8500348e+2, 2.2383398e+2, -784436.1, -817108.8, 138569.48, -0.13963065, -0.18556784, -661243.4, 85156.81, 0.0, 9.999904, 9.99947 
3.8499054e+2, 2.338319e+2, -702974.4, -711997.2, 99520.23, -0.04090231, -0.3657052, -607863.4, 40553.53, 0.0, 9.999727, 9.999604 
3.849767e+2, 2.438307e+2, -647967.1, -726983.5, 62557.465, -0.008393568, -0.40607914, -613486.56, -63059.926, 0.0, 9.9998255, 9.998782 
3.8496143e+2, 2.5383085e+2, -488535.38, -618062.94, 62297.945, -0.08598635, -0.26581946, -463436.03, -11009.841, 0.0, 10.000324, 9.99862 
3.8494706e+2, 2.6383007e+2, -446345.38, -581160.8, 92352.91, -0.09247503, -0.18786936, -399416.5, -44979.297, 0.0, 10.000091, 9.99831 
3.8493416e+2, 2.738281e+2, -559205.0, -592479.0, 109238.24, 0.01579207, -0.22065718, -465344.13, -208880.77, 0.0, 9.998677, 9.99824 
3.8491932e+2, 2.8382736e+2, -452129.03, -301310.75, 71954.4, -0.007367412, -0.19089442, -272489.5, -114016.84, 0.000000026095549, 9.997928, 9.999929 
3.849013e+2, 2.938279e+2, -297618.9, -158963.81, 82937.14, -0.24131499, -0.16191004, -120194.75, -59732.89, 0.0000006696504, 9.99824, 10.000085 
3.8488543e+2, 3.0382556e+2, -211418.78, -125607.67, 63042.457, -0.24271567, -0.38216934, -92255.516, -92255.516, 0.000004955279, 9.998643, 9.999786 
3.8487294e+2, 3.138286e+2, -104253.39, 7534.995, 23744.744, 0.10187579, -0.06391562, 12369.491, 12369.491, 0.000021234744, 9.999014, 10.000522 
3.951543e+2, 1.2385975e+2, -1470746.0, -1650442.5, -14280.147, -0.025658002, -0.39884323, -1469618.3, 256522.4, 0.000036372046, 10.001894, 9.999519 
3.9513656e+2, 1.3385989e+2, -1478520.4, -1661878.3, -3784.3127, -0.035293307, -0.29850236, -1478442.3, 149697.22, 0.000013744367, 10.001412, 9.999013 
3.9512455e+2, 1.4385918e+2, -1426936.5, -1590387.3, 79022.61, 0.37918475, -0.2680659, -1394979.8, 135167.17, 0.0000023661473, 10.001112, 9.998967 
3.9510608e+2, 1.5385799e+2, -1343034.3, -1507114.0, 71698.48, 0.019689618, -0.28990614, -1316119.1, 116039.516, 0.000000028035489, 10.001053, 9.998894 
3.9508978e+2, 1.6385654e+2, -1247785.3, -1402670.1, 67269.52, -0.11537486, -0.32257906, -1222648.4, 111524.06, 0.0, 10.000996, 9.998969 
3.950762e+2, 1.73855e+2, -1152439.4, -1303376.3, 89703.23, 0.01970418, -0.38164315, -1110680.9, 125505.56, 0.0, 10.000972, 9.998986 
3.9506197e+2, 1.8385424e+2, -1071503.6, -1221719.0, 123743.31, 0.06135937, -0.3523106, -1001857.8, 136336.58, 0.0, 10.000894, 9.99891 
3.9504716e+2, 1.9385442e+2, -1003336.6, -1142808.4, 111601.32, -0.01833108, -0.23252329, -941474.8, 98719.55, 0.0, 10.000704, 9.998873 
3.950328e+2, 2.038535e+2, -938681.6, -1056460.0, 102554.805, -0.038469683, -0.2087817, -879310.8, 62892.344, 0.0, 10.00046, 9.998911 
3.9501917e+2, 2.1385099e+2, -891557.44, -983577.9, 127611.41, 0.016508806, -0.36032948, -801915.1, 42309.53, 0.0, 10.000114, 9.998902 
3.9500493e+2, 2.2384894e+2, -843783.75, -932094.44, 127889.09, 0.006727638, -0.4414178, -752642.0, -6398.83, 0.0, 9.999865, 9.998703 
3.949897e+2, 2.3384766e+2, -773978.0, -850785.5, 96306.484, -0.10644338, -0.4462803, -708700.56, -60443.848, 0.0, 9.999689, 9.998671 
3.9497524e+2, 2.4384664e+2, -651967.5, -727128.9, 75832.305, -0.14488819, -0.4171379, -604914.56, -54647.42, 0.0, 9.999792, 9.998797 
3.9496195e+2, 2.5384593e+2, -482790.4, -596236.0, 85987.516, -0.073347345, -0.3782503, -436501.9, 15771.424, 0.0, 10.000281, 9.998791 
3.949478e+2, 2.6384476e+2, -423434.34, -525925.2, 45796.848, -0.03511407, -0.36756518, -405952.44, -51666.227, 0.0, 10.000056, 9.998709 
3.9493224e+2, 2.7384302e+2, -531944.5, -530515.0, 59513.754, -0.04815018, -0.41764417, -471711.72, -215404.05, 0.0, 9.998651, 9.998681 
3.9491656e+2, 2.8384334e+2, -418125.63, -223025.67, 74620.76, -0.08017553, -0.33033285, -197757.67, -39452.438, 0.000000010243951, 9.997898, 10.000481 
3.949005e+2, 2.9384613e+2, -261464.28, -73273.664, 102098.02, -0.14809908, -0.12883793, -28523.977, 31748.188, 0.00000051187845, 9.998195, 10.000696 
3.9488563e+2, 3.0384365e+2, -322064.53, -348673.44, 80329.195, -0.09254387, -0.3374, -253945.48, -253945.48, 0.0000058094397, 9.998616, 9.998266 
3.9487183e+2, 3.1384206e+2, -296905.84, -387633.5, 40595.902, 0.07144664, -0.29556715, -281393.53, -281393.53, 0.000025375839, 9.998997, 9.997813 
4.0515432e+2, 1.23875566e+2, -1721284.8, -1763044.0, -32446.197, -0.11710565, -0.467948, -1703580.5, 22403.402, 0.00002910368, 10.000134, 9.999596 
4.0513787e+2, 1.3387635e+2, -1481588.9, -1649355.4, -35713.023, -0.03890824, -0.315679, -1474303.0, 153674.38, 0.00001003053, 10.001328, 9.999141 
4.0512675e+2, 1.4387587e+2, -1319766.6, -1546518.0, 52501.715, 0.4541182, -0.2656109, -1308200.5, 221782.78, 0.0000013962007, 10.001886, 9.998894 
4.0510765e+2, 1.5387511e+2, -1271796.3, -1482552.5, 51028.27, 0.0464334, -0.23577851, -1260091.4, 171899.55, 0.000000006286357, 10.001583, 9.998807 
4.0509087e+2, 1.6387364e+2, -1192295.1, -1345424.3, 56695.03, -0.11492966, -0.27850035, -1173589.3, 160414.86, 0.0, 10.001261, 9.999227 
4.0507722e+2, 1.7387138e+2, -1146543.4, -1269720.3, 52111.855, 0.032441273, -0.43993157, -1127454.8, 108567.98, 0.0, 10.000886, 9.999255 
4.0506282e+2, 1.8387017e+2, -1115033.8, -1288772.1, 88742.016, 0.066526525, -0.45056108, -1077720.0, 60314.152, 0.0, 10.0007925, 9.998499 
4.0504768e+2, 1.9387044e+2, -977160.75, -1184375.6, 70600.74, -0.05164234, -0.27209005, -955392.9, 84642.54, 0.0, 10.001118, 9.998388 
4.050332e+2, 2.0386954e+2, -830665.7, -975470.0, 39541.035, -0.07300482, -0.23167235, -820572.0, 121472.34, 0.0, 10.0010805, 9.999165 
4.050198e+2, 2.1386681e+2, -817693.7, -910803.4, 37728.12, 0.052161537, -0.4364627, -804325.56, 39739.535, 0.0, 10.00046, 9.999236 
4.0500548e+2, 2.2386484e+2, -851478.1, -995016.06, 54661.523, 0.07143078, -0.50720125, -833032.5, -86949.76, 0.0, 10.000069, 9.998171 
4.0498984e+2, 2.3386402e+2, -762947.56, -921023.94, 40026.758, -0.07794493, -0.40057424, -753390.1, -105294.59, 0.0, 10.000084, 9.998001 
4.0497503e+2, 2.4386288e+2, -682762.5, -738435.25, 26664.66, -0.12975818, -0.34795937, -672051.94, -121943.08, 0.0, 9.999564, 9.99883 
4.0496162e+2, 2.5386125e+2, -769134.3, -718235.94, 26035.238, -0.029302198, -0.41518927, -707277.75, -255155.14, 0.0, 9.99825, 9.998928 
4.049471e+2, 2.638598e+2, -722219.8, -621659.1, -3260.92, 0.010191628, -0.45967704, -621553.5, -267417.63, 0.0, 9.997801, 9.999135 
4.0493092e+2, 2.7385876e+2, -496705.1, -461577.66, 9690.999, -0.04481744, -0.48650503, -459081.47, -202934.64, 0.0, 9.9986725, 9.999141 
4.0491492e+2, 2.838591e+2, -339831.25, -269541.13, -14245.633, -0.07635747, -0.3882606, -266763.72, -108619.99, 0.0000000008315615, 9.998795, 9.999729 
4.0489936e+2, 2.9386103e+2, -385089.44, -229271.2, -105570.19, -0.058951844, -0.18825945, -175974.77, -115850.55, 0.00000071034475, 9.997761, 9.99983 
4.048846e+2, 3.0385882e+2, -432920.75, -335235.4, -76517.234, 0.0016300607, -0.3540378, -293300.9, -293300.9, 0.000009258835, 9.9975605, 9.998868 
4.048698e+2, 3.138569e+2, -357760.3, -398336.78, 72550.695, -0.00222824, -0.41506916, -302714.53, -302714.53, 0.000036115405, 9.998478, 9.997996 
4.1515526e+2, 1.23891816e+2, -1693623.0, -1723365.4, 17886.34, -0.05711183, -0.41961375, -1685233.3, 40593.465, 0.000022517497, 10.000208, 9.999831 
4.151374e+2, 1.3389206e+2, -1454945.8, -1602191.4, 9606.609, -0.22596617, -0.35921687, -1454321.6, 173502.13, 0.0000067670235, 10.00136, 9.999449 
4.1512668e+2, 1.4389102e+2, -1308194.3, -1524302.6, 45163.79, 0.24864538, -0.38655448, -1299135.4, 230697.98, 0.0000006540361, 10.001895, 9.9990425 
4.1510984e+2, 1.5389076e+2, -1261815.4, -1459532.3, 44334.695, 0.09999667, -0.32044187, -1252329.3, 179505.92, 0.0000000002364484, 10.001576, 9.998967 
4.1509348e+2, 1.6388977e+2, -1192342.5, -1345595.0, 39885.65, 0.011896082, -0.3234902, -1182583.3, 151259.7, 0.0, 10.001257, 9.9992285 
4.1507727e+2, 1.7388785e+2, -1146872.1, -1271161.5, 40541.105, -0.057931148, -0.45143062, -1134817.5, 101040.73, 0.0, 10.000889, 9.999244 
4.150621e+2, 1.8388593e+2, -1147157.8, -1355418.8, 94892.49, -0.093477346, -0.5117938, -1110406.3, 27470.146, 0.0, 10.000792, 9.998041 
4.1504887e+2, 1.9388399e+2, -1015585.56, -1258510.6, 86467.37, -0.05498324, -0.50447744, -987951.6, 51947.33, 0.0, 10.001096, 9.997889 
4.1503486e+2, 2.0388271e+2, -832631.8, -973985.8, 17347.248, -0.021147573, -0.4756626, -830534.06, 111378.234, 0.0, 10.001052, 9.99919 
4.1501975e+2, 2.1388231e+2, -817701.5, -898538.25, 17068.082, -0.0005268916, -0.45857623, -814245.44, 29666.873, 0.0, 10.000408, 9.999345 
4.1500503e+2, 2.2388174e+2, -879295.9, -1046670.2, 50117.344, 0.0138810715, -0.37991, -865436.7, -119517.984, 0.0, 10.000039, 9.997833 
4.1499084e+2, 2.3388095e+2, -795602.7, -979276.25, 44155.58, 0.010172357, -0.23204426, -785539.0, -137605.1, 0.0, 10.000044, 9.997621 
4.14976e+2, 2.4387942e+2, -684333.25, -735160.0, -20386.357, 0.0056356364, -0.19811872, -677166.9, -127214.83, 0.0, 9.999536, 9.998865 
4.149603e+2, 2.5387672e+2, -769155.6, -709154.2, -21563.82, 0.0075938925, -0.37955156, -702208.44, -250233.44, 0.0, 9.99821, 9.99901 
4.1494495e+2, 2.6387516e+2, -692942.6, -551739.7, 17849.15, 0.0071155685, -0.46268517, -549518.4, -195531.66, 0.0, 9.997766, 9.99963 
4.1492996e+2, 2.7387536e+2, -465100.44, -385497.75, 46953.414, -0.012950069, -0.42011234, -363746.1, -107765.55, 0.0, 9.99863, 9.999683 
4.1491425e+2, 2.8387466e+2, -491137.06, -579509.06, -49778.99, -0.028831655, -0.36171243, -468762.2, -310773.75, 0.00000000001177225, 9.998773, 9.997613 
4.148976e+2, 2.9387233e+2, -561089.44, -587092.75, -144157.55, -0.019225813, -0.34479195, -429348.44, -369328.03, 0.0000013013552, 9.997726, 9.997392 
4.1488224e+2, 3.0387083e+2, -235076.52, 84312.516, -50624.266, 0.0024754046, -0.43353048, 92144.58, 92144.58, 0.000013961503, 9.997525, 10.001765 
4.1486648e+2, 3.1387332e+2, -142378.75, 71370.53, 113247.984, -0.19504285, -0.40701953, 120211.32, 120211.32, 0.00004972542, 9.998385, 10.001265 
4.251577e+2, 1.23909116e+2, -1542705.8, -1691471.4, 157651.03, 0.10561553, -0.3958293, -1442770.9, 282883.47, 0.000016810884, 10.001421, 9.999465 
4.2513832e+2, 1.3390888e+2, -1474149.4, -1644109.3, 73285.18, -0.26452318, -0.35265186, -1446913.9, 180743.03, 0.000004238484, 10.001366, 9.999162 
4.2512736e+2, 1.4390711e+2, -1411729.4, -1567886.4, 56681.566, 0.16814648, -0.43784964, -1393324.5, 136348.86, 0.00000021832761, 10.001153, 9.999104 
4.2511126e+2, 1.5390648e+2, -1399838.4, -1514356.8, 39613.914, 0.14144926, -0.42189914, -1387470.9, 44206.35, 0.0, 10.000574, 9.999077 
4.2509526e+2, 1.6390549e+2, -1330247.9, -1464709.8, 49980.637, 0.102531545, -0.4091801, -1313705.0, 19980.61, 0.0, 10.00054, 9.998756 
4.2507863e+2, 1.7390409e+2, -1107744.5, -1312569.8, 8110.4443, -0.031939674, -0.42987034, -1107423.9, 128275.766, 0.0, 10.001414, 9.998708 
4.2506334e+2, 1.8390247e+2, -1006535.0, -1239821.1, 54372.1, -0.084348336, -0.4503218, -994484.94, 143230.83, 0.0, 10.001555, 9.998466 
4.250503e+2, 1.9390047e+2, -1056114.0, -1218739.6, 114360.93, 0.011301293, -0.5023583, -997105.06, 42630.035, 0.0, 10.000564, 9.998417 
4.2503595e+2, 2.038989e+2, -987650.4, -1112542.6, 86526.54, 0.024907408, -0.5054299, -943389.6, -1639.5182, 0.0, 10.000262, 9.998619 
4.2501953e+2, 2.1389797e+2, -778106.44, -959924.8, 21779.174, -0.091955036, -0.47043318, -775534.0, 68224.8, 0.0, 10.001022, 9.99863 
4.250046e+2, 2.2389717e+2, -707905.1, -943229.2, 28111.697, -0.087067805, -0.383603, -704593.5, 41175.46, 0.0, 10.001133, 9.998013 
4.2499182e+2, 2.3389658e+2, -737299.3, -918155.0, 63110.43, 0.09424212, -0.2462086, -717454.2, -69673.29, 0.0, 10.000303, 9.997913 
4.24977e+2, 2.438952e+2, -658688.06, -756802.7, 15954.051, 0.13472766, -0.19965895, -656159.0, -106361.53, 0.0, 9.999855, 9.998566 
4.2495897e+2, 2.5389266e+2, -533016.06, -638190.3, -24332.469, -0.029605666, -0.32872316, -527659.5, -75838.266, 0.0, 10.000011, 9.9986315 
4.2494276e+2, 2.6389104e+2, -417064.75, -424164.44, -616.75885, -0.08121453, -0.38987464, -417011.56, -63177.99, 0.0, 9.99968, 9.999588 
4.2492902e+2, 2.7389097e+2, -467272.7, -385649.0, -18339.533, 0.035113517, -0.3767035, -381717.75, -125889.41, 0.0, 9.9986105, 9.999695 
4.2491356e+2, 2.838897e+2, -569096.56, -654135.44, -67067.336, 0.04497453, -0.36186343, -532206.1, -374364.84, 0.0000000012455732, 9.998401, 9.99728 
4.2489555e+2, 2.938866e+2, -328552.78, -516793.38, -9695.461, -0.07602409, -0.38170215, -328054.72, -268172.6, 0.0000019618685, 9.999498, 9.997025 
4.2487997e+2, 3.0388588e+2, 57079.242, 296537.84, 75379.43, -0.05700373, -0.40058818, 318290.56, 318290.56, 0.000018429422, 9.999225, 10.002409 
4.248645e+2, 3.1388834e+2, -305728.63, 92463.32, 11924.988, -0.15240468, -0.45084566, 92820.13, 92820.13, 0.00006268099, 9.996846, 10.002148 
4.3516126e+2, 1.2392753e+2, -1605543.6, -1829620.3, 168785.75, 0.29796362, -0.38237393, -1514995.6, 210470.83, 0.000012164344, 10.001454, 9.998501 
4.3514055e+2, 1.3392682e+2, -1532573.8, -1772728.1, 72100.91, -0.18972498, -0.29843777, -1512590.0, 114887.484, 0.0000025410188, 10.001391, 9.998269 
4.3512866e+2, 1.4392413e+2, -1415398.5, -1574577.3, 34861.56, 0.17654893, -0.42482486, -1408098.4, 121405.65, 0.000000047491298, 10.001151, 9.999057 
4.3511185e+2, 1.5392227e+2, -1392930.5, -1505232.6, 19347.945, 0.13134395, -0.53753734, -1389690.5, 41826.797, 0.0, 10.000597, 9.999127 
4.3509603e+2, 1.6392082e+2, -1392290.5, -1599003.1, 73142.82, 0.12041334, -0.5310926, -1369027.6, -35495.832, 0.0, 10.000562, 9.997825 
4.3508124e+2, 1.7392018e+2, -1179311.1, -1463748.1, 45176.824, 0.07723415, -0.37272897, -1172308.1, 63238.375, 0.0, 10.001423, 9.997667 
4.350664e+2, 1.8391985e+2, -920443.5, -1056678.0, 20856.484, 0.058855403, -0.2634917, -917322.06, 220229.78, 0.0, 10.001538, 9.99973 
4.3505192e+2, 1.9391981e+2, -952247.56, -996282.8, 79191.836, 0.109408006, -0.27137074, -892069.56, 147474.75, 0.0, 10.000536, 9.999956 
4.350363e+2, 2.0391808e+2, -1076386.4, -1288809.3, 105147.01, 0.029666575, -0.3228608, -1033142.94, -91584.62, 0.0, 10.00023, 9.997424 
4.3501896e+2, 2.1391386e+2, -890757.9, -1184383.8, 53503.79, -0.2563158, -0.46803573, -881312.44, -37708.254, 0.0, 10.000985, 9.997105 
4.35004e+2, 2.239112e+2, -665569.0, -846910.25, -836.7797, -0.26508993, -0.51200014, -665565.1, 80067.98, 0.0, 10.001096, 9.9986925 
4.3499267e+2, 2.3391087e+2, -677405.25, -781713.3, 33363.125, 0.1429941, -0.44062072, -667646.9, -20010.219, 0.0, 10.000253, 9.998875 
4.349778e+2, 2.4391022e+2, -708493.4, -850833.8, 14686.262, 0.22709663, -0.3479413, -706993.9, -157348.73, 0.0, 9.999815, 9.997939 
4.3495756e+2, 2.5390905e+2, -595014.0, -759526.9, -15273.521, -0.18301107, -0.25733918, -593608.0, -141947.1, 0.0, 9.999982, 9.997812 
4.349404e+2, 2.6390755e+2, -460524.53, -513153.16, -38590.883, -0.28870264, -0.23717172, -440130.2, -86453.94, 0.0, 9.999671, 9.998982 
4.3492794e+2, 2.739055e+2, -509907.22, -470629.06, -55774.74, 0.059411857, -0.36326596, -431136.78, -175445.52, 0.0, 9.99859, 9.999122 
4.3491262e+2, 2.8390414e+2, -466305.53, -432943.25, -36157.547, 0.10996655, -0.39285207, -409804.44, -252101.69, 0.000000012355592, 9.998373, 9.998809 
4.3489322e+2, 2.9390407e+2, -209870.56, -261002.27, 40015.99, -0.26728454, -0.29036644, -187950.72, -128243.32, 0.0000026583295, 9.999465, 9.998795 
4.3487775e+2, 3.0390412e+2, -66805.84, 38449.7, -2505.6765, -0.2075153, -0.24607424, 38509.313, 38509.313, 0.000022356537, 9.999224, 10.000638 
4.3486366e+2, 3.139017e+2, -438249.63, -162334.14, -67783.75, 0.06545585, -0.57209384, -146581.19, -146581.19, 0.000073377385, 9.996766, 10.000432 
4.4516256e+2, 1.23942725e+2, -1629097.4, -1848408.3, -3485.8892, 0.29708624, -0.41921276, -1629042.0, 96274.266, 0.000009046195, 10.001338, 9.9984255 
4.4514194e+2, 1.3394244e+2, -1605756.0, -1795083.0, -69491.086, -0.15725991, -0.30194852, -1582987.9, 44335.645, 0.0000015845884, 10.000846, 9.998375 
4.4513014e+2, 1.4393991e+2, -1453607.9, -1598369.4, -42754.19, 0.22208145, -0.4161942, -1441923.9, 87425.39, 0.000000013935479, 10.000916, 9.999006 
4.45113e+2, 1.5393811e+2, -1218933.6, -1424889.4, -73433.195, 0.13215984, -0.51795924, -1195432.8, 235930.13, 0.0, 10.001812, 9.999092 
4.4509733e+2, 1.6393667e+2, -1144547.9, -1475933.4, 18608.729, 0.109485015, -0.5123099, -1143506.3, 189871.14, 0.0, 10.002234, 9.997869 
4.4508314e+2, 1.7393601e+2, -1106809.0, -1421189.8, 66374.34, 0.10332246, -0.36255917, -1093370.1, 142021.06, 0.0, 10.001889, 9.997735 
4.450683e+2, 1.8393551e+2, -914500.94, -1069574.1, 19482.957, 0.09219065, -0.26683995, -912090.6, 225307.08, 0.0, 10.00164, 9.999596 
4.450529e+2, 1.9393511e+2, -823575.3, -950613.0, -57736.65, 0.10984384, -0.2976167, -801256.2, 238138.39, 0.0, 10.001485, 9.999813 
4.4503704e+2, 2.0393355e+2, -931460.2, -1195511.0, -27305.818, 0.03635517, -0.33407703, -928666.0, 12741.576, 0.0, 10.001129, 9.997627 
4.450204e+2, 2.1393026e+2, -950760.06, -1186478.6, 48667.79, -0.18072915, -0.40781236, -941107.1, -97662.336, 0.0, 10.000461, 9.997342 
4.4500518e+2, 2.2392775e+2, -850556.8, -943601.8, 23738.56, -0.19134648, -0.4465355, -844850.4, -99378.24, 0.0, 9.999856, 9.998628 
4.4499215e+2, 2.339264e+2, -816189.9, -861326.2, -28732.594, 0.113523774, -0.4664541, -802222.0, -154737.73, 0.0, 9.999351, 9.998765 
4.4497666e+2, 2.4392538e+2, -779988.25, -866623.1, -25095.607, 0.16176274, -0.41229644, -773243.9, -223748.48, 0.0, 9.999242, 9.998105 
4.449574e+2, 2.539249e+2, -616124.06, -746832.3, 19009.709, -0.18044707, -0.2748641, -613415.5, -161910.83, 0.0, 9.999739, 9.998015 
4.449405e+2, 2.639236e+2, -483191.63, -572096.3, 6139.4624, -0.24435164, -0.22770856, -482769.66, -129250.7, 0.0, 9.999726, 9.998547 
4.449272e+2, 2.7392098e+2, -491776.44, -521681.16, -16823.658, 0.10822277, -0.3573247, -484220.84, -228679.13, 0.0, 9.998975, 9.998585 
4.449114e+2, 2.8391945e+2, -413004.03, -320200.72, 26653.652, 0.14989649, -0.4071525, -313090.4, -155536.08, 0.00000003060041, 9.998356, 9.999593 
4.448921e+2, 2.9391986e+2, -373497.06, -231102.34, 36630.465, -0.24267277, -0.3500358, -222231.89, -162682.4, 0.000003132682, 9.997872, 9.999764 
4.4487637e+2, 3.0392054e+2, -342530.8, -185852.69, -43326.863, -0.18921676, -0.26296335, -174669.55, -174669.55, 0.000025258936, 9.9977255, 9.999817 
4.4486055e+2, 3.139179e+2, -262478.94, -140332.6, -24740.791, 0.011552612, -0.5050386, -135511.63, -135511.63, 0.00008019797, 9.998215, 9.9999 
4.5516163e+2, 1.23954825e+2, -1573904.3, -1734815.6, -3337.678, 0.04853687, -0.508854, -1573835.0, 151367.1, 0.00000748724, 10.001349, 9.999197 
4.5514244e+2, 1.3395578e+2, -1532281.4, -1646509.5, -86008.4, -0.20193389, -0.3693856, -1486150.8, 141044.08, 0.0000012105039, 10.000866, 9.999384 
4.551316e+2, 1.4395447e+2, -1452858.8, -1601143.0, -15056.769, 0.26760933, -0.4156428, -1451345.3, 77863.73, 0.000000007555667, 10.000932, 9.9989805 
4.551147e+2, 1.53954e+2, -1227489.9, -1445656.8, -32760.973, 0.10684497, -0.36933485, -1222676.5, 208536.95, 0.0, 10.001824, 9.998943 
4.5509893e+2, 1.6395305e+2, -1073687.6, -1327288.9, 6582.232, 0.039064813, -0.35292047, -1073516.9, 259704.9, 0.0, 10.002228, 9.998891 
4.5508426e+2, 1.739515e+2, -1026338.3, -1255314.1, 55850.62, 0.018671246, -0.40520856, -1013441.9, 221792.52, 0.0, 10.001891, 9.998875 
4.5506898e+2, 1.839494e+2, -1023756.25, -1289980.5, 11333.612, -0.010902228, -0.46471158, -1023274.6, 113979.484, 0.0, 10.001616, 9.998094 
4.5505312e+2, 1.9394638e+2, -956124.25, -1218448.8, -59119.094, -0.023401922, -0.5756851, -943416.4, 95868.76, 0.0, 10.001455, 9.997988 
4.5503795e+2, 2.0394532e+2, -825536.06, -966118.3, -55441.523, 0.010909191, -0.5310872, -806302.9, 134994.27, 0.0, 10.001088, 9.999224 
4.550237e+2, 2.1394719e+2, -818159.4, -896320.0, 26259.537, 0.09890119, -0.28987527, -810156.44, 33124.395, 0.0, 10.000399, 9.999363 
4.55008e+2, 2.2394682e+2, -915411.7, -1068278.5, 1703.7932, 0.0984798, -0.18911336, -915392.7, -170106.47, 0.0, 9.99981, 9.997795 
4.549901e+2, 2.3394318e+2, -902660.6, -1032942.3, -43770.03, -0.033905093, -0.3253249, -889321.25, -241997.55, 0.0, 9.999316, 9.997603 
4.549734e+2, 2.4394074e+2, -716792.6, -727677.94, -13364.806, -0.09620747, -0.39092764, -707804.75, -158456.7, 0.0, 9.999208, 9.999077 
4.549585e+2, 2.5394017e+2, -535409.5, -568540.06, 40707.95, -0.05022884, -0.3841185, -508025.44, -56672.914, 0.0, 9.999692, 9.999263 
4.5494306e+2, 2.6393914e+2, -508778.06, -616880.7, -18634.783, 0.03040631, -0.36384347, -505655.94, -152294.06, 0.0, 9.999692, 9.998255 
4.549266e+2, 2.739374e+2, -532015.9, -596034.6, -40357.906, 0.14641875, -0.35878545, -512514.44, -257134.97, 0.0, 9.998938, 9.998091 
4.549096e+2, 2.8393567e+2, -415146.1, -317123.88, 5627.2256, 0.13190359, -0.40633744, -316801.88, -159406.08, 0.000000022691747, 9.998322, 9.999633 
4.548922e+2, 2.9393408e+2, -372865.84, -217163.9, 20095.818, -0.028509395, -0.55768967, -214612.05, -155203.56, 0.0000032965943, 9.997815, 9.99989 
4.5487574e+2, 3.0393508e+2, -333067.78, -156933.19, -27989.313, -0.027738614, -0.45229375, -152592.42, -152592.42, 0.000026467469, 9.997689, 10.000032 
4.5485482e+2, 3.1393716e+2, -212335.77, -21589.676, 21485.402, -0.3970511, -0.24723856, -19199.537, -19199.537, 0.00008171888, 9.998162, 10.000737 
4.6516213e+2, 1.2396966e+2, -1551664.1, -1717772.5, 136029.55, -0.03643936, -0.48982802, -1475338.1, 249720.86, 0.0000066915145, 10.001467, 9.99926 
4.6514374e+2, 1.339704e+2, -1473045.6, -1595255.0, -45313.855, -0.16716774, -0.39431134, -1458077.1, 168975.33, 0.0000010755967, 10.001158, 9.999604 
4.6513334e+2, 1.4396922e+2, -1439824.1, -1605168.8, 37041.37, 0.34615514, -0.4333914, -1431905.3, 97159.97, 0.0000000036726717, 10.001062, 9.99889 
4.651164e+2, 1.5396942e+2, -1300627.5, -1493691.1, 15927.221, 0.12788005, -0.31178257, -1299322.4, 131743.13, 0.0, 10.001372, 9.998833 
4.651004e+2, 1.6396868e+2, -1179166.0, -1338091.1, 9000.395, 0.011466037, -0.28170457, -1178657.9, 154413.56, 0.0, 10.001346, 9.999237 
4.650851e+2, 1.7396675e+2, -1151304.3, -1269241.4, -7679.2124, -0.031193616, -0.41478133, -1150806.4, 84278.414, 0.0, 10.000842, 9.999281 
4.6506956e+2, 1.8396439e+2, -1216948.1, -1425092.4, -29379.564, -0.052904096, -0.5063033, -1212880.8, -75774.41, 0.0, 10.000473, 9.997714 
4.6505406e+2, 1.9396138e+2, -1156008.9, -1369435.8, -3516.1648, -0.014245322, -0.5704757, -1155950.9, -116810.34, 0.0, 10.000319, 9.997502 
4.6503899e+2, 2.0396037e+2, -942802.8, -1010673.0, 7109.0376, 0.04811173, -0.49925062, -942066.2, -912.3465, 0.0, 10.000226, 9.999334 
4.6502432e+2, 2.1396236e+2, -837822.94, -886500.6, -56288.832, 0.13635299, -0.26314878, -800836.3, 42299.4, 0.0, 10.0001745, 9.999539 
4.650081e+2, 2.2396229e+2, -810900.9, -975028.0, -95623.4, 0.107221544, -0.1597674, -766955.44, -21818.148, 0.0, 10.000349, 9.998171 
4.6498954e+2, 2.3395912e+2, -642162.3, -863741.56, -29852.152, -0.098080084, -0.28846395, -638210.94, 8957.697, 0.0, 10.00092, 9.99799 
4.6497265e+2, 2.4395685e+2, -525412.44, -639931.44, 14727.318, -0.15330845, -0.35640174, -523548.8, 25642.2, 0.0, 10.000544, 9.999037 
4.6495843e+2, 2.53956e+2, -673184.5, -645165.6, -38660.395, 0.021618227, -0.36739078, -618054.6, -166855.03, 0.0, 9.998789, 9.999172 
4.6494296e+2, 2.6395515e+2, -685574.8, -654172.75, -94078.875, 0.12735237, -0.34587374, -574493.75, -221285.78, 0.0, 9.998259, 9.998694 
4.6492547e+2, 2.7395424e+2, -410958.4, -480194.94, -43502.734, 0.11337171, -0.30747342, -389980.7, -134764.11, 0.0, 9.999513, 9.9986105 
4.6490785e+2, 2.8395283e+2, -237033.06, -267003.97, -856.17944, 0.060866486, -0.33892778, -237008.63, -79778.46, 0.00000001636591, 9.999699, 9.999313 
4.648905e+2, 2.9395068e+2, -330058.7, -241259.75, -38456.004, 0.0033192267, -0.50388545, -226921.02, -167671.11, 0.0000038137496, 9.998302, 9.99949 
4.6487376e+2, 3.0395132e+2, -374236.88, -125076.836, -64887.406, 0.033581145, -0.4348229, -109191.35, -109191.35, 0.000027236774, 9.997182, 10.000497 
4.648516e+2, 3.1395468e+2, -390933.88, -15364.951, 18939.504, -0.44922534, -0.16034074, -14412.2705, -14412.2705, 0.00008037478, 9.9965515, 10.001548 
4.7516373e+2, 1.23987004e+2, -1587256.4, -1801639.4, 140971.61, -0.045603048, -0.37083456, -1517351.9, 207537.47, 0.000005655712, 10.001508, 9.998664 
4.751457e+2, 1.3398631e+2, -1506358.6, -1665075.0, -54953.37, -0.09373527, -0.37104273, -1489189.1, 137707.3, 0.0000008517309, 10.001164, 9.999119 
4.7513527e+2, 1.4398429e+2, -1445164.4, -1623079.0, 44358.047, 0.42206377, -0.46323746, -1434718.3, 94199.08, 0.0000000009422646, 10.001087, 9.998758 
4.7511816e+2, 1.5398434e+2, -1304623.9, -1504784.0, 31108.006, 0.15346633, -0.342699, -1299900.6, 131018.51, 0.0, 10.001386, 9.998752 
4.7510165e+2, 1.6398361e+2, -1197652.4, -1379033.6, -10619.797, -0.0074846027, -0.29601705, -1197032.6, 135894.0, 0.0, 10.001353, 9.998955 
4.750855e+2, 1.7398173e+2, -1172751.4, -1313751.1, -23267.406, -0.08101523, -0.39082313, -1169011.0, 65931.27, 0.0, 10.000843, 9.998976 
4.7506994e+2, 1.8398044e+2, -1163724.9, -1313400.1, -39911.777, -0.068060264, -0.39202064, -1153747.4, -16793.016, 0.0, 10.000464, 9.998487 
4.7505558e+2, 1.9397998e+2, -1092696.4, -1238716.8, -5660.286, 0.09550322, -0.28881016, -1092477.3, -53515.617, 0.0, 10.000318, 9.998402 
4.750399e+2, 2.0397857e+2, -1042879.6, -1212747.1, 2458.2122, 0.11050386, -0.24741974, -1042844.06, -101865.38, 0.0, 10.000201, 9.99796 
4.750222e+2, 2.139758e+2, -957920.3, -1127360.5, -55468.45, -0.103063375, -0.32311088, -941377.2, -98367.805, 0.0, 10.000139, 9.997904 
4.7500554e+2, 2.2397418e+2, -702966.4, -745603.4, -79700.04, -0.19580743, -0.3548122, -641782.94, 103242.18, 0.0, 10.000322, 9.999762 
4.749904e+2, 2.3397425e+2, -511229.06, -580496.4, -4706.1904, -0.10852863, -0.35500887, -510910.78, 136108.33, 0.0, 10.00087, 9.99996 
4.7497436e+2, 2.4397372e+2, -606672.94, -802059.6, -45277.03, -0.04175062, -0.30841136, -596690.8, -47666.367, 0.0, 10.000512, 9.997939 
4.7495702e+2, 2.5397238e+2, -781817.25, -863644.44, -102479.15, -0.0036460084, -0.2248266, -712386.44, -261339.86, 0.0, 9.998754, 9.997691 
4.749401e+2, 2.639716e+2, -604003.2, -476540.1, -59818.105, 0.009199416, -0.17087603, -452865.03, -99807.45, 0.0, 9.998224, 9.999929 
4.7492364e+2, 2.7397153e+2, -307001.8, -255393.58, 8239.3955, -0.02809854, -0.20107074, -254110.05, 942.89197, 0.0, 9.999474, 10.000174 
4.7490603e+2, 2.8397098e+2, -288713.53, -371513.66, -45760.605, -0.10038768, -0.19941859, -268404.63, -111347.52, 0.0000000367379, 9.999685, 9.998603 
4.7488695e+2, 2.939697e+2, -405196.38, -391003.38, -88898.86, -0.18975185, -0.18282172, -308918.22, -249844.23, 0.000004802636, 9.99827, 9.99848 
4.748702e+2, 3.0396917e+2, -328217.66, -19257.979, -95523.5, -0.043473218, -0.20632006, 7890.2637, 7890.2637, 0.000029242266, 9.997137, 10.001245 
4.7485083e+2, 3.1397027e+2, -343546.97, 96689.9, 23872.02, -0.19746351, -0.25201827, 97980.586, 97980.586, 0.000080926366, 9.996488, 10.00235 
4.8516658e+2, 1.2400287e+2, -1496227.0, -1796292.8, 134787.13, 0.051622424, -0.35463396, -1444573.5, 280160.38, 0.000004125436, 10.002301, 9.998313 
4.8514754e+2, 1.3400216e+2, -1368428.9, -1625593.3, -85145.04, -0.07458672, -0.33256063, -1342793.5, 283948.2, 0.00000050768534, 10.002222, 9.998878 
4.8513627e+2, 1.4399998e+2, -1333543.8, -1585522.5, 39878.25, 0.37536302, -0.41917905, -1327383.3, 201380.95, 0.000000000009128432, 10.00193, 9.998606 
4.8511913e+2, 1.5399939e+2, -1309080.1, -1522294.0, 15747.258, 0.11438678, -0.3517429, -1307923.4, 122848.87, 0.0, 10.001421, 9.998615 
4.851027e+2, 1.6399841e+2, -1258622.9, -1416531.3, -23730.643, -0.013194808, -0.3200632, -1255133.6, 77649.23, 0.0, 10.000973, 9.998879 
4.850869e+2, 1.7399684e+2, -1201735.5, -1336143.0, -24389.13, -0.015277671, -0.3776076, -1197446.8, 37350.473, 0.0, 10.000679, 9.998899 
4.8507133e+2, 1.839961e+2, -1086871.1, -1229938.9, -14523.164, 0.010404975, -0.33852577, -1085411.8, 51392.734, 0.0, 10.000792, 9.998901 
4.8505646e+2, 1.9399658e+2, -896515.5, -1089420.6, -14385.021, 0.10100391, -0.18981187, -895448.7, 143352.6, 0.0, 10.001433, 9.998885 
4.850401e+2, 2.0399508e+2, -918953.4, -1191592.6, -17158.463, 0.06304852, -0.16699898, -917877.75, 22940.516, 0.0, 10.001225, 9.99761 
4.8502147e+2, 2.1399067e+2, -1037906.8, -1215003.9, 6394.521, -0.16825533, -0.3620539, -1037676.2, -194811.6, 0.0, 9.999805, 9.997462 
4.8500466e+2, 2.2398867e+2, -905549.06, -814860.5, 19846.064, -0.23395626, -0.4209428, -810707.56, -65822.85, 0.0, 9.998805, 10.000018 
4.849906e+2, 2.3399013e+2, -841495.25, -701388.44, -29631.879, -0.050220445, -0.31350318, -695379.2, -48512.62, 0.0, 9.998433, 10.000303 
4.8497447e+2, 2.4399029e+2, -886543.44, -909428.56, -108274.62, 0.023326254, -0.23052397, -789108.44, -240242.66, 0.0, 9.998472, 9.998184 
4.849553e+2, 2.539885e+2, -715051.9, -804903.8, -47583.652, -0.06338117, -0.2142396, -694536.7, -243646.06, 0.0, 9.999098, 9.997928 
4.8493776e+2, 2.6398772e+2, -461199.84, -366764.72, 64532.8, -0.087690555, -0.18658496, -334019.9, 18880.816, 0.0, 9.999033, 10.000294 
4.8492238e+2, 2.7398837e+2, -498035.13, -304114.03, 42249.81, -0.02283574, -0.18476096, -295308.8, -40418.996, 0.0, 9.997976, 10.000561 
4.8490506e+2, 2.839883e+2, -566263.06, -484254.0, -39036.406, -0.061531752, -0.16296111, -468643.94, -311755.03, 0.00000008825205, 9.99769, 9.998789 
4.8488504e+2, 2.9398736e+2, -358291.16, -352026.84, -5832.334, -0.21677813, -0.12808721, -348538.84, -289637.16, 0.0000054540624, 9.998522, 9.998625 
4.8486784e+2, 3.0398634e+2, -98022.805, 75521.05, 798.385, -0.07041643, -0.20517263, 75524.72, 75524.72, 0.000030858784, 9.998782, 10.0011015 
4.848494e+2, 3.1398636e+2, -131410.06, 150237.36, 41139.62, -0.06611851, -0.33896655, 156123.52, 156123.52, 0.00008250138, 9.998156, 10.001912 
4.9517033e+2, 1.24017395e+2, -1497635.8, -1811879.9, 147273.48, 0.17058952, -0.43033245, -1439405.0, 285186.16, 0.0000025148545, 10.002349, 9.998186 
4.9514914e+2, 1.3401799e+2, -1369393.0, -1626930.8, -89229.25, -0.14231203, -0.2750311, -1341498.9, 285088.9, 0.00000020934372, 10.002219, 9.998871 
4.9513632e+2, 1.4401634e+2, -1341661.8, -1605478.0, 19286.563, 0.17536977, -0.30368987, -1340259.3, 188346.64, 0.0, 10.00194, 9.9984665 
4.9511927e+2, 1.5401463e+2, -1321464.5, -1546064.8, -969.4556, -0.024054363, -0.3312023, -1321460.3, 109163.875, 0.0, 10.001413, 9.998455 
4.9510348e+2, 1.6401316e+2, -1249167.0, -1396544.5, -39815.406, -0.04154513, -0.3443359, -1239098.4, 93540.84, 0.0, 10.000968, 9.999021 
4.950891e+2, 1.7401204e+2, -1189149.8, -1309530.3, -32502.719, 0.1312564, -0.37479576, -1180934.6, 53715.11, 0.0, 10.000676, 9.999084 
4.950736e+2, 1.8401133e+2, -1085088.0, -1221088.3, 3330.8608, 0.15012327, -0.3481146, -1085006.5, 51650.46, 0.0, 10.00077, 9.998973 
4.9505666e+2, 1.9401117e+2, -896552.8, -1082400.3, 11228.036, -0.028193183, -0.26783726, -895876.94, 142782.67, 0.0, 10.001402, 9.99895 
4.9503952e+2, 2.0400992e+2, -874433.44, -1092117.6, -66995.695, -0.12310836, -0.25623953, -855467.0, 85205.69, 0.0, 10.001191, 9.998311 
4.9502203e+2, 2.1400702e+2, -988909.94, -1106908.3, -44133.043, -0.09777007, -0.3785185, -974229.94, -131528.6, 0.0, 9.999772, 9.998222 
4.950054e+2, 2.2400567e+2, -988547.56, -978153.0, -1160.6687, -0.046265323, -0.3613193, -978024.94, -233308.31, 0.0, 9.998766, 9.998917 
4.9499002e+2, 2.3400672e+2, -938905.8, -894136.8, -40953.355, 0.041595798, -0.16625522, -869849.7, -223137.86, 0.0, 9.998393, 9.999001 
4.9497283e+2, 2.4400648e+2, -775892.5, -673636.1, -90402.29, 0.007587923, -0.12468327, -620905.44, -72190.06, 0.0, 9.998444, 9.999817 
4.9495313e+2, 2.540043e+2, -582584.94, -523038.4, -19824.03, -0.19895604, -0.342669, -517042.4, -66310.14, 0.0, 9.999065, 9.99988 
4.9493572e+2, 2.640035e+2, -503487.0, -448775.7, 28128.59, -0.1966899, -0.40068012, -436894.25, -84156.24, 0.0, 9.999007, 9.999743 
4.949216e+2, 2.7400464e+2, -563731.06, -428897.38, 5187.713, 0.09359083, -0.26810458, -428698.06, -173969.97, 0.0, 9.997926, 9.999728 
4.949049e+2, 2.8400478e+2, -496003.28, -325886.38, -16226.735, 0.14868045, -0.23063742, -324352.4, -167626.61, 0.00000018947561, 9.997638, 9.999901 
4.948847e+2, 2.9400358e+2, -266644.38, -156457.92, 32932.344, -0.111138955, -0.3530516, -147365.45, -88632.055, 0.000005346717, 9.998498, 9.999979 
4.9486664e+2, 3.0400264e+2, -177607.73, -89343.375, -16996.584, -0.07560686, -0.4454581, -86183.555, -86183.555, 0.000029419843, 9.998778, 9.999971 
4.94847e+2, 3.140028e+2, -265572.34, -119201.914, 42804.223, -0.14031117, -0.4246384, -107603.414, -107603.414, 0.000078988014, 9.998116, 10.00008 
5.0517327e+2, 1.24032035e+2, -1504193.5, -1821632.3, 109855.62, 0.2328155, -0.4189574, -1469884.1, 254567.05, 0.0000013006085, 10.002356, 9.998109 
5.051505e+2, 1.3403244e+2, -1459897.1, -1672344.9, -165980.03, -0.19230285, -0.28018335, -1369060.4, 257389.73, 0.00000006878429, 10.001608, 9.9988575 
5.0513655e+2, 1.4403109e+2, -1465151.8, -1632720.1, -35350.73, 0.061712172, -0.28855756, -1457999.4, 70465.164, 0.0, 10.00096, 9.99875 
5.051203e+2, 1.5402973e+2, -1421256.8, -1559360.5, -30949.922, -0.016350253, -0.31535786, -1414637.9, 15839.999, 0.0, 10.000581, 9.998764 
5.0510466e+2, 1.640285e+2, -1330305.4, -1437981.5, -36672.47, 0.011407705, -0.32077602, -1319002.0, 13488.17, 0.0, 10.000417, 9.999001 
5.0508964e+2, 1.7402752e+2, -1215044.4, -1328830.4, -52071.945, 0.12924857, -0.32977277, -1194812.3, 39688.848, 0.0, 10.0005245, 9.999025 
5.0507367e+2, 1.840267e+2, -1176087.6, -1259276.8, -25001.85, 0.1151029, -0.31080338, -1169151.8, -32641.648, 0.0, 10.000123, 9.999022 
5.0505644e+2, 1.9402613e+2, -1241929.4, -1239924.9, -22948.729, -0.067833446, -0.27929285, -1217956.5, -179440.22, 0.0, 9.998998, 9.999023 
5.0503916e+2, 2.0402524e+2, -1177604.0, -1128837.8, -90616.625, -0.14422752, -0.27876794, -1059381.1, -118856.945, 0.0, 9.998633, 9.999291 
5.050219e+2, 2.1402387e+2, -976540.0, -979241.0, -51802.82, -0.06246945, -0.35435003, -926070.06, -83535.26, 0.0, 9.999335, 9.999307 
5.05005e+2, 2.2402318e+2, -902628.9, -975355.06, 32639.123, 0.00029887146, -0.31812668, -890129.06, -145585.36, 0.0, 9.999524, 9.9985695 
5.049886e+2, 2.3402347e+2, -895061.7, -930187.06, 45962.273, 0.035670083, -0.14740665, -863420.94, -216871.39, 0.0, 9.99894, 9.998489 
5.0497097e+2, 2.4402305e+2, -728668.56, -574949.94, 23074.73, -0.021916179, -0.12438268, -571560.9, -23005.475, 0.0, 9.9984455, 10.000493 
5.0495166e+2, 2.5402153e+2, -660827.1, -468086.56, 4836.3013, -0.2054768, -0.35441136, -467965.3, -17403.121, 0.0, 9.9981365, 10.000703 
5.0493425e+2, 2.64021e+2, -658373.5, -566142.9, 44.65814, -0.19930542, -0.41545844, -566142.8, -213578.38, 0.0, 9.998133, 9.999356 
5.049195e+2, 2.740218e+2, -513901.9, -464884.6, -12170.387, 0.07186287, -0.26675966, -462029.2, -207468.13, 0.00000000061010413, 9.99853, 9.999187 
5.0490284e+2, 2.8402168e+2, -347171.0, -207777.02, -25437.035, 0.14108196, -0.24259388, -203280.25, -46718.305, 0.00000027554938, 9.998458, 10.000318 
5.048833e+2, 2.9402053e+2, -351690.75, -138737.77, -42981.156, -0.054298528, -0.40796366, -130389.945, -71823.59, 0.000004532087, 9.997667, 10.000501 
5.048651e+2, 3.0402014e+2, -384268.44, -200298.5, -90886.15, -0.034793463, -0.47281688, -162971.72, -162971.72, 0.0000250645, 9.997412, 9.99987 
5.048452e+2, 3.1401995e+2, -329926.56, -191933.44, 62185.26, -0.1143696, -0.47030246, -168045.48, -168045.48, 0.0000692816, 9.997851, 9.999711 
5.151752e+2, 1.24046825e+2, -1498434.1, -1825256.4, 96413.46, 0.17147292, -0.31955546, -1472111.9, 252201.42, 0.0000007064611, 10.002418, 9.9980545 
5.1515156e+2, 1.3404569e+2, -1457232.9, -1674271.1, -191317.2, -0.25860208, -0.33532834, -1345800.5, 280526.28, 0.000000029496794, 10.001641, 9.998827 
5.1513696e+2, 1.4404444e+2, -1411240.3, -1533562.3, -53679.3, -0.0063812244, -0.36008942, -1391024.8, 137313.67, 0.0, 10.001012, 9.999406 
5.1512206e+2, 1.540446e+2, -1366870.9, -1450521.8, -41093.848, 0.09384264, -0.30773756, -1350061.3, 80272.39, 0.0, 10.000601, 9.999499 
5.1510614e+2, 1.640443e+2, -1343188.8, -1465637.8, -35947.215, 0.10808259, -0.2518221, -1333415.8, -1079.5242, 0.0, 10.000421, 9.998808 
5.1508844e+2, 1.7404327e+2, -1234272.1, -1372251.4, -44661.066, -0.054657683, -0.23893496, -1221077.9, 13273.019, 0.0, 10.000538, 9.998721 
5.150714e+2, 1.840423e+2, -1172805.0, -1252873.8, -66301.11, -0.12839402, -0.22134657, -1135388.8, 974.2877, 0.0, 10.000126, 9.999063 
5.1505566e+2, 1.9404145e+2, -1239296.6, -1232168.9, -61339.96, -0.054437, -0.2260216, -1174289.4, -135918.13, 0.0, 9.998984, 9.999085 
5.1503897e+2, 2.0404102e+2, -1095125.1, -951615.7, -73694.9, -0.034748446, -0.23825915, -920512.9, 19860.184, 0.0, 9.998607, 10.000521 
5.1502097e+2, 2.1404122e+2, -883787.7, -781517.3, -22541.121, -0.09550041, -0.29519704, -776769.5, 65596.234, 0.0, 9.9993105, 10.000676 
5.150033e+2, 2.2404106e+2, -879553.5, -919906.25, 11153.54, -0.12504196, -0.2979689, -876675.9, -132309.11, 0.0, 9.999491, 9.998967 
5.1498616e+2, 2.3404036e+2, -880418.75, -890054.9, 25650.156, -0.107350715, -0.25573006, -859138.06, -212758.27, 0.0, 9.9988985, 9.998784 
5.149687e+2, 2.4404003e+2, -754184.9, -620695.06, 7180.716, -0.10184344, -0.22735806, -620309.9, -71924.3, 0.0, 9.998414, 10.000196 
5.149507e+2, 2.5404024e+2, -689681.06, -519539.6, -2690.2617, -0.11826173, -0.24980916, -519497.06, -69116.734, 0.0, 9.9981, 10.000368 
5.1493317e+2, 2.6404026e+2, -680820.3, -605430.8, 10565.226, -0.12805282, -0.22657023, -603978.2, -251598.05, 0.0, 9.998102, 9.999102 
5.1491606e+2, 2.7403972e+2, -535064.75, -502634.34, 7501.286, -0.13524778, -0.18280397, -500983.3, -246594.02, 0.0000000018853024, 9.998504, 9.998941 
5.1489866e+2, 2.8403893e+2, -373021.25, -257198.02, -55097.93, -0.129898, -0.1989104, -235175.06, -78776.97, 0.00000034744536, 9.998439, 9.999988 
5.1488066e+2, 2.9403824e+2, -383007.6, -193701.48, -70228.33, -0.0922957, -0.28870443, -170493.52, -112091.93, 0.0000038784074, 9.997623, 10.000144 
5.148631e+2, 3.040388e+2, -320199.5, -57915.117, -80409.984, 0.0192843, -0.28203335, -35226.1, -35226.1, 0.000021208403, 9.997371, 10.000871 
5.1484376e+2, 3.140379e+2, -257939.77, -25317.672, 99812.49, -0.05624319, -0.46417198, 11638.344, 11638.344, 0.00006028198, 9.997783, 10.000887 
5.251777e+2, 1.24063455e+2, -1456179.8, -1831325.9, 210237.47, 0.16328265, -0.18206792, -1362002.1, 362153.84, 0.0000005002885, 10.002816, 9.997825 
5.251542e+2, 1.340614e+2, -1332539.8, -1641250.3, -129085.164, -0.20380291, -0.2642116, -1285677.5, 340501.13, 0.000000016983103, 10.002598, 9.998599 
5.2513874e+2, 1.4406e+2, -1219211.0, -1404443.6, -205.75635, 0.01175198, -0.30848938, -1219210.8, 308980.3, 0.0, 10.002178, 9.999726 
5.251231e+2, 1.540602e+2, -1204508.0, -1330450.6, -23210.365, 0.0960408, -0.2878248, -1200366.8, 229816.44, 0.0, 10.0015335, 9.999875 
5.251067e+2, 1.6406001e+2, -1262899.4, -1446082.9, -8329.878, 0.10184375, -0.23334582, -1262521.4, 69662.61, 0.0, 10.001052, 9.998644 
5.25089e+2, 1.7405921e+2, -1197552.0, -1376686.3, -14320.233, -0.060501296, -0.17506608, -1196414.5, 37783.63, 0.0, 10.000885, 9.998526 
5.2507174e+2, 1.8405832e+2, -1082366.3, -1146940.6, -42639.24, -0.12429739, -0.16316806, -1061169.3, 75040.055, 0.0, 10.000473, 9.999627 
5.250552e+2, 1.9405735e+2, -1099158.0, -1090355.3, -5533.361, -0.021474669, -0.24382694, -1087686.3, -49470.684, 0.0, 9.999627, 9.999748 
5.250381e+2, 2.0405716e+2, -1021987.0, -907236.7, 17675.092, 0.0026037535, -0.27119693, -904575.9, 35638.457, 0.0, 9.999074, 10.000601 
5.250202e+2, 2.1405812e+2, -937006.0, -805186.4, -33200.63, -0.083343595, -0.251672, -797296.5, 44905.86, 0.0, 9.998939, 10.000694 
5.250021e+2, 2.2405834e+2, -958092.56, -879747.3, -69610.98, -0.14280473, -0.24830589, -839043.9, -94844.66, 0.0, 9.998618, 9.999662 
5.2498406e+2, 2.3405744e+2, -951581.5, -839234.75, -29982.988, -0.15894939, -0.30386013, -831733.7, -185524.02, 0.0, 9.998048, 9.999544 
5.249664e+2, 2.4405718e+2, -849741.25, -711950.44, -3136.5237, -0.13778222, -0.29173866, -711879.1, -163665.06, 0.0, 9.997955, 9.999787 
5.249495e+2, 2.540579e+2, -662705.25, -567520.7, -32200.412, -0.067545384, -0.20754795, -557650.9, -107442.16, 0.0, 9.99855, 9.999821 
5.24932e+2, 2.6405823e+2, -559503.0, -503136.7, -3697.2974, -0.081453115, -0.1406957, -502895.22, -150687.73, 0.0, 9.998742, 9.999498 
5.2491367e+2, 2.7405766e+2, -523834.16, -440611.0, 46413.832, -0.21318515, -0.15237053, -419886.66, -165672.0, 0.00000000009174081, 9.998338, 9.999449 
5.2489585e+2, 2.8405684e+2, -464758.44, -348022.1, 653.60876, -0.2265519, -0.17949018, -348018.44, -191794.45, 0.00000033351301, 9.998017, 9.999565 
5.248787e+2, 2.940562e+2, -392040.03, -261954.86, -40061.01, -0.060314007, -0.21051541, -250607.5, -192376.08, 0.000003888586, 9.997837, 9.999573 
5.248616e+2, 3.040573e+2, -188702.22, -24185.012, -45480.35, 0.081209876, -0.102754, -12449.251, -12449.251, 0.000020489533, 9.998406, 10.0006 
5.2484334e+2, 3.1405616e+2, 60965.188, 134442.28, 26153.559, 0.02365932, -0.2909239, 142800.63, 142800.63, 0.000057556197, 9.999938, 10.000951 
5.3518045e+2, 1.24081835e+2, -1476834.9, -1881263.4, 206540.97, 0.12706508, -0.00536073, -1389999.4, 333980.88, 0.00000041209, 10.002857, 9.9974575 
5.3515816e+2, 1.340795e+2, -1367763.4, -1707587.6, -136647.73, -0.070590995, -0.06882108, -1319632.5, 306374.1, 0.000000018082496, 10.002579, 9.99815 
5.351416e+2, 1.4407764e+2, -1218762.5, -1406923.1, -25139.693, 0.07579567, -0.13385555, -1215461.6, 312561.78, 0.0, 10.002185, 9.99971 
5.3512335e+2, 1.5407644e+2, -1202514.9, -1329152.5, -45563.305, -0.04088701, -0.25384673, -1187825.5, 242201.58, 0.0, 10.001542, 9.999882 
5.351065e+2, 1.6407564e+2, -1270911.8, -1463597.3, -21047.953, -0.04076675, -0.25783002, -1268639.4, 63393.758, 0.0, 10.001057, 9.998519 
5.3509134e+2, 1.740753e+2, -1208522.8, -1397653.8, -17166.229, 0.07364292, -0.13926452, -1206977.3, 27065.832, 0.0, 10.000877, 9.998384 
5.350744e+2, 1.8407476e+2, -1007732.44, -988338.0, -74313.49, 0.09175518, -0.13605228, -923091.7, 212957.39, 0.0, 10.000456, 10.000724 
5.3505504e+2, 1.9407383e+2, -1016085.94, -915765.9, -34608.805, -0.008802948, -0.33303156, -904984.94, 133064.61, 0.0, 9.999616, 10.000954 
5.350366e+2, 2.0407367e+2, -1100252.1, -1065247.8, 7050.567, -0.06535232, -0.37402663, -1063881.0, -123832.74, 0.0, 9.999055, 9.999524 
5.350194e+2, 2.1407466e+2, -1034651.2, -999193.5, -34431.77, -0.060028214, -0.22222112, -978194.3, -136150.19, 0.0, 9.9989, 9.999381 
5.350014e+2, 2.2407511e+2, -894656.75, -742566.44, -92632.85, -0.08613118, -0.16904783, -698762.9, 45277.9, 0.0, 9.99859, 10.00062 
5.3498226e+2, 2.340747e+2, -871635.56, -665377.9, -48407.938, -0.153609, -0.29346365, -654581.8, -8542.774, 0.0, 9.998013, 10.000754 
5.349642e+2, 2.4407445e+2, -894528.8, -797063.0, 12648.3545, -0.16263567, -0.3205347, -795448.3, -247407.13, 0.0, 9.997923, 9.999218 
5.349479e+2, 2.5407448e+2, -720043.06, -680031.8, -7165.6567, -0.090831116, -0.23351797, -678787.25, -228738.88, 0.0, 9.998524, 9.99906 
5.3493065e+2, 2.6407492e+2, -485232.9, -343871.34, -17626.969, -0.09176272, -0.16267624, -341706.53, 10340.675, 0.0, 9.998721, 10.000602 
5.349123e+2, 2.7407566e+2, -437852.3, -251140.36, 35468.023, -0.19728254, -0.1726666, -244629.83, 9406.686, 0.0, 9.998291, 10.0007715 
5.348944e+2, 2.840755e+2, -508277.1, -433597.66, -9735.968, -0.17832007, -0.18213351, -432349.25, -276310.28, 0.00000019037492, 9.997993, 9.99899 
5.3487724e+2, 2.9407454e+2, -452410.38, -377117.7, -42671.336, 0.011796065, -0.17153105, -357859.8, -299804.38, 0.000003945089, 9.997796, 9.9988 
5.348605e+2, 3.0407578e+2, -307043.75, -267625.38, 7866.084, 0.12438193, 0.07187972, -266113.66, -266113.66, 0.000021599248, 9.998398, 9.998933 
5.3484374e+2, 3.1407455e+2, -22559.893, -28399.578, 88539.35, 0.05272327, 0.04708903, 63107.75, 63107.75, 0.000060066017, 9.999902, 9.999845 
5.45183e+2, 1.240976e+2, -1386150.8, -1804117.6, 192896.48, 0.08039647, -0.08014241, -1310734.6, 413090.2, 0.00000036785775, 10.003336, 9.997763 
5.451614e+2, 1.3409622e+2, -1440116.9, -1715268.1, -128971.67, 0.03852358, -0.0720967, -1389116.9, 236723.94, 0.000000024396927, 10.001965, 9.998395 
5.4514396e+2, 1.4409482e+2, -1409852.4, -1544297.5, 26511.186, 0.15276936, -0.08645284, -1404813.5, 123040.79, 0.0, 10.00107, 9.999304 
5.451243e+2, 1.5409297e+2, -1300460.5, -1428430.3, -36919.96, -0.07829922, -0.22483265, -1290572.9, 139295.19, 0.0, 10.001094, 9.999414 
5.451067e+2, 1.64092e+2, -1270904.4, -1354490.8, -2693.158, -0.0981159, -0.26154143, -1270817.6, 61057.78, 0.0, 10.000596, 9.999487 
5.4509217e+2, 1.7409231e+2, -1359891.9, -1347125.4, 82736.58, 0.14760321, -0.19004768, -1270526.1, -36652.47, 0.0, 9.99931, 9.999488 
5.4507506e+2, 1.840921e+2, -1250372.0, -1120173.4, 64313.49, 0.19837204, -0.20408782, -1093762.4, 42111.51, 0.0, 9.998853, 10.000593 
5.4505455e+2, 1.940912e+2, -1032624.2, -952031.6, -8262.51, -0.013176024, -0.37143832, -951193.25, 86683.39, 0.0, 9.9996195, 10.000705 
5.4503566e+2, 2.0409113e+2, -978492.56, -1016472.25, 5404.605, -0.10456398, -0.38876194, -977738.44, -37861.887, 0.0, 9.999933, 9.999435 
5.45019e+2, 2.1409218e+2, -942305.0, -960836.75, 49866.18, -0.02357634, -0.22435582, -900851.1, -58978.727, 0.0, 9.999562, 9.999323 
5.45001e+2, 2.2409256e+2, -774214.0, -680677.1, 19421.99, -0.022477053, -0.1743779, -676804.7, 67064.71, 0.0, 9.999407, 10.0006485 
5.449812e+2, 2.3409195e+2, -637126.7, -548611.3, -30656.674, -0.12957717, -0.32168832, -539030.6, 106837.9, 0.0, 9.999606, 10.000788 
5.4496276e+2, 2.4409164e+2, -668905.06, -684529.56, 14598.468, -0.17248484, -0.3584439, -660159.94, -112289.164, 0.0, 9.999448, 9.99926 
5.449462e+2, 2.5409183e+2, -677162.44, -653957.8, 49576.305, -0.12501152, -0.25981402, -614644.3, -164767.27, 0.0, 9.998791, 9.999113 
5.449289e+2, 2.6409233e+2, -551049.7, -367396.56, 29127.523, -0.116223544, -0.18845986, -362887.6, -11011.956, 0.0, 9.998237, 10.000672 
5.449107e+2, 2.7409303e+2, -495102.72, -271100.4, -19975.549, -0.15837596, -0.20963164, -269333.03, -15467.386, 0.0, 9.997866, 10.000841 
5.4489315e+2, 2.84093e+2, -433484.2, -364330.78, -42699.57, -0.12251887, -0.22308463, -343963.88, -188097.27, 0.00000011177434, 9.998368, 9.999283 
5.448762e+2, 2.9409233e+2, -97061.016, -172924.05, 4785.1333, 0.017895013, -0.21364368, -96760.38, -38880.934, 0.0000044340386, 10.000092, 9.999098 
5.44859e+2, 3.0409375e+2, -138942.88, -227412.1, 98858.234, 0.07610168, 0.050804283, -74873.97, -74873.97, 0.000024114986, 9.999736, 9.99856 
5.448417e+2, 3.1409332e+2, -524043.94, -265684.34, 249505.39, 0.03607289, 0.14676738, -113900.86, -113900.86, 0.00006615612, 9.996447, 9.999879 
5.551853e+2, 1.2411098e+2, -1311081.1, -1652678.1, 136383.02, -0.040573154, -0.3831711, -1263310.6, 460377.5, 0.0000003291145, 10.003358, 9.99879 
5.55164e+2, 1.341117e+2, -1373139.3, -1576814.9, -181353.38, 0.09055437, -0.25731173, -1266986.8, 358693.72, 0.000000025104656, 10.00197, 9.999342 
5.551457e+2, 1.4411162e+2, -1463503.9, -1659503.0, 16900.928, 0.20663653, -0.15533417, -1462057.3, 65625.97, 0.0, 10.001084, 9.9985075 
5.5512565e+2, 1.5410978e+2, -1368282.9, -1568285.5, -30583.701, -0.056679897, -0.197675, -1363710.6, 65995.59, 0.0, 10.001093, 9.998454 
5.551073e+2, 1.6410917e+2, -1127384.4, -1059598.4, -48947.773, -0.10480713, -0.23916674, -1033954.6, 297755.88, 0.0, 10.000606, 10.001508 
5.550914e+2, 1.7411017e+2, -1196374.3, -1010440.8, 36779.168, 0.13170616, -0.32620516, -1003429.94, 230260.06, 0.0, 9.999321, 10.001793 
5.5507374e+2, 1.8411042e+2, -1343927.0, -1316709.6, 82032.82, 0.16995075, -0.36176094, -1247164.4, -111480.95, 0.0, 9.998862, 9.99924 
5.550538e+2, 1.9410953e+2, -1155969.3, -1205859.1, 24162.967, -0.06656331, -0.35706615, -1146185.3, -108488.555, 0.0, 9.999608, 9.99897 
5.5503523e+2, 2.0410949e+2, -914986.56, -880316.6, -7400.9907, -0.1492343, -0.31636688, -878802.8, 60896.445, 0.0, 9.999915, 10.000378 
5.550187e+2, 2.1411067e+2, -864324.06, -790063.25, 38693.555, -0.009638825, -0.2586716, -773566.6, 68120.305, 0.0, 9.999524, 10.000514 
5.5500084e+2, 2.2411072e+2, -846296.8, -820353.06, 21616.385, 0.017377418, -0.26405892, -808115.06, -64429.926, 0.0, 9.999366, 9.999708 
5.54981e+2, 2.3410918e+2, -726457.4, -720676.06, -19098.986, -0.115834594, -0.39050594, -704250.25, -58551.793, 0.0, 9.999552, 9.999632 
5.5496204e+2, 2.4410878e+2, -625893.6, -589570.8, -9386.493, -0.19651699, -0.40255505, -587288.56, -39585.91, 0.0, 9.999421, 9.999926 
5.549442e+2, 2.5411e+2, -623578.7, -532973.2, 29124.197, -0.20187771, -0.2835987, -524419.06, -74724.984, 0.0, 9.99875, 9.999963 
5.549265e+2, 2.6411048e+2, -627870.5, -519983.0, 11854.089, -0.18517177, -0.21603309, -518695.9, -167003.28, 0.0, 9.998208, 9.999637 
5.549089e+2, 2.741097e+2, -590163.94, -457773.03, -30965.602, -0.13180426, -0.26485258, -450888.34, -197185.67, 0.0, 9.99782, 9.99958 
5.548918e+2, 2.8410926e+2, -349753.4, -189585.81, 14254.246, -0.0922426, -0.30539227, -188327.14, -32619.283, 0.00000024371042, 9.998359, 10.00049 
5.5487543e+2, 2.9410952e+2, 5577.9614, 39149.008, 75455.53, -0.08062781, -0.3426193, 99663.484, 157367.22, 0.0000057652805, 10.000093, 10.000556 
5.5485696e+2, 3.0411127e+2, -73094.91, -89886.69, -10104.967, -0.10674657, -0.17169735, -68353.016, -68353.016, 0.000028463612, 9.999729, 9.999506 
5.548369e+2, 3.1411213e+2, -449290.6, -85594.28, 124933.71, -0.10402275, -0.041082837, -46813.38, -46813.38, 0.00007494189, 9.996336, 10.001167 
5.651883e+2, 1.24128506e+2, -1397356.9, -1660926.6, 198721.33, -0.036704578, -0.38008952, -1290693.8, 432822.2, 0.00000027083397, 10.002618, 9.999088 
5.6516564e+2, 1.341286e+2, -1337714.0, -1539582.9, -196061.61, 0.060513087, -0.3386384, -1218131.0, 407382.28, 0.000000017878008, 10.002114, 9.999531 
5.651459e+2, 1.441287e+2, -1396052.0, -1573361.1, 39571.414, 0.11628583, -0.24916087, -1387621.4, 139892.14, 0.0, 10.001321, 9.998983 
5.651265e+2, 1.5412799e+2, -1454968.0, -1555176.0, 89182.914, -0.03593509, -0.22586873, -1402778.3, 26747.098, 0.0, 10.000259, 9.998949 
5.6510794e+2, 1.6412789e+2, -1218749.0, -1124264.5, 76901.22, -0.06982355, -0.23607412, -1081253.6, 250271.94, 0.0, 10.000072, 10.00132 
5.6509084e+2, 1.7412843e+2, -945719.7, -917424.75, -30590.207, 0.05521183, -0.3417602, -897868.94, 335641.97, 0.0, 10.001161, 10.001545 
5.6507283e+2, 1.8412866e+2, -1006715.6, -1153746.4, -43921.305, 0.08221687, -0.3646846, -994594.6, 140910.72, 0.0, 10.001182, 9.999235 
5.6505376e+2, 1.9412844e+2, -1140579.3, -1191743.4, 20623.445, -0.027023358, -0.29968506, -1133301.5, -95789.04, 0.0, 9.999693, 9.99902 
5.6503534e+2, 2.0412847e+2, -1044669.75, -922626.3, 52033.008, -0.074809335, -0.26346064, -903454.0, 36059.598, 0.0, 9.99894, 10.000558 
5.6501794e+2, 2.141289e+2, -890398.5, -779353.0, 18054.447, -0.025331901, -0.29997003, -776491.3, 65015.113, 0.0, 9.999248, 10.000721 
5.6499964e+2, 2.2412872e+2, -875670.44, -855780.75, -9194.209, -0.03219117, -0.33088017, -852181.8, -108675.25, 0.0, 9.99925, 9.99952 
5.649802e+2, 2.3412769e+2, -848287.0, -801351.5, 14959.587, -0.11218379, -0.38585657, -796989.0, -151471.72, 0.0, 9.998807, 9.999434 
5.649614e+2, 2.4412754e+2, -746813.1, -626473.1, 44764.938, -0.15588868, -0.36950782, -611647.6, -64128.29, 0.0, 9.998518, 10.000097 
5.649434e+2, 2.541286e+2, -642485.06, -518761.16, 24724.826, -0.14828452, -0.2895408, -514003.16, -64493.223, 0.0, 9.998528, 10.000162 
5.6492543e+2, 2.6412863e+2, -592797.75, -585347.7, 14115.252, -0.14247678, -0.24247399, -574474.2, -222961.75, 0.0, 9.99881, 9.998896 
5.6490755e+2, 2.7412713e+2, -404986.28, -455569.56, -1961.7083, -0.12814727, -0.27885428, -404910.3, -151378.19, 0.0, 9.999478, 9.99879 
5.648903e+2, 2.8412652e+2, -247921.5, -126693.76, 20884.88, -0.11303665, -0.2986995, -123196.64, 32343.387, 0.00000046127252, 9.999001, 10.000613 
5.6487364e+2, 2.9412732e+2, -430656.7, -145225.66, -19643.418, -0.10682362, -0.305509, -143880.13, -86350.63, 0.000007729108, 9.996989, 10.000784 
5.6485486e+2, 3.0412847e+2, -463811.06, -250127.34, -185349.42, -0.14608003, -0.21569756, -143030.92, -143030.92, 0.000034443015, 9.996914, 9.999768 
5.648347e+2, 3.1412908e+2, 15517.582, 169651.94, -122960.53, -0.09886103, -0.13595419, 237700.72, 237700.72, 0.00008580813, 9.99938, 10.00146 
5.751916e+2, 1.2414993e+2, -1421460.1, -1719789.1, 169686.22, 0.013539722, -0.09530786, -1344696.6, 378613.8, 0.00000019303324, 10.002653, 9.998667 
5.751664e+2, 1.3414685e+2, -1373987.6, -1615615.4, -212134.8, -0.08351606, -0.3181684, -1250676.3, 374663.06, 0.000000007774616, 10.002119, 9.999006 
5.7514477e+2, 1.4414611e+2, -1274264.0, -1327722.3, -1607.6521, -0.14156228, -0.36050516, -1274215.6, 253128.5, 0.0, 10.001348, 10.000659 
5.751267e+2, 1.541476e+2, -1321678.0, -1283176.6, 52437.84, -0.047546133, -0.30433673, -1246567.5, 182758.42, 0.0, 10.00028, 10.000807 
5.751085e+2, 1.6414809e+2, -1378091.1, -1462973.5, 106759.87, -0.028767366, -0.24867281, -1305645.8, 25675.504, 0.0, 10.000098, 9.998984 
5.7509035e+2, 1.741471e+2, -1136350.6, -1315262.9, 15069.93, -0.11737179, -0.23932485, -1135090.1, 98246.04, 0.0, 10.001165, 9.998812 
5.750723e+2, 1.8414694e+2, -911767.25, -952187.44, -93778.516, -0.099689454, -0.2141709, -836045.8, 299292.72, 0.0, 10.001165, 10.000627 
5.750545e+2, 1.9414796e+2, -1020987.56, -936126.9, -32155.31, 0.070170194, -0.19909354, -925319.1, 112004.61, 0.0, 9.999662, 10.000791 
5.750359e+2, 2.0414805e+2, -1088392.1, -1008769.7, 54263.332, 0.08589322, -0.22729056, -981279.75, -41960.074, 0.0, 9.998919, 9.999978 
5.7501644e+2, 2.1414684e+2, -953850.75, -901594.75, 33038.86, -0.10783018, -0.3471479, -885601.06, -44270.016, 0.0, 9.999205, 9.999904 
5.749972e+2, 2.2414654e+2, -836471.8, -764594.4, -26142.809, -0.20504946, -0.37479854, -756091.7, -12757.951, 0.0, 9.999208, 10.000166 
5.749786e+2, 2.3414755e+2, -802165.5, -693621.4, 2122.4438, -0.15809572, -0.3023394, -693579.9, -48255.508, 0.0, 9.998756, 10.000199 
5.7496065e+2, 2.4414796e+2, -774637.06, -682826.5, 40068.508, -0.08864338, -0.2569377, -667799.2, -120478.31, 0.0, 9.998505, 9.999721 
5.749435e+2, 2.541475e+2, -682953.06, -593443.06, 27939.41, 0.005672982, -0.27802452, -585438.0, -136112.56, 0.0, 9.998486, 9.999671 
5.7492554e+2, 2.641467e+2, -622283.25, -645584.25, 34659.41, -0.013440954, -0.26665717, -597368.6, -246033.05, 0.0, 9.9988, 9.998489 
5.7490647e+2, 2.7414536e+2, -434691.06, -515189.97, 26790.334, -0.18681148, -0.25020346, -426590.3, -173236.3, 0.0, 9.999462, 9.998391 
5.748882e+2, 2.8414485e+2, -323390.13, -275837.88, -53063.375, -0.2274806, -0.19292073, -241467.42, -86104.41, 0.0000006054728, 9.998969, 9.999603 
5.7487077e+2, 2.9414564e+2, -520611.5, -309365.88, -93322.086, -0.09446301, -0.09307704, -274044.78, -216687.34, 0.000009214798, 9.996894, 9.999702 
5.748526e+2, 3.041453e+2, -503337.3, -319894.9, -105958.875, -0.0655492, -0.074981086, -271473.1, -271473.1, 0.00003883035, 9.996858, 9.999319 
5.748353e+2, 3.1414393e+2, -30737.64, 72618.8, -33539.13, 0.004049654, -0.15074672, 82548.3, 82548.3, 0.00009398202, 9.999381, 10.000796 
5.851947e+2, 1.2416993e+2, -1479970.4, -1730269.5, 240701.23, 0.08526953, -0.08105718, -1333827.8, 389287.84, 0.00000011738098, 10.002179, 9.99882 
5.8516824e+2, 1.3416734e+2, -1461861.9, -1650961.3, -105713.75, -0.07948206, -0.25952122, -1414584.1, 210556.4, 0.0000000014227642, 10.001485, 9.999068 
5.8514524e+2, 1.4416674e+2, -1298595.1, -1331527.0, 91731.086, -0.21522386, -0.29482314, -1221863.9, 305280.25, 0.0, 10.001158, 10.000719 
5.85128e+2, 1.5416789e+2, -1137694.3, -1185637.1, 8309.219, -0.0048364964, -0.27819493, -1136295.0, 292832.4, 0.0, 10.001512, 10.000877 
5.851099e+2, 1.6416804e+2, -1271549.1, -1464376.4, 66189.81, 0.052683927, -0.23804289, -1251015.4, 80110.31, 0.0, 10.001057, 9.998511 
5.850908e+2, 1.7416678e+2, -1415752.5, -1506532.1, 128907.18, -0.09694241, -0.20467225, -1324477.5, -91332.33, 0.0, 9.999496, 9.998301 
5.850722e+2, 1.8416633e+2, -1207181.0, -1075219.1, 73304.766, -0.10970906, -0.19042931, -1042574.2, 92576.55, 0.0, 9.999047, 10.000808 
5.8505434e+2, 1.94167e+2, -946414.6, -871640.56, 16677.393, 0.07305892, -0.23233308, -868089.5, 169047.61, 0.0, 10.000048, 10.00105 
5.8503556e+2, 2.0416696e+2, -930349.56, -972369.44, 54321.03, 0.09633178, -0.27258387, -893116.94, 46016.953, 0.0, 10.000175, 9.999621 
5.8501565e+2, 2.1416585e+2, -990309.25, -962433.44, 56825.773, -0.09795852, -0.34362927, -917861.25, -76715.5, 0.0, 9.999142, 9.999514 
5.849962e+2, 2.2416566e+2, -909344.56, -801538.75, 10445.98, -0.19715936, -0.3377111, -800535.9, -57387.53, 0.0, 9.998723, 10.000148 
5.849776e+2, 2.3416674e+2, -742051.94, -663931.25, -24931.129, -0.1532181, -0.25755924, -656652.94, -11514.36, 0.0, 9.9991665, 10.000209 
5.849598e+2, 2.4416693e+2, -619451.44, -650189.1, 4017.117, -0.08234521, -0.21714765, -618935.1, -71797.52, 0.0, 9.999747, 9.999349 
5.849431e+2, 2.541659e+2, -404002.56, -503526.78, -4539.4556, 0.020349823, -0.2589218, -403795.94, 45352.64, 0.0, 10.000589, 9.999276 
5.8492535e+2, 2.6416498e+2, -361750.1, -476038.63, 11517.827, 0.008778563, -0.25366914, -360600.9, -9442.291, 0.0, 10.000402, 9.998877 
5.849059e+2, 2.7416426e+2, -486720.38, -490703.38, 59141.227, -0.15545917, -0.22305793, -429537.13, -176368.78, 0.0, 9.99889, 9.998833 
5.8488715e+2, 2.841637e+2, -448958.47, -403027.2, 27986.145, -0.1971786, -0.16204576, -389790.0, -234613.47, 0.00000055145284, 9.998393, 9.999006 
5.84869e+2, 2.9416376e+2, -226151.88, -243047.72, 9082.966, -0.072191365, -0.07018437, -222195.45, -165015.02, 0.000008696917, 9.999243, 9.999022 
5.8485085e+2, 3.0416268e+2, -174973.5, -191491.97, 71148.914, -0.044898633, -0.07330095, -111606.04, -111606.04, 0.000037738446, 9.99925, 9.9990425 
5.8483446e+2, 3.1416097e+2, -269208.0, -104410.68, 133007.11, 0.05155642, -0.15930857, -30347.11, -30347.11, 0.000093645554, 9.998016, 10.00023 
5.9519744e+2, 1.2418866e+2, -1422724.3, -1620153.3, 195650.34, 0.12041579, -0.3118663, -1302295.9, 420634.38, 0.000000058921596, 10.002218, 9.999557 
5.951709e+2, 1.3419e+2, -1418129.3, -1562490.6, -132310.23, 0.034052696, -0.16318974, -1339591.5, 285326.63, 0.000000000010343272, 10.001494, 9.999673 
5.951471e+2, 1.4419039e+2, -1400009.0, -1545066.0, 97885.93, -0.15631965, -0.061670695, -1350709.6, 176205.14, 0.0, 10.001168, 9.9992485 
5.9513015e+2, 1.5418884e+2, -1250091.4, -1423992.3, 25691.297, 0.05195934, -0.14987595, -1246375.4, 182554.34, 0.0, 10.001531, 9.999233 
5.951119e+2, 1.6418782e+2, -1177297.6, -1269392.6, 10135.418, 0.14306682, -0.20041433, -1176195.4, 154742.77, 0.0, 10.001059, 9.999849 
5.950922e+2, 1.7418744e+2, -1299643.1, -1271644.9, 72838.78, 0.07938382, -0.23637384, -1211472.1, 21466.252, 0.0, 9.99952, 9.999904 
5.950725e+2, 1.8418674e+2, -1275917.1, -1218289.8, 99759.35, 0.0120993825, -0.288209, -1143266.3, -8323.569, 0.0, 9.999051, 9.999823 
5.9505314e+2, 1.9418554e+2, -1034679.56, -1052493.5, 57516.676, -0.054554768, -0.39624652, -985384.3, 51568.547, 0.0, 10.000035, 9.999816 
5.9503406e+2, 2.0418519e+2, -938834.75, -983647.4, 18494.469, -0.075863644, -0.39905626, -932187.9, 6768.3467, 0.0, 10.00015, 9.999555 
5.950155e+2, 2.1418594e+2, -996002.1, -962842.1, 21942.184, -0.031878356, -0.284783, -951920.2, -110970.0, 0.0, 9.999094, 9.999534 
5.949965e+2, 2.2418608e+2, -961971.8, -905687.6, 18879.355, -0.04562565, -0.21726765, -899941.56, -156991.16, 0.0, 9.998697, 9.999446 
5.9497696e+2, 2.3418528e+2, -802925.44, -781277.1, -5419.008, -0.13584083, -0.24873644, -779996.44, -135036.44, 0.0, 9.9991255, 9.999424 
5.9495866e+2, 2.4418446e+2, -644483.0, -700631.1, 30270.32, -0.17542869, -0.24804795, -631272.1, -84302.26, 0.0, 9.999737, 9.99901 
5.9494215e+2, 2.5418374e+2, -425967.5, -545451.0, 29071.707, -0.14527526, -0.22943254, -419269.5, 29709.965, 0.0, 10.000572, 9.998999 
5.949246e+2, 2.641835e+2, -278840.53, -300689.97, -42211.004, -0.112228684, -0.19898896, -246163.44, 104818.06, 0.0, 10.000389, 10.000088 
5.9490573e+2, 2.7418378e+2, -399732.78, -300181.94, 5399.385, -0.072378516, -0.1998682, -299889.97, -46914.566, 0.0, 9.998846, 10.000163 
5.948871e+2, 2.8418317e+2, -464354.47, -429399.63, 50453.266, -0.053744297, -0.21330148, -393482.38, -238501.64, 0.0000003359344, 9.998368, 9.998837 
5.9486836e+2, 2.9418167e+2, -248658.23, -288408.8, 45932.45, -0.07479826, -0.24465646, -218485.38, -161486.97, 0.00000683328, 9.999234, 9.998716 
5.9484935e+2, 3.0418068e+2, -184231.36, -207195.44, 30504.555, -0.12296776, -0.21727142, -163119.45, -163119.45, 0.0000338567, 9.999239, 9.998939 
5.9483176e+2, 3.1418055e+2, -317918.78, -183109.6, 78559.55, -0.033865143, -0.14004998, -147000.98, -147000.98, 0.00008915562, 9.997917, 9.99974 
6.051985e+2, 1.2421014e+2, -1479998.0, -1644221.3, 226279.17, 0.027986174, -0.35379145, -1321392.8, 401325.63, 0.000000021349177, 10.001801, 9.999602 
6.0517275e+2, 1.3421188e+2, -1464502.3, -1585953.3, -147316.89, 0.09422445, -0.16064052, -1365885.9, 258816.23, 0.0, 10.001186, 9.999657 
6.051485e+2, 1.4421202e+2, -1495590.6, -1670120.5, 126637.36, -0.11285931, -0.0508309, -1429062.9, 97638.875, 0.0, 10.00085, 9.998545 
6.051313e+2, 1.5420952e+2, -1364540.9, -1564199.5, 114606.12, 0.042571228, -0.15944742, -1312381.9, 116345.98, 0.0, 10.001111, 9.998473 
6.051127e+2, 1.6420805e+2, -1141289.3, -1218286.3, 62355.91, 0.11113567, -0.2263686, -1106504.9, 224235.48, 0.0, 10.001162, 10.000152 
6.050923e+2, 1.7420796e+2, -1076598.1, -1119217.6, 28235.184, 0.07436036, -0.27258584, -1062533.8, 170200.94, 0.0, 10.00086, 10.000304 
6.050724e+2, 1.842073e+2, -1118737.9, -1230938.0, 62192.703, 0.022666046, -0.3050927, -1091081.5, 43657.348, 0.0, 10.000512, 9.999031 
6.050533e+2, 1.9420582e+2, -1087492.9, -1173816.9, 41262.87, -0.045893583, -0.35490304, -1070942.4, -34185.85, 0.0, 10.000093, 9.99895 
6.0503405e+2, 2.0420533e+2, -963905.44, -983248.25, 417.23718, -0.07739597, -0.3296937, -963896.44, -25133.148, 0.0, 9.999918, 9.999675 
6.050149e+2, 2.1420613e+2, -848274.4, -869246.7, 9908.879, -0.046192504, -0.2312953, -844333.25, -3577.9321, 0.0, 10.000003, 9.999744 
6.049959e+2, 2.24206e+2, -806202.06, -874593.8, 53461.88, -0.0331717, -0.18360658, -776935.06, -34177.977, 0.0, 9.999958, 9.999052 
6.049773e+2, 2.3420449e+2, -739807.3, -797734.7, 50466.04, -0.044951867, -0.24257672, -710584.06, -65810.95, 0.0, 9.999765, 9.999 
6.049589e+2, 2.4420331e+2, -729305.0, -761239.3, 107384.78, -0.102510974, -0.24617548, -636706.8, -89919.91, 0.0, 9.999251, 9.998821 
6.049408e+2, 2.542027e+2, -764246.9, -727058.75, 106627.99, -0.21951236, -0.19851713, -637415.75, -188618.84, 0.0, 9.998333, 9.998827 
6.0492265e+2, 2.642025e+2, -619681.06, -413937.94, -8061.5156, -0.21274091, -0.17400482, -413622.56, -62824.87, 0.0, 9.997818, 10.000557 
6.049044e+2, 2.7420276e+2, -510266.38, -293560.34, -29225.615, -0.0318931, -0.22839966, -289688.1, -36900.008, 0.0, 9.997821, 10.000709 
6.048861e+2, 2.842022e+2, -454934.38, -403858.1, 68338.32, 0.021838576, -0.27670968, -356442.0, -201651.11, 0.00000016006682, 9.998345, 9.999023 
6.048675e+2, 2.9420087e+2, -182832.33, -240521.53, 97217.45, -0.09854574, -0.3065537, -110270.6, -53464.094, 0.0000051844427, 9.999616, 9.998861 
6.04848e+2, 3.042004e+2, -126692.57, -123850.96, 26186.729, -0.17937224, -0.25742835, -99046.516, -99046.516, 0.000029848581, 9.99939, 9.999441 
6.0482895e+2, 3.1419998e+2, -422807.6, -183194.75, 88198.48, -0.053905696, -0.25903592, -154231.05, -154231.05, 0.00008365637, 9.996988, 10.000185 
6.151978e+2, 1.242343e+2, -1523426.3, -1723606.4, 167307.11, -0.23852506, -0.21141891, -1428555.5, 293925.6, 0.0000000039655865, 10.001762, 9.99907 
6.151738e+2, 1.342331e+2, -1504650.3, -1676262.5, -171938.89, 0.0750917, -0.24342951, -1398295.9, 226195.69, 0.0, 10.00122, 9.99902 
6.1514944e+2, 1.4423174e+2, -1486118.5, -1663564.9, 127066.41, -0.11326116, -0.2538204, -1419865.3, 106639.04, 0.0, 10.000899, 9.998569 
6.151315e+2, 1.5422991e+2, -1354189.6, -1550827.1, 125922.78, -0.065673046, -0.3026873, -1292748.9, 135773.53, 0.0, 10.001139, 9.998554 
6.1511207e+2, 1.642287e+2, -1192261.3, -1319511.6, 49792.56, -0.072984755, -0.3164635, -1175093.6, 155439.42, 0.0, 10.001146, 9.999463 
6.1509115e+2, 1.7422828e+2, -1128512.4, -1229609.8, 19853.438, -0.1347459, -0.31821758, -1124753.4, 107781.37, 0.0, 10.000871, 9.999542 
6.150717e+2, 1.84228e+2, -1161408.9, -1316040.4, 43040.082, -0.10052629, -0.24738298, -1150236.3, -15697.023, 0.0, 10.000498, 9.998452 
6.150545e+2, 1.9422783e+2, -1130600.9, -1261112.1, 29191.314, 0.063949615, -0.108879246, -1124369.3, -87821.03, 0.0, 10.000081, 9.998358 
6.1503536e+2, 2.0422737e+2, -944508.9, -937630.9, -228.4492, 0.05697183, -0.06311033, -937623.25, 932.14044, 0.0, 9.999896, 9.999996 
6.150136e+2, 2.1422641e+2, -825705.7, -814414.1, 16131.239, -0.17605123, -0.18036357, -802969.2, 37591.957, 0.0, 9.999969, 10.000136 
6.1499435e+2, 2.2422545e+2, -814736.56, -884743.0, 44308.746, -0.19136386, -0.23505281, -793273.06, -50704.76, 0.0, 9.999925, 9.998999 
6.149784e+2, 2.3422438e+2, -750516.7, -812337.8, 46948.96, 0.0866656, -0.24011058, -725216.3, -80638.445, 0.0, 9.999731, 9.998916 
6.1496025e+2, 2.4422346e+2, -738417.94, -773411.56, 70866.9, 0.10352557, -0.21281843, -682919.8, -136331.17, 0.0, 9.999221, 9.998753 
6.1493903e+2, 2.5422272e+2, -778715.75, -746155.4, 74467.37, -0.23249285, -0.1680099, -686209.4, -237608.39, 0.0, 9.998284, 9.998721 
6.1491936e+2, 2.6422206e+2, -645303.75, -457955.25, -12628.322, -0.32443595, -0.1777197, -457107.88, -106500.71, 0.0, 9.997779, 10.000272 
6.149018e+2, 2.7422118e+2, -538214.1, -340097.6, -25762.37, -0.08090818, -0.30997497, -336802.38, -84195.8, 0.0, 9.997773, 10.000411 
6.148842e+2, 2.842208e+2, -419142.9, -324336.2, 109287.88, -0.012794341, -0.34780484, -252613.89, -98007.17, 0.00000012615395, 9.99832, 9.999582 
6.1486626e+2, 2.9422137e+2, -145564.27, -156022.22, 149647.77, -0.18988316, -0.25508776, -1054.154, 55550.32, 0.000004328694, 9.999583, 9.999457 
6.1484677e+2, 3.042219e+2, -53881.676, 38121.67, -55157.59, -0.25218776, -0.1918924, 63942.793, 63942.793, 0.000026339554, 9.999345, 10.000574 
6.148258e+2, 3.1421944e+2, -341021.63, 6815.6895, -1386.2625, -0.08585876, -0.5166281, 6821.2144, 6821.2144, 0.00007734693, 9.996902, 10.001531 
6.2519825e+2, 1.2425605e+2, -1881246.8, -1893683.1, 72552.69, -0.23819938, -0.13200687, -1814646.4, -92376.695, 0.00000000008306351, 9.999293, 9.999095 
6.2517595e+2, 1.3425405e+2, -1345638.1, -1598155.5, -208771.45, 0.12204876, -0.24580975, -1227915.8, 396371.28, 0.0, 10.002313, 9.999027 
6.2515146e+2, 1.4425217e+2, -1163645.4, -1502181.1, 48640.367, -0.109210536, -0.3100175, -1156795.4, 369508.3, 0.0, 10.003098, 9.998612 
6.251324e+2, 1.5425065e+2, -1351516.0, -1543868.8, 34411.273, -0.083693, -0.33084172, -1345545.3, 82771.875, 0.0, 10.001144, 9.998595 
6.251124e+2, 1.642495e+2, -1356147.0, -1457674.3, 2831.7915, -0.09801996, -0.3181526, -1356068.1, -25739.94, 0.0, 10.00027, 9.9989395 
6.2509185e+2, 1.7424875e+2, -1184446.1, -1318354.0, -17727.422, -0.13465713, -0.2980894, -1182139.1, 50197.324, 0.0, 10.000754, 9.998987 
6.2507254e+2, 1.8424833e+2, -1073966.5, -1249557.9, 33232.84, -0.09066522, -0.22239366, -1067887.3, 66455.836, 0.0, 10.000986, 9.998675 
6.250549e+2, 1.9424823e+2, -1002408.44, -1167344.9, 75851.26, 0.0575974, -0.10487573, -972830.1, 63518.35, 0.0, 10.000817, 9.99865 
6.2503546e+2, 2.0424768e+2, -898598.5, -958860.2, 61593.168, 0.055373706, -0.0650955, -860161.25, 78194.93, 0.0, 10.0004015, 9.999606 
6.250137e+2, 2.1424639e+2, -902446.25, -897401.6, 7770.6445, -0.14182582, -0.1710358, -891754.2, -51386.523, 0.0, 9.999649, 9.999717 
6.2499446e+2, 2.2424541e+2, -848744.2, -878197.9, 39984.33, -0.15455502, -0.21446177, -820860.8, -78485.29, 0.0, 9.999587, 9.999208 
6.249785e+2, 2.3424476e+2, -630848.94, -726744.44, 64827.066, 0.08701844, -0.20339267, -598164.56, 46214.566, 0.0, 10.000424, 9.999174 
6.249602e+2, 2.4424383e+2, -574639.8, -707210.0, 60523.844, 0.12263302, -0.18486507, -551164.94, -4776.113, 0.0, 10.000391, 9.998647 
6.249389e+2, 2.5424254e+2, -650442.2, -697464.56, 50237.61, -0.12088367, -0.18397456, -618486.3, -170079.7, 0.0, 9.999219, 9.998605 
6.249188e+2, 2.642416e+2, -463185.84, -409213.03, 28282.918, -0.22487305, -0.19538605, -397107.38, -46691.9, 0.0, 9.999202, 9.999921 
6.249005e+2, 2.7424097e+2, -134145.83, -187015.34, 8349.115, -0.1317669, -0.27245897, -132858.67, 119555.5, 0.0, 10.000726, 10.000042 
6.248825e+2, 2.8424048e+2, -156439.89, -184176.9, 65260.723, -0.0962337, -0.30370942, -103590.36, 50824.883, 0.000000116905284, 10.000055, 9.999715 
6.2486476e+2, 2.942406e+2, -590987.06, -353558.3, 57595.125, -0.14349145, -0.2714757, -340324.6, -283908.25, 0.000004282829, 9.996445, 9.999617 
6.248456e+2, 3.0424127e+2, -495645.5, -166820.14, -122206.41, -0.1395489, -0.2077433, -126376.93, -126376.93, 0.000025214384, 9.996275, 10.000647 
6.248247e+2, 3.14239e+2, 240234.86, 333916.4, -159968.98, -0.062386733, -0.52473885, 453761.34, 453761.34, 0.00007395699, 10.000675, 10.001969 
6.3519955e+2, 1.2427563e+2, -1828703.6, -1803446.0, 144012.36, -0.055433318, -0.11178451, -1671509.8, 50571.676, 0.0, 9.999375, 9.999678 
6.3517916e+2, 1.3427472e+2, -1304800.1, -1509916.8, -95512.836, 0.19846562, -0.17601262, -1267212.5, 356875.7, 0.0, 10.002296, 9.999642 
6.3515437e+2, 1.4427324e+2, -1166783.0, -1500213.3, -16560.254, -0.13052808, -0.2320848, -1165962.6, 360137.63, 0.0, 10.003058, 9.998648 
6.35134e+2, 1.542717e+2, -1348460.1, -1543005.6, -34556.418, -0.04587045, -0.25586694, -1342504.3, 85608.49, 0.0, 10.001165, 9.998592 
6.351137e+2, 1.6427042e+2, -1378628.1, -1505854.5, 11421.265, -0.002945481, -0.242536, -1377611.0, -47485.195, 0.0, 10.000279, 9.998603 
6.350944e+2, 1.7426936e+2, -1209035.8, -1372629.8, 4137.102, 0.03551119, -0.21546084, -1208931.3, 23208.588, 0.0, 10.000766, 9.9986105 
6.350747e+2, 1.8426827e+2, -1004594.75, -1103229.4, 26339.795, 0.016035497, -0.2326549, -998001.56, 136148.92, 0.0, 10.0009775, 9.999683 
6.3505423e+2, 1.9426703e+2, -926636.25, -1005831.06, 71958.13, -0.09322883, -0.34199357, -884100.06, 152057.67, 0.0, 10.000798, 9.999767 
6.350343e+2, 2.0426625e+2, -980030.0, -1119923.1, 29881.2, -0.10319974, -0.33309454, -973914.7, -35748.996, 0.0, 10.000367, 9.998518 
6.350151e+2, 2.1426605e+2, -997692.25, -1085574.9, -17585.967, 0.022286713, -0.20377374, -994303.8, -154128.77, 0.0, 9.999607, 9.998446 
6.3499606e+2, 2.2426586e+2, -823421.7, -812436.5, 65044.582, 0.041177295, -0.12085706, -752653.0, -10473.949, 0.0, 9.999534, 9.999683 
6.349772e+2, 2.3426561e+2, -592214.75, -638893.1, 100828.625, -0.08171255, -0.13231154, -512059.34, 132117.61, 0.0, 10.000394, 9.99979 
6.349586e+2, 2.442645e+2, -586734.1, -727587.6, 18808.611, -0.08137374, -0.16150638, -584265.8, -38078.84, 0.0, 10.00037, 9.998519 
6.349402e+2, 2.5426215e+2, -667431.2, -725883.94, 8212.298, 0.08316258, -0.24395494, -666299.3, -218085.92, 0.0, 9.9991865, 9.998427 
6.349209e+2, 2.6426122e+2, -496494.53, -473208.0, 76397.6, 0.05801847, -0.2251307, -407571.53, -57348.633, 0.0, 9.999183, 9.999489 
6.3490045e+2, 2.74262e+2, -168338.84, -253842.25, 70635.72, -0.21961032, -0.11336089, -128524.74, 123686.21, 0.0, 10.0007105, 9.999589 
6.3488096e+2, 2.842612e+2, -178498.94, -228626.02, -63952.42, -0.26317933, -0.14181897, -134874.1, 19342.44, 0.0000001448745, 10.000048, 9.999417 
6.348627e+2, 2.9425848e+2, -625939.8, -403637.22, -80806.39, 0.009138517, -0.3611498, -377368.4, -321125.4, 0.0000050785306, 9.996348, 9.999322 
6.348446e+2, 3.0425844e+2, -582702.06, -326125.1, 24134.588, 0.13121715, -0.3008088, -323874.66, -323874.66, 0.000027373664, 9.996186, 9.999595 
6.348257e+2, 3.1425866e+2, 193773.83, 250604.61, 16256.658, -0.057007726, -0.26247633, 254926.25, 254926.25, 0.00007720963, 10.000628, 10.001416 
6.4520097e+2, 1.2429475e+2, -1551155.5, -1676632.0, 203588.17, 0.06051765, -0.19497688, -1400858.0, 321034.66, 0.0, 10.001301, 9.999622 
6.4518064e+2, 1.3429484e+2, -1570823.4, -1641033.4, -63340.168, 0.22169797, -0.15883575, -1533510.6, 90382.59, 0.0, 10.000484, 9.999613 
6.451558e+2, 1.4429398e+2, -1515133.5, -1613362.5, -33948.47, -0.15848564, -0.1732969, -1504542.6, 21357.68, 0.0, 10.000427, 9.999142 
6.4513594e+2, 1.542928e+2, -1252175.0, -1435848.5, -23923.813, 0.018381048, -0.21576416, -1249110.0, 178797.66, 0.0, 10.00156, 9.999139 
6.451157e+2, 1.6429159e+2, -1153096.9, -1419860.9, 64021.96, 0.082634896, -0.21228571, -1138527.6, 191391.84, 0.0, 10.0019245, 9.998401 
6.450955e+2, 1.7429036e+2, -1157189.6, -1376269.4, 59770.926, 0.05368114, -0.17712969, -1141943.5, 89993.32, 0.0, 10.001245, 9.998357 
6.450754e+2, 1.8428904e+2, -1028092.06, -1101386.5, 58228.625, 0.008749872, -0.20795046, -995938.2, 138011.33, 0.0, 10.00076, 9.999801 
6.450551e+2, 1.9428751e+2, -955788.25, -1001220.6, 26658.498, -0.07142006, -0.36256707, -943480.2, 92476.96, 0.0, 10.000523, 9.999928 
6.450353e+2, 2.0428659e+2, -944073.6, -1136889.0, -10163.496, -0.053878628, -0.36393493, -943539.4, -5573.675, 0.0, 10.000762, 9.99821 
6.4501643e+2, 2.1428645e+2, -732602.94, -999328.3, 3677.4932, 0.101756565, -0.1927814, -732552.25, 107423.57, 0.0, 10.001601, 9.998079 
6.44997e+2, 2.2428611e+2, -585408.75, -722738.25, 85447.66, 0.10319384, -0.09570705, -544455.3, 197527.4, 0.0, 10.001268, 9.999468 
6.449769e+2, 2.3428541e+2, -757171.8, -739593.6, 50831.2, -0.09804803, -0.13174413, -696797.25, -52811.496, 0.0, 9.999352, 9.999601 
6.449578e+2, 2.4428429e+2, -775275.2, -778300.2, -17729.258, -0.12559676, -0.168168, -758994.06, -212999.19, 0.0, 9.998904, 9.9988785 
6.449399e+2, 2.542825e+2, -465881.34, -583469.4, 13149.4, 0.07941853, -0.23688765, -464428.8, -16416.29, 0.0, 10.000375, 9.998836 
6.4492095e+2, 2.6428154e+2, -351875.9, -461046.97, 100464.17, 0.08602969, -0.21667081, -292125.84, 57895.85, 0.0, 10.00042, 9.998978 
6.4490056e+2, 2.742817e+2, -515660.97, -486238.06, 78979.93, -0.16871293, -0.11385173, -420611.13, -168591.17, 0.000000000000000000046744374, 9.998607, 9.999004 
6.448806e+2, 2.8428063e+2, -397729.06, -349086.3, -68941.125, -0.22445306, -0.1279555, -300302.22, -146272.78, 0.00000034821963, 9.998615, 9.999273 
6.448612e+2, 2.942781e+2, 38309.96, -96207.83, -80082.04, -0.0018248014, -0.32270226, 75630.664, 131684.0, 0.000006846114, 10.000965, 9.999208 
6.4484274e+2, 3.0427757e+2, -5036.75, -112559.38, 90022.1, 0.1241561, -0.27405933, 46055.438, 46055.438, 0.000033104992, 10.000428, 9.999019 
6.448241e+2, 3.1427795e+2, -467226.88, -95806.9, 110199.12, -0.055482395, -0.1595233, -65572.34, -65572.34, 0.000088752815, 9.996206, 10.001164 
6.552024e+2, 1.243134e+2, -1592102.8, -1765143.1, 135708.02, 0.05445226, -0.38846818, -1517680.8, 204023.16, 0.0, 10.001322, 9.999003 
6.551806e+2, 1.3431448e+2, -1612078.4, -1733011.5, -91817.55, 0.16192159, -0.18812874, -1562605.5, 61095.8, 0.0, 10.000516, 9.998965 
6.5515566e+2, 1.443144e+2, -1445096.3, -1474499.6, -1145.578, -0.22454993, -0.13618922, -1445051.6, 80652.3, 0.0, 10.000453, 10.000084 
6.5513813e+2, 1.543139e+2, -1177690.4, -1282793.9, 22653.361, 0.074476264, -0.21317244, -1173015.8, 254686.58, 0.0, 10.001565, 10.00019 
6.5511805e+2, 1.6431306e+2, -1160065.8, -1434169.6, 39282.79, 0.1223085, -0.2235959, -1154547.1, 175162.03, 0.0, 10.001923, 9.998302 
6.550952e+2, 1.7431177e+2, -1167586.8, -1404209.3, 36620.063, -0.11108404, -0.17889965, -1162049.0, 69678.52, 0.0, 10.001267, 9.998155 
6.550747e+2, 1.8431063e+2, -1076839.8, -1201347.1, 43164.71, -0.14192489, -0.14899771, -1063339.1, 70401.42, 0.0, 10.000757, 9.999116 
6.5505725e+2, 1.9430967e+2, -1010356.25, -1107270.5, 20661.346, 0.08504021, -0.17218791, -1006135.25, 29611.475, 0.0, 10.000495, 9.999213 
6.5503836e+2, 2.0430867e+2, -917831.3, -1075970.1, 15909.207, 0.16541752, -0.161993, -916246.7, 21509.441, 0.0, 10.000731, 9.998644 
6.550176e+2, 2.1430756e+2, -699671.0, -923790.7, 39109.72, 0.057514425, -0.14100876, -693042.25, 146728.31, 0.0, 10.00157, 9.998613 
6.549973e+2, 2.243061e+2, -657568.4, -858918.8, 16331.656, 0.0021498406, -0.14217249, -656252.3, 85534.52, 0.0, 10.001213, 9.998558 
6.5497744e+2, 2.3430414e+2, -837776.75, -892047.25, -19167.125, 0.012492975, -0.2019133, -831690.0, -187884.28, 0.0, 9.999292, 9.998581 
6.549576e+2, 2.4430321e+2, -721184.8, -655707.25, 26145.352, -0.039128594, -0.20442133, -646548.44, -100735.89, 0.0, 9.998859, 9.999742 
6.549378e+2, 2.5430351e+2, -398031.84, -437068.06, 72792.2, -0.17095532, -0.16440113, -342186.44, 105617.74, 0.0, 10.000353, 9.99985 
6.5491885e+2, 2.643026e+2, -392349.88, -543880.5, 36350.76, -0.17371236, -0.17140818, -384080.9, -34269.074, 0.0, 10.000412, 9.998415 
6.549008e+2, 2.743e+2, -574247.75, -591605.25, 12685.514, -0.011171777, -0.2700053, -567556.3, -315715.63, 0.0000000002377775, 9.998535, 9.998318 
6.5488136e+2, 2.8429884e+2, -403893.66, -347625.06, 9788.578, -0.015847864, -0.261934, -345970.88, -192117.17, 0.0000008000927, 9.998558, 9.999308 
6.5486e+2, 2.9429948e+2, 45916.426, -80036.445, 15783.083, -0.22916888, -0.14751017, 47864.08, 103710.42, 0.0000102621225, 10.000969, 9.999313 
6.5484e+2, 3.0429873e+2, -3673.9626, -119039.32, -59332.44, -0.2130109, -0.12220568, 21393.766, 21393.766, 0.000043104363, 10.000466, 9.998959 
6.548196e+2, 3.1429675e+2, -485416.1, -94348.37, -36618.52, -0.13105749, -0.23395006, -90949.055, -90949.055, 0.000108066146, 9.996044, 10.001253 
6.6520303e+2, 1.24335326e+2, -1531932.9, -1756721.6, 173614.75, -0.031096011, -0.37050247, -1437507.1, 283981.0, 0.0, 10.001813, 9.998828 
6.651821e+2, 1.3433604e+2, -1529336.6, -1710285.5, -5220.1787, 0.23692149, -0.19079487, -1529186.1, 94303.31, 0.0, 10.001149, 9.998821 
6.6515696e+2, 1.4433572e+2, -1400523.1, -1461389.3, 129312.29, -0.14668767, -0.14957733, -1298111.0, 227383.94, 0.0, 10.000803, 10.000001 
6.6513866e+2, 1.5433544e+2, -1250727.9, -1325531.4, 69888.99, 0.0010287964, -0.20010783, -1208862.0, 218630.61, 0.0, 10.001103, 10.000114 
6.6511863e+2, 1.643346e+2, -1245246.3, -1473391.5, 20908.34, 0.026112664, -0.20731276, -1243345.9, 86153.695, 0.0, 10.001332, 9.998315 
6.6509706e+2, 1.7433302e+2, -1141764.8, -1383522.8, 23818.24, -0.060796693, -0.19367118, -1139440.5, 92078.65, 0.0, 10.001421, 9.998214 
6.650768e+2, 1.843319e+2, -1000694.25, -1206498.5, 63045.93, -0.043380573, -0.14877875, -982916.44, 150615.9, 0.0, 10.00146, 9.998743 
6.650584e+2, 1.9433129e+2, -910218.56, -1106012.1, 57266.63, 0.10341144, -0.096023425, -894699.1, 140838.77, 0.0, 10.001379, 9.9988 
6.65039e+2, 2.0433024e+2, -880340.7, -1065618.5, 61417.34, 0.14597005, -0.06758714, -861830.8, 75717.98, 0.0, 10.00102, 9.998576 
6.6501856e+2, 2.1432848e+2, -886741.7, -1017457.75, 36908.824, 0.059232682, -0.10689228, -877040.2, -37472.4, 0.0, 10.000302, 9.998578 
6.649983e+2, 2.2432661e+2, -800230.5, -939700.6, 5243.3657, 0.028032374, -0.14180173, -800033.6, -58446.523, 0.0, 10.000291, 9.9984455 
6.6497815e+2, 2.3432457e+2, -576628.8, -782185.4, 29947.188, 0.068444215, -0.19737402, -572354.7, 71252.34, 0.0, 10.001151, 9.998443 
6.64958e+2, 2.443236e+2, -413127.0, -514756.56, 105578.04, 0.014441351, -0.19162327, -346771.53, 198842.53, 0.0, 10.00101, 9.999672 
6.6493785e+2, 2.54324e+2, -511442.25, -498557.56, 64269.367, -0.16331945, -0.13927689, -440408.44, 7196.3257, 0.0, 9.999605, 9.999787 
6.6491854e+2, 2.6432282e+2, -609225.7, -647412.44, -22003.617, -0.16775864, -0.16506524, -599186.4, -249572.22, 0.0, 9.998915, 9.9984255 
6.6490024e+2, 2.743197e+2, -483331.06, -544091.6, 216.79713, 0.05387247, -0.3193673, -483330.28, -231682.36, 0.0000000023427176, 9.999141, 9.998352 
6.6488063e+2, 2.8431866e+2, -332767.47, -300562.78, 98863.67, 0.03479009, -0.302377, -216498.7, -62839.734, 0.0000014418595, 9.998986, 9.999429 
6.6485906e+2, 2.9432026e+2, -329293.84, -241866.77, 104497.71, -0.28555778, -0.10628809, -172307.88, -116666.1, 0.000014782389, 9.998307, 9.999484 
6.6483885e+2, 3.0431914e+2, -289134.72, -272508.3, -49221.414, -0.27345663, -0.12511465, -230903.0, -230903.0, 0.000056755354, 9.998581, 9.998811 
6.64818e+2, 3.1431672e+2, 81024.984, 138597.48, -42590.895, -0.08569468, -0.26050994, 161217.78, 161217.78, 0.00013493579, 10.000107, 10.000898 
6.752029e+2, 1.2436026e+2, -1514683.9, -1720914.6, 109994.2, -0.25115645, -0.16393669, -1467029.6, 254217.97, 0.0, 10.00182, 9.999065 
6.751851e+2, 1.3435936e+2, -1502505.8, -1661217.0, -32352.271, 0.40395305, -0.17832367, -1496164.3, 127094.75, 0.0, 10.001182, 9.99914 
6.7515963e+2, 1.4435798e+2, -1469615.8, -1614240.0, 131692.61, 0.02562707, -0.21038646, -1391688.1, 133585.52, 0.0, 10.000841, 9.998935 
6.7513746e+2, 1.5435743e+2, -1327028.4, -1492464.5, 84103.26, -0.24602395, -0.16937776, -1291781.9, 135496.4, 0.0, 10.001138, 9.998953 
6.751175e+2, 1.6435623e+2, -1229392.8, -1442502.6, 20225.117, -0.23677745, -0.16225345, -1227490.3, 101799.98, 0.0, 10.001342, 9.998524 
6.751008e+2, 1.7435417e+2, -1119337.6, -1339727.8, 31288.053, 0.16880126, -0.22464195, -1114981.8, 116329.59, 0.0, 10.0014305, 9.998513 
6.750814e+2, 1.8435287e+2, -1008408.5, -1219200.5, 56411.91, 0.26044586, -0.20905219, -994261.1, 139063.95, 0.0, 10.001446, 9.998662 
6.750582e+2, 1.9435243e+2, -923535.75, -1125752.4, 56437.137, -0.05576941, -0.12802298, -908850.94, 126479.11, 0.0, 10.001346, 9.99868 
6.7503715e+2, 2.043513e+2, -924779.2, -1150367.4, 31902.016, -0.1411923, -0.07416374, -920354.44, 16988.768, 0.0, 10.000985, 9.998013 
6.750191e+2, 2.1434923e+2, -932777.06, -1104539.9, 12513.452, 0.07570197, -0.08766316, -931870.25, -92502.93, 0.0, 10.000265, 9.997999 
6.7499983e+2, 2.2434767e+2, -756913.75, -841308.6, 31254.617, 0.1485832, -0.09271038, -746599.5, -5216.377, 0.0, 10.000252, 9.999141 
6.7497903e+2, 2.3434673e+2, -526693.4, -670057.1, 67155.4, 0.03407284, -0.11706229, -500150.3, 143238.77, 0.0, 10.001116, 9.999229 
6.7495894e+2, 2.4434552e+2, -491756.56, -672103.9, 55255.094, 0.0011352095, -0.12808168, -476173.8, 69224.875, 0.0, 10.000984, 9.998603 
6.749399e+2, 2.5434384e+2, -604194.0, -679257.5, 12967.001, 0.07644553, -0.15954803, -602017.1, -154603.03, 0.0, 9.999553, 9.998571 
6.7491996e+2, 2.6434225e+2, -572632.3, -559852.4, -19965.246, 0.07924955, -0.19354762, -545279.44, -195851.03, 0.0, 9.998866, 9.999049 
6.7489874e+2, 2.7434078e+2, -433844.03, -435722.8, 14239.961, -0.018755998, -0.25850287, -420512.5, -169071.17, 0.0000000015372758, 9.999117, 9.999107 
6.748782e+2, 2.843402e+2, -317396.1, -265818.2, 72003.86, -0.115126446, -0.25026366, -215124.3, -61679.344, 0.0000017821444, 9.998974, 9.999671 
6.748583e+2, 2.9434055e+2, -329236.13, -219739.88, 81518.305, -0.20088963, -0.19764352, -176291.3, -120852.62, 0.000018938657, 9.998213, 9.999681 
6.748394e+2, 3.0433878e+2, -318922.84, -317231.3, 4634.5854, -0.083759665, -0.28323615, -313365.94, -313365.94, 0.00007225524, 9.998509, 9.998534 
6.7481923e+2, 3.1433773e+2, 25053.72, 23772.25, 39541.246, 0.003337763, -0.2439628, 63959.42, 63959.42, 0.00016863653, 10.000108, 10.000103 
6.8520486e+2, 1.24382846e+2, -1758210.5, -1854191.0, 48158.13, -0.14826275, -0.09988974, -1738213.5, -17185.078, 0.0, 10.000208, 9.998935 
6.851862e+2, 1.3438134e+2, -1400090.1, -1616449.3, -109157.01, 0.37634152, -0.16751082, -1354588.0, 268455.9, 0.0, 10.001914, 9.999089 
6.851606e+2, 1.443795e+2, -1288506.8, -1587962.4, 34049.41, -0.03130384, -0.21824612, -1284684.0, 240378.9, 0.0, 10.002344, 9.998391 
6.851389e+2, 1.5437867e+2, -1340071.4, -1564647.6, 20525.72, -0.22227465, -0.14988291, -1338210.8, 88862.39, 0.0, 10.001327, 9.998371 
6.8511885e+2, 1.643775e+2, -1274977.5, -1400623.6, 11023.234, -0.20066103, -0.13400683, -1274017.8, 55066.945, 0.0, 10.00075, 9.999103 
6.851016e+2, 1.7437598e+2, -1180470.4, -1297985.4, 41711.633, 0.1429904, -0.2082087, -1167170.3, 63927.223, 0.0, 10.000698, 9.999159 
6.8508196e+2, 1.8437465e+2, -1131071.3, -1317431.6, 79368.58, 0.21840899, -0.21123081, -1101850.8, 31259.158, 0.0, 10.0007715, 9.998313 
6.850592e+2, 1.9437349e+2, -1005559.5, -1208513.8, 53173.824, -0.06199566, -0.16349363, -992472.0, 42651.08, 0.0, 10.000973, 9.998288 
6.8503827e+2, 2.0437193e+2, -925038.1, -1155816.6, 24372.59, -0.12582022, -0.12906812, -922492.25, 14648.117, 0.0, 10.001012, 9.99796 
6.850198e+2, 2.1436983e+2, -851256.75, -1068808.4, 38678.98, 0.09380061, -0.14174147, -844584.56, -5421.106, 0.0, 10.000839, 9.997969 
6.850003e+2, 2.243685e+2, -708956.25, -830559.3, 82210.016, 0.1593442, -0.117298536, -667506.56, 73670.51, 0.0, 10.000631, 9.999033 
6.849796e+2, 2.3436809e+2, -643117.25, -738264.7, 43488.01, 0.024729164, -0.07699456, -626235.8, 16943.463, 0.0, 10.000365, 9.999123 
6.849596e+2, 2.4436678e+2, -641719.9, -791091.5, -12164.959, 0.010924987, -0.07417753, -640735.6, -95544.17, 0.0, 10.000153, 9.998187 
6.8494046e+2, 2.5436422e+2, -564735.8, -708447.94, -2796.7817, 0.15292467, -0.15228023, -564681.44, -117464.17, 0.0, 10.0000305, 9.99814 
6.8491995e+2, 2.643625e+2, -391508.78, -469260.2, 19077.686, 0.1402415, -0.1748616, -387080.0, -37846.6, 0.0, 10.000095, 9.999079 
6.8489796e+2, 2.7436197e+2, -243478.86, -336480.9, -6552.4126, -0.06867983, -0.1548117, -243019.47, 8217.674, 0.00000000039754933, 10.000391, 9.999176 
6.8487734e+2, 2.8436127e+2, -192618.73, -227525.84, -35751.93, -0.14009778, -0.15313093, -170287.53, -17045.836, 0.0000019350068, 9.999926, 9.9994755 
6.848583e+2, 2.9436016e+2, -296921.5, -225427.22, -67220.805, -0.024038805, -0.22198527, -185039.64, -129790.32, 0.000022513892, 9.998528, 9.99949 
6.848392e+2, 3.043584e+2, -356709.88, -303854.94, -54449.02, 0.07591511, -0.31240037, -269758.8, -269758.8, 0.000087464054, 9.998098, 9.998829 
6.8481755e+2, 3.1435913e+2, -187009.27, -93040.09, 35979.777, -0.09820189, -0.12813362, -80846.17, -80846.17, 0.00020410729, 9.9987, 9.999981 
6.952085e+2, 1.2440328e+2, -1783362.9, -1914133.1, 70563.53, 0.1793984, -0.17213927, -1752548.0, -31719.201, 0.0, 10.000247, 9.9985 
6.951857e+2, 1.344022e+2, -1430814.3, -1677642.6, -42821.754, 0.12799746, -0.15533726, -1423596.3, 199245.4, 0.0, 10.001907, 9.998669 
6.9516003e+2, 1.4440039e+2, -1293174.9, -1595970.3, -1873.4594, -0.33260697, -0.17965621, -1293163.3, 231698.39, 0.0, 10.0023365, 9.998341 
6.951427e+2, 1.5439914e+2, -1337762.9, -1567163.9, -11999.657, 0.02186705, -0.14878254, -1337137.0, 89739.69, 0.0, 10.001354, 9.998342 
6.951224e+2, 1.6439845e+2, -1209584.1, -1270113.4, 4791.8003, 0.08076005, -0.12540238, -1209207.1, 119675.234, 0.0, 10.000771, 9.999988 
6.9509923e+2, 1.7439844e+2, -1112755.4, -1160268.0, 42844.844, -0.1681292, -0.14388359, -1087521.5, 143355.61, 0.0, 10.000707, 10.0001 
6.9507873e+2, 1.8439724e+2, -1172960.0, -1400759.5, 83233.04, -0.19018047, -0.15860274, -1145789.3, -12902.35, 0.0, 10.000758, 9.9977455 
6.950614e+2, 1.9439447e+2, -1054987.0, -1307645.4, 63798.7, 0.05159241, -0.20533854, -1039791.1, -4874.5566, 0.0, 10.000959, 9.997614 
6.9504213e+2, 2.0439214e+2, -896770.9, -1092356.4, 14489.988, 0.1510469, -0.23294894, -895703.2, 41236.805, 0.0, 10.000992, 9.998405 
6.950205e+2, 2.1439031e+2, -821254.06, -998384.8, 35028.01, 0.07513282, -0.26868656, -814578.75, 24377.4, 0.0, 10.000804, 9.99847 
6.949997e+2, 2.2438912e+2, -780826.1, -970848.0, 69151.766, 0.028061843, -0.21392101, -758325.2, -17356.393, 0.0, 10.000592, 9.998088 
6.949799e+2, 2.3438862e+2, -723755.44, -893055.1, 36217.43, 0.012585508, -0.07768607, -716333.06, -73355.22, 0.0, 10.000312, 9.998084 
6.9495976e+2, 2.4438736e+2, -626438.06, -749222.3, -20598.686, 0.01160743, -0.028406441, -623074.5, -78082.24, 0.0, 10.000109, 9.998496 
6.949392e+2, 2.5438508e+2, -541114.4, -651728.56, -4006.0708, 0.025250811, -0.118513696, -540969.5, -93955.62, 0.0, 9.999998, 9.998546 
6.949186e+2, 2.6438364e+2, -436962.03, -560432.2, 27544.66, -0.017047208, -0.108951285, -431095.88, -82067.23, 0.0, 10.000082, 9.99846 
6.9489783e+2, 2.7438325e+2, -296092.34, -440524.75, 8500.398, -0.12857953, -0.004090122, -295593.78, -44558.543, 0.0000000054780975, 10.000368, 9.998473 
6.94878e+2, 2.843818e+2, -242622.08, -326372.34, -88727.32, -0.06864013, -0.0055469526, -186384.7, -33335.03, 0.000002355568, 9.999904, 9.998808 
6.948592e+2, 2.94379e+2, -348383.22, -323011.56, -116597.055, 0.20025766, -0.17796972, -218412.25, -163337.27, 0.000026314181, 9.998487, 9.998839 
6.9483817e+2, 3.0437785e+2, -299019.44, -169401.8, -39943.42, 0.16516784, -0.21500134, -158081.39, -158081.39, 0.00010198075, 9.998044, 9.999775 
6.9481254e+2, 3.14381e+2, -162410.77, -13331.298, 72537.99, -0.47706747, 0.10709858, 16138.257, 16138.257, 0.00023747227, 9.998589, 10.000577 
7.0520854e+2, 1.2442354e+2, -1770687.6, -1848598.1, 8444.289, 0.17391574, -0.15169682, -1769782.9, -49147.99, 0.0, 10.000077, 9.999034 
7.0518625e+2, 1.3442302e+2, -1638827.9, -1709577.6, -19674.346, 0.08103176, -0.13935721, -1633724.8, -11084.733, 0.0, 10.000184, 9.999281 
7.0516115e+2, 1.4442159e+2, -1570697.5, -1668729.9, 44085.85, -0.33876267, -0.18374498, -1553788.4, -29134.045, 0.0, 10.000173, 9.998881 
7.0514435e+2, 1.5442048e+2, -1448227.0, -1557074.9, 66514.12, 0.1032188, -0.19169638, -1416708.5, 9956.962, 0.0, 10.000338, 9.998893 
7.0512396e+2, 1.6441993e+2, -1263868.3, -1352506.8, 84099.02, 0.16266917, -0.15965948, -1213125.3, 115544.9, 0.0, 10.000651, 9.999474 
7.050999e+2, 1.7442e+2, -1103121.0, -1217843.4, 4843.5054, -0.19196212, -0.11256489, -1102916.9, 127750.266, 0.0, 10.001052, 9.999533 
7.050791e+2, 1.8441865e+2, -1101233.8, -1354317.4, 10868.668, -0.2479713, -0.116602875, -1100767.9, 31911.178, 0.0, 10.001198, 9.997853 
7.0506245e+2, 1.9441548e+2, -1035495.75, -1283562.1, 43312.723, 0.056529302, -0.21797979, -1028150.75, 6559.664, 0.0, 10.001022, 9.997754 
7.050432e+2, 2.0441303e+2, -887772.7, -1096547.8, 17407.508, 0.16100109, -0.26248953, -886331.25, 50402.668, 0.0, 10.001087, 9.998334 
7.05021e+2, 2.1441142e+2, -737639.2, -966432.44, -13074.939, 0.019139886, -0.26688233, -736894.44, 101853.29, 0.0, 10.001415, 9.998396 
7.05e+2, 2.2440998e+2, -718642.44, -975053.06, 1286.386, -0.024677763, -0.2182873, -718635.94, 22126.613, 0.0, 10.001171, 9.997778 
7.0498055e+2, 2.3440865e+2, -758986.4, -947122.0, 14567.755, 0.055736694, -0.13517088, -757865.06, -115085.27, 0.0, 10.000232, 9.997752 
7.049603e+2, 2.4440715e+2, -649894.7, -736452.25, 15148.539, 0.06666453, -0.10070941, -647320.06, -102524.086, 0.0, 9.999844, 9.998712 
7.049389e+2, 2.5440544e+2, -503365.72, -606498.6, 15295.837, -0.0108364485, -0.1588441, -501145.0, -54333.63, 0.0, 10.000138, 9.998789 
7.049181e+2, 2.6440424e+2, -482186.5, -609564.1, 44777.7, -0.06301838, -0.12635322, -468020.94, -119196.67, 0.0, 9.999894, 9.99821 
7.0489794e+2, 2.7440363e+2, -518443.16, -577862.0, 49262.0, -0.07844514, -0.014845913, -490625.25, -239790.4, 0.000000016182126, 9.998977, 9.998197 
7.0487803e+2, 2.844021e+2, -385919.9, -437225.66, -3272.1467, -0.0077616395, 0.0047611655, -385712.06, -232859.61, 0.0000029996863, 9.999094, 9.99844 
7.0485836e+2, 2.9439938e+2, -85084.57, -238781.1, -14126.801, 0.17062539, -0.1200163, -83796.914, -28917.836, 0.000030264622, 10.000472, 9.998466 
7.048368e+2, 3.0439863e+2, 59054.453, 5460.157, 31123.05, 0.100474015, -0.10228346, 73327.14, 73327.14, 0.00011479558, 10.000492, 9.999797 
7.048114e+2, 3.144007e+2, -147088.4, -18119.855, 61922.543, -0.45742643, 0.11156446, 6797.3394, 6797.3394, 0.0002649436, 9.998736, 10.00048 
7.15205e+2, 1.2444366e+2, -1663357.1, -1633707.0, -14002.575, -0.20564339, -0.048073754, -1628139.5, 92306.36, 0.0, 10.000112, 10.00049 
7.151876e+2, 1.344438e+2, -1523224.1, -1477588.1, -14620.296, 0.18946128, -0.12843698, -1473306.1, 149132.95, 0.0, 10.000218, 10.000855 
7.1516377e+2, 1.4444312e+2, -1486131.5, -1505538.3, 43985.48, -0.10313206, -0.23148756, -1450791.8, 73648.79, 0.0, 10.000222, 9.999979 
7.151437e+2, 1.5444273e+2, -1368707.5, -1400452.9, 75537.88, -0.0056835175, -0.27388987, -1307392.6, 119047.07, 0.0, 10.00037, 9.999955 
7.151233e+2, 1.6444197e+2, -1393097.5, -1622639.3, 94903.16, 0.026382996, -0.23238905, -1358942.4, -30494.559, 0.0, 10.00066, 9.997616 
7.151032e+2, 1.7444068e+2, -1243152.8, -1514449.3, 24189.62, 0.028386129, -0.11585508, -1241012.8, -10545.542, 0.0, 10.001077, 9.997486 
7.150828e+2, 1.8443894e+2, -1046754.8, -1242927.6, 2997.783, -0.0027047037, -0.08774737, -1046709.0, 85776.875, 0.0, 10.001203, 9.998617 
7.150621e+2, 1.9443655e+2, -973599.44, -1149266.9, 41074.824, -0.08390075, -0.20396046, -964469.75, 70034.64, 0.0, 10.000995, 9.998689 
7.150415e+2, 2.0443463e+2, -936229.4, -1185740.0, 25006.674, -0.122034974, -0.21681887, -933747.8, 2773.7751, 0.0, 10.001042, 9.997741 
7.150212e+2, 2.1443321e+2, -794400.0, -1070627.8, 1110.5283, -0.10623347, -0.13582705, -794395.56, 44142.305, 0.0, 10.00136, 9.9977045 
7.1500117e+2, 2.2443113e+2, -702157.0, -928947.2, -35547.06, -0.029121257, -0.13014409, -696715.94, 43842.44, 0.0, 10.001118, 9.998123 
7.1498144e+2, 2.3442818e+2, -734613.2, -889174.94, -17087.674, 0.11978706, -0.24849562, -732746.6, -90161.92, 0.0, 10.000197, 9.998167 
7.1496093e+2, 2.4442616e+2, -647807.8, -723510.8, 19918.834, 0.1427569, -0.29258084, -642886.7, -98284.41, 0.0, 9.999807, 9.998818 
7.149393e+2, 2.544253e+2, -503852.78, -597553.25, 28818.77, 0.011345043, -0.27437508, -495698.78, -49089.164, 0.0, 10.000097, 9.99887 
7.149183e+2, 2.644243e+2, -476772.06, -591187.56, 9116.865, -0.029608143, -0.23271078, -476050.2, -127429.71, 0.0, 9.999863, 9.998352 
7.1489817e+2, 2.7442306e+2, -517601.13, -559693.8, 18436.535, 0.04150678, -0.19808331, -510667.94, -260031.36, 0.000000020828322, 9.998906, 9.998356 
7.148773e+2, 2.8442207e+2, -395501.34, -446460.88, 43418.957, 0.0050080917, -0.13098773, -370638.03, -217987.83, 0.0000037479972, 9.999048, 9.998401 
7.1485555e+2, 2.9442143e+2, -90389.43, -248036.34, 46629.844, -0.1675137, -0.041261498, -77629.7, -22969.654, 0.000034324887, 10.00047, 9.998403 
7.148347e+2, 3.0442074e+2, -2429.049, -128083.16, -29992.92, -0.1639854, 0.02925361, 4362.9604, 4362.9604, 0.00012562028, 10.000515, 9.998868 
7.148139e+2, 3.144183e+2, -219907.1, -145898.05, 7264.772, -0.096817195, -0.11706677, -145191.67, -145191.67, 0.00028501154, 9.998641, 9.999643 
7.252047e+2, 1.2446477e+2, -1802400.8, -1709271.5, 170237.13, -0.19592187, -0.09332067, -1579345.5, 140890.69, 0.0, 9.999168, 10.00044 
7.251881e+2, 1.3446535e+2, -1529481.9, -1478371.6, 66365.88, 0.2195036, -0.13139166, -1432810.8, 189415.6, 0.0, 10.000162, 10.000879 
7.2516453e+2, 1.4446498e+2, -1417324.5, -1502309.6, 17636.49, -0.07271777, -0.19276613, -1413809.9, 110416.13, 0.0, 10.000824, 9.999714 
7.2514373e+2, 1.5446456e+2, -1270103.0, -1383592.4, -54562.508, -0.07182448, -0.21134841, -1248126.5, 178100.4, 0.0, 10.001176, 9.999684 
7.251236e+2, 1.644633e+2, -1329953.1, -1636788.5, -34135.246, -0.03477783, -0.1858448, -1326201.5, 2038.8463, 0.0, 10.00128, 9.997221 
7.251049e+2, 1.74461e+2, -1269025.3, -1570216.9, 7142.571, 0.09779216, -0.13095464, -1268856.0, -38586.65, 0.0, 10.001086, 9.997098 
7.250846e+2, 1.8445903e+2, -1083733.9, -1244922.0, 21871.602, 0.075995095, -0.114405304, -1080818.9, 51471.043, 0.0, 10.00088, 9.998758 
7.250622e+2, 1.9445731e+2, -1014764.4, -1148368.6, -2181.9883, -0.1473934, -0.18050812, -1014728.75, 19572.424, 0.0, 10.000626, 9.998871 
7.2504133e+2, 2.044557e+2, -1021482.2, -1238786.1, -8053.4277, -0.2125232, -0.16716231, -1021184.1, -84868.625, 0.0, 10.000506, 9.997636 
7.250224e+2, 2.144541e+2, -923561.8, -1147965.1, 5472.393, -0.07463608, -0.090462096, -923428.44, -85093.7, 0.0, 10.000533, 9.997575 
7.250025e+2, 2.2445178e+2, -754887.94, -933913.0, -24550.742, 0.01924211, -0.111520216, -751582.2, -11225.17, 0.0, 10.000663, 9.998308 
7.2498137e+2, 2.3444852e+2, -620489.9, -811534.75, -30993.06, 0.0589885, -0.28181317, -615587.7, 26795.768, 0.0, 10.000885, 9.998368 
7.249604e+2, 2.4444632e+2, -543650.94, -718156.8, -7809.0493, 0.066023685, -0.33721983, -543302.2, 1100.1312, 0.0, 10.000713, 9.99842 
7.249395e+2, 2.5444537e+2, -539644.25, -663319.75, -42604.242, 0.029671531, -0.2815591, -526388.5, -79975.99, 0.0, 10.000056, 9.998441 
7.2491896e+2, 2.6444426e+2, -461684.53, -556789.4, -77401.88, 0.046441875, -0.24102634, -418394.88, -69970.15, 0.0, 9.99985, 9.998593 
7.2489864e+2, 2.7444282e+2, -308852.53, -428913.34, -67081.75, 0.13450912, -0.2573533, -278862.88, -28422.162, 0.000000011844985, 10.000209, 9.998627 
7.2487724e+2, 2.8444192e+2, -265211.94, -366448.13, -6298.038, 0.05376407, -0.20182495, -264821.66, -112369.234, 0.0000046664522, 9.999881, 9.998539 
7.248543e+2, 2.944418e+2, -333066.03, -351394.22, 4731.5356, -0.24373996, -0.07376245, -331916.66, -277458.66, 0.00003902921, 9.998751, 9.998516 
7.248335e+2, 3.044413e+2, -302351.44, -303688.44, -57438.08, -0.23974742, 0.026238978, -245577.97, -245577.97, 0.00013569239, 9.9985895, 9.998591 
7.2481424e+2, 3.1443775e+2, -83636.02, -75655.586, 21675.938, 0.035033163, -0.1988677, -57605.656, -57605.656, 0.0002996597, 9.999542, 9.999697 
7.3520714e+2, 1.2448681e+2, -1888157.0, -1902409.8, 174613.14, 0.11751614, -0.27591026, -1720524.9, -517.3121, 0.0, 9.99924, 9.999078 
7.351876e+2, 1.3448769e+2, -1622713.8, -1679442.8, 102028.14, 0.14873093, -0.14310387, -1545180.8, 76821.11, 0.0, 10.0001955, 9.999484 
7.351635e+2, 1.4448716e+2, -1527420.3, -1729099.5, 27771.227, -0.26801145, -0.07423931, -1523666.1, 344.30673, 0.0, 10.000821, 9.998154 
7.351444e+2, 1.5448596e+2, -1377547.9, -1613640.9, -36022.766, -0.13554208, -0.013128493, -1372173.9, 53852.21, 0.0, 10.001206, 9.998089 
7.351247e+2, 1.6448396e+2, -1251658.6, -1482505.5, -43453.516, -0.059430026, -0.027296387, -1243750.1, 84296.6, 0.0, 10.001311, 9.998265 
7.3510504e+2, 1.74481e+2, -1183136.9, -1395957.6, 3384.7979, -0.0046959193, -0.15881564, -1183083.1, 46989.91, 0.0, 10.0011, 9.998289 
7.350845e+2, 1.8447891e+2, -1117955.4, -1311991.1, 10003.029, -0.031455133, -0.19369014, -1117441.1, 14650.051, 0.0, 10.000866, 9.998304 
7.3506266e+2, 1.9447778e+2, -1056769.6, -1230264.9, -7789.114, -0.16798244, -0.14504585, -1056420.6, -22320.238, 0.0, 10.000607, 9.998318 
7.350425e+2, 2.0447625e+2, -995075.0, -1179919.6, -10257.608, -0.14634624, -0.11304547, -994507.5, -58392.188, 0.0, 10.000485, 9.998051 
7.3502445e+2, 2.1447417e+2, -891492.2, -1078153.9, 10091.411, 0.07392382, -0.13339701, -890948.25, -52810.355, 0.0, 10.000516, 9.998062 
7.350039e+2, 2.2447202e+2, -761080.1, -937317.44, -20241.123, 0.08688951, -0.16405424, -758785.25, -18627.205, 0.0, 10.000624, 9.998303 
7.349801e+2, 2.3446965e+2, -629831.3, -820392.2, -19497.08, -0.15858872, -0.24008018, -627856.94, 14319.3545, 0.0, 10.00084, 9.998329 
7.3495847e+2, 2.4446757e+2, -611564.8, -850197.4, -34034.28, -0.19847007, -0.23906529, -606805.7, -62609.168, 0.0, 10.000677, 9.99753 
7.3493946e+2, 2.544658e+2, -612153.4, -801890.4, -64191.926, 0.010967426, -0.177813, -592476.56, -146256.72, 0.0, 10.000007, 9.997512 
7.349197e+2, 2.6446426e+2, -444072.66, -511664.06, -68201.945, 0.13472489, -0.14307736, -401752.28, -53515.813, 0.0, 9.999815, 9.998921 
7.3489916e+2, 2.7446294e+2, -285297.97, -374925.97, -48768.734, 0.16050619, -0.18228595, -263879.9, -13633.258, 0.000000051096855, 10.000187, 9.999009 
7.3487765e+2, 2.8446165e+2, -244459.72, -319611.0, -50633.938, 0.097679466, -0.20519447, -218982.02, -66722.75, 0.0000058850314, 9.999866, 9.998866 
7.3485476e+2, 2.944604e+2, -325434.84, -312847.72, -34580.184, -0.08170501, -0.2242587, -283993.06, -229719.1, 0.000043358832, 9.998654, 9.998825 
7.3483294e+2, 3.0446035e+2, -286948.25, -251453.14, -22929.719, -0.15352793, -0.11297191, -240205.05, -240205.05, 0.00014281429, 9.998508, 9.998986 
7.34812e+2, 3.1445947e+2, -29242.752, 56965.164, 72321.805, -0.15916164, -0.114421345, 98053.81, 98053.81, 0.00030710292, 9.999471, 10.000637 
7.452073e+2, 1.2450729e+2, -1691102.6, -1839738.3, -52273.918, 0.1408105, -0.275823, -1674559.6, 45245.21, 0.0, 10.000735, 9.998783 
7.451879e+2, 1.3450757e+2, -1553115.9, -1674174.4, -43680.41, 0.13139962, -0.1751294, -1539000.9, 82804.09, 0.0, 10.000809, 9.999218 
7.4516463e+2, 1.4450678e+2, -1560649.0, -1783881.1, -40855.496, -0.22965895, -0.10274926, -1553406.6, -29589.688, 0.0, 10.000759, 9.997808 
7.451466e+2, 1.5450545e+2, -1471184.3, -1696532.1, -21899.05, -0.010698202, -0.022113578, -1469075.9, -43239.9, 0.0, 10.000731, 9.9977455 
7.4512684e+2, 1.6450347e+2, -1257320.4, -1433701.8, 7566.7925, 0.036146473, -0.038633354, -1256996.3, 70859.95, 0.0, 10.001052, 9.998727 
7.451057e+2, 1.7450064e+2, -1052215.5, -1275596.5, -1672.4448, -0.07803519, -0.20528725, -1052203.0, 177675.64, 0.0, 10.001752, 9.998801 
7.4508476e+2, 1.8449877e+2, -985501.25, -1264827.0, -29570.066, -0.12766343, -0.23897378, -982405.2, 149488.8, 0.0, 10.0018425, 9.998158 
7.450641e+2, 1.9449794e+2, -983697.8, -1215153.5, -26403.568, -0.11327842, -0.14436917, -980724.0, 53178.2, 0.0, 10.001191, 9.99814 
7.45044e+2, 2.0449631e+2, -945494.25, -1154675.0, -5948.365, -0.060673464, -0.113332324, -945325.25, -9406.258, 0.0, 10.000819, 9.998065 
7.4502486e+2, 2.1449368e+2, -855772.25, -1056991.3, -23024.135, 0.049037967, -0.18986996, -853171.4, -15224.719, 0.0, 10.00075, 9.998095 
7.4500394e+2, 2.2449176e+2, -720803.44, -889570.25, -50472.902, 0.027278343, -0.21167251, -706860.5, 33104.402, 0.0, 10.000778, 9.998558 
7.449809e+2, 2.3449054e+2, -603836.6, -779345.8, -33918.516, -0.16222146, -0.19966577, -597509.7, 44463.285, 0.0, 10.00089, 9.998591 
7.449594e+2, 2.4448909e+2, -572827.2, -805957.94, -10917.831, -0.1800468, -0.16115928, -572317.0, -28329.492, 0.0, 10.000832, 9.99776 
7.4493974e+2, 2.5448728e+2, -509482.7, -727569.06, 36522.402, 0.01698534, -0.121113315, -503528.9, -57518.41, 0.0, 10.000605, 9.997735 
7.449193e+2, 2.644856e+2, -405073.94, -503613.28, 77792.92, 0.103102796, -0.11065899, -362260.8, -14232.479, 0.0, 10.000126, 9.998828 
7.448979e+2, 2.7448395e+2, -412894.28, -447545.06, 53482.168, 0.061438847, -0.17127883, -374001.25, -123960.31, 0.00000017449423, 9.99936, 9.998908 
7.448767e+2, 2.844824e+2, -315785.1, -352318.47, 27694.334, 0.04981646, -0.21508406, -300875.78, -148820.2, 0.0000070142673, 9.999363, 9.998889 
7.448557e+2, 2.944809e+2, -86593.0, -194982.81, 11854.005, 0.073497, -0.2612481, -85311.734, -31239.152, 0.000045203302, 10.000276, 9.9988575 
7.4483335e+2, 3.044808e+2, -89541.13, -130767.32, -94.0939, -0.020774614, -0.16683672, -89540.914, -89540.914, 0.00014394909, 9.999743, 9.9992285 
7.448092e+2, 3.1448126e+2, -280678.94, 4671.9893, 68900.27, -0.2815618, -0.060418583, 20437.479, 20437.479, 0.00030552503, 9.997439, 10.001261 
7.552051e+2, 1.24526344e+2, -1645972.6, -1743748.6, -74266.04, -0.17899288, -0.115258016, -1605947.9, 113678.09, 0.0, 10.000729, 9.999442 
7.551887e+2, 1.3452515e+2, -1500298.1, -1571144.6, -39810.18, 0.13424829, -0.2342189, -1482432.9, 139201.19, 0.0, 10.000834, 9.999912 
7.551677e+2, 1.4452398e+2, -1498559.8, -1662353.0, -47309.395, 0.0004302034, -0.27498695, -1485877.1, 37767.746, 0.0, 10.00079, 9.998629 
7.5515e+2, 1.545232e+2, -1406456.4, -1570109.9, -18905.166, 0.25932303, -0.22225006, -1404300.9, 21354.12, 0.0, 10.000764, 9.998599 
7.551297e+2, 1.6452189e+2, -1261496.1, -1447609.9, 29162.36, 0.21190694, -0.2113964, -1257033.6, 70634.84, 0.0, 10.001074, 9.998621 
7.5510675e+2, 1.7451997e+2, -1065100.3, -1301992.9, 27393.047, -0.15446062, -0.27082253, -1061973.9, 167712.03, 0.0, 10.001748, 9.998624 
7.550855e+2, 1.845186e+2, -975830.6, -1238310.6, -54750.805, -0.24528223, -0.2540162, -964868.0, 166830.56, 0.0, 10.001818, 9.998352 
7.5506634e+2, 1.9451776e+2, -973464.3, -1187149.8, -47801.438, -0.017705671, -0.17977428, -963258.56, 70448.09, 0.0, 10.001163, 9.998346 
7.5504565e+2, 2.0451589e+2, -976942.4, -1212262.4, -13031.398, 0.015409459, -0.16669163, -976222.9, -40496.566, 0.0, 10.000787, 9.9976845 
7.5502336e+2, 2.1451268e+2, -892019.44, -1120188.9, -23001.035, -0.1789356, -0.2601024, -889723.9, -51963.16, 0.0, 10.000698, 9.997684 
7.550026e+2, 2.2451106e+2, -693912.7, -819417.4, -49335.973, -0.18849222, -0.25359955, -676840.9, 62936.26, 0.0, 10.000717, 9.99907 
7.5498366e+2, 2.3451124e+2, -570437.2, -699876.25, -25735.598, 0.018013706, -0.15712121, -565508.0, 76264.73, 0.0, 10.000849, 9.999156 
7.5496304e+2, 2.4451093e+2, -483362.34, -613879.2, -22021.643, 0.09179197, -0.09624078, -479746.84, 64027.438, 0.0, 10.000803, 9.999093 
7.5494033e+2, 2.5450993e+2, -416644.1, -531177.2, 31707.684, 0.007886858, -0.115484655, -408452.0, 37332.34, 0.0, 10.000586, 9.999094 
7.5491756e+2, 2.645083e+2, -445251.13, -579312.25, 48675.164, -0.0921854, -0.14731762, -429442.28, -81642.31, 0.0, 10.000097, 9.99832 
7.548947e+2, 2.7450585e+2, -465472.53, -541828.56, 31659.402, -0.20791934, -0.22775798, -454053.38, -204230.34, 0.0000002213921, 9.999297, 9.99829 
7.5487435e+2, 2.845042e+2, -345271.56, -404705.9, 59346.375, -0.13085079, -0.22922984, -308617.78, -156777.11, 0.000006955663, 9.999325, 9.998548 
7.5485706e+2, 2.9450348e+2, -112500.16, -244597.86, 52203.406, 0.17485455, -0.16797943, -94360.85, -40508.53, 0.000043838252, 10.000256, 9.9985285 
7.548345e+2, 3.045028e+2, -85043.28, -112875.82, -83135.766, 0.11404663, -0.122355394, -14667.097, -14667.097, 0.0001394824, 9.999713, 9.999362 
7.548055e+2, 3.145029e+2, -275701.34, 46739.594, -10233.65, -0.40756297, -0.06562726, 47064.063, 47064.063, 0.0002957357, 9.997307, 10.001613 
7.652055e+2, 1.24544755e+2, -1671231.5, -1733215.9, -33237.113, -0.18764485, -0.06863689, -1656779.0, 62670.383, 0.0, 10.0004425, 9.999654 
7.6519024e+2, 1.3454351e+2, -1478601.6, -1535253.0, -34062.19, 0.20492195, -0.21652883, -1462626.4, 158830.03, 0.0, 10.00087, 10.00014 
7.651696e+2, 1.4454241e+2, -1402037.6, -1559020.5, -62685.004, 0.092379525, -0.28648978, -1380078.5, 143385.94, 0.0, 10.0012, 9.999144 
7.6515067e+2, 1.5454169e+2, -1249201.9, -1436426.6, -62737.605, 0.21044788, -0.27938053, -1230123.1, 195348.5, 0.0, 10.001585, 9.999126 
7.6513004e+2, 1.6454092e+2, -1212959.8, -1415124.8, -24446.035, 0.13150558, -0.24663967, -1210045.6, 117434.54, 0.0, 10.001369, 9.998702 
7.65108e+2, 1.7454007e+2, -1246337.4, -1380871.1, -17067.445, -0.14117439, -0.20696338, -1244206.0, -14715.254, 0.0, 10.000471, 9.998695 
7.6508695e+2, 1.8453914e+2, -1165732.0, -1288844.1, -71669.38, -0.20576617, -0.16830325, -1132812.4, -1311.9304, 0.0, 10.000336, 9.99872 
7.6506734e+2, 1.9453797e+2, -959005.8, -1136857.1, -56197.445, -0.027216218, -0.16461666, -942736.75, 90773.91, 0.0, 10.001074, 9.998734 
7.6504636e+2, 2.0453617e+2, -892172.7, -1145678.3, 2131.3186, -0.009253486, -0.17651008, -892154.75, 43373.69, 0.0, 10.001257, 9.997915 
7.6502407e+2, 2.145335e+2, -866264.94, -1085169.4, 32176.38, -0.18085815, -0.23864178, -861633.4, -24077.049, 0.0, 10.000772, 9.997892 
7.6500314e+2, 2.2453208e+2, -752112.56, -835464.1, 23760.496, -0.17455928, -0.22570896, -745815.1, -6244.727, 0.0, 10.000271, 9.999171 
7.6498413e+2, 2.3453215e+2, -730145.8, -766761.3, 3641.3596, 0.04468269, -0.14933933, -729787.25, -88218.914, 0.0, 9.999714, 9.99924 
7.6496327e+2, 2.4453174e+2, -690542.56, -694833.25, -48445.1, 0.11820554, -0.11087433, -644195.3, -100624.414, 0.0, 9.9993, 9.999259 
7.6494014e+2, 2.545307e+2, -628307.25, -611143.75, -91231.63, 0.012278575, -0.15121843, -528091.1, -82511.31, 0.0, 9.999047, 9.999281 
7.649172e+2, 2.6452926e+2, -548070.4, -606126.94, -81322.44, -0.09640548, -0.18241759, -490750.63, -143157.7, 0.0, 9.999291, 9.998526 
7.648944e+2, 2.7452728e+2, -336556.9, -455738.66, -44975.477, -0.19618742, -0.23941755, -321489.47, -71877.34, 0.00000016204108, 10.000076, 9.998507 
7.648736e+2, 2.8452626e+2, -279711.66, -367268.88, 26627.086, -0.15090857, -0.19586071, -272249.97, -120625.555, 0.0000062859385, 9.999747, 9.998603 
7.6485515e+2, 2.9452622e+2, -421957.0, -385066.3, 42014.043, 0.06743511, -0.0695032, -357626.9, -303997.47, 0.000041485197, 9.998099, 9.9986 
7.648325e+2, 3.0452457e+2, -348494.94, -248592.97, -83177.875, 0.040408023, -0.1182707, -201519.94, -201519.94, 0.00013263787, 9.997943, 9.999279 
7.648053e+2, 3.1452352e+2, 18604.932, 167123.31, -43667.613, -0.25850627, -0.16977637, 179011.02, 179011.02, 0.0002807991, 9.999429, 10.001411 
7.752083e+2, 1.24562755e+2, -1678323.1, -1758785.1, -37612.23, 0.025936386, -0.11791306, -1663479.5, 55793.805, 0.00000000003061157, 10.000489, 9.999457 
7.751922e+2, 1.3456264e+2, -1488222.6, -1564622.9, -16873.871, 0.30246228, -0.13058971, -1484661.9, 136610.05, 0.0, 10.000905, 9.999925 
7.7517015e+2, 1.4456199e+2, -1386513.3, -1525857.9, -51741.758, 0.019080317, -0.15485309, -1369401.6, 153874.69, 0.0, 10.001199, 9.999371 
7.751486e+2, 1.5456095e+2, -1233369.0, -1403099.6, -43668.164, -0.16810843, -0.20245826, -1222793.0, 202492.58, 0.0, 10.001583, 9.999356 
7.75128e+2, 1.6456059e+2, -1194403.5, -1376449.5, -58542.074, -0.2206021, -0.1536185, -1177202.9, 150088.16, 0.0, 10.001367, 9.998969 
7.751092e+2, 1.7456096e+2, -1226035.5, -1341248.6, -46617.742, -0.073493086, -0.019885782, -1209535.9, 19756.734, 0.0, 10.000479, 9.998966 
7.750889e+2, 1.8456036e+2, -1128274.8, -1207752.5, -48575.383, -0.049676575, 0.012515205, -1105254.3, 26045.422, 0.0, 10.000322, 9.999284 
7.75067e+2, 1.9455856e+2, -924367.06, -1056276.0, -25162.78, -0.17511119, -0.10499966, -919730.0, 113584.15, 0.0, 10.001035, 9.999308 
7.7504617e+2, 2.0455717e+2, -842921.4, -1030712.8, -17877.482, -0.1632789, -0.14550197, -841234.56, 94090.61, 0.0, 10.0012045, 9.998729 
7.7502674e+2, 2.1455613e+2, -815963.4, -968782.5, 16461.883, 0.009455003, -0.12586717, -814210.2, 23122.889, 0.0, 10.000724, 9.998713 
7.750056e+2, 2.2455484e+2, -784146.56, -890184.6, -1589.2854, 0.03207432, -0.12646501, -784122.75, -44778.445, 0.0, 10.000219, 9.998821 
7.749822e+2, 2.3455316e+2, -765349.2, -829029.7, -14338.533, -0.11872392, -0.1846859, -762269.6, -120909.19, 0.0, 9.999665, 9.9988365 
7.749601e+2, 2.4455142e+2, -768912.9, -844372.6, -62405.78, -0.1358508, -0.21097218, -733717.94, -190340.06, 0.0, 9.999246, 9.99826 
7.749391e+2, 2.5454953e+2, -706579.0, -763841.9, -97521.08, 0.0033094203, -0.23129825, -633573.25, -188175.58, 0.0, 9.999003, 9.998256 
7.7491814e+2, 2.6454845e+2, -489390.38, -474553.03, -55827.773, 0.07243818, -0.2189486, -425653.16, -78245.01, 0.0, 9.999249, 9.99945 
7.7489716e+2, 2.7454823e+2, -270716.97, -311293.8, -11426.525, 0.063879386, -0.20043534, -267720.53, -18311.857, 0.00000014054619, 10.00004, 9.999519 
7.748744e+2, 2.845484e+2, -247352.6, -290898.75, -36512.133, -0.053536627, -0.112721995, -226614.47, -75207.2, 0.000005985507, 9.99971, 9.999143 
7.748496e+2, 2.9454893e+2, -395857.1, -316852.9, -16320.756, -0.30235785, 0.017724434, -313614.13, -260208.86, 0.000039454848, 9.998038, 9.999098 
7.7482724e+2, 3.0454603e+2, -382194.53, -304456.84, -29560.443, -0.28258687, -0.16819541, -294493.25, -294493.25, 0.00012495591, 9.997885, 9.998923 
7.7480847e+2, 3.1454307e+2, -41693.68, 49226.004, 24264.98, 0.09439147, -0.3682255, 55296.6, 55296.6, 0.00026321306, 9.999395, 10.000618 
7.8521e+2, 1.2458142e+2, -1570738.8, -1712896.6, 3399.2773, 0.11551876, -0.14508194, -1570657.5, 148433.7, 0.0000000009851104, 10.001252, 9.999407 
7.8519267e+2, 1.3458169e+2, -1468157.6, -1562090.0, 27059.832, 0.25711596, -0.11321511, -1460920.0, 160166.72, 0.0, 10.001084, 9.999851 
7.851705e+2, 1.4458142e+2, -1435177.3, -1523358.6, 348.9585, -0.041007824, -0.10601395, -1435175.9, 87911.94, 0.0, 10.000754, 9.9996 
7.851492e+2, 1.5458065e+2, -1404076.5, -1456867.4, 2616.554, -0.19159897, -0.15119317, -1403947.1, 21147.482, 0.0, 10.000297, 9.999602 
7.8512883e+2, 1.6458039e+2, -1364140.6, -1433741.3, -20158.422, -0.20606281, -0.11599332, -1358723.8, -31625.006, 0.0, 10.000096, 9.9991865 
7.8511006e+2, 1.7458062e+2, -1255660.8, -1328884.9, -18481.133, -0.016606322, -0.017009297, -1251260.6, -22160.416, 0.0, 10.000165, 9.999198 
7.850895e+2, 1.8458019e+2, -1131943.8, -1178282.3, -18.305107, -0.011559328, 0.004752761, -1131943.8, -837.9822, 0.0, 10.000162, 9.999562 
7.850669e+2, 1.9457884e+2, -1050383.9, -1083751.5, -3175.329, -0.23073325, -0.09517011, -1050084.4, -16967.426, 0.0, 10.0000305, 9.9996 
7.850463e+2, 2.045778e+2, -931152.2, -1017070.8, -15417.067, -0.22337613, -0.13821962, -928469.56, 6654.272, 0.0, 10.000357, 9.999229 
7.8502816e+2, 2.1457705e+2, -719363.25, -865160.44, -10908.326, 0.056810856, -0.1423084, -718551.6, 118575.0, 0.0, 10.001142, 9.999222 
7.850069e+2, 2.2457585e+2, -668183.06, -884157.75, -65828.05, 0.095488876, -0.13943923, -649700.6, 89436.6, 0.0, 10.001229, 9.998375 
7.8498197e+2, 2.3457406e+2, -677633.7, -840923.25, -93484.58, -0.15056482, -0.15915918, -635160.6, 5997.171, 0.0, 10.000504, 9.998349 
7.849591e+2, 2.4457213e+2, -594783.4, -754288.0, -70224.72, -0.2071375, -0.18292518, -568272.1, -25093.848, 0.0, 10.000421, 9.998306 
7.849387e+2, 2.545699e+2, -399615.22, -609307.3, -29056.12, -0.03778127, -0.24482955, -395663.53, 49536.082, 0.0, 10.001085, 9.998309 
7.849179e+2, 2.6456887e+2, -293871.25, -348887.5, 7098.8184, 0.067680076, -0.2428748, -292970.03, 54238.656, 0.0, 10.000452, 9.999734 
7.848967e+2, 2.745692e+2, -502029.78, -386738.1, -9997.452, 0.10160789, -0.19584966, -385877.6, -136673.9, 0.0000001311964, 9.9983015, 9.999835 
7.8487355e+2, 2.8456968e+2, -505616.84, -374347.3, -45750.016, -0.010482399, -0.117732234, -359975.94, -208776.84, 0.000005888669, 9.997762, 9.999509 
7.8484815e+2, 2.9457e+2, -222444.89, -191324.81, -43429.395, -0.29347432, -0.040744208, -160752.14, -107555.35, 0.000037310834, 9.99905, 9.999472 
7.8482586e+2, 3.0456737e+2, -174765.84, -200792.77, -21525.863, -0.27180362, -0.22243859, -162625.52, -162625.52, 0.00011684081, 9.999281, 9.99897 
7.848082e+2, 3.1456527e+2, -245139.86, -100614.89, 50701.42, 0.19676661, -0.3366324, -84602.234, -84602.234, 0.00024566453, 9.998204, 10.0001745 
7.952103e+2, 1.2460083e+2, -1565317.5, -1703637.6, -19098.771, 0.0061049024, -0.15440956, -1562728.9, 156173.63, 0.0000000034592607, 10.001267, 9.999463 
7.951918e+2, 1.3460073e+2, -1460555.3, -1552320.4, 23359.037, 0.05257018, -0.16079532, -1454951.4, 165948.63, 0.0, 10.001115, 9.999903 
7.951706e+2, 1.4460076e+2, -1415133.3, -1488209.8, -20409.057, -0.11105299, -0.13611525, -1409819.6, 113078.35, 0.0, 10.000781, 9.99983 
7.9515237e+2, 1.5460083e+2, -1380802.6, -1419472.3, -10086.927, 0.08441317, -0.12484786, -1378329.6, 46568.652, 0.0, 10.000339, 9.999842 
7.951323e+2, 1.6460031e+2, -1350197.3, -1406951.4, -21078.889, 0.1184575, -0.13495123, -1343225.0, -16321.816, 0.0, 10.000108, 9.999364 
7.951104e+2, 1.7459913e+2, -1241337.6, -1303062.1, -12595.756, -0.00045462901, -0.1956033, -1238866.3, -9952.816, 0.0, 10.000182, 9.999367 
7.950887e+2, 1.8459865e+2, -1132211.3, -1177427.1, -7036.856, -0.114750236, -0.18676853, -1131141.4, -223.20096, 0.0, 10.0001545, 9.999572 
7.9506695e+2, 1.9459887e+2, -1052103.9, -1085247.1, -4632.887, -0.23624647, -0.13168502, -1051468.4, -18550.166, 0.0, 10.00002, 9.999595 
7.950466e+2, 2.0459814e+2, -921351.4, -988409.1, 8809.288, -0.23025802, -0.15173388, -920213.44, 14710.311, 0.0, 10.000323, 9.999442 
7.9502803e+2, 2.1459624e+2, -712098.06, -837723.6, 21967.266, -0.070700236, -0.2940465, -708367.56, 128569.29, 0.0, 10.001089, 9.999435 
7.95007e+2, 2.2459513e+2, -714193.94, -966667.6, -94668.016, -0.014911455, -0.26742208, -682640.5, 56308.34, 0.0, 10.001172, 9.997837 
7.949832e+2, 2.3459494e+2, -724205.7, -927960.06, -117958.93, -0.082073174, -0.07058039, -670219.9, -29260.053, 0.0, 10.000459, 9.997775 
7.949604e+2, 2.4459393e+2, -521950.97, -598120.2, -50453.45, -0.12961897, -0.02390825, -496821.75, 46149.77, 0.0, 10.000397, 9.999392 
7.9493874e+2, 2.545918e+2, -323261.94, -445036.75, -566.3932, -0.15347868, -0.19106121, -323259.3, 121726.18, 0.0, 10.001057, 9.999454 
7.949162e+2, 2.645905e+2, -322215.25, -399168.53, -74252.2, -0.1559333, -0.25834256, -277062.7, 69931.85, 0.0, 10.000415, 9.999407 
7.9489267e+2, 2.7459022e+2, -538621.44, -449931.4, -87622.78, -0.1311093, -0.23563318, -396071.38, -147073.48, 0.000000103459534, 9.998246, 9.999428 
7.948709e+2, 2.8458995e+2, -501463.94, -354160.84, -2774.4573, -0.052636765, -0.21670936, -354108.63, -203108.13, 0.000005445095, 9.997712, 9.999671 
7.9485095e+2, 2.9458943e+2, -214879.05, -164883.78, 12143.703, 0.07554528, -0.24381043, -162090.2, -109086.15, 0.000034263594, 9.999003, 9.999676 
7.948284e+2, 3.0458862e+2, -143215.58, -126761.0, -60406.113, 0.048626125, -0.27987197, -74024.47, -74024.47, 0.000108508386, 9.999248, 9.999492 
7.9480404e+2, 3.145905e+2, -260075.2, -109109.33, 12055.26, -0.058192544, -0.045379758, -108152.73, -108152.73, 0.00023086925, 9.998114, 10.000155 
8.0521137e+2, 1.2462159e+2, -1593623.4, -1678851.0, 30554.293, 0.007901819, -0.088790484, -1583801.5, 134900.48, 0.0000000057252847, 10.00091, 9.99981 
8.051922e+2, 1.346211e+2, -1450459.1, -1513728.8, 86866.98, -0.014505269, -0.1647221, -1389646.0, 231054.8, 0.0, 10.001036, 10.000213 
8.0517125e+2, 1.4462106e+2, -1408499.4, -1518925.5, 31386.25, -0.12836607, -0.14866427, -1400202.0, 122497.43, 0.0, 10.000974, 9.999525 
8.051539e+2, 1.546213e+2, -1329389.3, -1431581.4, -9117.7, 0.18471251, -0.085509904, -1328582.1, 96118.28, 0.0, 10.000856, 9.999507 
8.051335e+2, 1.6462055e+2, -1209835.5, -1294784.5, -13151.454, 0.20357314, -0.12209691, -1207846.1, 118860.85, 0.0, 10.000882, 9.999762 
8.051101e+2, 1.746186e+2, -1093077.8, -1184263.5, 8517.814, -0.08807116, -0.29908705, -1092289.0, 136430.88, 0.0, 10.000999, 9.999788 
8.0508834e+2, 1.8461815e+2, -1038722.6, -1169681.0, 5434.955, -0.2025201, -0.2944694, -1038497.44, 92226.6, 0.0, 10.00096, 9.999236 
8.0506843e+2, 1.9461927e+2, -976125.5, -1091118.3, -24933.195, -0.12137477, -0.111601196, -970952.1, 61767.305, 0.0, 10.000726, 9.999217 
8.050481e+2, 2.0461904e+2, -925048.3, -962710.75, -15216.767, -0.1023142, -0.07582105, -919668.75, 15053.801, 0.0, 10.000181, 9.999687 
8.050274e+2, 2.146171e+2, -963345.94, -927225.6, -6517.43, -0.14545451, -0.24632517, -926085.6, -89349.87, 0.0, 9.99923, 9.999716 
8.05006e+2, 2.246161e+2, -972991.06, -1038310.06, -70159.125, -0.1263186, -0.2489774, -928262.25, -189516.06, 0.0, 9.999167, 9.99831 
8.04984e+2, 2.3461606e+2, -736831.56, -879938.7, -17750.643, -0.036018044, -0.0833042, -734662.7, -93908.586, 0.0, 10.000137, 9.99826 
8.049616e+2, 2.4461557e+2, -526154.7, -566761.44, 60262.203, -0.035450898, -0.023888834, -482867.5, 59892.707, 0.0, 10.000221, 9.999694 
8.0493903e+2, 2.5461438e+2, -558184.2, -524819.94, 36754.832, -0.13602474, -0.12385992, -501138.6, -56373.125, 0.0, 9.999299, 9.999755 
8.049154e+2, 2.6461333e+2, -547623.25, -538196.25, -88862.99, -0.19969316, -0.17167978, -453921.84, -107148.766, 0.0, 9.9990015, 9.999133 
8.0489063e+2, 2.7461237e+2, -389995.13, -414033.6, -104574.305, -0.21238418, -0.1870569, -296751.63, -47967.63, 0.00000004701224, 9.999415, 9.999114 
8.048689e+2, 2.846115e+2, -255209.4, -228431.58, 33111.938, -0.101082, -0.21331316, -206104.06, -55312.18, 0.0000040934947, 9.99937, 9.999738 
8.048505e+2, 2.9461053e+2, -231465.31, -163458.06, 33349.965, 0.14232223, -0.293014, -149833.27, -97035.38, 0.000029452855, 9.998848, 9.999761 
8.048277e+2, 3.046105e+2, -185904.66, -101096.26, -70957.32, 0.0819907, -0.275202, -60838.145, -60838.145, 0.000100260084, 9.998758, 9.999903 
8.048009e+2, 3.1461304e+2, -116881.7, -17040.984, -20936.635, -0.21456727, -0.019480381, -12828.313, -12828.313, 0.00022208261, 9.998996, 10.000363 
8.1521285e+2, 1.246437e+2, -1540655.5, -1588480.3, 21839.785, 0.04654777, 0.04332169, -1532183.1, 186306.39, 0.000000004999778, 10.000995, 10.000389 
8.151934e+2, 1.3464274e+2, -1404345.0, -1426642.6, 91853.0, 0.002663891, -0.1387803, -1322966.6, 297522.8, 0.0, 10.001074, 10.00079 
8.1517226e+2, 1.4464234e+2, -1467911.4, -1643901.5, 22614.227, -0.13380904, -0.14836575, -1465052.0, 57439.688, 0.0, 10.000981, 9.998666 
8.1515396e+2, 1.5464213e+2, -1387761.1, -1560355.6, -7246.052, 0.089083925, -0.036478586, -1387457.5, 37042.88, 0.0, 10.000887, 9.99861 
8.151328e+2, 1.6464111e+2, -1165578.3, -1206331.3, -11224.564, 0.034643944, -0.081837006, -1162691.3, 163818.16, 0.0, 10.000897, 10.0003605 
8.1510895e+2, 1.7463909e+2, -1046383.94, -1088654.4, 15535.034, -0.31109908, -0.3336264, -1041288.7, 187230.58, 0.0, 10.001003, 10.000443 
8.150883e+2, 1.8463871e+2, -1091485.5, -1271214.0, -4988.935, -0.31123266, -0.32200173, -1091347.1, 39175.547, 0.0, 10.000928, 9.998553 
8.1507117e+2, 1.9464006e+2, -1031836.3, -1201052.6, -28786.783, 0.07555091, -0.04071145, -1027073.25, 5446.841, 0.0, 10.000701, 9.998475 
8.150506e+2, 2.0464048e+2, -912780.6, -928229.6, -52907.508, 0.1251599, 0.085537985, -867036.7, 67483.016, 0.0, 10.000144, 9.999941 
8.1502604e+2, 2.1463971e+2, -949705.2, -888886.7, -39656.13, -0.20351864, 0.002577603, -869322.6, -32800.02, 0.0, 9.999187, 10.0 
8.150038e+2, 2.2463876e+2, -872233.06, -818960.2, -40532.965, -0.27575347, -0.08087763, -797094.9, -58566.027, 0.0, 9.999122, 9.999838 
8.1498396e+2, 2.3463748e+2, -635109.75, -655995.0, 22313.861, -0.05342995, -0.19955927, -620915.94, 19624.26, 0.0, 10.000083, 9.999823 
8.1496257e+2, 2.4463712e+2, -566161.8, -642201.94, 24022.531, 0.038734064, -0.18343371, -559208.5, -16664.67, 0.0, 10.000183, 9.999198 
8.1493956e+2, 2.5463775e+2, -604544.1, -611809.7, 5236.6123, -0.016674, -0.044500865, -601803.56, -157264.42, 0.0, 9.999254, 9.999183 
8.1491554e+2, 2.6463738e+2, -570272.56, -574288.5, -76064.01, -0.09074327, 0.017382301, -496190.03, -149646.03, 0.0, 9.998957, 9.998905 
8.1489044e+2, 2.7463573e+2, -413894.47, -450769.06, -82193.02, -0.17849652, -0.04126804, -348096.22, -99535.27, 0.000000004527389, 9.999363, 9.998886 
8.148674e+2, 2.8463447e+2, -259581.48, -236015.9, 11044.061, -0.2015478, -0.09693533, -231649.22, -81077.08, 0.0000024308686, 9.999357, 9.999694 
8.148465e+2, 2.9463342e+2, -239876.31, -175977.47, 17306.229, -0.15148777, -0.17867565, -171591.34, -119013.74, 0.000024457544, 9.998821, 9.999691 
8.148235e+2, 3.0463302e+2, -170488.81, -54871.203, -60752.598, -0.2216219, -0.2091981, -28818.6, -28818.6, 0.00009519151, 9.998706, 10.000241 
8.147989e+2, 3.146329e+2, -103420.48, 30772.27, -2916.039, -0.3342036, -0.25826705, 30835.607, 30835.607, 0.00022313076, 9.998916, 10.00073 
8.2521534e+2, 1.2466498e+2, -1405284.0, -1608966.6, 82770.164, 0.13597795, 0.008137472, -1375890.6, 342388.44, 0.0000000017683296, 10.002286, 9.999623 
8.251953e+2, 1.3466397e+2, -1354669.3, -1496213.1, 41439.383, 0.050748423, -0.097032286, -1343429.6, 276855.3, 0.0, 10.001813, 9.999955 
8.2517356e+2, 1.4466351e+2, -1391618.9, -1576930.0, -29353.236, -0.11380719, -0.081885174, -1387080.4, 135208.75, 0.0, 10.001374, 9.998934 
8.251542e+2, 1.5466315e+2, -1341711.6, -1504680.3, 20467.879, 0.021070523, -0.019247321, -1339180.3, 85116.57, 0.0, 10.001058, 9.998908 
8.2513297e+2, 1.6466242e+2, -1206861.3, -1265885.5, 39468.934, -0.025521075, -0.03369687, -1187090.9, 139212.7, 0.0, 10.000785, 10.000003 
8.251103e+2, 1.7466125e+2, -1135415.9, -1176083.8, -15884.18, -0.24929054, -0.1608562, -1129947.1, 98362.125, 0.0, 10.000582, 10.000046 
8.250897e+2, 1.8466072e+2, -1134663.4, -1258736.0, -36664.223, -0.22811863, -0.1583845, -1124638.8, 5675.7183, 0.0, 10.000492, 9.998848 
8.2507163e+2, 1.9466077e+2, -1043409.2, -1168555.5, 8934.12, 0.06705626, -0.04124673, -1042774.6, -10454.153, 0.0, 10.000466, 9.998805 
8.250504e+2, 2.04661e+2, -875291.6, -888626.06, 11930.229, 0.09275405, 0.04146147, -868292.0, 66027.984, 0.0, 10.000304, 10.000137 
8.2502586e+2, 2.146614e+2, -822893.5, -804807.8, 13212.011, -0.17945991, 0.056608215, -797840.3, 38472.184, 0.0, 9.999959, 10.000205 
8.2500327e+2, 2.2466095e+2, -794252.25, -740191.1, 3493.5225, -0.24793991, -0.0070609143, -739966.3, -1652.3898, 0.0, 9.999476, 10.000212 
8.2498306e+2, 2.3465933e+2, -795881.44, -689943.9, -30756.98, -0.08074795, -0.19603062, -681661.7, -41334.703, 0.0, 9.998791, 10.000215 
8.249618e+2, 2.4465895e+2, -770595.9, -736181.44, -57530.41, 0.01572335, -0.20548317, -693340.0, -151009.3, 0.0, 9.998769, 9.999229 
8.249394e+2, 2.546599e+2, -560403.06, -586219.7, -39566.785, 0.034091886, -0.038435217, -531692.25, -87367.836, 0.0, 9.999547, 9.999212 
8.249157e+2, 2.6465976e+2, -415378.72, -489466.84, -69275.0, -0.015513941, 0.040883273, -373865.25, -27537.81, 0.0, 9.999971, 9.9990015 
8.2489043e+2, 2.746583e+2, -318951.4, -391682.7, -56902.72, -0.13540965, -0.013447576, -287786.47, -39444.063, 0.0, 9.999959, 9.999002 
8.248666e+2, 2.846571e+2, -244985.52, -250215.11, 20933.95, -0.21545859, -0.053089097, -226503.69, -76151.02, 0.000001518397, 9.999556, 9.999499 
8.248443e+2, 2.946562e+2, -270587.53, -212493.92, 7830.4277, -0.24716105, -0.10226416, -211456.97, -159098.78, 0.000022006743, 9.998708, 9.999493 
8.248215e+2, 3.046557e+2, -221908.88, -113010.79, -55002.652, -0.27775174, -0.115853556, -90064.805, -90064.805, 0.00009542949, 9.998491, 9.999944 
8.247989e+2, 3.1465387e+2, -104800.73, 31930.658, -64070.645, -0.21556966, -0.30854514, 57260.832, 57260.832, 0.0002328845, 9.9989, 10.000738 
8.3521837e+2, 1.2468559e+2, -1539349.8, -1898150.4, 55390.543, 0.19152191, -0.18300506, -1530993.3, 187076.25, 0.000000000051048894, 10.00233, 9.997619 
8.351977e+2, 1.3468497e+2, -1493053.0, -1795315.9, 29237.395, 0.096182115, -0.040803652, -1490250.9, 129834.63, 0.0, 10.001862, 9.997879 
8.3517516e+2, 1.4468475e+2, -1296732.1, -1388079.9, -43722.574, -0.10178578, 0.042528886, -1279178.1, 242912.48, 0.0, 10.00141, 10.000215 
8.351545e+2, 1.546844e+2, -1240031.1, -1298111.6, 12076.594, -0.061844762, -0.033444136, -1237620.1, 186469.3, 0.0, 10.001077, 10.000317 
8.3513397e+2, 1.6468449e+2, -1295364.6, -1449795.5, 29581.713, -0.016344298, 0.023693051, -1289892.0, 36196.875, 0.0, 10.000784, 9.998742 
8.35114e+2, 1.746851e+2, -1228522.8, -1373208.4, -16585.178, 0.056417424, 0.21129684, -1226645.9, 1443.5099, 0.0, 10.000597, 9.998686 
8.3509266e+2, 1.8468416e+2, -1049201.8, -1082056.1, -39576.57, 0.0066421507, 0.18469712, -1022778.5, 107320.734, 0.0, 10.000492, 10.000062 
8.350697e+2, 1.9468133e+2, -952777.56, -978289.5, 11439.866, -0.18114054, -0.115936555, -948399.2, 83721.46, 0.0, 10.000451, 10.000121 
8.350476e+2, 2.0468065e+2, -867549.3, -863420.1, -4639.4585, -0.22655395, -0.2040585, -860406.6, 73716.44, 0.0, 10.000265, 10.000327 
8.3502656e+2, 2.1468225e+2, -819288.0, -787154.9, 3866.9272, -0.10862433, -0.08473073, -786696.06, 49408.87, 0.0, 9.999915, 10.000346 
8.350045e+2, 2.2468269e+2, -858577.0, -859678.2, -26846.758, -0.07891462, -0.027351948, -832275.2, -94174.25, 0.0, 9.999417, 9.999421 
8.3498114e+2, 2.3468173e+2, -859444.9, -812684.4, -53786.727, -0.1527158, -0.06909879, -777416.1, -137302.48, 0.0, 9.998748, 9.999394 
8.349591e+2, 2.446811e+2, -737709.7, -658583.8, -33692.527, -0.13722977, -0.08624624, -646181.25, -104060.89, 0.0, 9.998727, 9.9997835 
8.3493847e+2, 2.5468072e+2, -524483.75, -505322.63, -5502.517, -0.019651266, -0.11146627, -503854.9, -59733.098, 0.0, 9.9995165, 9.999784 
8.3491576e+2, 2.6468036e+2, -386436.5, -422311.13, -71541.68, -0.011504344, -0.107020915, -330617.72, 15506.306, 0.0, 9.999943, 9.9994755 
8.348906e+2, 2.746799e+2, -291307.78, -326428.13, -53186.484, -0.12148722, -0.10590167, -252857.58, -4729.193, 0.0, 9.999921, 9.999473 
8.348666e+2, 2.846794e+2, -274354.2, -300046.03, -12129.324, -0.17576456, -0.0853787, -269532.7, -119399.28, 0.0000012583888, 9.999514, 9.999173 
8.348438e+2, 2.9467878e+2, -304274.78, -271051.1, -18428.447, -0.16763565, -0.07330342, -262852.44, -210712.33, 0.000022643984, 9.998659, 9.999114 
8.348217e+2, 3.0467856e+2, -294968.1, -255038.22, -40266.133, -0.10665328, 0.00805852, -230059.19, -230059.19, 0.000101563375, 9.998451, 9.99899 
8.348009e+2, 3.1467602e+2, -150594.1, -52098.23, -38198.305, 0.07867276, -0.15688246, -39020.652, -39020.652, 0.0002494841, 9.998849, 10.000192 
8.452209e+2, 1.24707274e+2, -1438796.0, -1855224.6, -40744.71, 0.18369442, -0.16173138, -1434846.8, 283012.8, 0.0, 10.0030575, 9.997559 
8.451997e+2, 1.3470685e+2, -1505711.0, -1814191.6, 58528.305, 0.11757756, 0.013355489, -1494979.6, 124894.93, 0.0, 10.001844, 9.997754 
8.4517694e+2, 1.4470646e+2, -1300895.5, -1384416.4, 55751.05, -0.06167572, 0.08431958, -1272998.8, 248882.22, 0.0, 10.001364, 10.000257 
8.4515584e+2, 1.5470552e+2, -1122285.8, -1235813.4, 9701.984, -0.06883182, -0.05436506, -1121462.5, 302420.88, 0.0, 10.001865, 10.000362 
8.4513515e+2, 1.6470571e+2, -1180917.6, -1380212.3, 921.04285, -0.010494555, 0.002317834, -1180913.4, 144968.64, 0.0, 10.001506, 9.998875 
8.4511524e+2, 1.7470716e+2, -1292820.0, -1387985.0, 56242.426, 0.14465544, 0.25869843, -1266732.3, -38855.82, 0.0, 10.000089, 9.998829 
8.4509337e+2, 1.8470654e+2, -1154292.9, -1089088.8, 104084.27, 0.07950721, 0.24022633, -1012620.06, 117262.54, 0.0, 9.999582, 10.000453 
8.4506935e+2, 1.9470355e+2, -982062.44, -948746.0, 83716.58, -0.23692645, -0.11619096, -880046.4, 151856.5, 0.0, 10.000063, 10.000513 
8.45047e+2, 2.0470266e+2, -889245.5, -881468.6, 8189.7866, -0.3015362, -0.2397397, -876291.06, 57615.18, 0.0, 10.000146, 10.000263 
8.450267e+2, 2.1470402e+2, -854618.0, -815161.8, -8665.327, -0.07290619, -0.13613589, -813342.6, 22549.367, 0.0, 9.999715, 10.000252 
8.450047e+2, 2.2470476e+2, -817432.3, -862194.56, -4777.555, -0.0139325885, -0.03445963, -816928.06, -79041.24, 0.0, 9.9998045, 9.99921 
8.449808e+2, 2.3470475e+2, -626394.94, -722062.6, 4465.1455, -0.14761518, 0.039360356, -626186.94, 13705.206, 0.0, 10.000456, 9.9991865 
8.449582e+2, 2.447041e+2, -491947.0, -525610.94, 35896.19, -0.1783638, 0.025414249, -469132.38, 72766.82, 0.0, 10.000348, 9.999916 
8.4493715e+2, 2.5470263e+2, -539763.6, -494621.4, 22051.273, -0.08987596, -0.12338762, -485637.56, -41728.16, 0.0, 9.999336, 9.999942 
8.449144e+2, 2.6470214e+2, -528224.3, -451795.56, -54123.69, -0.08061037, -0.15847309, -423755.03, -77843.305, 0.0, 9.998804, 9.99982 
8.4488964e+2, 2.7470264e+2, -425230.44, -348232.13, -50761.258, -0.15218222, -0.09512821, -323021.88, -75116.086, 0.0000000050987805, 9.998828, 9.999845 
8.4486604e+2, 2.8470245e+2, -352663.5, -346380.5, -8775.536, -0.15493764, -0.058883026, -340201.1, -190293.17, 0.0000017148438, 9.999007, 9.999103 
8.448437e+2, 2.9470137e+2, -224523.45, -237505.38, -2133.9907, -0.07218904, -0.08518121, -224181.67, -172261.23, 0.000025402682, 9.999232, 9.999065 
8.4482104e+2, 3.0470127e+2, -228660.73, -246409.16, 30146.95, -0.039222267, 0.018140988, -206109.0, -206109.0, 0.00011168263, 9.999001, 9.998791 
8.447986e+2, 3.1469983e+2, -224259.6, -58795.97, 80625.35, 0.0032955438, -0.01641542, -26007.219, -26007.219, 0.00027089723, 9.998221, 10.000449 
8.552228e+2, 1.2473007e+2, -1318804.8, -1616991.6, -94464.82, 0.048148293, 0.055085864, -1291397.6, 426250.16, 0.0, 10.003099, 9.999175 
8.552013e+2, 1.3472964e+2, -1392285.8, -1578743.9, 12447.364, 0.09052558, 0.068152815, -1391458.5, 228193.69, 0.0, 10.001847, 9.999367 
8.551788e+2, 1.447287e+2, -1373337.6, -1539834.5, 70489.94, -0.023375614, 0.05277283, -1347502.9, 174157.4, 0.0, 10.00138, 9.999185 
8.5515803e+2, 1.5472658e+2, -1203309.8, -1407378.8, 37141.418, -0.042642348, -0.0871095, -1196760.0, 226918.55, 0.0, 10.001878, 9.999181 
8.5513633e+2, 1.6472614e+2, -1079349.3, -1170552.8, -51625.293, -0.04356437, -0.10085165, -1056069.3, 269612.6, 0.0, 10.001508, 10.000315 
8.551138e+2, 1.7472748e+2, -1182663.5, -1163324.6, 6025.2427, -0.0080450615, -0.007593477, -1161601.0, 66068.38, 0.0, 10.000101, 10.000367 
8.5509187e+2, 1.8472798e+2, -1183399.3, -1148773.1, 117915.68, -0.03560255, 0.024451468, -1046906.3, 82757.49, 0.0, 9.9995775, 10.000046 
8.550704e+2, 1.9472739e+2, -1014549.75, -1018681.25, 106012.234, -0.13843034, -0.045063943, -910583.1, 121084.13, 0.0, 10.000068, 10.000032 
8.5504854e+2, 2.0472702e+2, -915117.44, -930308.3, -10890.126, -0.1663932, -0.07682857, -909435.6, 24234.41, 0.0, 10.000124, 9.99994 
8.550261e+2, 2.1472679e+2, -880406.9, -860967.25, -21244.602, -0.1073674, -0.09968296, -847324.5, -11651.453, 0.0, 9.999679, 9.999957 
8.5500383e+2, 2.2472721e+2, -802190.94, -816563.1, 15083.053, -0.085947365, -0.029876104, -792669.6, -54998.805, 0.0, 9.999743, 9.999554 
8.5498166e+2, 2.3472832e+2, -605155.44, -671823.9, 33897.785, -0.10290053, 0.1196523, -590947.75, 48715.363, 0.0, 10.000426, 9.999548 
8.5495895e+2, 2.4472792e+2, -518336.88, -569410.25, -4446.948, -0.14372247, 0.123426825, -517952.56, 23714.973, 0.0, 10.000304, 9.999637 
8.5493535e+2, 2.5472566e+2, -567381.56, -540901.56, -13082.972, -0.20735215, -0.07078754, -535528.06, -91841.305, 0.0, 9.999288, 9.999649 
8.5491157e+2, 2.6472512e+2, -521835.13, -423370.22, -58304.375, -0.24639224, -0.1058464, -396292.56, -50602.746, 0.0, 9.998742, 10.000045 
8.5488737e+2, 2.7472648e+2, -419892.88, -321800.94, -45453.535, -0.26359883, 0.014653211, -303977.4, -56302.32, 0.0000001292932, 9.998764, 10.000057 
8.548647e+2, 2.847262e+2, -343216.75, -313855.7, -557.18915, -0.18700585, 0.021063143, -313845.13, -164168.25, 0.000003149254, 9.998952, 9.999352 
8.548437e+2, 2.9472396e+2, -211596.66, -204831.66, 12311.839, -0.0045015197, -0.14396176, -195446.13, -143746.75, 0.000029420804, 9.9992, 9.99931 
8.5481924e+2, 3.0472383e+2, -191890.55, -156167.2, 557.74744, -0.1254859, -0.088194065, -156158.5, -156158.5, 0.00012215794, 9.998952, 9.99943 
8.547915e+2, 3.1472486e+2, -165563.03, 89039.13, 61768.03, -0.5419162, 0.06396667, 103233.125, 103233.125, 0.00029314935, 9.9981165, 10.001514 
8.6522573e+2, 1.2475288e+2, -1363333.6, -1611403.1, -2540.6152, 0.055545326, 0.11643647, -1363307.6, 354120.63, 0.00000000000000000000885557, 10.002674, 9.9994135 
8.6520284e+2, 1.3475227e+2, -1295265.4, -1511928.9, -6916.438, 0.03148276, 0.09151983, -1295044.9, 324387.66, 0.0, 10.002412, 9.999557 
8.651799e+2, 1.4475133e+2, -1351243.5, -1537699.6, 52753.773, -0.050666735, 0.06947345, -1337352.8, 184087.44, 0.0, 10.001571, 9.999108 
8.6515975e+2, 1.5474938e+2, -1455097.0, -1540018.0, 88311.82, 0.02799269, -0.043060485, -1399568.4, 23889.67, 0.0, 10.000195, 9.9990835 
8.651374e+2, 1.6474868e+2, -1313880.1, -1228055.4, 11870.085, 0.006234102, -0.10016758, -1226444.0, 99018.45, 0.0, 9.999658, 10.000808 
8.6511284e+2, 1.7474939e+2, -1150801.8, -1091208.6, -10104.799, -0.112704046, -0.12225847, -1089541.8, 137910.27, 0.0, 10.000073, 10.0008745 
8.650907e+2, 1.8475017e+2, -1098613.5, -1124555.1, 103003.625, -0.1372648, -0.0816248, -1007767.2, 121676.06, 0.0, 10.000232, 9.999894 
8.650713e+2, 1.9475092e+2, -1029543.75, -1042463.4, 108724.04, -0.056568246, -0.00012407928, -927087.8, 104349.414, 0.0, 10.000045, 9.999873 
8.6504966e+2, 2.0475104e+2, -976683.0, -970648.94, -3544.6355, -0.04270011, 0.030428993, -969011.2, -35573.496, 0.0, 9.999751, 9.999839 
8.6502564e+2, 2.1475038e+2, -944829.44, -902588.8, -6483.7803, -0.099832445, -0.026669424, -901616.0, -66169.58, 0.0, 9.99929, 9.999855 
8.65003e+2, 2.247504e+2, -843175.3, -788311.5, 83842.22, -0.11377987, -0.01388492, -727527.6, 9919.25, 0.0, 9.999249, 9.999988 
8.6498195e+2, 2.3475109e+2, -689894.94, -662896.1, 103290.94, -0.07551447, 0.048860297, -572226.2, 67212.875, 0.0, 9.999629, 9.999991 
8.6495924e+2, 2.4475093e+2, -646813.94, -655814.5, 28707.016, -0.1021232, 0.06720382, -622256.6, -80816.16, 0.0, 9.999532, 9.999413 
8.649345e+2, 2.5474972e+2, -634711.0, -599159.5, 15780.071, -0.20080754, -0.00085953757, -593165.8, -149712.42, 0.0, 9.998942, 9.9994135 
8.6491024e+2, 2.647492e+2, -519799.44, -428929.97, 3473.336, -0.24795802, -0.017032677, -428797.38, -83340.18, 0.0000000005766255, 9.9987755, 9.999991 
8.648865e+2, 2.7474946e+2, -382574.72, -311845.2, -11503.717, -0.2337163, -0.0004922437, -310021.2, -62569.58, 0.000000514823, 9.99904, 9.999997 
8.648639e+2, 2.8474894e+2, -333015.8, -307222.44, 15099.083, -0.16696386, -0.017412338, -300261.97, -150806.58, 0.0000053955687, 9.999013, 9.999369 
8.648423e+2, 2.9474735e+2, -281282.84, -233052.31, 2272.949, -0.034929823, -0.11724797, -232945.44, -181473.73, 0.00003455936, 9.998704, 9.999353 
8.648172e+2, 3.04747e+2, -301103.63, -165028.14, -54567.4, -0.170012, -0.10763828, -145849.3, -145849.3, 0.000132535, 9.998005, 9.999824 
8.6478883e+2, 3.147486e+2, -322649.56, 81719.62, -21447.336, -0.5502835, 0.059363507, 82853.984, 82853.984, 0.00031326473, 9.996737, 10.002125 
8.752292e+2, 1.2477583e+2, -1430315.6, -1755534.3, -15931.211, 0.11573394, 0.03911824, -1429537.1, 287663.3, 0.0000000055054987, 10.002694, 9.998414 
8.75204e+2, 1.3477486e+2, -1373882.0, -1669654.9, -11349.039, -0.09230975, 0.083416, -1373447.3, 245767.38, 0.0, 10.002392, 9.998481 
8.7518036e+2, 1.4477445e+2, -1294570.3, -1424099.8, 2118.8682, -0.17262426, 0.13400577, -1294535.5, 226683.97, 0.0, 10.001583, 9.999883 
8.751608e+2, 1.547739e+2, -1392453.1, -1413268.1, 41943.098, 0.110153556, 0.07813699, -1359645.6, 63576.19, 0.0, 10.000209, 9.999946 
8.7513804e+2, 1.6477334e+2, -1336034.9, -1282158.1, 23951.377, 0.10292603, 0.006684613, -1273050.1, 52173.613, 0.0, 9.999691, 10.0004225 
8.7511206e+2, 1.747728e+2, -1178007.4, -1154833.0, 9841.629, -0.20413233, -0.096934505, -1151217.5, 76007.41, 0.0, 10.000102, 10.000425 
8.7508976e+2, 1.8477312e+2, -1091724.0, -1107850.0, 95369.68, -0.25580814, -0.08369374, -1004077.1, 125143.484, 0.0, 10.000221, 10.000014 
8.750717e+2, 1.947742e+2, -1022764.9, -1023643.44, 106042.95, -0.026348045, 0.016436432, -917160.3, 114051.766, 0.0, 10.00002, 10.000016 
8.750503e+2, 2.0477478e+2, -976641.25, -959139.0, -24712.738, 0.03807783, 0.080217086, -941673.7, -8464.789, 0.0, 9.999704, 9.999941 
8.7502515e+2, 2.1477476e+2, -943064.5, -892352.6, -21129.98, -0.08152509, 0.07771855, -884702.5, -49490.344, 0.0, 9.999261, 9.999941 
8.7500215e+2, 2.2477423e+2, -811516.9, -713362.4, 93158.87, -0.12961014, 0.006566277, -657144.06, 80071.31, 0.0, 9.999208, 10.000524 
8.7498146e+2, 2.3477304e+2, -657812.8, -584962.8, 120321.38, -0.09580339, -0.17198867, -495673.78, 143545.78, 0.0, 9.9995775, 10.000553 
8.7495893e+2, 2.4477321e+2, -666490.2, -684512.5, 3523.3096, -0.08516464, -0.14463593, -665825.9, -124608.51, 0.0, 9.999478, 9.999241 
8.7493443e+2, 2.5477475e+2, -657230.5, -632856.6, -2246.7788, -0.10391417, 0.08253482, -632651.25, -189442.16, 0.0, 9.998888, 9.9992075 
8.749105e+2, 2.647743e+2, -547842.94, -481685.78, 11064.153, -0.11055295, 0.09944305, -479884.44, -134670.0, 0.0000000691861, 9.998748, 9.999644 
8.7488705e+2, 2.747716e+2, -414153.94, -365175.1, 3675.8977, -0.09779208, -0.14195222, -364900.75, -117665.31, 0.000001269736, 9.998987, 9.999657 
8.7486327e+2, 2.8477073e+2, -354805.94, -342439.25, 170.5126, -0.12861197, -0.16721389, -342436.9, -193194.25, 0.000008177336, 9.998969, 9.999148 
8.748393e+2, 2.9477155e+2, -305836.72, -269220.84, -5617.775, -0.20691596, -0.004291779, -268378.3, -217140.63, 0.000040999803, 9.998639, 9.999137 
8.748149e+2, 3.0477062e+2, -299090.03, -144673.94, -100717.38, -0.1950967, -0.04549806, -94976.23, -94976.23, 0.00014405875, 9.997939, 9.999993 
8.747907e+2, 3.1477034e+2, -328331.03, 94887.65, -56536.754, -0.051011343, -0.08320213, 102310.086, 102310.086, 0.00033067827, 9.9966345, 10.002263 
8.852316e+2, 1.2480008e+2, -1507131.5, -1808577.4, 40672.156, 0.12166184, -0.013978985, -1501740.4, 215219.72, 0.00000006865043, 10.002238, 9.998276 
8.852063e+2, 1.3479905e+2, -1580769.6, -1789787.1, 92694.984, -0.033238467, 0.04363507, -1545584.4, 73393.055, 0.0, 10.001061, 9.9983 
8.851818e+2, 1.4479898e+2, -1434588.1, -1449869.6, 140980.64, -0.12537672, 0.12047835, -1301041.4, 219938.27, 0.0, 10.000443, 10.000256 
8.851605e+2, 1.5479922e+2, -1301635.9, -1325664.9, 142742.77, 0.039167847, 0.10437852, -1170402.9, 252570.23, 0.0, 10.000643, 10.000337 
8.8513756e+2, 1.6479883e+2, -1210713.9, -1284119.0, 139409.53, 0.03275219, 0.05876962, -1103256.5, 221717.33, 0.0, 10.000827, 9.999862 
8.851132e+2, 1.7479782e+2, -1095465.3, -1178716.1, 108076.57, -0.14451587, -0.03099685, -1021275.25, 205706.31, 0.0, 10.00095, 9.999853 
8.8509077e+2, 1.8479763e+2, -1064296.3, -1076888.9, 156426.78, -0.18102688, -0.04708484, -914039.1, 214943.6, 0.0, 10.000333, 10.000175 
8.8507074e+2, 1.9479817e+2, -1173920.6, -1075510.5, 161913.45, -0.06329487, -0.017386876, -955490.56, 75487.45, 0.0, 9.998896, 10.000201 
8.8504875e+2, 2.0479883e+2, -1086597.6, -1023428.94, 86396.85, -0.043037318, 0.049027976, -963024.25, -30050.033, 0.0, 9.998996, 9.999841 
8.8502467e+2, 2.1479954e+2, -740744.7, -805375.5, 72354.93, -0.12392475, 0.13133843, -693816.7, 141155.23, 0.0, 10.000695, 9.999846 
8.850019e+2, 2.2479914e+2, -601668.9, -607494.06, 114497.84, -0.14417905, 0.07762632, -490046.6, 246927.45, 0.0, 10.000632, 10.000563 
8.8498056e+2, 2.347975e+2, -786911.8, -642224.7, 92894.79, -0.095943995, -0.15390918, -596826.9, 42155.15, 0.0, 9.998672, 10.000596 
8.84958e+2, 2.4479757e+2, -809600.94, -732066.94, 22572.344, -0.06944828, -0.14362714, -725974.25, -184994.45, 0.0, 9.998398, 9.999438 
8.849341e+2, 2.547995e+2, -486919.9, -529736.75, 41741.977, -0.0672425, 0.09956542, -461416.6, -18448.805, 0.00000000006372724, 9.999951, 9.999408 
8.849104e+2, 2.6479897e+2, -334748.9, -431624.72, 48910.336, -0.07104909, 0.12467524, -314350.4, 30624.414, 0.00000025387644, 10.00045, 9.999163 
8.848866e+2, 2.7479577e+2, -316560.9, -370257.53, 19563.586, -0.07761174, -0.116528235, -310189.28, -63186.06, 0.0000021793016, 9.999895, 9.999177 
8.8486236e+2, 2.8479508e+2, -282135.88, -281653.2, 23876.305, -0.1324073, -0.112333685, -258017.02, -109007.43, 0.00001103343, 9.999359, 9.999377 
8.848376e+2, 2.947968e+2, -262510.13, -218572.27, 47716.496, -0.23872554, 0.11644409, -188010.28, -137015.9, 0.00004783983, 9.998805, 9.999405 
8.8481295e+2, 3.0479538e+2, -290772.56, -187749.06, -64577.12, -0.19634616, 0.03230665, -156655.34, -156655.34, 0.00015538944, 9.998197, 9.999579 
8.847889e+2, 3.1479463e+2, -251282.36, 53132.676, -77801.914, 0.068013564, -0.007100145, 71864.52, 71864.52, 0.00034428985, 9.997503, 10.001563 
8.952328e+2, 1.248256e+2, -1458643.3, -1708342.4, -15045.945, -0.0033132967, -0.041451205, -1457739.9, 258967.69, 0.00000033567557, 10.002243, 9.9989605 
8.9520943e+2, 1.3482486e+2, -1534541.9, -1697086.5, 46833.652, 0.16876662, -0.014470473, -1522013.5, 96707.266, 0.00000000007521531, 10.00108, 9.998927 
8.9518404e+2, 1.44825e+2, -1425831.0, -1441586.8, 141932.92, 0.045824964, 0.045865, -1291557.5, 229162.66, 0.0, 10.0004835, 10.000295 
8.951587e+2, 1.5482531e+2, -1298804.1, -1326848.4, 153661.16, -0.21754706, 0.040916093, -1158526.6, 264185.4, 0.0, 10.000672, 10.000317 
8.951359e+2, 1.6482519e+2, -1261088.9, -1392719.5, 140893.61, -0.23293611, 0.059140243, -1171396.5, 153315.86, 0.0, 10.000842, 9.999108 
8.951159e+2, 1.7482445e+2, -1148614.5, -1289141.9, 116595.82, 0.031409297, 0.07098916, -1082747.5, 143974.92, 0.0, 10.000946, 9.999098 
8.9509344e+2, 1.8482369e+2, -1054269.1, -1049545.8, 100046.95, 0.04763779, 0.02636231, -951832.6, 176897.19, 0.0, 10.000305, 10.000375 
8.950683e+2, 1.9482282e+2, -1161191.5, -1046663.8, 110828.31, -0.20462547, -0.10753753, -979179.7, 51555.668, 0.0, 9.998885, 10.000404 
8.950451e+2, 2.0482317e+2, -1108159.8, -1064571.8, 144302.83, -0.31332216, -0.06662227, -940426.4, -7692.6963, 0.0, 9.998977, 9.99957 
8.95024e+2, 2.1482477e+2, -767515.2, -849555.2, 139708.53, -0.265152, 0.13172506, -662929.1, 171795.98, 0.0, 10.000645, 9.999569 
8.95002e+2, 2.2482526e+2, -646040.6, -685010.9, 38732.35, -0.19498524, 0.20372412, -622168.4, 114553.73, 0.0, 10.000567, 10.000061 
8.9497906e+2, 2.3482445e+2, -830031.5, -720434.25, 21856.617, -0.10985714, 0.10783373, -716236.25, -77510.39, 0.0, 9.998622, 10.000082 
8.9495623e+2, 2.4482407e+2, -773372.25, -649282.5, 75121.25, -0.08766948, 0.068649635, -613896.56, -73169.04, 0.0, 9.998365, 10.000023 
8.949335e+2, 2.54824e+2, -451912.44, -445660.34, 104195.7, -0.12980768, 0.053854443, -344543.8, 98184.664, 0.0000000002378373, 9.999904, 10.000009 
8.949099e+2, 2.648234e+2, -382105.06, -526856.06, 25252.393, -0.17269027, 0.06866657, -377826.16, -33089.227, 0.00000030747992, 10.000434, 9.998517 
8.948852e+2, 2.748221e+2, -371849.44, -474890.6, 2606.4553, -0.21528722, 0.085203506, -371783.56, -125029.33, 0.0000026197797, 9.999849, 9.998482 
8.94861e+2, 2.8482205e+2, -235922.53, -177408.44, 968.8548, -0.2142363, 0.15679424, -177392.4, -28637.07, 0.000013141425, 9.999323, 10.00011 
8.9483726e+2, 2.9482317e+2, -214204.42, -111306.34, 32593.873, -0.16154665, 0.24942456, -101850.836, -51109.996, 0.00005419451, 9.998773, 10.000158 
8.94811e+2, 3.048213e+2, -370444.9, -344368.78, -92244.98, -0.21601388, 0.13138714, -264245.03, -264245.03, 0.0001662128, 9.998163, 9.998516 
8.9478266e+2, 3.1482112e+2, -372053.3, -180160.28, -93978.69, -0.31481236, 0.2583342, -141802.19, -141802.19, 0.0003568497, 9.997433, 9.99999 
9.052341e+2, 1.2485173e+2, -1593784.1, -1744525.8, -31053.88, -0.04079702, 0.0112501895, -1587637.5, 128816.055, 0.0000010657902, 10.001189, 9.999222 
9.0521044e+2, 1.3485095e+2, -1495229.8, -1653131.0, -16126.826, 0.1592221, 0.0116335815, -1493599.5, 124865.17, 0.000000007369457, 10.001243, 9.999149 
9.051848e+2, 1.448507e+2, -1331199.6, -1431161.0, 83325.266, 0.041989725, 0.038678642, -1284014.6, 236452.36, 0.0, 10.001285, 9.999978 
9.051592e+2, 1.5485035e+2, -1231264.9, -1331490.3, 63528.047, -0.26145896, -0.004590121, -1200463.5, 222003.38, 0.0, 10.001297, 9.999985 
9.051361e+2, 1.6485028e+2, -1262698.8, -1356054.8, 60710.19, -0.27399102, 0.022166431, -1232796.3, 91670.586, 0.0, 10.000667, 9.999447 
9.051161e+2, 1.7485046e+2, -1353478.0, -1346880.9, 109106.55, 0.03921002, 0.089257635, -1241023.0, -14554.991, 0.0, 9.999367, 9.999459 
9.0509343e+2, 1.8484998e+2, -1221984.3, -1167652.0, 140922.17, 0.07472942, 0.06953461, -1051301.4, 77171.68, 0.0, 9.999309, 10.000046 
9.0506816e+2, 1.9484867e+2, -943910.25, -981517.4, 107965.7, -0.1872943, -0.07201381, -853122.94, 177360.31, 0.0, 10.000537, 10.00006 
9.050449e+2, 2.0484866e+2, -888671.6, -947558.25, 146741.17, -0.29717463, -0.056182586, -768449.0, 164035.72, 0.0, 10.00044, 9.999666 
9.05024e+2, 2.1484992e+2, -1009947.75, -955889.5, 159229.63, -0.23975691, 0.09825772, -821411.2, 13066.807, 0.0, 9.998936, 9.9996605 
9.050019e+2, 2.2485048e+2, -895850.06, -821914.56, 82852.03, -0.17826788, 0.17993312, -768157.06, -31682.37, 0.0, 9.998924, 9.999913 
9.049785e+2, 2.3485017e+2, -567458.44, -611746.6, 85089.39, -0.11578824, 0.15306957, -501678.88, 136797.13, 0.0, 10.000502, 9.999924 
9.0495557e+2, 2.4484973e+2, -451470.5, -504109.78, 142704.42, -0.10102697, 0.11947812, -332678.9, 207800.56, 0.0, 10.000622, 9.99993 
9.04933e+2, 2.54849e+2, -557970.25, -504214.9, 109960.03, -0.13583834, 0.046901546, -417895.3, 24590.951, 0.0, 9.999214, 9.999934 
9.0490925e+2, 2.648486e+2, -611886.9, -598572.25, 43494.992, -0.18721423, 0.07014255, -561228.06, -216735.58, 0.0000002007212, 9.998691, 9.998866 
9.048843e+2, 2.748485e+2, -453274.94, -474693.66, 92194.39, -0.24962166, 0.16916057, -371170.0, -124671.32, 0.0000025589381, 9.999116, 9.998839 
9.048601e+2, 2.8484854e+2, -273534.8, -211308.34, 91170.04, -0.21688187, 0.24028447, -146088.78, 2409.8926, 0.000014744336, 9.999132, 9.99997 
9.048368e+2, 2.9484865e+2, -230013.42, -129286.25, 43257.258, -0.07889795, 0.24821845, -113259.46, -62766.426, 0.00006127167, 9.99872, 10.000055 
9.048098e+2, 3.0484644e+2, -263356.9, -270626.88, -47632.363, -0.1792295, 0.08695364, -219221.03, -219221.03, 0.00017929857, 9.998793, 9.998724 
9.0477973e+2, 3.1484658e+2, -130188.82, -91397.13, 41566.05, -0.4321167, 0.23074476, -64924.3, -64924.3, 0.00037394426, 9.999201, 9.999754 
9.1523504e+2, 1.2487862e+2, -1592253.9, -1760113.8, -31161.795, -0.078717016, 0.14140123, -1586655.6, 129540.47, 0.000002613721, 10.001266, 9.99908 
9.152093e+2, 1.3487737e+2, -1500084.9, -1674982.9, -10677.691, -0.085439414, 0.11034905, -1499435.5, 118772.82, 0.00000007607973, 10.001287, 9.998979 
9.1518414e+2, 1.4487618e+2, -1375188.3, -1527125.8, 82791.664, -0.15854174, 0.084846355, -1338792.8, 181426.6, 0.0, 10.001302, 9.999312 
9.151617e+2, 1.5487438e+2, -1275375.9, -1424317.4, 70156.26, -0.1381204, -0.03708842, -1247534.4, 174701.64, 0.0, 10.001301, 9.999345 
9.1513824e+2, 1.6487432e+2, -1168389.9, -1156452.1, 9203.827, -0.1363394, -0.047979694, -1151451.1, 172784.28, 0.0, 10.000652, 10.000823 
9.151136e+2, 1.7487597e+2, -1254736.5, -1143717.8, 63342.723, -0.14919743, 0.029077483, -1115003.6, 111213.75, 0.0, 9.999373, 10.000851 
9.1509086e+2, 1.8487655e+2, -1278665.4, -1284018.6, 182984.14, -0.11937236, 0.08378028, -1098338.3, 29873.736, 0.0, 9.999303, 9.999251 
9.150701e+2, 1.9487585e+2, -1004957.4, -1104521.8, 158664.03, -0.04871295, 0.08616778, -888449.0, 141771.9, 0.0, 10.000521, 9.999225 
9.1504806e+2, 2.0487538e+2, -866696.5, -892754.56, 88034.91, -0.03656356, 0.07998998, -790731.7, 141494.86, 0.0, 10.000399, 10.000061 
9.150245e+2, 2.1487504e+2, -989455.3, -899008.1, 106023.75, -0.085189, 0.032140255, -828965.9, 5264.0483, 0.0, 9.998876, 10.000079 
9.150014e+2, 2.2487484e+2, -888897.56, -797567.44, 136242.38, -0.12548786, 0.0070939357, -699540.9, 36690.74, 0.0, 9.9988785, 10.000104 
9.149787e+2, 2.348747e+2, -559073.06, -587619.9, 148713.03, -0.15387188, -0.024398593, -423950.03, 214282.36, 0.0, 10.000471, 10.000105 
9.1495574e+2, 2.4487466e+2, -511809.8, -621155.94, 87557.375, -0.15370291, 0.011963763, -463257.72, 76977.1, 0.0, 10.000586, 9.999144 
9.149324e+2, 2.5487456e+2, -622420.06, -626243.94, 60387.79, -0.1205076, 0.08426399, -563913.94, -121673.56, 0.0, 9.99916, 9.9991255 
9.1490847e+2, 2.6487467e+2, -520269.1, -397458.1, 56193.957, -0.14266749, 0.13138363, -375626.6, -31385.877, 0.00000011562638, 9.998644, 10.000269 
9.1488373e+2, 2.7487493e+2, -359410.53, -270017.34, 114498.91, -0.221097, 0.123700336, -191800.2, 54436.297, 0.0000025826089, 9.999071, 10.000269 
9.148596e+2, 2.8487447e+2, -356781.44, -372540.22, 72933.67, -0.18451963, 0.12515529, -291302.75, -143063.14, 0.000017158924, 9.999084, 9.998885 
9.1483605e+2, 2.9487318e+2, -317718.56, -299397.7, 32952.2, -0.027440114, 0.10213639, -274356.34, -224104.84, 0.000070174305, 9.998665, 9.998916 
9.1480935e+2, 3.048706e+2, -156878.89, -35288.71, -32232.334, -0.106568396, -0.11365708, -27272.709, -27272.709, 0.00019601652, 9.998737, 10.000364 
9.147801e+2, 3.1487095e+2, -49826.37, 87304.76, 71264.195, -0.33266962, -0.12220001, 117632.18, 117632.18, 0.00039683623, 9.999156, 10.001001 
9.252361e+2, 1.24904305e+2, -1532583.3, -1709893.8, 22543.604, -0.109302275, 0.11041501, -1529762.0, 186182.47, 0.0000053718704, 10.001584, 9.999267 
9.252104e+2, 1.3490325e+2, -1379590.8, -1600962.8, 50699.246, -0.13767762, 0.08562106, -1368532.0, 249420.16, 0.00000033393198, 10.002044, 9.999124 
9.2518526e+2, 1.449022e+2, -1395852.1, -1566618.8, 133756.31, -0.17424802, 0.08104855, -1322550.0, 197412.34, 0.0, 10.001302, 9.999037 
9.2516273e+2, 1.5490043e+2, -1572422.3, -1598199.0, 135458.03, -0.07412035, -0.010184194, -1449240.9, -27258.563, 0.0, 9.999406, 9.999059 
9.251386e+2, 1.6490026e+2, -1398490.0, -1258606.8, 82305.516, -0.07913157, -0.020416828, -1220539.0, 103444.87, 0.0, 9.999038, 10.000896 
9.2511296e+2, 1.7490175e+2, -1125912.1, -1074498.4, 34135.426, -0.19172323, 0.032201584, -1057472.6, 168493.55, 0.0, 10.000229, 10.000914 
9.2509025e+2, 1.8490237e+2, -1089261.5, -1174883.5, 157787.67, -0.17254014, 0.08182694, -968580.25, 159379.42, 0.0, 10.000528, 9.99941 
9.2507064e+2, 1.94902e+2, -1094163.0, -1128743.0, 195833.52, -0.016642213, 0.10042597, -914857.7, 115107.94, 0.0, 9.999834, 9.999388 
9.2504835e+2, 2.0490158e+2, -990782.25, -933654.1, 122961.664, 0.008427869, 0.082818136, -835982.4, 95987.75, 0.0, 9.999462, 10.000233 
9.2502344e+2, 2.1490099e+2, -895570.8, -835870.94, 116551.86, -0.101147875, -0.007700637, -745407.3, 88567.016, 0.0, 9.999437, 10.000244 
9.25e+2, 2.249008e+2, -816917.25, -766156.5, 194466.94, -0.17075798, -0.036870006, -595420.7, 140555.33, 0.0, 9.999391, 10.000072 
9.2497814e+2, 2.3490101e+2, -729809.25, -674130.9, 180539.95, -0.19702029, -0.028238574, -519296.34, 118679.2, 0.0, 9.999318, 10.000067 
9.2495537e+2, 2.4490133e+2, -693866.7, -697201.06, 96201.1, -0.1779785, 0.042722654, -599318.4, -59343.03, 0.0, 9.999282, 9.999253 
9.249317e+2, 2.549017e+2, -594259.8, -598103.2, 130284.03, -0.11090394, 0.14813311, -465883.3, -23907.076, 0.0, 9.999293, 9.999253 
9.249076e+2, 2.649017e+2, -431692.13, -351894.88, 148998.73, -0.10970561, 0.1764004, -237545.25, 106431.555, 0.00000007319143, 9.999231, 10.000302 
9.248833e+2, 2.7490124e+2, -354239.84, -260835.69, 94357.555, -0.16711192, 0.09169322, -202255.13, 43723.023, 0.0000027897247, 9.999078, 10.000326 
9.2485917e+2, 2.8490046e+2, -324885.44, -370545.0, 46154.64, -0.14512488, 0.06314004, -296223.0, -148239.0, 0.000020132902, 9.999354, 9.998771 
9.2483526e+2, 2.9489934e+2, -122411.5, -220148.64, 76935.91, -0.035651162, 0.06984686, -80135.84, -30140.918, 0.00008107723, 10.000063, 9.99879 
9.2480886e+2, 3.0489725e+2, 56582.813, 72044.02, -8599.956, -0.088971876, -0.09523374, 75877.22, 75877.22, 0.00021777536, 10.000181, 10.000404 
9.2478096e+2, 3.1489712e+2, -1708.3275, 80911.49, -48416.32, -0.17715432, -0.15246986, 103246.29, 103246.29, 0.000428338, 9.999609, 10.000737 
9.352369e+2, 1.2492877e+2, -1499660.1, -1636795.9, 33485.465, -0.20811501, -0.09213326, -1491920.5, 223778.53, 0.000009857008, 10.001563, 9.999779 
9.3521345e+2, 1.3492884e+2, -1345922.3, -1531057.8, 68572.03, -0.04652262, -0.053644672, -1323290.5, 294404.3, 0.0000009955157, 10.002046, 9.999601 
9.351879e+2, 1.44929e+2, -1391935.0, -1564494.5, 57930.973, -0.05381186, 0.03779022, -1374290.9, 145403.66, 0.00000000002439963, 10.00132, 9.999046 
9.3516195e+2, 1.5492846e+2, -1569678.4, -1597899.8, 67675.86, -0.10200416, 0.07341282, -1514657.8, -92951.88, 0.0, 9.999427, 9.999053 
9.351372e+2, 1.6492806e+2, -1475292.4, -1424239.1, 122596.336, -0.13144131, 0.09886375, -1324540.1, -827.68335, 0.0, 9.999065, 9.999746 
9.351139e+2, 1.7492782e+2, -1202403.1, -1240715.3, 83765.77, -0.13034621, 0.09293326, -1135630.9, 90082.96, 0.0, 10.000261, 9.999757 
9.350913e+2, 1.8492757e+2, -1019604.2, -1025418.2, 129937.25, -0.1257263, 0.06314457, -892541.44, 235173.45, 0.0, 10.000507, 10.000448 
9.350694e+2, 1.949272e+2, -1023808.75, -975639.3, 173480.97, -0.12498679, -0.02495368, -824579.2, 205137.61, 0.0, 9.999803, 10.000455 
9.350459e+2, 2.049273e+2, -997187.0, -940220.75, 115935.93, -0.19030608, -0.043528207, -849320.3, 82394.84, 0.0, 9.999432, 10.000204 
9.3502074e+2, 2.1492779e+2, -905481.94, -846915.1, 118810.93, -0.32235458, -0.01924027, -753832.06, 79878.69, 0.0, 9.999393, 10.000192 
9.349977e+2, 2.2492847e+2, -845295.0, -811419.5, 187723.28, -0.34978747, 0.053349823, -639871.4, 95835.54, 0.0, 9.999334, 9.999786 
9.3497676e+2, 2.3492919e+2, -757953.75, -720894.7, 181517.92, -0.2684908, 0.14199294, -556963.0, 80742.06, 0.0, 9.999267, 9.99977 
9.349544e+2, 2.4492987e+2, -628512.75, -549544.5, 92664.97, -0.20316471, 0.21168922, -488302.3, 51398.12, 0.0, 9.99923, 10.000292 
9.349307e+2, 2.5493044e+2, -527304.5, -451207.2, 135077.11, -0.14904766, 0.232537, -348922.22, 92771.47, 0.0, 9.999257, 10.000282 
9.349068e+2, 2.6492968e+2, -531483.75, -551339.25, 140535.3, -0.12224871, 0.20158626, -400526.0, -56825.305, 0.00000003612581, 9.999197, 9.998949 
9.348829e+2, 2.7492747e+2, -457904.7, -465238.44, 92438.72, -0.120317936, 0.078257136, -369060.13, -123336.77, 0.0000027028154, 9.999031, 9.998945 
9.3485874e+2, 2.8492662e+2, -263654.72, -232802.02, 70524.375, -0.12944663, 0.06781201, -176036.55, -28305.896, 0.000022320448, 9.9993105, 9.999738 
9.3483424e+2, 2.9492733e+2, -55048.645, -80030.96, 111180.2, -0.15420613, 0.15564598, 44339.89, 94061.86, 0.000092742026, 10.000061, 9.999754 
9.3480825e+2, 3.0492643e+2, -68127.48, -182146.23, -32910.74, -0.17428894, 0.14923157, -59309.914, -59309.914, 0.0002446386, 10.000163, 9.998666 
9.34782e+2, 3.1492543e+2, -153177.3, -206146.48, -67920.57, -0.044836685, 0.18113789, -106760.336, -106760.336, 0.00047061927, 9.9995, 9.998814 
9.452377e+2, 1.2495441e+2, -1743399.9, -1697102.1, -23908.98, -0.1799491, -0.050927278, -1686971.8, 28478.11, 0.000016753027, 9.999645, 10.000296 
9.452141e+2, 1.3495415e+2, -1645576.3, -1622232.9, -10721.862, -0.057915572, -0.09214074, -1618055.8, -608.36127, 0.000002343361, 9.9997635, 10.000078 
9.4518834e+2, 1.4495468e+2, -1538412.5, -1588121.4, -34056.33, -0.0664257, -0.0076693487, -1521105.6, -1663.5211, 0.0000000053592455, 10.0001135, 9.999464 
9.4516206e+2, 1.5495515e+2, -1340441.5, -1444584.9, -1682.0851, -0.09300039, 0.08580303, -1340414.4, 81028.28, 0.0, 10.000806, 9.999444 
9.4513744e+2, 1.6495484e+2, -1213723.6, -1339521.9, 144035.95, -0.1031127, 0.117171325, -1119451.9, 203996.7, 0.0, 10.001035, 9.999381 
9.451148e+2, 1.7495371e+2, -1158368.6, -1261174.1, 154912.52, -0.0837473, 0.06371829, -1046553.3, 178906.77, 0.0, 10.000744, 9.999385 
9.450917e+2, 1.8495336e+2, -1100762.4, -1055168.6, 145310.3, -0.100680545, 0.038349405, -930877.8, 196585.73, 0.0, 9.999916, 10.000521 
9.450682e+2, 1.9495367e+2, -1200784.6, -1053446.6, 109148.445, -0.16303422, 0.008130488, -995432.25, 34028.08, 0.0, 9.998559, 10.000515 
9.450441e+2, 2.0495412e+2, -1136319.8, -993987.1, 86059.875, -0.2506961, 0.01696993, -953480.0, -22024.475, 0.0, 9.998421, 10.000321 
9.450198e+2, 2.1495475e+2, -885434.7, -822387.6, 91376.016, -0.35704538, 0.041880917, -757250.4, 76198.98, 0.0, 9.99947, 10.00032 
9.44997e+2, 2.2495547e+2, -802439.7, -780751.75, 153288.9, -0.3570694, 0.109711014, -637923.7, 97520.836, 0.0, 9.999581, 9.99988 
9.4497603e+2, 2.349562e+2, -825508.75, -740585.3, 168686.88, -0.24326731, 0.18851037, -609098.0, 28344.24, 0.0, 9.998749, 9.999882 
9.449536e+2, 2.4495678e+2, -681938.4, -541784.8, 106163.06, -0.17557545, 0.2259584, -484655.66, 54781.664, 0.0, 9.998719, 10.00059 
9.4492996e+2, 2.5495708e+2, -472809.1, -389941.88, 85753.805, -0.15191464, 0.19061042, -336136.53, 105293.99, 0.0, 9.999479, 10.000594 
9.449061e+2, 2.649562e+2, -439242.7, -539265.8, 97154.57, -0.14445521, 0.14586389, -379983.16, -36545.133, 0.000000027783642, 9.99997, 9.998659 
9.448822e+2, 2.7495405e+2, -306450.7, -425811.66, 123534.11, -0.1463121, 0.057704654, -228936.28, 16525.238, 0.000002328807, 10.000215, 9.998648 
9.448581e+2, 2.8495336e+2, -157355.52, -171747.36, 115496.484, -0.1522324, 0.074345894, -48831.004, 98637.73, 0.000023776485, 10.000002, 9.999824 
9.4483376e+2, 2.9495436e+2, -166777.22, -123431.1, 80262.96, -0.16792676, 0.18162479, -61966.535, -12507.643, 0.00010394975, 9.999256, 9.999841 
9.4480795e+2, 3.049541e+2, -183361.67, -252714.27, -20126.158, -0.17847587, 0.24322402, -177944.22, -177944.22, 0.00027361658, 9.999433, 9.998538 
9.447822e+2, 3.1495282e+2, -17603.027, -163136.88, 55793.945, -0.0155138485, 0.25852394, 1325.139, 1325.139, 0.00052026927, 10.00051, 9.998636 
9.5523804e+2, 1.2498136e+2, -1699135.1, -1623461.0, -18131.662, -0.12613344, 0.2247508, -1619340.9, 95853.766, 0.00002677623, 9.999723, 10.000759 
9.5521253e+2, 1.349794e+2, -1614160.0, -1557550.6, -4789.807, -0.19748875, -0.033433698, -1557148.1, 60058.88, 0.0000047533053, 9.999765, 10.000518 
9.5518684e+2, 1.4497943e+2, -1487721.3, -1479672.4, -10407.057, -0.23646566, -0.059639975, -1472538.8, 46664.45, 0.000000046136613, 10.000096, 10.000217 
9.5516294e+2, 1.549806e+2, -1283684.4, -1329559.3, 29042.344, -0.093626946, 0.028363008, -1269614.0, 151577.39, 0.0, 10.000819, 10.000227 
9.5513916e+2, 1.649807e+2, -1186086.1, -1282729.3, 129328.734, -0.043719392, 0.04135045, -1096346.5, 226844.66, 0.0, 10.001038, 9.999768 
9.551156e+2, 1.749796e+2, -1133615.1, -1206944.8, 146581.73, -0.084760144, -0.051063623, -1019182.25, 206021.4, 0.0, 10.0007305, 9.999763 
9.550914e+2, 1.8497986e+2, -1165457.0, -1186372.3, 90959.92, -0.12909953, 0.010954541, -1084355.5, 42849.402, 0.0, 9.9999, 9.99963 
9.5506674e+2, 1.9498141e+2, -1262866.5, -1182799.9, 62791.594, -0.173298, 0.19767576, -1148365.4, -119169.63, 0.0, 9.998559, 9.999628 
9.55043e+2, 2.049821e+2, -1120837.6, -959081.94, 121466.57, -0.21114856, 0.26021847, -894030.5, 37160.11, 0.0, 9.998407, 10.000568 
9.550204e+2, 2.1498184e+2, -874778.56, -789174.1, 134278.3, -0.24403495, 0.17150219, -691041.25, 142148.94, 0.0, 9.999421, 10.000573 
9.549979e+2, 2.2498187e+2, -774294.2, -710074.2, 117391.11, -0.2277664, 0.1309338, -620480.75, 114707.88, 0.0, 9.999527, 10.000392 
9.5497566e+2, 2.3498209e+2, -797517.7, -671643.25, 141393.53, -0.15969633, 0.1075309, -579812.2, 57374.82, 0.0, 9.998698, 10.000382 
9.5495284e+2, 2.4498203e+2, -720412.06, -610073.2, 131682.05, -0.13512784, 0.081057735, -522470.7, 16715.373, 0.0, 9.998672, 10.000143 
9.549295e+2, 2.5498164e+2, -509212.75, -457508.28, 117851.8, -0.15315114, 0.019270442, -362706.53, 78480.24, 0.0, 9.999446, 10.000145 
9.549055e+2, 2.649813e+2, -385972.56, -421272.56, 104315.96, -0.20478445, 0.009133087, -297823.97, 45364.7, 0.000000030362223, 9.99994, 9.999485 
9.5488095e+2, 2.7498093e+2, -253295.16, -308502.2, 139386.64, -0.29238212, 0.021088867, -138805.08, 106387.82, 0.000002140531, 10.000184, 9.99947 
9.548571e+2, 2.8498062e+2, -225183.89, -301802.88, 84956.43, -0.2575423, 0.07347316, -170298.89, -23100.123, 0.000025776937, 9.999958, 9.998949 
9.5483375e+2, 2.9498038e+2, -236805.72, -254942.3, 55526.418, -0.09825423, 0.14672151, -189611.97, -140406.14, 0.00011520068, 9.999195, 9.998965 
9.5480794e+2, 3.0498028e+2, -78268.11, -15572.815, 22221.654, -0.12399968, 0.18336928, -8495.511, -8495.511, 0.0003025404, 9.999354, 10.000204 
9.547812e+2, 3.1497934e+2, 98949.13, 94783.78, 107695.93, -0.18252312, 0.061972093, 204582.52, 204582.52, 0.00057311467, 10.000449, 10.000434 
9.652384e+2, 1.2500688e+2, -1579927.5, -1576443.5, 40518.82, -0.09610379, 0.27284274, -1537629.3, 177319.14, 0.000040530904, 10.0005865, 10.000665 
9.6521205e+2, 1.350056e+2, -1648715.1, -1585056.1, -7235.132, -0.20894666, 0.092130914, -1584244.1, 32712.627, 0.000008656152, 9.999571, 10.000423 
9.6518636e+2, 1.4500555e+2, -1591565.3, -1485395.0, 3785.541, -0.24371114, 0.044139195, -1485260.1, 33692.84, 0.00000019058375, 9.999194, 10.000612 
9.6516323e+2, 1.5500586e+2, -1451386.5, -1365178.8, 7731.4434, -0.075641505, 0.0039800988, -1364490.8, 56454.996, 0.0, 9.999478, 10.0006275 
9.651393e+2, 1.6500604e+2, -1421017.5, -1365529.8, 59582.54, -0.037716135, -0.0067828028, -1327548.4, -4604.857, 0.0, 9.999298, 10.000037 
9.6511483e+2, 1.7500602e+2, -1408043.8, -1310233.9, 61522.996, -0.13040364, -0.01911372, -1280546.4, -55599.063, 0.0, 9.998718, 10.000025 
9.6509033e+2, 1.8500692e+2, -1252489.0, -1189696.4, 72258.89, -0.18116419, 0.07446606, -1142307.8, -15365.318, 0.0, 9.999133, 9.99998 
9.65066e+2, 1.9500865e+2, -958427.5, -997931.4, 126868.48, -0.1864203, 0.2460653, -849782.56, 179146.95, 0.0, 10.0004835, 9.999972 
9.650427e+2, 2.050091e+2, -864919.75, -860752.1, 207658.44, -0.17279492, 0.2813124, -655167.0, 275758.9, 0.0, 10.000283, 10.000336 
9.6502036e+2, 2.150082e+2, -1014315.5, -882161.8, 176431.55, -0.14111172, 0.15139224, -759839.5, 73092.84, 0.0, 9.998584, 10.000335 
9.6499765e+2, 2.2500795e+2, -979641.3, -820835.75, 138889.45, -0.13658112, 0.100818746, -740253.9, -5320.462, 0.0, 9.998169, 10.000287 
9.6497446e+2, 2.3500825e+2, -756475.8, -661192.5, 107869.99, -0.15351063, 0.0964441, -590911.9, 46018.38, 0.0, 9.999021, 10.000299 
9.6495146e+2, 2.4500789e+2, -632517.8, -595766.25, 102109.98, -0.16857527, 0.054874446, -510391.75, 28540.416, 0.0, 9.999394, 9.999893 
9.649285e+2, 2.5500682e+2, -544293.5, -501992.22, 96544.96, -0.17727286, -0.04760208, -424308.25, 16631.416, 0.0, 9.99933, 9.999895 
9.64905e+2, 2.6500687e+2, -426814.22, -381927.3, 80378.85, -0.2142598, -0.032760162, -320917.38, 22020.205, 0.000000012060779, 9.999406, 10.000012 
9.6488094e+2, 2.750079e+2, -304089.97, -273413.9, 85349.484, -0.28530824, 0.06568259, -202035.22, 42892.05, 0.0000023356135, 9.999579, 10.000001 
9.6485716e+2, 2.8500772e+2, -270851.2, -350767.03, 31953.816, -0.23174307, 0.11697282, -259645.81, -112714.234, 0.000028836348, 9.999755, 9.998713 
9.6483374e+2, 2.9500645e+2, -145069.9, -239656.86, 41408.836, -0.04499358, 0.10882012, -129503.49, -80553.92, 0.00012695143, 9.9999485, 9.99871 
9.648083e+2, 3.050061e+2, 81325.63, 77097.31, 23081.201, -0.06746572, 0.12693445, 102389.3, 102389.3, 0.00033048782, 10.000383, 10.000345 
9.6478224e+2, 3.1500468e+2, 187865.69, 176111.42, -26925.68, -0.1356108, -0.054992188, 209548.17, 209548.17, 0.00062489236, 10.000893, 10.000782 
9.752385e+2, 1.2503116e+2, -1615345.9, -1654893.8, 4404.211, -0.16563508, 0.11570872, -1614861.4, 99848.35, 0.000058506626, 10.000602, 10.000119 
9.752124e+2, 1.3503276e+2, -1678941.0, -1660967.8, -41731.484, -0.13675128, 0.28057265, -1627266.3, -10569.794, 0.00001444443, 9.999621, 9.99988 
9.7518665e+2, 1.4503303e+2, -1582591.8, -1478672.8, 12330.482, -0.13920248, 0.28780532, -1477229.8, 41461.99, 0.0000005546723, 9.999246, 10.000636 
9.751628e+2, 1.5503095e+2, -1447465.9, -1361658.6, 22480.379, -0.07207799, 0.007470666, -1356125.9, 64579.516, 0.0, 9.999499, 10.000643 
9.75138e+2, 1.6503099e+2, -1407446.1, -1341002.5, 35659.05, -0.11229745, -0.024727933, -1325487.8, -2783.3694, 0.0, 9.999312, 10.000198 
9.7511244e+2, 1.7503305e+2, -1391922.5, -1284608.1, 44744.41, -0.24908279, 0.15556367, -1268400.1, -43709.902, 0.0, 9.998749, 10.000188 
9.750884e+2, 1.8503453e+2, -1144732.5, -965783.25, 120379.43, -0.28926298, 0.22287422, -905268.2, 221407.48, 0.0, 9.999132, 10.001518 
9.750661e+2, 1.9503541e+2, -855159.5, -776977.1, 180312.8, -0.23540145, 0.15367912, -631566.75, 397094.56, 0.0, 10.000456, 10.001504 
9.750431e+2, 2.0503522e+2, -920033.7, -969490.44, 138412.31, -0.167976, 0.08466144, -804158.2, 126502.79, 0.0, 10.000255, 9.999604 
9.750196e+2, 2.1503386e+2, -1070638.8, -992319.7, 115196.8, -0.08395609, -0.016207114, -909808.5, -77133.05, 0.0, 9.998549, 9.999598 
9.7499603e+2, 2.2503372e+2, -1036162.1, -929231.7, 166786.72, -0.11948677, 0.017411523, -807550.3, -72871.445, 0.0, 9.998131, 9.99956 
9.749724e+2, 2.3503472e+2, -816697.9, -772093.7, 142470.38, -0.26724297, 0.15449952, -650190.4, -13518.332, 0.0, 9.998962, 9.999564 
9.749495e+2, 2.4503438e+2, -640128.44, -604204.25, 95128.17, -0.31228304, 0.15502636, -525357.25, 13318.023, 0.0, 9.999359, 9.999854 
9.749271e+2, 2.550327e+2, -551957.3, -510676.28, 98080.75, -0.259684, -0.0076745017, -431087.75, 9601.36, 0.0, 9.999293, 9.999855 
9.7490454e+2, 2.6503292e+2, -421166.47, -356989.8, 84693.37, -0.20733005, 0.018147787, -298509.78, 44175.277, 0.0000000034767167, 9.999353, 10.000205 
9.748819e+2, 2.750349e+2, -299262.6, -248023.06, 95760.37, -0.15076672, 0.19304277, -174514.52, 70150.52, 0.0000028342504, 9.9995165, 10.000204 
9.748583e+2, 2.8503472e+2, -247524.39, -291094.78, 37274.137, -0.10013095, 0.2105046, -226136.03, -79468.875, 0.000032308424, 9.999707, 9.9991455 
9.748336e+2, 2.9503244e+2, -119847.95, -182419.67, 57200.29, -0.059760105, 0.062135387, -85936.59, -37246.195, 0.00013865711, 9.999927, 9.999114 
9.748088e+2, 3.0503136e+2, -36046.766, -153684.0, 40686.08, -0.053940926, 0.06871658, -23346.248, -23346.248, 0.0003574127, 10.000335, 9.99878 
9.7478545e+2, 3.150288e+2, 87341.99, -9536.976, -4072.9849, 0.08117332, -0.0806081, 87512.92, 87512.92, 0.0006733306, 10.000803, 9.999541 
9.8523813e+2, 1.2505668e+2, -1803501.5, -1758790.6, 49958.21, -0.18912882, 0.044440802, -1726414.1, -11957.696, 0.00008108169, 9.999367, 10.000003 
9.8521256e+2, 1.3505854e+2, -1599593.0, -1634061.9, 15020.102, -0.10452053, 0.24527699, -1593966.3, 22477.004, 0.000022462764, 10.000218, 9.999777 
9.8518705e+2, 1.4505926e+2, -1413836.5, -1392737.3, 91091.83, -0.07534353, 0.3040102, -1311586.1, 206849.45, 0.0000013019285, 10.000385, 10.000673 
9.851628e+2, 1.5505779e+2, -1369951.8, -1319208.6, 96045.336, -0.041838218, 0.07739229, -1245240.3, 175204.16, 0.0, 10.000011, 10.000683 
9.851377e+2, 1.650579e+2, -1334018.0, -1305533.4, 102598.836, -0.09132579, 0.04998197, -1216193.0, 106249.65, 0.0, 9.999815, 10.000202 
9.85112e+2, 1.7505951e+2, -1249962.4, -1212120.1, 94329.78, -0.20779991, 0.18716957, -1134832.5, 89598.85, 0.0, 9.999714, 10.000217 
9.850881e+2, 1.8506049e+2, -1149031.1, -979533.94, 128268.22, -0.23367459, 0.20657884, -910545.56, 215875.34, 0.0, 9.999155, 10.001411 
9.8506594e+2, 1.9506073e+2, -1197255.4, -953899.75, 60578.58, -0.17555857, 0.083255105, -939653.8, 88758.25, 0.0, 9.9981575, 10.001396 
9.8504287e+2, 2.050606e+2, -1180897.0, -1106262.9, -16967.596, -0.12831739, 0.030617984, -1102586.5, -172174.84, 0.0, 9.998503, 9.999514 
9.8501885e+2, 2.1506001e+2, -847459.6, -893749.4, 683.534, -0.08775658, 0.013335635, -847449.56, -15028.939, 0.0, 10.000117, 9.99952 
9.849951e+2, 2.2506e+2, -688574.06, -780614.6, 109811.375, -0.13989504, 0.071414046, -615529.6, 118893.46, 0.0, 10.0006, 9.999392 
9.8497176e+2, 2.350605e+2, -680093.8, -724752.9, 123166.83, -0.27858323, 0.17615907, -577248.75, 59171.188, 0.0, 9.999981, 9.9994 
9.8494905e+2, 2.4506019e+2, -597499.75, -582035.9, 100010.336, -0.30367428, 0.1868031, -489459.03, 48963.824, 0.0, 9.999655, 9.999861 
9.849269e+2, 2.55059e+2, -500834.6, -485732.75, 96039.14, -0.22218151, 0.07448494, -396948.16, 43484.52, 0.0, 9.999644, 9.999856 
9.849044e+2, 2.6505893e+2, -399621.75, -361077.84, 78263.625, -0.15924072, 0.07694553, -299748.28, 42682.977, 0.00000001775074, 9.999555, 10.000087 
9.8488176e+2, 2.7505994e+2, -327094.94, -273603.72, 57766.914, -0.10201267, 0.16364233, -236691.3, 7728.2866, 0.000003544514, 9.999373, 10.0001 
9.8485816e+2, 2.8505933e+2, -225336.38, -270553.34, 4360.1978, -0.080108695, 0.13875629, -224919.77, -78495.484, 0.000035208486, 9.999815, 9.999239 
9.8483354e+2, 2.950571e+2, 19408.994, -106683.1, -7731.6284, -0.09954322, -0.011990231, 19881.309, 68326.37, 0.00014828902, 10.000842, 9.999198 
9.8480916e+2, 3.050563e+2, 83512.5, -162566.56, 1165.9185, -0.10170127, 0.044686224, 83518.02, 83518.02, 0.00038101713, 10.001437, 9.998189 
9.8478657e+2, 3.1505418e+2, 183989.55, 1396.7198, 12849.265, 0.0815852, 0.001941264, 184889.33, 184889.33, 0.0007157471, 10.001607, 9.999236 
9.952372e+2, 1.2508337e+2, -1780818.8, -1718475.3, 80705.914, -0.24029738, 0.04582064, -1663130.4, 51059.05, 0.000108580556, 9.999403, 10.00026 
9.952126e+2, 1.3508306e+2, -1579542.6, -1588751.0, 44922.563, -0.13315955, 0.00024089344, -1538988.9, 77207.164, 0.000033028722, 10.000207, 10.000092 
9.951875e+2, 1.4508447e+2, -1411625.8, -1388922.9, 72133.14, -0.07884588, 0.109413005, -1327253.5, 190929.9, 0.0000026281716, 10.000381, 10.000705 
9.951631e+2, 1.5508634e+2, -1360011.6, -1308267.4, 84919.63, -0.022025764, 0.21268432, -1245366.1, 174797.61, 0.00000000019976186, 10.000048, 10.000743 
9.9513835e+2, 1.6508664e+2, -1341108.9, -1324025.5, 93351.41, -0.012604317, 0.20736861, -1238825.8, 83333.97, 0.0, 9.999834, 10.000064 
9.951135e+2, 1.7508543e+2, -1257219.5, -1231217.9, 91288.58, -0.04458954, 0.07343725, -1152009.0, 72162.2, 0.0, 9.999731, 10.000077 
9.950891e+2, 1.8508479e+2, -1268276.4, -1226246.6, 85658.484, -0.05337208, 0.026272083, -1159062.9, -32884.824, 0.0, 9.999151, 9.999721 
9.950655e+2, 1.9508465e+2, -1312882.8, -1196160.9, 26648.658, -0.041854504, 0.032659374, -1190364.5, -162183.13, 0.0, 9.998165, 9.99973 
9.950417e+2, 2.0508534e+2, -1146601.5, -1028535.56, 39478.938, -0.08689463, 0.11676305, -1016551.1, -86373.86, 0.0, 9.998479, 10.000057 
9.9501806e+2, 2.1508673e+2, -817534.5, -818093.56, 63649.92, -0.1837936, 0.24489553, -754163.5, 78003.37, 0.0, 10.00006, 10.000068 
9.9499494e+2, 2.2508685e+2, -667485.0, -722579.94, 82785.11, -0.22637284, 0.26627007, -607784.3, 126381.18, 0.0, 10.000538, 9.99982 
9.9497235e+2, 2.3508567e+2, -658074.9, -665890.75, 103405.3, -0.21641266, 0.16018052, -558503.7, 77669.766, 0.0, 9.999926, 9.99983 
9.9495e+2, 2.4508534e+2, -603639.7, -585478.5, 96243.9, -0.17322008, 0.14748451, -497887.78, 40286.953, 0.0, 9.999612, 9.999859 
9.949279e+2, 2.5508574e+2, -507171.38, -489334.75, 99575.86, -0.09562613, 0.19643214, -398278.63, 41891.867, 0.0, 9.999601, 9.999853 
9.949046e+2, 2.6508495e+2, -435996.0, -428225.5, 68711.75, -0.10449313, 0.1465818, -363289.25, -21113.332, 0.000000028595345, 9.9995165, 9.999644 
9.9488026e+2, 2.7508292e+2, -367374.06, -345054.72, 55398.652, -0.19372986, -0.027212538, -299702.9, -55511.332, 0.000003781716, 9.999318, 9.999638 
9.9485666e+2, 2.8508136e+2, -251057.38, -310276.6, 41164.496, -0.22064503, -0.108480185, -229959.55, -83754.945, 0.000036350866, 9.999759, 9.998992 
9.948335e+2, 2.9508027e+2, 967.77686, -139520.27, 36095.883, -0.18834803, -0.12470862, 9699.292, 57914.617, 0.00015374523, 10.000822, 9.99898 
9.9480927e+2, 3.050808e+2, 110897.48, -101834.74, 6545.2896, -0.24385558, 0.057467964, 111098.67, 111098.67, 0.0003968945, 10.001421, 9.998612 
9.947851e+2, 3.1508076e+2, 216383.0, 94623.92, 28378.08, -0.24256581, 0.17916596, 222672.16, 222672.16, 0.00074672204, 10.001499, 9.999926 
1.005237e+3, 1.2510921e+2, -1724662.3, -1668023.5, 39099.086, -0.20461108, 0.058311276, -1648065.3, 65871.04, 0.00014134821, 9.9997, 10.000457 
1.0052116e+3, 1.3510843e+2, -1732474.0, -1637550.1, -27171.023, -0.18143202, -0.05919747, -1630323.0, -14377.636, 0.000046426092, 9.999054, 10.00031 
1.0051871e+3, 1.4510977e+2, -1579361.9, -1488530.0, 11499.122, -0.100235805, 0.0419728, -1487096.9, 30836.457, 0.00000474816, 9.999324, 10.000526 
1.0051638e+3, 1.5511195e+2, -1316311.3, -1309754.4, -4092.0542, 0.033459686, 0.19806495, -1307789.5, 112123.47, 0.000000004412824, 10.00045, 10.000539 
1.0051392e+3, 1.6511232e+2, -1226301.3, -1273067.9, -25076.305, 0.051906355, 0.2103641, -1215397.5, 106511.234, 0.0, 10.000639, 10.000029 
1.00511335e+3, 1.7511092e+2, -1226751.0, -1220483.5, -26314.264, -0.035428714, 0.061535094, -1197117.0, 26803.252, 0.0, 9.99996, 10.000041 
1.00508854e+3, 1.8511008e+2, -1175190.3, -1230255.1, 34633.215, -0.06514154, 0.014740765, -1158479.1, -32549.703, 0.0, 9.999997, 9.999287 
1.00506485e+3, 1.9510964e+2, -984355.3, -1086542.4, 60106.613, -0.04246284, 0.036803853, -956560.6, 71376.76, 0.0, 10.000632, 9.999293 
1.0050412e+3, 2.0511037e+2, -858180.5, -875432.5, 124068.09, -0.07667036, 0.13998654, -742438.9, 187494.38, 0.0, 10.0004015, 10.000179 
1.0050179e+3, 2.1511213e+2, -917205.0, -851592.8, 109362.11, -0.16265874, 0.29208332, -770222.25, 61695.92, 0.0, 9.999319, 10.000191 
1.004995e+3, 2.2511198e+2, -859284.44, -796138.0, 102166.81, -0.18854459, 0.27228323, -720777.0, 13140.535, 0.0, 9.99914, 9.999988 
1.00497276e+3, 2.3510987e+2, -664206.2, -651163.9, 93832.664, -0.15486829, 0.05661765, -563626.06, 72305.695, 0.0, 9.999804, 9.9999895 
1.0049502e+3, 2.4510935e+2, -574508.7, -620011.0, 62047.86, -0.12906277, 0.038368005, -531172.4, 6762.798, 0.0, 10.000015, 9.99943 
1.00492746e+3, 2.551103e+2, -507467.7, -533795.25, 27409.469, -0.105554715, 0.18381509, -490224.84, -50296.125, 0.0, 9.999795, 9.999453 
1.004904e+3, 2.651095e+2, -395411.78, -436645.25, 4203.4775, -0.13086602, 0.16510922, -394987.63, -53052.164, 0.000000017098808, 9.999929, 9.999381 
1.0048799e+3, 2.7510688e+2, -227479.1, -306214.97, -2906.2473, -0.2068534, -0.042089753, -227371.95, 16584.408, 0.000003428396, 10.000409, 9.999374 
1.00485675e+3, 2.851052e+2, -120679.84, -240102.3, 24173.58, -0.22115226, -0.12665614, -115972.19, 29997.79, 0.00003625069, 10.000616, 9.999062 
1.0048343e+3, 2.9510447e+2, -38346.746, -150767.53, 35299.633, -0.16852313, -0.11338137, -28181.898, 19794.473, 0.00015665985, 10.000514, 9.99905 
1.0048103e+3, 3.0510473e+2, 4127.528, -196116.44, -12827.274, -0.24419911, 0.056573447, 4945.876, 4945.876, 0.0004073917, 10.000865, 9.998235 
1.0047858e+3, 3.1510434e+2, 224900.0, 82390.75, -65901.58, -0.3135118, 0.17960966, 250703.3, 250703.3, 0.0007688647, 10.001618, 9.999787 
1.0152373e+3, 1.2513441e+2, -1715977.5, -1657062.5, 18691.01, -0.16906811, 0.07776882, -1651633.0, 62061.125, 0.0001798155, 9.999721, 10.0005245 
1.0152097e+3, 1.3513467e+2, -1713765.1, -1617303.1, -46897.992, -0.2865327, 0.050794233, -1598261.1, 17428.766, 0.000062927356, 9.999126, 10.000417 
1.0151858e+3, 1.4513525e+2, -1605460.3, -1554111.3, 48926.23, -0.17213799, 0.09245664, -1524532.3, -6847.8364, 0.000007860604, 9.9993725, 10.000054 
1.01516485e+3, 1.5513489e+2, -1352249.1, -1378999.4, 38821.08, 0.08658474, 0.042367183, -1324563.6, 95125.94, 0.000000028517778, 10.000429, 10.0000725 
1.01514004e+3, 1.6513522e+2, -1223350.3, -1265157.8, -54896.64, 0.066793524, 0.07272074, -1185512.1, 136174.67, 0.0, 10.000626, 10.000091 
1.0151117e+3, 1.7513615e+2, -1215537.0, -1206733.6, -47073.33, -0.20451652, 0.14792418, -1163856.6, 59820.367, 0.0, 9.999995, 10.000119 
1.0150863e+3, 1.8513635e+2, -1122713.5, -1120688.1, 54519.887, -0.2923996, 0.16331962, -1067171.5, 58502.938, 0.0, 9.999995, 10.00004 
1.0150638e+3, 1.9513573e+2, -935776.94, -978471.8, 85689.57, -0.21090609, 0.0906669, -868815.75, 158864.08, 0.0, 10.000599, 10.0000515 
1.0150412e+3, 2.0513572e+2, -886662.5, -923473.4, 78462.63, -0.13256983, 0.09721382, -824475.5, 105204.07, 0.0, 10.000355, 9.999873 
1.0150183e+3, 2.1513619e+2, -942907.8, -898408.1, 71999.26, -0.05808919, 0.1511918, -845299.2, -13624.464, 0.0, 9.9992895, 9.999885 
1.0149956e+3, 2.2513533e+2, -875068.25, -814651.3, 122420.0, -0.06005149, 0.08236855, -718767.75, 14911.861, 0.0, 9.999082, 9.999887 
1.01497285e+3, 2.3513313e+2, -680684.75, -671463.0, 121773.695, -0.13366927, -0.13306715, -554212.94, 81481.64, 0.0, 9.999744, 9.999878 
1.01494946e+3, 2.4513228e+2, -642534.44, -747473.5, 48870.08, -0.21114394, -0.13615096, -623300.8, -85597.266, 0.0, 9.999956, 9.998583 
1.0149254e+3, 2.5513262e+2, -571913.75, -659507.25, 22075.701, -0.2908659, 0.030759359, -566664.7, -126956.83, 0.0, 9.999758, 9.998609 
1.0149025e+3, 2.651325e+2, -406584.9, -450343.0, 19897.14, -0.2733075, 0.12493024, -398890.5, -57179.38, 0.000000011022683, 9.999888, 9.999308 
1.01488076e+3, 2.751318e+2, -235318.73, -316707.22, 20640.717, -0.16736066, 0.12041502, -230383.38, 13330.905, 0.0000031084232, 10.000382, 9.999316 
1.01485856e+3, 2.8513095e+2, -98193.23, -184255.27, 16964.361, -0.10518657, 0.10021465, -94969.97, 50749.426, 0.000035475463, 10.000581, 9.999458 
1.0148359e+3, 2.9512993e+2, -25745.727, -104920.945, 35852.406, -0.07457479, 0.04207168, -11923.842, 35802.832, 0.000157892, 10.000431, 9.999403 
1.0148123e+3, 3.0512804e+2, -94762.06, -381010.47, 17082.016, -0.13361695, 0.046468806, -93746.29, -93746.29, 0.00041497048, 10.00078, 9.9970045 
1.014789e+3, 3.1512436e+2, 134611.89, -79649.96, -27882.125, -0.17578606, -0.037073, 138180.77, 138180.77, 0.00078651373, 10.001517, 9.998719 
1.02523744e+3, 1.2516056e+2, -1844776.6, -1767159.9, 68164.26, -0.07979911, 0.16421029, -1727530.8, -14089.461, 0.00022439056, 9.999039, 10.0001 
1.02520995e+3, 1.3516048e+2, -1546060.5, -1580463.9, -51327.176, -0.24262257, 0.14202769, -1509129.3, 106311.28, 0.0000828242, 10.000457, 10.000031 
1.0251858e+3, 1.4516038e+2, -1506523.9, -1553233.9, 10832.621, -0.1432898, 0.15611061, -1504134.0, 13307.574, 0.000012107546, 10.000249, 9.999637 
1.0251638e+3, 1.5515915e+2, -1641396.6, -1562895.9, -627.01746, 0.032836203, 0.05927345, -1562890.9, -143435.6, 0.00000009714164, 9.998632, 9.999676 
1.025139e+3, 1.651592e+2, -1489074.6, -1367885.5, -48312.008, 0.0029508134, 0.068561405, -1350983.3, -29528.766, 0.0, 9.998696, 10.000314 
1.0251118e+3, 1.751604e+2, -1153677.5, -1153824.8, -39515.152, -0.20402096, 0.15024169, -1114235.9, 109204.89, 0.0, 10.000318, 10.00033 
1.0250868e+3, 1.8516088e+2, -1014496.0, -1050175.5, 27199.07, -0.27456024, 0.17566192, -999808.1, 125626.31, 0.0, 10.000664, 10.000199 
1.02506384e+3, 1.9516055e+2, -1037617.8, -1009049.3, 7354.848, -0.22479999, 0.117517814, -1007267.06, 20168.791, 0.0, 9.999829, 10.000209 
1.0250413e+3, 2.0516005e+2, -957245.94, -999381.7, -11024.616, -0.13874201, 0.08559517, -954535.7, -25096.23, 0.0, 10.000045, 9.999503 
1.0250189e+3, 2.1515928e+2, -690491.8, -818897.8, -31444.771, -0.016041616, 0.053511098, -683204.94, 148240.89, 0.0, 10.001201, 9.999512 
1.024996e+3, 2.251583e+2, -609043.56, -733298.5, -1860.7244, -0.015449075, 0.010132396, -609015.7, 124437.41, 0.0, 10.001107, 9.999472 
1.02497265e+3, 2.3515704e+2, -704182.75, -728742.7, -32618.484, -0.12730926, -0.070249945, -681609.3, -46147.332, 0.0, 9.999784, 9.999467 
1.02494895e+3, 2.4515608e+2, -694105.3, -779060.6, -54221.246, -0.23245169, -0.060681205, -667704.1, -130231.41, 0.0, 9.999644, 9.99851 
1.02492504e+3, 2.5515532e+2, -457678.78, -613611.2, -34330.242, -0.33354273, 0.0051850663, -450455.25, -10968.941, 0.0, 10.000588, 9.998521 
1.0249025e+3, 2.651549e+2, -261793.56, -373774.22, -7135.9834, -0.3167233, 0.073682666, -261340.66, 80150.37, 0.00000001218603, 10.00084, 9.99938 
1.024881e+3, 2.751548e+2, -228108.77, -303595.63, -1168.1877, -0.18527777, 0.116452076, -228090.7, 15397.197, 0.0000027111198, 10.000388, 9.999403 
1.024859e+3, 2.851541e+2, -175301.95, -270841.9, -29141.48, -0.09596125, 0.13105322, -167114.84, -21622.537, 0.00003356216, 10.00027, 9.999011 
1.0248365e+3, 2.9515287e+2, -55265.766, -167136.56, -83901.07, -0.04067134, 0.09677892, -10363.876, 37140.375, 0.00015613875, 10.000441, 9.998969 
1.0248136e+3, 3.0515036e+2, -49623.152, -341167.34, -38526.914, -0.095256776, 0.046663534, -44617.84, -44617.84, 0.00041835016, 10.001013, 9.997169 
1.0247909e+3, 3.1514624e+2, 200079.33, -21735.941, 9792.786, -0.14257644, -0.09576188, 200510.81, 200510.81, 0.00079985755, 10.001851, 9.998957 
1.03523746e+3, 1.2518765e+2, -1902961.3, -1893818.4, 110720.98, -0.014770964, 0.31820196, -1787574.5, -74397.25, 0.00027553758, 9.999071, 9.999213 
1.0352119e+3, 1.3518596e+2, -1609060.4, -1702099.6, -1550.1608, -0.091660164, 0.21993037, -1609034.6, 6160.8164, 0.000106410545, 10.000426, 9.999209 
1.035187e+3, 1.4518532e+2, -1529537.4, -1603466.9, -53732.27, -0.058668256, 0.23806344, -1501282.9, 15920.09, 0.000017580353, 10.000254, 9.999292 
1.03516065e+3, 1.5518469e+2, -1652071.8, -1602502.3, -54369.87, -0.1597356, 0.23435521, -1567534.5, -148324.58, 0.00000023822265, 9.998706, 9.999371 
1.0351361e+3, 1.651842e+2, -1455421.9, -1313977.4, 8635.058, -0.16703789, 0.1863602, -1313452.3, 7759.8643, 0.0, 9.99876, 10.000655 
1.03511356e+3, 1.7518374e+2, -1130161.3, -1107730.0, 22705.613, -0.071819186, 0.06957216, -1093621.0, 129589.54, 0.0, 10.000325, 10.000645 
1.0350897e+3, 1.8518378e+2, -1048669.8, -1117332.6, -9287.344, -0.057626437, 0.05808247, -1047435.75, 77772.19, 0.0, 10.000647, 9.999745 
1.0350648e+3, 1.9518416e+2, -1069526.6, -1075473.4, -21235.822, -0.122057155, 0.11319998, -1051057.0, -23851.932, 0.0, 9.999827, 9.999754 
1.0350415e+3, 2.051834e+2, -991872.8, -1064897.8, 27073.06, -0.127053, 0.10095734, -982930.8, -53718.066, 0.0, 10.000017, 9.999067 
1.0350195e+3, 2.1518148e+2, -726222.3, -885429.44, 13963.498, -0.074948005, -0.0036102682, -725006.9, 106224.27, 0.0, 10.001165, 9.999072 
1.0349964e+3, 2.2518094e+2, -669953.25, -845236.94, -56778.754, -0.09149212, 0.05527207, -653168.5, 80069.28, 0.0, 10.001045, 9.998733 
1.0349721e+3, 2.351816e+2, -759597.4, -834752.2, -78046.97, -0.17341344, 0.24022356, -710552.6, -75318.74, 0.0, 9.999743, 9.998758 
1.03494875e+3, 2.4518074e+2, -655557.4, -687642.1, -21825.373, -0.22977397, 0.2618496, -644512.75, -107270.08, 0.0, 9.999594, 9.999163 
1.0349264e+3, 2.551784e+2, -413164.88, -519664.94, 5511.728, -0.26193532, 0.103304476, -412880.38, 26383.777, 0.0, 10.000577, 9.999174 
1.0349036e+3, 2.651768e+2, -249991.7, -340967.7, -27294.123, -0.289002, 0.00791394, -242431.34, 98843.94, 0.00000000560088, 10.000808, 9.99962 
1.0348803e+3, 2.7517578e+2, -223213.13, -277583.44, -13059.417, -0.3067894, -0.06472135, -220239.03, 23038.984, 0.0000022721786, 10.00032, 9.999615 
1.0348579e+3, 2.8517452e+2, -282213.28, -475048.63, -24972.414, -0.24202073, -0.047249105, -279031.8, -133741.28, 0.00003115889, 10.000194, 9.997645 
1.0348364e+3, 2.951731e+2, -151585.48, -360393.53, -70828.03, -0.108807884, 0.03608153, -129827.67, -82515.92, 0.00015172908, 10.000408, 9.997658 
1.0348138e+3, 3.051715e+2, 61744.47, -100420.95, -7319.834, -0.16797529, 0.055760637, 62074.2, 62074.2, 0.00041655955, 10.000979, 9.998834 
1.03479125e+3, 3.151701e+2, 298329.3, 212382.5, 53145.2, -0.31158367, 0.023594921, 323701.53, 323701.53, 0.00080520567, 10.001734, 10.000617 
1.0452364e+3, 1.2521113e+2, -1974096.8, -1900403.6, 27801.951, 0.016003242, 0.29468316, -1891091.6, -178145.67, 0.0003338259, 9.998458, 9.999467 
1.0452119e+3, 1.3520955e+2, -1779692.4, -1751177.4, -14884.87, -0.06335394, 0.17659314, -1744823.3, -129860.32, 0.00013404706, 9.999104, 9.999515 
1.0451877e+3, 1.4520915e+2, -1565742.4, -1614754.6, -46606.41, 0.007039757, 0.20115262, -1537592.0, -20624.174, 0.000024406929, 9.999981, 9.999348 
1.04516074e+3, 1.5520912e+2, -1309348.6, -1434560.0, -30370.395, -0.12885626, 0.25222987, -1302371.0, 116597.58, 0.0000004785213, 10.001043, 9.999399 
1.0451361e+3, 1.6520844e+2, -1173215.5, -1224379.6, 37129.746, -0.14078473, 0.20764682, -1153708.1, 167264.97, 0.0, 10.000907, 10.00023 
1.045114e+3, 1.7520714e+2, -1244906.8, -1207472.8, -10091.185, -0.020479308, 0.04550099, -1204925.8, 18055.98, 0.0, 9.99974, 10.000235 
1.0450905e+3, 1.8520689e+2, -1174325.6, -1208545.8, -50348.05, -0.0038696185, 0.041009877, -1138259.8, -13276.77, 0.0, 9.999912, 9.999475 
1.0450657e+3, 1.9520761e+2, -878462.06, -1013770.94, -55558.176, -0.08691722, 0.15646553, -858573.2, 168404.53, 0.0, 10.0012665, 9.999486 
1.045042e+3, 2.0520693e+2, -812653.9, -985099.2, 9400.609, -0.12933111, 0.16752, -812142.94, 116842.336, 0.0, 10.001281, 9.999003 
1.04501955e+3, 2.152048e+2, -893038.8, -971398.1, 15890.367, -0.13107033, 0.048519056, -889939.06, -58933.105, 0.0, 10.000051, 9.999017 
1.04499646e+3, 2.2520414e+2, -793979.75, -902885.2, -3407.2998, -0.14663865, 0.09955591, -793873.25, -60859.523, 0.0, 10.000183, 9.998752 
1.04497254e+3, 2.3520483e+2, -495316.63, -706973.56, 20884.834, -0.17646588, 0.28589925, -493275.53, 141734.44, 0.0, 10.0015545, 9.998764 
1.0449496e+3, 2.4520396e+2, -398010.97, -567339.9, 71146.26, -0.17988493, 0.30800962, -372086.72, 164930.97, 0.0, 10.001365, 9.999143 
1.0449276e+3, 2.5520158e+2, -539534.4, -582201.8, 41533.727, -0.15691985, 0.14709534, -514175.72, -75138.85, 0.0, 9.999711, 9.999162 
1.0449045e+3, 2.6519954e+2, -497201.34, -517635.7, -22595.682, -0.1926217, 0.036521513, -482620.22, -141567.86, 0.0000000009945924, 9.999363, 9.9991 
1.0448806e+3, 2.7519774e+2, -279105.25, -363223.8, -76640.35, -0.27904353, -0.06153316, -233741.84, 9323.859, 0.0000020282196, 10.000189, 9.999088 
1.044858e+3, 2.8519624e+2, -237236.5, -454142.16, -59345.742, -0.25256673, -0.044024944, -222061.13, -76979.35, 0.000028619394, 10.000499, 9.997643 
1.0448366e+3, 2.9519504e+2, -169225.45, -366726.5, -10750.591, -0.12077698, 0.060932707, -168641.98, -121541.72, 0.00014518836, 10.0002775, 9.997677 
1.044814e+3, 3.0519378e+2, -86686.19, -103425.484, 64288.703, -0.1824654, 0.08316691, -30224.604, -30224.604, 0.0004080561, 9.999666, 9.999445 
1.0447911e+3, 3.1519356e+2, -107161.92, 81660.56, 30806.098, -0.33105156, 0.10796051, 86559.43, 86559.43, 0.00079624756, 9.998658, 10.001206 
1.0552342e+3, 1.2523139e+2, -1871033.8, -1700991.9, 37164.69, -0.066346936, 0.10211751, -1693223.9, 19519.86, 0.00039971265, 9.998523, 10.0008 
1.05520986e+3, 1.3523152e+2, -1681006.8, -1553414.9, 11881.462, -0.19050893, 0.018180385, -1552318.0, 62423.11, 0.00016604259, 9.999135, 10.0008545 
1.0551879e+3, 1.4523214e+2, -1536832.1, -1558579.9, -12652.375, 0.020397568, 0.05881281, -1531023.0, -14288.703, 0.000032768716, 9.999992, 9.999729 
1.055164e+3, 1.5523268e+2, -1288570.3, -1386802.4, 8904.813, 0.08047053, 0.13031152, -1287769.6, 130959.38, 0.0000008393984, 10.001021, 9.999738 
1.0551389e+3, 1.6523215e+2, -1257432.4, -1397327.5, -10803.229, 0.032872964, 0.14268866, -1256603.1, 64132.746, 0.0, 10.000897, 9.999047 
1.05511315e+3, 1.7523056e+2, -1319611.4, -1371825.3, -48954.875, -0.08436866, 0.0710915, -1290237.3, -67483.125, 0.0, 9.999778, 9.999088 
1.055089e+3, 1.8523026e+2, -1178658.3, -1217891.6, -4152.1826, -0.14043486, 0.11889953, -1178223.6, -53464.6, 0.0, 9.999914, 9.99941 
1.0550663e+3, 1.9523102e+2, -887987.4, -1025384.8, -3359.7576, -0.15275647, 0.24679975, -887905.25, 138847.45, 0.0, 10.001232, 9.999422 
1.0550428e+3, 2.052307e+2, -798032.9, -947530.9, -41953.848, -0.17904483, 0.28282636, -787064.06, 141692.22, 0.0, 10.001246, 9.99928 
1.0550188e+3, 2.1522926e+2, -877673.06, -932248.0, -26195.328, -0.21433644, 0.20456283, -867134.6, -36364.66, 0.0, 10.000015, 9.999305 
1.05499595e+3, 2.2522798e+2, -750204.2, -800389.9, 44693.39, -0.2113229, 0.14115083, -724041.3, 8739.441, 0.0, 10.000132, 9.99948 
1.0549743e+3, 2.3522677e+2, -450014.47, -606307.1, 74323.586, -0.17173193, 0.063109204, -420314.4, 214475.42, 0.0, 10.001524, 9.999469 
1.0549516e+3, 2.4522577e+2, -452390.7, -671746.1, 4770.4087, -0.11762707, 0.073856, -452286.97, 84510.25, 0.0, 10.0013275, 9.998444 
1.05492845e+3, 2.5522488e+2, -596746.0, -689158.6, -15253.706, -0.04901779, 0.13342263, -594293.3, -155489.27, 0.0, 9.99966, 9.998453 
1.0549053e+3, 2.652232e+2, -600261.2, -716840.5, 7372.9717, -0.056810256, 0.16007805, -599796.75, -258974.55, 0.000000000012280949, 9.9993, 9.997761 
1.0548823e+3, 2.7522075e+2, -374920.6, -552430.5, -39725.727, -0.13846159, 0.13043621, -366435.78, -123584.61, 0.0000016155456, 10.000148, 9.997808 
1.0548596e+3, 2.8521937e+2, -142736.97, -250514.02, -69867.28, -0.15764163, 0.14918356, -108390.516, 36475.27, 0.00002530106, 10.000465, 9.999059 
1.054837e+3, 2.9521886e+2, -80275.98, -168409.38, -12030.331, -0.11122523, 0.18066111, -78663.33, -31795.156, 0.00013660942, 10.000221, 9.999066 
1.05481386e+3, 3.0521724e+2, -136070.77, -188626.75, 25227.463, -0.16787046, 0.12935042, -125921.32, -125921.32, 0.00039378775, 9.999586, 9.998901 
1.05479054e+3, 3.1521633e+2, -168358.2, -10617.03, 4588.549, -0.2692767, 0.1375643, -10483.666, -10483.666, 0.00077582727, 9.998509, 10.000645 
1.0652335e+3, 1.2525338e+2, -1680834.9, -1618321.1, 44011.918, -0.053343687, 0.06070415, -1595596.1, 116930.41, 0.00047318285, 9.9998665, 10.000721 
1.06520884e+3, 1.3525383e+2, -1718405.6, -1578463.1, -81102.1, -0.18000746, 0.0170433, -1541319.8, 73202.38, 0.00020250746, 9.998906, 10.000795 
1.0651876e+3, 1.452546e+2, -1690154.5, -1551386.3, -102425.586, 0.07266757, 0.03603654, -1497056.4, 19457.473, 0.000042863663, 9.998596, 10.000447 
1.06516406e+3, 1.5525536e+2, -1544420.1, -1433474.3, -67461.41, 0.097851224, 0.057056393, -1401607.1, 16897.572, 0.0000013547858, 9.9989395, 10.000418 
1.06513895e+3, 1.6525528e+2, -1456405.1, -1542235.0, -62412.875, 0.013745856, 0.10509583, -1423576.8, -103068.8, 0.0, 9.999742, 9.998612 
1.06511295e+3, 1.7525445e+2, -1183443.9, -1354940.3, -53772.887, -0.13417608, 0.15386559, -1167978.0, 54544.344, 0.0, 10.000922, 9.998656 
1.06508896e+3, 1.8525383e+2, -1034477.4, -1157862.4, 25962.098, -0.1794232, 0.19534656, -1029237.1, 95293.92, 0.0, 10.000946, 9.999325 
1.0650669e+3, 1.9525328e+2, -1084120.4, -1130426.5, 17383.877, -0.14872152, 0.20096429, -1078320.6, -51785.215, 0.0, 9.9999275, 9.999332 
1.0650434e+3, 2.0525284e+2, -991664.2, -1039396.06, -36481.547, -0.1747517, 0.22834311, -971935.56, -43396.008, 0.0, 9.999912, 9.99929 
1.0650189e+3, 2.152524e+2, -760396.1, -873657.6, -48301.527, -0.24527845, 0.24876925, -742595.2, 87948.77, 0.0, 10.000815, 9.999319 
1.0649962e+3, 2.2525115e+2, -651030.9, -767190.1, 4455.15, -0.23345329, 0.19539022, -650860.25, 81694.24, 0.0, 10.000877, 9.99935 
1.0649752e+3, 2.3524909e+2, -659048.56, -719973.94, -36870.527, -0.14734541, 0.045159098, -641684.4, -7112.656, 0.0, 10.000149, 9.999351 
1.06495276e+3, 2.4524781e+2, -570410.75, -733763.75, -123097.51, -0.10309949, 0.035889946, -504357.6, 32224.217, 0.0, 10.00055, 9.998387 
1.0649287e+3, 2.552472e+2, -265253.34, -537340.7, -105414.01, -0.097831585, 0.12520616, -229192.42, 209393.97, 0.0, 10.001976, 9.998377 
1.0649057e+3, 2.6524565e+2, -288805.84, -636280.8, -36242.71, -0.06689256, 0.19808266, -285065.88, 55539.313, 0.0, 10.001738, 9.99714 
1.06488355e+3, 2.7524316e+2, -443820.06, -651164.7, -35481.52, -0.014180104, 0.22746891, -437916.44, -195279.02, 0.00000091217555, 9.999959, 9.997221 
1.06486075e+3, 2.8524157e+2, -233680.8, -278413.03, -47107.293, -0.044673838, 0.2515163, -203899.63, -59245.926, 0.00002073869, 9.99978, 9.999196 
1.0648373e+3, 2.9524076e+2, 53553.902, -91208.4, -97670.28, -0.14396416, 0.23829965, 102739.664, 149396.23, 0.00012474366, 10.00108, 9.999186 
1.06481396e+3, 3.0523863e+2, 62722.22, -147884.27, -153998.58, -0.18116023, 0.1547252, 143978.17, 143978.17, 0.00037290223, 10.001182, 9.998411 
1.0647914e+3, 3.152375e+2, 32932.32, 29344.166, -183488.17, -0.1144973, 0.18310973, 214635.19, 214635.19, 0.00074591686, 10.000121, 10.000145 
1.07523374e+3, 1.2527698e+2, -1772154.8, -1812239.3, -20339.52, -0.027983533, 0.1515549, -1763642.0, -51346.797, 0.00055371417, 9.999894, 9.999373 
1.075209e+3, 1.352766e+2, -1810567.4, -1766436.3, -110635.85, -0.068677664, 0.1614332, -1675687.0, -61382.137, 0.00024334127, 9.9989, 9.999504 
1.0751869e+3, 1.4527665e+2, -1615753.3, -1407241.5, -89596.15, 0.13038729, 0.12386791, -1374031.9, 142272.66, 0.00005483326, 9.998631, 10.001425 
1.075161e+3, 1.5527721e+2, -1468676.8, -1287587.9, -48953.535, -0.10255102, 0.024641225, -1275201.5, 143092.86, 0.000002073113, 9.998985, 10.001398 
1.0751364e+3, 1.6527802e+2, -1434014.6, -1501058.8, -22073.338, -0.2198498, 0.09826039, -1427399.9, -107112.16, 0.0000000000166348, 9.9997635, 9.998884 
1.0751133e+3, 1.7527892e+2, -1163130.8, -1315019.8, -7980.6665, -0.19575286, 0.2916595, -1162712.6, 59572.957, 0.0, 10.00093, 9.998926 
1.0750903e+3, 1.852777e+2, -1046755.7, -1179297.1, -16656.592, -0.15539688, 0.26858214, -1044694.5, 79603.68, 0.0, 10.00093, 9.9991865 
1.0750673e+3, 1.9527452e+2, -1093035.3, -1148113.3, -17298.64, -0.11261796, 0.02462337, -1088052.9, -61728.008, 0.0, 9.999925, 9.999212 
1.0750436e+3, 2.0527348e+2, -1011617.8, -1078738.4, -7585.5225, -0.15116228, 0.012826364, -1010771.2, -82437.484, 0.0, 9.9999, 9.999029 
1.0750197e+3, 2.1527429e+2, -785226.1, -917473.44, -13051.939, -0.25726888, 0.18317117, -783950.25, 46377.043, 0.0, 10.000777, 9.999039 
1.07499704e+3, 2.2527374e+2, -728296.3, -912819.6, -27823.652, -0.24627101, 0.26232177, -724192.2, 8142.507, 0.0, 10.000815, 9.99838 
1.0749756e+3, 2.3527192e+2, -733779.6, -859528.25, -59590.883, -0.13142218, 0.23334774, -710026.8, -75671.8, 0.0, 10.000084, 9.998425 
1.0749526e+3, 2.4527018e+2, -539324.6, -657595.9, -71389.68, -0.16969357, 0.19495802, -505759.1, 30612.037, 0.0, 10.000497, 9.998938 
1.0749282e+3, 2.5526845e+2, -229401.0, -460224.63, -49172.41, -0.34231368, 0.12066982, -219362.38, 219021.84, 0.0, 10.00196, 9.998918 
1.0749056e+3, 2.6526672e+2, -283278.25, -619649.44, -106275.58, -0.2571744, 0.14461899, -252514.38, 87887.44, 0.000000000031670343, 10.001716, 9.997268 
1.0748844e+3, 2.752649e+2, -445112.97, -641367.9, -94483.7, 0.061458778, 0.22682011, -407019.4, -164595.11, 0.00000057346807, 9.999906, 9.997316 
1.0748616e+3, 2.852629e+2, -324212.3, -457093.63, -1130.6793, 0.048847016, 0.26534793, -324202.72, -179757.16, 0.00001665899, 9.999737, 9.997991 
1.0748373e+3, 2.952607e+2, -32792.92, -265592.6, -44387.703, -0.263495, 0.23903495, -24616.717, 21849.248, 0.000111651505, 10.001057, 9.998 
1.0748144e+3, 3.052579e+2, 27907.16, -216174.13, -192906.2, -0.26346818, 0.16211139, 134135.48, 134135.48, 0.00034802445, 10.001168, 9.997949 
1.0747935e+3, 3.1525677e+2, -14513.831, -51674.57, -209108.06, 0.069027126, 0.24529712, 176837.73, 176837.73, 0.00071029784, 10.000052, 9.999622 
1.0852338e+3, 1.2530063e+2, -1781492.3, -1806159.9, 29155.813, -0.0078858035, 0.118913144, -1762168.8, -50106.844, 0.00064071716, 9.999791, 9.999463 
1.0852081e+3, 1.3530044e+2, -1785678.3, -1752449.1, 51990.68, -0.039110035, 0.14445424, -1714482.8, -100414.02, 0.00028839763, 9.999066, 9.999518 
1.0851859e+3, 1.4530036e+2, -1595577.3, -1482754.0, 116492.58, 0.14478695, 0.13280563, -1409733.0, 106338.5, 0.00006873226, 9.999152, 10.000649 
1.0851594e+3, 1.5530069e+2, -1384706.1, -1332080.5, 18536.14, -0.20076013, 0.09127426, -1326207.1, 91860.555, 0.0000030594845, 9.999933, 10.000634 
1.08513534e+3, 1.653013e+2, -1350029.3, -1410212.3, -8787.602, -0.30757427, 0.1601889, -1348772.4, -28709.393, 0.000000000186287, 10.000125, 9.9993305 
1.085114e+3, 1.7530209e+2, -1297171.8, -1332674.4, 8971.882, -0.16242479, 0.2975913, -1295033.3, -72974.84, 0.0, 9.999811, 9.999342 
1.08509146e+3, 1.8530083e+2, -1153314.6, -1249259.0, 1358.3053, -0.08922532, 0.25809124, -1153295.5, -29224.938, 0.0, 10.0002775, 9.99902 
1.085068e+3, 1.9529767e+2, -889666.8, -1069147.5, -7942.524, -0.09394695, 0.033039086, -889316.0, 136781.97, 0.0, 10.001409, 9.999037 
1.0850447e+3, 2.0529631e+2, -757689.8, -985556.56, 13773.041, -0.12605494, 0.011371971, -756860.3, 171250.0, 0.0, 10.001776, 9.99876 
1.0850215e+3, 2.1529646e+2, -710200.56, -912673.0, -1547.6407, -0.17946222, 0.14245641, -710188.75, 119921.336, 0.0, 10.0014305, 9.998755 
1.08499855e+3, 2.2529584e+2, -723070.5, -936647.0, -14442.932, -0.17548044, 0.2407013, -722098.2, 10020.581, 0.0, 10.000963, 9.998146 
1.084976e+3, 2.3529448e+2, -706621.44, -872241.0, 868.2375, -0.12032081, 0.283152, -706616.9, -72480.91, 0.0, 10.0003805, 9.998194 
1.0849529e+3, 2.452927e+2, -633590.0, -733852.9, 35238.637, -0.16388619, 0.26452878, -622444.0, -86289.58, 0.0, 9.999978, 9.998666 
1.08492956e+3, 2.5529045e+2, -571973.25, -650381.25, -11876.466, -0.29461387, 0.161739, -570213.75, -132038.92, 0.0, 9.999719, 9.998689 
1.08490676e+3, 2.652887e+2, -418870.72, -604800.75, -93657.49, -0.24267127, 0.16035996, -379872.78, -39682.113, 0.000000020287489, 10.00044, 9.997982 
1.0848844e+3, 2.752874e+2, -91035.414, -394588.13, -44878.406, -0.022255965, 0.2204958, -84539.43, 157663.83, 0.0000009638229, 10.002012, 9.9979925 
1.0848617e+3, 2.852852e+2, -91093.76, -419724.63, 90370.18, -0.0020769157, 0.24524388, -67882.31, 76342.78, 0.000015514439, 10.001664, 9.997316 
1.0848385e+3, 2.952823e+2, -293779.9, -459873.44, 77735.89, -0.16196352, 0.2113768, -263074.16, -216818.83, 0.000103128805, 9.999571, 9.997375 
1.08481556e+3, 3.052791e+2, -223065.66, -345947.72, -5206.817, -0.17829344, 0.13438097, -222845.42, -222845.42, 0.00032888047, 9.999491, 9.997863 
1.08479306e+3, 3.152782e+2, 142742.9, 15087.454, -4520.9775, -0.023581926, 0.24462715, 142902.81, 142902.81, 0.0006831545, 10.001187, 9.999523 
1.09523326e+3, 1.2532455e+2, -1685203.6, -1604780.6, -36904.652, -0.052891877, -0.026603857, -1590412.6, 121411.74, 0.000734217, 9.99978, 10.000853 
1.09520644e+3, 1.3532554e+2, -1694335.9, -1574699.5, 26444.482, -0.12457131, -0.015749352, -1569114.9, 44697.832, 0.00033773432, 9.999117, 10.000714 
1.09518446e+3, 1.4532577e+2, -1757691.6, -1836821.9, 140596.56, 0.0756161, 0.072293155, -1651199.3, -135384.47, 0.0000845864, 9.999228, 9.998185 
1.0951592e+3, 1.5532576e+2, -1548583.3, -1677698.8, 51243.39, -0.2305018, 0.24727568, -1530717.8, -112893.086, 0.0000043925156, 9.999961, 9.998249 
1.0951359e+3, 1.653252e+2, -1304643.6, -1323332.8, -23252.191, -0.2857756, 0.28420037, -1288928.5, 30904.36, 0.0000000006358386, 10.00015, 9.999918 
1.0951147e+3, 1.7532405e+2, -1248870.5, -1245276.1, 1986.9044, -0.07157055, 0.16871575, -1244394.3, -22553.633, 0.0, 9.999858, 9.999923 
1.0950925e+3, 1.853233e+2, -1168950.6, -1278028.6, 39553.133, -0.018276978, 0.1629915, -1156117.9, -32270.652, 0.0, 10.000267, 9.998825 
1.0950692e+3, 1.953228e+2, -907992.0, -1099388.3, 36120.355, -0.120719306, 0.22232199, -901402.25, 124451.99, 0.0, 10.001376, 9.998844 
1.0950465e+3, 2.053213e+2, -785724.5, -1034205.25, -3593.1235, -0.1283465, 0.21286926, -785672.56, 142196.84, 0.0, 10.001733, 9.998448 
1.0950243e+3, 2.1531892e+2, -735695.2, -955718.56, -11905.998, -0.04721404, 0.12064913, -735052.8, 94839.31, 0.0, 10.001385, 9.998483 
1.0950007e+3, 2.2531751e+2, -700221.56, -873328.3, -40832.96, -0.05790648, 0.12828583, -691073.2, 40833.145, 0.0, 10.000895, 9.998613 
1.0949759e+3, 2.3531684e+2, -683510.94, -814654.7, -16154.808, -0.15095638, 0.19280408, -681550.25, -47636.055, 0.0, 10.000338, 9.9986105 
1.09495334e+3, 2.4531537e+2, -716446.1, -894294.44, 21237.896, -0.119974494, 0.24234192, -713945.2, -178013.52, 0.0, 9.999928, 9.997588 
1.0949325e+3, 2.5531313e+2, -650335.44, -798999.1, -16497.832, 0.022928948, 0.24986002, -648526.56, -210568.52, 0.0, 9.999658, 9.997699 
1.09490916e+3, 2.6531166e+2, -335310.75, -415422.0, -34979.62, -0.049808737, 0.24904612, -322187.2, 17784.037, 0.00000010014453, 10.000371, 9.999315 
1.0948835e+3, 2.7531064e+2, -2535.6494, -207519.31, 18920.484, -0.3162659, 0.21065007, -803.87384, 241169.77, 0.0000018004142, 10.001996, 9.999287 
1.0948611e+3, 2.8530854e+2, -102455.086, -439965.72, 8443.863, -0.24031052, 0.18198626, -102243.97, 41748.35, 0.000016749296, 10.001646, 9.997189 
1.0948412e+3, 2.9530537e+2, -311822.94, -482966.94, 8556.693, 0.14566417, 0.13799043, -311396.2, -265370.75, 0.00009990713, 9.999502, 9.997254 
1.0948173e+3, 3.0530232e+2, -211915.34, -302659.4, 62071.563, 0.041036434, 0.06325859, -180401.1, -180401.1, 0.00031833374, 9.99941, 9.998197 
1.09478965e+3, 3.1530184e+2, 154825.45, 48604.51, 77717.65, -0.49799955, 0.18816102, 195846.58, 195846.58, 0.0006679341, 10.001147, 9.999778 
1.1052321e+3, 1.2534901e+2, -1931254.5, -1722605.0, -104506.3, -0.06439702, 0.008596725, -1679263.9, 32322.023, 0.00083503575, 9.998086, 10.00086 
1.1052052e+3, 1.3534968e+2, -1446808.5, -1464717.4, -119350.13, -0.23531555, -0.0071434733, -1336077.4, 277498.53, 0.0003918232, 10.000845, 10.000642 
1.1051843e+3, 1.4534959e+2, -1413351.3, -1710862.4, -4253.73, 0.021348385, 0.07015493, -1413290.5, 102289.63, 0.000102570426, 10.001769, 9.99782 
1.10516086e+3, 1.553493e+2, -1426502.1, -1659567.5, 47339.914, -0.10015084, 0.25179252, -1417253.5, 339.11563, 0.0000061708192, 10.000976, 9.997881 
1.10513754e+3, 1.6534811e+2, -1288431.4, -1342946.3, 10087.915, -0.14214495, 0.2585524, -1286624.5, 32982.332, 0.0000000015512864, 10.000387, 9.999667 
1.10511474e+3, 1.7534615e+2, -1237069.6, -1264001.5, -32030.795, -0.062443227, 0.08575696, -1215789.3, 5833.7104, 0.0, 10.000056, 9.999694 
1.105092e+3, 1.8534574e+2, -1226581.0, -1294320.1, 21923.584, -0.06316555, 0.117119834, -1220104.8, -96477.03, 0.0, 9.99982, 9.99893 
1.1050694e+3, 1.9534655e+2, -1159050.9, -1208305.3, 33242.707, -0.15470535, 0.2983362, -1142306.9, -116683.39, 0.0, 9.9996, 9.998952 
1.1050469e+3, 2.053454e+2, -1083793.6, -1152235.1, 12682.864, -0.14692912, 0.30867085, -1081519.0, -153883.72, 0.0, 9.999575, 9.998679 
1.1050248e+3, 2.1534257e+2, -961735.1, -1039264.7, 34882.92, -0.04363136, 0.14830472, -948350.8, -118689.45, 0.0, 9.999729, 9.998707 
1.10500135e+3, 2.2534089e+2, -802519.25, -930455.2, 17400.537, -0.045917667, 0.122724056, -800194.9, -68517.19, 0.0, 10.000229, 9.998537 
1.1049767e+3, 2.353401e+2, -597223.44, -781871.7, -7473.4897, -0.14362624, 0.18347126, -596921.44, 36765.09, 0.0, 10.00097, 9.9985285 
1.10495426e+3, 2.4533874e+2, -527525.7, -806157.8, 48751.71, -0.09179431, 0.24905838, -519241.97, 16460.982, 0.0, 10.001245, 9.997558 
1.1049335e+3, 2.5533682e+2, -441173.7, -703011.44, 81074.82, 0.093152, 0.2937355, -418102.72, 19623.607, 0.0, 10.001121, 9.997652 
1.10491015e+3, 2.6533508e+2, -303356.75, -421877.84, 66841.95, 0.00067452574, 0.28176033, -273288.34, 66454.33, 0.00000018749917, 10.000682, 9.999122 
1.1048843e+3, 2.7533337e+2, -315365.34, -376990.7, -5347.5864, -0.33833924, 0.19093497, -314904.75, -73151.02, 0.0000025324416, 9.999927, 9.999122 
1.1048616e+3, 2.853318e+2, -236483.48, -408842.34, -53282.39, -0.2744087, 0.18016452, -221342.11, -77575.66, 0.000018771152, 10.000318, 9.998042 
1.1048418e+3, 2.953303e+2, 65204.97, -209019.77, 13789.539, 0.15469477, 0.21673341, 65896.64, 111677.51, 0.0001004618, 10.0016985, 9.998076 
1.104818e+3, 3.0532724e+2, 113049.01, -156896.52, 117292.64, 0.0688871, 0.10764793, 156892.39, 156892.39, 0.00031494282, 10.001666, 9.998123 
1.10479064e+3, 3.153255e+2, 23013.08, -18185.266, 91104.85, -0.47431082, 0.11009353, 95818.516, 95818.516, 0.0006609371, 10.0002575, 9.999747 
1.1152297e+3, 1.2537408e+2, -2012398.8, -1903404.6, -44035.66, -0.1159637, 0.20199646, -1887836.9, -176491.64, 0.000944546, 9.998145, 9.999591 
1.1152046e+3, 1.3537313e+2, -1536049.8, -1644664.9, -12102.583, -0.38952482, 0.16130899, -1534717.5, 78637.56, 0.00045159098, 10.00083, 9.999411 
1.11518554e+3, 1.4537217e+2, -1302736.5, -1479936.0, -36025.496, -0.046043623, 0.12710649, -1295692.4, 219671.86, 0.00012308804, 10.001757, 9.9994135 
1.1151643e+3, 1.5537155e+2, -1321687.8, -1439302.4, 19878.258, 0.14003576, 0.11642865, -1318418.9, 98950.31, 0.000008505592, 10.000961, 9.999399 
1.1151402e+3, 1.6537027e+2, -1363890.9, -1500773.4, -7589.3735, 0.073655345, 0.095317155, -1363471.4, -44088.047, 0.0000000033697685, 10.000389, 9.998586 
1.1151139e+3, 1.753684e+2, -1305068.0, -1411631.5, -40711.355, -0.16096888, 0.04150415, -1291294.9, -69889.29, 0.0, 10.000081, 9.998672 
1.1150901e+3, 1.8536808e+2, -1199024.0, -1236450.1, 10048.467, -0.2523865, 0.110979155, -1196496.8, -73085.07, 0.0, 9.999819, 9.999326 
1.1150683e+3, 1.9536898e+2, -1132560.1, -1150510.1, 28066.787, -0.23479962, 0.26043466, -1112068.3, -86663.33, 0.0, 9.999588, 9.999352 
1.1150458e+3, 2.0536874e+2, -1037361.44, -1049245.8, 12258.027, -0.21902357, 0.30273092, -1029681.25, -102274.234, 0.0, 9.999546, 9.999399 
1.115023e+3, 2.153674e+2, -919641.3, -943722.56, 44867.94, -0.20232195, 0.22054659, -885226.5, -55808.688, 0.0, 9.999692, 9.99938 
1.1150004e+3, 2.2536594e+2, -853202.1, -1024078.8, 41633.57, -0.17373706, 0.21635114, -843598.06, -112164.95, 0.0, 10.00018, 9.997918 
1.11497775e+3, 2.3536432e+2, -641442.3, -864881.4, 22974.266, -0.13146858, 0.25429264, -639104.56, -5651.798, 0.0, 10.000931, 9.997977 
1.1149552e+3, 2.4536286e+2, -464875.3, -665839.44, 41560.227, -0.11726601, 0.2864014, -456619.63, 78848.086, 0.0, 10.001198, 9.998545 
1.1149325e+3, 2.5536147e+2, -382004.72, -577097.6, 81756.266, -0.12946923, 0.28496614, -352274.3, 85205.12, 0.0, 10.001103, 9.998526 
1.1149096e+3, 2.6535898e+2, -435032.56, -686472.94, 35097.11, -0.12665202, 0.25010905, -430225.47, -90719.91, 0.00000020790911, 10.000644, 9.997324 
1.1148865e+3, 2.7535546e+2, -441888.2, -623422.25, -26950.426, -0.11084589, 0.15620734, -437971.63, -196427.0, 0.0000030041272, 9.999854, 9.997465 
1.1148633e+3, 2.8535503e+2, -115269.734, -140092.8, -789.1075, -0.13758266, 0.24490473, -115244.67, 28302.826, 0.000021469468, 10.000244, 9.999921 
1.11484006e+3, 2.9535723e+2, 191880.38, 50299.29, 73628.336, -0.19639075, 0.45966244, 223229.13, 268749.13, 0.00010445724, 10.001714, 9.99985 
1.1148178e+3, 3.0535403e+2, 78824.28, -229001.92, 63010.047, -0.13289712, 0.27820373, 91222.66, 91222.66, 0.00031704624, 10.001676, 9.9976225 
1.1147959e+3, 3.1534898e+2, -29113.283, -98207.2, 50645.27, 0.01696864, -0.0033698932, -2354.161, -2354.161, 0.00065944524, 10.000137, 9.999257 
1.1252288e+3, 1.2539634e+2, -1798011.6, -1780377.3, -78799.42, -0.09895625, 0.20871207, -1709903.3, 1226.0166, 0.0010643419, 9.999526, 9.999771 
1.1252057e+3, 1.3539587e+2, -1728554.9, -1723523.0, 74882.6, -0.29693675, 0.20317873, -1651114.0, -37979.848, 0.00051804923, 9.99945, 9.999535 
1.1251864e+3, 1.4539494e+2, -1635576.9, -1576003.0, -346.58337, -0.006872247, 0.1379167, -1576001.0, -60859.574, 0.00014661087, 9.999196, 9.999988 
1.1251638e+3, 1.5539385e+2, -1607230.8, -1516595.1, -28097.531, 0.1049703, 0.022846626, -1508591.5, -91443.125, 0.00001150662, 9.998741, 9.999941 
1.1251395e+3, 1.6539314e+2, -1536455.4, -1590181.8, -1021.23224, 0.036888428, 0.035240505, -1536435.9, -217278.56, 0.0000000061074554, 9.999234, 9.998527 
1.1251144e+3, 1.753927e+2, -1239286.3, -1387006.3, 30773.107, -0.14341336, 0.13087445, -1233132.0, -11963.568, 0.0, 10.000562, 9.99861 
1.1250907e+3, 1.8539226e+2, -1037801.7, -1140696.1, 79249.375, -0.21271989, 0.184294, -994764.6, 128410.84, 0.0, 10.000842, 9.999494 
1.1250684e+3, 1.9539177e+2, -1024476.5, -1081302.6, 73184.055, -0.2038995, 0.17843243, -974383.44, 50796.234, 0.0, 10.000249, 9.999516 
1.1250458e+3, 2.0539156e+2, -927854.5, -990032.8, 59345.758, -0.20489947, 0.21375245, -891947.75, 35233.49, 0.0, 10.000275, 9.99945 
1.1250232e+3, 2.1539144e+2, -750045.3, -855891.9, 31851.896, -0.21059695, 0.24896061, -741199.5, 87982.22, 0.0, 10.000833, 9.99943 
1.1250007e+3, 2.2539009e+2, -753264.75, -985804.4, 27770.3, -0.18025467, 0.25653183, -749994.4, -18797.543, 0.0, 10.000909, 9.997834 
1.12497866e+3, 2.3538764e+2, -695289.4, -895667.44, 40061.242, -0.117472485, 0.2206549, -687576.9, -54352.41, 0.0, 10.000588, 9.997932 
1.1249561e+3, 2.4538626e+2, -540860.56, -651844.44, 51768.965, -0.11461023, 0.23845741, -520461.94, 14776.014, 0.0, 10.00046, 9.998994 
1.12493284e+3, 2.5538567e+2, -445965.66, -562077.56, 45010.086, -0.16683969, 0.27203596, -430561.38, 6679.143, 0.0, 10.000465, 9.998936 
1.1249102e+3, 2.6538342e+2, -424636.38, -706247.6, 49848.715, -0.1327177, 0.25445, -416072.94, -76808.86, 0.00000016860811, 10.000829, 9.997095 
1.1248879e+3, 2.753797e+2, -218300.58, -538520.3, 96240.91, -0.022755384, 0.1620904, -191601.77, 49704.453, 0.0000038179373, 10.001498, 9.997249 
1.1248645e+3, 2.853791e+2, -16902.38, -125254.73, 98281.23, -0.080057934, 0.26183006, 41145.582, 184458.14, 0.000026281929, 10.001054, 9.999637 
1.1248399e+3, 2.9538122e+2, -130247.73, -131125.56, -1452.5002, -0.28103182, 0.4978301, -129169.27, -83880.68, 0.00011318937, 9.999611, 9.999617 
1.1248177e+3, 3.0537823e+2, -236786.16, -332924.8, -58264.13, -0.17544353, 0.32315975, -209321.58, -209321.58, 0.0003258272, 9.99931, 9.998044 
1.1247975e+3, 3.153735e+2, -27769.951, -53957.996, -6483.415, 0.18295391, 0.03737464, -26252.742, -26252.742, 0.00066508714, 9.999949, 9.999657 
1.1352287e+3, 1.2541619e+2, -1683245.4, -1552838.8, -115789.7, -0.07516116, 0.04162078, -1485155.9, 225778.52, 0.0011953667, 9.999585, 10.001301 
1.13520786e+3, 1.3541807e+2, -1631714.5, -1518813.0, 75912.55, -0.016545389, 0.12611657, -1480662.5, 132249.56, 0.00059164723, 9.999444, 10.000938 
1.13518655e+3, 1.4541803e+2, -1660685.9, -1634328.1, -19198.898, 0.08426912, 0.10215187, -1624220.1, -109308.74, 0.00017336896, 9.999216, 9.999582 
1.1351593e+3, 1.5541635e+2, -1620818.6, -1562529.4, -36529.035, -0.22214442, -0.031304542, -1544943.0, -128014.195, 0.000015247707, 9.998815, 9.999593 
1.13513574e+3, 1.6541684e+2, -1467619.5, -1459907.8, 45595.727, -0.27382383, 0.073347636, -1418005.1, -99077.65, 0.000000009421829, 9.999286, 9.999396 
1.135116e+3, 1.7541906e+2, -1178414.0, -1264029.6, 81179.27, -0.051400624, 0.3468755, -1129447.3, 91464.05, 0.0, 10.000574, 9.999447 
1.1350939e+3, 1.8541831e+2, -1044061.75, -1153838.0, 52116.746, 0.0069118827, 0.33238375, -1023260.6, 99658.33, 0.0, 10.000841, 9.999404 
1.1350697e+3, 1.9541495e+2, -1032343.3, -1096383.6, 55069.773, -0.09935204, 0.047574174, -1000661.3, 24286.238, 0.0, 10.000242, 9.999414 
1.1350468e+3, 2.0541392e+2, -976204.3, -1085501.9, 74616.7, -0.13787478, 0.039469287, -938364.5, -11406.977, 0.0, 10.000253, 9.998807 
1.1350252e+3, 2.1541479e+2, -799187.06, -947137.3, 52500.313, -0.10435843, 0.23685488, -782450.5, 46502.047, 0.0, 10.000784, 9.998828 
1.13500245e+3, 2.2541341e+2, -731814.9, -926859.7, 9700.153, -0.10442599, 0.24859376, -731333.6, -365.4522, 0.0, 10.000847, 9.998267 
1.1349791e+3, 2.3541005e+2, -672493.44, -839101.3, 31239.041, -0.13713834, 0.077360295, -666828.7, -33826.938, 0.0, 10.000547, 9.998339 
1.13495655e+3, 2.4540885e+2, -554642.94, -670228.2, 47923.977, -0.1160189, 0.09862281, -537357.6, -2343.3188, 0.0, 10.000415, 9.99889 
1.1349346e+3, 2.554094e+2, -452967.2, -566868.2, 48991.74, -0.046578426, 0.25510165, -434794.13, 2215.5466, 0.0, 10.0004225, 9.998923 
1.13491185e+3, 2.6540846e+2, -333942.88, -508634.2, 74449.664, -0.05105453, 0.2957158, -306519.13, 32498.416, 0.00000020663475, 10.000787, 9.998474 
1.1348887e+3, 2.7540612e+2, -135633.45, -365662.72, 126631.04, -0.11779674, 0.20747049, -79581.47, 161455.8, 0.0000055002247, 10.001491, 9.998442 
1.134865e+3, 2.8540397e+2, -203320.31, -504188.3, 40008.598, -0.13975911, 0.22409144, -198090.98, -55029.004, 0.00003348498, 10.001022, 9.997047 
1.1348412e+3, 2.95402e+2, -313866.2, -488417.47, -50990.207, -0.11892591, 0.3100735, -300062.47, -254972.28, 0.00012691141, 9.999509, 9.997212 
1.1348179e+3, 3.0539957e+2, -151175.53, -129297.05, -36187.71, -0.09085122, 0.23326965, -102431.3, -102431.3, 0.00034269853, 9.999199, 9.999494 
1.1347948e+3, 3.1539932e+2, 57332.688, 146940.3, 33844.62, -0.089460894, 0.2497363, 158286.64, 158286.64, 0.0006829697, 9.999853, 10.001078 
1.145228e+3, 1.2543915e+2, -1499686.1, -1467530.9, 13538.017, -0.1606315, -0.047265105, -1462590.3, 248114.77, 0.0013373722, 10.000837, 10.001299 
1.1452084e+3, 1.3544148e+2, -1641587.5, -1525503.1, 110510.26, 0.08767973, 0.08375969, -1458719.9, 153960.02, 0.000672049, 9.999365, 10.000943 
1.1451864e+3, 1.4544193e+2, -1602636.6, -1616496.1, 42648.76, 0.13176365, 0.11528256, -1566358.3, -51682.473, 0.0002032588, 9.999664, 9.999485 
1.14515916e+3, 1.5544048e+2, -1258332.3, -1400902.9, 30489.283, -0.24158213, 0.015914835, -1252085.6, 164607.17, 0.000019742625, 10.001359, 9.9994755 
1.14513576e+3, 1.6544084e+2, -1182620.0, -1308763.5, 67738.54, -0.2967384, 0.107672475, -1153136.1, 165556.66, 0.000000013934886, 10.001184, 9.9995165 
1.1451161e+3, 1.7544268e+2, -1329046.9, -1323241.9, 41713.813, -0.03267779, 0.33022082, -1284329.6, -63650.73, 0.0, 9.999485, 9.999564 
1.14509426e+3, 1.8544188e+2, -1273462.1, -1261723.0, 15517.509, 0.04271814, 0.3051077, -1251002.1, -128315.39, 0.0, 9.999269, 9.999414 
1.14507034e+3, 1.9543876e+2, -1017469.7, -1084764.3, 17339.717, -0.06624006, 0.041430082, -1013264.56, 11448.896, 0.0, 10.000339, 9.99944 
1.1450476e+3, 2.0543769e+2, -914881.7, -1048308.2, 70193.625, -0.10099439, 0.023661805, -884755.9, 41968.26, 0.0, 10.000639, 9.998879 
1.145026e+3, 2.154383e+2, -867394.3, -969604.8, 94465.64, -0.061527412, 0.19127977, -811096.1, 17625.467, 0.0, 10.000274, 9.998922 
1.14500344e+3, 2.2543743e+2, -730465.0, -858044.3, 96261.89, -0.07177018, 0.2198345, -678775.3, 51956.008, 0.0, 10.000561, 9.998876 
1.1449801e+3, 2.3543522e+2, -515444.22, -703226.2, 121943.77, -0.12927793, 0.102088556, -455433.28, 177319.16, 0.0, 10.001359, 9.998884 
1.14495754e+3, 2.4543388e+2, -442287.2, -687389.2, 112604.17, -0.111220635, 0.11800945, -398409.7, 136357.4, 0.0, 10.001495, 9.998251 
1.1449354e+3, 2.5543326e+2, -395922.34, -601028.94, 63000.492, -0.028136637, 0.22191788, -378116.84, 58659.688, 0.0, 10.001092, 9.998362 
1.1449127e+3, 2.654323e+2, -279499.34, -411810.66, 61320.984, -0.041097824, 0.25403383, -255450.6, 83333.086, 0.00000038376965, 10.000851, 9.999112 
1.1448895e+3, 2.7543092e+2, -205517.19, -336438.53, 50570.234, -0.13557975, 0.19524166, -188258.77, 52531.453, 0.0000075917305, 10.0007305, 9.999014 
1.14486635e+3, 2.854283e+2, -249972.03, -621488.1, -3464.8833, -0.10971674, 0.18424323, -249939.72, -107120.24, 0.00004126663, 10.001111, 9.996199 
1.1448432e+3, 2.9542467e+2, -26747.281, -439425.88, 29252.28, 0.02355688, 0.19158886, -24684.08, 20183.55, 0.00014267156, 10.001866, 9.996412 
1.1448188e+3, 3.0542272e+2, 203494.4, 98710.25, 69601.78, -0.022348009, 0.17475319, 238219.13, 238219.13, 0.0003640664, 10.001381, 10.0000105 
1.14479296e+3, 3.154248e+2, 92807.6, 229248.9, 55614.91, -0.25363332, 0.36682975, 249045.72, 249045.72, 0.00071067613, 9.999816, 10.0016575 
1.15522645e+3, 1.2546489e+2, -1594897.0, -1661250.6, -56506.523, -0.41648054, -0.0756937, -1562547.6, 147897.13, 0.001489488, 10.00082, 9.999972 
1.1552068e+3, 1.3546622e+2, -1716120.5, -1693997.5, 65574.03, -0.0052846917, 0.07804143, -1638558.5, -26122.488, 0.00075867696, 9.999427, 9.999751 
1.1551859e+3, 1.4546685e+2, -1586676.9, -1603110.9, 103927.08, 0.10846339, 0.18044761, -1490642.5, 23790.434, 0.0002361324, 9.999739, 9.999547 
1.155163e+3, 1.5546623e+2, -1252674.3, -1391128.9, 91829.76, -0.009301474, 0.15700682, -1206901.0, 209539.42, 0.000024990082, 10.001361, 9.999544 
1.15513906e+3, 1.6546516e+2, -1227372.5, -1399070.6, -1635.9211, -0.093655914, 0.13285053, -1227356.9, 91096.31, 0.000000023716384, 10.001172, 9.998904 
1.15511484e+3, 1.7546372e+2, -1367046.6, -1404612.8, -14747.447, -0.11641571, 0.08798439, -1361949.0, -141479.06, 0.0, 9.999499, 9.998998 
1.1550919e+3, 1.8546318e+2, -1262585.5, -1247669.0, 53005.832, -0.1270801, 0.11212069, -1201599.3, -79122.58, 0.0, 9.999299, 9.9995 
1.1550699e+3, 1.9546324e+2, -1009015.94, -1068264.0, 58797.44, -0.1386224, 0.15906532, -972801.4, 51675.32, 0.0, 10.000336, 9.999559 
1.15504794e+3, 2.0546284e+2, -866105.2, -939131.6, 50204.066, -0.13534696, 0.1632487, -840540.5, 85940.21, 0.0, 10.000606, 9.999644 
1.1550257e+3, 2.15462e+2, -817771.44, -859218.0, 85214.62, -0.11618792, 0.10513465, -750796.44, 77692.27, 0.0, 10.000238, 9.999697 
1.1550037e+3, 2.2546221e+2, -686547.44, -752584.56, 122176.94, -0.11205704, 0.16549669, -593006.0, 137480.1, 0.0, 10.000502, 9.999628 
1.15498155e+3, 2.3546325e+2, -473841.63, -607698.8, 153648.05, -0.123355396, 0.29570058, -373178.0, 259297.53, 0.0, 10.001323, 9.999556 
1.15495875e+3, 2.4546143e+2, -535038.94, -869340.2, 92629.87, -0.13585685, 0.29773867, -511088.5, 23407.027, 0.0, 10.001449, 9.997025 
1.1549354e+3, 2.5545728e+2, -484011.38, -775173.7, 51305.676, -0.1493002, 0.1663932, -475235.34, -38694.1, 0.0, 10.001052, 9.997185 
1.1549127e+3, 2.6545492e+2, -297023.13, -437143.06, 52593.176, -0.135353, 0.12338589, -279479.22, 59084.004, 0.0000005356376, 10.000804, 9.9989605 
1.1548905e+3, 2.7545398e+2, -219849.3, -348393.66, 51336.86, -0.1076922, 0.12350967, -201863.44, 38702.777, 0.000008957139, 10.000657, 9.998965 
1.1548683e+3, 2.8545222e+2, -186576.66, -473875.4, 24213.707, -0.026710508, 0.14342815, -184550.2, -41965.22, 0.000047151985, 10.001044, 9.997244 
1.15484595e+3, 2.9544958e+2, 39971.11, -301632.9, 65586.02, 0.10540967, 0.14723349, 52130.445, 96748.91, 0.00015594735, 10.001866, 9.997359 
1.1548204e+3, 3.0544797e+2, 158806.72, 10129.922, 11963.613, -0.005937928, 0.15027499, 159763.25, 159763.25, 0.00038533346, 10.0013685, 9.999406 
1.1547917e+3, 3.154499e+2, 45687.023, 156235.77, 11959.825, -0.37090704, 0.3863583, 157514.84, 157514.84, 0.0007418619, 9.99971, 10.001206 
1.1652288e+3, 1.2548998e+2, -1730353.9, -1828644.0, -151440.52, -0.2265099, -0.014550844, -1620283.8, 89913.96, 0.0016512593, 10.000337, 9.99905 
1.1652065e+3, 1.3548952e+2, -1555408.4, -1707529.0, -27889.271, -0.048881404, 0.043916654, -1550456.5, 61752.793, 0.0008513687, 10.000919, 9.998941 
1.16518445e+3, 1.4549e+2, -1450718.9, -1504384.8, 59181.215, -0.049393382, 0.1565614, -1412571.6, 101636.33, 0.00027198074, 10.000538, 9.999835 
1.1651642e+3, 1.5549034e+2, -1525959.1, -1489215.6, 50579.938, 0.07767976, 0.19843641, -1453774.3, -37569.098, 0.00003101119, 9.999347, 9.999841 
1.1651405e+3, 1.6548927e+2, -1455766.0, -1463073.4, -3391.0195, 0.026958337, 0.14013326, -1454434.9, -136218.75, 0.00000004774233, 9.999411, 9.999311 
1.1651145e+3, 1.7548709e+2, -1183628.3, -1272979.0, 49991.055, -0.15071721, -0.018716257, -1161258.9, 58979.21, 0.0, 10.000571, 9.999385 
1.16509095e+3, 1.8548705e+2, -1056982.5, -1136619.4, 170459.8, -0.20966753, 0.030155255, -921752.25, 200488.06, 0.0, 10.000654, 9.999612 
1.1650697e+3, 1.9548866e+2, -1071877.0, -1086760.3, 172400.97, -0.17844367, 0.22155808, -906757.06, 117470.08, 0.0, 9.999852, 9.999666 
1.16504796e+3, 2.054883e+2, -970600.0, -1001230.9, 142107.08, -0.14894308, 0.2315239, -842985.44, 83245.91, 0.0, 9.999942, 9.999534 
1.1650263e+3, 2.1548632e+2, -750037.3, -835893.75, 102175.695, -0.11676452, 0.06811364, -682138.1, 146111.81, 0.0, 10.000749, 9.999608 
1.1650045e+3, 2.2548638e+2, -643614.56, -736671.8, 80121.516, -0.092053026, 0.12040926, -597491.3, 132757.44, 0.0, 10.000813, 9.999589 
1.1649828e+3, 2.3548807e+2, -633147.9, -686127.6, 43656.742, -0.073687516, 0.32074073, -608572.9, 23659.523, 0.0, 10.000237, 9.999539 
1.1649602e+3, 2.4548656e+2, -595296.6, -848425.06, 46973.8, -0.095790304, 0.32913986, -586860.7, -52612.14, 0.0, 10.00082, 9.99747 
1.164937e+3, 2.5548238e+2, -270196.3, -631706.56, 121047.8, -0.15335597, 0.15257403, -233408.38, 202883.98, 0.0, 10.0023365, 9.997558 
1.1649143e+3, 2.654799e+2, -131273.08, -420423.97, 119412.48, -0.123691455, 0.11081087, -88334.8, 249982.23, 0.00000056359414, 10.00222, 9.998389 
1.1648921e+3, 2.7547875e+2, -240278.61, -415011.75, 75615.07, -0.026370917, 0.15100396, -212100.58, 28225.896, 0.0000092835935, 10.000764, 9.998456 
1.1648694e+3, 2.8547728e+2, -191958.6, -353384.72, 95859.5, 0.010769455, 0.16816469, -147357.48, -5016.9336, 0.000049926817, 10.000474, 9.998347 
1.1648464e+3, 2.9547545e+2, 7382.956, -201078.38, 127079.766, 0.0038322834, 0.1408561, 67509.516, 111868.734, 0.00016435768, 10.001152, 9.99839 
1.16482094e+3, 3.0547374e+2, 61179.027, -183204.98, -4698.65, -0.08337852, 0.15187655, 61269.332, 61269.332, 0.00040264626, 10.001328, 9.998101 
1.164793e+3, 3.1547442e+2, 142905.22, 74132.03, -63997.59, -0.277661, 0.39587545, 181169.36, 181169.36, 0.0007698302, 10.000931, 10.000064 
1.175235e+3, 1.2551458e+2, -1772266.3, -1922068.1, -101840.56, 0.3356893, 0.11814026, -1720748.6, -10786.48, 0.0018234614, 10.000367, 9.998393 
1.1752071e+3, 1.355116e+2, -1592266.4, -1782763.0, -4853.064, -0.079514444, -0.018913364, -1592142.9, 19854.313, 0.0009506097, 10.00091, 9.99843 
1.1751819e+3, 1.4551164e+2, -1419802.9, -1435568.6, 13944.516, -0.37218976, 0.046985205, -1411667.4, 102331.664, 0.00031097958, 10.000515, 10.0003195 
1.1751627e+3, 1.5551302e+2, -1487541.6, -1411021.1, 16599.604, -0.006661633, 0.14391163, -1407575.3, 8409.675, 0.00003785508, 9.999354, 10.000372 
1.17514e+3, 1.6551337e+2, -1358176.0, -1268430.8, 36792.363, 0.032907464, 0.13208888, -1255275.5, 62704.67, 0.00000010132158, 9.99944, 10.000634 
1.17511496e+3, 1.7551284e+2, -1094845.6, -1087341.9, 92068.12, -0.16633949, 0.005599877, -998949.25, 221034.14, 0.0, 10.000564, 10.000664 
1.1750914e+3, 1.8551345e+2, -1051717.0, -1121467.0, 135028.16, -0.23972541, 0.055858146, -947132.9, 174844.77, 0.0, 10.000636, 9.999724 
1.1750691e+3, 1.9551493e+2, -1068346.8, -1076842.0, 147903.27, -0.22320543, 0.22037496, -924630.2, 99335.22, 0.0, 9.999842, 9.99974 
1.17504776e+3, 2.0551409e+2, -1040922.44, -1143020.8, 167093.33, -0.17708872, 0.22803254, -917254.1, 8721.533, 0.0, 9.999922, 9.998572 
1.1750272e+3, 2.1551129e+2, -821002.44, -977596.6, 132829.44, -0.09810546, 0.07949428, -745111.0, 82893.805, 0.0, 10.000719, 9.9986515 
1.1750059e+3, 2.2550991e+2, -712991.4, -866652.7, 52690.434, -0.044532012, 0.07901946, -696659.7, 33359.93, 0.0, 10.000752, 9.998726 
1.1749836e+3, 2.3550972e+2, -690258.8, -789274.7, 29304.412, -0.016316917, 0.17379497, -682236.0, -50213.176, 0.0, 10.000174, 9.99886 
1.1749618e+3, 2.4550931e+2, -455232.13, -547532.7, 100563.57, -0.026692403, 0.21468824, -390734.88, 143290.64, 0.0, 10.0007715, 9.999563 
1.1749402e+3, 2.5550863e+2, -135467.63, -346801.84, 178761.36, -0.06912233, 0.179151, -33478.383, 402550.44, 0.0, 10.002313, 9.999526 
1.17491744e+3, 2.655073e+2, -212463.17, -578311.9, 62409.824, -0.032938115, 0.21569191, -202109.73, 135934.4, 0.0000005132723, 10.002175, 9.997326 
1.1748938e+3, 2.7550536e+2, -315973.16, -557821.25, 31907.729, 0.0667041, 0.2759723, -311834.3, -71763.94, 0.000009280944, 10.000706, 9.997501 
1.1748694e+3, 2.8550372e+2, -124923.44, -204525.16, 120918.51, -0.046233196, 0.26680478, -37423.89, 104661.09, 0.000050485156, 10.000427, 9.999394 
1.1748442e+3, 2.955023e+2, 67601.57, -67404.6, 157370.36, -0.33247617, 0.17347178, 171335.44, 215425.48, 0.00016787817, 10.001105, 9.999335 
1.1748202e+3, 3.0549997e+2, -83937.47, -465673.94, -18419.51, -0.29471353, 0.17391324, -83050.76, -83050.76, 0.00041124242, 10.001253, 9.996195 
1.1747964e+3, 3.1549823e+2, 6650.456, -188148.1, -60741.01, -0.043424416, 0.37101772, 24038.328, 24038.328, 0.0007823176, 10.00085, 9.998295 
1.1852352e+3, 1.2553877e+2, -1714321.5, -1845232.8, -41059.742, 0.32696077, 0.21614368, -1702509.1, 7222.306, 0.0020081834, 10.00057, 9.998814 
1.1852085e+3, 1.355358e+2, -1682256.8, -1769820.4, 64492.836, 0.015127384, 0.030567972, -1648088.8, -36326.293, 0.0010574218, 10.000055, 9.99893 
1.1851817e+3, 1.4553566e+2, -1568718.8, -1490735.0, 83489.59, -0.3749985, 0.047027644, -1437581.0, 76183.15, 0.00035351914, 9.99943, 10.000457 
1.1851611e+3, 1.5553667e+2, -1551149.3, -1424593.5, 54055.227, -0.06217457, 0.09222646, -1404648.4, 11104.231, 0.00004562391, 9.998846, 10.000519 
1.1851388e+3, 1.6553754e+2, -1421268.9, -1277598.5, 87860.09, -0.003893836, 0.1161567, -1235945.0, 81798.34, 0.00000019883093, 9.99892, 10.000822 
1.1851152e+3, 1.7553826e+2, -1226416.5, -1127591.4, 53220.453, -0.1387885, 0.093994714, -1104381.5, 115354.78, 0.0, 9.999561, 10.00087 
1.1850922e+3, 1.8553899e+2, -1127089.5, -1125222.9, 31638.322, -0.1939443, 0.12952985, -1094504.1, 27224.736, 0.0, 9.999986, 10.000008 
1.1850693e+3, 1.9553967e+2, -991630.7, -1010626.9, 48107.09, -0.19674268, 0.1869654, -952093.0, 71628.414, 0.0, 10.000246, 9.999997 
1.1850481e+3, 2.0553888e+2, -944747.4, -1111569.8, 147235.0, -0.15931325, 0.19360738, -858938.1, 66792.58, 0.0, 10.000642, 9.998445 
1.1850283e+3, 2.1553674e+2, -766276.4, -965444.94, 167214.52, -0.080760375, 0.12628698, -671238.6, 156515.9, 0.0, 10.001159, 9.998524 
1.18500695e+3, 2.2553487e+2, -597710.7, -833426.94, 124406.47, -0.047400884, 0.09084222, -544199.3, 185574.77, 0.0, 10.001646, 9.99852 
1.1849842e+3, 2.3553315e+2, -422867.72, -682138.5, 138730.17, -0.057170305, 0.05617753, -362631.06, 269159.34, 0.0, 10.002098, 9.998672 
1.1849629e+3, 2.4553278e+2, -330901.7, -444605.2, 169473.14, -0.027556261, 0.08940814, -208998.67, 324793.56, 0.0, 10.001444, 9.999945 
1.18494235e+3, 2.555334e+2, -452377.03, -458917.53, 106418.22, 0.0315433, 0.14715835, -349178.84, 86604.32, 0.0, 9.999967, 9.999884 
1.1849197e+3, 2.655327e+2, -450365.88, -700670.7, -9630.154, 0.052177943, 0.2326174, -449995.94, -112202.18, 0.0000005059796, 10.00057, 9.997261 
1.1848951e+3, 2.7553084e+2, -13809.969, -419763.78, 22453.238, 0.04030146, 0.30825627, -12571.86, 227249.67, 0.000009346627, 10.0028105, 9.997438 
1.18487045e+3, 2.85529e+2, 182904.5, -57495.33, 69043.78, -0.08004842, 0.28345886, 201322.98, 343160.5, 0.000050141156, 10.002555, 9.999377 
1.1848455e+3, 2.9552722e+2, -50742.66, -126941.64, 17338.281, -0.28690028, 0.154124, -46983.016, -3139.3704, 0.0001672216, 10.000306, 9.9993105 
1.1848215e+3, 3.0552462e+2, -161771.4, -494531.47, -42668.395, -0.24562845, 0.12816449, -156387.33, -156387.33, 0.00040719297, 10.00067, 9.99628 
1.1847982e+3, 3.1552196e+2, 342538.03, -12695.065, 51418.938, -0.04465953, 0.22279441, 349831.03, 349831.03, 0.00076922204, 10.003084, 9.998428 
1.19523056e+3, 1.2556255e+2, -1612648.5, -1628769.0, 6921.5737, -0.21285966, 0.27200973, -1610084.4, 99420.85, 0.0022081332, 10.000552, 10.000305 
1.19521044e+3, 1.3556217e+2, -1576300.9, -1551212.5, 45717.715, 0.19474277, 0.1842804, -1516349.3, 95155.99, 0.0011730703, 10.000058, 10.000429 
1.19518384e+3, 1.4556202e+2, -1583093.5, -1527042.6, 57155.8, -0.11174049, 0.1447198, -1491411.0, 22092.596, 0.00040013902, 9.999453, 10.0002 
1.1951594e+3, 1.5556136e+2, -1566727.9, -1462783.9, 37263.18, -0.12382798, 0.04749723, -1450805.6, -35297.723, 0.00005450229, 9.998871, 10.000247 
1.1951366e+3, 1.655619e+2, -1476931.3, -1399942.8, 107273.24, -0.11760457, 0.097025946, -1324466.1, -6961.2344, 0.00000035173326, 9.998948, 9.99997 
1.1951152e+3, 1.7556344e+2, -1281051.1, -1241395.0, 80108.766, -0.10502243, 0.24258678, -1178696.9, 40799.074, 0.0, 9.999564, 10.000088 
1.195093e+3, 1.8556376e+2, -1097628.8, -1065889.3, 38126.395, -0.11455156, 0.2510905, -1040461.7, 81030.78, 0.0, 9.99999, 10.000414 
1.1950703e+3, 1.9556297e+2, -964042.1, -952444.2, 62044.164, -0.13501093, 0.12217495, -895928.56, 127565.65, 0.0, 10.000239, 10.0004015 
1.1950492e+3, 2.055627e+2, -899346.56, -1012061.94, 160424.4, -0.12912828, 0.12713005, -785668.44, 139827.55, 0.0, 10.00062, 9.999138 
1.1950293e+3, 2.1556278e+2, -725271.75, -867354.8, 188397.05, -0.1032087, 0.20890413, -594967.0, 232531.31, 0.0, 10.001105, 9.999221 
1.1950077e+3, 2.2556126e+2, -577501.75, -777887.44, 136704.27, -0.14068918, 0.15565996, -508205.16, 221306.42, 0.0, 10.001585, 9.998932 
1.1949848e+3, 2.3555842e+2, -408141.16, -640652.7, 155874.84, -0.22692946, -0.032214977, -329942.88, 301591.3, 0.0, 10.002052, 9.998978 
1.1949632e+3, 2.45557e+2, -435280.88, -653163.7, 108513.41, -0.13166189, -0.04438597, -390458.22, 143090.02, 0.0, 10.001405, 9.998533 
1.1949431e+3, 2.5555664e+2, -553542.75, -650106.4, 61261.145, 0.10780255, 0.055230185, -523824.16, -88268.414, 0.0, 9.9998865, 9.998609 
1.1949207e+3, 2.6555607e+2, -396014.84, -575276.9, 72305.19, 0.08763752, 0.16350609, -370486.13, -32919.875, 0.0000006389743, 10.00051, 9.998154 
1.19489625e+3, 2.7555513e+2, 40474.977, -303050.03, 103719.586, -0.14381623, 0.24505584, 69361.695, 308942.03, 0.000009277396, 10.002792, 9.99825 
1.1948727e+3, 2.855531e+2, 100188.484, -222999.47, -21189.193, -0.115289, 0.21797886, 101571.79, 243170.64, 0.000049688064, 10.002527, 9.998254 
1.1948498e+3, 2.9555e+2, -129686.91, -275160.25, -52787.926, 0.12200602, 0.07093612, -112550.4, -68928.66, 0.00016438575, 10.0002365, 9.998326 
1.19482495e+3, 3.0554765e+2, -26971.875, -196460.75, 50753.125, 0.029604623, 0.009522806, -12936.258, -12936.258, 0.00039412206, 10.000598, 9.998357 
1.1947981e+3, 3.1554568e+2, 478713.5, 287964.97, 160491.52, -0.3822427, -0.043336734, 570030.9, 570030.9, 0.00073558954, 10.003015, 10.000525 
1.20523036e+3, 1.2558584e+2, -1742177.3, -1668317.4, 110870.1, -0.24037504, 0.22892082, -1588388.4, 120886.7, 0.0024257244, 9.999571, 10.000506 
1.20521046e+3, 1.3558613e+2, -1702547.9, -1587115.5, -37872.32, 0.24186866, 0.18463776, -1575799.3, 35471.1, 0.0012988481, 9.99907, 10.000667 
1.20518394e+3, 1.4558636e+2, -1581011.4, -1496788.1, -9930.731, -0.03410081, 0.15579359, -1495633.1, 17632.607, 0.00045139206, 9.999343, 10.000462 
1.2051592e+3, 1.5558611e+2, -1329179.8, -1322029.4, -3214.9705, -0.11381233, 0.07539533, -1320796.5, 94468.75, 0.00006471426, 10.000388, 10.0004835 
1.2051361e+3, 1.6558652e+2, -1320033.4, -1354018.5, 95124.6, -0.11986351, 0.11338919, -1240395.5, 76867.83, 0.00000057087306, 10.000149, 9.999706 
1.20511465e+3, 1.7558749e+2, -1390126.1, -1321173.0, 104827.74, -0.08042677, 0.22994289, -1245298.0, -26038.076, 0.0, 9.998928, 9.999846 
1.2050929e+3, 1.8558742e+2, -1163075.8, -1080356.3, 130182.64, -0.087120384, 0.20348446, -985121.1, 136138.31, 0.0, 9.999462, 10.000571 
1.2050711e+3, 1.9558637e+2, -784835.7, -847301.4, 126983.22, -0.12265691, 0.030002143, -685300.7, 337962.03, 0.0, 10.001385, 10.000571 
1.2050502e+3, 2.0558651e+2, -775712.75, -936286.94, 146796.5, -0.12520531, 0.059956033, -688682.06, 236578.7, 0.0, 10.001399, 9.999281 
1.2050296e+3, 2.1558756e+2, -888345.9, -929949.8, 125320.734, -0.10788377, 0.22544539, -782112.4, 45142.605, 0.0, 9.999908, 9.999372 
1.2050083e+3, 2.2558655e+2, -838260.5, -861362.94, 99475.21, -0.1346842, 0.19589797, -749668.06, -20404.797, 0.0, 9.999607, 9.999316 
1.2049862e+3, 2.3558386e+2, -640969.75, -714194.4, 104750.81, -0.19549735, -0.015773738, -566617.25, 64665.99, 0.0, 10.000287, 9.999324 
1.2049646e+3, 2.4558228e+2, -543154.56, -767948.56, 63233.168, -0.11589432, -0.030168066, -526588.3, 6711.0454, 0.0, 10.000937, 9.997966 
1.20494336e+3, 2.5558147e+2, -347057.66, -610145.3, 74052.78, 0.06933336, 0.08209162, -327645.88, 107667.53, 0.00000000020898414, 10.001552, 9.998084 
1.204921e+3, 2.6558048e+2, -243390.39, -446262.2, 148365.73, 0.045885805, 0.14779831, -165099.73, 172226.83, 0.00000074892756, 10.001332, 9.998636 
1.2048978e+3, 2.755792e+2, -256118.06, -395258.5, 135172.58, -0.1465106, 0.14678766, -173663.14, 65676.51, 0.000008958339, 10.000544, 9.9986925 
1.2048749e+3, 2.8557733e+2, -87637.43, -355641.25, 2244.5037, -0.089654975, 0.13707495, -87618.63, 53737.996, 0.000049074697, 10.001417, 9.997876 
1.204852e+3, 2.955749e+2, 328243.4, -92701.04, 14271.459, 0.16687118, 0.09213471, 328726.7, 372104.13, 0.00016160097, 10.0035515, 9.997981 
1.2048271e+3, 3.0557257e+2, 304270.13, -25105.725, 64147.906, 0.08291952, 0.04287328, 316322.3, 316322.3, 0.0003810888, 10.002818, 9.9984665 
1.2048001e+3, 3.155692e+2, 5047.0117, 70215.0, 9329.644, -0.31895596, -0.15951094, 71524.35, 71524.35, 0.000699887, 9.999718, 10.000609 
1.215234e+3, 1.2560882e+2, -1811336.8, -1811676.3, 149951.38, 0.16120061, 0.095963076, -1661555.0, 47484.918, 0.0026624324, 9.999581, 9.999511 
1.2152084e+3, 1.3560799e+2, -1771304.5, -1727205.0, -54141.72, 0.12988418, 0.048657145, -1690795.3, -79740.3, 0.0014356553, 9.99906, 9.999709 
1.21518224e+3, 1.4560889e+2, -1526911.8, -1385688.8, 25893.299, -0.15678918, 0.08952343, -1381090.9, 131956.5, 0.0005075534, 9.999343, 10.001225 
1.21516004e+3, 1.55611e+2, -1277906.8, -1215624.0, 35791.113, -0.07200351, 0.1676794, -1199323.0, 215700.66, 0.000076397075, 10.000388, 10.001213 
1.21513695e+3, 1.6561143e+2, -1300143.6, -1316513.3, 42867.445, -0.05656591, 0.16161205, -1264686.6, 52331.508, 0.0000008702971, 10.000162, 9.999958 
1.21511355e+3, 1.756105e+2, -1370106.0, -1285184.3, 67582.19, -0.091003045, 0.060386397, -1247831.1, -28803.41, 0.0, 9.998949, 10.000084 
1.21509194e+3, 1.8561007e+2, -1164970.4, -1087145.6, 197979.94, -0.13947178, -0.009935922, -924290.25, 196739.31, 0.0, 9.999474, 10.00052 
1.2150719e+3, 1.9560994e+2, -793726.75, -859171.3, 194880.02, -0.20095412, -0.08689239, -628840.94, 394185.28, 0.0, 10.001355, 10.000505 
1.2150509e+3, 2.0561035e+2, -812358.44, -1001314.9, 83740.78, -0.19370349, -0.004029683, -780588.25, 144436.06, 0.0, 10.001353, 9.998856 
1.2150294e+3, 2.1561113e+2, -922270.4, -987708.56, 76197.22, -0.1272944, 0.17625171, -872064.5, -45040.375, 0.0, 9.999857, 9.998997 
1.21500865e+3, 2.2561078e+2, -821668.06, -817222.3, 118796.375, -0.059518375, 0.21172509, -700628.0, 28400.555, 0.0, 9.999562, 9.999642 
1.2149885e+3, 2.356095e+2, -625287.2, -668641.2, 134069.53, 0.0056517576, 0.106871285, -511153.56, 119883.48, 0.0, 10.000231, 9.999665 
1.21496655e+3, 2.4560864e+2, -532479.56, -730633.5, 82956.99, -0.024945995, 0.13459209, -502335.38, 30710.15, 0.0, 10.000873, 9.998252 
1.214943e+3, 2.55608e+2, -333181.97, -571548.9, 98725.086, -0.12193576, 0.23233864, -297603.22, 137452.05, 0.00000000018849695, 10.0015135, 9.998364 
1.2149209e+3, 2.6560605e+2, -243954.44, -443613.88, 113732.29, -0.10509101, 0.18828249, -192453.38, 144620.4, 0.00000061447383, 10.001311, 9.998666 
1.2148999e+3, 2.75603e+2, -265152.13, -395076.28, 117163.14, -0.0022983127, 0.003327706, -196146.77, 42953.004, 0.00000822272, 10.00046, 9.998735 
1.2148767e+3, 2.8560176e+2, -77396.766, -313786.06, 83877.32, -0.054086786, 0.041060995, -50659.086, 90451.41, 0.000047693058, 10.001329, 9.998206 
1.21485196e+3, 2.9560196e+2, 342999.84, -61812.953, 94249.61, -0.21793547, 0.22694771, 363867.56, 406977.3, 0.00015870755, 10.00355, 9.998194 
1.214828e+3, 3.0559936e+2, 159817.3, -316515.72, -58266.504, -0.12835607, 0.24320744, 166841.06, 166841.06, 0.00037049488, 10.002785, 9.99648 
1.21480405e+3, 3.1559244e+2, -169035.08, -243050.06, -94812.38, 0.10311482, -0.11432757, -104263.68, -104263.68, 0.0006721112, 9.9995165, 9.998553 
1.2252341e+3, 1.2563045e+2, -1884020.4, -1808838.8, 61769.54, 0.25051555, -0.0010410812, -1774120.9, -65292.863, 0.0029179724, 9.998909, 9.999864 
1.2252058e+3, 1.3563113e+2, -1854736.5, -1735892.5, -100481.414, 0.008722028, 0.076011844, -1678577.6, -67748.82, 0.0015834377, 9.998345, 10.000001 
1.2251808e+3, 1.4563255e+2, -1670641.5, -1440803.0, 53860.96, -0.17713171, 0.14802003, -1428807.3, 84010.44, 0.00056846405, 9.9983015, 10.001345 
1.2251594e+3, 1.556346e+2, -1498581.8, -1306569.9, 5067.695, -0.08811627, 0.20896704, -1306436.1, 108360.125, 0.00008951281, 9.998806, 10.001351 
1.22513674e+3, 1.6563508e+2, -1355132.1, -1275625.4, -18794.383, -0.06912891, 0.16882104, -1271406.5, 45382.14, 0.0000012652538, 9.999496, 10.00056 
1.2251131e+3, 1.7563428e+2, -1129354.0, -1105917.4, 25976.1, -0.08899256, 0.019861348, -1089138.8, 129653.516, 0.0, 10.000334, 10.000646 
1.2250917e+3, 1.8563433e+2, -1130422.4, -1092505.4, 179467.52, -0.123901606, -0.019176682, -930997.8, 189791.77, 0.0, 9.99981, 10.000319 
1.2250719e+3, 1.9563498e+2, -1256427.3, -1099823.5, 154744.95, -0.1806391, 0.0023595255, -1004697.56, 18084.793, 0.0, 9.998262, 10.00034 
1.2250513e+3, 2.0563506e+2, -1169775.9, -1150202.4, 80714.47, -0.16768536, 0.047334954, -1078683.5, -153899.86, 0.0, 9.998795, 9.999069 
1.2250301e+3, 2.1563461e+2, -750836.44, -884259.5, 112208.12, -0.09417313, 0.08369398, -687006.44, 139785.6, 0.0, 10.000942, 9.9991865 
1.2250098e+3, 2.2563437e+2, -541464.56, -701429.8, 153222.5, -0.0072695115, 0.1311765, -448605.2, 280190.34, 0.0, 10.0015745, 9.999463 
1.2249899e+3, 2.3563424e+2, -518947.6, -634683.06, 119485.13, 0.08116722, 0.15768318, -444054.75, 186740.92, 0.0, 10.00103, 9.999512 
1.2249678e+3, 2.456336e+2, -476212.2, -662262.3, 83270.78, 0.0048077074, 0.19485459, -444386.6, 88415.37, 0.0, 10.001076, 9.99863 
1.22494385e+3, 2.5563252e+2, -288650.97, -506834.75, 93743.19, -0.1967262, 0.20916823, -253906.75, 180907.17, 0.0, 10.001634, 9.998752 
1.2249219e+3, 2.656305e+2, -190906.39, -406305.38, 75588.37, -0.15778936, 0.13838677, -167027.84, 169802.56, 0.0000003685213, 10.001626, 9.998772 
1.2249012e+3, 2.756277e+2, -159095.02, -336578.94, 77967.71, 0.06598786, -0.028824784, -129709.5, 109141.875, 0.000007319039, 10.001155, 9.998804 
1.2248783e+3, 2.8562632e+2, -174136.63, -405728.44, 86248.58, 0.0055404636, 0.006386046, -145545.86, -4680.101, 0.000046575948, 10.000856, 9.997802 
1.22485355e+3, 2.9562593e+2, -95196.04, -315279.25, 27341.951, -0.27275097, 0.17424515, -91850.09, -48974.71, 0.0001562628, 10.00072, 9.997817 
1.22482985e+3, 3.0562407e+2, -8769.987, -396554.06, -122764.67, -0.15178967, 0.28205243, 26827.162, 26827.162, 0.00036177837, 10.001626, 9.996487 
1.22480676e+3, 3.1561807e+2, 363355.8, -8724.621, -20924.64, 0.23785412, 0.017808994, 364528.84, 364528.84, 0.0006523267, 10.003258, 9.998366 
1.2352302e+3, 1.2565096e+2, -1768902.6, -1565150.9, 43263.633, -0.044883266, -0.055148024, -1556345.1, 152291.06, 0.0031899144, 9.998889, 10.001545 
1.2352026e+3, 1.3565558e+2, -1749032.8, -1517129.5, -117403.25, -0.15435944, 0.254868, -1468071.1, 142520.58, 0.0017411282, 9.998352, 10.001497 
1.2351795e+3, 1.4565736e+2, -1702776.0, -1518901.1, 69788.836, -0.13494664, 0.32086435, -1495413.4, 17162.693, 0.0006337289, 9.998342, 10.000796 
1.2351573e+3, 1.5565704e+2, -1527100.8, -1372056.0, 29801.133, -0.1895996, 0.20187521, -1366525.1, 48056.938, 0.00010392506, 9.998826, 10.0008955 
1.235135e+3, 1.6565764e+2, -1285335.9, -1133076.0, 8884.409, -0.18713589, 0.14116311, -1132559.4, 184013.83, 0.0000017603737, 9.999503, 10.001535 
1.2351133e+3, 1.7565893e+2, -1067990.5, -977097.56, 54856.36, -0.113790244, 0.1028556, -951307.75, 267244.84, 0.0, 10.000325, 10.001535 
1.23509206e+3, 1.8566021e+2, -1159320.5, -1150711.0, 115403.914, -0.08080533, 0.1687458, -1039531.56, 81007.47, 0.0, 9.999803, 9.999924 
1.23507105e+3, 1.9566144e+2, -1278247.0, -1145927.5, 108304.664, -0.09117193, 0.28677726, -1085173.8, -62642.113, 0.0, 9.998264, 10.000025 
1.2350509e+3, 2.0566057e+2, -1110779.1, -1024744.5, 155162.95, -0.07937628, 0.207018, -906746.2, 17792.764, 0.0, 9.998782, 9.999935 
1.2350316e+3, 2.1565805e+2, -703461.7, -776731.6, 189257.08, -0.045610093, -0.050496385, -547326.44, 279231.66, 0.0, 10.0009, 9.999946 
1.2350112e+3, 2.2565739e+2, -601946.3, -809578.6, 126664.086, -0.02111009, -0.043008585, -541989.5, 186573.95, 0.0, 10.0015, 9.998755 
1.2349901e+3, 2.3565806e+2, -573017.75, -732249.75, 104881.43, -0.0031300178, 0.13716789, -520956.78, 109602.3, 0.0, 10.000971, 9.99887 
1.23496816e+3, 2.4565715e+2, -448077.53, -597118.44, 99382.55, -0.06554384, 0.15147798, -398379.7, 134188.97, 0.0, 10.001044, 9.999093 
1.2349456e+3, 2.5565496e+2, -264371.63, -446235.84, 116843.516, -0.19039413, 0.008394486, -207246.13, 227343.25, 0.0, 10.001585, 9.999193 
1.2349236e+3, 2.6565388e+2, -190780.0, -389410.38, 54246.18, -0.1504643, -0.0026171647, -176930.9, 159665.58, 0.00000016286783, 10.001556, 9.99892 
1.234902e+3, 2.756535e+2, -163208.9, -331372.34, 66619.695, 0.018512651, 0.05823127, -140015.66, 98578.445, 0.0000066111284, 10.0011, 9.998864 
1.23487964e+3, 2.8565088e+2, -263234.9, -579428.8, 76648.46, 0.05053013, 0.033272468, -245634.3, -105011.12, 0.000046430763, 10.000805, 9.9966345 
1.2348567e+3, 2.956465e+2, -178968.7, -465272.34, 31421.129, -0.022124883, -0.084950686, -175560.88, -132883.83, 0.00015647624, 10.000614, 9.996839 
1.2348328e+3, 3.0564645e+2, 127577.086, -99343.94, -56751.273, -0.02612532, 0.14313151, 140978.69, 140978.69, 0.00036044128, 10.001561, 9.998561 
1.2348075e+3, 3.1564647e+2, 481772.2, 248222.58, 62840.082, -0.029061982, 0.27151963, 497606.7, 497606.7, 0.00064737466, 10.003216, 10.00015 
1.2452275e+3, 1.2567534e+2, -1994798.3, -1583608.3, 160373.06, -0.099946335, 0.12341236, -1528456.6, 179947.33, 0.003475539, 9.996954, 10.002346 
1.2451998e+3, 1.356788e+2, -1727239.3, -1423986.4, -54043.574, -0.25466624, 0.24015395, -1414642.9, 195722.06, 0.0019075654, 9.998139, 10.00224 
1.2451786e+3, 1.4568053e+2, -1682086.1, -1492369.5, 131549.95, -0.06435809, 0.25653464, -1425044.4, 87303.05, 0.0007030745, 9.998416, 10.00094 
1.2451555e+3, 1.5568094e+2, -1648901.6, -1417858.5, 133096.02, -0.19705151, 0.19685496, -1357142.3, 57203.99, 0.00011956255, 9.997938, 10.001009 
1.24513365e+3, 1.656817e+2, -1502453.5, -1245096.0, 124398.25, -0.203583, 0.15426907, -1194796.8, 121539.2, 0.0000023468863, 9.99805, 10.001466 
1.2451132e+3, 1.7568283e+2, -1315565.4, -1105544.3, 82105.56, -0.075949915, 0.10768893, -1077256.1, 141061.73, 0.0, 9.998668, 10.0014515 
1.2450919e+3, 1.8568397e+2, -1257418.0, -1232646.9, 79145.414, -0.03423472, 0.17597875, -1164923.8, -44616.363, 0.0, 9.999272, 9.999617 
1.2450703e+3, 1.9568495e+2, -1062019.9, -1070575.0, 76485.67, -0.07241071, 0.30163917, -989692.25, 32611.742, 0.0, 9.999865, 9.999772 
1.2450504e+3, 2.0568432e+2, -890114.6, -861207.75, 172282.27, -0.07605019, 0.22954875, -702773.7, 221533.94, 0.0, 10.000046, 10.000452 
1.24503195e+3, 2.1568242e+2, -813527.25, -774063.9, 168443.16, -0.047306355, -0.020900082, -624200.7, 202116.44, 0.0, 9.9999075, 10.0004425 
1.2450117e+3, 2.2568153e+2, -803782.8, -927675.06, 93512.55, -0.052610166, -0.048517384, -753559.75, -25236.611, 0.0, 10.000201, 9.998572 
1.2449901e+3, 2.3568135e+2, -603462.1, -764384.25, 102587.9, -0.08488579, 0.0616733, -553545.8, 76782.02, 0.0, 10.0008335, 9.998715 
1.2449685e+3, 2.4568027e+2, -501476.38, -622524.4, 97203.14, -0.106949344, 0.06650034, -447494.44, 84845.13, 0.0, 10.000681, 9.999091 
1.244947e+3, 2.5567847e+2, -501937.78, -559471.3, 71129.445, -0.12258676, -0.03551522, -453978.25, -19621.334, 0.0, 9.999952, 9.999201 
1.244925e+3, 2.6567784e+2, -354801.2, -461709.3, 16766.463, -0.09274605, -0.0067970455, -352233.38, -15872.758, 0.000000050542315, 10.000395, 9.998983 
1.244903e+3, 2.756779e+2, -66391.35, -277568.16, 12503.148, -0.026707217, 0.090542346, -65653.66, 172701.39, 0.000006130949, 10.001724, 9.998937 
1.2448807e+3, 2.856751e+2, -88389.91, -475462.84, 54987.75, 0.026452703, 0.03770195, -80729.914, 59654.836, 0.0000467863, 10.001933, 9.996801 
1.2448585e+3, 2.9567003e+2, -59441.203, -383462.1, 104790.39, 0.068702415, -0.16496763, -28504.996, 13937.797, 0.00016088788, 10.001337, 9.997047 
1.24483496e+3, 3.0567044e+2, 192841.47, -7682.8057, 68935.11, 0.03572549, 0.06675648, 214253.27, 214253.27, 0.00037296448, 10.001746, 9.9991 
1.2448097e+3, 3.1567147e+2, 459368.66, 264214.63, 56980.145, -0.11225899, 0.24476586, 474787.25, 474787.25, 0.0006689744, 10.002941, 10.000396 
1.2552248e+3, 1.2570347e+2, -1988461.3, -1585857.1, 135675.88, -0.09445684, 0.5241302, -1544403.3, 163729.77, 0.0037739007, 9.996999, 10.002317 
1.2551972e+3, 1.3570097e+2, -1719160.8, -1410432.0, -9774.97, -0.3236708, 0.041342717, -1410122.8, 200024.66, 0.0020822603, 9.998149, 10.00233 
1.2551777e+3, 1.4570232e+2, -1623831.5, -1378609.1, 109041.195, 0.0015110349, -0.026940754, -1337136.5, 174992.66, 0.0007764397, 9.998443, 10.00171 
1.255154e+3, 1.5570632e+2, -1596349.4, -1317458.3, 119365.19, -0.15198335, 0.19565557, -1273347.0, 140741.52, 0.00013646827, 9.997973, 10.001681 
1.2551323e+3, 1.6570729e+2, -1578281.6, -1408992.9, 141030.86, -0.15702508, 0.20227097, -1329155.1, -13077.703, 0.0000030208696, 9.998074, 10.000331 
1.2551126e+3, 1.7570607e+2, -1387784.5, -1259456.1, 107220.76, -0.0028934865, 0.032716822, -1198667.0, 19420.742, 0.0, 9.998683, 10.000389 
1.2550916e+3, 1.8570565e+2, -1268365.6, -1258481.0, 96837.94, -0.014261771, 0.0061217626, -1166459.3, -46365.504, 0.0, 9.999285, 9.999434 
1.2550694e+3, 1.9570568e+2, -1073544.5, -1092911.9, 100274.06, -0.16526315, 0.05374526, -982487.6, 39610.504, 0.0, 9.999856, 9.999622 
1.2550493e+3, 2.0570645e+2, -883916.9, -838706.7, 160342.66, -0.1934742, 0.11790398, -699383.5, 224705.1, 0.0, 10.000004, 10.0006275 
1.2550311e+3, 2.157077e+2, -806499.7, -750263.25, 167310.84, -0.12839307, 0.16726036, -608724.3, 217344.75, 0.0, 9.999868, 10.000626 
1.2550111e+3, 2.2570676e+2, -785091.44, -877874.7, 112221.87, -0.13749233, 0.104900956, -710050.25, 18025.035, 0.0, 10.000154, 9.998938 
1.2549898e+3, 2.3570408e+2, -590556.25, -724953.94, 127070.56, -0.1996783, -0.06907697, -514010.16, 116091.44, 0.0, 10.000778, 9.999014 
1.254969e+3, 2.4570303e+2, -542781.75, -694978.25, 64513.797, -0.1527124, -0.050758038, -519115.4, 12998.495, 0.0, 10.000623, 9.998621 
1.254948e+3, 2.5570312e+2, -542741.56, -629581.4, 52790.906, -0.02324698, 0.08150803, -517808.22, -83691.805, 0.0, 9.99989, 9.998749 
1.2549263e+3, 2.6570234e+2, -364821.9, -469735.03, 64809.25, -0.019390032, 0.121362105, -333900.22, 2223.5164, 0.00000007625481, 10.000339, 9.998957 
1.2549038e+3, 2.7570087e+2, -70520.79, -271918.75, 63743.426, -0.11027946, 0.065786354, -52041.297, 186093.77, 0.0000061180435, 10.001664, 9.999004 
1.2548813e+3, 2.8569907e+2, 14138.24, -253571.95, 29387.93, -0.11307857, 0.025311118, 17326.338, 157476.52, 0.00004818149, 10.001893, 9.998344 
1.2548588e+3, 2.9569682e+2, 28334.572, -189577.7, 95113.28, -0.041390598, -0.045190025, 64008.914, 106178.69, 0.00017152917, 10.0012865, 9.998404 
1.2548363e+3, 3.0569604e+2, 108604.766, -175844.17, 114020.85, -0.008982689, 0.064939916, 148667.31, 148667.31, 0.00040416588, 10.001713, 9.997961 
1.2548131e+3, 3.1569263e+2, 336066.6, 43403.73, 115017.62, -0.08032214, -0.09234432, 375858.63, 375858.63, 0.00072634866, 10.002791, 9.99895 
1.2652224e+3, 1.257269e+2, -2164669.0, -1716034.3, 125559.414, 0.030191137, 0.45244336, -1683284.6, 24613.129, 0.004085261, 9.995994, 10.001906 
1.265195e+3, 1.3572489e+2, -1866312.4, -1514973.0, 9370.927, -0.3205511, 0.056539804, -1514723.3, 95188.375, 0.0022650692, 9.997299, 10.002012 
1.2651767e+3, 1.45726e+2, -1664382.0, -1404686.0, 45502.574, 0.077127576, -0.018312745, -1396944.1, 114952.055, 0.00085386867, 9.998207, 10.001637 
1.265153e+3, 1.5572919e+2, -1507081.1, -1282870.6, -17077.596, -0.08803854, 0.13088194, -1281577.3, 132284.14, 0.00015477135, 9.998633, 10.001595 
1.265131e+3, 1.657302e+2, -1491810.3, -1383352.4, 35989.6, -0.12045598, 0.1523586, -1372496.5, -56645.984, 0.0000038088367, 9.998742, 10.00018 
1.2651113e+3, 1.7572962e+2, -1390954.9, -1276088.8, 67917.195, -0.0031054954, 0.061538525, -1244576.4, -26719.55, 0.0, 9.99873, 10.00025 
1.2650907e+3, 1.8572895e+2, -1294506.8, -1260758.5, 116653.88, -0.014756604, 0.01355582, -1159764.6, -39899.77, 0.0, 9.999069, 9.99952 
1.2650692e+3, 1.9572815e+2, -1096105.8, -1093923.8, 127322.8, -0.14344862, -0.032303926, -967687.25, 54187.93, 0.0, 9.99967, 9.9997015 
1.2650496e+3, 2.0572895e+2, -929132.56, -868051.94, 165219.55, -0.1464676, 0.034856446, -730573.75, 193291.58, 0.0, 9.999731, 10.000553 
1.2650314e+3, 2.1573088e+2, -883048.8, -794572.5, 146834.4, -0.053238183, 0.15991448, -685456.94, 140384.0, 0.0, 9.999372, 10.000558 
1.2650113e+3, 2.2573023e+2, -870749.9, -895885.0, 112515.5, -0.083950795, 0.11906435, -770102.25, -42257.426, 0.0, 9.999461, 9.999148 
1.2649901e+3, 2.3572761e+2, -705037.94, -756758.5, 104397.88, -0.20750748, -0.072128706, -623345.1, 6525.0356, 0.0, 9.999892, 9.999222 
1.2649694e+3, 2.4572656e+2, -564633.7, -713532.0, 45130.824, -0.15652661, -0.059918057, -552022.7, -20141.064, 0.0, 10.000508, 9.9985485 
1.264949e+3, 2.5572655e+2, -346453.03, -544663.0, 57971.93, 0.02569116, 0.07044167, -330742.75, 103141.375, 0.0, 10.001275, 9.998666 
1.2649277e+3, 2.6572558e+2, -186497.38, -411791.28, 106771.31, 0.015758362, 0.112091705, -143936.56, 191957.69, 0.00000015326442, 10.001689, 9.998704 
1.2649053e+3, 2.7572393e+2, -51978.17, -282659.4, 74422.22, -0.14053392, 0.06255592, -30052.17, 207858.17, 0.000006713193, 10.001879, 9.998825 
1.2648828e+3, 2.8572237e+2, 94250.13, -158702.92, -33039.26, -0.16923228, 0.02621153, 98494.32, 238415.72, 0.000050966704, 10.002192, 9.998855 
1.26486e+3, 2.957208e+2, 249824.3, -35826.184, -53556.434, -0.09761538, -0.032676462, 259535.4, 301465.1, 0.00018813205, 10.002601, 9.998829 
1.2648384e+3, 3.057194e+2, 177805.13, -236020.28, -29592.44, -0.018712929, 0.042540092, 179910.56, 179910.56, 0.00045240638, 10.002595, 9.997124 
1.2648162e+3, 3.157145e+2, 186569.25, -153961.34, -20483.424, -0.010331644, -0.1760804, 187796.94, 187796.94, 0.0008181, 10.002297, 9.997831 
1.2752192e+3, 1.2574632e+2, -2206043.5, -1825472.3, 77239.32, 0.08357137, -0.035181563, -1810393.5, -102701.445, 0.0044096503, 9.996084, 10.001117 
1.2751928e+3, 1.3575064e+2, -1918236.4, -1619775.8, 60971.563, -0.2760394, 0.27628317, -1607800.5, 1856.0656, 0.0024558255, 9.997296, 10.001289 
1.2751755e+3, 1.4575158e+2, -1722974.3, -1534096.9, 59449.88, 0.118213795, 0.2630738, -1516942.8, -5294.615, 0.00093550276, 9.998233, 10.00074 
1.2751521e+3, 1.5574974e+2, -1562731.8, -1402103.3, 1647.6053, -0.03632227, 0.0019273591, -1402086.4, 11576.304, 0.00017466526, 9.998645, 10.000773 
1.2751298e+3, 1.6575062e+2, -1434223.8, -1268377.5, 30381.158, -0.12734477, 0.00983764, -1262987.3, 52665.41, 0.0000047674703, 9.998756, 10.000965 
1.275109e+3, 1.7575358e+2, -1334622.8, -1162448.5, 71617.2, -0.11001856, 0.19106765, -1136553.5, 81070.625, 0.0, 9.998741, 10.001025 
1.2750892e+3, 1.8575396e+2, -1271441.9, -1214987.1, 135106.98, -0.07204259, 0.19185676, -1105190.3, 14429.904, 0.0, 9.999073, 9.999835 
1.27507e+3, 1.9575234e+2, -1077766.3, -1055155.0, 150929.52, -0.04456563, 0.03507625, -915108.2, 106526.81, 0.0, 9.999663, 9.999973 
1.2750511e+3, 2.0575184e+2, -957115.1, -918847.06, 145987.75, 0.027823126, -0.022559391, -790744.75, 132892.84, 0.0, 9.999699, 10.00022 
1.2750329e+3, 2.1575207e+2, -912282.6, -842002.1, 138690.92, 0.14399163, -0.036581434, -734068.94, 91562.97, 0.0, 9.999315, 10.000258 
1.2750125e+3, 2.257521e+2, -875617.06, -891394.5, 123335.07, 0.07327935, 0.0028953962, -759918.7, -32288.074, 0.0, 9.999399, 9.999209 
1.2749907e+3, 2.3575196e+2, -707671.94, -749364.9, 126068.28, -0.14070916, 0.053880546, -600738.2, 28895.021, 0.0, 9.999838, 9.9993 
1.2749699e+3, 2.457508e+2, -547827.75, -668613.6, 70539.75, -0.15416995, 0.034774385, -515359.7, 16283.6, 0.0, 10.000464, 9.998878 
1.2749499e+3, 2.557488e+2, -333969.44, -507804.6, 90628.195, -0.012634947, -0.0664444, -295315.78, 138343.8, 0.0, 10.001229, 9.9989395 
1.2749289e+3, 2.6574773e+2, -226258.63, -489786.34, 110602.72, -0.024457723, -0.026047567, -185991.45, 149679.77, 0.00000020123079, 10.001663, 9.998182 
1.2749071e+3, 2.7574712e+2, -96351.47, -362964.25, 88590.49, -0.14986232, 0.08523655, -69598.91, 168081.66, 0.0000075115454, 10.001826, 9.998301 
1.274885e+3, 2.85745e+2, 46786.125, -245596.86, -21223.525, -0.1843005, 0.046585042, 48318.668, 188017.81, 0.000055155855, 10.002144, 9.998277 
1.2748624e+3, 2.9574165e+2, 199451.84, -126138.695, -34190.27, -0.14115223, -0.13594119, 203003.42, 244728.52, 0.00020861672, 10.002539, 9.998236 
1.2748408e+3, 3.057403e+2, 131044.875, -322520.44, -45723.7, -0.034253974, 0.001965635, 135608.34, 135608.34, 0.00051064143, 10.002547, 9.996553 
1.2748191e+3, 3.1573743e+2, 106061.41, -286754.63, -16457.174, 0.027385913, 0.040482815, 106749.68, 106749.68, 0.0009327419, 10.002154, 9.996986 
1.2852162e+3, 1.2576841e+2, -1955472.0, -1790720.6, -19489.951, 0.07317521, -0.19197284, -1788446.4, -80979.234, 0.0047468157, 9.998157, 10.000363 
1.2851909e+3, 1.3577329e+2, -1971334.3, -1726253.5, 25919.473, -0.18894346, 0.251701, -1723542.3, -114110.305, 0.0026545508, 9.997284, 10.000563 
1.2851736e+3, 1.4577408e+2, -1865347.1, -1615626.3, 71515.62, 0.15485226, 0.26328605, -1596595.8, -85168.61, 0.0010215283, 9.997314, 10.000622 
1.2851502e+3, 1.5577187e+2, -1657367.5, -1459879.9, 57758.285, -0.05054048, -0.023522848, -1444228.1, -30783.334, 0.00019628371, 9.998046, 10.000667 
1.2851281e+3, 1.6577274e+2, -1500559.4, -1291646.4, 69848.33, -0.12753117, -0.016142754, -1270444.8, 44990.6, 0.0000059623408, 9.998262, 10.001046 
1.2851077e+3, 1.7577599e+2, -1419379.5, -1190227.3, 53856.01, -0.0650716, 0.18748543, -1178201.0, 39204.01, 0.0, 9.9981, 10.001145 
1.2850884e+3, 1.8577696e+2, -1374631.1, -1199503.4, 127779.3, -0.010502457, 0.21211465, -1132164.1, -12769.76, 0.0, 9.998089, 10.000413 
1.2850694e+3, 1.9577618e+2, -1247088.8, -1082723.3, 153789.45, 0.014788389, 0.08072239, -990535.1, 30863.549, 0.0, 9.998271, 10.000455 
1.2850505e+3, 2.0577534e+2, -1150596.5, -1079956.4, 141845.17, 0.056506466, 0.0010142763, -969099.94, -45694.777, 0.0, 9.998667, 9.999611 
1.2850317e+3, 2.1577437e+2, -967705.25, -928500.9, 106038.62, 0.11813739, -0.072881155, -840267.8, -14853.724, 0.0, 9.999194, 9.9997225 
1.285012e+3, 2.2577436e+2, -812097.25, -839459.2, 110080.05, 0.07454595, -0.023209512, -714851.25, 12562.755, 0.0, 9.999749, 9.999394 
1.2849915e+3, 2.3577505e+2, -620604.25, -684943.1, 112145.96, -0.054273494, 0.09158195, -536105.0, 93302.76, 0.0, 10.000344, 9.999494 
1.2849711e+3, 2.4577384e+2, -491088.03, -630590.4, 61899.26, -0.09673428, 0.052683197, -467582.88, 63833.363, 0.0, 10.000805, 9.998977 
1.2849505e+3, 2.557712e+2, -334802.7, -499817.1, 53897.832, -0.0705121, -0.12670267, -318758.28, 114677.75, 0.0, 10.001187, 9.999016 
1.2849301e+3, 2.6576966e+2, -284460.34, -566310.75, 63829.797, -0.05052404, -0.10868153, -270678.88, 64772.844, 0.00000014147287, 10.001472, 9.997748 
1.2849098e+3, 2.7576885e+2, -142109.63, -429097.84, 39307.438, -0.039512828, 0.024193883, -136823.23, 100642.17, 0.00000765521, 10.0016985, 9.997908 
1.2848881e+3, 2.8576684e+2, 34425.38, -248542.84, -22247.69, -0.077994116, 0.014623743, 36163.87, 175648.5, 0.00005963982, 10.002049, 9.998305 
1.2848648e+3, 2.9576385e+2, 200633.88, -120311.21, -4515.44, -0.14293532, -0.13257308, 200697.39, 242205.89, 0.00023270336, 10.002526, 9.998282 
1.2848435e+3, 3.0576256e+2, 237227.31, -253942.64, 38596.7, -0.04582276, 0.0013785429, 240241.78, 240241.78, 0.0005778234, 10.003203, 9.996709 
1.2848225e+3, 3.1576034e+2, 370747.03, -166067.4, 107536.42, 0.06582224, 0.0900061, 391487.75, 391487.75, 0.0010639558, 10.004001, 9.996927 
1.2952122e+3, 1.2579301e+2, -2011741.1, -1904268.5, -119069.63, -0.14571534, -0.060902838, -1827371.0, -120147.195, 0.0050962004, 9.998137, 9.999599 
1.2951893e+3, 1.3579316e+2, -2026218.8, -1835556.8, 3504.9587, -0.0812003, -0.0027097699, -1835492.4, -226258.2, 0.0028611089, 9.997277, 9.999811 
1.295171e+3, 1.457938e+2, -1818579.3, -1531367.1, 94920.63, 0.14442454, 0.00035440558, -1502832.0, 8398.248, 0.00111182, 9.99736, 10.001183 
1.2951472e+3, 1.5579562e+2, -1616356.1, -1381074.4, 86404.91, -0.1641037, 0.056174792, -1352752.3, 60455.188, 0.000219555, 9.998067, 10.0012 
1.2951262e+3, 1.6579653e+2, -1538438.5, -1373026.1, 58714.992, -0.15878826, 0.07112501, -1354303.6, -39104.938, 0.0000074533, 9.998274, 10.000482 
1.2951076e+3, 1.7579697e+2, -1453411.1, -1261524.1, 50897.332, 0.09763173, 0.051595896, -1248859.6, -31660.967, 0.0, 9.998107, 10.00065 
1.2950881e+3, 1.8579817e+2, -1317106.6, -1084686.9, 128818.086, 0.13310246, 0.08208548, -1027406.56, 91779.086, 0.0, 9.998104, 10.001196 
1.2950678e+3, 1.9579978e+2, -1199410.3, -985620.75, 164461.47, 0.0030070427, 0.109514445, -896367.44, 124797.57, 0.0, 9.998278, 10.001119 
1.2950478e+3, 2.0579949e+2, -1213180.4, -1208931.6, 156458.94, -0.09302058, 0.1015894, -1054582.6, -131414.86, 0.0, 9.998662, 9.998729 
1.2950282e+3, 2.1579781e+2, -1030544.44, -1047608.6, 128873.85, -0.161228, 0.045089148, -909920.56, -84732.875, 0.0, 9.9991455, 9.998929 
1.29501e+3, 2.2579704e+2, -800135.56, -802349.56, 127895.04, -0.11479149, 0.040828973, -673342.75, 53852.22, 0.0, 9.999694, 9.999676 
1.2949927e+3, 2.3579688e+2, -610567.6, -652545.44, 138850.66, 0.016850313, 0.040752202, -491128.47, 138065.36, 0.0, 10.000293, 9.999741 
1.2949726e+3, 2.457957e+2, -507137.03, -652117.06, 71593.87, -0.021598727, -0.0014547092, -477742.38, 53458.016, 0.0, 10.000755, 9.998851 
1.2949507e+3, 2.5579363e+2, -354586.16, -526707.06, 72895.97, -0.1813285, -0.10757931, -327862.63, 105350.88, 0.0, 10.001127, 9.998859 
1.2949313e+3, 2.657914e+2, -317154.88, -623714.7, 69397.76, -0.100859575, -0.13405971, -302176.72, 33059.492, 0.000000052184554, 10.001424, 9.997377 
1.2949137e+3, 2.7578902e+2, -172797.81, -475229.25, 54945.9, 0.15561172, -0.12549973, -163124.61, 74141.234, 0.000006761853, 10.001623, 9.997627 
1.2948921e+3, 2.8578794e+2, 72015.76, -158157.66, -6316.5225, 0.11211143, -0.06571723, 72188.97, 211466.8, 0.000062792315, 10.001991, 9.998956 
1.2948674e+3, 2.9578763e+2, 236726.67, -34318.344, 24658.203, -0.14277855, -0.0077452827, 238951.67, 280230.03, 0.00025878826, 10.002475, 9.998902 
1.2948464e+3, 3.057863e+2, 291309.72, -128572.7, 69390.34, -0.10082563, 0.051493898, 302480.1, 302480.1, 0.00065176375, 10.003156, 9.997588 
1.2948263e+3, 3.1578314e+2, 400620.22, -68718.32, 155347.06, 0.026768783, -0.044531412, 447380.13, 447380.13, 0.0012059709, 10.003863, 9.997655 
1.3052094e+3, 1.2581661e+2, -2295053.3, -1942259.5, -149627.44, -0.11679118, 0.03612387, -1887346.5, -180350.89, 0.0054552136, 9.995771, 10.000477 
1.3051876e+3, 1.3581595e+2, -1909553.3, -1717138.0, 85132.23, -0.0031429094, -0.050014704, -1684880.1, -75873.25, 0.003073975, 9.997813, 10.000362 
1.3051684e+3, 1.4581622e+2, -1688607.9, -1486819.4, 184025.13, 0.11383245, -0.09762838, -1377844.9, 133159.27, 0.0012055306, 9.998336, 10.001016 
1.3051459e+3, 1.5581843e+2, -1656636.1, -1420976.4, 113204.65, -0.09945276, 0.012890567, -1375407.5, 37571.33, 0.000244213, 9.997884, 10.001011 
1.3051255e+3, 1.6581911e+2, -1605372.9, -1473849.1, 72291.72, -0.05093009, 0.045195743, -1441883.3, -126909.35, 0.000009295233, 9.998119, 9.999861 
1.3051069e+3, 1.7581876e+2, -1374573.5, -1290130.6, 52636.082, 0.18069941, 0.011080412, -1264874.6, -47891.527, 0.0, 9.9989395, 10.000053 
1.3050872e+3, 1.8581963e+2, -1162676.8, -1039547.44, 85456.86, 0.19035563, 0.048753154, -995788.4, 123187.03, 0.0, 9.999288, 10.000935 
1.3050668e+3, 1.9582123e+2, -1066286.5, -943436.1, 37020.63, 0.033746153, 0.10008464, -933142.56, 87814.28, 0.0, 9.999283, 10.000923 
1.305047e+3, 2.0582135e+2, -1030182.25, -1075618.3, 78786.21, -0.08364316, 0.119908646, -970904.06, -47948.336, 0.0, 9.999728, 9.999128 
1.3050279e+3, 2.1582039e+2, -799572.56, -894871.0, 136537.19, -0.17263141, 0.09453861, -702609.0, 122358.23, 0.0, 10.000558, 9.999295 
1.3050102e+3, 2.2581954e+2, -692088.4, -771988.7, 140005.98, -0.11003976, 0.07575292, -586444.25, 140530.64, 0.0, 10.000527, 9.999483 
1.3049933e+3, 2.3581873e+2, -683202.94, -707847.3, 107094.98, 0.06569244, 0.027538542, -587723.56, 41257.027, 0.0, 9.999875, 9.999564 
1.3049738e+3, 2.4581751e+2, -560323.9, -690821.56, 66144.1, 0.04713498, -0.0019423447, -532661.7, -1673.4266, 0.0, 10.000446, 9.998736 
1.3049528e+3, 2.5581592e+2, -243308.86, -481608.22, 54676.004, -0.11274182, -0.049749844, -231362.73, 201635.55, 0.0, 10.001923, 9.998789 
1.3049333e+3, 2.658136e+2, -263054.7, -553136.1, 36797.16, -0.05288057, -0.100556634, -258459.7, 76560.555, 0.000000019202236, 10.001609, 9.99777 
1.3049145e+3, 2.7581072e+2, -370068.56, -528048.1, 73055.06, 0.16709568, -0.18082839, -341464.53, -104413.3, 0.0000058574187, 10.000085, 9.998004 
1.3048933e+3, 2.8581002e+2, -124874.38, -250156.02, 85445.625, 0.113484524, -0.10102903, -81567.92, 57491.844, 0.00006594774, 10.000625, 9.998982 
1.30487e+3, 2.9581082e+2, 275258.44, -1264.3657, 58110.42, -0.1370448, 0.06286345, 286973.8, 328026.5, 0.00028475493, 10.002679, 9.999028 
1.3048495e+3, 3.0580923e+2, 357202.66, 10835.478, 57586.867, -0.08796045, 0.03522837, 366526.06, 366526.06, 0.0007251385, 10.003137, 9.998562 
1.3048294e+3, 3.158058e+2, 261573.1, -36085.18, 134442.48, 0.04282806, -0.18621866, 313305.4, 313305.4, 0.0013470041, 10.002459, 9.998568 
1.315207e+3, 1.2583949e+2, -2118031.3, -1594112.6, -64206.82, 0.048279036, 0.100383334, -1586358.8, 120420.61, 0.005819013, 9.995841, 10.002841 
1.3151857e+3, 1.3584164e+2, -1788825.6, -1468955.5, 152828.44, 0.014822508, 0.10017733, -1407676.3, 201073.72, 0.0032902497, 9.997819, 10.0020685 
1.3151659e+3, 1.4584136e+2, -1746221.4, -1607412.4, 156961.03, 0.021853656, -0.03529825, -1505196.0, 5553.02, 0.0013013786, 9.9983425, 10.000185 
1.315146e+3, 1.5584044e+2, -1717945.1, -1547250.3, 100327.35, 0.10312199, -0.14854634, -1500879.3, -88121.89, 0.00026992275, 9.997884, 10.000143 
1.3151257e+3, 1.6584058e+2, -1651928.6, -1577268.8, 95884.98, 0.15504314, -0.08980131, -1511703.4, -196943.75, 0.00001153221, 9.998141, 9.9991455 
1.3151057e+3, 1.7584142e+2, -1420843.3, -1392613.1, 83576.42, 0.15658818, 0.06208541, -1321968.3, -105210.16, 0.0, 9.998963, 9.999341 
1.3150859e+3, 1.8584134e+2, -1250977.6, -1223834.8, 81072.27, 0.12592344, 0.10683132, -1155205.9, -36442.613, 0.0, 9.999292, 9.999668 
1.3150665e+3, 1.9584063e+2, -1143879.9, -1097431.9, 42095.34, 0.076317035, 0.052711055, -1072579.1, -51805.895, 0.0, 9.999253, 9.999882 
1.3150482e+3, 2.0584102e+2, -917727.06, -834441.9, 105582.664, 0.052004695, 0.059085116, -762586.44, 160181.45, 0.0, 9.999694, 10.0008 
1.3150308e+3, 2.1584214e+2, -703463.5, -685401.7, 167517.25, 0.048814017, 0.0765256, -526672.06, 298080.2, 0.0, 10.000513, 10.000756 
1.3150123e+3, 2.258419e+2, -744666.25, -870888.2, 110950.98, 0.04737946, 0.08416102, -680132.7, 46620.887, 0.0, 10.000481, 9.998829 
1.314993e+3, 2.3584057e+2, -735959.8, -803962.7, 94656.43, 0.05169058, 0.054496583, -669383.25, -40615.61, 0.0, 9.999817, 9.998935 
1.3149746e+3, 2.4583931e+2, -577470.75, -713321.25, 118355.5, 0.071491875, 0.057076916, -508934.03, 21845.479, 0.0, 10.000389, 9.99861 
1.3149568e+3, 2.558381e+2, -253138.27, -488004.03, 107258.516, 0.10472743, 0.054860357, -211527.53, 221262.4, 0.0, 10.0018635, 9.998774 
1.314936e+3, 2.6583633e+2, -190548.73, -390514.03, -24506.674, 0.053909045, -0.0015222249, -187589.14, 147214.52, 0.000000054232096, 10.001553, 9.998915 
1.3149124e+3, 2.758341e+2, -313499.0, -391306.0, 33462.996, -0.053930037, -0.13076434, -301087.25, -64266.35, 0.0000056747863, 10.000004, 9.998981 
1.3148916e+3, 2.8583324e+2, -173450.92, -337689.2, 161534.11, -0.12206458, -0.07957426, -74360.734, 64469.094, 0.00007077781, 10.000567, 9.998408 
1.3148725e+3, 2.9583338e+2, 231180.39, -71569.96, 135848.11, -0.1614314, 0.07419401, 283199.3, 324031.78, 0.000310223, 10.00259, 9.998589 
1.3148531e+3, 3.058312e+2, 423190.3, 164437.58, 30375.57, -0.04564094, -0.05102164, 426708.3, 426708.3, 0.00079265307, 10.003067, 9.999651 
1.314832e+3, 3.1582817e+2, 316648.38, 119264.91, 126953.15, 0.030713879, -0.3347754, 378758.28, 378758.28, 0.0014745404, 10.002297, 9.99971 
1.3252039e+3, 1.2586057e+2, -1936171.0, -1482267.9, -19566.771, 0.10274505, 0.049345348, -1481425.9, 225147.17, 0.006183249, 9.996968, 10.003075 
1.3251834e+3, 1.3586305e+2, -1892856.4, -1520641.0, 2858.948, 0.038347222, 0.07879384, -1520619.0, 87918.81, 0.0035072896, 9.997123, 10.002039 
1.3251632e+3, 1.4586316e+2, -1924609.8, -1736171.4, -57215.305, -0.027272977, 0.005049889, -1720159.6, -209625.34, 0.0013982238, 9.997306, 9.999797 
1.3251445e+3, 1.55862e+2, -1736640.4, -1591501.3, -82184.47, 0.19537987, -0.09753386, -1554432.1, -141882.72, 0.00029637254, 9.997904, 9.999832 
1.325125e+3, 1.6586192e+2, -1562575.0, -1482120.1, 10268.659, 0.24148779, -0.071472324, -1480830.1, -166277.25, 0.000014169166, 9.99853, 9.999607 
1.3251041e+3, 1.7586261e+2, -1370447.0, -1323835.6, 69285.414, 0.10452184, 0.017905638, -1274041.3, -57492.906, 0.0, 9.999115, 9.999738 
1.3250841e+3, 1.8586262e+2, -1288152.1, -1254252.4, 125314.125, 0.029328533, 0.058935262, -1144747.0, -26195.38, 0.0, 9.999099, 9.99955 
1.3250647e+3, 1.9586216e+2, -1228086.3, -1148880.0, 166344.22, 0.011405923, 0.04308579, -1017489.56, 3071.0867, 0.0, 9.998726, 9.999781 
1.3250476e+3, 2.0586258e+2, -1015903.75, -871555.5, 239297.92, 0.062836885, 0.05223478, -693784.44, 228771.28, 0.0, 9.998971, 10.000896 
1.3250318e+3, 2.1586362e+2, -823006.1, -731496.94, 172267.19, 0.16182381, 0.050263558, -599011.6, 225529.5, 0.0, 9.99964, 10.000861 
1.3250135e+3, 2.2586344e+2, -797649.3, -899975.56, 72199.445, 0.13797589, 0.063283026, -760322.75, -33780.926, 0.0, 10.000146, 9.998787 
1.3249929e+3, 2.3586234e+2, -628155.44, -752870.3, 96178.2, 0.026199015, 0.059122745, -575888.75, 52665.14, 0.0, 10.000576, 9.998913 
1.3249749e+3, 2.458612e+2, -545531.2, -707569.5, 178277.42, 0.04407628, 0.079151444, -430726.6, 99840.1, 0.0, 10.000652, 9.998519 
1.3249587e+3, 2.5586e+2, -456912.25, -585665.8, 153963.42, 0.15458514, 0.08800933, -354408.5, 78171.64, 0.0, 10.000467, 9.99877 
1.3249376e+3, 2.6585874e+2, -204778.86, -326957.88, -17642.432, 0.09437347, 0.044891875, -202282.33, 132305.88, 0.00000008813443, 10.00115, 9.999551 
1.3249134e+3, 2.7585727e+2, 82593.195, -139133.47, -1321.3872, -0.08978099, -0.07012377, 82601.06, 319194.97, 0.000005758402, 10.002455, 9.99954 
1.3248931e+3, 2.85856e+2, 89116.51, -259505.02, 156320.67, -0.13110735, -0.05775419, 148943.3, 287548.63, 0.000075127005, 10.002587, 9.997971 
1.3248758e+3, 2.95855e+2, 118170.695, -168939.69, 123506.42, -0.06860341, 0.02165733, 163987.97, 204608.63, 0.00033038916, 10.001998, 9.998203 
1.3248566e+3, 3.058526e+2, 272375.63, 83462.23, -45127.816, 0.047173876, -0.10311991, 282602.2, 282602.2, 0.00084619236, 10.002066, 9.999576 
1.3248344e+3, 3.1585103e+2, 377592.1, 166896.55, -50674.176, 0.029170929, -0.23743801, 389146.1, 389146.1, 0.0015748155, 10.00262, 9.999888 
1.3352e+3, 1.258801e+2, -2060406.0, -1731202.9, 41134.793, 0.0033019385, -0.109581515, -1726140.8, -19765.447, 0.0065457188, 9.996955, 10.001355 
1.3351806e+3, 1.3588057e+2, -2009748.8, -1759176.0, 3868.478, 0.035684142, -0.10203442, -1759116.3, -150749.86, 0.0037237175, 9.997115, 10.0004 
1.3351601e+3, 1.4588185e+2, -1916417.9, -1724307.8, -41905.0, -0.07144739, 0.015902814, -1715564.9, -205207.44, 0.0014951822, 9.997319, 9.999877 
1.3351421e+3, 1.5588322e+2, -1715010.9, -1553011.3, -53104.58, 0.14453796, 0.15208533, -1537155.1, -124801.78, 0.00032323142, 9.997925, 10.000089 
1.3351227e+3, 1.6588326e+2, -1455402.8, -1259095.0, 28581.322, 0.17176944, 0.09292428, -1255018.4, 59334.043, 0.000017128494, 9.998527, 10.001142 
1.3351023e+3, 1.758825e+2, -1270680.0, -1110897.4, 89331.71, -0.0038673533, -0.11141814, -1070943.9, 145408.22, 0.00000000003443261, 9.999093, 10.001208 
1.3350818e+3, 1.8588357e+2, -1217901.9, -1112401.6, 103370.6, -0.12944332, -0.08465994, -1049099.9, 69239.83, 0.0, 9.999108, 10.000523 
1.3350615e+3, 1.9588578e+2, -1170913.8, -1033679.75, 157449.31, -0.19343926, 0.0681955, -930545.25, 89774.55, 0.0, 9.998737, 10.0005665 
1.3350451e+3, 2.0588604e+2, -1118195.6, -1081088.4, 258335.05, -0.08650879, 0.10072756, -840641.56, 81677.87, 0.0, 9.998957, 9.999466 
1.3350314e+3, 2.1588486e+2, -921103.3, -923648.44, 199533.14, 0.13584837, 0.022418052, -722838.7, 101494.49, 0.0, 9.999586, 9.999573 
1.3350134e+3, 2.2588421e+2, -764963.3, -818068.1, 84066.336, 0.1243634, 0.016413854, -703355.75, 22983.623, 0.0, 10.000083, 9.999379 
1.3349928e+3, 2.3588394e+2, -598589.1, -679334.94, 116556.37, -0.046339974, 0.035218723, -515611.5, 112728.67, 0.0, 10.000523, 9.999445 
1.3349743e+3, 2.4588306e+2, -556303.94, -719700.94, 167489.83, -0.07927998, 0.058502704, -451649.3, 78701.57, 0.0, 10.000605, 9.998459 
1.3349575e+3, 2.5588164e+2, -467442.9, -598960.44, 156119.08, -0.010573207, 0.05309665, -363798.63, 68570.65, 0.0, 10.000426, 9.9987 
1.3349381e+3, 2.658807e+2, -201330.56, -309283.63, 29675.494, 0.023349466, 0.042255405, -193710.83, 140663.8, 0.00000008397673, 10.001106, 9.999691 
1.334917e+3, 2.7588013e+2, 81275.664, -127185.18, 50516.633, 0.030048728, -0.0031166677, 92872.32, 329243.47, 0.0000056271715, 10.002398, 9.999648 
1.3348976e+3, 2.8587833e+2, 60434.184, -311818.1, 128956.16, 0.053917743, -0.033635266, 100742.65, 239129.78, 0.0000764955, 10.002551, 9.997629 
1.3348795e+3, 2.958756e+2, 76384.48, -239067.05, 111870.32, 0.10721676, -0.085250065, 112029.82, 152447.11, 0.0003400778, 10.001923, 9.997762 
1.3348596e+3, 3.0587348e+2, 173017.13, -102494.914, -23327.777, 0.14439707, -0.09978252, 174978.34, 174978.34, 0.0008788174, 10.001989, 9.998326 
1.3348365e+3, 3.158742e+2, 290059.63, 28138.955, -16204.829, -0.02931228, 0.11568545, 291058.4, 291058.4, 0.0016415936, 10.002451, 9.999009 
1.3451965e+3, 1.2589997e+2, -2187885.0, -1763006.9, -40324.777, 0.014775299, 0.010983753, -1759213.5, -53030.65, 0.0069055543, 9.9959545, 10.001618 
1.345178e+3, 1.3589907e+2, -2043261.5, -1735945.8, -2697.2866, 0.113185175, -0.15785697, -1735922.0, -127735.28, 0.0039389143, 9.996702, 10.00077 
1.3451576e+3, 1.4590098e+2, -1941365.9, -1711286.4, 36789.363, -0.050150454, -0.0040031825, -1705547.0, -195375.1, 0.0015916337, 9.9970455, 10.000096 
1.3451383e+3, 1.5590343e+2, -1755897.9, -1543929.3, 24459.936, -0.00016873963, 0.21948422, -1541143.4, -128985.086, 0.0003501717, 9.997534, 10.000334 
1.3451196e+3, 1.6590387e+2, -1560139.0, -1255405.8, 59057.49, 0.05545954, 0.16261207, -1244360.6, 69791.875, 0.000020254476, 9.997586, 10.001615 
1.3451008e+3, 1.7590302e+2, -1498529.0, -1173438.8, 37186.844, 0.04004983, -0.096999645, -1169239.3, 46911.902, 0.0000000014653116, 9.997328, 10.001632 
1.3450812e+3, 1.8590416e+2, -1325816.0, -1146057.9, 11816.593, -0.049111538, -0.09017442, -1145284.4, -27147.793, 0.0, 9.998294, 10.00068 
1.3450612e+3, 1.9590658e+2, -961094.06, -920731.25, -10928.886, -0.16989838, 0.06740227, -917962.06, 102151.94, 0.0, 10.000132, 10.000669 
1.3450445e+3, 2.0590669e+2, -1008660.06, -1085064.3, 70336.875, -0.09436222, 0.10954168, -966820.44, -44704.297, 0.0, 9.999961, 9.998951 
1.34503e+3, 2.159052e+2, -1121524.3, -1065069.0, 76913.836, 0.10942584, 0.04575136, -1011366.5, -187230.86, 0.0, 9.998412, 9.999161 
1.3450126e+3, 2.2590454e+2, -900940.6, -851315.2, 47527.652, 0.09787535, 0.04008481, -822513.06, -96370.55, 0.0, 9.9990015, 9.999675 
1.3449934e+3, 2.3590446e+2, -491676.7, -594658.4, 42613.05, -0.059137896, 0.046059787, -476330.6, 151810.16, 0.0, 10.001104, 9.999748 
1.3449751e+3, 2.4590388e+2, -471822.03, -656516.3, 32247.664, -0.08815748, 0.076451555, -466353.47, 63794.6, 0.0, 10.001094, 9.998659 
1.3449572e+3, 2.559029e+2, -570314.75, -627377.4, 40543.883, -0.030925984, 0.09424394, -549269.44, -117106.92, 0.0, 9.999636, 9.998887 
1.3449386e+3, 2.6590204e+2, -365358.13, -398843.94, 1164.5419, 0.017832242, 0.08518111, -365317.7, -31149.758, 0.00000006157407, 10.000029, 9.999594 
1.3449194e+3, 2.759012e+2, -16982.646, -182182.75, -15913.729, 0.06107618, 0.02448433, -15463.644, 220703.94, 0.0000055913592, 10.001757, 9.999575 
1.3449004e+3, 2.8589922e+2, 38036.258, -329012.3, 13387.332, 0.09373059, -0.016298188, 38523.887, 176708.03, 0.00007682173, 10.002418, 9.997581 
1.3448817e+3, 2.9589656e+2, 132569.05, -222808.81, 12221.273, 0.12351963, -0.064916484, 132988.83, 173201.06, 0.00034345183, 10.002356, 9.9976635 
1.3448621e+3, 3.0589405e+2, 271176.03, -206356.48, -57928.33, 0.14593562, -0.03894699, 278102.7, 278102.7, 0.0008946951, 10.003303, 9.996992 
1.34484e+3, 3.1589425e+2, 590661.75, 77113.47, -75333.734, -0.04283342, 0.25930235, 601484.56, 601484.56, 0.0016793058, 10.004934, 9.99815 
1.3551937e+3, 1.2591992e+2, -2032869.5, -1459272.9, 39955.598, 0.11432253, 0.35547173, -1456503.1, 249494.33, 0.0072628423, 9.996035, 10.003673 
1.355176e+3, 1.3591857e+2, -1882732.3, -1403269.5, 18932.455, 0.21922341, -0.10383239, -1402523.1, 205475.28, 0.004152666, 9.996703, 10.003056 
1.3551551e+3, 1.459207e+2, -1923796.8, -1675328.5, 45970.37, -0.0085602375, -0.04704639, -1667096.1, -157119.5, 0.0016872559, 9.997045, 10.000345 
1.3551332e+3, 1.5592287e+2, -1738867.9, -1513825.0, 44068.566, -0.26822996, 0.12564822, -1505503.1, -93541.06, 0.0003769789, 9.997557, 10.000528 
1.3551153e+3, 1.6592383e+2, -1590137.1, -1331437.5, 42924.23, -0.13868429, 0.14062431, -1324501.3, -10548.355, 0.000023370363, 9.997636, 10.001076 
1.3550998e+3, 1.759241e+2, -1532595.1, -1249900.3, 37231.875, 0.20093791, 0.045176186, -1245078.9, -29133.15, 0.0000000068048798, 9.99735, 10.001098 
1.3550822e+3, 1.8592447e+2, -1371134.4, -1247216.4, 76992.05, 0.21860233, 0.037296973, -1210348.9, -92407.23, 0.0, 9.998317, 9.999977 
1.3550635e+3, 1.9592476e+2, -1004000.5, -1010658.94, 49752.46, 0.037969954, 0.050836638, -957466.0, 62475.246, 0.0, 10.000129, 10.000055 
1.3550456e+3, 2.0592475e+2, -981965.06, -1025493.3, 5382.535, -0.00072081987, 0.08514956, -981309.4, -59365.14, 0.0, 9.99994, 9.999372 
1.355028e+3, 2.1592456e+2, -1099086.6, -1011463.25, 34081.113, 0.049289763, 0.11351934, -999768.3, -175819.25, 0.0, 9.998378, 9.999548 
1.355011e+3, 2.259243e+2, -906046.4, -849774.75, 122390.875, 0.023666061, 0.12726232, -752327.3, -26374.945, 0.0, 9.998949, 9.999711 
1.3549948e+3, 2.3592392e+2, -495161.6, -589802.1, 113543.375, -0.04753603, 0.10027462, -419472.47, 208482.63, 0.0, 10.001052, 9.999808 
1.3549769e+3, 2.4592376e+2, -447179.4, -591195.6, -28240.324, -0.020752657, 0.1436273, -441839.7, 88118.01, 0.0, 10.001031, 9.999139 
1.3549578e+3, 2.5592372e+2, -550927.75, -573222.94, 1502.7913, 0.06758541, 0.20816965, -550826.9, -118866.45, 0.0, 9.999575, 9.99929 
1.3549389e+3, 2.659225e+2, -400335.53, -459686.44, 63147.88, 0.0460234, 0.16614668, -360237.88, -26268.072, 0.000000036385206, 9.999976, 9.999202 
1.3549201e+3, 2.7592036e+2, -52233.652, -239248.23, 48633.656, -0.042372696, 0.015059519, -40342.43, 195642.19, 0.000005925218, 10.001685, 9.999219 
1.3549012e+3, 2.859187e+2, 47527.26, -293148.75, 6480.027, -0.07264587, 0.005514437, 47650.477, 185647.86, 0.00007720777, 10.002354, 9.997853 
1.3548823e+3, 2.9591745e+2, 127982.29, -214398.0, 22375.582, -0.06672553, 0.07600369, 129438.41, 169446.53, 0.00034341367, 10.00228, 9.997757 
1.3548642e+3, 3.0591395e+2, 167426.02, -410532.06, 943.90063, 0.009172492, 0.075698964, 167427.55, 167427.55, 0.00089620176, 10.003259, 9.995606 
1.3548446e+3, 3.1591073e+2, 505523.84, -70423.27, -3639.056, -0.08569137, 0.16367824, 505546.84, 505546.84, 0.0016848987, 10.004816, 9.9971895 
1.3651913e+3, 1.2593734e+2, -1753596.5, -1468722.6, 182866.08, 0.13446338, 0.24051058, -1379366.0, 326455.53, 0.0076198755, 9.998559, 10.0024 
1.3651717e+3, 1.3593745e+2, -2032585.4, -1546392.6, -109916.805, 0.16466491, 0.011294792, -1522697.8, 85120.055, 0.004366158, 9.995964, 10.002435 
1.3651523e+3, 1.459397e+2, -2008987.0, -1579131.1, -46696.13, 0.08084237, 0.037249126, -1574117.0, -64323.348, 0.0017823466, 9.9958725, 10.001568 
1.3651319e+3, 1.5594114e+2, -1614209.5, -1344120.5, 12374.245, -0.17276381, 0.016563144, -1343554.8, 68222.77, 0.0004035849, 9.997931, 10.001517 
1.3651139e+3, 1.6594209e+2, -1466901.3, -1358382.6, -11861.503, -0.10636774, 0.02929278, -1357101.3, -43333.137, 0.000026350568, 9.998853, 10.0003 
1.3650975e+3, 1.7594287e+2, -1347292.6, -1240340.3, -42788.188, 0.14064465, 0.05975304, -1225329.0, -9567.489, 0.000000016360648, 9.998964, 10.000381 
1.3650803e+3, 1.85943e+2, -1326291.3, -1251728.5, 45804.617, 0.17774166, 0.07247382, -1229950.9, -112188.5, 0.0, 9.99875, 9.999735 
1.365063e+3, 1.9594252e+2, -1268388.3, -1153613.1, 42682.465, 0.07932681, 0.03417148, -1139480.6, -119710.67, 0.0, 9.99839, 9.999908 
1.3650453e+3, 2.0594266e+2, -1070480.3, -999613.94, 133.75539, 0.033722464, 0.057095405, -999613.7, -77843.71, 0.0, 9.999039, 9.999983 
1.3650268e+3, 2.1594326e+2, -769789.56, -789790.44, 37817.367, 0.01605743, 0.102602534, -740672.75, 83091.734, 0.0, 10.000374, 10.000104 
1.3650103e+3, 2.2594325e+2, -717368.4, -772569.0, 154811.69, -0.010594702, 0.122414015, -587715.94, 138049.31, 0.0, 10.000311, 9.999581 
1.364995e+3, 2.3594275e+2, -763663.0, -729054.25, 123552.76, -0.03917205, 0.095942, -621600.0, 6170.766, 0.0, 9.999255, 9.999717 
1.3649775e+3, 2.4594258e+2, -627648.5, -646752.3, -42173.785, 0.0086597325, 0.12838173, -593958.44, -64185.836, 0.0, 9.999661, 9.9994135 
1.3649584e+3, 2.559426e+2, -315143.0, -435510.06, -35141.914, 0.10281816, 0.1717455, -305634.25, 126138.11, 0.0, 10.001095, 9.999498 
1.3649401e+3, 2.6594126e+2, -182198.11, -423019.9, 51694.527, 0.069855124, 0.1394732, -171570.44, 162213.9, 0.000000033203506, 10.001774, 9.998588 
1.364922e+3, 2.7593887e+2, -51205.805, -298953.4, 9736.557, -0.048458636, 0.024290696, -50823.742, 184981.66, 0.000006027052, 10.001956, 9.998676 
1.3649036e+3, 2.8593713e+2, 90479.766, -278028.16, -57757.516, -0.09246414, 0.032358944, 99320.22, 237140.05, 0.00007555986, 10.002678, 9.9978 
1.3648851e+3, 2.9593584e+2, 345301.72, -115518.18, -74060.09, -0.08454939, 0.104542784, 356911.7, 396741.06, 0.00033532447, 10.003799, 9.9977045 
1.364868e+3, 3.059318e+2, 290516.25, -392163.3, -34421.402, 0.019636353, 0.07073637, 292247.4, 292247.4, 0.00087567023, 10.004277, 9.995245 
1.3648497e+3, 3.1592682e+2, 434602.3, -113738.11, 9955.606, -0.037589192, 0.020103954, 434783.03, 434783.03, 0.0016473875, 10.004339, 9.99713 
1.3751891e+3, 1.259521e+2, -2064483.0, -2093325.4, 63038.09, 0.044684462, -0.33416492, -2014237.6, -308579.84, 0.0079810945, 9.998492, 9.998125 
1.3751653e+3, 1.3595591e+2, -2256899.0, -2016410.4, -192461.39, -0.074293256, 0.19736676, -1909718.4, -302075.63, 0.0045821774, 9.995993, 9.999192 
1.3751495e+3, 1.4595808e+2, -1846966.0, -1263332.0, 24711.559, 0.18390387, 0.24041559, -1262287.6, 247333.9, 0.0018779465, 9.99595, 10.003706 
1.375134e+3, 1.5595825e+2, -1486728.4, -1083971.4, 86765.25, 0.23369548, -0.11549584, -1066074.9, 345529.0, 0.00043006244, 9.997947, 10.003298 
1.3751149e+3, 1.6595879e+2, -1538865.5, -1509275.6, -13564.078, 0.09529733, -0.16624777, -1503998.9, -190402.42, 0.000029160963, 9.998856, 9.999267 
1.3750933e+3, 1.7595962e+2, -1409956.3, -1371555.9, -38355.805, -0.16667625, -0.029121932, -1347863.0, -132267.4, 0.000000027808229, 9.998966, 9.999483 
1.3750754e+3, 1.859599e+2, -1306039.1, -1216522.9, 25760.172, -0.19991574, 0.028233651, -1209639.3, -92041.98, 0.0, 9.998776, 9.999966 
1.3750601e+3, 1.959598e+2, -1248557.5, -1113749.5, 37544.89, -0.074142896, 0.006564066, -1103998.4, -84397.7, 0.0, 9.998392, 10.000184 
1.3750438e+3, 2.0596041e+2, -1015166.1, -882360.44, 45345.074, -0.028260427, 0.01770028, -868354.9, 53239.176, 0.0, 9.999026, 10.000793 
1.3750269e+3, 2.1596141e+2, -727789.2, -692188.9, 82784.67, -0.0317054, 0.022162717, -625312.3, 198268.73, 0.0, 10.000326, 10.000798 
1.3750103e+3, 2.2596149e+2, -746580.0, -815184.25, 110475.97, -0.047945347, 0.03360401, -665203.4, 60377.016, 0.0, 10.000235, 9.999325 
1.3749939e+3, 2.3596092e+2, -789718.5, -766855.94, 96879.29, -0.07356159, 0.02757886, -680735.8, -53147.707, 0.0, 9.99919, 9.999486 
1.3749768e+3, 2.4596028e+2, -632621.25, -647328.25, 7776.938, -0.040094793, 0.022121066, -629271.7, -99677.8, 0.0, 9.999613, 9.999435 
1.374959e+3, 2.5595954e+2, -323922.72, -446384.53, 19648.65, 0.037768412, -0.014266441, -320847.38, 110751.34, 0.0, 10.001057, 9.999444 
1.3749416e+3, 2.659583e+2, -245759.2, -546533.44, 53877.25, 0.049755998, 0.012643295, -236399.5, 97212.27, 0.000000022673568, 10.001738, 9.997756 
1.3749245e+3, 2.7595663e+2, -117512.21, -419068.1, 25501.65, 0.010526991, 0.050347634, -115370.82, 120260.47, 0.0000059199137, 10.001886, 9.997883 
1.3749072e+3, 2.8595436e+2, 60549.805, -330815.53, -17881.39, 0.0046370635, 0.06125942, 61365.1, 199018.33, 0.00007240238, 10.002634, 9.99746 
1.3748902e+3, 2.9595166e+2, 319182.3, -157268.94, -26684.785, 0.038518228, 0.027755486, 320672.2, 360348.9, 0.00031832908, 10.003741, 9.997451 
1.3748735e+3, 3.059475e+2, 331838.3, -294702.94, -33399.91, 0.13213237, -0.045361277, 333613.75, 333613.75, 0.0008297466, 10.004231, 9.995932 
1.3748547e+3, 3.1594214e+2, 462103.3, -12995.643, 23649.506, 0.023417963, -0.19989124, 463277.63, 463277.63, 0.001562825, 10.004166, 9.997901 
1.3851862e+3, 1.2597011e+2, -2624850.0, -2316033.0, -127930.85, 0.12237323, -0.316503, -2269921.5, -564441.94, 0.008351057, 9.994442, 9.998555 
1.3851614e+3, 1.3597357e+2, -1957148.3, -1834513.9, -55228.57, -0.16082911, 0.13214825, -1813308.4, -205842.97, 0.004803759, 9.997891, 9.999522 
1.3851471e+3, 1.4597484e+2, -1537028.5, -1237336.3, 152087.67, 0.23102134, 0.13048196, -1173677.1, 335777.28, 0.0019753822, 9.998612, 10.002602 
1.3851324e+3, 1.5597507e+2, -1619637.6, -1254986.4, -23201.867, 0.3092864, -0.10904925, -1253516.0, 157924.52, 0.00045665295, 9.997499, 10.002337 
1.3851134e+3, 1.659757e+2, -1695557.9, -1534460.9, -139976.44, 0.12414564, -0.1298774, -1453511.8, -140078.45, 0.00003186285, 9.997572, 9.999709 
1.3850915e+3, 1.7597665e+2, -1439480.4, -1335838.1, -67686.61, -0.21939741, -0.026790598, -1302413.1, -86982.445, 0.000000039188958, 9.998553, 9.999925 
1.3850737e+3, 1.8597724e+2, -1253144.3, -1159590.8, 27993.861, -0.2544533, 0.023084182, -1151854.0, -34425.94, 0.0, 9.998997, 10.000252 
1.3850586e+3, 1.9597758e+2, -1126755.3, -1026523.25, 41156.99, -0.09095632, 0.015365316, -1011789.4, 7635.899, 0.0, 9.999103, 10.000439 
1.385043e+3, 2.0597813e+2, -1008101.75, -910590.4, 42580.418, -0.018634291, 0.025380522, -894614.25, 26805.002, 0.0, 9.999211, 10.00051 
1.385027e+3, 2.1597874e+2, -883778.6, -796341.5, -13142.834, -0.0011061273, 0.018599404, -794408.75, 29002.867, 0.0, 9.999375, 10.000544 
1.3850105e+3, 2.2597872e+2, -813467.9, -863746.8, -37128.953, -0.023436219, 0.03732779, -793768.2, -68355.53, 0.0, 9.999838, 9.99919 
1.3849936e+3, 2.3597819e+2, -603939.25, -694727.2, -47807.48, -0.076584786, 0.04875892, -583407.75, 44012.27, 0.0, 10.000531, 9.999341 
1.3849768e+3, 2.459772e+2, -483748.25, -599186.0, -104302.625, -0.043477077, 0.026810331, -422259.28, 107169.55, 0.0, 10.000749, 9.999212 
1.38496e+3, 2.559759e+2, -387915.28, -496916.13, -124057.88, 0.044565804, -0.04421434, -306914.22, 124524.41, 0.0, 10.000713, 9.999258 
1.3849433e+3, 2.659747e+2, -348655.13, -582170.25, -60565.12, 0.07082711, -0.012070558, -333881.47, -430.23178, 0.0000000049794013, 10.000975, 9.997876 
1.3849266e+3, 2.759734e+2, -166756.22, -430420.78, -22999.969, 0.05190707, 0.053436372, -164764.92, 70702.16, 0.0000059839426, 10.00149, 9.997996 
1.3849102e+3, 2.859712e+2, 3983.9766, -366949.78, 10481.919, 0.051795907, 0.06976221, 4279.9404, 141769.84, 0.00006977794, 10.00229, 9.997377 
1.3848941e+3, 2.959684e+2, 267478.3, -172511.4, 4040.798, 0.06865348, 0.031191623, 267515.44, 307032.1, 0.00029839875, 10.003361, 9.997518 
1.3848777e+3, 3.0596524e+2, 319170.75, -230080.77, -21248.576, 0.14660639, 0.016600335, 319991.56, 319991.56, 0.00077244354, 10.003843, 9.99656 
1.3848588e+3, 3.1596026e+2, 468216.03, 62029.855, 16839.857, 0.025435865, -0.16103595, 468912.97, 468912.97, 0.0014545768, 10.00389, 9.9985485 
1.3951825e+3, 1.259911e+2, -2274199.8, -1597858.3, -79616.14, 0.28282234, 0.22966997, -1588612.6, 116675.8, 0.008733579, 9.994476, 10.003471 
1.3951595e+3, 1.3599049e+2, -1704212.0, -1313522.8, 56485.332, -0.1388355, -0.17288536, -1305520.1, 301765.44, 0.005033633, 9.997899, 10.003106 
1.3951454e+3, 1.4599007e+2, -1823589.3, -1835754.9, 98718.29, 0.18438809, -0.27652055, -1730766.5, -221474.66, 0.002076125, 9.998629, 9.998484 
1.3951272e+3, 1.5599172e+2, -1867797.6, -1770457.9, -53755.1, 0.033208087, 0.03634974, -1746613.1, -335327.47, 0.00048381835, 9.997505, 9.998796 
1.3951093e+3, 1.6599293e+2, -1560154.5, -1264130.3, -107021.55, -0.05258618, 0.132017, -1229491.9, 83785.44, 0.000034571214, 9.99761, 10.00155 
1.3950919e+3, 1.7599387e+2, -1319356.3, -1089783.6, -31038.365, -0.053690422, 0.052832767, -1085661.3, 129606.26, 0.00000005013657, 9.998562, 10.001613 
1.395075e+3, 1.8599492e+2, -1222545.4, -1099662.6, 25569.762, -0.03405779, 0.050591435, -1094554.4, 22701.033, 0.0, 9.999011, 10.000654 
1.3950586e+3, 1.959959e+2, -1111571.1, -994722.56, 46036.27, -0.010558471, 0.06632096, -978764.5, 40478.367, 0.0, 9.999099, 10.00066 
1.3950427e+3, 2.0599592e+2, -1103984.8, -1106015.3, 43022.65, 0.022688925, 0.08538053, -1061965.4, -140720.63, 0.0, 9.999196, 9.999175 
1.395027e+3, 2.1599527e+2, -975397.56, -977353.9, -2171.8367, 0.06776997, 0.086814, -973993.8, -150737.56, 0.0, 9.999336, 9.99932 
1.3950108e+3, 2.2599488e+2, -822106.06, -872520.3, -15779.612, 0.022578133, 0.12931481, -817574.4, -92311.97, 0.0, 9.999793, 9.999152 
1.3949943e+3, 2.359946e+2, -616270.4, -707940.3, -20154.348, -0.08071024, 0.16681723, -612034.94, 15230.616, 0.0, 10.000477, 9.999275 
1.3949777e+3, 2.4599342e+2, -525208.75, -675658.3, -110858.836, -0.04158884, 0.1536892, -466461.72, 62814.74, 0.0, 10.000702, 9.998712 
1.3949612e+3, 2.559916e+2, -423648.0, -555200.4, -118709.72, 0.09069495, 0.081215434, -353709.38, 77583.23, 0.0, 10.000647, 9.99889 
1.3949446e+3, 2.659903e+2, -279766.25, -428244.7, -44435.68, 0.10129163, 0.062067583, -267483.84, 65820.12, 0.0000000011462398, 10.000923, 9.9989605 
1.3949278e+3, 2.759893e+2, -107741.88, -291086.66, 5225.3423, 0.034525782, 0.04211636, -107593.08, 127719.7, 0.000005942459, 10.001415, 9.998991 
1.3949119e+3, 2.859878e+2, 7923.5776, -345681.56, 46611.19, -0.010686803, 0.07795137, 13964.525, 151293.55, 0.00006702102, 10.002232, 9.997549 
1.3948964e+3, 2.9598597e+2, 270134.6, -151476.55, 48928.71, -0.042224456, 0.11832721, 275738.38, 315089.0, 0.00027987466, 10.00329, 9.997699 
1.3948803e+3, 3.0598482e+2, 361938.1, -129018.49, -19844.287, 0.01213222, 0.26039848, 362738.9, 362738.9, 0.0007224757, 10.003793, 9.997276 
1.3948615e+3, 3.1598127e+2, 476600.47, 116183.05, 32573.715, -0.10811109, 0.15575868, 479520.75, 479520.75, 0.0013609991, 10.003733, 9.9990015 
1.4051776e+3, 1.2600666e+2, -2152558.0, -1463159.1, -52539.45, 0.32419056, 0.25212, -1459178.0, 245962.63, 0.009133226, 9.99497, 10.004165 
1.4051569e+3, 1.3600668e+2, -1819702.4, -1347723.9, -162150.58, -0.14369746, -0.11103613, -1297385.1, 309744.3, 0.005275387, 9.99701, 10.003299 
1.4051436e+3, 1.4600642e+2, -1943253.1, -1888395.1, -177309.23, 0.17994757, -0.21107592, -1736405.9, -227271.33, 0.0021822979, 9.997788, 9.998523 
1.4051242e+3, 1.5600789e+2, -1857933.3, -1757509.3, -33848.047, -0.007850821, 0.07618557, -1747166.0, -336033.97, 0.00051218417, 9.997536, 9.998869 
1.4051066e+3, 1.660095e+2, -1521999.5, -1208678.5, 28950.188, -0.09067872, 0.1900274, -1206026.0, 107093.73, 0.000037386584, 9.997715, 10.00188 
1.4050904e+3, 1.7601117e+2, -1332008.3, -1063995.9, -16184.606, -0.045016173, 0.14951801, -1063022.0, 152078.97, 0.00000006103049, 9.998335, 10.001902 
1.4050743e+3, 1.8601187e+2, -1289969.3, -1167969.4, -45114.31, 0.0086446265, 0.11867156, -1153099.0, -36007.457, 0.0, 9.998708, 10.000332 
1.4050582e+3, 1.9601189e+2, -1148013.6, -1046667.94, -85999.15, 0.044553187, 0.067586645, -997523.0, 21565.75, 0.0, 9.9990015, 10.000349 
1.4050424e+3, 2.060116e+2, -1127243.4, -1166677.0, -64979.164, 0.08690136, 0.094539754, -1079055.5, -157961.27, 0.0, 9.99925, 9.998735 
1.4050272e+3, 2.1601109e+2, -978490.25, -1021459.44, -47754.984, 0.13933384, 0.15357126, -947609.56, -124504.0, 0.0, 9.999504, 9.998935 
1.4050114e+3, 2.2601055e+2, -770987.7, -844839.56, -1971.9073, 0.09107203, 0.19559531, -770935.06, -45821.87, 0.0, 10.000148, 9.999161 
1.4049955e+3, 2.3600988e+2, -528278.7, -665420.25, -16642.393, -0.02863108, 0.19398949, -526288.0, 100830.914, 0.0, 10.001088, 9.999269 
1.4049792e+3, 2.4600863e+2, -414420.66, -645451.0, -111434.82, 0.0025005825, 0.18654752, -369432.0, 159699.11, 0.0, 10.001566, 9.998502 
1.4049628e+3, 2.5600693e+2, -269747.84, -498623.53, -107008.76, 0.12721103, 0.14743623, -227511.2, 203636.84, 0.0, 10.001776, 9.998734 
1.404946e+3, 2.6600596e+2, -155009.27, -334774.75, -49123.332, 0.12873913, 0.14920643, -142461.5, 190695.22, 0.0000000047036606, 10.001639, 9.999255 
1.4049293e+3, 2.7600548e+2, -99525.1, -251841.23, -71213.6, 0.046430994, 0.15597488, -71417.03, 163742.19, 0.0000060153247, 10.001325, 9.999302 
1.4049135e+3, 2.8600398e+2, -110558.24, -372426.66, -20008.14, -0.012006869, 0.15922785, -109038.336, 28136.518, 0.000064346226, 10.001291, 9.997815 
1.4048986e+3, 2.960016e+2, 30450.828, -230033.75, -18716.83, -0.05410321, 0.12061622, 31788.834, 70989.44, 0.0002689041, 10.001482, 9.998029 
1.4048836e+3, 3.060013e+2, 220774.08, -120983.77, -69396.945, 0.027918888, 0.2925963, 234328.19, 234328.19, 0.00069600175, 10.002485, 9.9979725 
1.404866e+3, 3.159986e+2, 551373.0, 201123.16, -43036.176, -0.028433835, 0.2051922, 556583.5, 556583.5, 0.0013114183, 10.004046, 9.999431 
1.4151713e+3, 1.2601753e+2, -2374030.8, -1923002.4, -72684.27, 0.17723264, -0.19385251, -1911578.4, -206548.72, 0.009556688, 9.994984, 10.000985 
1.4151533e+3, 1.3602239e+2, -2038370.1, -1786087.8, -81960.27, -0.20394629, 0.29634735, -1761799.3, -154804.9, 0.0055341963, 9.996962, 10.000298 
1.4151414e+3, 1.4602397e+2, -1658755.3, -1309355.5, -187663.13, 0.17405654, 0.29858094, -1227662.1, 281318.75, 0.0022969088, 9.997822, 10.002491 
1.4151233e+3, 1.5602371e+2, -1609075.9, -1249895.3, -38892.273, 0.13966256, 0.0176491, -1245732.1, 165246.22, 0.0005425403, 9.997568, 10.00234 
1.4151049e+3, 1.6602553e+2, -1593387.3, -1366562.8, 44646.863, -0.03563636, 0.058314584, -1358091.1, -45131.855, 0.000040406845, 9.997755, 10.000777 
1.415087e+3, 1.7602861e+2, -1409103.0, -1221717.0, 8298.756, -0.22330995, 0.26762968, -1221350.3, -6419.7476, 0.00000007226826, 9.998328, 10.00082 
1.4150713e+3, 1.8602823e+2, -1357964.9, -1316605.8, -39344.01, -0.16056067, 0.23406582, -1292837.6, -175902.44, 0.0, 9.998734, 9.999302 
1.4150572e+3, 1.9602558e+2, -1210885.5, -1178396.0, -72013.11, 0.039664846, 0.019871326, -1120818.1, -101855.84, 0.0, 9.999004, 9.999446 
1.4150424e+3, 2.060252e+2, -1095671.6, -1100073.3, -61903.52, 0.13924202, 0.053855952, -1035929.8, -114962.25, 0.0, 9.999243, 9.999195 
1.4150272e+3, 2.1602626e+2, -955207.0, -963100.7, -32193.164, 0.18557401, 0.22164358, -926719.6, -103760.555, 0.0, 9.999458, 9.999358 
1.4150123e+3, 2.2602567e+2, -776426.25, -841730.06, 29054.432, 0.14478044, 0.2373978, -765371.1, -40406.21, 0.0, 10.000084, 9.999214 
1.4149973e+3, 2.36024e+2, -535499.6, -664576.06, 21002.443, 0.041477986, 0.13087851, -532168.25, 94811.63, 0.0, 10.001025, 9.999302 
1.4149813e+3, 2.460228e+2, -414317.78, -638934.1, -106448.72, 0.043042485, 0.12674914, -371886.0, 157106.73, 0.0, 10.001531, 9.998567 
1.4149645e+3, 2.5602192e+2, -274651.16, -499131.84, -94804.97, 0.11744384, 0.15772012, -239970.16, 191034.5, 0.0, 10.001731, 9.9987545 
1.4149477e+3, 2.6602167e+2, -198905.23, -416486.7, -64227.76, 0.11031222, 0.26335546, -181360.58, 151648.31, 0.000000079284355, 10.0015955, 9.998715 
1.4149308e+3, 2.7602187e+2, -140741.84, -324907.47, -74125.125, 0.0496192, 0.39132813, -114613.914, 120393.96, 0.0000071917057, 10.001268, 9.998829 
1.4149153e+3, 2.860195e+2, -88546.164, -315574.63, -15557.581, 0.010802721, 0.3067957, -87485.01, 49544.555, 0.000065903274, 10.001239, 9.998233 
1.4149006e+3, 2.9601526e+2, 47505.766, -177935.83, 2674.7324, -0.0012506573, 0.03741862, 47537.492, 86605.14, 0.0002735358, 10.001402, 9.998431 
1.4148872e+3, 3.0601457e+2, 253204.63, -30939.781, -11906.232, 0.15012886, 0.11892525, 253702.66, 253702.66, 0.0007033967, 10.002397, 9.998625 
1.4148723e+3, 3.1601197e+2, 537452.94, 202254.27, 22520.072, 0.186451, -0.027519258, 538959.2, 538959.2, 0.0013181146, 10.003924, 9.999493 
1.4251654e+3, 1.2603249e+2, -2337923.5, -1905967.9, -145977.86, 0.09174379, -0.14831549, -1861262.1, -156374.8, 0.010011913, 9.995232, 10.000987 
1.4251505e+3, 1.3603649e+2, -2313721.0, -1911365.8, 163447.0, -0.08383495, 0.25568697, -1853338.1, -246478.39, 0.0058154534, 9.995048, 10.000361 
1.4251387e+3, 1.4603932e+2, -1819730.8, -1299221.1, 40214.85, 0.2034737, 0.34030685, -1296132.5, 212700.3, 0.002423067, 9.996355, 10.0032625 
1.4251213e+3, 1.5604015e+2, -1417700.3, -1085802.6, -58165.89, 0.12693313, 0.08926293, -1075904.1, 334914.03, 0.00057589856, 9.998572, 10.002984 
1.4251034e+3, 1.6604136e+2, -1456893.6, -1382647.9, -75853.89, -0.024529437, 0.08189016, -1335320.0, -22515.234, 0.00004378684, 9.99905, 10.000037 
1.425086e+3, 1.7604291e+2, -1427416.6, -1303655.4, -91567.58, -0.16133739, 0.20964274, -1255019.8, -40227.9, 0.00000008454083, 9.998521, 10.000161 
1.4250706e+3, 1.8604255e+2, -1345666.5, -1319038.9, -59073.02, -0.10812352, 0.20943122, -1271797.9, -155000.06, 0.0, 9.998863, 9.999221 
1.4250566e+3, 1.9604087e+2, -1091770.8, -1127244.5, -28598.885, 0.04536219, 0.101555, -1075855.1, -57038.52, 0.0, 9.999852, 9.999386 
1.4250422e+3, 2.0604032e+2, -854301.75, -975190.94, 3625.054, 0.11956067, 0.11845024, -854193.1, 66629.51, 0.0, 10.00086, 9.999272 
1.4250274e+3, 2.160405e+2, -593357.0, -778070.5, -10580.536, 0.14884876, 0.19009009, -592752.94, 230067.5, 0.0, 10.001892, 9.999455 
1.4250125e+3, 2.260399e+2, -619173.6, -756735.8, 9457.659, 0.12277647, 0.19336657, -618526.44, 106299.05, 0.0, 10.001115, 9.999306 
1.4249976e+3, 2.3603874e+2, -796946.0, -779376.2, 1649.7996, 0.050593503, 0.12828647, -779222.56, -152387.08, 0.0, 9.999168, 9.999415 
1.4249817e+3, 2.4603781e+2, -727592.8, -761875.44, -59754.81, 0.048695784, 0.13109289, -682569.4, -153723.95, 0.0, 9.999267, 9.998811 
1.4249654e+3, 2.56037e+2, -394369.4, -537489.3, -48967.24, 0.0876001, 0.14731875, -379219.4, 51636.22, 0.00000000006254562, 10.000826, 9.998925 
1.4249492e+3, 2.660365e+2, -220719.5, -498370.94, -35023.68, 0.110273056, 0.25600132, -216369.67, 116493.88, 0.00000036239143, 10.001755, 9.998075 
1.4249332e+3, 2.7603626e+2, -28420.412, -328526.06, -59207.586, 0.12071702, 0.39873326, -17161.771, 217708.08, 0.000010031926, 10.002289, 9.998309 
1.424918e+3, 2.8603372e+2, 125661.305, -182809.2, 2616.8184, 0.10534437, 0.3075822, 125683.51, 262575.97, 0.00007404044, 10.002581, 9.998503 
1.4249034e+3, 2.960296e+2, 266363.6, -43055.668, -596.2626, 0.07821621, 0.023259085, 266364.75, 305291.34, 0.00029423018, 10.002787, 9.998688 
1.4248903e+3, 3.0602884e+2, 350841.9, -9899.044, -16929.244, 0.19342178, 0.09898727, 351634.63, 351634.63, 0.0007421981, 10.003168, 9.9984 
1.4248762e+3, 3.160261e+2, 443056.0, 85241.55, -69940.25, 0.19549723, -0.041609205, 456241.03, 456241.03, 0.0013782202, 10.003568, 9.998861 
1.4351597e+3, 1.2605144e+2, -2131831.8, -1480489.0, -189297.11, -0.022513507, 0.36298195, -1429470.6, 275243.3, 0.010506618, 9.995223, 10.003932 
1.4351481e+3, 1.3604927e+2, -2103763.5, -1484769.4, 168323.33, 0.17672902, -0.2003404, -1441958.1, 164765.28, 0.006123269, 9.995084, 10.003276 
1.4351353e+3, 1.4605281e+2, -1967705.5, -1624037.6, 118722.63, 0.222091, -0.04998234, -1587012.9, -78324.9, 0.002563054, 9.996427, 10.0009985 
1.4351179e+3, 1.5605725e+2, -1565016.4, -1384923.3, 16123.756, -0.07134928, 0.28439227, -1383491.1, 27159.887, 0.0006133788, 9.998547, 10.000942 
1.4351018e+3, 1.6605715e+2, -1482800.8, -1440201.4, -102303.33, -0.094650574, 0.25761297, -1357003.9, -44349.22, 0.000047750204, 9.999059, 9.999643 
1.4350872e+3, 1.7605428e+2, -1445363.3, -1346471.5, -102248.16, 0.099396475, -0.015322472, -1282341.1, -67657.766, 0.00000010052836, 9.99854, 9.999862 
1.435072e+3, 1.8605492e+2, -1282722.0, -1193157.6, -27708.787, 0.12573145, 0.052544996, -1185278.4, -68600.16, 0.0, 9.998882, 10.000075 
1.4350563e+3, 1.9605772e+2, -1041530.06, -1020159.4, 12685.534, 0.026947644, 0.3075535, -1014258.6, 4393.5063, 0.0, 9.99984, 10.000127 
1.4350417e+3, 2.0605701e+2, -878132.06, -1019330.6, 37673.1, -0.015456407, 0.2876656, -868709.3, 51950.152, 0.0, 10.000835, 9.998982 
1.4350279e+3, 2.160539e+2, -621012.06, -823233.6, 20975.648, -0.01132619, 0.06254846, -618859.25, 203829.83, 0.0, 10.001839, 9.999172 
1.4350125e+3, 2.2605322e+2, -621209.94, -744001.4, -69778.195, -0.015886787, 0.06601996, -589662.5, 135032.58, 0.0, 10.001043, 9.999427 
1.4349958e+3, 2.3605414e+2, -797848.8, -760858.3, -54079.477, -0.03050213, 0.19398825, -722198.8, -95513.414, 0.0, 9.999085, 9.999581 
1.4349803e+3, 2.4605362e+2, -706256.06, -703940.8, -6049.564, -0.025191937, 0.20709524, -698939.1, -170250.22, 0.0, 9.999203, 9.999241 
1.4349654e+3, 2.5605217e+2, -382427.78, -499544.72, 10671.513, 0.000309077, 0.1147048, -381463.38, 49238.15, 0.000000006122379, 10.00077, 9.999213 
1.434951e+3, 2.6605043e+2, -274287.84, -601029.56, -17191.83, 0.0937401, 0.124824926, -273385.78, 59335.504, 0.0000008787704, 10.001714, 9.997393 
1.4349367e+3, 2.7604854e+2, -77857.41, -421987.03, -33382.0, 0.22681232, 0.17907456, -74649.125, 160096.31, 0.000014099222, 10.002245, 9.997693 
1.4349219e+3, 2.8604662e+2, 127669.875, -168281.2, 6789.875, 0.22226024, 0.16878252, 127825.57, 264589.22, 0.00008672284, 10.002536, 9.998623 
1.434907e+3, 2.9604447e+2, 256429.39, -56601.887, 17328.404, 0.13740093, 0.068475805, 257385.72, 296165.22, 0.0003265314, 10.002749, 9.998615 
1.4348929e+3, 3.0604395e+2, 271304.78, -161133.61, -2853.5225, 0.10708249, 0.23011377, 271323.63, 271323.63, 0.000809197, 10.003117, 9.997382 
1.4348772e+3, 3.1604123e+2, 326011.66, -125678.89, -43648.527, -0.07551544, 0.19751716, 330190.9, 330190.9, 0.0014917563, 10.003429, 9.997479 
1.4451554e+3, 1.26066e+2, -2239313.0, -1514766.1, -90853.734, 0.06703462, 0.41890016, -1503547.4, 201026.44, 0.011047917, 9.994411, 10.004084 
1.4451441e+3, 1.360641e+2, -1670296.4, -1217650.0, 36618.523, 0.12649423, -0.18977627, -1214706.8, 391869.1, 0.00646129, 9.997787, 10.003819 
1.4451306e+3, 1.4606711e+2, -1842647.8, -1680227.3, -88137.164, 0.024493739, -0.059733134, -1641590.6, -133044.08, 0.0027186894, 9.997795, 9.999946 
1.4451154e+3, 1.5607065e+2, -2019459.9, -1700868.1, -108786.625, -0.04641256, 0.28786147, -1667265.9, -256742.78, 0.0006559602, 9.995852, 10.000068 
1.4451006e+3, 1.6607055e+2, -1782712.6, -1522076.1, -104817.19, -0.005969556, 0.2680124, -1485153.5, -172626.33, 0.000052490832, 9.996744, 10.000191 
1.4450864e+3, 1.7606826e+2, -1258558.8, -1201000.4, -49905.63, 0.11975896, -0.00003641536, -1172170.4, 42376.926, 0.00000012546444, 9.999589, 10.000352 
1.4450714e+3, 1.8606912e+2, -1118699.6, -1110880.9, -17970.271, 0.12388119, 0.06724414, -1096399.6, 20139.178, 0.0, 9.999989, 10.000109 
1.4450558e+3, 1.96072e+2, -1190837.6, -1086855.1, -42665.88, 0.033292327, 0.32089996, -1071589.6, -53077.574, 0.0, 9.998789, 10.000175 
1.4450414e+3, 2.0607132e+2, -1215023.1, -1184556.0, 4612.4756, -0.025184896, 0.3067504, -1183873.0, -263353.72, 0.0, 9.998547, 9.998948 
1.4450279e+3, 2.160683e+2, -1038424.3, -1026986.2, -3402.2888, -0.055769876, 0.091503516, -1026050.7, -203501.34, 0.0, 9.998994, 9.99914 
1.4450128e+3, 2.2606756e+2, -725189.06, -812176.56, -110756.04, -0.04935334, 0.098825365, -649692.9, 74863.914, 0.0, 10.000409, 9.999262 
1.4449967e+3, 2.360683e+2, -314562.3, -541294.06, -126140.97, -0.026417479, 0.22657478, -258330.53, 368218.63, 0.0, 10.00246, 9.999462 
1.4449814e+3, 2.4606772e+2, -216896.58, -448651.2, -86136.05, 0.010695144, 0.22721772, -188389.1, 340162.9, 0.0, 10.002481, 9.999415 
1.444967e+3, 2.5606617e+2, -303891.78, -446056.25, -93687.24, 0.0557123, 0.111308664, -257373.08, 173189.44, 0.000000012932129, 10.001233, 9.999364 
1.4449526e+3, 2.6606423e+2, -331799.78, -635056.44, -69914.1, 0.12042405, 0.09687785, -316457.66, 16125.594, 0.0000016431604, 10.001342, 9.997338 
1.4449386e+3, 2.7606213e+2, -61630.055, -425280.8, -52715.395, 0.19257168, 0.1324831, -54142.516, 180467.33, 0.000019264668, 10.002403, 9.997592 
1.444924e+3, 2.8606027e+2, 65148.004, -269562.84, -51881.89, 0.199488, 0.1672227, 73005.51, 209635.25, 0.0001032448, 10.002416, 9.997979 
1.4449094e+3, 2.9605836e+2, 68204.96, -204904.02, -101476.04, 0.16957343, 0.15021646, 101781.35, 140428.47, 0.00037109866, 10.001714, 9.998086 
1.4448954e+3, 3.0605763e+2, 142772.63, -197231.5, -39848.09, 0.10481239, 0.30422053, 147380.33, 147380.33, 0.0009072359, 10.002118, 9.9976225 
1.4448798e+3, 3.1605566e+2, 308976.8, -127561.85, -4913.3135, -0.14339083, 0.32123917, 309032.13, 309032.13, 0.0016634649, 10.003296, 9.997529 
1.4551522e+3, 1.2607637e+2, -2400758.5, -1875618.9, 72366.805, 0.28889787, 0.020142147, -1865828.9, -161363.06, 0.011640448, 9.994535, 10.001532 
1.4551383e+3, 1.3608105e+2, -1794814.3, -1466316.3, 141777.7, -0.24211396, 0.263696, -1413589.1, 192826.88, 0.0068325973, 9.997755, 10.002117 
1.455124e+3, 1.4608225e+2, -1841394.4, -1676128.1, -170030.1, -0.4126623, 0.28761837, -1569715.0, -61307.457, 0.0028915813, 9.997782, 9.999984 
1.4551133e+3, 1.5608066e+2, -2000614.8, -1667197.5, -159582.61, 0.15275638, 0.11404041, -1603128.4, -192697.0, 0.00070428615, 9.995879, 10.000285 
1.4550994e+3, 1.6608182e+2, -1670195.3, -1305086.4, -1727.768, 0.19075607, 0.12886669, -1305078.3, 7341.4854, 0.000058062662, 9.996807, 10.001654 
1.4550836e+3, 1.7608477e+2, -1173147.5, -1024850.7, 45196.6, -0.12488023, 0.24079262, -1012161.75, 202223.25, 0.00000016567238, 9.999589, 10.001564 
1.4550687e+3, 1.8608512e+2, -1171342.9, -1219616.9, -69599.08, -0.14588293, 0.2437279, -1121814.3, -5433.97, 0.0, 9.999986, 9.999364 
1.4550546e+3, 1.9608375e+2, -1238989.5, -1185392.4, -79218.016, 0.026507149, 0.15234943, -1128562.9, -110167.836, 0.0, 9.998784, 9.999502 
1.4550407e+3, 2.0608336e+2, -1201765.9, -1154125.5, 14940.837, 0.049293075, 0.18500602, -1149827.5, -229426.25, 0.0, 9.998532, 9.999165 
1.4550272e+3, 2.160836e+2, -1031723.4, -1004677.7, 22900.297, -0.021884918, 0.2713422, -991605.56, -169203.8, 0.0, 9.998957, 9.9993105 
1.4550136e+3, 2.2608277e+2, -761521.75, -876195.75, -37214.402, -0.021076825, 0.28639707, -750503.5, -26092.193, 0.0, 10.00036, 9.998847 
1.4549997e+3, 2.3608127e+2, -353550.8, -605851.7, -56815.06, 0.02642418, 0.23199788, -341347.06, 285079.47, 0.0, 10.002393, 9.99905 
1.4549851e+3, 2.4608006e+2, -228764.0, -464509.47, -137579.14, 0.11318953, 0.1935143, -165468.3, 362966.66, 0.0, 10.002439, 9.999328 
1.4549698e+3, 2.5607902e+2, -312557.13, -452531.75, -127064.61, 0.22206394, 0.13450527, -237480.17, 192959.03, 0.000000017460069, 10.001183, 9.999344 
1.4549543e+3, 2.6607794e+2, -299421.47, -554338.8, -32000.156, 0.14779808, 0.17598547, -295465.84, 36983.87, 0.000002726617, 10.001282, 9.997921 
1.4549388e+3, 2.760769e+2, -43681.484, -375096.06, -12557.082, -0.03382771, 0.25720432, -43206.383, 191257.75, 0.000025068905, 10.002349, 9.997962 
1.4549245e+3, 2.8607452e+2, -38133.71, -471031.03, -81177.31, -0.011798288, 0.30130857, -23411.92, 113080.11, 0.00012308941, 10.002358, 9.996624 
1.4549111e+3, 2.9607114e+2, -14818.107, -367341.1, -114446.59, 0.14249535, 0.2723021, 19077.807, 57608.082, 0.00042673646, 10.00166, 9.997002 
1.454898e+3, 3.0606976e+2, 239787.53, 24332.44, 2482.9521, 0.15173839, 0.3247161, 239816.14, 239816.14, 0.0010330351, 10.002038, 9.99918 
1.454884e+3, 3.1606925e+2, 388863.94, 59451.77, 53291.805, -0.08299404, 0.32896262, 397270.84, 397270.84, 0.0018894832, 10.003203, 9.998859 
1.4651479e+3, 1.2608843e+2, -1793100.4, -1694436.3, -36272.227, 0.17187908, 0.014206111, -1682536.5, 21812.451, 0.012283002, 9.999183, 10.000533 
1.4651364e+3, 1.3609324e+2, -2278071.5, -1792196.4, 18831.049, -0.061966598, 0.378107, -1791467.6, -185164.16, 0.00723705, 9.994851, 10.001272 
1.465121e+3, 1.4609374e+2, -2200143.0, -1711003.4, -161314.69, -0.3267904, 0.30243927, -1662594.0, -154293.7, 0.0030819494, 9.994732, 10.001214 
1.4651094e+3, 1.5609302e+2, -1617163.3, -1363137.5, -71615.04, 0.080607004, 0.09189217, -1344339.0, 65969.95, 0.0007585455, 9.997983, 10.001364 
1.4650965e+3, 1.6609477e+2, -1419617.3, -1206449.6, 57397.492, 0.11945391, 0.12925754, -1191977.4, 120312.664, 0.00006440502, 9.998627, 10.0014515 
1.4650823e+3, 1.7609797e+2, -1479951.0, -1195276.3, -28134.344, -0.1176426, 0.2871657, -1192522.4, 21732.352, 0.00000022299002, 9.997587, 10.001354 
1.4650683e+3, 1.8609776e+2, -1449556.4, -1380773.5, -179798.19, -0.10995719, 0.25637603, -1232107.1, -115850.625, 0.0, 9.998203, 9.999112 
1.4650543e+3, 1.9609535e+2, -1084800.8, -1132323.4, -161448.1, 0.06583458, 0.08412153, -945374.75, 72906.97, 0.0, 9.999938, 9.999308 
1.4650407e+3, 2.0609525e+2, -917826.94, -998035.9, -52251.69, 0.11255805, 0.14506617, -892063.3, 28221.803, 0.0, 10.000393, 9.999342 
1.4650276e+3, 2.1609665e+2, -860962.9, -904516.6, -53306.582, 0.067633204, 0.3294792, -825156.56, -2882.2686, 0.0, 10.000047, 9.999478 
1.465014e+3, 2.2609578e+2, -850606.6, -920758.2, -61043.71, 0.021182362, 0.33269712, -815278.94, -90994.73, 0.0, 9.999755, 9.998835 
1.465e+3, 2.360934e+2, -763543.0, -801359.5, -61761.03, -0.024834957, 0.19114396, -717860.6, -91552.76, 0.0, 9.999564, 9.999072 
1.4649858e+3, 2.4609226e+2, -537743.3, -596655.7, -140608.16, 0.047961377, 0.15168633, -423539.1, 104776.54, 0.0, 10.000254, 9.999469 
1.464971e+3, 2.5609195e+2, -245043.67, -404407.94, -120575.47, 0.19102699, 0.1540914, -180200.08, 250112.63, 0.000000044837254, 10.001588, 9.999474 
1.464956e+3, 2.6609087e+2, -195929.06, -517188.3, -28848.96, 0.14561358, 0.19523852, -193359.0, 138963.7, 0.0000038968087, 10.002051, 9.9978075 
1.464941e+3, 2.7608928e+2, -110646.11, -421782.38, -71073.26, -0.0197203, 0.23571183, -95179.586, 139161.48, 0.000030358568, 10.001947, 9.997839 
1.4649269e+3, 2.8608668e+2, -25124.402, -496165.34, -111746.53, -0.020120006, 0.27327684, 41.105408, 136413.16, 0.00014178392, 10.002583, 9.996348 
1.464913e+3, 2.9608324e+2, 272228.97, -251844.8, -80371.22, 0.087093055, 0.27367112, 284277.56, 322689.25, 0.0004830399, 10.003742, 9.996791 
1.4649005e+3, 3.0608132e+2, 482646.34, 179667.23, 19912.615, 0.12299105, 0.26017314, 483949.47, 483949.47, 0.0011688304, 10.003541, 9.99952 
1.4648874e+3, 3.1608114e+2, 301384.66, 62878.07, -29529.125, -0.0010010869, 0.2632786, 304986.22, 304986.22, 0.002141333, 10.002399, 9.9992695 
1.4751425e+3, 1.2610216e+2, -1749826.6, -1604798.9, -123294.9, -0.2999301, 0.3759611, -1534274.8, 169948.33, 0.012969953, 9.999184, 10.001156 
1.4751378e+3, 1.361012e+2, -2272872.3, -1793967.9, -119974.48, 0.59454995, 0.18183462, -1765593.3, -159359.75, 0.0076708426, 9.994903, 10.001236 
1.4751214e+3, 1.4610182e+2, -2024833.3, -1365762.1, -46371.582, 0.20612518, -0.003815457, -1362515.5, 145707.0, 0.0032881629, 9.994805, 10.003552 
1.475104e+3, 1.5610771e+2, -1486750.0, -1087541.1, 37605.25, -0.2807211, 0.21522143, -1084029.6, 326126.44, 0.00081847684, 9.997968, 10.003261 
1.4750916e+3, 1.6610946e+2, -1545152.9, -1476894.8, 10579.557, -0.24405356, 0.2707075, -1475292.5, -163154.8, 0.000071419374, 9.998658, 9.999583 
1.4750822e+3, 1.7610809e+2, -1588889.9, -1428994.6, -55289.77, 0.09975963, 0.15309897, -1411738.5, -197583.78, 0.0000002932695, 9.997615, 9.999739 
1.4750695e+3, 1.8610719e+2, -1426809.4, -1340324.3, -117616.336, 0.1837905, 0.11269828, -1258253.1, -142087.1, 0.0, 9.99823, 9.999378 
1.4750548e+3, 1.9610675e+2, -1068867.4, -1097597.4, -99867.1, 0.11248325, 0.1099098, -982337.44, 35834.734, 0.0, 9.99993, 9.999551 
1.4750414e+3, 2.0610695e+2, -911594.25, -981457.56, -72000.94, 0.1203798, 0.18238631, -866498.7, 53672.58, 0.0, 10.000376, 9.999465 
1.4750287e+3, 2.1610755e+2, -859503.75, -888672.7, -63868.332, 0.17474002, 0.27497375, -808575.9, 13590.007, 0.0, 9.999994, 9.999611 
1.4750141e+3, 2.261066e+2, -832530.4, -869914.25, -73446.664, 0.04068567, 0.24542983, -775434.44, -51259.496, 0.0, 9.999693, 9.999217 
1.4749978e+3, 2.3610468e+2, -743648.2, -745858.7, -58661.48, -0.21721606, 0.10853663, -686081.56, -59888.406, 0.0, 9.999503, 9.999483 
1.4749832e+3, 2.4610433e+2, -517512.34, -546888.06, -93980.734, -0.22926298, 0.10893608, -437078.63, 91115.17, 0.0, 10.000212, 9.999835 
1.4749698e+3, 2.5610495e+2, -237094.0, -377695.16, -69972.21, -0.075636886, 0.17018206, -208206.47, 221977.08, 0.000000082863835, 10.001538, 9.999684 
1.4749575e+3, 2.6610297e+2, -262278.84, -640432.75, -34922.516, 0.07007769, 0.15643406, -259080.81, 73122.12, 0.0000048986644, 10.001989, 9.996988 
1.4749452e+3, 2.7609926e+2, -166249.27, -520063.47, -62847.41, 0.20402989, 0.06363429, -155417.4, 78824.164, 0.00003468843, 10.001877, 9.997194 
1.4749311e+3, 2.860966e+2, 15998.456, -396223.8, -70130.43, 0.13867968, 0.08502657, 27602.91, 163873.33, 0.00015695216, 10.002517, 9.997067 
1.4749156e+3, 2.9609448e+2, 307365.28, -175180.23, -36229.258, -0.04780079, 0.1417445, 310070.2, 348363.5, 0.00053465937, 10.003721, 9.99733 
1.4749026e+3, 3.0609202e+2, 410552.44, 49637.93, -24585.36, -0.030785471, 0.09782676, 412219.47, 412219.47, 0.0012992219, 10.0034685, 9.998654 
1.4748903e+3, 3.1609124e+2, 239905.8, -18450.578, -53731.438, 0.022155365, 0.12406892, 250634.97, 250634.97, 0.0023790502, 10.002216, 9.99879 
1.4851402e+3, 1.2611455e+2, -2318587.8, -1804982.4, 73423.37, -0.24944709, 0.39043888, -1794692.3, -90590.43, 0.013700781, 9.9949665, 10.001807 
1.4851342e+3, 1.3611285e+2, -1929208.8, -1664045.9, 1435.8174, 0.60538614, 0.14567903, -1664038.1, -57919.47, 0.00813248, 9.997394, 10.0009365 
1.485118e+3, 1.4611301e+2, -1618431.5, -1217043.0, 40412.184, 0.252493, -0.046114553, -1213014.8, 295097.16, 0.0035089266, 9.997807, 10.003123 
1.4851017e+3, 1.5611881e+2, -1607176.1, -1185283.3, -82560.12, -0.26333353, 0.20088802, -1169702.5, 240343.53, 0.0008836724, 9.99732, 10.002895 
1.48509e+3, 1.6612019e+2, -1697095.0, -1580295.3, -152646.84, -0.22303016, 0.25258288, -1475258.3, -163226.0, 0.00007901186, 9.997764, 9.999299 
1.4850809e+3, 1.7611824e+2, -1413621.1, -1362109.4, -111444.33, 0.14279102, 0.10394864, -1273483.5, -59426.418, 0.00000037325287, 9.998899, 9.9995775 
1.4850685e+3, 1.8611789e+2, -1262146.5, -1180396.4, -84277.0, 0.22701876, 0.08532302, -1127605.1, -11542.594, 0.0, 9.999015, 10.000099 
1.4850542e+3, 1.9611877e+2, -1228519.0, -1100785.3, -40403.016, 0.13201237, 0.14422064, -1089078.5, -71024.78, 0.0, 9.998521, 10.000208 
1.485041e+3, 2.0611893e+2, -1063322.0, -1050947.5, 7126.974, 0.09133504, 0.18116736, -1047696.75, -127644.81, 0.0, 9.999321, 9.999493 
1.4850283e+3, 2.1611856e+2, -712288.44, -811455.94, -4791.487, 0.08000497, 0.17486764, -712057.44, 109997.71, 0.0, 10.000977, 9.999666 
1.4850141e+3, 2.2611785e+2, -629597.25, -740519.94, -55754.824, 0.01824405, 0.14970165, -606416.6, 117645.08, 0.0, 10.000957, 9.99949 
1.4849988e+3, 2.3611692e+2, -677179.3, -695251.94, -55856.71, -0.08763652, 0.086923964, -629632.7, -3562.6082, 0.0, 9.99988, 9.999647 
1.4849842e+3, 2.461168e+2, -591480.7, -646845.7, -73013.08, -0.15047161, 0.13487, -541078.44, -13007.501, 0.0, 9.999978, 9.999262 
1.48497e+3, 2.561172e+2, -366065.16, -492093.16, -131548.38, -0.18341911, 0.22681476, -283217.1, 146849.97, 0.00000011463164, 10.000875, 9.999218 
1.484958e+3, 2.661148e+2, -350278.13, -652515.94, -103455.484, -0.03134105, 0.17835367, -318257.84, 13832.194, 0.000005857849, 10.001261, 9.997253 
1.4849472e+3, 2.7611062e+2, -222489.08, -515326.13, -57952.305, 0.23473434, 0.011362494, -211437.44, 22692.96, 0.000039061, 10.001356, 9.997476 
1.4849335e+3, 2.861083e+2, -31629.684, -355627.44, 4091.2842, 0.15498091, 0.026410539, -31578.027, 104575.195, 0.00017242816, 10.001922, 9.997627 
1.4849178e+3, 2.9610714e+2, 197625.64, -182708.1, 2905.9573, -0.14558697, 0.12649189, 197647.84, 235812.42, 0.00058650563, 10.002773, 9.997731 
1.4849047e+3, 3.0610436e+2, 198522.6, -147399.72, -55009.086, -0.102587745, 0.07981204, 207059.53, 207059.53, 0.0014188868, 10.002397, 9.997831 
1.4848927e+3, 3.1610283e+2, 67373.78, -147150.38, -92607.7, 0.103148796, 0.11047046, 101820.35, 101820.35, 0.0025806623, 10.001209, 9.998401 
1.4951402e+3, 1.2612629e+2, -2254608.5, -1695152.8, 204873.52, 0.24081492, 0.12964126, -1628151.9, 75826.734, 0.014485426, 9.995066, 10.002516 
1.4951253e+3, 1.3612822e+2, -1972123.8, -1749896.1, 74824.625, -0.02634863, 0.26801422, -1727051.0, -121091.54, 0.008627366, 9.997389, 10.000345 
1.4951116e+3, 1.4612728e+2, -1829306.6, -1663642.8, 12255.968, -0.1908529, 0.16942284, -1662741.0, -154772.39, 0.0037456865, 9.997835, 10.000044 
1.4951025e+3, 1.5612663e+2, -1782087.4, -1551899.1, -90359.62, 0.07956913, 0.06640697, -1520666.5, -110691.375, 0.0009542572, 9.997336, 10.000373 
1.4950912e+3, 1.661273e+2, -1604397.9, -1399563.0, -113228.875, 0.11948389, 0.0886143, -1349303.9, -37333.64, 0.00008722728, 9.997809, 10.000519 
1.4950782e+3, 1.7612846e+2, -1334310.4, -1192129.3, -71830.37, -0.011862709, 0.13541943, -1162158.1, 51803.22, 0.0000004647829, 9.9988785, 10.000753 
1.4950652e+3, 1.8612987e+2, -1179476.1, -1013453.94, -108234.4, -0.009294244, 0.17572135, -960062.94, 155883.1, 0.0, 9.999025, 10.001243 
1.4950523e+3, 1.961315e+2, -1154933.5, -952593.25, -48582.94, 0.0861665, 0.19482073, -941532.8, 76392.83, 0.0, 9.998534, 10.001221 
1.4950392e+3, 2.0613123e+2, -1066253.6, -1054524.4, 64773.457, -0.01628327, 0.14641231, -995350.56, -75423.74, 0.0, 9.999308, 9.999476 
1.495026e+3, 2.1612974e+2, -720044.06, -814854.25, 50556.836, -0.24570923, 0.02592097, -698143.75, 123798.3, 0.0, 10.000924, 9.999667 
1.495014e+3, 2.261295e+2, -629802.7, -732793.9, -102079.625, -0.0841148, 0.046072222, -566965.25, 156979.31, 0.0, 10.000914, 9.999567 
1.495003e+3, 2.3613015e+2, -693715.4, -714039.94, -85616.41, 0.32826188, 0.1316938, -617660.25, 8278.454, 0.0, 9.999814, 9.99955 
1.4949882e+3, 2.461297e+2, -706888.5, -870546.44, -42404.383, 0.24356215, 0.23612764, -696553.94, -168607.16, 0.0, 9.9999075, 9.997762 
1.494971e+3, 2.5612855e+2, -457895.94, -667813.56, -94943.49, -0.16546434, 0.32157537, -421325.2, 8638.824, 0.00000015644366, 10.000813, 9.998043 
1.4949577e+3, 2.6612628e+2, -267090.13, -464275.22, -102473.7, -0.19475111, 0.26477745, -223480.88, 108503.81, 0.000006865855, 10.001192, 9.99858 
1.4949465e+3, 2.761233e+2, -145707.03, -342691.25, -44422.25, 0.028022448, 0.085179, -136152.72, 97855.09, 0.000043952572, 10.001301, 9.998689 
1.4949337e+3, 2.8612173e+2, -18018.281, -310843.38, 34638.71, -0.02111186, 0.10404446, -13976.602, 122044.266, 0.00018902046, 10.001848, 9.997971 
1.4949197e+3, 2.9612118e+2, 202375.48, -156797.4, 35600.37, -0.24841465, 0.22535866, 205870.11, 243896.77, 0.000634647, 10.002701, 9.997944 
1.4949068e+3, 3.0611834e+2, 122690.25, -275317.16, -101704.01, -0.134799, 0.2120181, 147172.97, 147172.97, 0.0015134497, 10.00228, 9.997003 
1.4948945e+3, 3.161158e+2, 25208.209, -203245.61, -111915.63, 0.15420768, 0.21726108, 70896.58, 70896.58, 0.002722832, 10.001084, 9.998069 
1.5051375e+3, 1.2613705e+2, -1959780.8, -1517696.3, 66209.85, 0.37040856, 0.07066876, -1507993.1, 195879.16, 0.015336173, 9.996934, 10.002841 
1.5051205e+3, 1.3613972e+2, -2026030.9, -1769962.6, -81957.72, -0.20128617, 0.26221097, -1745977.6, -140132.34, 0.0091627855, 9.996993, 10.000397 
1.5051085e+3, 1.4613967e+2, -1992920.0, -1813506.3, -53575.164, -0.22980602, 0.28680235, -1798725.6, -290878.2, 0.0040015904, 9.997027, 9.999401 
1.5051006e+3, 1.5613727e+2, -1818055.8, -1622615.5, 9829.78, 0.15864106, 0.07139342, -1622122.4, -212248.03, 0.001031135, 9.997311, 9.999903 
1.5050896e+3, 1.6613796e+2, -1664518.3, -1350283.3, 52983.285, 0.2166328, 0.08018937, -1341590.3, -29721.045, 0.000096309515, 9.997058, 10.001218 
1.5050766e+3, 1.7614059e+2, -1630207.6, -1265186.3, 49340.523, 0.054388113, 0.20151965, -1258634.4, -44790.188, 0.000000575819, 9.996547, 10.001375 
1.5050635e+3, 1.8614213e+2, -1481303.9, -1168829.8, -44319.605, 0.013740363, 0.23493145, -1162665.4, -46838.91, 0.0, 9.997007, 10.001142 
1.5050504e+3, 1.9614303e+2, -1208129.1, -980405.9, -82893.83, 0.046838585, 0.1883966, -953427.7, 64385.156, 0.0, 9.998185, 10.001195 
1.5050377e+3, 2.0614293e+2, -1214496.1, -1079560.4, 20388.463, -0.031143177, 0.13432507, -1076547.0, -156735.17, 0.0, 9.998101, 9.999883 
1.5050258e+3, 2.1614213e+2, -1234052.0, -1025995.7, 28124.82, -0.1830456, 0.04753242, -1022260.8, -200441.27, 0.0, 9.99724, 9.999992 
1.5050142e+3, 2.2614208e+2, -1009638.1, -945355.3, -108283.86, -0.038494173, 0.08415968, -864543.3, -140721.89, 0.0, 9.9984455, 9.999293 
1.505003e+3, 2.361425e+2, -537045.3, -667985.0, -128369.99, 0.29357848, 0.17606446, -458413.97, 167405.52, 0.0, 10.0010195, 9.999286 
1.504989e+3, 2.4614169e+2, -467118.06, -772022.94, -46243.94, 0.25208205, 0.26442, -460258.72, 67573.45, 0.0, 10.001644, 9.997592 
1.5049733e+3, 2.561401e+2, -431901.34, -667977.8, -13201.077, -0.0421408, 0.32235605, -431165.44, -1311.2422, 0.00000020302433, 10.001054, 9.997918 
1.5049592e+3, 2.661381e+2, -252571.56, -419156.16, -14127.826, -0.14474481, 0.279143, -251381.9, 80489.56, 0.0000077496, 10.001127, 9.99892 
1.5049465e+3, 2.7613583e+2, -69524.61, -270455.0, -36980.277, -0.1203589, 0.14044233, -62934.69, 170951.05, 0.000048343012, 10.001666, 9.999011 
1.5049346e+3, 2.861344e+2, -24469.762, -295397.22, 11889.827, -0.10907856, 0.14847405, -23948.969, 111948.45, 0.00020365651, 10.001728, 9.998133 
1.5049231e+3, 2.9613367e+2, 40341.09, -214238.56, -17904.88, -0.109648764, 0.23552428, 41594.19, 79500.12, 0.00067169656, 10.001511, 9.998118 
1.50491e+3, 3.0613127e+2, 110921.945, -265577.1, -115401.8, -0.027650435, 0.24837781, 143478.81, 143478.81, 0.001571492, 10.00211, 9.997163 
1.5048957e+3, 3.1612873e+2, 354732.9, 537.5936, -58545.227, 0.07141061, 0.23822202, 364159.03, 364159.03, 0.0027882354, 10.003137, 9.998495 
1.5151319e+3, 1.2614723e+2, -1958693.8, -1529492.4, 49940.844, 0.09935399, 0.2249507, -1523758.0, 180020.73, 0.016257107, 9.996988, 10.002738 
1.5151198e+3, 1.3614768e+2, -1976102.8, -1666353.6, -77691.33, 0.015081274, 0.13707297, -1647959.4, -42186.855, 0.009740974, 9.996994, 10.001107 
1.5151088e+3, 1.4615047e+2, -1870744.3, -1576919.8, -49803.535, 0.06854076, 0.32285345, -1568707.5, -60962.426, 0.0042781597, 9.997088, 10.000999 
1.515096e+3, 1.5615074e+2, -1716482.4, -1411526.4, 20198.05, -0.046832394, 0.21531011, -1410194.4, -450.93747, 0.0011151112, 9.997312, 10.001349 
1.5150851e+3, 1.6615224e+2, -1644813.1, -1319117.0, 27991.69, 0.041194297, 0.23018686, -1316728.8, -4999.6733, 0.000106548556, 9.997091, 10.001417 
1.5150757e+3, 1.7615466e+2, -1622756.4, -1255066.8, 38920.773, 0.29903942, 0.30672026, -1250992.1, -37286.76, 0.0000007145684, 9.996568, 10.001433 
1.5150629e+3, 1.861548e+2, -1565734.4, -1354175.9, -3882.1812, 0.24984787, 0.26716477, -1354104.6, -238401.81, 0.0, 9.997049, 9.999851 
1.5150478e+3, 1.9615343e+2, -1283483.6, -1137601.6, -43423.727, -0.0152498, 0.12403556, -1125654.4, -107940.02, 0.0, 9.99819, 10.0001135 
1.5150364e+3, 2.0615403e+2, -1161170.9, -968126.56, -18584.957, 0.010240554, 0.14697634, -966353.6, -46646.918, 0.0, 9.998094, 10.000654 
1.5150271e+3, 2.161559e+2, -1195902.4, -939447.5, 11868.08, 0.22995497, 0.24755485, -938899.44, -117212.625, 0.0, 9.997205, 10.000606 
1.5150142e+3, 2.2615564e+2, -1061352.5, -1037016.06, -14211.28, 0.10994655, 0.271084, -1030475.3, -306783.72, 0.0, 9.998379, 9.998696 
1.5149988e+3, 2.3615402e+2, -574358.1, -732054.06, -38362.863, -0.22740197, 0.2185169, -565520.8, 60191.4, 0.0, 10.000963, 9.998873 
1.5149866e+3, 2.4615277e+2, -398744.1, -617287.4, -72962.664, -0.16750954, 0.22033606, -376623.8, 151103.22, 0.0, 10.001587, 9.998685 
1.5149763e+3, 2.561518e+2, -376473.8, -541549.2, -26591.127, 0.15223284, 0.23194213, -372296.1, 57441.85, 0.00000026346208, 10.001003, 9.998813 
1.5149626e+3, 2.6615015e+2, -307352.84, -518798.78, 4388.853, 0.07691245, 0.22175382, -307261.8, 24489.367, 0.0000083363275, 10.001067, 9.998265 
1.514947e+3, 2.7614814e+2, -120101.87, -358838.38, -12545.936, -0.25124586, 0.17031379, -119444.37, 114321.15, 0.000050807932, 10.001599, 9.998433 
1.514936e+3, 2.8614625e+2, -40669.297, -313769.6, -381.70233, -0.15174317, 0.16191827, -40668.76, 95115.05, 0.00021498118, 10.001656, 9.998045 
1.514928e+3, 2.9614455e+2, 39226.67, -206083.13, -13352.38, 0.23215106, 0.15868935, 39951.313, 77754.81, 0.0006995249, 10.001458, 9.998202 
1.5149143e+3, 3.06143e+2, 176192.14, -99235.79, -76642.24, 0.17619877, 0.183985, 196082.66, 196082.66, 0.0016007951, 10.001997, 9.998351 
1.514896e+3, 3.161411e+2, 425194.13, 185401.78, -1020.38214, -0.2364442, 0.12541021, 425198.47, 425198.47, 0.0027891663, 10.002999, 9.999821 
1.5251288e+3, 1.2615702e+2, -2065943.8, -1596648.0, 99131.55, 0.11910938, 0.25595003, -1576567.3, 127119.07, 0.017244658, 9.996342, 10.002576 
1.5251169e+3, 1.3615753e+2, -1971629.4, -1581113.3, -6311.177, 0.025245672, 0.10853881, -1581011.3, 24667.926, 0.010359608, 9.99666, 10.001858 
1.5251069e+3, 1.4616166e+2, -1854420.9, -1471932.1, 3091.4243, 0.2003629, 0.3431411, -1471907.1, 35729.902, 0.0045741852, 9.996792, 10.001861 
1.5250936e+3, 1.5616272e+2, -1736829.6, -1341560.9, 6093.5127, 0.02062864, 0.22968061, -1341467.0, 68157.98, 0.0012060112, 9.996823, 10.002068 
1.5250821e+3, 1.6616435e+2, -1683077.5, -1346645.1, -20879.516, 0.052149795, 0.23110111, -1345354.3, -33745.03, 0.000118081814, 9.996881, 10.00133 
1.5250723e+3, 1.7616667e+2, -1540235.1, -1225862.6, -35539.727, 0.27892345, 0.3081232, -1221895.0, -8307.307, 0.0000008766353, 9.997181, 10.001342 
1.5250607e+3, 1.8616663e+2, -1403275.8, -1291810.3, 18695.76, 0.26867223, 0.26269636, -1288758.0, -173170.61, 0.0, 9.998234, 9.99971 
1.5250477e+3, 1.96165e+2, -1057753.8, -1051946.8, 46498.004, 0.07000008, 0.11013282, -1008261.7, 9339.852, 0.0, 9.999831, 9.999914 
1.5250364e+3, 2.061653e+2, -922831.1, -911119.75, -19024.229, 0.11450689, 0.14100917, -897070.44, 22527.809, 0.0, 9.999979, 10.0001335 
1.5250263e+3, 2.1616691e+2, -927737.0, -852783.94, -84627.14, 0.32360208, 0.26785687, -797706.5, 23876.53, 0.0, 9.999231, 10.000222 
1.525013e+3, 2.2616684e+2, -961075.94, -928159.06, -22634.85, 0.14476879, 0.29535088, -916631.5, -193045.64, 0.0, 9.998803, 9.999239 
1.524998e+3, 2.3616564e+2, -886134.0, -821487.1, 26552.012, -0.28873718, 0.23105961, -811979.8, -186379.3, 0.0, 9.998562, 9.999411 
1.5249865e+3, 2.4616484e+2, -712150.5, -716933.8, -24278.12, -0.21405335, 0.2265227, -690146.5, -162536.73, 0.0, 9.999205, 9.999152 
1.5249772e+3, 2.561643e+2, -433543.28, -522917.78, -28494.479, 0.18784094, 0.23795663, -425231.6, 4383.5557, 0.0000003530132, 10.000409, 9.9992285 
1.5249644e+3, 2.6616278e+2, -285488.3, -529533.7, 23016.574, 0.14368202, 0.22991024, -283336.53, 48291.063, 0.00000861748, 10.0013075, 9.998078 
1.5249494e+3, 2.761606e+2, -77696.19, -364350.03, 25113.744, -0.19057544, 0.17966919, -75512.6, 158132.31, 0.000051456984, 10.002002, 9.998203 
1.5249382e+3, 2.8615826e+2, -48971.785, -375911.84, 3026.2036, -0.09989238, 0.16903819, -48943.777, 86725.21, 0.00022517524, 10.00185, 9.997526 
1.5249299e+3, 2.9615602e+2, -27903.814, -284137.56, -49000.777, 0.266071, 0.16390423, -18852.875, 18843.313, 0.00072377286, 10.001189, 9.997801 
1.5249161e+3, 3.0615503e+2, 115901.25, -80585.03, -109343.47, 0.19316763, 0.23894972, 164653.72, 164653.72, 0.0016158549, 10.001373, 9.998786 
1.5248984e+3, 3.1615332e+2, 301857.03, 154869.19, -108183.7, -0.24156046, 0.15931885, 359149.47, 359149.47, 0.002757654, 10.0020075, 10.0001 
1.5351275e+3, 1.2616648e+2, -2081416.0, -1646843.4, 43415.047, 0.32560265, 0.1619416, -1642548.6, 61046.004, 0.018294634, 9.996409, 10.002197 
1.5351114e+3, 1.3616946e+2, -1916313.4, -1469325.1, 8380.064, -0.19783533, 0.18552306, -1469168.1, 136396.08, 0.011016667, 9.99667, 10.002627 
1.5351033e+3, 1.4617343e+2, -1836661.5, -1448457.5, -2658.7622, 0.14073178, 0.35814887, -1448439.4, 59082.496, 0.0048880493, 9.996843, 10.002003 
1.5350935e+3, 1.5617344e+2, -1738023.4, -1333047.3, 10071.229, 0.31413203, 0.12893838, -1332796.9, 76720.125, 0.0013030368, 9.996789, 10.00214 
1.5350805e+3, 1.6617456e+2, -1707192.8, -1408162.0, -16889.826, 0.19918764, 0.10246396, -1407211.0, -95704.336, 0.00013086536, 9.996919, 10.000895 
1.5350665e+3, 1.7617679e+2, -1561344.3, -1268973.4, -15732.502, -0.024157627, 0.21330927, -1268129.3, -54639.754, 0.0000010420176, 9.997179, 10.001048 
1.5350568e+3, 1.8617776e+2, -1332849.8, -1152857.3, 75320.71, 0.041006543, 0.23133184, -1125497.1, -10018.375, 0.0, 9.99826, 10.000651 
1.5350495e+3, 1.9617778e+2, -1014265.9, -959277.5, 99862.3, 0.2633597, 0.14725798, -883193.7, 134280.25, 0.0, 9.999819, 10.000556 
1.5350378e+3, 2.0617676e+2, -1054534.6, -1176306.8, -51879.27, 0.23730199, 0.11703661, -1035429.6, -115943.41, 0.0, 9.999944, 9.998331 
1.535023e+3, 2.1617517e+2, -1032260.7, -1060850.1, -106134.77, 0.06661765, 0.10180241, -939462.3, -117953.91, 0.0, 9.999191, 9.998814 
1.535011e+3, 2.261756e+2, -855287.2, -691232.25, -36383.24, 0.031070126, 0.1522414, -683525.44, 39979.24, 0.0, 9.998728, 10.000902 
1.5350002e+3, 2.3617736e+2, -790912.5, -612008.8, 27419.422, 0.07799769, 0.21441305, -607900.75, 17583.877, 0.0, 9.99851, 10.0008745 
1.5349886e+3, 2.4617788e+2, -732814.7, -740745.75, 18581.621, 0.06938069, 0.2859215, -717780.1, -190299.63, 0.0, 9.999126, 9.999023 
1.5349762e+3, 2.561777e+2, -448267.7, -539826.5, 20646.424, 0.028064366, 0.34104994, -443827.28, -14341.22, 0.0000004707298, 10.000353, 9.999137 
1.5349646e+3, 2.66176e+2, -276307.7, -496081.5, 44921.32, 0.016301764, 0.30396968, -267480.4, 64020.94, 0.000008627056, 10.001244, 9.99834 
1.5349536e+3, 2.761732e+2, -77581.73, -350503.78, 50298.06, 0.021550778, 0.17246285, -68607.18, 164916.56, 0.00005220266, 10.0019455, 9.998324 
1.534941e+3, 2.8617048e+2, -132687.27, -534404.75, -24440.057, -0.005135553, 0.17275879, -131205.83, 4347.5313, 0.00023559046, 10.001779, 9.996475 
1.5349278e+3, 2.96168e+2, -99386.07, -424812.9, -60087.88, -0.055727884, 0.24623413, -88645.72, -51060.39, 0.0007465957, 10.001151, 9.996854 
1.5349154e+3, 3.061673e+2, 70581.68, -147426.67, -89596.086, -0.016932428, 0.4161909, 102678.07, 102678.07, 0.0016288471, 10.001269, 9.998368 
1.5349028e+3, 3.1616512e+2, 225323.25, 46755.063, -67736.46, -0.02170021, 0.3267305, 248110.02, 248110.02, 0.0027288299, 10.001818, 9.999431 
1.5451242e+3, 1.2617889e+2, -2103583.3, -1744734.0, 107071.28, 0.34929025, 0.22721483, -1715215.0, -11741.566, 0.019406972, 9.996642, 10.001401 
1.5451077e+3, 1.3618146e+2, -1838223.9, -1452754.8, 46376.566, -0.25430852, 0.23689628, -1447253.6, 158195.66, 0.0117135905, 9.99729, 10.002443 
1.5451e+3, 1.4618455e+2, -1818421.0, -1421423.5, -20276.53, 0.13232468, 0.318027, -1420390.6, 87024.54, 0.0052204016, 9.996894, 10.00216 
1.5450901e+3, 1.5618502e+2, -1863500.3, -1388350.3, -12619.237, 0.34350988, 0.12290613, -1388015.4, 21388.707, 0.0014059248, 9.995893, 10.002196 
1.5450774e+3, 1.6618599e+2, -1830518.8, -1504661.3, 18709.87, 0.21955654, 0.09745482, -1503590.5, -192195.28, 0.00014487762, 9.996238, 10.000554 
1.5450637e+3, 1.7618759e+2, -1520550.8, -1278308.3, 16150.594, -0.03906807, 0.17737526, -1277236.1, -63851.25, 0.000001197513, 9.997575, 10.0007925 
1.5450543e+3, 1.8618906e+2, -1430582.9, -1154215.6, 76897.89, 0.013679825, 0.23292185, -1134260.1, -18889.422, 0.0, 9.997399, 10.001055 
1.5450473e+3, 1.9619036e+2, -1487836.1, -1141112.1, 54351.78, 0.22957413, 0.23694478, -1132791.8, -115437.266, 0.0, 9.99638, 10.00096 
1.5450358e+3, 2.0618957e+2, -1449421.9, -1346000.3, -4330.781, 0.19241944, 0.20141473, -1345819.3, -426454.8, 0.0, 9.997151, 9.998513 
1.5450215e+3, 2.1618755e+2, -1040741.0, -1047817.4, 76424.57, 0.0077123186, 0.12586322, -967772.75, -146382.61, 0.0, 9.99907, 9.998959 
1.54501e+3, 2.2618788e+2, -717373.2, -635167.6, 104854.46, 0.03230933, 0.16540362, -563647.6, 159739.22, 0.0, 9.999721, 10.000808 
1.5450002e+3, 2.3618974e+2, -645508.3, -551520.1, 30975.602, 0.17918178, 0.24929328, -542229.8, 83135.17, 0.0, 9.999551, 10.00079 
1.5449886e+3, 2.461901e+2, -631031.9, -692710.3, 18805.143, 0.13771358, 0.3079254, -625750.56, -98388.305, 0.000000000009610117, 9.999835, 9.999011 
1.5449761e+3, 2.561895e+2, -443103.84, -540550.3, 19569.043, -0.022563083, 0.32529694, -439320.88, -9949.208, 0.0000005675007, 10.000408, 9.999106 
1.5449654e+3, 2.661882e+2, -315295.16, -515910.47, 32757.17, -0.024584215, 0.333131, -310081.94, 21302.975, 0.000008574752, 10.000988, 9.998322 
1.5449557e+3, 2.761864e+2, -132612.5, -376076.66, 2081.58, 0.06591887, 0.30017355, -132594.7, 100806.55, 0.000053640204, 10.001567, 9.998329 
1.5449433e+3, 2.861837e+2, -87216.586, -477652.28, -39462.74, 0.021937618, 0.29051283, -83267.88, 52161.4, 0.00024584457, 10.001951, 9.996774 
1.5449288e+3, 2.961807e+2, 64052.75, -333450.1, 17820.871, -0.113461934, 0.28353035, 64850.098, 102313.2, 0.0007696394, 10.002227, 9.99696 
1.5449171e+3, 3.0617973e+2, 253032.2, -172685.39, 38907.676, -0.052262723, 0.47705567, 256558.89, 256558.89, 0.00165233, 10.002998, 9.997365 
1.5449059e+3, 3.1617713e+2, 436302.22, -10235.595, -11181.875, 0.017833088, 0.45280534, 436582.03, 436582.03, 0.002733092, 10.003921, 9.99804 
1.5551189e+3, 1.2619445e+2, -2178924.8, -1909835.0, 48790.926, 0.12791923, 0.46218237, -1901261.4, -197940.64, 0.020587768, 9.996677, 10.000255 
1.5551059e+3, 1.3619372e+2, -1923342.6, -1609954.4, 68344.695, -0.17885682, 0.27373347, -1595698.1, 9634.141, 0.012455585, 9.997229, 10.001379 
1.555097e+3, 1.461952e+2, -1801419.3, -1396313.5, -61828.254, 0.12042093, 0.22820382, -1387087.3, 120228.04, 0.0055746003, 9.996923, 10.002323 
1.5550834e+3, 1.5619764e+2, -1855681.6, -1378701.8, -36181.59, 0.07764461, 0.2178413, -1375972.8, 33311.76, 0.001515748, 9.995922, 10.002248 
1.5550722e+3, 1.6619878e+2, -1839424.8, -1537262.9, 63133.555, 0.07773104, 0.22187321, -1524602.3, -213329.13, 0.00016035176, 9.996293, 10.000308 
1.5550637e+3, 1.7619915e+2, -1536355.3, -1308475.6, 58267.656, 0.19919586, 0.20391092, -1294441.3, -81167.63, 0.0000013687348, 9.997565, 10.000591 
1.5550531e+3, 1.8620062e+2, -1436777.6, -1172634.4, 33227.746, 0.1423521, 0.2749137, -1168518.6, -53256.598, 0.0, 9.997419, 10.000919 
1.555041e+3, 1.962028e+2, -1479719.0, -1124867.6, 32395.576, -0.062191196, 0.38002676, -1121934.4, -104691.83, 0.0, 9.996382, 10.001071 
1.5550305e+3, 2.0620379e+2, -1300723.4, -1037511.06, 62272.12, -0.050953794, 0.39843914, -1023521.94, -104289.375, 0.0, 9.997145, 10.000636 
1.5550217e+3, 2.1620402e+2, -928828.75, -809486.2, 142220.4, 0.11203855, 0.33714423, -714926.1, 106302.55, 0.0, 9.999038, 10.000613 
1.5550105e+3, 2.2620356e+2, -858196.3, -912989.8, 94977.42, 0.09928356, 0.33022946, -786743.25, -63510.246, 0.0, 9.999656, 9.998934 
1.5549979e+3, 2.3620275e+2, -767209.3, -794080.75, 32477.723, -0.028532831, 0.33092442, -745497.9, -120255.695, 0.0, 9.999506, 9.9991455 
1.5549867e+3, 2.4620137e+2, -637382.06, -690687.06, 35856.914, -0.050004255, 0.2884399, -619357.1, -92101.375, 0.0, 9.999767, 9.999061 
1.5549767e+3, 2.561997e+2, -449942.06, -540755.1, 45883.793, -0.0007276828, 0.1891442, -430795.72, -1523.5424, 0.0000005355393, 10.000349, 9.999134 
1.5549664e+3, 2.661994e+2, -350934.3, -573124.5, 54104.824, -0.025038654, 0.31646806, -338459.78, -7181.3267, 0.000008556659, 10.000913, 9.997966 
1.5549557e+3, 2.7620006e+2, -146894.19, -396168.75, 29391.465, -0.098002076, 0.5607048, -143475.6, 89802.36, 0.000055621294, 10.001527, 9.998208 
1.5549445e+3, 2.8619793e+2, 16597.217, -248476.1, -33116.098, -0.054029755, 0.52159125, 20671.838, 155969.19, 0.00025768706, 10.00189, 9.998381 
1.554933e+3, 2.9619405e+2, 145568.3, -153926.25, 40872.246, 0.05933803, 0.26807448, 151045.98, 188375.6, 0.0007980417, 10.002183, 9.998215 
1.5549211e+3, 3.061922e+2, 108213.164, -442735.66, 75350.49, 0.042647876, 0.41750756, 118332.61, 118332.61, 0.0016984369, 10.002881, 9.995563 
1.5549077e+3, 3.1618917e+2, 272263.25, -315211.16, 35944.707, -0.21198608, 0.5305418, 274454.34, 274454.34, 0.0027944047, 10.003792, 9.995994 
1.5651146e+3, 1.2620552e+2, -2295580.8, -1865324.0, -135892.81, 0.10806899, 0.44350612, -1825998.0, -122781.71, 0.021849003, 9.99544, 10.0011635 
1.5651022e+3, 1.3620618e+2, -2253129.8, -1718382.1, 63205.34, -0.13659911, 0.33383423, -1711013.0, -105801.39, 0.013250772, 9.994742, 10.001841 
1.565093e+3, 1.4620733e+2, -2035525.1, -1550850.9, -20274.69, 0.11224718, 0.25926358, -1550004.3, -42806.367, 0.0059556314, 9.995515, 10.001936 
1.5650803e+3, 1.5620959e+2, -1686605.8, -1331263.9, -41981.28, 0.11112475, 0.27029583, -1326371.5, 82799.08, 0.0016345053, 9.997231, 10.001944 
1.5650697e+3, 1.6621074e+2, -1628225.9, -1397688.4, 82161.62, 0.1227962, 0.26939195, -1371403.5, -60245.023, 0.00017771397, 9.997587, 10.00064 
1.5650614e+3, 1.7621115e+2, -1568971.5, -1295016.6, 110007.53, 0.2266736, 0.22283232, -1256311.3, -43154.707, 0.0000016137079, 9.997222, 10.000846 
1.5650508e+3, 1.8621244e+2, -1432940.5, -1214050.3, 78066.75, 0.16550656, 0.2855685, -1189060.8, -73913.27, 0.0, 9.997634, 10.00053 
1.5650386e+3, 1.9621432e+2, -1176654.9, -1008090.2, 54884.387, -0.037237845, 0.39987358, -991795.1, 25338.186, 0.0, 9.998582, 10.000815 
1.5650289e+3, 2.0621583e+2, -1041364.0, -823023.25, 47442.695, -0.004508127, 0.43886963, -813160.1, 105957.2, 0.0, 9.998538, 10.001433 
1.5650208e+3, 2.1621712e+2, -1042783.56, -790050.3, 22135.023, 0.18355197, 0.40274203, -788126.3, 32973.906, 0.0, 9.997934, 10.001275 
1.56501e+3, 2.2621651e+2, -1025202.9, -1042343.3, 13268.432, 0.1366302, 0.3719543, -1017977.5, -294871.4, 0.0, 9.998723, 9.998493 
1.5649973e+3, 2.362147e+2, -669793.2, -796035.4, 48044.348, -0.06559219, 0.32018006, -653588.75, -28462.457, 0.0, 10.000384, 9.998711 
1.564987e+3, 2.4621291e+2, -443908.78, -628915.0, 73397.89, -0.062172487, 0.27172697, -418326.84, 108817.66, 0.0, 10.001221, 9.998789 
1.5649782e+3, 2.5621122e+2, -293161.5, -488772.2, 44240.8, 0.062468164, 0.19793768, -283620.97, 145540.13, 0.00000039469393, 10.001518, 9.998931 
1.5649678e+3, 2.66211e+2, -286997.78, -509233.06, 62254.48, 0.017249413, 0.32466665, -270746.88, 60419.59, 0.000008163994, 10.001216, 9.99826 
1.5649563e+3, 2.7621177e+2, -271581.63, -435707.84, 81006.836, -0.13846599, 0.554205, -238334.45, -5169.7954, 0.000057337416, 10.000576, 9.998403 
1.564946e+3, 2.862096e+2, -24129.467, -276918.13, 5370.1104, -0.06419752, 0.51475763, -24015.44, 111168.39, 0.00027075387, 10.001653, 9.9983 
1.5649368e+3, 2.962058e+2, 377588.78, -47427.867, -70576.66, 0.14493535, 0.27330548, 389002.0, 426217.84, 0.0008320664, 10.003807, 9.998167 
1.5649253e+3, 3.062038e+2, 345094.4, -282603.84, -7820.399, 0.1008888, 0.39088064, 345191.84, 345191.84, 0.0017675529, 10.004299, 9.995986 
1.5649107e+3, 3.1620145e+2, 264633.16, -319184.03, 102143.96, -0.27544236, 0.5323477, 281988.22, 281988.22, 0.0029168387, 10.003711, 9.996022 
1.5751112e+3, 1.2621279e+2, -2090962.9, -1451261.9, -211289.69, 0.1881107, 0.21170476, -1387774.9, 315378.25, 0.023204513, 9.995454, 10.004049 
1.5750967e+3, 1.3621913e+2, -2119120.0, -1446198.8, 52782.664, -0.16570345, 0.437783, -1442083.8, 163000.58, 0.014108494, 9.994762, 10.003712 
1.5750882e+3, 1.4622113e+2, -2088800.3, -1680344.0, 38126.227, 0.06544819, 0.42138672, -1676815.8, -169754.34, 0.0063687824, 9.995588, 10.001017 
1.5750806e+3, 1.5622105e+2, -1731998.3, -1425347.4, 16488.627, 0.4068522, 0.2857306, -1424463.3, -15402.563, 0.00176415, 9.997229, 10.001299 
1.5750693e+3, 1.6622208e+2, -1563314.6, -1267425.5, 63654.957, 0.30776787, 0.24769492, -1254312.5, 56737.156, 0.00019721544, 9.997602, 10.001528 
1.5750565e+3, 1.7622371e+2, -1522667.9, -1199302.0, 105170.875, 0.012979104, 0.2392085, -1168106.0, 44926.563, 0.0000019795527, 9.997224, 10.001501 
1.5750474e+3, 1.8622455e+2, -1473462.6, -1306820.9, 109254.586, 0.049112543, 0.26740974, -1252741.1, -137714.55, 0.0, 9.997666, 9.99988 
1.5750402e+3, 1.9622497e+2, -1220800.5, -1098736.4, 85903.734, 0.26382247, 0.29783306, -1054391.1, -37364.605, 0.0, 9.998578, 10.0001955 
1.5750304e+3, 2.0622583e+2, -1080411.8, -898928.44, 20629.934, 0.28104675, 0.3258551, -896612.9, 22405.158, 0.0, 9.998514, 10.000923 
1.5750189e+3, 2.1622697e+2, -1074944.1, -844155.7, 12907.077, 0.1855446, 0.32449266, -843436.06, -22431.816, 0.0, 9.997883, 10.000925 
1.5750085e+3, 2.262267e+2, -966344.44, -906895.44, 71843.67, 0.10491013, 0.29309002, -858869.94, -135863.97, 0.0, 9.998662, 9.999454 
1.5749986e+3, 2.362256e+2, -624609.94, -687500.56, 108706.58, 0.02968362, 0.21468984, -542892.0, 82125.44, 0.0, 10.000321, 9.999485 
1.5749896e+3, 2.4622478e+2, -502770.3, -731809.7, 80942.21, 0.051167324, 0.2630878, -477053.03, 49975.023, 0.0, 10.001135, 9.998123 
1.5749805e+3, 2.5622413e+2, -333232.75, -560943.9, 55544.473, 0.1321572, 0.36011413, -320406.53, 108631.54, 0.00000029448665, 10.001473, 9.998453 
1.5749696e+3, 2.6622295e+2, -232783.44, -387558.16, 35047.79, 0.06701881, 0.36433375, -225216.98, 105832.11, 0.000007127328, 10.001171, 9.99912 
1.5749574e+3, 2.762214e+2, -241067.5, -357572.2, 76443.2, -0.09364038, 0.27402452, -203211.06, 29850.62, 0.000057487865, 10.000511, 9.998969 
1.5749478e+3, 2.8621882e+2, -172259.81, -572157.0, 86398.22, -0.059918825, 0.2715629, -154391.75, -19303.174, 0.0002811222, 10.001591, 9.996306 
1.5749402e+3, 2.962158e+2, 272207.94, -260794.6, 7347.0234, 0.10071199, 0.30661264, 272309.22, 309431.88, 0.0008677902, 10.003778, 9.996715 
1.5749295e+3, 3.0621442e+2, 521587.63, 106074.84, -32219.912, 0.07916511, 0.39727777, 524071.2, 524071.2, 0.0018536, 10.004221, 9.998689 
1.5749149e+3, 3.1621394e+2, 405117.06, 18536.27, 93479.36, -0.25035226, 0.4516304, 426534.75, 426534.75, 0.003084572, 10.003544, 9.998408 
1.5851052e+3, 1.2622398e+2, -2363586.0, -1560355.6, -72937.12, 0.16187452, 0.24423917, -1553786.3, 149256.9, 0.024665277, 9.993513, 10.004208 
1.5850934e+3, 1.362296e+2, -1916651.0, -1355494.1, 9707.829, -0.023758594, 0.4010126, -1355326.3, 249654.83, 0.0150364665, 9.996175, 10.003662 
1.5850843e+3, 1.4623168e+2, -1951485.8, -1590057.1, -34757.395, 0.07440675, 0.38551444, -1586745.0, -79787.7, 0.0068181083, 9.996433, 10.001224 
1.5850769e+3, 1.5623179e+2, -1981278.1, -1530932.0, 13326.66, 0.41430095, 0.2492286, -1530538.0, -121583.06, 0.0019058621, 9.995459, 10.001427 
1.5850662e+3, 1.6623294e+2, -1820247.6, -1446174.3, 45609.28, 0.3209949, 0.24579437, -1440693.6, -129749.45, 0.0002187055, 9.99608, 10.001032 
1.585054e+3, 1.7623465e+2, -1476590.3, -1219362.4, -20806.887, 0.0055594468, 0.29091415, -1217690.1, -4761.1636, 0.000002466339, 9.997724, 10.001121 
1.5850455e+3, 1.8623532e+2, -1338591.3, -1192800.4, -697.9334, 0.04875147, 0.29571423, -1192797.0, -77873.734, 0.0, 9.998386, 10.000315 
1.585039e+3, 1.9623546e+2, -1207869.4, -1055154.6, 44889.297, 0.28933463, 0.2539117, -1042937.2, -26014.375, 0.0, 9.998508, 10.000525 
1.5850292e+3, 2.0623599e+2, -1043123.0, -942763.25, 752.7958, 0.2904011, 0.2659567, -942757.6, -23840.123, 0.0, 9.999042, 10.00037 
1.5850173e+3, 2.1623676e+2, -821983.7, -777373.75, -15880.013, 0.1503032, 0.28598496, -772298.3, 48611.117, 0.0, 9.99985, 10.000444 
1.5850078e+3, 2.2623679e+2, -742616.7, -782605.7, 36761.26, 0.088773966, 0.29546133, -720764.2, 2145.8027, 0.0, 10.000128, 9.9996 
1.5849993e+3, 2.3623641e+2, -639921.2, -678653.5, -440.14682, 0.065472186, 0.27596945, -639916.2, -15000.702, 0.0, 10.000143, 9.999635 
1.5849903e+3, 2.4623597e+2, -615888.4, -755820.06, -22436.59, 0.07814887, 0.34302366, -612378.94, -85456.25, 0.0, 10.000248, 9.998371 
1.5849812e+3, 2.562355e+2, -469112.13, -605428.8, 9496.653, 0.10631033, 0.43425122, -468453.7, -39522.82, 0.00000023115544, 10.000455, 9.998632 
1.5849708e+3, 2.66234e+2, -184254.84, -364997.53, -14165.826, 0.0562385, 0.40051755, -183151.33, 147792.34, 0.0000061293663, 10.001513, 9.999103 
1.5849596e+3, 2.762319e+2, 138413.78, -172213.03, -51560.164, -0.049412612, 0.25698203, 146748.48, 379707.84, 0.00005820115, 10.0031185, 9.998979 
1.5849504e+3, 2.8622934e+2, 87869.5, -429411.75, 48730.824, -0.052552782, 0.24547015, 92420.18, 227405.33, 0.00029076563, 10.0033045, 9.996458 
1.5849423e+3, 2.9622662e+2, 110451.76, -321364.03, 113719.11, 0.003941253, 0.29872507, 138568.97, 175584.64, 0.0009054089, 10.002587, 9.99687 
1.5849325e+3, 3.0622497e+2, 358680.84, 62515.453, 18051.865, 0.030237574, 0.33771667, 359777.1, 359777.1, 0.0019494948, 10.002921, 9.999028 
1.5849195e+3, 3.162252e+2, 478130.34, 95120.4, -60041.086, -0.1439682, 0.42627177, 487321.88, 487321.88, 0.0032705914, 10.003842, 9.998807 
1.595097e+3, 1.2623908e+2, -2527957.3, -1921845.0, 52035.063, -0.036393084, 0.52931076, -1917410.1, -214522.9, 0.026239868, 9.9936075, 10.001658 
1.5950926e+3, 1.362378e+2, -2049119.1, -1623485.1, 93846.42, 0.25630412, 0.22268417, -1603711.9, 1188.1527, 0.016040104, 9.9961605, 10.001802 
1.5950812e+3, 1.4623922e+2, -1863324.9, -1415236.9, -78364.44, 0.099064454, 0.1572924, -1401927.4, 104955.85, 0.0073062, 9.996455, 10.002423 
1.5950695e+3, 1.56242e+2, -1921614.0, -1412397.3, -8294.121, 0.10711948, 0.16964653, -1412262.3, -3410.5427, 0.002060233, 9.99548, 10.002232 
1.5950604e+3, 1.6624348e+2, -1943091.8, -1710593.5, 103317.305, 0.12691274, 0.26953465, -1671316.6, -360475.56, 0.00024185247, 9.99612, 9.999198 
1.5950534e+3, 1.762441e+2, -1576414.6, -1425278.3, 38099.367, 0.17077856, 0.38328537, -1416217.3, -203372.97, 0.0000030340082, 9.997721, 9.999707 
1.5950447e+3, 1.8624489e+2, -1230243.1, -971012.0, -371.95496, 0.12450853, 0.37483126, -971011.5, 143824.97, 0.0, 9.998396, 10.001833 
1.5950347e+3, 1.962459e+2, -1125504.9, -878520.75, 57039.23, 0.013170314, 0.27273843, -865984.25, 150836.66, 0.0, 9.998488, 10.001747 
1.5950254e+3, 2.0624636e+2, -1089493.5, -1039158.56, 26574.064, -0.00735345, 0.2649982, -1027725.75, -108910.5, 0.0, 9.999037, 9.999712 
1.5950163e+3, 2.1624653e+2, -873743.5, -873526.2, 13254.713, 0.040072948, 0.28698888, -860379.7, -39564.145, 0.0, 9.999803, 9.999806 
1.5950075e+3, 2.262468e+2, -800354.9, -888205.7, 33444.563, 0.039396144, 0.38659495, -789071.8, -66254.414, 0.0, 10.000061, 9.99891 
1.5949988e+3, 2.3624717e+2, -681589.3, -752458.9, 6487.796, 0.0047911764, 0.5069144, -681000.3, -56180.293, 0.0, 10.000087, 9.999156 
1.5949897e+3, 2.4624652e+2, -549701.06, -603278.75, -17371.209, -0.026130576, 0.5137948, -544561.9, -17733.621, 0.0, 10.00018, 9.999453 
1.5949802e+3, 2.5624523e+2, -418533.3, -486762.06, 29395.559, -0.04948206, 0.41732946, -407615.6, 21224.52, 0.00000009760233, 10.000399, 9.999474 
1.5949713e+3, 2.6624417e+2, -262013.9, -515611.6, 44111.633, -0.05436893, 0.442582, -254560.06, 76289.875, 0.0000054247644, 10.001459, 9.998096 
1.5949628e+3, 2.7624327e+2, 90401.08, -263402.03, 5898.7095, -0.046589468, 0.51516384, 90499.4, 323357.38, 0.00006082951, 10.003078, 9.998372 
1.5949534e+3, 2.8624105e+2, 241115.55, -95772.01, 18352.22, -0.0929878, 0.43652606, 242112.36, 376987.2, 0.0003011857, 10.003241, 9.998782 
1.5949433e+3, 2.9623803e+2, 226870.02, -65835.91, 102304.22, -0.17855097, 0.23080553, 259081.73, 295978.9, 0.0009367572, 10.002525, 9.998659 
1.5949342e+3, 3.0623537e+2, 188506.77, -259557.11, 52263.047, -0.0905858, 0.2129248, 194522.08, 194522.08, 0.0020277468, 10.002803, 9.996863 
1.5949246e+3, 3.1623524e+2, 339125.2, -147660.16, -12154.504, -0.034653395, 0.47937638, 339428.47, 339428.47, 0.0034203846, 10.003671, 9.997207 
1.6050918e+3, 1.2624769e+2, -2346513.3, -1877375.8, -65464.582, 0.016206099, 0.44209623, -1868411.9, -165612.7, 0.027939666, 9.99504, 10.001268 
1.6050877e+3, 1.36247e+2, -2498587.3, -1863718.3, 47548.44, 0.2964117, 0.22006893, -1860176.9, -255367.38, 0.01712635, 9.993186, 10.001584 
1.6050756e+3, 1.4624867e+2, -2257142.8, -1607695.6, -94457.91, 0.03557785, 0.18944608, -1594236.3, -87443.445, 0.007836914, 9.993781, 10.002379 
1.6050652e+3, 1.562518e+2, -1779396.8, -1343691.1, -119823.516, 0.09564354, 0.24142735, -1312912.6, 95846.836, 0.0022287087, 9.996452, 10.0022335 
1.6050573e+3, 1.662533e+2, -1731681.6, -1569709.3, 62308.46, 0.13479622, 0.32038787, -1548513.8, -237766.14, 0.00026665046, 9.997405, 9.999547 
1.6050507e+3, 1.7625365e+2, -1613920.4, -1415717.9, 143924.17, 0.14483863, 0.37654346, -1340075.9, -127325.7, 0.0000036433328, 9.997341, 9.99996 
1.6050424e+3, 1.8625441e+2, -1429527.9, -1120595.8, 55685.254, 0.111159965, 0.3808401, -1110865.0, 3878.3276, 0.0, 9.997258, 10.001353 
1.605033e+3, 1.9625548e+2, -1335759.8, -1025154.4, -35776.25, 0.0462707, 0.33170554, -1021086.9, -4356.734, 0.0, 9.997225, 10.001353 
1.6050243e+3, 2.062559e+2, -1207137.3, -1060291.4, -32053.84, 0.031491134, 0.3189954, -1053599.5, -134874.6, 0.0, 9.998085, 10.000023 
1.6050158e+3, 2.1625604e+2, -888028.06, -847687.56, 10140.6875, 0.045360878, 0.30690783, -845281.9, -24558.059, 0.0, 9.999572, 10.00009 
1.6050072e+3, 2.2625633e+2, -811389.8, -884490.6, 56628.355, 0.022142727, 0.39238694, -780540.6, -57815.945, 0.0, 9.99996, 9.998978 
1.6049984e+3, 2.3625676e+2, -733621.5, -768390.94, 79673.55, -0.030437358, 0.51459306, -669458.06, -44731.824, 0.0, 9.999704, 9.999222 
1.6049898e+3, 2.4625617e+2, -539181.44, -606961.75, 56723.547, -0.03872208, 0.52796966, -506995.1, 19739.004, 0.0, 10.000282, 9.999389 
1.6049813e+3, 2.56255e+2, -284916.13, -434186.75, 10664.491, -0.021324491, 0.45061874, -284158.06, 144587.38, 0.000000007673713, 10.0013685, 9.999374 
1.6049732e+3, 2.6625362e+2, -226016.61, -545578.44, 34641.863, -0.023418475, 0.47410676, -222304.4, 108454.89, 0.0000049766613, 10.001915, 9.99767 
1.6049655e+3, 2.7625215e+2, -67645.59, -377053.47, 20489.004, -0.039709475, 0.53111863, -66294.71, 166479.95, 0.000062948304, 10.002147, 9.998045 
1.6049564e+3, 2.8625023e+2, 175107.48, -65971.805, -59314.547, -0.0728017, 0.46955985, 188910.77, 323698.63, 0.00030846125, 10.00252, 9.999335 
1.6049464e+3, 2.9624823e+2, 324639.4, 32499.053, -113127.25, -0.12561789, 0.31078744, 363323.84, 400122.25, 0.0009522765, 10.002983, 9.999112 
1.6049379e+3, 3.0624518e+2, 356189.8, -235049.5, -78076.086, -0.06775032, 0.25650397, 366326.38, 366326.38, 0.002063872, 10.004195, 9.996364 
1.6049293e+3, 3.1624374e+2, 647862.25, -15380.246, -45727.617, -0.040946875, 0.44408947, 651000.1, 651000.1, 0.0034872477, 10.005856, 9.997073 
1.6150898e+3, 1.2624998e+2, -2219421.5, -1633033.1, -59117.98, 0.27312478, -0.027600102, -1627132.4, 75644.78, 0.02978273, 9.995108, 10.002931 
1.6150786e+3, 1.3625745e+2, -2400515.5, -1669444.9, -11023.939, 0.0698946, 0.40277138, -1669278.8, -64571.793, 0.018308382, 9.993219, 10.002905 
1.6150676e+3, 1.4626004e+2, -2336195.5, -1784700.5, 124.745705, -0.15744187, 0.4752971, -1784700.4, -278014.88, 0.008418617, 9.993835, 10.00114 
1.6150641e+3, 1.562613e+2, -1834623.0, -1458099.9, -25899.664, 0.34057456, 0.46274725, -1456326.8, -47649.266, 0.0024150687, 9.996458, 10.001442 
1.6150564e+3, 1.6626243e+2, -1545710.4, -1201120.9, 54195.277, 0.300978, 0.4007859, -1192798.4, 117864.7, 0.0002938315, 9.997467, 10.002051 
1.6150457e+3, 1.7626339e+2, -1480392.8, -1144980.0, 143498.3, -0.09791553, 0.27325633, -1091966.6, 120679.39, 0.000004294035, 9.997361, 10.001811 
1.6150384e+3, 1.8626393e+2, -1599818.9, -1479203.5, 50606.824, -0.028590055, 0.31485912, -1460783.4, -346139.7, 0.0, 9.997283, 9.998879 
1.6150333e+3, 1.9626425e+2, -1476390.6, -1317486.0, -25723.277, 0.34469926, 0.43425396, -1313425.8, -296775.84, 0.0, 9.997228, 9.999345 
1.6150257e+3, 2.0626469e+2, -1123941.6, -879174.7, 17316.041, 0.3533138, 0.43909094, -877955.7, 40689.805, 0.0, 9.998049, 10.001282 
1.6150165e+3, 2.162653e+2, -811779.6, -678112.25, 60840.047, 0.13691762, 0.3498191, -654567.5, 166066.27, 0.0, 9.999525, 10.001275 
1.615007e+3, 2.2626537e+2, -767404.6, -777779.4, 41496.227, 0.0034487417, 0.3183186, -730772.8, -8141.2056, 0.0, 9.999893, 9.999743 
1.6149977e+3, 2.3626515e+2, -705213.94, -695117.44, 80981.336, -0.07897985, 0.2991883, -619027.2, 5607.56, 0.0, 9.999645, 9.999752 
1.6149905e+3, 2.4626495e+2, -633376.4, -788713.06, 93496.78, -0.008660185, 0.39607453, -589496.3, -62856.1, 0.0, 10.000217, 9.998174 
1.6149844e+3, 2.5626478e+2, -367635.1, -592682.9, 53383.168, 0.15463807, 0.53667605, -355614.25, 73032.65, 0.00000000987263, 10.001309, 9.998314 
1.6149765e+3, 2.6626226e+2, -232711.88, -541945.8, 40330.668, 0.10941735, 0.48820585, -227538.45, 103134.76, 0.000004852554, 10.001838, 9.997733 
1.6149674e+3, 2.7625823e+2, -83641.09, -393752.56, 37401.42, -0.065161586, 0.28698444, -79194.016, 153518.08, 0.000062990264, 10.002081, 9.99796 
1.6149594e+3, 2.8625682e+2, 76764.45, -258311.78, -45873.242, -0.0344702, 0.34900835, 82931.19, 217656.27, 0.00031075932, 10.002463, 9.998041 
1.6149521e+3, 2.962572e+2, 248507.34, -114893.18, -83101.7, 0.12295647, 0.55224055, 266609.2, 303329.28, 0.0009546395, 10.002928, 9.998129 
1.6149433e+3, 3.0625412e+2, 421098.7, -70867.77, -19985.398, 0.048997585, 0.47273347, 421909.22, 421909.22, 0.0020614408, 10.004091, 9.99753 
1.6149332e+3, 3.1625026e+2, 722037.7, 184499.88, 26533.229, -0.2450705, 0.3038391, 723344.25, 723344.25, 0.003468885, 10.005694, 9.998511 
1.6250859e+3, 1.2625816e+2, -2342449.5, -1636393.5, 86850.57, 0.44324997, -0.0008591394, -1625867.1, 76833.8, 0.03179242, 9.994028, 10.003422 
1.6250728e+3, 1.3626605e+2, -2047470.5, -1498170.3, -67943.29, 0.059670985, 0.46134996, -1489891.0, 114733.06, 0.019603958, 9.995616, 10.002941 
1.6250625e+3, 1.4626785e+2, -2070928.9, -1678735.5, 3880.3425, -0.1360841, 0.46601158, -1678697.1, -172087.8, 0.009062119, 9.995759, 10.000935 
1.6250609e+3, 1.562687e+2, -1963043.8, -1537043.9, 50799.832, 0.4034728, 0.43402287, -1531069.8, -122465.03, 0.002624408, 9.995664, 10.001275 
1.6250539e+3, 1.6626984e+2, -1684341.3, -1271395.8, 30550.137, 0.340903, 0.37967783, -1269147.9, 41442.773, 0.00032476612, 9.996545, 10.002003 
1.625043e+3, 1.7627087e+2, -1394786.9, -1103650.5, -77723.0, -0.12592827, 0.26260093, -1084200.6, 128372.53, 0.000005034694, 9.997959, 10.001798 
1.6250359e+3, 1.8627147e+2, -1413699.0, -1375783.5, -134663.69, -0.060907613, 0.30322552, -1258749.6, -144179.83, 0.0, 9.998502, 9.999004 
1.6250311e+3, 1.9627197e+2, -1278884.5, -1205332.4, -22525.742, 0.3422424, 0.4249116, -1198982.1, -182408.5, 0.0, 9.998529, 9.999478 
1.6250242e+3, 2.0627256e+2, -1054945.4, -869615.0, 64216.12, 0.38053054, 0.44768363, -849539.1, 69029.53, 0.0, 9.998619, 10.001078 
1.6250162e+3, 2.1627314e+2, -937255.94, -760009.4, -8946.874, 0.19028977, 0.3785635, -759558.9, 60999.887, 0.0, 9.998748, 10.001095 
1.6250072e+3, 2.2627291e+2, -827051.56, -811049.25, -114740.74, 0.042752214, 0.32614654, -704031.0, 18528.443, 0.0, 9.999496, 9.999707 
1.6249977e+3, 2.3627219e+2, -563522.1, -635012.0, -144752.14, -0.08596602, 0.2623643, -450166.84, 174399.4, 0.0, 10.000646, 9.999688 
1.6249911e+3, 2.4627188e+2, -495866.84, -727100.25, -86731.305, -0.010069765, 0.35327625, -466951.4, 59621.203, 0.0, 10.001185, 9.998122 
1.6249861e+3, 2.5627178e+2, -356097.75, -590238.94, -52836.977, 0.18102477, 0.50642395, -344726.66, 83852.09, 0.000000011745934, 10.001389, 9.998293 
1.6249786e+3, 2.6626953e+2, -193802.0, -484683.7, -14218.702, 0.12847589, 0.4675977, -193108.63, 137493.05, 0.0000048598445, 10.001942, 9.9980755 
1.6249697e+3, 2.7626598e+2, 28869.96, -314640.78, -6647.7065, -0.0777698, 0.2821833, 28998.56, 261633.11, 0.000061827406, 10.002749, 9.99818 
1.6249622e+3, 2.862643e+2, 149144.55, -295873.75, -47254.47, -0.037244584, 0.34318998, 154106.95, 288758.38, 0.00031000903, 10.003282, 9.997386 
1.6249555e+3, 2.9626396e+2, 318179.9, -140746.5, -56623.125, 0.15105571, 0.5390979, 325062.94, 361719.28, 0.0009500043, 10.003672, 9.997589 
1.6249473e+3, 3.0626112e+2, 371875.25, -86583.625, -582.06134, 0.074059464, 0.500217, 371876.0, 371876.0, 0.002034083, 10.003699, 9.9976225 
1.6249382e+3, 3.1625724e+2, 418313.84, 53193.57, -47042.207, -0.20814621, 0.32415983, 424277.38, 424277.38, 0.0033897348, 10.003487, 9.998691 
1.6350804e+3, 1.2627237e+2, -2374800.8, -1717640.5, 195752.22, 0.46841356, 0.52260953, -1663749.9, 38818.977, 0.03398967, 9.994096, 10.002821 
1.6350703e+3, 1.3627294e+2, -2131022.0, -1679196.1, -24703.56, 0.22465108, 0.40243563, -1677849.4, -73290.06, 0.02102759, 9.995655, 10.001664 
1.6350603e+3, 1.4627224e+2, -2002309.3, -1552139.8, -13602.037, 0.050856717, 0.16969511, -1551729.1, -45166.45, 0.009775217, 9.99582, 10.001776 
1.6350551e+3, 1.5627426e+2, -1930470.6, -1476270.8, 58420.13, 0.24959473, 0.16882181, -1468877.0, -60337.152, 0.002860367, 9.99569, 10.001681 
1.6350491e+3, 1.6627559e+2, -1859675.5, -1641829.6, 80886.53, 0.21694274, 0.26152158, -1615080.8, -304551.0, 0.00036087315, 9.996574, 9.999447 
1.6350426e+3, 1.7627607e+2, -1526955.4, -1378202.6, -28844.473, 0.027430614, 0.3422955, -1372805.3, -160273.73, 0.000005927034, 9.997962, 9.999911 
1.6350348e+3, 1.8627706e+2, -1216661.1, -971454.44, -137873.03, -0.027538978, 0.3472853, -909556.94, 204964.36, 0.0, 9.998517, 10.001774 
1.6350263e+3, 1.962786e+2, -1122916.4, -883060.06, -17846.422, 0.009482348, 0.29974958, -881739.5, 134761.86, 0.0, 9.998533, 10.001691 
1.63502e+3, 2.0627935e+2, -1172219.8, -1107432.4, 63159.523, 0.08012233, 0.33536872, -1068843.9, -150348.45, 0.0, 9.998596, 9.999456 
1.6350147e+3, 2.1627955e+2, -1052800.8, -988725.94, 4612.067, 0.16990764, 0.38830313, -988395.7, -167896.81, 0.0, 9.998698, 9.99955 
1.6350073e+3, 2.2627892e+2, -902627.1, -948337.56, -74261.85, 0.089057595, 0.4147658, -847783.06, -125274.445, 0.0, 9.99941, 9.998808 
1.6349985e+3, 2.3627783e+2, -618517.5, -731671.8, -100982.38, -0.08886438, 0.40167904, -559343.1, 65178.17, 0.0, 10.000574, 9.999056 
1.6349916e+3, 2.4627687e+2, -433441.53, -577428.44, -83790.23, -0.08417471, 0.3945555, -394963.9, 131568.14, 0.0, 10.001099, 9.999193 
1.634986e+3, 2.56276e+2, -293290.06, -444877.34, -37470.566, 0.025987659, 0.36391988, -284533.6, 144007.69, 0.000000006263202, 10.001329, 9.999318 
1.6349794e+3, 2.6627564e+2, -157181.23, -400581.3, 13276.478, -0.0069336677, 0.43422034, -156459.2, 174084.11, 0.000005059976, 10.001901, 9.998676 
1.6349721e+3, 2.762755e+2, 55696.43, -245949.03, 28729.39, -0.11986628, 0.525623, 58408.3, 290950.0, 0.00006027021, 10.00269, 9.998682 
1.6349646e+3, 2.8627262e+2, 130852.51, -315598.9, -35871.59, -0.13224658, 0.45166862, 133716.36, 268284.4, 0.00030506434, 10.003203, 9.997289 
1.6349569e+3, 2.9626828e+2, 296946.53, -173822.44, -35771.21, -0.08605719, 0.26092067, 299649.1, 336258.7, 0.00093549, 10.003622, 9.997388 
1.63495e+3, 3.06266e+2, 288597.3, -232214.23, -14275.723, -0.03804767, 0.34548417, 288988.3, 288988.3, 0.0019869271, 10.003594, 9.996665 
1.6349438e+3, 3.162645e+2, 320838.75, -97174.05, -28393.566, 0.0021916134, 0.49712542, 322758.56, 322758.56, 0.003276298, 10.003287, 9.997739 
1.6450737e+3, 1.2628043e+2, -2400061.0, -1708209.4, 100990.74, 0.40739357, 0.68402714, -1693769.0, 8724.51, 0.036383986, 9.99385, 10.002996 
1.6450666e+3, 1.3627812e+2, -2153474.8, -1724589.9, -74534.516, 0.28330234, 0.31095594, -1712006.0, -107495.664, 0.022584815, 9.995668, 10.001342 
1.6450581e+3, 1.4627786e+2, -1827802.6, -1476775.3, -100368.21, 0.18810989, 0.14017475, -1450103.8, 56405.027, 0.010560797, 9.997045, 10.001711 
1.6450503e+3, 1.5628089e+2, -1576677.9, -1317147.3, -103045.734, 0.094151706, 0.24685387, -1281209.6, 127266.8, 0.0031241647, 9.998154, 10.001591 
1.645045e+3, 1.6628203e+2, -1755391.4, -1630882.6, -17221.787, 0.09284609, 0.34325644, -1628544.4, -318075.13, 0.0004029895, 9.997447, 9.999111 
1.6450405e+3, 1.7628174e+2, -1864818.6, -1564933.1, 32064.498, 0.14467233, 0.37967753, -1561543.0, -349062.72, 0.0000070009137, 9.995741, 9.999711 
1.6450329e+3, 1.8628268e+2, -1574569.1, -1073250.6, -82257.086, 0.07749358, 0.35578275, -1060098.8, 54370.066, 0.0, 9.9957695, 10.002392 
1.6450234e+3, 1.9628455e+2, -1321971.6, -931572.56, -131303.22, -0.06908739, 0.2824866, -891520.3, 124921.734, 0.0, 9.996961, 10.002118 
1.645017e+3, 2.0628525e+2, -1306848.9, -1240759.5, -61154.12, -0.042626224, 0.3283886, -1204293.1, -285855.4, 0.0, 9.997959, 9.998847 
1.6450126e+3, 2.1628523e+2, -1069412.8, -1050082.9, -50118.75, 0.08886323, 0.41742325, -1008705.7, -188258.36, 0.0, 9.998819, 9.999059 
1.6450064e+3, 2.2628497e+2, -929854.9, -944810.4, -39065.742, 0.07608376, 0.49294543, -897557.7, -175102.73, 0.0, 9.999153, 9.998956 
1.6449988e+3, 2.3628451e+2, -814187.2, -816888.56, 1456.5925, -0.028451681, 0.5299222, -813551.44, -189089.9, 0.0, 9.99918, 9.999149 
1.6449921e+3, 2.4628331e+2, -680571.0, -706241.4, -6952.4893, -0.061138958, 0.50031286, -678808.94, -152334.83, 0.0, 9.999454, 9.999097 
1.6449857e+3, 2.5628173e+2, -500891.56, -551797.8, -55294.13, -0.063585095, 0.40857014, -465473.5, -36983.895, 0.000000005166704, 9.999937, 9.999255 
1.6449802e+3, 2.6628137e+2, -288807.7, -431588.22, -25809.516, -0.06444526, 0.46599153, -284285.5, 46205.406, 0.000005473011, 10.000862, 9.998961 
1.6449751e+3, 2.7628168e+2, -9252.358, -247400.72, -53373.027, -0.06379851, 0.5752275, 2162.3137, 234646.6, 0.000058417012, 10.002121, 9.998943 
1.644968e+3, 2.8627884e+2, 44722.22, -346249.22, -134249.39, -0.090173446, 0.48919177, 86381.11, 220890.7, 0.0002946905, 10.002571, 9.997378 
1.6449594e+3, 2.962744e+2, 139022.92, -239582.47, -129578.06, -0.13918224, 0.27971092, 179123.77, 215675.28, 0.0009098472, 10.002506, 9.997465 
1.644953e+3, 3.062726e+2, 179678.16, -302872.72, -52484.23, -0.06907322, 0.41264233, 185320.58, 185320.58, 0.0019294375, 10.00289, 9.996529 
1.6449478e+3, 3.1627107e+2, 326907.28, -132603.39, -19499.287, 0.073453456, 0.5759276, 327733.25, 327733.25, 0.0031622502, 10.003469, 9.997413 
1.6550656e+3, 1.2628289e+2, -2315105.0, -1562633.4, 129793.555, 0.17461827, 0.5270409, -1540874.6, 161594.98, 0.03897044, 9.993955, 10.003985 
1.6550614e+3, 1.3628171e+2, -2114948.5, -1647820.9, -8277.48, 0.20544703, 0.18806167, -1647674.3, -43198.332, 0.024272982, 9.995677, 10.001867 
1.6550557e+3, 1.4628467e+2, -1892479.3, -1613552.6, -62862.535, 0.2429315, 0.36888868, -1600039.8, -93591.94, 0.0114189135, 9.997057, 10.000763 
1.6550468e+3, 1.5628864e+2, -1618881.4, -1406566.4, -71701.1, -0.1027677, 0.66416013, -1384620.5, 23793.264, 0.0034161112, 9.998162, 10.000972 
1.6550408e+3, 1.6628926e+2, -1615768.5, -1354888.4, -88968.68, -0.08470303, 0.63158214, -1327435.9, -17027.908, 0.00045137366, 9.9974985, 10.000982 
1.6550368e+3, 1.7628795e+2, -1759408.8, -1350670.0, -16599.994, 0.19577521, 0.37935022, -1349996.9, -137578.53, 0.000008273259, 9.995757, 10.001173 
1.6550303e+3, 1.8628836e+2, -1681930.3, -1303330.8, -41258.19, 0.21859072, 0.3253945, -1298886.8, -184474.58, 0.0, 9.995797, 10.000801 
1.6550219e+3, 1.962898e+2, -1417585.6, -1128388.3, -84105.92, 0.07027005, 0.36903298, -1105707.0, -89311.1, 0.0, 9.996953, 10.0007715 
1.6550152e+3, 2.0629032e+2, -1283840.3, -1180952.1, -30441.547, -0.032350298, 0.43119723, -1172620.1, -254225.08, 0.0, 9.997911, 9.999279 
1.6550098e+3, 2.1629031e+2, -1039556.9, -975547.44, -17971.262, -0.090411715, 0.47706938, -970847.0, -150443.9, 0.0, 9.998768, 9.999596 
1.6550043e+3, 2.2629106e+2, -854872.94, -775570.94, -43216.77, -0.04556411, 0.5641636, -756571.4, -34172.64, 0.0, 9.999089, 10.000152 
1.654999e+3, 2.362923e+2, -761748.7, -694581.3, 10455.231, 0.058743186, 0.6513869, -692991.5, -68604.914, 0.0, 9.999121, 10.000019 
1.6549923e+3, 2.4629128e+2, -782672.1, -903355.94, 8320.143, 0.009388023, 0.6772817, -782101.2, -255702.89, 0.0, 9.999387, 9.997778 
1.6549851e+3, 2.5628892e+2, -593289.75, -725993.75, -27874.992, -0.12262381, 0.63595694, -587672.3, -159247.92, 0.00000000856411, 9.9998665, 9.998091 
1.654981e+3, 2.6628658e+2, -305496.44, -454344.84, 18198.56, -0.08268183, 0.5585111, -303303.75, 27141.967, 0.0000057188686, 10.000804, 9.998836 
1.6549784e+3, 2.7628437e+2, -20240.504, -258335.83, -4736.7983, 0.05541031, 0.42540908, -20146.305, 212317.72, 0.000056708228, 10.002066, 9.998898 
1.654972e+3, 2.8628296e+2, 55008.58, -308624.66, -139573.89, 0.045085866, 0.46703088, 102403.984, 236880.19, 0.0002843833, 10.002499, 9.997673 
1.654963e+3, 2.9628217e+2, 151765.02, -198253.56, -118882.82, -0.041521154, 0.5922629, 188324.58, 224808.27, 0.0008865622, 10.002438, 9.997784 
1.654956e+3, 3.062806e+2, 205816.25, -208260.78, -33559.33, -0.061218508, 0.69505984, 208518.47, 208518.47, 0.0018892928, 10.002741, 9.997237 
1.6549501e+3, 3.1627682e+2, 308888.88, -111281.88, 24653.898, -0.07675089, 0.56619847, 310330.5, 310330.5, 0.0030962937, 10.003243, 9.997655 
1.6650604e+3, 1.2628539e+2, -2204021.3, -1588553.6, 120037.28, 0.21391143, 0.39891896, -1565970.8, 136470.83, 0.041736465, 9.995029, 10.003304 
1.6650562e+3, 1.3628587e+2, -2071995.5, -1629779.6, -47890.438, 0.100140266, 0.23842728, -1624652.6, -20215.85, 0.026087236, 9.9959755, 10.001851 
1.6650526e+3, 1.4629005e+2, -2038264.3, -1669319.8, -104436.38, 0.2717852, 0.53114134, -1641808.5, -135410.03, 0.012349877, 9.996002, 10.000884 
1.6650443e+3, 1.5629257e+2, -2030951.5, -1584394.8, -45707.74, -0.016187651, 0.6685893, -1579764.3, -171386.23, 0.003737191, 9.9952545, 10.001151 
1.6650379e+3, 1.6629326e+2, -1797718.4, -1375553.8, -87615.086, -0.049023964, 0.60301197, -1358092.5, -47722.027, 0.00050616945, 9.995979, 10.001561 
1.665033e+3, 1.7629312e+2, -1431487.9, -1142429.3, -117843.53, 0.1302886, 0.40897694, -1100475.9, 111892.19, 0.000009797576, 9.997794, 10.001613 
1.665027e+3, 1.8629353e+2, -1352895.0, -1199228.3, -107498.49, 0.18729022, 0.3629577, -1143928.0, -29565.768, 0.0, 9.998282, 10.0003195 
1.6650198e+3, 1.9629422e+2, -1283684.6, -1095182.8, -71561.49, 0.13912743, 0.37535316, -1071094.0, -54738.938, 0.0, 9.998012, 10.000483 
1.665014e+3, 2.0629494e+2, -1161980.3, -1040943.44, 49291.797, 0.0471021, 0.42631966, -1023409.56, -105058.91, 0.0, 9.998398, 10.000009 
1.665009e+3, 2.1629569e+2, -937271.4, -863037.94, 72094.79, -0.05880319, 0.47855943, -819066.4, 1281.1737, 0.0, 9.999191, 10.000173 
1.6650036e+3, 2.262964e+2, -824476.9, -805531.94, -39264.36, -0.038546775, 0.56020385, -774613.56, -52269.617, 0.0, 9.999494, 9.999747 
1.6649982e+3, 2.3629709e+2, -726897.0, -710894.9, -111755.33, 0.046241235, 0.6318855, -606854.56, 17485.482, 0.0, 9.999506, 9.999715 
1.6649921e+3, 2.4629608e+2, -627915.3, -795642.5, -47287.008, 0.014969134, 0.6533565, -615502.44, -89151.14, 0.0, 10.000298, 9.998085 
1.6649862e+3, 2.5629398e+2, -327123.47, -575899.1, 26885.896, -0.0851431, 0.6127845, -324251.0, 104121.055, 0.0000000057748837, 10.001592, 9.998295 
1.6649826e+3, 2.6629162e+2, -232639.0, -472633.56, 89702.57, -0.035099655, 0.5492296, -202816.72, 127578.336, 0.0000055479773, 10.00154, 9.998351 
1.66498e+3, 2.7628925e+2, -241244.8, -410080.97, 30557.38, 0.09129549, 0.4483688, -235884.45, -3466.1829, 0.000054972716, 10.000732, 9.998499 
1.6649742e+3, 2.8628802e+2, -44350.258, -315512.25, -80038.74, 0.07385653, 0.5056828, -22487.91, 111940.69, 0.00027642155, 10.001635, 9.998042 
1.6649662e+3, 2.962876e+2, 344440.25, -68010.17, -73087.21, -0.022321535, 0.6306332, 357008.5, 393439.03, 0.0008722256, 10.003606, 9.998114 
1.6649595e+3, 3.0628544e+2, 447243.88, -101801.01, -29080.025, -0.06505229, 0.6617237, 448779.78, 448779.78, 0.0018777875, 10.004431, 9.997165 
1.6649532e+3, 3.1628105e+2, 466936.25, -67907.69, -40663.42, -0.13909632, 0.4838853, 470010.16, 470010.16, 0.0030963593, 10.0044565, 9.997383 
1.6750577e+3, 1.2628765e+2, -2355595.0, -1902218.8, 67873.664, 0.4197482, 0.27019513, -1892275.8, -189863.02, 0.044670317, 9.995055, 10.001094 
1.6750506e+3, 1.3629074e+2, -2112978.5, -1714399.9, -11725.257, -0.070896365, 0.46341428, -1714055.3, -109663.26, 0.028026333, 9.995977, 10.001267 
1.6750482e+3, 1.4629416e+2, -1943404.9, -1486435.3, -133363.69, 0.22577175, 0.6292998, -1450361.6, 55997.86, 0.013357116, 9.996052, 10.002122 
1.675043e+3, 1.5629283e+2, -1961279.8, -1448532.5, -58410.094, 0.31712833, 0.2666102, -1441962.8, -33594.766, 0.004090086, 9.995283, 10.002073 
1.675036e+3, 1.6629402e+2, -1843447.5, -1477987.5, -23959.783, 0.15779428, 0.25206697, -1476423.4, -166066.44, 0.0005678562, 9.996013, 10.000842 
1.6750288e+3, 1.7629729e+2, -1473788.8, -1227066.4, -56853.336, -0.078191504, 0.47131774, -1214595.6, -2266.943, 0.000011659807, 9.997783, 10.001037 
1.675023e+3, 1.8629833e+2, -1302444.9, -1100229.3, -121774.03, -0.05517231, 0.47513634, -1043059.75, 71258.22, 0.0, 9.9983015, 10.000994 
1.6750178e+3, 1.9629785e+2, -1233596.1, -991318.3, -73961.16, 0.10135175, 0.3047147, -970524.56, 45794.63, 0.0, 9.998011, 10.001198 
1.6750136e+3, 2.0629907e+2, -1088974.0, -886992.75, 74458.28, 0.1515704, 0.3160425, -862511.7, 55793.246, 0.0, 9.998386, 10.001071 
1.6750103e+3, 2.1630137e+2, -899357.56, -775567.7, 102142.83, 0.1516021, 0.41949654, -718030.06, 102250.98, 0.0, 9.999148, 10.000796 
1.6750042e+3, 2.2630094e+2, -981553.75, -1111285.6, -42072.984, 0.054172076, 0.47697634, -969103.94, -246812.55, 0.0, 9.999409, 9.997687 
1.6749962e+3, 2.3629886e+2, -844518.7, -940463.8, -100898.625, -0.0998527, 0.47503626, -780768.9, -156446.39, 0.0, 9.999445, 9.998167 
1.6749915e+3, 2.4629766e+2, -500540.3, -515514.1, -2511.4695, -0.093885824, 0.4334625, -500130.3, 26203.46, 0.0, 10.000227, 10.000042 
1.6749887e+3, 2.5629705e+2, -224531.28, -347338.13, 72509.81, 0.0125156045, 0.34739193, -190918.64, 237413.45, 0.0000000017385277, 10.001526, 9.999894 
1.6749848e+3, 2.6629657e+2, -305057.47, -609024.75, 55134.55, 0.035179485, 0.45112443, -295365.97, 34971.977, 0.0000048816705, 10.001475, 9.997451 
1.67498e+3, 2.7629614e+2, -305014.06, -526450.06, 20549.275, 0.0065733823, 0.6390335, -303123.22, -70774.695, 0.000051379237, 10.000661, 9.997739 
1.6749747e+3, 2.8629386e+2, -28663.38, -262690.56, -7097.6626, -0.055665947, 0.5983571, -28448.318, 105920.266, 0.00026518977, 10.001546, 9.998447 
1.6749689e+3, 2.9629052e+2, 351474.72, -38711.844, 4828.6533, -0.13509008, 0.39551657, 351534.44, 387927.5, 0.0008537965, 10.003533, 9.998353 
1.6749634e+3, 3.0628693e+2, 366435.38, -233378.17, -31181.178, -0.13582876, 0.31837118, 368051.97, 368051.97, 0.0018698213, 10.004291, 9.996322 
1.6749573e+3, 3.162836e+2, 382889.1, -196889.03, -12046.451, -0.19506674, 0.33224118, 383139.28, 383139.28, 0.0031233665, 10.004286, 9.996566 
1.6850527e+3, 1.2629084e+2, -2085181.4, -1808751.0, -30617.516, 0.3180253, 0.27565157, -1805400.5, -103020.48, 0.04776628, 9.997079, 10.000752 
1.6850466e+3, 1.3629441e+2, -2273814.5, -1736695.8, 41643.15, -0.0045890547, 0.47298723, -1733486.4, -129132.25, 0.030093629, 9.994655, 10.00174 
1.6850445e+3, 1.4629725e+2, -2044559.3, -1504163.3, -31728.459, 0.2810723, 0.54152733, -1502306.8, 4019.523, 0.0144471, 9.995231, 10.002389 
1.6850396e+3, 1.5629569e+2, -1613829.6, -1258673.8, -42236.766, 0.33958432, 0.13033968, -1253719.8, 154616.06, 0.004479329, 9.99757, 10.002275 
1.6850331e+3, 1.6629721e+2, -1595805.6, -1381409.8, -12033.876, 0.18097055, 0.15065949, -1380736.4, -70414.16, 0.0006375465, 9.997805, 10.000646 
1.6850264e+3, 1.763011e+2, -1614669.0, -1307989.8, -5486.7217, -0.050895892, 0.4496554, -1307891.6, -95601.88, 0.00001399049, 9.996871, 10.000922 
1.6850209e+3, 1.8630253e+2, -1393643.0, -1123310.5, -59086.773, -0.055026926, 0.48805085, -1110960.0, 3315.718, 0.0, 9.997601, 10.0011635 
1.6850159e+3, 1.9630226e+2, -1022145.56, -879376.56, -60575.945, 0.04892711, 0.32361493, -857138.44, 159136.27, 0.0, 9.999414, 10.001291 
1.6850123e+3, 2.0630309e+2, -960097.3, -853735.5, -13650.445, 0.12529613, 0.30659524, -852011.56, 66252.336, 0.0, 9.999397, 10.000813 
1.6850094e+3, 2.1630472e+2, -1041807.25, -861673.1, -86141.69, 0.19466329, 0.3667185, -827110.9, -6865.117, 0.0, 9.998261, 10.000622 
1.6850035e+3, 2.263041e+2, -1062151.8, -1147288.8, -126312.9, 0.073080316, 0.4079435, -971427.2, -249169.72, 0.0, 9.998835, 9.997725 
1.6849953e+3, 2.3630206e+2, -697929.1, -865951.3, -38544.734, -0.17265622, 0.40789792, -689508.8, -65221.215, 0.0, 10.000436, 9.998206 
1.6849911e+3, 2.4630119e+2, -448563.06, -493949.13, 16416.521, -0.1718699, 0.40178442, -443247.63, 83049.15, 0.0, 10.000601, 10.000008 
1.6849892e+3, 2.5630105e+2, -456672.47, -455369.22, -69413.78, -0.024025232, 0.36379972, -386604.03, 41688.75, 0.0000000018399801, 9.999906, 9.999936 
1.6849856e+3, 2.6630068e+2, -422026.63, -597329.4, -67647.29, 0.018454527, 0.44245842, -398958.0, -68662.57, 0.0000039092515, 10.000378, 9.998058 
1.6849811e+3, 2.763001e+2, -131637.3, -385849.9, 4759.9067, -0.009165668, 0.5521551, -131548.2, 100754.79, 0.000046342717, 10.001616, 9.998237 
1.6849764e+3, 2.862976e+2, 31566.344, -285452.13, 20412.303, -0.07929511, 0.49378648, 32875.254, 167200.42, 0.00025182753, 10.002181, 9.997987 
1.6849713e+3, 2.9629412e+2, 152231.6, -178902.52, -49006.605, -0.17702845, 0.3246868, 159332.13, 195685.8, 0.0008279381, 10.002355, 9.997957 
1.6849671e+3, 3.0629036e+2, 157530.77, -355077.66, -85783.195, -0.112715244, 0.25571978, 171505.31, 171505.31, 0.0018460318, 10.002926, 9.996149 
1.6849622e+3, 3.1628746e+2, 302001.97, -242507.92, -36339.297, -0.09957143, 0.33246604, 304416.47, 304416.47, 0.003130745, 10.003711, 9.996552 
1.695045e+3, 1.2629469e+2, -1965451.9, -1586150.6, -167004.44, -0.19581853, 0.372099, -1523100.3, 179245.8, 0.051028147, 9.997151, 10.002311 
1.6950439e+3, 1.3629703e+2, -2174394.3, -1530667.6, -22556.865, 0.26333454, 0.27725792, -1529878.1, 74443.59, 0.032295942, 9.994638, 10.003183 
1.695041e+3, 1.4629926e+2, -2088279.4, -1600039.0, 55103.465, 0.39868036, 0.25939974, -1593897.3, -87597.76, 0.015627254, 9.995251, 10.001722 
1.695034e+3, 1.5630113e+2, -1654299.0, -1343137.0, 34161.12, 0.015644876, 0.26347813, -1339430.8, 68850.61, 0.004910431, 9.997573, 10.001694 
1.695029e+3, 1.6630284e+2, -1559112.9, -1314948.1, -53367.08, -0.030926462, 0.30293635, -1303793.3, 6472.537, 0.0007170378, 9.997842, 10.001084 
1.6950256e+3, 1.7630464e+2, -1588794.6, -1260491.9, -25524.025, 0.17671496, 0.35093117, -1258519.4, -46269.336, 0.000016975888, 9.996893, 10.001241 
1.6950205e+3, 1.8630615e+2, -1412722.9, -1170527.4, 5402.061, 0.14331652, 0.4030089, -1170407.0, -56171.49, 0.0, 9.99763, 10.000827 
1.6950142e+3, 1.9630747e+2, -1060538.8, -955533.5, -2565.6377, -0.05247776, 0.43029818, -955470.9, 60751.14, 0.0, 9.999399, 10.000776 
1.6950098e+3, 2.0630707e+2, -1076282.0, -1084628.1, -62153.348, -0.07066057, 0.40422186, -1018161.8, -99935.03, 0.0, 9.999353, 9.9992485 
1.6950062e+3, 2.1630578e+2, -1124248.3, -1024319.2, -112218.37, 0.030622043, 0.32631728, -951444.75, -131203.17, 0.0, 9.99822, 9.99953 
1.6950013e+3, 2.263058e+2, -915912.6, -829517.44, -70132.57, -0.036330752, 0.35596272, -790346.25, -68103.39, 0.0, 9.998774, 9.999933 
1.6949956e+3, 2.3630668e+2, -594432.9, -634346.0, 18045.72, -0.20925368, 0.42935178, -587483.8, 36751.883, 0.0, 10.000362, 9.999833 
1.694991e+3, 2.4630658e+2, -609893.2, -804285.56, -12243.453, -0.26107424, 0.54712856, -609125.06, -82883.5, 0.0, 10.000497, 9.997928 
1.6949871e+3, 2.563059e+2, -577715.9, -687587.7, -80813.1, -0.23035337, 0.66147345, -534934.25, -106679.15, 0.0000000033657745, 9.999828, 9.998379 
1.6949844e+3, 2.6630387e+2, -285634.03, -293811.28, -23482.934, -0.13781741, 0.5200861, -265886.44, 64382.348, 0.0000030031388, 10.00029, 10.000183 
1.6949828e+3, 2.76301e+2, -25591.104, -146624.81, 53748.14, -0.0046669473, 0.19017151, -5168.77, 227113.72, 0.000041356147, 10.00154, 9.999911 
1.694979e+3, 2.8629917e+2, -73960.445, -488352.78, 22183.803, -0.04311504, 0.20309964, -72776.26, 61522.55, 0.00023869949, 10.002107, 9.996633 
1.6949737e+3, 2.962981e+2, 64254.246, -345860.1, -31287.379, -0.18477105, 0.406057, 66627.41, 102942.89, 0.0007962462, 10.002277, 9.996853 
1.6949709e+3, 3.0629525e+2, 166034.17, -294185.22, -59621.023, -0.045678988, 0.4542104, 173632.58, 173632.58, 0.0017946757, 10.002757, 9.996639 
1.6949674e+3, 3.1629288e+2, 334310.56, -107604.5, 9234.71, 0.039279144, 0.5301007, 334503.47, 334503.47, 0.003078319, 10.003455, 9.997584 
1.7050412e+3, 1.2629865e+2, -2426223.0, -1750721.3, -72878.58, -0.11064169, 0.36804932, -1742948.0, -40640.8, 0.054460447, 9.993756, 10.002766 
1.705039e+3, 1.3630058e+2, -1950037.8, -1440355.6, -65418.83, 0.23051052, 0.23534101, -1432092.9, 172191.73, 0.034638863, 9.996227, 10.003066 
1.7050354e+3, 1.4630252e+2, -1961829.6, -1578996.1, -4075.8628, 0.26925668, 0.21743648, -1578952.8, -72686.5, 0.016903277, 9.996299, 10.00136 
1.7050305e+3, 1.5630594e+2, -2046429.3, -1557008.8, -6539.0063, 0.04455445, 0.4064961, -1556921.4, -148685.69, 0.00538814, 9.995, 10.001459 
1.7050265e+3, 1.6630732e+2, -1803383.5, -1407026.6, -72682.31, 0.021295974, 0.40800405, -1394118.8, -83896.43, 0.0008082668, 9.996054, 10.001317 
1.7050229e+3, 1.7630745e+2, -1326281.5, -1116756.6, -66117.97, 0.14256917, 0.2668806, -1097637.0, 114582.16, 0.000020835996, 9.99862, 10.001397 
1.7050187e+3, 1.863087e+2, -1234678.9, -1136363.0, -49401.145, 0.120716974, 0.31296787, -1115828.9, -1621.7852, 0.0, 9.999069, 10.000373 
1.7050137e+3, 1.9631068e+2, -1254874.9, -1096208.0, -74316.1, 0.00074599095, 0.45240417, -1066837.0, -50647.82, 0.0, 9.99827, 10.000357 
1.705009e+3, 2.0631012e+2, -1201705.8, -1187897.0, -86890.195, -0.042946965, 0.44859695, -1107637.4, -189440.31, 0.0, 9.998682, 9.998857 
1.7050046e+3, 2.1630809e+2, -898390.56, -945295.1, -55832.367, -0.04189846, 0.33444664, -861284.94, -41064.93, 0.0, 9.9999, 9.999261 
1.7050001e+3, 2.2630818e+2, -735580.9, -666650.8, -38331.38, -0.07087529, 0.34530914, -649568.5, 72649.88, 0.0, 9.999691, 10.000607 
1.704996e+3, 2.363096e+2, -807914.0, -670925.3, -75072.51, -0.117227815, 0.40392882, -637796.06, -13594.364, 0.0, 9.998613, 10.000417 
1.7049918e+3, 2.4630967e+2, -804534.06, -918791.56, -39840.99, -0.15214378, 0.5226665, -792013.7, -265808.25, 0.0, 9.99925, 9.997743 
1.7049877e+3, 2.5630885e+2, -419474.78, -626662.44, 25295.44, -0.18479575, 0.64581937, -416431.2, 11790.442, 0.0000000026261497, 10.000986, 9.998236 
1.7049855e+3, 2.663065e+2, -103151.03, -211521.8, 46077.62, -0.1269428, 0.48000172, -86208.336, 244031.0, 0.0000021613648, 10.001577, 10.000127 
1.7049842e+3, 2.7630323e+2, -37081.152, -161944.52, -53036.37, -0.019634537, 0.118615516, -17594.756, 214662.27, 0.000036385776, 10.001504, 9.999827 
1.704981e+3, 2.8630164e+2, -86615.64, -513098.22, -80274.98, -0.04930631, 0.17232396, -72006.28, 62266.117, 0.0002227913, 10.002108, 9.996459 
1.7049766e+3, 2.9630113e+2, 185485.77, -301864.66, -60711.64, -0.16173247, 0.44576886, 192935.05, 229221.4, 0.00075158395, 10.003177, 9.996722 
1.7049748e+3, 3.0629846e+2, 355512.4, -186234.89, -57075.043, 0.018410917, 0.5094585, 361460.2, 361460.2, 0.0017016428, 10.003988, 9.996787 
1.7049718e+3, 3.1629562e+2, 531579.3, 29280.926, -53624.656, 0.08743268, 0.52418447, 537240.4, 537240.4, 0.0029380429, 10.004614, 9.997969 
1.7150411e+3, 1.2630275e+2, -2463448.8, -1830806.0, 53667.29, 0.4784713, 0.25186527, -1826285.6, -124022.484, 0.058051143, 9.993771, 10.002207 
1.7150316e+3, 1.3630529e+2, -2071411.9, -1688120.8, 14092.605, -0.14584243, 0.35784513, -1687603.3, -83362.43, 0.037118543, 9.996238, 10.00132 
1.7150275e+3, 1.4630717e+2, -1954214.1, -1580951.3, -58210.203, -0.16456848, 0.42132026, -1572084.0, -65858.945, 0.018276531, 9.996364, 10.00132 
1.715029e+3, 1.5631005e+2, -2041357.6, -1551095.3, -34686.703, 0.3850718, 0.55510163, -1548653.4, -140454.0, 0.005915651, 9.995012, 10.001497 
1.7150255e+3, 1.6631056e+2, -1795650.5, -1393810.1, 18015.14, 0.2979063, 0.46232143, -1393004.1, -82811.96, 0.0009130136, 9.996069, 10.001398 
1.7150185e+3, 1.7630953e+2, -1330996.0, -1122239.6, 17948.518, -0.18370576, 0.19857614, -1120707.6, 91489.4, 0.000025810483, 9.998607, 10.001365 
1.715015e+3, 1.863102e+2, -1270679.3, -1214124.0, -83658.695, -0.16587071, 0.21938348, -1154093.1, -39902.816, 0.0, 9.999079, 9.999835 
1.7150137e+3, 1.9631198e+2, -1280800.3, -1150837.1, -90547.914, 0.16507787, 0.3900246, -1104366.9, -88191.164, 0.0, 9.998271, 9.999982 
1.7150098e+3, 2.0631222e+2, -1147173.5, -1073562.1, -44007.617, 0.15319799, 0.4388431, -1052997.6, -134823.0, 0.0, 9.998677, 9.999642 
1.7150043e+3, 2.163116e+2, -869111.2, -868657.6, -17188.053, -0.06032903, 0.38881564, -851694.9, -31513.387, 0.0, 9.999833, 9.999818 
1.715e+3, 2.2631112e+2, -813460.0, -805863.0, -83077.82, -0.06254262, 0.36755297, -726496.94, -4311.9277, 0.0, 9.999594, 9.9997 
1.7149964e+3, 2.3631075e+2, -858106.2, -757467.94, -98510.625, 0.061750878, 0.33883038, -697169.0, -72983.06, 0.0, 9.998541, 9.999859 
1.7149937e+3, 2.4631035e+2, -688420.8, -662851.8, 20823.984, 0.09509241, 0.3341161, -651201.06, -125012.195, 0.0, 9.999183, 9.999532 
1.7149915e+3, 2.5630993e+2, -340883.3, -449330.38, 88303.19, 0.07537879, 0.31606558, -291484.25, 136708.72, 0.0000000000058928205, 10.000925, 9.999483 
1.7149885e+3, 2.6630858e+2, -275028.75, -553605.9, 39211.547, 0.00813964, 0.32810917, -269614.7, 60593.016, 0.0000014626683, 10.001512, 9.997811 
1.7149849e+3, 2.7630666e+2, -183179.83, -443084.47, -43857.11, -0.09341568, 0.33447915, -175978.75, 56249.62, 0.000031753894, 10.0014105, 9.997941 
1.7149822e+3, 2.8630486e+2, -34945.617, -381185.06, -43953.29, -0.15140899, 0.39438933, -29453.107, 104794.76, 0.0002048342, 10.002, 9.9974165 
1.7149799e+3, 2.9630315e+2, 226423.81, -192443.8, -10493.743, -0.16759343, 0.45244384, 226686.55, 262953.16, 0.0006960156, 10.003073, 9.997522 
1.7149788e+3, 3.0629998e+2, 313994.28, -237833.25, -37031.652, 0.014389436, 0.44249415, 316468.28, 316468.28, 0.0015768998, 10.003847, 9.996498 
1.7149755e+3, 3.1629485e+2, 483101.47, -9004.182, -28616.678, -0.028996766, 0.26140997, 484759.97, 484759.97, 0.0027312236, 10.004372, 9.997814 
1.7250355e+3, 1.2630533e+2, -2133164.0, -1668916.3, -6760.631, 0.43615422, 0.23621477, -1668817.8, 33419.855, 0.06177432, 9.996012, 10.002251 
1.7250288e+3, 1.3630778e+2, -2077012.6, -1743423.8, -36712.31, -0.05900946, 0.37865934, -1739431.3, -135214.13, 0.039721623, 9.996435, 10.000836 
1.7250244e+3, 1.4630984e+2, -1876221.8, -1522367.0, -102016.01, -0.13362432, 0.47658682, -1495062.8, 11135.53, 0.019743169, 9.996805, 10.001513 
1.725025e+3, 1.5631169e+2, -1675344.6, -1355560.1, -64111.094, 0.3637495, 0.48060986, -1343185.9, 64994.695, 0.006494274, 9.997426, 10.001686 
1.7250222e+3, 1.6631207e+2, -1632442.4, -1367613.3, 27880.459, 0.30948326, 0.3934854, -1364710.0, -54535.184, 0.001032908, 9.9974165, 10.000927 
1.725017e+3, 1.7631151e+2, -1578237.9, -1283448.6, -22717.287, -0.11216976, 0.22157319, -1281708.3, -69531.75, 0.00003215152, 9.997093, 10.000982 
1.7250139e+3, 1.8631184e+2, -1392043.0, -1263764.1, -117195.07, -0.14612748, 0.219795, -1194305.1, -80132.125, 0.0, 9.998209, 9.999913 
1.7250119e+3, 1.9631277e+2, -972609.5, -985252.2, -89402.26, 0.06158525, 0.29696903, -889305.4, 126860.1, 0.0, 10.000311, 10.0001335 
1.7250088e+3, 2.0631331e+2, -855629.75, -880536.5, -52909.535, 0.09907158, 0.34003535, -813727.75, 104432.125, 0.0, 10.000445, 10.000124 
1.7250048e+3, 2.163136e+2, -902980.75, -847465.1, -53116.34, 0.031619407, 0.33605117, -815291.0, 4864.43, 0.0, 9.999432, 10.000162 
1.7250007e+3, 2.2631276e+2, -747083.9, -843637.7, -89559.77, 0.0150991725, 0.30263868, -693617.9, 28544.059, 0.0, 10.000356, 9.999068 
1.7249964e+3, 2.3631138e+2, -318274.9, -555794.5, -97554.02, 0.017488098, 0.23177777, -283344.5, 340829.66, 0.0, 10.002501, 9.999336 
1.7249942e+3, 2.4631053e+2, -236808.5, -414428.4, -54380.79, 0.0753624, 0.19062644, -221481.63, 304698.7, 0.0, 10.002158, 9.999802 
1.724993e+3, 2.5631005e+2, -417298.88, -467584.0, -107193.42, 0.16151886, 0.14243698, -332338.88, 95843.6, 0.0000000000049057277, 10.000321, 9.999646 
1.7249903e+3, 2.6630944e+2, -471879.03, -707868.25, -85813.93, 0.087870516, 0.25386086, -443973.8, -113780.91, 0.0000011502509, 10.000416, 9.997278 
1.7249866e+3, 2.7630877e+2, -164028.42, -478872.06, -45635.95, -0.09027776, 0.43286762, -157547.0, 74661.164, 0.000028657565, 10.001727, 9.997544 
1.7249843e+3, 2.8630674e+2, 41218.668, -283332.53, -4115.139, -0.13980824, 0.4540755, 41270.836, 175500.95, 0.00019054933, 10.002264, 9.997959 
1.724983e+3, 2.9630393e+2, 160086.83, -168228.86, -18101.871, -0.111876756, 0.34864762, 161081.88, 197337.28, 0.0006451403, 10.002387, 9.99801 
1.7249832e+3, 3.063011e+2, 275293.4, -264263.84, -10371.34, 0.07328412, 0.35538226, 275492.7, 275492.7, 0.0014573217, 10.003597, 9.99645 
1.7249806e+3, 3.1629613e+2, 608878.94, 9655.056, -30417.748, 0.0052160313, 0.19823591, 610419.0, 610419.0, 0.0025279515, 10.005384, 9.997477 
1.7350243e+3, 1.2630667e+2, -2082685.5, -1579739.4, 77614.836, -0.31574818, 0.33938152, -1568034.1, 134193.53, 0.06561491, 9.996054, 10.002889 
1.7350303e+3, 1.36308e+2, -2030225.8, -1640364.6, -24995.092, 0.445831, 0.2899595, -1638768.6, -34554.953, 0.042436883, 9.9964075, 10.001559 
1.735026e+3, 1.4631048e+2, -1841663.0, -1456556.8, -83256.484, 0.31759226, 0.37519327, -1439328.1, 66858.44, 0.021297567, 9.996822, 10.001964 
1.7350183e+3, 1.5631096e+2, -1652043.8, -1308199.9, -41052.684, -0.06482116, 0.19103953, -1303366.4, 104812.04, 0.0071235094, 9.997433, 10.0020075 
1.7350167e+3, 1.6631196e+2, -1693243.5, -1508260.4, 11034.375, 0.002129405, 0.21004693, -1507604.5, -197435.72, 0.0011691477, 9.997469, 9.999941 
1.7350185e+3, 1.7631344e+2, -1631847.1, -1399180.3, -21258.5, 0.32019097, 0.3401815, -1397253.9, -185096.8, 0.00004011834, 9.997104, 10.000187 
1.735015e+3, 1.863136e+2, -1339937.4, -1162556.9, -43532.406, 0.13672769, 0.31658262, -1152449.3, -38293.77, 0.0, 9.998239, 10.000594 
1.7350084e+3, 1.96313e+2, -935357.56, -900455.5, -22595.03, -0.3409092, 0.17319843, -889357.0, 126802.484, 0.0, 10.000278, 10.000733 
1.7350058e+3, 2.0631327e+2, -846368.9, -853214.4, -98177.45, -0.24773431, 0.15421183, -751554.56, 166599.03, 0.0, 10.000409, 10.000328 
1.7350058e+3, 2.1631412e+2, -902996.44, -833615.4, -72842.92, 0.18820947, 0.18418501, -787624.25, 32516.994, 0.0, 9.999373, 10.000283 
1.7350021e+3, 2.2631323e+2, -782514.8, -902677.2, -11314.1455, 0.10319127, 0.1601784, -781458.8, -59310.145, 0.0, 10.000291, 9.998694 
1.734996e+3, 2.3631138e+2, -361911.84, -630729.6, -30485.93, -0.29307285, 0.0806193, -358497.88, 265669.2, 0.0, 10.002432, 9.998854 
1.734993e+3, 2.463101e+2, -341928.88, -609487.8, -128065.19, -0.25840327, 0.09032896, -290512.13, 235668.47, 0.0, 10.00206, 9.99851 
1.7349921e+3, 2.563092e+2, -496176.28, -612728.44, -155325.94, 0.03514921, 0.1280101, -388554.03, 39636.836, 0.000000000000012544113, 10.000246, 9.998686 
1.7349906e+3, 2.6630908e+2, -397051.94, -531626.44, -38453.266, 0.06376634, 0.2588106, -386839.34, -56643.523, 0.0000010511417, 10.000323, 9.998532 
1.7349887e+3, 2.7630955e+2, -101778.33, -326748.84, 6436.0767, -0.06292757, 0.42293447, -101594.35, 130602.23, 0.000028117367, 10.001634, 9.998631 
1.7349875e+3, 2.8630722e+2, 32535.434, -284372.28, -5867.6714, -0.08119684, 0.3678621, 32644.04, 166862.95, 0.00018317033, 10.002185, 9.997992 
1.7349863e+3, 2.9630306e+2, 150055.38, -169648.72, 2252.1345, -0.041027233, 0.124440245, 150071.25, 186327.25, 0.0006110962, 10.0023, 9.998044 
1.7349875e+3, 3.063015e+2, 266515.9, -242921.61, 53579.207, 0.12800176, 0.24516702, 272090.03, 272090.03, 0.0013778, 10.003439, 9.996663 
1.7349868e+3, 3.162986e+2, 524882.6, -84152.125, 26780.576, 0.064845815, 0.26782447, 526057.94, 526057.94, 0.0024028742, 10.005069, 9.996965 
1.7450191e+3, 1.2630701e+2, -2311240.8, -1640613.5, 149146.27, -0.3608118, 0.36855358, -1608939.6, 93285.08, 0.06957688, 9.994295, 10.003304 
1.7450257e+3, 1.3630806e+2, -2174776.0, -1634295.8, -36182.56, 0.40070337, 0.21856464, -1631884.3, -27673.953, 0.045260757, 9.995082, 10.002245 
1.7450227e+3, 1.4631064e+2, -1969338.8, -1533642.0, -90007.16, 0.35281143, 0.28843263, -1515780.4, -9598.578, 0.022935338, 9.996025, 10.001808 
1.7450151e+3, 1.5631133e+2, -1679325.3, -1334497.3, -110089.875, -0.1294778, 0.14212558, -1302347.4, 105824.71, 0.0078018596, 9.997306, 10.001885 
1.7450139e+3, 1.6631252e+2, -1612515.0, -1460125.3, -51338.605, -0.049724057, 0.17884474, -1444443.5, -134282.3, 0.0013223152, 9.997987, 10.000021 
1.7450167e+3, 1.7631415e+2, -1436045.4, -1295032.9, -8882.629, 0.36612028, 0.31541005, -1294475.6, -82327.4, 0.000049909977, 9.998407, 10.000274 
1.7450137e+3, 1.8631457e+2, -1395212.6, -1182141.5, -6186.7397, 0.21702464, 0.3134792, -1181962.0, -67817.69, 0.0000000000000006446772, 9.997832, 10.000654 
1.7450075e+3, 1.9631432e+2, -1453643.5, -1146365.9, -38278.39, -0.27590376, 0.1981943, -1141669.3, -125523.34, 0.0, 9.996706, 10.000766 
1.745005e+3, 2.0631433e+2, -1276674.5, -1089574.4, -140006.83, -0.22317085, 0.16609535, -1014739.4, -96596.87, 0.0, 9.997579, 10.000068 
1.745005e+3, 2.1631458e+2, -863283.75, -840756.2, -158908.39, 0.15128125, 0.16185175, -692712.9, 127422.75, 0.0, 9.999753, 10.0000515 
1.7450018e+3, 2.2631367e+2, -849742.6, -950519.7, -92690.18, 0.07359909, 0.15098277, -794630.1, -72486.16, 0.0, 9.999899, 9.998556 
1.7449968e+3, 2.3631206e+2, -895575.3, -904180.6, -104867.43, -0.27760032, 0.113247715, -794922.3, -170761.27, 0.0, 9.998841, 9.998706 
1.7449938e+3, 2.4631064e+2, -681632.56, -793517.2, -148211.28, -0.28333038, 0.1250062, -579157.3, -52981.465, 0.0, 9.999816, 9.998324 
1.744992e+3, 2.563094e+2, -244875.05, -508641.47, -102533.82, -0.089181244, 0.14197233, -209706.28, 218482.55, 0.0, 10.002045, 9.998532 
1.7449915e+3, 2.6630875e+2, -39916.19, -350759.47, 9537.122, 0.010881954, 0.2237119, -39623.855, 290573.3, 0.0000010008785, 10.002737, 9.998614 
1.7449918e+3, 2.7630866e+2, 32829.215, -260998.81, -48214.145, 0.044952754, 0.3280397, 40538.39, 272739.75, 0.00002867182, 10.002548, 9.998646 
1.7449908e+3, 2.8630653e+2, 49131.97, -320499.47, -118074.11, 0.02221564, 0.31392312, 83629.6, 217852.77, 0.0001789266, 10.002504, 9.997586 
1.7449887e+3, 2.9630286e+2, 166529.63, -198683.77, -152063.83, -0.038652856, 0.16292813, 221554.17, 257812.53, 0.000595069, 10.00257, 9.997718 
1.7449902e+3, 3.0630136e+2, 291309.3, -152889.28, -35570.918, 0.085367285, 0.26649335, 294139.75, 294139.75, 0.0013560992, 10.003251, 9.997383 
1.7449918e+3, 3.1629902e+2, 454424.13, -90771.19, -82022.12, 0.10216525, 0.26839054, 466496.66, 466496.66, 0.0023971847, 10.004437, 9.997228 
1.7550196e+3, 1.2630618e+2, -2304799.0, -1623926.5, 199074.52, 0.237072, 0.30283436, -1569993.0, 132237.17, 0.07366958, 9.994281, 10.003444 
1.7550144e+3, 1.3630816e+2, -2131891.0, -1545936.6, -7460.168, -0.23835485, 0.17770198, -1545841.6, 58363.41, 0.048192136, 9.995074, 10.002874 
1.7550145e+3, 1.4631052e+2, -2018050.5, -1640922.0, -48342.992, -0.076083526, 0.2360261, -1634823.8, -128642.19, 0.024652572, 9.996047, 10.001064 
1.755015e+3, 1.563129e+2, -1721274.0, -1416887.0, -61186.953, 0.13263734, 0.33584067, -1405047.9, 3113.249, 0.008527423, 9.997291, 10.001322 
1.7550136e+3, 1.6631371e+2, -1532388.5, -1298607.9, -41343.88, 0.11132814, 0.2973666, -1291511.6, 18640.482, 0.0014925194, 9.998004, 10.001124 
1.7550114e+3, 1.7631356e+2, -1374209.5, -1163698.5, 2242.47, -0.011274125, 0.14941217, -1163674.6, 48475.36, 0.00006156021, 9.998397, 10.001182 
1.75501e+3, 1.8631478e+2, -1427869.9, -1254516.6, -53086.477, 0.04766892, 0.21282245, -1239551.6, -125412.07, 0.0000000010737394, 9.997848, 10.00015 
1.755009e+3, 1.9631678e+2, -1495353.0, -1230071.1, -61213.734, 0.20612408, 0.37385875, -1216627.4, -200503.05, 0.0, 9.996694, 10.0001955 
1.7550062e+3, 2.063165e+2, -1329518.6, -1198369.6, -62760.65, 0.11874465, 0.3793113, -1173175.8, -255048.89, 0.0, 9.997569, 9.999327 
1.7550021e+3, 2.1631493e+2, -913677.4, -935363.94, -89757.22, -0.11166597, 0.2637626, -834110.8, -13971.553, 0.0, 9.999706, 9.999427 
1.755e+3, 2.26314e+2, -853554.94, -943880.1, -137361.28, -0.114114545, 0.27461502, -754122.3, -31973.568, 0.0, 9.999835, 9.998633 
1.7549986e+3, 2.3631345e+2, -893987.4, -884721.8, -123494.03, 0.019402843, 0.33334893, -765773.7, -141617.5, 0.0, 9.998774, 9.99887 
1.7549959e+3, 2.4631217e+2, -631455.4, -672063.7, -67065.625, -0.05982679, 0.30167603, -581687.75, -55521.617, 0.0, 9.999734, 9.999202 
1.7549925e+3, 2.563105e+2, -210425.3, -420252.75, -24748.967, -0.2565117, 0.18938227, -207545.69, 220631.23, 0.0, 10.001972, 9.999174 
1.754993e+3, 2.6630834e+2, -130279.6, -524374.6, -1708.6464, -0.1239797, 0.15696494, -130272.195, 199925.52, 0.0000009484334, 10.002672, 9.997455 
1.7549959e+3, 2.7630603e+2, -56432.324, -426563.03, -47256.652, 0.1926645, 0.15489574, -50494.074, 181729.39, 0.00002877745, 10.002468, 9.997544 
1.7549944e+3, 2.863045e+2, -23124.52, -454943.3, -119934.85, 0.121744655, 0.2954885, 7950.37, 142194.48, 0.00017793888, 10.002426, 9.996706 
1.75499e+3, 2.963032e+2, 98711.39, -312203.34, -135321.45, -0.16855209, 0.46863252, 139271.55, 175535.03, 0.00060204027, 10.00245, 9.996998 
1.7549914e+3, 3.063008e+2, 339112.72, -4774.942, 2414.5754, -0.13757202, 0.45378464, 339129.7, 339129.7, 0.0013966007, 10.003057, 9.9984865 
1.7549959e+3, 3.1629795e+2, 450629.28, -22954.77, -41940.4, 0.04222771, 0.28487343, 454314.8, 454314.8, 0.002499692, 10.004151, 9.997816 
1.7650154e+3, 1.2630588e+2, -2109187.3, -1579033.9, 235537.95, 0.3282908, 0.2535822, -1489506.9, 212722.5, 0.07790593, 9.995826, 10.003039 
1.7650089e+3, 1.3630871e+2, -2050737.0, -1542964.9, -51207.19, -0.32345948, 0.25514328, -1537852.3, 66345.18, 0.05123237, 9.995781, 10.002558 
1.7650111e+3, 1.4630991e+2, -2012600.6, -1624988.1, -58858.07, -0.021750186, 0.20003918, -1616247.8, -110061.48, 0.026445003, 9.996036, 10.001174 
1.7650118e+3, 1.5631269e+2, -1809007.4, -1449670.1, -20290.918, 0.11318364, 0.3333581, -1448527.9, -40365.633, 0.009296644, 9.996656, 10.001399 
1.7650107e+3, 1.663139e+2, -1633008.8, -1311943.1, -19217.3, 0.056689937, 0.31682253, -1310797.0, -647.449, 0.0016790463, 9.997167, 10.001431 
1.7650092e+3, 1.7631394e+2, -1468239.5, -1183097.5, -48603.305, -0.041351356, 0.15388262, -1175040.6, 37105.215, 0.000074904594, 9.997635, 10.001413 
1.7650083e+3, 1.8631512e+2, -1359726.5, -1252722.9, -122474.27, 0.06576682, 0.22077459, -1172574.4, -58438.176, 0.000000009428086, 9.998447, 9.999875 
1.7650077e+3, 1.9631712e+2, -1082637.3, -1055358.9, -117163.836, 0.26070958, 0.41076577, -951043.06, 65078.77, 0.0, 9.999626, 9.999986 
1.7650054e+3, 2.0631681e+2, -989674.94, -1024619.06, -32670.002, 0.17130095, 0.4162046, -970098.4, -51973.473, 0.0, 9.999868, 9.99941 
1.7650022e+3, 2.1631512e+2, -925571.2, -931093.6, -12943.55, -0.08103148, 0.28378382, -915097.6, -94959.35, 0.0, 9.999591, 9.999509 
1.7650005e+3, 2.2631408e+2, -797959.6, -910085.4, -62261.84, -0.05115006, 0.2771083, -770239.56, -48091.742, 0.0, 10.000181, 9.9987 
1.7649998e+3, 2.3631346e+2, -518518.75, -699431.8, -53519.957, 0.13723159, 0.32296783, -503871.66, 120283.016, 0.0, 10.001325, 9.998918 
1.7649977e+3, 2.4631229e+2, -316536.7, -528295.8, 5996.3374, 0.04419716, 0.3050907, -316367.03, 209796.42, 0.0, 10.001941, 9.9991255 
1.7649949e+3, 2.5631082e+2, -174732.69, -415272.94, -40997.07, -0.22015339, 0.22492972, -167937.22, 260235.63, 0.0, 10.002276, 9.999062 
1.7649956e+3, 2.663082e+2, -165239.53, -574481.6, -38902.348, -0.13021067, 0.1645717, -161574.33, 168624.11, 0.0000007065843, 10.0025835, 9.997149 
1.7649981e+3, 2.7630484e+2, -15387.113, -440527.16, -29885.635, 0.15968966, 0.091719806, -13296.553, 218936.98, 0.000027133234, 10.002891, 9.997246 
1.7649972e+3, 2.8630322e+2, 117530.78, -399773.78, -24571.955, 0.11799442, 0.24541683, 118695.33, 252949.98, 0.00018007947, 10.003446, 9.99659 
1.764994e+3, 2.963027e+2, 343643.0, -216682.69, -5280.498, -0.11347666, 0.50555015, 343692.75, 379959.63, 0.0006274873, 10.004232, 9.99679 
1.7649947e+3, 3.0629918e+2, 475221.6, -9594.998, 94646.164, -0.16506323, 0.42618367, 493043.34, 493043.34, 0.0014712351, 10.004278, 9.997871 
1.765e+3, 3.162956e+2, 399318.8, -91315.914, -89855.05, 0.052835923, 0.24231142, 415257.16, 415257.16, 0.00263449, 10.003934, 9.997474 
1.7750065e+3, 1.2630646e+2, -2165890.0, -1696614.8, 150078.6, -0.17682387, 0.24104343, -1652723.4, 49495.93, 0.08231803, 9.995855, 10.002139 
1.775009e+3, 1.3630977e+2, -2139399.3, -1722835.8, -48901.973, 0.09953662, 0.44778126, -1717171.9, -112984.62, 0.054393712, 9.995774, 10.001304 
1.7750122e+3, 1.4630869e+2, -1941929.9, -1487464.8, -45024.63, 0.4671166, 0.16523795, -1483047.0, 23149.945, 0.02831169, 9.996064, 10.002111 
1.7750052e+3, 1.5631069e+2, -1758546.3, -1346358.9, 6792.143, -0.23182452, 0.13451117, -1346247.0, 61928.586, 0.010105246, 9.996658, 10.002111 
1.7750047e+3, 1.6631317e+2, -1666806.8, -1388047.1, -6872.5537, -0.26795083, 0.24277923, -1387877.9, -77725.12, 0.0018804772, 9.997191, 10.000897 
1.7750096e+3, 1.7631528e+2, -1503882.1, -1252145.0, -26841.908, 0.23857073, 0.33793545, -1249314.8, -37179.23, 0.00008970714, 9.99762, 10.000943 
1.7750086e+3, 1.8631567e+2, -1358392.8, -1258469.5, -83996.56, 0.229198, 0.34868914, -1210698.9, -96565.09, 0.000000028818846, 9.998479, 9.999823 
1.7750034e+3, 1.9631535e+2, -1078735.4, -1044905.4, -76885.34, -0.14737134, 0.3099823, -983096.4, 33042.195, 0.0, 9.999618, 10.000061 
1.7750026e+3, 2.0631526e+2, -926449.44, -895092.9, -48444.945, -0.11137186, 0.28444758, -859852.4, 58284.41, 0.0, 9.999872, 10.000297 
1.7750046e+3, 2.1631517e+2, -881472.9, -826626.9, -12929.945, 0.20246914, 0.22297376, -823731.5, -3598.8977, 0.0, 9.999537, 10.00025 
1.7750035e+3, 2.2631395e+2, -808025.6, -915422.9, -21313.445, 0.21549852, 0.16713585, -803950.5, -81809.484, 0.0, 10.000108, 9.9987 
1.7750002e+3, 2.3631214e+2, -534741.94, -720788.06, -8445.915, 0.03767922, 0.0889304, -534359.3, 89797.18, 0.0, 10.001266, 9.998801 
1.7749992e+3, 2.46311e+2, -403942.47, -693381.4, 14038.737, -0.023527808, 0.1406246, -403263.13, 122905.3, 0.0, 10.001868, 9.998026 
1.7749992e+3, 2.5631034e+2, -247295.22, -551632.4, -23042.0, -0.013266881, 0.24976815, -245560.55, 182616.81, 0.0, 10.002219, 9.99815 
1.774999e+3, 2.6630816e+2, -138989.55, -504720.7, -30474.047, -0.047355086, 0.24771711, -136467.72, 193732.55, 0.00000032347444, 10.002514, 9.997664 
1.7749986e+3, 2.7630505e+2, 2562.016, -371693.88, -8363.402, -0.10831709, 0.14546044, 2748.8176, 234980.66, 0.00002298493, 10.002767, 9.997775 
1.774999e+3, 2.863028e+2, 139633.66, -333635.4, 609.49194, -0.057276793, 0.18242064, 139634.44, 273888.78, 0.00017734611, 10.003347, 9.997098 
1.7750001e+3, 2.963012e+2, 344186.84, -197350.53, 26182.072, 0.06985514, 0.28029063, 345449.75, 381719.63, 0.0006439494, 10.004152, 9.996964 
1.7750001e+3, 3.0629635e+2, 293743.34, -346441.94, 76067.84, -0.07067738, 0.18763927, 302657.72, 302657.72, 0.0015143406, 10.004118, 9.995627 
1.7750041e+3, 3.1629384e+2, 266031.75, -271851.94, -45977.293, 0.060304012, 0.32852393, 269933.5, 269933.5, 0.0026822817, 10.003573, 9.996382 
1.7850018e+3, 1.2630567e+2, -2321771.0, -1731427.4, -35708.74, -0.17570025, 0.2592309, -1729275.3, -27048.994, 0.08696164, 9.994642, 10.002449 
1.7850049e+3, 1.3630809e+2, -2104928.0, -1712597.8, -37244.285, 0.10005551, 0.38547045, -1709093.4, -104892.27, 0.057701517, 9.99604, 10.001244 
1.7850092e+3, 1.4630629e+2, -1885933.8, -1463185.4, -50502.797, 0.55432117, 0.034808654, -1457235.9, 48981.438, 0.030258754, 9.996464, 10.0020895 
1.7850019e+3, 1.5630916e+2, -1863082.9, -1407127.3, -77827.83, -0.18378413, 0.09460586, -1394208.8, 13979.082, 0.0109521225, 9.995987, 10.002016 
1.7850018e+3, 1.6631192e+2, -1775682.5, -1468052.6, -67718.87, -0.25280476, 0.25010407, -1453805.4, -143641.39, 0.0020959692, 9.996566, 10.000648 
1.7850077e+3, 1.7631385e+2, -1456613.6, -1245582.9, -77920.72, 0.2648872, 0.35124123, -1219929.9, -7778.6357, 0.000105867584, 9.998012, 10.000802 
1.7850073e+3, 1.8631415e+2, -1335687.0, -1175895.4, -106144.62, 0.25274432, 0.32312584, -1122937.9, -8788.796, 0.0000000562377, 9.99834, 10.000454 
1.785002e+3, 1.9631383e+2, -1266741.1, -1075891.9, -56091.875, -0.16418572, 0.22207685, -1060627.0, -44477.34, 0.0, 9.998071, 10.000594 
1.7850019e+3, 2.06314e+2, -1109990.4, -992733.9, -49039.563, -0.096459866, 0.20427343, -974928.2, -56783.01, 0.0, 9.998653, 10.000216 
1.7850052e+3, 2.1631438e+2, -843481.8, -813721.1, -94390.414, 0.2879107, 0.19952647, -733045.3, 87093.195, 0.0, 9.999818, 10.000206 
1.7850041e+3, 2.2631323e+2, -728955.0, -854171.9, -98876.34, 0.25108495, 0.1411101, -674532.06, 47613.945, 0.0, 10.000556, 9.998905 
1.7850004e+3, 2.3631126e+2, -564601.4, -722140.7, -87493.4, -0.055692885, 0.029907908, -525643.6, 98517.414, 0.0, 10.001012, 9.998914 
1.7849998e+3, 2.463098e+2, -575459.4, -838734.8, -53686.105, -0.08558927, 0.07605991, -564932.75, -38755.6, 0.0, 10.000959, 9.997466 
1.7850013e+3, 2.5630865e+2, -511787.0, -730481.56, -57284.95, 0.049381725, 0.19223726, -497690.4, -69496.65, 0.0, 10.00061, 9.997703 
1.7850015e+3, 2.663071e+2, -315587.4, -531208.44, -20814.563, 0.016743053, 0.24265938, -313596.5, 16614.643, 0.00000018312008, 10.001043, 9.998192 
1.7850006e+3, 2.7630526e+2, -69343.64, -360823.53, -8807.725, -0.12921143, 0.2156104, -69077.734, 163151.69, 0.000018531657, 10.002054, 9.9981985 
1.7850019e+3, 2.863026e+2, 126980.42, -352014.16, -852.9987, -0.09221455, 0.20095883, 126981.945, 261236.33, 0.0001692377, 10.003341, 9.996963 
1.7850046e+3, 2.9629973e+2, 431720.0, -174244.67, -52376.04, 0.061448075, 0.19310865, 436213.75, 472494.0, 0.00064098445, 10.0048485, 9.996783 
1.7850041e+3, 3.0629453e+2, 359679.47, -363170.0, 13777.415, -0.10077472, 0.09671924, 359941.97, 359941.97, 0.0014987164, 10.004783, 9.995194 
1.7850083e+3, 3.1629178e+2, 306923.8, -239274.23, 35842.83, 0.11236905, 0.26456624, 309265.88, 309265.88, 0.002595957, 10.003787, 9.996508 
1.7950006e+3, 1.2630364e+2, -2209299.3, -1525089.0, -120431.54, 0.2235298, 0.31118247, -1504510.1, 197738.95, 0.09190124, 9.99467, 10.003989 
1.7949964e+3, 1.3630384e+2, -2025826.3, -1551373.3, 19310.844, -0.36893073, 0.07401916, -1550588.6, 53648.637, 0.06119029, 9.99604, 10.002372 
1.7950022e+3, 1.4630294e+2, -1954840.8, -1614501.4, -73966.01, 0.18931498, -0.18027334, -1599121.4, -92876.2, 0.03230053, 9.996499, 10.001028 
1.795002e+3, 1.5630813e+2, -1931160.3, -1544408.0, -86271.445, 0.2201164, 0.21979201, -1526036.5, -117838.02, 0.011841973, 9.995973, 10.001079 
1.7950016e+3, 1.6631018e+2, -1769958.8, -1462676.1, -18963.457, 0.06032652, 0.3434815, -1461510.3, -151327.19, 0.0023264778, 9.996585, 10.000681 
1.7950031e+3, 1.7630967e+2, -1440392.8, -1215825.0, -28959.018, 0.001985567, 0.1979865, -1212150.6, 42.340637, 0.00012352158, 9.998024, 10.001004 
1.795004e+3, 1.8631059e+2, -1240254.8, -984963.5, -121259.04, 0.084318854, 0.14855003, -936549.06, 177632.47, 0.000000085167756, 9.998367, 10.001753 
1.7950036e+3, 1.9631259e+2, -1200783.5, -935987.2, -56426.023, 0.17123961, 0.15379119, -924464.6, 91690.195, 0.0, 9.998057, 10.001561 
1.7950033e+3, 2.0631316e+2, -1189101.9, -1151260.1, -9214.782, 0.16669084, 0.19325693, -1149135.5, -230986.64, 0.0, 9.998627, 9.999142 
1.7950036e+3, 2.163128e+2, -910612.56, -944768.4, -48599.387, 0.13917008, 0.21937433, -876177.8, -56021.883, 0.0, 9.999781, 9.999326 
1.7950024e+3, 2.263119e+2, -712752.4, -805719.94, -84032.63, 0.013083943, 0.20439823, -663203.75, 58959.305, 0.0, 10.000495, 9.999267 
1.7950003e+3, 2.3631077e+2, -554864.2, -684803.4, -68653.945, -0.18239611, 0.14101504, -525311.75, 98857.766, 0.0, 10.00094, 9.999203 
1.7949998e+3, 2.4630858e+2, -592565.3, -853157.06, -69769.06, -0.18863977, 0.107374065, -575061.5, -48870.406, 0.0, 10.000869, 9.997412 
1.7950007e+3, 2.5630578e+2, -522584.56, -732794.56, -57624.418, -0.070640795, 0.06322631, -507824.5, -79602.6, 0.0, 10.000529, 9.997724 
1.7950025e+3, 2.6630497e+2, -292514.63, -467517.16, 13850.528, 0.00790288, 0.16048071, -291425.22, 38805.758, 0.00000012581046, 10.00097, 9.998667 
1.7950045e+3, 2.7630538e+2, -57710.23, -317503.25, 38634.895, 0.044906918, 0.30698216, -52086.414, 180140.27, 0.000016560381, 10.00198, 9.9985285 
1.7950058e+3, 2.863027e+2, 51376.285, -491034.13, 49908.19, -0.049974266, 0.32359087, 55930.2, 190184.38, 0.00016528826, 10.003251, 9.996056 
1.7950068e+3, 2.9629838e+2, 376142.75, -262534.63, 4196.8433, -0.19645548, 0.2567665, 376170.3, 412468.2, 0.000635303, 10.004735, 9.996229 
1.7950067e+3, 3.0629373e+2, 415211.56, -207650.34, -33225.957, -0.34080234, 0.17321, 416978.97, 416978.97, 0.0014545234, 10.004611, 9.996345 
1.7950119e+3, 3.1628913e+2, 390618.44, -9067.559, 91797.22, 0.08072878, 0.028719999, 410693.5, 410693.5, 0.0024362667, 10.003574, 9.998176 
1.8049958e+3, 1.2630104e+2, -2270813.8, -1511732.5, -153290.03, 0.31893387, 0.31006625, -1481945.8, 220333.2, 0.097200245, 9.994054, 10.004402 
1.8049929e+3, 1.3630268e+2, -2015318.8, -1490547.8, 10992.408, -0.3210223, 0.15392292, -1490317.6, 113934.94, 0.06490086, 9.995845, 10.00292 
1.8049982e+3, 1.4630188e+2, -1885165.1, -1586227.1, -104342.664, 0.111747116, -0.10929313, -1553409.6, -47151.68, 0.034457777, 9.9970045, 10.000975 
1.8049985e+3, 1.5630634e+2, -1682407.4, -1429026.1, -54132.406, 0.19496113, 0.22160007, -1417945.9, -9728.817, 0.0127833225, 9.997692, 10.001042 
1.8049982e+3, 1.6630825e+2, -1650021.6, -1374436.8, 68815.414, 0.044358063, 0.31997168, -1358208.8, -48007.46, 0.0025744103, 9.997291, 10.000939 
1.8049999e+3, 1.7630814e+2, -1665966.8, -1299620.8, 69631.195, -0.047166724, 0.18804227, -1286832.4, -74626.664, 0.00014305822, 9.996387, 10.00121 
1.8050015e+3, 1.8630907e+2, -1420729.8, -1106440.9, -63828.35, 0.061119087, 0.1467452, -1093972.8, 20222.104, 0.00000010953618, 9.997272, 10.001449 
1.8050025e+3, 1.9631082e+2, -1038250.6, -882135.1, -128613.164, 0.20370696, 0.15712543, -809745.7, 206426.81, 0.0, 9.999284, 10.001336 
1.8050027e+3, 2.0631143e+2, -1051608.6, -1066696.0, -83638.68, 0.19416553, 0.2016539, -975174.2, -57007.957, 0.0, 9.999496, 9.9993 
1.8050025e+3, 2.1631128e+2, -1065971.1, -1005429.56, -36325.88, 0.121228024, 0.23321775, -988415.2, -168244.9, 0.0, 9.998659, 9.999447 
1.805002e+3, 2.2631067e+2, -937547.44, -919237.94, -31213.479, -0.006747913, 0.24383077, -895864.4, -173688.5, 0.0, 9.99898, 9.999214 
1.8050006e+3, 2.3630983e+2, -690371.5, -751986.44, -55446.28, -0.18345985, 0.21785325, -657748.8, -33566.965, 0.0, 10.000019, 9.999184 
1.805001e+3, 2.463076e+2, -508298.5, -774658.3, -48847.406, -0.16864127, 0.16041745, -499623.0, 26579.646, 0.0, 10.001278, 9.997756 
1.8050027e+3, 2.563046e+2, -195737.36, -553286.44, -20083.264, -0.033449043, 0.06105959, -194612.83, 233619.0, 0.0, 10.00267, 9.9979315 
1.805005e+3, 2.6630315e+2, -28308.809, -419277.44, 12968.598, 0.056050662, 0.12965274, -27879.105, 302367.63, 0.000000046918622, 10.00314, 9.997948 
1.8050076e+3, 2.7630273e+2, 58133.54, -330496.0, -66620.0, 0.09596437, 0.26855707, 69236.52, 301489.34, 0.000015746857, 10.003076, 9.997915 
1.8050094e+3, 2.8630018e+2, 36628.043, -454026.88, -13155.804, -0.00537056, 0.30737564, 36980.535, 171260.52, 0.0001626882, 10.002956, 9.996453 
1.8050109e+3, 2.9629666e+2, 146056.1, -322821.28, 15903.425, -0.17628606, 0.28546146, 146594.88, 182911.39, 0.0006253615, 10.002922, 9.996695 
1.8050113e+3, 3.0629313e+2, 317854.2, -172036.6, -20801.186, -0.27270585, 0.2431643, 318735.84, 318735.84, 0.001401902, 10.003573, 9.99709 
1.8050162e+3, 3.1628847e+2, 559444.25, 105360.46, 83428.695, 0.110956274, 0.04302286, 574287.4, 574287.4, 0.0022832684, 10.004535, 9.998536 
1.8149872e+3, 1.2629782e+2, -2320397.8, -1616981.6, -171959.94, 0.01635753, 0.24439014, -1577194.1, 125122.21, 0.10291468, 9.994097, 10.0036 
1.814994e+3, 1.3630465e+2, -2021599.6, -1497062.5, 79934.016, 0.2097003, 0.6296376, -1485151.9, 119094.21, 0.06887483, 9.995825, 10.002887 
1.8149969e+3, 1.463032e+2, -1812152.4, -1445194.9, -82160.73, 0.27408817, 0.24851537, -1427639.1, 78615.8, 0.036753505, 9.997029, 10.001956 
1.8149914e+3, 1.5630376e+2, -1614540.8, -1297654.0, -31302.217, -0.30222812, 0.09545537, -1294591.5, 113651.97, 0.01378539, 9.997723, 10.001944 
1.8149917e+3, 1.6630623e+2, -1611999.5, -1305963.5, 28288.13, -0.35738006, 0.18321493, -1303370.8, 6847.015, 0.002842686, 9.997332, 10.001391 
1.8149976e+3, 1.7630929e+2, -1655004.6, -1281072.8, 52130.906, 0.08843328, 0.32544276, -1273941.0, -61751.96, 0.00016504708, 9.9964, 10.001333 
1.8149997e+3, 1.8630959e+2, -1550310.1, -1378908.1, 10685.072, 0.14317736, 0.32300502, -1378244.6, -264055.78, 0.00000012908751, 9.997287, 9.99957 
1.8149988e+3, 1.963085e+2, -1137803.9, -1090945.1, -61519.72, -0.10661812, 0.23121135, -1048544.4, -32341.434, 0.0, 9.999296, 9.999894 
1.8149997e+3, 2.0630872e+2, -954782.9, -869159.75, -120652.914, -0.05771961, 0.22354965, -783948.06, 134250.33, 0.0, 9.999508, 10.000653 
1.8150021e+3, 2.1630965e+2, -990811.25, -844105.8, -55708.04, 0.20008816, 0.2293544, -825349.8, -5166.2964, 0.0, 9.998631, 10.00057 
1.8150026e+3, 2.2630942e+2, -982930.9, -993763.6, 5065.6826, 0.14937343, 0.25498623, -980931.2, -258745.44, 0.0, 9.998892, 9.998747 
1.8150015e+3, 2.363085e+2, -720973.5, -803136.5, -7232.3584, -0.09838196, 0.26748332, -720341.75, -96143.7, 0.0, 9.999966, 9.998859 
1.8150035e+3, 2.4630688e+2, -469444.34, -680516.6, 1371.5485, -0.07514651, 0.24771106, -469435.4, 56776.043, 0.0, 10.001217, 9.998432 
1.815007e+3, 2.5630492e+2, -177700.25, -504192.22, 31853.62, 0.11967141, 0.18383725, -174621.55, 253603.2, 0.0, 10.002619, 9.998293 
1.815009e+3, 2.6630154e+2, -179645.9, -717575.4, 7296.668, 0.11197282, 0.15124036, -179546.95, 150712.92, 0.000000056350853, 10.003064, 9.99594 
1.8150096e+3, 2.762972e+2, -65055.1, -563657.94, -60456.207, -0.022855911, 0.09856003, -57829.426, 174479.33, 0.000014334833, 10.002984, 9.996356 
1.8150122e+3, 2.862951e+2, 131383.98, -239159.44, -17462.02, -0.028475136, 0.16302827, 132205.06, 266537.25, 0.00015433459, 10.002873, 9.997971 
1.8150163e+3, 2.9629448e+2, 239658.7, -118086.68, 32356.125, 0.060834758, 0.2715453, 242561.6, 278899.16, 0.00059875083, 10.002871, 9.998128 
1.815018e+3, 3.0629256e+2, 298560.13, -174885.83, 8089.9443, 0.016235894, 0.32318544, 298698.3, 298698.3, 0.0013417744, 10.003424, 9.997138 
1.8150194e+3, 3.1628746e+2, 460875.7, -19197.688, 174177.95, -0.03603628, 0.07202545, 517412.06, 517412.06, 0.0021790394, 10.004231, 9.997801 
1.8249825e+3, 1.2629578e+2, -1981436.1, -1557961.0, -96995.305, -0.0065341652, 0.20098038, -1536801.8, 165532.42, 0.10907774, 9.996842, 10.002723 
1.8249913e+3, 1.3630317e+2, -2056291.3, -1570510.1, 135680.39, 0.34693336, 0.7073823, -1535183.1, 69079.84, 0.07313931, 9.995836, 10.002358 
1.8249933e+3, 1.4630231e+2, -1970857.6, -1473963.6, -48256.418, 0.26688853, 0.38459283, -1469320.5, 36946.64, 0.039204508, 9.995755, 10.002357 
1.8249889e+3, 1.5630265e+2, -1746365.8, -1323147.0, -50980.215, -0.26443037, 0.16772693, -1317092.6, 91163.47, 0.014855209, 9.996664, 10.002273 
1.8249895e+3, 1.663043e+2, -1648274.5, -1367056.1, -73857.625, -0.3043065, 0.18159764, -1348838.8, -38602.168, 0.0031336718, 9.997269, 10.001003 
1.8249948e+3, 1.763063e+2, -1492624.4, -1242911.3, -110200.39, 0.10083361, 0.25711018, -1201234.8, 10981.868, 0.00019006866, 9.997685, 10.000975 
1.8249974e+3, 1.8630672e+2, -1420960.3, -1329647.6, -35043.184, 0.14128523, 0.29034376, -1317749.4, -203533.55, 0.00000015151502, 9.998241, 9.999445 
1.824998e+3, 1.9630642e+2, -1198109.8, -1129711.0, 6842.749, -0.108152255, 0.29385543, -1129033.1, -112808.9, 0.0, 9.998933, 9.999803 
1.8249992e+3, 2.0630655e+2, -936322.56, -824813.44, -96557.47, -0.06302176, 0.26210162, -769069.5, 149150.53, 0.0, 9.999488, 10.000963 
1.8250012e+3, 2.1630685e+2, -774473.3, -709396.1, -113979.61, 0.17630824, 0.1743997, -623401.56, 196807.05, 0.0, 9.999995, 10.000833 
1.8250023e+3, 2.2630645e+2, -752068.4, -889491.56, -26607.463, 0.1634886, 0.17650597, -747096.6, -24884.771, 0.0, 10.000505, 9.998684 
1.8250029e+3, 2.3630573e+2, -573922.4, -738628.44, -16993.52, -0.017383726, 0.21191363, -572187.3, 52035.82, 0.0, 10.001006, 9.998799 
1.8250056e+3, 2.4630438e+2, -383780.2, -648440.75, -8628.549, -0.007336297, 0.226639, -383499.16, 142735.86, 0.0, 10.001854, 9.998341 
1.8250097e+3, 2.563027e+2, -145091.42, -499539.72, -54583.945, 0.11901228, 0.20012106, -136876.08, 291370.94, 0.0, 10.002898, 9.998184 
1.8250117e+3, 2.6629913e+2, -231169.08, -749806.3, -61822.92, 0.09492784, 0.16108407, -223901.45, 106381.88, 0.00000009873202, 10.002748, 9.995872 
1.8250118e+3, 2.762945e+2, -226605.77, -652154.6, 3438.355, -0.02965843, 0.08355643, -226578.0, 5756.306, 0.000014097946, 10.001907, 9.996272 
1.8250148e+3, 2.8629217e+2, 29169.494, -299870.03, 71029.78, -0.026433256, 0.13932529, 43847.9, 178207.33, 0.00014668363, 10.002221, 9.9978695 
1.8250191e+3, 2.962915e+2, 287784.13, -108008.51, -21070.348, 0.052563775, 0.25566158, 288902.66, 325269.2, 0.0005669158, 10.003255, 9.998015 
1.8250225e+3, 3.0628982e+2, 337064.9, -150448.94, -87456.46, 0.12202786, 0.33263946, 352279.16, 352279.16, 0.0012862376, 10.003673, 9.997183 
1.8250239e+3, 3.1628564e+2, 389930.25, -82619.266, 39503.28, 0.016369421, 0.18354747, 393209.8, 393209.8, 0.0021298856, 10.0038185, 9.997594 
1.8349813e+3, 1.2629491e+2, -2043509.1, -1681182.6, -119372.945, 0.18297637, 0.17382683, -1645389.6, 56942.93, 0.11569034, 9.996874, 10.001773 
1.8349841e+3, 1.3629843e+2, -2127341.0, -1708002.4, 104315.305, 0.04949968, 0.39388615, -1683486.0, -79184.305, 0.07769921, 9.995827, 10.001376 
1.8349868e+3, 1.4629935e+2, -1983793.4, -1506347.6, -21890.021, 0.0328606, 0.30904263, -1505346.1, 946.6869, 0.04181763, 9.995776, 10.002118 
1.8349911e+3, 1.5630303e+2, -1764141.4, -1364115.6, -13579.02, 0.26810646, 0.44517088, -1363655.1, 44599.086, 0.015997248, 9.996681, 10.001981 
1.8349916e+3, 1.663025e+2, -1729002.3, -1542593.1, -63569.367, 0.15967491, 0.31930152, -1522978.5, -212720.94, 0.0034491862, 9.997302, 9.9997835 
1.8349913e+3, 1.7629914e+2, -1549700.8, -1367135.1, -91335.84, -0.045086503, -0.02200375, -1329287.0, -116997.97, 0.00021871291, 9.997707, 10.000113 
1.8349946e+3, 1.8630037e+2, -1306534.4, -1098980.0, -12951.196, 0.004636969, 0.04286074, -1098175.0, 16102.183, 0.00000018976193, 9.998266, 10.001019 
1.8349996e+3, 1.9630462e+2, -1108278.9, -943259.4, 35553.51, 0.16381915, 0.34339216, -935925.3, 80311.555, 0.0, 9.998931, 10.001082 
1.8350007e+3, 2.0630498e+2, -990952.06, -936537.25, -80514.49, 0.13830292, 0.32153353, -878757.44, 39473.254, 0.0, 9.999476, 10.000205 
1.8349996e+3, 2.1630292e+2, -823559.4, -802750.2, -90873.99, 0.014798658, 0.07267453, -721687.1, 98558.44, 0.0, 9.999958, 10.00021 
1.8350013e+3, 2.2630179e+2, -744109.06, -854857.94, -9437.665, -0.008359149, 0.012625762, -743310.56, -21056.049, 0.0, 10.000424, 9.998962 
1.8350042e+3, 2.3630129e+2, -571527.6, -719105.0, 10622.448, 0.023284614, 0.041376088, -570767.0, 53492.473, 0.0, 10.000942, 9.998964 
1.8350075e+3, 2.4629988e+2, -457703.8, -781300.4, 28807.271, -0.007444011, 0.09073796, -455159.34, 71116.05, 0.0, 10.00176, 9.997478 
1.8350108e+3, 2.562979e+2, -191561.44, -583635.56, -16748.857, -0.07058514, 0.119587734, -190847.25, 237451.38, 0.0, 10.002845, 9.997634 
1.8350129e+3, 2.6629606e+2, -115834.695, -501325.03, -96527.6, -0.04519877, 0.18060647, -93014.836, 237301.72, 0.000000089696776, 10.0027, 9.997603 
1.8350145e+3, 2.762944e+2, -141386.19, -463523.9, -10768.146, 0.029394582, 0.22766185, -141026.64, 91304.08, 0.000014790434, 10.001854, 9.997594 
1.8350169e+3, 2.8629136e+2, -107018.59, -566822.25, 102573.766, -0.06119084, 0.2514515, -85174.07, 49188.875, 0.0001429235, 10.002151, 9.996073 
1.8350196e+3, 2.9628757e+2, 160228.23, -351119.72, 23632.67, -0.25313035, 0.23483427, 161318.13, 197722.86, 0.0005404613, 10.003167, 9.996385 
1.835025e+3, 3.0628484e+2, 305137.4, -189264.75, -86087.875, -0.023423089, 0.29666933, 319698.63, 319698.63, 0.0012388149, 10.003556, 9.996969 
1.835028e+3, 3.1628406e+2, 352417.2, -106350.59, 26239.076, 0.03102903, 0.48957893, 353913.06, 353913.06, 0.0021021985, 10.003604, 9.997524 
1.8449782e+3, 1.2629253e+2, -2039511.5, -1691315.9, -175866.61, 0.17096503, 0.14751576, -1617948.4, 84401.36, 0.12272786, 9.99695, 10.001691 
1.8449801e+3, 1.362932e+2, -1979199.3, -1686731.8, 13276.588, 0.0056655137, 0.11826499, -1686130.4, -81785.336, 0.08254445, 9.997062, 10.000924 
1.8449822e+3, 1.462953e+2, -1853527.6, -1486665.4, -54451.145, -0.05818113, 0.19706646, -1478754.1, 27572.672, 0.04459436, 9.996851, 10.001742 
1.8449888e+3, 1.5629968e+2, -1719535.5, -1368400.0, -61367.05, 0.35126516, 0.43491942, -1357984.0, 50301.934, 0.017215712, 9.997093, 10.001758 
1.84499e+3, 1.6629939e+2, -1676579.1, -1486686.4, -42907.676, 0.26334158, 0.32829446, -1477441.3, -167153.4, 0.0037916328, 9.997538, 10.000052 
1.8449888e+3, 1.7629623e+2, -1480092.5, -1305921.6, 30340.62, -0.06981702, -0.017673055, -1300787.6, -88471.83, 0.00025177147, 9.998076, 10.000351 
1.8449925e+3, 1.8629724e+2, -1304366.0, -1091253.1, 82172.72, -0.02252952, 0.011312313, -1063248.8, 51055.895, 0.00000025167606, 9.998253, 10.001073 
1.8449987e+3, 1.963009e+2, -1205107.0, -996867.5, 9170.865, 0.21958193, 0.2455475, -996464.4, 19804.582, 0.0, 9.998288, 10.001026 
1.8450005e+3, 2.0630112e+2, -1105971.5, -1063745.8, -124378.836, 0.18296945, 0.25168127, -958700.6, -40434.27, 0.0, 9.998997, 9.99956 
1.8449992e+3, 2.1629933e+2, -829117.06, -865831.3, -138137.0, -0.021277618, 0.095619895, -708122.8, 112160.4, 0.0, 10.000175, 9.999676 
1.8450014e+3, 2.2629839e+2, -683210.44, -778706.25, -56706.563, -0.029030193, 0.054803282, -656826.75, 65463.2, 0.0, 10.000652, 9.999371 
1.8450056e+3, 2.36298e+2, -581041.25, -691533.06, -36903.86, 0.06945396, 0.05518391, -569849.2, 54441.023, 0.0, 10.000742, 9.999247 
1.8450093e+3, 2.4629645e+2, -581280.0, -882599.2, 29226.967, 0.027640304, 0.099638656, -578471.25, -52162.902, 0.0, 10.001097, 9.997101 
1.8450128e+3, 2.5629428e+2, -388953.4, -709632.6, 5898.0127, -0.10629045, 0.14984602, -388844.97, 39491.723, 0.0, 10.001626, 9.997355 
1.8450154e+3, 2.6629248e+2, -96762.125, -461477.56, -136023.9, -0.07168305, 0.2110918, -51618.543, 278734.9, 0.00000009817215, 10.0027075, 9.997867 
1.8450177e+3, 2.7629098e+2, 194844.38, -288570.0, -171305.86, 0.05688494, 0.2490672, 249393.94, 481756.84, 0.000013823804, 10.004118, 9.997699 
1.8450198e+3, 2.8628728e+2, 158616.48, -520247.13, -44664.957, -0.08138183, 0.24668214, 161542.55, 295943.47, 0.0001337999, 10.004333, 9.995338 
1.8450215e+3, 2.9628238e+2, 208361.73, -399594.75, -67015.12, -0.39090365, 0.19244027, 215661.19, 252116.13, 0.00050595094, 10.003803, 9.995748 
1.8450281e+3, 3.0627915e+2, 320762.53, -194220.3, -123776.37, -0.06458101, 0.23061123, 348967.47, 348967.47, 0.0011746477, 10.0037, 9.99688 
1.8450326e+3, 3.1627786e+2, 443309.5, -33157.21, -75692.75, 0.119364105, 0.38559765, 455045.2, 455045.2, 0.0020337426, 10.004066, 9.997816 
1.8549724e+3, 1.2628889e+2, -1973889.6, -1584095.9, -85427.38, -0.11741467, 0.14430375, -1566195.5, 136187.72, 0.13014582, 9.997015, 10.0024605 
1.854979e+3, 1.3628753e+2, -1971695.9, -1675519.3, 7946.142, 0.1797944, -0.1220178, -1675306.3, -70913.98, 0.08765755, 9.997078, 10.000991 
1.8549792e+3, 1.4629011e+2, -1887811.1, -1567536.5, -54768.887, -0.052721072, 0.044490978, -1558429.6, -52060.6, 0.04753598, 9.996893, 10.001161 
1.8549818e+3, 1.5629254e+2, -1728181.1, -1393381.1, -47121.32, -0.05703324, 0.13277638, -1386875.4, 21476.094, 0.01851746, 9.997124, 10.001569 
1.8549846e+3, 1.6629499e+2, -1545924.4, -1226871.6, -25017.871, -0.049232665, 0.20691082, -1224921.9, 85405.25, 0.0041650403, 9.997581, 10.001817 
1.8549876e+3, 1.7629763e+2, -1383991.5, -1113933.3, 52584.332, -0.0069366316, 0.2679756, -1104055.6, 108240.93, 0.00029041685, 9.998102, 10.001658 
1.8549912e+3, 1.862973e+2, -1407640.1, -1313961.1, 79776.89, 0.017858634, 0.19271952, -1268289.6, -153990.88, 0.0000003514084, 9.998285, 9.999532 
1.8549952e+3, 1.9629516e+2, -1301660.9, -1200200.9, 19172.67, 0.01976464, 0.0007071987, -1196698.8, -180377.72, 0.0, 9.998299, 9.999626 
1.854998e+3, 2.0629491e+2, -1147437.1, -1149680.5, -83947.93, 0.025476683, 0.05378416, -1064603.5, -146275.88, 0.0, 9.998991, 9.998976 
1.8550001e+3, 2.1629597e+2, -864754.25, -929252.75, -94748.695, 0.038430203, 0.23695359, -796916.94, 23406.113, 0.0, 10.000129, 9.999263 
1.8550031e+3, 2.262962e+2, -656573.5, -711396.2, -56015.3, 0.058887046, 0.3033288, -621622.2, 100696.49, 0.0, 10.000594, 9.999866 
1.8550067e+3, 2.3629585e+2, -557585.2, -634852.06, -25499.434, 0.08266445, 0.26149252, -549928.6, 74386.734, 0.0, 10.000702, 9.99966 
1.8550107e+3, 2.4629414e+2, -588501.1, -883150.2, 46225.35, 0.0475887, 0.27067184, -581419.4, -55086.137, 0.0, 10.001031, 9.997129 
1.8550152e+3, 2.5629172e+2, -404148.5, -727375.25, 36354.53, -0.022242768, 0.2885604, -400110.03, 28252.91, 0.0, 10.001566, 9.997262 
1.8550187e+3, 2.6628828e+2, -192098.97, -644677.06, -85701.5, -0.023885, 0.2536168, -176413.89, 153982.28, 0.00000008466028, 10.00264, 9.996644 
1.8550214e+3, 2.762841e+2, 109963.625, -446278.03, -117581.5, 0.01610817, 0.14635852, 133797.44, 366229.94, 0.000011312348, 10.004039, 9.9966545 
1.8550237e+3, 2.8627992e+2, 160527.86, -495359.06, -69523.734, -0.1391761, 0.12917794, 167816.36, 302290.84, 0.000118351665, 10.004236, 9.99556 
1.8550253e+3, 2.962759e+2, 210403.34, -375735.56, -76682.76, -0.41012147, 0.14196807, 220269.44, 256787.42, 0.00046188704, 10.003715, 9.995958 
1.8550318e+3, 3.0627245e+2, 298191.13, -211107.13, -117652.195, -0.06784734, 0.1564786, 324056.2, 324056.2, 0.0010913354, 10.003583, 9.996812 
1.8550386e+3, 3.1626886e+2, 452494.5, 51423.117, -91015.49, 0.29551163, 0.07938874, 472182.3, 472182.3, 0.0019133163, 10.003811, 9.998509 
1.8649696e+3, 1.2628566e+2, -1878223.5, -1496835.8, -30191.168, -0.11886264, 0.2121212, -1494460.6, 207956.66, 0.1378835, 9.997443, 10.002941 
1.8649758e+3, 1.3628332e+2, -2093713.3, -1757984.8, -81035.42, 0.19589284, -0.13313538, -1739448.5, -135013.92, 0.09301642, 9.996342, 10.000785 
1.8649754e+3, 1.4628659e+2, -2004052.9, -1579034.1, -70504.65, -0.074033014, 0.0923052, -1567643.6, -61240.996, 0.050644647, 9.995919, 10.001543 
1.8649778e+3, 1.5628792e+2, -1816416.8, -1395832.5, 5003.5474, -0.13986441, 0.028395368, -1395773.0, 12620.046, 0.01991141, 9.996357, 10.001915 
1.8649818e+3, 1.6629052e+2, -1607777.6, -1270143.6, -13505.587, -0.0692038, 0.11020515, -1269604.3, 40763.387, 0.0045744055, 9.997217, 10.001689 
1.8649867e+3, 1.7629427e+2, -1357479.0, -1114280.1, -89487.73, 0.07874275, 0.293409, -1084901.1, 127427.75, 0.0003360051, 9.998344, 10.0015335 
1.8649903e+3, 1.8629402e+2, -1353354.0, -1295450.5, -67834.06, 0.081005715, 0.23577157, -1250648.1, -136317.53, 0.00000050835786, 9.998701, 9.9994545 
1.8649933e+3, 1.9629131e+2, -1255514.4, -1186904.4, -18743.88, -0.016211385, -0.0050269007, -1182117.6, -165760.03, 0.0, 9.99866, 9.999543 
1.864997e+3, 2.0629106e+2, -1091813.5, -1129487.6, -10265.082, 0.017087327, 0.056001462, -1089198.1, -170833.88, 0.0, 9.999417, 9.998903 
1.8650013e+3, 2.1629244e+2, -791505.94, -913177.6, 215.32632, 0.121051416, 0.27867043, -791505.56, 28851.834, 0.0, 10.000722, 9.999083 
1.8650046e+3, 2.2629203e+2, -588950.7, -770702.9, -36868.477, 0.11347167, 0.3348831, -581756.7, 140604.13, 0.0, 10.001457, 9.999041 
1.8650073e+3, 2.3629056e+2, -437973.7, -653454.9, -109782.01, 0.02904553, 0.26449284, -391895.8, 232474.38, 0.0, 10.001856, 9.998976 
1.8650118e+3, 2.462886e+2, -381633.06, -758968.9, -49774.293, -0.0083607985, 0.2661291, -375177.78, 151212.11, 0.0, 10.002347, 9.997343 
1.8650173e+3, 2.562864e+2, -201905.22, -611748.1, -55964.813, -0.022478212, 0.28526422, -194400.55, 234014.8, 0.0, 10.002872, 9.997424 
1.8650217e+3, 2.66283e+2, -149320.42, -612887.0, -101389.95, 0.0008555198, 0.24843988, -128114.75, 202332.19, 0.000000065173005, 10.00289, 9.996742 
1.8650252e+3, 2.7627897e+2, -88939.03, -535239.56, -52291.043, 0.046940714, 0.14479429, -82894.195, 149588.03, 0.000009222078, 10.002634, 9.996724 
1.8650281e+3, 2.8627467e+2, -25363.324, -603032.25, 12660.83, -0.060744714, 0.117490366, -25085.969, 109439.47, 0.00010642617, 10.003036, 9.995397 
1.8650304e+3, 2.9627043e+2, 224031.0, -376262.22, -43091.402, -0.26650426, 0.119908735, 227108.48, 263679.56, 0.00042784313, 10.003852, 9.995876 
1.8650356e+3, 3.062676e+2, 326144.16, -169023.92, -76678.07, -0.05331961, 0.18389678, 337746.13, 337746.13, 0.001020444, 10.00365, 9.997065 
1.8650408e+3, 3.1626394e+2, 342298.34, 2371.7568, -71293.984, 0.16997148, 0.0834167, 356645.53, 356645.53, 0.0017892806, 10.003022, 9.998548 
1.8749695e+3, 1.2628298e+2, -1859407.1, -1479883.9, -9811.09, 0.098073825, 0.3587157, -1479630.5, 222819.97, 0.14588223, 9.99751, 10.003062 
1.8749706e+3, 1.3628075e+2, -2127613.0, -1831628.4, -122395.22, 0.019743387, 0.09151417, -1787573.0, -183102.17, 0.0986057, 9.996355, 10.000274 
1.8749705e+3, 1.462848e+2, -1907779.9, -1391711.0, -57857.105, -0.17008886, 0.34593156, -1385304.1, 121122.555, 0.053927336, 9.995941, 10.002865 
1.8749763e+3, 1.5628582e+2, -1751386.4, -1267762.6, 31066.83, 0.06902813, 0.1195017, -1265775.1, 142635.36, 0.021407956, 9.996372, 10.002806 
1.8749814e+3, 1.6628599e+2, -1748366.8, -1568063.6, 26866.701, 0.16367228, 0.03685657, -1564145.5, -253736.11, 0.0050250688, 9.997243, 9.999633 
1.8749858e+3, 1.762861e+2, -1465371.1, -1343226.8, -49212.555, 0.15494245, 0.05909819, -1325866.3, -113453.35, 0.00038988978, 9.998363, 9.999955 
1.8749896e+3, 1.8628737e+2, -1250578.9, -1088760.4, -74258.43, 0.12231613, 0.14130785, -1059848.8, 54551.918, 0.000000733184, 9.998728, 10.000863 
1.8749928e+3, 1.962893e+2, -1168067.0, -1003573.56, -11055.193, 0.07913996, 0.22848505, -1002833.9, 13545.312, 0.0, 9.998653, 10.000807 
1.8749976e+3, 2.062895e+2, -1063896.4, -1072964.5, 35200.438, 0.111042224, 0.25561282, -1032939.1, -114562.03, 0.0, 9.999414, 9.999297 
1.875003e+3, 2.1628867e+2, -792251.0, -911597.5, 49081.438, 0.19012097, 0.22378305, -774659.25, 45727.406, 0.0, 10.000699, 9.999109 
1.875006e+3, 2.2628585e+2, -749230.44, -1089057.9, -24015.08, 0.08843774, 0.15977916, -747541.75, -25125.72, 0.0, 10.001392, 9.996888 
1.8750077e+3, 2.3628193e+2, -575553.0, -921944.4, -87455.47, -0.12482472, 0.05497868, -554724.94, 69731.4, 0.0, 10.001784, 9.997165 
1.8750125e+3, 2.462796e+2, -368568.25, -710860.06, -30537.365, -0.18468463, 0.07784519, -365865.22, 160615.14, 0.0, 10.002256, 9.99772 
1.875019e+3, 2.5627825e+2, -176019.84, -544528.44, -33019.46, -0.14544225, 0.14615537, -173084.58, 255409.81, 0.0, 10.002815, 9.997915 
1.8750243e+3, 2.6627687e+2, -64147.816, -423068.5, -116272.07, -0.03908714, 0.21011536, -29773.625, 300731.6, 0.000000045934687, 10.002826, 9.998081 
1.8750285e+3, 2.7627555e+2, -22866.912, -380543.22, -49865.54, 0.10141228, 0.2487395, -16045.009, 216468.36, 0.0000079682295, 10.002558, 9.997825 
1.8750328e+3, 2.8627142e+2, -76183.97, -690438.0, 38192.574, 0.087725274, 0.22627327, -73818.375, 60736.438, 0.00009959236, 10.002956, 9.994837 
1.875037e+3, 2.962656e+2, 175320.69, -448739.75, -8101.504, -0.00083599926, 0.124560274, 175425.84, 212042.66, 0.00040696104, 10.003733, 9.995438 
1.875039e+3, 3.0626413e+2, 352283.94, -88963.516, -111355.49, -0.08478586, 0.30972707, 378793.53, 378793.53, 0.0009705564, 10.003539, 9.997667 
1.8750405e+3, 3.1626132e+2, 263785.25, -97024.29, -48932.813, -0.176187, 0.24164629, 270303.75, 270303.75, 0.0016898827, 10.00277, 9.997979 
1.884967e+3, 1.2627888e+2, -2101218.5, -1555588.3, 17142.186, 0.18559511, 0.37441224, -1555050.3, 147441.97, 0.15411249, 9.995709, 10.003339 
1.8849668e+3, 1.3627717e+2, -2093565.5, -1833625.9, -93054.625, -0.005527768, 0.16972183, -1803747.9, -199237.66, 0.10442951, 9.996655, 10.000116 
1.8849677e+3, 1.4628176e+2, -1693793.9, -1328285.9, -50764.695, -0.12917776, 0.5014396, -1321366.3, 185094.9, 0.057399224, 9.997567, 10.002545 
1.8849741e+3, 1.5628152e+2, -1487405.0, -1171211.8, -91225.92, 0.12589121, 0.1783342, -1146779.6, 261676.53, 0.023018045, 9.998317, 10.002547 
1.88498e+3, 1.6628101e+2, -1517815.0, -1461361.6, -34169.297, 0.21625014, 0.042598575, -1445268.1, -134807.3, 0.005521801, 9.998847, 9.999594 
1.8849848e+3, 1.7628092e+2, -1313666.5, -1273661.5, 29112.6, 0.16908842, 0.0473368, -1258342.0, -45875.992, 0.0004532519, 9.9994135, 9.999934 
1.8849888e+3, 1.8628238e+2, -1094754.0, -1000692.1, -17283.148, 0.13418096, 0.1439153, -997617.0, 116834.06, 0.0000010252129, 9.999735, 10.000984 
1.8849926e+3, 1.9628468e+2, -973429.4, -900755.5, -52413.246, 0.106220424, 0.2539769, -873315.3, 143110.03, 0.0, 9.999942, 10.00089 
1.8849973e+3, 2.0628454e+2, -967322.3, -1041177.0, -35928.01, 0.114217885, 0.24961756, -952728.3, -34302.895, 0.0, 10.000146, 9.999159 
1.8850029e+3, 2.16283e+2, -842077.0, -949714.7, -67854.09, 0.13477255, 0.16148202, -809289.6, 11150.566, 0.0, 10.00043, 9.998972 
1.8850069e+3, 2.2628026e+2, -810812.6, -1152435.1, -66878.37, 0.0559803, 0.12904556, -798186.75, -75716.78, 0.0, 10.001121, 9.99658 
1.8850099e+3, 2.3627676e+2, -554460.25, -939736.5, -6645.4116, -0.08764231, 0.097895406, -554345.6, 70163.445, 0.0, 10.002045, 9.99692 
1.8850149e+3, 2.4627423e+2, -431688.72, -701726.56, 77240.36, -0.13627344, 0.09091895, -411156.44, 115377.23, 0.0, 10.00166, 9.998069 
1.8850209e+3, 2.5627238e+2, -489847.03, -669374.9, 70377.63, -0.12893169, 0.0777365, -465547.06, -36998.742, 0.0, 10.000551, 9.998149 
1.8850264e+3, 2.6627094e+2, -228878.44, -547173.5, -33979.477, -0.06234709, 0.14965148, -225291.39, 105268.945, 0.00000001758332, 10.001896, 9.997671 
1.8850313e+3, 2.7626985e+2, 278032.78, -264488.2, -115492.27, 0.0186582, 0.25247458, 301595.47, 534165.1, 0.000006844715, 10.004764, 9.997554 
1.8850362e+3, 2.8626612e+2, 251850.22, -465614.63, -64421.047, 0.054653216, 0.2436776, 257588.67, 392196.16, 0.000091580085, 10.004943, 9.995414 
1.8850417e+3, 2.9626057e+2, 187763.67, -396099.1, -43624.96, 0.10975419, 0.117162175, 191005.23, 227669.08, 0.00038313892, 10.003611, 9.995857 
1.8850432e+3, 3.0625877e+2, 340999.84, -117028.586, -135481.56, -0.021828065, 0.2625079, 378073.53, 378073.53, 0.000920252, 10.003532, 9.997495 
1.8850431e+3, 3.1625637e+2, 416914.25, -72715.336, -123173.16, -0.2507765, 0.2526559, 446154.03, 446154.03, 0.0016026516, 10.004008, 9.997562 
1.8949614e+3, 1.262732e+2, -2068818.4, -1503010.3, 25009.697, 0.038028736, 0.23101811, -1501906.9, 200637.25, 0.16258536, 9.995727, 10.00377 
1.8949644e+3, 1.3627261e+2, -2084216.8, -1809519.4, -52760.47, 0.07653066, 0.09264873, -1799734.4, -195181.63, 0.110513955, 9.996641, 10.000286 
1.8949667e+3, 1.4627752e+2, -1827793.9, -1599514.8, -24680.822, 0.0077999965, 0.5579475, -1596876.8, -90371.03, 0.06108175, 9.99758, 10.000605 
1.8949713e+3, 1.5627505e+2, -1588557.9, -1381725.5, -61872.355, -0.00063976157, 0.20916164, -1364629.9, 43899.766, 0.024752133, 9.998335, 10.001063 
1.8949772e+3, 1.662756e+2, -1372261.0, -1171608.0, -16995.334, 0.040237103, 0.132517, -1170178.8, 140343.16, 0.0060684755, 9.998892, 10.001568 
1.8949835e+3, 1.7627864e+2, -1200983.8, -1044931.56, 51172.727, 0.09077341, 0.25756308, -1029647.9, 182840.56, 0.0005270964, 9.999431, 10.001499 
1.8949881e+3, 1.8627895e+2, -1173880.3, -1165418.4, -11203.847, 0.07572162, 0.23462225, -1157673.3, -43190.523, 0.0000013718216, 9.999738, 9.99985 
1.8949918e+3, 1.9627742e+2, -1049675.9, -1058033.6, -41375.57, 0.028188407, 0.07467068, -1012268.7, 4227.35, 0.0, 9.999939, 9.99981 
1.8949962e+3, 2.0627616e+2, -1014986.06, -1140218.5, -29833.467, -0.021812158, 0.044885326, -1008242.2, -89733.54, 0.0, 10.000143, 9.998483 
1.8950012e+3, 2.1627529e+2, -876085.8, -1009934.06, -51025.203, -0.07621466, 0.08693928, -858852.9, -38333.875, 0.0, 10.0003805, 9.998586 
1.8950073e+3, 2.2627498e+2, -715927.2, -936966.3, -34329.773, -0.021504976, 0.228089, -710718.2, 11807.032, 0.0, 10.001039, 9.998101 
1.8950139e+3, 2.36275e+2, -470186.72, -748287.06, 24076.254, 0.09790466, 0.40027472, -468117.72, 156411.3, 0.0, 10.001976, 9.998265 
1.8950188e+3, 2.4627256e+2, -420124.16, -664677.25, 28843.248, 0.08423242, 0.327318, -416768.34, 109780.58, 0.0, 10.001595, 9.998359 
1.8950227e+3, 2.5626868e+2, -499929.25, -676194.44, 52511.145, -0.0074523124, 0.08165217, -485471.5, -56893.29, 0.0, 10.000488, 9.998135 
1.8950279e+3, 2.662651e+2, -390713.78, -867116.25, 74052.77, -0.10996746, 0.06317586, -379468.34, -48854.527, 0.0000000071100716, 10.001822, 9.995512 
1.8950334e+3, 2.762618e+2, 146878.77, -513179.38, -18874.994, -0.24298075, 0.15613714, 147418.08, 380070.53, 0.0000061813384, 10.004668, 9.99589 
1.8950386e+3, 2.8625864e+2, 357436.5, -232212.0, -121879.02, -0.21150081, 0.18539844, 381635.5, 516319.16, 0.000081853126, 10.004866, 9.997061 
1.8950444e+3, 2.9625526e+2, 254355.22, -234410.75, -69107.625, 0.007342547, 0.11090133, 263938.6, 300651.84, 0.00035047828, 10.003497, 9.99703 
1.8950474e+3, 3.0625156e+2, 251284.56, -262015.5, -119119.34, 0.038204007, 0.076066285, 277580.9, 277580.9, 0.0008581434, 10.003377, 9.996561 
1.8950485e+3, 3.1624904e+2, 296730.9, -229604.56, -27426.281, -0.13272637, 0.13953279, 298156.2, 298156.2, 0.0015152867, 10.003666, 9.996629 
1.9049571e+3, 1.2626779e+2, -2143947.5, -1580511.4, 17926.857, 0.057484593, 0.1592967, -1579941.5, 122652.12, 0.1713416, 9.995455, 10.003275 
1.9049606e+3, 1.3626745e+2, -1992066.4, -1728004.1, -47180.43, 0.017066266, 0.007522352, -1719827.5, -115226.49, 0.11689223, 9.997124, 10.000609 
1.9049644e+3, 1.4627309e+2, -1832233.9, -1685911.5, 16292.73, 0.016293509, 0.5679127, -1684119.3, -177570.2, 0.06499328, 9.997908, 9.999854 
1.9049694e+3, 1.5626979e+2, -1691495.5, -1506128.1, 52995.695, -0.009401627, 0.2142743, -1492046.6, -83462.87, 0.026617203, 9.997939, 10.000398 
1.9049753e+3, 1.6627036e+2, -1537880.3, -1218976.3, 54356.38, 0.0322426, 0.15049756, -1209965.9, 100610.36, 0.0066676727, 9.997616, 10.001855 
1.904982e+3, 1.7627417e+2, -1492205.3, -1161586.5, -3463.8674, 0.10036369, 0.32606956, -1161550.3, 50983.62, 0.0006122247, 9.997337, 10.001699 
1.9049871e+3, 1.8627417e+2, -1435884.5, -1344839.5, -53540.793, 0.079988085, 0.28892857, -1320084.6, -205553.11, 0.0000017786746, 9.998173, 9.99937 
1.9049913e+3, 1.962716e+2, -1107232.4, -1134047.0, -43894.316, -0.0004386917, 0.07411196, -1074743.5, -58187.36, 0.0, 9.999754, 9.999379 
1.9049966e+3, 2.062702e+2, -957449.56, -1103730.0, 3909.4282, -0.016868072, 0.046611547, -957345.2, -38775.203, 0.0, 10.000509, 9.998552 
1.9050026e+3, 2.1626969e+2, -814591.25, -972608.1, 29467.123, 0.0007428424, 0.119194545, -809275.06, 11300.89, 0.0, 10.000771, 9.9986515 
1.9050089e+3, 2.2626948e+2, -743298.8, -923085.4, 18361.982, 0.052427787, 0.25599, -741442.6, -18862.523, 0.0, 10.000737, 9.998337 
1.9050153e+3, 2.3626955e+2, -665799.6, -823125.44, -27667.686, 0.11601203, 0.40770093, -661075.8, -36493.055, 0.0, 10.000548, 9.998438 
1.9050206e+3, 2.4626729e+2, -462631.1, -694677.44, -75542.14, 0.11983135, 0.3507953, -440205.75, 86394.805, 0.0, 10.001354, 9.9982605 
1.9050252e+3, 2.5626355e+2, -166384.4, -522106.97, -86750.98, 0.08262683, 0.1285198, -146355.9, 282272.34, 0.0, 10.002811, 9.998067 
1.905031e+3, 2.6625946e+2, -213144.83, -785583.56, 67245.11, -0.041066594, 0.06257299, -205351.56, 125317.23, 0.000000016068412, 10.003063, 9.995472 
1.905037e+3, 2.762554e+2, -147510.08, -659033.7, 108445.8, -0.24618499, 0.08299215, -125468.73, 107246.35, 0.0000058983687, 10.002646, 9.995868 
1.9050421e+3, 2.862528e+2, 61993.203, -330858.2, -37872.42, -0.23942575, 0.15058029, 65610.94, 200352.28, 0.00007290675, 10.002651, 9.997446 
1.9050473e+3, 2.9625094e+2, 211989.77, -215439.45, -87290.98, -0.024369461, 0.19134855, 229129.33, 265886.25, 0.00031461002, 10.003048, 9.997369 
1.9050519e+3, 3.0624664e+2, 316310.28, -250384.53, -75637.47, 0.121928304, 0.09023237, 326232.0, 326232.0, 0.0007878403, 10.003904, 9.996397 
1.905054e+3, 3.162425e+2, 490151.3, -96662.0, 44382.49, 0.009525958, -0.0000015851676, 493489.1, 493489.1, 0.0014251821, 10.0047865, 9.997023 
1.9149534e+3, 1.262624e+2, -2250984.0, -1770701.6, 9906.255, 0.12565917, 0.12313422, -1770497.5, -67853.77, 0.18042894, 9.995436, 10.001799 
1.9149554e+3, 1.3626169e+2, -1963446.4, -1666949.6, 18246.75, -0.22083434, -0.08678462, -1665830.9, -61175.79, 0.12358676, 9.997127, 10.001021 
1.9149609e+3, 1.4626847e+2, -1789260.3, -1611821.1, 15820.761, -0.14864013, 0.5361423, -1610421.6, -103830.71, 0.069141634, 9.997967, 10.000333 
1.914968e+3, 1.5626574e+2, -1678927.5, -1478328.5, 53993.113, 0.05965505, 0.19319677, -1464719.1, -56100.484, 0.028615344, 9.997934, 10.000589 
1.9149743e+3, 1.6626532e+2, -1630037.0, -1419454.6, 38502.316, 0.14103055, 0.103155755, -1412635.8, -102012.55, 0.0073205116, 9.997653, 10.000458 
1.9149801e+3, 1.762675e+2, -1572798.8, -1336639.1, -2140.003, 0.1630778, 0.2528927, -1336619.8, -124017.516, 0.00070924795, 9.997366, 10.000484 
1.9149856e+3, 1.8626803e+2, -1421323.1, -1319925.1, 3845.6396, 0.10274625, 0.31367594, -1319779.5, -205182.31, 0.0000023137907, 9.998194, 9.999533 
1.914991e+3, 1.9626722e+2, -1091963.1, -1100303.8, 14329.739, -0.013984186, 0.25951126, -1081209.3, -64603.996, 0.0, 9.999743, 9.999618 
1.9149983e+3, 2.0626655e+2, -908045.25, -998006.3, 11700.145, 0.08669809, 0.2536122, -906548.44, 12061.484, 0.0, 10.000491, 9.999289 
1.9150068e+3, 2.1626619e+2, -782129.25, -898481.6, 41615.355, 0.32640433, 0.26746014, -768777.06, 51833.85, 0.0, 10.00074, 9.999175 
1.9150114e+3, 2.2626387e+2, -824655.9, -1077328.0, 9607.572, 0.23312654, 0.22480905, -824291.06, -101657.03, 0.0, 10.0006695, 9.997313 
1.9150141e+3, 2.3626037e+2, -742814.9, -966264.94, -20208.574, -0.06724198, 0.124488056, -741001.94, -116331.445, 0.0, 10.000478, 9.99749 
1.9150202e+3, 2.4625821e+2, -509080.1, -775206.1, -22033.979, -0.077109456, 0.14788616, -507268.13, 19422.184, 0.0, 10.001282, 9.997745 
1.9150284e+3, 2.5625694e+2, -193755.3, -556702.0, -34948.05, 0.09620698, 0.21992324, -190420.78, 238278.55, 0.0, 10.002723, 9.997869 
1.9150355e+3, 2.662542e+2, -80215.25, -495457.28, 45503.184, 0.08942979, 0.18102539, -75287.39, 255436.66, 0.000000038925435, 10.002994, 9.997501 
1.9150418e+3, 2.762505e+2, -44459.574, -424867.9, 102364.29, -0.050504655, 0.04355225, -18663.568, 214095.05, 0.000005404383, 10.0025625, 9.997516 
1.9150463e+3, 2.862485e+2, -12586.031, -471639.38, -29662.559, -0.10648632, 0.14866725, -10677.269, 124104.32, 0.00006308195, 10.002585, 9.996514 
1.9150504e+3, 2.962474e+2, 140902.19, -337337.03, -58165.234, -0.03918388, 0.35629538, 147874.81, 184672.78, 0.00027429318, 10.002939, 9.996586 
1.9150564e+3, 3.0624396e+2, 347780.6, -160424.25, -45212.46, 0.15932935, 0.33962783, 351771.6, 351771.6, 0.0007044308, 10.003797, 9.997062 
1.9150573e+3, 3.162394e+2, 575137.7, 155752.31, 72954.56, -0.16184269, 0.12130774, 587466.1, 587466.1, 0.0013126336, 10.004492, 9.998882 
1.9249499e+3, 1.2625766e+2, -1959279.8, -1720185.0, -48567.69, 0.10464733, 0.22470884, -1710696.0, -8001.344, 0.18987963, 9.997804, 10.00102 
1.9249533e+3, 1.3625643e+2, -1872019.5, -1607609.5, -22071.094, -0.16676873, -0.041220285, -1605779.8, -1069.4496, 0.13060497, 9.997675, 10.001176 
1.9249596e+3, 1.4626303e+2, -1717791.9, -1524723.6, -41571.95, -0.09470595, 0.52748233, -1516152.8, -9506.704, 0.07352615, 9.998244, 10.000792 
1.924967e+3, 1.5626073e+2, -1471169.0, -1352403.5, -19739.936, 0.10037128, 0.18964057, -1349208.5, 59458.582, 0.030745408, 9.999244, 10.000832 
1.9249734e+3, 1.6626003e+2, -1341915.3, -1372420.0, -11596.72, 0.16877583, 0.10805051, -1338007.3, -27331.69, 0.008026891, 10.000039, 9.999626 
1.9249792e+3, 1.7626156e+2, -1123098.5, -1196446.4, -17888.273, 0.16584988, 0.27633452, -1118968.4, 93695.94, 0.0008187495, 10.000795, 9.999792 
1.9249852e+3, 1.8626215e+2, -1072479.5, -1114895.4, 20566.252, 0.13262814, 0.3525024, -1064145.1, 50513.664, 0.0000031359323, 10.000428, 9.999866 
1.9249913e+3, 1.9626172e+2, -1117225.9, -1079434.4, 39735.145, 0.06658789, 0.30528897, -1054330.9, -37670.13, 0.0, 9.999423, 9.999917 
1.9249986e+3, 2.0626116e+2, -1049080.1, -1055349.0, 27434.406, 0.13160193, 0.28800672, -1024601.7, -105938.06, 0.0, 9.999483, 9.999377 
1.9250067e+3, 2.162607e+2, -843018.56, -919531.0, -620.32605, 0.2738709, 0.28709477, -843013.56, -22348.844, 0.0, 10.000296, 9.999241 
1.9250122e+3, 2.2625814e+2, -708340.9, -1021580.4, 2736.6836, 0.20319203, 0.2178687, -708316.94, 14372.057, 0.0, 10.001469, 9.997315 
1.9250163e+3, 2.3625419e+2, -401960.22, -806886.44, 37050.336, -0.007008493, 0.07031699, -398598.06, 226130.63, 0.0, 10.002828, 9.99746 
1.9250225e+3, 2.4625178e+2, -349035.0, -721990.3, 69476.14, -0.02402968, 0.082304, -336513.03, 190238.72, 0.0, 10.002484, 9.997531 
1.92503e+3, 2.5625053e+2, -427270.4, -686639.06, 70661.61, 0.07274331, 0.1838937, -409268.97, 19493.498, 0.0, 10.001179, 9.997729 
1.9250377e+3, 2.662486e+2, -270663.78, -506914.5, 118988.266, 0.10010993, 0.19682783, -221123.38, 109655.58, 0.000000047147957, 10.00135, 9.998211 
1.9250453e+3, 2.7624622e+2, -13708.19, -338283.1, 63353.445, 0.05360248, 0.11276801, -1780.6136, 231019.3, 0.000004361137, 10.002467, 9.998155 
1.9250499e+3, 2.862438e+2, 16520.52, -463895.06, -60717.02, -0.01876897, 0.15356922, 24075.396, 158901.63, 0.000051495666, 10.002829, 9.996446 
1.9250531e+3, 2.962417e+2, 121115.016, -365641.97, -35722.027, -0.047526587, 0.2716705, 123722.61, 160575.14, 0.00023030056, 10.002881, 9.996419 
1.9250602e+3, 3.0623895e+2, 357205.88, -198806.33, 11941.512, 0.15596458, 0.35411263, 357462.22, 357462.22, 0.00061103055, 10.004034, 9.996688 
1.9250622e+3, 3.1623557e+2, 705418.94, 168068.95, -59624.016, -0.15354528, 0.29400647, 711955.25, 711955.25, 0.0011729326, 10.005547, 9.9984865 
1.9349457e+3, 1.2625358e+2, -1951086.1, -1724019.4, -103994.78, -0.12523331, 0.46554396, -1683589.3, 19157.76, 0.1997211, 9.997874, 10.000991 
1.9349541e+3, 1.3625172e+2, -1877840.4, -1614909.6, -16178.062, 0.13243541, 0.15069087, -1613917.9, -9152.029, 0.13795441, 9.997655, 10.001136 
1.93496e+3, 1.4625682e+2, -1689489.4, -1472904.1, -4016.0115, 0.12114658, 0.5494812, -1472829.6, 33883.848, 0.07814733, 9.998255, 10.001166 
1.9349661e+3, 1.5625481e+2, -1450437.0, -1318188.8, 21877.781, 0.076425456, 0.20771828, -1314663.5, 94065.67, 0.033007, 9.999271, 10.001065 
1.9349726e+3, 1.6625457e+2, -1354327.1, -1407825.4, 12014.821, 0.06493808, 0.17653906, -1351752.6, -41019.75, 0.008786739, 10.000079, 9.999364 
1.9349791e+3, 1.7625636e+2, -1132267.1, -1221151.8, 6394.236, 0.074935, 0.3976737, -1131809.5, 80910.61, 0.00094156526, 10.000818, 9.999613 
1.9349857e+3, 1.8625641e+2, -1035100.75, -1040975.56, -20377.762, 0.12659325, 0.40040442, -1017449.8, 97267.45, 0.0000044945964, 10.0004425, 10.000366 
1.9349924e+3, 1.962551e+2, -1090938.8, -1023161.06, 13976.7295, 0.20302017, 0.21252106, -1020392.0, -3668.968, 0.0, 9.999418, 10.000303 
1.9349977e+3, 2.0625395e+2, -1092943.1, -1145785.1, 54779.547, 0.06927506, 0.15548174, -1058545.8, -139814.69, 0.0, 9.999476, 9.998762 
1.9350024e+3, 2.1625313e+2, -880746.5, -986115.6, 37954.008, -0.19291227, 0.17873335, -868499.06, -47760.746, 0.0, 10.000242, 9.998811 
1.9350109e+3, 2.2625208e+2, -654170.6, -887522.7, 51842.645, -0.08398418, 0.22498052, -643171.5, 79575.99, 0.0, 10.001376, 9.998279 
1.9350219e+3, 2.3625083e+2, -353949.7, -685463.9, 80570.12, 0.25368598, 0.25249958, -335405.5, 289352.72, 0.0, 10.002743, 9.998329 
1.9350275e+3, 2.4624802e+2, -353116.44, -717569.06, 13260.752, 0.22420476, 0.18063897, -352634.56, 174149.55, 0.0, 10.002421, 9.997596 
1.9350302e+3, 2.5624433e+2, -437228.88, -692440.56, 36841.883, -0.029589284, 0.028150732, -432016.88, -3198.435, 0.0, 10.001117, 9.99772 
1.9350375e+3, 2.6624274e+2, -327628.47, -606956.5, 156453.2, -0.062908016, 0.110435076, -257569.72, 73264.83, 0.00000001782158, 10.001273, 9.9975605 
1.9350475e+3, 2.762424e+2, -63331.24, -412216.0, 106059.52, 0.0213605, 0.29545188, -33619.836, 199220.16, 0.0000032380601, 10.002357, 9.997693 
1.9350526e+3, 2.862389e+2, 59618.168, -365538.8, -70619.63, -0.035762794, 0.21006241, 71041.34, 205914.66, 0.000041892385, 10.002773, 9.997155 
1.9350554e+3, 2.962338e+2, 144067.64, -301738.6, -17179.092, -0.12615244, -0.04439395, 144728.64, 181649.89, 0.00019371674, 10.0028105, 9.996894 
1.9350633e+3, 3.062317e+2, 233080.33, -423435.4, 73108.625, 0.036933005, 0.16618372, 241123.08, 241123.08, 0.00052836194, 10.003897, 9.99521 
1.9350673e+3, 3.162294e+2, 489296.56, -191938.95, -95443.27, -0.20989095, 0.36240873, 502415.8, 502415.8, 0.0010348877, 10.005215, 9.996147 
1.9449437e+3, 1.2624916e+2, -2089427.8, -1756886.6, 37562.4, -0.06519566, 0.52189636, -1752696.5, -49902.418, 0.20999403, 9.996794, 10.001248 
1.9449525e+3, 1.362466e+2, -1879137.8, -1655846.9, 99270.11, 0.1972164, 0.16453117, -1618096.0, -13278.93, 0.14565058, 9.997811, 10.000775 
1.9449581e+3, 1.4625087e+2, -1725293.9, -1520715.6, 81678.664, 0.10954369, 0.51248825, -1492106.0, 14666.728, 0.083007626, 9.998147, 10.000879 
1.9449648e+3, 1.5624954e+2, -1627958.6, -1421415.8, 53336.94, 0.083491474, 0.2659706, -1408455.4, 327.51303, 0.03539992, 9.998147, 10.0008745 
1.9449717e+3, 1.6624926e+2, -1588656.5, -1501085.1, 60803.574, 0.06337, 0.2282442, -1469942.5, -159156.13, 0.009600047, 9.998381, 9.999546 
1.9449785e+3, 1.7625038e+2, -1405966.6, -1342198.6, 79736.66, 0.022861945, 0.36382815, -1288207.6, -75429.305, 0.0010784023, 9.998882, 9.999718 
1.9449855e+3, 1.8625024e+2, -1175977.5, -1154883.1, 7882.615, 0.10170354, 0.3674708, -1152262.9, -37485.473, 0.0000066792873, 9.999681, 9.999945 
1.9449927e+3, 1.9624914e+2, -931574.0, -992486.9, -36261.79, 0.24633133, 0.2438437, -914675.25, 102107.75, 0.0, 10.000721, 9.999882 
1.944998e+3, 2.062476e+2, -900636.4, -1078715.0, 6082.6836, 0.09694962, 0.1792693, -900428.9, 18366.035, 0.0, 10.000907, 9.998532 
1.9450024e+3, 2.162459e+2, -843308.0, -988075.2, 11215.558, -0.23885594, 0.13808547, -842444.25, -21634.555, 0.0, 10.000578, 9.998638 
1.9450113e+3, 2.2624497e+2, -782513.0, -905673.3, 31825.584, -0.11503841, 0.1808016, -774775.1, -51958.03, 0.0, 10.000308, 9.998666 
1.9450235e+3, 2.3624448e+2, -708746.75, -818059.3, 8086.21, 0.28562322, 0.24793121, -708151.8, -83332.05, 0.0, 10.000139, 9.998675 
1.9450301e+3, 2.462421e+2, -492581.2, -769134.06, -69771.74, 0.2803402, 0.19990185, -475975.53, 50866.223, 0.0, 10.001409, 9.997726 
1.9450329e+3, 2.5623855e+2, -65003.305, -501670.56, -57994.21, 0.010319204, 0.050545588, -57432.305, 371443.4, 0.0, 10.003622, 9.997823 
1.9450398e+3, 2.6623687e+2, -39240.355, -464733.97, 72247.28, -0.059544403, 0.11720146, -27307.672, 303585.53, 0.000000002142629, 10.003241, 9.997587 
1.9450489e+3, 2.762365e+2, -215632.95, -484972.38, 65573.37, -0.019061264, 0.29884213, -200516.83, 32382.412, 0.0000029349435, 10.001292, 9.997713 
1.945055e+3, 2.8623307e+2, -22370.45, -361535.8, -38752.418, -0.044134893, 0.1948215, -17999.012, 116931.92, 0.00003707627, 10.002032, 9.997536 
1.9450594e+3, 2.96228e+2, 422334.88, -113577.75, -33650.258, -0.08376174, -0.08912014, 424439.53, 461414.9, 0.00017166346, 10.004487, 9.997381 
1.9450666e+3, 3.0622604e+2, 308343.56, -352534.44, 99817.81, -0.022772191, 0.08875891, 323090.78, 323090.78, 0.00046693836, 10.004269, 9.995515 
1.945072e+3, 3.162244e+2, 91373.266, -401647.1, -1751.6707, -0.12252896, 0.3402056, 91379.49, 91379.49, 0.000910492, 10.002504, 9.996028 
1.9549432e+3, 1.2624483e+2, -2045729.1, -1685025.9, 101008.45, 0.18632261, 0.42377865, -1658666.6, 44165.04, 0.22070916, 9.996823, 10.001809 
1.9549483e+3, 1.3624111e+2, -1922973.1, -1755022.3, 135502.92, -0.010365444, -0.0007637825, -1679583.4, -74719.92, 0.15369554, 9.997841, 10.000083 
1.9549535e+3, 1.4624515e+2, -1782489.4, -1652640.1, 77087.33, -0.19050011, 0.4167466, -1616779.5, -109955.83, 0.08810495, 9.998201, 9.999941 
1.9549632e+3, 1.5624484e+2, -1671698.6, -1515405.9, 58460.992, 0.07831033, 0.3575477, -1495958.5, -87129.18, 0.037922986, 9.9981575, 10.000226 
1.9549707e+3, 1.6624407e+2, -1542018.5, -1408215.5, 75335.7, 0.11229952, 0.2622775, -1374363.5, -63526.945, 0.010466628, 9.998396, 10.000176 
1.954977e+3, 1.7624359e+2, -1376379.4, -1286908.4, 103848.67, -0.023109183, 0.1747665, -1218569.6, -5730.509, 0.0012294218, 9.998904, 10.000088 
1.9549844e+3, 1.8624361e+2, -1271919.8, -1356792.3, 45863.863, 0.010696486, 0.25532842, -1251871.4, -137031.34, 0.000009908067, 9.999698, 9.998549 
1.9549927e+3, 1.962438e+2, -1016038.7, -1170789.1, 2482.9795, 0.16144523, 0.3997268, -1015998.9, 842.68225, 0.0, 10.000731, 9.998653 
1.9549999e+3, 2.0624194e+2, -900302.0, -1066907.4, -10833.195, 0.17275879, 0.35322592, -899600.56, 19256.355, 0.0, 10.000862, 9.998633 
1.9550064e+3, 2.1623896e+2, -845780.9, -976792.5, 3696.6372, 0.09966011, 0.17115027, -845676.7, -24797.08, 0.0, 10.000513, 9.998745 
1.9550136e+3, 2.2623673e+2, -806774.2, -938679.7, 23954.775, 0.06114846, 0.08995401, -802558.6, -79660.125, 0.0, 10.00023, 9.998478 
1.9550213e+3, 2.3623508e+2, -732985.7, -847150.1, 18794.648, 0.04933304, 0.05771698, -729971.1, -105057.32, 0.0, 10.000055, 9.998512 
1.9550297e+3, 2.4623397e+2, -499274.84, -760003.4, 11514.194, 0.08739099, 0.13709526, -498767.34, 28158.084, 0.0, 10.00131, 9.997836 
1.9550382e+3, 2.562332e+2, -64262.426, -479247.3, 13334.282, 0.15042067, 0.25446773, -63834.41, 365100.34, 0.0, 10.003542, 9.99801 
1.9550443e+3, 2.662313e+2, -2564.209, -374996.2, -7173.3594, 0.062375233, 0.2509368, -2426.0952, 328526.8, 0.00000003752054, 10.003173, 9.998241 
1.9550492e+3, 2.7622858e+2, -184355.02, -407947.22, 18625.398, -0.12094946, 0.13535026, -182814.13, 50163.363, 0.00000331544, 10.001241, 9.998268 
1.9550563e+3, 2.8622612e+2, -42222.62, -380076.13, 46496.902, -0.1127971, 0.112791516, -35940.33, 99059.086, 0.00003537652, 10.001934, 9.997457 
1.9550651e+3, 2.9622433e+2, 428663.3, -68934.07, 48720.184, 0.027708907, 0.1521007, 433388.66, 470403.78, 0.00015855723, 10.004364, 9.997742 
1.9550703e+3, 3.0622208e+2, 433313.78, -76738.54, 17406.115, -0.1002012, 0.1665116, 433907.1, 433907.1, 0.0004166857, 10.004184, 9.997456 
1.9550772e+3, 3.162198e+2, 189349.89, -140021.81, -26506.398, 0.11848185, 0.17117554, 191469.38, 191469.38, 0.0007866127, 10.002296, 9.997905 
1.9649415e+3, 1.2623897e+2, -1962016.3, -1637759.0, 47744.523, 0.30731604, 0.39713225, -1630875.1, 72012.234, 0.23177752, 9.997334, 10.001948 
1.9649462e+3, 1.3623533e+2, -1788431.6, -1675532.9, 47572.742, -0.04626612, -0.03593826, -1658160.3, -53243.19, 0.1620495, 9.998717, 10.0002 
1.9649516e+3, 1.4623924e+2, -1700267.4, -1631986.1, 19395.209, -0.22276324, 0.3757125, -1626861.5, -119982.625, 0.093428105, 9.998866, 9.999755 
1.9649614e+3, 1.5623906e+2, -1609473.4, -1500155.9, 45915.645, 0.072703004, 0.34289286, -1483429.6, -74544.695, 0.04057487, 9.998652, 10.000087 
1.9649696e+3, 1.6623826e+2, -1468601.8, -1369518.0, 84163.26, 0.14122368, 0.2480742, -1321398.0, -10505.672, 0.011385711, 9.998892, 10.000201 
1.9649766e+3, 1.762377e+2, -1298611.8, -1249414.1, 59606.527, 0.03364726, 0.1516836, -1209530.1, 3364.4685, 0.0013940044, 9.999454, 10.000073 
1.9649842e+3, 1.862376e+2, -1273875.1, -1392194.0, 45414.977, 0.016709145, 0.24018984, -1258453.4, -143556.08, 0.000014255441, 9.9998255, 9.998251 
1.9649921e+3, 1.9623767e+2, -1130394.5, -1255745.4, 74920.77, 0.064044364, 0.40210086, -1095390.3, -78488.36, 0.0, 10.000075, 9.998388 
1.9650003e+3, 2.0623578e+2, -939948.3, -1090709.0, 80978.5, 0.15514463, 0.36443707, -904695.44, 14222.843, 0.0, 10.000596, 9.998608 
1.9650088e+3, 2.1623279e+2, -732723.44, -923476.5, 72979.36, 0.26369137, 0.18232633, -708005.56, 112935.42, 0.0, 10.001284, 9.998745 
1.9650157e+3, 2.2623068e+2, -642831.94, -848073.7, 91446.8, 0.19420712, 0.1084271, -607998.94, 114959.75, 0.0, 10.001309, 9.998581 
1.9650213e+3, 2.3622912e+2, -590973.4, -772694.2, 103784.33, 0.0033924635, 0.079912886, -543896.06, 81077.47, 0.0, 10.000985, 9.998586 
1.9650301e+3, 2.4622793e+2, -539153.94, -754209.0, 167805.66, 0.034420315, 0.13494055, -447380.44, 79604.59, 0.0, 10.000916, 9.998068 
1.9650407e+3, 2.5622714e+2, -418420.0, -632083.8, 159493.8, 0.1939169, 0.22568026, -333284.9, 95707.96, 0.0, 10.001025, 9.998176 
1.9650473e+3, 2.6622522e+2, -223650.89, -501180.38, 59428.84, 0.10714161, 0.22679262, -211460.53, 119550.945, 0.00000006167767, 10.001746, 9.998059 
1.965051e+3, 2.762225e+2, 40668.363, -320484.66, 16797.832, -0.14377983, 0.12865463, 41447.977, 274486.0, 0.000003603985, 10.002877, 9.998078 
1.9650586e+3, 2.862201e+2, 93789.62, -331368.03, 75176.94, -0.12848723, 0.1268567, 106691.01, 241751.83, 0.0000340466, 10.002941, 9.997305 
1.9650686e+3, 2.9621848e+2, 136048.63, -216085.22, 45378.094, 0.04613528, 0.20461743, 141802.31, 178877.77, 0.00014734041, 10.002368, 9.997698 
1.9650732e+3, 3.0621666e+2, 294223.56, -54550.9, -81504.44, -0.1594111, 0.21674593, 312330.16, 312330.16, 0.0003720336, 10.002854, 9.998247 
1.9650802e+3, 3.162143e+2, 526005.6, 88805.44, -156744.67, 0.09957022, 0.15058252, 576394.2, 576394.2, 0.0006722071, 10.004277, 9.998554 
1.9749382e+3, 1.2623142e+2, -1975190.6, -1677053.0, 162263.9, 0.21491341, 0.42424875, -1605778.6, 97184.125, 0.24301729, 9.997402, 10.001683 
1.9749461e+3, 1.3622922e+2, -1723187.1, -1554871.5, 78224.83, 0.05675642, 0.052992214, -1524130.9, 80847.586, 0.17062773, 9.998732, 10.001126 
1.9749525e+3, 1.462332e+2, -1660104.4, -1553782.0, 4343.777, -0.035380505, 0.39631647, -1553604.8, -46666.805, 0.09895461, 9.99888, 10.000288 
1.9749597e+3, 1.5623212e+2, -1577968.8, -1445825.1, 45167.86, 0.028049871, 0.22334778, -1431861.9, -22911.684, 0.04335473, 9.998691, 10.000448 
1.9749683e+3, 1.6623177e+2, -1501368.1, -1446547.8, 101030.664, 0.09849792, 0.18902387, -1369275.0, -58320.86, 0.012356995, 9.99893, 9.999656 
1.9749776e+3, 1.7623259e+2, -1322289.3, -1306292.9, 84661.9, 0.16046144, 0.2888591, -1229252.1, -16306.112, 0.0015709848, 9.999484, 9.999672 
1.9749847e+3, 1.8623215e+2, -1216028.8, -1274159.1, 51457.28, 0.07723184, 0.31485775, -1185995.4, -71044.84, 0.000019593592, 9.999834, 9.999057 
1.9749907e+3, 1.9623072e+2, -1082227.1, -1154238.1, 91584.22, -0.089093365, 0.24827679, -1019824.94, -2860.1323, 0.0, 10.00007, 9.999087 
1.9749995e+3, 2.0622905e+2, -958320.75, -1118720.6, 106188.46, -0.012914594, 0.21071304, -905449.2, 13530.688, 0.0, 10.000555, 9.998433 
1.9750096e+3, 2.162274e+2, -751889.94, -949718.94, 100655.44, 0.21438286, 0.1836573, -709681.8, 111311.71, 0.0, 10.001225, 9.998593 
1.9750173e+3, 2.2622672e+2, -634452.6, -811598.7, 76346.68, 0.22930253, 0.24080259, -606089.8, 116909.24, 0.0, 10.001224, 9.998872 
1.9750236e+3, 2.3622654e+2, -577409.75, -729622.9, 98626.28, 0.111582376, 0.3179028, -528939.6, 96060.47, 0.0, 10.000923, 9.998908 
1.9750316e+3, 2.4622406e+2, -527876.5, -714551.25, 168693.39, 0.07784125, 0.21095216, -428420.38, 98599.83, 0.0, 10.000844, 9.998377 
1.9750409e+3, 2.5622025e+2, -416321.13, -612874.6, 173155.3, 0.09746203, -0.02712715, -315497.22, 113553.83, 0.0, 10.000965, 9.998335 
1.975048e+3, 2.6621854e+2, -313083.13, -663949.2, 96531.56, 0.012479836, 0.044881582, -288278.56, 42791.773, 0.000000055759365, 10.001648, 9.996988 
1.9750541e+3, 2.7621815e+2, -36181.38, -460693.8, 58698.902, -0.13552143, 0.2818933, -28214.385, 204867.56, 0.0000036492006, 10.002806, 9.997143 
1.9750616e+3, 2.8621516e+2, 62671.203, -383550.25, 44219.59, -0.14705956, 0.2767156, 67011.06, 202124.03, 0.00003269789, 10.002879, 9.996981 
1.9750698e+3, 2.9621047e+2, 104247.6, -270769.97, 40866.52, -0.08691958, 0.084388584, 108649.25, 145805.58, 0.00013817218, 10.002319, 9.997345 
1.9750749e+3, 3.062097e+2, 224313.39, -161818.84, -49637.605, -0.29387096, 0.25483823, 230592.25, 230592.25, 0.00033940945, 10.002702, 9.9975815 
1.9750838e+3, 3.1620803e+2, 467014.28, 25558.063, 67916.94, 0.010082183, 0.30992088, 477226.88, 477226.88, 0.000591266, 10.004066, 9.9981985 
1.9849364e+3, 1.2622239e+2, -1852091.6, -1679518.5, 153993.05, 0.24259493, 0.39006788, -1589285.3, 113765.125, 0.25424254, 9.998565, 10.001121 
1.9849433e+3, 1.3622183e+2, -1950555.4, -1576142.9, -18508.717, 0.021288311, 0.12401516, -1575230.1, 29822.38, 0.17932345, 9.996805, 10.001856 
1.9849516e+3, 1.4622569e+2, -1870878.4, -1570422.1, -38938.707, 0.080366164, 0.37374943, -1565457.6, -58445.402, 0.104643695, 9.99707, 10.001045 
1.9849586e+3, 1.5622522e+2, -1460167.4, -1324484.8, 8911.207, 0.026261223, 0.19152588, -1323901.9, 85113.36, 0.046255346, 9.999227, 10.001039 
1.9849674e+3, 1.6622518e+2, -1381828.0, -1435940.3, 58386.62, 0.069365375, 0.18505892, -1344533.3, -33516.816, 0.013380272, 9.999953, 9.999232 
1.9849773e+3, 1.7622599e+2, -1319798.8, -1347575.3, 45902.82, 0.17983915, 0.32640404, -1285729.3, -72718.23, 0.0017591557, 9.999684, 9.99929 
1.984985e+3, 1.862253e+2, -1212030.1, -1276818.6, -6428.32, 0.115877174, 0.34587356, -1211398.5, -96379.4, 0.0000256483, 9.999878, 9.999017 
1.9849913e+3, 1.9622348e+2, -1023565.5, -1121203.0, -40704.16, -0.06942705, 0.24178994, -1008822.5, 8215.182, 0.0, 10.000444, 9.999134 
1.9849996e+3, 2.0622216e+2, -992238.9, -1056199.4, -23377.945, -0.012800073, 0.20036405, -984605.2, -65556.92, 0.0, 9.999989, 9.99913 
1.9850095e+3, 2.1622135e+2, -1042148.0, -1025603.75, 33137.96, 0.19215783, 0.18635008, -999721.06, -178668.8, 0.0, 9.998965, 9.999155 
1.985018e+3, 2.2622101e+2, -835568.25, -947205.06, 54453.504, 0.2265594, 0.27329153, -813406.7, -90351.6, 0.0, 10.000006, 9.998529 
1.9850256e+3, 2.3622091e+2, -396350.88, -673313.7, 14767.777, 0.1491489, 0.39245072, -395565.7, 229491.86, 0.0, 10.002308, 9.998622 
1.9850333e+3, 2.4621809e+2, -310020.13, -608518.56, 3454.6248, 0.09032792, 0.26208857, -309980.13, 217101.0, 0.0, 10.002353, 9.998371 
1.9850412e+3, 2.562135e+2, -410228.3, -617114.5, -16103.447, 0.03009509, -0.047490325, -408982.34, 20135.533, 0.0, 10.0010395, 9.998273 
1.9850495e+3, 2.662116e+2, -353427.06, -710006.06, 8296.012, 0.00073536375, 0.023691477, -353234.16, -22095.238, 0.00000004684117, 10.001478, 9.996757 
1.985058e+3, 2.7621162e+2, -29392.38, -489279.5, 8795.126, -0.012513381, 0.32682347, -29224.238, 203923.63, 0.000003631824, 10.002975, 9.996876 
1.985066e+3, 2.8620854e+2, 181710.53, -329209.13, -9848.605, -0.036486767, 0.33102393, 181900.31, 317079.94, 0.00003088302, 10.003724, 9.996941 
1.9850728e+3, 2.962033e+2, 340605.4, -175407.22, -8619.72, -0.100520045, 0.08454224, 340749.38, 377977.6, 0.00012805517, 10.004034, 9.997172 
1.9850789e+3, 3.0620193e+2, 367209.38, -166115.98, -66937.875, -0.21984522, 0.24425988, 375482.44, 375482.44, 0.00031170124, 10.0039835, 9.996941 
1.9850871e+3, 3.1620055e+2, 374575.5, -82736.78, 87891.39, -0.04835057, 0.40217763, 390885.75, 390885.75, 0.00053719076, 10.003667, 9.997666 
1.9949359e+3, 1.2621164e+2, -1901938.0, -1785684.6, 119146.445, 0.31059965, 0.26699257, -1711242.1, -8089.565, 0.26535824, 9.998605, 10.000175 
1.9949381e+3, 1.3621314e+2, -1913808.6, -1519740.0, -77808.72, -0.20073614, 0.17936288, -1504933.0, 100206.38, 0.18805622, 9.996821, 10.002347 
1.9949488e+3, 1.4621663e+2, -1792952.4, -1428951.4, 32693.035, 0.07434345, 0.307092, -1426038.4, 81064.055, 0.11045076, 9.99711, 10.0020685 
1.994958e+3, 1.562182e+2, -1402216.0, -1214082.1, 81856.99, 0.026491605, 0.2385128, -1183452.9, 225628.92, 0.04926506, 9.999251, 10.001829 
1.9949669e+3, 1.6621831e+2, -1397996.1, -1472619.1, 44144.4, 0.006082575, 0.22621219, -1377507.4, -66426.19, 0.014456319, 9.999969, 9.998972 
1.9949758e+3, 1.762178e+2, -1343117.8, -1399518.6, 39699.305, 0.057354342, 0.26218298, -1322622.3, -109531.83, 0.0019582892, 9.999695, 9.998931 
1.9949847e+3, 1.8621692e+2, -1273959.6, -1407417.1, 11574.895, 0.08832091, 0.33014414, -1272963.1, -157858.8, 0.000032105352, 9.999888, 9.9981165 
1.9949932e+3, 1.9621576e+2, -1066332.3, -1207054.1, -22966.271, 0.088443875, 0.3821538, -1062678.9, -45556.875, 0.0, 10.000437, 9.998548 
1.995001e+3, 2.0621493e+2, -885228.6, -830368.44, -67715.1, 0.113711074, 0.32551125, -784738.6, 134386.89, 0.0, 9.999969, 10.000692 
1.9950083e+3, 2.162144e+2, -959607.94, -844054.0, 12982.904, 0.16386384, 0.18527998, -842613.25, -21494.008, 0.0, 9.998918, 10.000426 
1.9950172e+3, 2.2621344e+2, -911636.1, -1089468.3, 142196.94, 0.14063154, 0.20769031, -832844.0, -109715.875, 0.0, 9.999937, 9.997587 
1.995027e+3, 2.3621221e+2, -468420.84, -807665.9, 94065.97, 0.07085813, 0.30504772, -444084.1, 181062.44, 0.0, 10.00224, 9.997732 
1.995035e+3, 2.4620984e+2, -356021.72, -677486.2, -50370.293, 0.007119625, 0.28366497, -348314.0, 178855.27, 0.0, 10.002239, 9.9979515 
1.9950415e+3, 2.5620678e+2, -437127.44, -661248.06, -47994.582, -0.04857463, 0.16194008, -427282.06, 1912.3857, 0.0, 10.000993, 9.997989 
1.9950514e+3, 2.662045e+2, -330786.78, -645592.94, 61442.445, 0.02398292, 0.17907305, -319219.72, 11997.149, 0.000000042002604, 10.001406, 9.997234 
1.9950631e+3, 2.7620283e+2, -10059.313, -431309.56, 67164.99, 0.177515, 0.26675147, 390.38928, 233627.1, 0.0000035134383, 10.002907, 9.997302 
1.9950715e+3, 2.862001e+2, 170455.61, -326550.84, -5429.3623, 0.12757671, 0.28447497, 170514.9, 305777.5, 0.00002820436, 10.003611, 9.997015 
1.9950776e+3, 2.9619655e+2, 332265.3, -185560.9, 7000.145, -0.051504575, 0.19768853, 332359.9, 369653.88, 0.00011358282, 10.003999, 9.997119 
1.995085e+3, 3.0619338e+2, 279343.3, -305825.8, -89767.51, -0.0015211694, 0.2242918, 292804.38, 292804.38, 0.0002772194, 10.003818, 9.996052 
1.995089e+3, 3.161921e+2, 284180.7, -219031.95, 92730.69, -0.23647466, 0.45682672, 300724.94, 300724.94, 0.00048508073, 10.003483, 9.996793 
2.0049329e+3, 1.2620066e+2, -2323250.3, -1953720.4, 43560.008, 0.2979908, 0.22162901, -1948655.0, -245393.28, 0.27641812, 9.995561, 10.000489 
2.0049348e+3, 1.3620465e+2, -1745308.8, -1368339.8, -93770.76, -0.23954529, 0.28749144, -1346302.6, 258921.8, 0.1968332, 9.9975395, 10.003293 
2.0049472e+3, 1.4620745e+2, -1685291.4, -1388199.4, 7387.65, 0.16715042, 0.29807383, -1388015.8, 119178.47, 0.11636926, 9.997875, 10.002016 
2.0049563e+3, 1.5620904e+2, -1698000.3, -1365327.8, -25601.646, 0.02474883, 0.24694268, -1363369.1, 45804.17, 0.05238356, 9.997265, 10.001705 
2.0049652e+3, 1.6620927e+2, -1667349.6, -1555873.3, -67926.52, -0.04669, 0.22933803, -1523743.6, -212572.88, 0.015589432, 9.997915, 9.999396 
2.0049748e+3, 1.7620882e+2, -1356348.8, -1359884.9, -29223.691, 0.0026235618, 0.22964393, -1328839.6, -115661.586, 0.0021699998, 9.999408, 9.99934 
2.0049845e+3, 1.8620831e+2, -1296124.6, -1395595.4, 2332.289, 0.089843765, 0.305438, -1296070.0, -180881.47, 0.00003871999, 9.999644, 9.99831 
2.0049937e+3, 1.9620775e+2, -1245097.0, -1279921.4, 41746.082, 0.1634026, 0.39848822, -1217277.3, -200076.36, 0.0, 9.999155, 9.998664 
2.0050015e+3, 2.0620705e+2, -899334.9, -855832.44, -35835.266, 0.1674061, 0.35899505, -835663.7, 83539.92, 0.0, 9.999953, 10.000525 
2.0050082e+3, 2.1620634e+2, -571879.7, -673955.25, -90650.27, 0.13057762, 0.21878965, -518887.03, 302312.3, 0.0, 10.001649, 10.00028 
2.0050177e+3, 2.2620498e+2, -662458.44, -965063.56, 46088.79, 0.12062715, 0.20421045, -655594.5, 67618.086, 0.0, 10.001639, 9.997617 
2.0050289e+3, 2.3620316e+2, -708439.7, -921589.0, 55205.664, 0.11745315, 0.24641453, -694990.1, -69753.33, 0.0, 10.000594, 9.997741 
2.0050372e+3, 2.4620141e+2, -505474.78, -758422.06, -50909.46, 0.07112283, 0.28891408, -495612.97, 31642.135, 0.0, 10.001227, 9.99789 
2.0050438e+3, 2.5619975e+2, -169469.3, -539551.06, -28765.768, -0.008407212, 0.31139165, -167246.75, 262022.45, 0.0, 10.002846, 9.997936 
2.0050538e+3, 2.6619714e+2, -42859.65, -477968.6, 101348.35, 0.045232788, 0.28753892, -20411.127, 310881.84, 0.000000029896977, 10.003267, 9.997479 
2.005066e+3, 2.76194e+2, 17555.082, -396431.7, 77440.08, 0.17533028, 0.20432082, 31566.734, 264889.8, 0.0000031274246, 10.003002, 9.997492 
2.0050748e+3, 2.8619123e+2, 116886.37, -355952.56, -1282.7411, 0.119312935, 0.20998669, 116889.85, 252238.92, 0.000025154262, 10.003243, 9.996997 
2.005081e+3, 2.9618886e+2, 270400.1, -229124.5, -21513.549, -0.07146238, 0.24711573, 271324.94, 308696.0, 0.00009776422, 10.003641, 9.996989 
2.0050906e+3, 3.0618525e+2, 375642.8, -258808.86, -70197.0, 0.13383292, 0.24192953, 383316.75, 383316.75, 0.00024006961, 10.004456, 9.996078 
2.0050943e+3, 3.1618196e+2, 578446.0, -65925.46, 94085.38, -0.14014713, 0.2708118, 591902.5, 591902.5, 0.00043032138, 10.005413, 9.996943 
2.0149268e+3, 1.261894e+2, -2206767.0, -1716313.9, 49787.12, 0.10267668, 0.24264608, -1711310.9, -7931.8335, 0.28771394, 9.99558, 10.002111 
2.0149335e+3, 1.3619632e+2, -1643212.3, -1206071.9, -31682.498, -0.13668168, 0.43964717, -1203787.6, 401520.7, 0.20582092, 9.9975395, 10.004708 
2.0149466e+3, 1.4619805e+2, -1767641.3, -1546990.9, -22154.889, 0.30374956, 0.34138286, -1544788.4, -37499.582, 0.12247417, 9.997887, 10.0008135 
2.0149532e+3, 1.5619765e+2, -1770212.9, -1513193.4, -37924.54, -0.020229157, 0.22042266, -1507714.1, -98423.81, 0.055639356, 9.997266, 10.000673 
2.0149623e+3, 1.6619805e+2, -1585333.1, -1388304.0, -13230.837, -0.13877551, 0.20260385, -1387419.5, -76134.58, 0.016791714, 9.997926, 10.000542 
2.014974e+3, 1.76199e+2, -1270617.6, -1186840.4, 24718.736, -0.020620149, 0.22839977, -1180090.9, 33183.813, 0.0023981123, 9.999426, 10.000521 
2.014984e+3, 1.8619938e+2, -1203267.8, -1207748.3, -21879.248, 0.07310657, 0.26689345, -1183514.4, -68242.06, 0.000045425786, 9.999663, 9.999592 
2.0149925e+3, 1.961994e+2, -1186559.6, -1155270.3, 36183.89, 0.11455115, 0.2961695, -1131493.8, -114218.88, 0.0, 9.999141, 9.999527 
2.0150009e+3, 2.0619854e+2, -1036068.94, -1133694.9, 25879.533, 0.09296512, 0.30956388, -1029632.9, -110350.55, 0.0, 9.999928, 9.998631 
2.0150092e+3, 2.1619716e+2, -692615.7, -909275.8, -32829.344, 0.051834404, 0.29050577, -687750.44, 133542.28, 0.0, 10.001586, 9.998695 
2.0150194e+3, 2.2619547e+2, -614446.2, -843276.2, 3555.9097, 0.11663155, 0.26572162, -614390.94, 108918.664, 0.0, 10.001541, 9.998501 
2.0150308e+3, 2.3619363e+2, -654379.2, -803951.44, 32950.9, 0.25047362, 0.21439967, -647441.9, -22111.678, 0.0, 10.000562, 9.998567 
2.0150402e+3, 2.4619266e+2, -498253.78, -720998.75, 9539.144, 0.2287067, 0.28136298, -497846.0, 29494.186, 0.0, 10.00114, 9.998186 
2.0150478e+3, 2.5619224e+2, -164796.13, -508924.9, 30088.398, 0.11154275, 0.40220544, -162185.2, 267158.1, 0.0, 10.002767, 9.99818 
2.0150569e+3, 2.6618937e+2, -60025.39, -491424.06, 87157.83, 0.012439727, 0.34233937, -43081.887, 288287.03, 0.0000000091701935, 10.003171, 9.997435 
2.0150667e+3, 2.7618498e+2, 9141.381, -402346.22, 79526.36, -0.056888226, 0.13422924, 23976.258, 257385.27, 0.0000023642951, 10.002951, 9.997476 
2.0150755e+3, 2.8618202e+2, 77484.11, -404932.78, 7748.2764, -0.12724818, 0.13173443, 77608.52, 213047.08, 0.000021595964, 10.003114, 9.996717 
2.0150834e+3, 2.9617998e+2, 244385.75, -270152.38, 1919.327, -0.21103169, 0.23341358, 244392.9, 281853.88, 0.00008386982, 10.00358, 9.996736 
2.0150949e+3, 3.06177e+2, 395678.9, -162980.84, -35104.746, 0.1047579, 0.26286635, 397876.16, 397876.16, 0.00020765356, 10.004247, 9.996825 
2.0151015e+3, 3.161726e+2, 640808.5, 143128.19, 43393.875, 0.0045842105, 0.08640951, 644563.75, 644563.75, 0.0003791855, 10.005127, 9.998488 
2.024924e+3, 1.2618047e+2, -1928546.4, -1646618.5, 131806.33, 0.18030159, 0.31149784, -1594596.1, 108873.234, 0.29983783, 9.997649, 10.001866 
2.0249307e+3, 1.361865e+2, -1860672.0, -1334505.6, -40371.88, -0.11160585, 0.46924952, -1331426.0, 273981.16, 0.21537028, 9.996283, 10.004229 
2.0249441e+3, 1.4618751e+2, -1828043.6, -1601021.8, -27904.27, 0.28121832, 0.33079734, -1597642.3, -90247.29, 0.12892798, 9.997578, 10.000594 
2.0249528e+3, 1.5618744e+2, -1361046.3, -1339624.0, 17327.584, 0.067388736, 0.2687193, -1329964.3, 79429.53, 0.05909158, 10.000192, 10.000477 
2.024962e+3, 1.6618799e+2, -1295262.0, -1214468.4, -1182.2786, -0.05387506, 0.25771487, -1214451.1, 96935.22, 0.018083457, 9.999773, 10.000849 
2.0249726e+3, 1.7618887e+2, -1518144.4, -1271369.1, -27642.176, -0.0261605, 0.24688701, -1268310.8, -54935.223, 0.0026487417, 9.997592, 10.00082 
2.0249827e+3, 1.8618928e+2, -1340909.0, -1238932.3, -83888.336, 0.024620047, 0.2565411, -1191752.1, -76380.95, 0.000052423693, 9.99856, 9.99991 
2.0249923e+3, 1.9618937e+2, -811369.0, -949482.6, -108172.414, 0.045237716, 0.2594495, -752089.9, 265281.06, 0.0, 10.001601, 9.999754 
2.0250013e+3, 2.0618853e+2, -802303.6, -1075109.1, -113475.14, 0.061697677, 0.28967178, -761273.75, 158105.58, 0.0, 10.001771, 9.99814 
2.0250103e+3, 2.1618703e+2, -931748.75, -1072860.9, -76167.06, 0.081512526, 0.30974078, -898480.06, -77086.35, 0.0, 10.000153, 9.99826 
2.0250207e+3, 2.2618529e+2, -785404.0, -922339.94, -21938.959, 0.1563184, 0.29556182, -781974.94, -58562.918, 0.0, 10.000351, 9.99853 
2.025032e+3, 2.3618345e+2, -482539.13, -711851.25, -60501.266, 0.2536145, 0.24213636, -467555.63, 157876.39, 0.0, 10.001708, 9.998643 
2.0250416e+3, 2.4618262e+2, -368055.56, -613596.7, -88872.36, 0.2247032, 0.2975935, -339264.56, 188175.83, 0.0, 10.001846, 9.998585 
2.0250498e+3, 2.5618234e+2, -364743.1, -565905.1, -71766.11, 0.10670774, 0.3967225, -341764.75, 87676.9, 0.0, 10.001227, 9.99853 
2.025059e+3, 2.6617977e+2, -316340.28, -610565.9, -9471.754, 0.012077679, 0.34659848, -316035.7, 15429.022, 0.000000001074916, 10.00138, 9.997485 
2.0250691e+3, 2.7617577e+2, -131956.39, -460129.34, -23335.8, -0.063579984, 0.17797342, -130305.336, 103195.73, 0.0000018159459, 10.001937, 9.997569 
2.0250784e+3, 2.8617314e+2, 13741.613, -372671.16, -39250.59, -0.115623794, 0.17266004, 17688.256, 153215.86, 0.000018189116, 10.002398, 9.997285 
2.0250867e+3, 2.9617143e+2, 174130.61, -234847.53, 2884.6055, -0.18544458, 0.2515477, 174150.95, 211697.67, 0.00007216491, 10.002802, 9.997353 
2.0250985e+3, 3.0616897e+2, 313238.88, -126841.05, 26025.344, 0.097846515, 0.26586315, 314772.6, 314772.6, 0.00017912718, 10.003299, 9.997551 
2.0251058e+3, 3.161663e+2, 441275.1, 82652.35, -7679.7583, 0.027943099, 0.20375864, 441439.5, 441439.5, 0.0003300842, 10.003556, 9.998844 
2.0349243e+3, 1.2617433e+2, -2073881.9, -1934457.1, -8402.591, 0.4177924, 0.45252022, -1933952.5, -230424.14, 0.3135409, 9.997696, 9.9995985 
2.034926e+3, 1.3617516e+2, -2031437.6, -1622047.6, -67522.414, -0.22019207, 0.381114, -1611198.4, -5677.137, 0.22593072, 9.996306, 10.001733 
2.0349395e+3, 1.4617577e+2, -1763976.0, -1484012.6, 68526.51, 0.039034475, 0.26936996, -1468139.5, 39373.926, 0.13594478, 9.997622, 10.001416 
2.0349549e+3, 1.5617831e+2, -1312022.4, -1246999.3, 93532.32, 0.2454111, 0.38565117, -1180489.1, 228995.3, 0.06282382, 10.00023, 10.001141 
2.034964e+3, 1.6617899e+2, -1328909.3, -1292820.4, -90888.22, 0.15132968, 0.38862315, -1218202.6, 93273.31, 0.019494196, 9.999816, 10.000286 
2.03497e+3, 1.7617835e+2, -1556119.9, -1355795.0, -85579.9, -0.054386962, 0.28208113, -1324213.6, -110731.98, 0.0029308582, 9.997608, 10.000236 
2.03498e+3, 1.8617785e+2, -1384120.6, -1329248.5, 31303.055, -0.10774729, 0.26333648, -1315059.9, -199573.22, 0.00006041413, 9.998565, 9.999289 
2.0349927e+3, 1.9617756e+2, -841611.7, -1012340.6, -8613.987, -0.08309079, 0.28761587, -841178.2, 176312.14, 0.0, 10.001601, 9.999324 
2.0350029e+3, 2.0617682e+2, -739218.25, -941229.5, -179670.83, 0.016193163, 0.29708937, -634108.0, 285388.28, 0.0, 10.001759, 9.999066 
2.0350115e+3, 2.1617581e+2, -886640.0, -971924.94, -119994.27, 0.17771946, 0.27514935, -801936.44, 19567.342, 0.0, 10.000116, 9.998973 
2.0350215e+3, 2.261743e+2, -854205.0, -1041312.6, 28692.344, 0.18457837, 0.29643464, -849903.94, -126383.12, 0.0, 10.000255, 9.997757 
2.0350322e+3, 2.3617251e+2, -540363.5, -814687.56, -8616.08, 0.094072536, 0.32413435, -540093.1, 85450.44, 0.0, 10.001637, 9.99797 
2.0350415e+3, 2.4617109e+2, -352290.44, -558348.6, -115039.84, 0.011650102, 0.3286089, -300887.78, 226669.9, 0.0, 10.00175, 9.999011 
2.0350495e+3, 2.5616992e+2, -339243.0, -508968.72, -84355.06, -0.059200555, 0.2917889, -304450.2, 125115.79, 0.0, 10.001202, 9.998938 
2.0350604e+3, 2.6616824e+2, -328046.13, -608313.25, 9652.306, -0.020908069, 0.30849972, -327714.13, 3867.121, 0.000000023664393, 10.001278, 9.997543 
2.0350729e+3, 2.7616617e+2, -130748.42, -439022.25, 5239.75, 0.10363138, 0.32223883, -130659.38, 102942.336, 0.0000019634658, 10.001861, 9.997749 
2.035083e+3, 2.8616428e+2, 86299.13, -188026.16, -30148.19, 0.0890749, 0.31336635, 89573.32, 225192.58, 0.000016146072, 10.00226, 9.998617 
2.0350914e+3, 2.9616293e+2, 273634.63, -25882.326, 29779.354, -0.0329714, 0.28756142, 276566.72, 314197.7, 0.00006226661, 10.002778, 9.998806 
2.0351009e+3, 3.0616102e+2, 309616.47, -67355.73, 30643.068, 0.0011990329, 0.25159442, 312091.1, 312091.1, 0.00015334133, 10.003044, 9.998062 
2.0351087e+3, 3.1616077e+2, 366140.66, -1544.5299, 42847.598, -0.072700955, 0.3916367, 371067.8, 371067.8, 0.00028364733, 10.00329, 9.99837 
2.0449209e+3, 1.2616567e+2, -2214929.3, -2021392.0, -110815.414, 0.34774008, 0.4913442, -1971040.9, -267427.3, 0.3294151, 9.996818, 9.999421 
2.0449252e+3, 1.3616459e+2, -1530038.6, -1512868.0, 281.9566, -0.12480172, 0.32740515, -1512863.4, 92760.54, 0.23787552, 10.0004, 10.000713 
2.0449384e+3, 1.46165e+2, -1484039.8, -1400785.5, 82510.586, 0.06687693, 0.2656063, -1349996.1, 157622.58, 0.14372098, 9.9997635, 10.001046 
2.0449528e+3, 1.5616724e+2, -1874740.9, -1547660.9, 28603.393, 0.21605137, 0.3836863, -1545178.3, -135583.81, 0.06692591, 9.99649, 10.000802 
2.0449623e+3, 1.661678e+2, -1735350.6, -1534528.5, -153051.61, 0.13267973, 0.41328394, -1451889.9, -140301.27, 0.021061258, 9.997224, 9.999869 
2.0449692e+3, 1.761672e+2, -1145590.5, -1199647.3, -142922.45, -0.032131143, 0.35004732, -1027163.25, 186431.97, 0.003256253, 10.000612, 9.999856 
2.04498e+3, 1.8616647e+2, -1105685.1, -1218127.5, -975.85944, -0.084173776, 0.33359262, -1105676.6, 9926.299, 0.00007088071, 10.000582, 9.99908 
2.0449926e+3, 1.9616568e+2, -1319168.8, -1255370.6, -16564.89, -0.09200919, 0.33248717, -1251326.1, -233715.25, 0.0, 9.998391, 9.999199 
2.0450033e+3, 2.0616482e+2, -1098577.4, -1073311.6, -191815.1, 0.024940638, 0.31377354, -893713.9, 25903.46, 0.0, 9.999114, 9.999436 
2.0450129e+3, 2.1616392e+2, -618467.6, -795578.8, -182781.63, 0.22640668, 0.26622736, -503919.25, 317703.5, 0.0, 10.001771, 9.999382 
2.0450228e+3, 2.2616296e+2, -564411.6, -849011.25, -3144.5005, 0.218713, 0.29582757, -564376.9, 159256.52, 0.0, 10.002009, 9.998235 
2.0450331e+3, 2.3616181e+2, -653314.1, -829304.1, 46693.78, 0.06781825, 0.3434095, -641692.75, -16044.1875, 0.0, 10.000683, 9.99833 
2.0450425e+3, 2.4616043e+2, -478596.28, -676417.44, -38494.2, -0.012851395, 0.3627596, -471369.66, 56293.85, 0.0, 10.001119, 9.998506 
2.0450515e+3, 2.5615898e+2, -157989.34, -464267.2, -90049.18, -0.058314133, 0.34640843, -133475.84, 296201.7, 0.0, 10.002633, 9.99855 
2.0450623e+3, 2.6615712e+2, -140514.45, -458604.22, -26868.393, 0.013184959, 0.33530387, -138260.9, 193432.97, 0.00000011200642, 10.002308, 9.998076 
2.0450749e+3, 2.7615502e+2, -249251.98, -437738.06, -4665.6704, 0.17130892, 0.29465914, -249136.56, -15424.567, 0.000002326167, 10.000804, 9.99826 
2.0450854e+3, 2.8615367e+2, -58139.45, -223296.88, -11908.709, 0.17198458, 0.29942718, -57285.188, 78438.2, 0.000014696717, 10.001101, 9.9989395 
2.0450945e+3, 2.961531e+2, 238808.02, -4641.3564, -52605.527, 0.03153988, 0.32288578, 249688.9, 287416.75, 0.000053728807, 10.002386, 9.999135 
2.0451045e+3, 3.0615145e+2, 328340.25, -48804.547, -111921.13, 0.050984576, 0.2925243, 359052.78, 359052.78, 0.0001309544, 10.003129, 9.998148 
2.0451123e+3, 3.1615162e+2, 444548.63, 27048.965, -148268.06, -0.05535005, 0.47872767, 491845.5, 491845.5, 0.00024473775, 10.003831, 9.998324 
2.0549133e+3, 1.2615457e+2, -2073918.5, -1734505.1, 31298.201, -0.12174336, 0.42945465, -1731643.3, -27918.836, 0.3476065, 9.99684, 10.001381 
2.0549282e+3, 1.3615476e+2, -1497255.4, -1453800.0, 84188.4, 0.11641672, 0.29767594, -1388580.6, 217134.56, 0.2513395, 10.000454, 10.001245 
2.0549406e+3, 1.461551e+2, -1585938.9, -1615899.4, -35311.746, 0.29632854, 0.3067358, -1562561.3, -54849.867, 0.15236652, 9.999797, 9.999424 
2.0549466e+3, 1.5615419e+2, -1970227.4, -1748226.9, -64066.81, -0.06908111, 0.26122132, -1731064.8, -321340.38, 0.071473114, 9.996494, 9.999429 
2.0549569e+3, 1.6615437e+2, -1752516.8, -1573107.4, -26465.506, -0.1637915, 0.32922378, -1569284.9, -257559.7, 0.022826005, 9.997235, 9.9996 
2.0549703e+3, 1.7615539e+2, -1158853.0, -1232217.0, -33839.504, 0.00024180325, 0.45701715, -1145628.3, 68088.336, 0.0036400491, 10.00063, 9.999626 
2.0549817e+3, 1.8615496e+2, -1084635.0, -1180767.4, -88355.34, 0.039997436, 0.47029302, -1032117.8, 83603.38, 0.00008593674, 10.000606, 9.999325 
2.0549917e+3, 1.9615364e+2, -1306033.6, -1231464.3, -75114.664, -0.025538519, 0.3909446, -1184889.8, -167155.9, 0.0, 9.998402, 9.99936 
2.0550027e+3, 2.0615238e+2, -1113617.8, -1101311.6, -94204.32, 0.034132633, 0.3348148, -1013059.6, -93315.555, 0.0, 9.999103, 9.999247 
2.0550144e+3, 2.1615115e+2, -623168.56, -796760.1, -95055.72, 0.1900057, 0.27238318, -581243.4, 240509.22, 0.0, 10.001731, 9.9993925 
2.055025e+3, 2.2615087e+2, -459206.13, -606487.56, -57073.598, 0.20600836, 0.27450886, -439678.44, 284074.8, 0.0, 10.001909, 9.999948 
2.0550345e+3, 2.361512e+2, -565513.7, -634825.44, 13337.413, 0.13187844, 0.29751167, -563035.8, 62713.066, 0.0, 10.0006275, 9.999694 
2.0550446e+3, 2.4615054e+2, -596953.6, -891199.5, 15945.2705, 0.089621454, 0.4087112, -596092.06, -68333.05, 0.0, 10.000995, 9.997087 
2.0550554e+3, 2.5614923e+2, -250426.22, -638947.0, -38771.48, 0.06830763, 0.54914266, -246594.9, 183183.88, 0.0, 10.002563, 9.997384 
2.0550652e+3, 2.6614618e+2, -87490.0, -326390.97, -87514.21, 0.06329888, 0.41580823, -58862.28, 272942.8, 0.00000017468948, 10.0022135, 9.999031 
2.055075e+3, 2.7614215e+2, -196218.63, -329201.63, -40438.2, 0.08901861, 0.08779105, -184887.45, 48946.9, 0.0000023499456, 10.000795, 9.999017 
2.0550855e+3, 2.8614116e+2, -140615.75, -351742.5, 30863.898, 0.053179853, 0.13406965, -136196.38, -354.089, 0.000012296112, 10.0009365, 9.998126 
2.0550962e+3, 2.9614177e+2, 168910.69, -130979.67, -13.074114, -0.045150973, 0.3550776, 168910.69, 206749.66, 0.000044338212, 10.002306, 9.998302 
2.0551088e+3, 3.0613962e+2, 248076.73, -140822.25, -107609.51, 0.16154301, 0.33802193, 275866.78, 275866.78, 0.00011039118, 10.00284, 9.997643 
2.0551169e+3, 3.161381e+2, 410172.38, 12341.203, -66869.53, -0.0004652779, 0.39440575, 421111.38, 421111.38, 0.00021375518, 10.003593, 9.998336 
2.0649108e+3, 1.2614317e+2, -1738854.3, -1568828.4, -62206.105, -0.14570682, 0.5190209, -1548499.9, 155339.89, 0.36771804, 9.998838, 10.002109 
2.0649263e+3, 1.3614258e+2, -2140555.8, -1711461.1, -71578.555, 0.10680562, 0.27867618, -1699835.9, -94000.06, 0.26616043, 9.995717, 10.001401 
2.0649394e+3, 1.4614329e+2, -1986547.3, -1844384.8, -154601.77, 0.3250277, 0.3364047, -1745306.5, -237477.86, 0.1618756, 9.997209, 9.999102 
2.0649455e+3, 1.561424e+2, -1260554.4, -1428582.1, -95809.96, -0.06317333, 0.3201073, -1217140.3, 192702.81, 0.07651462, 10.001573, 9.999188 
2.0649561e+3, 1.6614233e+2, -1171891.8, -1303697.6, -19569.18, -0.15388274, 0.3778873, -1169047.8, 142798.5, 0.024829434, 10.001277, 9.999509 
2.06497e+3, 1.7614304e+2, -1535820.0, -1419532.9, -18721.566, 0.03069007, 0.4802468, -1416593.1, -202753.23, 0.0041003036, 9.998055, 9.999583 
2.0649818e+3, 1.8614268e+2, -1422490.0, -1325249.0, -60961.426, 0.103975795, 0.49273056, -1295893.5, -180050.6, 0.000108260756, 9.998213, 9.999484 
2.0649922e+3, 1.9614159e+2, -963499.44, -1048535.44, -56173.723, 0.065512426, 0.41936308, -935566.94, 82286.02, 0.0, 10.000677, 9.999518 
2.0650029e+3, 2.0614037e+2, -798406.56, -942959.4, -28113.242, 0.06396408, 0.35818315, -793131.44, 126731.414, 0.0, 10.001234, 9.9993105 
2.0650144e+3, 2.1613912e+2, -786654.0, -871394.5, -22656.021, 0.09154861, 0.2881061, -780977.06, 40895.17, 0.0, 10.000587, 9.9994335 
2.0650251e+3, 2.2613904e+2, -631443.8, -706091.44, -95373.46, 0.11649399, 0.3184051, -566351.0, 157521.02, 0.0, 10.000798, 9.999799 
2.0650357e+3, 2.3613974e+2, -439946.94, -583504.4, -168853.64, 0.13212416, 0.39375925, -328248.88, 297616.6, 0.0, 10.00154, 9.999601 
2.0650466e+3, 2.4613896e+2, -479002.66, -797171.0, -104964.81, 0.14025106, 0.4772632, -447494.66, 80381.51, 0.0, 10.001648, 9.9974165 
2.0650579e+3, 2.5613707e+2, -409461.84, -682583.56, -46601.555, 0.13039023, 0.52766126, -401729.34, 28169.973, 0.0, 10.001333, 9.997676 
2.0650676e+3, 2.661344e+2, -153938.67, -366542.38, -109868.94, 0.101743825, 0.4219357, -107363.89, 224558.25, 0.00000012472299, 10.001782, 9.998967 
2.0650764e+3, 2.7613142e+2, 72073.19, -208573.17, -146141.23, 0.06664094, 0.20536312, 134352.72, 368295.78, 0.0000018192295, 10.002685, 9.998933 
2.0650871e+3, 2.8612998e+2, 78725.62, -288106.75, -53720.11, 0.04853384, 0.2350653, 86430.73, 222385.48, 0.000008845643, 10.002613, 9.997763 
2.0650986e+3, 2.961291e+2, 64200.92, -225994.89, -74825.0, 0.0056479615, 0.34257117, 82357.98, 120322.78, 0.000033785323, 10.001788, 9.997896 
2.0651126e+3, 3.0612642e+2, 292177.66, -128022.086, -85558.36, 0.24254979, 0.2993566, 308930.56, 308930.56, 0.00009042026, 10.003116, 9.997635 
2.0651218e+3, 3.161239e+2, 640223.25, 29185.766, -90726.03, 0.037089504, 0.2559267, 653409.56, 653409.56, 0.00018507797, 10.005546, 9.997532 
2.0749131e+3, 1.2613109e+2, -1802665.3, -1650776.0, -192679.22, 0.16207467, 0.7327754, -1519614.6, 184348.78, 0.38886976, 9.998879, 10.001521 
2.0749187e+3, 1.3612795e+2, -2154343.0, -1738980.9, -158043.27, -0.2158371, 0.27149317, -1685684.8, -79697.875, 0.28190908, 9.995708, 10.001218 
2.0749345e+3, 1.4612943e+2, -1912861.8, -1697847.6, 10026.489, 0.09479541, 0.3591193, -1697381.1, -189409.8, 0.17213808, 9.997227, 10.000102 
2.0749499e+3, 1.5613168e+2, -1193294.1, -1300696.1, 33200.777, 0.18569659, 0.5585909, -1183859.6, 226092.72, 0.08207624, 10.001638, 10.000086 
2.0749602e+3, 1.6613151e+2, -1154456.5, -1274526.1, -147385.14, 0.106710896, 0.5553438, -1055348.1, 256605.63, 0.027111659, 10.001315, 9.999703 
2.074968e+3, 1.7613006e+2, -1523762.5, -1394222.6, -116471.93, 0.020985188, 0.42344508, -1325722.8, -111757.01, 0.0046569863, 9.998057, 9.999756 
2.0749797e+3, 1.8612944e+2, -1411625.9, -1309487.8, 29644.313, 0.061679963, 0.39701474, -1301507.5, -185537.52, 0.00014131474, 9.99824, 9.99958 
2.0749937e+3, 1.9612932e+2, -955785.75, -1032771.0, 28024.0, 0.14707202, 0.41283184, -946665.06, 71304.89, 0.0000000002137382, 10.000675, 9.999629 
2.0750044e+3, 2.0612867e+2, -775576.75, -891396.75, -55207.305, 0.063640565, 0.38544816, -753477.94, 166496.86, 0.0, 10.001219, 9.999669 
2.0750132e+3, 2.1612781e+2, -789927.9, -864525.3, -35435.516, -0.110179394, 0.31753004, -775778.8, 46203.125, 0.0, 10.000528, 9.999509 
2.075024e+3, 2.2612743e+2, -786680.4, -1005401.7, -67168.625, -0.09863735, 0.42652634, -767700.2, -43710.0, 0.0, 10.000705, 9.997786 
2.0750362e+3, 2.3612735e+2, -559772.44, -818436.44, -137563.2, 0.031115217, 0.623335, -500291.28, 125708.13, 0.0, 10.001483, 9.998015 
2.0750478e+3, 2.4612541e+2, -350612.03, -511335.2, -120019.98, 0.08237601, 0.55124456, -286534.1, 241483.44, 0.0, 10.001563, 9.999421 
2.0750588e+3, 2.5612232e+2, -297916.38, -443542.47, -47545.664, 0.083750285, 0.28218207, -283767.75, 146273.08, 0.0, 10.001295, 9.999336 
2.0750691e+3, 2.6612163e+2, -251325.06, -534840.6, -80562.055, 0.0689841, 0.35957825, -230032.2, 102014.29, 0.000000021824269, 10.001648, 9.997871 
2.0750791e+3, 2.7612236e+2, -5758.568, -353283.03, -110350.516, 0.05816979, 0.6274628, 26320.28, 260361.83, 0.00000084431264, 10.002617, 9.997971 
2.0750901e+3, 2.8611958e+2, 56347.78, -297558.6, -93236.13, 0.07843861, 0.55849147, 79408.11, 215474.83, 0.000005133315, 10.002461, 9.9977665 
2.0751016e+3, 2.9611456e+2, 54046.574, -246900.6, -82191.96, 0.10357844, 0.2563995, 75030.91, 113140.56, 0.000023668894, 10.001769, 9.9977665 
2.0751153e+3, 3.061115e+2, 252017.06, -109021.766, 1979.5735, 0.1881142, 0.17356601, 252027.92, 252027.92, 0.00007118321, 10.002733, 9.99792 
2.075126e+3, 3.1611115e+2, 451376.13, -250089.33, -66823.664, -0.13230014, 0.29943153, 457685.22, 457685.22, 0.0001531645, 10.005128, 9.995783 
2.0849124e+3, 1.2611543e+2, -2271801.0, -1897429.6, -224482.17, 0.35405242, 0.63966876, -1792329.9, -88215.03, 0.40993002, 9.99577, 10.000773 
2.0849173e+3, 1.3611376e+2, -1407631.1, -1402314.1, -93209.31, -0.22061364, 0.31504247, -1311725.4, 294402.47, 0.29801235, 10.001321, 10.0014105 
2.0849335e+3, 1.4611581e+2, -1376564.9, -1405949.0, 5798.45, 0.11699415, 0.42306325, -1375462.0, 132646.0, 0.18298064, 10.000933, 10.00047 
2.0849492e+3, 1.5611799e+2, -1834981.1, -1582155.4, -30658.006, 0.1905053, 0.5894471, -1578490.8, -168402.0, 0.088167645, 9.996985, 10.000333 
2.0849597e+3, 1.6611783e+2, -1696648.3, -1494673.4, -232087.63, 0.12559505, 0.5566314, -1342553.9, -30464.766, 0.029713616, 9.997389, 10.00007 
2.0849678e+3, 1.761164e+2, -1119786.9, -1159540.8, -190187.47, 0.076614514, 0.39106423, -948440.5, 265658.56, 0.005333032, 10.000671, 10.000108 
2.0849796e+3, 1.8611574e+2, -1023564.7, -1114557.4, -21838.053, 0.095758945, 0.33831993, -1018595.06, 97507.56, 0.00018960002, 10.000865, 9.999657 
2.0849931e+3, 1.9611551e+2, -1174829.0, -1131258.8, -31960.424, 0.10423918, 0.33574918, -1114364.9, -96262.29, 0.000000020895914, 9.999135, 9.999698 
2.0850042e+3, 2.061154e+2, -1086133.5, -1045130.44, -132037.16, 0.017935611, 0.3602767, -932012.6, -11909.278, 0.0, 9.99911, 9.999628 
2.0850134e+3, 2.161154e+2, -828588.56, -890724.8, -147817.56, -0.113387205, 0.38646364, -708609.5, 113495.08, 0.0, 10.0002985, 9.999436 
2.0850249e+3, 2.2611469e+2, -744587.4, -1011530.5, -88876.11, -0.09590877, 0.47648522, -717704.3, 6412.7725, 0.0, 10.0011, 9.997562 
2.0850375e+3, 2.361134e+2, -544347.1, -827313.94, -39235.332, 0.009708344, 0.5761294, -539007.6, 87130.21, 0.0, 10.00165, 9.997882 
2.085049e+3, 2.4611163e+2, -316805.4, -432687.75, -58742.66, 0.05366519, 0.4951782, -292236.7, 235915.95, 0.0, 10.001525, 9.999977 
2.0850596e+3, 2.5610965e+2, -312288.88, -400047.72, -97276.32, 0.04687968, 0.28183842, -249453.31, 180709.47, 0.0, 10.000984, 9.999779 
2.0850706e+3, 2.6610908e+2, -328799.97, -614532.7, -87239.25, 0.07408844, 0.37419152, -304270.13, 27898.129, 0.0, 10.001292, 9.997495 
2.0850821e+3, 2.7610925e+2, -98014.445, -431701.56, -81805.54, 0.12036413, 0.62093437, -79038.414, 155134.25, 0.000000115745564, 10.002126, 9.997669 
2.0850936e+3, 2.861062e+2, 156460.89, -206689.86, -43898.54, 0.1541983, 0.5234245, 161692.1, 297891.84, 0.0000020138657, 10.002951, 9.998159 
2.0851047e+3, 2.9610142e+2, 356410.5, -60265.973, -18854.57, 0.1505318, 0.200326, 357261.9, 395500.56, 0.000014484927, 10.003678, 9.998127 
2.0851184e+3, 3.061004e+2, 447947.84, -38622.805, 134749.34, 0.17037314, 0.31503367, 482772.44, 482772.44, 0.00005217082, 10.004142, 9.997745 
2.0851311e+3, 3.1610018e+2, 366087.94, -262989.0, -41951.91, -0.07747355, 0.48384768, 368873.3, 368873.3, 0.000119188495, 10.004367, 9.996083 
2.0949079e+3, 1.2609641e+2, -2347433.0, -2047753.1, 12665.037, 0.30270675, 0.2579449, -2047218.8, -342927.0, 0.42994058, 9.995745, 9.999757 
2.0949213e+3, 1.3609996e+2, -1379510.8, -1350097.5, 22134.572, 0.043150585, 0.40291598, -1338229.3, 268030.6, 0.31401625, 10.001386, 10.001953 
2.094937e+3, 1.4610235e+2, -1391357.5, -1441642.8, -128202.62, 0.32740158, 0.53254455, -1285855.4, 222384.02, 0.19429262, 10.000978, 10.000199 
2.0949434e+3, 1.5610121e+2, -1858513.6, -1631714.8, -150147.5, -0.099424265, 0.4085517, -1556955.4, -146701.55, 0.094824284, 9.996989, 9.999992 
2.0949544e+3, 1.6610111e+2, -1655745.6, -1415312.4, -108632.69, -0.15366957, 0.369693, -1373501.0, -61247.168, 0.032688897, 9.997408, 10.000608 
2.0949695e+3, 1.7610206e+2, -1078678.5, -1083922.3, -83614.87, 0.15878257, 0.38484937, -997644.44, 216596.3, 0.0061590113, 10.000706, 10.000616 
2.0949812e+3, 1.8610157e+2, -1015442.6, -1103952.0, -91917.78, 0.15444966, 0.32540977, -957680.9, 158560.44, 0.00026052183, 10.000895, 9.999714 
2.0949902e+3, 1.9610009e+2, -1176481.8, -1133663.8, -82390.09, -0.09965311, 0.1928333, -1069946.5, -51694.94, 0.00000016154512, 9.99913, 9.999683 
2.095002e+3, 2.0610033e+2, -1123406.6, -1115531.3, -91919.74, -0.11556966, 0.27882725, -1027464.9, -107214.33, 0.0, 9.9990835, 9.999154 
2.0950153e+3, 2.1610177e+2, -854585.44, -930655.56, -101367.93, 0.04596855, 0.4934483, -784351.75, 37889.69, 0.0, 10.000241, 9.999188 
2.0950279e+3, 2.2610064e+2, -649945.3, -793049.1, -70092.05, 0.07799772, 0.46620876, -621334.5, 102919.94, 0.0, 10.001004, 9.999107 
2.0950393e+3, 2.3609783e+2, -467015.9, -646366.94, -16495.637, 0.024010394, 0.2610491, -465511.38, 160770.19, 0.0, 10.001565, 9.999165 
2.09505e+3, 2.4609752e+2, -395318.16, -566466.8, -82999.02, -0.009176582, 0.31631243, -361679.2, 166603.53, 0.0, 10.001404, 9.999115 
2.09506e+3, 2.5609875e+2, -370559.4, -513183.38, -106362.17, -0.02185318, 0.51337624, -313815.5, 116452.28, 0.0, 10.000949, 9.999021 
2.0950718e+3, 2.6609644e+2, -322249.75, -577036.8, -59995.027, 0.049760696, 0.44644138, -308829.53, 23461.297, 0.0, 10.001197, 9.997796 
2.095085e+3, 2.7609187e+2, -86812.555, -390806.63, -42919.074, 0.19113182, 0.19253507, -80869.266, 153468.48, 0.0, 10.002054, 9.997983 
2.0950972e+3, 2.860899e+2, 174682.16, -115384.63, -23988.701, 0.19766982, 0.14561924, 176652.64, 313007.22, 0.00000039293647, 10.002731, 9.998889 
2.0951082e+3, 2.9608947e+2, 397904.53, 44356.516, 18102.545, 0.11494378, 0.18737707, 398829.0, 437181.7, 0.000007650347, 10.003595, 9.99889 
2.0951216e+3, 3.0609152e+2, 345713.25, -153643.16, 129805.44, 0.05127195, 0.5951359, 377439.84, 377439.84, 0.000036311332, 10.003766, 9.997117 
2.0951377e+3, 3.1608894e+2, 484215.2, 89150.65, 63632.62, 0.108794294, 0.59834325, 494211.5, 494211.5, 0.00009098789, 10.003956, 9.998682 
2.1049048e+3, 1.2607916e+2, -1826378.8, -1801513.6, 19593.924, 0.25436902, 0.12838608, -1790740.9, -86282.76, 0.44859928, 9.999342, 9.999705 
2.1049206e+3, 1.3608445e+2, -2048209.3, -1523157.8, 51415.117, 0.13816705, 0.33469015, -1518170.4, 88239.51, 0.3298663, 9.995547, 10.003077 
2.104935e+3, 1.4608945e+2, -2036726.9, -1712218.8, -132682.28, 0.2911074, 0.647697, -1664875.6, -156511.36, 0.20615475, 9.996187, 10.000504 
2.1049407e+3, 1.5608668e+2, -1524406.6, -1450164.4, -82264.766, -0.19053465, 0.33688074, -1397033.3, 13361.051, 0.10215144, 9.999195, 10.000179 
2.1049523e+3, 1.6608639e+2, -1280460.0, -1262894.8, 22475.896, -0.21313667, 0.28313386, -1247546.5, 64851.09, 0.036114734, 10.000104, 10.000363 
2.1049698e+3, 1.7608866e+2, -1218247.6, -1174903.6, -25368.469, 0.151395, 0.45139104, -1163210.4, 51163.785, 0.007176738, 9.99984, 10.000403 
2.1049817e+3, 1.860885e+2, -1142810.1, -1176323.1, -129878.22, 0.15231267, 0.4379588, -1028611.94, 87760.664, 0.0003661867, 10.000069, 9.999616 
2.10499e+3, 1.9608636e+2, -962892.06, -1044361.56, -134983.83, -0.12947462, 0.25470248, -862630.56, 155758.39, 0.00000091193453, 10.000666, 9.999555 
2.105002e+3, 2.0608598e+2, -857195.6, -1012602.1, -87056.7, -0.11923139, 0.29540387, -818208.4, 102185.414, 0.0, 10.001007, 9.998939 
2.1050166e+3, 2.1608683e+2, -719895.75, -879278.25, -88606.766, 0.0917338, 0.47223136, -680415.5, 141974.6, 0.0, 10.00122, 9.999072 
2.1050292e+3, 2.2608596e+2, -628313.44, -710902.75, -110234.71, 0.13208903, 0.44309917, -551892.56, 172506.22, 0.0, 10.000853, 9.999737 
2.1050403e+3, 2.3608391e+2, -635159.94, -668233.6, -133840.55, 0.041917186, 0.24923378, -516838.5, 109577.97, 0.0, 10.000159, 9.999684 
2.105051e+3, 2.4608387e+2, -515505.4, -642202.3, -170917.77, 0.0070278337, 0.31940708, -396574.1, 131840.92, 0.0, 10.000655, 9.998958 
2.1050616e+3, 2.560851e+2, -237325.08, -459783.88, -152528.47, 0.0011025679, 0.52993506, -159777.06, 270624.97, 0.0, 10.001923, 9.998917 
2.105074e+3, 2.6608264e+2, -175992.83, -489960.8, -89042.33, 0.09197644, 0.44529712, -152498.25, 179928.02, 0.0, 10.00212, 9.997955 
2.1050872e+3, 2.7607784e+2, -144921.0, -403231.03, -89009.766, 0.23655301, 0.15515274, -117220.164, 117253.87, 0.0, 10.001584, 9.998127 
2.1050999e+3, 2.8607643e+2, 119817.32, -113848.555, -47473.902, 0.22968596, 0.14475895, 129094.28, 265579.66, 0.00000006547354, 10.002242, 9.999129 
2.1051118e+3, 2.9607677e+2, 419258.66, 73541.125, -73143.25, 0.10619412, 0.24534108, 434096.7, 472573.38, 0.000004735315, 10.003681, 9.999042 
2.1051262e+3, 3.0607748e+2, 380498.06, -194767.75, -412.7964, 0.13693076, 0.54096544, 380498.38, 380498.38, 0.000028510507, 10.004206, 9.996642 
2.1051434e+3, 3.160743e+2, 530160.56, 198607.7, -68286.37, 0.282472, 0.5288869, 543674.0, 543674.0, 0.00007646736, 10.00385, 9.999503 
2.1149029e+3, 1.2606394e+2, -1774732.6, -1712855.6, -124215.625, 0.06796422, 0.264731, -1615783.5, 88827.96, 0.46656317, 9.999469, 10.0005865 
2.1149151e+3, 1.3606727e+2, -1926488.4, -1361053.0, -33078.945, -0.0044499035, 0.109837845, -1359124.4, 247453.83, 0.34608045, 9.995557, 10.004783 
2.1149279e+3, 1.4607674e+2, -1970286.4, -1588356.6, -9817.213, -0.061504174, 0.7389097, -1588104.5, -79618.61, 0.21890919, 9.996236, 10.001332 
2.1149404e+3, 1.5607432e+2, -1458034.4, -1342892.9, 17695.78, -0.13503711, 0.367818, -1340234.6, 70276.11, 0.110347085, 9.999282, 10.000924 
2.1149535e+3, 1.6607368e+2, -1342777.5, -1406285.1, 7166.115, -0.11489913, 0.30440444, -1341979.0, -29459.158, 0.040102176, 10.000163, 9.999337 
2.1149683e+3, 1.7607614e+2, -1281984.1, -1312617.9, -29206.762, 0.013584079, 0.59318686, -1264321.6, -49821.395, 0.008443992, 9.999861, 9.999446 
2.1149807e+3, 1.860763e+2, -1158938.0, -1212342.9, -110741.49, 0.03748681, 0.66778725, -1071725.1, 44773.39, 0.00052604213, 10.000081, 9.999362 
2.1149917e+3, 1.9607426e+2, -977462.44, -1078797.0, -108427.28, -0.027523367, 0.51970166, -908448.3, 110067.23, 0.0000034897541, 10.000683, 9.99931 
2.1150036e+3, 2.0607229e+2, -858731.06, -1009682.5, -80305.95, -0.04618149, 0.41124937, -823999.56, 96534.234, 0.0, 10.000981, 9.998971 
2.1150169e+3, 2.160706e+2, -730171.2, -885117.5, -78267.016, -0.014841141, 0.3315108, -697518.0, 125032.41, 0.0, 10.001156, 9.999063 
2.1150291e+3, 2.2607055e+2, -667567.25, -766668.9, -137575.75, 0.009038399, 0.40081778, -570890.94, 153660.75, 0.0, 10.000741, 9.999408 
2.1150406e+3, 2.3607142e+2, -661241.0, -708468.1, -146197.78, 0.024037082, 0.53658533, -536762.06, 89782.32, 0.0, 10.000099, 9.999438 
2.1150522e+3, 2.4607056e+2, -490591.53, -568519.9, -124043.164, 0.040630106, 0.5019337, -399536.8, 129014.164, 0.0, 10.000562, 9.999507 
2.1150643e+3, 2.560686e+2, -213735.92, -398035.0, -105199.78, 0.072331816, 0.33856776, -166033.64, 264532.7, 0.0, 10.001864, 9.999371 
2.1150766e+3, 2.660675e+2, -192858.58, -492626.63, -112606.12, 0.13214882, 0.37100914, -155271.64, 177304.64, 0.0, 10.001989, 9.997996 
2.1150886e+3, 2.760669e+2, -149851.0, -403169.72, -93436.23, 0.20971423, 0.49415916, -119116.195, 115467.805, 0.0, 10.001538, 9.99815 
2.1151015e+3, 2.8606516e+2, 72235.57, -176747.4, 3903.1538, 0.14989023, 0.46989983, 72296.74, 208895.05, 0.00000005479561, 10.002093, 9.998766 
2.115115e+3, 2.9606295e+2, 369447.7, -15202.472, -7313.5737, 0.043367285, 0.34903145, 369586.7, 408200.9, 0.0000044705935, 10.003602, 9.998474 
2.115132e+3, 3.0605835e+2, 273238.22, -285043.53, -25070.191, 0.2541523, 0.16980846, 274361.75, 274361.75, 0.00002695633, 10.003684, 9.996249 
2.1151485e+3, 3.160563e+2, 363304.0, -39811.098, 4890.5225, 0.3754211, 0.2917185, 363363.3, 363363.3, 0.00007316576, 10.003423, 9.998056 
2.1249004e+3, 1.2605487e+2, -1876491.6, -2276008.0, -84223.8, -0.19942307, 0.9991938, -1859461.9, -154759.16, 0.48543465, 10.000922, 9.995687 
2.1249114e+3, 1.3605024e+2, -1514294.6, -1199913.6, -143678.95, -0.06872921, -0.04158601, -1144142.9, 462602.28, 0.3637423, 9.998591, 10.005115 
2.1249233e+3, 1.4606169e+2, -1824935.1, -1500236.0, -52034.484, -0.19737591, 0.76782966, -1492101.1, 16531.557, 0.23315269, 9.997132, 10.001538 
2.1249405e+3, 1.5605989e+2, -1539857.1, -1344355.1, -87057.03, -0.01945679, 0.43025365, -1311208.5, 99443.27, 0.1197026, 9.998559, 10.00129 
2.1249546e+3, 1.6605923e+2, -1510106.6, -1475728.8, -151414.98, 0.029023716, 0.33638397, -1340530.3, -27868.867, 0.044803485, 9.998964, 9.999444 
2.124967e+3, 1.7606105e+2, -1460348.6, -1392143.0, -108500.61, -0.029874006, 0.562567, -1312512.0, -97864.65, 0.01004214, 9.998613, 9.999502 
2.1249798e+3, 1.8606141e+2, -1251343.8, -1226581.4, -82133.71, -0.013627966, 0.64051604, -1155900.9, -39256.742, 0.0007722133, 9.999307, 9.999636 
2.1249932e+3, 1.9606009e+2, -939532.2, -1028759.94, -52436.836, 0.04279859, 0.5332562, -915298.25, 103356.97, 0.000010944595, 10.000808, 9.999589 
2.1250054e+3, 2.0605843e+2, -842471.4, -989463.2, -38800.414, 0.022646258, 0.43570492, -832858.2, 87811.9, 0.0, 10.00104, 9.999079 
2.125017e+3, 2.160567e+2, -825053.25, -928214.25, -40403.754, -0.058001064, 0.34360301, -811112.7, 11573.1455, 0.0, 10.00049, 9.999085 
2.1250293e+3, 2.2605652e+2, -688075.3, -816790.06, -79294.43, -0.03660903, 0.41883862, -650307.9, 74381.03, 0.0, 10.000777, 9.999045 
2.1250412e+3, 2.3605724e+2, -463276.34, -647448.6, -95968.82, 0.036724813, 0.5737644, -422359.2, 204325.47, 0.0, 10.001614, 9.999125 
2.1250534e+3, 2.4605602e+2, -342583.8, -506180.84, -85373.48, 0.061434958, 0.52101237, -306146.88, 222548.67, 0.0, 10.00162, 9.999422 
2.1250655e+3, 2.560536e+2, -323620.9, -452088.38, -121044.5, 0.05013091, 0.3232338, -250822.73, 179892.8, 0.0, 10.001115, 9.999358 
2.1250778e+3, 2.6605296e+2, -210330.72, -425774.72, -111071.07, 0.10162873, 0.36431792, -163324.53, 169394.06, 0.0, 10.001547, 9.998667 
2.1250904e+3, 2.7605322e+2, 27452.271, -262321.97, -59706.06, 0.1810474, 0.5075632, 39272.176, 273985.84, 0.0, 10.00253, 9.9986315 
2.125104e+3, 2.86051e+2, 102536.37, -320358.5, 41176.324, 0.15003733, 0.4908944, 106508.305, 243242.89, 0.000000117451826, 10.002971, 9.997363 
2.1251184e+3, 2.960476e+2, 209936.48, -223387.53, -64710.805, 0.06954015, 0.39173824, 219393.73, 258162.02, 0.0000050467984, 10.00308, 9.997288 
2.125136e+3, 3.0604303e+2, 291444.53, -230274.31, -71185.375, 0.3100228, 0.24005318, 300982.97, 300982.97, 0.00002692745, 10.003561, 9.996708 
2.1251516e+3, 3.1604055e+2, 349753.3, -72067.8, -59224.35, 0.38172233, 0.28490785, 357910.75, 357910.75, 0.00007081512, 10.003396, 9.997863 
2.13491e+3, 1.3603301e+2, -1600008.6, -1315334.8, -266387.47, -0.09756616, -0.12018756, -1155641.8, 451271.97, 0.38411817, 9.9986315, 10.004123 
2.134921e+3, 1.4604437e+2, -1852063.8, -1566730.0, -16995.986, -0.17769046, 0.76272136, -1565721.3, -56917.426, 0.24951555, 9.997188, 10.001024 
2.1349406e+3, 1.5604335e+2, -1538332.0, -1350434.3, -38822.813, 0.11750221, 0.5303875, -1342728.8, 68089.76, 0.13052814, 9.998588, 10.001224 
2.1349554e+3, 1.6604263e+2, -1417680.0, -1297461.4, -165113.25, 0.16729034, 0.35986528, -1181856.4, 130969.44, 0.050404422, 9.999018, 10.000674 
2.1349658e+3, 1.7604321e+2, -1379686.4, -1235079.5, -112970.86, -0.021739766, 0.34851706, -1173255.4, 41562.004, 0.012084308, 9.998655, 10.000562 
2.1349788e+3, 1.8604372e+2, -1193512.4, -1116124.9, -27686.191, -0.059921738, 0.3541799, -1107239.9, 9570.494, 0.001155736, 9.999344, 10.000378 
2.134994e+3, 1.960437e+2, -885707.1, -921378.4, -526.03955, 0.039830204, 0.29802442, -885699.4, 133109.92, 0.000030850606, 10.000821, 10.00032 
2.1350066e+3, 2.0604412e+2, -835264.5, -964236.3, -65001.41, 0.027824793, 0.36411357, -808188.4, 112616.836, 0.0, 10.0009985, 9.999273 
2.1350175e+3, 2.1604493e+2, -825429.2, -915604.75, -51841.242, -0.07282303, 0.5087482, -801811.6, 20986.516, 0.0, 10.000433, 9.999201 
2.1350297e+3, 2.2604382e+2, -728891.2, -876883.8, -47385.516, -0.060120914, 0.50523955, -715019.2, 9791.601, 0.0, 10.000673, 9.99868 
2.1350431e+3, 2.3604129e+2, -505254.44, -716906.8, -63069.598, 0.041128237, 0.37235713, -487885.84, 138952.05, 0.0, 10.001536, 9.998685 
2.1350546e+3, 2.460401e+2, -408174.28, -617418.56, -108012.09, 0.009582535, 0.38325095, -362422.22, 166428.0, 0.0, 10.001515, 9.998707 
2.1350652e+3, 2.560399e+2, -366107.4, -528578.7, -127642.43, -0.10594334, 0.47504205, -296042.6, 134809.45, 0.0, 10.001064, 9.998857 
2.1350779e+3, 2.6603872e+2, -137177.61, -247893.7, -76189.82, -0.06000272, 0.41386172, -98358.15, 234498.14, 0.0, 10.001446, 9.999932 
2.1350923e+3, 2.7603674e+2, 75040.53, -148260.38, -19292.756, 0.10102411, 0.21078886, 76695.13, 311559.28, 0.00000000014169585, 10.002464, 9.999447 
2.1351069e+3, 2.8603366e+2, -96386.016, -686279.94, 38448.246, 0.12722917, 0.20655538, -93890.586, 43006.848, 0.000000256191, 10.002782, 9.994932 
2.1351223e+3, 2.9603037e+2, 62531.406, -516978.44, -38401.117, 0.13094951, 0.35380396, 65064.973, 104007.586, 0.0000052967753, 10.00301, 9.995313 
2.1351379e+3, 3.0602995e+2, 316924.97, -55638.367, -58917.06, 0.12311025, 0.62679833, 326020.06, 326020.06, 0.000025183504, 10.003102, 9.998098 
2.1351519e+3, 3.160241e+2, 320452.78, 30153.926, -67546.42, 0.012811331, 0.20602053, 335399.8, 335399.8, 0.00006321881, 10.002761, 9.998843 
2.1449067e+3, 1.3601854e+2, -1774368.8, -1526927.3, -187442.55, -0.24403073, -0.06673782, -1426056.1, 180997.31, 0.40760165, 9.998061, 10.002166 
2.1449208e+3, 1.4602754e+2, -1523336.5, -1419158.4, 62991.773, 0.012284153, 0.6648753, -1389508.6, 119460.22, 0.26811564, 9.999426, 10.00119 
2.1449384e+3, 1.5602772e+2, -1601762.6, -1355320.0, 101789.41, 0.08724595, 0.5253689, -1318714.6, 92255.37, 0.14296411, 9.998036, 10.00148 
2.1449532e+3, 1.6602743e+2, -1548092.4, -1317696.6, -38129.11, 0.10797997, 0.3656055, -1311550.5, 1421.1862, 0.057087187, 9.997948, 10.0010195 
2.1449648e+3, 1.7602739e+2, -1323370.4, -1174564.0, -50328.016, -0.0012669412, 0.25781175, -1159141.0, 55826.82, 0.014719365, 9.998905, 10.00086 
2.144978e+3, 1.8602788e+2, -1250071.8, -1160253.9, -13999.37, -0.045129925, 0.25551948, -1158122.4, -41160.28, 0.0017550356, 9.999044, 10.000216 
2.1449931e+3, 1.9602835e+2, -1199759.3, -1088836.4, -67291.555, -0.021055143, 0.27134416, -1057096.3, -38137.473, 0.00008036648, 9.998743, 10.000176 
2.145006e+3, 2.0602924e+2, -1046075.2, -1011229.5, -152555.67, -0.026471175, 0.36600006, -875105.0, 45845.367, 0.000000018813253, 9.999314, 9.999764 
2.1450178e+3, 2.1603052e+2, -773761.06, -841005.6, -126412.53, -0.08406132, 0.50666237, -676575.9, 146361.53, 0.0, 10.000576, 9.999643 
2.145031e+3, 2.2602932e+2, -739877.25, -900451.8, -107179.586, -0.0014047322, 0.4843465, -686248.44, 38701.87, 0.0, 10.000669, 9.998527 
2.1450451e+3, 2.3602632e+2, -735522.75, -841111.5, -111258.45, 0.17795362, 0.32217348, -665168.06, -38185.953, 0.0, 10.000009, 9.998572 
2.1450566e+3, 2.4602535e+2, -539494.0, -645576.8, -85836.414, 0.1179878, 0.3425687, -491633.06, 37358.563, 0.0, 10.00046, 9.999026 
2.1450664e+3, 2.560257e+2, -261259.98, -453416.72, -36972.668, -0.11186201, 0.45964256, -254391.61, 176595.22, 0.0, 10.001671, 9.999084 
2.1450798e+3, 2.6602408e+2, -50868.637, -276358.22, -20446.477, -0.064690106, 0.37644687, -49029.63, 283966.3, 0.0, 10.002327, 9.999319 
2.1450955e+3, 2.7602112e+2, 65124.12, -206949.55, -112265.59, 0.16019237, 0.13598768, 105466.375, 340481.7, 0.00000000016893417, 10.002629, 9.998964 
2.1451107e+3, 2.8601822e+2, 8299.495, -585565.75, 27280.803, 0.19190823, 0.14420222, 9550.079, 146596.81, 0.0000002738674, 10.003264, 9.995405 
2.1451257e+3, 2.9601532e+2, 249998.06, -364807.44, 138232.19, 0.11076548, 0.28723496, 279648.1, 318735.0, 0.0000047479944, 10.004043, 9.995856 
2.1451406e+3, 3.060162e+2, 341685.13, -63422.055, 102346.12, 0.087482035, 0.6627408, 366073.56, 366073.56, 0.00002151286, 10.003272, 9.998009 
2.1451545e+3, 3.1601018e+2, 107144.586, -54399.832, -73629.734, 0.09937441, 0.2378416, 135667.8, 135667.8, 0.00005359743, 10.001197, 9.999014 
2.1549013e+3, 1.3600743e+2, -1965312.0, -1885331.1, -38966.113, -0.61397564, 0.16552283, -1869486.1, -262328.2, 0.43279883, 9.998066, 9.99904 
2.1549234e+3, 1.4601086e+2, -1458482.9, -1330171.9, 6640.1353, 0.2787304, 0.43249708, -1329829.1, 179301.75, 0.28823382, 9.999564, 10.001992 
2.1549343e+3, 1.5601297e+2, -1555170.8, -1283245.4, 59451.746, -0.15857847, 0.4104019, -1270815.5, 140290.98, 0.15688464, 9.998083, 10.002033 
2.154948e+3, 1.660137e+2, -1582601.1, -1398875.4, -4733.515, -0.21477057, 0.36833957, -1398753.5, -85655.93, 0.06501248, 9.997992, 10.000439 
2.1549636e+3, 1.7601356e+2, -1356906.1, -1246116.1, -15521.562, -0.014080182, 0.2962812, -1243982.6, -28884.072, 0.018139776, 9.998919, 10.000354 
2.1549775e+3, 1.860137e+2, -1324633.3, -1326492.3, -28517.191, -0.028060855, 0.3456809, -1297030.4, -179929.75, 0.0026903055, 9.999088, 9.999057 
2.1549903e+3, 1.9601394e+2, -1266290.5, -1230693.0, -67904.086, -0.18006028, 0.4514145, -1178293.8, -159189.36, 0.00019736934, 9.998762, 9.99919 
2.1550038e+3, 2.0601374e+2, -997496.44, -909012.06, -105913.32, -0.20121773, 0.44179416, -838471.8, 82634.01, 0.0000007869328, 9.999306, 10.000471 
2.155018e+3, 2.1601325e+2, -732773.4, -747390.3, -81912.0, -0.13116455, 0.33346725, -657844.44, 165260.81, 0.0, 10.000533, 10.000308 
2.1550328e+3, 2.2601275e+2, -751226.6, -902816.94, -133864.47, 0.08456996, 0.34722567, -673188.75, 51921.227, 0.0, 10.00058, 9.998551 
2.1550477e+3, 2.3601215e+2, -735205.56, -823669.75, -124295.85, 0.40085283, 0.42044792, -647506.06, -20386.885, 0.0, 9.999938, 9.998725 
2.1550593e+3, 2.4601156e+2, -463652.06, -459150.06, -43117.07, 0.32404616, 0.3970596, -418225.28, 110896.7, 0.0, 10.000342, 10.000358 
2.1550693e+3, 2.5601083e+2, -205490.64, -323481.7, 8395.956, -0.010949201, 0.28072587, -204896.2, 226225.53, 0.0, 10.001613, 10.000005 
2.155083e+3, 2.6600882e+2, -238311.86, -637709.25, -13029.726, 0.012542135, 0.2493809, -237887.23, 95252.695, 0.0, 10.002215, 9.996886 
2.1550997e+3, 2.7600595e+2, -72707.8, -481005.4, -92120.234, 0.302771, 0.25521412, -52885.906, 182284.89, 0.0, 10.002577, 9.9971075 
2.1551146e+3, 2.8600398e+2, 207117.25, -125601.74, 54531.53, 0.252839, 0.26022145, 215826.8, 353016.5, 0.000000100631844, 10.003087, 9.998635 
2.1551281e+3, 2.9600227e+2, 414817.44, 7325.7944, 171887.83, -0.049093936, 0.20127143, 477638.28, 516841.94, 0.0000031808088, 10.003908, 9.99848 
2.155143e+3, 3.0600098e+2, 156458.56, -319553.13, 13946.467, -0.03034645, 0.33624664, 156866.83, 156866.83, 0.000016571294, 10.002766, 9.996463 
2.1551585e+3, 3.159999e+2, -65354.258, -341278.56, -36489.203, 0.35018745, 0.5348172, -60610.355, -60610.355, 0.000044980578, 10.000893, 9.997189 
2.1649006e+3, 1.3599613e+2, -1939095.8, -1888937.6, -75134.875, -0.47726995, 0.42290646, -1834806.8, -227537.63, 0.45757636, 9.998292, 9.998914 
2.1649209e+3, 1.4599507e+2, -1829618.8, -1487134.4, 37029.906, 0.20492728, 0.2551058, -1483176.4, 26106.566, 0.3088363, 9.997005, 10.001728 
2.1649314e+3, 1.5599735e+2, -1566508.8, -1329375.1, -8714.969, -0.25618467, 0.28640497, -1329055.3, 82198.67, 0.17204043, 9.998207, 10.0015955 
2.1649458e+3, 1.659984e+2, -1561461.8, -1457865.0, -82819.48, -0.24955598, 0.3308097, -1411979.5, -98736.64, 0.07433442, 9.998427, 9.999823 
2.1649632e+3, 1.7599833e+2, -1445740.5, -1343904.9, -101709.0, 0.06410612, 0.3221582, -1281080.3, -65833.71, 0.022589553, 9.998538, 9.9998665 
2.1649773e+3, 1.8599832e+2, -1317768.0, -1311241.6, -65878.695, 0.057823643, 0.37036818, -1248545.3, -131294.48, 0.00413868, 9.999074, 9.999172 
2.1649897e+3, 1.959984e+2, -1081705.5, -1138417.3, -20142.193, -0.17963997, 0.4515795, -1075279.8, -56025.043, 0.00045452762, 9.999999, 9.999233 
2.1650031e+3, 2.0599797e+2, -910395.56, -903525.3, -54883.586, -0.23577759, 0.43509835, -851969.44, 69289.4, 0.000007502901, 10.000059, 10.000143 
2.1650179e+3, 2.1599714e+2, -871778.0, -841044.75, -118836.75, -0.17786887, 0.32837242, -736585.25, 86678.45, 0.0, 9.999697, 10.000068 
2.1650328e+3, 2.2599669e+2, -800588.3, -843727.9, -181812.72, 0.058436017, 0.3178056, -639070.4, 86196.12, 0.0, 9.999892, 9.999284 
2.1650478e+3, 2.3599643e+2, -601810.5, -688857.94, -124968.2, 0.41054705, 0.353277, -513003.7, 114264.32, 0.0, 10.000555, 9.99935 
2.1650608e+3, 2.4599585e+2, -379086.66, -468995.22, -59847.664, 0.39705065, 0.3277376, -349190.22, 180080.5, 0.0, 10.001133, 9.999913 
2.165072e+3, 2.5599498e+2, -221313.44, -365048.0, -144232.53, 0.11779478, 0.23850642, -132035.05, 299240.06, 0.0, 10.001668, 9.9996805 
2.1650861e+3, 2.659934e+2, -235829.92, -614670.9, -112278.32, 0.12019385, 0.25070202, -205053.8, 128237.02, 0.0, 10.002149, 9.99707 
2.1651024e+3, 2.7599117e+2, -51447.535, -445107.84, -11529.933, 0.32919654, 0.3086659, -51110.125, 184205.69, 0.0, 10.002627, 9.997322 
2.1651174e+3, 2.8598943e+2, 161614.34, -104841.79, 87693.72, 0.25506124, 0.30460897, 187885.2, 325216.9, 0.0000000029805467, 10.002574, 9.99903 
2.1651307e+3, 2.9598778e+2, 167545.78, -59175.04, -21916.775, -0.09556874, 0.21798453, 169645.02, 208989.17, 0.0000013452404, 10.002007, 9.998924 
2.165146e+3, 3.0598605e+2, 177294.05, -302772.75, -171003.47, -0.01612518, 0.27035487, 231977.83, 231977.83, 0.000010696579, 10.002846, 9.996554 
2.1651621e+3, 3.159852e+2, 565196.1, 2070.0952, -152321.33, 0.4115882, 0.49459478, 603757.3, 603757.3, 0.000035608395, 10.005054, 9.997543 
2.1749052e+3, 1.3598448e+2, -1736381.0, -1568987.0, -248986.2, 0.08312932, 0.6809011, -1390006.8, 217382.36, 0.48078975, 9.998793, 10.001763 
2.1749133e+3, 1.4598037e+2, -1934205.6, -1690272.4, 111531.82, -0.28213814, 0.14711191, -1646965.9, -137542.92, 0.32934, 9.997005, 10.00025 
2.1749297e+3, 1.5598083e+2, -1675268.9, -1537154.1, 29798.002, -0.25081575, 0.15412228, -1530999.6, -119586.8, 0.18832743, 9.998205, 10.000049 
2.1749462e+3, 1.6598131e+2, -1593898.3, -1550412.0, -85869.91, -0.06633547, 0.24910979, -1483575.3, -170165.78, 0.0852701, 9.998527, 9.999142 
2.1749632e+3, 1.7598164e+2, -1471221.9, -1407469.4, -88711.07, 0.1876335, 0.33863202, -1345081.4, -129668.93, 0.028395085, 9.998586, 9.999403 
2.1749775e+3, 1.8598162e+2, -1219263.5, -1122059.1, -35406.836, 0.15536737, 0.3383875, -1110529.6, 6883.8535, 0.006367479, 9.999136, 10.000441 
2.1749909e+3, 1.9598153e+2, -1004524.7, -982794.1, 10622.922, -0.05683257, 0.27335247, -978464.0, 40947.164, 0.0009868387, 10.000016, 10.000292 
2.1750039e+3, 2.0598175e+2, -1006414.5, -1107181.4, -73261.99, -0.19126838, 0.3492111, -967883.3, -46472.113, 0.000047582707, 10.00007, 9.998745 
2.1750166e+3, 2.1598205e+2, -959410.2, -1011908.06, -124792.836, -0.26499146, 0.49181965, -858135.56, -34721.543, 0.00000000032497088, 9.999646, 9.99892 
2.1750307e+3, 2.2598098e+2, -719442.25, -648464.06, -158652.94, -0.12625992, 0.39770845, -521379.4, 204041.44, 0.0, 9.999778, 10.000677 
2.1750462e+3, 2.3597899e+2, -537470.56, -538983.0, -94923.65, 0.16966581, 0.1185854, -443300.13, 184130.23, 0.0, 10.000485, 10.00041 
2.1750608e+3, 2.4597813e+2, -549142.06, -787714.6, -43171.91, 0.26615095, 0.13296291, -541570.06, -12131.015, 0.0, 10.000997, 9.997785 
2.175075e+3, 2.55978e+2, -350770.56, -612355.4, -119363.055, 0.22673139, 0.32502165, -304491.8, 126956.055, 0.0, 10.001581, 9.998021 
2.1750891e+3, 2.6597753e+2, -69658.266, -234449.53, -98836.51, 0.19298433, 0.3782574, -23377.19, 310073.7, 0.0, 10.002007, 9.999744 
2.1751037e+3, 2.7597666e+2, 85524.195, -140008.66, 10565.663, 0.1927221, 0.30571547, 86018.09, 321470.1, 0.0, 10.002547, 9.999451 
2.1751185e+3, 2.859744e+2, -33550.063, -459874.06, 61680.313, 0.09183875, 0.2865984, -24805.555, 112670.06, 0.0, 10.002375, 9.996678 
2.1751326e+3, 2.959714e+2, 21917.012, -354996.16, -29579.984, -0.123320065, 0.28826773, 24224.31, 63737.465, 0.00000028754212, 10.001971, 9.996911 
2.1751489e+3, 3.059699e+2, 230318.95, -98961.625, -105767.83, -0.023616752, 0.37799814, 261365.3, 261365.3, 0.0000061160813, 10.002507, 9.998087 
2.1751668e+3, 3.159672e+2, 622970.25, 263069.13, -77903.93, 0.33198708, 0.25446248, 639109.5, 639109.5, 0.00002746077, 10.00447, 9.999614 
2.1849117e+3, 1.4596549e+2, -1734262.3, -1624478.5, -54202.14, -0.21389888, 0.2182302, -1602227.8, -92661.28, 0.34983045, 9.998503, 9.999974 
2.1849282e+3, 1.5596534e+2, -1458676.3, -1503909.5, -32699.918, -0.31628776, 0.23993969, -1441533.6, -29970.469, 0.2059314, 10.000003, 9.9994135 
2.1849476e+3, 1.6596329e+2, -1354362.4, -1425842.4, -126331.75, 0.13086075, 0.10722005, -1258812.4, 54772.13, 0.09816949, 10.000172, 9.99922 
2.1849614e+3, 1.7596468e+2, -1292318.1, -1313191.4, -83503.57, 0.11399882, 0.29876715, -1218601.5, -3025.5857, 0.036017943, 9.999803, 9.999463 
2.1849759e+3, 1.8596531e+2, -1158127.8, -1079041.1, -32569.67, 0.042446505, 0.3551767, -1067355.0, 50215.234, 0.009796201, 9.999503, 10.000558 
2.1849917e+3, 1.9596502e+2, -1088684.0, -1014318.7, -86300.09, 0.033389065, 0.25932917, -957531.94, 62038.59, 0.0020521113, 9.999405, 10.000365 
2.1850051e+3, 2.0596483e+2, -1140888.8, -1176259.9, -165014.16, -0.024158726, 0.29618707, -992615.1, -71040.63, 0.00020967671, 9.999183, 9.998694 
2.1850169e+3, 2.1596482e+2, -1052655.5, -1057219.8, -122949.68, -0.16490638, 0.4126389, -931966.75, -108386.88, 0.00000086887735, 9.999016, 9.998912 
2.1850306e+3, 2.2596411e+2, -714147.5, -635795.0, -116835.6, -0.11883534, 0.34804267, -551742.44, 173840.97, 0.0, 9.999755, 10.000784 
2.185046e+3, 2.359629e+2, -432292.28, -472349.0, -158557.28, 0.06826415, 0.13644232, -292503.4, 335082.53, 0.0, 10.001151, 10.000544 
2.185061e+3, 2.4596213e+2, -437690.06, -744423.6, -71732.5, 0.16942818, 0.1591522, -421743.75, 107850.266, 0.0, 10.001795, 9.997705 
2.1850765e+3, 2.5596148e+2, -301839.53, -599637.25, -8418.547, 0.19566429, 0.31368864, -301601.72, 130006.06, 0.0, 10.001944, 9.997947 
2.1850911e+3, 2.659609e+2, -60584.125, -222564.03, -33891.22, 0.1702973, 0.35117266, -53778.934, 279833.16, 0.0, 10.002015, 9.999834 
2.1851052e+3, 2.7596012e+2, 27393.932, -165629.64, -126424.08, 0.11950047, 0.2824877, 89934.26, 325546.8, 0.0, 10.002122, 9.999492 
2.1851209e+3, 2.8595784e+2, -36901.633, -497569.22, -61465.633, 0.0843115, 0.27204508, -28841.469, 108796.15, 0.0, 10.002495, 9.99637 
2.1851365e+3, 2.9595453e+2, 175911.34, -307497.4, -22489.613, 0.007645557, 0.28647888, 176955.38, 216635.7, 0.000000027227998, 10.003144, 9.996676 
2.1851528e+3, 3.0595344e+2, 394912.38, 40974.305, -45645.332, 0.07408671, 0.38786083, 400704.2, 400704.2, 0.0000044959556, 10.003324, 9.998684 
2.1851696e+3, 3.1595105e+2, 468273.0, 328374.25, -123276.375, 0.2792126, 0.25266853, 540062.75, 540062.75, 0.000025056414, 10.002731, 10.000926 
2.1949157e+3, 1.459496e+2, -1652895.3, -1481881.8, -109616.27, 0.3226693, 0.43247488, -1428366.5, 81355.2, 0.371045, 9.99854, 10.001198 
2.1949263e+3, 1.5595075e+2, -1433530.3, -1457044.0, 15244.516, -0.5079665, 0.55303156, -1426035.6, -14328.481, 0.22535217, 10.000031, 9.9997225 
2.1949494e+3, 1.6594432e+2, -1297434.3, -1315911.6, -142650.06, 0.284346, -0.07403279, -1163724.0, 150044.33, 0.113554515, 10.000233, 9.999992 
2.1949582e+3, 1.759473e+2, -1250023.3, -1227719.0, -91257.41, -0.19420299, 0.20197694, -1146934.9, 68803.52, 0.046104282, 9.999823, 10.000049 
2.1949717e+3, 1.8594916e+2, -1226469.3, -1229704.9, -34449.305, -0.3364246, 0.4101666, -1193599.8, -75876.336, 0.015073848, 9.999538, 9.999507 
2.1949913e+3, 1.9594884e+2, -1149913.6, -1140939.4, -84659.49, 0.045029443, 0.4186126, -1060648.1, -40915.266, 0.004138987, 9.99941, 9.999491 
2.1950066e+3, 2.0594722e+2, -1057283.1, -1003456.9, -175405.22, 0.19397786, 0.2887615, -852912.1, 68836.61, 0.00072646124, 9.999184, 9.999879 
2.1950184e+3, 2.1594532e+2, -988651.2, -912011.9, -121337.62, 0.073195495, 0.09091261, -823086.8, 676.10803, 0.000022642807, 9.998966, 9.999927 
2.1950318e+3, 2.259459e+2, -812864.94, -813172.25, -66904.16, 0.01931554, 0.17200749, -746114.25, -20358.55, 0.000000000011542125, 9.999636, 9.999623 
2.1950468e+3, 2.3594794e+2, -500947.34, -604053.4, -106637.48, 0.05973854, 0.39776304, -434055.16, 193681.39, 0.0, 10.001101, 9.999661 
2.1950617e+3, 2.4594755e+2, -329778.66, -483209.53, -73105.99, 0.04190509, 0.3963385, -300523.6, 229214.97, 0.0, 10.001646, 9.999563 
2.1950762e+3, 2.5594538e+2, -212110.23, -393903.63, -570.5423, -0.01867087, 0.2080334, -212108.44, 219648.02, 0.0, 10.001865, 9.999392 
2.1950912e+3, 2.6594335e+2, -265718.94, -601581.56, -35206.16, -0.020336205, 0.17651613, -262068.22, 71708.086, 0.0, 10.001832, 9.997307 
2.1951067e+3, 2.7594128e+2, -130006.07, -473104.97, -114920.195, 0.048763502, 0.22415449, -95070.984, 140728.39, 0.0, 10.002052, 9.997403 
2.195124e+3, 2.8593922e+2, 55856.645, -279270.47, -43264.31, 0.13117819, 0.24141379, 61351.88, 199174.52, 0.0, 10.002397, 9.997912 
2.1951419e+3, 2.9593715e+2, 246358.4, -132494.77, 12189.467, 0.22879511, 0.23011488, 246750.2, 286596.2, 0.000000020729713, 10.003026, 9.997934 
2.1951565e+3, 3.059362e+2, 317701.6, -26716.34, -61688.81, 0.07284694, 0.31537333, 328417.3, 328417.3, 0.0000055230016, 10.002963, 9.9983635 
2.1951714e+3, 3.1593364e+2, 334106.4, 163878.75, -4512.833, 0.15222265, 0.17735597, 334225.97, 334225.97, 0.000029811183, 10.002299, 9.999971 
2.2049136e+3, 1.459275e+2, -1700786.1, -1507536.4, -153333.63, 0.25731903, 0.15782294, -1422922.3, 87010.336, 0.39437363, 9.998234, 10.001208 
2.2049253e+3, 1.5593322e+2, -1430356.9, -1371856.3, -31760.096, -0.600274, 0.6689581, -1357929.1, 53948.43, 0.24751917, 9.999639, 10.000608 
2.2049505e+3, 1.6592649e+2, -1424218.6, -1330322.4, -232446.5, 0.4188641, -0.06951012, -1140130.3, 173812.03, 0.13222682, 9.999112, 10.000491 
2.2049578e+3, 1.759291e+2, -1442691.9, -1310904.8, -219176.98, -0.15602848, 0.14982948, -1147930.4, 67983.51, 0.059555795, 9.998406, 10.000191 
2.20497e+3, 1.8593101e+2, -1450097.4, -1359379.6, -122634.586, -0.37244743, 0.36882055, -1273984.3, -156084.95, 0.023171267, 9.998087, 9.999324 
2.2049892e+3, 1.9593112e+2, -1358914.9, -1250031.0, -112020.41, -0.007298125, 0.43744025, -1179923.8, -160016.4, 0.008108057, 9.997999, 9.999435 
2.2050059e+3, 2.0592992e+2, -1054699.1, -914142.6, -153287.81, 0.2151182, 0.30704293, -815790.56, 106127.25, 0.0021629941, 9.998811, 10.000682 
2.2050193e+3, 2.1592832e+2, -732767.06, -719662.06, -138525.42, 0.19136526, 0.064621545, -587534.25, 236390.58, 0.00023583506, 10.000411, 10.000559 
2.205033e+3, 2.2592862e+2, -692704.1, -843254.56, -80334.92, 0.10645397, 0.13585624, -657888.25, 68033.08, 0.0000019906881, 10.000847, 9.998829 
2.2050473e+3, 2.3593016e+2, -633428.5, -744775.4, -108729.41, 0.01255656, 0.3907798, -566947.9, 60963.652, 0.0, 10.000509, 9.998991 
2.205062e+3, 2.459297e+2, -502819.72, -501346.4, -130772.59, -0.011524556, 0.38512635, -371308.4, 158605.58, 0.0, 10.000172, 10.000153 
2.2050771e+3, 2.55928e+2, -457465.4, -442329.16, -160047.75, -0.019822745, 0.18238868, -289670.7, 142252.72, 0.0, 9.999927, 9.999969 
2.205093e+3, 2.659261e+2, -402833.53, -713627.9, -93296.11, 0.025110943, 0.15056114, -376978.25, -43035.863, 0.0, 10.00108, 9.996909 
2.20511e+3, 2.7592352e+2, 27437.14, -437286.34, -28274.275, 0.11717002, 0.19398667, 29151.057, 265123.34, 0.0, 10.003298, 9.997057 
2.2051272e+3, 2.8592148e+2, 230728.28, -165997.16, 6768.7856, 0.16145298, 0.20991173, 230843.73, 368838.63, 0.0, 10.00348, 9.998169 
2.2051436e+3, 2.9591957e+2, 179403.06, -133813.5, -49609.125, 0.13595058, 0.19942486, 187072.66, 227087.31, 0.00000007580395, 10.002432, 9.998216 
2.2051592e+3, 3.0591947e+2, 299454.16, -19189.332, -97005.19, 0.07673384, 0.33313683, 326662.38, 326662.38, 0.0000083740215, 10.002733, 9.998548 
2.2051758e+3, 3.1591603e+2, 493750.97, 118589.49, -30256.12, 0.2833791, 0.12516978, 496175.4, 496175.4, 0.000042885644, 10.003886, 9.99891 
2.214905e+3, 1.4590093e+2, -1763497.3, -1608380.1, -8930.662, -0.4451401, -0.3970326, -1607867.6, -97685.78, 0.4221777, 9.998212, 10.000215 
2.2149248e+3, 1.5591228e+2, -1349779.3, -1216402.1, -7447.963, -0.61490935, 0.57493144, -1215987.5, 196091.0, 0.27423543, 9.999625, 10.002093 
2.2149502e+3, 1.6590944e+2, -1404779.4, -1293512.4, -270298.75, 0.45839205, 0.122556955, -1073181.3, 240928.05, 0.15564767, 9.999137, 10.000808 
2.2149597e+3, 1.7590998e+2, -1458942.0, -1342390.8, -239162.81, 0.18224002, 0.14924186, -1154506.1, 61597.32, 0.07778218, 9.998393, 9.999986 
2.2149709e+3, 1.8591084e+2, -1400130.3, -1268651.9, -127858.7, -0.12333256, 0.24408709, -1190622.1, -72523.89, 0.035576556, 9.998134, 9.9999275 
2.2149858e+3, 1.959117e+2, -1309736.0, -1147888.9, -108222.516, -0.16181333, 0.31845495, -1093680.1, -73584.81, 0.0154146915, 9.998, 10.0001335 
2.2150025e+3, 2.059127e+2, -1024808.3, -851261.7, -95917.56, -0.021964137, 0.3484888, -808691.4, 113392.516, 0.005714695, 9.998803, 10.00112 
2.2150193e+3, 2.1591373e+2, -717651.75, -676614.4, -79995.05, 0.14265065, 0.32823598, -614548.44, 209518.16, 0.0013616167, 10.0003605, 10.000878 
2.2150335e+3, 2.2591239e+2, -751772.5, -936488.3, -96410.12, 0.072335236, 0.25578728, -710620.5, 15458.517, 0.00013056793, 10.00072, 9.998251 
2.2150466e+3, 2.3590949e+2, -677782.4, -821987.56, -115451.484, -0.11593108, 0.115545124, -613768.0, 14343.839, 0.0000045921656, 10.0004425, 9.998492 
2.2150618e+3, 2.459086e+2, -577617.6, -616358.5, -147591.13, -0.06537934, 0.1292299, -448131.22, 81988.95, 0.000000030624218, 10.00001, 9.999435 
2.2150786e+3, 2.559093e+2, -501317.84, -515516.94, -157540.94, 0.13916446, 0.22954696, -350716.56, 81393.484, 0.0, 9.99985, 9.999503 
2.2150962e+3, 2.6590863e+2, -311942.0, -484464.75, -21277.28, 0.2286238, 0.256689, -309356.63, 24757.98, 0.0, 10.00092, 9.998552 
2.215115e+3, 2.759067e+2, 100730.625, -247758.16, 45364.36, 0.26734176, 0.19769186, 106539.09, 342671.47, 0.0, 10.003146, 9.9984255 
2.2151299e+3, 2.859044e+2, 106595.35, -352326.38, -42255.57, 0.07659276, 0.1909536, 110453.625, 248610.1, 0.0, 10.003194, 9.997014 
2.2151417e+3, 2.959014e+2, 90268.1, -286500.38, -69084.21, -0.30768713, 0.1812519, 102535.92, 142725.31, 0.00000027397763, 10.0023155, 9.997209 
2.2151609e+3, 3.0590254e+2, 314936.84, 78868.766, -61238.875, -0.04940931, 0.44175315, 329877.38, 329877.38, 0.000015050563, 10.002488, 9.999317 
2.21518e+3, 3.1589788e+2, 278206.9, -197923.83, 48482.95, 0.29423308, 0.039269343, 283093.63, 283093.63, 0.00007034586, 10.003373, 9.996964 
2.2249115e+3, 1.4588644e+2, -823109.25, -1236494.3, -20035.758, -0.17117405, -0.10310829, -822140.44, 688173.94, 0.45833316, 10.009163, 9.999071 
2.224925e+3, 1.5589076e+2, -1686518.4, -1466222.0, 13685.2295, -0.4577226, 0.24088456, -1465375.1, -53088.316, 0.30885017, 9.997787, 10.00075 
2.2249468e+3, 1.6589247e+2, -1576409.4, -1316312.9, -194042.86, 0.2903872, 0.2824068, -1212769.3, 101506.664, 0.18666483, 9.997641, 10.001306 
2.2249597e+3, 1.7589271e+2, -1087264.6, -1092673.8, -116023.195, 0.24860695, 0.21494642, -973914.5, 242358.27, 0.103338934, 10.000735, 10.000637 
2.224972e+3, 1.858929e+2, -1008212.94, -1058346.6, -52398.277, 0.035515744, 0.20064804, -975194.25, 143077.92, 0.054786276, 10.0007715, 10.000129 
2.2249849e+3, 1.9589326e+2, -1093242.1, -1031121.3, -72100.57, -0.13307711, 0.20757368, -983675.44, 36595.45, 0.028543482, 9.999416, 10.0002575 
2.2250007e+3, 2.0589443e+2, -1105550.9, -944325.6, -71982.42, -0.05588524, 0.27274966, -916864.8, 5393.6885, 0.013685946, 9.998483, 10.000628 
2.225018e+3, 2.1589601e+2, -1144269.0, -930843.9, -136965.56, 0.116346866, 0.3598511, -863927.1, -39687.82, 0.005262215, 9.997637, 10.000448 
2.2250329e+3, 2.2589472e+2, -1065040.3, -1067389.0, -120180.26, 0.075791076, 0.29767397, -946028.6, -219776.02, 0.001420654, 9.998462, 9.998449 
2.225047e+3, 2.3589155e+2, -661071.4, -794213.3, -93694.06, -0.099344626, 0.11157149, -612706.44, 15580.436, 0.0002619265, 10.00046, 9.998682 
2.2250627e+3, 2.4589041e+2, -435599.7, -585657.9, -115053.86, -0.024655962, 0.10918233, -373272.47, 157025.28, 0.000035642544, 10.001132, 9.999113 
2.2250795e+3, 2.5589073e+2, -342825.34, -465942.66, -92177.7, 0.19960201, 0.20224214, -293540.88, 138750.84, 0.0000011567587, 10.001021, 9.999298 
2.2250974e+3, 2.658903e+2, -278114.25, -407779.4, 57561.793, 0.27057695, 0.2344193, -256248.36, 78044.94, 0.0, 10.000885, 9.999094 
2.2251166e+3, 2.7588925e+2, -169722.53, -314682.9, 22926.87, 0.2325511, 0.20754364, -166182.86, 70117.88, 0.0, 10.00103, 9.998976 
2.2251321e+3, 2.858871e+2, -202685.86, -518367.56, -95475.91, 0.08386897, 0.19006038, -176056.16, -37733.78, 0.0, 10.001125, 9.99688 
2.2251448e+3, 2.9588306e+2, -43012.32, -389082.7, -55719.32, -0.19948465, 0.106406644, -34262.414, 6102.13, 0.00000073017384, 10.001555, 9.996874 
2.2251643e+3, 3.058833e+2, 319035.7, 20570.436, -16331.352, 0.038537163, 0.31243414, 319926.66, 319926.66, 0.00002755439, 10.002754, 9.998801 
2.2251824e+3, 3.1587863e+2, 369850.47, -200788.98, -105140.48, 0.17232765, -0.026558876, 388606.16, 388606.16, 0.000118261974, 10.004154, 9.996582 
2.2349255e+3, 1.5586904e+2, -1999771.3, -2055144.0, -223856.86, -0.18895979, -0.2783984, -1801895.1, -389396.53, 0.35698506, 9.997568, 9.996795 
2.2349404e+3, 1.6587535e+2, -1550174.4, -1254266.6, -58802.87, -0.14264664, 0.38722852, -1243009.5, 71434.586, 0.23053116, 9.997548, 10.001795 
2.2349583e+3, 1.7587702e+2, -1017674.9, -934574.1, -29691.252, 0.00444699, 0.33159396, -925055.9, 291368.56, 0.14104874, 10.000686, 10.001969 
2.2349727e+3, 1.8587686e+2, -1025006.5, -1087628.0, -111259.164, 0.031245274, 0.22151823, -940736.3, 177687.92, 0.08532412, 10.000774, 9.999942 
2.2349861e+3, 1.9587564e+2, -1122458.5, -1085405.5, -116405.11, 0.03291902, 0.09540124, -986061.8, 34373.75, 0.05187056, 9.999391, 9.9999 
2.2350004e+3, 2.058752e+2, -1214244.9, -1156743.1, -101975.43, 0.05153924, 0.09569, -1079543.1, -157102.13, 0.030293982, 9.99843, 9.999195 
2.2350153e+3, 2.158751e+2, -1235913.5, -1109195.3, -154222.2, 0.07321458, 0.15534948, -1005824.44, -181380.44, 0.015773455, 9.997585, 9.99925 
2.2350313e+3, 2.2587538e+2, -1026606.94, -943795.06, -47818.0, 0.047095127, 0.25710237, -921947.44, -195503.66, 0.0069356123, 9.998286, 9.9993725 
2.2350489e+3, 2.3587614e+2, -609825.75, -668090.7, -21495.232, 0.009083966, 0.3641109, -602754.0, 25684.838, 0.002541045, 10.000378, 9.999581 
2.2350645e+3, 2.4587491e+2, -459769.28, -592645.9, -128390.31, 0.036641944, 0.3123185, -381645.75, 148803.1, 0.00075579167, 10.0009575, 9.999143 
2.2350799e+3, 2.5587234e+2, -352059.6, -458951.03, -92667.15, 0.10798988, 0.09801315, -298530.34, 133938.19, 0.00014769337, 10.00091, 9.999396 
2.2350964e+3, 2.658712e+2, -369798.8, -529242.0, 47337.504, 0.065841556, 0.09520365, -356803.78, -22326.305, 0.000007045108, 10.000613, 9.998378 
2.235115e+3, 2.7587113e+2, -221609.69, -389429.5, 32628.852, -0.028152004, 0.2239156, -215488.97, 20988.99, 0.00000000065814787, 10.000906, 9.9985075 
2.2351333e+3, 2.8586912e+2, -175003.28, -416532.72, -100481.73, 0.09210989, 0.19241814, -138667.1, -170.4805, 0.0, 10.0009575, 9.997645 
2.2351518e+3, 2.9586464e+2, -59692.848, -380279.75, -30350.516, 0.3485567, -0.0047996826, -56844.813, -16306.053, 0.0000012574419, 10.00139, 9.997001 
2.2351685e+3, 3.0586135e+2, 104309.12, -305661.7, 35286.715, 0.14821176, -0.036304526, 107324.12, 107324.12, 0.000044073433, 10.002288, 9.996759 
2.2351846e+3, 3.1586155e+2, 279161.38, -229353.08, -76580.96, -0.04125137, 0.28349134, 290443.94, 290443.94, 0.00018419352, 10.003543, 9.9966545 
2.2449255e+3, 1.5585811e+2, -1038716.3, -1217532.3, -380668.03, -0.32132387, 0.40743756, -737097.5, 675512.9, 0.42759266, 10.004525, 10.000456 
2.2449376e+3, 1.6585803e+2, -1412440.3, -1252304.1, 111025.92, -0.22502607, 0.2832795, -1195486.6, 119122.35, 0.29616648, 9.998768, 10.001356 
2.2449563e+3, 1.7585887e+2, -1487506.1, -1197571.5, -9787.546, -0.07657981, 0.2059823, -1197241.5, 19355.62, 0.19952731, 9.997511, 10.001406 
2.244972e+3, 1.8585902e+2, -1431444.0, -1276018.4, -176152.8, 0.011824348, 0.14412169, -1161197.9, -42602.895, 0.13536815, 9.997868, 10.000013 
2.2449856e+3, 1.958589e+2, -1097941.5, -1071385.6, -156520.13, 0.046163235, 0.12474284, -927581.2, 93015.92, 0.09319166, 9.999545, 9.999967 
2.2450003e+3, 2.0585856e+2, -910158.9, -1039336.3, -79603.414, 0.07942463, 0.13865687, -872237.06, 50364.76, 0.06306426, 10.00063, 9.998969 
2.2450149e+3, 2.1585739e+2, -751807.5, -914895.44, -66119.97, 0.11866017, 0.12932254, -728369.2, 96245.16, 0.0400799, 10.001083, 9.99892 
2.245031e+3, 2.2585689e+2, -724394.3, -841047.94, 48940.117, 0.08970823, 0.18939368, -706582.1, 20040.025, 0.023131557, 10.000519, 9.999019 
2.2450483e+3, 2.3585714e+2, -828152.9, -806688.1, -30511.316, 0.012685423, 0.27529672, -785076.6, -156453.0, 0.011994159, 9.999006, 9.999297 
2.245065e+3, 2.4585621e+2, -643732.2, -670644.6, -143040.86, 0.05155375, 0.26722988, -513516.03, 17115.404, 0.0054928027, 9.999627, 9.999257 
2.2450815e+3, 2.5585493e+2, -208557.39, -366661.7, -116654.1, 0.14494388, 0.16313316, -146693.17, 285945.7, 0.002050329, 10.001785, 9.999618 
2.2450979e+3, 2.6585352e+2, -198572.33, -499275.66, -3575.8408, 0.08658123, 0.1519792, -198529.81, 136121.06, 0.0004876709, 10.002, 9.997927 
2.245116e+3, 2.7585196e+2, -126721.17, -381371.28, 10879.107, -0.072451524, 0.17078358, -126257.24, 110409.586, 0.000047167257, 10.001713, 9.998186 
2.2451353e+3, 2.8585038e+2, 39063.5, -268119.13, -102816.82, 0.115312, 0.1754379, 70300.73, 208982.1, 0.00000034188096, 10.002245, 9.998039 
2.2451557e+3, 2.9584765e+2, 348248.78, -166380.67, -82322.664, 0.47289354, 0.13593183, 361096.78, 401803.16, 0.0000013302117, 10.00412, 9.997158 
2.2451718e+3, 3.0584294e+2, 302051.56, -255505.08, 40691.227, 0.18843356, -0.043021094, 305005.6, 305005.6, 0.0000584347, 10.003786, 9.996404 
2.2451885e+3, 3.1584305e+2, 128644.17, -136998.45, 11828.558, 0.08377297, 0.3172756, 129169.836, 129169.836, 0.00025944764, 10.001729, 9.998173 
2.2549385e+3, 1.6584061e+2, -1597729.9, -1534579.6, 65619.18, -0.06321333, -0.016482985, -1493333.9, -178564.63, 0.39765337, 9.998398, 9.999323 
2.2549546e+3, 1.7583814e+2, -1667123.9, -1551858.1, -64693.51, -0.04284499, -0.1746751, -1522849.3, -306056.9, 0.29298013, 9.997434, 9.998987 
2.2549692e+3, 1.8583922e+2, -1451291.6, -1266240.5, -131168.34, -0.07933932, -0.04220896, -1198247.8, -79461.94, 0.21888196, 9.997652, 10.000178 
2.2549833e+3, 1.9584283e+2, -1092265.5, -1033142.5, -98058.664, -0.14301743, 0.28336376, -960286.25, 60471.793, 0.16615056, 9.999423, 10.000298 
2.2549996e+3, 2.058441e+2, -868416.7, -920634.56, -55850.113, -0.056416962, 0.38237822, -832874.1, 89870.96, 0.12546477, 10.000535, 9.999844 
2.2550169e+3, 2.1584256e+2, -727336.4, -841401.75, -50057.836, 0.18156295, 0.25774312, -708484.2, 116269.52, 0.0914258, 10.001035, 9.999451 
2.2550322e+3, 2.2583914e+2, -856743.3, -1088326.1, -5778.9346, 0.12686433, 0.08985721, -856599.25, -129810.336, 0.062582165, 10.000399, 9.997379 
2.255046e+3, 2.3583463e+2, -936410.75, -1021015.94, -68131.55, -0.12047803, -0.14392619, -898517.25, -269676.8, 0.039919913, 9.998945, 9.997862 
2.2550635e+3, 2.4583454e+2, -697389.06, -691805.44, -73077.74, -0.061686445, 0.0051515615, -621466.2, -90622.75, 0.023601582, 9.999258, 9.999279 
2.2550845e+3, 2.558386e+2, -213923.8, -332943.16, -46378.21, 0.25054199, 0.39911363, -197985.88, 234816.6, 0.012405956, 10.001626, 9.999923 
2.2551015e+3, 2.65837e+2, -258726.27, -566152.44, -48155.273, 0.247245, 0.38128892, -251359.73, 83456.86, 0.005154125, 10.001764, 9.997577 
2.2551186e+3, 2.7583176e+2, -178596.16, -425024.16, 6968.611, 0.017020898, 0.04501369, -178399.25, 58467.645, 0.0013586987, 10.001448, 9.998007 
2.2551367e+3, 2.8583097e+2, -54459.836, -338971.34, -64843.36, 0.029589217, 0.1466153, -40378.26, 98497.46, 0.00015517221, 10.001754, 9.997767 
2.2551568e+3, 2.9583198e+2, 304006.47, -178880.22, -18647.252, 0.15985733, 0.5065063, 304725.47, 345593.7, 0.0000026982873, 10.0038395, 9.997173 
2.255174e+3, 3.058275e+2, 333914.3, -110093.72, -42294.887, 0.00031824017, 0.26721498, 337907.28, 337907.28, 0.000065484004, 10.003491, 9.997521 
2.2551914e+3, 3.1582105e+2, 236750.27, 163155.69, 214354.67, 0.16568863, -0.10935781, 417443.13, 417443.13, 0.00034262595, 10.001428, 10.000385 
2.2649573e+3, 1.7582561e+2, -1064524.3, -1235269.1, -182762.61, 0.26163846, 0.36900264, -948177.5, 268740.84, 0.44342524, 10.00224, 9.999374 
2.2649714e+3, 1.858203e+2, -1341265.0, -1339345.4, -61746.516, 0.32156557, -0.21042968, -1278551.3, -159579.38, 0.3585124, 9.998875, 9.999103 
2.2649825e+3, 1.9582343e+2, -1409237.8, -1268312.3, -156264.63, -0.07862243, 0.18466482, -1167358.5, -146410.39, 0.29413474, 9.997624, 9.999465 
2.2649983e+3, 2.0582466e+2, -1120293.6, -955793.7, -113497.875, -0.12975681, 0.27398857, -897876.5, 25057.088, 0.24160613, 9.998297, 10.000708 
2.2650166e+3, 2.1582401e+2, -786371.94, -799959.1, -103905.336, 0.1001301, 0.15752013, -689038.4, 135892.63, 0.1940874, 10.000286, 10.000205 
2.265033e+3, 2.2582182e+2, -673642.25, -1013152.0, -58361.137, 0.11159033, 0.08027361, -663890.2, 63063.77, 0.14888066, 10.001758, 9.997257 
2.2650474e+3, 2.3581885e+2, -601226.44, -881213.06, -49198.492, -0.024512181, 0.023972996, -592833.0, 36159.27, 0.108788945, 10.00136, 9.997671 
2.2650643e+3, 2.4581793e+2, -541140.25, -722616.94, 44407.51, 0.006521101, 0.14554927, -530856.5, 148.77475, 0.07581198, 10.000706, 9.9984 
2.2650842e+3, 2.5581875e+2, -440223.13, -573007.3, -32040.68, 0.1363794, 0.32417935, -432896.06, 101.5686, 0.048806984, 10.000514, 9.998853 
2.2651015e+3, 2.658164e+2, -397221.47, -639823.25, -101620.94, 0.12537949, 0.292425, -360279.75, -25259.412, 0.026684597, 10.000768, 9.997572 
2.2651201e+3, 2.7581257e+2, -75847.16, -345318.8, -10125.507, 0.020140298, 0.06815472, -75467.22, 161589.06, 0.010897145, 10.001948, 9.998347 
2.2651379e+3, 2.858118e+2, -104923.336, -353769.66, -37561.53, 0.025239266, 0.15530416, -99377.305, 39688.117, 0.002788968, 10.001329, 9.9978895 
2.2651584e+3, 2.9581207e+2, 160840.25, -197382.81, 69491.13, 0.017330078, 0.4251254, 173848.36, 214914.75, 0.0003034348, 10.002649, 9.997614 
2.2651777e+3, 3.0580854e+2, 373583.13, 39402.88, -22556.826, 0.030514546, 0.15645894, 375098.8, 375098.8, 0.000074942734, 10.003259, 9.998645 
2.2651932e+3, 3.1580466e+2, 472655.75, 250365.0, 209847.88, 0.10838111, 0.0693548, 598974.94, 598974.94, 0.00045627917, 10.00309, 10.000228 
2.2749968e+3, 2.058003e+2, -1181627.6, -943917.6, -28624.877, -0.13902918, -0.16985731, -940519.25, -17352.46, 0.4526298, 9.997714, 10.001004 
2.2750162e+3, 2.158017e+2, -915203.56, -782329.2, 36711.418, -0.0099557545, -0.17361194, -772861.0, 52285.543, 0.38963944, 9.998848, 10.00111 
2.2750354e+3, 2.2580494e+2, -1117427.5, -1119718.9, 36903.914, 0.14503708, 0.17684111, -1081651.5, -354534.28, 0.32267725, 9.998157, 9.998242 
2.2750522e+3, 2.3580855e+2, -871204.6, -900682.56, -37712.88, 0.31574422, 0.6541385, -845452.9, -216361.5, 0.25840095, 9.999, 9.998647 
2.2750667e+3, 2.4580477e+2, -793643.1, -1102042.0, 15171.284, 0.1339603, 0.55083054, -792898.6, -261766.1, 0.20062341, 10.0001, 9.996069 
2.2750811e+3, 2.5579533e+2, -630782.0, -908032.75, -34940.816, -0.25523448, -0.08975511, -626446.4, -193220.95, 0.14660953, 10.00028, 9.996635 
2.2750977e+3, 2.6579225e+2, -523708.22, -723607.4, -81824.03, -0.3750034, -0.07214469, -494487.0, -159231.39, 0.09444842, 10.000021, 9.9973345 
2.275121e+3, 2.7579492e+2, -71043.9, -239883.53, 20981.574, -0.10356924, 0.27278075, -68475.6, 168753.45, 0.04983968, 10.001626, 9.9992 
2.2751394e+3, 2.8579316e+2, -170631.39, -350930.66, -85154.94, 0.009586499, 0.20666845, -136771.67, 2476.016, 0.019500945, 10.000772, 9.998151 
2.2751601e+3, 2.9578868e+2, 143661.39, -138272.56, 108380.14, -0.08749754, -0.06956486, 180508.75, 221803.08, 0.004786881, 10.002287, 9.998176 
2.2751814e+3, 3.0578718e+2, 367137.6, 158251.36, -76184.26, 0.034725368, -0.24728304, 391970.94, 391970.94, 0.0007184054, 10.002771, 9.999658 
2.2751929e+3, 3.1579366e+2, 165499.11, -210806.02, 108108.555, -0.23799314, 0.7094205, 194346.2, 194346.2, 0.000778247, 10.002506, 9.997253 
2.2850561e+3, 2.4576591e+2, -994931.3, -732712.4, -421775.2, -0.79389936, -0.11191986, -422138.75, 109388.16, 0.45869297, 9.996255, 10.001202 
2.2850896e+3, 2.5577247e+2, 35603.215, 30427.357, -359105.22, 0.41140005, 0.21985139, 392129.84, 825588.44, 0.36361384, 10.003424, 10.0034895 
2.2851089e+3, 2.6578113e+2, -211468.1, -431921.25, -190011.97, 0.63446975, 1.0246478, -102025.72, 233342.92, 0.26167566, 10.00192, 9.998609 
2.285125e+3, 2.7577344e+2, -198979.27, -289006.1, -102564.234, 0.19819212, 0.30246386, -131985.4, 105452.89, 0.1640845, 10.000622, 9.999466 
2.2851394e+3, 2.8577086e+2, -357145.7, -202033.13, -170729.6, 0.060182407, 0.04359438, -92069.9, 47394.94, 0.0825175, 9.998404, 10.000365 
2.2851631e+3, 2.9577404e+2, 45333.055, 45912.87, 284144.4, 0.06262513, 0.29952303, 329767.5, 371207.63, 0.03076659, 10.000531, 10.000385 
2.2851843e+3, 3.057722e+2, 264749.03, 160270.23, 57743.95, 0.12274473, -0.03863734, 290376.94, 290376.94, 0.009048149, 10.001737, 10.000232 
2.2851934e+3, 3.157765e+2, 179537.72, -78392.875, 103181.0, -0.45196268, 0.6141466, 215734.06, 215734.06, 0.003951045, 10.00204, 9.998384 
2.2951245e+3, 2.7574497e+2, -771417.5, -572384.75, -238639.19, 0.06888586, -0.18660256, -413343.28, -175628.38, 0.43463287, 9.9966, 9.99938 
2.2951367e+3, 2.8574547e+2, -669651.6, -24157.26, -318197.1, -0.09098697, -0.3750976, 106323.03, 246034.02, 0.2541601, 9.99469, 10.003808 
2.295167e+3, 2.9576993e+2, 148630.66, 531088.2, 318831.22, 0.39809272, 1.499438, 711641.3, 753128.0, 0.121622354, 9.9993515, 10.004707 
2.2951873e+3, 3.057649e+2, -190974.19, -184792.36, 23187.08, 0.20139751, 0.7223124, -164491.1, -164491.1, 0.05347206, 9.999265, 9.998959 
2.2951941e+3, 3.157557e+2, 295765.6, 337161.97, 55326.438, -0.5953444, -0.06508972, 375535.16, 375535.16, 0.030286364, 10.00149, 10.001496 
2.3051842e+3, 2.9574564e+2, -268497.25, -2285289.0, -185243.53, 1.4258659, 0.6651519, -251623.7, -209901.97, 0.35784727, 10.007442, 9.981116 
2.3051597e+3, 3.057295e+2, 302990.25, 546876.6, -455805.22, -2.7343993, -0.68498063, 896768.7, 896768.7, 0.20877562, 10.000527, 10.004418 
2.3052153e+3, 3.1574532e+2, 98978.3, -585584.3, -50613.293, 1.1860161, 1.3586266, 102700.164, 102700.164, 0.15792906, 10.0032015, 9.994578 
2.3500144e+3, 2.747751e+2, 62231.098, 767195.44, -284968.97, 0.5797457, 0.9575148, 867980.25, 1115296.6, 0.44683743, 9.996464, 10.013585 
2.3496054e+3, 2.8478342e+2, 651056.7, -262487.44, -498119.0, 1.1461099, 2.0422077, 870127.3, 1019339.56, 0.34727156, 10.010349, 9.994365 
2.3492138e+3, 2.9477283e+2, -627678.5, -132619.92, 758807.3, 0.25844285, 1.5972642, 418010.75, 469329.75, 0.26708353, 9.995406, 10.001887 
2.3488343e+3, 3.0474946e+2, -254479.13, 295758.34, -424946.16, 0.16856878, 0.08400542, 526870.3, 526870.3, 0.21012963, 9.997238, 10.003826 
2.3639742e+3, 1.7524876e+2, -1765545.1, -899645.4, -28316.004, 0.026605425, 0.5910689, -898720.4, 323879.03, 0.4364048, 9.992066, 10.007112 
2.3635739e+3, 1.8524356e+2, -1320804.0, -1270129.6, -139739.97, -0.3038225, 0.54137015, -1153448.4, -28801.482, 0.37759867, 9.9982815, 9.999162 
2.3631749e+3, 1.9523841e+2, -1594948.0, -1306222.4, 271009.72, -0.42303827, 0.8178608, -1143523.5, -116815.27, 0.33353576, 9.99554, 9.999548 
2.3627886e+3, 2.0522536e+2, -1330994.9, -1057657.5, 281672.1, 0.6932534, 0.34949657, -881248.7, 47594.707, 0.30097625, 9.996425, 10.000221 
2.3623838e+3, 2.1522036e+2, -607481.7, -635319.75, -184845.25, 0.14686185, 0.549149, -436032.16, 394862.44, 0.27813876, 10.000909, 10.000805 
2.3619825e+3, 2.2521368e+2, -335124.56, -679533.56, 92588.42, -0.6859895, 0.69178975, -311811.78, 421149.66, 0.26103714, 10.003856, 9.998002 
2.3616038e+3, 2.3520285e+2, 325607.2, -238585.06, 354817.03, 0.33855456, 0.5165605, 496802.75, 1131872.4, 0.24560684, 10.008462, 9.998925 
2.3612136e+3, 2.4519628e+2, 174541.69, -342083.53, 280436.6, 1.3995497, 0.8512199, 297503.38, 834648.3, 0.23007011, 10.006456, 9.998044 
2.3608008e+3, 2.551906e+2, -1162844.5, -728722.06, 521153.0, 0.66683424, 1.371502, -381233.84, 57985.645, 0.20981601, 9.994081, 10.000335 
2.3603901e+3, 2.651836e+2, -1227378.8, -506750.13, 283362.16, 0.05803827, 1.2469258, -408675.4, -67378.914, 0.17450486, 9.991884, 10.002306 
2.3600042e+3, 2.7517074e+2, -715831.9, -1087220.8, 153715.81, 0.6096838, 0.8362283, -660464.1, -417045.22, 0.12452435, 9.998879, 9.9941025 
2.3596016e+3, 2.8515425e+2, 793364.75, -45202.613, -597049.8, 0.51778525, 0.45776284, 1103647.5, 1249220.6, 0.081209265, 10.00789, 9.996521 
2.3591977e+3, 2.951415e+2, 83193.5, 325670.5, 98901.64, -0.29813597, -0.19622245, 360893.84, 408583.66, 0.05395527, 9.999352, 10.002688 
2.3588406e+3, 3.0515188e+2, 42776.168, 547509.7, 386938.63, 1.6490285, 1.4289848, 757106.6, 757106.6, 0.037514925, 9.997981, 10.004976 
2.3747708e+3, 1.5564889e+2, -1440083.1, -1891124.4, -382999.38, 0.9234416, -0.058062125, -1221140.0, 193536.52, 0.4091495, 10.001968, 9.995367 
2.3743547e+3, 1.6565047e+2, -1028111.75, -955112.4, 58881.695, -0.7538401, 0.99841523, -922335.2, 394339.7, 0.31913945, 10.001016, 10.0025 
2.3739707e+3, 1.7563732e+2, -851378.56, -745943.44, -52291.824, 0.36540765, 0.15106753, -724407.56, 494381.84, 0.25440004, 10.0011425, 10.0031805 
2.3735766e+3, 1.85629e+2, -854991.25, -764103.94, -201503.84, 0.6910286, -0.18273087, -602983.0, 517881.78, 0.20803122, 10.000525, 10.002206 
2.3731707e+3, 1.9562677e+2, -958432.44, -801350.75, -168773.2, 0.072820276, 0.13368268, -693738.25, 329149.78, 0.17323056, 9.998973, 10.001763 
2.3727718e+3, 2.0562191e+2, -910170.2, -1062777.0, -10564.388, -0.1745756, 0.42966586, -909442.3, 15499.306, 0.14628343, 10.000166, 9.998362 
2.3723795e+3, 2.156141e+2, -267301.84, -638966.25, -56498.89, 0.15370744, 0.56026196, -258902.92, 568124.44, 0.1255341, 10.004199, 9.998852 
2.3719834e+3, 2.2560471e+2, -568847.4, -602691.0, -29540.648, 0.06275212, 0.4286301, -551725.1, 177398.4, 0.10829949, 10.000393, 10.000181 
2.3715818e+3, 2.355946e+2, -1692624.4, -1004983.9, -123698.43, -0.54829216, 0.19607505, -983408.94, -352185.72, 0.09199208, 9.991574, 10.000878 
2.3711802e+3, 2.4559025e+2, -1291547.9, -755383.7, -342794.13, -0.6717234, 0.39110136, -588292.44, -55022.883, 0.07586676, 9.993581, 10.000982 
2.3707852e+3, 2.5558734e+2, 12114.118, -349441.25, -211765.16, -0.16225487, 0.93333846, 109769.64, 545074.44, 0.05915913, 10.003401, 9.9983225 
2.3703882e+3, 2.6557842e+2, 651108.6, -92908.8, -152101.97, 0.30127344, 0.98059136, 681002.25, 1018399.56, 0.04041135, 10.007531, 9.997509 
2.3699978e+3, 2.7556348e+2, -184474.97, -850964.6, 249234.64, 0.5905484, 0.6363363, -101582.766, 137964.3, 0.021714328, 10.002909, 9.993636 
2.3695986e+3, 2.8554767e+2, 89393.02, -507670.8, -113228.69, 0.5273657, 0.43674976, 110144.75, 251843.84, 0.009476403, 10.00343, 9.995045 
2.3692001e+3, 2.955343e+2, 619802.3, 304018.25, 248646.72, 0.36393723, 0.044599287, 756452.44, 800274.25, 0.0043019317, 10.004623, 9.999635 
2.3688242e+3, 3.0553558e+2, -566401.0, -79182.945, 186770.78, 1.1282206, 1.0668131, -15825.067, -15825.067, 0.0024488282, 9.995612, 10.001353 
2.3851526e+3, 1.4605229e+2, -1928329.8, -1438110.5, -8626.908, -0.6119205, 0.24571571, -1437958.8, 70758.805, 0.3896719, 9.995357, 10.002347 
2.3847556e+3, 1.5604919e+2, -1360053.0, -1182458.3, -140600.17, 0.08930926, 0.47415528, -1104962.6, 305799.88, 0.2783619, 9.998844, 10.002146 
2.3843576e+3, 1.6604309e+2, -1171063.0, -1072008.0, 124340.08, 0.23681079, 0.46832386, -987694.44, 325126.4, 0.19862524, 9.99986, 10.001493 
2.3839587e+3, 1.7603579e+2, -1200893.8, -1051900.0, 125964.945, -0.1183194, 0.36414054, -980051.56, 234828.33, 0.1461588, 9.998911, 10.001246 
2.3835608e+3, 1.8602851e+2, -1035210.0, -870699.4, -53311.63, -0.12132975, 0.27859765, -854933.94, 262012.69, 0.11113541, 9.999167, 10.001686 
2.3831639e+3, 1.9602089e+2, -846761.5, -778011.1, -153291.97, 0.19134603, 0.10406606, -655287.4, 363734.0, 0.08556882, 9.999997, 10.001247 
2.3827697e+3, 2.0601335e+2, -970780.6, -1104995.6, 89464.58, 0.3545689, 0.15927555, -926051.94, -4951.2974, 0.065839775, 9.999829, 9.998233 
2.3823772e+3, 2.160067e+2, -884909.5, -971731.06, 24414.201, 0.37733722, 0.4350295, -878515.2, -55339.402, 0.050802168, 9.999559, 9.998614 
2.3819804e+3, 2.2600102e+2, -789611.2, -686284.0, -270195.38, 0.5416169, 0.65060365, -462857.3, 262379.94, 0.038884565, 9.998734, 10.000334 
2.381581e+3, 2.3599394e+2, -935925.2, -768105.75, -339805.8, 0.76550996, 0.7311394, -502002.84, 125306.51, 0.028499383, 9.99735, 9.99974 
2.381181e+3, 2.4598418e+2, -558131.9, -392629.0, -87466.58, 0.61939937, 0.44064492, -354971.97, 174431.53, 0.019239577, 9.998605, 10.001064 
2.380786e+3, 2.559721e+2, -248096.94, -452901.34, 4910.2544, 0.3550528, 0.020147985, -247979.28, 183539.08, 0.011432521, 10.001332, 9.998578 
2.3803884e+3, 2.6596475e+2, 211089.7, -184858.86, -322553.53, 0.44310912, 0.16139379, 391578.9, 725169.75, 0.005416997, 10.003784, 9.998584 
2.3799926e+3, 2.7595863e+2, -151773.86, -492015.22, -72313.38, 0.5492486, 0.4726847, -137042.52, 98612.586, 0.001679893, 10.001571, 9.996781 
2.3795944e+3, 2.859465e+2, 9678.021, -579198.06, -52062.64, 0.53596467, 0.50635856, 14245.463, 152017.17, 0.000328901, 10.002953, 9.994827 
2.3792054e+3, 2.9593736e+2, 119062.24, -323826.44, 229218.83, 1.1078922, 0.6638069, 216332.3, 256188.03, 0.000101341255, 10.002641, 9.996383 
2.3788008e+3, 3.0591756e+2, -773325.44, -692606.2, -117565.32, -0.14704451, 0.050370153, -608665.75, -608665.75, 0.00013852339, 9.996174, 9.997013 
2.3955381e+3, 1.3645613e+2, -1270889.1, -2313297.0, 37499.27, -0.35369882, -0.6405044, -1269542.0, 333213.9, 0.4278148, 10.007808, 9.990718 
2.3951407e+3, 1.4646056e+2, -1960884.5, -1605582.6, 16973.2, -0.58427453, 0.90650463, -1604773.6, -100050.68, 0.29985383, 9.995867, 10.00073 
2.3947498e+3, 1.5644751e+2, -1352918.4, -1306453.4, -39598.508, 0.38296607, 0.35155675, -1283775.3, 123080.79, 0.19614404, 9.999516, 10.000564 
2.3943521e+3, 1.664391e+2, -1036594.9, -917316.8, 91975.83, 0.43180975, 0.1325727, -867336.7, 441595.6, 0.12585048, 10.0003195, 10.002378 
2.393951e+3, 1.7643309e+2, -1100616.1, -955161.06, 114566.08, -0.045499187, 0.0868952, -892187.94, 318790.7, 0.083471425, 9.9993515, 10.001677 
2.3935533e+3, 1.8642697e+2, -1147281.4, -1255874.0, -1347.0612, -0.0310989, 0.27744702, -1147264.6, -34221.305, 0.057587944, 9.999807, 9.998551 
2.3931578e+3, 1.9642064e+2, -841283.5, -1040323.4, -112039.91, 0.28763565, 0.55833644, -790946.3, 224173.03, 0.03970386, 10.001187, 9.99872 
2.392762e+3, 2.064112e+2, -861890.7, -975299.5, 9830.834, 0.31758803, 0.49057576, -861044.8, 56171.06, 0.026570952, 10.00027, 9.9988985 
2.392366e+3, 2.1640034e+2, -1045391.8, -1011149.2, -3357.6968, 0.19165324, 0.30606928, -1010823.06, -191501.53, 0.017417854, 9.998332, 9.998913 
2.3919685e+3, 2.2639254e+2, -820617.0, -872469.3, -208011.17, 0.25086975, 0.39017236, -636922.5, 84479.99, 0.011141793, 9.999276, 9.998747 
2.3915705e+3, 2.3638465e+2, -348783.34, -648670.44, -259828.92, 0.4168887, 0.5630447, -198736.67, 424749.53, 0.0065593217, 10.002146, 9.9981985 
2.3911726e+3, 2.4637622e+2, 5176.27, -144620.05, -123919.81, 0.404073, 0.49251828, 75074.016, 600642.94, 0.0032030866, 10.002658, 10.000752 
2.3907788e+3, 2.5636727e+2, -352694.66, -475780.47, -28094.39, 0.34571055, 0.38749698, -346585.34, 81067.31, 0.0011282732, 10.000563, 9.998731 
2.3903823e+3, 2.663595e+2, -344008.03, -459701.28, -302311.47, 0.51066273, 0.5060372, -94058.54, 235670.31, 0.00023273825, 10.000109, 9.998391 
2.3899858e+3, 2.7635136e+2, -334494.47, -331415.28, -155292.78, 0.64196366, 0.57856387, -177654.45, 54155.953, 0.000018051116, 9.999341, 9.998891 
2.3895872e+3, 2.8634137e+2, -28500.783, -21834.291, 17223.04, 0.43880728, 0.42004994, -7624.914, 126279.04, 0.000004039042, 10.000287, 9.999888 
2.3891959e+3, 2.9633707e+2, 103215.945, -32734.572, 328011.56, 0.7837326, 0.7082251, 370221.6, 406159.97, 0.000013542408, 10.001256, 9.999022 
2.3887928e+3, 3.0631873e+2, -191134.31, -106607.26, -193586.42, 0.13461751, 0.04000495, 49275.39, 49275.39, 0.000052298794, 9.998835, 9.999748 
2.4059446e+3, 1.2685817e+2, -2091963.1, -1313422.1, 184863.17, 0.58971626, 0.21416545, -1271756.5, 425084.94, 0.49042442, 9.993121, 10.007921 
2.40553e+3, 1.3686524e+2, -1470653.0, -1044748.06, -18095.73, -0.6845066, 0.9354846, -1043980.6, 554782.94, 0.36336058, 9.997613, 10.006574 
2.4051313e+3, 1.4685929e+2, -1660390.5, -1559745.0, -43893.625, -0.46359143, 0.82863814, -1543291.8, -42472.727, 0.24041095, 9.998444, 9.999766 
2.4047405e+3, 1.5684569e+2, -1830686.0, -1596707.3, -42450.08, 0.41705886, 0.2922922, -1589243.8, -186291.8, 0.14389461, 9.996577, 9.999783 
2.404343e+3, 1.6683707e+2, -1418250.8, -1122449.9, 54360.49, 0.39296713, 0.10137346, -1112776.1, 192254.3, 0.08188297, 9.997682, 10.001948 
2.4039423e+3, 1.7683099e+2, -1133434.8, -1038655.6, -38172.16, -0.05611998, 0.08429104, -1025193.9, 181886.86, 0.047678713, 9.999452, 10.000961 
2.4035458e+3, 1.8682507e+2, -1196937.0, -1407862.5, -52586.707, 0.015301057, 0.36929023, -1184553.5, -75405.21, 0.028905774, 10.00006, 9.99737 
2.4031511e+3, 1.9681935e+2, -1072284.3, -1277325.6, -15832.353, 0.32288232, 0.83840173, -1071069.0, -59845.336, 0.017015342, 10.000134, 9.997578 
2.4027534e+3, 2.0680948e+2, -858979.5, -880565.3, 85046.66, 0.23828809, 0.73007524, -784043.7, 129278.445, 0.00915297, 9.999884, 9.999743 
2.402355e+3, 2.1679679e+2, -912734.06, -945357.4, 84114.625, -0.0022972252, 0.30054098, -843364.06, -27924.719, 0.0045936005, 9.999243, 9.998934 
2.4019575e+3, 2.2678684e+2, -785255.7, -990113.06, 55831.797, -0.023690462, 0.2563084, -771027.5, -53487.668, 0.0022051786, 10.000119, 9.997523 
2.4015613e+3, 2.367775e+2, -484958.66, -831534.3, 52766.73, 0.043224778, 0.41040665, -477102.9, 142536.92, 0.0009056362, 10.001713, 9.997154 
2.4011643e+3, 2.4677075e+2, -196309.53, -280145.4, 14359.413, 0.12311242, 0.5905259, -193918.27, 327789.66, 0.00023937336, 10.001481, 10.000355 
2.4007703e+3, 2.5676507e+2, -611714.0, -628176.1, 9756.002, 0.24905017, 0.83078086, -607180.7, -183418.64, 0.000025130046, 9.998891, 9.998511 
2.400374e+3, 2.6675612e+2, -468347.72, -533676.0, -177917.03, 0.46336418, 0.8755684, -320121.25, 5728.4624, 0.00000030344088, 9.999304, 9.998286 
2.3999776e+3, 2.767456e+2, -246425.84, -111863.336, -92575.7, 0.63045955, 0.66871715, -64702.344, 163250.66, 0.000000006555133, 9.999112, 10.000563 
2.3995785e+3, 2.8673804e+2, 73451.58, 564938.5, 43246.984, 0.34463784, 0.37482485, 568714.9, 698736.25, 0.00000087941476, 9.998636, 10.004741 
2.3991826e+3, 2.9673594e+2, -372428.8, 47750.05, 145325.6, 0.094323725, 0.50364465, 93115.305, 125148.125, 0.0000071974287, 9.9965925, 10.001866 
2.3987915e+3, 3.0672765e+2, 189243.44, 427657.5, -338288.78, 0.82695115, 0.5413902, 667128.06, 667128.06, 0.00003374468, 9.999852, 10.00296 
2.4159291e+3, 1.2727487e+2, -2469087.3, -1850759.0, 372604.34, 0.59929675, 1.1168989, -1675757.4, 17001.908, 0.4450997, 9.993361, 10.001644 
2.4155234e+3, 1.3726167e+2, -1689953.3, -1539227.9, 96337.84, -0.3576297, 0.4656944, -1492277.4, 102603.03, 0.31930807, 9.998352, 10.00096 
2.4151236e+3, 1.4725317e+2, -1614551.3, -1569338.6, -115764.25, -0.33192965, 0.37264344, -1473994.0, 22966.162, 0.20041417, 9.998898, 9.999504 
2.4147266e+3, 1.5724519e+2, -1775482.3, -1612563.5, -63057.813, 0.11105726, 0.42118242, -1591008.6, -191971.64, 0.110025235, 9.9971485, 9.999381 
2.4143301e+3, 1.6723716e+2, -1503105.6, -1378770.1, 119334.336, 0.10546059, 0.4262285, -1306381.1, -5265.543, 0.054970514, 9.998097, 9.999862 
2.413934e+3, 1.7722917e+2, -1114676.9, -1156305.6, -430.51953, -0.096372776, 0.4196572, -1114672.5, 88521.61, 0.027314784, 10.000131, 9.99978 
2.4135385e+3, 1.8722177e+2, -966106.75, -1059766.0, -71062.17, 0.03207154, 0.48002794, -927831.44, 177441.02, 0.013986388, 10.000603, 9.999521 
2.4131434e+3, 1.9721462e+2, -890720.94, -967570.75, 14853.795, 0.29306385, 0.60470635, -887949.9, 119401.83, 0.006556314, 10.000405, 9.999579 
2.4127454e+3, 2.0720732e+2, -751202.44, -734335.94, 108327.95, 0.20486467, 0.63019675, -634113.44, 275309.13, 0.002469395, 10.000218, 10.00059 
2.4123469e+3, 2.171992e+2, -720075.25, -752434.06, 149289.23, -0.025376795, 0.58785397, -586091.25, 225405.69, 0.00078321603, 10.000121, 9.999832 
2.4119514e+3, 2.2719021e+2, -616529.44, -800459.94, 191574.58, 0.06386662, 0.5619573, -495989.6, 217595.44, 0.00023610769, 10.000811, 9.998484 
2.4115574e+3, 2.3718037e+2, -436980.06, -734131.7, 230880.5, 0.26944795, 0.57762235, -311000.63, 304683.56, 0.000047296035, 10.001735, 9.997796 
2.4111584e+3, 2.4717027e+2, -526059.25, -704020.94, 66418.28, 0.24540736, 0.56312215, -504004.16, 13781.152, 0.0000020598873, 10.000372, 9.997982 
2.4107595e+3, 2.5716007e+2, -910433.75, -899051.5, 50070.477, 0.15786609, 0.5754089, -854349.75, -434463.25, 0.0, 9.997408, 9.997349 
2.4103637e+3, 2.671508e+2, -670154.44, -611339.0, 17182.982, 0.37065154, 0.6411632, -606686.94, -284710.47, 0.0, 9.997892, 9.998404 
2.4099693e+3, 2.771421e+2, -259843.08, -167028.48, 12401.408, 0.6604401, 0.6387952, -165400.05, 58659.582, 0.0, 9.999196, 10.000154 
2.4095678e+3, 2.8713346e+2, -504461.1, -48155.926, -206986.02, 0.37498105, 0.4252237, 31744.756, 157889.47, 0.0000001537889, 9.996062, 10.001797 
2.4091674e+3, 2.971276e+2, -1240106.9, -610048.8, -158970.72, 0.06486914, 0.47254282, -572211.0, -544009.5, 0.000003139397, 9.991659, 9.999717 
2.4087869e+3, 3.071175e+2, 729728.44, 783587.75, -153224.05, 1.01555, 0.2836873, 912230.6, 912230.6, 0.000017109696, 10.003225, 10.003741 
2.4259184e+3, 1.2767345e+2, -1497651.5, -1663771.6, 21162.594, 0.46511617, 0.8723187, -1494997.9, 193848.56, 0.4141129, 10.002351, 9.998613 
2.4255168e+3, 1.3765787e+2, -2071593.0, -1980784.3, -57200.12, -0.011243168, 0.23883542, -1953158.5, -362162.3, 0.28877336, 9.9970045, 9.998262 
2.4251164e+3, 1.4764917e+2, -1609072.3, -1532438.5, -111895.945, -0.12303429, 0.20029894, -1452480.8, 40597.336, 0.17287979, 9.998789, 9.99983 
2.4247165e+3, 1.5764324e+2, -999118.06, -1265553.6, -40070.93, -0.08457509, 0.42801768, -993222.0, 401911.4, 0.08747846, 10.002844, 9.999133 
2.4243207e+3, 1.676352e+2, -1128935.0, -1367701.4, 126011.61, -0.04409022, 0.5291119, -1074734.6, 222482.89, 0.038149297, 10.001472, 9.998315 
2.4239267e+3, 1.776263e+2, -1423031.9, -1404572.5, 50790.727, -0.014563197, 0.5813161, -1362179.6, -162867.1, 0.01570925, 9.998471, 9.998849 
2.4235308e+3, 1.8761833e+2, -1183419.5, -1028555.1, -53826.156, 0.06714552, 0.540313, -1011684.6, 89708.91, 0.0064830934, 9.998543, 10.000719 
2.4231346e+3, 1.976105e+2, -1001779.06, -941463.6, -62757.64, 0.1962538, 0.48017797, -901993.7, 101477.9, 0.0021827125, 9.999327, 10.0002775 
2.422737e+3, 2.0760417e+2, -835099.2, -793648.1, -56082.94, 0.1559211, 0.5673754, -754583.7, 150948.92, 0.00044835047, 9.99975, 10.000392 
2.4223396e+3, 2.1759833e+2, -774703.5, -755881.94, -95041.22, 0.033013236, 0.7327823, -669786.7, 137800.47, 0.000068581576, 9.999684, 10.000015 
2.4219449e+3, 2.2759098e+2, -732265.94, -688154.06, -23406.635, 0.15437344, 0.7413555, -678048.94, 31607.207, 0.0000096515805, 9.999335, 9.99995 
2.4215518e+3, 2.3758207e+2, -827922.2, -863049.25, 30647.254, 0.3955421, 0.6807838, -810162.5, -198421.81, 0.00000040342232, 9.99881, 9.998329 
2.4211518e+3, 2.4756967e+2, -610632.44, -936934.5, -86428.72, 0.31535086, 0.5078892, -589153.6, -75289.85, 0.0, 10.00066, 9.996227 
2.4207498e+3, 2.5755593e+2, -360671.5, -759763.1, -20440.457, 0.09334078, 0.3081824, -359627.34, 56373.953, 0.0, 10.00172, 9.996249 
2.420354e+3, 2.6754642e+2, -219116.02, -405618.0, 40891.098, 0.28804448, 0.38357002, -210544.47, 107548.23, 0.0, 10.001051, 9.998292 
2.4199605e+3, 2.77539e+2, -405141.63, -465397.13, -75082.85, 0.6156026, 0.5634271, -354367.47, -134205.27, 0.0, 9.999164, 9.998145 
2.4195561e+3, 2.875281e+2, -483529.16, -547922.6, -340195.34, 0.32253873, 0.5038004, -174010.38, -51735.56, 0.0000000009564638, 9.99838, 9.997274 
2.419153e+3, 2.9751715e+2, -676039.44, -580006.9, 10863.929, 0.03921676, 0.42528504, -578793.2, -554402.75, 0.0000004799063, 9.996535, 9.997608 
2.4187778e+3, 3.0750576e+2, 502802.9, 638306.7, 462637.34, 0.4244277, 0.077102005, 1038126.9, 1038126.9, 0.0000055147566, 10.001645, 10.003595 
2.4359088e+3, 1.2806526e+2, -1567135.9, -1870246.6, -149792.45, -0.002461866, 0.31246808, -1505602.6, 179392.0, 0.39271492, 10.00227, 9.9972515 
2.4355097e+3, 1.3805403e+2, -2017182.3, -1978037.0, -156556.08, 0.35216603, 0.24469651, -1839834.8, -252725.4, 0.26710206, 9.997466, 9.998062 
2.4351107e+3, 1.4804596e+2, -1448491.4, -1352880.3, 40560.93, 0.16207239, 0.20818509, -1337991.6, 151194.0, 0.15331793, 9.999386, 10.000921 
2.4347115e+3, 1.5803897e+2, -872181.56, -1154955.0, 45319.363, -0.15386924, 0.23572539, -865095.9, 526153.94, 0.07196278, 10.003476, 9.999639 
2.434315e+3, 1.6803075e+2, -1113135.5, -1451619.4, -3218.5942, -0.020810202, 0.3627188, -1113104.9, 180234.03, 0.027363949, 10.001932, 9.997526 
2.4339196e+3, 1.7802209e+2, -1440495.4, -1472913.6, -15597.844, 0.2111387, 0.5170043, -1434209.5, -238773.84, 0.009079448, 9.9986105, 9.998301 
2.433522e+3, 1.8801478e+2, -1226171.4, -1114171.1, -16671.672, 0.12290454, 0.60225075, -1111742.1, -14233.467, 0.002868925, 9.998538, 10.000121 
2.4331237e+3, 1.9800748e+2, -1031757.94, -1057037.5, -39221.715, -0.028458005, 0.6618527, -1003189.6, -3611.0977, 0.00059867656, 9.999544, 9.999377 
2.432729e+3, 2.0799753e+2, -974058.3, -1105284.3, -99620.39, 0.13241048, 0.5652237, -920384.75, -18708.02, 0.000045539302, 9.999828, 9.998223 
2.4323347e+3, 2.1798709e+2, -815839.06, -851700.1, -176273.44, 0.34125188, 0.4586421, -656586.56, 147193.38, 0.0000022398012, 9.999722, 9.999328 
2.4319366e+3, 2.2798076e+2, -652354.75, -398700.28, -156343.03, 0.22000122, 0.4473379, -324211.1, 381626.38, 0.000000052409952, 9.998786, 10.002213 
2.4315386e+3, 2.3797505e+2, -852849.75, -625835.3, -37301.715, 0.05967078, 0.47131565, -619863.2, -11975.671, 0.0, 9.997574, 10.000542 
2.431144e+3, 2.4796596e+2, -502395.25, -738014.3, 28857.58, 0.24061681, 0.4693175, -498912.38, 11063.816, 0.0, 10.0007925, 9.997517 
2.43075e+3, 2.5795534e+2, 180998.77, -406044.97, 55016.223, 0.4564534, 0.45658404, 186110.25, 598191.56, 0.0, 10.00504, 9.99706 
2.4303494e+3, 2.67944e+2, -1531.001, -497980.25, -115715.95, 0.3347084, 0.42610306, 24115.96, 338309.97, 0.0, 10.003352, 9.99657 
2.4299477e+3, 2.7793297e+2, -395448.1, -598637.25, -184376.7, 0.18778811, 0.4309686, -286528.47, -70225.44, 0.0, 9.999786, 9.996939 
2.429548e+3, 2.8792316e+2, 126807.45, -193314.56, -164325.53, 0.23596203, 0.48041967, 196142.19, 314544.3, 0.0, 10.002279, 9.99784 
2.4291523e+3, 2.9791385e+2, 680687.75, 183806.19, 250587.45, 0.47095558, 0.5120233, 785116.5, 805612.56, 0.000000008678429, 10.005393, 9.99859 
2.4287675e+3, 3.079063e+2, -332994.53, 70263.93, 237417.78, 0.31694618, 0.5641437, 180117.52, 180117.52, 0.0000009202062, 9.996567, 10.002169 
2.4462895e+3, 1.1847098e+2, -1869259.5, -1982910.4, 397496.5, -0.52967423, 0.41541815, -1524547.1, 254463.4, 0.49453825, 10.000548, 9.998587 
2.4458991e+3, 1.2845907e+2, -2237863.5, -2168180.8, -383217.4, -0.08424496, 0.17072093, -1818224.1, -137090.61, 0.37753466, 9.996842, 9.9977 
2.4455002e+3, 1.3845001e+2, -1734311.3, -1768539.8, -178927.38, 0.34359974, 0.25492233, -1571681.5, 11546.892, 0.25111946, 9.999098, 9.998738 
2.4451023e+3, 1.4844297e+2, -1473153.6, -1345034.5, 63737.465, 0.1796652, 0.26878217, -1318727.6, 166568.22, 0.13882844, 9.999095, 10.001109 
2.4447048e+3, 1.5843602e+2, -1599818.4, -1502407.9, -8086.3438, -0.10544322, 0.27574143, -1501741.3, -114380.96, 0.060861234, 9.998224, 9.999641 
2.4443084e+3, 1.6842769e+2, -1463264.3, -1628605.4, -95995.6, 0.013510014, 0.3834059, -1419247.9, -129798.05, 0.02025213, 9.999571, 9.997422 
2.4439119e+3, 1.7841889e+2, -1163126.0, -1392207.3, -48859.184, 0.24097514, 0.5364016, -1153140.4, 38406.79, 0.0052852775, 10.000764, 9.997815 
2.4435137e+3, 1.884106e+2, -959688.7, -1098896.1, -10252.133, 0.110727765, 0.599658, -958937.7, 134690.14, 0.0012089658, 10.000867, 9.9991 
2.4431154e+3, 1.9840236e+2, -955564.9, -1122543.9, -65202.605, -0.09108169, 0.6565114, -933121.0, 62583.797, 0.00012403581, 10.000545, 9.998434 
2.442721e+3, 2.0839101e+2, -1053524.9, -1223716.3, -40733.734, 0.14365853, 0.4907157, -1044278.0, -146460.47, 0.000001917801, 9.999682, 9.997457 
2.4423276e+3, 2.183786e+2, -1029908.8, -1002984.7, -10925.296, 0.48707053, 0.272968, -999109.25, -199167.58, 0.000000018702426, 9.9985, 9.998866 
2.4419278e+3, 2.2837265e+2, -627063.25, -310322.6, -109954.46, 0.24412966, 0.28336728, -275894.72, 426102.53, 0.0, 9.998674, 10.002851 
2.4415268e+3, 2.3836842e+2, -649714.1, -438741.7, -116795.445, -0.12975293, 0.3695421, -386847.72, 217186.17, 0.0, 9.998593, 10.001339 
2.4411367e+3, 2.4836174e+2, -594395.8, -622477.3, 34922.25, 0.23186523, 0.4729362, -570797.44, -64700.63, 0.0, 9.999462, 9.998955 
2.4407488e+3, 2.5835404e+2, -448605.53, -662855.1, -32050.943, 0.72550493, 0.6022942, -443913.6, -35742.652, 0.0, 10.000495, 9.997508 
2.4403438e+3, 2.683414e+2, -428891.4, -851698.94, -269491.3, 0.29352558, 0.5000863, -297779.3, 12519.289, 0.0, 10.001043, 9.995257 
2.4399355e+3, 2.7832738e+2, -322755.1, -616089.9, -165562.75, -0.2830907, 0.31523147, -248238.52, -35797.8, 0.0, 10.000509, 9.996483 
2.4395423e+3, 2.8831893e+2, 161105.05, -12069.171, 27512.957, 0.20005882, 0.4134313, 165371.06, 279891.9, 0.0, 10.001829, 9.999291 
2.4391533e+3, 2.983126e+2, 284998.3, 84337.836, 187340.13, 0.77724755, 0.6044248, 397182.72, 413761.56, 0.0, 10.002262, 9.99943 
2.4387525e+3, 3.0830556e+2, -492061.38, -119991.78, 72571.85, -0.124874175, 0.7188885, -106337.77, -106337.77, 0.00000009975268, 9.996057, 10.001061 
2.456288e+3, 1.1886151e+2, -1755069.8, -1793521.0, -78785.94, -0.024504958, 0.36833906, -1693197.5, 81991.7, 0.48539656, 10.000216, 9.99951 
2.4558902e+3, 1.2885228e+2, -1936651.4, -1762751.3, -258723.38, 0.103923306, 0.18663785, -1576757.9, 100526.766, 0.36593348, 9.997748, 10.00033 
2.4554878e+3, 1.3884561e+2, -1531137.5, -1500519.8, -83705.11, -0.067112476, 0.2661477, -1430735.1, 148619.45, 0.23856215, 9.999816, 10.000389 
2.4550918e+3, 1.4884032e+2, -1452480.4, -1372293.9, 31317.57, -0.021678746, 0.43257055, -1361512.3, 119895.35, 0.1275105, 9.999431, 10.000703 
2.4546975e+3, 1.5883468e+2, -1550804.3, -1470832.9, -1019.0843, 0.076592386, 0.6034824, -1470819.9, -87356.85, 0.052560914, 9.998518, 9.999704 
2.4543002e+3, 1.6882609e+2, -1373432.5, -1500538.3, -23880.758, 0.021086408, 0.6397218, -1369093.8, -83543.57, 0.01541553, 9.999811, 9.99818 
2.4539027e+3, 1.7881642e+2, -1054011.4, -1332928.1, 2231.2615, -0.04457408, 0.64734286, -1053993.6, 133655.17, 0.0031067657, 10.001469, 9.99788 
2.4535069e+3, 1.8880449e+2, -966832.06, -1263318.6, -17887.822, 0.07484334, 0.44851583, -965756.75, 124006.01, 0.00048131414, 10.001497, 9.997673 
2.4531116e+3, 1.9879259e+2, -868737.25, -1056396.9, -84649.83, 0.20152073, 0.2529958, -836196.06, 155678.77, 0.000015932997, 10.001024, 9.998645 
2.4527134e+3, 2.0878522e+2, -861468.2, -840399.7, -63561.813, 0.18902798, 0.30727252, -786505.1, 107439.73, 0.0000000054715246, 9.999736, 10.000062 
2.4523152e+3, 2.1877827e+2, -1022138.6, -948545.2, 46588.195, 0.18152077, 0.42178074, -925974.75, -129962.336, 0.0, 9.998328, 9.99932 
2.4519196e+3, 2.2877073e+2, -922805.94, -918774.56, -52930.715, 0.3489494, 0.55534595, -867821.2, -169726.86, 0.0, 9.9986515, 9.998686 
2.4515244e+3, 2.3876303e+2, -717269.4, -711601.1, -152150.13, 0.50175065, 0.67749465, -562258.7, 37919.336, 0.0, 9.999143, 9.9992 
2.4511297e+3, 2.4875423e+2, -683989.1, -553052.3, -74755.805, 0.44443786, 0.5695161, -519149.97, -16888.898, 0.0, 9.99834, 9.999989 
2.4507354e+3, 2.587453e+2, -799533.25, -654831.44, -130132.06, 0.3597642, 0.45870858, -578289.75, -173946.63, 0.0, 9.997284, 9.999122 
2.4503352e+3, 2.6873544e+2, -537704.3, -635882.7, -239525.8, 0.27767587, 0.41486394, -342289.2, -35851.965, 0.0, 9.999092, 9.997696 
2.4499336e+3, 2.7872506e+2, -55425.09, -302087.75, -86387.734, 0.2051565, 0.36564022, -28179.338, 180358.1, 0.0, 10.001526, 9.998144 
2.4495362e+3, 2.8871542e+2, 8578.035, -156084.95, -570.01514, 0.24098249, 0.32633364, 8580.009, 119207.27, 0.0, 10.001052, 9.998681 
2.4491413e+3, 2.9870617e+2, -203067.55, -234697.39, 12007.997, 0.37321162, 0.30392316, -199025.39, -186312.64, 0.0, 9.999206, 9.998724 
2.4487458e+3, 3.0869922e+2, -352326.03, 50780.78, -76895.81, 0.3594675, 0.47060475, 64951.137, 64951.137, 0.000000000000427524, 9.996637, 10.0019045 
2.4662797e+3, 1.19256064e+2, -2019378.1, -1804363.5, -121726.04, 0.030408628, 0.42487592, -1749466.9, 21864.553, 0.4772223, 9.997581, 10.000645 
2.46588e+3, 1.2924778e+2, -1652735.4, -1572424.4, -97423.96, 0.012410399, 0.2621292, -1507204.9, 166210.47, 0.3557266, 9.999444, 10.000993 
2.4654791e+3, 1.3924302e+2, -1488166.0, -1501649.0, -94501.21, -0.16245086, 0.49401155, -1400166.1, 175298.8, 0.22774403, 10.000307, 10.000124 
2.4650837e+3, 1.4923626e+2, -1420106.4, -1476078.5, -99519.34, -0.0502743, 0.59273326, -1344713.0, 132820.66, 0.11809006, 10.00031, 9.999486 
2.4646898e+3, 1.5922916e+2, -1361722.6, -1409016.8, -169762.06, 0.15036675, 0.6961886, -1213968.5, 165636.47, 0.04605504, 10.000001, 9.999437 
2.464292e+3, 1.6922083e+2, -1265388.6, -1321864.5, -122923.88, -0.024637992, 0.6653198, -1167501.0, 114182.91, 0.012013259, 10.000036, 9.999308 
2.4638937e+3, 1.7921157e+2, -1227128.9, -1373673.6, -76619.58, -0.22626472, 0.6060044, -1194385.3, -10613.684, 0.0018483637, 10.000111, 9.998265 
2.4635e+3, 1.8919896e+2, -1178286.1, -1419927.1, -45474.016, 0.05022489, 0.3483495, -1170011.9, -84119.86, 0.00018026956, 10.000309, 9.997164 
2.4631062e+3, 1.9918606e+2, -983810.94, -1112334.5, -68277.734, 0.38097322, 0.09450984, -954310.1, 33704.65, 0.0000007906511, 10.000271, 9.998624 
2.4627054e+3, 2.0918016e+2, -639634.6, -622422.4, -168930.19, 0.15431085, 0.22253788, -461879.22, 428189.13, 0.0, 10.0008135, 10.00103 
2.462304e+3, 2.1917559e+2, -681047.5, -837562.25, -179160.55, -0.10102166, 0.4818746, -563798.56, 228312.02, 0.0, 10.000908, 9.99885 
2.4619114e+3, 2.2916722e+2, -900674.6, -1191346.1, -87424.375, 0.3989763, 0.6955219, -876406.44, -182199.69, 0.0, 10.000035, 9.996143 
2.4615204e+3, 2.3915774e+2, -878296.6, -960350.94, -15099.213, 0.96162033, 0.8776997, -875606.3, -279290.16, 0.0, 9.998793, 9.997667 
2.4611215e+3, 2.4914746e+2, -601717.6, -464184.66, 26738.105, 0.5403354, 0.6497031, -459169.3, 39245.98, 0.0, 9.998711, 10.000415 
2.4607217e+3, 2.591371e+2, -580341.0, -434345.6, -68525.53, -0.012118394, 0.3480732, -407221.3, -6710.703, 0.0, 9.9983015, 10.000155 
2.4603271e+3, 2.691297e+2, -350852.28, -266755.28, -142115.55, 0.3247408, 0.3444956, -160598.16, 141976.66, 0.0, 9.999188, 10.000181 
2.4599324e+3, 2.7912313e+2, -152545.84, -215824.73, -76507.695, 0.73043376, 0.45480865, -101393.49, 103237.38, 0.0, 10.000282, 9.999357 
2.4595281e+3, 2.8911197e+2, -117546.3, -321743.94, -32229.049, 0.11376121, 0.27460307, -112580.27, -5846.632, 0.0, 10.000605, 9.997786 
2.4591282e+3, 2.990979e+2, -310164.3, -512429.06, -35360.504, -0.15961112, -0.07433234, -304160.7, -295294.72, 0.0, 9.999425, 9.996731 
2.4587429e+3, 3.0909002e+2, -156002.81, 118604.08, -87586.2, 1.1081961, 0.12877266, 144161.25, 144161.25, 0.0, 9.998108, 10.001657 
2.4762674e+3, 1.1965381e+2, -1758727.1, -1629518.8, -17653.895, -0.24717896, 0.62091994, -1627150.1, 140293.4, 0.46784535, 9.998737, 10.001978 
2.4758692e+3, 1.296452e+2, -1645795.4, -1637388.9, -75278.016, -0.25969216, 0.46303648, -1566196.8, 103331.734, 0.34520847, 9.999932, 10.000047 
2.4754736e+3, 1.3964123e+2, -1508360.9, -1656861.0, -85297.195, 0.011322137, 0.88116664, -1469523.9, 102045.875, 0.21743059, 10.000807, 9.998694 
2.4750774e+3, 1.4963e+2, -1491380.0, -1720756.6, -111082.586, 0.0478527, 0.7181143, -1446403.8, 27278.05, 0.109704144, 10.000664, 9.9976015 
2.4746814e+3, 1.5961826e+2, -1304152.4, -1393837.0, -167097.02, 0.06823113, 0.51043296, -1175985.3, 199812.0, 0.040704507, 10.000451, 9.999319 
2.4742837e+3, 1.6961026e+2, -1094882.8, -1041864.4, -124087.93, -0.09923686, 0.39190426, -941485.56, 336380.66, 0.00953522, 10.000337, 10.001103 
2.473886e+3, 1.7960277e+2, -1086600.8, -1129438.4, -69389.76, -0.25356302, 0.3382715, -1035399.3, 144530.97, 0.0011160366, 10.000304, 9.9998455 
2.4734922e+3, 1.8959463e+2, -1090551.5, -1247428.3, -36422.848, 0.020352997, 0.40648273, -1082507.5, -497.94727, 0.00006263998, 10.000333, 9.99834 
2.4730982e+3, 1.9958563e+2, -994259.3, -1156944.4, -29992.652, 0.30262747, 0.4620942, -988906.06, -4807.738, 0.0000000031066179, 10.00038, 9.998255 
2.4726978e+3, 2.095746e+2, -753970.3, -991662.3, -152199.06, 0.053384326, 0.2949822, -679712.9, 206492.55, 0.0, 10.001365, 9.998244 
2.4722968e+3, 2.1956411e+2, -487317.22, -720731.0, -244954.73, -0.22007261, 0.17495368, -332687.94, 455619.3, 0.0, 10.002113, 9.999076 
2.4719016e+3, 2.2955804e+2, -558860.7, -624144.94, -159797.05, 0.14758578, 0.3509224, -428405.94, 261964.97, 0.0, 10.000622, 9.999771 
2.4715078e+3, 2.3955217e+2, -743905.7, -717140.8, 57363.47, 0.5833969, 0.59235126, -671619.44, -79185.07, 0.0, 9.998923, 9.99928 
2.471112e+3, 2.4954396e+2, -647527.3, -649128.8, 124961.8, 0.4764891, 0.64350355, -523363.7, -28840.77, 0.0, 9.999087, 9.998971 
2.4707161e+3, 2.5953498e+2, -443468.66, -418728.47, -10346.226, 0.2835108, 0.61572105, -414972.1, -18355.563, 0.0, 9.999455, 9.999696 
2.4703188e+3, 2.6952717e+2, -277878.4, -189635.38, -127218.05, 0.3662257, 0.55873597, -99104.98, 199581.16, 0.0, 9.999505, 10.0005665 
2.4699211e+3, 2.795202e+2, -180962.92, -128083.49, -93245.055, 0.4230604, 0.5833432, -57602.117, 143142.67, 0.0, 9.999638, 10.000269 
2.4695207e+3, 2.895098e+2, -86584.99, -154141.39, -37416.918, 0.13414559, 0.35315782, -69954.94, 32882.68, 0.0, 10.000126, 9.999187 
2.4691263e+3, 2.9949638e+2, -133948.17, -450225.8, 72586.555, 0.4132062, -0.018142492, -118084.99, -113123.26, 0.0, 10.000708, 9.996554 
2.4687287e+3, 3.094864e+2, 391634.0, 173916.05, -14578.784, 0.38722566, 0.14241357, 392605.88, 392605.88, 0.0, 10.002706, 9.999864 
2.4862587e+3, 1.2004877e+2, -1839679.9, -1735331.6, -95093.01, -0.24453892, 0.5842683, -1679040.0, 84532.67, 0.45571485, 9.998876, 10.000731 
2.4858621e+3, 1.3004018e+2, -1611891.0, -1647446.1, -62973.96, -0.21284422, 0.4663035, -1564233.4, 101423.38, 0.33319858, 10.000383, 9.999702 
2.4854673e+3, 1.40035e+2, -1368804.0, -1616147.0, -58455.324, -0.0011170686, 0.79768455, -1355684.9, 212023.5, 0.20679392, 10.002155, 9.998326 
2.4850704e+3, 1.5002342e+2, -1389377.6, -1719023.8, -29488.582, 0.0049664066, 0.6399113, -1386760.5, 83063.74, 0.10179194, 10.001613, 9.997173 
2.4846736e+3, 1.6001105e+2, -1316736.8, -1425612.3, -7947.2905, 0.0075684763, 0.4237372, -1316159.8, 55786.637, 0.036105353, 10.00046, 9.99908 
2.4842763e+3, 1.7000288e+2, -1190857.3, -1085975.9, -68517.57, -0.054727107, 0.3000005, -1052134.0, 221883.3, 0.0076701324, 9.999652, 10.00113 
2.4838793e+3, 1.7999569e+2, -1255345.5, -1158945.8, -129931.98, -0.10510326, 0.26355174, -1068561.5, 107516.516, 0.000687035, 9.998938, 10.000298 
2.4834844e+3, 1.8998988e+2, -1205847.0, -1163435.5, -95711.055, 0.050336264, 0.44510168, -1086609.1, -8475.171, 0.000019881356, 9.998982, 9.99954 
2.4830894e+3, 1.9998312e+2, -1205989.5, -1273986.5, -55223.844, 0.2166486, 0.6275028, -1175137.6, -194936.22, 0.0, 9.999012, 9.998106 
2.4826902e+3, 2.0996979e+2, -1145150.9, -1337689.4, -18070.883, 0.014349693, 0.3339907, -1143469.5, -261136.02, 0.0, 9.99939, 9.996801 
2.4822906e+3, 2.1995632e+2, -833708.6, -849444.7, -51496.094, -0.20153463, 0.033502076, -789482.94, -5017.2734, 0.0, 9.999594, 9.999401 
2.4818921e+3, 2.2995102e+2, -507179.16, -314151.25, -125305.5, -0.04442354, 0.10533264, -252499.42, 434013.16, 0.0, 9.999775, 10.002297 
2.4814953e+3, 2.3994687e+2, -621189.2, -600603.3, -9775.449, 0.19127396, 0.3082941, -596701.06, -8150.333, 0.0, 9.99954, 9.999782 
2.4811028e+3, 2.4994007e+2, -667057.7, -827045.8, 95795.33, 0.3860131, 0.586198, -622248.7, -131615.1, 0.0, 9.999679, 9.997464 
2.4807104e+3, 2.599325e+2, -498302.5, -532403.44, -37453.71, 0.54880685, 0.8255546, -474200.8, -81477.09, 0.0, 9.999454, 9.998928 
2.4803104e+3, 2.6992455e+2, -324850.34, -203201.4, -130292.91, 0.35132873, 0.7640633, -120234.85, 174561.27, 0.0, 9.99914, 10.00065 
2.4799089e+3, 2.7991667e+2, -284363.16, -133907.97, -80435.28, 0.028012706, 0.6824193, -99003.71, 97860.86, 0.0, 9.998741, 10.000666 
2.4795137e+3, 2.8990683e+2, -51454.035, 26132.783, -63906.336, 0.20174564, 0.39575094, 62098.645, 161049.44, 0.0, 9.999695, 10.000618 
2.4791253e+3, 2.9989654e+2, -176570.69, -434762.6, 6561.0493, 1.0169177, 0.20297039, -176404.08, -175360.55, 0.0, 10.000257, 9.996889 
2.4787137e+3, 3.0988777e+2, 82010.805, -105026.04, -26097.918, -0.6543869, 0.53056246, 85584.07, 85584.07, 0.0, 10.001062, 9.998785 
2.4962534e+3, 1.2044254e+2, -1793053.8, -1864539.3, -117527.27, 0.061573982, 0.49213138, -1705954.3, 53752.785, 0.43991756, 10.000053, 9.999045 
2.4958575e+3, 1.3043293e+2, -1530065.6, -1583658.9, 21631.88, 0.03011075, 0.31088766, -1522423.9, 139375.95, 0.31901658, 10.00098, 10.000017 
2.4954598e+3, 1.4042501e+2, -1290977.3, -1500536.9, -23273.28, -0.21083295, 0.33159006, -1288423.8, 275452.47, 0.19536594, 10.002408, 9.999081 
2.4950628e+3, 1.5041666e+2, -1293394.6, -1544913.8, -51891.18, -0.1480641, 0.39994127, -1283109.5, 182850.73, 0.094030365, 10.001782, 9.998289 
2.4946663e+3, 1.6040775e+2, -1316035.5, -1480184.9, -22692.918, -0.017696267, 0.46431294, -1312956.0, 55093.66, 0.032013185, 10.000703, 9.998581 
2.4942708e+3, 1.7039904e+2, -1324283.3, -1391420.3, -85451.375, 0.1768194, 0.46817634, -1266043.4, 4091.4766, 0.0062260167, 9.999777, 9.998959 
2.4938747e+3, 1.8039054e+2, -1256055.4, -1172039.8, -132077.77, 0.30037555, 0.4637612, -1075450.3, 96765.82, 0.00043419475, 9.998981, 10.000177 
2.493477e+3, 1.9038297e+2, -1101282.5, -958288.9, -88992.09, 0.2015888, 0.3756969, -915630.56, 158653.33, 0.0000058323185, 9.99901, 10.000944 
2.4930796e+3, 2.0037547e+2, -1063208.4, -995518.6, -47094.727, 0.1249322, 0.34175122, -971368.75, 4983.291, 0.000000000090419006, 9.999071, 9.999983 
2.492683e+3, 2.1036759e+2, -1051350.5, -1046729.44, 22310.186, 0.17274955, 0.3882583, -1026610.44, -148180.06, 0.0, 9.998953, 9.999007 
2.4922857e+3, 2.203589e+2, -898355.44, -836466.75, 42241.664, 0.18910688, 0.39646408, -815047.9, -34531.76, 0.0, 9.998946, 9.99979 
2.4918854e+3, 2.303497e+2, -651283.8, -581845.94, -67802.086, 0.11215368, 0.21592398, -540390.56, 142209.48, 0.0, 9.999628, 10.000532 
2.4914864e+3, 2.4034083e+2, -599927.25, -716618.6, -15105.969, 0.06489081, 0.1159168, -598003.44, -13320.334, 0.0, 10.000221, 9.99864 
2.4910933e+3, 2.5033244e+2, -645429.4, -887318.56, 58247.258, 0.19311911, 0.30917907, -632134.1, -145354.67, 0.0, 10.000103, 9.996847 
2.4907006e+3, 2.6032436e+2, -418261.13, -460311.5, -73613.96, 0.3756374, 0.53356254, -362728.66, 26143.838, 0.0, 9.999817, 9.999251 
2.4903029e+3, 2.7031818e+2, -297078.75, -114439.67, -156194.55, 0.50531363, 0.58328897, -24828.293, 266102.56, 0.0, 9.998976, 10.0013485 
2.4899039e+3, 2.803115e+2, -387766.06, -249357.69, -54083.242, 0.44964632, 0.5915875, -230731.27, -37739.51, 0.0, 9.99827, 10.000107 
2.4895051e+3, 2.903013e+2, -218011.75, -242863.7, -85245.6, 0.1884287, 0.4181285, -144291.25, -49203.03, 0.0, 9.999319, 9.998975 
2.4891135e+3, 3.0029172e+2, -137248.44, -329836.78, -128989.99, 0.6034281, 0.37589768, -72573.71, -72573.71, 0.0, 10.000182, 9.997622 
2.4887112e+3, 3.102836e+2, -256384.67, -30110.639, -201589.83, 0.030321602, 0.57769495, 87919.914, 87919.914, 0.0, 9.997786, 10.000819 
2.506246e+3, 1.20837845e+2, -1522657.8, -1755433.1, -101662.59, -0.10100585, 0.33616054, -1484509.5, 271320.2, 0.42027465, 10.0033, 9.998291 
2.5058517e+3, 1.308303e+2, -1525663.6, -1606046.5, 72804.2, 0.097033136, 0.40881726, -1482693.8, 175208.7, 0.30251706, 10.001187, 9.999653 
2.505454e+3, 1.4082018e+2, -1634204.1, -1691730.9, 10704.298, -0.10680706, 0.24684864, -1632277.0, -72277.15, 0.18302314, 9.999635, 9.998998 
2.5050557e+3, 1.508123e+2, -1510720.5, -1623667.1, -58569.25, -0.1690886, 0.33465183, -1485832.9, -23755.018, 0.08629053, 10.000003, 9.998602 
2.504658e+3, 1.608044e+2, -1395723.8, -1538614.0, -61295.16, -0.08601107, 0.47641066, -1373033.3, -8876.268, 0.028287582, 10.000229, 9.998407 
2.5042638e+3, 1.7079549e+2, -1405491.1, -1512718.1, -20986.168, 0.28286967, 0.5068957, -1401530.1, -135282.25, 0.0050760456, 9.999601, 9.998199 
2.5038683e+3, 1.8078636e+2, -1289292.8, -1231110.9, 37858.617, 0.54504275, 0.52228564, -1212457.1, -44118.21, 0.00028139996, 9.998954, 9.999793 
2.503469e+3, 1.9077742e+2, -1007343.8, -900198.6, 11893.734, 0.24608229, 0.30476385, -898894.25, 171523.53, 0.0000014559199, 9.999623, 10.001052 
2.50307e+3, 2.0076919e+2, -878158.94, -824280.5, -73678.34, 0.011238427, 0.17139624, -772770.9, 199719.2, 0.0, 9.999997, 10.000726 
2.502675e+3, 2.1076436e+2, -922327.7, -817818.0, -88429.44, 0.25623825, 0.37849057, -767358.0, 107179.05, 0.0, 9.999131, 10.000497 
2.5022793e+3, 2.207587e+2, -1002792.1, -932534.2, -96711.445, 0.45828736, 0.58283055, -864769.3, -88176.96, 0.0, 9.998458, 9.99937 
2.5018784e+3, 2.3074742e+2, -739030.7, -821435.56, -138552.81, 0.21324168, 0.31594387, -635683.75, 43015.098, 0.0, 9.99989, 9.998756 
2.501478e+3, 2.4073555e+2, -618462.9, -834335.2, -77506.06, -0.029385945, 0.061343607, -593517.9, -12705.43, 0.0, 10.000565, 9.99768 
2.5010836e+3, 2.507255e+2, -837427.5, -978843.94, 38763.566, 0.013463923, 0.10308848, -827499.06, -344579.06, 0.0, 9.998805, 9.996841 
2.50069e+3, 2.6071656e+2, -759043.7, -607051.4, -58936.145, 0.16557863, 0.23772486, -586876.4, -201859.3, 0.0, 9.997427, 9.999395 
2.500295e+3, 2.7071142e+2, -323494.1, -112356.555, -201752.02, 0.5992507, 0.37387517, 9777.646, 296846.34, 0.0, 9.998745, 10.001475 
2.4998984e+3, 2.8070572e+2, -288532.1, -321582.56, -137351.2, 0.8374938, 0.49898505, -166715.58, 22409.26, 0.0, 9.999475, 9.999041 
2.4994963e+3, 2.906956e+2, -366906.66, -514330.78, -41832.71, 0.13840161, 0.4781965, -355863.53, -264637.03, 0.0, 9.999163, 9.997185 
2.4990994e+3, 3.006854e+2, -242802.98, -279556.7, -111158.64, -0.05661633, 0.47621903, -148512.4, -148512.4, 0.0, 9.999024, 9.998527 
2.4987127e+3, 3.1067717e+2, 16392.35, 256032.72, -238996.02, 1.1141495, 0.43293133, 403562.44, 403562.44, 0.0, 9.9989805, 10.00222 
2.5162363e+3, 1.2123482e+2, -1561111.8, -1800716.8, -197201.14, -0.5973487, 0.26168123, -1450174.3, 301763.47, 0.3973432, 10.002846, 9.998353 
2.5158447e+3, 1.3123012e+2, -1536942.3, -1668988.0, 42544.973, 0.078489244, 0.67685264, -1524421.5, 129563.02, 0.28406283, 10.001346, 9.999014 
2.5154498e+3, 1.4121874e+2, -1584621.4, -1699891.0, 13333.064, 0.2332512, 0.44809282, -1583099.3, -27004.256, 0.16993596, 10.000112, 9.998707 
2.5150487e+3, 1.5120941e+2, -1475914.9, -1622265.8, -22176.852, -0.08693742, 0.419868, -1472628.1, -14442.05, 0.078587286, 10.000312, 9.998456 
2.514649e+3, 1.6120037e+2, -1291457.9, -1392401.8, -54581.426, -0.24802431, 0.43378255, -1267589.0, 92685.69, 0.024857625, 10.000529, 9.999269 
2.5142547e+3, 1.7119174e+2, -1271504.6, -1296590.3, -30146.344, 0.21892515, 0.37842467, -1251395.9, 10964.06, 0.0041356636, 9.9998455, 9.999577 
2.5138596e+3, 1.8118288e+2, -1263787.1, -1265221.9, 82728.25, 0.53669935, 0.34209526, -1181773.1, -17326.945, 0.00018434241, 9.999315, 9.999382 
2.5134602e+3, 1.9117378e+2, -1076433.3, -1136578.9, 68601.305, 0.14867918, 0.27321255, -1031602.7, 34926.76, 0.00000026313862, 10.0000105, 9.999246 
2.5130612e+3, 2.0116477e+2, -866515.9, -904460.7, -78378.92, -0.1529141, 0.2130404, -804845.8, 163765.86, 0.0, 10.0004425, 9.999953 
2.5126654e+3, 2.111568e+2, -911871.3, -847104.7, -152691.38, 0.13894477, 0.15491061, -723400.44, 147285.52, 0.0, 9.99934, 10.000204 
2.5122693e+3, 2.2114925e+2, -1005511.5, -983930.6, -113850.82, 0.3825612, 0.20296401, -880360.0, -107601.56, 0.0, 9.998624, 9.998943 
2.5118706e+3, 2.3114192e+2, -741015.6, -900946.8, -116155.65, 0.21761054, 0.4010916, -679961.25, -5125.6577, 0.0, 10.000195, 9.99807 
2.5114718e+3, 2.4113353e+2, -470067.78, -639485.1, -140043.78, 0.046175208, 0.5065187, -391106.6, 185815.06, 0.0, 10.0010395, 9.998783 
2.5110745e+3, 2.511226e+2, -793851.2, -719632.94, -68261.31, 0.061325442, 0.272302, -679045.94, -200019.45, 0.0, 9.998057, 9.998988 
2.5106782e+3, 2.6111233e+2, -1043380.75, -849718.5, -8632.571, 0.14345872, 0.15559775, -849334.44, -468206.78, 0.0, 9.995914, 9.998466 
2.5102836e+3, 2.7110535e+2, -552439.5, -585232.8, -138635.84, 0.3989546, 0.38943538, -429234.03, -146027.17, 0.0, 9.998717, 9.998258 
2.5098884e+3, 2.8109813e+2, -35878.27, -161215.84, -216365.69, 0.55215126, 0.57013303, 126711.66, 311996.72, 0.0, 10.001033, 9.999393 
2.5094882e+3, 2.9108876e+2, -218665.34, -171180.06, -109155.23, 0.20893213, 0.4112352, -83215.16, 4155.138, 0.0, 9.998982, 9.999632 
2.5090918e+3, 3.010799e+2, -433525.2, -371316.4, 7523.4307, 0.17145573, 0.37943485, -370419.47, -370419.47, 0.0, 9.997692, 9.998546 
2.5087053e+3, 3.110727e+2, 302396.28, 136992.22, -136006.92, 1.0734905, 0.5902262, 378871.84, 378871.84, 0.0, 10.002028, 9.999949 
2.5262296e+3, 1.216341e+2, -1987626.0, -1975619.6, -207180.03, -0.53914124, 0.40415075, -1774355.9, -26336.404, 0.3720946, 9.998635, 9.998831 
2.525838e+3, 1.3162705e+2, -1547728.5, -1694328.3, 77986.99, 0.031052114, 0.555112, -1514001.0, 136086.03, 0.26429734, 10.001268, 9.998887 
2.5254422e+3, 1.4161548e+2, -1307520.8, -1515536.9, 59374.69, 0.14346118, 0.30525124, -1291766.4, 260431.47, 0.15642525, 10.002207, 9.998991 
2.5250417e+3, 1.5160675e+2, -1383641.9, -1526095.6, 82286.836, -0.060684208, 0.29167554, -1346036.9, 108244.875, 0.071005836, 10.00082, 9.998866 
2.5246423e+3, 1.6159798e+2, -1424934.6, -1481751.5, 75114.414, -0.15483646, 0.3294794, -1373036.0, -16668.154, 0.021693112, 9.999732, 9.999034 
2.524247e+3, 1.7158939e+2, -1227379.5, -1314465.3, -23850.346, 0.19523592, 0.31998172, -1221275.4, 37182.16, 0.00335279, 10.000346, 9.999206 
2.5238508e+3, 1.8158065e+2, -1114433.8, -1248549.5, 25899.19, 0.44667754, 0.32635564, -1109606.1, 50939.477, 0.00011963712, 10.000603, 9.998869 
2.5234523e+3, 1.9157138e+2, -1079484.1, -1221629.1, 115571.03, 0.110844456, 0.2946251, -1014880.7, 47749.645, 0.00000002568285, 10.000357, 9.998489 
2.5230536e+3, 2.0156163e+2, -973888.56, -1051783.0, 7642.8433, -0.14777516, 0.24584083, -973145.75, -8426.199, 0.0, 10.000127, 9.99909 
2.5226563e+3, 2.1155089e+2, -830067.1, -895491.8, -95628.555, 0.06364811, -0.009995852, -761710.6, 105107.586, 0.0, 10.000291, 9.999407 
2.5222597e+3, 2.2154142e+2, -829119.44, -975573.0, -37403.977, 0.27101108, -0.07039813, -820119.56, -51210.914, 0.0, 10.000174, 9.998257 
2.521863e+3, 2.3153646e+2, -813697.0, -984479.94, 16382.707, 0.2185136, 0.4076617, -812139.7, -141170.89, 0.0, 9.99991, 9.997635 
2.5214657e+3, 2.4153036e+2, -629821.25, -641420.75, -104711.3, 0.14207861, 0.76144516, -530749.2, 42287.137, 0.0, 9.999637, 9.999448 
2.5210655e+3, 2.515192e+2, -562845.94, -452180.8, -175764.16, 0.10211961, 0.37056595, -323245.28, 151890.9, 0.0, 9.998972, 10.000388 
2.5206667e+3, 2.615082e+2, -821333.56, -895893.2, -51518.19, 0.11161311, 0.12241095, -795021.6, -417782.3, 0.0, 9.9981, 9.9971 
2.5202727e+3, 2.7149945e+2, -792182.75, -1021655.94, 16130.66, 0.19331358, 0.4277076, -791054.4, -511711.03, 0.0, 9.998468, 9.995371 
2.5198781e+3, 2.8149047e+2, -267434.4, -201573.63, -107506.33, 0.23691685, 0.61882114, -122067.266, 59376.008, 0.0, 9.999144, 10.000028 
2.51948e+3, 2.9148152e+2, -13510.063, 228308.89, -152915.47, 0.24847406, 0.2752639, 302341.03, 385855.34, 0.0, 9.999109, 10.002318 
2.5190857e+3, 3.0147448e+2, -328174.03, -420848.2, 42530.848, 0.51508975, 0.2672516, -311614.4, -311614.4, 0.0, 9.998847, 9.99766 
2.5186908e+3, 3.1146526e+2, -172126.8, -425583.16, 146025.16, 0.18354626, 0.5214068, -105507.164, -105507.164, 0.0, 10.000271, 9.996908 
2.5362247e+3, 1.22032575e+2, -1803675.9, -1794386.6, 3443.0793, -0.16660355, 0.4467223, -1793249.6, -49143.582, 0.34545884, 9.999458, 9.999686 
2.5358304e+3, 1.3202168e+2, -1504347.1, -1626603.1, 144296.64, -0.09813801, 0.16472633, -1408764.8, 237441.88, 0.24384478, 10.001387, 9.999407 
2.535432e+3, 1.4201045e+2, -1243860.0, -1383050.3, 48121.094, -0.33704546, -0.1154623, -1228843.6, 319465.94, 0.14280652, 10.002176, 10.000046 
2.535035e+3, 1.5200403e+2, -1262623.5, -1321697.1, 42186.652, -0.040639438, -0.015052967, -1240661.4, 209706.02, 0.06363834, 10.001052, 10.000203 
2.534638e+3, 1.6199704e+2, -1469025.9, -1652843.9, 97153.55, 0.17987709, 0.16666432, -1427196.0, -74758.5, 0.0187796, 10.00007, 9.997693 
2.5342396e+3, 1.7198841e+2, -1355343.3, -1658656.8, 16193.318, 0.18862662, 0.3981908, -1354481.3, -99939.52, 0.0026956536, 10.000666, 9.996693 
2.5338417e+3, 1.8197958e+2, -1024127.06, -1164653.3, 30186.139, 0.21260206, 0.5487147, -1017917.25, 138722.86, 0.00007576087, 10.001053, 9.999212 
2.5334463e+3, 1.9197041e+2, -939070.8, -988896.6, 112423.13, 0.23220271, 0.40298313, -848833.3, 209885.4, 0.00000000011876218, 10.000604, 9.999961 
2.5330496e+3, 2.019605e+2, -965141.56, -1088536.9, 47140.445, 0.20421427, 0.2611874, -949193.75, 11611.091, 0.0, 10.000347, 9.998727 
2.53265e+3, 2.119491e+2, -830855.06, -1039955.44, -44539.977, 0.14820728, 0.06496268, -821763.0, 41146.992, 0.0, 10.000887, 9.998126 
2.5322515e+3, 2.219383e+2, -697031.25, -906738.8, -17763.137, 0.14689656, -0.04347013, -695537.25, 69474.83, 0.0, 10.001039, 9.99831 
2.5318557e+3, 2.3192991e+2, -774488.3, -905509.56, 23944.709, 0.2669963, 0.061173864, -770249.5, -103151.2, 0.0, 9.999891, 9.998196 
2.5314587e+3, 2.419216e+2, -762691.2, -806270.1, -55063.63, 0.31609982, 0.19279407, -725262.56, -156078.58, 0.0, 9.999122, 9.998574 
2.531058e+3, 2.5191253e+2, -557655.7, -641702.75, -161867.22, 0.1834692, 0.17858486, -432445.9, 38827.61, 0.0, 9.999808, 9.998695 
2.5306585e+3, 2.619032e+2, -491353.72, -647215.2, -99090.38, 0.1447445, 0.1825247, -443220.56, -69853.86, 0.0, 9.999974, 9.997901 
2.5302657e+3, 2.7189398e+2, -687764.8, -764539.44, 36499.387, 0.42113823, 0.27520347, -673182.4, -397716.03, 0.0, 9.998262, 9.997246 
2.5298712e+3, 2.818847e+2, -545369.75, -369703.1, 62678.797, 0.5472923, 0.3352414, -349632.2, -172069.9, 0.0, 9.997396, 9.999698 
2.5294715e+3, 2.9187587e+2, -56711.773, 21848.941, -58548.81, 0.26021, 0.16044497, 53073.26, 132710.6, 0.0, 9.999621, 10.0006485 
2.5290766e+3, 3.018675e+2, -34562.203, -225322.8, -13467.885, 0.37601754, 0.12709546, -33616.05, -33616.05, 0.0, 10.00064, 9.998133 
2.5286847e+3, 3.1185848e+2, -491316.03, -384464.9, 149138.25, 0.53058904, 0.27052402, -279471.7, -279471.7, 0.0, 9.9972, 9.998702 
2.5462198e+3, 1.2242767e+2, -1693217.8, -1800946.4, 40807.55, 0.08721448, 0.18609692, -1679505.3, 60710.695, 0.3181562, 10.000767, 9.99902 
2.545824e+3, 1.3241707e+2, -1801857.3, -1886788.5, 19135.96, 0.01816698, 0.008533097, -1797744.9, -155422.55, 0.22319707, 9.999501, 9.998368 
2.5454253e+3, 1.4240664e+2, -1737485.6, -1594333.6, -160122.64, -0.22095686, -0.15335967, -1490517.6, 53903.49, 0.12934339, 9.998334, 10.000312 
2.5450277e+3, 1.5240029e+2, -1459462.3, -1351094.9, -214578.06, 0.007913798, -0.13744798, -1183965.3, 262508.13, 0.05657354, 9.999347, 10.000855 
2.5446305e+3, 1.6239347e+2, -1492760.9, -1713440.5, -120111.17, 0.21678196, 0.010399009, -1440000.8, -91461.12, 0.016116831, 10.000136, 9.997245 
2.544232e+3, 1.7238486e+2, -1377967.6, -1775479.4, -49087.27, 0.14164656, 0.29255703, -1371995.8, -121347.85, 0.0021455006, 10.000974, 9.995743 
2.5438341e+3, 1.8237624e+2, -991219.4, -1140817.1, 16449.748, 0.12097306, 0.51865053, -989431.94, 163315.94, 0.000046550977, 10.001253, 9.9992895 
2.5434396e+3, 1.9236793e+2, -927224.9, -927234.8, 9205.67, 0.29347992, 0.4035248, -918024.1, 136794.89, 0.0, 10.000462, 10.000456 
2.5430438e+3, 2.0235841e+2, -1065729.8, -1206828.6, -75504.83, 0.37828487, 0.28220835, -1032943.8, -76042.31, 0.0, 9.999977, 9.998096 
2.542643e+3, 2.1234645e+2, -967315.6, -1222281.5, -108456.766, 0.15484731, 0.1075622, -927422.44, -68410.055, 0.0, 10.000477, 9.997071 
2.5422433e+3, 2.2233461e+2, -747945.25, -940925.56, -97316.26, 0.04594716, -0.036710083, -707392.3, 53730.9, 0.0, 10.000754, 9.998215 
2.5418478e+3, 2.323237e+2, -683034.4, -824226.8, -80234.17, 0.2585531, -0.2312864, -646759.9, 16467.709, 0.0, 10.000387, 9.998512 
2.5414512e+3, 2.4231383e+2, -678992.8, -875867.06, -115290.12, 0.402096, -0.2465734, -625832.9, -60507.73, 0.0, 10.000187, 9.997583 
2.541051e+3, 2.5230655e+2, -530887.94, -790662.8, -114707.945, 0.24820948, 0.042964257, -487487.6, -20082.162, 0.0, 10.0007105, 9.997229 
2.540652e+3, 2.6229846e+2, -303054.16, -449882.6, -80369.195, 0.20910129, 0.23983793, -267615.9, 101875.15, 0.0, 10.000809, 9.998859 
2.5402585e+3, 2.7228877e+2, -313179.38, -353502.97, -29831.01, 0.61579347, 0.08752563, -297335.78, -25749.88, 0.0, 9.999849, 9.999304 
2.539864e+3, 2.8227973e+2, -404417.16, -409775.44, 43140.316, 0.8044259, 0.06515741, -363872.88, -190200.22, 0.0, 9.998836, 9.998735 
2.5394627e+3, 2.9227126e+2, -333682.63, -366556.4, 43709.055, 0.21923323, 0.1268834, -303422.06, -227671.89, 0.0, 9.998829, 9.998362 
2.5390673e+3, 3.0225995e+2, -256788.23, -242665.75, -20906.834, 0.17073084, -0.067953475, -227659.89, -227659.89, 0.0, 9.998717, 9.99895 
2.5386798e+3, 3.1225052e+2, -216168.11, 183581.7, 8552.827, 1.0800116, -0.19266908, 183764.61, 183764.61, 0.0, 9.9971895, 10.002624 
2.5562134e+3, 1.22821e+2, -1725726.9, -2020393.5, 79002.35, 0.105041385, -0.19242312, -1705882.3, 30456.424, 0.29081702, 10.001295, 9.997244 
2.5558195e+3, 1.3281271e+2, -1862117.9, -2122673.3, -21088.71, 0.3537901, 0.06456691, -1860422.1, -221982.5, 0.20276809, 9.999964, 9.996532 
2.5554216e+3, 1.4280342e+2, -1663739.3, -1561710.5, -134547.39, 0.30588388, 0.12503196, -1468830.9, 71706.53, 0.11625642, 9.99886, 10.000278 
2.5550196e+3, 1.527949e+2, -1397042.4, -1285099.1, -157144.38, 0.010915581, -0.095323645, -1174256.0, 268349.4, 0.04988728, 9.999611, 10.001169 
2.55462e+3, 1.6278625e+2, -1364876.8, -1533581.0, -71281.805, -0.10400946, -0.18114021, -1338791.8, 5892.1714, 0.013707004, 10.000486, 9.998321 
2.5542247e+3, 1.727771e+2, -1213689.4, -1524223.6, -2594.8557, 0.09987558, -0.08303774, -1213667.8, 33120.973, 0.0016894786, 10.00134, 9.997299 
2.553829e+3, 1.8276873e+2, -949164.25, -1141183.1, 13532.685, 0.22886719, 0.076097965, -948215.2, 200667.14, 0.000027889511, 10.00163, 9.999098 
2.553432e+3, 1.9276227e+2, -955110.94, -1048375.56, -24546.35, 0.22692879, 0.24334902, -949045.1, 101900.914, 0.0, 10.000734, 9.999492 
2.553034e+3, 2.0275377e+2, -1053783.3, -1235537.1, -84632.93, 0.19151673, 0.2971857, -1020477.5, -67450.14, 0.0, 10.000197, 9.997793 
2.5526348e+3, 2.1274105e+2, -949570.94, -1216289.3, -99402.51, 0.07123933, 0.060286246, -916600.56, -61453.277, 0.0, 10.000583, 9.997071 
2.552236e+3, 2.2272918e+2, -724520.75, -927569.25, -92426.4, 0.009384742, -0.091290005, -688750.4, 68508.97, 0.0, 10.0009, 9.998234 
2.5518394e+3, 2.3271978e+2, -611630.75, -806888.94, -98958.56, 0.11140075, -0.11175862, -570248.25, 89100.336, 0.0, 10.000949, 9.998361 
2.5514427e+3, 2.4271074e+2, -479112.78, -681332.8, -114648.85, 0.23888092, -0.06855653, -427358.2, 134078.56, 0.0, 10.001132, 9.998456 
2.5510454e+3, 2.5270283e+2, -345550.47, -586798.4, -77358.72, 0.3721669, 0.06097999, -322875.75, 140644.28, 0.0, 10.001479, 9.998259 
2.5506476e+3, 2.6269454e+2, -166475.64, -383222.88, -32409.078, 0.4240708, 0.17807098, -161733.44, 203872.11, 0.0, 10.001719, 9.998883 
2.5502494e+3, 2.7268565e+2, -90348.61, -291959.75, -56290.703, 0.39360455, 0.15410645, -75696.805, 191996.33, 0.0, 10.001556, 9.998913 
2.5498518e+3, 2.8267685e+2, -94541.39, -183869.64, -45074.098, 0.36919588, 0.14774548, -75750.34, 94027.336, 0.0, 10.00061, 9.999436 
2.5494537e+3, 2.926677e+2, -422940.7, -313902.6, 14611.431, 0.26159072, 0.056392275, -311978.56, -240117.16, 0.0, 9.997778, 9.99924 
2.5490603e+3, 3.0265707e+2, -574432.9, -380817.4, 87249.945, 0.56131196, -0.119913734, -347301.34, -347301.34, 0.0, 9.996484, 9.999067 
2.548666e+3, 3.1264922e+2, -233156.0, -11387.449, 18768.068, 0.7086871, -0.047570284, -9810.341, -9810.341, 0.0, 9.997887, 10.000937 
2.5662038e+3, 1.2321518e+2, -1663674.9, -1991208.9, -21675.732, -0.23919049, -0.39484075, -1662246.6, 70224.66, 0.26402995, 10.001882, 9.99716 
2.5658134e+3, 1.332087e+2, -1619194.5, -2037102.4, -23226.492, 0.41935593, 0.05670381, -1617907.6, 16648.582, 0.18292515, 10.001835, 9.996216 
2.565416e+3, 1.4319925e+2, -1284952.6, -1425525.0, -44121.082, 0.4952747, 0.14065544, -1272252.0, 264405.6, 0.1037245, 10.001869, 9.999797 
2.565012e+3, 1.5319024e+2, -1090489.0, -1224801.5, -117894.516, -0.04053939, -0.06479811, -1021965.2, 416765.53, 0.043632858, 10.00219, 10.000334 
2.5646114e+3, 1.6318092e+2, -1197062.8, -1387760.6, -117360.37, -0.24746299, -0.18693532, -1141200.4, 199614.33, 0.011545959, 10.001415, 9.998853 
2.564218e+3, 1.7317124e+2, -1498254.1, -1553227.1, -93182.61, 0.14987892, -0.25318682, -1428588.6, -185670.19, 0.0013158798, 9.998963, 9.998229 
2.5638226e+3, 1.831629e+2, -1513326.6, -1430562.3, -65781.195, 0.35391894, -0.15077588, -1394229.3, -249220.6, 0.000016496271, 9.997853, 9.998924 
2.5634232e+3, 1.931575e+2, -1307404.8, -1295577.6, -56823.145, 0.16106799, 0.15944347, -1244361.1, -197293.02, 0.0, 9.998655, 9.998798 
2.5630248e+3, 2.0314951e+2, -1195337.5, -1315162.6, -63730.258, 0.054113343, 0.3166296, -1167779.8, -218630.27, 0.0, 9.999284, 9.99769 
2.5626275e+3, 2.1313643e+2, -1086562.4, -1267504.8, -51996.45, 0.08521628, 0.027370969, -1072684.8, -221410.88, 0.0, 9.999596, 9.997195 
2.5622296e+3, 2.2312486e+2, -872610.25, -1009004.8, -43415.56, 0.093452744, -0.093994275, -859963.4, -106579.75, 0.0, 9.999942, 9.998134 
2.5618312e+3, 2.3311669e+2, -755652.0, -898291.8, -35386.387, 0.023497205, 0.01812901, -747355.8, -91894.836, 0.0, 10.000068, 9.998154 
2.5614342e+3, 2.4310812e+2, -594229.3, -676399.06, -65122.08, 0.08231648, 0.10585512, -558315.1, -771.2651, 0.0, 10.000096, 9.998986 
2.5610387e+3, 2.530991e+2, -515948.72, -583393.94, -68399.96, 0.38344562, 0.04739152, -473410.13, -13775.62, 0.0, 9.999947, 9.99902 
2.5606418e+3, 2.630907e+2, -487316.2, -578456.7, -63732.555, 0.5030136, 0.11354545, -454537.94, -92818.59, 0.0, 9.999705, 9.998511 
2.56024e+3, 2.7308297e+2, -454767.97, -545274.44, -60316.035, 0.12698211, 0.26136863, -424616.44, -160819.3, 0.0, 9.999399, 9.998214 
2.5598398e+3, 2.8307384e+2, -294611.88, -187678.22, -127417.695, -0.072077714, 0.2365839, -102964.12, 62921.54, 0.0, 9.998841, 10.000264 
2.5594437e+3, 2.930634e+2, -339397.03, -138517.83, -111488.36, 0.27576393, -0.1153889, -88898.21, -20916.842, 0.0, 9.997777, 10.000439 
2.5590536e+3, 3.030562e+2, -511103.44, -417720.1, 54573.094, 0.99303156, -0.0022625048, -392590.22, -392590.22, 0.0, 9.997213, 9.998467 
2.5586525e+3, 3.130514e+2, -338379.94, -95069.69, 91572.01, 0.3080778, 0.45673984, -64457.277, -64457.277, 0.0, 9.997349, 10.000611 
2.5761947e+3, 1.23611815e+2, -1549420.9, -1799094.6, -32345.354, -0.6095744, -0.26798895, -1545298.5, 183291.72, 0.23823424, 10.002289, 9.998293 
2.5758058e+3, 1.3360411e+2, -1498712.9, -1829014.9, 96.28182, 0.26355982, -0.048784915, -1498712.9, 131966.53, 0.16394804, 10.002196, 9.997458 
2.575409e+3, 1.4359377e+2, -1305192.6, -1534058.3, -18723.816, 0.38490462, -0.08684027, -1303670.9, 229114.89, 0.09188185, 10.002141, 9.998841 
2.575006e+3, 1.5358609e+2, -1149843.1, -1412351.4, -86802.6, -0.10281572, -0.0029863508, -1123736.8, 311115.94, 0.03784501, 10.002439, 9.998878 
2.5746056e+3, 1.6357742e+2, -1156133.1, -1346884.4, -183118.9, -0.20971942, 0.02442531, -1045040.7, 291893.44, 0.009625426, 10.001622, 9.999024 
2.5742108e+3, 1.7356744e+2, -1460722.6, -1473308.0, -180659.0, 0.30521613, -0.10767035, -1286246.8, -47208.074, 0.0010124295, 9.998956, 9.998771 
2.5738138e+3, 1.8355913e+2, -1505692.0, -1366828.3, -41408.234, 0.4912199, -0.05723455, -1355418.1, -214291.31, 0.000009793076, 9.997638, 9.999464 
2.573414e+3, 1.9355378e+2, -1280097.8, -1228235.8, -4107.591, 0.15357779, 0.22417982, -1227912.4, -184726.84, 0.0, 9.998581, 9.999303 
2.5730163e+3, 2.0354581e+2, -1151401.8, -1236859.3, -24502.25, 0.070860416, 0.33408254, -1144874.9, -199608.81, 0.0, 9.999303, 9.998228 
2.5726223e+3, 2.1353346e+2, -1036677.6, -1182023.0, -11629.105, 0.41217446, 0.07456829, -1035753.06, -188370.33, 0.0, 9.999635, 9.997777 
2.572226e+3, 2.2352245e+2, -852510.9, -948630.6, -2371.4397, 0.5043986, -0.042946823, -852452.4, -102966.09, 0.0, 9.999859, 9.998573 
2.571825e+3, 2.3351406e+2, -753301.0, -868693.75, 5438.3374, 0.21501637, 0.027943809, -753045.25, -101480.66, 0.0, 9.99994, 9.998417 
2.5714254e+3, 2.4350503e+2, -665170.7, -753580.06, -39816.406, 0.0118707465, 0.07381661, -649882.5, -96230.805, 0.0, 9.999783, 9.998609 
2.571026e+3, 2.534953e+2, -661447.56, -725587.5, -77673.61, -0.014735698, 0.017054867, -609483.8, -153733.39, 0.0, 9.999227, 9.998404 
2.5706285e+3, 2.634862e+2, -647668.5, -626558.56, -92320.484, 0.076764345, 0.040718205, -544191.6, -186350.39, 0.0, 9.9984865, 9.99876 
2.5702313e+3, 2.7347782e+2, -715521.8, -635671.1, -78026.06, 0.25003895, 0.10189379, -587948.9, -328027.03, 0.0, 9.99746, 9.998529 
2.5698328e+3, 2.834685e+2, -554992.2, -362113.22, -98337.21, 0.271173, 0.05508664, -320818.25, -158806.39, 0.0, 9.997252, 9.9998255 
2.5694337e+3, 2.9345888e+2, -318350.8, -215187.19, -138861.8, 0.2773683, -0.13810694, -118636.36, -54532.13, 0.0, 9.998277, 9.999674 
2.5690418e+3, 3.0345306e+2, -363900.97, -306189.47, -35324.727, 0.80909604, 0.1334897, -289432.84, -289432.84, 0.0, 9.99803, 9.998848 
2.5686404e+3, 3.134448e+2, -358463.47, 170785.2, -92835.52, 0.23863491, 0.18757062, 186597.08, 186597.08, 0.0, 9.995991, 10.003105 
2.5861928e+3, 1.24012604e+2, -1565187.3, -1903240.1, 93160.55, -0.27404174, -0.012957264, -1541214.1, 183450.16, 0.21372849, 10.002492, 9.997501 
2.5857994e+3, 1.340018e+2, -1346906.0, -1829339.3, 42404.79, 0.076610744, -0.048058964, -1343207.1, 283574.8, 0.14603144, 10.003717, 9.996748 
2.5854015e+3, 1.4399037e+2, -1146235.5, -1494371.6, -43236.87, 0.12160096, -0.14431582, -1140946.0, 387951.78, 0.0808275, 10.003506, 9.998467 
2.5850013e+3, 1.5398262e+2, -1297620.3, -1552163.0, -39832.59, 0.0027883418, -0.023539485, -1291532.5, 139435.42, 0.032553293, 10.001688, 9.998267 
2.5846013e+3, 1.6397403e+2, -1262235.3, -1425545.0, -115837.4, 0.02313436, 0.0655133, -1202165.6, 130885.21, 0.007938516, 10.001014, 9.998762 
2.584203e+3, 1.7396426e+2, -1108562.1, -1333453.6, -164132.38, 0.31700647, -0.02694294, -1022051.94, 213099.8, 0.00076767127, 10.001513, 9.998494 
2.5838047e+3, 1.8395592e+2, -953321.56, -1103036.6, -11950.181, 0.43049693, 0.03924719, -952373.75, 184865.25, 0.000005913737, 10.001467, 9.999419 
2.583406e+3, 1.9394983e+2, -987982.7, -1089183.0, -13697.3, 0.18563777, 0.23880877, -986161.56, 53142.563, 0.0, 10.000636, 9.999251 
2.5830096e+3, 2.0394167e+2, -989130.1, -1125338.5, -58637.47, 0.1805315, 0.31904882, -967364.75, -25978.715, 0.0, 10.000309, 9.998496 
2.582616e+3, 2.139303e+2, -902999.75, -1072045.9, -45664.504, 0.5622666, 0.0988942, -891453.1, -47959.56, 0.0, 10.000388, 9.998155 
2.5822198e+3, 2.2391988e+2, -767994.06, -891287.4, -54186.89, 0.66587776, 0.0062604817, -747564.4, -1973.1343, 0.0, 10.000386, 9.998717 
2.5818184e+3, 2.3391111e+2, -727665.6, -841830.4, -47258.535, 0.30154684, 0.019300919, -710641.5, -62969.676, 0.0, 10.000083, 9.99853 
2.5814167e+3, 2.4390182e+2, -717122.1, -847845.2, -116681.27, -0.03243824, 0.05168175, -648742.7, -98981.086, 0.0, 9.999733, 9.997986 
2.5810143e+3, 2.5389183e+2, -753155.1, -854417.25, -131927.77, -0.31998062, 0.02499589, -662476.44, -210612.36, 0.0, 9.998982, 9.997635 
2.580616e+3, 2.6388186e+2, -598514.3, -580961.44, -149205.69, -0.2299564, -0.0007250466, -440274.25, -86312.27, 0.0, 9.998737, 9.998952 
2.5802228e+3, 2.7387223e+2, -472019.94, -481931.38, -127773.74, 0.40844226, -0.11230313, -349105.84, -93054.8, 0.0, 9.998986, 9.998841 
2.5798264e+3, 2.8386316e+2, -353959.44, -361275.6, -101474.266, 0.6355628, -0.12089727, -256077.34, -97939.36, 0.0, 9.999046, 9.998972 
2.5794244e+3, 2.9385516e+2, -303336.5, -327888.0, -107352.914, 0.25584608, -0.055976726, -207559.77, -147340.28, 0.0, 9.998898, 9.998606 
2.579028e+3, 3.038485e+2, -301549.44, -193428.39, -113934.11, 0.4186882, 0.1619639, -121379.75, -121379.75, 0.0, 9.998118, 9.999572 
2.5786322e+3, 3.1383902e+2, -278601.34, 175435.38, -174140.8, 0.58260703, -0.00038908585, 234533.0, 234533.0, 0.0, 9.996692, 10.002801 
2.5961944e+3, 1.2441484e+2, -1589815.6, -2127439.8, 127992.46, 0.36713994, 0.21236454, -1560899.6, 159822.92, 0.190764, 10.003135, 9.995658 
2.5957927e+3, 1.344011e+2, -1443200.3, -2084224.3, 92216.88, -0.17126587, 0.085301325, -1430197.8, 192672.52, 0.1293233, 10.003756, 9.995001 
2.5953934e+3, 1.4438838e+2, -1105741.6, -1414442.4, -85171.35, -0.25910586, -0.07532681, -1083801.9, 441197.25, 0.07062257, 10.003485, 9.999067 
2.5949982e+3, 1.5437922e+2, -1222716.0, -1437051.1, -83289.26, 0.3030496, -0.14668785, -1194156.0, 232926.86, 0.027766839, 10.00187, 9.99897 
2.5945985e+3, 1.6437024e+2, -1265368.6, -1500687.1, -74234.234, 0.42744917, -0.09916757, -1243907.8, 85261.52, 0.0064744665, 10.001282, 9.998122 
2.5941947e+3, 1.7436151e+2, -1065168.9, -1393229.3, -106827.64, 0.10427208, 0.00057689927, -1033449.1, 197810.16, 0.0005723583, 10.002123, 9.997802 
2.5937954e+3, 1.843529e+2, -891377.2, -1145455.1, -13645.334, 0.07558225, 0.1067982, -890646.5, 242701.55, 0.0000035552432, 10.002184, 9.998789 
2.593401e+3, 1.9434474e+2, -939252.56, -1141863.9, -33013.59, 0.3394735, 0.17847952, -934009.0, 101423.164, 0.0, 10.001272, 9.998591 
2.5930044e+3, 2.0433576e+2, -886590.0, -1043383.1, -50157.793, 0.38562992, 0.20202097, -871917.6, 65604.086, 0.0, 10.000865, 9.998794 
2.5926057e+3, 2.1432562e+2, -790394.44, -986270.94, -42177.336, 0.23423812, 0.08501699, -781698.6, 57920.805, 0.0, 10.000995, 9.998469 
2.5922078e+3, 2.2431588e+2, -678343.7, -826137.3, -71930.88, 0.17449684, 0.035414644, -649115.44, 92596.33, 0.0, 10.000905, 9.998907 
2.5918096e+3, 2.3430695e+2, -648073.06, -793478.7, -69551.53, 0.16131884, 0.02432355, -620162.2, 23632.783, 0.0, 10.000565, 9.998629 
2.5914103e+3, 2.4429782e+2, -690218.94, -856540.7, -158823.84, 0.14572142, 0.07761921, -594101.4, -48217.895, 0.0, 9.999994, 9.997798 
2.5910103e+3, 2.5428852e+2, -756028.75, -878102.2, -171325.23, 0.1420067, 0.1482952, -635192.4, -187214.11, 0.0, 9.9990425, 9.997443 
2.5906116e+3, 2.642784e+2, -519430.72, -530101.0, -104059.18, 0.21635662, 0.10666531, -420570.0, -70493.26, 0.0, 9.999235, 9.999044 
2.590216e+3, 2.7426752e+2, -195143.05, -346122.78, -101077.31, 0.48495585, -0.12889454, -144476.89, 107700.36, 0.0, 10.000868, 9.99886 
2.5898182e+3, 2.8425807e+2, -60677.4, -238887.7, -157539.58, 0.54101926, -0.16929796, 31210.39, 185476.7, 0.0, 10.001159, 9.998785 
2.5894153e+3, 2.9425055e+2, -212450.94, -303346.16, -166310.1, 0.21024716, -0.026700905, -85490.51, -29149.941, 0.0, 9.999615, 9.9984255 
2.5890175e+3, 3.0424175e+2, -301426.22, -361875.4, -175381.61, 0.29028133, 0.054412793, -153683.88, -153683.88, 0.0, 9.99884, 9.998063 
2.5886273e+3, 3.1423172e+2, -51302.5, 243848.1, -94496.41, 1.0843463, -0.01124638, 271509.9, 271509.9, 0.0, 9.998437, 10.002415 
2.6061898e+3, 1.2480988e+2, -1350351.6, -1956355.5, -144143.5, 0.2818871, 0.1421982, -1317812.9, 399040.47, 0.16948596, 10.004952, 9.9959545 
2.6057878e+3, 1.3479699e+2, -1578966.5, -2053369.9, -31444.936, -0.17832638, -0.04253705, -1576891.3, 42094.563, 0.11390972, 10.002248, 9.995914 
2.6053885e+3, 1.447861e+2, -1433813.6, -1600904.4, -116678.48, -0.18292613, -0.066823296, -1373854.0, 147243.88, 0.061296407, 10.001171, 9.998852 
2.6049933e+3, 1.5477788e+2, -1238877.6, -1498059.9, -175176.88, 0.43951356, -0.018704394, -1150567.9, 272613.06, 0.023481611, 10.001975, 9.998515 
2.6045936e+3, 1.647687e+2, -1091387.9, -1455777.4, -134515.86, 0.5073052, 0.038163386, -1047110.8, 278160.72, 0.005220199, 10.002663, 9.99777 
2.604188e+3, 1.7475891e+2, -972371.2, -1399900.1, -128567.62, -0.054654416, 0.052404076, -936686.5, 290681.03, 0.00041937284, 10.002997, 9.997341 
2.6037878e+3, 1.8474916e+2, -931870.25, -1239761.1, -82211.57, -0.12225075, 0.09680242, -911293.7, 218171.05, 0.0000020172258, 10.002229, 9.998126 
2.6033944e+3, 1.9473948e+2, -1175826.3, -1345800.1, -98469.65, 0.35912114, 0.07477441, -1130739.9, -99177.22, 0.0, 10.000033, 9.997799 
2.6029974e+3, 2.0473035e+2, -1076971.8, -1092834.9, -35008.504, 0.4138783, 0.10637401, -1049007.5, -115354.336, 0.0, 9.999408, 9.999147 
2.6025963e+3, 2.1472171e+2, -917609.44, -1010208.56, -8868.868, -0.024192687, 0.09609844, -916767.6, -81030.66, 0.0, 9.999998, 9.998776 
2.6021972e+3, 2.2471245e+2, -728968.56, -877010.3, -63200.43, -0.1717754, 0.09195299, -705658.1, 32167.996, 0.0, 10.000688, 9.99866 
2.6018012e+3, 2.3470278e+2, -594417.56, -797229.2, -86512.27, 0.021900218, 0.025839701, -562528.56, 77389.53, 0.0, 10.001077, 9.998357 
2.6014042e+3, 2.4469362e+2, -523707.3, -756054.1, -201693.3, 0.27415717, 0.080776945, -407122.38, 134884.4, 0.0, 10.00108, 9.99796 
2.6010057e+3, 2.5468504e+2, -549627.5, -762179.8, -157014.0, 0.5538778, 0.19938874, -466304.06, -22211.697, 0.0, 10.000403, 9.997583 
2.6006073e+3, 2.6467508e+2, -443948.34, -512973.63, -8794.012, 0.5915985, 0.17805657, -442845.6, -96656.93, 0.0, 9.999848, 9.998874 
2.6002085e+3, 2.7466363e+2, -441350.1, -495653.47, -6585.5776, 0.4268674, -0.08771999, -440562.84, -192266.86, 0.0, 9.999327, 9.998583 
2.5998092e+3, 2.8465354e+2, -328315.84, -376235.03, -156923.03, 0.34544665, -0.16926837, -193533.81, -43143.633, 0.0, 9.999353, 9.998718 
2.5994065e+3, 2.9464552e+2, -263081.94, -348840.97, -142740.86, 0.15702213, -0.07007308, -156919.16, -104453.71, 0.0, 9.999351, 9.998247 
2.5990078e+3, 3.0463475e+2, -378800.44, -649551.4, -97243.48, 0.20857404, -0.061147276, -347494.16, -347494.16, 0.0, 9.9993925, 9.995817 
2.5986147e+3, 3.1462032e+2, -268957.34, -266299.56, -106737.305, 0.7226826, -0.32214245, -160882.86, -160882.86, 0.0, 9.9987, 9.9987755 
2.6161826e+3, 1.2520008e+2, -1075162.1, -1430883.8, -179843.67, -0.19792242, -0.18117154, -1000083.8, 712948.0, 0.14987579, 10.0052185, 9.999758 
2.615785e+3, 1.3519044e+2, -1341660.3, -1575373.1, -98476.04, 0.06548058, -0.34485853, -1305699.9, 309420.34, 0.09979449, 10.002496, 9.999107 
2.6153857e+3, 1.4518334e+2, -1463275.5, -1729366.0, -73093.91, 0.20676808, -0.09511576, -1444519.1, 72678.76, 0.05285711, 10.001439, 9.997828 
2.6149866e+3, 1.5517859e+2, -1263972.3, -1633931.6, -124108.62, 0.3315736, 0.42525992, -1226195.5, 193068.34, 0.019694533, 10.002305, 9.997426 
2.6145858e+3, 1.6516909e+2, -1027400.94, -1389211.4, -102440.266, 0.24117345, 0.48846152, -1000410.25, 320951.13, 0.004163879, 10.00294, 9.998092 
2.614183e+3, 1.7515558e+2, -893701.1, -1324998.3, -99427.125, -0.08013697, 0.10848186, -871883.8, 351601.47, 0.00030229846, 10.003374, 9.997664 
2.6137823e+3, 1.8514386e+2, -925433.9, -1278880.8, -153711.05, -0.13616358, -0.040822927, -867938.9, 257658.66, 0.0000010444409, 10.002436, 9.99776 
2.6133838e+3, 1.9513376e+2, -1185577.0, -1394235.4, -166399.38, 0.093797274, -0.049461294, -1093505.3, -65806.02, 0.0, 10.0001135, 9.997439 
2.612986e+3, 2.0512553e+2, -1027378.3, -974987.5, 12031.4795, 0.15645623, 0.042741064, -972356.6, -42576.855, 0.0, 9.999327, 9.999995 
2.612589e+3, 2.1511902e+2, -854687.44, -892315.56, 36995.707, 0.03326367, 0.17569362, -831996.7, -155.94952, 0.0, 10.000042, 9.999557 
2.6121914e+3, 2.2510967e+2, -759067.4, -991312.4, -14673.834, -0.050007094, 0.1723038, -758143.9, -24212.281, 0.0, 10.000895, 9.997779 
2.6117945e+3, 2.3509803e+2, -555750.6, -872996.6, -53379.277, -0.036044456, 0.009057057, -547009.94, 89036.42, 0.0, 10.001723, 9.997529 
2.6113966e+3, 2.450881e+2, -263511.9, -424460.44, -197684.03, 0.1499701, -0.06541819, -130549.805, 407590.16, 0.0, 10.001973, 9.999806 
2.6109982e+3, 2.5507975e+2, -229231.23, -412463.34, -119291.64, 0.46628004, -0.091659, -170434.53, 269780.0, 0.0, 10.001747, 9.999344 
2.610598e+3, 2.650716e+2, -366980.44, -508615.28, -10516.4375, 0.43373254, 0.0007515532, -366203.84, -23909.951, 0.0, 10.000504, 9.99859 
2.610196e+3, 2.750636e+2, -643300.25, -629738.1, -18554.148, 0.13385776, 0.1303092, -616764.75, -372387.34, 0.0, 9.99808, 9.998266 
2.6097974e+3, 2.8505355e+2, -507599.56, -373780.1, -30123.09, 0.1692016, 0.033288807, -367311.97, -220838.52, 0.0, 9.997756, 9.999491 
2.6094002e+3, 2.950422e+2, -199245.47, -235290.92, 7866.753, 0.381728, -0.25825438, -197603.39, -149027.53, 0.0, 9.999449, 9.998969 
2.6090014e+3, 3.0503285e+2, -245569.94, -537498.6, 78275.23, 0.38796616, -0.15130638, -225906.39, -225906.39, 0.0, 10.000098, 9.996243 
2.6086017e+3, 3.1502405e+2, 163331.72, 297813.8, 24851.566, 0.27637264, 0.13189222, 302259.28, 302259.28, 0.0, 10.000129, 10.001961 
2.6261806e+3, 1.2559627e+2, -1026736.56, -1343391.8, -159824.34, -0.13714907, -0.18716262, -960094.3, 749058.94, 0.13183442, 10.005256, 10.00034 
2.6257807e+3, 1.3558763e+2, -1242199.6, -1471039.9, -205912.02, 0.18157293, -0.3221512, -1121053.0, 490174.84, 0.08692905, 10.00299, 9.999633 
2.62538e+3, 1.4558104e+2, -1431872.1, -1715113.9, -112682.18, 0.2582883, -0.052728217, -1392513.1, 120785.69, 0.04528474, 10.001657, 9.997838 
2.6249787e+3, 1.5557627e+2, -1473529.9, -1753311.4, -77813.086, 0.16915193, 0.4642141, -1453344.6, -37978.652, 0.01638905, 10.000928, 9.997272 
2.6245782e+3, 1.6556647e+2, -1344888.4, -1561421.1, -25604.178, 0.07876877, 0.5213825, -1341902.0, -24434.264, 0.0032885466, 10.000835, 9.997929 
2.624178e+3, 1.7555234e+2, -1263273.9, -1524303.1, -60589.7, -0.033821914, 0.091128685, -1249895.6, -30297.283, 0.00021471751, 10.000936, 9.997481 
2.6237768e+3, 1.8554047e+2, -1074695.5, -1352120.8, -155963.64, -0.06679689, -0.064320706, -1004683.9, 117028.28, 0.00000047553752, 10.001451, 9.997721 
2.6233754e+3, 1.9553052e+2, -964245.6, -1298392.5, -129650.73, -0.01743671, -0.05305731, -919841.3, 103970.33, 0.0, 10.001725, 9.997305 
2.6229772e+3, 2.055223e+2, -743386.0, -840312.44, 61705.207, 0.046882145, 0.053851943, -713387.7, 212502.92, 0.0, 10.001284, 9.99998 
2.622582e+3, 2.1551584e+2, -862389.25, -911844.1, 24568.018, 0.119160786, 0.18639582, -852259.4, -24309.965, 0.0, 10.000067, 9.999415 
2.6221856e+3, 2.2550644e+2, -931797.94, -1084572.9, 11855.008, 0.08138522, 0.18648042, -930883.5, -200842.22, 0.0, 9.999772, 9.997671 
2.6217875e+3, 2.3549442e+2, -869559.25, -1046057.25, 53159.934, -0.046562545, -0.0020100956, -854784.6, -222622.36, 0.0, 9.9996805, 9.997328 
2.621389e+3, 2.4548408e+2, -527740.2, -442776.97, -143246.33, 0.03223201, -0.15059203, -335845.72, 198412.02, 0.0, 9.999694, 10.000774 
2.6209894e+3, 2.554753e+2, -551488.56, -470518.78, -160294.9, 0.26883355, -0.3248049, -345675.25, 90655.1, 0.0, 9.999119, 10.000214 
2.620588e+3, 2.654686e+2, -640155.25, -652487.44, -139157.3, 0.20906594, -0.13445579, -507027.5, -168630.45, 0.0, 9.998688, 9.998479 
2.6201835e+3, 2.7546364e+2, -690802.7, -674705.94, -99460.555, -0.11189882, 0.3081801, -582968.7, -342510.63, 0.0, 9.997856, 9.99807 
2.6197863e+3, 2.8545374e+2, -442762.28, -246142.44, 23198.146, 0.04137412, 0.18907431, -243442.48, -100888.586, 0.0, 9.997795, 10.00035 
2.6193935e+3, 2.9543966e+2, -313698.9, -212934.52, 64683.133, 0.5707465, -0.46936437, -181327.23, -136648.31, 0.0, 9.998326, 9.999673 
2.6189956e+3, 3.054332e+2, -430349.3, -468719.75, 82866.305, 0.6150966, -0.16888358, -364476.3, -364476.3, 0.0, 9.998142, 9.997672 
2.6185918e+3, 3.1542695e+2, -373533.97, -223657.88, -71519.36, 0.08747508, 0.23266108, -195006.69, -195006.69, 0.0, 9.997567, 9.999629 
2.6361817e+3, 1.2599617e+2, -1119670.1, -1496525.8, -208632.84, 0.20481832, 0.0238865, -1026970.4, 678269.5, 0.11528385, 10.004948, 9.999244 
2.6357752e+3, 1.3598701e+2, -1264715.0, -1580186.4, -248693.42, 0.11394443, -0.04369841, -1127952.9, 479368.72, 0.07524945, 10.003187, 9.998771 
2.6353714e+3, 1.4597833e+2, -1306660.1, -1516156.9, -111529.16, 0.024815174, -0.005231549, -1258402.0, 251004.6, 0.038529173, 10.001933, 9.9990835 
2.63497e+3, 1.5597014e+2, -1346020.6, -1558482.4, -75247.25, -0.023355413, 0.05286073, -1322070.3, 89423.05, 0.013527696, 10.001231, 9.998461 
2.6345706e+3, 1.659604e+2, -1356566.9, -1631423.6, -1347.9424, 0.018554585, 0.09509791, -1356560.3, -42966.297, 0.0025719018, 10.001012, 9.997374 
2.6341724e+3, 1.7594938e+2, -1265329.0, -1566244.3, -35962.676, 0.0983323, 0.04116516, -1261090.9, -45386.203, 0.00015054179, 10.001065, 9.997138 
2.6337725e+3, 1.8593977e+2, -1011467.75, -1243579.0, -101098.26, 0.14870812, 0.09333715, -973608.6, 144191.78, 0.0000001940375, 10.001553, 9.998411 
2.633372e+3, 1.959312e+2, -816482.8, -1153261.0, -65436.848, 0.18839166, 0.18450634, -804215.1, 215670.44, 0.0, 10.002403, 9.997976 
2.6329732e+3, 2.0592117e+2, -751110.94, -994307.8, 34332.742, 0.22768266, 0.15376188, -746357.0, 175623.98, 0.0, 10.001884, 9.998624 
2.6325762e+3, 2.1591064e+2, -884701.44, -1032238.56, -14417.644, 0.2714718, 0.019943967, -883305.7, -59226.793, 0.0, 10.000369, 9.99844 
2.6321787e+3, 2.2590202e+2, -799404.3, -770147.5, 29619.809, 0.24350783, 0.025530038, -751740.75, -25578.996, 0.0, 9.999582, 9.999928 
2.631781e+3, 2.3589447e+2, -783025.5, -777262.2, 97718.64, 0.16894597, 0.07292235, -682382.75, -54145.844, 0.0, 9.999275, 9.999366 
2.6313803e+3, 2.4588498e+2, -831311.0, -827431.7, -122295.82, 0.0861391, 0.037056122, -707060.1, -176731.73, 0.0, 9.998632, 9.998643 
2.630977e+3, 2.5587457e+2, -889692.06, -827395.8, -201755.06, 0.032950953, -0.083711654, -654398.6, -221972.3, 0.0, 9.997627, 9.998472 
2.6305768e+3, 2.6586577e+2, -714922.0, -544890.7, -150187.11, 0.113075994, -0.0923294, -457326.4, -122814.51, 0.0, 9.997544, 9.99977 
2.6301774e+3, 2.7585843e+2, -560043.2, -457906.44, -85754.664, 0.26425186, -0.0119512, -409165.78, -172579.33, 0.0, 9.998074, 9.9994545 
2.62978e+3, 2.8585047e+2, -374320.34, -123468.96, 26845.256, 0.41466066, -0.04570667, -120628.24, 18032.904, 0.0, 9.997848, 10.00118 
2.6293832e+3, 2.958416e+2, -438125.03, -150304.47, 57754.98, 0.5961532, -0.25364956, -139147.64, -98408.28, 0.0, 9.996925, 10.000786 
2.628982e+3, 3.0583742e+2, -499348.66, -12911.093, 88514.98, 0.43245584, -0.013741578, 2694.9255, 2694.9255, 0.0, 9.995561, 10.002046 
2.6285806e+3, 3.1583306e+2, -754996.0, -54254.934, -87577.04, 0.3275588, 0.17583573, -43475.566, -43475.566, 0.0, 9.9934225, 10.00278 
2.6461765e+3, 1.2639673e+2, -1616418.8, -1757482.4, -56584.09, 0.20873077, -0.028129717, -1596526.6, 104782.79, 0.10016667, 10.001155, 9.999113 
2.6457706e+3, 1.3638833e+2, -1306824.5, -1644313.0, -29421.492, 0.14127114, 0.012207974, -1304278.8, 299105.72, 0.06469185, 10.003076, 9.998314 
2.6453662e+3, 1.4637761e+2, -1144563.9, -1560940.0, 30198.004, 0.019429965, -0.047713857, -1142385.3, 363104.25, 0.032530528, 10.003657, 9.997906 
2.6449636e+3, 1.5636577e+2, -1142984.4, -1566391.8, -85410.266, -0.08368919, -0.24489598, -1126404.5, 281204.38, 0.011066901, 10.003135, 9.997474 
2.6445642e+3, 1.6635619e+2, -1066093.4, -1451241.3, -12750.44, -0.012398434, -0.16895327, -1065671.8, 244035.69, 0.0019930317, 10.002862, 9.997705 
2.6441666e+3, 1.7634787e+2, -1091989.6, -1472362.1, 15193.866, 0.14872353, 0.018309684, -1091383.8, 120411.28, 0.00010503105, 10.0022335, 9.997217 
2.6437667e+3, 1.8633951e+2, -958768.9, -1209635.3, -34177.16, 0.21815401, 0.18963417, -954196.06, 159684.44, 0.00000008640195, 10.001871, 9.998487 
2.6433665e+3, 1.9633128e+2, -993544.5, -1252334.9, -47417.426, 0.23869273, 0.3053773, -985129.94, 30832.746, 0.0, 10.001267, 9.997842 
2.6429674e+3, 2.0631976e+2, -947285.0, -1172719.1, 21575.965, 0.30562714, 0.16829546, -945238.56, -27166.412, 0.0, 10.000924, 9.997851 
2.6425698e+3, 2.1630643e+2, -962554.8, -1145058.0, 35083.027, 0.38892534, -0.16797315, -956043.06, -135846.5, 0.0, 10.000188, 9.997751 
2.642172e+3, 2.2629862e+2, -733043.3, -631800.25, 32908.633, 0.38693565, -0.10064182, -622043.7, 100228.4, 0.0, 9.999579, 10.000882 
2.641774e+3, 2.3629424e+2, -852534.9, -742133.9, -38334.098, 0.32514346, 0.15544213, -730128.75, -105811.88, 0.0, 9.998512, 9.999984 
2.6413712e+3, 2.4628556e+2, -925492.56, -997049.75, -209063.69, 0.13984506, 0.21873136, -749168.06, -222763.95, 0.0, 9.998546, 9.997513 
2.6409653e+3, 2.5627425e+2, -839352.44, -924950.2, -129556.805, -0.13534862, 0.12368744, -745708.25, -317190.66, 0.0, 9.998519, 9.997375 
2.6405665e+3, 2.662636e+2, -459459.75, -325610.97, -39232.117, 0.088485494, -0.057985313, -314959.38, 15659.662, 0.0, 9.998893, 10.000619 
2.6401716e+3, 2.7625355e+2, -351614.44, -269527.9, -45950.19, 0.63197285, -0.3395, -248959.72, -16248.334, 0.0, 9.99913, 10.000241 
2.6397735e+3, 2.8624755e+2, -306342.7, -17392.664, -48493.453, 0.7644066, -0.25038084, -9471.339, 125293.94, 0.0, 9.998031, 10.001804 
2.6393715e+3, 2.9624432e+2, -503110.9, -57676.79, -32010.518, 0.5275161, 0.028749347, -55388.156, -18594.877, 0.0, 9.995969, 10.001877 
2.638966e+3, 3.062414e+2, -213131.0, 612928.56, -95385.61, 0.06763491, 0.0922352, 623799.75, 623799.75, 0.0, 9.995427, 10.00641 
2.638564e+3, 3.162348e+2, -594880.94, -63833.277, 49756.867, 0.098114066, -0.37333867, -59211.5, -59211.5, 0.0, 9.994911, 10.001993 
2.6561674e+3, 1.2679784e+2, -1539916.5, -1655535.0, 11109.987, -0.01323804, -0.26924485, -1538858.6, 158508.2, 0.08642556, 10.00141, 9.999716 
2.655767e+3, 1.367911e+2, -1277828.9, -1640248.3, 43023.516, 0.2684131, -0.103032224, -1272791.5, 326633.38, 0.055198077, 10.003283, 9.998249 
2.6553634e+3, 1.467783e+2, -1351557.9, -2023786.8, 36976.207, 0.18794666, -0.16998808, -1349530.1, 152024.78, 0.027234865, 10.003742, 9.994686 
2.65496e+3, 1.567629e+2, -1251699.6, -1870204.4, -72008.94, -0.03167855, -0.39845508, -1243426.8, 160289.77, 0.008968037, 10.003445, 9.995235 
2.654559e+3, 1.6675377e+2, -929494.3, -1215751.4, -3193.462, -0.033051517, -0.26933774, -929458.7, 376350.28, 0.0015322798, 10.003093, 9.999206 
2.6541603e+3, 1.7674771e+2, -932563.44, -1257746.5, 28320.709, 0.06515598, 0.011383689, -930115.4, 277752.9, 0.00007382683, 10.002716, 9.998463 
2.6537594e+3, 1.8673909e+2, -970658.9, -1296585.0, -33327.797, 0.061707612, 0.15236503, -967285.8, 142669.89, 0.000000036839044, 10.002123, 9.997781 
2.6533574e+3, 1.9672942e+2, -998222.75, -1289953.1, -47515.6, 0.009475858, 0.19939536, -990678.7, 21376.076, 0.0, 10.001371, 9.997532 
2.6529592e+3, 2.0671754e+2, -904496.06, -1080049.8, 35463.43, 0.18152481, 0.004071857, -897602.75, 16564.121, 0.0, 10.000912, 9.998487 
2.652563e+3, 2.1670462e+2, -885275.25, -1078671.1, 62712.71, 0.45435897, -0.3377943, -866719.7, -50434.7, 0.0, 10.000577, 9.998019 
2.6521647e+3, 2.2669634e+2, -893612.9, -1000306.8, 11830.759, 0.4795001, -0.17688759, -892316.75, -173945.14, 0.0, 9.999722, 9.99829 
2.6517653e+3, 2.3669066e+2, -941507.56, -959306.3, -114344.336, 0.39115947, 0.20582615, -835716.8, -215277.72, 0.0, 9.998613, 9.998456 
2.6513633e+3, 2.466829e+2, -631533.3, -447987.8, -182128.92, 0.2916674, 0.21382955, -335816.47, 186697.47, 0.0, 9.998791, 10.001175 
2.6509598e+3, 2.5667396e+2, -484016.06, -431410.06, -13908.628, 0.1714592, 0.010507599, -427959.1, -3364.448, 0.0, 9.999556, 10.00026 
2.65056e+3, 2.6666507e+2, -409945.3, -497517.75, 66658.7, 0.27607322, -0.005593423, -373978.06, -47297.105, 0.0, 10.0000925, 9.998844 
2.6501635e+3, 2.7665627e+2, -258607.75, -382778.3, -28132.58, 0.5876719, 0.022943402, -252531.28, -23762.521, 0.0, 10.000441, 9.998832 
2.6497623e+3, 2.866478e+2, -275558.9, -67449.414, -172692.95, 0.61749434, -0.049095117, 30114.902, 160961.75, 0.0, 9.998507, 10.001238 
2.6493573e+3, 2.9664028e+2, -643541.94, -180770.05, -181025.89, 0.35742474, -0.14024822, -118370.664, -85458.64, 0.0, 9.995245, 10.001367 
2.6489547e+3, 3.0663532e+2, -404005.53, 282599.47, -257636.11, 0.2179492, -0.15956537, 368520.66, 368520.66, 0.0, 9.995158, 10.004259 
2.6485574e+3, 3.1662938e+2, -499986.9, -308192.56, -237008.4, 0.57134664, -0.35786137, -148415.63, -148415.63, 0.0, 9.9968, 9.999416 
2.6661614e+3, 1.2719932e+2, -1567209.9, -1629254.4, -146145.81, 0.031073378, -0.13963611, -1448830.0, 244606.05, 0.07399584, 10.001031, 10.000091 
2.665761e+3, 1.3719136e+2, -1497263.9, -1760820.4, -136586.72, 0.23745698, -0.16158189, -1439249.0, 156255.22, 0.046709962, 10.001734, 9.998175 
2.6653588e+3, 1.47179e+2, -1505002.5, -2122873.0, -33542.05, 0.17324339, -0.1896952, -1503186.9, -5557.255, 0.022591894, 10.002761, 9.994482 
2.6649556e+3, 1.5716454e+2, -1244007.6, -1902264.9, 56368.734, 0.009482468, -0.29474092, -1239215.5, 160566.27, 0.007195392, 10.003661, 9.994918 
2.6645544e+3, 1.6715474e+2, -873780.06, -1187428.1, 80418.42, -0.019702297, -0.2164572, -854363.06, 447515.28, 0.001170623, 10.003456, 9.9992285 
2.6641545e+3, 1.7714752e+2, -1012614.2, -1307190.0, 11428.902, 0.0138752125, -0.058271397, -1012171.4, 191773.5, 0.00005271245, 10.002235, 9.998354 
2.663753e+3, 1.8713821e+2, -972000.9, -1325629.5, -41380.516, 0.010761177, 0.030609082, -967223.2, 138815.0, 0.000000014947995, 10.002271, 9.997505 
2.663351e+3, 1.9712785e+2, -913025.5, -1293586.6, -19871.594, -0.010876636, 0.043459296, -911990.7, 96153.76, 0.0, 10.002177, 9.997123 
2.6629522e+3, 2.0711623e+2, -777822.2, -1032978.9, 22815.635, 0.14389239, -0.103535146, -775798.1, 134457.19, 0.0, 10.001854, 9.998351 
2.6625553e+3, 2.171042e+2, -869117.56, -1109294.8, -21507.668, 0.39547342, -0.35077643, -867206.75, -54840.45, 0.0, 10.000876, 9.997664 
2.6621562e+3, 2.2709544e+2, -989008.2, -1139353.0, 26930.22, 0.46154845, -0.18061732, -984329.94, -269870.78, 0.0, 9.999498, 9.997425 
2.661756e+3, 2.370884e+2, -1126680.1, -1093038.5, 100232.02, 0.4225711, 0.16441475, -1008225.7, -391683.1, 0.0, 9.997579, 9.998029 
2.6613554e+3, 2.4708115e+2, -560154.44, -170962.44, 2324.2764, 0.4301502, 0.133187, -170948.55, 347661.66, 0.0, 9.998263, 10.00332 
2.660954e+3, 2.5707388e+2, -389753.28, -229869.0, -46053.617, 0.4320713, -0.11831148, -217552.36, 203116.88, 0.0, 9.999546, 10.001654 
2.6605535e+3, 2.6706675e+2, -605488.2, -742313.56, 13181.246, 0.4190062, 0.05164925, -604229.94, -281488.7, 0.0, 9.999393, 9.99751 
2.660154e+3, 2.7705964e+2, -667580.25, -728886.5, 22498.867, 0.44240505, 0.3818187, -660209.56, -435390.03, 0.0, 9.998292, 9.997494 
2.6597503e+3, 2.870483e+2, -374895.3, -222969.6, -193399.86, 0.3888085, 0.14274028, -91149.25, 35775.863, 0.0, 9.998281, 10.000284 
2.6593432e+3, 2.9703543e+2, -396479.78, -224592.94, -198598.3, 0.170035, -0.38506433, -94139.59, -65099.918, 0.0, 9.997633, 9.99993 
2.6589456e+3, 3.0702758e+2, -397018.63, -111740.836, -140681.19, 0.5391971, -0.42286485, -54037.395, -54037.395, 0.0, 9.996923, 10.000698 
2.6585463e+3, 3.1702277e+2, -596859.25, -467050.66, -153498.48, 0.5534904, -0.1670908, -365298.56, -365298.56, 0.0, 9.99661, 9.99843 
2.6761562e+3, 1.2760027e+2, -1488704.3, -1544667.8, -86952.3, 0.19294254, 0.1533372, -1425342.3, 264178.13, 0.06277623, 10.001405, 10.00049 
2.675753e+3, 1.3758919e+2, -1386275.5, -1612945.9, -76272.22, 0.036924955, -0.20324187, -1363000.6, 228617.61, 0.0391446, 10.002094, 9.999021 
2.6753518e+3, 1.475798e+2, -1301169.8, -1734472.6, 35783.72, 0.0005829441, -0.11371715, -1298234.5, 195475.95, 0.018542886, 10.002951, 9.99705 
2.674952e+3, 1.5757066e+2, -1062342.4, -1614134.3, 106482.664, 0.040205386, 0.072810695, -1042506.8, 353297.94, 0.0057106, 10.004034, 9.996716 
2.6745507e+3, 1.675588e+2, -958335.7, -1396168.5, 64838.664, 0.028959827, -0.028143944, -948935.56, 348983.13, 0.0008890518, 10.003594, 9.997725 
2.674149e+3, 1.7754655e+2, -1023141.3, -1409777.6, 1862.4053, -0.0014360073, -0.22619224, -1023132.3, 176901.67, 0.000037964888, 10.002574, 9.997474 
2.6737493e+3, 1.8753634e+2, -890964.3, -1226259.5, -6930.9546, 0.16870457, -0.22017145, -890821.1, 211312.97, 0.0000000057994387, 10.002559, 9.998052 
2.6733497e+3, 1.9752695e+2, -807863.75, -1228672.5, 16496.082, 0.38151422, -0.15261376, -807218.06, 197010.7, 0.0, 10.002814, 9.99726 
2.6729476e+3, 2.0751682e+2, -828935.4, -1241772.0, 11920.915, 0.27333483, -0.047240246, -828591.44, 77741.05, 0.0, 10.002281, 9.996719 
2.6725456e+3, 2.1750645e+2, -783056.5, -1060730.3, -64056.66, 0.08029365, 0.020711696, -768991.7, 39446.3, 0.0, 10.001397, 9.997752 
2.6721454e+3, 2.2749816e+2, -647635.6, -457406.16, 2552.1155, 0.21506956, -0.055168267, -457371.9, 253141.17, 0.0, 9.999581, 10.002078 
2.671746e+3, 2.3749083e+2, -960812.94, -729337.2, 202259.7, 0.45767915, -0.15605451, -612042.3, 534.63135, 0.0, 9.99747, 10.000579 
2.671346e+3, 2.4748182e+2, -895162.75, -871553.9, 163073.3, 0.4921238, -0.14851692, -719858.3, -205190.42, 0.0, 9.998273, 9.9985075 
2.670946e+3, 2.574725e+2, -507104.6, -602855.6, -53171.617, 0.45131573, -0.14651726, -483430.94, -66666.2, 0.0, 10.0000725, 9.998846 
2.6705447e+3, 2.6746505e+2, -446070.22, -317861.1, -78993.05, 0.43637577, -0.088596925, -280234.16, 38602.645, 0.0, 9.9989605, 10.000649 
2.6701432e+3, 2.774584e+2, -749027.25, -531321.3, 60848.594, 0.48057938, -0.00059249357, -515468.53, -294568.03, 0.0, 9.996697, 9.999616 
2.6697412e+3, 2.8744885e+2, -500558.97, -485642.3, 3160.3, 0.4850046, -0.02284905, -485000.38, -362004.78, 0.0, 9.998291, 9.998485 
2.6693374e+3, 2.97438e+2, 18216.504, -196359.88, -64590.367, 0.38551715, -0.153648, 36158.79, 61262.207, 0.0, 10.001196, 9.998419 
2.6689374e+3, 3.074289e+2, -42954.6, -41600.652, -89268.24, 0.64240646, -0.18911636, 46993.188, 46993.188, 0.0, 9.999808, 9.999777 
2.6685315e+3, 3.1742337e+2, -515743.2, -330520.75, 50362.64, 0.18313268, 0.09535441, -317712.66, -317712.66, 0.0, 9.996741, 9.999291 
2.6861513e+3, 1.2800072e+2, -1392083.4, -1635424.1, 88599.98, 0.28602713, 0.10910438, -1363242.5, 322354.97, 0.05266759, 10.002706, 9.999199 
2.685746e+3, 1.3799046e+2, -1174055.6, -1568390.0, 4507.6543, -0.15863779, -0.05845096, -1174004.1, 413691.97, 0.032421984, 10.0038805, 9.998446 
2.6853457e+3, 1.4798194e+2, -1130167.8, -1485142.4, 29694.805, -0.13652916, 0.043398306, -1127700.9, 362076.44, 0.015032093, 10.00339, 9.998555 
2.6849476e+3, 1.5797405e+2, -1297546.3, -1638975.6, 34087.316, 0.08752773, 0.19895476, -1294176.4, 97676.836, 0.0044763535, 10.00203, 9.997515 
2.6845467e+3, 1.6796152e+2, -1146036.8, -1592490.3, 14304.076, 0.10913201, 0.05159519, -1145579.0, 148394.88, 0.00066900725, 10.00278, 9.996766 
2.6841447e+3, 1.7794743e+2, -942216.2, -1458085.6, -9758.837, 0.05452027, -0.23498619, -942031.6, 254077.28, 0.000027210404, 10.003538, 9.996678 
2.6837447e+3, 1.8793693e+2, -805976.3, -1170382.9, -35554.1, 0.25457773, -0.24174848, -802539.8, 295671.44, 0.000000001728097, 10.003127, 9.998139 
2.6833457e+3, 1.9792789e+2, -959339.3, -1301863.8, -44502.215, 0.527344, -0.15172951, -953651.8, 46648.824, 0.0, 10.001808, 9.997239 
2.682942e+3, 2.0791878e+2, -995102.1, -1313557.5, 54454.97, 0.2905288, 0.044358864, -986047.9, -83651.35, 0.0, 10.00112, 9.996778 
2.6825365e+3, 2.1790965e+2, -944520.3, -1070801.5, 113089.43, -0.118638165, 0.2385841, -878138.94, -73644.9, 0.0, 10.000024, 9.998343 
2.6821354e+3, 2.2790132e+2, -525090.8, -136218.77, -19078.254, 0.075193614, 0.0019194991, -135285.03, 571275.5, 0.0, 9.999327, 10.004398 
2.681736e+3, 2.3789343e+2, -811450.75, -584089.0, -23739.36, 0.4713771, -0.38376275, -581636.75, 26979.13, 0.0, 9.99821, 10.001216 
2.681337e+3, 2.4788313e+2, -1044621.6, -1324294.1, 156760.92, 0.4905556, -0.3361101, -974390.9, -463666.56, 0.0, 9.998897, 9.995095 
2.6809376e+3, 2.5787225e+2, -698498.94, -911931.06, 129663.56, 0.37204403, -0.15890744, -637283.6, -224435.55, 0.0, 9.999719, 9.996889 
2.6805353e+3, 2.6786447e+2, -185382.55, 99351.984, -48327.92, 0.39945802, -0.22162797, 107331.07, 422252.0, 0.0, 9.999513, 10.003238 
2.6801327e+3, 2.7785784e+2, -413797.8, -214668.2, 968.27246, 0.49567947, -0.37928006, -214663.48, 2312.7314, 0.0, 9.998341, 10.001001 
2.6797327e+3, 2.8785047e+2, -536879.56, -659798.6, 97157.69, 0.5872635, -0.15487953, -483374.34, -364317.4, 0.0, 9.998716, 9.997073 
2.6793322e+3, 2.978427e+2, -327115.78, -517416.06, 59877.137, 0.58939654, 0.17132251, -309843.4, -288696.06, 0.0, 9.999502, 9.997028 
2.678929e+3, 3.0783248e+2, -114953.164, -138912.23, -107602.13, 0.6254537, 0.11711985, -18665.768, -18665.768, 0.0, 9.999576, 9.999223 
2.6785195e+3, 3.178261e+2, -235002.52, -66972.78, 152077.0, 0.050963126, 0.35299492, 22753.293, 22753.293, 0.0, 9.998135, 10.000427 
2.6961464e+3, 1.284007e+2, -1489310.8, -1930774.3, 128942.58, 0.27974665, -0.1649078, -1454408.6, 227263.8, 0.04360755, 10.003044, 9.996985 
2.6957402e+3, 1.3839406e+2, -1232237.4, -1716941.3, 41697.7, -0.36883575, 0.2414775, -1228676.4, 355073.4, 0.026483878, 10.003964, 9.997375 
2.6953402e+3, 1.4838442e+2, -1069305.8, -1371839.8, 5698.8696, -0.24100555, 0.21996458, -1069198.5, 416641.4, 0.012009026, 10.003437, 9.999321 
2.6949424e+3, 1.5837409e+2, -1220637.0, -1547989.0, 35705.844, 0.1375668, 0.07046242, -1216787.8, 171145.42, 0.0034556554, 10.002314, 9.997995 
2.6945427e+3, 1.6836281e+2, -1128571.8, -1605860.6, 82118.375, 0.22331268, 0.048007246, -1114838.3, 175206.6, 0.00049606664, 10.002972, 9.996582 
2.6941422e+3, 1.7835127e+2, -878661.9, -1446245.1, 27559.572, 0.19577059, 0.037097845, -877326.9, 314834.44, 0.00001910138, 10.004038, 9.996511 
2.6937392e+3, 1.8834096e+2, -814935.75, -1236528.3, -65027.418, 0.1849816, 0.0938371, -805133.6, 289130.1, 0.0000000002885943, 10.0033245, 9.997587 
2.6933363e+3, 1.9833131e+2, -842415.8, -1131843.3, -73094.234, 0.20409437, 0.16063707, -825003.56, 171354.97, 0.0, 10.002083, 9.998275 
2.6929337e+3, 2.0832273e+2, -723559.5, -739932.3, 69513.99, 0.15311196, 0.115508564, -661751.56, 236687.73, 0.0, 10.001033, 10.000774 
2.6925305e+3, 2.1831448e+2, -845306.75, -865213.1, 176184.11, 0.07509605, 0.051291894, -678794.94, 121721.36, 0.0, 10.000004, 9.999757 
2.692128e+3, 2.2830461e+2, -856844.2, -860483.4, -6409.7813, 0.22870137, -0.050681233, -852000.75, -149393.77, 0.0, 9.999467, 9.999359 
2.6917267e+3, 2.3829466e+2, -818753.8, -805009.25, -102758.8, 0.46267766, -0.18703987, -708893.2, -104196.336, 0.0, 9.999081, 9.999273 
2.691327e+3, 2.4828587e+2, -642416.25, -629666.8, 173400.3, 0.38851207, -0.21842088, -462524.1, 44258.984, 0.0, 9.999481, 9.999586 
2.690928e+3, 2.5827748e+2, -482072.22, -533428.75, 272863.34, 0.23643596, -0.19590922, -233681.55, 175187.92, 0.0, 10.000005, 9.999346 
2.6905262e+3, 2.682702e+2, -244521.97, -214071.5, 47114.61, 0.28447416, -0.11258118, -179783.16, 131160.86, 0.0, 10.000332, 10.000689 
2.690124e+3, 2.7826336e+2, -190576.4, -226998.4, -20635.15, 0.41435176, -0.046273243, -181265.6, 31747.168, 0.0, 10.000381, 9.999924 
2.6897228e+3, 2.8825596e+2, -314535.44, -302127.94, 82031.92, 0.46873528, 0.068320036, -226065.52, -110975.25, 0.0, 9.999164, 9.999299 
2.6893213e+3, 2.982483e+2, -492840.9, -439977.3, 166886.92, 0.47278374, 0.20320413, -297442.0, -280269.97, 0.0, 9.997686, 9.998419 
2.6889208e+3, 3.0823615e+2, -182109.6, -265498.1, 106724.086, 0.6803717, -0.022244819, -109224.43, -109224.43, 0.0, 9.999516, 9.998393 
2.688511e+3, 3.1823e+2, 198241.94, 164855.33, 168275.78, -0.0131134605, 0.3358418, 350650.4, 350650.4, 0.0, 10.001013, 10.00064 
2.706139e+3, 1.2880245e+2, -1317790.8, -1804596.9, 17535.367, -0.023428116, -0.10439208, -1317159.9, 360578.25, 0.03553749, 10.004082, 9.997347 
2.7057368e+3, 1.3879625e+2, -1388079.3, -1772271.4, 71419.47, -0.23679157, 0.30561116, -1375232.3, 204577.7, 0.0212677, 10.002749, 9.997601 
2.7053368e+3, 1.4878596e+2, -1036751.5, -1313629.5, 56245.543, -0.13388835, 0.18895742, -1025761.8, 456142.25, 0.009415013, 10.003511, 9.999681 
2.7049378e+3, 1.5877478e+2, -924539.94, -1399090.5, 54115.996, 0.12196404, -0.06652404, -918446.94, 465556.66, 0.0026133023, 10.004351, 9.998041 
2.7045375e+3, 1.687645e+2, -1117101.5, -1592702.6, 99375.39, 0.2138374, 0.0036156976, -1097172.5, 188936.34, 0.00036005196, 10.0030365, 9.996629 
2.7041373e+3, 1.7875458e+2, -1301101.5, -1637464.3, 61762.363, 0.2215992, 0.15122879, -1290119.3, -101905.92, 0.000012952271, 10.001101, 9.996618 
2.7037328e+3, 1.8874457e+2, -1097046.9, -1325381.9, 41371.44, 0.12031186, 0.206057, -1089782.0, 529.5847, 0.000000000007316074, 10.001171, 9.998023 
2.703328e+3, 1.987347e+2, -959312.56, -1115253.1, 86119.875, 0.004069957, 0.21884927, -921110.56, 71296.125, 0.0, 10.000992, 9.998919 
2.7029255e+3, 2.0872632e+2, -857892.0, -646100.94, 8354.913, 0.10900095, 0.08440396, -645771.9, 248710.23, 0.0, 9.999451, 10.002177 
2.7025235e+3, 2.1871832e+2, -1227862.4, -1081794.1, -63744.094, 0.25866574, -0.08582037, -1057888.6, -261336.22, 0.0, 9.997541, 9.999461 
2.702121e+3, 2.2870749e+2, -1006946.6, -1294475.6, -41214.363, 0.36454165, -0.08330414, -1001155.6, -302496.66, 0.0, 10.000011, 9.996109 
2.7017188e+3, 2.3869629e+2, -446560.66, -755030.2, 59888.414, 0.4324083, -0.047875762, -435341.53, 165429.28, 0.0, 10.002215, 9.998107 
2.7013183e+3, 2.48689e+2, -269988.16, -69226.21, 163035.19, 0.28616512, -0.11537808, 21852.504, 524689.56, 0.0, 10.000419, 10.0029745 
2.7009183e+3, 2.586828e+2, -733614.75, -507374.03, 86180.46, 0.105784774, -0.18891115, -478285.78, -73394.164, 0.0, 9.997672, 10.0006485 
2.700517e+3, 2.686758e+2, -715723.6, -710093.56, -52323.055, 0.17076428, 0.020940056, -660509.9, -353540.22, 0.0, 9.998277, 9.998264 
2.7001148e+3, 2.7866885e+2, -462228.7, -455290.88, -29697.248, 0.28996223, 0.28100714, -428860.63, -219809.9, 0.0, 9.998957, 9.999044 
2.6997122e+3, 2.8866157e+2, -178648.84, 29333.87, 2644.7202, 0.31236136, 0.27244517, 29367.494, 140489.19, 0.0, 9.998953, 10.001683 
2.6993093e+3, 2.986537e+2, -325982.66, -216752.23, 92466.49, 0.271074, 0.16100395, -163976.23, -150780.38, 0.0, 9.99822, 9.999706 
2.6989126e+3, 3.086399e+2, -325235.6, -400675.94, 152497.0, 0.7032175, -0.2376107, -205862.98, -205862.98, 0.0, 9.998828, 9.9978 
2.6985002e+3, 3.1863487e+2, -24534.828, 56674.258, -12028.232, -0.37920523, 0.27037644, 58418.355, 58418.355, 0.0, 9.999467, 10.000663 
2.7161315e+3, 1.2920521e+2, -1156150.8, -1489489.3, -5347.458, -0.44789335, 0.11917627, -1156065.0, 517732.78, 0.028400127, 10.004138, 9.999534 
2.7157357e+3, 1.3919716e+2, -1253979.4, -1545928.6, 80592.94, 0.14303675, 0.15780565, -1233209.3, 342666.78, 0.016710699, 10.002966, 9.999054 
2.7153346e+3, 1.491868e+2, -1023138.6, -1308211.1, 130726.76, 0.09988958, -0.005024938, -972268.4, 505700.7, 0.0071977535, 10.003605, 9.999673 
2.7149332e+3, 1.5917611e+2, -866552.8, -1357206.0, 80065.766, -0.0018125321, -0.19979066, -853818.0, 526246.9, 0.0019202116, 10.004679, 9.998169 
2.714531e+3, 1.6916619e+2, -1081124.9, -1537833.1, 43670.773, 0.05123724, -0.111493565, -1076986.6, 205181.52, 0.00025324232, 10.003118, 9.996973 
2.714129e+3, 1.7915654e+2, -1197056.1, -1441177.9, 41881.273, 0.10246862, 0.016307285, -1190070.9, -5800.7065, 0.000008369746, 10.001151, 9.997949 
2.713726e+3, 1.8914719e+2, -959615.25, -1008979.56, 97772.305, 0.107330166, -0.056034666, -883457.75, 202897.11, 0.0, 10.001021, 10.000275 
2.713322e+3, 1.9913797e+2, -957041.25, -1130476.1, 113460.836, 0.109380625, -0.14973587, -900953.6, 87483.56, 0.0, 10.001073, 9.998773 
2.712918e+3, 2.091284e+2, -1210773.1, -1296595.6, -70155.63, 0.25543526, -0.087201126, -1171445.8, -280910.3, 0.0, 9.999109, 9.997877 
2.712514e+3, 2.191189e+2, -1350731.1, -1276938.8, -105051.68, 0.41864133, -0.034813564, -1202492.3, -409859.03, 0.0, 9.997262, 9.998259 
2.7121145e+3, 2.2910896e+2, -688396.5, -777497.94, 127251.64, 0.4670795, -0.12829006, -598122.3, 96602.734, 0.0, 10.000623, 9.999372 
2.711715e+3, 2.3909917e+2, -73095.625, -476361.78, 181981.9, 0.47757939, -0.21956079, -3116.279, 593698.5, 0.0, 10.004331, 9.998999 
2.7113113e+3, 2.490917e+2, -413329.0, -502353.53, 9505.988, 0.30229896, -0.09445744, -412325.25, 86565.63, 0.0, 10.000984, 9.999737 
2.7109072e+3, 2.590848e+2, -985437.94, -744422.44, -101467.54, 0.12375409, 0.0373932, -707393.56, -306431.03, 0.0, 9.996436, 9.999606 
2.710506e+3, 2.6907587e+2, -799821.7, -554478.75, -60839.98, 0.19629796, -0.047052357, -540220.3, -237167.86, 0.0, 9.996843, 10.000028 
2.7101055e+3, 2.7906713e+2, -482905.7, -323988.88, 24026.818, 0.3450721, -0.122571275, -320435.66, -115294.48, 0.0, 9.998209, 10.000293 
2.709703e+3, 2.8906202e+2, -166709.69, 38307.184, 2832.1545, 0.33033195, 0.049100544, 38346.3, 145539.55, 0.0, 9.999043, 10.001691 
2.7093e+3, 2.9905686e+2, -114175.34, -50144.11, 5388.446, 0.22318849, 0.1977227, -49693.82, -40448.434, 0.0, 9.999384, 10.000286 
2.7088988e+3, 3.0904576e+2, -385192.03, -259475.98, 54164.18, 0.31852826, -0.05822082, -239358.78, -239358.78, 0.0, 9.997681, 9.999316 
2.708491e+3, 3.1904164e+2, -283495.06, -35705.83, 168175.94, -0.30046457, 0.412, 49284.754, 49284.754, 0.0, 9.997568, 10.00092 
2.7261287e+3, 1.2960768e+2, -1275796.1, -1535726.3, 118509.46, -0.29259136, 0.039882347, -1229876.5, 439972.75, 0.022174135, 10.00323, 9.999636 
2.7257305e+3, 1.3959901e+2, -1164235.6, -1529470.3, 78443.33, 0.085887186, 0.018303229, -1148100.8, 423830.63, 0.012780924, 10.003683, 9.998828 
2.7253297e+3, 1.4958927e+2, -1255216.0, -1461478.8, 101084.8, 0.10610297, -0.061970793, -1213937.5, 260085.2, 0.0053271013, 10.002157, 9.999314 
2.7249283e+3, 1.5957937e+2, -1512006.3, -1672780.6, 36384.42, 0.060191434, -0.1538364, -1504155.6, -128040.14, 0.0013580795, 10.000267, 9.9981365 
2.7245247e+3, 1.6956969e+2, -1322510.1, -1561076.8, 27836.217, -0.002905895, -0.10121063, -1319305.3, -41091.227, 0.00016970174, 10.001088, 9.997789 
2.7241212e+3, 1.7956023e+2, -1084712.8, -1306714.0, 56803.5, -0.035503212, -0.032267377, -1071022.6, 109288.33, 0.0000049540654, 10.001622, 9.998637 
2.723719e+3, 1.8955101e+2, -825493.0, -870168.6, 20490.32, 0.09507635, -0.16553202, -817518.56, 264873.38, 0.0, 10.001659, 10.000905 
2.7233166e+3, 1.9954184e+2, -1003886.2, -1254048.4, -90521.79, 0.24555252, -0.297723, -974566.94, 9905.141, 0.0, 10.001211, 9.997851 
2.722911e+3, 2.0953135e+2, -1047082.3, -1508959.9, -160609.39, 0.3622887, -0.1341909, -996723.9, -110138.92, 0.0, 10.001513, 9.995248 
2.7225053e+3, 2.1952087e+2, -847221.3, -1097547.5, 26670.361, 0.46367586, 0.043589704, -844411.3, -55712.223, 0.0, 10.00103, 9.997668 
2.7221072e+3, 2.2951142e+2, -634322.1, -478735.8, 254452.83, 0.4785728, -0.15589395, -290450.0, 400330.53, 0.0, 9.999844, 10.001787 
2.7217096e+3, 2.3950253e+2, -883708.1, -849205.8, 120392.234, 0.45497626, -0.3549852, -744835.06, -151980.0, 0.0, 9.99872, 9.999136 
2.7213034e+3, 2.4949479e+2, -830006.25, -999021.5, -70075.54, 0.2821322, -0.0822198, -804731.7, -309790.88, 0.0, 9.999428, 9.99706 
2.7208963e+3, 2.5948706e+2, -642487.94, -689095.8, 1969.914, 0.09843504, 0.21148056, -642404.8, -245375.98, 0.0, 9.99928, 9.998622 
2.7204958e+3, 2.694764e+2, -416326.1, -176819.42, 81915.28, 0.22917034, -0.13303316, -151483.22, 147645.25, 0.0, 9.998656, 10.001743 
2.7200964e+3, 2.7946615e+2, -493919.1, -263851.44, 83903.85, 0.4083907, -0.50987804, -236503.25, -35280.465, 0.0, 9.99786, 10.000883 
2.7196944e+3, 2.894623e+2, -335787.8, -117348.664, 17264.55, 0.36053473, -0.18454187, -115992.56, -12726.918, 0.0, 9.998204, 10.001028 
2.71929e+3, 2.994595e+2, -267559.34, -102190.89, -45561.242, 0.123356126, 0.24416159, -90469.04, -85168.32, 0.0, 9.998252, 10.000474 
2.7188832e+3, 3.09452e+2, -236339.1, 11170.833, -81163.26, -0.18464254, 0.20608442, 35411.7, 35411.7, 0.0, 9.997833, 10.001101 
2.7184868e+3, 3.1944692e+2, -283053.94, -66969.7, 448035.94, 0.27520174, 0.43391666, 285867.03, 285867.03, 0.0, 9.997733, 10.000615 
2.7361283e+3, 1.3001002e+2, -1321814.3, -1713783.6, 142727.27, 0.08912194, -0.22115155, -1275350.9, 390544.56, 0.016833117, 10.003563, 9.9982395 
2.7357218e+3, 1.4000155e+2, -1228501.6, -1657337.4, 74701.34, -0.37624982, -0.09183545, -1215861.5, 352118.4, 0.009463001, 10.003637, 9.99797 
2.735322e+3, 1.4999288e+2, -1290392.8, -1539623.9, 46609.08, -0.05327879, 0.0048409174, -1281961.6, 188107.86, 0.0037922803, 10.002177, 9.998761 
2.734923e+3, 1.5998411e+2, -1434161.0, -1568312.8, 31744.096, 0.294525, 0.05547172, -1427028.6, -54869.586, 0.0009170214, 10.000518, 9.998715 
2.7345183e+3, 1.6997515e+2, -1201458.9, -1318802.3, 97538.1, 0.041451458, 0.054207828, -1146306.0, 127939.48, 0.0001065257, 10.00115, 9.99941 
2.7341133e+3, 1.7996612e+2, -1007962.0, -1256863.6, 98877.01, -0.2111212, 0.04855968, -973464.2, 202867.73, 0.0000025959862, 10.002078, 9.998755 
2.7337128e+3, 1.8995614e+2, -916158.6, -1132099.9, 17669.861, 0.09926626, -0.015604829, -914722.3, 163704.58, 0.0, 10.001945, 9.998986 
2.7333117e+3, 1.9994621e+2, -945459.6, -1252555.3, -98728.01, 0.4256059, -0.065862454, -916458.4, 64063.25, 0.0, 10.001702, 9.997616 
2.732905e+3, 2.0993608e+2, -808577.3, -1226343.0, -109442.52, 0.35664028, 0.03258597, -781643.06, 100982.77, 0.0, 10.002409, 9.996757 
2.7324978e+3, 2.1992601e+2, -542868.0, -869274.5, 57739.605, 0.25498486, 0.12406359, -532955.2, 251773.61, 0.0, 10.0027485, 9.9984045 
2.732097e+3, 2.299159e+2, -737142.2, -618548.3, 155356.45, 0.27826214, -0.09461257, -511557.1, 175258.95, 0.0, 9.999521, 10.000981 
2.7316967e+3, 2.3990633e+2, -1173000.4, -927063.7, 87327.555, 0.30034667, -0.30797327, -899209.9, -310311.75, 0.0, 9.99646, 9.999683 
2.7312928e+3, 2.4989879e+2, -754194.2, -750535.44, 95782.555, 0.1604208, -0.15910672, -656564.8, -165585.81, 0.0, 9.999037, 9.998955 
2.730889e+3, 2.5989154e+2, -218429.44, -401493.47, 160006.33, 0.051030364, 0.03440595, -125624.445, 267434.56, 0.0, 10.001823, 9.999365 
2.7304885e+3, 2.6988307e+2, -266752.25, -225932.72, 105523.945, 0.31710336, -0.0150785055, -138862.9, 156277.14, 0.0, 10.00019, 10.000676 
2.7300882e+3, 2.7987418e+2, -569837.3, -445673.1, 81764.44, 0.6169766, -0.1299307, -405092.6, -207868.34, 0.0, 9.997927, 9.999613 
2.729685e+3, 2.8986552e+2, -568116.4, -421540.8, 17787.3, 0.48089126, -0.11909142, -419413.16, -320098.94, 0.0, 9.997414, 9.999337 
2.7292797e+3, 2.998579e+2, -467075.63, -285618.03, -63404.17, 0.15803713, -0.01653335, -265658.97, -264264.06, 0.0, 9.997268, 9.999679 
2.7288726e+3, 3.0985183e+2, -184172.42, 31910.02, -138332.88, -0.25040475, 0.10711222, 99393.414, 99393.414, 0.0, 9.998233, 10.001032 
2.7284774e+3, 3.1984544e+2, -266173.84, 32967.098, 234502.19, 0.33810455, 0.18725973, 161537.97, 161537.97, 0.0, 9.997466, 10.001414 
2.7461237e+3, 1.3041502e+2, -1052778.9, -1564938.4, -25510.85, 0.000016976495, -0.08928247, -1051511.4, 610415.3, 0.012335838, 10.005378, 9.998375 
2.7457178e+3, 1.4040549e+2, -1555967.1, -1862556.0, 14653.199, -0.21977536, -0.07020452, -1555268.4, 8751.571, 0.0067410422, 10.001594, 9.997535 
2.745316e+3, 1.5039665e+2, -1311558.5, -1625519.9, 26705.873, -0.08249049, 0.06326999, -1309303.1, 156812.53, 0.002584837, 10.002364, 9.998077 
2.7449155e+3, 1.6038813e+2, -1057062.3, -1385895.1, -1445.7762, 0.14959808, 0.18626156, -1057055.9, 311151.2, 0.0005889778, 10.003112, 9.998716 
2.7445114e+3, 1.7037934e+2, -985197.1, -1136328.8, 16671.668, 0.0107833175, 0.13121131, -983379.9, 286908.5, 0.00006228534, 10.002277, 10.000121 
2.7441075e+3, 1.8037045e+2, -1162301.0, -1352876.0, -20495.715, -0.15759231, 0.08053976, -1160121.6, 12248.26, 0.0000011486238, 10.001127, 9.998556 
2.7437064e+3, 1.9036052e+2, -1089880.6, -1293320.3, -12151.45, 0.11281818, 0.058181517, -1089157.4, -14690.374, 0.0, 10.001106, 9.998265 
2.743305e+3, 2.0035063e+2, -1052869.4, -1286084.0, -13375.245, 0.3940653, 0.06445224, -1052104.8, -75540.34, 0.0, 10.000919, 9.997765 
2.7428982e+3, 2.1034095e+2, -761416.94, -1035777.06, -6246.317, 0.29600102, 0.09703944, -761274.8, 117384.62, 0.0, 10.002037, 9.998235 
2.7424914e+3, 2.2033118e+2, -582540.56, -888239.2, 70295.03, 0.14977144, 0.111641444, -567151.06, 213603.0, 0.0, 10.002507, 9.998385 
2.7420875e+3, 2.3032045e+2, -600653.5, -707284.75, 42365.664, 0.13715142, -0.06912421, -585870.6, 96979.914, 0.0, 10.001161, 9.999567 
2.7416846e+3, 2.403103e+2, -787429.0, -744573.56, 38388.39, 0.13483685, -0.23349966, -722037.44, -137095.86, 0.0, 9.999143, 9.999645 
2.7412832e+3, 2.5030276e+2, -629207.06, -507627.28, 94873.71, 0.050775703, -0.22270088, -455738.72, 31279.973, 0.0, 9.999098, 10.000598 
2.7408814e+3, 2.6029593e+2, -590213.2, -567399.94, 23640.146, 0.004243678, -0.12890132, -552558.4, -163468.11, 0.0, 9.999223, 9.99948 
2.7404806e+3, 2.702897e+2, -535801.2, -490628.84, -75402.56, 0.3520334, 0.10869387, -434502.38, -143349.92, 0.0, 9.998935, 9.999457 
2.7400792e+3, 2.8028235e+2, -653830.0, -661889.44, -9537.024, 0.6893047, 0.27552974, -647506.3, -454280.8, 0.0, 9.9981365, 9.998021 
2.7396756e+3, 2.9026878e+2, -551491.75, -581899.25, 26949.041, 0.56274635, -0.06168397, -535753.56, -440391.34, 0.0, 9.99826, 9.997825 
2.7392697e+3, 3.0025598e+2, -422012.97, -394974.06, 17030.607, 0.20319358, -0.32941186, -386749.16, -386749.16, 0.0, 9.998156, 9.9985 
2.738863e+3, 3.1025088e+2, -201388.64, -54576.59, -58819.508, -0.2534775, -0.03185982, -33917.86, -33917.86, 0.0, 9.998457, 10.00033 
2.7384645e+3, 3.2024217e+2, -186325.4, 189162.81, 39381.883, 0.06134721, -0.15717503, 193248.78, 193248.78, 0.0, 9.997453, 10.002525 
2.756118e+3, 1.3082096e+2, -1024880.4, -1420489.9, -175887.78, -0.34071708, 0.20789082, -957990.56, 699964.7, 0.008664431, 10.004957, 9.99959 
2.7557173e+3, 1.4080994e+2, -1516010.6, -1813012.0, -8128.7495, 0.36375612, -0.0070951306, -1515788.3, 44269.918, 0.0045890985, 10.001724, 9.997813 
2.7553105e+3, 1.5080045e+2, -1353119.1, -1718818.8, 99808.68, -0.07640619, 0.11479365, -1327652.4, 134509.14, 0.001677919, 10.002398, 9.997425 
2.7549052e+3, 1.6079123e+2, -1036009.9, -1405811.9, 22016.975, -0.39790145, 0.22792491, -1034703.6, 329556.88, 0.00035822205, 10.003368, 9.998457 
2.7545053e+3, 1.707817e+2, -985609.5, -1174577.3, -11029.802, -0.05235584, 0.13706186, -984967.9, 281380.7, 0.000033741435, 10.002412, 9.999802 
2.7541044e+3, 1.8077244e+2, -1066917.5, -1213253.4, -36795.375, 0.21596183, 0.0494747, -1058186.5, 110246.35, 0.00000040337267, 10.001353, 9.999402 
2.7536988e+3, 1.907636e+2, -986712.56, -1081316.9, 4864.4585, 0.07302421, 0.011182293, -986463.1, 84051.516, 0.0, 10.001111, 9.999719 
2.7532938e+3, 2.007548e+2, -901162.56, -1053974.9, 42206.004, -0.005693064, -0.009178609, -890280.4, 82315.984, 0.0, 10.001247, 9.999211 
2.7528915e+3, 2.1074536e+2, -644840.56, -845221.75, 79518.195, 0.22634526, -0.06797657, -617119.9, 257565.27, 0.0, 10.0022135, 9.999488 
2.7524886e+3, 2.2073562e+2, -572236.56, -946984.75, 106672.625, 0.39582744, -0.115658, -543999.7, 232778.48, 0.0, 10.002859, 9.997796 
2.752082e+3, 2.3072451e+2, -630911.0, -984402.4, 25708.85, 0.21506214, -0.12889455, -629051.06, 49837.883, 0.0, 10.002085, 9.997217 
2.751676e+3, 2.4071388e+2, -597884.4, -783017.3, 1385.7175, 0.053884868, -0.13814715, -597874.0, -16879.498, 0.0, 10.000964, 9.9985075 
2.7512744e+3, 2.507055e+2, -645961.9, -575481.9, 5146.171, 0.067136794, -0.13889712, -575108.06, -92030.62, 0.0, 9.999209, 10.000086 
2.7508727e+3, 2.606977e+2, -804727.44, -662471.44, -69923.76, 0.089090444, -0.11414111, -633857.1, -248701.84, 0.0, 9.997709, 9.999547 
2.7504683e+3, 2.7069017e+2, -623678.6, -496731.5, -123739.1, 0.10923181, -0.02931121, -421135.8, -133906.47, 0.0, 9.99821, 9.999745 
2.750065e+3, 2.8068227e+2, -483221.63, -466228.1, -19281.61, 0.21942566, 0.030183205, -453654.13, -264346.9, 0.0, 9.998843, 9.999007 
2.7496654e+3, 2.9067105e+2, -296047.28, -299594.34, 78861.336, 0.4481088, -0.19202018, -218939.53, -127522.6, 0.0, 9.999366, 9.999215 
2.749263e+3, 3.0066064e+2, -232888.03, -340208.63, 113483.875, 0.4154728, -0.30446464, -161017.39, -161017.39, 0.0, 9.9996, 9.99819 
2.7488545e+3, 3.1065646e+2, -214352.4, -279123.88, 6618.2124, -0.16808604, 0.25774646, -213683.08, -213683.08, 0.0, 9.999271, 9.998428 
2.7484557e+3, 3.2064387e+2, -227253.45, 43122.945, -61342.805, 0.18265972, -0.08262313, 56389.414, 56389.414, 0.0, 9.997694, 10.0014105 
2.7661133e+3, 1.3122433e+2, -1388358.1, -1592597.3, -166210.52, -0.31718087, 0.09338465, -1295402.4, 358595.0, 0.0058009247, 10.0024185, 9.999619 
2.7657124e+3, 1.4121392e+2, -1451530.8, -1800041.9, -17161.002, 0.49128532, -0.052676395, -1450687.8, 105407.88, 0.0029651523, 10.002266, 9.997639 
2.7653044e+3, 1.5120438e+2, -1591074.8, -1837258.4, 144556.61, -0.03861703, 0.06314023, -1524302.9, -66103.54, 0.0010274169, 10.000776, 9.997393 
2.7648982e+3, 1.6119483e+2, -1631344.8, -1714682.3, 109330.17, -0.44859242, 0.159405, -1556012.0, -195710.75, 0.00020335741, 9.999399, 9.998253 
2.7644995e+3, 1.711847e+2, -1347505.8, -1373041.3, 78760.94, 0.03722629, 0.034177415, -1280484.4, -18089.164, 0.000016580547, 10.000062, 9.999564 
2.7640995e+3, 1.8117519e+2, -1145944.0, -1203419.8, 68294.46, 0.42032498, -0.06346845, -1100587.4, 63894.523, 0.00000009587778, 10.000637, 9.999815 
2.763692e+3, 1.9116725e+2, -807074.06, -886734.9, 78803.53, 0.06791646, -0.09416685, -758606.94, 307945.13, 0.0, 10.001888, 10.000682 
2.7632856e+3, 2.0115913e+2, -733021.06, -956112.25, 54161.63, -0.19391851, -0.11113385, -720567.06, 248057.98, 0.0, 10.002355, 9.999348 
2.7628854e+3, 2.1114956e+2, -771304.25, -902191.75, -23239.475, 0.2185436, -0.19795942, -767300.5, 103415.84, 0.0, 10.001356, 9.999493 
2.762484e+3, 2.2113976e+2, -980284.25, -1233651.5, -66969.336, 0.54025346, -0.24490009, -963672.25, -190860.5, 0.0, 10.000461, 9.996987 
2.762076e+3, 2.3112878e+2, -834128.06, -1215998.9, -27689.576, 0.23691235, -0.15804397, -832130.75, -157203.31, 0.0, 10.001267, 9.996022 
2.7616686e+3, 2.4111822e+2, -606518.5, -877631.8, 33419.2, -0.029260412, -0.049536757, -602459.8, -25421.63, 0.0, 10.001327, 9.997683 
2.7612662e+3, 2.5110933e+2, -566097.3, -591415.4, 49231.266, 0.10471194, -0.046263512, -527923.6, -48798.85, 0.0, 10.000023, 9.9995775 
2.7608633e+3, 2.6110053e+2, -679292.3, -632187.6, 30987.2, 0.16940117, -0.06333243, -616818.0, -235607.77, 0.0, 9.998727, 9.999267 
2.7604562e+3, 2.71091e+2, -425475.9, -397642.72, -26415.89, -0.12708403, -0.16730882, -381701.8, -98398.17, 0.0, 9.999567, 9.999775 
2.7600515e+3, 2.8108191e+2, -258555.5, -257188.03, 17921.521, -0.25241604, -0.24706025, -239937.2, -54545.094, 0.0, 9.999958, 9.99991 
2.7596554e+3, 2.910739e+2, -167986.2, -61900.88, 65077.563, 0.30739707, -0.30647188, -30987.521, 56479.246, 0.0, 9.999488, 10.000789 
2.759256e+3, 3.01067e+2, -379194.75, -473662.16, 66459.88, 0.5728387, -0.16314653, -344893.56, -344893.56, 0.0, 9.998883, 9.997613 
2.7588466e+3, 3.1106344e+2, -391820.3, -579660.6, 18053.127, -0.071013704, 0.622965, -390101.0, -390101.0, 0.0, 9.998987, 9.996494 
2.7584463e+3, 3.2104614e+2, -464368.84, -254171.52, -97641.64, 0.30715412, -0.005081409, -215814.2, -215814.2, 0.0, 9.996936, 9.999695 
2.7761093e+3, 1.316263e+2, -1468949.3, -1722666.1, -159350.7, -0.16658098, -0.27352965, -1392127.3, 257919.42, 0.0036677234, 10.002241, 9.998811 
2.7757043e+3, 1.416175e+2, -1433423.4, -1777229.0, -17744.822, 0.2426147, -0.19593887, -1432510.0, 119623.086, 0.001797831, 10.002321, 9.9977665 
2.7752984e+3, 1.5160835e+2, -1540238.5, -1751098.3, 108364.11, 0.07470834, -0.08150845, -1494478.9, -40248.266, 0.00058470643, 10.000851, 9.997949 
2.774894e+3, 1.6159886e+2, -1565503.9, -1641837.8, 119518.734, -0.013407783, -0.028171048, -1478205.9, -121876.87, 0.00010500734, 9.999648, 9.998634 
2.7744934e+3, 1.715884e+2, -1335934.0, -1366911.1, 135885.05, 0.23428228, -0.19008125, -1214657.6, 43768.363, 0.0000068884756, 10.000122, 9.999585 
2.774092e+3, 1.815788e+2, -1081946.3, -1136616.5, 143886.97, 0.40092406, -0.30512956, -962820.94, 197692.56, 0.00000000965895, 10.000922, 10.000132 
2.7736875e+3, 1.9157146e+2, -744434.0, -835502.75, 166738.52, 0.1877823, -0.28788647, -617124.2, 445453.3, 0.0, 10.002211, 10.000891 
2.7732828e+3, 2.0156343e+2, -765886.5, -1140074.5, 47418.87, 0.048204422, -0.25298187, -759970.9, 204681.5, 0.0, 10.002846, 9.99784 
2.772879e+3, 2.1155266e+2, -970849.7, -1289446.8, -97635.78, 0.2898485, -0.21025348, -943309.3, -76541.63, 0.0, 10.001244, 9.996887 
2.772475e+3, 2.215423e+2, -971852.5, -1137299.4, -91665.336, 0.44280264, -0.16155803, -931102.44, -162225.44, 0.0, 10.000103, 9.997826 
2.772068e+3, 2.3153326e+2, -662039.25, -845913.9, 30981.78, 0.14437863, -0.100442275, -656959.3, 14007.806, 0.0, 10.0012, 9.998608 
2.7716622e+3, 2.4152456e+2, -416530.13, -613848.2, 86311.32, -0.04686387, -0.02508459, -384104.25, 188949.48, 0.0, 10.001901, 9.999204 
2.77126e+3, 2.5151664e+2, -419206.28, -470884.44, 88225.41, 0.23599283, 0.019772798, -353113.97, 122017.984, 0.0, 10.000827, 10.000016 
2.7708575e+3, 2.6150817e+2, -544850.1, -651097.8, 148339.1, 0.41692585, 0.048934024, -440409.28, -63193.395, 0.0, 10.000011, 9.99851 
2.7704513e+3, 2.7149752e+2, -320175.06, -519380.78, 98021.93, 0.11072959, -0.015643865, -280031.63, -708.6322, 0.0, 10.001011, 9.998255 
2.770046e+3, 2.814874e+2, -75913.375, -224437.47, 57893.688, -0.0747259, -0.073070996, -56013.164, 125410.18, 0.0, 10.001439, 9.9994135 
2.7696458e+3, 2.9147944e+2, -118375.336, -57685.168, 12064.136, 0.18411267, -0.09829099, -55374.97, 28121.756, 0.0, 9.999892, 10.000618 
2.769244e+3, 3.0147225e+2, -372098.47, -368827.66, 30926.268, 0.31250545, 0.00014814048, -339493.6, -339493.6, 0.0, 9.998491, 9.9985075 
2.768839e+3, 3.114663e+2, -363601.78, -391707.94, 98160.77, 0.11558977, 0.40318444, -278493.25, -278493.25, 0.0, 9.998436, 9.998037 
2.7684346e+3, 3.2144973e+2, -516884.2, -255643.45, -219131.69, 0.31187192, -0.24654911, -131155.27, -131155.27, 0.0, 9.996456, 9.999915 
2.7861017e+3, 1.3203177e+2, -1651518.6, -1763525.5, -70640.11, -0.22601116, -0.3169566, -1617375.5, 28692.45, 0.0021555903, 10.000832, 9.999183 
2.7856982e+3, 1.4202306e+2, -1349209.6, -1789122.4, 30516.852, 0.18943557, -0.24281493, -1347102.8, 201050.0, 0.0010016497, 10.003131, 9.997293 
2.7852932e+3, 1.5201299e+2, -1317720.8, -1703682.0, 43248.258, 0.20072816, -0.16673315, -1312934.0, 137325.22, 0.0002997044, 10.002649, 9.997404 
2.7848896e+3, 1.6200317e+2, -1215523.8, -1470123.3, 42933.773, 0.24736437, -0.12007766, -1208478.6, 143881.31, 0.00004641634, 10.002067, 9.998639 
2.784487e+3, 1.719934e+2, -995124.6, -1187109.0, 84621.266, 0.27452725, -0.2423022, -963150.94, 291298.5, 0.0000020738605, 10.002418, 9.999706 
2.7840844e+3, 1.8198402e+2, -919079.06, -1116616.0, 86603.8, 0.27336267, -0.3276885, -886487.6, 270047.47, 0.00000000000031198744, 10.002308, 9.999597 
2.7836818e+3, 1.9197585e+2, -875303.25, -962086.06, 48552.6, 0.22419703, -0.3549641, -853578.06, 205032.05, 0.0, 10.001609, 10.000295 
2.7832782e+3, 2.0196739e+2, -1054743.9, -1374478.5, -95034.016, 0.19633293, -0.30929956, -1028629.94, -67937.47, 0.0, 10.001305, 9.996964 
2.7828723e+3, 2.1195678e+2, -825991.7, -1315521.9, -73037.79, 0.26653567, -0.17971167, -815326.8, 47483.855, 0.0, 10.002675, 9.996012 
2.7824664e+3, 2.219467e+2, -512325.16, -821277.25, 61443.758, 0.28351825, -0.059552312, -500553.84, 264366.3, 0.0, 10.002875, 9.998653 
2.7820608e+3, 2.3193865e+2, -486263.25, -556521.06, 105931.836, 0.08823805, -0.061728332, -409787.53, 257207.31, 0.0, 10.001539, 10.000423 
2.781656e+3, 2.4193083e+2, -612470.94, -671141.3, 28736.252, 0.00011585013, -0.027990514, -600741.2, -31672.81, 0.0, 10.0004225, 9.99952 
2.781254e+3, 2.5192302e+2, -473248.72, -519052.94, -72437.56, 0.35161322, 0.03274386, -420179.1, 50968.855, 0.0, 10.000585, 9.999791 
2.7808514e+3, 2.619148e+2, -530425.2, -734026.5, 1626.7494, 0.5780818, 0.11293976, -530412.2, -157180.2, 0.0, 10.000508, 9.9977045 
2.7804464e+3, 2.719042e+2, -388620.22, -662362.94, 75675.75, 0.32539028, 0.12635283, -369092.78, -93752.29, 0.0, 10.001021, 9.997269 
2.7800414e+3, 2.8189394e+2, -213470.27, -360796.38, 39586.082, 0.1058595, 0.14151148, -203507.34, -26064.115, 0.0, 10.000817, 9.998774 
2.779636e+3, 2.918854e+2, -238775.39, -181073.89, -27871.752, 0.05247647, 0.11280129, -169809.8, -90287.27, 0.0, 9.999363, 10.000022 
2.779231e+3, 3.0187705e+2, -355444.53, -225795.52, 25965.258, -0.00837529, 0.10409584, -220788.72, -220788.72, 0.0, 9.99804, 9.99971 
2.778831e+3, 3.1186816e+2, -290520.38, -87000.586, 97767.36, 0.28222585, -0.009041762, -47645.168, -47645.168, 0.0, 9.997806, 10.000429 
2.778421e+3, 3.218561e+2, -348159.38, -137137.64, -503038.9, 0.13359742, -0.37305218, 271336.6, 271336.6, 0.0, 9.997428, 10.000291 
2.796093e+3, 1.3243914e+2, -1508475.5, -1558314.9, 39374.055, -0.41069844, -0.22990073, -1486797.9, 155276.39, 0.0011582776, 10.001201, 10.000428 
2.7956942e+3, 1.4243004e+2, -1394920.6, -1893104.4, 50766.516, 0.26438203, -0.22421674, -1389800.0, 154359.52, 0.00050213956, 10.003156, 9.996572 
2.795289e+3, 1.524182e+2, -1418898.6, -1906335.8, 38635.1, 0.30762717, -0.190322, -1415855.4, 30430.447, 0.0001341216, 10.002622, 9.996026 
2.7948844e+3, 1.6240764e+2, -1185180.9, -1463636.4, 74604.24, 0.31444576, -0.12644306, -1166452.4, 181942.92, 0.00001642319, 10.002293, 9.998582 
2.79448e+3, 1.7239974e+2, -940774.3, -1136621.0, 119757.164, 0.12331714, -0.07020339, -884001.94, 366464.28, 0.0000003300107, 10.00267, 9.999939 
2.7940765e+3, 1.8239102e+2, -929963.56, -1241710.1, 71244.66, 0.0039317203, -0.066001095, -914453.44, 238094.7, 0.0, 10.002707, 9.998558 
2.7936742e+3, 1.923799e+2, -987272.44, -1208632.9, 7114.393, 0.108869106, -0.21576732, -987044.0, 67617.25, 0.0, 10.001648, 9.998596 
2.7932712e+3, 2.0237024e+2, -894979.7, -1067966.8, -59277.695, 0.16203052, -0.25223193, -876616.25, 80143.38, 0.0, 10.001413, 9.999007 
2.7928653e+3, 2.123632e+2, -492933.2, -784049.2, 46345.316, 0.066707864, -0.0700209, -485733.16, 373098.6, 0.0, 10.003366, 9.9993305 
2.7924597e+3, 2.223553e+2, -276837.6, -648842.3, 104305.34, 0.04586309, 0.04414637, -249587.8, 511322.6, 0.0, 10.004208, 9.999193 
2.7920553e+3, 2.3234543e+2, -497142.28, -656100.06, 65141.83, 0.1844412, -0.065686315, -473857.6, 189143.4, 0.0, 10.001846, 9.999587 
2.791651e+3, 2.4233525e+2, -812330.0, -1028750.94, 21231.768, 0.29684836, -0.12954316, -810266.75, -245167.86, 0.0, 10.000166, 9.99718 
2.7912468e+3, 2.523239e+2, -646064.6, -944052.6, -105562.21, 0.390771, -0.12513505, -612459.06, -145239.63, 0.0, 10.000835, 9.996765 
2.7908427e+3, 2.62314e+2, -324209.34, -494971.5, -67581.39, 0.41477168, -0.07141051, -300699.78, 68623.05, 0.0, 10.0013, 9.998962 
2.790438e+3, 2.7230686e+2, -158890.81, -249435.48, 59073.28, 0.17814872, 0.033420917, -129737.09, 141654.45, 0.0, 10.001281, 9.999979 
2.7900338e+3, 2.822989e+2, -192870.31, -283739.47, 33261.34, 0.07110749, 0.0847882, -181996.66, -8529.162, 0.0, 10.000694, 9.99934 
2.789629e+3, 2.92289e+2, -314123.0, -271439.75, -44342.69, 0.2521329, -0.034359418, -243570.2, -168009.7, 0.0, 9.999088, 9.999524 
2.7892232e+3, 3.0227965e+2, -326994.4, -113273.72, 60422.465, 0.21763362, -0.13567711, -97374.1, -97374.1, 0.0, 9.997794, 10.000601 
2.7888182e+3, 3.1227165e+2, -206979.48, 99093.93, 97818.586, 0.03156589, -0.28157732, 127685.17, 127685.17, 0.0, 9.997729, 10.001754 
2.7884147e+3, 3.222664e+2, 21032.346, -71223.6, -360637.94, 0.4618247, -0.009234808, 338480.38, 338480.38, 0.0, 10.000445, 9.999279 
2.806089e+3, 1.328445e+2, -1402105.0, -1507617.0, -93388.33, -0.17153832, -0.035527788, -1347601.6, 290505.72, 0.0005611745, 10.001931, 10.000436 
2.8056884e+3, 1.4283432e+2, -1496461.9, -1907136.4, -131117.06, 0.21347809, -0.17959289, -1458170.1, 82029.56, 0.00022472383, 10.002338, 9.996864 
2.805283e+3, 1.5282215e+2, -1298307.9, -1787678.5, -36844.32, 0.25409815, -0.25727662, -1295549.5, 146773.7, 0.00005269784, 10.003191, 9.996566 
2.804879e+3, 1.6281156e+2, -1034118.56, -1380210.0, 90629.87, 0.27193114, -0.23654783, -1011822.0, 332608.06, 0.0000047753, 10.003318, 9.998644 
2.804474e+3, 1.7280449e+2, -999933.8, -1179322.9, 110224.79, 0.06302117, -0.10157962, -947520.6, 298975.97, 0.00000002399446, 10.002333, 9.9998 
2.8040698e+3, 1.8279634e+2, -1168822.3, -1432064.3, 56031.195, -0.0674446, -0.0027404611, -1157392.3, -8815.135, 0.0, 10.001441, 9.9978485 
2.8036672e+3, 1.92785e+2, -1133685.5, -1369371.1, 60216.055, 0.08075964, -0.10203711, -1119192.0, -68492.98, 0.0, 10.001069, 9.997759 
2.8032643e+3, 2.0277521e+2, -930917.5, -938761.56, 69432.164, 0.1521089, -0.13156232, -865296.7, 87503.375, 0.0, 10.000554, 10.000306 
2.802859e+3, 2.1276948e+2, -742679.2, -652670.2, 83218.52, 0.008174605, -0.03163075, -603066.44, 251783.4, 0.0, 10.000585, 10.001558 
2.8024542e+3, 2.2276253e+2, -774722.4, -907397.0, -3099.4216, -0.019475477, 0.036732815, -774650.0, -17737.787, 0.0, 10.000908, 9.999005 
2.80205e+3, 2.3275173e+2, -567978.75, -782090.0, -53212.387, 0.29854316, -0.102932036, -555483.3, 103529.71, 0.0, 10.001787, 9.99875 
2.8016454e+3, 2.4273995e+2, -697796.3, -1165511.0, 22085.162, 0.48527333, -0.20799845, -696755.75, -135627.52, 0.0, 10.001796, 9.995462 
2.8012392e+3, 2.5272605e+2, -730142.1, -1192435.5, 80482.92, 0.35336196, -0.2757351, -716531.2, -253254.81, 0.0, 10.001176, 9.994894 
2.8008336e+3, 2.6271504e+2, -395838.25, -406451.53, 163377.81, 0.19542421, -0.23414665, -237680.92, 127710.914, 0.0, 10.000308, 10.000043 
2.8004292e+3, 2.727103e+2, -236082.89, -44600.047, 139578.02, 0.007380312, -0.07709341, 28917.035, 296350.0, 0.0, 9.999733, 10.00212 
2.800025e+3, 2.8270388e+2, -402042.06, -382406.88, -25232.076, 0.005877826, -0.0009114469, -365149.72, -195659.23, 0.0, 9.999247, 9.999375 
2.799622e+3, 2.926926e+2, -338493.25, -331463.44, -96410.97, 0.4437794, -0.22610997, -238503.33, -166905.97, 0.0, 9.999134, 9.999103 
2.7992153e+3, 3.0268255e+2, -198139.25, 1275.9316, 32291.08, 0.42025253, -0.39395225, 6374.436, 6374.436, 0.0, 9.998469, 10.00106 
2.7988043e+3, 3.1267574e+2, -145940.03, 202351.23, 43531.004, -0.33937007, -0.4864992, 207709.5, 207709.5, 0.0, 9.997837, 10.00241 
2.7984127e+3, 3.2267785e+2, -242432.48, -363983.66, -87562.45, 1.0163921, 0.5364048, -196620.77, -196620.77, 0.0, 9.999404, 9.997743 
2.8160873e+3, 1.3324863e+2, -1404291.0, -1597015.6, -54517.438, 0.2441935, 0.21036871, -1389938.1, 244219.13, 0.00024549157, 10.002264, 9.999677 
2.8156805e+3, 1.4323652e+2, -1331344.0, -1627666.4, -84945.37, 0.011117266, -0.1363777, -1308720.4, 227544.78, 0.000090556605, 10.002594, 9.998666 
2.815276e+3, 1.5322521e+2, -1121860.1, -1431879.3, 25417.064, 0.043078303, -0.3565212, -1119790.1, 318577.1, 0.000018083496, 10.003221, 9.9990015 
2.814873e+3, 1.6321501e+2, -979690.4, -1301067.9, 85051.07, 0.12453526, -0.4627077, -958570.0, 381893.7, 0.000001252134, 10.003451, 9.999129 
2.814469e+3, 1.7320709e+2, -1011572.4, -1218251.9, 99055.16, 0.13427661, -0.3777634, -971765.25, 270780.16, 0.0000000065346386, 10.002388, 9.999512 
2.8140652e+3, 1.8319955e+2, -1119179.3, -1340499.8, 59391.848, 0.123852834, -0.21393596, -1104248.5, 40376.914, 0.0, 10.001518, 9.998418 
2.813661e+3, 1.9319203e+2, -1078165.1, -1269681.3, 86392.83, 0.16946879, 0.01420868, -1044952.94, 1757.326, 0.0, 10.001134, 9.998411 
2.8132576e+3, 2.0318367e+2, -906148.8, -915032.6, 92120.39, 0.24620044, 0.08226329, -818363.3, 130431.87, 0.0, 10.000653, 10.0004225 
2.812854e+3, 2.1317433e+2, -856214.2, -747406.06, 79344.72, 0.31810528, -0.1377412, -705605.2, 145269.06, 0.0, 9.999957, 10.001213 
2.8124496e+3, 2.2316529e+2, -894195.25, -992256.2, 37421.32, 0.3566134, -0.24201857, -881546.4, -128590.56, 0.0, 10.000207, 9.998754 
2.812045e+3, 2.3315595e+2, -513875.34, -788681.8, 12554.09, 0.3778004, -0.20094295, -513303.03, 141747.2, 0.0, 10.002289, 9.998465 
2.811639e+3, 2.4314623e+2, -291633.56, -644555.2, 30648.496, 0.35451922, -0.19387804, -288991.75, 268154.94, 0.0, 10.00318, 9.998366 
2.8112307e+3, 2.5313568e+2, -413389.16, -640139.5, 164318.77, 0.18500021, -0.2658837, -327128.2, 132121.42, 0.0, 10.001629, 9.998468 
2.8108242e+3, 2.6312584e+2, -529104.8, -633324.3, 312815.47, 0.08033564, -0.25152287, -264088.47, 97260.12, 0.0, 10.000068, 9.998611 
2.810421e+3, 2.7311775e+2, -575976.1, -547268.8, 183548.7, 0.09774493, -0.12100509, -377513.38, -114080.46, 0.0, 9.998819, 9.999129 
2.810017e+3, 2.831093e+2, -555690.8, -512967.47, 11278.368, 0.13099062, -0.041733563, -510172.94, -344656.34, 0.0, 9.998401, 9.998901 
2.8096107e+3, 2.930991e+2, -228557.53, -273193.2, -37898.668, 0.18402332, -0.15176977, -206893.61, -139282.03, 0.0, 9.999843, 9.999178 
2.8092045e+3, 3.0308896e+2, -36278.27, -41444.582, 13098.911, 0.18805034, -0.2905209, -25510.24, -25510.24, 0.0, 10.000108, 9.999966 
2.8088e+3, 3.1307948e+2, -191561.84, 1175.4814, -73204.27, 0.25881574, -0.49831748, 25826.59, 25826.59, 0.0, 9.998283, 10.0008135 
2.8083992e+3, 3.230777e+2, -348564.06, -167816.52, -71520.84, 0.68387747, 0.13881226, -142939.9, -142939.9, 0.0, 9.997589, 9.999971 
2.8260848e+3, 1.3365038e+2, -1134756.3, -1608886.5, 104826.336, 0.44735107, 0.005707579, -1112614.0, 517601.75, 0.000102913014, 10.004804, 9.998325 
2.8256744e+3, 1.4363958e+2, -895089.2, -1278856.5, -37022.492, -0.16638881, -0.17489375, -891550.25, 640764.8, 0.00003434366, 10.005028, 9.999868 
2.8252697e+3, 1.536299e+2, -1202973.3, -1277702.6, 16197.598, -0.02232044, -0.39928326, -1199613.5, 234783.22, 0.0000055031255, 10.001862, 10.000699 
2.824867e+3, 1.6362089e+2, -1392947.8, -1473046.1, 110884.16, 0.14779115, -0.4910922, -1315102.0, 21377.768, 0.0000002527922, 10.000519, 9.999354 
2.824464e+3, 1.7361295e+2, -1030879.2, -1227884.5, 142964.83, 0.22554827, -0.4176336, -955768.2, 282797.7, 0.0, 10.002294, 9.999481 
2.8240603e+3, 1.8360546e+2, -836826.94, -1186385.6, 104372.08, 0.22688133, -0.24568196, -808034.8, 332612.53, 0.0, 10.003381, 9.998583 
2.8236553e+3, 1.9359867e+2, -687716.8, -1036599.2, 112711.29, 0.17673738, 0.013018454, -654471.75, 388250.2, 0.0, 10.003636, 9.998799 
2.8232512e+3, 2.0359042e+2, -579987.06, -822919.44, 63552.844, 0.24935202, 0.09259607, -564365.7, 380437.4, 0.0, 10.0032215, 9.999807 
2.8228483e+3, 2.1357909e+2, -607152.7, -719311.2, 15661.299, 0.49020907, -0.25790557, -605006.9, 241893.28, 0.0, 10.0021, 10.000367 
2.8224444e+3, 2.2356886e+2, -797706.56, -985367.25, 26191.703, 0.5558313, -0.41306493, -794119.56, -45125.277, 0.0, 10.001056, 9.998392 
2.8220382e+3, 2.3356037e+2, -795277.1, -934677.56, 43348.68, 0.35994926, -0.29055843, -782896.75, -131810.55, 0.0, 10.000414, 9.998364 
2.8216314e+3, 2.4355248e+2, -554794.94, -490549.8, -43273.453, 0.18443216, -0.20032965, -468779.4, 84385.52, 0.0, 10.00019, 10.000861 
2.8212225e+3, 2.5354525e+2, -388166.0, -280492.0, -31755.06, 0.06058455, -0.2579041, -271824.56, 183400.47, 0.0, 10.000337, 10.001551 
2.820816e+3, 2.6353663e+2, -645468.2, -901517.4, 105986.72, 0.02970216, -0.23736285, -607289.6, -249981.66, 0.0, 10.000209, 9.996696 
2.820413e+3, 2.735253e+2, -593757.1, -874902.4, 106881.78, 0.20174117, -0.17813276, -557738.75, -298306.47, 0.0, 10.0000925, 9.9962635 
2.820008e+3, 2.835151e+2, -414900.38, -505023.38, 58009.43, 0.17833708, -0.082572825, -386506.9, -224967.95, 0.0, 9.999653, 9.99834 
2.8195986e+3, 2.9350623e+2, -237496.28, -277339.3, 21875.979, -0.18080385, -0.062958635, -227830.22, -164210.47, 0.0, 9.999786, 9.999169 
2.8191936e+3, 3.03496e+2, -251518.92, -313847.53, -23028.35, -0.06962505, -0.14571793, -243933.8, -243933.8, 0.0, 9.99937, 9.99845 
2.8187987e+3, 3.1348348e+2, -366385.38, -290011.53, -81119.42, 1.0959852, -0.4742767, -238540.2, -238540.2, 0.0, 9.997983, 9.998957 
2.8183782e+3, 3.2347387e+2, -184840.48, 337307.13, 30902.148, -0.3858192, -0.66470957, 339129.66, 339129.66, 0.0, 9.99689, 10.003772 
2.8360823e+3, 1.3405092e+2, -1246468.4, -1847221.6, 209632.03, 0.47208822, -0.47083595, -1180550.5, 445726.6, 0.00004648075, 10.004782, 9.996719 
2.8356698e+3, 1.4404358e+2, -853081.56, -1123697.6, -107849.63, -0.31517622, -0.26594248, -815358.4, 712992.5, 0.000014306027, 10.004727, 10.0010805 
2.8352642e+3, 1.5403612e+2, -1135292.9, -1114732.1, -74929.35, 0.044612337, -0.3770989, -1049381.3, 381032.25, 0.0000019516297, 10.001764, 10.001864 
2.834861e+3, 1.6402908e+2, -1352688.3, -1407587.1, 182941.73, 0.3063185, -0.34814772, -1195148.1, 137331.94, 0.00000005936716, 10.000579, 9.999778 
2.8344595e+3, 1.740225e+2, -984090.2, -1180384.3, 233391.89, 0.30213317, -0.15794636, -829048.3, 405505.94, 0.0, 10.002467, 9.999742 
2.834056e+3, 1.840142e+2, -750377.25, -1112262.8, 140898.48, 0.21419688, -0.09471242, -701989.06, 434651.78, 0.0, 10.003791, 9.998911 
2.83365e+3, 1.9400364e+2, -590027.1, -968533.0, 150764.23, 0.0536821, -0.22378021, -537316.2, 501428.1, 0.0, 10.004189, 9.999011 
2.833245e+3, 2.0399362e+2, -543924.2, -935285.3, 44344.563, 0.07115303, -0.27990535, -538962.5, 401877.4, 0.0, 10.004017, 9.9986515 
2.832841e+3, 2.1398374e+2, -585334.8, -881339.7, -14870.146, 0.29936, -0.32624856, -584589.7, 258340.2, 0.0, 10.002973, 9.998842 
2.8324357e+3, 2.239741e+2, -686494.8, -886448.9, -23222.52, 0.3591851, -0.3556338, -683833.2, 61189.79, 0.0, 10.001603, 9.998813 
2.832028e+3, 2.3396477e+2, -837988.0, -890616.6, -1381.7572, 0.16822043, -0.36418462, -837951.75, -190830.48, 0.0, 9.999812, 9.99897 
2.8316215e+3, 2.4395677e+2, -722511.0, -591255.1, -25618.104, 0.11696463, -0.31458786, -586432.25, -37230.723, 0.0, 9.999108, 10.000691 
2.8312165e+3, 2.5395042e+2, -451070.8, -364858.56, -73806.125, 0.24997331, -0.23728554, -322492.56, 128765.22, 0.0, 10.000107, 10.001088 
2.830811e+3, 2.6394215e+2, -441067.9, -649298.4, 46481.152, 0.28056467, -0.22068173, -431163.5, -77826.84, 0.0, 10.000948, 9.998062 
2.830406e+3, 2.7393085e+2, -270415.03, -546866.9, 108835.36, 0.1845134, -0.3143006, -232710.45, 22741.746, 0.0, 10.001586, 9.997787 
2.8299996e+3, 2.839206e+2, -172944.05, -396105.0, 81352.97, 0.085435055, -0.30645922, -146435.75, 11119.5205, 0.0, 10.001334, 9.998282 
2.829591e+3, 2.939117e+2, -251964.27, -350772.0, 23245.553, -0.10607851, -0.227052, -246768.7, -187128.7, 0.0, 9.999964, 9.998582 
2.829186e+3, 3.03902e+2, -315277.1, -321308.63, 4001.4531, 0.11910014, -0.2231886, -313282.22, -313282.22, 0.0, 9.998822, 9.998662 
2.82879e+3, 3.1389108e+2, -348597.63, -279297.3, -9830.101, 1.2846721, -0.4018909, -277929.9, -277929.9, 0.0, 9.9980755, 9.99899 
2.8283656e+3, 3.2388118e+2, -374945.47, 223779.27, 7086.3677, -0.43682486, -0.609212, 223863.13, 223863.13, 0.0, 9.995691, 10.003564 
2.8460783e+3, 1.3445929e+2, -1279053.6, -1667610.0, 256354.48, 0.45859018, -0.46254638, -1151677.3, 470592.78, 0.000024388144, 10.003714, 9.998477 
2.845665e+3, 1.4445183e+2, -1416618.1, -1482524.9, 99381.97, -0.26976553, -0.31117526, -1344868.6, 179471.7, 0.000007474148, 10.001245, 10.000287 
2.8452587e+3, 1.5444377e+2, -858854.94, -1103106.3, 655.53174, 0.042105228, -0.36277688, -858853.2, 567564.6, 0.0000012508747, 10.004196, 10.0007715 
2.844855e+3, 1.6443655e+2, -807625.94, -1158774.8, 166152.6, 0.26550305, -0.28065333, -741471.06, 587019.1, 0.000000073245815, 10.004413, 9.999622 
2.844453e+3, 1.7443006e+2, -1133362.9, -1248460.4, 197341.23, 0.2595022, -0.09608906, -985350.4, 245210.67, 0.0, 10.001469, 9.999736 
2.84405e+3, 1.8442152e+2, -1183109.1, -1258304.0, 147133.9, 0.16426447, -0.082061194, -1068844.9, 63801.09, 0.0, 10.000589, 9.99944 
2.8436446e+3, 1.9440998e+2, -899821.25, -1063504.0, 189930.89, -0.003994842, -0.37556067, -774849.3, 259904.02, 0.0, 10.001851, 9.99948 
2.8432396e+3, 2.043994e+2, -816726.1, -1161078.8, 78237.734, -0.014989715, -0.46873882, -799783.94, 137069.81, 0.0, 10.002559, 9.9978 
2.8428346e+3, 2.1438996e+2, -730580.7, -1074007.9, 66303.68, 0.164756, -0.37541744, -718224.4, 120721.37, 0.0, 10.002514, 9.997739 
2.8424278e+3, 2.2438048e+2, -647008.6, -839076.25, 37924.152, 0.21540304, -0.32414088, -639791.6, 101249.234, 0.0, 10.001789, 9.999034 
2.842019e+3, 2.343707e+2, -734815.3, -808029.5, 23259.793, 0.092705555, -0.40771702, -728050.8, -84908.32, 0.0, 10.000418, 9.999232 
2.841613e+3, 2.4436244e+2, -623273.7, -620778.56, 66225.055, 0.12369256, -0.35940596, -555789.3, -10563.387, 0.0, 10.000152, 9.999972 
2.84121e+3, 2.54356e+2, -346001.1, -421471.78, 20429.016, 0.3940445, -0.20816386, -340826.06, 106461.77, 0.0, 10.001311, 10.00011 
2.8408054e+3, 2.6434773e+2, -293810.72, -425520.0, 78059.484, 0.4235064, -0.19005875, -257537.42, 91829.15, 0.0, 10.001337, 9.999397 
2.8403986e+3, 2.743367e+2, -344267.16, -403577.03, 81939.625, 0.13149028, -0.4302523, -286781.3, -35310.3, 0.0, 10.000323, 9.9993725 
2.8399915e+3, 2.8432664e+2, -429881.22, -531563.25, -11018.753, -0.0013976998, -0.48785153, -428700.88, -275133.13, 0.0, 9.999646, 9.998153 
2.8395844e+3, 2.9431748e+2, -379894.47, -459871.94, -11299.28, 0.054360818, -0.41055435, -378328.75, -322671.28, 0.0, 9.999298, 9.998151 
2.8391787e+3, 3.0430862e+2, -309934.25, -276032.97, -11664.859, 0.31369397, -0.316165, -272407.1, -272407.1, 0.0, 9.998693, 9.999029 
2.8387788e+3, 3.1429994e+2, -330906.63, -226954.69, -40661.676, 1.1721957, -0.3177839, -212939.19, -212939.19, 0.0, 9.998025, 9.999367 
2.8383568e+3, 3.242924e+2, -298922.72, 54799.574, -114864.62, -0.092661604, -0.2459071, 88826.42, 88826.42, 0.0, 9.997114, 10.001702 
2.8560734e+3, 1.3487256e+2, -1025216.06, -1107359.8, 865.53314, 0.42974907, -0.22705208, -1025206.94, 593010.8, 0.00001298758, 10.003522, 10.002444 
2.855659e+3, 1.4486288e+2, -1568758.5, -1856228.9, 196649.78, -0.120106265, -0.35396618, -1468914.3, 51384.742, 0.000003738906, 10.001459, 9.997633 
2.8552535e+3, 1.5485236e+2, -1050114.6, -1529858.4, 128551.17, -0.07855606, -0.3542133, -1017839.56, 404575.72, 0.00000051506584, 10.004295, 9.997805 
2.854849e+3, 1.6484313e+2, -798092.7, -1157897.1, 79114.15, 0.022315549, -0.32174557, -781465.4, 543046.6, 0.00000002542409, 10.004485, 9.999599 
2.8544447e+3, 1.74835e+2, -1138979.9, -1255171.4, 103389.52, 0.069833055, -0.28354663, -1078481.8, 148109.9, 0.0, 10.001437, 9.999706 
2.8540412e+3, 1.848272e+2, -1113317.9, -1079272.8, 211709.05, 0.076696776, -0.25551528, -883903.0, 244761.89, 0.0, 10.000453, 10.000725 
2.8536388e+3, 1.9481924e+2, -829850.25, -888818.2, 268987.8, 0.061797988, -0.30233696, -588735.4, 442000.34, 0.0, 10.001713, 10.000751 
2.853235e+3, 2.0480984e+2, -802755.7, -1124016.1, 114688.555, 0.10154503, -0.35012344, -766014.4, 166811.63, 0.0, 10.002484, 9.998106 
2.852829e+3, 2.1479905e+2, -684656.0, -1015378.8, 123924.78, 0.19354269, -0.4112017, -643373.4, 191562.08, 0.0, 10.002631, 9.998097 
2.8524223e+3, 2.2478943e+2, -618424.7, -861426.3, 60171.47, 0.29928243, -0.37156364, -604341.4, 132693.13, 0.0, 10.002135, 9.998707 
2.852015e+3, 2.3478079e+2, -671819.94, -825794.5, 38109.38, 0.39926532, -0.28501797, -662904.0, -23778.023, 0.0, 10.001037, 9.998809 
2.851608e+3, 2.4477229e+2, -538662.94, -672544.94, 173196.36, 0.378335, -0.20019442, -419921.2, 121291.414, 0.0, 10.001107, 9.9991665 
2.8512025e+3, 2.54764e+2, -235681.64, -463483.3, 127460.086, 0.25045326, -0.12786438, -178645.42, 264647.88, 0.0, 10.002449, 9.999286 
2.850797e+3, 2.6475504e+2, -253339.92, -457818.03, 44009.785, 0.21803026, -0.10554944, -244270.02, 101111.03, 0.0, 10.001836, 9.998936 
2.850391e+3, 2.74745e+2, -498414.47, -516649.3, -7086.836, 0.2301296, -0.19103205, -495984.16, -248504.34, 0.0, 9.999428, 9.99903 
2.8499845e+3, 2.8473538e+2, -487181.13, -377711.2, -18540.178, 0.23463559, -0.27101898, -374656.4, -225085.89, 0.0, 9.998431, 9.999807 
2.8495768e+3, 2.947262e+2, -301545.94, -238742.27, 27439.92, 0.23780788, -0.35583487, -228442.48, -176788.81, 0.0, 9.999039, 9.9998 
2.8491688e+3, 3.0471784e+2, -312491.13, -356639.0, 17480.406, 0.26824316, -0.2590051, -306407.94, -306407.94, 0.0, 9.999023, 9.998314 
2.8487632e+3, 3.147102e+2, -315378.56, -306711.22, -54050.516, 0.610909, -0.063203424, -256820.92, -256820.92, 0.0, 9.998538, 9.998562 
2.8483495e+3, 3.2469863e+2, 225705.13, 215216.94, -34716.33, 0.04391181, -0.3270856, 255571.2, 255571.2, 0.0, 10.001078, 10.000926 
2.866068e+3, 1.3528241e+2, -849332.94, -1003028.06, -145962.31, 0.2903913, -0.23323582, -761224.3, 852974.6, 0.0000059629547, 10.004698, 10.002575 
2.8656563e+3, 1.4527193e+2, -1174932.1, -1739569.5, 114589.87, 0.075645864, -0.42739037, -1152563.0, 363725.1, 0.0000015122073, 10.004517, 9.996952 
2.865249e+3, 1.5526141e+2, -1287908.4, -1727948.0, 200498.23, -0.08754094, -0.37057185, -1210256.9, 208148.6, 0.0000000966577, 10.003043, 9.997046 
2.8648436e+3, 1.6525166e+2, -1026023.25, -1266489.1, 168980.72, -0.05791835, -0.34238735, -938866.56, 381640.03, 0.00000000026919006, 10.002939, 9.999597 
2.8644386e+3, 1.7524265e+2, -811388.1, -1108076.6, 175658.64, 0.044356503, -0.38207856, -729815.06, 492776.97, 0.0, 10.003745, 9.99961 
2.8640348e+3, 1.8523468e+2, -734455.8, -892241.0, 274001.72, 0.08402263, -0.35634467, -528215.2, 596450.6, 0.0, 10.003037, 10.000764 
2.863633e+3, 1.9522764e+2, -904781.1, -920507.56, 236693.38, 0.13043456, -0.32772523, -675820.4, 350908.63, 0.0, 10.001205, 10.000767 
2.8632292e+3, 2.0521913e+2, -1047389.9, -1154755.5, 69302.35, 0.17212753, -0.32671082, -1013410.5, -84598.336, 0.0, 10.00049, 9.99883 
2.8628227e+3, 2.1520878e+2, -946266.9, -1062370.8, 122621.87, 0.19731547, -0.42768136, -868649.56, -37730.707, 0.0, 10.000552, 9.9987545 
2.8624162e+3, 2.251995e+2, -762571.44, -1009565.44, 61761.535, 0.3227518, -0.35166362, -747988.75, -14972.146, 0.0, 10.0014925, 9.998 
2.8620097e+3, 2.3519126e+2, -470658.7, -816068.75, 20694.912, 0.56185126, -0.16188088, -469423.2, 165682.34, 0.0, 10.002818, 9.998016 
2.861603e+3, 2.4518208e+2, -387860.75, -684790.25, 183163.88, 0.48801407, -0.06680351, -300548.5, 236650.6, 0.0, 10.002546, 9.998376 
2.8611952e+3, 2.5517187e+2, -487022.28, -693409.56, 141582.75, 0.10422754, -0.11407844, -415017.2, 24281.611, 0.0, 10.0012245, 9.998288 
2.8607884e+3, 2.6516256e+2, -488160.38, -612830.44, -6166.133, 0.03845506, -0.055616677, -487856.16, -146464.05, 0.0, 10.00041, 9.998557 
2.860383e+3, 2.7515376e+2, -501778.38, -569472.1, 5625.8286, 0.29800943, 0.018310605, -501314.0, -257831.14, 0.0, 9.99963, 9.998573 
2.859977e+3, 2.851448e+2, -271667.2, -110032.2, 53801.74, 0.41885293, -0.03526801, -93761.625, 51804.87, 0.0, 9.999239, 10.001247 
2.8595692e+3, 2.9513556e+2, -147531.83, -10985.487, 16819.242, 0.38056645, -0.27453047, -8944.272, 38700.27, 0.0, 9.99945, 10.001165 
2.8591582e+3, 3.051274e+2, -326889.25, -477298.1, -65725.87, 0.1268774, -0.17624536, -302215.78, -302215.78, 0.0, 9.999417, 9.997294 
2.8587466e+3, 3.151206e+2, -330906.1, -440855.1, -88348.414, -0.07984704, 0.19449857, -281824.66, -281824.66, 0.0, 9.998967, 9.997443 
2.858344e+3, 3.251022e+2, 29874.709, 95697.55, 174574.19, 0.19100155, -0.68489474, 240435.53, 240435.53, 0.0, 9.999817, 10.000736 
2.8760624e+3, 1.3569002e+2, -1056499.5, -1340789.9, -99318.59, 0.09106189, -0.38466066, -1025239.25, 584965.2, 0.0000021473002, 10.004262, 10.000472 
2.8756544e+3, 1.456797e+2, -1103855.0, -1538913.8, 76303.914, 0.28924862, -0.5247432, -1090860.4, 421436.3, 0.00000043033984, 10.004268, 9.998449 
2.875245e+3, 1.5567105e+2, -1196460.6, -1520903.3, 176267.4, -0.00865705, -0.41963223, -1119128.4, 295257.6, 0.000000019645139, 10.002951, 9.998513 
2.8748393e+3, 1.6566236e+2, -1023397.25, -1276266.3, 223614.88, 0.02799572, -0.34937093, -892947.94, 423524.06, 0.0, 10.002976, 9.99952 
2.874436e+3, 1.7565371e+2, -774011.9, -1101473.5, 236252.72, 0.20058697, -0.33380258, -650300.25, 568254.6, 0.0, 10.004016, 9.999532 
2.8740317e+3, 1.8564399e+2, -789797.44, -1087480.0, 208337.36, 0.22537927, -0.40478888, -682595.44, 438053.84, 0.0, 10.00334, 9.999293 
2.8736266e+3, 1.9563353e+2, -994654.5, -1116091.0, 165765.39, 0.17909962, -0.55762446, -878837.0, 143914.38, 0.0, 10.00121, 9.999433 
2.8732213e+3, 2.0562579e+2, -952378.2, -898751.3, 82411.22, 0.16222556, -0.5107829, -838901.2, 85927.18, 0.0, 10.000252, 10.000683 
2.8728142e+3, 2.1561961e+2, -870417.06, -844538.75, 151436.27, 0.13779283, -0.36362255, -705489.9, 121401.836, 0.0, 10.000284, 10.00037 
2.872408e+3, 2.2561124e+2, -798372.2, -1140379.4, 170931.23, 0.15873525, -0.21554457, -727591.4, 1389.3767, 0.0, 10.001705, 9.99701 
2.8720018e+3, 2.356014e+2, -348366.13, -859806.5, 119266.82, 0.21911927, -0.07517663, -321920.78, 309166.5, 0.0, 10.0040655, 9.997128 
2.8715956e+3, 2.4559009e+2, -282148.25, -703219.8, 104621.85, 0.26341996, -0.1168132, -257586.1, 275614.63, 0.0, 10.003534, 9.997792 
2.871189e+3, 2.555776e+2, -578193.7, -779790.06, 66985.305, 0.24833596, -0.3225439, -557965.8, -122645.305, 0.0, 10.000746, 9.99794 
2.870781e+3, 2.6556873e+2, -447148.8, -390826.94, 59976.17, 0.146898, -0.300726, -352729.44, -15323.276, 0.0, 9.999809, 10.000373 
2.870372e+3, 2.7556238e+2, -272823.1, -274703.2, 116264.78, 0.021783324, -0.13901159, -157494.55, 81973.93, 0.0, 10.000395, 10.000231 
2.8699663e+3, 2.8555393e+2, -256610.13, -357345.6, 137543.64, 0.19458961, -0.091050096, -160502.05, -18952.404, 0.0, 10.000457, 9.998959 
2.8695625e+3, 2.9554376e+2, -167608.25, -264627.1, -3190.208, 0.526112, -0.18639895, -167503.45, -123858.266, 0.0, 10.000367, 9.998979 
2.8691524e+3, 3.055334e+2, -157045.72, -354736.84, -109085.336, 0.37093332, -0.22472115, -108683.75, -108683.75, 0.0, 10.000406, 9.997654 
2.8687397e+3, 3.1552348e+2, -39390.363, -249741.3, -106172.13, 0.054096255, -0.19863907, 4881.1543, 4881.1543, 0.0, 10.000742, 9.997901 
2.868335e+3, 3.2551032e+2, -343896.25, -21254.547, 49485.98, 0.30591676, -0.61243516, -13835.126, -13835.126, 0.0, 9.997015, 10.001248 
2.8860566e+3, 1.3609986e+2, -1608537.6, -1829294.5, -26505.533, 0.1056152, -0.3504786, -1605399.8, 783.58704, 0.0000003382392, 10.001434, 9.99847 
2.885651e+3, 1.460894e+2, -1254081.8, -1465044.8, 96472.78, 0.4371843, -0.4870735, -1216618.0, 291665.88, 0.000000039050374, 10.0026045, 9.999749 
2.885241e+3, 1.5608086e+2, -1053921.0, -1342362.9, 175194.7, 0.1225962, -0.5003932, -971221.5, 439141.34, 0.0000000006124831, 10.003456, 9.999498 
2.8848353e+3, 1.6607217e+2, -983039.5, -1351472.4, 214997.97, 0.09941481, -0.42692447, -884130.8, 428316.5, 0.0, 10.003691, 9.998648 
2.8844318e+3, 1.7606324e+2, -928612.94, -1272547.1, 172753.61, 0.18155907, -0.37074533, -856825.06, 357711.44, 0.0, 10.003398, 9.998648 
2.884026e+3, 1.860531e+2, -954253.6, -1228782.0, 94823.125, 0.16954233, -0.4205166, -924685.94, 191952.17, 0.0, 10.002538, 9.998684 
2.8836194e+3, 1.9604184e+2, -1058175.8, -1211763.4, 128271.79, 0.12919377, -0.60119075, -985467.25, 33284.094, 0.0, 10.001087, 9.998829 
2.8832132e+3, 2.0603438e+2, -788415.94, -781218.7, 84950.95, 0.11944992, -0.5162612, -699790.2, 221036.92, 0.0, 10.0012245, 10.001029 
2.8828073e+3, 2.1602958e+2, -565291.7, -670936.1, 36537.06, 0.12757477, -0.28560442, -553886.6, 268989.72, 0.0, 10.002288, 10.000602 
2.8824008e+3, 2.2602172e+2, -727657.56, -1076860.5, 109677.3, 0.056672107, -0.1240143, -696067.9, 28891.047, 0.0, 10.002105, 9.997236 
2.8819942e+3, 2.3601143e+2, -772671.9, -1065969.8, 180457.44, -0.05335723, -0.054331318, -686789.5, -59721.52, 0.0, 10.001201, 9.99708 
2.8815886e+3, 2.4599901e+2, -629365.25, -887829.4, 136663.94, 0.09472661, -0.18883367, -570507.0, -41316.54, 0.0, 10.001256, 9.997605 
2.8811836e+3, 2.5598505e+2, -502448.7, -759112.3, 146258.52, 0.4053248, -0.5139638, -436202.47, -4879.767, 0.0, 10.001363, 9.997775 
2.8807738e+3, 2.659764e+2, -257817.0, -203486.03, 127674.484, 0.23106125, -0.49679443, -100119.0, 233285.02, 0.0, 10.000737, 10.001196 
2.8803614e+3, 2.7597132e+2, -322984.3, -239532.52, 48088.54, -0.24715866, -0.30777103, -217590.86, 17860.17, 0.0, 9.999831, 10.0007305 
2.879956e+3, 2.8596285e+2, -471623.66, -718935.0, 57874.324, -0.044652298, -0.16912529, -458750.34, -321215.13, 0.0, 10.000113, 9.996632 
2.8795555e+3, 2.9595175e+2, -272884.3, -575137.9, 20060.635, 0.6150077, -0.13008204, -271558.7, -231910.27, 0.0, 10.000787, 9.996641 
2.8791472e+3, 3.0593893e+2, -85690.484, -255593.66, -58773.61, 0.621921, -0.32778394, -67341.01, -67341.01, 0.0, 10.000633, 9.99823 
2.878735e+3, 3.1592536e+2, -105652.2, -214696.63, -60056.348, 0.3621412, -0.71409804, -79060.695, -79060.695, 0.0, 10.000015, 9.998495 
2.8783235e+3, 3.259221e+2, -238129.66, 92426.43, -115340.94, 0.25547943, -0.21993065, 128693.33, 128693.33, 0.0, 9.997547, 10.001734 
2.896051e+3, 1.3651109e+2, -1703148.1, -2096105.0, 20295.94, 0.19873379, -0.22767535, -1702102.6, -99956.23, 0.0000000028010363, 10.001689, 9.996536 
2.8956464e+3, 1.4650021e+2, -1194062.0, -1310889.6, 145259.33, 0.53141576, -0.38665175, -1095911.4, 408346.53, 0.0, 10.002457, 10.000887 
2.895238e+3, 1.5649067e+2, -1000296.06, -1233824.1, 219138.56, 0.28697535, -0.6003688, -868754.7, 537583.4, 0.0, 10.00344, 10.000262 
2.894831e+3, 1.6648078e+2, -1074304.6, -1555401.9, 213526.23, 0.1132255, -0.6006038, -993205.8, 315230.22, 0.0, 10.003731, 9.99723 
2.8944242e+3, 1.764707e+2, -986575.9, -1420002.1, 163112.98, -0.09835938, -0.5073897, -932050.3, 278492.72, 0.0, 10.003499, 9.997582 
2.894017e+3, 1.8646237e+2, -890904.3, -1112901.9, 56229.395, -0.1530311, -0.37334356, -877474.5, 235155.31, 0.0, 10.002579, 9.999464 
2.8936103e+3, 1.9645463e+2, -999797.75, -1132098.4, 108133.555, -0.08636423, -0.26405507, -939185.56, 75523.65, 0.0, 10.001228, 9.999318 
2.8932062e+3, 2.0644566e+2, -869636.2, -1074518.0, 144021.6, 0.08285759, -0.22570947, -795339.0, 121463.92, 0.0, 10.001705, 9.998813 
2.8928033e+3, 2.1643628e+2, -535032.5, -821951.94, 51764.754, 0.26784912, -0.22949009, -525979.0, 292922.4, 0.0, 10.003155, 9.999169 
2.8923962e+3, 2.2642843e+2, -448867.6, -555187.1, 21522.803, 0.20757176, -0.19958462, -444675.9, 276302.1, 0.0, 10.002326, 10.000713 
2.891987e+3, 2.3642099e+2, -689851.06, -664592.8, 150014.77, 0.015243096, -0.1814986, -526676.5, 96371.016, 0.0, 10.000172, 10.000336 
2.8915817e+3, 2.464112e+2, -648251.44, -740896.2, 268787.7, 0.14353846, -0.26768607, -421823.8, 103315.12, 0.0, 10.00044, 9.999003 
2.8911778e+3, 2.5639987e+2, -322523.22, -578111.7, 293630.88, 0.4427876, -0.44759142, -130082.45, 297162.56, 0.0, 10.002178, 9.99862 
2.8907686e+3, 2.6638946e+2, -414077.6, -743433.44, 135471.19, 0.3863614, -0.4011554, -365515.63, -36164.332, 0.0, 10.001652, 9.997054 
2.8903562e+3, 2.7637988e+2, -556777.94, -731573.3, -42968.727, 0.09860978, -0.24227333, -546786.4, -315332.4, 0.0, 9.999857, 9.997332 
2.889949e+3, 2.863695e+2, -369286.53, -508525.6, 76878.12, 0.088678375, -0.22971562, -335189.5, -201633.95, 0.0, 10.000115, 9.998068 
2.8895453e+3, 2.9635835e+2, -25739.555, -302036.38, 114597.7, 0.27935663, -0.32722405, 15604.696, 51265.695, 0.0, 10.00183, 9.998 
2.8891373e+3, 3.0634782e+2, 71133.7, -78329.18, 1406.1573, 0.36370957, -0.40246508, 71146.93, 71146.93, 0.0, 10.001307, 9.999133 
2.8887278e+3, 3.1633732e+2, -156779.39, -185808.08, 6437.481, 0.51352, -0.5292829, -155415.84, -155415.84, 0.0, 9.999458, 9.998989 
2.888319e+3, 3.2633334e+2, 120306.73, 146145.84, -60845.133, 0.72495747, -0.021186277, 195427.94, 195427.94, 0.0, 10.000485, 10.000764 
2.9060465e+3, 1.369184e+2, -1346936.4, -1900763.1, -96325.04, 0.25565526, -0.5032372, -1330661.3, 267488.06, 0.00000000011876347, 10.004076, 9.996728 
2.9056388e+3, 1.4691047e+2, -1246601.4, -1400617.6, 167580.3, 0.3142251, -0.34420788, -1139182.3, 361051.84, 0.0, 10.002413, 10.000288 
2.9052326e+3, 1.5690005e+2, -1108617.5, -1338686.9, 128510.375, 0.23807824, -0.6058607, -1051176.4, 351148.2, 0.0, 10.002975, 9.999747 
2.904826e+3, 1.6688983e+2, -1207380.0, -1611914.8, 125891.336, 0.10910237, -0.63336587, -1171402.4, 133023.63, 0.0, 10.002811, 9.997268 
2.9044187e+3, 1.7687963e+2, -1208241.4, -1547087.8, 180497.55, -0.12860893, -0.56482226, -1130109.4, 76425.11, 0.0, 10.002082, 9.997393 
2.9040104e+3, 1.8687154e+2, -951493.4, -1194125.0, 50563.605, -0.22784041, -0.36550108, -941377.8, 167241.97, 0.0, 10.002414, 9.998981 
2.903603e+3, 1.9686456e+2, -806224.06, -1099114.6, 18977.512, -0.18342914, -0.1473257, -804999.56, 205693.48, 0.0, 10.002856, 9.998746 
2.9031995e+3, 2.0685488e+2, -955791.7, -1223502.4, 121562.695, 0.035410717, -0.11228181, -908830.1, 3964.7217, 0.0, 10.001626, 9.997795 
2.9027975e+3, 2.168435e+2, -1075370.1, -1155470.5, 135654.4, 0.32187477, -0.2188472, -973977.3, -159063.1, 0.0, 9.999801, 9.998478 
2.9023907e+3, 2.268356e+2, -646808.1, -450454.22, -18436.625, 0.2965991, -0.2653658, -448738.1, 268250.16, 0.0, 10.000166, 10.002449 
2.9019806e+3, 2.3682947e+2, -467406.28, -377425.5, -55378.785, 0.11895797, -0.30929974, -351065.03, 267973.28, 0.0, 10.000978, 10.001906 
2.9015744e+3, 2.4682213e+2, -498138.47, -535721.44, 52204.28, 0.19626129, -0.3102411, -461446.56, 59657.168, 0.0, 10.000917, 10.000174 
2.9011708e+3, 2.568138e+2, -570079.1, -675605.6, 47186.93, 0.41289514, -0.3381525, -552057.0, -128875.9, 0.0, 10.000416, 9.998795 
2.9007626e+3, 2.6680204e+2, -695264.56, -1260415.6, -58645.57, 0.47848713, -0.25617504, -689243.06, -363935.72, 0.0, 10.001388, 9.993618 
2.9003522e+3, 2.7678847e+2, -405583.94, -978212.5, -52271.64, 0.43645254, -0.16337441, -400851.5, -173392.61, 0.0, 10.0022745, 9.994478 
2.8999427e+3, 2.8677663e+2, -66261.37, -147111.14, 147676.11, 0.18765971, -0.28829792, 46422.875, 175994.84, 0.0, 10.001279, 9.999986 
2.8995347e+3, 2.967657e+2, -219611.9, -222843.88, 161969.34, -0.14472441, -0.5398694, -59250.492, -27585.068, 0.0, 9.999797, 9.999504 
2.8991255e+3, 3.0675963e+2, -138497.03, -93633.836, -86994.42, -0.06018602, -0.2904852, -26225.543, -26225.543, 0.0, 9.999554, 9.999826 
2.898717e+3, 3.1675518e+2, -274342.78, -269628.3, -79656.625, 0.3555222, 0.13469821, -192294.05, -192294.05, 0.0, 9.998841, 9.998674 
2.8983092e+3, 3.267405e+2, -205888.0, -123757.805, 137536.2, 0.5799098, -0.34385145, -21287.014, -21287.014, 0.0, 9.998752, 9.999714 
2.916041e+3, 1.373236e+2, -1332202.1, -1723117.8, -286736.84, 0.16827434, -0.9860427, -1180641.5, 413529.9, 0.0000000000007792345, 10.003426, 9.998267 
2.9156283e+3, 1.4732008e+2, -1341937.9, -1633939.5, 191935.73, -0.14568955, -0.34603414, -1246784.0, 249431.17, 0.0, 10.002548, 9.998629 
2.915225e+3, 1.573089e+2, -1175150.6, -1486402.9, 145326.27, -0.029008318, -0.5121653, -1117846.6, 280476.72, 0.0, 10.002993, 9.998732 
2.914821e+3, 1.6729937e+2, -1092148.0, -1363939.4, 104638.77, 0.12074229, -0.5333668, -1056530.0, 243886.38, 0.0, 10.002746, 9.999013 
2.914416e+3, 1.7729025e+2, -1130662.8, -1401148.3, 168937.78, 0.17460485, -0.5094642, -1049501.8, 153005.14, 0.0, 10.002096, 9.998407 
2.9140076e+3, 1.8727979e+2, -1072067.9, -1474428.8, 84933.94, 0.037080094, -0.4713537, -1054874.0, 49740.742, 0.0, 10.002515, 9.997014 
2.9135987e+3, 1.9726904e+2, -825265.9, -1241753.0, 16199.04, -0.13013315, -0.43278193, -824636.75, 182089.81, 0.0, 10.0032625, 9.997578 
2.9131922e+3, 2.072605e+2, -841100.25, -1002432.3, 25841.43, -0.027869422, -0.32958347, -837062.2, 71750.914, 0.0, 10.001639, 9.999328 
2.9127872e+3, 2.172524e+2, -1127343.0, -1093184.6, 99890.77, 0.16760333, -0.24528502, -1008923.5, -198029.63, 0.0, 9.999018, 9.999297 
2.9123816e+3, 2.2724298e+2, -919986.9, -914141.6, 52622.14, 0.2716585, -0.2955863, -864361.0, -151374.31, 0.0, 9.999681, 9.999521 
2.9119757e+3, 2.3723333e+2, -505811.2, -637686.44, -80780.13, 0.3124759, -0.40591553, -467474.2, 147606.38, 0.0, 10.001699, 9.99979 
2.9115683e+3, 2.4722631e+2, -445786.94, -492157.66, -125151.75, 0.28999034, -0.31044227, -341691.03, 175459.02, 0.0, 10.001175, 10.000353 
2.911161e+3, 2.572201e+2, -637780.4, -640923.75, -130794.59, 0.25694156, -0.15667553, -508548.03, -89335.28, 0.0, 9.999621, 9.999419 
2.9107538e+3, 2.6720986e+2, -522262.9, -902741.3, -31541.15, 0.2801614, -0.100445576, -519665.9, -198343.92, 0.0, 10.001373, 9.996083 
2.9103464e+3, 2.7719793e+2, 103236.516, -451535.25, 45185.7, 0.30040243, -0.09345713, 106892.76, 330344.56, 0.0, 10.004541, 9.996997 
2.909937e+3, 2.871879e+2, 180414.73, 99703.56, 97648.21, 0.20830248, -0.20361146, 245717.78, 371262.88, 0.0, 10.002428, 10.001128 
2.9095262e+3, 2.971792e+2, -518201.47, -246828.13, 108057.164, 0.0646981, -0.33657664, -209058.11, -181440.4, 0.0, 9.997212, 10.000577 
2.9260355e+3, 1.3773523e+2, -1604878.0, -1777718.6, -6395.8496, 0.27216473, -0.8541322, -1604641.6, -14507.624, 0.0, 10.001273, 9.998918 
2.9256225e+3, 1.4772886e+2, -1087562.1, -1622414.9, 192584.33, -0.29405195, -0.46293584, -1025434.94, 466771.34, 0.0, 10.0048065, 9.997608 
2.9252195e+3, 1.5771882e+2, -1275554.3, -1641638.9, 186811.44, -0.072975166, -0.4102846, -1197056.9, 197252.67, 0.0, 10.002766, 9.99778 
2.9248157e+3, 1.6770896e+2, -1227834.9, -1429923.0, 68038.34, 0.17568208, -0.41926885, -1207063.0, 89343.734, 0.0, 10.001845, 9.998985 
2.924411e+3, 1.7769928e+2, -1273596.3, -1469077.0, 30991.744, 0.35067564, -0.46968278, -1268800.5, -70300.016, 0.0, 10.00116, 9.998382 
2.9240027e+3, 1.8768801e+2, -1130621.3, -1520504.8, 83068.95, 0.1444316, -0.5188592, -1113660.4, -13046.984, 0.0, 10.002206, 9.9968405 
2.9235938e+3, 1.97676e+2, -813794.5, -1249772.5, 126590.72, -0.13176952, -0.58947563, -779703.3, 223031.5, 0.0, 10.003422, 9.997443 
2.9231855e+3, 2.0766781e+2, -612108.7, -813734.56, 26449.453, -0.096437275, -0.47867605, -608696.75, 296117.03, 0.0, 10.002922, 9.999986 
2.9227775e+3, 2.1766095e+2, -802884.3, -933221.56, 54524.37, 0.039229028, -0.33632824, -783083.2, 23794.775, 0.0, 10.001266, 9.999309 
2.9223734e+3, 2.276504e+2, -912964.1, -1098152.4, 190333.72, 0.22916174, -0.39634794, -793896.75, -84912.49, 0.0, 10.000554, 9.997829 
2.92197e+3, 2.3763861e+2, -837207.1, -964815.56, 173990.27, 0.42845678, -0.5422165, -715691.1, -104585.69, 0.0, 10.000188, 9.998262 
2.9215613e+3, 2.4763164e+2, -602626.44, -595821.94, 54663.516, 0.30167574, -0.34164718, -544454.9, -31272.963, 0.0, 10.000276, 10.0000515 
2.9211506e+3, 2.576264e+2, -568044.75, -571062.2, 30040.703, 0.07090711, -0.05840829, -539474.9, -124232.76, 0.0, 9.999992, 9.999709 
2.920745e+3, 2.6761785e+2, -442268.75, -554769.56, 174156.45, 0.082885355, 0.0018154848, -315503.9, 1829.1815, 0.0, 10.000611, 9.998837 
2.9203403e+3, 2.776081e+2, -178884.58, -293845.03, 135797.84, 0.1430703, -0.053683452, -88902.84, 130532.29, 0.0, 10.001352, 9.999626 
2.9199305e+3, 2.876004e+2, -67607.14, 72862.11, -49066.375, 0.21203318, -0.090905614, 88303.69, 209809.22, 0.0, 10.000387, 10.001901 
2.9195175e+3, 2.9759458e+2, -433236.44, -88984.03, -80831.31, 0.29377267, -0.05893426, -70949.43, -47395.742, 0.0, 9.997296, 10.001637 
2.9360318e+3, 1.3814937e+2, -1497056.5, -1732819.3, 415050.38, 0.50364697, -0.5055849, -1183472.0, 402602.06, 0.0, 10.001984, 9.998903 
2.93562e+3, 1.4813718e+2, -1176560.8, -1719006.3, 102896.15, -0.20766547, -0.6621799, -1157698.3, 330504.9, 0.0, 10.004386, 9.997164 
2.9352152e+3, 1.5812983e+2, -1332441.6, -1756515.6, 118704.19, 0.0404169, -0.28329536, -1301475.8, 88807.805, 0.0, 10.00271, 9.997031 
2.93481e+3, 1.6811839e+2, -1357654.5, -1706600.3, 38511.4, 0.2492082, -0.3034358, -1353454.8, -61054.773, 0.0, 10.0018215, 9.997123 
2.9344037e+3, 1.7810602e+2, -1281788.6, -1524663.4, 23523.201, 0.31804708, -0.4525804, -1279531.4, -85007.664, 0.0, 10.001269, 9.997968 
2.933996e+3, 1.8809658e+2, -922072.06, -1122538.3, 138286.73, 0.067550614, -0.47388855, -851513.2, 245099.36, 0.0, 10.0023155, 9.999539 
2.9335883e+3, 1.9808762e+2, -643852.0, -974696.5, 167059.4, -0.22586632, -0.48471898, -574171.4, 424524.25, 0.0, 10.003715, 9.999205 
2.9331797e+3, 2.0807777e+2, -636725.56, -943425.06, -731.2757, -0.15566899, -0.53240883, -636723.8, 264064.66, 0.0, 10.0032625, 9.99893 
2.9327708e+3, 2.1806785e+2, -669892.06, -876697.56, 14765.315, 0.005603955, -0.59472483, -668843.2, 134039.2, 0.0, 10.002156, 9.999282 
2.9323652e+3, 2.2805859e+2, -695218.8, -757489.1, 181677.22, 0.16625072, -0.6602485, -542028.1, 162943.98, 0.0, 10.00096, 10.000007 
2.9319602e+3, 2.3804939e+2, -799185.7, -809255.0, 239479.42, 0.30359688, -0.7365093, -564688.0, 42375.17, 0.0, 9.99978, 9.9995575 
2.9315516e+3, 2.4804167e+2, -749935.06, -844073.3, 179835.72, 0.16852303, -0.5460843, -611110.7, -101959.555, 0.0, 9.999979, 9.998516 
2.931142e+3, 2.5803462e+2, -524077.7, -630051.1, 131873.44, -0.03310523, -0.28542456, -434944.03, -23708.521, 0.0, 10.000578, 9.999043 
2.9307377e+3, 2.68027e+2, -483322.84, -489083.9, 216665.31, 0.1608269, -0.15110263, -269518.94, 43800.047, 0.0, 9.999902, 9.999654 
2.9303342e+3, 2.780192e+2, -485147.72, -378105.75, 112601.25, 0.41789284, -0.08876136, -306953.0, -91550.77, 0.0, 9.998893, 10.000258 
2.9299217e+3, 2.8801146e+2, -429776.7, -236102.33, -109951.19, 0.30801186, -0.08586836, -186424.31, -68945.93, 0.0, 9.998381, 10.000798 
2.9295066e+3, 2.980052e+2, -222736.11, -57669.965, -168688.23, 0.22758795, 0.00493838, 47593.203, 67131.234, 0.0, 9.998895, 10.001153 
2.9460245e+3, 1.3855661e+2, -1253689.5, -1636733.3, 117953.56, 0.27539426, -0.3761657, -1220281.0, 361810.5, 0.0, 10.00378, 9.998686 
2.9456165e+3, 1.485445e+2, -1478293.8, -1774343.3, -130346.695, -0.015363344, -0.60545933, -1429083.6, 55132.516, 0.0, 10.001956, 9.997941 
2.9452103e+3, 1.5853713e+2, -1349132.1, -1712239.3, -29701.438, 0.13636658, -0.3229592, -1346718.8, 39576.574, 0.0, 10.002393, 9.997488 
2.9448047e+3, 1.685263e+2, -1010508.1, -1525615.4, 60334.055, 0.22104496, -0.31968272, -1003535.6, 284870.28, 0.0, 10.004176, 9.997221 
2.9443976e+3, 1.7851445e+2, -626702.4, -1167973.3, 158652.56, 0.18941566, -0.42723924, -583627.44, 606897.9, 0.0, 10.00563, 9.998301 
2.9439902e+3, 1.8850645e+2, -726333.8, -881526.25, 179574.9, 0.011173614, -0.39203694, -608307.1, 484290.97, 0.0, 10.003079, 10.000801 
2.943583e+3, 1.9849913e+2, -1160981.3, -1166205.3, 109278.76, -0.16536412, -0.36391655, -1054283.3, -59621.445, 0.0, 9.999951, 9.999694 
2.943174e+3, 2.0848754e+2, -967992.7, -1202067.8, -31520.006, -0.16922364, -0.55690837, -963822.56, -67051.805, 0.0, 10.001409, 9.99805 
2.9427642e+3, 2.1847522e+2, -547758.7, -843764.06, -11307.117, -0.094109304, -0.7865415, -547327.4, 251560.5, 0.0, 10.003144, 9.999028 
2.9423577e+3, 2.2846776e+2, -420387.06, -439122.84, 62617.094, 0.08794288, -0.77996784, -366441.0, 334516.4, 0.0, 10.002112, 10.001601 
2.9419515e+3, 2.3846121e+2, -714115.9, -697238.6, 86092.805, 0.24836694, -0.7549868, -619171.9, -16152.754, 0.0, 10.000108, 10.000151 
2.941543e+3, 2.4845274e+2, -715901.5, -921255.6, 147836.47, 0.07857538, -0.6155397, -638583.56, -133467.78, 0.0, 10.000656, 9.997639 
2.9411337e+3, 2.58444e+2, -435127.5, -641463.2, 160459.38, -0.123772115, -0.4487289, -347531.6, 59687.57, 0.0, 10.001462, 9.998536 
2.94073e+3, 2.68437e+2, -440699.13, -413964.1, 194960.72, 0.20738585, -0.26958984, -231913.14, 77383.67, 0.0, 9.999997, 10.000109 
2.9403266e+3, 2.7843037e+2, -643935.94, -469007.53, 105268.164, 0.61128557, -0.13059734, -419609.13, -208240.58, 0.0, 9.997907, 10.000095 
2.9399118e+3, 2.884221e+2, -445880.16, -364219.56, -44594.19, 0.3097571, -0.098446675, -344587.03, -231132.05, 0.0, 9.998796, 9.999717 
2.939497e+3, 2.9841405e+2, -134619.9, -82660.22, 79741.07, 0.15907674, -0.05377639, -24773.553, -9235.411, 0.0, 9.9998665, 10.000482 
2.9560167e+3, 1.3896056e+2, -1319320.3, -1660070.6, -155182.16, -0.11232381, -0.26846442, -1259241.1, 318906.78, 0.0, 10.003249, 9.9987955 
2.9556128e+3, 1.4895092e+2, -1351976.9, -1521471.0, -107015.99, 0.23285136, -0.37490767, -1300215.8, 180027.2, 0.0, 10.001937, 9.999715 
2.955205e+3, 1.5894088e+2, -1189794.8, -1414354.5, 3807.8328, 0.16344416, -0.5312978, -1189730.1, 192612.94, 0.0, 10.002482, 9.999511 
2.9547992e+3, 1.6893287e+2, -822425.3, -1172771.3, 136244.39, 0.083658785, -0.46798724, -775679.1, 508743.03, 0.0, 10.004311, 9.99959 
2.9543927e+3, 1.7892526e+2, -462783.0, -933275.8, 153962.73, -0.08482413, -0.36446118, -416879.28, 769617.94, 0.0, 10.006037, 9.999728 
2.953985e+3, 1.8891768e+2, -780252.06, -999148.6, 21630.232, 0.0042824787, -0.28302526, -778135.2, 310434.9, 0.0, 10.003064, 10.0000105 
2.9535773e+3, 1.9890964e+2, -1261144.0, -1279995.0, 36865.938, 0.13395701, -0.24158253, -1232517.8, -241871.42, 0.0, 9.999491, 9.999149 
2.9531676e+3, 2.0889719e+2, -981621.0, -1229130.8, 60980.703, -0.094734386, -0.49254465, -967412.44, -74646.68, 0.0, 10.001312, 9.99795 
2.9527572e+3, 2.1888436e+2, -430359.88, -778047.56, 6417.0005, -0.34891126, -0.7631675, -430241.5, 364647.38, 0.0, 10.00385, 9.999158 
2.9523516e+3, 2.2887903e+2, -387410.8, -467781.88, -54591.65, 0.039617203, -0.52373356, -359809.0, 337133.0, 0.0, 10.00254, 10.001196 
2.9519463e+3, 2.3887491e+2, -596733.75, -588016.25, -17049.285, 0.4938741, -0.23025584, -574777.4, 24207.111, 0.0, 10.0006275, 10.00066 
2.9515374e+3, 2.4886674e+2, -491558.44, -624606.06, 154485.7, 0.24772702, -0.20109688, -389882.22, 111191.625, 0.0, 10.0013075, 9.999404 
2.9511276e+3, 2.588578e+2, -189199.34, -373102.7, 147688.73, -0.10157617, -0.2191151, -107176.67, 295995.9, 0.0, 10.002435, 9.999945 
2.95072e+3, 2.6885018e+2, -366360.2, -342420.6, 89110.25, 0.011863876, -0.16993302, -264479.8, 40771.695, 0.0, 10.000302, 10.000482 
2.950312e+3, 2.7884296e+2, -604608.0, -387792.4, 72922.07, 0.2086965, -0.11589753, -365548.47, -158223.25, 0.0, 9.99784, 10.000714 
2.949901e+3, 2.8883502e+2, -231778.92, -167401.67, 98917.11, 0.11181472, -0.13087234, -95567.695, 13837.01, 0.0, 9.999793, 10.000615 
2.9494908e+3, 2.9882714e+2, 229564.16, 201303.47, 112805.516, 0.25149196, -0.13470979, 329120.88, 340601.63, 0.0, 10.001783, 10.001534 
2.96601e+3, 1.39366e+2, -1488709.9, -1466887.9, -125639.805, -0.14782265, -0.3228629, -1351686.1, 222501.27, 0.0, 10.000967, 10.001197 
2.965608e+3, 1.4935927e+2, -1315876.8, -1422267.5, 123288.484, 0.37668929, -0.23714645, -1234797.1, 241449.69, 0.0, 10.001876, 10.000407 
2.9651994e+3, 1.5934817e+2, -1038198.25, -1236604.9, 157891.19, 0.096625015, -0.564995, -950931.94, 427422.53, 0.0, 10.003118, 10.000411 
2.9647928e+3, 1.693415e+2, -1134093.4, -1180525.5, 188353.5, -0.044049893, -0.4733406, -967530.5, 312888.7, 0.0, 10.001581, 10.000837 
2.9643863e+3, 1.7933577e+2, -1297387.0, -1259876.5, 116565.89, -0.2185105, -0.30679163, -1160566.6, 21908.453, 0.0, 10.00001, 10.000386 
2.9639786e+3, 1.8932834e+2, -997149.2, -1119713.3, -25104.076, -0.040514726, -0.22161642, -992206.56, 92342.19, 0.0, 10.00168, 9.99984 
2.9635713e+3, 1.9931985e+2, -772713.94, -1074268.3, 102276.61, 0.25270906, -0.20214841, -741298.2, 245334.67, 0.0, 10.00301, 9.998861 
2.9631624e+3, 2.0930795e+2, -688516.4, -1046843.5, 227903.3, -0.0111799445, -0.3999195, -577784.3, 310963.9, 0.0, 10.003221, 9.998258 
2.9627523e+3, 2.192958e+2, -572049.5, -853286.3, 126285.54, -0.37015277, -0.6226997, -523666.38, 267199.56, 0.0, 10.002943, 9.999078 
2.9623452e+3, 2.2929062e+2, -525961.56, -588912.5, -155.71677, 0.019493636, -0.3218519, -525961.2, 166958.52, 0.0, 10.001807, 10.000728 
2.9619393e+3, 2.3928703e+2, -645352.1, -599136.44, 90888.87, 0.5510286, 0.065590136, -528463.94, 66495.49, 0.0, 10.000267, 10.000762 
2.961531e+3, 2.4927944e+2, -536934.7, -505317.25, 239398.89, 0.31230447, 0.069989584, -281205.7, 215835.23, 0.0, 10.000411, 10.000647 
2.9611215e+3, 2.5927085e+2, -408374.63, -385682.94, 104866.88, -0.07792797, -0.032152444, -291549.9, 107581.85, 0.0, 10.000565, 10.000747 
2.96071e+3, 2.6926297e+2, -407575.4, -311737.53, -30090.389, -0.16655326, -0.07348226, -303073.28, -1864.462, 0.0, 9.999818, 10.000915 
2.9602978e+3, 2.7925515e+2, -479147.6, -294743.97, 49688.953, -0.19110312, -0.12377896, -282207.22, -78922.83, 0.0, 9.998607, 10.000971 
2.959891e+3, 2.8924748e+2, -74859.31, -24861.402, 129556.2, -0.07207615, -0.1690752, 82085.68, 187443.63, 0.0, 10.000622, 10.001175 
2.9594845e+3, 2.9923972e+2, 340270.97, 330265.56, -155526.66, 0.24662116, -0.2495668, 490875.38, 498302.75, 0.0, 10.002275, 10.002166 
2.976004e+3, 1.3977358e+2, -1223561.9, -983668.6, -186396.55, -0.044663098, -0.4112605, -881960.4, 688242.75, 0.0, 10.001228, 10.004395 
2.9756021e+3, 1.4976917e+2, -1309691.8, -1422848.1, 188998.4, 0.4279594, -0.1569643, -1168984.6, 303247.7, 0.0, 10.001909, 10.000398 
2.9751924e+3, 1.59759e+2, -1016521.6, -1202953.0, 136451.13, -0.079214424, -0.39476353, -944485.75, 429843.66, 0.0, 10.003131, 10.000646 
2.9747853e+3, 1.6975233e+2, -1151217.8, -1184363.9, 100425.97, -0.14767507, -0.32120806, -1066006.5, 210389.42, 0.0, 10.001407, 10.000915 
2.9743782e+3, 1.797458e+2, -1286081.9, -1210809.8, 88828.16, -0.22074047, -0.2368218, -1151973.4, 26488.24, 0.0, 9.999843, 10.000824 
2.973971e+3, 1.8973826e+2, -901304.06, -978551.0, 50507.08, -0.13516389, -0.23447491, -876345.0, 204191.11, 0.0, 10.00186, 10.000758 
2.9735646e+3, 1.9973035e+2, -549917.75, -857045.2, 135208.95, 0.03998169, -0.24756576, -498876.3, 483737.9, 0.0, 10.003987, 9.999916 
2.9731596e+3, 2.0972125e+2, -557452.1, -901492.8, 207253.9, 0.15516868, -0.24218808, -460130.34, 424572.28, 0.0, 10.003726, 9.999042 
2.9727522e+3, 2.1971187e+2, -511939.4, -743581.44, 91057.23, 0.16715251, -0.26569873, -480431.13, 306361.9, 0.0, 10.002915, 9.999881 
2.9723388e+3, 2.297029e+2, -523506.25, -598241.1, -13316.699, 0.057497468, -0.3662869, -521204.3, 167672.5, 0.0, 10.001744, 10.000753 
2.9719257e+3, 2.3969465e+2, -627609.8, -664300.9, 113924.46, 0.0029068254, -0.41766605, -530563.2, 60392.492, 0.0, 10.000631, 10.00017 
2.97152e+3, 2.4968773e+2, -653060.5, -709471.5, 245061.53, 0.053383674, -0.22890337, -434586.66, 58448.188, 0.0, 10.000189, 9.99937 
2.971115e+3, 2.5968072e+2, -493214.94, -456329.97, 49058.082, 0.09554635, -0.06649725, -422362.3, -27247.994, 0.0, 10.0000105, 10.000555 
2.9707044e+3, 2.6967323e+2, -330174.47, -180311.89, -81317.33, 0.13782269, -0.12666754, -144666.48, 152516.1, 0.0, 9.999874, 10.001834 
2.9702923e+3, 2.7966547e+2, -319515.44, -291162.9, 52650.676, 0.1325249, -0.21832374, -250813.39, -51560.17, 0.0, 9.999937, 10.00039 
2.969885e+3, 2.896567e+2, -78108.38, -310540.16, 119975.77, 0.022490194, -0.18231757, -27290.385, 74057.02, 0.0, 10.001776, 9.998695 
2.9694808e+3, 2.9964846e+2, 409641.66, 119302.3, -380513.78, 0.4204475, -0.0669625, 671737.25, 675170.5, 0.0, 10.003818, 9.999991 
2.9860005e+3, 1.4018555e+2, -1031754.8, -935863.44, -11395.682, 0.25416276, -0.2648014, -934527.8, 631639.4, 0.0, 10.00276, 10.003996 
2.9855967e+3, 1.5017934e+2, -1213978.5, -1437050.0, 243155.3, 0.4407492, -0.12916994, -1057998.4, 410218.0, 0.0, 10.002848, 9.999852 
2.9851866e+3, 1.6017015e+2, -1238576.1, -1347609.4, 130742.414, -0.09096828, -0.22807609, -1151439.5, 218866.14, 0.0, 10.001783, 10.000312 
2.984779e+3, 1.7016286e+2, -1228901.0, -1208575.3, 55167.44, -0.07182144, -0.21483399, -1162642.4, 109735.47, 0.0, 10.000855, 10.001001 
2.9843718e+3, 1.8015526e+2, -1294316.3, -1230923.0, 112429.8, -0.034295946, -0.23366332, -1145807.3, 28645.93, 0.0, 9.9998865, 10.000664 
2.983965e+3, 1.9014773e+2, -1167566.1, -1070833.3, 85057.8, -0.04124983, -0.25169498, -1021352.1, 55174.617, 0.0, 9.999872, 10.001088 
2.9835585e+3, 2.0014058e+2, -1086649.9, -1025314.0, 114342.84, -0.0018547613, -0.25592056, -937597.75, 40998.36, 0.0, 9.999943, 10.0007 
2.9831544e+3, 2.1013312e+2, -897073.6, -971762.7, 173527.55, 0.20376705, -0.18431963, -756917.7, 123750.07, 0.0, 10.000994, 9.999869 
2.9827484e+3, 2.2012573e+2, -695778.4, -782472.4, 56313.918, 0.39621857, -0.09862151, -668060.5, 114677.28, 0.0, 10.001494, 10.000282 
2.9823315e+3, 2.3011504e+2, -503975.25, -587099.25, -77577.125, 0.0008043665, -0.38903666, -457528.1, 227306.58, 0.0, 10.001957, 10.000696 
2.9819146e+3, 2.4010369e+2, -518654.88, -703352.3, 55271.063, -0.40506592, -0.7187516, -503378.44, 83561.695, 0.0, 10.001818, 9.999322 
2.9815108e+3, 2.5009677e+2, -648126.1, -809285.2, 227439.31, -0.15281607, -0.44293046, -487413.94, 1607.0256, 0.0, 10.000706, 9.998424 
2.9811084e+3, 2.6009053e+2, -574136.7, -558321.44, 88501.305, 0.23081854, -0.10630394, -477375.2, -86280.625, 0.0, 9.999789, 9.999946 
2.980699e+3, 2.700828e+2, -90979.25, -6836.545, -68050.23, 0.41431752, -0.21262106, 31097.299, 324259.16, 0.0, 10.001298, 10.00232 
2.9802877e+3, 2.8007475e+2, -75107.0, -289207.63, 62543.6, 0.420761, -0.3578926, -58175.574, 137057.36, 0.0, 10.002163, 9.999319 
2.9798788e+3, 2.9006553e+2, -290118.38, -668569.7, 207953.66, 0.026736166, -0.1692166, -198183.81, -100842.18, 0.0, 10.001482, 9.996362 
2.9794776e+3, 3.0005723e+2, -44388.13, -291447.03, -205737.16, 0.5807707, 0.17417462, 72055.97, 72055.97, 0.0, 10.00161, 9.9981985 
2.9959977e+3, 1.4059733e+2, -1096361.3, -1204274.6, 141517.95, 0.48395416, -0.24815351, -998862.8, 563265.94, 0.0, 10.003318, 10.0019 
2.9955912e+3, 1.5058877e+2, -1316014.3, -1587980.1, 181154.86, 0.41236427, -0.2202218, -1225483.5, 238725.73, 0.0, 10.002552, 9.998986 
2.9951814e+3, 1.605807e+2, -1282534.1, -1408709.4, 93439.26, 0.013640709, -0.12874176, -1232878.9, 133413.03, 0.0, 10.001636, 9.999973 
2.994775e+3, 1.7057167e+2, -1258408.4, -1222783.3, -4517.198, 0.2614246, -0.2760056, -1222219.4, 46159.02, 0.0, 10.00063, 10.00103 
2.9943678e+3, 1.8056327e+2, -1256149.3, -1173894.1, 75736.48, 0.39083996, -0.38747475, -1128838.8, 41619.375, 0.0, 9.999977, 10.001011 
2.9939592e+3, 1.9055603e+2, -1170121.9, -1086112.1, 82446.08, 0.23902598, -0.37035942, -1035587.25, 36938.992, 0.0, 9.999937, 10.000948 
2.9935518e+3, 2.005489e+2, -1119766.9, -973389.0, 111139.51, 0.18212749, -0.3547506, -913504.25, 61088.547, 0.0, 9.999407, 10.001313 
2.9931456e+3, 2.1054226e+2, -852718.3, -753933.0, 211709.25, 0.07422672, -0.33996308, -585931.0, 290722.0, 0.0, 10.000442, 10.001632 
2.9927367e+3, 2.2053474e+2, -644711.4, -727251.94, 64868.71, -0.09930395, -0.38730937, -609097.4, 169624.94, 0.0, 10.001671, 10.000577 
2.992323e+3, 2.3052576e+2, -539063.2, -714297.06, -88970.43, -0.21110478, -0.4337499, -501810.34, 178997.89, 0.0, 10.002144, 9.99976 
2.9919106e+3, 2.4051735e+2, -359804.7, -601664.9, 18318.293, -0.220222, -0.41652897, -358425.16, 224464.19, 0.0, 10.002764, 9.999575 
2.991505e+3, 2.5050914e+2, -471480.06, -652012.25, 151763.45, -0.032259613, -0.326042, -385167.25, 99807.62, 0.0, 10.001564, 9.9991255 
2.9910994e+3, 2.605005e+2, -522659.28, -557511.94, 124897.13, 0.16807434, -0.27463523, -413978.63, -26913.322, 0.0, 10.000185, 9.999806 
2.9906917e+3, 2.7049056e+2, 2073.8308, -119451.79, 36321.805, 0.30979303, -0.47849086, 12102.211, 301261.72, 0.0, 10.002581, 10.000972 
2.990282e+3, 2.804814e+2, 287409.13, -118956.22, 17856.225, 0.26432568, -0.6263791, 288192.25, 479440.06, 0.0, 10.00463, 9.999341 
2.9898673e+3, 2.9047436e+2, -241782.45, -502725.0, 122222.34, -0.38773838, -0.31030226, -193477.19, -100147.625, 0.0, 10.0011635, 9.997729 
2.9894626e+3, 3.0046692e+2, -111423.5, 103325.83, 85738.445, -0.028178351, -0.05250753, 133357.13, 133357.13, 0.0, 9.999161, 10.002241 
3.0059883e+3, 1.4101106e+2, -1200822.0, -1474027.4, -42.883926, -0.038979333, 0.046692975, -1200822.0, 357251.16, 0.0, 10.003556, 9.999895 
3.0055803e+3, 1.5099765e+2, -1599963.0, -1794588.0, 89995.055, 0.020148385, -0.3315292, -1564728.0, -104521.49, 0.0, 10.0009165, 9.998317 
3.0051705e+3, 1.6099218e+2, -1833339.3, -1644301.8, 43846.984, -0.19915076, 0.05819826, -1634626.6, -272361.03, 0.0, 9.99768, 10.000262 
3.0047625e+3, 1.7098552e+2, -1333391.9, -1167262.9, 67464.22, -0.12182292, 0.06141667, -1143317.5, 121008.06, 0.0, 9.999631, 10.001904 
3.0043578e+3, 1.8097737e+2, -1083484.0, -1139116.1, 209493.28, 0.1269033, -0.099483095, -899968.25, 266431.22, 0.0, 10.001342, 10.000589 
3.003948e+3, 1.9096826e+2, -1231208.4, -1266311.5, 53187.656, -0.06473176, -0.1755112, -1192751.3, -124267.945, 0.0, 10.0001, 9.999641 
3.0035397e+3, 2.0095654e+2, -1077136.5, -956015.5, 105634.99, -0.12711737, -0.5119225, -894812.6, 75779.33, 0.0, 9.999682, 10.001305 
3.0031386e+3, 2.109516e+2, -768761.6, -428415.75, 276896.9, 0.20672934, -0.529316, -273579.88, 599051.4, 0.0, 9.999796, 10.004149 
3.002734e+3, 2.2094649e+2, -865294.5, -842530.06, 145918.34, 0.30506036, -0.4871102, -707550.6, 67124.34, 0.0, 10.000202, 10.000473 
3.0023187e+3, 2.3093802e+2, -730144.6, -921295.06, 20572.707, 0.021046814, -0.39365804, -727955.56, -51192.17, 0.0, 10.001322, 9.998692 
3.0019063e+3, 2.4093035e+2, -742820.7, -852021.2, 95475.984, -0.059697058, -0.24335183, -687435.25, -108592.18, 0.0, 10.000441, 9.998943 
3.001498e+3, 2.5091845e+2, -619209.9, -778243.2, 66872.51, -0.030322246, -0.48623574, -594828.4, -113869.66, 0.0, 10.000828, 9.9985485 
3.00109e+3, 2.609073e+2, -539780.7, -692231.4, 4674.0654, 0.008089413, -0.65726304, -539637.5, -156569.36, 0.0, 10.000633, 9.998636 
3.0006865e+3, 2.7090088e+2, -370055.94, -499679.4, -34667.79, 0.39753246, -0.37350762, -361366.53, -76230.14, 0.0, 10.000926, 9.999117 
3.0002794e+3, 2.808939e+2, -198564.61, -328618.47, -158179.69, 0.4655665, -0.19855092, -92567.234, 94642.21, 0.0, 10.001207, 9.999527 
2.999861e+3, 2.9088664e+2, -324224.8, -311125.28, -104137.68, -0.25357533, -0.09147468, -213331.6, -124047.64, 0.0, 9.999687, 9.999696 
2.999454e+3, 3.0087402e+2, 270355.53, 837505.75, 196493.17, 0.04040632, -0.6775251, 898929.8, 898929.8, 0.0, 9.999584, 10.006997 
