coord_x,coord_y,stress_xx,stress_yy,tau_xy,velocity_x,velocity_y,stress_1,eps,damage,lx,ly
4.998928e+0, 1.2649788e+2, -1977386.9, -1681208.6, 42737.234, 0.018370656, 0.76427555, -1675165.3, 25191.855, 0.0026923823, 9.997367, 10.001496 
4.999532e+0, 1.364925e+2, -1707629.5, -1451529.0, -24281.62, 0.030442927, -0.07496728, -1449247.1, 153148.83, 0.0015911749, 9.998387, 10.001898 
4.9998584e+0, 1.46495e+2, -1682748.5, -1708869.9, -9298.691, 0.018109437, 0.15069397, -1679776.5, -175407.28, 0.0007108368, 9.999282, 9.999015 
4.9999142e+0, 1.5649612e+2, -1453741.3, -1530498.9, 21173.705, -0.017157538, 0.3023095, -1448287.9, -41925.684, 0.00020845741, 10.000112, 9.999167 
4.9999103e+0, 1.6649598e+2, -1280953.3, -1340776.8, 25417.748, -0.031076146, 0.3436138, -1271612.4, 36752.92, 0.000030560106, 10.000388, 9.999666 
4.9998435e+0, 1.7649475e+2, -1187087.8, -1235540.9, 5810.801, -0.034488793, 0.20894563, -1186400.6, 23976.484, 0.0000010193884, 10.00032, 9.999747 
4.9999246e+0, 1.8649517e+2, -1047529.3, -1036562.1, -13124.982, -0.023972701, 0.23727441, -1027821.25, 84551.21, 0.0, 10.000267, 10.0004635 
5.0000846e+0, 1.9649625e+2, -979107.06, -989808.2, -57663.0, -0.0053213364, 0.25560546, -926546.94, 87814.21, 0.0, 10.000221, 10.000137 
5.0002074e+0, 2.0649599e+2, -957269.25, -1105900.5, -23445.072, -0.0057133613, 0.3107984, -953658.7, -37292.723, 0.0, 10.000471, 9.998541 
5.0002635e+0, 2.1649468e+2, -787063.56, -951107.4, 13553.105, -0.020043457, 0.27831402, -785951.3, 32431.393, 0.0, 10.000868, 9.998742 
5.000324e+0, 2.264938e+2, -593780.5, -664328.5, 13231.675, -0.015674219, 0.24694768, -591380.5, 129008.75, 0.0, 10.000909, 10.000019 
5.0004095e+0, 2.3649295e+2, -536920.3, -616161.5, -25352.895, 0.0004001855, 0.11194941, -529503.06, 92888.945, 0.0, 10.000753, 9.999754 
5.000634e+0, 2.4649313e+2, -496827.56, -710975.8, -1736.5679, 0.007712214, 0.24321282, -496813.47, 27578.064, 0.0, 10.001063, 9.998279 
5.000944e+0, 2.564936e+2, -319282.5, -585360.94, 11507.286, 0.008768219, 0.415596, -318785.75, 107606.59, 0.000000000017365094, 10.001654, 9.998187 
5.0011456e+0, 2.664913e+2, -178151.08, -474728.5, 18943.348, 0.012666251, 0.3794561, -176946.02, 151468.25, 0.000000288742, 10.001987, 9.998109 
5.0012827e+0, 2.764875e+2, -52364.492, -357550.56, 160.45673, 0.01756998, 0.13712507, -52364.406, 178083.83, 0.0000032414011, 10.002151, 9.998161 
5.0014764e+0, 2.8648692e+2, 99935.76, -227614.11, -23198.77, 0.019423723, 0.26350117, 101570.66, 234023.16, 0.00001724438, 10.002504, 9.998202 
5.0016457e+0, 2.9648706e+2, 263625.63, -113863.086, -73505.625, 0.010054728, 0.40571076, 277433.75, 311885.34, 0.0000749286, 10.003009, 9.998072 
5.002227e+0, 3.0648294e+2, 420742.75, -159473.84, -66275.1, 0.0001726533, 0.25436288, 428216.72, 428216.72, 0.0002853496, 10.004383, 9.996762 
5.003087e+0, 3.1647858e+2, 659181.3, -62232.766, -83035.18, -0.0005429403, 0.11110272, 668615.3, 668615.3, 0.00074540445, 10.006035, 9.996652 
1.4996745e+1, 1.2649255e+2, -2100473.8, -1870107.5, 49824.32, 0.053632308, 0.17908923, -1859793.1, -159397.22, 0.0025889925, 9.997123, 10.000332 
1.4998642e+1, 1.3649438e+2, -1787730.3, -1581681.8, 21250.414, 0.09801378, 0.22688675, -1579513.0, 22864.895, 0.0015350278, 9.998267, 10.001078 
1.499957e+1, 1.4649694e+2, -1616424.0, -1527565.1, 11243.818, 0.05550043, 0.41741142, -1526164.4, -21813.154, 0.00068435894, 9.999112, 10.000353 
1.4999741e+1, 1.5649417e+2, -1399971.1, -1384601.0, 57613.766, -0.05065451, 0.081562795, -1334162.0, 72213.58, 0.00019662973, 9.999983, 10.000241 
1.4999749e+1, 1.6649392e+2, -1315507.4, -1375581.5, 13434.25, -0.09032651, 0.07703338, -1312640.0, -4260.6997, 0.000026649353, 10.000246, 9.999506 
1.4999571e+1, 1.7649499e+2, -1220225.8, -1275807.6, 12498.881, -0.10040355, 0.2103012, -1217544.5, -7172.0933, 0.00000066228677, 10.000207, 9.999538 
1.4999753e+1, 1.8649545e+2, -1136175.0, -1177106.0, -23817.662, -0.07221227, 0.30033994, -1125238.0, -12866.756, 0.0, 10.000101, 9.999585 
1.5000264e+1, 1.9649541e+2, -1039125.44, -1078720.3, -46718.184, -0.014321349, 0.31789824, -1008183.06, 6191.765, 0.0, 10.000081, 9.999604 
1.50006e+1, 2.0649537e+2, -886714.3, -913324.44, -15722.08, -0.016897272, 0.33782473, -879423.06, 36952.27, 0.0, 10.000298, 9.999953 
1.5000778e+1, 2.1649523e+2, -735742.3, -800710.3, 37476.94, -0.059985284, 0.30624524, -718630.6, 99744.5, 0.0, 10.0007, 9.999863 
1.5000962e+1, 2.2649482e+2, -667887.25, -776594.25, -3176.0188, -0.045808922, 0.3100345, -667794.5, 52583.71, 0.0, 10.000752, 9.9993305 
1.5001206e+1, 2.3649415e+2, -597086.0, -698436.94, -16469.555, 0.00077872653, 0.29275906, -594476.9, 27906.932, 0.0, 10.000592, 9.999272 
1.500191e+1, 2.4649322e+2, -469283.16, -620738.0, 11563.815, 0.023620283, 0.29185945, -468405.34, 55986.316, 0.0, 10.0009365, 9.998967 
1.5002818e+1, 2.5649193e+2, -299206.5, -499671.6, 40018.254, 0.025678402, 0.24166492, -291513.03, 134889.63, 0.0, 10.001482, 9.998864 
1.5003446e+1, 2.6649004e+2, -208703.47, -503423.13, 15522.871, 0.040111993, 0.21956663, -207888.13, 120531.41, 0.00000013049092, 10.00186, 9.997983 
1.5003876e+1, 2.764879e+2, -102397.37, -420019.1, 15623.631, 0.05622759, 0.18399915, -101630.7, 128809.03, 0.0000023602508, 10.0019865, 9.997824 
1.5004389e+1, 2.8648612e+2, -370.99835, -401553.28, -12839.201, 0.055553034, 0.2698127, 39.479862, 132498.34, 0.000014211254, 10.002379, 9.997077 
1.5004931e+1, 2.9648373e+2, 171826.05, -256582.33, -32067.686, 0.028613806, 0.29822168, 174213.13, 208698.64, 0.0000647275, 10.002811, 9.997198 
1.5006714e+1, 3.0647996e+2, 403950.34, -142993.72, -7807.123, 0.008124969, 0.20744978, 404061.75, 404061.75, 0.00025407228, 10.004221, 9.996965 
1.5009247e+1, 3.1647694e+2, 678279.75, 67519.55, -2089.4312, 0.0010183874, 0.21397913, 678286.94, 678286.94, 0.0006728402, 10.005703, 9.997717 
2.499447e+1, 1.2648886e+2, -1972006.8, -1779111.3, -39161.4, 0.08552377, -0.033377096, -1771464.0, -71036.78, 0.002469872, 9.997909, 10.000549 
2.4996759e+1, 1.3649367e+2, -1824645.0, -1594836.1, 4164.969, 0.10480045, 0.2948683, -1594760.6, 7622.5522, 0.001465867, 9.998023, 10.001091 
2.4998492e+1, 1.4649644e+2, -1708770.1, -1541164.4, 20235.033, 0.0821059, 0.4931018, -1538756.0, -34401.027, 0.0006493342, 9.998362, 10.0006075 
2.4999471e+1, 1.5649267e+2, -1550292.0, -1431911.3, -26097.236, -0.012741511, 0.018553566, -1426413.4, -20024.725, 0.00018140074, 9.99885, 10.000452 
2.4999477e+1, 1.6649275e+2, -1468199.3, -1420432.9, -64639.56, -0.07799537, 0.028280046, -1375405.4, -67016.31, 0.000022322774, 9.999091, 9.99974 
2.4999012e+1, 1.76495e+2, -1361941.3, -1326905.4, -44541.15, -0.12012258, 0.24716347, -1296561.1, -86189.83, 0.00000035252413, 9.999186, 9.999662 
2.4999522e+1, 1.864953e+2, -1213675.6, -1278330.4, -14430.137, -0.08669633, 0.3502856, -1210601.3, -98228.33, 0.0, 9.999841, 9.999008 
2.500068e+1, 1.964944e+2, -977937.8, -1094303.4, -26556.34, -0.0064260857, 0.32860297, -972163.8, 42222.86, 0.0, 10.000702, 9.999184 
2.500114e+1, 2.0649426e+2, -840757.56, -851139.94, -27500.209, 0.006167146, 0.33362448, -817962.9, 98424.36, 0.0, 10.00043, 10.000312 
2.500119e+1, 2.164944e+2, -898326.5, -852979.6, -55489.05, -0.021923492, 0.28785175, -815710.44, 2671.2852, 0.0, 9.999472, 10.000088 
2.5001633e+1, 2.2649418e+2, -806134.2, -889354.2, -52309.75, -0.011482715, 0.32663533, -780903.3, -60519.785, 0.0, 9.999992, 9.998915 
2.5002366e+1, 2.3649362e+2, -519999.6, -705413.0, -54213.52, 0.026900405, 0.35013962, -505311.53, 117079.3, 0.0, 10.001298, 9.998878 
2.5003442e+1, 2.4649216e+2, -373544.1, -574438.2, -35846.914, 0.05409561, 0.31464443, -367339.3, 157063.61, 0.0, 10.001605, 9.998953 
2.5004676e+1, 2.5648996e+2, -322491.66, -519536.5, -69126.984, 0.07519868, 0.17006764, -300659.56, 125760.38, 0.0, 10.001358, 9.99878 
2.500572e+1, 2.6648805e+2, -193768.69, -516860.1, -72188.305, 0.07650837, 0.15841414, -178373.25, 150063.84, 0.00000003137998, 10.002065, 9.997779 
2.5006646e+1, 2.7648628e+2, 75609.36, -354727.97, -88446.22, 0.07417285, 0.18015984, 93078.37, 323532.38, 0.0000016165861, 10.003315, 9.997618 
2.50073e+1, 2.8648406e+2, 172738.16, -348343.3, -59978.855, 0.048686605, 0.24649158, 179552.88, 312030.78, 0.000011342512, 10.003696, 9.996805 
2.500786e+1, 2.9648098e+2, 252482.28, -247773.61, -20924.512, 0.013333054, 0.2196716, 253355.98, 287868.0, 0.00005395626, 10.003515, 9.996909 
2.5010806e+1, 3.0647781e+2, 320540.53, -226469.33, 66030.984, 0.025630819, 0.22801659, 328398.4, 328398.4, 0.00022042886, 10.003842, 9.99658 
2.501496e+1, 3.164756e+2, 539305.44, 92744.87, -6004.035, 0.086071424, 0.32729134, 539386.2, 539386.2, 0.0005957801, 10.0043745, 9.998517 
3.499189e+1, 1.2648684e+2, -1871512.9, -1540984.5, -67747.07, -0.016680434, 0.08094898, -1527637.6, 172813.36, 0.0023442989, 9.997787, 10.002247 
3.499355e+1, 1.3649045e+2, -1743611.0, -1414390.0, 17539.55, -0.046361614, 0.15130197, -1413458.1, 188953.0, 0.0013882996, 9.997985, 10.002345 
3.4996307e+1, 1.4649352e+2, -1764266.3, -1632823.9, 27587.39, -0.003298465, 0.3622312, -1627268.5, -122888.125, 0.0006086515, 9.998267, 10.000021 
3.499881e+1, 1.564916e+2, -1583697.5, -1481037.6, 2189.814, 0.0077193333, 0.13288295, -1480991.0, -74589.87, 0.00016439817, 9.998778, 10.000142 
3.4998953e+1, 1.6649246e+2, -1420274.8, -1305539.9, -73455.375, -0.06603017, 0.17994873, -1269704.8, 38689.93, 0.000017966355, 9.999014, 10.000575 
3.4997916e+1, 1.7649464e+2, -1321051.9, -1233729.4, -25761.58, -0.17381082, 0.32134968, -1226695.8, -16320.737, 0.00000014192928, 9.999145, 10.000328 
3.499897e+1, 1.8649457e+2, -1232685.1, -1291498.3, 11330.513, -0.15052077, 0.36180043, -1230577.9, -118198.69, 0.0, 9.999734, 9.998965 
3.5001075e+1, 1.9649309e+2, -996244.3, -1112040.1, 7242.448, -0.06265128, 0.28895605, -995793.06, 18604.766, 0.0, 10.000617, 9.999103 
3.5001603e+1, 2.064925e+2, -891288.5, -924948.7, -76484.46, -0.012586099, 0.2764168, -829804.3, 86598.61, 0.0, 10.000303, 9.999866 
3.5001263e+1, 2.164922e+2, -941115.25, -912511.75, -69626.195, 0.014678317, 0.239172, -855733.6, -37331.418, 0.0, 9.99935, 9.999738 
3.5002112e+1, 2.2649187e+2, -820805.6, -884006.75, -9839.326, 0.015309807, 0.2746253, -819309.25, -98903.45, 0.0, 9.9998455, 9.999021 
3.5003623e+1, 2.364914e+2, -537112.9, -707982.4, -3309.7305, -0.0004544797, 0.301496, -537048.75, 85363.79, 0.0, 10.001163, 9.998923 
3.5005012e+1, 2.4648993e+2, -430375.8, -668076.06, -54867.15, 0.030055942, 0.29810423, -418322.34, 106103.11, 0.0, 10.001501, 9.998362 
3.5006306e+1, 2.564877e+2, -377124.03, -603275.94, -59730.55, 0.079055235, 0.21659814, -362317.6, 64126.117, 0.0, 10.001237, 9.998263 
3.5007772e+1, 2.664853e+2, -208784.58, -534824.1, -32250.197, 0.053535555, 0.18324311, -205625.17, 122840.88, 0.0000000045955626, 10.002004, 9.997687 
3.500928e+1, 2.7648276e+2, 64503.445, -353045.8, -36837.305, -0.019812478, 0.13832834, 67728.42, 298219.0, 0.0000011861115, 10.003205, 9.997684 
3.5009968e+1, 2.8648087e+2, 217932.84, -236045.42, -77267.555, -0.07747322, 0.18610829, 230723.48, 363233.22, 0.000009324045, 10.003625, 9.997609 
3.5010138e+1, 2.9647872e+2, 269959.28, -186818.33, -14945.905, -0.1386123, 0.1845915, 270447.78, 304979.56, 0.00004426637, 10.003415, 9.997378 
3.5014153e+1, 3.064763e+2, 268908.22, -330889.25, 77907.99, -0.04538024, 0.28995442, 278862.5, 278862.5, 0.0001882208, 10.003814, 9.995876 
3.501971e+1, 3.1647465e+2, 575084.94, 176321.48, 40711.766, 0.07316189, 0.5026041, 579198.94, 579198.94, 0.0005237145, 10.004313, 9.999125 
4.499009e+1, 1.2648566e+2, -1934654.5, -1556999.1, 77185.73, 0.070306376, 0.18399845, -1541832.8, 158629.33, 0.0022184679, 9.997327, 10.002346 
4.499192e+1, 1.3648728e+2, -1636248.6, -1380359.3, -19601.18, -0.032540336, 0.07520715, -1378866.5, 223574.77, 0.0013082918, 9.998803, 10.002185 
4.4994858e+1, 1.4649017e+2, -1642884.8, -1544260.4, -17882.58, 0.0033110313, 0.2606918, -1541118.0, -36705.06, 0.00056754425, 9.99897, 10.0003 
4.49973e+1, 1.5648994e+2, -1626518.1, -1479311.9, -7272.716, 0.01046771, 0.18046258, -1478953.4, -72535.18, 0.00014805637, 9.998381, 10.000363 
4.4997838e+1, 1.6649097e+2, -1472474.3, -1309076.8, -54981.855, -0.046704363, 0.22536343, -1292298.6, 16110.936, 0.000013959289, 9.998564, 10.000766 
4.4997483e+1, 1.7649245e+2, -1293520.8, -1198110.0, -73953.88, -0.12735209, 0.276667, -1157809.8, 52585.71, 0.000000037538413, 9.999228, 10.000537 
4.4998935e+1, 1.864924e+2, -1224588.1, -1256616.6, -10286.761, -0.11416698, 0.29612994, -1221569.0, -109170.95, 0.0, 9.999656, 9.999254 
4.5001262e+1, 1.9649146e+2, -1094590.8, -1137521.5, -11819.959, -0.05888785, 0.2529301, -1091551.6, -77141.48, 0.0, 9.999852, 9.999301 
4.50019e+1, 2.0649087e+2, -914842.44, -973683.4, -85783.234, -0.004326484, 0.2538393, -853574.8, 62840.996, 0.0, 10.000296, 9.999539 
4.500166e+1, 2.1649033e+2, -749115.7, -854641.25, -84931.83, 0.05596743, 0.22136182, -701891.9, 116527.664, 0.0, 10.00081, 9.999436 
4.5003033e+1, 2.2648975e+2, -659813.6, -821607.94, 19181.213, 0.073466636, 0.2543149, -657570.75, 62854.977, 0.0, 10.0010195, 9.998884 
4.5005298e+1, 2.3648903e+2, -565597.1, -740940.56, -13109.627, 0.06418412, 0.27280727, -564622.44, 57811.984, 0.0, 10.00106, 9.99875 
4.5007e+1, 2.464875e+2, -436243.5, -705476.25, -51006.547, 0.08186117, 0.28883958, -426904.2, 97544.43, 0.0, 10.001615, 9.998046 
4.50084e+1, 2.5648525e+2, -218674.16, -560518.06, -50605.28, 0.11024154, 0.23610543, -211340.1, 215128.4, 0.0, 10.002467, 9.997962 
4.501001e+1, 2.6648286e+2, -123601.98, -498954.75, 9986.408, 0.053782206, 0.21948177, -123336.47, 205155.39, 0.000000013083459, 10.00262, 9.997633 
4.501178e+1, 2.7648038e+2, -51730.28, -414418.9, -12375.17, -0.04291644, 0.1873943, -51308.52, 179208.39, 0.0000010541644, 10.002427, 9.997644 
4.5013076e+1, 2.8647852e+2, 88206.0, -267513.44, -69262.59, -0.070196494, 0.2252833, 101216.36, 233751.1, 0.000008050424, 10.00261, 9.997885 
4.5013997e+1, 2.9647648e+2, 227311.72, -190613.02, -64814.582, -0.06810701, 0.20825246, 237132.81, 271686.47, 0.00003666787, 10.003057, 9.997529 
4.5017806e+1, 3.064739e+2, 158890.05, -411877.88, 64272.37, -0.020672832, 0.312714, 166038.05, 166038.05, 0.00016032506, 10.003167, 9.995626 
4.502253e+1, 3.1647205e+2, 403211.8, 139066.22, 31882.785, 0.005234019, 0.51552874, 407005.63, 407005.63, 0.000461689, 10.002928, 9.99953 
5.4987913e+1, 1.2648569e+2, -2051327.1, -1823034.3, 96237.84, 0.048775885, 0.2884753, -1787878.5, -87421.48, 0.0020911084, 9.997405, 10.000488 
5.499154e+1, 1.3648424e+2, -1739374.5, -1614664.0, 37773.12, 0.008863784, 0.07176481, -1604115.4, -1642.268, 0.0012261746, 9.9988785, 10.000541 
5.4993933e+1, 1.464864e+2, -1566822.3, -1390774.1, -54909.227, -0.024841558, 0.19339353, -1375052.0, 129400.3, 0.0005263589, 9.998982, 10.001352 
5.499455e+1, 1.5648772e+2, -1567555.5, -1361992.4, -12501.143, -0.13553354, 0.1653168, -1361235.0, 45204.402, 0.00013276051, 9.998397, 10.001163 
5.4995584e+1, 1.6648835e+2, -1514753.0, -1386399.4, -40487.69, -0.15904887, 0.16683044, -1374695.3, -66262.24, 0.0000106646075, 9.998522, 10.000253 
5.499726e+1, 1.764883e+2, -1319349.1, -1244910.5, -42400.1, -0.10348737, 0.11152349, -1225711.4, -15278.034, 0.000000007551507, 9.999202, 10.000225 
5.49991e+1, 1.8648882e+2, -1189829.6, -1169370.5, -14869.028, -0.089798965, 0.16054092, -1161552.0, -49122.746, 0.0, 9.99959, 9.999886 
5.500086e+1, 1.9648953e+2, -1065998.8, -1067300.4, 5492.3774, -0.112308666, 0.22335744, -1061118.8, -46695.14, 0.0, 9.999807, 9.9998045 
5.500166e+1, 2.0648946e+2, -942488.0, -1007567.2, -74286.625, -0.08282781, 0.26267216, -893926.9, 22498.799, 0.0, 10.000199, 9.999351 
5.5001974e+1, 2.1648872e+2, -775926.9, -890607.06, -58245.086, -0.020076396, 0.2330664, -751533.44, 66900.46, 0.0, 10.000729, 9.999226 
5.500402e+1, 2.2648782e+2, -695887.1, -880743.94, 10960.242, 0.043789666, 0.26050904, -695239.56, 25204.04, 0.0, 10.000949, 9.998514 
5.500707e+1, 2.3648664e+2, -599770.1, -794220.2, 2514.6506, 0.1107775, 0.27087143, -599737.6, 22717.783, 0.0, 10.00098, 9.998423 
5.5009043e+1, 2.4648489e+2, -449505.0, -717940.8, -25837.531, 0.098614566, 0.28147617, -447040.7, 77431.82, 0.0, 10.0015545, 9.997988 
5.50105e+1, 2.564826e+2, -239461.11, -572717.0, -15196.125, 0.04481834, 0.22792053, -238769.61, 187724.92, 0.0, 10.002343, 9.997932 
5.5012065e+1, 2.6648077e+2, -131664.4, -510120.8, -7191.562, -0.028958756, 0.27193245, -131527.8, 196986.63, 0.000000016276152, 10.002588, 9.997575 
5.501382e+1, 2.7647913e+2, -66734.95, -432111.7, -7453.944, -0.10857167, 0.32707703, -66582.945, 163950.53, 0.00000094951764, 10.002361, 9.997559 
5.501627e+1, 2.86477e+2, 68602.49, -302329.72, -62093.793, -0.036845535, 0.35636136, 78720.93, 211274.31, 0.0000068870954, 10.002588, 9.997655 
5.501908e+1, 2.9647413e+2, 204149.73, -222085.78, -38137.242, 0.103449285, 0.28253734, 207535.16, 242113.52, 0.00003048685, 10.002979, 9.997352 
5.502144e+1, 3.0647066e+2, 175053.61, -361679.03, 51810.7, 0.00011700714, 0.28460008, 180009.13, 180009.13, 0.0001366128, 10.003109, 9.995999 
5.5022717e+1, 3.164678e+2, 407958.0, 169409.69, 59757.055, -0.32285494, 0.35088077, 422090.1, 422090.1, 0.000407858, 10.002848, 9.999774 
6.498609e+1, 1.2648316e+2, -1861184.9, -1778393.9, 8023.0703, 0.06827238, 0.265254, -1777623.5, -77143.63, 0.0019647046, 9.998877, 10.000103 
6.499026e+1, 1.3648176e+2, -1984009.0, -1778687.0, 29502.39, 0.07873671, 0.11534982, -1774532.0, -172034.56, 0.0011417874, 9.997381, 10.000148 
6.4992696e+1, 1.464837e+2, -1790336.6, -1447932.0, -14391.269, 0.050641607, 0.20315866, -1447328.1, 57150.992, 0.0004823996, 9.997235, 10.001796 
6.4992785e+1, 1.5648572e+2, -1593967.1, -1329859.5, -36710.496, -0.12356307, 0.20156115, -1324851.8, 81606.375, 0.00011742101, 9.998032, 10.001548 
6.4994323e+1, 1.6648625e+2, -1462507.4, -1371803.0, -17370.75, -0.1495411, 0.18268153, -1368590.1, -60138.17, 0.000008467286, 9.998931, 10.000158 
6.499704e+1, 1.764856e+2, -1243136.9, -1215062.0, -15206.502, -0.06655419, 0.076690815, -1208404.3, 2053.478, 0.000000004638606, 9.999765, 10.000158 
6.4998925e+1, 1.8648596e+2, -1154980.8, -1130593.9, -11449.175, -0.06551245, 0.10557579, -1126061.3, -13607.288, 0.0, 9.999741, 10.000072 
6.500018e+1, 1.9648685e+2, -1145340.8, -1094116.4, -40430.453, -0.12298583, 0.16477892, -1071868.3, -57422.94, 0.0, 9.999208, 9.99991 
6.5001494e+1, 2.0648693e+2, -1049797.3, -1097570.3, -94996.43, -0.083256476, 0.23612152, -975730.25, -59283.2, 0.0, 9.999622, 9.999015 
6.5002877e+1, 2.1648641e+2, -832181.6, -948269.75, -109421.97, 0.016665684, 0.26027805, -766361.75, 52094.348, 0.0, 10.000475, 9.998953 
6.500524e+1, 2.2648516e+2, -696089.9, -871983.3, -26644.453, 0.07939808, 0.26452488, -692142.4, 28326.21, 0.0, 10.000912, 9.998594 
6.500813e+1, 2.3648344e+2, -575288.9, -772269.25, -17810.596, 0.11831503, 0.210627, -573691.44, 48792.27, 0.0, 10.001103, 9.998517 
6.5010697e+1, 2.4648175e+2, -448842.8, -713698.06, 8121.5005, 0.11730578, 0.2199142, -448594.03, 75906.16, 0.0, 10.001523, 9.998052 
6.5013105e+1, 2.5647995e+2, -277348.44, -585032.6, 3312.9014, 0.094865516, 0.20935103, -277312.78, 149205.94, 0.0, 10.002048, 9.998008 
6.5015006e+1, 2.6647833e+2, -194203.97, -541489.9, 8946.708, 0.03406147, 0.27762803, -193973.64, 134563.14, 0.00000000394634, 10.002159, 9.997575 
6.501671e+1, 2.7647683e+2, -103011.71, -448389.25, 1239.8909, -0.036176465, 0.34759426, -103007.26, 127547.57, 0.0000007712445, 10.002119, 9.997558 
6.5019286e+1, 2.8647438e+2, 129349.69, -299736.78, 3571.834, -0.012569822, 0.35453284, 129379.42, 261956.97, 0.000006042053, 10.003115, 9.99742 
6.502239e+1, 2.964709e+2, 425044.44, -126709.84, -4800.119, 0.0683252, 0.24317704, 425086.2, 459693.25, 0.000026514133, 10.004552, 9.997245 
6.5024644e+1, 3.0646726e+2, 334783.25, -225180.03, 52053.41, -0.022586403, 0.19679013, 339580.94, 339580.94, 0.00011960156, 10.00395, 9.996534 
6.5025824e+1, 3.1646404e+2, 295075.1, 91173.86, 39815.324, -0.2488329, 0.18704157, 302573.94, 302573.94, 0.000365328, 10.002169, 9.9995775 
7.4983984e+1, 1.2647776e+2, -1760486.3, -1581072.0, -78111.25, -0.09355573, 0.11364222, -1551830.8, 148702.52, 0.0018421272, 9.998927, 10.001432 
7.4987596e+1, 1.3647978e+2, -1914552.1, -1646387.3, -10575.985, 0.0404523, 0.19554438, -1645970.8, -43455.504, 0.0010580781, 9.99743, 10.001034 
7.499052e+1, 1.4648208e+2, -1800141.9, -1466845.3, 4472.3774, 0.074796036, 0.2907474, -1466785.3, 37708.027, 0.0004375462, 9.99723, 10.00167 
7.4991643e+1, 1.5648398e+2, -1596730.3, -1344539.6, 6446.623, -0.07333814, 0.28769517, -1344374.9, 62099.613, 0.00010224, 9.998063, 10.001438 
7.499368e+1, 1.6648474e+2, -1447130.3, -1331614.5, 5339.8984, -0.13404886, 0.28129566, -1331368.1, -22902.04, 0.000007138289, 9.998897, 10.000448 
7.499649e+1, 1.7648438e+2, -1230048.5, -1187997.3, 17830.12, -0.12676138, 0.17367442, -1181454.9, 29013.604, 0.00000003688298, 9.999762, 10.000346 
7.4998057e+1, 1.8648387e+2, -1181670.4, -1178970.6, -41183.6, -0.15215912, 0.1256232, -1139114.9, -26642.736, 0.0, 9.999704, 9.999762 
7.499888e+1, 1.9648333e+2, -1171479.3, -1141941.4, -43459.586, -0.20296435, 0.06971058, -1110809.9, -96333.63, 0.0, 9.999179, 9.999598 
7.5001097e+1, 2.064833e+2, -1096246.0, -1176076.8, -70109.85, -0.108827606, 0.17348656, -1055485.4, -139005.27, 0.0, 9.999546, 9.998512 
7.5004077e+1, 2.1648337e+2, -867818.44, -1005505.2, -71710.086, 0.06314085, 0.3025237, -837254.9, -18768.75, 0.0, 10.000396, 9.998601 
7.500631e+1, 2.2648184e+2, -675282.75, -806888.4, -27474.123, 0.07276098, 0.26404566, -669777.5, 50722.9, 0.0, 10.00082, 9.999083 
7.500814e+1, 2.3647933e+2, -560817.3, -719043.0, 2476.233, -0.012947338, 0.08018064, -560778.56, 61741.754, 0.0, 10.001, 9.998933 
7.501156e+1, 2.4647805e+2, -446453.22, -692864.25, 19908.35, 0.029516121, 0.10545545, -444855.13, 79676.555, 0.0, 10.001459, 9.9982195 
7.501592e+1, 2.5647733e+2, -279969.84, -572386.4, 27866.791, 0.14714843, 0.18357569, -277337.88, 149202.39, 0.0, 10.001964, 9.998136 
7.501848e+1, 2.6647574e+2, -199031.47, -535440.25, -1079.5863, 0.14350529, 0.24356179, -199028.0, 129529.734, 0.00000000015133415, 10.002099, 9.997642 
7.502006e+1, 2.7647364e+2, -116208.1, -453247.47, 22320.29, 0.060382534, 0.24663143, -114736.375, 115844.125, 0.00000065427645, 10.002025, 9.997569 
7.502178e+1, 2.864707e+2, 110110.5, -332704.38, 51336.27, -0.10005018, 0.21866497, 115984.086, 248591.06, 0.0000058927376, 10.003082, 9.99721 
7.502356e+1, 2.9646683e+2, 407523.25, -146215.53, 41760.668, -0.30010432, 0.082801156, 410654.97, 445295.06, 0.000025865007, 10.004467, 9.997158 
7.5027066e+1, 3.064635e+2, 370002.34, -141363.4, -17840.824, -0.2010224, 0.04140871, 370624.03, 370624.03, 0.00011192772, 10.00391, 9.997121 
7.503116e+1, 3.164604e+2, 235754.47, -6847.21, 9370.848, 0.017594868, -0.014831542, 236115.9, 236115.9, 0.00033923058, 10.002061, 9.99895 
8.498241e+1, 1.2647395e+2, -2073184.8, -1685129.0, 6411.6494, -0.016153691, 0.05356558, -1685023.1, 15546.436, 0.0017237901, 9.996607, 10.001819 
8.498483e+1, 1.3647659e+2, -1736824.6, -1534292.8, -26936.445, -0.023417454, 0.16862635, -1530771.4, 71772.07, 0.0009802121, 9.998559, 10.001244 
8.4988165e+1, 1.4647806e+2, -1604892.0, -1424898.5, -31539.604, 0.04808743, 0.19672546, -1419531.9, 84997.664, 0.00039778455, 9.998781, 10.001216 
8.499038e+1, 1.5647952e+2, -1632147.9, -1398763.3, -72771.516, 0.005217642, 0.19606692, -1377931.8, 28584.07, 0.000088897265, 9.997983, 10.0011015 
8.4992874e+1, 1.6648082e+2, -1550827.8, -1349921.4, -38193.563, -0.055161126, 0.2401751, -1342905.5, -34402.406, 0.000006071428, 9.998048, 10.000731 
8.499581e+1, 1.7648143e+2, -1391424.9, -1237414.5, -48336.004, -0.10239605, 0.20318303, -1223501.3, -13004.469, 0.000000076650345, 9.998536, 10.000595 
8.4997535e+1, 1.8648098e+2, -1260889.8, -1224468.1, -97140.19, -0.1429102, 0.15555409, -1143846.5, -31346.896, 0.0, 9.999196, 9.999695 
8.4998566e+1, 1.9648007e+2, -1074665.9, -1104149.6, -98012.63, -0.18079962, 0.0714596, -990292.7, 24214.297, 0.0, 9.999886, 9.999516 
8.500118e+1, 2.064796e+2, -1007521.9, -1141018.8, -70514.625, -0.080995865, 0.13678834, -977174.2, -60659.66, 0.0, 10.000188, 9.998445 
8.5004634e+1, 2.1647917e+2, -896301.56, -1024763.3, -63050.836, 0.09472091, 0.22602148, -870526.8, -52002.664, 0.0, 10.000225, 9.998552 
8.500709e+1, 2.2647792e+2, -703995.1, -808970.1, -14428.805, 0.0876691, 0.2117021, -702048.0, 18487.924, 0.0, 10.000577, 9.999183 
8.500906e+1, 2.3647617e+2, -543926.94, -700537.94, -32548.307, -0.017839365, 0.09599249, -537431.9, 85117.26, 0.0, 10.001079, 9.999015 
8.501284e+1, 2.4647497e+2, -461032.38, -705435.7, -15843.49, 0.021546084, 0.1274253, -460009.6, 64550.87, 0.0, 10.001379, 9.998168 
8.5017663e+1, 2.5647396e+2, -333868.1, -600283.44, -42722.2, 0.15058702, 0.18360628, -327184.84, 99387.33, 0.0, 10.001613, 9.998103 
8.502047e+1, 2.664721e+2, -223551.05, -554496.5, -74209.266, 0.14757808, 0.2199138, -207672.63, 120918.89, 0.0000000019213902, 10.001942, 9.997593 
8.5022235e+1, 2.7646968e+2, -92616.89, -445764.84, -74839.67, 0.073596105, 0.1949487, -77411.445, 153204.61, 0.0000006294421, 10.002191, 9.997545 
8.502468e+1, 2.8646672e+2, 16926.246, -370974.88, 10092.944, -0.077769615, 0.16110295, 17188.68, 149831.48, 0.0000062489003, 10.002412, 9.99727 
8.502753e+1, 2.9646304e+2, 168190.27, -247484.1, -5752.715, -0.25561595, 0.041496564, 168269.88, 202944.23, 0.000027811611, 10.002768, 9.997276 
8.5031164e+1, 3.0646023e+2, 345216.34, -146830.81, -98588.85, -0.16187888, 0.04086363, 364234.97, 364234.97, 0.000112212314, 10.003694, 9.997201 
8.5034925e+1, 3.164569e+2, 565356.4, 87307.33, -144253.16, 0.07543071, -0.038986348, 605512.25, 605512.25, 0.00032853556, 10.004593, 9.998377 
9.498069e+1, 1.2647195e+2, -2117256.5, -1776960.4, 45745.195, 0.092201054, 0.10360008, -1770918.3, -70332.02, 0.0016162735, 9.99661, 10.0011835 
9.4981486e+1, 1.3647221e+2, -1768696.1, -1617314.0, 42270.152, -0.24683768, 0.031254563, -1606310.8, -3728.7878, 0.000914127, 9.998626, 10.000641 
9.49853e+1, 1.464716e+2, -1657887.9, -1533315.1, -71792.71, -0.14843279, -0.07933024, -1500555.3, 4032.8586, 0.00036652523, 9.998778, 10.00047 
9.498867e+1, 1.5647236e+2, -1674915.5, -1489675.4, -84855.85, 0.0045649246, -0.07491408, -1456681.0, -50098.77, 0.00007896126, 9.997992, 10.000472 
9.499163e+1, 1.6647452e+2, -1537077.8, -1312657.3, -29353.129, -0.009365953, 0.06689807, -1308881.5, -318.90997, 0.000005121987, 9.998008, 10.001008 
9.499462e+1, 1.7647676e+2, -1371012.5, -1196360.4, -18943.355, -0.10349892, 0.16548139, -1194329.4, 16212.764, 0.00000007826353, 9.998539, 10.000875 
9.4997007e+1, 1.8647733e+2, -1261249.5, -1211489.5, -78933.16, -0.1374446, 0.1984044, -1153608.1, -41071.69, 0.0, 9.999136, 9.999812 
9.499894e+1, 1.9647706e+2, -1072401.9, -1086658.8, -64541.348, -0.15782599, 0.16375783, -1014596.44, -58.371647, 0.0, 9.999832, 9.99966 
9.500143e+1, 2.0647578e+2, -998193.3, -1104193.3, -78385.47, -0.098013066, 0.12693493, -956571.5, -40021.11, 0.0, 10.000109, 9.998736 
9.50042e+1, 2.164737e+2, -893394.2, -1001687.4, -48400.008, 0.0042429394, 0.019211497, -874915.6, -56344.266, 0.0, 10.000147, 9.99875 
9.5007265e+1, 2.264733e+2, -739815.6, -865481.5, -2861.202, 0.022206044, 0.10187493, -739750.5, -19174.574, 0.0, 10.000497, 9.998832 
9.501052e+1, 2.3647377e+2, -578031.3, -754374.2, -7220.3022, -0.0051905215, 0.24021816, -577736.2, 44835.92, 0.0, 10.000998, 9.998687 
9.501421e+1, 2.4647239e+2, -488608.44, -744437.5, -17234.578, -0.0025155745, 0.27856967, -487452.6, 37134.77, 0.0, 10.001302, 9.997935 
9.501806e+1, 2.5646976e+2, -359025.53, -640975.44, -21812.73, 0.0028914497, 0.19453268, -357348.0, 69267.25, 0.0, 10.001553, 9.997856 
9.502071e+1, 2.6646727e+2, -245226.97, -584260.4, -72852.33, -0.043913938, 0.19087204, -230235.2, 98404.555, 0.0000000017799018, 10.001883, 9.997414 
9.502282e+1, 2.7646482e+2, -112619.72, -466590.2, -56115.81, -0.112276606, 0.17772835, -103936.55, 126726.58, 0.0000005677249, 10.002102, 9.997442 
9.5027643e+1, 2.8646237e+2, 32892.996, -327690.53, 12982.792, -0.047267295, 0.18232511, 33359.836, 166045.19, 0.0000064583187, 10.00237, 9.997584 
9.5033914e+1, 2.9645962e+2, 172553.31, -219280.14, 28357.271, 0.07625566, 0.118608326, 174594.9, 209304.8, 0.000029725905, 10.002682, 9.997512 
9.503659e+1, 3.0645755e+2, 317109.38, -200374.23, -67977.734, -0.012570275, 0.19853713, 325890.06, 325890.06, 0.00011359201, 10.00367, 9.996842 
9.5036405e+1, 3.1645375e+2, 510106.06, -1806.7869, -83191.92, -0.2895674, 0.11817747, 523286.4, 523286.4, 0.00032159366, 10.004478, 9.99782 
1.0497821e+2, 1.2646984e+2, -1979407.1, -1744021.5, 53434.547, 0.14299954, 0.19547607, -1732459.3, -31850.922, 0.0015309328, 9.997661, 10.000923 
1.0497981e+2, 1.3646935e+2, -1946980.8, -1723301.6, 40330.05, -0.20907493, 0.06696546, -1716252.1, -113640.57, 0.0008642909, 9.997462, 10.000489 
1.0498394e+2, 1.4646795e+2, -1794015.4, -1619354.1, -38232.227, -0.112713695, -0.10629972, -1611351.9, -106727.12, 0.00034447288, 9.99795, 10.000274 
1.0498717e+2, 1.5646887e+2, -1570695.6, -1471322.6, -32663.592, 0.021470873, -0.057592135, -1461547.8, -54931.453, 0.00007296801, 9.998847, 10.000191 
1.0499017e+2, 1.664707e+2, -1406147.3, -1275630.9, 37401.92, -0.0009226952, 0.07895392, -1265672.4, 42927.047, 0.000004414203, 9.999028, 10.000764 
1.0499344e+2, 1.7647241e+2, -1349496.0, -1209236.0, -11726.817, -0.08302117, 0.14624462, -1208262.4, 2322.3145, 0.000000050630582, 9.9988, 10.000657 
1.0499668e+2, 1.8647304e+2, -1271015.4, -1199337.6, -56766.664, -0.07213454, 0.18575075, -1168043.3, -55465.04, 0.0, 9.99899, 9.999965 
1.0499974e+2, 1.9647318e+2, -1144053.3, -1108735.8, -60072.152, -0.02627406, 0.17698061, -1063780.6, -49205.207, 0.0, 9.999282, 9.999773 
1.050023e+2, 2.0647177e+2, -950465.4, -1083621.1, -57810.43, -0.03225656, 0.122941285, -928869.25, -12280.946, 0.0, 10.000459, 9.998705 
1.0500463e+2, 2.1646927e+2, -618729.3, -876728.6, -79548.9, -0.05741514, -0.021725195, -596173.9, 222438.31, 0.0, 10.002076, 9.998673 
1.0500798e+2, 2.2646874e+2, -541217.3, -812194.0, -62008.418, -0.027610883, 0.0726016, -527701.8, 192917.06, 0.0, 10.002041, 9.998464 
1.0501193e+2, 2.3646924e+2, -590056.8, -792872.3, -85235.09, 0.039625484, 0.255437, -558993.6, 63622.96, 0.0, 10.001058, 9.9984 
1.0501554e+2, 2.4646781e+2, -537331.4, -744011.5, -41784.4, 0.027922165, 0.2905871, -529203.5, -4571.245, 0.0, 10.000868, 9.998146 
1.0501902e+2, 2.564651e+2, -409574.4, -640417.44, -29895.75, -0.02848632, 0.18118922, -405765.53, 20894.076, 0.0, 10.001113, 9.998067 
1.0502237e+2, 2.6646274e+2, -227831.84, -544779.3, -16826.598, -0.060164314, 0.1610487, -226941.02, 101741.34, 0.00000000014537505, 10.001882, 9.997678 
1.0502582e+2, 2.7646044e+2, 27530.146, -379931.72, 6055.1865, -0.059973575, 0.13864762, 27620.111, 258323.42, 0.00000042821608, 10.002989, 9.997609 
1.05031274e+2, 2.8645802e+2, 162203.11, -297828.94, 60948.75, 0.035629682, 0.15373023, 170141.11, 302867.6, 0.0000059800022, 10.003369, 9.997324 
1.0503774e+2, 2.9645532e+2, 245461.17, -209220.92, 15237.665, 0.16966623, 0.11915579, 245971.25, 280724.03, 0.000029321069, 10.003269, 9.997309 
1.0504068e+2, 3.0645344e+2, 292989.88, -210126.94, -43132.695, 0.046474524, 0.22794478, 296660.9, 296660.9, 0.000109979665, 10.003514, 9.996843 
1.0504088e+2, 3.164499e+2, 450060.34, 22117.184, -65095.902, -0.2476577, 0.17346701, 459743.22, 459743.22, 0.000307793, 10.003852, 9.9982815 
1.1497412e+2, 1.264674e+2, -1965514.0, -1724838.9, 12651.139, -0.09279731, 0.32596746, -1724175.6, -23537.424, 0.001474528, 9.997701, 10.001035 
1.1497952e+2, 1.3646792e+2, -1919793.3, -1670844.4, 44749.387, -0.013010424, 0.27183843, -1663044.9, -60411.72, 0.00083337264, 9.997484, 10.000834 
1.149839e+2, 1.4646712e+2, -1777465.3, -1576994.3, -14013.939, 0.05991277, 0.12178682, -1576019.4, -71379.79, 0.00033260565, 9.9979105, 10.000585 
1.1498538e+2, 1.5646909e+2, -1557893.6, -1448635.4, 9895.565, -0.07286989, 0.24374963, -1447746.4, -41128.563, 0.0000710648, 9.998869, 10.000331 
1.1498811e+2, 1.6646947e+2, -1467490.6, -1401418.0, 20122.188, -0.13694361, 0.277478, -1395772.4, -87158.97, 0.0000041843605, 9.999015, 9.999912 
1.14992015e+2, 1.7646828e+2, -1395685.5, -1307346.3, -7231.2515, -0.1322698, 0.13789953, -1306758.3, -96133.23, 0.000000024917117, 9.998808, 9.999981 
1.1499631e+2, 1.8646806e+2, -1272325.3, -1180662.3, -53695.027, -0.031682298, 0.112450294, -1155898.5, -43273.234, 0.0, 9.998899, 10.000139 
1.1500061e+2, 1.9646843e+2, -1142360.4, -1095936.5, -32846.043, 0.10487036, 0.10999634, -1078928.4, -64309.34, 0.0, 9.999242, 9.999881 
1.150035e+2, 2.0646757e+2, -990029.75, -1149422.4, -5028.6055, 0.019336792, 0.13122469, -989871.25, -73243.53, 0.0, 10.000383, 9.998292 
1.1500559e+2, 2.164658e+2, -660965.25, -942976.06, -23557.033, -0.19120713, 0.09753172, -659011.0, 159636.47, 0.0, 10.001979, 9.998268 
1.15008935e+2, 2.2646418e+2, -585791.9, -882040.25, -108554.96, -0.15476523, 0.127304, -550272.5, 170392.6, 0.0, 10.0019455, 9.998029 
1.1501296e+2, 2.3646256e+2, -621649.6, -837402.2, -104636.99, 0.013520713, 0.13701434, -579238.9, 43443.684, 0.0, 10.000963, 9.99814 
1.1501662e+2, 2.4646129e+2, -507045.13, -660950.56, -41456.59, 0.025453709, 0.16266136, -496588.63, 28106.256, 0.0, 10.000786, 9.998755 
1.1502014e+2, 2.5646004e+2, -377459.97, -554861.8, -8839.746, -0.05044849, 0.136767, -377020.56, 49685.23, 0.0, 10.001032, 9.998694 
1.15025125e+2, 2.664584e+2, -185901.3, -450608.44, 17141.373, 0.0039764773, 0.12645221, -184795.9, 143924.16, 0.0, 10.001848, 9.998345 
1.1503091e+2, 2.7645642e+2, 47334.965, -322630.75, 52898.25, 0.12552327, 0.07245401, 54749.83, 285487.4, 0.0000002594802, 10.002911, 9.998048 
1.1503525e+2, 2.8645355e+2, 95880.46, -419645.28, 48887.684, 0.07305487, 0.072051026, 100475.555, 233242.22, 0.000005001763, 10.00331, 9.996512 
1.1503871e+2, 2.9645017e+2, 176689.3, -320856.75, 25268.63, -0.08923758, 0.0489713, 177969.31, 212772.1, 0.000026475647, 10.00314, 9.996604 
1.15043126e+2, 3.0644792e+2, 306262.6, -166304.13, -32246.334, -0.083023444, 0.13982458, 308452.8, 308452.8, 0.000100772006, 10.003459, 9.997167 
1.1504762e+2, 3.164453e+2, 536784.8, 224756.83, -21672.191, -0.014775816, 0.122103065, 538282.9, 538282.9, 0.00028477213, 10.003763, 9.999715 
1.24971285e+2, 1.2646228e+2, -2188803.8, -1805493.4, -13453.437, -0.056184627, 0.28098574, -1805021.9, -104332.09, 0.0014451224, 9.996077, 10.001252 
1.2497799e+2, 1.3646463e+2, -1949866.9, -1646654.8, -16646.95, 0.11486738, 0.37351894, -1645743.5, -43075.395, 0.000820366, 9.997114, 10.001179 
1.2498275e+2, 1.4646408e+2, -1772088.4, -1538700.8, -35593.71, 0.17082559, 0.21513858, -1533393.1, -28721.846, 0.00033115427, 9.997792, 10.000901 
1.24983914e+2, 1.5646565e+2, -1601444.9, -1445653.0, -43756.145, -0.078482926, 0.26816678, -1434204.8, -27553.357, 0.00007354598, 9.998464, 10.000542 
1.2498693e+2, 1.6646554e+2, -1509063.6, -1459927.5, -16706.467, -0.1444882, 0.2600967, -1454785.4, -146134.72, 0.0000047036624, 9.998885, 9.999579 
1.2499141e+2, 1.7646383e+2, -1390315.5, -1345088.1, -21122.113, -0.07607905, 0.10441496, -1336757.9, -126091.375, 0.000000012759114, 9.999001, 9.999639 
1.2499588e+2, 1.8646312e+2, -1198080.5, -1178454.9, -37787.69, 0.011105581, 0.06351244, -1149226.6, -36554.695, 0.0, 9.999555, 9.999836 
1.2500021e+2, 1.9646314e+2, -1001137.5, -1055358.3, -72642.25, 0.091565706, 0.057693113, -950711.56, 63958.68, 0.0, 10.000332, 9.999634 
1.2500383e+2, 2.0646276e+2, -996452.06, -1134343.0, -17007.957, 0.025548005, 0.1272813, -994385.25, -77710.28, 0.0, 10.000259, 9.998452 
1.250071e+2, 2.1646193e+2, -991369.56, -1087532.1, -12900.297, -0.115481, 0.173345, -989669.06, -170983.39, 0.0, 9.999649, 9.998396 
1.2501073e+2, 2.2645994e+2, -806169.56, -997065.2, -51495.117, -0.08887873, 0.16264698, -793164.5, -72457.66, 0.0, 10.000465, 9.997947 
1.2501457e+2, 2.364572e+2, -463074.2, -764652.56, -46223.336, 0.030162578, 0.06792982, -456148.53, 166586.11, 0.0, 10.002079, 9.998093 
1.2501809e+2, 2.4645586e+2, -312548.03, -551633.44, -192.53383, 0.038246535, 0.07954265, -312547.88, 212198.52, 0.0, 10.002051, 9.998898 
1.2502159e+2, 2.5645512e+2, -358421.72, -538794.3, -11945.568, -0.0071392427, 0.09304292, -357634.06, 69116.555, 0.0, 10.00112, 9.998769 
1.2502733e+2, 2.6645377e+2, -251028.3, -503026.47, 24138.377, 0.064356424, 0.11924444, -248736.97, 80026.78, 0.0, 10.001495, 9.998152 
1.250344e+2, 2.7645195e+2, 188.63127, -352738.8, -26741.16, 0.20432828, 0.096677326, 2203.297, 232986.69, 0.00000012209664, 10.002634, 9.997964 
1.250385e+2, 2.8644943e+2, 99936.234, -359474.38, -7636.2217, 0.085144445, 0.10745514, 100063.125, 232871.36, 0.000003888246, 10.003102, 9.997019 
1.2504096e+2, 2.9644665e+2, 203411.39, -268663.03, 47764.656, -0.16968943, 0.096975856, 208195.73, 243030.88, 0.00002250982, 10.003171, 9.996939 
1.2504622e+2, 3.0644324e+2, 280816.53, -250649.6, 25462.18, -0.114011705, 0.09162394, 282033.63, 282033.63, 0.000088219014, 10.00355, 9.996571 
1.2505302e+2, 3.164401e+2, 577513.44, 274249.16, -67967.99, 0.15555325, 0.07318296, 592049.75, 592049.75, 0.00025421128, 10.003901, 10.000002 
1.3496904e+2, 1.2645426e+2, -2175286.3, -1768678.4, -5448.3794, 0.05607554, 0.039495, -1768605.4, -67840.27, 0.0014399097, 9.996045, 10.001519 
1.3497476e+2, 1.3645947e+2, -1912941.1, -1574295.5, 28082.883, 0.051486194, 0.36852112, -1571982.5, 30733.645, 0.0008240123, 9.997147, 10.001654 
1.3498014e+2, 1.4645891e+2, -1751374.5, -1509341.5, -24091.45, 0.097185425, 0.1780614, -1506966.8, -2247.7373, 0.00033951883, 9.997832, 10.001092 
1.3498251e+2, 1.5645851e+2, -1584919.4, -1413340.0, -10698.765, -0.09407449, 0.012727929, -1412675.5, -5957.9604, 0.00008018549, 9.998461, 10.0007715 
1.3498624e+2, 1.6645886e+2, -1509947.1, -1436298.9, -22118.672, -0.124172285, 0.031774428, -1430166.6, -121455.086, 0.0000062149566, 9.998788, 9.999783 
1.3499117e+2, 1.76459e+2, -1391059.3, -1340303.9, -961.4005, -0.02615184, 0.04139446, -1340285.6, -129576.35, 0.000000017143847, 9.998985, 9.999672 
1.3499501e+2, 1.8645833e+2, -1261299.0, -1303452.9, -17047.232, -0.059176687, 0.04732855, -1255267.9, -142550.92, 0.0, 9.999516, 9.9990015 
1.349981e+2, 1.9645728e+2, -1051570.8, -1147969.5, -39384.43, -0.18026377, 0.016734403, -1037526.2, -22796.973, 0.0, 10.000274, 9.999027 
1.3500293e+2, 2.0645726e+2, -959269.2, -1037669.44, -49999.426, -0.11202927, 0.10896295, -934935.1, -18204.887, 0.0, 10.000175, 9.999158 
1.3500875e+2, 2.164576e+2, -961136.0, -999762.9, -12287.227, 0.061982103, 0.20161857, -957558.7, -138831.63, 0.0, 9.999544, 9.999047 
1.3501304e+2, 2.2645596e+2, -799376.1, -966602.8, 150.00237, 0.071408436, 0.18238637, -799376.0, -78631.98, 0.0, 10.000385, 9.998198 
1.3501635e+2, 2.3645303e+2, -463457.56, -746507.4, 9771.672, -0.02300174, 0.043477014, -463120.63, 159653.03, 0.0, 10.001992, 9.99826 
1.3501966e+2, 2.4645136e+2, -342927.78, -602663.56, -45238.195, -0.03494045, 0.035505805, -335274.16, 189513.63, 0.0, 10.001998, 9.998573 
1.3502304e+2, 2.5645036e+2, -401023.16, -606633.3, -26472.209, 0.001967485, 0.04963706, -397669.56, 29124.582, 0.0, 10.00103, 9.998344 
1.3502876e+2, 2.6644886e+2, -334446.66, -663503.75, 59212.395, 0.035855502, 0.14309502, -324115.97, 4697.0073, 0.0, 10.001445, 9.997069 
1.3503589e+2, 2.764469e+2, -59466.332, -450798.63, 20459.148, 0.06487644, 0.21049143, -58399.62, 172441.52, 0.000000046518082, 10.002528, 9.997336 
1.3504076e+2, 2.8644553e+2, 225267.75, -92881.52, -14170.851, -0.02493602, 0.25456423, 225897.69, 358749.63, 0.0000029362805, 10.003073, 9.998866 
1.3504422e+2, 2.9644454e+2, 289738.6, -79119.305, 63209.137, -0.19088052, 0.24514401, 300269.72, 335121.75, 0.000019015239, 10.0031185, 9.998271 
1.3504954e+2, 3.0643928e+2, 174562.72, -460517.13, 32015.365, -0.15594552, 0.07515287, 176172.6, 176172.6, 0.000075927965, 10.003507, 9.995148 
1.3505647e+2, 3.1643435e+2, 508517.0, 145701.19, -14385.493, 0.05566679, 0.016799318, 509086.47, 509086.47, 0.00022269739, 10.003828, 9.999156 
1.4496624e+2, 1.2644811e+2, -1976838.5, -1651514.5, 25821.283, 0.1250418, -0.0050184154, -1649477.8, 51346.438, 0.0014542761, 9.997316, 10.001715 
1.4497158e+2, 1.3645312e+2, -1973471.6, -1559840.3, 9149.508, 0.05573036, 0.26121008, -1559637.9, 43136.77, 0.0008417685, 9.996542, 10.002044 
1.449777e+2, 1.4645314e+2, -1903482.8, -1581586.4, -5487.592, 0.12825367, 0.1109806, -1581492.9, -76720.586, 0.0003553583, 9.996785, 10.001104 
1.4498119e+2, 1.564533e+2, -1701546.3, -1467209.4, -30951.66, -0.02370862, 0.000010590128, -1463190.1, -56422.44, 0.00008912462, 9.99765, 10.000797 
1.4498526e+2, 1.6645375e+2, -1561674.1, -1448821.4, -41936.652, -0.07158816, 0.019860564, -1434944.0, -126182.46, 0.000008328298, 9.998383, 9.999887 
1.4499015e+2, 1.7645381e+2, -1387498.0, -1331752.5, -50059.133, -0.02170972, 0.011488972, -1302329.5, -91569.65, 0.0000000715251, 9.998979, 9.999733 
1.4499444e+2, 1.8645337e+2, -1265606.8, -1314056.6, -7312.5205, -0.06145932, 0.044414345, -1264527.1, -151761.73, 0.0, 9.999527, 9.998926 
1.4499822e+2, 1.9645266e+2, -1093272.3, -1172821.8, 2447.6057, -0.17183395, 0.057535928, -1093197.0, -78422.125, 0.0, 10.000002, 9.998995 
1.4500327e+2, 2.0645249e+2, -895057.3, -978923.75, -12727.919, -0.10462974, 0.11930621, -893168.2, 23608.457, 0.0, 10.000505, 9.999397 
1.4500906e+2, 2.1645236e+2, -739587.0, -875222.2, -29490.74, 0.070286326, 0.14284772, -733452.4, 85323.82, 0.0, 10.000993, 9.999202 
1.4501394e+2, 2.2645098e+2, -715081.9, -938326.1, -2505.4492, 0.0969729, 0.14999987, -715053.75, 5737.279, 0.0, 10.001022, 9.998086 
1.450183e+2, 2.3644872e+2, -642359.0, -847826.9, -41685.52, 0.035780117, 0.09128832, -634223.9, -11408.22, 0.0, 10.000824, 9.998135 
1.4502183e+2, 2.464469e+2, -393788.2, -646326.1, -93903.945, 0.00060656463, 0.08401685, -362698.3, 162133.6, 0.0, 10.001736, 9.998402 
1.4502499e+2, 2.5644526e+2, -83137.945, -470767.16, -87132.89, -0.014521151, 0.05538138, -64452.57, 362391.6, 0.0, 10.0033, 9.998181 
1.450307e+2, 2.664436e+2, -106758.64, -582609.1, 48351.484, 0.0068914006, 0.1524516, -101895.31, 226969.58, 0.0, 10.0031185, 9.996828 
1.4503795e+2, 2.7644178e+2, -159712.47, -527625.5, 54126.125, 0.05584723, 0.25881383, -151914.88, 78977.4, 0.00000002138944, 10.001942, 9.997109 
1.4504375e+2, 2.8644013e+2, 100537.64, -153553.89, -6002.597, 0.018660279, 0.28478548, 100679.37, 233584.58, 0.0000023054517, 10.002205, 9.998873 
1.4504856e+2, 2.9643872e+2, 313334.88, -65096.08, -89334.4, -0.071116306, 0.23160376, 333363.6, 368271.97, 0.000016570593, 10.00327, 9.998291 
1.4505371e+2, 3.0643293e+2, 197429.08, -433779.84, -86753.39, -0.08603882, 0.004870881, 209135.36, 209135.36, 0.0000664134, 10.003624, 9.995254 
1.4506064e+2, 3.1642818e+2, 444193.3, 93649.33, -60265.72, 0.11870499, -0.044668797, 454264.88, 454264.88, 0.0001967113, 10.003506, 9.998937 
1.5496236e+2, 1.264442e+2, -1959476.9, -1637689.8, -33534.77, -0.055335835, 0.17926234, -1634232.1, 66631.414, 0.0014746141, 9.997403, 10.001775 
1.5496808e+2, 1.364457e+2, -1953620.1, -1520088.6, -7325.1274, 0.024913132, 0.06611434, -1519964.9, 82877.96, 0.00086313457, 9.996542, 10.002322 
1.5497498e+2, 1.4644681e+2, -1917979.8, -1600150.4, 15423.733, 0.1506867, 0.0170763, -1599403.6, -94572.445, 0.00037152023, 9.99674, 10.000996 
1.5497951e+2, 1.5645003e+2, -1712536.9, -1485345.4, 12524.037, 0.013941352, 0.2254727, -1484657.0, -77855.055, 0.00009663115, 9.997637, 10.000673 
1.549837e+2, 1.6645025e+2, -1570479.8, -1457378.4, -30120.223, -0.091280475, 0.22957793, -1449857.3, -141057.36, 0.000009881803, 9.998338, 9.999855 
1.5498807e+2, 1.7644832e+2, -1386977.0, -1321743.3, -17321.184, -0.15197985, 0.027574196, -1317429.4, -106612.15, 0.00000020107916, 9.9989395, 9.999823 
1.5499385e+2, 1.8644828e+2, -1225836.3, -1220883.5, 1075.8188, -0.09666529, 0.058594108, -1220659.9, -107842.69, 0.0, 9.999479, 9.999589 
1.5500028e+2, 1.9644928e+2, -1068247.5, -1102388.9, 31697.766, 0.0103391865, 0.17563945, -1049316.0, -34508.395, 0.0, 9.999931, 9.999511 
1.550046e+2, 2.0644836e+2, -922427.7, -1022627.7, -3682.9167, -0.04607009, 0.15913962, -922292.5, -5477.738, 0.0, 10.000439, 9.999137 
1.5500762e+2, 2.1644618e+2, -772969.0, -921500.3, -5953.39, -0.19583817, 0.0026927243, -772730.75, 46102.47, 0.0, 10.000893, 9.998935 
1.5501316e+2, 2.2644499e+2, -762676.06, -1019206.44, -19334.652, -0.10752026, 0.0708679, -761227.0, -40379.52, 0.0, 10.000943, 9.99757 
1.5502012e+2, 2.3644425e+2, -687580.8, -922869.6, -29136.848, 0.112735644, 0.21316898, -684026.4, -61165.68, 0.0, 10.000739, 9.997662 
1.5502429e+2, 2.4644242e+2, -403226.03, -655365.2, -43499.344, 0.05152617, 0.22618602, -395932.47, 128946.375, 0.0, 10.001684, 9.998364 
1.5502702e+2, 2.5643975e+2, -93533.02, -474101.75, -30884.664, -0.1628686, 0.09922561, -91042.91, 335858.94, 0.0, 10.00321, 9.998206 
1.5503277e+2, 2.6643795e+2, -75392.93, -504727.6, -6041.2827, -0.118837655, 0.14629838, -75307.94, 253612.34, 0.0, 10.00307, 9.997382 
1.5504028e+2, 2.7643642e+2, -159865.06, -508587.1, 33431.496, 0.07294533, 0.23090017, -156688.95, 74249.016, 0.000000019825112, 10.001859, 9.997278 
1.5504715e+2, 2.864332e+2, -31702.13, -419691.9, 27520.826, 0.11539925, 0.19724914, -29759.752, 103208.34, 0.0000019865888, 10.00217, 9.99706 
1.5505356e+2, 2.9642904e+2, 213069.66, -256501.6, -42141.152, 0.07152791, 0.04469808, 216821.58, 251826.33, 0.000014949104, 10.003189, 9.997017 
1.5505843e+2, 3.064243e+2, 299624.13, -207295.06, -94967.37, 0.0012321812, -0.117008634, 316831.4, 316831.4, 0.000059797247, 10.003576, 9.996822 
1.5506488e+2, 3.1642166e+2, 458372.44, 141312.03, -41894.53, 0.14278138, -0.10267868, 463814.72, 463814.72, 0.0001777337, 10.003435, 9.999291 
1.6495994e+2, 1.264393e+2, -2083721.0, -1752731.5, 34968.08, 0.0014644846, 0.23680322, -1749077.5, -48168.727, 0.0014821975, 9.996781, 10.001278 
1.6496539e+2, 1.3643925e+2, -1677549.4, -1435298.0, -33826.363, 0.006854462, 0.009471374, -1430663.4, 172240.67, 0.0008719991, 9.9986315, 10.001899 
1.6497253e+2, 1.4644048e+2, -1684929.1, -1518042.8, -38261.293, 0.15326439, 0.0049040574, -1509688.9, -4795.9253, 0.0003781117, 9.9985, 10.000696 
1.6497754e+2, 1.5644388e+2, -1760494.4, -1536484.5, -73611.94, 0.07144271, 0.26403204, -1514460.3, -107596.234, 0.000098805474, 9.99744, 10.000413 
1.6498251e+2, 1.6644426e+2, -1632469.4, -1462855.8, -54338.805, -0.010650583, 0.28658855, -1446940.6, -138079.84, 0.000009884257, 9.997797, 10.000078 
1.6498779e+2, 1.7644265e+2, -1375882.1, -1290666.0, -45188.48, -0.06436969, 0.08957924, -1271165.8, -60290.867, 0.0000002904704, 9.998896, 10.000058 
1.6499408e+2, 1.8644254e+2, -1225501.8, -1203154.5, -41213.43, -0.011879149, 0.093668476, -1171626.9, -58752.09, 0.0, 9.999422, 9.999725 
1.6500083e+2, 1.9644317e+2, -1103849.0, -1108860.0, -68733.01, 0.0910024, 0.1592807, -1037575.8, -22708.309, 0.0, 9.999641, 9.999596 
1.6500522e+2, 2.0644207e+2, -995484.06, -1076865.6, -87276.67, -0.0009632554, 0.13035911, -939878.6, -23002.447, 0.0, 10.000031, 9.998958 
1.6500822e+2, 2.164399e+2, -832385.5, -962797.7, -103424.055, -0.19854349, -0.008123408, -775328.06, 43566.84, 0.0, 10.00054, 9.998821 
1.6501401e+2, 2.2643861e+2, -691952.25, -965975.7, -68986.4, -0.13006057, 0.045953855, -675564.7, 45344.45, 0.0, 10.001361, 9.997729 
1.6502132e+2, 2.3643778e+2, -451230.38, -798018.3, -50044.977, 0.08738413, 0.16643092, -444152.8, 178768.6, 0.0, 10.002337, 9.997739 
1.6502635e+2, 2.46436e+2, -367159.06, -700058.56, -50457.016, 0.069846705, 0.21410953, -359679.4, 165261.67, 0.0, 10.002204, 9.9978075 
1.6503018e+2, 2.5643355e+2, -377428.1, -651322.7, -99905.87, -0.07374278, 0.16109516, -344859.2, 82107.01, 0.0, 10.001443, 9.997835 
1.6503583e+2, 2.6643142e+2, -220279.66, -519721.97, -84267.984, -0.053639397, 0.16767165, -198194.19, 130791.22, 0.0, 10.001829, 9.997879 
1.650426e+2, 2.7642936e+2, 24293.348, -368146.2, -66221.35, 0.0713537, 0.14366052, 35166.47, 266169.72, 0.000000024295247, 10.00291, 9.997724 
1.6504972e+2, 2.86426e+2, 34426.355, -414988.06, 29515.428, 0.13279498, 0.09216413, 36356.504, 169391.33, 0.0000019697127, 10.002759, 9.996803 
1.6505705e+2, 2.9642203e+2, 32198.592, -344359.94, 52569.23, 0.17206918, -0.014412727, 39399.777, 74472.64, 0.000013995548, 10.0019655, 9.997001 
1.6506213e+2, 3.0641913e+2, 231192.58, -165709.38, 48213.75, 0.06592739, -0.03410972, 236965.39, 236965.39, 0.00005518299, 10.002754, 9.997521 
1.6506939e+2, 3.164164e+2, 544260.2, 130036.63, -18931.86, 0.22112738, -0.083989605, 545123.7, 545123.7, 0.00016337763, 10.00423, 9.998841 
1.7495824e+2, 1.2643339e+2, -2160315.3, -1902827.0, 82016.484, 0.10174033, 0.15444425, -1878922.0, -177962.02, 0.001464911, 9.996753, 10.000256 
1.7496313e+2, 1.3643394e+2, -1756505.5, -1590123.9, 26232.764, -0.107893, 0.098239765, -1586085.9, 16870.82, 0.0008580161, 9.998613, 10.000833 
1.7497014e+2, 1.4643422e+2, -1725453.8, -1606640.8, -91461.31, 0.036194343, 0.081774294, -1556986.3, -52029.4, 0.00036898247, 9.998504, 10.000095 
1.7497501e+2, 1.5643483e+2, -1786810.1, -1591735.9, -90253.07, 0.04554218, 0.11759519, -1556385.5, -149431.44, 0.00009401229, 9.9974375, 10.000038 
1.7498134e+2, 1.6643588e+2, -1598920.8, -1384959.3, -22008.06, 0.06785686, 0.18856207, -1382719.0, -73774.984, 0.000008393363, 9.997758, 10.000634 
1.7498894e+2, 1.764369e+2, -1352650.1, -1234501.3, 1536.7725, 0.13548923, 0.20263398, -1234481.3, -23548.828, 0.00000020811186, 9.998866, 10.000457 
1.7499483e+2, 1.8643624e+2, -1256572.6, -1263475.3, -41363.1, 0.09507932, 0.15768605, -1218517.1, -105579.56, 0.0, 9.99939, 9.999333 
1.7499949e+2, 1.9643447e+2, -1135691.1, -1160986.9, -49531.184, -0.03130445, 0.020765975, -1097218.4, -82264.85, 0.0, 9.9995775, 9.999271 
1.7500481e+2, 2.0643373e+2, -1013374.56, -1098479.3, -79958.06, -0.06586466, 0.04796494, -965351.0, -48391.254, 0.0, 9.999959, 9.998845 
1.7501056e+2, 2.1643347e+2, -847854.56, -973047.25, -71693.24, -0.041648515, 0.11057533, -815276.2, 3685.3645, 0.0, 10.000445, 9.998796 
1.750162e+2, 2.2643183e+2, -644094.44, -850580.4, -42066.777, -0.068732, 0.084646866, -635853.25, 85122.46, 0.0, 10.001285, 9.998559 
1.7502166e+2, 2.3642927e+2, -423645.66, -723980.94, -12922.446, -0.1340928, -0.051563997, -423090.7, 199907.78, 0.0, 10.002255, 9.99829 
1.7502773e+2, 2.4642767e+2, -453208.34, -865390.4, -88738.5, -0.03519574, 0.052886873, -434915.7, 90102.75, 0.0, 10.002148, 9.996696 
1.750341e+2, 2.564265e+2, -454515.4, -791255.94, -110380.49, 0.15238005, 0.2410299, -421559.06, 5478.68, 0.0, 10.001355, 9.996918 
1.7503959e+2, 2.6642403e+2, -186620.67, -446084.06, -52134.527, 0.11876787, 0.22012037, -176537.05, 152523.56, 0.0, 10.00181, 9.998393 
1.7504457e+2, 2.7642053e+2, 57690.12, -282819.66, -25387.836, -0.045351945, 0.0007281163, 59572.586, 290660.72, 0.000000035492793, 10.002836, 9.998347 
1.7505115e+2, 2.8641853e+2, 121070.8, -230938.31, -12907.007, -0.024047181, -0.018182887, 121543.42, 254648.63, 0.0000021240596, 10.002743, 9.998072 
1.7505856e+2, 2.9641753e+2, 103241.555, -183250.94, 46746.887, 0.09995534, 0.047849365, 110676.29, 145790.44, 0.000013429294, 10.001913, 9.998128 
1.7506453e+2, 3.0641726e+2, 222897.44, -184473.47, 99021.95, 0.009083712, 0.2447851, 245691.81, 245691.81, 0.000050917075, 10.002755, 9.997397 
1.7507343e+2, 3.1641248e+2, 448936.03, -46837.863, 52051.08, 0.15076244, 0.022155866, 454341.9, 454341.9, 0.00014886881, 10.00415, 9.997659 
1.8495543e+2, 1.2642519e+2, -2163400.8, -1914571.1, 2529.2104, 0.15555376, 0.04349806, -1914545.5, -213507.94, 0.0014182838, 9.996763, 10.000176 
1.849607e+2, 1.3642678e+2, -1962986.9, -1719930.3, -41430.746, -0.14114606, 0.12174788, -1713062.1, -110034.35, 0.00082149997, 9.997323, 10.000566 
1.8496817e+2, 1.4642723e+2, -1764478.8, -1630725.6, -113857.18, 0.007682206, 0.13862702, -1565557.0, -60530.46, 0.00034638878, 9.998245, 10.0000515 
1.8497333e+2, 1.564268e+2, -1476415.0, -1446287.3, -92336.53, 0.03252279, 0.06839272, -1367793.9, 39238.58, 0.000084445885, 9.999579, 10.000002 
1.8498011e+2, 1.6642769e+2, -1347999.5, -1290493.9, -27788.23, 0.08070704, 0.13860977, -1279260.4, 29763.92, 0.000006352812, 9.999617, 10.000376 
1.849883e+2, 1.7642908e+2, -1362454.3, -1264077.5, -81549.04, 0.1885885, 0.21556029, -1218030.8, -7020.1763, 0.000000056960435, 9.998913, 10.000227 
1.849943e+2, 1.8642865e+2, -1299623.4, -1270924.8, -97277.5, 0.1260638, 0.19761673, -1186943.9, -73930.04, 0.0, 9.999048, 9.999443 
1.8499872e+2, 1.9642709e+2, -1118129.6, -1140102.8, -87920.875, -0.06399166, 0.07205578, -1040511.56, -25483.998, 0.0, 9.999651, 9.999379 
1.850048e+2, 2.0642637e+2, -1007101.25, -1093193.8, -82888.64, -0.057892274, 0.09219928, -956747.75, -39714.23, 0.0, 9.999985, 9.998868 
1.8501191e+2, 2.1642597e+2, -888574.5, -985936.3, -81132.35, 0.06920159, 0.13856776, -842638.9, -23602.406, 0.0, 10.000126, 9.998864 
1.8501768e+2, 2.2642434e+2, -773891.4, -876228.9, -45142.516, 0.008991175, 0.08999815, -756824.56, -35774.91, 0.0, 10.000229, 9.998896 
1.8502265e+2, 2.3642187e+2, -682261.06, -814623.3, -71462.15, -0.15772997, -0.06809544, -651042.06, -27972.012, 0.0, 10.000324, 9.998601 
1.8502928e+2, 2.4642026e+2, -555909.9, -898299.3, -87109.04, -0.04953214, 0.014711974, -535022.25, -9933.269, 0.0, 10.001363, 9.996851 
1.8503687e+2, 2.564191e+2, -219160.25, -664161.7, -36561.414, 0.22099875, 0.18357243, -216176.36, 210931.25, 0.0, 10.002913, 9.997038 
1.8504241e+2, 2.6641682e+2, -88078.78, -425517.66, 21437.838, 0.18361956, 0.19015905, -86722.27, 242407.39, 0.0, 10.002605, 9.998152 
1.850468e+2, 2.7641362e+2, -181801.73, -416679.78, -27698.691, -0.02034488, 0.02824767, -178579.48, 52576.563, 0.000000044067633, 10.001266, 9.99819 
1.8505324e+2, 2.8641152e+2, -67889.34, -288721.7, -57234.918, -0.010361129, -0.005767269, -53936.84, 79237.195, 0.000002141611, 10.001277, 9.998392 
1.850607e+2, 2.964105e+2, 154786.77, -125445.99, -82432.695, 0.118790776, 0.020790663, 177236.53, 212420.2, 0.000012353572, 10.002102, 9.998447 
1.8506739e+2, 3.064118e+2, 245873.98, -141048.81, 14268.326, 0.024439266, 0.3469897, 246399.44, 246399.44, 0.0000445169, 10.002773, 9.997679 
1.850774e+2, 3.164065e+2, 279646.47, -170878.84, -50986.13, 0.19403584, 0.052803144, 285344.53, 285344.53, 0.00012870552, 10.003123, 9.997322 
1.9495083e+2, 1.2641464e+2, -2107574.5, -1785635.5, 2498.1003, -0.03398281, -0.08447193, -1785616.0, -84474.27, 0.0013429979, 9.996724, 10.001072 
1.9495776e+2, 1.3641767e+2, -1933354.8, -1640972.9, -15095.573, -0.18744858, 0.07827695, -1640195.5, -37077.543, 0.0007683095, 9.997267, 10.001125 
1.9496629e+2, 1.4641951e+2, -1725325.1, -1546130.8, -76278.055, -0.03451254, 0.17593358, -1518059.0, -12956.892, 0.00031677555, 9.99822, 10.0006485 
1.9497214e+2, 1.564199e+2, -1452828.9, -1396053.6, -42901.18, -0.0699168, 0.12965637, -1372998.4, 34099.6, 0.000073711046, 9.999571, 10.000353 
1.9497848e+2, 1.6641983e+2, -1426373.6, -1450740.1, -62081.277, -0.06604236, 0.15043992, -1375291.4, -66191.0, 0.0000047225935, 9.999596, 9.999292 
1.9498566e+2, 1.7641929e+2, -1424453.5, -1386950.1, -90201.38, 0.0072634337, 0.1378152, -1313572.0, -102463.35, 0.0000000036456946, 9.998884, 9.9994 
1.9499221e+2, 1.8641983e+2, -1265257.0, -1188479.3, -84683.22, -0.008995178, 0.2204735, -1133889.9, -20786.607, 0.0, 9.998995, 10.00004 
1.9499819e+2, 1.9642095e+2, -1090802.3, -1069254.4, -57605.047, -0.104368925, 0.30524576, -1021424.44, -6333.941, 0.0, 9.999587, 9.9999 
1.9500487e+2, 2.064199e+2, -1007857.3, -1071664.6, -85399.59, -0.070333235, 0.26126775, -948596.6, -31498.596, 0.0, 9.999887, 9.99906 
1.9501196e+2, 2.1641739e+2, -891900.7, -969329.4, -67571.26, 0.03983694, 0.07581293, -852739.0, -33619.61, 0.0, 10.000026, 9.9990225 
1.9501819e+2, 2.2641613e+2, -802641.5, -913305.7, -53257.477, 0.01966165, 0.06875498, -781175.2, -60044.477, 0.0, 10.0001335, 9.998688 
1.9502392e+2, 2.364155e+2, -694274.94, -814265.7, -51954.39, -0.08463464, 0.114721894, -674905.94, -51769.094, 0.0, 10.000218, 9.998652 
1.9503076e+2, 2.4641377e+2, -469756.75, -698344.4, -38129.086, -0.05805935, 0.099044695, -463564.44, 61588.516, 0.0, 10.001274, 9.998266 
1.9503814e+2, 2.5641122e+2, -159147.48, -513108.84, 16473.867, 0.035772603, -0.009544582, -158382.4, 268793.7, 0.0, 10.002802, 9.998126 
1.95044e+2, 2.6640975e+2, -160311.38, -569743.56, -39994.18, 0.059947588, 0.08645092, -156441.23, 172750.77, 0.0, 10.002576, 9.997182 
1.9504896e+2, 2.764085e+2, -255754.33, -560963.4, -56201.855, 0.044943314, 0.22175649, -245734.17, -14526.91, 0.000000036761158, 10.001217, 9.997231 
1.9505565e+2, 2.8640506e+2, -117914.766, -383910.97, -33925.965, 0.08169726, 0.12690455, -113655.94, 19585.643, 0.0000018181237, 10.001246, 9.997749 
1.9506319e+2, 2.96401e+2, 109149.34, -196616.53, -36281.18, 0.13290553, -0.08662588, 113395.39, 148675.44, 0.000010151812, 10.002008, 9.997998 
1.950704e+2, 3.0640292e+2, 291396.8, -38072.03, 26751.814, 0.025339263, 0.2807321, 293554.84, 293554.84, 0.00003534469, 10.002745, 9.998394 
1.9508062e+2, 3.163989e+2, 318750.5, -64551.313, -33707.387, 0.15634106, 0.037767973, 321692.13, 321692.13, 0.0001028295, 10.003036, 9.998082 
2.0494772e+2, 1.2640578e+2, -2082847.3, -1698786.6, 20389.021, -0.00034120705, -0.0005800974, -1697707.3, 3526.93, 0.0012444656, 9.996572, 10.001747 
2.049549e+2, 1.3640857e+2, -1918997.0, -1602234.4, -55935.703, -0.18734458, 0.102894984, -1592647.1, 10562.883, 0.00070293987, 9.997208, 10.001436 
2.0496435e+2, 1.4641058e+2, -1764015.1, -1531515.3, -97283.23, -0.0235773, 0.19343725, -1496180.0, 9010.9795, 0.00028321997, 9.997828, 10.000937 
2.0497148e+2, 1.5641159e+2, -1571737.8, -1426362.1, -120483.99, -0.038540017, 0.18108937, -1358337.8, 48842.664, 0.000063005726, 9.998642, 10.000592 
2.0497788e+2, 1.664113e+2, -1497971.5, -1498957.8, -124029.48, -0.057943452, 0.17700282, -1374434.1, -65250.13, 0.0000035155435, 9.99917, 9.999163 
2.0498441e+2, 1.7641006e+2, -1341151.6, -1360592.5, -97969.45, -0.0328695, 0.11124786, -1252421.5, -41224.008, 0.0000000004928599, 9.999521, 9.999274 
2.0499149e+2, 1.8641038e+2, -1173209.6, -1150061.1, -63067.152, -0.009102302, 0.17780298, -1097515.0, 15679.114, 0.0, 9.999652, 9.999986 
2.0499867e+2, 1.964115e+2, -1086388.1, -1069776.5, -105839.17, -0.010130554, 0.26704317, -971917.75, 43263.81, 0.0, 9.999623, 9.999879 
2.0500529e+2, 2.0641065e+2, -1037509.1, -1056531.0, -135914.8, 0.006018198, 0.2280964, -910772.9, 6414.642, 0.0, 9.99956, 9.999324 
2.0501167e+2, 2.1640848e+2, -961551.25, -979343.7, -129700.87, 0.042820495, 0.055008702, -840441.9, -21236.203, 0.0, 9.999452, 9.999234 
2.0501824e+2, 2.2640768e+2, -879061.2, -951313.3, -81399.08, 0.04190419, 0.08655572, -826131.6, -104917.92, 0.0, 9.999613, 9.998672 
2.0502493e+2, 2.3640755e+2, -736742.6, -830987.06, -82088.11, 0.015920652, 0.1805208, -689213.06, -65995.875, 0.0, 9.999905, 9.998692 
2.050322e+2, 2.464058e+2, -563137.3, -667210.3, -55217.457, 0.013007117, 0.124758355, -539300.5, -14068.681, 0.0, 10.000305, 9.998941 
2.0503974e+2, 2.56403e+2, -408497.97, -574815.8, -80664.89, 0.018911319, -0.07527569, -375802.53, 51451.48, 0.0, 10.000831, 9.998652 
2.0504588e+2, 2.6640186e+2, -309888.16, -657103.9, -142604.55, 0.044512425, 0.03934005, -258827.94, 70438.82, 0.0, 10.001624, 9.997034 
2.0505124e+2, 2.7640128e+2, -73944.8, -494101.8, -116582.72, 0.087921716, 0.25505164, -43764.05, 187513.45, 0.00000002096579, 10.002574, 9.997025 
2.0505816e+2, 2.8639734e+2, 105008.805, -354144.97, -25359.914, 0.1208766, 0.16057959, 106405.234, 239723.42, 0.0000012828043, 10.003114, 9.997054 
2.0506586e+2, 2.963922e+2, 274874.94, -182023.38, -49710.46, 0.13542096, -0.093480475, 280220.88, 315589.25, 0.000007381431, 10.00343, 9.997411 
2.0507357e+2, 3.0639383e+2, 362416.0, 12541.29, -23126.932, 0.054575827, 0.2602065, 363938.06, 363938.06, 0.000026183789, 10.00317, 9.998547 
2.0508385e+2, 3.163904e+2, 232719.98, -71495.46, -187071.3, 0.21915811, 0.056336828, 321718.94, 321718.94, 0.00007851838, 10.002334, 9.998363 
2.1494544e+2, 1.2639856e+2, -2057450.6, -1626935.1, 20904.02, 0.064745165, 0.30056933, -1625922.5, 75392.5, 0.0011273269, 9.996499, 10.002272 
2.1495187e+2, 1.3639955e+2, -1908640.9, -1582604.5, -22735.613, -0.23515761, 0.20114303, -1581026.6, 22276.07, 0.0006276391, 9.99722, 10.001564 
2.1496202e+2, 1.464006e+2, -1777776.6, -1554550.0, -79046.664, -0.068190165, 0.20148586, -1529393.8, -24102.027, 0.0002466057, 9.997804, 10.00079 
2.1497105e+2, 1.5640192e+2, -1568834.8, -1421078.4, -81954.85, 0.027101548, 0.22912292, -1384618.1, 22661.326, 0.000052325075, 9.998643, 10.000628 
2.1497801e+2, 1.664021e+2, -1447466.0, -1381947.0, -121183.87, 0.013178766, 0.22352925, -1289172.8, 20102.389, 0.000002586899, 9.999117, 9.99999 
2.1498424e+2, 1.7640142e+2, -1305531.0, -1274377.1, -77093.69, -0.022346206, 0.12979208, -1211302.5, -24.894434, 0.000000000052014764, 9.999474, 9.999884 
2.149918e+2, 1.8640026e+2, -1236410.6, -1265351.6, -71757.74, 0.03644244, 0.06718333, -1177678.9, -64392.082, 0.0, 9.99958, 9.999232 
2.1499993e+2, 1.963987e+2, -1132581.0, -1153822.8, -97167.914, 0.12796079, -0.040107273, -1045455.25, -30154.002, 0.0, 9.999572, 9.999326 
2.1500589e+2, 2.0639858e+2, -1022979.0, -1012895.25, -150423.2, 0.08858489, -0.0019554084, -867429.44, 49872.523, 0.0, 9.999496, 9.999656 
2.1501072e+2, 2.1639918e+2, -950947.0, -937966.1, -123035.37, -0.02060026, 0.06880906, -821250.1, -1954.4666, 0.0, 9.999364, 9.99956 
2.1501748e+2, 2.2639892e+2, -886593.25, -939129.1, -79343.82, -0.0141256945, 0.13095984, -829282.25, -107982.766, 0.0, 9.999497, 9.99881 
2.150254e+2, 2.3639797e+2, -746691.6, -822488.75, -59456.74, 0.051726017, 0.12788785, -714082.0, -90771.1, 0.0, 9.9997835, 9.998804 
2.1503334e+2, 2.4639641e+2, -577824.56, -685264.1, -44663.48, 0.07333217, 0.09315798, -561682.75, -36357.93, 0.0, 10.000253, 9.998845 
2.1504132e+2, 2.5639448e+2, -421572.28, -577860.25, -49996.918, 0.07050072, -0.009386547, -406946.78, 20393.756, 0.0, 10.00073, 9.998681 
2.1504778e+2, 2.6639315e+2, -274975.56, -571089.0, -115382.09, 0.050316412, 0.05223477, -235325.55, 94027.54, 0.0, 10.001568, 9.997649 
2.1505329e+2, 2.763918e+2, -59986.023, -440624.75, -72993.664, 0.012681743, 0.12933046, -46468.36, 184899.31, 0.00000000626477, 10.002469, 9.997441 
2.1506046e+2, 2.863883e+2, 55849.76, -444166.1, -23700.373, 0.01636439, 0.09500487, 56970.63, 190375.38, 0.00000075455597, 10.003067, 9.996457 
2.1506852e+2, 2.963842e+2, 215230.98, -290744.16, -30853.318, 0.030450774, 0.0041217464, 217105.4, 252553.81, 0.0000049684672, 10.003366, 9.996696 
2.1507666e+2, 3.063845e+2, 329404.78, -61146.387, -57741.543, 0.026776047, 0.29556113, 337762.8, 337762.8, 0.000019548965, 10.003185, 9.998039 
2.1508662e+2, 3.1638086e+2, 192190.11, -146956.47, -202004.38, 0.21366473, 0.11411466, 286360.75, 286360.75, 0.00006122242, 10.002286, 9.997878 
2.2494297e+2, 1.2638889e+2, -1721965.0, -1486226.9, 76628.78, 0.06275722, 0.31720915, -1463507.6, 237904.72, 0.0009979393, 9.998868, 10.002103 
2.2494961e+2, 1.3639025e+2, -1856184.8, -1578216.9, -53943.598, -0.19726339, 0.27941996, -1568115.5, 35280.074, 0.0005469221, 9.9976845, 10.00136 
2.2496003e+2, 1.4639074e+2, -1811159.0, -1557569.3, -50049.03, -0.027235672, 0.2232438, -1548048.9, -42659.164, 0.00020906674, 9.997513, 10.00092 
2.2496964e+2, 1.5639155e+2, -1642796.5, -1437612.0, -51398.594, 0.056247782, 0.18761723, -1425456.8, -18075.002, 0.000042237294, 9.998054, 10.000806 
2.2497743e+2, 1.6639203e+2, -1437175.3, -1333666.8, -83920.28, 0.055063874, 0.18191251, -1286825.3, 22547.674, 0.0000020119714, 9.998988, 10.000388 
2.2498457e+2, 1.7639202e+2, -1199516.8, -1194911.3, -102077.47, 0.039408185, 0.11849445, -1095110.6, 116256.26, 0.0, 10.000064, 10.000151 
2.2499193e+2, 1.863907e+2, -1228735.9, -1289316.8, -109613.13, 0.08915539, 0.042719763, -1145305.0, -31927.29, 0.0, 9.999755, 9.998978 
2.2499922e+2, 1.9638859e+2, -1293806.6, -1258193.1, -112768.87, 0.15504986, -0.09556561, -1161833.8, -146434.8, 0.0, 9.99859, 9.999082 
2.2500545e+2, 2.0638855e+2, -1092388.6, -1045311.5, -111623.34, 0.12326074, -0.035970416, -954771.9, -37372.027, 0.0, 9.999019, 9.999669 
2.2501114e+2, 2.163896e+2, -805880.0, -862791.8, -128757.445, 0.042818837, 0.077752195, -702471.5, 116918.67, 0.0, 10.000337, 9.999612 
2.2501808e+2, 2.2638941e+2, -695547.5, -820578.3, -91274.33, 0.041705858, 0.13138409, -647432.06, 73960.75, 0.0, 10.000691, 9.999052 
2.2502577e+2, 2.3638836e+2, -636806.4, -743730.8, -81330.82, 0.08591781, 0.09372845, -592939.75, 30464.32, 0.0, 10.000433, 9.999031 
2.2503403e+2, 2.4638727e+2, -531698.4, -666831.75, -26031.92, 0.1060799, 0.09849766, -526857.06, -1442.8921, 0.0, 10.000584, 9.9988165 
2.250426e+2, 2.5638607e+2, -374194.34, -555401.44, -43330.43, 0.116865635, 0.07334228, -364366.2, 63058.54, 0.0, 10.00105, 9.998689 
2.2504956e+2, 2.6638448e+2, -251188.56, -530534.44, -94829.46, 0.07486095, 0.091293596, -222038.64, 107400.92, 0.0, 10.001606, 9.997907 
2.2505558e+2, 2.7638236e+2, -69443.664, -416159.28, -102241.19, 0.01075243, 0.06305515, -41539.973, 189919.83, 0.00000000006385136, 10.002273, 9.9977045 
2.2506313e+2, 2.863794e+2, -63454.633, -463535.9, -30032.828, 0.032801993, 0.051793694, -61212.727, 72277.984, 0.00000032397858, 10.002078, 9.9968 
2.2507143e+2, 2.9637644e+2, -67424.45, -403727.2, 14347.113, 0.09563712, 0.043924727, -66813.5, -31290.664, 0.000003287384, 10.001328, 9.996897 
2.2507977e+2, 3.0637598e+2, 136996.7, -171205.02, 77197.484, 0.091736145, 0.26041594, 155251.66, 155251.66, 0.00001589248, 10.001939, 9.997875 
2.2508931e+2, 3.163724e+2, 329652.53, -103472.85, -88353.18, 0.21405551, 0.08768138, 346982.28, 346982.28, 0.000052100033, 10.0033245, 9.997672 
2.3493975e+2, 1.263767e+2, -1786080.6, -1617814.6, 8779.878, -0.2001589, 0.03933652, -1617357.8, 84168.38, 0.0008671324, 9.998876, 10.001193 
2.3494776e+2, 1.3638058e+2, -1898142.4, -1673988.6, -91857.27, -0.1761518, 0.3411658, -1641155.3, -37665.51, 0.0004662031, 9.997713, 10.000695 
2.3495798e+2, 1.4638074e+2, -1784249.5, -1484037.5, -43612.547, -0.0061816494, 0.25034893, -1477830.1, 27656.928, 0.00017258529, 9.99744, 10.00146 
2.349669e+2, 1.5638037e+2, -1613668.1, -1375585.5, -16649.691, -0.048145205, 0.04663385, -1374426.8, 33061.34, 0.000033446406, 9.998046, 10.001237 
2.3497584e+2, 1.6638097e+2, -1455496.6, -1356870.0, -53143.52, -0.02552712, 0.04195379, -1333684.8, -24206.262, 0.0000017722703, 9.998927, 10.00026 
2.3498516e+2, 1.7638177e+2, -1204378.3, -1197670.6, -62751.4, 0.068256125, 0.06899236, -1138183.5, 73282.9, 0.0000000001389195, 10.0000305, 10.000151 
2.3499162e+2, 1.8638171e+2, -1229010.6, -1268679.1, -164059.63, 0.061365772, 0.1077565, -1083590.6, 29876.104, 0.0, 9.999667, 9.999164 
2.3499623e+2, 1.963811e+2, -1294392.8, -1245725.6, -136315.58, -0.025049666, 0.105212465, -1131588.8, -116113.625, 0.0, 9.998532, 9.999196 
2.3500358e+2, 2.0638052e+2, -1127683.0, -1093976.0, -70771.9, 0.017009871, 0.120302014, -1038078.6, -120596.88, 0.0, 9.998914, 9.999384 
2.3501262e+2, 2.1637975e+2, -836471.4, -900130.1, -76533.6, 0.13575715, 0.078067504, -785412.25, 34076.918, 0.0, 10.000221, 9.999412 
2.3501977e+2, 2.2637923e+2, -691087.44, -782130.6, -109451.914, 0.12221686, 0.09022139, -618068.2, 103424.95, 0.0, 10.000572, 9.999373 
2.3502582e+2, 2.3637876e+2, -631215.4, -709624.9, -77518.12, 0.024645401, 0.08287076, -583552.0, 39944.16, 0.0, 10.000335, 9.999315 
2.350339e+2, 2.4637832e+2, -535108.5, -661051.8, -18725.25, 0.01200564, 0.13493001, -532383.44, -6882.682, 0.0, 10.000527, 9.998881 
2.3504323e+2, 2.5637776e+2, -386455.6, -556734.2, -14994.258, 0.052404877, 0.16561098, -385145.3, 42362.195, 0.0, 10.000945, 9.998729 
2.3505093e+2, 2.6637584e+2, -266479.66, -548089.9, -77642.01, 0.030976554, 0.15767367, -246491.86, 83034.13, 0.0, 10.001548, 9.997814 
2.3505777e+2, 2.7637294e+2, -72977.46, -407245.1, -71988.664, -0.021201637, 0.057145566, -58133.035, 173420.86, 0.0, 10.002197, 9.997806 
2.3506574e+2, 2.8637064e+2, 23190.7, -276967.7, -67203.586, 0.06368334, 0.03568165, 37550.207, 171126.06, 0.00000009734078, 10.002052, 9.998095 
2.3507425e+2, 2.963689e+2, -1433.4271, -250461.34, 5962.6475, 0.21604118, 0.025289383, -1290.7411, 34301.906, 0.0000024854203, 10.001252, 9.997991 
2.3508254e+2, 3.0636817e+2, 157125.25, -129099.02, 124219.39, 0.14912722, 0.15253256, 203516.52, 203516.52, 0.00001465121, 10.001933, 9.998169 
2.3509124e+2, 3.16365e+2, 328963.66, -96838.38, -19525.053, 0.024162093, -0.010317597, 329857.1, 329857.1, 0.000049295926, 10.003277, 9.9977455 
2.4493846e+2, 1.2636696e+2, -1891757.4, -1694319.4, 30505.014, -0.17612965, -0.0019094198, -1689713.8, 11905.425, 0.0007416808, 9.998268, 10.000962 
2.449464e+2, 1.3637038e+2, -1808233.8, -1646150.4, -52851.957, -0.1066007, 0.26707006, -1630439.4, -26852.957, 0.00038814702, 9.9984, 10.00056 
2.4495637e+2, 1.4637037e+2, -1630654.8, -1445617.5, 36601.723, 0.0377597, 0.18156862, -1438640.5, 66946.15, 0.00013769997, 9.998646, 10.001132 
2.4496542e+2, 1.5637076e+2, -1483786.0, -1344946.8, -25705.44, -0.04397702, 0.08682091, -1340340.4, 67241.96, 0.000025817635, 9.999084, 10.0009365 
2.4497485e+2, 1.663714e+2, -1409864.1, -1312536.5, -53300.684, -0.022478675, 0.08978582, -1289026.0, 20547.09, 0.0000016011192, 9.999146, 10.00046 
2.4498491e+2, 1.763718e+2, -1354298.1, -1246564.0, -62656.42, 0.103182875, 0.05536541, -1217802.4, -6237.359, 0.0000000006420841, 9.998903, 10.00036 
2.4499153e+2, 1.8637222e+2, -1242561.9, -1237719.6, -149470.63, 0.10313236, 0.11509104, -1090650.5, 22910.107, 0.0, 9.999416, 9.999493 
2.4499595e+2, 1.9637263e+2, -1017221.06, -1085113.5, -126739.37, 0.01066015, 0.18119155, -919960.56, 95598.28, 0.0, 10.000325, 9.999428 
2.4500342e+2, 2.0637187e+2, -927704.75, -1033141.0, -23311.875, 0.039959125, 0.18590175, -922780.5, -5213.2017, 0.0, 10.000438, 9.999064 
2.4501285e+2, 2.1637025e+2, -892624.44, -956666.4, -53278.89, 0.15689543, 0.092429936, -862484.5, -42901.484, 0.0, 9.9999695, 9.999141 
2.4502057e+2, 2.2636934e+2, -743904.4, -805587.5, -90489.38, 0.16917032, 0.07473805, -679145.06, 42445.21, 0.0, 10.000198, 9.99939 
2.4502726e+2, 2.3636875e+2, -558042.0, -668984.44, -97682.07, 0.117224105, 0.05073079, -501179.6, 122414.016, 0.0, 10.000821, 9.999354 
2.4503493e+2, 2.463684e+2, -486962.7, -627886.06, -32004.922, 0.05168615, 0.10479563, -480034.7, 45562.418, 0.0, 10.00081, 9.9989805 
2.450432e+2, 2.5636807e+2, -449369.25, -568418.06, -41540.137, -0.012825324, 0.15050255, -436307.6, -8705.832, 0.0, 10.000436, 9.998895 
2.450518e+2, 2.663665e+2, -333405.13, -535119.44, -34721.496, 0.0015760731, 0.14354582, -327595.75, 2021.4841, 0.0, 10.00088, 9.998232 
2.450607e+2, 2.7636406e+2, -98489.43, -370055.28, -14447.397, 0.078002855, 0.04769131, -97722.984, 133917.44, 0.0, 10.001818, 9.998242 
2.4506885e+2, 2.8636235e+2, 68765.47, -223452.28, -55822.457, 0.16541664, 0.048725117, 79066.16, 212722.92, 0.00000009803459, 10.002228, 9.998382 
2.4507636e+2, 2.96361e+2, 182734.86, -126640.05, -71382.414, 0.2511008, 0.046271715, 198410.72, 234080.56, 0.0000023443192, 10.002369, 9.998304 
2.4508502e+2, 3.063603e+2, 240249.97, -64553.86, 74667.18, 0.18940093, 0.15186262, 257558.19, 257558.19, 0.000014050109, 10.002418, 9.998375 
2.4509406e+2, 3.1635755e+2, 198382.89, -118277.04, -123346.58, 0.04148164, 0.014057665, 240758.56, 240758.56, 0.000047419504, 10.002234, 9.998087 
2.5493845e+2, 1.2635979e+2, -1860628.3, -1623792.5, 14837.271, -0.053567257, 0.2063055, -1622866.6, 78823.15, 0.000622871, 9.998245, 10.001456 
2.5494537e+2, 1.3635965e+2, -1769732.9, -1561474.6, -39628.027, -0.075194925, 0.042757753, -1554188.9, 49496.773, 0.00031436078, 9.998391, 10.001139 
2.549551e+2, 1.463596e+2, -1726980.0, -1641170.0, 41619.09, 0.01747115, 0.00205426, -1624300.5, -118612.086, 0.00010539114, 9.998623, 9.999803 
2.5496477e+2, 1.5636271e+2, -1558698.1, -1497546.0, -2415.3408, -0.044667006, 0.30799454, -1497450.8, -89786.11, 0.000019009012, 9.999069, 9.999896 
2.5497407e+2, 1.6636339e+2, -1384066.5, -1240485.3, -72045.69, -0.038095668, 0.32736257, -1210568.1, 99088.516, 0.0000013062046, 9.999073, 10.000988 
2.5498345e+2, 1.763622e+2, -1323361.3, -1172814.3, -54978.06, 0.044884413, 0.08449683, -1154874.6, 56787.48, 0.000000000635992, 9.998871, 10.000876 
2.5499132e+2, 1.8636231e+2, -1219781.8, -1177426.5, -123156.67, 0.118180305, 0.064405486, -1073639.9, 40018.867, 0.0, 9.999354, 9.99994 
2.5499806e+2, 1.963631e+2, -998901.44, -1034801.6, -89515.11, 0.16305159, 0.12283412, -925554.44, 90096.37, 0.0, 10.000267, 9.999801 
2.5500476e+2, 2.0636256e+2, -975501.3, -1102925.9, -49929.055, 0.11239439, 0.15670288, -958268.1, -40611.367, 0.0, 10.000313, 9.998646 
2.5501156e+2, 2.1636102e+2, -931587.0, -1018242.1, -55784.37, 0.006950692, 0.11001759, -904280.5, -84607.61, 0.0, 9.999886, 9.998758 
2.550201e+2, 2.2635967e+2, -773163.75, -845022.44, -76497.71, 0.08482843, 0.07862942, -724577.94, -2892.7427, 0.0, 10.000106, 9.999165 
2.5502974e+2, 2.3635827e+2, -585381.25, -702523.25, -68869.91, 0.26099834, -0.0044472064, -553544.1, 70152.59, 0.0, 10.000718, 9.999175 
2.5503677e+2, 2.4635753e+2, -489950.8, -617805.3, -55936.086, 0.13561599, 0.010865904, -468933.72, 56769.504, 0.0, 10.000742, 9.999081 
2.5504225e+2, 2.56357e+2, -448589.06, -545362.6, -41483.91, -0.17277393, 0.026178645, -433240.5, -5532.279, 0.0, 10.000339, 9.999103 
2.5505188e+2, 2.663564e+2, -272730.72, -394533.8, -7826.571, -0.09987487, 0.051751148, -272229.88, 57483.906, 0.0, 10.000823, 9.999224 
2.5506407e+2, 2.763556e+2, -57842.73, -266176.5, 27747.3, 0.20750862, 0.024763996, -54210.484, 177510.66, 0.0, 10.001726, 9.999004 
2.5507206e+2, 2.8635436e+2, 10426.753, -326814.4, -61255.098, 0.24306123, 0.07926122, 21208.2, 154943.17, 0.00000013920514, 10.002163, 9.997695 
2.5507736e+2, 2.9635268e+2, 126639.16, -212939.06, -57791.938, 0.090551086, 0.11143672, 136205.14, 171959.42, 0.0000022917138, 10.00225, 9.997763 
2.5508696e+2, 3.063522e+2, 246816.08, -49641.133, 63044.902, 0.11931024, 0.25188062, 259666.28, 259666.28, 0.000012885881, 10.002412, 9.99848 
2.5509718e+2, 3.1634971e+2, 223200.53, -58245.805, -102056.91, 0.07682138, 0.13646734, 256312.4, 256312.4, 0.000044516015, 10.002193, 9.998526 
2.6493758e+2, 1.2635094e+2, -1998209.1, -1714768.0, 37029.35, 0.09001051, 0.28389964, -1710010.3, -8233.803, 0.0005136847, 9.997384, 10.001247 
2.6494437e+2, 1.3634986e+2, -1757453.4, -1548457.4, -109230.79, -0.0032568702, 0.006538315, -1501789.3, 101991.59, 0.0002486243, 9.998406, 10.001232 
2.6495394e+2, 1.4634955e+2, -1730257.9, -1669978.8, 22334.469, 0.040873237, -0.049139664, -1662605.4, -156819.48, 0.00007773356, 9.998731, 9.99955 
2.6496422e+2, 1.5635285e+2, -1585811.8, -1534818.9, 29753.902, 0.0044046133, 0.3001036, -1521131.6, -113371.1, 0.000013419433, 9.998991, 9.9996805 
2.6497337e+2, 1.6635363e+2, -1449060.3, -1270765.0, -42164.082, 0.014056923, 0.33843198, -1261296.6, 48455.742, 0.0000010267595, 9.998617, 10.001005 
2.64982e+2, 1.7635253e+2, -1483575.5, -1245475.6, -74515.42, 0.075204656, 0.10262039, -1224078.3, -12320.012, 0.0000000012219834, 9.997746, 10.000921 
2.649904e+2, 1.8635261e+2, -1341113.0, -1207467.0, -89259.74, 0.14279619, 0.06439131, -1162788.4, -49033.863, 0.0, 9.998402, 10.000192 
2.6499844e+2, 1.9635336e+2, -1037219.0, -1032235.2, -101321.91, 0.19995539, 0.094821766, -933374.56, 82370.97, 0.0, 9.999909, 9.999996 
2.650054e+2, 2.0635292e+2, -953709.06, -1085249.8, -75541.03, 0.14415564, 0.12717883, -919318.6, -1568.1838, 0.0, 10.000436, 9.998706 
2.6501176e+2, 2.1635161e+2, -872596.94, -987832.44, -64829.844, 0.02356364, 0.099794745, -843481.1, -23715.877, 0.0, 10.000285, 9.998776 
2.6502022e+2, 2.2635058e+2, -746482.3, -830904.7, -24787.354, 0.08202649, 0.09863487, -739742.56, -17967.031, 0.0, 10.000276, 9.999185 
2.6503e+2, 2.3634961e+2, -641785.06, -730113.44, -23775.45, 0.24418242, 0.05837505, -635792.0, -12008.142, 0.0, 10.000323, 9.999184 
2.6503754e+2, 2.4634856e+2, -507044.88, -611908.0, 5997.9863, 0.15117934, 0.037800588, -506702.9, 19089.47, 0.0, 10.000584, 9.999188 
2.6504368e+2, 2.563473e+2, -340046.88, -477191.84, 6885.811, -0.09278219, -0.031692613, -339702.0, 88100.33, 0.0, 10.001036, 9.999223 
2.6505357e+2, 2.66347e+2, -239597.64, -371679.34, 24243.697, -0.020882059, 0.014913605, -235288.3, 94517.11, 0.0, 10.001016, 9.999291 
2.650657e+2, 2.7634722e+2, -194605.47, -319117.03, -27813.576, 0.25604317, 0.08417587, -188674.9, 43129.715, 0.0, 10.000746, 9.999106 
2.6507363e+2, 2.8634608e+2, -114351.67, -392258.53, -82150.4, 0.23202078, 0.1412669, -91884.086, 41933.67, 0.00000017298198, 10.001313, 9.99766 
2.6507884e+2, 2.9634374e+2, 141316.1, -208839.3, -51733.813, 0.01714923, 0.11101746, 148799.58, 184641.75, 0.000002277503, 10.002339, 9.997758 
2.6508963e+2, 3.0634254e+2, 237400.73, -106185.6, 63172.79, 0.15090492, 0.20107341, 248647.7, 248647.7, 0.000011802607, 10.002549, 9.998043 
2.6510036e+2, 3.1633997e+2, 221524.55, -38130.887, -154891.3, 0.19579996, 0.12720293, 293802.13, 293802.13, 0.000041814706, 10.0020685, 9.998734 
2.7493536e+2, 1.263402e+2, -2062423.5, -1848214.6, 43365.62, 0.06937639, 0.20814091, -1839768.5, -137887.33, 0.00042107303, 9.997377, 10.000337 
2.7494296e+2, 1.3634108e+2, -1775878.8, -1589940.8, -73082.04, -0.011982229, 0.17700775, -1564654.9, 39216.207, 0.00019522583, 9.998419, 10.000939 
2.7495247e+2, 1.4634039e+2, -1677066.6, -1555297.6, 15377.374, -0.008430904, 0.04597094, -1553385.8, -47508.36, 0.000056360343, 9.9987135, 10.000345 
2.7496356e+2, 1.563412e+2, -1544733.9, -1444865.1, 46000.85, 0.012378548, 0.0710247, -1426906.1, -19036.582, 0.000009372096, 9.998978, 10.000303 
2.749725e+2, 1.6634212e+2, -1485781.8, -1338960.9, -84949.21, 0.043428503, 0.12199536, -1300097.4, 9763.02, 0.0000008660051, 9.998584, 10.000549 
2.749802e+2, 1.7634274e+2, -1516748.3, -1307550.8, -86703.27, 0.090595834, 0.102741614, -1276287.9, -64433.98, 0.000000004874734, 9.997722, 10.000504 
2.749884e+2, 1.8634312e+2, -1355314.3, -1215841.9, -41475.703, 0.08027348, 0.11523283, -1204440.1, -90591.9, 0.0, 9.998314, 10.0001745 
2.7499682e+2, 1.9634338e+2, -1040080.3, -1023124.8, -41153.89, 0.02098885, 0.09371494, -989584.5, 26258.543, 0.0, 9.999852, 10.000082 
2.75005e+2, 2.0634302e+2, -934101.44, -1023901.2, -90800.08, 0.042001773, 0.104133345, -877706.44, 40141.023, 0.0, 10.000347, 9.999173 
2.7501306e+2, 2.1634203e+2, -858410.75, -929692.6, -59439.984, 0.105979085, 0.06114143, -824745.2, -4885.141, 0.0, 10.000163, 9.999232 
2.7502063e+2, 2.2634205e+2, -753778.1, -814640.4, -32100.318, 0.07357027, 0.13630377, -739977.1, -18115.822, 0.0, 10.000142, 9.999362 
2.7502784e+2, 2.363426e+2, -646178.3, -711620.8, -12059.2295, -0.02482748, 0.22899838, -644026.9, -20170.293, 0.0, 10.000205, 9.999368 
2.750369e+2, 2.4634132e+2, -507176.63, -596510.3, 13545.258, 0.008706625, 0.17130513, -505167.97, 20698.043, 0.0, 10.000517, 9.999325 
2.7504706e+2, 2.5633878e+2, -353750.16, -486307.28, 29782.99, 0.11622012, -0.040361024, -347365.97, 80519.836, 0.0, 10.000945, 9.999207 
2.7505645e+2, 2.663382e+2, -308880.16, -500731.63, 888.775, 0.14681788, 0.027792552, -308876.03, 21016.926, 0.0, 10.000956, 9.998434 
2.7506536e+2, 2.7633873e+2, -254823.02, -425768.9, -22509.908, 0.12701876, 0.21163641, -251908.63, -20015.453, 0.00000000009324417, 10.000664, 9.998417 
2.7507332e+2, 2.8633714e+2, -72250.04, -292157.22, -52883.766, 0.04650798, 0.21857508, -60193.45, 73714.875, 0.00000023612336, 10.001266, 9.998366 
2.7508047e+2, 2.9633403e+2, 170007.72, -132765.22, -7543.136, -0.08693025, 0.038930558, 170195.52, 206130.48, 0.0000024951785, 10.002267, 9.998315 
2.7509263e+2, 3.0633146e+2, 175977.25, -225329.55, 37712.063, 0.17241737, 0.012116505, 179490.42, 179490.42, 0.000011675634, 10.002523, 9.997228 
2.7510294e+2, 3.1632867e+2, 196562.5, -62267.063, -118074.74, 0.19309798, 0.0008000234, 242332.86, 242332.86, 0.000040362796, 10.001951, 9.998623 
2.8493276e+2, 1.2632884e+2, -2028650.1, -1853635.4, 30983.867, 0.068345696, 0.15004086, -1848312.1, -146319.6, 0.00034660724, 9.997717, 10.000132 
2.8494203e+2, 1.3633133e+2, -1794650.3, -1582105.3, -87827.07, 0.072069936, 0.27972093, -1550510.4, 53459.844, 0.00015383559, 9.998241, 10.001067 
2.8495136e+2, 1.4633119e+2, -1748572.4, -1526928.1, -1670.5712, 0.05489583, 0.16558008, -1526915.5, -20945.207, 0.00004093297, 9.997953, 10.000909 
2.849622e+2, 1.5633084e+2, -1756985.4, -1495490.9, -7023.872, 0.07556397, 0.020571297, -1495302.4, -87331.89, 0.0000066741927, 9.997286, 10.000778 
2.8497127e+2, 1.6633178e+2, -1586310.8, -1396257.0, -91858.914, 0.099625625, 0.058793645, -1359116.6, -49155.79, 0.00000074756446, 9.997944, 10.000466 
2.8497913e+2, 1.763332e+2, -1274924.6, -1201654.3, -86295.23, 0.13301219, 0.1325771, -1144539.8, 67408.6, 0.000000006090155, 9.999423, 10.000419 
2.8498763e+2, 1.8633355e+2, -1143908.3, -1095502.9, 6020.04, 0.11293802, 0.13516454, -1094765.4, 19177.28, 0.0, 9.999686, 10.000339 
2.8499654e+2, 1.9633323e+2, -1129932.8, -1047600.06, -4914.19, 0.052388065, 0.043499086, -1047307.8, -31366.33, 0.0, 9.99915, 10.000256 
2.8500494e+2, 2.0633328e+2, -1066012.8, -1043750.0, -51084.766, 0.0597982, 0.06448909, -1002597.9, -84656.164, 0.0, 9.999259, 9.999551 
2.850129e+2, 2.1633333e+2, -903910.4, -915196.2, -47194.055, 0.10537521, 0.087309286, -862023.06, -42078.086, 0.0, 9.999698, 9.999552 
2.8502074e+2, 2.2633365e+2, -742353.25, -794021.1, 317.62204, 0.07686, 0.1723199, -742351.3, -20407.426, 0.0, 10.000163, 9.999489 
2.850285e+2, 2.3633403e+2, -575981.2, -666523.44, -3812.856, 0.0023638534, 0.23731522, -575820.9, 48120.297, 0.0, 10.000641, 9.999466 
2.8503785e+2, 2.4633293e+2, -461084.13, -581831.5, 31688.414, 0.040701136, 0.19507551, -453273.25, 72676.164, 0.0, 10.000852, 9.999268 
2.8504828e+2, 2.563309e+2, -362858.7, -499712.75, 11312.04, 0.15372951, 0.037738465, -361929.97, 66034.62, 0.0, 10.000927, 9.99912 
2.8505766e+2, 2.6632988e+2, -317997.16, -539830.7, 12281.104, 0.1748301, 0.086307414, -317319.3, 12656.342, 0.0, 10.001053, 9.998111 
2.8506646e+2, 2.763293e+2, -195570.63, -423775.66, 13052.765, 0.15249677, 0.19122861, -194826.47, 37159.832, 0.0000000018932573, 10.001183, 9.998178 
2.8507483e+2, 2.8632754e+2, -39945.9, -252120.05, 25638.22, 0.07280562, 0.17642099, -36891.848, 97110.18, 0.00000028816427, 10.001375, 9.998597 
2.8508273e+2, 2.963251e+2, 101449.695, -133084.6, 13307.461, -0.04663973, 0.036637306, 102202.34, 138223.3, 0.0000027347362, 10.001669, 9.998595 
2.8509536e+2, 3.063223e+2, 98405.63, -251585.06, 73959.016, 0.23551708, -0.033289004, 113392.67, 113392.67, 0.000012525966, 10.001927, 9.997331 
2.851051e+2, 3.1632072e+2, 182396.28, -46805.094, -18734.518, 0.23687856, 0.062230855, 183917.52, 183917.52, 0.000040482097, 10.001752, 9.998816 
2.949291e+2, 1.26317e+2, -1989645.1, -1784779.8, 7619.0815, -0.13560496, 0.12567598, -1784496.8, -82387.78, 0.00028487924, 9.997761, 10.000586 
2.9494128e+2, 1.363206e+2, -1761938.5, -1517091.9, -69844.53, 0.14618093, 0.31615767, -1498569.4, 105508.93, 0.000121053716, 9.9982605, 10.001502 
2.949503e+2, 1.463219e+2, -1722882.8, -1479338.3, -44129.84, 0.121778, 0.30885774, -1471588.6, 34476.79, 0.000029834508, 9.997963, 10.001236 
2.949598e+2, 1.5632175e+2, -1738141.3, -1452715.4, -14754.027, 0.07925623, 0.14693041, -1451954.8, -43890.96, 0.000004731658, 9.997267, 10.001081 
2.9496926e+2, 1.6632266e+2, -1576630.3, -1363430.9, -43933.07, 0.0844131, 0.15747981, -1354732.6, -44678.91, 0.00000054097734, 9.997893, 10.000713 
2.9497853e+2, 1.7632408e+2, -1257953.1, -1158791.5, -25916.598, 0.10404196, 0.2017218, -1152426.6, 59613.297, 0.0000000012704189, 9.9994, 10.000718 
2.949879e+2, 1.86324e+2, -1132594.1, -1059422.4, -24439.271, 0.14295667, 0.1316949, -1052010.4, 62026.227, 0.0, 9.999627, 10.000618 
2.9499733e+2, 1.9632289e+2, -1119561.6, -1012402.94, -10715.859, 0.19059624, -0.06678538, -1011341.9, 4699.4, 0.0, 9.999091, 10.0005245 
2.950048e+2, 2.0632367e+2, -1063841.3, -1012873.56, -42577.652, 0.10063051, 0.0014736468, -988736.0, -70702.14, 0.0, 9.999148, 9.999815 
2.9501095e+2, 2.1632546e+2, -904054.1, -886133.1, -19035.342, -0.0836426, 0.1716493, -874054.7, -54034.07, 0.0, 9.999575, 9.999807 
2.9502028e+2, 2.2632536e+2, -758282.3, -796045.0, 8548.913, -0.005884488, 0.19984326, -756437.1, -34413.62, 0.0, 10.000031, 9.999537 
2.9503158e+2, 2.3632398e+2, -591948.94, -671325.2, 23693.084, 0.22887865, 0.08509804, -585414.7, 38622.695, 0.0, 10.000523, 9.999488 
2.9504016e+2, 2.4632356e+2, -487314.66, -620107.94, 24583.047, 0.16351886, 0.12148076, -482909.9, 43130.957, 0.0, 10.000779, 9.999044 
2.950471e+2, 2.5632358e+2, -386104.66, -531557.7, 23831.553, -0.0802961, 0.19504802, -382299.53, 45739.73, 0.0, 10.00085, 9.998946 
2.950569e+2, 2.663219e+2, -307233.2, -508569.4, 8651.545, -0.029413793, 0.17133273, -306862.1, 23193.396, 0.0, 10.001012, 9.998345 
2.950685e+2, 2.76319e+2, -192922.81, -401265.44, 26375.406, 0.21167609, 0.020641735, -189635.66, 42448.875, 0.0000000016821552, 10.001105, 9.99837 
2.9507777e+2, 2.8631747e+2, -57546.313, -282218.16, 24796.94, 0.20385101, 0.02955043, -54842.035, 79255.91, 0.00000022409213, 10.001346, 9.998406 
2.9508537e+2, 2.963168e+2, 90203.08, -148987.08, 39737.113, 0.016408397, 0.09409214, 96631.89, 132732.9, 0.0000026534976, 10.001626, 9.998514 
2.950976e+2, 3.0631486e+2, 169024.3, -96921.29, 62644.332, 0.23897164, 0.05281815, 183041.56, 183041.56, 0.00001292508, 10.001898, 9.998404 
2.951061e+2, 3.163154e+2, 214660.33, 27287.854, 39452.684, 0.10438725, 0.25219822, 222628.53, 222628.53, 0.00004085486, 10.001718, 9.999341 
3.0492732e+2, 1.2630607e+2, -1989250.4, -1764785.4, 115067.26, -0.07262518, 0.07182243, -1716280.3, -14066.973, 0.00023189351, 9.997687, 10.000764 
3.0493945e+2, 1.3630922e+2, -1893513.1, -1578058.8, -23057.664, 0.19304818, 0.21717463, -1576382.3, 27805.836, 0.000094942065, 9.997329, 10.001545 
3.0494803e+2, 1.4631157e+2, -1762809.3, -1454553.8, 11126.4375, 0.12570453, 0.29162326, -1454152.6, 52013.57, 0.000021738364, 9.997533, 10.001596 
3.0495757e+2, 1.5631244e+2, -1578284.3, -1339498.1, 15237.586, 0.09013721, 0.20032397, -1338529.6, 69626.07, 0.0000030875526, 9.998223, 10.001387 
3.0496746e+2, 1.6631354e+2, -1510221.5, -1314831.9, 23015.168, 0.105515674, 0.20558396, -1312157.5, -2013.6843, 0.0000002653173, 9.9982605, 10.00087 
3.0497724e+2, 1.763147e+2, -1477726.6, -1249299.8, 9782.234, 0.12532654, 0.20864432, -1248881.5, -36749.855, 0.0, 9.997819, 10.000858 
3.0498692e+2, 1.8631469e+2, -1336476.6, -1172621.8, -2864.096, 0.16018441, 0.14436072, -1172571.6, -58442.832, 0.0, 9.998297, 10.000485 
3.0499664e+2, 1.9631374e+2, -1094152.9, -1013150.2, -42228.973, 0.20637354, -0.021317014, -995139.6, 20994.031, 0.0, 9.999309, 10.000426 
3.0500412e+2, 2.0631447e+2, -997514.1, -930004.5, -66047.05, 0.112728424, 0.022732837, -889586.56, 28538.75, 0.0, 9.999376, 10.000284 
3.0501026e+2, 2.1631615e+2, -984453.5, -885882.1, -46565.395, -0.06762184, 0.13831182, -867363.56, -47253.617, 0.0, 9.998842, 10.000174 
3.0502003e+2, 2.2631593e+2, -867205.3, -866739.4, 24719.168, 0.0037694809, 0.14791226, -842252.06, -120138.77, 0.0, 9.99936, 9.999377 
3.05032e+2, 2.3631449e+2, -605433.94, -694135.4, -2223.2437, 0.22932811, 0.039830256, -605378.25, 18750.762, 0.0, 10.000507, 9.999337 
3.0504078e+2, 2.463142e+2, -512805.03, -639077.2, -11766.673, 0.16203022, 0.10130748, -511717.9, 14414.178, 0.0, 10.000641, 9.998979 
3.0504754e+2, 2.5631446e+2, -476050.4, -574303.0, -12048.941, -0.08272104, 0.20517662, -474594.38, -46465.42, 0.0, 10.00024, 9.99894 
3.0505773e+2, 2.6631278e+2, -353229.78, -523397.8, 14890.21, -0.023633268, 0.17387952, -351936.7, -21791.78, 0.0, 10.000656, 9.99842 
3.0507004e+2, 2.7630973e+2, -113426.9, -355955.06, -656.36145, 0.23493083, 0.0005130724, -113425.125, 118749.05, 0.00000000014964384, 10.001618, 9.998437 
3.0507985e+2, 2.8630823e+2, 13253.089, -236125.64, 8362.243, 0.2613206, 0.007893633, 13533.18, 147719.69, 0.00000013461268, 10.001797, 9.998495 
3.0508792e+2, 2.963079e+2, 67236.82, -149826.77, 24829.822, 0.12780763, 0.09426356, 70040.875, 106227.55, 0.0000024184974, 10.001444, 9.998584 
3.0509993e+2, 3.0630597e+2, 176660.44, -83648.164, 44358.37, 0.29400185, 0.04864634, 184011.8, 184011.8, 0.00001259153, 10.001903, 9.9985075 
3.0510807e+2, 3.163063e+2, 309087.75, 15120.417, -56784.387, 0.09305098, 0.22303452, 319675.22, 319675.22, 0.000039631555, 10.002615, 9.99884 
3.1492698e+2, 1.2629633e+2, -1988756.5, -1765473.0, 46771.605, 0.0738747, 0.018753566, -1756071.5, -53768.85, 0.00018871382, 9.997705, 10.000747 
3.149361e+2, 1.3629742e+2, -1924818.1, -1623165.8, -24759.213, 0.10142387, -0.0050932863, -1621147.0, -16849.963, 0.00007509751, 9.997271, 10.001255 
3.149441e+2, 1.4630038e+2, -1746133.5, -1421149.5, 24742.738, -0.05126707, 0.13087098, -1419276.5, 86994.02, 0.00001598166, 9.997522, 10.001835 
3.149552e+2, 1.5630291e+2, -1560874.5, -1307066.3, 47646.977, 0.0020406926, 0.17864116, -1298416.4, 109829.99, 0.00000170519, 9.998238, 10.001601 
3.1496564e+2, 1.6630436e+2, -1510817.8, -1311049.1, -8133.725, 0.07100594, 0.20778641, -1310718.5, -486.7509, 0.000000057148895, 9.998232, 10.000915 
3.1497502e+2, 1.7630506e+2, -1485237.6, -1255264.6, 5883.9087, 0.099434964, 0.15686756, -1255114.1, -42890.44, 0.0, 9.997777, 10.000838 
3.1498447e+2, 1.8630558e+2, -1386487.3, -1262698.0, 25038.26, 0.061914805, 0.18194075, -1257825.5, -143606.53, 0.0, 9.998231, 9.999901 
3.1499407e+2, 1.9630578e+2, -1130494.8, -1073948.0, -887.0401, -0.0047552283, 0.18438758, -1073934.0, -57715.715, 0.0, 9.999246, 10.000038 
3.150026e+2, 2.0630577e+2, -973847.94, -850966.56, -97639.984, 0.003657057, 0.13586979, -797044.7, 121170.53, 0.0, 9.999254, 10.000883 
3.1501046e+2, 2.1630548e+2, -969608.6, -824790.94, -48346.258, 0.047992468, -0.00345797, -810134.3, 10077.745, 0.0, 9.998718, 10.000649 
3.1501958e+2, 2.2630548e+2, -905499.5, -925871.25, 59111.703, 0.0036213978, 0.026443094, -855702.5, -133490.2, 0.0, 9.999268, 9.999021 
3.150295e+2, 2.3630546e+2, -639498.44, -744356.25, 43416.973, -0.09318535, 0.09994286, -623855.1, 361.3404, 0.0, 10.000413, 9.999043 
3.150394e+2, 2.4630475e+2, -512028.66, -624457.2, -38031.668, -0.06401105, 0.12401895, -500372.1, 25851.852, 0.0, 10.000587, 9.999102 
3.1504923e+2, 2.5630352e+2, -483512.63, -565065.2, -13998.0625, 0.039392315, 0.067621306, -481176.8, -52942.867, 0.0, 10.0001335, 9.999055 
3.150598e+2, 2.663026e+2, -361186.13, -531211.5, 42138.12, 0.09602704, 0.10428165, -351315.84, -21072.533, 0.0, 10.000617, 9.998387 
3.150708e+2, 2.763014e+2, -121236.945, -358907.1, 40712.984, 0.12262495, 0.12430191, -114456.25, 117799.2, 0.00000000001473293, 10.0015545, 9.998451 
3.1508073e+2, 2.862998e+2, 28706.85, -194602.31, -16265.314, 0.14834733, 0.101537436, 29885.357, 164153.72, 0.000000108201135, 10.001757, 9.998797 
3.1509003e+2, 2.9629815e+2, 64798.137, -138294.67, 27587.646, 0.16160287, 0.026215544, 68478.87, 104758.42, 0.0000023186144, 10.001365, 9.998705 
3.151021e+2, 3.0629554e+2, 118401.14, -199883.75, 65790.14, 0.2961929, -0.04688292, 131463.98, 131463.98, 0.000012381474, 10.001881, 9.997719 
3.1511027e+2, 3.162935e+2, 209641.83, -190340.63, 25583.166, -0.0041732867, -0.030167459, 211271.5, 211271.5, 0.000038035574, 10.002599, 9.99744 
3.2492512e+2, 1.2628755e+2, -1859269.0, -1678851.8, 63276.844, 0.090770274, 0.026322944, -1658871.6, 43515.633, 0.00015750076, 9.998463, 10.0009775 
3.2493386e+2, 1.3628797e+2, -1752789.5, -1563212.8, 4645.986, 0.103988096, -0.056236405, -1563099.0, 41286.78, 0.00006189271, 9.998506, 10.001086 
3.2494187e+2, 1.4629067e+2, -1657189.9, -1425451.1, 73046.34, -0.05715358, 0.085991874, -1404348.0, 102014.125, 0.000012633238, 9.998321, 10.001429 
3.249536e+2, 1.5629308e+2, -1604028.6, -1365606.6, 23665.934, 0.031023616, 0.15713961, -1363280.3, 45061.12, 0.0000008198343, 9.998087, 10.001281 
3.2496423e+2, 1.662944e+2, -1487126.6, -1289019.8, -30214.252, 0.10545829, 0.18332276, -1284514.1, 25814.557, 0.000000004124255, 9.998374, 10.000986 
3.249735e+2, 1.7629506e+2, -1300187.1, -1160352.0, -38134.695, 0.10873541, 0.12589428, -1150628.4, 61692.688, 0.0, 9.999023, 10.00089 
3.249827e+2, 1.862959e+2, -1299486.6, -1189509.8, 36057.633, 0.045358, 0.1653235, -1178742.0, -64428.55, 0.0, 9.998694, 10.000171 
3.2499215e+2, 1.962967e+2, -1338191.0, -1147858.5, 52292.45, -0.03933189, 0.19976471, -1134437.9, -118130.586, 0.0, 9.997718, 10.000257 
3.2500163e+2, 2.0629665e+2, -1061290.1, -917619.6, -12051.33, 0.010793782, 0.14689167, -916615.75, 1688.8785, 0.0, 9.998749, 10.00067 
3.2501107e+2, 2.1629594e+2, -661830.6, -700552.4, -45615.11, 0.1342582, -0.014295218, -631637.7, 188667.73, 0.0, 10.000932, 10.000437 
3.2502016e+2, 2.2629586e+2, -667229.3, -838506.7, 36112.285, 0.05486952, 0.030394882, -659926.75, 62380.066, 0.0, 10.001019, 9.998777 
3.2502908e+2, 2.3629594e+2, -733218.8, -811929.0, 13037.5, -0.14316119, 0.13777852, -731115.5, -106805.055, 0.0, 9.999859, 9.998847 
3.2503957e+2, 2.4629483e+2, -581578.5, -646536.56, -35389.59, -0.07572224, 0.12443438, -566023.06, -39702.105, 0.0, 10.000049, 9.999216 
3.2505092e+2, 2.5629294e+2, -326599.66, -476266.63, -28494.6, 0.15479085, -0.011633072, -321358.22, 106977.65, 0.0, 10.001139, 9.9991865 
3.2506156e+2, 2.6629233e+2, -256924.19, -450718.38, 54484.914, 0.18499261, 0.041387487, -242656.3, 87684.45, 0.0, 10.001214, 9.99865 
3.2507163e+2, 2.7629218e+2, -233391.16, -390657.56, 53872.086, 0.10147488, 0.13541965, -216707.08, 15635.754, 0.00000000010851988, 10.000704, 9.998637 
3.250818e+2, 2.8629035e+2, -134432.11, -318442.4, -11304.07, 0.13295594, 0.10501314, -133740.28, 619.0905, 0.00000014604628, 10.000822, 9.998406 
3.2509208e+2, 2.9628772e+2, 28765.963, -191311.44, -35907.676, 0.24416502, -0.028203702, 34476.46, 70858.64, 0.0000023415487, 10.001273, 9.998384 
3.2510456e+2, 3.0628577e+2, 142665.69, -172356.77, 71225.65, 0.35893163, -0.028004134, 158021.11, 158021.11, 0.000012312151, 10.002007, 9.997831 
3.2511353e+2, 3.162833e+2, 243153.31, -161829.61, 73284.2, 0.0637149, -0.07257196, 256006.61, 256006.61, 0.000036624067, 10.002811, 9.997514 
3.3492094e+2, 1.2627977e+2, -1835803.3, -1622032.9, -7324.111, -0.23231252, 0.09984254, -1621782.3, 80684.45, 0.00013853858, 9.998442, 10.001371 
3.3493257e+2, 1.3628104e+2, -1759961.6, -1562378.4, 9777.141, 0.094829895, 0.08284916, -1561895.8, 42557.55, 0.000055370125, 9.99847, 10.001091 
3.349411e+2, 1.4628261e+2, -1732692.5, -1574777.4, 48411.0, 0.004562918, 0.17164731, -1561117.9, -54678.08, 0.000011804474, 9.998285, 10.0004225 
3.3495235e+2, 1.5628311e+2, -1663223.8, -1483137.1, 28718.871, 0.07447105, 0.15019716, -1478668.3, -70229.5, 0.00000057438905, 9.998068, 10.000482 
3.3496282e+2, 1.662838e+2, -1489953.0, -1289976.0, -15472.806, 0.105449595, 0.14501905, -1288785.9, 21647.186, 0.00000000201948, 9.998346, 10.000998 
3.3497226e+2, 1.7628469e+2, -1290793.5, -1140350.5, -9419.8125, 0.05629125, 0.109166406, -1139763.0, 72660.93, 0.0, 9.999017, 10.001033 
3.3498132e+2, 1.8628563e+2, -1237823.8, -1039324.25, -12683.432, 0.013391383, 0.09141842, -1038517.1, 75895.305, 0.0, 9.998601, 10.001247 
3.3499047e+2, 1.9628638e+2, -1291182.5, -1033210.06, 38853.81, -0.00043550465, 0.015311824, -1027485.25, -11083.721, 0.0, 9.997648, 10.001076 
3.350008e+2, 2.0628703e+2, -1143713.0, -1067580.0, 60443.03, 0.04049055, 0.054236617, -1034215.25, -115821.09, 0.0, 9.998657, 9.999687 
3.3501184e+2, 2.1628746e+2, -739818.4, -832933.4, 30879.848, 0.09808963, 0.10154669, -730508.44, 89882.055, 0.0, 10.000807, 9.999589 
3.350215e+2, 2.26287e+2, -695538.25, -870385.1, -19169.043, 0.06533036, 0.1562736, -693461.4, 28935.875, 0.0, 10.000907, 9.99861 
3.3503035e+2, 2.3628591e+2, -758581.56, -833634.7, -12672.285, -0.021967586, 0.15817544, -756499.7, -132088.45, 0.0, 9.999733, 9.998754 
3.350409e+2, 2.462845e+2, -574734.1, -626476.25, -2214.6382, 0.034679715, 0.10881307, -574639.5, -48216.773, 0.0, 10.000015, 9.9993725 
3.350525e+2, 2.5628275e+2, -324213.7, -453745.34, 14506.803, 0.17167461, -0.031355195, -322608.9, 105825.24, 0.0, 10.001061, 9.999379 
3.3506277e+2, 2.6628214e+2, -227833.72, -383171.84, 25343.309, 0.1643327, -0.012816652, -223803.55, 106633.234, 0.0, 10.001183, 9.999128 
3.3507216e+2, 2.7628198e+2, -222772.5, -351978.9, 48895.824, 0.061693937, 0.033569597, -206354.88, 26081.854, 0.000000000044508567, 10.00063, 9.998937 
3.3508268e+2, 2.8627986e+2, -204378.86, -465601.22, -4010.8162, 0.114843115, 0.015769172, -204317.3, -69858.13, 0.00000018851506, 10.000819, 9.997401 
3.3509374e+2, 2.9627675e+2, -29603.775, -311130.78, -5660.763, 0.25482062, -0.06737249, -29489.998, 7003.2188, 0.0000023038672, 10.001255, 9.997578 
3.3510697e+2, 3.0627653e+2, 202444.86, -45276.746, 93434.35, 0.3750447, 0.096535936, 233733.9, 233733.9, 0.000011796056, 10.001996, 9.998709 
3.351171e+2, 3.1627542e+2, 320328.0, 28277.162, 138180.61, 0.08802723, 0.092187695, 375343.16, 375343.16, 0.000034748333, 10.002677, 9.998891 
3.4491876e+2, 1.2627058e+2, -2183564.8, -1767874.0, -34992.668, -0.15523642, 0.13866374, -1764949.0, -62388.953, 0.00012841672, 9.995977, 10.001557 
3.449311e+2, 1.3627176e+2, -1630533.4, -1513900.5, -48705.727, 0.06666994, 0.120897256, -1496236.4, 108308.74, 0.00005393956, 9.999394, 10.0009985 
3.4493998e+2, 1.4627264e+2, -1532503.4, -1476636.1, -28143.031, 0.0023085778, 0.1468757, -1464917.3, 41619.977, 0.00001321429, 9.999664, 10.0004225 
3.4495074e+2, 1.5627299e+2, -1678636.0, -1494233.8, -2139.342, 0.11848808, 0.11187732, -1494208.9, -85671.62, 0.00000089811203, 9.997976, 10.000449 
3.4496123e+2, 1.6627388e+2, -1563041.4, -1308576.0, 61744.492, 0.14567563, 0.11999322, -1294385.4, 16144.196, 0.0000000015154811, 9.997764, 10.001154 
3.4497094e+2, 1.7627515e+2, -1358285.3, -1152714.5, 54708.66, 0.057954576, 0.104887724, -1139061.6, 73455.09, 0.0, 9.998476, 10.001205 
3.4498036e+2, 1.8627626e+2, -1162721.9, -1002092.44, -4196.143, 0.03681433, 0.09516638, -1001982.94, 112520.37, 0.0, 9.999113, 10.001262 
3.449899e+2, 1.96277e+2, -1004134.6, -901840.06, -42202.555, 0.081236005, 0.018796932, -886676.7, 129815.51, 0.0, 9.999644, 10.001023 
3.450004e+2, 2.0627744e+2, -1032510.7, -1054197.0, 29110.32, 0.09117837, 0.061845362, -1012289.6, -93802.07, 0.0, 9.999592, 9.999329 
3.450114e+2, 2.1627754e+2, -1004620.44, -996362.44, 19546.377, 0.066122405, 0.113755256, -980513.7, -160024.84, 0.0, 9.999131, 9.999278 
3.4502178e+2, 2.26277e+2, -847088.94, -906173.56, 145.03752, 0.07126689, 0.15372477, -847088.56, -124592.85, 0.0, 9.999712, 9.998938 
3.450318e+2, 2.3627596e+2, -565760.56, -713287.06, 23178.459, 0.099723056, 0.13012733, -562204.56, 62302.305, 0.0, 10.0009365, 9.999002 
3.450423e+2, 2.4627468e+2, -431521.28, -573375.56, 55051.02, 0.12445728, 0.09272967, -412663.8, 113853.01, 0.0, 10.001088, 9.999215 
3.4505302e+2, 2.5627303e+2, -402176.6, -514123.84, 25466.664, 0.1446287, -0.015205488, -396655.53, 31872.568, 0.0, 10.0006275, 9.999176 
3.4506366e+2, 2.6627195e+2, -289698.25, -443303.84, 4005.2139, 0.15390511, -0.01931146, -289593.9, 40942.082, 0.0, 10.00089, 9.998856 
3.450742e+2, 2.76271e+2, -96570.39, -320399.88, -43665.813, 0.16102122, -0.025312403, -88353.484, 144190.61, 0.0, 10.001627, 9.998674 
3.450848e+2, 2.8626904e+2, -7750.645, -390773.0, -49594.64, 0.17888327, -0.00071768404, -1433.211, 133133.02, 0.00000016974016, 10.002279, 9.997203 
3.4509525e+2, 2.962667e+2, 196590.11, -222197.2, -20635.727, 0.2028507, 0.013788541, 197604.48, 234199.81, 0.0000020169734, 10.002906, 9.997395 
3.4510833e+2, 3.062667e+2, 219621.58, -33505.258, 55451.773, 0.31794238, 0.20557417, 231236.3, 231236.3, 0.0000103175025, 10.002076, 9.998761 
3.4511945e+2, 3.1626505e+2, -4362.837, -58457.63, 13655.481, 0.19847749, 0.13217084, -1111.16, -1111.16, 0.00003196276, 10.000131, 9.999518 
3.5491803e+2, 1.2626001e+2, -2192524.5, -1780412.4, 28142.133, 0.10928318, 0.15572254, -1778499.5, -75832.56, 0.00012227354, 9.99595, 10.001485 
3.5492906e+2, 1.3626023e+2, -1630468.3, -1512454.6, 69763.53, -0.101333596, 0.061696082, -1480089.9, 124570.61, 0.00005490219, 9.999407, 10.000994 
3.5493806e+2, 1.4626102e+2, -1467872.3, -1354005.6, -104660.71, -0.19104256, 0.027135307, -1291795.1, 214857.22, 0.000015641235, 9.9997015, 10.001256 
3.5494846e+2, 1.5626274e+2, -1623065.8, -1388203.9, -46472.953, 0.060816698, 0.05345504, -1379342.4, 29294.605, 0.0000017221555, 9.99801, 10.001166 
3.54959e+2, 1.6626462e+2, -1543522.4, -1257753.3, 75106.69, 0.12314958, 0.10942059, -1239215.9, 71402.664, 0.000000007086625, 9.997716, 10.001525 
3.5496914e+2, 1.7626645e+2, -1346451.1, -1124003.8, 91094.97, 0.008181001, 0.11250611, -1091460.3, 121139.26, 0.0, 9.998455, 10.001412 
3.549794e+2, 1.862678e+2, -1248565.5, -1162413.1, 8414.314, 0.008750303, 0.17624705, -1161599.0, -47012.844, 0.0, 9.999036, 10.000198 
3.5499007e+2, 1.9626868e+2, -1074589.0, -1036062.6, -16096.329, 0.11049509, 0.22000885, -1030222.8, -13644.864, 0.0, 9.999591, 10.000128 
3.5500005e+2, 2.0626803e+2, -1033999.56, -1034726.44, 1708.076, 0.07739413, 0.18008606, -1032616.7, -114032.9, 0.0, 9.999492, 9.999513 
3.5500956e+2, 2.1626624e+2, -1001030.2, -963845.8, 20738.535, -0.053456143, 0.025548179, -954585.6, -133985.66, 0.0, 9.9990225, 9.999554 
3.5502085e+2, 2.2626588e+2, -807503.1, -802555.7, 39996.16, -0.013440742, 0.027643364, -764956.8, -42355.094, 0.0, 9.999618, 9.999695 
3.550333e+2, 2.362662e+2, -541280.56, -637573.56, 70602.38, 0.13234983, 0.06421935, -503970.75, 120625.65, 0.0, 10.000829, 9.999575 
3.5504338e+2, 2.4626541e+2, -483657.8, -662851.7, 26744.982, 0.10453319, 0.08568652, -479751.25, 46851.645, 0.0, 10.001011, 9.998635 
3.550521e+2, 2.562638e+2, -459286.3, -610679.56, 20992.844, -0.027377607, 0.034102138, -456429.25, -27810.742, 0.0, 10.000541, 9.998551 
3.550639e+2, 2.662618e+2, -363287.7, -590185.0, 23712.412, 0.06662851, 0.022074847, -360836.06, -30197.574, 0.0, 10.000861, 9.997861 
3.5507745e+2, 2.7625933e+2, -163906.8, -445106.4, -5064.923, 0.2982362, -0.03583877, -163815.6, 68847.95, 0.0, 10.00156, 9.99785 
3.5508782e+2, 2.8625795e+2, 21825.129, -319824.0, -34096.7, 0.23170747, 0.054521192, 25194.756, 159874.97, 0.00000011654808, 10.002243, 9.997705 
3.5509622e+2, 2.9625738e+2, 210907.92, -175073.81, 5261.096, -0.018548017, 0.1944959, 210979.63, 247670.03, 0.0000016052002, 10.002836, 9.997748 
3.5510844e+2, 3.0625623e+2, 176700.47, -126408.45, -22524.268, 0.09617023, 0.28994933, 178365.13, 178365.13, 0.000008325357, 10.002083, 9.998126 
3.5511994e+2, 3.162527e+2, -16317.356, -79806.01, -24177.93, 0.17719373, 0.093226254, -8158.3677, -8158.3677, 0.000028550077, 10.00011, 9.999386 
3.6491677e+2, 1.2625048e+2, -1758092.0, -1557992.0, 82329.766, 0.26248434, 0.21971923, -1528472.8, 174289.5, 0.000118926524, 9.998863, 10.001616 
3.6492676e+2, 1.362501e+2, -2085383.9, -1698405.3, 148456.0, -0.099369615, 0.037235204, -1648015.0, -43254.176, 0.000056465244, 9.996139, 10.00129 
3.6493635e+2, 1.4625098e+2, -1941772.9, -1549376.5, -22083.697, -0.15908118, -0.017983356, -1548137.6, -41387.043, 0.00001794202, 9.996321, 10.00154 
3.6494666e+2, 1.5625383e+2, -1572382.8, -1338389.6, -27697.377, 0.0738412, 0.09401143, -1335155.9, 73567.375, 0.000002788093, 9.998258, 10.001388 
3.6495736e+2, 1.6625556e+2, -1411546.9, -1235735.3, 73801.02, 0.13969454, 0.14952782, -1208862.9, 101842.82, 0.00000008230677, 9.998809, 10.001148 
3.6496782e+2, 1.7625645e+2, -1372189.3, -1178208.9, 9718.26, 0.03735731, 0.09562627, -1177723.3, 34972.79, 0.0, 9.998461, 10.001038 
3.649783e+2, 1.8625739e+2, -1340010.9, -1247305.4, -35779.203, 0.023568528, 0.15637565, -1235102.8, -120415.5, 0.0, 9.998588, 9.999829 
3.6498904e+2, 1.962582e+2, -1186289.1, -1125984.6, -28202.426, 0.088377915, 0.2310013, -1114850.9, -98170.14, 0.0, 9.998981, 9.9998045 
3.649996e+2, 2.0625734e+2, -1008456.6, -1016358.1, 11915.579, 0.081176266, 0.1812923, -999853.94, -81165.1, 0.0, 9.999645, 9.999563 
3.6500996e+2, 2.1625526e+2, -787287.1, -848706.94, -1115.072, 0.018794885, -0.00925864, -787266.9, 33440.67, 0.0, 10.000447, 9.999654 
3.650214e+2, 2.2625503e+2, -636594.9, -684747.44, 23310.018, 0.03489905, -0.014775439, -627159.56, 95547.336, 0.0, 10.00063, 10.000024 
3.650336e+2, 2.3625581e+2, -585451.1, -633588.0, 4541.05, 0.10852671, 0.037501335, -585026.5, 39669.36, 0.0, 10.000411, 9.999806 
3.650442e+2, 2.4625511e+2, -540369.2, -754222.8, -39529.355, 0.09925316, 0.08702318, -533296.4, -6592.8955, 0.0, 10.000872, 9.998089 
3.6505386e+2, 2.5625336e+2, -321229.16, -596855.56, -60311.266, 0.04243576, 0.07761944, -308609.9, 120114.234, 0.0, 10.001707, 9.998089 
3.650657e+2, 2.6625133e+2, -220242.16, -535628.2, 2112.538, 0.11580866, 0.08639176, -220228.02, 110517.64, 0.0, 10.00191, 9.997728 
3.650788e+2, 2.7624884e+2, -140836.81, -443127.44, 15809.861, 0.2727853, 0.042299308, -140012.2, 92757.84, 0.0, 10.0017605, 9.9977665 
3.650895e+2, 2.8624728e+2, -45184.2, -327122.22, 20780.77, 0.21354297, 0.10219089, -43660.746, 91126.28, 0.000000055764154, 10.001657, 9.997944 
3.650988e+2, 2.9624638e+2, 33919.402, -239725.61, 15529.892, 0.030487053, 0.18185194, 34797.934, 71596.48, 0.0000011855267, 10.001531, 9.997931 
3.6511067e+2, 3.0624458e+2, 136056.8, -164965.34, -7922.7603, 0.12952387, 0.21921813, 136265.19, 136265.19, 0.0000067298934, 10.001912, 9.997933 
3.651213e+2, 3.1624126e+2, 314237.28, 68541.27, -18188.885, 0.19565004, 0.06150988, 315576.5, 315576.5, 0.000025648078, 10.002448, 9.999282 
3.7491432e+2, 1.262423e+2, -1719836.4, -1493816.3, -73581.4, 0.06944734, 0.37401277, -1471972.8, 230870.27, 0.0001191897, 9.998919, 10.002025 
3.7492377e+2, 1.3624151e+2, -2036143.4, -1596405.9, 75049.29, -0.03986796, 0.06424909, -1583950.1, 20893.951, 0.00005856906, 9.996133, 10.00199 
3.7493432e+2, 1.4624262e+2, -1969879.9, -1589583.1, 39932.07, -0.01945752, 0.011469796, -1585435.4, -78604.195, 0.000020069963, 9.996247, 10.001299 
3.7494498e+2, 1.5624626e+2, -1593108.1, -1386305.8, 47522.62, 0.054378368, 0.22818528, -1375907.9, 32888.098, 0.0000038584762, 9.998277, 10.001051 
3.7495595e+2, 1.6624679e+2, -1500245.8, -1412020.0, 50561.223, 0.09346291, 0.24105416, -1389033.1, -78242.25, 0.00000020238203, 9.998776, 9.999952 
3.7496668e+2, 1.7624521e+2, -1448843.4, -1332081.9, 10875.295, 0.0511327, 0.062034417, -1331077.5, -118271.84, 0.0, 9.998434, 9.999996 
3.749767e+2, 1.8624501e+2, -1327184.8, -1201419.1, -30656.186, -0.017870018, 0.03572283, -1194344.4, -79537.516, 0.0, 9.9985075, 10.00018 
3.7498653e+2, 1.9624554e+2, -1179139.5, -1088425.5, -692.0307, -0.079981335, 0.043574583, -1088420.3, -71619.18, 0.0, 9.99889, 10.000102 
3.7499875e+2, 2.0624535e+2, -1032522.8, -1046598.44, 32825.13, 0.013929034, 0.059039436, -1005989.5, -87186.414, 0.0, 9.999556, 9.999401 
3.7501225e+2, 2.1624458e+2, -814328.4, -876792.5, 33348.72, 0.18593062, 0.016602935, -799870.44, 20941.164, 0.0, 10.000328, 9.999517 
3.7502313e+2, 2.2624452e+2, -654975.9, -701822.5, 2392.321, 0.12967534, 0.03750624, -654854.0, 67956.86, 0.0, 10.00053, 9.999958 
3.7503245e+2, 2.3624475e+2, -605181.2, -655291.44, 9937.828, -0.06859973, 0.038971353, -603282.25, 21523.756, 0.0, 10.00032, 9.999704 
3.7504444e+2, 2.4624379e+2, -584406.7, -828209.1, -15701.695, 0.014357275, 0.09423789, -583399.56, -56581.1, 0.0, 10.0008, 9.997615 
3.7505794e+2, 2.562419e+2, -359951.34, -656247.1, -21928.041, 0.25577548, 0.11844955, -358337.3, 70506.56, 0.0, 10.001613, 9.997728 
3.7506875e+2, 2.6624057e+2, -180388.95, -440193.6, -11642.553, 0.20945954, 0.17839277, -179868.27, 150988.84, 0.0, 10.001861, 9.9984045 
3.7507793e+2, 2.7623942e+2, -107462.37, -358761.63, 21957.969, -0.015194613, 0.19600041, -105558.164, 127306.59, 0.0, 10.001695, 9.998377 
3.750895e+2, 2.86237e+2, -44809.906, -321929.2, 8067.141, 0.024062881, 0.1416278, -44575.266, 90311.61, 0.00000003400916, 10.001634, 9.997994 
3.751026e+2, 2.9623377e+2, 30127.387, -237814.19, 25690.012, 0.22821483, -0.009715366, 32568.287, 69486.67, 0.000000899484, 10.001478, 9.997975 
3.751145e+2, 3.062318e+2, 140629.4, -145500.8, 8723.939, 0.30312473, 0.0018468844, 140895.14, 140895.14, 0.000005766145, 10.001874, 9.998086 
3.7512282e+2, 3.1623012e+2, 295069.16, 41690.17, 27159.52, 0.052202817, -0.0032915687, 297947.7, 297947.7, 0.000023919054, 10.002388, 9.999129 
3.849113e+2, 1.2623128e+2, -2225078.5, -1770609.9, -47690.26, 0.049619164, 0.22445415, -1765659.4, -62714.938, 0.00012316402, 9.995616, 10.00171 
3.8492116e+2, 1.3623248e+2, -1834194.6, -1517843.0, 884.878, 0.023031186, 0.123369254, -1517840.5, 87089.78, 0.000061385945, 9.99759, 10.001836 
3.84933e+2, 1.4623326e+2, -1691093.9, -1514268.4, -2063.3464, 0.12021355, 0.07689859, -1514244.3, -7322.2705, 0.000022093489, 9.998413, 10.0007715 
3.8494316e+2, 1.5623513e+2, -1596764.3, -1440284.8, -54651.824, 0.041594304, 0.16565761, -1423087.1, -14183.147, 0.000004863891, 9.99849, 10.000569 
3.8495415e+2, 1.6623516e+2, -1549182.3, -1469771.3, -37890.99, 0.053196296, 0.1671398, -1454592.8, -143689.19, 0.00000029520132, 9.998565, 9.999668 
3.8496533e+2, 1.7623398e+2, -1442152.0, -1355808.8, -21721.613, 0.07144966, 0.052676495, -1350652.1, -137737.1, 0.0, 9.99858, 9.999767 
3.8497564e+2, 1.8623362e+2, -1269860.3, -1172982.5, -10214.472, 0.013865196, 0.01975655, -1171917.3, -56999.527, 0.0, 9.998885, 10.0002 
3.8498574e+2, 1.9623356e+2, -1109013.4, -1054910.5, -27365.16, -0.06565338, -0.033600774, -1043482.94, -26565.512, 0.0, 9.999349, 10.000121 
3.8499835e+2, 2.0623383e+2, -1028183.5, -1021899.44, 33722.633, 0.02601375, 0.014971454, -991172.75, -72257.734, 0.0, 9.9994955, 9.999599 
3.850123e+2, 2.1623418e+2, -933302.9, -926078.7, 41994.383, 0.20850708, 0.06651532, -887541.3, -66628.695, 0.0, 9.999465, 9.999604 
3.850236e+2, 2.2623415e+2, -789325.1, -811675.7, 19752.361, 0.16322654, 0.11089629, -777805.9, -54892.133, 0.0, 9.999819, 9.999535 
3.8503322e+2, 2.3623376e+2, -611520.1, -694378.5, -21562.803, -0.02268491, 0.09214984, -606244.56, 18673.611, 0.0, 10.000447, 9.999367 
3.8504556e+2, 2.4623275e+2, -551201.2, -772397.7, 9600.047, 0.049744125, 0.1351837, -550785.3, -23854.01, 0.0, 10.00087, 9.997951 
3.8505942e+2, 2.562311e+2, -394785.03, -639873.94, 41501.418, 0.27122483, 0.1532059, -387948.22, 41003.42, 0.0, 10.001229, 9.99802 
3.850704e+2, 2.662298e+2, -198828.45, -425320.97, 58144.613, 0.20690547, 0.18832828, -184773.84, 146189.25, 0.0, 10.001621, 9.998631 
3.8507965e+2, 2.7622852e+2, -49638.11, -308198.13, 38020.2, -0.020539356, 0.17179632, -44163.316, 188806.89, 0.0, 10.001999, 9.998578 
3.8509148e+2, 2.8622606e+2, 18815.479, -318478.44, 15747.052, 0.038411696, 0.11813888, 19549.057, 154542.08, 0.000000026095549, 10.0021925, 9.997747 
3.851049e+2, 2.9622284e+2, 129027.78, -212723.44, -4550.3257, 0.27873617, -0.008855429, 129088.36, 166114.36, 0.00000066980994, 10.002266, 9.997766 
3.8511702e+2, 3.0622098e+2, 217580.48, -103236.07, 711.7159, 0.35563537, 0.018576507, 217582.06, 217582.06, 0.000005131084, 10.002367, 9.998134 
3.851253e+2, 3.162193e+2, 283764.88, 41962.973, -19354.184, 0.07942797, -0.0015118599, 285304.22, 285304.22, 0.000023468077, 10.00229, 9.999167 
3.9490718e+2, 1.2621747e+2, -2331183.5, -1957782.9, 11329.738, 0.025486832, -0.23950714, -1957439.4, -254373.53, 0.0001272644, 9.995508, 10.000472 
3.949187e+2, 1.36223e+2, -1914154.0, -1673885.6, 78203.31, -0.0076820357, 0.20558563, -1650674.1, -45654.8, 0.00006380605, 9.997574, 10.000766 
3.9493194e+2, 1.4622301e+2, -1761374.9, -1659284.0, -12004.969, 0.14705113, 0.18357901, -1657891.4, -150869.11, 0.000023677207, 9.998393, 9.999792 
3.9494073e+2, 1.5622029e+2, -1644683.3, -1546675.4, -43495.375, -0.07910497, -0.09327549, -1530156.5, -121108.055, 0.000005569423, 9.998511, 9.999832 
3.949516e+2, 1.6622055e+2, -1503940.9, -1361211.3, -51991.46, -0.082897104, -0.07991888, -1344280.8, -33235.137, 0.00000035120044, 9.99851, 10.00044 
3.9496353e+2, 1.7622271e+2, -1404262.6, -1263919.4, -9505.898, 0.010281189, 0.06611846, -1263278.4, -50254.133, 0.0, 9.9985285, 10.000423 
3.9497495e+2, 1.8622321e+2, -1306153.8, -1228671.3, -2338.1277, 0.035650272, 0.106947795, -1228600.8, -113580.836, 0.0, 9.998798, 9.999864 
3.9498633e+2, 1.9622241e+2, -1137950.4, -1090036.0, -2922.6047, 0.036335092, 0.017631331, -1089858.5, -72830.02, 0.0, 9.999248, 9.999927 
3.94998e+2, 2.0622289e+2, -1002831.6, -943371.2, 21577.803, 0.027465962, 0.060859725, -936366.0, -17342.717, 0.0, 9.999383, 10.000194 
3.950098e+2, 2.1622404e+2, -925281.2, -872338.9, 55885.453, -0.0072625303, 0.13405351, -836972.3, -15961.81, 0.0, 9.999312, 10.000042 
3.9502248e+2, 2.2622392e+2, -863662.4, -941325.4, 34944.34, 0.04976946, 0.19594829, -850254.1, -127238.91, 0.0, 9.999709, 9.998701 
3.9503568e+2, 2.3622277e+2, -671816.56, -789460.9, 12056.05, 0.15741698, 0.18712512, -670593.75, -45560.797, 0.0, 10.0003195, 9.9987755 
3.9504734e+2, 2.4622187e+2, -479863.72, -610879.44, 13657.374, 0.119240575, 0.20396419, -478455.2, 48587.438, 0.0, 10.000809, 9.999094 
3.950581e+2, 2.562209e+2, -335775.78, -501379.72, 65231.516, -0.0074495636, 0.17695652, -313167.53, 115881.24, 0.0, 10.001155, 9.999013 
3.950704e+2, 2.66219e+2, -219373.84, -456881.5, 63691.613, 0.023517706, 0.11682826, -203371.98, 127691.875, 0.0, 10.001571, 9.998441 
3.9508358e+2, 2.7621618e+2, -76745.14, -349229.4, 61095.92, 0.14925113, -0.02900863, -63673.41, 169413.22, 0.0, 10.0019245, 9.998338 
3.9509505e+2, 2.8621447e+2, -25562.393, -391884.97, 9536.712, 0.15487593, 0.028524945, -25314.285, 109791.44, 0.000000010243951, 10.002127, 9.99727 
3.9510545e+2, 2.9621345e+2, 83559.95, -281265.4, 13775.418, 0.081101045, 0.17226537, 84079.36, 121201.74, 0.0000005130985, 10.002163, 9.997343 
3.9511806e+2, 3.0621198e+2, 216156.1, -101674.66, -5007.966, 0.19927746, 0.25310928, 216234.98, 216234.98, 0.0000059963604, 10.002344, 9.998157 
3.9512813e+2, 3.1620854e+2, 289775.03, 70219.17, 10989.2705, 0.08553987, 0.060706306, 290323.72, 290323.72, 0.000027743677, 10.002222, 9.999395 
4.049046e+2, 1.262055e+2, -1953997.4, -1824182.9, -52874.727, 0.09706488, -0.3128304, -1805372.3, -102193.48, 0.0001282802, 9.998262, 10.000077 
4.0491572e+2, 1.362107e+2, -1845006.1, -1683213.9, -6338.9907, -0.083763465, 0.13492203, -1682965.9, -77828.62, 0.00006493345, 9.998216, 10.0004015 
4.0493032e+2, 1.462111e+2, -1804925.9, -1681566.4, -30266.914, 0.16790871, 0.17207713, -1674540.4, -167402.72, 0.00002457309, 9.998107, 9.999773 
4.0493944e+2, 1.5620857e+2, -1701598.6, -1574205.0, -15806.932, -0.030982533, -0.085492566, -1572273.0, -163109.64, 0.000005781208, 9.998112, 9.999839 
4.0495005e+2, 1.6620903e+2, -1534564.3, -1342085.3, 4993.3223, -0.06532665, -0.068481214, -1341955.9, -30796.967, 0.0000003430959, 9.998162, 10.000731 
4.0496135e+2, 1.7621148e+2, -1432572.3, -1252276.6, -12568.551, -0.04017331, 0.07713671, -1251404.6, -38270.37, 0.0, 9.99823, 10.000643 
4.0497342e+2, 1.8621215e+2, -1344433.1, -1267490.5, 20774.902, 0.01763302, 0.13772455, -1262239.5, -147111.22, 0.0, 9.998635, 9.999668 
4.049862e+2, 1.9621144e+2, -1161166.6, -1118090.3, 12266.36, 0.11196864, 0.07526303, -1114842.1, -97705.29, 0.0, 9.999171, 9.999769 
4.0499783e+2, 2.0621154e+2, -987045.25, -914003.8, 21731.092, 0.07556184, 0.07805398, -908027.44, 11107.114, 0.0, 9.999394, 10.000387 
4.050086e+2, 2.1621202e+2, -902018.0, -846387.7, 5942.9927, -0.05338056, 0.0640439, -845759.9, -24633.277, 0.0, 9.999397, 10.000182 
4.0502188e+2, 2.2621204e+2, -874726.9, -948140.6, 48414.94, 0.028102288, 0.13514315, -850676.8, -127546.76, 0.0, 9.999643, 9.998684 
4.050366e+2, 2.3621158e+2, -707342.4, -808688.44, 67828.7, 0.23683819, 0.19690086, -673348.5, -48206.055, 0.0, 10.000077, 9.998762 
4.0504876e+2, 2.462108e+2, -487746.6, -592657.2, 70688.29, 0.19427009, 0.21592489, -452176.94, 74973.336, 0.0, 10.000659, 9.999291 
4.0505937e+2, 2.5620976e+2, -295253.75, -456763.13, 32844.313, 0.00038709264, 0.15525796, -288830.06, 140325.83, 0.0, 10.001347, 9.999218 
4.0507203e+2, 2.6620767e+2, -242588.97, -489232.03, 11915.729, 0.041004233, 0.08413555, -242014.64, 89158.414, 0.0, 10.0015, 9.998247 
4.0508592e+2, 2.762047e+2, -173619.31, -410179.44, -6195.591, 0.22684014, -0.061107468, -173457.16, 59742.918, 0.0, 10.001317, 9.998206 
4.050973e+2, 2.862035e+2, -77374.695, -372591.13, 11610.57, 0.20474656, 0.027842594, -76918.766, 58295.867, 0.0000000008315615, 10.001566, 9.997674 
4.0510735e+2, 2.9620332e+2, 97868.31, -237250.13, 59114.64, 0.07236394, 0.21291101, 107990.36, 145211.92, 0.0000007104038, 10.002092, 9.997673 
4.051205e+2, 3.062018e+2, 163648.06, -195135.4, 48289.168, 0.2184983, 0.30467412, 170033.72, 170033.72, 0.000009515816, 10.002281, 9.997549 
4.051308e+2, 3.161981e+2, 263803.44, 24577.203, 10800.279, 0.14519945, 0.15386896, 264290.03, 264290.03, 0.0000394484, 10.002171, 9.999117 
4.1490304e+2, 1.2619525e+2, -1903482.5, -1734887.6, -40022.047, 0.056509517, 0.011823914, -1725869.4, -22584.861, 0.0001259659, 9.998318, 10.000663 
4.1491178e+2, 1.3619559e+2, -1798589.8, -1603971.4, -6114.0303, -0.32749867, -0.079974055, -1603779.5, 1504.4104, 0.00006410072, 9.998272, 10.000917 
4.149277e+2, 1.4619756e+2, -1742550.0, -1542667.3, -40443.895, 0.06454611, 0.037034303, -1534794.0, -27525.758, 0.00002430965, 9.998078, 10.000738 
4.1493908e+2, 1.5620013e+2, -1647590.9, -1449881.6, -1492.0112, 0.09660906, 0.19376948, -1449870.4, -40623.15, 0.0000053776803, 9.998071, 10.000709 
4.149492e+2, 1.6620077e+2, -1565384.0, -1389678.3, -2710.0398, 0.012072813, 0.2075397, -1389636.4, -78394.88, 0.0000002359893, 9.99809, 10.000439 
4.149584e+2, 1.7620035e+2, -1454305.1, -1290664.1, 3452.1238, -0.18458526, 0.09458238, -1290591.4, -77347.12, 0.0, 9.998199, 10.000394 
4.1497064e+2, 1.8620047e+2, -1356151.4, -1275363.6, 31477.805, -0.14712064, 0.1112931, -1264547.0, -149303.83, 0.0, 9.998567, 9.999645 
4.1498506e+2, 1.9620065e+2, -1175845.4, -1128677.6, 38596.742, 0.05502259, 0.13961771, -1107029.8, -89787.375, 0.0, 9.999092, 9.999729 
4.1499743e+2, 2.061998e+2, -1020959.4, -962693.75, 12057.704, 0.07717707, 0.06539701, -960297.06, -41048.555, 0.0, 9.999293, 10.000107 
4.1500846e+2, 2.1619816e+2, -930425.8, -872454.75, 15574.135, -0.027981937, -0.13416548, -868535.6, -47275.242, 0.0, 9.999257, 10.00007 
4.1502145e+2, 2.261986e+2, -838086.8, -845158.56, 54440.035, 0.0036960596, -0.059810523, -787067.94, -63810.523, 0.0, 9.999524, 9.999451 
4.1503564e+2, 2.3620018e+2, -679658.8, -728567.4, 95072.99, 0.11640023, 0.12830527, -605945.44, 19301.105, 0.0, 9.999979, 9.999361 
4.1504934e+2, 2.4619958e+2, -543609.0, -695656.0, 87903.805, 0.16614528, 0.17791212, -503414.38, 23839.363, 0.0, 10.000601, 9.9986105 
4.1506276e+2, 2.5619745e+2, -350152.22, -551812.06, 64553.13, 0.17936614, 0.07732466, -331258.38, 98015.58, 0.0, 10.00126, 9.998607 
4.1507497e+2, 2.6619577e+2, -258761.06, -511293.9, -2663.3066, 0.16392341, 0.075964786, -258732.97, 72558.94, 0.0, 10.001455, 9.998115 
4.1508633e+2, 2.7619416e+2, -183144.86, -412108.7, 803.50885, 0.113245055, 0.077568024, -183142.05, 50168.156, 0.0, 10.001245, 9.998227 
4.15098e+2, 2.8619313e+2, 17045.281, -184452.06, 20491.242, 0.09327932, 0.118610844, 19108.02, 154427.4, 0.00000000001177225, 10.001586, 9.998963 
4.151102e+2, 2.9619247e+2, 160661.48, -97748.45, 84001.58, 0.11478508, 0.12445327, 185567.48, 222891.23, 0.0000013022876, 10.002041, 9.998663 
4.1512382e+2, 3.0619046e+2, 84416.78, -357712.72, 37260.0, 0.29761207, 0.18836755, 87534.84, 87534.84, 0.000014575742, 10.002278, 9.99643 
4.1513276e+2, 3.1618822e+2, 203832.6, -83278.414, 71351.77, 0.072408184, 0.2814124, 220586.97, 220586.97, 0.000055427667, 10.002101, 9.998408 
4.249015e+2, 1.2618282e+2, -1849001.0, -1630918.6, 2506.847, 0.07649344, 0.12503397, -1630889.9, 72521.125, 0.000120138786, 9.998347, 10.001356 
4.249091e+2, 1.3618216e+2, -2050912.8, -1675622.8, -50341.21, -0.31409347, -0.12434503, -1668987.3, -63572.21, 0.00006079175, 9.99631, 10.001371 
4.2492536e+2, 1.4618462e+2, -1946776.9, -1589858.4, -19591.836, 0.111743964, -0.0019902955, -1588786.1, -81393.055, 0.00002257458, 9.996451, 10.0012 
4.2493698e+2, 1.5618822e+2, -1624025.9, -1395172.6, -52085.777, 0.09052289, 0.2108174, -1383875.9, 25486.826, 0.0000044461326, 9.998049, 10.001094 
4.2494747e+2, 1.6618901e+2, -1496506.9, -1393624.1, -71873.234, 0.004825086, 0.24114802, -1356680.1, -45323.297, 0.00000009724189, 9.998723, 10.000106 
4.2495716e+2, 1.7618807e+2, -1390940.5, -1287906.1, -86337.26, -0.1478643, 0.107539184, -1238884.0, -25517.848, 0.0, 9.998751, 10.00015 
4.2496952e+2, 1.8618812e+2, -1306848.8, -1206169.1, -16622.063, -0.115969434, 0.10463323, -1203495.8, -88130.61, 0.0, 9.998702, 10.000061 
4.2498368e+2, 1.9618851e+2, -1228444.8, -1120718.4, 5381.202, 0.04216934, 0.114557765, -1120450.3, -103089.695, 0.0, 9.998573, 10.00004 
4.2499647e+2, 2.0618784e+2, -1078865.4, -1018361.06, 16669.58, 0.06982544, 0.058996536, -1014072.44, -94707.13, 0.0, 9.999019, 9.999853 
4.2500824e+2, 2.1618639e+2, -870161.5, -866497.2, 1115.8774, 0.00589603, -0.09531531, -866184.1, -44806.68, 0.0, 9.999773, 9.999863 
4.2502126e+2, 2.261866e+2, -724205.9, -751198.8, 34212.96, 0.009481788, -0.05279964, -700923.5, 22451.422, 0.0, 10.000148, 9.999789 
4.2503503e+2, 2.3618776e+2, -618098.0, -663611.8, 19478.473, 0.04995731, 0.060337655, -610900.1, 14464.106, 0.0, 10.000259, 9.999668 
4.250495e+2, 2.4618718e+2, -608221.06, -723279.56, 46654.582, 0.1499136, 0.09701598, -591681.0, -64310.08, 0.0, 10.000146, 9.998643 
4.250644e+2, 2.561853e+2, -539639.9, -639397.9, 56777.875, 0.2949847, 0.01884935, -513943.44, -84552.77, 0.0, 9.999937, 9.998648 
4.2507675e+2, 2.6618418e+2, -404716.94, -560175.7, 45091.25, 0.2582629, 0.065867536, -392584.88, -61180.902, 0.0, 10.000362, 9.998313 
4.250874e+2, 2.761834e+2, -179521.34, -391254.2, 56508.523, 0.104002275, 0.1352168, -165383.97, 68030.64, 0.0, 10.001191, 9.998399 
4.2509958e+2, 2.8618225e+2, 72041.96, -177128.7, 52089.824, 0.070504434, 0.16093403, 82493.12, 217918.61, 0.0000000012455732, 10.002069, 9.99877 
4.2511296e+2, 2.961806e+2, 286283.72, -54339.613, -19249.93, 0.14932509, 0.09408667, 287368.13, 324806.84, 0.0000019825331, 10.002988, 9.998504 
4.251267e+2, 3.061778e+2, 232469.5, -269449.5, -55002.797, 0.3223135, 0.07732926, 238426.28, 238426.28, 0.000019679212, 10.003224, 9.996579 
4.2513585e+2, 3.1617647e+2, 344339.4, -14289.921, 65013.227, 0.13654839, 0.2452574, 355761.4, 355761.4, 0.00007104561, 10.003068, 9.9984045 
4.3489933e+2, 1.2616825e+2, -1810884.0, -1523455.3, -28518.94, -0.02952469, 0.008701171, -1520652.9, 182905.0, 0.000112459136, 9.998263, 10.002125 
4.3490762e+2, 1.3617054e+2, -2027143.4, -1612232.9, -102070.555, -0.122680634, 0.0034979915, -1588482.4, 17047.156, 0.000055857796, 9.996273, 10.00182 
4.3492302e+2, 1.4617229e+2, -1963500.5, -1615828.6, 33848.156, 0.20516123, 0.04806699, -1612563.9, -105051.76, 0.000019900395, 9.996403, 10.001052 
4.3493274e+2, 1.5617278e+2, -1627145.1, -1413059.9, 14505.043, -0.16930845, -0.039413586, -1412081.6, -2570.7717, 0.0000034951138, 9.99808, 10.000964 
4.349444e+2, 1.6617358e+2, -1529144.6, -1444837.8, -81140.16, -0.1995262, 0.015896305, -1395554.6, -84048.24, 0.000000032016867, 9.998663, 9.999779 
4.3495733e+2, 1.7617461e+2, -1412756.8, -1318936.6, -76063.31, -0.028208341, 0.113257185, -1276481.3, -62981.19, 0.0, 9.998696, 9.99996 
4.349697e+2, 1.861751e+2, -1261412.8, -1090462.5, -30661.605, 0.01235556, 0.115143664, -1085129.5, 30364.855, 0.0, 9.9986105, 10.000901 
4.3498182e+2, 1.9617502e+2, -1189388.8, -1020508.94, 15537.434, -0.023847135, -0.0044927415, -1019091.3, -1600.2877, 0.0, 9.998493, 10.000768 
4.3499458e+2, 2.0617571e+2, -1115120.5, -1065709.4, 36259.168, -0.04044166, 0.05792869, -1046539.06, -127054.67, 0.0, 9.998901, 9.999583 
4.3500763e+2, 2.1617675e+2, -904746.06, -912329.25, 36521.895, -0.054760054, 0.17695063, -871819.5, -50342.28, 0.0, 9.999662, 9.999599 
4.3502092e+2, 2.2617616e+2, -754152.56, -784307.0, 29106.154, -0.057059545, 0.16194858, -736450.4, -12968.864, 0.0, 10.00002, 9.999625 
4.3503442e+2, 2.3617436e+2, -636814.94, -677695.7, 31329.275, -0.057500817, -0.005586584, -619847.7, 5647.415, 0.0, 10.000149, 9.999625 
4.3504894e+2, 2.4617358e+2, -571662.1, -631991.2, 28558.176, 0.06114499, -0.024636006, -560287.9, -32786.137, 0.0, 10.00008, 9.9993 
4.350641e+2, 2.561733e+2, -506535.72, -552162.8, 62216.188, 0.24999523, -0.008823435, -463082.28, -33577.01, 0.0, 9.99986, 9.999283 
4.350771e+2, 2.6617306e+2, -367785.97, -481655.75, 66884.61, 0.2343841, 0.06499118, -336885.03, -5376.699, 0.0, 10.00035, 9.998859 
4.350886e+2, 2.761726e+2, -166099.63, -352977.6, 98133.805, 0.07876008, 0.11000853, -124035.52, 109477.73, 0.0, 10.001138, 9.998691 
4.3510145e+2, 2.8617078e+2, -52853.645, -421719.75, 77744.055, 0.027496887, 0.15020998, -37137.53, 98395.65, 0.000000012355592, 10.002019, 9.997107 
4.351155e+2, 2.9616788e+2, 177336.3, -258248.48, 23206.145, 0.07320755, 0.11937007, 178569.14, 216134.2, 0.0000027662056, 10.002901, 9.99714 
4.3512893e+2, 3.0616394e+2, 328081.13, -79121.766, -71393.58, 0.19749983, -0.021516444, 340235.53, 340235.53, 0.000024180765, 10.003241, 9.997886 
4.3513918e+2, 3.161629e+2, 372605.7, 55301.594, 129118.44, 0.1086534, 0.0496769, 418506.9, 418506.9, 0.00008333817, 10.003011, 9.998917 
4.4489706e+2, 1.261555e+2, -1916712.3, -1571185.0, 99882.83, -0.028669741, -0.0016692306, -1544389.5, 159294.05, 0.00010599228, 9.997527, 10.002158 
4.4490597e+2, 1.3615811e+2, -1748939.8, -1491527.9, -135103.48, -0.0013908539, 0.042972777, -1433637.6, 172013.6, 0.00005101591, 9.998261, 10.001691 
4.4492084e+2, 1.4615953e+2, -1729936.0, -1511459.6, 57009.81, 0.27553454, 0.06407361, -1497478.1, 10158.57, 0.000017295639, 9.998034, 10.000979 
4.4493017e+2, 1.5615958e+2, -1752849.6, -1470930.1, 18196.484, -0.18252763, -0.06702421, -1469760.5, -60121.004, 0.0000027656245, 9.99721, 10.000981 
4.449425e+2, 1.6616043e+2, -1668137.5, -1474349.3, -16104.536, -0.1907443, -0.02904599, -1473020.0, -161386.02, 0.000000035556127, 9.997527, 10.000137 
4.4495672e+2, 1.7616175e+2, -1416971.4, -1286792.3, 20767.729, 0.056258887, 0.06239455, -1283559.4, -69935.79, 0.0, 9.998519, 10.000269 
4.4496915e+2, 1.8616253e+2, -1204915.8, -1078106.4, 45998.39, 0.081348374, 0.088105634, -1063178.4, 52437.305, 0.0, 9.99907, 10.000755 
4.4498065e+2, 1.9616269e+2, -1088723.5, -987445.7, -1392.6934, -0.018583298, 0.006117717, -987426.5, 30185.303, 0.0, 9.999256, 10.000619 
4.449938e+2, 2.0616344e+2, -1039114.2, -1043583.75, 29902.605, -0.029149238, 0.088400126, -1011362.94, -91757.2, 0.0, 9.999507, 9.999433 
4.450079e+2, 2.161644e+2, -901956.44, -925786.7, 16654.557, 0.010198149, 0.2172068, -893393.6, -71793.77, 0.0, 9.99976, 9.999453 
4.4502136e+2, 2.261636e+2, -782482.7, -805385.4, 21737.396, -0.00080438674, 0.18909554, -769364.8, -45759.047, 0.0, 9.999844, 9.999568 
4.4503444e+2, 2.3616149e+2, -697831.4, -719127.3, 12559.3, -0.042958163, -0.0041814265, -692013.75, -66392.69, 0.0, 9.99977, 9.999526 
4.4504872e+2, 2.4616057e+2, -594815.56, -670608.06, -7597.6304, 0.037817053, -0.018650543, -594061.44, -66432.44, 0.0, 10.000036, 9.999052 
4.4506368e+2, 2.561603e+2, -425125.25, -538903.6, -57017.04, 0.19238453, 0.019796401, -401470.5, 28163.26, 0.0, 10.000527, 9.999049 
4.4507718e+2, 2.6615965e+2, -254912.47, -422393.16, -64474.617, 0.17738235, 0.06581748, -232967.33, 98672.56, 0.0, 10.001109, 9.998895 
4.4508973e+2, 2.761587e+2, -72496.52, -307154.44, -93805.6, 0.052544687, 0.05612824, -39607.06, 194041.6, 0.0, 10.001784, 9.99869 
4.4510335e+2, 2.86157e+2, -116600.11, -483337.38, -67640.766, 0.03981625, 0.12529732, -104522.25, 31146.02, 0.00000003062236, 10.001697, 9.996846 
4.4511807e+2, 2.961546e+2, -104370.74, -403432.44, -42045.82, 0.14718623, 0.16764846, -98571.86, -60874.355, 0.0000032986038, 10.001009, 9.99705 
4.4513103e+2, 3.06151e+2, 93503.984, -141221.3, -91935.22, 0.18436904, 0.036152832, 125225.45, 125225.45, 0.000027227657, 10.001418, 9.99833 
4.4514227e+2, 3.161494e+2, 315303.34, 17784.234, 39397.652, 0.14144056, 0.018642498, 320432.0, 320432.0, 0.000091368296, 10.0026655, 9.99882 
4.548941e+2, 1.2614451e+2, -1968264.9, -1673954.5, 170355.78, -0.13461813, 0.08312722, -1595997.0, 107791.54, 0.00010140695, 9.997516, 10.001454 
4.5490372e+2, 1.3614476e+2, -1794315.6, -1600411.4, -106560.664, -0.08201416, -0.022574667, -1553297.9, 52483.668, 0.00004730018, 9.998315, 10.00092 
4.5491847e+2, 1.4614615e+2, -1728403.1, -1500739.6, 18815.771, 0.2029358, 0.02499404, -1499195.1, 8573.728, 0.000015080613, 9.998012, 10.0010605 
4.5492905e+2, 1.5614866e+2, -1745152.4, -1448065.4, 7039.2036, -0.044476535, 0.13506682, -1447898.6, -38150.117, 0.0000021144335, 9.997187, 10.001147 
4.5494154e+2, 1.661496e+2, -1594745.5, -1313129.3, 10297.384, -0.066823915, 0.11294935, -1312753.1, -1014.12415, 0.00000004449902, 9.997482, 10.001266 
4.5495498e+2, 1.7614947e+2, -1354348.4, -1161702.5, 66086.65, 0.005678053, -0.05248571, -1141211.3, 72525.9, 0.0, 9.998529, 10.001124 
4.549676e+2, 1.8615036e+2, -1298210.3, -1253778.4, 44604.39, -0.0054475553, 0.012448994, -1226163.6, -110433.71, 0.0, 9.998999, 9.999579 
4.549799e+2, 1.9615161e+2, -1177380.3, -1147039.9, 14645.839, -0.04658355, 0.15413871, -1141123.8, -123401.53, 0.0, 9.999159, 9.999565 
4.549938e+2, 2.061511e+2, -1059200.9, -1058208.0, 28377.313, 0.0025270756, 0.16027793, -1030322.75, -110594.0, 0.0, 9.999386, 9.999393 
4.5500872e+2, 2.1614936e+2, -921692.56, -933166.9, 35971.67, 0.097642355, 0.02248447, -891003.44, -69258.12, 0.0, 9.999617, 9.999469 
4.5502228e+2, 2.2614893e+2, -797332.25, -809412.75, 11193.79, 0.08590534, 0.027523486, -790653.0, -66905.57, 0.0, 9.999723, 9.999603 
4.5503485e+2, 2.3614912e+2, -716954.75, -737494.06, 23426.879, -0.0017720236, 0.06331816, -701645.44, -75903.3, 0.0, 9.999675, 9.999448 
4.5504844e+2, 2.4614817e+2, -687764.06, -840096.75, 1876.9664, -0.013568858, 0.110470265, -687740.94, -159988.14, 0.0, 9.999944, 9.997933 
4.5506275e+2, 2.5614625e+2, -511384.66, -694603.3, -26981.424, 0.026961852, 0.09849291, -507493.9, -77717.91, 0.0, 10.000428, 9.998032 
4.5507678e+2, 2.6614407e+2, -301704.78, -504880.66, -45145.145, 0.0058956877, 0.06440488, -292125.28, 39672.93, 0.0, 10.001048, 9.998355 
4.550905e+2, 2.7614173e+2, -111625.86, -368071.97, -59456.16, -0.07139586, -0.031968962, -98511.78, 135308.67, 0.0, 10.001697, 9.998311 
4.55105e+2, 2.86141e+2, -41117.008, -317890.8, -101460.91, 0.0133241955, 0.08788026, -7907.7246, 127921.875, 0.000000022691747, 10.001656, 9.998005 
4.551204e+2, 2.961409e+2, -33729.184, -250057.34, -48112.215, 0.25145358, 0.2480881, -23511.453, 14323.209, 0.0000033720132, 10.000967, 9.998132 
4.5513263e+2, 3.0613884e+2, 68647.29, -192592.17, -50225.03, 0.17721084, 0.23966026, 77970.64, 77970.64, 0.000028360193, 10.001427, 9.997968 
4.5514452e+2, 3.1613594e+2, 256686.23, -91572.516, 120283.09, 0.051803537, 0.13189252, 294191.13, 294191.13, 0.00009465621, 10.002611, 9.998097 
4.6489355e+2, 1.2613173e+2, -1944006.3, -1664236.8, 138242.56, 0.06482998, 0.116364755, -1607452.4, 96461.55, 0.000096649455, 9.9976635, 10.00145 
4.6490115e+2, 1.3613121e+2, -2032668.3, -1718468.4, -154634.72, -0.07681643, -0.06844064, -1655131.8, -49217.813, 0.00004344866, 9.996665, 10.000914 
4.6491486e+2, 1.4613245e+2, -1890160.1, -1574097.0, 32127.486, 0.10441165, -0.037507042, -1570864.3, -62962.07, 0.000012657647, 9.9968815, 10.001103 
4.6492773e+2, 1.5613578e+2, -1635258.8, -1389628.3, -7345.177, 0.080104396, 0.14961252, -1389408.8, 20465.166, 0.0000014631825, 9.997918, 10.001198 
4.6494043e+2, 1.6613701e+2, -1514039.8, -1257109.5, -20956.623, 0.05731186, 0.14566451, -1255411.4, 56450.05, 0.000000030371112, 9.997984, 10.0014 
4.6495265e+2, 1.7613669e+2, -1510959.9, -1227026.0, -59232.047, -0.022551995, -0.052647617, -1215164.9, -1303.8811, 0.0, 9.997421, 10.001209 
4.649658e+2, 1.8613733e+2, -1431631.5, -1345676.3, -26769.031, -0.038782783, -0.0034651859, -1338021.4, -222165.13, 0.0, 9.998189, 9.999348 
4.649798e+2, 1.9613835e+2, -1102967.9, -1136535.1, -5007.723, 0.007242261, 0.14166076, -1102236.8, -84385.79, 0.0, 9.99976, 9.99936 
4.649942e+2, 2.0613773e+2, -921511.5, -982950.25, 35423.438, 0.06676235, 0.13879402, -905342.7, 14515.449, 0.0, 10.0002775, 9.999485 
4.6500877e+2, 2.1613587e+2, -850726.2, -900091.2, 29225.447, 0.12302232, -0.016870629, -837154.9, -15280.036, 0.0, 10.000093, 9.999474 
4.6502253e+2, 2.2613537e+2, -736875.5, -816569.06, 13270.3125, 0.11639104, 0.0008713579, -734723.9, -10845.263, 0.0, 10.00032, 9.99925 
4.6503574e+2, 2.3613554e+2, -569908.4, -702961.3, -25099.873, 0.06648458, 0.06770199, -565330.9, 60545.04, 0.0, 10.000861, 9.999104 
4.6504936e+2, 2.4613442e+2, -518459.97, -774089.75, 9625.031, 0.02875223, 0.12095614, -518098.1, 9790.47, 0.0, 10.001159, 9.997807 
4.650633e+2, 2.561323e+2, -398653.0, -655469.94, 36339.7, 0.0044423635, 0.100765616, -393609.97, 36302.715, 0.0, 10.001265, 9.997895 
4.6507755e+2, 2.6612997e+2, -297753.75, -546301.5, 69691.0, -0.025189886, 0.07581155, -279546.63, 52390.46, 0.0, 10.001243, 9.997987 
4.650918e+2, 2.7612737e+2, -220290.66, -452166.75, 48712.676, -0.06946578, -0.007900818, -210472.77, 23490.291, 0.0, 10.001073, 9.998042 
4.6510652e+2, 2.8612658e+2, -47992.555, -273688.1, -2618.3074, 0.018828522, 0.0902286, -47962.184, 88009.95, 0.00000001636591, 10.001396, 9.998437 
4.6512195e+2, 2.9612654e+2, 164966.13, -107565.53, -26819.896, 0.25529456, 0.21446191, 167580.4, 205554.23, 0.0000038591365, 10.002129, 9.998549 
4.65134e+2, 3.0612528e+2, 222189.14, -173601.98, -9859.198, 0.11467323, 0.28851563, 222434.58, 222434.58, 0.000029778155, 10.0027075, 9.997497 
4.651479e+2, 3.1612226e+2, 297138.38, -93336.23, 109019.99, 0.12476487, 0.22164762, 325514.47, 325514.47, 0.00009717631, 10.002995, 9.997902 
4.748949e+2, 1.2611698e+2, -1899092.6, -1540755.0, 101805.12, 0.37433097, 0.09449918, -1513851.6, 190210.1, 0.0000915649, 9.997563, 10.00233 
4.7489798e+2, 1.3611752e+2, -1975313.1, -1582562.9, -173721.06, -0.08572391, -0.08597255, -1516750.6, 89296.91, 0.000038474074, 9.996617, 10.001854 
4.7490966e+2, 1.4611852e+2, -1891136.9, -1575188.3, 63756.38, -0.13430682, -0.12260646, -1562807.8, -54771.348, 0.000009911169, 9.99686, 10.001114 
4.749259e+2, 1.5612091e+2, -1631399.3, -1396255.3, 37081.496, 0.07246646, -0.031188553, -1390546.1, 19470.002, 0.0000009593812, 9.997964, 10.001139 
4.749389e+2, 1.6612256e+2, -1584012.0, -1390577.8, -53238.598, 0.082546264, 0.059110608, -1376893.1, -64890.957, 0.000000014696447, 9.997938, 10.000507 
4.749493e+2, 1.7612334e+2, -1567600.5, -1333900.9, -60560.9, -0.11711177, 0.063461624, -1319139.5, -105143.65, 0.0, 9.99738, 10.000496 
4.7496334e+2, 1.8612342e+2, -1387374.0, -1236663.3, 25714.223, -0.120829694, 0.044545785, -1232396.6, -116401.836, 0.0, 9.998111, 10.000136 
4.7498015e+2, 1.9612291e+2, -1060497.3, -1036798.44, 58797.887, 0.042134948, -0.04059887, -988667.9, 29330.424, 0.0, 9.999703, 10.000077 
4.7499472e+2, 2.061233e+2, -925121.75, -965549.7, 20229.666, 0.068595335, 0.018036447, -916737.75, 3256.5452, 0.0, 10.000175, 9.99965 
4.750077e+2, 2.1612407e+2, -864606.9, -899864.9, 35515.26, -0.010043241, 0.106856935, -842586.0, -20598.574, 0.0, 9.999971, 9.999532 
4.750218e+2, 2.2612299e+2, -804456.56, -939506.06, 25288.836, -0.008111277, 0.10818495, -799876.44, -75877.47, 0.0, 10.000233, 9.998457 
4.7503674e+2, 2.3612058e+2, -628183.56, -799404.4, 4484.7456, 0.058446053, -0.0020438016, -628066.2, -2042.4414, 0.0, 10.000747, 9.998503 
4.7505105e+2, 2.4611922e+2, -469311.56, -652028.94, 5650.1797, 0.06188678, 0.004881012, -469137.0, 58900.145, 0.0, 10.001073, 9.998684 
4.7506496e+2, 2.561184e+2, -362145.56, -561490.3, 49423.992, 0.021397792, 0.024937924, -350564.56, 79480.336, 0.0, 10.001177, 9.998587 
4.7507915e+2, 2.661172e+2, -318173.0, -571668.06, 55397.22, -0.009766696, 0.09421339, -306595.6, 25462.543, 0.0, 10.001176, 9.997842 
4.750933e+2, 2.7611554e+2, -239054.66, -475743.7, 57251.22, -0.052374076, 0.122002415, -225933.88, 8143.7983, 0.0, 10.001013, 9.997907 
4.7510758e+2, 2.861136e+2, -70506.875, -318481.94, 12579.288, -0.039494198, 0.12585345, -69870.38, 66226.74, 0.0000000367379, 10.001386, 9.998135 
4.751223e+2, 2.9611138e+2, 126373.06, -169784.4, 9707.399, 0.05371767, 0.059128225, 126690.914, 164807.9, 0.000004901276, 10.002039, 9.998171 
4.7513476e+2, 3.0611014e+2, 176230.44, -255079.67, -7149.7866, -0.096776955, 0.18380387, 176348.94, 176348.94, 0.000032907166, 10.002649, 9.996963 
4.7515163e+2, 3.1610817e+2, 305282.5, -71472.69, 125230.6, 0.14290723, 0.27627578, 343110.2, 343110.2, 0.00010232853, 10.002969, 9.998066 
4.8489228e+2, 1.261029e+2, -2121386.5, -1628735.0, 157177.2, 0.4507223, 0.12200847, -1582860.4, 121343.21, 0.00008664265, 9.995938, 10.002523 
4.8489705e+2, 1.3610429e+2, -1817511.6, -1475241.1, -219873.17, 0.123180166, -0.003925459, -1367752.1, 238428.8, 0.000032757685, 9.997543, 10.002161 
4.8490733e+2, 1.4610507e+2, -1710201.3, -1485704.6, 32565.193, -0.1090376, -0.077217974, -1481076.1, 27094.832, 0.000007215262, 9.998104, 10.0011215 
4.84924e+2, 1.5610662e+2, -1641731.5, -1407592.4, -25787.307, 0.09650729, -0.06666216, -1404785.9, 5372.3823, 0.00000059770906, 9.997932, 10.00107 
4.8493752e+2, 1.6610824e+2, -1499238.9, -1384754.5, -72277.94, 0.12151189, 0.03859089, -1349797.0, -37652.438, 0.0000000048834687, 9.998667, 10.000196 
4.8494837e+2, 1.7610948e+2, -1208835.8, -1186943.5, -50960.684, -0.07072406, 0.119453385, -1145766.6, 68367.41, 0.0, 9.999962, 10.000253 
4.849629e+2, 1.8610933e+2, -1091532.0, -1071508.1, 47372.24, -0.06425953, 0.07701856, -1033101.4, 83032.3, 0.0, 10.0000515, 10.000327 
4.8498026e+2, 1.9610816e+2, -1107465.5, -1035311.25, 16173.146, 0.112671345, -0.098227166, -1031851.94, -13711.0, 0.0, 9.999293, 10.000272 
4.8499465e+2, 2.061086e+2, -1075747.8, -1047187.2, -43321.2, 0.103560604, -0.039328706, -1015853.3, -95717.36, 0.0, 9.999177, 9.999579 
4.8500714e+2, 2.1610981e+2, -945904.44, -944188.5, -55218.523, -0.032107525, 0.10144982, -889821.25, -67695.68, 0.0, 9.999438, 9.999486 
4.8502183e+2, 2.261088e+2, -859519.7, -978944.5, -6875.734, -0.009446407, 0.11746655, -859125.2, -134987.8, 0.0, 9.9999075, 9.998346 
4.8503795e+2, 2.3610619e+2, -667830.5, -827885.44, 2391.6228, 0.12429516, -0.0022291755, -667794.75, -41629.652, 0.0, 10.000507, 9.998423 
4.850523e+2, 2.4610484e+2, -502028.78, -648011.4, -4363.7593, 0.10013479, 0.0010199925, -501898.47, 26279.508, 0.0, 10.000764, 9.998859 
4.8506543e+2, 2.5610423e+2, -410586.6, -562671.94, -31921.053, -0.022567129, 0.027947007, -404158.4, 26024.018, 0.0, 10.00076, 9.998774 
4.850802e+2, 2.6610333e+2, -334062.9, -574126.25, -11652.332, -0.010611893, 0.112985715, -333498.66, -1306.135, 0.0, 10.001042, 9.997886 
4.8509592e+2, 2.761019e+2, -161383.2, -438963.22, -12968.217, 0.0874766, 0.15779239, -160778.66, 73431.12, 0.0, 10.001547, 9.997902 
4.8511016e+2, 2.8609926e+2, -17020.818, -342024.72, -26081.654, 0.059016496, 0.1179178, -14941.065, 121293.914, 0.00000008825205, 10.0019655, 9.997692 
4.8512375e+2, 2.96096e+2, 126657.25, -218241.92, -66031.01, -0.008665912, -0.007280692, 138866.69, 177130.03, 0.0000056092463, 10.0022545, 9.99773 
4.8513624e+2, 3.0609375e+2, 135773.11, -287856.13, -49439.88, -0.19005968, 0.04415267, 141466.5, 141466.5, 0.000035389916, 10.002428, 9.996834 
4.851557e+2, 3.1609195e+2, 261128.3, -56766.15, 50840.297, 0.28671986, 0.159068, 269061.13, 269061.13, 0.00010599746, 10.002507, 9.99838 
4.9488473e+2, 1.2608953e+2, -2163599.8, -1709424.6, 162667.63, 0.04704808, 0.20238474, -1657174.6, 47164.855, 0.000079155536, 9.995919, 10.001973 
4.94898e+2, 1.360915e+2, -1837863.6, -1522468.4, -155327.38, 0.43965158, 0.17615812, -1458817.5, 147496.13, 0.000026309019, 9.997563, 10.001824 
4.9490753e+2, 1.4609215e+2, -1722785.0, -1502366.4, 14341.657, 0.06995901, 0.10398906, -1501437.1, 6868.8794, 0.0000047383246, 9.998067, 10.001022 
4.949217e+2, 1.5609297e+2, -1649113.1, -1421131.9, -17263.635, 0.048555713, 0.053581927, -1419832.0, -9532.295, 0.0000002991547, 9.997925, 10.000979 
4.9493593e+2, 1.6609403e+2, -1479686.1, -1336839.1, -33464.48, 0.074882016, 0.09271383, -1329388.1, -17099.66, 0.0000000005507737, 9.998629, 10.000547 
4.9494958e+2, 1.7609507e+2, -1189470.9, -1146609.0, -1236.7227, 0.030214844, 0.1143708, -1146573.4, 67702.75, 0.0, 9.999955, 10.000536 
4.9496427e+2, 1.86095e+2, -1128356.3, -1132613.6, 9331.495, 0.041228384, 0.09002502, -1120913.8, -4640.179, 0.0, 9.999988, 9.999938 
4.949799e+2, 1.9609402e+2, -1142524.6, -1094668.6, -1269.2319, 0.12399389, -0.026520293, -1094635.0, -76355.39, 0.0, 9.999229, 9.9999 
4.9499384e+2, 2.0609353e+2, -1103508.3, -1081562.5, -44018.32, 0.085850716, -0.03325176, -1047169.94, -126886.11, 0.0, 9.999073, 9.999396 
4.950067e+2, 2.1609317e+2, -968665.06, -970822.6, -34092.098, -0.03847873, -0.03108617, -935634.6, -113345.766, 0.0, 9.999336, 9.999361 
4.9502206e+2, 2.2609274e+2, -840958.7, -910895.25, 8730.062, 0.007866824, 0.021178953, -839885.4, -115590.82, 0.0, 9.999789, 9.998865 
4.950391e+2, 2.360922e+2, -657551.44, -776191.9, 33555.65, 0.1644549, 0.05533292, -648718.4, -22416.793, 0.0, 10.000381, 9.9988365 
4.9505275e+2, 2.4609123e+2, -547762.25, -723283.94, -13379.346, 0.050658558, 0.10309784, -546748.25, -18436.424, 0.0, 10.000684, 9.99838 
4.950643e+2, 2.5608975e+2, -448670.44, -625454.5, -19996.295, -0.23700261, 0.09563176, -446436.84, -16110.523, 0.0, 10.0006895, 9.998376 
4.9508035e+2, 2.6608825e+2, -324517.8, -541090.6, -4048.098, -0.121928684, 0.12325772, -324442.2, 7899.129, 0.0, 10.00099, 9.9981365 
4.9509922e+2, 2.7608642e+2, -167018.67, -424790.75, 16135.466, 0.23900774, 0.10145677, -166012.58, 68346.734, 0.0, 10.001441, 9.998047 
4.9511382e+2, 2.8608373e+2, -65011.438, -425741.78, -21851.768, 0.2055401, 0.080031626, -63692.56, 72691.305, 0.00000018947561, 10.001904, 9.997145 
4.951259e+2, 2.960805e+2, 86571.8, -293536.28, -41657.598, -0.05172541, 0.016875546, 91083.664, 129495.94, 0.000005650319, 10.002226, 9.997224 
4.951383e+2, 3.060762e+2, 161924.48, -245412.52, -51270.465, -0.25814947, -0.12709777, 168278.64, 168278.64, 0.00003451672, 10.002462, 9.997115 
4.9515924e+2, 3.1607363e+2, 285418.6, 2587.827, 48561.72, 0.33418348, -0.12772952, 293524.28, 293524.28, 0.00010176044, 10.002458, 9.998815 
5.0488114e+2, 1.2607549e+2, -1941179.5, -1609412.0, 167495.25, 0.02775543, 0.21118703, -1539558.4, 164919.47, 0.00006651573, 9.9974985, 10.001894 
5.048967e+2, 1.3607754e+2, -1854711.0, -1537937.9, -107916.76, 0.5714139, 0.20130697, -1504667.6, 101785.58, 0.00001955312, 9.997477, 10.001768 
5.049052e+2, 1.460785e+2, -1764764.0, -1540395.6, 69480.05, 0.05269573, 0.17153703, -1520622.4, -12179.113, 0.0000028130235, 9.9978695, 10.000853 
5.0491995e+2, 1.560795e+2, -1597337.9, -1410055.6, 7093.5464, 0.06375183, 0.15805829, -1409787.3, 647.76, 0.00000011765629, 9.9983635, 10.000835 
5.049352e+2, 1.6608015e+2, -1433090.0, -1294582.3, 27575.32, 0.13175088, 0.15160148, -1289294.1, 23131.996, 0.000000000026416515, 9.998856, 10.000727 
5.0495005e+2, 1.7608032e+2, -1278659.3, -1178798.4, 21386.02, 0.12085258, 0.072965026, -1174411.1, 40008.207, 0.0, 9.999285, 10.000642 
5.049646e+2, 1.8608013e+2, -1231262.0, -1224586.0, 4420.696, 0.105856925, 0.050175983, -1222384.6, -105966.37, 0.0, 9.999468, 9.9995575 
5.049792e+2, 1.9607948e+2, -1128470.1, -1124758.8, -19023.086, 0.1293899, 0.008686212, -1107501.0, -89078.53, 0.0, 9.999501, 9.999555 
5.049933e+2, 2.060788e+2, -1002507.06, -1040988.56, -18333.428, 0.1002203, 0.0016377575, -995171.1, -74741.83, 0.0, 9.999807, 9.999314 
5.050071e+2, 2.1607792e+2, -852104.75, -917127.5, -22957.463, 0.032030433, -0.04088592, -844816.2, -22377.033, 0.0, 10.00017, 9.999316 
5.050224e+2, 2.260775e+2, -756151.9, -860634.8, 23283.521, 0.046144128, 0.008542958, -751198.1, -26753.68, 0.0, 10.000317, 9.998963 
5.050389e+2, 2.3607722e+2, -670153.3, -772423.0, -1112.0962, 0.12388897, 0.061045792, -670141.25, -43693.113, 0.0, 10.000254, 9.998924 
5.0505304e+2, 2.4607612e+2, -578470.06, -755689.5, -23997.709, 0.02426153, 0.09929274, -575278.0, -46818.906, 0.0, 10.000548, 9.998224 
5.050657e+2, 2.5607422e+2, -392649.72, -616353.5, -24074.707, -0.18283352, 0.06479777, -390088.16, 40388.99, 0.0, 10.001153, 9.998219 
5.0508213e+2, 2.660723e+2, -269532.44, -535072.9, 555.7542, -0.06086013, 0.06672967, -269531.28, 62964.742, 0.0, 10.001459, 9.997956 
5.0510085e+2, 2.760701e+2, -171443.1, -449326.78, -37942.758, 0.26283824, 0.027658392, -166355.45, 68162.26, 0.00000000061010413, 10.001504, 9.997852 
5.0511616e+2, 2.8606763e+2, -57843.992, -429470.84, -34017.508, 0.252625, 0.040953025, -54755.805, 81784.86, 0.00000027597625, 10.001984, 9.997083 
5.0512946e+2, 2.9606497e+2, 157529.86, -268578.6, -44127.926, 0.062186066, 0.043979548, 162051.78, 200615.97, 0.0000049916057, 10.002757, 9.997144 
5.051414e+2, 3.0606037e+2, 207180.47, -207937.05, -51789.97, -0.19497807, -0.13405406, 213544.22, 213544.22, 0.000030276777, 10.002725, 9.997246 
5.0516135e+2, 3.1605813e+2, 196732.34, -66759.88, -37960.67, 0.3342224, -0.1115887, 202092.22, 202092.22, 0.000090633286, 10.001973, 9.998576 
5.1488066e+2, 1.2606072e+2, -1914003.1, -1554240.4, 54147.516, 0.17389075, 0.14446524, -1546267.4, 158351.88, 0.00005196835, 9.997509, 10.00226 
5.148929e+2, 1.3606241e+2, -1832612.9, -1499819.3, -88379.6, 0.417167, 0.062600166, -1477804.6, 128794.43, 0.000013925394, 9.997507, 10.002015 
5.1490015e+2, 1.4606413e+2, -1786614.8, -1584138.1, 77697.2, -0.27505007, 0.11789476, -1557759.6, -49177.64, 0.000001645238, 9.997857, 10.000564 
5.1491827e+2, 1.5606618e+2, -1615297.5, -1449016.4, 37727.14, 0.041430093, 0.23648658, -1440856.9, -30292.742, 0.00000003629146, 9.998365, 10.000572 
5.149349e+2, 1.6606645e+2, -1446981.5, -1304833.5, 37345.64, 0.19239666, 0.20616822, -1295619.3, 16939.271, 0.0, 9.998782, 10.000687 
5.149494e+2, 1.7606533e+2, -1291169.9, -1193651.0, 46424.355, 0.100107275, -0.0036578425, -1175085.1, 39478.297, 0.0, 9.999243, 10.000555 
5.149635e+2, 1.8606482e+2, -1264279.3, -1281518.9, -4674.704, 0.028663922, -0.032187954, -1263093.3, -146526.95, 0.0, 9.9994135, 9.999191 
5.14978e+2, 1.9606455e+2, -1155824.9, -1177316.0, -5374.2305, 0.027129162, -0.002103649, -1154555.9, -135986.17, 0.0, 9.999468, 9.999216 
5.1499283e+2, 2.0606427e+2, -1026288.9, -1059679.8, -13662.894, 0.053311307, 0.051431935, -1021410.9, -100837.55, 0.0, 9.99968, 9.999245 
5.15008e+2, 2.1606384e+2, -873311.56, -936802.56, -1996.8259, 0.08364293, 0.0577255, -873248.8, -50670.332, 0.0, 10.000058, 9.999236 
5.150227e+2, 2.2606285e+2, -791924.94, -907472.75, 9734.152, 0.020415451, 0.06711556, -791110.7, -66521.79, 0.0, 10.000199, 9.9987 
5.150371e+2, 2.3606129e+2, -699897.8, -810066.9, 8167.6504, -0.10211048, 0.018454472, -699295.56, -72691.19, 0.0, 10.000152, 9.998715 
5.1505274e+2, 2.4605961e+2, -572498.0, -730684.5, -10701.284, -0.08431247, -0.0020516405, -571777.4, -43158.48, 0.0, 10.000492, 9.998425 
5.1506907e+2, 2.5605768e+2, -398065.63, -605824.6, 8635.925, 0.021937814, -0.06252186, -397707.28, 32926.97, 0.0, 10.001056, 9.998338 
5.150851e+2, 2.6605552e+2, -325522.78, -638038.44, -6205.695, 0.070653, -0.052586097, -325399.6, 7256.453, 0.0, 10.001406, 9.997276 
5.1510066e+2, 2.7605286e+2, -218586.2, -534401.2, -18603.078, 0.06890502, -0.066228725, -217494.17, 17191.014, 0.0000000018853024, 10.001449, 9.997297 
5.1511693e+2, 2.860509e+2, -32532.219, -373888.78, -13601.484, 0.108132824, 0.0015473777, -31991.121, 104714.32, 0.00000034894228, 10.001968, 9.997472 
5.1513386e+2, 2.960494e+2, 167122.3, -231099.94, -6878.185, 0.19646536, 0.07148491, 167241.06, 205960.81, 0.000004315403, 10.002676, 9.997439 
5.151451e+2, 3.0604598e+2, 199536.11, -213121.48, -80882.85, -0.11636387, 0.008615269, 214823.22, 214823.22, 0.000026122347, 10.002689, 9.997227 
5.1516163e+2, 3.16045e+2, 123124.53, -198682.16, -59132.285, 0.11759916, 0.16082299, 133646.14, 133646.14, 0.000081293096, 10.001896, 9.997706 
5.248783e+2, 1.2604599e+2, -2119620.3, -1692459.3, 11740.67, 0.26085576, 0.08058006, -1692136.9, 12624.2705, 0.000041741798, 9.996253, 10.001915 
5.2489054e+2, 1.3604818e+2, -1761531.9, -1503629.1, -117588.56, 0.4139187, 0.08286891, -1458065.4, 148673.9, 0.000010470756, 9.998152, 10.001674 
5.248979e+2, 1.460495e+2, -1610748.1, -1544118.6, 31419.254, -0.34454343, 0.13220564, -1531639.9, -22913.078, 0.0000009776196, 9.999255, 10.000163 
5.2491766e+2, 1.5605041e+2, -1470862.0, -1424143.0, -45675.043, 0.08938902, 0.17890346, -1396200.8, 14517.827, 0.000000005050013, 9.999539, 10.000177 
5.2493453e+2, 1.6605045e+2, -1418901.6, -1324478.0, -60047.58, 0.26649895, 0.1584202, -1295304.9, 17411.357, 0.0, 9.999118, 10.000396 
5.2494836e+2, 1.7604968e+2, -1444391.5, -1291487.6, -88665.38, 0.13126917, 0.01872285, -1250865.0, -36145.414, 0.0, 9.998296, 10.000344 
5.249625e+2, 1.8604943e+2, -1309144.0, -1256901.3, -61564.586, 0.016553188, 0.004955033, -1216145.8, -99425.89, 0.0, 9.998907, 9.99961 
5.2497727e+2, 1.9604938e+2, -998602.5, -1055756.4, -29739.184, -0.025469985, 0.015311848, -985935.5, 32783.887, 0.0, 10.000371, 9.99961 
5.249926e+2, 2.0604914e+2, -923421.25, -1034504.94, -32890.215, 0.026941728, 0.066965766, -914413.4, 6308.6846, 0.0, 10.000475, 9.99904 
5.250082e+2, 2.1604861e+2, -952544.44, -996452.44, -45975.145, 0.12734015, 0.083557256, -923550.5, -100821.75, 0.0, 9.999599, 9.999047 
5.2502304e+2, 2.2604753e+2, -840322.4, -935734.1, 15190.036, 0.058338653, 0.09459611, -837962.4, -113222.71, 0.0, 9.9999, 9.998643 
5.2503747e+2, 2.3604581e+2, -585077.9, -763694.4, 6104.7, -0.1157863, 0.036883738, -584869.5, 41886.51, 0.0, 10.00098, 9.998636 
5.250538e+2, 2.4604397e+2, -461121.3, -675810.3, -13085.789, -0.060328875, 0.0019312679, -460326.66, 68445.04, 0.0, 10.001247, 9.99844 
5.2507126e+2, 2.5604188e+2, -411069.1, -612864.75, -27730.89, 0.1426154, -0.07444024, -407327.7, 23460.693, 0.0, 10.000968, 9.998333 
5.2508706e+2, 2.6603973e+2, -357606.6, -669110.75, 4829.5923, 0.13984029, -0.052376937, -357531.72, -24721.719, 0.0, 10.001255, 9.997129 
5.251016e+2, 2.760373e+2, -152934.36, -508731.13, 9880.242, 0.0035394155, -0.03234844, -152660.2, 82177.26, 0.00000000009174081, 10.001944, 9.997223 
5.2511835e+2, 2.8603542e+2, -73119.68, -361282.5, 27900.785, 0.078012295, 0.03362551, -70443.11, 66414.445, 0.00000033351301, 10.001559, 9.997749 
5.2513635e+2, 2.960339e+2, -138222.47, -345353.4, 2455.6602, 0.3016866, 0.07180815, -138193.36, -99319.69, 0.0000041082662, 10.000437, 9.99773 
5.25148e+2, 3.0603147e+2, 45239.29, -213883.56, 11936.551, -0.026228983, 0.055313356, 45787.99, 45787.99, 0.000024723933, 10.001308, 9.9978895 
5.251636e+2, 3.1603095e+2, 331252.8, -74699.305, 9463.808, 0.067971274, 0.19870308, 331473.3, 331473.3, 0.00007789345, 10.003223, 9.997918 
5.3487307e+2, 1.2603104e+2, -2183564.0, -1826329.1, -72133.85, 0.051324356, -0.0012760569, -1812313.5, -107407.74, 0.000035627574, 9.996276, 10.000978 
5.3488946e+2, 1.3603492e+2, -1828644.1, -1639398.6, -38843.97, 0.46319246, 0.26957935, -1631735.9, -24862.33, 0.000008273398, 9.998135, 10.000756 
5.3489816e+2, 1.460346e+2, -1654667.1, -1623702.8, 35273.766, -0.27535227, 0.22402282, -1600663.0, -91785.42, 0.00000061502607, 9.999208, 9.999635 
5.3491765e+2, 1.5603217e+2, -1511497.4, -1506158.8, -29332.037, 0.11245288, -0.0134202605, -1479374.8, -68476.17, 0.00000000036285042, 9.999529, 9.999618 
5.3493387e+2, 1.6603206e+2, -1467050.0, -1414923.6, -105202.41, 0.26194453, 0.010683275, -1332604.0, -19704.12, 0.0, 9.999077, 9.999797 
5.3494686e+2, 1.7603338e+2, -1474682.0, -1353168.4, -101510.734, 0.12365409, 0.137734, -1295621.3, -80732.35, 0.0, 9.998284, 9.999931 
5.349611e+2, 1.8603393e+2, -1234336.0, -1087432.4, -14562.339, -0.029540224, 0.15718389, -1086002.8, 30876.81, 0.0, 9.998847, 10.000799 
5.349768e+2, 1.9603382e+2, -938341.56, -917974.75, 27555.16, -0.13111487, 0.042948365, -898781.5, 120091.67, 0.0, 10.000308, 10.00059 
5.349923e+2, 2.0603333e+2, -959847.06, -1080713.4, -75867.48, -0.07732839, 0.039837897, -923285.2, -2408.7944, 0.0, 10.000355, 9.998776 
5.3500736e+2, 2.1603242e+2, -984053.2, -1039125.9, -62704.453, 0.06747709, 0.04371309, -943105.25, -120217.03, 0.0, 9.999497, 9.998804 
5.350233e+2, 2.2603163e+2, -851307.25, -934191.44, 46328.06, 0.06822524, 0.0937469, -830590.4, -105694.41, 0.0, 9.999794, 9.998706 
5.350396e+2, 2.3603076e+2, -598457.56, -763909.06, 51107.12, -0.020092763, 0.11196486, -583943.94, 42958.965, 0.0, 10.000861, 9.998691 
5.350559e+2, 2.4602905e+2, -486992.84, -711600.3, -32185.994, 0.0045816, 0.100355, -482471.66, 46446.75, 0.0, 10.001174, 9.998229 
5.3507197e+2, 2.5602663e+2, -432628.8, -641026.94, -23127.51, 0.090521544, 0.009780043, -430093.03, 848.1845, 0.0, 10.000897, 9.998175 
5.350877e+2, 2.6602483e+2, -333523.56, -611931.5, 22064.182, 0.057388894, 0.055350233, -331785.8, 1173.2051, 0.0, 10.001221, 9.997539 
5.351032e+2, 2.7602333e+2, -136356.94, -458584.6, 41436.81, -0.05364595, 0.12084774, -131113.69, 103862.07, 0.0, 10.001866, 9.997609 
5.351199e+2, 2.8602114e+2, -66732.19, -343104.97, -23557.55, 0.053576723, 0.13214545, -64738.563, 72259.92, 0.00000019037492, 10.001538, 9.997884 
5.3513694e+2, 2.9601842e+2, -127439.84, -311903.8, -13453.423, 0.28909984, 0.042700846, -126463.81, -87437.01, 0.0000040138116, 10.000389, 9.997984 
5.351495e+2, 3.0601668e+2, 131123.97, -39774.01, 82096.77, -0.01943752, 0.01843108, 164171.44, 164171.44, 0.000024880646, 10.001315, 9.9990835 
5.3516626e+2, 3.160161e+2, 412928.47, 89545.76, 89900.914, -0.046709385, 0.027458567, 436240.53, 436240.53, 0.00007745561, 10.003225, 9.99905 
5.448682e+2, 1.2601647e+2, -2332152.5, -1916502.6, -132337.64, -0.012057261, 0.03660208, -1877944.8, -172894.78, 0.000030309948, 9.9953375, 10.000839 
5.448881e+2, 1.3602011e+2, -1778739.3, -1627210.6, 32060.395, 0.50521725, 0.3014002, -1620706.5, -13686.552, 0.000006366235, 9.998532, 10.000656 
5.4489845e+2, 1.4601943e+2, -1634144.0, -1642026.1, 79794.016, -0.1710488, 0.24050216, -1558193.8, -49166.297, 0.00000037085837, 9.999456, 9.999401 
5.449168e+2, 1.5601681e+2, -1631268.1, -1587070.3, 12776.859, 0.117568165, 0.0053784517, -1583642.5, -172591.92, 0.00000000007720086, 9.998805, 9.9994135 
5.449325e+2, 1.660167e+2, -1452129.8, -1441914.9, -549.0127, 0.22143632, 0.05360752, -1441885.5, -128832.31, 0.0, 9.999341, 9.9994755 
5.449459e+2, 1.7601809e+2, -1153310.5, -1227033.0, 628.3552, 0.09188823, 0.22103164, -1153305.1, 61738.156, 0.0, 10.000629, 9.9996605 
5.449606e+2, 1.860184e+2, -1035080.3, -977853.75, 56208.355, -0.020409, 0.22023706, -943394.8, 173640.98, 0.0, 10.000135, 10.000943 
5.449768e+2, 1.9601786e+2, -1194491.8, -1026375.56, 5207.4033, -0.06831278, 0.04920295, -1026214.44, -7183.2095, 0.0, 9.99847, 10.000736 
5.449924e+2, 2.0601718e+2, -1112638.3, -1163969.4, -66875.15, -0.041108157, 0.023724722, -1066672.8, -145637.83, 0.0, 9.999354, 9.998688 
5.4500765e+2, 2.1601614e+2, -645077.44, -885526.7, -62161.0, 0.029722936, 0.028217554, -629958.25, 193088.45, 0.0, 10.001881, 9.998707 
5.450239e+2, 2.2601503e+2, -544719.5, -825735.1, 16073.427, 0.053774327, 0.06689401, -543803.1, 181254.77, 0.0, 10.002058, 9.9983635 
5.45041e+2, 2.360136e+2, -655027.8, -830176.44, -28549.127, 0.05414988, 0.06714926, -650491.8, -23420.785, 0.0, 10.000636, 9.998349 
5.4505724e+2, 2.4601202e+2, -597565.5, -782399.56, -90070.61, 0.06465614, 0.09323771, -560933.6, -31846.684, 0.0, 10.000494, 9.998067 
5.4507273e+2, 2.5601017e+2, -389031.13, -628185.6, -101697.28, 0.07403862, 0.07417242, -351633.7, 79472.81, 0.0, 10.001241, 9.998093 
5.4508877e+2, 2.6600856e+2, -286208.8, -522378.38, -29726.354, 0.043397363, 0.10821823, -282524.66, 50597.47, 0.0, 10.001264, 9.998132 
5.4510504e+2, 2.760069e+2, -244538.53, -448012.94, -18129.662, -0.00005651095, 0.101981364, -242935.8, -7798.091, 0.0, 10.000853, 9.998172 
5.451214e+2, 2.8600505e+2, -134499.67, -362875.9, -73685.17, 0.08403787, 0.11334127, -112789.18, 24367.975, 0.00000011177434, 10.001031, 9.997993 
5.4513747e+2, 2.9600298e+2, 64014.21, -197777.02, -81190.07, 0.24357633, 0.08078892, 87149.4, 126329.47, 0.0000045059896, 10.001637, 9.998158 
5.4515094e+2, 3.0600148e+2, 238159.08, 40281.914, 37638.08, -0.03172613, 0.05752185, 245076.38, 245076.38, 0.000026381855, 10.001929, 9.999332 
5.451689e+2, 3.1600028e+2, 212073.63, 46165.664, -69326.664, -0.012455102, -0.022230592, 237228.61, 237228.61, 0.00007890932, 10.001626, 9.999514 
5.548625e+2, 1.2600245e+2, -2281185.0, -1795547.4, -153699.56, -0.15710048, 0.23622906, -1750990.9, -45798.75, 0.000026661139, 9.995293, 10.001678 
5.548863e+2, 1.3600367e+2, -1731003.4, -1524246.1, 149763.53, 0.44899318, 0.17826752, -1445646.0, 161532.94, 0.0000052899522, 9.998522, 10.001367 
5.5489856e+2, 1.4600389e+2, -1624423.5, -1620503.6, 42548.13, -0.12928233, 0.16935831, -1579870.4, -70693.14, 0.00000021782215, 9.99945, 9.999554 
5.5491465e+2, 1.5600443e+2, -1620281.9, -1568101.8, 8043.0337, 0.0006087062, 0.2358551, -1566890.1, -155716.63, 0.00000000000011946363, 9.998811, 9.999549 
5.549302e+2, 1.6600443e+2, -1460582.9, -1452034.6, 40473.0, 0.034761157, 0.29397658, -1415610.6, -102435.62, 0.0, 9.999314, 9.999417 
5.5494523e+2, 1.7600378e+2, -1169431.9, -1254324.0, 49103.96, -0.0586485, 0.26350456, -1146971.3, 68211.87, 0.0, 10.000602, 9.999489 
5.549607e+2, 1.8600284e+2, -1105318.4, -1107346.1, -17077.102, -0.04387111, 0.19190054, -1089225.0, 27963.4, 0.0, 10.000065, 10.000089 
5.549769e+2, 1.9600156e+2, -1257604.6, -1144908.1, -32326.309, 0.07180752, 0.033862192, -1136294.0, -117100.695, 0.0, 9.998408, 9.99996 
5.5499274e+2, 2.0600066e+2, -1119074.0, -1151586.5, 21154.133, 0.04199786, 0.016128272, -1108651.4, -187453.52, 0.0, 9.9992485, 9.99882 
5.5500853e+2, 2.1599977e+2, -661229.3, -892066.56, 29700.629, -0.08962123, 0.022170484, -657469.1, 165735.77, 0.0, 10.001758, 9.998724 
5.5502486e+2, 2.259976e+2, -619694.25, -948195.6, -47243.14, -0.082464404, -0.0021267638, -613035.0, 112191.586, 0.0, 10.001922, 9.997586 
5.550415e+2, 2.3599441e+2, -724579.9, -942863.5, -62117.316, 0.018095236, -0.101146154, -708141.06, -80881.48, 0.0, 10.000503, 9.997638 
5.5505764e+2, 2.45993e+2, -621302.25, -815170.25, -68858.625, 0.030229816, -0.0162907, -599334.1, -70057.97, 0.0, 10.000416, 9.997886 
5.550733e+2, 2.5599256e+2, -407213.44, -644890.5, -65773.75, -0.018403888, 0.1252327, -390225.66, 41058.055, 0.0, 10.001145, 9.998027 
5.550898e+2, 2.6599088e+2, -236125.27, -409137.13, -53719.285, 0.0036788178, 0.107891046, -220802.73, 112496.516, 0.0, 10.0012245, 9.998927 
5.551068e+2, 2.759881e+2, -208061.16, -356355.03, -18464.248, 0.068527535, -0.08396575, -205796.72, 29526.03, 0.0, 10.000783, 9.998836 
5.551227e+2, 2.859871e+2, -133514.9, -355884.88, -61033.742, 0.08412567, -0.015739271, -117864.5, 19468.92, 0.00000024371042, 10.001006, 9.998055 
5.5513746e+2, 2.9598737e+2, 61256.508, -197487.34, -46913.016, 0.049379133, 0.17077157, 69499.72, 108835.44, 0.0000058589785, 10.001602, 9.998183 
5.5515176e+2, 3.0598575e+2, 190101.88, -53267.113, 23045.771, -0.16766252, 0.16670403, 192264.97, 192264.97, 0.000029984647, 10.001905, 9.998698 
5.551709e+2, 3.159831e+2, 189973.53, 11368.696, -42656.566, -0.021418314, 0.010064915, 199638.31, 199638.31, 0.00008416486, 10.001568, 9.999308 
5.6485844e+2, 1.2598543e+2, -2134475.0, -1655164.8, -201921.6, -0.10752126, 0.2515097, -1581440.0, 123920.984, 0.000022362967, 9.995982, 10.002304 
5.64883e+2, 1.3598682e+2, -1860134.9, -1518094.6, 121611.67, 0.34387428, 0.13568667, -1479264.1, 128077.89, 0.000004259607, 9.997323, 10.001984 
5.648979e+2, 1.4598738e+2, -1773429.3, -1678492.8, -40483.734, -0.08112145, 0.12813613, -1663573.8, -154237.42, 0.00000013010742, 9.998369, 9.999678 
5.6491375e+2, 1.559885e+2, -1540022.0, -1508427.0, -97433.875, 0.012614344, 0.2396724, -1425518.3, -14189.469, 0.0, 9.999283, 9.999727 
5.649294e+2, 1.6598871e+2, -1445352.4, -1435976.4, -23246.045, 0.02851328, 0.30465347, -1416950.4, -103621.8, 0.0, 9.999361, 9.999516 
5.6494516e+2, 1.7598794e+2, -1416169.9, -1370279.8, -22684.137, -0.030835921, 0.25263458, -1360959.6, -145622.67, 0.0, 9.998884, 9.999521 
5.64961e+2, 1.8598674e+2, -1238984.9, -1264615.3, -79335.01, 0.011060401, 0.19830342, -1171436.6, -54090.004, 0.0, 9.999558, 9.999247 
5.6497705e+2, 1.959851e+2, -938346.9, -1068365.0, -105411.94, 0.13424617, 0.084918074, -879509.8, 139848.64, 0.0, 10.00095, 9.999248 
5.649933e+2, 2.0598398e+2, -855380.56, -1013070.25, 865.796, 0.096696325, 0.070744894, -855375.8, 65990.17, 0.0, 10.001006, 9.998927 
5.650099e+2, 2.1598303e+2, -894413.9, -989119.06, -15404.294, -0.03829252, 0.06033273, -891971.3, -68598.85, 0.0, 10.000103, 9.99885 
5.6502616e+2, 2.2598092e+2, -871662.9, -1077273.8, -77557.84, -0.04501938, 0.041927334, -845688.75, -120295.195, 0.0, 10.000224, 9.997517 
5.650424e+2, 2.3597789e+2, -651017.2, -905728.4, -56167.73, 0.0420244, -0.039561924, -639181.3, -11754.959, 0.0, 10.001004, 9.997643 
5.6505823e+2, 2.4597657e+2, -519493.6, -709169.1, 18922.986, 0.03346057, 0.027491365, -517624.16, 11816.785, 0.0, 10.000896, 9.998366 
5.650737e+2, 2.5597614e+2, -507607.1, -647586.8, 46054.656, -0.03893503, 0.12434788, -493813.84, -62368.098, 0.0, 10.00027, 9.9984255 
5.650905e+2, 2.659746e+2, -396578.25, -496097.78, 55125.95, 0.0064781546, 0.11075289, -372075.63, -38616.07, 0.0, 10.000163, 9.99884 
5.6510794e+2, 2.7597222e+2, -267246.03, -387572.9, 10142.079, 0.132495, -0.03886033, -266397.2, -30916.318, 0.0, 10.000401, 9.998796 
5.6512403e+2, 2.8597116e+2, -148319.13, -364936.22, -8469.499, 0.13748842, 0.021652037, -147988.48, -10496.783, 0.00000046127252, 10.000889, 9.998056 
5.6513906e+2, 2.95971e+2, 56696.47, -206467.19, -19134.426, 0.057788, 0.17046064, 58080.438, 97575.99, 0.000007820285, 10.001579, 9.998138 
5.6515366e+2, 3.059691e+2, 155700.8, -98260.88, 55294.53, -0.1481052, 0.1510534, 167217.69, 167217.69, 0.00003595913, 10.001795, 9.998439 
5.651732e+2, 3.159668e+2, 144111.7, -40996.15, -21596.104, 0.07038577, 0.053970385, 146597.88, 146597.88, 0.000094486146, 10.001398, 9.999019 
5.7485545e+2, 1.259651e+2, -2104199.5, -1591442.1, -241708.64, -0.05993534, 0.053276353, -1495467.3, 210092.38, 0.000015098279, 9.995982, 10.002734 
5.7487786e+2, 1.3596942e+2, -1826325.4, -1446999.0, 173002.63, 0.07248333, 0.174761, -1379948.3, 227562.02, 0.0000026568694, 9.997309, 10.002478 
5.748959e+2, 1.4596982e+2, -1771395.6, -1661190.6, -21873.027, -0.13389477, 0.122429274, -1657008.1, -147502.88, 0.000000050157187, 9.998319, 9.999819 
5.749138e+2, 1.5596883e+2, -1533576.4, -1488250.3, -57137.875, 0.06445802, 0.0082403645, -1449445.0, -37926.93, 0.0, 9.999256, 9.99988 
5.7492995e+2, 1.6596931e+2, -1425905.3, -1383602.5, -54475.09, 0.11774607, 0.07308761, -1346316.5, -32801.168, 0.0, 9.999308, 9.999898 
5.749454e+2, 1.7597055e+2, -1405026.4, -1339175.3, -24692.775, 0.078566656, 0.18359545, -1330944.6, -115439.734, 0.0, 9.998846, 9.999755 
5.749611e+2, 1.8597017e+2, -1301093.4, -1379162.0, -33764.59, 0.046447575, 0.2440015, -1288516.4, -171006.64, 0.0, 9.999503, 9.998485 
5.7497704e+2, 1.9596846e+2, -998634.9, -1173693.1, -50294.78, 0.015703995, 0.20267867, -985213.94, 34313.137, 0.0, 10.000867, 9.998564 
5.7499397e+2, 2.0596713e+2, -864420.56, -1006008.3, -44921.887, 0.03399651, 0.1919111, -851370.8, 70168.35, 0.0, 10.000893, 9.99903 
5.7501143e+2, 2.159659e+2, -903136.8, -978861.4, -34085.91, 0.084424645, 0.14403003, -890054.0, -66504.75, 0.0, 9.999976, 9.998983 
5.7502776e+2, 2.2596496e+2, -837202.3, -979453.8, -56741.844, 0.072714604, 0.19663262, -817341.75, -91782.625, 0.0, 10.000107, 9.998244 
5.750433e+2, 2.3596402e+2, -615561.4, -805782.4, -20624.482, 0.01770887, 0.25317976, -613350.9, 14220.148, 0.0, 10.000887, 9.998388 
5.750587e+2, 2.4596265e+2, -450418.53, -559909.2, -15980.396, -0.030951237, 0.22326058, -448133.84, 81448.055, 0.0, 10.000857, 9.999416 
5.750738e+2, 2.5596076e+2, -457628.34, -528794.56, 36192.68, -0.08122204, 0.07232278, -442456.5, -10862.649, 0.0, 10.000196, 9.999282 
5.7509047e+2, 2.6595968e+2, -460771.44, -629135.44, 53549.617, -0.030820467, 0.11429127, -445182.84, -111579.04, 0.0, 10.000151, 9.997938 
5.751081e+2, 2.7595899e+2, -327023.44, -506702.3, 28063.582, 0.081064545, 0.22092366, -322742.28, -87127.79, 0.0, 10.000362, 9.998004 
5.7512516e+2, 2.85957e+2, -148483.3, -357886.4, 5269.0737, 0.13623317, 0.21872613, -148350.8, -10717.3, 0.0000006054728, 10.000858, 9.99812 
5.751417e+2, 2.9595405e+2, 50592.887, -206263.34, 18010.129, 0.14518395, 0.08146773, 51849.566, 91508.91, 0.000009307056, 10.001526, 9.998165 
5.751565e+2, 3.0595163e+2, 158776.17, -93993.75, 36313.363, -0.068834834, 0.0155800525, 163889.58, 163889.58, 0.000040671366, 10.001798, 9.998475 
5.751752e+2, 3.1595093e+2, 112630.52, -106969.586, -5845.136, 0.07704524, 0.07095316, 112786.0, 112786.0, 0.000103750725, 10.001385, 9.998584 
5.848526e+2, 1.2594742e+2, -1960318.1, -1624333.4, -109763.91, -0.0026416415, 0.011715398, -1591653.0, 114075.98, 0.000008007214, 9.997383, 10.001842 
5.848747e+2, 1.3595103e+2, -1707145.3, -1466851.0, 179218.9, -0.023313038, 0.14419143, -1371232.6, 236456.5, 0.0000012151539, 9.998459, 10.001791 
5.8489543e+2, 1.4595154e+2, -1750653.3, -1614344.5, -54903.543, -0.00565677, 0.11900234, -1594980.8, -85296.26, 0.000000012980553, 9.998317, 10.000127 
5.849129e+2, 1.5595101e+2, -1724046.6, -1544095.9, -102015.75, 0.12826672, 0.016297273, -1498046.4, -86352.695, 0.0, 9.997805, 10.000182 
5.8492875e+2, 1.6595162e+2, -1574391.0, -1446964.5, -82431.78, 0.1343857, 0.07506627, -1406493.4, -92803.75, 0.0, 9.99825, 9.999973 
5.849446e+2, 1.7595279e+2, -1330897.5, -1291272.9, -91591.39, 0.09718042, 0.1701878, -1217375.5, -1696.3424, 0.0, 9.999302, 9.99986 
5.849608e+2, 1.8595251e+2, -1278786.3, -1363743.6, -42580.27, 0.06184029, 0.23420732, -1261119.1, -143435.97, 0.0, 9.999629, 9.998534 
5.8497715e+2, 1.9595103e+2, -1207778.4, -1271882.6, -21237.38, 0.020510003, 0.21177097, -1201380.9, -181681.53, 0.0, 9.999411, 9.998599 
5.849942e+2, 2.0594992e+2, -1080167.8, -1114438.6, -7394.703, 0.051389724, 0.2223342, -1078640.3, -156929.44, 0.0, 9.99943, 9.998989 
5.850117e+2, 2.159489e+2, -950674.4, -999279.2, -21684.195, 0.1370865, 0.1966708, -942406.7, -118686.03, 0.0, 9.999633, 9.999012 
5.850284e+2, 2.2594851e+2, -822791.44, -890902.2, 2388.8223, 0.13937731, 0.26312292, -822707.8, -96983.19, 0.0, 9.999868, 9.998969 
5.8504444e+2, 2.3594832e+2, -677654.4, -767859.56, 12049.089, 0.08077546, 0.32593206, -676072.6, -48345.703, 0.0, 10.000169, 9.999002 
5.850599e+2, 2.4594682e+2, -544634.06, -634523.25, -46252.99, 0.032878485, 0.27146015, -525085.6, 4652.3433, 0.0, 10.000325, 9.999162 
5.8507484e+2, 2.5594428e+2, -430341.7, -539368.94, -106463.84, -0.007435572, 0.077105924, -365246.44, 66509.83, 0.0, 10.000484, 9.9990635 
5.850915e+2, 2.659431e+2, -375501.3, -599461.5, -52081.24, 0.026941566, 0.12484985, -363982.4, -30215.12, 0.0, 10.000802, 9.997822 
5.8510923e+2, 2.7594262e+2, -198871.83, -457329.88, -40547.293, 0.117812015, 0.27144435, -192660.0, 43115.59, 0.0, 10.00131, 9.997884 
5.851266e+2, 2.8594023e+2, -47089.52, -305386.25, -22902.117, 0.16864745, 0.22922905, -45074.6, 92723.266, 0.00000055145284, 10.001543, 9.998146 
5.8514374e+2, 2.9593635e+2, 46291.484, -208792.98, -35833.02, 0.19985734, -0.00050231774, 51229.54, 91060.15, 0.000008783807, 10.001501, 9.998157 
5.851586e+2, 3.0593455e+2, 169954.56, -96348.336, -5172.108, -0.032809447, -0.00007094759, 170054.97, 170054.97, 0.000039667964, 10.0019045, 9.998403 
5.8517766e+2, 3.1593424e+2, 252713.22, -65075.246, -103050.2, 0.13846593, 0.098650776, 283204.1, 283204.1, 0.00010388018, 10.002462, 9.998341 
5.948493e+2, 1.2593234e+2, -2100474.5, -1916183.4, -76481.82, -0.12996285, 0.13151841, -1888578.0, -182708.66, 0.0000033727015, 9.99741, 9.999818 
5.948733e+2, 1.3593164e+2, -1839952.3, -1738442.4, 213253.0, -0.028421404, 0.0384841, -1569987.6, 37891.09, 0.00000044999516, 9.998455, 9.999926 
5.948962e+2, 1.4593251e+2, -1721240.0, -1547852.8, -92359.12, 0.2031923, 0.10872611, -1507873.6, 2001.0823, 0.000000014541682, 9.99829, 10.000596 
5.949106e+2, 1.559351e+2, -1700754.3, -1490841.6, -107027.35, 0.09512177, 0.27065897, -1445895.8, -34040.406, 0.0, 9.997778, 10.000565 
5.949257e+2, 1.6593575e+2, -1596407.9, -1477688.8, -52801.957, -0.020257764, 0.3285712, -1457602.6, -143752.36, 0.0, 9.998192, 9.99979 
5.9494245e+2, 1.7593472e+2, -1340364.0, -1301613.3, -46204.676, -0.069832064, 0.22297832, -1270886.0, -55026.82, 0.0, 9.999267, 9.999806 
5.949597e+2, 1.8593378e+2, -1225101.9, -1239802.5, -62719.406, -0.03690694, 0.17243439, -1169303.6, -51436.27, 0.0, 9.999575, 9.999412 
5.9497696e+2, 1.9593276e+2, -1166998.1, -1165901.8, -19155.33, 0.037228163, 0.10735294, -1147286.8, -127410.555, 0.0, 9.999321, 9.999369 
5.9499377e+2, 2.0593233e+2, -1102833.3, -1139356.4, -9772.822, 0.049807154, 0.15999016, -1100382.8, -178501.48, 0.0, 9.9993305, 9.998867 
5.9501046e+2, 2.159321e+2, -971216.94, -1014685.56, -2519.281, 0.028057382, 0.22657155, -971071.4, -147185.52, 0.0, 9.999516, 9.998964 
5.950276e+2, 2.2593163e+2, -786639.44, -799018.75, 2393.0313, 0.06243521, 0.25022334, -786192.94, -60303.652, 0.0, 9.999786, 9.999643 
5.9504527e+2, 2.3593077e+2, -661223.7, -710054.75, 32452.006, 0.12984903, 0.17987184, -645028.25, -17134.129, 0.0, 10.000059, 9.999456 
5.950614e+2, 2.4592908e+2, -656118.6, -856285.25, -50186.887, 0.12640554, 0.16709496, -644240.4, -114331.12, 0.0, 10.000274, 9.997668 
5.950764e+2, 2.559267e+2, -529765.94, -730621.8, -90634.41, 0.071780555, 0.13490549, -494915.0, -62982.254, 0.0, 10.000413, 9.997787 
5.950931e+2, 2.6592493e+2, -336168.53, -510183.5, -43266.773, 0.08552917, 0.14733057, -326004.44, 7944.632, 0.0, 10.0007715, 9.998451 
5.9511095e+2, 2.7592334e+2, -169667.4, -382998.25, -11004.899, 0.13572806, 0.12143576, -169101.2, 66861.76, 0.0, 10.00125, 9.998426 
5.951281e+2, 2.8592092e+2, -57104.64, -315621.63, -34416.613, 0.14063434, 0.059708033, -52601.176, 85382.5, 0.0000003359344, 10.0015, 9.998094 
5.951446e+2, 2.959179e+2, 31155.916, -220339.31, -24510.652, 0.11058533, -0.08466339, 33522.45, 73532.07, 0.000006914508, 10.001421, 9.998111 
5.9515977e+2, 3.059177e+2, 151939.11, -126112.73, 9853.74, -0.12956531, 0.087968975, 152287.88, 152287.88, 0.000035638073, 10.001868, 9.998219 
5.951797e+2, 3.159171e+2, 246557.52, -67033.88, -70369.42, 0.036797844, 0.17711708, 261624.4, 261624.4, 0.00009897654, 10.0024185, 9.998348 
6.048486e+2, 1.2591453e+2, -1707768.6, -1732666.0, -146023.47, -0.062070776, 0.13575634, -1573664.1, 132379.05, 0.0000011596172, 10.00011, 9.999795 
6.0487056e+2, 1.3591313e+2, -1970464.3, -1799343.0, 204095.84, -0.09351218, -0.021407727, -1663599.0, -55540.234, 0.00000014603442, 9.997573, 9.999925 
6.048945e+2, 1.4591435e+2, -1865614.0, -1608012.9, 23611.787, 0.27301627, 0.080976255, -1605866.5, -95815.11, 0.0000000031309833, 9.997253, 10.000692 
6.0490865e+2, 1.5591767e+2, -1497861.0, -1381035.5, -43545.484, 0.06011951, 0.31124502, -1366590.5, 45434.87, 0.0, 9.999115, 10.000681 
6.04924e+2, 1.6591829e+2, -1415198.6, -1385682.8, 13148.274, -0.060069997, 0.35302073, -1380675.3, -66654.586, 0.0, 9.999403, 9.999843 
6.0494167e+2, 1.7591667e+2, -1450811.4, -1350695.6, 17124.896, -0.028736096, 0.18352266, -1347847.5, -131813.34, 0.0, 9.998485, 9.999851 
6.049593e+2, 1.8591581e+2, -1345544.6, -1278931.8, 3500.1992, 0.024972169, 0.13220742, -1278748.4, -160707.22, 0.0, 9.998673, 9.999577 
6.049766e+2, 1.9591536e+2, -1110229.0, -1120632.5, -26893.936, 0.06590452, 0.10668045, -1088038.4, -67993.12, 0.0, 9.999636, 9.99953 
6.049936e+2, 2.0591497e+2, -999006.94, -1085459.4, -20797.475, 0.06583125, 0.15419064, -994264.0, -72214.125, 0.0, 10.000031, 9.998903 
6.0501033e+2, 2.1591438e+2, -902220.1, -980245.94, -21780.97, 0.050228793, 0.18167895, -896551.75, -72494.195, 0.0, 9.999983, 9.998977 
6.0502785e+2, 2.2591376e+2, -731973.06, -792653.8, -18947.816, 0.082707494, 0.20043586, -726542.5, -479.69357, 0.0, 10.0002575, 9.999454 
6.050458e+2, 2.3591293e+2, -567442.1, -678748.25, -72824.91, 0.1454547, 0.15185493, -531439.7, 96628.72, 0.0, 10.000784, 9.99931 
6.0506237e+2, 2.4591124e+2, -533646.1, -804382.7, -105390.805, 0.16115138, 0.15187119, -497457.47, 32626.734, 0.0, 10.001178, 9.997579 
6.050779e+2, 2.559088e+2, -376766.6, -667781.06, -65280.848, 0.14557162, 0.12531263, -362793.6, 69315.21, 0.0, 10.001529, 9.99768 
6.050946e+2, 2.6590693e+2, -233054.6, -471204.97, 6333.062, 0.13426542, 0.13565026, -232886.3, 101240.24, 0.0, 10.001511, 9.99837 
6.05112e+2, 2.7590522e+2, -179443.55, -394966.38, -33266.32, 0.1278643, 0.10648958, -174425.66, 61716.063, 0.0, 10.001199, 9.998374 
6.051292e+2, 2.859029e+2, -121464.305, -330231.75, -52169.594, 0.13549624, 0.050311666, -109153.44, 29007.86, 0.00000016006682, 10.00099, 9.9982395 
6.051462e+2, 2.9590014e+2, -40090.547, -243952.03, -49092.914, 0.16248493, -0.07814894, -28884.246, 11299.893, 0.0000052467194, 10.000882, 9.998212 
6.0516185e+2, 3.0590007e+2, 86904.66, -199232.81, 40132.293, -0.080698214, 0.11696623, 92426.85, 92426.85, 0.000031333126, 10.001613, 9.997839 
6.0518223e+2, 3.158982e+2, 304494.97, -20091.09, -115013.96, 0.04466783, 0.1286623, 341117.1, 341117.1, 0.00009226463, 10.002728, 9.998537 
6.148503e+2, 1.2589404e+2, -1548309.6, -1404467.0, -199914.73, 0.0389969, 0.033702563, -1263929.9, 442320.56, 0.000000319301, 10.000133, 10.002028 
6.1486596e+2, 1.3589565e+2, -1846940.3, -1535003.6, 122063.89, -0.32995728, -0.02595758, -1492917.1, 115310.586, 0.000000018009526, 9.99755, 10.001743 
6.148902e+2, 1.4589712e+2, -1889742.1, -1658628.3, 75046.16, 0.0854217, 0.038561612, -1636397.9, -126183.89, 0.0, 9.997246, 10.000351 
6.149066e+2, 1.5589869e+2, -1509490.5, -1417738.5, 28053.92, -0.07762393, 0.12246273, -1409840.6, 2363.8955, 0.0, 9.99915, 10.000418 
6.149234e+2, 1.6589914e+2, -1399622.5, -1342796.0, -32385.75, -0.08467694, 0.14109902, -1328126.3, -13924.978, 0.0, 9.999366, 10.000153 
6.14942e+2, 1.7589852e+2, -1440896.3, -1324332.9, -530.3085, 0.13314377, 0.04434195, -1324330.5, -108125.75, 0.0, 9.998456, 10.000048 
6.149595e+2, 1.8589863e+2, -1396113.0, -1363868.1, 31783.16, 0.156221, 0.1104315, -1344352.0, -226147.11, 0.0, 9.998589, 9.999032 
6.149759e+2, 1.9589904e+2, -1153772.1, -1198198.6, 17961.898, 0.014098466, 0.22405678, -1147418.6, -127213.64, 0.0, 9.999575, 9.99903 
6.1499316e+2, 2.0589805e+2, -1000187.0, -1063522.1, -32094.064, 0.0040461225, 0.22224951, -986767.3, -64552.098, 0.0, 9.999928, 9.999102 
6.1501104e+2, 2.1589585e+2, -917024.9, -981235.1, -12755.104, 0.10578089, 0.06998915, -914583.94, -90349.16, 0.0, 9.999852, 9.999034 
6.150285e+2, 2.2589497e+2, -821184.9, -952762.0, -7108.676, 0.107115544, 0.11894469, -820801.9, -94557.43, 0.0, 10.000144, 9.998411 
6.150456e+2, 2.358949e+2, -643405.8, -808516.94, -42348.617, 0.031173315, 0.24786344, -633177.6, -4928.9287, 0.0, 10.00066, 9.998479 
6.1506253e+2, 2.4589333e+2, -459122.2, -633692.75, -103243.83, 0.04264995, 0.22949457, -411211.28, 119051.31, 0.0, 10.001105, 9.998787 
6.1507934e+2, 2.5589052e+2, -317087.25, -526610.2, -46050.426, 0.11095991, 0.045614522, -307412.7, 124872.45, 0.0, 10.0014515, 9.998688 
6.1509585e+2, 2.6588902e+2, -292558.75, -583214.94, -14625.632, 0.08218808, 0.087653786, -291824.66, 42475.473, 0.0, 10.001461, 9.997624 
6.15112e+2, 2.7588814e+2, -238933.17, -496128.94, -31043.55, -0.016776381, 0.21716322, -235239.27, 1072.9011, 0.0, 10.001105, 9.997721 
6.1512965e+2, 2.8588608e+2, -102786.016, -287334.72, -66266.11, 0.053434715, 0.19654997, -81456.875, 56873.86, 0.00000012615395, 10.000968, 9.998545 
6.1514807e+2, 2.9588318e+2, -28057.354, -208527.4, -36003.402, 0.2284504, 0.017333664, -21139.896, 19213.484, 0.000004351736, 10.000842, 9.99847 
6.151646e+2, 3.0588165e+2, 40974.855, -298688.03, 77515.77, 0.003380226, 0.09542461, 57828.746, 57828.746, 0.000027327982, 10.001621, 9.997162 
6.151845e+2, 3.158778e+2, 311996.66, 18634.863, -58035.156, -0.053288437, -0.026630616, 323060.38, 323060.38, 0.00008384043, 10.002632, 9.998852 
6.2485063e+2, 1.2587696e+2, -1809120.6, -1558960.6, 40610.336, 0.1563492, 0.03574312, -1552533.3, 153885.13, 0.00000004128188, 9.998436, 10.001805 
6.248636e+2, 1.3587898e+2, -1709621.3, -1507513.1, 54976.28, -0.3634762, 0.050765947, -1493526.6, 114866.24, 0.000000000001578113, 9.998634, 10.001425 
6.24888e+2, 1.4587963e+2, -1751094.0, -1625230.9, 46497.434, 0.09224987, 0.06515457, -1609916.8, -99530.74, 0.0, 9.99834, 10.000054 
6.2490535e+2, 1.558798e+2, -1633286.0, -1500985.8, -14765.435, -0.0779615, 0.037022635, -1499357.9, -86970.62, 0.0, 9.998428, 10.00018 
6.249226e+2, 1.6588014e+2, -1494350.8, -1394088.8, -115382.445, -0.06996424, 0.05943538, -1318417.4, -4032.7183, 0.0, 9.998749, 10.0000925 
6.2494123e+2, 1.7588034e+2, -1358220.6, -1284064.8, -135611.08, 0.19050373, 0.048344404, -1180554.1, 35827.773, 0.0, 9.999045, 10.00003 
6.2495893e+2, 1.858807e+2, -1290803.3, -1313540.8, -37232.27, 0.21594125, 0.1403893, -1263242.8, -144862.8, 0.0, 9.9992895, 9.999047 
6.2497556e+2, 1.9588092e+2, -1170822.0, -1200681.9, -26603.902, 0.034695648, 0.2314489, -1155245.0, -134863.8, 0.0, 9.999428, 9.999081 
6.249931e+2, 2.0587975e+2, -1050950.5, -1086228.5, -64842.84, 0.030053655, 0.20821933, -1001390.4, -78997.69, 0.0, 9.999564, 9.999127 
6.250114e+2, 2.1587734e+2, -939628.25, -982841.56, -74069.125, 0.17551559, 0.032638226, -884078.7, -59664.88, 0.0, 9.999663, 9.999113 
6.250288e+2, 2.2587657e+2, -879655.3, -973400.7, 3710.786, 0.15113576, 0.08294822, -879508.6, -153086.3, 0.0, 9.999706, 9.99848 
6.250455e+2, 2.3587675e+2, -775423.7, -867747.1, 32081.658, 0.0042147078, 0.23171398, -765370.3, -136946.17, 0.0, 9.999722, 9.998532 
6.250628e+2, 2.458754e+2, -629962.7, -703001.4, -19857.822, 0.022147251, 0.22648098, -624912.9, -94476.35, 0.0, 9.999858, 9.99892 
6.250805e+2, 2.5587282e+2, -497755.53, -598298.7, -61845.793, 0.15531902, 0.051498987, -468326.8, -35868.78, 0.0, 10.000134, 9.998833 
6.250972e+2, 2.6587132e+2, -422728.94, -631191.3, -18836.486, 0.1345558, 0.08133402, -421040.56, -86567.586, 0.0, 10.000501, 9.997754 
6.251131e+2, 2.758703e+2, -260226.81, -495576.5, 6664.6484, 0.0067669107, 0.17933084, -260038.23, -23552.018, 0.0, 10.000903, 9.997821 
6.251312e+2, 2.8586867e+2, 5216.2305, -245331.9, 22901.152, 0.07937672, 0.20585378, 7292.29, 145793.4, 0.000000116905284, 10.001755, 9.998459 
6.2515044e+2, 2.9586667e+2, 269742.94, -83778.24, -1804.9299, 0.2886062, 0.12838154, 269752.16, 310269.13, 0.000004287332, 10.002948, 9.998328 
6.251675e+2, 3.05864e+2, 193206.08, -236120.08, 121645.77, 0.09207545, 0.108712874, 225277.55, 225277.55, 0.000025852014, 10.002731, 9.997047 
6.251868e+2, 3.1586e+2, 151509.36, -19149.514, -27427.926, -0.0069904635, -0.026534993, 155809.19, 155809.19, 0.00007870898, 10.001366, 9.999193 
6.3484925e+2, 1.2586337e+2, -1999417.1, -1956426.1, 106453.55, 0.121227145, 0.14414355, -1869319.5, -162774.06, 0.000000010756334, 9.998451, 9.99907 
6.348632e+2, 1.3586305e+2, -1895291.5, -1891434.0, 55553.645, -0.28969514, 0.20689309, -1837775.6, -229220.78, 0.0, 9.998629, 9.9987955 
6.348877e+2, 1.458619e+2, -1765634.0, -1645614.9, 30892.553, 0.19976553, 0.16985969, -1638130.0, -127562.555, 0.0, 9.998302, 9.99993 
6.3490456e+2, 1.5586103e+2, -1644214.6, -1528437.0, 4304.0005, -0.025796045, 0.053655025, -1528277.1, -115703.81, 0.0, 9.998441, 9.999991 
6.3492113e+2, 1.6586125e+2, -1532954.8, -1466647.6, -115012.77, -0.11016291, 0.09774163, -1380105.4, -65533.7, 0.0, 9.9987135, 9.999614 
6.349391e+2, 1.7586198e+2, -1385712.1, -1343638.8, -115998.56, 0.04840548, 0.18957953, -1246784.8, -30217.83, 0.0, 9.9990425, 9.99963 
6.349573e+2, 1.8586184e+2, -1253710.1, -1221556.5, -42223.01, 0.10168279, 0.21369764, -1192453.1, -73885.16, 0.0, 9.999231, 9.999703 
6.349752e+2, 1.9586088e+2, -1141582.8, -1122787.6, -13354.642, 0.029986244, 0.12060619, -1115855.5, -95280.12, 0.0, 9.999352, 9.999652 
6.34993e+2, 2.0585994e+2, -1076393.6, -1109461.0, -71460.9, 0.055074602, 0.103904374, -1019578.6, -96994.97, 0.0, 9.999438, 9.999026 
6.3501114e+2, 2.1585886e+2, -958704.5, -988771.6, -59807.26, 0.16146761, 0.067218475, -912070.25, -87475.51, 0.0, 9.999518, 9.999141 
6.3502836e+2, 2.2585851e+2, -814665.8, -812147.44, -4983.5796, 0.12075823, 0.09377931, -808266.44, -81669.445, 0.0, 9.999591, 9.999643 
6.3504493e+2, 2.3585844e+2, -724307.1, -734579.3, 44980.71, -0.035733066, 0.10166504, -684170.25, -55575.105, 0.0, 9.999602, 9.999505 
6.3506263e+2, 2.4585748e+2, -705960.9, -844304.4, -18053.781, -0.00034446095, 0.1413425, -703643.7, -173037.94, 0.0, 9.999788, 9.997984 
6.350812e+2, 2.5585568e+2, -563500.94, -717730.7, -41559.17, 0.18080688, 0.1382092, -553015.2, -120387.8, 0.0, 10.000057, 9.998052 
6.3509864e+2, 2.6585385e+2, -364449.13, -496165.63, -14288.351, 0.20193957, 0.12078257, -362916.97, -28271.986, 0.0, 10.000446, 9.998704 
6.351152e+2, 2.758518e+2, -218533.63, -382566.13, 35477.547, 0.09517666, 0.014938061, -211189.23, 25473.338, 0.0, 10.000795, 9.998648 
6.3513356e+2, 2.8585076e+2, -31637.986, -310528.5, 55123.48, 0.113519385, 0.090585776, -21137.994, 117533.83, 0.0000001448745, 10.001707, 9.998037 
6.3515306e+2, 2.9585063e+2, 222102.28, -152549.45, 49134.93, 0.2262541, 0.24974346, 228439.06, 269113.56, 0.000005079309, 10.002833, 9.997907 
6.351703e+2, 3.0584735e+2, 212320.23, -199796.34, 66018.234, 0.07107493, 0.1708436, 222637.61, 222637.61, 0.000027855136, 10.0027275, 9.997307 
6.351884e+2, 3.1584436e+2, 151532.06, -206.92136, -42112.496, -0.039042387, 0.10099575, 162436.08, 162436.08, 0.00008149468, 10.001278, 9.999371 
6.448483e+2, 1.2584536e+2, -1876977.3, -1963995.5, -25090.326, 0.13819982, 0.13799742, -1870261.3, -163541.88, 0.0000000047013002, 9.999578, 9.998473 
6.44863e+2, 1.3584498e+2, -1729914.0, -1860425.8, -31624.98, -0.2264106, 0.25063175, -1722654.6, -113922.375, 0.0, 10.000012, 9.998314 
6.448868e+2, 1.4584349e+2, -1583047.5, -1545003.0, 38393.145, 0.22989747, 0.19578795, -1521178.1, -10430.27, 0.0, 9.999503, 10.000042 
6.449035e+2, 1.5584247e+2, -1608747.8, -1500468.4, 10934.121, 0.024703156, 0.051843118, -1499375.3, -86622.1, 0.0, 9.998637, 10.000088 
6.449201e+2, 1.6584252e+2, -1533809.0, -1500796.0, -35180.652, -0.082529716, 0.091193736, -1478441.9, -163688.98, 0.0, 9.998856, 9.9993105 
6.449381e+2, 1.7584306e+2, -1286289.1, -1324478.4, -41428.06, 0.013620336, 0.19410408, -1259767.0, -43015.793, 0.0, 9.999859, 9.999364 
6.449566e+2, 1.8584248e+2, -1163846.4, -1191261.4, -7928.9, 0.082457624, 0.19260085, -1161718.4, -42961.555, 0.0, 9.999909, 9.999584 
6.4497495e+2, 1.9584085e+2, -1173382.4, -1146588.9, -56180.086, 0.09089707, 0.04789602, -1102230.4, -81460.46, 0.0, 9.999186, 9.999565 
6.4499295e+2, 2.0584029e+2, -1070658.0, -1093064.9, -81150.21, 0.104994, 0.061267916, -999941.56, -77166.195, 0.0, 9.999418, 9.9991455 
6.4501077e+2, 2.158402e+2, -837856.8, -919110.8, -80189.66, 0.14100893, 0.116044804, -788589.8, 36187.934, 0.0, 10.000293, 9.999247 
6.4502823e+2, 2.2583994e+2, -675907.5, -697209.06, -57162.305, 0.122450106, 0.122650616, -628412.2, 98366.31, 0.0, 10.000327, 10.000083 
6.450455e+2, 2.3583929e+2, -668661.06, -658668.25, -81071.695, 0.059943456, 0.02683639, -582439.1, 46340.992, 0.0, 9.999771, 9.999941 
6.450631e+2, 2.4583867e+2, -658132.8, -817590.6, -70198.61, 0.057286896, 0.07877132, -631633.0, -100845.14, 0.0, 10.000109, 9.998015 
6.450809e+2, 2.558379e+2, -406449.66, -633505.6, -40016.76, 0.1086904, 0.17600603, -399603.47, 33198.04, 0.0, 10.001109, 9.998123 
6.450989e+2, 2.6583618e+2, -230566.0, -416230.75, -16532.48, 0.1541023, 0.15881541, -229105.36, 105712.73, 0.0, 10.001293, 9.998852 
6.4511704e+2, 2.7583355e+2, -192011.56, -355611.44, -48119.344, 0.20607293, -0.013254401, -178907.86, 57931.68, 0.000000000000000000046744374, 10.000915, 9.998782 
6.451355e+2, 2.8583252e+2, -179162.58, -385861.8, 5048.3022, 0.201407, 0.05135995, -179039.36, -40189.906, 0.00000034821963, 10.0007105, 9.997996 
6.45154e+2, 2.9583246e+2, -108703.516, -317509.56, -53.095417, 0.15491945, 0.22141437, -108703.51, -67851.03, 0.0000068469953, 10.00057, 9.997864 
6.4517206e+2, 3.0582917e+2, 29761.736, -233941.3, 48947.594, 0.06198582, 0.12312787, 38554.06, 38554.06, 0.00003364889, 10.00126, 9.997761 
6.451917e+2, 3.1582764e+2, 330851.84, 80864.46, -94046.3, 0.11030502, 0.150067, 362281.06, 362281.06, 0.000093661416, 10.002552, 9.999293 
6.548475e+2, 1.2582271e+2, -1749911.6, -1696248.5, 27153.615, 0.048450973, 0.010031876, -1684906.1, 22035.826, 0.000000001405694, 9.999567, 10.000313 
6.5486276e+2, 1.3582473e+2, -1598417.6, -1594992.1, -19205.928, -0.28544843, 0.17428307, -1577422.8, 31502.178, 0.0, 10.000052, 10.000112 
6.5488505e+2, 1.4582439e+2, -1558596.6, -1497035.9, -11281.931, 0.0835926, 0.13099326, -1495033.5, 15893.804, 0.0, 9.999514, 10.000371 
6.5490186e+2, 1.558241e+2, -1593383.1, -1466117.0, -5026.0273, -0.030918142, 0.031988338, -1465918.9, -52992.22, 0.0, 9.998619, 10.00034 
6.5491915e+2, 1.658239e+2, -1543428.5, -1509650.1, -7971.9614, -0.09411951, 0.042032447, -1507863.3, -192934.78, 0.0, 9.998809, 9.999267 
6.54938e+2, 1.7582358e+2, -1296676.6, -1343419.1, 2130.8723, -0.013454184, 0.05944464, -1296579.8, -79645.23, 0.0, 9.999847, 9.999236 
6.549566e+2, 1.858226e+2, -1234009.6, -1323764.9, -46091.73, 0.06970355, 0.07182538, -1214556.5, -95610.26, 0.0, 9.999852, 9.998703 
6.549747e+2, 1.9582094e+2, -1237511.6, -1261877.9, -66947.58, 0.117703505, 0.009489639, -1181647.6, -160683.39, 0.0, 9.999111, 9.998809 
6.5499234e+2, 2.0582075e+2, -1066217.8, -1063199.5, -57921.31, 0.08900929, 0.08350286, -1006767.6, -83800.0, 0.0, 9.999325, 9.999401 
6.550099e+2, 2.1582139e+2, -840933.5, -894519.6, -41246.94, 0.0122218765, 0.1817828, -818541.4, 6421.5127, 0.0, 10.00016, 9.99948 
6.550282e+2, 2.258209e+2, -717612.3, -750603.44, -88345.71, 0.06386843, 0.17150968, -644235.4, 82731.24, 0.0, 10.00019, 9.999778 
6.550469e+2, 2.3581931e+2, -702981.94, -696158.25, -87210.18, 0.19585456, 0.011235539, -612293.2, 16685.947, 0.0, 9.999632, 9.999748 
6.5506387e+2, 2.4581899e+2, -599782.3, -674100.56, -43727.36, 0.10266681, 0.047182333, -579557.8, -48575.36, 0.0, 10.000015, 9.9990425 
6.550796e+2, 2.558194e+2, -359233.22, -509789.22, 4487.5264, -0.15908176, 0.16036154, -359099.6, 73881.23, 0.0, 10.001004, 9.99902 
6.5509796e+2, 2.6581824e+2, -278972.3, -510638.25, -41602.29, -0.09430332, 0.18888935, -271727.94, 63264.652, 0.0, 10.001258, 9.998224 
6.551184e+2, 2.758157e+2, -238234.16, -441934.8, -47693.26, 0.22125088, 0.09289477, -227620.55, 9395.769, 0.0000000002377775, 10.00086, 9.998222 
6.551366e+2, 2.8581393e+2, -161326.33, -335736.1, -9760.373, 0.21719356, 0.09083923, -160781.81, -21748.8, 0.0000008000927, 10.000663, 9.998357 
6.5515286e+2, 2.958123e+2, -99354.84, -270650.03, 12795.377, -0.04385924, 0.06390579, -98404.336, -57355.902, 0.000010270006, 10.000463, 9.998233 
6.5517247e+2, 3.0580974e+2, 69603.3, -152762.52, 91394.17, -0.04929811, -0.011640255, 102345.836, 102345.836, 0.00004390313, 10.001256, 9.998329 
6.55196e+2, 3.1580967e+2, 300452.4, 29197.984, -2401.0518, 0.22382213, 0.113977894, 300473.66, 300473.66, 0.00011355634, 10.002495, 9.998974 
6.648459e+2, 1.2580088e+2, -1738393.3, -1620748.4, 117065.336, -0.03746005, -0.066922896, -1548557.9, 158596.14, 0.00000000035571668, 9.999333, 10.000947 
6.648632e+2, 1.3580322e+2, -1801655.0, -1615769.1, -102862.914, -0.14066353, 0.05231948, -1570078.9, 39052.293, 0.0, 9.998303, 10.000829 
6.648845e+2, 1.458035e+2, -1778651.5, -1579429.3, -111351.164, 0.16120204, 0.024892198, -1529636.8, -18509.229, 0.0, 9.997914, 10.000569 
6.649008e+2, 1.5580429e+2, -1607959.0, -1449188.6, -133967.47, 0.018811565, 0.013468713, -1372852.0, 40266.063, 0.0, 9.998431, 10.000537 
6.649182e+2, 1.6580442e+2, -1526416.3, -1467691.3, -70144.47, -0.051832292, 0.028787294, -1421011.6, -105894.76, 0.0, 9.998778, 9.999577 
6.649376e+2, 1.7580374e+2, -1414705.5, -1368619.4, -55953.617, 0.024294663, -0.017907903, -1331149.8, -114024.97, 0.0, 9.998892, 9.999528 
6.6495645e+2, 1.8580304e+2, -1281219.0, -1361944.4, -52738.973, 0.088449106, 0.017345991, -1255169.8, -136035.31, 0.0, 9.999609, 9.998551 
6.6497445e+2, 1.9580211e+2, -1001942.25, -1166037.3, -43993.14, 0.10784498, 0.045026716, -990892.0, 30255.463, 0.0, 10.000798, 9.998655 
6.649921e+2, 2.058019e+2, -902177.7, -953294.56, -16423.27, 0.0824597, 0.109323196, -897355.94, 25794.977, 0.0, 10.000325, 9.999672 
6.6500944e+2, 2.15802e+2, -1054088.0, -972118.7, -20157.64, 0.035454195, 0.1295814, -967429.8, -142280.31, 0.0, 9.998594, 9.9997015 
6.650279e+2, 2.2580154e+2, -951644.2, -883425.6, -13350.984, 0.09518458, 0.12240389, -880905.8, -153752.28, 0.0, 9.99867, 9.999603 
6.650469e+2, 2.3580052e+2, -656437.7, -691102.9, -23006.992, 0.22281547, 0.036775455, -644965.06, -15801.834, 0.0, 10.000026, 9.999599 
6.650641e+2, 2.4580024e+2, -525824.0, -600886.8, 12176.005, 0.1216253, 0.06616809, -523898.34, 7267.4595, 0.0, 10.00034, 9.999397 
6.650801e+2, 2.558003e+2, -503061.6, -547255.44, -15149.017, -0.14318731, 0.10820691, -498367.34, -65201.883, 0.0, 9.999854, 9.999326 
6.6509867e+2, 2.657993e+2, -452416.47, -602586.56, -39939.95, -0.08342724, 0.14581946, -442454.7, -107279.055, 0.0, 10.000107, 9.998146 
6.651193e+2, 2.757975e+2, -229613.27, -437704.22, -29279.154, 0.22390264, 0.12420323, -225572.06, 11622.519, 0.0000000023427176, 10.000936, 9.998204 
6.6513747e+2, 2.8579575e+2, -72858.83, -265627.56, 34515.24, 0.22032736, 0.11290306, -66865.23, 72345.89, 0.0000014418595, 10.0011425, 9.998613 
6.651537e+2, 2.957936e+2, -20492.436, -192908.94, 28875.824, -0.015583561, 0.0031097129, -15784.926, 25445.764, 0.000014823799, 10.000837, 9.998582 
6.6517395e+2, 3.057918e+2, 45239.277, -121423.02, 157710.69, 0.00089415687, -0.02829039, 140280.61, 140280.61, 0.000057815294, 10.000906, 9.9987135 
6.6519827e+2, 3.1579208e+2, 94361.59, -61786.98, 22759.08, 0.28608504, 0.0975484, 97611.164, 97611.164, 0.00014076945, 10.001039, 9.999055 
6.7484313e+2, 1.2577991e+2, -1787117.5, -1721405.0, 71278.93, -0.299379, -0.107344165, -1675774.3, 31581.207, 0.0000000023126079, 9.999344, 10.000245 
6.748643e+2, 1.3578045e+2, -1838736.6, -1681127.4, -135631.52, 0.11595187, -0.1209688, -1603068.8, 6282.3857, 0.0, 9.998263, 10.000395 
6.748846e+2, 1.4578086e+2, -1779879.0, -1572757.5, -107524.414, 0.35957438, -0.11690764, -1527032.1, -15684.036, 0.0, 9.997871, 10.000636 
6.748998e+2, 1.557832e+2, -1595438.3, -1426446.4, -103742.11, 0.055234578, 0.018889649, -1377144.0, 36182.16, 0.0, 9.998442, 10.0006895 
6.7491716e+2, 1.6578408e+2, -1477416.9, -1364820.9, -78473.52, -0.05793346, 0.06166589, -1324539.5, -9221.95, 0.0, 9.998767, 10.000291 
6.7493683e+2, 1.7578357e+2, -1370784.4, -1267639.1, -38775.55, 0.035053212, -0.03874531, -1254688.3, -37366.67, 0.0, 9.998848, 10.000242 
6.749558e+2, 1.8578385e+2, -1250751.4, -1286771.6, -19261.805, 0.040223192, 0.029980803, -1242391.5, -123070.58, 0.0, 9.999553, 9.999098 
6.7497396e+2, 1.9578446e+2, -977693.25, -1095449.5, 3258.139, -0.043175388, 0.16150358, -977603.1, 43715.24, 0.0, 10.000712, 9.999182 
6.7499167e+2, 2.0578384e+2, -902343.6, -934604.75, -91853.05, -0.009632623, 0.14977717, -825215.56, 98108.35, 0.0, 10.00023, 9.999852 
6.75009e+2, 2.1578205e+2, -1057008.8, -953459.56, -66913.58, 0.1149477, -0.040790156, -920628.94, -95291.27, 0.0, 9.998481, 9.999886 
6.75027e+2, 2.2578195e+2, -973958.0, -896929.06, 28092.86, 0.1282008, -0.017722176, -887772.06, -160433.38, 0.0, 9.998532, 9.999576 
6.750453e+2, 2.3578295e+2, -680818.94, -707763.06, 35014.3, 0.044481497, 0.10180692, -656774.4, -27442.305, 0.0, 9.999884, 9.999552 
6.7506367e+2, 2.4578252e+2, -566394.7, -660297.75, -14365.159, 0.021456424, 0.13750876, -564246.3, -32909.26, 0.0, 10.0002365, 9.999037 
6.75082e+2, 2.5578076e+2, -539408.4, -601503.3, -19205.217, 0.044022672, 0.0335884, -533948.5, -100594.836, 0.0, 9.99976, 9.998999 
6.751006e+2, 2.6577967e+2, -428992.84, -539631.4, -18963.453, 0.08206105, 0.04791505, -425832.78, -90467.586, 0.0, 10.000048, 9.998606 
6.751194e+2, 2.757789e+2, -213059.02, -381516.97, 11478.803, 0.11868386, 0.087954246, -212280.44, 25093.76, 0.0000000015372758, 10.00084, 9.998639 
6.7513794e+2, 2.8577787e+2, -58134.57, -230877.11, 12672.131, 0.12805155, 0.11556495, -57209.91, 82174.43, 0.0000017821444, 10.001123, 9.998861 
6.7515606e+2, 2.957763e+2, -11613.557, -156405.47, 32299.852, 0.10595021, 0.042761084, -4734.96, 36663.934, 0.000019076204, 10.000757, 9.998873 
6.751759e+2, 3.0577534e+2, 50629.72, -99548.664, 153586.23, 0.084554955, 0.06327019, 146499.94, 146499.94, 0.000073988194, 10.000866, 9.998877 
6.751978e+2, 3.1577507e+2, 110326.26, 487.4897, 73933.766, 0.08169442, 0.1253412, 147506.5, 147506.5, 0.00017626988, 10.000923, 9.999531 
6.8484336e+2, 1.2576096e+2, -1902212.8, -1800496.0, 161870.42, -0.1606328, -0.050878465, -1681682.3, 25858.855, 0.0000000036242784, 9.998626, 10.000062 
6.8486345e+2, 1.3576116e+2, -1726515.9, -1621358.3, -46132.12, 0.17813917, -0.101885214, -1603989.3, 5550.085, 0.0, 9.999019, 10.000432 
6.848822e+2, 1.4576139e+2, -1637545.9, -1544517.0, 31839.135, 0.28217632, -0.1023966, -1534663.8, -23125.582, 0.0, 9.999008, 10.000288 
6.8489873e+2, 1.557631e+2, -1565664.1, -1450418.0, -18262.447, 0.0945623, 0.008753405, -1447593.3, -34070.145, 0.0, 9.998796, 10.000365 
6.849166e+2, 1.6576381e+2, -1479148.0, -1356299.4, -19417.963, 0.020613447, 0.04515212, -1353303.1, -37786.785, 0.0, 9.998713, 10.000377 
6.849359e+2, 1.7576352e+2, -1378599.0, -1259420.8, -48779.484, 0.068985835, -0.044408325, -1242001.4, -24483.46, 0.0, 9.998739, 10.000355 
6.84955e+2, 1.857641e+2, -1304278.5, -1223134.8, 2467.6663, 0.053271934, 0.009579048, -1223059.8, -103547.77, 0.0, 9.998801, 9.999894 
6.849738e+2, 1.9576511e+2, -1203372.3, -1121037.0, 21710.754, -0.028563583, 0.09555474, -1115663.0, -94160.17, 0.0, 9.998808, 9.999917 
6.849915e+2, 2.0576456e+2, -1042539.8, -1026633.0, -97046.37, -0.00075208803, 0.06892169, -937214.7, -13707.424, 0.0, 9.999392, 9.999609 
6.850084e+2, 2.1576262e+2, -789481.94, -850816.4, -124389.96, 0.11073895, -0.108548075, -692034.6, 133489.63, 0.0, 10.000435, 9.999644 
6.850261e+2, 2.2576264e+2, -743231.2, -786260.25, -11218.143, 0.11656836, -0.06352492, -740482.1, -12957.223, 0.0, 10.000106, 9.999578 
6.850444e+2, 2.3576392e+2, -851228.75, -791667.4, -21449.28, 0.041245766, 0.08419868, -784747.1, -155231.72, 0.0, 9.998706, 9.999546 
6.8506354e+2, 2.4576339e+2, -738483.75, -747327.5, -13190.452, 0.05114309, 0.11139601, -728993.75, -197472.38, 0.0, 9.999075, 9.998991 
6.8508303e+2, 2.5576133e+2, -385884.47, -527535.3, -15808.954, 0.12146663, -0.018456224, -384141.53, 49399.355, 0.0, 10.000827, 9.998984 
6.851015e+2, 2.6576024e+2, -296903.5, -444987.16, -22681.125, 0.13217986, -0.013663197, -293507.44, 42044.074, 0.0, 10.000817, 9.998882 
6.851194e+2, 2.7575973e+2, -396231.47, -442158.72, -24993.033, 0.112449445, 0.018887512, -385254.25, -147696.77, 0.00000000039754933, 9.999456, 9.998885 
6.8513817e+2, 2.8575906e+2, -275780.25, -371773.94, 3255.6536, 0.115850665, 0.08596548, -275669.94, -136104.17, 0.000001935021, 9.999786, 9.998535 
6.851574e+2, 2.9575795e+2, 83718.39, -140658.42, -44717.133, 0.13332689, 0.09641108, 92301.92, 133880.94, 0.000022833043, 10.001534, 9.9986105 
6.8517745e+2, 3.0575684e+2, 166664.19, -24014.34, 33452.832, 0.12563832, 0.10539911, 172362.88, 172362.88, 0.00009092674, 10.001582, 9.999049 
6.851986e+2, 3.157559e+2, -6227.8955, -5203.1646, -65471.49, 0.1422722, 0.086910106, 59757.96, 59757.96, 0.00021663251, 9.99988, 10.000007 
6.9484633e+2, 1.257442e+2, -1866274.5, -1720845.1, 131620.48, 0.21797414, 0.11118656, -1643189.0, 64521.234, 0.00000000017840025, 9.998627, 10.000593 
6.948602e+2, 1.3574558e+2, -1687055.9, -1540282.8, -22918.262, -0.06794243, 0.121201195, -1536787.4, 72905.484, 0.0, 9.999033, 10.000976 
6.948768e+2, 1.4574511e+2, -1687263.6, -1651904.5, 13067.217, -0.19085439, 0.060116727, -1647599.6, -135902.78, 0.0, 9.999022, 9.999548 
6.948973e+2, 1.5574397e+2, -1618743.5, -1567448.1, -12140.264, 0.042559255, -0.03623479, -1564720.0, -151010.69, 0.0, 9.998814, 9.999561 
6.949162e+2, 1.6574365e+2, -1527189.0, -1446796.0, -27774.363, 0.086277716, -0.031667694, -1438133.8, -122420.7, 0.0, 9.99868, 9.999766 
6.949345e+2, 1.7574374e+2, -1419075.5, -1332533.3, -35442.813, 0.030901726, -0.02092773, -1319870.6, -102158.61, 0.0, 9.998693, 9.999875 
6.949538e+2, 1.8574399e+2, -1239823.8, -1071691.1, -5190.413, 0.030293206, -0.038418867, -1071531.0, 48175.406, 0.0, 9.998726, 10.000968 
6.9497365e+2, 1.9574407e+2, -1151180.4, -992035.75, 36031.86, 0.056157522, -0.15182438, -984257.9, 37442.098, 0.0, 9.998725, 10.00084 
6.9499123e+2, 2.0574401e+2, -1104857.6, -1134250.1, -68878.64, 0.014989707, -0.13280897, -1049124.9, -125423.92, 0.0, 9.999291, 9.998921 
6.9500715e+2, 2.1574369e+2, -853409.0, -953974.6, -81503.5, -0.07527962, -0.079800785, -807925.5, 17783.94, 0.0, 10.000306, 9.999 
6.9502497e+2, 2.257436e+2, -759213.3, -791451.5, -73608.94, -0.027989024, -0.016636154, -699979.25, 27732.873, 0.0, 9.999985, 9.9996 
6.950441e+2, 2.3574343e+2, -863879.1, -792620.8, -55356.965, 0.117350586, -0.016214686, -762418.1, -132705.1, 0.0, 9.998598, 9.999588 
6.950634e+2, 2.4574293e+2, -728064.5, -708783.7, 44021.97, 0.11610351, -0.0046347273, -673358.9, -141641.14, 0.0, 9.999, 9.999294 
6.9508284e+2, 2.5574198e+2, -377092.4, -489760.0, 52747.664, -0.00056693406, -0.05402932, -356252.3, 77474.96, 0.0, 10.000737, 9.9992895 
6.951012e+2, 2.657411e+2, -299310.5, -434714.25, -81830.18, -0.004380267, -0.049563896, -260806.34, 74928.68, 0.0, 10.000755, 9.998982 
6.9511884e+2, 2.7574003e+2, -403393.63, -445956.13, -57049.105, 0.08689508, -0.07985669, -363785.7, -126041.414, 0.0000000054780975, 9.999409, 9.998884 
6.951377e+2, 2.8573933e+2, -341003.47, -501344.38, 57933.754, 0.07007095, 0.030497074, -322261.72, -182506.52, 0.000002364329, 9.999764, 9.997652 
6.951573e+2, 2.9573867e+2, 13071.668, -263739.28, 31796.035, -0.058150616, 0.17087977, 16676.979, 58446.504, 0.000027093956, 10.001437, 9.9978075 
6.951783e+2, 3.057365e+2, 177521.89, 1089.136, -30860.34, 0.026457317, 0.10356196, 182764.02, 182764.02, 0.00010798756, 10.001564, 9.999233 
6.952005e+2, 3.157348e+2, 14078.891, 43228.5, -80090.46, 0.2852739, -0.009524708, 110059.516, 110059.516, 0.00025661878, 9.999848, 10.00036 
7.048468e+2, 1.2572517e+2, -1805583.6, -1658564.6, 55328.17, 0.40262073, 0.12700766, -1640069.5, 67828.65, 0.0, 9.998883, 10.000916 
7.048591e+2, 1.3572708e+2, -1736608.5, -1531359.4, -119071.125, -0.052262355, 0.16079935, -1476790.6, 133083.88, 0.0, 9.998534, 10.001287 
7.048745e+2, 1.4572681e+2, -1753696.6, -1686831.9, -32319.996, -0.29004982, 0.109580696, -1673763.6, -161887.97, 0.0, 9.998588, 9.99951 
7.048965e+2, 1.55725e+2, -1559655.4, -1537265.3, -25308.16, 0.07179606, -0.05411109, -1520786.6, -106891.945, 0.0, 9.999236, 9.999546 
7.049158e+2, 1.6572453e+2, -1385800.3, -1392439.5, 27959.91, 0.13947415, -0.056320257, -1360963.6, -45063.934, 0.0, 9.999713, 9.9996395 
7.0493364e+2, 1.7572485e+2, -1247691.3, -1259438.4, 33766.19, 0.027322983, -0.010994736, -1219291.6, -1395.3346, 0.0, 9.999916, 9.999783 
7.049527e+2, 1.8572493e+2, -1118445.6, -1013471.56, 36087.336, 0.019639613, -0.041962437, -1002262.56, 117629.06, 0.0, 9.999556, 10.000971 
7.049725e+2, 1.9572449e+2, -1136094.3, -986759.4, -20663.176, 0.079865985, -0.20433234, -983953.0, 37936.37, 0.0, 9.998822, 10.000838 
7.049905e+2, 2.057247e+2, -1140409.9, -1132125.9, -56570.887, 0.03945455, -0.16863748, -1079545.5, -155657.2, 0.0, 9.99896, 9.999101 
7.050071e+2, 2.1572524e+2, -931309.44, -972295.8, -26814.48, -0.07521957, -0.04677051, -918053.75, -92164.22, 0.0, 9.999684, 9.999175 
7.0502514e+2, 2.2572505e+2, -708059.44, -772936.2, -18165.045, -0.023012964, 0.000027805536, -703319.6, 24572.742, 0.0, 10.000377, 9.999532 
7.050442e+2, 2.3572403e+2, -507691.3, -626528.75, -25834.764, 0.14741716, -0.07755758, -502317.9, 127581.11, 0.0, 10.001083, 9.999526 
7.050632e+2, 2.4572343e+2, -518854.94, -620039.6, 86901.35, 0.1260745, -0.06977333, -468891.66, 63013.03, 0.0, 10.000495, 9.999184 
7.0508224e+2, 2.5572288e+2, -649689.75, -629989.2, 47824.363, -0.037926715, -0.0671341, -591011.25, -157099.63, 0.0, 9.998914, 9.999203 
7.0510095e+2, 2.65722e+2, -463546.56, -515626.44, -68003.77, -0.037708886, -0.05800097, -416767.63, -80848.22, 0.0, 9.999636, 9.998968 
7.0511955e+2, 2.7572066e+2, -16348.962, -256299.64, -77043.83, 0.097655214, -0.11419488, 6258.422, 244188.66, 0.000000016182126, 10.002067, 9.998901 
7.051386e+2, 2.8571957e+2, -32443.178, -370568.13, 60749.6, 0.07995915, -0.031327456, -21859.795, 118083.89, 0.0000030357212, 10.001939, 9.997517 
7.0515764e+2, 2.9571867e+2, -244924.44, -400497.06, 69968.016, -0.06832296, 0.09117662, -218086.5, -176126.3, 0.000031540207, 9.999707, 9.997709 
7.051785e+2, 3.057163e+2, -119256.9, -139647.84, 53136.547, 0.012636842, 0.008596585, -75346.55, -75346.55, 0.00012311795, 9.99952, 9.999245 
7.052013e+2, 3.157155e+2, 129307.1, 75191.64, -44422.594, 0.35268554, -0.020645818, 154263.67, 154263.67, 0.0002906225, 10.000757, 10.000125 
7.1484363e+2, 1.2570369e+2, -1783004.4, -1613632.4, -38137.734, 0.14345115, 0.0012976741, -1605441.0, 102665.25, 0.0, 9.998901, 10.001207 
7.148598e+2, 1.3570541e+2, -1722731.6, -1510656.3, -125271.23, 0.139832, -0.0029443726, -1452569.4, 157517.13, 0.0, 9.998562, 10.001419 
7.148752e+2, 1.457065e+2, -1706588.8, -1586458.3, -22579.021, -0.10364028, 0.03799959, -1582354.6, -70279.46, 0.0, 9.99858, 10.000197 
7.1489614e+2, 1.5570629e+2, -1514248.8, -1439799.3, 10536.792, 0.0826474, -0.035471708, -1438336.8, -24258.29, 0.0, 9.999217, 10.000225 
7.149152e+2, 1.6570649e+2, -1364008.5, -1334663.0, 26279.027, 0.08119892, -0.024621556, -1319237.9, -3162.0747, 0.0, 9.999665, 10.000057 
7.149332e+2, 1.7570683e+2, -1230782.4, -1221334.0, 49283.42, -0.03461397, -0.017890343, -1176548.8, 41521.87, 0.0, 9.999906, 10.00005 
7.149515e+2, 1.8570691e+2, -1199580.4, -1174386.1, -1110.478, -0.0746935, -0.0017621209, -1174337.3, -54269.25, 0.0, 9.99952, 9.999885 
7.1497023e+2, 1.9570652e+2, -1213923.1, -1127597.8, -32596.07, -0.059252113, -0.053722844, -1116672.4, -94602.44, 0.0, 9.998732, 9.999916 
7.14989e+2, 2.0570678e+2, -1085992.5, -988768.56, -38660.71, -0.02580848, -0.026386982, -975269.56, -51202.01, 0.0, 9.998835, 10.000142 
7.150079e+2, 2.1570732e+2, -888822.0, -845160.06, 8140.979, 0.017958328, -0.0072626136, -843691.56, -17627.588, 0.0, 9.999526, 10.00012 
7.150263e+2, 2.25707e+2, -735593.8, -802626.1, -2989.011, 0.038870636, -0.009442351, -735460.8, -7395.465, 0.0, 10.000253, 9.999391 
7.150443e+2, 2.3570575e+2, -537893.56, -661445.0, 5009.912, 0.035230882, -0.09465779, -537690.75, 92382.0, 0.0, 10.000958, 9.99935 
7.1506256e+2, 2.4570484e+2, -569424.7, -702519.5, 16067.724, -0.010604156, -0.079368874, -567512.44, -35430.598, 0.0, 10.000399, 9.998666 
7.1508074e+2, 2.5570393e+2, -694947.75, -706025.5, 8440.855, -0.09405564, -0.059819, -690390.75, -256296.28, 0.0, 9.99884, 9.998717 
7.1510047e+2, 2.657029e+2, -475049.06, -533470.8, 12177.775, -0.06959182, -0.036265373, -472612.3, -136507.7, 0.0, 9.999605, 9.998863 
7.151213e+2, 2.7570155e+2, -34845.855, -274644.7, 14934.695, 0.03762617, -0.08626751, -33919.3, 204196.45, 0.000000020828322, 10.001973, 9.998825 
7.151406e+2, 2.856998e+2, 5154.365, -277843.3, -33344.957, 0.057392243, -0.09760359, 9030.24, 149161.94, 0.0000037854625, 10.0018835, 9.9981785 
7.151582e+2, 2.956979e+2, -213202.1, -325742.78, 9550.802, -0.016295128, -0.13591246, -212397.31, -170245.75, 0.000035842306, 9.999677, 9.998238 
7.1517783e+2, 3.0569622e+2, -121513.51, -159656.11, 92597.53, -0.030974211, -0.16665587, -46043.72, -46043.72, 0.000135526, 9.999574, 9.999088 
7.152004e+2, 3.156973e+2, 57505.836, -63571.727, 33977.13, 0.1305778, 0.011175606, 66388.875, 66388.875, 0.00031586387, 10.00069, 9.999218 
7.248409e+2, 1.256843e+2, -1860622.4, -1670992.9, 58762.18, 0.01963307, -0.091439195, -1654260.1, 54031.555, 0.0, 9.998409, 10.001079 
7.248594e+2, 1.3568549e+2, -1764611.0, -1549467.3, -45709.31, 0.26773608, -0.12230299, -1540158.6, 70120.81, 0.0, 9.9983635, 10.0012455 
7.248751e+2, 1.4568737e+2, -1669492.9, -1526197.0, 86052.836, 0.033689655, -0.014137139, -1485869.4, 26391.531, 0.0, 9.99864, 10.000593 
7.2489524e+2, 1.5568835e+2, -1500247.9, -1388057.9, 72625.32, 0.09160436, -0.0073217945, -1352386.4, 61865.67, 0.0, 9.999116, 10.000631 
7.2491455e+2, 1.6568866e+2, -1421443.5, -1379039.1, 63507.92, 0.080601424, 0.0030345772, -1333287.6, -17039.256, 0.0, 9.999322, 9.9999275 
7.2493345e+2, 1.7568834e+2, -1323444.0, -1279231.6, 24456.344, 0.034381118, -0.0459497, -1268371.3, -50120.945, 0.0, 9.999322, 9.999934 
7.249516e+2, 1.8568821e+2, -1216009.8, -1214519.0, -1389.2576, -0.018667482, -0.028842818, -1213687.8, -93437.49, 0.0, 9.999543, 9.999601 
7.2496915e+2, 1.95688e+2, -1063531.4, -1081948.8, 7805.1836, -0.081711866, -0.0354109, -1060668.5, -38416.836, 0.0, 9.999882, 9.999676 
7.24988e+2, 2.0568812e+2, -947924.94, -911509.4, 20080.744, -0.045453005, -0.015073064, -902610.75, 21639.043, 0.0, 9.999734, 10.000247 
7.2500765e+2, 2.1568826e+2, -931631.75, -858899.06, -19737.879, 0.06628276, -0.046587724, -853887.94, -27639.742, 0.0, 9.99919, 10.000197 
7.250264e+2, 2.2568777e+2, -846657.56, -854745.75, -5701.834, 0.07013664, -0.06719314, -843711.25, -115461.375, 0.0, 9.999488, 9.999402 
7.250446e+2, 2.3568666e+2, -611393.1, -700031.4, -14530.162, -0.0026645977, -0.14058465, -609072.0, 21183.752, 0.0, 10.000466, 9.999324 
7.250629e+2, 2.4568556e+2, -560633.25, -744740.56, -35931.06, -0.014217463, -0.12160549, -553869.3, -21602.389, 0.0, 10.000656, 9.998248 
7.250813e+2, 2.5568423e+2, -511012.66, -666179.1, -49614.7, 0.009628019, -0.10141514, -496504.78, -62220.316, 0.0, 10.0003, 9.99829 
7.2510105e+2, 2.6568303e+2, -429043.72, -530229.1, 45457.367, 0.01411496, -0.06795112, -411621.78, -75324.37, 0.0, 10.000017, 9.998677 
7.25122e+2, 2.756816e+2, -354364.88, -445980.94, 15525.094, 0.02045384, -0.101230085, -351805.53, -113495.875, 0.000000011844985, 9.999854, 9.998667 
7.251414e+2, 2.856798e+2, -178961.27, -333164.38, -78058.74, 0.03630931, -0.1356649, -146345.83, -6019.5073, 0.000004675658, 10.000505, 9.998445 
7.251594e+2, 2.9567748e+2, 110814.016, -142352.11, -88903.06, 0.042329706, -0.23423395, 138914.58, 181261.84, 0.000040333267, 10.001807, 9.998456 
7.2517854e+2, 3.0567655e+2, 182789.56, -36637.273, 20890.602, -0.02185596, -0.188311, 184760.75, 184760.75, 0.00014552829, 10.001769, 9.99888 
7.2520036e+2, 3.1567785e+2, -1354.234, -137163.39, -91426.484, 0.077438645, 0.028955018, 44626.37, 44626.37, 0.00033116215, 10.0005, 9.9987955 
7.34838e+2, 1.2566718e+2, -1896501.0, -1735205.5, -22525.74, -0.15626949, -0.13559395, -1732118.8, -23666.23, 0.0, 9.9983835, 10.000635 
7.348576e+2, 1.3566737e+2, -1811282.5, -1648950.4, -38442.746, 0.22575743, -0.19717248, -1640306.8, -29854.1, 0.0, 9.9983635, 10.000565 
7.3487365e+2, 1.4566939e+2, -1670523.6, -1510922.3, 92212.56, -0.0019254545, -0.054499503, -1468775.0, 43658.625, 0.0, 9.998578, 10.000719 
7.348937e+2, 1.5567115e+2, -1501268.6, -1389573.9, 102975.62, -0.0054864977, 0.019909108, -1328276.4, 86139.55, 0.0, 9.999114, 10.000623 
7.3491377e+2, 1.6567108e+2, -1464086.0, -1468085.1, 51530.777, 0.041529033, 0.026532635, -1414516.0, -98098.91, 0.0, 9.999321, 9.999314 
7.349341e+2, 1.7566946e+2, -1366084.1, -1360488.8, 36173.992, 0.1421499, -0.092285715, -1327004.4, -108570.266, 0.0, 9.999283, 9.999397 
7.3495245e+2, 1.8566892e+2, -1194896.1, -1149720.3, 1785.5488, 0.092701264, -0.118031494, -1149649.8, -29211.72, 0.0, 9.999456, 10.000086 
7.349693e+2, 1.9566898e+2, -1048568.1, -1029571.2, 27957.611, -0.080711156, -0.14439361, -1009542.56, 12891.586, 0.0, 9.999796, 10.000073 
7.3498726e+2, 2.056688e+2, -1016707.25, -1033316.2, -10370.458, -0.10953337, -0.13014312, -1011726.0, -87291.625, 0.0, 9.999639, 9.999457 
7.35006e+2, 2.1566822e+2, -998832.4, -968667.4, -24468.584, -0.035499215, -0.16004577, -955006.3, -128565.84, 0.0, 9.999063, 9.999502 
7.3502517e+2, 2.2566758e+2, -860289.8, -852311.6, 20893.998, -0.021296924, -0.16643053, -835029.3, -106585.24, 0.0, 9.999352, 9.999486 
7.3504466e+2, 2.3566674e+2, -627199.3, -698686.06, 30407.152, -0.059433408, -0.22461833, -616015.25, 14432.871, 0.0, 10.0003195, 9.999404 
7.350641e+2, 2.4566558e+2, -591719.44, -791388.94, -57492.215, 0.01446923, -0.19856995, -576348.6, -43888.79, 0.0, 10.000577, 9.997967 
7.350835e+2, 2.5566393e+2, -546459.8, -716874.5, -51514.926, 0.17610727, -0.18415877, -532097.7, -97617.46, 0.0, 10.0002, 9.997991 
7.351025e+2, 2.6566255e+2, -457373.88, -575998.44, 32608.393, 0.13378403, -0.13935277, -449001.2, -112505.38, 0.0, 9.999961, 9.99839 
7.351212e+2, 2.7566102e+2, -383434.72, -492093.28, 29795.244, -0.060908522, -0.15309656, -375800.88, -137289.98, 0.000000051096855, 9.999792, 9.998383 
7.3514086e+2, 2.8565937e+2, -183981.05, -346848.16, -37932.395, -0.09365209, -0.15133978, -175579.81, -35052.27, 0.0000058850314, 10.000509, 9.99835 
7.35161e+2, 2.956574e+2, 88236.32, -173349.42, -30226.883, -0.013264417, -0.20916289, 91683.68, 134230.83, 0.000044056193, 10.001729, 9.998283 
7.3518014e+2, 3.0565733e+2, 156505.39, -85165.61, -30152.256, -0.06292993, -0.051874336, 160210.56, 160210.56, 0.00015023243, 10.001742, 9.998558 
7.3520035e+2, 3.1565708e+2, -28715.71, -170519.13, -124465.195, -0.036932494, 0.040334225, 43625.86, 43625.86, 0.0003329124, 10.000396, 9.998617 
7.4483675e+2, 1.2565038e+2, -1992164.5, -1790738.5, -31619.205, -0.0819481, -0.1076817, -1785891.8, -77276.16, 0.0, 9.997801, 10.00052 
7.448561e+2, 1.3565008e+2, -1638640.6, -1602719.4, -22036.611, 0.18524182, -0.17936519, -1592251.1, 18368.45, 0.0, 9.999739, 10.000206 
7.4487275e+2, 1.4565133e+2, -1474220.9, -1461009.0, 81771.42, -0.015478946, -0.074231975, -1385577.1, 127030.74, 0.0, 10.000114, 10.0003195 
7.4489343e+2, 1.5565239e+2, -1496631.8, -1426098.6, 28349.424, 0.055235185, -0.033018343, -1416116.8, -1519.5575, 0.0, 9.999317, 10.000268 
7.449137e+2, 1.6565223e+2, -1475135.8, -1474720.1, 25674.037, 0.11289796, -0.017355192, -1449253.0, -132653.3, 0.0, 9.99925, 9.999311 
7.449339e+2, 1.7565097e+2, -1292553.0, -1321961.9, 34251.504, 0.18022862, -0.099236175, -1269982.9, -51368.465, 0.0, 9.999773, 9.999432 
7.4495226e+2, 1.8565063e+2, -1167625.4, -1126303.5, 9638.565, 0.13195194, -0.11208852, -1124165.9, -3549.0366, 0.0, 9.999596, 10.000179 
7.4496925e+2, 1.9565073e+2, -1180004.5, -1086813.9, -12499.064, -0.012943794, -0.14300282, -1085166.6, -62554.1, 0.0, 9.998862, 10.000131 
7.4498695e+2, 2.056504e+2, -1095738.9, -1086070.8, -1819.6515, -0.072831795, -0.13967173, -1085739.6, -161126.0, 0.0, 9.999166, 9.9993105 
7.4500525e+2, 2.1564953e+2, -836904.6, -909356.44, 5592.8193, -0.06834956, -0.18015838, -836475.44, -9854.145, 0.0, 10.000263, 9.999326 
7.450248e+2, 2.2564863e+2, -743433.25, -827614.8, 69256.0, -0.0331381, -0.19432373, -704480.7, 24147.393, 0.0, 10.000283, 9.999209 
7.450452e+2, 2.3564741e+2, -774096.7, -798864.06, 31379.502, 0.014303211, -0.26099113, -752745.7, -122108.95, 0.0, 9.999419, 9.999155 
7.45065e+2, 2.4564625e+2, -693363.94, -825044.44, -10595.663, 0.090767786, -0.23188408, -692516.8, -159868.53, 0.0, 9.999814, 9.99811 
7.4508435e+2, 2.5564492e+2, -379920.72, -620883.44, -150.91241, 0.19906339, -0.19941792, -379920.63, 54743.492, 0.0, 10.001282, 9.99813 
7.451031e+2, 2.656435e+2, -277389.63, -530031.8, 77357.28, 0.14330038, -0.14619105, -255585.2, 81095.56, 0.0, 10.001369, 9.998033 
7.4512154e+2, 2.7564168e+2, -318890.34, -492820.4, 51073.88, -0.03348395, -0.15038545, -305001.75, -66301.2, 0.00000017449423, 10.000385, 9.998087 
7.4514127e+2, 2.856402e+2, -287106.6, -398085.8, 45026.516, -0.061321758, -0.11874783, -271136.53, -130419.59, 0.0000070145306, 9.999802, 9.998346 
7.4516207e+2, 2.9563874e+2, -217251.36, -316323.0, 34711.914, 0.031944472, -0.13084716, -206299.88, -163567.48, 0.00004543542, 9.999609, 9.998327 
7.451814e+2, 3.0563852e+2, -110372.305, -218674.53, 49728.426, -0.009266417, 0.014115873, -91002.95, -91002.95, 0.00014809403, 9.999932, 9.998512 
7.452009e+2, 3.1563622e+2, 74.91479, -103661.84, -74411.836, -0.0062051173, -0.09445537, 38911.83, 38911.83, 0.00032280377, 10.000373, 9.9990835 
7.548364e+2, 1.2563413e+2, -1982045.4, -1755805.3, -22235.082, 0.05055058, 0.017139658, -1753640.6, -44862.477, 0.0, 9.997754, 10.000778 
7.5485486e+2, 1.3563357e+2, -1643687.9, -1616547.6, 52919.934, 0.056595966, -0.079514146, -1575485.6, 35295.24, 0.0, 9.999756, 10.000105 
7.548723e+2, 1.4563313e+2, -1539143.9, -1597661.0, 36750.734, -0.10385374, -0.08518389, -1521427.1, -8642.6045, 0.0, 10.000121, 9.99938 
7.548941e+2, 1.5563212e+2, -1556620.6, -1544800.0, 9564.705, 0.16282307, -0.15582283, -1539466.9, -124671.59, 0.0, 9.99929, 9.999469 
7.54914e+2, 1.6563216e+2, -1434137.9, -1381722.0, 32974.043, 0.19435297, -0.12242887, -1365809.3, -49013.02, 0.0, 9.999214, 9.999969 
7.5493264e+2, 1.7563288e+2, -1256661.5, -1243317.4, 62294.176, 0.054185364, -0.06881972, -1187339.0, 31452.133, 0.0, 9.999755, 9.999982 
7.549508e+2, 1.8563333e+2, -1191712.9, -1165630.8, -29268.473, 0.0028524895, -0.013279833, -1146629.5, -25842.65, 0.0, 9.999547, 9.999936 
7.5496864e+2, 1.9563329e+2, -1205818.3, -1119950.5, -24492.107, 0.018155433, -0.033343554, -1113455.9, -90669.55, 0.0, 9.998774, 9.999948 
7.5498676e+2, 2.0563294e+2, -1087151.9, -1042412.44, 28046.193, -0.026653, -0.04228676, -1028907.44, -104120.234, 0.0, 9.999048, 9.999673 
7.550052e+2, 2.1563219e+2, -836683.75, -870654.44, 51260.688, -0.121185355, -0.10821161, -799667.6, 27123.531, 0.0, 10.000104, 9.999667 
7.55025e+2, 2.2563088e+2, -804950.0, -921456.9, 27016.445, -0.058186565, -0.14767691, -798990.06, -70188.34, 0.0, 10.000142, 9.998632 
7.5504583e+2, 2.3562884e+2, -831371.06, -884115.2, 16291.846, 0.118959, -0.23577872, -826744.56, -195924.23, 0.0, 9.999282, 9.998635 
7.5506526e+2, 2.4562775e+2, -668613.2, -756781.94, 33154.605, 0.11756897, -0.20364992, -657537.25, -124706.54, 0.0, 9.999737, 9.998617 
7.550836e+2, 2.5562707e+2, -359854.63, -561223.25, 59465.61, -0.0235303, -0.15570621, -343605.22, 91232.26, 0.0, 10.0012, 9.998582 
7.551027e+2, 2.6562575e+2, -309542.9, -586356.2, 30035.143, -0.05780075, -0.09364252, -306321.5, 30532.021, 0.0, 10.0013275, 9.997664 
7.551224e+2, 2.7562365e+2, -358310.5, -553389.9, 29116.768, -0.004462262, -0.0905518, -354057.38, -115178.336, 0.0000002213921, 10.000294, 9.997717 
7.5514233e+2, 2.8562236e+2, -282815.9, -386074.34, 29079.098, 0.038274944, -0.027237073, -275190.0, -134295.73, 0.000006961638, 9.999783, 9.998442 
7.551622e+2, 2.9562134e+2, -211837.4, -299626.66, 45999.793, 0.056573864, 0.001321655, -192149.66, -149245.55, 0.00004401986, 9.999576, 9.998466 
7.5518185e+2, 3.0561993e+2, -98923.92, -184389.66, 62694.785, 0.020957174, 0.0029583732, -65783.65, -65783.65, 0.0001416952, 9.999898, 9.998756 
7.5520134e+2, 3.1561577e+2, 59296.96, 38984.375, -26816.064, -0.054384176, -0.31497318, 77815.6, 77815.6, 0.0003069929, 10.000292, 10.000097 
7.6483464e+2, 1.2561594e+2, -1871825.0, -1668679.6, -21067.588, 0.09518391, 0.0101164235, -1666517.8, 42439.484, 0.00000000032551553, 9.998291, 10.001133 
7.6485485e+2, 1.3561589e+2, -1766739.6, -1658965.8, 53756.832, 0.14059545, -0.063618444, -1636737.0, -25785.445, 0.0, 9.998791, 10.00029 
7.64873e+2, 1.4561483e+2, -1722805.6, -1730240.1, 54546.832, 0.02142683, -0.11980933, -1671849.5, -158889.22, 0.0, 9.999044, 9.998995 
7.648933e+2, 1.5561302e+2, -1556958.9, -1583835.4, 44084.24, 0.15796146, -0.23342603, -1524310.3, -109330.21, 0.0, 9.999448, 9.999133 
7.649128e+2, 1.6561316e+2, -1407184.6, -1338343.1, 98966.33, 0.16266665, -0.18707246, -1267982.5, 48997.777, 0.0, 9.9992895, 10.000216 
7.6493204e+2, 1.7561464e+2, -1398502.3, -1284099.5, 76138.82, 0.075906076, -0.08270411, -1246069.0, -27101.57, 0.0, 9.998683, 10.000205 
7.649504e+2, 1.8561532e+2, -1284183.5, -1225524.8, 3722.3955, 0.041644614, -0.00983427, -1225289.5, -104328.414, 0.0, 9.998982, 9.999796 
7.6496816e+2, 1.9561507e+2, -1041464.0, -1060603.4, -2253.9617, 0.04184342, -0.03611347, -1041202.1, -18239.232, 0.0, 9.999982, 9.999775 
7.649869e+2, 2.0561443e+2, -938127.9, -1022158.94, 50986.62, 0.027373971, -0.04212787, -914075.7, 10892.131, 0.0, 10.000299, 9.999211 
7.6500636e+2, 2.1561323e+2, -872993.6, -941366.56, -10776.893, -0.0029147372, -0.10544799, -871335.2, -44357.297, 0.0, 10.000068, 9.999208 
7.650263e+2, 2.25612e+2, -780099.9, -896840.3, -35733.438, 0.051727768, -0.1206302, -770030.6, -41041.93, 0.0, 10.000271, 9.998736 
7.6504624e+2, 2.3561053e+2, -596353.44, -757266.94, -16795.055, 0.16533963, -0.1604825, -594619.2, 36382.688, 0.0, 10.000853, 9.998743 
7.650656e+2, 2.4560936e+2, -489127.06, -655634.75, 51406.074, 0.12810783, -0.146725, -474535.2, 58477.13, 0.0, 10.000915, 9.998737 
7.650843e+2, 2.5560817e+2, -446727.5, -587385.1, 26961.912, -0.03026518, -0.16288339, -441736.4, -6713.418, 0.0, 10.000547, 9.99871 
7.651035e+2, 2.656069e+2, -419021.1, -604150.56, -3553.593, -0.0585541, -0.11807251, -418952.9, -81915.31, 0.0, 10.000422, 9.997981 
7.6512307e+2, 2.7560532e+2, -307366.53, -493269.13, 24994.482, 0.0274436, -0.0971702, -304064.7, -65007.47, 0.00000016204108, 10.00049, 9.9980345 
7.6514304e+2, 2.8560427e+2, -115565.81, -308606.88, 95136.61, 0.08521552, -0.021857422, -76560.74, 64508.73, 0.000006290961, 10.000948, 9.998408 
7.6516324e+2, 2.9560336e+2, 87883.42, -152544.56, 79040.71, 0.11240717, 0.016714161, 111540.336, 154618.7, 0.000041719115, 10.001641, 9.998467 
7.65183e+2, 3.0560085e+2, 81497.68, -118435.336, 70367.836, 0.09058786, -0.07988849, 103780.66, 103780.66, 0.00013461517, 10.001223, 9.998574 
7.652017e+2, 3.155968e+2, -36685.07, 6608.1763, -86611.24, -0.0018440653, -0.36959925, 74236.875, 74236.875, 0.00029005748, 9.999571, 10.000224 
7.748307e+2, 1.2559555e+2, -1833680.4, -1576378.6, -60025.46, -0.1931444, -0.15336359, -1563064.4, 146090.3, 0.0000000023621072, 9.998246, 10.001785 
7.7485573e+2, 1.3559705e+2, -1728246.5, -1574971.1, 73312.766, 0.32395577, -0.12844157, -1545551.8, 65579.66, 0.0, 9.998777, 10.000872 
7.748747e+2, 1.4559653e+2, -1704008.8, -1691356.4, 53371.816, 0.24963827, -0.17416404, -1643937.1, -130802.98, 0.0, 9.999039, 9.999268 
7.7489084e+2, 1.5559523e+2, -1540451.0, -1552691.0, 70024.72, -0.059206877, -0.25900283, -1476279.4, -61129.766, 0.0, 9.999456, 9.999345 
7.749099e+2, 1.6559538e+2, -1422831.5, -1365020.8, 64287.04, -0.08087897, -0.2118725, -1323439.6, -6289.257, 0.0, 9.999263, 10.000048 
7.7493167e+2, 1.7559636e+2, -1412383.0, -1306412.4, 68596.016, 0.15087265, -0.14169936, -1272720.9, -53578.273, 0.0, 9.9986515, 10.00007 
7.749507e+2, 1.8559666e+2, -1297057.5, -1235990.3, 32481.549, 0.15099376, -0.09750049, -1221944.1, -100805.125, 0.0, 9.998908, 9.999764 
7.7496755e+2, 1.955962e+2, -1061313.8, -1082065.5, 43022.07, -0.039898403, -0.13990268, -1027434.06, -4293.1104, 0.0, 9.999893, 9.999674 
7.749869e+2, 2.0559496e+2, -1047961.9, -1220885.1, 30358.611, -0.0138624245, -0.13610221, -1042786.94, -117632.266, 0.0, 10.000173, 9.997908 
7.750085e+2, 2.1559277e+2, -978043.6, -1125956.9, -8232.547, 0.18666457, -0.1649425, -977586.8, -150406.44, 0.0, 9.9999275, 9.998008 
7.750281e+2, 2.2559212e+2, -747693.2, -798980.56, -25729.979, 0.19748305, -0.1038454, -737010.1, -7822.7524, 0.0, 10.000137, 9.9994755 
7.750462e+2, 2.355924e+2, -566596.3, -666756.8, 13350.956, 0.05420409, -0.0463962, -564847.25, 66335.055, 0.0, 10.000722, 9.999432 
7.7506566e+2, 2.4559106e+2, -522621.97, -699404.5, 26837.041, 0.02123884, -0.067089066, -518637.7, 14556.051, 0.0, 10.000806, 9.998489 
7.7508616e+2, 2.5558832e+2, -472519.34, -621192.75, 26377.408, 0.07892803, -0.21387872, -467978.22, -32758.324, 0.0, 10.000462, 9.998521 
7.7510524e+2, 2.6558703e+2, -355103.94, -464435.63, -9533.464, 0.05056968, -0.21114045, -354278.88, -17046.852, 0.0, 10.000388, 9.99896 
7.7512306e+2, 2.7558658e+2, -251905.86, -366038.88, 40130.023, -0.04841935, -0.17489947, -239208.44, 28.021751, 0.00000014054619, 10.000429, 9.998943 
7.7514315e+2, 2.8558582e+2, -133841.34, -328059.2, 111885.1, -0.027445912, -0.108362846, -82800.27, 58444.03, 0.0000059856334, 10.0008745, 9.998305 
7.7516496e+2, 2.9558468e+2, 66802.36, -179682.44, 115215.69, 0.08646087, -0.082722865, 112270.79, 155526.88, 0.0000396548, 10.001567, 9.998315 
7.7518463e+2, 3.0558136e+2, 37432.734, -201161.47, 4206.8467, 0.109369874, -0.22660366, 37506.887, 37506.887, 0.00012692052, 10.001186, 9.998027 
7.7520126e+2, 3.1557885e+2, -105095.266, -125982.93, -104392.51, -0.058222044, -0.2996341, -10625.469, -10625.469, 0.00027215088, 9.999519, 9.99935 
7.84829e+2, 1.2557665e+2, -1831509.3, -1606635.6, 36657.14, -0.1773847, -0.21014215, -1600810.9, 108524.75, 0.0000000040597263, 9.998423, 10.001479 
7.8485495e+2, 1.3557781e+2, -1616883.5, -1535952.3, 67801.98, 0.3357053, -0.19754668, -1497458.6, 113857.7, 0.0, 9.999634, 10.000712 
7.848748e+2, 1.4557749e+2, -1597596.9, -1597955.1, 10727.857, 0.33974382, -0.23774247, -1587046.6, -73728.74, 0.0, 9.999596, 9.999635 
7.848904e+2, 1.5557744e+2, -1630990.8, -1560426.8, 12026.633, 0.001580688, -0.23161425, -1558433.4, -143111.97, 0.0, 9.9986925, 9.999654 
7.849092e+2, 1.6557766e+2, -1507119.5, -1426289.3, 45107.168, -0.04889929, -0.18159755, -1406140.0, -88818.52, 0.0, 9.998771, 9.999859 
7.8493065e+2, 1.7557776e+2, -1294851.1, -1270887.8, 24374.525, 0.15204397, -0.18025084, -1255709.1, -36386.934, 0.0, 9.999553, 9.999872 
7.849503e+2, 1.8557759e+2, -1129742.1, -1189496.8, 18762.389, 0.16655073, -0.15808864, -1124339.4, -3016.1055, 0.0, 10.000207, 9.999452 
7.849684e+2, 1.9557701e+2, -972988.3, -1069189.5, -14522.408, 0.023816675, -0.18402559, -970843.8, 52483.008, 0.0, 10.000646, 9.99939 
7.849881e+2, 2.0557562e+2, -952986.25, -1181064.1, 7394.9956, 0.059039026, -0.17581734, -952746.75, -27404.53, 0.0, 10.000851, 9.997854 
7.8500926e+2, 2.1557336e+2, -863601.1, -1074535.8, 43295.676, 0.24015206, -0.20839861, -855060.25, -27690.709, 0.0, 10.000734, 9.99797 
7.8502864e+2, 2.2557288e+2, -699654.1, -762885.06, 70452.4, 0.22785589, -0.13346812, -654048.6, 75326.61, 0.0, 10.0004, 9.999598 
7.8504646e+2, 2.3557359e+2, -681717.75, -709744.06, 42596.28, 0.058723573, -0.044745993, -650888.8, -19522.543, 0.0, 9.999872, 9.999547 
7.850661e+2, 2.4557233e+2, -631458.0, -759187.6, 72844.94, 0.029679855, -0.061354253, -598446.1, -65068.406, 0.0, 10.000094, 9.998415 
7.850872e+2, 2.5556928e+2, -400149.97, -590872.7, 60849.656, 0.11532504, -0.22994563, -382389.84, 53017.42, 0.0, 10.000977, 9.998475 
7.851064e+2, 2.6556814e+2, -222967.5, -358322.38, 8835.285, 0.10471658, -0.23354355, -222393.22, 115024.195, 0.0, 10.0011215, 9.999332 
7.851241e+2, 2.7556813e+2, -196595.55, -299102.94, -7135.702, 0.020271022, -0.18877034, -196101.2, 43314.254, 0.0000001311964, 10.000646, 9.999295 
7.851439e+2, 2.855673e+2, -229100.77, -373568.38, 84412.25, 0.00859098, -0.14196119, -190234.83, -48811.992, 0.0000058891046, 10.000212, 9.998317 
7.8516537e+2, 2.9556596e+2, -202230.63, -308628.0, 72308.016, 0.06711249, -0.13934146, -165659.89, -122222.63, 0.000037489564, 9.999715, 9.998324 
7.8518546e+2, 3.0556303e+2, -74555.734, -220612.28, 16631.916, 0.13820799, -0.2586446, -72685.75, -72685.75, 0.00011865352, 10.000256, 9.998341 
7.852031e+2, 3.1556234e+2, 156507.53, -18941.86, -63938.324, 0.09413803, -0.18863511, 177335.73, 177335.73, 0.00025448482, 10.001393, 9.999174 
7.948292e+2, 1.255597e+2, -1919892.3, -1802419.4, 57260.297, -0.06803777, -0.13880637, -1779127.1, -69632.02, 0.0000000034592607, 9.99848, 10.00011 
7.948521e+2, 1.3555835e+2, -1675559.6, -1669092.6, 115299.19, 0.055232782, -0.27642044, -1556981.6, 54523.72, 0.0, 9.999687, 9.99977 
7.9487306e+2, 1.4555773e+2, -1570838.3, -1541337.9, -40126.723, 0.17646767, -0.32051012, -1513336.3, 175.36465, 0.0, 9.99959, 10.000026 
7.948918e+2, 1.5555966e+2, -1602879.3, -1503316.0, -6863.966, 0.2404487, -0.16040374, -1502845.0, -87349.695, 0.0, 9.998694, 10.000044 
7.9491025e+2, 1.6556005e+2, -1528811.8, -1464089.5, 63715.484, 0.15987407, -0.0990421, -1424988.0, -107494.56, 0.0, 9.998736, 9.9996195 
7.949288e+2, 1.7555888e+2, -1312405.3, -1309160.0, 62962.758, -0.017050587, -0.2006252, -1247799.0, -28292.969, 0.0, 9.999552, 9.999614 
7.9494894e+2, 1.8555813e+2, -1185879.3, -1284820.3, 25056.723, -0.011754314, -0.1945006, -1179895.5, -58381.5, 0.0, 10.00012, 9.9988365 
7.949703e+2, 1.9555742e+2, -1017355.2, -1145137.4, 11768.92, 0.124228925, -0.17353709, -1016280.25, 7240.521, 0.0, 10.000577, 9.998897 
7.9499e+2, 2.0555644e+2, -885399.94, -1012450.5, -8197.847, 0.14594801, -0.16575071, -884873.1, 40657.336, 0.0, 10.000731, 9.999067 
7.950085e+2, 2.1555491e+2, -806252.8, -923507.1, 48192.586, 0.068383366, -0.24718826, -788987.5, 38558.38, 0.0, 10.000594, 9.999075 
7.950274e+2, 2.255543e+2, -755296.7, -842954.94, 42572.27, 0.05063088, -0.2127398, -738024.3, -8472.336, 0.0, 10.000248, 9.999121 
7.9504675e+2, 2.3555425e+2, -727821.06, -785201.25, 38932.64, 0.08014986, -0.15094696, -708149.25, -76596.46, 0.0, 9.999778, 9.999078 
7.950666e+2, 2.455532e+2, -638095.56, -753471.7, 95651.89, 0.050569095, -0.1290101, -584082.25, -50518.395, 0.0, 10.000012, 9.998493 
7.95087e+2, 2.5555104e+2, -412369.7, -592315.0, 102535.914, -0.024859289, -0.21477388, -365928.66, 69657.266, 0.0, 10.000871, 9.99852 
7.9510677e+2, 2.655501e+2, -243331.64, -390031.56, -18647.736, 0.004676753, -0.18926951, -240998.36, 96596.23, 0.0, 10.001069, 9.999143 
7.951261e+2, 2.755499e+2, -216654.8, -332873.7, -10942.106, 0.122968905, -0.14365172, -215633.56, 23961.059, 0.000000103459534, 10.000604, 9.999087 
7.951452e+2, 2.8554887e+2, -221965.52, -355630.7, 57277.348, 0.09624962, -0.11826223, -200779.42, -59174.965, 0.0000054454867, 10.0002, 9.9984455 
7.951639e+2, 2.9554707e+2, -198711.98, -290731.75, 75050.39, -0.06939355, -0.17105348, -156690.8, -113068.086, 0.00003447301, 9.999668, 9.998473 
7.951852e+2, 3.0554578e+2, 2885.9314, -59498.293, 55877.06, 0.055810507, -0.19051875, 35687.516, 35687.516, 0.0001104858, 10.000246, 9.999451 
7.952064e+2, 3.155463e+2, 167728.98, 16055.455, 21289.863, 0.22551337, -0.11290759, 170660.7, 170660.7, 0.000240168, 10.001328, 9.999451 
8.048294e+2, 1.2554027e+2, -1880093.6, -1805750.1, -42429.734, 0.1034217, -0.10902173, -1786512.4, -76828.47, 0.0000000057252847, 9.998865, 9.999917 
8.0485094e+2, 1.3553838e+2, -1802275.3, -1735612.3, 40022.367, 0.0283841, -0.28706032, -1716859.4, -105158.64, 0.0, 9.998832, 9.999751 
8.048717e+2, 1.4553778e+2, -1655008.4, -1537297.9, -88559.11, 0.13063061, -0.34805384, -1489820.4, 23887.277, 0.0, 9.998829, 10.000419 
8.0489016e+2, 1.5554038e+2, -1519692.9, -1427995.0, -87674.12, 0.19732264, -0.15766247, -1374905.3, 40779.844, 0.0, 9.999114, 10.000363 
8.049092e+2, 1.6554113e+2, -1417228.1, -1398559.3, 50367.27, 0.15606406, -0.08059062, -1356668.8, -38989.367, 0.0, 9.999455, 9.99973 
8.0492914e+2, 1.7554013e+2, -1268450.3, -1278279.1, 51259.168, 0.054879382, -0.17104077, -1221870.5, -2180.6787, 0.0, 9.99982, 9.999703 
8.0494946e+2, 1.8553923e+2, -1211217.9, -1277581.8, 55806.902, 0.053868, -0.19038956, -1179473.4, -57774.508, 0.0, 9.999871, 9.999003 
8.0497015e+2, 1.9553816e+2, -1153831.3, -1196861.4, 74985.164, 0.11371516, -0.2185221, -1097335.5, -73626.46, 0.0, 9.9995775, 9.999032 
8.049898e+2, 2.0553763e+2, -981353.1, -994533.9, 77464.125, 0.11055423, -0.20125195, -910199.56, 15514.216, 0.0, 9.999791, 9.999649 
8.0500877e+2, 2.1553726e+2, -804048.25, -860044.6, 61821.125, 0.060389604, -0.22411773, -764180.75, 63535.85, 0.0, 10.00035, 9.999625 
8.050281e+2, 2.2553669e+2, -682082.06, -856993.25, 50869.39, 0.06621283, -0.19187681, -668363.7, 61359.5, 0.0, 10.000975, 9.998666 
8.050477e+2, 2.3553571e+2, -494073.22, -715606.0, 28086.012, 0.11485585, -0.17700899, -490567.94, 141166.72, 0.0, 10.001593, 9.998668 
8.0506754e+2, 2.4553463e+2, -439698.97, -645115.75, 103703.32, 0.08496852, -0.14601022, -396450.53, 137295.75, 0.0, 10.001299, 9.9986315 
8.050877e+2, 2.555331e+2, -500011.22, -622668.4, 97287.19, 0.000526855, -0.18400878, -446335.47, -10574.192, 0.0, 10.000201, 9.998645 
8.0510736e+2, 2.6553214e+2, -402816.6, -509349.25, 6584.8315, 0.010167783, -0.14665057, -402411.13, -64640.996, 0.0, 10.0001545, 9.998763 
8.0512667e+2, 2.7553138e+2, -176036.55, -349015.78, -19384.197, 0.10539459, -0.122909196, -173890.95, 65885.49, 0.00000004701224, 10.00103, 9.99877 
8.0514574e+2, 2.8552985e+2, -66468.77, -279583.4, 41076.984, 0.085407406, -0.13137437, -58825.473, 82965.01, 0.000004093495, 10.00127, 9.998448 
8.051646e+2, 2.955275e+2, 3039.9114, -192096.69, 26276.451, -0.039002355, -0.2393524, 6516.28, 50328.816, 0.000029631305, 10.001053, 9.998479 
8.051861e+2, 3.0552712e+2, 111009.45, -42690.285, 8269.583, 0.086389795, -0.15023719, 111453.11, 111453.11, 0.00010221737, 10.001151, 9.99914 
8.052077e+2, 3.1552756e+2, 131782.63, -43305.96, -157130.55, 0.23264053, -0.05075325, 224110.55, 224110.55, 0.00023173698, 10.001298, 9.999053 
8.14829e+2, 1.2551829e+2, -1813941.9, -1680127.4, -60783.938, 0.124422066, -0.11967823, -1656639.6, 53263.367, 0.000000004999778, 9.998916, 10.000753 
8.148512e+2, 1.3551812e+2, -1731404.4, -1590914.6, 43844.18, 0.1488971, -0.23155683, -1578354.5, 33547.125, 0.0, 9.998848, 10.000729 
8.148704e+2, 1.4551786e+2, -1641845.4, -1508175.5, -91258.78, 0.09194558, -0.31435478, -1461895.1, 52009.324, 0.0, 9.998818, 10.000627 
8.1488514e+2, 1.5551962e+2, -1500617.0, -1388404.6, -64792.875, -0.24658345, -0.22842683, -1358802.0, 57088.117, 0.0, 9.999115, 10.000634 
8.1490564e+2, 1.6552092e+2, -1394983.5, -1346064.6, 51029.867, -0.17313732, -0.129034, -1313935.1, 3943.712, 0.0, 9.99943, 10.000101 
8.149313e+2, 1.7552151e+2, -1242608.8, -1217674.3, 74372.65, 0.26564547, -0.10172149, -1154731.1, 65142.125, 0.0, 9.99979, 10.000131 
8.149517e+2, 1.8552099e+2, -1163749.0, -1162297.0, 35543.39, 0.26800126, -0.14722897, -1127472.1, -5595.0674, 0.0, 9.999796, 9.999834 
8.149677e+2, 1.955193e+2, -1109775.6, -1089458.5, 77013.64, -0.11071112, -0.32076123, -1021936.3, 1954.7719, 0.0, 9.999504, 9.999806 
8.1498724e+2, 2.0551932e+2, -1008896.3, -1021079.6, 86044.45, -0.14067404, -0.27958745, -928728.2, -2837.302, 0.0, 9.99966, 9.999532 
8.150099e+2, 2.1552049e+2, -833009.3, -887733.9, 93671.586, 0.11875288, -0.13790283, -762785.44, 65095.79, 0.0, 10.000209, 9.999503 
8.1503034e+2, 2.2552001e+2, -732919.44, -926782.8, 62201.34, 0.17550921, -0.06599981, -714678.4, 15210.124, 0.0, 10.000822, 9.998261 
8.150489e+2, 2.3551789e+2, -541030.0, -780825.06, 57946.28, 0.05786316, -0.12832078, -527761.56, 104151.26, 0.0, 10.001449, 9.998292 
8.1506854e+2, 2.455165e+2, -442248.88, -619242.1, 51183.254, 0.03461654, -0.12066524, -428513.5, 105412.65, 0.0, 10.00117, 9.998869 
8.1508905e+2, 2.5551552e+2, -500750.8, -603346.44, 69952.34, 0.09431248, -0.1281489, -465303.03, -29370.18, 0.0, 10.0001135, 9.99882 
8.151079e+2, 2.6551425e+2, -440690.75, -577737.4, 29487.531, 0.03132812, -0.10386692, -434615.4, -96671.61, 0.0, 10.000115, 9.99831 
8.1512547e+2, 2.7551252e+2, -226590.45, -425707.97, 25102.145, -0.135081, -0.12727627, -223474.66, 16486.05, 0.000000004527389, 10.000916, 9.998298 
8.151452e+2, 2.8551024e+2, -78422.14, -302437.28, 22072.293, -0.12562351, -0.17933959, -76268.06, 65713.07, 0.0000024308686, 10.001251, 9.998303 
8.151666e+2, 2.955074e+2, -26006.818, -239241.7, 32427.154, 0.028663935, -0.323259, -21184.594, 22821.426, 0.00002455122, 10.000995, 9.998185 
8.151879e+2, 3.055072e+2, 1549.515, -276825.2, 7498.389, 0.12474018, -0.116890244, 1751.3477, 1751.3477, 0.00009685274, 10.001181, 9.997514 
8.152061e+2, 3.1550592e+2, 41575.1, -206926.13, -111997.336, -0.10652397, -0.030012686, 84601.56, 84601.56, 0.00023260372, 10.001199, 9.997979 
8.2482934e+2, 1.2549669e+2, -1603176.1, -1542753.6, 174.92719, 0.2191937, -0.18417862, -1542753.1, 167363.19, 0.0000000017683296, 10.000166, 10.001093 
8.2484937e+2, 1.3549833e+2, -1899667.1, -1625085.0, 12975.346, 0.16026805, -0.16512236, -1624473.3, -12375.307, 0.0, 9.997468, 10.00116 
8.2486826e+2, 1.4549875e+2, -1897716.8, -1590143.9, -22460.94, 0.09986787, -0.22174516, -1588512.3, -74418.234, 0.0, 9.99689, 10.000989 
8.248837e+2, 1.5549994e+2, -1597908.9, -1397522.9, -15053.272, -0.24792382, -0.22811241, -1396398.4, 19685.852, 0.0, 9.998286, 10.000965 
8.249046e+2, 1.6550113e+2, -1469767.6, -1344635.8, 94334.71, -0.17507994, -0.17350526, -1294004.8, 24068.357, 0.0, 9.998755, 10.000428 
8.249303e+2, 1.7550206e+2, -1422154.3, -1273012.3, 89501.74, 0.27015653, -0.14528276, -1231086.9, -11023.384, 0.0, 9.998412, 10.000418 
8.249512e+2, 1.855022e+2, -1282102.0, -1175920.9, 64376.113, 0.29449576, -0.15845588, -1145567.5, -23506.861, 0.0, 9.9987955, 10.000223 
8.249679e+2, 1.9550145e+2, -1050352.9, -1019981.6, 48821.5, -0.045399636, -0.27665737, -984038.56, 40027.15, 0.0, 9.999744, 10.000162 
8.249877e+2, 2.0550151e+2, -969266.4, -1037617.25, 49944.047, -0.07563539, -0.2303443, -942924.3, -16858.451, 0.0, 10.000094, 9.999196 
8.250102e+2, 2.1550204e+2, -902257.7, -959045.56, 16871.559, 0.15494344, -0.11916284, -897623.4, -69559.29, 0.0, 9.999896, 9.999163 
8.2503074e+2, 2.2550136e+2, -827027.1, -968078.6, 35898.332, 0.17807253, -0.053495098, -818416.44, -88342.664, 0.0, 10.000147, 9.998316 
8.2504964e+2, 2.354994e+2, -637918.06, -822419.75, 40949.832, 0.028696232, -0.10152748, -629237.75, 2858.1614, 0.0, 10.000753, 9.998351 
8.250693e+2, 2.4549799e+2, -465100.6, -625461.1, 21441.072, 0.013983624, -0.10106518, -462283.28, 71825.086, 0.0, 10.001004, 9.998903 
8.250897e+2, 2.5549686e+2, -369686.28, -532969.94, 3519.558, 0.11476685, -0.12756526, -369610.44, 66504.4, 0.0, 10.001006, 9.998866 
8.251089e+2, 2.6549518e+2, -315280.2, -564954.1, 17299.236, 0.07205532, -0.12581278, -314087.25, 24042.42, 0.0, 10.001175, 9.997893 
8.251271e+2, 2.7549273e+2, -181609.83, -448738.4, -5835.024, -0.08184416, -0.18205129, -181482.44, 58672.3, 0.0, 10.0014105, 9.997903 
8.2514685e+2, 2.8549027e+2, -52022.62, -320736.5, -7788.7534, -0.09192742, -0.21960805, -51797.05, 90380.54, 0.000001518397, 10.001575, 9.998023 
8.2516783e+2, 2.9548755e+2, 58502.703, -227540.02, -30809.863, 0.028687187, -0.32188353, 61783.62, 105984.85, 0.000022026383, 10.0016985, 9.997928 
8.251891e+2, 3.0548698e+2, 65072.12, -276923.56, 26398.059, 0.114258945, -0.12535919, 67097.74, 67097.74, 0.00009707927, 10.001756, 9.997228 
8.252072e+2, 3.1548408e+2, 134310.4, -116163.34, -27200.877, -0.12934636, -0.17990434, 137230.31, 137230.31, 0.00024343748, 10.001619, 9.998392 
8.348296e+2, 1.2547553e+2, -1616286.9, -1558352.3, -115141.74, 0.1790315, -0.31295407, -1468589.9, 241733.34, 0.000000000051048894, 10.0001335, 10.0009985 
8.3484507e+2, 1.3547926e+2, -1890452.9, -1605144.5, -71967.37, -0.040672515, -0.08918721, -1588019.0, 24268.791, 0.0, 9.997476, 10.00129 
8.3486485e+2, 1.4548063e+2, -1879057.0, -1543641.3, 16663.666, 0.039655007, -0.072759114, -1542815.4, -28540.643, 0.0, 9.996858, 10.001323 
8.3488566e+2, 1.5548143e+2, -1574447.5, -1344053.4, 45393.785, 0.09253423, -0.15574978, -1335432.3, 80834.32, 0.0, 9.998264, 10.001343 
8.3490586e+2, 1.6548185e+2, -1462353.8, -1308524.4, 70298.84, 0.05883137, -0.2116572, -1281238.4, 37023.02, 0.0, 9.998672, 10.000718 
8.3492595e+2, 1.754819e+2, -1408649.9, -1235223.9, 93225.28, -0.028441327, -0.2979168, -1194618.0, 25641.27, 0.0, 9.998378, 10.00069 
8.349476e+2, 1.8548296e+2, -1295163.1, -1196049.9, 87971.09, 0.032831345, -0.22421262, -1144637.4, -22388.938, 0.0, 9.998757, 10.000108 
8.3497036e+2, 1.9548458e+2, -1068664.9, -1038928.25, 94031.55, 0.20444793, -0.09894054, -958596.75, 65636.52, 0.0, 9.999659, 10.000074 
8.3499086e+2, 2.0548421e+2, -1032077.9, -1135534.6, 31255.762, 0.20660445, -0.05980978, -1023368.3, -97129.29, 0.0, 9.999953, 9.99859 
8.350094e+2, 2.1548195e+2, -960238.7, -1047068.25, 22105.164, 0.064858615, -0.1692442, -954935.06, -126670.34, 0.0, 9.999758, 9.998621 
8.3502907e+2, 2.254808e+2, -811353.4, -906352.8, 46025.703, -0.020971723, -0.15204553, -792712.44, -62434.348, 0.0, 10.000013, 9.998807 
8.3504957e+2, 2.354803e+2, -622215.5, -767033.94, 75355.375, -0.07097973, -0.10208705, -590118.6, 42164.9, 0.0, 10.000642, 9.998791 
8.3506966e+2, 2.4547915e+2, -490951.4, -657370.06, 11090.897, -0.07277563, -0.0885063, -490215.53, 44076.8, 0.0, 10.000907, 9.998731 
8.3508945e+2, 2.5547716e+2, -395655.8, -571215.94, 17280.445, -0.03385608, -0.1830418, -393971.06, 42335.72, 0.0, 10.000927, 9.998646 
8.3510995e+2, 2.654749e+2, -349718.25, -618992.9, 17356.703, 0.037927736, -0.21188045, -348604.1, -10276.283, 0.0, 10.001103, 9.997556 
8.35131e+2, 2.754721e+2, -220402.08, -507330.0, 17324.064, 0.14140932, -0.2675567, -219359.88, 20997.166, 0.0, 10.001317, 9.997546 
8.351503e+2, 2.8546995e+2, -81929.3, -374794.03, -12498.719, 0.07456241, -0.23979628, -81396.85, 60981.81, 0.0000012583888, 10.001541, 9.997669 
8.3516806e+2, 2.9546794e+2, 24634.813, -279010.5, -10032.844, -0.14331962, -0.23043485, 24965.95, 69363.055, 0.000022671806, 10.0016165, 9.997619 
8.351895e+2, 3.054664e+2, 133000.48, -132654.7, 19400.219, -0.044840466, -0.16978261, 134409.77, 134409.77, 0.0001036696, 10.00174, 9.998227 
8.3520985e+2, 3.154632e+2, 235195.75, 119127.71, 27138.813, -0.08273307, -0.3518732, 241227.81, 241227.81, 0.00026239955, 10.001517, 10.000061 
8.4482867e+2, 1.2545623e+2, -2126352.3, -1802816.1, -76881.73, 0.2530955, -0.26282007, -1785476.1, -74961.18, 0.0, 9.996639, 10.001008 
8.4484255e+2, 1.3545938e+2, -1743710.8, -1537188.1, -102498.32, -0.08148763, -0.09223978, -1494954.4, 117531.695, 0.0, 9.998512, 10.001257 
8.4486246e+2, 1.45461e+2, -1607917.9, -1419915.3, 21573.32, 0.03174571, -0.04635574, -1417471.5, 96999.375, 0.0, 9.998745, 10.001261 
8.448851e+2, 1.5546219e+2, -1628688.0, -1378751.5, -8306.104, 0.24073899, -0.083678976, -1378475.8, 37982.76, 0.0, 9.997933, 10.001264 
8.449055e+2, 1.654627e+2, -1542287.3, -1333645.4, 16879.104, 0.19488683, -0.13364235, -1332288.8, -13836.424, 0.0, 9.998051, 10.000852 
8.4492433e+2, 1.7546251e+2, -1343788.4, -1190156.5, 5573.296, -0.044958062, -0.2567485, -1189954.6, 30497.947, 0.0, 9.998759, 10.000819 
8.44946e+2, 1.8546355e+2, -1245207.0, -1164453.6, 29782.332, -0.005728347, -0.19493322, -1154658.0, -32216.004, 0.0, 9.999077, 10.000164 
8.449701e+2, 1.9546528e+2, -1155085.1, -1080557.3, 21801.611, 0.25260258, -0.058847796, -1074648.1, -50222.45, 0.0, 9.99906, 10.000081 
8.4499115e+2, 2.0546485e+2, -1085432.3, -1158206.1, 6861.494, 0.27115887, -0.028969321, -1084791.0, -158359.08, 0.0, 9.999567, 9.998631 
8.450097e+2, 2.1546236e+2, -863225.06, -1000091.06, 20206.38, 0.09588676, -0.16221794, -860304.2, -31844.865, 0.0, 10.000419, 9.998633 
8.450295e+2, 2.2546121e+2, -691185.25, -815600.9, 74690.914, -0.008905388, -0.15729335, -656189.44, 74281.99, 0.0, 10.000716, 9.999074 
8.4505016e+2, 2.3546106e+2, -623050.94, -733797.56, 58674.477, -0.06055696, -0.1033064, -597746.5, 34725.543, 0.0, 10.000524, 9.999055 
8.4507054e+2, 2.4545999e+2, -521919.9, -689846.7, 13783.35, -0.059768908, -0.08508647, -520796.1, 13683.906, 0.0, 10.000764, 9.998577 
8.450907e+2, 2.5545788e+2, -349495.84, -559742.56, 333.7369, -0.011896869, -0.17912069, -349495.3, 87001.7, 0.0, 10.0013, 9.998534 
8.4511125e+2, 2.6545563e+2, -316100.38, -606903.1, 26438.61, 0.060666762, -0.19742978, -313716.22, 24802.127, 0.0, 10.001353, 9.997512 
8.451324e+2, 2.7545306e+2, -263029.1, -528005.44, 27415.873, 0.16947778, -0.22813211, -260222.25, -19676.586, 0.0000000050987805, 10.00103, 9.997538 
8.45152e+2, 2.854512e+2, -111502.81, -399383.7, 62627.55, 0.11099682, -0.16606222, -98468.54, 44096.074, 0.0000017149706, 10.001373, 9.99758 
8.4517044e+2, 2.9544953e+2, 104908.94, -242184.88, 59014.797, -0.08927856, -0.12381653, 114668.53, 159249.08, 0.0000255943, 10.002171, 9.997598 
8.4519184e+2, 3.0544686e+2, 154288.05, -138689.72, 42315.066, 0.016812528, -0.16791104, 160277.22, 160277.22, 0.000114914044, 10.001953, 9.998092 
8.452117e+2, 3.154433e+2, 121550.48, 74864.0, -50347.395, 0.004485437, -0.36894602, 153702.88, 153702.88, 0.00028702893, 10.000665, 10.000177 
8.548256e+2, 1.2543915e+2, -2152013.5, -1833640.6, -20379.428, 0.23426521, -0.018808598, -1832341.4, -121653.24, 0.0, 9.996553, 10.0008335 
8.5484135e+2, 1.3543877e+2, -1764804.3, -1573781.9, -28663.193, -0.07539761, -0.17760022, -1569573.6, 43118.414, 0.0, 9.998504, 10.000998 
8.548609e+2, 1.454399e+2, -1632189.1, -1484870.0, -24655.941, -0.034951553, -0.14519662, -1480853.0, 33828.77, 0.0, 9.998791, 10.000802 
8.5488176e+2, 1.5544228e+2, -1653135.8, -1438991.6, -21381.701, 0.07787418, -0.017710961, -1436877.6, -20218.041, 0.0, 9.997966, 10.000835 
8.5490316e+2, 1.6544369e+2, -1556475.6, -1354133.6, 30504.77, 0.12702714, 0.051823583, -1349634.9, -30988.992, 0.0, 9.998013, 10.00073 
8.54925e+2, 1.7544395e+2, -1350895.5, -1197795.6, 39717.215, 0.12619622, -0.020833755, -1188105.5, 32537.246, 0.0, 9.998733, 10.000777 
8.549462e+2, 1.8544403e+2, -1242944.3, -1146981.0, 17456.297, 0.08199114, -0.061897166, -1143904.3, -21263.533, 0.0, 9.999012, 10.00032 
8.5496676e+2, 1.954437e+2, -1147110.1, -1054749.8, 32139.26, -0.010709787, -0.14781463, -1044666.8, -20024.799, 0.0, 9.999011, 10.000283 
8.549884e+2, 2.0544359e+2, -1056857.5, -1077923.9, 26476.855, 0.022037983, -0.1282856, -1038895.56, -112252.33, 0.0, 9.99947, 9.999236 
8.5501087e+2, 2.1544327e+2, -837869.3, -918299.25, 63070.516, 0.15320483, -0.105198994, -803283.7, 25364.086, 0.0, 10.000286, 9.999263 
8.5503167e+2, 2.2544263e+2, -718720.2, -831274.4, 57010.723, 0.12165488, -0.08042685, -694889.0, 35764.832, 0.0, 10.000541, 9.999051 
8.5505104e+2, 2.3544157e+2, -642346.75, -744850.6, 65488.188, -0.044620905, -0.11482378, -610439.44, 22223.137, 0.0, 10.000397, 9.999042 
8.550716e+2, 2.4544047e+2, -544327.1, -711179.7, 22193.664, -0.048337832, -0.09259234, -541425.5, -6753.6987, 0.0, 10.000658, 9.998483 
8.550931e+2, 2.5543898e+2, -371366.03, -580458.2, 29448.076, 0.08524691, -0.115839906, -367297.78, 69387.84, 0.0, 10.001188, 9.99845 
8.551129e+2, 2.654373e+2, -307067.25, -569393.3, 2604.1248, 0.06750012, -0.086934, -307041.4, 31660.861, 0.0, 10.001272, 9.997811 
8.551311e+2, 2.7543542e+2, -255231.4, -495781.34, 30588.813, -0.083900765, -0.07775269, -251402.63, -10680.144, 0.0000001292932, 10.000959, 9.997796 
8.551517e+2, 2.8543395e+2, -101675.94, -366392.16, 84768.98, -0.080177695, -0.002789039, -76857.56, 65879.234, 0.0000031613251, 10.001325, 9.997826 
8.551743e+2, 2.954322e+2, 105114.05, -223067.6, 99123.95, 0.051416364, 0.011898181, 132729.66, 177481.53, 0.000030116835, 10.00209, 9.997768 
8.5519564e+2, 3.0542824e+2, 70495.195, -304097.34, -13933.008, 0.18214999, -0.11711195, 71012.72, 71012.72, 0.00012742863, 10.001924, 9.99697 
8.552123e+2, 3.1542444e+2, 4129.239, -155642.48, -44185.633, -0.05838299, -0.21636604, 15534.784, 15534.784, 0.00031382052, 10.000616, 9.99862 
8.648226e+2, 1.254198e+2, -1972432.8, -1722092.6, -22907.363, 0.24500576, 0.084329225, -1720013.8, -9128.852, 0.00000000000000000000885557, 9.997655, 10.001069 
8.6483985e+2, 1.3541923e+2, -1912093.4, -1636817.1, -47211.082, -0.009758765, -0.10957454, -1628945.3, -16056.339, 0.0, 9.997419, 10.001099 
8.648595e+2, 1.4542012e+2, -1770817.8, -1555133.0, -6263.328, 0.0027742535, -0.103950076, -1554951.3, -40071.547, 0.0, 9.9978695, 10.00076 
8.648798e+2, 1.5542197e+2, -1492100.6, -1373011.8, -1993.907, 0.03375893, -0.020213058, -1372978.4, 43883.504, 0.0, 9.999118, 10.000743 
8.6490124e+2, 1.6542333e+2, -1418462.8, -1285392.8, 76219.45, 0.098414004, 0.04978921, -1250753.0, 68094.94, 0.0, 9.998964, 10.00073 
8.649238e+2, 1.7542407e+2, -1509464.0, -1281982.1, 65459.184, 0.19174138, 0.027739732, -1264490.8, -43650.773, 0.0, 9.997675, 10.000709 
8.649452e+2, 1.8542406e+2, -1390769.6, -1219191.0, 99724.98, 0.14160942, -0.018141268, -1173432.3, -50593.434, 0.0, 9.998017, 10.000294 
8.649657e+2, 1.9542325e+2, -1047211.1, -1006980.3, 79749.69, -0.043706223, -0.14981617, -944848.25, 79996.9, 0.0, 9.999722, 10.000257 
8.6498773e+2, 2.0542341e+2, -937086.25, -975489.7, 46349.17, -0.014704326, -0.119490966, -906118.75, 20724.56, 0.0, 10.00012, 9.999607 
8.650109e+2, 2.1542409e+2, -957487.5, -937073.7, 35305.582, 0.18591009, -0.036454074, -910529.2, -81691.61, 0.0, 9.999317, 9.999585 
8.6503226e+2, 2.2542351e+2, -874410.75, -912829.25, 54829.47, 0.18614566, -0.017846972, -835523.0, -104680.555, 0.0, 9.999488, 9.999009 
8.6505204e+2, 2.3542173e+2, -643007.25, -751659.0, 42051.49, 0.024162276, -0.118137136, -628633.56, 4223.8647, 0.0, 10.00041, 9.998997 
8.650727e+2, 2.4542043e+2, -548862.56, -710636.2, 12360.4795, 0.011900573, -0.11798504, -547923.6, -13054.536, 0.0, 10.000626, 9.998495 
8.6509424e+2, 2.5541914e+2, -496781.56, -634905.5, 3137.0828, 0.12540235, -0.11822674, -496710.34, -59829.08, 0.0, 10.000317, 9.998489 
8.651141e+2, 2.6541787e+2, -335196.63, -543803.06, 20824.78, 0.08406147, -0.07217605, -333138.03, 5755.873, 0.0000000005766255, 10.000908, 9.99816 
8.6513263e+2, 2.754164e+2, -40853.28, -356484.5, 26858.766, -0.080323294, -0.054291256, -38584.04, 202324.64, 0.000000514823, 10.002272, 9.998121 
8.651536e+2, 2.8541467e+2, 38465.83, -334071.66, 64861.977, -0.07005694, -0.005635297, 49435.824, 192361.55, 0.0000054394536, 10.002427, 9.997529 
8.651765e+2, 2.9541218e+2, 6088.7686, -295362.75, 20484.742, 0.10100023, -0.038671594, 7474.413, 52423.875, 0.000035908153, 10.001515, 9.997555 
8.651978e+2, 3.0540836e+2, 98684.17, -261440.47, -22721.889, 0.20735887, -0.15042429, 100112.13, 100112.13, 0.00014009468, 10.001995, 9.997214 
8.6521477e+2, 3.1540656e+2, 383780.1, 12036.601, 21865.11, 0.0041244975, -0.08151225, 385061.72, 385061.72, 0.00033844914, 10.003313, 9.99845 
8.748189e+2, 1.2539841e+2, -1911681.4, -1608045.9, -58858.727, 0.045572497, 0.078471184, -1597035.6, 114067.21, 0.0000000055054987, 9.997701, 10.001825 
8.748377e+2, 1.3540097e+2, -1867354.1, -1533655.3, -46525.293, 0.01041324, 0.120168485, -1527289.9, 85784.56, 0.0, 9.99738, 10.001818 
8.748581e+2, 1.4540192e+2, -1760775.9, -1529226.0, 27243.836, 0.04277824, 0.09002533, -1526063.8, -11001.94, 0.0, 9.997848, 10.000949 
8.748788e+2, 1.5540138e+2, -1476914.1, -1336636.0, 54454.996, 0.0054093343, -0.09165962, -1317978.4, 99085.52, 0.0, 9.99911, 10.00099 
8.7489945e+2, 1.654018e+2, -1412821.3, -1279422.6, 15909.101, 0.0014770599, -0.13409376, -1277551.5, 41505.547, 0.0, 9.998975, 10.000772 
8.7492025e+2, 1.7540297e+2, -1507290.8, -1278776.5, 31823.002, 0.048588514, -0.1134276, -1274427.6, -53384.504, 0.0, 9.997673, 10.000733 
8.749427e+2, 1.8540381e+2, -1414961.1, -1258133.3, 154321.89, 0.07086844, -0.061899815, -1163446.1, -40411.582, 0.0, 9.997968, 10.000053 
8.749667e+2, 1.9540395e+2, -1069440.0, -1038491.94, 153097.02, 0.0604394, -0.07741143, -900088.94, 124945.69, 0.0, 9.999657, 10.0000725 
8.749889e+2, 2.0540437e+2, -954059.44, -981689.5, 5816.4507, 0.071607135, -0.01521612, -952884.94, -25853.049, 0.0, 9.999992, 9.999629 
8.7500954e+2, 2.1540485e+2, -973561.44, -941732.56, 17034.328, 0.0969593, 0.047494378, -934335.25, -105306.664, 0.0, 9.999188, 9.999618 
8.7503093e+2, 2.2540396e+2, -898551.0, -930214.25, 77277.64, 0.092446834, 0.037061993, -835500.0, -104463.59, 0.0, 9.999348, 9.998957 
8.750529e+2, 2.3540163e+2, -668659.3, -767101.94, 86385.4, 0.055217855, -0.11449834, -618456.44, 14599.875, 0.0, 10.000249, 9.998967 
8.750738e+2, 2.4539988e+2, -559124.56, -707967.6, -10459.321, 0.031044887, -0.16159986, -558393.2, -23321.982, 0.0, 10.000516, 9.9985695 
8.750936e+2, 2.553984e+2, -506526.44, -630703.6, 7116.8696, 0.008378121, -0.18815207, -506119.9, -69036.04, 0.0, 10.000211, 9.99857 
8.751145e+2, 2.6539728e+2, -316975.44, -495572.88, 62348.62, 0.017915629, -0.14915489, -297363.13, 41730.266, 0.0000000691861, 10.000859, 9.998515 
8.7513655e+2, 2.753961e+2, -34005.18, -317049.75, 86007.14, 0.057791606, -0.14175126, -9920.143, 231183.64, 0.000001269736, 10.002164, 9.998443 
8.7515736e+2, 2.853936e+2, -17191.398, -440544.53, 16660.068, 0.040911507, -0.14914723, -16536.793, 126592.54, 0.000008255043, 10.002382, 9.996824 
8.75177e+2, 2.9538953e+2, -42672.195, -388976.4, 4335.274, -0.035524182, -0.2658997, -42617.934, 2553.7297, 0.000042714033, 10.001476, 9.996937 
8.75198e+2, 3.0538738e+2, 198358.88, -44811.215, 23570.729, 0.012018832, -0.26111826, 200622.55, 200622.55, 0.00015288098, 10.001958, 9.998718 
8.752184e+2, 3.153884e+2, 429760.03, 125346.664, 112847.37, -0.028760683, -0.05548879, 467030.0, 467030.0, 0.00035815634, 10.003233, 9.999271 
8.848157e+2, 1.2537792e+2, -2114445.8, -1699638.5, 53125.914, 0.03331194, 0.06962146, -1692942.6, 18361.4, 0.00000006865043, 9.996285, 10.001891 
8.848357e+2, 1.3538092e+2, -1826366.4, -1517767.9, -31811.938, 0.06492401, 0.16242512, -1514522.6, 98749.71, 0.0, 9.997675, 10.001795 
8.8485664e+2, 1.4538187e+2, -1709382.8, -1496512.8, 42124.332, 0.11084795, 0.12930861, -1488480.0, 26780.096, 0.0, 9.998178, 10.001006 
8.848779e+2, 1.5538114e+2, -1607814.1, -1396492.6, 26630.979, 0.05968736, -0.0734787, -1393188.3, 24075.686, 0.0, 9.9981985, 10.001012 
8.8489866e+2, 1.6538134e+2, -1409616.3, -1275676.4, -17268.916, 0.030379264, -0.1386419, -1273485.8, 45772.75, 0.0, 9.998998, 10.000787 
8.84919e+2, 1.7538233e+2, -1094711.0, -1075655.3, -24445.318, 0.027817374, -0.1387992, -1058946.6, 162298.67, 0.0, 10.000499, 10.000763 
8.8494176e+2, 1.8538328e+2, -1080859.5, -1103431.3, 121144.19, 0.073709905, -0.07461018, -970476.6, 152758.6, 0.0, 10.000287, 9.999998 
8.849666e+2, 1.953838e+2, -1236425.0, -1126867.6, 106341.36, 0.15009126, -0.043253623, -1062025.3, -36793.77, 0.0, 9.998546, 10.000003 
8.8498884e+2, 2.0538402e+2, -1185646.1, -1090729.4, -6065.732, 0.15838873, 0.00052838755, -1090343.4, -163112.6, 0.0, 9.998374, 9.999672 
8.85009e+2, 2.153838e+2, -923467.6, -915275.7, -8966.426, 0.11069721, -0.008848469, -909513.94, -80279.85, 0.0, 9.999508, 9.999659 
8.8503057e+2, 2.2538309e+2, -773792.94, -847838.4, 95259.85, 0.09003252, -0.013907652, -708614.25, 22626.414, 0.0, 10.000117, 9.999141 
8.850534e+2, 2.3538163e+2, -653755.44, -742312.6, 91318.69, 0.087239094, -0.09595448, -596546.6, 36706.273, 0.0, 10.000278, 9.999117 
8.8507456e+2, 2.4538015e+2, -531076.56, -694086.2, 9534.931, 0.05923964, -0.12241296, -530520.75, 4744.2827, 0.0, 10.000705, 9.99857 
8.850942e+2, 2.5537834e+2, -331107.78, -550831.0, -2680.3, 0.0029414308, -0.18445435, -331075.06, 106204.93, 0.00000000006372724, 10.001412, 9.998544 
8.851157e+2, 2.6537678e+2, -267090.9, -530811.56, 46974.152, 0.025393618, -0.1615589, -258973.69, 80321.31, 0.00000025387644, 10.001458, 9.997986 
8.851387e+2, 2.7537513e+2, -236796.03, -467229.22, -17296.041, 0.122948326, -0.14862649, -235505.05, 5807.848, 0.0000021793016, 10.000999, 9.99797 
8.851598e+2, 2.8537276e+2, -128072.77, -436021.75, -54277.793, 0.103125334, -0.13953842, -118786.055, 24550.969, 0.000011106664, 10.0014, 9.997308 
8.8517916e+2, 2.9536957e+2, 149467.55, -246673.81, -7745.524, -0.013501001, -0.21668053, 149618.94, 194988.47, 0.000049522223, 10.002593, 9.997367 
8.852e+2, 3.0536798e+2, 343323.78, -18591.375, 15254.861, -0.030253872, -0.15841489, 343965.63, 343965.63, 0.00016467013, 10.003133, 9.998348 
8.852214e+2, 3.1536818e+2, 319010.0, 9889.238, -61721.67, -0.014409196, 0.010543339, 330878.22, 330878.22, 0.00037312726, 10.002735, 9.998736 
8.948122e+2, 1.2535827e+2, -2178592.3, -1803574.3, 73242.38, 0.015969539, 0.045864623, -1789777.4, -78288.58, 0.00000033567557, 9.99619, 10.00121 
8.948335e+2, 1.3535924e+2, -1885897.1, -1632984.9, 25415.857, 0.060482997, 0.020978022, -1630456.1, -16975.61, 0.00000000007521531, 9.997661, 10.001002 
8.9485484e+2, 1.453602e+2, -1716586.1, -1516863.3, 28789.826, 0.08776074, 0.032787174, -1512796.0, 2675.8376, 0.0, 9.998191, 10.000864 
8.9487684e+2, 1.5536152e+2, -1621632.6, -1424151.4, 42451.863, 0.10014336, 0.050354134, -1415412.4, 2047.0691, 0.0, 9.998186, 10.000833 
8.948984e+2, 1.653622e+2, -1414907.9, -1283498.8, 27845.234, 0.082394525, 0.04801707, -1277842.0, 41608.62, 0.0, 9.998983, 10.000739 
8.9492e+2, 1.7536217e+2, -1098485.0, -1078863.0, 39977.785, 0.048291013, -0.05190785, -1047509.94, 173936.48, 0.0, 10.000482, 10.00075 
8.949422e+2, 1.8536252e+2, -1083762.5, -1097452.6, 44111.066, 0.0635463, -0.05260301, -1045968.6, 77471.68, 0.0, 10.00023, 10.000068 
8.9496505e+2, 1.953629e+2, -1246754.4, -1127159.8, 54255.56, 0.11868068, -0.04251022, -1106214.4, -80779.11, 0.0, 9.998451, 10.000047 
8.9498717e+2, 2.0536245e+2, -1195544.0, -1083563.0, 25566.328, 0.13927048, -0.070713, -1078002.1, -150562.9, 0.0, 9.998256, 9.999778 
8.950088e+2, 2.1536107e+2, -937592.3, -906165.2, 45213.047, 0.12753655, -0.21040405, -874012.94, -44559.605, 0.0, 9.999348, 9.999794 
8.950308e+2, 2.2536102e+2, -774774.75, -816348.8, 90517.4, 0.08982911, -0.17076403, -702688.25, 28765.96, 0.0, 9.999965, 9.999434 
8.9505315e+2, 2.3536189e+2, -652880.6, -708328.75, 108674.72, 0.01759451, -0.050537836, -568449.4, 64996.41, 0.0, 10.000138, 9.999417 
8.9507484e+2, 2.453613e+2, -550343.5, -712955.5, 23674.674, -0.0066588363, 0.00026693716, -546966.8, -11516.7705, 0.0, 10.000609, 9.998489 
8.950959e+2, 2.5535905e+2, -360785.44, -579516.8, 32830.668, 0.008304918, -0.096489, -355963.97, 81504.84, 0.0000000002378373, 10.001273, 9.998416 
8.951172e+2, 2.653566e+2, -370398.47, -729599.4, 20018.994, 0.015954763, -0.0878161, -369286.2, -29790.256, 0.00000030747992, 10.001391, 9.996651 
8.9513886e+2, 2.753536e+2, -336827.6, -657947.1, -16250.274, 0.014720882, -0.07086031, -336007.34, -94473.75, 0.0000026197797, 10.00093, 9.996692 
8.9516056e+2, 2.853522e+2, -25568.475, -222042.0, -19483.531, 0.017323915, 0.0141533315, -23655.002, 119893.914, 0.000013171274, 10.001384, 9.998787 
8.951825e+2, 2.9535198e+2, 237965.36, -49858.242, 46935.5, 0.027742818, 0.08362426, 245425.77, 290972.0, 0.000055655084, 10.002526, 9.998752 
8.952033e+2, 3.0535e+2, 183888.14, -328735.78, -7663.131, -0.028790135, 0.14418547, 184002.66, 184002.66, 0.00017580122, 10.003055, 9.996248 
8.9522314e+2, 3.1534472e+2, 188025.28, -238814.77, -39772.0, -0.16283987, -0.026889872, 191699.53, 191699.53, 0.00038747952, 10.002651, 9.997056 
9.048096e+2, 1.2533616e+2, -2024949.6, -1729686.3, 513.02673, 0.09201216, -0.038941924, -1729685.4, -17984.354, 0.0000010657902, 9.997211, 10.001237 
9.04831e+2, 1.3533705e+2, -1853194.5, -1620273.9, -24940.08, 0.042606357, -0.07128795, -1617633.4, -3939.2915, 0.000000007369457, 9.997884, 10.000982 
9.0485275e+2, 1.4533845e+2, -1690244.9, -1480890.3, 17170.262, 0.060137335, -0.027221799, -1479491.4, 36190.625, 0.0, 9.99827, 10.001071 
9.048754e+2, 1.5534072e+2, -1546155.0, -1361783.9, 33190.074, 0.13280839, 0.06306324, -1355991.1, 61669.88, 0.0, 9.998594, 10.001061 
9.0489787e+2, 1.6534172e+2, -1447357.4, -1329991.6, 77483.24, 0.1420263, 0.0957282, -1291477.1, 28173.14, 0.0, 9.99889, 10.00047 
9.049203e+2, 1.7534134e+2, -1310324.8, -1209892.3, 43664.45, 0.107704796, -0.010507861, -1193563.4, 28088.027, 0.0, 9.999146, 10.000493 
9.049423e+2, 1.8534125e+2, -1218502.1, -1161636.3, -4009.6768, 0.101855606, -0.0445681, -1161355.0, -37705.547, 0.0, 9.999293, 10.000078 
9.0496385e+2, 1.9534113e+2, -1102051.1, -1058397.4, -11867.826, 0.11362953, -0.084301144, -1055379.6, -29732.344, 0.0, 9.999426, 10.000056 
9.049858e+2, 2.0534067e+2, -1031024.3, -1003265.6, 21194.201, 0.12383146, -0.114996426, -991810.56, -64159.43, 0.0, 9.999389, 9.999774 
9.05008e+2, 2.1533962e+2, -961324.06, -920247.4, 1622.8705, 0.1327492, -0.21883355, -920183.4, -90520.19, 0.0, 9.999196, 9.999766 
9.050307e+2, 2.2533983e+2, -845122.8, -855288.94, 52350.28, 0.11084743, -0.14925724, -797609.44, -65946.76, 0.0, 9.999514, 9.999383 
9.0505373e+2, 2.3534086e+2, -624683.6, -702543.0, 23074.389, 0.055862956, -0.0047979937, -618359.06, 15294.662, 0.0, 10.000366, 9.999349 
9.050757e+2, 2.4534012e+2, -553373.5, -726127.44, -65171.0, 0.026438178, 0.04159735, -531545.9, 4114.527, 0.0, 10.00065, 9.998372 
9.0509677e+2, 2.5533757e+2, -484402.34, -647611.94, -82811.49, 0.016709056, -0.0747635, -449744.16, -12061.25, 0.0, 10.000472, 9.998324 
9.051183e+2, 2.653352e+2, -394563.28, -714942.7, -5878.6104, -0.0014204519, -0.062537335, -394455.44, -54746.73, 0.0000002007212, 10.001123, 9.9968815 
9.0514016e+2, 2.7533266e+2, -92502.88, -514786.28, 46175.29, -0.0198221, -0.022608783, -87512.734, 154227.86, 0.0000025589381, 10.002502, 9.99692 
9.051624e+2, 2.8533122e+2, 160133.3, -145535.81, 51734.863, 0.0018321379, 0.05285519, 168652.08, 312408.13, 0.000014749117, 10.002704, 9.998692 
9.051849e+2, 2.9533058e+2, 122855.33, -111434.58, -20838.844, 0.06892466, 0.095929414, 124694.39, 170452.02, 0.00006245814, 10.001774, 9.998693 
9.052062e+2, 3.0532852e+2, 108124.29, -404264.34, -3696.8975, -0.017094824, 0.16498049, 108150.96, 108150.96, 0.00018874744, 10.002699, 9.995904 
9.052268e+2, 3.1532323e+2, 516383.6, -91249.16, 34570.6, -0.16242647, 0.03364659, 518344.13, 518344.13, 0.0004049675, 10.004937, 9.996983 
9.148066e+2, 1.2531202e+2, -1958822.1, -1596745.4, -16083.913, 0.020557804, -0.14366111, -1596032.3, 115904.34, 0.000002613721, 9.997248, 10.002125 
9.148277e+2, 1.3531438e+2, -1795609.5, -1495298.1, 5330.8154, -0.09635135, -0.116971135, -1495203.5, 118709.4, 0.00000007607973, 9.997863, 10.001848 
9.148499e+2, 1.4531639e+2, -1654542.5, -1396156.1, 14233.143, -0.08688079, -0.080818996, -1395374.5, 120517.79, 0.0, 9.998225, 10.001675 
9.148734e+2, 1.5531878e+2, -1506828.8, -1277754.9, 59506.516, 0.048940178, -0.039541807, -1263219.3, 154648.48, 0.0, 9.998587, 10.001641 
9.148966e+2, 1.6532005e+2, -1485576.0, -1407144.4, 73271.16, 0.10219606, 0.016671134, -1363254.6, -43398.664, 0.0, 9.99888, 9.999944 
9.1491956e+2, 1.7532001e+2, -1354545.4, -1290502.4, 62786.78, 0.10156464, -0.0024802897, -1252043.0, -30184.855, 0.0, 9.999098, 9.999964 
9.149416e+2, 1.8531957e+2, -1226814.4, -1163227.1, -9350.224, 0.084405474, -0.044286735, -1161880.8, -38019.57, 0.0, 9.999227, 10.0001 
9.1496277e+2, 1.9531861e+2, -1117671.8, -1065507.3, 5496.7964, 0.042873498, -0.17168811, -1064934.4, -39067.62, 0.0, 9.999322, 10.000057 
9.1498435e+2, 2.0531878e+2, -1063107.9, -1044557.06, 3599.285, 0.02136752, -0.12787166, -1043883.2, -116017.49, 0.0, 9.999275, 9.999545 
9.150063e+2, 2.1531966e+2, -1000379.6, -966358.6, 5239.057, 0.02247538, -0.017123701, -965570.1, -135708.25, 0.0, 9.999047, 9.99952 
9.1502976e+2, 2.2531964e+2, -888265.7, -922318.4, 71747.13, 0.04913249, 0.06307348, -831552.3, -99687.445, 0.0, 9.999406, 9.998979 
9.150547e+2, 2.353186e+2, -673667.06, -771521.5, 66390.91, 0.10280981, 0.039938826, -640122.3, -6246.196, 0.0, 10.000223, 9.998945 
9.150769e+2, 2.4531682e+2, -579944.9, -757863.56, -80778.14, 0.057680994, 0.010663162, -548742.3, -12848.574, 0.0, 10.000545, 9.998209 
9.150966e+2, 2.5531408e+2, -505559.2, -672371.25, -74802.96, -0.07547126, -0.1076397, -476929.28, -39009.08, 0.0, 10.000383, 9.998203 
9.1511834e+2, 2.6531267e+2, -283450.53, -469343.7, 36461.902, -0.12300259, -0.08053896, -276554.53, 63378.11, 0.00000011562638, 10.001063, 9.998595 
9.151422e+2, 2.7531222e+2, 5072.291, -286633.28, 108519.3, -0.089962795, -0.0055863285, 41014.64, 282949.94, 0.0000025826089, 10.002393, 9.99854 
9.151648e+2, 2.8530994e+2, 38551.723, -379732.97, 4154.43, -0.04465732, -0.010996978, 38592.98, 182551.0, 0.000017159802, 10.002627, 9.997119 
9.1518635e+2, 2.9530585e+2, 13628.258, -337366.6, -37095.63, 0.002070629, -0.15777387, 17505.947, 63506.09, 0.00007135739, 10.001766, 9.997149 
9.152083e+2, 3.0530372e+2, 184324.16, -233465.5, 75329.5, -0.09962356, -0.07687029, 197491.45, 197491.45, 0.00020564985, 10.002653, 9.997092 
9.152315e+2, 3.1530306e+2, 607823.94, 136753.56, 140735.77, -0.2409271, 0.12543742, 646666.94, 646666.94, 0.00042848263, 10.004786, 9.998612 
9.2480415e+2, 1.2529017e+2, -1790289.1, -1550545.0, 107864.76, 0.002236547, -0.15797277, -1509159.1, 202987.98, 0.0000053718704, 9.998544, 10.001823 
9.248253e+2, 1.3529249e+2, -1877834.4, -1557738.8, 12363.427, -0.089013144, -0.11761668, -1557262.0, 56863.145, 0.00000033393198, 9.997395, 10.0016575 
9.248477e+2, 1.4529411e+2, -1784972.6, -1453633.1, 25134.797, -0.067929685, -0.113267325, -1451737.4, 64370.65, 0.0, 9.997302, 10.001729 
9.2487174e+2, 1.5529609e+2, -1533344.8, -1288637.0, -4118.6333, 0.0459782, -0.118981145, -1288567.8, 129518.3, 0.0, 9.998387, 10.001666 
9.248953e+2, 1.6529718e+2, -1505668.1, -1422525.6, 9317.143, 0.09926665, -0.078105815, -1421494.4, -101418.76, 0.0, 9.998757, 9.9999 
9.2491835e+2, 1.7529728e+2, -1438471.6, -1335460.5, 13922.419, 0.107813604, -0.080477946, -1333612.0, -111534.305, 0.0, 9.998534, 9.99993 
9.2494065e+2, 1.8529709e+2, -1286737.4, -1164157.3, 474.14246, 0.10428976, -0.10814121, -1164155.4, -40076.477, 0.0, 9.998697, 10.000352 
9.2496234e+2, 1.9529642e+2, -1121719.5, -1037890.1, 6639.15, 0.08272611, -0.23003078, -1037367.6, -11285.936, 0.0, 9.999173, 10.000315 
9.249842e+2, 2.0529692e+2, -1018200.06, -1056972.8, 30652.818, 0.06449458, -0.15043671, -1001317.56, -73239.234, 0.0, 9.999736, 9.999241 
9.250063e+2, 2.1529816e+2, -815720.3, -909775.94, 9212.349, 0.057868645, 0.02789182, -814826.5, 15245.887, 0.0, 10.000453, 9.999236 
9.250298e+2, 2.252978e+2, -764214.9, -886653.7, 93955.945, 0.070625246, 0.09839697, -713293.6, 18785.658, 0.0, 10.00036, 9.998764 
9.2505443e+2, 2.352958e+2, -787833.4, -849688.4, 77568.195, 0.09771638, 0.0019341621, -735254.4, -101154.914, 0.0, 9.999532, 9.998743 
9.2507714e+2, 2.4529405e+2, -694607.3, -797757.3, -12276.3545, 0.08076565, -0.021846084, -693166.4, -157048.98, 0.0, 9.999691, 9.998352 
9.2509806e+2, 2.5529224e+2, -433326.2, -619365.56, -5957.845, 0.026346793, -0.05996079, -433135.6, 5000.365, 0.0, 10.000807, 9.998365 
9.2512035e+2, 2.6529098e+2, -266329.6, -444187.9, 76687.97, -0.023629494, -0.036816422, -237830.31, 102315.89, 0.00000007319143, 10.001093, 9.998757 
9.2514384e+2, 2.7528986e+2, -246021.0, -390081.53, 17455.832, -0.055986747, -0.046230417, -243936.05, -1783.814, 0.0000027897247, 10.000585, 9.998698 
9.251668e+2, 2.852872e+2, -166221.3, -542836.2, -64564.56, -0.04211392, -0.066499755, -155460.22, -11281.217, 0.000020180585, 10.001503, 9.996534 
9.2518914e+2, 2.9528302e+2, 258924.86, -283301.4, -61941.207, 0.016072076, -0.15920061, 265910.72, 312135.72, 0.00008285034, 10.003725, 9.996574 
9.252117e+2, 3.0528048e+2, 446953.88, -69970.21, 68728.16, -0.08792412, -0.1089705, 455935.63, 455935.63, 0.0002292469, 10.004265, 9.99745 
9.2523587e+2, 3.1528038e+2, 376101.56, 72630.72, 18373.37, -0.17732364, 0.10835832, 377209.9, 377209.9, 0.0004645645, 10.002965, 9.999056 
9.348014e+2, 1.2527038e+2, -1903611.6, -1762835.3, 27928.463, -0.18254721, -0.12916686, -1757497.0, -45162.293, 0.000009857008, 9.998471, 10.000392 
9.348234e+2, 1.3527162e+2, -1960043.9, -1734368.6, -20957.143, -0.041811664, -0.07052333, -1732439.0, -118110.76, 0.0000009955157, 9.997433, 10.00042 
9.3484604e+2, 1.4527187e+2, -1828413.6, -1548995.4, 51899.75, 0.00904728, -0.11010805, -1539666.9, -23340.178, 0.00000000002439963, 9.997322, 10.001069 
9.3487024e+2, 1.552726e+2, -1581303.1, -1377368.0, 46809.273, 0.023987355, -0.17187935, -1367137.1, 51178.69, 0.0, 9.998342, 10.0010805 
9.348936e+2, 1.6527306e+2, -1475044.1, -1347940.3, -14832.276, 0.03310138, -0.19606127, -1346232.3, -25922.475, 0.0, 9.998707, 10.000438 
9.349163e+2, 1.7527314e+2, -1404774.1, -1260983.1, 16999.148, 0.031052768, -0.2515677, -1259000.9, -36691.29, 0.0, 9.998514, 10.000453 
9.3493915e+2, 1.8527386e+2, -1267465.0, -1108946.0, 9588.656, 0.061033793, -0.23476115, -1108368.1, 15933.472, 0.0, 9.998634, 10.000762 
9.349621e+2, 1.9527474e+2, -1109502.1, -989128.4, 35779.316, 0.121917784, -0.24333586, -979296.56, 46994.0, 0.0, 9.999075, 10.000699 
9.34985e+2, 2.0527522e+2, -1051111.3, -1105886.9, 44506.34, 0.15094227, -0.16801184, -1026241.0, -97953.164, 0.0, 9.999645, 9.998951 
9.3500787e+2, 2.1527518e+2, -857810.25, -967065.56, 45531.66, 0.15183422, -0.08684245, -841323.1, -11028.7, 0.0, 10.000314, 9.998916 
9.350304e+2, 2.2527435e+2, -791932.8, -907746.0, 53623.52, 0.083266824, -0.042753898, -770917.56, -38612.21, 0.0, 10.000203, 9.998693 
9.350527e+2, 2.3527256e+2, -812433.06, -870392.3, 59773.117, -0.04869208, -0.1142957, -774984.94, -140661.77, 0.0, 9.999398, 9.998668 
9.350762e+2, 2.4527185e+2, -676936.94, -740327.44, 17131.932, -0.0029787766, -0.051242065, -672603.1, -136272.14, 0.0, 9.999599, 9.998789 
9.35101e+2, 2.552719e+2, -418231.9, -572682.5, 44362.23, 0.21570572, 0.054502897, -406396.78, 31935.31, 0.0, 10.00073, 9.998729 
9.3512386e+2, 2.6527e+2, -362414.6, -626535.56, 49511.637, 0.20230676, 0.055759516, -353438.28, -13087.72, 0.00000003612581, 10.001025, 9.997535 
9.35145e+2, 2.7526584e+2, -339720.47, -569644.06, 15305.681, -0.02376724, -0.13150059, -338706.06, -96317.41, 0.0000027030533, 10.000525, 9.997491 
9.351681e+2, 2.8526324e+2, -146389.56, -497361.97, 10229.06, -0.09168654, -0.102141716, -146091.69, -1675.6328, 0.000022488803, 10.001476, 9.996861 
9.351929e+2, 2.9526207e+2, 272340.97, -249417.28, 35182.895, -0.011046129, 0.06427071, 274702.72, 321136.38, 0.00009525127, 10.003688, 9.996829 
9.352161e+2, 3.0525872e+2, 407239.28, -138839.53, 16368.215, -0.09434106, 0.05035862, 407729.44, 407729.44, 0.00025879213, 10.004212, 9.997 
9.352393e+2, 3.1525573e+2, 325506.47, -19622.447, -4328.3906, -0.18074967, 0.021281939, 325560.75, 325560.75, 0.0005142612, 10.002911, 9.998446 
9.4479924e+2, 1.2524824e+2, -2123447.0, -1877881.6, -51990.625, -0.15523402, -0.18401743, -1867327.9, -154778.48, 0.000016753027, 9.996971, 10.000342 
9.448217e+2, 1.3525002e+2, -1775523.4, -1654473.8, -44375.28, -0.0033774849, -0.06495546, -1639949.1, -25411.313, 0.000002343361, 9.998723, 10.000355 
9.448447e+2, 1.4525014e+2, -1584069.3, -1484435.8, 107869.45, 0.05948996, -0.09011135, -1415435.4, 101102.82, 0.0000000053592455, 9.999227, 10.000593 
9.44869e+2, 1.5525006e+2, -1548832.9, -1419802.1, 87918.11, 0.055335503, -0.1846017, -1375267.9, 43268.113, 0.0, 9.998803, 10.000573 
9.448924e+2, 1.6525029e+2, -1463727.5, -1316071.8, 34108.145, 0.05293611, -0.21894333, -1308573.6, 11958.603, 0.0, 9.998684, 10.000657 
9.4491506e+2, 1.7525063e+2, -1338423.0, -1204914.6, 16191.969, 0.040573534, -0.2691485, -1202978.9, 19549.277, 0.0, 9.998879, 10.00065 
9.44938e+2, 1.852517e+2, -1239818.3, -1121016.4, 39.95284, 0.07728862, -0.2170618, -1121016.4, 3501.4292, 0.0, 9.9989395, 10.000523 
9.449614e+2, 1.95253e+2, -1151202.1, -1034980.1, -41824.746, 0.1620489, -0.1599726, -1021493.7, 5011.5146, 0.0, 9.998903, 10.00046 
9.4498473e+2, 2.0525317e+2, -1120631.4, -1145484.4, -8826.398, 0.19158585, -0.10328849, -1117815.8, -189309.88, 0.0, 9.99919, 9.998898 
9.45008e+2, 2.1525216e+2, -948439.25, -1010249.9, -12808.427, 0.17567584, -0.11426003, -945890.2, -115370.5, 0.0, 9.9997, 9.998904 
9.450307e+2, 2.2525097e+2, -789191.0, -904858.75, 6366.477, 0.09972932, -0.1074304, -788841.6, -56308.785, 0.0, 10.000221, 9.998702 
9.450529e+2, 2.3524936e+2, -608691.8, -769961.94, -697.6497, -0.026410146, -0.16172566, -608688.8, 25859.19, 0.0, 10.000793, 9.998682 
9.450768e+2, 2.4524869e+2, -447747.22, -669848.5, -13960.457, 0.023006644, -0.07664651, -446873.16, 89682.97, 0.0, 10.001344, 9.998431 
9.451024e+2, 2.5524867e+2, -279864.7, -539910.6, -67379.93, 0.24352321, 0.056355864, -263443.03, 175116.95, 0.0, 10.001831, 9.998416 
9.451257e+2, 2.6524663e+2, -165497.78, -541058.3, -53792.977, 0.22067945, 0.067970745, -157944.7, 182635.61, 0.000000027783642, 10.002407, 9.997463 
9.451468e+2, 2.7524245e+2, 22107.625, -402717.9, -25402.594, -0.015264564, -0.11389705, 23621.19, 266240.06, 0.000002329391, 10.003036, 9.997438 
9.451704e+2, 2.8524008e+2, 104727.83, -375490.88, 52517.31, -0.08155855, -0.0606346, 110404.086, 255048.27, 0.000023981273, 10.003202, 9.99687 
9.4519633e+2, 2.9523924e+2, 150084.66, -305065.8, 29922.127, 0.017020443, 0.1410998, 152043.34, 198701.42, 0.00010679835, 10.002848, 9.996849 
9.452201e+2, 3.0523536e+2, 239839.34, -223053.8, -293.96005, -0.055112347, 0.07176038, 239839.53, 239839.53, 0.00028981623, 10.003093, 9.996962 
9.452431e+2, 3.1523135e+2, 414932.47, -13699.391, -43975.74, -0.11741921, -0.049545795, 419397.66, 419397.66, 0.00057081727, 10.003701, 9.998107 
9.5479685e+2, 1.2522382e+2, -2044582.3, -1698282.0, -20936.781, -0.1380024, -0.3120544, -1697020.8, 15769.824, 0.00002677623, 9.996923, 10.001582 
9.548199e+2, 1.352278e+2, -1698153.6, -1479862.5, 28446.377, -0.07518089, -0.10052692, -1476216.5, 138536.17, 0.0000047533053, 9.998678, 10.001561 
9.5484346e+2, 1.4522891e+2, -1609559.0, -1533793.6, 75351.484, -0.02631478, -0.06777071, -1487338.0, 29404.246, 0.000000046136613, 9.999204, 10.000271 
9.548677e+2, 1.5522864e+2, -1562422.8, -1459747.4, 82939.125, 0.0219646, -0.15279083, -1413543.0, 5202.097, 0.0, 9.998852, 10.000277 
9.548913e+2, 1.6522911e+2, -1472163.6, -1338964.1, 30847.084, 0.047141064, -0.13715543, -1332167.3, -11426.891, 0.0, 9.998703, 10.000493 
9.549143e+2, 1.7522998e+2, -1353522.9, -1231270.0, 34584.414, 0.047397226, -0.12194244, -1222164.6, 567.3249, 0.0, 9.998855, 10.000483 
9.549371e+2, 1.8523075e+2, -1305937.5, -1251253.4, -12695.451, 0.063720755, -0.04608203, -1248449.8, -123723.31, 0.0, 9.998901, 9.999652 
9.549598e+2, 1.9523118e+2, -1219643.3, -1162365.1, -33030.566, 0.09590666, 0.012712129, -1147286.8, -120560.58, 0.0, 9.998834, 9.999622 
9.549831e+2, 2.0523073e+2, -1120986.6, -1120790.5, -2249.899, 0.090317555, 0.036748994, -1118636.5, -189903.89, 0.0, 9.99908, 9.999123 
9.5500654e+2, 2.1522917e+2, -957561.4, -992856.44, 16888.252, 0.041791104, -0.051387474, -950782.5, -120034.53, 0.0, 9.999539, 9.999105 
9.550304e+2, 2.2522771e+2, -801179.0, -893293.56, 17291.695, 0.032070942, -0.088054284, -798040.0, -65278.8, 0.0, 10.000069, 9.998853 
9.550548e+2, 2.352261e+2, -623432.4, -767663.56, 33834.266, 0.06205656, -0.15333618, -615889.8, 18885.084, 0.0, 10.000649, 9.99877 
9.550787e+2, 2.4522449e+2, -544417.5, -839255.8, -5179.7676, 0.057042263, -0.110471286, -544326.5, -7533.32, 0.0, 10.001217, 9.997324 
9.551022e+2, 2.5522262e+2, -370940.0, -706569.9, -36140.79, 0.017900111, -0.053404342, -367092.44, 71725.98, 0.0, 10.001734, 9.997315 
9.5512563e+2, 2.6522106e+2, -109928.21, -401036.13, -38988.57, -0.04385199, 0.010454105, -104796.86, 236037.4, 0.000000030362223, 10.002308, 9.998471 
9.551489e+2, 2.7521956e+2, 76990.42, -268366.7, 12633.406, -0.13415167, -0.0059225466, 77451.945, 320296.3, 0.000002140531, 10.002948, 9.998404 
9.5517343e+2, 2.8521746e+2, 72998.07, -420914.94, 29468.348, -0.11832529, 0.04322547, 74750.03, 219615.42, 0.000025889522, 10.003117, 9.996597 
9.5519924e+2, 2.9521468e+2, 123753.73, -346902.13, 32619.25, -0.006617657, 0.07619228, 126003.68, 172901.27, 0.00011778403, 10.0027895, 9.996588 
9.552233e+2, 3.0521053e+2, 254248.7, -177996.06, 22915.549, -0.057550102, -0.024833193, 255460.17, 255460.17, 0.00031950467, 10.003026, 9.997306 
9.5524675e+2, 3.1520754e+2, 400690.47, -31960.639, 5723.005, -0.17467898, -0.07811405, 400766.16, 400766.16, 0.00062882464, 10.003644, 9.998015 
9.6479505e+2, 1.2520094e+2, -1851704.3, -1604284.8, 18358.867, -0.061738703, -0.2754691, -1602930.0, 110085.41, 0.000040530904, 9.998219, 10.001608 
9.648178e+2, 1.3520457e+2, -1804846.0, -1522208.6, -54661.836, -0.102263175, -0.108680524, -1512005.4, 102973.92, 0.000008656152, 9.997891, 10.001655 
9.648418e+2, 1.4520566e+2, -1786428.4, -1601612.5, -17824.93, -0.034744244, -0.08861, -1599909.0, -82940.086, 0.00000019058375, 9.997947, 10.000391 
9.6486676e+2, 1.552056e+2, -1584636.0, -1456481.8, -10141.789, 0.05653746, -0.1591974, -1455684.1, -36713.688, 0.0, 9.998674, 10.000369 
9.648904e+2, 1.652063e+2, -1432986.0, -1328420.3, -28141.889, 0.080530696, -0.12253369, -1321327.5, -363.3774, 0.0, 9.999017, 10.000412 
9.64913e+2, 1.7520733e+2, -1338401.3, -1238417.4, -40895.78, 0.043369096, -0.080631904, -1223820.9, -867.0664, 0.0, 9.999016, 10.0003605 
9.649358e+2, 1.8520771e+2, -1281249.0, -1290016.0, -42338.73, 0.03568299, -0.013992714, -1243067.5, -118114.68, 0.0, 9.999284, 9.999208 
9.6495867e+2, 1.9520727e+2, -1108832.3, -1158063.5, -51937.18, 0.052900948, 0.0034854757, -1075972.8, -49010.625, 0.0, 9.999804, 9.99919 
9.649822e+2, 2.0520662e+2, -977831.1, -1030016.9, 12728.764, 0.063496575, 0.019759238, -974891.94, -45921.664, 0.0, 9.999994, 9.999292 
9.650065e+2, 2.152055e+2, -891736.75, -942102.9, 2898.9348, 0.06902583, -0.042914994, -891570.44, -60590.48, 0.0, 9.999925, 9.999258 
9.65031e+2, 2.2520421e+2, -776940.9, -902813.25, 29692.332, 0.08224475, -0.061033297, -770288.25, -37296.563, 0.0, 10.000317, 9.998676 
9.6505606e+2, 2.3520252e+2, -566623.1, -752698.44, 2544.8762, 0.113935046, -0.116438486, -566588.3, 68419.32, 0.0, 10.001096, 9.998655 
9.650802e+2, 2.4520074e+2, -456835.66, -767406.7, 20822.867, 0.06971339, -0.09953348, -455445.75, 81580.734, 0.0, 10.00168, 9.997603 
9.651035e+2, 2.5519872e+2, -300666.1, -642668.44, 70737.96, -0.037024133, -0.081917495, -286612.53, 152437.11, 0.0, 10.002092, 9.997585 
9.6512747e+2, 2.651971e+2, -131935.36, -447456.3, 85556.58, -0.081293285, -0.022129036, -110229.15, 230836.83, 0.000000012060779, 10.002305, 9.998149 
9.6515197e+2, 2.7519557e+2, -45812.215, -362039.78, 13623.976, -0.0710756, -0.01542801, -45226.34, 197853.33, 0.0000023356135, 10.002252, 9.998089 
9.651769e+2, 2.851933e+2, -10319.473, -417451.63, 21414.014, -0.041599706, 0.01547979, -9196.254, 135905.67, 0.000028869204, 10.002361, 9.996977 
9.6520203e+2, 2.951904e+2, 121542.3, -309392.28, 41646.74, 0.013228846, 0.0007695471, 125530.26, 172662.95, 0.00012892728, 10.002615, 9.996927 
9.6522653e+2, 3.0518705e+2, 270737.56, -156884.75, 89177.0, -0.02845012, -0.044872504, 288589.4, 288589.4, 0.00034703137, 10.003075, 9.997425 
9.65251e+2, 3.1518468e+2, 343520.0, -67492.86, 5243.126, -0.07958832, -0.049276534, 343586.88, 343586.88, 0.0006841425, 10.003303, 9.99792 
9.7479296e+2, 1.2517951e+2, -1924318.0, -1756995.3, -34954.043, -0.14936249, -0.08324681, -1749986.8, -36762.383, 0.000058506626, 9.998229, 10.000552 
9.74815e+2, 1.3518044e+2, -1866847.9, -1654731.6, -64007.465, -0.19185716, -0.0887964, -1636913.6, -21697.063, 0.00001444443, 9.9979105, 10.000733 
9.7483957e+2, 1.4518055e+2, -1757354.9, -1542500.0, -3271.95, -0.08376553, -0.14511618, -1542450.1, -25233.906, 0.0000005546723, 9.99795, 10.000799 
9.748658e+2, 1.5518104e+2, -1560996.9, -1403018.0, 30035.346, 0.06929117, -0.20282595, -1397500.4, 21711.486, 0.0, 9.998653, 10.000748 
9.7488946e+2, 1.6518182e+2, -1436467.8, -1330539.1, -43753.152, 0.060753923, -0.17594664, -1314804.4, 6399.4717, 0.0, 9.998991, 10.000413 
9.7491115e+2, 1.7518269e+2, -1339481.0, -1239518.3, -33990.895, -0.071883835, -0.15058266, -1229055.3, -5860.8423, 0.0, 9.999009, 10.000357 
9.7493386e+2, 1.851826e+2, -1288083.5, -1294731.8, -32814.977, -0.108697355, -0.12751798, -1258424.8, -133228.27, 0.0, 9.999241, 9.999197 
9.749575e+2, 1.9518138e+2, -1121376.4, -1165200.8, -20717.111, -0.0655137, -0.18984717, -1113133.3, -85921.36, 0.0, 9.99972, 9.99918 
9.74982e+2, 2.05181e+2, -990493.56, -1031898.1, -2514.145, 0.021922866, -0.14775296, -990341.44, -61124.117, 0.0, 9.999884, 9.999337 
9.750074e+2, 2.1518111e+2, -908311.5, -948679.3, 10764.693, 0.1512499, -0.09091945, -905620.3, -74404.016, 0.0, 9.999797, 9.99928 
9.750321e+2, 2.2518039e+2, -829637.4, -975068.7, 46617.645, 0.14776394, -0.030695384, -815977.25, -82752.1, 0.0, 10.000161, 9.99825 
9.7505647e+2, 2.3517865e+2, -622376.4, -823702.44, 41972.016, 0.025023798, -0.0494784, -613976.56, 21269.215, 0.0, 10.000909, 9.998254 
9.75081e+2, 2.4517758e+2, -358739.0, -538735.5, 24746.197, -0.031989258, -0.025045684, -355398.84, 181856.03, 0.0, 10.001568, 9.999231 
9.751058e+2, 2.5517687e+2, -201292.63, -418071.9, 97768.79, -0.032100923, -0.039508425, -163712.92, 275542.63, 0.0, 10.002008, 9.999171 
9.751308e+2, 2.6517454e+2, -253557.4, -681628.4, 71507.27, -0.00008053416, -0.05107752, -241928.36, 99349.875, 0.0000000034767167, 10.002229, 9.996575 
9.7515583e+2, 2.7517045e+2, -164029.34, -589417.06, 26406.813, 0.061975714, -0.14086023, -162396.36, 80927.945, 0.0000028342504, 10.002174, 9.996564 
9.751804e+2, 2.8516778e+2, 49753.332, -283526.47, 22631.602, 0.047527988, -0.12516893, 51283.125, 196635.14, 0.000032313746, 10.002321, 9.997917 
9.752043e+2, 2.9516628e+2, 182103.36, -178599.33, 70209.984, -0.047640268, -0.08846914, 195287.67, 242651.97, 0.0001399921, 10.002592, 9.997838 
9.7522926e+2, 3.051645e+2, 246107.39, -192592.34, 90493.82, -0.079395294, -0.010132034, 264041.1, 264041.1, 0.00037284024, 10.003013, 9.99721 
9.752551e+2, 3.151623e+2, 310093.8, -110749.01, 47530.227, -0.058188476, 0.018146534, 315395.13, 315395.13, 0.00073526404, 10.003194, 9.997672 
9.847905e+2, 1.2515552e+2, -2053594.5, -1830310.8, -73543.08, -0.16468044, -0.069210544, -1808264.6, -94805.3, 0.00008108169, 9.997401, 10.000447 
9.848138e+2, 1.351555e+2, -1877895.8, -1676613.6, -74205.06, -0.092864975, -0.15425682, -1652214.6, -36753.977, 0.000022462764, 9.997903, 10.00059 
9.848387e+2, 1.4515565e+2, -1734863.3, -1527489.6, 39489.555, 0.04421865, -0.20081122, -1520224.3, -2763.8462, 0.0000013019285, 9.998063, 10.0008545 
9.84864e+2, 1.551571e+2, -1639524.3, -1432255.4, 21141.656, 0.0669908, -0.17036654, -1430120.9, -10673.341, 0.0, 9.998067, 10.000829 
9.848877e+2, 1.6515797e+2, -1537784.9, -1371725.4, -35547.64, 0.028584551, -0.1409629, -1364435.8, -42997.04, 0.0, 9.998261, 10.000483 
9.8491013e+2, 1.7515811e+2, -1376738.4, -1246619.8, -42004.81, -0.04735711, -0.19426224, -1234238.0, -10802.258, 0.0, 9.998712, 10.00045 
9.849335e+2, 1.8515795e+2, -1258635.8, -1236360.5, 6717.1636, -0.058137484, -0.20409578, -1234491.8, -109054.984, 0.0, 9.999263, 9.999581 
9.849576e+2, 1.9515729e+2, -1080604.5, -1104879.6, 21279.867, -0.025060209, -0.24973208, -1068244.1, -40800.043, 0.0, 9.999834, 9.9995365 
9.849823e+2, 2.0515701e+2, -925931.44, -1051395.1, 52151.188, 0.037805643, -0.19148995, -907084.9, 22363.523, 0.0, 10.000525, 9.998904 
9.850076e+2, 2.1515682e+2, -725154.8, -906455.9, 8307.877, 0.1295844, -0.12072743, -724774.9, 106677.984, 0.0, 10.00125, 9.998873 
9.850325e+2, 2.251561e+2, -656279.9, -880639.4, 60874.043, 0.117801204, -0.048160575, -640827.56, 92635.266, 0.0, 10.001292, 9.998357 
9.8505706e+2, 2.3515464e+2, -651246.8, -826038.8, 77001.84, 0.019006418, -0.0499279, -622163.9, 13316.089, 0.0, 10.000654, 9.9983635 
9.850823e+2, 2.4515355e+2, -432225.22, -567833.44, 75194.85, -0.027738655, -0.034993365, -398778.84, 138709.6, 0.0, 10.001054, 9.99927 
9.8510796e+2, 2.5515243e+2, -132257.95, -384340.44, 3536.7764, -0.03405324, -0.0923279, -132208.33, 307284.16, 0.0, 10.002479, 9.999177 
9.8513323e+2, 2.6515022e+2, -163054.3, -618163.06, -45581.754, 0.0056275344, -0.101675995, -158533.92, 182980.53, 0.00000001775074, 10.002768, 9.99676 
9.851582e+2, 2.7514678e+2, -178739.02, -577330.94, 11326.717, 0.10232757, -0.13789828, -178417.4, 65137.35, 0.000003544514, 10.00199, 9.996745 
9.85183e+2, 2.8514427e+2, 58754.582, -300264.53, 99767.53, 0.07802174, -0.10832633, 84616.01, 230197.72, 0.00003520851, 10.00246, 9.997751 
9.852074e+2, 2.9514232e+2, 383240.13, -100182.0, 43816.5, -0.06229539, -0.102099456, 387179.47, 434778.22, 0.00014922032, 10.0040455, 9.9976845 
9.8523283e+2, 3.0514055e+2, 414722.03, -139123.03, 3784.76, -0.07531499, 0.00044160118, 414747.9, 414747.9, 0.00039592202, 10.00429, 9.996962 
9.8525894e+2, 3.1513768e+2, 272637.0, -147803.75, -83822.92, 0.026631907, -0.0070935525, 288732.53, 288732.53, 0.0007798097, 10.002996, 9.997525 
9.947868e+2, 1.251289e+2, -2003822.0, -1720098.6, -91736.87, -0.328566, -0.23499681, -1693021.3, 20699.36, 0.000108580556, 9.997384, 10.0012045 
9.948141e+2, 1.351297e+2, -1833505.8, -1577159.1, -47344.227, 0.12293065, -0.31023595, -1568694.8, 47016.746, 0.000033028722, 9.997881, 10.001279 
9.9483925e+2, 1.4513105e+2, -1754311.3, -1567817.9, 23433.012, 0.26110938, -0.25519493, -1564918.6, -47218.652, 0.0000026281716, 9.998057, 10.000585 
9.9486107e+2, 1.5513399e+2, -1652226.4, -1464226.3, 31554.74, -0.05810777, -0.05160249, -1459071.4, -39395.32, 0.00000000019976186, 9.998083, 10.000606 
9.948846e+2, 1.6513495e+2, -1529416.1, -1350595.3, -30385.438, -0.13146773, -0.011461456, -1345573.1, -23905.52, 0.0, 9.998248, 10.00063 
9.949099e+2, 1.7513375e+2, -1366491.4, -1224251.6, -14315.713, 0.033189412, -0.21416019, -1222825.1, 851.7502, 0.0, 9.998703, 10.000608 
9.949345e+2, 1.851338e+2, -1216581.3, -1138150.9, 15903.724, 0.09926096, -0.24574547, -1135048.8, -9375.336, 0.0, 9.999216, 10.000281 
9.9495864e+2, 1.951349e+2, -1041459.9, -1007611.5, 53198.004, 0.07382652, -0.18553084, -968710.44, 58949.043, 0.0, 9.9997635, 10.000239 
9.949827e+2, 2.0513459e+2, -1006724.6, -1188424.8, 65732.17, 0.012198504, -0.12007366, -985438.9, -55774.504, 0.0, 10.000397, 9.998025 
9.9500686e+2, 2.1513268e+2, -806351.4, -1039038.7, 44703.336, -0.089350484, -0.13254145, -798058.6, 33631.063, 0.0, 10.001095, 9.998038 
9.950318e+2, 2.2513142e+2, -634441.7, -793403.8, 25698.309, -0.09564824, -0.106258936, -630390.5, 103313.414, 0.0, 10.001116, 9.999039 
9.9505764e+2, 2.3513053e+2, -626503.75, -740663.56, 64792.055, -0.008194171, -0.120035864, -597234.75, 38475.04, 0.0, 10.00051, 9.999019 
9.950836e+2, 2.4512868e+2, -558958.4, -804064.6, 116700.76, -0.023215808, -0.1358011, -512282.84, 25444.432, 0.0, 10.000936, 9.997705 
9.951096e+2, 2.5512558e+2, -257570.72, -612644.8, 68702.96, -0.13795257, -0.23555636, -244741.02, 195017.86, 0.0, 10.002336, 9.99768 
9.9513465e+2, 2.6512432e+2, -56973.504, -371174.47, -84260.695, -0.1479743, -0.16413715, -35803.332, 305969.22, 0.000000028595345, 10.002655, 9.998511 
9.9515873e+2, 2.7512455e+2, -69680.664, -334471.22, -3466.8813, -0.06009643, -0.0087093515, -69635.27, 174136.36, 0.000003781716, 10.001921, 9.998447 
9.9518424e+2, 2.8512257e+2, -34077.664, -474614.56, 148428.52, -0.056364037, 0.05116948, 11264.902, 157057.89, 0.000036350866, 10.002384, 9.996587 
9.9521095e+2, 2.9511842e+2, 292051.7, -265693.7, 119622.266, -0.13810499, -0.050550483, 316625.0, 364461.1, 0.00015456251, 10.00395, 9.996588 
9.95237e+2, 3.051154e+2, 382103.25, -196022.4, -46444.082, -0.10697545, -0.0051816627, 385810.6, 385810.6, 0.00041193186, 10.004239, 9.996599 
9.952616e+2, 3.1511104e+2, 249965.81, -164054.84, -92395.29, -0.051092822, -0.12238679, 269649.47, 269649.47, 0.0008105773, 10.00287, 9.997474 
1.0047854e+3, 1.2510505e+2, -2012184.5, -1721718.4, 53934.074, -0.1927883, -0.24513464, -1712027.1, 1929.1738, 0.00014134821, 9.997312, 10.001232 
1.0048127e+3, 1.3510625e+2, -1726222.0, -1521308.5, 14860.01, 0.17434831, -0.28467906, -1520236.5, 95706.266, 0.000046426092, 9.998605, 10.001308 
1.004838e+3, 1.4510764e+2, -1646258.9, -1524613.3, 59271.445, 0.2938398, -0.22326478, -1500509.5, 17420.95, 0.00000474816, 9.998864, 10.000481 
1.0048591e+3, 1.5511027e+2, -1609678.8, -1458622.9, 45000.324, -0.065833755, -0.033230748, -1446233.3, -26324.127, 0.000000004412824, 9.998451, 10.000467 
1.004883e+3, 1.6511105e+2, -1490942.6, -1380336.1, 19061.725, -0.13187069, 0.018440856, -1377143.1, -55239.832, 0.0, 9.998713, 10.000213 
1.0049094e+3, 1.7510983e+2, -1267304.4, -1220553.5, -29309.74, 0.07935852, -0.14497653, -1206439.4, 17475.344, 0.0, 9.9995775, 10.000216 
1.0049345e+3, 1.8510976e+2, -1105792.6, -1095239.8, -40345.223, 0.1436998, -0.16421655, -1059827.4, 66085.62, 0.0, 10.000027, 10.00018 
1.00495845e+3, 1.9511054e+2, -995029.8, -997873.56, -86779.03, 0.07124563, -0.12272994, -909661.0, 118240.445, 0.0, 10.000142, 10.00012 
1.0049826e+3, 2.0511015e+2, -1009981.06, -1146440.3, -33522.242, -0.016221846, -0.08084246, -1002190.8, -72284.97, 0.0, 10.000183, 9.998411 
1.00500695e+3, 2.151084e+2, -930259.7, -1058863.6, 15735.765, -0.124718405, -0.11786659, -928362.25, -96434.77, 0.0, 10.000068, 9.998396 
1.0050324e+3, 2.2510713e+2, -713062.9, -840784.0, 35594.742, -0.105899, -0.105150595, -703812.9, 30127.768, 0.0, 10.000623, 9.998953 
1.0050591e+3, 2.3510604e+2, -442249.56, -665635.44, -10661.582, 0.035562962, -0.12782234, -441741.88, 194206.7, 0.0, 10.001833, 9.998899 
1.0050853e+3, 2.4510397e+2, -436411.75, -763622.06, 80978.086, 0.021530818, -0.14810196, -417468.0, 120500.72, 0.0, 10.001847, 9.997548 
1.00511104e+3, 2.551008e+2, -508943.97, -742694.2, 114592.48, -0.13174182, -0.24170718, -462138.8, -22136.525, 0.0, 10.0006695, 9.997578 
1.0051362e+3, 2.6509976e+2, -258843.66, -436272.88, -1019.0676, -0.16914907, -0.15969189, -258837.81, 83176.195, 0.000000017098808, 10.001134, 9.998788 
1.0051607e+3, 2.7510035e+2, 119355.47, -211830.38, -51634.45, -0.0996125, 0.0015787844, 127218.98, 371227.66, 0.000003428396, 10.003088, 9.998718 
1.0051867e+3, 2.850985e+2, 140780.08, -376771.72, 108342.36, -0.09131433, 0.054758642, 162544.78, 308573.3, 0.00003625069, 10.003527, 9.996704 
1.0052141e+3, 2.950942e+2, 75785.64, -361560.53, 144463.25, -0.12778991, -0.07100738, 119195.65, 167269.14, 0.00015744341, 10.002407, 9.996678 
1.0052405e+3, 3.0509153e+2, 182025.84, -246314.47, 65298.594, -0.084866636, -0.013965592, 191759.14, 191759.14, 0.00042211023, 10.002661, 9.997016 
1.0052651e+3, 3.150877e+2, 469769.4, 11631.535, 34002.266, -0.03602761, -0.12428273, 472279.25, 472279.25, 0.0008305699, 10.004064, 9.998116 
1.0147858e+3, 1.2508437e+2, -2058878.8, -1817219.9, 57794.863, 0.057897013, -0.0844304, -1804109.0, -89946.18, 0.0001798155, 9.997312, 10.00057 
1.01480916e+3, 1.350854e+2, -1768694.1, -1620218.6, 72179.26, -0.068015255, -0.07322208, -1590913.6, 25238.281, 0.000062927356, 9.998642, 10.000611 
1.0148342e+3, 1.4508554e+2, -1649635.0, -1534308.3, 27259.836, -0.0027289616, -0.10070656, -1528189.4, -10038.845, 0.000007860604, 9.998877, 10.000406 
1.014858e+3, 1.5508604e+2, -1618321.1, -1474829.4, 41610.523, -0.04766777, -0.11607666, -1463636.0, -43489.723, 0.000000028517778, 9.998447, 10.000357 
1.0148827e+3, 1.650864e+2, -1558074.0, -1521171.3, 40171.273, -0.055079613, -0.050419956, -1495416.5, -173271.52, 0.0, 9.998716, 9.999245 
1.0149084e+3, 1.7508648e+2, -1333408.6, -1363323.0, 13054.8125, -0.0027127443, 0.012318636, -1328512.8, -104364.53, 0.0, 9.999594, 9.99923 
1.0149331e+3, 1.8508592e+2, -1178347.5, -1236329.4, -47949.1, -0.027580682, 0.03973799, -1151306.4, -25151.121, 0.0, 9.999987, 9.99923 
1.01495676e+3, 1.950844e+2, -1071853.5, -1136578.1, -72327.65, -0.13055138, -0.055981133, -1024978.2, 3190.8713, 0.0, 10.000051, 9.999212 
1.0149817e+3, 2.0508382e+2, -913625.4, -916505.9, -50024.285, -0.14770372, -0.070064515, -865020.6, 65151.418, 0.0, 10.000057, 10.000049 
1.01500764e+3, 2.1508396e+2, -834846.3, -831692.1, 20721.2, -0.07923078, -0.08167528, -812488.1, 19678.387, 0.0, 9.999945, 10.000012 
1.0150342e+3, 2.2508317e+2, -802055.56, -987979.4, 68373.43, -0.0117874965, -0.051802635, -779618.9, -45445.58, 0.0, 10.000462, 9.998018 
1.0150613e+3, 2.3508126e+2, -526404.94, -807279.4, 44970.2, 0.049079012, -0.06744686, -519380.5, 116814.47, 0.0, 10.001687, 9.997995 
1.0150872e+3, 2.4507962e+2, -374452.3, -598409.3, 23359.285, 0.011572339, -0.06128425, -372041.8, 166169.14, 0.0, 10.001696, 9.998754 
1.015112e+3, 2.5507802e+2, -439322.97, -578330.9, 81729.27, -0.12322889, -0.11892157, -401540.03, 38683.676, 0.0, 10.000582, 9.99875 
1.0151376e+3, 2.6507634e+2, -345665.63, -598672.94, 62868.484, -0.16389333, -0.103875406, -330904.9, 11335.902, 0.000000011022683, 10.001055, 9.997712 
1.0151639e+3, 2.7507427e+2, 34719.313, -366031.63, 35569.42, -0.12113252, -0.09783315, 37851.86, 282116.28, 0.0000031084232, 10.002993, 9.9977045 
1.01519026e+3, 2.850722e+2, 216447.47, -200923.64, 54808.926, -0.11728587, -0.08341345, 223524.94, 369811.66, 0.000035475467, 10.003451, 9.997946 
1.0152165e+3, 2.9506984e+2, 142035.3, -191464.1, 116273.35, -0.15716386, -0.13911001, 178571.02, 226880.39, 0.00015874387, 10.002283, 9.997898 
1.015243e+3, 3.0506897e+2, 250922.34, -93709.44, 107307.555, -0.12337047, -0.016747914, 281603.2, 281603.2, 0.00042931808, 10.002608, 9.998096 
1.01526864e+3, 3.1506723e+2, 536047.8, 191115.34, 123616.48, -0.14392544, -0.029928075, 575774.06, 575774.06, 0.00084597495, 10.003893, 9.999429 
1.0247852e+3, 1.2506157e+2, -2046814.8, -1785820.8, -23728.29, 0.28047514, 0.022575377, -1783681.0, -69290.375, 0.00022439056, 9.997274, 10.000814 
1.0248064e+3, 1.3506249e+2, -1904632.3, -1662658.1, 29107.332, -0.1444834, 0.0060194326, -1659206.0, -42827.83, 0.0000828242, 9.997612, 10.000825 
1.02483176e+3, 1.4506195e+2, -1756259.4, -1650568.0, 16598.482, -0.09637259, -0.07099797, -1648022.6, -129640.31, 0.000012107546, 9.998409, 9.999839 
1.0248579e+3, 1.550612e+2, -1453748.4, -1457017.9, -28169.455, 0.04572179, -0.15752356, -1427166.3, -6775.3735, 0.00000009714164, 9.999832, 9.999807 
1.0248832e+3, 1.6506122e+2, -1362896.8, -1434103.1, -2040.9885, 0.05986837, -0.09586706, -1362838.4, -40445.33, 0.0, 10.000106, 9.999159 
1.0249076e+3, 1.7506185e+2, -1366679.5, -1382840.5, 13900.596, -0.02408395, 0.033030678, -1358681.4, -134291.52, 0.0, 9.999405, 9.999174 
1.0249323e+3, 1.8506122e+2, -1256399.9, -1313746.8, 48905.242, -0.07478718, 0.07225405, -1228382.1, -101984.68, 0.0, 9.999604, 9.998892 
1.0249573e+3, 1.9505905e+2, -1013839.4, -1145809.3, 51500.934, -0.10944058, -0.054219544, -996120.3, 32297.754, 0.0, 10.000602, 9.998889 
1.0249826e+3, 2.0505801e+2, -767697.7, -865006.06, 27828.633, -0.096765086, -0.089228585, -760301.3, 170124.33, 0.0, 10.00115, 9.999881 
1.0250086e+3, 2.1505783e+2, -655640.6, -767293.56, -63663.996, -0.029681452, -0.11127016, -626793.0, 205630.0, 0.0, 10.001279, 9.999817 
1.0250354e+3, 2.2505717e+2, -667325.2, -910587.0, -834.60986, 0.029112367, -0.06479404, -667322.3, 67106.71, 0.0, 10.001332, 9.99813 
1.0250629e+3, 2.3505586e+2, -592489.06, -826920.8, 30388.207, 0.07303664, -0.028049255, -588614.06, 47831.383, 0.0, 10.001193, 9.998097 
1.0250887e+3, 2.4505447e+2, -440611.63, -610742.94, -12811.233, 0.035049796, -0.009666321, -439652.3, 98806.42, 0.0, 10.001173, 9.998909 
1.0251132e+3, 2.5505272e+2, -340273.88, -517127.38, -59816.11, -0.08638071, -0.09577773, -321942.7, 118529.39, 0.0, 10.00121, 9.998866 
1.0251392e+3, 2.650507e+2, -287349.6, -613965.2, 2568.1138, -0.1275815, -0.09672353, -287329.4, 55163.348, 0.00000001218603, 10.001638, 9.997331 
1.0251669e+3, 2.7504823e+2, -76929.93, -458231.84, 1744.7277, -0.08012013, -0.09796989, -76921.945, 167600.73, 0.0000027111198, 10.0024, 9.997356 
1.0251936e+3, 2.8504628e+2, 139856.3, -187091.0, -35041.418, -0.0787186, -0.07498304, 143569.77, 290113.56, 0.00003356842, 10.002717, 9.998387 
1.0252191e+3, 2.9504448e+2, 208494.1, -113058.36, -59023.555, -0.12449473, -0.115399174, 218986.0, 267545.4, 0.00015737157, 10.002541, 9.998312 
1.0252459e+3, 3.050436e+2, 280302.5, -69638.625, -43438.324, -0.087727755, -0.012603489, 285613.9, 285613.9, 0.00043278775, 10.002805, 9.998148 
1.025273e+3, 3.1504178e+2, 467026.38, 186391.86, -139002.63, -0.0494468, -0.040867478, 524220.3, 524220.3, 0.00085734465, 10.003302, 9.999672 
1.0347826e+3, 1.2503645e+2, -1954495.8, -1605315.5, -71527.375, 0.24480362, 0.06776492, -1591231.6, 123410.45, 0.00027553758, 9.99732, 10.00203 
1.0348042e+3, 1.3503747e+2, -1832584.1, -1508989.3, 46187.14, -0.1435443, -0.04948294, -1502526.0, 114095.49, 0.000106410545, 9.99759, 10.001894 
1.0348306e+3, 1.4503682e+2, -1826861.3, -1796567.3, 55482.68, -0.084159665, -0.13602288, -1754201.1, -235575.39, 0.000017580353, 9.998408, 9.998837 
1.03485875e+3, 1.550357e+2, -1517136.6, -1596829.6, 34152.5, 0.11006693, -0.16178448, -1504503.3, -83859.875, 0.00000023822265, 9.999862, 9.9988365 
1.034884e+3, 1.6503547e+2, -1306351.9, -1314663.8, -45822.203, 0.10327651, -0.11839559, -1264497.6, 58149.84, 0.0, 10.000103, 9.999978 
1.0349067e+3, 1.7503594e+2, -1316114.9, -1269223.8, -2608.7126, -0.07181105, -0.090060726, -1269079.0, -44439.31, 0.0, 9.999368, 9.999972 
1.0349319e+3, 1.850357e+2, -1243435.4, -1271330.6, 73520.07, -0.09051026, -0.06394359, -1182551.6, -55912.367, 0.0, 9.999539, 9.999215 
1.0349595e+3, 1.9503455e+2, -1003188.8, -1108229.8, 96560.73, 0.038573556, -0.12260639, -945789.44, 82858.945, 0.0, 10.00053, 9.999185 
1.0349853e+3, 2.0503278e+2, -931252.94, -1174166.1, 20152.088, 0.044034675, -0.14262311, -929592.44, 1074.1509, 0.0, 10.001019, 9.997822 
1.0350098e+3, 2.1503006e+2, -812270.4, -1069112.6, -46911.316, -0.06380795, -0.21434866, -803970.44, 28726.639, 0.0, 10.00117, 9.997799 
1.0350358e+3, 2.2502913e+2, -612119.3, -758945.0, -16916.955, -0.074696474, -0.15248416, -610195.44, 124512.51, 0.0, 10.001178, 9.999245 
1.0350636e+3, 2.3502977e+2, -532212.94, -672051.44, 36891.984, 0.006052062, -0.03121948, -523077.03, 113623.89, 0.0, 10.001063, 9.999224 
1.0350897e+3, 2.4502847e+2, -531536.1, -763461.2, -19978.848, -0.010027644, -0.010821553, -529827.6, 8885.366, 0.0, 10.001021, 9.997934 
1.0351142e+3, 2.5502503e+2, -419865.22, -662145.0, -44084.477, -0.11911481, -0.16917382, -412093.06, 28653.008, 0.0, 10.001123, 9.997912 
1.0351409e+3, 2.650231e+2, -277509.63, -575566.2, 22155.242, -0.14665596, -0.13234338, -275871.78, 66896.195, 0.00000000560088, 10.001567, 9.997624 
1.03516944e+3, 2.7502224e+2, -76875.125, -427781.94, 45522.953, -0.092195705, 0.0013756101, -71065.63, 173716.64, 0.0000022721786, 10.002283, 9.997617 
1.0351964e+3, 2.8502068e+2, 107250.58, -239128.94, -51846.676, -0.08749346, 0.06884057, 114844.586, 261644.38, 0.000031172072, 10.002648, 9.998063 
1.0352217e+3, 2.9501837e+2, 175149.66, -161705.78, -48639.67, -0.14573923, 0.004858459, 182032.27, 230852.83, 0.00015322318, 10.00246, 9.9980135 
1.035249e+3, 3.0501586e+2, 201754.56, -228818.4, -31152.975, -0.075653054, 0.011529489, 203996.88, 203996.88, 0.00043103905, 10.002783, 9.997068 
1.0352773e+3, 3.1501207e+2, 376393.94, 55390.313, -77271.55, -0.000010763737, -0.10636514, 394026.13, 394026.13, 0.0008619147, 10.003083, 9.998863 
1.0447792e+3, 1.2501022e+2, -1990662.5, -1629553.5, -60114.42, 0.19181062, 0.029223045, -1619809.1, 95089.64, 0.0003338259, 9.997089, 10.001972 
1.044803e+3, 1.3501105e+2, -1731103.3, -1475709.8, -52423.633, -0.046877053, -0.09366625, -1465367.8, 151512.78, 0.00013404706, 9.998342, 10.001753 
1.0448302e+3, 1.4501068e+2, -1790407.8, -1777619.4, -23374.717, 0.037129253, -0.14747977, -1759780.1, -240897.17, 0.000024406929, 9.998657, 9.998851 
1.044858e+3, 1.5501027e+2, -1745210.9, -1700120.0, 1145.9054, 0.13906208, -0.09983845, -1700091.0, -279196.5, 0.0000004785213, 9.998287, 9.998886 
1.0448834e+3, 1.6500999e+2, -1468392.9, -1398902.6, -51063.348, 0.104928754, -0.06252684, -1371884.6, -48986.137, 0.0, 9.999003, 9.999937 
1.044907e+3, 1.7500955e+2, -1105863.6, -1175018.5, -92592.04, -0.04729895, -0.12002009, -1041603.44, 183294.25, 0.0, 10.00083, 9.999919 
1.0449326e+3, 1.8500902e+2, -1002094.9, -1141758.4, -57005.883, -0.04295534, -0.12687984, -981781.5, 145117.67, 0.0, 10.001154, 9.999319 
1.0449605e+3, 1.9500819e+2, -1068756.0, -1125164.8, -76006.12, 0.11147559, -0.15970394, -1015890.0, 13014.871, 0.0, 10.000034, 9.999299 
1.0449865e+3, 2.0500673e+2, -1078599.0, -1259252.0, -40835.457, 0.1038684, -0.14785768, -1069797.3, -138876.8, 0.0, 10.00006, 9.997701 
1.0450108e+3, 2.1500432e+2, -826772.44, -1087674.8, 17269.516, -0.057086457, -0.17638886, -825634.3, 7314.598, 0.0, 10.001125, 9.997689 
1.04503684e+3, 2.2500317e+2, -592784.0, -775081.94, 52102.74, -0.08359091, -0.12058117, -578943.3, 156019.53, 0.0, 10.001413, 9.999023 
1.04506455e+3, 2.35003e+2, -569911.3, -719029.44, -20020.402, 0.018393438, -0.05812493, -567270.2, 69694.79, 0.0, 10.000919, 9.998975 
1.0450911e+3, 2.4500154e+2, -493849.3, -745039.3, -32407.205, 0.018937558, -0.040729735, -489735.7, 49243.375, 0.0, 10.001255, 9.997961 
1.0451163e+3, 2.5499865e+2, -232928.36, -568371.2, -5089.752, -0.076863274, -0.14857988, -232851.14, 208155.58, 0.0, 10.002377, 9.997957 
1.04514316e+3, 2.6499692e+2, -102371.19, -506219.13, 85611.984, -0.11595663, -0.08685556, -84971.875, 258054.4, 0.0000000009945924, 10.002826, 9.997503 
1.0451716e+3, 2.749959e+2, -49731.86, -436073.66, 54915.824, -0.09484996, 0.04002928, -42077.6, 202964.92, 0.0000020282196, 10.002523, 9.99746 
1.0451989e+3, 2.8499395e+2, 83833.55, -313356.9, -34917.117, -0.098625205, 0.11091868, 86879.76, 233943.53, 0.00002862313, 10.002746, 9.997518 
1.04522474e+3, 2.9499123e+2, 284911.3, -168021.75, -76833.92, -0.12292473, 0.057158485, 297590.22, 346680.44, 0.00014660136, 10.003459, 9.997497 
1.04525246e+3, 3.049883e+2, 302266.4, -197148.94, -27196.67, -0.040697332, 0.053529475, 303743.1, 303743.1, 0.00042212423, 10.003554, 9.996904 
1.0452806e+3, 3.1498447e+2, 333637.34, 17619.422, -51051.4, 0.05939197, -0.04191053, 341679.8, 341679.8, 0.0008537748, 10.002815, 9.998753 
1.0547739e+3, 1.2498282e+2, -2087975.1, -1824642.1, -70117.14, -0.10117964, -0.11723357, -1807136.0, -91975.25, 0.00039971265, 9.997074, 10.000634 
1.05480246e+3, 1.3498323e+2, -1833032.8, -1688300.9, 3058.712, 0.034223292, -0.13332985, -1688236.3, -71080.46, 0.00016604259, 9.998351, 10.00029 
1.0548303e+3, 1.4498362e+2, -1710993.3, -1620824.0, -57024.22, 0.15224187, -0.09289365, -1593214.9, -74061.58, 0.000032768716, 9.998687, 9.999913 
1.0548554e+3, 1.5498501e+2, -1676712.1, -1555117.8, -3484.5269, 0.0341639, 0.029275203, -1555018.0, -133875.16, 0.0000008393984, 9.998263, 9.999897 
1.0548812e+3, 1.6498482e+2, -1540131.0, -1533380.1, 6520.641, -0.044184014, 0.07128885, -1529413.1, -206267.7, 0.0, 9.998949, 9.999036 
1.05490796e+3, 1.7498276e+2, -1169449.8, -1306576.4, -15515.275, -0.051473785, -0.059824575, -1167716.1, 57447.08, 0.0, 10.00083, 9.999015 
1.0549341e+3, 1.8498121e+2, -1019890.3, -1168444.3, -114693.15, -0.031467788, -0.112794474, -957523.3, 169653.31, 0.0, 10.001111, 9.999155 
1.0549596e+3, 1.9497998e+2, -1091498.5, -1155348.4, -108572.086, 0.007213228, -0.17356813, -1010255.0, 18932.666, 0.0, 9.999956, 9.99913 
1.05498545e+3, 2.0497991e+2, -969897.25, -1004141.3, -14153.816, -0.013344261, -0.105081104, -964804.5, -33617.363, 0.0, 9.999932, 9.999513 
1.05501175e+3, 2.1498068e+2, -719104.25, -836421.3, 67045.95, -0.09578731, 0.0016521032, -688678.6, 144499.4, 0.0, 10.0009985, 9.999478 
1.0550384e+3, 2.2497936e+2, -730996.9, -1024467.6, 22901.764, -0.08883413, 0.033402603, -729220.44, 5973.012, 0.0, 10.001252, 9.997386 
1.05506554e+3, 2.3497562e+2, -700113.6, -961305.0, -26851.059, 0.011589951, -0.101541705, -697381.8, -60145.38, 0.0, 10.000796, 9.997368 
1.05509244e+3, 2.4497375e+2, -443250.03, -610047.5, -2971.4297, 0.020957496, -0.09493778, -443197.13, 96058.83, 0.0, 10.001127, 9.998948 
1.05511904e+3, 2.5497356e+2, -182761.7, -434506.63, 44857.63, -0.061985105, -0.032690894, -175007.5, 266246.4, 0.0, 10.002249, 9.998938 
1.0551461e+3, 2.6497215e+2, -159888.73, -595747.44, 63762.46, -0.1269557, 0.039009597, -150752.33, 192516.13, 0.000000000012280949, 10.002703, 9.9969425 
1.0551734e+3, 2.7496922e+2, -101222.82, -521582.63, 59599.516, -0.1814366, 0.031074576, -92936.04, 152366.05, 0.0000016155456, 10.002436, 9.996911 
1.0552008e+3, 2.8496638e+2, 22834.916, -429248.6, -18033.25, -0.19974509, 0.07204656, 23553.107, 170886.67, 0.000025306648, 10.002699, 9.996745 
1.05522804e+3, 2.949633e+2, 213772.5, -292258.9, -31391.549, -0.16964832, 0.062112782, 215712.44, 265078.22, 0.00013793015, 10.003363, 9.99669 
1.0552556e+3, 3.0496085e+2, 337507.8, -113359.055, -57950.293, -0.09627163, 0.120733485, 344837.06, 344837.06, 0.00040720604, 10.003497, 9.997511 
1.0552826e+3, 3.1495887e+2, 352574.16, 96032.93, -38310.473, -0.07957932, 0.14425094, 358173.03, 358173.03, 0.00083313056, 10.002651, 9.999371 
1.06477134e+3, 1.2495541e+2, -2082314.1, -1860818.3, -76125.71, -0.06150624, -0.16871735, -1837177.8, -121751.805, 0.00047318285, 9.997289, 10.000289 
1.0648019e+3, 1.3495593e+2, -1712811.3, -1671771.8, 57729.984, 0.10564956, -0.13104862, -1631023.1, -13599.881, 0.00020250746, 9.999369, 9.999915 
1.0648298e+3, 1.4495644e+2, -1479310.5, -1505745.4, -43410.31, 0.16836299, -0.059510186, -1447150.0, 72270.64, 0.000042863663, 10.0002575, 9.99995 
1.06485434e+3, 1.5495767e+2, -1401904.3, -1414224.6, -96262.31, 0.023150207, 0.038958862, -1311605.3, 109805.94, 0.0000013547858, 10.000119, 9.999963 
1.0648805e+3, 1.6495731e+2, -1388882.1, -1468743.4, -17290.797, -0.047534894, 0.06694247, -1385299.3, -61884.473, 0.0, 10.000006, 9.998981 
1.0649087e+3, 1.7495528e+2, -1306329.3, -1376981.8, 1293.0729, -0.0037421186, -0.05448021, -1306305.6, -80872.77, 0.0, 9.999901, 9.998989 
1.0649352e+3, 1.8495385e+2, -1189147.0, -1270010.8, -89584.47, 0.022665685, -0.08650772, -1131293.0, -3846.9448, 0.0, 10.000018, 9.998991 
1.06495984e+3, 1.9495283e+2, -1039733.3, -1151884.5, -106425.52, 0.020602655, -0.10987259, -975514.0, 53943.05, 0.0, 10.000385, 9.998956 
1.0649857e+3, 2.049527e+2, -873162.06, -929637.0, -18407.51, -0.004005423, -0.05047891, -867692.1, 63765.008, 0.0, 10.000486, 9.99975 
1.0650128e+3, 2.1495326e+2, -796993.5, -844635.3, -83566.81, -0.047377884, 0.012873987, -733918.8, 99529.32, 0.0, 10.000356, 9.9997225 
1.0650398e+3, 2.2495188e+2, -816634.3, -1080642.9, -119005.03, -0.043398745, 0.03314203, -770910.3, -35446.63, 0.0, 10.000717, 9.997265 
1.0650667e+3, 2.3494826e+2, -604388.3, -927047.56, -77380.02, 0.016113421, -0.074135385, -586790.8, 50715.625, 0.0, 10.001505, 9.997264 
1.0650939e+3, 2.4494663e+2, -344621.44, -557838.4, -2037.101, 0.020431956, -0.041441433, -344601.97, 194922.63, 0.0, 10.001794, 9.998983 
1.0651211e+3, 2.5494668e+2, -277470.56, -479319.47, -49435.664, -0.040406823, 0.04582883, -266013.4, 175507.53, 0.0, 10.0015955, 9.998949 
1.0651488e+3, 2.649451e+2, -239455.2, -604132.2, -17413.207, -0.08469356, 0.08836494, -238625.61, 104910.17, 0.0, 10.002024, 9.997208 
1.0651769e+3, 2.7494168e+2, -2684.056, -436415.84, 7267.545, -0.107196674, 0.0019904983, -2562.3162, 243008.42, 0.00000091217555, 10.002969, 9.997227 
1.0652046e+3, 2.8493845e+2, 118698.43, -413997.06, 3041.1406, -0.12585783, 0.0032661764, 118715.79, 266319.9, 0.000020761427, 10.003493, 9.996467 
1.0652318e+3, 2.94935e+2, 227683.95, -319830.1, -100.57392, -0.13166541, -0.012231825, 227683.97, 277324.22, 0.00012637535, 10.003588, 9.996398 
1.06525905e+3, 3.0493242e+2, 291526.16, -162232.6, -52478.945, -0.08925171, 0.057555158, 297516.44, 297516.44, 0.00038601994, 10.003287, 9.997271 
1.0652854e+3, 3.1493092e+2, 304940.13, 60233.016, -136107.33, -0.03685417, 0.1456914, 365604.6, 365604.6, 0.0008001297, 10.002376, 9.999245 
1.07477084e+3, 1.2492785e+2, -2035884.5, -1754964.8, -45808.902, 0.11492733, -0.1290049, -1747683.5, -31987.457, 0.00055371417, 9.997272, 10.00101 
1.07480094e+3, 1.3492925e+2, -1665910.5, -1567095.9, 140660.52, 0.056167576, -0.07619398, -1467417.8, 150264.14, 0.00024334127, 9.99935, 10.000634 
1.0748285e+3, 1.4492925e+2, -1544511.3, -1651801.9, -66606.94, -0.032478426, -0.043558437, -1512632.9, 7051.242, 0.00005483326, 10.00029, 9.998939 
1.0748545e+3, 1.5492807e+2, -1465235.4, -1558441.6, -93151.28, -0.0003582285, -0.08576637, -1407680.0, 14020.673, 0.000002073113, 10.000165, 9.998957 
1.07488126e+3, 1.6492744e+2, -1331197.9, -1345569.9, -37682.566, 0.0027092092, -0.07616641, -1300022.3, 23684.713, 0.0000000000166348, 9.999996, 9.999827 
1.074909e+3, 1.7492718e+2, -1250707.1, -1254524.1, 6870.857, 0.008515168, -0.110675596, -1245484.6, -19779.066, 0.0, 9.999868, 9.999843 
1.0749354e+3, 1.8492706e+2, -1213349.3, -1299477.6, -87696.85, 0.027898049, -0.046047047, -1158713.5, -31007.264, 0.0, 9.999937, 9.998826 
1.0749607e+3, 1.9492684e+2, -1065406.9, -1179813.8, -81758.945, 0.053069334, 0.029885033, -1022826.8, 6885.1274, 0.0, 10.000284, 9.998809 
1.0749868e+3, 2.0492527e+2, -991874.0, -1147546.3, -38053.656, 0.042246882, 0.023411106, -983069.8, -51340.992, 0.0, 10.000361, 9.998319 
1.07501365e+3, 2.1492204e+2, -916357.25, -1059487.4, -76891.91, -0.0082798675, -0.15173136, -882879.9, -49120.477, 0.0, 10.00021, 9.998321 
1.0750406e+3, 2.2492068e+2, -743618.06, -890648.25, -99840.45, -0.038785767, -0.12700029, -693146.94, 42627.043, 0.0, 10.000555, 9.998648 
1.0750676e+3, 2.34921e+2, -530554.7, -735272.7, -34766.59, -0.0529336, 0.018821644, -524811.5, 112962.83, 0.0, 10.001342, 9.998659 
1.0750949e+3, 2.4492022e+2, -434197.28, -709070.6, -16962.432, -0.07086517, 0.11629304, -433154.5, 106629.914, 0.0, 10.001646, 9.998014 
1.0751222e+3, 2.5491804e+2, -355723.03, -622590.3, -40536.637, -0.10112711, 0.07514755, -349701.47, 92105.75, 0.0, 10.00151, 9.998005 
1.075151e+3, 2.6491582e+2, -188264.34, -470006.16, 8100.5254, -0.07352089, 0.053818244, -188031.63, 155795.83, 0.000000000031670343, 10.001907, 9.998187 
1.0751813e+3, 2.7491328e+2, 46869.746, -306583.9, 57689.492, 0.015559401, -0.04428576, 56047.33, 301895.25, 0.00000057346807, 10.002849, 9.998182 
1.0752096e+3, 2.849103e+2, 119032.82, -387115.2, -5680.2256, 0.00548032, -0.078458175, 119096.555, 266971.8, 0.000016841232, 10.003384, 9.9967 
1.07523575e+3, 2.9490662e+2, 228088.73, -288680.4, 22953.994, -0.119431406, -0.14283016, 229106.31, 279018.06, 0.000114238224, 10.003461, 9.99667 
1.0752622e+3, 3.049033e+2, 207397.22, -326536.0, -88171.26, -0.12670481, -0.10732936, 221580.64, 221580.64, 0.0003625103, 10.003238, 9.996173 
1.07528836e+3, 3.149008e+2, 213706.81, -111788.23, -122267.73, -0.038093034, -0.0071292166, 254518.0, 254518.0, 0.00076317973, 10.002291, 9.998115 
1.0847695e+3, 1.2489925e+2, -1758155.8, -1608538.3, -44462.484, 0.1829305, -0.12968408, -1596322.5, 119652.76, 0.00064071716, 9.999091, 10.001157 
1.08479984e+3, 1.3490078e+2, -1886983.0, -1655664.4, 59500.984, 0.101497956, -0.08287702, -1641256.6, -23297.273, 0.00028839763, 9.99773, 10.00082 
1.0848269e+3, 1.449009e+2, -1929776.0, -1822609.9, -84237.84, -0.07767244, -0.050281197, -1776357.3, -256397.42, 0.00006873226, 9.997619, 9.999035 
1.0848545e+3, 1.548995e+2, -1615979.5, -1624787.6, -64223.813, 0.039620575, -0.12030919, -1556009.0, -134030.52, 0.0000030594845, 9.999116, 9.9990015 
1.0848816e+3, 1.648988e+2, -1360566.8, -1353607.6, -7717.9297, 0.06317717, -0.12427929, -1348621.1, -24635.445, 0.000000000186287, 9.999773, 9.999871 
1.08490855e+3, 1.7489864e+2, -1292253.6, -1270850.6, -50974.75, 0.010326115, -0.15105473, -1229466.1, -3482.6887, 0.0, 9.9995775, 9.999862 
1.0849351e+3, 1.8489875e+2, -1208081.6, -1285555.3, -114172.695, 0.01376196, -0.07016518, -1126253.3, 1729.1422, 0.0, 9.999921, 9.998935 
1.0849613e+3, 1.9489893e+2, -990517.0, -1130790.4, -113067.43, 0.06973032, 0.03577103, -927599.56, 102385.19, 0.0, 10.000753, 9.9989195 
1.0849878e+3, 2.0489733e+2, -888468.0, -1121118.1, -14822.124, 0.07695002, 0.03283853, -887527.5, 44474.805, 0.0, 10.001173, 9.998102 
1.08501464e+3, 2.1489355e+2, -793442.8, -1030079.1, 9565.437, 0.030404232, -0.17537896, -793056.8, 40982.105, 0.0, 10.001173, 9.998059 
1.0850416e+3, 2.2489221e+2, -643969.9, -792088.06, 33098.29, -0.012997729, -0.1564269, -636910.25, 99142.266, 0.0, 10.00104, 9.999085 
1.0850686e+3, 2.3489317e+2, -571703.2, -707127.2, -3452.3547, -0.056202788, 0.010550088, -571615.2, 66429.26, 0.0, 10.000863, 9.999082 
1.0850963e+3, 2.4489233e+2, -526681.44, -793371.56, 22068.162, -0.05790112, 0.09738749, -524867.7, 15187.089, 0.0, 10.001175, 9.997671 
1.08512476e+3, 2.5488943e+2, -324218.25, -646837.06, 21020.031, -0.01510147, 0.021261362, -322854.47, 119231.55, 0.0, 10.001902, 9.997655 
1.085154e+3, 2.6488718e+2, -167163.13, -457070.72, 78499.32, 0.023826288, 0.013261148, -147272.3, 196835.48, 0.000000020287489, 10.002043, 9.998206 
1.08518384e+3, 2.748853e+2, -138697.11, -395841.34, 31018.379, 0.059438504, -0.020038255, -135008.39, 111114.43, 0.0000009682407, 10.001572, 9.998182 
1.0852123e+3, 2.848828e+2, -105713.164, -445238.22, -29942.854, 0.037063926, -0.024444692, -103092.71, 45052.367, 0.000016002106, 10.00162, 9.997147 
1.0852393e+3, 2.9487953e+2, 55704.63, -316725.6, -20729.367, -0.03672383, -0.09582446, 56854.867, 107031.4, 0.00010691048, 10.002045, 9.997153 
1.0852657e+3, 3.0487582e+2, 147797.77, -326629.5, -60086.85, -0.053821966, -0.13394149, 155289.55, 155289.55, 0.00034615427, 10.0027275, 9.99642 
1.0852917e+3, 3.148726e+2, 405645.38, 7973.942, -47451.273, 0.022612201, -0.12539333, 411229.0, 411229.0, 0.0007399488, 10.003526, 9.998338 
1.094767e+3, 1.2486954e+2, -1783183.9, -1665370.6, -105267.59, -0.04493452, -0.18500942, -1603648.8, 112615.59, 0.000734217, 9.999112, 10.000754 
1.0947981e+3, 1.3487066e+2, -1906938.8, -1696799.3, 9529.376, 0.13609135, -0.15490836, -1696368.0, -78114.21, 0.00033773432, 9.997723, 10.000542 
1.0948247e+3, 1.448715e+2, -1864044.1, -1670704.6, -42947.645, -0.072261915, -0.090249926, -1661593.8, -141346.81, 0.0000845864, 9.997555, 10.000106 
1.0948539e+3, 1.5487202e+2, -1547187.0, -1469241.3, 7158.569, 0.04731925, -0.07531271, -1468589.3, -46345.242, 0.0000043925156, 9.999068, 10.000089 
1.0948814e+3, 1.6487154e+2, -1418593.1, -1474128.3, -28272.37, 0.03511679, -0.07138801, -1406732.9, -82483.664, 0.0000000006358386, 9.999768, 9.999051 
1.0949074e+3, 1.7486969e+2, -1348299.4, -1391345.4, -47457.3, -0.092890516, -0.18242507, -1317712.5, -91446.14, 0.0, 9.999585, 9.999036 
1.094934e+3, 1.8486896e+2, -1190183.9, -1235332.6, -96768.08, -0.11772193, -0.16211396, -1113392.0, 14882.262, 0.0, 9.999868, 9.999302 
1.0949613e+3, 1.9486918e+2, -977216.56, -1080775.4, -68489.11, -0.028560271, -0.09235717, -943136.4, 87138.0, 0.0, 10.000657, 9.999307 
1.0949885e+3, 2.0486887e+2, -836947.75, -993124.06, -27892.564, 0.004564495, -0.03101532, -832115.75, 100162.09, 0.0, 10.001076, 9.999033 
1.0950155e+3, 2.1486783e+2, -747612.2, -901588.8, 19491.096, -0.02286561, -0.05913784, -745183.25, 89103.43, 0.0, 10.001026, 9.999015 
1.0950424e+3, 2.2486657e+2, -710889.44, -893757.94, 13635.032, -0.058776688, -0.05073491, -709878.4, 26420.285, 0.0, 10.000882, 9.998461 
1.0950692e+3, 2.3486473e+2, -638665.44, -810699.6, 1139.4227, -0.10110777, -0.101575434, -638657.94, -340.60065, 0.0, 10.0007105, 9.998442 
1.0950978e+3, 2.4486288e+2, -529630.6, -766587.6, 36821.93, -0.04713542, -0.09472172, -524040.6, 16295.787, 0.0, 10.001033, 9.997924 
1.09512806e+3, 2.5486085e+2, -322661.78, -616276.1, 60505.438, 0.11349155, -0.1136633, -310682.13, 131675.5, 0.0, 10.0017805, 9.997925 
1.095157e+3, 2.6485923e+2, -248265.1, -597975.5, 52640.254, 0.112255014, -0.028144432, -240513.23, 103862.984, 0.00000010014453, 10.001924, 9.997297 
1.0951843e+3, 2.748577e+2, -208709.17, -531449.1, 33370.363, -0.07201682, 0.06861911, -205294.89, 41100.285, 0.0000018117424, 10.00152, 9.99728 
1.09521255e+3, 2.848558e+2, -74765.03, -367773.88, -25169.66, -0.11984015, 0.1412845, -72618.664, 75796.55, 0.000017402066, 10.001567, 9.997703 
1.0952418e+3, 2.9485333e+2, 81823.98, -243994.97, 10838.946, -0.007898178, 0.089992374, 82184.16, 132622.38, 0.00010435712, 10.001964, 9.997694 
1.0952693e+3, 3.048497e+2, 236545.48, -125409.13, -38936.547, 0.0055946843, -0.03635985, 240686.63, 240686.63, 0.00033796718, 10.00265, 9.997841 
1.0952948e+3, 3.14846e+2, 487515.88, 191856.8, 16023.109, -0.06934049, -0.21533385, 488381.72, 488381.72, 0.00073106954, 10.003444, 9.999655 
1.1047654e+3, 1.24840334e+2, -1802058.0, -1735407.4, -60494.12, -0.10379865, -0.17828669, -1699666.6, 16883.117, 0.00083503575, 9.999257, 10.000185 
1.1047969e+3, 1.3484086e+2, -1712864.8, -1652524.3, -52292.17, 0.18178521, -0.16631883, -1622323.0, -3775.956, 0.0003918232, 9.999267, 10.000095 
1.1048231e+3, 1.448416e+2, -1598112.9, -1503175.9, -52715.598, -0.058746934, -0.10952276, -1479706.5, 40835.207, 0.000102570426, 9.999189, 10.000478 
1.1048529e+3, 1.548426e+2, -1508433.0, -1409502.4, -78885.984, 0.052938655, -0.0815861, -1365855.9, 56676.855, 0.0000061708192, 9.999143, 10.000467 
1.1048811e+3, 1.6484265e+2, -1458840.3, -1457411.1, -91532.13, 0.058936745, -0.059991803, -1366590.8, -42058.57, 0.0000000015512864, 9.999349, 9.999364 
1.1049077e+3, 1.7484143e+2, -1272119.6, -1316571.9, -53022.91, -0.016941713, -0.1391121, -1236852.9, -10310.035, 0.0, 9.999962, 9.999361 
1.1049346e+3, 1.8484056e+2, -1151971.8, -1215464.0, -48332.8, -0.04301319, -0.14930597, -1125891.6, 2659.7615, 0.0, 10.000139, 9.999299 
1.1049614e+3, 1.9483975e+2, -1098667.8, -1138052.8, -74902.414, -0.022822065, -0.1830262, -1040912.4, -10351.665, 0.0, 9.999833, 9.999302 
1.1049889e+3, 2.0483956e+2, -944251.75, -1010439.94, -34410.523, -0.010207392, -0.12516299, -929603.8, 2958.7766, 0.0, 10.000195, 9.999342 
1.1050167e+3, 2.1483985e+2, -679861.8, -831903.56, -60281.32, -0.004834663, -0.05052019, -658862.0, 175696.31, 0.0, 10.001337, 9.999344 
1.105044e+3, 2.2483875e+2, -583330.44, -884016.2, -83046.586, -0.018873423, -0.019100951, -561918.5, 174650.33, 0.0, 10.001973, 9.998004 
1.105071e+3, 2.3483591e+2, -476136.72, -785568.06, -104811.83, -0.049942136, -0.121726386, -443976.88, 194620.95, 0.0, 10.002051, 9.997971 
1.1050995e+3, 2.448337e+2, -400229.94, -682674.3, -35623.426, 0.001359286, -0.13540007, -395806.22, 144813.9, 0.0, 10.001842, 9.998098 
1.1051298e+3, 2.5483197e+2, -372066.94, -618504.1, -48690.773, 0.13931133, -0.14130236, -362795.5, 79841.86, 0.0, 10.001363, 9.998097 
1.1051587e+3, 2.648303e+2, -299648.72, -637907.75, -4119.129, 0.11962638, -0.06057932, -299598.6, 45057.88, 0.00000018749917, 10.001627, 9.997171 
1.1051863e+3, 2.748285e+2, -64453.074, -475067.88, 6626.8374, -0.06571372, 0.019001141, -64346.152, 182333.95, 0.0000025365616, 10.002574, 9.99716 
1.1052149e+3, 2.8482684e+2, 105923.8, -249855.53, -22889.813, -0.092117734, 0.10943897, 107390.414, 256089.45, 0.000019295574, 10.0026865, 9.997975 
1.1052444e+3, 2.948252e+2, 80636.12, -212980.73, -38670.35, 0.074274056, 0.117026, 85643.734, 136358.53, 0.00010487227, 10.001836, 9.997964 
1.1052721e+3, 3.04822e+2, 180235.7, -140660.75, -63100.613, 0.06187803, 0.014273401, 192197.8, 192197.8, 0.00033641586, 10.002191, 9.997959 
1.1052985e+3, 3.148183e+2, 501163.5, 229789.88, -141672.95, -0.042193446, -0.18613677, 561645.3, 561645.3, 0.00073074934, 10.003433, 9.999892 
1.1147649e+3, 1.2481161e+2, -1862865.5, -1853231.0, -25964.064, -0.13309081, -0.15109546, -1831641.1, -114809.13, 0.000944546, 9.999238, 9.999387 
1.1147962e+3, 1.3481157e+2, -1765495.4, -1765229.5, -38735.863, 0.15702175, -0.109471664, -1726626.4, -107789.13, 0.00045159098, 9.999284, 9.99932 
1.1148218e+3, 1.4481129e+2, -1615343.8, -1542958.3, -72914.27, -0.1507889, -0.099338904, -1497748.3, 23094.791, 0.00012308804, 9.999209, 10.000194 
1.11485116e+3, 1.5481141e+2, -1528546.5, -1452640.3, -72287.99, -0.052206267, -0.13447015, -1408947.9, 13895.565, 0.000008505592, 9.999147, 10.000171 
1.1148804e+3, 1.6481227e+2, -1359318.1, -1249687.1, -86014.78, 0.026837619, -0.08538744, -1202506.1, 122327.18, 0.0000000033697685, 9.999337, 10.000801 
1.1149096e+3, 1.7481396e+2, -1169256.3, -1103988.5, -19195.033, 0.14413854, -0.019653765, -1098761.9, 128050.17, 0.0, 9.999954, 10.000833 
1.1149368e+3, 1.8481359e+2, -1183679.9, -1272515.5, -72912.48, 0.14000939, -0.034935135, -1142721.1, -13907.49, 0.0, 10.000103, 9.998925 
1.1149616e+3, 1.9481078e+2, -1144341.6, -1206932.6, -77130.52, -0.011584036, -0.2269527, -1092399.4, -61556.832, 0.0, 9.999724, 9.998881 
1.1149886e+3, 2.0480946e+2, -981154.75, -1064389.5, -9745.74, -0.068626665, -0.24191743, -980028.9, -47173.19, 0.0, 10.000091, 9.999021 
1.11501805e+3, 2.1480952e+2, -727670.0, -894246.4, -5110.9185, -0.02020937, -0.1606896, -727513.3, 107341.17, 0.0, 10.001172, 9.998998 
1.1150464e+3, 2.2480872e+2, -625266.44, -932748.8, -90371.2, 0.0011937993, -0.068913914, -600672.8, 136190.56, 0.0, 10.001814, 9.997744 
1.1150737e+3, 2.3480679e+2, -517234.4, -834722.7, -88475.086, 0.0040793936, -0.053169034, -494243.72, 144641.3, 0.0, 10.001895, 9.99771 
1.1151014e+3, 2.4480484e+2, -420820.97, -692206.75, -63089.004, -0.009603817, -0.028094325, -406871.7, 134033.5, 0.0, 10.001699, 9.9981 
1.1151297e+3, 2.5480264e+2, -387079.03, -628107.2, -52398.047, -0.03661653, -0.08140623, -376180.78, 66745.234, 0.0, 10.0012665, 9.998077 
1.1151588e+3, 2.648003e+2, -274016.1, -560915.94, 18744.096, -0.050141048, -0.092587106, -272796.7, 72152.664, 0.00000020790911, 10.001526, 9.997746 
1.11518934e+3, 2.7479765e+2, -42206.61, -396644.06, 58286.953, -0.046467844, -0.16257297, -32867.45, 214110.39, 0.0000030041283, 10.002432, 9.997766 
1.1152186e+3, 2.847961e+2, 83793.37, -258440.19, -62768.09, 0.0019024375, -0.09641458, 94942.29, 243937.42, 0.000021785861, 10.00253, 9.997989 
1.1152467e+3, 2.947954e+2, 71241.77, -217686.72, -47755.207, 0.09105778, 0.0070770727, 78930.336, 129934.01, 0.00010887074, 10.001771, 9.997964 
1.11527406e+3, 3.0479285e+2, 96277.305, -307452.84, -22496.002, 0.017841497, 0.026451591, 97526.93, 97526.93, 0.00034133886, 10.002159, 9.996827 
1.1153016e+3, 3.1478912e+2, 406681.22, 59787.734, -49887.555, -0.12378558, -0.064386174, 413713.13, 413713.13, 0.0007374856, 10.003308, 9.998789 
1.1247651e+3, 1.2478243e+2, -1823756.6, -1816357.3, 29071.984, -0.029124772, -0.11965387, -1790750.5, -73630.08, 0.0010643419, 9.999425, 9.9995575 
1.12479515e+3, 1.3478252e+2, -1752153.3, -1744437.4, -20809.168, 0.15030743, -0.07647873, -1727131.5, -108008.3, 0.00051804923, 9.999332, 9.999431 
1.1248207e+3, 1.4478208e+2, -1626012.9, -1560559.5, 28337.965, -0.15763944, -0.08352283, -1549995.6, -28865.543, 0.00014661087, 9.999189, 10.000081 
1.1248507e+3, 1.5478218e+2, -1528708.0, -1463134.0, 9606.587, -0.013624674, -0.112703964, -1461755.6, -38624.89, 0.00001150662, 9.999197, 10.00007 
1.1248799e+3, 1.6478302e+2, -1364131.4, -1240979.1, 1045.9254, 0.06665043, -0.06717555, -1240970.3, 84150.67, 0.0000000061074554, 9.9992485, 10.000904 
1.12490885e+3, 1.7478453e+2, -1233210.4, -1119260.8, -57300.484, 0.11606239, -0.029656831, -1095430.4, 131670.45, 0.0, 9.999449, 10.000967 
1.1249364e+3, 1.8478437e+2, -1212845.4, -1290059.4, -131972.4, 0.11324571, -0.03246284, -1113948.9, 15151.673, 0.0, 9.999912, 9.9988985 
1.1249623e+3, 1.9478205e+2, -996346.06, -1145085.4, -130907.87, 0.040897172, -0.171646, -920157.7, 110967.14, 0.0, 10.0007515, 9.998824 
1.12498984e+3, 2.0478061e+2, -843498.8, -1021059.75, -8669.38, 0.0010357238, -0.18527061, -843076.56, 90062.836, 0.0, 10.001156, 9.998796 
1.1250193e+3, 2.1477988e+2, -738821.1, -917803.7, -27313.16, 0.00017397622, -0.16114792, -734745.9, 100400.17, 0.0, 10.001198, 9.998809 
1.12504795e+3, 2.247787e+2, -681139.9, -945428.75, -82111.016, 0.008834837, -0.104049765, -657706.75, 79450.98, 0.0, 10.001354, 9.997885 
1.1250757e+3, 2.3477691e+2, -533957.8, -821936.8, -73163.06, 0.036437985, -0.09036357, -516436.3, 122740.03, 0.0, 10.001684, 9.997896 
1.1251034e+3, 2.4477504e+2, -407758.75, -712384.2, -29667.072, 0.009678703, -0.05730816, -404896.4, 136299.66, 0.0, 10.001908, 9.997865 
1.1251309e+3, 2.5477287e+2, -293189.4, -609936.56, -59033.094, -0.06992972, -0.07898879, -282544.94, 160673.9, 0.0, 10.002038, 9.997835 
1.12516016e+3, 2.647709e+2, -226192.47, -456179.5, 31934.387, -0.060562223, -0.077376544, -221840.63, 123397.664, 0.00000016860811, 10.001516, 9.998465 
1.1251914e+3, 2.7476886e+2, -300973.38, -439716.13, 49695.586, 0.046212308, -0.15661126, -285009.88, -37752.68, 0.0000038179373, 10.000314, 9.998484 
1.1252211e+3, 2.8476724e+2, -208391.14, -406455.25, -18944.162, 0.10396653, -0.12822066, -206595.47, -57322.023, 0.000026510976, 10.00053, 9.997944 
1.12524875e+3, 2.947659e+2, 123501.47, -194994.45, -38345.65, 0.10548344, -0.08733861, 128053.086, 179342.4, 0.00011807009, 10.002139, 9.997941 
1.1252764e+3, 3.047637e+2, 207713.3, -268514.25, 49941.645, 0.0044315527, -0.027150081, 212894.28, 212894.28, 0.0003550206, 10.003016, 9.9966755 
1.12530544e+3, 3.147612e+2, 318151.03, -8311.483, 43837.027, -0.026956512, 0.031373885, 323934.94, 323934.94, 0.0007557831, 10.002806, 9.998575 
1.1347656e+3, 1.2475305e+2, -1728308.3, -1619737.1, 52445.023, 0.025344959, -0.061735973, -1598541.5, 118870.945, 0.0011953667, 9.999442, 10.000894 
1.1347936e+3, 1.3475381e+2, -1671052.5, -1572877.8, -15542.274, 0.033619113, -0.070531465, -1570476.0, 48927.637, 0.00059164723, 9.999318, 10.000616 
1.1348198e+3, 1.4475417e+2, -1618815.9, -1540581.4, 14475.298, -0.20138673, -0.06605899, -1537989.0, -16588.857, 0.00017336896, 9.999171, 10.000227 
1.13485105e+3, 1.5475523e+2, -1521659.9, -1447105.1, 25263.277, 0.07399275, -0.005675733, -1439351.0, -15959.778, 0.000015247707, 9.999191, 10.000184 
1.1348795e+3, 1.647551e+2, -1450495.9, -1422317.3, -5403.3374, 0.06692749, -0.0022733526, -1421316.8, -95924.12, 0.000000009421829, 9.999253, 9.999657 
1.1349053e+3, 1.7475335e+2, -1325009.5, -1308869.1, -40839.54, -0.21521926, -0.16571957, -1275310.0, -47901.906, 0.0, 9.999444, 9.999667 
1.134933e+3, 1.8475291e+2, -1189699.9, -1239728.0, -116544.445, -0.23591766, -0.1465011, -1095515.3, 33897.055, 0.0, 9.999896, 9.999255 
1.134963e+3, 1.9475368e+2, -984417.6, -1095494.3, -90697.34, 0.026176445, -0.015291602, -933605.06, 97801.46, 0.0, 10.00064, 9.999221 
1.1349922e+3, 2.0475315e+2, -873516.5, -1061238.5, -21704.404, 0.098762706, 0.051406275, -871039.7, 62372.344, 0.0, 10.001054, 9.998574 
1.1350204e+3, 2.1475095e+2, -777955.25, -963121.2, -16994.611, -0.0332476, -0.046183728, -776408.4, 59024.04, 0.0, 10.001039, 9.99858 
1.1350485e+3, 2.2474872e+2, -660836.1, -866442.9, -85180.33, -0.08863944, -0.11304472, -630132.06, 107319.695, 0.0, 10.001193, 9.998504 
1.13507666e+3, 2.3474623e+2, -515141.2, -747459.4, -48904.58, -0.056115706, -0.23448053, -505266.2, 134206.23, 0.0, 10.001528, 9.998486 
1.13510475e+3, 2.4474426e+2, -458961.72, -789017.5, -37476.38, -0.052563112, -0.21553063, -454759.94, 86733.055, 0.0, 10.001778, 9.9974 
1.13513306e+3, 2.5474274e+2, -342001.63, -684858.06, -41389.91, -0.0642629, -0.12739807, -337075.78, 106439.086, 0.0, 10.001919, 9.99738 
1.1351623e+3, 2.6474208e+2, -180451.67, -346217.13, -19738.94, -0.012850424, -0.016071461, -178133.63, 167389.52, 0.00000020663475, 10.001446, 9.99926 
1.13519266e+3, 2.7474192e+2, -250144.33, -330475.94, 21447.111, 0.10627243, 0.01763986, -244776.95, 2743.0447, 0.0000055002247, 10.00029, 9.999252 
1.1352218e+3, 2.8474012e+2, -225403.63, -426769.72, 25189.244, 0.10836377, -0.0062028887, -222300.48, -72764.016, 0.000033703815, 10.00048, 9.99782 
1.13525e+3, 2.9473642e+2, 96468.836, -222250.61, 36699.305, -0.007611451, -0.18729937, 100640.03, 152215.14, 0.00013271971, 10.002016, 9.997809 
1.1352786e+3, 3.0473432e+2, 236222.98, -173912.11, 34752.004, -0.08918952, -0.14899115, 239146.78, 239146.78, 0.00037893685, 10.002868, 9.997397 
1.1353091e+3, 3.147344e+2, 349174.7, 83954.734, 69055.87, 0.007829234, 0.09565952, 366077.66, 366077.66, 0.0007912106, 10.002689, 9.999264 
1.1447652e+3, 1.2472334e+2, -1727620.6, -1584639.8, 129268.42, 0.06540648, -0.06897975, -1508410.1, 209293.19, 0.0013373722, 9.999263, 10.001241 
1.14479184e+3, 1.3472423e+2, -1759876.1, -1589720.8, -86743.34, -0.016435139, -0.090578035, -1553296.9, 66395.7, 0.000672049, 9.99856, 10.000886 
1.1448193e+3, 1.4472494e+2, -1686786.3, -1550468.3, -24528.799, -0.124220185, -0.07719213, -1546188.9, -24503.92, 0.0002032588, 9.99861, 10.00043 
1.1448503e+3, 1.5472609e+2, -1441606.9, -1386574.9, -41103.434, 0.07740854, -0.023644743, -1364627.5, 59046.348, 0.000019742625, 9.999654, 10.000377 
1.1448788e+3, 1.6472578e+2, -1354659.1, -1431582.1, -30749.78, 0.039589617, -0.02117411, -1343878.0, -18200.941, 0.000000013934886, 10.000162, 9.999152 
1.1449048e+3, 1.7472355e+2, -1257855.8, -1334940.4, -31316.28, -0.22930206, -0.17912012, -1246737.0, -19037.957, 0.0, 10.00016, 9.999141 
1.1449331e+3, 1.8472283e+2, -1120467.5, -1223742.1, -48722.918, -0.23758848, -0.15394638, -1101109.5, 28597.727, 0.0, 10.000454, 9.999092 
1.1449637e+3, 1.9472355e+2, -924436.8, -1075177.3, -90073.16, 0.024031755, -0.0127268825, -882359.8, 149342.19, 0.0, 10.00112, 9.999113 
1.1449933e+3, 2.04723e+2, -835293.75, -1028035.4, -39026.633, 0.10972273, 0.05138427, -827691.44, 106015.85, 0.0, 10.001244, 9.998715 
1.1450216e+3, 2.1472083e+2, -806743.25, -962783.9, -27274.143, 0.0121522155, -0.058107056, -802113.44, 33612.95, 0.0, 10.000763, 9.998723 
1.1450498e+3, 2.2471884e+2, -681459.06, -842884.4, -38015.918, -0.050426334, -0.121079616, -672954.3, 64788.715, 0.0, 10.000919, 9.998792 
1.145078e+3, 2.3471689e+2, -452342.63, -679666.06, -53814.04, -0.07917142, -0.21873674, -440246.88, 199512.0, 0.0, 10.001811, 9.998809 
1.1451065e+3, 2.4471514e+2, -426299.47, -769287.5, -44832.156, -0.06238681, -0.1983666, -420536.28, 121241.266, 0.0, 10.001976, 9.997442 
1.1451354e+3, 2.5471342e+2, -418341.47, -711069.0, -36095.4, 0.016735805, -0.13519202, -413956.34, 29844.697, 0.0, 10.001356, 9.997461 
1.1451643e+3, 2.6471257e+2, -180505.7, -360055.1, 2164.8008, 0.05291625, -0.037432745, -180479.61, 165331.03, 0.00000038376965, 10.001492, 9.999147 
1.1451932e+3, 2.747124e+2, 60770.348, -190592.66, -44855.79, 0.04195715, 0.0016071813, 68535.02, 316343.06, 0.0000075917305, 10.002463, 9.999167 
1.14522256e+3, 2.847106e+2, 86777.56, -275870.97, -22205.338, 0.032033645, -0.020498548, 88132.16, 237957.03, 0.000041535674, 10.002621, 9.99783 
1.1452524e+3, 2.9470694e+2, 55979.73, -241965.84, -29593.336, 0.054189123, -0.19334581, 58890.64, 110753.83, 0.00014998692, 10.0017395, 9.997811 
1.14528164e+3, 3.047051e+2, 122274.65, -202043.75, -6101.5063, -0.010607321, -0.13714345, 122389.4, 122389.4, 0.00040887797, 10.001933, 9.9976635 
1.1453119e+3, 3.1470537e+2, 409012.28, 139386.06, -51678.96, 0.018088358, 0.09232302, 418578.16, 418578.16, 0.0008407425, 10.002991, 9.999492 
1.15476236e+3, 1.2469318e+2, -1781125.9, -1687457.0, 62900.89, -0.19793393, -0.16822782, -1655869.6, 62123.855, 0.001489488, 9.999235, 10.000542 
1.1547898e+3, 1.3469394e+2, -1809051.5, -1691185.1, -103550.67, -0.11019781, -0.13518313, -1630971.9, -10983.355, 0.00075867696, 9.998559, 10.000185 
1.15481906e+3, 1.4469436e+2, -1675343.5, -1531127.3, -3837.9453, -0.03791132, -0.11922136, -1531025.1, -9040.509, 0.0002361324, 9.998615, 10.000567 
1.15484826e+3, 1.5469466e+2, -1421633.9, -1355116.1, 7805.9526, -0.12607819, -0.17336552, -1354212.4, 69766.92, 0.000024990082, 9.999684, 10.000582 
1.1548775e+3, 1.64695e+2, -1330144.5, -1383997.5, -45427.297, -0.13916887, -0.13441981, -1304263.1, 21711.838, 0.000000023716384, 10.000179, 9.999469 
1.15490735e+3, 1.7469525e+2, -1239682.5, -1290351.4, -21185.807, -0.0140793165, -0.0747057, -1231991.6, -4018.796, 0.0, 10.000136, 9.9994545 
1.15493625e+3, 1.8469433e+2, -1179831.9, -1338419.0, -38351.324, 0.018474195, -0.04602422, -1171044.3, -41061.344, 0.0, 10.000416, 9.998324 
1.1549641e+3, 1.9469178e+2, -990892.06, -1195615.4, -56214.023, -0.07445778, -0.1588636, -976472.2, 55537.816, 0.0, 10.001039, 9.998326 
1.15499295e+3, 2.046902e+2, -810593.5, -953153.8, -73703.64, -0.07672399, -0.1833798, -779340.3, 154684.4, 0.0, 10.001138, 9.999282 
1.1550227e+3, 2.1468954e+2, -786175.0, -887434.8, -34857.59, 0.03207348, -0.20233367, -775335.9, 60691.863, 0.0, 10.000611, 9.999317 
1.1550517e+3, 2.2468916e+2, -711289.44, -867439.56, -17512.377, 0.022905946, -0.13227609, -709349.5, 28681.295, 0.0, 10.00076, 9.998699 
1.15507945e+3, 2.3468888e+2, -482978.78, -707918.1, -8590.066, -0.12619074, -0.052776992, -482651.22, 157384.73, 0.0, 10.0016575, 9.99869 
1.15510814e+3, 2.4468753e+2, -410636.13, -698036.56, -82207.61, -0.112454474, -0.0112505285, -388783.2, 153267.55, 0.0, 10.001812, 9.998008 
1.1551374e+3, 2.5468487e+2, -397520.66, -641990.5, -50000.004, 0.07659937, -0.10388124, -387689.78, 56388.375, 0.0, 10.00124, 9.997992 
1.1551659e+3, 2.6468253e+2, -259786.47, -501412.84, 23960.846, 0.043304447, -0.13714884, -257433.31, 88667.79, 0.0000005356376, 10.001393, 9.998221 
1.155193e+3, 2.7468035e+2, -19066.379, -325936.72, 5865.4004, -0.24659093, -0.20271972, -18954.31, 229166.83, 0.000008957139, 10.002334, 9.9983 
1.1552228e+3, 2.8467885e+2, 82396.31, -256178.83, -62018.523, -0.21971805, -0.1636869, 93399.0, 243535.95, 0.000047577858, 10.002495, 9.998028 
1.1552555e+3, 2.9467764e+2, 64437.24, -224328.97, -39520.336, 0.15583844, -0.11025328, 69748.28, 121899.95, 0.00016516355, 10.001725, 9.997947 
1.15528494e+3, 3.046762e+2, 85328.21, -255422.28, 26162.525, 0.10789433, -0.0014864655, 87325.24, 87325.24, 0.00043857994, 10.00184, 9.9973345 
1.15531296e+3, 3.14674e+2, 355465.72, 65592.72, 34270.05, -0.22529174, 0.005067669, 359462.16, 359462.16, 0.0008950193, 10.002817, 9.999068 
1.1647602e+3, 1.2466331e+2, -2101486.3, -1827939.6, 9522.886, -0.2041872, -0.16750126, -1827608.5, -109323.35, 0.0016512593, 9.996986, 10.000654 
1.1647881e+3, 1.3466415e+2, -1811062.0, -1657949.6, -85345.2, -0.11020108, -0.14740044, -1619855.6, 423.03738, 0.0008513687, 9.99843, 10.0004635 
1.16481945e+3, 1.4466451e+2, -1581955.9, -1518494.8, 81435.31, 0.10468426, -0.13920087, -1462826.6, 59448.35, 0.00027198074, 9.999397, 10.000274 
1.16484754e+3, 1.5466401e+2, -1431450.8, -1396305.4, 25744.9, -0.15478651, -0.24105658, -1382707.6, 41569.52, 0.00003101119, 9.999775, 10.000254 
1.1648768e+3, 1.6466413e+2, -1351571.1, -1402515.0, -61493.07, -0.19527616, -0.2022139, -1310483.1, 15791.552, 0.00000004774233, 10.000068, 9.999397 
1.1649082e+3, 1.7466481e+2, -1213237.0, -1289063.8, -95493.586, 0.0552268, -0.09055839, -1148405.8, 79862.805, 0.0, 10.00036, 9.999367 
1.1649378e+3, 1.8466385e+2, -1164705.1, -1337063.3, -69096.58, 0.123083584, -0.060175713, -1140425.4, -10146.295, 0.0, 10.000534, 9.998278 
1.1649652e+3, 1.946608e+2, -1055963.6, -1234391.6, -54227.254, -0.045013018, -0.2146321, -1040775.9, -8465.432, 0.0, 10.000613, 9.998272 
1.16499364e+3, 2.0465909e+2, -874032.4, -991146.0, -60044.055, -0.083879426, -0.24699177, -848719.1, 85607.81, 0.0, 10.00074, 9.999205 
1.1650233e+3, 2.1465874e+2, -743923.1, -869320.06, -104956.7, 0.02627499, -0.23196524, -684363.6, 151964.75, 0.0, 10.000932, 9.999274 
1.1650523e+3, 2.2465861e+2, -712856.5, -872650.0, -75189.01, 0.018009288, -0.1306339, -683040.56, 55289.707, 0.0, 10.000775, 9.998655 
1.16508044e+3, 2.3465846e+2, -698354.6, -815688.2, -82703.164, -0.11876404, -0.030994734, -655623.2, -15287.614, 0.0, 10.000204, 9.998651 
1.16510935e+3, 2.4465731e+2, -530435.25, -691628.56, -112913.586, -0.09798442, 0.0023031095, -472304.5, 70043.46, 0.0, 10.000698, 9.998593 
1.1651394e+3, 2.5465488e+2, -194582.8, -479522.34, -102024.53, 0.09372012, -0.1225161, -161819.47, 282550.1, 0.0, 10.0023365, 9.998589 
1.165168e+3, 2.646526e+2, -96378.375, -460571.72, -6431.6196, 0.06389476, -0.16221291, -96264.83, 250126.75, 0.00000056359414, 10.002686, 9.997874 
1.1651952e+3, 2.7465034e+2, -164687.86, -440344.03, -15465.599, -0.21138784, -0.20169348, -163822.88, 84593.33, 0.00000928475, 10.001535, 9.997896 
1.1652248e+3, 2.846489e+2, -57909.984, -304856.4, -33814.004, -0.20225973, -0.13856766, -53363.586, 97068.58, 0.000050789153, 10.001448, 9.998194 
1.1652571e+3, 2.946482e+2, 191004.08, -137220.31, -44159.035, 0.12258854, -0.05625045, 196841.38, 249282.42, 0.00017624088, 10.002501, 9.998159 
1.1652866e+3, 3.0464676e+2, 209280.0, -192601.67, 60503.29, 0.06455408, 0.035949335, 218191.17, 218191.17, 0.0004642717, 10.00268, 9.997366 
1.1653156e+3, 3.146434e+2, 143758.25, -46556.73, 57609.19, -0.16428562, -0.06329495, 159838.2, 159838.2, 0.0009430786, 10.001412, 9.9989805 
1.17475696e+3, 1.24633215e+2, -2047398.4, -1689646.6, -46729.203, -0.27913472, -0.12462341, -1683643.6, 34940.293, 0.0018234614, 9.99689, 10.001647 
1.17478676e+3, 1.3463502e+2, -1719498.9, -1474109.0, -17744.795, -0.10676196, -0.13107705, -1472832.4, 147729.31, 0.0009506097, 9.998454, 10.001719 
1.1748199e+3, 1.4463553e+2, -1632410.8, -1624134.5, 84048.82, 0.18220998, -0.13792057, -1544122.0, -21567.852, 0.00031097958, 9.999403, 9.999543 
1.17484815e+3, 1.5463439e+2, -1491310.1, -1522144.6, 52508.953, -0.10071271, -0.22281133, -1452001.9, -27436.553, 0.00003785508, 9.999777, 9.99939 
1.17487684e+3, 1.646333e+2, -1397071.4, -1492238.6, -64074.19, -0.23321426, -0.22882329, -1364844.6, -38268.64, 0.00000010132158, 10.000049, 9.998787 
1.1749069e+3, 1.7463224e+2, -1256394.8, -1372927.5, -72975.61, -0.12587902, -0.23913442, -1221278.0, 7308.78, 0.0, 10.000333, 9.998802 
1.1749369e+3, 1.8463142e+2, -1123651.0, -1241882.8, -80768.51, -0.036250688, -0.19640699, -1082675.8, 47919.36, 0.0, 10.000491, 9.998953 
1.17496654e+3, 1.9463065e+2, -1016996.9, -1138058.4, -37611.637, 0.016023595, -0.19423044, -1006263.25, 26339.826, 0.0, 10.000539, 9.998973 
1.1749954e+3, 2.0462975e+2, -943500.4, -1110291.3, -67129.55, -0.009990177, -0.14566246, -919838.94, 14774.15, 0.0, 10.000635, 9.998436 
1.1750231e+3, 2.1462844e+2, -822925.3, -1000626.1, -87387.86, -0.10650533, -0.14263375, -787152.1, 49475.34, 0.0, 10.000784, 9.998446 
1.1750514e+3, 2.2462715e+2, -737070.25, -880525.56, -110318.24, -0.15960066, -0.1171124, -677211.56, 61430.26, 0.0, 10.000598, 9.998686 
1.1750802e+3, 2.346257e+2, -716175.1, -812536.5, -90624.7, -0.1692085, -0.15571095, -661719.5, -21062.133, 0.0, 10.000038, 9.998747 
1.17511e+3, 2.4462456e+2, -513736.16, -620290.4, -65282.266, -0.12771182, -0.1539597, -482750.44, 59917.598, 0.0, 10.000536, 9.999165 
1.1751406e+3, 2.5462356e+2, -165465.84, -388103.5, -28125.78, -0.028680826, -0.20025757, -161967.69, 282707.2, 0.0, 10.002202, 9.999278 
1.17517054e+3, 2.6462287e+2, -109270.37, -458202.03, -59000.246, 0.030357454, -0.12606761, -99564.12, 247118.5, 0.0000005132723, 10.002555, 9.99796 
1.1751992e+3, 2.7462214e+2, -171327.39, -441982.25, -42540.24, 0.016701052, -0.014469555, -164798.6, 83896.23, 0.000009286575, 10.001476, 9.997917 
1.17522806e+3, 2.846207e+2, -66021.51, -304077.8, -6849.7847, -0.039767977, 0.047476687, -65824.57, 84887.04, 0.000051726838, 10.001371, 9.998236 
1.1752572e+3, 2.9461834e+2, 197738.08, -113867.74, 11894.032, -0.1430563, -0.045633145, 198191.4, 250925.77, 0.00018255804, 10.002446, 9.99835 
1.1752866e+3, 3.0461642e+2, 223168.67, -132277.14, 10188.063, -0.2163621, -0.038721513, 223460.45, 223460.45, 0.00047999644, 10.002561, 9.997834 
1.1753189e+3, 3.1461376e+2, 150383.88, -4816.2803, 45402.395, -0.024747549, -0.113757774, 162690.14, 162690.14, 0.0009686636, 10.001303, 9.999316 
1.184756e+3, 1.246036e+2, -1894466.0, -1659838.5, 17976.838, -0.10976048, -0.090818495, -1658469.1, 60405.46, 0.0020081834, 9.998113, 10.001262 
1.1847861e+3, 1.3460493e+2, -1645095.6, -1474883.0, -45696.47, -0.03131199, -0.120468184, -1463390.9, 157465.45, 0.0010574218, 9.999099, 10.001409 
1.1848195e+3, 1.4460497e+2, -1645867.9, -1662198.5, -3054.1755, 0.20644078, -0.14530978, -1645315.4, -122461.54, 0.00035351914, 9.99945, 9.999256 
1.18484825e+3, 1.5460414e+2, -1590413.0, -1595729.6, -29174.586, -0.023286426, -0.16849773, -1563775.9, -138912.38, 0.00004562391, 9.999225, 9.999144 
1.1848772e+3, 1.646029e+2, -1467439.4, -1514132.0, -46400.184, -0.16460924, -0.18259978, -1438843.1, -111967.48, 0.00000019883093, 9.999513, 9.9989 
1.1849069e+3, 1.7460106e+2, -1227293.6, -1338008.9, -25460.186, -0.15891263, -0.28674138, -1221719.4, 7172.403, 0.0, 10.000449, 9.9989805 
1.1849369e+3, 1.8460023e+2, -1079719.6, -1207081.9, -27508.725, -0.085995264, -0.2600992, -1074032.0, 56867.14, 0.0, 10.000741, 9.999068 
1.18496716e+3, 1.9460034e+2, -1035850.7, -1129038.3, -61176.22, 0.044550426, -0.18254565, -1005545.1, 27353.91, 0.0, 10.000344, 9.999122 
1.1849962e+3, 2.045998e+2, -1000667.4, -1149827.3, -47698.793, 0.04247131, -0.10085252, -986718.56, -51812.324, 0.0, 10.0002985, 9.998335 
1.1850239e+3, 2.145982e+2, -848300.2, -1020843.6, -35416.89, -0.09060815, -0.11544457, -841313.3, -4388.7603, 0.0, 10.000658, 9.998369 
1.18505225e+3, 2.245965e+2, -671298.9, -854675.1, -19838.197, -0.14050764, -0.12318607, -669177.25, 69765.15, 0.0, 10.001057, 9.998647 
1.1850815e+3, 2.3459451e+2, -509255.72, -720669.8, -38014.145, -0.10704476, -0.2137824, -502628.22, 138333.47, 0.0, 10.001466, 9.998699 
1.1851113e+3, 2.4459335e+2, -390947.8, -560125.3, 9067.119, -0.073021926, -0.21256351, -390463.25, 152509.13, 0.0, 10.001388, 9.999164 
1.18514195e+3, 2.545929e+2, -370004.03, -495985.3, -26374.678, -0.038458254, -0.19835529, -364705.25, 80270.39, 0.0, 10.000838, 9.999201 
1.185172e+3, 2.6459253e+2, -295502.34, -486459.44, -67801.69, 0.00981252, -0.11035274, -273877.44, 73102.555, 0.0000005059796, 10.00103, 9.998491 
1.1852012e+3, 2.7459195e+2, -50984.652, -327771.47, -50247.883, 0.04682746, -0.035647683, -42144.96, 206843.52, 0.000009353779, 10.002069, 9.998415 
1.18523024e+3, 2.8459048e+2, 71003.82, -252614.47, 34723.42, -0.0011376997, 0.004812711, 74687.62, 225692.36, 0.000051580555, 10.002383, 9.998097 
1.1852594e+3, 2.9458806e+2, 94546.61, -183442.33, 9504.732, -0.12464375, -0.07542466, 94871.2, 147900.55, 0.00018437536, 10.001835, 9.998162 
1.18528895e+3, 3.0458632e+2, 153282.9, -164272.89, -13584.512, -0.20494865, -0.044915058, 153862.97, 153862.97, 0.0004810056, 10.002053, 9.997866 
1.1853214e+3, 3.1458366e+2, 360831.8, 64428.87, -49804.93, 0.034231104, -0.12315884, 368976.75, 368976.75, 0.0009623852, 10.002861, 9.99905 
1.19475596e+3, 1.2457446e+2, -2005303.0, -1901154.6, -29834.62, 0.029391093, -0.095200844, -1893213.5, -174057.05, 0.0022081332, 9.998158, 9.999579 
1.1947859e+3, 1.345739e+2, -1773429.6, -1747260.3, -441.41193, 0.005902325, -0.12941757, -1747252.9, -126090.16, 0.0011730703, 9.999115, 9.999532 
1.19481765e+3, 1.4457273e+2, -1638268.5, -1644790.3, -27647.396, 0.04471183, -0.18183817, -1613690.4, -90514.87, 0.00040013902, 9.999445, 9.999378 
1.19484775e+3, 1.5457343e+2, -1570800.6, -1564866.3, -26082.95, -0.020615386, -0.07386031, -1541582.3, -116411.27, 0.00005450229, 9.999255, 9.999347 
1.1948777e+3, 1.6457312e+2, -1398318.4, -1373923.3, -29447.078, -0.0931506, -0.05218412, -1354247.4, -27075.18, 0.00000035173326, 9.999522, 9.999861 
1.1949079e+3, 1.7457145e+2, -1165386.4, -1202925.1, 21079.984, -0.13170817, -0.23228447, -1155930.6, 73251.33, 0.0, 10.000415, 9.999928 
1.1949375e+3, 1.8457042e+2, -1119421.5, -1281873.0, -53388.68, -0.12446538, -0.253293, -1103446.6, 27743.486, 0.0, 10.0007105, 9.9985695 
1.19496666e+3, 1.9456993e+2, -1088461.3, -1218524.8, -64946.383, -0.061759748, -0.17893451, -1061584.5, -28386.758, 0.0, 10.000256, 9.998553 
1.19499594e+3, 2.0456922e+2, -975942.94, -1070644.1, -51489.52, -0.031283088, -0.11207801, -953341.75, -18135.145, 0.0, 10.000183, 9.99893 
1.1950253e+3, 2.1456797e+2, -826290.4, -938486.3, -11229.935, -0.029835789, -0.15736915, -825177.4, 12041.864, 0.0, 10.000503, 9.999007 
1.1950546e+3, 2.2456661e+2, -704583.44, -887289.06, -18293.523, -0.029926294, -0.1590348, -702769.8, 36462.64, 0.0, 10.000897, 9.998499 
1.19508386e+3, 2.3456493e+2, -543021.56, -752873.8, -13092.034, -0.03256795, -0.20330718, -542207.94, 99040.0, 0.0, 10.0013075, 9.99855 
1.1951133e+3, 2.4456377e+2, -456057.0, -665491.94, -24691.95, -0.037683945, -0.16191843, -453185.25, 90074.86, 0.0, 10.001251, 9.998512 
1.1951428e+3, 2.5456303e+2, -433350.8, -597023.0, -34200.13, -0.049886156, -0.11227541, -426491.97, 18778.504, 0.0, 10.000708, 9.998569 
1.19517215e+3, 2.6456183e+2, -260257.5, -387217.88, -42005.652, -0.10017025, -0.1082533, -247617.98, 99663.86, 0.0000006389743, 10.000911, 9.999237 
1.1952009e+3, 2.7455992e+2, -3005.6702, -203140.17, 1878.3604, -0.19891395, -0.25260314, -2988.0425, 246308.52, 0.000009301616, 10.001965, 9.999322 
1.1952312e+3, 2.8455848e+2, 33521.695, -312268.3, 4027.8362, -0.16360116, -0.24204937, 33568.605, 184879.28, 0.00005191434, 10.0022955, 9.997734 
1.19526304e+3, 2.9455742e+2, 53517.99, -256905.45, 5815.087, 0.02878296, -0.14794724, 53626.883, 106953.01, 0.00018470343, 10.001768, 9.997695 
1.1952927e+3, 3.045564e+2, 97045.84, -248448.03, 10161.561, -0.04182962, 0.009399164, 97344.45, 97344.45, 0.0004730737, 10.0019245, 9.997344 
1.19532265e+3, 3.14553e+2, 274304.88, -69970.87, 31955.475, -0.17942633, -0.09719731, 277245.84, 277245.84, 0.0009339275, 10.002671, 9.998214 
1.2047556e+3, 1.2454393e+2, -2009940.6, -1919504.6, -42633.82, 0.18868965, -0.117298864, -1902575.1, -183120.89, 0.0024257244, 9.998224, 9.999431 
1.2047854e+3, 1.3454291e+2, -1706829.1, -1770594.1, 41745.813, 0.022130009, -0.13697587, -1686183.5, -64717.254, 0.0012988481, 9.999845, 9.999014 
1.2048158e+3, 1.4454126e+2, -1502213.4, -1585406.8, 35927.13, -0.1115404, -0.20689043, -1488846.0, 34638.4, 0.00045139206, 10.000399, 9.999329 
1.2048477e+3, 1.545423e+2, -1477589.8, -1517529.4, -12515.508, 0.0215767, -0.06569756, -1473991.9, -48515.016, 0.00006471426, 9.99989, 9.999363 
1.2048783e+3, 1.6454253e+2, -1370811.9, -1332960.5, 7269.045, 0.023658171, -0.0046182126, -1331612.6, -4139.063, 0.00000057087306, 9.999596, 10.000098 
1.2049081e+3, 1.745415e+2, -1253199.3, -1212979.8, -21595.842, -0.10008292, -0.14738122, -1203580.5, 25897.115, 0.0, 9.999686, 10.000199 
1.2049378e+3, 1.8454042e+2, -1214721.6, -1331872.8, -91589.59, -0.124383, -0.18319583, -1164578.5, -33092.824, 0.0, 10.000078, 9.998528 
1.2049674e+3, 1.9453904e+2, -1000451.25, -1176781.1, -87483.93, -0.03442514, -0.19421445, -964412.75, 69088.164, 0.0, 10.00087, 9.998534 
1.2049969e+3, 2.0453814e+2, -828377.8, -995394.75, -51263.62, 0.019947316, -0.14977804, -813898.44, 121613.06, 0.0, 10.001161, 9.998977 
1.2050265e+3, 2.1453747e+2, -766503.2, -906658.2, -82588.805, 0.0354848, -0.14208242, -728267.4, 109252.05, 0.0, 10.0008745, 9.999053 
1.20505616e+3, 2.245365e+2, -706114.25, -864710.8, -65305.215, 0.044453047, -0.11609878, -682684.8, 56844.098, 0.0, 10.000796, 9.998703 
1.2050857e+3, 2.3453493e+2, -575335.2, -745074.75, -55380.38, 0.050092883, -0.16650033, -558864.6, 82677.52, 0.0, 10.000996, 9.998755 
1.2051151e+3, 2.4453367e+2, -489674.34, -699137.2, -36901.902, 0.04026219, -0.13729264, -483363.3, 60191.684, 0.0, 10.001104, 9.998338 
1.2051441e+3, 2.5453255e+2, -392076.63, -601384.25, -41182.484, -0.011865774, -0.10817105, -384265.25, 61304.875, 0.00000000020898414, 10.001095, 9.998346 
1.2051732e+3, 2.6453117e+2, -223338.53, -366421.56, -238.53635, -0.08050138, -0.11300988, -223338.14, 124245.44, 0.00000074892756, 10.001156, 9.999252 
1.20520286e+3, 2.7452934e+2, -93416.914, -243133.02, -38246.08, -0.16448641, -0.2513108, -84212.55, 165384.16, 0.000009032264, 10.001327, 9.999345 
1.2052334e+3, 2.845279e+2, -60811.977, -357129.56, -56776.656, -0.13234746, -0.24248661, -50305.66, 101304.555, 0.000052136886, 10.001658, 9.997727 
1.2052649e+3, 2.9452673e+2, 96298.74, -235703.83, -62877.02, 0.02745124, -0.15415314, 107807.875, 161434.17, 0.0001849306, 10.002082, 9.997682 
1.2052948e+3, 3.0452567e+2, 204478.56, -193999.53, 27894.314, -0.055597104, 0.00058960094, 206421.75, 206421.75, 0.0004665325, 10.002658, 9.997359 
1.2053256e+3, 3.1452277e+2, 294036.3, -87587.51, 48598.24, -0.1471899, -0.05347251, 300127.88, 300127.88, 0.00090606173, 10.002966, 9.997932 
1.2147547e+3, 1.24512054e+2, -1904536.1, -1690084.1, 56452.457, 0.22510163, -0.15529999, -1676131.3, 43636.316, 0.0026624324, 9.998199, 10.001009 
1.21478446e+3, 1.345121e+2, -1650834.1, -1661894.3, 109782.5, -0.07397853, -0.14246568, -1546442.5, 75322.53, 0.0014356553, 9.999872, 9.999753 
1.21481396e+3, 1.4451079e+2, -1507581.4, -1594480.4, 6028.277, -0.36599854, -0.21757638, -1507165.3, 16612.818, 0.0005075534, 10.000401, 9.99926 
1.2148476e+3, 1.5451084e+2, -1491684.8, -1546589.5, -16710.469, 0.0029614696, -0.16029307, -1486998.8, -61218.223, 0.000076397075, 9.999888, 9.9991665 
1.2148786e+3, 1.6451101e+2, -1408423.6, -1409176.8, -2701.573, 0.07594983, -0.064986244, -1406072.5, -78292.24, 0.0000008702971, 9.999593, 9.999571 
1.2149073e+3, 1.745112e+2, -1296279.5, -1294237.4, -8039.176, -0.15727505, -0.033008337, -1287154.6, -57376.363, 0.0, 9.99965, 9.99966 
1.21493734e+3, 1.8451029e+2, -1181253.5, -1256665.6, -77346.21, -0.18793629, -0.050686803, -1132912.0, -1126.0541, 0.0, 10.000052, 9.999056 
1.214969e+3, 1.945078e+2, -973644.06, -1103613.1, -45712.824, 0.020001039, -0.2314775, -959176.4, 74631.23, 0.0, 10.000792, 9.999077 
1.214999e+3, 2.0450662e+2, -881677.1, -1078224.6, -74238.414, 0.09194225, -0.215438, -856788.06, 79032.12, 0.0, 10.001044, 9.998461 
1.2150272e+3, 2.1450688e+2, -830939.06, -997696.9, -83207.81, 0.0054874686, -0.06099979, -796523.3, 41300.086, 0.0, 10.000691, 9.998512 
1.21505655e+3, 2.2450635e+2, -693648.8, -803413.44, -72424.2, -0.012055558, 0.01239647, -657661.25, 82168.8, 0.0, 10.000636, 9.999206 
1.2150869e+3, 2.3450463e+2, -555509.2, -672086.7, -34789.316, 0.055242464, -0.10805135, -545916.56, 95926.336, 0.0, 10.000853, 9.999328 
1.2151166e+3, 2.4450311e+2, -501806.2, -682086.3, -46062.035, 0.0570715, -0.14614972, -490719.1, 53137.504, 0.0, 10.000926, 9.998538 
1.2151453e+3, 2.5450155e+2, -394742.2, -582825.44, -29092.37, -0.017371852, -0.17932622, -390345.03, 55528.695, 0.00000000018849695, 10.000989, 9.998524 
1.215175e+3, 2.645006e+2, -287376.34, -473321.72, -5069.235, -0.03717466, -0.11978383, -287238.25, 60646.074, 0.00000061447383, 10.001042, 9.998575 
1.21520616e+3, 2.7450007e+2, -157145.13, -352991.66, -16141.055, 0.020155506, -0.05503618, -155823.75, 94065.83, 0.000008322687, 10.001223, 9.998644 
1.2152362e+3, 2.8449863e+2, -72495.98, -343771.84, -49330.027, -0.0303926, -0.017604979, -63804.08, 88099.73, 0.000050710027, 10.001507, 9.9978895 
1.2152648e+3, 2.94496e+2, 104871.95, -201979.02, -26397.402, -0.218749, -0.09727185, 107126.27, 161055.7, 0.00018357177, 10.002015, 9.997943 
1.2152949e+3, 3.044941e+2, 210479.92, -153118.44, 31537.455, -0.32468092, -0.05761956, 213195.11, 213195.11, 0.00046227945, 10.002539, 9.997699 
1.2153293e+3, 3.1449273e+2, 266355.2, -83331.53, 106072.47, -0.111782186, 0.00518758, 296015.03, 296015.03, 0.00088881893, 10.002705, 9.998087 
1.224753e+3, 1.24478914e+2, -1742722.5, -1547164.6, 64904.35, 0.22533192, -0.16184989, -1527583.9, 192511.58, 0.0029179724, 9.998977, 10.001633 
1.22478396e+3, 1.3447976e+2, -1758470.3, -1666968.9, -20113.865, -0.048676312, -0.11062169, -1662742.6, -40658.21, 0.0015834377, 9.998927, 10.000171 
1.2248136e+3, 1.4447948e+2, -1678862.9, -1630133.4, -117738.51, -0.35866103, -0.12359682, -1534265.0, -10178.7, 0.00056846405, 9.999022, 9.999681 
1.2248468e+3, 1.5447879e+2, -1499355.3, -1491696.3, -127469.695, -0.03663605, -0.18660834, -1367998.5, 58095.484, 0.00008951281, 9.999598, 9.999672 
1.22487806e+3, 1.6447876e+2, -1385907.3, -1423467.5, -46439.832, 0.05567345, -0.129611, -1354594.0, -26498.033, 0.0000012652538, 9.999827, 9.999382 
1.2249075e+3, 1.7447932e+2, -1306148.6, -1321490.8, -46398.625, -0.09543746, -0.03851438, -1266791.3, -36698.336, 0.0, 9.999659, 9.999485 
1.2249381e+3, 1.844788e+2, -1190043.8, -1210109.1, -54981.21, -0.101939246, -0.029087383, -1144187.4, -12090.1045, 0.0, 9.999765, 9.999519 
1.22496985e+3, 1.9447672e+2, -1007574.75, -1063075.5, -56266.047, 0.056738753, -0.21693055, -972587.94, 61525.344, 0.0, 10.000314, 9.999589 
1.2249999e+3, 2.0447576e+2, -942844.3, -1102519.9, -72023.96, 0.10770745, -0.20946461, -915157.6, 20965.404, 0.0, 10.000602, 9.9985075 
1.225028e+3, 2.1447597e+2, -853544.7, -1003415.44, -62186.273, 0.02748385, -0.06233293, -831102.25, 7024.3843, 0.0, 10.000525, 9.998549 
1.22505724e+3, 2.2447552e+2, -697225.9, -797689.6, -4615.7695, 0.016153289, 0.015051702, -697014.25, 43118.684, 0.0, 10.000575, 9.999272 
1.2250879e+3, 2.3447405e+2, -564495.3, -670750.7, -34439.633, 0.080095045, -0.08868898, -554309.2, 87835.61, 0.0, 10.00076, 9.999383 
1.2251178e+3, 2.4447276e+2, -482925.7, -642404.3, -41140.56, 0.09598791, -0.11830792, -472938.2, 71217.766, 0.0, 10.000913, 9.998827 
1.2251469e+3, 2.5447157e+2, -361559.6, -527162.06, -36894.21, 0.055236284, -0.14598005, -353711.9, 92455.766, 0.0, 10.00106, 9.99887 
1.22517675e+3, 2.6447064e+2, -284847.3, -504024.44, 27229.691, 0.038349867, -0.08621551, -281515.06, 66662.39, 0.0000003685213, 10.001199, 9.998287 
1.2252077e+3, 2.744698e+2, -185381.25, -399803.66, 15453.508, 0.049377132, -0.022873217, -184273.23, 65914.38, 0.0000073761885, 10.001194, 9.998325 
1.2252378e+3, 2.8446802e+2, -37795.063, -340571.84, 38881.715, -0.023208411, 0.00030362475, -32881.72, 119323.51, 0.000049087277, 10.001771, 9.997793 
1.22526735e+3, 2.9446498e+2, 227186.56, -158339.48, 16684.432, -0.1947742, -0.11112266, 227907.27, 282140.28, 0.00018153466, 10.002901, 9.997829 
1.2252978e+3, 3.0446267e+2, 250952.89, -87193.08, 26092.709, -0.27408016, -0.12612739, 252954.47, 252954.47, 0.00045750884, 10.002616, 9.998106 
1.2253314e+3, 3.144627e+2, -73806.086, -221259.61, 58072.87, -0.03289939, 0.03334601, -53681.402, -53681.402, 0.0008771935, 10.000201, 9.998358 
1.23475194e+3, 1.2444415e+2, -1758158.9, -1592886.9, 81314.13, 0.16100393, -0.16089757, -1559588.8, 160852.19, 0.0031899144, 9.999025, 10.001294 
1.2347832e+3, 1.3444568e+2, -1746882.0, -1652622.5, -24863.43, -0.026832366, -0.05628178, -1646466.3, -24039.324, 0.0017411282, 9.998948, 10.000264 
1.23481445e+3, 1.4444713e+2, -1610345.9, -1491683.0, -112270.63, -0.20367098, 0.055182453, -1424030.5, 100381.28, 0.0006337289, 9.999031, 10.000632 
1.2348451e+3, 1.5444611e+2, -1424620.0, -1344221.9, -96649.164, -0.1903648, -0.1411473, -1279745.1, 146673.48, 0.00010392506, 9.999611, 10.0006895 
1.2348761e+3, 1.644457e+2, -1358258.1, -1368828.1, -70141.68, -0.14009759, -0.19419864, -1293202.6, 35218.867, 0.0000017603737, 9.999841, 9.999747 
1.2349082e+3, 1.7444588e+2, -1285848.9, -1280755.1, -44350.746, -0.016928283, -0.17244244, -1238878.3, -8457.019, 0.0, 9.999655, 9.999769 
1.2349393e+3, 1.8444598e+2, -1171657.1, -1164441.9, -47872.367, 0.03051043, -0.1309371, -1120041.4, 12378.35, 0.0, 9.999733, 9.999849 
1.2349696e+3, 1.9444583e+2, -995678.3, -1019774.5, -23158.584, -0.0199373, -0.15800478, -981621.3, 52797.004, 0.0, 10.000227, 9.999931 
1.2349993e+3, 2.0444553e+2, -917252.25, -1017466.7, -89642.72, -0.030852264, -0.1342607, -864663.06, 71757.25, 0.0, 10.000468, 9.999154 
1.2350284e+3, 2.1444479e+2, -829557.56, -921805.8, -54569.29, 0.009126175, -0.14679873, -804230.7, 34198.01, 0.0, 10.000383, 9.99918 
1.2350581e+3, 2.2444408e+2, -747314.0, -869361.3, -10019.629, 0.029417088, -0.10937475, -746496.9, -6059.674, 0.0, 10.000431, 9.998854 
1.23508826e+3, 2.3444319e+2, -619218.06, -754115.1, -12973.3545, 0.026781835, -0.107047, -617981.7, 24465.896, 0.0, 10.000622, 9.998882 
1.2351184e+3, 2.4444267e+2, -475569.4, -593068.8, -47490.23, 0.04403733, -0.051749144, -458775.4, 85677.43, 0.0, 10.000767, 9.999235 
1.2351485e+3, 2.5444242e+2, -342512.88, -465381.3, -18356.572, 0.100608125, -0.031231081, -339829.0, 106624.4, 0.0, 10.000952, 9.9993515 
1.2351782e+3, 2.644412e+2, -309681.75, -515673.13, 18188.494, 0.045858044, -0.031147102, -308088.1, 40376.625, 0.00000016286783, 10.001035, 9.998283 
1.2352069e+3, 2.744385e+2, -203322.23, -413587.53, 31612.355, -0.1567773, -0.1461153, -198672.3, 51818.813, 0.000006622681, 10.001096, 9.998276 
1.23523794e+3, 2.8443608e+2, -77179.46, -393791.3, 70705.46, -0.20535962, -0.17210932, -62107.105, 90407.65, 0.000048750662, 10.001653, 9.997486 
1.23527184e+3, 2.944335e+2, 186672.56, -213836.77, 82174.625, -0.054158106, -0.20446868, 202877.13, 257415.53, 0.00018217463, 10.002769, 9.997517 
1.2353028e+3, 3.0443114e+2, 254255.78, -44694.223, -56829.313, -0.057631318, -0.22430632, 264694.34, 264694.34, 0.00045752534, 10.002466, 9.998471 
1.2353313e+3, 3.1443244e+2, -55009.78, -157467.48, 8793.951, -0.11429702, 0.021744361, -54260.473, -54260.473, 0.000874485, 10.000103, 9.998839 
1.2447511e+3, 1.24412246e+2, -1546564.6, -1546906.0, 233612.97, 0.10813223, -0.08380759, -1313122.3, 407633.34, 0.003475539, 10.000754, 10.00076 
1.244782e+3, 1.3441311e+2, -1745681.8, -1635888.4, 93927.59, -0.027297242, -0.062309973, -1581991.5, 40757.625, 0.0019075654, 9.998891, 10.000405 
1.2448151e+3, 1.4441518e+2, -1690227.8, -1474419.0, 83621.19, 0.0016794568, 0.081565775, -1445810.1, 78917.445, 0.0007030745, 9.998243, 10.001131 
1.2448446e+3, 1.544148e+2, -1437216.5, -1293315.8, 38766.863, -0.17252408, -0.10269405, -1283536.6, 143190.03, 0.00011956255, 9.99928, 10.001199 
1.24487534e+3, 1.6441464e+2, -1349423.9, -1363134.8, 29575.334, -0.19000407, -0.15857124, -1325919.9, 2806.931, 0.0000023468863, 9.999909, 9.999746 
1.24490835e+3, 1.744147e+2, -1223359.5, -1250922.0, -99.252014, 0.018069098, -0.14843623, -1223359.1, 7370.175, 0.0, 10.00011, 9.999742 
1.2449398e+3, 1.8441492e+2, -1113011.1, -1133867.8, -2264.8733, 0.0936767, -0.094912976, -1112768.0, 19959.39, 0.0, 10.000117, 9.999874 
1.24496974e+3, 1.9441515e+2, -1046474.8, -1042697.94, -20398.564, -0.0009938045, -0.08895076, -1024100.6, 10621.843, 0.0, 9.999858, 9.999954 
1.24499924e+3, 2.044149e+2, -939666.3, -975264.2, -67710.85, -0.047321465, -0.082390994, -887454.1, 49268.363, 0.0, 10.000074, 9.999639 
1.2450287e+3, 2.144139e+2, -726274.5, -810771.3, -69663.414, -0.02536483, -0.17548367, -687049.5, 151680.83, 0.0, 10.000826, 9.999729 
1.2450587e+3, 2.2441313e+2, -642177.3, -831083.7, -6539.0557, 0.020457458, -0.16658606, -641951.25, 98786.805, 0.0, 10.001224, 9.998724 
1.2450897e+3, 2.3441242e+2, -546500.5, -731649.8, -12327.246, 0.099026605, -0.13368775, -545683.3, 97064.88, 0.0, 10.001199, 9.998744 
1.24512e+3, 2.4441195e+2, -415219.84, -546804.1, -20079.67, 0.124416694, -0.0732232, -412223.9, 132529.45, 0.0, 10.001105, 9.999393 
1.24514915e+3, 2.5441164e+2, -342186.97, -443662.72, -37072.07, 0.08316637, -0.0752769, -330086.38, 116667.5, 0.0, 10.000869, 9.9995365 
1.2451788e+3, 2.6441047e+2, -277318.75, -489184.97, 32603.617, 0.007296097, -0.082394846, -272414.94, 76348.98, 0.000000050542315, 10.001193, 9.998394 
1.2452088e+3, 2.7440807e+2, -40087.793, -330458.66, 31636.346, -0.111871205, -0.17754656, -36680.938, 214106.27, 0.0000061370592, 10.0021715, 9.998344 
1.2452407e+3, 2.8440595e+2, 23718.758, -323654.78, 100339.85, -0.1156009, -0.18150584, 50619.08, 203426.2, 0.000049451548, 10.002275, 9.997657 
1.24527454e+3, 2.9440364e+2, -25183.348, -289945.28, 110572.164, 0.02800483, -0.20510264, 14920.247, 69747.8, 0.00018750013, 10.001236, 9.997714 
1.2453053e+3, 3.0440053e+2, 90995.2, -121218.1, -6140.224, 0.01813933, -0.31745005, 91172.72, 91172.72, 0.000470274, 10.00131, 9.99852 
1.2453331e+3, 3.1440136e+2, 344629.4, 84294.97, -4767.6567, -0.057355817, -0.11843703, 344716.72, 344716.72, 0.00089436676, 10.00264, 9.99929 
1.2547494e+3, 1.24383025e+2, -1578519.8, -1648418.3, 34998.87, -0.19875683, 0.014744664, -1564008.3, 157032.4, 0.0037739007, 10.000888, 10.000003 
1.25478e+3, 1.3438235e+2, -1728017.4, -1611527.3, 36676.695, -0.13307397, -0.1280644, -1600941.6, 22105.715, 0.0020822603, 9.998934, 10.000558 
1.2548152e+3, 1.443839e+2, -1685658.3, -1467111.3, 103607.85, 0.16583714, -0.049114507, -1425801.6, 99229.31, 0.0007764397, 9.99825, 10.001177 
1.254845e+3, 1.5438512e+2, -1430855.3, -1287036.9, 91290.65, -0.08582831, -0.07767735, -1242735.4, 184280.33, 0.00013646827, 9.999303, 10.001233 
1.2548757e+3, 1.6438578e+2, -1380545.6, -1434138.4, 25169.828, -0.18625212, -0.028262066, -1370578.4, -41568.242, 0.0000030208696, 9.999931, 9.999251 
1.2549077e+3, 1.7438585e+2, -1260030.3, -1327658.6, 17955.084, -0.07433443, 0.034536432, -1255558.9, -24542.836, 0.0, 10.000104, 9.999221 
1.2549391e+3, 1.843856e+2, -1130731.6, -1163630.3, -24789.66, -0.0041497285, 0.07793961, -1117430.3, 15590.008, 0.0, 10.000085, 9.999686 
1.25497e+3, 1.943847e+2, -1066232.1, -1072199.9, -19126.406, 0.013328774, -0.014837751, -1049858.3, -14832.728, 0.0, 9.9998, 9.999782 
1.2549996e+3, 2.0438395e+2, -936405.0, -935315.8, -54642.34, -0.036107413, -0.06428014, -881215.4, 55813.465, 0.0, 9.999937, 9.99998 
1.2550281e+3, 2.1438333e+2, -726156.25, -772806.1, -29419.625, -0.17401747, -0.1537291, -711936.94, 127093.97, 0.0, 10.000662, 10.000074 
1.2550586e+3, 2.2438261e+2, -657990.56, -820231.6, -19582.008, -0.12052025, -0.16549426, -655660.56, 85375.76, 0.0, 10.001038, 9.998886 
1.255092e+3, 2.3438162e+2, -557283.0, -722440.2, -2497.8442, 0.19547729, -0.17401697, -557245.25, 85802.195, 0.0, 10.001055, 9.998879 
1.2551223e+3, 2.4438058e+2, -441712.9, -565800.4, -40502.344, 0.23668525, -0.17616172, -429663.03, 115394.47, 0.0, 10.000952, 9.999335 
1.2551485e+3, 2.5437924e+2, -370895.25, -471947.13, -33663.016, -0.0831641, -0.27308607, -360708.2, 86360.49, 0.0, 10.000729, 9.99941 
1.2551783e+3, 2.6437846e+2, -286808.7, -473899.97, 55448.926, -0.1716954, -0.24260747, -271609.8, 77465.88, 0.00000007625481, 10.001042, 9.99857 
1.2552129e+3, 2.7437833e+2, -39741.453, -304914.66, 85108.51, 0.051823657, -0.13421896, -14775.952, 236301.67, 0.0000061507535, 10.002059, 9.998576 
1.2552455e+3, 2.8437755e+2, 47885.64, -255599.61, 54699.668, 0.1115653, -0.042540528, 57443.598, 210527.73, 0.000051588533, 10.002194, 9.998163 
1.2552755e+3, 2.9437527e+2, 5127.7056, -221007.14, 85696.58, -0.040401902, -0.11866371, 33933.98, 89036.33, 0.00020006, 10.001203, 9.998207 
1.2553053e+3, 3.0437055e+2, 62092.016, -165383.73, 25822.332, -0.13753642, -0.4003982, 64986.457, 64986.457, 0.00050364056, 10.001246, 9.998242 
1.2553358e+3, 3.1436914e+2, 336304.94, 114600.375, 86172.35, -0.109130524, -0.40391755, 365858.88, 365858.88, 0.00095293473, 10.002428, 9.999603 
1.2647493e+3, 1.2435351e+2, -1786376.3, -1762184.1, -7101.7183, -0.2008894, 0.019733308, -1760253.4, -38923.33, 0.004085261, 9.999545, 9.999875 
1.2647797e+3, 1.3435271e+2, -1599000.5, -1528607.8, 40623.72, -0.08634444, -0.13872595, -1510054.1, 113281.164, 0.0022650692, 9.999768, 10.000716 
1.2648149e+3, 1.4435332e+2, -1511768.0, -1444737.0, 157632.73, 0.24576254, -0.13868515, -1317096.1, 208231.36, 0.00085386867, 9.9997015, 10.000634 
1.2648445e+3, 1.5435483e+2, -1458312.0, -1364016.1, 70373.64, -0.04959236, -0.07795123, -1326456.5, 100855.555, 0.00015477135, 9.999399, 10.000654 
1.2648754e+3, 1.6435553e+2, -1496881.3, -1507449.4, 11521.144, -0.15228778, 0.013042182, -1489490.3, -160182.69, 0.0000038088367, 9.999214, 9.999085 
1.2649079e+3, 1.743552e+2, -1369019.5, -1396772.6, 7854.468, -0.01959323, 0.050655965, -1366950.9, -135633.72, 0.0, 9.999426, 9.999073 
1.2649396e+3, 1.8435468e+2, -1155439.0, -1172165.5, 16022.947, 0.043626092, 0.072106116, -1145728.0, -12403.768, 0.0, 9.999906, 9.999713 
1.2649702e+3, 1.9435371e+2, -924967.2, -995478.0, 9259.916, 0.01266499, -0.028054573, -923771.4, 111559.01, 0.0, 10.000757, 9.999838 
1.2650001e+3, 2.0435314e+2, -792174.0, -885968.75, -18504.686, -0.029785452, -0.057100616, -788655.25, 148677.72, 0.0, 10.001014, 9.999796 
1.2650295e+3, 2.1435283e+2, -775657.7, -818455.7, -61981.203, -0.089966804, -0.095202506, -731485.44, 107847.65, 0.0, 10.000416, 9.999873 
1.2650602e+3, 2.2435227e+2, -732589.06, -819406.75, -33103.707, -0.034242373, -0.0975235, -721406.8, 19930.033, 0.0, 10.000342, 9.999242 
1.2650928e+3, 2.3435128e+2, -555285.94, -674932.1, -18011.037, 0.18135373, -0.1444759, -552633.44, 90712.52, 0.0, 10.000855, 9.9993105 
1.2651229e+3, 2.4435027e+2, -433112.44, -584686.9, -45703.695, 0.20058921, -0.1573684, -420398.06, 124957.0, 0.0, 10.001104, 9.999133 
1.2651499e+3, 2.54349e+2, -346351.78, -488633.1, -77201.11, -0.031013628, -0.22407095, -312511.47, 134855.53, 0.0, 10.001012, 9.999162 
1.2651801e+3, 2.64348e+2, -227179.6, -441967.22, 69444.15, -0.09961717, -0.1997744, -206683.14, 142692.72, 0.00000015326442, 10.001444, 9.998598 
1.265215e+3, 2.7434734e+2, 28552.063, -261812.92, 59863.766, 0.04596041, -0.15000083, 40409.777, 291791.2, 0.0000068361555, 10.002497, 9.998653 
1.2652476e+3, 2.843464e+2, 154360.95, -205563.33, -28231.154, 0.077970564, -0.072992414, 156561.84, 309950.44, 0.000055437977, 10.002915, 9.998168 
1.2652774e+3, 2.9434466e+2, 215799.7, -123027.16, -64745.832, -0.025387725, -0.093325235, 227750.36, 283153.38, 0.00021969865, 10.002652, 9.998187 
1.2653074e+3, 3.0434015e+2, 203770.3, -133571.97, -84094.85, -0.09181999, -0.33766654, 223571.69, 223571.69, 0.00055760087, 10.00239, 9.997897 
1.265338e+3, 3.1433836e+2, 267453.13, 110362.03, -69905.96, -0.063245334, -0.34140506, 294056.25, 294056.25, 0.0010537416, 10.001857, 9.99983 
1.2747492e+3, 1.2432465e+2, -1727426.6, -1654727.6, -103640.71, -0.24020928, 0.009731917, -1581246.9, 140368.3, 0.0044096503, 9.999599, 10.000587 
1.2747806e+3, 1.343244e+2, -1591738.0, -1525191.9, 60802.754, 0.014409703, -0.095356636, -1489153.6, 134457.03, 0.0024558255, 9.999803, 10.000728 
1.2748134e+3, 1.443236e+2, -1579555.1, -1605792.3, 133891.53, 0.09860637, -0.18683471, -1458141.0, 67474.91, 0.00093550276, 9.999786, 9.999488 
1.274843e+3, 1.5432407e+2, -1544689.6, -1550640.0, 68666.23, -0.16286439, -0.10490721, -1478934.1, -51319.742, 0.00017466526, 9.999425, 9.999363 
1.2748745e+3, 1.6432382e+2, -1478234.4, -1479268.9, 2960.364, -0.18763581, -0.047852684, -1475746.5, -146126.86, 0.0000047674703, 9.999248, 9.999269 
1.2749086e+3, 1.7432268e+2, -1345533.1, -1354127.8, 26571.393, 0.08750934, -0.120039865, -1322913.8, -91280.65, 0.0, 9.999441, 9.999363 
1.2749405e+3, 1.8432215e+2, -1147456.5, -1148139.6, 35168.098, 0.13619967, -0.12386526, -1112628.3, 21010.762, 0.0, 9.999875, 9.99989 
1.2749699e+3, 1.943222e+2, -921757.6, -976913.3, 54415.04, -0.10633707, -0.1399001, -888331.06, 147305.97, 0.0, 10.000701, 9.999994 
1.2750003e+3, 2.0432234e+2, -856690.75, -996142.3, -52040.82, -0.13392164, -0.071587525, -839411.2, 98224.47, 0.0, 10.000908, 9.999093 
1.2750322e+3, 2.1432242e+2, -849325.3, -939497.5, -75121.41, 0.12607105, 0.0023807099, -806798.75, 32838.043, 0.0, 10.000269, 9.999117 
1.2750627e+3, 2.2432218e+2, -714812.5, -739637.1, -27557.176, 0.18299715, 0.044261854, -697001.25, 44637.45, 0.0, 10.000168, 9.999868 
1.2750916e+3, 2.3432137e+2, -530889.56, -587383.06, 15819.186, -0.03298462, -0.057426848, -526761.5, 116882.125, 0.0, 10.000695, 9.999988 
1.2751214e+3, 2.4432085e+2, -485974.97, -656095.75, -58435.867, -0.07590812, -0.033699434, -467836.44, 77810.8, 0.0, 10.00094, 9.998722 
1.2751526e+3, 2.543207e+2, -391336.0, -558267.9, -65440.57, 0.11877486, 0.055093534, -368740.5, 78909.41, 0.0, 10.000906, 9.998737 
1.2751839e+3, 2.6431906e+2, -253105.05, -472067.06, 95556.69, 0.100502625, 0.041358802, -217268.58, 132395.8, 0.00000020123079, 10.001347, 9.998434 
1.2752151e+3, 2.743152e+2, -7087.8145, -300361.03, 114119.5, -0.21286845, -0.21374737, 32086.111, 283783.16, 0.0000077157165, 10.002349, 9.998458 
1.2752469e+3, 2.8431278e+2, 99930.26, -286244.78, -47808.164, -0.29465246, -0.25216216, 105760.836, 259479.36, 0.000060411407, 10.002775, 9.99768 
1.27528e+3, 2.9431197e+2, 162190.5, -204265.4, -54397.086, -0.055471618, -0.13482869, 170094.77, 225822.9, 0.00024271311, 10.002522, 9.997691 
1.2753113e+3, 3.0430928e+2, 151091.34, -226128.31, -106771.6, 0.027233247, -0.13814922, 179216.02, 179216.02, 0.0006224366, 10.002313, 9.997301 
1.2753399e+3, 3.1430912e+2, 232984.69, 83631.44, -46784.0, -0.12470668, 0.06819058, 246429.23, 246429.23, 0.0011818967, 10.001674, 9.999729 
1.2847497e+3, 1.24295466e+2, -1770467.5, -1679339.6, -37830.96, -0.12206543, -0.029623743, -1665681.4, 56218.137, 0.0047468157, 9.999278, 10.000575 
1.2847814e+3, 1.3429505e+2, -1638572.8, -1625382.0, 10928.622, 0.113196835, -0.08859, -1619212.9, 4684.984, 0.0026545508, 9.999795, 10.000034 
1.284812e+3, 1.4429359e+2, -1614515.0, -1663503.9, 86641.29, -0.008452311, -0.19218199, -1548972.3, -23061.754, 0.0010215283, 9.999745, 9.999109 
1.2848426e+3, 1.5429369e+2, -1523799.6, -1575713.4, 64584.414, -0.14862233, -0.11042698, -1480151.1, -52237.49, 0.00019628371, 9.99973, 9.999043 
1.2848747e+3, 1.6429323e+2, -1380967.1, -1410429.0, 80549.9, -0.11409802, -0.0678115, -1313812.3, 16108.045, 0.0000059623408, 9.999813, 9.999475 
1.2849085e+3, 1.7429212e+2, -1235656.5, -1271183.9, 76571.664, 0.10576819, -0.16062532, -1174815.0, 57115.93, 0.0, 10.000072, 9.999627 
1.2849404e+3, 1.842918e+2, -1160194.1, -1170857.3, 88072.57, 0.14686131, -0.1488233, -1077291.9, 56642.703, 0.0, 9.999872, 9.999733 
1.2849703e+3, 1.9429229e+2, -1157792.8, -1110471.8, 55679.426, -0.045953274, -0.10168816, -1073634.1, -37702.855, 0.0, 9.999181, 9.999809 
1.285001e+3, 2.0429245e+2, -1052564.1, -1084519.3, 2823.1135, -0.06800346, -0.022481333, -1052316.6, -114385.92, 0.0, 9.999541, 9.9991455 
1.285033e+3, 2.1429202e+2, -698167.06, -852200.0, 21437.932, 0.13568564, -0.008294191, -695239.06, 144696.1, 0.0, 10.001264, 9.999231 
1.2850633e+3, 2.2429147e+2, -489464.84, -661899.0, 63603.008, 0.15543231, 0.0077039236, -468543.1, 273396.47, 0.0, 10.001857, 9.999584 
1.2850921e+3, 2.342906e+2, -520069.66, -613889.56, 2283.606, -0.062150013, -0.06671961, -520014.1, 123931.82, 0.0, 10.000927, 9.999685 
1.2851222e+3, 2.4429011e+2, -443251.44, -645095.5, -33046.52, -0.0947685, -0.022960544, -437978.7, 107970.85, 0.0, 10.001269, 9.998639 
1.2851545e+3, 2.5429e+2, -61414.973, -405279.6, -35393.277, 0.12246296, 0.07761847, -57809.813, 390140.88, 0.0, 10.003205, 9.998678 
1.2851864e+3, 2.6428807e+2, 41010.426, -377005.03, 106488.05, 0.12046899, 0.056258332, 66574.51, 416542.6, 0.00000014147287, 10.003552, 9.998033 
1.2852174e+3, 2.742835e+2, -105685.74, -394830.25, 78235.79, -0.17347829, -0.22505808, -85874.375, 166134.69, 0.000007879153, 10.001864, 9.998047 
1.2852494e+3, 2.8428093e+2, -73599.16, -336694.6, -9092.812, -0.25495896, -0.2704084, -73285.27, 80747.32, 0.00006527563, 10.001451, 9.997969 
1.2852825e+3, 2.9428056e+2, 197907.61, -149393.38, 7980.526, -0.04255856, -0.13950844, 198090.89, 254127.67, 0.000269289, 10.002607, 9.998026 
1.285314e+3, 3.0427843e+2, 226999.66, -229833.83, -14598.16, 0.04477713, -0.085682854, 227465.67, 227465.67, 0.00069755525, 10.002996, 9.996959 
1.285342e+3, 3.1427673e+2, 316127.2, 88179.41, 5235.905, -0.098916106, 0.005859863, 316247.4, 316247.4, 0.0013291562, 10.002351, 9.999458 
1.2947503e+3, 1.242663e+2, -1836691.9, -1799898.8, 76312.945, -0.03456787, -0.09556016, -1739796.3, -17616.713, 0.0050962004, 9.999229, 9.999764 
1.2947816e+3, 1.3426477e+2, -1755237.3, -1850914.9, 30586.049, 0.12693049, -0.11797413, -1746295.3, -122099.625, 0.0028611089, 9.999742, 9.998509 
1.2948103e+3, 1.4426339e+2, -1583372.8, -1602240.0, 66464.875, -0.18347143, -0.1464339, -1525675.4, 535.3293, 0.00111182, 9.999758, 9.999525 
1.294843e+3, 1.5426384e+2, -1478592.1, -1486037.3, 77965.68, -0.1025944, -0.089356355, -1404260.3, 23947.898, 0.000219555, 9.9997425, 9.999659 
1.2948754e+3, 1.6426392e+2, -1359978.5, -1371748.8, 74410.805, -0.040127084, -0.03897854, -1291220.4, 38987.438, 0.0000074533, 9.999831, 9.999731 
1.294907e+3, 1.7426361e+2, -1221721.0, -1244597.5, 96156.63, -0.061120115, -0.073051706, -1136324.8, 95884.83, 0.0, 10.000077, 9.999807 
1.2949388e+3, 1.8426374e+2, -1198949.3, -1250161.6, 51122.47, -0.029477825, -0.002480725, -1167378.6, -33168.563, 0.0, 9.999863, 9.999196 
1.2949711e+3, 1.9426407e+2, -1205277.4, -1199960.9, 39006.656, 0.099261284, 0.08775794, -1163522.0, -127309.5, 0.0, 9.999129, 9.999225 
1.2950021e+3, 2.042635e+2, -1015871.1, -974147.7, 48175.582, 0.074895754, 0.08552533, -942510.9, -4292.72, 0.0, 9.999404, 9.999964 
1.2950313e+3, 2.1426156e+2, -661998.4, -731601.4, 96126.08, -0.15705161, -0.14115113, -594567.94, 245661.17, 0.0, 10.001074, 10.000147 
1.2950617e+3, 2.2426005e+2, -600748.9, -849609.06, 23388.328, -0.21133445, -0.21477628, -598569.9, 143670.52, 0.0, 10.001667, 9.99839 
1.2950934e+3, 2.3425898e+2, -634217.94, -818842.7, -17068.184, -0.021658612, -0.17614087, -632653.3, 11599.858, 0.0, 10.000779, 9.998355 
1.2951249e+3, 2.4425802e+2, -460974.84, -631630.44, 20631.229, 0.028399395, -0.11778006, -458516.06, 87746.266, 0.0, 10.001068, 9.998823 
1.2951556e+3, 2.5425696e+2, -73893.875, -378098.5, 50781.555, -0.106922485, -0.14018361, -65640.71, 382628.3, 0.0, 10.002991, 9.998961 
1.2951878e+3, 2.642551e+2, -22726.42, -478578.94, 40904.14, -0.12007845, -0.13619055, -19085.135, 331201.1, 0.000000052302592, 10.003408, 9.99741 
1.2952216e+3, 2.7425227e+2, -169414.63, -498610.44, 31946.51, 0.029810525, -0.18346359, -166343.06, 85974.08, 0.000007172051, 10.001738, 9.997397 
1.2952541e+3, 2.842507e+2, -29024.426, -217253.47, 18677.62, 0.049800716, -0.13392821, -27188.979, 127142.87, 0.00006969282, 10.0013275, 9.99885 
1.2952846e+3, 2.9425043e+2, 242109.22, -22391.89, 69799.55, -0.103777625, -0.09565378, 259398.58, 315728.13, 0.00030090337, 10.002453, 9.998973 
1.2953153e+3, 3.0424774e+2, 194097.05, -268308.28, -45062.566, -0.13209155, -0.13646813, 198447.56, 198447.56, 0.00078645255, 10.002869, 9.9967575 
1.295344e+3, 3.1424186e+2, 253801.02, 11761.45, 19290.844, -0.18133886, -0.44046733, 255328.88, 255328.88, 0.0014985187, 10.0021305, 9.999038 
1.3047501e+3, 1.242349e+2, -1813451.5, -1775376.3, 39391.555, 0.0449685, -0.12252056, -1750663.1, -28177.035, 0.0054552136, 9.999345, 9.999877 
1.3047807e+3, 1.3423382e+2, -1725686.3, -1829610.5, -57302.145, 0.070893906, -0.10327949, -1700294.8, -75793.805, 0.003073975, 9.999926, 9.998567 
1.3048099e+3, 1.4423345e+2, -1572993.4, -1573083.1, 56031.9, -0.17923343, -0.04236979, -1517006.3, 9501.017, 0.0012055306, 9.999716, 9.999737 
1.3048433e+3, 1.542339e+2, -1493572.0, -1461708.4, 16190.955, -0.03087391, -0.014195886, -1454925.3, -26421.193, 0.000244213, 9.999506, 9.999927 
1.3048759e+3, 1.6423391e+2, -1438246.3, -1390767.5, 23475.121, 0.05611035, 0.007049334, -1381120.6, -50616.99, 0.000009295233, 9.999241, 9.999878 
1.3049068e+3, 1.7423333e+2, -1364650.4, -1296262.9, 12139.203, -0.038223434, -0.06279008, -1294172.0, -61665.414, 0.0, 9.999044, 9.999945 
1.3049382e+3, 1.8423344e+2, -1278889.6, -1253217.0, 15030.541, -0.019936696, -0.014455752, -1246287.5, -111781.414, 0.0, 9.99914, 9.999535 
1.3049711e+3, 1.9423427e+2, -1108002.8, -1109334.4, 51018.902, 0.16543978, 0.08621688, -1057645.4, -21143.023, 0.0, 9.999603, 9.99962 
1.3050024e+3, 2.042339e+2, -953556.3, -943143.4, 127906.4, 0.15628517, 0.08343688, -820337.56, 118167.6, 0.0, 9.999826, 9.999975 
1.305032e+3, 2.1423183e+2, -860110.0, -831270.5, 84170.02, -0.11917022, -0.15454984, -760294.0, 80223.875, 0.0, 9.999731, 10.000114 
1.3050629e+3, 2.2423014e+2, -826157.8, -999381.9, 6618.6973, -0.18748416, -0.22672501, -825905.25, -83374.04, 0.0, 10.000294, 9.998016 
1.3050951e+3, 2.3422879e+2, -530199.1, -811160.9, 6447.212, 0.023920106, -0.17824176, -530051.25, 114495.62, 0.0, 10.001679, 9.997963 
1.3051267e+3, 2.4422717e+2, -335942.0, -624973.5, 94418.06, 0.059703194, -0.14448917, -307832.22, 238730.5, 0.0, 10.002141, 9.998357 
1.3051575e+3, 2.5422496e+2, -339460.34, -560592.56, 48605.473, -0.13231015, -0.23550852, -329248.3, 119332.766, 0.0, 10.001375, 9.998495 
1.3051897e+3, 2.6422322e+2, -318071.9, -596910.56, 25587.203, -0.13749664, -0.20751062, -315743.38, 34854.688, 0.000000026393016, 10.001286, 9.997617 
1.305224e+3, 2.742219e+2, -91236.9, -437885.6, 46563.984, 0.09658652, -0.122757, -85091.09, 167523.94, 0.0000066700077, 10.002165, 9.997618 
1.3052563e+3, 2.8422058e+2, 118374.93, -139365.08, 87918.25, 0.11393659, -0.06265184, 145508.44, 300135.75, 0.00007506801, 10.002312, 9.998908 
1.3052861e+3, 2.9421914e+2, 117580.695, -76237.61, 44029.395, -0.15073094, -0.14555185, 127113.88, 183748.88, 0.00033560226, 10.001571, 9.999023 
1.3053174e+3, 3.0421686e+2, 43082.57, -284266.3, -50057.813, -0.1363711, -0.17539625, 50566.266, 50566.266, 0.0008831013, 10.001587, 9.99726 
1.3053478e+3, 3.1421155e+2, 331300.66, 67433.9, 11422.1875, -0.012493487, -0.46944654, 331794.2, 331794.2, 0.001684596, 10.002578, 9.999208 
1.3147485e+3, 1.2420033e+2, -1734412.1, -1616809.5, 103755.86, -0.09858854, -0.1970911, -1556351.1, 166477.8, 0.005819013, 9.999364, 10.000962 
1.3147782e+3, 1.342022e+2, -1600754.9, -1575516.6, -36584.406, -0.17968072, -0.051772997, -1549436.1, 75377.086, 0.0032902497, 9.999941, 10.000308 
1.3148105e+3, 1.4420392e+2, -1567212.0, -1563181.0, 25957.248, -0.11510822, 0.11962935, -1539161.1, -12362.405, 0.0013013786, 9.999731, 9.999798 
1.314843e+3, 1.5420403e+2, -1505004.1, -1481814.3, 16323.934, -0.02259417, 0.12488393, -1473386.4, -44586.44, 0.00026992275, 9.99949, 9.999799 
1.3148755e+3, 1.6420323e+2, -1436273.0, -1395312.5, -570.89166, 0.07510495, 0.07634418, -1395304.5, -64497.258, 0.00001153221, 9.999264, 9.999841 
1.3149072e+3, 1.7420122e+2, -1360627.5, -1294313.5, 12561.034, 0.087868944, -0.14093927, -1292014.0, -59190.887, 0.0, 9.999059, 9.999954 
1.3149387e+3, 1.8420093e+2, -1197260.8, -1072580.4, 16260.438, 0.07804278, -0.19097076, -1070494.6, 64327.87, 0.0, 9.999095, 10.0007925 
1.3149697e+3, 1.9420287e+2, -1022737.1, -915824.2, 78135.59, 0.055344485, -0.116889454, -874608.8, 162192.22, 0.0, 9.999529, 10.000985 
1.3150015e+3, 2.0420372e+2, -1025351.7, -1064743.1, 114154.57, 0.074631006, -0.035163518, -929206.2, 9585.257, 0.0, 9.999709, 9.999196 
1.3150345e+3, 2.1420291e+2, -948244.75, -986409.4, 93158.88, 0.14782645, -0.049910665, -872233.9, -31433.566, 0.0, 9.999601, 9.999116 
1.3150662e+3, 2.2420175e+2, -823444.4, -951305.5, 44087.67, 0.12034102, -0.033744734, -809716.44, -66904.695, 0.0, 10.000118, 9.998428 
1.3150965e+3, 2.3419999e+2, -521529.94, -751928.3, 72296.57, -0.02555897, -0.078915074, -500723.1, 144104.73, 0.0, 10.001504, 9.998457 
1.3151275e+3, 2.4419752e+2, -433266.34, -786584.75, 59132.4, -0.10067712, -0.106475994, -423632.44, 123219.14, 0.0, 10.001964, 9.9973345 
1.3151595e+3, 2.5419414e+2, -442530.56, -738709.0, 33610.336, -0.0717046, -0.20076509, -438764.38, 10121.181, 0.0, 10.001218, 9.997351 
1.315192e+3, 2.6419234e+2, -279213.2, -484535.03, 43371.53, -0.051204883, -0.1540232, -270427.47, 80476.125, 0.000000066602475, 10.001149, 9.998453 
1.3152248e+3, 2.7419236e+2, -45870.227, -301872.4, 96641.42, -0.061311442, -0.037864495, -13484.772, 239418.64, 0.0000067822207, 10.001997, 9.998627 
1.3152564e+3, 2.841907e+2, 56090.965, -248034.42, 53034.207, -0.14060636, -0.032851327, 65073.887, 219991.56, 0.000081610815, 10.002208, 9.9982195 
1.3152865e+3, 2.9418683e+2, 38590.4, -206601.95, 35471.086, -0.28963518, -0.28279862, 43618.75, 100570.46, 0.0003693932, 10.001418, 9.99821 
1.3153195e+3, 3.0418563e+2, 93932.34, -148757.52, -24901.094, -0.097476445, -0.20681334, 96460.97, 96460.97, 0.00097588636, 10.001464, 9.998242 
1.3153528e+3, 3.141854e+2, 335628.28, 143070.19, 75347.87, 0.16601843, -0.10294704, 361607.0, 361607.0, 0.0018645462, 10.002311, 9.999847 
1.3247481e+3, 1.24167815e+2, -1996424.0, -1697893.0, 185375.47, 0.027260812, -0.14658569, -1609158.0, 113991.97, 0.006183249, 9.997326, 10.001401 
1.324776e+3, 1.3417016e+2, -1797774.6, -1554048.6, -20213.016, -0.28654027, -0.051633246, -1552383.8, 72743.71, 0.0035072896, 9.998101, 10.0013275 
1.3248111e+3, 1.4417224e+2, -1708164.9, -1612992.4, 29074.316, 0.037382014, 0.09192382, -1604813.3, -77705.195, 0.0013982238, 9.998685, 9.999964 
1.3248426e+3, 1.5417215e+2, -1509820.5, -1476835.6, 13196.926, -0.0059852856, 0.06960167, -1472205.6, -43094.926, 0.00029637254, 9.99942, 9.999873 
1.3248746e+3, 1.641715e+2, -1370905.8, -1348624.1, 19454.58, 0.059755962, 0.025959365, -1337346.3, -6229.5254, 0.000014169166, 9.999654, 9.999966 
1.324907e+3, 1.741701e+2, -1319382.4, -1264306.4, 13428.474, 0.1574781, -0.14079814, -1261206.8, -28079.41, 0.0, 9.999298, 10.000045 
1.3249384e+3, 1.8416986e+2, -1181410.8, -1067209.0, 22197.387, 0.1554725, -0.18950875, -1063046.3, 72080.01, 0.0, 9.999225, 10.000761 
1.324969e+3, 1.9417104e+2, -1017153.5, -920063.0, -49428.91, 0.03474773, -0.18357289, -899327.25, 137783.17, 0.0, 9.999608, 10.000913 
1.3250011e+3, 2.0417164e+2, -1002286.44, -1082002.3, -44808.08, 0.046747472, -0.11143598, -982174.25, -43070.484, 0.0, 9.999984, 9.998944 
1.3250352e+3, 2.141713e+2, -858436.5, -968777.75, -34795.418, 0.23085691, -0.052097555, -848380.44, -7269.6987, 0.0, 10.000335, 9.998878 
1.3250677e+3, 2.2417052e+2, -716675.0, -865292.6, -8516.124, 0.23212554, 0.00004429715, -716188.6, 26931.324, 0.0, 10.000706, 9.998742 
1.3250978e+3, 2.3416898e+2, -549240.06, -717656.06, -11506.329, 0.0024669536, -0.057129495, -548457.56, 96675.4, 0.0, 10.001119, 9.998877 
1.3251291e+3, 2.4416685e+2, -485794.34, -793792.25, -177.50516, -0.09357922, -0.08011202, -485794.25, 61358.883, 0.0, 10.001533, 9.997491 
1.3251616e+3, 2.5416386e+2, -329308.5, -666598.7, 35805.363, -0.012206912, -0.1497223, -325549.44, 123634.28, 0.0, 10.001934, 9.997496 
1.3251941e+3, 2.6416203e+2, -172299.83, -440301.63, 100582.805, 0.0053879344, -0.11034508, -138750.31, 212451.34, 0.0000000978673, 10.001921, 9.998383 
1.3252261e+3, 2.7416146e+2, -140100.1, -355933.0, 51098.29, -0.08334817, -0.04066376, -128613.89, 124591.83, 0.000006920427, 10.001386, 9.998549 
1.3252574e+3, 2.8415936e+2, -123077.26, -360424.47, -7626.7964, -0.1832748, -0.06757972, -122832.44, 32391.87, 0.000086783395, 10.001117, 9.997962 
1.325288e+3, 2.9415515e+2, 21377.375, -243987.27, -27510.145, -0.27506027, -0.3190903, 24199.32, 81461.74, 0.00039493892, 10.001437, 9.997935 
1.3253216e+3, 3.0415392e+2, 172449.88, -111368.164, -27825.115, -0.0420505, -0.22902457, 175152.08, 175152.08, 0.0010490068, 10.002016, 9.998233 
1.3253553e+3, 3.1415483e+2, 355883.88, 104789.61, -65729.26, 0.19866851, -0.011275529, 372049.2, 372049.2, 0.00200862, 10.002649, 9.999425 
1.3347454e+3, 1.24137454e+2, -2006636.3, -1708152.4, 6965.351, -0.007024872, 0.016242975, -1707989.9, 15458.025, 0.0065457188, 9.997282, 10.001347 
1.3347737e+3, 1.3413775e+2, -1792060.9, -1534981.4, 14478.816, -0.34012616, -0.108864665, -1534168.5, 91274.52, 0.0037237175, 9.998062, 10.001479 
1.3348114e+3, 1.4413814e+2, -1681392.9, -1559170.8, 38283.832, 0.16708967, -0.16156706, -1548169.3, -20731.32, 0.0014951822, 9.998682, 10.000342 
1.3348414e+3, 1.541383e+2, -1479077.3, -1421544.6, 52919.465, -0.08196347, -0.19585256, -1390078.4, 39357.84, 0.00032323142, 9.999441, 10.00025 
1.334873e+3, 1.6413884e+2, -1359360.3, -1323380.6, -4271.611, -0.10648743, -0.14703517, -1322880.4, 8550.224, 0.000017128494, 9.999649, 10.00014 
1.3349056e+3, 1.7414014e+2, -1308565.0, -1239897.9, 11667.613, 0.07787454, -0.06381352, -1237969.5, -4551.372, 0.00000000003443261, 9.9992895, 10.000216 
1.3349375e+3, 1.8414037e+2, -1283709.3, -1280137.9, 20803.082, 0.116109625, -0.008799951, -1261044.0, -125628.234, 0.0, 9.999221, 9.999308 
1.3349685e+3, 1.9413882e+2, -1137494.5, -1159053.1, -25603.262, 0.008518901, -0.11450499, -1120493.9, -83063.48, 0.0, 9.99955, 9.999306 
1.3350005e+3, 2.0413767e+2, -999804.7, -1048565.94, -45417.098, -0.023832392, -0.14421992, -972637.94, -33196.016, 0.0, 9.999863, 9.999233 
1.3350338e+3, 2.1413696e+2, -849742.44, -917770.44, -11407.139, 0.040365297, -0.16807742, -847880.6, -6430.8203, 0.0, 10.000182, 9.999309 
1.3350667e+3, 2.2413635e+2, -722736.5, -837979.6, -1701.0521, 0.04884611, -0.13177243, -722711.4, 20745.002, 0.0, 10.000533, 9.99901 
1.3350992e+3, 2.3413584e+2, -555223.5, -695619.1, 19115.322, -0.00012803679, -0.11302, -552667.4, 92794.07, 0.0, 10.000963, 9.999105 
1.3351314e+3, 2.4413514e+2, -422064.28, -622872.56, 3750.6978, -0.03996746, -0.06367858, -421994.25, 125473.086, 0.0, 10.00137, 9.998739 
1.3351633e+3, 2.54134e+2, -259098.33, -487287.97, 63212.09, -0.060431387, -0.08200709, -242757.73, 206718.67, 0.0, 10.00179, 9.9987955 
1.3351955e+3, 2.6413217e+2, -250636.88, -581265.25, 71349.055, -0.07023329, -0.068802245, -235897.0, 115595.96, 0.00000008871969, 10.001822, 9.997462 
1.3352276e+3, 2.7412924e+2, -234528.56, -523426.94, 47206.797, -0.079514526, -0.13145944, -227010.48, 26511.264, 0.000006673535, 10.001262, 9.997458 
1.3352592e+3, 2.8412652e+2, -136562.88, -368122.03, -10821.415, -0.14334819, -0.15904829, -136058.25, 19488.668, 0.00008871381, 10.001027, 9.997952 
1.33529e+3, 2.9412407e+2, 6743.296, -241564.98, 6453.9897, -0.23631012, -0.24679147, 6910.934, 64478.566, 0.0004076121, 10.00129, 9.998027 
1.3353235e+3, 3.04122e+2, 97469.22, -231597.16, -4057.7314, -0.090333685, -0.20946759, 97519.24, 97519.24, 0.0010927352, 10.001876, 9.997469 
1.3353556e+3, 3.1412002e+2, 226650.7, -105446.484, -8512.035, -0.077368215, -0.19489257, 226868.73, 226868.73, 0.0021020344, 10.002404, 9.998097 
1.3447432e+3, 1.2410641e+2, -2036782.9, -1751710.5, -50681.977, 0.063166276, 0.056864902, -1742968.1, -19215.738, 0.0069055543, 9.997206, 10.001084 
1.3447724e+3, 1.3410628e+2, -1743182.4, -1548458.3, 56114.57, -0.2845695, -0.07716384, -1533445.0, 92307.84, 0.0039389143, 9.998565, 10.00115 
1.3448106e+3, 1.4410605e+2, -1615462.4, -1514180.5, 41600.855, 0.2044786, -0.1781018, -1499284.1, 28469.852, 0.0015916337, 9.999085, 10.000453 
1.3448408e+3, 1.5410605e+2, -1558900.0, -1442533.8, 8277.923, -0.04616618, -0.24005404, -1441947.9, -12195.268, 0.0003501717, 9.998842, 10.000384 
1.3448723e+3, 1.6410694e+2, -1448701.5, -1350133.6, -37751.24, -0.094064124, -0.17117593, -1337336.5, -5592.937, 0.000020254476, 9.998969, 10.000285 
1.3449046e+3, 1.7410915e+2, -1254154.8, -1193926.9, -50142.71, 0.04896276, -0.008571158, -1165550.4, 68172.58, 0.0000000014653116, 9.99959, 10.000381 
1.3449368e+3, 1.8410954e+2, -1205749.9, -1262607.3, 21240.74, 0.10820706, 0.06174496, -1198691.1, -62971.555, 0.0, 9.999851, 9.999118 
1.3449687e+3, 1.941071e+2, -1128110.3, -1176733.9, 57855.965, 0.07874432, -0.112288624, -1089665.5, -51922.406, 0.0, 9.999723, 9.999093 
1.3450007e+3, 2.0410565e+2, -997735.25, -1002254.06, 127795.95, 0.035708565, -0.1778709, -872178.75, 67577.945, 0.0, 9.999679, 9.999644 
1.3450329e+3, 2.1410558e+2, -889010.8, -874239.94, 135663.95, -0.035630807, -0.19032419, -745760.56, 95995.86, 0.0, 9.999661, 9.999847 
1.345066e+3, 2.2410525e+2, -817903.7, -885928.25, 170528.23, -0.04397339, -0.15434083, -678028.9, 65730.27, 0.0, 9.999891, 9.998988 
1.3451004e+3, 2.3410451e+2, -628213.1, -736844.3, 147083.56, 0.049292672, -0.15386572, -525736.6, 120030.89, 0.0, 10.000499, 9.999042 
1.3451335e+3, 2.4410386e+2, -468016.9, -634542.5, 99698.45, 0.0667617, -0.09951997, -421385.6, 126387.79, 0.0, 10.001017, 9.998832 
1.3451652e+3, 2.5410324e+2, -309335.72, -496051.44, 46661.984, -0.018260922, -0.07579516, -298323.9, 151453.45, 0.0, 10.00139, 9.998927 
1.3451971e+3, 2.641015e+2, -247517.06, -591714.56, 48582.445, -0.069697134, -0.058139686, -240791.22, 111002.34, 0.000000062099474, 10.001905, 9.997349 
1.3452294e+3, 2.7409792e+2, -33222.32, -440236.88, 60072.375, -0.08162621, -0.16852535, -24541.232, 229287.56, 0.0000065347235, 10.002707, 9.99733 
1.3452613e+3, 2.8409526e+2, 110745.266, -252856.11, 49165.15, -0.10990531, -0.18424655, 117275.945, 273129.72, 0.00008986311, 10.00273, 9.9979315 
1.3452926e+3, 2.940939e+2, 65057.895, -200086.66, 23801.623, -0.1203174, -0.16213973, 67177.586, 125041.05, 0.00041355038, 10.001645, 9.998135 
1.3453262e+3, 3.040912e+2, 73083.055, -294717.5, 108720.1, 0.00933571, -0.1820686, 102816.51, 102816.51, 0.0011132387, 10.0018835, 9.997055 
1.3453583e+3, 3.1408805e+2, 377762.0, -76020.086, 65328.87, -0.09796683, -0.23598024, 386979.84, 386979.84, 0.0021484285, 10.003633, 9.997703 
1.35474e+3, 1.24074645e+2, -2070542.1, -1813172.8, -160848.86, -0.033495232, -0.05526189, -1735866.9, -11803.473, 0.0072628423, 9.997184, 10.000673 
1.3547722e+3, 1.3407597e+2, -1799782.8, -1669815.9, 121009.32, -0.2011036, 0.040147588, -1597445.4, 28609.35, 0.004152666, 9.998588, 10.000306 
1.354808e+3, 1.4407633e+2, -1637314.1, -1559281.1, 20356.05, 0.016103808, 0.063292496, -1554290.1, -26237.273, 0.0016872559, 9.999084, 10.000142 
1.3548404e+3, 1.5407556e+2, -1572955.5, -1477007.9, 10310.646, -0.0007353166, -0.055094216, -1475912.4, -45853.113, 0.0003769789, 9.998854, 10.000145 
1.3548724e+3, 1.6407569e+2, -1440151.6, -1333574.9, -32994.418, 0.004956198, -0.05579809, -1324187.3, 7869.6895, 0.000023370363, 9.998971, 10.0004 
1.3549039e+3, 1.7407706e+2, -1248740.1, -1178848.5, -18029.705, -0.009401713, 0.008423996, -1174471.5, 59571.438, 0.0000000068048798, 9.999564, 10.000503 
1.354936e+3, 1.8407734e+2, -1135180.9, -1104467.1, 4203.813, 0.021714376, 0.01197053, -1103902.1, 32136.094, 0.0, 9.9998045, 10.000222 
1.3549693e+3, 1.940759e+2, -1052508.0, -1007098.06, 65577.1, 0.1435188, -0.18369858, -960406.56, 77641.92, 0.0, 9.999662, 10.000288 
1.3550015e+3, 2.0407565e+2, -977914.6, -932682.9, 113397.27, 0.12550399, -0.21722178, -839668.25, 100379.234, 0.0, 9.999562, 10.000175 
1.3550322e+3, 2.1407709e+2, -881816.06, -821166.9, 145113.48, -0.089619465, -0.12451765, -703243.4, 138787.7, 0.0, 9.999494, 10.000295 
1.355065e+3, 2.2407708e+2, -865729.9, -940657.3, 175668.66, -0.13843258, -0.070736304, -723574.56, 20455.559, 0.0, 9.999701, 9.998705 
1.355101e+3, 2.3407489e+2, -677742.7, -802134.1, 179995.95, 0.054808795, -0.17771655, -549499.8, 96552.28, 0.0, 10.000338, 9.998672 
1.3551353e+3, 2.4407305e+2, -559085.94, -786381.6, 101787.984, 0.12625003, -0.1781505, -520166.97, 27904.135, 0.0, 10.000854, 9.9978695 
1.355167e+3, 2.5407162e+2, -402583.53, -654912.44, 73511.61, 0.015263367, -0.1339176, -382729.4, 67357.32, 0.0, 10.001241, 9.997911 
1.3551989e+3, 2.6406986e+2, -228202.98, -521096.3, 64034.676, -0.093024306, -0.08613684, -214815.16, 137289.55, 0.000000036385206, 10.001771, 9.997901 
1.3552313e+3, 2.7406737e+2, -15567.691, -358487.13, 104741.59, -0.18988773, -0.15418932, 13893.56, 268021.84, 0.0000068750182, 10.002512, 9.997989 
1.3552633e+3, 2.8406543e+2, 87282.016, -263999.2, 1832.0043, -0.1999899, -0.1329748, 87291.57, 243437.3, 0.00009120505, 10.002569, 9.9979315 
1.355295e+3, 2.9406413e+2, 46449.176, -222170.92, 13.66151, -0.05608431, -0.095681496, 46449.176, 104604.336, 0.00041555686, 10.001563, 9.998031 
1.3553293e+3, 3.0406082e+2, 49133.332, -315538.72, 152707.6, 0.12688412, -0.1648225, 104633.46, 104633.46, 0.0011140582, 10.001778, 9.996956 
1.3553622e+3, 3.1405792e+2, 342738.16, -61090.137, 149833.52, -0.11766041, -0.1871239, 392258.72, 392258.72, 0.0021475272, 10.003267, 9.997978 
1.364737e+3, 1.2404319e+2, -1912140.4, -1748287.5, -158294.67, -0.09914948, -0.08874688, -1651975.0, 72396.56, 0.0076198755, 9.998309, 10.000578 
1.3647716e+3, 1.3404459e+2, -1936998.3, -1782795.8, 119117.695, -0.05729834, 0.050584927, -1718004.0, -91639.73, 0.004366158, 9.997835, 9.999895 
1.364805e+3, 1.4404547e+2, -1831834.4, -1610579.5, 87302.22, -0.120525025, 0.13162372, -1580281.1, -51923.13, 0.0017823466, 9.997564, 10.000521 
1.3648386e+3, 1.5404554e+2, -1588061.5, -1430156.9, 110825.695, -0.025670066, 0.04976171, -1373036.4, 57318.02, 0.0004035849, 9.998524, 10.000621 
1.3648719e+3, 1.6404551e+2, -1455479.5, -1379125.3, 104754.05, 0.053156752, 0.022614269, -1305808.4, 26544.48, 0.000026350568, 9.999017, 10.00007 
1.3649036e+3, 1.7404541e+2, -1371925.6, -1280483.6, 52485.84, 0.047022488, -0.023050858, -1256597.4, -22243.316, 0.000000016360648, 9.998901, 10.000121 
1.3649358e+3, 1.8404537e+2, -1244291.9, -1136161.4, 44274.906, 0.074288175, -0.038007334, -1120345.9, 16007.154, 0.0, 9.998957, 10.000418 
1.3649689e+3, 1.9404535e+2, -1092424.5, -992655.06, 7680.639, 0.16703567, -0.11947345, -992067.2, 46282.625, 0.0, 9.999251, 10.000584 
1.3650012e+3, 2.0404573e+2, -948697.25, -941195.5, 26164.822, 0.1433172, -0.09991765, -918514.06, 21829.31, 0.0, 9.999852, 9.999979 
1.3650326e+3, 2.1404657e+2, -691591.56, -756814.8, -13987.552, -0.050351232, -0.040764168, -688718.44, 153614.86, 0.0, 10.000913, 10.000053 
1.3650657e+3, 2.2404616e+2, -633280.2, -833333.9, 7777.939, -0.09301378, -0.010783752, -632978.25, 111357.88, 0.0, 10.001312, 9.998665 
1.3651016e+3, 2.3404385e+2, -624204.75, -782663.75, 7048.164, 0.07249731, -0.12390221, -623891.9, 22466.404, 0.0, 10.000718, 9.998629 
1.365136e+3, 2.4404173e+2, -590092.7, -810459.94, 16594.807, 0.13467434, -0.14634866, -588850.0, -40470.676, 0.0, 10.000686, 9.997781 
1.3651684e+3, 2.5403976e+2, -359542.9, -642397.4, 30661.725, 0.03693325, -0.14706318, -356257.3, 94142.266, 0.0, 10.0015745, 9.997832 
1.3652012e+3, 2.6403794e+2, -217763.97, -508908.5, 49314.465, -0.044049375, -0.10433153, -209637.83, 142780.47, 0.000000033203506, 10.001814, 9.997963 
1.365234e+3, 2.740362e+2, -204063.98, -431997.1, 17638.53, -0.1043117, -0.111169465, -202707.11, 51728.97, 0.0000069323874, 10.001151, 9.998131 
1.3652661e+3, 2.8403443e+2, -90302.234, -376665.8, -69008.695, -0.11763561, -0.07030675, -74539.93, 81913.31, 0.000089487476, 10.00149, 9.997666 
1.3652977e+3, 2.9403248e+2, 303895.2, -124527.15, -108969.93, -0.029558351, -0.06605752, 330018.94, 388489.06, 0.00040599646, 10.003465, 9.997777 
1.3653319e+3, 3.0402908e+2, 360633.47, -121377.05, 49916.24, 0.12153571, -0.14690351, 365748.44, 365748.44, 0.0010861106, 10.003736, 9.997353 
1.3653654e+3, 3.140275e+2, 107906.81, -71448.18, 18052.28, -0.012696986, -0.07674105, 109705.75, 109705.75, 0.0020927999, 10.001184, 9.998929 
1.3747361e+3, 1.2401211e+2, -1905213.6, -1742449.6, -80874.12, -0.065686025, -0.047281552, -1709098.8, 15577.0, 0.0079810945, 9.998357, 10.000586 
1.3747704e+3, 1.3401197e+2, -1936360.9, -1782849.1, 95219.195, 0.021899125, -0.06502752, -1737301.4, -110618.625, 0.0045821774, 9.997828, 9.999901 
1.3748008e+3, 1.4401327e+2, -1755643.6, -1446812.6, 96184.33, -0.31304303, 0.0052216537, -1419306.3, 109364.27, 0.0018779465, 9.997538, 10.00166 
1.3748354e+3, 1.5401593e+2, -1503623.4, -1252480.8, 161426.52, -0.22356096, 0.05711734, -1173536.4, 257101.73, 0.00043006244, 9.998508, 10.001851 
1.37487e+3, 1.6401656e+2, -1506345.3, -1486329.3, 89094.4, -0.06643765, 0.0631987, -1406682.5, -74053.07, 0.000029160963, 9.99902, 9.999335 
1.3749035e+3, 1.7401434e+2, -1437154.8, -1416247.3, 59519.676, 0.11762072, -0.10188535, -1366270.3, -131615.34, 0.000000027808229, 9.998891, 9.999203 
1.374936e+3, 1.8401377e+2, -1299781.6, -1244400.9, 40096.75, 0.16641928, -0.08873021, -1223362.3, -86699.13, 0.0, 9.998932, 9.999686 
1.3749671e+3, 1.940154e+2, -1158360.3, -1108918.5, 26909.53, 0.05675094, 0.0709668, -1097098.4, -58450.387, 0.0, 9.999159, 9.999834 
1.3749996e+3, 2.0401575e+2, -1025479.0, -1071334.8, 49910.043, -0.017548395, 0.16743408, -993482.4, -52836.914, 0.0, 9.999726, 9.999146 
1.375034e+3, 2.1401411e+2, -777854.56, -895681.9, 39097.973, -0.02858827, 0.063246444, -766061.25, 76600.72, 0.0, 10.000736, 9.999187 
1.375068e+3, 2.240127e+2, -652268.44, -825096.7, -19951.701, -0.023506284, 0.034713794, -649995.06, 94680.305, 0.0, 10.001111, 9.9988165 
1.3751017e+3, 2.3401149e+2, -634675.3, -757947.6, -1986.011, -0.0022150767, 0.0056516076, -634643.3, 12041.754, 0.0, 10.000525, 9.998887 
1.3751353e+3, 2.440099e+2, -563278.75, -721752.94, 29068.604, -0.008735331, -0.008261122, -558115.0, -9417.036, 0.0, 10.000536, 9.9984665 
1.3751695e+3, 2.5400767e+2, -330449.06, -545629.56, 75291.41, -0.042119026, -0.11027808, -306721.16, 143994.64, 0.0, 10.001411, 9.99858 
1.3752033e+3, 2.6400584e+2, -261444.72, -563572.7, 18977.246, -0.025976222, -0.09750274, -260257.38, 92475.88, 0.000000022673568, 10.00166, 9.99766 
1.3752368e+3, 2.7400425e+2, -254132.39, -504911.56, 7652.9717, 0.055369597, -0.04554744, -253899.06, 853.93024, 0.0000066245593, 10.001025, 9.997689 
1.3752691e+3, 2.8400213e+2, -128125.83, -443961.66, -17089.227, 0.019302975, 0.0077962056, -127203.86, 29572.338, 0.000084736, 10.001431, 9.997236 
1.3753003e+3, 2.9399917e+2, 241741.86, -204866.73, -11790.391, -0.14655843, -0.050773844, 242052.9, 300858.06, 0.00038240643, 10.003242, 9.997341 
1.3753335e+3, 3.0399606e+2, 385373.2, -17979.11, -30412.814, -0.10895348, -0.11556738, 387653.44, 387653.44, 0.0010237873, 10.003526, 9.998154 
1.3753669e+3, 3.1399593e+2, 173049.34, 120002.766, -45094.64, -0.014528903, 0.014391388, 198842.5, 198842.5, 0.0019802407, 10.000976, 10.000332 
1.3847344e+3, 1.23980284e+2, -2026477.0, -1806504.9, 9532.687, -0.019524097, -0.026528057, -1806092.5, -81106.055, 0.008351057, 9.997559, 10.000527 
1.3847685e+3, 1.3397974e+2, -1886798.9, -1741439.5, 36389.063, 0.03888386, -0.09586136, -1732838.8, -105841.695, 0.004803759, 9.998106, 10.000046 
1.3847981e+3, 1.439808e+2, -1694250.3, -1428668.5, 60155.996, -0.35130832, -0.052661847, -1415678.1, 113308.9, 0.0019753822, 9.998004, 10.001565 
1.3848338e+3, 1.5398315e+2, -1553374.6, -1285154.1, -2389.007, -0.21145836, -0.022328902, -1285132.9, 145825.0, 0.00045665295, 9.998205, 10.001773 
1.3848688e+3, 1.6398394e+2, -1563591.1, -1492914.5, -81517.5, -0.042184327, -0.0002684272, -1439405.3, -106457.4, 0.00003186285, 9.998558, 9.999506 
1.384902e+3, 1.7398268e+2, -1379109.0, -1363481.4, -57855.94, 0.08452005, -0.08840144, -1312914.0, -77949.58, 0.000000039188958, 9.999199, 9.999413 
1.3849346e+3, 1.8398227e+2, -1223230.8, -1253247.0, 7743.7036, 0.12351881, -0.05032027, -1221350.8, -84379.38, 0.0, 9.999651, 9.999282 
1.3849665e+3, 1.9398305e+2, -1052724.8, -1101049.4, -2638.526, 0.050134696, 0.06490637, -1052581.1, -13615.824, 0.0, 10.000077, 9.999437 
1.3849996e+3, 2.0398276e+2, -1003476.1, -1097149.5, 74584.164, 0.0047238534, 0.13316543, -962242.0, -21272.191, 0.0, 10.000041, 9.998814 
1.3850342e+3, 2.1398084e+2, -994902.06, -1034390.6, 74386.39, 0.004292633, 0.031637944, -937684.25, -94693.805, 0.0, 9.9993925, 9.998885 
1.3850684e+3, 2.2397946e+2, -872504.56, -932563.9, 69034.95, 0.011245068, 0.022928918, -827250.75, -82246.56, 0.0, 9.999587, 9.998823 
1.3851027e+3, 2.3397878e+2, -532209.06, -703237.94, 50082.97, 0.026917564, 0.040131193, -518622.44, 128386.65, 0.0, 10.001192, 9.998948 
1.3851365e+3, 2.439774e+2, -371587.6, -604342.0, 69265.41, 0.013163523, 0.034987018, -352534.56, 196484.84, 0.0, 10.0017605, 9.99867 
1.3851704e+3, 2.5397497e+2, -388285.53, -545928.6, 42124.008, -0.049586345, -0.10930911, -377735.56, 73302.46, 0.0, 10.000904, 9.99881 
1.3852045e+3, 2.6397312e+2, -363773.0, -609250.94, 12719.8125, -0.01736836, -0.11365729, -363115.66, -10060.247, 0.0000000049794013, 10.000939, 9.997693 
1.3852392e+3, 2.739719e+2, -50331.695, -406231.66, 11775.447, 0.14790656, -0.025993666, -49942.516, 205129.92, 0.0000064670485, 10.002405, 9.997709 
1.3852721e+3, 2.8397e+2, 85174.93, -330444.28, 45849.945, 0.12561332, 0.044879656, 90172.87, 247266.66, 0.00007993784, 10.002842, 9.997346 
1.3853025e+3, 2.9396698e+2, 61342.918, -263758.88, 55393.293, -0.14953187, -0.032917608, 70522.07, 129644.51, 0.00035406946, 10.001888, 9.99758 
1.3853356e+3, 3.039639e+2, 174318.4, -183290.67, 30970.787, -0.1651394, -0.087668575, 176980.81, 176980.81, 0.00094641367, 10.002317, 9.99761 
1.3853708e+3, 3.1396195e+2, 667991.25, 319603.75, -130948.15, 0.107323416, -0.08492177, 711721.5, 711721.5, 0.0018394237, 10.00452, 10.000004 
1.394732e+3, 1.23946615e+2, -2046121.8, -1821621.1, 39536.21, -0.06492779, -0.13196592, -1814862.0, -89547.6, 0.008733579, 9.997473, 10.000455 
1.3947651e+3, 1.3394797e+2, -1863794.5, -1696088.5, 50780.22, -0.12529388, -0.04312728, -1681911.1, -54604.617, 0.005033633, 9.998114, 10.000354 
1.3947965e+3, 1.4394832e+2, -1785934.1, -1624078.4, 40228.36, -0.34405166, -0.026249165, -1614631.3, -85326.12, 0.002076125, 9.998029, 10.000208 
1.3948333e+3, 1.5394711e+2, -1666220.3, -1511953.8, 14985.898, -0.10308211, -0.19591118, -1510511.5, -79196.9, 0.00048381835, 9.998172, 10.000233 
1.3948682e+3, 1.6394746e+2, -1491781.6, -1343710.9, -77294.61, 0.008659921, -0.1814958, -1310715.0, 22595.385, 0.000034571214, 9.998554, 10.000534 
1.3948992e+3, 1.7395024e+2, -1296630.6, -1182154.1, -26297.98, -0.1408415, 0.007623039, -1176401.9, 58882.516, 0.00000005013657, 9.999153, 10.000682 
1.3949317e+3, 1.8395095e+2, -1213811.5, -1232510.5, 6619.3857, -0.16493109, 0.08094838, -1211705.4, -74427.836, 0.0, 9.999645, 9.999426 
1.3949668e+3, 1.9394839e+2, -1065131.8, -1109752.1, 22601.488, 0.04245872, -0.13483658, -1055683.9, -16383.343, 0.0, 9.999997, 9.999422 
1.3950008e+3, 2.0394684e+2, -1007517.6, -1079469.6, 40920.15, 0.106283054, -0.20058966, -989007.56, -47691.914, 0.0, 9.9999275, 9.998989 
1.3950332e+3, 2.1394673e+2, -1008427.7, -1022835.7, 60007.543, -0.053287487, -0.13586336, -955193.25, -111874.41, 0.0, 9.999223, 9.999047 
1.3950673e+3, 2.2394648e+2, -896725.44, -951262.94, 107848.57, -0.09562472, -0.03897023, -812751.6, -67428.914, 0.0, 9.999439, 9.99877 
1.3951044e+3, 2.3394589e+2, -561083.0, -728079.5, 124947.23, 0.058821395, -0.007603519, -494302.25, 153026.47, 0.0, 10.001032, 9.998859 
1.3951392e+3, 2.4394447e+2, -416416.97, -659193.0, 34279.258, 0.085147545, 0.00016543381, -411669.7, 137671.88, 0.0, 10.0015955, 9.998371 
1.395171e+3, 2.5394163e+2, -441412.94, -613820.2, 23266.172, -0.08210322, -0.14984803, -438328.38, 13038.244, 0.0, 10.000728, 9.998426 
1.3952047e+3, 2.6393974e+2, -356926.44, -568175.7, 47277.063, -0.10730091, -0.15033059, -346828.63, 6556.567, 0.0000000011462398, 10.00082, 9.9980345 
1.3952412e+3, 2.7393925e+2, -47977.81, -359327.44, 83656.95, 0.08859031, -0.035301775, -26923.64, 228469.98, 0.0000063015364, 10.002216, 9.998129 
1.3952748e+3, 2.8393814e+2, 98585.3, -261792.75, 7986.3916, 0.09418844, 0.0653512, 98762.2, 256167.5, 0.00007549819, 10.002669, 9.997898 
1.3953045e+3, 2.9393566e+2, 75945.54, -205341.78, 37609.22, -0.16951127, -0.010645985, 80887.23, 140312.81, 0.0003302392, 10.001761, 9.998045 
1.395338e+3, 3.039323e+2, 48665.543, -412352.22, 89747.13, -0.18285646, -0.045258813, 65520.547, 65520.547, 0.00088409375, 10.002189, 9.996093 
1.395376e+3, 3.1392625e+2, 476964.7, 20637.969, -8849.535, 0.1390262, -0.28997296, 477136.25, 477136.25, 0.0017247383, 10.004112, 9.998137 
1.4047298e+3, 1.239134e+2, -2122945.0, -1833861.9, 53859.363, 0.011858002, -0.12448192, -1824153.4, -98510.71, 0.009133226, 9.996797, 10.000713 
1.4047627e+3, 1.339157e+2, -1900959.1, -1656506.8, 24521.928, -0.1379938, 0.0074957255, -1654071.1, -26447.885, 0.005275387, 9.997595, 10.000884 
1.4047953e+3, 1.439163e+2, -1794343.6, -1658961.1, 83154.336, -0.23594296, 0.028036973, -1619429.5, -89810.625, 0.0021822979, 9.9981, 9.999936 
1.4048323e+3, 1.5391448e+2, -1667492.8, -1556736.4, 111699.22, -0.013726003, -0.16559078, -1487441.1, -55805.31, 0.00051218417, 9.998352, 9.999842 
1.4048669e+3, 1.6391441e+2, -1528742.9, -1365467.4, 68249.97, 0.049163826, -0.16944136, -1340696.6, -7060.7305, 0.000037386584, 9.998316, 10.000497 
1.4048976e+3, 1.73917e+2, -1420525.9, -1233908.5, -1323.7794, -0.15805645, -0.00924839, -1233899.1, 1711.0917, 0.00000006103049, 9.99827, 10.000745 
1.4049304e+3, 1.8391763e+2, -1366985.6, -1297666.5, 18514.83, -0.18123224, 0.051099528, -1293031.1, -155428.31, 0.0, 9.998559, 9.999503 
1.4049669e+3, 1.9391535e+2, -1134504.9, -1132797.8, 14822.078, 0.083579354, -0.1468288, -1118804.6, -79181.57, 0.0, 9.999472, 9.99952 
1.4050014e+3, 2.0391397e+2, -983192.4, -1079227.5, 26669.38, 0.17477416, -0.1968359, -976283.25, -34646.836, 0.0, 10.000142, 9.99889 
1.4050333e+3, 2.1391384e+2, -808930.25, -932183.94, -1498.0669, -0.009227003, -0.12594545, -808912.06, 34727.617, 0.0, 10.000626, 9.998986 
1.4050674e+3, 2.2391349e+2, -696810.0, -844305.06, 92517.35, -0.063872874, -0.036452483, -652243.7, 93400.73, 0.0, 10.000794, 9.998838 
1.4051053e+3, 2.3391275e+2, -623270.8, -738784.2, 96698.1, 0.08290103, -0.031219317, -568393.8, 79258.3, 0.0, 10.000545, 9.999007 
1.4051408e+3, 2.4391152e+2, -544859.3, -713278.8, 25997.1, 0.12461481, -0.015777342, -540937.75, 8726.276, 0.0, 10.000673, 9.998452 
1.4051728e+3, 2.5390947e+2, -327792.0, -546282.9, 22753.06, -0.007045579, -0.093858145, -325447.72, 126235.54, 0.0, 10.001451, 9.998547 
1.4052065e+3, 2.6390788e+2, -202263.58, -487427.4, 106342.31, -0.055291016, -0.07413616, -166973.94, 186725.75, 0.0000000047036606, 10.00186, 9.998088 
1.4052425e+3, 2.73907e+2, -100533.68, -371605.38, 80844.695, 0.03092615, -0.00010381124, -78253.72, 177456.94, 0.000006310061, 10.001821, 9.998225 
1.4052765e+3, 2.8390548e+2, 23139.354, -279802.22, -18919.725, 0.031339284, 0.050209414, 24316.38, 182041.3, 0.00007173929, 10.002073, 9.998057 
1.4053077e+3, 2.9390275e+2, 226182.5, -110002.67, -40509.637, -0.08103145, -0.069971085, 230994.94, 290741.8, 0.0003165935, 10.00271, 9.998239 
1.4053415e+3, 3.0390042e+2, 176960.66, -350671.2, 114828.22, -0.086941555, -0.015964266, 200867.45, 200867.45, 0.00085306884, 10.003069, 9.996093 
1.4053793e+3, 3.1389505e+2, 292092.97, -109876.45, 85787.99, 0.12805423, -0.1817655, 309636.16, 309636.16, 0.0016671325, 10.003004, 9.997782 
1.414725e+3, 1.2388084e+2, -2065103.4, -1711666.0, -28870.8, -0.1845298, -0.0005599992, -1709323.1, 16646.598, 0.009556688, 9.996788, 10.001558 
1.4147608e+3, 1.3388303e+2, -1851432.3, -1547877.8, 66254.25, -0.104828686, 0.048147842, -1534047.3, 93899.78, 0.0055341963, 9.997566, 10.00165 
1.4147946e+3, 1.4388458e+2, -1727499.4, -1526485.4, 77510.13, -0.16006878, 0.07881029, -1500069.3, 29860.44, 0.0022969088, 9.998128, 10.0008335 
1.4148304e+3, 1.5388545e+2, -1613433.6, -1443339.5, 133733.14, -0.044450775, 0.07488682, -1369901.4, 62017.766, 0.0005425403, 9.998345, 10.000627 
1.4148647e+3, 1.6388519e+2, -1593257.8, -1505107.6, 50963.063, -0.03352757, 0.051381882, -1481804.4, -147884.28, 0.000040406845, 9.998338, 9.999532 
1.414897e+3, 1.7388317e+2, -1513491.1, -1412816.1, 8114.4536, -0.06645181, -0.127388, -1412166.4, -176226.97, 0.00000007226826, 9.998205, 9.999553 
1.4149307e+3, 1.838825e+2, -1373803.5, -1300721.5, 34728.563, -0.031904057, -0.1309696, -1286851.0, -148905.14, 0.0, 9.998513, 9.999501 
1.4149664e+3, 1.9388397e+2, -1139263.5, -1123441.1, 59404.18, 0.077772, 0.03184833, -1071423.8, -31490.912, 0.0, 9.999389, 9.999624 
1.4150012e+3, 2.0388414e+2, -1015416.4, -1126331.1, 28479.66, 0.10931001, 0.14562072, -1008531.06, -66598.75, 0.0, 10.000049, 9.998614 
1.4150347e+3, 2.138822e+2, -858114.5, -997106.6, 27144.23, 0.041686963, 0.06611351, -853001.5, -9048.856, 0.0, 10.000456, 9.998629 
1.4150691e+3, 2.238805e+2, -708602.0, -828087.0, 71228.25, 0.002391922, 0.030263122, -675378.75, 70590.63, 0.0, 10.00062, 9.999031 
1.4151052e+3, 2.3387925e+2, -639885.8, -723547.6, 99106.31, 0.004856434, -0.035683095, -574144.0, 73836.12, 0.0, 10.000337, 9.999209 
1.4151405e+3, 2.4387853e+2, -529610.56, -649699.75, 39490.977, 0.020932171, -0.002374966, -517788.0, 32198.73, 0.0, 10.000525, 9.9989605 
1.415175e+3, 2.5387847e+2, -307760.97, -475498.5, 64641.633, 0.06344807, 0.05831671, -285740.56, 166247.63, 0.0, 10.001317, 9.999099 
1.4152093e+3, 2.6387748e+2, -243190.1, -540971.5, 94273.195, 0.030381462, 0.121615976, -215854.02, 138145.13, 0.000000079284355, 10.001725, 9.997783 
1.4152429e+3, 2.7387488e+2, -158428.4, -453748.22, 95545.53, -0.12813029, 0.06454931, -130212.234, 125813.89, 0.000007370644, 10.001655, 9.997742 
1.4152767e+3, 2.8387192e+2, 1669.9886, -297249.22, -9651.7295, -0.17427653, -0.0014989446, 1981.3068, 160035.78, 0.00007202747, 10.001952, 9.997996 
1.4153112e+3, 2.938683e+2, 200013.69, -130387.234, 3329.1423, -0.0110958535, -0.20687996, 200047.23, 260132.39, 0.0003176136, 10.002547, 9.998186 
1.4153455e+3, 3.038679e+2, 229403.64, -188747.05, 106966.76, -0.0064525167, -0.010595042, 255178.0, 255178.0, 0.0008555456, 10.002868, 9.997284 
1.4153802e+3, 3.1386793e+2, 291816.9, -32776.93, 127752.52, -0.11383917, 0.22318886, 336065.38, 336065.38, 0.0016671636, 10.002699, 9.998441 
1.424722e+3, 1.2384778e+2, -1964882.0, -1659985.9, 35963.563, -0.18855734, 0.047524095, -1655801.3, 70494.8, 0.010011913, 9.997474, 10.001583 
1.4247589e+3, 1.3384905e+2, -1823954.1, -1532499.9, 40475.95, -0.046299405, 0.013946041, -1526983.3, 101296.914, 0.0058154534, 9.9977865, 10.001635 
1.4247929e+3, 1.438505e+2, -1720829.1, -1520281.3, 7191.898, -0.1370594, 0.03220164, -1520023.6, 10239.698, 0.002423067, 9.998175, 10.000843 
1.4248286e+3, 1.538522e+2, -1621117.3, -1443738.3, -36373.758, -0.04819728, 0.108448096, -1436569.1, -4323.421, 0.00057589856, 9.998298, 10.0006275 
1.4248629e+3, 1.6385199e+2, -1565421.4, -1535157.6, -95390.305, -0.045513894, 0.10821164, -1453706.5, -119460.125, 0.00004378684, 9.998702, 9.999152 
1.4248963e+3, 1.73849e+2, -1304273.8, -1358422.5, -102880.836, -0.02355623, -0.12562014, -1224964.5, 11309.857, 0.00000008454083, 9.999831, 9.9991455 
1.4249307e+3, 1.8384773e+2, -1115475.9, -1194616.1, -27819.457, 0.03169379, -0.16001093, -1106675.4, 31611.146, 0.0, 10.000371, 9.999332 
1.424966e+3, 1.9384912e+2, -1040937.4, -1087889.8, -48313.03, 0.084565856, 0.010317274, -1010698.75, 29575.92, 0.0, 10.000127, 9.999507 
1.425001e+3, 2.0384943e+2, -956651.94, -1068225.3, -33393.35, 0.087888405, 0.13525823, -947421.2, -5148.6807, 0.0, 10.000324, 9.998879 
1.4250353e+3, 2.1384792e+2, -708961.7, -890606.0, -12405.974, 0.032888398, 0.06918244, -708118.3, 136168.8, 0.0, 10.001319, 9.998947 
1.42507e+3, 2.2384627e+2, -603387.0, -780213.3, 24201.92, -0.006197936, 0.019714685, -600134.4, 146168.36, 0.0, 10.001348, 9.999017 
1.4251047e+3, 2.3384446e+2, -689025.7, -752729.56, 747.88916, -0.03586309, -0.096990965, -689016.9, -40697.457, 0.0, 10.00001, 9.999175 
1.4251402e+3, 2.4384372e+2, -634753.94, -676197.6, 12943.968, -0.0010998775, -0.07096028, -631043.4, -80716.71, 0.0, 9.999711, 9.999171 
1.4251769e+3, 2.5384456e+2, -303067.38, -442284.06, -7529.29, 0.13279189, 0.056818962, -302661.34, 149658.66, 0.00000000006254562, 10.001221, 9.999371 
1.4252119e+3, 2.6384386e+2, -201741.45, -509570.03, -1569.5692, 0.11996229, 0.13230479, -201733.45, 152594.5, 0.00000036239143, 10.001952, 9.997891 
1.4252444e+3, 2.738408e+2, -184405.5, -450802.28, 9387.672, -0.12129861, 0.016763514, -184075.1, 72283.54, 0.000010087366, 10.001401, 9.997883 
1.4252783e+3, 2.8383783e+2, -71335.12, -334646.3, 756.09924, -0.17571388, -0.055850334, -71332.945, 87054.41, 0.00007869426, 10.001467, 9.997978 
1.4253147e+3, 2.9383495e+2, 227281.72, -118322.7, -28314.404, 0.08275802, -0.18420911, 229586.06, 289999.53, 0.00033370158, 10.002748, 9.998171 
1.4253493e+3, 3.0383465e+2, 330978.75, -102082.055, 35854.0, 0.07315886, 0.0063978923, 333927.13, 333927.13, 0.00088820345, 10.003375, 9.997653 
1.4253825e+3, 3.1383505e+2, 285962.3, -37281.418, -37353.137, -0.14256437, 0.2392352, 290222.6, 290222.6, 0.0017209378, 10.002654, 9.998441 
1.4347203e+3, 1.2381493e+2, -2017334.9, -1776236.6, 100286.54, -0.16126736, 0.059172582, -1739975.5, -13361.746, 0.010506618, 9.997494, 10.000772 
1.4347567e+3, 1.3381407e+2, -1900315.3, -1683293.6, 71962.53, -0.053786524, -0.0876061, -1661600.0, -32980.14, 0.006123269, 9.99776, 10.000602 
1.4347897e+3, 1.4381416e+2, -1771070.6, -1638790.6, -2111.3708, -0.30008128, -0.11371452, -1638756.9, -108138.4, 0.002563054, 9.998227, 10.000012 
1.4348264e+3, 1.5381457e+2, -1684529.4, -1572840.6, -24183.482, -0.1288852, -0.07627975, -1567829.1, -135212.27, 0.0006133788, 9.998277, 9.999761 
1.4348613e+3, 1.6381463e+2, -1547011.9, -1498087.8, -76950.42, -0.10145307, -0.013562344, -1441804.8, -107188.125, 0.000047750204, 9.998706, 9.999407 
1.4348952e+3, 1.738143e+2, -1275976.0, -1304952.5, -51050.684, -0.12806657, -0.01782239, -1237397.5, -780.2473, 0.00000010052836, 9.9998455, 9.999511 
1.43493e+3, 1.8381324e+2, -1137007.8, -1235759.5, -48548.855, -0.0960572, -0.038061958, -1117138.0, 21487.69, 0.0, 10.000358, 9.999056 
1.4349654e+3, 1.9381088e+2, -1082020.6, -1152100.1, -47465.707, -0.004045938, -0.20721596, -1058062.3, -17413.96, 0.0, 10.000032, 9.999114 
1.4350004e+3, 2.0380992e+2, -918637.94, -962345.25, -16323.533, -0.008985447, -0.2243763, -913214.5, 29442.012, 0.0, 10.000205, 9.999662 
1.435035e+3, 2.1381113e+2, -675016.8, -775787.9, 36740.582, -0.13332516, -0.1110388, -663043.94, 181598.45, 0.0, 10.001126, 9.999827 
1.4350696e+3, 2.2381091e+2, -646044.8, -821641.06, -30011.87, -0.1883416, -0.053645562, -641057.06, 105586.46, 0.0, 10.001151, 9.998823 
1.4351037e+3, 2.3380849e+2, -739369.94, -813039.56, -38697.855, -0.1378878, -0.20080832, -722778.8, -74110.06, 0.0, 9.99983, 9.998844 
1.4351396e+3, 2.4380724e+2, -662658.6, -704328.1, 42440.082, -0.04875576, -0.20349467, -636214.94, -85532.414, 0.0, 9.999574, 9.999047 
1.4351779e+3, 2.5380778e+2, -341047.94, -477096.44, 62670.926, 0.100294344, -0.09363418, -316579.25, 136099.22, 0.000000006122379, 10.001031, 9.999224 
1.435214e+3, 2.6380724e+2, -180321.23, -429393.97, -25373.863, 0.11551383, -0.02110851, -177762.6, 176921.84, 0.0000008787704, 10.001792, 9.998524 
1.4352465e+3, 2.73805e+2, -152072.73, -355630.34, 4708.5435, -0.06826372, -0.12568074, -151963.89, 104742.53, 0.000014147242, 10.001272, 9.998608 
1.4352807e+3, 2.8380334e+2, -95279.44, -358243.78, 28247.377, -0.10343354, -0.10495911, -92279.36, 66443.91, 0.000090676054, 10.001349, 9.99787 
1.4353177e+3, 2.938023e+2, 173720.69, -187432.86, 40625.234, 0.08295757, -0.032977466, 178234.11, 238969.89, 0.00036367134, 10.002552, 9.997797 
1.4353524e+3, 3.0380046e+2, 288045.8, -136525.45, 7431.6235, 0.03514207, 0.04153854, 288175.84, 288175.84, 0.00095405465, 10.003164, 9.997508 
1.4353852e+3, 3.137974e+2, 204832.05, -126828.734, -8211.514, -0.17030567, -0.055256672, 205035.22, 205035.22, 0.0018378863, 10.002318, 9.997992 
1.444718e+3, 1.2377966e+2, -1889557.1, -1761912.1, 29946.031, -0.17127831, 0.048162583, -1755235.9, -28278.52, 0.011047917, 9.998561, 10.000355 
1.4447542e+3, 1.337788e+2, -1940513.8, -1752390.5, -54973.004, -0.0736247, -0.06450486, -1737504.3, -108537.98, 0.00646129, 9.997678, 10.000166 
1.4447877e+3, 1.4377859e+2, -1883349.5, -1707962.3, -29362.314, -0.27864215, -0.08468872, -1703177.1, -172207.52, 0.0027186894, 9.9975395, 9.999859 
1.4448251e+3, 1.5377873e+2, -1625325.0, -1549341.3, -23962.006, -0.09633441, -0.06704467, -1542415.9, -109444.86, 0.0006559602, 9.998714, 9.99971 
1.4448605e+3, 1.6377883e+2, -1448707.9, -1432933.5, -17231.895, -0.058772404, -0.0035576883, -1421869.5, -86898.96, 0.000052490832, 9.999322, 9.999547 
1.444895e+3, 1.7377892e+2, -1325669.5, -1302393.6, -32397.113, -0.11491473, 0.014233954, -1279607.5, -42641.133, 0.00000012546444, 9.999414, 9.99972 
1.4449297e+3, 1.8377806e+2, -1271245.4, -1300964.1, -28579.59, -0.10183479, 0.0011642554, -1253893.0, -114920.836, 0.0, 9.99942, 9.999065 
1.4449649e+3, 1.9377567e+2, -1176918.1, -1192678.6, -27193.795, -0.027898433, -0.17352198, -1156485.9, -115491.47, 0.0, 9.999356, 9.999158 
1.445e+3, 2.0377457e+2, -1044490.3, -996641.0, 45421.83, -0.024591092, -0.21803069, -969228.25, -26225.242, 0.0, 9.999238, 9.999894 
1.4450353e+3, 2.1377535e+2, -946614.1, -871661.1, 24939.87, -0.10408598, -0.17168742, -864121.1, -19129.428, 0.0, 9.999123, 10.0001335 
1.4450704e+3, 2.2377528e+2, -858332.5, -928011.1, -40710.938, -0.13718149, -0.115519, -839588.6, -92597.36, 0.0, 9.999701, 9.9987955 
1.4451046e+3, 2.3377383e+2, -509633.16, -708893.2, -54563.29, -0.111061655, -0.1596713, -495670.5, 153338.06, 0.0, 10.001421, 9.998796 
1.4451402e+3, 2.4377286e+2, -317226.34, -531895.56, 63808.06, -0.05047466, -0.13546503, -299692.28, 251328.0, 0.0, 10.001928, 9.999089 
1.4451782e+3, 2.5377247e+2, -386141.34, -496587.4, 72105.164, 0.05247128, -0.122647144, -350541.8, 102482.516, 0.000000012932129, 10.000695, 9.999259 
1.4452146e+3, 2.6377174e+2, -369498.03, -482110.06, 17179.295, 0.08714684, -0.08737216, -366935.6, -11903.856, 0.0000016431604, 10.000343, 9.998849 
1.4452487e+3, 2.737705e+2, -81508.25, -274894.84, -13231.309, 0.01928409, -0.1280044, -80607.18, 176436.6, 0.000019343763, 10.001578, 9.998998 
1.4452834e+3, 2.8376946e+2, 35848.65, -303896.75, 25983.66, 0.00054262544, -0.06463034, 37824.383, 196879.45, 0.00010742276, 10.002282, 9.997792 
1.4453195e+3, 2.9376844e+2, 84755.26, -235567.44, 28434.104, 0.056726314, 0.02283723, 87259.69, 148327.39, 0.00040939418, 10.001966, 9.997734 
1.4453545e+3, 3.0376592e+2, 140293.61, -190878.75, 39979.45, 0.00057630055, 0.021663839, 145051.6, 145051.6, 0.0010586395, 10.002055, 9.997685 
1.4453895e+3, 3.1376323e+2, 303333.22, -36833.43, -5606.601, 0.019432532, -0.063293256, 303425.6, 303425.6, 0.0020274452, 10.002816, 9.998368 
1.4547172e+3, 1.2374186e+2, -1883530.5, -1779565.4, 8746.819, -0.18421453, -0.019009886, -1778834.6, -51506.383, 0.011640448, 9.998687, 10.0001745 
1.4547506e+3, 1.3374339e+2, -1936600.3, -1736438.0, -79011.82, -0.2067544, 0.087628655, -1709008.0, -79689.81, 0.0068325973, 9.997635, 10.000304 
1.4547864e+3, 1.4374405e+2, -1851643.8, -1633865.0, -8017.0566, -0.19657479, 0.1311887, -1633570.3, -102255.7, 0.0028915813, 9.99751, 10.000376 
1.4548244e+3, 1.5374483e+2, -1580061.6, -1446555.8, 31255.662, -0.060582682, 0.14181799, -1439600.6, -6293.865, 0.00070428615, 9.998683, 10.000426 
1.4548606e+3, 1.6374476e+2, -1433860.1, -1416682.0, -26725.951, -0.026406085, 0.14512405, -1397198.9, -61892.695, 0.000058062662, 9.999377, 9.999636 
1.4548948e+3, 1.7374295e+2, -1330234.5, -1308138.4, -17263.477, -0.07485637, -0.02692868, -1298690.4, -61369.527, 0.00000016567238, 9.99939, 9.999698 
1.4549294e+3, 1.8374223e+2, -1248781.6, -1249012.3, -44318.484, -0.09335843, -0.043183386, -1204578.4, -65252.492, 0.0, 9.999397, 9.9994335 
1.4549637e+3, 1.9374351e+2, -1163402.4, -1145485.1, -18606.723, -0.085205875, 0.113626614, -1133792.6, -92480.16, 0.0, 9.9992695, 9.99953 
1.454999e+3, 2.0374332e+2, -1086029.5, -1051619.8, 26697.627, -0.06357226, 0.15510868, -1037063.44, -93751.02, 0.0, 9.999108, 9.999576 
1.4550358e+3, 2.1374054e+2, -999514.3, -942774.0, 31843.49, 0.012500623, -0.116211176, -928495.9, -83160.32, 0.0, 9.998959, 9.9997225 
1.4550719e+3, 2.2373924e+2, -865227.4, -905999.56, 1918.963, 0.027983837, -0.17039442, -865137.25, -117790.17, 0.0, 9.999543, 9.9990225 
1.4551066e+3, 2.3374048e+2, -528307.4, -686908.0, 23911.184, -0.062359646, 0.02542077, -524780.9, 124557.89, 0.0, 10.001168, 9.999064 
1.4551419e+3, 2.4374056e+2, -329546.97, -516164.75, 18345.207, -0.11310932, 0.13188176, -327760.66, 223579.23, 0.0, 10.001737, 9.999297 
1.4551775e+3, 2.5373864e+2, -388654.06, -474099.9, 37926.535, -0.100014, -0.028935328, -374248.44, 79108.72, 0.000000017460069, 10.000569, 9.999478 
1.4552136e+3, 2.6373732e+2, -387324.53, -497691.8, 40792.613, -0.065260775, -0.06132807, -373884.03, -18514.64, 0.000002726617, 10.000244, 9.998793 
1.4552505e+3, 2.7373698e+2, -114612.984, -304531.4, 46226.316, 0.021184577, -0.0076863817, -103959.11, 153414.61, 0.000025176965, 10.0014105, 9.998873 
1.4552863e+3, 2.8373593e+2, 22427.313, -292482.44, 6307.866, 0.031553965, 0.059011374, 22553.613, 181938.27, 0.00012772917, 10.002115, 9.9979515 
1.4553201e+3, 2.9373366e+2, 82495.766, -212647.78, 32177.615, -0.098217405, -0.0006556668, 85963.15, 147371.08, 0.00046719576, 10.0018425, 9.997959 
1.4553553e+3, 3.0373114e+2, 151063.69, -144239.2, 49519.797, -0.13815725, -0.031813744, 159146.5, 159146.5, 0.0011939924, 10.001948, 9.998056 
1.4553945e+3, 3.1373134e+2, 318005.38, 53750.59, 60922.863, 0.18782143, 0.13189308, 331374.53, 331374.53, 0.0022782013, 10.002553, 9.999123 
1.4647153e+3, 1.2370439e+2, -2120877.3, -1853157.1, -114.79618, -0.12141763, -0.0473083, -1853157.1, -125461.53, 0.012283002, 9.996883, 10.0005455 
1.4647485e+3, 1.3370699e+2, -1833574.9, -1643108.0, -89218.766, -0.18643908, 0.12749144, -1607844.8, 21830.584, 0.00723705, 9.998163, 10.000686 
1.4647855e+3, 1.4370781e+2, -1723286.1, -1559692.0, 30350.945, -0.059270937, 0.16708994, -1554242.6, -22573.129, 0.0030819494, 9.998302, 10.000523 
1.4648226e+3, 1.5370831e+2, -1678321.5, -1463531.1, 10798.828, -0.046523057, 0.12240761, -1462989.6, -29326.488, 0.0007585455, 9.997851, 10.000723 
1.4648591e+3, 1.6370834e+2, -1616439.1, -1493258.6, -22771.088, -0.029244093, 0.1138269, -1489183.9, -153522.58, 0.00006440502, 9.998077, 9.999735 
1.4648949e+3, 1.737072e+2, -1276353.9, -1274515.4, -33989.953, -0.016064424, 0.00222069, -1241432.3, -3760.5686, 0.00000022299002, 9.999725, 9.999767 
1.4649299e+3, 1.8370683e+2, -1100469.8, -1150318.9, -82965.06, -0.014815912, 0.011317135, -1038766.2, 100907.664, 0.0, 10.000329, 9.99965 
1.4649636e+3, 1.9370793e+2, -1119072.6, -1089224.5, -102280.914, -0.03687492, 0.12078665, -1000784.56, 40876.316, 0.0, 9.999448, 9.999815 
1.4649986e+3, 2.0370756e+2, -1037597.4, -1056049.8, 12670.909, -0.026078334, 0.14070363, -1031149.56, -87487.4, 0.0, 9.99955, 9.99934 
1.4650361e+3, 2.1370487e+2, -662208.9, -808935.4, 14300.092, 0.044211578, -0.09409809, -660828.1, 184858.13, 0.0, 10.001398, 9.99947 
1.465073e+3, 2.2370373e+2, -511451.75, -706060.8, -15545.313, 0.07057178, -0.13046458, -510217.8, 237479.31, 0.0, 10.001858, 9.999279 
1.465108e+3, 2.3370492e+2, -644394.56, -707163.94, -23833.92, 0.019244375, 0.031984817, -636370.44, 13317.597, 0.0, 10.000209, 9.999393 
1.4651431e+3, 2.43705e+2, -634125.4, -672788.44, -4403.179, -0.03226617, 0.12600474, -633630.25, -81941.695, 0.0, 9.999692, 9.9992075 
1.4651783e+3, 2.537033e+2, -305365.44, -445124.2, -37137.484, -0.09641827, -0.0005815264, -296109.97, 157594.3, 0.000000044837254, 10.0012, 9.999368 
1.4652146e+3, 2.637019e+2, -132305.98, -401941.0, -21037.605, -0.078734264, -0.02492793, -130674.45, 225043.17, 0.0000038968087, 10.002102, 9.99856 
1.4652526e+3, 2.7370104e+2, -43193.887, -302394.94, -42028.9, 0.07640241, 0.008067374, -36549.324, 221177.55, 0.000030518888, 10.002016, 9.998611 
1.465289e+3, 2.8369963e+2, 59788.23, -260377.64, -63332.94, 0.10098202, 0.0500529, 71861.06, 231601.97, 0.00014669269, 10.002313, 9.998078 
1.4653225e+3, 2.9369742e+2, 303562.0, -83861.195, -88285.55, -0.108466126, -0.016883902, 322731.88, 384494.16, 0.00052426284, 10.003281, 9.998142 
1.4653577e+3, 3.036947e+2, 384100.34, -67478.836, -75846.23, -0.17498942, -0.06296218, 396498.9, 396498.9, 0.0013359416, 10.003721, 9.997711 
1.4653978e+3, 3.136943e+2, 427663.22, 116357.27, -143074.45, 0.25410002, 0.08197868, 483429.6, 483429.6, 0.0025510115, 10.003253, 9.9992075 
1.4747106e+3, 1.2366636e+2, -2041516.1, -1680133.3, -125875.734, -0.34984392, -0.10378553, -1640611.0, 87457.2, 0.012969953, 9.996865, 10.001727 
1.4747472e+3, 1.336695e+2, -1793372.8, -1553920.8, -43942.5, -0.16075027, 0.05153569, -1546111.4, 83926.92, 0.0076708426, 9.998138, 10.001306 
1.4747848e+3, 1.4366977e+2, -1713046.6, -1561918.8, -6830.4688, 0.007539524, 0.0045161033, -1561610.8, -29575.281, 0.0032881629, 9.998391, 10.00047 
1.4748196e+3, 1.536692e+2, -1697062.8, -1491600.8, 2366.6323, -0.15502419, -0.13316882, -1491573.5, -57534.07, 0.00081847684, 9.9978, 10.00056 
1.4748558e+3, 1.6366962e+2, -1607292.0, -1479386.8, 13842.983, -0.19255458, -0.09656621, -1477905.8, -141870.38, 0.000071419374, 9.998091, 9.999823 
1.4748946e+3, 1.7367181e+2, -1273890.9, -1262689.8, 38469.56, -0.051402032, 0.11260173, -1229415.1, 8601.92, 0.0000002932695, 9.999694, 9.999861 
1.474931e+3, 1.8367204e+2, -1092402.4, -1142479.4, -119827.195, 0.026070444, 0.17447776, -995025.7, 144989.1, 0.0, 10.000354, 9.999699 
1.4749637e+3, 1.9366887e+2, -1123385.1, -1086018.0, -126989.1, 0.016312884, -0.14906499, -976345.4, 65694.66, 0.0, 9.999385, 9.999875 
1.4749983e+3, 2.0366725e+2, -1055824.8, -1068955.5, 51811.83, -0.022764662, -0.25730982, -1010164.0, -66111.195, 0.0, 9.999442, 9.999301 
1.4750361e+3, 2.1366842e+2, -699614.75, -837876.56, 94201.64, -0.10614572, -0.09804389, -651899.5, 194143.5, 0.0, 10.001192, 9.999368 
1.4750731e+3, 2.2366872e+2, -521832.78, -686272.25, -74149.836, -0.10610045, 0.007951385, -493335.38, 254705.81, 0.0, 10.001669, 9.999511 
1.4751084e+3, 2.3366739e+2, -643768.0, -674083.25, -74193.836, 0.03152906, -0.116190925, -583199.3, 66855.34, 0.0, 10.000068, 9.999693 
1.475144e+3, 2.4366646e+2, -676054.1, -739548.75, 23876.947, 0.0675495, -0.122069426, -668077.4, -116013.18, 0.0, 9.999594, 9.998799 
1.4751802e+3, 2.536663e+2, -367722.53, -536550.56, 33710.67, -0.05157751, -0.042387635, -361240.25, 92826.484, 0.000000082863835, 10.001029, 9.998826 
1.4752169e+3, 2.6366538e+2, -181556.47, -463200.94, -24541.463, -0.07249403, 0.025309052, -179434.02, 176642.64, 0.0000048986644, 10.001924, 9.998223 
1.4752547e+3, 2.73663e+2, -85891.01, -355105.06, -24062.738, 0.07686279, -0.06689469, -83757.16, 174343.0, 0.00003489947, 10.001862, 9.998319 
1.4752914e+3, 2.8366098e+2, 29060.746, -294493.34, -42857.723, 0.09346524, -0.06680578, 34641.39, 194761.33, 0.00016199038, 10.002173, 9.997917 
1.4753258e+3, 2.9365963e+2, 262635.3, -122589.81, -33830.34, -0.12498406, -0.032247916, 265583.72, 327715.5, 0.00057622173, 10.003075, 9.99798 
1.4753608e+3, 3.036566e+2, 292790.47, -203076.03, -95244.984, -0.24425799, -0.06301185, 310455.63, 310455.63, 0.0014704264, 10.003495, 9.9968815 
1.4753993e+3, 3.136527e+2, 342883.13, 29997.213, -104830.14, 0.028284434, -0.19102606, 374758.4, 374758.4, 0.0028070426, 10.002884, 9.998784 
1.4847079e+3, 1.2362949e+2, -2006275.9, -1652640.3, -72405.82, -0.29460582, -0.09238121, -1638389.6, 90040.96, 0.013700781, 9.997045, 10.001844 
1.484746e+3, 1.3363181e+2, -1858540.9, -1607165.6, -66127.46, -0.059270337, 0.005187741, -1590831.4, 39575.773, 0.00813248, 9.99776, 10.001139 
1.484783e+3, 1.4363189e+2, -1776948.8, -1579570.8, -49362.707, 0.017071886, -0.056552485, -1567914.0, -35508.848, 0.0035089266, 9.997935, 10.000551 
1.4848176e+3, 1.5363155e+2, -1541247.0, -1400083.6, -52486.582, -0.16154271, -0.18230766, -1382707.3, 51698.86, 0.0008836724, 9.998823, 10.000678 
1.484854e+3, 1.6363223e+2, -1467550.0, -1380554.5, 13957.481, -0.19373706, -0.13631964, -1378370.0, -41970.99, 0.00007901186, 9.998941, 10.000086 
1.4848936e+3, 1.736347e+2, -1485218.8, -1326157.9, 25539.908, -0.018374035, 0.0694607, -1322157.6, -83779.06, 0.00000037325287, 9.998097, 10.000194 
1.4849307e+3, 1.83635e+2, -1421168.4, -1284227.6, -94339.43, 0.08965859, 0.11467441, -1236130.0, -95754.414, 0.0, 9.998016, 9.999856 
1.4849636e+3, 1.9363178e+2, -1083901.6, -1050949.9, -121259.484, 0.07025558, -0.2260087, -945052.06, 97349.66, 0.0, 9.9995775, 10.000028 
1.4849983e+3, 2.0363058e+2, -926969.94, -957418.94, 98977.46, 0.008023064, -0.32067975, -842052.94, 102357.77, 0.0, 10.00013, 9.999724 
1.485036e+3, 2.1363273e+2, -977158.75, -915748.25, 155531.52, -0.11797039, -0.11029109, -787920.0, 58470.61, 0.0, 9.999049, 9.999858 
1.485073e+3, 2.2363345e+2, -916039.5, -886057.6, 22324.121, -0.12978038, 0.011634367, -874158.1, -125773.4, 0.0, 9.998998, 9.999425 
1.4851087e+3, 2.336318e+2, -543238.2, -641392.75, -37419.664, 0.0296401, -0.12731555, -530599.94, 119802.31, 0.0, 10.000825, 9.999549 
1.4851448e+3, 2.4363054e+2, -362467.47, -608716.44, 83886.82, 0.086402446, -0.15190414, -336606.6, 215808.78, 0.0, 10.001849, 9.99861 
1.4851815e+3, 2.5362998e+2, -303519.56, -524442.8, 93451.305, -0.025588123, -0.0907999, -269292.16, 185128.2, 0.00000011463164, 10.001566, 9.998647 
1.4852187e+3, 2.6362872e+2, -258765.13, -538473.9, 59921.348, -0.0440347, -0.02917629, -246468.88, 109964.11, 0.000005857849, 10.001576, 9.997869 
1.4852569e+3, 2.736262e+2, -67991.836, -389696.9, 14818.388, 0.09395204, -0.09611193, -67310.71, 191148.97, 0.000039275426, 10.002189, 9.99792 
1.485294e+3, 2.8362396e+2, 65996.14, -292610.13, 22361.5, 0.12615377, -0.088012636, 67385.15, 227867.39, 0.00017769578, 10.002507, 9.99776 
1.4853293e+3, 2.9362246e+2, 148800.0, -188637.9, 5316.073, -0.033216145, -0.054974496, 148883.73, 211378.42, 0.0006295016, 10.002337, 9.997886 
1.4853646e+3, 3.036198e+2, 127469.11, -315906.94, -12871.559, -0.14662373, -0.03103277, 127842.46, 127842.46, 0.0015966473, 10.002474, 9.996619 
1.4854021e+3, 3.1361473e+2, 375615.72, 32136.102, -35418.51, 0.02675189, -0.2430405, 379229.94, 379229.94, 0.0030272538, 10.003151, 9.998676 
1.4947052e+3, 1.23594664e+2, -2046817.9, -1743017.6, -29331.361, -0.32731193, 0.072916955, -1740211.6, -11437.445, 0.014485426, 9.997084, 10.001194 
1.4947447e+3, 1.3359438e+2, -1945888.9, -1767365.6, -46171.324, 0.014474868, 0.01849216, -1756131.4, -125353.625, 0.008627366, 9.997684, 10.000071 
1.4947796e+3, 1.4359444e+2, -1749732.3, -1545875.4, -44044.492, -0.15711306, 0.0018704751, -1536766.4, -3990.0615, 0.0037456865, 9.998011, 10.000756 
1.4948165e+3, 1.5359575e+2, -1520803.3, -1361743.1, -7687.683, -0.18087602, 0.012799532, -1361372.4, 73387.39, 0.0009542572, 9.998828, 10.000948 
1.4948538e+3, 1.635965e+2, -1419371.3, -1300870.9, -26873.072, -0.15740713, 0.026226113, -1295061.5, 41688.324, 0.00008722728, 9.9990225, 10.000591 
1.494892e+3, 1.7359577e+2, -1457093.9, -1258863.4, 559.0123, -0.008003841, -0.13611327, -1258861.8, -20105.533, 0.0000004647829, 9.998057, 10.000673 
1.4949286e+3, 1.8359566e+2, -1401396.9, -1244665.8, -63306.133, 0.063990586, -0.1734371, -1222289.9, -81533.28, 0.0, 9.998016, 10.000131 
1.4949627e+3, 1.9359681e+2, -1084444.9, -1030309.6, -52320.605, 0.010593469, -0.09963618, -998469.7, 44275.066, 0.0, 9.99948, 10.0002165 
1.494998e+3, 2.0359766e+2, -878799.9, -835608.1, 55862.24, -0.045125626, -0.036948293, -797312.7, 147421.97, 0.0, 10.000026, 10.000614 
1.4950356e+3, 2.1359785e+2, -928068.3, -779920.56, 122753.53, -0.0832602, -0.12591286, -710623.0, 136105.77, 0.0, 9.998901, 10.000862 
1.4950725e+3, 2.2359799e+2, -965388.56, -953452.6, 60883.043, -0.09968301, -0.10401462, -898245.75, -149518.66, 0.0, 9.998838, 9.999044 
1.4951086e+3, 2.3359811e+2, -613266.25, -744568.2, 43298.87, -0.08070678, -0.008157223, -600273.44, 50458.29, 0.0, 10.000638, 9.998935 
1.4951451e+3, 2.4359715e+2, -393060.75, -625583.94, 71978.78, -0.08333067, 0.035322137, -372582.8, 180160.11, 0.0, 10.001647, 9.9985895 
1.4951824e+3, 2.535943e+2, -322341.66, -528316.75, 96755.33, -0.11576962, -0.14205539, -284020.9, 170744.64, 0.00000015644366, 10.00141, 9.998697 
1.4952199e+3, 2.6359195e+2, -318502.22, -626120.2, 66186.086, -0.096889056, -0.17335759, -304866.28, 51921.066, 0.000006865855, 10.00142, 9.997341 
1.4952584e+3, 2.7359033e+2, -140821.38, -498512.6, 52588.195, 0.0210074, -0.08664209, -133250.06, 125558.51, 0.00004412461, 10.0020075, 9.997261 
1.4952962e+3, 2.8358823e+2, 33620.832, -323856.1, 8570.674, 0.07575163, -0.019885795, 33826.2, 194657.63, 0.00019465707, 10.002344, 9.997627 
1.4953326e+3, 2.9358578e+2, 129598.07, -201136.14, 19854.0, 0.032542005, -0.0829727, 130785.64, 193637.92, 0.00068026903, 10.00221, 9.997868 
1.4953685e+3, 3.0358416e+2, 109728.836, -306634.7, -3308.506, -0.025731826, 0.0385379, 109755.125, 109755.125, 0.001699818, 10.0022955, 9.996759 
1.4954053e+3, 3.1357983e+2, 305640.97, -26630.592, 31934.361, -0.010758386, -0.10765539, 308682.3, 308682.3, 0.0031843882, 10.002789, 9.998445 
1.5047033e+3, 1.2355763e+2, -2022846.8, -1776496.9, 68724.984, -0.22454123, 0.08885662, -1758621.6, -29485.97, 0.015336173, 9.997449, 10.000781 
1.5047425e+3, 1.335567e+2, -1867367.0, -1771940.5, -27677.654, -0.004679532, -0.0032611454, -1764493.9, -133346.61, 0.0091627855, 9.998391, 9.999702 
1.5047769e+3, 1.4355698e+2, -1657106.9, -1490685.9, 13648.368, -0.23766464, 0.02162574, -1489574.0, 43570.73, 0.0040015904, 9.998627, 10.000828 
1.5048154e+3, 1.535587e+2, -1596843.9, -1374184.8, 5827.5244, -0.12990457, 0.056030784, -1374032.4, 61092.125, 0.001031135, 9.998219, 10.001148 
1.5048532e+3, 1.6355959e+2, -1551805.0, -1336325.5, -11717.648, -0.05990699, 0.061750878, -1335690.1, 1422.4253, 0.000096309515, 9.997969, 10.000868 
1.5048903e+3, 1.7355864e+2, -1367471.1, -1176529.5, -24677.44, 0.013568334, -0.15554097, -1173391.8, 65727.77, 0.000000575819, 9.998488, 10.001034 
1.5049268e+3, 1.835588e+2, -1248680.6, -1154159.9, -28771.26, 0.054036453, -0.19212964, -1146091.0, -4974.1597, 0.0, 9.999002, 10.000265 
1.5049621e+3, 1.9356102e+2, -1044258.25, -993660.3, -44127.1, 0.007020496, -0.025959043, -968094.4, 75001.805, 0.0, 9.999695, 10.000352 
1.5049982e+3, 2.0356217e+2, -873452.06, -814431.3, 5132.1104, -0.02057063, 0.05183366, -813988.4, 131095.13, 0.0, 9.999992, 10.000778 
1.5050355e+3, 2.1356146e+2, -788582.9, -695992.44, -27702.96, -0.014093609, -0.13761292, -688336.75, 158748.19, 0.0, 9.999788, 10.001018 
1.5050726e+3, 2.2356126e+2, -804782.1, -859343.06, -20909.518, -0.022460844, -0.16007985, -797690.6, -48604.97, 0.0, 9.9999, 9.999162 
1.5051092e+3, 2.3356198e+2, -600684.1, -724396.1, -8317.738, -0.07245124, -0.014199697, -600127.4, 50957.332, 0.0, 10.000685, 9.999036 
1.5051463e+3, 2.4356128e+2, -439431.66, -657984.9, 32308.805, -0.09950865, 0.051595915, -434755.5, 118338.22, 0.0, 10.0013685, 9.998498 
1.505184e+3, 2.5355822e+2, -264088.06, -510594.94, 8288.399, -0.09460136, -0.13525863, -263809.7, 191308.73, 0.00000020302433, 10.001859, 9.998593 
1.5052219e+3, 2.6355574e+2, -231823.4, -610616.8, 9721.55, -0.06247061, -0.16308051, -231574.08, 125567.44, 0.0000077496, 10.002125, 9.997108 
1.5052603e+3, 2.7355403e+2, -146236.8, -527397.75, 2054.3345, 0.017557148, -0.059091672, -146225.73, 112937.695, 0.000048509926, 10.0020685, 9.997038 
1.5052983e+3, 2.835515e+2, 6176.8315, -362761.2, 5104.652, 0.07241649, -0.008268625, 6247.4463, 167437.7, 0.00020995413, 10.002274, 9.997393 
1.5053357e+3, 2.935483e+2, 248200.31, -158466.55, -40658.438, 0.09498243, -0.12844108, 252225.48, 315444.84, 0.00072184385, 10.003121, 9.9977 
1.5053721e+3, 3.03547e+2, 306507.0, -158908.44, -51184.746, 0.062054474, 0.013491326, 312069.63, 312069.63, 0.0017670484, 10.003391, 9.997265 
1.5054078e+3, 3.135434e+2, 214723.02, -68566.14, -27066.664, 0.016138103, -0.111940645, 217285.89, 217285.89, 0.0032593366, 10.002131, 9.998492 
1.514704e+3, 1.2351903e+2, -2016004.6, -1789532.4, 183344.84, 0.03570354, -0.0262795, -1687274.4, 42233.324, 0.016257107, 9.997559, 10.000648 
1.5147386e+3, 1.3351911e+2, -1861315.0, -1741638.3, 27051.871, -0.24421012, -0.05237439, -1735807.5, -104296.16, 0.009740974, 9.998333, 9.99993 
1.5147746e+3, 1.4351991e+2, -1648103.3, -1504446.6, -13501.281, -0.37676248, 0.022487719, -1503188.8, 30317.166, 0.0042781597, 9.998745, 10.000684 
1.5148139e+3, 1.535203e+2, -1602669.6, -1389835.9, -143.55266, -0.11803233, -0.06469709, -1389835.8, 45664.867, 0.0011151112, 9.9982195, 10.001047 
1.5148517e+3, 1.6352145e+2, -1533209.8, -1309275.0, -15127.088, -0.01827664, -0.03482979, -1308257.8, 29230.092, 0.000106548556, 9.9980135, 10.001031 
1.5148883e+3, 1.7352353e+2, -1357233.1, -1151042.6, 6818.209, -0.052658673, 0.026369235, -1150817.4, 88648.945, 0.0000007145684, 9.998466, 10.001222 
1.514925e+3, 1.8352473e+2, -1241814.9, -1146444.0, -16910.518, -0.055234775, 0.07871679, -1143534.4, -2080.7708, 0.0, 9.999024, 10.000311 
1.5149616e+3, 1.9352445e+2, -1055175.5, -1000111.4, -8605.809, -0.039014153, -0.003529805, -998797.75, 44657.563, 0.0, 9.999622, 10.000346 
1.5149982e+3, 2.0352413e+2, -931840.3, -911211.7, -13820.069, -0.029479058, -0.04752016, -904281.3, 41175.418, 0.0, 9.999883, 10.000169 
1.5150353e+3, 2.1352375e+2, -860891.75, -808651.56, -24641.652, -0.00867625, -0.13607748, -798862.5, 48594.8, 0.0, 9.999622, 10.000326 
1.5150726e+3, 2.235235e+2, -795150.3, -796639.56, -8953.156, -0.012032687, -0.14608124, -786910.9, -37452.49, 0.0, 9.999712, 9.999685 
1.5151103e+3, 2.3352352e+2, -576384.4, -635106.75, 34799.594, -0.054031767, -0.13907683, -560214.4, 91246.15, 0.0, 10.000513, 9.999736 
1.5151481e+3, 2.4352297e+2, -479671.97, -699498.0, 37744.496, -0.08213413, -0.088323146, -473371.75, 80095.24, 0.0, 10.00118, 9.998309 
1.5151863e+3, 2.5352162e+2, -309539.06, -570170.75, 39450.684, -0.07075664, -0.0732664, -303698.47, 151781.1, 0.00000026346208, 10.001698, 9.99827 
1.5152244e+3, 2.6351982e+2, -249431.58, -607452.75, 898.1157, -0.05463371, -0.012568482, -249429.33, 108067.82, 0.000008336701, 10.001957, 9.997211 
1.5152621e+3, 2.7351734e+2, -158083.98, -513261.78, 19480.02, -0.03014752, -0.0077038296, -157018.78, 102504.95, 0.00005112129, 10.001909, 9.997212 
1.5153e+3, 2.8351405e+2, -47082.47, -441495.28, 20777.803, -0.0080029555, -0.027646149, -45990.91, 115566.086, 0.00022272031, 10.002126, 9.996924 
1.5153384e+3, 2.935099e+2, 177833.81, -259489.95, 14585.835, 0.032306075, -0.1859439, 178319.73, 241916.16, 0.000756888, 10.002915, 9.9971075 
1.515375e+3, 3.035082e+2, 326492.0, -42416.6, -93579.71, 0.0031454093, -0.095530756, 348872.28, 348872.28, 0.0018089807, 10.003101, 9.998191 
1.5154092e+3, 3.1350583e+2, 192724.39, -28509.055, -31240.988, -0.10470097, -0.21103965, 197051.39, 197051.39, 0.0032733746, 10.00181, 9.998901 
1.5247017e+3, 1.2348038e+2, -1960984.0, -1727125.9, 160498.72, 0.06388993, -0.102078855, -1645479.4, 84405.03, 0.017244658, 9.997798, 10.000967 
1.5247355e+3, 1.3348183e+2, -1973581.1, -1685524.6, 27908.21, -0.3126285, -0.08633602, -1682845.8, -50971.676, 0.010359608, 9.9971, 10.000909 
1.5247735e+3, 1.4348356e+2, -1911862.1, -1627125.0, 69894.266, -0.23408015, 0.029754596, -1610893.4, -77034.35, 0.0045741852, 9.996925, 10.000713 
1.5248121e+3, 1.5348335e+2, -1610955.9, -1394805.8, 57698.242, -0.09619904, -0.117777646, -1380368.4, 55491.582, 0.0012060112, 9.998166, 10.001034 
1.5248498e+3, 1.634842e+2, -1427739.6, -1280983.4, 60719.57, -0.048355773, -0.108970925, -1259118.6, 78732.164, 0.000118081814, 9.998872, 10.000804 
1.5248868e+3, 1.7348681e+2, -1280705.6, -1136964.8, 19095.271, -0.065423496, 0.033283748, -1134471.3, 105353.5, 0.0000008766353, 9.99912, 10.000996 
1.524924e+3, 1.8348797e+2, -1217997.8, -1145567.8, -4655.9536, -0.05091886, 0.099339746, -1145269.6, -3457.003, 0.0, 9.999235, 10.000224 
1.524961e+3, 1.9348663e+2, -1082477.5, -1023959.44, -28276.23, -0.03028783, -0.07837912, -1012528.94, 31294.994, 0.0, 9.999471, 10.000267 
1.5249981e+3, 2.0348589e+2, -958089.56, -967087.44, -11100.959, -0.023183659, -0.14126158, -950610.5, -4780.493, 0.0, 9.999872, 9.999791 
1.525035e+3, 2.134863e+2, -749513.9, -800138.2, -26774.984, -0.03588992, -0.112110525, -737980.4, 109845.1, 0.0, 10.000574, 9.999921 
1.5250725e+3, 2.2348633e+2, -638001.7, -733886.9, 3880.8708, -0.03515563, -0.06868079, -637844.9, 111980.36, 0.0, 10.00083, 9.999585 
1.5251109e+3, 2.3348568e+2, -608368.3, -652901.56, -28552.56, -0.016796008, -0.123363934, -594426.5, 57405.836, 0.0, 10.000299, 9.999718 
1.5251493e+3, 2.4348491e+2, -577505.94, -713456.0, 8590.546, -0.010673434, -0.10744786, -576965.25, -23124.932, 0.0, 10.000392, 9.998577 
1.5251882e+3, 2.5348395e+2, -288531.28, -522207.88, 31831.416, -0.02862978, -0.081856675, -284272.8, 171576.08, 0.0000003530132, 10.0016985, 9.998586 
1.5252268e+3, 2.6348248e+2, -130432.33, -508279.22, 21350.365, -0.019168623, -0.026584001, -129229.74, 228632.9, 0.000008619123, 10.002584, 9.997593 
1.5252648e+3, 2.7348018e+2, -18061.91, -393535.75, 20788.29, 0.038432337, -0.04614622, -16914.463, 242970.66, 0.000051931653, 10.002656, 9.997664 
1.5253027e+3, 2.8347713e+2, -4127.6836, -433347.88, 72992.73, 0.05613282, -0.058938693, 7945.77, 169860.36, 0.00023518385, 10.002479, 9.996818 
1.5253405e+3, 2.9347318e+2, 27645.807, -356229.03, 65451.84, 0.009797808, -0.17363952, 38498.71, 102452.96, 0.00079146493, 10.001978, 9.99691 
1.5253772e+3, 3.034709e+2, 211427.58, -67861.26, -22499.18, -0.019098641, -0.14046277, 213228.47, 213228.47, 0.0018451918, 10.002154, 9.998485 
1.5254128e+3, 3.1346923e+2, 355133.1, 21938.262, -71852.6, 0.047122985, -0.22023562, 369967.47, 369967.47, 0.0032714915, 10.003002, 9.998693 
1.5346962e+3, 1.2344178e+2, -1902556.6, -1623910.1, -68904.51, -0.31817734, -0.12841876, -1607802.4, 122462.86, 0.018294634, 9.9978695, 10.001643 
1.5347327e+3, 1.3344508e+2, -1852996.6, -1428065.1, 15509.603, -0.3111638, -0.09460886, -1427499.8, 204732.86, 0.011016667, 9.997062, 10.002709 
1.534774e+3, 1.4344838e+2, -1883867.1, -1586337.0, 87704.85, 0.082538895, 0.06625656, -1562408.3, -28208.807, 0.0048880493, 9.996991, 10.00097 
1.5348098e+3, 1.5344824e+2, -1617591.8, -1391320.0, 116143.5, -0.17252828, -0.07872433, -1342317.0, 93881.57, 0.0013030368, 9.998098, 10.001094 
1.5348469e+3, 1.6344817e+2, -1466102.1, -1377108.0, 58354.33, -0.26885006, -0.13622993, -1348221.0, -10023.164, 0.00013086536, 9.998934, 10.000118 
1.5348856e+3, 1.7344856e+2, -1340972.1, -1258500.6, 37205.215, -0.120185085, -0.13303517, -1244197.1, -4003.3025, 0.0000010420176, 9.999105, 10.000169 
1.5349238e+3, 1.8344851e+2, -1231957.5, -1186143.5, -12315.259, -0.042260457, -0.12708788, -1183042.9, -40848.938, 0.0, 9.999278, 9.999927 
1.5349603e+3, 1.9344757e+2, -1100698.4, -1050791.0, -10763.19, -0.06836584, -0.24933307, -1048568.8, -4366.6494, 0.0, 9.999416, 10.000112 
1.5349972e+3, 2.0344749e+2, -987951.06, -995080.8, 850.502, -0.11534211, -0.23005395, -987851.0, -41647.945, 0.0, 9.99973, 9.999665 
1.5350342e+3, 2.1344909e+2, -788757.6, -836679.44, 11615.067, -0.19764505, -0.0676687, -786090.8, 62099.086, 0.0, 10.000382, 9.999763 
1.5350717e+3, 2.2344969e+2, -711642.1, -840840.75, -21367.04, -0.20375673, 0.069708005, -708200.1, 41986.395, 0.0, 10.000628, 9.998949 
1.5351108e+3, 2.334485e+2, -678346.0, -763715.44, -34131.117, -0.05620053, 0.02596166, -666378.06, -14177.734, 0.0, 10.000145, 9.999035 
1.53515e+3, 2.4344702e+2, -564326.75, -637851.1, 37445.49, 0.004167087, -0.014038815, -548614.0, 5600.193, 0.0, 10.000192, 9.999189 
1.5351896e+3, 2.534452e+2, -259848.03, -418573.5, 95630.414, -0.07605439, -0.15598968, -214938.4, 241288.31, 0.0000004707298, 10.001516, 9.999383 
1.535229e+3, 2.634436e+2, -110647.79, -426019.1, 15012.113, -0.07273161, -0.19004263, -109934.805, 248303.81, 0.0000086272985, 10.002402, 9.998246 
1.5352681e+3, 2.734424e+2, 2150.6428, -314628.13, 30687.959, 0.09340378, -0.16006424, 5096.1523, 265344.63, 0.000052741245, 10.002494, 9.998286 
1.5353061e+3, 2.834406e+2, -16755.313, -422037.66, 40821.797, 0.12898275, -0.09579982, -12684.454, 149581.61, 0.00024875673, 10.002309, 9.996984 
1.5353417e+3, 2.9343775e+2, 12650.443, -356919.44, 66639.3, -0.0889348, -0.107460715, 24299.385, 88596.22, 0.0008280964, 10.00184, 9.996973 
1.5353784e+3, 3.034349e+2, 162202.28, -126841.37, -8776.436, -0.122944936, -0.12298168, 162468.53, 162468.53, 0.0018910866, 10.001986, 9.998153 
1.535418e+3, 3.1343356e+2, 265802.16, -78116.586, -2436.8718, 0.21045175, -0.13773158, 265819.44, 265819.44, 0.0032980533, 10.002665, 9.998153 
1.5446934e+3, 1.2340516e+2, -2184990.0, -1760908.5, -41437.69, -0.28057036, -0.08249441, -1756897.4, -26271.16, 0.019406972, 9.995937, 10.001614 
1.5447316e+3, 1.3340852e+2, -1717698.1, -1349201.6, -6703.5913, -0.16240671, -0.05943084, -1349079.8, 283511.1, 0.0117135905, 9.997902, 10.002851 
1.5447725e+3, 1.4341117e+2, -1683361.6, -1503870.6, 18977.809, 0.18567404, 0.034129616, -1501886.0, 32676.352, 0.0052204016, 9.998435, 10.000842 
1.5448083e+3, 1.5341125e+2, -1538031.9, -1375315.1, 10325.196, -0.15375975, -0.07071548, -1374662.6, 61897.098, 0.0014059248, 9.998717, 10.000919 
1.5448454e+3, 1.63411e+2, -1505653.4, -1418124.3, -33863.406, -0.27340803, -0.12411414, -1406552.9, -67992.125, 0.00014487762, 9.998763, 9.9999075 
1.5448846e+3, 1.7341068e+2, -1421436.8, -1323370.5, -40758.242, -0.09114659, -0.17379561, -1308642.5, -68078.71, 0.000001197513, 9.9986515, 9.999939 
1.5449229e+3, 1.8341032e+2, -1333629.4, -1246753.3, -21015.568, -0.0015297639, -0.1795441, -1241936.6, -99369.12, 0.0, 9.998652, 9.9998 
1.5449595e+3, 1.9341e+2, -1138377.6, -1074414.9, -33441.875, -0.06780325, -0.23232043, -1060123.5, -15552.84, 0.0, 9.9992075, 10.000039 
1.5449965e+3, 2.0341006e+2, -991272.7, -1001581.06, 12379.086, -0.15157074, -0.19282961, -983017.6, -36447.22, 0.0, 9.999741, 9.999617 
1.5450336e+3, 2.1341103e+2, -804059.9, -847147.1, 5705.888, -0.27235255, -0.08955015, -803317.06, 45245.23, 0.0, 10.000301, 9.99973 
1.5450718e+3, 2.234112e+2, -705444.5, -851995.3, -4877.867, -0.26707917, 0.015394535, -705282.3, 45279.56, 0.0, 10.000751, 9.998807 
1.5451114e+3, 2.3341009e+2, -551326.7, -717838.44, -16013.719, -0.04245809, -0.00068706874, -549800.56, 102773.98, 0.0, 10.001106, 9.998879 
1.5451512e+3, 2.4340867e+2, -413257.3, -580899.2, 96516.13, 0.056676228, -0.02218951, -369245.1, 185343.05, 0.000000000009610117, 10.001273, 9.999077 
1.5451908e+3, 2.5340676e+2, -327973.75, -462907.44, 74696.56, -0.06793717, -0.16342984, -294785.97, 161816.28, 0.0000005675007, 10.0010805, 9.999305 
1.5452306e+3, 2.6340505e+2, -277449.28, -474688.7, -34407.387, -0.07552695, -0.21141978, -271619.4, 86995.805, 0.000008574752, 10.001131, 9.998527 
1.5452704e+3, 2.7340376e+2, -91063.2, -331233.63, -70614.164, 0.11341948, -0.21293819, -71840.06, 188785.5, 0.00005426492, 10.001719, 9.998557 
1.5453087e+3, 2.8340235e+2, 3757.704, -359755.63, -54430.332, 0.17256878, -0.14509511, 11732.813, 174371.95, 0.00026286932, 10.002251, 9.997412 
1.5453443e+3, 2.9340047e+2, 167772.61, -236214.36, -40527.008, -0.03781101, -0.10603856, 171798.08, 236458.31, 0.0008684736, 10.002726, 9.997359 
1.5453814e+3, 3.0339715e+2, 346314.72, -61459.574, -46873.934, -0.06904793, -0.1804242, 351633.53, 351633.53, 0.0019580566, 10.003342, 9.997961 
1.5454218e+3, 3.1339636e+2, 444035.34, -7470.6543, -84286.53, 0.27264127, -0.0979222, 459256.7, 459256.7, 0.003382468, 10.003947, 9.9980345 
1.5546902e+3, 1.23370335e+2, -2218121.5, -1838015.4, -64399.402, -0.24550031, 0.009885445, -1827401.0, -96431.305, 0.020587768, 9.995983, 10.0010605 
1.5547314e+3, 1.3337228e+2, -1834943.9, -1572853.0, 46172.453, 0.0116835795, 0.048180915, -1564956.6, 67990.82, 0.012455585, 9.997838, 10.001331 
1.5547688e+3, 1.4337172e+2, -1702168.8, -1564240.5, 6644.92, -0.07450857, -0.07831685, -1563921.1, -28970.56, 0.0055746003, 9.998516, 10.000391 
1.5548071e+3, 1.5337238e+2, -1564356.9, -1431233.4, 30907.152, -0.15380605, -0.08812408, -1424407.6, 12535.852, 0.001515748, 9.998728, 10.000528 
1.5548454e+3, 1.633729e+2, -1467933.6, -1362086.0, -51201.664, -0.16871937, -0.05513015, -1341371.9, -2433.9297, 0.00016035176, 9.998848, 10.0002575 
1.5548837e+3, 1.7337333e+2, -1392442.0, -1254693.6, -38892.27, -0.06608327, -0.0765697, -1244471.4, -3537.2568, 0.0000013687348, 9.998613, 10.000432 
1.5549214e+3, 1.8337364e+2, -1332230.8, -1238825.6, -18098.309, -0.03349961, -0.04390482, -1235441.5, -92510.195, 0.0, 9.9986315, 9.999864 
1.5549582e+3, 1.9337398e+2, -1156358.6, -1088793.9, -714.78033, -0.13271771, -0.027322002, -1088786.3, -43857.168, 0.0, 9.999112, 9.999986 
1.5549953e+3, 2.033736e+2, -1001984.9, -1007871.0, 19804.592, -0.24311462, -0.027978692, -984905.9, -37973.98, 0.0, 9.999658, 9.999622 
1.5550332e+3, 2.1337211e+2, -820822.4, -851708.2, 38674.777, -0.35455635, -0.17110588, -794621.3, 54320.68, 0.0, 10.000155, 9.999779 
1.5550719e+3, 2.2337094e+2, -716251.25, -832371.7, -2216.7253, -0.33872762, -0.21716768, -716208.94, 34741.72, 0.0, 10.0005665, 9.999032 
1.5551123e+3, 2.3337042e+2, -558421.44, -701266.9, 9689.214, -0.08325736, -0.19726719, -557767.2, 95188.84, 0.0, 10.000963, 9.999066 
1.5551522e+3, 2.4336968e+2, -489911.13, -699539.06, 81037.89, 0.02638928, -0.12803501, -462236.97, 92726.66, 0.0, 10.001098, 9.998346 
1.5551916e+3, 2.5336856e+2, -411780.9, -600204.94, 80218.49, -0.106615365, -0.10700872, -382255.66, 74719.6, 0.0000005355393, 10.000923, 9.998437 
1.5552312e+3, 2.6336682e+2, -313178.63, -512064.84, -22864.363, -0.14045992, -0.10031957, -310583.94, 48408.152, 0.000008556659, 10.000971, 9.998347 
1.5552713e+3, 2.7336442e+2, -120029.984, -352869.72, -27544.498, 0.013290246, -0.21608663, -116815.89, 144199.02, 0.000056489618, 10.001555, 9.998484 
1.5553103e+3, 2.8336257e+2, 11363.221, -300877.0, -43670.785, 0.089948796, -0.2033422, 17356.115, 180388.05, 0.00027893353, 10.002065, 9.997907 
1.5553477e+3, 2.933613e+2, 185025.89, -154623.92, -2664.2302, 0.023243248, -0.16793332, 185046.8, 250090.39, 0.0009152954, 10.002535, 9.998009 
1.5553856e+3, 3.0335775e+2, 286555.1, -117495.6, -35592.348, -0.0049711815, -0.2914388, 289666.44, 289666.44, 0.0020517935, 10.003075, 9.997691 
1.5554239e+3, 3.1335726e+2, 394151.66, 13653.909, -17148.973, 0.056174684, -0.15079324, 394923.0, 394923.0, 0.003534902, 10.003457, 9.998392 
1.5646887e+3, 1.2333344e+2, -2053724.9, -1796902.6, -7126.602, -0.039847523, 0.0064418796, -1796705.0, -65375.8, 0.021849003, 9.997288, 10.000722 
1.5647304e+3, 1.3333377e+2, -1864674.8, -1692285.3, 24233.484, 0.14465536, -0.016693907, -1688943.5, -55620.176, 0.013250772, 9.998085, 10.000401 
1.5647659e+3, 1.4333254e+2, -1770280.1, -1622847.5, 15610.349, -0.18426143, -0.15140146, -1621212.9, -85879.016, 0.0059556314, 9.998174, 10.000149 
1.5648061e+3, 1.533335e+2, -1698247.0, -1516984.1, 18920.834, -0.069161825, -0.11186435, -1515030.1, -77704.4, 0.0016345053, 9.997915, 10.000321 
1.5648451e+3, 1.6333435e+2, -1588163.6, -1396765.8, -19189.105, -0.030610288, -0.045538947, -1394860.9, -55542.527, 0.00017771397, 9.997916, 10.000482 
1.5648824e+3, 1.7333518e+2, -1321176.0, -1184369.8, -34128.117, -0.058956232, -0.05383131, -1176328.6, 64981.137, 0.0000016137079, 9.998935, 10.000771 
1.56492e+3, 1.8333589e+2, -1195453.5, -1185123.1, -2563.2686, -0.083903395, 0.0010784679, -1184522.1, -41218.82, 0.0, 9.999617, 9.999758 
1.5649575e+3, 1.9333647e+2, -1058143.6, -1065873.1, -20420.406, -0.14297612, 0.061261192, -1041225.44, 4074.104, 0.0, 9.999877, 9.999779 
1.5649955e+3, 2.0333602e+2, -969316.06, -981910.4, 9711.923, -0.19720347, 0.06106501, -964038.44, -16735.23, 0.0, 9.999869, 9.999677 
1.5650342e+3, 2.1333385e+2, -866642.8, -854831.8, 7891.3486, -0.24216202, -0.1623182, -850880.94, -1562.9047, 0.0, 9.999796, 9.999907 
1.5650734e+3, 2.2333215e+2, -783648.3, -870344.8, 750.3129, -0.21809201, -0.2642187, -783641.8, -32311.684, 0.0, 10.000111, 9.998993 
1.5651134e+3, 2.3333152e+2, -536315.56, -692540.8, -21829.807, -0.06789095, -0.25380754, -533322.56, 120013.19, 0.0, 10.001111, 9.99905 
1.5651533e+3, 2.4333078e+2, -417888.25, -677574.4, 48776.902, 0.005934273, -0.17996842, -409028.72, 146314.3, 0.0, 10.001639, 9.9982395 
1.565193e+3, 2.533298e+2, -363652.9, -588316.9, 70427.87, -0.07099608, -0.12684275, -343400.75, 113952.734, 0.00000039469393, 10.001302, 9.998333 
1.5652327e+3, 2.6332828e+2, -277235.44, -491345.6, 45889.53, -0.08753492, -0.096207015, -267814.6, 91554.83, 0.000008163994, 10.001213, 9.998367 
1.5652725e+3, 2.7332598e+2, -113914.11, -344028.1, 22354.787, -0.00218191, -0.20359205, -111762.53, 149630.48, 0.000058543963, 10.001581, 9.998527 
1.5653118e+3, 2.8332433e+2, 27784.502, -254605.97, 32750.678, 0.055470627, -0.1861004, 31533.053, 194941.63, 0.00029613846, 10.002005, 9.998272 
1.5653506e+3, 2.9332358e+2, 206796.95, -99978.22, 23322.629, 0.061188444, -0.13254909, 208559.94, 273973.3, 0.00096598663, 10.002486, 9.998421 
1.5653887e+3, 3.0332017e+2, 205853.98, -180923.13, -245.82756, 0.044173952, -0.2585236, 205854.14, 205854.14, 0.0021639143, 10.002586, 9.997492 
1.5654258e+3, 3.13319e+2, 213205.05, -50321.164, -15515.68, 0.011783348, -0.16304438, 214115.42, 214115.42, 0.003739025, 10.002021, 9.998668 
1.5746886e+3, 1.2329514e+2, -2041422.0, -1793621.9, 191584.94, 0.16175866, -0.024675485, -1689364.0, 42334.113, 0.023204513, 9.997365, 10.000722 
1.5747283e+3, 1.332933e+2, -1886502.6, -1740343.9, 46823.367, 0.101805076, -0.23105554, -1726630.3, -92915.39, 0.014108494, 9.9981, 10.000061 
1.5747637e+3, 1.4329408e+2, -1753800.5, -1618383.6, -6394.243, -0.24589822, -0.15046641, -1618082.4, -82374.79, 0.0063687824, 9.998289, 10.00013 
1.5748051e+3, 1.5329467e+2, -1712327.0, -1537157.9, 14381.68, 0.013999236, -0.13676517, -1535985.0, -98279.15, 0.00176415, 9.997875, 10.000205 
1.5748438e+3, 1.6329527e+2, -1573202.9, -1369257.6, -4709.8223, 0.029230367, -0.09504854, -1369148.9, -29446.97, 0.00019721544, 9.997927, 10.000666 
1.5748803e+3, 1.7329633e+2, -1310021.9, -1155148.4, 16436.033, -0.17690478, -0.10563847, -1153423.4, 88267.016, 0.0000019795527, 9.99891, 10.000982 
1.574918e+3, 1.8329717e+2, -1201987.8, -1214931.3, -1150.1088, -0.27062634, -0.041182727, -1201886.4, -58204.098, 0.0, 9.999676, 9.99953 
1.574957e+3, 1.9329765e+2, -1095339.4, -1125387.9, -2924.329, -0.19649717, 0.04466495, -1095057.5, -49377.03, 0.0, 9.999798, 9.99941 
1.5749963e+3, 2.0329744e+2, -979699.1, -984415.2, -4308.589, -0.1261519, 0.08783794, -977145.5, -29462.576, 0.0, 9.999776, 9.999707 
1.575036e+3, 2.1329606e+2, -882316.56, -855565.75, 14113.716, -0.042867556, -0.06646589, -849496.44, 195.34454, 0.0, 9.999654, 9.999972 
1.5750755e+3, 2.2329466e+2, -818918.3, -904419.7, 22594.377, -0.018538618, -0.13720705, -813314.8, -61612.895, 0.0, 9.999942, 9.998837 
1.5751144e+3, 2.3329335e+2, -579360.6, -737784.7, 26584.14, -0.093288824, -0.17376895, -575018.7, 78694.97, 0.0, 10.000923, 9.998831 
1.5751538e+3, 2.4329197e+2, -417874.16, -632355.8, 32153.361, -0.11853282, -0.16724214, -413157.72, 142567.8, 0.0, 10.00144, 9.998645 
1.5751946e+3, 2.532906e+2, -350405.9, -527993.2, 68409.195, -0.051212505, -0.21191964, -327109.72, 130626.79, 0.00000029448665, 10.001155, 9.998817 
1.5752347e+3, 2.6328936e+2, -291990.1, -489775.94, 45092.977, -0.015590656, -0.18278088, -282194.53, 77553.516, 0.000007127328, 10.001067, 9.998453 
1.5752739e+3, 2.7328834e+2, -128166.98, -344223.2, 52003.086, -0.04893981, -0.1675771, -116301.83, 145459.61, 0.000059012113, 10.0014515, 9.998591 
1.5753129e+3, 2.8328744e+2, 18122.1, -248098.56, 36729.69, -0.059694972, -0.086271696, 23096.637, 186867.86, 0.00030982727, 10.001884, 9.998373 
1.5753524e+3, 2.932871e+2, 179315.19, -106663.72, 60871.043, -0.025194421, -0.0069475234, 191732.53, 257503.98, 0.0010139171, 10.002268, 9.99848 
1.5753907e+3, 3.032841e+2, 162016.5, -205967.11, -26596.57, -0.03545493, -0.08570421, 163928.88, 163928.88, 0.002279307, 10.002332, 9.997424 
1.575427e+3, 3.1328112e+2, 178169.61, -23304.982, 13828.922, -0.106724836, -0.1764908, 179114.38, 179114.38, 0.003959466, 10.0016365, 9.999011 
1.5846868e+3, 1.2325459e+2, -1853043.6, -1698303.6, 148737.63, 0.20519519, -0.06729635, -1608016.3, 124078.01, 0.024665277, 9.998642, 10.000758 
1.584725e+3, 1.3325332e+2, -1876160.1, -1679005.8, -54531.75, -0.019944403, -0.26193574, -1664927.8, -30820.916, 0.0150364665, 9.997927, 10.000559 
1.5847626e+3, 1.432556e+2, -1765319.0, -1584722.9, -38139.625, -0.16241173, -0.07621585, -1576998.8, -40912.723, 0.0068181083, 9.998054, 10.000468 
1.5848038e+3, 1.5325633e+2, -1577595.3, -1444789.5, -23951.855, 0.083804354, -0.067475155, -1440601.8, -2518.785, 0.0019058621, 9.998682, 10.000447 
1.5848425e+3, 1.63257e+2, -1455280.6, -1321119.1, -6579.1973, 0.0746572, -0.030483352, -1320797.3, 19281.39, 0.0002187055, 9.998778, 10.000579 
1.5848792e+3, 1.7325766e+2, -1403385.4, -1211926.5, -37682.883, -0.14181857, -0.069165386, -1204776.8, 37294.133, 0.000002466339, 9.998334, 10.000861 
1.5849172e+3, 1.8325803e+2, -1385208.8, -1269188.9, -23908.4, -0.23076673, -0.056588992, -1264455.1, -120388.83, 0.0, 9.998286, 9.999822 
1.5849566e+3, 1.9325796e+2, -1116276.3, -1088209.3, 7742.8003, -0.17844906, -0.06285737, -1086215.0, -40148.07, 0.0, 9.999459, 9.999822 
1.5849963e+3, 2.032578e+2, -933417.44, -992953.7, 33263.063, -0.10851208, -0.027895823, -918547.3, 29520.82, 0.0, 10.000206, 9.999457 
1.5850365e+3, 2.1325755e+2, -828639.3, -875239.2, -7490.6006, 0.01944175, -0.030316709, -827464.8, 22605.11, 0.0, 10.000182, 9.999601 
1.5850763e+3, 2.2325678e+2, -779406.2, -893012.7, 32825.39, 0.061726276, -0.014480689, -770603.7, -18526.723, 0.0, 10.000268, 9.998765 
1.5851153e+3, 2.332551e+2, -580040.3, -743699.0, 30088.68, -0.069916785, -0.07706642, -574683.8, 79408.86, 0.0, 10.000946, 9.998793 
1.5851551e+3, 2.4325337e+2, -416428.34, -598017.1, 25345.94, -0.1167058, -0.11446758, -412956.97, 143150.5, 0.0, 10.001338, 9.998913 
1.5851961e+3, 2.5325176e+2, -312460.38, -475758.97, 10557.006, -0.015968125, -0.21150647, -311780.72, 146337.27, 0.00000023115544, 10.001286, 9.9991045 
1.5852363e+3, 2.6325047e+2, -256786.53, -484176.2, 18066.205, 0.03686769, -0.19976015, -255360.11, 104768.67, 0.0000061293663, 10.001366, 9.998338 
1.5852757e+3, 2.7324972e+2, -68164.97, -331804.25, -14550.701, -0.015136319, -0.13373815, -67364.32, 194776.11, 0.000060026516, 10.001957, 9.998417 
1.5853149e+3, 2.832489e+2, 94463.72, -188007.27, -28334.045, -0.04053838, -0.044022776, 97277.805, 261427.66, 0.0003212461, 10.00231, 9.998575 
1.5853544e+3, 2.9324812e+2, 166003.97, -76135.12, -31085.836, -0.017649867, -0.038226858, 169931.08, 236083.67, 0.0010569163, 10.002002, 9.998815 
1.5853931e+3, 3.0324543e+2, 134539.47, -222254.2, -65309.41, -0.0018683729, -0.106726274, 146118.28, 146118.28, 0.002384318, 10.002126, 9.997447 
1.58543e+3, 3.1324202e+2, 385383.78, 73280.32, -74185.86, -0.025745466, -0.21640275, 402120.03, 402120.03, 0.0041536926, 10.003059, 9.999026 
1.5946843e+3, 1.2321167e+2, -1829837.4, -1711221.8, 12185.824, 0.034413546, -0.14998314, -1709982.9, 22536.592, 0.026239868, 9.998863, 10.000566 
1.5947202e+3, 1.3321403e+2, -1786805.4, -1497642.3, -49201.977, -0.3102116, -0.10008203, -1489499.8, 144998.17, 0.016040104, 9.997928, 10.001818 
1.5947619e+3, 1.4321709e+2, -1700517.1, -1485583.3, -32469.908, -0.053971745, 0.06582401, -1480785.1, 55684.215, 0.0073062, 9.998179, 10.001101 
1.5948023e+3, 1.532188e+2, -1530831.6, -1363844.3, 10388.383, 0.034925494, 0.1144742, -1363200.5, 75254.05, 0.002060233, 9.9987335, 10.000987 
1.5948407e+3, 1.6321991e+2, -1467736.0, -1368902.5, -34966.996, -0.01167317, 0.17924976, -1357782.5, -17337.52, 0.00024185247, 9.998871, 10.000206 
1.5948787e+3, 1.732194e+2, -1449338.4, -1301353.5, -47907.043, -0.03305771, 0.07901976, -1287198.5, -44749.047, 0.0000030340082, 9.998308, 10.000259 
1.5949173e+3, 1.8321854e+2, -1323573.4, -1146797.0, -4287.4546, -0.06544041, -0.03179814, -1146693.1, -2238.1035, 0.0, 9.998302, 10.000655 
1.5949562e+3, 1.9321743e+2, -1051225.5, -932005.75, 64766.895, -0.18537135, -0.25510275, -903592.44, 142866.16, 0.0, 9.999368, 10.000938 
1.5949953e+3, 2.0321715e+2, -983684.7, -1072404.4, 28805.72, -0.24886644, -0.27630287, -975152.5, -26694.148, 0.0, 10.0001, 9.9989605 
1.595035e+3, 2.132185e+2, -916261.5, -1009491.25, -189.88197, -0.15071407, -0.041907348, -916261.1, -65809.984, 0.0, 9.999988, 9.99877 
1.5950751e+3, 2.2321872e+2, -809111.56, -916806.56, 42030.273, -0.085660234, 0.12617801, -794650.25, -42197.184, 0.0, 10.000094, 9.998689 
1.5951161e+3, 2.332169e+2, -604227.5, -752061.06, 72167.04, -0.097591035, 0.04128527, -574840.0, 79631.56, 0.0, 10.000761, 9.998827 
1.5951568e+3, 2.4321502e+2, -446163.4, -612871.0, 21171.146, -0.102458656, -0.011585703, -443516.78, 112971.086, 0.0, 10.001139, 9.998903 
1.5951969e+3, 2.532132e+2, -339203.78, -482755.38, 20782.121, -0.06447202, -0.13105828, -336255.66, 122242.69, 0.00000009760233, 10.00109, 9.999144 
1.5952373e+3, 2.6321152e+2, -307739.13, -555137.56, 24170.9, -0.026509851, -0.14461091, -305399.72, 55111.875, 0.0000054247644, 10.001208, 9.997929 
1.5952778e+3, 2.7321023e+2, -137891.08, -425259.66, 25309.268, -0.0059344447, -0.08949842, -135679.06, 126849.82, 0.0000627863, 10.001729, 9.997886 
1.5953177e+3, 2.8320873e+2, 75936.15, -164433.55, -43017.688, -0.010380046, -0.049852595, 83402.85, 247947.25, 0.0003316825, 10.002041, 9.998871 
1.5953563e+3, 2.9320663e+2, 170925.4, -15857.883, -22386.563, -0.05066445, -0.22087824, 173571.03, 240127.94, 0.0010853008, 10.001781, 9.999342 
1.5953954e+3, 3.0320424e+2, 93558.67, -242859.95, -52296.117, 0.0012137688, -0.2904779, 101500.59, 101500.59, 0.002449286, 10.001877, 9.997415 
1.5954341e+3, 3.13202e+2, 278256.28, -32180.475, 7473.873, 0.027243601, -0.26783118, 278436.1, 278436.1, 0.0042658485, 10.002592, 9.998514 
1.6046822e+3, 1.2317184e+2, -2060291.9, -1793551.3, 55862.195, 0.04898518, -0.06524803, -1782324.8, -49410.73, 0.027939666, 9.997208, 10.000784 
1.6047178e+3, 1.3317415e+2, -1739750.6, -1452203.8, -6602.9736, -0.33736944, -0.034898147, -1452052.3, 182840.02, 0.01712635, 9.998188, 10.001996 
1.604761e+3, 1.4317697e+2, -1623267.3, -1407696.4, -33907.273, 0.01965323, 0.08494274, -1402488.9, 134376.03, 0.007836914, 9.998563, 10.001432 
1.6048002e+3, 1.5317863e+2, -1588056.1, -1335561.9, -38497.973, 0.003764376, 0.07940273, -1329822.5, 109025.12, 0.0022287087, 9.99812, 10.001459 
1.6048387e+3, 1.6317976e+2, -1583514.8, -1414049.1, -39362.188, -0.051815134, 0.11397689, -1405352.6, -64516.715, 0.00026665046, 9.998042, 10.000293 
1.6048776e+3, 1.7317963e+2, -1302174.8, -1225482.8, -28190.19, -0.023023922, 0.05298143, -1216235.6, 26601.488, 0.0000036433328, 9.999301, 10.000303 
1.6049168e+3, 1.831791e+2, -1092489.3, -1062251.6, 34098.023, -0.017711654, -0.018708449, -1040070.94, 104769.73, 0.0, 9.999995, 10.0004225 
1.6049562e+3, 1.9317788e+2, -995341.7, -938005.1, -26091.445, -0.12523386, -0.2249594, -927909.56, 118937.625, 0.0, 9.999874, 10.000656 
1.6049957e+3, 2.031774e+2, -981967.4, -1040121.8, -83543.53, -0.19071072, -0.2557916, -922585.5, 26263.842, 0.0, 9.999993, 9.999231 
1.6050352e+3, 2.131786e+2, -759391.25, -885576.56, -49381.223, -0.16025943, -0.07296494, -742364.06, 108477.31, 0.0, 10.0008745, 9.999188 
1.6050754e+3, 2.2317874e+2, -640452.56, -856100.25, 58313.996, -0.116017304, 0.070167124, -625693.8, 127149.58, 0.0, 10.001342, 9.998492 
1.605117e+3, 2.3317705e+2, -571258.0, -761514.4, 34618.527, -0.07589183, 0.024560768, -565154.75, 89707.9, 0.0, 10.001112, 9.998568 
1.6051582e+3, 2.4317534e+2, -461829.53, -626611.25, -10504.395, -0.051520053, 0.00451482, -461162.63, 95716.11, 0.0, 10.001046, 9.998869 
1.6051984e+3, 2.5317377e+2, -288631.44, -456523.06, -28864.97, -0.02270049, -0.085006244, -283807.4, 175079.39, 0.000000007673713, 10.001411, 9.999185 
1.6052388e+3, 2.6317206e+2, -279292.9, -519629.56, 1215.6848, 0.0164198, -0.11249475, -279286.75, 81612.72, 0.0000049768487, 10.00131, 9.998129 
1.6052791e+3, 2.731702e+2, -339587.34, -504701.6, 10776.416, 0.044457354, -0.13075915, -338887.0, -75967.23, 0.00006482946, 10.000251, 9.998072 
1.605319e+3, 2.8316823e+2, -231329.6, -322496.88, 21523.766, 0.03569788, -0.14428082, -226503.5, -61564.793, 0.00033743004, 9.99995, 9.998797 
1.605358e+3, 2.9316622e+2, 105763.95, -54210.21, -28363.314, -0.016692974, -0.2910273, 110643.88, 177595.98, 0.0010901192, 10.0013685, 9.999271 
1.6053979e+3, 3.031646e+2, 192553.48, -167589.69, -45778.74, 0.07101116, -0.294682, 198281.44, 198281.44, 0.0024526818, 10.00243, 9.997654 
1.605437e+3, 3.1316265e+2, 237574.81, -65732.86, -18904.541, 0.10471715, -0.27158943, 238748.55, 238748.55, 0.004266189, 10.002336, 9.998402 
1.6146795e+3, 1.23135395e+2, -1983872.1, -1679618.4, -57771.418, 0.0016371448, 0.17575441, -1669018.1, 64257.152, 0.02978273, 9.997367, 10.001515 
1.6147178e+3, 1.3313423e+2, -1821313.6, -1620918.1, 43235.316, -0.17540394, -0.044781014, -1611988.1, 23296.713, 0.018308382, 9.998192, 10.000825 
1.6147588e+3, 1.4313558e+2, -1608170.6, -1402294.8, -54854.582, -0.08630974, 0.0031628793, -1388591.1, 148677.69, 0.008418617, 9.998664, 10.001426 
1.6147974e+3, 1.531356e+2, -1568022.5, -1294048.3, -47979.473, -0.112242065, -0.19009048, -1285888.9, 153374.55, 0.0024150687, 9.998119, 10.001747 
1.614836e+3, 1.6313623e+2, -1522292.9, -1316594.4, -21758.264, -0.15994957, -0.24919297, -1314318.0, 26936.068, 0.0002938315, 9.998152, 10.000914 
1.614875e+3, 1.7313829e+2, -1252454.9, -1130213.4, 29551.74, -0.20560333, -0.1583857, -1123444.1, 119790.09, 0.000004294035, 9.999316, 10.0009575 
1.6149151e+3, 1.8313962e+2, -1182236.8, -1256184.5, 24532.426, -0.20425473, -0.025819622, -1174838.3, -29614.604, 0.0, 10.000032, 9.999069 
1.6149566e+3, 1.9313934e+2, -1132758.9, -1208804.5, -22333.705, -0.098060384, 0.03598315, -1126684.9, -79452.484, 0.0, 9.999814, 9.998827 
1.6149974e+3, 2.0313877e+2, -931714.75, -906112.4, -72723.734, -0.050628256, 0.06043703, -845071.75, 104167.984, 0.0, 9.999866, 10.00021 
1.6150369e+3, 2.1313794e+2, -671289.4, -666919.7, -5784.634, -0.09758336, -0.11214397, -662921.0, 188319.28, 0.0, 10.000723, 10.00076 
1.615077e+3, 2.2313687e+2, -694161.4, -917690.0, 44341.656, -0.12638967, -0.16945322, -685686.56, 67560.87, 0.0, 10.001132, 9.998169 
1.6151181e+3, 2.3313546e+2, -650684.7, -881272.94, 38450.06, -0.11172471, -0.11968674, -644442.2, 10824.388, 0.0, 10.00092, 9.997837 
1.615159e+3, 2.431342e+2, -488779.28, -645726.0, -13816.142, -0.08108626, -0.049270567, -487572.3, 69708.6, 0.0, 10.000879, 9.998819 
1.6152002e+3, 2.531335e+2, -308778.72, -458371.88, 184.4657, 0.0009123766, -0.06726665, -308778.5, 150504.34, 0.00000000987263, 10.001236, 9.999255 
1.6152406e+3, 2.6313213e+2, -267984.1, -448766.88, -42490.78, 0.048580036, -0.08894946, -258495.22, 102796.61, 0.000004852571, 10.001113, 9.998706 
1.6152793e+3, 2.7312937e+2, -309447.56, -408157.03, -13527.111, 0.019087436, -0.26730558, -307627.38, -44311.98, 0.00006465758, 10.000121, 9.998787 
1.6153187e+3, 2.8312728e+2, -281862.94, -402560.6, 40919.477, -0.020985898, -0.31082025, -269298.22, -103964.48, 0.0003366383, 9.99984, 9.998303 
1.6153593e+3, 2.9312688e+2, 27871.576, -173605.36, 45794.93, -0.042025708, -0.23438568, 37792.11, 105130.28, 0.0010767062, 10.00118, 9.998548 
1.6154006e+3, 3.03126e+2, 192352.03, -104512.16, -53483.125, 0.07178795, -0.14403965, 201693.61, 201693.61, 0.0024075846, 10.002184, 9.998187 
1.6154385e+3, 3.131243e+2, 199070.81, -43801.246, 16776.506, -0.027521474, -0.17477117, 200224.17, 200224.17, 0.0041727168, 10.001953, 9.998706 
1.6246772e+3, 1.2309612e+2, -1914183.8, -1652027.1, -47539.938, 0.027733196, 0.17260207, -1643672.4, 89986.93, 0.03179242, 9.997857, 10.001456 
1.6247171e+3, 1.3309425e+2, -1900951.9, -1715535.8, 49625.98, -0.017030042, -0.08166034, -1703089.1, -67413.15, 0.019603958, 9.997863, 10.000327 
1.6247568e+3, 1.4309545e+2, -1846492.5, -1534534.1, 3197.6763, -0.07364247, -0.012971432, -1534501.4, 3159.923, 0.009062119, 9.997128, 10.001247 
1.6247953e+3, 1.530949e+2, -1624364.8, -1322064.0, -32867.14, -0.10171907, -0.25780967, -1318531.9, 121128.41, 0.002624408, 9.997749, 10.00173 
1.6248342e+3, 1.6309537e+2, -1479644.6, -1271503.0, 18574.43, -0.1340902, -0.34051597, -1269858.4, 71793.24, 0.00032476612, 9.998351, 10.00112 
1.6248743e+3, 1.7309804e+2, -1268678.1, -1103270.8, 18361.193, -0.2059569, -0.21880662, -1101257.1, 142368.13, 0.000005034694, 9.999071, 10.001247 
1.6249149e+3, 1.830997e+2, -1283700.4, -1353539.3, 20876.213, -0.21039191, -0.04973534, -1277935.9, -132323.92, 0.0, 9.999551, 9.998637 
1.6249564e+3, 1.930994e+2, -1159998.0, -1273859.3, 37810.96, -0.0834743, 0.06302556, -1148585.6, -100961.91, 0.0, 9.999876, 9.9983425 
1.6249976e+3, 2.0309871e+2, -908927.44, -920177.0, 47881.2, -0.010388681, 0.11175586, -866341.75, 83292.44, 0.0, 10.000123, 9.99999 
1.6250378e+3, 2.130975e+2, -734943.9, -714107.3, -30397.496, -0.0446856, -0.0843921, -692392.3, 159247.2, 0.0, 10.000348, 10.000619 
1.6250783e+3, 2.2309625e+2, -736783.25, -898421.56, -29979.34, -0.065959275, -0.16454677, -731402.06, 22245.898, 0.0, 10.000656, 9.998534 
1.6251193e+3, 2.3309502e+2, -583558.75, -798729.7, 20675.643, -0.07433959, -0.13989535, -581590.06, 74071.94, 0.0, 10.001151, 9.9983015 
1.6251604e+3, 2.4309385e+2, -420382.22, -651224.94, 37591.133, -0.05247427, -0.075329065, -414415.03, 143259.56, 0.0, 10.0015135, 9.998471 
1.6252016e+3, 2.5309286e+2, -277127.34, -504606.0, -21085.297, 0.0034794428, -0.0697807, -275189.4, 184493.48, 0.000000011745934, 10.001709, 9.998709 
1.625242e+3, 2.630914e+2, -140414.22, -363027.13, -94528.82, 0.04798897, -0.073704354, -105690.45, 256004.02, 0.0000048598445, 10.001888, 9.9989195 
1.6252807e+3, 2.730892e+2, 174.39984, -216473.56, -122168.266, 0.06344261, -0.22930762, 55126.777, 318837.4, 0.00006306325, 10.002057, 9.999169 
1.62532e+3, 2.830876e+2, 27972.842, -262683.34, -9437.357, 0.04640888, -0.2426668, 28278.943, 194002.4, 0.00033149842, 10.002034, 9.998197 
1.625361e+3, 2.930871e+2, 111044.195, -162613.14, -7925.898, -0.022399588, -0.15037866, 111273.56, 179004.36, 0.001055369, 10.001887, 9.998278 
1.625403e+3, 3.0308542e+2, 259241.27, -50871.547, -53468.777, 0.08874872, -0.13395512, 268201.3, 268201.3, 0.002338704, 10.002536, 9.998401 
1.6254422e+3, 3.130839e+2, 568456.4, 148598.06, -84126.625, 0.051531218, -0.16345654, 584685.44, 584685.44, 0.004021066, 10.004388, 9.998891 
1.6346739e+3, 1.23054124e+2, -1967055.3, -1786015.9, 33387.55, -0.14749588, -0.0867664, -1780054.8, -45990.38, 0.03398967, 9.99797, 10.000462 
1.6347156e+3, 1.3305424e+2, -1885374.0, -1686636.9, 26396.633, 0.026194619, -0.14714143, -1683190.6, -47125.402, 0.02102759, 9.997873, 10.000523 
1.6347542e+3, 1.4305663e+2, -1847134.5, -1560205.8, -10775.073, -0.054456607, 0.039374605, -1559801.8, -21760.059, 0.009775217, 9.99722, 10.001031 
1.6347934e+3, 1.53057e+2, -1649276.1, -1370764.4, 2389.6902, -0.07673972, -0.08628408, -1370743.9, 69290.06, 0.002860367, 9.997736, 10.001402 
1.6348334e+3, 1.6305763e+2, -1487789.0, -1302302.9, 31429.889, -0.089425586, -0.12325042, -1297121.9, 44902.33, 0.00036087315, 9.998404, 10.000889 
1.6348743e+3, 1.7305893e+2, -1289157.0, -1141474.3, 50490.863, -0.11140494, -0.11117999, -1125862.5, 118147.16, 0.000005927034, 9.999051, 10.000997 
1.6349153e+3, 1.8305926e+2, -1231020.8, -1258072.4, 19911.46, -0.13822192, -0.086844444, -1220475.5, -74469.484, 0.0, 9.999602, 9.999272 
1.6349556e+3, 1.9305792e+2, -1111186.5, -1159869.9, 58263.38, -0.17201887, -0.1576813, -1072384.4, -24362.223, 0.0, 9.999816, 9.99916 
1.6349962e+3, 2.0305699e+2, -1020433.4, -1125363.5, 45329.625, -0.17393278, -0.12537284, -1003563.3, -53528.164, 0.0, 10.000007, 9.998641 
1.6350377e+3, 2.1305709e+2, -888195.1, -1000149.3, -8365.04, -0.098361336, -0.009064852, -887573.56, -35533.08, 0.0, 10.000198, 9.9987335 
1.6350791e+3, 2.2305675e+2, -706371.94, -782410.9, -22573.334, -0.059391752, 0.078187816, -700175.6, 53870.094, 0.0, 10.00043, 9.999437 
1.6351207e+3, 2.3305571e+2, -499801.25, -582901.8, 51389.582, -0.063545845, -0.032520104, -475265.88, 180783.22, 0.0, 10.000972, 9.999867 
1.635162e+3, 2.4305418e+2, -498086.28, -762339.7, 34799.668, -0.077126026, -0.069362074, -493580.3, 64479.863, 0.0, 10.001302, 9.997809 
1.6352022e+3, 2.5305182e+2, -381494.56, -683421.2, 2068.22, -0.114530176, -0.08719595, -381480.4, 78606.34, 0.000000006263202, 10.001554, 9.997554 
1.6352426e+3, 2.6305002e+2, -173477.63, -399421.94, -96629.586, -0.08843451, -0.04809111, -137789.14, 224316.31, 0.000005059976, 10.001735, 9.998753 
1.635283e+3, 2.730498e+2, -15983.408, -213783.36, -93058.77, 0.0663281, -0.020973694, 20914.78, 285018.75, 0.000060994436, 10.001888, 9.999275 
1.6353227e+3, 2.830491e+2, 2313.68, -265418.06, -25530.883, 0.094121814, 0.042523857, 4726.558, 170834.84, 0.0003219481, 10.001832, 9.998268 
1.6353624e+3, 2.9304683e+2, 79841.91, -176787.63, 12395.04, -0.09113107, -0.040410776, 80439.19, 148569.06, 0.0010251402, 10.001685, 9.998272 
1.6354047e+3, 3.0304298e+2, 205327.75, -98466.15, -8663.349, -0.010862107, -0.22901356, 205574.61, 205574.61, 0.002254671, 10.002266, 9.998201 
1.6354477e+3, 3.1304172e+2, 514977.9, 155444.84, 14929.394, 0.123322666, -0.22801629, 515596.78, 515596.78, 0.0038411752, 10.003895, 9.999168 
1.644672e+3, 1.2301377e+2, -2072551.1, -1863465.8, 61621.62, -0.093950406, -0.119300984, -1846656.0, -112197.48, 0.036383986, 9.997404, 10.000203 
1.6447134e+3, 1.330145e+2, -1865194.8, -1649662.6, -38516.668, 0.025164299, -0.1299397, -1642986.4, -6531.339, 0.022584815, 9.997924, 10.000749 
1.6447522e+3, 1.4301686e+2, -1741931.1, -1514039.5, -24083.94, -0.0054515223, 0.04335982, -1511522.1, 26910.533, 0.010560797, 9.997942, 10.001012 
1.6447918e+3, 1.5301782e+2, -1561554.1, -1339935.9, -8178.7075, -0.016984727, -0.017311458, -1339634.4, 100785.2, 0.0031241647, 9.99836, 10.001324 
1.6448325e+3, 1.6301836e+2, -1480412.9, -1356852.3, 51334.797, -0.0040366184, -0.040066402, -1338307.9, 4103.343, 0.0004029895, 9.998704, 10.000373 
1.6448742e+3, 1.7301837e+2, -1316991.9, -1230140.9, 19639.826, -0.039196845, -0.0927392, -1225906.1, 18503.314, 0.0000070009137, 9.999175, 10.0003395 
1.6449152e+3, 1.8301794e+2, -1204004.8, -1194261.4, -15242.497, -0.08553958, -0.12171449, -1183131.0, -36718.55, 0.0, 9.999587, 9.999701 
1.6449556e+3, 1.930169e+2, -997510.7, -1029849.4, -17291.26, -0.16321912, -0.22812688, -990006.5, 58415.547, 0.0, 10.000281, 9.999815 
1.6449964e+3, 2.0301631e+2, -966129.06, -1155518.9, -5513.814, -0.16772273, -0.17965782, -965968.7, -15537.428, 0.0, 10.0006275, 9.998129 
1.6450384e+3, 2.1301688e+2, -917113.56, -1092717.8, -7519.908, -0.033395927, 0.055990074, -916792.1, -64355.223, 0.0, 10.000361, 9.998003 
1.6450803e+3, 2.230167e+2, -695241.8, -777199.9, 50419.664, 0.036889166, 0.20144758, -671248.4, 83194.836, 0.0, 10.000509, 9.999444 
1.645122e+3, 2.3301497e+2, -400581.3, -513745.88, 10998.473, -0.029449496, 0.00894818, -399522.28, 256928.06, 0.0, 10.001564, 10.000066 
1.6451634e+3, 2.430131e+2, -354881.6, -662259.0, -42153.695, -0.0766249, -0.08493254, -349205.47, 209257.3, 0.0, 10.002157, 9.998081 
1.6452038e+3, 2.5301105e+2, -330229.1, -632405.4, -9451.696, -0.09915431, -0.09161477, -329933.75, 130551.75, 0.000000005166704, 10.001795, 9.997792 
1.6452445e+3, 2.6300937e+2, -213834.55, -450918.56, -16623.416, -0.051168945, -0.044978082, -212674.66, 149828.95, 0.000005473011, 10.001598, 9.998454 
1.645285e+3, 2.7300867e+2, -22327.768, -260004.94, -84314.36, 0.090621665, -0.027385551, 4544.047, 269053.06, 0.000058881178, 10.002052, 9.998861 
1.645325e+3, 2.8300765e+2, 93101.9, -235244.52, -24091.215, 0.11472502, 0.03772636, 94860.086, 261377.31, 0.0003079229, 10.002504, 9.998163 
1.6453649e+3, 2.9300573e+2, 206543.88, -119695.43, -25677.225, -0.035409935, -0.007237827, 208552.48, 277087.63, 0.0009851714, 10.002576, 9.998236 
1.6454075e+3, 3.030016e+2, 222658.08, -161178.47, 7347.763, 0.058105435, -0.18969744, 222798.69, 222798.69, 0.0021641257, 10.00264, 9.997614 
1.6454509e+3, 3.1300038e+2, 286123.9, 28293.855, -78573.77, 0.16316716, -0.12357941, 308182.13, 308182.13, 0.003669242, 10.002381, 9.99902 
1.6546722e+3, 1.229749e+2, -1999564.8, -1745877.3, -3575.881, 0.11380216, 0.06508987, -1745826.9, -10982.814, 0.03897044, 9.997544, 10.000941 
1.6547097e+3, 1.3297534e+2, -1851609.0, -1625198.9, -20771.998, -0.14674863, 0.004006348, -1623308.9, 13533.218, 0.024272982, 9.997927, 10.000924 
1.6547498e+3, 1.4297622e+2, -1713680.0, -1471520.6, -33485.746, -0.062430684, 0.003836058, -1466975.5, 71857.87, 0.0114189135, 9.998008, 10.001274 
1.6547903e+3, 1.5297739e+2, -1546938.1, -1315843.6, 16451.135, -0.024516115, -0.051834095, -1314678.4, 126138.79, 0.0034161112, 9.998385, 10.001479 
1.6548315e+3, 1.6297756e+2, -1517195.5, -1462668.6, 53618.6, -0.0024314388, -0.08931894, -1429780.1, -86967.74, 0.00045137366, 9.998818, 9.999595 
1.6548729e+3, 1.7297643e+2, -1384887.0, -1367541.3, 45568.895, -0.0860523, -0.1628714, -1329827.3, -85003.18, 0.000008273259, 9.999162, 9.999398 
1.6549143e+3, 1.829758e+2, -1188255.3, -1174181.3, -2012.5144, -0.1559382, -0.16137722, -1173899.1, -27068.715, 0.0, 9.999628, 9.9998255 
1.654956e+3, 1.9297636e+2, -978393.75, -979184.44, 16671.799, -0.1568016, -0.14509188, -962112.56, 86711.11, 0.0, 10.00022, 10.0002 
1.6549978e+3, 2.0297675e+2, -962990.6, -1119456.8, -20669.02, -0.110017724, -0.033721343, -960306.3, -9484.636, 0.0, 10.000502, 9.998436 
1.6550398e+3, 2.1297687e+2, -918788.2, -1059718.6, -8132.8003, 0.055608276, 0.12644172, -918320.4, -65491.516, 0.0, 10.000204, 9.998304 
1.6550817e+3, 2.2297587e+2, -776230.1, -907622.1, 67586.85, 0.11005022, 0.20430739, -747671.44, 7170.8984, 0.0, 10.000344, 9.99863 
1.6551232e+3, 2.3297268e+2, -505074.4, -687540.7, 66985.22, -0.07245529, -0.025475062, -483124.06, 173742.67, 0.0, 10.001374, 9.998967 
1.6551647e+3, 2.429705e+2, -319436.38, -530982.75, -51147.344, -0.17732367, -0.12656818, -307719.06, 251163.7, 0.0, 10.001913, 9.999097 
1.6552062e+3, 2.529705e+2, -251797.64, -420325.28, -11285.471, -0.052254528, -0.08499208, -251045.27, 209835.14, 0.00000000856411, 10.0015955, 9.999335 
1.6552472e+3, 2.6296923e+2, -275001.28, -543356.8, -19780.717, 0.04752678, -0.06458779, -273551.06, 89340.195, 0.0000057188686, 10.001438, 9.997902 
1.6552866e+3, 2.7296567e+2, -113565.74, -420982.2, -48799.07, 0.032430306, -0.23134479, -106005.35, 158921.77, 0.00005720022, 10.001917, 9.997827 
1.6553265e+3, 2.829634e+2, 47245.758, -285076.13, -31183.309, -0.006933943, -0.22122836, 50146.51, 217096.42, 0.0002952708, 10.002305, 9.997918 
1.655368e+3, 2.9296353e+2, 181447.02, -140353.92, 1397.3583, 0.0032387713, -0.061979476, 181453.08, 250402.5, 0.0009504649, 10.002427, 9.99817 
1.6554111e+3, 3.0296087e+2, 106635.914, -329907.97, -11460.493, 0.13319053, -0.048212253, 106936.58, 106936.58, 0.002096841, 10.002353, 9.996584 
1.655452e+3, 3.12959e+2, 175886.73, -101337.125, -29437.898, -0.021872241, 0.07078108, 178978.22, 178978.22, 0.0035553107, 10.001949, 9.99834 
1.6646709e+3, 1.2293402e+2, -1959502.0, -1720572.6, 19190.307, 0.24982828, 0.012439116, -1719041.1, 16204.42, 0.041736465, 9.99777, 10.001018 
1.6647077e+3, 1.3293588e+2, -1801874.3, -1579392.3, 3912.6086, -0.14262426, 0.06784266, -1579323.5, 57905.79, 0.026087236, 9.998146, 10.001145 
1.6647485e+3, 1.429362e+2, -1725478.6, -1526912.5, -1599.7054, 0.0051627825, 0.019211827, -1526899.6, 12326.719, 0.012349877, 9.998169, 10.000798 
1.6647898e+3, 1.5293695e+2, -1523586.3, -1364556.4, -26051.059, 0.06082128, -0.020250523, -1360397.8, 80818.89, 0.003737191, 9.998834, 10.000911 
1.6648313e+3, 1.6293703e+2, -1463202.9, -1432004.9, 13798.938, 0.085818864, -0.031425476, -1426777.4, -83563.28, 0.00050616945, 9.999194, 9.999612 
1.6648725e+3, 1.7293616e+2, -1374389.0, -1344507.9, 59354.875, -0.035296854, -0.09623699, -1298242.0, -53019.754, 0.000009797576, 9.999158, 9.999556 
1.6649139e+3, 1.8293557e+2, -1294406.9, -1255158.4, 84606.68, -0.11233192, -0.088828236, -1187929.9, -40702.19, 0.0, 9.999036, 9.99955 
1.6649562e+3, 1.9293581e+2, -1131230.4, -1089290.3, 28578.943, -0.10157782, -0.06789859, -1074813.1, -25588.586, 0.0, 9.999348, 9.99985 
1.6649984e+3, 2.029357e+2, -1013968.56, -1120663.5, -19073.049, -0.054266497, 0.0049810163, -1010661.56, -59435.168, 0.0, 10.000052, 9.998644 
1.6650407e+3, 2.1293503e+2, -678342.6, -906131.6, -23686.719, 0.064619705, 0.053407475, -675905.6, 177331.17, 0.0, 10.001685, 9.998649 
1.6650829e+3, 2.2293364e+2, -509224.53, -798438.25, 63428.15, 0.10820554, 0.0802865, -495925.5, 259326.34, 0.0, 10.002272, 9.998439 
1.6651246e+3, 2.329311e+2, -623028.56, -774897.9, 81426.85, -0.0291221, -0.058266334, -587624.06, 69649.24, 0.0, 10.000706, 9.9986725 
1.6651663e+3, 2.4292937e+2, -593722.56, -644214.7, 14842.597, -0.090102755, -0.10343958, -589682.7, -30396.035, 0.0, 9.999915, 9.999309 
1.6652082e+3, 2.5292936e+2, -329829.4, -415587.13, -41751.223, 0.038790703, -0.09294057, -312860.44, 148422.2, 0.0000000057748837, 10.000861, 9.999738 
1.6652493e+3, 2.629282e+2, -219717.16, -506590.16, -45019.668, 0.120508626, -0.09062704, -212818.03, 150473.73, 0.0000055479773, 10.001782, 9.997986 
1.6652887e+3, 2.7292478e+2, -13973.378, -389333.66, -34008.113, 0.028383376, -0.23793125, -10917.085, 254409.84, 0.000055377644, 10.0026455, 9.997711 
1.6653286e+3, 2.8292248e+2, 179097.11, -233080.33, 38515.453, -0.050220784, -0.22019848, 182665.27, 350016.16, 0.00028510438, 10.003264, 9.997799 
1.6653703e+3, 2.929227e+2, 291168.6, -102304.336, 13160.351, -0.03377811, -0.03345578, 291608.28, 360958.25, 0.0009269267, 10.003278, 9.998002 
1.6654135e+3, 3.029204e+2, 210119.16, -263045.84, 40852.95, 0.13347146, 0.020306088, 213620.48, 213620.48, 0.0020627275, 10.002993, 9.996723 
1.665455e+3, 3.129173e+2, 196044.64, -28474.965, 47036.344, 0.122353226, -0.008584896, 205500.42, 205500.42, 0.0035148177, 10.001833, 9.998877 
1.6746661e+3, 1.2289231e+2, -1987778.4, -1802938.8, -57128.887, -0.061189927, -0.17326404, -1786707.3, -51056.09, 0.044670317, 9.997868, 10.0004015 
1.674707e+3, 1.3289627e+2, -1776202.9, -1543878.6, 15151.318, -0.05597071, 0.07074607, -1542894.8, 94719.62, 0.028026333, 9.998204, 10.001376 
1.6747478e+3, 1.428968e+2, -1795357.4, -1688130.0, 951.8391, 0.08940436, 0.07598389, -1688121.5, -148510.34, 0.013357116, 9.9982395, 9.999655 
1.6747895e+3, 1.5289664e+2, -1625701.1, -1576953.4, 10948.869, 0.14353238, 0.0853031, -1574607.3, -132990.44, 0.004090086, 9.998834, 9.9994545 
1.6748314e+3, 1.6289674e+2, -1394701.0, -1310947.3, 1841.5283, 0.14322253, 0.13389732, -1310906.8, 32710.123, 0.0005678562, 9.999277, 10.000408 
1.6748723e+3, 1.7289764e+2, -1285046.3, -1151133.5, 63597.566, 0.023836546, 0.1198298, -1125743.8, 119859.37, 0.000011659807, 9.9991255, 10.000902 
1.6749136e+3, 1.8289751e+2, -1334179.6, -1347705.6, 80800.58, -0.07398933, 0.116719045, -1259859.5, -112258.12, 0.0, 9.999069, 9.998904 
1.6749558e+3, 1.9289531e+2, -1224734.5, -1268382.9, 49190.598, -0.09572826, 0.006056396, -1192744.1, -143119.6, 0.0, 9.999278, 9.99866 
1.6749981e+3, 2.0289312e+2, -1016693.2, -1108736.5, 20504.428, -0.1075722, -0.062494, -1012332.06, -60685.883, 0.0, 9.999969, 9.99877 
1.6750407e+3, 2.1289128e+2, -673872.06, -860441.5, 50534.58, -0.10254058, -0.16868202, -661063.56, 192597.8, 0.0, 10.001515, 9.999052 
1.6750833e+3, 2.2289002e+2, -521145.47, -765065.7, 17996.55, -0.08414966, -0.16858616, -519824.84, 235846.95, 0.0, 10.002024, 9.998783 
1.6751257e+3, 2.328901e+2, -625494.5, -742445.2, 29853.555, -0.0037611052, -0.078493424, -618314.7, 39356.484, 0.0, 10.000543, 9.998972 
1.6751678e+3, 2.4288955e+2, -650668.94, -721690.7, 18483.045, 0.058469586, -0.0050994484, -646146.75, -86470.72, 0.0, 9.99974, 9.998859 
1.6752094e+3, 2.5288782e+2, -399318.56, -521208.56, 10717.328, 0.07377902, -0.10694179, -398383.4, 63307.582, 0.0000000017385277, 10.00069, 9.999094 
1.6752507e+3, 2.6288638e+2, -215583.81, -446002.28, -22053.416, 0.054212097, -0.117627725, -213492.06, 150211.72, 0.0000048816705, 10.001556, 9.998513 
1.6752909e+3, 2.7288553e+2, 17079.416, -284494.84, 17624.717, -0.031909782, -0.08092447, 18105.953, 283818.25, 0.000051551386, 10.002465, 9.998523 
1.675331e+3, 2.828843e+2, 126044.94, -281788.44, 33289.2, -0.14951505, 0.0030155857, 128744.28, 296469.5, 0.0002714196, 10.0029955, 9.997599 
1.6753715e+3, 2.928828e+2, 233968.58, -172081.72, 35787.285, -0.2614551, 0.053930562, 237098.58, 306839.7, 0.0008993855, 10.003041, 9.997649 
1.6754147e+3, 3.0287993e+2, 227276.11, -132845.75, -8898.932, -0.07271128, 0.025479427, 227495.88, 227495.88, 0.0020323566, 10.002615, 9.997788 
1.675459e+3, 3.1287467e+2, 261899.92, 161460.9, 42017.77, 0.29342487, -0.35888422, 277159.34, 277159.34, 0.0035035976, 10.001627, 10.000274 
1.6846636e+3, 1.2285188e+2, -2064380.6, -1864108.3, -28185.969, -0.07114323, -0.16383547, -1860217.0, -124172.836, 0.04776628, 9.997463, 10.000167 
1.6847055e+3, 1.3285518e+2, -1713470.3, -1528904.5, -46415.895, -0.03410382, 0.02643437, -1517888.9, 120124.42, 0.030093629, 9.998728, 10.00122 
1.6847467e+3, 1.428553e+2, -1631933.5, -1665104.8, -44924.426, 0.10798876, 0.019140607, -1600630.9, -60616.465, 0.0144471, 9.999585, 9.999171 
1.6847888e+3, 1.5285473e+2, -1535669.4, -1596611.5, 1006.25073, 0.15785812, 0.04292443, -1535652.8, -93626.79, 0.004479329, 9.999713, 9.998903 
1.6848306e+3, 1.628547e+2, -1375735.4, -1296859.5, 19922.959, 0.15494893, 0.11280888, -1292112.9, 51915.76, 0.0006375465, 9.999395, 10.000444 
1.6848718e+3, 1.7285614e+2, -1284938.5, -1121120.4, -25062.29, 0.07352138, 0.12812832, -1117371.9, 128637.7, 0.00001399049, 9.999007, 10.001153 
1.6849135e+3, 1.8285626e+2, -1349586.6, -1362284.0, 2455.4465, 0.019408457, 0.13725209, -1349128.4, -201122.88, 0.0, 9.99901, 9.998827 
1.6849563e+3, 1.9285369e+2, -1110517.3, -1236428.6, 31695.936, -0.006808252, 0.008910395, -1102988.5, -52955.457, 0.0, 10.000158, 9.998459 
1.6849992e+3, 2.0285128e+2, -886299.75, -1023025.6, 63559.297, -0.03371424, -0.075125284, -861317.75, 90739.21, 0.0, 10.000768, 9.998975 
1.6850418e+3, 2.1284993e+2, -849106.4, -901355.5, 56786.324, -0.07308692, -0.16576517, -812723.5, 41342.484, 0.0, 10.000143, 9.999424 
1.6850844e+3, 2.2284901e+2, -807756.4, -910221.3, 15673.516, -0.0667085, -0.15139665, -805412.5, -49340.098, 0.0, 10.000057, 9.998756 
1.6851269e+3, 2.3284894e+2, -545619.8, -717989.1, -24225.05, 0.037198484, -0.06379345, -542279.94, 115794.37, 0.0, 10.001133, 9.998876 
1.6851689e+3, 2.4284814e+2, -358370.7, -603130.3, -6579.3853, 0.108261906, 0.0004983004, -358193.94, 201888.5, 0.0, 10.001853, 9.998637 
1.6852106e+3, 2.5284606e+2, -258331.9, -491245.8, -17702.94, 0.07574381, -0.10861624, -256994.06, 205107.55, 0.0000000018399801, 10.00181, 9.998757 
1.685252e+3, 2.628446e+2, -196018.23, -432322.38, -25489.773, 0.044690058, -0.10076119, -193299.97, 170815.05, 0.0000039092515, 10.001673, 9.998552 
1.6852932e+3, 2.728445e+2, -101669.305, -312421.9, -60742.293, 0.009148704, -0.00960831, -85415.88, 180700.31, 0.000046409757, 10.001569, 9.99874 
1.685334e+3, 2.828431e+2, -72715.6, -359733.6, -43872.363, -0.07252355, 0.044487916, -66159.23, 101969.93, 0.00025645504, 10.001538, 9.99778 
1.6853744e+3, 2.928401e+2, 37194.645, -239455.73, -39864.145, -0.19680151, -0.072814025, 42824.336, 112982.13, 0.000866263, 10.001567, 9.997903 
1.6854174e+3, 3.0283755e+2, 193229.31, -160847.66, -30664.24, -0.027540324, -0.08487514, 195865.31, 195865.31, 0.0019892203, 10.002387, 9.997734 
1.6854618e+3, 3.128336e+2, 642426.25, 265830.56, -129192.81, 0.2922952, -0.2953672, 682485.25, 682485.25, 0.0034767648, 10.004529, 9.999648 
1.6946624e+3, 1.2281117e+2, -2035594.0, -1823326.3, 82561.336, 0.0058287447, -0.1319171, -1794995.4, -58555.19, 0.051028147, 9.997533, 10.000421 
1.6947027e+3, 1.328123e+2, -1765959.8, -1629303.5, 7057.0737, -0.20872004, -0.09740459, -1628940.1, 9489.326, 0.032295942, 9.9987, 10.0005245 
1.6947448e+3, 1.4281152e+2, -1597484.0, -1622384.0, -42179.65, -0.07606443, -0.16532364, -1565955.3, -25517.754, 0.015627254, 9.999699, 9.999416 
1.6947871e+3, 1.5281132e+2, -1502803.9, -1539867.5, 12663.512, -0.008017947, -0.13892005, -1498890.4, -56447.508, 0.004910431, 9.999758, 9.999275 
1.6948287e+3, 1.6281095e+2, -1408137.5, -1384249.1, -7720.326, -0.0093438355, -0.10246291, -1381971.3, -37522.57, 0.0007170378, 9.999476, 9.999805 
1.6948703e+3, 1.7281161e+2, -1352810.4, -1260567.5, -30751.61, 0.014506253, -0.07375691, -1251255.6, -4813.7363, 0.000016975888, 9.998997, 10.000202 
1.6949129e+3, 1.828118e+2, -1309522.1, -1293971.0, 18210.754, 0.05006951, -0.018649977, -1281945.3, -133504.98, 0.0, 9.999065, 9.999272 
1.6949573e+3, 1.9281083e+2, -1064128.1, -1124191.4, 82794.54, 0.061189156, -0.062274147, -1006086.8, 44364.547, 0.0, 10.000085, 9.999266 
1.6950008e+3, 2.0281023e+2, -890778.94, -992962.25, 39306.363, 0.055402443, -0.027637359, -877408.56, 75049.76, 0.0, 10.0006, 9.999264 
1.6950431e+3, 2.1281086e+2, -860782.2, -894435.6, 42254.445, 0.044857297, 0.06454934, -832127.25, 22324.549, 0.0, 9.999999, 9.999547 
1.6950855e+3, 2.2281045e+2, -854573.75, -958587.25, 31476.543, 0.028182508, 0.13013087, -845790.06, -89334.72, 0.0, 9.999855, 9.998518 
1.6951276e+3, 2.3280764e+2, -607981.06, -791313.7, 34069.527, -0.0046224413, -0.019362364, -601854.5, 56627.633, 0.0, 10.000895, 9.998485 
1.6951695e+3, 2.4280515e+2, -411718.44, -645090.7, -8690.008, -0.04209488, -0.09540266, -411395.28, 149110.36, 0.0, 10.001559, 9.998493 
1.6952112e+3, 2.5280398e+2, -288975.5, -512276.78, -5139.0034, -0.046210438, -0.10397641, -288857.28, 173658.72, 0.0000000033657745, 10.001629, 9.998702 
1.6952531e+3, 2.6280284e+2, -256615.92, -509068.47, -38628.41, -0.03132122, -0.04608533, -250837.56, 113689.06, 0.0000030031388, 10.001465, 9.998124 
1.6952951e+3, 2.7280155e+2, -163326.22, -399699.16, -46195.7, 0.034860812, -0.022039095, -154618.7, 111920.04, 0.000041455987, 10.001393, 9.998226 
1.6953368e+3, 2.8279898e+2, -73264.664, -307550.44, -54866.742, 0.039244458, -0.07655164, -61052.164, 107509.74, 0.00024337543, 10.001309, 9.998251 
1.6953781e+3, 2.9279453e+2, 75400.86, -136421.17, -19203.865, -0.0013565694, -0.4046551, 77127.81, 147728.61, 0.00083297, 10.0014515, 9.998674 
1.6954213e+3, 3.02793e+2, 78766.46, -327200.03, 24958.71, 0.102702744, -0.32846287, 80295.164, 80295.164, 0.0019296512, 10.002104, 9.9967165 
1.695463e+3, 3.127944e+2, 411966.7, -67444.84, 12151.581, -0.07545556, 0.13631345, 412274.5, 412274.5, 0.0034045347, 10.003924, 9.997625 
1.7046604e+3, 1.2276914e+2, -2012439.4, -1791598.3, 22889.709, 0.07592943, -0.08925509, -1789250.8, -52397.125, 0.054460447, 9.997596, 10.000615 
1.7047001e+3, 1.327696e+2, -1868154.5, -1665582.1, -28358.24, -0.26164523, -0.12244785, -1661687.1, -22839.283, 0.034638863, 9.997943, 10.000641 
1.7047445e+3, 1.4276837e+2, -1728146.9, -1615619.1, -22249.768, -0.011749858, -0.27099884, -1611379.5, -70520.88, 0.016903277, 9.998537, 10.000014 
1.7047861e+3, 1.527693e+2, -1573755.4, -1499872.3, 14577.132, -0.02949709, -0.19408044, -1497100.3, -54250.81, 0.00538814, 9.998973, 9.999915 
1.7048272e+3, 1.627692e+2, -1481009.1, -1490693.0, 19563.453, -0.07797211, -0.1469329, -1465697.4, -120845.52, 0.0008082668, 9.999273, 9.999173 
1.7048694e+3, 1.7276846e+2, -1332310.0, -1357817.0, -25544.795, -0.005373029, -0.16341387, -1316512.0, -69649.28, 0.000020835996, 9.999592, 9.999254 
1.7049125e+3, 1.8276812e+2, -1202647.9, -1218303.0, 57709.83, 0.06987352, -0.110664904, -1152237.1, -3368.297, 0.0, 9.999687, 9.999504 
1.704957e+3, 1.9276851e+2, -1088542.0, -1072714.1, 87770.414, 0.06762968, -0.07267561, -992501.6, 58363.773, 0.0, 9.999634, 9.999848 
1.705001e+3, 2.0276877e+2, -1025531.44, -1060449.0, 32046.615, 0.07166511, 0.013913441, -1006496.5, -53632.938, 0.0, 9.999688, 9.999228 
1.7050438e+3, 2.1276912e+2, -844883.2, -911411.5, -18861.63, 0.100757934, 0.096875, -839907.8, 14954.071, 0.0, 10.000223, 9.999313 
1.7050862e+3, 2.2276849e+2, -722513.44, -860915.8, 5522.2607, 0.096749, 0.14293997, -722293.44, 34575.164, 0.0, 10.000622, 9.998813 
1.7051281e+3, 2.3276584e+2, -614070.44, -739808.0, 41066.863, 0.0020732435, -0.03533816, -601846.1, 57045.746, 0.0, 10.000629, 9.998958 
1.7051703e+3, 2.427636e+2, -528952.5, -725967.0, 55810.117, -0.06358274, -0.107043974, -514241.2, 46671.07, 0.0, 10.00086, 9.99828 
1.7052126e+3, 2.5276256e+2, -313165.72, -560163.1, 12017.647, -0.051416032, -0.06567054, -312582.38, 150340.98, 0.0000000026261497, 10.001637, 9.998362 
1.705255e+3, 2.627612e+2, -171997.53, -475273.9, -21075.38, 0.0018557579, -0.0019312127, -170539.97, 194396.75, 0.0000021613648, 10.002057, 9.998076 
1.705297e+3, 2.7275932e+2, -128916.914, -378383.3, -24263.744, 0.08724927, -0.04395849, -126578.875, 140374.81, 0.000036656253, 10.001594, 9.99828 
1.7053388e+3, 2.8275672e+2, -24304.621, -282424.34, 43429.816, 0.10290409, -0.10931521, -17193.277, 151783.52, 0.00022921336, 10.001652, 9.998249 
1.7053805e+3, 2.92753e+2, 309690.44, -27603.602, 7054.5947, 0.03483188, -0.35248467, 309837.9, 380846.66, 0.0007930789, 10.003097, 9.998626 
1.7054245e+3, 3.027518e+2, 347357.22, -136450.53, 58891.547, 0.14668281, -0.26427314, 354422.6, 354422.6, 0.0018420495, 10.003675, 9.997265 
1.7054662e+3, 3.1275278e+2, 87906.52, -202915.84, 105544.8, -0.016027315, 0.09913605, 122173.16, 122173.16, 0.0032650803, 10.001611, 9.997784 
1.7146581e+3, 1.22726455e+2, -1998486.5, -1777551.9, -127537.586, 0.024435218, 0.032619927, -1719292.0, 17986.764, 0.058051143, 9.997653, 10.000691 
1.7146981e+3, 1.3272773e+2, -1807386.4, -1532237.4, 15640.384, -0.28067586, 0.013963205, -1531351.1, 107911.734, 0.037118543, 9.997899, 10.001605 
1.7147453e+3, 1.4272608e+2, -1643483.6, -1465202.6, -15848.628, 0.17743903, -0.2787089, -1463804.6, 77470.63, 0.018276531, 9.998622, 10.001021 
1.7147855e+3, 1.5272863e+2, -1517979.1, -1381459.3, 43538.72, -0.008743326, -0.12666555, -1368756.0, 74490.32, 0.005915651, 9.998952, 10.000743 
1.714826e+3, 1.6272956e+2, -1515081.0, -1568236.4, 18064.455, -0.15992731, -0.004199717, -1509523.1, -164286.4, 0.0009130136, 9.999308, 9.998619 
1.7148682e+3, 1.7272691e+2, -1401426.6, -1496695.1, -4826.8696, -0.08159071, -0.12594265, -1401182.6, -153912.73, 0.000025810483, 9.999578, 9.998302 
1.7149113e+3, 1.8272534e+2, -1197971.6, -1215231.9, 46128.543, -0.036784854, -0.13605855, -1159672.9, -10382.796, 0.0, 9.999709, 9.999516 
1.7149553e+3, 1.9272675e+2, -1074133.4, -1028130.44, 95913.24, -0.09176937, -0.026880642, -952499.2, 98775.42, 0.0, 9.999567, 10.000187 
1.7149991e+3, 2.02727e+2, -1068430.1, -1123621.9, 37205.926, -0.1080477, 0.053061318, -1049703.1, -96431.664, 0.0, 9.999577, 9.998849 
1.715043e+3, 2.127247e+2, -912862.06, -1009604.44, 12857.183, -0.0024353059, -0.07380783, -911182.5, -55885.97, 0.0, 10.000036, 9.998731 
1.7150864e+3, 2.2272304e+2, -701731.5, -765247.5, 505.8453, 0.04345853, -0.123373516, -701727.44, 55585.582, 0.0, 10.000388, 9.999588 
1.7151284e+3, 2.3272344e+2, -554417.0, -582365.5, 54197.508, -0.048962563, -0.10745164, -512421.16, 146883.23, 0.0, 10.000472, 10.000122 
1.7151709e+3, 2.4272324e+2, -578610.4, -775063.44, 65480.105, -0.106450945, -0.039764926, -558785.6, 2518.8342, 0.0, 10.000636, 9.998046 
1.7152146e+3, 2.527215e+2, -391442.13, -677029.06, 56249.01, -0.044400267, -0.008394262, -380762.72, 82563.62, 0.0000000000058928205, 10.001437, 9.997658 
1.7152575e+3, 2.627195e+2, -187250.55, -448395.38, -40843.16, 0.021566214, 0.023067374, -181011.7, 184336.5, 0.0000014626683, 10.001814, 9.998376 
1.7152984e+3, 2.7271757e+2, -110184.14, -300113.13, -30691.082, 0.06183117, -0.077976756, -105347.84, 162015.67, 0.000032258973, 10.001425, 9.998899 
1.7153394e+3, 2.8271586e+2, -89837.69, -371021.03, 67139.67, 0.0008763522, -0.07224252, -74628.99, 94748.71, 0.00021422842, 10.001447, 9.997741 
1.7153816e+3, 2.927149e+2, 217690.5, -156815.92, 88838.14, -0.19213454, 0.028503858, 237695.55, 309082.88, 0.0007459909, 10.002828, 9.997866 
1.7154266e+3, 3.0271327e+2, 390223.25, 57404.53, -3610.956, -0.013004466, 0.06095876, 390262.44, 390262.44, 0.0017319225, 10.003244, 9.9988 
1.7154704e+3, 3.1270882e+2, 165136.47, 69055.2, 54134.996, 0.1941236, -0.3369054, 189473.33, 189473.33, 0.0030778677, 10.001174, 9.999849 
1.724656e+3, 1.22683816e+2, -2027708.0, -1700455.1, -64905.5, 0.08247783, 0.0131258825, -1688052.3, 49646.62, 0.06177432, 9.99705, 10.001518 
1.7246966e+3, 1.326866e+2, -1865723.0, -1600264.3, 83505.96, -0.18416499, 0.15421033, -1576180.5, 63488.727, 0.039721623, 9.997681, 10.001217 
1.7247437e+3, 1.4268441e+2, -1737160.8, -1510326.4, -34199.63, 0.21036655, -0.16574724, -1505282.3, 36405.813, 0.019743169, 9.997962, 10.001035 
1.7247845e+3, 1.526863e+2, -1584162.3, -1382766.3, -54275.11, 0.053217076, -0.10310316, -1369070.8, 74593.72, 0.006494274, 9.998339, 10.00105 
1.7248255e+3, 1.6268724e+2, -1608245.1, -1595245.1, -56089.78, -0.07422201, -0.0011817218, -1545279.9, -199626.47, 0.001032908, 9.998591, 9.998788 
1.7248677e+3, 1.726853e+2, -1467657.5, -1511695.5, -25482.068, -0.057663906, -0.06520717, -1455999.0, -208320.02, 0.00003215152, 9.99905, 9.998458 
1.7249106e+3, 1.826839e+2, -1251416.9, -1251733.4, 91586.945, -0.04481004, -0.06537867, -1159988.0, -10291.252, 0.0, 9.999394, 9.999412 
1.7249547e+3, 1.9268443e+2, -1026962.94, -1021545.06, 81851.11, -0.10512906, -0.026099743, -942358.06, 109330.99, 0.0, 9.999972, 10.00003 
1.724999e+3, 2.0268416e+2, -943073.06, -1048180.1, 36438.203, -0.10976753, 0.004445279, -931676.5, 22013.947, 0.0, 10.000369, 9.998996 
1.7250435e+3, 2.1268207e+2, -822750.06, -940682.1, 51409.816, 0.020411117, -0.11890624, -803485.94, 52226.664, 0.0, 10.000538, 9.998973 
1.7250873e+3, 2.226807e+2, -655683.44, -754616.8, 74371.01, 0.086281866, -0.14879702, -615830.44, 141895.9, 0.0, 10.000775, 9.999459 
1.7251293e+3, 2.3268148e+2, -445598.97, -556687.5, 129.62776, -0.03688388, -0.07211335, -445598.8, 214117.33, 0.0, 10.001364, 9.999851 
1.7251718e+3, 2.4268137e+2, -426427.66, -692036.06, -26429.62, -0.09992645, 0.019587856, -423823.3, 137893.17, 0.0, 10.001637, 9.998126 
1.7252159e+3, 2.5267935e+2, -425598.78, -663763.0, -383.6454, -0.0063114227, 0.0013116742, -425598.2, 38141.613, 0.0000000000049057277, 10.00109, 9.9979 
1.7252593e+3, 2.626772e+2, -283525.75, -495940.8, -25297.781, 0.07404536, 0.0010955329, -280554.44, 85208.0, 0.0000011502509, 10.001164, 9.99836 
1.7253006e+3, 2.726753e+2, 58598.44, -232902.94, -86591.484, 0.07582274, -0.08237205, 82380.484, 350158.6, 0.000029351942, 10.002644, 9.998776 
1.7253415e+3, 2.8267395e+2, 156723.31, -250900.7, -3521.235, -0.0006632107, -0.031253748, 156753.72, 326543.13, 0.00020332959, 10.00314, 9.997744 
1.7253837e+3, 2.9267356e+2, 12325.902, -256653.14, 21675.27, -0.17310794, 0.1250565, 14061.374, 85855.5, 0.0007056686, 10.001435, 9.997839 
1.7254294e+3, 3.0267125e+2, 81483.055, -99591.2, -29893.719, 0.06757111, 0.097432695, 86290.59, 86290.59, 0.001634867, 10.001118, 9.998768 
1.7254737e+3, 3.1266648e+2, 513349.84, 227463.45, -176920.98, 0.32659394, -0.32285643, 597857.3, 597857.3, 0.0029108385, 10.003524, 9.999862 
1.7346518e+3, 1.2264091e+2, -1897148.8, -1459777.5, -143226.75, -0.09727522, -0.22392866, -1417049.0, 321067.3, 0.06561491, 9.997126, 10.003249 
1.7346956e+3, 1.3264608e+2, -2017351.1, -1901869.3, 108437.83, -0.080384456, 0.27684948, -1836757.5, -196689.53, 0.042436883, 9.99763, 9.999158 
1.7347392e+3, 1.4264308e+2, -1810339.1, -1665023.0, -41656.56, -0.06633989, 0.062123656, -1653928.8, -111828.91, 0.021297567, 9.997978, 9.999956 
1.7347829e+3, 1.526422e+2, -1603354.3, -1420580.9, -34859.31, 0.03468898, -0.11704993, -1414158.0, 29946.553, 0.0071235094, 9.998336, 10.000786 
1.7348258e+3, 1.6264214e+2, -1524535.9, -1449858.0, -54362.56, 0.05471117, -0.13854092, -1421246.4, -75143.34, 0.0011691477, 9.998695, 9.9997425 
1.7348672e+3, 1.7264359e+2, -1375987.9, -1328917.1, -582.57635, -0.020594057, 0.012474195, -1328909.9, -80819.52, 0.00004011834, 9.999066, 9.999711 
1.7349099e+3, 1.8264383e+2, -1266342.8, -1289426.5, 95889.79, -0.07003109, 0.111197926, -1181302.8, -31214.34, 0.0, 9.999422, 9.99914 
1.734955e+3, 1.9264148e+2, -1094993.6, -1138647.9, 110483.41, -0.072985195, -0.07192278, -1004201.94, 47907.656, 0.0, 9.9998665, 9.999276 
1.735e+3, 2.0264006e+2, -917214.44, -963199.9, 32388.682, -0.04804576, -0.13375646, -900487.0, 53634.918, 0.0, 10.000231, 9.999647 
1.7350444e+3, 2.1264122e+2, -768720.8, -796587.4, 67538.74, 0.06100359, -0.037032314, -713693.1, 142417.13, 0.0, 10.000394, 10.000033 
1.7350882e+3, 2.2264148e+2, -762786.1, -924886.7, 81038.54, 0.087219335, 0.07036372, -729222.3, 28886.28, 0.0, 10.000554, 9.998394 
1.7351305e+3, 2.3263974e+2, -590258.5, -814997.44, 35986.676, -0.07132278, 0.05342327, -584636.7, 75492.48, 0.0, 10.001175, 9.99817 
1.7351732e+3, 2.4263784e+2, -436633.72, -650610.06, -46766.227, -0.15940288, 0.057074726, -426859.1, 135290.25, 0.0, 10.001378, 9.998534 
1.7352168e+3, 2.526361e+2, -377009.88, -518632.22, -6771.7744, -0.045669757, -0.031899936, -376686.8, 87476.695, 0.000000000000012544113, 10.000906, 9.998984 
1.7352602e+3, 2.6263416e+2, -341143.22, -561315.56, 3809.8718, 0.038080305, -0.065351054, -341077.3, 25103.1, 0.0000010511417, 10.000934, 9.99802 
1.7353027e+3, 2.726325e+2, -31414.06, -362786.0, -11732.185, 0.009917431, -0.05702591, -30999.203, 237198.23, 0.000029114979, 10.002405, 9.997993 
1.7353445e+3, 2.8263098e+2, 129876.8, -243084.36, -60691.953, -0.041628707, 0.017713532, 139504.66, 309716.78, 0.00019954766, 10.002864, 9.997934 
1.7353864e+3, 2.92629e+2, 16645.873, -203101.9, -26600.883, -0.05606326, -0.03378121, 19820.11, 92048.984, 0.00068418466, 10.001244, 9.9983015 
1.7354321e+3, 3.0262592e+2, -57171.563, -323628.7, 13343.909, 0.2045494, -0.11258044, -56504.98, -56504.98, 0.0015842997, 10.000866, 9.997335 
1.7354761e+3, 3.1262448e+2, 321027.56, -11425.199, -48656.5, 0.16177683, -0.02805825, 328002.4, 328002.4, 0.0028315135, 10.002881, 9.9985 
1.7446491e+3, 1.2259907e+2, -1873020.4, -1393873.4, -150046.22, -0.053881917, -0.23931177, -1350764.5, 387760.9, 0.06957688, 9.997053, 10.003786 
1.7446941e+3, 1.3260388e+2, -2100946.0, -2027936.4, 57208.887, 0.03722842, 0.28634354, -1996577.6, -356096.9, 0.045260757, 9.997436, 9.998392 
1.7447355e+3, 1.4259975e+2, -1896469.9, -1756152.5, 49601.918, -0.18897815, 0.024645865, -1740389.3, -197863.94, 0.022935338, 9.997626, 9.999483 
1.7447813e+3, 1.5259947e+2, -1635398.1, -1469047.9, 24391.135, 0.061006527, -0.06514595, -1465545.3, -21017.922, 0.0078018596, 9.998279, 10.000459 
1.7448255e+3, 1.6259965e+2, -1485071.8, -1400169.3, 11228.62, 0.17381838, -0.052990146, -1398709.4, -52185.043, 0.0013223152, 9.998842, 10.000016 
1.7448671e+3, 1.7260097e+2, -1219768.5, -1203802.5, -17450.563, 0.023237977, 0.046398576, -1192595.6, 55913.465, 0.000049909977, 9.999935, 10.0001545 
1.7449099e+3, 1.8260102e+2, -1140903.6, -1250940.1, 35956.203, -0.047682084, 0.10549893, -1130196.3, 20310.63, 0.0000000000000006446772, 10.00039, 9.998926 
1.7449556e+3, 1.9259812e+2, -1175571.4, -1226054.6, 39545.45, 0.03242908, -0.0926861, -1153898.4, -101363.51, 0.0, 9.999527, 9.998829 
1.745001e+3, 2.0259647e+2, -1071872.5, -1006880.5, 9768.268, 0.08757748, -0.1585104, -1005444.1, -50894.273, 0.0, 9.999034, 9.999918 
1.7450444e+3, 2.1259838e+2, -814855.25, -758100.5, -17220.883, 0.06238106, -0.03381244, -753284.0, 103244.586, 0.0, 9.999829, 10.00056 
1.745088e+3, 2.2259896e+2, -767434.8, -939668.9, 18791.137, 0.021290261, 0.07590915, -765408.5, -6885.906, 0.0, 10.000555, 9.998308 
1.7451315e+3, 2.325965e+2, -643341.1, -870855.94, 53763.56, -0.06498919, 0.01609767, -631276.2, 29274.848, 0.0, 10.000933, 9.997914 
1.745175e+3, 2.425943e+2, -445701.47, -646509.3, 29387.451, -0.093556955, 0.000023488461, -441489.1, 121085.48, 0.0, 10.001289, 9.998604 
1.7452185e+3, 2.5259292e+2, -260691.27, -449097.22, -27609.965, 0.015581033, -0.061332904, -256728.5, 207855.23, 0.0, 10.001653, 9.999105 
1.7452621e+3, 2.6259115e+2, -240912.83, -546147.5, -17187.012, 0.09652438, -0.07384116, -239948.11, 126650.61, 0.0000010008785, 10.00176, 9.997727 
1.7453046e+3, 2.7258903e+2, -201927.83, -495617.78, -34891.137, 0.030923016, -0.06892486, -197839.58, 70782.805, 0.000030147008, 10.001445, 9.997543 
1.7453468e+3, 2.8258702e+2, -27868.838, -314795.28, -59172.625, -0.026092883, -0.013845352, -16144.767, 154497.75, 0.00019898178, 10.001762, 9.997967 
1.7453893e+3, 2.925847e+2, 316892.7, -56543.836, -94721.23, 0.020457387, -0.11134285, 339544.47, 412205.63, 0.0006810842, 10.003276, 9.998339 
1.745435e+3, 3.025814e+2, 327742.03, -191962.61, -3434.4912, 0.29690152, -0.18902034, 327764.72, 327764.72, 0.0015907967, 10.003722, 9.99688 
1.7454788e+3, 3.1258047e+2, 183465.66, -96191.14, -75128.02, 0.207652, 0.0017284366, 202370.36, 202370.36, 0.0028688698, 10.001999, 9.998338 
1.754647e+3, 1.22558035e+2, -1944363.4, -1523549.8, -23607.355, -0.014693222, -0.032287873, -1522229.5, 216699.31, 0.07366958, 9.996998, 10.002853 
1.7546916e+3, 1.3255997e+2, -2049658.8, -1914536.4, 63673.49, 0.017622022, 0.17485954, -1889260.0, -248352.56, 0.048192136, 9.997411, 9.999178 
1.7547326e+3, 1.4255473e+2, -1868688.6, -1720032.1, 62890.484, -0.28444168, -0.27007502, -1696995.5, -154035.13, 0.024652572, 9.997707, 9.999701 
1.7547795e+3, 1.5255827e+2, -1664118.0, -1531723.3, 60116.15, 0.0379557, 0.059734613, -1508500.0, -63569.742, 0.008527423, 9.99828, 10.000038 
1.7548245e+3, 1.6255988e+2, -1516844.0, -1472859.1, 27349.516, 0.15716332, 0.26162627, -1459756.5, -112840.016, 0.0014925194, 9.998875, 9.9995 
1.7548665e+3, 1.7255743e+2, -1258071.6, -1271187.9, 33502.938, -0.031836472, 0.031608537, -1230491.0, 18444.754, 0.00006156021, 9.999892, 9.999706 
1.75491e+3, 1.8255538e+2, -1146658.1, -1272145.9, 6799.3374, -0.09726209, -0.08688689, -1146290.8, 4662.0825, 0.0000000010737394, 10.000425, 9.998765 
1.7549561e+3, 1.9255432e+2, -1190525.9, -1247495.3, 13334.524, 0.10690396, -0.088186994, -1187559.3, -134594.28, 0.0, 9.999479, 9.998709 
1.7550008e+3, 2.0255345e+2, -1098444.8, -1037333.6, 11902.774, 0.17348844, -0.06318612, -1035097.1, -80123.56, 0.0, 9.998924, 9.999762 
1.755043e+3, 2.1255343e+2, -845404.9, -787283.56, 24172.441, -0.07003655, -0.12270811, -778544.4, 78424.71, 0.0, 9.999673, 10.000438 
1.7550862e+3, 2.2255301e+2, -743196.5, -835851.3, 25499.53, -0.22010025, -0.13448149, -736642.4, 22327.277, 0.0, 10.00033, 9.999129 
1.7551318e+3, 2.3255186e+2, -592097.2, -724000.25, 80376.53, -0.12756418, -0.17131929, -554077.6, 106903.47, 0.0, 10.000754, 9.999011 
1.755177e+3, 2.4255069e+2, -505927.72, -715808.25, 34216.215, -0.04524571, -0.13929103, -500490.4, 62502.3, 0.0, 10.001046, 9.998246 
1.7552207e+3, 2.5254974e+2, -344782.0, -579249.94, -1670.292, 0.053617325, -0.08767015, -344770.1, 120231.68, 0.0, 10.00146, 9.998302 
1.7552641e+3, 2.6254794e+2, -295566.38, -620035.8, -39110.55, 0.11857915, -0.03456575, -290918.7, 76101.11, 0.00000094846536, 10.001578, 9.997312 
1.755306e+3, 2.725448e+2, -238177.92, -532354.3, -29961.992, 0.022675537, -0.10922532, -235157.3, 33896.01, 0.000030605133, 10.001278, 9.99737 
1.7553481e+3, 2.825421e+2, -73581.336, -361086.47, -26782.623, -0.08771805, -0.10995981, -71107.67, 99972.57, 0.0002004244, 10.001549, 9.997753 
1.7553917e+3, 2.9254043e+2, 249311.47, -124636.18, -16525.936, -0.079747446, -0.12076061, 250040.39, 323133.03, 0.000696972, 10.002969, 9.998016 
1.7554379e+3, 3.0253774e+2, 269228.97, -215894.69, -60805.098, 0.17990072, -0.11231363, 276734.16, 276734.16, 0.0016492817, 10.003308, 9.996908 
1.7554812e+3, 3.12535e+2, 144576.69, -74309.23, -111791.85, 0.21374616, -0.15213157, 191579.19, 191579.19, 0.002997406, 10.001586, 9.998672 
1.7646433e+3, 1.2251365e+2, -2005483.3, -1571935.4, 29245.188, -0.04191819, -0.056113295, -1569971.5, 169392.55, 0.07790593, 9.996644, 10.0026655 
1.7646892e+3, 1.3251562e+2, -1951222.6, -1821436.9, -978.81934, 0.04265688, 0.13033195, -1821429.5, -180089.8, 0.05123237, 9.997865, 9.999597 
1.7647314e+3, 1.4251043e+2, -1696986.6, -1620395.8, -16985.258, -0.19819973, -0.3501408, -1616798.0, -73407.29, 0.026445003, 9.998802, 9.999867 
1.7647779e+3, 1.5251452e+2, -1607990.8, -1514162.0, -31453.37, 0.039239574, 0.04461901, -1504593.9, -59238.03, 0.009296644, 9.998716, 9.99995 
1.7648228e+3, 1.6251642e+2, -1533240.8, -1484474.8, 13275.904, 0.12060374, 0.28381643, -1481094.9, -133754.98, 0.0016790463, 9.998791, 9.999445 
1.7648667e+3, 1.72513e+2, -1312963.9, -1308289.5, 29802.69, 0.017613808, -0.039798293, -1280732.5, -31363.523, 0.000074904594, 9.999547, 9.999615 
1.7649111e+3, 1.8251066e+2, -1191257.8, -1257061.9, 21529.734, 0.0034681584, -0.19306566, -1184839.8, -33450.305, 0.000000009428086, 9.999961, 9.999099 
1.764956e+3, 1.9251144e+2, -1056235.5, -1124835.9, 33229.543, 0.12093085, -0.056825742, -1042779.0, 10605.411, 0.0, 10.000162, 9.999226 
1.765e+3, 2.0251143e+2, -929186.44, -994935.8, 96527.06, 0.13879202, 0.03444887, -860089.5, 95295.67, 0.0, 10.000266, 9.999405 
1.7650428e+3, 2.1250969e+2, -816668.2, -844197.5, 59295.91, -0.06307185, -0.13125807, -769560.3, 87836.75, 0.0, 10.000188, 9.999796 
1.7650867e+3, 2.2250825e+2, -761546.5, -828221.2, 36700.793, -0.16993578, -0.21201432, -745302.3, 14104.794, 0.0, 10.000137, 9.999266 
1.7651327e+3, 2.3250788e+2, -626179.44, -694422.06, 8737.343, -0.07599302, -0.20540348, -625078.5, 36331.184, 0.0, 10.000334, 9.999405 
1.765178e+3, 2.4250713e+2, -571886.94, -762599.44, -40189.863, -0.00069019204, -0.15255065, -563763.56, -346.81577, 0.0, 10.000627, 9.998144 
1.7652217e+3, 2.5250554e+2, -419468.2, -648812.0, -56569.492, 0.0454321, -0.13307771, -406273.94, 59158.25, 0.0, 10.0010605, 9.998034 
1.7652653e+3, 2.6250353e+2, -301877.8, -621545.44, -39137.777, 0.094243154, -0.08588883, -297155.8, 70297.01, 0.0000007067664, 10.001548, 9.997306 
1.765308e+3, 2.725008e+2, -104434.805, -465493.8, -49266.086, 0.05499074, -0.1216291, -97833.21, 171649.31, 0.000029110019, 10.002193, 9.997387 
1.7653506e+3, 2.8249818e+2, 62051.813, -279205.75, -500.55804, -0.020199684, -0.12427716, 62052.547, 233561.89, 0.00020337792, 10.00241, 9.99791 
1.7653944e+3, 2.924961e+2, 81820.766, -191915.06, -5258.6016, -0.030662522, -0.18197519, 81921.75, 155447.22, 0.0007255654, 10.001763, 9.998137 
1.7654403e+3, 3.0249387e+2, 95822.375, -290432.53, 14728.485, 0.18675213, -0.13784084, 96383.18, 96383.18, 0.0017280998, 10.00206, 9.996998 
1.7654842e+3, 3.1249067e+2, 540079.8, 117347.75, -124115.86, 0.24376108, -0.21688816, 573826.7, 573826.7, 0.0031350597, 10.004267, 9.998721 
1.7746393e+3, 1.2246709e+2, -1945849.4, -1483752.8, -19878.363, -0.17273866, -0.20078442, -1482899.3, 256920.0, 0.08231803, 9.996737, 10.0033 
1.774687e+3, 1.3247101e+2, -1949227.5, -1815977.4, 68227.8, 0.0230002, 0.17156981, -1787240.4, -145464.23, 0.054393712, 9.997853, 9.99964 
1.774732e+3, 1.4246666e+2, -1680700.5, -1604416.5, -28903.273, -0.054512765, -0.22398195, -1594702.4, -50884.5, 0.02831169, 9.998871, 9.999946 
1.7747758e+3, 1.5246812e+2, -1586672.1, -1470547.8, -27770.193, -0.053974558, -0.12063124, -1464248.4, -18443.66, 0.010105246, 9.998714, 10.000251 
1.77482e+3, 1.6246915e+2, -1502389.6, -1428057.0, 20512.379, -0.063362926, -0.0043034987, -1422772.3, -74976.88, 0.0018804772, 9.998818, 9.999821 
1.7748669e+3, 1.7246766e+2, -1294304.5, -1262225.8, 68891.66, 0.07624575, -0.16762163, -1207531.0, 42278.008, 0.00008970714, 9.999517, 9.999944 
1.7749126e+3, 1.8246704e+2, -1126790.6, -1135808.8, 20257.51, 0.13648026, -0.19989222, -1110546.4, 41268.676, 0.000000028818846, 10.000008, 9.999909 
1.7749546e+3, 1.9246942e+2, -992446.94, -981503.06, 50842.855, -0.033129517, -0.003243594, -935838.56, 117954.99, 0.0, 10.000106, 10.00024 
1.7749977e+3, 2.0247026e+2, -988294.75, -1087591.5, 83883.555, -0.1387747, 0.13231817, -940467.94, 15317.637, 0.0, 10.000144, 9.998821 
1.7750436e+3, 2.1246712e+2, -923991.0, -1026068.1, 66121.15, -0.018741855, -0.07036677, -891501.5, -33688.16, 0.0, 10.000018, 9.998624 
1.7750892e+3, 2.2246459e+2, -834102.06, -937099.1, 31832.17, 0.053572983, -0.16129239, -825058.2, -65222.137, 0.0, 9.999945, 9.998616 
1.7751338e+3, 2.324644e+2, -674506.0, -765884.1, 29837.11, -0.011550346, -0.09700981, -665626.4, -3787.8247, 0.0, 10.000194, 9.998988 
1.775178e+3, 2.4246337e+2, -596166.1, -758149.1, -36760.016, -0.07282883, -0.050603647, -588214.25, -24365.746, 0.0, 10.000395, 9.998283 
1.7752214e+3, 2.5246054e+2, -422070.03, -614728.7, -25305.941, -0.0930016, -0.19077256, -418801.53, 47072.375, 0.0, 10.000896, 9.998344 
1.7752653e+3, 2.6245812e+2, -318042.47, -607476.0, -24249.148, -0.07497044, -0.21235228, -316024.9, 51871.55, 0.00000032366296, 10.001346, 9.997501 
1.7753097e+3, 2.7245706e+2, -134676.83, -462673.03, -6619.054, 0.0025372873, -0.09338654, -134543.31, 135366.69, 0.00002512301, 10.001928, 9.997526 
1.7753537e+3, 2.8245506e+2, 35478.594, -271349.0, -30458.615, 0.02457885, -0.043871943, 38472.984, 210403.8, 0.00020098852, 10.002129, 9.998103 
1.7753969e+3, 2.9245153e+2, 87420.3, -146310.52, -13562.472, 0.022987295, -0.28306848, 88204.64, 162165.28, 0.0007424793, 10.001615, 9.998524 
1.7754424e+3, 3.0244964e+2, 65613.3, -295486.88, 62675.957, 0.16101564, -0.2417338, 76182.57, 76182.57, 0.0017693732, 10.001826, 9.997068 
1.7754874e+3, 3.1244898e+2, 435729.4, 70774.414, -2153.1934, 0.076665014, -0.05890805, 435742.13, 435742.13, 0.0031776992, 10.003599, 9.998689 
1.7846368e+3, 1.2242219e+2, -1808219.4, -1455806.8, 7976.536, -0.11930564, -0.15348823, -1455626.3, 284632.22, 0.08696164, 9.997875, 10.002951 
1.7846859e+3, 1.3242576e+2, -1852202.0, -1702342.5, 89840.58, 0.11858715, 0.13918194, -1660285.9, -18067.75, 0.057701517, 9.998272, 10.000207 
1.7847303e+3, 1.4242244e+2, -1821216.3, -1638282.0, 44765.863, -0.056377094, -0.19466886, -1627914.9, -83666.875, 0.030258754, 9.997779, 10.000235 
1.7847745e+3, 1.5242241e+2, -1497610.0, -1402937.4, 23425.953, -0.06212072, -0.26681, -1397457.9, 48788.973, 0.0109521225, 9.999214, 10.000479 
1.7848195e+3, 1.6242303e+2, -1308398.1, -1323309.3, 70115.766, -0.035776123, -0.209422, -1245342.6, 102897.805, 0.0020959692, 10.0001, 9.999921 
1.7848665e+3, 1.7242342e+2, -1269438.8, -1238184.1, 62631.918, 0.086110316, -0.19693251, -1189259.4, 60980.176, 0.000105867584, 9.999655, 10.000034 
1.784912e+3, 1.8242393e+2, -1203142.8, -1159897.5, 17400.166, 0.13281131, -0.12223553, -1153765.8, -1529.071, 0.0000000562377, 9.999427, 10.000033 
1.7849547e+3, 1.924258e+2, -948222.8, -939797.4, -28421.576, -0.034522228, 0.006928976, -915278.0, 138941.31, 0.0, 10.00031, 10.000433 
1.7849982e+3, 2.0242624e+2, -890842.25, -1058815.3, -23620.451, -0.11539933, 0.095944755, -887583.94, 68630.97, 0.0, 10.00088, 9.998674 
1.7850444e+3, 2.124231e+2, -824998.0, -1008121.9, -10519.461, 0.034224216, -0.07986253, -824395.7, 33847.84, 0.0, 10.0008135, 9.998374 
1.7850901e+3, 2.2242054e+2, -762905.44, -925185.1, 31574.727, 0.13287999, -0.14760457, -756978.44, 3288.9443, 0.0, 10.000547, 9.998406 
1.7851347e+3, 2.3242022e+2, -727175.2, -815021.3, 18306.225, 0.07909987, -0.07198381, -723513.0, -61241.1, 0.0, 9.999954, 9.998765 
1.7851788e+3, 2.4241908e+2, -659220.9, -770155.75, 13284.369, 0.016982904, -0.026919186, -657652.25, -93368.73, 0.0, 9.999908, 9.99842 
1.7852226e+3, 2.524162e+2, -334303.06, -546176.75, 2900.6907, -0.078653336, -0.19320764, -334263.34, 132045.78, 0.0, 10.001409, 9.998555 
1.7852667e+3, 2.6241392e+2, -162865.66, -504771.38, -14188.08, -0.103128485, -0.22614712, -162277.89, 206052.14, 0.00000018370703, 10.002265, 9.997779 
1.7853111e+3, 2.7241293e+2, -195238.38, -470108.97, -20535.041, -0.011405218, -0.121727854, -193712.72, 76628.12, 0.000020759246, 10.001367, 9.997771 
1.7853552e+3, 2.8241104e+2, -111087.95, -345851.3, 21251.309, 0.043698743, -0.074828945, -109179.75, 63180.113, 0.0001926232, 10.0011635, 9.998038 
1.7853998e+3, 2.9240814e+2, 297633.3, -63668.164, -26381.383, 0.084305584, -0.23559764, 299549.47, 373935.2, 0.00073848147, 10.003155, 9.998338 
1.7854454e+3, 3.0240646e+2, 458073.47, -87278.266, 48311.6, 0.17520067, -0.16985136, 462320.22, 462320.22, 0.001753451, 10.004455, 9.997229 
1.7854902e+3, 3.1240427e+2, 392651.7, 3575.1196, -88736.42, 0.048782133, -0.13559131, 411934.1, 411934.1, 0.0030955747, 10.003473, 9.998301 
1.7946354e+3, 1.223786e+2, -1900381.6, -1663528.4, 6431.82, -0.11620946, 0.012797348, -1663353.9, 77330.875, 0.09190124, 9.998021, 10.001329 
1.7946854e+3, 1.3237995e+2, -1769010.4, -1553965.5, 70531.51, 0.22291577, 0.015467639, -1532896.5, 109768.32, 0.06119029, 9.998328, 10.001257 
1.794725e+3, 1.4237794e+2, -1802671.0, -1595095.4, 54213.883, -0.36517435, -0.2608491, -1581789.0, -37109.625, 0.03230053, 9.997766, 10.000534 
1.7947736e+3, 1.5237755e+2, -1496016.1, -1391795.8, 95130.164, -0.08326952, -0.3826498, -1335438.4, 111242.36, 0.011841973, 9.99919, 10.000566 
1.7948213e+3, 1.6237824e+2, -1308009.0, -1346404.5, 57106.37, 0.10251112, -0.31632096, -1266959.9, 81714.26, 0.0023264778, 10.000192, 9.999724 
1.794865e+3, 1.7238022e+2, -1282178.0, -1269123.1, 48912.86, -0.046258353, -0.118428305, -1226304.1, 24356.688, 0.00012352158, 9.999665, 9.999825 
1.7949091e+3, 1.8238133e+2, -1236296.8, -1234661.8, 25353.268, -0.13578719, 0.045168813, -1210112.9, -57458.133, 0.000000085167756, 9.999455, 9.999504 
1.7949556e+3, 1.9238058e+2, -1008706.2, -1048165.6, 14088.412, 0.010222049, -0.020419655, -1004192.44, 50469.48, 0.0, 10.0002365, 9.999724 
1.7950013e+3, 2.023794e+2, -887340.7, -1027292.1, -30706.676, 0.088844515, -0.057889942, -880899.75, 75772.76, 0.0, 10.000766, 9.99895 
1.795045e+3, 2.1237774e+2, -799798.44, -927838.7, -3685.6616, -0.002263055, -0.14457744, -799692.44, 58994.152, 0.0, 10.00068, 9.998998 
1.795089e+3, 2.2237612e+2, -785910.8, -928028.5, 1607.8257, -0.037799217, -0.15982985, -785892.6, -25191.537, 0.0, 10.000353, 9.998483 
1.7951348e+3, 2.3237523e+2, -760010.6, -843104.1, 7718.009, 0.1010437, -0.13497934, -759299.8, -96588.49, 0.0, 9.999783, 9.998653 
1.7951801e+3, 2.4237403e+2, -686120.1, -782856.5, 43355.523, 0.14797035, -0.08890431, -669533.06, -104809.086, 0.0, 9.999718, 9.998428 
1.7952245e+3, 2.5237244e+2, -357867.9, -549826.8, 75090.516, -0.021490334, -0.13238773, -331984.16, 134754.98, 0.0, 10.001218, 9.99862 
1.795269e+3, 2.6237065e+2, -176761.44, -474791.4, -37467.777, -0.119834796, -0.13021632, -172123.25, 196632.66, 0.00000013255313, 10.002011, 9.998108 
1.7953117e+3, 2.7236846e+2, -186669.55, -404702.16, -46481.824, -0.09336121, -0.19787498, -177173.77, 93601.47, 0.0000188634, 10.00118, 9.9983015 
1.7953554e+3, 2.8236645e+2, -167232.5, -426778.03, 52244.11, -0.08068249, -0.18271156, -157110.95, 15683.074, 0.00018772867, 10.000998, 9.997571 
1.7954023e+3, 2.9236585e+2, 204031.83, -184446.75, 75326.766, 0.015461261, -0.038658027, 218126.45, 292927.1, 0.00073076796, 10.002847, 9.997651 
1.7954491e+3, 3.0236414e+2, 384373.13, -147073.23, 20850.928, 0.069156766, 0.07266039, 385189.97, 385189.97, 0.0017121877, 10.004035, 9.997029 
1.7954923e+3, 3.1235725e+2, 304833.9, -68345.0, -65460.215, -0.12837073, -0.37360626, 315983.3, 315983.3, 0.002951229, 10.003029, 9.998001 
1.8046337e+3, 1.2233275e+2, -2118224.8, -1812582.5, 47135.67, 0.0022088601, -0.021802917, -1805478.5, -64348.49, 0.097200245, 9.996778, 10.000845 
1.8046835e+3, 1.32334e+2, -1878939.0, -1552159.1, -5616.216, 0.2721274, -0.06730962, -1552062.6, 91050.71, 0.06490086, 9.997335, 10.001746 
1.8047221e+3, 1.4233322e+2, -1820174.6, -1570073.4, 30262.313, -0.39800668, -0.2635887, -1566463.8, -21346.768, 0.034457777, 9.997485, 10.000841 
1.8047728e+3, 1.5233368e+2, -1506431.0, -1360387.8, 83322.12, -0.06512429, -0.33339193, -1322618.0, 124491.88, 0.0127833225, 9.998954, 10.000893 
1.8048215e+3, 1.6233477e+2, -1365448.8, -1386099.1, 35358.395, 0.1349225, -0.242722, -1338938.8, 10160.277, 0.0025744103, 9.999854, 9.9996195 
1.8048643e+3, 1.7233604e+2, -1312094.8, -1307137.0, -18604.395, -0.064106494, -0.092468776, -1290847.0, -39754.184, 0.00014305822, 9.999567, 9.999606 
1.8049082e+3, 1.8233632e+2, -1260151.1, -1272961.3, 20301.287, -0.15436436, 0.010003691, -1245268.4, -92173.81, 0.00000010953618, 9.999405, 9.999261 
1.8049558e+3, 1.9233462e+2, -1047416.7, -1091275.5, 30526.832, 0.035171993, -0.12585379, -1031759.06, 23350.578, 0.0, 10.000092, 9.999489 
1.8050022e+3, 2.0233315e+2, -918416.7, -1027712.0, -513.73645, 0.13585156, -0.18477918, -918414.25, 38708.563, 0.0, 10.000491, 9.999085 
1.8050452e+3, 2.1233271e+2, -860804.6, -925468.8, -30630.025, 0.002888326, -0.17018348, -848599.5, 10527.252, 0.0, 10.000134, 9.999273 
1.8050891e+3, 2.2233191e+2, -807365.9, -921082.4, -4808.684, -0.04139632, -0.12896705, -807162.9, -46028.266, 0.0, 10.000154, 9.998611 
1.8051356e+3, 2.3233038e+2, -505832.9, -716263.2, -4752.1167, 0.12878826, -0.16857673, -505725.63, 157424.27, 0.0, 10.00152, 9.998677 
1.8051815e+3, 2.4232897e+2, -330043.47, -649411.56, 41634.555, 0.19607872, -0.13670895, -324705.0, 240460.17, 0.0, 10.002306, 9.998116 
1.8052259e+3, 2.52328e+2, -375384.4, -615740.7, 11650.838, -0.00038705874, -0.06508206, -374820.97, 92357.13, 0.0, 10.001315, 9.998146 
1.8052703e+3, 2.6232657e+2, -312556.5, -501011.7, -97170.8, -0.10252655, -0.00882545, -271429.0, 97764.41, 0.00000007008213, 10.000921, 9.998446 
1.805314e+3, 2.7232414e+2, 23097.473, -243930.97, -131008.375, -0.037129037, -0.14958261, 76637.37, 347848.16, 0.000018211349, 10.00236, 9.998844 
1.8053581e+3, 2.8232184e+2, 140342.06, -314011.06, 7509.2637, -0.00033078622, -0.18288949, 140466.14, 313695.5, 0.00018396281, 10.003258, 9.997254 
1.805405e+3, 2.923203e+2, 163631.11, -281441.03, 6679.644, 0.016349336, -0.06478128, 163731.34, 238977.81, 0.0007176482, 10.002886, 9.996975 
1.8054517e+3, 3.0231762e+2, 225586.22, -205760.39, -24075.127, 0.020632155, -0.014141471, 226925.78, 226925.78, 0.0016599778, 10.002877, 9.99718 
1.8054973e+3, 3.1231308e+2, 391727.6, -38071.58, -139706.34, 0.03965321, -0.23923261, 433147.53, 433147.53, 0.0028119995, 10.003589, 9.9979925 
1.8146294e+3, 1.2228362e+2, -2063070.5, -1700332.3, 43263.19, -0.15651684, -0.3386492, -1695243.6, 46359.707, 0.10291468, 9.996758, 10.001663 
1.8146792e+3, 1.3228774e+2, -1889962.8, -1562511.9, -3261.9229, 0.09583574, -0.10551603, -1562479.4, 81086.4, 0.06887483, 9.99729, 10.001693 
1.8147215e+3, 1.4228813e+2, -1775714.4, -1492571.9, 48122.375, -0.2393078, -0.20549153, -1484616.6, 60946.36, 0.036753505, 9.997526, 10.001377 
1.8147714e+3, 1.5229075e+2, -1459651.6, -1270794.1, 148837.81, -0.110679984, -0.11549704, -1188957.5, 258577.64, 0.01378539, 9.998968, 10.001522 
1.8148193e+3, 1.6229278e+2, -1357232.3, -1380275.3, 26495.38, -0.09357858, 0.027046146, -1339861.8, 9652.49, 0.002842686, 9.999902, 9.999633 
1.814864e+3, 1.722909e+2, -1335853.8, -1358457.6, -21601.508, -0.054676298, -0.11445076, -1322776.3, -71240.914, 0.00016504708, 9.999564, 9.999259 
1.8149091e+3, 1.8228887e+2, -1251850.9, -1261061.8, 23124.299, -0.017700959, -0.22543226, -1232877.9, -79321.17, 0.00000012908751, 9.999424, 9.999336 
1.8149552e+3, 1.9228789e+2, -1035454.94, -1059647.4, 67470.62, -0.05517047, -0.30968902, -979004.8, 76558.08, 0.0, 10.000055, 9.999728 
1.8150006e+3, 2.0228733e+2, -937553.5, -1039165.7, -13422.076, -0.08958719, -0.28986478, -935810.44, 21756.227, 0.0, 10.000373, 9.999061 
1.8150449e+3, 2.1228789e+2, -893539.5, -957518.56, -34589.996, -0.041718796, -0.16816516, -878414.25, -18849.057, 0.0, 9.999976, 9.999129 
1.8150899e+3, 2.222877e+2, -835603.25, -927336.2, 19167.438, 0.012258987, -0.05932473, -831759.3, -70189.78, 0.0, 9.999926, 9.99868 
1.8151365e+3, 2.3228575e+2, -524966.56, -712741.2, 61860.094, 0.062118664, -0.15577042, -506419.44, 157167.66, 0.0, 10.00133, 9.998795 
1.8151824e+3, 2.4228385e+2, -415563.38, -774146.1, 16078.577, 0.042719465, -0.14861582, -414843.84, 150763.2, 0.0, 10.002077, 9.997368 
1.8152262e+3, 2.5228274e+2, -466048.56, -764389.5, -14829.092, -0.10803232, -0.0023803175, -465313.28, 2313.9983, 0.0, 10.001145, 9.997203 
1.815271e+3, 2.622815e+2, -335189.75, -497170.25, -72426.96, -0.1625236, 0.12700906, -307528.8, 62114.805, 0.0000000874347, 10.000696, 9.998584 
1.8153171e+3, 2.7227998e+2, 27929.78, -178177.17, -55167.62, 0.03313614, 0.016867192, 41767.215, 313414.38, 0.00001648955, 10.002132, 9.999396 
1.8153627e+3, 2.8227735e+2, 77232.664, -394167.4, -3590.3235, 0.12050179, -0.062032677, 77260.01, 250924.31, 0.00017264257, 10.003025, 9.99682 
1.8154073e+3, 2.92272e+2, 90907.65, -390014.5, 14182.102, -0.05429846, -0.26862454, 91325.51, 167043.69, 0.00068279123, 10.002693, 9.996322 
1.8154533e+3, 3.0226758e+2, 181016.25, -218991.22, -19547.102, -0.13342042, -0.35598552, 181969.19, 181969.19, 0.0015890675, 10.002552, 9.997241 
1.815502e+3, 3.1226903e+2, 345435.84, 35537.65, -26146.766, 0.13735394, -0.021013921, 347626.4, 347626.4, 0.0027039917, 10.00293, 9.998779 
1.8246272e+3, 1.22237556e+2, -2064261.8, -1733710.4, 13817.478, -0.04441212, -0.3967472, -1733133.8, 8917.741, 0.10907774, 9.996899, 10.001328 
1.8246755e+3, 1.3224266e+2, -1842368.9, -1561330.8, 52120.55, 0.003190024, -0.04500456, -1551976.0, 92031.6, 0.07313931, 9.997668, 10.001534 
1.824721e+3, 1.422425e+2, -1482243.3, -1338877.0, 92328.08, -0.13081807, -0.20577213, -1293671.5, 252340.98, 0.039204508, 9.99952, 10.001497 
1.8247704e+3, 1.5224554e+2, -1513502.8, -1301998.5, 102293.68, -0.0792897, -0.07326484, -1260619.8, 187361.55, 0.014855209, 9.998642, 10.001452 
1.8248178e+3, 1.622477e+2, -1619226.6, -1485465.0, -26544.234, -0.13435031, 0.08315583, -1480390.0, -130431.06, 0.0031336718, 9.998014, 9.999815 
1.8248637e+3, 1.722455e+2, -1379826.8, -1341274.8, -53841.117, 0.004415396, -0.11904454, -1303363.0, -51381.867, 0.00019006866, 9.999114, 9.999583 
1.8249099e+3, 1.8224336e+2, -1164216.6, -1202050.8, 43424.758, 0.11232458, -0.26320952, -1135767.4, 18234.412, 0.00000015151502, 9.999952, 9.999489 
1.8249552e+3, 1.92243e+2, -1030755.75, -1045212.0, 55997.418, -0.04198462, -0.29516813, -981521.9, 74480.25, 0.0, 10.000055, 9.999823 
1.8250002e+3, 2.0224288e+2, -973543.5, -1069041.9, -25478.014, -0.13330705, -0.23525542, -967171.4, -9169.091, 0.0, 10.000186, 9.998932 
1.8250453e+3, 2.1224305e+2, -807892.6, -936391.44, -76801.33, -0.00500102, -0.13101575, -772009.94, 87995.26, 0.0, 10.000662, 9.99893 
1.825091e+3, 2.2224256e+2, -667792.1, -869405.9, 15485.309, 0.089621894, -0.035245847, -666609.7, 95403.64, 0.0, 10.001137, 9.998511 
1.8251374e+3, 2.3224054e+2, -502243.44, -714192.0, 27585.176, 0.033485953, -0.12625386, -498712.06, 165319.45, 0.0, 10.001526, 9.998696 
1.8251835e+3, 2.4223854e+2, -469166.7, -794935.2, -30192.78, -0.024846938, -0.124291204, -466392.0, 99659.945, 0.0, 10.001698, 9.9973955 
1.8252276e+3, 2.5223735e+2, -438062.1, -740902.7, -31465.926, -0.066500776, 0.0057261433, -434827.25, 33244.773, 0.0, 10.001304, 9.997274 
1.8252727e+3, 2.6223588e+2, -264630.8, -483619.84, 26429.406, -0.056943025, 0.111473784, -261486.27, 108603.266, 0.00000011582431, 10.001286, 9.9983835 
1.8253194e+3, 2.7223343e+2, 62128.164, -209257.52, -30451.637, 0.04563772, -0.04676628, 65503.11, 337604.4, 0.000015405387, 10.0025625, 9.998982 
1.8253656e+3, 2.8223026e+2, 156136.89, -337971.25, -24781.795, 0.097744346, -0.16007897, 157376.7, 331500.28, 0.00016033727, 10.003498, 9.996978 
1.8254106e+3, 2.9222572e+2, 161874.83, -324724.7, -646.30975, -0.004853878, -0.30809027, 161875.69, 238045.17, 0.000639737, 10.003043, 9.996606 
1.8254568e+3, 3.022219e+2, 215932.67, -189977.94, 75426.79, -0.026725702, -0.3597451, 229495.39, 229495.39, 0.001517877, 10.002729, 9.997352 
1.8255055e+3, 3.122233e+2, 513790.78, 125835.35, 21869.84, 0.17052959, -0.025056042, 515019.75, 515019.75, 0.0026419428, 10.003969, 9.998943 
1.8346275e+3, 1.2219451e+2, -2171374.5, -1988675.1, -298019.72, 0.243827, -0.23205017, -1768319.0, -25843.574, 0.11569034, 9.997014, 9.999534 
1.8346725e+3, 1.3219918e+2, -1848532.3, -1578643.3, 169384.28, -0.0980342, 0.1357865, -1497021.3, 147413.83, 0.07769921, 9.997691, 10.001424 
1.8347198e+3, 1.4219658e+2, -1498986.6, -1400858.8, 85946.13, -0.24405779, -0.25798744, -1350958.0, 195505.13, 0.04181763, 9.999638, 10.001002 
1.8347691e+3, 1.5219781e+2, -1576224.6, -1435679.0, 70742.76, -0.084235586, -0.22008851, -1406238.3, 42211.793, 0.015997248, 9.998652, 10.000519 
1.8348165e+3, 1.6219923e+2, -1587878.4, -1425716.5, -24293.797, -0.08234894, -0.09094868, -1422155.1, -71719.86, 0.0034491862, 9.998033, 10.00022 
1.8348633e+3, 1.7219958e+2, -1310951.9, -1204751.8, -662.08215, 0.021325333, -0.12564957, -1204747.6, 47684.96, 0.00021871291, 9.999126, 10.000523 
1.83491e+3, 1.8219966e+2, -1148295.3, -1171020.9, 45020.105, 0.09843953, -0.11689358, -1113226.1, 41205.664, 0.00000018976193, 9.9999695, 9.999689 
1.8349555e+3, 1.9219984e+2, -1050709.0, -1072184.0, 67073.7, -0.026248856, -0.08541791, -993518.8, 62909.965, 0.0, 9.99999, 9.99967 
1.8350008e+3, 2.0219958e+2, -1002926.3, -1102496.9, -22883.246, -0.10940786, -0.024300111, -997919.1, -39487.97, 0.0, 10.000067, 9.998759 
1.8350464e+3, 2.1219823e+2, -844927.0, -978316.6, -50517.055, 0.008296869, -0.051944584, -827954.75, 32492.297, 0.0, 10.00051, 9.998714 
1.835092e+3, 2.2219658e+2, -723075.8, -935438.4, 20564.688, 0.069522135, -0.043485187, -721102.75, 41362.633, 0.0, 10.000926, 9.998162 
1.8351384e+3, 2.3219462e+2, -553430.06, -777434.1, 54964.03, -0.04882607, -0.09331472, -540670.3, 123814.33, 0.0, 10.001341, 9.998356 
1.8351844e+3, 2.4219282e+2, -455508.3, -709310.9, -48045.176, -0.116135165, -0.07411315, -446717.75, 119784.45, 0.0, 10.001449, 9.998109 
1.8352298e+3, 2.521919e+2, -392569.66, -600855.2, -33735.18, 0.01264057, -0.017547864, -387242.0, 81269.93, 0.0, 10.001114, 9.998328 
1.8352754e+3, 2.6218992e+2, -342764.97, -609225.06, 46228.586, 0.06991837, -0.0010280261, -334972.56, 35557.17, 0.000000090536304, 10.001117, 9.997606 
1.8353206e+3, 2.7218476e+2, -60848.473, -421190.2, 39981.164, -0.1016836, -0.30445638, -56465.73, 216106.14, 0.00001528185, 10.002371, 9.99762 
1.8353665e+3, 2.8218064e+2, 150137.25, -288036.84, -38279.227, -0.1889477, -0.44476676, 153456.22, 328062.63, 0.00015301339, 10.003222, 9.997457 
1.835414e+3, 2.9218084e+2, 209737.61, -166259.33, -3494.037, 0.021411143, -0.2315353, 209770.08, 286376.53, 0.00060723, 10.002798, 9.997807 
1.8354614e+3, 3.0218e+2, 150406.52, -247761.89, 79132.03, 0.148946, -0.04746843, 165556.77, 165556.77, 0.0014659015, 10.0024, 9.997108 
1.835506e+3, 3.121766e+2, 379152.03, -8243.743, 171123.89, -0.21402788, -0.15235387, 443915.47, 443915.47, 0.0026169054, 10.003363, 9.998301 
1.8446259e+3, 1.22150294e+2, -1905323.0, -1898671.9, -404903.34, 0.2939668, -0.12413415, -1497080.5, 245833.39, 0.12272786, 9.9991, 9.999271 
1.8446708e+3, 1.32153e+2, -1802509.6, -1607463.1, 147172.92, -0.03668132, 0.103705585, -1528434.3, 116456.86, 0.08254445, 9.998289, 10.000911 
1.8447189e+3, 1.4215125e+2, -1836032.9, -1579827.6, 39742.27, -0.16135916, -0.16086514, -1573804.4, -26895.092, 0.04459436, 9.997379, 10.000833 
1.8447676e+3, 1.5215132e+2, -1697826.5, -1487446.8, 43710.36, -0.041584123, -0.2386672, -1478726.5, -29819.908, 0.017215712, 9.997788, 10.000583 
1.844815e+3, 1.6215219e+2, -1534041.1, -1394724.0, 58035.918, -0.034964543, -0.17177299, -1373715.8, -22818.875, 0.0037916328, 9.998405, 10.000251 
1.8448627e+3, 1.7215337e+2, -1197214.6, -1150295.5, 10804.779, 0.023531375, -0.11951983, -1147927.0, 104959.48, 0.00025177147, 9.99993, 10.000507 
1.8449101e+3, 1.821541e+2, -1039410.0, -1108631.6, -28231.902, 0.08693666, -0.048041053, -1029355.94, 125523.945, 0.00000025167606, 10.000667, 9.999781 
1.8449557e+3, 1.9215432e+2, -1113668.5, -1083886.4, -33560.277, 0.031270046, -0.02946405, -1062061.8, -5185.468, 0.0, 9.99947, 9.999836 
1.8450013e+3, 2.0215374e+2, -1169399.1, -1196428.0, -34297.55, -0.011301669, -0.0050035105, -1146049.5, -187168.48, 0.0, 9.998977, 9.99865 
1.8450472e+3, 2.1215142e+2, -776284.56, -969273.0, -60610.805, 0.023869926, -0.10557983, -758827.9, 102076.54, 0.0, 10.001093, 9.998503 
1.8450932e+3, 2.2214927e+2, -522366.13, -872816.9, -9608.057, 0.042678267, -0.1223371, -522102.9, 240824.33, 0.0, 10.00248, 9.997826 
1.8451397e+3, 2.321479e+2, -536074.7, -812805.06, -20396.988, -0.048602317, -0.07313783, -534579.4, 130364.86, 0.0, 10.00166, 9.997944 
1.8451858e+3, 2.4214648e+2, -472586.1, -678111.56, -98385.81, -0.079349555, -0.005878051, -433081.66, 133878.17, 0.0, 10.001175, 9.9984455 
1.8452318e+3, 2.521451e+2, -220197.8, -451221.13, -139010.83, 0.06457871, -0.048254445, -154969.44, 314000.3, 0.0, 10.002005, 9.998928 
1.8452777e+3, 2.6214284e+2, -148723.53, -510657.88, -33026.24, 0.13810225, -0.09857928, -145734.6, 225252.92, 0.00000009817215, 10.002439, 9.997643 
1.8453227e+3, 2.721381e+2, -159188.67, -486282.0, 17756.883, -0.068595976, -0.34408766, -158227.53, 114799.71, 0.000013983738, 10.001786, 9.997445 
1.8453686e+3, 2.821342e+2, -67375.65, -379167.34, 17558.998, -0.19753835, -0.45335194, -66389.9, 108670.766, 0.00014297603, 10.001682, 9.997574 
1.8454163e+3, 2.9213464e+2, 282076.7, -105807.44, -56818.29, -0.033491403, -0.23086561, 290228.28, 367286.6, 0.000574171, 10.003188, 9.998044 
1.8454647e+3, 3.0213436e+2, 348604.44, -152234.8, -2178.9443, 0.19502258, -0.004015154, 348613.94, 348613.94, 0.0014107538, 10.003757, 9.997126 
1.8455094e+3, 3.1212896e+2, 179265.61, -113311.734, 76415.94, -0.10374059, -0.28560254, 198021.69, 198021.69, 0.002569783, 10.002003, 9.998239 
1.8546215e+3, 1.22105375e+2, -1776909.8, -1696013.6, -333906.5, -0.13709955, -0.045158997, -1400114.3, 343248.38, 0.13014582, 9.999338, 10.000641 
1.8546708e+3, 1.3210362e+2, -1878312.8, -1772266.3, 103374.14, 0.116530046, -0.19918333, -1709110.0, -63729.684, 0.08765755, 9.998318, 9.999719 
1.854718e+3, 1.4210652e+2, -1826376.6, -1551176.6, 26111.008, 0.0020610245, 0.08285706, -1548721.1, -1370.2697, 0.04753598, 9.997341, 10.001052 
1.8547654e+3, 1.521062e+2, -1620047.1, -1333775.4, 73577.29, -0.0628048, -0.125276, -1315971.9, 133377.61, 0.01851746, 9.997804, 10.001651 
1.8548127e+3, 1.6210663e+2, -1552172.6, -1447242.5, 90553.08, -0.13811451, -0.16120152, -1395053.6, -43710.984, 0.0041650403, 9.998467, 9.99986 
1.8548615e+3, 1.7210682e+2, -1272639.1, -1307181.3, 80238.26, -0.09311843, -0.11218729, -1207834.1, 45509.355, 0.00029041685, 9.999924, 9.999436 
1.8549097e+3, 1.8210657e+2, -1033559.7, -1104290.9, -60355.926, -0.037375282, -0.068882935, -998971.25, 156375.97, 0.0000003514084, 10.000702, 9.999795 
1.8549553e+3, 1.9210635e+2, -1091769.4, -1024399.3, -76912.79, 0.02627814, -0.13007727, -974118.5, 83226.9, 0.0, 9.999405, 10.000279 
1.8550009e+3, 2.0210537e+2, -1193393.3, -1214910.0, 807.79846, 0.042378135, -0.16899775, -1193363.0, -234011.4, 0.0, 9.998844, 9.998587 
1.8550476e+3, 2.1210265e+2, -818187.06, -1016783.2, 35063.152, -0.04187688, -0.29247907, -812178.3, 49199.273, 0.0, 10.000922, 9.998258 
1.8550944e+3, 2.221005e+2, -576719.75, -937221.4, -21579.879, -0.0992157, -0.2815216, -575432.56, 187967.86, 0.0, 10.002262, 9.997494 
1.855141e+3, 2.3210046e+2, -592447.25, -889942.9, -42993.113, -0.0742525, -0.055899177, -586358.6, 79050.94, 0.0, 10.001482, 9.997505 
1.8551876e+3, 2.4209972e+2, -513704.25, -708664.75, -94471.45, -0.04829186, 0.11267913, -475437.47, 91985.195, 0.0, 10.00094, 9.998348 
1.8552333e+3, 2.5209704e+2, -244863.7, -447220.8, -92784.81, 0.0049036904, -0.06986717, -208761.08, 260683.3, 0.0, 10.001776, 9.999059 
1.8552794e+3, 2.6209468e+2, -133295.4, -421674.34, -56748.574, 0.051360123, -0.16594234, -122530.03, 248932.17, 0.00000008466028, 10.002195, 9.998372 
1.8553257e+3, 2.7209306e+2, -122141.57, -363534.5, 7178.498, 0.025211496, -0.19054899, -121928.29, 151542.44, 0.000011476472, 10.001597, 9.998377 
1.8553716e+3, 2.820905e+2, -122620.19, -453801.38, 34653.633, -0.088797, -0.20766196, -119033.01, 56457.277, 0.00012753508, 10.001502, 9.997152 
1.855417e+3, 2.920873e+2, 194824.92, -233764.95, 18077.375, -0.27599496, -0.27656054, 195586.05, 273109.25, 0.0005320517, 10.002958, 9.997278 
1.8554664e+3, 3.020855e+2, 300418.6, -173068.25, -60303.9, -0.03281597, -0.15614684, 307978.28, 307978.28, 0.0013351652, 10.003423, 9.997139 
1.855516e+3, 3.1208214e+2, 125181.97, -102260.484, 51485.09, 0.308652, -0.25547945, 136293.55, 136293.55, 0.0024626518, 10.001503, 9.998544 
1.8646197e+3, 1.22060634e+2, -2009596.9, -1702735.6, -137545.48, -0.12972394, 0.07869215, -1650108.6, 93693.875, 0.1378835, 9.99721, 10.001485 
1.8646687e+3, 1.3205616e+2, -1896407.3, -1846029.5, 70984.42, 0.08428429, -0.32133892, -1795897.3, -150052.77, 0.09301642, 9.998488, 9.999114 
1.8647172e+3, 1.4206007e+2, -1735407.1, -1567099.9, 70480.02, 0.15074858, 0.121972255, -1541484.4, 6320.719, 0.050644647, 9.998245, 10.000496 
1.8647641e+3, 1.520597e+2, -1527413.9, -1338168.6, -2207.9094, 0.0060302084, -0.04680701, -1338142.9, 111663.54, 0.01991141, 9.998665, 10.001197 
1.8648113e+3, 1.6205963e+2, -1497680.1, -1436212.6, -24362.361, -0.10330068, -0.09658249, -1427727.9, -75921.81, 0.0045744055, 9.998894, 9.999727 
1.8648608e+3, 1.7205946e+2, -1430484.1, -1374919.6, 19479.69, -0.0778721, -0.0869248, -1368770.9, -114961.36, 0.0003360051, 9.998807, 9.999497 
1.8649094e+3, 1.8205896e+2, -1307815.0, -1258724.9, -69630.18, -0.026645929, -0.06634656, -1209440.3, -53625.156, 0.00000050835786, 9.99892, 9.999591 
1.8649551e+3, 1.9205856e+2, -1001012.75, -1013239.1, -165100.0, 0.04521023, -0.11715453, -841912.8, 215903.31, 0.0, 10.000173, 9.999987 
1.865001e+3, 2.020575e+2, -866111.6, -1058435.1, -68244.28, 0.072046325, -0.14767559, -844356.6, 115467.27, 0.0, 10.001106, 9.998566 
1.8650483e+3, 2.1205473e+2, -783328.94, -992204.25, -22430.285, -0.06746149, -0.278661, -780947.4, 80901.42, 0.0, 10.001123, 9.998332 
1.8650955e+3, 2.220526e+2, -736692.94, -980827.3, -69376.24, -0.14436936, -0.27993244, -718355.5, 45514.68, 0.0, 10.001022, 9.9978 
1.8651423e+3, 2.3205288e+2, -646000.44, -872955.5, -75974.805, -0.06169185, -0.05895656, -622915.44, 42960.17, 0.0, 10.000934, 9.997895 
1.8651888e+3, 2.4205233e+2, -526191.75, -723715.5, -41293.05, 0.0007347127, 0.11037884, -517906.78, 49979.73, 0.0, 10.000885, 9.99827 
1.8652342e+3, 2.5204974e+2, -375364.44, -540126.8, -71977.48, -0.018904103, -0.041465435, -348349.94, 121559.4, 0.0, 10.001007, 9.99879 
1.8652806e+3, 2.6204756e+2, -227855.69, -459319.13, -45026.65, 0.010496523, -0.1051944, -219405.17, 152522.06, 0.000000065173005, 10.001504, 9.998451 
1.8653283e+3, 2.720465e+2, 101942.08, -232311.56, -63814.29, 0.07820704, -0.088741414, 113710.87, 387641.34, 0.000009433609, 10.003024, 9.9986 
1.8653749e+3, 2.8204414e+2, 214742.9, -309999.6, -33858.844, -0.0015547602, -0.102355294, 216918.63, 392867.3, 0.00011541226, 10.0039015, 9.996974 
1.8654197e+3, 2.9203945e+2, 226155.06, -257388.33, -55006.97, -0.29988214, -0.27669677, 232333.61, 310328.16, 0.0004964564, 10.003342, 9.996914 
1.8654698e+3, 3.02037e+2, 297745.94, -170764.06, -100345.21, -0.0069553438, -0.20274279, 318333.2, 318333.2, 0.0012593403, 10.003374, 9.9971695 
1.8655181e+3, 3.1203473e+2, 528019.5, 93876.86, -98772.38, 0.25401437, -0.2129729, 549434.94, 549434.94, 0.002321422, 10.004232, 9.998574 
1.8746196e+3, 1.220143e+2, -2024377.9, -1719794.4, 148207.06, 0.10599746, 0.03378271, -1659581.8, 84667.78, 0.14588223, 9.997149, 10.001397 
1.8746635e+3, 1.3201104e+2, -1891813.6, -1841182.6, 76083.97, -0.29337913, -0.23848526, -1786313.1, -140033.88, 0.0986057, 9.998502, 9.999146 
1.8747155e+3, 1.4201176e+2, -1814192.5, -1759864.5, 65301.47, 0.13812488, -0.07210083, -1716302.5, -168029.69, 0.053927336, 9.998361, 9.999118 
1.8747635e+3, 1.520116e+2, -1668126.9, -1640537.0, 26227.824, 0.06281965, -0.020792091, -1624697.5, -174417.53, 0.021407956, 9.998706, 9.999091 
1.8748112e+3, 1.6201112e+2, -1472290.0, -1398188.9, -38018.49, -0.045772947, 0.019554218, -1382153.3, -29864.81, 0.0050250688, 9.998955, 9.999962 
1.8748602e+3, 1.720113e+2, -1349414.9, -1203016.1, 22361.072, -0.0356049, -0.0399868, -1199676.8, 54607.707, 0.00038988978, 9.998778, 10.000699 
1.8749087e+3, 1.8201123e+2, -1331463.9, -1308756.8, -50056.46, -0.019617055, -0.041713655, -1268782.4, -112498.57, 0.000000733184, 9.998927, 9.999247 
1.8749548e+3, 1.9201094e+2, -1083772.1, -1165143.0, -106290.22, -0.013188368, 0.010725302, -1010646.7, 47642.1, 0.0, 10.0000925, 9.998982 
1.875001e+3, 2.0200998e+2, -877212.56, -1063270.4, -71905.88, -0.04292046, 0.05698806, -852662.4, 107636.54, 0.0, 10.001019, 9.99858 
1.8750484e+3, 2.1200772e+2, -779910.06, -947669.1, -14048.3125, -0.15955506, -0.058612037, -778741.8, 83576.03, 0.0, 10.0009575, 9.998721 
1.8750958e+3, 2.220057e+2, -712015.0, -876242.9, -83178.37, -0.22601214, -0.10238739, -677247.25, 87088.19, 0.0, 10.000785, 9.998634 
1.8751428e+3, 2.3200499e+2, -598749.6, -729229.7, -68142.17, -0.112782024, -0.08405271, -569651.9, 96691.9, 0.0, 10.000739, 9.998972 
1.8751892e+3, 2.4200413e+2, -558690.06, -746873.56, -49584.24, -0.049333762, -0.017224466, -546424.56, 21929.486, 0.0, 10.000687, 9.998214 
1.8752344e+3, 2.5200304e+2, -439448.4, -631609.1, -53064.44, -0.11236451, 0.028434588, -425768.72, 44598.06, 0.0, 10.00083, 9.998249 
1.8752812e+3, 2.6200143e+2, -300756.28, -560763.2, -13306.161, -0.10516075, 0.080937535, -300077.1, 72305.98, 0.00000004605578, 10.001276, 9.997872 
1.8753305e+3, 2.7199867e+2, 29647.02, -323898.1, 11492.797, -0.010667857, -0.02038366, 30020.225, 304424.78, 0.000008319171, 10.002765, 9.998102 
1.8753783e+3, 2.8199536e+2, 167978.06, -337233.3, -48911.56, -0.07824934, -0.096190564, 172669.81, 349102.2, 0.00010877432, 10.003598, 9.996937 
1.8754238e+3, 2.919911e+2, 175350.08, -284075.9, -50052.6, -0.24906383, -0.23116662, 180739.88, 259212.83, 0.0004725632, 10.003008, 9.996894 
1.8754743e+3, 3.019885e+2, 254693.81, -174389.02, -85040.945, 0.07247851, -0.1680879, 270933.66, 270933.66, 0.001193127, 10.003019, 9.997311 
1.875518e+3, 3.1198615e+2, 425762.78, 34200.516, -67330.41, -0.22013298, -0.21710226, 437017.0, 437017.0, 0.0021761258, 10.003618, 9.998445 
1.8846196e+3, 1.2196411e+2, -1836808.9, -1651717.1, 90182.1, 0.34611964, -0.060148805, -1615044.0, 129695.29, 0.15411249, 9.998469, 10.001297 
1.8846606e+3, 1.3196167e+2, -1955640.0, -1834548.0, -165822.11, -0.40536058, -0.29823834, -1718564.1, -71802.7, 0.10442951, 9.997889, 9.999491 
1.8847136e+3, 1.4196292e+2, -1938630.1, -1820437.0, -98280.39, 0.16251093, -0.08898684, -1764853.9, -216103.72, 0.057399224, 9.997535, 9.999088 
1.884762e+3, 1.5196277e+2, -1766912.1, -1667470.0, 10899.737, 0.10272612, -0.04607605, -1666289.3, -215532.66, 0.023018045, 9.997985, 9.999231 
1.8848102e+3, 1.6196218e+2, -1550636.0, -1431604.8, 72557.15, 0.0073755877, -0.028091572, -1397276.6, -44511.008, 0.005521801, 9.998393, 10.000005 
1.8848594e+3, 1.7196241e+2, -1324312.0, -1187287.8, 33167.402, 0.003023921, -0.08683525, -1179681.6, 75079.37, 0.0004532519, 9.998927, 10.000744 
1.884908e+3, 1.8196252e+2, -1282006.9, -1306969.3, -45620.13, 0.02086563, -0.06704788, -1247191.4, -90432.16, 0.0000010252129, 9.999367, 9.999041 
1.884955e+3, 1.9196223e+2, -1103653.3, -1209613.9, -62792.758, 0.02322288, 0.012653574, -1074476.1, -15709.513, 0.0, 10.000101, 9.998671 
1.885002e+3, 2.0196146e+2, -954737.2, -1088981.5, -7847.413, -0.009934661, 0.09096585, -954280.06, 6496.937, 0.0, 10.000439, 9.998679 
1.8850489e+3, 2.1195972e+2, -902876.06, -972189.1, 2535.233, -0.15134102, 0.0026184593, -902783.44, -39992.875, 0.0, 9.999969, 9.99902 
1.885096e+3, 2.2195795e+2, -831741.56, -906890.1, -39423.66, -0.21676582, -0.045331966, -814854.4, -50049.49, 0.0, 9.999858, 9.9988575 
1.8851435e+3, 2.3195654e+2, -518725.5, -672561.44, -93296.234, -0.10951396, -0.113530576, -474727.97, 192089.83, 0.0, 10.001202, 9.999139 
1.8851906e+3, 2.4195527e+2, -354359.56, -648476.56, -117712.336, -0.042917397, -0.097670816, -313050.34, 255780.27, 0.0, 10.002108, 9.998201 
1.8852358e+3, 2.519545e+2, -340053.4, -604428.8, -140805.25, -0.089056775, -0.007126393, -279109.78, 191731.58, 0.0, 10.001607, 9.998064 
1.8852827e+3, 2.619529e+2, -311805.97, -571898.56, -14135.935, -0.047066223, 0.06775322, -311039.94, 61818.04, 0.000000017635879, 10.001248, 9.997795 
1.8853329e+3, 2.7195e+2, -117463.98, -388501.2, 33423.844, 0.026490945, -0.047587518, -113403.05, 161479.08, 0.000007223604, 10.001761, 9.998119 
1.885381e+3, 2.8194705e+2, -27657.797, -389111.84, 2064.7322, -0.05684714, -0.10344338, -27646.002, 149261.31, 0.00010058898, 10.002099, 9.99729 
1.8854272e+3, 2.9194373e+2, 122227.42, -270225.75, -16695.668, -0.15865144, -0.19258718, 122936.41, 201874.64, 0.0004433926, 10.002467, 9.99725 
1.8854783e+3, 3.0194083e+2, 286594.47, -207449.27, 15137.761, 0.1929869, -0.16175841, 287057.84, 287057.84, 0.00111724, 10.003396, 9.996937 
1.885521e+3, 3.1193787e+2, 518094.22, 83005.414, -158290.42, -0.2832458, -0.21651712, 569587.75, 569587.75, 0.0020247328, 10.004222, 9.998499 
1.894618e+3, 1.2191298e+2, -1820850.9, -1675491.6, 21068.172, 0.28500825, 0.10671099, -1672499.6, 72744.695, 0.16258536, 9.998692, 10.000997 
1.8946593e+3, 1.3190778e+2, -1913581.3, -1748128.4, -176851.31, -0.34077838, -0.49479097, -1635611.3, 11683.395, 0.110513955, 9.997868, 10.000118 
1.8947105e+3, 1.4191344e+2, -1834022.1, -1593754.8, -112999.805, 0.08119179, 0.083628595, -1548961.0, 277.40283, 0.06108175, 9.997504, 10.000654 
1.8947594e+3, 1.5191314e+2, -1597239.0, -1310739.5, 39549.52, 0.016714338, -0.12490943, -1305380.3, 145856.81, 0.024752133, 9.997951, 10.001722 
1.894808e+3, 1.6191266e+2, -1540131.3, -1426912.1, 83870.79, -0.08411065, -0.25703645, -1382334.0, -29095.494, 0.0060684755, 9.998465, 10.000003 
1.8948577e+3, 1.7191279e+2, -1402453.4, -1347071.4, 62137.395, -0.062223524, -0.23337722, -1306734.1, -51495.313, 0.0005270964, 9.998917, 9.999653 
1.8949072e+3, 1.8191274e+2, -1276587.5, -1307159.3, -31682.355, -0.018339656, -0.15742202, -1256696.3, -99454.12, 0.0000013718216, 9.999418, 9.999012 
1.8949555e+3, 1.919126e+2, -1084047.1, -1151890.5, -28253.914, 0.04287176, -0.09891713, -1073821.8, -14573.726, 0.0, 10.0000305, 9.999098 
1.895003e+3, 2.0191206e+2, -956656.1, -1073193.0, -23084.213, 0.037046283, -0.0308871, -952250.06, 9006.301, 0.0, 10.0003395, 9.998842 
1.895049e+3, 2.1191072e+2, -915758.5, -969936.06, -6345.337, -0.1322565, -0.089975454, -915025.25, -51758.207, 0.0, 9.99983, 9.999109 
1.8950959e+3, 2.2190917e+2, -889849.56, -976410.94, -20540.322, -0.23322187, -0.11010191, -885222.8, -119942.34, 0.0, 9.99964, 9.998483 
1.8951443e+3, 2.3190768e+2, -593327.6, -774895.8, -24771.648, -0.16200069, -0.13337803, -590008.6, 77287.59, 0.0, 10.000979, 9.998539 
1.895192e+3, 2.4190605e+2, -403519.16, -693743.75, -128520.94, -0.112054765, -0.10749333, -354788.2, 214525.22, 0.0, 10.001849, 9.998022 
1.8952379e+3, 2.519042e+2, -364028.47, -609470.2, -149212.28, -0.050684415, -0.12565629, -293553.28, 177778.58, 0.0, 10.001415, 9.998122 
1.8952851e+3, 2.619021e+2, -313153.28, -535257.3, -16240.783, 0.055860333, -0.12011287, -311972.0, 61379.914, 0.0000000071100716, 10.001074, 9.998134 
1.8953352e+3, 2.7190042e+2, -122199.836, -339866.97, 68914.35, 0.066970296, -0.15683332, -102215.97, 173149.02, 0.0000064443307, 10.001519, 9.998567 
1.8953831e+3, 2.8189895e+2, -22735.172, -314555.56, -2748.0078, -0.08113751, -0.118097, -22709.297, 154667.1, 0.0000894982, 10.001807, 9.997948 
1.8954298e+3, 2.918968e+2, 116075.6, -215899.77, 21621.533, -0.16968952, -0.16239567, 117477.89, 196873.16, 0.00040206578, 10.002169, 9.997773 
1.8954815e+3, 3.0189356e+2, 165013.84, -372264.3, 39414.68, 0.15315184, -0.15541185, 167889.9, 167889.9, 0.0010244825, 10.003042, 9.995963 
1.8955262e+3, 3.118895e+2, 383422.8, -8278.157, -122290.8, -0.22159572, -0.19767861, 418467.22, 418467.22, 0.0018685344, 10.003483, 9.998201 
1.9046155e+3, 1.2186125e+2, -2089511.6, -1755985.6, 78884.67, 0.26869196, 0.16200802, -1738269.1, 7484.3237, 0.1713416, 9.996741, 10.001273 
1.9046584e+3, 1.31857e+2, -1858164.1, -1610613.0, -125113.19, -0.1720233, -0.47205707, -1558395.1, 89399.336, 0.11689223, 9.997787, 10.001136 
1.9047073e+3, 1.4186384e+2, -1760101.9, -1537615.6, -28449.127, 0.013177659, 0.16553679, -1534035.5, 15690.848, 0.06499328, 9.997879, 10.000882 
1.9047573e+3, 1.518629e+2, -1440135.1, -1197966.9, -36566.973, -0.0032171116, -0.14470263, -1192565.8, 259163.19, 0.026617203, 9.998816, 10.002121 
1.904807e+3, 1.6186231e+2, -1420236.8, -1355638.5, -92045.6, -0.04627541, -0.31532243, -1290389.6, 63340.695, 0.0066676727, 9.999229, 10.000128 
1.9048567e+3, 1.71863e+2, -1442615.8, -1356485.3, -72762.086, -0.021969097, -0.24156539, -1314999.1, -59272.8, 0.0006122247, 9.998611, 9.999725 
1.9049062e+3, 1.8186331e+2, -1428801.3, -1342552.9, -53530.617, 0.02589471, -0.14461285, -1316936.9, -159210.28, 0.0000017786746, 9.998221, 9.999346 
1.9049552e+3, 1.9186309e+2, -1137159.3, -1128853.4, -55657.11, 0.057324473, -0.13521264, -1077194.5, -17462.572, 0.0, 9.999463, 9.999535 
1.9050033e+3, 2.0186256e+2, -934497.6, -1040446.0, -60738.063, 0.043059073, -0.09475535, -906877.9, 54861.07, 0.0, 10.000432, 9.999005 
1.9050494e+3, 2.1186166e+2, -798493.9, -911684.25, -89502.234, -0.10657699, -0.11357643, -749194.44, 114552.41, 0.0, 10.000653, 9.999104 
1.9050962e+3, 2.218604e+2, -740636.5, -919940.56, -60358.8, -0.18895508, -0.09732032, -722211.4, 43547.38, 0.0, 10.000709, 9.998368 
1.9051455e+3, 2.3185886e+2, -669677.7, -831781.3, -48204.71, -0.10296896, -0.10881246, -656426.3, 11349.5, 0.0, 10.000526, 9.998374 
1.9051938e+3, 2.4185733e+2, -572075.06, -748208.6, -102990.04, -0.03320764, -0.07169448, -524632.8, 45159.59, 0.0, 10.000595, 9.998235 
1.9052397e+3, 2.5185555e+2, -284201.13, -525402.44, -127804.68, -0.003681898, -0.11785749, -229078.83, 242729.47, 0.0, 10.001769, 9.998518 
1.9052869e+3, 2.6185352e+2, -118347.55, -424715.44, 21631.236, 0.07540132, -0.14329052, -116827.805, 256998.81, 0.000000016068412, 10.002335, 9.998285 
1.9053365e+3, 2.7185172e+2, -163634.33, -368365.63, 40717.63, 0.08555252, -0.19087003, -155833.5, 120007.55, 0.000006020835, 10.00123, 9.998527 
1.9053847e+3, 2.8185034e+2, -141338.9, -343305.06, 12854.421, -0.038030297, -0.1482148, -140524.06, 37327.75, 0.00007835106, 10.000864, 9.99821 
1.9054325e+3, 2.9184884e+2, 246535.23, -111079.62, -8108.241, -0.13626666, -0.15888311, 246718.98, 326584.34, 0.00035541714, 10.002896, 9.9981365 
1.9054845e+3, 3.0184528e+2, 276395.0, -337596.4, 9207.699, 0.13186058, -0.19143459, 276533.06, 276533.06, 0.0009236989, 10.0039, 9.995794 
1.9055314e+3, 3.1184152e+2, 212281.22, -40985.527, -202088.69, 0.047800936, -0.17714046, 324134.44, 324134.44, 0.0017173454, 10.002021, 9.998722 
1.91461e+3, 1.2180676e+2, -2036250.6, -1637624.4, 49094.457, -0.0021779877, -0.13208495, -1631667.0, 114620.58, 0.18042894, 9.996636, 10.002276 
1.9146582e+3, 1.3180953e+2, -1764693.3, -1436604.1, -105318.55, 0.0013659295, -0.22084694, -1405706.0, 242552.39, 0.12358676, 9.997788, 10.002476 
1.9147035e+3, 1.4181384e+2, -1817432.3, -1683795.8, -17803.213, -0.18588544, 0.12766965, -1681464.6, -131248.83, 0.069141634, 9.998, 9.999814 
1.9147556e+3, 1.5181208e+2, -1565458.0, -1453459.5, 6517.0195, -0.07387496, -0.09771065, -1453081.6, -848.7031, 0.028615344, 9.998825, 10.000313 
1.9148068e+3, 1.6181128e+2, -1390673.4, -1317726.5, -115496.68, -0.007410209, -0.17886311, -1233081.0, 121159.64, 0.0073205116, 9.999328, 10.000341 
1.914856e+3, 1.7181318e+2, -1363805.0, -1185082.8, -96194.66, 0.023152445, -0.088651605, -1143147.1, 113075.41, 0.00070924795, 9.998581, 10.000913 
1.9149047e+3, 1.8181434e+2, -1375976.0, -1242803.5, -42165.234, 0.035542328, -0.0061010956, -1230575.9, -72364.46, 0.0000023137907, 9.998252, 10.000022 
1.914954e+3, 1.918137e+2, -1117461.3, -1070912.3, 4339.1167, -0.025628068, -0.08301472, -1070511.3, -10293.601, 0.0, 9.999384, 9.999973 
1.9150025e+3, 2.0181292e+2, -947856.3, -1047163.8, -52670.383, -0.11068364, -0.10025204, -925124.56, 37100.848, 0.0, 10.000329, 9.999011 
1.9150493e+3, 2.1181242e+2, -832710.25, -948446.8, -75148.766, -0.18382694, -0.06484162, -795730.9, 68499.99, 0.0, 10.000496, 9.998926 
1.915097e+3, 2.2181158e+2, -763468.2, -914479.44, -71834.77, -0.1976743, -0.0028542872, -734756.06, 31484.088, 0.0, 10.000477, 9.998521 
1.9151469e+3, 2.3181017e+2, -680184.8, -804084.44, -42529.688, -0.029664306, -0.028204244, -666991.06, 1265.0569, 0.0, 10.0003195, 9.998665 
1.9151956e+3, 2.4180886e+2, -568195.8, -686125.1, -82008.01, 0.060211007, -0.001449372, -526154.8, 44115.086, 0.0, 10.000359, 9.998776 
1.915241e+3, 2.5180835e+2, -268028.75, -439350.8, -69740.1, -0.05725462, 0.009097804, -243229.4, 229043.58, 0.0, 10.001547, 9.999213 
1.9152875e+3, 2.6180702e+2, -157483.16, -451955.63, -13245.688, -0.10668631, 0.014518931, -156888.55, 217394.52, 0.000000038925435, 10.002094, 9.998219 
1.9153367e+3, 2.7180386e+2, -221390.78, -445190.94, 8615.098, -0.036771875, -0.13535753, -221059.64, 55250.67, 0.0000054500297, 10.001055, 9.998079 
1.9153853e+3, 2.8180134e+2, -179601.25, -387582.63, 42902.68, -0.081414685, -0.1706102, -171098.81, 7233.6655, 0.00006657065, 10.000708, 9.997985 
1.9154349e+3, 2.917999e+2, 186919.95, -153901.22, 92140.375, -0.18688314, -0.16578947, 210234.98, 290582.78, 0.0003045757, 10.002554, 9.998008 
1.915487e+3, 3.0179638e+2, 249824.48, -296999.4, -41598.598, -0.025630362, -0.19931632, 252970.92, 252970.92, 0.0008128508, 10.003481, 9.996267 
1.9155331e+3, 3.1179562e+2, 231878.73, 137271.94, -221172.9, -0.011865842, 0.015762363, 410750.2, 410750.2, 0.001554456, 10.0014715, 10.000186 
1.9246058e+3, 1.2175664e+2, -1936999.0, -1597258.9, 149551.8, -0.07671395, -0.18394536, -1540807.0, 205970.36, 0.18987963, 9.997321, 10.002352 
1.9246563e+3, 1.3176213e+2, -1824896.9, -1460598.6, -61178.67, 0.08603293, -0.014941629, -1450599.0, 198123.0, 0.13060497, 9.99734, 10.002516 
1.9247016e+3, 1.4176282e+2, -1810669.1, -1700340.1, 22618.273, -0.16171701, -0.025301898, -1695883.3, -145168.02, 0.07352615, 9.998148, 9.999621 
1.9247541e+3, 1.5176216e+2, -1654642.8, -1525356.5, 129363.75, -0.07449927, -0.11486549, -1445383.9, 7339.1797, 0.030745408, 9.998355, 10.00004 
1.9248056e+3, 1.6176206e+2, -1523699.5, -1397355.0, 87481.61, -0.005383407, -0.10634586, -1352621.0, 2104.5242, 0.008026891, 9.998506, 10.000175 
1.924855e+3, 1.717636e+2, -1247048.1, -1145868.3, -9991.781, 0.04843949, -0.041015923, -1144891.0, 111820.67, 0.0008187495, 9.999462, 10.000758 
1.9249043e+3, 1.8176456e+2, -1128157.6, -1118995.0, -9007.233, 0.08928527, 0.027412431, -1113471.0, 45231.938, 0.0000031359323, 9.999918, 10.000072 
1.924953e+3, 1.9176407e+2, -1126630.4, -1058128.9, -7221.407, -0.02504433, -0.049240917, -1057375.9, 3330.1663, 0.0, 9.99923, 10.000134 
1.9250016e+3, 2.0176338e+2, -1169808.6, -1145457.4, -46966.18, -0.12087533, -0.07359423, -1109114.3, -146402.67, 0.0, 9.998759, 9.9991 
1.9250499e+3, 2.117626e+2, -939421.2, -995285.3, -71740.73, -0.12050782, -0.06931846, -890366.7, -25646.99, 0.0, 9.999741, 9.998971 
1.9250984e+3, 2.2176169e+2, -741835.7, -871039.25, -51323.316, -0.07291193, -0.026825868, -723930.06, 42799.438, 0.0, 10.000517, 9.998784 
1.9251478e+3, 2.3176062e+2, -615789.4, -731083.25, -51319.3, 0.030761013, -0.050622303, -596255.75, 72485.69, 0.0, 10.000595, 9.999027 
1.9251962e+3, 2.4175963e+2, -510161.6, -639117.5, -51218.176, 0.08452109, -0.025690084, -492294.5, 78457.43, 0.0, 10.000655, 9.998968 
1.9252425e+3, 2.517594e+2, -334616.22, -467199.66, -88618.39, -0.0085290205, 0.008386413, -290238.1, 182514.72, 0.0, 10.001045, 9.999284 
1.9252898e+3, 2.6175842e+2, -239079.16, -484440.66, -57242.566, -0.045077637, 0.040166587, -226381.64, 148378.77, 0.000000047147957, 10.001517, 9.998268 
1.9253382e+3, 2.7175522e+2, -27373.953, -349989.72, -48681.035, -0.044647127, -0.11507875, -20188.285, 256599.92, 0.0000044268, 10.002384, 9.998093 
1.9253866e+3, 2.8175238e+2, 107548.78, -253053.17, 45864.39, -0.10251068, -0.17777969, 113290.766, 292104.03, 0.000054025306, 10.002719, 9.997922 
1.9254369e+3, 2.9175097e+2, 34041.26, -237506.23, 61762.523, -0.16761214, -0.1545001, 47428.902, 128257.234, 0.0002523606, 10.001534, 9.997921 
1.9254887e+3, 3.01748e+2, -49819.09, -348060.44, -5274.229, -0.05859066, -0.1698939, -49725.848, -49725.848, 0.0006949365, 10.001014, 9.997103 
1.9255361e+3, 3.117478e+2, 532689.4, 275202.56, -211022.75, 0.06432985, 0.021586942, 651141.2, 651141.2, 0.0013689849, 10.003504, 10.000183 
1.9346035e+3, 1.2171004e+2, -1972663.3, -1687715.1, -52613.9, -0.11018431, -0.11361889, -1678310.8, 68920.625, 0.1997211, 9.997444, 10.001503 
1.934652e+3, 1.3171467e+2, -1937978.9, -1650960.9, -21747.666, -0.0982786, 0.12658949, -1649322.4, -136.17346, 0.13795441, 9.997272, 10.001045 
1.9347014e+3, 1.4171095e+2, -1747545.9, -1583962.3, 32066.975, -0.05135677, -0.26936263, -1577900.9, -26678.102, 0.07814733, 9.998202, 10.000397 
1.9347522e+3, 1.5171327e+2, -1554972.9, -1327585.9, 142454.64, -0.09889554, -0.1910094, -1259017.1, 194180.53, 0.033007, 9.998368, 10.001434 
1.9348027e+3, 1.6171469e+2, -1549677.8, -1461886.4, 104999.18, -0.17886223, -0.108888365, -1391976.8, -36793.45, 0.008786739, 9.998549, 9.999715 
1.9348536e+3, 1.7171425e+2, -1350929.6, -1365142.9, 39270.7, -0.04482591, -0.10556658, -1318127.6, -60934.37, 0.00094156526, 9.999474, 9.999253 
1.934904e+3, 1.8171388e+2, -1157829.6, -1195634.1, -27959.51, 0.053760793, -0.052206885, -1142982.4, 16218.973, 0.0000044945964, 9.99998, 9.999517 
1.9349523e+3, 1.9171423e+2, -1143592.8, -1084456.6, -27716.883, -0.042968266, -0.026480887, -1073497.0, -12300.482, 0.0, 9.999181, 9.999985 
1.9350006e+3, 2.0171396e+2, -1174693.5, -1129734.4, -40594.242, -0.11647458, -0.004852828, -1105811.1, -142613.61, 0.0, 9.998647, 9.999263 
1.9350508e+3, 2.1171217e+2, -951122.8, -975558.7, -21235.48, -0.012937445, -0.12249554, -938841.25, -73627.77, 0.0, 9.999552, 9.9992 
1.9351004e+3, 2.2171055e+2, -757077.75, -840811.44, -48118.01, 0.05649985, -0.17809092, -735162.3, 32066.316, 0.0, 10.000259, 9.999112 
1.9351476e+3, 2.3171018e+2, -618749.7, -689667.06, -38937.395, -0.031633314, -0.16789316, -601544.94, 67687.65, 0.0, 10.000395, 9.999405 
1.9351952e+3, 2.4170966e+2, -553182.94, -677755.94, -54424.598, -0.09273659, -0.11432215, -532755.2, 38482.965, 0.0, 10.000433, 9.998814 
1.9352442e+3, 2.5170887e+2, -389626.28, -541135.94, -63179.652, 0.03298077, -0.100640595, -366738.0, 106508.81, 0.0, 10.000875, 9.998858 
1.9352931e+3, 2.617077e+2, -271708.06, -495533.97, -43257.266, 0.12027505, -0.05909733, -263638.94, 111619.38, 0.00000001782158, 10.001283, 9.998301 
1.9353406e+3, 2.7170566e+2, -42564.34, -317651.0, -2590.301, -0.05026295, -0.12438011, -42539.953, 234735.39, 0.0000033385966, 10.002132, 9.998425 
1.9353881e+3, 2.817036e+2, 75097.805, -277779.63, 2949.9988, -0.23780166, -0.1315785, 75122.46, 254415.81, 0.00004416703, 10.002519, 9.997858 
1.9354379e+3, 2.9170203e+2, 8624.752, -244513.05, 26085.43, -0.23657697, -0.11381672, 11284.858, 92593.42, 0.00021030588, 10.001346, 9.997963 
1.9354892e+3, 3.0170026e+2, -18795.736, -228030.42, 21610.404, -0.1444318, -0.07080182, -16587.063, -16587.063, 0.0005915153, 10.000778, 9.998039 
1.9355384e+3, 3.116971e+2, 324900.16, 13355.135, -16120.294, -0.094707556, -0.25373125, 325732.03, 325732.03, 0.0011871094, 10.002828, 9.99868 
1.9446006e+3, 1.21661104e+2, -2007975.1, -1764064.6, -132327.97, -0.11146679, -0.21505582, -1706065.0, 41644.277, 0.20999403, 9.997471, 10.000925 
1.9446489e+3, 1.3166629e+2, -1893901.3, -1723928.3, 467.9747, -0.15083939, 0.18586498, -1723927.0, -74267.47, 0.14565058, 9.997949, 10.000233 
1.9447008e+3, 1.4166093e+2, -1610716.9, -1534764.6, 71695.33, 0.06234741, -0.33374375, -1491608.6, 60103.867, 0.083007626, 9.999187, 10.000301 
1.9447511e+3, 1.5166374e+2, -1479764.0, -1310608.5, 17030.262, -0.058697496, -0.1895869, -1308911.0, 144772.06, 0.03539992, 9.998943, 10.001278 
1.944801e+3, 1.6166532e+2, -1553218.8, -1466861.6, -45898.367, -0.1817351, -0.08170027, -1447024.0, -91356.21, 0.009600047, 9.998529, 9.999698 
1.9448526e+3, 1.7166497e+2, -1379515.5, -1373281.0, -12892.48, -0.06781096, -0.06984483, -1363134.3, -105456.47, 0.0010784023, 9.999253, 9.999301 
1.9449036e+3, 1.8166472e+2, -1202117.5, -1217737.1, -8053.287, 0.038727373, -0.0077674594, -1198709.1, -39024.082, 0.0000066792873, 9.999703, 9.999489 
1.9449517e+3, 1.9166477e+2, -1097611.4, -1064514.3, -36508.777, -0.023454672, -0.006241229, -1040978.56, 20704.252, 0.0, 9.999547, 9.999928 
1.9450001e+3, 2.0166425e+2, -1052459.1, -1065872.8, 6892.5444, -0.05452621, -0.0051735574, -1049548.8, -85863.38, 0.0, 9.9994755, 9.999298 
1.945051e+3, 2.1166243e+2, -848653.75, -915233.94, 13195.977, 0.04245831, -0.13322262, -846133.75, 19567.352, 0.0, 10.000218, 9.999289 
1.9451012e+3, 2.2166088e+2, -689067.8, -820136.25, -32707.268, 0.097944535, -0.18111627, -681359.3, 86355.51, 0.0, 10.000755, 9.999023 
1.945148e+3, 2.3166083e+2, -601630.0, -700235.44, -92538.94, -0.03490155, -0.12580636, -546079.44, 123638.02, 0.0, 10.00058, 9.999252 
1.9451953e+3, 2.4166046e+2, -530810.1, -652175.2, -83805.266, -0.11035608, -0.052169777, -488024.34, 83698.27, 0.0, 10.000547, 9.99893 
1.9452453e+3, 2.516591e+2, -287906.53, -471668.34, -68290.195, 0.042270955, -0.11009137, -265307.53, 208427.81, 0.0, 10.001491, 9.999037 
1.9452952e+3, 2.6165766e+2, -119614.05, -430238.47, -4187.9893, 0.16657664, -0.10400899, -119557.59, 256191.06, 0.000000002142629, 10.002341, 9.998244 
1.9453435e+3, 2.7165642e+2, 16822.443, -317606.5, -20960.938, 0.026434872, -0.07052781, 18131.088, 295891.28, 0.0000030022966, 10.002621, 9.998211 
1.9453914e+3, 2.8165445e+2, 63920.6, -313780.8, -46165.664, -0.14356579, -0.041031543, 69481.46, 249260.48, 0.00003904193, 10.002569, 9.9976 
1.9454397e+3, 2.9165196e+2, 141450.55, -199686.88, -87185.42, -0.22071394, -0.08781294, 162441.19, 244243.6, 0.00018459432, 10.00232, 9.997817 
1.9454908e+3, 3.0165067e+2, 246922.05, -61977.004, -36608.62, -0.11519692, -0.010354771, 251201.36, 251201.36, 0.00051477127, 10.002458, 9.998363 
1.9455417e+3, 3.1164646e+2, 319592.03, -91809.95, -110693.96, -0.041545935, -0.3028378, 347484.8, 347484.8, 0.001027113, 10.003184, 9.997803 
1.9545975e+3, 1.2161158e+2, -1997966.3, -1797726.8, -76259.91, -0.23644812, -0.3099632, -1771991.4, -23797.053, 0.22070916, 9.9976635, 10.000566 
1.954647e+3, 1.3161685e+2, -1869932.3, -1707067.5, 65614.79, -0.15624706, 0.13861544, -1683922.0, -33778.535, 0.15369554, 9.998067, 10.0003 
1.9547e+3, 1.4161307e+2, -1658948.9, -1667457.3, 83362.89, 0.029715275, -0.20604543, -1579731.6, -27550.184, 0.08810495, 9.999332, 9.999291 
1.9547501e+3, 1.5161361e+2, -1610831.8, -1588983.5, 9530.971, -0.06737522, -0.10798363, -1585410.1, -131230.67, 0.037922986, 9.998983, 9.999317 
1.9548002e+3, 1.6161382e+2, -1510042.9, -1397000.8, -50894.598, -0.14582513, -0.01935393, -1377463.4, -21282.553, 0.010466628, 9.9986105, 10.000139 
1.9548516e+3, 1.7161573e+2, -1261341.1, -1137194.0, 24084.809, -0.11596202, 0.07530604, -1132685.3, 125479.77, 0.0012294218, 9.999276, 10.0009165 
1.9549023e+3, 1.8161705e+2, -1158872.1, -1138866.8, -12726.313, -0.088741295, 0.16880223, -1132682.6, 27471.387, 0.000009908067, 9.999755, 10.000003 
1.9549508e+3, 1.9161564e+2, -1109224.5, -1075386.5, -36532.03, -0.06800453, 0.021146426, -1052045.9, 10119.217, 0.0, 9.99949, 9.999882 
1.9549997e+3, 2.01614e+2, -1078929.0, -1089753.3, 10496.684, -0.0563279, -0.08340613, -1072531.3, -108353.086, 0.0, 9.99934, 9.9992 
1.9550502e+3, 2.116132e+2, -877854.9, -936019.06, 52487.766, -0.058316067, -0.1037133, -846930.9, 19253.16, 0.0, 10.000051, 9.999225 
1.9551003e+3, 2.2161254e+2, -751604.44, -900511.25, -35470.77, -0.06938784, -0.04593184, -743586.75, 24603.316, 0.0, 10.000532, 9.998582 
1.9551481e+3, 2.3161246e+2, -676195.06, -807584.9, -89370.9, -0.088433996, 0.067335695, -630971.2, 39225.49, 0.0, 10.000382, 9.998607 
1.955196e+3, 2.4161182e+2, -549986.3, -637707.94, -70584.26, -0.11300878, 0.15020916, -510745.34, 61461.23, 0.0, 10.000312, 9.99914 
1.9552454e+3, 2.516099e+2, -267651.47, -381794.16, -17038.7, -0.07788367, -0.028233916, -265162.28, 209057.78, 0.0, 10.001294, 9.999741 
1.9552958e+3, 2.6160836e+2, -167111.23, -473915.6, 2504.3318, -0.014531725, -0.07381936, -167090.8, 209140.16, 0.00000003752054, 10.002097, 9.998068 
1.9553466e+3, 2.716076e+2, -58623.992, -423260.78, 74.04673, 0.06335819, 0.058460962, -58623.98, 219618.03, 0.0000033251551, 10.002403, 9.99759 
1.9553958e+3, 2.8160524e+2, -21930.387, -423921.25, -69886.47, 0.0076252925, 0.11379805, -10127.127, 170140.66, 0.000036409245, 10.002278, 9.996981 
1.955442e+3, 2.9160115e+2, 79039.42, -275968.6, -73568.63, -0.2426943, -0.039741248, 93681.234, 175987.13, 0.00016708692, 10.002102, 9.997393 
1.9554932e+3, 3.0159974e+2, 192008.02, -133339.1, -34722.137, -0.14437151, 0.061485443, 195672.4, 195672.4, 0.00045041088, 10.002255, 9.997982 
1.9555467e+3, 3.115952e+2, 234202.19, -147476.73, -26446.012, 0.115708984, -0.23234934, 236025.88, 236025.88, 0.00087241025, 10.002696, 9.9976425 
1.964596e+3, 1.21561304e+2, -1989585.0, -1785036.4, -8132.215, -0.13029547, -0.31573758, -1784713.6, -36026.184, 0.23177752, 9.997772, 10.000553 
1.964646e+3, 1.3156612e+2, -1702497.1, -1644749.5, -20765.756, -0.10698547, 0.10841243, -1638057.6, 12584.31, 0.1620495, 9.999372, 10.0000725 
1.9646995e+3, 1.4156292e+2, -1732117.3, -1729055.8, -26519.738, 0.07529877, -0.14522703, -1704022.6, -151347.92, 0.093428105, 9.99898, 9.999014 
1.9647491e+3, 1.5156312e+2, -1635135.4, -1606709.8, -10267.441, -0.04553137, -0.07018897, -1603389.0, -148712.86, 0.04057487, 9.998882, 9.999214 
1.964799e+3, 1.6156293e+2, -1503783.0, -1378150.3, 43690.383, -0.10769302, -0.021025611, -1364450.3, -7769.531, 0.011385711, 9.998581, 10.000285 
1.9648497e+3, 1.7156488e+2, -1478934.3, -1200583.3, 16911.441, -0.12364216, 0.042078804, -1199559.5, 59102.84, 0.0013940044, 9.997615, 10.001277 
1.9649002e+3, 1.8156628e+2, -1529376.3, -1324851.5, -47275.42, -0.11769217, 0.12290379, -1314452.6, -153803.86, 0.000014255441, 9.997231, 9.9999485 
1.9649504e+3, 1.9156507e+2, -1107154.0, -1109344.1, -96687.18, -0.051655624, 0.018402599, -1011555.6, 51105.14, 0.0, 9.999641, 9.99958 
1.9650003e+3, 2.0156369e+2, -773035.44, -924884.44, -75114.7, -0.009223189, -0.044452604, -742157.56, 222516.06, 0.0, 10.001355, 9.99936 
1.96505e+3, 2.1156316e+2, -860928.0, -885381.9, -41842.402, -0.07902933, -0.072266564, -829562.6, 37113.535, 0.0, 9.99996, 9.9996195 
1.9650994e+3, 2.2156273e+2, -973040.5, -982241.06, -45311.09, -0.10914678, -0.025925267, -932096.75, -163417.63, 0.0, 9.99892, 9.998794 
1.9651486e+3, 2.3156235e+2, -669460.3, -801063.5, -60204.496, -0.061168917, 0.05261315, -646074.25, 24613.158, 0.0, 10.000405, 9.998644 
1.9651975e+3, 2.4156131e+2, -364761.2, -580355.1, -7485.619, -0.03378568, 0.103565454, -364501.6, 208198.81, 0.0, 10.001695, 9.998881 
1.9652466e+3, 2.5155935e+2, -271974.25, -432041.8, -55305.84, -0.08466547, -0.039440215, -254724.2, 219991.39, 0.0, 10.001462, 9.999324 
1.9652969e+3, 2.6155773e+2, -276613.38, -516516.84, -53293.49, -0.057235774, -0.065422595, -265307.28, 111420.94, 0.00000006167767, 10.0013075, 9.9981575 
1.9653489e+3, 2.715569e+2, -104837.89, -410010.78, -31264.607, 0.09956664, 0.038666744, -101667.8, 177071.05, 0.000003603985, 10.001945, 9.997895 
1.965399e+3, 2.815547e+2, 31760.215, -403193.1, -13488.608, 0.10084559, 0.08432297, 32178.115, 212941.27, 0.00003430298, 10.002679, 9.996924 
1.9654453e+3, 2.9155055e+2, 303092.3, -213380.98, -28969.484, -0.18182391, -0.04022601, 304712.16, 387515.06, 0.00015136057, 10.003835, 9.996994 
1.9654976e+3, 3.0154818e+2, 499229.13, -36910.95, 7179.1646, -0.037024442, 0.021482479, 499325.25, 499325.25, 0.00039140965, 10.004586, 9.99753 
1.9655487e+3, 3.1154495e+2, 303599.66, -68263.26, -122054.016, 0.05123463, -0.10233906, 340081.53, 340081.53, 0.0007268672, 10.002955, 9.998082 
1.9745937e+3, 1.2151114e+2, -1960821.6, -1775242.6, 181535.52, -0.22032167, -0.17747004, -1664157.1, 85023.27, 0.24301729, 9.997959, 10.000674 
1.9746456e+3, 1.315142e+2, -1747722.8, -1763733.3, -20913.377, -0.114070855, 0.102890156, -1733334.8, -82180.57, 0.17062773, 9.999471, 9.999203 
1.9746986e+3, 1.4151023e+2, -1680794.4, -1646940.3, -53909.61, 0.061976746, -0.16982844, -1607362.8, -54167.563, 0.09895461, 9.999069, 9.999542 
1.9747476e+3, 1.5151213e+2, -1498585.8, -1342183.4, -5928.1587, -0.102229804, -0.0872382, -1341959.0, 113215.5, 0.04335473, 9.99893, 10.00105 
1.9747968e+3, 1.6151261e+2, -1491381.4, -1369552.0, 8064.3066, -0.19639593, -0.091563165, -1369020.5, -11852.873, 0.012356995, 9.998664, 10.000302 
1.9748469e+3, 1.7151222e+2, -1544106.6, -1332487.4, -14390.577, -0.18341023, -0.18240944, -1331513.4, -72342.62, 0.0015709848, 9.997604, 10.000379 
1.9748972e+3, 1.8151213e+2, -1574855.3, -1420994.4, -9570.303, -0.16065641, -0.1678604, -1420401.4, -259229.08, 0.000019593592, 9.997233, 9.999291 
1.9749497e+3, 1.9151288e+2, -1153252.9, -1189426.6, 12799.386, -0.08918063, -0.020648163, -1149182.3, -86010.8, 0.0, 9.999573, 9.999064 
1.9750014e+3, 2.0151319e+2, -767169.94, -881314.8, -87969.79, -0.048934128, 0.1069508, -719380.8, 245792.05, 0.0, 10.001224, 9.999722 
1.9750495e+3, 2.1151249e+2, -827560.56, -774163.6, -94746.94, -0.11730359, -0.012903254, -702425.4, 164750.31, 0.0, 9.999783, 10.000467 
1.9750981e+3, 2.2151162e+2, -956041.06, -900497.8, -38892.375, -0.15135437, -0.091355056, -880479.5, -111299.1, 0.0, 9.998708, 9.999462 
1.9751492e+3, 2.315105e+2, -648815.44, -724474.94, 15723.875, -0.046843432, -0.15015902, -645677.75, 25512.074, 0.0, 10.000248, 9.999249 
1.9751997e+3, 2.4150911e+2, -450935.6, -707811.06, -5601.23, 0.006665855, -0.15231098, -450813.5, 122389.42, 0.0, 10.001466, 9.99812 
1.9752482e+3, 2.5150752e+2, -397408.13, -655625.2, -56237.703, -0.082314365, -0.12412441, -385691.63, 89529.6, 0.0, 10.001297, 9.997871 
1.9752978e+3, 2.6150578e+2, -300662.38, -510271.6, -51005.63, -0.10565626, -0.071211055, -288909.78, 88330.21, 0.000000055759365, 10.001068, 9.998311 
1.9753502e+3, 2.7150458e+2, -56907.117, -262830.94, 9142.554, 0.032940235, -0.10314854, -56502.004, 222747.67, 0.0000036492006, 10.001749, 9.99899 
1.975401e+3, 2.8150302e+2, 21775.2, -380766.9, 3939.0076, 0.023283847, -0.07381535, 21813.74, 203076.9, 0.00003270768, 10.002479, 9.997183 
1.9754493e+3, 2.9149994e+2, 242028.33, -277606.22, 39419.04, -0.18002829, -0.080056965, 245001.61, 328296.72, 0.00013942833, 10.003559, 9.996687 
1.9755027e+3, 3.0149597e+2, 343071.7, -229841.16, -33124.1, 0.0077644032, -0.10350723, 344980.47, 344980.47, 0.00034788318, 10.004041, 9.996461 
1.9755499e+3, 3.1149495e+2, 313041.72, 67454.24, -171892.5, -0.15839009, 0.06014157, 401495.06, 401495.06, 0.0006198475, 10.002494, 9.99922 
1.984593e+3, 1.2145988e+2, -1873153.1, -1804960.3, 203640.2, -0.09524495, -0.071582384, -1632581.8, 117104.55, 0.25424254, 9.998913, 10.00006 
1.984646e+3, 1.3146126e+2, -1865325.6, -1779073.6, -67725.28, 0.05541434, 0.009257686, -1741909.1, -90232.7, 0.17932345, 9.998467, 9.999598 
1.9846955e+3, 1.4145914e+2, -1854996.4, -1682256.4, 16922.938, -0.05780329, -0.11346131, -1680614.1, -126915.98, 0.104643695, 9.997664, 9.999984 
1.9847459e+3, 1.5146135e+2, -1496003.0, -1275165.1, -14808.866, -0.13464592, -0.05816529, -1274176.5, 181496.14, 0.046255346, 9.998651, 10.001677 
1.9847961e+3, 1.6146202e+2, -1382077.3, -1343137.4, -68253.984, -0.15266499, -0.079107314, -1291630.6, 66031.96, 0.013380272, 9.999537, 10.000058 
1.9848457e+3, 1.7146055e+2, -1235299.8, -1262775.3, -112581.1, -0.1608605, -0.21369714, -1135621.3, 124054.484, 0.0017591557, 10.000073, 9.999665 
1.9848958e+3, 1.8145967e+2, -1162116.5, -1226283.0, -41041.758, -0.14975794, -0.23106723, -1142106.0, 19579.049, 0.0000256483, 10.000071, 9.999261 
1.9849487e+3, 1.9146079e+2, -1244239.8, -1195624.9, 37447.105, -0.09487968, -0.07690608, -1175287.8, -111607.55, 0.0, 9.998766, 9.999414 
1.9850007e+3, 2.0146158e+2, -1249652.8, -1106879.6, -17741.063, -0.052492466, 0.07325328, -1104708.1, -139030.88, 0.0, 9.997882, 9.999785 
1.9850491e+3, 2.1146138e+2, -878744.4, -816755.4, -118427.9, -0.10880708, 0.013155076, -725333.25, 142345.14, 0.0, 9.999507, 10.000312 
1.985098e+3, 2.2146083e+2, -614621.4, -694794.6, -84511.42, -0.12687127, -0.032660846, -561171.25, 208510.33, 0.0, 10.000871, 9.999832 
1.9851495e+3, 2.3145977e+2, -553831.9, -605587.8, -44451.668, -0.026891958, -0.14480479, -528274.25, 143412.42, 0.0, 10.000587, 9.999898 
1.9852008e+3, 2.4145855e+2, -615442.5, -770511.6, -35684.17, 0.043204565, -0.17709221, -607625.0, -33929.914, 0.0, 10.000306, 9.998224 
1.9852497e+3, 2.5145698e+2, -476231.7, -720440.75, -36457.46, -0.029468384, -0.12635669, -470905.22, 4809.5356, 0.0, 10.000889, 9.997611 
1.9852996e+3, 2.6145506e+2, -240875.14, -512850.78, 54741.785, -0.04115209, -0.06768317, -230270.5, 147466.53, 0.00000004684117, 10.001619, 9.998025 
1.9853525e+3, 2.714532e+2, 55327.39, -250653.42, 11005.609, 0.051020768, -0.12372, 55722.734, 335475.72, 0.000003631824, 10.002702, 9.998616 
1.9854037e+3, 2.8145152e+2, 177028.9, -260817.88, -60589.363, 0.039120585, -0.09482171, 185258.6, 367026.38, 0.000030883682, 10.003369, 9.997566 
1.9854529e+3, 2.914492e+2, 104763.87, -266625.78, -29051.96, -0.100835, -0.09112725, 107022.72, 190813.89, 0.00012822116, 10.002314, 9.997346 
1.985506e+3, 3.0144554e+2, 19823.596, -391347.3, 27629.363, 0.07758208, -0.12264386, 21671.893, 21671.893, 0.00031412428, 10.001801, 9.996431 
1.9855541e+3, 3.1144404e+2, 517808.5, 146861.4, -160786.05, -0.03692348, 0.02765221, 577799.0, 577799.0, 0.00054947456, 10.003913, 9.999095 
1.9945934e+3, 1.2140842e+2, -1931769.0, -1978525.3, 51620.53, 0.004325473, 0.12656496, -1898479.5, -148282.81, 0.26535824, 9.99909, 9.998615 
1.9946471e+3, 1.31407e+2, -1729072.3, -1528319.1, -91728.17, 0.30744034, -0.18607877, -1492719.6, 159491.53, 0.18805622, 9.998495, 10.001525 
1.9946897e+3, 1.414097e+2, -1813527.3, -1614178.5, 16172.862, -0.44106352, 0.01780327, -1612874.9, -58691.914, 0.11045076, 9.997739, 10.000418 
1.9947435e+3, 1.5141077e+2, -1539017.8, -1364015.5, 35156.637, -0.24813257, 0.010867187, -1357216.9, 98954.39, 0.04926506, 9.998669, 10.001034 
1.9947967e+3, 1.6141106e+2, -1406588.8, -1413762.3, -52763.26, -0.084832445, 0.012705173, -1357290.5, 876.869, 0.014456319, 9.999619, 9.999533 
1.994846e+3, 1.7140986e+2, -1264102.4, -1332003.5, -89606.89, -0.14949279, -0.04436687, -1202230.0, 57948.24, 0.0019582892, 10.000112, 9.99917 
1.9948956e+3, 1.8140878e+2, -1110933.1, -1132934.6, -79424.82, -0.20227933, -0.06633103, -1041750.9, 120437.32, 0.000032105352, 10.000133, 9.999871 
1.9949469e+3, 1.9140874e+2, -1164010.0, -1012803.75, -9865.713, -0.15877265, -0.14190099, -1012162.8, 52025.043, 0.0, 9.998704, 10.000695 
1.994998e+3, 2.0140886e+2, -1287479.5, -1158274.8, -7290.371, -0.13068579, -0.13748269, -1157864.6, -191677.45, 0.0, 9.997758, 9.999495 
1.9950482e+3, 2.1140969e+2, -981493.56, -994455.7, -39955.668, -0.15320307, 0.0027772794, -947496.75, -79311.27, 0.0, 9.9993515, 9.9991665 
1.9950984e+3, 2.2141026e+2, -646446.6, -707179.94, -77277.5, -0.16254883, 0.14594011, -593783.5, 176399.98, 0.0, 10.000637, 9.99986 
1.9951496e+3, 2.3141013e+2, -532387.3, -519204.7, -46209.223, -0.096992955, 0.06689047, -479119.06, 193058.64, 0.0, 10.000401, 10.000583 
1.9952004e+3, 2.414094e+2, -601167.5, -682858.3, -38888.15, -0.051016007, 0.011136478, -585615.8, -11437.084, 0.0, 10.000051, 9.998954 
1.9952506e+3, 2.514075e+2, -444634.38, -618098.6, -4726.9976, -0.022424204, -0.049833782, -444505.66, 31692.965, 0.0, 10.000727, 9.998392 
1.9953018e+3, 2.614053e+2, -328318.16, -642343.56, 73187.79, 0.01522308, -0.04922376, -312098.53, 66123.74, 0.000000042002604, 10.001403, 9.997238 
1.995355e+3, 2.714027e+2, -102616.31, -513254.06, 66948.14, 0.03617436, -0.033046357, -91977.11, 188273.25, 0.0000035134383, 10.002435, 9.996935 
1.9954069e+3, 2.8139988e+2, 133371.86, -269932.94, -84399.055, -0.015278717, -0.00052389875, 150321.6, 332600.63, 0.00002820436, 10.003012, 9.99768 
1.9954555e+3, 2.9139775e+2, 166237.89, -90585.36, -59102.3, -0.08885546, -0.093140736, 179186.19, 263481.78, 0.00011358975, 10.002092, 9.998665 
1.9955073e+3, 3.0139646e+2, 16449.607, -297629.7, 44910.47, 0.0033325169, -0.027257852, 22745.201, 22745.201, 0.00027761437, 10.001402, 9.997252 
1.9955589e+3, 3.113935e+2, 291390.6, -150579.36, -29878.951, 0.008022639, -0.051708713, 293401.38, 293401.38, 0.0004899251, 10.00321, 9.997367 
2.0045918e+3, 1.2135767e+2, -2020077.1, -1956606.1, 152198.4, -0.011705295, 0.26463994, -1832869.8, -82172.984, 0.27641812, 9.998208, 9.999174 
2.0046464e+3, 1.3135405e+2, -1723118.6, -1508522.1, -89166.58, 0.40938735, -0.28987378, -1476308.4, 176423.73, 0.1968332, 9.998437, 10.001721 
2.0046869e+3, 1.4135928e+2, -1750022.5, -1599714.5, -39156.543, -0.50162697, 0.14675732, -1590125.6, -35445.73, 0.11636926, 9.998255, 10.000258 
2.004742e+3, 1.51359e+2, -1585711.9, -1452582.8, -24098.66, -0.23337771, 0.05910665, -1448354.8, 8327.67, 0.05238356, 9.99865, 10.0004 
2.0047964e+3, 1.613585e+2, -1507621.6, -1446390.8, -87329.05, -0.016256498, 0.019202769, -1384466.1, -25779.326, 0.015589432, 9.998833, 9.999695 
2.0048457e+3, 1.7135833e+2, -1420845.0, -1343874.4, -72705.01, -0.112049915, 0.008443087, -1300097.1, -39410.777, 0.0021699998, 9.998732, 9.999763 
2.004895e+3, 1.8135792e+2, -1316812.9, -1209916.6, -1957.947, -0.17353156, 0.004626742, -1209880.8, -47192.63, 0.00003871999, 9.998639, 10.000057 
2.0049459e+3, 1.9135731e+2, -1026880.2, -963190.6, -49791.89, -0.15813655, -0.11966537, -935931.1, 128760.98, 0.0, 9.999727, 10.000545 
2.0049968e+3, 2.013569e+2, -898497.7, -979897.4, -78506.4, -0.13874884, -0.153915, -850768.3, 115927.66, 0.0, 10.000481, 9.999407 
2.0050478e+3, 2.1135768e+2, -895556.4, -956651.8, -51933.313, -0.13390753, -0.009493089, -865852.7, 2841.9063, 0.0, 9.999968, 9.999131 
2.0050989e+3, 2.2135828e+2, -821806.7, -793351.5, -34908.383, -0.11101747, 0.14096138, -769882.7, 809.70337, 0.0, 9.999461, 9.9998255 
2.0051497e+3, 2.3135813e+2, -622040.3, -565612.06, -84704.87, -0.079179026, 0.067431256, -504546.0, 168141.05, 0.0, 9.999828, 10.000528 
2.0052004e+3, 2.4135727e+2, -544340.3, -677386.9, -90466.375, -0.038050503, 0.010070363, -498571.5, 76118.29, 0.0, 10.000499, 9.998791 
2.0052521e+3, 2.5135517e+2, -305908.22, -576523.06, -130826.445, 0.009904833, -0.047050804, -253003.89, 223709.14, 0.0, 10.001773, 9.998179 
2.0053041e+3, 2.6135328e+2, -145033.84, -525534.75, -84330.83, 0.05372062, -0.009424545, -127181.15, 251553.72, 0.000000029896977, 10.002538, 9.997488 
2.0053567e+3, 2.7135128e+2, -203390.03, -513939.47, 2334.5786, 0.028630242, 0.029331101, -203372.48, 77384.055, 0.0000031274246, 10.001512, 9.997381 
2.0054089e+3, 2.8134853e+2, -135413.44, -350859.84, 2554.1968, 0.011242533, 0.023982082, -135383.16, 47400.62, 0.000025154262, 10.000947, 9.998125 
2.0054586e+3, 2.913461e+2, 224163.39, -25083.533, -60350.133, 0.030357167, -0.13172007, 238007.06, 322810.03, 0.00009776422, 10.002335, 9.998999 
2.00551e+3, 3.013465e+2, 321994.34, -54551.746, 11212.32, 0.082573436, 0.046865918, 322327.9, 322327.9, 0.00024034745, 10.003071, 9.998138 
2.0055622e+3, 3.113421e+2, -90.154, -288821.5, -54091.21, 0.1557429, -0.19659534, 9710.663, 9710.663, 0.0004335503, 10.001176, 9.997421 
2.0145884e+3, 1.2130538e+2, -1830834.1, -1603231.6, 169561.92, -0.23049836, 0.088923365, -1512822.3, 238386.16, 0.28771394, 9.998253, 10.002094 
2.0146433e+3, 1.3130254e+2, -1832722.0, -1713197.9, -103351.62, 0.23523103, -0.2989652, -1653573.8, -335.72604, 0.20582092, 9.998456, 10.000052 
2.014687e+3, 1.4130777e+2, -1797498.3, -1720850.3, -47553.99, -0.34751344, 0.27330175, -1698099.6, -142909.1, 0.12247417, 9.998343, 9.999389 
2.0147413e+3, 1.5130588e+2, -1624273.1, -1537041.0, -5099.469, -0.19080089, 0.08807922, -1536743.9, -79535.52, 0.055639356, 9.998666, 9.99981 
2.0147948e+3, 1.6130427e+2, -1426887.0, -1296666.3, -97116.75, -0.08591686, -0.0569403, -1244853.5, 114368.47, 0.016791714, 9.998904, 10.000702 
2.0148443e+3, 1.7130588e+2, -1295143.4, -1075033.0, -71323.78, -0.13574283, -0.05614562, -1053942.4, 207258.13, 0.0023981123, 9.998698, 10.001627 
2.0148939e+3, 1.8130712e+2, -1331559.1, -1251582.9, 8893.384, -0.18127319, -0.0146543095, -1250605.9, -87421.75, 0.000045425786, 9.998677, 9.999757 
2.0149453e+3, 1.913065e+2, -1147426.1, -1199730.1, 1101.7357, -0.19874245, -0.0034046518, -1147403.0, -82209.97, 0.0, 9.999668, 9.99895 
2.0149969e+3, 2.0130578e+2, -911230.6, -976959.75, -88002.02, -0.20569548, 0.03479011, -850156.75, 117045.96, 0.0, 10.000353, 9.999491 
2.0150477e+3, 2.1130545e+2, -852991.75, -826847.06, -65054.453, -0.14459993, -0.011477048, -773564.5, 95640.555, 0.0, 9.99979, 10.000109 
2.0150986e+3, 2.2130486e+2, -869232.56, -843714.3, -43373.12, -0.09680028, -0.037560552, -811262.56, -40053.78, 0.0, 9.999242, 9.999591 
2.0151496e+3, 2.3130366e+2, -702690.44, -705665.7, -56083.746, -0.07441597, -0.13745104, -648074.56, 25141.27, 0.0, 9.999694, 9.999638 
2.0152009e+3, 2.4130207e+2, -647916.94, -837352.2, -58488.2, -0.05620036, -0.17823018, -631313.9, -56084.668, 0.0, 10.00027, 9.997799 
2.0152535e+3, 2.513002e+2, -413548.9, -750885.2, -65651.555, -0.037386693, -0.105999574, -401222.38, 76033.266, 0.0, 10.001571, 9.997078 
2.0153056e+3, 2.6129895e+2, -110312.25, -395246.66, -98943.64, -0.054204717, 0.042468872, -79324.13, 299950.22, 0.0000000091701935, 10.002283, 9.998509 
2.0153573e+3, 2.7129903e+2, -66260.26, -184581.25, -24060.895, -0.08236608, 0.07839956, -61554.563, 219716.53, 0.0000023642951, 10.001317, 9.99974 
2.0154092e+3, 2.8129765e+2, -136116.27, -290338.3, 5904.8, -0.05351085, 0.02397429, -135890.52, 47391.24, 0.000021595964, 10.0006895, 9.998658 
2.0154619e+3, 2.9129407e+2, 146423.06, -134522.02, 13629.741, 0.1102843, -0.21404453, 147082.75, 232397.83, 0.000083873885, 10.0020895, 9.998371 
2.0155135e+3, 3.0129537e+2, 284573.4, -8627.926, -38246.87, 0.105356544, 0.08603093, 289480.44, 289480.44, 0.00020823472, 10.002572, 9.998676 
2.0155622e+3, 3.1129152e+2, 36976.098, -63701.094, -19341.512, 0.0064808656, -0.24452911, 40564.01, 40564.01, 0.00038333618, 10.00059, 9.999224 
2.024587e+3, 1.2125366e+2, -1885751.3, -1443201.4, 155066.17, -0.10613452, 0.041063767, -1394276.1, 357438.38, 0.29983783, 9.996739, 10.004354 
2.0246398e+3, 1.3125217e+2, -2036369.5, -1942317.5, -87863.33, 0.11188792, -0.15949097, -1889687.1, -235953.66, 0.21537028, 9.997644, 9.998856 
2.0246884e+3, 1.4125544e+2, -1542311.5, -1606757.0, -1567.7926, -0.10822001, 0.29480314, -1542273.4, 13435.589, 0.12892798, 10.000144, 9.999308 
2.0247409e+3, 1.5125391e+2, -1482662.6, -1422805.9, 62228.668, -0.12532647, 0.11433394, -1383682.8, 74037.41, 0.05909158, 9.99944, 10.000245 
2.0247926e+3, 1.6125244e+2, -1495951.5, -1313114.8, 30374.145, -0.15380144, -0.05326777, -1308200.9, 51528.938, 0.018083457, 9.99839, 10.000817 
2.0248428e+3, 1.7125382e+2, -1318921.8, -1104438.4, -96185.0, -0.12827933, -0.0621229, -1067623.4, 194088.02, 0.0026487417, 9.998655, 10.0014305 
2.0248933e+3, 1.8125497e+2, -1303571.8, -1238722.3, -87879.83, -0.09489199, -0.0142868515, -1177476.3, -13779.429, 0.000052423693, 9.998867, 9.99975 
2.024945e+3, 1.9125454e+2, -1227756.3, -1231133.8, 3286.0164, -0.15915006, 0.008119337, -1225750.4, -160047.17, 0.0, 9.999071, 9.999021 
2.0249966e+3, 2.0125394e+2, -1069317.6, -1052359.3, 6257.148, -0.1899009, 0.050069526, -1050300.5, -82589.62, 0.0, 9.999271, 9.999479 
2.0250477e+3, 2.1125323e+2, -835168.5, -831633.1, -71097.625, -0.12161057, -0.027909204, -762281.2, 107434.086, 0.0, 9.999968, 9.99998 
2.0250988e+3, 2.2125217e+2, -706691.9, -810277.94, -79285.93, -0.05709631, -0.08298767, -663781.3, 107941.65, 0.0, 10.000546, 9.999187 
2.0251496e+3, 2.3125052e+2, -585195.6, -709812.1, -87220.24, -0.06611994, -0.17549069, -540313.94, 133423.19, 0.0, 10.000765, 9.999085 
2.0252013e+3, 2.4124882e+2, -541722.06, -761621.06, -19028.87, -0.055039573, -0.19820902, -540087.56, 35665.918, 0.0, 10.000912, 9.997999 
2.0252547e+3, 2.512475e+2, -441784.13, -701403.56, 68754.766, -0.023130653, -0.120610185, -424700.1, 53072.715, 0.0, 10.001108, 9.997637 
2.0253076e+3, 2.612466e+2, -234381.5, -421259.34, 92566.74, -0.008237833, 0.011811467, -196293.11, 183493.5, 0.000000001074916, 10.001282, 9.998818 
2.0253585e+3, 2.7124694e+2, -56366.227, -160778.55, -8768.319, -0.06537077, 0.0611756, -55635.004, 226146.5, 0.0000018159459, 10.0013275, 9.999889 
2.0254101e+3, 2.812463e+2, -14853.175, -213115.05, -40918.95, -0.06026463, 0.0653017, -6739.9834, 177046.33, 0.000018189116, 10.001419, 9.998843 
2.0254633e+3, 2.9124367e+2, 12167.939, -158044.23, -19639.695, 0.11199018, -0.09434094, 14404.646, 100216.195, 0.000072171526, 10.001004, 9.998721 
2.025516e+3, 3.0124387e+2, 55749.98, -117066.69, -22537.24, 0.2108394, 0.067986585, 58640.734, 58640.734, 0.00017992329, 10.000922, 9.998762 
2.0255627e+3, 3.1124234e+2, 391128.47, 178879.63, -84083.586, -0.09814362, -0.017754989, 420401.38, 420401.38, 0.0003356384, 10.002657, 9.999921 
2.0345874e+3, 1.2120182e+2, -1767364.5, -1315759.5, 20761.193, 0.20264715, 0.003868893, -1314807.0, 437415.4, 0.3135409, 9.996835, 10.005611 
2.0346355e+3, 1.3120309e+2, -2081687.8, -2054179.3, 43827.703, -0.11109899, 0.13800335, -2021998.3, -367781.38, 0.22593072, 9.997701, 9.99807 
2.0346908e+3, 1.4120212e+2, -1468822.9, -1492015.6, 11059.769, 0.07657853, 0.19897266, -1464394.4, 91842.33, 0.13594478, 10.000366, 10.000056 
2.0347403e+3, 1.5120322e+2, -1366091.3, -1195715.9, 26643.695, -0.13423204, 0.13426848, -1191646.5, 266570.25, 0.06282382, 9.999489, 10.001872 
2.0347892e+3, 1.6120318e+2, -1552414.4, -1445186.3, 9646.343, -0.36571148, 0.028326172, -1444325.4, -84117.17, 0.019494196, 9.998451, 9.999877 
2.0348409e+3, 1.7120215e+2, -1478364.8, -1448387.6, -73187.875, -0.19534238, -0.011299755, -1388669.3, -126450.46, 0.0029308582, 9.998698, 9.999048 
2.0348929e+3, 1.8120137e+2, -1281319.8, -1203986.6, -87980.35, -0.04061599, -0.0032757544, -1146551.0, 17676.066, 0.00006041413, 9.9989195, 9.999966 
2.0349443e+3, 1.9120142e+2, -1111694.6, -971688.9, 18954.336, -0.13240826, -0.08032131, -969168.2, 97054.914, 0.0, 9.998997, 10.000838 
2.0349956e+3, 2.0120133e+2, -1093429.5, -1073528.4, 14497.09, -0.22804198, -0.10738509, -1065895.4, -97674.375, 0.0, 9.999148, 9.999393 
2.0350473e+3, 2.1120091e+2, -940517.6, -1015456.1, -33591.867, -0.16622058, -0.058595497, -927664.4, -57438.133, 0.0, 9.999813, 9.9987955 
2.0350988e+3, 2.2120012e+2, -783259.7, -905877.4, -72452.164, -0.123885155, 0.009971622, -749657.56, 22577.666, 0.0, 10.000286, 9.998651 
2.0351496e+3, 2.3119856e+2, -631999.5, -756201.6, -64423.727, -0.15246303, -0.04772171, -604618.94, 69632.46, 0.0, 10.000555, 9.998864 
2.0352013e+3, 2.4119717e+2, -495400.4, -609330.7, -20325.729, -0.16574305, -0.060171902, -491882.8, 84382.53, 0.0, 10.000669, 9.999163 
2.0352556e+3, 2.5119668e+2, -318201.4, -413515.56, 85798.305, -0.04846415, -0.08692442, -267712.94, 210555.27, 0.0, 10.000963, 9.99969 
2.0353094e+3, 2.6119587e+2, -300763.44, -493575.22, 82934.12, 0.036840823, -0.078736976, -269999.5, 110276.08, 0.000000023664393, 10.00102, 9.998439 
2.0353602e+3, 2.7119458e+2, -217630.27, -449702.9, 8219.122, -0.046236064, -0.041857436, -217339.55, 64952.797, 0.0000019634658, 10.001131, 9.997998 
2.0354107e+3, 2.8119406e+2, -74367.06, -264281.06, -59077.367, -0.14701137, 0.11485608, -57489.508, 126811.69, 0.000016146072, 10.001118, 9.998633 
2.0354627e+3, 2.9119468e+2, 54886.22, -26031.438, -18029.44, -0.06608814, 0.20785402, 58721.605, 145017.08, 0.00006227005, 10.0008, 9.999736 
2.0355166e+3, 3.0119157e+2, -60617.92, -231709.44, -13379.955, 0.17902675, -0.0013305807, -59577.883, -59577.883, 0.00015436458, 10.000415, 9.998196 
2.0355639e+3, 3.111915e+2, 292837.13, 142533.9, 138245.61, -0.28303498, 0.14785516, 375037.4, 375037.4, 0.00029089712, 10.001968, 9.999985 
2.0445864e+3, 1.21148355e+2, -1589188.3, -1259098.6, -56560.063, 0.36628166, -0.15791146, -1249676.1, 503071.16, 0.3294151, 9.998719, 10.005399 
2.0446327e+3, 1.3115273e+2, -2023892.8, -2056335.0, 91613.266, -0.16314428, 0.31978533, -1947075.6, -292364.06, 0.23787552, 9.99826, 9.997784 
2.0446905e+3, 1.4114924e+2, -1765340.0, -1625997.9, 53281.875, 0.15132496, 0.15167315, -1607959.1, -51202.43, 0.14372098, 9.998209, 10.00011 
2.0447399e+3, 1.5115122e+2, -1426938.4, -1182910.8, -75305.75, -0.08345407, 0.14113556, -1161542.8, 297184.75, 0.06692591, 9.998843, 10.002287 
2.0447882e+3, 1.6115195e+2, -1451248.1, -1393952.1, -113137.61, -0.32169956, 0.08103334, -1305891.9, 54819.367, 0.021061258, 9.999133, 9.999904 
2.0448403e+3, 1.7115034e+2, -1459650.5, -1466102.9, -68566.664, -0.11598981, 0.0025639555, -1394234.1, -131507.36, 0.003256253, 9.998944, 9.998808 
2.0448928e+3, 1.8114902e+2, -1323017.1, -1254507.5, 45652.965, 0.0822843, -0.017748803, -1231687.1, -66947.055, 0.00007088071, 9.998776, 9.999684 
2.044944e+3, 1.9114882e+2, -1029908.0, -964491.44, 3856.1514, -0.07320266, -0.09160158, -964264.94, 102474.61, 0.0, 9.999716, 10.000532 
2.0449954e+3, 2.011486e+2, -886203.25, -953834.56, -91677.89, -0.21481572, -0.11347125, -822303.3, 146436.19, 0.0, 10.00047, 9.999595 
2.0450474e+3, 2.1114868e+2, -809783.3, -885149.7, -55873.156, -0.14096044, -0.06232903, -780073.4, 90664.72, 0.0, 10.000431, 9.999394 
2.0450994e+3, 2.2114846e+2, -776923.1, -902078.6, 21885.04, -0.05810688, 0.02201812, -773206.6, -466.2084, 0.0, 10.000326, 9.998665 
2.0451507e+3, 2.311469e+2, -670527.94, -816763.1, 4076.6904, -0.083083674, -0.0053772684, -670414.4, 4344.8843, 0.0, 10.00047, 9.998493 
2.0452023e+3, 2.4114554e+2, -478531.63, -576071.94, 43841.277, -0.11148023, 0.0050278953, -461722.94, 115051.766, 0.0, 10.000668, 9.999394 
2.0452559e+3, 2.5114572e+2, -274352.3, -314959.13, 38164.375, -0.095161796, -0.012899312, -251426.7, 227341.6, 0.0, 10.000946, 10.000362 
2.0453097e+3, 2.611451e+2, -271402.66, -480815.5, -8626.357, -0.032944694, -0.024904307, -271047.94, 109722.46, 0.00000011200642, 10.0012, 9.998445 
2.045362e+3, 2.7114242e+2, -221368.47, -497934.5, -26074.557, 0.03790972, -0.096244015, -218931.63, 63868.79, 0.000002326167, 10.001289, 9.997593 
2.045413e+3, 2.811408e+2, -47217.754, -270402.16, 607.51685, -0.01957411, -0.019189242, -47216.098, 137603.69, 0.000014696717, 10.001379, 9.998466 
2.0454621e+3, 2.9114205e+2, 114494.586, -5969.719, -59706.14, -0.19569308, 0.15787664, 139072.42, 225881.02, 0.00005375532, 10.001273, 9.999633 
2.0455173e+3, 3.011397e+2, 47763.41, -212914.5, -37936.254, 0.17222276, 0.045512456, 53172.023, 53172.023, 0.00013253847, 10.001297, 9.997888 
2.0455666e+3, 3.1113726e+2, 247348.75, 141539.13, 92839.13, -0.1431704, -0.0048156604, 301299.1, 301299.1, 0.00025393235, 10.001517, 10.000199 
2.0545821e+3, 1.2109579e+2, -1671275.4, -1477955.0, -137697.17, -0.034937486, -0.21145892, -1406378.3, 346886.22, 0.3476065, 9.999002, 10.003109 
2.0546311e+3, 1.3110115e+2, -1993168.6, -2007834.4, 96287.59, -0.15422519, 0.37492722, -1903935.1, -248718.11, 0.2513395, 9.998323, 9.998085 
2.0546867e+3, 1.4109682e+2, -1811974.0, -1728344.8, 59780.184, -0.09498855, 0.1340391, -1697206.4, -139938.36, 0.15236652, 9.998235, 9.9993925 
2.0547387e+3, 1.5109806e+2, -1485024.4, -1306632.1, -40234.84, -0.102953084, 0.13769695, -1297977.4, 161274.08, 0.071473114, 9.998869, 10.001374 
2.0547894e+3, 1.6109867e+2, -1374328.9, -1267757.8, -123888.516, -0.14110833, 0.107511185, -1186181.4, 175058.16, 0.022826005, 9.999266, 10.000729 
2.0548408e+3, 1.7109837e+2, -1320692.6, -1178970.5, -72585.7, 0.024438458, -0.015564028, -1148392.1, 114843.68, 0.0036400491, 9.998943, 10.000786 
2.0548923e+3, 1.8109784e+2, -1368682.1, -1366795.6, 55143.766, 0.13682728, -0.0674797, -1312587.1, -147350.6, 0.00008593674, 9.998837, 9.998892 
2.0549439e+3, 1.9109657e+2, -1204523.3, -1328296.4, 51131.6, -0.093625486, -0.032158535, -1186132.9, -118878.56, 0.0, 9.999705, 9.998049 
2.0549951e+3, 2.0109558e+2, -871911.9, -900465.94, -87989.92, -0.29070243, 0.02524986, -797048.2, 172219.58, 0.0, 10.000368, 10.00001 
2.0550479e+3, 2.1109638e+2, -677478.8, -572329.7, -48937.156, -0.1484971, -0.04074741, -553078.56, 318173.78, 0.0, 10.000258, 10.001629 
2.0551004e+3, 2.2109681e+2, -781178.75, -850257.1, 13545.068, -0.00022070737, -0.06041671, -778617.75, -5375.6123, 0.0, 10.000072, 9.99914 
2.0551524e+3, 2.3109527e+2, -737171.6, -913733.8, 20779.736, 0.027326189, -0.04873981, -734759.0, -59495.605, 0.0, 10.000294, 9.997912 
2.0552039e+3, 2.4109375e+2, -562700.3, -684269.2, 39494.594, -0.03519273, 0.004462489, -550996.3, 26287.125, 0.0, 10.000395, 9.998778 
2.0552552e+3, 2.5109422e+2, -350892.84, -421208.53, 61221.625, -0.25806057, 0.07662826, -315452.1, 163823.81, 0.0, 10.000729, 9.999736 
2.055308e+3, 2.610941e+2, -295939.75, -458756.8, -12147.516, -0.32588556, 0.14490539, -295038.44, 86234.98, 0.00000017468948, 10.000892, 9.998742 
2.0553638e+3, 2.710904e+2, -190387.75, -387618.3, -10031.529, 0.06278645, -0.10131413, -189878.84, 93428.13, 0.0000023499456, 10.001084, 9.998453 
2.055416e+3, 2.810865e+2, -126903.99, -348175.88, -15850.001, 0.13549566, -0.29609272, -125774.4, 59568.586, 0.000012296112, 10.001019, 9.998099 
2.0554614e+3, 2.91086e+2, 308.7105, -194697.81, -44198.875, -0.4248527, -0.2174421, 9858.83, 97209.516, 0.000044415407, 10.001062, 9.998438 
2.0555171e+3, 3.0108747e+2, -42195.293, -291585.84, -51194.707, -0.0039223055, 0.14916873, -32095.13, -32095.13, 0.00011238554, 10.000867, 9.997539 
2.0555705e+3, 3.1108078e+2, 128306.17, 49977.29, 76008.5, 0.068863936, -0.3553379, 174646.97, 174646.97, 0.00022334591, 10.000879, 9.999865 
2.0645793e+3, 1.2104457e+2, -1909415.0, -1651480.1, -124346.95, -0.11424436, -0.058863852, -1601297.4, 152473.19, 0.36771804, 9.997646, 10.002072 
2.06463e+3, 1.3104723e+2, -1690727.9, -1790336.1, 51626.105, -0.16654016, 0.21878916, -1668798.5, -13053.832, 0.26616043, 10.000084, 9.998718 
2.0646851e+3, 1.4104456e+2, -1642491.0, -1672293.0, 75913.47, -0.10504598, 0.10690307, -1580029.9, -22254.947, 0.1618756, 9.999492, 9.999177 
2.0647378e+3, 1.510452e+2, -1620633.9, -1430304.4, -24050.563, -0.021762092, 0.09893705, -1427312.3, 32455.672, 0.07651462, 9.998221, 10.000774 
2.0647895e+3, 1.6104583e+2, -1628522.9, -1384249.6, -48354.41, 0.041602246, 0.10865279, -1375026.1, -13266.8, 0.024829434, 9.997505, 10.000747 
2.0648408e+3, 1.7104606e+2, -1154216.5, -1051831.6, -97999.88, 0.0942284, 0.0043228418, -992458.94, 271290.7, 0.0041003036, 9.999891, 10.001196 
2.064892e+3, 1.8104586e+2, -981917.8, -1189526.0, -54402.438, 0.115132354, -0.040320393, -968525.9, 197220.83, 0.000108260756, 10.00155, 9.998788 
2.0649436e+3, 1.9104442e+2, -1200915.9, -1372382.3, 29436.166, -0.07498585, 0.015489597, -1196003.3, -128235.39, 0.0, 9.999943, 9.9976225 
2.0649952e+3, 2.0104325e+2, -1148955.6, -1027811.1, 27667.326, -0.22142977, 0.08495298, -1021791.5, -52007.32, 0.0, 9.998444, 10.000054 
2.0650476e+3, 2.1104415e+2, -789756.44, -584407.25, -59270.668, -0.14525415, -0.0022189245, -568527.7, 303238.75, 0.0, 9.999318, 10.00199 
2.0651e+3, 2.2104463e+2, -737616.7, -823325.0, -81339.08, -0.036029845, -0.042991083, -688533.2, 85221.45, 0.0, 10.000323, 9.999216 
2.0651531e+3, 2.3104292e+2, -661606.1, -888428.56, -71813.87, 0.058562152, -0.036288626, -640781.2, 34996.39, 0.0, 10.00086, 9.997816 
2.0652053e+3, 2.4104127e+2, -458189.0, -644498.5, -8973.011, 0.06192289, 0.014502224, -457757.84, 120041.445, 0.0, 10.001152, 9.99869 
2.0652561e+3, 2.510413e+2, -368708.16, -436784.22, 16753.156, -0.22372445, 0.052528895, -364808.66, 114987.336, 0.0, 10.000637, 9.999672 
2.0653084e+3, 2.61041e+2, -388066.6, -498670.97, -4364.419, -0.3260271, 0.10328616, -387894.66, -6099.2183, 0.00000012472299, 10.000228, 9.998795 
2.0653643e+3, 2.71038e+2, -249395.6, -390959.47, -59371.973, 0.0631449, -0.08339497, -227791.86, 56029.543, 0.0000018192295, 10.000574, 9.998675 
2.0654167e+3, 2.8103468e+2, -129708.14, -320299.7, -59806.816, 0.13892573, -0.25132576, -112495.516, 73355.73, 0.000008845643, 10.000859, 9.998377 
2.0654619e+3, 2.9103336e+2, 13051.075, -173621.33, -52787.67, -0.44981587, -0.26713273, 26944.463, 114808.66, 0.000033872344, 10.001084, 9.998576 
2.0655188e+3, 3.0103457e+2, 110918.46, -263789.28, 57712.95, 0.055415697, 0.07245339, 119606.055, 119606.055, 0.00009226449, 10.002046, 9.99721 
2.065574e+3, 3.110287e+2, 330295.97, -400.14508, -56160.402, 0.24665256, -0.2744518, 339573.13, 339573.13, 0.00019358228, 10.002871, 9.99859 
2.0745781e+3, 1.2099565e+2, -1875910.5, -1621983.4, 82578.53, -0.050307613, 0.4189413, -1597490.9, 156766.2, 0.38886976, 9.997702, 10.002359 
2.0746285e+3, 1.3099064e+2, -1607056.5, -1632281.0, 35579.918, -0.36297542, -0.1703591, -1581919.6, 74378.516, 0.28190908, 10.000261, 9.999796 
2.074686e+3, 1.4099225e+2, -1593295.5, -1604965.5, 20284.26, -0.0089407405, 0.058778126, -1578023.6, -19744.176, 0.17213808, 9.999641, 9.999568 
2.0747371e+3, 1.509925e+2, -1628844.1, -1451679.8, -67619.41, 0.05494404, 0.017254775, -1428820.5, 31457.531, 0.08207624, 9.998245, 10.000612 
2.0747876e+3, 1.6099322e+2, -1675774.9, -1490742.8, -18883.248, 0.0803616, 0.06988116, -1488835.3, -126563.71, 0.027111659, 9.99754, 9.999998 
2.0748398e+3, 1.7099342e+2, -1234981.4, -1219942.4, 10149.4795, -0.0142302, 0.071373746, -1214830.4, 49437.746, 0.0046569863, 9.999899, 10.00003 
2.0748918e+3, 1.8099314e+2, -930439.25, -1110434.6, -71795.67, -0.11089438, 0.083550766, -905310.06, 260960.2, 0.00014131474, 10.001667, 9.999275 
2.0749433e+3, 1.909922e+2, -1098586.9, -1151366.6, -40065.31, -0.11106481, 0.056305494, -1077001.1, -8719.378, 0.0000000002137382, 9.999902, 9.999162 
2.0749946e+3, 2.009914e+2, -1186685.5, -1080722.4, 11267.895, -0.13302001, 0.06444688, -1079537.4, -109246.6, 0.0, 9.998328, 9.999747 
2.0750459e+3, 2.1099171e+2, -914798.94, -812295.3, -5513.113, -0.23237558, 0.044197872, -811999.6, 60283.24, 0.0, 9.999171, 10.000499 
2.0750982e+3, 2.2099166e+2, -802441.75, -889764.25, -58608.664, -0.27981302, 0.0581199, -773018.94, 1261.0889, 0.0, 10.000047, 9.998883 
2.0751525e+3, 2.3098984e+2, -670732.2, -853492.1, -38650.38, -0.08160956, 0.030407256, -662894.5, 13407.529, 0.0, 10.000641, 9.998157 
2.0752063e+3, 2.4098799e+2, -473895.9, -613162.4, -21202.988, 0.038263947, 0.025508113, -470739.34, 107584.08, 0.0, 10.000881, 9.999031 
2.0752577e+3, 2.50987e+2, -369621.66, -402176.63, 5021.849, -0.12038006, -0.071625344, -368864.6, 111464.1, 0.0, 10.000479, 9.999984 
2.07531e+3, 2.6098588e+2, -442201.16, -543077.06, -16087.039, -0.19673218, -0.11579498, -439697.8, -57362.11, 0.000000021824269, 9.999948, 9.998621 
2.0753637e+3, 2.7098495e+2, -301014.47, -453314.44, -27803.184, -0.0636307, -0.06149107, -296097.56, -11751.932, 0.00000084431264, 10.000393, 9.998332 
2.0754151e+3, 2.809844e+2, -128018.03, -246118.22, -67907.47, -0.1463732, 0.044282783, -97077.36, 89274.25, 0.000005133315, 10.000567, 9.999022 
2.0754634e+3, 2.9098347e+2, 59913.24, -35108.266, -24243.98, -0.42314813, -0.04333717, 65741.42, 154097.11, 0.000023723636, 10.000886, 9.99963 
2.0755218e+3, 3.009809e+2, -13105.583, -366377.47, 80074.086, 0.12764396, -0.14269432, 4196.9067, 4196.9067, 0.00007269807, 10.00144, 9.996769 
2.0755754e+3, 3.109809e+2, 37161.45, -378551.84, -88273.75, 0.06860081, 0.21588439, 55129.156, 55129.156, 0.00016061905, 10.001981, 9.996376 
2.0845777e+3, 1.20943345e+2, -1709385.5, -1545335.4, 93752.18, 0.10474324, 0.5652709, -1502790.9, 251979.78, 0.40993002, 9.998868, 10.00267 
2.0846277e+3, 1.309353e+2, -1828475.1, -1662429.5, 29901.44, -0.33428168, -0.3844122, -1657209.0, -369.86975, 0.29801235, 9.998288, 10.000462 
2.0846863e+3, 1.4094044e+2, -1572263.9, -1547682.9, -26485.572, 0.07041432, 0.123611584, -1530775.0, 28008.895, 0.18298064, 9.99961, 9.999995 
2.0847364e+3, 1.5093991e+2, -1458008.1, -1391393.6, -157710.36, 0.11673197, 0.011210627, -1263511.8, 197278.69, 0.088167645, 9.999546, 10.0004635 
2.0847861e+3, 1.6093993e+2, -1450911.6, -1391678.1, -34204.914, 0.11948366, 0.0060355547, -1376049.8, -13257.954, 0.029713616, 9.999115, 9.999934 
2.0848384e+3, 1.7094028e+2, -1417717.0, -1312852.1, 80467.67, -0.04926966, 0.027187813, -1269241.9, -4453.564, 0.005333032, 9.998651, 10.000008 
2.0848909e+3, 1.809403e+2, -1385794.0, -1281165.5, 46675.72, -0.16672793, 0.060790066, -1263369.8, -96581.875, 0.00018960002, 9.998334, 9.999717 
2.0849434e+3, 1.9094014e+2, -1053585.1, -1047196.1, -8293.459, -0.080547996, 0.04209461, -1041503.2, 27287.076, 0.000000020895914, 9.99986, 9.999897 
2.084995e+3, 2.0093979e+2, -817753.94, -934279.2, 24727.137, -0.021645814, 0.052002963, -812723.9, 158070.11, 0.0, 10.001021, 9.999448 
2.0850463e+3, 2.1093903e+2, -791926.44, -858007.44, 20229.758, -0.16914703, 0.01031655, -786225.25, 86573.6, 0.0, 10.000487, 9.999539 
2.0850982e+3, 2.2093813e+2, -819609.8, -911990.0, 21704.748, -0.25849345, 0.010705473, -814764.4, -39958.324, 0.0, 9.999969, 9.99878 
2.0851526e+3, 2.3093717e+2, -666058.1, -794071.7, 38930.566, -0.09826978, 0.02822191, -655148.56, 21670.059, 0.0, 10.000406, 9.998686 
2.0852068e+3, 2.409361e+2, -492232.72, -629533.75, 57861.3, 0.023852894, 0.0638851, -471101.13, 107730.375, 0.0, 10.000773, 9.998976 
2.0852588e+3, 2.5093457e+2, -382310.9, -460376.28, 3312.1328, -0.06001779, -0.044776913, -382170.63, 98672.83, 0.0, 10.000602, 9.999531 
2.085311e+3, 2.6093325e+2, -343766.0, -469709.4, 929.9294, -0.08686665, -0.085738555, -343759.16, 39094.69, 0.0, 10.000517, 9.998846 
2.0853643e+3, 2.7093336e+2, -167778.9, -327258.3, 30952.162, -0.0615308, 0.016977487, -161982.31, 122871.45, 0.000000115745564, 10.001053, 9.998874 
2.0854157e+3, 2.809332e+2, 24796.588, -178132.28, 28529.072, -0.16024241, 0.12866867, 28731.105, 215586.38, 0.0000020138657, 10.001623, 9.9989805 
2.0854656e+3, 2.909311e+2, 165519.02, -14572.263, -58161.195, -0.33579648, -0.04010573, 182669.19, 271540.53, 0.000014504671, 10.001762, 9.999337 
2.0855224e+3, 3.0092877e+2, 84071.26, -256613.72, 40157.336, 0.071654834, -0.119655795, 88740.695, 88740.695, 0.000053403415, 10.001766, 9.997391 
2.0855767e+3, 3.1093013e+2, -46434.91, -301984.28, -127904.93, 0.08562988, 0.28717992, 6583.2173, 6583.2173, 0.00012565745, 10.000789, 9.997505 
2.0945756e+3, 1.2088446e+2, -1672127.9, -1508363.5, -116982.53, -0.07105018, 0.059695303, -1447453.5, 307888.03, 0.42994058, 9.999128, 10.003096 
2.0946276e+3, 1.3088118e+2, -1812827.4, -1635494.8, 91058.7, -0.19153455, -0.4142428, -1597065.0, 60302.914, 0.31401625, 9.998252, 10.000832 
2.0946853e+3, 1.4088923e+2, -1536842.8, -1498374.3, -17443.922, -0.027469518, 0.33111185, -1491642.3, 67645.89, 0.19429262, 9.999685, 10.000377 
2.094735e+3, 1.5088747e+2, -1455441.8, -1406921.6, -159366.2, 0.032665208, 0.104402184, -1269979.5, 191325.7, 0.094824284, 9.999634, 10.0003195 
2.0947844e+3, 1.608858e+2, -1382293.4, -1290422.5, -63782.38, -0.003027502, -0.07813117, -1257756.1, 105565.07, 0.032688897, 9.999282, 10.000567 
2.0948367e+3, 1.7088658e+2, -1331812.8, -1140171.9, 65196.535, -0.10879215, -0.122520976, -1120095.1, 145214.94, 0.0061590113, 9.998662, 10.001196 
2.0948894e+3, 1.808874e+2, -1352267.0, -1219204.8, 66432.37, -0.18081848, -0.106267735, -1191716.5, -24417.139, 0.00026052183, 9.998364, 10.000127 
2.0949431e+3, 1.9088827e+2, -1069162.4, -1070313.6, 64587.676, -0.08801937, -0.02026942, -1005147.75, 64145.246, 0.00000016154512, 9.999819, 9.999759 
2.0949963e+3, 2.0088843e+2, -862351.56, -1000189.94, 22755.254, -0.016167296, 0.06134258, -858692.1, 112601.27, 0.0, 10.000907, 9.999048 
2.0950478e+3, 2.1088602e+2, -861378.94, -959805.5, 1506.1187, -0.05886916, -0.092777625, -861355.9, 11959.419, 0.0, 10.000309, 9.998923 
2.0950995e+3, 2.208839e+2, -844639.1, -906774.2, 12634.911, -0.10800616, -0.17501304, -842168.1, -66833.53, 0.0, 9.999725, 9.998931 
2.095153e+3, 2.3088475e+2, -648206.25, -712313.25, 68966.484, -0.10697122, -0.032515313, -604208.44, 73120.766, 0.0, 10.000214, 9.999341 
2.0952062e+3, 2.408853e+2, -560884.25, -704942.5, 50256.246, -0.120533414, 0.13043225, -545084.6, 34242.08, 0.0, 10.000489, 9.998592 
2.0952585e+3, 2.5088385e+2, -480929.22, -629952.6, 6321.187, -0.13430667, 0.12004722, -480661.56, 681.12555, 0.0, 10.000447, 9.998442 
2.0953113e+3, 2.6088277e+2, -345980.8, -420666.75, 971.11414, -0.13491929, 0.15919158, -345968.2, 37385.664, 0.0, 10.000296, 9.999286 
2.0953655e+3, 2.7088276e+2, -114458.25, -161521.34, 66982.65, -0.06611239, 0.138269, -66993.96, 218356.06, 0.0, 10.000814, 10.000126 
2.0954184e+3, 2.8088105e+2, -96275.086, -311196.47, 25743.672, -0.0813899, 0.034514204, -93234.48, 94128.805, 0.00000039293647, 10.001125, 9.998304 
2.0954676e+3, 2.908766e+2, 13421.83, -258676.39, -27034.574, -0.30927625, -0.2214269, 16081.87, 105490.05, 0.000007667558, 10.001458, 9.9978075 
2.0955205e+3, 3.0087686e+2, 80743.266, -117090.695, 10379.399, -0.32039964, 0.024822392, 81286.33, 81286.33, 0.000037309004, 10.00119, 9.998605 
2.0955776e+3, 3.1087598e+2, 134972.52, 271781.88, -56480.477, 0.036004383, -0.06421959, 292085.97, 292085.97, 0.00009608347, 10.000015, 10.001794 
2.1045743e+3, 1.2082998e+2, -1752782.9, -1561913.5, -200005.94, -0.088275686, 0.05835357, -1435740.0, 320132.5, 0.44859928, 9.998754, 10.002893 
2.1046287e+3, 1.308295e+2, -1649655.9, -1484280.8, 103514.93, 0.09018069, -0.24038346, -1434482.3, 223391.47, 0.3298663, 9.998903, 10.002021 
2.1046829e+3, 1.4083584e+2, -1710912.9, -1555869.8, 63789.684, -0.14701007, 0.25269273, -1532998.5, 26811.715, 0.20615475, 9.99838, 10.000543 
2.1047339e+3, 1.5083474e+2, -1487233.5, -1449756.9, -115960.8, -0.028520476, 0.10375378, -1351030.3, 110791.96, 0.10215144, 9.999554, 10.000012 
2.104784e+3, 1.6083325e+2, -1257686.4, -1254532.4, -54356.203, -0.0030463368, -0.029748047, -1201730.4, 162106.97, 0.036114734, 10.00026, 10.000346 
2.1048357e+3, 1.7083389e+2, -1261789.0, -1112561.4, -57045.992, -0.07538806, -0.079110645, -1093252.5, 172576.06, 0.007176738, 9.999175, 10.001131 
2.1048881e+3, 1.8083473e+2, -1379989.3, -1219065.4, -64086.125, -0.10281193, -0.0585385, -1196662.6, -28844.33, 0.0003661867, 9.998109, 10.000254 
2.1049426e+3, 1.9083558e+2, -1185978.9, -1093861.1, -32228.93, -0.05373566, 0.004339955, -1083705.0, -13893.503, 0.00000091193453, 9.998885, 10.000043 
2.1049969e+3, 2.0083581e+2, -1027686.5, -1077291.5, -57295.715, 0.00580786, 0.073323876, -990055.3, -18244.803, 0.0, 9.9997225, 9.999105 
2.105049e+3, 2.1083353e+2, -878536.75, -986565.06, -82431.12, 0.040275946, -0.057208836, -833999.3, 39832.566, 0.0, 10.000233, 9.998799 
2.105101e+3, 2.2083159e+2, -729498.44, -840293.2, -15395.258, 0.051483713, -0.11698549, -727399.0, 48451.18, 0.0, 10.000484, 9.99901 
2.1051534e+3, 2.3083211e+2, -577398.1, -655187.94, -3211.833, -0.08492389, -0.021015564, -577265.7, 100580.45, 0.0, 10.000614, 9.999525 
2.1052061e+3, 2.4083237e+2, -517491.06, -691804.5, -28634.133, -0.18625313, 0.10395638, -512907.9, 66937.18, 0.0, 10.000816, 9.998531 
2.1052594e+3, 2.508308e+2, -388090.7, -608498.0, -43890.586, -0.11085218, 0.10545868, -379672.13, 102190.15, 0.0, 10.001199, 9.998225 
2.105313e+3, 2.6082945e+2, -199010.48, -333260.53, -12905.919, -0.020792551, 0.12781486, -197781.06, 186095.08, 0.0, 10.001209, 9.999458 
2.105366e+3, 2.708291e+2, -230505.61, -169946.23, -30889.756, -0.018417029, 0.04301573, -156970.44, 128903.28, 0.0, 9.999801, 10.000561 
2.1054184e+3, 2.808281e+2, -348269.72, -370321.13, -10493.171, -0.04970131, -0.037960682, -344074.63, -156195.63, 0.00000006547354, 9.999153, 9.998832 
2.10547e+3, 2.9082564e+2, 16104.44, -207652.97, 46189.344, -0.18879049, -0.13545127, 25264.16, 115170.36, 0.000004738257, 10.001291, 9.998229 
2.1055235e+3, 3.0082533e+2, 286725.97, -20789.98, 112596.4, -0.18667842, 0.02273998, 323544.66, 323544.66, 0.00002905632, 10.00259, 9.998598 
2.1055783e+3, 3.108232e+2, 313502.3, 414529.53, -200623.75, 0.08716092, -0.16425395, 570901.2, 570901.2, 0.00007990105, 10.000973, 10.00232 
2.1145728e+3, 1.20779485e+2, -1835488.4, -1710871.3, -167805.36, -0.18512006, 0.46484226, -1594179.9, 162188.25, 0.46656317, 9.998798, 10.001218 
2.1146306e+3, 1.3078088e+2, -1537428.5, -1293484.0, 79735.73, 0.36734065, 0.17991734, -1269733.9, 388616.78, 0.34608045, 9.999022, 10.00398 
2.1146785e+3, 1.4077978e+2, -1707786.4, -1581880.4, 77707.51, -0.4650734, -0.16997203, -1544825.6, 15528.862, 0.21890919, 9.998516, 10.000286 
2.1147321e+3, 1.5078136e+2, -1499179.8, -1506099.9, -64671.914, -0.18543197, -0.012851845, -1437875.4, 24468.387, 0.110347085, 9.999668, 9.999534 
2.1147844e+3, 1.6078225e+2, -1310456.8, -1393446.8, -75205.57, -0.01587841, 0.15287496, -1266058.1, 98282.33, 0.040102176, 10.000392, 9.999306 
2.1148352e+3, 1.7078222e+2, -1357585.1, -1321688.8, -102007.75, -0.050360773, 0.17309448, -1236062.3, 30281.635, 0.008443992, 9.999215, 9.999671 
2.1148868e+3, 1.8078211e+2, -1389015.1, -1247696.4, -80431.914, -0.071877606, 0.20419209, -1211294.9, -42947.742, 0.00052604213, 9.998154, 10.000033 
2.1149415e+3, 1.9078194e+2, -1150347.8, -1006028.25, 9653.638, -0.07878351, 0.12084587, -1005385.4, 64961.793, 0.0000034897541, 9.998826, 10.000672 
2.1149959e+3, 2.0078173e+2, -1013753.94, -1012627.4, -41212.99, -0.08605523, 0.08440197, -971973.8, 373.63492, 0.0, 9.999573, 9.99962 
2.115049e+3, 2.1078153e+2, -880480.6, -941371.6, -57825.97, 0.025264408, 0.11869063, -845575.0, 28774.248, 0.0, 10.000041, 9.999193 
2.1151021e+3, 2.2078098e+2, -772514.75, -865707.2, -14526.843, 0.08440659, 0.1733145, -770302.8, 6051.268, 0.0, 10.000211, 9.998965 
2.1151535e+3, 2.3077919e+2, -632958.7, -725727.6, 13998.3, -0.12899525, 0.06693053, -630892.44, 47477.453, 0.0, 10.000419, 9.999135 
2.1152055e+3, 2.4077733e+2, -550670.5, -690552.7, -23887.457, -0.3206077, 0.0012020326, -546703.75, 33682.27, 0.0, 10.000522, 9.998674 
2.1152608e+3, 2.5077546e+2, -384457.94, -554379.9, -16881.873, -0.10745965, -0.0760323, -382796.94, 99605.59, 0.0, 10.001005, 9.998682 
2.1153156e+3, 2.607733e+2, -252929.94, -371416.53, -48928.62, 0.10127516, -0.15377003, -235337.19, 149083.55, 0.0, 10.000902, 9.999338 
2.1153657e+3, 2.7077273e+2, -265841.78, -220647.06, -70897.03, -0.033193167, -0.24008594, -168833.2, 117588.984, 0.0, 9.999701, 10.000258 
2.1154161e+3, 2.8077403e+2, -300147.47, -215426.56, 12528.887, -0.24677236, -0.11220319, -213612.58, -25206.627, 0.00000005479561, 9.9989195, 10.000006 
2.115472e+3, 2.9077727e+2, 105561.33, 41688.203, 153098.36, -0.15296103, 0.16000566, 230018.67, 320394.56, 0.0000044706885, 10.000999, 10.000088 
2.1155298e+3, 3.0077344e+2, 65775.32, -241084.95, 55946.25, 0.14432268, -0.11725361, 75657.125, 75657.125, 0.000027145721, 10.001634, 9.997512 
2.1155791e+3, 3.107716e+2, -16371.5625, -110361.51, -89104.5, 0.014549719, -0.044814765, 37371.44, 37371.44, 0.00007500409, 10.000329, 9.999008 
2.124573e+3, 1.2071862e+2, -1933566.9, -2594401.5, 64302.316, -0.18631274, -0.43696496, -1927368.0, -170410.84, 0.48543465, 10.00162, 9.993173 
2.1246308e+3, 1.3072853e+2, -1512965.1, -1307626.5, 4396.62, 0.48108363, 0.26262844, -1307532.5, 351331.9, 0.3637423, 9.9995, 10.0036745 
2.124676e+3, 1.4072539e+2, -1829267.9, -1619323.3, -33410.24, -0.4841735, -0.26174185, -1614134.6, -53245.332, 0.23315269, 9.997593, 10.00045 
2.1247306e+3, 1.507281e+2, -1619852.0, -1481263.1, -81890.44, -0.2222112, -0.052214846, -1443283.3, 19581.844, 0.1197026, 9.998444, 10.0003195 
2.1247841e+3, 1.6072997e+2, -1478047.5, -1477764.6, -27553.932, 0.0096675875, 0.15505654, -1450351.8, -85501.42, 0.044803485, 9.999228, 9.999293 
2.1248347e+3, 1.7072944e+2, -1344494.4, -1389148.9, -31868.861, -0.026401864, 0.18110281, -1327909.9, -61049.656, 0.01004214, 9.9996195, 9.999016 
2.1248858e+3, 1.8072884e+2, -1193840.1, -1193933.0, 65807.87, -0.04235392, 0.21616876, -1128078.8, 40791.1, 0.0007722133, 9.999654, 9.999675 
2.1249406e+3, 1.9072847e+2, -1075700.8, -992010.5, 101859.836, -0.038095165, 0.13118093, -923735.5, 147136.53, 0.000010944595, 9.999418, 10.0004835 
2.1249956e+3, 2.0072828e+2, -1067601.0, -1025792.4, 17344.656, -0.017057259, 0.10540065, -1019533.7, -46661.4, 0.0, 9.999173, 9.99971 
2.1250491e+3, 2.1072853e+2, -904503.4, -921312.0, -36155.906, 0.04537718, 0.16294949, -875787.9, -917.5022, 0.0, 9.999762, 9.999452 
2.1251023e+3, 2.2072828e+2, -753601.1, -840833.3, 10141.22, 0.105164126, 0.22212768, -752437.7, 24435.172, 0.0, 10.000254, 9.9991255 
2.1251543e+3, 2.3072629e+2, -695959.75, -738819.94, 43202.516, -0.050650742, 0.08498515, -669164.25, 9724.658, 0.0, 9.999917, 9.999287 
2.1252067e+3, 2.4072444e+2, -659440.0, -711041.3, 66704.42, -0.19376405, -0.0027671244, -613720.4, -32816.906, 0.0, 9.999649, 9.998949 
2.1252613e+3, 2.507229e+2, -475722.72, -566189.25, 50959.824, -0.092824824, -0.07048245, -452816.78, 30099.08, 0.0, 10.000243, 9.998972 
2.125316e+3, 2.6072085e+2, -270625.16, -422724.7, 1679.6377, 0.05629154, -0.14706302, -270606.63, 114326.3, 0.0, 10.00098, 9.998942 
2.1253662e+3, 2.707192e+2, -65983.72, -219803.13, -102969.1, -0.030431133, -0.25523126, -14372.07, 272574.75, 0.0, 10.001515, 9.999384 
2.1254162e+3, 2.8071988e+2, 57602.656, -72293.5, -41974.855, -0.2029583, -0.11684861, 69985.95, 258924.14, 0.000000117451826, 10.001476, 9.999781 
2.1254721e+3, 2.9072377e+2, -77131.23, -13346.01, -48452.254, -0.11979734, 0.21641281, 12767.928, 103668.42, 0.0000050467984, 9.999596, 10.000392 
2.1255317e+3, 3.007198e+2, -211040.1, -316784.66, -95953.94, 0.3300745, -0.1279543, -154355.83, -154355.83, 0.00002697455, 9.99939, 9.998129 
2.1255818e+3, 3.1071904e+2, 488348.53, 48498.535, -86128.06, 0.07873263, 0.028722605, 504612.13, 504612.13, 0.00007158717, 10.004071, 9.998356 
2.1346286e+3, 1.3067177e+2, -1638761.6, -1563026.9, -80421.67, 0.30011398, -0.0057848385, -1512003.4, 147418.17, 0.38411817, 9.999571, 10.000931 
2.1346752e+3, 1.406729e+2, -1786105.9, -1557546.0, -65788.07, -0.3543358, 0.04799827, -1539962.5, 21450.275, 0.24951555, 9.997685, 10.000871 
2.1347292e+3, 1.5067501e+2, -1457542.8, -1192067.4, -33694.293, -0.24129093, 0.011597962, -1187857.6, 275528.53, 0.13052814, 9.998482, 10.002546 
2.134783e+3, 1.6067608e+2, -1388454.6, -1319087.6, -17171.924, -0.07341266, -0.053954963, -1315069.5, 50300.785, 0.050404422, 9.999333, 10.000348 
2.1348338e+3, 1.7067538e+2, -1330230.3, -1361241.3, -13085.124, -0.110031694, -0.080792986, -1325446.8, -58068.008, 0.012084308, 9.999629, 9.9992 
2.1348847e+3, 1.8067485e+2, -1212790.8, -1259595.0, 56282.094, -0.15271308, -0.03947146, -1175239.4, -5852.6387, 0.001155736, 9.999761, 9.999175 
2.1349402e+3, 1.9067517e+2, -1152212.5, -1151069.4, 98318.805, -0.03451456, 0.03927302, -1053320.5, 18065.488, 0.000030850606, 9.999408, 9.999403 
2.1349956e+3, 2.0067532e+2, -1118705.4, -1096388.6, 14537.618, 0.060791925, 0.13488252, -1089220.8, -115833.984, 0.0, 9.999023, 9.999297 
2.1350487e+3, 2.1067435e+2, -926359.56, -922021.7, -1323.8597, 0.013215898, 0.07409085, -921649.6, -46252.098, 0.0, 9.99957, 9.999539 
2.1351013e+3, 2.2067343e+2, -769165.94, -800398.2, 4719.4688, -0.025260994, 0.04715579, -768468.4, 8938.387, 0.0, 9.999955, 9.99954 
2.1351552e+3, 2.3067334e+2, -679821.5, -668917.0, 35454.51, 0.038305692, 0.041958828, -638497.94, 40906.33, 0.0, 9.999758, 9.999847 
2.1352087e+3, 2.4067326e+2, -673727.25, -687780.5, 62982.86, 0.030770376, 0.08507181, -617380.25, -35978.676, 0.0, 9.999427, 9.999213 
2.135261e+3, 2.5067264e+2, -495291.28, -570908.94, 85421.31, -0.15946506, 0.09891848, -439685.4, 43721.176, 0.0, 10.000084, 9.999015 
2.1353137e+3, 2.606713e+2, -380526.47, -570291.3, 13390.888, -0.2720553, 0.10874633, -379586.2, 5833.316, 0.0, 10.000648, 9.998083 
2.135367e+3, 2.7066782e+2, -208921.11, -463555.75, -71631.77, -0.1254604, -0.047939003, -190153.48, 97300.59, 0.00000000014169585, 10.001283, 9.997824 
2.1354187e+3, 2.806651e+2, -112985.805, -324495.53, -95369.59, -0.1382359, -0.088371165, -76334.734, 113146.32, 0.000000256191, 10.001071, 9.998223 
2.1354713e+3, 2.906655e+2, -177838.55, -202058.36, -90339.22, -0.19696991, 0.027326563, -98801.195, -7324.6455, 0.0000052967753, 9.9994955, 9.999144 
2.1355294e+3, 3.0066374e+2, -169572.39, -78305.54, 28.147055, 0.122726314, -0.08709684, -78305.52, -78305.52, 0.000025200057, 9.998813, 10.00001 
2.135584e+3, 3.1066293e+2, 374746.78, 142643.48, 137249.11, -0.15750478, -0.23966338, 438431.9, 438431.9, 0.00006359548, 10.002742, 9.999602 
2.1446265e+3, 1.3061845e+2, -1849753.3, -1780558.4, 25407.377, 0.1943638, -0.057942163, -1772231.3, -112286.34, 0.40760165, 9.998588, 9.999471 
2.1446759e+3, 1.4062098e+2, -1627946.6, -1526477.1, 48314.64, -0.11510044, 0.23793143, -1507152.5, 54775.24, 0.26811564, 9.998929, 10.000561 
2.1447285e+3, 1.5062194e+2, -1353512.0, -1109387.6, -11380.165, -0.16361499, 0.063114494, -1108858.3, 355050.22, 0.14296411, 9.99913, 10.002929 
2.144782e+3, 1.6062213e+2, -1385647.0, -1288399.1, -97071.09, -0.078238465, -0.120398976, -1228454.8, 137441.95, 0.057087187, 9.999249, 10.000614 
2.1448332e+3, 1.7062166e+2, -1294562.1, -1321321.4, -136022.1, -0.09642647, -0.15061809, -1171263.3, 96638.55, 0.014719365, 9.999807, 9.999382 
2.1448848e+3, 1.8062122e+2, -1179060.1, -1248048.5, -62541.49, -0.10766809, -0.106716484, -1142131.1, 27776.584, 0.0017550356, 10.000039, 9.999118 
2.1449402e+3, 1.9062111e+2, -1094595.6, -1145092.4, 8172.003, 0.011834415, -0.050295874, -1093306.0, -21395.69, 0.00008036648, 9.999924, 9.999189 
2.1449953e+3, 2.0062083e+2, -1035926.4, -1076454.1, 11229.987, 0.11385536, 0.025193607, -1033022.7, -59107.85, 0.000000018813253, 9.999675, 9.999121 
2.1450478e+3, 2.1062008e+2, -910593.6, -934308.44, -22642.23, 0.004316873, 0.0013722201, -896891.94, -20966.59, 0.0, 9.999756, 9.999366 
2.1451005e+3, 2.2061937e+2, -794247.7, -843242.8, -33154.46, -0.066651195, 0.015455112, -777522.1, 412.5352, 0.0, 9.999919, 9.999264 
2.1451552e+3, 2.3061891e+2, -581902.3, -660909.06, -92840.12, 0.04847633, 0.014596378, -520510.7, 159426.3, 0.0, 10.000612, 9.999487 
2.1452098e+3, 2.406185e+2, -430116.0, -556248.2, -111058.76, 0.113640085, 0.049376346, -365466.1, 216472.47, 0.0, 10.001031, 9.9993515 
2.1452612e+3, 2.5061867e+2, -481146.6, -497853.3, -89372.63, -0.11993972, 0.09715921, -399737.78, 84197.984, 0.0, 9.999902, 9.999601 
2.1453135e+3, 2.606183e+2, -597063.1, -671754.75, -63652.48, -0.25805628, 0.16583003, -560609.56, -174670.94, 0.0, 9.999127, 9.998128 
2.1453682e+3, 2.706148e+2, -365392.94, -578769.0, -84309.02, -0.053895395, 0.041361745, -336101.75, -48127.31, 0.00000000016893417, 10.000373, 9.997473 
2.1454214e+3, 2.8061113e+2, -95306.836, -393020.38, -51312.29, 0.026181342, -0.056007013, -86711.11, 103301.18, 0.0000002738674, 10.00147, 9.997577 
2.1454719e+3, 2.9060942e+2, 115066.61, -126256.766, -55539.21, -0.1622207, -0.07405194, 127235.06, 219263.77, 0.0000047479944, 10.001797, 9.998545 
2.1455288e+3, 3.006097e+2, 380100.7, 242202.34, 105161.914, 0.04697321, 0.022173157, 436901.34, 436901.34, 0.000021563434, 10.002246, 10.000599 
2.1455865e+3, 3.106087e+2, 9062.237, 53935.44, -15866.3545, 0.022628142, -0.2372667, 58978.695, 58978.695, 0.000054127435, 9.999797, 10.000406 
2.1546233e+3, 1.3056965e+2, -1855541.1, -1803598.4, 87366.19, -0.053672142, 0.20321015, -1738425.0, -78000.91, 0.43279883, 9.998648, 9.999275 
2.1546763e+3, 1.4056918e+2, -1653843.5, -1649283.0, 20700.08, -0.025980102, 0.23431276, -1630738.0, -68300.805, 0.28823382, 9.999261, 9.99944 
2.1547285e+3, 1.505689e+2, -1444983.5, -1328982.0, 369.81934, -0.11164061, 0.09263908, -1328980.8, 135450.9, 0.15688464, 9.999263, 10.001123 
2.1547808e+3, 1.605684e+2, -1411308.5, -1376030.0, -95244.4, -0.16261047, -0.019620977, -1296805.3, 69622.74, 0.06501248, 9.999414, 9.9999075 
2.1548332e+3, 1.7056829e+2, -1288206.3, -1308308.8, -113567.25, -0.09681939, -0.003108916, -1184246.3, 84182.945, 0.018139776, 9.999815, 9.99946 
2.1548857e+3, 1.8056788e+2, -1142654.8, -1194036.1, -73565.914, -0.04376801, 0.031685293, -1090422.6, 80010.98, 0.0026903055, 10.000125, 9.99945 
2.1549399e+3, 1.9056623e+2, -1048371.7, -1044472.4, 8169.9956, -0.010557524, -0.12767139, -1038022.6, 34423.16, 0.00019736934, 9.999907, 9.999885 
2.1549942e+3, 2.005648e+2, -1047911.5, -1077452.0, -11.913354, -0.005989567, -0.21979715, -1047911.5, -73454.63, 0.0000007869328, 9.999567, 9.999167 
2.1550466e+3, 2.1056555e+2, -963929.0, -1014872.75, -11231.763, -0.0914975, -0.059433818, -961562.6, -85107.04, 0.0, 9.999618, 9.998881 
2.1550997e+3, 2.2056589e+2, -899997.5, -1008308.6, -25790.195, -0.16920812, 0.12295008, -894170.06, -115711.945, 0.0, 9.9996805, 9.998244 
2.1551543e+3, 2.3056297e+2, -704201.56, -875254.4, -51863.383, -0.12030499, 0.002768398, -689705.06, -9217.886, 0.0, 10.000432, 9.998104 
2.155209e+3, 2.4056025e+2, -479658.94, -582321.4, -132028.13, -0.074637204, -0.09573033, -389334.5, 193178.47, 0.0, 10.000716, 9.999315 
2.1552615e+3, 2.5056103e+2, -432774.6, -362795.63, -125853.0, -0.08003574, -0.0627532, -267158.75, 217342.77, 0.0, 9.999749, 10.000605 
2.1553144e+3, 2.605619e+2, -578276.1, -572957.8, -55869.195, -0.08578612, 0.033125747, -519684.53, -133194.77, 0.0, 9.9988785, 9.998922 
2.1553697e+3, 2.7056e+2, -348902.28, -511516.9, -16460.447, 0.053131405, -0.0006137176, -347252.84, -58742.33, 0.0, 10.000221, 9.998012 
2.1554238e+3, 2.8055713e+2, -148314.19, -404600.75, -43654.105, 0.11554208, -0.053958077, -141082.5, 49458.105, 0.000000100631844, 10.001085, 9.997665 
2.1554741e+3, 2.9055488e+2, 35375.56, -205473.2, -15711.161, -0.1541931, -0.10783534, 36396.113, 128959.164, 0.0000031808167, 10.001426, 9.99818 
2.1555285e+3, 3.0055606e+2, 186265.14, 73681.39, 50870.24, -0.24635597, 0.13242233, 205845.23, 205845.23, 0.000016664693, 10.001301, 9.999865 
2.1555881e+3, 3.1055635e+2, -112961.3, -52709.598, -20710.033, 0.14505473, 0.05062898, -46277.656, -46277.656, 0.00004561872, 9.999177, 9.9999695 
2.164619e+3, 1.305157e+2, -2037937.5, -1853612.3, 58627.703, -0.25026038, 0.13075675, -1836545.1, -175594.47, 0.45757636, 9.997355, 9.999549 
2.164677e+3, 1.4051567e+2, -1538849.6, -1576084.6, -44715.76, 0.10710307, 0.20138103, -1509030.5, 53928.7, 0.3088363, 10.000125, 9.999574 
2.1647285e+3, 1.5051526e+2, -1386993.4, -1344775.9, -29797.76, -0.036410797, 0.07259226, -1329367.8, 135588.39, 0.17204043, 9.999999, 10.000636 
2.1647798e+3, 1.6051455e+2, -1489497.5, -1449880.4, -27336.494, -0.15581977, -0.01254894, -1435930.0, -68974.664, 0.07433442, 9.998994, 9.999601 
2.164833e+3, 1.7051423e+2, -1248444.3, -1293459.6, -25006.934, -0.09568938, -0.009456938, -1237307.6, 31650.408, 0.022589553, 10.000069, 9.99946 
2.1648864e+3, 1.8051377e+2, -1021247.56, -1132887.3, -2961.927, -0.015046346, 0.018847944, -1021169.06, 149793.17, 0.00413868, 10.00096, 9.999467 
2.1649402e+3, 1.9051236e+2, -935223.1, -1001727.1, -18795.152, -0.0012439744, -0.10886003, -930278.9, 142693.95, 0.00045452762, 10.0007305, 9.999791 
2.1649939e+3, 2.0051107e+2, -967302.7, -1065813.1, -53876.016, 0.008278802, -0.1741613, -943559.94, 31423.701, 0.000007502901, 10.00022, 9.998937 
2.1650463e+3, 2.1051127e+2, -920112.25, -1032387.25, -75028.78, -0.08605731, -0.033339355, -882544.1, -5555.839, 0.0, 10.00008, 9.998545 
2.1650994e+3, 2.2051118e+2, -867243.4, -983859.0, -32767.465, -0.1530428, 0.13135542, -858666.9, -79671.664, 0.0, 9.9998865, 9.998302 
2.1651545e+3, 2.3050857e+2, -756305.2, -863313.75, 40456.156, -0.09975373, 0.011666758, -742731.9, -61711.41, 0.0, 9.999924, 9.998425 
2.1652095e+3, 2.4050589e+2, -596336.4, -656641.06, 39664.715, -0.017648695, -0.098585226, -576664.5, 6380.324, 0.0, 9.999974, 9.999169 
2.165262e+3, 2.5050578e+2, -449235.78, -410440.97, -74809.18, 0.012439768, -0.12028729, -352555.3, 132487.53, 0.0, 9.999831, 10.000222 
2.1653147e+3, 2.605062e+2, -444567.72, -518451.4, -35328.105, 0.032060288, -0.041600693, -430394.25, -43358.19, 0.0, 9.999829, 9.998839 
2.1653704e+3, 2.7050537e+2, -237488.5, -434375.13, -15737.331, 0.08134734, 0.025953664, -236238.55, 52808.51, 0.0, 10.000911, 9.998192 
2.1654253e+3, 2.8050324e+2, 6408.36, -304844.84, -75011.23, 0.12985204, 0.017551614, 23542.643, 214613.63, 0.0000000029805467, 10.002021, 9.997907 
2.1654761e+3, 2.9050034e+2, -17350.62, -210538.56, -90915.91, -0.040519316, -0.1072326, 18705.691, 111805.69, 0.000001345268, 10.00099, 9.998352 
2.16553e+3, 3.0050176e+2, -116433.67, -171561.97, 20518.05, -0.083477825, 0.17977627, -109635.445, -109635.445, 0.000010778314, 9.99963, 9.99899 
2.165587e+3, 3.1050014e+2, 133999.83, 113156.78, -123705.36, 0.044104353, 0.022531537, 247721.88, 247721.88, 0.00003608632, 10.000712, 10.000351 
2.1746148e+3, 1.3045731e+2, -1993788.5, -1773533.9, 3601.1074, -0.47118494, -0.17532115, -1773475.0, -111958.0, 0.48078975, 9.997647, 9.999842 
2.174678e+3, 1.404609e+2, -1464319.0, -1459876.5, 17000.955, 0.10465781, 0.15828079, -1444952.4, 118536.305, 0.32934, 10.000404, 10.000529 
2.1747288e+3, 1.5046102e+2, -1346310.5, -1267508.1, -53022.586, -0.037551295, 0.014133702, -1240849.9, 224631.1, 0.18832743, 10.000038, 10.001289 
2.1747783e+3, 1.6046032e+2, -1457804.1, -1420364.6, -29917.855, -0.23315331, -0.109327674, -1403792.6, -36311.97, 0.0852701, 9.999142, 9.99973 
2.1748321e+3, 1.7045954e+2, -1237169.5, -1284880.9, 34442.027, -0.21287963, -0.16756503, -1219128.3, 50358.67, 0.028395085, 10.000135, 9.999483 
2.174886e+3, 1.8045886e+2, -1045182.75, -1205559.9, 475.21872, -0.16983017, -0.14992408, -1045181.4, 126312.2, 0.006367479, 10.001058, 9.998919 
2.1749404e+3, 1.9045934e+2, -1007982.75, -1149972.9, -28456.344, -0.06976627, -0.00087905163, -1002492.1, 71001.016, 0.0009868387, 10.000713, 9.998779 
2.1749942e+3, 2.0045939e+2, -1023723.44, -1160626.3, -73723.9, -0.0027541493, 0.15914784, -991572.6, -16075.301, 0.000047582707, 10.000118, 9.998339 
2.1750467e+3, 2.1045719e+2, -958569.9, -1070831.4, -71813.05, -0.07819176, 0.0859035, -923553.6, -46029.785, 0.00000000032497088, 9.999902, 9.998366 
2.1750994e+3, 2.2045518e+2, -842400.75, -864860.94, -41820.313, -0.1479946, 0.043193027, -810328.94, -30782.29, 0.0, 9.999601, 9.999255 
2.1751556e+3, 2.3045519e+2, -655991.6, -607696.3, 52862.367, -0.009202985, 0.021544632, -573727.4, 107814.37, 0.0, 9.999725, 10.00027 
2.1752109e+3, 2.4045473e+2, -663658.44, -711252.8, 25907.188, 0.110557616, 0.0027612234, -652277.7, -68736.414, 0.0, 9.999622, 9.998956 
2.1752623e+3, 2.5045237e+2, -601708.5, -687455.44, -73297.41, 0.05189363, -0.10009789, -559666.44, -74101.95, 0.0, 9.999665, 9.998398 
2.175314e+3, 2.6045087e+2, -543914.8, -661718.06, -26335.156, -0.03428043, -0.06340958, -538295.56, -150715.02, 0.0, 9.9995775, 9.99797 
2.1753699e+3, 2.7045083e+2, -284242.16, -478369.2, 48753.516, -0.06710265, 0.117884845, -272686.0, 16899.04, 0.0, 10.000691, 9.997992 
2.175425e+3, 2.80449e+2, -54648.74, -303219.13, -82285.35, -0.108348794, 0.14917323, -29877.941, 161728.89, 0.0, 10.001492, 9.998163 
2.1754776e+3, 2.9044536e+2, -28648.795, -178526.67, -127186.14, -0.012305649, -0.112976015, 44033.94, 137677.31, 0.00000028754212, 10.00075, 9.998686 
2.175533e+3, 3.0044547e+2, -295217.4, -417304.13, -12666.857, 0.2160835, 0.111240596, -293917.03, -293917.03, 0.0000061263827, 9.99916, 9.997495 
2.175584e+3, 3.1044158e+2, 85434.13, 190609.98, 82421.61, -0.368602, -0.14731762, 235791.23, 235791.23, 0.000027574106, 9.999957, 10.001243 
2.184678e+3, 1.4040732e+2, -1844878.1, -1563418.8, -7784.0215, 0.25690946, 0.06566871, -1563203.6, 802.80804, 0.34983045, 9.99716, 10.001032 
2.1847282e+3, 1.5040638e+2, -1503764.8, -1430567.6, -65520.957, -0.036505904, -0.089655794, -1392116.5, 73894.97, 0.2059314, 9.999216, 10.0003805 
2.184778e+3, 1.6040598e+2, -1320389.3, -1375219.3, -101375.516, -0.20789483, -0.12129532, -1242787.1, 125224.48, 0.09816949, 10.000257, 9.999533 
2.1848325e+3, 1.7040518e+2, -1246178.0, -1278142.6, -61016.234, -0.15575078, -0.175412, -1199085.6, 70932.51, 0.036017943, 10.000084, 9.99954 
2.1848862e+3, 1.8040437e+2, -1260877.6, -1333458.4, -85764.19, -0.18004514, -0.17137653, -1204041.9, -32015.459, 0.009796201, 9.999644, 9.998729 
2.1849401e+3, 1.9040452e+2, -1186849.0, -1271396.9, -94909.77, -0.09298132, -0.023579955, -1125224.1, -51193.66, 0.0020521113, 9.999622, 9.998465 
2.184994e+3, 2.0040451e+2, -1089776.4, -1175313.8, -52325.207, 0.017896323, 0.1452777, -1064964.9, -88928.07, 0.00020967671, 9.999607, 9.998486 
2.1850468e+3, 2.1040274e+2, -891355.0, -985063.56, -17558.871, -0.03828196, 0.07767911, -888172.94, -10115.54, 0.00000086887735, 10.00014, 9.998844 
2.1850999e+3, 2.2040115e+2, -710501.2, -789020.8, 38648.754, -0.07651716, 0.040685672, -694669.6, 85405.18, 0.0, 10.000427, 9.999393 
2.1851557e+3, 2.3040153e+2, -668115.6, -615217.44, -16565.67, 0.069482915, 0.06040456, -610457.94, 71610.234, 0.0, 9.99966, 10.000249 
2.1852109e+3, 2.4040143e+2, -747732.4, -785785.75, -95011.22, 0.1987567, 0.085737474, -669861.44, -85794.96, 0.0, 9.999179, 9.998662 
2.1852624e+3, 2.503984e+2, -470256.13, -690310.9, -126165.97, 0.055671345, -0.029279761, -412880.16, 73216.45, 0.0, 10.000823, 9.997833 
2.1853141e+3, 2.6039603e+2, -190936.77, -503439.6, -21178.486, -0.06551876, -0.04034767, -189508.02, 198613.48, 0.0, 10.002033, 9.997886 
2.1853702e+3, 2.7039582e+2, -340846.16, -480302.66, 39902.617, -0.0636908, 0.11476628, -330236.06, -40108.316, 0.0, 10.00018, 9.998243 
2.1854253e+3, 2.8039494e+2, -422010.5, -423374.13, -12981.533, -0.07009095, 0.20017381, -409692.88, -217552.69, 0.0, 9.998693, 9.998703 
2.1854782e+3, 2.903927e+2, -28569.674, -123250.47, -75161.2, 0.02182985, 0.03389832, 12917.397, 107079.21, 0.000000027227998, 10.000499, 9.999192 
2.185535e+3, 3.0039114e+2, 96653.79, -351161.56, 87918.414, 0.35594934, 0.094029814, 113296.1, 113296.1, 0.0000044959556, 10.002306, 9.996475 
2.1855848e+3, 3.1038648e+2, 371498.88, 312246.1, 83600.83, -0.34676892, -0.06959917, 430567.6, 430567.6, 0.000025056477, 10.001877, 10.001216 
2.1946746e+3, 1.4035375e+2, -1777000.6, -1448973.9, -285158.5, 0.14168888, -0.046984676, -1284025.6, 280498.6, 0.371045, 9.997165, 10.002643 
2.194726e+3, 1.5035067e+2, -1653191.8, -1738671.3, 13443.427, -0.19528104, -0.24397734, -1651127.3, -184573.45, 0.22535217, 9.999234, 9.998163 
2.1947786e+3, 1.6035147e+2, -1339543.5, -1437736.1, -111903.766, -0.22401963, -0.020096263, -1266439.6, 102109.445, 0.113554515, 10.000372, 9.999037 
2.1948342e+3, 1.7035088e+2, -1250440.8, -1283934.4, -71461.71, -0.008969101, -0.030449895, -1193789.9, 76764.945, 0.046104282, 10.000078, 9.999507 
2.194886e+3, 1.8034986e+2, -1231435.8, -1284452.5, -97530.67, -0.18117197, -0.0535133, -1156875.3, 15689.573, 0.015073848, 9.999694, 9.999045 
2.194939e+3, 1.9034792e+2, -1154130.4, -1197517.5, -88710.1, -0.17005639, -0.16132322, -1084499.9, -9914.51, 0.004138987, 9.9996, 9.998983 
2.1949929e+3, 2.0034638e+2, -1050973.3, -1068402.1, -52217.59, -0.08260676, -0.20514458, -1006747.94, -30145.398, 0.00072646124, 9.999497, 9.99927 
2.1950467e+3, 2.1034767e+2, -846729.44, -846108.6, 10265.893, -0.08452597, -0.065076046, -836148.44, 42443.25, 0.000022642807, 9.999946, 9.999885 
2.1951003e+3, 2.2034888e+2, -794811.44, -893271.44, 19834.309, -0.09071522, 0.11502746, -790966.1, -10383.93, 0.000000000011542125, 10.000122, 9.998822 
2.195155e+3, 2.3034762e+2, -818521.8, -898400.44, -41330.164, 0.0337304, 0.12539512, -800986.56, -118387.07, 0.0, 9.999528, 9.998367 
2.1952093e+3, 2.4034615e+2, -826722.4, -878986.9, -78383.66, 0.09442054, 0.16298714, -770229.6, -185611.28, 0.0, 9.998888, 9.998156 
2.195262e+3, 2.5034392e+2, -458886.47, -623027.1, -42090.508, -0.08654786, 0.09161002, -448722.56, 37916.29, 0.0, 10.000637, 9.998383 
2.1953149e+3, 2.6034138e+2, -225763.2, -472553.56, -45828.383, -0.2259083, 0.018496057, -217527.8, 171134.48, 0.0, 10.001612, 9.998285 
2.1953703e+3, 2.7034e+2, -338867.66, -422561.3, -30611.604, -0.052570716, 0.0024165502, -328866.38, -38187.81, 0.0, 9.999968, 9.998725 
2.1954253e+3, 2.8034034e+2, -421568.03, -353812.4, -15011.959, 0.030538324, 0.15395577, -350635.3, -157957.64, 0.0, 9.998419, 9.999304 
2.1954782e+3, 2.9034212e+2, -21354.418, -63366.965, 24034.02, -0.052112788, 0.33257073, -10440.515, 84218.21, 0.000000020729713, 10.000311, 9.999693 
2.1955349e+3, 3.0033767e+2, -36593.19, -481250.6, 98637.74, 0.08461615, 0.08768183, -15694.724, -15694.724, 0.0000055230016, 10.001721, 9.9958315 
2.1955884e+3, 3.1033278e+2, 47778.117, -108348.0, 57212.594, -0.20720604, 0.022984235, 66498.95, 66498.95, 0.000029811183, 10.000883, 9.998758 
2.204669e+3, 1.4029978e+2, -1549897.6, -1304942.9, -232021.22, -0.17881241, -0.14327334, -1165056.9, 399995.2, 0.39437363, 9.998559, 10.003414 
2.2047272e+3, 1.5029638e+2, -1656140.4, -1836988.9, 48236.258, 0.0071712076, -0.26764825, -1644079.1, -176994.39, 0.24751917, 9.999643, 9.99729 
2.2047788e+3, 1.6029648e+2, -1489150.6, -1545351.1, -50744.57, -0.15985636, -0.057666328, -1459245.4, -90157.53, 0.13222682, 9.999406, 9.998757 
2.2048342e+3, 1.7029624e+2, -1284779.4, -1331648.8, -23646.174, 0.002594809, -0.005746958, -1274922.6, -3830.6196, 0.059555795, 9.999894, 9.999295 
2.2048865e+3, 1.802956e+2, -1176279.8, -1250651.4, -42934.27, -0.09723486, 0.021480087, -1156666.5, 16433.082, 0.023171267, 10.000044, 9.999115 
2.2049393e+3, 1.9029346e+2, -1104053.0, -1161501.6, -84314.12, -0.12097433, -0.12039785, -1043704.56, 31417.475, 0.008108057, 9.999893, 9.999107 
2.2049925e+3, 2.0029172e+2, -1015981.5, -1017643.4, -57582.816, -0.065866515, -0.19674844, -959223.6, 17916.535, 0.0021629941, 9.999583, 9.999584 
2.2050464e+3, 2.1029323e+2, -861527.7, -796433.8, -42158.586, -0.061300777, -0.08058023, -775720.56, 103404.03, 0.00023583506, 9.999583, 10.000405 
2.2051004e+3, 2.2029445e+2, -852041.2, -915276.75, -33986.563, -0.044282697, 0.061018765, -837239.44, -56126.44, 0.0000019906881, 9.999702, 9.998877 
2.2051546e+3, 2.3029307e+2, -709798.1, -898633.5, -34995.457, 0.007833416, 0.09282797, -703521.3, -20387.133, 0.0, 10.000488, 9.997918 
2.2052085e+3, 2.4029157e+2, -510757.88, -741214.0, 40840.41, 0.0467591, 0.16961405, -503734.38, 81421.586, 0.0, 10.001111, 9.9980345 
2.2052625e+3, 2.5029024e+2, -447357.25, -583660.06, 47610.586, -0.07869303, 0.17293209, -432373.94, 54794.02, 0.0, 10.000633, 9.998626 
2.2053164e+3, 2.6028812e+2, -426643.2, -562739.1, 7360.2744, -0.1451371, 0.12282967, -426246.28, -37059.066, 0.0, 10.00019, 9.998361 
2.2053714e+3, 2.702855e+2, -258349.6, -392499.25, -50758.484, 0.0344457, -0.012505014, -241308.7, 49906.6, 0.0, 10.000533, 9.998674 
2.2054258e+3, 2.8028554e+2, -85639.25, -223442.56, -6975.236, 0.15367253, 0.11429864, -85287.086, 107930.51, 0.0, 10.000863, 9.999018 
2.205479e+3, 2.902881e+2, 180177.77, -13002.728, -39247.195, -0.062054876, 0.42886925, 187846.9, 283038.88, 0.00000007580395, 10.001901, 9.999274 
2.2055352e+3, 3.002834e+2, 161186.47, -315203.94, 468.78577, -0.07299297, 0.14421216, 161186.92, 161186.92, 0.0000083740215, 10.002734, 9.996506 
2.2055921e+3, 3.1028077e+2, 62408.84, -116966.5, -76303.59, 0.09376261, 0.2470527, 90475.65, 90475.65, 0.000042885644, 10.001013, 9.998632 
2.2146665e+3, 1.4024746e+2, -1525842.9, -1313107.1, -1163.7, -0.36235774, 0.0007270518, -1313100.8, 252469.67, 0.4221777, 9.998477, 10.003357 
2.2147329e+3, 1.5024328e+2, -1633111.4, -1790610.8, 64319.01, 0.5848594, -0.15580687, -1610182.9, -142576.64, 0.27423543, 9.999659, 9.997609 
2.2147784e+3, 1.6024072e+2, -1464388.8, -1518797.9, -61766.52, -0.21119943, -0.23374648, -1424101.1, -54470.406, 0.15564767, 9.999513, 9.998882 
2.2148316e+3, 1.7024133e+2, -1300842.6, -1363598.0, 808.32904, -0.2557083, -0.094597876, -1300832.1, -29203.389, 0.07778218, 9.999892, 9.99907 
2.2148871e+3, 1.802417e+2, -1188535.8, -1293794.3, -51767.117, -0.06999283, 0.060970213, -1167343.1, 6286.7534, 0.035576556, 10.000115, 9.998788 
2.2149399e+3, 1.9024104e+2, -1140070.0, -1217719.5, -85715.805, -0.048115205, 0.10174387, -1084796.0, -9154.711, 0.0154146915, 9.999815, 9.998756 
2.2149919e+3, 2.0024037e+2, -1046138.3, -1052549.9, -67886.086, -0.083084926, 0.16083686, -981382.4, -3730.9324, 0.005714695, 9.999459, 9.999404 
2.2150458e+3, 2.1023935e+2, -881334.8, -803798.9, -30667.229, -0.08429389, 0.027454883, -793135.75, 86520.93, 0.0013616167, 9.9994335, 10.000426 
2.2150996e+3, 2.2023818e+2, -868294.8, -872298.9, -25716.496, -0.10031838, -0.083632275, -844502.5, -62838.598, 0.00013056793, 9.999377, 9.999327 
2.2151539e+3, 2.3023763e+2, -683808.4, -794871.75, 8753.395, -0.11182674, -0.04181122, -683122.75, 551.72424, 0.0000045921656, 10.000269, 9.998735 
2.2152083e+3, 2.4023743e+2, -559122.3, -740255.9, 27612.064, -0.107746094, 0.10007869, -555006.6, 30675.975, 0.000000030624218, 10.000696, 9.99823 
2.2152634e+3, 2.5023708e+2, -498611.8, -630854.25, 31754.861, -0.037097577, 0.21004844, -491381.9, -3694.5361, 0.0, 10.000392, 9.99841 
2.2153184e+3, 2.6023567e+2, -501693.1, -633496.25, -7321.646, 0.013290878, 0.25452164, -501287.63, -111585.23, 0.0, 9.999842, 9.998036 
2.2153723e+3, 2.7023214e+2, -320670.63, -466718.4, -27290.266, 0.07810952, 0.06116893, -315737.8, -23997.375, 0.0, 10.000308, 9.998264 
2.2154266e+3, 2.8023037e+2, -247066.86, -447802.3, 5626.275, 0.09714603, 0.08398266, -246909.3, -53148.0, 0.0, 10.000414, 9.997676 
2.2154802e+3, 2.9023066e+2, 22769.957, -264157.28, 30996.781, -0.14542337, 0.32139945, 26080.35, 121840.94, 0.00000027397763, 10.001592, 9.997685 
2.2155352e+3, 3.0022812e+2, 198679.7, -87378.26, -15837.981, -0.37876984, 0.27640852, 199553.92, 199553.92, 0.000015050563, 10.002139, 9.998329 
2.215593e+3, 3.102293e+2, -18684.404, -73252.48, -30323.006, 0.037503477, 0.45768577, -5177.4683, -5177.4683, 0.00007034586, 10.000147, 9.999331 
2.2246668e+3, 1.4018826e+2, -2018066.0, -1697289.5, 338599.34, -0.09364735, 0.058088932, -1483012.6, 83141.62, 0.45833316, 9.996193, 10.000852 
2.2247334e+3, 1.5018815e+2, -1397829.6, -1472867.4, -90854.5, 0.6617895, -0.0820836, -1337052.0, 131098.94, 0.30885017, 10.000694, 9.999381 
2.2247784e+3, 1.6018653e+2, -1321337.3, -1405673.3, -98117.48, -0.18296604, -0.17381324, -1256710.3, 113453.21, 0.18666483, 10.000425, 9.999267 
2.2248308e+3, 1.7018679e+2, -1292711.3, -1330838.0, -57496.215, -0.30394247, -0.09627484, -1251200.5, 20963.516, 0.103338934, 9.999859, 9.999307 
2.2248867e+3, 1.8018702e+2, -1372072.1, -1373061.9, -59479.72, -0.043637663, 0.025040986, -1313085.3, -138919.11, 0.054786276, 9.998794, 9.998895 
2.2249395e+3, 1.9018702e+2, -1206483.9, -1238754.6, -66881.62, -0.009988374, 0.12533726, -1153818.8, -77647.516, 0.028543482, 9.999287, 9.998866 
2.2249918e+3, 2.001869e+2, -1005632.7, -1040087.7, -5733.621, -0.03875668, 0.22676124, -1004703.6, -26527.178, 0.013685946, 9.999783, 9.999327 
2.2250451e+3, 2.1018519e+2, -897979.2, -850174.1, -19629.11, -0.060503647, 0.053714123, -843147.2, 37041.04, 0.005262215, 9.999503, 10.000076 
2.225099e+3, 2.2018328e+2, -889133.8, -896136.2, -5344.4067, -0.07025273, -0.099976465, -886245.9, -104043.586, 0.001420654, 9.999267, 9.999227 
2.2251536e+3, 2.3018305e+2, -750565.8, -804253.9, -16168.127, -0.11808006, -0.040134832, -746072.8, -61863.26, 0.0002619265, 9.999697, 9.998955 
2.2252083e+3, 2.401831e+2, -631916.6, -760952.56, -32335.715, -0.12666392, 0.11318755, -624267.0, -38052.39, 0.000035642544, 10.0001135, 9.998386 
2.2252637e+3, 2.5018248e+2, -513811.34, -628566.06, -41422.016, -0.012260953, 0.18414173, -500421.88, -12199.459, 0.0000011567587, 10.000187, 9.998558 
2.2253188e+3, 2.6018092e+2, -456627.16, -609441.44, -22137.84, 0.107081786, 0.20185825, -453484.72, -63245.496, 0.0, 10.000129, 9.998068 
2.2253728e+3, 2.7017817e+2, -285697.25, -458095.8, -46788.945, 0.09802314, 0.10144262, -273817.38, 18452.266, 0.0, 10.00061, 9.998176 
2.2254266e+3, 2.8017685e+2, -164772.38, -389035.03, 49907.082, 0.06638805, 0.17167352, -154167.6, 40118.047, 0.0, 10.000875, 9.997881 
2.225481e+3, 2.9017583e+2, -15666.008, -219371.44, 190509.81, -0.1798268, 0.24782605, 98508.97, 194804.53, 0.00000073017384, 10.001067, 9.998241 
2.2255372e+3, 3.0017367e+2, 120974.98, -48216.785, 181125.81, -0.3085787, 0.15192696, 236286.63, 236286.63, 0.00002755439, 10.0012455, 9.999056 
2.2255927e+3, 3.1017426e+2, 85859.67, 14322.637, -115467.414, 0.010709736, 0.27003762, 170971.72, 170971.72, 0.000118261974, 10.0006695, 9.999717 
2.2347276e+3, 1.5013124e+2, -1260365.1, -1131977.6, -135409.44, -0.020155715, 0.04164635, -1046316.3, 422399.78, 0.35698506, 10.000474, 10.002947 
2.234779e+3, 1.6013329e+2, -1296639.8, -1337881.0, -98244.08, -0.20894112, 0.08190122, -1216875.6, 153816.63, 0.23053116, 10.000386, 9.999825 
2.2348316e+3, 1.701323e+2, -1270685.6, -1256746.5, -79762.664, -0.23399213, -0.031035108, -1183649.5, 89051.39, 0.14104874, 9.999749, 9.999915 
2.2348844e+3, 1.8013133e+2, -1340446.8, -1299850.4, -76901.53, -0.19158319, -0.09576565, -1240613.3, -65903.13, 0.08532412, 9.998761, 9.99941 
2.234938e+3, 1.9013135e+2, -1175884.1, -1157888.6, -33800.504, -0.1154045, -0.04967965, -1131908.8, -55196.426, 0.05187056, 9.999209, 9.999461 
2.2349912e+3, 2.0013145e+2, -1035597.4, -1062403.9, -12807.712, -0.082778215, 0.03118241, -1030461.9, -51748.22, 0.030293982, 9.999616, 9.999252 
2.2350444e+3, 2.1013048e+2, -972364.56, -964418.0, -27403.043, -0.093025036, -0.012136324, -940701.7, -59979.938, 0.015773455, 9.999329, 9.999374 
2.2350982e+3, 2.2012942e+2, -983991.8, -1011982.06, -10409.71, -0.10989048, -0.009483222, -980544.9, -197813.31, 0.0069356123, 9.99893, 9.998583 
2.235153e+3, 2.3012911e+2, -800273.94, -868893.75, 15365.535, -0.13820045, 0.07980742, -796990.4, -112249.8, 0.002541045, 9.999523, 9.9985895 
2.235208e+3, 2.401286e+2, -690790.9, -791019.1, -34671.047, -0.1855763, 0.20659952, -679966.5, -93214.75, 0.00075579167, 9.999734, 9.998352 
2.235263e+3, 2.501266e+2, -518595.53, -576570.7, -32431.152, -0.11674984, 0.09638164, -504085.3, -15313.93, 0.00014769337, 9.999926, 9.999035 
2.2353178e+3, 2.6012418e+2, -524926.56, -636343.8, -31938.438, -0.036665175, -0.0021838206, -516420.6, -125625.945, 0.000007045108, 9.999662, 9.99809 
2.2353724e+3, 2.7012348e+2, -328984.25, -492188.34, -16123.239, -0.019852402, 0.104414225, -327406.66, -34602.543, 0.00000000065814787, 10.000373, 9.998043 
2.2354257e+3, 2.8012428e+2, -141960.5, -229161.73, 33608.418, -0.11555572, 0.34292498, -130510.78, 64287.324, 0.0, 10.000434, 9.999168 
2.2354804e+3, 2.9012308e+2, 51073.094, 42581.535, 205211.13, -0.32900193, 0.19343266, 252082.36, 348885.78, 0.0000012574419, 10.000571, 10.000259 
2.23554e+3, 3.0011898e+2, -80930.516, -245964.64, 141562.89, -0.1900507, -0.18314508, 409.42712, 409.42712, 0.000044073433, 10.000345, 9.998102 
2.2355928e+3, 3.101179e+2, -62476.344, -96458.836, -30551.068, -0.09974737, -0.051410433, -44509.47, -44509.47, 0.00018419352, 9.999902, 9.999295 
2.2447288e+3, 1.5007646e+2, -1220256.4, -1317815.8, -19024.682, -0.073553525, 0.02651275, -1216677.8, 252579.64, 0.42759266, 10.002564, 10.0000515 
2.2447802e+3, 1.6007823e+2, -1360353.5, -1375926.5, -133954.2, -0.057492867, 0.1833416, -1233959.8, 137278.83, 0.29616648, 9.99995, 9.999847 
2.2448315e+3, 1.7007788e+2, -1312238.4, -1195426.0, -131989.31, -0.14202218, 0.0697529, -1109497.6, 163741.67, 0.19952731, 9.999069, 10.000809 
2.2448829e+3, 1.8007715e+2, -1350723.6, -1230055.9, -82240.87, -0.16780303, -0.055502336, -1188391.0, -13147.306, 0.13536815, 9.998358, 10.000083 
2.244937e+3, 1.90077e+2, -1192901.6, -1111837.1, -39833.54, -0.08584591, -0.07986519, -1095540.1, -18296.055, 0.09319166, 9.998842, 9.999971 
2.2449915e+3, 2.0007691e+2, -1072733.1, -1113099.9, -18595.21, -0.006069776, -0.047294877, -1065473.0, -86228.57, 0.06306426, 9.999429, 9.999034 
2.2450444e+3, 2.1007593e+2, -915549.7, -1025443.1, -66989.49, -0.054332074, -0.021035617, -883855.0, -2599.4475, 0.0400799, 10.000057, 9.998632 
2.2450976e+3, 2.2007479e+2, -765404.75, -949254.7, -26792.541, -0.11585195, 0.04245065, -761579.8, 21689.531, 0.023131557, 10.000596, 9.998228 
2.2451529e+3, 2.300739e+2, -782091.2, -869120.75, -25572.143, -0.10960212, 0.08907637, -775133.5, -89848.64, 0.011994159, 9.999695, 9.998508 
2.245208e+3, 2.4007294e+2, -786983.0, -813662.75, -27320.33, -0.07310335, 0.18180326, -769919.7, -182619.28, 0.0054928027, 9.998934, 9.998598 
2.245263e+3, 2.5007215e+2, -504110.5, -472874.6, -9427.444, -0.06892459, 0.12662704, -470249.8, 19056.158, 0.002050329, 9.999602, 9.999911 
2.2453174e+3, 2.6007074e+2, -443441.0, -574120.0, 35528.434, -0.040887553, 0.06583895, -434406.3, -43089.707, 0.0004876709, 10.000105, 9.998313 
2.2453725e+3, 2.7006865e+2, -259162.9, -487970.5, 38793.754, -0.021690145, 0.04721947, -252764.45, 40573.188, 0.000047167257, 10.000981, 9.997782 
2.2454268e+3, 2.8006822e+2, -23234.361, -153485.23, 25766.326, -0.05892505, 0.17075774, -18322.479, 177019.25, 0.00000034188096, 10.001151, 9.999352 
2.2454815e+3, 2.9006848e+2, -62813.813, 15376.706, 15129.822, -0.22668743, 0.15938365, 18202.215, 115536.64, 0.0000013302117, 9.999626, 10.000555 
2.2455403e+3, 3.0006498e+2, -376231.2, -420456.25, 18804.2, -0.050343677, -0.18562345, -369316.8, -369316.8, 0.0000584347, 9.998384, 9.997864 
2.245595e+3, 3.100638e+2, 485917.38, 212262.27, -67468.58, -0.046662882, 0.020353146, 501647.3, 501647.3, 0.00025945, 10.003367, 9.999757 
2.2547817e+3, 1.6002214e+2, -1538325.5, -1628935.8, -247134.69, 0.0061415136, 0.23285429, -1332377.5, 39417.344, 0.39765337, 9.999382, 9.998251 
2.254831e+3, 1.7002334e+2, -1249621.9, -1078891.9, -141251.7, -0.1533297, 0.20002683, -999213.8, 274567.66, 0.29298013, 9.998999, 10.002029 
2.2548823e+3, 1.8002425e+2, -1355690.1, -1185965.5, -120236.266, -0.13118233, 0.14043447, -1123660.0, 52109.47, 0.21888196, 9.998113, 10.0005665 
2.2549365e+3, 1.900235e+2, -1209730.6, -1087717.4, -18494.254, -0.040931836, 0.00917608, -1084975.8, -7204.595, 0.16615056, 9.998595, 10.000237 
2.2549912e+3, 2.0002283e+2, -1141611.9, -1189230.4, -3100.159, 0.0089908745, -0.035934128, -1141410.9, -161637.98, 0.12546477, 9.99915, 9.998624 
2.2550441e+3, 2.1002138e+2, -999084.4, -1157769.3, -32778.28, -0.08596466, 0.004666087, -992580.25, -110789.266, 0.0914258, 9.9998865, 9.997787 
2.2550969e+3, 2.2001952e+2, -848352.4, -1039614.1, -39357.965, -0.2573699, 0.06560637, -840569.94, -56755.27, 0.062582165, 10.000237, 9.997782 
2.2551526e+3, 2.3001741e+2, -814038.44, -890799.5, -56888.727, -0.12304663, -0.004045679, -783794.0, -97951.445, 0.039919913, 9.999484, 9.998466 
2.2552082e+3, 2.400161e+2, -851218.4, -803974.4, -45804.57, 0.031274807, 0.05812072, -776059.44, -188198.28, 0.023601582, 9.998348, 9.998931 
2.2552632e+3, 2.5001895e+2, -457789.44, -307765.0, 28602.102, -0.009903938, 0.2525304, -302497.0, 187331.27, 0.012405956, 9.999321, 10.001181 
2.2553171e+3, 2.6002008e+2, -502889.53, -581061.25, 32949.527, -0.08726628, 0.36044595, -490854.2, -99043.38, 0.005154125, 9.999637, 9.998481 
2.2553733e+3, 2.700136e+2, -354670.4, -581621.6, 77376.94, -0.06128743, -0.08170686, -330800.1, -36929.086, 0.0013586987, 10.000555, 9.997333 
2.2554287e+3, 2.8000903e+2, -209615.89, -374968.2, -24988.736, -0.011015547, -0.30189204, -205922.0, -10008.411, 0.00015517221, 10.000484, 9.998132 
2.2554831e+3, 2.9001248e+2, -194087.7, -183168.7, -42495.313, -0.03548042, 0.14873071, -145783.63, -47900.387, 0.0000026982873, 9.999381, 9.999271 
2.2555381e+3, 3.0001143e+2, -426120.88, -432481.13, 51620.17, -0.16338068, 0.10926703, -377582.97, -377582.97, 0.000065484004, 9.998054, 9.997916 
2.2555958e+3, 3.100088e+2, 361088.1, 231677.7, 314172.16, -0.35679218, 0.12658736, 617149.0, 617149.0, 0.00034262822, 10.002236, 10.000424 
2.2648308e+3, 1.6996683e+2, -1539411.6, -1600166.3, 188868.05, 0.015485698, -0.3579971, -1378493.5, -104173.086, 0.44342524, 9.998142, 9.998461 
2.264882e+3, 1.7997256e+2, -1376074.1, -1541015.1, 58535.598, -0.016295511, 0.20706539, -1357412.0, -181140.3, 0.3585124, 9.999308, 9.997508 
2.2649366e+3, 1.8996932e+2, -1222988.4, -1259276.3, -40624.457, 0.09533294, 0.055002954, -1196640.3, -118338.734, 0.29413474, 9.999228, 9.998697 
2.2649914e+3, 1.9996585e+2, -989898.9, -1110907.0, -74301.27, 0.09892377, -0.17832425, -954583.2, 25749.719, 0.24160613, 10.000103, 9.998762 
2.2650433e+3, 2.0996588e+2, -921279.44, -1020326.1, -50324.11, -0.14842108, -0.051027082, -900197.7, -17860.137, 0.1940874, 9.9999275, 9.998747 
2.265096e+3, 2.1996588e+2, -888728.6, -1027716.56, 60370.527, -0.32295272, 0.12064406, -866168.2, -81825.06, 0.14888066, 9.999769, 9.998113 
2.2651516e+3, 2.2996414e+2, -688723.75, -838856.56, 22811.36, -0.17089243, 0.10329631, -685334.25, 1029.286, 0.108788945, 10.000373, 9.998406 
2.2652075e+3, 2.3996224e+2, -443786.9, -611313.3, 65487.59, -0.005087525, 0.110623404, -421225.63, 167158.44, 0.07581198, 10.001159, 9.998944 
2.2652632e+3, 2.4996395e+2, -264868.47, -277477.4, 23034.11, 0.005271099, 0.21934551, -247291.64, 243072.17, 0.048806984, 10.000856, 10.000775 
2.2653174e+3, 2.5996432e+2, -409741.78, -562553.9, -50623.453, -0.034956824, 0.3057278, -394492.94, -2136.7449, 0.026684597, 10.000296, 9.998329 
2.2653745e+3, 2.6995862e+2, -192307.73, -437312.22, 30908.89, -0.010115809, -0.1006109, -188468.55, 105940.16, 0.010897145, 10.001293, 9.998017 
2.2654304e+3, 2.7995458e+2, -219897.34, -477824.7, -22736.805, 0.13931128, -0.29320925, -217908.39, -21462.479, 0.002788968, 10.000801, 9.997293 
2.2654858e+3, 2.8995663e+2, 164678.94, -279195.13, -73211.67, 0.14409769, 0.23293324, 176442.56, 274875.1, 0.0003034348, 10.003016, 9.996868 
2.2655393e+3, 2.9995424e+2, 452891.22, -15231.241, -48729.793, -0.1303757, 0.19451113, 457910.0, 458371.88, 0.000074942734, 10.004178, 9.99784 
2.265597e+3, 3.0994937e+2, 40310.223, 155214.7, 197706.92, -0.29082066, 0.0047642183, 303647.84, 303647.84, 0.00045627946, 9.999574, 10.001279 
2.2749919e+3, 1.9990984e+2, -1018069.25, -1226491.0, -55909.402, 0.0759268, -0.04657351, -1004018.7, -23131.816, 0.4526298, 10.0003195, 9.997804 
2.2750439e+3, 2.0991229e+2, -735141.94, -710473.5, -52587.316, -0.097154565, 0.11591772, -668793.3, 214073.98, 0.38963944, 10.000655, 10.00121 
2.2751e+3, 2.1991459e+2, -990001.9, -1021411.25, -26096.84, 0.06474445, 0.30554, -975248.7, -190400.73, 0.32267725, 9.998876, 9.998536 
2.2751524e+3, 2.2991255e+2, -912971.8, -963785.6, 53566.82, -0.14851604, 0.23844883, -879092.0, -192228.86, 0.25840095, 9.998938, 9.998181 
2.2752056e+3, 2.3990975e+2, -686263.2, -876779.25, 89963.16, -0.38488993, 0.20354602, -650496.56, -61610.89, 0.20062341, 10.000062, 9.997606 
2.2752632e+3, 2.4990718e+2, -505874.84, -611359.94, 17317.18, -0.12187987, -0.0055352477, -503104.7, -12191.451, 0.14660953, 10.000123, 9.998713 
2.2753179e+3, 2.5990447e+2, -715814.25, -866237.7, -74977.805, -0.059517644, -0.00929386, -684825.8, -291883.1, 0.09444842, 9.998914, 9.996869 
2.2753762e+3, 2.6990432e+2, -164879.42, -238193.23, 57640.06, 0.01569331, 0.026716042, -133227.44, 161716.11, 0.04983968, 10.000758, 9.999619 
2.2754322e+3, 2.7990454e+2, -443594.5, -685113.75, -79991.45, 0.19739152, 0.15426826, -419504.13, -222563.05, 0.019500945, 9.999752, 9.996342 
2.2754885e+3, 2.89901e+2, -185236.95, -832864.9, 27409.775, 0.10738335, 0.35915974, -184078.95, -85097.07, 0.004786881, 10.002329, 9.993363 
2.275542e+3, 2.998942e+2, 232747.38, -202011.9, -160385.8, -0.30444407, 0.13751633, 285511.25, 286563.84, 0.0007184054, 10.00311, 9.997025 
2.2755969e+3, 3.0988896e+2, -153460.6, 72514.695, 105443.42, -0.2890654, -0.19052586, 114073.24, 114073.24, 0.0007782504, 9.9984045, 10.001176 
2.2852038e+3, 2.398481e+2, -758079.2, -65410.6, 29564.139, -0.3139659, -0.48641267, -64151.05, 525329.1, 0.45869297, 9.993159, 10.010104 
2.2852664e+3, 2.4984993e+2, -847523.0, -1078191.8, -199714.2, 0.2660661, 0.011052229, -732232.6, -240765.2, 0.36361384, 9.999029, 9.996163 
2.2853176e+3, 2.5984612e+2, -133452.28, -440211.9, -123392.695, -0.1972988, -0.013982195, -89979.05, 303535.6, 0.26167566, 10.002865, 9.998055 
2.2853789e+3, 2.6984796e+2, 232581.42, -46805.95, -50132.383, 0.08840339, 0.19299486, 241304.66, 536803.56, 0.1640845, 10.0040045, 9.999802 
2.2854327e+3, 2.7984768e+2, -229951.55, -441940.1, -299595.94, 0.25732714, 0.2872462, -18152.627, 179350.05, 0.0825175, 10.000578, 9.9977045 
2.285489e+3, 2.8984353e+2, 244084.97, -205581.75, 354825.66, -0.11094964, 0.115036726, 439312.66, 538857.4, 0.030766618, 10.003384, 9.997282 
2.2855479e+3, 2.998414e+2, 638062.44, 46162.09, 369437.2, -0.14178884, 0.040506758, 815472.94, 817039.3, 0.009050321, 10.005537, 9.997627 
2.2855975e+3, 3.0983722e+2, 17973.26, -71797.61, -22803.459, -0.17585883, 0.07746625, 23433.629, 23433.629, 0.003966084, 10.000489, 9.999165 
2.2953792e+3, 2.6978654e+2, -327037.13, -397960.38, 100089.22, -0.31030184, 0.03217669, -256313.16, 39790.926, 0.434636, 9.999979, 9.998928 
2.295432e+3, 2.7978513e+2, -898598.1, -716976.8, -490267.72, 0.038521335, 0.071943, -309180.38, -111060.86, 0.25417706, 9.995835, 9.997971 
2.2954874e+3, 2.897881e+2, 701951.0, 1020450.94, 500025.72, -0.6833394, -0.31078282, 1385973.5, 1486058.0, 0.12176553, 10.002582, 10.007014 
2.2955559e+3, 2.9979762e+2, -324138.16, -543003.5, 189868.8, -0.001072309, 0.09309083, -214423.23, -212437.48, 0.05399585, 9.999604, 9.9963 
2.2956006e+3, 3.0979016e+2, -657958.2, -882995.44, -434029.66, -0.05345921, 0.20806502, -322099.56, -322099.56, 0.031447988, 9.998284, 9.994459 
2.3055021e+3, 2.8975597e+2, -516663.5, -1698288.1, -61262.574, 0.08417632, 1.0664384, -513495.78, -413086.1, 0.36119324, 10.002479, 9.987909 
2.3055606e+3, 2.9973525e+2, 598544.7, 647216.94, -757733.8, -0.29819182, -0.6277156, 1381005.3, 1383620.8, 0.2148847, 10.003103, 10.004276 
2.3055972e+3, 3.0975002e+2, 288680.47, 761802.4, 741280.75, -0.41542384, 0.43307787, 1303353.4, 1303353.4, 0.16708203, 9.998776, 10.007487 
2.3489751e+3, 2.7734497e+2, 115189.85, -497047.0, 4424.507, -0.46910515, 0.3904745, 115221.82, 337263.56, 0.45042723, 10.0058975, 9.994595 
2.3485962e+3, 2.8733972e+2, 803689.9, -5522.54, -343731.66, 0.58663684, 0.87502867, 929986.3, 1054072.5, 0.35468212, 10.011144, 9.995517 
2.3482224e+3, 2.9732728e+2, -367306.7, -44859.535, 562645.3, -0.04698097, -0.31811377, 379205.5, 405403.66, 0.27903748, 9.997141, 10.001712 
2.3478574e+3, 3.0731505e+2, -121564.266, -295938.53, -557646.5, -0.51974183, -0.2965212, 355669.75, 355669.75, 0.225255, 10.001872, 9.997681 
2.3627275e+3, 1.777849e+2, -1516755.5, -1512023.6, -264503.25, 0.37785855, -0.24239671, -1249875.8, -52182.867, 0.436412, 9.997906, 9.998248 
2.3623356e+3, 1.877773e+2, -1208767.8, -1053743.3, 51509.46, -0.7583283, -0.23805194, -1038188.94, 61576.164, 0.3776002, 9.998401, 10.000604 
2.3619714e+3, 1.9777793e+2, -1604433.3, -1260741.9, 106000.26, 0.7570462, 0.2829483, -1230679.3, -228918.17, 0.33353606, 9.995273, 9.99986 
2.3615956e+3, 2.0776121e+2, -1077893.4, -965143.44, 142241.19, 0.03648853, -0.6593367, -868512.9, 35413.215, 0.30097768, 9.998347, 9.999735 
2.3612264e+3, 2.177566e+2, -731189.0, -862809.75, 363934.97, -0.06276176, -0.48534423, -427162.0, 378810.78, 0.27814317, 10.000789, 9.999116 
2.3608491e+3, 2.2775629e+2, -194636.56, -819470.56, 56089.1, -0.22659472, 0.43799195, -189641.58, 518346.97, 0.26104832, 10.006138, 9.995686 
2.3604734e+3, 2.3774488e+2, -1696040.0, -1463801.8, 125798.05, -0.20352854, 0.29355568, -1408722.8, -798605.9, 0.24563015, 9.99337, 9.996791 
2.3601067e+3, 2.4773738e+2, -1312369.8, -1001991.9, 233265.5, 0.91485846, 0.4481987, -877008.7, -364813.94, 0.2300865, 9.994401, 9.998761 
2.3597224e+3, 2.577261e+2, -1785359.9, -1040141.1, 232091.58, 0.004402832, 0.103192784, -973769.6, -559465.6, 0.20983136, 9.989779, 10.000122 
2.3593406e+3, 2.6771954e+2, -411127.75, -2212.2876, -31580.752, -0.51272833, -0.17369701, 212.33348, 316576.28, 0.17457648, 9.996766, 10.00375 
2.3589773e+3, 2.7771464e+2, -435448.44, -932756.4, 102528.36, -0.12637237, -0.057322033, -415139.84, -196732.78, 0.12479939, 10.000736, 9.994195 
2.358595e+3, 2.8770554e+2, 558826.25, -189530.14, -689708.6, 0.07483258, 0.20679988, 969318.25, 1089816.6, 0.08190508, 10.006395, 9.996135 
2.3582129e+3, 2.9769975e+2, -399058.06, -171202.25, 88233.04, -0.19450763, 0.10502339, -141030.75, -118471.414, 0.055403367, 9.997217, 10.000182 
2.3578566e+3, 3.0769587e+2, 134687.42, 208980.6, 367270.84, 0.043120183, 0.51663065, 540978.6, 540978.6, 0.039849825, 10.000848, 10.001251 
2.3734812e+3, 1.5818042e+2, -1913200.9, -909667.8, 464695.06, 0.89139926, 0.122083046, -727540.2, 662299.8, 0.40917477, 9.991346, 10.009663 
2.3730779e+3, 1.6817673e+2, -1610146.6, -1617335.0, 156196.56, -1.966088, 0.21682486, -1457503.0, -165638.17, 0.3191415, 9.998105, 9.998106 
2.3727185e+3, 1.781631e+2, -574509.25, -1070364.9, 81539.82, -0.3763727, -0.31877157, -561444.9, 632546.8, 0.25440004, 10.00616, 9.997704 
2.3723389e+3, 1.8815318e+2, -238991.36, -679420.5, -71333.42, -0.34366992, -0.4589441, -227726.1, 868360.1, 0.20803122, 10.007027, 9.999684 
2.3719536e+3, 1.981484e+2, -277112.0, -703850.25, -23678.82, -0.7950213, -0.24162404, -275802.13, 722330.1, 0.17323056, 10.005658, 9.999285 
2.3715779e+3, 2.0814207e+2, -551067.1, -785398.9, 193778.84, -1.22275, -0.093805544, -441786.34, 458409.88, 0.14628343, 10.002532, 9.999213 
2.371208e+3, 2.181363e+2, -821173.1, -839065.75, 24459.107, -1.2399143, 0.05132786, -804075.5, -1820.0254, 0.1255341, 9.999392, 9.99958 
2.3708345e+3, 2.2812945e+2, -846366.75, -848017.6, -98805.55, -0.9596907, 0.118379034, -748383.2, -44058.293, 0.10829949, 9.998792, 9.9991045 
2.370456e+3, 2.3811938e+2, -792938.0, -815120.44, 26951.832, -0.9858606, -0.066814415, -774884.5, -168457.88, 0.09199208, 9.998642, 9.998756 
2.370083e+3, 2.4811384e+2, -107676.8, -299049.5, 112764.984, -0.6814521, 0.13389896, -55471.902, 453011.53, 0.07586676, 10.00235, 9.999966 
2.369717e+3, 2.581095e+2, 438928.53, -231819.78, 143221.77, -0.053270157, 0.5503192, 468230.0, 878757.75, 0.059159197, 10.006758, 9.997555 
2.3693413e+3, 2.6809978e+2, 383509.94, 62638.58, -44612.6, 0.018384103, 0.34573954, 389597.2, 702217.1, 0.040412202, 10.004253, 10.0001545 
2.3689687e+3, 2.7808633e+2, -920150.0, -1012842.06, 222719.61, -0.14093614, -0.19116147, -739005.4, -524257.5, 0.021718558, 9.996862, 9.995436 
2.3685877e+3, 2.8807598e+2, -295824.38, -704039.94, -262934.44, -0.23331627, -0.017605124, -167074.08, -50218.082, 0.00948949, 10.000785, 9.99491 
2.36821e+3, 2.9806924e+2, 661337.06, 271810.22, 228689.7, -0.15810862, 0.13151458, 766959.7, 785891.06, 0.0043450063, 10.004974, 9.999276 
2.3678493e+3, 3.080638e+2, -296081.38, 72307.62, 263719.6, 0.071354404, 0.39148113, 209789.42, 209789.42, 0.0025844644, 9.997242, 10.00161 
2.3838432e+3, 1.485666e+2, -1611695.8, -1857466.6, 131164.75, 0.14211409, -0.38300973, -1554845.1, -70813.05, 0.38968244, 10.000163, 9.996749 
2.3834617e+3, 1.5856224e+2, -1331319.8, -1681550.4, 44592.277, -0.06312126, 0.08504319, -1325731.4, 60351.715, 0.27836236, 10.0014925, 9.996813 
2.3830901e+3, 1.6855243e+2, -1193960.6, -1225680.3, 351271.44, -0.006435962, -0.0640072, -858191.2, 429988.34, 0.19862524, 10.00049, 9.999996 
2.3827215e+3, 1.7854376e+2, -1186433.4, -1334855.5, 209524.55, 0.15341988, -0.27695277, -1038365.75, 151896.84, 0.1461588, 10.000333, 9.998436 
2.3823406e+3, 1.885368e+2, -963942.0, -1252085.0, 3448.1858, -0.016368857, -0.03362158, -963900.75, 128427.56, 0.11113541, 10.001635, 9.997589 
2.3819585e+3, 1.9852896e+2, -770856.0, -1152749.3, 80291.195, -0.11038513, 0.08766812, -754661.9, 239741.2, 0.08556882, 10.002347, 9.997362 
2.381586e+3, 2.0852e+2, -787244.06, -1036156.94, 298928.2, -0.00030287346, 0.10495965, -587898.94, 308596.1, 0.065839775, 10.001247, 9.997981 
2.3812127e+3, 2.1850988e+2, -952105.4, -1034552.56, 132445.97, -0.09452484, -0.048717577, -854615.9, -56017.105, 0.050802168, 9.999142, 9.99834 
2.3808362e+3, 2.2850198e+2, -613862.25, -444050.7, -28949.764, -0.06935921, -0.20915975, -439250.94, 261418.78, 0.038884565, 9.999279, 10.001651 
2.3804612e+3, 2.3849449e+2, -714836.3, -754173.6, 15558.701, 0.21824835, -0.36680174, -709426.56, -106692.445, 0.028499383, 9.999229, 9.998868 
2.3800865e+3, 2.4848573e+2, -451470.94, -638334.56, 222001.8, 0.06828334, -0.4019527, -304041.2, 200778.67, 0.019239577, 10.000687, 9.998259 
2.3797153e+3, 2.5847527e+2, -496195.9, -853591.44, 171038.44, -0.15032649, -0.48633277, -427533.53, -20608.86, 0.011432521, 10.000812, 9.996031 
2.3793367e+3, 2.6846865e+2, 24948.246, -123268.19, -251354.75, -0.11754923, -0.32030162, 212892.0, 521879.7, 0.005416997, 10.001892, 9.99982 
2.3789589e+3, 2.784614e+2, -566095.25, -722468.6, 15277.661, -0.18427742, -0.3285595, -564616.6, -353560.03, 0.001679893, 9.998841, 9.996478 
2.3785794e+3, 2.8844997e+2, -148939.08, -633635.94, -26355.309, -0.51527345, -0.29022324, -147510.22, -34333.24, 0.00032890253, 10.001829, 9.994898 
2.3782068e+3, 2.9844373e+2, 32516.102, -314741.28, 198481.16, -0.3628241, -0.0005839831, 122595.01, 137844.13, 0.000101582686, 10.001817, 9.996817 
2.377839e+3, 3.0843407e+2, -486619.75, 6088.8574, -3729.2788, -0.19041646, -0.09126034, 6117.0825, 6117.0825, 0.00014370115, 9.995895, 10.0017805 
2.3942085e+3, 1.3895267e+2, -2314910.8, -1434663.0, -38388.08, -0.5449847, 0.18274045, -1432992.1, 145256.28, 0.42782584, 9.991991, 10.004932 
2.393836e+3, 1.4894402e+2, -1413476.5, -1427351.5, -66214.64, 0.036403112, -0.19785582, -1353836.9, 126495.84, 0.2998544, 10.000117, 10.0000105 
2.3934576e+3, 1.58938e+2, -957957.75, -1242578.6, 71608.04, -0.1713384, -0.099511735, -940957.25, 441439.34, 0.19614406, 10.003416, 9.999209 
2.3930834e+3, 1.6893272e+2, -932785.0, -1004268.8, 205318.3, -0.2218435, 0.03416939, -760120.8, 524327.7, 0.12585048, 10.001744, 10.000929 
2.39271e+3, 1.7892691e+2, -1311220.5, -1285544.0, 161531.48, -0.23926261, 0.05759039, -1136341.4, 50162.574, 0.083471425, 9.998821, 9.999503 
2.3923318e+3, 1.8891703e+2, -1036827.94, -1161599.6, 68468.09, -0.24782671, -0.12354671, -1006586.2, 82009.39, 0.057587944, 10.00043, 9.998816 
2.3919526e+3, 1.9890629e+2, -723542.3, -1097755.8, 196039.31, -0.28232372, -0.36721715, -639650.25, 351045.72, 0.03970386, 10.002415, 9.997713 
2.3915792e+3, 2.0889811e+2, -750857.0, -1097545.3, 326156.16, -0.19974053, -0.2206689, -554842.2, 337938.8, 0.026570952, 10.001779, 9.997271 
2.3912065e+3, 2.1888988e+2, -774092.6, -1055504.9, 249100.94, -0.11674458, -0.06741724, -628705.25, 166162.86, 0.017417854, 10.000821, 9.997389 
2.3908316e+3, 2.2888078e+2, -393743.25, -602658.06, 53865.637, 0.03337733, -0.14655612, -380672.56, 316281.13, 0.011141793, 10.00193, 9.999242 
2.3904568e+3, 2.388708e+2, -187749.92, -614257.2, 23820.334, 0.19295466, -0.3114367, -186423.69, 412621.72, 0.0065593217, 10.003332, 9.997834 
2.3900804e+3, 2.4886107e+2, -374137.72, -558081.1, 112272.54, 0.013148353, -0.44040266, -320975.28, 180164.02, 0.0032030866, 10.000998, 9.998645 
2.3897064e+3, 2.5885105e+2, -973554.44, -1001512.6, 199481.19, -0.2247317, -0.52610534, -787563.1, -384325.8, 0.0011282732, 9.997174, 9.99673 
2.3893303e+3, 2.688444e+2, -318904.75, -440808.28, -53460.68, -0.15583959, -0.277406, -298781.47, 6521.165, 0.00023273825, 10.000189, 9.998429 
2.3889549e+3, 2.788375e+2, 179760.03, -191242.92, 57550.45, -0.15139845, -0.1549828, 188482.28, 395852.66, 0.000018051116, 10.003194, 9.997989 
2.388575e+3, 2.8882563e+2, 78620.16, -250155.7, 38012.367, -0.5112052, -0.39131257, 82957.836, 192447.4, 0.000004039042, 10.002156, 9.997366 
2.3882006e+3, 2.9881927e+2, -210590.47, -414299.88, 235071.58, -0.37656957, -0.19260353, -56255.74, -44699.9, 0.00001362104, 9.999921, 9.997063 
2.3878308e+3, 3.0880815e+2, 64473.727, 177743.33, -166740.86, -0.1251437, -0.21140312, 297205.13, 297205.13, 0.00005414364, 9.999952, 10.0010805 
2.4045736e+3, 1.2932642e+2, -1255601.6, -1224158.9, 196621.34, -0.5026817, -0.16959806, -1042631.44, 629960.3, 0.49043512, 10.003442, 10.003627 
2.4042027e+3, 1.3932297e+2, -1759756.6, -1459070.8, 69875.195, 0.01349001, -0.29209757, -1443626.0, 130989.99, 0.36336103, 9.997201, 10.002151 
2.4038288e+3, 1.4931849e+2, -1480789.3, -1283799.8, 113613.29, 0.04710069, -0.27127978, -1231931.0, 244729.08, 0.24041095, 9.998741, 10.001818 
2.4034534e+3, 1.5931383e+2, -1202758.0, -1213253.6, 56871.85, -0.13064669, -0.2344654, -1150892.4, 227815.64, 0.14389461, 10.000609, 10.000607 
2.4030761e+3, 1.6931048e+2, -1195182.5, -1119924.4, 30425.111, -0.33627322, 0.041976154, -1109163.0, 171578.95, 0.08188297, 9.999758, 10.000866 
2.4026994e+3, 1.7930585e+2, -1409403.4, -1314846.0, -69806.88, -0.46018112, 0.18369672, -1277814.1, -95026.63, 0.047678713, 9.998082, 9.99966 
2.4023235e+3, 1.8929537e+2, -1121814.8, -1088468.8, -70775.59, -0.3734847, -0.15707764, -1032428.8, 52455.973, 0.028905774, 9.999396, 9.999799 
2.4019472e+3, 1.9928423e+2, -981230.75, -1214715.3, -26026.137, -0.27807814, -0.54200953, -978364.8, 8623.346, 0.017015342, 10.000607, 9.99776 
2.4015728e+3, 2.0927647e+2, -842228.6, -1155266.1, 98621.51, -0.28314313, -0.362019, -813749.25, 75318.84, 0.00915297, 10.001252, 9.997104 
2.4012e+3, 2.1926898e+2, -867395.25, -1248686.5, 78412.97, -0.15579985, -0.10893375, -851899.3, -60752.02, 0.0045936005, 10.000911, 9.99602 
2.4008255e+3, 2.2925894e+2, -586881.2, -970644.5, 41547.605, -0.05235775, -0.097129144, -582434.6, 110810.98, 0.0022051786, 10.001816, 9.996759 
2.4004507e+3, 2.3924708e+2, -501539.44, -927710.75, 7180.4624, -0.02164814, -0.24167792, -501418.5, 93941.586, 0.0009056362, 10.00192, 9.996368 
2.400073e+3, 2.4923828e+2, -227486.77, -374398.3, -34816.43, -0.13548705, -0.30868685, -219653.33, 277790.7, 0.00023937336, 10.001685, 9.999487 
2.3996973e+3, 2.5922993e+2, -693883.7, -876034.0, 73909.484, -0.22769783, -0.34428385, -667667.3, -268143.25, 0.000025130046, 9.999198, 9.996623 
2.3993237e+3, 2.6922268e+2, -304935.06, -535652.7, 90147.266, -0.18608406, -0.08134311, -273889.7, 27706.666, 0.00000030344088, 10.00082, 9.9974375 
2.3989508e+3, 2.792155e+2, -173308.88, -296064.78, 93666.945, -0.1816428, 0.028542403, -122701.336, 80966.984, 0.000000006555133, 10.00054, 9.998566 
2.3985712e+3, 2.8920403e+2, 81053.62, 57786.7, -20549.6, -0.39285326, -0.4011136, 93034.21, 198811.38, 0.00000087941476, 10.000942, 10.000033 
2.3981941e+3, 2.991956e+2, -598034.56, -766056.3, 145426.28, -0.38620558, -0.5227089, -514097.13, -506240.9, 0.0000072209577, 9.998084, 9.995508 
2.3978242e+3, 3.0918726e+2, -345526.75, -261534.84, 58267.586, -0.16046008, -0.11302688, -231706.2, -231706.2, 0.00003484927, 9.998364, 9.9986925 
2.4145706e+3, 1.29709e+2, -1483770.9, -1577146.5, -50488.195, -0.5286862, -0.18894662, -1461692.3, 207132.97, 0.44509998, 10.002109, 9.999547 
2.4141902e+3, 1.396987e+2, -1962190.8, -1823611.1, 27458.994, -0.38124418, -0.54924715, -1818368.6, -247441.69, 0.31930807, 9.997237, 9.999198 
2.4138185e+3, 1.4969485e+2, -1517707.9, -1345976.8, 184085.1, -0.21522863, -0.33059296, -1228716.1, 244248.89, 0.20041417, 9.998809, 10.001221 
2.4134472e+3, 1.5969051e+2, -1305667.5, -1381747.6, 75375.94, -0.17506947, -0.18418778, -1259276.6, 115731.68, 0.110025235, 10.000368, 9.9993925 
2.4130704e+3, 1.6968285e+2, -1312221.4, -1363603.0, -79426.9, -0.232456, -0.18621273, -1254433.8, 22654.736, 0.054970514, 9.999745, 9.9991 
2.4126929e+3, 1.7967482e+2, -1437439.9, -1435375.1, -130015.695, -0.30214277, -0.22230072, -1306387.8, -127215.836, 0.027314784, 9.998328, 9.998716 
2.4123189e+3, 1.8966845e+2, -1110741.1, -1111212.4, -111528.27, -0.10770817, -0.12332052, -999448.25, 81787.945, 0.013986388, 9.999559, 9.999578 
2.4119449e+3, 1.9966142e+2, -909774.56, -1122673.6, -70171.72, 0.026079405, -0.08347145, -888726.75, 94578.64, 0.006556314, 10.000805, 9.998307 
2.4115695e+3, 2.0965225e+2, -659820.06, -944772.5, 13032.068, -0.11496506, -0.15358137, -659225.25, 226168.83, 0.002469395, 10.001949, 9.998244 
2.4111946e+3, 2.1964274e+2, -504185.2, -960303.3, 32259.63, -0.29015684, -0.19995704, -501914.88, 285571.8, 0.00078321603, 10.002828, 9.997108 
2.4108191e+3, 2.2963417e+2, -403041.06, -817941.4, 12482.506, -0.2819855, -0.1203026, -402665.84, 286905.63, 0.00023610769, 10.002736, 9.997387 
2.410444e+3, 2.3962478e+2, -401773.4, -849246.25, 64538.91, -0.27425012, -0.06459899, -392650.94, 199013.44, 0.000047296035, 10.002399, 9.996682 
2.4100684e+3, 2.4961561e+2, -123261.086, -473128.3, -27277.676, -0.20404516, -0.07541229, -121147.13, 372609.28, 0.0000020598873, 10.003005, 9.99819 
2.4096939e+3, 2.596066e+2, -27961.996, -397012.16, 12949.563, -0.15566494, -0.10202691, -27508.168, 368337.1, 0.0, 10.00303, 9.998052 
2.4093188e+3, 2.6959908e+2, -83487.99, -168148.75, 75862.63, -0.119060956, -0.081919886, -38944.895, 258966.5, 0.0, 10.0012045, 9.99978 
2.408944e+3, 2.7959195e+2, -352321.4, -296223.5, 141468.94, -0.1512284, -0.12321885, -180049.69, 19925.309, 0.0, 9.998807, 9.99943 
2.4085659e+3, 2.895815e+2, -166519.58, -258620.17, -60257.72, -0.2792649, -0.34649888, -136730.42, -34649.035, 0.0000001537889, 9.999923, 9.998449 
2.4081895e+3, 2.9957342e+2, 25470.361, -325819.44, -19753.547, -0.2915256, -0.29432306, 26577.643, 30741.256, 0.000003139397, 10.001545, 9.9969225 
2.4078171e+3, 3.0956388e+2, 165471.03, 290940.28, 61714.164, -0.15639083, -0.26254198, 316207.2, 316207.2, 0.000017282315, 10.000233, 10.001716 
2.4245653e+3, 1.3008738e+2, -2103586.0, -2061333.1, -77840.46, -0.31054366, -0.39256403, -2001803.0, -336692.63, 0.4141129, 9.997376, 9.998066 
2.424183e+3, 1.400783e+2, -1208742.1, -1568349.9, 48083.066, -0.39267653, -0.46257135, -1202423.9, 364780.53, 0.28877336, 10.004007, 9.997759 
2.4238116e+3, 1.5007234e+2, -1167372.5, -1289930.5, 215162.22, -0.27868718, -0.32818687, -1004933.2, 464328.34, 0.17287979, 10.001992, 10.0001135 
2.4234407e+3, 1.6006613e+2, -1495981.5, -1618212.1, 73595.73, -0.13088974, -0.23953831, -1461433.8, -90112.46, 0.08747846, 9.999455, 9.998268 
2.4230647e+3, 1.7005636e+2, -1227353.1, -1433415.3, -17287.426, -0.10765029, -0.3531242, -1225912.9, 47511.44, 0.038149297, 10.000774, 9.998134 
2.422688e+3, 1.8004686e+2, -1030376.94, -1344490.8, -9394.337, -0.053451985, -0.4253386, -1030096.2, 145429.47, 0.01570925, 10.001612, 9.99774 
2.422314e+3, 1.9004217e+2, -907943.8, -1104834.1, -13864.028, 0.085054256, -0.075005285, -906972.4, 170607.63, 0.0064830934, 10.001343, 9.998742 
2.4219404e+3, 2.0003724e+2, -998202.56, -1186375.3, -40342.01, 0.24519405, 0.23926233, -989918.44, -10283.903, 0.0021827125, 10.000307, 9.998103 
2.4215652e+3, 2.100272e+2, -775539.4, -886553.94, 43238.156, 0.005328223, 0.003955604, -760686.2, 121041.516, 0.00044835047, 10.000693, 9.999221 
2.4211897e+3, 2.2001666e+2, -819512.75, -1016859.5, 19150.783, -0.27336118, -0.26414642, -817671.5, -33846.18, 0.000068581576, 10.000347, 9.99789 
2.420813e+3, 2.3000982e+2, -568864.1, -760927.6, 2139.418, -0.40235054, -0.11542827, -568840.3, 117052.68, 0.0000096515805, 10.001157, 9.998482 
2.4204378e+3, 2.4000275e+2, -678952.94, -1012768.56, 53891.082, -0.39090934, 0.07219423, -670468.44, -82503.54, 0.00000040342232, 10.00074, 9.996347 
2.4200638e+3, 2.499932e+2, -448285.1, -773024.6, 48147.53, -0.22479929, 0.118670076, -441296.88, 48768.23, 0.0, 10.001445, 9.996861 
2.4196905e+3, 2.5998333e+2, -378140.38, -531228.9, 33456.043, -0.066267096, 0.07558687, -371148.25, 21017.67, 0.0, 10.000544, 9.998352 
2.4193138e+3, 2.699756e+2, 24326.033, 174310.02, -5170.7026, -0.0404867, -0.14331806, 174488.06, 468713.3, 0.0, 10.0008, 10.002273 
2.4189372e+3, 2.7996814e+2, -457879.7, -524367.2, 24411.66, -0.04459517, -0.37116244, -449879.34, -253595.33, 0.0, 9.998935, 9.997805 
2.4185596e+3, 2.8995866e+2, -425946.78, -717561.56, -11125.688, -0.21138617, -0.21692404, -425522.94, -327130.84, 0.0000000009564638, 9.999771, 9.995279 
2.4181849e+3, 2.9995063e+2, -448230.0, -437234.6, 56198.58, -0.23129447, 0.0020626746, -386265.44, -385782.1, 0.0000004799063, 9.997962, 9.997861 
2.4178067e+3, 3.0994192e+2, 282832.78, 847918.44, -178106.8, -0.60747993, -0.44651872, 899370.3, 899370.3, 0.0000055147566, 9.999022, 10.006086 
2.4345547e+3, 1.3046871e+2, -2049617.9, -1972835.3, 214325.64, -0.5064588, -0.17024878, -1793489.6, -132111.89, 0.39271495, 9.997566, 9.998561 
2.4341838e+3, 1.4046146e+2, -1164526.6, -1599069.1, 142500.78, -0.19560511, -0.06497481, -1121964.6, 441488.3, 0.26710206, 10.004593, 9.9973135 
2.4338081e+3, 1.5045014e+2, -1207135.3, -1475732.3, 85193.375, -0.22251831, -0.3274645, -1182392.9, 283166.56, 0.15331793, 10.002462, 9.998385 
2.4334323e+3, 1.6043946e+2, -1573643.0, -1702131.0, 64122.266, -0.28807274, -0.5391213, -1547118.3, -179457.9, 0.07196278, 9.999162, 9.9978285 
2.4330586e+3, 1.7043312e+2, -1116772.6, -1315339.0, 84081.2, -0.16112266, -0.33917814, -1085952.8, 183776.16, 0.027363949, 10.001304, 9.998684 
2.4326842e+3, 1.8042634e+2, -902121.75, -1389045.5, 56323.805, -0.105059266, -0.14825237, -895691.56, 276112.5, 0.009079448, 10.0029745, 9.996754 
2.4323064e+3, 1.9041757e+2, -942118.56, -1379488.8, -48570.152, -0.21085717, 0.0021376456, -936789.75, 137112.03, 0.002868925, 10.0022135, 9.996438 
2.4319297e+3, 2.0040888e+2, -933371.1, -1195578.4, -46275.887, -0.2897517, 0.13070548, -925443.75, 50552.668, 0.00059867656, 10.000884, 9.997772 
2.4315584e+3, 2.1040095e+2, -741125.25, -784356.56, 36728.8, -0.08768335, 0.05357004, -720123.5, 157946.08, 0.000045539302, 10.000498, 10.000041 
2.4311866e+3, 2.2039284e+2, -751600.0, -827841.8, 37578.64, 0.025265492, -0.053334966, -736191.9, 43950.863, 0.0000022398012, 10.000086, 9.999305 
2.4308099e+3, 2.303849e+2, -542870.0, -597500.4, 31627.436, -0.13532037, -0.14767638, -528395.06, 153820.52, 0.000000052409952, 10.000643, 9.999868 
2.4304333e+3, 2.4037701e+2, -521109.3, -736357.1, 82647.58, -0.29033643, -0.17604801, -493036.78, 91253.56, 0.0, 10.0009, 9.998171 
2.4300577e+3, 2.5036913e+2, -568573.75, -729540.9, 93481.24, -0.22156636, -0.06699068, -525702.8, -39328.273, 0.0, 10.000117, 9.99784 
2.4296829e+3, 2.6036087e+2, -522391.8, -580181.25, 151925.05, -0.15086631, 0.0049128397, -396638.16, -8177.1177, 0.0, 9.999349, 9.998611 
2.4293083e+3, 2.703524e+2, -40491.563, -94375.15, 32864.266, -0.030507764, -0.13411678, -24937.236, 265598.56, 0.0, 10.001245, 10.000282 
2.4289338e+3, 2.8034428e+2, 161935.1, -189432.3, -70868.0, 0.08543057, -0.2499123, 175690.13, 368298.03, 0.0, 10.002889, 9.998224 
2.4285549e+3, 2.9033667e+2, -6958.7036, -336235.97, -4487.7686, -0.088232994, -0.038459674, -6897.5503, 87797.6, 0.0, 10.001719, 9.997024 
2.4281782e+3, 3.0032945e+2, -588.1904, -42258.05, 213289.58, -0.21839012, 0.1234763, 192881.66, 192881.66, 0.000000008678429, 10.000085, 9.999581 
2.4278037e+3, 3.1032214e+2, 625844.94, 775692.94, -354803.06, -0.32026047, -0.07299143, 1063396.6, 1063396.6, 0.0000009202062, 10.001976, 10.004368 
2.4449204e+3, 1.2084679e+2, -1675327.4, -2160227.0, 254933.2, 0.16395216, -0.6195319, -1565963.5, 189704.55, 0.4945417, 10.0032835, 9.995433 
2.4445468e+3, 1.308452e+2, -1641198.0, -1705613.3, 55642.32, -0.50348955, -0.015384022, -1609114.1, 48579.805, 0.3775347, 10.0003, 9.999175 
2.4441816e+3, 1.4083731e+2, -1662044.1, -1827834.0, -64900.613, 0.029222237, -0.04476163, -1639660.1, -79887.6, 0.25111946, 9.999854, 9.997936 
2.4438034e+3, 1.5082586e+2, -1482022.4, -1664332.8, -132388.39, -0.12705217, -0.34359777, -1412441.9, 49436.957, 0.13882844, 10.000465, 9.998029 
2.4434254e+3, 1.6081469e+2, -1383796.6, -1610708.5, 61.194138, -0.24886648, -0.5774495, -1383796.6, -19812.91, 0.060861234, 10.00049, 9.997797 
2.443053e+3, 1.708096e+2, -1021413.3, -1248837.3, 70464.555, -0.16737801, -0.2821752, -1001350.6, 264688.13, 0.02025213, 10.001924, 9.998826 
2.44268e+3, 1.8080384e+2, -998524.8, -1512490.4, -51698.37, -0.09852475, 0.017316597, -993376.2, 174726.75, 0.0052852775, 10.002637, 9.996091 
2.4422999e+3, 1.9079244e+2, -1049291.3, -1558420.6, -70687.28, -0.3676597, -0.007929252, -1039659.3, 30567.576, 0.0012089658, 10.002043, 9.995306 
2.4419214e+3, 2.0078146e+2, -986610.5, -1230642.4, 50090.01, -0.50319517, -0.01269145, -976729.1, -4384.659, 0.00012403581, 10.000654, 9.997619 
2.4415515e+3, 2.1077564e+2, -780002.6, -726509.0, 115555.58, -0.098033376, 0.06769035, -634645.2, 239752.92, 0.000001917801, 10.000017, 10.000589 
2.4411818e+3, 2.2076942e+2, -916303.06, -879331.56, 89717.03, 0.30316436, 0.09800843, -806215.6, -29762.1, 0.000000018702426, 9.998903, 9.999488 
2.4408057e+3, 2.3076016e+2, -574219.6, -531677.0, 42861.71, 0.110155664, -0.19712494, -505098.6, 173437.17, 0.0, 10.000096, 10.000547 
2.4404287e+3, 2.4075103e+2, -606226.44, -713358.25, -8794.818, -0.10618244, -0.44559878, -605509.25, -24890.168, 0.0, 10.000097, 9.998711 
2.4400513e+3, 2.507452e+2, -406379.25, -497146.97, -18632.504, -0.18872605, -0.2625614, -402703.28, 79978.37, 0.0, 10.000701, 9.999101 
2.4396747e+3, 2.6073894e+2, -557995.3, -769447.4, 92461.56, -0.20758171, -0.06257696, -523268.0, -138518.94, 0.0, 9.999961, 9.997002 
2.4393025e+3, 2.707296e+2, -290767.3, -523125.38, 102650.09, -0.060279317, -0.047691606, -251915.34, 34926.523, 0.0, 10.000935, 9.997449 
2.43893e+3, 2.8072065e+2, -210413.8, -394173.72, -39788.406, 0.14019221, -0.059308387, -202168.61, -13236.934, 0.0, 10.000527, 9.997965 
2.4385507e+3, 2.9071477e+2, 58607.074, 16374.558, -89224.17, 0.031161198, 0.07257145, 129179.69, 220175.89, 0.0, 10.000879, 9.999809 
2.4381717e+3, 3.0070895e+2, -451316.3, -423055.53, 142949.92, -0.22079533, 0.19501789, -293539.3, -293539.3, 0.0, 9.997855, 9.998033 
2.4378003e+3, 3.106988e+2, -17121.393, 115818.99, -11611.79, -0.21257484, -0.08121457, 116825.61, 116825.61, 0.00000009984614, 9.999556, 10.000783 
2.4549139e+3, 1.2122081e+2, -1689021.8, -2098971.5, -161552.33, -0.3008283, -0.035000682, -1633010.3, 119007.63, 0.48539782, 10.002577, 9.996094 
2.4545419e+3, 1.3121425e+2, -1544195.3, -1527482.4, -4109.5767, -0.4009061, -0.0678931, -1526526.5, 127557.42, 0.36593348, 10.000541, 10.000706 
2.4541739e+3, 1.4120464e+2, -1616541.5, -1629310.8, -82280.055, -0.075514525, -0.4210783, -1540398.8, 15776.324, 0.23856215, 9.999491, 9.999463 
2.4537972e+3, 1.5119956e+2, -1369635.9, -1397587.5, -107430.28, -0.13895176, -0.26946828, -1275276.1, 182943.9, 0.1275105, 10.000375, 9.999952 
2.4534206e+3, 1.6119336e+2, -1315318.8, -1542267.6, 44809.777, -0.19749205, -0.15216784, -1306791.6, 53486.176, 0.052560914, 10.0008745, 9.998061 
2.4530481e+3, 1.7118452e+2, -1020069.75, -1341763.3, 101897.055, -0.23450804, -0.1711549, -990509.9, 271858.22, 0.01541553, 10.002322, 9.997999 
2.4526745e+3, 1.8117544e+2, -886391.44, -1321465.5, -73662.01, -0.2826692, -0.17305776, -874258.1, 290203.5, 0.0031067657, 10.0028105, 9.997317 
2.452297e+3, 1.9116612e+2, -847605.4, -1177465.9, -71807.22, -0.18425842, -0.21532583, -832651.56, 233906.69, 0.00048131414, 10.002209, 9.997834 
2.4519199e+3, 2.0115717e+2, -840422.56, -1052923.6, 99189.73, -0.13589124, -0.21764785, -801319.1, 167331.06, 0.000015932997, 10.001173, 9.998569 
2.4515447e+3, 2.1115112e+2, -790217.4, -792551.3, 128192.44, -0.14147323, -0.12385444, -663186.56, 207520.34, 0.0000000054715246, 10.000195, 10.000052 
2.4511708e+3, 2.2114465e+2, -877317.9, -935045.7, 129981.68, -0.11577894, -0.042574, -773033.9, -266.1775, 0.0, 9.999427, 9.998864 
2.4507982e+3, 2.3113547e+2, -664034.6, -748629.1, 64432.133, -0.0007084483, -0.18767875, -629256.9, 45600.227, 0.0, 10.000147, 9.9990835 
2.4504246e+3, 2.4112661e+2, -469220.03, -616441.75, -39960.863, 0.03149009, -0.29383764, -459072.75, 117871.22, 0.0, 10.000798, 9.999061 
2.4500471e+3, 2.5112128e+2, -164580.66, -302892.03, -60412.08, -0.079194605, -0.12281579, -141909.72, 337090.3, 0.0, 10.00193, 9.9999 
2.4496701e+3, 2.6111555e+2, -80698.89, -391403.47, 4451.2964, -0.22631997, 0.046762154, -80635.13, 300424.3, 0.0, 10.002457, 9.998432 
2.4492942e+3, 2.711063e+2, -225952.7, -433309.3, 63249.84, -0.31234932, -0.017989188, -208182.52, 74966.234, 0.0, 10.000982, 9.998112 
2.4489194e+3, 2.81097e+2, -294342.28, -470327.13, 20116.496, -0.28208548, -0.0695878, -292072.1, -106831.87, 0.0, 9.999942, 9.997756 
2.4485442e+3, 2.9108918e+2, 30396.234, -197160.98, -146287.61, -0.07205764, 0.0225434, 101943.38, 189267.84, 0.0, 10.001376, 9.998178 
2.4481687e+3, 3.010814e+2, 237175.3, -144448.81, -64968.977, -0.030113328, 0.09469204, 247932.61, 247932.61, 0.0, 10.002548, 9.997745 
2.4477936e+3, 3.1107163e+2, 521723.56, 383923.9, -23140.355, -0.40242672, -0.03343012, 525505.7, 525505.7, 0.000000000000427524, 10.00287, 10.001137 
2.4649067e+3, 1.21592596e+2, -1561339.4, -1729218.5, -18898.225, -0.60610145, -0.13026668, -1559238.3, 189145.3, 0.47722325, 10.002642, 9.998683 
2.464538e+3, 1.3158803e+2, -1477621.3, -1461805.0, 121571.74, -0.17779545, 0.0024076325, -1347884.5, 302540.22, 0.3557266, 10.000927, 10.00124 
2.464166e+3, 1.4157654e+2, -1560659.0, -1516616.9, 52543.008, -0.13099578, -0.55653197, -1481666.9, 70865.02, 0.22774403, 9.99942, 10.000381 
2.463791e+3, 1.5157376e+2, -1183989.6, -1205892.1, -6182.323, -0.12220863, -0.26635188, -1182365.1, 272189.28, 0.11809006, 10.001323, 10.0009575 
2.4634165e+3, 1.6156973e+2, -1107242.3, -1424488.0, 71264.63, -0.08090252, 0.01018428, -1091969.0, 264621.88, 0.04605504, 10.002277, 9.998206 
2.4630423e+3, 1.7155911e+2, -1307021.1, -1523326.4, 144120.97, -0.29080048, -0.16706991, -1234985.4, 23712.357, 0.012013259, 10.000499, 9.997625 
2.462668e+3, 1.815487e+2, -1368829.0, -1450281.0, -25176.996, -0.37017828, -0.30540046, -1361675.1, -200872.69, 0.0018483637, 9.9990425, 9.998256 
2.4622932e+3, 1.9154099e+2, -970181.8, -1057110.8, -108185.016, -0.018431868, -0.34482014, -897056.6, 165822.69, 0.00018026956, 10.000554, 9.999477 
2.4619175e+3, 2.015335e+2, -847914.4, -1062148.4, -17572.104, 0.23007646, -0.32478002, -846482.6, 118470.5, 0.0000007906511, 10.001181, 9.998524 
2.461538e+3, 2.1152653e+2, -626307.56, -817865.06, -9067.086, -0.1646988, -0.2684685, -625879.4, 241140.03, 0.0, 10.00178, 9.999155 
2.4611609e+3, 2.2151922e+2, -762252.0, -1025283.2, 15157.381, -0.3929714, -0.17849576, -761381.44, 7709.3486, 0.0, 10.00097, 9.997496 
2.4607907e+3, 2.3151071e+2, -748951.25, -903213.7, 33554.79, -0.06944064, -0.15842077, -741968.56, -70788.26, 0.0, 10.000266, 9.99787 
2.4604197e+3, 2.4150276e+2, -779939.0, -835910.6, -13153.485, 0.2088725, -0.08409702, -777002.0, -203738.02, 0.0, 9.999088, 9.998351 
2.4600427e+3, 2.5149715e+2, -324820.34, -361379.94, -42808.32, 0.022321995, 0.04107358, -296552.28, 178768.7, 0.0, 10.000769, 10.000041 
2.4596652e+3, 2.6149097e+2, -310033.9, -473613.8, -82131.75, -0.22400945, 0.12951197, -275913.47, 101468.56, 0.0, 10.000852, 9.998624 
2.4592859e+3, 2.714818e+2, -141902.45, -254820.78, -86864.836, -0.5638067, -0.05044181, -94760.76, 184704.98, 0.0, 10.00108, 9.999226 
2.4589087e+3, 2.814726e+2, -428680.1, -733455.06, -57224.293, -0.6866155, -0.12828569, -418289.94, -236736.88, 0.0, 10.000026, 9.99589 
2.4585369e+3, 2.9146236e+2, -143133.31, -593203.8, -89941.5, -0.27667007, -0.05125496, -125825.14, -42162.74, 0.0, 10.001644, 9.995286 
2.4581665e+3, 3.014504e+2, -338413.7, -713890.75, 6791.1465, 0.16986981, -0.09418694, -338290.9, -338290.9, 0.0, 10.000083, 9.994976 
2.4577864e+3, 3.114408e+2, -64899.914, 155156.83, 55793.31, -0.7857429, -0.17183095, 168494.31, 168494.31, 0.0, 9.999061, 10.001215 
2.4749038e+3, 1.2196801e+2, -1446487.8, -1481862.6, -20392.5, -0.5601101, -0.289007, -1437180.8, 307526.5, 0.4678463, 10.002696, 10.001736 
2.4745344e+3, 1.3196775e+2, -1530824.3, -1563971.0, 75483.81, 0.013531643, 0.306733, -1470115.8, 176588.16, 0.34520847, 10.000945, 10.000054 
2.4741572e+3, 1.4195333e+2, -1666550.4, -1647271.9, 105470.76, -0.3418247, -0.44002515, -1551000.8, -2161.0593, 0.21743059, 9.999094, 9.999524 
2.4737847e+3, 1.5194723e+2, -1179895.6, -1235278.9, 85946.1, -0.24836865, -0.43822142, -1117290.1, 333601.3, 0.109704144, 10.001566, 10.000549 
2.4734116e+3, 1.6194125e+2, -1051331.5, -1358430.9, 51888.93, -0.19865008, -0.33861247, -1042801.06, 310143.9, 0.040704507, 10.002534, 9.998518 
2.4730341e+3, 1.7193292e+2, -1299229.3, -1439489.9, 61521.89, -0.45737275, -0.3470742, -1276068.6, -21039.754, 0.00953522, 10.000191, 9.998361 
2.4726577e+3, 1.8192478e+2, -1484299.6, -1505716.0, 11504.637, -0.59789085, -0.29670843, -1479290.9, -322178.3, 0.0011160366, 9.998246, 9.998257 
2.4722852e+3, 1.9191806e+2, -1057755.0, -1163827.5, -37060.89, -0.15906553, -0.1822864, -1046089.2, 13094.957, 0.00006263998, 10.000228, 9.998906 
2.4719119e+3, 2.0191073e+2, -794307.8, -1096119.3, 967.4857, 0.11417125, -0.07985021, -794304.75, 166955.14, 0.0000000031066179, 10.001792, 9.997994 
2.4715346e+3, 2.1190143e+2, -488733.9, -865923.7, -10391.499, -0.11233769, -0.16326433, -488447.84, 374902.66, 0.0, 10.003166, 9.998203 
2.4711582e+3, 2.2189227e+2, -377252.0, -780675.44, -63688.848, -0.30834225, -0.19720608, -367436.22, 398004.0, 0.0, 10.0032835, 9.99808 
2.4707839e+3, 2.3188423e+2, -594937.06, -746806.2, -53714.863, -0.13748354, -0.20225573, -577859.06, 89662.86, 0.0, 10.000898, 9.998676 
2.4704102e+3, 2.4187651e+2, -739426.9, -814208.9, 8589.639, -0.008551103, -0.14062542, -738452.9, -168852.67, 0.0, 9.999259, 9.998435 
2.4700354e+3, 2.518695e+2, -459113.34, -550148.06, -12759.693, -0.0913563, -0.06619798, -457358.72, 14310.921, 0.0, 10.000281, 9.99903 
2.4696596e+3, 2.6186177e+2, -258431.13, -514798.16, -94733.336, -0.25971225, -0.025902065, -227223.86, 146521.48, 0.0, 10.001349, 9.998123 
2.4692817e+3, 2.7185193e+2, 30624.105, -284810.63, -176506.6, -0.5156092, -0.18662716, 109611.93, 385452.8, 0.0, 10.002647, 9.998302 
2.4689049e+3, 2.818434e+2, 242273.6, -225326.5, -194079.56, -0.6863246, -0.1893537, 312330.97, 490255.8, 0.0, 10.00374, 9.997594 
2.4685314e+3, 2.9183587e+2, 368270.44, -148706.55, -96212.72, -0.47315335, -0.021643028, 385595.63, 465598.4, 0.0, 10.004125, 9.997242 
2.4681622e+3, 3.0182528e+2, 243158.3, -341727.38, 81598.01, 0.08888887, -0.051505715, 254328.78, 254328.78, 0.0, 10.003446, 9.995973 
2.4677798e+3, 3.118136e+2, 79732.36, 146372.3, 68166.59, -0.7908796, -0.23218305, 188926.6, 188926.6, 0.0, 9.999966, 10.000881 
2.4849007e+3, 1.2234757e+2, -1587106.6, -1554823.0, -160317.17, -0.3936321, -0.030651081, -1409837.1, 331152.38, 0.45571515, 10.000646, 10.001787 
2.4845302e+3, 1.3234363e+2, -1639823.1, -1752892.1, -29734.889, 0.2107858, 0.3011153, -1632480.3, 10542.593, 0.33319858, 10.00033, 9.998815 
2.48415e+3, 1.4232968e+2, -1521113.0, -1614500.3, 55683.184, -0.34576532, -0.30865824, -1495136.8, 50017.63, 0.20679392, 10.000306, 9.999215 
2.4837786e+3, 1.523222e+2, -1326811.8, -1361861.0, 69820.805, -0.2894815, -0.4042955, -1272349.9, 174869.63, 0.10179194, 10.000618, 10.000099 
2.4834065e+3, 1.6231485e+2, -1315498.9, -1445768.5, -56716.887, -0.19070566, -0.42084238, -1294266.1, 55019.133, 0.036105353, 10.000469, 9.9989195 
2.4830276e+3, 1.7230742e+2, -1236788.8, -1332832.8, -93823.96, -0.4491773, -0.4095489, -1179411.3, 71946.81, 0.0076701324, 10.000351, 9.999007 
2.4826501e+3, 1.8230033e+2, -1256938.1, -1431809.0, -44699.285, -0.5530115, -0.28085592, -1246174.9, -92744.28, 0.000687035, 10.000017, 9.997885 
2.482278e+3, 1.922942e+2, -1030140.7, -1209008.5, -50973.813, -0.22606064, -0.075345196, -1016634.06, 38864.973, 0.000019881356, 10.000771, 9.998276 
2.4819055e+3, 2.0228681e+2, -1029951.4, -1281116.6, -10658.082, 0.050761938, 0.07924072, -1029499.94, -71922.02, 0.0, 10.000537, 9.997295 
2.4815303e+3, 2.1227632e+2, -1035000.94, -1175799.5, 30124.61, -0.062566854, -0.088791065, -1028826.44, -169144.66, 0.0, 9.99969, 9.997675 
2.4811545e+3, 2.2226638e+2, -1021060.44, -1098052.9, -35761.13, -0.15611047, -0.17305085, -1007013.2, -245233.44, 0.0, 9.998921, 9.99799 
2.4807774e+3, 2.3225845e+2, -608242.3, -709237.5, -97996.08, -0.18799819, -0.21429008, -548498.2, 115359.53, 0.0, 10.000586, 9.999097 
2.4804011e+3, 2.4225038e+2, -633561.94, -857524.6, 7517.195, -0.1762406, -0.192326, -633309.9, -67373.51, 0.0, 10.000497, 9.997528 
2.4800278e+3, 2.5224167e+2, -500713.97, -664849.44, 42923.137, -0.17717475, -0.21113221, -490166.84, -22147.19, 0.0, 10.000511, 9.99807 
2.4796543e+3, 2.6223242e+2, -638015.9, -886036.94, 11399.231, -0.20965536, -0.20534919, -637493.06, -267382.56, 0.0, 9.999687, 9.996363 
2.4792783e+3, 2.72222e+2, -357378.25, -625034.8, -41828.016, -0.40786114, -0.28420687, -350993.88, -78775.97, 0.0, 10.000743, 9.996862 
2.4789019e+3, 2.8221348e+2, -167591.97, -312654.2, -82827.86, -0.6067795, -0.2151357, -130026.69, 44278.508, 0.0, 10.00055, 9.998524 
2.4785264e+3, 2.922089e+2, 162760.0, 118705.33, -47809.98, -0.658984, -0.043089703, 193372.92, 269721.66, 0.0, 10.00133, 10.000333 
2.4781567e+3, 3.0220294e+2, -265751.66, -509470.38, -2245.0967, -0.07177214, 0.1506599, -265731.0, -265731.0, 0.0, 9.999805, 9.996541 
2.4777752e+3, 3.12192e+2, -170833.97, 30645.8, -91186.35, -0.6281429, -0.062075693, 65786.28, 65786.28, 0.0, 9.998385, 10.00082 
2.4948946e+3, 1.22725375e+2, -1835065.6, -1828292.9, -395724.7, -0.41165772, 0.26192632, -1435940.1, 301349.56, 0.43991756, 9.9998455, 10.000002 
2.4945256e+3, 1.3271555e+2, -1678300.1, -1828188.8, -591.9758, 0.3580802, 0.055452507, -1678297.8, -38915.3, 0.31901658, 10.000343, 9.998258 
2.494144e+3, 1.4270592e+2, -1590916.8, -1719075.9, 65968.06, -0.340485, -0.06966679, -1563029.0, -21555.252, 0.19536594, 10.00011, 9.998553 
2.4937722e+3, 1.5269962e+2, -1399647.5, -1442605.4, 79146.82, -0.32108417, 0.00238019, -1339116.9, 104416.19, 0.094030365, 10.000319, 9.999626 
2.4933998e+3, 1.6269217e+2, -1366949.9, -1452566.4, -59381.285, -0.24409594, 0.0037087218, -1336555.1, 9047.303, 0.032013185, 10.000059, 9.999052 
2.4930234e+3, 1.7268257e+2, -1173869.5, -1256584.3, -78669.016, -0.22784427, -0.24360554, -1126349.1, 121341.664, 0.0062260167, 10.000595, 9.999398 
2.4926475e+3, 1.8267363e+2, -1150855.6, -1375440.9, -35666.05, -0.26720798, -0.32089937, -1145327.6, 4448.6875, 0.00043419475, 10.000718, 9.997924 
2.4922724e+3, 1.9266617e+2, -962995.25, -1199146.9, -43378.605, -0.22688766, -0.22891606, -955279.1, 96575.59, 0.0000058323185, 10.001296, 9.998103 
2.4918972e+3, 2.026587e+2, -931347.25, -1113561.4, -76067.96, -0.21509379, -0.10364069, -903766.3, 50166.566, 0.000000000090419006, 10.000648, 9.998393 
2.4915202e+3, 2.1265091e+2, -1127354.5, -1082535.5, -25116.193, -0.26324365, -0.123259135, -1071284.9, -215273.31, 0.0, 9.998379, 9.998965 
2.4911442e+3, 2.2264302e+2, -1202313.8, -1184351.5, 63956.93, -0.32008094, -0.07489775, -1128748.3, -370656.16, 0.0, 9.997616, 9.998019 
2.490771e+3, 2.326355e+2, -574237.25, -800411.7, 41135.246, -0.25170848, 0.017861955, -566988.1, 93183.03, 0.0, 10.001225, 9.998194 
2.4903972e+3, 2.4262732e+2, -172828.73, -563813.75, -6828.191, -0.19328448, 0.07774621, -172709.52, 389543.44, 0.0, 10.003276, 9.998205 
2.4900232e+3, 2.5261784e+2, -326412.25, -527366.2, 17491.68, -0.10561258, -0.06993348, -324901.1, 139438.42, 0.0, 10.001382, 9.998628 
2.4896485e+3, 2.626084e+2, -545109.44, -738306.6, 53076.156, -0.13038918, -0.13007319, -531488.4, -165059.33, 0.0, 9.999766, 9.997357 
2.4892718e+3, 2.7259955e+2, -500988.75, -642628.0, 100282.016, -0.3529489, -0.08400412, -449040.72, -180520.08, 0.0, 9.99942, 9.99744 
2.4888955e+3, 2.8259113e+2, -321558.6, -315310.63, 84216.766, -0.55010605, -0.03322191, -234159.92, -63553.83, 0.0, 9.9990015, 9.999292 
2.4885198e+3, 2.92584e+2, -233439.2, -70180.984, 26751.96, -0.57461756, -0.09773113, -65909.11, 6763.9634, 0.0, 9.998434, 10.000505 
2.4881499e+3, 3.0257785e+2, -205089.31, -267839.66, 70878.02, -0.04262935, 0.004642076, -158952.58, -158952.58, 0.0, 9.999155, 9.998548 
2.4877724e+3, 3.1256983e+2, 517052.56, 454340.63, -12478.368, -0.32244313, 0.032628447, 519444.28, 519444.28, 0.0, 10.002377, 10.001947 
2.504891e+3, 1.23095974e+2, -1866266.1, -1847274.1, -304462.06, -0.027091112, -0.08848008, -1552160.0, 181491.66, 0.42027465, 9.999206, 9.999928 
2.504519e+3, 1.3308744e+2, -1482109.3, -1676251.8, -16560.213, 0.27718592, -0.17376891, -1480706.9, 155026.27, 0.30251706, 10.002006, 9.9985695 
2.5041395e+3, 1.4308049e+2, -1314602.1, -1592510.1, 38915.93, -0.2520945, -0.021047741, -1309255.5, 228545.58, 0.18302314, 10.002345, 9.998387 
2.5037667e+3, 1.5307476e+2, -1347416.0, -1488602.9, 38459.973, -0.2579066, 0.14784718, -1337619.1, 102241.6, 0.08629053, 10.0009165, 9.999026 
2.503394e+3, 1.6306753e+2, -1392459.3, -1489601.8, -82499.6, -0.1399206, 0.21272627, -1345294.6, -3362.759, 0.028287582, 9.999942, 9.998855 
2.5030193e+3, 1.7305692e+2, -1175948.3, -1291680.0, -138901.81, -0.016541027, -0.13621716, -1083341.0, 160689.1, 0.0050760456, 10.000636, 9.999163 
2.5026438e+3, 1.8304695e+2, -1128667.3, -1334096.4, -79178.16, 0.0009935622, -0.31938052, -1101692.0, 44431.676, 0.00028139996, 10.000786, 9.998174 
2.5022668e+3, 1.9303912e+2, -943138.56, -1143594.4, -38558.29, -0.22863218, -0.3099307, -935977.56, 112224.1, 0.0000014559199, 10.001307, 9.998479 
2.5018895e+3, 2.030317e+2, -806404.94, -1008099.4, -103912.63, -0.35510954, -0.20784198, -762448.9, 187828.22, 0.0, 10.001384, 9.998766 
2.5015116e+3, 2.1302572e+2, -598052.1, -736089.2, -161803.97, -0.38438076, -0.12524566, -491161.34, 361179.1, 0.0, 10.001751, 9.99969 
2.5011358e+3, 2.2301947e+2, -759522.6, -1038201.5, 23724.041, -0.3610178, 0.061396502, -757517.4, -3109.9097, 0.0, 10.001025, 9.997381 
2.500765e+3, 2.3301218e+2, -684769.25, -915453.75, 102446.56, -0.27105555, 0.21554185, -645841.9, 10645.363, 0.0, 10.000804, 9.997578 
2.5003934e+3, 2.4300414e+2, -612095.94, -764512.8, -19757.174, -0.14139535, 0.3162608, -609576.5, -51007.617, 0.0, 10.000276, 9.9982605 
2.5000182e+3, 2.5299442e+2, -400482.5, -484503.13, -41507.3, -0.0083894525, 0.06788098, -383435.88, 77218.75, 0.0, 10.000623, 9.999252 
2.4996424e+3, 2.6298553e+2, -503157.63, -673997.56, 28097.67, -0.019142065, 0.010113504, -498655.13, -135919.0, 0.0, 9.999955, 9.997694 
2.499265e+3, 2.729783e+2, -371255.16, -486314.16, 77730.11, -0.32280564, 0.11731458, -332080.9, -67270.695, 0.0, 9.999956, 9.99824 
2.4988884e+3, 2.8297007e+2, -421351.88, -438431.4, 37919.848, -0.46680385, 0.1585839, -391022.06, -224129.8, 0.0, 9.99877, 9.99853 
2.4985135e+3, 2.929598e+2, -260510.73, -175954.69, 506.5254, -0.38724267, -0.1772592, -175951.64, -106962.17, 0.0, 9.998741, 9.999583 
2.4981418e+3, 3.0295166e+2, -282505.66, -216006.88, 144648.11, -0.10877132, -0.24137533, -100835.92, -100835.92, 0.0, 9.99844, 9.999195 
2.49777e+3, 3.1294686e+2, 179007.3, 380302.38, 138283.73, -0.18445988, -0.1208345, 450687.9, 450687.9, 0.0, 10.00004, 10.002423 
2.5148833e+3, 1.2346552e+2, -1782611.5, -1653620.5, 29465.863, -0.09956907, -0.3706154, -1647208.3, 82806.01, 0.39734322, 9.998832, 10.001247 
2.5145096e+3, 1.3345772e+2, -1429540.0, -1556929.6, 46420.043, -0.19439757, -0.50143075, -1414419.5, 217669.0, 0.28406283, 10.002067, 9.999491 
2.5141355e+3, 1.4345115e+2, -1353248.9, -1655500.5, 17645.361, -0.27862024, -0.33855385, -1352222.3, 181932.28, 0.16993596, 10.0022335, 9.997971 
2.5137618e+3, 1.5344563e+2, -1366764.5, -1542092.4, 2715.0962, -0.18110257, -0.11356116, -1366722.5, 69493.97, 0.078587286, 10.000984, 9.998601 
2.513388e+3, 1.6343881e+2, -1462214.4, -1622531.5, -71520.336, -0.09172909, 0.061520826, -1434946.0, -96656.35, 0.024857625, 9.999917, 9.997938 
2.5130135e+3, 1.7342925e+2, -1217167.1, -1403125.9, -100760.836, -0.020521166, -0.08994446, -1173041.0, 67346.14, 0.0041356636, 10.000771, 9.998319 
2.5126374e+3, 1.834208e+2, -974479.3, -1082507.1, -83762.91, -0.10600987, -0.13326937, -928825.1, 213644.83, 0.00018434241, 10.0010805, 9.999744 
2.5122604e+3, 1.9341493e+2, -771511.1, -856656.44, 1611.0789, -0.35582724, -0.10553308, -771480.6, 273041.6, 0.00000026313862, 10.001577, 10.000328 
2.5118837e+3, 2.0340805e+2, -724549.9, -1079172.3, -51557.996, -0.49130598, -0.0064451937, -717206.0, 229384.75, 0.0, 10.002412, 9.997776 
2.5115088e+3, 2.1339978e+2, -352762.56, -831353.6, -130339.91, -0.3476317, 0.038466588, -319568.0, 529115.2, 0.0, 10.004323, 9.997826 
2.5111338e+3, 2.2339198e+2, -162684.92, -587303.94, -103441.58, -0.28708267, 0.12623799, -138826.1, 611939.7, 0.0, 10.004333, 9.998909 
2.510759e+3, 2.3338474e+2, -524846.0, -637937.2, -12404.158, -0.30389568, 0.110273495, -523501.47, 129332.914, 0.0, 10.000949, 9.999453 
2.5103852e+3, 2.4337725e+2, -661768.75, -674729.44, 16873.31, -0.24186528, 0.121385016, -650174.2, -95269.12, 0.0, 9.999355, 9.999331 
2.5100127e+3, 2.5336862e+2, -278353.88, -397717.28, 25252.795, -0.010610532, -0.044453006, -273231.2, 183753.19, 0.0, 10.001211, 9.999627 
2.5096378e+3, 2.6336044e+2, -107928.11, -400513.16, 17507.209, 0.01599503, -0.07375951, -106884.266, 252176.4, 0.0, 10.002204, 9.998518 
2.50926e+3, 2.733532e+2, -96176.63, -323079.63, 37272.48, -0.27718985, 0.006283341, -90210.875, 170920.48, 0.0, 10.001599, 9.998634 
2.5088826e+3, 2.8334507e+2, -23653.791, -230400.58, 2027.6447, -0.45606673, 0.03667472, -23633.908, 139576.77, 0.0, 10.001285, 9.998783 
2.508507e+3, 2.9333535e+2, 141495.84, -62935.285, -19117.197, -0.41283673, -0.18753801, 143268.2, 208573.63, 0.0, 10.001643, 9.999052 
2.5081348e+3, 3.0332735e+2, 202322.53, 54658.453, 114083.81, -0.207686, -0.2162435, 264381.22, 264381.22, 0.0, 10.001429, 9.99966 
2.507765e+3, 3.1332174e+2, 252281.44, 347029.84, 66253.875, -0.03960748, -0.14708115, 381104.34, 381104.34, 0.0, 10.000546, 10.002051 
2.5248736e+3, 1.2383831e+2, -1591166.6, -1635728.3, -24370.17, -0.42994365, -0.33037782, -1580427.1, 145931.05, 0.3720952, 10.000946, 10.00039 
2.5245023e+3, 1.3382973e+2, -1662962.5, -1730788.0, -100055.4, -0.35082105, -0.50870067, -1591228.9, 37213.55, 0.26429757, 10.000064, 9.999138 
2.524131e+3, 1.4382313e+2, -1640465.0, -1723247.0, -155221.56, -0.15044212, -0.37787792, -1521210.6, 9297.47, 0.15642525, 9.99966, 9.998718 
2.5237572e+3, 1.5381685e+2, -1353817.3, -1492548.1, -107755.93, -0.05450832, -0.29463544, -1295030.9, 137542.6, 0.071005836, 10.000956, 9.998954 
2.523383e+3, 1.6381009e+2, -1267094.9, -1548162.5, -62117.984, 0.02543361, -0.11812559, -1253978.4, 80668.125, 0.021693112, 10.001388, 9.99775 
2.5230068e+3, 1.7380214e+2, -1178551.9, -1405763.6, -59974.293, -0.066254415, -0.073907405, -1163693.0, 73041.98, 0.00335279, 10.001238, 9.998061 
2.522631e+3, 1.837952e+2, -945830.5, -997860.94, -30736.428, -0.16377991, 0.023702454, -931577.6, 207228.42, 0.00011963712, 10.000946, 10.000396 
2.5222546e+3, 1.9378988e+2, -774928.0, -765461.94, -57459.863, -0.36350015, 0.0077410256, -712540.5, 328309.28, 0.00000002568285, 10.001107, 10.001178 
2.5218794e+3, 2.0378317e+2, -1007163.8, -1333510.8, -59880.832, -0.42958772, 0.103257656, -996523.3, -53607.207, 0.0, 10.000947, 9.996745 
2.5215057e+3, 2.1377358e+2, -897451.8, -1229078.9, -23541.645, -0.29427093, 0.10984877, -895788.94, -50764.09, 0.0, 10.001122, 9.996638 
2.5211307e+3, 2.2376482e+2, -618980.44, -695569.1, -43928.027, -0.21148482, 0.13494964, -598998.44, 148117.45, 0.0, 10.00081, 9.999832 
2.5207528e+3, 2.3375757e+2, -442619.28, -430349.5, -68558.47, -0.2997568, -0.041994587, -367651.97, 281524.3, 0.0, 10.000844, 10.000917 
2.5203776e+3, 2.4375032e+2, -587080.2, -647716.4, 42000.234, -0.26095, -0.07863424, -565598.56, -14357.815, 0.0, 10.0, 9.999202 
2.5200066e+3, 2.537427e+2, -448879.13, -469308.34, 35506.957, -0.016462026, -0.17056014, -422146.72, 31169.006, 0.0, 10.000103, 9.999639 
2.519633e+3, 2.6373503e+2, -467058.97, -588749.06, -32083.148, 0.042359717, -0.14163947, -459118.5, -103729.9, 0.0, 9.99993, 9.998287 
2.5192544e+3, 2.7372724e+2, -276081.63, -369552.2, -8304.117, -0.23447752, -0.168733, -275349.6, -17890.154, 0.0, 10.000331, 9.998852 
2.518877e+3, 2.8371906e+2, -278559.2, -422866.1, -7276.1445, -0.44790608, -0.1303989, -278193.25, -118655.49, 0.0, 9.999995, 9.998044 
2.5185004e+3, 2.9371053e+2, -94121.78, -209261.53, -25100.088, -0.5279771, -0.22066726, -88887.95, -27262.938, 0.0, 10.0003195, 9.998626 
2.5181282e+3, 3.037034e+2, -107832.41, -211183.19, 77311.87, -0.32811338, -0.09694979, -66516.016, -66516.016, 0.0, 9.999968, 9.998486 
2.5177547e+3, 3.1369224e+2, -2323.0588, 125658.48, 94308.52, -0.5257476, -0.54729456, 175636.63, 175636.63, 0.0, 9.999512, 10.000919 
2.5348717e+3, 1.2421104e+2, -1772500.0, -1939921.5, -123123.78, -0.14499128, -0.1041474, -1707325.0, 15391.939, 0.34545994, 10.000324, 9.998214 
2.534497e+3, 1.3420358e+2, -1787002.1, -1901184.4, -140402.38, -0.2058709, -0.06846312, -1692527.4, -67730.43, 0.24384509, 9.999677, 9.9980955 
2.534124e+3, 1.441963e+2, -1654405.8, -1553084.3, -110868.53, -0.14844985, -0.017829616, -1481850.1, 45016.87, 0.14280653, 9.998887, 10.00025 
2.5337523e+3, 1.5418768e+2, -1221257.0, -1207822.9, -30834.566, -0.007387826, -0.36149317, -1182982.3, 245958.58, 0.06363834, 10.000982, 10.000944 
2.5333774e+3, 1.6418068e+2, -1162150.1, -1406705.0, -70577.27, -0.0511234, -0.3474217, -1143243.5, 187764.34, 0.0187796, 10.001739, 9.998548 
2.5329986e+3, 1.7417517e+2, -1081459.8, -1282471.4, -42002.367, -0.37760296, -0.13146055, -1073036.1, 160035.75, 0.0026956536, 10.001517, 9.998797 
2.5326228e+3, 1.8416852e+2, -989354.4, -1122579.5, -21189.402, -0.4675995, 0.0022722627, -986065.4, 149076.22, 0.00007576087, 10.001112, 9.999442 
2.532251e+3, 1.9416031e+2, -847823.56, -950057.5, -67828.64, -0.21135147, -0.16488355, -814007.2, 223211.48, 0.00000000011876218, 10.001225, 9.999858 
2.531876e+3, 2.0415331e+2, -842885.44, -951329.2, -111054.53, -0.20939688, -0.13810529, -773522.9, 165764.06, 0.0, 10.000757, 9.999443 
2.5314972e+3, 2.1414748e+2, -851949.56, -881614.4, 14164.479, -0.46405655, -0.037339624, -846272.6, -4923.1855, 0.0, 9.999999, 9.999567 
2.5311214e+3, 2.2414061e+2, -722821.9, -762757.4, 67804.01, -0.5147808, 0.03094162, -672106.56, 71312.16, 0.0, 10.00011, 9.999717 
2.530748e+3, 2.3413251e+2, -364451.66, -496880.78, 22901.465, -0.2603133, -0.12013768, -360603.06, 284891.25, 0.0, 10.001753, 10.000062 
2.5303736e+3, 2.4412504e+2, -349296.47, -600522.56, -13398.957, -0.1487436, -0.09683078, -348583.88, 198983.58, 0.0, 10.001823, 9.998673 
2.5299984e+3, 2.5411832e+2, -533555.4, -609524.2, -37931.008, -0.15905514, 0.007627003, -517859.47, -68220.27, 0.0, 9.999871, 9.99882 
2.529623e+3, 2.6411054e+2, -466068.34, -445491.63, -43066.242, -0.2117594, 0.014009327, -411501.88, -59788.383, 0.0, 9.999224, 9.999631 
2.5292474e+3, 2.7410114e+2, -212778.78, -231766.17, 7587.91, -0.28858235, -0.26413053, -210119.02, 43674.527, 0.0, 10.000184, 9.999914 
2.5288716e+3, 2.8409275e+2, -224627.17, -413791.44, -34319.184, -0.35200286, -0.29628703, -218593.27, -62720.633, 0.0, 10.000373, 9.997921 
2.528495e+3, 2.9408538e+2, -239654.4, -374204.38, -77901.3, -0.39448044, -0.17103668, -203999.63, -146046.84, 0.0, 9.999628, 9.997876 
2.5281227e+3, 3.04078e+2, -77847.0, -242102.34, 84241.484, -0.25235853, -0.00996791, -42324.414, -42324.414, 0.0, 10.000228, 9.998209 
2.52775e+3, 3.1406873e+2, 422772.5, 237196.6, 98100.73, -0.46257916, -0.13659954, 465015.5, 465015.5, 0.0, 10.002565, 10.000346 
2.5448725e+3, 1.24585606e+2, -1495730.5, -1635795.0, -20619.664, 0.46757755, 0.17826563, -1492758.0, 226289.38, 0.31815657, 10.002201, 9.999639 
2.5444925e+3, 1.3457686e+2, -1450362.0, -1750154.5, -43101.99, -0.06332764, 0.11632516, -1444288.3, 176858.4, 0.22319712, 10.002439, 9.997827 
2.5441173e+3, 1.4456943e+2, -1214237.3, -1272930.0, 9223.594, -0.16239263, 0.1453932, -1212822.0, 310397.78, 0.12934339, 10.00178, 10.001035 
2.5437465e+3, 1.5456025e+2, -1294808.4, -1196053.3, -37077.254, 0.051525433, -0.30233106, -1183682.4, 241611.86, 0.05657354, 10.000133, 10.001493 
2.543372e+3, 1.6455325e+2, -1443927.0, -1461722.6, -123142.12, 0.00857057, -0.3462986, -1329361.6, -2004.9774, 0.016116831, 9.999394, 9.9993 
2.5429916e+3, 1.7454855e+2, -1229131.4, -1289726.5, -118007.92, -0.4739219, -0.14258315, -1137593.8, 91815.19, 0.0021455006, 10.000164, 9.999413 
2.5426158e+3, 1.8454157e+2, -1181348.9, -1334356.0, -45038.727, -0.52028346, -0.03203434, -1169075.8, -37594.332, 0.000046550977, 10.000293, 9.998397 
2.5422466e+3, 1.945315e+2, -1060759.3, -1190690.0, -73456.08, -0.05159789, -0.28034866, -1027661.94, 5919.3037, 0.0, 10.000352, 9.998647 
2.5418714e+3, 2.0452456e+2, -862179.94, -754970.5, -158975.53, 0.00050174736, -0.2644615, -640805.5, 294842.6, 0.0, 9.999814, 10.001214 
2.5414896e+3, 2.1452118e+2, -822445.3, -628011.5, -182850.5, -0.5390797, -0.1497018, -518140.44, 319537.53, 0.0, 9.999235, 10.001651 
2.541113e+3, 2.2451545e+2, -978204.5, -984104.0, -75873.18, -0.6280438, -0.04921413, -905223.75, -165490.17, 0.0, 9.998847, 9.998799 
2.540743e+3, 2.345066e+2, -768381.9, -788673.44, -75086.234, -0.194232, -0.2166548, -702759.06, -60936.188, 0.0, 9.999497, 9.99911 
2.540369e+3, 2.4449956e+2, -746516.5, -882545.25, -134562.8, -0.023033908, -0.06489222, -663755.9, -119857.98, 0.0, 9.999617, 9.997748 
2.5399902e+3, 2.5449407e+2, -602445.56, -714037.9, -106310.38, -0.26887652, 0.19287641, -538178.8, -92217.1, 0.0, 9.999782, 9.998101 
2.5396138e+3, 2.6448604e+2, -416112.16, -359852.97, -5005.6484, -0.38973597, 0.19563374, -359411.06, -11372.772, 0.0, 9.999415, 10.000093 
2.53924e+3, 2.7447495e+2, -246496.86, -142294.97, -5035.9424, -0.31694847, -0.37394708, -142052.16, 108078.29, 0.0, 9.999597, 10.000777 
2.538866e+3, 2.8446665e+2, -432140.25, -645192.94, -100167.61, -0.22597273, -0.38047385, -392442.75, -240235.11, 0.0, 9.999628, 9.99667 
2.5384894e+3, 2.9446074e+2, -225566.05, -452770.8, -103343.55, -0.20587246, -0.060175195, -185593.08, -131315.89, 0.0, 10.000234, 9.996992 
2.538117e+3, 3.044519e+2, -184796.16, -401479.34, 189917.22, -0.1797437, 0.06306002, -74490.88, -74490.88, 0.0, 10.000126, 9.997116 
2.5377467e+3, 3.144446e+2, 56128.297, 163000.44, 201228.1, -0.414902, 0.15123767, 317766.6, 317766.6, 0.0, 9.999813, 10.001106 
2.5548592e+3, 1.2495018e+2, -1644508.5, -1829542.3, 33443.53, -0.49052623, -0.7005505, -1638649.4, 76814.88, 0.29081753, 10.001402, 9.9983835 
2.554488e+3, 1.3494883e+2, -1405110.8, -1690361.8, 28031.766, -0.16024193, -0.04466732, -1402382.1, 215113.92, 0.2027681, 10.002718, 9.998069 
2.5541106e+3, 1.4494233e+2, -1266695.3, -1390364.6, -48653.566, -0.42424613, 0.11210276, -1249849.0, 269717.78, 0.11625642, 10.001864, 10.000017 
2.553739e+3, 1.5493548e+2, -1424348.9, -1386488.4, -87013.55, -0.030202664, 0.011656846, -1316369.8, 105258.57, 0.04988728, 9.999818, 10.000246 
2.5533652e+3, 1.6492845e+2, -1475948.8, -1413675.4, -95925.53, 0.056051355, 0.01222534, -1343959.6, -20267.404, 0.013707004, 9.998932, 9.999846 
2.5529876e+3, 1.7492098e+2, -1209677.8, -1202361.9, -62675.52, -0.21983701, -0.11821752, -1143237.6, 82524.66, 0.0016894786, 9.999976, 10.0001 
2.5526118e+3, 1.8491337e+2, -1151234.5, -1297240.6, -47924.098, -0.33913037, -0.112281784, -1136909.6, -9071.776, 0.000027889511, 10.000408, 9.998582 
2.5522387e+3, 1.9490503e+2, -1047277.75, -1180812.8, -40559.31, -0.19614647, -0.18712199, -1035923.8, -6000.1206, 0.0, 10.000428, 9.998675 
2.5518632e+3, 2.0489807e+2, -911809.44, -925662.2, -192723.84, -0.17198913, -0.110237055, -725887.56, 206105.06, 0.0, 10.000065, 9.99993 
2.5514844e+3, 2.148923e+2, -866226.4, -828419.0, -258019.38, -0.31936112, -0.07326839, -588611.75, 245434.14, 0.0, 9.99962, 10.000119 
2.5511077e+3, 2.2488557e+2, -880426.94, -851885.75, -190069.97, -0.3991753, -0.03980469, -675551.4, 60559.797, 0.0, 9.999116, 9.999579 
2.5507337e+3, 2.3487754e+2, -831436.5, -760129.9, -151372.27, -0.3477541, -0.17692779, -640268.8, -2076.8645, 0.0, 9.998759, 9.999679 
2.55036e+3, 2.4487132e+2, -606769.56, -559566.3, -138632.06, -0.21433792, -0.089921, -442541.16, 97714.984, 0.0, 9.999382, 10.000103 
2.549986e+3, 2.5486657e+2, -294825.03, -358105.06, -43692.28, -0.057951115, 0.05987279, -272519.66, 169787.66, 0.0, 10.000877, 10.00007 
2.5496107e+3, 2.6485986e+2, -197864.92, -330197.75, -12395.517, -0.09334443, 0.12434847, -196713.84, 147659.44, 0.0, 10.001136, 9.99951 
2.5492343e+3, 2.7485082e+2, -236266.25, -278094.53, -70209.47, -0.2335325, -0.08742981, -183922.16, 62533.61, 0.0, 10.000167, 9.999633 
2.548859e+3, 2.848428e+2, -126939.305, -372294.22, -82193.52, -0.29421687, -0.06798208, -101949.8, 46582.332, 0.0, 10.001035, 9.997916 
2.548484e+3, 2.948357e+2, 345036.78, -94428.64, -35230.254, -0.34320986, 0.06373713, 347843.13, 398447.72, 0.0, 10.00364, 9.997886 
2.548113e+3, 3.04825e+2, 284183.25, -115203.2, 116069.9, -0.13616443, -0.0745844, 315465.38, 315465.38, 0.0, 10.002919, 9.997809 
2.5477389e+3, 3.1481385e+2, -275488.4, -155911.84, 65977.71, -0.42259163, -0.3178755, -126662.51, -126662.51, 0.0, 9.997945, 9.999919 
2.5648534e+3, 1.2532806e+2, -1998298.6, -2021655.3, -154081.23, -0.38137022, -0.30765036, -1855453.8, -143686.25, 0.26403108, 9.998646, 9.998484 
2.5644824e+3, 1.3532263e+2, -1801768.3, -1892174.5, 15535.852, -0.12661378, -0.07113628, -1799173.0, -185339.61, 0.18292536, 9.999528, 9.998274 
2.564105e+3, 1.4531554e+2, -1526538.5, -1616076.9, -71239.07, -0.3527516, 0.068749316, -1487169.3, 28740.33, 0.1037245, 10.000228, 9.999171 
2.563732e+3, 1.5530919e+2, -1323925.4, -1471820.1, -121669.2, -0.07236973, 0.11271339, -1255494.4, 162478.02, 0.043632858, 10.001022, 9.999101 
2.5633582e+3, 1.6530232e+2, -1128846.8, -1148757.5, -19266.656, 0.08263176, 0.14324522, -1117115.4, 202920.13, 0.011545959, 10.000952, 10.0006695 
2.562983e+3, 1.7529428e+2, -1068805.9, -1075655.8, -13738.416, -0.02685279, -0.11214686, -1058071.9, 164034.03, 0.0013158798, 10.000731, 10.000581 
2.5626072e+3, 1.8528669e+2, -1147818.6, -1273302.9, -2136.513, -0.14168009, -0.12656681, -1147782.3, -23602.42, 0.000016496271, 10.000394, 9.998751 
2.5622317e+3, 1.9527942e+2, -1117930.5, -1223158.1, -17453.074, -0.2413102, -0.1046217, -1115111.3, -88853.88, 0.0, 9.999994, 9.998619 
2.561856e+3, 2.052719e+2, -985820.75, -1094683.8, -108288.26, -0.19184627, -0.0023781462, -919053.5, 9278.76, 0.0, 10.000199, 9.998699 
2.56148e+3, 2.1526393e+2, -773256.3, -938300.75, -142749.34, -0.06456755, -0.053906072, -690892.9, 139514.44, 0.0, 10.001001, 9.998697 
2.5611028e+3, 2.2525643e+2, -642843.3, -717258.75, -87918.24, -0.13463247, -0.013266638, -584583.6, 147897.02, 0.0, 10.000734, 9.999686 
2.5607246e+3, 2.3524894e+2, -725739.0, -689497.0, -125068.62, -0.4340999, -0.13399981, -581243.44, 53312.99, 0.0, 9.999453, 9.999801 
2.5603515e+3, 2.4524304e+2, -538602.9, -359345.75, -95065.1, -0.30172044, -0.086842574, -318319.6, 218295.19, 0.0, 9.999213, 10.001531 
2.5599822e+3, 2.5523823e+2, -304504.9, -197230.61, -115238.7, 0.17996387, -0.13203631, -123757.945, 314903.28, 0.0, 10.000188, 10.001481 
2.559608e+3, 2.6523316e+2, -431048.78, -584213.6, -150359.23, 0.24509944, 0.0862979, -338892.47, 1821.2787, 0.0, 10.000286, 9.998101 
2.559229e+3, 2.75227e+2, -342049.84, -484989.88, -125186.266, -0.11547057, 0.25088233, -269368.66, -26589.268, 0.0, 10.0002165, 9.998135 
2.5588524e+3, 2.852188e+2, -139432.55, -266866.2, 2777.2844, -0.39244702, 0.29153645, -139372.05, 5486.3286, 0.0, 10.000588, 9.998802 
2.5584778e+3, 2.952092e+2, 156296.69, -74495.08, 33595.32, -0.60038775, 0.025846284, 161087.56, 208032.53, 0.0, 10.001967, 9.998762 
2.558109e+3, 3.0519798e+2, 36504.266, -307132.8, -69530.97, -0.085439175, -0.16363792, 50039.89, 50039.89, 0.0, 10.00172, 9.996966 
2.557734e+3, 3.1518885e+2, -314142.6, -231437.83, -25435.08, -0.07645925, -0.2214008, -224241.66, -224241.66, 0.0, 9.998242, 9.999116 
2.5748453e+3, 1.2570691e+2, -1963528.5, -1757479.0, -107301.71, -0.44020507, 0.37502006, -1711749.8, -3671.8303, 0.23823552, 9.997949, 10.000565 
2.574477e+3, 1.3569725e+2, -1793046.0, -1749129.9, 37510.836, 0.037472732, 0.032000046, -1727622.8, -117454.484, 0.16394834, 9.9990635, 9.999423 
2.5741014e+3, 1.4568792e+2, -1648322.4, -1731703.1, -17298.5, -0.1346301, -0.068793856, -1644876.0, -132617.89, 0.09188186, 9.99969, 9.998604 
2.573725e+3, 1.5567942e+2, -1338001.8, -1512296.9, -37196.97, -0.22147888, -0.19081648, -1330395.4, 83946.2, 0.03784501, 10.00109, 9.998775 
2.5733504e+3, 1.6567364e+2, -1022348.2, -1002996.25, -24818.033, -0.20369643, -0.0774599, -986034.7, 330360.0, 0.009625426, 10.001329, 10.001467 
2.5729758e+3, 1.7566915e+2, -988352.5, -975997.7, 18750.77, -0.19989333, -0.044622596, -962432.94, 255999.73, 0.0010124295, 10.001031, 10.001115 
2.572601e+3, 1.8566293e+2, -1086250.1, -1182206.3, -8662.558, -0.18050678, 0.038469736, -1085474.4, 35019.39, 0.000009793076, 10.000555, 9.999286 
2.5722265e+3, 1.9565529e+2, -1075146.0, -1154632.1, 22143.488, -0.09258733, -0.0060660155, -1069393.5, -46819.996, 0.0, 10.000055, 9.999062 
2.5718513e+3, 2.0564678e+2, -870984.1, -1008719.1, 436.6617, -0.0842427, -0.03642108, -870982.75, 53672.285, 0.0, 10.0008135, 9.999002 
2.5714752e+3, 2.1563756e+2, -498117.13, -801663.06, 20163.574, -0.09766595, -0.20749214, -496783.56, 329955.47, 0.0, 10.002812, 9.998788 
2.5710985e+3, 2.2562939e+2, -417068.7, -745249.44, -65441.926, -0.13333479, -0.16940565, -404500.34, 324319.47, 0.0, 10.002798, 9.998515 
2.5707212e+3, 2.3562169e+2, -574572.7, -778517.2, -109381.9, -0.19658504, -0.14801742, -527003.2, 103897.97, 0.0, 10.001072, 9.998446 
2.570346e+3, 2.4561505e+2, -482450.88, -538287.94, -92422.484, -0.21011464, -0.016907403, -413822.22, 119149.56, 0.0, 10.000419, 9.999738 
2.5699732e+3, 2.556091e+2, -345367.63, -423415.78, -188373.77, -0.13565324, 0.04438954, -192018.23, 243016.84, 0.0, 10.00071, 9.999711 
2.5695992e+3, 2.6560286e+2, -132959.45, -173579.3, -241587.64, -0.0704357, 0.090881005, 89170.47, 426266.13, 0.0, 10.001086, 10.0005455 
2.5692242e+3, 2.7559593e+2, 3769.5593, -100708.305, -123509.39, -0.043579146, -0.016709639, 85633.11, 324792.06, 0.0, 10.001529, 10.000174 
2.5688487e+3, 2.8558913e+2, 63921.93, -75210.23, 23201.996, -0.23215772, 0.018658767, 67689.15, 208912.31, 0.0, 10.001486, 9.999705 
2.5684732e+3, 2.9558223e+2, 81634.69, -58737.293, 37446.47, -0.5521341, 0.0005354639, 90999.375, 134287.81, 0.0, 10.0011, 9.999331 
2.5681028e+3, 3.0557272e+2, 77683.125, -156417.56, -24451.207, -0.1846778, -0.11725304, 80209.73, 80209.73, 0.0, 10.001273, 9.998271 
2.567724e+3, 3.1556016e+2, 351478.56, 198810.27, 87945.78, -0.51892465, -0.5492959, 391597.7, 391597.7, 0.0, 10.002049, 10.000326 
2.584841e+3, 1.2608021e+2, -1482761.3, -1578656.3, 108615.88, -0.20923725, 0.42185763, -1411980.6, 292444.38, 0.21373183, 10.0016, 10.000329 
2.5844705e+3, 1.3607095e+2, -1542630.5, -1585395.4, -9553.923, 0.11662249, 0.055206515, -1540593.1, 65914.31, 0.14603193, 10.000475, 9.999971 
2.5840956e+3, 1.4606135e+2, -1527275.1, -1608238.3, 35983.73, 0.02167114, -0.13852379, -1513594.0, -4997.1855, 0.080827504, 10.000252, 9.99918 
2.5837195e+3, 1.5605254e+2, -1301702.5, -1469211.9, 36046.75, -0.20708421, -0.3151608, -1294274.9, 116406.03, 0.032553293, 10.001237, 9.999001 
2.5833437e+3, 1.6604689e+2, -1091322.5, -1089221.9, -13145.24, -0.28588274, -0.17637488, -1077085.1, 235649.16, 0.007938516, 10.001038, 10.001002 
2.5829685e+3, 1.7604339e+2, -1195966.4, -1132391.6, -97169.055, -0.28380767, -0.009548255, -1061942.6, 152823.03, 0.00076767127, 9.999837, 10.0006075 
2.5825948e+3, 1.8603766e+2, -1142136.5, -1190732.5, -113778.62, -0.14120877, 0.1325074, -1050090.4, 66732.43, 0.000005913737, 10.000137, 9.999411 
2.582222e+3, 1.9603002e+2, -953102.56, -1074228.8, -134858.7, 0.096763276, 0.04534417, -865832.1, 153069.2, 0.0, 10.000883, 9.999177 
2.5818467e+3, 2.0602123e+2, -862622.0, -996900.5, -80138.68, 0.09296236, -0.03614596, -825215.1, 95768.42, 0.0, 10.000852, 9.999057 
2.5814703e+3, 2.1601132e+2, -861231.2, -991565.56, -79387.195, -0.08520923, -0.31935275, -823689.6, -617.26, 0.0, 10.000388, 9.998649 
2.5810942e+3, 2.2600284e+2, -833040.8, -1041858.3, -163016.22, -0.067655675, -0.2607658, -743863.75, -18707.445, 0.0, 10.0005045, 9.997549 
2.5807178e+3, 2.3599501e+2, -739530.56, -979958.7, -142859.95, 0.06886328, -0.16760807, -673035.25, -45794.766, 0.0, 10.0006075, 9.997257 
2.5803405e+3, 2.4598782e+2, -627098.56, -834846.06, 11876.172, -0.096599124, 0.082467355, -626421.8, -97101.15, 0.0, 10.000522, 9.99761 
2.5799635e+3, 2.5598064e+2, -551382.06, -728606.5, -28338.754, -0.46993575, 0.21660161, -546960.9, -115559.04, 0.0, 10.000288, 9.997786 
2.57959e+3, 2.6597267e+2, -147243.9, 46531.414, -101436.08, -0.3762248, 0.09469903, 89916.69, 423391.6, 0.0, 10.00008, 10.002543 
2.579219e+3, 2.759641e+2, -122770.14, 51096.445, -90976.25, 0.02109438, -0.41526994, 89996.67, 325539.88, 0.0, 9.999851, 10.002003 
2.5788453e+3, 2.859593e+2, -137718.7, -116545.55, 8449.145, -0.012576464, -0.2817295, -113587.25, 24000.553, 0.0, 9.9999695, 10.000112 
2.578469e+3, 2.9595616e+2, -55585.55, -78831.36, 17073.043, -0.3998211, -0.0039712223, -46554.625, -6930.2295, 0.0, 10.000072, 9.99966 
2.5780946e+3, 3.059487e+2, 67509.68, 69453.99, -27260.25, -0.39473194, -0.029930733, 95759.414, 95759.414, 0.0, 10.000356, 10.000214 
2.5777242e+3, 3.1594384e+2, 183105.53, 307542.4, 123010.25, -0.04528183, 0.06926138, 383174.06, 383174.06, 0.0, 10.000283, 10.001884 
2.5948372e+3, 1.2645072e+2, -1617029.4, -1731825.8, 53974.03, -0.16299507, 0.039732646, -1595638.3, 105143.914, 0.19077115, 10.00101, 9.999319 
2.5944626e+3, 1.36444e+2, -1627143.6, -1683006.1, -21970.83, -0.071240865, 0.008561666, -1619537.9, -16688.875, 0.12932457, 10.0001335, 9.999425 
2.594089e+3, 1.4643635e+2, -1452699.5, -1396269.0, 69013.07, -0.06187512, -0.054152284, -1349926.3, 154993.84, 0.07062259, 10.000053, 10.000774 
2.5937155e+3, 1.5642974e+2, -1239343.8, -1326438.6, 110340.66, -0.09690689, -0.15895545, -1164268.1, 242710.89, 0.027766839, 10.001205, 10.000001 
2.5933388e+3, 1.6642252e+2, -1272358.8, -1433416.8, -51771.61, -0.23620293, -0.08108619, -1257152.6, 51896.555, 0.0064744665, 10.000922, 9.998671 
2.592961e+3, 1.7641495e+2, -1375377.5, -1466030.9, -110989.85, -0.3741402, -0.0794124, -1300815.6, -89689.7, 0.0005723583, 9.99964, 9.998426 
2.5925878e+3, 1.8640766e+2, -1153501.0, -1233866.8, -95440.32, -0.22199912, 0.021627666, -1090129.4, 23070.502, 0.0000035552432, 10.000213, 9.9990835 
2.5922164e+3, 1.9640005e+2, -846202.5, -1058294.3, -112113.945, 0.074086875, -0.012939787, -797926.44, 217350.64, 0.0, 10.001718, 9.998909 
2.5918415e+3, 2.0639262e+2, -737022.7, -858173.3, -187799.4, 0.09403447, 0.0054891286, -600270.94, 317077.75, 0.0, 10.0013685, 9.999766 
2.5914642e+3, 2.1638496e+2, -868649.2, -929072.9, -153689.42, -0.036936283, -0.08633683, -742230.3, 77189.55, 0.0, 9.999986, 9.99931 
2.5910875e+3, 2.2637752e+2, -740950.7, -796148.25, -149110.34, -0.08501301, -0.05872895, -616906.56, 104584.805, 0.0, 10.000233, 9.999368 
2.5907108e+3, 2.3637001e+2, -475718.5, -683760.8, -54083.594, -0.07367541, -0.08060799, -462498.72, 161066.83, 0.0, 10.00161, 9.998827 
2.590335e+3, 2.4636242e+2, -341764.66, -566397.9, 79656.125, -0.16349421, -0.0045878137, -316385.5, 209258.44, 0.0, 10.001824, 9.998851 
2.5899592e+3, 2.5635457e+2, -348810.3, -542670.3, 134881.98, -0.33094355, -0.006524878, -279642.22, 148084.5, 0.0, 10.00119, 9.998665 
2.5895846e+3, 2.663468e+2, -245922.33, -222925.72, 11803.93, -0.29914138, -0.02990249, -217945.44, 111856.58, 0.0, 10.000306, 10.0006 
2.5892106e+3, 2.7633888e+2, -317928.9, -248504.78, -74932.914, -0.08767153, -0.22323355, -200634.34, 31239.258, 0.0, 9.999292, 10.000259 
2.5888377e+3, 2.8633353e+2, -228142.94, -165356.2, -19413.424, -0.058367793, -0.074561775, -159838.55, -25910.672, 0.0, 9.999284, 10.00013 
2.5884637e+3, 2.9632938e+2, -83278.36, -104591.234, -62056.918, -0.24785092, 0.13365033, -30969.563, 5006.0063, 0.0, 9.999802, 9.999661 
2.588089e+3, 3.0632144e+2, 84298.84, 60687.207, -195666.45, -0.31467044, 0.055246513, 268515.3, 268515.3, 0.0, 10.000434, 10.000177 
2.587716e+3, 3.1631306e+2, -105671.4, -371777.97, -16396.395, -0.2295388, -0.14511882, -104664.92, -104664.92, 0.0, 10.000461, 9.997192 
2.6048318e+3, 1.268229e+2, -1689643.6, -1831462.4, -83570.2, -0.10285199, -0.21717831, -1650953.3, 46177.293, 0.16949552, 10.000641, 9.998819 
2.604455e+3, 1.368177e+2, -1542862.5, -1639240.4, -14809.435, -0.14300716, -0.07756282, -1540638.3, 58545.094, 0.11391175, 10.000753, 9.999438 
2.604082e+3, 1.4681152e+2, -1299729.1, -1298827.9, 112501.38, -0.113909505, -0.0065533835, -1186776.3, 314465.22, 0.061296463, 10.001057, 10.000977 
2.603711e+3, 1.5680578e+2, -1182847.8, -1318908.8, 10586.833, -0.017164595, -0.043151047, -1182028.9, 221263.52, 0.023481611, 10.001669, 9.999827 
2.6033336e+3, 1.6679737e+2, -1181403.8, -1513996.5, -132013.7, -0.15899974, -0.025789633, -1135374.6, 170000.52, 0.005220199, 10.002057, 9.997619 
2.6029542e+3, 1.7678729e+2, -1140549.3, -1491678.8, -100049.984, -0.36775583, -0.14826193, -1114042.4, 93434.89, 0.00041937284, 10.00183, 9.997236 
2.6025814e+3, 1.8677884e+2, -1016429.06, -1205626.0, 47982.703, -0.22977248, -0.088198565, -1004955.8, 104606.77, 0.0000020172258, 10.0013275, 9.998726 
2.602211e+3, 1.9677095e+2, -1048890.0, -1213087.4, -4309.7617, 0.075697474, -0.10797769, -1048776.9, -37135.137, 0.0, 10.000581, 9.998384 
2.601836e+3, 2.0676441e+2, -856693.94, -896720.4, -136577.7, 0.12089269, 0.02695932, -738670.94, 175036.69, 0.0, 10.000535, 9.999877 
2.601458e+3, 2.1675846e+2, -856484.3, -891730.9, -162754.7, 0.041994102, 0.07939482, -710401.56, 105365.95, 0.0, 10.000036, 9.999504 
2.6010808e+3, 2.2675206e+2, -648723.4, -586993.94, -106950.59, -0.081451155, 0.122933894, -506543.5, 211283.11, 0.0, 10.000173, 10.000832 
2.6007038e+3, 2.3674493e+2, -619031.44, -612406.06, -76623.1, -0.1996717, -0.030272132, -539024.06, 80866.74, 0.0, 10.000059, 10.000055 
2.6003292e+3, 2.4673724e+2, -497472.22, -506972.84, -7667.1333, -0.18100917, -0.08355003, -493203.1, 28761.531, 0.0, 10.000252, 10.000001 
2.5999552e+3, 2.5672904e+2, -502241.0, -571414.0, -8804.613, -0.105586946, -0.2654455, -501137.9, -77092.0, 0.0, 10.000004, 9.999034 
2.599579e+3, 2.6672187e+2, -406045.47, -592547.06, -77746.836, -0.15600595, -0.09639901, -377886.7, -51766.523, 0.0, 10.000579, 9.997896 
2.5992018e+3, 2.767148e+2, -299890.66, -542445.2, -76754.25, -0.23152308, 0.041938648, -277643.06, -49448.133, 0.0, 10.000816, 9.997485 
2.5988296e+3, 2.8670818e+2, -142256.78, -195346.78, 29117.053, -0.14313097, 0.23415026, -129400.77, 865.31415, 0.0, 10.000269, 9.999431 
2.5984585e+3, 2.9670182e+2, -294866.72, -324127.2, -33444.617, -0.07899186, 0.27201152, -272992.34, -240657.3, 0.0, 9.9989805, 9.998523 
2.5980836e+3, 3.0669177e+2, -82492.414, -169006.28, -146579.67, -0.22124474, 0.11613071, 27079.846, 27079.846, 0.0, 10.000095, 9.998684 
2.597711e+3, 3.1668362e+2, 77349.125, 186061.11, 151417.97, -0.13771887, 0.041078415, 292583.88, 292583.88, 0.0, 9.999888, 10.001247 
2.6148283e+3, 1.271984e+2, -1621895.1, -1509624.0, -82761.414, 0.09648386, -0.032966107, -1465756.4, 227696.98, 0.14988421, 9.999869, 10.001571 
2.6144487e+3, 1.3719203e+2, -1524598.0, -1563910.3, 31405.568, -0.22969483, -0.18300118, -1507204.5, 88304.37, 0.09979623, 10.000621, 10.000024 
2.614075e+3, 1.471858e+2, -1421945.1, -1528242.6, 147506.19, -0.2826545, -0.032026738, -1318304.6, 179266.45, 0.05285716, 10.000988, 9.999352 
2.6137048e+3, 1.5717924e+2, -1286894.5, -1531372.1, 43945.402, -0.17640278, 0.02364554, -1279235.1, 120404.21, 0.019694533, 10.001635, 9.998386 
2.6133284e+3, 1.6717069e+2, -1047371.8, -1280713.5, -125454.875, -0.26909915, 0.0038953112, -992721.25, 308999.7, 0.004163879, 10.002279, 9.999087 
2.6129496e+3, 1.7716105e+2, -961817.9, -1285518.9, -48287.566, -0.4552623, -0.20893195, -954768.2, 249043.3, 0.00030229846, 10.002563, 9.998278 
2.6125756e+3, 1.8715271e+2, -919107.7, -1148821.8, 40402.543, -0.32173648, -0.183237, -912208.8, 193683.63, 0.0000010444409, 10.001924, 9.998834 
2.612204e+3, 1.9714464e+2, -1049991.6, -1251783.0, 33172.938, -0.06786674, -0.20098013, -1044678.2, -36706.082, 0.0, 10.000654, 9.998108 
2.611828e+3, 2.0713708e+2, -892841.0, -1028445.75, -82091.79, -0.05191214, -0.095142335, -854171.7, 55878.813, 0.0, 10.00074, 9.998879 
2.6114506e+3, 2.1712975e+2, -718038.25, -910390.8, -114572.24, -0.15964411, -0.05824085, -664626.2, 147501.73, 0.0, 10.001289, 9.99878 
2.611074e+3, 2.271235e+2, -479543.72, -459667.22, -128376.65, -0.1816768, -0.0036624714, -340844.72, 373340.7, 0.0, 10.001045, 10.001318 
2.6106977e+3, 2.3711738e+2, -560108.6, -567062.7, -96924.266, -0.17093815, -0.07254403, -466599.06, 149638.86, 0.0, 10.000256, 10.000319 
2.6103228e+3, 2.4711043e+2, -527721.2, -548891.94, -67886.71, -0.16116974, -0.05838538, -469599.53, 48707.848, 0.0, 10.000105, 9.999798 
2.6099485e+3, 2.5710285e+2, -427405.03, -545613.94, -83063.51, -0.15834457, -0.12691572, -384564.0, 35822.254, 0.0, 10.000443, 9.999036 
2.6095745e+3, 2.6709586e+2, -29536.986, -253554.95, -50692.02, -0.13978355, -0.042094484, -18600.074, 303856.6, 0.0, 10.002396, 9.999378 
2.6092002e+3, 2.770889e+2, 378197.5, -106592.06, 32167.588, -0.112236574, 0.008658255, 380322.63, 604848.4, 0.0, 10.004881, 9.998554 
2.608825e+3, 2.8708178e+2, 272360.8, -77929.01, 30832.781, -0.17404826, 0.1489281, 275054.03, 401655.16, 0.0, 10.003405, 9.998747 
2.6084492e+3, 2.9707474e+2, -139332.39, -313974.5, 22637.928, -0.31118548, 0.2403345, -136445.67, -107768.1, 0.0, 10.0002365, 9.998013 
2.6080772e+3, 3.0706418e+2, 91112.72, -87764.8, 96619.94, -0.27132815, 0.056813456, 133335.28, 133335.28, 0.0, 10.001135, 9.998785 
2.607707e+3, 3.170587e+2, 378052.88, 57342.84, -29096.814, -0.0668115, 0.28902012, 380671.34, 380671.34, 0.0, 10.002913, 9.998927 
2.6248217e+3, 1.2757282e+2, -1545977.0, -1458616.6, -48299.305, 0.071944386, 0.009226036, -1437175.5, 252609.89, 0.13183987, 10.000369, 10.001683 
2.6244438e+3, 1.3756594e+2, -1403685.8, -1504797.6, -103232.195, -0.12781276, -0.19559868, -1339294.8, 252549.72, 0.08692974, 10.001486, 10.000055 
2.6240695e+3, 1.475596e+2, -1460625.3, -1629901.1, 46956.164, -0.2438523, -0.036047723, -1448472.4, 45437.797, 0.045284748, 10.000936, 9.998715 
2.623698e+3, 1.575529e+2, -1582055.9, -1710287.8, 21224.807, -0.24378131, 0.075915314, -1578634.1, -182650.31, 0.01638905, 9.999679, 9.998142 
2.6233226e+3, 1.6754454e+2, -1284546.3, -1299799.4, -78261.94, -0.2929592, 0.026091956, -1213540.1, 84521.34, 0.0032885466, 10.000234, 9.999949 
2.6229456e+3, 1.7753538e+2, -1125226.9, -1293503.0, -73947.85, -0.36715674, -0.22051014, -1097349.3, 102793.04, 0.00021471751, 10.001115, 9.998945 
2.6225707e+3, 1.8752739e+2, -980630.25, -1142680.3, -8485.144, -0.3065155, -0.21351585, -980187.2, 122030.16, 0.00000047553752, 10.001326, 9.999175 
2.6221967e+3, 1.9751981e+2, -1080194.8, -1281797.1, -2227.5386, -0.15782642, -0.21790756, -1080170.1, -75879.195, 0.0, 10.000549, 9.997953 
2.6218206e+3, 2.0751123e+2, -919775.56, -1143333.4, -3350.0413, -0.17636861, -0.14737312, -919725.4, -13345.282, 0.0, 10.001006, 9.99796 
2.6214436e+3, 2.1750224e+2, -806919.44, -1052442.6, -32855.938, -0.26003912, -0.1892373, -802598.7, 5876.4883, 0.0, 10.0011425, 9.997881 
2.6210675e+3, 2.2749564e+2, -491842.66, -476059.7, -91609.84, -0.2151961, -0.119974285, -392002.06, 318534.44, 0.0, 10.001102, 10.001145 
2.6206917e+3, 2.3748991e+2, -658043.5, -666050.44, -123632.05, -0.09443682, -0.1460303, -538350.06, 74235.13, 0.0, 9.999926, 9.999769 
2.6203164e+3, 2.4748363e+2, -606812.1, -633497.2, -32794.73, -0.1254143, -0.009497408, -584749.56, -70098.51, 0.0, 9.999859, 9.999293 
2.6199415e+3, 2.5747675e+2, -621474.2, -672558.4, -18887.572, -0.20564514, 0.024932943, -615249.4, -198522.19, 0.0, 9.999359, 9.998657 
2.61957e+3, 2.6746985e+2, -188859.1, -132896.53, 59069.734, -0.09736356, 0.03342505, -95515.85, 223276.94, 0.0, 10.000501, 10.001084 
2.6191995e+3, 2.7746284e+2, -72910.234, -236699.5, 37359.266, 0.0841101, -0.11816195, -64791.285, 156064.53, 0.0, 10.001487, 9.999264 
2.6188207e+3, 2.874554e+2, -68496.06, -312040.56, -107582.9, -0.23809096, 0.009285074, -27779.666, 95152.73, 0.0, 10.001489, 9.998012 
2.6184386e+3, 2.9744747e+2, -274439.34, -485230.47, -32409.691, -0.72139335, 0.059195, -269568.8, -244551.34, 0.0, 9.999871, 9.996993 
2.6180717e+3, 3.074383e+2, 51218.332, -46907.473, 178538.4, -0.23422378, 0.0325567, 187312.48, 187312.48, 0.0, 10.000721, 9.99923 
2.6177013e+3, 3.1742707e+2, 114883.32, -86180.05, -43057.207, -0.28866705, -0.38146174, 123715.91, 123715.91, 0.0, 10.0014, 9.998632 
2.6348126e+3, 1.2794772e+2, -1789103.9, -1785657.0, -34959.953, -0.26420945, 0.15244472, -1752378.0, -66266.234, 0.11528824, 9.999672, 9.999502 
2.634441e+3, 1.3793838e+2, -1540405.3, -1729030.0, -66458.16, 0.0683593, -0.116710685, -1519342.1, 68859.56, 0.07524984, 10.001173, 9.998611 
2.6340652e+3, 1.4793225e+2, -1417938.9, -1444327.0, -7913.488, -0.13728592, 0.027615856, -1415747.6, 74518.23, 0.038529176, 10.000575, 10.000147 
2.6336893e+3, 1.579266e+2, -1567771.6, -1578717.1, 23912.889, -0.42666182, 0.09756704, -1548713.3, -156386.52, 0.013527696, 9.999279, 9.999219 
2.6333156e+3, 1.679187e+2, -1316645.6, -1306116.0, -29374.03, -0.3180113, 0.050226375, -1281538.6, 12860.603, 0.0025719018, 9.999982, 10.000027 
2.6329425e+3, 1.7791007e+2, -1127235.6, -1255747.3, -17110.477, -0.14505231, -0.15032828, -1124996.5, 71478.84, 0.00015054179, 10.000915, 9.999301 
2.6325658e+3, 1.8790342e+2, -914684.8, -999668.25, -20609.916, -0.26082465, -0.090223484, -909950.3, 188587.16, 0.0000001940375, 10.001293, 10.000174 
2.632188e+3, 1.9789706e+2, -947771.4, -1120858.4, 32399.6, -0.4730457, -0.059959445, -941905.4, 58692.906, 0.0, 10.000982, 9.998865 
2.6318136e+3, 2.0788865e+2, -818881.44, -1032730.1, 52113.473, -0.34046555, -0.042125102, -806857.8, 95824.125, 0.0, 10.001445, 9.998493 
2.6314402e+3, 2.1787944e+2, -647976.9, -977331.5, 62636.188, -0.15737978, -0.1328357, -636467.06, 168307.14, 0.0, 10.002184, 9.997904 
2.6310626e+3, 2.278706e+2, -490908.16, -695703.5, -72248.33, -0.20334013, -0.16312577, -467985.84, 238873.66, 0.0, 10.002006, 9.999222 
2.6306838e+3, 2.3786226e+2, -506534.13, -703704.7, -116060.85, -0.3151982, -0.24633268, -452839.47, 156099.06, 0.0, 10.001353, 9.998847 
2.6303098e+3, 2.4785608e+2, -427332.72, -457820.03, -36736.71, -0.1439181, -0.122666635, -402802.56, 108197.9, 0.0, 10.000637, 10.000145 
2.6299372e+3, 2.578504e+2, -499295.25, -526522.4, 38158.914, 0.074109904, -0.030268285, -472394.22, -59334.793, 0.0, 9.999737, 9.99949 
2.6295647e+3, 2.6784328e+2, -423973.1, -326357.13, 72920.29, 0.09871276, -0.036685515, -287417.8, 27708.662, 0.0, 9.999128, 10.000463 
2.6291925e+3, 2.778357e+2, -487624.5, -448710.2, -1635.954, 0.07483283, -0.15764591, -448641.53, -231445.83, 0.0, 9.998549, 9.999264 
2.6288146e+3, 2.8782788e+2, -230909.17, -318375.8, -110795.375, -0.17012414, -0.12577836, -155528.17, -36254.69, 0.0, 9.999922, 9.998773 
2.6284352e+3, 2.9781988e+2, 89312.65, -208117.97, 6397.9263, -0.506666, -0.13336022, 89450.2, 110805.78, 0.0, 10.001774, 9.998028 
2.6280677e+3, 3.078128e+2, 190853.34, -38436.82, 171298.22, -0.12798171, 0.02435754, 282330.97, 282330.97, 0.0, 10.001799, 9.998855 
2.6277006e+3, 3.1780413e+2, 204983.94, 168348.95, -160220.17, 0.20188782, -0.019400852, 347930.3, 347930.3, 0.0, 10.000858, 10.00075 
2.6448077e+3, 1.2832075e+2, -1482553.9, -1691916.6, -39533.74, -0.18025915, 0.063971065, -1475337.5, 207119.86, 0.10017185, 10.002037, 9.999102 
2.644436e+3, 1.3831241e+2, -1644723.3, -1788215.0, 11070.469, 0.1973718, -0.034697413, -1643874.1, -59333.676, 0.06469282, 10.000426, 9.998579 
2.64406e+3, 1.483063e+2, -1415254.9, -1427132.9, 37082.516, -0.04669811, 0.10156528, -1383638.8, 102966.305, 0.032530583, 10.000516, 10.000289 
2.6436824e+3, 1.583004e+2, -1339683.0, -1428094.3, -39757.4, -0.41903567, 0.13373862, -1324434.6, 64233.188, 0.011066901, 10.000664, 9.999586 
2.6433095e+3, 1.682931e+2, -1087301.8, -1120400.1, 670.72034, -0.28458866, 0.07331373, -1087288.1, 203444.86, 0.0019930317, 10.001205, 10.000715 
2.6429376e+3, 1.7828535e+2, -1064858.0, -1199702.4, 21727.555, -0.017669618, -0.091103375, -1061443.5, 131356.69, 0.00010503105, 10.001195, 9.999578 
2.64256e+3, 1.8827927e+2, -908266.3, -932492.0, -16973.898, -0.23368725, -0.012401952, -899526.5, 195330.63, 0.00000008640195, 10.001186, 10.000613 
2.642181e+3, 1.9827354e+2, -971635.5, -1102993.4, -43339.6, -0.5663061, 0.03176816, -958624.9, 38287.383, 0.0, 10.000774, 9.99906 
2.641808e+3, 2.0826556e+2, -735961.44, -933291.8, 17831.307, -0.3418448, 0.04277348, -734363.06, 164625.61, 0.0, 10.001761, 9.999037 
2.6414374e+3, 2.1825668e+2, -711437.8, -1062474.9, -17737.59, 0.049383298, -0.06855767, -710543.8, 90530.15, 0.0, 10.001992, 9.997437 
2.6410577e+3, 2.282462e+2, -656758.94, -968570.4, -119722.766, -0.15259695, -0.14161809, -616093.75, 87083.98, 0.0, 10.001728, 9.997457 
2.6406762e+3, 2.3823555e+2, -775955.06, -987216.9, -118332.13, -0.4765271, -0.30603004, -722965.7, -117682.12, 0.0, 10.000209, 9.997453 
2.6403037e+3, 2.482292e+2, -352716.47, -359017.06, -62573.652, -0.13606963, -0.18653332, -293213.88, 214129.95, 0.0, 10.000936, 10.000661 
2.6399335e+3, 2.5822395e+2, -378083.75, -501236.38, -57579.316, 0.3803819, -0.11624001, -355356.9, 54035.61, 0.0, 10.000775, 9.999167 
2.6395592e+3, 2.682163e+2, -332273.8, -391101.9, -24004.994, 0.2771487, -0.10158352, -323721.75, -12257.984, 0.0, 10.000338, 9.999391 
2.6391834e+3, 2.782079e+2, -548556.6, -587107.06, -60176.906, 0.011992224, -0.23044632, -504643.28, -291100.4, 0.0, 9.998711, 9.998225 
2.6388088e+3, 2.881998e+2, -190037.11, -184837.58, -87763.31, -0.04886571, -0.25119904, -99635.53, 15984.467, 0.0, 9.999811, 9.9997015 
2.6384342e+3, 2.981922e+2, -70843.42, -260815.8, -5414.9233, -0.107225545, -0.33145574, -70689.2, -52995.76, 0.0, 10.000678, 9.998175 
2.6380622e+3, 3.0818704e+2, 90615.15, -148366.27, 96564.625, -0.1669403, 0.028552173, 124756.33, 124756.33, 0.0, 10.001515, 9.998152 
2.6376924e+3, 3.1817386e+2, -291763.7, -705003.25, 57592.336, -0.051270172, -0.38336983, -283887.28, -283887.28, 0.0, 10.000368, 9.994914 
2.6548055e+3, 1.2869227e+2, -1494343.8, -1502785.1, -111691.64, 0.027910149, -0.15673535, -1386793.1, 292025.13, 0.086430125, 10.001167, 10.000861 
2.6544285e+3, 1.386883e+2, -1673435.1, -1757629.6, 36165.668, 0.036651835, 0.010194852, -1660033.4, -79176.57, 0.055199515, 10.000059, 9.9989605 
2.654053e+3, 1.4868158e+2, -1561647.1, -1674479.5, 88804.94, -0.11886039, 0.1822206, -1512853.5, -29924.908, 0.027235242, 10.000311, 9.998655 
2.653678e+3, 1.5867391e+2, -1359503.3, -1479269.8, 22178.016, -0.31860727, 0.18200083, -1355528.4, 29481.49, 0.0089680515, 10.000714, 9.999205 
2.6533034e+3, 1.6866773e+2, -928945.4, -817793.6, 31386.002, -0.38071477, 0.10888129, -809543.5, 477517.53, 0.0015322798, 10.001387, 10.002676 
2.6529288e+3, 1.7866151e+2, -968109.44, -1060215.0, 67149.29, -0.4142763, -0.066819385, -932738.1, 256371.5, 0.00007382683, 10.001458, 10.000404 
2.6525533e+3, 1.8865408e+2, -959236.7, -1098776.1, -7874.009, -0.36322793, -0.06280514, -958793.75, 132387.53, 0.000000036839044, 10.001432, 9.999357 
2.652178e+3, 1.9864647e+2, -933777.94, -1146410.6, -22413.627, -0.3399203, -0.084262915, -931441.0, 61816.387, 0.0, 10.001256, 9.998534 
2.6518056e+3, 2.0863926e+2, -629441.25, -836019.94, 30309.783, -0.14271569, -0.011270675, -625085.94, 270241.78, 0.0, 10.002289, 9.999443 
2.6514336e+3, 2.1863191e+2, -489999.78, -903768.9, -25825.852, 0.045303386, 0.0008737009, -488394.06, 309005.13, 0.0, 10.003226, 9.99794 
2.6510528e+3, 2.2862272e+2, -556098.6, -902116.7, -175778.06, -0.16965243, 0.020745074, -482470.2, 217021.6, 0.0, 10.002282, 9.997667 
2.6506704e+3, 2.3861304e+2, -655985.9, -953845.75, -74280.92, -0.47392282, -0.041553847, -638489.3, -36899.63, 0.0, 10.001026, 9.9973135 
2.6502976e+3, 2.486043e+2, -279241.16, -523732.56, 2855.8567, -0.24504766, -0.041025106, -279207.8, 224465.72, 0.0, 10.002219, 9.998951 
2.649927e+3, 2.5859603e+2, -5904.7466, -441251.72, -73208.2, 0.0960412, -0.08328151, 6076.264, 411827.2, 0.0, 10.003734, 9.998181 
2.6495516e+3, 2.6858726e+2, -1631.8788, -299806.16, -138005.97, -0.0106281275, -0.12724657, 52437.633, 360268.94, 0.0, 10.002822, 9.998848 
2.6491752e+3, 2.785783e+2, -144613.3, -360625.25, -141791.36, -0.18993393, -0.24927026, -74377.64, 135535.06, 0.0, 10.001223, 9.998601 
2.6488024e+3, 2.885694e+2, 51440.68, -46184.098, -126618.28, -0.078630485, -0.4014124, 138329.58, 250326.44, 0.0, 10.001226, 10.000054 
2.6484296e+3, 2.9856142e+2, 106676.79, -120762.625, -67539.74, -0.01068136, -0.5257193, 125221.164, 139294.14, 0.0, 10.001504, 9.998785 
2.6480588e+3, 3.0855915e+2, 166913.27, -109119.14, 8733.173, -0.011831834, 0.08568402, 167189.3, 167189.3, 0.0, 10.001889, 9.998302 
2.6476854e+3, 3.1854814e+2, 51509.79, -207896.13, -59595.836, -0.21109596, -0.13385177, 64546.176, 64546.176, 0.0, 10.001072, 9.998052 
2.6648003e+3, 1.2906757e+2, -1755697.6, -1569210.0, -35452.19, 0.19103879, -0.09312586, -1562697.8, 112448.37, 0.07399981, 9.998915, 10.001416 
2.6644218e+3, 1.3906433e+2, -1228258.5, -1523719.0, -39736.63, -0.06594606, 0.108530805, -1223007.6, 354166.22, 0.046711504, 10.003107, 9.999129 
2.664047e+3, 1.490564e+2, -1280438.9, -1565930.6, 72665.336, -0.15268074, 0.16808316, -1263007.9, 216246.27, 0.022592498, 10.002385, 9.998431 
2.6636735e+3, 1.5904768e+2, -1400407.9, -1505749.8, 86105.34, -0.1678127, 0.096595176, -1352141.5, 29201.775, 0.0071954923, 10.000428, 9.999199 
2.663298e+3, 1.690421e+2, -1083873.8, -882242.4, 25568.951, -0.32881483, 0.078391835, -879050.5, 404338.63, 0.001170623, 10.00024, 10.002817 
2.662922e+3, 1.7903692e+2, -1214998.1, -1222100.0, -88052.125, -0.46841502, -0.012257844, -1130425.4, 55003.582, 0.00005271245, 9.999975, 10.000015 
2.6625484e+3, 1.8902785e+2, -1058503.5, -1283644.4, -137837.16, -0.3176213, -0.09512041, -993109.94, 94407.29, 0.000000014947995, 10.0013, 9.998188 
2.6621753e+3, 1.9901846e+2, -901882.2, -1214274.3, -134953.88, -0.06427079, -0.19753595, -851656.94, 137954.52, 0.0, 10.001857, 9.997799 
2.6618022e+3, 2.0901221e+2, -670936.94, -796611.9, -39356.797, 0.002069363, -0.059616026, -659629.2, 232044.58, 0.0, 10.00184, 9.999874 
2.661429e+3, 2.1900634e+2, -842884.8, -1065367.6, -130760.73, 0.028845314, 0.046299577, -782449.2, 11282.996, 0.0, 10.000883, 9.997917 
2.6610482e+3, 2.2899848e+2, -545518.5, -838724.7, -267495.53, -0.14889948, 0.15645288, -387086.63, 308725.97, 0.0, 10.002204, 9.998077 
2.6606664e+3, 2.3898987e+2, -510066.1, -953304.4, -133940.19, -0.3344471, 0.15467604, -472735.4, 125165.22, 0.0, 10.002431, 9.996616 
2.6602924e+3, 2.4897939e+2, -321211.28, -724257.44, 43882.72, -0.30839127, 0.10742656, -316488.75, 183513.97, 0.0, 10.002784, 9.997283 
2.6599202e+3, 2.5896844e+2, -394320.75, -803680.9, -20316.658, -0.23668149, -0.048438694, -393314.88, 8792.352, 0.0, 10.001939, 9.996536 
2.659544e+3, 2.6895875e+2, -194369.44, -419139.94, -106246.164, -0.31642032, -0.10661078, -152098.0, 152096.19, 0.0, 10.001775, 9.998452 
2.659168e+3, 2.7894923e+2, -306604.2, -498773.3, -72421.086, -0.36462128, -0.25638315, -282368.1, -76089.62, 0.0, 10.000524, 9.997946 
2.658796e+3, 2.8893924e+2, -22586.127, -55489.047, -50782.105, -0.14588602, -0.5056659, 14342.866, 122716.336, 0.0, 10.000774, 10.000121 
2.6584244e+3, 2.9893038e+2, -164019.14, -305336.28, -12005.311, -0.021839665, -0.72514695, -163006.52, -152547.81, 0.0, 10.00005, 9.998172 
2.658056e+3, 3.08931e+2, 17669.672, -154439.08, 65063.547, 0.20986444, 0.18528022, 39497.734, 39497.734, 0.0, 10.000883, 9.998398 
2.6576748e+3, 3.1891918e+2, 265693.63, 615392.4, -366263.03, -0.67710006, -0.2883199, 846401.25, 846401.25, 0.0, 9.999643, 10.004342 
2.674792e+3, 1.2944582e+2, -1927384.9, -1714540.9, 114994.39, 0.07507764, 0.30592826, -1664280.5, 7168.6655, 0.062782034, 9.998183, 10.000679 
2.6744166e+3, 1.3943924e+2, -1268342.0, -1539469.3, 50344.113, -0.30522665, 0.21941604, -1259295.8, 314208.72, 0.039146993, 10.00284, 9.999135 
2.6740414e+3, 1.4942989e+2, -1181012.5, -1318531.5, 7140.32, -0.28796667, 0.01175049, -1180642.8, 294946.28, 0.018543638, 10.002275, 10.000168 
2.6736674e+3, 1.5942046e+2, -1444663.3, -1551835.1, 83244.92, -0.17823394, -0.2596757, -1399248.3, -21572.268, 0.005710664, 10.000242, 9.998967 
2.6732934e+3, 1.6941477e+2, -1317751.3, -1313735.3, 23135.83, -0.115385935, -0.079900384, -1292520.5, -12789.738, 0.0008890518, 10.000029, 9.99993 
2.6729193e+3, 1.7940925e+2, -1358617.5, -1503592.1, -74024.4, -0.11581132, 0.06744891, -1327499.8, -145715.81, 0.000037964888, 9.999901, 9.998103 
2.6725453e+3, 1.8939863e+2, -1057494.9, -1332830.0, -112866.64, -0.11386038, -0.083311856, -1017142.1, 66744.28, 0.0000000057994387, 10.001524, 9.997744 
2.672171e+3, 1.9938785e+2, -751976.5, -1103052.6, -135814.06, -0.1252094, -0.29403943, -705570.7, 280420.34, 0.0, 10.002682, 9.998171 
2.6717958e+3, 2.0938256e+2, -594328.3, -670107.6, -112820.29, -0.20118009, -0.13176727, -513205.22, 374838.34, 0.0, 10.001956, 10.000705 
2.6714203e+3, 2.1937777e+2, -741571.6, -911630.5, -143838.44, -0.29119244, 0.00947995, -659509.75, 130581.88, 0.0, 10.001043, 9.998914 
2.671044e+3, 2.2936948e+2, -376248.34, -694959.25, -208325.9, -0.14151025, 0.001994061, -273318.0, 418856.6, 0.0, 10.003031, 9.998705 
2.6706675e+3, 2.3936062e+2, -30034.996, -616253.56, -114605.75, -0.016483145, -0.06870298, -8426.1045, 585837.0, 0.0, 10.005175, 9.997635 
2.670291e+3, 2.4935235e+2, -74158.234, -514842.22, 690.6149, -0.15259929, 0.013952726, -74157.15, 422187.4, 0.0, 10.004011, 9.998166 
2.6699147e+3, 2.5934392e+2, -274392.25, -617905.5, 24593.654, -0.33818543, 0.042749964, -272640.44, 125786.055, 0.0, 10.002096, 9.997766 
2.6695395e+3, 2.6933473e+2, -135609.13, -330676.66, 5845.9834, -0.28306183, -0.034817837, -135434.08, 165075.56, 0.0, 10.001839, 9.999064 
2.6691648e+3, 2.7932528e+2, -95977.82, -373308.03, 62371.082, -0.16224602, -0.19076407, -82596.34, 119998.56, 0.0, 10.001773, 9.998213 
2.668791e+3, 2.8931552e+2, -84465.62, -235236.08, 35726.387, -0.068237826, -0.31701007, -76428.38, 28261.957, 0.0, 10.000948, 9.99883 
2.668417e+3, 2.993066e+2, -141538.55, -267964.34, 64603.703, -0.10048873, -0.40900686, -114366.12, -107587.23, 0.0, 9.99997, 9.998497 
2.6680472e+3, 3.0930412e+2, 42326.74, 3299.103, 203623.48, -0.06978208, 0.100267746, 227369.3, 227369.3, 0.0, 10.000319, 9.999806 
2.6676697e+3, 3.19293e+2, 487075.78, 653262.56, -348057.03, -0.5669504, -0.36075604, 928007.44, 928007.44, 0.0, 10.001217, 10.003907 
2.6847845e+3, 1.298202e+2, -1523458.8, -1512185.9, 197779.55, 0.059804585, 0.33854938, -1319962.5, 347816.16, 0.05267765, 10.00074, 10.001014 
2.684412e+3, 1.3981271e+2, -1449366.6, -1604014.1, 80582.92, -0.2816371, 0.14950205, -1415009.8, 154830.58, 0.03242507, 10.001361, 9.999421 
2.6840368e+3, 1.4980356e+2, -1265101.3, -1364193.0, -117759.72, -0.25131655, -0.05396919, -1186889.0, 285034.4, 0.015032841, 10.001652, 10.000148 
2.6836625e+3, 1.5979424e+2, -1301526.8, -1560391.8, -150090.47, -0.06307517, -0.31565687, -1232767.6, 141241.89, 0.0044764117, 10.00156, 9.998267 
2.683289e+3, 1.6978768e+2, -1033763.25, -1378911.4, -86694.86, 0.03009973, -0.09330003, -1013210.94, 262866.0, 0.00066900725, 10.002885, 9.998105 
2.6829156e+3, 1.7978118e+2, -915931.5, -1402052.4, -100906.48, 0.097545505, 0.12381985, -895818.06, 282325.97, 0.000027210404, 10.003437, 9.9971075 
2.6825413e+3, 1.8977016e+2, -905321.25, -1230249.3, -45172.176, 0.009483465, -0.06130918, -899158.25, 181089.55, 0.000000001728097, 10.002467, 9.997997 
2.6821664e+3, 1.9975922e+2, -1029821.94, -1213864.9, -54189.504, -0.09064208, -0.30339056, -1015051.75, -32701.447, 0.0, 10.000707, 9.998364 
2.681789e+3, 2.0975392e+2, -767214.25, -721524.3, -94639.84, -0.30979815, -0.17037646, -647011.25, 237392.1, 0.0, 10.00064, 10.000985 
2.681412e+3, 2.1974926e+2, -917649.56, -982248.94, -132594.88, -0.45144537, -0.038321525, -813477.0, -27026.168, 0.0, 9.999812, 9.999035 
2.6810402e+3, 2.2974068e+2, -496617.28, -686240.0, -116344.51, -0.0965766, -0.13051715, -441344.56, 247190.2, 0.0, 10.00194, 9.99928 
2.680668e+3, 2.3973183e+2, -361117.44, -736795.25, -102465.664, 0.278298, -0.26161954, -334987.5, 255633.66, 0.0, 10.002822, 9.9979315 
2.680289e+3, 2.497258e+2, -322140.38, -501116.94, -79658.52, -0.010303697, -0.05781372, -291822.03, 200859.55, 0.0, 10.00188, 9.999186 
2.6799092e+3, 2.5971997e+2, -639851.06, -746444.1, -43048.938, -0.34519783, 0.11079826, -624636.8, -229897.36, 0.0, 9.999503, 9.998094 
2.6795352e+3, 2.697114e+2, -320203.88, -356879.7, -25566.727, -0.16367976, 0.03611253, -307078.53, -10260.4375, 0.0, 10.00036, 9.999568 
2.679162e+3, 2.7970216e+2, -394437.1, -628085.06, -857.6186, 0.1039289, -0.13619286, -394433.94, -195530.8, 0.0, 10.000263, 9.997197 
2.678786e+3, 2.8969312e+2, -223242.84, -483992.9, -31866.53, 0.014997128, -0.055487983, -219404.89, -118409.73, 0.0, 10.000827, 9.997156 
2.678409e+3, 2.996845e+2, -215092.9, -354194.13, 49551.297, -0.2180536, -0.0010162625, -199246.69, -196163.52, 0.0, 9.99979, 9.997979 
2.6780364e+3, 3.0967733e+2, 49879.555, 196087.98, 187689.64, -0.4946662, -0.07533933, 324407.75, 324407.75, 0.0, 9.999702, 10.001358 
2.6776713e+3, 3.1966943e+2, -202867.67, -196227.14, -284527.66, 0.2075493, -0.2534137, 84999.62, 84999.62, 0.0, 9.998967, 9.999084 
2.694778e+3, 1.3019042e+2, -1517355.8, -1323556.4, 192002.52, -0.09185446, 0.04374421, -1205387.5, 458748.53, 0.0436191, 10.000095, 10.002558 
2.694408e+3, 1.401844e+2, -1590598.0, -1734011.1, 107250.266, -0.18101482, -0.13713312, -1533291.3, 32892.215, 0.026486209, 10.000699, 9.998809 
2.694033e+3, 1.501773e+2, -1482167.1, -1735600.1, -106510.0, -0.116559766, 0.060089704, -1443349.8, 24911.291, 0.012009438, 10.001328, 9.997732 
2.6936585e+3, 1.6016947e+2, -1363869.1, -1714941.3, -115722.164, -0.01337619, 0.15780309, -1329156.4, 41190.1, 0.003455713, 10.001681, 9.997133 
2.6932845e+3, 1.701605e+2, -912240.9, -1291150.4, -27568.494, -0.13327712, 0.1342971, -910245.56, 362189.0, 0.00049606664, 10.003577, 9.998361 
2.69291e+3, 1.8015182e+2, -660872.6, -1158933.9, -84424.086, -0.29339227, 0.08585459, -646951.4, 527566.25, 0.00001910138, 10.004646, 9.99819 
2.6925355e+3, 1.9014321e+2, -697617.8, -903613.0, -97912.664, -0.17641121, -0.03698962, -658504.94, 418087.3, 0.0000000002885943, 10.002895, 10.000025 
2.6921603e+3, 2.0013484e+2, -1002830.3, -1146181.4, -26896.994, -0.09627514, -0.17594968, -997949.75, -19284.037, 0.0, 10.000604, 9.998876 
2.6917833e+3, 2.1012753e+2, -871832.3, -915081.3, -47982.336, -0.24981393, -0.16050373, -840826.75, 39913.59, 0.0, 10.000482, 9.999747 
2.6914066e+3, 2.2012077e+2, -796923.94, -927280.1, -69190.62, -0.41462162, -0.12886581, -767046.6, 15763.982, 0.0, 10.000595, 9.999032 
2.6910338e+3, 2.3011407e+2, -451013.44, -583855.06, -35722.64, -0.25005797, -0.084231496, -442016.53, 242860.92, 0.0, 10.001857, 10.000045 
2.6906604e+3, 2.4010736e+2, -291825.7, -581024.25, -89044.83, -0.0714154, -0.06965802, -266607.6, 320336.13, 0.0, 10.002693, 9.999073 
2.690282e+3, 2.5010037e+2, -435204.38, -516184.44, -153998.89, -0.11977113, -0.018402625, -316461.56, 172549.75, 0.0, 10.000845, 9.999633 
2.6899028e+3, 2.6009318e+2, -658337.25, -683785.06, -69857.66, -0.22119057, -0.008091291, -600054.2, -208973.75, 0.0, 9.998938, 9.998824 
2.6895288e+3, 2.700846e+2, -402713.06, -399393.13, -18442.238, -0.11104511, -0.1077179, -382536.3, -89378.19, 0.0, 9.99968, 9.999668 
2.6891553e+3, 2.800758e+2, -314308.6, -576473.2, 5448.263, 0.030493991, -0.22227782, -314195.44, -118956.234, 0.0, 10.000621, 9.997408 
2.68878e+3, 2.9006693e+2, -68309.91, -448803.38, 4173.7876, -0.030256713, -0.10832899, -68264.125, 29065.67, 0.0, 10.001937, 9.996895 
2.6884043e+3, 3.0005857e+2, 217688.75, -131054.9, 44274.56, -0.20781378, 0.0021829258, 223221.81, 223221.81, 0.0, 10.002562, 9.99819 
2.6880285e+3, 3.1005082e+2, 2832.924, 137938.19, 57607.996, -0.5403824, -0.11787532, 159166.4, 159166.4, 0.0, 9.999382, 10.001173 
2.6876628e+3, 3.2004434e+2, -481151.28, -509244.9, -209849.53, 0.21112101, -0.07652375, -284878.97, -284878.97, 0.0, 9.997598, 9.997638 
2.704772e+3, 1.3056026e+2, -1354108.4, -1237298.5, 53175.016, -0.13386458, -0.19488221, -1216717.9, 443787.56, 0.03554995, 10.001144, 10.002674 
2.7044037e+3, 1.4055556e+2, -1590109.3, -1748581.6, -113248.61, 0.021037433, -0.22922708, -1531129.5, 31411.883, 0.021269772, 10.000672, 9.998776 
2.7040288e+3, 1.5054974e+2, -1300331.1, -1677020.8, -124698.61, -0.030875951, 0.09437956, -1262792.0, 201818.58, 0.009415533, 10.002656, 9.997542 
2.703654e+3, 1.6054298e+2, -1052769.0, -1577877.3, -9494.418, -0.03770533, 0.3379462, -1052597.4, 314092.66, 0.0026134893, 10.003837, 9.997059 
2.70328e+3, 1.7053314e+2, -1017998.56, -1334755.4, 61857.93, -0.2239801, 0.22548221, -1006347.25, 262439.8, 0.0003600524, 10.002772, 9.998458 
2.7029055e+3, 1.8052347e+2, -1118551.4, -1299245.9, -72629.805, -0.3894628, 0.058267593, -1092977.5, 77901.055, 0.000012952271, 10.001176, 9.99889 
2.70253e+3, 1.9051643e+2, -859400.5, -843825.7, -189965.52, -0.24146642, -0.022773348, -661488.0, 411447.25, 0.000000000007316074, 10.001252, 10.0012045 
2.7021542e+3, 2.0050955e+2, -1013411.6, -1163657.1, -146199.34, -0.066019945, -0.10263827, -924163.8, 50828.543, 0.0, 10.000608, 9.99877 
2.7017778e+3, 2.1050118e+2, -844049.56, -991975.2, -88015.64, -0.16222681, -0.1425516, -803046.06, 74032.32, 0.0, 10.00109, 9.998924 
2.7014017e+3, 2.2049332e+2, -847429.6, -989231.06, -40331.293, -0.26977584, -0.1576899, -836761.25, -57600.348, 0.0, 10.000486, 9.998645 
2.7010274e+3, 2.3048839e+2, -627254.0, -589452.0, 4136.1943, -0.33139837, 0.008812671, -589004.7, 92207.09, 0.0, 10.000418, 10.000629 
2.7006525e+3, 2.4048339e+2, -772118.75, -815454.06, -121628.69, -0.3312785, 0.13896225, -670242.8, -86980.8, 0.0, 9.999486, 9.998993 
2.7002746e+3, 2.50475e+2, -532493.5, -523013.16, -227787.92, -0.19285378, 0.014618717, -299916.1, 185424.84, 0.0, 10.000064, 9.999926 
2.6998967e+3, 2.604663e+2, -660140.1, -725467.56, -76927.945, -0.054317724, -0.1519134, -609228.56, -221806.8, 0.0, 9.999234, 9.998361 
2.699522e+3, 2.704578e+2, -256551.67, -327096.0, 12921.83, -0.08393235, -0.23515606, -254259.23, 35238.74, 0.0, 10.000798, 9.999559 
2.699148e+3, 2.8044933e+2, -300869.94, -599122.3, 34093.21, -0.111446135, -0.31989303, -297022.4, -105447.15, 0.0, 10.000997, 9.997037 
2.6987746e+3, 2.904405e+2, -181602.78, -471814.16, 56786.64, -0.08972922, -0.21552928, -170886.83, -77221.59, 0.0, 10.001184, 9.997038 
2.6984e+3, 3.00432e+2, -203032.38, -411678.5, 39261.863, -0.17625651, -0.11363321, -195888.88, -195888.88, 0.0, 10.000146, 9.997409 
2.6980212e+3, 3.1042477e+2, -53395.67, 19057.248, -36408.457, -0.5407712, -0.11553523, 34191.594, 34191.594, 0.0, 9.999501, 10.000259 
2.6976478e+3, 3.2041684e+2, -431638.78, -496922.94, 28113.703, -0.4363266, -0.1662737, -421200.88, -421200.88, 0.0, 9.998203, 9.997403 
2.714766e+3, 1.3092944e+2, -1566224.5, -1473457.3, -19482.088, -0.22548847, -0.2241741, -1469531.9, 187359.08, 0.028414978, 10.000356, 10.001325 
2.714399e+3, 1.4092539e+2, -1598069.5, -1668275.3, -71063.086, 0.11450467, -0.13831972, -1553912.3, 5011.214, 0.016713178, 10.000325, 9.999465 
2.7140233e+3, 1.5091968e+2, -1099520.5, -1264395.5, -21521.465, -0.20772262, -0.04480697, -1096757.5, 364223.47, 0.0071980846, 10.002733, 10.000309 
2.7136478e+3, 1.6091335e+2, -965580.8, -1424869.3, 18401.29, -0.46891618, 0.016350161, -964844.75, 398201.97, 0.0019202423, 10.003991, 9.998021 
2.7132758e+3, 1.709054e+2, -1074985.3, -1383791.9, 18961.28, -0.2313781, 0.09220042, -1073825.4, 191305.33, 0.00025324232, 10.002495, 9.998253 
2.712903e+3, 1.8089712e+2, -1258680.9, -1423317.1, -76866.234, -0.08421624, 0.10321335, -1228372.6, -61157.49, 0.000008369746, 10.000439, 9.9984 
2.7125245e+3, 1.9088851e+2, -992097.2, -1020222.8, -170581.38, -0.19524586, -0.049381416, -834999.94, 234291.45, 0.0, 10.000818, 10.00021 
2.7121466e+3, 2.0088059e+2, -902236.7, -1055626.6, -140570.4, -0.29942012, -0.16945796, -818799.94, 152561.7, 0.0, 10.001108, 9.999279 
2.7117723e+3, 2.1087435e+2, -652171.8, -769936.8, -64605.133, -0.18340841, -0.09777875, -623641.6, 249783.66, 0.0, 10.001808, 10.000137 
2.7113983e+3, 2.2086841e+2, -573283.5, -746061.2, -34494.383, -0.119106375, -0.016100954, -566651.44, 208835.47, 0.0, 10.001822, 9.999693 
2.7110228e+3, 2.3086306e+2, -657876.75, -596225.75, -30270.809, -0.1323568, 0.088405795, -583847.9, 93694.13, 0.0, 10.000109, 10.00078 
2.7106464e+3, 2.4085742e+2, -808807.56, -747075.7, -107216.766, -0.17783235, 0.1484762, -666370.4, -86771.914, 0.0, 9.998778, 9.999812 
2.7102676e+3, 2.508492e+2, -469561.9, -425211.28, -162052.69, -0.21390064, -0.02057658, -283823.72, 197849.7, 0.0, 10.000152, 10.000576 
2.7098894e+3, 2.6084083e+2, -284365.28, -515891.7, 2697.0684, -0.22838393, -0.18042314, -284333.88, 99415.73, 0.0, 10.001606, 9.998655 
2.709517e+3, 2.7083266e+2, 44997.785, -275285.56, 68235.984, -0.18812358, -0.17431416, 58929.387, 344755.13, 0.0, 10.003186, 9.9987955 
2.7091438e+3, 2.8082448e+2, 191373.72, -240164.95, -18905.4, -0.14413098, -0.1869371, 192200.36, 380102.56, 0.0, 10.003786, 9.998148 
2.7087685e+3, 2.9081598e+2, -106711.266, -246155.61, -14544.371, -0.10235241, -0.1989267, -105210.41, -15226.83, 0.0, 10.000856, 9.998762 
2.708392e+3, 3.0080724e+2, -366473.13, -402665.13, 109299.56, -0.21212612, -0.24367131, -273781.66, -273781.66, 0.0, 9.998537, 9.998262 
2.7080145e+3, 3.1079763e+2, 205029.81, 49332.305, 108321.64, -0.6014998, -0.41993165, 260575.23, 260575.23, 0.0, 10.00158, 9.999535 
2.7076423e+3, 3.2079273e+2, 323227.38, 36982.824, 59494.65, -0.40448397, -0.10432787, 335100.56, 335100.56, 0.0, 10.002501, 9.999052 
2.724763e+3, 1.3130336e+2, -1243950.3, -1520638.9, 154421.81, -0.06404989, -0.047753517, -1174965.8, 478264.88, 0.022191128, 10.003375, 9.999611 
2.7243936e+3, 1.4129664e+2, -1170675.4, -1463553.9, 3777.2002, 0.083279625, -0.049297296, -1170626.8, 384666.66, 0.012784308, 10.003211, 9.999531 
2.7240178e+3, 1.5129012e+2, -1128949.3, -1166759.4, -47849.785, -0.28469107, -0.122762695, -1096405.3, 360946.63, 0.00532732, 10.002002, 10.001368 
2.723643e+3, 1.6128372e+2, -1355992.5, -1534487.3, -139148.97, -0.50975764, -0.1607957, -1279929.5, 79482.46, 0.0013580795, 10.000976, 9.998734 
2.7232718e+3, 1.7127739e+2, -1166703.6, -1375217.8, -127452.44, -0.13220447, 0.008587002, -1106298.4, 155183.2, 0.00016970174, 10.001682, 9.9987 
2.7228993e+3, 1.8127054e+2, -1075896.9, -1332486.5, -136618.6, 0.172478, 0.13121694, -1016777.2, 146777.28, 0.0000049540654, 10.001698, 9.998422 
2.7225193e+3, 1.9126153e+2, -820000.3, -960936.9, -108114.234, -0.15051626, -0.05686348, -761416.44, 304220.5, 0.0, 10.002095, 9.999986 
2.7221403e+3, 2.0125325e+2, -855955.5, -1017430.0, -29138.582, -0.3729294, -0.19418313, -850858.25, 116854.81, 0.0, 10.001413, 9.999367 
2.721767e+3, 2.1124841e+2, -735082.6, -715277.94, -15498.42, -0.16843018, -0.046467986, -706788.5, 162973.52, 0.0, 10.00092, 10.000888 
2.7213937e+3, 2.2124372e+2, -914382.3, -916358.7, -68255.805, 0.051491223, 0.10276395, -847107.56, -75297.27, 0.0, 9.999578, 9.999601 
2.7210176e+3, 2.312375e+2, -753122.06, -644671.94, -100797.85, 0.08402095, 0.11883411, -584439.3, 89434.36, 0.0, 9.999537, 10.000702 
2.7206406e+3, 2.412311e+2, -879685.5, -798709.7, -122685.0, 0.058494058, 0.10854687, -710004.4, -134067.31, 0.0, 9.998493, 9.999566 
2.7202606e+3, 2.5122333e+2, -438473.3, -367865.28, -167581.63, -0.20727435, -0.055513795, -231909.31, 246097.48, 0.0, 10.000273, 10.000871 
2.7198824e+3, 2.6121557e+2, -462887.9, -684862.6, -25641.518, -0.3870549, -0.16662236, -459964.4, -79887.805, 0.0, 10.000818, 9.997889 
2.719512e+3, 2.7120778e+2, -294316.9, -501372.03, 84592.39, -0.27191374, -0.081217825, -264151.4, 18000.486, 0.0, 10.001207, 9.9981785 
2.7191404e+3, 2.8120002e+2, -291671.1, -441509.72, -63663.5, -0.13409175, -0.024248468, -268274.88, -84048.695, 0.0, 10.000409, 9.9984 
2.718762e+3, 2.91192e+2, -73365.15, -31176.973, -148583.81, -0.130739, -0.15667409, 97802.62, 184100.06, 0.0, 10.000271, 10.000493 
2.7183828e+3, 3.0118307e+2, -334141.66, -403957.47, 99132.43, -0.3187299, -0.35153535, -263950.56, -263950.56, 0.0, 9.998939, 9.998038 
2.7180085e+3, 3.111701e+2, 47375.938, -100775.17, 200903.95, -0.6526216, -0.83074486, 187425.55, 187425.55, 0.0, 10.00091, 9.9987545 
2.71764e+3, 3.2116997e+2, 149537.9, 175251.47, -113731.24, -0.18642966, -0.065238215, 276850.3, 276850.3, 0.0, 10.000545, 10.000869 
2.7347615e+3, 1.3168189e+2, -1535240.5, -1940251.1, 126536.89, 0.043763116, 0.4357477, -1498957.3, 150568.45, 0.016854065, 10.00266, 9.9969845 
2.7343863e+3, 1.4166938e+2, -1379223.9, -1776180.1, -21289.234, -0.3667838, 0.045714755, -1378085.4, 173565.73, 0.009467284, 10.00274, 9.997573 
2.734013e+3, 1.5166104e+2, -1278714.8, -1377859.8, -93999.82, -0.28984493, -0.07041271, -1222016.9, 231710.66, 0.0037924994, 10.001613, 10.00007 
2.7336404e+3, 1.6165361e+2, -1413684.1, -1497560.1, -136657.63, -0.19911969, -0.1406199, -1312674.3, 43122.29, 0.0009170214, 10.0003395, 9.9992695 
2.733267e+3, 1.7164826e+2, -1074406.9, -1144056.0, -74778.31, -0.09771505, -0.0147249205, -1026741.75, 231110.06, 0.0001065257, 10.001547, 10.000335 
2.732893e+3, 1.8164314e+2, -839980.6, -972513.1, -101728.5, -0.06780885, 0.10580654, -784838.9, 375064.2, 0.0000025959862, 10.002265, 10.0006075 
2.7325144e+3, 1.9163708e+2, -589542.25, -621925.0, -53885.0, -0.2045281, 0.004904899, -549468.6, 512485.8, 0.0, 10.002654, 10.002075 
2.7321362e+3, 2.0163067e+2, -725867.6, -925104.7, 2538.81, -0.34069705, -0.0754179, -725835.25, 238176.36, 0.0, 10.002138, 9.999649 
2.73176e+3, 2.1162386e+2, -810327.0, -871350.7, -18219.895, -0.2907333, -0.0380879, -805301.0, 60780.605, 0.0, 10.0008745, 9.999853 
2.7313846e+3, 2.216173e+2, -882700.94, -931807.5, -63927.293, -0.21167019, 0.020765305, -838773.8, -70625.15, 0.0, 9.999866, 9.999355 
2.7310097e+3, 2.3161015e+2, -718621.7, -666230.0, -88304.05, -0.0080361115, -0.023807121, -600318.1, 69899.99, 0.0, 9.99988, 10.000404 
2.730634e+3, 2.4160312e+2, -703243.7, -803138.8, -99264.82, 0.084851675, -0.03668878, -642068.5, -69781.87, 0.0, 10.000018, 9.9988 
2.7302554e+3, 2.515956e+2, -389443.66, -529450.06, -161651.75, -0.14624447, -0.024921598, -283288.6, 191071.69, 0.0, 10.001311, 9.999307 
2.7298778e+3, 2.615881e+2, -214711.88, -405598.84, -122410.914, -0.32673946, -0.0403277, -154933.3, 221498.34, 0.0, 10.001742, 9.999371 
2.7295056e+3, 2.715805e+2, -375859.94, -296157.06, 1676.9039, -0.21291202, -0.14664677, -296121.8, -17621.299, 0.0, 9.999516, 10.0004425 
2.7291325e+3, 2.8157336e+2, -519955.03, -416125.06, -1998.6573, -0.112988956, -0.19220836, -416086.63, -235521.36, 0.0, 9.998098, 9.999728 
2.7287546e+3, 2.915681e+2, 32018.557, 19089.012, -80728.55, -0.23087549, -0.06416365, 106540.766, 189154.83, 0.0, 10.000838, 10.000647 
2.728376e+3, 3.0156112e+2, 250539.92, -45885.035, 64796.277, -0.45073614, -0.08289962, 264084.97, 264084.97, 0.0, 10.002511, 9.998794 
2.7280036e+3, 3.1154674e+2, -17495.44, -108792.61, 149767.94, -0.5441026, -0.74081534, 93426.18, 93426.18, 0.0, 10.000244, 9.999073 
2.7276334e+3, 3.2154605e+2, 29243.008, 233236.02, -178331.45, -0.09026716, -0.054770034, 336679.03, 336679.03, 0.0, 9.998969, 10.002099 
2.7447584e+3, 1.3205601e+2, -1043989.9, -1791797.0, 128702.22, -0.040884543, 0.38308024, -1022459.3, 623398.9, 0.012358498, 10.0063505, 9.996244 
2.744383e+3, 1.4204396e+2, -1381170.3, -1842483.1, 63547.47, -0.28731436, 0.15751271, -1372576.5, 175407.72, 0.0067449147, 10.002951, 9.997013 
2.7440092e+3, 1.5203488e+2, -1119816.1, -1394529.6, 34971.832, -0.18361998, 0.04857658, -1115434.0, 334637.06, 0.0025850076, 10.00306, 9.999258 
2.7436364e+3, 1.6202684e+2, -1067938.8, -1256149.0, 22920.049, -0.027366253, -0.030587956, -1065187.9, 286958.94, 0.0005889778, 10.002352, 9.99995 
2.7432615e+3, 1.7202145e+2, -1094947.6, -1031917.7, 58875.227, -0.10934687, -0.015610979, -996653.3, 257544.0, 0.00006228534, 10.000817, 10.001474 
2.742886e+3, 1.8201678e+2, -1208092.4, -1045258.94, -18572.223, -0.17662908, 0.05589713, -1043167.5, 113072.29, 0.0000011486238, 9.999285, 10.001543 
2.742509e+3, 1.9201268e+2, -978368.5, -678323.9, -79658.12, -0.18830475, 0.034283645, -658487.06, 399784.8, 0.0, 9.999458, 10.003197 
2.7421317e+3, 2.020077e+2, -1181030.6, -1182482.1, -95063.08, -0.2103085, 0.026455835, -1086690.5, -126375.0, 0.0, 9.99924, 9.999269 
2.7417532e+3, 2.1199927e+2, -976892.1, -1047841.4, -89324.14, -0.33027893, -0.038849723, -916256.1, -53854.355, 0.0, 10.000135, 9.9990015 
2.741376e+3, 2.21991e+2, -938444.5, -1039307.6, -68382.44, -0.33017603, -0.07257117, -903908.4, -139422.95, 0.0, 9.999866, 9.998614 
2.7410018e+3, 2.3198329e+2, -665789.6, -668598.0, -88123.875, -0.06165003, -0.15484989, -579058.75, 87499.125, 0.0, 10.000419, 10.000098 
2.7406272e+3, 2.4197587e+2, -833785.06, -1037995.9, -40905.64, 0.1157019, -0.13365225, -825896.0, -257266.52, 0.0, 9.999904, 9.997249 
2.74025e+3, 2.5196838e+2, -642607.7, -803380.56, -23653.068, -0.084461115, 0.00667756, -639200.06, -168491.75, 0.0, 10.000274, 9.997897 
2.7398732e+3, 2.619611e+2, -504110.2, -469823.97, -28277.857, -0.22819352, 0.0812565, -453898.63, -81117.055, 0.0, 9.999545, 9.999956 
2.739499e+3, 2.7195334e+2, -295708.2, -2425.06, -32223.918, -0.12970527, -0.24500044, 1073.7407, 275920.47, 0.0, 9.9990425, 10.002639 
2.7391243e+3, 2.8194693e+2, -548140.94, -422834.63, 23061.078, -0.08852918, -0.3727985, -418725.28, -241823.38, 0.0, 9.998011, 9.999689 
2.7387476e+3, 2.919446e+2, -85187.164, -64898.977, 2668.2537, -0.3352089, 0.048733436, -64553.92, 14375.175, 0.0, 10.00027, 10.000294 
2.7383706e+3, 3.0193958e+2, -53170.914, -218448.83, 13618.772, -0.56951064, 0.25847366, -52056.258, -52056.258, 0.0, 10.000678, 9.998469 
2.737998e+3, 3.119249e+2, -124066.66, -82613.43, 31544.06, -0.41714782, -0.5013079, -65595.9, -65595.9, 0.0, 9.999342, 9.999603 
2.7376258e+3, 3.2191905e+2, -59236.063, 246656.45, -143706.98, -0.102448165, -0.40298676, 303577.44, 303577.44, 0.0, 9.99836, 10.00241 
2.7547544e+3, 1.3242593e+2, -1099123.3, -1688331.6, -68896.98, -0.47487068, -0.12873076, -1091174.3, 551051.2, 0.008685325, 10.005502, 9.997332 
2.7543846e+3, 1.4242123e+2, -1462901.1, -1874065.4, 64544.86, 0.20812716, 0.2837471, -1453007.0, 91276.164, 0.004592608, 10.002414, 9.997033 
2.7540067e+3, 1.5241309e+2, -1150801.5, -1433514.6, 99014.61, -0.11467086, 0.28464696, -1119573.1, 326794.2, 0.0016782222, 10.002993, 9.999011 
2.7536297e+3, 1.6240515e+2, -1035958.94, -1191729.8, 13831.671, -0.33536702, 0.2213148, -1034740.25, 313704.56, 0.0003582281, 10.0023985, 10.000356 
2.7532536e+3, 1.723982e+2, -1110582.4, -979232.94, 32076.238, -0.28755572, 0.03215265, -971818.3, 278685.7, 0.000033741435, 10.000474, 10.0019865 
2.7528775e+3, 1.8239202e+2, -1357646.5, -1200773.4, -11470.905, -0.27592367, -0.043619763, -1199939.0, -47381.58, 0.00000040337267, 9.998603, 10.000799 
2.7525005e+3, 1.9238696e+2, -1209916.4, -952518.2, -70894.19, -0.22949375, -0.02488439, -934283.8, 120320.62, 0.0, 9.998544, 10.001763 
2.7521238e+3, 2.0238152e+2, -1231428.4, -1189739.1, -84545.33, -0.21524148, 0.022452582, -1123506.8, -166850.94, 0.0, 9.998773, 9.999458 
2.7517477e+3, 2.1237357e+2, -900420.0, -940803.9, -32871.5, -0.20924741, -0.05632711, -882034.06, -23299.3, 0.0, 10.000281, 9.99971 
2.751372e+3, 2.2236584e+2, -687934.44, -859049.44, -31367.25, -0.19460863, -0.09199404, -682365.75, 78445.15, 0.0, 10.001275, 9.999178 
2.7509964e+3, 2.3235887e+2, -491523.38, -598274.8, -45023.676, -0.07798878, -0.09005505, -475070.03, 187807.0, 0.0, 10.001604, 10.00005 
2.7506202e+3, 2.4235186e+2, -489746.53, -688029.5, -20984.572, -0.053823136, -0.065914504, -487550.03, 77394.26, 0.0, 10.001375, 9.998962 
2.750242e+3, 2.5234416e+2, -556737.06, -578148.06, 55392.87, -0.22827102, -0.09257734, -511024.7, -44003.99, 0.0, 10.000016, 9.999601 
2.7498654e+3, 2.6233673e+2, -556406.25, -484247.84, 126304.25, -0.31401202, -0.10733601, -388970.78, -19877.873, 0.0, 9.999046, 10.000107 
2.7494922e+3, 2.723295e+2, -283893.8, -146329.6, 53466.137, -0.08415173, -0.24819298, -127993.36, 143165.23, 0.0, 9.999677, 10.001387 
2.749118e+3, 2.8232297e+2, -273020.78, -336627.28, 34482.363, -0.013424209, -0.2726542, -257914.75, -84695.09, 0.0, 10.000022, 9.999315 
2.7487406e+3, 2.923182e+2, -155885.94, -172657.66, -4749.9272, -0.371834, -0.013312429, -154634.14, -79362.94, 0.0, 10.000063, 9.999681 
2.748364e+3, 3.0231217e+2, -114263.91, -169364.6, -43349.074, -0.59471375, 0.12267295, -90451.195, -90451.195, 0.0, 9.999802, 9.999265 
2.7479938e+3, 3.123014e+2, -40991.863, 27279.73, -42528.285, -0.12259726, -0.3065728, 47677.48, 47677.48, 0.0, 9.999449, 10.000393 
2.7476186e+3, 3.2229534e+2, 112656.35, 141839.75, -78942.42, -0.11102566, -0.20889598, 207527.72, 207527.72, 0.0, 10.000125, 10.000877 
2.764752e+3, 1.3280056e+2, -1459551.5, -1768159.3, -149032.61, -0.415318, -0.19395529, -1399331.6, 239221.36, 0.005822727, 10.002498, 9.998278 
2.7643827e+3, 1.42796e+2, -1229485.6, -1670526.5, -24725.145, 0.43490288, 0.17804492, -1228103.8, 312503.53, 0.002969682, 10.0036125, 9.997868 
2.7640027e+3, 1.5278947e+2, -1238760.4, -1431432.1, 81447.1, -0.07167562, 0.28848103, -1208944.6, 233732.86, 0.0010279784, 10.002196, 9.999416 
2.763624e+3, 1.6278255e+2, -1213633.8, -1256255.5, 11613.637, -0.3985196, 0.2989905, -1210674.6, 134071.67, 0.0002033788, 10.001026, 10.000614 
2.763247e+3, 1.7277507e+2, -986669.1, -908599.8, -18162.992, -0.3425573, 0.0442706, -904581.06, 342227.0, 0.000016580547, 10.001232, 10.002137 
2.7628702e+3, 1.8276814e+2, -1080309.1, -1163801.6, -22668.486, -0.26301378, -0.081850134, -1074551.6, 74316.27, 0.00000009587778, 10.000971, 9.999907 
2.7624935e+3, 1.9276196e+2, -888408.06, -940120.4, -62058.195, -0.18519512, -0.05619358, -847035.0, 203894.5, 0.0, 10.0013895, 10.000481 
2.7621174e+3, 2.0275559e+2, -939177.3, -1087006.1, -18557.219, -0.106791615, 0.0024586518, -936883.4, 16109.406, 0.0, 10.000967, 9.99911 
2.7617428e+3, 2.1274805e+2, -826418.0, -847079.7, -23153.195, -0.04941264, -0.077791184, -811395.4, 43670.848, 0.0, 10.000609, 10.000159 
2.7613676e+3, 2.2274101e+2, -959665.8, -986890.56, -54776.96, -0.004719613, -0.078846544, -916835.2, -159700.86, 0.0, 9.999525, 9.999112 
2.7609906e+3, 2.327347e+2, -788422.1, -733980.9, -66966.484, -0.07013396, -0.033454135, -688914.06, -29719.225, 0.0, 9.999626, 10.000038 
2.7606127e+3, 2.4272811e+2, -808768.5, -745684.44, -73555.195, -0.15303876, 0.008040631, -697193.56, -135936.48, 0.0, 9.998903, 9.999719 
2.7602336e+3, 2.527204e+2, -548191.44, -388021.97, -66270.59, -0.32226858, -0.20193413, -364157.88, 99171.14, 0.0, 9.999346, 10.001185 
2.759857e+3, 2.6271304e+2, -694435.06, -704371.8, 37592.387, -0.34582034, -0.27825198, -661484.1, -296085.25, 0.0, 9.998854, 9.998686 
2.7594852e+3, 2.7270648e+2, -455304.2, -424373.06, 7567.5938, -0.036150113, -0.19523971, -422620.84, -155156.61, 0.0, 9.999486, 9.999529 
2.7591118e+3, 2.8269944e+2, -519642.97, -616087.8, 18842.129, 0.07520895, -0.100951836, -516092.56, -346557.84, 0.0, 9.999132, 9.997816 
2.7587333e+3, 2.9269096e+2, -231977.83, -301253.28, 3788.4958, -0.38749665, -0.14662562, -231771.27, -160150.19, 0.0, 9.99999, 9.9988165 
2.7583572e+3, 3.026836e+2, -177331.98, -200120.33, -50898.625, -0.5623062, -0.08883819, -136567.77, -136567.77, 0.0, 9.999497, 9.999174 
2.75799e+3, 3.1267762e+2, 6137.111, 128830.44, -85079.79, 0.2581467, -0.11571821, 172374.11, 172374.11, 0.0, 9.999562, 10.000983 
2.7576083e+3, 3.226721e+2, -171900.95, -260782.39, 79135.45, -0.4833546, 0.062158376, -125581.56, -125581.56, 0.0, 9.999594, 9.998281 
2.7747506e+3, 1.3317864e+2, -1570417.3, -1770667.9, -108687.34, -0.17054452, 0.20702131, -1522765.6, 112087.34, 0.0036892197, 10.001657, 9.998587 
2.7743763e+3, 1.4316633e+2, -1238127.6, -1541011.8, -36849.98, 0.070525005, -0.30321077, -1233708.8, 303266.06, 0.0018042208, 10.00306, 9.998981 
2.7739972e+3, 1.5316278e+2, -1205252.3, -1254277.5, 48483.023, -0.1542856, -0.047890425, -1175437.4, 263574.63, 0.00058557204, 10.001774, 10.000806 
2.773619e+3, 1.6315828e+2, -1260680.8, -1281966.9, 26616.484, -0.31318888, 0.12304732, -1242658.3, 98397.39, 0.00010501939, 10.000729, 10.000571 
2.7732414e+3, 1.7315193e+2, -981037.3, -941839.0, 27865.252, -0.3450686, 0.011247468, -927370.6, 315740.4, 0.0000068884756, 10.00143, 10.001811 
2.7728647e+3, 1.8314552e+2, -1000789.3, -1174215.0, 4627.5693, -0.31663764, -0.014627324, -1000665.94, 144503.2, 0.00000000965895, 10.001752, 9.999444 
2.7724898e+3, 1.9313833e+2, -768279.5, -944630.1, 5201.187, -0.12010885, -0.031113375, -768126.25, 279113.6, 0.0, 10.002474, 9.999935 
2.7721137e+3, 2.0313106e+2, -782249.75, -1057371.6, -22448.627, -0.035646196, -0.0019651, -780430.1, 168882.47, 0.0, 10.002245, 9.998679 
2.7717367e+3, 2.1312328e+2, -816165.94, -922561.8, -40090.023, -0.07070717, -0.026610041, -802751.3, 48640.492, 0.0, 10.001036, 9.999433 
2.7713597e+3, 2.2311595e+2, -861698.75, -878257.3, -97208.21, -0.1080204, -0.024436919, -772417.9, -18953.348, 0.0, 9.999874, 9.999706 
2.770982e+3, 2.3310898e+2, -842686.56, -710634.7, -80449.59, -0.11747142, -0.07792611, -672585.8, -17055.709, 0.0, 9.998969, 10.000563 
2.770605e+3, 2.4310257e+2, -821024.8, -715343.3, -53442.332, -0.14651303, -0.055736266, -693029.4, -135437.92, 0.0, 9.998615, 10.000062 
2.7702284e+3, 2.5309658e+2, -506732.6, -426925.38, -75860.4, -0.16151029, -0.03851851, -381113.78, 78536.81, 0.0, 9.999825, 10.000724 
2.769852e+3, 2.6309025e+2, -410302.28, -528908.3, -40945.61, -0.18281431, 0.010516089, -397540.1, -35827.086, 0.0, 10.000541, 9.9991 
2.7694774e+3, 2.7308318e+2, -302371.22, -356038.94, -28920.143, -0.17208457, 0.0469356, -289753.47, -25971.104, 0.0, 10.000459, 9.999582 
2.769103e+3, 2.8307545e+2, -237231.06, -385095.7, 62683.484, -0.15298322, 0.042346746, -214234.5, -48377.348, 0.0, 10.000543, 9.998736 
2.7687293e+3, 2.930659e+2, 40842.984, -136233.78, 84608.25, -0.22134912, -0.14627154, 74769.3, 142715.64, 0.0, 10.001534, 9.999275 
2.7683544e+3, 3.0305758e+2, 136267.83, -153704.69, -292.15262, -0.2653048, -0.16743892, 136268.13, 136268.13, 0.0, 10.001947, 9.998327 
2.7679825e+3, 3.130513e+2, 191217.38, 31666.69, -121266.93, 0.10755812, -0.058921866, 256596.34, 256596.34, 0.0, 10.001511, 9.999403 
2.7676013e+3, 3.230433e+2, 331684.34, 76676.805, 135919.34, -0.6814096, -0.050029844, 390543.88, 390543.88, 0.0, 10.002453, 9.999243 
2.7847472e+3, 1.3355505e+2, -1352988.1, -1612571.8, 4113.496, -0.03451629, 0.2695139, -1352923.0, 278246.53, 0.0021709546, 10.002813, 9.999156 
2.78437e+3, 1.4354208e+2, -1501379.3, -1599680.3, -16376.573, -0.053479273, -0.33215824, -1498722.8, 34570.457, 0.0010072378, 10.000793, 9.999745 
2.7839917e+3, 1.5353857e+2, -1298645.5, -1254436.1, -30379.732, -0.12695916, -0.12612551, -1238970.3, 196357.2, 0.00030058212, 10.000795, 10.001359 
2.7836144e+3, 1.635343e+2, -1272536.9, -1310923.5, -38600.145, -0.15919735, 0.044231474, -1248621.5, 88746.125, 0.000046417692, 10.0007305, 10.000386 
2.7832362e+3, 1.7352822e+2, -1006675.1, -1018274.6, -63684.855, -0.2879155, -0.0039795907, -948526.5, 290896.3, 0.0000020738605, 10.001517, 10.0012665 
2.7828595e+3, 1.835218e+2, -1059239.4, -1246672.3, -71202.14, -0.28390133, 0.017988203, -1035259.1, 106223.516, 0.00000000000031198744, 10.001532, 9.999056 
2.7824855e+3, 1.9351423e+2, -941724.6, -1047850.06, -63805.316, -0.059826262, -0.040123466, -911800.75, 131755.5, 0.0, 10.001397, 9.999724 
2.7821094e+3, 2.0350684e+2, -1045187.6, -1251262.3, -71423.945, 0.058834508, 0.0106947655, -1022853.25, -77222.75, 0.0, 10.000796, 9.9980345 
2.7817306e+3, 2.1349913e+2, -912430.25, -1031685.56, -80734.01, -0.06348295, 0.03975081, -871691.4, -23979.533, 0.0, 10.000695, 9.998839 
2.7813524e+3, 2.2349149e+2, -891676.75, -909713.56, -96282.36, -0.113186784, 0.058166616, -803991.4, -54202.324, 0.0, 9.999778, 9.999523 
2.7809745e+3, 2.334837e+2, -710818.56, -618711.75, -124193.54, -0.10004422, -0.11508892, -532307.8, 119553.94, 0.0, 9.99979, 10.000769 
2.7805975e+3, 2.434773e+2, -805291.5, -809584.7, -45855.68, -0.053491738, -0.072073765, -761532.2, -207608.11, 0.0, 9.999248, 9.9991045 
2.7802232e+3, 2.5347266e+2, -502507.38, -505137.63, -68225.97, 0.030064944, 0.145318, -435583.88, 20390.672, 0.0, 10.000309, 9.9999275 
2.7798474e+3, 2.6346704e+2, -495318.44, -590850.3, -58735.27, -0.00678598, 0.33041427, -467378.25, -109346.01, 0.0, 10.000198, 9.998789 
2.7794692e+3, 2.7345932e+2, -302244.38, -316490.3, -77495.336, -0.32337976, 0.24618354, -231545.34, 28561.832, 0.0, 10.000387, 9.99984 
2.779095e+3, 2.8345102e+2, -314511.8, -385070.72, 37200.145, -0.37488672, 0.15547486, -298522.44, -136339.0, 0.0, 9.99998, 9.998981 
2.7787262e+3, 2.9344127e+2, -7910.659, -68032.38, 54563.39, 0.0063581914, -0.15148903, 24324.697, 88592.23, 0.0, 10.0009575, 9.9999485 
2.7783522e+3, 3.0343232e+2, -195626.69, -542317.5, -65291.777, 0.009906607, -0.18496601, -183738.06, -183738.06, 0.0, 10.000829, 9.996157 
2.7779725e+3, 3.134242e+2, -120629.71, -355572.66, -159006.98, -0.31296948, -0.07360527, -40407.563, -40407.563, 0.0, 10.00054, 9.997167 
2.7775985e+3, 3.234126e+2, 176524.36, 293105.34, 257248.84, -0.5863852, -0.37881258, 498585.13, 498585.13, 0.0, 10.0003395, 10.001729 
2.7947423e+3, 1.339312e+2, -1430796.3, -1571151.0, -132544.38, -0.14479473, 0.18145078, -1350997.4, 276491.94, 0.0011673695, 10.002045, 9.999774 
2.7943638e+3, 1.4392531e+2, -1689916.4, -1792561.8, -8937.894, -0.07256461, 0.29057416, -1689143.9, -159600.14, 0.00050489604, 10.000018, 9.998762 
2.793986e+3, 1.539176e+2, -1429994.3, -1391645.3, -651.00073, -0.097507484, 0.1483521, -1391634.3, 39984.895, 0.00013439951, 10.000281, 10.00063 
2.793609e+3, 1.6391025e+2, -1372323.9, -1452755.6, -16123.276, -0.12860917, 0.09499799, -1369212.3, -35523.297, 0.000016423304, 10.0004835, 9.999518 
2.7932313e+3, 1.7390268e+2, -1081782.9, -1156254.4, -22738.164, -0.28602326, -0.012325608, -1075389.1, 160368.8, 0.0000003300107, 10.001456, 10.00034 
2.792854e+3, 1.8389556e+2, -1022924.4, -1176331.0, -101357.88, -0.36914918, -0.027316455, -972518.25, 165306.0, 0.0, 10.001536, 9.999542 
2.792478e+3, 1.938882e+2, -943637.06, -989034.7, -73050.68, -0.22038424, -0.107358605, -889839.9, 150054.97, 0.0, 10.001101, 10.000296 
2.7921018e+3, 2.0388171e+2, -998302.06, -1124219.6, -78743.23, -0.11758201, -0.024312716, -960442.7, -18482.678, 0.0, 10.00068, 9.998945 
2.7917245e+3, 2.1387582e+2, -840209.25, -925144.0, -36354.19, -0.08252337, 0.1267593, -826773.94, 17250.037, 0.0, 10.000877, 9.999493 
2.791347e+3, 2.2386897e+2, -717795.2, -869703.25, -57756.965, -0.07244241, 0.21287361, -698329.7, 47764.453, 0.0, 10.001086, 9.999176 
2.7909687e+3, 2.3386058e+2, -555844.75, -651947.0, -99390.73, -0.07025267, 0.07792868, -493499.22, 154675.34, 0.0, 10.001232, 9.999872 
2.7905914e+3, 2.4385303e+2, -494680.3, -688060.94, -35429.094, -0.091519535, 0.073896855, -488393.75, 61854.406, 0.0, 10.001416, 9.998918 
2.7902162e+3, 2.5384617e+2, -301897.6, -471075.72, -34436.805, -0.11537712, 0.13372506, -295156.47, 157160.89, 0.0, 10.001837, 9.999492 
2.7898407e+3, 2.6383886e+2, -253554.8, -486415.44, -64226.586, -0.14424448, 0.18424478, -237014.92, 117374.82, 0.0, 10.001807, 9.998742 
2.789465e+3, 2.7383035e+2, -160472.39, -324058.97, -110827.09, -0.20548168, 0.09024038, -104523.94, 151948.14, 0.0, 10.001566, 9.999266 
2.7890906e+3, 2.838224e+2, -97030.27, -259150.6, -9172.163, -0.20953396, 0.058557168, -96512.99, 62034.3, 0.0, 10.001335, 9.999181 
2.7887198e+3, 2.938146e+2, 73859.51, -45610.008, -28100.105, -0.10760587, -0.024665358, 80138.82, 140755.72, 0.0, 10.001536, 9.999828 
2.7883452e+3, 3.038068e+2, -44250.75, -428367.7, -170292.58, -0.15571132, 0.039737467, 20373.504, 20373.504, 0.0, 10.001535, 9.99664 
2.787968e+3, 3.1379923e+2, 25436.727, -298267.56, -192026.47, -0.21401834, 0.21240075, 114722.55, 114722.55, 0.0, 10.0014, 9.997248 
2.7875927e+3, 3.2378766e+2, 28621.113, 465024.1, 177720.8, -0.40092474, -0.16981713, 528241.44, 528241.44, 0.0, 9.998045, 10.004095 
2.8047365e+3, 1.3430816e+2, -1443476.0, -1519540.1, -224517.95, -0.20110908, 0.19693287, -1253791.6, 370007.97, 0.0005664125, 10.001554, 10.000415 
2.8043586e+3, 1.4430383e+2, -1318588.0, -1635120.5, -38326.477, 0.007883554, 0.43953818, -1314013.5, 211823.9, 0.00022570654, 10.002637, 9.998572 
2.8039804e+3, 1.5429534e+2, -1131872.6, -1300384.3, -5117.561, -0.050312128, 0.2574278, -1131717.4, 296203.5, 0.00005282333, 10.002527, 10.000172 
2.8036034e+3, 1.6428703e+2, -1230590.0, -1409413.3, 45333.082, -0.05873741, 0.14601946, -1219754.4, 110245.58, 0.000004777361, 10.001579, 9.99925 
2.8032264e+3, 1.7427874e+2, -1265134.6, -1285232.1, 66518.914, -0.18596642, -0.0044448753, -1207909.8, 24165.58, 0.00000002399446, 10.000351, 9.999964 
2.8028488e+3, 1.8427108e+2, -1268203.9, -1292018.6, 21083.602, -0.26244807, -0.04081579, -1255897.5, -121750.805, 0.0, 9.999877, 9.999541 
2.8024718e+3, 1.9426385e+2, -990187.9, -994309.9, -21475.818, -0.23220521, -0.118668, -970674.4, 65542.58, 0.0, 10.000723, 10.000444 
2.802095e+3, 2.0425758e+2, -964435.06, -1101246.5, -31444.734, -0.14949581, -0.016438976, -957553.9, -19273.941, 0.0, 10.000866, 9.999032 
2.8017184e+3, 2.1425226e+2, -780899.94, -860192.8, -50910.344, -0.0454582, 0.1511327, -756019.6, 84317.7, 0.0, 10.001104, 9.999836 
2.8013414e+3, 2.242459e+2, -852004.94, -1014267.8, -54613.574, 0.017100045, 0.30130193, -835335.8, -92933.08, 0.0, 10.000643, 9.99836 
2.8009635e+3, 2.3423748e+2, -700141.4, -802627.9, -95961.92, 0.00060520455, 0.22748734, -642597.9, 1887.588, 0.0, 10.000698, 9.999071 
2.800586e+3, 2.4422885e+2, -696453.56, -855067.56, 26283.492, -0.070811786, 0.2018982, -692211.6, -145642.17, 0.0, 10.000428, 9.998224 
2.8002095e+3, 2.5421962e+2, -461364.66, -578449.44, 15165.135, -0.24138233, 0.04580047, -459432.3, -10773.848, 0.0, 10.000967, 9.999128 
2.7998346e+3, 2.6421082e+2, -492669.03, -694686.1, -3461.1172, -0.23898976, 0.009719622, -492609.75, -141866.16, 0.0, 10.000651, 9.997862 
2.7994612e+3, 2.742017e+2, -298156.6, -454382.34, -25671.178, -0.0077511114, -0.1002279, -294046.44, -41214.484, 0.0, 10.000965, 9.998642 
2.7990872e+3, 2.8419402e+2, -306497.06, -465086.28, 98395.98, -0.008893122, -0.0067867176, -259421.56, -104514.59, 0.0, 10.000449, 9.998173 
2.7987123e+3, 2.9418775e+2, -140211.33, -207434.97, 46654.246, -0.33192042, 0.10890884, -116322.08, -59352.324, 0.0, 10.000417, 9.999235 
2.798337e+3, 3.0418143e+2, -255626.8, -476224.03, -131418.78, -0.42322546, 0.34556255, -194354.2, -194354.2, 0.0, 10.000027, 9.996967 
2.7979645e+3, 3.141749e+2, -88097.85, -249082.94, -135251.72, 0.05429622, 0.52727675, -11198.922, -11198.922, 0.0, 10.000353, 9.997997 
2.7975833e+3, 3.2416517e+2, -18850.379, 700314.4, 3022.3186, -0.503474, 0.16439551, 700327.06, 700327.06, 0.0, 9.996955, 10.0061 
2.8147295e+3, 1.3468468e+2, -1525466.5, -1468961.8, -157949.72, -0.42595658, 0.2888175, -1336757.6, 283355.03, 0.00024939553, 10.0007305, 10.001113 
2.8143543e+3, 1.446763e+2, -1340393.6, -1570745.4, -40346.453, -0.03078495, 0.041448873, -1333531.3, 188655.72, 0.00009135431, 10.002253, 9.99917 
2.8139755e+3, 1.5467164e+2, -1124987.0, -1240078.1, 25504.984, -0.14299598, 0.1838805, -1119588.3, 304644.78, 0.000018191195, 10.002376, 10.00065 
2.8135982e+3, 1.6466548e+2, -1178788.6, -1277780.5, -1142.723, -0.12847392, 0.22564712, -1178775.4, 147515.1, 0.000001253609, 10.001496, 10.000194 
2.813221e+3, 1.7465778e+2, -1262554.1, -1180813.1, 67652.87, -0.05908805, 0.052413005, -1142643.8, 85715.26, 0.0000000065346386, 9.999947, 10.000875 
2.812844e+3, 1.8465054e+2, -1376099.3, -1400929.4, 84704.02, -0.061350234, 0.052072797, -1302905.3, -172477.72, 0.0, 9.999435, 9.99897 
2.8124672e+3, 1.9464311e+2, -1049474.5, -1115683.5, 74498.94, -0.08616711, 0.045725297, -1001056.0, 31446.887, 0.0, 10.000731, 9.999598 
2.8120902e+3, 2.0463556e+2, -898003.56, -1105951.3, -7724.107, -0.104483604, 0.08980813, -897717.06, 36861.41, 0.0, 10.001468, 9.998697 
2.8117123e+3, 2.1462762e+2, -723636.06, -890458.94, -11327.132, -0.1308924, 0.053894173, -722870.44, 113786.695, 0.0, 10.001698, 9.999354 
2.811335e+3, 2.2462022e+2, -683047.1, -901176.4, -63046.426, -0.11316842, 0.11650005, -666135.75, 72594.43, 0.0, 10.001625, 9.998669 
2.8109574e+3, 2.3461263e+2, -584458.75, -746385.1, -58086.574, -0.023657681, 0.1334285, -565777.1, 75027.31, 0.0, 10.001413, 9.999144 
2.8105804e+3, 2.446044e+2, -532191.94, -740893.7, 80557.83, -0.05292707, 0.13541542, -504714.66, 38170.406, 0.0, 10.001336, 9.99857 
2.8102043e+3, 2.5459522e+2, -393442.5, -554254.75, 81577.24, -0.20832828, 0.0010811632, -359306.1, 85669.0, 0.0, 10.001388, 9.999119 
2.8098294e+3, 2.645877e+2, -260641.98, -425118.94, 76964.016, -0.19947523, 0.033441525, -230245.53, 116802.1, 0.0, 10.001459, 9.999358 
2.809456e+3, 2.7458134e+2, -111988.53, -248348.06, 117086.95, 0.015993427, 0.113862775, -44677.21, 204430.31, 0.0, 10.001612, 9.999811 
2.8090817e+3, 2.845733e+2, -239386.94, -509476.06, 245571.55, 0.0010242944, 0.15460992, -94177.29, 57008.17, 0.0, 10.0011, 9.997601 
2.808706e+3, 2.945634e+2, -248393.55, -401188.88, 183505.17, -0.30809927, 0.06208959, -126018.1, -72734.81, 0.0, 10.0001335, 9.998116 
2.80833e+3, 3.045547e+2, -159853.14, -278306.66, 54718.996, -0.4293837, 0.07796075, -138445.05, -138445.05, 0.0, 9.999948, 9.998374 
2.8079572e+3, 3.1454703e+2, 104327.98, -32106.168, 77514.94, -0.067634515, 0.069163084, 139368.52, 139368.52, 0.0, 10.001026, 9.999209 
2.807576e+3, 3.2454076e+2, 55512.72, 376832.94, -163417.92, -0.3299468, 0.14515263, 445338.9, 445338.9, 0.0, 9.998769, 10.003088 
2.8247252e+3, 1.3506086e+2, -1613739.3, -1522686.9, 63977.516, -0.20319086, 0.18822715, -1489690.8, 126731.06, 0.00010704309, 10.000125, 10.00106 
2.824349e+3, 1.4505166e+2, -1400303.6, -1531176.5, -26303.305, -0.022600735, -0.118113376, -1395215.0, 123292.31, 0.000035101017, 10.001532, 9.999797 
2.82397e+3, 1.5504831e+2, -1382359.9, -1325093.8, -10011.075, -0.14141816, 0.12425433, -1323394.1, 97146.016, 0.0000055355054, 10.000456, 10.000998 
2.8235927e+3, 1.650433e+2, -1306782.0, -1278457.4, -41224.484, -0.048512556, 0.24126005, -1249030.4, 73555.95, 0.0000002527922, 10.00039, 10.000729 
2.8232163e+3, 1.7503622e+2, -1046932.3, -1023965.94, -50370.12, 0.13388444, 0.084552854, -983786.6, 240862.45, 0.0, 10.001253, 10.001347 
2.822839e+3, 1.8502924e+2, -1124379.5, -1361335.1, 54529.977, 0.13704811, 0.117270455, -1112433.0, 14283.356, 0.0, 10.001469, 9.998291 
2.822462e+3, 1.9502153e+2, -966484.94, -1170690.9, 49957.848, 0.0024455243, 0.13825941, -954918.2, 73877.6, 0.0, 10.001648, 9.998817 
2.822085e+3, 2.0501304e+2, -928969.1, -1165046.5, -11949.786, -0.07936973, 0.14874896, -928365.75, 2514.3467, 0.0, 10.00154, 9.998212 
2.8217065e+3, 2.1500327e+2, -755322.7, -952909.0, -28165.477, -0.18605828, -0.045976516, -751386.2, 81587.33, 0.0, 10.00177, 9.998852 
2.821329e+3, 2.2499509e+2, -679599.25, -924179.6, -66633.22, -0.17063291, -0.019273477, -662624.0, 72428.44, 0.0, 10.001815, 9.998396 
2.8209522e+3, 2.3498785e+2, -506296.78, -702547.25, -98432.4, -0.0058833505, 0.017581796, -465434.6, 171688.05, 0.0, 10.002009, 9.999117 
2.8205755e+3, 2.4498008e+2, -535765.7, -770403.44, 46726.414, -0.009300544, 0.08074213, -526802.8, 12396.279, 0.0, 10.001539, 9.998246 
2.820199e+3, 2.5497106e+2, -452992.75, -594528.7, 15309.513, -0.15473449, -0.048084944, -451355.7, -10066.964, 0.0, 10.001105, 9.998957 
2.8198245e+3, 2.649651e+2, -353051.47, -381324.7, -10929.559, -0.1466383, 0.110399984, -349319.13, -5972.6245, 0.0, 10.000587, 10.000023 
2.8194505e+3, 2.7496153e+2, -195130.13, -160748.92, -35420.535, 0.0126806805, 0.32987225, -138567.83, 106810.26, 0.0, 10.000623, 10.000826 
2.8190756e+3, 2.8495318e+2, -490950.22, -757664.4, 75824.45, -0.027346447, 0.34512675, -470901.1, -323444.28, 0.0, 10.000071, 9.9963455 
2.8187e+3, 2.9493946e+2, -391509.47, -564878.8, 90766.16, -0.22453922, -0.080255404, -352684.25, -303094.47, 0.0, 9.999682, 9.997161 
2.8183234e+3, 3.0492786e+2, -214443.17, -203536.83, 54499.406, -0.4094491, -0.3435101, -154218.45, -154218.45, 0.0, 9.99924, 9.999213 
2.8179485e+3, 3.149183e+2, -91263.92, 7644.945, 64030.426, -0.36090362, -0.684737, 39095.62, 39095.62, 0.0, 9.999198, 10.000337 
2.8175715e+3, 3.2491615e+2, -388816.34, -352746.6, -355744.4, -0.005733402, -0.04537851, -14580.216, -14580.216, 0.0, 9.998195, 9.998261 
2.834723e+3, 1.3543819e+2, -1806690.1, -1719837.6, 170632.33, 0.20094825, 0.1350527, -1587192.1, 25521.352, 0.000050582996, 9.999343, 10.000048 
2.8343427e+3, 1.4543036e+2, -1500534.9, -1565221.3, -68534.9, -0.14172277, 0.0032018665, -1457094.8, 57698.48, 0.000015386415, 10.0008545, 9.999856 
2.833963e+3, 1.5542525e+2, -1506199.1, -1394574.8, -16496.105, -0.18333767, 0.062298305, -1392188.0, 24654.467, 0.0000020566958, 9.9997, 10.000863 
2.8335866e+3, 1.6541949e+2, -1404421.9, -1368391.3, 3239.9363, -0.03182658, 0.14209364, -1368102.1, -49205.46, 0.00000005936716, 9.999935, 10.000308 
2.8332117e+3, 1.7541249e+2, -1054375.1, -1102033.1, 17272.332, 0.19987603, 0.037934612, -1048773.6, 172188.66, 0.0, 10.001517, 10.000679 
2.832834e+3, 1.8540512e+2, -1006889.4, -1274693.9, 31912.434, 0.07838682, 0.056465544, -1003139.1, 119894.06, 0.0, 10.002118, 9.998586 
2.8324544e+3, 1.9539693e+2, -903157.7, -1127491.5, 67537.234, -0.29715884, 0.013317903, -884394.5, 140719.78, 0.0, 10.002006, 9.998952 
2.832077e+3, 2.053889e+2, -834313.5, -1082866.0, -1125.8884, -0.40047792, 0.051706973, -834308.44, 92884.17, 0.0, 10.0020275, 9.998546 
2.8317007e+3, 2.1538027e+2, -657001.2, -913999.3, 22573.926, -0.32942027, -0.01536545, -655033.44, 174242.61, 0.0, 10.002446, 9.998817 
2.8313243e+3, 2.2537185e+2, -534900.5, -896554.6, -43425.52, -0.21349245, 0.016172593, -529759.3, 201599.28, 0.0, 10.002947, 9.998051 
2.830948e+3, 2.353634e+2, -361193.72, -723761.8, -68634.08, -0.03221873, 0.010870619, -348636.22, 284806.72, 0.0, 10.003316, 9.99838 
2.830571e+3, 2.4535494e+2, -342245.63, -699600.8, -12441.577, -0.07219964, 0.0511892, -341813.0, 193712.31, 0.0, 10.002901, 9.998095 
2.830193e+3, 2.553459e+2, -360513.66, -622004.06, -32042.596, -0.27390647, -0.011407032, -356644.47, 80967.516, 0.0, 10.00195, 9.998402 
2.8298178e+3, 2.6533768e+2, -378471.72, -584510.56, -102100.59, -0.22501175, 0.031157684, -336447.94, 3245.4395, 0.0, 10.001173, 9.998355 
2.8294444e+3, 2.7533013e+2, -327900.75, -458921.28, -221004.11, 0.010886565, 0.068975896, -162901.98, 78868.22, 0.0, 10.000666, 9.998777 
2.8290695e+3, 2.8532258e+2, -174725.92, -239982.0, -87997.48, 0.013683737, 0.07220973, -113502.24, 30339.344, 0.0, 10.00057, 9.999687 
2.828694e+3, 2.9531384e+2, -10394.725, -97019.1, 27244.34, -0.1920932, -0.121466786, -2538.566, 43381.613, 0.0, 10.000948, 9.999809 
2.828317e+3, 3.0530584e+2, -79871.78, -135296.02, -28413.053, -0.34120277, -0.16498435, -67894.32, -67894.32, 0.0, 10.0000105, 9.999353 
2.8279415e+3, 3.1529886e+2, -285996.75, -163239.66, -85394.23, -0.22113773, -0.20209676, -119454.04, -119454.04, 0.0, 9.998013, 9.999802 
2.827566e+3, 3.252945e+2, 254149.6, 20400.438, -175584.45, 0.097798444, 0.20301087, 348200.53, 348200.53, 0.0, 10.002084, 9.999056 
2.844717e+3, 1.3581453e+2, -1441392.3, -1717825.4, 106984.695, 0.21261294, 0.02910589, -1404824.5, 204194.19, 0.000026717651, 10.002391, 9.998688 
2.8443366e+3, 1.4580818e+2, -1389345.9, -1460253.5, -137550.02, -0.1350551, 0.10228579, -1282754.0, 228335.2, 0.000008259606, 10.001324, 10.000367 
2.8439566e+3, 1.5580213e+2, -1119664.5, -1204656.3, -102136.734, -0.16585933, 0.044701945, -1051535.8, 361610.25, 0.0000013335809, 10.002256, 10.000956 
2.8435802e+3, 1.6579585e+2, -1175549.0, -1314669.3, -17997.113, -0.017504416, 0.08903251, -1173258.5, 141948.28, 0.000000073245815, 10.001748, 9.999801 
2.843206e+3, 1.7578863e+2, -1226979.8, -1263549.6, -34729.613, 0.19624959, 0.023680009, -1206015.8, 11262.285, 0.0, 10.000655, 9.999993 
2.8428283e+3, 1.8578118e+2, -1191388.5, -1292780.9, 18217.361, 0.04106669, 0.03391084, -1188214.6, -68865.44, 0.0, 10.000596, 9.999166 
2.8424484e+3, 1.9577299e+2, -969323.7, -1119122.0, 40032.08, -0.39809653, -0.07271233, -959296.7, 62129.867, 0.0, 10.001406, 9.999275 
2.8420705e+3, 2.0576534e+2, -951201.75, -1125895.8, 16789.78, -0.5069142, -0.016578246, -949602.75, -26102.594, 0.0, 10.001175, 9.998665 
2.841695e+3, 2.1575756e+2, -977888.5, -1070683.3, 24733.098, -0.37228334, -0.025629055, -971707.94, -146132.08, 0.0, 10.000295, 9.99876 
2.8413194e+3, 2.2574916e+2, -896296.6, -1130882.9, 40400.266, -0.20774497, 0.04593734, -889533.9, -161874.13, 0.0, 10.000778, 9.997489 
2.840944e+3, 2.3573975e+2, -552346.7, -895409.2, 22260.945, -0.027518325, -0.010871626, -550908.25, 78846.68, 0.0, 10.002386, 9.997657 
2.840566e+3, 2.4573062e+2, -431671.1, -819705.9, 57968.824, -0.11515214, 0.052152984, -423196.2, 108646.94, 0.0, 10.00268, 9.997377 
2.840187e+3, 2.5572118e+2, -420430.34, -742200.9, 10793.536, -0.36142033, -0.0036473041, -420068.7, 13862.573, 0.0, 10.002019, 9.997533 
2.8398114e+3, 2.6571038e+2, -541017.7, -909004.6, 4358.194, -0.28673315, -0.040268075, -540966.06, -204925.77, 0.0, 10.0012455, 9.996045 
2.839438e+3, 2.7569798e+2, -468492.72, -748622.6, -53277.64, 0.021159576, -0.2803747, -458702.1, -220531.0, 0.0, 10.000764, 9.9967 
2.8390634e+3, 2.8569144e+2, -62620.273, 145835.0, 63052.23, 0.03238274, -0.20865713, 163422.73, 303655.53, 0.0, 10.000011, 10.002572 
2.8386876e+3, 2.9568866e+2, -73824.8, 177222.94, 41986.05, -0.18796389, -0.13289933, 184058.69, 226307.63, 0.0, 9.999301, 10.002459 
2.8383106e+3, 3.0568573e+2, -370221.34, -352740.47, -119657.34, -0.26890576, 0.25159594, -241504.77, -241504.77, 0.0, 9.998533, 9.998501 
2.8379348e+3, 3.1568235e+2, -467244.47, -327920.2, -131563.78, 0.02025827, 0.6206182, -248713.8, -248713.8, 0.0, 9.99729, 9.998944 
2.837559e+3, 3.2567266e+2, 250962.3, 403893.94, 212199.8, -0.15696867, 0.31728718, 552984.7, 552984.7, 0.0, 10.000695, 10.002222 
2.8547072e+3, 1.3618936e+2, -1675163.8, -1975159.3, -75305.09, -0.35792497, -0.095904805, -1657321.8, -51979.16, 0.000013313982, 10.001484, 9.997344 
2.8543305e+3, 1.4618497e+2, -1433648.9, -1413219.9, -95230.84, -0.18770504, 0.20143764, -1327657.3, 179739.56, 0.0000038169696, 10.000783, 10.000922 
2.8539518e+3, 1.5617904e+2, -1118777.0, -1193288.0, -33361.15, -0.2502883, 0.10912512, -1106023.1, 303427.06, 0.0000005153316, 10.002245, 10.001029 
2.853574e+3, 1.6617242e+2, -1188903.0, -1372411.4, -87788.89, -0.19954318, 0.145306, -1153670.1, 157846.14, 0.00000002542409, 10.001905, 9.99931 
2.853196e+3, 1.761648e+2, -1319625.0, -1360767.6, -55142.895, -0.15131508, 0.09761439, -1281341.3, -67745.984, 0.0, 10.000271, 9.999497 
2.8528205e+3, 1.8615796e+2, -1128014.6, -1106864.8, 62803.883, -0.13549651, 0.121127516, -1053751.8, 61908.117, 0.0, 10.000374, 10.000534 
2.8524458e+3, 1.9615108e+2, -886134.8, -957112.3, 112126.09, -0.1451746, 0.031528853, -804015.25, 213705.69, 0.0, 10.001434, 10.000376 
2.8520676e+3, 2.0614341e+2, -930945.9, -1053370.9, -16220.914, -0.25686932, 0.008352179, -928833.06, -9039.743, 0.0, 10.001017, 9.999234 
2.8516874e+3, 2.161348e+2, -1037281.5, -1053075.8, 34899.42, -0.4146186, -0.11693544, -1009396.8, -187519.61, 0.0, 9.999631, 9.999211 
2.8513122e+3, 2.2612701e+2, -858606.3, -1010132.7, 161507.69, -0.33838254, -0.05189277, -755974.44, -32020.27, 0.0, 10.000575, 9.998407 
2.8509387e+3, 2.3611906e+2, -424709.38, -769697.75, 189418.55, -0.1490936, -0.0042570294, -341012.94, 285020.47, 0.0, 10.002906, 9.998288 
2.8505623e+3, 2.4610971e+2, -289904.53, -772925.9, 125920.74, -0.17272459, 0.018294118, -259048.84, 269076.7, 0.0, 10.003655, 9.997258 
2.8501835e+3, 2.5609922e+2, -235105.52, -675656.56, 116766.93, -0.34055597, -0.07588539, -206070.34, 224157.42, 0.0, 10.003284, 9.997418 
2.8498065e+3, 2.6608968e+2, -222746.39, -608649.7, 150429.02, -0.32950106, -0.047983125, -171036.58, 161287.47, 0.0, 10.002717, 9.997434 
2.849431e+3, 2.7608016e+2, -160033.06, -491854.44, 204559.11, -0.20078073, -0.052007794, -62560.402, 171862.23, 0.0, 10.002316, 9.997759 
2.8490552e+3, 2.860728e+2, -133222.8, -184938.73, 201757.52, -0.17207114, 0.041455705, 44327.02, 180824.69, 0.0, 10.000697, 10.00001 
2.848679e+3, 2.9606694e+2, -386207.53, -241738.14, 12551.262, -0.23810254, 0.12178998, -240655.83, -202101.27, 0.0, 9.998227, 10.000132 
2.848302e+3, 3.0606166e+2, -369771.13, -295399.2, -112629.9, -0.22613001, 0.34046197, -213975.34, -213975.34, 0.0, 9.998143, 9.999144 
2.847927e+3, 3.1605667e+2, -75404.1, -92859.21, -72280.07, 0.06257429, 0.542874, -11326.582, -11326.582, 0.0, 9.999623, 9.999509 
2.847551e+3, 3.2604706e+2, 206108.13, 385048.16, 220447.56, -0.31565052, 0.22379124, 533489.94, 533489.94, 0.0, 10.000059, 10.002539 
2.8647006e+3, 1.365654e+2, -1597807.6, -1898690.4, -170868.44, -0.48486143, -0.04759968, -1520590.0, 81071.27, 0.0000059672334, 10.001747, 9.99778 
2.8643262e+3, 1.4655998e+2, -1307773.5, -1335710.3, -117797.64, -0.03545353, 0.13392805, -1203118.9, 300601.8, 0.0000015122073, 10.001543, 10.001105 
2.863947e+3, 1.5655452e+2, -1428342.5, -1360066.9, -114539.43, -0.17791158, 0.085674435, -1274686.1, 131081.83, 0.0000000966577, 10.000144, 10.000914 
2.863568e+3, 1.6654795e+2, -1398275.0, -1483820.9, -145614.56, -0.21106367, 0.13566497, -1289281.3, 18553.287, 0.00000000026919006, 10.000481, 9.999255 
2.8631884e+3, 1.7654054e+2, -1167926.8, -1296398.6, -96122.234, -0.27412447, 0.11478747, -1116552.4, 93361.88, 0.0, 10.001312, 9.9994545 
2.8628138e+3, 1.8653429e+2, -1018752.7, -983973.8, 42456.316, -0.16507493, 0.16456126, -955483.7, 156489.95, 0.0, 10.0009, 10.001112 
2.862442e+3, 1.965283e+2, -1076582.8, -996622.7, -23463.783, 0.098848686, 0.10441941, -990245.94, 23779.285, 0.0, 9.999989, 10.00078 
2.8620633e+3, 2.0652086e+2, -1003526.4, -1071724.9, -169816.17, -0.018434525, 0.0692845, -864419.7, 51675.887, 0.0, 10.0004225, 9.9994135 
2.8616813e+3, 2.1651195e+2, -827639.0, -947846.9, -142026.86, -0.36455145, -0.13093919, -733521.94, 84660.875, 0.0, 10.001011, 9.999305 
2.8613058e+3, 2.2650473e+2, -732319.94, -865444.56, 85677.32, -0.3706589, -0.068294644, -690387.3, 29865.64, 0.0, 10.001131, 9.999091 
2.860934e+3, 2.3649801e+2, -657333.06, -830785.2, 87111.84, -0.1689418, -0.008070511, -621136.9, 1181.1663, 0.0, 10.001206, 9.998628 
2.8605583e+3, 2.4648905e+2, -593400.8, -907016.1, 31807.617, -0.16257167, 0.032652877, -590207.3, -65799.734, 0.0, 10.00168, 9.997189 
2.86018e+3, 2.564781e+2, -440029.75, -786176.44, 40917.41, -0.25851965, -0.14323498, -435258.72, -8740.988, 0.0, 10.002049, 9.997181 
2.859802e+3, 2.6647052e+2, -240262.98, -486342.94, 65051.848, -0.3405635, 0.0309567, -224124.73, 104468.086, 0.0, 10.002107, 9.998536 
2.859424e+3, 2.764645e+2, -229154.33, -482063.3, 61789.31, -0.40027168, 0.2155299, -214865.6, 15786.67, 0.0, 10.0017, 9.998114 
2.8590468e+3, 2.8645596e+2, -421353.97, -733886.6, 39980.88, -0.3685473, 0.3879034, -416320.47, -283576.28, 0.0, 10.000643, 9.996206 
2.85867e+3, 2.964455e+2, -551777.25, -715438.3, -51141.95, -0.2939294, 0.35683453, -537110.5, -502251.22, 0.0, 9.998908, 9.996516 
2.8582934e+3, 3.0643603e+2, -224958.47, -160261.39, -40860.266, -0.23610948, 0.2982187, -140494.78, -140494.78, 0.0, 9.999019, 9.999578 
2.857919e+3, 3.164277e+2, -114056.56, -103792.84, -25156.752, -0.014501359, 0.07937514, -83249.85, -83249.85, 0.0, 9.999494, 9.999429 
2.8575432e+3, 3.2642e+2, 21122.572, 296136.2, 212921.31, -0.4429415, -0.06871251, 412092.63, 412092.63, 0.0, 9.999042, 10.002318 
2.874697e+3, 1.3694245e+2, -1559007.3, -1615445.5, -140039.48, -0.36195752, 0.22742611, -1444372.0, 153603.78, 0.0000021514043, 10.000947, 10.000081 
2.8743234e+3, 1.4693269e+2, -1406190.5, -1416744.4, -177569.06, 0.22644679, -0.10709893, -1233820.0, 266245.9, 0.00000043033984, 10.001053, 10.000761 
2.873941e+3, 1.5692769e+2, -1588364.4, -1488260.3, -135168.13, -0.08675057, -0.06735777, -1394174.8, 7933.1104, 0.000000019645139, 9.99929, 10.000441 
2.8735626e+3, 1.6692196e+2, -1415133.5, -1393604.8, -102736.87, -0.10935099, 0.03956871, -1301069.9, 3096.1257, 0.0, 9.999966, 10.000112 
2.8731847e+3, 1.7691563e+2, -1137171.8, -1247925.1, -23647.64, -0.14885996, 0.06608902, -1132333.9, 73900.24, 0.0, 10.001375, 9.99976 
2.8728086e+3, 1.8690883e+2, -1076502.0, -1151277.1, -28832.088, -0.13250564, 0.117253736, -1066676.0, 41626.49, 0.0, 10.001066, 9.999892 
2.872434e+3, 1.9690132e+2, -1215545.9, -1205068.0, -57545.64, -0.036662005, 0.040632945, -1152523.3, -142148.31, 0.0, 9.999581, 9.999574 
2.8720564e+3, 2.0689481e+2, -969331.2, -1030737.06, -156792.88, -0.12433521, 0.13512695, -840263.44, 72177.15, 0.0, 10.000579, 9.999597 
2.8716767e+3, 2.1688819e+2, -601485.6, -820044.6, -124547.09, -0.3548857, 0.17200157, -545072.7, 269435.88, 0.0, 10.002456, 9.999489 
2.8713018e+3, 2.2688107e+2, -486617.44, -631271.06, -23517.318, -0.2912857, 0.16901726, -482890.13, 233687.44, 0.0, 10.002274, 10.000165 
2.8709295e+3, 2.3687364e+2, -594271.56, -681430.0, 5956.666, -0.077471785, 0.07401555, -593866.3, 24781.504, 0.0, 10.001049, 9.999761 
2.8705537e+3, 2.4686627e+2, -525197.0, -707478.06, 4952.2466, -0.07969184, 0.12732512, -525062.56, -4342.862, 0.0, 10.001338, 9.998764 
2.870176e+3, 2.5685817e+2, -300081.78, -601762.56, 47376.613, -0.21125232, 0.12679787, -292816.6, 129983.09, 0.0, 10.002386, 9.998334 
2.8697982e+3, 2.6684922e+2, -183488.14, -534472.3, 3211.2195, -0.27821466, 0.13590387, -183458.77, 141427.52, 0.0, 10.00272, 9.997944 
2.8694203e+3, 2.7683988e+2, -110554.67, -486718.47, -54771.438, -0.32322797, 0.0834769, -102741.93, 124233.305, 0.0, 10.0026655, 9.99765 
2.869042e+3, 2.8683132e+2, -107200.73, -521445.7, -46528.703, -0.3661584, 0.22354059, -102038.87, 27026.953, 0.0, 10.002464, 9.996806 
2.868663e+3, 2.9682252e+2, -4855.83, -430100.88, 6194.149, -0.42811042, 0.34052044, -4765.625, 26398.2, 0.0, 10.002452, 9.996802 
2.868287e+3, 3.0681238e+2, 281086.28, -56774.74, 61562.51, -0.362277, 0.2752003, 291954.16, 291954.16, 0.0, 10.002981, 9.998429 
2.8679138e+3, 3.168023e+2, 449410.03, 42808.574, -21746.504, -0.10141463, 0.053850837, 450569.78, 450569.78, 0.0, 10.003761, 9.99844 
2.8675386e+3, 3.2679498e+2, 98777.09, 83559.53, -33482.51, -0.25429824, 0.11660571, 125504.48, 125504.48, 0.0, 10.000434, 10.0002575 
2.884694e+3, 1.3731836e+2, -1491508.8, -1388066.5, 88412.75, -0.03936392, 0.21792725, -1337357.6, 256936.83, 0.00000033823923, 10.00046, 10.001898 
2.884318e+3, 1.4730863e+2, -1269324.1, -1340414.0, -132203.06, 0.23412718, -0.16997562, -1167971.0, 328407.94, 0.000000039050374, 10.001913, 10.000885 
2.883934e+3, 1.5730326e+2, -1433494.3, -1421784.5, -60297.27, -0.02256197, -0.13843703, -1367058.5, 31366.264, 0.0000000006124831, 10.000359, 10.000404 
2.8835565e+3, 1.6729774e+2, -1345365.5, -1320958.3, 67766.26, -0.02128688, -0.015940545, -1264305.5, 36175.17, 0.0, 10.000265, 10.000443 
2.88318e+3, 1.7729178e+2, -1229938.3, -1297829.3, 57550.96, -0.011568236, 0.013858209, -1197067.5, 5477.157, 0.0, 10.000721, 9.999731 
2.882803e+3, 1.8728438e+2, -1145730.8, -1270566.9, 44047.51, -0.073943086, 0.060389142, -1131753.8, -27132.803, 0.0, 10.001013, 9.999096 
2.8824264e+3, 1.9727598e+2, -1083749.0, -1232120.0, 42440.363, -0.083707854, -0.019338833, -1072467.1, -65760.86, 0.0, 10.000912, 9.998758 
2.8820497e+3, 2.0726994e+2, -922060.9, -1006792.5, 62925.93, -0.14431688, 0.17627133, -888568.06, 20202.033, 0.0, 10.001009, 9.999528 
2.881673e+3, 2.1726462e+2, -804869.2, -934534.8, 38832.42, -0.2298469, 0.35667768, -794129.2, 16698.418, 0.0, 10.0012455, 9.999257 
2.8812984e+3, 2.2725748e+2, -615056.1, -638493.6, 33615.02, -0.14000826, 0.3536666, -591175.75, 121722.61, 0.0, 10.001227, 10.000617 
2.8809246e+3, 2.3724942e+2, -656119.7, -676292.0, -12508.68, 0.0607589, 0.14465919, -650137.3, -35161.617, 0.0, 10.000564, 10.000028 
2.880549e+3, 2.4724351e+2, -465947.3, -532140.1, 26855.217, 0.015705233, 0.26554367, -456422.44, 60609.543, 0.0, 10.0011835, 10.000039 
2.880172e+3, 2.572379e+2, -368541.78, -574028.3, 10337.693, -0.13722639, 0.37092763, -368023.03, 51062.254, 0.0, 10.001748, 9.998827 
2.8797945e+3, 2.6722732e+2, -378068.06, -705711.7, -20142.338, -0.19068687, 0.2468257, -376834.44, -55649.227, 0.0, 10.00183, 9.997157 
2.8794172e+3, 2.772142e+2, -426506.22, -732925.5, -30889.963, -0.17235754, -0.12795761, -423423.22, -200113.67, 0.0, 10.001015, 9.99673 
2.8790376e+3, 2.8720587e+2, -211364.06, -433981.53, -19097.295, -0.33285424, 0.010552218, -209737.69, -84343.26, 0.0, 10.001245, 9.997955 
2.878657e+3, 2.9719916e+2, -217252.16, -514879.8, 12294.192, -0.55522275, 0.20532896, -216745.19, -189278.28, 0.0, 10.001025, 9.9968815 
2.878282e+3, 3.071894e+2, -21017.7, -391488.2, 96618.92, -0.48310503, 0.28169012, 2666.4478, 2666.4478, 0.0, 10.001871, 9.996628 
2.8779098e+3, 3.1717837e+2, -27005.26, -486796.66, 21933.928, -0.15071191, 0.1460065, -25961.291, -25961.291, 0.0, 10.001922, 9.995669 
2.8775343e+3, 3.2717022e+2, -438403.78, -467799.16, -87139.89, -0.023946248, 0.3217982, -364730.75, -364730.75, 0.0, 9.998362, 9.997311 
2.8946906e+3, 1.3769475e+2, -1512971.3, -1238806.0, 250666.78, 0.1807119, 0.14634706, -1090186.9, 500415.9, 0.0000000028010363, 9.99971, 10.003265 
2.8943077e+3, 1.4768831e+2, -1310562.0, -1282710.1, -183030.38, -0.26164135, -0.008557426, -1113076.6, 379578.7, 0.0, 10.001345, 10.001526 
2.893926e+3, 1.5768221e+2, -1471396.0, -1406132.6, -45075.18, -0.21089439, -0.11048554, -1383117.1, 11592.314, 0.0, 9.999968, 10.000693 
2.8935492e+3, 1.6767603e+2, -1380675.9, -1366974.0, 103540.76, -0.1238639, -0.052429557, -1270057.8, 26714.475, 0.0, 10.000145, 10.000179 
2.8931734e+3, 1.7766948e+2, -1273422.8, -1342246.1, 114903.8, -0.12426546, -0.048338678, -1187888.4, 10953.062, 0.0, 10.000509, 9.999532 
2.892797e+3, 1.8766236e+2, -1078181.9, -1187095.1, 90062.77, -0.14614482, 0.009190646, -1027392.0, 73521.68, 0.0, 10.001216, 9.999583 
2.8924206e+3, 1.976548e+2, -957073.56, -1135108.8, 127838.27, -0.16616529, -0.008861384, -890313.25, 112676.14, 0.0, 10.001566, 9.999134 
2.8920448e+3, 2.0764738e+2, -844044.0, -972243.9, 116221.08, -0.11306409, 0.03552236, -775418.1, 129645.38, 0.0, 10.001518, 9.999523 
2.8916693e+3, 2.176399e+2, -809536.44, -972811.44, 140867.28, -0.08230132, 0.02321503, -728360.3, 78778.33, 0.0, 10.001292, 9.998992 
2.8912938e+3, 2.2763315e+2, -699419.44, -874517.5, 83541.53, -0.05836886, 0.17589757, -665956.0, 43255.77, 0.0, 10.00143, 9.998916 
2.8909183e+3, 2.3762643e+2, -582704.0, -763682.25, 30219.055, -0.05067938, 0.28602442, -577791.5, 33493.96, 0.0, 10.001492, 9.999009 
2.8905424e+3, 2.476195e+2, -335622.22, -482453.8, 43197.395, -0.1370562, 0.33588213, -323856.47, 189496.28, 0.0, 10.0020485, 9.999996 
2.8901666e+3, 2.5761217e+2, -175975.69, -412985.97, -8817.143, -0.28746292, 0.29120645, -175648.14, 239772.33, 0.0, 10.002654, 9.999534 
2.8897896e+3, 2.6760378e+2, -191493.16, -390291.9, -55261.668, -0.23684722, 0.22054116, -177164.4, 140333.8, 0.0, 10.00208, 9.999225 
2.8894117e+3, 2.775943e+2, -277672.03, -484961.44, 30312.639, -0.13435562, 0.055034053, -273330.25, -53743.81, 0.0, 10.001188, 9.998366 
2.8890324e+3, 2.8758502e+2, -268259.16, -519366.94, 51415.0, -0.2605454, 0.064084366, -258139.63, -136461.77, 0.0, 10.000983, 9.997537 
2.8886524e+3, 2.975759e+2, -181954.64, -477520.72, 59512.31, -0.46403223, 0.08508093, -170421.83, -146652.11, 0.0, 10.001059, 9.997152 
2.8882775e+3, 3.0756706e+2, 29594.527, -277137.94, 219723.05, -0.41560587, 0.18389715, 144182.44, 144182.44, 0.0, 10.001764, 9.997514 
2.887906e+3, 3.175578e+2, 156241.06, -256598.58, 165704.88, -0.11390855, 0.20300345, 214523.44, 214523.44, 0.0, 10.002444, 9.997075 
2.8875265e+3, 3.2754797e+2, -268801.53, -216414.67, -17957.664, 0.016369136, 0.1576587, -210850.06, -210850.06, 0.0, 9.998511, 9.999154 
2.9046836e+3, 1.3807033e+2, -1761774.1, -1403342.1, 208561.05, 0.23013307, -0.10369895, -1307574.4, 279346.84, 0.00000000011876347, 9.998077, 10.002992 
2.904298e+3, 1.4806941e+2, -1774041.9, -1485697.5, -157360.03, -0.46380022, 0.3029342, -1416450.4, 72472.08, 0.0, 9.9980345, 10.001771 
2.9039195e+3, 1.5806015e+2, -1229732.6, -1286962.8, -86794.05, -0.21512204, -0.13394442, -1166958.3, 224049.42, 0.0, 10.001578, 10.00076 
2.903543e+3, 1.6805375e+2, -1157920.6, -1303677.1, 35573.258, -0.09587239, -0.08031525, -1149702.0, 143371.4, 0.0, 10.001898, 9.999759 
2.9031676e+3, 1.7804766e+2, -1214615.9, -1334651.1, 32262.861, -0.08611026, 0.0010334463, -1206493.9, -11355.716, 0.0, 10.001015, 9.999349 
2.9027912e+3, 1.880411e+2, -1026752.7, -1099428.0, 60976.47, -0.121539004, 0.076372735, -992107.56, 105095.47, 0.0, 10.001289, 10.000131 
2.9024157e+3, 1.9803418e+2, -939900.9, -1094425.0, 85527.81, -0.10800326, 0.045304682, -901904.8, 97365.42, 0.0, 10.001558, 9.999376 
2.9020402e+3, 2.080255e+2, -804971.3, -981447.9, 75180.2, -0.03897536, -0.04124078, -777286.94, 124066.305, 0.0, 10.001897, 9.999258 
2.901665e+3, 2.1801609e+2, -812079.8, -1057011.6, 70350.79, 0.07217965, -0.2337131, -793311.4, 10132.422, 0.0, 10.00166, 9.998217 
2.9012886e+3, 2.2800963e+2, -775085.75, -1051447.3, 88643.11, -0.011082323, 0.05208393, -749097.4, -43579.277, 0.0, 10.001615, 9.997556 
2.9009113e+3, 2.3800376e+2, -768865.5, -1006419.1, 82993.555, -0.14474022, 0.3693008, -742742.9, -135152.8, 0.0, 10.000935, 9.997587 
2.9005358e+3, 2.4799563e+2, -512687.22, -561690.1, 155020.63, -0.26576033, 0.36321312, -380243.75, 129425.35, 0.0, 10.000936, 9.9999 
2.9001606e+3, 2.579866e+2, -519433.06, -566829.3, 86087.67, -0.36980742, 0.13099298, -453841.28, -42089.188, 0.0, 10.000378, 9.999508 
2.8997838e+3, 2.6798066e+2, -237112.08, -207611.88, -40964.008, -0.2607655, 0.20469601, -178823.31, 134982.89, 0.0, 10.000963, 10.000973 
2.8994066e+3, 2.779752e+2, -291744.63, -417640.97, -48492.613, -0.08195605, 0.24025199, -275232.1, -59376.137, 0.0, 10.000855, 9.998971 
2.8990272e+3, 2.879651e+2, -251031.92, -553207.1, -4445.21, -0.19479528, 0.17976218, -250966.55, -133013.95, 0.0, 10.0014305, 9.997047 
2.8986475e+3, 2.9795307e+2, -199760.28, -533308.1, 65703.586, -0.35849148, -0.050558254, -187284.38, -167215.69, 0.0, 10.001293, 9.996612 
2.898274e+3, 3.0794343e+2, 56988.434, -105845.41, 174620.84, -0.23267591, -0.111334205, 168240.02, 168240.02, 0.0, 10.001467, 9.998671 
2.8979018e+3, 3.1793645e+2, -122476.21, -352555.88, -9023.221, -0.050815538, 0.0048078126, -122122.88, -122122.88, 0.0, 10.000597, 9.997172 
2.8975195e+3, 3.2792884e+2, -544287.06, 75643.94, -112366.95, 0.18112518, -0.13551554, 95382.766, 95382.766, 0.0, 9.995148, 10.002493 
2.9146737e+3, 1.3844702e+2, -2051779.6, -1691287.0, -191141.17, 0.106484376, -0.23711766, -1608809.8, -25577.268, 0.0000000000007792345, 9.996804, 10.0016165 
2.9142895e+3, 1.4845234e+2, -1891143.1, -1568252.1, -346.9588, -0.4093176, 0.86148566, -1568251.8, -83074.18, 0.0, 9.99739, 10.001492 
2.913915e+3, 1.5843645e+2, -1300101.3, -1392504.3, 24417.193, -0.20495743, -0.20958884, -1294045.9, 93281.15, 0.0, 10.00142, 10.000111 
2.913539e+3, 1.6843043e+2, -1190928.5, -1375650.3, -21311.748, -0.051951867, -0.06314467, -1188501.5, 100889.48, 0.0, 10.001918, 9.999244 
2.9131627e+3, 1.7842668e+2, -1228716.9, -1347510.5, 9387.681, -0.04452161, 0.29245776, -1227979.6, -36544.1, 0.0, 10.000917, 9.999315 
2.912787e+3, 1.8842053e+2, -939505.44, -943543.7, 51165.945, -0.05088571, 0.33234695, -890318.8, 203176.08, 0.0, 10.001374, 10.0011635 
2.9124114e+3, 1.9841357e+2, -882062.4, -1012797.3, 99968.56, -0.0666483, 0.21118538, -827986.9, 167573.1, 0.0, 10.0016775, 9.999893 
2.9120353e+3, 2.0840497e+2, -767805.25, -1021510.75, 54351.125, -0.08257172, 0.14632125, -756652.0, 140989.38, 0.0, 10.0023365, 9.998793 
2.911659e+3, 2.1839575e+2, -650228.8, -966802.25, 55909.715, -0.14524445, 0.023209427, -640644.8, 159084.66, 0.0, 10.002643, 9.998387 
2.911282e+3, 2.2838818e+2, -594997.0, -866419.5, 62090.973, -0.22801705, 0.1268238, -581467.4, 120341.88, 0.0, 10.002364, 9.998498 
2.9109046e+3, 2.3838088e+2, -557302.4, -772498.4, 126779.055, -0.34218577, 0.23136954, -498616.72, 105271.53, 0.0, 10.001704, 9.998861 
2.91053e+3, 2.4837328e+2, -461098.3, -437068.28, 205374.02, -0.2813054, 0.17135997, -243358.13, 262600.78, 0.0, 10.000767, 10.000868 
2.9101557e+3, 2.5836548e+2, -568637.9, -576425.75, 187385.28, -0.20534483, 0.010339664, -385106.06, 22923.248, 0.0, 9.999843, 9.999735 
2.9097793e+3, 2.683581e+2, -443788.0, -588210.25, 38100.633, -0.10298642, 0.10074763, -434352.9, -124248.73, 0.0, 10.000622, 9.998582 
2.909402e+3, 2.7835107e+2, -172879.33, -428269.9, -67934.66, -0.03782159, 0.21063916, -155932.97, 56244.477, 0.0, 10.001842, 9.998457 
2.9090217e+3, 2.8834423e+2, 178729.6, -125543.17, 26123.73, -0.31134582, 0.34629798, 180956.19, 295197.8, 0.0, 10.003362, 9.999077 
2.9086438e+3, 2.9833332e+2, 218408.23, -282068.1, 101421.01, -0.35852802, 0.07939828, 238180.0, 254526.2, 0.0, 10.003769, 9.997176 
2.9246664e+3, 1.388272e+2, -1546877.3, -1612379.9, -304274.75, 0.23534188, 0.04082926, -1273596.3, 305914.56, 0.0, 10.000909, 10.000183 
2.9242823e+3, 1.4882928e+2, -1248170.0, -1299864.0, 39951.17, -0.39839616, 0.8699564, -1226433.8, 255056.23, 0.0, 10.001932, 10.001153 
2.9239106e+3, 1.588132e+2, -1349304.8, -1430006.8, 15979.9795, -0.049617365, -0.1870112, -1346255.8, 37385.188, 0.0, 10.0011015, 10.000017 
2.9235348e+3, 1.6880758e+2, -1324440.9, -1417849.1, -21402.756, 0.051876355, -0.013752907, -1319770.4, -34070.574, 0.0, 10.000867, 9.999498 
2.923157e+3, 1.7880437e+2, -1285807.9, -1341341.4, 70026.87, 0.03897478, 0.3846075, -1238243.8, -50505.715, 0.0, 10.000378, 9.999642 
2.9227814e+3, 1.8879856e+2, -967097.25, -915927.7, 111288.91, -0.01808725, 0.42271256, -827320.5, 262473.22, 0.0, 10.0010605, 10.001476 
2.9224068e+3, 1.9879161e+2, -924136.44, -1048617.1, 72180.99, -0.009840593, 0.2737207, -891067.0, 100791.61, 0.0, 10.001437, 9.999782 
2.9220304e+3, 2.0878349e+2, -843129.0, -1061454.5, 73484.34, -0.11146339, 0.2647056, -820699.75, 73236.086, 0.0, 10.001909, 9.998713 
2.921653e+3, 2.1877488e+2, -820040.5, -1040572.25, 74561.305, -0.24769558, 0.20163335, -797197.56, -1179.2876, 0.0, 10.001506, 9.998432 
2.9212755e+3, 2.2876668e+2, -720933.56, -810747.25, 73610.34, -0.34635016, 0.17333862, -679613.4, 18486.373, 0.0, 10.001048, 9.9994955 
2.920898e+3, 2.3875852e+2, -786297.6, -808292.94, 110348.83, -0.39793304, 0.07837676, -686399.8, -86218.9, 0.0, 9.999898, 9.999465 
2.9205242e+3, 2.4875161e+2, -505081.9, -398217.47, 139801.03, -0.23173256, 0.02762406, -301985.63, 200257.44, 0.0, 10.000278, 10.001346 
2.9201508e+3, 2.5874475e+2, -612641.44, -700955.2, 78701.016, -0.0007377721, -0.09187678, -566556.0, -162251.72, 0.0, 10.000075, 9.998759 
2.9197747e+3, 2.6873592e+2, -513857.88, -860104.25, 66762.93, 0.05356266, 0.026231023, -501430.72, -195030.8, 0.0, 10.001359, 9.996256 
2.9193974e+3, 2.7872705e+2, -240817.9, -549831.6, 71795.016, 0.00091365154, 0.13592009, -224951.95, -16453.969, 0.0, 10.001889, 9.99756 
2.9190162e+3, 2.887242e+2, 132987.27, 120454.56, 145158.72, -0.494665, 0.53954756, 272014.84, 382537.3, 0.0, 10.002009, 10.001353 
2.9186413e+3, 2.987137e+2, -364364.28, -592074.0, 61619.426, -0.23943941, 0.076783575, -348759.16, -336134.4, 0.0, 10.000032, 9.996826 
2.9346615e+3, 1.3920641e+2, -1741610.6, -1840577.1, -145706.89, 0.26314992, 0.34752333, -1637213.8, -61414.105, 0.0, 10.000257, 9.9989 
2.934276e+3, 1.4919862e+2, -1289925.1, -1333468.5, -20357.723, -0.56942743, 0.22370376, -1281890.0, 195985.0, 0.0, 10.00171, 10.001032 
2.9339066e+3, 1.5919091e+2, -1404597.4, -1405904.0, -14115.999, 0.08770211, 0.011296971, -1391119.6, -11176.702, 0.0, 10.000503, 10.000481 
2.933529e+3, 1.6918525e+2, -1261440.8, -1192227.3, -29851.826, 0.11466166, 0.039849617, -1181131.1, 100863.64, 0.0, 10.000473, 10.001226 
2.9331493e+3, 1.7917994e+2, -1280630.5, -1279963.0, 112968.98, -0.11518938, 0.08369494, -1167327.3, 16718.121, 0.0, 10.000137, 10.00019 
2.9327738e+3, 1.8917362e+2, -1063273.5, -1114504.4, 138382.58, -0.24681449, 0.14776984, -948155.56, 137951.69, 0.0, 10.001036, 10.000129 
2.932399e+3, 1.991668e+2, -918494.25, -1064856.4, 81496.305, -0.3155092, 0.13547947, -882144.0, 106030.23, 0.0, 10.001532, 9.999626 
2.9320243e+3, 2.0915937e+2, -749262.06, -875990.25, 66947.42, -0.24505965, 0.10754966, -720447.2, 169798.66, 0.0, 10.001945, 9.999973 
2.9316485e+3, 2.1915177e+2, -691656.75, -855951.6, 89193.664, -0.2335101, 0.037207056, -652545.4, 139774.22, 0.0, 10.001771, 9.9995985 
2.9312712e+3, 2.2914541e+2, -674918.4, -725743.4, 48992.72, -0.18715522, 0.11954791, -645139.56, 49244.887, 0.0, 10.000977, 10.000171 
2.9308936e+3, 2.3913896e+2, -764141.2, -811127.6, 118889.21, -0.1929498, 0.16504955, -666446.2, -69995.44, 0.0, 9.999953, 9.999477 
2.930518e+3, 2.4913096e+2, -574870.5, -682098.44, 123245.0, -0.22180605, 0.1468734, -494082.88, 4446.7407, 0.0, 10.000748, 9.999239 
2.9301432e+3, 2.5912258e+2, -336226.28, -579041.44, 15074.828, -0.23451363, 0.06826397, -335293.97, 65317.402, 0.0, 10.001871, 9.998783 
2.9297692e+3, 2.6911452e+2, -92073.33, -404155.72, 87033.38, -0.09591212, 0.08894643, -69442.58, 233249.61, 0.0, 10.003038, 9.998626 
2.9293936e+3, 2.7910691e+2, 234660.8, -85265.09, 122383.52, -0.037734307, 0.1070431, 276107.56, 480877.25, 0.0, 10.003934, 9.999832 
2.9290104e+3, 2.8910375e+2, -36124.77, 74183.05, 79722.77, -0.48594636, 0.37913904, 115970.734, 222766.9, 0.0, 10.000471, 10.001903 
2.9286343e+3, 2.9909438e+2, -649626.7, -699395.5, 99662.24, -0.092532314, 0.032192487, -571789.2, -562898.06, 0.0, 9.9976, 9.997376 
2.9446524e+3, 1.3958162e+2, -1597723.8, -1811957.3, 70575.0, -0.03599495, 0.18038687, -1576564.1, -4440.887, 0.0, 10.001271, 9.998661 
2.9442725e+3, 1.4957342e+2, -1366862.1, -1331417.6, 58867.92, -0.3331705, 0.0043730442, -1287662.1, 186540.5, 0.0, 10.000976, 10.001418 
2.9439005e+3, 1.5956978e+2, -1449934.4, -1396562.1, 82710.836, 0.18203378, 0.17912959, -1336338.9, 39891.93, 0.0, 10.000038, 10.000778 
2.9435232e+3, 1.6956304e+2, -1013115.4, -1046921.0, 9237.149, 0.11257058, 0.086057276, -1010756.06, 267534.34, 0.0, 10.002115, 10.001409 
2.9431438e+3, 1.7955555e+2, -775511.94, -1070769.1, 8201.951, -0.15755157, -0.10807423, -775284.25, 405073.63, 0.0, 10.00378, 9.999836 
2.9427674e+3, 1.8954861e+2, -942606.6, -1165888.5, 49989.137, -0.33178052, -0.040839266, -931925.8, 150500.34, 0.0, 10.002349, 9.999143 
2.9423925e+3, 1.9954169e+2, -1117959.9, -1185486.8, 23239.725, -0.36294198, 0.010397915, -1110734.8, -126239.52, 0.0, 10.000306, 9.999385 
2.9420182e+3, 2.0953502e+2, -864315.5, -818813.75, 11407.807, -0.27674088, -0.02641854, -816113.9, 70446.52, 0.0, 10.000684, 10.000955 
2.9416436e+3, 2.1952842e+2, -868905.94, -908422.3, -28587.998, -0.14926367, -0.0904316, -853912.75, -65287.926, 0.0, 10.00044, 9.999887 
2.9412666e+3, 2.2952376e+2, -708620.2, -677574.3, -70309.92, -0.033826225, 0.10330573, -621094.1, 69580.11, 0.0, 10.000574, 10.00062 
2.9408887e+3, 2.3951875e+2, -860974.75, -948258.3, 34565.04, 0.04982963, 0.24150337, -848944.75, -256216.69, 0.0, 9.999805, 9.998549 
2.9405123e+3, 2.4950987e+2, -703105.44, -917567.25, 178111.22, -0.20280676, 0.27359396, -602437.2, -107616.19, 0.0, 10.000793, 9.997509 
2.940136e+3, 2.595006e+2, -490238.7, -666071.5, 145174.9, -0.42770594, 0.22864908, -408434.6, -11518.054, 0.0, 10.001033, 9.998551 
2.9397634e+3, 2.694935e+2, -199200.03, -172294.36, 164478.05, -0.2372452, 0.1755021, -20719.9, 278260.72, 0.0, 10.001134, 10.001138 
2.9393893e+3, 2.7948692e+2, -239684.1, -171968.44, 41660.414, -0.050391044, 0.055787873, -152142.53, 48895.24, 0.0, 10.0002, 10.00101 
2.939004e+3, 2.8948238e+2, -128551.96, 58292.848, -113968.44, -0.41404402, 0.13690506, 112235.81, 215312.6, 0.0, 9.9999, 10.001991 
2.938626e+3, 2.9947513e+2, -558890.0, -636523.5, 210772.45, -0.048628554, -0.0034987573, -383389.78, -378234.72, 0.0, 9.99848, 9.997275 
2.954644e+3, 1.3995792e+2, -1602734.8, -1679266.8, 78459.26, -0.37335494, 0.05851781, -1553707.4, 14723.507, 0.0, 10.000695, 9.999861 
2.9542717e+3, 1.4995533e+2, -1376035.9, -1235521.9, -2943.0916, 0.18426456, 0.3283125, -1235460.3, 234994.56, 0.0, 10.000513, 10.002287 
2.9538915e+3, 1.599499e+2, -1600109.6, -1573797.8, 117106.64, -0.084312506, 0.2840746, -1469110.4, -96607.19, 0.0, 9.9994545, 9.999857 
2.9535165e+3, 1.6994074e+2, -1167617.5, -1397885.5, 97892.78, -0.111381985, 0.1540863, -1131626.3, 142965.11, 0.0, 10.002237, 9.998943 
2.9531407e+3, 1.7993131e+2, -761193.4, -1189487.6, -23610.414, -0.27385876, -0.011671291, -759895.75, 416786.34, 0.0, 10.004399, 9.998732 
2.9527643e+3, 1.8992326e+2, -884003.44, -1117098.3, -97019.85, -0.21590836, -0.05266612, -848906.06, 229853.3, 0.0, 10.002631, 9.999352 
2.9523888e+3, 1.9991575e+2, -1122728.1, -1155219.5, -34865.406, -0.13753767, -0.074728675, -1100509.4, -119677.47, 0.0, 10.000065, 9.999731 
2.9520127e+3, 2.0991038e+2, -867901.06, -801732.94, -10910.328, -0.23283856, -0.013153777, -799980.4, 82905.51, 0.0, 10.0004635, 10.00123 
2.9516357e+3, 2.1990517e+2, -765423.75, -803984.94, -76739.31, -0.36847922, 0.041519437, -705580.0, 79358.43, 0.0, 10.000814, 10.000459 
2.9512584e+3, 2.2990006e+2, -632194.1, -627469.06, -136077.84, -0.24967474, 0.1549383, -493733.25, 193256.69, 0.0, 10.00099, 10.000796 
2.950881e+3, 2.3989466e+2, -555227.3, -642957.5, -13533.546, -0.1394231, 0.22093675, -553187.0, 35857.46, 0.0, 10.001122, 10.000031 
2.950507e+3, 2.4988757e+2, -410200.53, -550088.4, 205510.44, -0.18680169, 0.22967286, -263057.6, 228057.33, 0.0, 10.001706, 9.999659 
2.950133e+3, 2.5987998e+2, -241066.78, -430838.13, 192581.4, -0.26014304, 0.19619854, -121264.555, 271925.8, 0.0, 10.002085, 9.9997225 
2.949757e+3, 2.698727e+2, -422218.28, -376866.9, 88880.38, -0.20205139, 0.15193912, -307815.22, -12554.85, 0.0, 9.999905, 10.000385 
2.94938e+3, 2.7986568e+2, -559615.75, -351925.72, -39730.03, -0.16226472, 0.08058785, -344585.03, -147259.23, 0.0, 9.99796, 10.000904 
2.9490012e+3, 2.8985983e+2, 19477.84, 81156.484, -127382.73, -0.04102097, 0.03619483, 181379.83, 280757.53, 0.0, 10.000933, 10.001736 
2.9486203e+3, 2.9985416e+2, 242139.6, -221575.28, 128608.48, -0.13339171, 0.10616573, 275419.88, 276859.63, 0.0, 10.003541, 9.997757 
2.9646417e+3, 1.4033574e+2, -1686155.3, -1574025.8, 48750.555, 0.073449165, 0.14743124, -1555794.8, 8932.549, 0.0, 9.999465, 10.001194 
2.9642662e+3, 1.5033236e+2, -1345629.6, -1249763.5, -123633.47, 0.28374127, 0.32610574, -1165096.4, 301662.47, 0.0, 10.00085, 10.002055 
2.9638842e+3, 1.6032638e+2, -1357756.5, -1506698.8, -28080.67, -0.15945978, 0.25368574, -1352638.1, 16176.975, 0.0, 10.001286, 9.999459 
2.963511e+3, 1.7031728e+2, -1384939.3, -1587996.3, 139572.13, -0.16425173, 0.1757747, -1313874.5, -42970.613, 0.0, 10.00103, 9.998259 
2.9631373e+3, 1.8030784e+2, -1292237.1, -1464678.5, 105981.7, -0.20010948, 0.06524421, -1241833.8, -68837.6, 0.0, 10.00081, 9.998592 
2.9627606e+3, 1.9029972e+2, -971530.6, -1106691.8, -4317.118, -0.101838335, -0.004055626, -971392.9, 103679.76, 0.0, 10.001857, 9.999771 
2.9623848e+3, 2.002919e+2, -881534.0, -1058768.1, 83481.95, 0.09371772, -0.07164106, -848404.5, 128742.47, 0.0, 10.001865, 9.999513 
2.9620072e+3, 2.1028689e+2, -757714.25, -764359.4, 95321.71, -0.15336111, 0.06280217, -665657.2, 213542.14, 0.0, 10.001405, 10.000987 
2.9616287e+3, 2.20282e+2, -862860.25, -862185.4, -23988.44, -0.42002556, 0.16430214, -838532.0, -57281.81, 0.0, 10.000304, 10.000266 
2.9612508e+3, 2.3027591e+2, -584825.7, -570705.94, -58499.96, -0.37925422, 0.16432504, -518841.4, 164467.0, 0.0, 10.001235, 10.0010395 
2.960874e+3, 2.4027e+2, -500111.78, -526805.44, 62971.945, -0.23962317, 0.1346252, -449087.78, 136276.31, 0.0, 10.0011835, 10.000808 
2.960502e+3, 2.502647e+2, -371338.8, -298110.63, 201931.27, -0.15261704, 0.14706516, -129500.88, 357911.63, 0.0, 10.001025, 10.001688 
2.9601294e+3, 2.602589e+2, -573460.5, -596238.8, 80392.78, -0.06523952, 0.12031178, -503654.13, -114187.25, 0.0, 9.999939, 9.99958 
2.9597503e+3, 2.702513e+2, -530145.9, -559204.56, -35941.816, -0.16957395, 0.12557042, -505907.78, -214362.28, 0.0, 9.999818, 9.999112 
2.9593703e+3, 2.8024364e+2, -544750.7, -479271.56, -24799.635, -0.24412866, 0.08800471, -470939.22, -277315.44, 0.0, 9.998797, 9.9995775 
2.9589993e+3, 2.9023695e+2, -31841.656, 21525.756, 10852.499, 0.37643299, 0.0061467397, 23648.246, 119331.484, 0.0, 10.000894, 10.001263 
2.9586133e+3, 3.0023095e+2, -80191.234, -347103.88, 97156.08, -0.5048732, 0.049091984, -48572.137, -48572.137, 0.0, 10.001417, 9.997866 
2.974638e+3, 1.4071366e+2, -1724552.6, -1473285.8, 8249.628, 0.3617682, 0.33465913, -1473015.1, 88011.66, 0.0, 9.998799, 10.00217 
2.974256e+3, 1.5070325e+2, -1534405.8, -1545876.9, -93287.39, -0.14982262, -0.08135153, -1446677.8, 16450.4, 0.0, 10.000483, 10.000174 
2.973879e+3, 1.6069809e+2, -1344456.4, -1443945.5, -48024.13, -0.18143536, 0.057625316, -1325057.4, 40121.6, 0.0, 10.00116, 9.999942 
2.973506e+3, 1.7069292e+2, -1257618.1, -1222367.8, 104531.35, -0.08119662, 0.14357476, -1133986.1, 133238.6, 0.0, 10.000604, 10.000973 
2.973132e+3, 1.8068713e+2, -1296509.6, -1295241.0, 135813.38, -0.12805116, 0.17558414, -1160060.5, 9216.041, 0.0, 10.000018, 10.000147 
2.9727554e+3, 1.90681e+2, -906223.4, -1009075.06, 79251.22, -0.1570959, 0.21927425, -863175.06, 208158.17, 0.0, 10.001945, 10.000435 
2.972379e+3, 2.0067425e+2, -737819.25, -1023914.8, 108603.336, -0.14561935, 0.22828943, -701263.7, 272133.75, 0.0, 10.002922, 9.9992695 
2.9720023e+3, 2.1066655e+2, -780297.5, -952834.4, 64401.934, -0.16828015, 0.2220715, -758909.75, 116567.88, 0.0, 10.001978, 9.99944 
2.9716247e+3, 2.2065914e+2, -741043.6, -795485.94, -19287.676, -0.25790364, 0.1914135, -734903.06, 42650.527, 0.0, 10.000978, 10.000446 
2.9712474e+3, 2.3065208e+2, -384350.9, -393204.88, 5785.034, -0.21340552, 0.027510747, -381493.34, 298122.4, 0.0, 10.002119, 10.001906 
2.9708707e+3, 2.406455e+2, -227375.97, -390956.84, 82895.62, -0.20808628, -0.114165366, -192713.17, 388961.0, 0.0, 10.002908, 10.000949 
2.970495e+3, 2.5064033e+2, -399371.75, -430261.44, 104271.875, -0.3286667, -0.012043562, -309407.1, 174317.22, 0.0, 10.00121, 10.000745 
2.970119e+3, 2.6063484e+2, -567743.06, -567340.94, -33352.69, -0.40229335, 0.06802007, -534188.7, -148409.4, 0.0, 9.999701, 9.999931 
2.9697433e+3, 2.7062732e+2, -296012.1, -382626.0, -56652.324, -0.23772769, 0.022996517, -268010.0, 19849.057, 0.0, 10.001, 9.999842 
2.9693663e+3, 2.8062025e+2, 50184.797, -98983.0, -19109.871, -0.119965814, -0.005007654, 52594.05, 242527.06, 0.0, 10.002279, 10.000586 
2.968993e+3, 2.906166e+2, 134692.5, 116942.49, 33351.117, 0.2896359, 0.17683277, 160329.27, 252290.2, 0.0, 10.00182, 10.001571 
2.9686102e+3, 3.0060917e+2, -191728.27, -537897.8, 55320.324, -0.2979312, 0.14923674, -183102.61, -183102.61, 0.0, 10.001046, 9.996818 
2.9846293e+3, 1.410886e+2, -1606465.4, -1353529.0, -97437.586, 0.23322521, 0.27082032, -1320346.6, 237004.9, 0.0, 9.999233, 10.002812 
2.9842484e+3, 1.510787e+2, -1363702.1, -1593991.4, -22875.902, -0.33636832, -0.007865287, -1361451.8, 98001.07, 0.0, 10.002145, 9.999076 
2.983877e+3, 1.6107446e+2, -896443.06, -1201296.5, -27318.082, 0.079682395, 0.2860145, -894014.44, 467483.56, 0.0, 10.004086, 10.000238 
2.983502e+3, 1.710691e+2, -942468.1, -920997.4, -43550.844, 0.08193492, 0.24990097, -886878.25, 376663.34, 0.0, 10.002152, 10.002317 
2.9831263e+3, 1.8106356e+2, -1219120.9, -1174551.4, -30811.484, -0.003840114, 0.17719845, -1158810.4, 6776.659, 0.0, 10.000181, 10.000927 
2.9827496e+3, 1.9105852e+2, -1032851.06, -983779.9, -31972.146, -0.16076627, 0.24291772, -968013.94, 99617.695, 0.0, 10.000697, 10.001235 
2.982373e+3, 2.0105314e+2, -1029869.2, -1157132.9, -13513.488, -0.25037065, 0.29928452, -1028450.1, -58768.477, 0.0, 10.000891, 9.999346 
2.9819962e+3, 2.1104406e+2, -907837.4, -1112067.3, 20333.316, -0.22094536, 0.19502792, -905832.6, -34058.418, 0.0, 10.001463, 9.998622 
2.98162e+3, 2.210357e+2, -781125.0, -838876.94, 55392.07, -0.092050545, 0.1173875, -747534.2, 26323.97, 0.0, 10.000875, 10.000199 
2.981245e+3, 2.3102912e+2, -462063.53, -375162.47, 43006.797, 0.016801117, -0.031765427, -357477.66, 318436.0, 0.0, 10.001459, 10.002315 
2.9808682e+3, 2.4102198e+2, -559674.2, -640554.8, 20202.83, -0.0024179455, -0.22972743, -554908.6, 23067.178, 0.0, 10.001112, 10.000088 
2.9804876e+3, 2.5101596e+2, -566886.6, -585737.44, 45456.07, -0.43652079, -0.14151704, -529889.06, -49852.215, 0.0, 10.000541, 9.9999485 
2.9801092e+3, 2.6101023e+2, -671558.56, -677693.2, 35751.375, -0.6748712, -0.0048001064, -638743.2, -256645.81, 0.0, 9.9993725, 9.999321 
2.9797366e+3, 2.7100325e+2, -210550.53, -231915.33, 43036.844, -0.30575585, -0.056609794, -176890.13, 107283.63, 0.0, 10.0012245, 10.000738 
2.9793623e+3, 2.8099728e+2, -46232.246, -117109.87, 8118.4126, -0.035074495, -0.06218849, -45314.242, 140922.69, 0.0, 10.0016575, 10.000743 
2.978985e+3, 2.9099694e+2, 59993.58, 133533.83, -3775.9763, -0.0029025082, 0.4050654, 133727.2, 221958.25, 0.0, 10.001258, 10.001897 
2.9786107e+3, 3.0098552e+2, -540236.75, -866482.0, 50942.918, 0.33221143, -0.0072927997, -532467.06, -532467.06, 0.0, 9.9996395, 9.995165 
2.9946166e+3, 1.4146133e+2, -1724715.1, -1310479.4, -83746.695, -0.30813432, 0.116384454, -1294188.9, 259505.9, 0.0, 9.998121, 10.003639 
2.9942438e+3, 1.5145907e+2, -1434367.9, -1609316.1, 82948.086, -0.32525644, 0.58034915, -1401292.8, 54436.65, 0.0, 10.001662, 9.999191 
2.9938793e+3, 1.6145663e+2, -1030419.5, -1363507.0, -43287.098, 0.52607036, 1.0760626, -1024885.94, 332875.72, 0.0, 10.003607, 9.999354 
2.9935e+3, 1.7144373e+2, -1099696.8, -1143770.3, -175568.92, 0.32670265, 0.40601724, -944787.0, 315090.16, 0.0, 10.001714, 10.001001 
2.99312e+3, 1.8143234e+2, -1228296.9, -1083600.8, -113415.164, -0.06576902, -0.18635958, -1021422.9, 140554.13, 0.0, 9.999744, 10.001743 
2.9927427e+3, 1.9142605e+2, -979552.25, -778023.25, -54914.906, -0.26405612, -0.3925355, -764030.94, 299999.53, 0.0, 10.000336, 10.002803 
2.9923663e+3, 2.0142068e+2, -1030841.44, -943974.06, -43380.62, -0.36193946, -0.47839773, -926020.75, 40055.297, 0.0, 9.999947, 10.001256 
2.9919887e+3, 2.1141666e+2, -771690.9, -759227.94, 46313.266, -0.4674318, -0.31217214, -718728.8, 149382.14, 0.0, 10.00116, 10.001188 
2.9916114e+3, 2.2141187e+2, -617467.0, -779631.75, 79975.14, -0.51072884, -0.17788614, -584661.8, 185493.39, 0.0, 10.002015, 10.00006 
2.9912403e+3, 2.3140715e+2, -573832.4, -670541.25, 9116.472, 0.077717304, 0.0450195, -572980.5, 99222.07, 0.0, 10.00164, 10.000246 
2.9908678e+3, 2.414021e+2, -442941.66, -491428.94, -37495.715, 0.4814928, 0.1735511, -422534.63, 151717.5, 0.0, 10.001427, 10.000976 
2.9904863e+3, 2.5139302e+2, -344407.0, -313026.94, 23661.738, -0.00081707624, -0.18714772, -300325.88, 176013.23, 0.0, 10.0012865, 10.0015135 
2.990105e+3, 2.6138508e+2, -363763.4, -434943.3, 110772.95, -0.51047343, -0.37408793, -283003.5, 95413.81, 0.0, 10.000942, 10.000299 
2.9897287e+3, 2.713832e+2, -83767.24, -184004.58, 139579.42, -0.59021336, 0.10156561, 14418.837, 294863.4, 0.0, 10.002104, 10.000713 
2.989352e+3, 2.8138047e+2, 178031.84, 6083.2427, 7882.8633, -0.6613758, 0.44598755, 178392.47, 360869.38, 0.0, 10.002993, 10.001028 
2.9889745e+3, 2.9137316e+2, 110052.17, 102143.59, -68427.92, -0.49026746, 0.25352558, 174639.97, 259179.75, 0.0, 10.001693, 10.001628 
2.9885978e+3, 3.013595e+2, -308252.28, -541685.9, 67704.38, -0.27350584, -0.36945888, -290036.88, -290036.88, 0.0, 10.000008, 9.997426 
3.0046102e+3, 1.4183432e+2, -2207396.0, -1778012.6, -370018.6, -0.08431205, 0.169468, -1564912.0, -14867.204, 0.0, 9.995504, 10.001795 
3.0042365e+3, 1.5182674e+2, -1745688.8, -1726069.3, 75560.32, -0.41263667, 0.064285904, -1659684.5, -207552.11, 0.0, 9.999302, 9.999511 
3.003873e+3, 1.6182251e+2, -1323936.6, -1367710.6, -148179.02, 0.30388567, 0.29106432, -1196036.9, 158144.8, 0.0, 10.000849, 10.00064 
3.003491e+3, 1.7181867e+2, -1278944.6, -1064331.5, -65736.78, 0.055648398, 0.34771097, -1045796.75, 210408.8, 0.0, 9.999654, 10.002479 
3.003113e+3, 1.8181264e+2, -1456590.6, -1407709.3, 207184.05, -0.03358278, 0.25028905, -1223529.3, -65276.117, 0.0, 9.998945, 9.999918 
3.0027413e+3, 1.9180773e+2, -1207044.3, -1189118.3, -125735.95, 0.2728008, 0.4084997, -1072026.3, -11727.282, 0.0, 9.99994, 10.000147 
3.0023676e+3, 2.0179911e+2, -914374.25, -925765.56, -386667.03, 0.42520678, 0.16599806, -533360.94, 429016.75, 0.0, 10.0007715, 10.000987 
3.00199e+3, 2.117945e+2, -950807.2, -519666.56, -288402.66, 0.3196838, -0.005612916, -375172.1, 489235.97, 0.0, 9.998516, 10.004024 
3.0016094e+3, 2.2178942e+2, -1307687.0, -1156157.3, -192308.47, -0.10261057, -0.10137969, -1025227.06, -258778.78, 0.0, 9.99742, 9.999658 
3.0012277e+3, 2.3177963e+2, -934018.75, -957228.3, -45377.008, -0.56672776, -0.34898818, -898786.1, -230235.44, 0.0, 9.99966, 9.999116 
3.000851e+3, 2.4177462e+2, -773085.4, -631429.4, -1017.10486, -0.5928317, -0.19823313, -631422.06, -60818.137, 0.0, 9.999079, 10.001085 
3.000476e+3, 2.5177318e+2, -813212.9, -406912.5, 21513.96, -0.3316828, 0.07124015, -405776.5, 66833.27, 0.0, 9.997568, 10.002514 
3.0000997e+3, 2.6176664e+2, -953266.7, -765440.2, 132594.73, -0.35572872, -0.07655649, -696869.44, -322199.75, 0.0, 9.997161, 9.999763 
2.999728e+3, 2.7175575e+2, -316972.4, -335427.72, 181943.98, -0.1368984, -0.49308816, -144022.22, 132763.1, 0.0, 10.000824, 10.000111 
2.9993528e+3, 2.8175128e+2, 168225.63, -38861.22, 6803.6284, -0.19104531, -0.30358878, 168448.92, 347283.75, 0.0, 10.00319, 10.00053 
2.9989758e+3, 2.917509e+2, 37705.06, 98482.98, 78820.18, 0.25807646, 0.16270438, 152569.52, 233400.1, 0.0, 10.001256, 10.001635 
2.9985893e+3, 3.0174246e+2, -315600.84, -33734.23, 305060.63, -0.34790325, -0.08086368, 161374.4, 161374.4, 0.0, 9.998036, 10.001681 
