coord_x,coord_y,stress_xx,stress_yy,tau_xy,velocity_x,velocity_y,stress_1,eps,damage,lx,ly
5.000628e+0, 1.2459213e+2, -1528108.6, -1904652.4, -33862.0, -0.060853284, -0.094629705, -1525087.8, 193897.56, 0.0027102246, 10.002315, 9.997575 
5.001333e+0, 1.3459273e+2, -1479082.0, -1786166.8, -7540.203, 0.036565363, 0.072868355, -1478897.0, 142089.78, 0.0016001622, 10.001852, 9.997927 
5.0014746e+0, 1.4458838e+2, -1324247.3, -1536612.1, 29446.186, 0.056540422, -0.19677548, -1320239.9, 202793.06, 0.00071385584, 10.001727, 9.999013 
5.0007725e+0, 1.5458867e+2, -1176436.8, -1407688.1, -13188.774, -0.028893989, -0.1468769, -1175687.0, 249342.52, 0.00020880907, 10.002042, 9.999076 
5.000427e+0, 1.6458945e+2, -1105853.4, -1358826.6, -22051.057, -0.06149238, 0.043598466, -1103945.6, 223077.77, 0.00003056022, 10.002012, 9.9987545 
5.0004923e+0, 1.7458978e+2, -1084156.3, -1313849.9, -14828.184, -0.03240865, 0.14822382, -1083203.0, 145821.03, 0.0000010193884, 10.001558, 9.9986105 
5.0007385e+0, 1.845893e+2, -980233.0, -1158009.4, 20311.459, 0.00094239117, 0.22025418, -977941.9, 153088.27, 0.0, 10.001377, 9.999089 
5.0011647e+0, 1.9458759e+2, -871947.44, -1067335.9, 13133.854, 0.037945386, 0.08534781, -871068.5, 161976.45, 0.0, 10.001497, 9.998986 
5.0011295e+0, 2.04586e+2, -740342.7, -892635.2, 1867.8876, 0.035550572, 0.009517909, -740319.8, 194736.16, 0.0, 10.001474, 9.9995165 
5.000492e+0, 2.1458411e+2, -675898.06, -819607.75, -54303.508, -0.018575627, -0.19164781, -657686.3, 179380.69, 0.0, 10.00128, 9.999441 
5.000218e+0, 2.245831e+2, -710428.44, -911555.25, -48882.355, -0.02730174, -0.1741913, -699177.3, 39897.793, 0.0, 10.000915, 9.998314 
5.000413e+0, 2.3458292e+2, -703146.25, -869052.0, -14180.58, 0.020451082, -0.0801245, -701942.94, -60860.477, 0.0, 10.00034, 9.998211 
5.0004315e+0, 2.4458279e+2, -554774.3, -660482.9, 40817.03, 0.024385722, 0.055296116, -540848.3, 2237.526, 0.0, 10.000311, 9.998984 
5.0002384e+0, 2.5458217e+2, -380055.44, -541411.0, 26800.322, -0.02497015, 0.037065126, -375720.5, 69370.23, 0.000000000017365094, 10.000902, 9.998848 
5.000138e+0, 2.645805e+2, -317361.44, -505867.78, 15708.449, -0.032500915, 0.013348142, -316061.4, 31045.863, 0.000000288742, 10.000859, 9.998432 
5.0001526e+0, 2.745779e+2, -340363.75, -471733.25, 6381.024, 0.008730651, -0.14673798, -340054.53, -90919.836, 0.0000033591298, 10.000049, 9.9983835 
5.0003284e+0, 2.8457788e+2, -163843.69, -248026.23, 24025.574, 0.018450018, -0.021691417, -157469.47, -6337.442, 0.000018802597, 10.000213, 9.999161 
5.000587e+0, 2.9457867e+2, 145657.02, -28045.025, -49896.15, -0.024282757, 0.07389032, 158969.48, 212085.48, 0.000081046455, 10.001558, 9.999358 
5.000576e+0, 3.0457264e+2, -69216.91, -515080.5, -74736.7, -0.021428304, -0.30281267, -57022.863, -57022.863, 0.0003038914, 10.001499, 9.995706 
5.0003624e+0, 3.1457263e+2, -199461.86, -347695.8, 45831.426, 0.050255194, 0.09880642, -186436.16, -186436.16, 0.00078894256, 9.999527, 9.997824 
1.5001853e+1, 1.2459042e+2, -1483545.9, -1724654.9, -85375.56, -0.18200494, -0.18707864, -1456376.4, 262631.78, 0.0026043395, 10.001999, 9.998981 
1.5004076e+1, 1.3459334e+2, -1403143.4, -1582149.0, -12005.127, 0.120941766, 0.1271837, -1402341.9, 218639.88, 0.0015429672, 10.001698, 9.999425 
1.5004411e+1, 1.4459057e+2, -1395250.4, -1629014.3, 27066.133, 0.16986665, -0.03628022, -1392157.5, 130854.04, 0.0006869522, 10.001515, 9.998494 
1.5002297e+1, 1.5459055e+2, -1251022.9, -1516627.1, 12991.498, -0.08682039, 0.081416994, -1250388.9, 174626.72, 0.0001968844, 10.001871, 9.998422 
1.5001306e+1, 1.6458969e+2, -1093180.3, -1284889.6, -49545.44, -0.1806514, 0.11378251, -1081132.8, 245892.0, 0.000026649353, 10.001832, 9.999361 
1.5001519e+1, 1.7458723e+2, -1056809.9, -1218655.8, -19300.44, -0.0933841, -0.09669357, -1054540.1, 174506.13, 0.00000066228677, 10.001409, 9.999351 
1.5002179e+1, 1.8458627e+2, -997053.94, -1133739.8, 11873.92, 0.0029028303, -0.12595603, -996030.1, 135023.44, 0.0, 10.001157, 9.999369 
1.5003495e+1, 1.9458698e+2, -884932.0, -1042887.4, 31718.793, 0.116431914, -0.014464622, -878800.56, 154244.89, 0.0, 10.001302, 9.99926 
1.5003362e+1, 2.0458674e+2, -842261.4, -1048330.0, -14712.808, 0.10606372, 0.07542319, -841216.25, 93831.96, 0.0, 10.001265, 9.998556 
1.5001455e+1, 2.145852e+2, -776895.94, -976046.25, -46485.063, -0.056872915, 0.04299064, -766579.94, 70485.57, 0.0, 10.001078, 9.998472 
1.5000649e+1, 2.2458391e+2, -649772.4, -733776.25, -83237.08, -0.07934743, 0.014314545, -598540.4, 140536.61, 0.0, 10.00072, 9.999638 
1.500121e+1, 2.3458287e+2, -637751.25, -678186.8, -22201.643, 0.060870316, -0.082853496, -627941.2, 13140.972, 0.0, 10.0001335, 9.999627 
1.5001304e+1, 2.4458215e+2, -578638.8, -666649.8, 48829.816, 0.07514407, -0.082944766, -556911.25, -13825.113, 0.0, 10.000148, 9.999031 
1.5000716e+1, 2.5458157e+2, -404359.72, -537634.9, 60215.02, -0.0732049, -0.07045046, -381184.06, 63907.598, 0.0, 10.000692, 9.998986 
1.500041e+1, 2.645803e+2, -327108.06, -481094.28, -23970.55, -0.096484065, -0.076240115, -323462.94, 23641.217, 0.00000013049092, 10.000696, 9.998692 
1.5000474e+1, 2.7457845e+2, -361509.13, -461689.88, -14171.187, 0.028575547, -0.15330873, -359543.13, -110419.61, 0.0000024373799, 9.999839, 9.998567 
1.5000941e+1, 2.8457782e+2, -298065.2, -481668.16, 60899.023, 0.053036597, -0.024502708, -279702.22, -128571.266, 0.000015368285, 10.00005, 9.997647 
1.5001749e+1, 2.9457736e+2, 1077.2328, -268311.78, 20587.244, -0.07468961, 0.1367192, 2641.468, 55778.355, 0.000069496324, 10.001317, 9.997838 
1.500179e+1, 3.0457297e+2, 150869.6, 5620.5923, -152297.77, -0.051868565, -0.16921002, 246972.47, 246972.47, 0.00026841622, 10.0013, 9.999397 
1.5001036e+1, 3.1457385e+2, -81599.336, 12576.813, 12858.255, 0.15231566, -0.016069476, 14300.843, 14300.843, 0.0007052667, 9.999104, 10.000522 
2.5004318e+1, 1.2459101e+2, -1584550.8, -1722063.0, 53647.805, -0.075169265, -0.14398947, -1566097.4, 152907.56, 0.0024837567, 10.001107, 9.999402 
2.5005773e+1, 1.3459368e+2, -1364467.3, -1520036.0, 13627.585, 0.12793237, 0.08907749, -1363282.5, 257695.31, 0.0014731403, 10.001813, 9.999778 
2.5005713e+1, 1.4459155e+2, -1370147.5, -1620088.0, 64687.645, 0.14856121, -0.026704641, -1354398.0, 168602.02, 0.00065158884, 10.001726, 9.998436 
2.5003803e+1, 1.5459155e+2, -1403274.1, -1602248.8, 76148.086, -0.065492585, 0.089548424, -1377476.8, 47527.86, 0.0001815959, 10.000891, 9.998295 
2.5002974e+1, 1.645905e+2, -1276255.3, -1374023.1, 67751.48, -0.12709497, 0.111976855, -1241593.4, 85421.83, 0.000022322774, 10.000596, 9.999329 
2.5003484e+1, 1.7458767e+2, -1127782.8, -1251336.0, 32063.354, -0.0061301594, -0.14335191, -1119957.6, 109080.74, 0.00000035252413, 10.000941, 9.999333 
2.500409e+1, 1.8458633e+2, -987520.75, -1149471.8, 66389.016, 0.079002544, -0.20016849, -963784.6, 167263.94, 0.0, 10.001295, 9.999187 
2.5004947e+1, 1.945868e+2, -865327.94, -1049709.4, 42518.566, 0.12924346, -0.10825957, -855995.5, 177047.69, 0.0, 10.001507, 9.999098 
2.5004563e+1, 2.0458682e+2, -862584.3, -1083146.8, 21121.104, 0.108748846, 0.025509072, -860580.0, 74464.914, 0.0, 10.001229, 9.998331 
2.5002667e+1, 2.1458605e+2, -908830.8, -1068305.3, 35843.566, 0.0030546167, 0.084107056, -901145.0, -64087.254, 0.0, 10.000295, 9.998212 
2.5001848e+1, 2.2458483e+2, -701204.9, -745619.94, 53886.633, -0.0052137473, 0.07334539, -665129.1, 73939.3, 0.0, 10.000309, 9.99974 
2.500234e+1, 2.3458299e+2, -451621.9, -582584.4, 8663.654, 0.10422696, -0.12568344, -451051.25, 190026.73, 0.0, 10.001372, 9.99968 
2.5002244e+1, 2.4458179e+2, -430689.03, -622571.5, 34153.652, 0.10308266, -0.16523492, -424791.2, 118294.62, 0.0, 10.001297, 9.998763 
2.5001374e+1, 2.5458106e+2, -538368.6, -633621.8, 6900.307, -0.029773975, -0.14440958, -537871.3, -92777.27, 0.0, 9.999918, 9.998683 
2.5001156e+1, 2.6458e+2, -450016.1, -542101.9, -38183.58, -0.043326262, -0.113261715, -436243.16, -89137.95, 0.00000003137998, 9.999874, 9.998655 
2.5001723e+1, 2.745786e+2, -135304.94, -354633.2, -59719.797, 0.09848748, -0.14903893, -120098.43, 129020.93, 0.0000016497497, 10.001414, 9.998532 
2.500211e+1, 2.8457767e+2, -138495.16, -417472.84, 69679.37, 0.11537536, -0.043967154, -122059.805, 29070.457, 0.000012071121, 10.001208, 9.99752 
2.5002378e+1, 2.9457644e+2, -366876.38, -462908.63, 125051.78, -0.01173295, 0.04371632, -280939.16, -227793.72, 0.00005739791, 9.998893, 9.997655 
2.5002176e+1, 3.0457383e+2, -164311.81, -29.766941, -19697.912, 0.009825506, -0.1360085, 2299.0593, 2299.0593, 0.00023072664, 9.998522, 10.000694 
2.5001147e+1, 3.1457448e+2, 104003.24, 129894.2, -76330.05, 0.21553846, -0.16244593, 194368.75, 194368.75, 0.000617959, 10.00029, 10.000737 
3.5007718e+1, 1.2459378e+2, -1633908.1, -1785638.8, 41815.29, 0.08847974, -0.030706495, -1623147.5, 95829.64, 0.0023583595, 10.000954, 9.999038 
3.5006002e+1, 1.3459376e+2, -1397075.1, -1567801.3, 47268.4, -0.06385676, -0.016102439, -1384861.8, 236113.25, 0.0013953737, 10.001749, 9.999473 
3.5005033e+1, 1.445912e+2, -1338837.4, -1529481.1, 19528.918, -0.13146567, -0.19010171, -1336857.4, 186141.84, 0.0006105934, 10.00162, 9.999107 
3.5004914e+1, 1.5459165e+2, -1360097.9, -1490155.0, 58258.66, -0.07827615, -0.09764417, -1337817.9, 87178.64, 0.00016453842, 10.000811, 9.999096 
3.50052e+1, 1.6459177e+2, -1315225.3, -1436546.6, 63124.68, 0.0027160307, 0.017469147, -1288339.1, 38656.047, 0.000017966355, 10.000506, 9.998953 
3.5006064e+1, 1.7459086e+2, -1167214.5, -1324090.5, 59082.176, 0.1253553, 0.0047579384, -1147452.6, 81550.195, 0.00000014192928, 10.0008955, 9.998862 
3.5006142e+1, 1.8458928e+2, -1029644.25, -1203843.4, 63118.52, 0.124892876, -0.034045216, -1009178.56, 121838.22, 0.0, 10.001163, 9.998874 
3.5005206e+1, 1.9458695e+2, -901680.4, -1098173.4, 63496.633, -0.026563467, -0.18538988, -882947.4, 150091.38, 0.0, 10.001396, 9.998817 
3.500445e+1, 2.0458609e+2, -829203.0, -978367.9, -27744.621, -0.051490217, -0.16382149, -824209.6, 110837.695, 0.0, 10.001084, 9.99912 
3.500385e+1, 2.1458663e+2, -870828.06, -953694.6, 13044.716, 0.063882075, -0.050465923, -868823.1, -31779.486, 0.0, 10.000147, 9.99907 
3.5003507e+1, 2.2458582e+2, -786422.3, -878150.4, 81971.984, 0.103147544, -0.02567737, -738356.0, 694.0954, 0.0, 10.000132, 9.998912 
3.5003456e+1, 2.3458338e+2, -538642.75, -718302.8, 62070.035, 0.05024132, -0.18881331, -519284.3, 121784.92, 0.0, 10.001193, 9.998829 
3.5002986e+1, 2.4458173e+2, -477940.03, -692870.5, -25646.654, 0.021483459, -0.20773514, -474922.13, 68162.23, 0.0, 10.001174, 9.998345 
3.5001957e+1, 2.5458077e+2, -589544.3, -704953.5, -31305.309, 0.008034051, -0.16362381, -581599.5, -136502.39, 0.0, 9.99977, 9.998266 
3.5002097e+1, 2.6457968e+2, -467940.4, -561445.25, 5434.1504, 0.036985867, -0.10816771, -467625.66, -120516.18, 0.0000000045955626, 9.999797, 9.998558 
3.50035e+1, 2.7457845e+2, -155827.92, -367888.0, 13667.384, 0.1038693, -0.114847906, -154950.67, 94170.45, 0.0000011896407, 10.001287, 9.9985 
3.5003564e+1, 2.8457746e+2, -42391.97, -198756.48, -24283.959, 0.11026813, -0.09223027, -38707.41, 112422.43, 0.000009641755, 10.001135, 9.999057 
3.500212e+1, 2.945759e+2, -284076.2, -260912.83, 49471.11, 0.038500316, -0.18833156, -221685.8, -168543.63, 0.0000464018, 9.99877, 9.999103 
3.5001302e+1, 3.04575e+2, -225240.64, -117205.64, 30667.467, 0.04429756, -0.23175558, -109107.25, -109107.25, 0.00019513248, 9.998468, 9.999911 
3.4999987e+1, 3.1457493e+2, -57903.055, -185369.55, 28648.54, 0.0074651395, -0.24528502, -51760.23, -51760.23, 0.00053834624, 10.00019, 9.998615 
4.5010307e+1, 1.2459548e+2, -1546956.3, -1749197.0, 126117.586, 0.24666142, -0.041143853, -1486425.9, 232532.03, 0.0022337737, 10.00161, 9.998954 
4.5007432e+1, 1.345947e+2, -1461297.4, -1633211.3, 64528.297, -0.061237097, -0.07328816, -1439771.9, 181192.34, 0.0013153872, 10.001459, 9.999161 
4.5006225e+1, 1.4459239e+2, -1358695.1, -1544278.4, 32298.742, -0.15233378, -0.20480484, -1353234.5, 169751.52, 0.00056916923, 10.001497, 9.999078 
4.5006755e+1, 1.5459222e+2, -1207416.1, -1424939.6, -21140.322, -0.01431409, -0.16458878, -1205380.6, 219607.6, 0.00014812649, 10.001882, 9.999044 
4.5007282e+1, 1.645922e+2, -1125845.0, -1367004.9, -3129.6614, 0.102848694, -0.05109442, -1125804.4, 201183.42, 0.000013959289, 10.001909, 9.998753 
4.5007923e+1, 1.745917e+2, -1083542.8, -1306503.0, -15760.633, 0.1984718, -0.0005010203, -1082434.1, 146557.16, 0.000000037538413, 10.001571, 9.99866 
4.500771e+1, 1.8459012e+2, -1067791.5, -1264682.1, 11923.136, 0.17993765, -0.010924682, -1067072.1, 63934.58, 0.0, 10.001085, 9.998506 
4.5006382e+1, 1.9458732e+2, -1092074.4, -1234282.9, -14723.674, 0.017771142, -0.1674536, -1090565.9, -57530.367, 0.0, 10.000278, 9.99843 
4.5005286e+1, 2.0458616e+2, -903337.8, -967414.94, -82578.61, -0.02972085, -0.17389609, -846800.44, 88246.35, 0.0, 10.000364, 9.999544 
4.500448e+1, 2.145867e+2, -655298.56, -799585.94, -94601.336, 0.061347604, -0.108525135, -608471.1, 228568.66, 0.0, 10.001402, 9.999524 
4.50043e+1, 2.24586e+2, -611004.2, -844045.5, 1667.6277, 0.10989128, -0.075372405, -610992.3, 128052.81, 0.0, 10.001546, 9.998474 
4.5004854e+1, 2.3458377e+2, -661607.8, -832509.56, -9854.828, 0.111984454, -0.16727886, -661041.44, -19975.553, 0.0, 10.0005865, 9.998348 
4.500442e+1, 2.4458215e+2, -600274.1, -750959.1, -57326.21, 0.10014058, -0.15774615, -580944.6, -37862.188, 0.0, 10.000339, 9.998342 
4.5002782e+1, 2.545809e+2, -416905.75, -624982.56, -56381.387, 0.06262466, -0.14619532, -402610.53, 42487.418, 0.0, 10.000962, 9.99824 
4.5002687e+1, 2.6457983e+2, -291992.47, -427920.28, 64571.84, 0.074689835, -0.10872891, -266208.78, 80900.18, 0.000000013083459, 10.000804, 9.998988 
4.5004493e+1, 2.7457908e+2, -334020.25, -405274.06, 90560.16, 0.15624818, -0.11261095, -272331.06, -23217.182, 0.0000010541644, 9.999859, 9.998938 
4.5004377e+1, 2.8457817e+2, -248807.89, -264543.0, 9443.622, 0.16645943, -0.11072807, -244383.97, -93264.04, 0.000008106713, 9.999568, 9.999371 
4.500197e+1, 2.9457656e+2, -79643.914, -136386.14, -41754.45, 0.093127154, -0.2418683, -57533.8, -4400.8086, 0.000037622078, 10.000056, 9.999348 
4.5001125e+1, 3.045762e+2, 11545.423, -46038.0, 3335.62, 0.10120435, -0.22083485, 11738.001, 11738.001, 0.00016443121, 10.000269, 9.999528 
4.5000267e+1, 3.1457585e+2, -115168.9, -277668.06, 1422.3427, 0.037543453, -0.23837014, -115156.445, -115156.445, 0.00047154687, 10.000055, 9.998049 
5.501072e+1, 1.2459647e+2, -1543900.8, -1764240.8, 85511.74, 0.03934808, -0.16705279, -1514608.6, 204335.28, 0.0021078985, 10.001677, 9.998826 
5.500962e+1, 1.3459659e+2, -1474904.0, -1681641.5, 72535.44, -0.036167342, -0.07471645, -1451993.3, 168951.03, 0.0012334009, 10.001534, 9.998794 
5.5008924e+1, 1.4459519e+2, -1410031.9, -1656196.9, 27093.76, -0.08196699, -0.06245622, -1407085.1, 115874.35, 0.00052778376, 10.001513, 9.998304 
5.500887e+1, 1.5459336e+2, -1263291.1, -1547018.3, 6604.3247, -0.03215261, -0.104968786, -1263137.5, 161841.22, 0.00013278752, 10.001902, 9.998199 
5.500861e+1, 1.6459188e+2, -1141115.4, -1386053.8, -28889.564, 0.0078018196, -0.08914897, -1137754.1, 189237.88, 0.0000106646075, 10.001858, 9.998643 
5.500854e+1, 1.7459014e+2, -1087624.5, -1310831.6, -16807.08, 0.0664088, -0.16066183, -1086366.0, 142638.8, 0.000000007551507, 10.001554, 9.998635 
5.5008376e+1, 1.8458878e+2, -1106626.9, -1325852.1, -31759.986, 0.105900645, -0.13084607, -1102118.4, 28900.295, 0.0, 10.001002, 9.998125 
5.5007994e+1, 1.9458787e+2, -1130149.3, -1296956.0, -33479.48, 0.1178646, -0.055596843, -1123680.5, -90646.586, 0.0, 10.000213, 9.998031 
5.5006623e+1, 2.0458712e+2, -917037.44, -963456.56, -56120.652, 0.038119767, -0.007905372, -879516.4, 55526.332, 0.0, 10.000233, 9.999631 
5.50041e+1, 2.1458627e+2, -664380.4, -791353.44, -43087.387, -0.14914785, -0.088899106, -651139.75, 185906.58, 0.0, 10.00129, 9.999632 
5.500381e+1, 2.2458538e+2, -628948.4, -856058.0, -42911.47, -0.123945005, -0.08011432, -621110.9, 117942.67, 0.0, 10.001438, 9.998445 
5.5006146e+1, 2.3458432e+2, -681067.06, -847514.2, -33250.164, 0.1536485, -0.05072224, -674670.7, -33604.234, 0.0, 10.000477, 9.998298 
5.5006075e+1, 2.4458309e+2, -585164.06, -702332.8, -45505.246, 0.1997274, -0.018209966, -569567.2, -26487.09, 0.0, 10.000268, 9.998708 
5.5003285e+1, 2.5458136e+2, -409501.94, -572096.3, -21400.352, -0.017179372, -0.09246726, -406732.44, 38364.69, 0.0, 10.0008135, 9.998668 
5.500255e+1, 2.6458046e+2, -231167.72, -296199.4, 18397.79, -0.051765334, -0.11036277, -226323.7, 120779.92, 0.000000016276152, 10.000771, 9.999914 
5.5004364e+1, 2.745803e+2, -279458.78, -276372.97, 67065.664, 0.12438943, -0.1462522, -210832.47, 38266.063, 0.00000094951764, 9.999781, 9.999867 
5.5004084e+1, 2.8457984e+2, -315145.66, -392402.34, 13801.946, 0.14931175, -0.10898163, -312753.97, -161652.75, 0.0000068871877, 9.999533, 9.998505 
5.5001456e+1, 2.945785e+2, -161254.73, -283090.4, -9978.81, -0.002035455, -0.1160647, -160442.83, -107325.03, 0.00003070153, 9.999955, 9.998388 
5.5001223e+1, 3.045776e+2, 14297.828, -21130.197, -7877.99, 0.053377386, -0.11126651, 15970.641, 15970.641, 0.00013855331, 10.000201, 9.999731 
5.5001193e+1, 3.1457704e+2, -55372.965, -123762.98, 29411.963, 0.059557706, -0.16544825, -44464.066, -44464.066, 0.0004144919, 9.999946, 9.999151 
6.5011615e+1, 1.2459775e+2, -1595135.6, -1805614.6, 32640.18, -0.002778553, -0.14171468, -1590190.1, 128742.6, 0.0019834668, 10.001352, 9.998721 
6.501231e+1, 1.345975e+2, -1381901.1, -1673709.9, -28214.238, 0.05544772, -0.050221436, -1379198.3, 241739.31, 0.001149572, 10.002306, 9.998493 
6.501211e+1, 1.4459658e+2, -1306393.6, -1630183.0, -33012.13, 0.055324405, 0.035572767, -1303062.1, 219886.47, 0.00048384682, 10.002341, 9.998079 
6.5010726e+1, 1.5459423e+2, -1311546.1, -1590793.6, -43067.965, -0.013774106, -0.036795326, -1305054.6, 119918.91, 0.00011744106, 10.00168, 9.997992 
6.5009874e+1, 1.6459222e+2, -1184712.3, -1383882.9, -12424.285, -0.022100218, -0.071525685, -1183940.1, 143050.9, 0.000008467286, 10.001461, 9.998848 
6.5009886e+1, 1.7458996e+2, -1070562.4, -1278252.5, -5553.004, 0.05318752, -0.21452749, -1070414.0, 158592.39, 0.000000004638606, 10.001578, 9.998841 
6.5009725e+1, 1.845887e+2, -1001560.2, -1269477.3, 17610.69, 0.11611164, -0.18817815, -1000407.56, 130610.77, 0.0, 10.001701, 9.998171 
6.5009284e+1, 1.9458856e+2, -902331.0, -1182923.8, 22106.133, 0.15753804, -0.043346964, -900600.06, 132426.75, 0.0, 10.001757, 9.998069 
6.500779e+1, 2.0458785e+2, -780461.94, -930457.06, 36148.574, 0.08793185, 0.022369811, -772204.75, 162830.83, 0.0, 10.001296, 9.999357 
6.500506e+1, 2.145863e+2, -867737.2, -920676.75, 156.52916, -0.11055707, -0.100031905, -867736.75, -30690.361, 0.0, 10.000023, 9.99936 
6.500467e+1, 2.2458531e+2, -836040.75, -934650.4, 24456.398, -0.096825734, -0.09473688, -830308.44, -91253.36, 0.0, 9.999919, 9.998637 
6.5007025e+1, 2.345849e+2, -560292.0, -763657.9, 29139.55, 0.16694123, -0.02411948, -556199.06, 84863.305, 0.0, 10.001187, 9.998531 
6.500692e+1, 2.4458396e+2, -423132.0, -618617.0, 24025.572, 0.21238458, 0.023962742, -420222.5, 122850.59, 0.0, 10.0013485, 9.998779 
6.5004e+1, 2.545823e+2, -489988.4, -602573.6, -2199.8962, 0.012897404, -0.05310855, -489945.44, -44856.035, 0.0, 10.00022, 9.99876 
6.500306e+1, 2.645812e+2, -374085.0, -357417.0, 15833.388, -0.019220194, -0.088745736, -347858.22, -761.47784, 0.00000000394634, 9.999754, 9.99999 
6.5004516e+1, 2.7458087e+2, -213823.33, -229751.75, -22902.39, 0.15078764, -0.15328568, -197539.89, 51553.86, 0.0000007712445, 10.000184, 9.999984 
6.5004003e+1, 2.845805e+2, -235172.06, -371250.28, -52362.105, 0.16717477, -0.10490838, -217356.0, -66259.97, 0.000006042053, 10.000164, 9.99834 
6.5001416e+1, 2.9457965e+2, -242790.2, -332078.16, -44801.82, 0.035652075, -0.049186826, -224186.34, -171077.31, 0.000026519589, 9.999463, 9.998275 
6.5001327e+1, 3.0457824e+2, -119946.09, -110561.63, 13885.766, 0.09764082, -0.07873805, -100596.734, -100596.734, 0.00012024143, 9.999372, 9.999526 
6.500184e+1, 3.1457812e+2, -19127.943, -37698.17, -25347.936, 0.14952515, -0.064122126, -1418.0364, -1418.0364, 0.00036921015, 9.999873, 9.999801 
7.501216e+1, 1.24599054e+2, -1573966.9, -1771082.1, 25092.018, -0.16152318, 0.032992672, -1570822.9, 148104.34, 0.0018629195, 10.001403, 9.998929 
7.5014913e+1, 1.3459726e+2, -1387886.3, -1698452.5, 12677.188, 0.044500437, -0.013619315, -1387369.6, 233575.4, 0.0010666472, 10.002358, 9.998299 
7.501503e+1, 1.4459655e+2, -1287009.9, -1583590.6, -70558.34, 0.07139116, 0.08717755, -1271079.4, 251873.89, 0.0004391749, 10.002316, 9.998411 
7.5011915e+1, 1.5459472e+2, -1283953.5, -1544324.9, -52170.293, -0.10242907, 0.032670073, -1273889.3, 151084.42, 0.00010226521, 10.001717, 9.9983 
7.5010604e+1, 1.645932e+2, -1158201.0, -1315926.0, -22774.797, -0.12863573, 0.005818442, -1154978.3, 172007.34, 0.000007138289, 10.0014105, 9.999334 
7.501155e+1, 1.7459121e+2, -1041023.94, -1213055.5, 9153.336, 0.025429927, -0.16122824, -1040538.25, 188457.81, 0.00000003688298, 10.001558, 9.9993 
7.501134e+1, 1.8458983e+2, -981907.2, -1213526.0, 6810.7974, 0.07636337, -0.18995027, -981707.06, 149299.2, 0.0, 10.001633, 9.998591 
7.500984e+1, 1.9458918e+2, -876898.2, -1119826.9, 35228.707, 0.0039846417, -0.13833587, -871892.6, 161123.22, 0.0, 10.001714, 9.998524 
7.500843e+1, 2.045883e+2, -836293.9, -1024740.4, -20404.64, -0.0060748244, -0.08759072, -834109.8, 100916.28, 0.0, 10.001204, 9.998753 
7.5006956e+1, 2.1458676e+2, -927831.7, -1023148.56, -36588.184, 0.045886956, -0.14512151, -915406.7, -78366.484, 0.0, 9.999921, 9.998708 
7.5006455e+1, 2.2458583e+2, -824094.25, -884125.44, 58333.34, 0.06147615, -0.12118742, -788507.1, -49457.773, 0.0, 9.999808, 9.999036 
7.500711e+1, 2.3458545e+2, -548278.2, -710425.4, 91246.52, 0.027676586, -0.09350013, -507290.9, 133763.3, 0.0, 10.00106, 9.998961 
7.500651e+1, 2.4458483e+2, -450062.1, -658804.06, -26242.775, 0.008955096, -0.026087182, -446813.47, 96247.86, 0.0, 10.001281, 9.998532 
7.500452e+1, 2.5458366e+2, -527040.75, -656630.44, -33453.08, 0.012875857, -0.023713188, -518914.53, -73840.67, 0.0, 10.000114, 9.998442 
7.500373e+1, 2.6458234e+2, -439285.47, -473189.34, 18959.492, 0.04510583, -0.03200263, -430804.53, -83717.984, 0.00000000015133415, 9.999679, 9.999228 
7.5004447e+1, 2.7458084e+2, -286045.22, -352937.47, 10126.083, 0.09194616, -0.13472772, -284545.94, -35446.84, 0.00000065427645, 10.000073, 9.999187 
7.500378e+1, 2.8458023e+2, -196870.17, -287493.44, -87751.03, 0.095188044, -0.09892115, -143422.56, 7681.6895, 0.0000058927376, 10.000139, 9.99893 
7.5001425e+1, 2.9457995e+2, -205629.42, -239831.05, -58480.48, 0.052328963, -0.050640747, -161800.73, -108693.414, 0.000025865007, 9.999378, 9.99896 
7.500099e+1, 3.0457807e+2, -178826.2, -211604.45, 28460.719, 0.09629824, -0.12894408, -162373.05, -162373.05, 0.00011203884, 9.999299, 9.998856 
7.500136e+1, 3.1457883e+2, -23312.74, -6597.497, 40860.203, 0.0522245, 0.044292323, 26751.066, 26751.066, 0.00034091447, 9.999713, 10.000081 
8.501448e+1, 1.2459911e+2, -1404415.0, -1618470.3, 77315.32, -0.09930007, 0.06715963, -1379410.3, 339519.2, 0.0017451695, 10.002283, 9.999541 
8.501679e+1, 1.3459696e+2, -1483373.4, -1707903.1, 39921.22, 0.050359793, -0.04269831, -1476486.6, 144461.78, 0.0009891815, 10.001569, 9.9986 
8.501663e+1, 1.4459662e+2, -1442622.6, -1620279.4, -8126.6953, 0.07435653, 0.06194281, -1442251.6, 80699.99, 0.000399723, 10.001059, 9.9987755 
8.501369e+1, 1.5459515e+2, -1376220.0, -1548890.1, -15070.633, -0.04743618, 0.008300329, -1374914.5, 50053.797, 0.00008899464, 10.000906, 9.998661 
8.501239e+1, 1.6459414e+2, -1197182.3, -1336486.8, 52144.973, -0.06914087, 0.013163179, -1179825.6, 147150.45, 0.000006071428, 10.001144, 9.999328 
8.501318e+1, 1.7459278e+2, -1019011.0, -1201451.0, 22492.346, 0.035185423, -0.088554636, -1016278.94, 212703.23, 0.000000076650345, 10.001705, 9.999311 
8.5012746e+1, 1.8459141e+2, -998792.3, -1208823.5, -20106.719, 0.07161368, -0.12000131, -996884.8, 134107.53, 0.0, 10.001455, 9.9987135 
8.5011e+1, 1.9459018e+2, -1096920.5, -1214203.0, -39376.938, 0.035421606, -0.13840163, -1084926.5, -51920.01, 0.0, 10.000145, 9.998635 
8.50095e+1, 2.0458913e+2, -1008213.75, -1105705.0, -45315.863, 0.04644883, -0.10890763, -990403.6, -55386.063, 0.0, 10.000031, 9.998753 
8.500805e+1, 2.1458802e+2, -730332.8, -930493.5, -41496.867, 0.103394456, -0.12196573, -722070.8, 114957.03, 0.0, 10.0013, 9.998676 
8.5007346e+1, 2.24587e+2, -609068.7, -777564.75, 77524.086, 0.10403305, -0.10445617, -578827.8, 160209.81, 0.0, 10.00129, 9.999043 
8.500761e+1, 2.3458605e+2, -742788.56, -800327.3, 51436.89, 0.046222918, -0.13287657, -712622.1, -71574.8, 0.0, 9.999728, 9.998973 
8.500705e+1, 2.4458525e+2, -680145.0, -749268.3, -30355.67, 0.02640727, -0.092044644, -668706.94, -125651.68, 0.0, 9.9996, 9.998718 
8.5005623e+1, 2.5458446e+2, -350635.84, -547842.44, -23140.248, 0.06557812, -0.07095594, -347956.97, 97105.83, 0.0, 10.001225, 9.998648 
8.5004735e+1, 2.6458332e+2, -237431.08, -442622.3, 45897.46, 0.10431907, -0.045883503, -227632.58, 119442.305, 0.0000000019213902, 10.001321, 9.998657 
8.5004663e+1, 2.7458167e+2, -425045.25, -490915.4, 23406.275, 0.14866146, -0.105886005, -417575.2, -168482.02, 0.0000006294421, 9.999392, 9.998584 
8.5003686e+1, 2.8458077e+2, -328692.3, -327181.56, -6029.3057, 0.13155106, -0.07317448, -321860.5, -170758.86, 0.0000062489003, 9.999123, 9.99915 
8.500164e+1, 2.945804e+2, 65906.35, -74161.14, -28441.088, 0.061851423, -0.061048888, 71461.11, 124563.98, 0.000027811611, 10.001096, 9.999268 
8.5000885e+1, 3.0457836e+2, 60960.473, -152437.7, 16400.102, 0.07511624, -0.14964621, 62213.496, 62213.496, 0.00011222166, 10.001168, 9.998377 
8.5000944e+1, 3.145788e+2, -206766.17, -89106.53, 3883.9382, 0.12093592, 0.04026417, -88978.46, -88978.46, 0.00032900518, 9.998423, 10.0001335 
9.5017725e+1, 1.2459814e+2, -1339245.1, -1478629.0, 14780.064, -0.074672505, -0.022615893, -1337695.0, 381242.06, 0.0016362383, 10.002266, 10.000507 
9.501736e+1, 1.3459653e+2, -1423422.8, -1606087.9, 23671.7, -0.0884694, -0.14644738, -1420405.0, 200543.19, 0.0009229167, 10.001658, 9.999256 
9.5016503e+1, 1.4459676e+2, -1411629.4, -1556172.8, -28449.447, -0.08431555, -0.04199332, -1406231.4, 116712.62, 0.00036888671, 10.001061, 9.999213 
9.5015603e+1, 1.5459558e+2, -1347227.8, -1494300.5, -7980.087, 0.015523569, -0.10744614, -1346796.0, 78161.02, 0.00007923838, 10.000926, 9.999026 
9.5014876e+1, 1.6459511e+2, -1236562.1, -1409241.4, 60775.906, 0.035103258, -0.04181301, -1217316.5, 109645.07, 0.0000051224774, 10.001102, 9.998851 
9.501432e+1, 1.745947e+2, -1053452.4, -1273356.8, 57741.813, -0.055556882, 0.00044823907, -1039212.75, 189751.34, 0.00000007826353, 10.001703, 9.998818 
9.501353e+1, 1.8459356e+2, -1023844.1, -1246722.9, -76399.81, -0.025543554, 0.025651636, -1000170.0, 130805.83, 0.0, 10.001392, 9.998483 
9.5012385e+1, 1.945916e+2, -1121022.8, -1251589.8, -75053.86, 0.12695315, -0.04699736, -1086832.5, -53834.47, 0.0, 10.000087, 9.998405 
9.5010597e+1, 2.0459044e+2, -989483.7, -1044531.7, -12059.885, 0.12543795, -0.037145752, -986957.5, -51948.31, 0.0, 9.999928, 9.999225 
9.5007944e+1, 2.1458992e+2, -708761.4, -863608.6, 21162.334, -0.06787033, -0.0428377, -705921.3, 131089.03, 0.0, 10.001199, 9.9991865 
9.5006967e+1, 2.2458868e+2, -656196.5, -851836.1, 13415.821, -0.09349468, -0.052043412, -655280.8, 83740.055, 0.0, 10.001187, 9.998583 
9.500806e+1, 2.3458646e+2, -791611.1, -882672.56, 3101.6855, 0.08715226, -0.15953152, -791505.6, -150461.64, 0.0, 9.999636, 9.998455 
9.500812e+1, 2.445851e+2, -647311.4, -658814.94, 13907.178, 0.14598167, -0.1815975, -638013.5, -94957.33, 0.0, 9.999505, 9.999385 
9.5006937e+1, 2.5458455e+2, -311291.38, -450696.7, 54445.8, 0.043069664, -0.2090736, -292547.4, 152509.8, 0.0, 10.001149, 9.999354 
9.5005745e+1, 2.6458395e+2, -273266.56, -499666.22, -32273.932, 0.04524552, -0.14848822, -268755.7, 78307.96, 0.0000000017799018, 10.001255, 9.998293 
9.500468e+1, 2.7458313e+2, -471390.25, -558052.4, -38709.445, 0.18016823, -0.08474963, -456617.94, -207540.16, 0.0000005677249, 9.99927, 9.998178 
9.500332e+1, 2.8458226e+2, -349591.0, -358072.13, 49733.44, 0.15213278, -0.02362147, -303917.66, -152829.72, 0.0000064583187, 9.999069, 9.998961 
9.5001626e+1, 2.9458106e+2, 35842.76, -111878.35, 68169.11, -0.08594114, -0.08233942, 62492.95, 115588.98, 0.000029725905, 10.000984, 9.999063 
9.500062e+1, 3.045791e+2, 40345.133, -182362.98, -83953.234, -0.09610406, -0.14263262, 68446.7, 68446.7, 0.0001135958, 10.001114, 9.99819 
9.499972e+1, 3.1457812e+2, -243614.14, -134700.53, -56894.777, 0.09078076, -0.07412563, -110401.01, -110401.01, 0.00032168903, 9.998289, 9.999883 
1.0502019e+2, 1.2459861e+2, -1359905.5, -1508541.9, 82448.82, -0.033615645, -0.054244734, -1323223.8, 395706.13, 0.0015480418, 10.002181, 10.000356 
1.050187e+2, 1.3459685e+2, -1499561.4, -1689883.5, -45910.98, -0.09135094, -0.14697413, -1489065.1, 131879.48, 0.00087241904, 10.001325, 9.99885 
1.05017565e+2, 1.4459695e+2, -1361959.0, -1506455.0, -71377.93, -0.0872884, -0.048095636, -1332646.3, 190295.84, 0.0003471946, 10.001316, 9.999421 
1.0501773e+2, 1.5459575e+2, -1117346.5, -1369337.3, -92629.5, 0.07079112, -0.12828982, -1086960.8, 337992.25, 0.000073446034, 10.002448, 9.999154 
1.0501714e+2, 1.6459526e+2, -1063233.5, -1336345.8, -25767.969, 0.09711059, -0.06768012, -1060823.6, 266134.44, 0.000004420773, 10.002353, 9.998735 
1.0501586e+2, 1.745949e+2, -1194443.1, -1359913.3, -30340.139, -0.020132324, -0.006319637, -1189055.5, 39907.73, 0.000000050630582, 10.000827, 9.99864 
1.05014585e+2, 1.8459393e+2, -1141860.8, -1276427.3, -103321.875, -0.0059902556, 0.034122005, -1085845.8, 45128.64, 0.0, 10.000473, 9.998716 
1.0501324e+2, 1.945923e+2, -930176.56, -1129807.1, -95148.734, 0.15241125, -0.03051617, -892092.0, 140900.33, 0.0, 10.001282, 9.998657 
1.0501138e+2, 2.0459135e+2, -755066.2, -910771.06, 20160.57, 0.14369328, -0.022189379, -752498.1, 182502.66, 0.0, 10.0014515, 9.999409 
1.05009e+2, 2.1459097e+2, -765820.75, -868769.94, 3982.1086, -0.050371535, -0.032541446, -765667.0, 71333.484, 0.0, 10.000716, 9.999381 
1.05007835e+2, 2.2458985e+2, -762451.75, -908476.1, -10941.714, -0.0818398, -0.03719061, -761636.44, -22626.602, 0.0, 10.00047, 9.998555 
1.0500824e+2, 2.3458779e+2, -626670.2, -807068.9, -11820.216, 0.09257219, -0.12176437, -625899.0, 15132.717, 0.0, 10.000787, 9.998428 
1.0500827e+2, 2.4458645e+2, -469214.94, -553187.6, 61793.938, 0.15975559, -0.1462906, -436492.88, 106550.47, 0.0, 10.000647, 9.9995575 
1.0500796e+2, 2.545858e+2, -482345.84, -511306.6, 41168.035, 0.10025633, -0.20376302, -453185.78, -8140.9077, 0.0, 9.999895, 9.999535 
1.0500665e+2, 2.6458526e+2, -483298.78, -577525.94, -66310.8, 0.09430296, -0.15788552, -449068.56, -102018.58, 0.00000000014537505, 9.999732, 9.998485 
1.0500435e+2, 2.7458465e+2, -304775.94, -457934.16, -56971.95, 0.17507546, -0.090048574, -285907.88, -36846.94, 0.00000042821608, 10.000343, 9.998344 
1.0500283e+2, 2.8458372e+2, -185455.13, -281351.6, 123967.55, 0.14797539, -0.042068727, -100486.14, 50585.02, 0.0000059800022, 10.000188, 9.99896 
1.0500221e+2, 2.945823e+2, -251620.81, -256242.11, 127447.34, -0.017350262, -0.120040454, -126463.17, -73381.74, 0.000029321069, 9.999023, 9.9990225 
1.0500103e+2, 3.0458084e+2, -296764.25, -290766.16, -23811.809, -0.028365804, -0.1497318, -269765.28, -269765.28, 0.000109980174, 9.998575, 9.998662 
1.049988e+2, 3.1457958e+2, -141601.98, -58366.496, 10042.03, 0.15354677, -0.16078587, -57172.105, -57172.105, 0.0003078243, 9.998878, 10.000118 
1.15020975e+2, 1.2460034e+2, -1442808.0, -1696607.0, 17593.232, -0.2479521, -0.032276046, -1441594.3, 277315.2, 0.0014882531, 10.00224, 9.999038 
1.15020424e+2, 1.3459785e+2, -1593138.4, -1897378.9, -71059.4, -0.08779472, -0.049263813, -1577359.9, 43578.777, 0.000840427, 10.001378, 9.997399 
1.1501952e+2, 1.4459713e+2, -1374561.6, -1521404.5, -46841.242, -0.059122074, 0.04384944, -1360892.3, 162054.17, 0.00033535642, 10.001266, 9.999343 
1.1501945e+2, 1.5459567e+2, -1116787.4, -1368328.4, -32597.152, -0.03840134, -0.061202634, -1112631.8, 312324.16, 0.0000716502, 10.0024605, 9.999147 
1.1501876e+2, 1.6459459e+2, -1055762.3, -1318095.6, -89933.59, -0.011155909, -0.06514171, -1027892.06, 299073.1, 0.0000041980056, 10.002333, 9.998878 
1.1501751e+2, 1.7459333e+2, -1180845.5, -1332010.9, -75821.45, 0.027760046, -0.113234095, -1149369.1, 79610.93, 0.000000024917117, 10.000829, 9.998831 
1.1501569e+2, 1.8459253e+2, -1110254.5, -1187945.9, -86928.74, 0.030422837, -0.09447054, -1053886.8, 77101.68, 0.0, 10.000374, 9.999376 
1.15013115e+2, 1.9459222e+2, -886957.0, -1030454.25, -51485.63, -0.022807557, -0.09544999, -870395.7, 162594.38, 0.0, 10.001238, 9.999363 
1.1501145e+2, 2.0459183e+2, -780869.75, -939123.8, -17586.662, -0.022268478, -0.062448516, -778938.94, 156053.8, 0.0, 10.001343, 9.999267 
1.1501081e+2, 2.1459104e+2, -794996.9, -902311.75, -13638.992, 0.03231771, -0.09732494, -793290.56, 43708.703, 0.0, 10.000597, 9.999208 
1.150096e+2, 2.2459047e+2, -753653.06, -861100.2, -12033.671, 0.02424166, -0.056278132, -752321.8, -13316.929, 0.0, 10.000348, 9.998937 
1.1500776e+2, 2.3458996e+2, -612579.8, -752604.4, 13874.228, -0.06339461, -0.027681742, -611218.3, 29792.797, 0.0, 10.00067, 9.998859 
1.15007184e+2, 2.4458928e+2, -508549.56, -608588.44, 23542.646, -0.04153379, 0.00491913, -503286.1, 39731.42, 0.0, 10.000542, 9.999226 
1.15008235e+2, 2.5458816e+2, -524409.0, -571025.75, 21831.867, 0.108813025, -0.06053174, -515781.34, -70755.28, 0.0, 9.99978, 9.99918 
1.1500708e+2, 2.6458716e+2, -440398.8, -478698.3, -55970.35, 0.13683552, -0.07458214, -400392.9, -53358.8, 0.0, 9.999686, 9.999192 
1.1500332e+2, 2.7458608e+2, -265653.47, -356279.6, -18485.613, 0.0079213185, -0.12577587, -262027.89, -12984.541, 0.0000002594802, 10.000246, 9.999098 
1.1500181e+2, 2.8458512e+2, -183628.42, -259017.39, 73346.78, -0.0013013241, -0.13263744, -138857.0, 12194.794, 0.000005001763, 10.000118, 9.999145 
1.1500299e+2, 2.9458416e+2, -270112.9, -259527.14, 97469.75, 0.12291498, -0.17486297, -167206.67, -114147.1, 0.000026475647, 9.998878, 9.99907 
1.15001746e+2, 3.0458364e+2, -227985.94, -125898.48, -16699.969, 0.15767737, -0.16428928, -123236.05, -123236.05, 0.000100772006, 9.998502, 9.999822 
1.1499736e+2, 3.1458327e+2, -106828.81, 45877.63, 56692.18, 0.056137927, -0.21707715, 64623.395, 64623.395, 0.00028477798, 9.998753, 10.000891 
1.2502356e+2, 1.2460119e+2, -1549758.9, -1765806.8, 6527.2305, -0.16969186, -0.043413635, -1549561.9, 169336.5, 0.0014562852, 10.001605, 9.998857 
1.2502287e+2, 1.3459888e+2, -1463698.1, -1856191.9, -36387.19, -0.015597535, -0.025214344, -1460353.3, 160574.05, 0.0008261713, 10.002363, 9.997208 
1.2502147e+2, 1.4459759e+2, -1269417.1, -1474144.8, 72577.96, -0.014940683, 0.024194656, -1246298.3, 276642.38, 0.00033346904, 10.002001, 9.99931 
1.2502073e+2, 1.545959e+2, -1378430.6, -1499311.3, 52327.01, -0.059925407, -0.10087732, -1358926.4, 66025.44, 0.00007407354, 10.000682, 9.999101 
1.250198e+2, 1.6459477e+2, -1329895.0, -1437949.0, 5981.702, -0.03586905, -0.114089146, -1329564.9, -2603.3406, 0.000004716059, 10.000384, 9.999006 
1.2501872e+2, 1.7459376e+2, -1132942.6, -1297554.5, -5221.1436, 0.062382553, -0.14532511, -1132777.3, 96197.66, 0.000000012759114, 10.001086, 9.998959 
1.2501687e+2, 1.8459326e+2, -943458.1, -1069880.4, 20973.072, 0.06967245, -0.12118138, -940069.56, 190910.83, 0.0, 10.001359, 9.999702 
1.250141e+2, 1.9459338e+2, -889822.5, -997596.25, 3962.2468, -0.03261172, -0.11031629, -889677.0, 143299.27, 0.0, 10.001073, 9.999665 
1.2501237e+2, 2.0459302e+2, -890500.75, -1032762.5, 4419.9453, -0.028048022, -0.07326845, -890363.56, 44615.383, 0.0, 10.000766, 9.998901 
1.2501189e+2, 2.1459185e+2, -865547.4, -979648.6, -33320.02, 0.103795014, -0.105535775, -856529.9, -19538.365, 0.0, 10.000303, 9.9988165 
1.2501045e+2, 2.245911e+2, -792754.25, -847020.3, 2736.0857, 0.10400768, -0.076652996, -792616.6, -53617.676, 0.0, 9.999929, 9.999229 
1.2500797e+2, 2.3459074e+2, -740059.7, -775618.9, -1338.1885, -0.048626408, -0.066844486, -740009.4, -99007.89, 0.0, 9.999642, 9.999186 
1.2500714e+2, 2.4459028e+2, -649118.9, -686396.94, 27743.83, -0.047096964, -0.024797201, -634334.4, -91329.01, 0.0, 9.999616, 9.999141 
1.2500842e+2, 2.545895e+2, -512760.78, -581878.75, 21725.725, 0.15142497, -0.04654455, -506499.06, -61486.09, 0.0, 9.999915, 9.99905 
1.2500723e+2, 2.6458848e+2, -389227.94, -441970.06, -30414.648, 0.17620732, -0.060303975, -375343.75, -28322.18, 0.0, 9.999992, 9.999287 
1.2500317e+2, 2.7458704e+2, -318863.53, -367084.53, -64489.63, -0.0017110953, -0.16191317, -274124.72, -25091.723, 0.00000012209664, 9.999837, 9.999206 
1.2500139e+2, 2.8458613e+2, -274415.53, -296400.94, -18125.195, -0.014703465, -0.16984911, -264210.06, -113169.66, 0.000003888246, 9.999474, 9.999195 
1.2500247e+2, 2.945858e+2, -268841.7, -250786.95, -28362.002, 0.19565453, -0.15502234, -230050.31, -177007.22, 0.00002250982, 9.99886, 9.999135 
1.2500116e+2, 3.0458495e+2, -149532.11, -40499.063, -86915.695, 0.24800558, -0.20284186, 7582.6084, 7582.6084, 0.000088219014, 9.998787, 10.000304 
1.24996826e+2, 3.1458583e+2, -61928.758, 69419.34, -124540.0, 0.12835783, -0.1816904, 144540.5, 144540.5, 0.00025421134, 9.999037, 10.000934 
1.3502717e+2, 1.2460106e+2, -1491633.9, -1640177.6, -14469.248, -0.036928833, -0.09800167, -1490237.6, 228660.16, 0.0014504805, 10.001584, 9.999731 
1.3502553e+2, 1.3459986e+2, -1375657.9, -1681286.8, 922.5027, -0.022452924, -0.08166288, -1375655.1, 245255.64, 0.0008289551, 10.002406, 9.998383 
1.3502297e+2, 1.4459841e+2, -1272009.8, -1490335.4, 8819.971, -0.10722377, -0.10621167, -1271654.0, 251270.4, 0.0003411424, 10.002031, 9.99919 
1.3502122e+2, 1.5459643e+2, -1390498.6, -1522856.9, 14504.036, -0.111493535, -0.24436691, -1388928.0, 36012.832, 0.00008049032, 10.000667, 9.998952 
1.3501985e+2, 1.6459578e+2, -1335473.8, -1422142.3, 16051.126, -0.09602909, -0.20816067, -1332596.6, -5649.0225, 0.0000062176173, 10.000278, 9.99916 
1.3501894e+2, 1.7459622e+2, -1128793.3, -1277544.8, 37210.574, -0.05553646, -0.10967908, -1120004.3, 108943.55, 0.000000017143847, 10.001053, 9.999105 
1.3501756e+2, 1.8459626e+2, -955761.25, -1087325.1, 854.91644, -0.029635763, -0.036887027, -955755.7, 175193.16, 0.0, 10.001309, 9.999613 
1.3501562e+2, 1.9459575e+2, -903570.0, -1014711.56, 6851.253, -0.02122271, -0.08174914, -903149.25, 129802.2, 0.0, 10.001016, 9.999577 
1.3501373e+2, 2.0459488e+2, -947712.6, -1127872.8, -25627.072, 0.0048127323, -0.059432108, -944138.2, -9178.181, 0.0, 10.000662, 9.998301 
1.3501179e+2, 2.1459334e+2, -926802.6, -1077273.4, -35897.516, 0.035274215, -0.06795137, -918677.4, -81699.65, 0.0, 10.000175, 9.998209 
1.3501003e+2, 2.2459178e+2, -795502.75, -828924.44, -20267.408, 0.03962855, -0.09642234, -785945.4, -46953.387, 0.0, 9.999822, 9.999407 
1.3500841e+2, 2.3459007e+2, -741213.75, -750380.7, -261.0695, 0.0019205554, -0.24460842, -741206.3, -100202.81, 0.0, 9.999519, 9.999417 
1.3500771e+2, 2.4458942e+2, -651113.6, -670025.2, 27637.168, 0.021073263, -0.2424766, -631359.4, -88351.586, 0.0, 9.999528, 9.999294 
1.3500816e+2, 2.545898e+2, -519776.53, -568115.8, 46878.664, 0.10505529, -0.16495489, -491203.6, -46197.824, 0.0, 9.999794, 9.999202 
1.3500679e+2, 2.645892e+2, -439222.5, -528826.56, -46984.367, 0.10516759, -0.115605436, -419103.4, -72090.836, 0.0, 9.999924, 9.998719 
1.3500339e+2, 2.745873e+2, -377464.28, -458018.34, -58135.527, 0.004898723, -0.20226274, -347016.66, -97985.48, 0.000000046518082, 9.99971, 9.998639 
1.3500114e+2, 2.845866e+2, -280460.22, -302036.72, -51405.008, -0.016631247, -0.15906793, -238723.6, -87685.41, 0.0000029362805, 9.99944, 9.999173 
1.3500026e+2, 2.94587e+2, -279041.13, -255351.23, -35666.836, 0.052869678, -0.07938154, -229613.92, -176579.61, 0.000019015239, 9.998777, 9.999147 
1.3499883e+2, 3.0458468e+2, -166179.9, -57517.484, -84709.83, 0.11193143, -0.270553, -11212.541, -11212.541, 0.000075927965, 9.998725, 10.00021 
1.349964e+2, 3.1458718e+2, -130900.38, -43748.03, -88687.24, 0.118293755, -0.069671765, 11490.312, 11490.312, 0.0002226974, 9.998911, 10.0002165 
1.4502941e+2, 1.2460096e+2, -1512993.6, -1609659.0, 18705.959, 0.062090017, -0.14951284, -1509500.0, 209397.88, 0.0014659849, 10.001279, 10.000084 
1.4502706e+2, 1.346005e+2, -1651434.0, -1736146.3, -58827.234, 0.010782548, -0.12923534, -1621300.9, -399.55798, 0.0008466132, 10.000182, 9.999071 
1.4502406e+2, 1.4459954e+2, -1567078.8, -1613691.1, -28810.594, -0.08799693, -0.14752027, -1553327.9, -30417.805, 0.00035647568, 9.999918, 9.99937 
1.4502223e+2, 1.5459833e+2, -1366509.4, -1491602.1, -24002.389, -0.07082934, -0.22707205, -1362062.0, 62859.316, 0.00008921642, 10.000739, 9.999137 
1.4502063e+2, 1.6459796e+2, -1257151.3, -1356501.0, 27861.92, -0.05748233, -0.18444587, -1249871.0, 77054.39, 0.000008328298, 10.000705, 9.999394 
1.4501943e+2, 1.7459828e+2, -1316876.6, -1342328.4, 25922.617, -0.035799347, -0.12440402, -1300724.6, -71800.164, 0.0000000715251, 9.999651, 9.9993305 
1.4501809e+2, 1.8459822e+2, -1235036.6, -1264394.1, 22093.893, -0.015693905, -0.052190978, -1223189.8, -92263.48, 0.0, 9.99958, 9.999239 
1.4501645e+2, 1.9459762e+2, -993684.3, -1106194.5, -19633.488, -0.00982286, -0.06393288, -990356.6, 42576.066, 0.0, 10.000596, 9.9991665 
1.4501461e+2, 2.045966e+2, -893816.94, -1094954.9, -44012.34, 0.017656753, -0.03902026, -884607.94, 50335.773, 0.0, 10.001004, 9.998356 
1.4501248e+2, 2.1459492e+2, -857403.0, -1037490.94, -31341.066, 0.07295471, -0.069484696, -852104.56, -15142.753, 0.0, 10.000628, 9.99826 
1.4501064e+2, 2.245933e+2, -713079.94, -785067.06, 38521.03, 0.09637973, -0.10823021, -696353.44, 42622.426, 0.0, 10.000382, 9.999438 
1.4500909e+2, 2.345916e+2, -625786.8, -695633.25, 16628.592, 0.085205555, -0.25487792, -622030.06, 18956.744, 0.0, 10.000316, 9.999416 
1.450081e+2, 2.4459082e+2, -584511.94, -644439.75, 53551.492, 0.09030998, -0.26048648, -553111.4, -10119.12, 0.0, 10.000009, 9.999244 
1.4500783e+2, 2.5459096e+2, -576174.25, -598244.7, 32419.834, 0.11963617, -0.19989863, -552963.0, -107969.88, 0.0, 9.999425, 9.999169 
1.4500636e+2, 2.6459044e+2, -502021.56, -534805.8, -1634.6296, 0.1039827, -0.1521821, -501940.25, -154940.78, 0.0, 9.999376, 9.99895 
1.4500354e+2, 2.7458912e+2, -319086.97, -407404.8, 24322.44, 0.044743687, -0.20876418, -312831.72, -63818.81, 0.00000002138944, 9.999993, 9.998865 
1.4500116e+2, 2.8458872e+2, -212159.28, -298321.5, 48720.81, 0.019053267, -0.1315248, -190204.27, -39187.36, 0.0000023054517, 10.00003, 9.998916 
1.4499925e+2, 2.9458916e+2, -199472.44, -239796.66, 11556.473, 0.04988926, -0.017888967, -196395.3, -143382.4, 0.000016570593, 9.999427, 9.998931 
1.4499767e+2, 3.0458543e+2, -99765.65, -41794.637, 12594.089, 0.10771283, -0.33836716, -39176.81, -39176.81, 0.0000664134, 9.999276, 10.000037 
1.4499605e+2, 3.145884e+2, -107845.41, -108765.14, -57312.387, 0.1823209, -0.066466406, -50991.043, -50991.043, 0.0001967113, 9.999415, 9.999518 
1.5502962e+2, 1.24601275e+2, -1515063.5, -1642204.5, -51965.617, -0.11797383, -0.16674085, -1496526.5, 222368.45, 0.0014879738, 10.001385, 9.999821 
1.5502706e+2, 1.3460092e+2, -1639041.1, -1714297.8, -94524.72, -0.0385129, -0.14817661, -1574930.5, 45967.277, 0.0008684092, 10.000193, 9.999225 
1.5502426e+2, 1.4460106e+2, -1531799.3, -1530097.0, -16696.152, -0.09328566, -0.09305343, -1514230.4, 8666.68, 0.00037251608, 9.999879, 9.999958 
1.550232e+2, 1.5460165e+2, -1329115.5, -1403167.0, 20976.639, -0.08307891, -0.050962087, -1323586.4, 101306.234, 0.00009664872, 10.000705, 9.999752 
1.5502176e+2, 1.6460146e+2, -1244951.1, -1320420.3, -21715.482, -0.04692498, -0.03737751, -1239148.8, 87744.8, 0.000009881803, 10.000653, 9.999675 
1.5501983e+2, 1.7460008e+2, -1305786.6, -1305388.0, -394.04886, 0.010137942, -0.1709867, -1305145.8, -76242.14, 0.00000020107916, 9.999592, 9.999616 
1.5501799e+2, 1.8459928e+2, -1292000.6, -1370029.8, 45452.066, -0.009617907, -0.15558128, -1271115.1, -140203.13, 0.0, 9.999521, 9.998545 
1.5501615e+2, 1.9459896e+2, -1057303.3, -1219411.1, 33891.52, -0.12731877, -0.0646266, -1050503.0, -17582.777, 0.0, 10.000523, 9.998424 
1.550147e+2, 2.0459814e+2, -859990.1, -1002504.75, -66683.47, -0.1033945, -0.011977476, -833655.0, 101275.14, 0.0, 10.000902, 9.999046 
1.550135e+2, 2.1459658e+2, -822436.3, -933752.0, -33244.605, 0.08302194, -0.10381156, -813263.6, 23679.885, 0.0, 10.000495, 9.999038 
1.5501188e+2, 2.2459565e+2, -742831.56, -825495.06, 24300.943, 0.1541197, -0.10586159, -736217.0, 2733.5535, 0.0, 10.000283, 9.999211 
1.5500964e+2, 2.3459522e+2, -661320.1, -746342.0, 28246.674, 0.0828708, -0.098632604, -652791.3, -11839.225, 0.0, 10.000207, 9.999125 
1.5500793e+2, 2.4459447e+2, -612382.56, -682104.6, 20293.809, 0.04639072, -0.07953731, -606905.9, -63946.715, 0.0, 9.999923, 9.999023 
1.5500699e+2, 2.5459298e+2, -610522.06, -642837.25, 24868.723, 0.063881285, -0.15910691, -597022.94, -152047.16, 0.0, 9.999303, 9.998926 
1.5500548e+2, 2.6459226e+2, -441675.9, -393032.63, 8754.585, 0.050106946, -0.16765957, -391504.97, -44522.58, 0.0, 9.999311, 9.999951 
1.5500326e+2, 2.745923e+2, -266682.16, -272819.34, 63464.375, -0.00936823, -0.18824585, -206212.22, 42766.51, 0.000000019825112, 9.999882, 9.999844 
1.5500104e+2, 2.8459242e+2, -253088.61, -374695.25, 16976.07, -0.025121083, -0.08853807, -250763.25, -99786.31, 0.0000019865888, 9.999991, 9.99841 
1.5499899e+2, 2.9459226e+2, -248190.4, -317262.0, 3699.7861, 0.041943643, 0.022223687, -247992.8, -195012.7, 0.000014949104, 9.999319, 9.998455 
1.549973e+2, 3.045872e+2, -128654.99, -82114.07, 10651.881, 0.11674072, -0.3988283, -79792.016, -79792.016, 0.000059797247, 9.999208, 9.999777 
1.549949e+2, 3.145894e+2, -180172.64, -225474.16, -29875.36, 0.06753778, -0.17283061, -165332.16, -165332.16, 0.00017773658, 9.999286, 9.998766 
1.6503033e+2, 1.2460342e+2, -1597173.1, -1693911.3, 91411.52, -0.14723083, -0.16605668, -1542122.5, 176748.63, 0.0014964563, 10.000866, 9.999709 
1.6502854e+2, 1.346025e+2, -1480983.1, -1616726.5, 8247.973, 0.052307, -0.23031439, -1480483.8, 140393.89, 0.0008776996, 10.001166, 9.999429 
1.6502555e+2, 1.4460282e+2, -1406895.5, -1488771.0, 108347.61, 0.007913099, -0.15709895, -1332009.8, 190865.58, 0.00037921302, 10.000852, 9.999758 
1.6502368e+2, 1.5460378e+2, -1425281.5, -1476620.3, 53070.785, -0.069034904, -0.05659917, -1391998.1, 32872.13, 0.00009882513, 10.000171, 9.999502 
1.6502215e+2, 1.6460359e+2, -1303639.4, -1356608.3, -10604.2295, -0.04414177, -0.024022171, -1301595.4, 25276.848, 0.000009884257, 10.000271, 9.99961 
1.6502088e+2, 1.7460197e+2, -1071137.4, -1197995.9, -38569.727, 0.08425551, -0.18009852, -1060331.3, 168552.3, 0.0000002904704, 10.001209, 9.999576 
1.6501905e+2, 1.8460083e+2, -1063167.3, -1261407.0, 42883.668, 0.070800535, -0.19515283, -1054288.3, 76606.23, 0.0, 10.001116, 9.998503 
1.650165e+2, 1.9460006e+2, -1156813.5, -1270503.6, 58430.938, -0.10525567, -0.14732309, -1132138.4, -99231.586, 0.0, 9.999856, 9.998379 
1.6501492e+2, 2.0459929e+2, -1020085.5, -1033493.06, 16806.953, -0.09954606, -0.10746714, -1008694.7, -73778.91, 0.0, 9.999622, 9.999446 
1.6501437e+2, 2.145984e+2, -775726.7, -863802.5, 540.9163, 0.12278654, -0.17411053, -775723.4, 61198.51, 0.0, 10.000614, 9.99946 
1.6501293e+2, 2.2459784e+2, -642067.5, -802706.4, 52282.484, 0.19871677, -0.1477953, -626550.25, 112375.71, 0.0, 10.001092, 9.998974 
1.650103e+2, 2.3459764e+2, -571246.94, -726910.25, 30619.924, 0.098897, -0.09276984, -565440.44, 75487.63, 0.0, 10.000943, 9.998896 
1.6500807e+2, 2.4459694e+2, -519230.7, -629455.2, 40902.16, 0.044839874, -0.056619365, -505710.97, 37224.668, 0.0, 10.000534, 9.999091 
1.650065e+2, 2.545955e+2, -521698.8, -584536.4, 40223.59, 0.06424315, -0.14105487, -502077.66, -57126.64, 0.0, 9.99986, 9.99905 
1.6500497e+2, 2.6459476e+2, -396911.28, -369261.94, 66115.81, 0.062507525, -0.16143958, -315540.9, 31416.682, 0.0, 9.999591, 9.999986 
1.6500354e+2, 2.745946e+2, -268613.94, -261090.75, 21752.17, 0.041608766, -0.21093312, -242777.33, 6178.4526, 0.000000024295247, 9.999817, 9.999944 
1.6500127e+2, 2.845947e+2, -277411.97, -379480.38, -40416.47, 0.017243542, -0.115469985, -263346.4, -112392.81, 0.0000019697127, 9.999803, 9.998469 
1.6499847e+2, 2.9459503e+2, -185685.3, -269935.53, -34638.348, 0.05059652, 0.036437336, -173272.9, -120320.75, 0.000013995548, 9.999672, 9.998619 
1.6499701e+2, 3.0459046e+2, -65547.36, -83271.766, 45807.6, 0.15309855, -0.33263284, -27752.568, -27752.568, 0.000055183133, 9.999736, 9.999535 
1.6499558e+2, 3.1459153e+2, -115287.95, -204023.08, -57945.96, 0.19846791, -0.19402295, -86674.59, -86674.59, 0.00016346599, 9.999734, 9.998709 
1.750306e+2, 1.2460745e+2, -1592372.4, -1683155.6, 64189.914, -0.2736076, -0.14991488, -1559146.3, 159679.58, 0.0014785845, 10.000862, 9.999779 
1.7503096e+2, 1.3460538e+2, -1465634.5, -1573271.5, 26330.045, 0.14524361, -0.36688894, -1459538.9, 161300.75, 0.00086354057, 10.001134, 9.999729 
1.7502756e+2, 1.4460492e+2, -1484795.4, -1652134.0, 69328.97, 0.087015174, -0.33122388, -1459804.4, 63039.727, 0.00037008742, 10.00084, 9.998652 
1.7502333e+2, 1.5460467e+2, -1503806.3, -1637516.0, 42207.645, -0.15588805, -0.2393306, -1491597.5, -66743.08, 0.000094032526, 10.000159, 9.998405 
1.7502144e+2, 1.6460443e+2, -1329987.4, -1407680.9, 9881.1455, -0.17438118, -0.13948989, -1328750.4, -1889.7383, 0.000008393363, 10.000246, 9.999276 
1.7502216e+2, 1.74604e+2, -1099307.3, -1247100.6, 9682.463, 0.05735317, -0.14372669, -1098675.6, 130188.055, 0.00000020811186, 10.001172, 9.999255 
1.750208e+2, 1.8460298e+2, -1025931.8, -1176415.8, -12153.223, 0.10469053, -0.16041717, -1024956.6, 105916.4, 0.0, 10.001069, 9.999115 
1.75017e+2, 1.9460104e+2, -1121317.4, -1176811.1, 23133.3, -0.071207695, -0.2970959, -1112939.0, -80047.4, 0.0, 9.999768, 9.999064 
1.7501487e+2, 2.0460013e+2, -1028205.94, -1030770.44, 36635.31, -0.0916594, -0.31086978, -992830.5, -57930.63, 0.0, 9.99953, 9.999512 
1.7501472e+2, 2.1460024e+2, -792629.75, -872377.3, 50876.832, 0.0689808, -0.2829613, -767863.25, 69034.62, 0.0, 10.000499, 9.999457 
1.7501341e+2, 2.2459985e+2, -671626.06, -839847.56, 36600.32, 0.11308971, -0.22917405, -664007.9, 74894.36, 0.0, 10.000984, 9.99877 
1.7501064e+2, 2.3459873e+2, -603139.7, -767646.9, 37900.81, 0.011417208, -0.2464924, -594827.7, 46088.086, 0.0, 10.000828, 9.9986725 
1.750081e+2, 2.4459827e+2, -508718.3, -590106.25, 4920.1987, -0.030503854, -0.19041981, -508421.97, 34499.63, 0.0, 10.000462, 9.9993925 
1.7500597e+2, 2.5459844e+2, -519732.56, -552444.9, 26764.81, -0.0027761967, -0.14472224, -504721.88, -59802.234, 0.0, 9.99974, 9.999329 
1.750046e+2, 2.645978e+2, -456174.2, -488476.13, 60165.83, 0.038053628, -0.12916517, -410029.25, -63103.527, 0.0, 9.999567, 9.999178 
1.7500396e+2, 2.7459592e+2, -340646.47, -391830.66, 41054.496, 0.07184447, -0.26863432, -317860.63, -68916.555, 0.000000035492793, 9.999728, 9.999091 
1.750014e+2, 2.8459567e+2, -235110.08, -287168.0, -57987.32, 0.021050412, -0.19734885, -197577.77, -46631.355, 0.0000021240596, 9.999786, 9.999105 
1.7499709e+2, 2.9459742e+2, -147643.38, -168185.78, -22683.717, -0.08834135, 0.025859607, -133013.81, -80084.414, 0.000013429294, 9.999586, 9.99935 
1.749965e+2, 3.045951e+2, -74770.11, -103055.766, 39908.816, 0.10088278, -0.1475332, -46572.258, -46572.258, 0.000050919698, 9.999734, 9.999406 
1.7499724e+2, 3.145951e+2, -84485.12, -108661.61, -34297.19, 0.3275477, -0.09881176, -60208.227, -60208.227, 0.00014908816, 9.99962, 9.999411 
1.8503258e+2, 1.24610186e+2, -1633691.0, -1711120.5, 31492.035, -0.13863964, -0.17736769, -1622500.1, 96296.68, 0.0014297239, 10.00061, 9.999707 
1.8503204e+2, 1.346081e+2, -1512297.4, -1605305.9, -85339.375, 0.16535075, -0.38352954, -1461613.9, 159197.16, 0.00082590414, 10.000856, 9.9996395 
1.8502805e+2, 1.4460765e+2, -1508947.1, -1678518.5, -12555.087, 0.06693149, -0.33765763, -1508022.5, 14792.4795, 0.00034715154, 10.000727, 9.99852 
1.8502419e+2, 1.5460645e+2, -1472048.6, -1633155.1, 8797.249, -0.090759605, -0.33436957, -1471569.6, -46736.848, 0.0000844504, 10.000409, 9.998317 
1.8502231e+2, 1.6460598e+2, -1361764.1, -1433103.0, 79634.36, -0.09774345, -0.24839312, -1310175.8, 16665.506, 0.000006352812, 10.000107, 9.999153 
1.8502279e+2, 1.7460608e+2, -1291973.9, -1354517.9, 70169.055, 0.07244968, -0.18678823, -1246423.9, -17582.049, 0.000000056960435, 9.9999275, 9.999111 
1.8502136e+2, 1.8460551e+2, -1153470.4, -1189335.8, 40685.473, 0.11383213, -0.16956967, -1126940.9, 3906.3928, 0.0, 9.999999, 9.999538 
1.8501756e+2, 1.9460407e+2, -1015560.4, -1074121.6, 33263.867, -0.010073942, -0.30076003, -1000525.8, 32333.68, 0.0, 10.00028, 9.999523 
1.8501544e+2, 2.046034e+2, -922029.2, -1006198.75, 83931.92, -0.021876022, -0.30232343, -870222.0, 64643.266, 0.0, 10.000361, 9.999279 
1.8501525e+2, 2.1460354e+2, -856559.4, -930659.9, 53742.375, 0.09464016, -0.247227, -828333.56, 8531.323, 0.0, 10.000168, 9.999217 
1.8501398e+2, 2.2460294e+2, -816200.7, -931723.94, 36103.637, 0.121686146, -0.1954672, -805845.6, -66972.85, 0.0, 10.000088, 9.998575 
1.850114e+2, 2.3460127e+2, -719164.7, -845219.4, 14244.727, 0.047326405, -0.24537747, -717575.06, -76682.945, 0.0, 10.000123, 9.998481 
1.850086e+2, 2.4460064e+2, -559369.6, -609315.75, -16560.428, -0.0015787509, -0.19896151, -554377.7, -11478.261, 0.0, 10.000079, 9.999449 
1.8500571e+2, 2.5460106e+2, -487899.5, -526185.06, -34502.79, -0.0033125132, -0.13683777, -467584.84, -22691.145, 0.0, 9.999902, 9.999432 
1.8500425e+2, 2.6460052e+2, -444267.7, -496238.16, 54942.64, 0.042549152, -0.11092709, -409475.25, -62576.883, 0.0, 9.999722, 9.999049 
1.8500428e+2, 2.745985e+2, -359973.03, -415479.34, 64658.918, 0.14030255, -0.24463975, -317362.75, -68444.69, 0.000000044067633, 9.999663, 9.998964 
1.8500187e+2, 2.8459778e+2, -215779.89, -268545.28, -1081.0624, 0.09046978, -0.22233336, -215757.75, -64832.746, 0.000002141611, 9.999853, 9.999211 
1.8499711e+2, 2.945987e+2, -43082.008, -110564.37, -40035.38, -0.068382636, -0.08965011, -24465.775, 28449.137, 0.000012353572, 10.000244, 9.999443 
1.8499678e+2, 3.045972e+2, -30282.7, -93866.2, 11103.522, 0.14806609, -0.18469316, -28399.48, -28399.48, 0.00004451732, 10.000095, 9.999289 
1.8499674e+2, 3.1459686e+2, -56297.477, -25489.445, -100351.86, 0.33535483, -0.14692485, 60633.773, 60633.773, 0.00012893318, 9.999464, 10.000086 
1.9503552e+2, 1.2461177e+2, -1657996.3, -1748592.9, -4922.7114, 0.025317466, -0.22490105, -1657729.5, 61052.65, 0.0013506769, 10.0005665, 9.999469 
1.9503151e+2, 1.3461074e+2, -1556135.9, -1681349.8, -70179.625, -0.0051371995, -0.2753899, -1524696.0, 96095.59, 0.00077082973, 10.0008135, 9.999132 
1.9502664e+2, 1.4461103e+2, -1449008.5, -1548207.4, -39711.563, -0.18613157, -0.17118, -1435069.8, 87717.82, 0.0003170448, 10.000691, 9.999435 
1.9502583e+2, 1.5460922e+2, -1405914.1, -1492328.3, 7813.761, -0.0006028066, -0.32640472, -1405213.3, 19590.252, 0.000073711046, 10.000394, 9.99929 
1.9502439e+2, 1.6460837e+2, -1359813.1, -1427467.8, 62778.605, 0.06973624, -0.33304518, -1322328.1, 4484.4204, 0.0000047225935, 10.000085, 9.999211 
1.9502246e+2, 1.7460825e+2, -1293707.3, -1351812.4, 78173.8, 0.014857927, -0.2988346, -1239362.0, -10544.825, 0.0000000036456946, 9.999895, 9.99915 
1.9502033e+2, 1.8460844e+2, -1147504.3, -1163630.1, 37785.277, -0.016437436, -0.21562216, -1116931.3, 13885.886, 0.0, 9.999934, 9.999752 
1.9501784e+2, 1.9460902e+2, -1012450.56, -1051322.8, 55516.047, -0.038235135, -0.16689698, -973066.7, 59745.11, 0.0, 10.000205, 9.99972 
1.9501622e+2, 2.0460907e+2, -973370.06, -1084182.5, 67327.76, -0.006115606, -0.08350335, -941581.8, -6769.1865, 0.0, 10.000242, 9.998799 
1.9501556e+2, 2.146083e+2, -908802.2, -1011014.75, 58016.74, 0.082384616, -0.06850036, -882592.25, -45769.05, 0.0, 10.000046, 9.998724 
1.9501425e+2, 2.2460707e+2, -851168.8, -974880.9, 23615.244, 0.11842742, -0.040024146, -846814.25, -107976.625, 0.0, 9.999968, 9.998336 
1.9501217e+2, 2.3460522e+2, -754295.0, -885219.5, 26939.146, 0.08549387, -0.08698433, -748968.6, -108110.95, 0.0, 9.999987, 9.99827 
1.9500923e+2, 2.44604e+2, -583497.4, -633109.3, -34908.13, 0.027606644, -0.08217538, -565479.1, -22609.66, 0.0, 9.999971, 9.999335 
1.9500528e+2, 2.546034e+2, -515492.5, -550176.7, -29736.682, -0.062788956, -0.11402842, -498410.5, -53537.66, 0.0, 9.999764, 9.9993305 
1.950035e+2, 2.64603e+2, -412959.94, -423688.5, 40960.43, -0.030195829, -0.094855525, -377014.03, -30139.734, 0.0, 9.999681, 9.999575 
1.9500409e+2, 2.7460238e+2, -333224.66, -347918.3, 78617.7, 0.1257281, -0.1410463, -261611.25, -12733.39, 0.000000036761158, 9.999601, 9.999468 
1.9500229e+2, 2.8460088e+2, -254807.03, -339271.25, 3367.0803, 0.12014445, -0.19473937, -254673.02, -103782.5, 0.0000018181237, 9.999813, 9.998744 
1.9499825e+2, 2.9459894e+2, -98299.66, -192404.64, -10978.564, -0.013216356, -0.29842857, -97035.836, -44127.76, 0.000010151812, 10.000115, 9.998938 
1.949975e+2, 3.0459672e+2, -43176.555, -110149.52, -19620.549, 0.18071023, -0.43348786, -37851.82, -37851.82, 0.00003534469, 10.000059, 9.999188 
1.949933e+2, 3.1459722e+2, -7167.332, 107983.3, -70839.195, -0.015481663, -0.31208047, 141693.84, 141693.84, 0.000103030594, 9.999354, 10.001038 
2.0503706e+2, 1.2461437e+2, -1620096.5, -1732750.4, 35439.355, 0.12345655, -0.19638838, -1609875.1, 108883.33, 0.0012481074, 10.000852, 9.999443 
2.0503259e+2, 1.346131e+2, -1635203.0, -1772126.5, -67256.234, 0.05381634, -0.22739878, -1607693.9, 13078.937, 0.0007037624, 10.000475, 9.998695 
2.0502734e+2, 1.446134e+2, -1477904.4, -1512446.0, -13126.432, -0.15541872, -0.117834225, -1473482.3, 49286.67, 0.00028324383, 10.000294, 9.999873 
2.0502675e+2, 1.5461181e+2, -1337541.9, -1407700.5, -39882.203, 0.04755448, -0.2959074, -1319506.8, 105273.555, 0.000063005726, 10.000648, 9.999749 
2.0502517e+2, 1.646112e+2, -1254236.3, -1357398.5, 14123.085, 0.112155594, -0.30929738, -1252337.8, 74447.74, 0.0000035155435, 10.000726, 9.999386 
2.0502257e+2, 1.7461136e+2, -1210909.4, -1295513.9, 13540.524, 0.019341573, -0.26013136, -1208795.1, 19992.088, 0.0000000004928599, 10.000389, 9.999304 
2.050203e+2, 1.8461153e+2, -1132127.4, -1177507.8, 965.4167, -0.01758495, -0.18044499, -1132106.8, -1319.1865, 0.0, 10.000132, 9.9995575 
2.0501825e+2, 1.9461168e+2, -1058621.1, -1099268.4, -38080.254, 0.000489553, -0.15196133, -1035780.5, -2993.57, 0.0, 9.9999895, 9.999494 
2.0501696e+2, 2.0461154e+2, -967104.2, -1087144.9, 6977.6724, 0.04561792, -0.07432146, -966699.94, -31909.9, 0.0, 10.000313, 9.998746 
2.0501655e+2, 2.1461086e+2, -760871.8, -945951.56, 10487.21, 0.1302922, -0.04378101, -760279.5, 76520.195, 0.0, 10.001091, 9.998669 
2.0501527e+2, 2.2460966e+2, -644204.7, -874071.4, 10228.719, 0.15901169, -0.009865872, -643750.4, 95063.04, 0.0, 10.001374, 9.998349 
2.05013e+2, 2.3460774e+2, -599822.9, -812641.25, 7094.471, 0.12450262, -0.065300874, -599586.6, 41246.8, 0.0, 10.001042, 9.998264 
2.050098e+2, 2.4460626e+2, -502675.0, -607965.94, -32243.11, 0.06386918, -0.080884755, -493585.84, 49261.582, 0.0, 10.000585, 9.99921 
2.0500556e+2, 2.5460517e+2, -485418.03, -551643.2, -53453.957, -0.0185647, -0.14833276, -455651.63, -10795.793, 0.0, 10.000038, 9.999187 
2.050036e+2, 2.6460475e+2, -395714.44, -392654.4, 37811.69, 0.01711379, -0.13334002, -356341.78, -9484.562, 0.0, 9.999708, 9.999766 
2.0500411e+2, 2.7460468e+2, -315979.53, -314902.34, 22655.324, 0.17376482, -0.14665836, -292779.22, -43924.496, 0.00000002096579, 9.999626, 9.999672 
2.0500234e+2, 2.8460342e+2, -303051.72, -364435.8, -14599.783, 0.16682035, -0.18364584, -299756.2, -148891.1, 0.0000012828043, 9.999507, 9.998714 
2.0499845e+2, 2.9460147e+2, -204165.45, -242376.89, -16504.912, 0.041208018, -0.28968042, -198023.6, -145139.61, 0.000007381431, 9.999396, 9.998936 
2.0499787e+2, 3.0459917e+2, -177542.72, -154699.08, 3077.317, 0.2736919, -0.44048178, -154291.78, -154291.78, 0.00002618385, 9.999048, 9.999383 
2.049921e+2, 3.1460014e+2, -117555.19, 91269.01, -49877.758, -0.013952829, -0.2944558, 102570.69, 102570.69, 0.000078949044, 9.998474, 10.00134 
2.1503629e+2, 1.24617934e+2, -1616846.6, -1712524.6, -27174.361, -0.104789734, -0.09145974, -1609667.4, 109058.9, 0.0011286365, 10.00079, 9.999613 
2.15035e+2, 1.3461523e+2, -1648799.9, -1812830.8, -69242.86, 0.2155743, -0.23740444, -1623479.0, -2724.822, 0.00062779407, 10.000523, 9.998394 
2.1502975e+2, 1.4461493e+2, -1491643.8, -1539426.4, -15287.483, 0.016375959, -0.16490832, -1487171.3, 35586.055, 0.00024660726, 10.000284, 9.999691 
2.1502659e+2, 1.5461427e+2, -1345400.5, -1429219.1, -12496.319, -0.06831595, -0.23484984, -1343577.1, 81185.15, 0.000052325075, 10.000662, 9.999596 
2.1502419e+2, 1.6461447e+2, -1244487.9, -1323541.3, -9893.103, -0.085494, -0.17193913, -1243268.6, 83491.42, 0.000002586899, 10.000667, 9.999645 
2.1502276e+2, 1.7461537e+2, -1199133.3, -1256115.1, 13634.168, -0.029123114, -0.07865848, -1196039.0, 32713.11, 0.000000000052014764, 10.000331, 9.999597 
2.1502084e+2, 1.846147e+2, -1189715.9, -1277959.8, -14354.787, -0.0032317273, -0.06677387, -1187439.5, -56680.348, 0.0, 10.000045, 9.998913 
2.1501844e+2, 1.9461204e+2, -1110049.9, -1195061.9, -28977.523, -0.011282904, -0.2558018, -1101112.1, -68326.914, 0.0, 9.999939, 9.998859 
2.1501732e+2, 2.0461084e+2, -954858.5, -1040252.1, 23018.975, 0.026515989, -0.26996964, -949048.7, -14251.348, 0.0, 10.000219, 9.999111 
2.1501778e+2, 2.1461116e+2, -750505.0, -894541.3, 50210.54, 0.11723614, -0.17917891, -734729.56, 102065.43, 0.0, 10.000962, 9.999083 
2.1501662e+2, 2.2461063e+2, -647633.1, -844933.75, -12245.944, 0.13242352, -0.11536064, -646875.94, 91925.14, 0.0, 10.0012245, 9.998618 
2.150135e+2, 2.346089e+2, -604344.25, -783694.5, 8764.324, 0.04607835, -0.17941065, -603917.0, 36901.88, 0.0, 10.000882, 9.998535 
2.1500999e+2, 2.446075e+2, -525319.94, -639265.25, -64063.21, -0.00086288754, -0.19109544, -496560.56, 46271.965, 0.0, 10.000514, 9.999032 
2.1500616e+2, 2.5460643e+2, -516411.5, -587202.56, -61330.574, 0.008961205, -0.2360859, -480995.44, -36153.223, 0.0, 9.999916, 9.999003 
2.1500415e+2, 2.646058e+2, -417404.75, -422277.8, 22427.293, 0.07294478, -0.22200805, -397282.03, -50435.25, 0.0, 9.999644, 9.999589 
2.1500391e+2, 2.7460533e+2, -347465.16, -353217.84, 33300.348, 0.16232538, -0.2603692, -316917.16, -68067.555, 0.00000000626477, 9.999509, 9.999462 
2.1500158e+2, 2.8460532e+2, -270819.9, -288872.75, -30960.746, 0.11187322, -0.19009429, -247596.61, -96746.875, 0.00000075455597, 9.999474, 9.999248 
2.1499749e+2, 2.9460624e+2, -180000.25, -178212.61, -9361.531, -0.027356997, -0.06167256, -169702.33, -116859.69, 0.0000049684672, 9.999335, 9.999406 
2.1499766e+2, 3.046045e+2, -150100.0, -102349.03, -29750.54, 0.323872, -0.19421482, -88078.305, -88078.305, 0.000019575336, 9.999063, 9.99974 
2.1499264e+2, 3.1460544e+2, -170949.31, -3993.127, 8298.82, 0.13185938, -0.08715682, -3581.6353, -3581.6353, 0.00006230811, 9.998399, 10.00073 
2.2503711e+2, 1.24620296e+2, -1738637.0, -1707313.1, -17131.893, -0.030290876, -0.07239822, -1699763.1, 18943.479, 0.0009987261, 9.999653, 10.000198 
2.250361e+2, 1.346182e+2, -1565176.8, -1725818.1, -51175.137, 0.2634817, -0.2026705, -1550259.3, 70467.61, 0.0005469882, 10.000915, 9.998784 
2.2503066e+2, 1.4461766e+2, -1386214.4, -1533851.1, 33163.38, 0.04068245, -0.15401977, -1379107.1, 143625.25, 0.00020906689, 10.0012, 9.9993 
2.2502764e+2, 1.5461713e+2, -1400190.9, -1500657.8, -7748.7524, -0.01181963, -0.16738996, -1399596.8, 25141.72, 0.000042237294, 10.000487, 9.999195 
2.2502513e+2, 1.6461729e+2, -1294873.1, -1315288.6, 14468.011, -0.027755061, -0.10291675, -1287374.3, 39362.5, 0.0000020119714, 10.000186, 9.999925 
2.2502315e+2, 1.7461783e+2, -1181311.8, -1216370.5, 9470.636, -0.015750077, -0.07467972, -1178917.0, 49812.92, 0.0, 10.000321, 9.9998665 
2.250212e+2, 1.84617e+2, -1089493.0, -1241928.8, 39263.54, -0.0023195848, -0.08835553, -1079974.1, 50763.09, 0.0, 10.000779, 9.998807 
2.2501935e+2, 1.946145e+2, -895482.94, -1106123.8, 40517.133, 0.01475861, -0.24824426, -887958.2, 144803.64, 0.0, 10.001485, 9.998729 
2.2501841e+2, 2.0461315e+2, -809742.56, -986348.25, 95597.734, 0.066123396, -0.26263207, -767905.75, 166869.73, 0.0, 10.001279, 9.998983 
2.2501859e+2, 2.146129e+2, -911182.7, -987359.94, 61064.785, 0.16003132, -0.2154214, -877301.56, -40522.766, 0.0, 9.999918, 9.998958 
2.2501701e+2, 2.2461247e+2, -906380.06, -891389.0, 17644.277, 0.16199686, -0.16695361, -879714.1, -140931.13, 0.0, 9.999104, 9.999324 
2.250134e+2, 2.3461166e+2, -844230.06, -814920.06, 47801.35, 0.056648813, -0.21380922, -779577.7, -138787.23, 0.0, 9.998873, 9.999289 
2.2501007e+2, 2.4461086e+2, -705766.3, -720834.2, 46434.387, 0.024864394, -0.20881708, -666258.6, -123460.8, 0.0, 9.999252, 9.999081 
2.2500712e+2, 2.5460985e+2, -440090.03, -552202.2, 40493.953, 0.09393162, -0.24511035, -426993.78, 17813.271, 0.0, 10.000433, 9.999004 
2.2500494e+2, 2.6460913e+2, -287171.38, -385895.53, 128818.32, 0.14410213, -0.23219398, -198581.39, 148232.47, 0.0, 10.000656, 9.999352 
2.250035e+2, 2.7460843e+2, -304990.5, -356202.25, 109186.63, 0.1590631, -0.26947993, -218447.45, 30372.82, 0.00000000006385136, 9.999905, 9.99925 
2.2500081e+2, 2.846086e+2, -258557.7, -268349.06, 66429.086, 0.095550746, -0.17667656, -196844.14, -46024.785, 0.00000032397858, 9.999481, 9.999389 
2.2499718e+2, 2.9461008e+2, -169578.45, -162749.73, 29177.295, 0.01503149, -0.007703423, -136787.7, -83980.7, 0.000003287384, 9.999362, 9.999496 
2.249974e+2, 3.0460843e+2, -99744.945, -31705.467, 18685.049, 0.39535123, -0.15445046, -26911.889, -26911.889, 0.00001601569, 9.999213, 10.000143 
2.249919e+2, 3.1460977e+2, -88266.55, -8930.419, 69920.47, 0.19348861, -0.06046977, 31790.74, 31790.74, 0.000054019332, 9.999164, 10.0003195 
2.3503886e+2, 1.24621436e+2, -1670948.5, -1566570.5, -37977.27, 0.11065802, -0.14884059, -1554215.1, 164484.47, 0.0008678266, 9.99966, 10.0011635 
2.3503546e+2, 1.346218e+2, -1491518.9, -1585511.0, -2760.883, 0.07656492, -0.119246036, -1491437.9, 129254.83, 0.00046623294, 10.000951, 9.999742 
2.3502961e+2, 1.4462133e+2, -1431885.8, -1603335.8, -6094.2197, -0.21371824, -0.09599762, -1431669.4, 91027.38, 0.00017258529, 10.001101, 9.99887 
2.3502955e+2, 1.5462027e+2, -1441391.3, -1582113.3, -19173.041, 0.096425146, -0.10463284, -1438825.8, -14116.155, 0.000033446406, 10.000471, 9.998646 
2.3502755e+2, 1.6461946e+2, -1291878.4, -1293015.5, 4854.4507, 0.16609767, -0.11508779, -1287559.4, 39157.766, 0.0000017722703, 10.00012, 10.000112 
2.3502344e+2, 1.746185e+2, -1166880.9, -1178120.8, 26917.004, -0.04968758, -0.26149696, -1145003.4, 83719.23, 0.0000000001389195, 10.000281, 10.000153 
2.3502101e+2, 1.8461832e+2, -1078317.4, -1192897.1, 52403.227, -0.12471138, -0.24508297, -1057965.6, 72757.164, 0.0, 10.000674, 9.999195 
2.3502055e+2, 1.9461894e+2, -879332.75, -1056861.4, 77351.37, -0.04092168, -0.12907806, -850358.6, 182359.14, 0.0, 10.001415, 9.999102 
2.3501971e+2, 2.0461832e+2, -871544.94, -1079399.9, 35507.53, 0.04808432, -0.061675742, -865646.6, 69079.16, 0.0, 10.001132, 9.998412 
2.3501854e+2, 2.14616e+2, -975247.06, -1085790.5, 24109.553, 0.13899484, -0.16188897, -970217.56, -133466.1, 0.0, 9.999768, 9.998354 
2.3501614e+2, 2.2461523e+2, -851229.25, -740905.06, -1831.2429, 0.14217833, -0.17020896, -740874.6, -2115.4915, 0.0, 9.998956, 10.000428 
2.3501235e+2, 2.3461607e+2, -782334.2, -654542.56, 52929.78, 0.036755636, -0.16304532, -635467.06, 5280.639, 0.0, 9.998738, 10.000457 
2.3500955e+2, 2.4461624e+2, -695992.6, -685358.56, 76093.945, 0.017208612, -0.13498338, -614396.1, -71652.016, 0.0, 9.999184, 9.999357 
2.3500794e+2, 2.5461543e+2, -442769.25, -525787.8, 96718.984, 0.10493996, -0.17808762, -379028.44, 65722.766, 0.0, 10.000296, 9.999249 
2.3500566e+2, 2.6461476e+2, -317008.56, -431619.66, 90948.71, 0.12358254, -0.15852335, -266817.16, 79940.79, 0.0, 10.000588, 9.999072 
2.3500255e+2, 2.7461392e+2, -341257.0, -408096.97, 95815.62, 0.043997, -0.17751095, -273200.25, -24433.035, 0.0, 9.999799, 9.99895 
2.3499958e+2, 2.846133e+2, -278802.34, -301795.72, 50834.324, -0.0053005936, -0.13890289, -238180.86, -87406.89, 0.00000009734078, 9.999445, 9.999177 
2.3499705e+2, 2.9461297e+2, -205800.33, -217747.89, 36466.297, 0.029959481, -0.12418282, -174821.75, -122044.25, 0.0000024854203, 9.999266, 9.999173 
2.3499663e+2, 3.046109e+2, -58867.914, 57216.848, 6446.3296, 0.36781874, -0.32288563, 57573.723, 57573.723, 0.000014818684, 9.999197, 10.000762 
2.3498905e+2, 3.1461313e+2, -111610.914, -41952.348, 148063.47, -0.069742806, -0.2073029, 75323.164, 75323.164, 0.00005156838, 9.999091, 10.0001335 
2.450387e+2, 1.2462388e+2, -1673762.1, -1576309.0, 80455.81, 0.13931386, -0.18909167, -1530974.9, 187701.48, 0.0007423371, 9.999709, 10.00107 
2.4503604e+2, 1.3462526e+2, -1532361.8, -1598405.5, 32351.021, 0.06545752, -0.059585992, -1519155.5, 101504.555, 0.00038816038, 10.000658, 9.999795 
2.4503049e+2, 1.446245e+2, -1423128.9, -1564247.6, -2784.9534, -0.2203017, -0.08396576, -1423073.9, 99592.83, 0.00013769997, 10.001, 9.999181 
2.4503072e+2, 1.5462346e+2, -1376529.8, -1518985.4, 13492.065, 0.16161917, -0.12529932, -1375263.1, 49414.918, 0.000025817635, 10.000788, 9.998918 
2.4502853e+2, 1.6462258e+2, -1255130.1, -1315474.5, 90201.15, 0.23780905, -0.13800533, -1190188.6, 136497.44, 0.0000016011192, 10.000534, 9.999767 
2.4502388e+2, 1.7462154e+2, -1217939.1, -1242129.5, 44607.97, -0.014894126, -0.25608078, -1183815.6, 44877.863, 0.0000000006420841, 10.0001, 9.9998045 
2.4502163e+2, 1.8462138e+2, -1170970.3, -1234004.8, 81704.05, -0.09297522, -0.2205514, -1114915.4, 15778.692, 0.0, 10.000039, 9.999208 
2.4502201e+2, 1.946221e+2, -1036107.75, -1127504.1, 56735.984, 0.02630488, -0.09815075, -1008954.75, 23733.125, 0.0, 10.000338, 9.999124 
2.450209e+2, 2.0462166e+2, -950602.06, -1072317.9, 7787.9814, 0.09571998, -0.033784896, -950105.8, -15412.099, 0.0, 10.000394, 9.998813 
2.4501818e+2, 2.1461968e+2, -912941.5, -1007812.06, 45441.46, 0.12447574, -0.14200333, -894687.9, -57972.65, 0.0, 9.999999, 9.998772 
2.4501535e+2, 2.2461917e+2, -706984.0, -676817.25, 74388.86, 0.122986905, -0.14356549, -615997.94, 122722.64, 0.0, 9.999965, 10.000383 
2.4501234e+2, 2.3462021e+2, -553960.94, -548590.94, 19561.031, 0.089389056, -0.11421562, -531531.5, 109177.266, 0.0, 10.000326, 10.000419 
2.4500991e+2, 2.4462052e+2, -508605.2, -578793.5, 30774.96, 0.08140227, -0.07692072, -497022.84, 45681.293, 0.0, 10.000398, 9.999513 
2.4500822e+2, 2.546198e+2, -450436.56, -507509.63, 21574.563, 0.118041426, -0.1278901, -443198.88, 1510.6552, 0.0, 10.000157, 9.999444 
2.4500565e+2, 2.6461908e+2, -426764.78, -484328.44, 8580.749, 0.10804711, -0.12397362, -425512.9, -78796.24, 0.0, 9.999821, 9.999083 
2.4500206e+2, 2.746182e+2, -397241.22, -430404.22, 13270.644, 0.044203535, -0.14878224, -392584.63, -143857.72, 0.0, 9.999395, 9.998988 
2.4499916e+2, 2.8461757e+2, -275858.1, -305944.22, 49813.457, 0.014285411, -0.110611446, -238865.84, -88132.08, 0.00000009803459, 9.999497, 9.999125 
2.4499714e+2, 2.9461694e+2, -67933.484, -154354.69, 20417.908, 0.07227846, -0.12338492, -63352.38, -10613.134, 0.0000023443192, 10.000239, 9.999134 
2.4499615e+2, 3.046145e+2, 79621.664, 93541.62, -26815.754, 0.3562868, -0.34012297, 114285.9, 114285.9, 0.000014153015, 10.000281, 10.000494 
2.4498807e+2, 3.1461707e+2, -92838.65, -84803.086, 34242.945, -0.07995531, -0.16757545, -54343.023, -54343.023, 0.00004937861, 9.999461, 9.999653 
2.5503576e+2, 1.2462779e+2, -1758293.4, -1748430.5, 45438.934, -0.18803123, -0.18111175, -1707656.3, 10979.166, 0.00062344765, 9.999694, 9.999899 
2.5503752e+2, 1.3462849e+2, -1583114.0, -1701928.3, 78702.15, 0.11847138, -0.040204644, -1543914.6, 76715.48, 0.0003143659, 10.000659, 9.999082 
2.550331e+2, 1.4462711e+2, -1363873.9, -1429503.6, -26187.297, -0.09636456, -0.13424355, -1354705.5, 167937.55, 0.00010539114, 10.000951, 10.000126 
2.5503063e+2, 1.5462658e+2, -1308088.6, -1367954.8, 17255.172, 0.043364186, -0.22990753, -1303471.3, 121173.77, 0.000019009012, 10.000752, 9.999967 
2.5502762e+2, 1.6462658e+2, -1321836.6, -1435650.1, 61506.906, 0.066549435, -0.17180443, -1294949.1, 31695.049, 0.0000013062046, 10.000459, 9.998978 
2.550241e+2, 1.7462704e+2, -1285162.8, -1372189.0, 42929.508, -0.03435872, -0.05343255, -1267550.3, -38908.508, 0.000000000635992, 10.000066, 9.998925 
2.550226e+2, 1.8462625e+2, -1206571.0, -1293635.3, 81142.555, -0.027657513, -0.013612743, -1158020.8, -27370.592, 0.0, 9.99997, 9.998835 
2.5502336e+2, 1.9462387e+2, -1068856.6, -1179730.4, 81204.57, 0.09353378, -0.16952662, -1025970.4, 6702.706, 0.0, 10.000263, 9.998801 
2.5502163e+2, 2.0462304e+2, -882865.5, -894564.3, -16674.6, 0.1071277, -0.19023584, -871044.06, 63636.254, 0.0, 10.000238, 10.000108 
2.550172e+2, 2.146238e+2, -835354.75, -817062.25, 41972.01, -0.0044247205, -0.16216844, -783251.5, 53420.0, 0.0, 9.999873, 10.000141 
2.550142e+2, 2.2462419e+2, -801752.94, -846387.06, 74210.26, -0.0132017, -0.089817375, -746576.7, -7908.1426, 0.0, 9.9998455, 9.999277 
2.5501293e+2, 2.3462398e+2, -657502.7, -733550.06, 45973.004, 0.09027859, -0.06863056, -635866.3, 4808.051, 0.0, 10.0001955, 9.999211 
2.550108e+2, 2.4462362e+2, -519454.3, -580037.2, 9969.23, 0.106318936, -0.038000364, -517855.97, 24822.572, 0.0, 10.000311, 9.999544 
2.5500762e+2, 2.5462282e+2, -465237.84, -508012.7, 23245.107, 0.015564595, -0.10327112, -455037.97, -10354.6455, 0.0, 10.000026, 9.999505 
2.5500453e+2, 2.64622e+2, -412672.3, -435561.3, -19075.012, -0.013014936, -0.12602706, -401871.97, -55181.57, 0.0, 9.999743, 9.999454 
2.5500163e+2, 2.746212e+2, -386113.66, -382179.3, 10605.773, 0.03158886, -0.18637097, -373359.8, -124659.21, 0.0, 9.999285, 9.999375 
2.549992e+2, 2.8462127e+2, -276292.4, -290804.53, 61827.566, 0.03754079, -0.10062851, -221296.56, -70596.5, 0.00000013920514, 9.999436, 9.999252 
2.5499701e+2, 2.9462186e+2, -83388.3, -150755.0, 57242.93, 0.0035027154, -0.0051282626, -50653.867, 2039.5187, 0.0000022917138, 10.000095, 9.999224 
2.5499558e+2, 3.0461907e+2, 253.99924, -70019.805, -64094.766, 0.2451106, -0.20736133, 38211.152, 38211.152, 0.0000129202135, 10.000269, 9.999377 
2.5498822e+2, 3.1462112e+2, -170421.22, -235941.83, 75551.805, -0.07289652, 0.037767876, -120832.8, -120832.8, 0.000045825393, 9.999409, 9.998649 
2.6503554e+2, 1.2463207e+2, -1592725.4, -1713224.3, 49732.543, -0.22621089, -0.12897941, -1574851.0, 143741.77, 0.00051409315, 10.00098, 9.999525 
2.6503885e+2, 1.3463202e+2, -1626773.1, -1725278.9, 122029.02, 0.2171929, -0.07110633, -1544432.3, 76162.48, 0.0002486299, 10.000323, 9.999098 
2.6503474e+2, 1.4463048e+2, -1521995.3, -1511264.9, 43077.555, 0.03268132, -0.17964737, -1473219.6, 49389.902, 0.00007773356, 9.999898, 10.000072 
2.6503083e+2, 1.5463059e+2, -1374365.0, -1406056.6, -23285.867, 0.01718992, -0.20685129, -1362044.9, 62561.184, 0.000013419433, 10.000314, 9.999924 
2.650278e+2, 1.6463056e+2, -1261982.6, -1465251.3, 27698.861, 0.013679313, -0.12366161, -1258275.8, 68330.516, 0.0000010267595, 10.001125, 9.998454 
2.6502576e+2, 1.7463031e+2, -997083.7, -1295472.0, 6185.721, 0.020829804, -0.020008728, -996955.5, 231656.25, 0.0000000012219834, 10.002307, 9.998373 
2.6502436e+2, 1.8462908e+2, -914736.44, -1121509.6, 50652.813, 0.062393486, -0.011558851, -902994.9, 227629.44, 0.0, 10.00184, 9.99912 
2.6502365e+2, 1.9462653e+2, -1176841.1, -1198354.5, 70406.25, 0.152063, -0.21296225, -1116374.6, -83727.87, 0.0, 9.999372, 9.999109 
2.6502138e+2, 2.0462582e+2, -1076820.6, -969104.5, 44931.01, 0.1390654, -0.2467237, -952823.5, -18171.92, 0.0, 9.998824, 10.0002775 
2.6501733e+2, 2.1462707e+2, -751138.56, -760765.0, -9165.754, 0.0068262564, -0.18283306, -745599.1, 91038.516, 0.0, 10.000383, 10.000285 
2.650146e+2, 2.2462744e+2, -688930.44, -846978.0, -8615.947, -0.0031157332, -0.09732964, -688462.1, 50173.746, 0.0, 10.000854, 9.998791 
2.650134e+2, 2.3462665e+2, -717278.6, -823397.44, -17152.559, 0.13211836, -0.08017032, -714575.06, -73925.64, 0.0, 10.000042, 9.998675 
2.6501113e+2, 2.446261e+2, -606078.3, -592356.0, 10039.356, 0.1498557, -0.0504543, -587057.25, -44401.273, 0.0, 9.999602, 9.999794 
2.650075e+2, 2.5462562e+2, -496841.7, -489109.75, 18540.49, 0.030784754, -0.1140328, -474036.44, -29379.844, 0.0, 9.999672, 9.999796 
2.6500443e+2, 2.6462486e+2, -406522.63, -446156.56, -7196.549, 0.0051348615, -0.14034784, -405256.38, -58593.234, 0.0, 9.999839, 9.999341 
2.6500207e+2, 2.74624e+2, -262756.28, -330844.88, -41426.46, 0.11099357, -0.19304644, -243180.02, 5495.0806, 0.0, 10.000177, 9.999296 
2.6499978e+2, 2.8462446e+2, -150921.75, -223173.67, 24040.238, 0.12286343, -0.07342551, -143653.95, 7017.7095, 0.00000017298198, 10.000251, 9.999328 
2.6499715e+2, 2.9462558e+2, -79467.41, -135458.75, -4484.402, 0.020737024, 0.068535455, -79110.516, -26451.361, 0.000002277503, 10.00004, 9.999364 
2.6499522e+2, 3.046222e+2, 2406.6443, -119870.31, -71872.31, 0.18277192, -0.18157436, 35626.754, 35626.754, 0.000011809922, 10.000495, 9.998935 
2.6498947e+2, 3.1462368e+2, 87781.12, -132933.28, 103059.23, 0.029745618, 0.055655695, 128420.33, 128420.33, 0.000042458643, 10.001263, 9.998465 
2.7503753e+2, 1.24636486e+2, -1559289.1, -1648095.4, -39146.438, -0.20061733, -0.05424987, -1544496.9, 174053.72, 0.00042131313, 10.000985, 9.999975 
2.750394e+2, 1.3463594e+2, -1564580.0, -1599239.8, 99506.32, 0.20418134, -0.13262393, -1480905.8, 139647.25, 0.0001952308, 10.000338, 9.999953 
2.7503484e+2, 1.4463471e+2, -1598547.4, -1664777.3, 36348.51, 0.016044231, -0.20398054, -1582491.1, -59926.01, 0.000056360343, 9.999876, 9.99903 
2.75031e+2, 1.5463556e+2, -1454564.4, -1566808.9, 6893.4263, -0.029158412, -0.04524916, -1454142.6, -29582.5, 0.000009372096, 10.000297, 9.998829 
2.7502877e+2, 1.6463459e+2, -1284710.1, -1504096.8, 58990.35, -0.031854704, 0.010787816, -1269854.4, 56717.473, 0.0000008660051, 10.001089, 9.998201 
2.7502838e+2, 1.7463137e+2, -1022391.06, -1335042.6, 62818.984, 0.017956134, -0.15805033, -1010241.44, 218362.42, 0.000000004874734, 10.002256, 9.998122 
2.7502644e+2, 1.8462981e+2, -868363.1, -999698.8, -49985.902, 0.05947855, -0.21145104, -851503.06, 279113.9, 0.0, 10.001732, 10.000007 
2.7502263e+2, 1.9463003e+2, -1121938.0, -1065149.3, -8346.371, 0.07836003, -0.23150909, -1063948.0, -31338.768, 0.0, 9.999295, 10.000057 
2.7501982e+2, 2.0463005e+2, -1159946.8, -1117510.3, 85915.51, 0.07409169, -0.19281097, -1050231.6, -115624.97, 0.0, 9.998722, 9.999309 
2.7501827e+2, 2.1462953e+2, -845939.44, -920646.7, 62658.637, 0.03577343, -0.20423144, -810345.2, 26268.318, 0.0, 10.000227, 9.99926 
2.750162e+2, 2.2462893e+2, -709328.56, -852681.5, -47581.773, 0.04524061, -0.16616873, -694972.8, 43649.742, 0.0, 10.000695, 9.998832 
2.7501333e+2, 2.3462807e+2, -732875.6, -822808.44, -36319.523, 0.09833192, -0.16117649, -720039.94, -79404.43, 0.0, 9.999896, 9.998754 
2.7501047e+2, 2.4462786e+2, -585753.0, -526556.3, -39.161884, 0.09932164, -0.12493338, -526556.3, 16081.269, 0.0, 9.999505, 10.00029 
2.7500752e+2, 2.5462806e+2, -479169.1, -426787.53, 33504.465, 0.031905286, -0.17005415, -410451.78, 34178.746, 0.0, 9.999556, 10.000283 
2.7500495e+2, 2.6462755e+2, -459927.44, -536682.44, -9953.834, 0.046192426, -0.1713809, -458657.6, -112021.97, 0.0, 9.999761, 9.998752 
2.7500302e+2, 2.7462637e+2, -328589.13, -437756.56, -16891.223, 0.15992601, -0.18761866, -326035.3, -77382.38, 0.00000000009324417, 10.000054, 9.998619 
2.750007e+2, 2.8462678e+2, -151486.75, -211357.77, 3254.0393, 0.15772028, -0.04160973, -151310.4, -659.13275, 0.00000023612336, 10.000199, 9.999429 
2.7499717e+2, 2.9462802e+2, -77942.72, -112164.06, 3677.1843, -0.020636495, 0.09737, -77552.055, -24914.76, 0.0000024951785, 9.9999485, 9.999569 
2.7499458e+2, 3.0462402e+2, 24621.012, -60875.46, -49630.457, 0.041701514, -0.25131756, 47375.402, 47375.402, 0.0000116764495, 10.000458, 9.999348 
2.7499092e+2, 3.146248e+2, 97233.02, -71676.73, 171390.16, -0.017203758, -0.11306921, 203846.75, 203846.75, 0.000040637482, 10.001097, 9.998961 
2.8503925e+2, 1.2463946e+2, -1788275.1, -1742622.4, -53096.426, -0.032235038, -0.086080946, -1707653.8, 10867.169, 0.00034670465, 9.999381, 10.000082 
2.8503954e+2, 1.3463913e+2, -1540250.0, -1549492.6, 13916.2, 0.19798225, -0.1721316, -1530207.9, 90311.99, 0.00015383656, 10.000369, 10.000265 
2.8503528e+2, 1.4463826e+2, -1462717.4, -1654407.4, -3520.662, 0.022864278, -0.19944894, -1462652.8, 59876.176, 0.00004093297, 10.001053, 9.99853 
2.850324e+2, 1.5463857e+2, -1286196.5, -1541865.1, -17029.975, 0.019330518, -0.041388497, -1285067.1, 139464.19, 0.0000066741927, 10.001688, 9.998332 
2.8503042e+2, 1.646374e+2, -1226430.0, -1439508.5, 80933.125, 0.020648118, 0.0032264648, -1199175.5, 127369.98, 0.00000074756446, 10.001338, 9.998529 
2.8502965e+2, 1.7463432e+2, -1339882.8, -1452634.0, 102527.48, 0.046105772, -0.18490699, -1279253.8, -50679.2, 0.000000006090155, 9.999915, 9.998454 
2.8502712e+2, 1.8463308e+2, -1182641.3, -1163798.5, -17939.791, 0.07032672, -0.21909657, -1152956.6, -22372.236, 0.0, 9.999634, 9.9998865 
2.850225e+2, 1.9463375e+2, -940781.7, -995824.1, -83278.86, 0.08098633, -0.17570034, -880594.4, 151979.19, 0.0, 10.000611, 9.9999 
2.850197e+2, 2.0463362e+2, -885705.06, -1037064.5, 46900.945, 0.08926984, -0.12312574, -872350.4, 62223.39, 0.0, 10.000837, 9.998835 
2.8501898e+2, 2.1463227e+2, -903904.9, -1003753.0, 39864.254, 0.09912888, -0.16799071, -889941.75, -53352.414, 0.0, 10.000072, 9.998762 
2.850168e+2, 2.2463122e+2, -825956.06, -883944.7, -38808.773, 0.09291628, -0.15645526, -806506.7, -67904.516, 0.0, 9.999798, 9.999041 
2.8501293e+2, 2.3463048e+2, -682269.1, -769068.3, -40957.84, 0.06553205, -0.16623959, -665994.06, -25381.543, 0.0, 10.000129, 9.9990015 
2.8500983e+2, 2.4463038e+2, -511680.28, -520774.1, 5197.639, 0.06079435, -0.11963045, -509321.4, 33292.41, 0.0, 10.000125, 10.000032 
2.8500763e+2, 2.546309e+2, -466371.63, -447085.56, -44362.72, 0.08771438, -0.11050464, -411329.94, 33276.355, 0.0, 9.999765, 10.000036 
2.850054e+2, 2.6463047e+2, -460008.16, -517459.16, -49388.434, 0.12743035, -0.09895774, -431598.97, -84988.625, 0.0, 9.999673, 9.998928 
2.8500342e+2, 2.7462894e+2, -348263.97, -425301.13, -18040.059, 0.21716565, -0.16914488, -344248.75, -95620.94, 0.0000000018932573, 9.999806, 9.998831 
2.8500104e+2, 2.846289e+2, -237653.88, -289048.53, 41951.055, 0.2020348, -0.06444669, -214155.23, -63525.2, 0.00000028816427, 9.999761, 9.999112 
2.849974e+2, 2.9462996e+2, -119915.59, -159961.28, -16338.793, 0.027747441, 0.089631535, -114095.25, -61474.723, 0.0000027347362, 9.999794, 9.999309 
2.8499448e+2, 3.0462644e+2, -21783.484, -67827.414, -62104.2, 0.022263909, -0.20751348, 21428.547, 21428.547, 0.000012525966, 10.000054, 9.999494 
2.84992e+2, 3.1462705e+2, -80680.04, -101265.9, 89919.84, 0.07523618, -0.10229019, -465.9372, -465.9372, 0.00004059471, 9.999621, 9.999465 
2.9503965e+2, 1.24641225e+2, -1800343.9, -1786735.8, -81463.42, -0.009751288, -0.20186679, -1711792.8, 6708.0864, 0.00028489743, 9.999448, 9.999752 
2.95039e+2, 1.3464165e+2, -1560992.4, -1598593.0, 56801.92, 0.07260798, -0.19024992, -1519960.4, 100534.66, 0.000121053716, 10.000399, 9.999911 
2.9503575e+2, 1.4464109e+2, -1457636.5, -1649856.5, 531.22437, -0.07873176, -0.16597885, -1457635.0, 64866.324, 0.000029834508, 10.001063, 9.998563 
2.9503447e+2, 1.5463963e+2, -1285715.8, -1535610.1, 16783.807, 0.022635363, -0.1947663, -1284593.5, 139926.2, 0.000004731658, 10.001663, 9.998386 
2.950323e+2, 1.6463903e+2, -1172767.4, -1312408.3, 18934.559, 0.045337804, -0.13752684, -1170245.5, 156281.5, 0.00000054097734, 10.00128, 9.999423 
2.9502922e+2, 1.7463928e+2, -1277796.9, -1312195.0, 65045.875, -0.020314783, -0.089225784, -1227714.6, 807.7944, 0.0000000012704189, 9.999879, 9.999426 
2.9502612e+2, 1.8463896e+2, -1273482.4, -1339080.0, 2758.0063, -0.024924954, -0.026208134, -1273366.6, -142841.06, 0.0, 9.99957, 9.998718 
2.9502293e+2, 1.9463767e+2, -1040260.56, -1184216.6, -34628.773, 0.032269906, -0.05528809, -1032363.8, 176.62878, 0.0, 10.000534, 9.998643 
2.9502058e+2, 2.0463644e+2, -906669.9, -1046484.6, 8935.87, 0.068937115, -0.045055877, -906101.06, 28452.496, 0.0, 10.000692, 9.9988365 
2.9501894e+2, 2.146352e+2, -923593.9, -1005973.6, 25339.75, 0.06539762, -0.08562098, -916423.56, -79857.38, 0.0, 9.999909, 9.998821 
2.9501614e+2, 2.2463433e+2, -822400.7, -841171.75, -40255.137, 0.018732455, -0.07485133, -790451.44, -51876.42, 0.0, 9.999647, 9.999406 
2.9501188e+2, 2.3463385e+2, -677241.4, -723785.25, -13858.631, -0.08118144, -0.0975597, -673427.44, -32846.594, 0.0, 9.999982, 9.999381 
2.9500896e+2, 2.4463375e+2, -588999.2, -664247.2, -20829.898, -0.06726778, -0.02621678, -583617.94, -41034.066, 0.0, 10.000047, 9.999089 
2.9500753e+2, 2.5463393e+2, -552095.75, -602530.06, -46396.297, 0.07116612, 0.055305723, -524506.44, -79921.21, 0.0, 9.999662, 9.999024 
2.9500544e+2, 2.646334e+2, -398833.44, -373246.72, -55274.92, 0.13422766, 0.057455868, -329303.97, 17285.643, 0.0, 9.999604, 9.999949 
2.950028e+2, 2.7463168e+2, -287714.34, -271048.97, -2622.3147, 0.1413726, -0.14115284, -270646.06, -22046.219, 0.0000000016821552, 9.999687, 9.999946 
2.9500037e+2, 2.84631e+2, -290814.34, -391597.03, 28726.752, 0.12982371, -0.12713991, -283201.28, -132594.97, 0.00000022409213, 9.999724, 9.998428 
2.9499757e+2, 2.946314e+2, -187255.44, -289310.66, 9611.408, 0.02245497, 0.036863815, -186358.14, -133748.83, 0.0000026534976, 9.999735, 9.998458 
2.9499465e+2, 3.0462933e+2, -30242.727, -74764.11, -76345.5, 0.0016034005, -0.062102247, 27021.254, 27021.254, 0.00001292508, 10.000013, 9.999463 
2.9499188e+2, 3.1463012e+2, -57694.72, -33159.027, 97064.51, 0.032451387, 0.056921776, 52409.824, 52409.824, 0.000040888393, 9.999531, 9.999976 
3.050404e+2, 1.2464346e+2, -1595223.1, -1719861.4, -80674.35, 0.054459155, -0.21378563, -1555601.0, 162878.63, 0.00023189843, 10.001014, 9.999459 
3.0503947e+2, 1.3464366e+2, -1474751.4, -1612590.9, 1814.003, 0.047226522, -0.17306857, -1474727.5, 145750.16, 0.000094942065, 10.001218, 9.999431 
3.0503687e+2, 1.446434e+2, -1465679.4, -1605126.4, -36803.508, -0.050987706, -0.11406561, -1456562.1, 65919.08, 0.000021738364, 10.000827, 9.99897 
3.0503538e+2, 1.5464191e+2, -1469959.4, -1575121.3, -28196.139, 0.034371052, -0.1910423, -1462876.4, -38378.234, 0.0000030875526, 10.000198, 9.998813 
3.05033e+2, 1.6464141e+2, -1326492.8, -1364421.8, -24289.17, 0.055717934, -0.15488258, -1314641.4, 11861.751, 0.0000002653173, 10.000109, 9.999634 
3.0502954e+2, 1.7464201e+2, -1171721.5, -1238024.3, -62296.32, -0.0002816394, -0.092838064, -1134304.9, 94190.234, 0.0, 10.000495, 9.999643 
3.0502647e+2, 1.8464164e+2, -1127909.3, -1322916.8, -65916.125, -0.0015811329, -0.021517072, -1107718.9, 22780.818, 0.0, 10.000795, 9.998248 
3.050238e+2, 1.9463988e+2, -1025220.75, -1241609.8, -72300.53, 0.05532352, -0.045697957, -1003286.75, 29234.965, 0.0, 10.000891, 9.998097 
3.0502138e+2, 2.0463857e+2, -908638.44, -1013784.44, -10542.762, 0.09437204, -0.030774755, -907591.75, 26944.68, 0.0, 10.000526, 9.999148 
3.050191e+2, 2.146377e+2, -940838.9, -981437.7, -2459.0486, 0.111753784, -0.06436358, -940690.5, -104146.98, 0.0, 9.999634, 9.999132 
3.0501604e+2, 2.246371e+2, -846961.9, -839191.4, 4768.165, 0.064708225, -0.051690344, -836926.0, -98377.49, 0.0, 9.999421, 9.99953 
3.0501208e+2, 2.3463665e+2, -668215.25, -706554.9, -13113.978, -0.04919565, -0.08335646, -664158.9, -23606.09, 0.0, 9.99999, 9.999497 
3.0500934e+2, 2.4463639e+2, -598128.44, -700067.4, -6713.254, -0.032738756, -0.018461453, -597688.25, -55130.875, 0.0, 10.000147, 9.998789 
3.0500787e+2, 2.5463623e+2, -522402.38, -618402.25, -5753.8247, 0.12859617, 0.060266245, -522058.75, -77494.984, 0.0, 10.000018, 9.998737 
3.050055e+2, 2.6463556e+2, -351268.72, -336993.34, 14770.183, 0.17531508, 0.05877504, -327726.6, 18842.586, 0.0, 9.999865, 10.000076 
3.050023e+2, 2.7463403e+2, -265171.8, -243825.72, -28355.404, 0.1271963, -0.13730188, -224201.2, 24374.707, 0.00000000014964384, 9.999771, 10.000092 
3.05e+2, 2.8463316e+2, -296580.7, -420531.7, 12592.51, 0.124973446, -0.13778438, -295314.3, -144730.2, 0.00000013461268, 9.999814, 9.9981785 
3.0499825e+2, 2.9463318e+2, -182023.48, -317896.94, 7638.702, 0.119162105, 0.016627606, -181595.39, -129002.76, 0.0000024184974, 9.999931, 9.998152 
3.0499542e+2, 3.0463153e+2, -73987.08, -128372.625, -61203.582, 0.097420335, -0.008535108, -34207.277, -34207.277, 0.00001259153, 9.999845, 9.999187 
3.0499178e+2, 3.1463155e+2, -94213.16, 7667.6514, 30905.006, 0.10890662, 0.053604443, 16309.495, 16309.495, 0.000039642433, 9.999016, 10.000519 
3.150409e+2, 1.2464637e+2, -1607328.1, -1751229.1, -118972.484, -0.06284028, -0.09612606, -1540241.5, 178213.56, 0.0001887222, 10.001043, 9.999229 
3.1504035e+2, 1.3464543e+2, -1526264.0, -1702027.4, 15084.292, -0.013924681, -0.1079383, -1524978.9, 95486.88, 0.00007509751, 10.001168, 9.998834 
3.1503814e+2, 1.4464542e+2, -1419972.6, -1512171.4, -76041.89, -0.043667287, -0.025341906, -1377147.8, 145318.89, 0.00001598166, 10.000819, 9.999615 
3.1503484e+2, 1.5464532e+2, -1419622.8, -1472857.3, -39055.89, -0.07516604, -0.032369778, -1398976.5, 25490.773, 0.00000170519, 10.000207, 9.999509 
3.1503227e+2, 1.6464446e+2, -1365999.4, -1439679.8, -30234.94, -0.056343965, -0.04497871, -1355180.9, -28706.084, 0.000000057148895, 10.000072, 9.999143 
3.1503025e+2, 1.7464247e+2, -1213645.1, -1316327.6, -39321.24, -0.009489584, -0.1900831, -1200317.4, 28175.38, 0.0, 10.000454, 9.999128 
3.1502768e+2, 1.8464121e+2, -1125961.1, -1298378.8, -74485.07, 0.015701825, -0.19292513, -1098240.3, 32265.736, 0.0, 10.000705, 9.998462 
3.150246e+2, 1.9464047e+2, -1018954.56, -1206302.6, -54691.39, 0.018802568, -0.13953345, -1004157.5, 28359.113, 0.0, 10.000798, 9.998383 
3.150217e+2, 2.046401e+2, -891966.8, -943359.1, -55780.42, 0.05273606, -0.071856596, -856248.44, 78272.55, 0.0, 10.000378, 9.999703 
3.15019e+2, 2.1463996e+2, -924119.8, -909818.94, -22352.275, 0.11345887, -0.08837574, -893501.25, -56981.508, 0.0, 9.99948, 9.999696 
3.1501618e+2, 2.2463965e+2, -870519.6, -859970.6, 12208.725, 0.1099064, -0.07415298, -851945.75, -113424.42, 0.0, 9.999297, 9.999452 
3.150131e+2, 2.3463888e+2, -695527.25, -731707.25, 21035.768, 0.032607462, -0.12081982, -685872.8, -45344.727, 0.0, 9.999854, 9.999395 
3.150105e+2, 2.4463823e+2, -583890.94, -659506.1, -23786.555, 0.03977089, -0.104556784, -577030.7, -34495.67, 0.0, 10.0000925, 9.999094 
3.1500822e+2, 2.5463763e+2, -516939.8, -578590.6, -653.04614, 0.1343043, -0.102580145, -516932.9, -72390.01, 0.0, 9.999889, 9.999076 
3.1500527e+2, 2.6463702e+2, -407787.22, -441914.72, -521.2493, 0.13911897, -0.08451536, -407779.25, -61230.44, 0.0, 9.99981, 9.999382 
3.150016e+2, 2.7463597e+2, -329022.1, -357890.56, -18601.492, 0.051010102, -0.16058528, -319911.4, -71355.08, 0.00000000001473293, 9.999684, 9.999353 
3.1499952e+2, 2.846353e+2, -294556.28, -402689.97, 3780.625, 0.06625178, -0.10646298, -294424.25, -143859.84, 0.000000108201135, 9.999761, 9.9983225 
3.1499898e+2, 2.946352e+2, -190060.38, -310151.0, 28783.504, 0.1608398, 0.017436927, -183517.94, -130945.52, 0.0000023186144, 9.99982, 9.99826 
3.1499636e+2, 3.0463296e+2, -108878.07, -193845.11, -95054.83, 0.17919357, -0.046967126, -47244.977, -47244.977, 0.000012381474, 9.99981, 9.9987545 
3.1499112e+2, 3.1463113e+2, -50014.68, 104145.95, 29678.453, 0.07044646, -0.1395419, 109662.164, 109662.164, 0.000038038284, 9.998983, 10.001201 
3.250426e+2, 1.2464819e+2, -1575252.8, -1698005.5, -117155.55, 0.017814308, -0.030397307, -1504370.0, 214071.34, 0.0001575099, 10.001066, 9.999589 
3.2504115e+2, 1.3464707e+2, -1533238.4, -1695917.3, 9508.765, -0.031358972, -0.07782505, -1532684.5, 87767.61, 0.00006189271, 10.001031, 9.998956 
3.2503918e+2, 1.4464687e+2, -1430308.9, -1500776.4, -49594.47, -0.0069847656, -0.02665907, -1404706.6, 117747.08, 0.000012633238, 10.0006695, 9.999775 
3.2503557e+2, 1.5464716e+2, -1365710.3, -1429363.1, -77259.06, -0.028138572, -0.011440507, -1313979.0, 110471.24, 0.0000008198343, 10.000482, 9.999687 
3.2503295e+2, 1.6464642e+2, -1335909.8, -1434594.5, -23538.54, -0.0048035537, -0.016120914, -1330582.9, -4125.499, 0.000000004124255, 10.000355, 9.999024 
3.25031e+2, 1.7464432e+2, -1240446.3, -1346719.8, -32665.494, 0.03394097, -0.15629458, -1231208.8, -2730.64, 0.0, 10.000361, 9.998958 
3.2502848e+2, 1.8464318e+2, -1134499.0, -1230130.1, -25642.877, 0.048341982, -0.16746534, -1128056.9, 2432.6055, 0.0, 10.000343, 9.99909 
3.250253e+2, 1.9464298e+2, -1059060.0, -1147477.0, -5506.7793, 0.044927597, -0.12948987, -1058718.3, -26226.197, 0.0, 10.000209, 9.999052 
3.2502207e+2, 2.046427e+2, -920268.9, -980014.6, -5703.481, 0.065797545, -0.078636244, -919729.25, 14764.874, 0.0, 10.000269, 9.999506 
3.2501885e+2, 2.146422e+2, -802324.75, -874828.2, -54222.39, 0.11017526, -0.11162921, -773351.8, 63145.41, 0.0, 10.000414, 9.999486 
3.2501605e+2, 2.2464167e+2, -727739.6, -810405.4, -7821.899, 0.122327745, -0.09916995, -727006.0, 11495.258, 0.0, 10.000353, 9.999284 
3.2501373e+2, 2.3464091e+2, -669519.0, -738057.0, -24391.492, 0.10253627, -0.13166857, -661724.8, -21216.668, 0.0, 10.000103, 9.999231 
3.2501116e+2, 2.4464011e+2, -613492.94, -665107.0, -65756.05, 0.11554018, -0.1269413, -568661.0, -26145.137, 0.0, 9.999839, 9.999185 
3.250082e+2, 2.5463912e+2, -535339.56, -575333.4, -78327.664, 0.16514719, -0.17501092, -474496.53, -29971.07, 0.0, 9.999689, 9.999199 
3.25005e+2, 2.6463845e+2, -454203.25, -516513.72, -45022.688, 0.14377318, -0.14591141, -430607.3, -84074.48, 0.0, 9.999724, 9.998914 
3.2500154e+2, 2.7463773e+2, -311334.0, -402011.9, -70070.555, 0.06434082, -0.13860878, -273213.38, -24672.063, 0.00000000010851988, 10.000044, 9.998873 
3.2499954e+2, 2.8463724e+2, -202413.9, -324743.28, -8067.896, 0.07710152, -0.057669412, -201884.11, -51334.85, 0.00000014604628, 10.000231, 9.998643 
3.2499918e+2, 2.946371e+2, -112901.28, -230954.31, 4973.223, 0.19142321, 0.026886627, -112692.14, -60136.71, 0.0000023415487, 10.000166, 9.998642 
3.2499617e+2, 3.04635e+2, -142201.75, -188759.78, -99561.484, 0.20801787, -0.05591715, -63234.0, -63234.0, 0.000012312151, 9.999531, 9.998906 
3.2498974e+2, 3.1463373e+2, -148311.67, 107116.625, 11896.172, 0.09280615, -0.10534696, 107669.48, 107669.48, 0.000036624067, 9.998137, 10.00161 
3.3504465e+2, 1.24649025e+2, -1516535.0, -1563227.3, -136755.31, 0.047662262, -0.001980716, -1401147.4, 317290.22, 0.00013854062, 10.001025, 10.000527 
3.3504146e+2, 1.3464876e+2, -1479154.8, -1565013.0, 7707.963, -0.13304846, -0.054357603, -1478468.3, 141966.86, 0.000055370125, 10.000981, 9.999861 
3.3503962e+2, 1.4464793e+2, -1455460.6, -1542432.5, -77645.35, -0.06750674, -0.09959443, -1409953.1, 112487.98, 0.000011804474, 10.000622, 9.999514 
3.3503717e+2, 1.5464765e+2, -1384832.8, -1462230.0, -72034.05, 0.050308242, -0.11461155, -1341760.4, 82684.555, 0.00000057438905, 10.000459, 9.999471 
3.350345e+2, 1.6464749e+2, -1330748.8, -1415950.8, -35723.4, 0.08454206, -0.057711765, -1317753.0, 8695.42, 0.00000000201948, 10.000316, 9.999174 
3.3503142e+2, 1.7464745e+2, -1233737.1, -1327948.6, -17446.938, 0.006514735, -0.006896898, -1230609.9, -2158.053, 0.0, 10.000338, 9.9991 
3.3502838e+2, 1.8464743e+2, -1081931.3, -1095885.4, -44685.875, -0.023681324, 0.04066472, -1043681.06, 86770.625, 0.0, 10.000235, 10.000065 
3.3502546e+2, 1.9464722e+2, -999241.75, -1004132.94, 304.99756, 0.010044378, -0.02543186, -999222.8, 33226.848, 0.0, 10.000131, 10.000072 
3.350221e+2, 2.0464627e+2, -999355.06, -1116909.9, -14713.792, 0.019116713, -0.05198367, -997541.44, -63084.46, 0.0, 10.000154, 9.998623 
3.3501825e+2, 2.146443e+2, -891324.1, -1020633.2, -36825.72, -0.013870308, -0.13818264, -881572.06, -45095.332, 0.0, 10.000251, 9.998563 
3.3501536e+2, 2.2464313e+2, -767054.6, -858765.0, -29823.064, -0.007916304, -0.12847473, -758209.6, -19720.854, 0.0, 10.000212, 9.999017 
3.3501348e+2, 2.3464274e+2, -709332.25, -778701.5, -24425.732, 0.044061083, -0.101432, -701594.7, -61101.91, 0.0, 9.999933, 9.999027 
3.3501098e+2, 2.4464206e+2, -621495.0, -672025.6, -83585.46, 0.08678006, -0.07548078, -559439.9, -16940.502, 0.0, 9.999789, 9.999163 
3.3500758e+2, 2.546408e+2, -554866.94, -586592.7, -72463.64, 0.10414141, -0.15309462, -496550.25, -52039.453, 0.0, 9.999569, 9.999176 
3.3500445e+2, 2.6463994e+2, -481988.34, -566314.3, -47073.516, 0.08892849, -0.120621406, -460956.13, -114435.63, 0.0, 9.999688, 9.998589 
3.350016e+2, 2.746393e+2, -351052.8, -457166.6, -44738.082, 0.034766838, -0.07207594, -334708.5, -86177.19, 0.000000000044508567, 9.999927, 9.99855 
3.3499965e+2, 2.84639e+2, -161207.67, -236184.2, -22022.531, 0.037464153, 0.008927622, -155217.64, -4679.4214, 0.00000018851506, 10.000205, 9.999268 
3.3499843e+2, 2.9463902e+2, -76040.46, -144590.48, 16674.164, 0.06370277, 0.043444075, -72199.805, -19659.133, 0.0000023038672, 10.000108, 9.999271 
3.3499447e+2, 3.0463737e+2, -107275.19, -112857.0, -159169.03, 0.054377206, -0.0462059, 49127.406, 49127.406, 0.000011796056, 9.999517, 9.999434 
3.3498684e+2, 3.14639e+2, -161748.23, 104310.88, 12286.078, -0.074138165, 0.14422102, 104877.02, 104877.02, 0.000034748333, 9.998018, 10.001658 
3.4504592e+2, 1.24650024e+2, -1593250.3, -1562953.8, -36520.04, 0.12363424, -0.021233862, -1538564.9, 179863.08, 0.00012841672, 10.000351, 10.000849 
3.450425e+2, 1.346503e+2, -1628907.1, -1602099.9, -20017.854, -0.05201979, -0.053386148, -1591412.6, 29006.15, 0.00005393956, 9.999783, 10.0002 
3.4504077e+2, 1.4464928e+2, -1561985.8, -1593186.4, -43232.414, 0.03549712, -0.13479911, -1531625.0, -9198.656, 0.00001321429, 9.999903, 9.9995 
3.450381e+2, 1.5464897e+2, -1283288.8, -1423384.0, -58726.617, 0.0693177, -0.14545672, -1261928.0, 162503.63, 0.00000089811203, 10.0012045, 9.999373 
3.450351e+2, 1.6464911e+2, -1169556.4, -1307814.1, -33319.89, 0.0724837, -0.06848999, -1161945.3, 164487.34, 0.0000000015154811, 10.001271, 9.999463 
3.4503153e+2, 1.746497e+2, -1283423.4, -1315579.1, -28654.81, 0.01320333, 0.013917751, -1266644.1, -38214.6, 0.0, 9.999837, 9.999428 
3.4502843e+2, 1.8464996e+2, -1187471.4, -1136912.3, -17414.242, 0.0057378206, 0.06778281, -1131494.8, -1068.494, 0.0, 9.999464, 10.00016 
3.4502617e+2, 1.9464955e+2, -976777.9, -986787.2, -61293.977, 0.06862375, -0.023159774, -920284.6, 112141.22, 0.0, 10.000247, 10.000145 
3.45023e+2, 2.046485e+2, -931830.44, -1100438.6, -75608.89, 0.07562284, -0.05667932, -902891.94, 31542.56, 0.0, 10.000687, 9.998478 
3.4501886e+2, 2.1464647e+2, -845471.25, -1020418.06, -67061.766, 0.008958092, -0.13171957, -822722.7, 13733.409, 0.0, 10.000651, 9.998375 
3.450156e+2, 2.2464527e+2, -741977.7, -849239.0, -14990.797, -0.0071052876, -0.113011144, -739922.0, -1453.1384, 0.0, 10.000397, 9.998996 
3.4501332e+2, 2.346449e+2, -715915.2, -786343.9, -18535.332, 0.041743435, -0.08373489, -711334.94, -70861.92, 0.0, 9.999894, 9.999002 
3.4501088e+2, 2.4464427e+2, -615492.5, -670830.1, -29597.422, 0.09878613, -0.047878064, -602645.0, -60165.973, 0.0, 9.999851, 9.999138 
3.4500805e+2, 2.5464308e+2, -437422.22, -541860.2, -46156.008, 0.16036433, -0.11012811, -419947.6, 24542.674, 0.0, 10.000413, 9.999088 
3.4500495e+2, 2.6464224e+2, -393691.6, -530445.1, -4438.8228, 0.1441137, -0.06950286, -393547.66, -47046.9, 0.0, 10.000337, 9.998516 
3.4500143e+2, 2.7464157e+2, -405149.38, -487876.53, -7997.889, 0.05171353, -0.016660329, -404383.25, -155870.7, 0.0, 9.999588, 9.998498 
3.4499902e+2, 2.846412e+2, -357751.16, -297040.1, 27626.188, 0.035232786, 0.05219915, -286350.97, -135831.73, 0.00000016974016, 9.998742, 9.99954 
3.4499758e+2, 2.9464123e+2, -374409.38, -254731.63, 11135.95, 0.08392615, 0.060141914, -253704.25, -201184.03, 0.0000020169734, 9.997929, 9.999558 
3.4499332e+2, 3.0464002e+2, -242831.56, -178428.3, -136640.5, 0.04620879, -0.0039193714, -70246.266, -70246.266, 0.0000103175025, 9.998561, 9.999456 
3.4498635e+2, 3.1464148e+2, 153067.81, 204954.1, -27955.068, -0.026378294, 0.16151033, 217149.28, 217149.28, 0.000031962787, 10.000395, 10.001195 
3.5504574e+2, 1.2465115e+2, -1620836.9, -1615733.9, -58082.477, -0.009096762, -0.087850265, -1560146.9, 158266.06, 0.00012227354, 10.000332, 10.000494 
3.550438e+2, 1.346517e+2, -1630803.3, -1606287.1, -32473.143, 0.065480635, -0.07717524, -1583835.4, 36567.395, 0.00005490219, 9.9998045, 10.000151 
3.5504228e+2, 1.4465107e+2, -1554408.1, -1586308.9, -13132.896, 0.15062869, -0.12263094, -1549697.3, -27289.373, 0.000015641235, 9.999929, 9.999544 
3.55038e+2, 1.5465112e+2, -1281503.3, -1428405.0, 3693.1218, -0.09733538, -0.095151044, -1281410.5, 142999.83, 0.0000017221555, 10.001235, 9.99933 
3.5503426e+2, 1.6465122e+2, -1143964.6, -1238720.6, -100121.266, -0.16779052, -0.043869123, -1080577.4, 245833.05, 0.000000007086625, 10.001203, 9.999968 
3.5503078e+2, 1.7465112e+2, -1248822.9, -1237121.6, -70860.87, -0.07406798, -0.085992865, -1171870.3, 56540.18, 0.0, 9.999806, 9.99998 
3.5502824e+2, 1.8465082e+2, -1256607.0, -1258800.8, -1383.2738, 0.009438938, -0.079860575, -1255938.5, -125525.84, 0.0, 9.9993725, 9.999368 
3.5502705e+2, 1.9465019e+2, -1047735.94, -1113905.3, -18176.246, 0.10389804, -0.10921647, -1043071.8, -10653.2705, 0.0, 10.00016, 9.999313 
3.5502452e+2, 2.0464958e+2, -915982.25, -1037273.7, -87986.805, 0.1312968, -0.079374984, -869765.56, 64659.57, 0.0, 10.000552, 9.99898 
3.5502034e+2, 2.146488e+2, -826319.25, -947700.4, -55407.43, 0.068873815, -0.08540176, -804831.2, 31603.203, 0.0, 10.000508, 9.998944 
3.5501647e+2, 2.2464818e+2, -747423.8, -831181.25, -42802.91, 0.019965164, -0.04892245, -729420.0, 9021.153, 0.0, 10.00027, 9.999182 
3.5501283e+2, 2.346475e+2, -727366.7, -774067.3, -25063.797, -0.018623296, -0.06483924, -716461.6, -76014.4, 0.0, 9.999743, 9.999158 
3.5501033e+2, 2.4464686e+2, -642490.1, -700108.0, -20528.566, 0.038580127, -0.029491127, -635924.3, -93470.43, 0.0, 9.999743, 9.998985 
3.5500923e+2, 2.5464603e+2, -468689.72, -574647.0, -12708.702, 0.20949821, -0.041237105, -467186.75, -22722.986, 0.0, 10.000285, 9.99892 
3.550061e+2, 2.6464537e+2, -385534.53, -503500.47, -40761.953, 0.19894841, 0.014624602, -372820.03, -26347.256, 0.0, 10.000289, 9.998724 
3.5500064e+2, 2.7464458e+2, -406222.9, -467770.84, -21707.18, -0.013907645, 0.034522053, -399337.38, -150853.69, 0.0, 9.999493, 9.99868 
3.5499728e+2, 2.8464395e+2, -374419.72, -323130.47, -14951.163, -0.044492297, 0.074202605, -319090.34, -168598.44, 0.00000011654808, 9.998709, 9.999377 
3.5499611e+2, 2.946436e+2, -400310.28, -286055.06, -1002.6027, 0.10925944, 0.064325206, -286046.28, -233551.05, 0.0000016052002, 9.997837, 9.999387 
3.549923e+2, 3.046428e+2, -261632.0, -222818.38, -77527.26, 0.061572604, 0.061135937, -162305.84, -162305.84, 0.000008325357, 9.998568, 9.999156 
3.549873e+2, 3.1464186e+2, 70155.7, 47252.117, 88283.984, -0.043564558, 0.02209733, 147727.53, 147727.53, 0.000028551576, 10.0003195, 10.000155 
3.6504632e+2, 1.2465262e+2, -1615531.3, -1689981.0, 54620.223, 0.016120804, -0.18050182, -1586657.3, 131735.34, 0.000118926524, 10.000684, 9.99983 
3.650448e+2, 1.3465326e+2, -1422446.4, -1553382.3, -31217.625, 0.116861925, -0.114858836, -1415384.5, 205001.02, 0.000056465244, 10.001434, 9.999731 
3.6504313e+2, 1.4465289e+2, -1377408.5, -1485845.5, 4535.599, 0.19481523, -0.121016234, -1377219.1, 145170.34, 0.00001794202, 10.001081, 9.999679 
3.6503875e+2, 1.5465319e+2, -1514277.4, -1521497.4, 3726.4717, -0.0511765, -0.082438014, -1512699.0, -88310.805, 0.000002788093, 9.999558, 9.9995 
3.6503512e+2, 1.6465299e+2, -1409648.4, -1396608.0, -80675.01, -0.10894441, -0.056833666, -1322190.1, 4200.8955, 0.00000008230677, 9.999506, 9.999706 
3.650317e+2, 1.7465203e+2, -1089322.8, -1190568.3, -142589.78, -0.016174117, -0.15579514, -988636.25, 239763.48, 0.0, 10.001031, 9.999714 
3.6502916e+2, 1.846515e+2, -973474.6, -1138382.9, -65955.15, 0.07139556, -0.15163638, -950341.06, 180063.73, 0.0, 10.0013895, 9.999224 
3.6502793e+2, 1.9465123e+2, -1032732.4, -1122618.0, -54830.14, 0.17726454, -0.12847167, -1006779.5, 25628.453, 0.0, 10.000336, 9.999171 
3.6502516e+2, 2.04651e+2, -995633.25, -1048550.0, -72706.84, 0.18302946, -0.06416951, -944720.25, -10308.845, 0.0, 9.999892, 9.999219 
3.6502057e+2, 2.1465062e+2, -867419.3, -938133.3, -90643.76, 0.06661322, -0.057309955, -805480.8, 30936.508, 0.0, 10.000106, 9.999201 
3.6501658e+2, 2.2465013e+2, -755200.3, -820314.25, -84613.086, 0.01490583, -0.026699575, -697096.75, 41326.004, 0.0, 10.000154, 9.999313 
3.6501327e+2, 2.346493e+2, -683474.44, -737962.1, -94405.45, 0.046458125, -0.069146484, -612460.4, 27969.365, 0.0, 9.99998, 9.99929 
3.6501086e+2, 2.4464868e+2, -638922.7, -703699.06, -44017.52, 0.12438915, -0.039373998, -616661.6, -74225.2, 0.0, 9.999769, 9.998961 
3.650095e+2, 2.5464815e+2, -587228.56, -626908.94, -48205.727, 0.25853565, -0.018635353, -554939.8, -110495.93, 0.0, 9.999453, 9.998961 
3.6500618e+2, 2.6464757e+2, -495086.03, -556201.94, -62993.85, 0.22149566, 0.04431756, -455629.6, -109177.62, 0.0, 9.999542, 9.998719 
3.650006e+2, 2.7464655e+2, -310237.56, -422272.6, -84865.805, 0.009264224, 0.03907849, -264568.47, -16103.384, 0.0, 10.000154, 9.998677 
3.6499697e+2, 2.846456e+2, -170484.39, -239249.14, -80126.53, -0.009095909, 0.054304667, -117674.98, 32800.41, 0.000000055764154, 10.000148, 9.99927 
3.6499524e+2, 2.9464513e+2, -183483.0, -196427.73, -87009.016, 0.16900721, 0.0376125, -102705.95, -50226.805, 0.0000011855267, 9.999389, 9.999255 
3.649913e+2, 3.0464464e+2, -187393.23, -254633.72, -75700.414, 0.07460546, 0.10764359, -138183.1, -138183.1, 0.0000067298934, 9.999398, 9.998527 
3.6498842e+2, 3.146425e+2, -31987.201, -67412.34, 15964.16, 0.06990497, 0.0068409494, -25854.656, -25854.656, 0.00002565761, 9.99992, 9.999559 
3.7504688e+2, 1.2465458e+2, -1675563.5, -1814965.6, 85630.86, -0.06555077, -0.2575459, -1634852.3, 83513.44, 0.0001191897, 10.000686, 9.998962 
3.750451e+2, 1.3465504e+2, -1468895.3, -1650061.5, 4698.715, -0.032362003, -0.15143505, -1468773.5, 151592.47, 0.00005856906, 10.001438, 9.999058 
3.7504292e+2, 1.4465474e+2, -1367697.5, -1451485.6, -67264.89, 0.02740288, -0.12947986, -1330347.1, 192023.78, 0.000020069963, 10.001023, 9.999942 
3.7503994e+2, 1.5465508e+2, -1485760.3, -1471714.1, -39604.34, 0.07786691, -0.11628042, -1438514.9, -14148.549, 0.0000038584762, 9.999594, 9.999826 
3.7503722e+2, 1.6465437e+2, -1489638.6, -1553157.8, -38413.71, 0.120522015, -0.107151136, -1471555.6, -145181.23, 0.00000020238203, 9.999469, 9.998648 
3.7503386e+2, 1.7465253e+2, -1175203.6, -1361432.1, -70306.09, 0.06692113, -0.18408445, -1151642.1, 76753.93, 0.0, 10.000995, 9.998559 
3.7503082e+2, 1.8465197e+2, -952570.25, -1070811.6, -113971.84, 0.070754245, -0.1468126, -883297.6, 247104.95, 0.0, 10.001287, 9.999733 
3.7502843e+2, 1.9465263e+2, -1008311.0, -1045080.2, -81083.72, 0.16804036, -0.090018116, -943553.75, 88840.625, 0.0, 10.000226, 9.99975 
3.7502465e+2, 2.0465273e+2, -1019260.56, -1070381.1, -78795.4, 0.11910786, -0.02046877, -961983.44, -27589.414, 0.0, 9.99977, 9.99913 
3.7501907e+2, 2.1465196e+2, -897007.2, -962337.06, -71694.52, -0.120516576, -0.03781444, -850887.0, -14482.649, 0.0, 9.999949, 9.999108 
3.750155e+2, 2.2465119e+2, -767990.06, -819707.8, -105861.59, -0.13090777, -0.033618398, -684874.8, 53538.23, 0.0, 10.000025, 9.999386 
3.7501422e+2, 2.3465016e+2, -694668.06, -734301.25, -90234.34, 0.117987104, -0.10838174, -622099.94, 18322.318, 0.0, 9.999854, 9.999381 
3.7501204e+2, 2.4464966e+2, -639431.56, -682911.8, -67276.195, 0.23956305, -0.08047376, -590470.06, -48042.625, 0.0, 9.999677, 9.999147 
3.7500852e+2, 2.5464952e+2, -592772.9, -613025.7, -46926.523, 0.18590766, -0.037512932, -554892.56, -110462.305, 0.0, 9.999339, 9.999113 
3.7500477e+2, 2.6464885e+2, -517888.97, -591022.25, -52179.902, 0.09957527, 0.02173453, -490738.56, -144299.61, 0.0, 9.999488, 9.998505 
3.750009e+2, 2.746473e+2, -336810.84, -457396.16, -47775.844, -0.008247418, -0.013966369, -320176.7, -71718.88, 0.0, 10.000065, 9.99848 
3.7499762e+2, 2.8464624e+2, -172446.61, -235383.19, -117010.26, 0.0100957155, -0.0051967427, -82747.02, 67722.21, 0.00000003400916, 10.000112, 9.999316 
3.7499446e+2, 2.9464588e+2, -201358.89, -214203.95, -99222.21, 0.11412706, -0.011984053, -108351.56, -55880.703, 0.000000899484, 9.999296, 9.999183 
3.7498978e+2, 3.046456e+2, -265720.8, -408175.2, -59683.855, -0.042536393, 0.13972789, -244020.75, -244020.75, 0.000005766145, 9.999361, 9.997493 
3.749889e+2, 3.146428e+2, -67131.62, -127347.28, 52973.836, 0.06472494, 0.07177413, -36307.445, -36307.445, 0.000023929499, 9.999855, 9.9991865 
3.8504767e+2, 1.24656685e+2, -1673497.1, -1817636.4, 72908.23, -0.044589322, -0.23311742, -1643050.3, 75294.58, 0.00012316402, 10.000715, 9.998935 
3.850461e+2, 1.3465683e+2, -1687480.9, -1760275.1, -26840.25, 0.008742076, -0.1577897, -1678654.8, -58305.793, 0.000061385945, 9.999935, 9.9990425 
3.85043e+2, 1.4465652e+2, -1512742.1, -1515106.9, -56327.246, -0.0042872224, -0.13633364, -1457584.9, 64768.73, 0.000022093489, 10.0, 9.999996 
3.850406e+2, 1.5465671e+2, -1268278.1, -1358440.5, -86072.25, 0.12125362, -0.14700598, -1216195.9, 208153.5, 0.000004863891, 10.001062, 9.99989 
3.8503847e+2, 1.646561e+2, -1202863.6, -1421374.9, -8669.006, 0.20614317, -0.12906812, -1202520.3, 123835.44, 0.00000029520132, 10.001449, 9.998605 
3.8503557e+2, 1.746547e+2, -1178369.0, -1365582.0, 20999.037, 0.14775302, -0.15806997, -1176042.5, 52330.56, 0.0, 10.000977, 9.998539 
3.8503215e+2, 1.8465413e+2, -1063459.3, -1142975.4, -21079.338, 0.115087904, -0.115493245, -1058216.9, 72163.17, 0.0, 10.000594, 9.999577 
3.8502845e+2, 1.9465408e+2, -1011524.7, -1071344.9, -72066.23, 0.15164861, -0.11389216, -963408.1, 68970.914, 0.0, 10.000283, 9.999553 
3.850243e+2, 2.0465386e+2, -972154.3, -1024090.2, -36916.305, 0.103592746, -0.07406827, -952987.5, -18606.2, 0.0, 9.999997, 9.999337 
3.8501945e+2, 2.1465327e+2, -915701.7, -952641.9, -27551.928, -0.05892305, -0.09502874, -901001.7, -64612.688, 0.0, 9.999725, 9.999293 
3.8501608e+2, 2.246527e+2, -833828.7, -853022.75, -26030.645, -0.04567286, -0.0793892, -815682.3, -77286.28, 0.0, 9.999593, 9.999354 
3.8501444e+2, 2.34652e+2, -724251.8, -751640.06, -48274.09, 0.16908184, -0.11887348, -687767.06, -47363.504, 0.0, 9.999679, 9.999338 
3.8501182e+2, 2.4465163e+2, -616745.4, -663023.06, -12261.965, 0.2495265, -0.080155365, -613697.1, -71289.3, 0.0, 9.999808, 9.999206 
3.8500783e+2, 2.5465137e+2, -487360.8, -561057.1, -27202.04, 0.15804937, -0.055259924, -478407.9, -33997.09, 0.0, 10.000051, 9.9991255 
3.8500413e+2, 2.6465055e+2, -475364.4, -571337.9, -7865.877, 0.078844324, -0.013611182, -474724.0, -128303.49, 0.0, 9.999775, 9.99851 
3.8500088e+2, 2.7464893e+2, -502007.6, -533065.56, -12111.32, 0.04992046, -0.057406, -497843.06, -249403.5, 0.0, 9.998916, 9.998515 
3.8499784e+2, 2.846479e+2, -368155.0, -346552.16, -47331.914, 0.09130258, -0.038185325, -308804.84, -158354.23, 0.000000026095549, 9.998849, 9.999157 
3.849943e+2, 2.946475e+2, -159719.56, -212557.02, -67139.24, 0.15929627, -0.031801607, -113988.26, -61535.156, 0.00000066980994, 9.999673, 9.999008 
3.849891e+2, 3.0464688e+2, -184207.38, -344599.84, 39935.12, -0.05575948, 0.08546694, -174814.27, -174814.27, 0.000005131084, 9.999818, 9.997701 
3.8498867e+2, 3.1464484e+2, -193604.48, -124032.33, 163936.8, 0.12640193, 0.064311236, 8768.411, 8768.411, 0.000023471404, 9.998735, 9.999731 
3.950482e+2, 1.2465898e+2, -1638364.6, -1716176.9, -1067.7432, -0.13112077, -0.10948461, -1638350.0, 79979.2, 0.0001272644, 10.00063, 9.999664 
3.950474e+2, 1.3465863e+2, -1650502.8, -1669308.4, -43570.836, 0.11476061, -0.14340742, -1615331.6, 5002.403, 0.00006380605, 9.999904, 9.999674 
3.95043e+2, 1.4465837e+2, -1538631.8, -1563729.4, -33917.523, -0.042859938, -0.13572925, -1515016.0, 7320.486, 0.000023677207, 9.999961, 9.999687 
3.9504027e+2, 1.5465803e+2, -1287835.5, -1403292.3, -33185.906, -0.055554513, -0.16859259, -1278976.6, 145360.81, 0.000005569423, 10.001073, 9.999578 
3.950385e+2, 1.6465801e+2, -1136696.3, -1266625.5, -40982.45, 0.03361751, -0.12934542, -1124849.8, 201486.77, 0.00000035120044, 10.001384, 9.999697 
3.9503655e+2, 1.7465845e+2, -1107694.9, -1200600.4, 15262.687, 0.11986506, -0.08696403, -1105251.8, 123080.164, 0.0, 10.000906, 9.999705 
3.9503285e+2, 1.8465784e+2, -1137292.1, -1272280.4, -44928.023, 0.1021332, -0.06761047, -1123706.1, 6632.335, 0.0, 10.000486, 9.998745 
3.9502758e+2, 1.9465572e+2, -1090715.0, -1205270.1, -71412.14, 0.008231734, -0.17964825, -1056448.0, -24087.662, 0.0, 10.000158, 9.998691 
3.9502373e+2, 2.0465462e+2, -956588.4, -957872.7, -60557.66, 0.024600003, -0.20940025, -896669.44, 37701.87, 0.0, 9.99985, 9.999864 
3.9502132e+2, 2.1465454e+2, -902708.44, -878794.3, -23009.373, 0.13345459, -0.23712695, -864820.6, -28449.498, 0.0, 9.999533, 9.999887 
3.95018e+2, 2.2465467e+2, -865629.06, -887858.7, -34282.44, 0.1611815, -0.17425549, -840704.7, -102333.516, 0.0, 9.999454, 9.9991865 
3.9501354e+2, 2.3465478e+2, -758976.0, -789949.7, -30820.113, 0.086086534, -0.11004999, -739970.5, -99596.56, 0.0, 9.999536, 9.999145 
3.9500988e+2, 2.4465455e+2, -633022.4, -679342.4, -14740.378, 0.048483834, -0.041695815, -628729.44, -86351.445, 0.0, 9.999728, 9.99914 
3.950071e+2, 2.5465366e+2, -505484.1, -575298.2, -4447.5015, 0.04705707, -0.07406553, -505201.9, -60815.742, 0.0, 9.999944, 9.999085 
3.9500386e+2, 2.6465264e+2, -469137.97, -542832.7, -49360.06, 0.047705017, -0.060306776, -444388.7, -97992.266, 0.0, 9.999706, 9.998742 
3.950002e+2, 2.7465138e+2, -500487.34, -509541.22, -30513.996, 0.060006663, -0.09128664, -474166.3, -225755.69, 0.0, 9.998819, 9.998728 
3.9499718e+2, 2.8465053e+2, -400540.88, -392932.88, -29704.848, 0.11875362, -0.048225947, -366789.44, -216369.6, 0.000000010243951, 9.9987755, 9.998869 
3.9499435e+2, 2.9465e+2, -199257.44, -261196.83, -16248.6045, 0.1676385, -0.021444112, -195253.72, -142827.67, 0.0000005130985, 9.99954, 9.998736 
3.9498895e+2, 3.046485e+2, -79389.414, -126281.06, -953.4947, -0.08391305, -0.052777123, -79370.04, -79370.04, 0.0000059963604, 9.999805, 9.9992075 
3.9498687e+2, 3.1464818e+2, -104126.22, 79786.086, 116192.2, 0.011225205, -0.051248938, 136007.4, 136007.4, 0.000027747768, 9.998654, 10.001172 
4.050492e+2, 1.2466243e+2, -1652820.4, -1737631.1, 155251.36, -0.07100987, -0.069137946, -1534287.3, 184007.95, 0.0001282802, 10.000573, 9.999551 
4.0504915e+2, 1.346615e+2, -1455036.6, -1607953.1, 21156.43, 0.24133575, -0.13734987, -1452163.6, 168141.77, 0.00006493345, 10.001376, 9.999389 
4.0504384e+2, 1.4466079e+2, -1330976.1, -1524820.6, 35203.555, -0.026259562, -0.1329071, -1324780.9, 197531.17, 0.00002457309, 10.001651, 9.999138 
4.0504146e+2, 1.5465961e+2, -1318371.4, -1482606.8, -13774.562, -0.03969416, -0.19600724, -1317224.1, 107097.59, 0.000005781208, 10.001127, 9.999013 
4.0503976e+2, 1.646593e+2, -1224619.1, -1288811.9, -56193.227, 0.06525554, -0.16221981, -1192001.9, 134321.73, 0.0000003430959, 10.00069, 9.999876 
4.050375e+2, 1.746602e+2, -1164929.8, -1206000.1, -101471.375, 0.15728389, -0.09535582, -1081936.5, 146377.95, 0.0, 10.000409, 9.9999075 
4.050335e+2, 1.8465987e+2, -1129019.6, -1246340.6, -124463.07, 0.12965935, -0.06835133, -1050086.1, 80231.99, 0.0, 10.000462, 9.998932 
4.0502805e+2, 1.9465774e+2, -989898.0, -1137286.3, -89420.234, 0.015539742, -0.19746628, -947718.06, 84621.86, 0.0, 10.000775, 9.998863 
4.0502396e+2, 2.0465685e+2, -852621.2, -901597.94, -53944.047, 0.03307968, -0.2163293, -817867.4, 116481.82, 0.0, 10.000534, 9.999919 
4.050213e+2, 2.1465725e+2, -883477.56, -867756.3, -85147.21, 0.18076044, -0.20532976, -790107.7, 46238.21, 0.0, 9.999645, 9.999911 
4.0501785e+2, 2.2465749e+2, -845131.2, -867324.1, -44570.754, 0.20437191, -0.13593575, -810296.4, -71951.695, 0.0, 9.999556, 9.999275 
4.0501338e+2, 2.3465735e+2, -627740.3, -722122.06, -41724.035, 0.08152553, -0.104249276, -611940.1, 28408.213, 0.0, 10.000407, 9.999194 
4.0500966e+2, 2.446569e+2, -535138.25, -645284.2, -19644.873, 0.023117708, -0.05244719, -531739.4, 10614.473, 0.0, 10.000461, 9.999017 
4.0500668e+2, 2.5465605e+2, -555728.3, -603143.75, -37902.37, 0.03469913, -0.073938765, -534729.8, -90367.26, 0.0, 9.999645, 9.999023 
4.0500334e+2, 2.6465514e+2, -518027.84, -525166.0, -60001.25, 0.061085384, -0.065130025, -461489.63, -115118.91, 0.0, 9.999182, 9.999112 
4.0499967e+2, 2.7465403e+2, -436498.7, -437829.1, -51348.715, 0.12155122, -0.12021586, -385810.88, -137430.36, 0.0, 9.999069, 9.999096 
4.0499654e+2, 2.8465325e+2, -388799.1, -403330.44, 21546.75, 0.17924245, -0.08529994, -373326.0, -222937.63, 0.0000000008315615, 9.998904, 9.99874 
4.0499386e+2, 2.9465255e+2, -317850.13, -323867.2, 26615.762, 0.21200334, -0.06667986, -294073.4, -241676.05, 0.0000007104038, 9.998736, 9.998689 
4.0498832e+2, 3.0465087e+2, -233723.88, -121346.836, 4567.9136, -0.046778012, -0.14989172, -121161.47, -121161.47, 0.000009515816, 9.998408, 9.999917 
4.0498504e+2, 3.1465116e+2, -267411.25, 19872.057, -30079.598, 0.039705683, -0.1550287, 22987.709, 22987.709, 0.000039448827, 9.997415, 10.001373 
4.1504982e+2, 1.2466691e+2, -1702934.0, -1861540.4, 97229.555, -0.13925727, -0.11190757, -1656767.8, 61476.44, 0.00012596608, 10.000639, 9.998669 
4.1505092e+2, 1.3466546e+2, -1518464.4, -1765044.6, 62720.285, 0.2455863, -0.12807858, -1503427.8, 116834.46, 0.00006410072, 10.001456, 9.998278 
4.1504523e+2, 1.4466374e+2, -1389251.6, -1635907.1, 6004.0015, -0.094615094, -0.13153742, -1389105.6, 133174.97, 0.00002430965, 10.001625, 9.998385 
4.1504383e+2, 1.5466142e+2, -1374923.6, -1587634.9, -18240.113, 0.053981856, -0.23334819, -1373370.9, 50931.316, 0.0000053776803, 10.00109, 9.998306 
4.150419e+2, 1.646601e+2, -1292772.3, -1410976.1, -79914.69, 0.18055372, -0.2264703, -1252479.0, 73837.06, 0.0000002359893, 10.000608, 9.999075 
4.1503796e+2, 1.7466013e+2, -1228375.9, -1325666.8, -96835.234, 0.12898663, -0.16701454, -1168654.1, 59664.836, 0.0, 10.000359, 9.999108 
4.1503364e+2, 1.8466024e+2, -1056994.4, -1076214.1, -126089.95, 0.06668755, -0.111704186, -940148.56, 190170.05, 0.0, 10.000377, 10.000135 
4.1502935e+2, 1.9466013e+2, -915453.75, -956348.4, -66970.65, 0.04235537, -0.17131115, -865878.5, 166439.27, 0.0, 10.000671, 10.000147 
4.1502455e+2, 2.0466053e+2, -903552.9, -981553.0, -98560.42, 0.014071556, -0.10331516, -836556.9, 97758.29, 0.0, 10.00041, 9.999438 
4.15019e+2, 2.146614e+2, -944665.06, -952673.9, -108093.52, -0.039345358, 0.010115346, -840501.8, -4189.359, 0.0, 9.999466, 9.999414 
4.1501525e+2, 2.2466125e+2, -845255.94, -832650.2, -26805.36, -0.032577097, 0.048561763, -811416.6, -73101.31, 0.0, 9.999404, 9.999588 
4.1501355e+2, 2.3465966e+2, -623128.2, -681144.7, 3260.857, 0.032053888, -0.09893799, -622945.5, 17381.55, 0.0, 10.000274, 9.99954 
4.1501057e+2, 2.4465872e+2, -555642.2, -669420.75, -58798.31, 0.040562283, -0.11049033, -530716.8, 11618.523, 0.0, 10.000378, 9.998889 
4.1500613e+2, 2.546583e+2, -580664.8, -632011.4, -55873.14, -0.013670718, -0.07001307, -544848.9, -100507.15, 0.0, 9.999542, 9.998875 
4.1500226e+2, 2.646578e+2, -485076.47, -441528.3, -75806.43, 0.0076482133, -0.045250554, -384430.8, -38085.21, 0.0, 9.999122, 9.999712 
4.149989e+2, 2.7465695e+2, -408071.4, -354937.75, -44135.082, 0.10364589, -0.1366637, -329990.47, -81641.445, 0.0, 9.998976, 9.999707 
4.1499552e+2, 2.8465614e+2, -380115.9, -390079.44, 1891.4678, 0.15180184, -0.1409471, -379768.94, -229413.64, 0.00000000001177225, 9.998911, 9.998835 
4.1499215e+2, 2.946552e+2, -320615.94, -311955.0, 35760.723, 0.12822355, -0.15348507, -280263.5, -227896.98, 0.0000013022876, 9.998651, 9.998817 
4.149867e+2, 3.04654e+2, -237602.22, -120200.75, -32484.605, -0.07939538, -0.20210814, -111811.805, -111811.805, 0.000014575742, 9.99838, 9.999932 
4.1498256e+2, 3.1465423e+2, -349969.9, -122368.125, -72643.96, -0.018017352, -0.20665812, -101158.69, -101158.69, 0.000055427667, 9.997302, 10.000445 
4.2505106e+2, 1.24669194e+2, -1644082.3, -1834082.8, -58632.277, -0.08828498, -0.1747824, -1627445.6, 90773.7, 0.00012015749, 10.001034, 9.998664 
4.2505282e+2, 1.3466805e+2, -1468607.5, -1749597.9, 12633.783, 0.2824157, -0.16016924, -1468040.6, 152194.13, 0.00006079175, 10.00183, 9.998197 
4.2504707e+2, 1.4466624e+2, -1299183.8, -1610581.9, 3281.9104, -0.0996042, -0.15818165, -1299149.1, 223105.4, 0.00002257458, 10.002325, 9.998219 
4.2504567e+2, 1.5466411e+2, -1241168.0, -1540098.9, -20570.021, 0.08786862, -0.22597145, -1239759.1, 184516.4, 0.0000044461326, 10.002091, 9.998146 
4.2504343e+2, 1.6466272e+2, -1149759.3, -1379312.8, -15173.657, 0.22489361, -0.1990236, -1148760.6, 177530.66, 0.00000009724189, 10.001757, 9.998735 
4.2503902e+2, 1.746622e+2, -1120230.8, -1311336.3, -21803.145, 0.1626668, -0.16129833, -1117774.8, 110526.18, 0.0, 10.0012665, 9.99877 
4.2503434e+2, 1.846623e+2, -1009131.06, -1023920.2, -40041.023, 0.09700381, -0.10513951, -975807.5, 154493.72, 0.0, 10.000568, 10.000409 
4.2502972e+2, 1.9466272e+2, -1050470.0, -991787.75, -77701.914, 0.07457097, -0.13656221, -938071.75, 94222.46, 0.0, 9.999599, 10.000427 
4.250247e+2, 2.0466346e+2, -1033776.2, -1055465.3, -97216.01, 0.037523907, -0.04931936, -946801.7, -12512.784, 0.0, 9.99958, 9.99932 
4.25019e+2, 2.1466424e+2, -791755.4, -897885.0, -102308.15, -0.03549352, 0.07326547, -729569.0, 106719.15, 0.0, 10.000601, 9.999244 
4.2501524e+2, 2.2466391e+2, -645327.5, -705748.25, 8891.933, -0.031735886, 0.092234395, -644046.06, 94245.96, 0.0, 10.000649, 9.999855 
4.2501357e+2, 2.3466223e+2, -704511.25, -684508.7, 6052.104, 0.050391935, -0.093592085, -682820.06, -42517.9, 0.0, 9.999571, 9.999851 
4.2501056e+2, 2.446613e+2, -714894.94, -721077.2, -26500.578, 0.06893833, -0.13058782, -691305.8, -148997.02, 0.0, 9.999173, 9.999122 
4.25006e+2, 2.5466096e+2, -557640.94, -600082.3, -19562.71, 0.024597323, -0.103466675, -549999.6, -105685.51, 0.0, 9.999597, 9.999078 
4.2500198e+2, 2.6466063e+2, -411269.53, -395438.22, -24574.66, 0.051082805, -0.077363506, -377535.8, -31219.348, 0.0, 9.999587, 9.999812 
4.249984e+2, 2.7465996e+2, -387925.38, -331828.4, -57212.867, 0.15951139, -0.15325399, -296158.53, -47840.637, 0.0, 9.999065, 9.999826 
4.2499435e+2, 2.8465927e+2, -382343.7, -359651.63, 6878.2837, 0.15898025, -0.16565202, -357729.53, -207406.06, 0.0000000012455732, 9.998793, 9.999084 
4.2499015e+2, 2.9465833e+2, -278248.13, -262447.84, 24012.057, 0.06416257, -0.20259869, -245069.7, -192734.1, 0.0000019825331, 9.998827, 9.99907 
4.249853e+2, 3.0465814e+2, -200581.25, -66556.414, -27837.469, -0.04821222, -0.17742398, -61004.453, -61004.453, 0.000019679212, 9.998477, 10.000256 
4.249805e+2, 3.1465882e+2, -299379.53, -83792.74, -114351.77, 0.050206646, -0.17531852, -34437.34, -34437.34, 0.00007104561, 9.99758, 10.000573 
4.3505204e+2, 1.2466937e+2, -1591781.4, -1703421.9, -152727.72, -0.1625035, -0.2658261, -1484992.8, 233226.92, 0.00011272219, 10.000978, 9.9995775 
4.3505466e+2, 1.3466933e+2, -1399692.4, -1605163.0, 61895.777, 0.24201596, -0.23481442, -1382487.5, 237734.58, 0.00005585788, 10.0018425, 9.999179 
4.3504894e+2, 1.4466824e+2, -1281946.8, -1568292.0, -13026.257, -0.18300356, -0.2235864, -1281355.4, 240879.1, 0.000019900395, 10.002286, 9.998533 
4.3504643e+2, 1.5466765e+2, -1212313.1, -1491062.6, -14564.795, -0.07950326, -0.17094873, -1211554.3, 212688.1, 0.0000034951138, 10.002121, 9.998475 
4.3504393e+2, 1.6466706e+2, -1150826.9, -1360682.4, -46276.906, 0.06821179, -0.09101696, -1141075.1, 185175.6, 0.000000032016867, 10.001678, 9.998898 
4.3504035e+2, 1.7466636e+2, -1119506.0, -1292551.3, -27687.8, 0.13390617, -0.08302852, -1115183.9, 113076.94, 0.0, 10.001201, 9.998927 
4.350352e+2, 1.8466596e+2, -1070106.8, -1124958.6, -87375.19, 0.099616244, -0.051705625, -1005954.25, 124311.78, 0.0, 10.000461, 9.999769 
4.3502882e+2, 1.946657e+2, -1112299.8, -1093702.1, -99611.6, -0.0064688497, -0.087179, -1002956.25, 29311.445, 0.0, 9.999492, 9.99978 
4.3502402e+2, 2.0466568e+2, -1043493.8, -1042137.7, -72637.92, -0.014240308, -0.048429806, -970174.6, -35905.31, 0.0, 9.999437, 9.999478 
4.3502086e+2, 2.1466571e+2, -802159.44, -883355.3, -51249.273, 0.06573265, -0.022862807, -777376.3, 58896.945, 0.0, 10.000448, 9.999414 
4.350173e+2, 2.246656e+2, -654116.44, -689356.9, -40659.227, 0.081865646, 0.0005206157, -627423.6, 110850.35, 0.0, 10.0005, 10.000039 
4.350131e+2, 2.3466508e+2, -710688.4, -665001.25, -22493.926, 0.018962305, -0.08823882, -655785.44, -15511.85, 0.0, 9.999429, 10.000053 
4.350093e+2, 2.4466464e+2, -693626.5, -652580.94, -24711.387, 0.0010315751, -0.111602806, -640981.5, -98707.09, 0.0, 9.999074, 9.999634 
4.350059e+2, 2.5466412e+2, -536669.9, -529399.4, 9543.729, 0.023215167, -0.1607295, -522821.97, -78543.46, 0.0, 9.999487, 9.99961 
4.350021e+2, 2.6466373e+2, -443377.72, -455486.1, -52948.516, 0.07561995, -0.1458899, -396138.4, -49856.953, 0.0, 9.999554, 9.999417 
4.3499765e+2, 2.7466315e+2, -427899.88, -398258.6, -61609.89, 0.14625777, -0.17317374, -349711.8, -101425.55, 0.0, 9.998986, 9.999411 
4.3499258e+2, 2.846626e+2, -367580.4, -315351.6, -2641.6729, 0.072206095, -0.16617323, -315218.3, -164924.95, 0.000000012355592, 9.998745, 9.999405 
4.3498755e+2, 2.9466194e+2, -270747.75, -227783.33, 40617.746, -0.11530086, -0.2102785, -203316.8, -151012.6, 0.0000027662056, 9.998755, 9.999338 
4.3498373e+2, 3.0466336e+2, -153872.67, 22113.22, -70379.516, -0.07971299, -0.06649681, 46796.957, 46796.957, 0.000024180765, 9.998497, 10.000858 
4.3497816e+2, 3.146648e+2, -246931.02, 46197.44, -110523.25, -0.011038498, -0.050769802, 83199.17, 83199.17, 0.00008333817, 9.997481, 10.001518 
4.4505432e+2, 1.2467195e+2, -1474418.4, -1644876.3, -108843.62, -0.05464737, -0.22610085, -1421405.1, 296793.3, 0.00010688196, 10.001811, 9.999574 
4.4505617e+2, 1.34672e+2, -1458241.6, -1620657.8, 70237.92, 0.24805121, -0.19270478, -1432080.6, 188119.11, 0.000051033883, 10.001411, 9.999286 
4.4505098e+2, 1.4467119e+2, -1373459.8, -1553149.6, -2450.8225, -0.14879012, -0.18461259, -1373426.4, 148782.69, 0.000017295639, 10.001397, 9.999063 
4.4504797e+2, 1.5467137e+2, -1257497.4, -1447755.0, -21590.94, -0.098844975, -0.114361905, -1255078.0, 169130.42, 0.0000027656245, 10.001534, 9.999047 
4.4504502e+2, 1.6467112e+2, -1171336.9, -1340772.9, -25413.193, 0.032086886, -0.042854942, -1167607.3, 158604.72, 0.000000035556127, 10.001384, 9.999191 
4.4504106e+2, 1.7467028e+2, -1148705.1, -1275512.8, -20041.33, 0.111406945, -0.080933206, -1145613.1, 82609.0, 0.0, 10.000854, 9.999221 
4.4503573e+2, 1.8466976e+2, -1033643.44, -1146192.9, -26491.764, 0.095614254, -0.058439117, -1027719.6, 102508.4, 0.0, 10.000893, 9.999404 
4.4502944e+2, 1.9466934e+2, -850112.75, -1011344.8, -46041.88, 0.019953622, -0.07102618, -837891.3, 194341.05, 0.0, 10.001489, 9.999374 
4.4502473e+2, 2.0466882e+2, -795693.25, -931931.5, 6121.7363, 0.032016132, -0.055215288, -795418.75, 138819.73, 0.0, 10.001195, 9.999381 
4.4502157e+2, 2.14668e+2, -894331.6, -934595.7, -17499.05, 0.12934592, -0.10471261, -887789.44, -51540.535, 0.0, 9.999854, 9.999343 
4.450177e+2, 2.2466788e+2, -815774.06, -768691.1, -3842.5908, 0.1390977, -0.079320244, -768379.56, -30129.885, 0.0, 9.999389, 10.000033 
4.4501302e+2, 2.3466827e+2, -648405.8, -639804.7, -25790.951, 0.055257134, -0.07381428, -617958.2, 22284.281, 0.0, 9.999868, 10.000019 
4.450089e+2, 2.446681e+2, -564576.06, -561644.3, -15346.426, 0.022925608, -0.08393582, -547693.94, -5452.6567, 0.0, 9.999833, 9.999892 
4.4500545e+2, 2.5466707e+2, -562000.7, -510254.06, -26064.85, 0.052572023, -0.21056353, -499401.3, -55152.7, 0.0, 9.99918, 9.999886 
4.4500145e+2, 2.6466686e+2, -532746.7, -494539.13, -61372.586, 0.098643646, -0.1937617, -449365.78, -103115.445, 0.0, 9.99893, 9.999441 
4.4499665e+2, 2.7466732e+2, -393127.03, -381820.25, -63650.285, 0.14380819, -0.119752966, -323572.78, -75324.164, 0.0, 9.999231, 9.999401 
4.4499114e+2, 2.8466722e+2, -335323.84, -276788.84, 13146.556, 0.059234533, -0.07482744, -273971.78, -123719.375, 0.00000003062236, 9.998849, 9.99963 
4.4498596e+2, 2.9466635e+2, -442232.5, -276294.0, 15047.698, -0.076077186, -0.16296129, -274940.47, -222676.45, 0.0000032986038, 9.997436, 9.99964 
4.4498256e+2, 3.0466813e+2, -351938.2, -72884.79, -51340.32, 0.027644351, -0.00400104, -63738.938, -63738.938, 0.000027227657, 9.997154, 10.000835 
4.4497555e+2, 3.146699e+2, -68157.38, 165094.13, -157603.61, -0.06135196, 0.04899086, 244530.77, 244530.77, 0.000091368296, 9.998594, 10.0017805 
4.5505676e+2, 1.2467675e+2, -1539874.3, -1788276.4, -234595.58, -0.06289529, -0.07937451, -1398630.4, 319527.13, 0.000102696926, 10.001838, 9.998577 
4.550569e+2, 1.3467596e+2, -1503478.5, -1736466.3, 71975.875, 0.14419025, -0.047061164, -1483036.9, 137131.83, 0.000047349753, 10.001485, 9.998462 
4.5505282e+2, 1.4467484e+2, -1326558.9, -1442776.9, -4448.4663, -0.14529487, -0.06607705, -1326388.9, 195791.61, 0.000015080613, 10.001353, 9.999837 
4.5504993e+2, 1.5467517e+2, -1205551.9, -1331817.6, -1308.8741, -0.09291367, -0.058268942, -1205538.4, 218636.3, 0.0000021144335, 10.001508, 9.999853 
4.550463e+2, 1.6467491e+2, -1141772.8, -1268994.6, -60447.434, -0.009982215, -0.055269573, -1117632.6, 208543.05, 0.00000004449902, 10.00133, 9.999711 
4.5504084e+2, 1.746739e+2, -1114121.6, -1204950.4, -26726.39, -0.026967432, -0.1592696, -1106840.9, 121344.19, 0.0, 10.00085, 9.999709 
4.5503563e+2, 1.8467358e+2, -1057558.5, -1175411.4, -17856.977, -0.032475606, -0.13586035, -1054912.3, 75276.0, 0.0, 10.000808, 9.999241 
4.550313e+2, 1.9467364e+2, -883414.56, -1048905.5, -13358.321, 0.025634, -0.081874736, -882343.2, 149844.75, 0.0, 10.001358, 9.999175 
4.5502636e+2, 2.0467293e+2, -840585.2, -992964.3, -55485.63, 0.05268109, -0.05865763, -822522.4, 111673.445, 0.0, 10.001053, 9.999033 
4.550207e+2, 2.1467115e+2, -942396.9, -991465.0, -55193.934, 0.030373596, -0.17019951, -906529.8, -70315.39, 0.0, 9.999673, 9.999038 
4.550162e+2, 2.2467081e+2, -853884.3, -813620.4, 1374.9917, 0.027885135, -0.1399536, -813573.44, -75354.93, 0.0, 9.999236, 9.999804 
4.5501295e+2, 2.3467186e+2, -680535.75, -677743.06, 7021.939, 0.03195844, -0.04937003, -671979.94, -31771.441, 0.0, 9.999741, 9.99982 
4.5500895e+2, 2.4467167e+2, -581341.2, -566812.75, -50012.105, 0.018389886, -0.048973277, -523540.06, 18669.072, 0.0, 9.999714, 9.999916 
4.5500433e+2, 2.5466976e+2, -576978.0, -510222.28, -37388.117, -0.0044233315, -0.2620461, -493480.75, -49255.99, 0.0, 9.999048, 9.999953 
4.549998e+2, 2.6466992e+2, -519710.06, -449152.9, -61590.48, 0.013370516, -0.23050235, -413452.84, -67228.67, 0.0, 9.998854, 9.999787 
4.5499504e+2, 2.7467233e+2, -384742.78, -341716.25, -35129.223, 0.029261777, -0.0006570245, -322036.28, -73830.29, 0.0, 9.999136, 9.999718 
4.5498973e+2, 2.8467318e+2, -326982.16, -252957.33, -49571.563, 0.0034356022, 0.11441248, -228104.89, -77904.734, 0.000000022691747, 9.998812, 9.999816 
4.5498493e+2, 2.9467162e+2, -429344.75, -240347.92, -27267.613, 0.039770454, -0.05809639, -236492.53, -184278.22, 0.0000033720132, 9.997376, 9.999925 
4.549812e+2, 3.0467233e+2, -400935.75, -168661.31, -9554.614, 0.14721906, 0.0053880643, -168268.95, -168268.95, 0.000028360193, 9.997136, 10.000181 
4.549721e+2, 3.146735e+2, -114320.66, 82823.28, -20371.148, -0.3346142, 0.06912454, 84906.25, 84906.25, 0.00009465621, 9.998533, 10.0012455 
4.650606e+2, 1.24681845e+2, -1409957.9, -1756399.1, -146603.14, 0.0972811, -0.050730206, -1356247.0, 361862.1, 0.00009773488, 10.002829, 9.998315 
4.6505803e+2, 1.3468097e+2, -1258727.6, -1643036.3, 215329.83, 0.03305667, -0.013822977, -1162281.5, 457838.53, 0.000043477085, 10.003237, 9.998267 
4.650551e+2, 1.4467949e+2, -1178952.1, -1415277.9, 125602.81, -0.10420908, -0.039056458, -1124666.4, 397468.9, 0.000012657647, 10.002546, 9.999455 
4.650516e+2, 1.54679e+2, -1361359.6, -1449093.9, 6731.7363, -0.01953291, -0.0772437, -1360846.1, 63292.727, 0.0000014631825, 10.000613, 9.999485 
4.6504748e+2, 1.6467868e+2, -1341093.8, -1333894.3, -41720.258, 0.057542346, -0.07513302, -1295618.8, 30521.65, 0.000000030371112, 9.999852, 9.999967 
4.6504185e+2, 1.7467839e+2, -1157007.8, -1194291.6, -52986.65, 0.015035788, -0.13586158, -1119479.4, 108662.08, 0.0, 10.000435, 9.999976 
4.650367e+2, 1.8467812e+2, -1057878.8, -1191265.9, -15485.018, -0.0032581685, -0.115122125, -1056104.6, 74038.84, 0.0, 10.000854, 9.99912 
4.6503252e+2, 1.9467756e+2, -942230.9, -1092040.3, -27449.012, 0.039354738, -0.10906715, -937359.9, 94789.734, 0.0, 10.000997, 9.999064 
4.6502733e+2, 2.0467684e+2, -844547.94, -998386.75, -66903.94, 0.05559057, -0.082565285, -819522.6, 114635.21, 0.0, 10.001025, 9.999014 
4.6502092e+2, 2.1467564e+2, -764539.6, -913426.75, -73050.945, 0.034139495, -0.13267142, -734684.2, 101486.5, 0.0, 10.000914, 9.998982 
4.650162e+2, 2.246753e+2, -704941.56, -765895.06, 36174.156, 0.049904477, -0.08796197, -688117.1, 50058.465, 0.0, 10.0003805, 9.999563 
4.6501312e+2, 2.3467572e+2, -746951.5, -737041.06, 13231.3125, 0.09996897, -0.03497458, -727867.5, -87693.84, 0.0, 9.999419, 9.9995575 
4.6500874e+2, 2.4467574e+2, -701331.6, -584114.9, -19156.82, 0.083433315, -0.018831577, -581063.5, -38890.336, 0.0, 9.998701, 10.000287 
4.6500298e+2, 2.5467503e+2, -666858.94, -512730.34, -3942.403, 0.006848083, -0.15310794, -512629.56, -68452.73, 0.0, 9.998241, 10.000327 
4.6499833e+2, 2.646754e+2, -596803.94, -479034.06, 32884.45, 0.01596979, -0.12260764, -470474.03, -124300.28, 0.0, 9.998276, 9.999871 
4.6499446e+2, 2.7467692e+2, -431213.03, -357394.03, 17562.541, 0.083512835, 0.009567579, -353428.66, -105264.7, 0.0, 9.998775, 9.999795 
4.6498922e+2, 2.8467742e+2, -264335.2, -228867.9, -15963.233, 0.055715803, 0.0921477, -222741.39, -72581.32, 0.00000001636591, 9.999275, 9.999753 
4.649836e+2, 2.946763e+2, -62086.28, -54393.62, -54553.965, 0.05570826, -0.035800304, -3550.5627, 48617.67, 0.0000038591365, 9.999873, 9.999988 
4.6497986e+2, 3.0467647e+2, -109578.555, -137991.67, -13943.533, 0.18848386, 0.01747271, -103879.125, -103879.125, 0.000029778155, 9.99957, 9.999255 
4.649715e+2, 3.1467587e+2, -217803.55, -64994.375, -35130.984, -0.21365179, 0.007017127, -57304.688, -57304.688, 0.00009717631, 9.998235, 10.00039 
4.7506464e+2, 1.24687135e+2, -1387399.4, -1678421.0, -188153.28, 0.14694598, -0.13702202, -1295055.0, 422999.34, 0.00009217974, 10.002728, 9.998883 
4.7505918e+2, 1.34687e+2, -1221044.8, -1557591.6, 246034.81, -0.21085379, -0.08380612, -1091242.5, 528811.8, 0.00003847725, 10.003232, 9.998842 
4.750574e+2, 1.4468516e+2, -1282015.1, -1628448.0, 40734.76, -0.17497647, -0.101443626, -1277289.8, 244783.89, 0.000009911169, 10.002528, 9.998008 
4.750526e+2, 1.5468284e+2, -1458040.6, -1662287.5, -53159.902, -0.021920785, -0.17388454, -1445033.0, -20932.246, 0.0000009593812, 10.000653, 9.99801 
4.7504818e+2, 1.6468237e+2, -1349252.1, -1340976.5, -35158.14, 0.111138545, -0.1104484, -1309713.5, 16393.102, 0.000000014696447, 9.999812, 9.999941 
4.7504365e+2, 1.7468363e+2, -1162670.5, -1196511.8, -16110.776, 0.12387477, -0.012985681, -1156227.4, 71864.43, 0.0, 10.000396, 9.999984 
4.7503838e+2, 1.8468334e+2, -1068098.8, -1193752.8, -19901.734, 0.05524737, 0.005841139, -1065022.0, 65071.99, 0.0, 10.00077, 9.9991455 
4.7503278e+2, 1.9468111e+2, -953604.4, -1097083.4, -7714.5933, -0.06376682, -0.15736549, -953190.75, 78926.414, 0.0, 10.000911, 9.999077 
4.7502732e+2, 2.0468052e+2, -846396.5, -969059.3, -82638.92, -0.07576584, -0.12968047, -804816.6, 129308.016, 0.0, 10.00089, 9.999276 
4.7502193e+2, 2.146815e+2, -769496.44, -883423.4, -64071.785, 0.016855793, 0.011654294, -740727.56, 95389.25, 0.0, 10.000747, 9.999265 
4.750172e+2, 2.2468133e+2, -741319.4, -819379.0, -10051.262, 0.08690984, 0.07297622, -740045.9, -1925.2057, 0.0, 10.000269, 9.99926 
4.750132e+2, 2.346797e+2, -788364.4, -793068.25, -10017.897, 0.13642976, -0.047073506, -780426.06, -140286.73, 0.0, 9.99928, 9.999246 
4.750078e+2, 2.4468018e+2, -667496.3, -489029.97, -48055.656, 0.09609747, -0.0048217922, -476912.75, 65221.746, 0.0, 9.998591, 10.000993 
4.7500107e+2, 2.5468278e+2, -635159.5, -421993.56, -6897.24, -0.04246485, 0.11669687, -421770.66, 22334.875, 0.0, 9.998126, 10.001008 
4.7499666e+2, 2.6468325e+2, -617703.9, -502230.5, 39471.824, -0.008475527, 0.13125083, -490027.6, -143928.28, 0.0, 9.998196, 9.999746 
4.7499445e+2, 2.74681e+2, -454143.3, -381583.7, 51271.316, 0.17595765, -0.09444859, -355054.47, -106932.086, 0.0, 9.998683, 9.999669 
4.7498924e+2, 2.8467986e+2, -294315.66, -288971.38, -7241.034, 0.09773761, -0.15174352, -283925.16, -133792.48, 0.0000000367379, 9.999257, 9.9993515 
4.7498158e+2, 2.9468003e+2, -102906.8, -123380.36, -19388.857, -0.17138444, -0.115298636, -91218.266, -39089.742, 0.000004901276, 9.999786, 9.999563 
4.7497812e+2, 3.0468035e+2, -197678.72, -304823.13, -78013.81, 0.034758687, 0.02648189, -156614.06, -156614.06, 0.000032907166, 9.99951, 9.998134 
4.7497302e+2, 3.1467688e+2, -308151.47, -241624.0, -1065.428, 0.044258177, -0.14532727, -241606.94, -241606.94, 0.00010232853, 9.998192, 9.999194 
4.8506802e+2, 1.2469293e+2, -1303727.3, -1688757.8, -141362.48, 0.19246487, -0.17554727, -1257400.6, 460593.88, 0.00008688649, 10.003512, 9.998452 
4.850613e+2, 1.3469222e+2, -1371891.0, -1688495.8, 129037.65, -0.26969498, -0.123707116, -1325962.3, 294039.44, 0.000032757685, 10.002436, 9.998344 
4.8506123e+2, 1.446903e+2, -1380987.9, -1686307.8, -44694.25, -0.004655467, -0.118232556, -1374579.8, 147442.92, 0.000007215262, 10.001902, 9.997909 
4.8505473e+2, 1.5468842e+2, -1217286.8, -1559664.8, -68835.7, 0.050629303, -0.13737859, -1203965.5, 220080.56, 0.00000059770906, 10.002368, 9.997888 
4.8504925e+2, 1.6468766e+2, -1035197.0, -1244565.6, 35104.117, 0.12506083, -0.07118797, -1029468.0, 296587.16, 0.0000000048834687, 10.002205, 9.999447 
4.850446e+2, 1.7468788e+2, -1062564.8, -1199888.5, -3879.8853, 0.1410411, -0.03159037, -1062455.3, 165596.13, 0.0, 10.00132, 9.999503 
4.8503926e+2, 1.846874e+2, -1080490.8, -1174270.8, 1828.5433, 0.0817385, -0.018384816, -1080455.1, 49600.758, 0.0, 10.000585, 9.999359 
4.850335e+2, 1.9468598e+2, -1073018.1, -1123057.5, 8035.4478, -0.02798998, -0.13035767, -1071759.5, -39687.668, 0.0, 9.999969, 9.999338 
4.85028e+2, 2.046858e+2, -968874.3, -1011654.44, -19431.025, -0.044441976, -0.078598425, -961366.3, -27291.314, 0.0, 9.99997, 9.999439 
4.8502284e+2, 2.1468684e+2, -791010.44, -871302.1, -26449.414, 0.052728955, 0.049907528, -783080.7, 52985.707, 0.0, 10.000502, 9.999472 
4.8501775e+2, 2.2468665e+2, -712230.3, -773817.8, 23638.537, 0.120511495, 0.08377872, -704203.5, 33865.695, 0.0, 10.0003395, 9.999539 
4.8501265e+2, 2.3468481e+2, -749887.3, -748222.4, 42061.863, 0.15799755, -0.08095115, -706984.75, -66897.14, 0.0, 9.99942, 9.999493 
4.8500696e+2, 2.4468519e+2, -570102.9, -457771.16, 63448.734, 0.12139206, -0.05301985, -429200.1, 112882.984, 0.0, 9.999326, 10.000854 
4.850006e+2, 2.5468796e+2, -357580.94, -302290.53, 11115.567, 0.010254919, 0.10212859, -300139.53, 143914.11, 0.0, 10.000103, 10.000873 
4.849961e+2, 2.6468846e+2, -374580.0, -408733.5, 28611.852, 0.040384606, 0.13569826, -358336.28, -12288.527, 0.0, 9.999965, 9.999535 
4.8499343e+2, 2.7468592e+2, -449957.94, -403557.94, 8857.077, 0.2089778, -0.09870592, -401924.75, -153851.31, 0.0, 9.998805, 9.999462 
4.849884e+2, 2.846844e+2, -405485.94, -388612.53, 18046.44, 0.12284263, -0.1674521, -377128.1, -227039.75, 0.00000008825205, 9.998686, 9.998943 
4.8498148e+2, 2.9468435e+2, -146224.89, -195707.5, -28344.914, -0.14696798, -0.1055525, -133342.19, -81254.73, 0.0000056092463, 9.999707, 9.9991045 
4.849777e+2, 3.0468452e+2, -166857.45, -296458.44, -87269.984, 0.042382326, 0.048638545, -122960.41, -122960.41, 0.000035389916, 9.999754, 9.998061 
4.8497283e+2, 3.1468058e+2, -184910.31, -131407.2, 69036.23, 0.19027168, -0.16879593, -84120.62, -84120.62, 0.00010599746, 9.998822, 9.9996395 
4.950697e+2, 1.2469919e+2, -1389901.6, -1887020.8, -163639.78, -0.06974619, -0.15648773, -1340871.1, 377058.56, 0.00007926606, 10.003591, 9.997054 
4.9506378e+2, 1.3469659e+2, -1474128.3, -1907829.9, 94247.805, -0.29538634, -0.14411944, -1454532.6, 165429.3, 0.000026309035, 10.002462, 9.996824 
4.9506614e+2, 1.4469491e+2, -1311111.0, -1526783.0, -44294.758, 0.2594236, -0.093575545, -1302368.1, 219613.94, 0.0000047383246, 10.0018425, 9.999031 
4.950576e+2, 1.5469572e+2, -1137720.0, -1388747.1, -37369.23, 0.067856416, 0.03886872, -1132275.1, 291699.34, 0.0000002991547, 10.002346, 9.99907 
4.9505025e+2, 1.646946e+2, -1102225.8, -1374476.0, -10730.558, -0.024689091, 0.050224572, -1101803.5, 224182.3, 0.0000000005507737, 10.00216, 9.99858 
4.9504438e+2, 1.746911e+2, -1132924.8, -1337634.6, -27149.52, -0.04439449, -0.18826045, -1129385.3, 98635.125, 0.0, 10.001282, 9.998578 
4.9503902e+2, 1.8469024e+2, -1062190.0, -1116097.8, -33265.12, -0.033465963, -0.18808652, -1046329.4, 83700.555, 0.0, 10.000499, 9.999799 
4.9503425e+2, 1.9469208e+2, -1051306.0, -1060174.8, -5281.9585, 0.019430894, -0.01998334, -1048843.8, -16829.67, 0.0, 9.999887, 9.999811 
4.95029e+2, 2.046927e+2, -973082.4, -993031.2, -15080.018, 0.038158454, 0.075072184, -964976.56, -30967.346, 0.0, 9.999845, 9.999633 
4.9502328e+2, 2.1469171e+2, -798735.4, -860428.44, 6164.941, 0.019939017, -0.015146806, -798125.4, 37893.43, 0.0, 10.000371, 9.999617 
4.9501735e+2, 2.2469115e+2, -681395.06, -671940.7, -19475.98, 0.02396772, -0.061225478, -656626.44, 81395.6, 0.0, 10.000186, 10.000307 
4.9501124e+2, 2.3469092e+2, -716476.94, -640872.25, 22847.16, 0.043297883, -0.14708643, -634504.4, 5515.3643, 0.0, 9.999264, 10.000302 
4.9500576e+2, 2.4469079e+2, -653891.5, -606660.56, 80085.09, 0.04277107, -0.16455302, -546781.6, -4762.7524, 0.0, 9.999223, 9.999879 
4.9500126e+2, 2.546905e+2, -444276.75, -459598.8, 54383.645, 0.030911885, -0.21035877, -397017.16, 47005.293, 0.0, 10.000005, 9.99984 
4.9499643e+2, 2.6469088e+2, -406732.97, -455876.6, -26806.662, 0.043574866, -0.12235009, -394940.38, -48919.535, 0.0, 9.999887, 9.999244 
4.9499097e+2, 2.7469164e+2, -490095.88, -453629.66, -20665.557, 0.049459927, 0.00006242993, -444303.53, -196286.56, 0.0, 9.998672, 9.999177 
4.949862e+2, 2.8469115e+2, -441142.38, -448199.0, 43758.86, 0.0034821045, 0.06773119, -400769.8, -250745.02, 0.00000018947561, 9.998628, 9.998561 
4.9498287e+2, 2.9468933e+2, -186726.84, -266636.94, 25207.666, -0.016457988, -0.004859461, -179439.61, -127395.01, 0.000005650319, 9.999658, 9.998637 
4.9497837e+2, 3.04689e+2, -92588.875, -148628.52, -128881.016, 0.10125716, 0.07806396, 11283.03, 11283.03, 0.00003451672, 9.999768, 9.999074 
4.949699e+2, 3.1468695e+2, -52609.457, 159845.1, 94334.555, -0.05598772, -0.070821136, 195685.56, 195685.56, 0.00010176044, 9.998747, 10.001676 
5.050739e+2, 1.2470405e+2, -1271723.8, -1774404.6, -186695.11, -0.023361983, -0.13713044, -1209971.4, 507913.9, 0.000066640154, 10.004195, 9.997519 
5.05066e+2, 1.3470176e+2, -1429607.1, -1837730.6, 58996.023, -0.31055063, -0.13694091, -1421250.1, 198661.34, 0.0000195532, 10.002558, 9.997259 
5.0506896e+2, 1.4470017e+2, -1364101.3, -1511212.0, 59081.39, 0.39282197, -0.11615844, -1343311.5, 178617.36, 0.0000028130235, 10.001318, 9.999383 
5.050595e+2, 1.5470105e+2, -1301226.5, -1423836.1, -26716.29, 0.099623166, -0.012139883, -1295658.0, 128261.68, 0.00000011765629, 10.001057, 9.99944 
5.050515e+2, 1.647001e+2, -1278786.5, -1477434.9, 4459.231, -0.05502714, 0.0038559425, -1278686.4, 47243.5, 0.000000000026416515, 10.001013, 9.99843 
5.0504524e+2, 1.7469683e+2, -1167469.0, -1375733.9, 19717.383, -0.07153907, -0.19161448, -1165618.8, 62345.645, 0.0, 10.001119, 9.998403 
5.0503963e+2, 1.8469624e+2, -1000675.7, -1070622.1, 48185.664, -0.030199956, -0.16179517, -976109.1, 153863.2, 0.0, 10.000861, 9.999936 
5.0503486e+2, 1.946984e+2, -999907.6, -1017298.3, 29734.604, 0.08444626, 0.02685935, -977623.06, 54329.926, 0.0, 10.000177, 9.999963 
5.0502956e+2, 2.0469892e+2, -958777.5, -963804.2, 60497.195, 0.11431306, 0.09453395, -900741.44, 33206.555, 0.0, 9.9998665, 9.9998045 
5.050237e+2, 2.1469733e+2, -866113.1, -871559.2, 50979.824, 0.061193887, -0.072426066, -817783.6, 18177.932, 0.0, 9.999843, 9.999779 
5.0501746e+2, 2.2469667e+2, -734879.44, -722279.9, -8874.381, 0.037333444, -0.1255936, -717696.56, 20268.76, 0.0, 9.999911, 10.000103 
5.050108e+2, 2.3469692e+2, -631069.25, -617714.56, -68722.37, 0.0506726, -0.14259456, -555345.9, 84613.18, 0.0, 9.999938, 10.000131 
5.0500536e+2, 2.4469656e+2, -613599.94, -658984.56, 13976.7705, 0.05964158, -0.14590746, -609640.94, -67679.13, 0.0, 9.999805, 9.999242 
5.050015e+2, 2.5469512e+2, -553466.75, -584407.06, -5005.5737, 0.084549814, -0.23996136, -552677.06, -108699.12, 0.0, 9.999563, 9.999199 
5.049965e+2, 2.6469514e+2, -443719.03, -465337.44, -55842.29, 0.08245188, -0.16115972, -397649.4, -51669.004, 0.0, 9.999591, 9.999331 
5.049899e+2, 2.746965e+2, -312686.28, -356712.34, -54474.285, 0.02980488, 0.009155597, -275945.4, -27975.402, 0.00000000061010413, 9.999835, 9.999287 
5.049851e+2, 2.8469646e+2, -283426.38, -345375.6, 98037.0, -0.0071645556, 0.106444456, -211587.17, -61614.574, 0.00000027597625, 9.999601, 9.998801 
5.049826e+2, 2.9469484e+2, -300400.4, -303720.47, 94844.32, 0.039942663, 0.033370484, -207201.6, -155211.56, 0.0000049916057, 9.998801, 9.998804 
5.049775e+2, 3.046935e+2, -311155.25, -250210.19, -67169.76, 0.12620471, 0.008964632, -206923.98, -206923.98, 0.000030276777, 9.998254, 9.999105 
5.049691e+2, 3.1469217e+2, -156579.16, 147786.16, 40776.875, 0.04679757, -0.07842759, 153154.48, 153154.48, 0.000090633286, 9.997867, 10.00202 
5.150799e+2, 1.2470761e+2, -1114822.3, -1454145.4, -153848.86, 0.08177131, -0.11188636, -1055454.3, 662405.5, 0.000052165007, 10.004208, 9.999713 
5.150676e+2, 1.3470782e+2, -1261243.5, -1497320.1, 6623.3813, -0.43970937, -0.10058363, -1261057.9, 358791.44, 0.000013925394, 10.002594, 9.999577 
5.150694e+2, 1.4470616e+2, -1394252.1, -1575130.5, 29264.71, 0.26281664, -0.18305679, -1389635.3, 132227.06, 0.000001645238, 10.001317, 9.998951 
5.150601e+2, 1.5470438e+2, -1338528.1, -1499918.8, -21409.371, 0.023145178, -0.2938696, -1335736.3, 88145.55, 0.00000003629146, 10.001047, 9.998928 
5.1505244e+2, 1.647041e+2, -1251624.6, -1402079.6, -1427.877, -0.09092569, -0.21135789, -1251611.0, 74276.98, 0.0, 10.0009365, 9.998979 
5.1504666e+2, 1.7470516e+2, -1136290.4, -1297741.8, 36771.688, -0.07252838, -0.03544405, -1128309.9, 99572.75, 0.0, 10.001069, 9.998956 
5.150407e+2, 1.8470557e+2, -1021305.75, -1097160.4, 11044.099, -0.034409292, 0.07186455, -1019730.5, 110151.16, 0.0, 10.000788, 9.999785 
5.150349e+2, 1.9470496e+2, -1018324.6, -1045426.56, 17603.338, 0.03914686, -0.00020007607, -1009660.56, 22227.361, 0.0, 10.000125, 9.999795 
5.1502925e+2, 2.0470434e+2, -980176.44, -974552.1, 46515.637, 0.071126685, -0.036928777, -930763.75, 3128.7207, 0.0, 9.999719, 9.999804 
5.1502377e+2, 2.1470352e+2, -882477.3, -875684.56, 61626.94, 0.05566598, -0.13309595, -817360.5, 18536.113, 0.0, 9.999707, 9.999817 
5.1501775e+2, 2.2470304e+2, -830515.0, -894830.94, -22760.695, 0.052408442, -0.1172137, -823275.2, -85374.5, 0.0, 9.999792, 9.9989805 
5.15011e+2, 2.3470277e+2, -732055.25, -798063.0, -55474.293, 0.04784355, -0.07183701, -700509.5, -60603.06, 0.0, 9.999808, 9.998959 
5.150053e+2, 2.4470244e+2, -641214.25, -699182.75, -7292.72, 0.041236013, 0.0035331387, -640310.9, -98398.734, 0.0, 9.99973, 9.9990015 
5.150009e+2, 2.5470185e+2, -584500.44, -622862.25, 151.97179, 0.031508014, 0.009455892, -584499.9, -140579.56, 0.0, 9.999446, 9.998992 
5.149959e+2, 2.6470128e+2, -424267.63, -407178.47, -59289.535, 0.032321226, 0.020103965, -355820.97, -9894.7295, 0.0, 9.999518, 9.999768 
5.1499003e+2, 2.7470034e+2, -290429.84, -294473.7, -25851.623, 0.029306043, -0.07729883, -266521.2, -18587.941, 0.0000000018853024, 9.999761, 9.999757 
5.149847e+2, 2.847002e+2, -230110.61, -227454.48, 56817.426, -0.034830056, -0.052806813, -171949.6, -22017.227, 0.00000034894228, 9.999575, 9.9996195 
5.1497996e+2, 2.947008e+2, -258801.19, -198000.08, 81798.984, -0.13731816, 0.0037125284, -141135.13, -89210.5, 0.000004315403, 9.998717, 9.999568 
5.149746e+2, 3.0469796e+2, -383801.16, -388879.4, -88300.42, -0.020988185, -0.16111985, -298003.38, -298003.38, 0.000026122347, 9.998216, 9.998171 
5.1496977e+2, 3.1469566e+2, -268064.0, -53978.676, 83869.06, 0.25971484, -0.24178791, -25035.488, -25035.488, 0.000081293096, 9.997759, 10.000682 
5.25084e+2, 1.24713674e+2, -1362245.8, -1555876.6, 134749.66, 0.18181966, -0.08399682, -1293137.4, 424663.78, 0.000041919076, 10.002422, 9.999871 
5.250701e+2, 1.3471389e+2, -1415570.0, -1538099.3, -43610.35, -0.37930766, -0.10247161, -1401633.5, 218156.17, 0.000010470756, 10.001389, 9.999874 
5.250706e+2, 1.4471224e+2, -1479266.4, -1624870.8, 5958.227, 0.28861424, -0.19514954, -1479023.0, 42779.348, 0.0000009776196, 10.0007715, 9.99887 
5.250612e+2, 1.5471055e+2, -1329868.8, -1504194.9, -39501.37, 0.032102454, -0.28951538, -1321335.6, 102486.53, 0.000000005050013, 10.001141, 9.998849 
5.2505344e+2, 1.6471055e+2, -1207880.0, -1331747.8, 8551.607, -0.0740154, -0.19568333, -1207292.4, 118533.234, 0.0, 10.001024, 9.999426 
5.2504784e+2, 1.747121e+2, -1203007.0, -1278130.6, 10815.799, -0.016414445, -0.013134785, -1201480.8, 26333.379, 0.0, 10.000379, 9.999432 
5.2504176e+2, 1.8471248e+2, -1115799.3, -1180951.4, 2485.2524, 0.0180963, 0.08394236, -1115704.6, 14108.679, 0.0, 10.000302, 9.999456 
5.250352e+2, 1.9471125e+2, -958381.44, -1054121.6, -33939.273, 0.03718219, -0.009956501, -947570.9, 84255.44, 0.0, 10.000717, 9.999454 
5.250293e+2, 2.0471038e+2, -830052.06, -908497.0, 9310.596, 0.05919872, -0.05217061, -828962.2, 104871.39, 0.0, 10.000766, 9.999755 
5.25024e+2, 2.1470962e+2, -793587.4, -840805.2, -2222.5276, 0.08318206, -0.13711138, -793483.0, 42353.715, 0.0, 10.0003395, 9.999756 
5.250181e+2, 2.2470926e+2, -781463.8, -885410.44, -19691.621, 0.09048236, -0.100540444, -777858.5, -40018.477, 0.0, 10.000211, 9.998828 
5.2501136e+2, 2.3470901e+2, -653273.25, -782113.0, -4553.306, 0.07774304, -0.032892156, -653112.5, -13265.853, 0.0, 10.000444, 9.99876 
5.250056e+2, 2.447086e+2, -553883.6, -659850.44, 93100.05, 0.068446666, 0.045799084, -499746.25, 42107.055, 0.0, 10.000346, 9.998978 
5.250008e+2, 2.5470787e+2, -526326.2, -595500.6, 88367.54, 0.06940451, 0.04233077, -466018.22, -22156.719, 0.0, 9.999862, 9.998978 
5.2499557e+2, 2.647069e+2, -437383.84, -438344.9, 54595.867, 0.057723682, 0.024492966, -383266.4, -37395.69, 0.0, 9.999539, 9.999534 
5.2498966e+2, 2.7470538e+2, -358990.47, -345755.1, 8287.681, 0.04166259, -0.11174768, -341767.16, -93883.78, 0.00000000009174081, 9.999393, 9.999562 
5.2498436e+2, 2.8470522e+2, -293203.47, -250882.63, 41061.56, 0.002484823, -0.08617026, -225849.8, -75966.914, 0.00000033351301, 9.999106, 9.999683 
5.249795e+2, 2.9470623e+2, -264433.2, -189264.36, -22065.885, -0.048329335, 0.0057781506, -183265.63, -131394.7, 0.0000041082662, 9.998623, 9.99967 
5.249733e+2, 3.0470353e+2, -294761.28, -298345.28, -114626.69, 0.01801164, -0.17483896, -181912.6, -181912.6, 0.000024723933, 9.998622, 9.998605 
5.2496856e+2, 3.1470197e+2, -158897.22, -37832.996, 107577.14, 0.33565125, -0.21385178, 25073.041, 25073.041, 0.00007789345, 9.998667, 10.000362 
5.3508604e+2, 1.2472194e+2, -1472585.0, -1796823.5, 175819.23, 0.058429405, -0.07311832, -1395549.4, 322163.4, 0.000035694404, 10.002485, 9.998184 
5.35073e+2, 1.3471992e+2, -1538170.4, -1788631.5, -80139.18, -0.25332785, -0.13858476, -1514723.5, 105008.77, 0.000008273398, 10.001373, 9.998168 
5.35072e+2, 1.4471841e+2, -1464251.4, -1587251.8, 4110.3325, 0.3169838, -0.14347094, -1464114.3, 57634.133, 0.00000061502607, 10.000742, 9.999138 
5.350624e+2, 1.5471955e+2, -1312079.1, -1464553.4, -12505.21, -0.000108257365, 0.005987094, -1311060.3, 112680.21, 0.00000000036285042, 10.001126, 9.9991255 
5.350543e+2, 1.6471937e+2, -1191015.6, -1287355.0, -29860.27, -0.120216474, 0.05224966, -1182511.3, 143232.19, 0.0, 10.000983, 9.999752 
5.3504854e+2, 1.7471762e+2, -1182935.5, -1233080.4, -411.56955, -0.015745215, -0.12793005, -1182932.1, 44827.52, 0.0, 10.0003605, 9.999753 
5.3504217e+2, 1.8471697e+2, -1164041.9, -1266666.3, 5748.3174, 0.007237043, -0.12159052, -1163721.0, -33953.574, 0.0, 10.000239, 9.998896 
5.350354e+2, 1.9471724e+2, -1013016.4, -1152320.0, -4650.111, -0.045549635, -0.010675768, -1012861.4, 18907.172, 0.0, 10.000642, 9.998819 
5.3502923e+2, 2.0471695e+2, -856220.56, -925964.8, -17947.828, -0.045171957, 0.041787792, -851872.94, 81898.875, 0.0, 10.000616, 9.999702 
5.35024e+2, 2.1471584e+2, -818840.8, -856508.8, -7467.593, 0.023448728, -0.07554896, -817414.4, 18365.252, 0.0, 10.000185, 9.999719 
5.350181e+2, 2.2471546e+2, -752545.5, -796010.44, -24222.078, 0.045728143, -0.07029166, -741735.5, -3953.755, 0.0, 10.000076, 9.999512 
5.350114e+2, 2.3471572e+2, -623128.2, -683138.9, 16899.113, 0.012659903, -0.027959, -618696.6, 21082.934, 0.0, 10.000288, 9.999513 
5.3500575e+2, 2.44715e+2, -558265.44, -645071.4, 63389.473, 0.027760163, -0.025017919, -524843.7, 16942.164, 0.0, 10.00025, 9.999124 
5.3500104e+2, 2.5471303e+2, -532581.9, -584627.3, 84757.15, 0.07666001, -0.16560598, -469942.53, -26138.861, 0.0, 9.999763, 9.999098 
5.3499526e+2, 2.6471195e+2, -504145.53, -566954.5, 35988.69, 0.045526583, -0.158099, -487785.72, -141970.94, 0.0, 9.99949, 9.998676 
5.349882e+2, 2.7471152e+2, -433017.13, -483860.97, 17538.92, -0.07645835, -0.09843882, -427553.97, -179732.48, 0.0, 9.999312, 9.998661 
5.349835e+2, 2.847113e+2, -342083.84, -343956.97, 12865.099, -0.026936758, -0.0022997207, -330121.25, -180295.28, 0.00000019037492, 9.999075, 9.999057 
5.349808e+2, 2.9471105e+2, -319022.66, -282501.7, -19073.305, 0.18123834, 0.029391477, -274356.94, -222526.73, 0.0000040138116, 9.998535, 9.999073 
5.349732e+2, 3.0471006e+2, -177662.6, -57705.195, -117316.375, 0.119376, -0.030863235, 14075.643, 14075.643, 0.000024880646, 9.998622, 10.0002575 
5.349645e+2, 3.1471124e+2, -106778.734, 57174.723, 152442.6, -0.010831288, 0.031972993, 148284.47, 148284.47, 0.00007745561, 9.998701, 10.001004 
5.4508877e+2, 1.2472889e+2, -1554359.3, -1873455.6, 231066.61, 0.11224289, -0.1291626, -1433109.6, 284531.47, 0.00003031358, 10.002074, 9.997894 
5.450759e+2, 1.3472682e+2, -1378999.3, -1725156.0, -57598.68, -0.14659987, -0.17721573, -1369666.8, 249996.64, 0.000006366235, 10.002538, 9.998047 
5.450725e+2, 1.4472565e+2, -1276563.4, -1483799.9, 119372.72, 0.23413913, -0.14639789, -1222110.1, 299566.7, 0.00000037085837, 10.001966, 9.99927 
5.450634e+2, 1.5472692e+2, -1333361.8, -1456426.6, 61666.94, 0.0049722795, 0.005039328, -1307779.1, 115887.14, 0.00000000007720086, 10.000891, 9.999304 
5.450553e+2, 1.6472663e+2, -1271273.0, -1356630.3, 59289.32, -0.08961139, 0.043271795, -1240899.0, 84771.484, 0.0, 10.000592, 9.999451 
5.4504913e+2, 1.7472449e+2, -1103341.1, -1227427.1, 11225.809, -0.02115863, -0.142634, -1102333.8, 125358.34, 0.0, 10.001078, 9.999434 
5.4504263e+2, 1.8472359e+2, -1017559.5, -1181737.8, 45893.977, -0.0056872163, -0.15220237, -1005601.44, 124100.39, 0.0, 10.001161, 9.999046 
5.4503614e+2, 1.9472383e+2, -971141.56, -1110045.3, 70047.016, -0.034082405, -0.06311187, -941951.9, 89748.63, 0.0, 10.000818, 9.999026 
5.4503006e+2, 2.047236e+2, -884566.9, -973730.6, 91288.52, -0.015206695, -0.0011418428, -827555.75, 106147.195, 0.0, 10.0005665, 9.999407 
5.450246e+2, 2.1472256e+2, -830927.56, -893580.06, 58343.445, 0.07057637, -0.0763128, -796032.25, 39679.938, 0.0, 10.000246, 9.999435 
5.450186e+2, 2.2472204e+2, -725381.9, -788082.56, 51854.32, 0.08973262, -0.06827533, -696137.56, 41579.016, 0.0, 10.000277, 9.999472 
5.45012e+2, 2.3472185e+2, -567128.06, -666703.2, 7559.4106, 0.035267074, -0.06561046, -566557.44, 73160.875, 0.0, 10.000708, 9.9994335 
5.450062e+2, 2.4472108e+2, -509234.78, -626237.9, 8211.578, 0.045693614, -0.06235341, -508661.28, 33063.832, 0.0, 10.000606, 9.999082 
5.450012e+2, 2.547195e+2, -510642.2, -580456.7, -14073.196, 0.11770168, -0.15961675, -507912.06, -64172.51, 0.0, 9.999936, 9.999046 
5.4499525e+2, 2.6471853e+2, -490690.06, -590541.4, 3568.3403, 0.091280654, -0.12262773, -490562.72, -144812.83, 0.0, 9.999724, 9.998397 
5.449884e+2, 2.747179e+2, -337794.0, -468801.94, 3243.848, -0.023279428, -0.05838729, -337713.75, -89954.38, 0.0, 10.000103, 9.998385 
5.449833e+2, 2.8471717e+2, -275438.84, -335281.66, 23847.3, 0.027992627, 0.011599105, -267098.2, -117328.31, 0.00000011177434, 9.999646, 9.998842 
5.4497975e+2, 2.9471633e+2, -371205.38, -323817.44, -3250.2534, 0.24432398, 0.0058064824, -323595.53, -271814.03, 0.0000045059896, 9.998281, 9.998901 
5.4497117e+2, 3.047165e+2, -266907.63, -66037.375, -64932.035, 0.10904422, 0.05699944, -46875.746, -46875.746, 0.000026381855, 9.997854, 10.000562 
5.449627e+2, 3.1471828e+2, -228871.84, 25037.934, 53256.863, 0.00006590301, 0.14098017, 35755.98, 35755.98, 0.00007890932, 9.997757, 10.00122 
5.5509144e+2, 1.247348e+2, -1464413.9, -1687168.5, 253944.77, 0.111480854, -0.21272339, -1298495.6, 419087.88, 0.000026661766, 10.002084, 9.999162 
5.550784e+2, 1.3473459e+2, -1287606.3, -1536863.3, -38474.17, -0.17964612, -0.20577084, -1281802.6, 337780.25, 0.0000052899522, 10.002535, 9.999348 
5.5507165e+2, 1.447338e+2, -1275183.1, -1468694.1, 61197.184, -0.080230854, -0.2098596, -1257454.1, 264135.0, 0.00000021782215, 10.0019245, 9.99939 
5.550638e+2, 1.5473272e+2, -1330482.1, -1450349.9, 37711.0, -0.069347054, -0.29677978, -1319605.0, 103994.35, 0.00000000000011946363, 10.000888, 9.999352 
5.5505604e+2, 1.647324e+2, -1340203.9, -1499270.8, 63915.25, -0.10802424, -0.21549352, -1317704.4, 7901.9385, 0.0, 10.0005865, 9.998475 
5.550492e+2, 1.7473264e+2, -1179986.6, -1379810.3, 41574.223, -0.15236335, -0.06271992, -1171682.0, 55930.168, 0.0, 10.001043, 9.998409 
5.550429e+2, 1.8473229e+2, -964744.3, -1050161.6, 21736.033, -0.12935847, -0.011116391, -959531.3, 170085.61, 0.0, 10.001068, 9.999995 
5.5503714e+2, 1.9473101e+2, -914163.0, -975511.2, 70690.94, -0.04193738, -0.16951977, -867778.0, 163844.47, 0.0, 10.000741, 9.999995 
5.550313e+2, 2.0473027e+2, -937873.56, -1052174.9, 67578.34, 0.030397087, -0.18431947, -906519.8, 27107.47, 0.0, 10.000437, 9.998925 
5.550254e+2, 2.1472985e+2, -891073.8, -982773.9, 59773.125, 0.09671074, -0.14790486, -861590.94, -25956.926, 0.0, 10.000092, 9.998897 
5.5501926e+2, 2.2472896e+2, -809187.44, -924518.5, 55096.063, 0.1015636, -0.107287996, -787097.75, -49452.625, 0.0, 10.000117, 9.998612 
5.5501294e+2, 2.347274e+2, -652791.2, -802265.8, 37853.934, 0.028485263, -0.15274087, -643751.5, -4088.5847, 0.0, 10.000531, 9.998585 
5.5500686e+2, 2.447269e+2, -542804.0, -674982.1, -26206.951, 0.014325351, -0.0657133, -537797.56, 3872.8013, 0.0, 10.000503, 9.998805 
5.550008e+2, 2.5472733e+2, -543023.94, -622408.06, -24173.875, 0.056514755, 0.064961456, -536241.94, -92573.32, 0.0, 9.999822, 9.998817 
5.549951e+2, 2.647267e+2, -479059.25, -553544.06, 4452.4814, 0.0775063, 0.1278415, -478794.03, -133117.88, 0.0, 9.99967, 9.998677 
5.549898e+2, 2.7472433e+2, -332086.78, -438896.38, 31272.48, 0.07966684, -0.0018765623, -323604.25, -75905.87, 0.0, 10.000022, 9.9986315 
5.549836e+2, 2.8472263e+2, -267265.44, -310383.9, -39729.04, 0.06490935, -0.048480645, -243622.92, -93906.96, 0.00000024371042, 9.999607, 9.999037 
5.5497575e+2, 2.9472178e+2, -365320.25, -304205.63, -35186.96, -0.018124165, -0.07743197, -288159.6, -236432.64, 0.0000058589785, 9.998237, 9.999064 
5.5496675e+2, 3.047226e+2, -343283.22, -210986.47, -74251.64, -0.15248851, 0.08096417, -177691.83, -177691.83, 0.000029984647, 9.997805, 9.999583 
5.549625e+2, 3.1472275e+2, -266663.44, -32215.156, 84531.56, 0.13635159, 0.100265995, -4915.651, -4915.651, 0.00008416486, 9.997655, 10.000882 
5.6509334e+2, 1.2474218e+2, -1447703.9, -1624348.3, 331146.0, 0.11316879, -0.20496647, -1193303.9, 524207.3, 0.000022362967, 10.001951, 9.999644 
5.6508154e+2, 1.3474257e+2, -1394523.1, -1532511.0, -76548.016, -0.05309234, -0.19241844, -1360464.9, 259039.3, 0.000004259607, 10.001555, 9.999833 
5.6507194e+2, 1.4474192e+2, -1362501.6, -1544333.1, 218.79729, -0.20778064, -0.19354957, -1362501.4, 159007.4, 0.00000013010742, 10.00145, 9.999108 
5.650649e+2, 1.5474002e+2, -1199913.1, -1412837.4, -74167.8, -0.08778726, -0.33399168, -1176625.3, 246902.31, 0.0, 10.001899, 9.999119 
5.6505746e+2, 1.647396e+2, -1175527.6, -1427216.1, 10390.717, -0.07610964, -0.24865943, -1175099.4, 150436.06, 0.0, 10.001735, 9.998423 
5.650504e+2, 1.747404e+2, -1187571.4, -1383599.0, 37502.625, -0.122634456, -0.03960753, -1180641.6, 46893.473, 0.0, 10.000982, 9.99841 
5.6504405e+2, 1.8473998e+2, -1004599.2, -1074896.4, 51129.85, -0.09687363, 0.007254852, -977702.0, 151837.63, 0.0, 10.000826, 9.999932 
5.6503844e+2, 1.94738e+2, -853465.8, -946479.25, 460.16608, -0.0012718809, -0.21967302, -853463.56, 178087.64, 0.0, 10.001174, 9.999969 
5.6503236e+2, 2.0473704e+2, -816530.44, -1019402.2, -11998.98, 0.0541554, -0.24599552, -815823.2, 117735.24, 0.0, 10.001379, 9.998696 
5.65026e+2, 2.1473697e+2, -721362.94, -922839.1, -22447.387, 0.090241335, -0.14844346, -718892.3, 116670.516, 0.0, 10.001362, 9.998692 
5.650198e+2, 2.2473605e+2, -686253.8, -896575.56, 36154.3, 0.0987183, -0.08843217, -680212.4, 57362.613, 0.0, 10.001099, 9.998328 
5.650138e+2, 2.3473391e+2, -674022.4, -841686.8, 39723.53, 0.07986426, -0.16716462, -665087.1, -25488.53, 0.0, 10.000512, 9.998318 
5.650076e+2, 2.4473314e+2, -566053.3, -690850.9, 29955.543, 0.062071756, -0.09013439, -559235.5, -17626.701, 0.0, 10.000394, 9.998729 
5.650009e+2, 2.5473362e+2, -394504.6, -562008.94, 14818.256, 0.041775554, 0.054922756, -393203.8, 50403.08, 0.0, 10.000903, 9.998703 
5.649949e+2, 2.6473308e+2, -334381.6, -442852.84, 62199.816, 0.05449559, 0.11777267, -306092.56, 39520.246, 0.0, 10.000481, 9.999047 
5.649896e+2, 2.7473107e+2, -453480.16, -447778.38, 72061.89, 0.11992918, -0.019985719, -378511.0, -130880.914, 0.0, 9.998985, 9.99906 
5.6498295e+2, 2.8472948e+2, -420785.22, -394668.25, 39271.19, 0.096729495, -0.07367703, -366341.34, -216695.97, 0.00000046127252, 9.998575, 9.998959 
5.6497407e+2, 2.9472855e+2, -204219.19, -244880.13, 1587.8862, -0.061608646, -0.10425835, -204157.28, -152500.4, 0.000007820285, 9.999397, 9.9989195 
5.649646e+2, 3.047286e+2, -135443.47, -164893.86, -10167.755, -0.21748343, 0.011017761, -132274.13, -132274.13, 0.00003595913, 9.999466, 9.9991045 
5.649621e+2, 3.1472808e+2, -179906.28, 18919.535, 124192.19, 0.3144533, 0.005481469, 78587.19, 78587.19, 0.000094486146, 9.99823, 10.00095 
5.750938e+2, 1.24750815e+2, -1468201.4, -1651722.6, 223308.89, -0.103194304, -0.12876277, -1318535.3, 398891.5, 0.000015098279, 10.0019, 9.99947 
5.750849e+2, 1.3475056e+2, -1420769.5, -1588247.0, -86004.98, 0.09483121, -0.14629541, -1384470.6, 234958.22, 0.0000026568694, 10.001558, 9.999448 
5.7507306e+2, 1.4474994e+2, -1401834.6, -1622560.3, -3698.2622, -0.28053182, -0.09980953, -1401772.6, 119663.9, 0.000000050157187, 10.00144, 9.998575 
5.7506627e+2, 1.547488e+2, -1243262.6, -1497744.4, -43997.05, -0.16843294, -0.107572414, -1235870.6, 187580.83, 0.0, 10.001876, 9.998553 
5.750591e+2, 1.6474812e+2, -1115596.3, -1287508.4, -31871.857, -0.11032572, -0.06659027, -1109877.6, 215581.58, 0.0, 10.001668, 9.99941 
5.750523e+2, 1.7474774e+2, -1123094.4, -1244016.1, 22199.62, -0.059451807, -0.0789257, -1119147.6, 108313.48, 0.0, 10.000954, 9.999383 
5.750458e+2, 1.8474676e+2, -1080972.3, -1218756.0, 52474.145, -0.03120703, -0.09133502, -1063263.8, 66205.43, 0.0, 10.000769, 9.998969 
5.7503957e+2, 1.947448e+2, -940641.44, -1100704.9, 26520.44, -0.03952375, -0.21217024, -936361.8, 95125.03, 0.0, 10.001065, 9.9989605 
5.7503295e+2, 2.047439e+2, -833169.06, -1020795.2, -26695.455, -0.047934137, -0.1815845, -829444.75, 104051.36, 0.0, 10.00123, 9.99876 
5.75026e+2, 2.1474402e+2, -740410.5, -924678.2, -10749.432, -0.06801396, -0.07412938, -739785.5, 95712.54, 0.0, 10.001196, 9.998761 
5.750198e+2, 2.2474334e+2, -680775.8, -852177.94, 3014.142, -0.0352912, -0.012694465, -680722.8, 56783.516, 0.0, 10.000951, 9.998707 
5.750145e+2, 2.3474143e+2, -668310.5, -795605.6, 31350.898, 0.05696892, -0.102822386, -661008.1, -21483.703, 0.0, 10.000362, 9.998707 
5.7500833e+2, 2.4473982e+2, -575403.56, -696409.2, 34119.457, 0.06273934, -0.13178909, -566446.1, -24906.104, 0.0, 10.0003195, 9.998735 
5.750013e+2, 2.5473824e+2, -409549.84, -569928.56, 48756.516, -0.045073267, -0.19299367, -395890.75, 47664.637, 0.0, 10.0007925, 9.998708 
5.7499427e+2, 2.6473767e+2, -303149.16, -371154.47, -4880.191, -0.08366175, -0.15669988, -302800.72, 42759.406, 0.0, 10.00044, 9.999566 
5.7498735e+2, 2.7473798e+2, -422290.34, -371956.16, 26108.791, -0.041872602, -0.118610434, -360859.63, -113303.984, 0.0, 9.99892, 9.99962 
5.749808e+2, 2.847377e+2, -444136.72, -429540.66, 53811.168, -0.006161661, -0.06285196, -382534.88, -232976.23, 0.0000006054728, 9.99852, 9.998747 
5.749742e+2, 2.9473653e+2, -236869.23, -294045.25, 51971.465, -0.029569646, -0.08722017, -206141.92, -154569.69, 0.000009307056, 9.999319, 9.99862 
5.749645e+2, 3.047346e+2, -141939.92, -169324.77, -58969.668, -0.19812071, -0.15284538, -95093.89, -95093.89, 0.000040671366, 9.9994335, 9.999094 
5.749608e+2, 3.1473345e+2, -168376.56, 57971.637, 103202.33, 0.29716295, -0.2214109, 97961.164, 97961.164, 0.000103750725, 9.998159, 10.001261 
5.8509463e+2, 1.2475886e+2, -1697606.6, -1792961.8, 199944.52, -0.12159898, -0.13778856, -1539733.9, 177612.5, 0.000008007214, 10.000423, 9.99923 
5.85088e+2, 1.3475843e+2, -1367398.0, -1593172.9, -57159.42, 0.23754095, -0.14245297, -1353751.8, 265600.88, 0.0000012151539, 10.002051, 9.999184 
5.85075e+2, 1.447578e+2, -1263392.6, -1560739.9, 56787.004, -0.27152947, -0.075770564, -1252916.6, 268444.9, 0.000000012980553, 10.002444, 9.998494 
5.8506864e+2, 1.5475711e+2, -1240029.3, -1497678.9, 17884.102, -0.11559052, -0.036820445, -1238793.9, 184578.64, 0.0, 10.001927, 9.998505 
5.8506125e+2, 1.6475633e+2, -1076968.6, -1218246.3, 49557.42, -0.05511467, -0.027556354, -1061318.5, 264061.16, 0.0, 10.001706, 9.999874 
5.850538e+2, 1.747553e+2, -965267.0, -1110125.9, 41483.133, -0.045302276, -0.15005396, -954228.6, 273155.4, 0.0, 10.001786, 9.999904 
5.850471e+2, 1.8475425e+2, -969655.94, -1216250.8, 109445.98, -0.021102892, -0.17215598, -928087.7, 201304.45, 0.0, 10.001749, 9.998524 
5.850414e+2, 1.9475281e+2, -906145.06, -1142122.5, 99197.664, 0.017285436, -0.19205464, -869986.06, 161422.02, 0.0, 10.001534, 9.9984665 
5.8503467e+2, 2.0475191e+2, -825642.5, -1032515.25, 79928.89, -0.0005368407, -0.13319214, -798358.94, 135060.25, 0.0, 10.0013485, 9.998617 
5.85027e+2, 2.147514e+2, -747728.0, -947298.25, 54970.215, -0.08266823, -0.076484926, -733588.56, 101838.29, 0.0, 10.001215, 9.9986 
5.850205e+2, 2.2475061e+2, -662963.2, -820856.5, 65846.86, -0.053716727, -0.02379627, -639107.2, 98328.14, 0.0, 10.000994, 9.998903 
5.8501524e+2, 2.3474926e+2, -607450.4, -747933.75, 50181.31, 0.095606565, -0.07650357, -591366.75, 48080.64, 0.0, 10.000705, 9.998878 
5.8500916e+2, 2.4474758e+2, -539321.94, -646686.1, 104462.31, 0.11296831, -0.1341017, -475555.56, 65906.305, 0.0, 10.000419, 9.999025 
5.850019e+2, 2.547453e+2, -468651.38, -563698.6, 116135.21, -0.024844289, -0.29510438, -390692.4, 52788.47, 0.0, 10.000236, 9.999012 
5.8499444e+2, 2.6474467e+2, -351024.88, -407701.97, 49840.254, -0.08900472, -0.27661228, -322029.97, 23456.045, 0.0, 10.000193, 9.999426 
5.8498687e+2, 2.7474555e+2, -217025.89, -289378.5, 1610.1271, -0.046743587, -0.1626519, -216990.08, 30487.918, 0.0, 10.000423, 9.999456 
5.849804e+2, 2.847455e+2, -193580.84, -320623.1, 58126.41, 0.020981517, -0.06646028, -170999.63, -21520.541, 0.00000055145284, 10.000289, 9.998639 
5.8497465e+2, 2.947442e+2, -203401.3, -288787.78, 38576.18, 0.0860463, -0.09846468, -188554.69, -137061.31, 0.000008783807, 9.999598, 9.998517 
5.8496416e+2, 3.047414e+2, -156119.7, -195461.45, -59360.285, -0.16551077, -0.2347915, -113255.9, -113255.9, 0.000039667964, 9.999411, 9.998918 
5.849593e+2, 3.147402e+2, -19812.008, 91068.42, 2146.9243, 0.286438, -0.29917493, 91109.98, 91109.98, 0.00010388018, 9.999339, 10.000909 
5.95095e+2, 1.24766275e+2, -1691789.0, -1784233.8, 91837.15, -0.20028508, -0.22131492, -1635198.1, 82072.47, 0.0000033727015, 10.000463, 9.999259 
5.950905e+2, 1.3476615e+2, -1378676.6, -1614092.9, 9802.744, 0.25592065, -0.1832903, -1378269.1, 241006.47, 0.00000044999516, 10.0020485, 9.999041 
5.9507734e+2, 1.4476551e+2, -1242524.8, -1508046.8, 19418.799, -0.3202832, -0.12939233, -1241112.1, 280172.03, 0.000000014541682, 10.002405, 9.99887 
5.9507143e+2, 1.5476492e+2, -1220034.6, -1450991.9, 10650.635, -0.06301971, -0.118917204, -1219544.5, 203746.7, 0.0, 10.001903, 9.99884 
5.9506357e+2, 1.6476427e+2, -1083690.5, -1217597.4, 37993.625, -0.029034408, -0.11430949, -1073661.6, 251634.78, 0.0, 10.001655, 9.999898 
5.9505445e+2, 1.747632e+2, -971063.2, -1108133.4, 56627.582, -0.19004989, -0.24325323, -950695.25, 276607.7, 0.0, 10.001733, 9.99994 
5.950476e+2, 1.847625e+2, -977137.1, -1215562.6, 86757.57, -0.17624104, -0.23512429, -948909.8, 180398.97, 0.0, 10.001677, 9.998565 
5.950433e+2, 1.9476199e+2, -920965.56, -1144373.4, 102992.26, 0.029356025, -0.16715571, -880731.44, 150584.27, 0.0, 10.001416, 9.998506 
5.95037e+2, 2.04761e+2, -867414.4, -1088156.3, 62556.26, 0.06884077, -0.10254525, -850919.1, 82408.56, 0.0, 10.001211, 9.998302 
5.9502864e+2, 2.1475919e+2, -792968.06, -1005119.6, 63348.86, -0.06781693, -0.14438571, -775491.6, 59856.51, 0.0, 10.001061, 9.998276 
5.950216e+2, 2.2475801e+2, -682810.6, -838586.1, 40778.313, -0.06790913, -0.110767655, -672781.5, 64579.45, 0.0, 10.00088, 9.998843 
5.95016e+2, 2.3475729e+2, -633449.3, -768597.25, 52723.066, 0.07278257, -0.09442229, -615314.7, 24053.46, 0.0, 10.000554, 9.998814 
5.950096e+2, 2.4475631e+2, -511206.8, -567490.1, 85190.51, 0.0902334, -0.10703461, -449630.16, 91744.78, 0.0, 10.000322, 9.9996195 
5.950023e+2, 2.5475487e+2, -440143.1, -478132.25, 119791.42, -0.034426756, -0.2473933, -337849.7, 105533.25, 0.0, 10.000121, 9.999655 
5.94995e+2, 2.6475412e+2, -415218.44, -529473.75, 43843.08, -0.078814924, -0.23568667, -400333.7, -54944.11, 0.0, 10.00014, 9.998619 
5.949878e+2, 2.7475375e+2, -289654.72, -423856.8, 25710.55, -0.02808692, -0.15756197, -284897.7, -37500.168, 0.0, 10.00035, 9.998573 
5.949814e+2, 2.84753e+2, -202397.84, -325226.5, 21529.52, 0.059365813, -0.09092021, -198733.45, -49326.375, 0.0000003359344, 10.000235, 9.998631 
5.949752e+2, 2.9475144e+2, -213149.83, -282976.6, 28585.982, 0.13360265, -0.14837717, -202940.02, -151518.83, 0.000006914508, 9.9994955, 9.998601 
5.9496313e+2, 3.0474898e+2, -183027.84, -245687.33, -67694.39, -0.24063884, -0.24312486, -139764.8, -139764.8, 0.000035638073, 9.999376, 9.998593 
5.949566e+2, 3.1474853e+2, -83857.66, -31441.377, -7051.742, 0.0018972006, -0.1905177, -30509.258, -30509.258, 0.00009897654, 9.999292, 10.00009 
6.050962e+2, 1.2477411e+2, -1593263.1, -1725609.6, 2664.9949, -0.14467852, -0.20581554, -1593209.5, 123985.07, 0.0000011596172, 10.001086, 9.99937 
6.050926e+2, 1.3477394e+2, -1403753.8, -1597091.8, 12471.71, 0.2794499, -0.18919381, -1402952.6, 216247.13, 0.00000014603442, 10.00178, 9.99927 
6.050794e+2, 1.4477336e+2, -1284834.5, -1456162.6, 19181.488, -0.31421137, -0.17410836, -1282713.3, 238492.83, 0.0000000031309833, 10.001776, 9.999552 
6.0507286e+2, 1.5477319e+2, -1245863.6, -1385744.4, 1363.1561, -0.07567455, -0.18648882, -1245850.4, 177355.2, 0.0, 10.001375, 9.999557 
6.0506487e+2, 1.647728e+2, -1228080.9, -1375234.0, 55107.965, -0.022706212, -0.1561544, -1209731.4, 115477.68, 0.0, 10.001022, 9.999129 
6.0505617e+2, 1.7477179e+2, -1179918.8, -1299546.6, -11028.155, -0.12892155, -0.20034637, -1178910.5, 48309.945, 0.0, 10.000674, 9.999143 
6.0504925e+2, 1.8477108e+2, -1089103.5, -1208385.6, 37516.777, -0.11527386, -0.17755787, -1078284.9, 50942.805, 0.0, 10.000665, 9.999092 
6.0504436e+2, 1.9477049e+2, -936151.0, -1086136.4, 64975.168, 0.025982352, -0.1735866, -911918.3, 119313.93, 0.0, 10.001044, 9.999081 
6.050382e+2, 2.0476954e+2, -818557.75, -1048565.7, 89995.41, 0.06509891, -0.14146477, -787530.6, 145711.19, 0.0, 10.00148, 9.998453 
6.050307e+2, 2.1476781e+2, -660132.3, -927472.06, 98986.38, -0.0014622788, -0.18522805, -627471.4, 207789.06, 0.0, 10.001911, 9.998407 
6.0502356e+2, 2.2476658e+2, -561352.75, -804545.1, 91821.01, 0.0027397538, -0.15201442, -530578.56, 206695.5, 0.0, 10.00183, 9.998606 
6.050168e+2, 2.3476568e+2, -553516.56, -750719.3, 63403.66, 0.08016322, -0.13068767, -534890.56, 104393.93, 0.0, 10.001212, 9.9986 
6.050101e+2, 2.4476498e+2, -449097.06, -523345.06, 106664.22, 0.09077404, -0.11113338, -373281.03, 168008.63, 0.0, 10.000718, 9.999722 
6.050031e+2, 2.5476423e+2, -390648.1, -443329.6, 76383.695, 0.025337448, -0.19121589, -336190.9, 107100.53, 0.0, 10.00043, 9.999742 
6.049958e+2, 2.6476344e+2, -412481.84, -530511.75, 40078.438, -0.011020378, -0.18199246, -400159.25, -54861.242, 0.0, 10.000158, 9.998609 
6.0498816e+2, 2.7476236e+2, -362212.97, -460396.66, 58612.21, 0.0039823186, -0.17742452, -334849.6, -87536.93, 0.0, 9.999843, 9.99857 
6.049815e+2, 2.8476137e+2, -260754.86, -314376.78, 119126.875, 0.08552188, -0.14658508, -165459.14, -16136.099, 0.00000016006682, 9.999675, 9.998975 
6.049754e+2, 2.9476035e+2, -154182.56, -213609.64, 124101.23, 0.20458575, -0.18620946, -56287.285, -4956.765, 0.0000052467194, 9.999721, 9.998975 
6.049632e+2, 3.047584e+2, -117449.1, -252475.42, 82662.88, -0.18940625, -0.23458277, -78232.79, -78232.79, 0.000031333126, 10.00001, 9.9982395 
6.049561e+2, 3.147577e+2, -2148.3362, -48031.06, 36987.0, -0.0033649348, -0.15979825, 18434.365, 18434.365, 0.00009226463, 10.000088, 9.99961 
6.150971e+2, 1.24782294e+2, -1567461.5, -1664756.9, -128672.91, -0.22321187, -0.10125949, -1478547.1, 238571.98, 0.000000319301, 10.001069, 9.999786 
6.150937e+2, 1.347818e+2, -1375255.9, -1535901.6, 50435.9, 0.18249321, -0.15958259, -1360733.9, 258391.14, 0.000000018009526, 10.001778, 9.99969 
6.1508083e+2, 1.447813e+2, -1215923.1, -1314347.5, -17320.016, -0.39343458, -0.20527859, -1212964.1, 308163.38, 0.0, 10.001777, 10.000524 
6.1507255e+2, 1.5478183e+2, -1173603.0, -1243243.0, -3557.144, -0.271516, -0.2475153, -1173421.9, 249694.52, 0.0, 10.00139, 10.000534 
6.1506486e+2, 1.6478184e+2, -1339979.9, -1594441.6, 28052.426, -0.1535337, -0.15449965, -1336924.0, -11805.738, 0.0, 10.000973, 9.997649 
6.150586e+2, 1.7478102e+2, -1293679.3, -1532795.8, -9981.4, 0.019561747, -0.025117163, -1293263.4, -66126.57, 0.0, 10.000656, 9.997555 
6.1505175e+2, 1.8477999e+2, -1030514.6, -1067926.6, 40114.492, 0.038449645, -0.0029898859, -1004959.06, 124189.7, 0.0, 10.000586, 10.000092 
6.1504436e+2, 1.9477846e+2, -875727.06, -943924.06, 94259.734, -0.10562956, -0.19884808, -809587.8, 221568.27, 0.0, 10.000967, 10.000096 
6.1503804e+2, 2.0477763e+2, -794231.44, -968566.9, 93242.695, -0.12601292, -0.23450433, -753757.44, 179402.73, 0.0, 10.001354, 9.999063 
6.1503285e+2, 2.1477726e+2, -642476.94, -854381.2, 127619.67, -0.0032162615, -0.20305477, -582559.75, 252604.0, 0.0, 10.001751, 9.998989 
6.15026e+2, 2.2477633e+2, -613399.8, -874666.94, 59409.496, 0.03727449, -0.1520856, -600525.1, 136649.55, 0.0, 10.00167, 9.998199 
6.150175e+2, 2.3477453e+2, -608708.94, -824652.7, 53527.195, -0.008422311, -0.17732276, -596169.0, 43026.523, 0.0, 10.00104, 9.998174 
6.150101e+2, 2.4477361e+2, -490986.3, -591072.44, 80228.125, -0.008899742, -0.13999645, -446473.25, 94732.52, 0.0, 10.000628, 9.999303 
6.150038e+2, 2.5477332e+2, -435365.94, -517151.88, 77260.914, 0.025714925, -0.13051648, -388843.34, 54363.33, 0.0, 10.00034, 9.999283 
6.1499625e+2, 2.647727e+2, -366317.78, -420499.3, 15913.644, -0.005360621, -0.121320486, -361989.53, -16778.143, 0.0, 10.000097, 9.9993925 
6.149873e+2, 2.747714e+2, -322082.28, -348208.03, 61418.117, -0.09310333, -0.22329763, -272353.25, -25130.19, 0.0, 9.999723, 9.999394 
6.1498034e+2, 2.8477085e+2, -218410.6, -218431.89, 107392.8, -0.02715831, -0.22496462, -111028.445, 38197.625, 0.00000012615395, 9.999633, 9.999654 
6.1497486e+2, 2.9477113e+2, -114656.61, -114790.87, 144997.27, 0.1392045, -0.20492692, 30273.549, 81493.3, 0.000004351736, 9.999653, 9.99968 
6.1496407e+2, 3.047697e+2, -153766.19, -330974.1, 79475.61, -0.13937607, -0.2126244, -123344.8, -123344.8, 0.000027327982, 10.000014, 9.997712 
6.1495703e+2, 3.1476802e+2, -30814.455, -85676.91, 36128.92, 0.012048879, -0.17566794, -12883.018, -12883.018, 0.00008384043, 9.999995, 9.999401 
6.250977e+2, 1.24790825e+2, -1685050.5, -1708428.8, -55832.348, -0.20794544, -0.11738123, -1639696.8, 77338.14, 0.00000004128188, 10.000179, 9.999937 
6.2509465e+2, 1.3479061e+2, -1526324.3, -1581608.3, 141499.06, 0.1721732, -0.16813624, -1409792.5, 209244.44, 0.000000000001578113, 10.000603, 9.999959 
6.250834e+2, 1.4479023e+2, -1401800.0, -1441309.3, 37593.457, -0.24379872, -0.19759825, -1379086.9, 141951.72, 0.0, 10.000657, 10.000197 
6.2507415e+2, 1.547907e+2, -1262658.6, -1311868.9, -66012.8, -0.21975079, -0.21814679, -1216814.5, 206215.42, 0.0, 10.0009165, 10.0002775 
6.250663e+2, 1.6479047e+2, -1258145.5, -1531514.5, 16537.959, -0.12884821, -0.1446491, -1257148.6, 67885.23, 0.0, 10.001456, 9.997837 
6.250608e+2, 1.7478926e+2, -1058732.5, -1388697.8, 72192.586, 0.10170769, -0.073661745, -1043628.9, 183425.1, 0.0, 10.002178, 9.997792 
6.2505376e+2, 1.8478824e+2, -837743.5, -1020874.1, 145440.86, 0.11711231, -0.043454383, -757444.75, 371621.4, 0.0, 10.002072, 9.999713 
6.2504524e+2, 1.9478709e+2, -904848.2, -996786.9, 72540.234, -0.1064018, -0.1673391, -864938.1, 166134.72, 0.0, 10.000918, 9.999759 
6.2503856e+2, 2.0478646e+2, -901996.9, -980004.75, 61666.387, -0.15330584, -0.18207482, -868034.75, 65040.957, 0.0, 10.000433, 9.999433 
6.2503403e+2, 2.1478614e+2, -771357.75, -865149.44, 56300.21, 0.008293357, -0.18571806, -744980.6, 90096.78, 0.0, 10.000652, 9.99944 
6.250274e+2, 2.2478539e+2, -702529.0, -866595.9, 15570.009, 0.06162485, -0.16261889, -701064.5, 36020.504, 0.0, 10.00083, 9.998668 
6.2501854e+2, 2.3478389e+2, -588907.3, -767639.1, 54197.336, 0.011242983, -0.20329143, -573757.1, 65344.68, 0.0, 10.000953, 9.998624 
6.2501097e+2, 2.4478312e+2, -481141.3, -620782.5, 144819.67, 0.015018369, -0.15650675, -390189.84, 150921.28, 0.0, 10.000828, 9.999012 
6.250047e+2, 2.5478292e+2, -428017.16, -545272.8, 123943.266, 0.069567494, -0.10824201, -349534.97, 93579.445, 0.0, 10.000523, 9.999004 
6.249967e+2, 2.6478225e+2, -334653.03, -362734.63, 68902.01, 0.034658447, -0.10620285, -278375.78, 66743.68, 0.0, 10.000129, 9.99977 
6.2498707e+2, 2.7478072e+2, -315783.63, -304399.16, 52303.17, -0.07528726, -0.26817647, -257479.39, -10349.329, 0.0, 9.999578, 9.999767 
6.249799e+2, 2.847804e+2, -235317.92, -238096.5, 111992.18, -0.023776766, -0.26087654, -124706.414, 24424.25, 0.000000116905284, 9.999565, 9.999558 
6.2497485e+2, 2.9478133e+2, -50562.266, -104249.93, 60027.113, 0.15741234, -0.16132882, -11650.144, 39470.773, 0.000004287332, 10.000158, 9.999527 
6.249649e+2, 3.0477962e+2, -88381.19, -274614.28, 367.7715, -0.057333466, -0.19556881, -88380.46, -88380.46, 0.000025852014, 10.0003805, 9.997907 
6.2495756e+2, 3.1477794e+2, -32425.387, -68142.63, -69579.12, 0.09172102, -0.18429357, 21550.41, 21550.41, 0.00007870898, 9.999919, 9.999549 
6.35097e+2, 1.2479949e+2, -1674224.5, -1704737.8, -148888.31, -0.36446625, -0.2532199, -1539813.3, 177131.13, 0.000000010756334, 10.000256, 9.999928 
6.3509506e+2, 1.3480014e+2, -1520069.8, -1578569.4, 155694.81, 0.12080655, -0.22089596, -1390901.0, 228037.03, 0.0, 10.000633, 9.999974 
6.3508683e+2, 1.4480011e+2, -1503326.3, -1640242.1, 26416.14, 0.0013030535, -0.15069173, -1498406.4, 22533.463, 0.0, 10.000615, 9.998848 
6.3507724e+2, 1.5479977e+2, -1361178.1, -1521522.8, -38222.973, -0.040115252, -0.10865674, -1352532.6, 70413.28, 0.0, 10.000934, 9.998834 
6.3506866e+2, 1.6479862e+2, -1139479.4, -1279130.5, 29790.736, -0.06831308, -0.14112702, -1133389.9, 191566.69, 0.0, 10.001426, 9.999584 
6.3506234e+2, 1.7479636e+2, -934670.44, -1131492.8, 111915.055, 0.0059489296, -0.35472578, -884052.3, 342921.66, 0.0, 10.002163, 9.999576 
6.35055e+2, 1.847956e+2, -964567.0, -1260121.9, 89197.055, 0.004004814, -0.30881467, -939734.25, 189248.22, 0.0, 10.001979, 9.99811 
6.350465e+2, 1.9479619e+2, -1038760.25, -1251713.1, 39534.09, -0.10219014, -0.090890214, -1031657.75, -673.47577, 0.0, 10.00082, 9.998055 
6.350394e+2, 2.0479591e+2, -912605.2, -966949.44, 56380.684, -0.13593826, 0.0073992205, -877190.5, 55799.04, 0.0, 10.000283, 9.999591 
6.3503397e+2, 2.1479441e+2, -783320.8, -848005.8, 79090.164, -0.089165725, -0.13472497, -730215.7, 104785.81, 0.0, 10.00047, 9.999644 
6.3502747e+2, 2.2479376e+2, -631938.94, -680647.25, 8311.727, -0.038719706, -0.17869411, -630559.7, 106445.664, 0.0, 10.000664, 10.000022 
6.350198e+2, 2.3479372e+2, -517497.84, -580419.75, 74173.58, 0.014510443, -0.21480243, -468388.9, 170614.42, 0.0, 10.000788, 9.999988 
6.350123e+2, 2.4479355e+2, -511255.56, -658770.25, 123207.664, 0.03860656, -0.16599885, -441415.3, 99590.15, 0.0, 10.000728, 9.9987955 
6.3500506e+2, 2.5479305e+2, -464282.4, -591116.75, 124950.945, 0.029070381, -0.123954915, -387576.5, 55437.805, 0.0, 10.0004, 9.998748 
6.349967e+2, 2.6479217e+2, -349865.3, -376701.44, 34065.164, -0.00472876, -0.12801172, -326670.8, 18351.328, 0.0, 10.000056, 9.999707 
6.3498706e+2, 2.7479053e+2, -336277.66, -320960.28, 45958.35, -0.06677804, -0.29971573, -282026.88, -34994.113, 0.0, 9.999473, 9.9997015 
6.349798e+2, 2.8479013e+2, -301143.4, -364590.66, 117892.0, -0.023946457, -0.253598, -210781.36, -61744.926, 0.0000001448745, 9.999525, 9.998712 
6.3497484e+2, 2.9479107e+2, -134405.75, -246737.9, 102261.88, 0.103201345, -0.059544392, -73900.83, -22867.936, 0.000005079309, 10.00004, 9.998601 
6.349653e+2, 3.0478853e+2, -34609.473, -171246.27, -20504.615, -0.09200322, -0.16354066, -31598.756, -31598.756, 0.000027855136, 10.000387, 9.998627 
6.3495684e+2, 3.1478733e+2, -27246.535, -37533.043, -54977.42, -0.045411985, -0.1931534, 22827.69, 22827.69, 0.00008149468, 9.999822, 9.999811 
6.4509827e+2, 1.24808505e+2, -1559350.4, -1674262.8, -159256.25, -0.30126944, -0.28951943, -1447502.8, 269352.1, 0.0000000047013002, 10.001163, 9.999693 
6.4509505e+2, 1.3480914e+2, -1422657.9, -1556934.4, 80856.92, 0.02663004, -0.23257983, -1384699.1, 234149.77, 0.0, 10.001448, 9.999707 
6.450888e+2, 1.4480919e+2, -1385278.5, -1600028.5, 13017.61, 0.09993777, -0.13291423, -1384492.4, 136357.97, 0.0, 10.0015, 9.998695 
6.450792e+2, 1.5480834e+2, -1275747.4, -1495188.5, 9091.025, 0.046149198, -0.12830952, -1275371.4, 147490.94, 0.0, 10.001582, 9.9987 
6.450705e+2, 1.6480707e+2, -1118158.3, -1251794.1, 97700.34, -0.022629622, -0.17155011, -1066612.4, 258261.14, 0.0, 10.001485, 9.999753 
6.4506364e+2, 1.7480521e+2, -1064461.1, -1170739.0, 38709.12, -0.017163364, -0.3643206, -1051857.1, 175027.88, 0.0, 10.001166, 9.999788 
6.450563e+2, 1.8480453e+2, -1084016.3, -1332807.1, 14731.274, -0.015621765, -0.3160606, -1083147.0, 45745.438, 0.0, 10.001225, 9.9979725 
6.450483e+2, 1.948048e+2, -933245.75, -1213130.8, 49867.047, -0.031150203, -0.11317473, -924626.4, 106272.26, 0.0, 10.001613, 9.997932 
6.450409e+2, 2.0480452e+2, -753088.3, -863145.56, 150122.84, -0.048768558, -0.022906395, -648226.3, 284678.22, 0.0, 10.001264, 9.999828 
6.450345e+2, 2.1480328e+2, -832891.4, -847158.2, 147169.34, -0.054969255, -0.16433208, -692682.6, 142230.84, 0.0, 10.000024, 9.999864 
6.450276e+2, 2.24803e+2, -760739.2, -713100.25, 96905.68, -0.029614707, -0.19569638, -637129.56, 99784.05, 0.0, 9.999627, 10.000304 
6.4502037e+2, 2.3480347e+2, -585748.94, -576519.2, 52186.42, 0.039150003, -0.21325164, -528744.0, 110162.94, 0.0, 10.000148, 10.000319 
6.4501303e+2, 2.4480355e+2, -552086.9, -669577.1, 81773.664, 0.0614864, -0.16090167, -510144.78, 30762.152, 0.0, 10.000422, 9.998873 
6.4500564e+2, 2.5480294e+2, -449698.34, -572708.9, 87567.734, 0.04662446, -0.13296014, -404194.22, 38722.24, 0.0, 10.000458, 9.998847 
6.449971e+2, 2.6480204e+2, -322575.06, -397656.44, 22809.043, 0.025691291, -0.13195103, -316189.06, 28736.475, 0.0, 10.000395, 9.9994 
6.449877e+2, 2.7480042e+2, -238333.44, -311186.9, -17897.662, 0.021936757, -0.26375225, -234174.05, 12763.254, 0.000000000000000000046744374, 10.000306, 9.999373 
6.449803e+2, 2.848e+2, -227883.9, -340256.4, 112929.83, 0.05486051, -0.19948015, -157935.14, -8992.542, 0.00000034821963, 10.000075, 9.998607 
6.449745e+2, 2.9480067e+2, -209816.39, -298610.9, 124949.23, 0.10442526, -0.026877422, -121611.14, -70668.03, 0.0000068469953, 9.999581, 9.998461 
6.449656e+2, 3.0479848e+2, -70151.195, -106263.82, 76269.77, -0.0607931, -0.11931381, -9829.523, -9829.523, 0.00003364889, 9.999816, 9.999323 
6.449577e+2, 3.14798e+2, 122218.91, 54957.766, -30523.77, 0.027795188, -0.15189935, 134005.47, 134005.47, 0.000093661416, 10.000771, 9.99997 
6.551003e+2, 1.2481779e+2, -1582102.6, -1724109.8, -161881.06, -0.27420616, -0.24477348, -1476338.0, 240429.1, 0.000000001405694, 10.001177, 9.99934 
6.550941e+2, 1.3481769e+2, -1455105.0, -1628997.3, 97373.89, -0.2427817, -0.20802897, -1411508.9, 207259.67, 0.0, 10.00147, 9.999196 
6.55089e+2, 1.4481755e+2, -1324752.9, -1466983.9, -1878.3158, -0.06287865, -0.14793855, -1324728.1, 196041.17, 0.0, 10.001467, 9.99963 
6.550799e+2, 1.5481636e+2, -1212869.4, -1360149.6, 25341.438, -0.081349514, -0.27202386, -1208631.0, 214148.39, 0.0, 10.0015545, 9.999648 
6.550713e+2, 1.6481577e+2, -1213739.9, -1435973.1, 70733.99, -0.11935959, -0.23404129, -1193136.4, 131649.02, 0.0, 10.001426, 9.998512 
6.550643e+2, 1.7481574e+2, -1158424.9, -1361045.9, 39976.02, -0.100638315, -0.11508009, -1150823.0, 75964.49, 0.0, 10.001147, 9.998487 
6.5505743e+2, 1.8481497e+2, -1003799.4, -1146982.9, 15649.792, -0.058174647, -0.07431428, -1002108.9, 126687.28, 0.0, 10.001145, 9.999286 
6.550504e+2, 1.9481301e+2, -851446.75, -1017667.56, 79586.38, -0.014919196, -0.23277655, -819486.1, 211329.1, 0.0, 10.001506, 9.999325 
6.550429e+2, 2.0481229e+2, -754983.1, -834685.06, 90152.48, -0.002393099, -0.2686679, -696266.5, 236554.25, 0.0, 10.001122, 10.000096 
6.5503514e+2, 2.148126e+2, -839139.06, -820467.06, 112365.695, -0.017201882, -0.27745736, -717050.2, 117764.28, 0.0, 9.999857, 10.000128 
6.550275e+2, 2.2481301e+2, -838162.44, -835654.6, 102099.68, -0.025384534, -0.21672176, -734801.2, 2009.3683, 0.0, 9.999468, 9.9995365 
6.5502e+2, 2.3481317e+2, -666043.3, -703485.56, 83785.05, -0.040662333, -0.18671808, -598913.3, 39899.19, 0.0, 9.999983, 9.999523 
6.550127e+2, 2.4481311e+2, -537031.25, -612400.1, 68306.21, -0.033627845, -0.12851898, -496703.78, 44111.51, 0.0, 10.000313, 9.999315 
6.550058e+2, 2.548126e+2, -434850.06, -511390.1, 103113.4, -0.009740939, -0.14145032, -363133.88, 79687.28, 0.0, 10.000335, 9.999323 
6.549977e+2, 2.6481187e+2, -369869.53, -489474.5, 6143.148, 0.0092542125, -0.11817566, -369554.84, -24725.668, 0.0, 10.000357, 9.998792 
6.549886e+2, 2.7481058e+2, -290675.7, -409026.22, -3272.5825, 0.043365516, -0.15294646, -290585.28, -43743.113, 0.0000000002377775, 10.000247, 9.998734 
6.549807e+2, 2.8481016e+2, -191227.48, -246049.31, 82178.96, 0.05903151, -0.08837611, -132008.5, 16839.104, 0.0000008000927, 10.00001, 9.999278 
6.549736e+2, 2.948102e+2, -179829.4, -204347.05, 122411.98, 0.011861513, -0.04943809, -69063.96, -18214.414, 0.000010270006, 9.999457, 9.999162 
6.5496534e+2, 3.0480963e+2, -27781.91, -23057.408, 103768.56, -0.100464314, -0.048810497, 78375.79, 78375.79, 0.00004390313, 9.999821, 9.999902 
6.5495956e+2, 3.1480965e+2, 120054.74, 59270.773, 54559.69, 0.05839091, -0.08192496, 152116.2, 152116.2, 0.00011355634, 10.000728, 10.000025 
6.651027e+2, 1.2482802e+2, -1505924.6, -1686071.4, -48807.7, -0.16293338, -0.16306609, -1493550.9, 223117.6, 0.00000000035571668, 10.001693, 9.9993515 
6.650945e+2, 1.3482688e+2, -1593549.8, -1724098.3, 133221.83, -0.29335976, -0.21052575, -1510470.4, 108207.64, 0.0, 10.000621, 9.998969 
6.6509026e+2, 1.4482625e+2, -1512426.3, -1561145.8, 74837.164, -0.01422464, -0.18883288, -1458084.0, 62598.996, 0.0, 10.000197, 9.999592 
6.650811e+2, 1.5482526e+2, -1291268.6, -1399577.8, 1024.2737, -0.08526051, -0.2928931, -1291259.0, 131432.23, 0.0, 10.001034, 9.99962 
6.650725e+2, 1.648248e+2, -1216378.3, -1464974.5, 57571.902, -0.13865411, -0.22831093, -1203692.6, 121004.195, 0.0, 10.001537, 9.998258 
6.6506565e+2, 1.7482473e+2, -1116717.4, -1369012.6, 72808.2, -0.08884646, -0.08756812, -1097213.9, 129487.6, 0.0, 10.001556, 9.998234 
6.6505873e+2, 1.848239e+2, -986499.4, -1099878.9, 72316.09, -0.034365337, -0.05728683, -951301.44, 177409.19, 0.0, 10.001108, 9.999625 
6.650513e+2, 1.9482186e+2, -1030623.4, -1069851.4, 32004.848, -0.00037321224, -0.2567109, -1012700.5, 18027.762, 0.0, 10.000121, 9.999638 
6.650437e+2, 2.0482123e+2, -922274.3, -915345.06, 21134.031, 0.03130289, -0.3001154, -897393.56, 35338.465, 0.0, 9.999969, 10.000103 
6.650362e+2, 2.1482186e+2, -723605.25, -767256.56, -3561.068, 0.07530392, -0.2777879, -723316.6, 111406.68, 0.0, 10.000652, 10.000116 
6.6502845e+2, 2.2482228e+2, -660904.0, -779353.06, 32224.52, 0.055081137, -0.20053962, -652704.75, 84015.41, 0.0, 10.000827, 9.999269 
6.6502017e+2, 2.3482224e+2, -618882.9, -713100.7, 27668.232, -0.041947555, -0.15789068, -611358.6, 27366.965, 0.0, 10.000458, 9.999231 
6.650128e+2, 2.4482198e+2, -520288.03, -584016.8, 47004.414, -0.059115916, -0.11637681, -495365.5, 45364.855, 0.0, 10.000312, 9.99952 
6.650062e+2, 2.548212e+2, -424000.72, -486607.94, 30024.574, 0.014169529, -0.17744507, -411929.3, 30807.508, 0.0, 10.000293, 9.999525 
6.649983e+2, 2.6482064e+2, -360389.25, -486351.34, -25480.262, 0.04031989, -0.14397302, -355430.22, -10687.737, 0.0, 10.000423, 9.998785 
6.6498893e+2, 2.7482012e+2, -216808.72, -368180.8, -15839.776, 0.036295444, -0.101529, -215168.98, 31580.014, 0.0000000023427176, 10.000748, 9.998764 
6.649808e+2, 2.848195e+2, -102505.836, -202300.13, 76634.44, 0.05326641, -0.06063704, -60955.938, 87800.28, 0.0000014418595, 10.000596, 9.999308 
6.649738e+2, 2.9481828e+2, -120802.266, -166380.63, 36726.35, 0.07517145, -0.159223, -100369.09, -49600.004, 0.000014823799, 9.999814, 9.999253 
6.6496605e+2, 3.0481845e+2, -52369.36, -54258.926, 45961.22, 0.0033012182, -0.078201145, -7343.215, -7343.215, 0.000057815294, 9.999745, 9.999721 
6.649603e+2, 3.1481862e+2, 36654.65, 21916.463, -109746.664, 0.10550531, -0.072910115, 139279.34, 139279.34, 0.00014076945, 10.000136, 10.000057 
6.75105e+2, 1.2483938e+2, -1490763.0, -1650055.5, -60267.305, -0.16879356, -0.041388568, -1470531.0, 246026.36, 0.0000000023126079, 10.001682, 9.999602 
6.750958e+2, 1.348367e+2, -1589843.6, -1717176.5, 96896.664, -0.2520606, -0.2503432, -1537568.8, 81009.62, 0.0, 10.000631, 9.99901 
6.750919e+2, 1.4483531e+2, -1582967.9, -1699553.0, 86291.3, 0.09966796, -0.256605, -1537124.9, -16533.629, 0.0, 10.000167, 9.998654 
6.7508215e+2, 1.5483518e+2, -1353676.8, -1531148.9, 48551.773, -0.115371205, -0.17801154, -1341262.6, 81333.67, 0.0, 10.001045, 9.998711 
6.7507374e+2, 1.6483428e+2, -1169773.3, -1363522.4, 44514.5, -0.20286424, -0.14771904, -1160035.3, 164571.4, 0.0, 10.001511, 9.99897 
6.750675e+2, 1.7483227e+2, -1070390.9, -1262331.6, 86520.75, -0.0962145, -0.27551535, -1037147.7, 189478.17, 0.0, 10.00151, 9.998989 
6.750598e+2, 1.8483138e+2, -1042642.8, -1197353.6, 18939.117, -0.060805954, -0.25899407, -1040358.06, 88277.38, 0.0, 10.001023, 9.999001 
6.750505e+2, 1.9483143e+2, -1093042.3, -1170273.9, 7564.2393, -0.11910216, -0.18018524, -1092308.4, -61671.563, 0.0, 10.000002, 9.999005 
6.75043e+2, 2.0483144e+2, -962811.3, -972337.3, 34445.508, -0.06636988, -0.11163306, -932801.06, -164.01222, 0.0, 9.99984, 9.999779 
6.7503744e+2, 2.1483108e+2, -767520.8, -821899.3, 35092.188, 0.10362766, -0.15901795, -750317.3, 84321.78, 0.0, 10.000491, 9.99982 
6.7502993e+2, 2.2483093e+2, -670278.44, -759669.8, 5927.455, 0.10446925, -0.13457112, -669887.1, 66753.96, 0.0, 10.000658, 9.999485 
6.750204e+2, 2.3483075e+2, -628657.6, -691175.44, 29490.777, -0.087381385, -0.1292811, -616941.8, 21703.773, 0.0, 10.000279, 9.999466 
6.7501265e+2, 2.4483019e+2, -546865.3, -607154.7, 35596.99, -0.12573116, -0.12561955, -530364.0, 10287.505, 0.0, 10.000179, 9.999423 
6.7500657e+2, 2.5482887e+2, -452333.03, -515160.28, 42559.426, -0.008712377, -0.23044665, -430849.38, 11812.833, 0.0, 10.000162, 9.999392 
6.749986e+2, 2.6482856e+2, -331561.4, -403898.75, -28137.707, -0.002041152, -0.19582151, -321905.38, 22758.578, 0.0, 10.00033, 9.999394 
6.749884e+2, 2.7482906e+2, -186949.25, -284756.4, 11526.841, -0.12118574, -0.11306054, -185609.16, 61049.3, 0.0000000015372758, 10.000655, 9.999385 
6.749806e+2, 2.84828e+2, -144306.56, -280476.03, 35431.355, -0.0664657, -0.12188874, -135639.02, 13029.952, 0.0000017821444, 10.000563, 9.998784 
6.749747e+2, 2.9482496e+2, -173340.88, -249134.81, 26613.969, 0.14040208, -0.34325892, -164929.28, -114229.63, 0.000019076204, 9.999706, 9.9987335 
6.7496705e+2, 3.048249e+2, -134598.75, -211029.61, 52306.645, 0.10156373, -0.21018644, -108034.52, -108034.52, 0.000073988194, 9.999694, 9.998665 
6.7495906e+2, 3.1482488e+2, 18624.943, 17215.336, -53106.18, -0.1021066, -0.11619066, 71030.99, 71030.99, 0.00017626988, 10.000011, 10.000077 
6.8510693e+2, 1.2484782e+2, -1643983.4, -1697325.4, -64123.656, -0.06854454, -0.07596866, -1601205.3, 115268.91, 0.0000000036242784, 10.000495, 9.99986 
6.850971e+2, 1.3484558e+2, -1501460.3, -1643163.0, -21606.537, -0.20096259, -0.26333094, -1498238.9, 120251.01, 0.0, 10.001133, 9.99926 
6.8509316e+2, 1.448442e+2, -1440504.4, -1647480.8, 63232.62, 0.16385005, -0.27428666, -1422715.4, 97787.375, 0.0, 10.001207, 9.998515 
6.8508357e+2, 1.5484437e+2, -1377823.3, -1561336.8, 57560.848, -0.061423365, -0.14988874, -1361263.0, 61243.098, 0.0, 10.000948, 9.998561 
6.850752e+2, 1.6484357e+2, -1278002.0, -1394343.3, 73235.53, -0.15108913, -0.11377734, -1242645.9, 81870.75, 0.0, 10.00066, 9.999177 
6.850687e+2, 1.7484146e+2, -1234463.1, -1323411.1, 48684.457, -0.051628407, -0.27329263, -1212996.9, 13540.098, 0.0, 10.00029, 9.999168 
6.8506086e+2, 1.8484068e+2, -1105992.3, -1238038.3, 16990.496, -0.02680105, -0.24663423, -1103841.1, 24704.244, 0.0, 10.000626, 9.99891 
6.850514e+2, 1.9484101e+2, -862989.1, -1068591.1, 21995.83, -0.098512396, -0.13535795, -860662.3, 169881.63, 0.0, 10.00161, 9.998925 
6.850437e+2, 2.0484087e+2, -757194.7, -915435.25, 78791.96, -0.05085052, -0.060589466, -724653.94, 207892.44, 0.0, 10.0014715, 9.99936 
6.850379e+2, 2.1483986e+2, -842088.0, -906558.94, 42899.055, 0.12491978, -0.12686025, -820662.94, 13893.025, 0.0, 10.000207, 9.999363 
6.850304e+2, 2.2483934e+2, -791399.44, -833555.9, 37289.926, 0.13017248, -0.11087985, -769642.75, -33080.57, 0.0, 9.999874, 9.999359 
6.850211e+2, 2.3483911e+2, -606984.0, -696560.75, 8265.859, -0.045581993, -0.09907936, -606227.7, 32339.068, 0.0, 10.000471, 9.999343 
6.850134e+2, 2.4483852e+2, -488481.22, -567408.25, 23677.666, -0.076550156, -0.0963992, -481923.0, 58648.9, 0.0, 10.000542, 9.99951 
6.850072e+2, 2.5483727e+2, -445540.47, -499142.78, 21161.865, 0.041572813, -0.2021732, -438193.03, 4387.1777, 0.0, 10.000173, 9.999484 
6.8499905e+2, 2.6483682e+2, -363128.84, -410930.25, -17469.934, 0.030893823, -0.19032674, -357424.78, -12842.157, 0.0, 10.0000725, 9.999469 
6.84989e+2, 2.748369e+2, -256585.02, -311185.56, -48326.49, -0.09619114, -0.1612925, -228380.75, 18200.906, 0.00000000039754933, 10.000133, 9.999456 
6.84981e+2, 2.8483588e+2, -188193.5, -319595.66, -18082.936, -0.060370184, -0.16075715, -185750.44, -37158.65, 0.000001935021, 10.000352, 9.998609 
6.8497485e+2, 2.9483336e+2, -5899.88, -186928.38, -30853.623, 0.13849701, -0.30485454, -785.8102, 49831.35, 0.000022833043, 10.000933, 9.99857 
6.8496734e+2, 3.0483273e+2, 48638.324, -154451.27, 68261.914, 0.1061805, -0.2082306, 69449.7, 69449.7, 0.00009092674, 10.001088, 9.9983835 
6.849592e+2, 3.148322e+2, 67419.09, 70065.9, -24142.258, -0.08161466, -0.13292554, 92921.0, 92921.0, 0.00021663251, 10.000189, 10.000373 
6.951081e+2, 1.2485369e+2, -1614292.9, -1639727.1, -3336.8892, -0.07037395, -0.24763532, -1613862.4, 102553.39, 0.00000000017840025, 10.000529, 10.000228 
6.950979e+2, 1.3485369e+2, -1470168.6, -1582127.5, 11104.098, -0.26616985, -0.24738292, -1469077.9, 149333.03, 0.0, 10.001155, 9.999664 
6.9509363e+2, 1.4485288e+2, -1396396.6, -1552462.5, 37884.484, 0.054452673, -0.25816968, -1387686.4, 132731.47, 0.0, 10.001186, 9.99918 
6.950851e+2, 1.548528e+2, -1334322.3, -1475364.9, 62597.004, -0.04039581, -0.22399089, -1310548.0, 111873.58, 0.0, 10.000955, 9.999154 
6.950766e+2, 1.6485265e+2, -1306783.0, -1441003.5, 46374.754, -0.109291025, -0.13429564, -1292318.8, 32108.082, 0.0, 10.000613, 9.998874 
6.950691e+2, 1.748524e+2, -1263087.4, -1371821.1, 50881.402, -0.07701711, -0.074519366, -1242991.8, -16557.938, 0.0, 10.000245, 9.998857 
6.950615e+2, 1.8485191e+2, -1087264.1, -1175433.9, 42857.938, -0.053464223, -0.029098766, -1069865.1, 58574.57, 0.0, 10.000527, 9.999383 
6.9505364e+2, 1.9485076e+2, -848664.7, -1009427.06, 72423.266, -0.061139222, -0.11595348, -820850.4, 209598.05, 0.0, 10.001495, 9.99938 
6.9504553e+2, 2.0484957e+2, -814952.7, -1008541.4, 16890.223, -0.03937491, -0.13772735, -813490.1, 118969.234, 0.0, 10.001348, 9.998784 
6.950373e+2, 2.1484813e+2, -907277.4, -1004010.8, 7153.419, 0.019427305, -0.1862224, -906751.25, -72276.555, 0.0, 10.000043, 9.998773 
6.9502944e+2, 2.2484747e+2, -847481.06, -912650.9, 47052.035, 0.02482153, -0.13187452, -822832.5, -86348.805, 0.0, 9.999713, 9.998892 
6.950219e+2, 2.3484729e+2, -662672.25, -775016.0, 43107.6, -0.035801165, -0.06963818, -648037.75, -9548.616, 0.0, 10.000317, 9.998875 
6.9501466e+2, 2.4484706e+2, -480435.97, -527704.2, -2286.9065, -0.02961907, -0.02216482, -480325.56, 60165.01, 0.0, 10.000439, 9.999833 
6.950076e+2, 2.5484648e+2, -434922.34, -454313.5, 21811.074, 0.041049458, -0.09723661, -420748.97, 21741.596, 0.0, 10.000071, 9.999842 
6.9499946e+2, 2.648455e+2, -409563.03, -487689.88, -25555.668, 0.039629564, -0.13574539, -401946.25, -57447.715, 0.0, 9.99999, 9.9989805 
6.9499004e+2, 2.7484366e+2, -307645.78, -394284.88, -31680.594, -0.029938158, -0.24288246, -297297.44, -50779.35, 0.0000000054780975, 10.000035, 9.998932 
6.9498163e+2, 2.8484312e+2, -188061.36, -306766.75, -11419.902, -0.06322765, -0.1762532, -186972.7, -38447.684, 0.000002364329, 10.000297, 9.998719 
6.949738e+2, 2.9484355e+2, -9608.395, -173415.97, 11502.536, -0.0955933, -0.042256176, -8804.632, 41716.99, 0.000027093956, 10.000847, 9.998699 
6.949666e+2, 3.0484205e+2, 81773.35, -83460.52, 30245.271, -0.109662816, -0.0670084, 87135.586, 87135.586, 0.00010798756, 10.00107, 9.99888 
6.9496024e+2, 3.1484064e+2, 95649.19, 144014.28, -17171.57, -0.060053047, -0.12911952, 149490.77, 149490.77, 0.00025661878, 10.00012, 10.000913 
7.051094e+2, 1.24861084e+2, -1588205.3, -1664050.3, 131929.19, 0.0110305445, -0.33513668, -1488856.4, 227483.03, 0.0, 10.000837, 9.999931 
7.050989e+2, 1.3486223e+2, -1542692.0, -1631489.5, 13791.416, -0.24000178, -0.20883499, -1540599.3, 77727.555, 0.0, 10.000685, 9.999564 
7.0509386e+2, 1.448613e+2, -1502994.0, -1591616.8, 27690.158, 0.0086629875, -0.23233782, -1495053.6, 25282.398, 0.0, 10.000408, 9.999278 
7.050861e+2, 1.5486051e+2, -1375269.9, -1478282.9, -15909.64, -0.0056114923, -0.28061, -1372868.8, 49477.04, 0.0, 10.000619, 9.99928 
7.050778e+2, 1.6486052e+2, -1259206.5, -1417419.5, -7825.909, -0.05393275, -0.1798758, -1258820.4, 65528.855, 0.0, 10.000957, 9.9988575 
7.0506996e+2, 1.7486125e+2, -1115166.8, -1296619.1, -12246.829, -0.055070505, -0.021098178, -1114343.9, 112004.06, 0.0, 10.001265, 9.998866 
7.050624e+2, 1.8486093e+2, -1035383.4, -1123448.9, 1059.0459, -0.02185233, 0.027659439, -1035370.7, 92981.34, 0.0, 10.000766, 9.999626 
7.0505494e+2, 1.9485907e+2, -1134453.3, -1122305.8, -12204.758, 0.029901529, -0.15157658, -1114747.0, -84380.89, 0.0, 9.999415, 9.999616 
7.05047e+2, 2.0485778e+2, -1045387.75, -1144861.8, -8350.639, 0.05229951, -0.18556644, -1044691.56, -112313.625, 0.0, 9.999849, 9.998583 
7.050385e+2, 2.148569e+2, -625772.06, -891580.9, -12666.635, 0.04715859, -0.16100004, -625169.8, 209219.64, 0.0, 10.002054, 9.998586 
7.0503044e+2, 2.2485608e+2, -497402.1, -782269.9, 31661.396, 0.034493223, -0.09394236, -493925.53, 242475.11, 0.0, 10.002299, 9.998534 
7.0502263e+2, 2.3485509e+2, -657267.1, -811208.56, 8021.949, 0.0027184114, -0.07751833, -656850.25, -18436.04, 0.0, 10.000537, 9.998516 
7.050151e+2, 2.4485467e+2, -568516.9, -545684.56, 3824.7112, 0.014730526, -0.040078435, -545060.9, -4643.8633, 0.0, 9.9997225, 10.000062 
7.050079e+2, 2.548546e+2, -449848.53, -435666.38, -4640.925, 0.07797032, -0.08829964, -434282.7, 8128.6284, 0.0, 9.999851, 10.000085 
7.0499986e+2, 2.648537e+2, -398041.25, -514788.28, -7572.0015, 0.08041835, -0.11382606, -397552.2, -53133.58, 0.0, 10.00021, 9.998692 
7.0499104e+2, 2.7485165e+2, -214007.17, -377550.03, -27872.86, 0.029508071, -0.21640927, -209387.27, 37054.996, 0.000000016182126, 10.000812, 9.998668 
7.0498264e+2, 2.848511e+2, -45836.51, -233043.9, 28998.75, -0.02501851, -0.13976616, -41447.457, 107001.68, 0.0000030357212, 10.00122, 9.998801 
7.049747e+2, 2.9485187e+2, 49825.324, -138407.92, 22787.549, -0.10031986, 0.017640932, 52544.703, 102985.58, 0.000031540207, 10.001196, 9.998791 
7.0496774e+2, 3.048497e+2, 66884.9, -128438.68, 12015.937, -0.09728701, -0.05604019, 67621.32, 67621.32, 0.00012311795, 10.001139, 9.998528 
7.049615e+2, 3.1484798e+2, 159230.69, 93999.7, -160846.61, 0.018793404, -0.12196015, 290735.28, 290735.28, 0.0002906225, 10.000919, 10.000169 
7.1511024e+2, 1.248698e+2, -1635719.9, -1765253.1, 112866.7, -0.062113743, -0.34174404, -1570357.4, 145890.02, 0.0, 10.000851, 9.999226 
7.1509993e+2, 1.3487107e+2, -1569503.9, -1699755.0, 13012.825, -0.24824539, -0.16388819, -1568216.5, 50022.566, 0.0, 10.00073, 9.999078 
7.150935e+2, 1.4486949e+2, -1533237.1, -1653991.9, 16608.688, -0.10901446, -0.20526645, -1530994.4, -10737.128, 0.0, 10.000414, 9.998841 
7.150863e+2, 1.5486762e+2, -1406833.5, -1542253.5, 7577.3286, -0.082296655, -0.31716782, -1406410.9, 15866.44, 0.0, 10.000609, 9.998846 
7.150786e+2, 1.6486722e+2, -1249718.6, -1381902.9, -9309.191, -0.1030194, -0.2514793, -1249066.3, 75217.586, 0.0, 10.000893, 9.999131 
7.15071e+2, 1.7486803e+2, -1103659.0, -1265259.9, 12702.52, -0.103631034, -0.11325049, -1102666.6, 123613.05, 0.0, 10.001234, 9.999098 
7.1506315e+2, 1.8486774e+2, -1040811.3, -1121524.8, -62228.777, -0.051842492, -0.07294355, -1006998.75, 121284.06, 0.0, 10.000707, 9.999672 
7.1505487e+2, 1.9486609e+2, -1147008.6, -1123569.1, -48496.832, 0.052063685, -0.23615174, -1085396.0, -55099.93, 0.0, 9.99931, 9.999661 
7.1504754e+2, 2.0486566e+2, -1055178.5, -1126049.1, 62143.918, 0.100958735, -0.19642116, -1019076.94, -86776.11, 0.0, 9.999692, 9.998782 
7.150413e+2, 2.148662e+2, -643957.44, -878086.75, 81992.84, 0.09136469, -0.04833413, -618099.2, 216200.4, 0.0, 10.001848, 9.998772 
7.1503305e+2, 2.248653e+2, -539619.06, -833103.1, -47040.695, 0.043728195, 0.012853104, -532263.56, 204048.33, 0.0, 10.002135, 9.998268 
7.1502286e+2, 2.3486258e+2, -700723.8, -863953.56, -44865.918, -0.050619032, -0.113757595, -689204.75, -50863.71, 0.0, 10.000373, 9.998236 
7.150144e+2, 2.4486141e+2, -580852.7, -539486.94, -5478.2617, -0.056113448, -0.14430402, -538773.75, 1577.0256, 0.0, 9.999586, 10.000173 
7.150075e+2, 2.5486156e+2, -460345.5, -428041.16, 13286.487, 0.02452541, -0.17779133, -423278.66, 19064.246, 0.0, 9.999731, 10.000195 
7.149998e+2, 2.648615e+2, -409341.47, -531645.0, 0.8486051, 0.02708564, -0.12072641, -409341.47, -64998.566, 0.0, 10.0001745, 9.998597 
7.149914e+2, 2.748608e+2, -233981.02, -398590.1, 10367.126, -0.050119627, -0.07969451, -233330.66, 13023.74, 0.000000020828322, 10.000718, 9.998572 
7.149839e+2, 2.848598e+2, -49215.91, -218298.45, 16274.356, -0.05696931, -0.049838345, -47663.74, 100700.695, 0.0000037854625, 10.001141, 9.998934 
7.14977e+2, 2.948583e+2, 41173.516, -127079.25, 42351.066, -0.02365189, -0.12686191, 51232.38, 101606.586, 0.000035842306, 10.001093, 9.998909 
7.1497023e+2, 3.0485588e+2, -25122.1, -327661.38, -4720.7456, 0.0061448943, -0.16637656, -25048.457, -25048.457, 0.000135526, 10.001158, 9.997161 
7.149619e+2, 3.148538e+2, -10208.082, -235858.72, -131199.14, -0.0994506, -0.13112004, 50006.38, 50006.38, 0.00031586387, 10.000814, 9.997962 
7.2511005e+2, 1.24876805e+2, -1825049.5, -1865933.1, 27697.965, -0.086158626, -0.33285356, -1811066.8, -94886.23, 0.0, 9.999558, 9.9991865 
7.2510135e+2, 1.3487828e+2, -1570280.4, -1660371.6, -83913.9, -0.15263984, -0.15603776, -1520086.0, 98084.6, 0.0, 10.00058, 9.999415 
7.250945e+2, 1.4487718e+2, -1456199.0, -1626490.5, -19776.479, -0.072883986, -0.16292801, -1453932.4, 66252.13, 0.0, 10.000968, 9.998779 
7.2508734e+2, 1.5487567e+2, -1376140.8, -1528665.4, -27366.623, -0.039676424, -0.23182918, -1371379.3, 50822.02, 0.0, 10.000823, 9.99884 
7.2507954e+2, 1.6487493e+2, -1292882.3, -1390302.0, -9209.844, -0.068155415, -0.20731796, -1292019.3, 32190.594, 0.0, 10.000509, 9.999276 
7.250716e+2, 1.7487463e+2, -1274391.3, -1327366.9, -21489.754, -0.10640075, -0.19414541, -1266770.1, -40557.086, 0.0, 9.999959, 9.999292 
7.2506356e+2, 1.8487427e+2, -1101083.9, -1160796.9, -74909.72, -0.05847075, -0.17031163, -1050299.9, 77916.92, 0.0, 10.000338, 9.9995775 
7.2505534e+2, 1.9487347e+2, -813235.5, -969406.25, -99535.055, 0.065898694, -0.23711123, -764811.75, 265412.25, 0.0, 10.001636, 9.999594 
7.2504824e+2, 2.0487352e+2, -755832.3, -950721.75, 49275.035, 0.11300731, -0.16003162, -744082.25, 188142.56, 0.0, 10.001623, 9.99906 
7.2504216e+2, 2.1487409e+2, -868053.44, -956176.7, 51924.957, 0.08803257, -0.035999123, -844014.94, -9792.394, 0.0, 10.000181, 9.999043 
7.2503406e+2, 2.2487327e+2, -836381.1, -948079.94, -52885.19, 0.04421406, 0.0088606505, -815315.0, -79081.99, 0.0, 9.999968, 9.99853 
7.250239e+2, 2.3487075e+2, -584896.3, -780100.8, -38162.668, -0.011996547, -0.12419198, -577700.7, 60558.836, 0.0, 10.001036, 9.998499 
7.250151e+2, 2.4486952e+2, -385560.25, -489273.0, 33144.816, -0.016606092, -0.15481983, -375872.66, 164397.77, 0.0, 10.001122, 9.99977 
7.250074e+2, 2.5486937e+2, -409136.97, -451276.63, -13199.835, 0.020335533, -0.17793913, -405343.7, 36923.855, 0.0, 10.000281, 9.999768 
7.2499967e+2, 2.6486927e+2, -402722.25, -498447.22, 26133.092, 0.0054709977, -0.11378116, -396052.56, -51785.0, 0.0, 10.000111, 9.998846 
7.2499204e+2, 2.7486888e+2, -219732.1, -364962.5, 32589.385, -0.039331358, -0.07059426, -212754.36, 33519.844, 0.000000011844985, 10.000697, 9.998815 
7.2498494e+2, 2.848676e+2, -115987.25, -265000.97, 44043.285, -0.033743575, -0.06975622, -103943.07, 44342.813, 0.000004675658, 10.000771, 9.998778 
7.24978e+2, 2.9486534e+2, -81013.734, -202477.45, 10905.9375, 0.00976782, -0.21332717, -80042.28, -29737.725, 0.000040333267, 10.0003395, 9.998744 
7.249717e+2, 3.0486345e+2, -77597.96, -327948.9, 65347.324, 0.07862044, -0.19632648, -61567.305, -61567.305, 0.00014552829, 10.000693, 9.997395 
7.249634e+2, 3.1486174e+2, 120005.74, -142032.3, 15395.822, -0.048797168, -0.14222248, 120907.21, 120907.21, 0.00033116215, 10.001572, 9.998253 
7.351084e+2, 1.24882154e+2, -1774545.8, -1765014.5, 15999.657, -0.26694313, -0.29760137, -1753085.9, -36947.848, 0.0, 9.999583, 9.999858 
7.3510295e+2, 1.3488393e+2, -1506020.1, -1534256.5, -40668.816, -0.08199353, -0.18080696, -1477088.6, 141032.14, 0.0, 10.000594, 10.000278 
7.3509616e+2, 1.4488421e+2, -1442036.6, -1575028.6, -41749.426, -0.038118698, -0.1145792, -1430016.8, 90102.48, 0.0, 10.000886, 9.999162 
7.350889e+2, 1.5488446e+2, -1355691.0, -1488762.4, -15767.672, -0.008332624, -0.045865506, -1353848.1, 68271.28, 0.0, 10.000832, 9.999111 
7.3508036e+2, 1.6488355e+2, -1282625.0, -1368912.9, -44551.58, -0.069908775, -0.055652846, -1263750.9, 60376.977, 0.0, 10.000508, 9.999421 
7.350712e+2, 1.7488123e+2, -1270706.4, -1310889.8, -26928.797, -0.17419228, -0.26045367, -1257199.9, -31052.912, 0.0, 9.999915, 9.999432 
7.3506314e+2, 1.8488057e+2, -1137175.4, -1208334.8, -38261.89, -0.16372108, -0.25977296, -1120506.8, 7646.6147, 0.0, 10.000228, 9.999297 
7.3505616e+2, 1.9488128e+2, -853490.9, -1022393.1, -38360.63, -0.049089365, -0.14903302, -845186.75, 184962.63, 0.0, 10.0015135, 9.999282 
7.350487e+2, 2.0488141e+2, -747476.3, -903956.25, -18939.459, -0.021701459, -0.06605607, -745216.6, 186933.03, 0.0, 10.00149, 9.999447 
7.3504084e+2, 2.1488066e+2, -862526.5, -905903.9, 10765.998, -0.08898844, -0.11675995, -860001.44, -25844.457, 0.0, 10.000012, 9.999467 
7.3503304e+2, 2.2488014e+2, -807782.06, -848626.9, -26984.932, -0.07962622, -0.10065987, -794362.75, -58200.027, 0.0, 9.999795, 9.999296 
7.350253e+2, 2.3487958e+2, -556794.3, -678499.56, 16001.475, 0.000929126, -0.11618038, -554725.6, 83444.24, 0.0, 10.0008545, 9.999281 
7.350167e+2, 2.4487902e+2, -459856.28, -623043.7, -9873.511, 0.011941698, -0.07506172, -459261.06, 80914.83, 0.0, 10.001029, 9.998898 
7.350072e+2, 2.5487816e+2, -492890.13, -592907.06, -31590.99, -0.051381696, -0.0815489, -483747.63, -41563.766, 0.0, 10.000141, 9.998863 
7.349991e+2, 2.648773e+2, -379043.03, -426234.0, 37514.03, -0.08396064, -0.07563716, -358320.94, -14130.451, 0.0, 10.000013, 9.999386 
7.3499274e+2, 2.7487597e+2, -194915.84, -291756.34, 74825.055, -0.078277044, -0.17721818, -154210.86, 91989.08, 0.000000051096855, 10.000609, 9.999357 
7.349855e+2, 2.8487456e+2, -143116.6, -331538.16, 15558.237, -0.095049344, -0.19666253, -141840.56, 6372.2876, 0.0000058850314, 10.000796, 9.998315 
7.349772e+2, 2.9487294e+2, -125560.82, -285554.38, 14002.53, -0.14994457, -0.23237923, -124344.58, -74113.33, 0.000044056193, 10.000288, 9.998202 
7.349719e+2, 3.0487248e+2, 45554.1, -68018.08, 92003.38, -0.0097641675, -0.13301896, 96884.99, 96884.99, 0.00015023243, 10.000676, 9.9991865 
7.3496497e+2, 3.148715e+2, 296230.44, 251259.94, 105753.06, -0.12663002, -0.19127998, 381862.22, 381862.22, 0.0003329124, 10.001459, 10.001005 
7.4510914e+2, 1.2488991e+2, -1490674.6, -1607267.3, 112530.96, -0.23792882, -0.13008556, -1422236.3, 293833.63, 0.0, 10.001481, 9.999997 
7.4510396e+2, 1.3489048e+2, -1507418.4, -1510208.4, -28091.867, -0.02859481, -0.15215552, -1480686.9, 137375.13, 0.0, 10.000513, 10.0004635 
7.450965e+2, 1.4489093e+2, -1512365.4, -1566943.9, -13608.249, -0.048755564, -0.097644284, -1509160.5, 10896.468, 0.0, 10.000226, 9.999529 
7.4508995e+2, 1.5489164e+2, -1325929.4, -1427488.6, -20502.826, 0.026343971, -0.021494439, -1321946.5, 100104.64, 0.0, 10.000849, 9.99951 
7.4508166e+2, 1.6489099e+2, -1206570.5, -1323890.0, -46007.477, -0.0043658325, -0.030328522, -1190680.5, 133375.38, 0.0, 10.001001, 9.999495 
7.450722e+2, 1.7488866e+2, -1153152.1, -1241186.1, -61420.41, -0.09006324, -0.24581099, -1121604.8, 104469.93, 0.0, 10.000672, 9.999542 
7.4506384e+2, 1.84888e+2, -1119600.6, -1214007.5, -5208.543, -0.11013518, -0.24277566, -1119314.1, 8766.541, 0.0, 10.000392, 9.999193 
7.450566e+2, 1.9488874e+2, -1069336.8, -1142404.4, -13099.176, -0.07259751, -0.11562328, -1067059.4, -36982.72, 0.0, 10.00008, 9.999161 
7.4504894e+2, 2.0488866e+2, -947780.5, -974229.6, -6757.9194, -0.063354425, -0.060726643, -946153.8, -14075.127, 0.0, 10.000001, 9.999669 
7.450409e+2, 2.1488743e+2, -825095.56, -864714.94, -21928.934, -0.08327184, -0.18282644, -815353.56, 18736.125, 0.0, 10.00017, 9.99967 
7.450333e+2, 2.2488715e+2, -743281.94, -788456.4, -22737.744, -0.04034326, -0.16608126, -733819.44, 2273.09, 0.0, 10.000119, 9.999549 
7.450261e+2, 2.3488756e+2, -691918.25, -718324.8, -47651.35, 0.058463123, -0.10879832, -655674.8, -17584.672, 0.0, 9.999803, 9.99952 
7.450175e+2, 2.4488717e+2, -608337.2, -732085.0, -53838.574, 0.03738553, -0.04642992, -588192.94, -48097.67, 0.0, 10.000172, 9.998567 
7.4500746e+2, 2.5488567e+2, -334102.8, -550791.6, -62930.117, -0.09832688, -0.08337289, -317152.72, 124958.29, 0.0, 10.001385, 9.998553 
7.449996e+2, 2.648844e+2, -173231.08, -345277.06, 14160.444, -0.11190111, -0.09423309, -172073.38, 172048.56, 0.0, 10.001504, 9.9992285 
7.449941e+2, 2.7488303e+2, -227356.39, -318132.56, -30718.025, 0.010878874, -0.1875958, -217938.67, 28192.52, 0.00000017449423, 10.00045, 9.999246 
7.449867e+2, 2.8488186e+2, -237242.89, -371987.7, -62280.902, -0.009846936, -0.17682955, -212865.89, -64724.066, 0.0000070145306, 10.000133, 9.99836 
7.4497736e+2, 2.9488072e+2, -76944.945, -255019.7, -55990.934, -0.16813244, -0.16598372, -60803.242, -10646.735, 0.00004543542, 10.000587, 9.998273 
7.449723e+2, 3.0487987e+2, 15773.919, -45948.156, 21434.588, -0.006423468, -0.1257267, 22487.41, 22487.41, 0.00014809403, 10.00032, 9.9995 
7.449657e+2, 3.1487873e+2, 1140.6747, 200187.94, -108750.9, -0.068306565, -0.23353285, 248081.11, 248081.11, 0.00032280377, 9.999056, 10.001795 
7.5511116e+2, 1.24899864e+2, -1524813.3, -1665945.3, 3455.8984, -0.25012624, 0.13997644, -1524728.6, 191249.8, 0.0, 10.00143, 9.99962 
7.55104e+2, 1.3489781e+2, -1543123.1, -1590724.1, -52139.266, -0.1051573, -0.09186662, -1509609.0, 108386.68, 0.0, 10.000532, 9.9999075 
7.550954e+2, 1.4489727e+2, -1492444.3, -1517823.5, -7909.695, -0.21620229, -0.12420022, -1490180.9, 29817.482, 0.0, 10.000198, 9.999878 
7.5509024e+2, 1.5489739e+2, -1305407.0, -1374925.9, 15709.758, -0.06850065, -0.13992465, -1302021.9, 119972.88, 0.0, 10.000808, 9.999893 
7.550831e+2, 1.6489728e+2, -1209435.6, -1319464.6, -74333.8, 0.00045886697, -0.11924897, -1171972.5, 152021.3, 0.0, 10.000953, 9.99955 
7.5507426e+2, 1.7489675e+2, -1158458.6, -1243523.5, -60137.465, 0.02139856, -0.15384667, -1127332.9, 98664.375, 0.0, 10.000635, 9.999546 
7.5506544e+2, 1.8489644e+2, -1116851.8, -1190873.4, -32010.613, -0.015842125, -0.12507807, -1104929.1, 23070.662, 0.0, 10.000319, 9.999388 
7.5505644e+2, 1.9489598e+2, -1070789.0, -1117845.4, -10566.068, -0.12542425, -0.13865043, -1068525.4, -38520.2, 0.0, 9.999966, 9.999384 
7.5504863e+2, 2.0489538e+2, -973234.2, -992210.2, -14022.301, -0.124141075, -0.14322041, -965791.5, -33780.258, 0.0, 9.999847, 9.999624 
7.550421e+2, 2.1489441e+2, -855281.06, -879978.0, -3726.6501, -0.00985211, -0.23295836, -854731.0, -20710.799, 0.0, 9.999975, 9.999657 
7.5503457e+2, 2.2489434e+2, -785973.94, -837995.44, -46054.93, 0.04941415, -0.18239738, -759092.2, -23070.588, 0.0, 9.999951, 9.9992895 
7.55026e+2, 2.3489487e+2, -738417.7, -770230.06, -43911.996, 0.043088794, -0.086049445, -707619.8, -69601.1, 0.0, 9.999618, 9.999251 
7.55017e+2, 2.4489418e+2, -613786.7, -716999.8, -21761.268, -0.057281043, -0.048351, -609386.2, -69359.64, 0.0, 10.000055, 9.998726 
7.5500757e+2, 2.548918e+2, -336790.1, -534367.94, -3939.9888, -0.25441548, -0.18917304, -336711.56, 105338.22, 0.0, 10.001289, 9.998711 
7.550004e+2, 2.6489046e+2, -236899.66, -465633.03, -37395.773, -0.20300268, -0.17326993, -230941.03, 113121.875, 0.0, 10.001454, 9.998425 
7.5499576e+2, 2.7489e+2, -303137.2, -448785.63, -53610.47, 0.103118435, -0.09348502, -285532.16, -39464.418, 0.0000002213921, 10.000337, 9.998404 
7.549883e+2, 2.8488955e+2, -207969.28, -300133.25, -57711.117, 0.11043239, 0.0035977175, -180199.23, -32127.016, 0.000006961638, 10.000079, 9.998882 
7.54978e+2, 2.948887e+2, -44811.305, -174084.39, -20241.154, -0.19975185, -0.009173779, -41716.117, 8364.568, 0.00004401986, 10.000518, 9.998867 
7.549724e+2, 3.048855e+2, -76726.29, -221544.17, -32739.484, -0.056072883, -0.18191762, -69668.71, -69668.71, 0.0001416952, 10.000261, 9.998314 
7.549645e+2, 3.148839e+2, -95013.25, 24832.205, -81171.02, -0.16464944, -0.21484436, 65802.83, 65802.83, 0.0003069929, 9.998961, 10.0006275 
7.651127e+2, 1.2490796e+2, -1701256.3, -1772113.5, 23216.553, -0.16368496, 0.16160199, -1694326.9, 21572.87, 0.00000000032551553, 10.000245, 9.999478 
7.65105e+2, 1.349057e+2, -1623577.4, -1671613.8, -37170.477, -0.02882742, -0.05992155, -1603340.4, 14579.838, 0.0, 10.000132, 9.99955 
7.6509583e+2, 1.4490508e+2, -1513295.4, -1511328.3, 88002.4, -0.17328243, -0.089407735, -1424303.9, 95619.125, 0.0, 9.999958, 10.000054 
7.650906e+2, 1.549046e+2, -1378092.4, -1388956.4, 71691.266, -0.07409088, -0.18604022, -1311627.6, 110295.39, 0.0, 10.000197, 10.000105 
7.650836e+2, 1.6490449e+2, -1303981.8, -1381387.0, -17662.3, 0.0031476577, -0.16705081, -1300142.1, 23779.832, 0.0, 10.000387, 9.999388 
7.6507545e+2, 1.7490456e+2, -1190517.9, -1278059.3, -46331.117, 0.08741031, -0.12847146, -1170551.3, 55370.85, 0.0, 10.0005, 9.999369 
7.650665e+2, 1.8490435e+2, -1079920.6, -1137050.4, -1063.845, 0.059399895, -0.09679726, -1079900.8, 48022.633, 0.0, 10.000427, 9.999698 
7.650568e+2, 1.9490352e+2, -1022304.25, -1061289.4, 317.85852, -0.09498193, -0.17856494, -1022301.7, 7628.027, 0.0, 10.0001545, 9.999682 
7.6504874e+2, 2.0490292e+2, -952332.7, -1013632.94, 38277.07, -0.10091289, -0.18465683, -933946.5, -2011.1687, 0.0, 10.000137, 9.999338 
7.6504266e+2, 2.149022e+2, -816338.0, -899894.5, 5297.1772, 0.042170346, -0.21796325, -816003.5, 17940.082, 0.0, 10.000393, 9.999329 
7.650351e+2, 2.2490197e+2, -699381.5, -813892.06, -30031.814, 0.084626295, -0.15992695, -691983.3, 43964.133, 0.0, 10.000634, 9.999124 
7.6502585e+2, 2.3490198e+2, -566371.8, -701967.1, -49546.004, 0.017793272, -0.099772535, -550197.25, 87751.83, 0.0, 10.00088, 9.999101 
7.6501715e+2, 2.4490108e+2, -500233.9, -692145.94, 8491.13, -0.0826522, -0.063630745, -499858.97, 40100.37, 0.0, 10.000961, 9.99846 
7.6500887e+2, 2.5489894e+2, -428507.13, -609372.06, -29451.193, -0.21743901, -0.1549327, -423832.25, 18149.133, 0.0, 10.000791, 9.998439 
7.6500195e+2, 2.6489744e+2, -344567.8, -547227.5, -69955.8, -0.16015765, -0.12747127, -322765.4, 21231.396, 0.0, 10.000845, 9.998161 
7.649964e+2, 2.7489638e+2, -213150.45, -436367.5, -75370.55, 0.102978766, -0.07839349, -190084.63, 55923.06, 0.00000016204108, 10.001085, 9.998135 
7.649887e+2, 2.848957e+2, -94718.2, -261252.45, -37733.6, 0.10788017, 0.01705927, -86567.39, 61447.188, 0.000006290961, 10.000932, 9.998728 
7.649788e+2, 2.9489502e+2, -86296.45, -199840.55, -84344.78, -0.15211433, 0.035745203, -41396.934, 8624.013, 0.000041719115, 10.000288, 9.998779 
7.649732e+2, 3.048913e+2, -58838.305, -224963.03, -61185.387, 0.0064761485, -0.18190718, -38735.71, -38735.71, 0.00013461517, 10.000412, 9.998234 
7.649654e+2, 3.1488997e+2, 131348.27, 66037.26, -38262.95, -0.05149812, -0.17444372, 148996.19, 148996.19, 0.00029005748, 10.000788, 10.000051 
7.751128e+2, 1.249144e+2, -1695245.1, -1749605.8, -74142.914, -0.25191265, -0.04681436, -1643457.4, 72374.89, 0.0000000023621072, 10.000208, 9.999653 
7.7510625e+2, 1.349141e+2, -1636295.3, -1699124.6, -37766.355, 0.052818142, -0.04805356, -1618585.9, -749.49884, 0.0, 10.00014, 9.999357 
7.750972e+2, 1.449143e+2, -1496711.9, -1480848.3, 76342.53, -0.075432606, 0.002201709, -1412026.6, 107805.195, 0.0, 9.999968, 10.000261 
7.750907e+2, 1.5491332e+2, -1365250.4, -1364561.6, 96259.734, -0.11586735, -0.15999427, -1268645.6, 153189.94, 0.0, 10.000203, 10.000271 
7.7508324e+2, 1.6491273e+2, -1335757.0, -1434824.5, -28527.117, -0.10702501, -0.1796334, -1328129.8, -4289.9614, 0.0, 10.000337, 9.999046 
7.750753e+2, 1.7491218e+2, -1219840.3, -1327325.0, -25863.307, -0.009772416, -0.16808978, -1213940.8, 11907.47, 0.0, 10.000455, 9.999051 
7.750666e+2, 1.8491186e+2, -1063830.8, -1087424.0, -23115.93, -0.002257443, -0.15139636, -1049675.4, 78175.07, 0.0, 10.000346, 10.000086 
7.750571e+2, 1.9491151e+2, -1009545.56, -1011611.56, 4215.5674, -0.10398771, -0.22202766, -1006238.3, 23610.643, 0.0, 10.000048, 10.000079 
7.75049e+2, 2.0491132e+2, -1012355.75, -1101107.8, 32770.953, -0.12172296, -0.18207505, -1001566.9, -69716.32, 0.0, 9.999979, 9.998813 
7.750424e+2, 2.1491094e+2, -882064.5, -991862.6, 26136.889, -0.04387707, -0.1297339, -876160.2, -42301.457, 0.0, 10.000208, 9.998782 
7.750346e+2, 2.2491017e+2, -734797.9, -845644.2, -35906.477, -0.047705546, -0.08843983, -724183.1, 11685.351, 0.0, 10.000451, 9.999 
7.750254e+2, 2.3490871e+2, -596277.1, -728758.7, -27112.482, -0.14178723, -0.16248257, -590943.25, 46939.62, 0.0, 10.000722, 9.998999 
7.7501756e+2, 2.4490777e+2, -566880.94, -795928.06, -11034.03, -0.16133162, -0.094874285, -566350.6, -26456.18, 0.0, 10.000816, 9.997817 
7.7501106e+2, 2.5490707e+2, -494123.1, -713116.2, -20538.615, -0.1042713, 0.026356934, -492213.5, -50308.402, 0.0, 10.000653, 9.997792 
7.7500373e+2, 2.649053e+2, -341783.03, -520660.78, -72534.484, -0.090741985, 0.046651058, -316067.4, 27855.639, 0.0, 10.000759, 9.998385 
7.749955e+2, 2.7490196e+2, -208748.45, -407649.72, -51124.23, -0.12781958, -0.1545742, -196377.28, 49575.438, 0.00000014054619, 10.000999, 9.998377 
7.7498734e+2, 2.849001e+2, -162992.14, -384777.2, -73460.055, -0.1543185, -0.15059522, -140867.63, 7103.114, 0.0000059856334, 10.000857, 9.997912 
7.7497935e+2, 2.9489952e+2, -153020.63, -326416.72, -89365.266, -0.16751514, -0.040485974, -115208.82, -65229.723, 0.0000396548, 10.000233, 9.997936 
7.749745e+2, 3.0489725e+2, 10278.585, -66019.17, -54001.26, 0.06958224, -0.12642224, 38246.824, 38246.824, 0.00012692052, 10.000358, 9.999352 
7.7496743e+2, 3.148974e+2, 109685.69, 46997.152, 52539.633, 0.00016434549, -0.07319821, 139520.47, 139520.47, 0.00027215088, 10.000675, 9.99998 
7.8511393e+2, 1.2492235e+2, -1641850.4, -1701768.9, -17700.826, -0.15423481, -0.15977995, -1637012.0, 78737.39, 0.0000000040597263, 10.00052, 9.999811 
7.8510773e+2, 1.3492233e+2, -1538583.4, -1657958.8, 2942.93, 0.16111994, -0.123423226, -1538510.9, 79239.01, 0.0, 10.00087, 9.99927 
7.850986e+2, 1.449225e+2, -1419260.9, -1492555.5, 121942.15, 0.046586137, -0.051811382, -1328578.3, 191169.03, 0.0, 10.000723, 9.999809 
7.85091e+2, 1.549217e+2, -1391064.8, -1430456.4, 61314.82, -0.094305836, -0.14682579, -1346360.0, 75392.66, 0.0, 10.000267, 9.999783 
7.8508306e+2, 1.6492118e+2, -1368503.0, -1422634.5, -30958.504, -0.1270692, -0.14803508, -1354447.3, -30689.771, 0.0, 9.999988, 9.999293 
7.8507525e+2, 1.749206e+2, -1301942.9, -1337442.1, -16728.74, -0.015815059, -0.16270842, -1295302.0, -69537.3, 0.0, 9.999771, 9.999306 
7.8506696e+2, 1.8492016e+2, -1121429.3, -1169550.6, 17729.986, 0.013691149, -0.14812796, -1115602.4, 12166.303, 0.0, 10.000192, 9.999588 
7.85058e+2, 1.9491953e+2, -886346.75, -1004808.44, -48125.72, -0.05813721, -0.19928524, -869259.94, 160512.19, 0.0, 10.001139, 9.999586 
7.850498e+2, 2.049191e+2, -853029.56, -1041658.0, -36951.684, -0.08128183, -0.14998057, -846049.2, 85727.24, 0.0, 10.001138, 9.998668 
7.8504246e+2, 2.1491858e+2, -920572.5, -1024567.6, -39696.42, -0.04168589, -0.09534463, -907151.8, -73367.24, 0.0, 10.000005, 9.998658 
7.850346e+2, 2.2491755e+2, -840127.6, -932511.25, -27470.807, -0.057405327, -0.060752276, -832576.25, -96779.6, 0.0, 9.999875, 9.998677 
7.8502613e+2, 2.3491566e+2, -617447.6, -778297.25, -61650.41, -0.13748783, -0.14511548, -596536.75, 41279.22, 0.0, 10.000739, 9.998653 
7.850188e+2, 2.4491449e+2, -515408.75, -757377.2, -24260.475, -0.12718746, -0.0853555, -513000.28, 26828.791, 0.0, 10.001123, 9.997926 
7.850127e+2, 2.5491378e+2, -430684.34, -670484.8, -7129.1733, -0.021380449, 0.020916138, -430472.6, 11365.928, 0.0, 10.001038, 9.997894 
7.8500503e+2, 2.64912e+2, -329508.16, -528860.3, -11988.418, -0.03509807, 0.042471204, -328789.78, 15066.461, 0.0, 10.00091, 9.998251 
7.849958e+2, 2.7490875e+2, -261789.1, -447169.25, -46065.05, -0.16731347, -0.13617583, -250973.42, -5087.046, 0.0000001311964, 10.000702, 9.99824 
7.849876e+2, 2.8490657e+2, -185507.77, -406554.1, -33398.938, -0.19924584, -0.15539144, -180571.6, -32663.447, 0.0000058891046, 10.000741, 9.997827 
7.8498054e+2, 2.9490536e+2, -61999.71, -298316.88, -25290.178, -0.10548588, -0.092618644, -59323.51, -9401.62, 0.000037489564, 10.000912, 9.997814 
7.849754e+2, 3.04904e+2, 81085.63, -25168.607, 36321.945, 0.11396907, -0.08153713, 92315.13, 92315.13, 0.00011865352, 10.000806, 9.999413 
7.8496796e+2, 3.149051e+2, 3757.5398, -27633.031, 31272.896, 0.03684068, 0.05208509, 23052.768, 23052.768, 0.00025448482, 10.000047, 9.999759 
7.951151e+2, 1.2493228e+2, -1620142.1, -1684918.0, -70291.44, -0.16622245, -0.14683421, -1575135.9, 140510.63, 0.0000000034592607, 10.000622, 9.999887 
7.95109e+2, 1.3493048e+2, -1525364.9, -1650635.0, 23104.418, 0.15985192, -0.29063725, -1521239.5, 96421.02, 0.0, 10.000944, 9.999289 
7.951e+2, 1.4492975e+2, -1503357.0, -1662957.0, 84548.02, 0.063767955, -0.25151223, -1466897.0, 52771.63, 0.0, 10.00071, 9.998643 
7.950912e+2, 1.5492974e+2, -1471639.1, -1596554.0, 60776.54, -0.14219098, -0.15632802, -1446948.9, -25274.65, 0.0, 10.000266, 9.998639 
7.9508275e+2, 1.6492985e+2, -1315022.6, -1308569.1, -53012.1, -0.19065914, -0.07579098, -1258685.6, 64988.91, 0.0, 9.999966, 10.0000925 
7.9507494e+2, 1.7492986e+2, -1242800.4, -1218641.9, -11520.63, -0.0568336, -0.11593021, -1214028.8, 11642.684, 0.0, 9.999777, 10.000122 
7.9506713e+2, 1.8492919e+2, -1233878.0, -1378544.5, 39355.336, -0.015542277, -0.09435957, -1223864.8, -96186.15, 0.0, 10.0000925, 9.9981985 
7.950592e+2, 1.9492748e+2, -996716.5, -1211044.0, 1081.2574, -0.08682451, -0.115250975, -996711.06, 32988.875, 0.0, 10.001044, 9.998212 
7.95051e+2, 2.0492627e+2, -853697.1, -1008766.06, -92931.64, -0.10303165, -0.09193304, -810203.2, 121509.7, 0.0, 10.000991, 9.998963 
7.950424e+2, 2.1492514e+2, -923405.2, -992874.25, -68694.64, -0.07074119, -0.12933843, -881162.8, -47441.73, 0.0, 9.999842, 9.998955 
7.950346e+2, 2.2492412e+2, -905328.0, -1024689.6, -5688.353, -0.06356981, -0.08226337, -905057.56, -169325.89, 0.0, 9.999689, 9.998136 
7.950276e+2, 2.3492292e+2, -676681.2, -869381.2, -12547.511, -0.09042762, -0.0428683, -675867.56, -38120.313, 0.0, 10.000596, 9.998099 
7.9502046e+2, 2.4492131e+2, -477612.4, -647141.25, -40322.406, -0.10504984, -0.038714014, -468510.4, 71252.56, 0.0, 10.000991, 9.998745 
7.950131e+2, 2.5491893e+2, -393252.22, -561774.25, 4054.3293, -0.10664919, -0.17873494, -393154.72, 48627.746, 0.0, 10.000905, 9.998706 
7.950054e+2, 2.6491752e+2, -369781.16, -599056.4, -31352.215, -0.121397525, -0.14276482, -365571.2, -21774.236, 0.0, 10.000844, 9.997803 
7.9499704e+2, 2.7491677e+2, -306116.1, -524040.38, -35120.477, -0.14901158, -0.022555526, -300595.94, -54787.258, 0.000000103459534, 10.000631, 9.997748 
7.9498917e+2, 2.8491518e+2, -147744.58, -317163.34, -38679.117, -0.14567704, 0.013099602, -139331.7, 8494.041, 0.0000054454867, 10.000695, 9.998464 
7.9498154e+2, 2.9491255e+2, -32079.98, -213863.75, 3755.4026, -0.12922147, -0.1340597, -32002.434, 17847.049, 0.00003447301, 10.000815, 9.998443 
7.9497534e+2, 3.049117e+2, 12.82986, -181002.03, 5830.298, -0.008389216, -0.052564614, 200.4232, 200.4232, 0.0001104858, 10.000746, 9.99837 
7.9496646e+2, 3.1491163e+2, -60314.242, -138220.81, 65012.977, -0.19714694, 0.06454407, -23478.045, -23478.045, 0.000240168, 9.999941, 9.999053 
8.051163e+2, 1.2494053e+2, -1920428.0, -1806252.6, -96201.2, 0.011070025, -0.15680522, -1751475.8, -35911.832, 0.0000000057252847, 9.99849, 10.0000925 
8.051095e+2, 1.3493857e+2, -1464750.8, -1607998.8, -34374.566, 0.11215986, -0.32385075, -1456929.1, 160649.33, 0.0, 10.001299, 9.999432 
8.05101e+2, 1.4493747e+2, -1367832.6, -1618363.0, 4060.399, 0.050133344, -0.3178056, -1367766.9, 151823.52, 0.0, 10.00174, 9.998451 
8.0509233e+2, 1.5493777e+2, -1512134.8, -1644280.8, 10669.14, -0.03429102, -0.16893233, -1511278.9, -89684.586, 0.0, 10.000106, 9.998396 
8.0508375e+2, 1.6493781e+2, -1368061.3, -1337602.3, -20300.754, -0.06437271, -0.081843875, -1327453.4, -3857.7876, 0.0, 9.999633, 10.000056 
8.050753e+2, 1.7493737e+2, -1159887.0, -1187371.1, -72100.84, -0.01875348, -0.15624441, -1100230.3, 125365.77, 0.0, 10.000393, 10.000047 
8.0506736e+2, 1.8493666e+2, -1156735.4, -1353290.3, 18482.545, -0.022248656, -0.12864725, -1155012.5, -27408.42, 0.0, 10.000683, 9.998087 
8.050598e+2, 1.9493537e+2, -1102374.5, -1281948.1, 43475.52, -0.09040922, -0.09261922, -1092402.6, -62779.734, 0.0, 10.000402, 9.998046 
8.050518e+2, 2.0493402e+2, -887399.94, -1024254.56, -8008.7256, -0.09542478, -0.07168021, -886932.8, 44704.227, 0.0, 10.000757, 9.998974 
8.0504346e+2, 2.1493228e+2, -657842.4, -863392.7, -36153.35, -0.03490309, -0.1705445, -651668.94, 181980.89, 0.0, 10.001665, 9.998963 
8.050359e+2, 2.2493096e+2, -613360.0, -912781.2, 58169.11, -0.0056755147, -0.14060974, -602456.44, 133206.22, 0.0, 10.001827, 9.997863 
8.050291e+2, 2.349298e+2, -619057.4, -869198.1, 45356.67, -0.015235154, -0.069652826, -611087.06, 26591.031, 0.0, 10.001132, 9.997829 
8.050216e+2, 2.4492817e+2, -533267.3, -660702.8, 14852.963, -0.052108403, -0.06422268, -531559.06, 8135.1294, 0.0, 10.000524, 9.998892 
8.050135e+2, 2.5492564e+2, -523833.97, -607404.8, -17657.201, -0.1035748, -0.23677349, -520256.4, -78541.766, 0.0, 9.999918, 9.99888 
8.050057e+2, 2.6492435e+2, -490109.38, -648922.1, -6698.1616, -0.1115601, -0.1978933, -489827.38, -146099.77, 0.0, 9.999969, 9.997893 
8.0499846e+2, 2.7492404e+2, -284911.63, -502081.66, 6280.631, -0.06515466, -0.04719167, -284730.16, -38994.055, 0.00000004701224, 10.000705, 9.997876 
8.049908e+2, 2.8492272e+2, -100927.234, -292277.63, 23698.053, -0.052025367, 0.0119005665, -98036.0, 49714.285, 0.000004093495, 10.001006, 9.998485 
8.0498284e+2, 2.9492024e+2, -13950.681, -201416.9, -14407.949, -0.08052786, -0.12701146, -12849.805, 36922.773, 0.000029631305, 10.000928, 9.998471 
8.049757e+2, 3.0491918e+2, -30671.914, -241331.69, -6988.488, -0.030052807, -0.046582304, -30440.33, -30440.33, 0.00010221737, 10.000729, 9.997977 
8.0496705e+2, 3.1491822e+2, -42785.832, -118770.914, 66078.664, -0.12133793, 0.020676099, -4556.18, -4556.18, 0.00023173698, 10.0000305, 9.9991455 
8.1511647e+2, 1.2494749e+2, -1893855.3, -1777869.0, -32335.49, 0.107972704, -0.16270757, -1769463.5, -53965.906, 0.000000004999778, 9.998595, 10.000239 
8.151088e+2, 1.3494678e+2, -1446461.3, -1574005.1, 79936.516, -0.12237387, -0.229659, -1407975.1, 209526.75, 0.0, 10.001323, 9.999648 
8.151012e+2, 1.449458e+2, -1322632.6, -1530021.4, -75640.21, -0.14023261, -0.2503261, -1297976.0, 221534.92, 0.0, 10.001755, 9.999057 
8.150941e+2, 1.5494587e+2, -1464289.0, -1546907.3, -37858.473, 0.09483308, -0.18672644, -1449565.0, -28052.84, 0.0, 10.000113, 9.999062 
8.150856e+2, 1.6494511e+2, -1439821.3, -1479890.9, -7983.2627, 0.12317091, -0.1627222, -1438289.3, -114769.35, 0.0, 9.999606, 9.999089 
8.1507593e+2, 1.7494324e+2, -1229987.3, -1325418.5, -28998.605, -0.031812724, -0.2893425, -1221866.5, 3670.989, 0.0, 10.000367, 9.999105 
8.1506723e+2, 1.849427e+2, -1094834.9, -1210205.4, -3453.4478, -0.1318816, -0.24830115, -1094731.5, 32811.86, 0.0, 10.000611, 9.999108 
8.1505936e+2, 1.9494325e+2, -1042721.0, -1139567.4, 48090.984, -0.20030932, -0.1318997, -1022897.94, 6642.2764, 0.0, 10.000315, 9.999067 
8.150521e+2, 2.0494246e+2, -938992.44, -1093078.3, 11698.127, -0.17311554, -0.08612746, -938109.4, -6561.2246, 0.0, 10.00059, 9.998584 
8.1504524e+2, 2.1494003e+2, -709563.94, -929286.75, 12671.136, -0.050159015, -0.21723805, -708835.6, 124734.72, 0.0, 10.001486, 9.998597 
8.1503797e+2, 2.2493808e+2, -643142.25, -925599.3, 17969.094, -0.004247726, -0.23212291, -642003.7, 93585.86, 0.0, 10.00162, 9.997874 
8.150302e+2, 2.3493624e+2, -645467.25, -879646.2, 32808.113, -0.045513976, -0.23166542, -640957.75, -3348.3276, 0.0, 10.000941, 9.997848 
8.1502205e+2, 2.4493492e+2, -593514.2, -745497.5, -22367.008, -0.086510934, -0.1690655, -590290.8, -50667.223, 0.0, 10.000354, 9.998392 
8.150134e+2, 2.5493386e+2, -579191.6, -691761.2, -26889.553, -0.1294724, -0.14282973, -573098.3, -131463.77, 0.0, 9.999788, 9.9983635 
8.150059e+2, 2.649325e+2, -451196.22, -548685.3, 7451.775, -0.116545215, -0.12042369, -450629.94, -106981.664, 0.0, 9.999889, 9.998619 
8.149996e+2, 2.7493048e+2, -258524.03, -408398.8, 51535.31, -0.052270286, -0.21132836, -242513.63, 3154.7966, 0.000000004527389, 10.000547, 9.998593 
8.149922e+2, 2.849292e+2, -152853.56, -388629.72, 8019.3374, -0.050422855, -0.15986703, -152581.11, -4898.9243, 0.0000024308686, 10.000949, 9.997852 
8.1498384e+2, 2.9492846e+2, -80289.23, -315687.44, 3329.3188, -0.11510279, -0.054036196, -80242.15, -30551.13, 0.00002455122, 10.00083, 9.997735 
8.149763e+2, 3.049264e+2, -8989.991, -199622.34, -41297.684, -0.0816232, -0.04967669, -428.008, -428.008, 0.00009685274, 10.00074, 9.998255 
8.149685e+2, 3.1492385e+2, 2566.554, 13186.743, 93153.26, -0.047680277, -0.17232503, 101181.125, 101181.125, 0.00023260372, 9.999879, 10.000124 
8.2511663e+2, 1.24953836e+2, -1750330.6, -1694918.0, -16810.89, 0.23621503, -0.14780392, -1690216.8, 25223.37, 0.0000000017683296, 9.999502, 10.000367 
8.2510877e+2, 1.3495424e+2, -1785357.0, -1717786.3, 41361.465, -0.116354294, -0.13081084, -1698165.4, -80730.99, 0.0, 9.99889, 9.999838 
8.251018e+2, 1.4495349e+2, -1643554.9, -1611924.5, -110372.26, -0.114682995, -0.17045587, -1516240.1, 3199.903, 0.0, 9.999254, 9.999691 
8.250947e+2, 1.5495346e+2, -1307146.1, -1401645.8, -106798.8, 0.116961114, -0.17648561, -1237611.8, 183826.95, 0.0, 10.000905, 9.999665 
8.250862e+2, 1.6495258e+2, -1198038.3, -1412582.5, -28657.521, 0.14341912, -0.17735411, -1194276.4, 129171.01, 0.0, 10.001461, 9.998658 
8.2507664e+2, 1.7495054e+2, -1195660.1, -1364147.9, -41335.48, -0.009226609, -0.27520818, -1186065.6, 39403.06, 0.0, 10.000814, 9.998633 
8.25068e+2, 1.8495e+2, -1080609.8, -1137589.0, 4925.8794, -0.10126592, -0.2419419, -1080187.0, 47286.645, 0.0, 10.000423, 9.999696 
8.2506007e+2, 1.9495061e+2, -1011867.5, -1058547.9, -5950.7144, -0.1534373, -0.17715299, -1011120.9, 18344.746, 0.0, 10.000244, 9.999651 
8.250528e+2, 2.0495e+2, -999901.06, -1132091.5, 7033.5444, -0.12727249, -0.13845266, -999527.9, -68056.86, 0.0, 10.00022, 9.998481 
8.2504636e+2, 2.1494794e+2, -892009.44, -1031234.3, -774.76965, -0.013270318, -0.22224292, -892005.1, -58512.773, 0.0, 10.000294, 9.998469 
8.2503915e+2, 2.249462e+2, -761180.8, -933990.7, 38513.258, 0.0068616555, -0.23093978, -752986.1, -17476.572, 0.0, 10.000581, 9.998337 
8.2503086e+2, 2.3494445e+2, -599588.2, -809375.56, 58004.777, -0.06746699, -0.26634026, -584618.44, 52907.844, 0.0, 10.001031, 9.998303 
8.250227e+2, 2.4494323e+2, -497288.8, -733022.94, 45289.02, -0.08719213, -0.19966567, -488887.34, 50651.805, 0.0, 10.001174, 9.998073 
8.2501453e+2, 2.5494233e+2, -419047.9, -647820.5, 24128.85, -0.05640065, -0.1257828, -416530.72, 25019.898, 0.0, 10.001052, 9.998048 
8.25007e+2, 2.6494086e+2, -301564.28, -486064.94, 85365.17, -0.04176605, -0.09755329, -268127.16, 75439.45, 0.0, 10.000963, 9.998524 
8.2500035e+2, 2.7493832e+2, -222773.36, -399259.66, 38272.93, -0.03400924, -0.23126425, -214830.9, 30760.5, 0.0, 10.000834, 9.9985075 
8.249932e+2, 2.8493696e+2, -160301.2, -402378.38, 10706.831, -0.041900653, -0.1788252, -159828.58, -12222.659, 0.000001518397, 10.000954, 9.997754 
8.249854e+2, 2.949364e+2, -19728.293, -294885.5, 15929.978, -0.05111373, -0.045637414, -18809.111, 30803.816, 0.000022026383, 10.001276, 9.997662 
8.249773e+2, 3.0493376e+2, 22325.14, -177852.25, -14741.228, -0.047276694, -0.09662227, 23404.873, 23404.873, 0.00009707927, 10.000948, 9.99829 
8.249693e+2, 3.1493083e+2, -8029.9966, 6166.394, 37913.465, 0.062667385, -0.2692514, 37640.406, 37640.406, 0.00024343748, 9.999799, 10.000106 
8.351158e+2, 1.2495989e+2, -1743278.6, -1675882.3, -66136.88, 0.1313789, -0.087275505, -1635353.4, 80035.04, 0.000000000051048894, 9.99949, 10.0005045 
8.351092e+2, 1.3496114e+2, -1750159.8, -1649992.3, 31975.863, 0.0021612884, -0.020535601, -1640655.1, -23281.273, 0.0, 9.998921, 10.000283 
8.351025e+2, 1.4496066e+2, -1610459.1, -1543259.8, -65576.76, -0.015660409, -0.0797504, -1503176.0, 16199.958, 0.0, 9.999252, 10.000162 
8.350938e+2, 1.549606e+2, -1273971.4, -1327293.5, -30781.91, -0.10466683, -0.14337288, -1259909.8, 161464.06, 0.0, 10.000883, 10.000182 
8.350853e+2, 1.6496019e+2, -1204077.4, -1402643.5, -67368.83, -0.12488171, -0.12849443, -1183378.4, 139999.42, 0.0, 10.001367, 9.998775 
8.350772e+2, 1.7495939e+2, -1192881.6, -1346591.9, -48569.395, -0.06622144, -0.11101241, -1178820.9, 46567.406, 0.0, 10.000772, 9.998771 
8.350693e+2, 1.849586e+2, -1082034.6, -1129619.1, -16853.918, -0.045416847, -0.111382924, -1076670.0, 50724.273, 0.0, 10.00037, 9.999783 
8.3506143e+2, 1.9495738e+2, -1017701.2, -1044625.1, 574.3772, -0.07745869, -0.24216251, -1017688.94, 11710.918, 0.0, 10.000134, 9.999799 
8.350538e+2, 2.0495664e+2, -1014262.6, -1123340.6, -4089.269, -0.07947862, -0.23439686, -1014109.5, -82703.55, 0.0, 10.0000515, 9.998623 
8.350465e+2, 2.1495602e+2, -906706.06, -1020891.8, 16841.625, -0.055885788, -0.18886428, -904273.8, -70858.07, 0.0, 10.000119, 9.99862 
8.350389e+2, 2.2495538e+2, -724030.7, -817687.25, 40398.863, -0.09248798, -0.13807717, -709012.75, 26409.447, 0.0, 10.000403, 9.999224 
8.350308e+2, 2.3495445e+2, -559416.94, -692578.25, 91200.87, -0.20437698, -0.18115209, -513079.13, 124349.04, 0.0, 10.000875, 9.999185 
8.350233e+2, 2.4495316e+2, -528233.06, -766608.1, 27482.775, -0.1780318, -0.1610613, -525105.56, 14334.722, 0.0, 10.001037, 9.997911 
8.3501625e+2, 2.549511e+2, -447942.56, -684406.56, 36027.434, -0.013327255, -0.18761507, -442575.28, -1112.9961, 0.0, 10.000942, 9.997852 
8.350086e+2, 2.6494938e+2, -378915.06, -625036.2, 68806.84, -0.0033037486, -0.12737045, -360985.25, -17502.678, 0.0, 10.000871, 9.997616 
8.350004e+2, 2.7494767e+2, -303914.94, -541454.8, 51213.3, -0.15232979, -0.0907222, -293343.84, -47839.65, 0.0, 10.000721, 9.997586 
8.349933e+2, 2.849461e+2, -132537.78, -330516.97, 9032.27, -0.15715674, -0.032854393, -132126.55, 15394.065, 0.0000012583888, 10.0008955, 9.998276 
8.349873e+2, 2.9494426e+2, -3379.4001, -229276.42, 46637.688, -0.03123384, -0.08277074, 5870.4526, 55406.87, 0.000022671806, 10.001141, 9.99818 
8.349784e+2, 3.0494133e+2, -1256.2439, -212475.19, -61244.934, -0.061778884, -0.17944764, 15217.463, 15217.463, 0.0001036696, 10.00089, 9.998079 
8.349684e+2, 3.1494126e+2, -100407.98, -150865.81, 27514.178, -0.08022475, -0.03569488, -88306.9, -88306.9, 0.00026239955, 9.999664, 9.999088 
8.451165e+2, 1.2496784e+2, -1485246.3, -1561978.5, 83785.734, 0.17904057, -0.022381956, -1431460.3, 283851.97, 0.0, 10.001306, 10.00041 
8.451087e+2, 1.3496886e+2, -1619798.8, -1584828.3, 83532.81, 0.026844956, 0.016039483, -1516970.4, 100330.28, 0.0, 9.99981, 10.000305 
8.451021e+2, 1.4496832e+2, -1648356.5, -1568804.1, 64178.21, 0.038061522, -0.046316355, -1533075.5, -13771.582, 0.0, 9.999018, 10.000103 
8.450943e+2, 1.5496805e+2, -1502417.6, -1450128.0, 25822.463, -0.053434025, -0.12333419, -1439525.6, -18221.002, 0.0, 9.999359, 10.000084 
8.45086e+2, 1.6496804e+2, -1408981.6, -1443427.3, -28586.342, -0.09357726, -0.08666329, -1392830.8, -69526.336, 0.0, 9.999717, 9.999289 
8.450774e+2, 1.7496824e+2, -1284356.5, -1334936.6, -10931.39, -0.07118053, -0.019833831, -1282095.1, -56791.176, 0.0, 9.999913, 9.999264 
8.450696e+2, 1.8496747e+2, -1109970.3, -1174304.6, 59017.05, -0.036956158, -0.031248454, -1074923.4, 52386.414, 0.0, 10.000321, 9.99949 
8.4506255e+2, 1.9496526e+2, -926606.56, -1040993.2, 17421.404, -0.0033049441, -0.2295034, -924012.06, 105313.75, 0.0, 10.000925, 9.999448 
8.45055e+2, 2.0496435e+2, -853885.8, -1033202.1, 8620.604, -0.005458974, -0.22409646, -853472.3, 77861.37, 0.0, 10.001093, 9.998746 
8.45047e+2, 2.1496445e+2, -818147.75, -971589.6, -4143.432, -0.039803293, -0.115709126, -818035.94, 15300.756, 0.0, 10.0006895, 9.9986925 
8.450392e+2, 2.2496401e+2, -738425.06, -804420.8, 24199.912, -0.088215336, -0.056856517, -730502.3, 4838.911, 0.0, 10.000238, 9.999377 
8.450315e+2, 2.3496288e+2, -718734.0, -747554.6, -15638.392, -0.15691751, -0.13664402, -711878.94, -74529.92, 0.0, 9.999719, 9.999347 
8.4502417e+2, 2.4496157e+2, -615738.1, -766720.06, -29746.525, -0.14438488, -0.142894, -610088.8, -70728.56, 0.0, 10.000251, 9.998292 
8.450172e+2, 2.549597e+2, -295622.5, -564436.7, -8821.185, -0.044518247, -0.18870066, -295333.34, 146045.7, 0.0, 10.001795, 9.99826 
8.450095e+2, 2.649582e+2, -235706.66, -555355.94, 52496.008, -0.042797063, -0.13051769, -227306.02, 116090.484, 0.0, 10.001842, 9.997625 
8.4500104e+2, 2.7495673e+2, -350088.7, -563488.5, 75560.09, -0.13155364, -0.06662622, -326043.8, -80628.586, 0.0000000050987805, 10.000389, 9.997601 
8.449942e+2, 2.8495523e+2, -212236.25, -338436.2, 145808.61, -0.10996851, -0.019195588, -116459.67, 30970.936, 0.0000017149706, 10.000203, 9.998555 
8.449889e+2, 2.949532e+2, 28664.209, -172064.14, 131203.56, 0.022126235, -0.121575795, 93488.84, 142936.22, 0.0000255943, 10.001183, 9.998547 
8.4497947e+2, 3.049508e+2, 72307.99, -179738.06, -2086.8877, -0.052604973, -0.18304391, 72325.27, 72325.27, 0.000114914044, 10.001389, 9.998078 
8.449686e+2, 3.1495082e+2, -10426.73, -141285.4, 31431.969, -0.045687255, -0.025922542, -3268.4185, -3268.4185, 0.00028702893, 10.000384, 9.998827 
8.55118e+2, 1.24977514e+2, -1534848.8, -1647032.1, 5380.3394, 0.12564448, 0.017358026, -1534591.4, 180622.23, 0.0, 10.001246, 9.999848 
8.551068e+2, 1.349774e+2, -1652810.0, -1638408.8, 33997.414, -0.17723775, -0.015073573, -1610857.8, 6356.6074, 0.0, 9.99978, 9.999934 
8.551002e+2, 1.4497659e+2, -1684437.9, -1652368.4, 58895.094, -0.08871784, -0.05918537, -1607364.3, -88141.586, 0.0, 9.999037, 9.99953 
8.5509586e+2, 1.549759e+2, -1535982.0, -1526800.0, 58346.074, 0.12946759, -0.11928457, -1472864.6, -51634.387, 0.0, 9.999389, 9.999542 
8.550881e+2, 1.6497622e+2, -1359674.8, -1334969.6, -36662.125, 0.11055, -0.061685275, -1308635.0, 14591.641, 0.0, 9.999688, 10.000047 
8.5507685e+2, 1.7497712e+2, -1231327.3, -1217493.4, 8202.786, -0.14574307, -0.00680171, -1213680.5, 11535.338, 0.0, 9.9998865, 10.000079 
8.550686e+2, 1.849766e+2, -1169883.0, -1285313.3, 67989.93, -0.20155795, 0.0027741364, -1138414.8, -11194.694, 0.0, 10.000249, 9.99877 
8.550632e+2, 1.9497433e+2, -984247.25, -1147790.5, 53677.11, -0.06725759, -0.1290924, -968203.56, 61038.76, 0.0, 10.000859, 9.998749 
8.5505617e+2, 2.0497334e+2, -874509.7, -1044390.5, -21360.76, -0.023318931, -0.097358376, -871865.0, 59387.867, 0.0, 10.000953, 9.998743 
8.5504746e+2, 2.1497321e+2, -841521.4, -975850.4, -4099.6274, -0.08205281, -0.014069651, -841396.4, -8140.8574, 0.0, 10.0005, 9.9987545 
8.550396e+2, 2.2497204e+2, -812644.3, -913433.06, -9112.555, -0.09171223, 0.0014744394, -811827.06, -76560.12, 0.0, 10.000041, 9.998728 
8.5503244e+2, 2.3496966e+2, -785076.25, -851314.56, -18326.178, -0.05423737, -0.1397806, -780344.0, -143054.73, 0.0, 9.999568, 9.998709 
8.5502493e+2, 2.4496852e+2, -572470.8, -644291.75, 15047.424, -0.11249727, -0.14267467, -569445.6, -30146.545, 0.0, 10.0001135, 9.999199 
8.5501707e+2, 2.549682e+2, -253576.95, -442267.1, 63758.527, -0.2653763, -0.12891594, -234053.06, 207247.73, 0.0, 10.001644, 9.999173 
8.5500944e+2, 2.6496723e+2, -184813.23, -423852.56, -16509.193, -0.2563144, -0.10723989, -183678.42, 159630.66, 0.0, 10.00173, 9.998586 
8.55002e+2, 2.7496544e+2, -299846.4, -433498.53, 38723.785, -0.09927819, -0.17223614, -289437.4, -44111.492, 0.0000001292932, 10.000283, 9.998545 
8.549955e+2, 2.8496432e+2, -217592.75, -332230.5, 172365.38, -0.02897385, -0.13662517, -93265.59, 54070.26, 0.0000031613251, 10.000128, 9.998632 
8.549897e+2, 2.9496324e+2, 22071.586, -170938.38, 187056.92, -0.05567545, -0.1518414, 136050.58, 185396.31, 0.000030116835, 10.001108, 9.998595 
8.5498005e+2, 3.0496204e+2, 78620.49, -138721.83, -47122.22, -0.15808879, -0.110874295, 88397.32, 88397.32, 0.00012742863, 10.001292, 9.998398 
8.549696e+2, 3.1496018e+2, -25110.055, -132298.75, 5148.902, -0.05734037, -0.16792518, -24863.291, -24863.291, 0.00031382052, 10.000233, 9.998959 
8.651177e+2, 1.2498519e+2, -1856485.4, -1850941.6, 22369.555, 0.09738505, -0.11447744, -1831172.9, -116040.78, 0.00000000000000000000885557, 9.999238, 9.99942 
8.651078e+2, 1.3498534e+2, -1589282.0, -1663864.4, -10820.119, -0.073031545, -0.07995308, -1587744.0, 29389.455, 0.0, 10.000419, 9.999468 
8.6510116e+2, 1.4498492e+2, -1454789.5, -1543186.6, 73803.945, 0.029064309, -0.061870318, -1412961.6, 106178.086, 0.0, 10.000631, 9.999505 
8.650954e+2, 1.5498435e+2, -1425400.4, -1488441.0, 74971.34, 0.10876025, -0.10017246, -1375592.8, 45554.023, 0.0, 10.0001955, 9.999431 
8.650875e+2, 1.649843e+2, -1292786.0, -1312164.9, 12257.263, 0.06557543, -0.06744767, -1286850.9, 36295.715, 0.0, 10.000197, 9.999947 
8.650775e+2, 1.7498446e+2, -1122223.3, -1184097.6, -41305.137, -0.104027584, -0.075466156, -1101554.0, 123588.29, 0.0, 10.000707, 9.999913 
8.6506957e+2, 1.8498403e+2, -1112502.0, -1275969.9, 19224.885, -0.14289875, -0.03985241, -1110271.5, 16875.69, 0.0, 10.000748, 9.998582 
8.650637e+2, 1.9498277e+2, -1083051.8, -1217298.1, 16622.408, -0.062097445, -0.048779856, -1081024.1, -51860.727, 0.0, 10.0003, 9.998529 
8.650566e+2, 2.0498197e+2, -941111.5, -1024944.7, -2706.956, -0.036778823, -0.009862056, -941024.2, -9851.669, 0.0, 10.000287, 9.999186 
8.65048e+2, 2.1498121e+2, -799271.4, -911120.8, 12153.35, -0.0795303, -0.032769054, -797966.06, 35211.92, 0.0, 10.000605, 9.999145 
8.650403e+2, 2.2498003e+2, -682232.5, -844700.0, 74840.2, -0.06281773, -0.04110679, -653012.75, 82175.49, 0.0, 10.000918, 9.9987755 
8.650335e+2, 2.3497821e+2, -541193.8, -728605.94, 87951.266, 0.017091153, -0.1287851, -506384.3, 130820.98, 0.0, 10.001226, 9.99875 
8.65026e+2, 2.449773e+2, -484034.8, -601094.25, 147061.81, -0.046583664, -0.112475164, -384283.44, 154930.28, 0.0, 10.000726, 9.999195 
8.6501765e+2, 2.5497687e+2, -572023.06, -595920.06, 97530.055, -0.25576162, -0.103422545, -485712.3, -44495.0, 0.0, 9.999466, 9.999166 
8.650103e+2, 2.6497602e+2, -430841.25, -487219.75, 279.7186, -0.24001127, -0.0969956, -430839.88, -87615.86, 0.0000000005766255, 9.99981, 9.999068 
8.65004e+2, 2.749744e+2, -47313.082, -258823.28, -16024.388, 0.0067610154, -0.19338794, -46105.934, 199130.61, 0.000000514823, 10.001794, 9.999013 
8.649971e+2, 2.8497332e+2, 20361.105, -219702.61, 95508.06, 0.042403642, -0.17285185, 53722.33, 200967.77, 0.0000054394536, 10.001775, 9.998619 
8.649894e+2, 2.9497242e+2, -186675.33, -267819.38, 75283.484, -0.11964849, -0.16544762, -141727.22, -92471.88, 0.000035908153, 9.999673, 9.998622 
8.6498004e+2, 3.0497172e+2, -108538.14, -205024.28, -85816.484, -0.20105237, -0.092041835, -58333.945, -58333.945, 0.00014009468, 9.999882, 9.998622 
8.6497164e+2, 3.149703e+2, 246672.67, 62236.875, -109076.76, 0.055365507, -0.12957612, 297289.94, 297289.94, 0.00033844914, 10.0018425, 9.999505 
8.751149e+2, 1.2499136e+2, -1870322.3, -1889067.4, 36695.074, -0.17701499, -0.36528704, -1841821.8, -126758.46, 0.0000000055054987, 9.999272, 9.999139 
8.751113e+2, 1.3499276e+2, -1612937.1, -1702793.6, 44606.684, 0.19976433, -0.1811864, -1594554.3, 22502.258, 0.0, 10.000388, 9.999204 
8.7510437e+2, 1.449934e+2, -1438654.1, -1508066.9, 38594.004, 0.25019613, -0.05690611, -1421456.5, 97597.61, 0.0, 10.00062, 9.999755 
8.7509245e+2, 1.549935e+2, -1406908.6, -1440010.0, 72348.97, -0.23358774, -0.060747493, -1349241.4, 71811.79, 0.0, 10.000168, 9.999768 
8.750839e+2, 1.6499257e+2, -1365531.8, -1460357.1, 15919.672, -0.3473193, -0.08456094, -1362930.5, -39868.715, 0.0, 10.000172, 9.998948 
8.7507886e+2, 1.749905e+2, -1195334.8, -1331993.9, -8721.429, -0.07204527, -0.2119859, -1194780.4, 30300.25, 0.0, 10.000688, 9.998907 
8.750722e+2, 1.8499e+2, -1104166.0, -1243483.8, -11519.565, 0.01325346, -0.14392853, -1103219.9, 23868.24, 0.0, 10.000683, 9.998837 
8.750639e+2, 1.9499058e+2, -1078692.1, -1179284.6, 15412.85, -0.103414245, -0.0009904082, -1076383.5, -47294.426, 0.0, 10.000182, 9.998844 
8.750559e+2, 2.049902e+2, -908577.44, -921981.5, -4007.4165, -0.15762416, 0.024069695, -907470.75, 23622.408, 0.0, 10.000128, 9.999972 
8.750481e+2, 2.1498862e+2, -767760.4, -806712.94, 36259.547, -0.15637523, -0.15844087, -746077.5, 87025.195, 0.0, 10.000434, 9.999944 
8.750409e+2, 2.2498818e+2, -661748.94, -759789.8, 70688.836, -0.11819224, -0.16585883, -624746.6, 110356.39, 0.0, 10.000735, 9.999449 
8.750342e+2, 2.3498853e+2, -523764.16, -642451.6, 114068.61, -0.052355353, -0.10469396, -454525.9, 182571.39, 0.0, 10.001015, 9.999443 
8.750269e+2, 2.4498782e+2, -568502.25, -746636.7, 84489.33, -0.057934843, -0.056220517, -534803.75, 4301.218, 0.0, 10.0005865, 9.998268 
8.750184e+2, 2.5498578e+2, -657340.2, -741186.6, 65721.49, -0.14617689, -0.11448309, -621309.1, -180180.47, 0.0, 9.99933, 9.998234 
8.750117e+2, 2.6498452e+2, -443890.22, -504419.66, 61283.277, -0.11350837, -0.097122096, -405805.88, -62664.523, 0.0000000691861, 9.999758, 9.99898 
8.750066e+2, 2.7498356e+2, -67506.914, -276112.72, 74921.39, 0.04575774, -0.12414331, -43387.426, 201759.9, 0.000001269736, 10.001687, 9.998945 
8.7499857e+2, 2.8498238e+2, 9728.77, -230679.3, 1900.3801, -0.012984238, -0.10938652, 9743.791, 156901.8, 0.000008255043, 10.001718, 9.998579 
8.749876e+2, 2.9498056e+2, -195483.05, -278576.47, 16585.45, -0.30433145, -0.18352087, -192294.92, -143116.69, 0.000042714033, 9.999627, 9.998579 
8.749792e+2, 3.049797e+2, -110128.58, -187404.3, -15914.594, -0.30272663, -0.132796, -106979.375, -106979.375, 0.00015288098, 9.9998, 9.998776 
8.749742e+2, 3.1497887e+2, 280767.0, 147336.66, -1265.8553, 0.04856772, -0.12597455, 280779.0, 280779.0, 0.00035815634, 10.00177, 10.00013 
8.8511515e+2, 1.24999434e+2, -1640697.9, -1760410.5, 13176.566, -0.13960563, -0.3267451, -1639264.8, 75719.74, 0.00000006865043, 10.000766, 9.9993105 
8.851117e+2, 1.3500005e+2, -1623186.9, -1702047.4, -14728.939, 0.22238709, -0.22788563, -1620525.8, -3542.1477, 0.0, 10.000281, 9.9992695 
8.851048e+2, 1.4500043e+2, -1539745.9, -1584803.4, -2673.0718, 0.268872, -0.11526351, -1539587.8, -20604.855, 0.0, 10.00007, 9.999481 
8.85093e+2, 1.550008e+2, -1377210.9, -1458746.9, -46937.1, -0.20768006, -0.06366375, -1355808.9, 65171.76, 0.0, 10.000521, 9.999459 
8.850845e+2, 1.6499978e+2, -1307366.8, -1456879.3, -58865.504, -0.31539944, -0.07066649, -1286972.4, 36018.69, 0.0, 10.000685, 9.998725 
8.850796e+2, 1.7499736e+2, -1230247.6, -1374422.6, -55209.01, -0.04912977, -0.2102821, -1211535.1, 13479.196, 0.0, 10.000564, 9.998678 
8.8507277e+2, 1.8499687e+2, -1153649.3, -1233597.3, -29751.627, 0.031902704, -0.14422785, -1143792.8, -16770.879, 0.0, 10.000194, 9.999142 
8.850638e+2, 1.949978e+2, -1149072.3, -1183226.8, -31621.09, -0.08654494, 0.007271629, -1130211.8, -101193.3, 0.0, 9.999561, 9.999122 
8.85056e+2, 2.049976e+2, -981376.94, -942871.56, -8775.57, -0.11768031, 0.029954532, -940965.9, -9945.505, 0.0, 9.99957, 10.000099 
8.8504934e+2, 2.1499605e+2, -787999.94, -804998.5, -42595.508, -0.05967184, -0.16135894, -753064.06, 79965.695, 0.0, 10.000243, 10.000054 
8.8504225e+2, 2.249957e+2, -671440.6, -751622.9, -39093.754, -0.04305755, -0.17069107, -655535.1, 79494.19, 0.0, 10.000609, 9.999558 
8.850348e+2, 2.3499621e+2, -569066.75, -656568.6, -71883.76, -0.07594021, -0.10471837, -528666.5, 108355.98, 0.0, 10.000656, 9.999518 
8.8502747e+2, 2.4499562e+2, -519396.75, -713952.56, -75280.59, -0.061478145, -0.052943256, -493669.94, 45359.004, 0.0, 10.000891, 9.998338 
8.850201e+2, 2.5499353e+2, -345004.56, -585893.75, -50181.58, -0.011459244, -0.12714659, -334968.94, 106083.45, 0.00000000006372724, 10.00143, 9.99829 
8.850133e+2, 2.6499218e+2, -236888.08, -406814.78, 47303.496, 0.009129568, -0.11818308, -224607.45, 118458.18, 0.00000025387644, 10.001194, 9.998956 
8.8500714e+2, 2.7499124e+2, -273932.25, -378377.28, 32411.986, 0.011087207, -0.13662942, -264691.53, -19619.533, 0.0000021793016, 10.0002775, 9.998922 
8.8499904e+2, 2.8499028e+2, -208118.06, -331598.53, -46420.97, -0.058687717, -0.10258112, -192613.47, -45531.953, 0.000011106664, 10.000224, 9.998584 
8.849889e+2, 2.9498893e+2, 19151.355, -174720.2, -61385.816, -0.20239465, -0.13059287, 36953.38, 86051.484, 0.000049522223, 10.001108, 9.9985695 
8.84981e+2, 3.0498755e+2, 153398.47, -58314.867, -10091.204, -0.1834349, -0.13427971, 153878.38, 153878.38, 0.00016467013, 10.001602, 9.998801 
8.8497514e+2, 3.1498677e+2, 214064.78, 124645.234, -54197.5, 0.0042780484, -0.11946602, 239614.05, 239614.05, 0.00037312726, 10.001287, 10.000213 
8.951175e+2, 1.2500918e+2, -1615804.0, -1685071.4, -42440.227, -0.049445152, -0.02650482, -1595659.4, 119238.516, 0.00000033567557, 10.000692, 9.99985 
8.951089e+2, 1.3500746e+2, -1595761.5, -1640190.0, -26960.607, -0.11162885, -0.19702071, -1583042.4, 33869.363, 0.00000000007521531, 10.00028, 9.999686 
8.9510196e+2, 1.4500651e+2, -1597362.9, -1707559.8, -4014.2324, -0.052795574, -0.20086928, -1597216.9, -78294.89, 0.0, 10.000076, 9.99864 
8.950964e+2, 1.5500651e+2, -1441886.5, -1587935.4, -11550.333, 0.04798045, -0.096723326, -1440978.8, -20052.299, 0.0, 10.000499, 9.998584 
8.9508885e+2, 1.6500607e+2, -1279681.5, -1391231.1, -78569.88, 0.013501248, -0.02317495, -1239102.5, 83830.55, 0.0, 10.000649, 9.99919 
8.9507955e+2, 1.7500497e+2, -1204411.3, -1303841.8, -44332.24, -0.14374381, -0.082000256, -1187516.0, 37427.58, 0.0, 10.000498, 9.99919 
8.950709e+2, 1.8500464e+2, -1145703.0, -1197002.1, -67065.22, -0.19562611, -0.04260895, -1099549.8, 27398.135, 0.0, 10.000099, 9.999441 
8.950631e+2, 1.950047e+2, -1148443.4, -1151486.9, -42454.797, -0.14533502, -0.009130865, -1107483.1, -78533.43, 0.0, 9.999431, 9.9994 
8.9505655e+2, 2.0500442e+2, -1035828.25, -1028372.8, 2689.1584, -0.04942407, 0.020365939, -1027504.06, -96551.69, 0.0, 9.999445, 9.999576 
8.9505124e+2, 2.1500352e+2, -850214.2, -889730.44, 524.46246, 0.08926807, -0.05476745, -850207.25, -17248.25, 0.0, 10.000056, 9.99956 
8.95044e+2, 2.2500266e+2, -735914.75, -843067.6, -49242.805, 0.047569316, -0.06484981, -716722.44, 18244.328, 0.0, 10.00042, 9.999025 
8.950347e+2, 2.3500153e+2, -632548.56, -743526.94, -56201.324, -0.18247057, -0.11202823, -609059.0, 27919.496, 0.0, 10.000464, 9.999012 
8.950274e+2, 2.4500087e+2, -464058.6, -568608.3, -69887.29, -0.18466443, -0.09494066, -429058.63, 109925.164, 0.0, 10.000757, 9.999402 
8.950223e+2, 2.5500023e+2, -297483.84, -444743.75, -14642.646, 0.03242506, -0.12778535, -296042.0, 144944.78, 0.0000000002378373, 10.001251, 9.999348 
8.950149e+2, 2.649993e+2, -247780.38, -406749.16, 1217.4343, 0.016905164, -0.13581423, -247771.05, 95222.95, 0.00000030747992, 10.001097, 9.999002 
8.950053e+2, 2.7499762e+2, -291890.7, -387739.88, 17822.912, -0.22952498, -0.2280399, -288683.84, -43674.547, 0.0000026197797, 10.000163, 9.998912 
8.9499784e+2, 2.8499702e+2, -217578.2, -343771.0, -26507.637, -0.22930032, -0.15509662, -212236.23, -65219.914, 0.000013171274, 10.000182, 9.998522 
8.949927e+2, 2.9499727e+2, 6692.0366, -184562.86, -12354.851, 0.028115189, -0.018583195, 7486.8433, 56503.83, 0.000055655084, 10.001028, 9.998541 
8.94985e+2, 3.049951e+2, 129270.5, -76515.22, -32166.709, 0.035415396, -0.09905285, 134181.34, 134181.34, 0.00017580122, 10.001488, 9.998724 
8.9497346e+2, 3.149921e+2, 166096.19, 73902.55, -13973.629, -0.3557936, -0.2951828, 168167.6, 168167.6, 0.00038747952, 10.001103, 9.999937 
9.051187e+2, 1.2501594e+2, -1772255.9, -1751116.3, -30450.578, 0.07474657, 0.044110004, -1729453.3, -14617.3545, 0.0000010657902, 9.999535, 9.999968 
9.0510917e+2, 1.3501437e+2, -1433961.0, -1564706.6, -91682.34, -0.1561306, -0.11553751, -1386731.6, 230114.7, 0.000000007369457, 10.001375, 9.999682 
9.051023e+2, 1.4501311e+2, -1387251.4, -1607735.4, -58723.043, -0.09360966, -0.15137915, -1372586.6, 146271.86, 0.0, 10.00151, 9.998633 
9.0509796e+2, 1.5501235e+2, -1483404.8, -1608169.9, -38758.797, 0.17480291, -0.12785034, -1472344.6, -51474.38, 0.0, 10.000202, 9.998591 
9.050905e+2, 1.6501212e+2, -1373984.0, -1386466.4, -16984.756, 0.16587144, -0.057449013, -1362130.1, -39255.742, 0.0, 9.999781, 9.999653 
9.0508014e+2, 1.75012e+2, -1213549.4, -1256778.9, -17346.068, -0.10649794, -0.06078239, -1207449.8, 17424.584, 0.0, 10.000203, 9.9996605 
9.050712e+2, 1.8501176e+2, -1055945.9, -1136580.8, -27965.373, -0.192843, -0.04430416, -1047196.5, 79679.75, 0.0, 10.0006275, 9.999601 
9.0506375e+2, 1.9501108e+2, -890636.06, -1012844.1, -36735.89, -0.102336, -0.10051165, -880443.3, 148439.63, 0.0, 10.001109, 9.999552 
9.0505713e+2, 2.050108e+2, -808899.5, -948103.56, 47115.62, -0.009738296, -0.06455141, -794452.0, 136434.13, 0.0, 10.001135, 9.999303 
9.0505147e+2, 2.1501058e+2, -772751.1, -883405.8, 26855.879, 0.07997944, -0.04511778, -766577.6, 66311.55, 0.0, 10.000721, 9.999278 
9.050444e+2, 2.2500987e+2, -733204.6, -846547.8, 28474.102, 0.04612128, -0.024170386, -726453.5, 8443.714, 0.0, 10.000472, 9.998977 
9.0503573e+2, 2.3500833e+2, -635798.6, -752809.2, 29979.33, -0.116069086, -0.102436736, -628564.8, 8348.248, 0.0, 10.000478, 9.998946 
9.0502876e+2, 2.4500754e+2, -481963.16, -566403.2, 38308.22, -0.10983851, -0.09902224, -467173.97, 71745.84, 0.0, 10.000589, 9.999495 
9.050235e+2, 2.5500718e+2, -352055.94, -457171.28, -10727.603, 0.06458398, -0.1160549, -350972.3, 89947.99, 0.0, 10.000824, 9.99946 
9.050158e+2, 2.6500636e+2, -305653.1, -440586.94, -44120.715, 0.025753893, -0.11040071, -292507.22, 50419.24, 0.0000002007212, 10.000735, 9.998942 
9.0500563e+2, 2.7500474e+2, -264487.22, -376474.03, -63792.418, -0.21919723, -0.19664548, -235599.92, 9342.389, 0.0000025589381, 10.000368, 9.998885 
9.0499836e+2, 2.8500408e+2, -177953.25, -296810.5, -16347.693, -0.2026093, -0.13968661, -175745.78, -28796.824, 0.000014749117, 10.000322, 9.998795 
9.049941e+2, 2.9500437e+2, -50399.508, -175104.92, -8954.58, 0.09748887, -0.025162226, -49759.797, -812.9781, 0.00006245814, 10.000489, 9.998871 
9.0498686e+2, 3.0500236e+2, 14138.132, -156256.9, -10382.057, 0.12129602, -0.09636908, 14768.373, 14768.373, 0.00018874744, 10.000781, 9.9985285 
9.049752e+2, 3.1499928e+2, 87640.086, -33957.395, -44525.21, -0.26372117, -0.27858177, 102200.36, 102200.36, 0.0004049675, 10.000824, 9.999356 
9.151177e+2, 1.250203e+2, -1779968.0, -1772581.9, -7991.7466, -0.048630174, -0.06842974, -1767471.1, -52678.125, 0.000002613721, 9.999576, 9.999796 
9.1511196e+2, 1.350208e+2, -1457225.9, -1601849.1, -11784.887, -0.05056263, 0.0048571825, -1456271.9, 160515.39, 0.00000007607973, 10.001338, 9.99944 
9.1510516e+2, 1.4502005e+2, -1340757.5, -1497854.0, -125223.13, -0.003407154, -0.0053651454, -1271486.1, 247308.53, 0.0, 10.0014515, 9.999417 
9.1509724e+2, 1.550184e+2, -1427557.4, -1488498.0, -71611.47, 0.04787114, -0.15143001, -1380203.3, 40607.863, 0.0, 10.000191, 9.999416 
9.1508913e+2, 1.6501808e+2, -1345517.3, -1325463.3, -18384.639, 0.018244084, -0.15230907, -1314549.0, 8264.103, 0.0, 9.999769, 10.000077 
9.150811e+2, 1.7501867e+2, -1189528.8, -1200112.0, 12824.919, -0.06995125, -0.12933613, -1180946.6, 43858.0, 0.0, 10.000171, 10.000066 
9.150731e+2, 1.850184e+2, -1061493.4, -1130071.8, -22968.76, -0.09797769, -0.13908534, -1054511.4, 72293.96, 0.0, 10.000549, 9.999685 
9.1506535e+2, 1.9501705e+2, -907679.5, -1013614.25, -2318.0354, -0.07504272, -0.26781052, -907628.8, 121188.74, 0.0, 10.000965, 9.999617 
9.150575e+2, 2.0501687e+2, -842861.44, -979746.9, 18827.666, -0.1162256, -0.21985306, -840319.06, 90501.59, 0.0, 10.000968, 9.999163 
9.1504955e+2, 2.1501744e+2, -813178.1, -920186.7, 23491.465, -0.21041846, -0.108640425, -808248.2, 24570.44, 0.0, 10.000524, 9.999117 
9.150428e+2, 2.2501741e+2, -724417.75, -796708.94, 12156.636, -0.17172238, -0.030879086, -722428.25, 12391.644, 0.0, 10.000325, 9.999393 
9.150375e+2, 2.3501655e+2, -633883.7, -706459.6, 45957.516, -0.0009430023, -0.08296535, -611614.75, 25211.975, 0.0, 10.000296, 9.999351 
9.1503114e+2, 2.4501571e+2, -563683.94, -703400.7, 34347.445, 0.039075237, -0.06265486, -555696.7, -16860.645, 0.0, 10.000443, 9.998628 
9.1502357e+2, 2.5501445e+2, -433323.34, -597504.44, 13901.979, -0.046593677, -0.08075071, -432154.53, 8697.376, 0.0, 10.000694, 9.998566 
9.1501564e+2, 2.6501352e+2, -326733.06, -463376.0, -71014.2, -0.091218434, -0.03828259, -296510.94, 46351.68, 0.00000011562638, 10.000652, 9.998823 
9.150076e+2, 2.7501255e+2, -288537.34, -399202.13, -60672.156, -0.0878299, -0.043706916, -261755.27, -16883.639, 0.0000025826089, 10.000255, 9.998784 
9.1499996e+2, 2.8501153e+2, -144942.67, -206053.86, -24716.258, -0.10217326, -0.051311515, -136197.66, 10681.343, 0.000017159802, 10.000235, 9.999457 
9.149926e+2, 2.9501033e+2, -20697.986, -96350.54, 17496.445, -0.14034371, -0.15396905, -16847.496, 32039.12, 0.00007135739, 10.000417, 9.999448 
9.1498613e+2, 3.0500925e+2, -29527.11, -221313.92, -14778.58, -0.06026476, -0.13126805, -28394.994, -28394.994, 0.00020564985, 10.000684, 9.9981165 
9.1497916e+2, 3.1500876e+2, 17328.898, -131674.6, 20004.145, -0.010590822, -0.025578413, 19967.775, 19967.775, 0.00042848263, 10.000646, 9.99875 
9.2511797e+2, 1.250257e+2, -1579170.9, -1692643.8, 98029.92, -0.03964922, -0.16426991, -1522642.6, 192093.48, 0.0000053718704, 10.001033, 9.999645 
9.2511356e+2, 1.3502632e+2, -1690459.3, -1725220.9, 56130.05, 0.06930766, -0.07149764, -1649080.6, -32349.531, 0.00000033393198, 9.999787, 9.999353 
9.251065e+2, 1.4502597e+2, -1610929.3, -1570044.0, -42904.723, 0.10455794, -0.059725586, -1542960.6, -24225.486, 0.0, 9.999352, 9.999935 
9.2509687e+2, 1.5502547e+2, -1410948.9, -1427370.3, -45670.348, 0.007860756, -0.14214122, -1372757.0, 47983.504, 0.0, 10.000074, 9.999893 
9.2508864e+2, 1.6502538e+2, -1260271.0, -1279761.4, 30154.164, -0.024173861, -0.14360727, -1238326.4, 84413.33, 0.0, 10.000335, 10.000111 
9.2508197e+2, 1.7502552e+2, -1184539.5, -1194207.4, 559.99695, 0.013044106, -0.16899133, -1184507.3, 40227.96, 0.0, 10.000195, 10.0000925 
9.250745e+2, 1.8502524e+2, -1145057.9, -1200431.1, -35203.934, 0.014958953, -0.16802992, -1127957.6, -1220.7894, 0.0, 10.000113, 9.999414 
9.2506623e+2, 1.9502422e+2, -1066105.1, -1115637.3, -73538.62, -0.025564622, -0.24072932, -1013274.25, 15473.543, 0.0, 9.999996, 9.999379 
9.25058e+2, 2.0502391e+2, -972692.25, -1038500.9, -37136.355, -0.108178586, -0.1948679, -955980.0, -25227.643, 0.0, 10.000058, 9.999208 
9.250498e+2, 2.1502398e+2, -828905.8, -920961.56, -38524.97, -0.21728644, -0.13377249, -814910.9, 17842.832, 0.0, 10.000377, 9.999192 
9.250434e+2, 2.2502384e+2, -653886.94, -749322.1, -15253.966, -0.16302323, -0.0802945, -651508.1, 83247.05, 0.0, 10.000744, 9.9995165 
9.250387e+2, 2.3502317e+2, -504240.66, -633217.1, -37002.17, 0.04908279, -0.12492858, -494379.06, 142380.02, 0.0, 10.001124, 9.999458 
9.250322e+2, 2.4502249e+2, -504203.9, -711975.75, -23049.377, 0.08212265, -0.07557951, -501677.63, 37090.406, 0.0, 10.001021, 9.998293 
9.250239e+2, 2.5502145e+2, -478998.56, -651917.56, -33350.4, -0.06266754, -0.038245253, -472789.3, -32004.176, 0.0, 10.000537, 9.998265 
9.250161e+2, 2.6502067e+2, -331408.66, -452659.06, -52971.1, -0.097617514, 0.027487786, -311527.0, 31268.512, 0.00000007319143, 10.000535, 9.998967 
9.2500895e+2, 2.750197e+2, -176332.36, -329247.06, -45751.33, -0.0010330727, 0.008590018, -163689.14, 81113.85, 0.0000027897247, 10.000932, 9.998949 
9.2500126e+2, 2.8501838e+2, -55603.504, -195093.23, -4141.6606, -0.018127345, -0.027122902, -55480.64, 91332.77, 0.000020180585, 10.000989, 9.999161 
9.24993e+2, 2.950164e+2, 9081.2, -116413.31, -69055.88, -0.1468625, -0.17110138, 39639.53, 88467.95, 0.00008285034, 10.000764, 9.999136 
9.249865e+2, 3.0501586e+2, 1729.6604, -209559.58, -84464.1, -0.086444125, -0.08628202, 31343.943, 31343.943, 0.0002292469, 10.00087, 9.998121 
9.2498124e+2, 3.150156e+2, 66409.59, -103190.71, -56565.785, 0.13269718, 0.046565067, 83544.49, 83544.49, 0.0004645645, 10.000916, 9.998836 
9.351185e+2, 1.2503186e+2, -1595443.4, -1700594.9, 5752.772, -0.16189519, -0.27755266, -1595129.6, 119538.56, 0.000009857008, 10.000949, 9.999621 
9.3511367e+2, 1.3503113e+2, -1674866.1, -1698467.5, 19235.707, 0.06728754, -0.33487532, -1664099.9, -47423.953, 0.0000009955157, 9.999832, 9.999504 
9.351061e+2, 1.4503118e+2, -1595906.5, -1549341.3, -33013.934, 0.08641606, -0.29282215, -1532225.9, -13548.38, 0.00000000002439963, 9.999394, 10.000061 
9.3509644e+2, 1.5503353e+2, -1404745.6, -1403332.0, -3456.4692, -0.07351368, -0.10344557, -1400510.8, 20147.92, 0.0, 10.0000305, 10.000078 
9.350887e+2, 1.6503404e+2, -1290604.9, -1330995.1, 7050.721, -0.087794095, -0.041247994, -1289409.4, 33244.973, 0.0, 10.000277, 9.999792 
9.3508255e+2, 1.7503265e+2, -1209373.5, -1243633.8, 10442.849, 0.026055643, -0.18686357, -1206441.4, 18224.17, 0.0, 10.000179, 9.999764 
9.35075e+2, 1.8503232e+2, -1204587.3, -1307381.9, -50938.04, 0.023615915, -0.1370643, -1183621.8, -56951.477, 0.0, 10.000046, 9.998714 
9.350659e+2, 1.9503255e+2, -1131313.6, -1226365.4, -64369.7, -0.08854641, -0.013576916, -1098826.0, -70152.38, 0.0, 9.999892, 9.9986725 
9.3505824e+2, 2.0503193e+2, -964761.8, -993604.7, -39730.53, -0.114379264, 0.01757353, -936916.3, -6235.378, 0.0, 9.999932, 9.999577 
9.35052e+2, 2.1503024e+2, -830557.06, -886963.75, -10721.648, -0.05809517, -0.13354051, -828587.9, 4106.741, 0.0, 10.000208, 9.999512 
9.3504554e+2, 2.2502913e+2, -698564.9, -795544.2, -13207.906, -0.04768536, -0.1789889, -696798.2, 37904.74, 0.0, 10.000546, 9.999293 
9.3503875e+2, 2.3502825e+2, -547010.0, -679484.4, -9268.443, -0.082173444, -0.22508556, -546364.6, 90344.84, 0.0, 10.00094, 9.999231 
9.350316e+2, 2.4502797e+2, -511688.6, -695795.9, -56065.082, -0.105056785, -0.13281079, -495959.25, 42755.598, 0.0, 10.000884, 9.998471 
9.350242e+2, 2.55028e+2, -486162.75, -640877.2, -35999.51, -0.1075369, -0.0036216401, -478196.44, -37474.63, 0.0, 10.000413, 9.998408 
9.350168e+2, 2.6502764e+2, -312722.06, -380723.72, -47579.203, -0.10347927, 0.06898226, -288243.5, 54483.496, 0.00000003612581, 10.000404, 9.9995165 
9.350093e+2, 2.750264e+2, -161850.9, -265420.88, -12684.802, -0.09012561, -0.03279113, -160319.95, 84415.08, 0.0000027030533, 10.000799, 9.999444 
9.35002e+2, 2.850248e+2, -154031.94, -387472.0, -23246.6, -0.076721214, -0.0540504, -151739.48, -4989.5264, 0.000022488803, 10.000927, 9.997872 
9.3499494e+2, 2.9502276e+2, -89504.164, -312032.78, -56026.688, -0.068344615, -0.08065996, -76194.26, -27422.285, 0.00009525127, 10.000715, 9.997819 
9.349877e+2, 3.0502206e+2, 22715.73, -148616.44, -88697.805, -0.08248249, 0.038040437, 60362.17, 60362.17, 0.00025879213, 10.000812, 9.998565 
9.3498045e+2, 3.150206e+2, 102579.98, 10835.849, -344.75467, -0.10483949, -0.0033245098, 102581.27, 102581.27, 0.0005142612, 10.00077, 9.999681 
9.4512105e+2, 1.2503943e+2, -1637808.5, -1686163.6, -23211.002, 0.04500674, -0.19701737, -1628470.4, 86127.83, 0.000016753027, 10.000476, 9.999959 
9.451132e+2, 1.3503861e+2, -1576258.5, -1620014.5, -44878.63, 0.019026788, -0.2947157, -1548209.1, 68395.72, 0.000002343361, 10.000356, 9.999798 
9.4510484e+2, 1.4503857e+2, -1512064.1, -1513029.5, -30629.512, -0.0000404204, -0.2783851, -1481913.5, 36693.152, 0.0000000053592455, 9.999982, 10.000027 
9.450966e+2, 1.5504083e+2, -1462854.6, -1445357.0, -50726.574, -0.029990992, -0.09118803, -1402630.3, 17957.936, 0.0, 9.999672, 9.999975 
9.450894e+2, 1.6504127e+2, -1364336.4, -1381977.3, -5440.4985, -0.012727836, -0.022927767, -1362793.5, -40208.55, 0.0, 9.999841, 9.999647 
9.450829e+2, 1.750398e+2, -1177616.1, -1244940.4, -20704.152, 0.031293318, -0.16312519, -1171758.6, 52839.125, 0.0, 10.000473, 9.999608 
9.450754e+2, 1.8503945e+2, -1084230.4, -1247049.4, -29384.182, 0.021495057, -0.10892643, -1079089.6, 47513.3, 0.0, 10.000882, 9.998711 
9.4506687e+2, 1.9503978e+2, -949979.0, -1137154.9, -18878.377, -0.03279823, 0.025658492, -948093.94, 80510.91, 0.0, 10.00115, 9.998664 
9.450597e+2, 2.05039e+2, -788573.8, -936677.94, 37258.438, -0.023403285, 0.05268318, -779728.94, 150884.7, 0.0, 10.0012455, 9.999338 
9.450537e+2, 2.1503696e+2, -727778.2, -859631.6, -5889.649, 0.054270893, -0.11490316, -727515.6, 105115.37, 0.0, 10.001008, 9.999307 
9.4504696e+2, 2.2503573e+2, -672761.2, -791365.44, 10981.628, 0.028574606, -0.15784661, -671753.0, 62887.8, 0.0, 10.000778, 9.999204 
9.450394e+2, 2.3503499e+2, -597696.56, -710860.4, -1266.9276, -0.092390366, -0.18023351, -597682.4, 38963.914, 0.0, 10.000637, 9.999156 
9.4503206e+2, 2.4503459e+2, -533265.3, -664209.4, -22250.12, -0.12731175, -0.11330446, -529587.8, 9063.105, 0.0, 10.000553, 9.998844 
9.450251e+2, 2.550343e+2, -445331.75, -572945.8, -13902.096, -0.062292255, -0.057712015, -443834.84, -3177.6843, 0.0, 10.000489, 9.998827 
9.450177e+2, 2.6503372e+2, -321655.06, -422952.1, -6840.5654, -0.05017784, -0.010488973, -321195.22, 21468.291, 0.000000027783642, 10.000499, 9.999186 
9.4501e+2, 2.7503243e+2, -221844.7, -330568.72, -67311.36, -0.07674823, -0.08085483, -189684.77, 54989.555, 0.000002329391, 10.000537, 9.99913 
9.450029e+2, 2.8503105e+2, -151221.94, -371769.8, -26601.021, -0.06914589, -0.07204774, -148058.88, -1370.5741, 0.000023981273, 10.0008955, 9.997999 
9.449965e+2, 2.9502937e+2, 29254.93, -241021.55, 16490.64, -0.01914832, -0.07414114, 30257.371, 78963.92, 0.00010679835, 10.00148, 9.997943 
9.4498897e+2, 3.050283e+2, 120401.07, -105310.164, 34196.484, -0.06325114, 0.0055821887, 125468.266, 125468.266, 0.00028981623, 10.001518, 9.99852 
9.4498146e+2, 3.1502637e+2, 127289.71, 60110.152, 28821.738, -0.06462626, -0.07404851, 137960.14, 137960.14, 0.00057081727, 10.000787, 10.000012 
9.551247e+2, 1.2504856e+2, -1614844.5, -1616469.3, -71049.64, 0.29107976, 0.07630982, -1544602.6, 169921.7, 0.00002677623, 10.000413, 10.000448 
9.551116e+2, 1.350488e+2, -1552280.6, -1549981.6, -37601.598, -0.19166233, 0.032475036, -1513512.0, 103005.63, 0.0000047533053, 10.000293, 10.000292 
9.5510244e+2, 1.4504796e+2, -1538861.0, -1559618.9, -61522.03, -0.28277716, -0.042518146, -1486848.5, 31675.102, 0.000000046136613, 9.999931, 9.999738 
9.550969e+2, 1.550475e+2, -1474107.9, -1480868.5, -47851.406, -0.005036921, -0.10102188, -1429517.5, -8989.536, 0.0, 9.9997225, 9.999706 
9.550903e+2, 1.6504733e+2, -1365698.8, -1385350.0, 4702.093, 0.05995509, -0.07787336, -1364631.6, -42102.52, 0.0, 9.999844, 9.999622 
9.5508254e+2, 1.7504708e+2, -1184467.9, -1248714.4, 17106.291, -0.08587244, -0.09341901, -1180197.0, 44333.5, 0.0, 10.00043, 9.999601 
9.550753e+2, 1.8504667e+2, -1044708.3, -1154994.6, -33235.734, -0.101533726, -0.077875026, -1035466.8, 91067.23, 0.0, 10.000825, 9.999375 
9.5506877e+2, 1.950458e+2, -915333.8, -1046568.0, 5640.1685, 0.0072274236, -0.13159592, -915091.9, 113450.87, 0.0, 10.0010605, 9.999332 
9.550619e+2, 2.0504506e+2, -865029.9, -1059815.4, 12016.934, 0.04630743, -0.09579744, -864291.3, 66259.98, 0.0, 10.001094, 9.998567 
9.550545e+2, 2.1504411e+2, -812477.8, -987966.06, -2580.9702, 0.009827099, -0.07413347, -812439.9, 20123.225, 0.0, 10.000803, 9.998527 
9.5504725e+2, 2.2504361e+2, -694403.1, -789983.0, -8635.591, -0.040492855, -0.00980984, -693629.2, 40939.293, 0.0, 10.00058, 9.999307 
9.550401e+2, 2.3504323e+2, -620210.75, -714991.0, 9529.425, -0.10337973, -0.0033639802, -619262.2, 17308.602, 0.0, 10.000449, 9.999222 
9.55033e+2, 2.4504222e+2, -516087.53, -586273.6, -36437.707, -0.109493524, -0.03309822, -500591.75, 37985.6, 0.0, 10.0003805, 9.9994545 
9.5502585e+2, 2.5504026e+2, -426375.3, -501773.66, -915.34406, -0.05933811, -0.20386435, -426364.2, 14227.184, 0.0, 10.000356, 9.999376 
9.5501846e+2, 2.650389e+2, -426294.44, -609340.75, -18380.348, -0.04961367, -0.20019518, -424467.03, -81862.12, 0.000000030362223, 10.000376, 9.997961 
9.5501065e+2, 2.7503774e+2, -323764.75, -514397.4, -46688.605, -0.09271537, -0.1388887, -312944.22, -68322.6, 0.000002140531, 10.000425, 9.997917 
9.5500356e+2, 2.850369e+2, -55169.723, -151184.5, -17763.463, -0.12241447, -0.092129596, -51988.73, 94641.47, 0.000025889522, 10.000806, 9.999556 
9.5499706e+2, 2.9503614e+2, 124502.83, -23161.846, 58183.105, -0.13758542, -0.15821336, 144673.08, 193305.53, 0.00011778403, 10.001396, 9.999477 
9.5498985e+2, 3.0503464e+2, 69735.12, -193080.33, 4943.9106, -0.14809096, -0.17030159, 69828.086, 69828.086, 0.00031950467, 10.001439, 9.997957 
9.549835e+2, 3.1503245e+2, 95675.58, 18246.137, 36864.5, -0.011341469, -0.22202703, 110419.445, 110419.445, 0.00062882464, 10.000681, 9.999777 
9.651249e+2, 1.2505679e+2, -1813065.1, -1715027.4, 40770.0, 0.35439712, 0.14819364, -1700288.5, 14159.935, 0.000040530904, 9.999022, 10.000464 
9.6511215e+2, 1.3505746e+2, -1639209.5, -1583365.1, 1049.3789, -0.12473251, 0.13964564, -1583345.4, 33092.05, 0.000008656152, 9.999635, 10.000396 
9.651032e+2, 1.4505643e+2, -1520651.6, -1551413.4, 15665.067, -0.19452071, 0.04375721, -1514078.9, 4365.43, 0.00000019058375, 10.000095, 9.999694 
9.650974e+2, 1.5505512e+2, -1325701.0, -1416917.4, 6495.6523, 0.02410767, -0.09182396, -1325240.8, 95214.24, 0.0, 10.000808, 9.999609 
9.650906e+2, 1.6505466e+2, -1233803.1, -1326288.8, 81199.266, 0.06168, -0.09010219, -1186602.3, 135856.17, 0.0, 10.000789, 9.999563 
9.650828e+2, 1.7505467e+2, -1239218.6, -1286707.9, 59648.953, -0.07593387, -0.07138417, -1198762.0, 25696.262, 0.0, 10.000108, 9.999495 
9.65076e+2, 1.8505426e+2, -1139912.3, -1186791.0, 31623.773, -0.06936558, -0.059036266, -1123988.4, 2473.411, 0.0, 10.000092, 9.999525 
9.650702e+2, 1.9505312e+2, -962080.0, -1057763.8, 4997.3037, 0.072089046, -0.15206484, -961819.75, 66651.984, 0.0, 10.000669, 9.99946 
9.650633e+2, 2.0505245e+2, -900029.4, -1081109.0, 25404.72, 0.0976002, -0.11117505, -896532.75, 33946.56, 0.0, 10.000908, 9.998495 
9.650553e+2, 2.1505193e+2, -808909.94, -993191.0, 29316.447, 0.014987702, -0.039027352, -804358.5, 28128.955, 0.0, 10.000879, 9.998443 
9.650477e+2, 2.2505143e+2, -679084.0, -805557.7, 67880.33, -0.04857774, 0.03997618, -649548.9, 84944.13, 0.0, 10.000771, 9.999117 
9.6504074e+2, 2.3505068e+2, -614745.25, -726149.6, 37943.35, -0.08088035, 0.024561271, -603049.9, 33448.91, 0.0, 10.000545, 9.999096 
9.650338e+2, 2.4504925e+2, -499569.38, -597715.75, -9065.95, -0.066682056, -0.032101475, -498738.94, 39769.7, 0.0, 10.000565, 9.999298 
9.6502703e+2, 2.55047e+2, -371009.63, -494021.22, -57527.26, 0.005590385, -0.21468791, -348299.34, 92225.5, 0.0, 10.000816, 9.999215 
9.650197e+2, 2.6504534e+2, -336979.28, -591902.6, -32823.36, 0.013854512, -0.21910381, -332820.88, 9719.917, 0.000000012060779, 10.001086, 9.997738 
9.650119e+2, 2.7504393e+2, -215683.2, -490296.4, -18158.186, -0.04609791, -0.16270913, -214487.73, 30072.725, 0.0000023356135, 10.001277, 9.997671 
9.650048e+2, 2.850431e+2, -22863.41, -127341.234, 15081.311, -0.07684034, -0.10732053, -20729.996, 125839.01, 0.000028869204, 10.000996, 9.999619 
9.649985e+2, 2.9504263e+2, -41581.305, -96833.83, -59649.406, -0.069147125, -0.14757214, -3471.261, 45096.652, 0.00012892728, 10.000236, 9.999522 
9.6499115e+2, 3.050408e+2, -54761.563, -244326.88, -103476.93, -0.10287785, -0.20076817, -9218.784, -9218.784, 0.00034703137, 10.000526, 9.998046 
9.649851e+2, 3.1503913e+2, 199983.81, 79426.28, -90213.555, 0.057343904, -0.21407962, 248203.97, 248203.97, 0.0006841425, 10.001344, 9.999872 
9.7512084e+2, 1.2506382e+2, -1830299.8, -1742399.8, 11034.615, -0.018072244, 0.0056959046, -1741035.6, -26661.74, 0.000058506626, 9.998995, 10.000286 
9.7511405e+2, 1.350648e+2, -1637592.6, -1586195.4, 31332.97, 0.0757601, 0.035882607, -1571370.3, 44992.6, 0.00001444443, 9.999668, 10.000357 
9.7510666e+2, 1.450643e+2, -1519118.4, -1551536.4, 26299.748, 0.09871135, -0.0065000136, -1504433.9, 13931.886, 0.0000005546723, 10.000107, 9.999692 
9.750977e+2, 1.5506375e+2, -1330249.1, -1418902.5, 50854.453, -0.055143792, -0.06517697, -1307114.5, 113254.37, 0.0, 10.000779, 9.999608 
9.750899e+2, 1.6506322e+2, -1248442.1, -1350007.5, 38693.637, -0.1172493, -0.062757954, -1235380.6, 86992.84, 0.0, 10.0007515, 9.999423 
9.750833e+2, 1.7506254e+2, -1251256.9, -1308506.0, 45927.426, -0.063392, -0.10186836, -1225764.0, -1382.7183, 0.0, 10.000089, 9.999355 
9.7507703e+2, 1.8506218e+2, -1178114.1, -1246108.8, 41189.902, -0.008089436, -0.056226976, -1158703.4, -32317.418, 0.0, 10.000008, 9.999157 
9.7507083e+2, 1.9506183e+2, -1003703.7, -1115864.1, 41753.008, 0.04041293, -0.036142156, -989867.5, 38523.26, 0.0, 10.000552, 9.999112 
9.7506374e+2, 2.0506133e+2, -885610.5, -1016861.2, 8777.786, 0.023741914, 0.013907496, -885026.06, 45369.883, 0.0, 10.000752, 9.999018 
9.7505563e+2, 2.1506037e+2, -797798.06, -931243.5, 42027.75, -0.060287617, -0.009836407, -785664.9, 46739.953, 0.0, 10.000707, 9.998956 
9.7504795e+2, 2.2505912e+2, -734570.56, -877986.8, 43102.992, -0.12243454, -0.010565704, -722613.1, 11802.114, 0.0, 10.000586, 9.998705 
9.750408e+2, 2.3505728e+2, -676363.56, -803895.7, 41803.44, -0.15881076, -0.093723446, -663882.44, -27452.063, 0.0, 10.000333, 9.99866 
9.750342e+2, 2.450558e+2, -584621.3, -741293.44, -13867.706, -0.11526186, -0.08961275, -583403.3, -44959.477, 0.0, 10.000419, 9.998386 
9.7502816e+2, 2.5505432e+2, -451037.06, -631308.4, -31143.8, 0.0039055443, -0.10166389, -445808.3, -5349.625, 0.0, 10.00069, 9.998335 
9.750212e+2, 2.6505283e+2, -297112.13, -484463.44, -39475.867, 0.018910585, -0.0893827, -289134.1, 53339.227, 0.0000000034767167, 10.000979, 9.998526 
9.7501326e+2, 2.7505097e+2, -174578.75, -382251.28, 6861.233, -0.070518896, -0.15745819, -174352.31, 70138.7, 0.0000028342504, 10.001179, 9.99846 
9.750063e+2, 2.8504974e+2, -138822.89, -347639.2, -24752.768, -0.06272895, -0.10537248, -135928.84, 10574.453, 0.000032313746, 10.000914, 9.998143 
9.750001e+2, 2.9504886e+2, -161153.22, -319512.72, -63425.594, 0.026418261, -0.04126859, -138882.3, -90369.31, 0.0001399921, 10.000133, 9.998039 
9.749924e+2, 3.050465e+2, -24358.309, -158765.22, -80597.945, -0.06622656, -0.10271257, 13377.9, 13377.9, 0.00037284024, 10.00043, 9.998683 
9.749851e+2, 3.1504545e+2, 203458.72, 120267.23, -25098.117, -0.14029467, -0.11932331, 210444.05, 210444.05, 0.00073526404, 10.001205, 10.000217 
9.8511964e+2, 1.2507077e+2, -1778074.9, -1721657.9, 30840.756, -0.044778876, -0.10471908, -1708070.8, 6231.041, 0.00008108169, 9.999372, 10.00025 
9.851144e+2, 1.3507195e+2, -1601909.8, -1580994.4, 4339.5117, 0.13849261, -0.044401053, -1580129.8, 36160.85, 0.000022462764, 9.999948, 10.000268 
9.851079e+2, 1.4507176e+2, -1512650.8, -1547307.9, 25159.45, 0.2229353, -0.05171124, -1499429.8, 18861.855, 0.0000013019285, 10.000125, 9.999714 
9.850989e+2, 1.5507154e+2, -1410235.9, -1454753.0, 14776.547, 0.02272632, -0.08406058, -1405777.5, 14514.417, 0.0, 10.000205, 9.999635 
9.850908e+2, 1.6507132e+2, -1331422.4, -1386356.5, 20745.254, -0.061534613, -0.055750065, -1324468.4, -2174.1545, 0.0, 10.000163, 9.999462 
9.850838e+2, 1.750709e+2, -1250126.0, -1301985.6, 13260.345, -0.0204091, -0.06994377, -1246932.1, -22632.0, 0.0, 10.000076, 9.999408 
9.850773e+2, 1.8507065e+2, -1149800.4, -1228251.8, 83885.21, 0.023528665, -0.017530479, -1096422.8, 29880.906, 0.0, 10.000195, 9.999182 
9.850714e+2, 1.9507027e+2, -1026235.44, -1127097.9, 79758.195, 0.05407979, -0.00063534314, -982302.06, 46006.09, 0.0, 10.000409, 9.999102 
9.850645e+2, 2.0506953e+2, -877782.8, -1018681.8, 63561.016, 0.03176465, 0.027355427, -853347.5, 76967.68, 0.0, 10.000804, 9.998989 
9.850567e+2, 2.1506812e+2, -719182.0, -897557.0, 28250.85, -0.04669754, -0.040012427, -714814.56, 117513.16, 0.0, 10.001255, 9.998928 
9.8504937e+2, 2.2506647e+2, -599161.0, -835166.4, 38112.984, -0.08349997, -0.07169046, -593158.75, 141182.72, 0.0, 10.0016, 9.998516 
9.850427e+2, 2.3506428e+2, -475094.1, -728886.25, 27563.555, -0.070000246, -0.16879505, -472135.03, 164224.08, 0.0, 10.001802, 9.998473 
9.850359e+2, 2.4506281e+2, -419227.0, -711097.3, 28916.52, -0.046438973, -0.13041843, -416389.75, 121984.17, 0.0, 10.001778, 9.997935 
9.8502886e+2, 2.5506163e+2, -359564.0, -640983.25, 13448.552, -0.020980088, -0.06913256, -358922.78, 81467.25, 0.0, 10.001541, 9.997864 
9.8502195e+2, 2.650603e+2, -184394.1, -404069.66, 38016.75, -0.0211781, -0.027120322, -178001.02, 164402.88, 0.00000001775074, 10.001652, 9.99876 
9.850153e+2, 2.7505857e+2, -17098.992, -282917.9, 6262.205, -0.03152325, -0.099017225, -16951.549, 227466.48, 0.000003544514, 10.002158, 9.998683 
9.850084e+2, 2.8505707e+2, 12324.124, -340346.1, -21447.111, 0.0038959484, -0.05696905, 13623.61, 160056.28, 0.00003520851, 10.002208, 9.997592 
9.850015e+2, 2.9505545e+2, 32740.525, -290520.8, -18621.635, 0.08627827, -0.012333837, 33809.7, 82260.75, 0.00014922032, 10.001713, 9.997497 
9.8499346e+2, 3.0505267e+2, 87967.15, -96999.3, 43720.977, -0.023825625, -0.09141775, 97780.89, 97780.89, 0.00039592202, 10.001194, 9.998727 
9.849864e+2, 3.1505197e+2, 57662.37, 9683.148, -15614.25, -0.07457209, -0.06821369, 62296.285, 62296.285, 0.0007798097, 10.000385, 9.999851 
9.9512e+2, 1.2507764e+2, -1785540.1, -1728385.8, 3885.5488, -0.015875643, -0.18222077, -1728122.8, -13891.063, 0.000108580556, 9.999349, 10.000203 
9.9511284e+2, 1.3507895e+2, -1610708.6, -1592192.1, 36173.56, -0.03931131, -0.10563313, -1564110.8, 52109.547, 0.000033028722, 9.999931, 10.000189 
9.951069e+2, 1.4507884e+2, -1510216.6, -1545137.3, 7212.0923, 0.061136, -0.10045755, -1508785.9, 9435.903, 0.0000026281716, 10.000129, 9.999734 
9.9510044e+2, 1.5507859e+2, -1399849.5, -1439472.6, 30045.041, 0.12423081, -0.13962223, -1383672.1, 36551.36, 0.00000000019976186, 10.000224, 9.999736 
9.9509275e+2, 1.6507903e+2, -1320357.4, -1353836.5, 1530.1835, 0.083068185, -0.06325984, -1320287.6, 1932.2474, 0.0, 10.000129, 9.999697 
9.950838e+2, 1.7507978e+2, -1235329.6, -1267967.8, 24406.959, -0.056360204, 0.017451478, -1222288.6, 1925.7266, 0.0, 10.000062, 9.999648 
9.950767e+2, 1.8507959e+2, -1138783.4, -1188028.4, 76003.47, -0.088422485, 0.047490466, -1083513.5, 42702.27, 0.0, 10.000124, 9.999493 
9.950714e+2, 1.9507827e+2, -1018207.25, -1083796.1, 101462.18, -0.013635335, -0.061380275, -944371.25, 83854.69, 0.0, 10.000299, 9.999451 
9.950652e+2, 2.050769e+2, -945758.4, -1114035.6, 63045.977, -0.0036035173, -0.08348651, -924758.5, 5479.828, 0.0, 10.000614, 9.998424 
9.9505806e+2, 2.1507521e+2, -785258.6, -986801.1, 57323.457, -0.06294789, -0.12528789, -770095.3, 62160.836, 0.0, 10.001056, 9.998405 
9.950516e+2, 2.2507358e+2, -626286.7, -840449.44, 31213.768, -0.03962304, -0.13276541, -621830.1, 112440.38, 0.0, 10.001383, 9.998585 
9.95046e+2, 2.3507169e+2, -500648.8, -733389.94, 50534.434, 0.06069353, -0.20651765, -490150.0, 146134.64, 0.0, 10.001596, 9.998541 
9.9503845e+2, 2.4507026e+2, -445996.0, -729620.5, 5442.2383, 0.010394651, -0.16461849, -445891.6, 92407.836, 0.0, 10.001614, 9.997887 
9.95029e+2, 2.5506893e+2, -385357.56, -656676.8, 19809.652, -0.18896331, -0.11389052, -383918.84, 56399.496, 0.0, 10.001375, 9.997836 
9.95022e+2, 2.650679e+2, -236790.27, -481726.53, 44365.137, -0.21684952, -0.018759053, -229002.08, 113329.07, 0.000000028595345, 10.001521, 9.998289 
9.950173e+2, 2.7506673e+2, -69236.33, -362499.34, 44068.65, -0.07501818, 0.013939033, -62757.27, 181584.53, 0.000003781716, 10.002041, 9.998192 
9.9501073e+2, 2.8506494e+2, 30963.04, -281269.56, -52534.676, -0.012611716, 0.031171734, 39565.258, 185923.77, 0.000036350866, 10.002118, 9.998039 
9.9500245e+2, 2.9506242e+2, 57654.8, -220866.8, -16160.915, -0.029936487, -0.06195087, 58589.383, 106971.305, 0.00015456251, 10.001639, 9.998007 
9.9499416e+2, 3.050594e+2, 29758.623, -204977.73, 8049.43, -0.10194361, -0.15836842, 30034.324, 30034.324, 0.00041193186, 10.00114, 9.998012 
9.949878e+2, 3.1505862e+2, -45473.94, -160845.48, -12454.4795, -0.04637837, -0.07107461, -44144.78, -44144.78, 0.0008105773, 10.000204, 9.998765 
1.00512005e+3, 1.2508562e+2, -1926037.0, -1798210.6, 58442.04, 0.11751224, -0.1388429, -1775519.1, -61364.117, 0.00014134821, 9.998387, 10.000191 
1.00511245e+3, 1.350869e+2, -1609537.1, -1594113.6, 53973.246, -0.059191436, -0.064769804, -1547304.0, 68839.71, 0.000046426092, 9.999951, 10.00016 
1.0051068e+3, 1.4508677e+2, -1480198.1, -1522355.1, 26087.436, 0.045989487, -0.06311955, -1467737.8, 50407.402, 0.00000474816, 10.000327, 9.999781 
1.005101e+3, 1.5508649e+2, -1433702.5, -1454988.4, 6246.9146, 0.17109226, -0.103884324, -1432004.6, -11857.478, 0.000000004412824, 9.999999, 9.999739 
1.0050935e+3, 1.6508666e+2, -1331702.3, -1384512.1, 2002.2701, 0.15928037, -0.043216184, -1331626.4, -9480.27, 0.0, 10.000146, 9.999488 
1.0050848e+3, 1.7508692e+2, -1159825.0, -1253080.3, -36209.977, 0.013558507, 0.0075898482, -1147416.3, 76729.195, 0.0, 10.000668, 9.999463 
1.0050776e+3, 1.8508652e+2, -1063306.0, -1153015.8, 3291.1204, -0.033703525, 0.027060606, -1063185.4, 62963.523, 0.0, 10.000653, 9.999475 
1.0050719e+3, 1.9508518e+2, -1035874.56, -1095762.5, -24582.588, 0.019094355, -0.08028943, -1027076.5, 1082.6874, 0.0, 10.0001955, 9.999414 
1.00506574e+3, 2.0508401e+2, -999134.6, -1129974.0, -1086.4042, 0.022005958, -0.088658124, -999125.56, -68955.54, 0.0, 10.000201, 9.998511 
1.0050591e+3, 2.1508266e+2, -850177.6, -1015899.56, 8841.842, -0.030548526, -0.10259343, -849707.25, -17522.535, 0.0, 10.000581, 9.998445 
1.0050531e+3, 2.2508128e+2, -716238.8, -876815.9, 20418.055, -0.0002104375, -0.08861389, -713683.25, 20513.973, 0.0, 10.000747, 9.998639 
1.00504756e+3, 2.3507956e+2, -625236.2, -789444.2, 3768.0425, 0.104351595, -0.15002292, -625149.75, 11060.988, 0.0, 10.000728, 9.998575 
1.00504e+3, 2.4507807e+2, -538566.5, -780450.8, -10659.618, 0.04353287, -0.11225191, -538097.7, 128.79823, 0.0, 10.001007, 9.9978285 
1.00503065e+3, 2.5507656e+2, -358738.88, -641968.5, -28086.553, -0.16749914, -0.07732236, -355980.53, 84266.22, 0.0, 10.001574, 9.997826 
1.0050235e+3, 2.650754e+2, -257622.63, -486579.9, 29337.514, -0.19907223, 0.0017019472, -253923.23, 88336.77, 0.000000017098808, 10.001352, 9.998333 
1.0050185e+3, 2.7507406e+2, -323118.75, -474857.5, 40557.41, -0.05714743, 0.009425287, -312958.66, -68687.65, 0.000003428396, 10.000254, 9.998272 
1.0050122e+3, 2.850723e+2, -234074.38, -402582.4, 7362.3223, 0.013415111, 0.022054495, -233753.31, -87466.13, 0.00003625069, 10.000285, 9.9980755 
1.0050044e+3, 2.950699e+2, 20476.82, -235507.39, -25292.95, 0.03129726, -0.058447376, 22952.0, 71261.836, 0.00015744341, 10.001365, 9.9980345 
1.0049961e+3, 3.0506712e+2, 130222.16, -172279.27, -649.4287, -0.049408406, -0.13094153, 130223.555, 130223.555, 0.00042211023, 10.00187, 9.997904 
1.0049886e+3, 3.150659e+2, 123932.87, -120449.18, -31089.947, -0.026892945, -0.07419435, 127826.06, 127826.06, 0.0008305699, 10.001505, 9.998443 
1.01511896e+3, 1.2509464e+2, -1922165.1, -1780197.8, 55815.973, 0.09882119, 0.008402264, -1760881.3, -46808.93, 0.0001798155, 9.998362, 10.000318 
1.0151127e+3, 1.3509578e+2, -1602353.8, -1580022.8, 121574.164, -0.066123456, 0.06058875, -1469102.4, 146958.08, 0.000062927356, 9.999961, 10.000248 
1.01510726e+3, 1.4509553e+2, -1488612.8, -1536943.3, -8957.255, 0.008468356, 0.045939364, -1487006.1, 31055.95, 0.000007860604, 10.000312, 9.999688 
1.0151e+3, 1.5509526e+2, -1441188.8, -1471813.8, 8084.854, 0.045940172, 0.016951922, -1439185.5, -19122.652, 0.000000028517778, 10.000005, 9.999619 
1.015093e+3, 1.6509429e+2, -1379134.0, -1477709.8, 6680.4834, 0.05693009, 0.0031716328, -1378683.4, -56611.027, 0.0, 10.000124, 9.9988575 
1.0150863e+3, 1.750924e+2, -1204178.8, -1344254.8, -3531.132, 0.066461526, -0.10045014, -1204089.8, 20002.783, 0.0, 10.00066, 9.998841 
1.0150794e+3, 1.8509153e+2, -1099691.3, -1209812.8, -29111.164, 0.05740529, -0.08004334, -1092469.3, 33633.184, 0.0, 10.000574, 9.999123 
1.0150725e+3, 1.9509126e+2, -1075576.4, -1151501.8, -27866.268, 0.027824657, -0.047370575, -1066446.8, -38340.734, 0.0, 10.000083, 9.9990835 
1.0150658e+3, 2.05091e+2, -971728.4, -1041733.1, -804.81226, -0.016142387, 0.019777486, -971719.1, -41610.523, 0.0, 10.000064, 9.999184 
1.0150595e+3, 2.1509051e+2, -826284.0, -926819.25, 35466.957, -0.07316956, 0.022592159, -815031.4, 17081.658, 0.0, 10.000414, 9.999133 
1.0150531e+3, 2.2508962e+2, -752731.3, -900993.75, 4179.1206, -0.08737787, 0.05605473, -752613.6, -18492.521, 0.0, 10.000528, 9.998576 
1.0150468e+3, 2.3508807e+2, -655868.0, -807945.2, 16897.922, -0.06485518, 0.012286119, -654013.06, -17877.13, 0.0, 10.000536, 9.998537 
1.0150402e+3, 2.4508643e+2, -569914.7, -804366.25, -6377.7915, -0.06239664, 0.04086475, -569741.3, -31588.18, 0.0, 10.000832, 9.997751 
1.0150333e+3, 2.5508443e+2, -384897.22, -664180.0, 7817.311, -0.084954344, 0.0353266, -384678.6, 55497.15, 0.0, 10.001432, 9.9977455 
1.0150261e+3, 2.6508257e+2, -226654.81, -395157.38, -23062.941, -0.095519245, 0.019165296, -223555.22, 118636.74, 0.000000011022683, 10.001238, 9.999014 
1.0150186e+3, 2.750806e+2, -291037.34, -380237.78, 19827.014, -0.103399985, -0.1093954, -286828.88, -42623.74, 0.0000031084232, 10.000135, 9.998977 
1.0150123e+3, 2.8507912e+2, -281161.38, -477992.97, 34525.305, -0.03253519, -0.078067236, -275281.13, -129062.53, 0.000035475467, 10.000195, 9.997598 
1.01500705e+3, 2.9507792e+2, -35926.06, -317399.6, 34904.26, 0.11218686, 0.0044181007, -31662.326, 16572.719, 0.00015874387, 10.001226, 9.997531 
1.0149986e+3, 3.050757e+2, 155380.95, -101075.17, -22483.82, -0.0070772837, -0.0044508674, 157337.22, 157337.22, 0.00042931808, 10.001789, 9.998431 
1.0149881e+3, 3.1507385e+2, 120298.93, -70578.03, -1093.4803, -0.289057, -0.070613526, 120305.195, 120305.195, 0.00084597495, 10.001281, 9.998882 
1.02511816e+3, 1.2510207e+2, -1790946.9, -1689542.6, 10101.007, 0.16248392, 0.12420908, -1688546.3, 25458.844, 0.00022439056, 9.999138, 10.000573 
1.0251126e+3, 1.3510253e+2, -1683383.6, -1599112.6, 43998.29, -0.02972019, 0.093352176, -1580328.1, 35670.008, 0.0000828242, 9.999321, 10.000434 
1.0251074e+3, 1.451021e+2, -1593775.1, -1569046.4, -66043.375, 0.04038754, 0.04524976, -1514219.9, 3780.0256, 0.000012107546, 9.999499, 9.99987 
1.0251001e+3, 1.5510206e+2, -1441340.5, -1450924.4, -59715.703, 0.060004704, 0.018604465, -1386224.8, 33773.27, 0.00000009714164, 9.99991, 9.999809 
1.0250933e+3, 1.651013e+2, -1385081.5, -1455983.8, 18386.604, 0.07911963, 0.0063905437, -1380597.0, -58592.227, 0.0, 9.999999, 9.99905 
1.025087e+3, 1.7509967e+2, -1303217.1, -1366759.6, 36306.184, 0.11708089, -0.08988876, -1286743.6, -62721.99, 0.0, 9.999901, 9.999037 
1.0250803e+3, 1.8509884e+2, -1180439.9, -1290371.8, 60427.832, 0.115661435, -0.056733243, -1153718.8, -27686.965, 0.0, 10.000175, 9.99877 
1.02507316e+3, 1.9509846e+2, -1008102.4, -1159772.6, 36795.805, 0.057259742, -0.0009788752, -999646.94, 28392.074, 0.0, 10.000705, 9.998739 
1.0250664e+3, 2.0509823e+2, -859110.7, -949657.6, 71311.805, 0.0075266487, 0.06879278, -819914.9, 110126.69, 0.0, 10.000691, 9.9995165 
1.0250602e+3, 2.1509786e+2, -842534.75, -899658.06, 49728.992, -0.029965721, 0.055595487, -813748.9, 18293.688, 0.0, 10.000172, 9.999437 
1.02505386e+3, 2.2509706e+2, -775176.0, -921773.56, 52820.094, -0.059063617, 0.08720928, -758127.25, -24077.506, 0.0, 10.000414, 9.998487 
1.0250474e+3, 2.3509556e+2, -556306.5, -771983.4, 36169.94, -0.08843132, 0.062173657, -550402.25, 85663.61, 0.0, 10.001275, 9.998428 
1.0250411e+3, 2.4509403e+2, -447973.25, -710579.44, 39152.56, -0.08240227, 0.09080399, -442260.2, 95821.87, 0.0, 10.001535, 9.99804 
1.0250349e+3, 2.5509208e+2, -406969.97, -645997.3, 45526.13, -0.04544567, 0.065064676, -398592.5, 41509.28, 0.0, 10.00116, 9.997998 
1.0250279e+3, 2.6509008e+2, -245076.02, -448988.3, 3131.7146, -0.026864255, 0.04217996, -245027.94, 97091.58, 0.00000001218603, 10.001306, 9.998613 
1.0250204e+3, 2.7508774e+2, -56400.535, -307237.22, -67089.875, -0.015131145, -0.08376954, -39583.816, 204554.3, 0.0000027111198, 10.001929, 9.998611 
1.0250137e+3, 2.8508624e+2, -38373.473, -365363.34, -30300.023, 0.015345192, -0.0386139, -35589.47, 110563.95, 0.00003356842, 10.001878, 9.997567 
1.0250077e+3, 2.9508516e+2, -61237.863, -334120.13, -30483.154, 0.06811632, 0.064638786, -57874.11, -9705.07, 0.00015737157, 10.001064, 9.997503 
1.02499984e+3, 3.0508348e+2, 72284.414, -99751.49, -42828.773, -0.015244759, 0.09370394, 82357.0, 82357.0, 0.00043278775, 10.001072, 9.998767 
1.0249912e+3, 3.1508154e+2, 191777.78, -698.43964, -94466.625, -0.12101834, -0.0155929085, 230394.1, 230394.1, 0.00085734465, 10.001618, 9.999191 
1.0351167e+3, 1.2510788e+2, -1755843.6, -1636661.0, -45238.598, 0.027573895, 0.2006626, -1621434.9, 92518.8, 0.00027553758, 9.999214, 10.0009 
1.0351117e+3, 1.3510728e+2, -1666794.5, -1570197.3, 58556.555, -0.0766607, 0.041229166, -1542590.5, 73364.38, 0.000106410545, 9.999335, 10.000628 
1.0351068e+3, 1.4510666e+2, -1559415.4, -1498178.8, -69653.65, -0.0015520966, -0.05807735, -1452710.9, 65246.723, 0.000017580353, 9.999505, 10.000353 
1.03510045e+3, 1.551069e+2, -1400990.1, -1373371.9, -30476.986, 0.078717, -0.107563995, -1353721.5, 66231.336, 0.00000023822265, 9.99993, 10.000335 
1.0350937e+3, 1.6510765e+2, -1326550.0, -1322223.1, -4285.6563, 0.08445932, -0.04377278, -1319585.8, 2358.2505, 0.0, 9.999953, 9.999988 
1.0350865e+3, 1.7510866e+2, -1244577.4, -1236478.5, 45500.402, 0.053979237, 0.029541617, -1194847.8, 29085.967, 0.0, 9.999864, 9.9999485 
1.0350798e+3, 1.8510845e+2, -1215627.3, -1344142.6, 63073.656, 0.023675602, 0.09748795, -1189844.1, -63906.477, 0.0, 10.000095, 9.998439 
1.0350734e+3, 1.9510677e+2, -1046013.3, -1215404.3, 66500.64, -0.0105845425, 0.05506336, -1023025.7, 4932.9966, 0.0, 10.000604, 9.998407 
1.035067e+3, 2.0510562e+2, -891905.5, -978165.9, 35245.367, -0.025428236, 0.055691186, -879336.06, 50633.34, 0.0, 10.000518, 9.999404 
1.03506066e+3, 2.151046e+2, -865932.8, -920801.2, 45704.848, -0.011191263, -0.013977546, -840060.7, -8086.5615, 0.0, 10.000043, 9.999357 
1.0350547e+3, 2.2510345e+2, -811156.9, -951273.0, 71172.41, -0.03442951, -0.0085396, -781346.8, -47362.7, 0.0, 10.000226, 9.998374 
1.0350488e+3, 2.3510197e+2, -590033.75, -797793.8, 82287.58, -0.09643997, -0.021305338, -561390.94, 74610.516, 0.0, 10.001088, 9.998339 
1.03504226e+3, 2.4510078e+2, -440447.34, -648051.1, 14128.691, -0.14504601, 0.020850549, -439490.22, 98523.85, 0.0, 10.001335, 9.998567 
1.035035e+3, 2.550996e+2, -392425.22, -578874.2, 49083.273, -0.17626981, 0.0139795495, -380293.3, 59731.496, 0.0, 10.001004, 9.998532 
1.03502885e+3, 2.6509804e+2, -365218.78, -670051.4, 12591.45, -0.10338526, 0.0773375, -364699.56, -22657.584, 0.00000000560088, 10.001187, 9.997151 
1.03502356e+3, 2.750956e+2, -179671.69, -529447.1, -26349.672, 0.06975884, 0.09186343, -177697.81, 66371.75, 0.0000022721786, 10.001796, 9.997147 
1.0350159e+3, 2.850936e+2, -20830.229, -307760.56, -73540.87, 0.024173187, 0.13983919, -3079.66, 143012.08, 0.000031172072, 10.001787, 9.998006 
1.035006e+3, 2.9509193e+2, -49902.594, -278573.78, -37728.707, -0.24607643, 0.13636723, -43838.504, 4270.9663, 0.00015322318, 10.000934, 9.997945 
1.0349994e+3, 3.050906e+2, 55950.887, -109875.42, -29991.36, -0.19649519, 0.17815556, 61208.434, 61208.434, 0.00043103905, 10.0009775, 9.998738 
1.0349966e+3, 3.150893e+2, 162466.77, 3063.8928, -25690.69, 0.19020659, 0.13818294, 166504.98, 166504.98, 0.0008619147, 10.001379, 9.999315 
1.04511656e+3, 1.2511438e+2, -1696047.6, -1630587.8, 92097.914, 0.08038215, 0.15631641, -1565576.8, 148310.89, 0.0003338259, 9.999704, 10.00071 
1.0451111e+3, 1.351137e+2, -1745942.5, -1634190.3, 135065.11, -0.037453752, 0.011976926, -1543899.6, 71992.8, 0.00013404706, 9.998887, 10.000404 
1.04510605e+3, 1.4511354e+2, -1651698.6, -1501254.0, 64250.137, 0.01991801, -0.049543466, -1477549.8, 40342.035, 0.000024406929, 9.998702, 10.000711 
1.04510084e+3, 1.551145e+2, -1451272.4, -1351516.6, 55412.313, 0.15554489, -0.06332433, -1326840.3, 93039.34, 0.0000004785213, 9.99941, 10.000725 
1.0450942e+3, 1.6511542e+2, -1343225.3, -1349499.4, 49119.4, 0.1551564, 0.0058639543, -1297142.9, 24726.58, 0.0, 9.999906, 9.999838 
1.04508646e+3, 1.7511603e+2, -1200780.4, -1231750.4, -6267.174, 0.04691279, 0.05396656, -1199560.3, 24303.475, 0.0, 10.000226, 9.999814 
1.04508e+3, 1.851157e+2, -1158646.5, -1308592.5, 23546.732, 0.014100615, 0.111397564, -1155035.8, -29166.934, 0.0, 10.000466, 9.998499 
1.0450745e+3, 1.9511412e+2, -1037188.75, -1203122.1, 21940.996, 0.04966927, 0.07657487, -1034336.56, -6449.0513, 0.0, 10.000642, 9.9984665 
1.04506835e+3, 2.0511268e+2, -866464.94, -1005691.7, 6650.1284, 0.051696148, 0.06428633, -866148.06, 63752.773, 0.0, 10.000864, 9.999044 
1.0450615e+3, 2.1511103e+2, -746476.8, -898683.56, -31035.717, 0.027315207, -0.032865398, -740391.75, 91520.69, 0.0, 10.001031, 9.999024 
1.0450554e+3, 2.2510982e+2, -708817.3, -885826.1, 29515.895, -0.0016309826, -0.026880246, -704025.3, 29898.143, 0.0, 10.000848, 9.99853 
1.04505e+3, 2.3510869e+2, -693086.3, -833554.56, 29568.969, -0.03836387, -0.018969217, -687115.75, -51178.613, 0.0, 10.0003, 9.998484 
1.0450435e+3, 2.4510768e+2, -598424.5, -685331.25, -16123.633, -0.09091069, 0.015957827, -595529.56, -57582.355, 0.0, 10.000067, 9.998932 
1.0450358e+3, 2.5510654e+2, -493214.06, -585719.0, -23151.488, -0.15260048, -0.023144359, -487743.4, -47786.977, 0.0, 10.000128, 9.998911 
1.04502976e+3, 2.6510528e+2, -430062.78, -695052.25, 53714.125, -0.09571583, 0.05115219, -419588.78, -77618.68, 0.0000000009945924, 10.000705, 9.997224 
1.0450253e+3, 2.751034e+2, -192518.3, -532697.75, 100434.11, 0.07867887, 0.11378398, -165079.48, 78913.625, 0.0000020282196, 10.00166, 9.997206 
1.0450177e+3, 2.8510123e+2, -20737.195, -306937.47, 67803.36, 0.029573191, 0.14282921, -5486.6333, 140529.4, 0.00002862313, 10.001778, 9.998019 
1.04500696e+3, 2.9509875e+2, -30618.67, -261671.2, 36361.676, -0.22958712, 0.05660938, -25031.395, 23007.992, 0.00014660136, 10.001035, 9.998011 
1.0450006e+3, 3.0509752e+2, 52230.336, -120766.72, 108110.6, -0.15410197, 0.10686463, 104187.2, 104187.2, 0.00042212423, 10.000969, 9.998673 
1.0449987e+3, 3.150965e+2, 143083.66, -11380.615, 58593.945, 0.2856399, 0.10302552, 162795.08, 162795.08, 0.0008537748, 10.001195, 9.999335 
1.0551168e+3, 1.251214e+2, -1738731.6, -1711732.0, 6314.225, 0.059426792, -0.030920725, -1710328.3, 3481.053, 0.00039971265, 9.999687, 10.000152 
1.05511025e+3, 1.3512176e+2, -1789482.5, -1721919.9, 117359.28, -0.043849416, -0.0072792945, -1633576.8, -17765.629, 0.00016604259, 9.998884, 9.999801 
1.0551046e+3, 1.4512278e+2, -1635752.3, -1473199.9, 69888.83, -0.042881712, 0.069710426, -1447283.4, 70518.695, 0.000032768716, 9.998717, 10.0009 
1.0551007e+3, 1.5512481e+2, -1439975.1, -1332259.5, 93531.55, 0.16954787, 0.1425661, -1278187.6, 141591.25, 0.0000008393984, 9.999414, 10.000861 
1.05509445e+3, 1.6512461e+2, -1429610.8, -1519275.3, 45283.617, 0.16154963, 0.15095113, -1410720.6, -88939.664, 0.0, 9.999869, 9.998686 
1.0550863e+3, 1.751219e+2, -1281462.4, -1397414.0, 18016.25, -0.02834265, -0.017435543, -1278727.5, -54917.26, 0.0, 10.0002165, 9.998679 
1.0550802e+3, 1.8512069e+2, -1143891.3, -1258253.3, 13216.796, -0.039858, -0.012282844, -1142383.6, -16559.926, 0.0, 10.000381, 9.998887 
1.05507605e+3, 1.9512054e+2, -1022042.44, -1154144.0, 43189.53, 0.1133706, 0.055029213, -1009175.25, 18649.717, 0.0, 10.000558, 9.998848 
1.0550701e+3, 2.0511952e+2, -932747.4, -1108521.0, -3684.5178, 0.11826802, 0.0954903, -932670.2, -2835.244, 0.0, 10.000713, 9.998413 
1.0550624e+3, 2.1511725e+2, -815555.2, -1005591.9, -11752.208, -0.019436851, -0.00092490355, -814831.1, 17025.752, 0.0, 10.000863, 9.998377 
1.0550558e+3, 2.251161e+2, -715308.94, -849789.8, -3320.893, -0.070166975, 0.028990088, -715227.0, 18641.148, 0.0, 10.000638, 9.998874 
1.0550506e+3, 2.351157e+2, -692054.44, -790524.1, 24161.967, -0.033165984, 0.07153673, -686445.25, -50572.867, 0.0, 10.000127, 9.998859 
1.05504416e+3, 2.4511477e+2, -610840.0, -672020.75, -28570.703, -0.04529402, 0.08483634, -599572.8, -61692.293, 0.0, 9.999901, 9.999103 
1.0550366e+3, 2.55113e+2, -500681.38, -569121.06, -8114.391, -0.102034666, -0.03725053, -499732.47, -59836.785, 0.0, 9.999989, 9.99909 
1.0550304e+3, 2.651119e+2, -339093.72, -473811.4, 76685.13, -0.12327164, -0.03345728, -304384.8, 37518.96, 0.000000000012280949, 10.000572, 9.9988 
1.0550252e+3, 2.751112e+2, -101276.516, -312586.5, 154361.47, -0.114878826, -0.012985409, -19874.193, 224033.55, 0.0000016155456, 10.0015335, 9.998773 
1.0550185e+3, 2.8510928e+2, -64446.137, -373834.06, 26403.291, -0.08434384, -0.017404342, -62209.043, 83715.72, 0.000025306648, 10.0016775, 9.99761 
1.0550104e+3, 2.9510581e+2, -77566.54, -332890.34, 31862.043, -0.029967982, -0.16313832, -73650.516, -25692.738, 0.00013793015, 10.000927, 9.997576 
1.055003e+3, 3.051043e+2, 38797.46, -132308.89, 111251.18, -0.034384113, -0.116138615, 93587.33, 93587.33, 0.00040720604, 10.000893, 9.9986315 
1.05499655e+3, 3.1510338e+2, 110090.05, -29339.662, 119168.77, -0.108656295, -0.10403267, 178438.06, 178438.06, 0.00083313056, 10.000984, 9.999313 
1.0651157e+3, 1.2512884e+2, -1866701.1, -1809054.1, -15900.453, 0.03960061, -0.09881789, -1804959.3, -91227.555, 0.00047318285, 9.998974, 9.999835 
1.0651105e+3, 1.3512947e+2, -1736627.4, -1726177.5, 58174.168, 0.07512183, -0.017109718, -1672994.1, -57260.89, 0.00020250746, 9.999392, 9.999529 
1.065104e+3, 1.451306e+2, -1552780.9, -1456100.3, 61839.293, 0.0054319557, 0.09621753, -1425949.3, 91775.16, 0.000042863663, 9.999379, 10.000709 
1.0650996e+3, 1.551322e+2, -1469599.5, -1365432.6, 21447.758, 0.13633145, 0.14499766, -1361189.4, 58516.65, 0.0000013547858, 9.999297, 10.00069 
1.0650939e+3, 1.6513167e+2, -1468349.4, -1558142.5, 43932.89, 0.13189468, 0.13961223, -1450430.3, -128718.41, 0.0, 9.99968, 9.998517 
1.0650872e+3, 1.7512885e+2, -1257543.0, -1405615.4, 57102.707, 0.031449907, -0.021345293, -1238080.1, -14336.686, 0.0, 10.000459, 9.998517 
1.0650814e+3, 1.851276e+2, -1062424.9, -1211066.4, 92842.9, 0.03089483, -0.014902136, -1017819.6, 107937.59, 0.0, 10.0008955, 9.998963 
1.0650768e+3, 1.9512755e+2, -943865.06, -1108590.9, 69851.586, 0.11457766, 0.05373346, -918233.1, 109523.87, 0.0, 10.001054, 9.998922 
1.06507055e+3, 2.0512664e+2, -903441.4, -1119928.1, 45088.15, 0.08966067, 0.11460976, -894426.2, 35340.27, 0.0, 10.001031, 9.998175 
1.06506296e+3, 2.1512464e+2, -834141.56, -1037037.6, 33421.77, -0.032440174, 0.06764027, -828777.94, 3010.0723, 0.0, 10.000845, 9.998161 
1.0650564e+3, 2.2512351e+2, -722269.7, -822055.7, 64180.51, -0.054852273, 0.09509558, -690870.3, 42928.848, 0.0, 10.000447, 9.999159 
1.065051e+3, 2.3512293e+2, -717716.6, -766857.3, 60990.13, 0.026591294, 0.09096973, -676533.7, -40730.465, 0.0, 9.999802, 9.999172 
1.0650449e+3, 2.4512208e+2, -609521.0, -677540.56, 61054.332, 0.042723276, 0.099460095, -573643.0, -35832.957, 0.0, 9.99994, 9.999044 
1.065038e+3, 2.5512055e+2, -385312.47, -523970.22, 34886.387, -0.007349955, 0.015733289, -377029.78, 62793.58, 0.0, 10.000822, 9.999006 
1.0650316e+3, 2.6511937e+2, -256223.52, -398807.75, 77382.89, -0.063677214, -0.0005737681, -222298.34, 119533.484, 0.0, 10.000978, 9.99912 
1.06502615e+3, 2.7511835e+2, -259047.8, -347591.94, 23646.809, -0.1161234, -0.04916074, -253128.36, -9290.903, 0.00000091217555, 10.000281, 9.99913 
1.06502004e+3, 2.8511643e+2, -165180.17, -398142.13, -79045.75, -0.063534096, -0.083854176, -140891.67, 4961.145, 0.000020761427, 10.000873, 9.997834 
1.0650133e+3, 2.9511312e+2, 194543.31, -181184.1, -58197.656, 0.0966149, -0.2306162, 203351.27, 251233.78, 0.00012637535, 10.00268, 9.997783 
1.0650056e+3, 3.0511189e+2, 282080.8, -50815.883, 18760.443, 0.04432591, -0.15328318, 283134.72, 283134.72, 0.00038601994, 10.002727, 9.998296 
1.0649966e+3, 3.15111e+2, 75500.38, -59856.066, -47553.49, -0.18595578, -0.11150593, 90536.586, 90536.586, 0.0008001297, 10.000826, 9.999153 
1.07511304e+3, 1.251364e+2, -1879344.9, -1826549.1, -11266.881, -0.20018381, -0.0821836, -1824245.3, -110588.0, 0.00055371417, 9.9989605, 9.999709 
1.0751112e+3, 1.3513689e+2, -1745905.5, -1735849.8, 78110.77, 0.18012181, -0.012024816, -1662605.1, -46947.297, 0.00024334127, 9.999361, 9.999472 
1.075104e+3, 1.4513707e+2, -1591060.8, -1537018.3, 34737.836, 0.017959617, 0.035537962, -1520029.6, -2371.4707, 0.00005483326, 9.999373, 10.000161 
1.0750972e+3, 1.5513669e+2, -1502260.1, -1438970.3, 32453.482, -0.07241834, -0.059582595, -1425287.1, -5626.4785, 0.000002073113, 9.999313, 10.000181 
1.075092e+3, 1.6513674e+2, -1420417.5, -1447048.9, 55822.34, -0.04989695, -0.022422643, -1376344.6, -54683.348, 0.0000000000166348, 9.999638, 9.999295 
1.0750886e+3, 1.7513685e+2, -1208991.0, -1295010.3, 99689.97, 0.11496198, 0.028798036, -1143428.5, 80234.74, 0.0, 10.000417, 9.999293 
1.0750834e+3, 1.8513644e+2, -1096330.1, -1255856.3, 83018.14, 0.108306356, 0.09526538, -1060966.5, 64702.883, 0.0, 10.0007925, 9.998704 
1.0750763e+3, 1.9513513e+2, -979063.75, -1150682.4, 88617.52, -0.06656907, 0.06366605, -941518.7, 86164.734, 0.0, 10.000926, 9.998692 
1.0750696e+3, 2.051341e+2, -922274.9, -1122378.0, 19807.424, -0.14434703, 0.119730115, -920333.06, 9362.155, 0.0, 10.000871, 9.9982395 
1.0750631e+3, 2.1513304e+2, -852266.7, -1034266.06, 39850.527, -0.12967348, 0.15888233, -843923.5, -12216.133, 0.0, 10.000666, 9.99827 
1.075057e+3, 2.2513193e+2, -732055.25, -793610.44, 26402.787, -0.06961832, 0.16592659, -722282.06, 11435.484, 0.0, 10.00024, 9.9994545 
1.0750511e+3, 2.3513041e+2, -725707.5, -739249.94, 54190.18, 0.030153137, 0.03731908, -677867.1, -42138.035, 0.0, 9.999611, 9.999455 
1.0750453e+3, 2.4512962e+2, -666094.5, -747195.94, 82701.484, 0.05781576, 0.05823937, -614537.1, -76801.45, 0.0, 9.999744, 9.998654 
1.0750393e+3, 2.5512916e+2, -429231.7, -583632.06, 84303.23, 0.015935175, 0.115915865, -392121.3, 47619.285, 0.0, 10.000689, 9.998655 
1.0750333e+3, 2.6512766e+2, -349882.25, -553303.9, 37714.97, -0.021480422, 0.13287032, -343114.9, -1359.7916, 0.000000000031670343, 10.000814, 9.998137 
1.0750272e+3, 2.7512482e+2, -346849.28, -499968.8, 18380.465, -0.058161482, 0.0017814861, -344673.8, -100891.71, 0.00000057346807, 10.000155, 9.998147 
1.0750213e+3, 2.851227e+2, -114124.99, -272793.13, -25327.082, -0.04430433, -0.047393158, -110180.27, 35619.6, 0.000016841232, 10.00079, 9.998732 
1.0750156e+3, 2.9512098e+2, 241233.81, -54798.344, 31251.45, 0.015130778, -0.13080679, 244496.98, 292308.34, 0.000114238224, 10.002559, 9.998706 
1.07500784e+3, 3.0512038e+2, 219875.34, -165059.06, -56395.04, -0.041807797, 0.0069024493, 227967.42, 227967.42, 0.0003625103, 10.002659, 9.997548 
1.0749977e+3, 3.1511915e+2, 3383.6238, -175435.13, -60549.67, -0.2233628, 0.08077062, 21957.113, 21957.113, 0.00076317973, 10.000674, 9.998441 
1.0851123e+3, 1.2514274e+2, -1863883.0, -1768064.0, -73887.664, -0.15325479, 0.015237041, -1727912.8, -14310.993, 0.00064071716, 9.998811, 10.000198 
1.0851101e+3, 1.3514286e+2, -1841841.0, -1720894.5, -39989.88, 0.19422454, -0.007506715, -1708868.0, -93268.375, 0.00028839763, 9.99842, 10.000034 
1.08510226e+3, 1.4514267e+2, -1754541.8, -1652402.5, 1687.614, -0.02636708, -0.0072384663, -1652374.6, -134772.34, 0.00006873226, 9.998445, 9.999794 
1.0850965e+3, 1.5514208e+2, -1543211.0, -1499374.5, -30338.924, -0.0605018, -0.085257776, -1483864.8, -64254.63, 0.0000030594845, 9.999225, 9.9998 
1.0850919e+3, 1.651425e+2, -1394530.4, -1381833.4, 16351.177, -0.019826584, -0.018585091, -1370641.5, -49033.563, 0.000000000186287, 9.99958, 9.999775 
1.0850885e+3, 1.7514354e+2, -1298867.3, -1286660.3, 5259.4106, 0.10918372, 0.07819189, -1284706.9, -61107.66, 0.0, 9.999575, 9.999757 
1.0850835e+3, 1.8514359e+2, -1221415.3, -1303841.0, 20754.78, 0.092121854, 0.16073558, -1216484.3, -90883.5, 0.0, 9.999877, 9.998822 
1.0850769e+3, 1.9514234e+2, -1050943.3, -1170209.8, 22817.037, -0.06599504, 0.12592067, -1046727.1, -19112.045, 0.0, 10.000382, 9.998818 
1.0850703e+3, 2.0514132e+2, -942644.7, -1061787.9, -3924.8154, -0.1253571, 0.14612935, -942515.5, -12890.047, 0.0, 10.000437, 9.998856 
1.08506374e+3, 2.1514013e+2, -897845.44, -991729.94, 21076.816, -0.09258689, 0.109903105, -893330.9, -61694.98, 0.0, 10.000082, 9.998839 
1.0850576e+3, 2.2513914e+2, -745240.7, -820567.5, 45211.11, -0.024854952, 0.1130888, -724060.44, 9583.89, 0.0, 10.000249, 9.999267 
1.0850519e+3, 2.3513806e+2, -550309.94, -676550.25, 409.4264, 0.07720259, 0.04980934, -550308.6, 85345.086, 0.0, 10.000916, 9.999261 
1.085046e+3, 2.4513718e+2, -463025.97, -668502.7, 63509.766, 0.10375868, 0.08019329, -444980.8, 92681.164, 0.0, 10.001185, 9.998527 
1.0850404e+3, 2.5513622e+2, -404100.56, -587852.06, 56772.547, 0.06323857, 0.10209826, -387975.03, 51696.824, 0.0, 10.000914, 9.998538 
1.0850347e+3, 2.6513484e+2, -326935.84, -533755.94, 70105.78, 0.033696927, 0.13247854, -305412.06, 36273.785, 0.000000020287489, 10.000937, 9.998203 
1.0850286e+3, 2.751326e+2, -180726.8, -415711.1, 93695.27, 0.013389762, 0.05547711, -147941.83, 95766.09, 0.0000009682407, 10.00127, 9.998186 
1.0850227e+3, 2.851308e+2, -30742.875, -231708.83, 120702.32, -0.0019542777, 0.036737002, 25827.89, 171551.69, 0.000016002106, 10.001372, 9.998725 
1.08501725e+3, 2.9512918e+2, 32834.832, -148927.58, 66405.945, 0.0056418697, -0.036195327, 54510.918, 102246.59, 0.00010691048, 10.001115, 9.998746 
1.0850098e+3, 3.0512828e+2, 77473.27, -194881.55, -24309.281, -0.04082341, 0.05089662, 79626.01, 79626.01, 0.00034615427, 10.001531, 9.997893 
1.08500026e+3, 3.1512645e+2, 272144.13, -7984.6445, 315.40512, -0.10792325, 0.040322166, 272144.5, 272144.5, 0.0007399488, 10.002385, 9.998769 
1.0951133e+3, 1.2514783e+2, -1780001.0, -1586238.9, -55742.332, 0.001598228, 0.174514, -1571347.3, 142217.55, 0.000734217, 9.998782, 10.001459 
1.0951068e+3, 1.3514768e+2, -1747088.8, -1535531.9, -44525.734, -0.007918623, -0.0079793995, -1526542.6, 89013.17, 0.00033773432, 9.998457, 10.001292 
1.0950988e+3, 1.4514755e+2, -1780862.0, -1701827.8, 10921.61, -0.26281163, -0.044545732, -1700346.4, -182790.81, 0.0000845864, 9.998428, 9.999461 
1.0950971e+3, 1.5514834e+2, -1574521.9, -1550272.8, 13600.514, 0.043694057, 0.050200466, -1544177.0, -124622.09, 0.0000043925156, 9.999174, 9.999472 
1.0950929e+3, 1.6514896e+2, -1384915.3, -1358447.9, -1368.8215, 0.09007857, 0.14584267, -1358377.3, -36825.33, 0.0000000006358386, 9.999557, 9.99995 
1.0950863e+3, 1.751489e+2, -1283934.6, -1259066.3, 20886.19, -0.10011253, 0.115198694, -1247193.3, -23641.752, 0.0, 9.999576, 9.99995 
1.0950814e+3, 1.8514912e+2, -1199200.9, -1239457.4, 22970.389, -0.13420947, 0.18239869, -1188787.5, -63237.414, 0.0, 9.9998045, 9.999296 
1.09507814e+3, 1.951493e+2, -1034653.1, -1105700.1, 57266.438, -0.0070220265, 0.2395555, -1002786.94, 24763.672, 0.0, 10.000254, 9.999321 
1.0950725e+3, 2.051483e+2, -888873.3, -918715.0, -33508.957, 0.022737475, 0.18178557, -867113.4, 62444.41, 0.0, 10.000292, 9.999913 
1.0950646e+3, 2.1514587e+2, -847787.0, -850628.6, 21498.438, -0.043543052, -0.082535915, -827662.5, 3911.3591, 0.0, 9.999915, 9.999891 
1.0950579e+3, 2.2514516e+2, -832994.94, -953647.75, 53760.086, -0.03889385, -0.063439064, -812516.5, -78936.914, 0.0, 10.000041, 9.998451 
1.0950526e+3, 2.3514566e+2, -635710.75, -807042.5, 39405.035, 0.038269967, 0.11171155, -627082.44, 8496.774, 0.0, 10.000713, 9.998461 
1.095047e+3, 2.4514462e+2, -477674.03, -652285.9, 38558.52, 0.053314015, 0.15532352, -469538.44, 68052.33, 0.0, 10.000989, 9.998731 
1.0950411e+3, 2.5514185e+2, -413585.44, -567987.9, 63491.33, 0.011635523, -0.026469814, -390830.78, 48785.344, 0.0, 10.000746, 9.998754 
1.0950354e+3, 2.6514107e+2, -280368.53, -397542.16, 72693.21, -0.013810669, 0.0035568809, -245591.97, 96030.28, 0.00000010014453, 10.000771, 9.999219 
1.0950298e+3, 2.7514175e+2, -126754.49, -277467.2, 128043.13, -0.030831898, 0.11737225, -53538.895, 190075.33, 0.0000018117424, 10.001156, 9.999191 
1.0950238e+3, 2.8514057e+2, -115003.195, -382887.53, 96581.04, -0.06249908, 0.16017322, -83813.9, 61812.188, 0.000017402066, 10.001271, 9.997733 
1.0950178e+3, 2.9513744e+2, -50800.54, -298781.13, 76788.87, -0.09084286, 0.025746634, -28948.027, 18710.576, 0.00010435712, 10.001012, 9.997766 
1.095011e+3, 3.0513534e+2, 156942.56, -7334.7246, -3887.0977, -0.0997575, -0.021136878, 157034.48, 157034.48, 0.00033796718, 10.001437, 9.999225 
1.09500326e+3, 3.1513283e+2, 336516.75, 157249.83, 81878.26, -0.10999303, -0.23088776, 368284.28, 368284.28, 0.00073106954, 10.002239, 9.99998 
1.1051139e+3, 1.2515365e+2, -1653821.1, -1545832.8, 194222.72, 0.15064158, 0.18430778, -1398238.6, 315270.44, 0.00083503575, 9.999762, 10.001232 
1.1051052e+3, 1.3515359e+2, -1647725.5, -1515435.3, -29249.094, -0.045275778, 0.033997744, -1509256.9, 106243.13, 0.0003918232, 9.999264, 10.001031 
1.1050977e+3, 1.451534e+2, -1726423.4, -1689827.3, 47656.984, -0.23359574, 0.0052887215, -1657076.3, -139575.06, 0.000102570426, 9.998831, 9.999365 
1.1050968e+3, 1.5515426e+2, -1644482.9, -1596390.6, 39618.426, 0.12603249, 0.11753035, -1574092.0, -154591.83, 0.0000061708192, 9.99872, 9.999384 
1.1050926e+3, 1.6515473e+2, -1480410.5, -1376683.1, 68314.734, 0.15343611, 0.191392, -1342775.3, -21277.488, 0.0000000015512864, 9.998802, 10.000174 
1.10508546e+3, 1.7515446e+2, -1324525.8, -1247838.0, 58094.35, -0.11584267, 0.11312152, -1216574.4, 6923.2593, 0.0, 9.999192, 10.000195 
1.10508084e+3, 1.8515459e+2, -1247192.6, -1220662.3, 82959.445, -0.14531636, 0.13975866, -1149914.1, -24418.53, 0.0, 9.999305, 9.9996605 
1.1050784e+3, 1.9515473e+2, -1169545.4, -1128641.5, 76126.61, 0.052487154, 0.1559176, -1070267.5, -42772.227, 0.0, 9.999154, 9.999688 
1.10507324e+3, 2.0515415e+2, -1003208.7, -960039.7, -18504.195, 0.11616196, 0.11703142, -953193.6, -23695.52, 0.0, 9.999442, 10.000044 
1.1050654e+3, 2.151526e+2, -799250.9, -813254.1, -64181.59, 0.049967505, -0.0707533, -741690.1, 89816.57, 0.0, 10.00018, 10.000025 
1.1050589e+3, 2.2515199e+2, -758074.8, -958552.25, -5430.4595, 0.02893009, -0.030214295, -757927.8, -24415.008, 0.0, 10.000723, 9.998089 
1.1050536e+3, 2.3515192e+2, -608946.25, -834332.9, -13884.748, 0.053915694, 0.121974416, -608094.1, 27425.742, 0.0, 10.001066, 9.998104 
1.10504776e+3, 2.4515069e+2, -484283.44, -643167.56, -8857.243, 0.04400821, 0.15877582, -483791.2, 53742.79, 0.0, 10.000919, 9.998806 
1.1050415e+3, 2.5514808e+2, -467489.13, -581100.6, -32792.06, 0.005748986, -0.015378233, -458703.63, -19146.088, 0.0, 10.000346, 9.998834 
1.105036e+3, 2.651474e+2, -311892.63, -403893.75, -161.51094, -0.005522699, 0.016884798, -311892.34, 29670.371, 0.00000018749917, 10.000503, 9.999315 
1.1050312e+3, 2.751482e+2, -112464.58, -258951.08, -46667.25, 0.012236882, 0.13756752, -98860.8, 144693.11, 0.0000025365616, 10.0012045, 9.999302 
1.1050255e+3, 2.8514737e+2, -96191.45, -358547.06, -65271.19, -0.012945934, 0.20222077, -80849.83, 64713.08, 0.000019295574, 10.001328, 9.997887 
1.1050191e+3, 2.951447e+2, -68800.375, -292911.28, -35840.195, -0.05370715, 0.10643952, -63208.29, -15617.358, 0.00010487227, 10.000825, 9.997905 
1.1050126e+3, 3.0514246e+2, 155823.66, -21900.002, -38133.66, -0.07325594, 0.040187035, 163660.33, 163660.33, 0.00033641586, 10.00145, 9.999126 
1.1050065e+3, 3.1513926e+2, 394821.84, 181835.34, -109816.18, -0.025262048, -0.23977748, 441300.5, 441300.5, 0.00073074934, 10.002653, 9.999939 
1.1151134e+3, 1.251605e+2, -1776148.1, -1792123.9, 167700.77, 0.044284273, 0.05017067, -1616245.1, 97186.766, 0.000944546, 9.999743, 9.999551 
1.1151047e+3, 1.3516065e+2, -1781781.1, -1790620.6, -35664.98, -0.042703826, 0.117662214, -1750263.1, -134831.03, 0.00045159098, 9.99925, 9.999154 
1.1150984e+3, 1.451602e+2, -1704767.0, -1645202.5, 21850.988, -0.08972258, 0.14007975, -1638046.3, -120607.14, 0.00012308804, 9.998835, 9.999667 
1.11509524e+3, 1.5516008e+2, -1623881.6, -1556142.5, 49666.53, 0.059463985, 0.12314005, -1529896.3, -110452.44, 0.000008505592, 9.998732, 9.999655 
1.1150907e+3, 1.6516009e+2, -1468051.6, -1348079.8, 63172.938, 0.045358893, 0.1293631, -1320950.0, 493.08487, 0.0000000033697685, 9.998781, 10.000388 
1.11508556e+3, 1.7516021e+2, -1310450.0, -1217089.1, 85741.65, -0.063702576, 0.07095998, -1166144.4, 57293.24, 0.0, 9.999171, 10.000428 
1.1150811e+3, 1.8515985e+2, -1238977.6, -1190525.1, 60324.324, -0.07584445, 0.02589942, -1149744.3, -24306.03, 0.0, 9.999247, 9.999896 
1.11507714e+3, 1.9515866e+2, -1171880.8, -1107115.4, 83264.98, -0.013442563, -0.11408216, -1050157.8, -22709.453, 0.0, 9.9990425, 9.999889 
1.11507215e+3, 2.0515895e+2, -1075784.5, -1080322.1, -12411.013, 0.032293543, -0.03699069, -1065436.6, -135990.89, 0.0, 9.9993105, 9.999279 
1.115066e+3, 2.1516022e+2, -882796.06, -940657.94, -22676.516, 0.06711102, 0.12915786, -874968.0, -43532.656, 0.0, 9.999982, 9.999245 
1.1150601e+3, 2.251596e+2, -778320.3, -952662.3, -6457.0547, 0.054889478, 0.2031436, -778081.5, -44637.254, 0.0, 10.000524, 9.998223 
1.11505434e+3, 2.35157e+2, -628353.8, -827534.9, 13559.346, 0.00808354, 0.08853628, -627435.0, 8038.739, 0.0, 10.000868, 9.998246 
1.1150481e+3, 2.4515547e+2, -523661.63, -682102.9, -43191.957, -0.0413266, 0.097884454, -512652.25, 24837.93, 0.0, 10.000735, 9.998626 
1.11504115e+3, 2.5515464e+2, -503627.94, -622478.94, -36042.332, -0.08979477, 0.118839264, -493552.06, -54054.39, 0.0, 10.0002, 9.998619 
1.11503616e+3, 2.6515356e+2, -387960.88, -532231.3, 11367.013, -0.07446773, 0.16293551, -387070.75, -45561.58, 0.00000020790911, 10.000376, 9.998493 
1.1150327e+3, 2.751519e+2, -183133.84, -378399.03, -1185.8767, 0.0008008894, 0.11146914, -183126.64, 60401.06, 0.0000030041283, 10.001083, 9.998538 
1.11502744e+3, 2.851513e+2, -30389.066, -185646.17, -96863.89, 0.017157761, 0.17258498, 16114.591, 161647.9, 0.000021785861, 10.0011835, 9.999138 
1.1150204e+3, 2.9515123e+2, -1496.3938, -124952.234, -26717.48, -0.031409193, 0.21360171, 4037.5613, 51568.402, 0.00010887074, 10.00071, 9.999111 
1.1150142e+3, 3.0514967e+2, 32164.867, -258383.92, 887.33234, -0.089634515, 0.23694256, 32167.576, 32167.576, 0.00034133886, 10.001364, 9.997543 
1.1150088e+3, 3.151453e+2, 259995.02, -63409.27, -5734.014, -0.1310131, -0.00017706912, 260096.64, 260096.64, 0.0007374856, 10.0025, 9.99833 
1.1251127e+3, 1.2516561e+2, -2079336.5, -1910755.9, -21658.354, 0.12629104, 0.061992887, -1908017.8, -194635.95, 0.0010643419, 9.997541, 9.999816 
1.1251039e+3, 1.3516603e+2, -1820010.3, -1787032.3, -118549.56, -0.020968586, 0.13828844, -1683830.5, -68449.125, 0.00051804923, 9.998899, 9.999352 
1.1250989e+3, 1.4516583e+2, -1623539.9, -1575775.6, 36702.727, 0.06878862, 0.1637983, -1555869.1, -38483.844, 0.00014661087, 9.999274, 9.999927 
1.1250936e+3, 1.551656e+2, -1573831.6, -1501407.6, 22055.46, 0.03396931, 0.106498465, -1495219.8, -75831.44, 0.00001150662, 9.998961, 9.999911 
1.125089e+3, 1.651656e+2, -1485419.0, -1375852.0, 72483.1, 0.004469008, 0.10872157, -1339778.3, -18391.098, 0.0000000061074554, 9.998745, 10.000214 
1.1250852e+3, 1.7516576e+2, -1384971.4, -1267392.4, 35225.523, 0.02375497, 0.06868939, -1257646.9, -34263.777, 0.0, 9.9987335, 10.000286 
1.1250812e+3, 1.8516542e+2, -1274952.9, -1207695.5, 18656.186, 0.030660821, 0.03177765, -1202867.1, -77483.32, 0.0, 9.998988, 9.999907 
1.12507656e+3, 1.951642e+2, -1097927.1, -1078137.6, -2733.0347, 0.006864711, -0.11234034, -1077767.1, -50373.43, 0.0, 9.99954, 9.999866 
1.12507164e+3, 2.0516446e+2, -1026305.06, -1074820.6, -46282.56, 0.03721975, -0.027198637, -998308.5, -68916.125, 0.0, 9.999753, 9.999096 
1.1250664e+3, 2.151657e+2, -921960.06, -971910.75, -49894.563, 0.12652998, 0.15698913, -891139.06, -59754.74, 0.0, 9.999788, 9.999112 
1.1250609e+3, 2.251652e+2, -824165.0, -915781.4, 31388.82, 0.118823804, 0.21961318, -814442.56, -81050.43, 0.0, 9.99994, 9.998766 
1.125055e+3, 2.3516287e+2, -672980.75, -788579.4, 51022.945, 0.02652952, 0.07830584, -653682.06, -18265.281, 0.0, 10.000288, 9.9987955 
1.1250489e+3, 2.4516174e+2, -515902.13, -688084.8, 32833.0, -0.022253318, 0.104288064, -509853.78, 27575.271, 0.0, 10.000831, 9.998543 
1.1250426e+3, 2.551615e+2, -310503.03, -541434.25, 20161.3, -0.025978608, 0.19359447, -308756.1, 130676.35, 0.0, 10.00158, 9.998521 
1.12503745e+3, 2.6516005e+2, -263302.6, -508297.8, 109264.65, -0.017934134, 0.22725523, -221652.64, 119795.16, 0.00000016860811, 10.001406, 9.998155 
1.12503335e+3, 2.7515718e+2, -307064.84, -474909.25, 91668.98, 0.00403564, 0.08953763, -266704.53, -23226.357, 0.0000038179373, 10.000407, 9.998191 
1.12502836e+3, 2.8515625e+2, -67912.44, -181829.7, 30400.154, 0.019067457, 0.1271476, -60307.496, 85178.516, 0.000026510976, 10.000814, 9.999342 
1.1250225e+3, 2.951569e+2, 253756.0, 24688.977, -15201.943, 0.029331896, 0.21252985, 254760.45, 302235.9, 0.00011807009, 10.002348, 9.999343 
1.1250167e+3, 3.0515575e+2, 181994.03, -232787.73, 37522.6, -0.013621997, 0.28796095, 185361.13, 185361.13, 0.0003550206, 10.002628, 9.997106 
1.1250116e+3, 3.151518e+2, 66128.49, -219680.5, 61946.805, -0.032042284, 0.1502292, 78977.33, 78977.33, 0.0007557831, 10.001438, 9.997779 
1.1351094e+3, 1.2516896e+2, -1931589.3, -1602669.4, -70466.48, -0.03004112, 0.19954118, -1588208.8, 125150.26, 0.0011953667, 9.997549, 10.00192 
1.1351021e+3, 1.3516983e+2, -1665034.0, -1455811.0, -56708.09, -0.13145964, 0.09051935, -1441429.3, 173917.38, 0.00059164723, 9.998869, 10.001636 
1.13509886e+3, 1.4517058e+2, -1605708.4, -1539159.0, 6384.3857, 0.09274601, 0.08385701, -1538552.1, -21215.209, 0.00017336896, 9.999274, 10.000183 
1.1350919e+3, 1.5517102e+2, -1556962.6, -1468783.0, 27955.277, -0.07146917, 0.07437257, -1460667.4, -41335.676, 0.000015247707, 9.998968, 10.000137 
1.13508694e+3, 1.6517134e+2, -1524537.6, -1457250.5, 54143.797, -0.11119238, 0.12373274, -1427149.0, -105819.71, 0.000000009421829, 9.998745, 9.999654 
1.13508426e+3, 1.7517115e+2, -1425985.6, -1352897.5, 47391.26, 0.016029766, 0.10667763, -1329596.8, -106263.64, 0.0, 9.998735, 9.999698 
1.1350807e+3, 1.8517129e+2, -1289753.1, -1229677.4, 20212.04, 0.050864477, 0.15248673, -1223510.4, -98177.86, 0.0, 9.998946, 9.99978 
1.1350761e+3, 1.951714e+2, -1126985.5, -1104885.6, 31163.7, -0.012858687, 0.15451716, -1082870.8, -55540.125, 0.0, 9.999393, 9.999755 
1.1350713e+3, 2.051708e+2, -1028675.9, -1046336.3, -62246.15, 0.0057802782, 0.144521, -974636.75, -45300.137, 0.0, 9.999608, 9.999362 
1.1350663e+3, 2.151692e+2, -933304.25, -946416.0, -36864.816, 0.117254816, 0.018911075, -902416.94, -71064.375, 0.0, 9.999581, 9.999388 
1.1350609e+3, 2.2516888e+2, -782631.44, -787750.56, 25887.34, 0.10581289, 0.037238527, -759177.44, -25821.729, 0.0, 9.999753, 9.999736 
1.1350552e+3, 2.3516944e+2, -637938.2, -669968.6, 78647.87, -0.01994344, 0.08506198, -573691.5, 61658.582, 0.0, 10.000087, 9.999708 
1.1350499e+3, 2.451694e+2, -540714.3, -699333.06, 46436.36, -0.03353965, 0.17764936, -528119.9, 9231.427, 0.0, 10.000655, 9.99855 
1.13504544e+3, 2.5516865e+2, -331234.9, -547789.7, 62550.55, 0.07561127, 0.21420032, -314466.06, 124894.77, 0.0, 10.00142, 9.998554 
1.1350398e+3, 2.65167e+2, -276856.6, -511805.72, 59794.887, 0.04871442, 0.21726896, -262514.22, 78863.37, 0.00000020663475, 10.001292, 9.998191 
1.1350329e+3, 2.7516398e+2, -322982.34, -487046.94, 76480.766, -0.109947346, 0.06675285, -292860.25, -49454.355, 0.0000055002247, 10.00031, 9.998159 
1.13502786e+3, 2.8516215e+2, -143706.48, -309650.72, 71572.13, -0.13908625, 0.05814483, -117102.414, 28319.8, 0.000033703815, 10.000698, 9.998514 
1.13502465e+3, 2.9516134e+2, 178650.33, -99920.55, 59977.03, -0.027918605, 0.08285806, 191014.73, 238442.67, 0.00013271971, 10.0022135, 9.998551 
1.1350199e+3, 3.0516043e+2, 206618.53, -145207.66, -16991.287, 0.0144808395, 0.18494967, 207437.22, 207437.22, 0.00037893685, 10.002477, 9.99778 
1.1350139e+3, 3.1515878e+2, 80580.78, -143452.19, 65629.75, -0.013270497, 0.20384052, 98390.94, 98390.94, 0.0007912106, 10.001248, 9.99839 
1.14510804e+3, 1.251731e+2, -1964664.0, -1608449.8, 93479.71, 0.110417426, 0.18712646, -1585408.6, 127909.88, 0.0013373722, 9.997233, 10.002054 
1.1451002e+3, 1.3517427e+2, -1749931.1, -1457817.9, -766.4246, -0.14515321, 0.069746785, -1457815.9, 157488.1, 0.000672049, 9.998075, 10.002025 
1.1450981e+3, 1.4517556e+2, -1653685.6, -1525485.5, 3863.8496, 0.13149583, 0.079485245, -1525369.1, -8080.7764, 0.0002032588, 9.998792, 10.000503 
1.14509165e+3, 1.5517625e+2, -1449335.6, -1383013.9, -14076.5, -0.018058607, 0.06570716, -1380149.9, 39129.16, 0.000019742625, 9.999563, 10.000434 
1.1450865e+3, 1.6517654e+2, -1400561.1, -1426373.3, 46418.793, -0.06479234, 0.111215495, -1365287.6, -44010.523, 0.000000013934886, 9.999725, 9.999393 
1.1450834e+3, 1.7517613e+2, -1341106.6, -1338994.6, 37421.715, 0.027782602, 0.096229255, -1302614.0, -79328.57, 0.0, 9.999437, 9.999454 
1.14507996e+3, 1.8517642e+2, -1219401.8, -1177547.4, 81099.66, 0.07476412, 0.16343586, -1114718.4, 10565.953, 0.0, 9.999367, 9.999925 
1.14507616e+3, 1.9517711e+2, -1096642.1, -1062571.6, 75180.266, 0.055917263, 0.20643017, -1002520.8, 24756.266, 0.0, 9.999523, 9.999959 
1.1450714e+3, 2.0517667e+2, -974222.0, -990251.3, 20447.697, 0.05033395, 0.18827803, -960274.4, -30994.168, 0.0, 9.999823, 9.999659 
1.14506565e+3, 2.1517487e+2, -816324.56, -859826.7, 24848.758, 0.0741018, 0.009824524, -805051.8, 26244.285, 0.0, 10.000221, 9.999689 
1.1450606e+3, 2.2517458e+2, -687134.06, -746527.94, 82336.8, 0.06473158, 0.019324245, -629302.4, 103996.125, 0.0, 10.000453, 9.999672 
1.1450558e+3, 2.3517536e+2, -567600.5, -635583.25, 23222.477, 0.017839998, 0.096843205, -560425.2, 74866.35, 0.0, 10.000587, 9.999693 
1.1450511e+3, 2.451753e+2, -530567.56, -685882.25, -7752.342, 0.02860354, 0.18341747, -530181.56, 7111.596, 0.0, 10.000677, 9.998635 
1.1450467e+3, 2.551743e+2, -418993.84, -575256.6, -15927.541, 0.10489581, 0.18440719, -417386.9, 21917.969, 0.0, 10.000758, 9.998678 
1.1450413e+3, 2.651727e+2, -256709.13, -499959.9, 3564.7275, 0.06475833, 0.18643576, -256656.89, 84663.055, 0.00000038376965, 10.001404, 9.998225 
1.1450346e+3, 2.7517018e+2, 6610.7856, -323723.28, -7567.7466, -0.083161995, 0.07605648, 6784.067, 250126.17, 0.0000075917305, 10.0025425, 9.998211 
1.1450297e+3, 2.8516793e+2, 73879.305, -286683.47, 36962.95, -0.11456073, 0.062092867, 77629.54, 222992.28, 0.000041535674, 10.002546, 9.997786 
1.1450266e+3, 2.9516596e+2, 7400.131, -261947.0, -5192.2534, -0.0014923101, 0.045089047, 7500.186, 54882.543, 0.00014998692, 10.001384, 9.997838 
1.14502236e+3, 3.0516458e+2, 100162.57, -157501.97, -64049.773, 0.06685974, 0.116303906, 115205.69, 115205.69, 0.00040887797, 10.001542, 9.998149 
1.145017e+3, 3.1516358e+2, 286655.84, -6772.9404, -62233.13, 0.11376972, 0.15943608, 299309.2, 299309.2, 0.0008407425, 10.002505, 9.998713 
1.1551057e+3, 1.251773e+2, -2079716.3, -1843605.4, -20233.373, 0.088443, -0.046423934, -1841884.0, -128615.8, 0.001489488, 9.997222, 10.00044 
1.15509816e+3, 1.3517961e+2, -1841639.3, -1645599.4, 45780.195, -0.19704004, 0.08258223, -1635435.5, -20184.451, 0.00075867696, 9.998078, 10.000721 
1.15509644e+3, 1.4518082e+2, -1632827.4, -1494362.9, 15381.318, 0.032379005, 0.13732779, -1492674.8, 24564.756, 0.0002361324, 9.998824, 10.000712 
1.1550923e+3, 1.5518124e+2, -1425571.4, -1342337.4, 27389.635, 0.052780915, 0.07163922, -1334133.0, 85097.8, 0.000024990082, 9.999587, 10.000709 
1.1550873e+3, 1.6518131e+2, -1390077.8, -1402934.0, 17730.732, 0.00014281568, 0.071027674, -1377645.9, -56415.895, 0.000000023716384, 9.999724, 9.99955 
1.1550823e+3, 1.7518082e+2, -1338413.4, -1322030.0, 41687.61, -0.059640378, 0.035586458, -1287736.9, -64498.42, 0.0, 9.999396, 9.999583 
1.1550787e+3, 1.8518102e+2, -1207772.8, -1142805.1, 70078.445, -0.025512425, 0.072048925, -1098047.9, 27189.799, 0.0, 9.999317, 10.000188 
1.1550763e+3, 1.9518138e+2, -1091420.1, -1029942.44, 92005.836, 0.07732445, 0.053630456, -963676.4, 63556.035, 0.0, 9.999423, 10.000233 
1.15507126e+3, 2.051821e+2, -960575.2, -927123.0, 13460.912, 0.038902305, 0.11018036, -922379.1, 6844.3804, 0.0, 9.999671, 10.000165 
1.1550642e+3, 2.1518275e+2, -812110.7, -807557.06, 52729.39, -0.120047405, 0.12833372, -757055.4, 74159.28, 0.0, 10.000025, 10.000146 
1.1550594e+3, 2.2518234e+2, -796946.2, -928632.8, 72220.53, -0.119848266, 0.16215701, -765059.56, -31839.61, 0.0, 10.000258, 9.998513 
1.15505666e+3, 2.3518065e+2, -676473.1, -817926.1, 42719.742, 0.028288959, 0.109127924, -664572.6, -29331.707, 0.0, 10.0004015, 9.998531 
1.15505226e+3, 2.4517944e+2, -543126.25, -667844.7, -23938.922, 0.048796713, 0.12593329, -538689.2, -1434.2571, 0.0, 10.000486, 9.99885 
1.15504615e+3, 2.5517842e+2, -429416.78, -560256.94, 589.03125, -0.055466536, 0.10364998, -429414.13, 9850.739, 0.0, 10.000595, 9.998859 
1.1550414e+3, 2.6517722e+2, -273772.06, -498769.3, 32717.754, -0.08636543, 0.13178208, -269111.0, 72164.23, 0.0000005356376, 10.00125, 9.998304 
1.1550377e+3, 2.7517554e+2, -5414.754, -313450.03, 52190.715, -0.054345295, 0.0966716, 3187.728, 246476.52, 0.000008957139, 10.002393, 9.998352 
1.1550332e+3, 2.8517362e+2, 12246.994, -380494.75, -19467.096, -0.040093265, 0.13153107, 13209.563, 158517.27, 0.000047577858, 10.002401, 9.9972105 
1.155028e+3, 2.9517093e+2, -47068.324, -362729.6, -20944.422, -0.04693504, 0.10381759, -45684.707, 1651.8805, 0.00016516355, 10.001319, 9.997183 
1.1550234e+3, 3.0516824e+2, 68274.3, -184928.63, -36435.97, -0.0030745564, 0.08446847, 73413.14, 73413.14, 0.00043857994, 10.001392, 9.998022 
1.15501955e+3, 3.151659e+2, 247534.97, -43497.902, 26687.197, 0.05327326, 0.0012360216, 249961.9, 249961.9, 0.0008950193, 10.002318, 9.998544 
1.1651039e+3, 1.2518354e+2, -1890073.0, -1803264.6, -24190.924, 0.12523444, -0.063400276, -1796978.5, -83772.83, 0.0016512593, 9.998752, 9.999966 
1.1650974e+3, 1.3518587e+2, -1712750.3, -1642331.8, 101737.67, -0.12370607, 0.1260014, -1569883.0, 45306.344, 0.0008513687, 9.99924, 10.000176 
1.1650951e+3, 1.4518641e+2, -1568014.8, -1483245.9, 110105.63, -0.008663499, 0.15197597, -1407648.5, 109536.4, 0.00027198074, 9.999373, 10.000514 
1.1650917e+3, 1.5518636e+2, -1477638.8, -1390993.3, 52021.81, 0.05760978, 0.05689661, -1366617.3, 52564.06, 0.00003101119, 9.999339, 10.00049 
1.165087e+3, 1.6518645e+2, -1415362.8, -1414478.8, 37669.91, 0.025601605, 0.069246545, -1377248.3, -56067.5, 0.00000004774233, 9.999543, 9.999561 
1.165082e+3, 1.7518641e+2, -1244647.5, -1280148.8, 16698.465, -0.04823613, 0.08194514, -1238027.6, -14842.293, 0.0, 10.000034, 9.999577 
1.1650783e+3, 1.8518658e+2, -1121641.5, -1075540.4, 56332.207, -0.0139071075, 0.10459208, -1037725.1, 87458.664, 0.0, 9.999791, 10.000423 
1.1650755e+3, 1.9518663e+2, -1139848.0, -1028632.44, 48241.293, 0.09093509, 0.031489372, -1010623.4, 16556.04, 0.0, 9.998979, 10.000463 
1.1650708e+3, 2.051871e+2, -1043147.9, -990462.4, 14425.036, 0.045748316, 0.06662707, -986771.44, -57599.355, 0.0, 9.999226, 9.99993 
1.16506435e+3, 2.151877e+2, -763866.2, -802238.6, -40912.44, -0.13246699, 0.09658947, -737864.56, 93300.414, 0.0, 10.0004635, 9.999953 
1.1650598e+3, 2.2518732e+2, -757006.56, -930808.56, -21845.113, -0.11844655, 0.15117253, -754302.94, -21132.184, 0.0, 10.000617, 9.998333 
1.1650573e+3, 2.3518564e+2, -784278.56, -890380.4, -2413.56, 0.08261517, 0.119051844, -784223.7, -149031.48, 0.0, 9.999744, 9.998359 
1.16505295e+3, 2.451843e+2, -609466.8, -701120.7, 30892.963, 0.09980201, 0.13094075, -600026.4, -62818.863, 0.0, 10.0000305, 9.998841 
1.165047e+3, 2.55183e+2, -314266.56, -507329.44, 6437.846, -0.05974314, 0.08416617, -314052.13, 125167.42, 0.0, 10.001384, 9.998848 
1.16504274e+3, 2.651819e+2, -240433.77, -453848.6, 34570.965, -0.069062226, 0.10717983, -234973.34, 106255.51, 0.00000056359414, 10.001371, 9.998545 
1.16504006e+3, 2.751806e+2, -330030.9, -444167.88, 27997.79, 0.06561611, 0.09303569, -323533.0, -80294.88, 0.00000928475, 10.000077, 9.998563 
1.1650357e+3, 2.8517887e+2, -249184.16, -507366.5, 32697.07, 0.068535335, 0.13641697, -245107.66, -99852.27, 0.000050789153, 10.000591, 9.997214 
1.1650298e+3, 2.951763e+2, 149884.73, -263773.66, 36942.695, -0.047370106, 0.11882975, 153158.1, 200441.84, 0.00017624088, 10.002663, 9.99721 
1.1650255e+3, 3.0517328e+2, 318351.4, -86344.41, 62111.484, -0.013151855, 0.07400014, 327669.56, 327669.56, 0.0004642717, 10.003192, 9.997849 
1.1650225e+3, 3.1517074e+2, 161305.1, -101933.11, 74902.04, 0.15718701, -0.0011277522, 181125.44, 181125.44, 0.0009430786, 10.00178, 9.998428 
1.1751019e+3, 1.2519155e+2, -1857748.6, -1709652.1, -30772.965, -0.017111486, 0.08835115, -1703512.4, 9620.659, 0.0018234614, 9.998666, 10.000645 
1.1750979e+3, 1.3519312e+2, -1704481.4, -1626051.0, 131906.5, -0.028859382, 0.19240719, -1527653.9, 87464.08, 0.0009506097, 9.999255, 10.00028 
1.1750935e+3, 1.4519247e+2, -1613055.3, -1573573.9, 92192.09, -0.13866465, 0.12465286, -1499032.6, 18090.93, 0.00031097958, 9.999364, 9.999894 
1.1750896e+3, 1.551917e+2, -1523903.0, -1488596.4, 67889.23, -0.12610433, 0.023860207, -1436102.9, -16973.48, 0.00003785508, 9.999343, 9.999817 
1.1750856e+3, 1.651919e+2, -1436023.3, -1451930.0, 38413.457, -0.11977258, 0.09545586, -1404748.4, -83618.734, 0.00000010132158, 9.999522, 9.99931 
1.17508225e+3, 1.7519279e+2, -1266137.3, -1310899.6, 49450.93, -0.058155034, 0.21477105, -1234238.5, -11111.503, 0.0, 9.999975, 9.999392 
1.1750784e+3, 1.8519323e+2, -1113174.4, -1044503.2, 8389.969, -0.020714955, 0.25899333, -1043493.0, 81628.805, 0.0, 9.999732, 10.000667 
1.17507376e+3, 1.9519289e+2, -1138066.3, -1006780.9, 36577.406, -0.021103827, 0.123988435, -997277.9, 29839.674, 0.0, 9.998895, 10.000657 
1.17506936e+3, 2.0519182e+2, -1133945.6, -1149299.5, 43942.113, -0.052835956, 0.048056845, -1097014.9, -167889.89, 0.0, 9.999101, 9.9988985 
1.1750654e+3, 2.151898e+2, -860693.2, -964000.06, 17723.455, -0.09155493, -0.08037292, -857737.1, -26590.965, 0.0, 10.000285, 9.998933 
1.1750613e+3, 2.251894e+2, -727636.3, -819783.44, -72119.445, -0.05565276, -0.01824475, -688129.56, 45022.168, 0.0, 10.000403, 9.999196 
1.1750568e+3, 2.351903e+2, -752412.75, -774447.6, -18142.014, 0.045510124, 0.11689426, -742204.8, -107059.47, 0.0, 9.999537, 9.9992485 
1.17505275e+3, 2.4518989e+2, -658738.75, -758271.44, 66999.51, 0.05105276, 0.19366542, -625044.75, -87894.15, 0.0, 9.99983, 9.99855 
1.17504895e+3, 2.5518802e+2, -349684.13, -545602.6, 71132.52, -0.030716203, 0.11201894, -326582.03, 112587.32, 0.0, 10.001231, 9.998656 
1.17504515e+3, 2.6518664e+2, -242550.16, -426711.13, -30457.113, 0.011581759, 0.10562516, -237643.78, 103537.51, 0.0000005132723, 10.001231, 9.998805 
1.1750413e+3, 2.7518532e+2, -325734.16, -414475.4, -619.7501, 0.14450692, 0.056747366, -325729.8, -82539.08, 0.000009286575, 9.999984, 9.998816 
1.1750367e+3, 2.8518373e+2, -232348.42, -444815.97, 98233.45, 0.082178876, 0.083041325, -193891.4, -48685.76, 0.000051726838, 10.000474, 9.997701 
1.1750319e+3, 2.9518172e+2, 182900.14, -180421.75, 131869.23, -0.15179035, 0.0687876, 225716.8, 272944.03, 0.00018255804, 10.002588, 9.997821 
1.1750282e+3, 3.0517936e+2, 286090.2, -113662.86, 1417.5321, -0.086900435, 0.056208175, 286095.22, 286095.22, 0.00047999644, 10.00304, 9.997729 
1.175025e+3, 3.151783e+2, 138005.69, -94129.97, 65515.5, 0.17429602, 0.14567092, 155219.6, 155219.6, 0.0009686636, 10.00156, 9.998575 
1.1850993e+3, 1.2519772e+2, -2009595.4, -1732710.8, 3862.381, -0.05793128, 0.17397219, -1732656.9, -19581.295, 0.0020081834, 9.997384, 10.001112 
1.1850976e+3, 1.3519837e+2, -1821407.6, -1674446.0, 61680.74, 0.086109065, 0.16557421, -1651989.6, -36924.33, 0.0010574218, 9.998393, 10.000373 
1.1850929e+3, 1.4519739e+2, -1686763.1, -1654855.6, 52342.07, -0.110240385, 0.08211376, -1616090.0, -99016.3, 0.00035351914, 9.999043, 9.9994955 
1.1850892e+3, 1.5519686e+2, -1504605.4, -1515311.3, 8081.6743, -0.09522329, 0.04259196, -1500264.6, -81184.36, 0.00004562391, 9.999637, 9.999494 
1.1850853e+3, 1.6519718e+2, -1404523.3, -1403939.3, 36091.14, -0.08051337, 0.1280916, -1368138.9, -47059.418, 0.00000019883093, 9.999595, 9.999614 
1.1850819e+3, 1.7519802e+2, -1378265.6, -1326438.3, 52853.887, -0.034964386, 0.21003667, -1293487.3, -70412.805, 0.0, 9.999045, 9.999731 
1.1850779e+3, 1.8519828e+2, -1210219.8, -1126836.4, 41046.03, -0.0087063275, 0.23781787, -1110021.9, 15048.224, 0.0, 9.99922, 10.000346 
1.1850731e+3, 1.9519766e+2, -979875.4, -961804.25, -5978.3833, -0.015572948, 0.10638149, -960005.5, 67064.2, 0.0, 10.000117, 10.000374 
1.1850691e+3, 2.0519657e+2, -961171.06, -1083186.9, 63478.914, -0.03892967, 0.050237887, -934136.2, -5057.926, 0.0, 10.000355, 9.998761 
1.1850658e+3, 2.1519475e+2, -912191.8, -996704.6, 78553.984, -0.056936808, -0.044045985, -865249.94, -34151.777, 0.0, 9.999978, 9.998856 
1.18506186e+3, 2.2519426e+2, -750667.0, -825012.94, 4466.0854, -0.0120059755, 0.008240249, -750399.7, -17295.084, 0.0, 10.000221, 9.999244 
1.1850574e+3, 2.3519467e+2, -536023.8, -666193.2, -38185.316, 0.082346484, 0.0914798, -525649.0, 109452.664, 0.0, 10.000998, 9.999289 
1.18505344e+3, 2.4519424e+2, -473280.28, -644795.25, 80089.84, 0.083212115, 0.1504647, -441697.53, 95408.7, 0.0, 10.00101, 9.998756 
1.1850499e+3, 2.5519267e+2, -467223.13, -589196.5, 87635.49, -0.0028914711, 0.08447048, -421442.06, 17678.96, 0.0, 10.000367, 9.998779 
1.1850465e+3, 2.6519132e+2, -300280.8, -473064.88, 4025.1423, 0.046901695, 0.08597892, -300187.1, 40946.145, 0.0000005059796, 10.000924, 9.99863 
1.1850429e+3, 2.7518982e+2, 31801.22, -266484.9, -37095.297, 0.20016037, 0.04034978, 36345.223, 279491.7, 0.000009353779, 10.002542, 9.998602 
1.1850387e+3, 2.8518823e+2, 76692.44, -283260.0, 69696.23, 0.13626073, 0.07205436, 89716.23, 234878.39, 0.000051580555, 10.002561, 9.997793 
1.1850342e+3, 2.951865e+2, -28282.428, -275334.13, 38113.082, -0.100143686, 0.07607044, -22536.307, 24644.93, 0.00018437536, 10.001121, 9.9978695 
1.18503086e+3, 3.051842e+2, 99152.8, -215847.2, -80543.28, -0.038383987, 0.072170995, 118552.41, 118552.41, 0.0004810056, 10.001786, 9.997635 
1.1850282e+3, 3.1518376e+2, 495628.94, 70767.15, -74909.375, 0.22425619, 0.23181327, 508449.7, 508449.7, 0.0009623852, 10.004019, 9.998534 
1.19509704e+3, 1.2520242e+2, -1976823.5, -1672300.3, 87947.375, -0.09972084, 0.22265694, -1648725.8, 64303.86, 0.0022081332, 9.997419, 10.001501 
1.1950963e+3, 1.3520151e+2, -1801482.5, -1636508.5, 107338.3, 0.072250545, 0.029377662, -1583623.4, 31408.422, 0.0011730703, 9.998398, 10.000629 
1.19509265e+3, 1.452011e+2, -1703734.1, -1684433.9, 53618.21, -0.08262093, 0.0011817968, -1639604.3, -122568.914, 0.00040013902, 9.999023, 9.999302 
1.1950905e+3, 1.5520185e+2, -1514733.3, -1539741.3, 45151.13, 0.027611066, 0.10788894, -1480386.8, -61353.418, 0.00005450229, 9.999644, 9.999325 
1.1950862e+3, 1.6520232e+2, -1341649.8, -1275873.8, -5090.7534, 0.010873145, 0.16901328, -1275482.1, 45547.26, 0.00000035173326, 9.9995985, 10.000494 
1.19508065e+3, 1.752022e+2, -1325609.4, -1212462.9, 45956.52, -0.093459286, 0.0730914, -1196149.0, 26877.486, 0.0, 9.999019, 10.000532 
1.1950764e+3, 1.8520184e+2, -1281148.3, -1260882.9, 57972.184, -0.10379745, 0.046075318, -1212164.5, -87136.65, 0.0, 9.999167, 9.99945 
1.1950735e+3, 1.9520101e+2, -1057659.1, -1096541.0, 40981.59, -0.019001745, -0.020468391, -1031741.06, -4705.4507, 0.0, 10.0, 9.999507 
1.1950697e+3, 2.0520137e+2, -924360.75, -972276.06, 30856.416, -0.039453868, 0.06844484, -909253.2, 19778.877, 0.0, 10.000209, 9.99959 
1.1950651e+3, 2.1520256e+2, -885055.44, -896265.44, 78603.98, -0.14971009, 0.19311605, -811856.9, 19164.166, 0.0, 9.999787, 9.999638 
1.1950614e+3, 2.2520176e+2, -838933.6, -958867.5, 16444.773, -0.10892255, 0.21838918, -836719.7, -103689.57, 0.0, 10.00001, 9.9984255 
1.1950586e+3, 2.3519886e+2, -618053.06, -789732.4, 2171.7708, 0.076044805, 0.046309117, -618025.56, 17034.691, 0.0, 10.000803, 9.9985285 
1.1950546e+3, 2.4519742e+2, -457735.3, -569518.6, 39115.67, 0.07303055, 0.014128581, -445407.38, 91665.836, 0.0, 10.000821, 9.999371 
1.1950494e+3, 2.5519708e+2, -449299.8, -508706.5, 79880.32, -0.10951155, 0.008880329, -393779.0, 45294.2, 0.0, 10.000187, 9.999416 
1.1950464e+3, 2.6519606e+2, -378425.13, -597738.8, 50847.97, -0.09037683, 0.050938558, -367209.56, -26126.238, 0.0000006389743, 10.000758, 9.997857 
1.1950448e+3, 2.7519414e+2, -36963.996, -375250.25, 38912.18, 0.11252472, 0.03858467, -32545.736, 210559.58, 0.000009301616, 10.002404, 9.997919 
1.1950414e+3, 2.8519246e+2, 36897.492, -345000.97, 2341.7832, 0.12258286, 0.11146063, 36911.85, 182036.31, 0.00005191434, 10.002461, 9.997422 
1.19503625e+3, 2.951906e+2, -69684.14, -341887.97, 9763.413, -0.042576365, 0.13546675, -69334.4, -22189.27, 0.00018470343, 10.001025, 9.997462 
1.19503334e+3, 3.051878e+2, 53523.754, -267753.4, -1474.7722, -0.004861026, 0.1233353, 53530.523, 53530.523, 0.0004730737, 10.001613, 9.997355 
1.195031e+3, 3.1518695e+2, 445815.63, 26062.627, 60204.684, 0.04604775, 0.25751895, 454280.03, 454280.03, 0.0009339275, 10.003779, 9.998333 
1.2050957e+3, 1.252054e+2, -1840791.0, -1632439.9, 68249.516, -0.011438927, 0.23883988, -1612074.1, 100927.195, 0.0024257244, 9.99847, 10.001284 
1.2050944e+3, 1.3520421e+2, -1918273.5, -1679550.4, -30642.78, 0.09060919, 0.01913011, -1675679.9, -60671.645, 0.0012988481, 9.997554, 10.000741 
1.2050917e+3, 1.4520457e+2, -1906736.6, -1691304.3, 11813.983, 0.01582151, 0.019839166, -1690658.4, -173654.77, 0.00045139206, 9.99723, 10.000121 
1.2050895e+3, 1.5520608e+2, -1723511.3, -1547585.5, 35757.074, 0.066575326, 0.11836645, -1540595.6, -121604.305, 0.00006471426, 9.99781, 10.000154 
1.2050856e+3, 1.6520663e+2, -1496157.6, -1357449.6, 9030.249, 0.049658976, 0.15052222, -1356864.3, -35879.07, 0.00000057087306, 9.998578, 10.000414 
1.2050807e+3, 1.7520596e+2, -1236789.0, -1172048.0, -41307.563, -0.0127149355, 0.0037337358, -1151938.4, 71049.26, 0.0, 9.999654, 10.000489 
1.2050766e+3, 1.8520561e+2, -1192443.8, -1233486.3, -3161.6223, -0.030165795, -0.013113394, -1192201.8, -67212.336, 0.0, 9.999845, 9.99931 
1.2050732e+3, 1.9520524e+2, -1171503.3, -1159311.8, 8699.081, -0.0046234257, -0.020985352, -1154785.3, -127791.72, 0.0, 9.999262, 9.999421 
1.2050694e+3, 2.0520563e+2, -1044073.3, -1017106.2, 31779.654, -0.031470172, 0.065070555, -996068.0, -67078.44, 0.0, 9.999318, 9.999712 
1.2050653e+3, 2.1520633e+2, -847492.25, -868461.0, -5489.383, -0.103756234, 0.12923972, -846142.1, -15160.63, 0.0, 9.999977, 9.999745 
1.20506205e+3, 2.2520557e+2, -772557.25, -922289.5, -10752.334, -0.06102549, 0.15212847, -771789.06, -38799.445, 0.0, 10.000446, 9.998469 
1.20505944e+3, 2.352032e+2, -621411.5, -788908.75, 7491.744, 0.09444735, 0.033180084, -621077.06, 13938.068, 0.0, 10.000771, 9.998554 
1.20505564e+3, 2.4520196e+2, -473374.5, -597372.9, 31251.893, 0.103971824, 0.027526418, -465943.28, 71083.74, 0.0, 10.000811, 9.99917 
1.2050504e+3, 2.552014e+2, -411391.66, -516481.7, -21513.777, -0.043415997, 0.020601088, -407157.97, 31871.879, 0.00000000020898414, 10.000555, 9.999181 
1.2050476e+3, 2.6520017e+2, -388467.84, -631474.7, 28667.725, -0.032855958, 0.063799255, -385131.7, -44088.184, 0.00000074892756, 10.0008135, 9.997593 
1.20504685e+3, 2.75198e+2, -174730.88, -473048.63, 18661.906, 0.12714447, 0.054820023, -173567.97, 69501.695, 0.000009032264, 10.001576, 9.9976425 
1.2050438e+3, 2.8519642e+2, 25541.756, -328756.34, -13319.708, 0.13322559, 0.13820903, 26041.799, 171129.94, 0.000052136886, 10.002301, 9.997612 
1.2050384e+3, 2.9519498e+2, 207086.11, -186769.77, -6062.263, -0.006044906, 0.19117272, 207179.4, 254282.58, 0.0001849306, 10.002858, 9.997641 
1.2050359e+3, 3.0519193e+2, 238122.84, -190419.92, 92150.7, 0.03711673, 0.1534194, 257098.06, 257098.06, 0.0004665325, 10.002934, 9.997245 
1.205034e+3, 3.1519037e+2, 209569.03, -71714.06, 106442.96, 0.061812866, 0.22807871, 245308.19, 245308.19, 0.00090606173, 10.002118, 9.998445 
1.2150954e+3, 1.2520586e+2, -1900097.1, -1741020.0, -17675.896, 0.03477247, 0.13752015, -1739079.6, -26080.98, 0.0026624324, 9.99844, 10.000541 
1.2150914e+3, 1.352066e+2, -1927782.1, -1698552.9, -56638.29, 0.02634892, 0.13147938, -1685322.3, -70329.29, 0.0014356553, 9.99756, 10.000608 
1.21508986e+3, 1.452079e+2, -1770406.5, -1411050.9, 12998.161, 0.05725828, 0.13356437, -1410581.4, 106395.96, 0.0005075534, 9.997245, 10.002036 
1.2150859e+3, 1.552096e+2, -1598379.0, -1290252.0, 75114.195, -0.09576114, 0.063377194, -1272916.3, 146037.88, 0.000076397075, 9.997817, 10.001921 
1.21508315e+3, 1.652101e+2, -1565152.6, -1498615.4, 32498.342, -0.09896204, 0.05730789, -1485376.6, -164429.33, 0.0000008702971, 9.998577, 9.99944 
1.21508166e+3, 1.7520928e+2, -1311271.6, -1315688.8, 12042.446, 0.087969124, -0.0057114526, -1301236.9, -78279.19, 0.0, 9.999607, 9.999527 
1.21507786e+3, 1.8520953e+2, -1148628.0, -1131641.5, -42116.188, 0.08187813, 0.046837438, -1097170.8, 27784.111, 0.0, 9.999799, 10.000031 
1.21507175e+3, 1.9521047e+2, -1140177.9, -1070985.1, 1522.6255, -0.10264458, 0.09798199, -1070951.6, -44008.734, 0.0, 9.999161, 10.000078 
1.215068e+3, 2.0520939e+2, -1106851.0, -1113686.4, 37747.99, -0.14185068, 0.040351454, -1072366.4, -143416.19, 0.0, 9.999174, 9.999116 
1.2150662e+3, 2.1520627e+2, -915446.94, -959598.06, 31810.986, -0.04524905, -0.22408809, -898802.1, -67824.445, 0.0, 9.999763, 9.999219 
1.2150633e+3, 2.252059e+2, -741774.8, -813354.3, -16617.627, 0.009285323, -0.18104494, -738105.06, -5123.8228, 0.0, 10.000244, 9.999321 
1.2150597e+3, 2.3520784e+2, -588714.6, -679583.9, 33238.72, 0.025421288, 0.04526964, -577854.4, 57110.973, 0.0, 10.000586, 9.999395 
1.2150562e+3, 2.4520785e+2, -582817.44, -770961.1, 7611.8115, 0.048376694, 0.17721938, -582510.0, -45542.36, 0.0, 10.000584, 9.998086 
1.21505246e+3, 2.5520572e+2, -508086.56, -681046.8, -16524.387, 0.07888374, 0.12146058, -506522.0, -67532.125, 0.00000000018849695, 10.0004015, 9.998121 
1.2150501e+3, 2.652037e+2, -395729.4, -614294.1, 42694.336, 0.1009248, 0.13090491, -387685.56, -46673.016, 0.00000061447383, 10.000668, 9.9977865 
1.2150487e+3, 2.752014e+2, -177520.86, -450597.94, 65225.28, 0.114365526, 0.08635683, -162741.48, 80297.64, 0.000008322687, 10.001446, 9.997866 
1.2150453e+3, 2.852001e+2, 35912.496, -257806.83, -5530.714, 0.032946337, 0.15833797, 36016.605, 181069.23, 0.000050710027, 10.002102, 9.998191 
1.2150404e+3, 2.9519957e+2, 231926.63, -104827.445, 36864.04, -0.12904319, 0.24279845, 235914.84, 282970.4, 0.00018357177, 10.002735, 9.998258 
1.21503845e+3, 3.051964e+2, 212700.56, -210613.39, 51543.87, -0.03361004, 0.1669233, 218886.3, 218886.3, 0.00046227945, 10.002799, 9.997174 
1.21503636e+3, 3.1519365e+2, 202028.47, -31339.455, 115084.266, 0.02011342, 0.12871633, 249233.3, 249233.3, 0.00088881893, 10.001887, 9.998833 
1.2250951e+3, 1.2520869e+2, -1988624.5, -1775925.9, 45356.98, 0.21282071, 0.16632673, -1766657.6, -53685.406, 0.0029179724, 9.997769, 10.000631 
1.22508936e+3, 1.3521008e+2, -1835985.3, -1624093.4, 29513.793, 0.051283818, 0.20072944, -1620059.3, -5098.0947, 0.0015834377, 9.998057, 10.000881 
1.2250882e+3, 1.4521146e+2, -1628895.1, -1321759.4, 110522.836, 0.1266532, 0.1845711, -1286122.6, 230822.22, 0.00056846405, 9.998128, 10.002223 
1.225084e+3, 1.5521307e+2, -1513711.6, -1215802.0, 12067.328, -0.08819226, 0.08054607, -1215314.0, 203607.11, 0.00008951281, 9.998278, 10.002193 
1.2250817e+3, 1.6521372e+2, -1567821.0, -1511434.6, 4150.4297, -0.089870185, 0.07726242, -1511130.8, -190217.97, 0.0000012652538, 9.998577, 9.999375 
1.2250815e+3, 1.7521319e+2, -1388622.8, -1356414.5, 24219.469, 0.14746517, 0.048459444, -1343433.9, -120512.414, 0.0, 9.999074, 9.999517 
1.2250781e+3, 1.8521352e+2, -1183833.1, -1169383.5, -28011.975, 0.1475449, 0.11726502, -1147679.6, -22760.902, 0.0, 9.999629, 9.999865 
1.2250716e+3, 1.9521426e+2, -985719.7, -1016823.06, -81332.6, -0.082026266, 0.1708246, -918465.3, 108443.8, 0.0, 10.000295, 9.999918 
1.225068e+3, 2.0521288e+2, -912850.5, -1022975.6, -13318.854, -0.11016826, 0.08928705, -911262.56, 17656.553, 0.0, 10.000532, 9.999078 
1.225067e+3, 2.1520923e+2, -833138.5, -921483.56, -10658.376, 0.04636829, -0.2210217, -831870.8, -921.0711, 0.0, 10.000359, 9.999183 
1.2250645e+3, 2.2520879e+2, -698924.75, -781419.6, -33684.52, 0.089701794, -0.19068325, -686918.06, 46035.305, 0.0, 10.000479, 9.999428 
1.2250603e+3, 2.3521097e+2, -548193.6, -653970.44, -74940.586, 0.021963485, 0.05014957, -509358.16, 125577.09, 0.0, 10.00082, 9.999467 
1.225057e+3, 2.452108e+2, -443641.22, -732400.8, -56797.31, 0.03051049, 0.17550282, -432871.22, 104067.97, 0.0, 10.001643, 9.997852 
1.22505434e+3, 2.5520822e+2, -155699.61, -534525.06, -47107.938, 0.10815872, 0.09598673, -149929.52, 289036.6, 0.0, 10.00292, 9.99792 
1.22505225e+3, 2.652063e+2, -48368.586, -423864.4, 44073.6, 0.15273021, 0.11402545, -43264.844, 297722.53, 0.0000003685213, 10.002974, 9.9979725 
1.2250507e+3, 2.752046e+2, -114372.04, -396132.22, 29989.867, 0.15553534, 0.111607924, -111215.36, 131791.67, 0.0000073761885, 10.001816, 9.998042 
1.2250473e+3, 2.8520316e+2, -11851.642, -285401.72, 144.55405, 0.048059613, 0.16211513, -11851.565, 133169.28, 0.000049087277, 10.001767, 9.998163 
1.2250429e+3, 2.952018e+2, 212733.3, -125141.48, -34825.434, -0.14269932, 0.16816337, 216285.48, 263316.38, 0.00018153466, 10.0026245, 9.998181 
1.2250415e+3, 3.0519867e+2, 266649.06, -204654.16, -50610.184, -0.018631678, 0.10534166, 272022.5, 272022.5, 0.00045750884, 10.003263, 9.996982 
1.2250398e+3, 3.151957e+2, 415309.8, 67211.93, -66087.67, 0.11732438, 0.067584075, 427434.5, 427434.5, 0.0008771935, 10.003325, 9.998828 
1.2350932e+3, 1.2521347e+2, -1898179.0, -1613524.4, -89851.164, 0.17160663, 0.27504268, -1587535.6, 125390.914, 0.0031899144, 9.997849, 10.0017185 
1.23508744e+3, 1.3521466e+2, -1782807.6, -1529745.8, 46470.06, 0.013520313, 0.21589938, -1521482.3, 93431.36, 0.0017411282, 9.998102, 10.001513 
1.23508595e+3, 1.4521512e+2, -1723686.1, -1532111.6, 95266.98, 0.05593003, 0.15112455, -1492802.6, 24105.016, 0.0006337289, 9.998179, 10.000759 
1.2350831e+3, 1.552164e+2, -1608124.9, -1420196.5, 27721.447, -0.03410345, 0.16496757, -1416192.6, 2700.69, 0.00010392506, 9.998296, 10.000793 
1.235081e+3, 1.6521733e+2, -1493991.5, -1359262.9, 168.66562, -0.04839822, 0.20375746, -1359262.8, -38379.83, 0.0000017603737, 9.998583, 10.000413 
1.23507984e+3, 1.7521764e+2, -1324219.4, -1221217.0, 53948.883, 0.039792024, 0.15567636, -1198133.6, 24745.514, 0.0, 9.999058, 10.000455 
1.235077e+3, 1.852175e+2, -1265373.8, -1327855.4, -19893.943, 0.036471955, 0.18680385, -1259577.3, -134695.73, 0.0, 9.999582, 9.998799 
1.2350724e+3, 1.952167e+2, -1070853.8, -1171006.0, -42594.8, -0.06634729, 0.19000466, -1055188.5, -28296.533, 0.0, 10.000195, 9.998907 
1.2350693e+3, 2.0521604e+2, -900491.75, -959967.06, -38833.438, -0.055853333, 0.20330039, -881317.6, 47578.707, 0.0, 10.000372, 9.999588 
1.2350678e+3, 2.1521516e+2, -827638.4, -867940.25, -2490.362, 0.058703315, 0.121781245, -827485.06, 3413.1213, 0.0, 10.000172, 9.999644 
1.23506494e+3, 2.2521414e+2, -775191.2, -893934.7, -34406.773, 0.061032508, 0.10717573, -765942.0, -33035.438, 0.0, 10.0002775, 9.998755 
1.2350608e+3, 2.352127e+2, -622015.25, -763249.06, -42917.605, -0.03771657, 0.05036342, -609996.4, 24927.309, 0.0, 10.0006275, 9.998812 
1.2350577e+3, 2.4521104e+2, -430200.63, -656704.7, -23011.154, -0.08627462, 0.027503872, -427886.5, 109053.52, 0.0, 10.001437, 9.998472 
1.2350557e+3, 2.552089e+2, -135640.3, -453640.2, 15454.822, -0.07754808, -0.068170324, -134890.95, 304067.2, 0.0, 10.002744, 9.998565 
1.235054e+3, 2.652079e+2, -76598.18, -428802.06, -12357.332, -0.00081775384, 0.0013459178, -76165.14, 264803.22, 0.00000016286783, 10.0027485, 9.998046 
1.2350525e+3, 2.7520746e+2, -134985.17, -400296.38, 7132.959, 0.12861425, 0.12224456, -134793.55, 108180.805, 0.000006622681, 10.001656, 9.998088 
1.23504944e+3, 2.8520545e+2, -76676.36, -380650.84, 22154.146, 0.0503764, 0.14230998, -75070.21, 69923.91, 0.000048750662, 10.001601, 9.99759 
1.2350453e+3, 2.9520163e+2, 154680.83, -217136.06, 21527.543, -0.20240168, -0.041964088, 155923.08, 202952.75, 0.00018217463, 10.002496, 9.997617 
1.23504445e+3, 3.0519858e+2, 215735.95, -275804.75, -52457.49, -0.07361466, -0.04619411, 221271.9, 221271.9, 0.00045752534, 10.003118, 9.996562 
1.23504356e+3, 3.1519634e+2, 348426.06, -7688.828, -29849.42, 0.08867913, 0.02816774, 350910.72, 350910.72, 0.000874485, 10.003066, 9.998431 
1.245091e+3, 1.2521599e+2, -1936644.3, -1655424.9, -99735.38, 0.2001933, 0.20645712, -1623644.9, 89254.84, 0.003475539, 9.997722, 10.001468 
1.2450858e+3, 1.352173e+2, -1862008.1, -1634171.3, -86600.13, 0.07130802, 0.21380141, -1604991.9, 9896.146, 0.0019075654, 9.997843, 10.000918 
1.2450836e+3, 1.4521767e+2, -1812722.9, -1624862.3, -11657.308, 0.028782865, 0.19373704, -1624141.6, -107257.14, 0.0007030745, 9.997785, 10.000312 
1.245082e+3, 1.5521829e+2, -1701635.6, -1519697.4, -40895.91, 0.04606991, 0.18734291, -1510927.6, -92049.96, 0.00011956255, 9.99787, 10.000323 
1.2450799e+3, 1.6521913e+2, -1549544.0, -1345359.5, -14695.656, 0.025321, 0.22292893, -1344307.3, -23439.238, 0.0000023468863, 9.998037, 10.000764 
1.24507815e+3, 1.7521997e+2, -1389902.5, -1213092.1, -42655.6, -0.005298714, 0.19272107, -1203339.4, 19518.549, 0.0, 9.998448, 10.000798 
1.2450759e+3, 1.8521975e+2, -1328270.1, -1374658.8, -59658.535, -0.006070384, 0.20833065, -1287455.6, -162594.92, 0.0, 9.999235, 9.998636 
1.2450734e+3, 1.9521827e+2, -1053479.9, -1183340.1, -47015.926, 0.008384428, 0.15788287, -1038245.1, -11366.418, 0.0, 10.0004015, 9.99872 
1.2450707e+3, 2.0521788e+2, -839959.2, -899732.6, -37200.934, 0.036794096, 0.19411485, -822126.6, 106754.32, 0.0, 10.000642, 9.999872 
1.245068e+3, 2.1521826e+2, -832112.8, -835494.75, -48421.867, 0.08524779, 0.20575489, -785352.4, 45518.797, 0.0, 9.999983, 9.999956 
1.2450652e+3, 2.2521755e+2, -805215.6, -899320.1, 6558.158, 0.08591095, 0.20119673, -804760.8, -71884.55, 0.0, 10.000054, 9.998814 
1.2450623e+3, 2.3521546e+2, -590747.06, -736858.44, 19830.977, 0.040941786, 0.07461341, -588103.4, 46795.02, 0.0, 10.000815, 9.998889 
1.2450597e+3, 2.452136e+2, -441237.9, -643188.5, 87256.06, -0.017715702, 0.019538667, -408760.47, 128155.13, 0.0, 10.001287, 9.998633 
1.2450576e+3, 2.552117e+2, -311705.47, -519604.78, 58929.195, -0.08823149, -0.06819357, -296163.78, 142766.86, 0.0, 10.001465, 9.998719 
1.245056e+3, 2.652106e+2, -190448.42, -488108.56, 5219.8203, -0.018048398, -0.010678327, -190356.92, 150583.1, 0.000000050542315, 10.001963, 9.998021 
1.2450549e+3, 2.752099e+2, 17465.328, -337199.7, -15158.674, 0.17279266, 0.082771815, 18112.043, 261059.25, 0.0000061370592, 10.002715, 9.99803 
1.2450524e+3, 2.8520757e+2, 108829.22, -322700.2, 62324.508, 0.11718771, 0.09280827, 117650.24, 262620.5, 0.000049451548, 10.003018, 9.997305 
1.24504834e+3, 2.9520348e+2, 193602.63, -220235.88, 44389.01, -0.15645313, -0.09119574, 198310.31, 245321.45, 0.00018750013, 10.002879, 9.997397 
1.24504775e+3, 3.0520138e+2, 177070.73, -243170.02, 32971.043, -0.026415477, -0.014224315, 179641.83, 179641.83, 0.000470274, 10.002607, 9.997047 
1.24504685e+3, 3.151995e+2, 232744.53, -29486.23, 58317.105, 0.17526606, 0.049254946, 245128.73, 245128.73, 0.00089436676, 10.002115, 9.998751 
1.2550879e+3, 1.2521704e+2, -2032000.6, -1878360.9, -71077.59, 0.036803845, 0.018218786, -1850522.8, -137638.64, 0.0037739007, 9.997816, 9.999896 
1.2550846e+3, 1.3521822e+2, -1981187.5, -1891024.9, -70869.26, 0.12697683, 0.19335802, -1852113.5, -237231.36, 0.0020822603, 9.997882, 9.999141 
1.2550808e+3, 1.4521939e+2, -1771623.3, -1547446.0, -25678.406, -0.08058233, 0.31477123, -1544542.3, -27669.494, 0.0007764397, 9.997816, 10.000826 
1.25508e+3, 1.5521893e+2, -1663423.1, -1444007.5, -22011.129, 0.01754863, 0.14507672, -1441821.1, -22948.72, 0.00013646827, 9.997888, 10.000832 
1.2550783e+3, 1.6521929e+2, -1575559.8, -1405975.5, -18495.525, 0.010078215, 0.1315484, -1403981.8, -83115.36, 0.0000030208696, 9.998058, 10.000341 
1.255076e+3, 1.7522039e+2, -1416569.8, -1266702.8, -13766.933, -0.09410338, 0.16543363, -1265448.6, -42592.875, 0.0, 9.998436, 10.000436 
1.2550746e+3, 1.8522038e+2, -1280965.5, -1269422.1, -32819.926, -0.08994667, 0.17996909, -1241870.3, -117014.47, 0.0, 9.999199, 9.999381 
1.2550743e+3, 1.95219e+2, -1015048.75, -1083704.1, 10378.982, 0.018252384, 0.06621394, -1013514.0, 13355.295, 0.0, 10.00031, 9.99945 
1.2550718e+3, 2.0521851e+2, -861128.44, -901961.8, -77861.43, 0.04727497, 0.054641794, -801051.4, 127820.8, 0.0, 10.000465, 9.999946 
1.2550674e+3, 2.1521866e+2, -856802.3, -839712.7, -57025.625, 0.0019923083, 0.037024967, -790595.25, 40272.117, 0.0, 9.999782, 10.00003 
1.2550649e+3, 2.2521897e+2, -782108.94, -802428.6, 18895.602, 0.029890448, 0.09392424, -770814.94, -37952.457, 0.0, 9.999845, 9.999578 
1.2550642e+3, 2.3521914e+2, -564866.2, -642837.25, 62389.5, 0.1352577, 0.116448805, -530283.25, 104577.08, 0.0, 10.000636, 9.999623 
1.2550625e+3, 2.4521838e+2, -489009.28, -696706.0, 77601.46, 0.106825344, 0.14832231, -463217.88, 73649.11, 0.0, 10.001091, 9.998362 
1.2550597e+3, 2.5521648e+2, -360383.8, -580569.8, 81234.695, -0.048941355, 0.08653662, -333657.44, 105227.234, 0.0, 10.001286, 9.998388 
1.2550582e+3, 2.6521435e+2, -229281.19, -523538.5, 17928.29, -0.032096297, 0.06732096, -228192.89, 112710.96, 0.00000007625481, 10.001769, 9.99787 
1.2550578e+3, 2.7521178e+2, -14096.969, -365359.63, 31854.287, 0.15044639, -0.012205007, -11231.633, 231694.94, 0.0000061507535, 10.002553, 9.997914 
1.2550555e+3, 2.852096e+2, 83695.945, -343257.56, 44665.99, 0.10598016, 0.017902955, 88318.66, 233267.86, 0.000051588533, 10.002882, 9.997226 
1.2550516e+3, 2.9520738e+2, 170598.1, -237724.61, 57835.797, -0.14125368, 0.023401791, 178632.02, 225607.5, 0.00020006, 10.00275, 9.997336 
1.2550507e+3, 3.0520698e+2, 256957.02, -55408.055, 3120.634, -0.00970505, 0.20515665, 256988.19, 256988.19, 0.00050364056, 10.00251, 9.998382 
1.2550487e+3, 3.1520504e+2, 257469.17, 75478.98, 76117.28, 0.081930116, 0.1272317, 285107.75, 285107.75, 0.00095293473, 10.0018835, 9.999584 
1.2650853e+3, 1.2521885e+2, -1977285.0, -1907296.9, -40392.418, -0.027159099, 0.036629938, -1888848.1, -175982.39, 0.004085261, 9.998445, 9.999413 
1.2650833e+3, 1.3521953e+2, -1792986.4, -1809329.9, -55439.95, 0.15245141, 0.18787037, -1745119.1, -130249.56, 0.0022650692, 9.999247, 9.999035 
1.2650795e+3, 1.4522068e+2, -1608080.9, -1463581.0, 39815.367, -0.030457763, 0.31121787, -1453336.6, 63523.645, 0.00085386867, 9.99892, 10.000871 
1.2650782e+3, 1.5522005e+2, -1641815.9, -1425576.5, -28021.18, 0.057881556, 0.11955295, -1422004.4, -3143.3699, 0.00015477135, 9.998021, 10.000889 
1.2650767e+3, 1.6522034e+2, -1596791.3, -1435490.3, 43999.402, 0.056871995, 0.10476941, -1424268.8, -103412.914, 0.0000038088367, 9.998008, 10.000157 
1.2650749e+3, 1.7522135e+2, -1348394.1, -1255626.5, 31906.533, -0.06205739, 0.15263833, -1245712.1, -22865.355, 0.0, 9.998998, 10.000244 
1.2650742e+3, 1.8522161e+2, -1240751.4, -1185617.4, 29137.88, -0.04913934, 0.17429112, -1173072.5, -48228.84, 0.0, 9.999194, 9.999956 
1.2650742e+3, 1.9522089e+2, -1211231.9, -1112589.4, 25274.145, 0.08459551, 0.068922125, -1106490.8, -79641.39, 0.0, 9.998694, 10.000023 
1.2650721e+3, 2.0522062e+2, -1055556.8, -1018109.44, -43789.21, 0.11756138, 0.06082094, -989208.9, -60358.227, 0.0, 9.999226, 9.999743 
1.265068e+3, 2.1522051e+2, -741032.06, -806471.0, -75317.1, 0.04805803, 0.036069207, -691634.4, 139216.66, 0.0, 10.000668, 9.999827 
1.2650657e+3, 2.2522071e+2, -569630.94, -706850.0, -9929.295, 0.051468235, 0.094683394, -568916.2, 163931.88, 0.0, 10.001314, 9.999537 
1.265065e+3, 2.3522103e+2, -486351.2, -606441.6, -53644.535, 0.13255575, 0.13710709, -465878.28, 168965.4, 0.0, 10.001175, 9.9996195 
1.2650639e+3, 2.4522057e+2, -439448.06, -654169.7, -22605.223, 0.1355288, 0.18763141, -437094.06, 99753.305, 0.0, 10.001338, 9.998542 
1.2650624e+3, 2.5521904e+2, -275021.78, -519875.28, -13542.878, 0.067234516, 0.14783639, -274275.0, 164586.44, 0.0, 10.001776, 9.998579 
1.2650609e+3, 2.652169e+2, -176936.45, -477503.2, -10381.485, 0.06571269, 0.107942805, -176578.31, 164302.02, 0.00000015326442, 10.002043, 9.998058 
1.2650599e+3, 2.7521387e+2, -58469.223, -360250.63, -9472.714, 0.12661481, -0.036523663, -58172.17, 184734.1, 0.0000068361555, 10.002138, 9.998143 
1.2650578e+3, 2.8521183e+2, -24643.447, -345391.63, 39138.875, 0.09146017, -0.024944613, -19936.646, 124989.45, 0.000055437977, 10.001919, 9.997679 
1.265055e+3, 2.952104e+2, 31076.113, -258193.66, 57768.0, -0.018687489, 0.019111238, 42185.867, 89129.45, 0.00021969865, 10.001578, 9.997769 
1.265054e+3, 3.0521038e+2, 255013.6, -23126.12, 39818.426, 0.09046538, 0.20573834, 260601.72, 260601.72, 0.00055760087, 10.002369, 9.998662 
1.265051e+3, 3.1520808e+2, 530563.8, 181068.25, -39561.438, 0.03878354, 0.06336937, 534986.06, 534986.06, 0.0010537416, 10.003894, 9.999334 
1.2750837e+3, 1.252213e+2, -1924880.9, -1814904.4, 35718.152, -0.10149404, 0.24821587, -1804322.1, -91476.15, 0.0044096503, 9.998515, 10.000004 
1.2750813e+3, 1.3522136e+2, -1698604.9, -1613735.8, -22419.22, 0.003428279, 0.19927742, -1608177.4, 6671.9224, 0.0024558255, 9.999235, 10.000385 
1.2750794e+3, 1.4522167e+2, -1627352.9, -1517329.1, -13875.351, 0.011410661, 0.18726818, -1515606.3, 1240.2561, 0.00093550276, 9.998973, 10.000477 
1.2750764e+3, 1.5522176e+2, -1664783.8, -1485266.6, -45813.543, 0.050255544, 0.109738916, -1474250.8, -55408.406, 0.00017466526, 9.998065, 10.00046 
1.2750748e+3, 1.652222e+2, -1584255.8, -1428505.4, 63637.105, 0.038728315, 0.13026269, -1405811.0, -84974.25, 0.0000047674703, 9.998078, 10.0001745 
1.2750746e+3, 1.7522284e+2, -1345698.5, -1253237.0, 82642.2, -0.03027389, 0.13700116, -1204773.4, 18058.105, 0.0, 9.999003, 10.00026 
1.275074e+3, 1.852235e+2, -1226104.1, -1140938.5, -4477.6997, -0.017072821, 0.18260434, -1140703.8, -15879.215, 0.0, 9.999136, 10.000287 
1.2750733e+3, 1.9522394e+2, -1200779.4, -1072213.1, 23264.637, 0.081476115, 0.15687206, -1068132.8, -41314.055, 0.0, 9.998613, 10.000339 
1.2750717e+3, 2.0522411e+2, -1108358.0, -1097318.5, -7214.048, 0.11734951, 0.20109281, -1093754.8, -164937.44, 0.0, 9.999094, 9.999263 
1.2750694e+3, 2.1522377e+2, -805164.6, -892532.56, -9816.173, 0.101134606, 0.20232508, -804075.3, 26747.191, 0.0, 10.0004635, 9.999335 
1.275067e+3, 2.2522287e+2, -656334.06, -833281.0, -30674.498, 0.033789776, 0.21244691, -651167.4, 81664.59, 0.0, 10.00109, 9.998774 
1.2750642e+3, 2.3522115e+2, -569438.7, -730725.7, -42016.887, -0.08512899, 0.125455, -559149.3, 75698.94, 0.0, 10.000971, 9.998861 
1.2750636e+3, 2.452201e+2, -431064.47, -586210.8, -18688.563, -0.05242945, 0.12893952, -428845.03, 108011.766, 0.0, 10.001124, 9.999108 
1.275065e+3, 2.552195e+2, -259014.58, -441103.47, 20779.54, 0.12772529, 0.116065465, -256673.36, 182186.67, 0.0, 10.001581, 9.999211 
1.2750639e+3, 2.6521832e+2, -172627.61, -423423.78, -20308.6, 0.1369614, 0.11803542, -170993.73, 169874.55, 0.00000020123079, 10.001852, 9.998519 
1.2750606e+3, 2.752162e+2, -56250.605, -310224.5, 11856.315, -0.021693379, 0.013849083, -55698.316, 187187.3, 0.0000077157165, 10.00195, 9.998573 
1.2750585e+3, 2.852143e+2, 18980.387, -224738.67, 9363.017, -0.049569394, -0.02493596, 19339.56, 164240.55, 0.000060411407, 10.001785, 9.99857 
1.2750576e+3, 2.9521257e+2, 68513.875, -141890.58, 68163.125, 0.057731688, -0.104236044, 88666.02, 135581.48, 0.00024271311, 10.001418, 9.998643 
1.2750572e+3, 3.0521166e+2, 170685.77, -173524.58, 88965.77, 0.13462102, 0.00082482747, 192320.36, 192320.36, 0.0006224366, 10.002257, 9.997684 
1.2750532e+3, 3.1520927e+2, 378667.25, -61027.824, 49247.582, -0.19998585, -0.06324913, 384115.66, 384115.66, 0.0011818967, 10.0036, 9.997798 
1.2850824e+3, 1.252212e+2, -2169101.8, -1812159.5, 64352.43, 0.037377052, 0.23913467, -1800912.0, -88063.38, 0.0047468157, 9.9962845, 10.001101 
1.2850785e+3, 1.3522264e+2, -1959991.1, -1595966.9, -41845.895, -0.0638274, 0.19399054, -1591218.5, 23614.799, 0.0026545508, 9.996793, 10.001683 
1.2850785e+3, 1.4522299e+2, -1846913.4, -1651887.3, -7389.096, 0.11111861, 0.13257481, -1651607.8, -134778.36, 0.0010215283, 9.997621, 10.000199 
1.285076e+3, 1.5522352e+2, -1496931.3, -1430369.9, -62823.11, 0.13366929, 0.13123523, -1392556.6, 26267.44, 0.00019628371, 9.999344, 10.0002165 
1.2850744e+3, 1.6522399e+2, -1374591.1, -1340666.9, 61051.742, 0.10762362, 0.16983953, -1294264.8, 26555.105, 0.0000059623408, 9.99956, 10.000075 
1.2850736e+3, 1.7522426e+2, -1431388.4, -1302045.9, 38607.66, 0.006268117, 0.15059696, -1291398.3, -68580.586, 0.0, 9.998445, 10.000197 
1.2850732e+3, 1.852248e+2, -1328730.6, -1181668.5, -17206.016, 0.026219202, 0.18458761, -1179682.3, -54870.52, 0.0, 9.998404, 10.0003605 
1.285073e+3, 1.9522531e+2, -1066445.0, -997878.94, -40058.258, 0.15639183, 0.16013362, -979436.4, 47368.895, 0.0, 9.999505, 10.00042 
1.2850717e+3, 2.0522557e+2, -967063.56, -1029488.94, -16035.63, 0.17134553, 0.21131106, -963185.3, -34382.453, 0.0, 10.000069, 9.999262 
1.2850696e+3, 2.1522537e+2, -851929.9, -911175.75, -11945.556, 0.083771735, 0.22600771, -849612.0, -18805.215, 0.0, 10.000138, 9.999364 
1.2850676e+3, 2.2522436e+2, -740856.3, -881270.2, 22019.969, 0.016749522, 0.22904113, -737484.1, -4667.002, 0.0, 10.000547, 9.998702 
1.2850659e+3, 2.3522237e+2, -534037.6, -719524.6, 27072.977, -0.0348269, 0.12184474, -530166.94, 104669.21, 0.0, 10.00125, 9.998797 
1.2850653e+3, 2.4522117e+2, -376335.22, -551530.6, 79479.695, -0.000880107, 0.10867162, -345651.97, 191194.48, 0.0, 10.001465, 9.999181 
1.2850662e+3, 2.552205e+2, -313088.78, -457968.34, 44472.45, 0.116719134, 0.086320356, -300526.7, 138323.97, 0.0, 10.001177, 9.999286 
1.2850653e+3, 2.652198e+2, -251791.11, -407329.3, 13382.386, 0.12937693, 0.10763182, -250648.1, 90206.195, 0.00000014147287, 10.001058, 9.99902 
1.2850627e+3, 2.7521873e+2, -136299.53, -293607.9, 17064.945, 0.039101135, 0.058355004, -134469.6, 108391.65, 0.000007879153, 10.001152, 9.99908 
1.285061e+3, 2.8521708e+2, 10551.213, -250711.03, 20788.111, 0.016519858, 0.029717607, 12194.939, 157068.83, 0.00006527563, 10.001819, 9.998381 
1.2850598e+3, 2.9521462e+2, 279127.34, -61112.766, -41317.383, 0.06769629, -0.09744089, 284072.88, 330967.28, 0.000269289, 10.002939, 9.99847 
1.2850598e+3, 3.0521268e+2, 293120.1, -136515.22, 7969.641, 0.13879833, -0.081396334, 293267.88, 293267.88, 0.00069755525, 10.003184, 9.997503 
1.285057e+3, 3.152107e+2, 194229.67, -219934.8, -48279.21, -0.095803685, -0.079308406, 199783.11, 199783.11, 0.0013291562, 10.002568, 9.9972315 
1.2950788e+3, 1.2521882e+2, -2039801.5, -1545465.5, -101489.734, -0.0012553107, 0.012574034, -1525440.4, 187431.05, 0.0050962004, 9.996299, 10.002931 
1.2950747e+3, 1.352236e+2, -1883940.6, -1424055.9, -12316.5205, -0.15182506, 0.17377777, -1423726.3, 191093.25, 0.0028611089, 9.996746, 10.002887 
1.2950769e+3, 1.4522474e+2, -1859512.0, -1684151.8, 34932.57, 0.13836734, 0.1494346, -1677449.3, -160641.03, 0.00111182, 9.997645, 9.999967 
1.295076e+3, 1.5522547e+2, -1514034.1, -1463847.8, 16204.693, 0.1860419, 0.18896818, -1459070.3, -40264.918, 0.000219555, 9.999334, 9.999994 
1.2950744e+3, 1.6522579e+2, -1383090.1, -1361874.9, 376.07635, 0.12078784, 0.23199797, -1361868.1, -41064.195, 0.0000074533, 9.99957, 9.999923 
1.2950715e+3, 1.7522566e+2, -1445047.3, -1331992.6, 12275.745, -0.07194043, 0.18903129, -1330675.1, -107870.35, 0.0, 9.998446, 9.99999 
1.2950711e+3, 1.8522559e+2, -1345198.4, -1217016.1, 7295.982, -0.048019215, 0.18107006, -1216602.1, -91797.58, 0.0, 9.998404, 10.000121 
1.2950732e+3, 1.9522513e+2, -1091518.1, -1035906.44, 13917.142, 0.19378026, 0.084533185, -1032618.06, -5810.5376, 0.0, 9.999434, 10.0001955 
1.2950718e+3, 2.052251e+2, -958126.9, -971877.7, -30077.234, 0.15993913, 0.09331581, -934149.25, -5342.6484, 0.0, 9.999908, 9.999729 
1.2950678e+3, 2.1522525e+2, -848936.1, -856229.0, 4109.433, -0.12698518, 0.09558888, -847088.56, -16284.466, 0.0, 9.999934, 9.999834 
1.2950669e+3, 2.2522518e+2, -736869.56, -818557.2, 34151.953, -0.12537192, 0.13877931, -724472.7, 8331.2, 0.0, 10.000314, 9.999247 
1.2950692e+3, 2.3522462e+2, -527856.44, -657422.8, 71123.88, 0.1488093, 0.123366855, -496434.3, 138373.52, 0.0, 10.001034, 9.999331 
1.2950686e+3, 2.4522367e+2, -451681.6, -641296.9, 52566.707, 0.15368149, 0.13467276, -438083.78, 98733.13, 0.0, 10.001194, 9.998689 
1.2950656e+3, 2.5522202e+2, -381645.5, -542295.2, 50616.84, -0.08429547, 0.060472723, -367027.5, 71806.484, 0.0, 10.000944, 9.998811 
1.2950645e+3, 2.652214e+2, -238631.73, -345757.03, 1040.3772, -0.06921724, 0.08301009, -238621.64, 102216.98, 0.000000052302592, 10.0009, 9.999523 
1.2950656e+3, 2.7522153e+2, -128009.91, -233821.69, 38649.37, 0.17441605, 0.106330656, -115396.28, 127436.35, 0.000007172051, 10.000968, 9.999579 
1.2950644e+3, 2.8522015e+2, -107384.65, -451731.56, 48467.21, 0.14474633, 0.14500126, -100692.88, 44151.785, 0.00006969282, 10.001627, 9.99709 
1.2950611e+3, 2.952169e+2, 159109.72, -263120.25, 21699.672, -0.13107502, 0.059405636, 160222.0, 207100.27, 0.00030090337, 10.002743, 9.997172 
1.2950617e+3, 3.052136e+2, 312826.7, -74153.95, -27201.08, -0.026042663, -0.014583527, 314729.3, 314729.3, 0.00078645255, 10.003086, 9.997984 
1.2950623e+3, 3.1521282e+2, 187591.97, -169333.0, -38305.137, 0.11283879, 0.05374109, 191656.6, 191656.6, 0.0014985187, 10.002303, 9.9977045 
1.305077e+3, 1.2522063e+2, -1844257.5, -1488883.9, 12452.065, 0.11296671, 0.0105860755, -1488448.1, 224403.2, 0.0054552136, 9.997819, 10.002583 
1.3050736e+3, 1.352241e+2, -1761158.6, -1453447.8, -39209.77, 0.015122139, 0.12877278, -1448530.0, 166283.88, 0.003073975, 9.997988, 10.00208 
1.3050751e+3, 1.4522518e+2, -1803292.1, -1608767.0, 28876.9, 0.21252672, 0.11626002, -1604570.8, -87767.68, 0.0012055306, 9.997801, 10.000415 
1.3050742e+3, 1.5522663e+2, -1677784.6, -1489209.5, 31157.836, 0.1440969, 0.17639533, -1484194.8, -65403.43, 0.000244213, 9.997968, 10.000479 
1.305073e+3, 1.6522703e+2, -1556866.5, -1459027.6, 36758.586, 0.09422889, 0.20872562, -1446756.4, -125967.586, 0.000009295233, 9.998474, 9.999772 
1.3050711e+3, 1.7522629e+2, -1301746.1, -1274600.4, 15900.315, 0.0035520096, 0.12256759, -1267267.6, -44471.73, 0.0, 9.9995165, 9.999855 
1.305071e+3, 1.8522611e+2, -1142234.1, -1135782.6, 62111.332, 0.031828057, 0.1210126, -1076813.4, 47983.8, 0.0, 9.999858, 9.999984 
1.3050725e+3, 1.9522615e+2, -1088258.4, -1045576.3, 45536.457, 0.18098223, 0.08651675, -1016628.1, 10167.87, 0.0, 9.99951, 10.000093 
1.3050716e+3, 2.0522617e+2, -963884.7, -953330.3, 28917.873, 0.14599332, 0.09468235, -929212.06, -418.03503, 0.0, 9.999763, 9.999933 
1.3050686e+3, 2.1522596e+2, -745671.5, -783324.7, 12470.267, -0.06524415, 0.04071754, -741916.06, 88877.22, 0.0, 10.000541, 10.000047 
1.3050683e+3, 2.2522585e+2, -663649.06, -773279.6, 36427.227, -0.041274685, 0.06597047, -652649.0, 80143.74, 0.0, 10.000763, 9.999338 
1.3050704e+3, 2.3522556e+2, -612161.4, -686037.06, 6737.488, 0.20598674, 0.062704965, -611551.94, 23242.982, 0.0, 10.0004, 9.999435 
1.3050696e+3, 2.4522491e+2, -556669.4, -666506.5, 25266.268, 0.18198864, 0.0864496, -551136.0, -14335.16, 0.0, 10.00034, 9.998932 
1.3050662e+3, 2.552237e+2, -416004.1, -536601.25, 50410.324, -0.08979347, 0.028564982, -397708.0, 41105.285, 0.0, 10.000586, 9.999035 
1.3050658e+3, 2.6522282e+2, -202057.97, -382518.3, 43595.97, -0.061495982, 0.04675334, -192077.9, 148742.7, 0.000000026393016, 10.001391, 9.999035 
1.3050678e+3, 2.7522206e+2, 95452.8, -186636.64, -30849.975, 0.234448, 0.032207634, 98787.21, 341613.0, 0.0000066700077, 10.002744, 9.999061 
1.3050671e+3, 2.852208e+2, 98836.07, -364279.97, 7457.5347, 0.19895273, 0.112686254, 98956.125, 243794.58, 0.00007506801, 10.003105, 9.996969 
1.3050637e+3, 2.9521868e+2, 142362.28, -286184.53, 29017.633, -0.13798064, 0.1554666, 144318.19, 191179.89, 0.00033560226, 10.002691, 9.997031 
1.3050644e+3, 3.052148e+2, 298919.97, -86821.2, 29826.398, -0.04335858, 0.026066529, 301212.56, 301212.56, 0.0008831013, 10.003019, 9.997926 
1.3050666e+3, 3.152137e+2, 442202.44, -20909.89, -92996.19, 0.23470668, 0.07394701, 460178.9, 460178.9, 0.001684596, 10.003932, 9.997949 
1.3150734e+3, 1.2522648e+2, -2011677.1, -1853725.4, -28793.973, -0.105859645, 0.20968154, -1848640.1, -135850.8, 0.005819013, 9.997886, 10.000043 
1.3150749e+3, 1.3522421e+2, -1959387.6, -1874497.5, -22982.955, 0.31013462, 0.050938386, -1868674.6, -253858.52, 0.0032902497, 9.998019, 9.999178 
1.3150729e+3, 1.452245e+2, -1710059.9, -1421644.5, 9221.502, 0.16879196, 0.034927573, -1421350.0, 95462.766, 0.0013013786, 9.997837, 10.00168 
1.3150701e+3, 1.5522723e+2, -1596295.3, -1318288.3, 49201.52, -0.10116957, 0.10154189, -1309837.5, 108942.96, 0.00026992275, 9.99796, 10.001659 
1.3150701e+3, 1.6522773e+2, -1567143.6, -1493940.0, 57057.977, -0.086756416, 0.102527566, -1462753.1, -141979.25, 0.00001153221, 9.998517, 9.999517 
1.3150722e+3, 1.7522606e+2, -1313965.6, -1304919.0, 66600.84, 0.121074684, -0.057205793, -1242688.1, -19896.053, 0.0, 9.999525, 9.999648 
1.3150722e+3, 1.8522638e+2, -1151406.6, -1138402.4, 31989.568, 0.13700418, -0.0015208888, -1112260.9, 12529.081, 0.0, 9.999797, 9.9999895 
1.3150702e+3, 1.9522825e+2, -1102217.4, -1053288.1, 44907.914, -0.0030080015, 0.14821899, -1026613.4, 158.6181, 0.0, 9.999422, 10.000081 
1.3150702e+3, 2.0522872e+2, -987929.94, -969823.4, 44763.637, 0.0070705637, 0.20297237, -933206.7, -4440.8325, 0.0, 9.99962, 9.999888 
1.3150716e+3, 2.1522756e+2, -777808.56, -810670.8, 57543.78, 0.15199299, 0.059655827, -734396.0, 96377.89, 0.0, 10.0003605, 9.999949 
1.315071e+3, 2.2522642e+2, -722609.0, -838311.0, 8930.988, 0.14129303, 0.005278111, -721923.7, 10860.247, 0.0, 10.000528, 9.999001 
1.315069e+3, 2.3522504e+2, -666128.9, -748602.0, 11287.487, 0.012561066, -0.07192977, -664611.94, -29813.67, 0.0, 10.000191, 9.999106 
1.3150679e+3, 2.4522482e+2, -519570.06, -536805.56, 19001.71, -0.04327495, -0.03828168, -507323.22, 29475.414, 0.0, 10.000115, 9.999931 
1.3150676e+3, 2.552256e+2, -381262.16, -414043.63, 76228.695, -0.034040906, 0.003833253, -319681.94, 119105.305, 0.0, 10.000369, 9.999982 
1.3150682e+3, 2.6522422e+2, -338169.47, -618304.56, 79895.51, 0.013031333, 0.001233333, -316985.03, 23815.225, 0.000000066602475, 10.001192, 9.99751 
1.3150695e+3, 2.7522054e+2, -39536.16, -414427.63, 40215.402, 0.0912105, -0.15610684, -35270.703, 207568.6, 0.0000067822207, 10.002535, 9.997589 
1.315069e+3, 2.8521934e+2, 148765.47, -236769.39, -21073.162, 0.05488721, -0.042723347, 149913.9, 294766.2, 0.000081610815, 10.002983, 9.997915 
1.3150673e+3, 2.9522017e+2, 176936.27, -167098.53, 36483.785, -0.086862646, 0.19306238, 180762.7, 227606.89, 0.0003693932, 10.0024805, 9.997959 
1.3150676e+3, 3.052162e+2, 222461.1, -202996.95, 56243.51, -0.051581025, 0.048880927, 229770.64, 229770.64, 0.00097588636, 10.002843, 9.997206 
1.3150689e+3, 3.1521323e+2, 395388.75, -36426.688, -14983.271, 0.0074624103, -0.023409382, 395908.03, 395908.03, 0.0018645631, 10.003604, 9.997989 
1.3250716e+3, 1.2522887e+2, -1939288.0, -1901658.1, -43046.773, -0.080737524, 0.21740608, -1873494.1, -160732.44, 0.006183249, 9.998691, 9.999346 
1.3250735e+3, 1.3522573e+2, -1874990.9, -1893004.3, 18746.605, 0.34854883, 0.029841382, -1863199.6, -248401.05, 0.0035072896, 9.998866, 9.998631 
1.3250709e+3, 1.4522578e+2, -1620838.3, -1428254.3, 111522.9, 0.13452326, 0.04126739, -1377204.8, 139593.28, 0.0013982238, 9.998664, 10.001234 
1.3250689e+3, 1.5522754e+2, -1491566.4, -1313227.6, 3282.3606, -0.059996862, 0.051625717, -1313167.3, 105608.586, 0.00029637254, 9.9988785, 10.001246 
1.3250695e+3, 1.65228e+2, -1487379.6, -1441314.4, 15449.749, -0.0035915873, 0.061809205, -1436612.6, -115842.68, 0.000014169166, 9.99901, 9.999631 
1.325072e+3, 1.7522712e+2, -1363070.3, -1320432.6, 16558.248, 0.17937155, -0.02706767, -1314757.5, -91976.94, 0.0, 9.999148, 9.999722 
1.325072e+3, 1.8522736e+2, -1214652.0, -1182754.9, -2523.0269, 0.16991581, 0.02415537, -1182556.6, -57777.566, 0.0, 9.999418, 9.999871 
1.3250701e+3, 1.9522837e+2, -1039789.4, -1036853.06, -27722.219, 0.0098293265, 0.097650684, -1010560.1, 16208.65, 0.0, 9.999901, 9.999967 
1.3250703e+3, 2.0522872e+2, -950101.9, -939151.94, 525.21295, 0.03995715, 0.14134073, -939126.8, -10363.261, 0.0, 9.999844, 9.999982 
1.3250722e+3, 2.1522821e+2, -922684.7, -864532.5, -2873.1282, 0.2309825, 0.053583506, -864390.94, -33625.594, 0.0, 9.999322, 10.00007 
1.3250716e+3, 2.2522724e+2, -838537.6, -895662.6, 10740.396, 0.20026049, 0.010328455, -836585.0, -103810.64, 0.0, 9.999741, 9.998992 
1.3250694e+3, 2.352256e+2, -544514.9, -683047.5, 8563.164, -0.0120162945, -0.09098979, -543987.56, 90804.39, 0.0, 10.001011, 9.99916 
1.3250683e+3, 2.4522552e+2, -333722.9, -442379.63, 3825.3342, -0.05808894, -0.04944869, -333588.4, 203202.84, 0.0, 10.001374, 9.999972 
1.3250689e+3, 2.5522664e+2, -300029.2, -367929.0, -41032.09, 0.039091595, 0.02402008, -280722.84, 158053.2, 0.0, 10.000904, 10.000034 
1.3250698e+3, 2.6522517e+2, -357431.88, -639550.1, 57429.66, 0.07053618, 0.011866203, -346189.2, -5399.47, 0.0000000978673, 10.001118, 9.997393 
1.325071e+3, 2.7522093e+2, -122608.07, -465468.94, 86338.09, 0.037838478, -0.1892709, -102094.086, 140739.39, 0.000006920427, 10.002008, 9.997489 
1.3250715e+3, 2.852194e+2, 73089.22, -249917.73, 30227.67, 0.017063497, -0.11367248, 75893.64, 220742.52, 0.000086783395, 10.002393, 9.9981 
1.3250706e+3, 2.9522014e+2, 186466.36, -143008.78, -13785.898, 0.007192204, 0.10130147, 187042.19, 233882.97, 0.00039493892, 10.002474, 9.998124 
1.325071e+3, 3.052161e+2, 159504.52, -242536.78, 64488.445, 0.034223963, -0.051588282, 169595.36, 169595.36, 0.0010490068, 10.002463, 9.997112 
1.3250723e+3, 3.1521338e+2, 224147.44, -58778.063, -22349.256, 0.090768196, -0.08886542, 225902.0, 225902.0, 0.00200876, 10.002163, 9.998526 
1.3350715e+3, 1.2522712e+2, -1846083.3, -1706085.0, 68229.12, -0.03500198, -0.032029387, -1678334.0, 34441.055, 0.0065457188, 9.998689, 10.000685 
1.3350694e+3, 1.3522859e+2, -1754196.5, -1643638.5, 19968.895, 0.008074265, 0.060730062, -1640142.3, -25380.46, 0.0037237175, 9.998865, 10.000344 
1.3350682e+3, 1.4522883e+2, -1752533.4, -1712144.8, 97208.64, -0.029293146, 0.1055574, -1633055.0, -116293.3, 0.0014951822, 9.998698, 9.999275 
1.3350701e+3, 1.5522765e+2, -1623476.3, -1592906.6, 26881.768, 0.14201817, 0.021643234, -1577268.1, -158491.58, 0.00032323142, 9.998891, 9.999327 
1.335071e+3, 1.6522792e+2, -1463093.8, -1389826.9, 2933.4272, 0.20406996, 0.089698106, -1389709.6, -68933.72, 0.000017128494, 9.999006, 9.999985 
1.3350703e+3, 1.752295e+2, -1343505.1, -1273389.9, 35022.645, 0.064490445, 0.20683193, -1258893.3, -36131.637, 0.00000000003443261, 9.999122, 10.000054 
1.3350701e+3, 1.8522915e+2, -1233290.8, -1220533.0, -1332.5592, 0.013608245, 0.19424948, -1220395.3, -95631.38, 0.0, 9.999405, 9.999625 
1.3350712e+3, 1.9522664e+2, -1066540.3, -1078123.1, 2914.8853, 0.1012322, -0.057510383, -1065848.0, -39062.992, 0.0, 9.999824, 9.999727 
1.335071e+3, 2.0522632e+2, -954774.94, -914571.25, -35256.65, 0.11899344, -0.08123039, -894088.44, 34697.184, 0.0, 9.999697, 10.000224 
1.33507e+3, 2.1522783e+2, -935046.75, -849076.0, -6765.1147, 0.05922315, 0.008487324, -848546.94, -17777.781, 0.0, 9.999137, 10.000273 
1.3350698e+3, 2.2522815e+2, -841423.1, -854106.9, 47234.21, 0.013618056, 0.06769394, -800106.94, -67341.08, 0.0, 9.999536, 9.9993725 
1.3350707e+3, 2.3522724e+2, -551445.7, -652002.2, 71956.44, 0.0033835946, -0.00022699214, -513942.2, 120833.96, 0.0, 10.000809, 9.999471 
1.3350706e+3, 2.4522696e+2, -425191.97, -583209.5, -28143.549, -0.0045281462, 0.048476655, -420329.16, 116450.08, 0.0, 10.001171, 9.999096 
1.3350695e+3, 2.5522688e+2, -387365.47, -506374.16, -41592.28, -0.007255893, 0.089554474, -374270.34, 64508.895, 0.0, 10.000724, 9.9991665 
1.3350703e+3, 2.6522562e+2, -295524.28, -475877.72, 76272.71, -0.020136919, 0.08468725, -267593.56, 73195.24, 0.00000008871969, 10.000964, 9.99859 
1.3350725e+3, 2.7522308e+2, -71430.16, -306200.06, 136695.94, -0.05131898, -0.07292452, -8634.635, 234174.73, 0.000006673535, 10.001789, 9.998684 
1.3350734e+3, 2.8522086e+2, -818.68195, -361567.28, 14026.339, -0.054242246, -0.09273245, -274.14294, 144555.23, 0.00008871381, 10.00221, 9.997421 
1.3350733e+3, 2.9521865e+2, 112948.516, -252313.22, 10002.51, -0.008777466, -0.10545966, 113222.22, 160073.58, 0.0004076121, 10.002287, 9.997464 
1.3350742e+3, 3.052148e+2, 179707.7, -166470.92, 46908.773, 0.057558388, -0.24097173, 185951.44, 185951.44, 0.0010927352, 10.002321, 9.9977 
1.3350767e+3, 3.1521365e+2, 243546.25, 54347.56, 32600.82, 0.22974665, -0.1814548, 249006.14, 249006.14, 0.0021022274, 10.001846, 9.999461 
1.3450709e+3, 1.2522602e+2, -1971502.5, -1694612.5, 36138.11, 0.10023017, -0.094135925, -1689973.6, 22811.92, 0.0069055543, 9.997538, 10.001308 
1.345066e+3, 1.3522913e+2, -1760278.8, -1533728.6, -126803.12, -0.16829601, 0.061251033, -1476973.5, 137780.4, 0.0039389143, 9.998356, 10.001342 
1.3450672e+3, 1.4522961e+2, -1766417.8, -1740218.5, 16003.536, -0.008035966, 0.09164455, -1732636.9, -215885.94, 0.0015916337, 9.998701, 9.999081 
1.3450699e+3, 1.552282e+2, -1593551.3, -1599779.8, 44924.23, 0.221984, 0.005920834, -1551633.5, -132863.7, 0.0003501717, 9.999198, 9.999128 
1.3450707e+3, 1.652285e+2, -1413201.6, -1367015.6, 91619.11, 0.2767391, 0.08728903, -1295624.0, 25145.666, 0.000020254476, 9.999352, 9.999979 
1.3450696e+3, 1.7523023e+2, -1333785.9, -1267528.1, 64531.996, 0.08545304, 0.22390245, -1228118.0, -5364.423, 0.0000000014653116, 9.9991865, 10.000066 
1.3450697e+3, 1.8522981e+2, -1263967.0, -1229416.3, 67155.27, 0.04377881, 0.20061989, -1177350.0, -52593.855, 0.0, 9.999176, 9.999668 
1.3450713e+3, 1.9522709e+2, -1123179.9, -1096360.0, 62731.94, 0.1707366, -0.07802745, -1045620.7, -18841.982, 0.0, 9.999417, 9.999786 
1.3450713e+3, 2.0522657e+2, -965919.44, -958037.94, 29466.738, 0.17397419, -0.10724545, -932249.6, -3467.9082, 0.0, 9.999767, 9.999895 
1.3450694e+3, 2.152279e+2, -799640.25, -811323.75, -13812.12, 0.052055757, -0.0056650317, -790485.3, 40283.133, 0.0, 10.000181, 10.000022 
1.3450694e+3, 2.2522841e+2, -730624.6, -773366.25, 64531.617, 0.0068705445, 0.06975761, -684017.2, 48746.02, 0.0, 10.000188, 9.99961 
1.3450713e+3, 2.3522791e+2, -669139.9, -680166.75, 52691.258, 0.048003778, 0.018998003, -621674.4, 13093.283, 0.0, 9.99989, 9.999714 
1.3450721e+3, 2.4522729e+2, -550924.6, -717439.0, -8893.9, 0.05176674, 0.057357643, -550450.94, -13676.473, 0.0, 10.0006275, 9.998446 
1.3450713e+3, 2.552263e+2, -201167.2, -482322.97, -34248.38, 0.024006711, 0.07362536, -197055.45, 241730.47, 0.0, 10.002298, 9.998578 
1.3450722e+3, 2.652251e+2, -64926.574, -344027.25, 54842.316, 0.0073862076, 0.09258415, -54537.004, 286259.06, 0.000000062099474, 10.002462, 9.998777 
1.3450745e+3, 2.7522328e+2, -129059.87, -317257.53, 1607.4407, -0.00079200073, -0.0050389874, -129046.14, 113762.53, 0.0000065347235, 10.001304, 9.99885 
1.3450757e+3, 2.8522095e+2, -113888.336, -442367.6, -66721.88, 0.0008790982, -0.033498026, -100852.85, 43977.195, 0.00008986311, 10.001522, 9.997208 
1.3450761e+3, 2.9521817e+2, 211370.27, -216499.16, -79048.18, 0.019909492, -0.08625152, 225507.2, 272365.9, 0.00041355038, 10.003012, 9.99736 
1.3450767e+3, 3.0521482e+2, 356110.16, -79118.21, -56960.535, 0.050152138, -0.17065786, 363441.38, 363441.38, 0.0011132387, 10.003486, 9.997757 
1.3450797e+3, 3.1521368e+2, 404371.38, 155994.6, -159720.0, 0.3210546, -0.116963126, 482502.63, 482502.63, 0.0021485328, 10.002847, 9.999672 
1.3550693e+3, 1.2522554e+2, -1973370.5, -1695026.4, -116632.74, 0.12108597, -0.0013444908, -1652616.4, 60177.066, 0.0072628423, 9.997534, 10.001308 
1.3550635e+3, 1.3522743e+2, -1748462.4, -1504704.9, -87966.69, -0.29562807, 0.018648738, -1476275.4, 138497.77, 0.004152666, 9.998343, 10.001547 
1.3550669e+3, 1.4522822e+2, -1669729.8, -1533326.0, 12696.089, 0.0559967, -0.0021772438, -1532154.3, -15389.408, 0.0016872559, 9.998674, 10.000512 
1.3550678e+3, 1.5522915e+2, -1494192.9, -1396912.3, 77906.99, 0.060160577, 0.0022611604, -1353708.3, 65047.773, 0.0003769789, 9.999205, 10.000521 
1.3550687e+3, 1.6522962e+2, -1434592.1, -1413063.1, 66408.63, 0.097451136, 0.044287916, -1356552.1, -35799.65, 0.000023370363, 9.999357, 9.999661 
1.3550696e+3, 1.752293e+2, -1364527.5, -1320484.3, 70951.945, 0.13753983, 0.0089147305, -1268215.0, -45457.758, 0.0000000068048798, 9.999138, 9.999728 
1.35507e+3, 1.8522939e+2, -1253203.8, -1189733.1, 58583.863, 0.13155288, 0.039252307, -1154841.1, -30085.395, 0.0, 9.999107, 9.999971 
1.3550703e+3, 1.952296e+2, -1118675.6, -1065713.3, 86438.11, 0.099692, 0.025202973, -1001790.94, 24959.734, 0.0, 9.999324, 10.000042 
1.3550705e+3, 2.0522934e+2, -1046641.7, -1091115.0, 27521.908, 0.0854796, 0.05142016, -1033495.8, -104742.914, 0.0, 9.999623, 9.999048 
1.3550703e+3, 2.152284e+2, -889599.56, -949374.2, 12905.421, 0.09549209, 0.010754765, -886932.3, -56168.48, 0.0, 9.9999695, 9.999178 
1.3550706e+3, 2.2522788e+2, -754787.56, -769931.5, 34500.668, 0.06442481, 0.019974004, -727037.7, 5729.848, 0.0, 9.999958, 9.999743 
1.355071e+3, 2.3522753e+2, -690467.75, -677753.06, 56394.688, 0.001134307, -0.031042753, -627358.5, 7408.4326, 0.0, 9.999692, 9.999826 
1.3550721e+3, 2.4522659e+2, -607026.7, -786971.8, 38213.6, -0.012149913, -0.009346172, -599247.8, -62471.668, 0.0, 10.000424, 9.998068 
1.3550738e+3, 2.552249e+2, -260261.11, -553999.44, 42298.17, 0.012798994, -0.025987208, -254291.52, 184504.81, 0.0, 10.002081, 9.998191 
1.3550752e+3, 2.6522338e+2, -153155.39, -483103.97, -5143.9805, 0.031204052, 0.02343921, -153075.22, 187738.11, 0.000000036385206, 10.002273, 9.997917 
1.3550766e+3, 2.752216e+2, -220306.94, -458926.94, -19949.338, 0.056722175, 0.015484132, -218650.61, 24180.602, 0.0000068750182, 10.001106, 9.9979725 
1.3550778e+3, 2.8521988e+2, -119256.984, -418564.63, -23857.979, 0.026419938, 0.0821486, -117367.18, 27481.807, 0.00009120505, 10.00137, 9.997443 
1.3550787e+3, 2.9521823e+2, 193551.25, -204489.42, -1588.5886, -0.058526073, 0.12143326, 193557.6, 240424.4, 0.00041555686, 10.002793, 9.997553 
1.3550788e+3, 3.0521575e+2, 286895.06, -160518.2, -93715.58, -0.11839337, 0.1400748, 305731.78, 305731.78, 0.0011140582, 10.003243, 9.997304 
1.3550808e+3, 3.152129e+2, 299601.2, 25121.336, -121944.76, 0.07607087, 0.06543708, 345951.34, 345951.34, 0.0021475847, 10.0025, 9.998928 
1.3650675e+3, 1.25226e+2, -2103054.3, -1724603.0, -44420.44, 0.25114682, 0.04328135, -1719459.1, -6669.0015, 0.0076198755, 9.996478, 10.001619 
1.3650623e+3, 1.3522744e+2, -1819685.6, -1542512.1, 27607.818, -0.20813693, 0.014246068, -1539789.0, 74983.445, 0.004366158, 9.997838, 10.001541 
1.3650651e+3, 1.4522803e+2, -1713284.5, -1524988.4, 84916.62, 0.0361628, -0.039498888, -1492350.4, 24414.896, 0.0017823466, 9.998252, 10.000766 
1.3650665e+3, 1.5522957e+2, -1587983.0, -1410195.8, 36648.68, 0.051505517, -0.0030791443, -1402937.4, 15812.929, 0.0004035849, 9.998436, 10.00079 
1.365068e+3, 1.6522992e+2, -1523740.5, -1464887.1, 18846.967, 0.13017115, 0.020090658, -1459369.0, -138622.02, 0.000026350568, 9.998762, 9.999606 
1.3650696e+3, 1.7522892e+2, -1347723.5, -1315126.8, 11777.976, 0.22164357, -0.079901166, -1311316.4, -88559.16, 0.000000016360648, 9.999255, 9.999715 
1.36507e+3, 1.8522906e+2, -1181129.1, -1173556.0, 34036.582, 0.20162292, -0.03434238, -1143096.0, -18340.395, 0.0, 9.999691, 9.999794 
1.3650699e+3, 1.9523005e+2, -1013333.44, -1029443.8, -4133.499, 0.0896538, 0.04239799, -1012334.8, 14410.162, 0.0, 10.000124, 9.999897 
1.3650702e+3, 2.0522983e+2, -961735.6, -1084821.9, -34413.473, 0.07022566, 0.094509155, -952767.44, -24019.664, 0.0, 10.000349, 9.998747 
1.3650708e+3, 2.1522826e+2, -845976.9, -962065.8, -37597.02, 0.13528009, 0.02217738, -834864.3, -4099.1597, 0.0, 10.000407, 9.998883 
1.3650712e+3, 2.2522707e+2, -697355.5, -798610.25, 6466.9375, 0.12559569, 0.003348154, -696944.2, 35831.266, 0.0, 10.00059, 9.999244 
1.3650717e+3, 2.3522602e+2, -552141.0, -668618.7, -51361.92, 0.04303338, -0.06710207, -532728.0, 102053.3, 0.0, 10.000874, 9.999329 
1.365073e+3, 2.4522485e+2, -536764.6, -737007.8, -16337.18, 0.017289493, -0.051351428, -535440.5, 1351.6652, 0.0, 10.000845, 9.998204 
1.3650753e+3, 2.5522333e+2, -462967.6, -637438.06, -8459.718, 0.032761108, -0.06502791, -462558.38, -23748.436, 0.0, 10.000624, 9.998319 
1.3650772e+3, 2.6522183e+2, -315497.22, -610808.4, -2595.7493, 0.05549349, 0.0034948539, -315474.4, 25353.527, 0.000000033203506, 10.001382, 9.997461 
1.3650788e+3, 2.752201e+2, 47310.92, -368530.5, -19986.123, 0.08921269, 0.03970155, 48269.285, 291117.97, 0.0000069323874, 10.003129, 9.997604 
1.3650803e+3, 2.8521845e+2, 172814.03, -232907.56, 24522.816, 0.058054663, 0.108881235, 174290.88, 319156.94, 0.000089487476, 10.003223, 9.99781 
1.3650814e+3, 2.9521683e+2, 101314.27, -201106.64, 24068.408, -0.024284808, 0.11827586, 103217.8, 150098.56, 0.00040599646, 10.001975, 9.997959 
1.3650817e+3, 3.052149e+2, 133883.02, -250470.75, 4673.042, -0.0909424, 0.17740351, 133939.83, 133939.83, 0.0010861106, 10.002267, 9.997165 
1.3650844e+3, 3.1521213e+2, 435074.63, 26576.129, -48904.52, 0.14110625, 0.14072736, 440847.78, 440847.78, 0.002092863, 10.003676, 9.998404 
1.3750646e+3, 1.2522735e+2, -2061411.6, -1646805.9, -111505.586, 0.24097942, 0.018906053, -1618719.8, 94056.76, 0.0079810945, 9.99652, 10.002132 
1.375062e+3, 1.3522917e+2, -1834039.8, -1576841.0, 83257.93, -0.050992142, 0.04510004, -1552242.1, 62509.684, 0.0045821774, 9.997851, 10.001298 
1.3750613e+3, 1.4522904e+2, -1774751.4, -1657330.6, 63173.598, -0.21340749, -0.018334357, -1629798.3, -113046.11, 0.0018779465, 9.998269, 9.999852 
1.3750654e+3, 1.5522934e+2, -1651995.5, -1541073.0, 57329.977, 0.07488272, -0.01796202, -1516767.9, -98014.47, 0.00043006244, 9.998423, 9.999901 
1.3750683e+3, 1.6522944e+2, -1504000.6, -1423727.8, 17687.504, 0.23983592, 0.010866549, -1420003.3, -99250.19, 0.000029160963, 9.998754, 9.999897 
1.375069e+3, 1.7522922e+2, -1327927.3, -1274409.8, 45055.07, 0.21529727, -0.042481963, -1248766.3, -26013.432, 0.000000027808229, 9.999243, 10.000009 
1.3750693e+3, 1.8522897e+2, -1230412.0, -1266075.0, 33344.695, 0.1257154, -0.01918273, -1210430.4, -85675.49, 0.0, 9.999656, 9.999173 
1.3750698e+3, 1.9522838e+2, -1077002.1, -1133604.1, 22852.652, 0.025446534, -0.03435511, -1068927.4, -42165.37, 0.0, 10.000002, 9.999244 
1.37507e+3, 2.0522799e+2, -960940.0, -1048935.6, -48714.137, -0.0025775984, 0.018797535, -939295.8, -10528.84, 0.0, 10.000199, 9.999066 
1.3750704e+3, 2.152276e+2, -858200.2, -939250.4, -20439.855, 0.040540513, 0.033005264, -853337.25, -22565.734, 0.0, 10.000198, 9.999143 
1.3750714e+3, 2.2522613e+2, -811741.2, -980762.06, 1807.5319, 0.05582023, 0.033166967, -811721.8, -78936.48, 0.0, 10.000357, 9.998102 
1.3750729e+3, 2.3522347e+2, -666094.1, -846437.8, -25377.477, 0.04816648, -0.08602872, -662591.1, -27781.318, 0.0, 10.00063, 9.998219 
1.3750741e+3, 2.4522205e+2, -524025.84, -666730.3, -43846.848, 0.016455716, -0.06941323, -511630.3, 25192.184, 0.0, 10.000647, 9.998786 
1.3750753e+3, 2.552216e+2, -447496.6, -564854.2, -1821.7661, -0.032932747, -0.036111776, -447468.3, -8642.175, 0.0, 10.000449, 9.998902 
1.3750778e+3, 2.652206e+2, -335648.1, -620915.8, 49185.992, -0.045812957, 0.05256215, -327405.6, 13432.828, 0.000000022673568, 10.00124, 9.997459 
1.3750812e+3, 2.7521867e+2, 15957.708, -383017.94, 60998.04, -0.025402967, 0.06716087, 25075.139, 267937.56, 0.0000066245593, 10.002916, 9.997605 
1.375083e+3, 2.852165e+2, 192289.75, -161050.03, -40716.164, -0.026368983, 0.058239926, 196920.88, 341803.25, 0.000084736, 10.003078, 9.998376 
1.3750835e+3, 2.9521415e+2, 110327.766, -134644.56, 973.2327, -0.028802615, -0.06856488, 110331.63, 157230.86, 0.00038240643, 10.001767, 9.998519 
1.3750848e+3, 3.0521223e+2, 115156.05, -251719.63, 52498.93, -0.028592428, -0.038529564, 122520.664, 122520.664, 0.0010237873, 10.002107, 9.997224 
1.3750893e+3, 3.1521082e+2, 340356.38, -62471.332, 75577.336, 0.21504979, 0.05681858, 354069.16, 354069.16, 0.0019803038, 10.003243, 9.997979 
1.3850608e+3, 1.2522772e+2, -1935023.9, -1598147.6, -60493.93, 0.19206598, 0.029272623, -1587613.9, 125157.586, 0.008351057, 9.997468, 10.002004 
1.3850617e+3, 1.3522847e+2, -1861941.1, -1657429.5, -42638.063, 0.14143255, 0.011234624, -1648896.0, -34137.938, 0.004803759, 9.997964, 10.000693 
1.3850589e+3, 1.4522827e+2, -1862810.8, -1711330.1, -24202.516, -0.22688042, -0.021564811, -1707557.1, -190797.38, 0.0019753822, 9.997706, 9.999763 
1.3850641e+3, 1.552287e+2, -1717468.9, -1576802.3, -984.8968, 0.13560747, -0.0026779969, -1576795.4, -158035.0, 0.00045665295, 9.99799, 9.999869 
1.3850677e+3, 1.6522895e+2, -1512331.6, -1417574.8, 40642.297, 0.31196934, 0.038059127, -1402531.1, -81772.164, 0.00003186285, 9.998687, 9.999953 
1.3850686e+3, 1.7522891e+2, -1245676.1, -1224537.5, 11208.551, 0.22211817, -0.0037199445, -1219700.9, 3055.925, 0.000000039188958, 9.999789, 10.000073 
1.385069e+3, 1.8522836e+2, -1235683.3, -1311235.3, -6602.082, 0.12855314, 0.004278823, -1235110.6, -110348.516, 0.0, 9.999777, 9.99882 
1.3850695e+3, 1.952271e+2, -1249028.3, -1248109.3, -15293.023, 0.06354605, -0.04687021, -1233268.9, -206492.34, 0.0, 9.998941, 9.998974 
1.3850702e+3, 2.052265e+2, -1117417.9, -1159513.8, -27265.49, 0.04731099, 0.01356104, -1104021.3, -175236.92, 0.0, 9.999285, 9.998744 
1.3850713e+3, 2.1522632e+2, -788960.75, -937090.7, -78607.734, 0.074593395, 0.078006655, -755022.06, 75766.07, 0.0, 10.000812, 9.998861 
1.3850726e+3, 2.2522478e+2, -692308.0, -939288.44, -39518.527, 0.104941934, 0.09024362, -686138.8, 46664.066, 0.0, 10.001229, 9.997977 
1.3850744e+3, 2.3522176e+2, -647922.44, -852304.7, -19714.846, 0.13888529, -0.050208535, -646038.1, -11207.739, 0.0, 10.000798, 9.998107 
1.3850757e+3, 2.4522011e+2, -456013.75, -642053.2, 27576.104, 0.08565588, -0.04732097, -452012.28, 84832.31, 0.0, 10.001158, 9.998697 
1.3850763e+3, 2.5521958e+2, -179599.52, -444713.47, -19024.986, -0.056646775, -0.01431336, -178241.22, 260606.92, 0.0, 10.002321, 9.998821 
1.385079e+3, 2.652185e+2, -176788.38, -506496.2, 36459.52, -0.090616435, 0.053442497, -172804.77, 168054.45, 0.0000000049794013, 10.002161, 9.997806 
1.3850829e+3, 2.7521658e+2, -251988.22, -477401.47, 43988.703, -0.028932907, 0.037114035, -243708.11, -827.7137, 0.0000064670485, 10.000896, 9.997944 
1.3850851e+3, 2.8521442e+2, -84189.91, -306887.9, -35587.207, -0.013032671, 0.016092325, -78641.305, 66258.31, 0.00007993784, 10.001219, 9.998286 
1.3850859e+3, 2.9521185e+2, 312138.4, -33726.37, -79357.14, -0.029568495, -0.12007024, 329477.3, 376395.9, 0.00035406946, 10.003133, 9.998557 
1.3850878e+3, 3.0520973e+2, 333535.16, -123612.484, -22985.617, -0.0071835527, -0.13013978, 334687.97, 334687.97, 0.00094641367, 10.003488, 9.997447 
1.3850927e+3, 3.152091e+2, 197197.11, -131314.06, -22534.674, 0.29611474, 0.02074538, 198735.7, 198735.7, 0.0018394488, 10.002208, 9.9980135 
1.3950579e+3, 1.2522645e+2, -1995933.8, -1708416.5, 159087.2, 0.06786802, 0.020935694, -1637756.6, 75025.04, 0.008733579, 9.997436, 10.001243 
1.3950609e+3, 1.3522524e+2, -1926358.3, -1788134.1, -35060.22, 0.23178078, -0.10482486, -1779749.8, -164957.27, 0.005033633, 9.997954, 9.999797 
1.395058e+3, 1.4522588e+2, -1803723.3, -1595944.9, -42683.273, -0.14042068, -0.04930874, -1587518.3, -70731.56, 0.002076125, 9.997735, 10.000541 
1.395062e+3, 1.5522775e+2, -1665600.1, -1467025.4, 27508.47, 0.088599175, 0.03668323, -1463285.1, -44514.977, 0.00048381835, 9.997979, 10.000628 
1.3950655e+3, 1.652284e+2, -1528545.3, -1456424.6, 62637.527, 0.20165607, 0.09309922, -1420209.0, -99444.01, 0.000034571214, 9.998706, 9.9996805 
1.3950679e+3, 1.7522776e+2, -1277679.8, -1274958.1, 60605.18, 0.13939188, 0.021830278, -1215698.5, 7073.015, 0.00000005013657, 9.99972, 9.9997635 
1.3950688e+3, 1.8522716e+2, -1227228.3, -1286369.1, -58760.52, 0.08331657, 0.032887585, -1191017.3, -66239.18, 0.0, 9.999746, 9.999005 
1.3950688e+3, 1.9522637e+2, -1254404.6, -1237612.4, -32677.152, 0.07586922, 0.011023939, -1212270.0, -185482.97, 0.0, 9.998844, 9.999097 
1.3950703e+3, 2.0522548e+2, -1199156.0, -1302875.8, 14341.1045, 0.08856268, 0.08623659, -1197209.6, -268410.84, 0.0, 9.99917, 9.997813 
1.3950726e+3, 2.152244e+2, -885123.7, -1085089.6, -9057.984, 0.11230926, 0.1542307, -884714.2, -53899.38, 0.0, 10.000595, 9.997946 
1.3950744e+3, 2.2522299e+2, -650186.6, -815707.5, -70388.38, 0.1429359, 0.17603889, -624301.7, 108526.49, 0.0, 10.001057, 9.998913 
1.3950759e+3, 2.3522106e+2, -611120.8, -736561.3, -17554.598, 0.19643691, 0.04807029, -608710.5, 26130.953, 0.0, 10.000618, 9.998992 
1.3950771e+3, 2.4521925e+2, -542545.8, -773868.4, 56662.145, 0.094636805, 0.029942872, -529412.2, 7444.266, 0.0, 10.000956, 9.99789 
1.3950782e+3, 2.552172e+2, -274933.6, -581735.56, 39165.95, -0.1475046, -0.0051956167, -270012.66, 168863.66, 0.0, 10.00207, 9.997998 
1.3950804e+3, 2.652155e+2, -158725.06, -425252.7, -25786.648, -0.18952335, 0.009752675, -156253.13, 184637.63, 0.0000000011462398, 10.00197, 9.998458 
1.395084e+3, 2.75214e+2, -238103.66, -402893.5, 17418.393, -0.03897012, -0.0322106, -236282.66, 6618.828, 0.0000063015364, 10.000694, 9.998557 
1.3950865e+3, 2.852123e+2, -167303.94, -432817.0, 22555.271, -0.039775506, 0.0071404018, -165401.5, -20485.465, 0.00007549819, 10.001024, 9.997511 
1.3950878e+3, 2.9521e+2, 218723.53, -169067.17, 13402.995, -0.16924684, -0.026799174, 219186.22, 266125.13, 0.0003302392, 10.002888, 9.997744 
1.3950899e+3, 3.052073e+2, 341325.16, -61403.14, -86163.37, -0.15969762, -0.076788455, 358985.3, 358985.3, 0.00088409375, 10.003292, 9.997968 
1.395094e+3, 3.1520757e+2, 170713.63, -80087.36, -13418.153, 0.14418437, 0.10550193, 171429.47, 171429.47, 0.0017247426, 10.001776, 9.9985695 
1.405056e+3, 1.2522404e+2, -1942909.9, -1715445.3, 200707.05, 0.13955943, 0.04450094, -1598486.5, 114319.02, 0.009133226, 9.997894, 10.000985 
1.405058e+3, 1.3522306e+2, -2007073.9, -1799132.4, -87246.07, 0.19368209, -0.08284367, -1767376.3, -152560.03, 0.005275387, 9.997249, 10.00007 
1.4050576e+3, 1.452244e+2, -1793503.0, -1551677.1, 22009.94, 0.066398986, 0.0055826693, -1549690.1, -32886.887, 0.0021822979, 9.9976425, 10.000886 
1.4050607e+3, 1.5522583e+2, -1458537.0, -1336324.9, 15838.178, 0.112582706, 0.016583, -1334305.6, 84483.04, 0.00051218417, 9.9992695, 10.000902 
1.405064e+3, 1.6522652e+2, -1436714.5, -1427069.5, 43892.46, 0.14683664, 0.07160559, -1387735.5, -66951.94, 0.000037386584, 9.9993925, 9.999554 
1.405067e+3, 1.7522645e+2, -1462162.6, -1369415.1, 26675.234, 0.15457635, 0.0622495, -1362290.4, -139502.92, 0.00000006103049, 9.998474, 9.999713 
1.4050686e+3, 1.8522625e+2, -1324540.3, -1309822.0, -30172.928, 0.14723797, 0.101972, -1286123.8, -161332.5, 0.0, 9.998989, 9.999206 
1.4050692e+3, 1.9522564e+2, -935410.5, -1057243.9, -35308.62, 0.13305752, 0.08022499, -925917.4, 100879.6, 0.0, 10.000926, 9.9993305 
1.4050709e+3, 2.052246e+2, -848341.44, -1128551.9, 79902.8, 0.13236897, 0.123625405, -827158.3, 101650.87, 0.0, 10.0015545, 9.997869 
1.4050737e+3, 2.1522292e+2, -795769.0, -1030572.25, 100710.26, 0.13376074, 0.12582304, -758491.25, 72338.29, 0.0, 10.001162, 9.99805 
1.4050758e+3, 2.252217e+2, -629367.2, -816331.5, 52285.055, 0.16842476, 0.16691323, -615738.94, 117102.67, 0.0, 10.001264, 9.998803 
1.4050776e+3, 2.3522067e+2, -436845.03, -657412.0, -5271.193, 0.23887898, 0.1392212, -436719.13, 198128.97, 0.0, 10.001845, 9.998939 
1.4050792e+3, 2.4521878e+2, -421195.88, -763531.25, 93067.52, 0.15858316, 0.13900243, -397530.47, 139334.36, 0.0, 10.001991, 9.997466 
1.4050807e+3, 2.5521585e+2, -337508.7, -652231.25, 77720.63, -0.07396517, 0.05758335, -319361.94, 119531.555, 0.0, 10.001819, 9.997634 
1.405083e+3, 2.652134e+2, -151267.75, -413112.2, 8500.782, -0.12701511, 0.011943481, -150992.06, 189921.5, 0.0000000047036606, 10.00199, 9.998531 
1.4050858e+3, 2.7521142e+2, 39786.855, -251613.69, -32558.023, -0.0057082605, -0.08442759, 43380.234, 286305.7, 0.000006310061, 10.002558, 9.998687 
1.4050885e+3, 2.8520977e+2, 32761.988, -360427.0, 45174.117, 0.008646696, -0.039532702, 37885.355, 182824.47, 0.00007173929, 10.002501, 9.997293 
1.4050911e+3, 2.9520777e+2, 42941.184, -281447.3, 48109.473, -0.064830095, -0.018925328, 49925.824, 96886.63, 0.0003165935, 10.001796, 9.997499 
1.405093e+3, 3.0520478e+2, 134765.63, -143455.45, -42510.668, -0.08641568, -0.09434613, 141116.08, 141116.08, 0.00085306884, 10.001803, 9.998117 
1.4050952e+3, 3.152052e+2, 312564.6, 45645.313, -52296.44, 0.07125928, 0.089116, 322445.1, 322445.1, 0.0016671364, 10.002497, 9.999093 
1.4150546e+3, 1.2522009e+2, -1912767.4, -1658592.8, 57358.457, 0.14188673, 0.047278274, -1646248.5, 66598.555, 0.009556688, 9.99791, 10.001376 
1.4150526e+3, 1.3522206e+2, -1905193.1, -1581243.0, -97815.34, -0.11299315, 0.07360803, -1553999.3, 60829.297, 0.0055341963, 9.997221, 10.001584 
1.4150575e+3, 1.4522378e+2, -1794981.4, -1563365.6, 61523.477, 0.23670846, 0.120232925, -1548037.6, -31227.066, 0.0022969088, 9.997681, 10.000786 
1.4150602e+3, 1.5522292e+2, -1482435.4, -1380290.1, 86327.17, 0.09244548, -0.0658911, -1331059.3, 87756.93, 0.0005425403, 9.999248, 10.000611 
1.4150625e+3, 1.6522348e+2, -1417444.5, -1393127.9, -13913.712, 0.019183442, -0.019129649, -1386808.8, -65995.85, 0.000040406845, 9.999415, 9.99978 
1.4150657e+3, 1.7522523e+2, -1456885.1, -1342094.6, 7774.5474, 0.14260115, 0.13429594, -1341570.4, -118768.125, 0.00000007226826, 9.9984045, 9.999939 
1.4150684e+3, 1.8522578e+2, -1316269.3, -1280759.4, 25489.574, 0.18444954, 0.22767626, -1267450.6, -142651.02, 0.0, 9.998941, 9.999424 
1.4150701e+3, 1.9522496e+2, -941202.2, -1039880.06, 47065.0, 0.11814752, 0.1633762, -922354.25, 104452.37, 0.0, 10.000803, 9.999507 
1.4150721e+3, 2.0522374e+2, -790766.3, -979688.9, 42665.547, 0.060837332, 0.12515011, -781577.75, 147239.13, 0.0, 10.001419, 9.998959 
1.4150742e+3, 2.1522193e+2, -757964.5, -900094.3, 98947.05, 0.031503085, 0.005566443, -707206.9, 123625.48, 0.0, 10.000932, 9.999061 
1.4150763e+3, 2.2522092e+2, -740099.75, -991400.5, 55765.645, 0.06304039, 0.07359956, -728280.75, 4562.44, 0.0, 10.001029, 9.997711 
1.4150788e+3, 2.3522046e+2, -553012.6, -840220.7, 30229.174, 0.15112051, 0.21597695, -549865.44, 84986.305, 0.0, 10.001601, 9.997798 
1.4150812e+3, 2.4521877e+2, -444247.84, -770514.4, 73210.74, 0.13453145, 0.28950346, -428573.2, 108296.53, 0.0, 10.001807, 9.997505 
1.4150837e+3, 2.5521567e+2, -359118.72, -659683.56, 88347.08, 0.02850501, 0.1818192, -335073.8, 103825.26, 0.0, 10.001654, 9.997662 
1.4150861e+3, 2.6521233e+2, -216187.83, -508654.78, 13651.615, -0.032105558, 0.07614523, -215551.98, 125374.81, 0.000000079284355, 10.0018215, 9.997955 
1.4150882e+3, 2.7520868e+2, -33972.813, -355204.7, 8203.995, -0.05932751, -0.13014753, -33763.426, 209191.0, 0.000007370644, 10.002344, 9.998079 
1.415091e+3, 2.8520653e+2, 42262.723, -302689.6, 4048.6155, -0.015085069, -0.13068607, 42310.234, 187281.77, 0.00007202747, 10.002334, 9.997769 
1.4150953e+3, 2.9520512e+2, 37823.28, -242590.38, 45918.758, 0.13397887, -0.099253476, 45151.15, 92136.086, 0.0003176136, 10.001571, 9.99788 
1.4150967e+3, 3.0520192e+2, 68599.71, -217311.44, -25440.908, 0.05980148, -0.18844154, 70845.84, 70845.84, 0.0008555456, 10.001559, 9.997707 
1.4150959e+3, 3.15202e+2, 257523.13, 39727.715, 27890.672, -0.16088071, -0.011245195, 261038.06, 261038.06, 0.0016671689, 10.002073, 9.999233 
1.4250538e+3, 1.2521735e+2, -2146595.0, -1771476.8, 81132.555, 0.3520118, 0.031982873, -1754681.0, -41806.145, 0.010011913, 9.996336, 10.001352 
1.4250487e+3, 1.352203e+2, -1757285.9, -1456424.0, -60093.72, -0.24149498, 0.11827732, -1444865.1, 169981.47, 0.0058154534, 9.998049, 10.002032 
1.4250562e+3, 1.4522174e+2, -1659021.9, -1541855.3, 78872.47, 0.2914753, 0.1318025, -1502189.5, 14641.954, 0.002423067, 9.99881, 10.000386 
1.4250596e+3, 1.552202e+2, -1689810.3, -1526545.8, 48988.64, 0.18652235, -0.07951662, -1512974.5, -94130.45, 0.00057589856, 9.998034, 10.000182 
1.4250617e+3, 1.6522071e+2, -1620227.6, -1473184.4, -40581.766, 0.07064547, -0.024869166, -1462728.0, -141886.34, 0.00004378684, 9.997952, 9.999926 
1.4250639e+3, 1.75223e+2, -1379103.0, -1285477.8, -54852.164, 0.12141819, 0.1629027, -1260178.0, -37351.715, 0.00000008454083, 9.998853, 10.000106 
1.4250673e+3, 1.8522364e+2, -1264121.1, -1251075.6, 24395.309, 0.18486956, 0.25436315, -1232346.0, -107523.2, 0.0, 9.999275, 9.999468 
1.425071e+3, 1.9522259e+2, -1141960.3, -1126915.8, 5841.5737, 0.19551829, 0.16264999, -1124913.9, -98081.92, 0.0, 9.999387, 9.999589 
1.4250733e+3, 2.052216e+2, -1036108.4, -1056317.1, -36087.59, 0.13745736, 0.12297367, -1008737.25, -79897.76, 0.0, 9.999552, 9.999328 
1.4250743e+3, 2.1522029e+2, -888459.25, -925876.94, -65031.563, 0.035254434, 0.019910432, -839498.8, -8650.027, 0.0, 9.99985, 9.999409 
1.4250769e+3, 2.2521922e+2, -816373.75, -1051042.9, -31474.848, 0.04677115, 0.07510245, -812225.56, -79365.35, 0.0, 10.000603, 9.997512 
1.4250803e+3, 2.3521823e+2, -522727.03, -843851.6, -21027.684, 0.1470356, 0.18405376, -521355.97, 113518.7, 0.0, 10.001884, 9.997642 
1.4250834e+3, 2.4521652e+2, -392719.9, -749794.7, 37582.49, 0.16633326, 0.26478735, -388807.2, 148086.52, 0.0, 10.002178, 9.997475 
1.4250863e+3, 2.552139e+2, -354215.44, -660065.0, 13968.905, 0.117273934, 0.20793983, -353578.75, 85340.49, 0.00000000006254562, 10.001689, 9.997647 
1.4250888e+3, 2.652108e+2, -239565.56, -548008.44, 13890.181, 0.068427764, 0.13937165, -238941.31, 102004.89, 0.00000036239143, 10.001779, 9.997702 
1.425091e+3, 2.7520722e+2, -40971.406, -383884.28, 2614.901, 0.012928376, -0.03664358, -40951.465, 202023.86, 0.000010087366, 10.002394, 9.997856 
1.4250939e+3, 2.85205e+2, 69725.16, -293676.78, -8697.876, 0.021654852, -0.027616335, 69933.22, 214926.52, 0.00007869426, 10.002537, 9.997741 
1.425097e+3, 2.9520366e+2, 166232.13, -178415.2, -53992.87, 0.12272051, 0.008447869, 174492.72, 221498.3, 0.00033370158, 10.002445, 9.997897 
1.4250986e+3, 3.0520007e+2, 177031.16, -195886.13, -69669.45, 0.0717953, -0.109431505, 189621.9, 189621.9, 0.00088820356, 10.002391, 9.99748 
1.4250983e+3, 3.1519857e+2, 277900.6, 73511.81, -47151.355, -0.11243934, -0.07095609, 288253.72, 288253.72, 0.0017210246, 10.002071, 9.999483 
1.4350508e+3, 1.2521663e+2, -2154533.3, -1813074.3, -102043.86, 0.34283134, 0.04738883, -1784902.9, -72021.76, 0.010506618, 9.9964075, 10.001041 
1.4350465e+3, 1.3521811e+2, -1822565.5, -1583077.6, 37173.695, -0.29474545, 0.06862139, -1577440.1, 37426.96, 0.006123269, 9.998017, 10.001164 
1.4350533e+3, 1.4521848e+2, -1684153.6, -1612915.6, 36111.285, 0.075250015, 0.04206135, -1597812.4, -80948.48, 0.002563054, 9.998879, 9.999873 
1.4350589e+3, 1.5521786e+2, -1730517.6, -1607856.5, 35832.258, 0.26476628, -0.02127196, -1598156.1, -179286.0, 0.0006133788, 9.998011, 9.999644 
1.435061e+3, 1.6521828e+2, -1618276.1, -1468043.4, -28147.035, 0.1578049, 0.050993215, -1462943.0, -142074.28, 0.000047750204, 9.997949, 9.999965 
1.4350617e+3, 1.752195e+2, -1381176.6, -1286957.1, -9822.219, -0.02590162, 0.1324445, -1285944.0, -63082.438, 0.00000010052836, 9.998834, 10.00011 
1.4350653e+3, 1.8521969e+2, -1271423.8, -1256472.9, 8835.002, 0.024795637, 0.17947419, -1252375.0, -127513.11, 0.0, 9.999234, 9.999451 
1.4350711e+3, 1.9521864e+2, -1162147.6, -1142001.3, 23936.574, 0.23613349, 0.08946007, -1126104.6, -99233.05, 0.0, 9.99927, 9.999543 
1.4350739e+3, 2.0521823e+2, -1077708.4, -1110396.8, -43297.086, 0.2142806, 0.12426027, -1047773.25, -118897.336, 0.0, 9.999409, 9.999023 
1.4350744e+3, 2.1521811e+2, -944011.06, -992546.6, -38176.99, 0.018351495, 0.16923356, -923041.6, -92163.53, 0.0, 9.999639, 9.999053 
1.4350772e+3, 2.2521673e+2, -803700.0, -968232.06, 1580.2938, -0.010186771, 0.18025076, -803684.8, -70793.52, 0.0, 10.000367, 9.99819 
1.435082e+3, 2.3521411e+2, -513998.94, -763084.1, 42775.375, 0.10873897, 0.0557551, -506857.84, 128058.15, 0.0, 10.001628, 9.998316 
1.4350855e+3, 2.4521208e+2, -433278.72, -781781.3, 604.513, 0.13005888, 0.07682367, -433277.7, 103659.055, 0.0, 10.001949, 9.997368 
1.4350878e+3, 2.5521043e+2, -401978.28, -697627.44, 11974.311, 0.073352486, 0.1291486, -401494.1, 37461.324, 0.000000006122379, 10.001431, 9.997511 
1.4350908e+3, 2.6520884e+2, -252259.31, -534232.6, 23275.719, 0.055570617, 0.20691761, -250350.9, 90620.836, 0.0000008787704, 10.001597, 9.9978895 
1.4350945e+3, 2.7520704e+2, -57203.863, -376480.22, 45326.77, 0.07919009, 0.19713992, -50893.664, 192094.66, 0.000014147242, 10.002211, 9.998004 
1.4350963e+3, 2.8520527e+2, 47.430798, -396463.63, -27889.678, -0.021442035, 0.27174392, 1999.5164, 147004.31, 0.000090676054, 10.002353, 9.997121 
1.4350963e+3, 2.9520306e+2, 81247.92, -306119.8, -33701.17, -0.23379935, 0.28606603, 84158.08, 131183.52, 0.00036367134, 10.00222, 9.997135 
1.4350986e+3, 3.05199e+2, 159431.97, -173708.02, -93944.63, -0.19490403, 0.15151237, 184097.84, 184097.84, 0.00095405756, 10.00217, 9.9977255 
1.4351016e+3, 3.1519523e+2, 251791.45, 120405.92, -7128.078, -0.034675706, -0.06584531, 252177.05, 252177.05, 0.0018381028, 10.001652, 10.000009 
1.4450468e+3, 1.2521479e+2, -1967846.3, -1733719.4, -156841.27, 0.24034521, 0.06483408, -1655071.1, 57829.69, 0.011047917, 9.997715, 10.000962 
1.4450465e+3, 1.3521549e+2, -1838135.3, -1651945.5, 24947.803, -0.08934742, 0.052585535, -1648660.6, -33766.195, 0.00646129, 9.99816, 10.000619 
1.445052e+3, 1.4521563e+2, -1721363.8, -1613606.0, 34868.79, 0.08068396, 0.031875663, -1603307.3, -86413.984, 0.0027186894, 9.998575, 9.999995 
1.4450565e+3, 1.5521586e+2, -1570887.5, -1505346.0, 41377.688, 0.20029755, 0.029959625, -1485333.9, -66442.41, 0.0006559602, 9.999006, 9.999861 
1.445059e+3, 1.6521627e+2, -1476349.5, -1431494.5, 53988.043, 0.13780521, 0.10223085, -1395460.9, -74570.84, 0.000052490832, 9.999062, 9.99968 
1.4450614e+3, 1.7521665e+2, -1355074.9, -1298393.6, 21981.988, 0.053795647, 0.12416884, -1290867.9, -67977.375, 0.00000012546444, 9.999131, 9.99988 
1.4450653e+3, 1.8521658e+2, -1263812.0, -1251184.1, 54279.563, 0.10820176, 0.1557269, -1202852.5, -77959.39, 0.0, 9.999268, 9.999475 
1.4450704e+3, 1.9521588e+2, -1122586.6, -1116206.4, 43541.63, 0.23244074, 0.094478734, -1075738.1, -48838.43, 0.0, 9.999506, 9.999603 
1.4450735e+3, 2.0521572e+2, -1006917.9, -1079820.1, 28679.646, 0.21777447, 0.15567283, -996987.94, -68085.586, 0.0, 9.999933, 9.998979 
1.4450753e+3, 2.1521583e+2, -801572.9, -917275.0, 21253.842, 0.10883342, 0.2289993, -797792.2, 33111.297, 0.0, 10.000622, 9.999085 
1.4450787e+3, 2.2521463e+2, -675189.6, -867599.6, 104368.97, 0.08577537, 0.23568457, -629450.0, 103465.164, 0.0, 10.001062, 9.998555 
1.4450836e+3, 2.3521198e+2, -541009.75, -735031.75, 93181.92, 0.12810536, 0.07002622, -503506.8, 131432.02, 0.0, 10.001242, 9.998699 
1.4450872e+3, 2.4521007e+2, -479917.16, -779067.75, 58833.727, 0.125527, 0.07112809, -468762.3, 68195.31, 0.0, 10.001529, 9.997582 
1.4450894e+3, 2.5520855e+2, -294243.1, -626179.25, 65068.043, 0.07998294, 0.117321454, -281943.8, 157030.8, 0.000000012932129, 10.002064, 9.997706 
1.4450927e+3, 2.6520732e+2, -198969.84, -527359.8, 110847.15, 0.07899132, 0.230947, -165056.06, 175932.63, 0.0000016431604, 10.002053, 9.997715 
1.4450967e+3, 2.7520618e+2, -145089.31, -432193.6, 66106.02, 0.11801697, 0.30269596, -130599.61, 112402.125, 0.000019343763, 10.001677, 9.99787 
1.4450988e+3, 2.8520414e+2, -24814.188, -404264.6, 58926.96, 0.011589655, 0.3534099, -15873.744, 129147.43, 0.00010742276, 10.002165, 9.997154 
1.4450991e+3, 2.9520103e+2, 250872.78, -214727.58, 75107.55, -0.21833766, 0.27189004, 262688.75, 309737.16, 0.00040939418, 10.003356, 9.997203 
1.4451018e+3, 3.051974e+2, 342642.4, -157266.28, 22316.059, -0.15015543, 0.20856029, 343636.63, 343636.63, 0.0010586398, 10.003725, 9.997104 
1.445105e+3, 3.1519365e+2, 444662.25, 142159.06, -33488.594, 0.054827634, 0.05629454, 448325.25, 448325.25, 0.002027643, 10.003295, 9.999363 
1.4550431e+3, 1.2521236e+2, -1951094.6, -1725301.3, -64792.62, 0.02285854, 0.092473656, -1708029.8, 4898.813, 0.011640448, 9.997823, 10.00097 
1.4550485e+3, 1.352126e+2, -1866955.5, -1703012.8, 60252.543, 0.2579583, 0.05855739, -1683250.8, -68324.11, 0.0068325973, 9.998114, 10.000299 
1.4550516e+3, 1.4521345e+2, -1675885.3, -1519634.1, 37191.98, 0.13799334, 0.10133275, -1511233.1, 5684.369, 0.0028915813, 9.998581, 10.000634 
1.4550525e+3, 1.5521419e+2, -1521093.0, -1390869.4, 68863.62, -0.13970232, 0.06721277, -1361209.1, 57699.273, 0.00070428615, 9.998966, 10.000663 
1.4550559e+3, 1.6521466e+2, -1502005.5, -1495208.0, 33275.934, -0.11929338, 0.13088322, -1465157.8, -144252.39, 0.000058062662, 9.999099, 9.9992285 
1.4550626e+3, 1.7521448e+2, -1394700.5, -1371835.6, 39281.305, 0.2383221, 0.14427802, -1342356.9, -119444.98, 0.00000016567238, 9.99909, 9.999398 
1.455067e+3, 1.8521434e+2, -1259079.0, -1234701.8, 47060.727, 0.29677537, 0.18532652, -1198276.9, -73361.17, 0.0, 9.999235, 9.999606 
1.4550684e+3, 1.952142e+2, -1131091.9, -1110728.0, 66759.55, 0.06483234, 0.17269862, -1053378.4, -26461.53, 0.0, 9.9994, 9.9997 
1.4550717e+3, 2.0521398e+2, -1019052.06, -1064586.8, 36476.973, 0.024306607, 0.2137836, -998820.3, -69900.625, 0.0, 9.999768, 9.999158 
1.455077e+3, 2.1521337e+2, -822313.5, -904524.5, 60285.805, 0.18184787, 0.19520757, -790453.0, 40473.457, 0.0, 10.000393, 9.99928 
1.4550811e+3, 2.2521271e+2, -693479.25, -853752.0, 94313.88, 0.19755848, 0.23484491, -649854.0, 83079.83, 0.0, 10.000836, 9.99876 
1.4550845e+3, 2.3521185e+2, -571327.06, -730132.4, 115329.13, 0.077125, 0.23050784, -510709.72, 124233.42, 0.0, 10.0009575, 9.998868 
1.455088e+3, 2.4521048e+2, -473233.94, -715376.4, 64347.53, 0.016199896, 0.251915, -457196.28, 79760.13, 0.0, 10.001305, 9.998133 
1.4550911e+3, 2.552084e+2, -285870.9, -563757.94, 101430.27, 0.014409243, 0.18645066, -252787.11, 186188.63, 0.000000017460069, 10.001868, 9.998232 
1.4550942e+3, 2.6520646e+2, -266491.25, -629503.7, 81372.85, 0.002872712, 0.23520876, -249085.31, 91910.19, 0.000002726617, 10.001883, 9.997096 
1.4550973e+3, 2.7520448e+2, -218256.52, -534551.56, 70294.69, -0.008752226, 0.27851698, -203337.64, 39679.938, 0.000025176965, 10.001467, 9.997265 
1.4551009e+3, 2.8520152e+2, 2351.4954, -293011.16, 89045.16, -0.008528751, 0.2266392, 27119.623, 172163.22, 0.00012772917, 10.001936, 9.998027 
1.4551051e+3, 2.9519755e+2, 277243.2, -106079.68, 140358.64, 0.012866956, -0.029509634, 323141.53, 370216.4, 0.00046719576, 10.003125, 9.998064 
1.455108e+3, 3.0519524e+2, 203055.28, -397718.16, -6321.262, 0.058985278, 0.07561329, 203121.78, 203121.78, 0.0011939944, 10.0035095, 9.995558 
1.4551073e+3, 3.151934e+2, 236704.92, -207349.14, -10415.365, -0.093890525, 0.27180776, 236949.08, 236949.08, 0.0022784644, 10.0029335, 9.997139 
1.4650407e+3, 1.2520964e+2, -2024217.5, -1758546.1, 850.12823, 0.050583556, 0.16058531, -1758543.4, -45586.31, 0.012283002, 9.997342, 10.000963 
1.4650473e+3, 1.3520949e+2, -1839480.4, -1685538.1, 19241.873, 0.33683997, 0.08098046, -1683169.5, -68209.516, 0.00723705, 9.99831, 10.000312 
1.4650503e+3, 1.452106e+2, -1738027.9, -1543271.1, 26149.143, 0.18537375, 0.14975753, -1539821.3, -22872.408, 0.0030819494, 9.998093, 10.00073 
1.4650515e+3, 1.5521169e+2, -1632568.9, -1414740.1, -17222.836, -0.08216253, 0.12850448, -1413386.8, 5549.2954, 0.0007585455, 9.998043, 10.0009575 
1.4650553e+3, 1.6521221e+2, -1616121.5, -1523318.6, -5092.769, -0.046965055, 0.16782573, -1523040.0, -202108.8, 0.00006440502, 9.998205, 9.999459 
1.4650616e+3, 1.7521171e+2, -1424564.1, -1362451.8, 19787.719, 0.24696226, 0.12717578, -1356683.5, -133744.98, 0.00000022299002, 9.9987755, 9.999612 
1.465066e+3, 1.8521143e+2, -1265730.5, -1253320.4, 76356.89, 0.28230742, 0.15533094, -1182916.9, -57973.934, 0.0, 9.999289, 9.999438 
1.4650683e+3, 1.9521144e+2, -1053153.1, -1082287.9, 42440.766, 0.07992427, 0.16693166, -1022849.3, 4095.0208, 0.0, 10.0, 9.999592 
1.4650722e+3, 2.0521115e+2, -918783.7, -997607.3, 34938.434, 0.06965798, 0.19769688, -905526.9, 23420.588, 0.0, 10.000347, 9.999355 
1.4650777e+3, 2.1521036e+2, -798626.8, -871807.94, 36676.99, 0.23904757, 0.14022347, -783409.4, 47545.074, 0.0, 10.000436, 9.999498 
1.4650822e+3, 2.252101e+2, -755675.75, -875113.4, 84275.19, 0.24466874, 0.20602135, -712105.44, 20853.037, 0.0, 10.000403, 9.998809 
1.4650853e+3, 2.3521005e+2, -643038.7, -759357.0, 58311.656, 0.09363608, 0.2805864, -618840.5, 16121.671, 0.0, 10.000446, 9.998911 
1.4650892e+3, 2.4520892e+2, -525162.4, -722626.3, 41487.06, 0.043737475, 0.31670478, -516800.1, 20173.682, 0.0, 10.000875, 9.998288 
1.4650935e+3, 2.552067e+2, -293253.47, -543438.3, 16368.2295, 0.07827931, 0.2215033, -292187.13, 146806.47, 0.000000044837254, 10.001731, 9.998428 
1.4650969e+3, 2.652044e+2, -188696.23, -593171.8, 12581.248, 0.054387007, 0.22346655, -188305.27, 152710.64, 0.0000038968087, 10.00242, 9.997089 
1.4650993e+3, 2.7520177e+2, 2818.6353, -430557.63, 20235.248, -0.020922879, 0.20833233, 3761.4104, 246804.22, 0.000030518888, 10.002979, 9.997259 
1.4651035e+3, 2.8519878e+2, 136774.1, -225204.98, 67185.85, 0.015586695, 0.1536898, 148841.94, 293911.94, 0.00014669269, 10.002844, 9.998059 
1.4651091e+3, 2.9519555e+2, 129243.68, -167080.83, 5186.273, 0.1606169, -0.029626874, 129334.42, 176431.5, 0.00052426284, 10.002077, 9.998142 
1.4651123e+3, 3.0519393e+2, 118518.195, -383739.16, -42288.39, 0.19361319, 0.11443644, 122053.84, 122053.84, 0.0013359482, 10.0027075, 9.99602 
1.4651108e+3, 3.15193e+2, 449581.13, -105921.36, 40627.027, -0.09034445, 0.35949737, 452536.7, 452536.7, 0.002551417, 10.004397, 9.997123 
1.475039e+3, 1.2520549e+2, -2016352.3, -1748616.3, -22319.191, 0.05557388, 0.17321461, -1746768.4, -33770.188, 0.012969953, 9.997387, 10.00099 
1.4750424e+3, 1.3520613e+2, -1824111.9, -1642282.0, 41340.21, -0.029003028, 0.13696498, -1633324.4, -18329.742, 0.0076708426, 9.998272, 10.000617 
1.4750479e+3, 1.4520699e+2, -1736314.8, -1564002.9, -6896.619, 0.07329854, 0.17662169, -1563727.4, -46739.73, 0.0032881629, 9.998179, 10.000554 
1.4750531e+3, 1.5520859e+2, -1648890.0, -1441315.4, -5001.4507, 0.23949216, 0.22394514, -1441194.9, -22222.666, 0.00081847684, 9.998011, 10.000793 
1.4750564e+3, 1.6520916e+2, -1543750.9, -1386192.3, -1705.0281, 0.20274921, 0.22683837, -1386173.9, -65208.52, 0.000071419374, 9.998253, 10.000378 
1.4750579e+3, 1.7520852e+2, -1373673.5, -1241728.9, 53347.836, -0.04283141, 0.08211486, -1222858.3, 110.1744, 0.0000002932695, 9.998716, 10.0004635 
1.475062e+3, 1.8520804e+2, -1299791.9, -1327677.5, 84197.875, -0.05803558, 0.074654475, -1228390.1, -103416.59, 0.0, 9.999289, 9.998935 
1.4750692e+3, 1.952075e+2, -1099737.5, -1158870.3, 81859.69, 0.14832681, 0.08187351, -1042268.4, -15285.773, 0.0, 9.999905, 9.999118 
1.4750743e+3, 2.0520721e+2, -912710.2, -953504.7, 18871.246, 0.21184878, 0.11588163, -905319.44, 23666.607, 0.0, 10.00021, 9.999722 
1.4750776e+3, 2.15207e+2, -810386.9, -840824.2, 52000.758, 0.15269509, 0.07868243, -771423.56, 59562.07, 0.0, 10.000204, 9.999819 
1.4750813e+3, 2.2520693e+2, -798703.5, -922632.4, 68320.2, 0.101484895, 0.1613188, -768433.2, -35445.445, 0.0, 10.000205, 9.998588 
1.4750856e+3, 2.352067e+2, -683258.06, -802300.44, 76169.66, 0.053871114, 0.2350576, -646111.9, -11116.774, 0.0, 10.000265, 9.998709 
1.4750904e+3, 2.4520552e+2, -566230.94, -768124.25, 56043.773, 0.06332449, 0.2870538, -551717.06, -14708.373, 0.0, 10.000699, 9.998062 
1.475096e+3, 2.5520334e+2, -342129.5, -593472.44, 61754.54, 0.13920747, 0.21673527, -327776.2, 111253.37, 0.000000082863835, 10.001507, 9.998194 
1.4750999e+3, 2.65201e+2, -177059.03, -516843.22, 20959.668, 0.09651204, 0.19440587, -175771.02, 165280.22, 0.0000048986644, 10.0021925, 9.99772 
1.4751023e+3, 2.7519816e+2, 14328.887, -355603.7, 63497.742, -0.05605474, 0.08813058, 24924.586, 268001.56, 0.00003489947, 10.002761, 9.997873 
1.4751059e+3, 2.8519607e+2, 33141.813, -393777.47, 21377.205, -0.065346144, 0.14654388, 34209.566, 179308.64, 0.00016199038, 10.002636, 9.9970045 
1.4751107e+3, 2.9519477e+2, 28569.59, -323447.47, -1841.7032, 0.06601335, 0.25464186, 28579.225, 75696.734, 0.00057622173, 10.001847, 9.99718 
1.4751144e+3, 3.051932e+2, 258536.19, -38181.57, 9009.753, 0.10830891, 0.32267877, 258809.52, 258809.52, 0.0014704296, 10.002472, 9.998505 
1.4751147e+3, 3.1519213e+2, 538348.56, 182062.73, 144002.08, -0.21781904, 0.30371338, 589272.25, 589272.25, 0.0028074854, 10.0039625, 9.99931 
1.485038e+3, 1.2520106e+2, -2080267.6, -1786873.9, 53984.32, 0.25213796, 0.10707253, -1777256.0, -64215.453, 0.013700781, 9.996954, 10.000955 
1.4850399e+3, 1.3520251e+2, -1943893.0, -1691218.3, 46066.938, -0.039667413, 0.14957726, -1683081.5, -68052.164, 0.00813248, 9.997365, 10.000743 
1.4850459e+3, 1.4520325e+2, -1855813.4, -1613594.9, 39150.27, 0.09745793, 0.16879827, -1607424.1, -90399.8, 0.0035089266, 9.997371, 10.000581 
1.4850523e+3, 1.5520452e+2, -1609960.4, -1417530.4, 20987.195, 0.35861126, 0.17959328, -1415268.0, 3745.7605, 0.0008836724, 9.998278, 10.000814 
1.4850558e+3, 1.6520545e+2, -1467025.6, -1304195.6, 40233.59, 0.32026213, 0.20036802, -1294796.9, 26206.78, 0.00007901186, 9.998621, 10.000756 
1.4850566e+3, 1.7520581e+2, -1350724.3, -1186472.4, 21293.182, -0.030843921, 0.11979754, -1183756.9, 39239.336, 0.00000037325287, 9.998701, 10.0008545 
1.485061e+3, 1.8520558e+2, -1355383.9, -1345024.5, 103848.78, -0.06542616, 0.113331884, -1246226.3, -121228.19, 0.0, 9.998865, 9.999021 
1.4850691e+3, 1.9520466e+2, -1172305.6, -1183148.0, 112469.234, 0.18026555, 0.07300462, -1065127.0, -38117.063, 0.0, 9.999357, 9.999215 
1.4850745e+3, 2.0520428e+2, -968652.0, -1000474.5, 70070.9, 0.23320892, 0.105128884, -912708.56, 16305.832, 0.0, 9.999944, 9.999512 
1.4850774e+3, 2.1520428e+2, -755028.5, -831682.06, 25962.03, 0.112964824, 0.10987689, -747063.06, 83950.16, 0.0, 10.000676, 9.999642 
1.4850816e+3, 2.2520395e+2, -671516.25, -870853.44, 54584.305, 0.07217233, 0.1784687, -657548.25, 75469.69, 0.0, 10.001114, 9.998504 
1.4850867e+3, 2.3520319e+2, -521990.2, -731714.7, 42533.156, 0.0852515, 0.20898564, -513692.56, 121336.69, 0.0, 10.001397, 9.998649 
1.485092e+3, 2.4520192e+2, -453420.5, -714789.2, 71569.87, 0.11632956, 0.25472796, -435106.06, 101937.78, 0.0, 10.001479, 9.998059 
1.4850977e+3, 2.552001e+2, -355861.97, -598141.44, 61721.41, 0.1715894, 0.22101332, -341044.47, 98018.125, 0.00000011463164, 10.001408, 9.998214 
1.4851022e+3, 2.6519805e+2, -246957.08, -509653.34, 47991.777, 0.14122419, 0.21356641, -238464.08, 102617.83, 0.000005857849, 10.001554, 9.998069 
1.4851053e+3, 2.7519566e+2, -82086.14, -365144.22, 23764.256, 0.021686876, 0.1194887, -80104.875, 162999.3, 0.000039275426, 10.001952, 9.998194 
1.4851086e+3, 2.8519422e+2, -5445.7144, -390441.63, 26789.744, -0.030896189, 0.21760277, -3590.5037, 141529.61, 0.00017769578, 10.002276, 9.997198 
1.485112e+3, 2.9519367e+2, 139244.02, -253626.55, 61627.914, -0.01190783, 0.3899013, 148684.47, 195815.19, 0.0006295016, 10.002517, 9.997352 
1.4851166e+3, 3.0519125e+2, 377481.75, 24840.44, 118309.51, 0.04913765, 0.36174256, 413496.0, 413496.0, 0.0015966581, 10.003243, 9.998579 
1.4851198e+3, 3.1518948e+2, 584806.44, 220222.33, -11709.427, -0.09916105, 0.26525795, 585182.1, 585182.1, 0.0030281993, 10.004204, 9.9994545 
1.4950345e+3, 1.2519707e+2, -2036344.3, -1720817.4, -4333.9272, 0.13784729, 0.039607417, -1720757.9, -7680.5044, 0.014485426, 9.997063, 10.001352 
1.4950396e+3, 1.351991e+2, -1956108.0, -1702515.4, 60996.32, 0.1649815, 0.14676282, -1688606.9, -73547.516, 0.008627366, 9.997315, 10.000687 
1.4950436e+3, 1.4519964e+2, -1824071.0, -1582597.4, 42105.46, 0.100688554, 0.13837825, -1575466.1, -58409.938, 0.0037456865, 9.997496, 10.000744 
1.4950489e+3, 1.551997e+2, -1608661.1, -1413334.6, 67041.42, 0.14455189, 0.020102222, -1392538.4, 26519.969, 0.0009542572, 9.998262, 10.000856 
1.4950533e+3, 1.6520125e+2, -1465669.8, -1317337.9, 24259.98, 0.15605634, 0.10735802, -1313470.9, 7573.647, 0.00008722728, 9.998681, 10.000636 
1.4950573e+3, 1.7520358e+2, -1364444.1, -1206806.9, 36122.566, 0.15753159, 0.23591428, -1198923.6, 24098.068, 0.0000004647829, 9.99867, 10.000725 
1.495062e+3, 1.8520415e+2, -1304674.5, -1246626.0, 102426.48, 0.1143638, 0.2794941, -1169191.0, -44175.42, 0.0, 9.998886, 9.999691 
1.4950673e+3, 1.9520302e+2, -1147488.9, -1104325.6, 142298.05, 0.040568348, 0.15267585, -981981.9, 45043.258, 0.0, 9.999238, 9.999816 
1.4950724e+3, 2.0520246e+2, -1043036.56, -1124591.3, 79332.91, 0.0038322236, 0.17639972, -994614.7, -65583.11, 0.0, 9.999805, 9.998729 
1.4950775e+3, 2.1520217e+2, -838933.9, -958350.8, 65630.86, 0.01380274, 0.23024455, -809915.1, 21122.242, 0.0, 10.000475, 9.998868 
1.4950827e+3, 2.252012e+2, -697518.56, -878588.25, 47393.17, 0.034387123, 0.2704372, -685864.0, 47184.332, 0.0, 10.000906, 9.998555 
1.495088e+3, 2.351995e+2, -551927.0, -740748.3, 67412.08, 0.061008427, 0.19802845, -530330.06, 104735.16, 0.0, 10.001166, 9.998699 
1.4950933e+3, 2.4519816e+2, -475271.06, -705397.0, 55112.355, 0.06461972, 0.2265787, -462753.25, 74325.84, 0.0, 10.001241, 9.998237 
1.4950983e+3, 2.551969e+2, -375028.1, -591679.94, 78040.42, 0.056051474, 0.23087864, -349844.4, 89248.53, 0.00000015644366, 10.001203, 9.99836 
1.4951032e+3, 2.6519558e+2, -289165.8, -542847.94, 48460.395, 0.060617205, 0.29089263, -280223.72, 60884.477, 0.000006865855, 10.001323, 9.997949 
1.4951082e+3, 2.7519402e+2, -122865.086, -395595.9, 56539.848, 0.076314546, 0.29555967, -111608.414, 131517.95, 0.00004412461, 10.001726, 9.998091 
1.4951111e+3, 2.85193e+2, 63857.9, -198640.3, 20060.658, -0.029678777, 0.36631054, 65382.125, 210517.36, 0.00019465707, 10.002066, 9.998618 
1.4951126e+3, 2.9519233e+2, 204007.38, -69514.29, 96945.79, -0.22857761, 0.37688854, 234883.08, 282020.34, 0.00068026903, 10.002298, 9.998723 
1.4951181e+3, 3.0518827e+2, 165010.86, -351196.9, 141996.27, -0.14388523, 0.24358864, 201492.38, 201492.38, 0.0016999418, 10.002974, 9.996121 
1.4951253e+3, 3.1518486e+2, 371933.03, -126690.9, 61266.19, -0.025212811, 0.22742741, 379350.5, 379350.5, 0.0031866326, 10.003798, 9.997261 
1.505031e+3, 1.2519221e+2, -2063014.4, -1661312.3, -49986.23, 0.11339879, 0.05124356, -1655185.5, 57942.098, 0.015336173, 9.996574, 10.001999 
1.5050375e+3, 1.3519435e+2, -1984929.4, -1643198.9, -10295.901, 0.26022476, 0.095354855, -1642888.9, -27784.104, 0.0091627855, 9.996783, 10.001357 
1.5050414e+3, 1.4519566e+2, -1899822.3, -1594501.3, 44928.66, 0.16724448, 0.119001254, -1588027.3, -70933.945, 0.0040015904, 9.996901, 10.00094 
1.505046e+3, 1.5519623e+2, -1745735.4, -1451035.9, 41751.8, 0.10377804, 0.031389054, -1445234.8, -26143.182, 0.001031135, 9.997222, 10.001092 
1.5050511e+3, 1.6519794e+2, -1602891.9, -1413871.9, 38357.883, 0.11573405, 0.13569081, -1406384.5, -85306.734, 0.000096309515, 9.9978485, 10.000386 
1.505057e+3, 1.7520013e+2, -1313202.8, -1206223.8, 9897.697, 0.23391454, 0.2744911, -1205315.6, 17742.17, 0.000000575819, 9.9991045, 10.000526 
1.5050623e+3, 1.8520059e+2, -1206995.9, -1186168.6, 64935.156, 0.21966611, 0.3114303, -1130817.4, -5764.751, 0.0, 9.999512, 9.99979 
1.5050668e+3, 1.9519936e+2, -1117683.1, -1074115.8, 35539.36, 0.055984605, 0.16151132, -1054215.3, -27153.479, 0.0, 9.999383, 9.999941 
1.505072e+3, 2.0519868e+2, -1081671.9, -1151950.5, 33715.055, -0.003457319, 0.17050953, -1068113.4, -139044.56, 0.0, 9.999584, 9.998649 
1.505078e+3, 2.151983e+2, -882061.06, -990069.2, 38221.51, 0.0336853, 0.22464462, -869903.8, -38827.53, 0.0, 10.00022, 9.99878 
1.5050837e+3, 2.2519726e+2, -716870.4, -865367.94, 67775.17, 0.07441019, 0.25504646, -690588.75, 42498.64, 0.0, 10.000704, 9.998729 
1.5050896e+3, 2.3519555e+2, -549701.75, -718088.3, 59491.766, 0.10720829, 0.16473821, -530803.94, 104299.05, 0.0, 10.001107, 9.998873 
1.5050949e+3, 2.4519426e+2, -447146.34, -673718.6, 68907.2, 0.11300708, 0.18331337, -427835.53, 109279.84, 0.0, 10.001365, 9.998386 
1.5050998e+3, 2.5519323e+2, -316543.28, -543996.75, 53676.785, 0.08874508, 0.19508475, -304512.44, 134614.1, 0.00000020302433, 10.001527, 9.998521 
1.5051048e+3, 2.651922e+2, -225611.25, -513591.22, 73279.64, 0.06816773, 0.2749359, -208036.94, 133102.5, 0.0000077496, 10.001755, 9.997948 
1.5051097e+3, 2.7519095e+2, -68315.6, -371296.34, 63431.977, 0.052304804, 0.31027383, -55571.54, 187584.1, 0.000048509926, 10.002084, 9.998097 
1.5051132e+3, 2.8518957e+2, 109074.66, -193023.73, 6750.7393, -0.028824946, 0.3561154, 109225.44, 254393.16, 0.00020995413, 10.0024605, 9.998462 
1.5051158e+3, 2.9518804e+2, 294331.22, -32690.037, -84360.49, -0.15569498, 0.29851615, 314810.84, 361987.63, 0.0007218459, 10.002992, 9.998615 
1.5051219e+3, 3.0518368e+2, 173861.33, -377308.0, 22016.996, -0.05711904, 0.14921716, 174739.4, 174739.4, 0.0017673858, 10.003146, 9.995876 
1.5051295e+3, 3.1518042e+2, 194177.25, -200939.86, 44589.637, 0.10068044, 0.18389907, 199146.75, 199146.75, 0.0032624332, 10.002501, 9.997403 
1.5150286e+3, 1.2518747e+2, -1976012.6, -1517070.1, -9548.928, 0.13740288, 0.19872949, -1516871.5, 196310.3, 0.016257107, 9.996718, 10.002941 
1.5150331e+3, 1.3518864e+2, -1913171.9, -1469017.1, 23071.027, 0.11141556, 0.0068571763, -1467821.9, 147340.45, 0.009740974, 9.996693, 10.002598 
1.5150385e+3, 1.4519167e+2, -1867372.9, -1561280.6, 34249.895, 0.12209793, 0.13599433, -1557495.1, -40363.383, 0.0042781597, 9.997023, 10.001118 
1.5150435e+3, 1.5519409e+2, -1728438.9, -1421220.0, 66441.59, 0.099964246, 0.2132832, -1407466.5, 11647.04, 0.0011151112, 9.997238, 10.001291 
1.5150487e+3, 1.6519548e+2, -1610866.9, -1449871.3, 62659.082, 0.04893032, 0.29079005, -1428359.0, -107255.66, 0.000106548556, 9.997923, 10.000104 
1.515055e+3, 1.7519559e+2, -1340408.4, -1254028.9, 68348.45, 0.08562961, 0.24371526, -1216367.8, 6735.7036, 0.0000007145684, 9.999061, 10.000222 
1.5150611e+3, 1.8519507e+2, -1234198.5, -1241882.4, 43738.67, 0.115668334, 0.21669513, -1194133.4, -69025.3, 0.0, 9.999507, 9.999412 
1.5150669e+3, 1.9519374e+2, -1161353.4, -1139246.9, 43598.617, 0.10293648, 0.09970924, -1105322.3, -78203.266, 0.0, 9.999278, 9.999543 
1.5150726e+3, 2.0519306e+2, -1060248.6, -1078491.1, 39623.88, 0.0722585, 0.09933555, -1028709.75, -99584.78, 0.0, 9.999454, 9.99922 
1.5150785e+3, 2.1519281e+2, -873344.1, -920494.75, 75954.1, 0.046626966, 0.10861804, -817390.7, 13737.328, 0.0, 9.999996, 9.999367 
1.5150845e+3, 2.2519228e+2, -736114.06, -849133.75, 67062.19, 0.0543518, 0.1475552, -704927.25, 28206.129, 0.0, 10.000458, 9.998962 
1.5150908e+3, 2.3519132e+2, -566973.3, -704039.06, 89806.016, 0.09994083, 0.11214095, -522537.72, 112604.84, 0.0, 10.000893, 9.999074 
1.5150967e+3, 2.4519025e+2, -472393.4, -679198.0, 57494.18, 0.12108924, 0.13784268, -457484.2, 79668.35, 0.0, 10.001152, 9.998458 
1.5151021e+3, 2.5518897e+2, -340462.78, -546806.06, 74815.78, 0.13202737, 0.11554499, -316191.16, 122973.516, 0.00000026346208, 10.001317, 9.998608 
1.5151063e+3, 2.6518774e+2, -244884.33, -498693.66, 71054.7, 0.02633917, 0.16355751, -226346.33, 114831.02, 0.000008336701, 10.001523, 9.998162 
1.5151097e+3, 2.7518645e+2, -91885.65, -362897.78, 96488.34, -0.18195634, 0.1741106, -61043.0, 182148.63, 0.00005112129, 10.00185, 9.998266 
1.5151146e+3, 2.851842e+2, -53659.984, -479367.94, 9354.223, -0.17960194, 0.21557571, -53454.543, 91760.87, 0.00022272031, 10.002229, 9.996607 
1.5151212e+3, 2.9518086e+2, 132666.94, -315452.72, -41254.23, 0.03683695, 0.15675145, 136433.19, 183682.8, 0.0007568992, 10.002757, 9.996785 
1.5151274e+3, 3.051772e+2, 264512.47, -114292.26, -12306.103, 0.14640088, 0.07443213, 264911.84, 264911.84, 0.0018094213, 10.002854, 9.99781 
1.5151317e+3, 3.1517613e+2, 309505.2, 144543.44, 79311.81, 0.007663311, 0.1205656, 341450.97, 341450.97, 0.0032761982, 10.0020895, 9.999959 
1.5250255e+3, 1.2518255e+2, -2205569.8, -1621443.4, 45810.65, 0.24516927, 0.3013193, -1617872.5, 95362.125, 0.017244658, 9.995149, 10.002962 
1.525029e+3, 1.3518324e+2, -2001706.1, -1483309.6, -41850.133, 0.08061195, 0.03609681, -1479952.9, 135266.16, 0.010359608, 9.995979, 10.002836 
1.5250355e+3, 1.4518625e+2, -1946902.8, -1599732.5, -28554.248, 0.16226384, 0.15493749, -1597399.6, -80211.9, 0.0045741852, 9.996489, 10.001103 
1.5250412e+3, 1.5518907e+2, -1700594.8, -1400494.3, -48351.34, 0.13513213, 0.26369914, -1392896.4, 26268.238, 0.0012060112, 9.99738, 10.001368 
1.5250468e+3, 1.6519025e+2, -1652761.3, -1437054.0, -2121.6238, 0.090694115, 0.30247328, -1437033.3, -115877.74, 0.000118081814, 9.997532, 10.00037 
1.5250532e+3, 1.7518982e+2, -1551299.6, -1318343.5, 11151.103, 0.10047015, 0.17753235, -1317810.9, -94651.24, 0.0000008766353, 9.997484, 10.000529 
1.5250601e+3, 1.8518959e+2, -1403083.3, -1304710.0, 63899.43, 0.12857516, 0.15556042, -1273258.9, -148097.33, 0.0, 9.998258, 9.999597 
1.5250668e+3, 1.9518931e+2, -1039478.7, -1064093.0, 75089.95, 0.13161308, 0.12740879, -975694.0, 51469.234, 0.0, 10.000023, 9.999719 
1.525073e+3, 2.0518892e+2, -876178.3, -986801.4, 78211.37, 0.1281766, 0.14665316, -835696.44, 93470.21, 0.0, 10.000686, 9.999256 
1.5250793e+3, 2.1518831e+2, -812305.75, -886191.25, 44480.203, 0.122019656, 0.112689294, -791427.6, 39744.72, 0.0, 10.000377, 9.999419 
1.5250856e+3, 2.2518781e+2, -739620.9, -858402.1, 49431.305, 0.12003963, 0.15489662, -721741.2, 11436.519, 0.0, 10.000448, 9.998912 
1.5250918e+3, 2.3518729e+2, -569560.8, -709543.06, 24643.273, 0.11682285, 0.1676893, -565349.2, 69834.91, 0.0, 10.000879, 9.999046 
1.525098e+3, 2.4518624e+2, -450828.78, -656307.2, 10026.043, 0.13426206, 0.19162627, -450340.72, 86853.055, 0.0, 10.001277, 9.998536 
1.5251039e+3, 2.551846e+2, -272864.38, -500798.38, -4929.5605, 0.17208034, 0.12714078, -272757.8, 166449.92, 0.0000003530132, 10.001746, 9.998699 
1.5251085e+3, 2.6518306e+2, -196298.64, -499523.9, -3174.2, 0.07875819, 0.15088783, -196265.42, 144957.08, 0.000008619123, 10.00195, 9.997952 
1.5251118e+3, 2.751816e+2, -102401.07, -382843.06, -44482.95, -0.14176457, 0.15922189, -95514.414, 147724.61, 0.000051931653, 10.001854, 9.9981165 
1.5251172e+3, 2.851793e+2, -60032.41, -476986.78, -21321.514, -0.12517144, 0.19793849, -58944.94, 86318.45, 0.00023518385, 10.002157, 9.996668 
1.5251248e+3, 2.95176e+2, 145616.67, -311014.6, 31053.225, 0.12004942, 0.14695594, 147718.77, 195015.75, 0.0007914771, 10.002824, 9.996812 
1.525131e+3, 3.05173e+2, 328937.8, -65015.508, 66711.03, 0.21437925, 0.12172496, 339927.9, 339927.9, 0.0018456153, 10.003195, 9.998 
1.5251346e+3, 3.1517133e+2, 470862.88, 251706.52, -36831.22, 0.060150657, 0.09309961, 476887.13, 476887.13, 0.0032737567, 10.003042, 10.000254 
1.5350214e+3, 1.2517732e+2, -2262292.0, -1767860.0, -84260.91, 0.23507358, 0.33064678, -1753894.8, -40607.29, 0.018294634, 9.995261, 10.001897 
1.5350248e+3, 1.3517849e+2, -2057634.6, -1600032.3, -728.98987, 0.034356948, 0.20041864, -1600031.1, 15240.345, 0.011016667, 9.99599, 10.00202 
1.5350321e+3, 1.4517972e+2, -1936567.1, -1613956.5, -20948.232, 0.11730751, 0.1931687, -1612601.9, -95343.89, 0.0048880493, 9.9966345, 10.000942 
1.5350384e+3, 1.5518144e+2, -1714211.8, -1410569.8, -5653.1904, 0.080576405, 0.20213734, -1410464.5, 8777.74, 0.0013030368, 9.997314, 10.001331 
1.5350449e+3, 1.6518255e+2, -1588879.9, -1322907.0, -25320.156, 0.10606979, 0.19515325, -1320518.0, 713.15094, 0.00013086536, 9.997598, 10.001127 
1.5350516e+3, 1.7518294e+2, -1505064.8, -1215246.1, 21510.533, 0.1578335, 0.07975632, -1213658.3, 9567.254, 0.0000010420176, 9.997453, 10.001252 
1.5350586e+3, 1.851842e+2, -1351227.6, -1203850.9, 110028.125, 0.11849027, 0.1389357, -1145115.1, -19902.443, 0.0, 9.9982815, 10.000279 
1.5350659e+3, 1.9518605e+2, -1001437.1, -965157.1, 149943.55, 0.019318616, 0.24911311, -832260.25, 194934.58, 0.0, 9.999934, 10.000442 
1.535073e+3, 2.0518623e+2, -933458.6, -1063898.5, 48808.734, 0.028992794, 0.31179082, -917217.3, 11976.5205, 0.0, 10.000509, 9.99881 
1.5350801e+3, 2.1518469e+2, -883106.6, -974403.8, 45767.875, 0.13618137, 0.2331336, -864113.94, -32904.066, 0.0, 10.000131, 9.998929 
1.5350863e+3, 2.2518384e+2, -795445.6, -916574.06, 50195.31, 0.13184354, 0.2782807, -777348.56, -44128.12, 0.0, 10.0001955, 9.998635 
1.5350921e+3, 2.3518343e+2, -618381.2, -760151.4, 57722.094, 0.039808154, 0.3265831, -597852.2, 37375.445, 0.0, 10.000657, 9.998809 
1.5350983e+3, 2.4518219e+2, -488633.97, -669769.2, 13429.024, 0.01746375, 0.3394388, -487643.78, 49595.605, 0.0, 10.001006, 9.998569 
1.535105e+3, 2.5518006e+2, -307597.84, -520860.78, 28862.354, 0.08159422, 0.22454108, -303760.72, 135495.45, 0.0000004707298, 10.0015335, 9.998659 
1.5351108e+3, 2.6517817e+2, -265559.44, -598618.4, -24887.787, 0.07934255, 0.24125357, -263709.97, 77565.17, 0.0000086272985, 10.001751, 9.997372 
1.5351155e+3, 2.7517626e+2, -166297.55, -475477.94, -33381.645, 0.015685584, 0.26588085, -162734.45, 80563.664, 0.000052741245, 10.0016775, 9.997568 
1.5351208e+3, 2.8517458e+2, 36826.855, -226259.1, -10908.07, -0.025608335, 0.3029472, 37278.35, 182591.9, 0.00024875673, 10.001938, 9.998501 
1.5351263e+3, 2.9517317e+2, 234581.31, -72754.734, 80730.94, -0.045764063, 0.25089917, 254497.11, 301818.8, 0.00082809955, 10.002592, 9.998559 
1.5351324e+3, 3.051709e+2, 180095.66, -314034.94, 46260.996, 0.0015789795, 0.2921237, 184389.34, 184389.34, 0.0018913832, 10.002946, 9.996404 
1.5351373e+3, 3.151662e+2, 278079.0, -39235.543, 11472.825, -0.027472014, 0.11288336, 278493.28, 278493.28, 0.0032998577, 10.002592, 9.998455 
1.545018e+3, 1.2517193e+2, -2281161.8, -1824256.4, -44719.31, 0.37846637, 0.33549392, -1819920.6, -106580.9, 0.019406972, 9.995341, 10.001461 
1.5450224e+3, 1.3517247e+2, -1898303.6, -1621438.6, 22653.98, 0.13341229, 0.2218696, -1619597.3, -4263.4214, 0.0117135905, 9.997477, 10.001158 
1.5450288e+3, 1.4517324e+2, -1832286.6, -1558768.6, 16000.25, 0.10586823, 0.21287738, -1557835.9, -40510.824, 0.0052204016, 9.99734, 10.000982 
1.5450355e+3, 1.5517458e+2, -1720627.3, -1403011.5, 21616.12, 0.09064887, 0.17281184, -1401547.1, 17763.055, 0.0014059248, 9.997208, 10.001445 
1.5450427e+3, 1.6517568e+2, -1609666.4, -1354962.9, 9571.047, 0.14602056, 0.17003469, -1354603.6, -33305.09, 0.00014487762, 9.997557, 10.000917 
1.5450497e+3, 1.7517655e+2, -1371505.1, -1177246.4, -47251.85, 0.1824464, 0.12024212, -1166362.6, 56927.555, 0.000001197513, 9.998466, 10.001027 
1.5450571e+3, 1.8517794e+2, -1287129.9, -1161252.8, 33358.746, 0.13384153, 0.20058002, -1152958.9, -27681.988, 0.0, 9.998694, 10.000361 
1.5450652e+3, 1.9517975e+2, -1191242.5, -1041308.56, -1603.9225, 0.02799748, 0.29744202, -1041291.4, -14031.869, 0.0, 9.998588, 10.000561 
1.545073e+3, 2.0517996e+2, -1136838.6, -1114156.0, -86232.91, 0.048116077, 0.33604273, -1038521.75, -109264.4, 0.0, 9.998916, 9.999237 
1.5450802e+3, 2.1517856e+2, -909681.7, -941285.75, -54874.04, 0.1680729, 0.22973895, -868379.75, -37109.223, 0.0, 9.99975, 9.999348 
1.5450868e+3, 2.2517781e+2, -780498.06, -893971.9, 31506.217, 0.1655403, 0.26041567, -772337.2, -39058.027, 0.0, 10.000262, 9.998742 
1.5450928e+3, 2.3517753e+2, -622447.0, -743508.8, 25558.432, 0.045876905, 0.31306118, -617272.3, 18012.572, 0.0, 10.0005865, 9.9989395 
1.5450993e+3, 2.4517646e+2, -486719.22, -681402.6, 23782.19, 0.025163038, 0.34120968, -483856.13, 53439.4, 0.000000000009610117, 10.001043, 9.998492 
1.5451066e+3, 2.5517455e+2, -301896.25, -529593.0, 8721.409, 0.104697466, 0.25644156, -301562.66, 137748.92, 0.0000005675007, 10.001593, 9.998597 
1.5451132e+3, 2.651726e+2, -256004.6, -589947.94, -14394.78, 0.14334676, 0.2712364, -255385.25, 85945.84, 0.000008574752, 10.001817, 9.997398 
1.5451182e+3, 2.751703e+2, -145774.67, -471361.34, -14372.241, 0.12210774, 0.260971, -145141.48, 98215.37, 0.00005426492, 10.00183, 9.997536 
1.5451236e+3, 2.8516853e+2, 89668.875, -149121.36, 27502.537, 0.06340464, 0.26593852, 92795.52, 238167.4, 0.00026286932, 10.002106, 9.998921 
1.5451288e+3, 2.9516733e+2, 267188.97, -10172.999, -26324.008, -0.040936325, 0.19819361, 269665.25, 317041.0, 0.00086847367, 10.002639, 9.998944 
1.5451354e+3, 3.051657e+2, 253918.3, -296427.3, -23727.982, 0.0054125264, 0.29244006, 254939.44, 254939.44, 0.001958194, 10.00352, 9.996257 
1.5451418e+3, 3.1516078e+2, 514833.78, -7030.031, -28260.404, 0.06280139, 0.11445486, 516359.7, 516359.7, 0.0033838842, 10.00457, 9.9977255 
1.5550123e+3, 1.2516648e+2, -2228211.5, -1741095.0, 20797.285, 0.19878523, 0.3365573, -1740208.6, -26817.902, 0.020587768, 9.995479, 10.001958 
1.5550211e+3, 1.3516508e+2, -1965721.6, -1740704.3, 66196.48, 0.2227581, 0.114048414, -1722675.0, -107268.39, 0.012455585, 9.997407, 10.000374 
1.5550253e+3, 1.4516675e+2, -1793115.5, -1498448.6, -23685.572, -0.028543724, 0.2133006, -1496556.9, 20832.242, 0.0055746003, 9.997416, 10.001366 
1.5550324e+3, 1.5516858e+2, -1701602.1, -1360140.6, 32615.736, 0.029420964, 0.18554536, -1357053.1, 62313.87, 0.001515748, 9.997202, 10.001739 
1.55504e+3, 1.6516988e+2, -1672075.3, -1507524.6, 27861.438, 0.06818482, 0.24667053, -1502935.1, -181579.97, 0.00016035176, 9.997647, 9.999832 
1.5550472e+3, 1.7517073e+2, -1452404.9, -1335537.4, -4122.625, 0.062525034, 0.30660096, -1335392.1, -112039.695, 0.0000013687348, 9.9984255, 9.999962 
1.5550552e+3, 1.8517098e+2, -1325424.3, -1233489.8, 11820.438, 0.044310518, 0.3480212, -1231994.3, -106641.914, 0.0, 9.998665, 9.999879 
1.555064e+3, 1.9517052e+2, -1247948.9, -1125021.8, 9733.377, 0.02956498, 0.26865923, -1124255.8, -96899.6, 0.0, 9.99845, 10.00005 
1.555072e+3, 2.051702e+2, -1066085.8, -943939.0, -70589.91, 0.04556502, 0.22023591, -911669.5, 17686.742, 0.0, 9.998797, 10.000471 
1.5550795e+3, 2.1517e+2, -848729.1, -773711.9, -9291.002, 0.10070367, 0.10908985, -772578.25, 58774.934, 0.0, 9.999559, 10.000599 
1.5550864e+3, 2.2516987e+2, -788384.44, -857275.56, 27726.752, 0.080059715, 0.11843932, -778611.56, -45258.914, 0.0, 10.000029, 9.999108 
1.5550931e+3, 2.3516956e+2, -628907.44, -716597.5, 52174.113, 0.0036595447, 0.13295951, -604601.75, 30754.846, 0.0, 10.000402, 9.999219 
1.5551005e+3, 2.4516901e+2, -528461.06, -711048.25, 30961.998, 0.007346083, 0.20480485, -523353.63, 14009.521, 0.0, 10.000799, 9.9984045 
1.5551086e+3, 2.551681e+2, -337847.03, -551095.9, 43397.926, 0.11166636, 0.2281073, -329353.5, 110019.62, 0.0000005355393, 10.0013685, 9.998555 
1.5551151e+3, 2.6516634e+2, -254377.97, -536335.3, -25869.898, 0.13011467, 0.23982914, -252024.03, 89366.35, 0.000008556659, 10.0016, 9.997869 
1.5551198e+3, 2.7516368e+2, -146205.05, -423435.44, 7155.288, 0.06632749, 0.13763595, -146020.5, 97395.336, 0.000056489618, 10.001624, 9.997958 
1.5551254e+3, 2.8516108e+2, -18051.598, -320634.1, 33362.266, 0.014034081, 0.09576789, -14416.791, 131021.766, 0.00027893353, 10.001885, 9.997848 
1.555132e+3, 2.951585e+2, 163771.63, -164797.25, 13837.234, -0.02282653, -0.009674613, 164353.33, 211812.6, 0.0009152954, 10.002392, 9.997994 
1.5551397e+3, 3.0515754e+2, 287253.28, -162670.55, -795.1392, 0.058937352, 0.1412354, 287254.7, 287254.7, 0.0020518804, 10.003259, 9.997292 
1.5551469e+3, 3.1515476e+2, 454878.28, -4801.873, 46825.484, 0.06350813, 0.06818575, 459599.7, 459599.7, 0.0035361347, 10.004063, 9.997969 
1.5650083e+3, 1.2515886e+2, -2119564.8, -1666761.0, 35662.8, 0.22314583, 0.25072262, -1663969.4, 49493.902, 0.021849003, 9.99612, 10.002184 
1.5650181e+3, 1.3515827e+2, -2158005.5, -1857087.9, 9882.3, 0.26369917, 0.13943627, -1856763.6, -241289.75, 0.013250772, 9.99617, 10.000193 
1.5650225e+3, 1.451603e+2, -1896470.5, -1534411.5, -35452.94, -0.0068714553, 0.27343762, -1530972.6, -13518.977, 0.0059556314, 9.996657, 10.001479 
1.5650302e+3, 1.5516172e+2, -1639248.0, -1332808.9, -38183.945, 0.06407985, 0.20263499, -1328122.6, 91312.5, 0.0016345053, 9.997641, 10.001712 
1.565038e+3, 1.6516271e+2, -1622596.1, -1527886.0, 15806.882, 0.07835099, 0.25361636, -1525317.5, -203891.13, 0.00017771397, 9.998175, 9.999447 
1.5650459e+3, 1.7516343e+2, -1427896.5, -1363597.9, 12501.371, 0.08076644, 0.33929488, -1361252.8, -137827.2, 0.0000016137079, 9.998754, 9.9996195 
1.5650545e+3, 1.851634e+2, -1309425.8, -1224811.6, 67566.0, 0.11603801, 0.36556485, -1187400.1, -61972.047, 0.0, 9.998761, 9.999894 
1.5650636e+3, 1.9516242e+2, -1250559.9, -1127937.9, 76761.49, 0.15089522, 0.23176786, -1091007.5, -63571.83, 0.0, 9.998413, 10.000053 
1.5650715e+3, 2.0516223e+2, -1123833.0, -945007.0, 38200.797, 0.13745081, 0.18506733, -937188.4, -7753.8774, 0.0, 9.998331, 10.000663 
1.5650785e+3, 2.1516281e+2, -941932.06, -786122.06, -11242.253, 0.08089935, 0.13069227, -785315.1, 46109.77, 0.0, 9.998828, 10.000837 
1.565086e+3, 2.251628e+2, -838510.9, -855087.94, 14458.719, 0.05154162, 0.12993489, -830133.44, -96711.414, 0.0, 9.999546, 9.999366 
1.565094e+3, 2.3516212e+2, -600318.94, -669004.75, 11354.224, 0.049188457, 0.07697735, -598490.7, 36936.38, 0.0, 10.000437, 9.999528 
1.5651017e+3, 2.4516167e+2, -538120.06, -712236.44, 2771.8843, 0.082042426, 0.13990013, -538075.94, -643.52997, 0.0, 10.000704, 9.998448 
1.5651098e+3, 2.551613e+2, -474844.63, -609001.6, -5120.231, 0.14496577, 0.2111908, -474649.5, -35210.223, 0.00000039469393, 10.000388, 9.998626 
1.5651166e+3, 2.6515985e+2, -315721.4, -542073.9, -31021.754, 0.15167925, 0.24044088, -311546.84, 29906.75, 0.000008163994, 10.001077, 9.99808 
1.5651222e+3, 2.7515727e+2, 20048.914, -321673.4, -53451.77, 0.10081796, 0.1307185, 28214.645, 271691.34, 0.000058543963, 10.00267, 9.998152 
1.5651283e+3, 2.8515455e+2, 139978.34, -304909.53, -9430.783, 0.0627457, 0.093497366, 140178.17, 285679.44, 0.00029613846, 10.00322, 9.997337 
1.565135e+3, 2.9515162e+2, 201046.45, -203151.75, -31631.717, 0.038441192, 0.012391521, 203506.9, 251034.31, 0.00096598663, 10.00287, 9.997523 
1.5651436e+3, 3.0515018e+2, 317808.22, -104431.24, 20157.479, 0.1267615, 0.118309066, 318768.34, 318768.34, 0.0021640193, 10.003265, 9.997686 
1.5651517e+3, 3.151481e+2, 467218.53, -30544.615, -48294.85, 0.14088632, 0.08116947, 471860.97, 471860.97, 0.0037402343, 10.004214, 9.997741 
1.5750054e+3, 1.2514855e+2, -2101129.8, -1656190.5, 37833.063, 0.25059366, 0.04787098, -1652996.5, 60565.836, 0.023204513, 9.996216, 10.002222 
1.5750128e+3, 1.3515249e+2, -2117061.3, -1773245.3, 26707.158, 0.083288394, 0.34660873, -1771183.0, -155652.08, 0.014108494, 9.996176, 10.000761 
1.57502e+3, 1.4515431e+2, -1884452.8, -1542443.0, -16171.678, 0.040799417, 0.421063, -1541680.0, -24165.238, 0.0063687824, 9.996796, 10.001359 
1.5750282e+3, 1.5515406e+2, -1674819.1, -1395895.4, 6369.035, 0.08413986, 0.22890748, -1395750.0, 23763.646, 0.00176415, 9.997606, 10.001291 
1.575036e+3, 1.651542e+2, -1587746.0, -1469129.4, 16868.613, 0.032790076, 0.1975777, -1466777.0, -145265.28, 0.00019721544, 9.998224, 9.999828 
1.5750453e+3, 1.7515478e+2, -1403830.6, -1308317.4, 47884.445, 0.106808625, 0.22312628, -1288445.5, -64936.715, 0.0000019795527, 9.99873, 10.00001 
1.5750545e+3, 1.8515532e+2, -1264771.3, -1138695.6, 38331.27, 0.20616189, 0.26054758, -1127956.4, -2453.5513, 0.0, 9.998784, 10.000476 
1.5750635e+3, 1.9515568e+2, -1233608.6, -1061784.5, 75224.44, 0.26901877, 0.20907283, -1033505.44, -6009.6387, 0.0, 9.998285, 10.000568 
1.5750706e+3, 2.0515622e+2, -1203166.6, -1083589.0, 38998.727, 0.17912664, 0.2527086, -1071994.3, -142503.98, 0.0, 9.998205, 9.999774 
1.5750766e+3, 2.1515681e+2, -1032604.6, -935070.4, 18613.916, -0.016780028, 0.28933322, -931638.75, -100151.555, 0.0, 9.998653, 9.999902 
1.5750846e+3, 2.251565e+2, -844708.0, -820915.0, 36313.246, -0.054346498, 0.28636244, -794599.25, -61110.305, 0.0, 9.999344, 9.999697 
1.5750948e+3, 2.3515521e+2, -611909.5, -639185.8, 56485.88, 0.061198886, 0.14101571, -567438.7, 68057.91, 0.0, 10.000207, 9.999844 
1.575103e+3, 2.4515447e+2, -566766.94, -711299.7, -24757.896, 0.10855969, 0.15223038, -562643.7, -25140.508, 0.0, 10.000442, 9.998579 
1.5751098e+3, 2.5515407e+2, -497946.3, -611351.0, -2006.6412, 0.09527223, 0.20703037, -497910.8, -58400.887, 0.00000029448665, 10.00019, 9.998702 
1.5751173e+3, 2.6515308e+2, -355827.75, -580447.7, 14709.597, 0.08955132, 0.28417754, -354868.6, -13347.72, 0.000007127328, 10.000878, 9.997915 
1.575125e+3, 2.7515113e+2, -14750.421, -348910.34, 23439.83, 0.086431615, 0.24813063, -13114.232, 230424.95, 0.000059012113, 10.002479, 9.998057 
1.5751317e+3, 2.8514886e+2, 106787.5, -334329.8, -38544.813, 0.05198644, 0.26698837, 110130.21, 255690.27, 0.00030982727, 10.003042, 9.99722 
1.5751378e+3, 2.9514667e+2, 152580.69, -243588.89, -17349.146, -0.001907221, 0.2627344, 153338.98, 200919.06, 0.0010139171, 10.002613, 9.997366 
1.5751463e+3, 3.0514365e+2, 262000.0, -155804.05, 45441.73, 0.058503587, 0.234867, 266885.28, 266885.28, 0.0022794015, 10.003008, 9.997442 
1.5751551e+3, 3.1514055e+2, 349456.53, -143896.61, 32201.248, 0.01861436, 0.109230496, 351549.44, 351549.44, 0.0039605875, 10.003689, 9.997188 
1.5850016e+3, 1.2514e+2, -1979132.8, -1532838.8, 24673.064, 0.24135174, 0.052699625, -1531478.9, 182169.17, 0.024665277, 9.9967785, 10.002797 
1.5850091e+3, 1.3514464e+2, -2152144.8, -1734884.9, -1512.155, 0.12532121, 0.37118962, -1734879.4, -119272.555, 0.0150364665, 9.995701, 10.001243 
1.5850177e+3, 1.4514649e+2, -1992947.5, -1619348.4, 10541.654, 0.1658337, 0.43100405, -1619051.3, -101461.04, 0.0068181083, 9.996154, 10.001144 
1.5850258e+3, 1.5514573e+2, -1759504.1, -1470767.4, 748.1428, 0.10618806, 0.2226408, -1470765.4, -51169.113, 0.0019058621, 9.997158, 10.001 
1.5850338e+3, 1.6514589e+2, -1614338.6, -1429187.5, 39283.42, 0.022566492, 0.18436287, -1421197.5, -99603.57, 0.0002187055, 9.997817, 10.000295 
1.5850443e+3, 1.7514688e+2, -1383846.4, -1241110.5, 43884.97, 0.15029061, 0.20256324, -1228697.4, -5113.2813, 0.000002466339, 9.998629, 10.000514 
1.585054e+3, 1.8514764e+2, -1274949.0, -1133000.5, 4517.3745, 0.27356952, 0.23062682, -1132856.9, -7282.11, 0.0, 9.998675, 10.000565 
1.5850618e+3, 1.9514799e+2, -1226229.3, -1045987.3, -20699.629, 0.29163116, 0.16899425, -1043640.7, -16072.648, 0.0, 9.998284, 10.000671 
1.5850691e+3, 2.051486e+2, -1147767.5, -1089718.8, 30967.621, 0.18992217, 0.2271121, -1076300.1, -146737.22, 0.0, 9.998703, 9.999509 
1.585076e+3, 2.1514928e+2, -852792.4, -878897.2, 34798.027, 0.013913752, 0.29989645, -828679.4, 2881.487, 0.0, 9.99998, 9.999664 
1.5850848e+3, 2.2514908e+2, -716126.8, -756063.4, 65936.27, -0.007692978, 0.31808987, -667201.5, 66361.19, 0.0, 10.000238, 9.999716 
1.585095e+3, 2.3514797e+2, -677269.3, -675153.3, 32389.994, 0.0961206, 0.19655366, -643804.06, -8235.051, 0.0, 9.999772, 9.999827 
1.5851036e+3, 2.4514705e+2, -606798.4, -703451.25, -24455.213, 0.13042264, 0.1835631, -600963.0, -63386.56, 0.0, 10.000077, 9.998795 
1.5851104e+3, 2.551463e+2, -340391.6, -514863.5, -31327.816, 0.09064236, 0.1829753, -334936.94, 104648.14, 0.00000023115544, 10.001193, 9.998879 
1.5851185e+3, 2.6514515e+2, -230579.9, -504140.94, 44683.973, 0.08989567, 0.23330078, -223466.13, 118130.18, 0.0000061293663, 10.001683, 9.998041 
1.5851273e+3, 2.7514336e+2, -110391.664, -375029.8, 35333.01, 0.11613085, 0.20023514, -105755.42, 137857.38, 0.000060026516, 10.0017605, 9.998207 
1.5851349e+3, 2.8514144e+2, 16973.094, -394077.25, -7705.181, 0.103622824, 0.2546261, 17117.477, 162747.88, 0.0003212461, 10.002503, 9.997057 
1.5851414e+3, 2.951396e+2, 315056.25, -182174.33, -32014.549, 0.059096526, 0.3049214, 317109.06, 364756.7, 0.0010569163, 10.003791, 9.997214 
1.5851505e+3, 3.051356e+2, 435967.53, -117252.97, 60062.273, 0.111670434, 0.2029969, 442413.3, 442413.3, 0.0023844014, 10.004373, 9.99708 
1.5851596e+3, 3.1513232e+2, 399247.13, -139867.25, -42423.465, 0.10579006, 0.112400375, 402565.06, 402565.06, 0.0041548307, 10.004089, 9.997054 
1.594997e+3, 1.2513421e+2, -1874704.5, -1385997.4, -160774.42, 0.031480968, 0.308644, -1337849.5, 375861.22, 0.026239868, 9.997007, 10.003753 
1.595007e+3, 1.3513482e+2, -2145925.3, -1723077.4, 3679.9006, 0.32275853, 0.19689251, -1723045.4, -107344.8, 0.016040104, 9.995709, 10.001315 
1.5950146e+3, 1.451367e+2, -1995317.9, -1670448.8, 35665.117, 0.18976042, 0.29066265, -1666579.5, -148898.45, 0.0073062, 9.996328, 10.000719 
1.5950222e+3, 1.5513694e+2, -1763286.3, -1493479.9, 47652.586, -0.0018910349, 0.19726965, -1485310.9, -65630.27, 0.002060233, 9.99721, 10.000825 
1.595031e+3, 1.6513811e+2, -1564754.8, -1347338.4, 48069.71, -0.08542265, 0.2402776, -1337184.5, -15515.002, 0.00024185247, 9.997904, 10.000815 
1.5950428e+3, 1.7513993e+2, -1356448.1, -1175807.8, 84593.59, 0.107332096, 0.29235664, -1142379.0, 81271.06, 0.0000030340082, 9.998595, 10.000977 
1.5950522e+3, 1.8514037e+2, -1297039.4, -1183984.6, -27617.99, 0.18336102, 0.28134885, -1177598.6, -51954.523, 0.0, 9.998692, 10.000207 
1.5950584e+3, 1.9513936e+2, -1267990.3, -1105789.3, -21595.549, 0.10041252, 0.116984375, -1102963.3, -75311.22, 0.0, 9.998176, 10.000312 
1.5950666e+3, 2.0513944e+2, -1137251.0, -1038764.9, 65016.152, 0.042844977, 0.12335996, -1006448.3, -76797.086, 0.0, 9.998578, 9.999917 
1.5950766e+3, 2.1514043e+2, -860530.2, -834991.5, 93706.53, 0.05186627, 0.18194269, -753188.3, 78455.57, 0.0, 9.999732, 10.000081 
1.595086e+3, 2.251408e+2, -775210.75, -827188.9, 33390.563, 0.05199524, 0.25366515, -758887.1, -25246.174, 0.0, 10.000005, 9.999342 
1.5950944e+3, 2.3514047e+2, -738573.4, -750974.9, 35067.277, 0.035309885, 0.24552104, -709162.8, -73519.445, 0.0, 9.999547, 9.999417 
1.5951027e+3, 2.4513955e+2, -633268.75, -698976.4, 8698.888, 0.012066188, 0.24636705, -632136.6, -94485.89, 0.0, 9.999826, 9.99894 
1.5951109e+3, 2.5513795e+2, -365164.2, -502304.06, 26008.088, 0.0074864845, 0.14150912, -360397.5, 79266.9, 0.00000009760233, 10.0009365, 9.999079 
1.5951197e+3, 2.6513615e+2, -241321.44, -480924.97, 32485.7, 0.028583147, 0.09986906, -236995.11, 104684.31, 0.0000054247644, 10.001479, 9.9983015 
1.5951289e+3, 2.7513406e+2, -126347.766, -359481.56, 57060.113, 0.06827079, 0.008011417, -113131.39, 130565.12, 0.0000627863, 10.001544, 9.99842 
1.5951374e+3, 2.851322e+2, -38927.758, -448306.2, 24511.707, 0.07974348, 0.06956453, -37465.332, 108247.984, 0.0003316825, 10.002241, 9.996811 
1.5951458e+3, 2.9513022e+2, 259005.17, -231799.77, 39288.766, 0.066452466, 0.13115779, 262130.33, 309863.1, 0.0010853008, 10.0035095, 9.99701 
1.5951551e+3, 3.051259e+2, 344835.88, -229102.22, 32988.668, 0.11912273, 0.03722166, 346725.75, 346725.75, 0.0024493474, 10.004062, 9.996452 
1.5951647e+3, 3.151234e+2, 328664.2, -161998.17, -13596.989, 0.1358988, 0.085114025, 329040.7, 329040.7, 0.0042672292, 10.003592, 9.997129 
1.6049927e+3, 1.2512593e+2, -2225826.8, -1588312.4, -123681.89, 0.025117388, 0.36766464, -1565158.3, 148632.3, 0.027939666, 9.994808, 10.003386 
1.6050044e+3, 1.3512509e+2, -1900534.1, -1612776.8, -46474.65, 0.40558615, 0.12713383, -1605457.0, 10336.057, 0.01712635, 9.997461, 10.001222 
1.6050115e+3, 1.4512631e+2, -1786122.0, -1569506.1, 17056.354, 0.18952289, 0.16521534, -1568171.3, -50391.28, 0.007836914, 9.997801, 10.000677 
1.6050199e+3, 1.5512782e+2, -1698346.4, -1447239.9, 6051.9644, 0.040988278, 0.18598431, -1447094.1, -27325.854, 0.0022287087, 9.99761, 10.000931 
1.6050294e+3, 1.6512941e+2, -1631275.8, -1340364.9, 39354.836, 0.007781773, 0.24878804, -1335134.9, -13382.183, 0.00026665046, 9.997297, 10.001149 
1.6050407e+3, 1.7513086e+2, -1529978.6, -1222361.4, 34475.918, 0.12162716, 0.23426472, -1218544.9, 5190.9897, 0.0000036433328, 9.997253, 10.001303 
1.6050501e+3, 1.8513145e+2, -1424238.3, -1239075.5, -39436.926, 0.1659161, 0.22223702, -1231026.0, -105297.35, 0.0, 9.997783, 10.000269 
1.6050573e+3, 1.9513105e+2, -1118597.9, -1025842.9, -32119.191, 0.1116289, 0.10876301, -1015806.6, 11925.757, 0.0, 9.99914, 10.0004015 
1.6050659e+3, 2.0513126e+2, -1012691.25, -965388.06, 81471.79, 0.08388993, 0.11683797, -904204.25, 25526.588, 0.0, 9.999397, 10.000022 
1.6050762e+3, 2.1513198e+2, -985745.8, -880056.94, 54741.434, 0.08223179, 0.14383139, -856814.9, -25090.115, 0.0, 9.998829, 10.000201 
1.6050854e+3, 2.2513236e+2, -928814.2, -891597.8, 21506.428, 0.07584335, 0.20634052, -881766.75, -148045.19, 0.0, 9.998911, 9.999415 
1.605094e+3, 2.351323e+2, -707469.6, -714656.44, 26143.51, 0.052768763, 0.21480075, -684673.75, -48952.33, 0.0, 9.999689, 9.999567 
1.6051029e+3, 2.4513136e+2, -578106.25, -693728.7, 56965.348, 0.043924432, 0.21057074, -554756.0, -17026.875, 0.0, 10.000286, 9.998769 
1.6051123e+3, 2.5512934e+2, -402220.1, -541816.0, 24759.887, 0.06670802, 0.088134736, -397958.56, 41787.78, 0.000000007673713, 10.000752, 9.998911 
1.6051218e+3, 2.6512742e+2, -223467.78, -479894.44, 31024.527, 0.088037714, 0.046399042, -219767.58, 121994.96, 0.0000049768487, 10.001628, 9.998246 
1.6051312e+3, 2.7512565e+2, 59980.965, -281360.03, -11775.517, 0.09985194, -0.001100305, 60386.71, 304163.84, 0.00006482946, 10.002856, 9.998346 
1.6051404e+3, 2.8512356e+2, 152107.88, -350703.28, -2035.9701, 0.098602034, 0.04036523, 152116.13, 297912.13, 0.00033743004, 10.003493, 9.996894 
1.6051494e+3, 2.9512092e+2, 290260.2, -204653.0, -6063.267, 0.07975627, 0.026569065, 290334.47, 338155.94, 0.0010901192, 10.003659, 9.997131 
1.6051592e+3, 3.0511695e+2, 348070.7, -247518.88, 39460.023, 0.12876786, -0.031675782, 350673.7, 350673.7, 0.0024527118, 10.004158, 9.996272 
1.6051696e+3, 3.1511536e+2, 530844.94, -28604.535, -55444.227, 0.23832479, 0.1269024, 536286.8, 536286.8, 0.0042678616, 10.004791, 9.997472 
1.6149884e+3, 1.2511419e+2, -2324272.5, -1850029.1, 119089.64, 0.02133543, 0.12330728, -1821803.8, -107906.98, 0.02978273, 9.995055, 10.001451 
1.6150007e+3, 1.3511609e+2, -1914396.1, -1653645.4, 24485.3, 0.24932532, 0.19821495, -1651366.1, -35487.54, 0.018308382, 9.997502, 10.000929 
1.615008e+3, 1.4511581e+2, -1747873.1, -1515670.9, -12628.505, -0.00457065, 0.08795366, -1514986.1, 2896.0686, 0.008418617, 9.9979, 10.001003 
1.6150185e+3, 1.5511836e+2, -1678214.1, -1407821.1, 13478.847, 0.11395658, 0.1874431, -1407150.9, 12707.883, 0.0024150687, 9.997623, 10.001196 
1.6150287e+3, 1.6511975e+2, -1596555.6, -1309518.3, 16551.457, 0.1578324, 0.20872119, -1308567.0, 13276.921, 0.0002938315, 9.997458, 10.0012865 
1.6150379e+3, 1.7511973e+2, -1519532.9, -1206127.8, 42932.29, 0.08213636, 0.031414427, -1200353.0, 23487.64, 0.000004294035, 9.997261, 10.001416 
1.6150475e+3, 1.851209e+2, -1392438.1, -1174251.0, -4505.0674, 0.08525864, 0.051150277, -1174158.0, -48329.598, 0.0, 9.99779, 10.000706 
1.6150574e+3, 1.951231e+2, -1102128.6, -969440.8, 30119.402, 0.2030311, 0.15262534, -962923.94, 64884.836, 0.0, 9.999048, 10.000832 
1.6150664e+3, 2.0512411e+2, -1052649.9, -1011702.1, 40394.555, 0.16888149, 0.23003799, -986889.2, -57088.523, 0.0, 9.999239, 9.999779 
1.6150743e+3, 2.1512389e+2, -1032394.3, -933706.3, 45478.563, -0.0051002046, 0.18551125, -915944.94, -84140.97, 0.0, 9.998646, 9.999919 
1.6150834e+3, 2.2512369e+2, -932843.25, -838209.8, 34828.17, -0.055838477, 0.18218914, -826773.9, -92969.14, 0.0, 9.998652, 9.999903 
1.6150936e+3, 2.3512338e+2, -707820.9, -658606.44, 69157.76, 0.018582663, 0.11123395, -609808.56, 25995.768, 0.0, 9.999454, 10.000063 
1.6151038e+3, 2.451223e+2, -640566.25, -776801.06, 56463.824, 0.0788319, 0.09327573, -620206.8, -82393.78, 0.0, 10.000076, 9.9983015 
1.615114e+3, 2.5512043e+2, -468146.88, -628144.56, 59494.953, 0.13619995, 0.024644429, -448448.84, -8617.617, 0.00000000987263, 10.000533, 9.998423 
1.615124e+3, 2.65119e+2, -298765.2, -574255.06, 61452.54, 0.12536588, 0.082392715, -285678.8, 56166.516, 0.000004852571, 10.0013685, 9.997715 
1.615134e+3, 2.7511778e+2, -9018.981, -368400.5, 54505.62, 0.060590807, 0.14149196, -934.2588, 242923.08, 0.00006465758, 10.002631, 9.997845 
1.6151433e+3, 2.8511542e+2, 136539.89, -325977.06, -15248.179, 0.002632787, 0.16317555, 137042.05, 282921.6, 0.0003366383, 10.003247, 9.997183 
1.6151519e+3, 2.9511184e+2, 271781.9, -178595.67, 23101.783, -0.05546044, 0.016899332, 272963.78, 320875.47, 0.0010767062, 10.00338, 9.997445 
1.6151622e+3, 3.0510852e+2, 313087.78, -237058.98, 43403.723, -0.0187444, -0.0041223355, 316491.06, 316491.06, 0.0024076046, 10.003828, 9.996483 
1.6151738e+3, 3.1510848e+2, 485955.4, 28084.729, 26661.785, 0.11346368, 0.28356397, 487502.7, 487502.7, 0.0041745566, 10.0042095, 9.998108 
1.624986e+3, 1.2510249e+2, -1965264.1, -1838788.9, 129495.86, 0.12845303, 0.018829824, -1757914.8, -43906.996, 0.03179242, 9.998214, 9.999971 
1.6249965e+3, 1.3510598e+2, -1959992.0, -1603872.5, -13465.012, 0.14888781, 0.1827733, -1603364.1, 12612.797, 0.019603958, 9.996847, 10.001579 
1.6250053e+3, 1.4510684e+2, -1994648.3, -1621257.4, 24984.354, 0.052546818, 0.14104156, -1619593.0, -101622.32, 0.009062119, 9.996174, 10.001103 
1.6250163e+3, 1.5510888e+2, -1717541.0, -1417453.9, 14312.686, 0.14759338, 0.18563648, -1416772.8, 3178.4136, 0.002624408, 9.997324, 10.001269 
1.6250265e+3, 1.6511002e+2, -1563062.6, -1292695.9, 11176.655, 0.18993649, 0.17821999, -1292234.6, 29704.197, 0.00032476612, 9.997694, 10.001285 
1.6250357e+3, 1.751101e+2, -1490925.1, -1184877.3, -3989.7192, 0.13199072, 0.008552596, -1184825.3, 39109.45, 0.000005034694, 9.9974375, 10.001467 
1.6250454e+3, 1.8511166e+2, -1437096.0, -1171671.5, 9682.171, 0.13669169, 0.05465562, -1171318.9, -45399.574, 0.0, 9.997392, 10.000919 
1.625056e+3, 1.951146e+2, -1262929.4, -1011972.2, -1889.8486, 0.21135627, 0.2049477, -1011957.94, 15935.302, 0.0, 9.997827, 10.00112 
1.6250652e+3, 2.0511568e+2, -1180135.8, -1086966.5, 4717.75, 0.16328795, 0.28061205, -1086728.3, -156844.23, 0.0, 9.998403, 9.999672 
1.6250731e+3, 2.1511483e+2, -964850.56, -916089.6, -3868.3184, -0.0068322485, 0.18431361, -915784.6, -83892.27, 0.0, 9.999148, 9.999808 
1.6250826e+3, 2.251143e+2, -813887.5, -801636.5, 6109.235, -0.026362794, 0.16331685, -799110.75, -65214.332, 0.0, 9.999545, 9.999728 
1.6250938e+3, 2.3511393e+2, -695848.0, -677961.5, -40853.645, 0.08749538, 0.106784835, -645083.7, -9185.928, 0.0, 9.999621, 9.999861 
1.6251047e+3, 2.4511302e+2, -593122.25, -744915.56, -13349.856, 0.16081412, 0.1132189, -591957.06, -54051.477, 0.0, 10.00037, 9.998372 
1.6251154e+3, 2.5511155e+2, -271590.94, -526825.75, -9190.197, 0.17798778, 0.07867964, -271260.47, 168659.83, 0.000000011745934, 10.001851, 9.99848 
1.6251262e+3, 2.6511005e+2, -146782.13, -542078.2, 37568.46, 0.15628654, 0.14777407, -143243.34, 198692.22, 0.0000048598445, 10.002597, 9.997344 
1.625137e+3, 2.7510834e+2, -32369.178, -423810.97, 4781.067, 0.1103865, 0.19777602, -32310.79, 211642.81, 0.00006306325, 10.002653, 9.997452 
1.6251469e+3, 2.8510576e+2, 82723.33, -327988.84, -46115.363, 0.06233446, 0.21150796, 87837.55, 233815.19, 0.00033149842, 10.002795, 9.997375 
1.6251555e+3, 2.9510236e+2, 238716.84, -177489.72, -71013.03, -0.012367614, 0.06648312, 250499.5, 298507.38, 0.001055369, 10.003083, 9.997592 
1.625166e+3, 3.0509943e+2, 326873.53, -170664.83, 16099.078, -0.01272853, 0.05083047, 327393.9, 327393.9, 0.0023387242, 10.003652, 9.997039 
1.6251783e+3, 3.1509882e+2, 549794.4, 101747.516, -47688.543, 0.1555675, 0.23447642, 554814.0, 554814.0, 0.004022714, 10.004406, 9.998558 
1.6349843e+3, 1.2509221e+2, -2012361.6, -1968097.1, -73704.08, 0.055726457, 0.17963791, -1913274.0, -199163.78, 0.03398967, 9.9983425, 9.999023 
1.6349918e+3, 1.3509469e+2, -1844526.0, -1372935.4, -62499.3, -0.06308558, 0.077375025, -1364793.0, 251296.66, 0.02102759, 9.996864, 10.003191 
1.6350038e+3, 1.4509928e+2, -1968268.6, -1612130.1, 33575.445, 0.23582022, 0.3267551, -1608992.4, -90945.984, 0.009775217, 9.996348, 10.001093 
1.6350126e+3, 1.5509954e+2, -1721337.3, -1431605.8, 67372.94, 0.006515915, 0.20135403, -1416705.5, 3338.761, 0.002860367, 9.997346, 10.001166 
1.6350223e+3, 1.6510038e+2, -1559618.4, -1300409.9, -15636.221, -0.0471545, 0.17341991, -1299470.0, 22565.441, 0.00036087315, 9.997752, 10.001207 
1.6350336e+3, 1.7510197e+2, -1503973.9, -1205981.5, -5393.9067, 0.1546866, 0.16779472, -1205884.0, 18134.635, 0.000005927034, 9.997414, 10.001332 
1.6350438e+3, 1.8510368e+2, -1422462.6, -1156419.8, 7126.485, 0.18564221, 0.23035993, -1156229.0, -30227.176, 0.0, 9.997446, 10.001004 
1.6350523e+3, 1.9510537e+2, -1267879.1, -1008658.8, 25657.572, 0.025578493, 0.2512557, -1006143.6, 21843.242, 0.0, 9.99776, 10.001182 
1.6350617e+3, 2.0510577e+2, -1197349.3, -1087134.1, 18171.432, -0.05540829, 0.2515137, -1084215.5, -154232.73, 0.0, 9.998249, 9.999748 
1.6350721e+3, 2.1510473e+2, -985999.7, -919346.9, 40117.75, -0.03951434, 0.1295147, -900518.9, -68528.305, 0.0, 9.998968, 9.999877 
1.635083e+3, 2.251042e+2, -917535.9, -955455.6, -2351.5464, 0.01710025, 0.15088429, -917390.56, -183394.22, 0.0, 9.999285, 9.998794 
1.6350941e+3, 2.3510402e+2, -793027.1, -825130.06, -21904.13, 0.1387081, 0.20280908, -781922.75, -145921.66, 0.0, 9.9993925, 9.998956 
1.6351053e+3, 2.4510355e+2, -600210.6, -694226.3, 28677.205, 0.15729286, 0.27132738, -592153.75, -54147.406, 0.0, 10.000095, 9.998848 
1.6351166e+3, 2.5510266e+2, -266547.03, -465795.0, 63610.254, 0.06990403, 0.25211304, -247971.17, 192042.02, 0.000000006263202, 10.001649, 9.99899 
1.6351281e+3, 2.6510075e+2, -194407.56, -600302.56, 24252.89, 0.051685385, 0.26504824, -192963.55, 149067.92, 0.000005059976, 10.002405, 9.997045 
1.63514e+3, 2.7509758e+2, -82778.36, -480850.3, 32445.096, 0.11618663, 0.18822028, -80151.234, 163911.75, 0.000060994436, 10.002437, 9.9971695 
1.6351505e+3, 2.8509477e+2, 33609.727, -359694.63, -49928.164, 0.10941765, 0.19677126, 39848.902, 185938.22, 0.0003219481, 10.002512, 9.997284 
1.6351596e+3, 2.9509237e+2, 187682.61, -212268.83, -32372.059, 0.037928645, 0.16671368, 190285.86, 238396.52, 0.0010251402, 10.0028, 9.997479 
1.6351697e+3, 3.0508962e+2, 327447.38, -90279.05, 26525.035, -0.02554017, 0.14275488, 329124.94, 329124.94, 0.0022546886, 10.003317, 9.997751 
1.6351828e+3, 3.150866e+2, 503164.75, 129719.445, 47853.67, 0.10796472, 0.0012194862, 509199.25, 509199.25, 0.0038423375, 10.003883, 9.998994 
1.6449815e+3, 1.2508336e+2, -2514108.8, -2114751.8, 62431.625, 0.14186, 0.24762249, -2105219.3, -391021.03, 0.036383986, 9.994539, 9.99985 
1.6449882e+3, 1.3508451e+2, -1872744.4, -1364033.4, 3971.039, -0.08551435, -0.0055904365, -1364002.4, 252187.0, 0.022584815, 9.9966, 10.00338 
1.645001e+3, 1.4509046e+2, -1807927.0, -1511751.1, 82516.695, 0.26424256, 0.3602527, -1490313.1, 27818.678, 0.010560797, 9.997335, 10.001315 
1.6450101e+3, 1.5509054e+2, -1757711.0, -1423875.3, 110331.016, 0.054856524, 0.19064887, -1390706.9, 29423.467, 0.0031241647, 9.996971, 10.001405 
1.64502e+3, 1.6509125e+2, -1694067.8, -1413270.0, 55370.273, 0.005284836, 0.15618438, -1402746.0, -80622.586, 0.0004029895, 9.997036, 10.000782 
1.6450313e+3, 1.7509274e+2, -1470068.3, -1243642.6, 14104.71, 0.16308555, 0.18949193, -1242767.4, -18657.71, 0.0000070009137, 9.997868, 10.000868 
1.6450416e+3, 1.8509413e+2, -1323502.9, -1143398.8, 27499.25, 0.18439622, 0.25996923, -1139293.6, -13196.28, 0.0, 9.998295, 10.000665 
1.6450503e+3, 1.9509524e+2, -1172179.5, -999307.0, -15977.372, 0.030272162, 0.25276035, -997842.75, 30245.516, 0.0, 9.998591, 10.000829 
1.6450605e+3, 2.0509551e+2, -1057079.5, -988338.25, 14330.945, -0.036693316, 0.24774471, -985470.25, -55385.625, 0.0, 9.999086, 10.000011 
1.6450717e+3, 2.1509495e+2, -839004.3, -810807.06, 17909.822, -0.02196667, 0.14103732, -802112.4, 29974.438, 0.0, 9.999839, 10.000182 
1.6450828e+3, 2.2509442e+2, -775796.0, -921190.8, 16571.28, 0.048224986, 0.1619035, -773931.25, -39839.055, 0.0, 10.000404, 9.998503 
1.6450945e+3, 2.3509371e+2, -609187.75, -769250.06, 15142.436, 0.17692514, 0.1950047, -607767.8, 28334.432, 0.0, 10.000798, 9.998674 
1.6451064e+3, 2.4509306e+2, -445564.84, -648520.3, 121754.266, 0.18871918, 0.27289316, -388543.9, 149566.19, 0.0, 10.001269, 9.998606 
1.6451181e+3, 2.5509226e+2, -259024.36, -497260.88, 70491.234, 0.062171686, 0.28943658, -239729.56, 200388.11, 0.000000005166704, 10.001832, 9.998702 
1.6451302e+3, 2.6509035e+2, -211829.45, -566582.94, 19011.186, 0.051280893, 0.29991695, -210813.56, 131322.2, 0.000005473011, 10.002123, 9.997397 
1.6451426e+3, 2.7508712e+2, -72547.86, -430208.7, 26925.87, 0.1436184, 0.1863752, -70532.16, 173633.28, 0.000058881178, 10.002343, 9.997543 
1.6451536e+3, 2.8508428e+2, 53646.94, -376581.5, 9565.504, 0.16766506, 0.18160833, 53859.51, 200051.23, 0.0003079229, 10.002758, 9.997067 
1.6451633e+3, 2.950818e+2, 216446.53, -225645.05, -24916.117, 0.13689442, 0.1712336, 217846.38, 266061.03, 0.0009851714, 10.003118, 9.997244 
1.6451739e+3, 3.0507898e+2, 365618.94, -85197.18, 56192.23, 0.061887845, 0.15780498, 372517.47, 372517.47, 0.002164133, 10.003599, 9.9976635 
1.6451871e+3, 3.1507567e+2, 482150.38, 66572.93, -65998.6, 0.16603474, -0.0061407103, 492379.94, 492379.94, 0.0036700214, 10.003972, 9.998506 
1.6549765e+3, 1.2507586e+2, -2282270.5, -1691951.8, 17966.17, 0.10511766, 0.1988274, -1691405.4, 22867.096, 0.03897044, 9.994753, 10.00267 
1.6549858e+3, 1.3507582e+2, -1964903.9, -1553492.8, 97570.5, -0.00242558, -0.042396996, -1531525.8, 84746.78, 0.024272982, 9.996603, 10.00206 
1.6549957e+3, 1.4508054e+2, -1761624.0, -1435465.9, 49174.61, -0.03990355, 0.24691662, -1428213.1, 90011.78, 0.0114189135, 9.997418, 10.0018015 
1.6550085e+3, 1.5508196e+2, -1716673.1, -1345514.8, 107384.61, 0.16198805, 0.15669444, -1316685.3, 103523.56, 0.0034161112, 9.997004, 10.001928 
1.6550195e+3, 1.6508268e+2, -1725949.9, -1511210.4, 65978.12, 0.20323789, 0.13545401, -1492558.8, -170356.36, 0.00045137366, 9.997161, 10.000055 
1.6550283e+3, 1.7508262e+2, -1518271.0, -1339344.4, 56149.53, 0.04832045, 0.079736605, -1323183.6, -98977.3, 0.000008273259, 9.99785, 10.000217 
1.6550383e+3, 1.8508317e+2, -1378104.3, -1265799.4, 25542.291, 0.0059328037, 0.1391337, -1260263.0, -134058.78, 0.0, 9.9983225, 9.999818 
1.6550499e+3, 1.9508417e+2, -1242550.5, -1129625.0, 6307.0947, 0.10253475, 0.21000396, -1129273.8, -101076.35, 0.0, 9.998514, 9.999977 
1.655061e+3, 2.0508495e+2, -1050485.1, -937642.25, 29014.764, 0.071834534, 0.27659413, -930618.94, -429.3859, 0.0, 9.99893, 10.000435 
1.6550712e+3, 2.1508542e+2, -840020.2, -760910.4, 57847.906, -0.06811463, 0.22772172, -730387.0, 101794.88, 0.0, 9.999618, 10.00063 
1.6550824e+3, 2.2508475e+2, -786844.6, -888068.7, 13935.19, -0.06577193, 0.19551182, -784961.25, -50775.11, 0.0, 10.00016, 9.998849 
1.6550945e+3, 2.3508286e+2, -617064.6, -736535.5, 45641.93, 0.08025632, 0.07820444, -601623.56, 34579.477, 0.0, 10.0005865, 9.999003 
1.655107e+3, 2.4508151e+2, -552846.7, -812282.8, 132766.11, 0.103185154, 0.12006528, -496947.94, 41269.94, 0.0, 10.0010195, 9.997598 
1.6551198e+3, 2.550804e+2, -365283.47, -656769.8, 107654.75, 0.03119872, 0.19943786, -329834.44, 110398.65, 0.00000000856411, 10.001585, 9.997714 
1.6551325e+3, 2.650788e+2, -193323.23, -475987.03, 11113.576, 0.02408329, 0.25918394, -192886.95, 149361.4, 0.0000057188686, 10.001886, 9.9981365 
1.6551444e+3, 2.7507678e+2, -44016.87, -328051.44, 56063.234, 0.065867335, 0.18309486, -33351.496, 210912.33, 0.00005720022, 10.002147, 9.998342 
1.6551557e+3, 2.8507408e+2, -11917.856, -446602.22, 4156.078, 0.090473264, 0.16668656, -11878.123, 134409.38, 0.0002952708, 10.002471, 9.996726 
1.6551666e+3, 2.9507044e+2, 159517.86, -293209.8, 16234.543, 0.1234539, 0.07010883, 160099.27, 208421.3, 0.0009504649, 10.002887, 9.996895 
1.6551776e+3, 3.0506718e+2, 235205.94, -265581.5, 53932.45, 0.059355497, 0.08339755, 240948.36, 240948.36, 0.002096844, 10.003233, 9.996591 
1.6551907e+3, 3.1506503e+2, 300433.56, -196070.31, 15513.95, 0.06242264, 0.14539023, 300917.84, 300917.84, 0.0035559188, 10.003471, 9.9969425 
1.664972e+3, 1.2506661e+2, -2086575.3, -1542791.1, -16810.418, 0.15040167, 0.17763521, -1542271.9, 172090.48, 0.041736465, 9.995808, 10.003237 
1.6649832e+3, 1.3506664e+2, -2008637.5, -1641513.8, 22662.139, 0.07970393, -0.001706657, -1640120.1, -23758.84, 0.026087236, 9.99657, 10.001465 
1.6649926e+3, 1.4507043e+2, -1923091.6, -1510937.8, -12350.656, -0.037848394, 0.22978789, -1510568.0, 7754.998, 0.012349877, 9.996333, 10.001782 
1.6650063e+3, 1.5507196e+2, -1647211.8, -1295821.0, -12076.3545, 0.22789696, 0.14025688, -1295406.4, 124899.77, 0.003737191, 9.997432, 10.0020485 
1.665018e+3, 1.6507292e+2, -1581907.9, -1453538.6, -4018.4963, 0.29798377, 0.14553155, -1453413.0, -131115.22, 0.00050616945, 9.998223, 9.999924 
1.6650267e+3, 1.7507297e+2, -1392749.9, -1294901.9, -4904.1, 0.0670162, 0.11058324, -1294656.8, -70355.43, 0.000009797576, 9.99878, 10.00007 
1.665037e+3, 1.8507315e+2, -1287316.8, -1226582.4, 28098.44, 0.0082368, 0.14544138, -1215577.0, -89274.94, 0.0, 9.998972, 9.999768 
1.665049e+3, 1.9507352e+2, -1135886.1, -1079001.9, 42727.4, 0.13040102, 0.15324149, -1056115.8, -27816.252, 0.0, 9.999256, 9.999956 
1.6650604e+3, 2.0507419e+2, -1035480.56, -962545.75, 92426.36, 0.13898005, 0.22146244, -899652.7, 30640.04, 0.0, 9.999171, 10.000151 
1.6650712e+3, 2.1507506e+2, -980438.8, -862580.75, 42325.7, 0.028666655, 0.24564917, -848955.75, -16672.816, 0.0, 9.998792, 10.000337 
1.665083e+3, 2.2507441e+2, -872280.1, -929173.5, 24591.527, 0.010290275, 0.23188378, -863124.2, -128836.59, 0.0, 9.999579, 9.998832 
1.6650954e+3, 2.3507223e+2, -472590.9, -664537.0, -4040.4277, 0.06969469, 0.08003883, -472505.9, 163801.13, 0.0, 10.001567, 9.999009 
1.6651082e+3, 2.4507056e+2, -404819.25, -758404.0, 75935.43, 0.088276446, 0.09646797, -389201.3, 149122.92, 0.0, 10.00209, 9.997471 
1.6651215e+3, 2.550692e+2, -428424.1, -699895.0, 87110.91, 0.069158055, 0.16744895, -402875.88, 37465.387, 0.0000000057748837, 10.001198, 9.997615 
1.6651344e+3, 2.6506755e+2, -292225.38, -516136.63, 58293.934, 0.07613474, 0.2201702, -277958.03, 64399.164, 0.0000055479773, 10.00117, 9.998207 
1.6651466e+3, 2.7506554e+2, -64895.58, -346720.22, 11932.971, 0.0833357, 0.15055038, -64391.215, 179981.17, 0.000055377644, 10.002008, 9.9983 
1.6651584e+3, 2.8506303e+2, 29687.834, -426667.7, -24043.89, 0.11494613, 0.15427943, 30951.13, 177346.25, 0.00028510438, 10.002749, 9.996712 
1.66517e+3, 2.950598e+2, 224733.94, -259929.4, -43044.19, 0.16731317, 0.10519988, 228527.11, 276953.06, 0.0009269267, 10.003357, 9.996872 
1.6651814e+3, 3.0505618e+2, 323897.4, -237158.6, 76522.5, 0.09680996, 0.08799603, 334147.06, 334147.06, 0.0020627284, 10.003897, 9.996462 
1.6651946e+3, 3.150547e+2, 348882.88, -194703.97, 32020.123, 0.10223733, 0.22848673, 350762.53, 350762.53, 0.0035152659, 10.003904, 9.996732 
1.6749677e+3, 1.2505537e+2, -2193412.8, -1776722.5, 138343.38, 0.056812383, 0.14558597, -1734974.5, -20504.36, 0.044670317, 9.9959, 10.001529 
1.6749793e+3, 1.3505721e+2, -1994599.3, -1630619.6, 10632.252, 0.017219529, 0.13148712, -1630309.4, -13855.607, 0.028026333, 9.996635, 10.0015135 
1.674991e+3, 1.4506012e+2, -1939990.9, -1565290.5, -3763.378, 0.120852105, 0.29598778, -1565252.6, -46826.58, 0.013357116, 9.996411, 10.001372 
1.6750032e+3, 1.5506066e+2, -1669008.6, -1344214.4, 45316.098, 0.12988155, 0.14340727, -1338010.3, 82410.94, 0.004090086, 9.997441, 10.001714 
1.6750152e+3, 1.6506203e+2, -1536849.5, -1383156.1, 2432.09, 0.14329246, 0.17993999, -1383117.6, -60708.17, 0.0005678562, 9.998317, 10.000366 
1.6750261e+3, 1.7506386e+2, -1370734.9, -1239603.9, 24211.205, 0.1035701, 0.28650144, -1235276.5, -10882.439, 0.000011659807, 9.998741, 10.000469 
1.6750367e+3, 1.8506427e+2, -1232473.4, -1119015.8, 20759.564, 0.04489341, 0.28827634, -1115336.6, 11052.557, 0.0, 9.998988, 10.000507 
1.6750473e+3, 1.9506328e+2, -1098214.3, -979195.3, 62604.258, 0.00092362735, 0.08760409, -952329.6, 76064.984, 0.0, 9.999159, 10.000694 
1.6750589e+3, 2.0506321e+2, -1116130.3, -1106071.8, 62969.42, 0.03544309, 0.09056572, -1047931.06, -117536.56, 0.0, 9.999061, 9.999222 
1.6750716e+3, 2.1506388e+2, -1074972.3, -1018520.1, 43315.74, 0.14270186, 0.19066313, -995045.5, -162655.16, 0.0, 9.99861, 9.999358 
1.675084e+3, 2.2506344e+2, -940453.9, -1008751.75, 88127.984, 0.12885052, 0.2666528, -880089.94, -145693.39, 0.0, 9.999313, 9.998411 
1.6750968e+3, 2.3506178e+2, -536947.06, -744851.8, 83960.36, 0.023477368, 0.2106922, -507275.16, 129138.8, 0.0, 10.001338, 9.998568 
1.6751097e+3, 2.4506019e+2, -393404.8, -670854.6, 26471.324, 0.0003012486, 0.2209547, -390901.78, 147527.2, 0.0, 10.001818, 9.9982 
1.6751228e+3, 2.5505862e+2, -409623.94, -607042.1, 72736.4, 0.052196838, 0.19511949, -385719.53, 54722.633, 0.0000000017385277, 10.000968, 9.998359 
1.6751356e+3, 2.650564e+2, -379633.03, -636469.6, 75700.59, 0.06399734, 0.18531643, -358981.4, -16518.904, 0.0000048816705, 10.000905, 9.997513 
1.6751486e+3, 2.7505326e+2, -143749.9, -465960.88, 66246.66, 0.057892215, 0.07193977, -130661.25, 113831.34, 0.000051551386, 10.001809, 9.997582 
1.6751611e+3, 2.850509e+2, -13001.732, -440277.34, -13582.252, 0.07115318, 0.13313448, -12570.415, 133945.11, 0.0002714196, 10.002432, 9.996773 
1.6751732e+3, 2.9504955e+2, 201086.31, -252335.25, 7798.0166, 0.110765785, 0.25108665, 201220.38, 249750.22, 0.0008993855, 10.003097, 9.997058 
1.6751847e+3, 3.0504563e+2, 307383.9, -162389.92, 61229.76, 0.004433668, 0.15342046, 315233.38, 315233.38, 0.0020323566, 10.003456, 9.997179 
1.6751978e+3, 3.1504375e+2, 356402.13, -75406.44, 89308.53, -0.024795782, 0.18582894, 374144.3, 374144.3, 0.0035038688, 10.003481, 9.997746 
1.6849644e+3, 1.250441e+2, -2115364.5, -1760683.0, 111405.78, 0.13195999, 0.19452883, -1728593.6, -14012.917, 0.04776628, 9.996569, 10.001292 
1.6849755e+3, 1.3504544e+2, -2082819.1, -1649095.6, -71267.13, 0.0069547025, 0.107809484, -1637685.5, -21116.64, 0.030093629, 9.995956, 10.001702 
1.6849892e+3, 1.450482e+2, -1962275.1, -1576456.4, 8005.4653, 0.32707286, 0.243369, -1576290.3, -57746.926, 0.0144471, 9.996247, 10.001383 
1.6850004e+3, 1.5504915e+2, -1754209.3, -1392662.9, 49813.258, 0.14798963, 0.13559301, -1385925.3, 34611.063, 0.004479329, 9.996881, 10.00166 
1.6850123e+3, 1.6505077e+2, -1649642.9, -1376335.4, 41497.867, 0.078711845, 0.17703295, -1370173.4, -47652.53, 0.0006375465, 9.997278, 10.000917 
1.6850245e+3, 1.7505302e+2, -1444646.4, -1207598.5, 51674.777, 0.120512016, 0.26341105, -1196823.5, 27674.545, 0.00001399049, 9.997948, 10.001065 
1.6850358e+3, 1.8505368e+2, -1350331.5, -1198125.3, 30130.705, 0.11288512, 0.2695059, -1192377.6, -65887.8, 0.0, 9.998285, 10.000298 
1.6850464e+3, 1.9505276e+2, -1217270.1, -1064742.6, -24257.047, 0.034035724, 0.09964346, -1060977.9, -32481.31, 0.0, 9.99846, 10.000447 
1.6850583e+3, 2.050522e+2, -1086997.0, -1119993.4, 5208.8804, 0.06598959, 0.07988886, -1086194.3, -155692.66, 0.0, 9.999387, 9.998966 
1.6850719e+3, 2.15052e+2, -729796.8, -873537.56, 3338.4749, 0.20328724, 0.11398413, -729719.3, 102785.56, 0.0, 10.001085, 9.999152 
1.685085e+3, 2.2505145e+2, -629856.7, -889201.1, 111575.28, 0.19520652, 0.20355548, -588461.9, 146050.25, 0.0, 10.001553, 9.998178 
1.685098e+3, 2.3505044e+2, -639920.1, -821860.25, 100564.51, 0.03805326, 0.23965341, -595285.0, 41240.07, 0.0, 10.000735, 9.998349 
1.6851112e+3, 2.4504901e+2, -517560.84, -695294.4, 43348.387, 0.023150355, 0.2619601, -507552.03, 30986.473, 0.0, 10.000818, 9.998498 
1.685125e+3, 2.5504705e+2, -262288.25, -511380.0, 17993.303, 0.12999737, 0.16769703, -260995.2, 179558.3, 0.0000000018399801, 10.001855, 9.998592 
1.685138e+3, 2.6504466e+2, -196424.75, -581981.3, 62296.355, 0.15719968, 0.14487003, -186609.1, 155966.45, 0.0000039092515, 10.002296, 9.997224 
1.685151e+3, 2.7504167e+2, -101496.445, -464315.88, 48035.8, 0.11028232, 0.07423869, -95244.44, 149361.36, 0.000046409757, 10.002215, 9.997379 
1.685164e+3, 2.8503934e+2, -7935.5645, -449114.94, 25665.398, 0.11861942, 0.15095212, -6447.511, 140182.1, 0.00025645504, 10.002495, 9.996704 
1.685177e+3, 2.9503787e+2, 182792.34, -271039.53, -8673.187, 0.17924732, 0.2693103, 182958.05, 231603.55, 0.000866263, 10.002998, 9.996996 
1.6851887e+3, 3.0503362e+2, 305233.9, -163991.81, 37895.61, 0.08235321, 0.1406513, 308274.72, 308274.72, 0.0019892203, 10.0033865, 9.997237 
1.6852023e+3, 3.150318e+2, 373519.8, -28109.67, -51275.61, 0.091421574, 0.19540244, 379962.75, 379962.75, 0.0034770123, 10.003362, 9.998186 
1.6949604e+3, 1.2503208e+2, -2013381.6, -1600405.4, -169521.81, -0.015093637, 0.25024247, -1539732.5, 174969.03, 0.051028147, 9.996733, 10.002387 
1.6949704e+3, 1.3503109e+2, -2058865.1, -1592862.6, -61471.137, -0.12349204, -0.0967214, -1584890.3, 31819.246, 0.032295942, 9.995922, 10.002112 
1.6949871e+3, 1.4503469e+2, -1913081.6, -1504986.0, 20612.719, 0.44503713, 0.06857572, -1503947.6, 14727.262, 0.015627254, 9.9963665, 10.0018215 
1.6949977e+3, 1.5503754e+2, -1739212.0, -1371162.9, 83085.53, 0.16023707, 0.13577263, -1353276.0, 67373.85, 0.004910431, 9.99692, 10.001791 
1.6950087e+3, 1.650393e+2, -1582425.1, -1255605.1, 45890.43, -0.047958467, 0.1458561, -1249283.6, 73347.195, 0.0007170378, 9.997354, 10.00171 
1.6950215e+3, 1.7504051e+2, -1389582.6, -1090561.4, 89857.56, 0.0031271144, 0.047569033, -1065636.4, 158976.14, 0.000016975888, 9.997934, 10.001874 
1.6950342e+3, 1.8504147e+2, -1425677.3, -1367795.8, 20308.738, 0.07023545, 0.10024796, -1361381.0, -234777.72, 0.0, 9.998336, 9.99911 
1.6950458e+3, 1.950419e+2, -1314271.3, -1245514.5, -9202.679, 0.09778966, 0.18564747, -1244304.1, -215698.36, 0.0, 9.998372, 9.999247 
1.6950582e+3, 2.050412e+2, -1090347.8, -1083493.9, 52129.11, 0.091805205, 0.19455753, -1034679.2, -104065.75, 0.0, 9.999198, 9.999312 
1.695072e+3, 2.1503936e+2, -732458.5, -839230.44, 79044.086, 0.09017685, 0.032280084, -690460.9, 142165.72, 0.0, 10.000902, 9.999483 
1.6950855e+3, 2.2503841e+2, -662369.75, -891504.3, 65910.49, 0.058336183, 0.057009995, -644763.44, 89871.625, 0.0, 10.001283, 9.998286 
1.6950983e+3, 2.3503818e+2, -674500.06, -828449.5, 88250.73, -0.010278958, 0.16061582, -634371.0, 2269.6692, 0.0, 10.000462, 9.998432 
1.6951121e+3, 2.4503683e+2, -583205.8, -754283.56, 69822.29, 0.019373957, 0.19983292, -558327.06, -19672.633, 0.0, 10.000489, 9.998254 
1.6951275e+3, 2.5503433e+2, -310843.28, -561435.0, 74303.164, 0.17980304, 0.07961303, -290468.25, 150208.47, 0.0000000033657745, 10.001637, 9.998355 
1.695141e+3, 2.6503226e+2, -232457.02, -589981.25, 45804.85, 0.20069468, 0.09692228, -226681.92, 116014.81, 0.0000030031388, 10.002019, 9.997296 
1.6951534e+3, 2.7503055e+2, -126619.58, -465220.13, 64677.414, 0.105643414, 0.14117846, -114685.89, 130028.69, 0.000041455987, 10.002004, 9.99747 
1.6951667e+3, 2.8502798e+2, -64308.64, -502264.3, 25841.56, 0.10425218, 0.19670619, -62789.133, 83951.54, 0.00024337543, 10.002221, 9.996472 
1.6951804e+3, 2.950244e+2, 137306.0, -322312.72, 32534.084, 0.20844877, 0.13252684, 139597.5, 188374.17, 0.00083297, 10.002794, 9.996752 
1.695193e+3, 3.0501983e+2, 193752.27, -291094.1, 23406.941, 0.13934667, 0.020858558, 194879.66, 194879.66, 0.0019296512, 10.002971, 9.996547 
1.6952066e+3, 3.1501934e+2, 304068.94, -38473.31, 5023.592, 0.14777616, 0.25857517, 304142.6, 304142.6, 0.003404854, 10.002811, 9.99836 
1.7049572e+3, 1.2502168e+2, -2039004.5, -1606974.8, 15326.719, 0.0051365956, 0.1947147, -1606431.8, 108369.04, 0.054460447, 9.996531, 10.002434 
1.7049667e+3, 1.350201e+2, -2045761.9, -1681377.3, 39599.465, -0.10579646, -0.11656032, -1677123.5, -60306.15, 0.034638863, 9.996426, 10.001261 
1.7049833e+3, 1.4502423e+2, -1900536.6, -1516286.8, 101388.15, 0.41855502, 0.14995372, -1491175.6, 27603.281, 0.016903277, 9.996556, 10.001649 
1.7049949e+3, 1.5502666e+2, -1710027.8, -1375659.1, 101970.53, 0.17604499, 0.19118817, -1347015.5, 73742.08, 0.00538814, 9.997216, 10.001607 
1.7050067e+3, 1.6502778e+2, -1540003.1, -1252166.5, 47366.363, -0.0013360142, 0.15398309, -1244572.3, 78171.87, 0.0008082668, 9.997719, 10.00155 
1.70502e+3, 1.7502838e+2, -1343288.5, -1083215.1, -7578.804, 0.047379006, 0.008566508, -1082994.5, 141736.31, 0.000020835996, 9.998311, 10.001744 
1.7050332e+3, 1.850292e+2, -1332627.1, -1342017.5, -46290.08, 0.1148953, 0.061331302, -1290794.8, -164071.86, 0.0, 9.999049, 9.998958 
1.7050453e+3, 1.9502982e+2, -1060987.4, -1143407.5, -23509.414, 0.12692313, 0.18575379, -1054753.1, -26029.121, 0.0, 10.00018, 9.999094 
1.7050584e+3, 2.0502934e+2, -875098.06, -959092.75, 106226.21, 0.11754844, 0.21485764, -802868.5, 127861.07, 0.0, 10.000593, 9.99948 
1.7050727e+3, 2.150278e+2, -793962.6, -851652.75, 91962.484, 0.09361184, 0.06656695, -726427.5, 106311.17, 0.0, 10.00042, 9.99962 
1.7050862e+3, 2.2502667e+2, -767689.8, -931895.0, 57364.64, 0.071117744, 0.061033364, -749634.8, -14887.078, 0.0, 10.000517, 9.998368 
1.7050993e+3, 2.3502575e+2, -615551.3, -785935.06, 44034.12, 0.042041063, 0.08341827, -604844.0, 31914.414, 0.0, 10.000814, 9.998541 
1.7051136e+3, 2.4502423e+2, -499696.38, -756629.1, 93846.914, 0.08115933, 0.11941424, -469068.9, 69705.38, 0.0, 10.001243, 9.997882 
1.705129e+3, 2.5502208e+2, -308241.22, -592579.6, 61081.125, 0.18365857, 0.0691093, -295675.22, 145120.78, 0.0000000026261497, 10.001814, 9.998047 
1.7051435e+3, 2.6502016e+2, -154078.75, -554913.6, 40235.906, 0.2077036, 0.11944513, -150079.77, 192735.75, 0.0000021613648, 10.002555, 9.997287 
1.7051566e+3, 2.7501842e+2, 79447.78, -373822.16, 16746.955, 0.14675173, 0.16558659, 80065.69, 324899.2, 0.000036656253, 10.003431, 9.997424 
1.7051703e+3, 2.8501585e+2, 199586.28, -360341.44, 23542.11, 0.17116311, 0.2154692, 200574.36, 347434.25, 0.00022921336, 10.00398, 9.996588 
1.7051844e+3, 2.9501212e+2, 348855.84, -208466.34, 12744.677, 0.26604173, 0.12991996, 349147.13, 398044.38, 0.0007930789, 10.004221, 9.996831 
1.7051966e+3, 3.050079e+2, 375391.63, -206184.8, 52907.926, 0.16754417, 0.05234562, 380165.63, 380165.63, 0.0018420495, 10.004226, 9.99651 
1.70521e+3, 3.1500703e+2, 452436.2, 68345.39, -10940.808, 0.18068373, 0.25265437, 452747.6, 452747.6, 0.0032654307, 10.003708, 9.998623 
1.7149548e+3, 1.2501335e+2, -2089298.0, -1728280.6, 129275.51, 0.045164295, 0.03613607, -1686763.4, 28110.723, 0.058051143, 9.996617, 10.001529 
1.7149642e+3, 1.3501315e+2, -2217159.3, -2029524.3, 54136.25, -0.013375613, 0.08847695, -2015025.3, -398139.03, 0.037118543, 9.996402, 9.998882 
1.7149767e+3, 1.4501704e+2, -1932005.6, -1613743.5, 111193.664, 0.054553777, 0.50091195, -1578743.9, -59890.27, 0.018276531, 9.99668, 10.000923 
1.7149912e+3, 1.5501636e+2, -1744210.8, -1450929.8, 141989.06, 0.061510023, 0.2829286, -1393451.8, 27409.24, 0.005915651, 9.997229, 10.001086 
1.7150058e+3, 1.6501622e+2, -1607091.5, -1404041.1, 51307.375, 0.08780517, 0.19827335, -1391813.0, -68952.25, 0.0009130136, 9.99778, 10.000472 
1.7150196e+3, 1.7501676e+2, -1427853.0, -1246662.9, 24985.424, 0.13787545, 0.15499197, -1243280.6, -18429.086, 0.000025810483, 9.99827, 10.000637 
1.7150326e+3, 1.8501696e+2, -1271396.5, -1214144.6, -17921.988, 0.10279991, 0.16016845, -1208997.1, -82149.47, 0.0, 9.9990425, 9.99984 
1.7150444e+3, 1.9501664e+2, -1009542.5, -1016384.0, 32089.553, 0.0031855502, 0.097142465, -980691.9, 48158.883, 0.0, 10.000094, 10.000007 
1.715058e+3, 2.0501669e+2, -900247.5, -976510.9, 86298.49, -0.003934945, 0.13898097, -844031.7, 86817.56, 0.0, 10.000445, 9.999433 
1.7150733e+3, 2.1501717e+2, -832663.25, -874812.25, 97496.66, 0.08942832, 0.19534543, -753989.44, 78853.586, 0.0, 10.0001745, 9.999578 
1.7150876e+3, 2.2501601e+2, -808260.1, -949092.1, 55759.61, 0.10782607, 0.18689579, -788856.6, -54004.08, 0.0, 10.000222, 9.998398 
1.7151007e+3, 2.3501311e+2, -642003.7, -798591.2, 70246.086, 0.06683666, 0.012162665, -615109.9, 21768.887, 0.0, 10.000622, 9.998553 
1.7151146e+3, 2.4501117e+2, -573164.6, -837415.75, 99307.51, 0.03757494, 0.024951076, -540005.1, -1106.5516, 0.0, 10.000947, 9.997462 
1.7151295e+3, 2.5501007e+2, -377933.1, -678599.2, 98819.51, 0.025429366, 0.121796764, -348362.5, 92550.76, 0.0000000000058928205, 10.001564, 9.997577 
1.7151445e+3, 2.650081e+2, -202387.13, -591264.75, 57128.38, 0.04118567, 0.19454363, -194168.33, 148766.64, 0.0000014626683, 10.002284, 9.997169 
1.7151597e+3, 2.7500522e+2, 35855.168, -405617.22, 66778.2, 0.09792196, 0.14204422, 45735.098, 290698.6, 0.000032258973, 10.00318, 9.997328 
1.7151743e+3, 2.8500283e+2, 172227.58, -339755.22, 15309.248, 0.15181516, 0.20190942, 172684.94, 319672.75, 0.00021422842, 10.003645, 9.996893 
1.7151882e+3, 2.9500076e+2, 333110.94, -176357.34, 49160.113, 0.18994446, 0.24078125, 337811.2, 386820.66, 0.0007459909, 10.003937, 9.997189 
1.7151996e+3, 3.049974e+2, 328266.22, -195494.4, 17056.74, 0.009494546, 0.21221326, 328821.1, 328821.1, 0.0017319233, 10.00379, 9.996785 
1.7152119e+3, 3.149943e+2, 383396.16, 82043.08, 17473.217, -0.069525115, 0.16221109, 384405.9, 384405.9, 0.0030784276, 10.0030775, 9.999005 
1.7249513e+3, 1.2500209e+2, -2183829.8, -1776453.0, -48096.68, 0.06698035, 0.06322385, -1770851.5, -55866.207, 0.06177432, 9.995975, 10.001489 
1.7249608e+3, 1.3500172e+2, -2113247.5, -2009708.4, -151282.03, -0.031079264, 0.10346647, -1901583.1, -284584.6, 0.039721623, 9.997241, 9.998594 
1.7249733e+3, 1.4500526e+2, -1884474.6, -1674072.8, 31870.521, 0.03091253, 0.5339425, -1669351.1, -150381.44, 0.019743169, 9.997348, 10.0002 
1.7249887e+3, 1.5500359e+2, -1701845.3, -1488034.8, 26057.9, 0.06093821, 0.27622306, -1484904.8, -63917.203, 0.006494274, 9.997742, 10.000608 
1.7250039e+3, 1.6500327e+2, -1610238.1, -1447546.3, -6422.1426, 0.13518398, 0.21738487, -1447293.1, -124303.07, 0.001032908, 9.997926, 10.000118 
1.7250182e+3, 1.7500387e+2, -1449986.6, -1296806.8, -5118.249, 0.17894141, 0.21777879, -1296635.9, -71654.58, 0.00003215152, 9.998276, 10.000298 
1.7250317e+3, 1.8500386e+2, -1303858.5, -1177350.1, 8367.297, 0.14739084, 0.19567147, -1176799.1, -49821.133, 0.0, 9.998601, 10.000299 
1.7250443e+3, 1.950033e+2, -1102637.5, -1006956.5, -3292.1526, 0.037145257, 0.061918627, -1006843.4, 22136.055, 0.0, 9.999229, 10.0004835 
1.7250583e+3, 2.050033e+2, -1033811.5, -1064583.4, 22870.248, 0.025734002, 0.085427575, -1021633.44, -90655.836, 0.0, 9.999623, 9.999235 
1.7250733e+3, 2.1500379e+2, -877757.75, -921117.3, -2003.7853, 0.10439567, 0.166537, -877665.3, -44691.516, 0.0, 9.99996, 9.999376 
1.7250882e+3, 2.2500281e+2, -731828.1, -886210.2, 12188.104, 0.14261068, 0.17821078, -730871.9, 4110.4956, 0.0, 10.000663, 9.998601 
1.7251024e+3, 2.3500043e+2, -457219.4, -686602.25, 3356.4937, 0.1276603, 0.036270715, -457170.3, 179832.28, 0.0, 10.001822, 9.99873 
1.7251168e+3, 2.449984e+2, -385807.3, -791494.75, 50419.438, 0.096899524, 0.05085088, -379635.03, 159388.13, 0.0, 10.002407, 9.997074 
1.7251314e+3, 2.549966e+2, -289419.94, -676314.44, 29219.662, 0.038206734, 0.115854725, -287225.63, 153819.5, 0.0000000000049057277, 10.002336, 9.997216 
1.7251469e+3, 2.6499432e+2, -151731.78, -546719.56, 50503.51, 0.04065437, 0.16797543, -145376.61, 197692.92, 0.0000011502509, 10.002561, 9.997333 
1.7251629e+3, 2.7499145e+2, 32555.305, -393632.63, 43556.38, 0.11108351, 0.102474034, 36961.215, 282058.4, 0.000029351942, 10.003098, 9.997451 
1.7251779e+3, 2.849893e+2, 113037.77, -334138.2, 3808.861, 0.17933589, 0.16580972, 113070.21, 260189.02, 0.00020332959, 10.003111, 9.997176 
1.7251916e+3, 2.9498765e+2, 166661.88, -225520.17, -21651.885, 0.21538983, 0.22380912, 167853.63, 216989.89, 0.0007056686, 10.0026865, 9.9974375 
1.7252031e+3, 3.049849e+2, 262903.03, -215613.98, -3048.8777, 0.024288159, 0.23600572, 262922.47, 262922.47, 0.001634907, 10.003238, 9.996944 
1.7252159e+3, 3.149811e+2, 581323.4, 140421.83, -81023.3, -0.027045641, 0.11515137, 595741.3, 595741.3, 0.0029118522, 10.0044985, 9.998785 
1.7349458e+3, 1.24987505e+2, -2124506.8, -1671211.4, 58815.246, -0.15374766, 0.23784347, -1663704.5, 51434.023, 0.06561491, 9.996051, 10.002188 
1.7349556e+3, 1.3498564e+2, -1986649.8, -1750205.0, -131981.1, -0.32494482, -0.074934945, -1691239.5, -74083.37, 0.042436883, 9.997246, 10.000376 
1.7349729e+3, 1.4498828e+2, -1922609.1, -1768128.5, 14393.582, 0.20492019, 0.2186522, -1766798.8, -247666.25, 0.021297567, 9.997417, 9.999514 
1.7349865e+3, 1.5498827e+2, -1735863.4, -1558287.3, 49227.563, 0.03733523, 0.17587195, -1545553.5, -124416.06, 0.0071235094, 9.997747, 10.000117 
1.7350008e+3, 1.6498901e+2, -1558969.4, -1373389.5, -10209.343, -0.02309626, 0.22340831, -1372829.6, -49698.754, 0.0011691477, 9.998049, 10.000573 
1.7350157e+3, 1.7498973e+2, -1419826.6, -1242075.9, 17900.072, 0.0576746, 0.19327009, -1240291.1, -15171.035, 0.00004011834, 9.998298, 10.000668 
1.7350303e+3, 1.8498988e+2, -1303519.9, -1178737.6, 12444.049, 0.099815995, 0.17106092, -1177508.8, -50394.555, 0.0, 9.998612, 10.000281 
1.7350444e+3, 1.9498965e+2, -1125188.8, -1020861.25, 28737.12, 0.10132944, 0.07128304, -1013469.3, 15642.232, 0.0, 9.999088, 10.000454 
1.7350586e+3, 2.0498906e+2, -1082353.5, -1125169.5, 19386.682, 0.06446787, 0.050468486, -1074879.9, -143764.1, 0.0, 9.999448, 9.998903 
1.7350726e+3, 2.1498783e+2, -927693.4, -984822.0, 23622.31, 0.008776214, -0.007823635, -919191.06, -86061.57, 0.0, 9.999784, 9.9990225 
1.7350878e+3, 2.2498725e+2, -755297.5, -870282.75, 41242.62, 0.013876863, 0.05093667, -742034.5, -6899.239, 0.0, 10.000387, 9.99884 
1.7351042e+3, 2.3498741e+2, -473196.75, -664896.94, 61920.67, 0.09644429, 0.13283394, -454935.44, 182197.1, 0.0, 10.001578, 9.998997 
1.7351198e+3, 2.4498563e+2, -452884.56, -851601.9, 35667.95, 0.1168599, 0.1710171, -449718.94, 89431.66, 0.0, 10.00208, 9.996817 
1.7351346e+3, 2.5498182e+2, -343422.5, -727418.5, 45971.266, 0.08186361, 0.058982797, -337995.63, 103194.805, 0.000000000000012544113, 10.002086, 9.996983 
1.7351498e+3, 2.6497895e+2, -173597.56, -518810.6, 57449.27, 0.050354194, 0.04743853, -164288.08, 178930.69, 0.0000010511417, 10.002249, 9.997672 
1.7351656e+3, 2.7497715e+2, 16292.375, -359631.03, 85287.98, 0.041793995, 0.048257504, 34737.168, 279971.78, 0.000029114979, 10.002819, 9.997809 
1.7351805e+3, 2.849751e+2, 63429.082, -366350.13, -32114.748, 0.09270345, 0.10723406, 65815.57, 213069.77, 0.00019954766, 10.002802, 9.997107 
1.7351943e+3, 2.9497245e+2, 117464.305, -257440.67, -13845.83, 0.18260105, 0.066251114, 117974.95, 167255.98, 0.00068418466, 10.002386, 9.997362 
1.7352065e+3, 3.0497015e+2, 197663.88, -247181.73, 23722.764, 0.011442596, 0.13137536, 198925.39, 198925.39, 0.0015844131, 10.002818, 9.996912 
1.735221e+3, 3.1496665e+2, 448024.72, 36851.445, 24214.428, -0.032403123, 0.02068447, 449445.84, 449445.84, 0.0028329552, 10.003808, 9.99837 
1.7449428e+3, 1.24973506e+2, -2264996.8, -1616744.4, 243633.11, 0.038036283, 0.34118024, -1535389.5, 179891.61, 0.06957688, 9.994574, 10.003335 
1.7449515e+3, 1.3497119e+2, -2225710.5, -1818545.9, -148482.08, -0.35527796, -0.04613083, -1770150.6, -152851.47, 0.045260757, 9.995421, 10.000792 
1.7449704e+3, 1.4497314e+2, -2025906.0, -1805712.4, 13356.17, 0.25514486, 0.14995444, -1804905.1, -285625.22, 0.022935338, 9.996669, 9.9996 
1.7449845e+3, 1.5497355e+2, -1783665.6, -1575249.9, 47566.453, 0.09361429, 0.1393613, -1564907.1, -143626.89, 0.0078018596, 9.997405, 10.000143 
1.7449988e+3, 1.6497442e+2, -1613620.0, -1384941.4, 14405.437, 0.011820824, 0.19210148, -1384037.5, -60765.516, 0.0013223152, 9.997622, 10.000703 
1.7450137e+3, 1.7497532e+2, -1463165.3, -1245595.6, -6295.8115, 0.0625093, 0.1691637, -1245413.6, -20154.166, 0.000049909977, 9.997933, 10.000826 
1.745029e+3, 1.849756e+2, -1350639.0, -1260384.5, 9660.897, 0.12701523, 0.17663413, -1259362.0, -132107.81, 0.0000000000000006446772, 9.998544, 9.999748 
1.7450444e+3, 1.9497526e+2, -1088734.1, -1062811.0, -42483.625, 0.16760251, 0.1165455, -1031355.6, -2099.5662, 0.0, 9.999597, 9.999908 
1.7450587e+3, 2.0497453e+2, -1021096.06, -1075818.5, -56951.16, 0.12961258, 0.10225784, -985274.44, -54012.316, 0.0, 9.999772, 9.999089 
1.7450722e+3, 2.1497336e+2, -994040.0, -990592.0, -44534.242, 0.015696766, 0.029181834, -947748.44, -114475.17, 0.0, 9.999217, 9.999256 
1.7450877e+3, 2.2497275e+2, -916326.9, -961807.56, 48895.113, 0.021939205, 0.07708253, -885142.7, -149863.81, 0.0, 9.999313, 9.998747 
1.7451054e+3, 2.3497273e+2, -703295.1, -786095.3, 19711.111, 0.14346156, 0.15574789, -698842.25, -61563.26, 0.0, 10.000035, 9.998915 
1.7451218e+3, 2.4497113e+2, -582357.7, -861855.5, 15143.653, 0.18721592, 0.19246155, -581539.56, -42244.51, 0.0, 10.000997, 9.997255 
1.7451371e+3, 2.5496772e+2, -296743.4, -656032.06, 36925.477, 0.13621053, 0.08205238, -292987.7, 148341.17, 0.0, 10.002227, 9.997395 
1.7451526e+3, 2.6496503e+2, -142835.0, -510484.34, 58728.203, 0.106004894, 0.070019566, -133681.66, 209673.23, 0.0000010008785, 10.002467, 9.997627 
1.7451681e+3, 2.7496308e+2, -144838.86, -444742.44, 22470.832, 0.08430609, 0.06250749, -143164.53, 102208.56, 0.000030147008, 10.00172, 9.997754 
1.7451832e+3, 2.849609e+2, 10177.294, -355814.66, -28073.066, 0.11623524, 0.09471214, 12318.09, 159711.08, 0.00019898178, 10.002256, 9.997452 
1.7451973e+3, 2.9495806e+2, 365003.56, -116829.72, -28755.1, 0.17689818, 0.007248983, 366713.56, 416132.53, 0.00068108423, 10.003948, 9.997601 
1.7452101e+3, 3.0495578e+2, 430519.06, -134211.47, 53587.152, 0.034046497, 0.063451156, 435558.94, 435558.94, 0.0015909752, 10.0044, 9.996942 
1.7452262e+3, 3.149533e+2, 443469.66, -8110.5664, -25576.67, 0.12444892, 0.055776726, 444913.66, 444913.66, 0.0028711457, 10.003935, 9.998007 
1.7549394e+3, 1.24959305e+2, -2125542.3, -1370628.8, 111521.66, 0.163051, 0.3087232, -1354498.5, 360922.0, 0.07366958, 9.994659, 10.005101 
1.7549479e+3, 1.3495828e+2, -2297617.8, -1958511.4, -79745.79, -0.28580302, 0.17428505, -1940694.1, -323265.72, 0.048192136, 9.995387, 9.999843 
1.754965e+3, 1.4496042e+2, -1940023.0, -1658599.1, 33540.324, 0.009104936, 0.37306717, -1654657.0, -135250.72, 0.024652572, 9.996792, 10.000559 
1.7549825e+3, 1.5495948e+2, -1742001.9, -1498568.8, 83603.67, 0.11200004, 0.17401373, -1472621.9, -51206.715, 0.008527423, 9.997435, 10.000665 
1.7549975e+3, 1.6495928e+2, -1622082.6, -1414697.1, -2094.7258, 0.08992633, 0.109290384, -1414676.0, -91260.35, 0.0014925194, 9.997679, 10.000469 
1.755012e+3, 1.7496058e+2, -1476534.4, -1260068.6, 17459.668, 0.06943643, 0.13774215, -1258669.5, -33269.313, 0.00006156021, 9.997887, 10.000743 
1.7550275e+3, 1.8496108e+2, -1418624.6, -1404805.4, 34240.55, 0.08842656, 0.21741024, -1376784.3, -249387.13, 0.0000000010737394, 9.998555, 9.998752 
1.7550437e+3, 1.9496016e+2, -1175520.1, -1225867.5, 7348.7397, 0.11165373, 0.20631738, -1174469.5, -145057.39, 0.0, 9.999519, 9.998828 
1.7550582e+3, 2.0495977e+2, -995756.5, -991191.44, -94087.37, 0.0723395, 0.24643196, -899358.94, 32057.459, 0.0, 9.999633, 9.999736 
1.7550714e+3, 2.1496004e+2, -972493.2, -903139.9, -54217.55, 0.0068100453, 0.24841024, -873458.06, -40049.938, 0.0, 9.999028, 9.9999485 
1.7550872e+3, 2.2495903e+2, -979944.5, -1037382.4, 61948.086, 0.028293371, 0.2416212, -940382.1, -204966.69, 0.0, 9.999072, 9.998345 
1.7551054e+3, 2.3495659e+2, -761366.1, -863251.75, 62834.82, 0.13757361, 0.11685477, -731417.75, -93977.61, 0.0, 9.999841, 9.998482 
1.7551225e+3, 2.4495496e+2, -558911.6, -747336.7, 50597.555, 0.13911736, 0.12785819, -546184.4, -6728.6426, 0.0, 10.000712, 9.998179 
1.7551388e+3, 2.5495413e+2, -263483.13, -534465.3, 98425.92, 0.06358425, 0.17520177, -231506.31, 209956.48, 0.0, 10.001998, 9.998339 
1.7551547e+3, 2.6495212e+2, -215144.95, -605825.2, 12954.24, 0.05466864, 0.21417853, -214715.89, 128766.54, 0.00000094846536, 10.002224, 9.997095 
1.7551702e+3, 2.7494913e+2, -210756.1, -526985.5, 12857.1875, 0.1004297, 0.14923877, -210234.22, 35279.402, 0.000030605133, 10.0014925, 9.997295 
1.7551853e+3, 2.849467e+2, 15515.872, -279394.13, 20794.545, 0.082807615, 0.14250274, 16974.908, 164509.98, 0.0002004244, 10.001976, 9.99811 
1.7552e+3, 2.949445e+2, 354032.84, -53870.637, 54050.3, 0.020325227, 0.046492107, 361073.38, 410624.13, 0.000696978, 10.003591, 9.9981985 
1.7552134e+3, 3.049419e+2, 343843.5, -211244.83, 7559.574, -0.11422155, 0.06447345, 343946.44, 343946.44, 0.0016497029, 10.0039625, 9.996617 
1.7552312e+3, 3.149412e+2, 298195.56, -154527.36, 25789.445, 0.16048153, 0.2362644, 299659.94, 299659.94, 0.0030010347, 10.0033045, 9.997283 
1.7649347e+3, 1.249426e+2, -1993137.5, -1285756.1, 72159.17, 0.20123596, 0.19131574, -1278470.3, 437111.94, 0.07790593, 9.995408, 10.00538 
1.7649451e+3, 1.3494226e+2, -2150571.5, -1991068.4, -135292.86, -0.16329563, 0.21440624, -1913770.6, -296184.28, 0.05123237, 9.996811, 9.998936 
1.7649615e+3, 1.4494416e+2, -1830417.5, -1550878.1, -51017.273, -0.04858711, 0.40852445, -1541858.3, -22291.45, 0.026445003, 9.997304, 10.00106 
1.7649801e+3, 1.5494347e+2, -1713524.9, -1431799.0, -49397.406, 0.14651163, 0.18784156, -1423388.8, -1817.785, 0.009296644, 9.997418, 10.001133 
1.7649959e+3, 1.649434e+2, -1629465.0, -1427160.4, -95367.734, 0.1655576, 0.11706193, -1389291.8, -65722.0, 0.0016790463, 9.997681, 10.000368 
1.7650104e+3, 1.7494446e+2, -1428475.0, -1253532.0, -107084.695, 0.11729985, 0.13204789, -1202734.3, 22823.977, 0.000074904594, 9.99828, 10.000591 
1.7650263e+3, 1.8494506e+2, -1424769.8, -1379291.6, -15813.951, 0.11921132, 0.21856631, -1374333.3, -246778.45, 0.000000009428086, 9.998395, 9.999008 
1.7650427e+3, 1.9494483e+2, -1311775.5, -1257630.9, 26384.994, 0.11549838, 0.25021613, -1246900.0, -217336.58, 0.0, 9.998451, 9.999131 
1.7650577e+3, 2.0494445e+2, -1056025.3, -1043874.94, -28827.951, 0.0851625, 0.2887454, -1020488.94, -88921.41, 0.0, 9.999332, 9.999514 
1.7650717e+3, 2.14944e+2, -693738.2, -794947.4, -83160.62, 0.0431527, 0.24611366, -646995.44, 186570.8, 0.0, 10.001069, 9.999702 
1.7650878e+3, 2.2494271e+2, -610714.2, -862816.25, 17533.373, 0.070208, 0.2251027, -609500.56, 126075.75, 0.0, 10.001635, 9.9983 
1.765106e+3, 2.3494047e+2, -577605.8, -775697.75, 8853.262, 0.14610307, 0.1256633, -577210.94, 60388.26, 0.0, 10.001122, 9.998458 
1.7651235e+3, 2.4493907e+2, -495602.8, -673789.8, 39240.52, 0.14473958, 0.1399769, -487344.0, 52268.15, 0.0, 10.00092, 9.998607 
1.7651403e+3, 2.5493848e+2, -379992.9, -547341.44, 28327.172, 0.06996052, 0.1735202, -375327.97, 66287.85, 0.0, 10.000976, 9.998762 
1.7651571e+3, 2.649369e+2, -264353.38, -584845.0, -21815.225, 0.09350051, 0.21089858, -262875.25, 80755.78, 0.0000007067664, 10.001716, 9.997475 
1.7651734e+3, 2.749343e+2, 59031.164, -356010.7, -263.36304, 0.19364573, 0.15113963, 59031.332, 304689.4, 0.000029110019, 10.003184, 9.997652 
1.7651887e+3, 2.849321e+2, 232331.44, -168501.2, 42312.14, 0.16712968, 0.14781012, 236749.25, 384426.8, 0.00020337792, 10.003449, 9.998163 
1.765203e+3, 2.9493e+2, 203238.0, -128240.734, -19419.588, 0.028329728, 0.07418903, 204371.81, 254064.06, 0.00072560523, 10.002568, 9.998181 
1.7652167e+3, 3.0492678e+2, 273406.03, -225325.05, -478.55936, -0.1279007, 0.019833669, 273406.5, 273406.5, 0.0017290437, 10.00337, 9.996805 
1.7652363e+3, 3.1492603e+2, 648978.94, 23342.246, -13695.945, 0.23269466, 0.17954664, 649278.6, 649278.6, 0.0031403077, 10.005633, 9.997407 
1.7749298e+3, 1.2492507e+2, -2089042.1, -1505621.5, 202054.95, 0.07380371, 0.13103929, -1442478.3, 273271.44, 0.08231803, 9.995548, 10.00372 
1.7749432e+3, 1.3492347e+2, -2208789.5, -2118821.5, -79275.71, -0.07657493, 0.092963375, -2072656.3, -454886.25, 0.054393712, 9.996832, 9.998051 
1.7749587e+3, 1.4492399e+2, -1824389.5, -1554548.0, -69861.805, -0.09495113, 0.20944257, -1537533.6, -17767.713, 0.02831169, 9.997369, 10.001005 
1.774977e+3, 1.5492548e+2, -1681283.9, -1368504.6, -33416.145, 0.05468113, 0.17197128, -1364974.5, 56773.594, 0.010105246, 9.997425, 10.00157 
1.7749932e+3, 1.6492683e+2, -1623461.8, -1426727.4, -89146.44, 0.09388705, 0.2171965, -1392342.1, -68608.484, 0.0018804772, 9.997731, 10.000346 
1.7750087e+3, 1.7492698e+2, -1445703.3, -1281619.6, -73392.945, 0.08501458, 0.15634978, -1253582.4, -27849.121, 0.00008970714, 9.998252, 10.00041 
1.7750245e+3, 1.8492763e+2, -1318285.8, -1165335.0, -30896.441, 0.06897886, 0.18583307, -1159329.6, -31602.512, 0.000000028818846, 9.998421, 10.000465 
1.7750408e+3, 1.9492911e+2, -1214217.9, -1039945.3, 41547.883, 0.0522769, 0.23798054, -1030546.8, -835.2033, 0.0, 9.99838, 10.000662 
1.7750567e+3, 2.0492846e+2, -1156540.5, -1214947.9, 21845.178, 0.025227273, 0.22543982, -1149274.1, -217557.08, 0.0, 9.99918, 9.998407 
1.7750728e+3, 2.149253e+2, -811111.06, -983764.2, -6226.303, 0.0067962687, 0.024683362, -810886.8, 22860.342, 0.0, 10.000841, 9.998509 
1.7750892e+3, 2.2492385e+2, -636817.5, -861231.56, -14052.474, 0.00980109, 0.039965134, -635940.94, 99820.31, 0.0, 10.001383, 9.998435 
1.7751065e+3, 2.3492414e+2, -588256.94, -763503.44, 4788.566, 0.05211193, 0.17122005, -588126.2, 49632.668, 0.0, 10.000955, 9.998629 
1.7751238e+3, 2.4492314e+2, -533449.0, -686779.44, 26250.426, 0.06410613, 0.21580805, -529079.4, 10688.117, 0.0, 10.0006485, 9.998643 
1.7751412e+3, 2.549209e+2, -411076.56, -558513.9, 46316.797, 0.041210853, 0.08100604, -397733.8, 44053.254, 0.0, 10.000758, 9.998786 
1.775159e+3, 2.649194e+2, -233621.83, -451115.47, 20449.64, 0.08791909, 0.07219869, -231715.77, 112083.97, 0.00000032366296, 10.001424, 9.99853 
1.775177e+3, 2.749186e+2, 83509.79, -221699.67, 73176.53, 0.21590203, 0.085022405, 100147.51, 345953.75, 0.00002512301, 10.00285, 9.998724 
1.7751928e+3, 2.8491703e+2, 128353.42, -307194.94, -13272.6045, 0.19405589, 0.1326604, 128757.51, 276577.97, 0.00020098852, 10.00311, 9.997377 
1.7752059e+3, 2.9491466e+2, 115167.71, -250791.08, -31748.727, 0.034321006, 0.096848615, 117901.65, 167744.78, 0.0007425487, 10.002311, 9.997461 
1.7752199e+3, 3.049105e+2, 253980.97, -173882.53, 68035.68, -0.19144863, -0.045825765, 264538.97, 264538.97, 0.0017707391, 10.002988, 9.997338 
1.7752407e+3, 3.149097e+2, 599213.6, 123742.22, 149028.02, 0.073245, 0.05600155, 642062.4, 642062.4, 0.0031844135, 10.004822, 9.99846 
1.7849256e+3, 1.2490752e+2, -2053775.9, -1547901.8, 173229.9, 0.10047735, 0.2333631, -1494267.8, 221655.77, 0.08696164, 9.996108, 10.00311 
1.7849407e+3, 1.3490564e+2, -2190267.3, -2014672.8, -84615.7, 0.029920397, 0.0869695, -1980534.9, -362590.47, 0.057701517, 9.996611, 9.998847 
1.7849565e+3, 1.449061e+2, -1927084.5, -1615037.4, 21393.055, -0.027468517, 0.16784096, -1613577.6, -93637.77, 0.030258754, 9.996725, 10.000897 
1.7849745e+3, 1.5490752e+2, -1669829.5, -1371185.5, -6571.088, 0.07286327, 0.12859936, -1371041.0, 50881.97, 0.0109521225, 9.997534, 10.001499 
1.784991e+3, 1.6490908e+2, -1591402.4, -1423587.9, -56742.293, 0.09469904, 0.19845276, -1406202.9, -82295.4, 0.0020959692, 9.997996, 10.000243 
1.785007e+3, 1.7490926e+2, -1436558.3, -1287369.9, -74760.2, 0.09364857, 0.15207611, -1256354.5, -30446.662, 0.000105867584, 9.998369, 10.00031 
1.7850234e+3, 1.8490991e+2, -1254994.6, -1108244.5, -49134.934, 0.10412885, 0.17630634, -1093312.4, 34589.152, 0.0000000562377, 9.998737, 10.0007105 
1.78504e+3, 1.9491151e+2, -1051261.3, -931020.06, -94173.8, 0.09743703, 0.21415778, -879412.44, 150471.08, 0.0, 9.9993515, 10.000944 
1.7850567e+3, 2.0491114e+2, -1081435.4, -1162637.9, -70358.21, 0.08619624, 0.20715001, -1040804.0, -108918.05, 0.0, 9.999618, 9.998564 
1.7850734e+3, 2.1490839e+2, -963171.06, -1039839.4, -30822.773, 0.0700875, 0.03236811, -952316.3, -118403.6, 0.0, 9.999713, 9.998677 
1.7850903e+3, 2.2490704e+2, -806283.9, -939962.4, 13942.927, 0.048721854, 0.050709378, -804845.06, -68919.16, 0.0, 10.000216, 9.998461 
1.7851071e+3, 2.3490718e+2, -557614.1, -746212.06, -9793.945, 0.022278665, 0.16866833, -557106.94, 80817.664, 0.0, 10.001169, 9.998646 
1.7851245e+3, 2.4490604e+2, -423273.38, -636279.06, 10028.244, 0.04874625, 0.19984895, -422802.28, 117132.58, 0.0, 10.001434, 9.998598 
1.7851427e+3, 2.5490353e+2, -374185.75, -548525.75, -8390.763, 0.10872812, 0.04330286, -373782.84, 68174.555, 0.0, 10.001057, 9.998702 
1.7851608e+3, 2.6490217e+2, -268520.66, -413254.16, 1898.0682, 0.15826675, 0.026982091, -268495.75, 75472.59, 0.00000018370703, 10.000916, 9.999053 
1.7851785e+3, 2.749017e+2, -140693.97, -287177.94, -12906.26, 0.17654927, 0.032100543, -139565.53, 106404.26, 0.000020759246, 10.00106, 9.999172 
1.785195e+3, 2.8490046e+2, -59424.547, -409850.94, -68515.05, 0.18155283, 0.09604509, -46504.875, 101476.55, 0.0001926232, 10.001892, 9.997244 
1.7852104e+3, 2.948986e+2, 287624.88, -184074.61, -92544.266, 0.18549663, 0.124324344, 305131.7, 355133.2, 0.00073852565, 10.003579, 9.997297 
1.7852248e+3, 3.0489427e+2, 442624.63, -92089.69, 53893.086, -0.04402584, -0.022770496, 448002.34, 448002.34, 0.0017548485, 10.004332, 9.997251 
1.7852445e+3, 3.1489214e+2, 452760.0, 51009.902, 10174.677, 0.04526856, -0.019610457, 453017.5, 453017.5, 0.003102841, 10.003785, 9.998477 
1.7949215e+3, 1.24887966e+2, -2008343.4, -1500242.1, 46757.887, -0.009691025, 0.2849553, -1495975.0, 220148.64, 0.09190124, 9.996263, 10.003394 
1.7949371e+3, 1.348887e+2, -1995044.8, -1636416.5, -75365.76, -0.024732165, 0.18001336, -1621222.1, -3111.4436, 0.06119029, 9.996696, 10.001416 
1.7949538e+3, 1.4489077e+2, -1940027.5, -1654336.5, 24840.416, 0.0032272262, 0.29586133, -1652192.8, -132106.38, 0.03230053, 9.996786, 10.000595 
1.7949724e+3, 1.5488972e+2, -1718713.5, -1465302.0, 35919.906, 0.08637243, 0.06860815, -1460308.9, -38214.09, 0.011841973, 9.997515, 10.000854 
1.794989e+3, 1.6489007e+2, -1593950.3, -1448331.9, -62174.01, 0.025472414, 0.06625353, -1425397.8, -101306.01, 0.0023264778, 9.998067, 10.000046 
1.795005e+3, 1.7489116e+2, -1437507.1, -1295358.3, -52492.637, 0.030725623, 0.11917647, -1278075.1, -51991.855, 0.00012352158, 9.998383, 10.000257 
1.7950222e+3, 1.848918e+2, -1314631.3, -1239155.4, -43553.277, 0.0775882, 0.1877284, -1219264.9, -91185.56, 0.000000085167756, 9.998773, 9.999792 
1.7950399e+3, 1.9489206e+2, -1137047.0, -1085515.9, -62818.938, 0.12340248, 0.18709962, -1043383.9, -13304.8, 0.0, 9.999254, 9.999929 
1.795057e+3, 2.0489256e+2, -1002848.4, -967008.25, -83389.41, 0.11889501, 0.2509201, -899635.2, 32438.3, 0.0, 9.999468, 9.999984 
1.7950739e+3, 2.1489324e+2, -883317.75, -837947.6, -14988.653, 0.11110167, 0.27137262, -833443.1, 620.06976, 0.0, 9.999546, 10.000151 
1.7950907e+3, 2.2489218e+2, -858508.06, -986849.6, 35369.563, 0.052068785, 0.25526205, -849406.06, -113334.64, 0.0, 9.999953, 9.998263 
1.7951076e+3, 2.3488946e+2, -609710.3, -795013.75, 41364.39, -0.060123466, 0.10663428, -600896.0, 37202.01, 0.0, 10.000917, 9.998428 
1.7951253e+3, 2.4488753e+2, -485075.44, -693040.75, -14946.751, -0.041668326, 0.08089433, -484006.7, 56109.57, 0.0, 10.00113, 9.998354 
1.7951442e+3, 2.5488627e+2, -425022.44, -596146.56, -7849.6465, 0.14300989, 0.07106839, -424663.13, 17464.176, 0.0, 10.00082, 9.998481 
1.7951618e+3, 2.6488498e+2, -310013.5, -436595.53, -7122.2856, 0.15690331, 0.07670582, -309614.03, 34524.094, 0.00000013255313, 10.000644, 9.999025 
1.7951775e+3, 2.748837e+2, -176124.61, -296767.13, 7735.133, -0.04726349, -0.0064629447, -175630.69, 70517.48, 0.0000188634, 10.000804, 9.999219 
1.7951952e+3, 2.848827e+2, -83429.305, -391544.44, -25454.912, -0.025598055, 0.06142261, -81340.51, 66816.88, 0.00018772867, 10.00159, 9.99752 
1.7952153e+3, 2.9488194e+2, 257414.11, -156945.64, -930.81934, 0.29778138, 0.17272232, 257416.2, 307581.88, 0.00073078944, 10.003204, 9.997657 
1.795231e+3, 3.0487794e+2, 300762.6, -285745.75, 16514.727, 0.10084834, 0.0969995, 301227.25, 301227.25, 0.0017133285, 10.003882, 9.996146 
1.7952466e+3, 3.1487378e+2, 327877.3, -66961.32, 65213.69, -0.18816479, -0.016582193, 338369.56, 338369.56, 0.002957879, 10.003218, 9.997916 
1.8049173e+3, 1.2486895e+2, -2177116.0, -1623910.3, 186813.3, 0.009838166, 0.29806113, -1566734.3, 149577.48, 0.097200245, 9.995363, 10.002926 
1.8049343e+3, 1.34871e+2, -1907126.8, -1485760.5, -98274.65, 0.0308226, 0.23287079, -1463967.3, 154316.39, 0.06490086, 9.9967985, 10.002473 
1.8049514e+3, 1.4487295e+2, -1874628.4, -1623986.6, -20260.475, 0.0664638, 0.27577937, -1622359.4, -102099.89, 0.034457777, 9.997225, 10.000591 
1.8049704e+3, 1.5487206e+2, -1699596.8, -1463200.3, 2815.636, 0.12255333, 0.06870967, -1463166.8, -40900.34, 0.0127833225, 9.997672, 10.000789 
1.8049869e+3, 1.6487233e+2, -1573153.0, -1435212.0, -26753.521, 0.026521899, 0.061544638, -1430204.9, -105941.02, 0.0025744103, 9.998202, 10.0000725 
1.8050037e+3, 1.7487358e+2, -1337401.4, -1235371.9, -36095.01, 0.027035298, 0.12468006, -1223893.8, 2359.7532, 0.00014305822, 9.999032, 10.000346 
1.8050213e+3, 1.8487407e+2, -1266747.4, -1264151.6, 7311.448, 0.10768527, 0.19261868, -1258023.8, -129772.35, 0.00000010953618, 9.9993, 9.999368 
1.8050395e+3, 1.948737e+2, -1174774.9, -1150229.5, 809.8553, 0.17074211, 0.17131025, -1150202.8, -119944.53, 0.0, 9.9992, 9.999508 
1.8050568e+3, 2.0487401e+2, -977758.3, -947906.4, -4074.5964, 0.16203475, 0.23362695, -947360.25, -15104.98, 0.0, 9.999611, 10.000052 
1.8050739e+3, 2.1487498e+2, -715396.56, -746193.56, -66340.3, 0.11507179, 0.27886704, -662691.06, 171551.3, 0.0, 10.000661, 10.000243 
1.8050912e+3, 2.2487433e+2, -692368.56, -863249.06, -37261.277, 0.062811635, 0.27770346, -684597.0, 51650.313, 0.0, 10.00092, 9.998634 
1.8051086e+3, 2.3487201e+2, -647651.6, -773949.7, -19077.625, -0.020521985, 0.13650551, -644832.8, -6562.3096, 0.0, 10.000497, 9.998765 
1.8051268e+3, 2.4487033e+2, -524019.2, -713148.94, -15094.359, 0.02277065, 0.11977593, -522822.1, 17464.168, 0.0, 10.000838, 9.998384 
1.8051462e+3, 2.5486913e+2, -266000.06, -524597.94, -18072.21, 0.21160182, 0.12221935, -264743.2, 177553.1, 0.0, 10.001897, 9.998487 
1.8051636e+3, 2.6486772e+2, -105317.24, -375409.25, -11257.307, 0.20975307, 0.1345693, -104848.85, 239460.0, 0.00000007008213, 10.002228, 9.9986725 
1.8051787e+3, 2.7486613e+2, -48554.918, -285109.1, -64904.445, -0.049471214, 0.058119576, -31917.008, 214407.08, 0.000018211349, 10.001891, 9.99878 
1.8051969e+3, 2.848648e+2, 43301.36, -284290.38, -20134.268, -0.02798665, 0.10106, 44534.2, 192870.0, 0.00018396281, 10.002249, 9.997941 
1.8052189e+3, 2.948638e+2, 333105.0, -78812.54, -30247.371, 0.3313106, 0.15345359, 335314.22, 385658.4, 0.0007176876, 10.003524, 9.998051 
1.8052359e+3, 3.0486053e+2, 357660.6, -292476.34, 2297.0867, 0.20499063, 0.14354728, 357668.72, 357668.72, 0.0016608427, 10.00444, 9.99582 
1.8052515e+3, 3.1485713e+2, 504559.88, -42572.383, 11175.265, -0.072627455, 0.16054302, 504788.03, 504788.03, 0.0028174825, 10.004596, 9.997469 
1.8149117e+3, 1.24850035e+2, -2256211.5, -1805258.6, 294906.4, -0.16121866, 0.22599521, -1659508.1, 56983.79, 0.10291468, 9.9954605, 10.001579 
1.814932e+3, 1.348525e+2, -1944831.0, -1555690.3, -52976.586, 0.067858614, 0.24722074, -1548607.1, 69857.09, 0.06887483, 9.996782, 10.0019655 
1.8149485e+3, 1.448524e+2, -1832637.8, -1549095.1, -30953.04, 0.0052012634, 0.088183664, -1545755.5, -25293.72, 0.036753505, 9.99727, 10.001088 
1.8149675e+3, 1.5485436e+2, -1653031.1, -1376305.5, 32582.322, 0.049542043, 0.11294671, -1372521.0, 49918.48, 0.01378539, 9.997703, 10.001382 
1.8149847e+3, 1.6485587e+2, -1543707.6, -1390241.5, -12706.097, -0.064022295, 0.18270779, -1389196.6, -64772.914, 0.002842686, 9.998272, 10.000345 
1.8150024e+3, 1.7485657e+2, -1330598.9, -1219874.4, 6375.2617, -0.02488557, 0.17297062, -1219508.5, 6909.595, 0.00016504708, 9.999017, 10.000463 
1.8150206e+3, 1.8485676e+2, -1257366.8, -1247518.0, -13195.159, 0.064755745, 0.20165874, -1238358.3, -109941.01, 0.00000012908751, 9.99931, 9.999478 
1.8150385e+3, 1.9485645e+2, -1169607.8, -1128519.3, 7446.6133, 0.122076705, 0.17158547, -1127211.3, -96790.3, 0.0, 9.999149, 9.999682 
1.8150558e+3, 2.0485546e+2, -1090611.9, -1146461.9, 21134.113, 0.07646786, 0.15694796, -1083516.0, -151084.52, 0.0, 9.999462, 9.998758 
1.8150732e+3, 2.1485363e+2, -840360.8, -955972.25, -12528.7705, -0.02659877, 0.052345395, -839018.6, -4568.0474, 0.0, 10.000448, 9.998903 
1.8150912e+3, 2.248534e+2, -677687.5, -766260.75, -65543.95, -0.050074603, 0.121237874, -642870.94, 93583.28, 0.0, 10.000633, 9.999439 
1.8151096e+3, 2.3485482e+2, -622432.0, -669699.9, -21371.75, 0.012648754, 0.27065203, -614201.94, 24240.07, 0.0, 10.000273, 9.999589 
1.8151285e+3, 2.4485436e+2, -550534.94, -705635.2, 12556.166, 0.08467983, 0.3273325, -549525.06, -9079.186, 0.0, 10.000569, 9.998561 
1.8151481e+3, 2.54852e+2, -278340.7, -499833.63, 38276.836, 0.19214721, 0.18258668, -271912.53, 170553.52, 0.0, 10.001684, 9.998752 
1.8151659e+3, 2.6485026e+2, -207481.13, -523309.06, -37096.793, 0.17446622, 0.1885601, -203182.3, 141300.13, 0.0000000874347, 10.001946, 9.997794 
1.8151815e+3, 2.748489e+2, -149017.77, -430556.4, -56982.813, 0.020165995, 0.22593243, -137921.88, 108575.44, 0.00001648955, 10.001634, 9.997896 
1.8151997e+3, 2.8484696e+2, 20882.46, -264010.6, 9258.918, -0.012604402, 0.23651774, 21183.057, 169698.13, 0.00017264257, 10.001954, 9.998224 
1.8152207e+3, 2.948444e+2, 321599.13, -37989.477, 40545.184, 0.12633237, 0.08574705, 326114.06, 376649.1, 0.00068283465, 10.003242, 9.998466 
1.8152393e+3, 3.0484214e+2, 299980.1, -315497.8, -11911.035, 0.068251334, 0.15053092, 300210.5, 300210.5, 0.0015899156, 10.004037, 9.995851 
1.8152568e+3, 3.148399e+2, 400426.7, -53655.023, 55083.2, -0.06541355, 0.27466586, 407013.13, 407013.13, 0.0027090106, 10.003794, 9.997736 
1.8249083e+3, 1.2483022e+2, -2150400.3, -1887266.4, 301592.47, -0.10586332, 0.15671858, -1689792.5, 26886.613, 0.10907774, 9.996769, 10.000347 
1.8249288e+3, 1.3483356e+2, -1852254.6, -1529382.1, -81455.44, 0.06785003, 0.27489194, -1509996.3, 108651.18, 0.07313931, 9.997447, 10.001855 
1.824947e+3, 1.4483225e+2, -1768192.0, -1476885.9, -29372.79, 0.13636486, -0.023014572, -1473953.8, 46704.902, 0.039204508, 9.997556, 10.00145 
1.8249658e+3, 1.5483552e+2, -1633492.3, -1342088.6, -22722.553, 0.11197873, 0.109421335, -1340327.5, 82295.05, 0.014855209, 9.997745, 10.001595 
1.8249829e+3, 1.648373e+2, -1556229.4, -1381281.9, -44061.453, -0.045849003, 0.19091398, -1370811.4, -46207.953, 0.0031336718, 9.9981165, 10.000477 
1.8250014e+3, 1.7483762e+2, -1338279.5, -1205414.1, -55214.316, -0.013909381, 0.12680127, -1185464.4, 41136.83, 0.00019006866, 9.99889, 10.000621 
1.8250202e+3, 1.8483786e+2, -1221711.9, -1207193.1, -63423.035, 0.08720337, 0.14393881, -1150615.4, -22015.879, 0.00000015151502, 9.99946, 9.999682 
1.8250379e+3, 1.9483797e+2, -1028570.7, -1035755.94, -69848.26, 0.1255956, 0.13735196, -962222.75, 68375.78, 0.0, 10.00004, 9.999886 
1.8250555e+3, 2.04837e+2, -1003866.1, -1119665.8, 13387.381, 0.08373674, 0.122515954, -1002338.56, -69729.87, 0.0, 10.000124, 9.998609 
1.8250734e+3, 2.1483473e+2, -954512.2, -1025687.2, 40877.89, -0.013642575, -0.013284158, -935901.25, -101268.83, 0.0, 9.999736, 9.998752 
1.825092e+3, 2.2483432e+2, -774194.94, -840850.06, 27388.156, -0.0049052453, 0.05548683, -764385.06, -27746.635, 0.0, 10.000069, 9.999212 
1.8251109e+3, 2.3483585e+2, -507773.13, -634797.94, -31952.139, 0.08891497, 0.23496214, -500188.66, 138437.42, 0.0, 10.001143, 9.999415 
1.8251303e+3, 2.4483554e+2, -348551.84, -589050.5, 4993.2188, 0.14629565, 0.30522186, -348448.22, 192180.6, 0.0, 10.001882, 9.998715 
1.8251498e+3, 2.548333e+2, -186055.64, -437611.72, -5285.493, 0.16950834, 0.16073877, -185944.64, 256702.81, 0.0, 10.002249, 9.998891 
1.8251681e+3, 2.6483142e+2, -110132.086, -528502.06, -63631.273, 0.16395235, 0.16824038, -100668.27, 243997.28, 0.00000011582431, 10.002847, 9.997326 
1.825185e+3, 2.7482966e+2, 120542.01, -361173.84, -97846.55, 0.10276759, 0.21668115, 139658.1, 386343.88, 0.000015405387, 10.003734, 9.997375 
1.8252032e+3, 2.8482714e+2, 247928.77, -208380.16, -8744.027, 0.058959477, 0.22506927, 248096.25, 396806.0, 0.00016033727, 10.003758, 9.997736 
1.8252227e+3, 2.9482406e+2, 230849.4, -146866.05, -83243.82, 0.029857367, 0.08257804, 248381.55, 299117.28, 0.0006397898, 10.002891, 9.997892 
1.8252428e+3, 3.048218e+2, 230320.83, -295416.97, -89012.11, 0.056515243, 0.14952867, 244982.48, 244982.48, 0.001518907, 10.003312, 9.996342 
1.825263e+3, 3.148197e+2, 615418.6, 74254.24, -117509.1, 0.15306972, 0.255815, 639833.2, 639833.2, 0.0026476416, 10.005097, 9.998036 
1.8349074e+3, 1.2481004e+2, -2212182.5, -2048361.6, 182777.27, 0.051699497, 0.12934469, -1929980.1, -213112.02, 0.11569034, 9.996897, 9.999169 
1.834925e+3, 1.3481422e+2, -1809652.3, -1463361.3, -53746.63, -0.104618475, 0.31520712, -1455211.3, 163621.64, 0.07769921, 9.99751, 10.002315 
1.8349464e+3, 1.4481269e+2, -1747377.1, -1456414.5, -45415.277, 0.2760538, -0.049248938, -1449490.6, 71357.9, 0.04181763, 9.997644, 10.0015545 
1.8349646e+3, 1.5481554e+2, -1646821.9, -1376373.9, -3739.9438, 0.1772494, 0.0606002, -1376322.1, 46493.668, 0.015997248, 9.997767, 10.001346 
1.8349813e+3, 1.6481657e+2, -1540427.6, -1368486.1, -34156.734, -0.057682812, 0.08337324, -1361949.4, -37145.68, 0.0034491862, 9.998199, 10.000526 
1.835e+3, 1.7481655e+2, -1321230.8, -1179871.4, -17157.793, -0.05882832, -0.03025384, -1177818.6, 48986.344, 0.00021871291, 9.99892, 10.000785 
1.8350193e+3, 1.8481714e+2, -1207739.5, -1176449.3, -59014.05, 0.0149097, 0.0008805213, -1131041.8, -2241.4927, 0.00000018976193, 9.999458, 9.999891 
1.8350376e+3, 1.9481805e+2, -1031454.9, -1022756.2, -37943.055, 0.059395473, 0.059502102, -988914.0, 41878.58, 0.0, 9.999957, 10.000014 
1.8350556e+3, 2.048184e+2, -952751.4, -979670.9, -16025.872, 0.043174163, 0.11906656, -945282.8, -12493.836, 0.0, 9.999976, 9.999642 
1.8350737e+3, 2.148182e+2, -906245.6, -883014.2, 34410.55, 0.025842099, 0.08381633, -858311.75, -23522.455, 0.0, 9.999552, 9.99982 
1.8350928e+3, 2.2481711e+2, -896964.9, -1031463.0, 54594.863, 0.045611452, 0.09021933, -877593.9, -140793.61, 0.0, 9.999792, 9.99804 
1.8351124e+3, 2.34815e+2, -623354.2, -823448.1, 24122.45, 0.09473449, 0.026139727, -620487.2, 18336.604, 0.0, 10.000924, 9.998229 
1.8351316e+3, 2.4481376e+2, -384549.44, -593600.94, 4997.306, 0.0799613, 0.05680445, -384430.03, 156406.4, 0.0, 10.001575, 9.9988365 
1.8351507e+3, 2.548133e+2, -222675.08, -446123.66, 24737.068, 0.02540497, 0.08170418, -219969.3, 222869.34, 0.0, 10.001965, 9.998972 
1.8351698e+3, 2.6481158e+2, -176873.61, -603061.5, -42654.742, 0.017931025, 0.121599354, -172646.47, 172208.92, 0.000000090536304, 10.0025625, 9.996953 
1.8351884e+3, 2.7480835e+2, 68134.29, -417000.66, -42678.555, 0.059117444, 0.05082388, 71860.21, 318749.47, 0.00001528185, 10.003505, 9.997099 
1.8352067e+3, 2.848053e+2, 112569.29, -424322.5, -61178.813, 0.011549884, 0.079050384, 119452.375, 268373.03, 0.00015301339, 10.003472, 9.996391 
1.8352243e+3, 2.9480264e+2, 94470.234, -362818.22, -88290.234, -0.122324385, 0.11369107, 110924.66, 161872.28, 0.00060731446, 10.002608, 9.996539 
1.8352456e+3, 3.0479965e+2, 196044.25, -263250.8, -39197.355, -0.031518783, 0.16471922, 199365.42, 199365.42, 0.0014671788, 10.002879, 9.996764 
1.8352684e+3, 3.1479725e+2, 520744.16, 34628.742, -20366.727, 0.12371754, 0.16135086, 521595.97, 521595.97, 0.0026241362, 10.004454, 9.998054 
1.8449055e+3, 1.2478801e+2, -2326256.5, -2124547.5, 53347.805, 0.23217444, 0.015432365, -2111307.3, -394225.3, 0.12272786, 9.996222, 9.998981 
1.8449223e+3, 1.3479368e+2, -1904825.1, -1410606.9, -69707.2, -0.05746147, 0.27466673, -1400963.1, 218068.34, 0.08254445, 9.996454, 10.003216 
1.8449448e+3, 1.4479284e+2, -1796055.8, -1491717.8, -35772.785, 0.3740446, -0.06191746, -1487569.4, 33471.582, 0.04459436, 9.997342, 10.00146 
1.8449628e+3, 1.5479547e+2, -1585676.9, -1362632.0, -21925.46, 0.20466745, 0.037491404, -1360497.1, 62515.543, 0.017215712, 9.998248, 10.001213 
1.84498e+3, 1.6479678e+2, -1518417.9, -1338175.0, -25668.596, -0.006019367, 0.08555539, -1334590.8, -9591.939, 0.0037916328, 9.998295, 10.000689 
1.844999e+3, 1.747972e+2, -1466244.1, -1229171.5, -37660.313, 0.0026607527, 0.0053082714, -1223332.8, 3662.7722, 0.00025177147, 9.997866, 10.000951 
1.8450183e+3, 1.8479785e+2, -1406295.8, -1261874.1, -36341.363, 0.06092234, 0.02878583, -1253245.0, -124254.914, 0.00000025167606, 9.998042, 9.999989 
1.845037e+3, 1.9479848e+2, -1150540.8, -1070821.5, -44597.703, 0.06385691, 0.04701356, -1050866.9, -19881.877, 0.0, 9.9990835, 10.000104 
1.8450557e+3, 2.04799e+2, -967509.06, -988547.8, -60757.203, 0.061511364, 0.119098864, -916367.3, 16612.258, 0.0, 9.999891, 9.999625 
1.8450743e+3, 2.1479948e+2, -744105.0, -807699.06, -120156.15, 0.07877806, 0.15996177, -651609.9, 183363.25, 0.0, 10.000694, 9.99979 
1.8450938e+3, 2.2479814e+2, -695795.4, -944269.9, -55481.16, 0.11417762, 0.14659041, -683969.94, 53015.492, 0.0, 10.00122, 9.997943 
1.845114e+3, 2.347946e+2, -548970.06, -802719.25, -32840.42, 0.12901194, -0.04949995, -544788.75, 94231.625, 0.0, 10.001488, 9.998094 
1.8451333e+3, 2.4479291e+2, -418527.3, -653068.5, -24538.523, 0.096102476, -0.041144885, -415987.5, 125050.11, 0.0, 10.001542, 9.998433 
1.8451521e+3, 2.5479314e+2, -327558.22, -545163.44, -77485.52, 0.003652871, 0.094390675, -302786.8, 140249.63, 0.0, 10.001442, 9.998543 
1.8451717e+3, 2.6479152e+2, -277064.78, -624305.75, -81397.0, 0.009242916, 0.15350883, -258931.39, 86121.75, 0.00000009817215, 10.001776, 9.997178 
1.8451919e+3, 2.747878e+2, -44122.85, -446158.5, -74328.266, 0.10124766, 0.018465415, -30821.154, 216268.64, 0.000013983738, 10.002642, 9.997303 
1.8452108e+3, 2.8478464e+2, 105786.12, -458997.75, -39975.543, 0.081907526, 0.041475568, 108601.56, 257723.56, 0.00014297603, 10.003552, 9.996124 
1.8452282e+3, 2.9478237e+2, 359470.56, -259851.6, -43461.61, -0.07138996, 0.1478808, 362505.66, 413651.94, 0.00057426473, 10.004526, 9.996335 
1.8452497e+3, 3.0477858e+2, 438359.2, -165181.08, 85438.7, 0.018954106, 0.12761174, 450220.97, 450220.97, 0.0014121899, 10.004605, 9.996625 
1.8452722e+3, 3.1477484e+2, 405479.2, -48249.688, -66371.91, 0.10974749, 0.028225506, 414988.8, 414988.8, 0.0025786716, 10.003741, 9.997839 
1.8549016e+3, 1.24765605e+2, -2239094.8, -2000442.3, -121612.58, 0.13075836, -0.044623878, -1949391.4, -232084.81, 0.13014582, 9.996424, 9.999754 
1.8549204e+3, 1.347719e+2, -1819675.9, -1253324.3, -30580.936, 0.08893735, 0.13720359, -1251677.9, 367566.22, 0.08765755, 9.996452, 10.004413 
1.8549417e+3, 1.4477265e+2, -1798970.6, -1516358.5, -13468.65, 0.27454612, -0.08071265, -1515718.0, 5519.131, 0.04753598, 9.997423, 10.001248 
1.8549599e+3, 1.5477529e+2, -1579196.5, -1363800.4, 21027.744, 0.06048385, 0.031708878, -1361766.9, 61446.38, 0.01851746, 9.998306, 10.001181 
1.8549782e+3, 1.6477786e+2, -1491996.3, -1301965.9, -63061.113, -0.058469497, 0.1919354, -1282943.4, 42246.09, 0.0041650403, 9.998373, 10.000899 
1.8549977e+3, 1.747795e+2, -1459549.6, -1215599.0, -42907.617, 0.054888226, 0.22151768, -1208272.1, 18901.883, 0.00029041685, 9.99786, 10.00105 
1.8550171e+3, 1.847799e+2, -1401887.5, -1254762.8, -15693.374, 0.085981995, 0.21296309, -1253107.4, -123937.16, 0.0000003514084, 9.998053, 10.000033 
1.855036e+3, 1.9477922e+2, -1157472.1, -1065053.3, 2861.1702, 0.01583411, 0.096693315, -1064964.8, -33789.0, 0.0, 9.998995, 10.000188 
1.8550552e+3, 2.047788e+2, -1069999.1, -1165312.5, -46268.5, -0.00914338, 0.12877052, -1051233.5, -118053.47, 0.0, 9.999736, 9.998487 
1.8550748e+3, 2.1477857e+2, -854766.44, -992455.94, -77038.875, 0.041144434, 0.21278247, -820293.25, 14890.732, 0.0, 10.000503, 9.998613 
1.8550949e+3, 2.2477727e+2, -662579.7, -818662.56, -56803.895, 0.067327216, 0.21253301, -644095.75, 93099.57, 0.0, 10.000967, 9.998931 
1.855115e+3, 2.3477463e+2, -510530.03, -673961.4, -8789.849, 0.06769975, 0.0075403424, -510058.66, 129157.13, 0.0, 10.001272, 9.999085 
1.8551345e+3, 2.447731e+2, -529711.75, -818983.56, -40400.652, 0.037088256, 0.03394309, -524175.2, 17055.807, 0.0, 10.001264, 9.997427 
1.8551536e+3, 2.5477272e+2, -429743.72, -702165.9, -65092.28, -0.013887563, 0.20738101, -414989.7, 28251.201, 0.0, 10.001214, 9.997568 
1.8551737e+3, 2.6477107e+2, -264985.9, -538761.1, -64550.703, 0.002250439, 0.2765548, -250529.52, 94729.87, 0.00000008466028, 10.001514, 9.997891 
1.8551947e+3, 2.747678e+2, -33226.707, -360442.22, -20088.865, 0.09979143, 0.10758002, -31997.998, 215291.25, 0.000011476472, 10.002377, 9.998016 
1.8552148e+3, 2.8476503e+2, 87507.91, -417680.06, -20877.975, 0.102579184, 0.11437394, 88369.266, 237684.2, 0.00012753508, 10.003207, 9.996578 
1.8552339e+3, 2.9476315e+2, 354033.72, -188743.73, 15567.082, 0.009860669, 0.19961175, 354479.84, 405813.22, 0.00053210376, 10.004176, 9.996991 
1.8552543e+3, 3.0475828e+2, 308362.6, -325186.38, 31989.71, -0.0055600735, 0.075647525, 309973.75, 309973.75, 0.0013364267, 10.004138, 9.995747 
1.8552747e+3, 3.1475404e+2, 269405.4, -156790.2, -82595.75, -0.060531918, 0.021618297, 284852.44, 284852.44, 0.0024722144, 10.003032, 9.997416 
1.8648992e+3, 1.2474647e+2, -2155629.0, -1927825.8, 22283.184, 0.24590422, 0.034409627, -1925666.5, -208170.89, 0.1378835, 9.996908, 9.999984 
1.864917e+3, 1.3475262e+2, -1600515.5, -1124679.4, 52251.9, 0.039790366, 0.14877746, -1119009.1, 500424.47, 0.09301642, 9.997832, 10.004717 
1.864939e+3, 1.4475365e+2, -1771490.0, -1519101.8, 69198.61, 0.27460474, -0.04677137, -1501374.4, 20049.44, 0.050644647, 9.997694, 10.001095 
1.8649572e+3, 1.5475641e+2, -1718190.0, -1446360.5, 61174.195, 0.029854825, 0.0891647, -1433228.0, -9827.626, 0.01991141, 9.997427, 10.001031 
1.8649763e+3, 1.6475879e+2, -1593260.6, -1377646.8, -9392.699, -0.03966197, 0.2504854, -1377238.4, -51859.5, 0.0045744055, 9.99778, 10.00066 
1.8649966e+3, 1.7475982e+2, -1299232.4, -1160682.6, -42008.195, 0.098533936, 0.23751763, -1148940.9, 78427.55, 0.0003360051, 9.999058, 10.000837 
1.8650165e+3, 1.8475983e+2, -1163098.1, -1190137.3, 866.29926, 0.143295, 0.22233967, -1163070.4, -33702.02, 0.00000050835786, 9.99991, 9.99958 
1.8650362e+3, 1.9475907e+2, -956846.5, -1021048.56, -47882.137, 0.060201507, 0.14105503, -931300.5, 100075.51, 0.0, 10.000595, 9.999725 
1.8650559e+3, 2.0475826e+2, -903376.8, -1089622.0, -64147.445, 0.04534047, 0.15857553, -883421.06, 49962.766, 0.0, 10.000898, 9.998447 
1.865076e+3, 2.1475716e+2, -788433.2, -966716.9, -37345.387, 0.08314542, 0.1593861, -780926.5, 54467.965, 0.0, 10.000966, 9.998571 
1.8650961e+3, 2.2475575e+2, -636062.0, -818015.1, 10297.432, 0.10222982, 0.1575778, -635481.06, 101925.46, 0.0, 10.001212, 9.99882 
1.8651165e+3, 2.3475406e+2, -449251.72, -656592.2, -55513.797, 0.08070925, 0.06164839, -435323.94, 204095.94, 0.0, 10.001757, 9.998977 
1.8651363e+3, 2.447527e+2, -391396.97, -724216.1, -74439.7, 0.060000937, 0.09994129, -375506.2, 165926.98, 0.0, 10.002085, 9.997685 
1.8651557e+3, 2.5475162e+2, -271134.0, -597720.75, -32893.777, 0.023599172, 0.1781861, -267853.88, 175593.38, 0.0, 10.002184, 9.997819 
1.865176e+3, 2.647499e+2, -123681.14, -447814.13, 45957.65, 0.0527759, 0.21829793, -117290.945, 228174.48, 0.000000065173005, 10.002382, 9.998102 
1.8651976e+3, 2.747474e+2, 32986.063, -306711.66, 13176.437, 0.14200483, 0.11086114, 33496.39, 280984.97, 0.000009433609, 10.00273, 9.998221 
1.8652184e+3, 2.847454e+2, 74877.25, -371484.22, 23017.197, 0.16680524, 0.15586519, 76061.016, 225568.83, 0.00011541226, 10.00291, 9.997025 
1.8652381e+3, 2.9474387e+2, 204103.31, -213158.44, 6436.0566, 0.09280213, 0.2389307, 204202.56, 255725.53, 0.00049646525, 10.002947, 9.997404 
1.8652579e+3, 3.047388e+2, 212461.73, -320151.78, 79200.76, 0.01608516, 0.054700516, 223989.55, 223989.55, 0.0012601638, 10.003238, 9.996207 
1.8652783e+3, 3.14736e+2, 438104.22, -10337.735, -44072.28, -0.029834893, 0.09937695, 442394.56, 442394.56, 0.0023301155, 10.00386, 9.998027 
1.8748975e+3, 1.24729455e+2, -2173982.8, -1994760.0, 28663.963, 0.29900053, 0.059938475, -1990287.3, -272626.56, 0.14588223, 9.997022, 9.999479 
1.8749115e+3, 1.3473591e+2, -1647501.8, -1230927.0, 76629.88, -0.32361776, 0.29646024, -1217278.0, 402320.88, 0.0986057, 9.997888, 10.003914 
1.8749364e+3, 1.4473589e+2, -1766305.8, -1531905.3, 41715.8, 0.18533078, 0.03796178, -1524702.5, -3101.8684, 0.053927336, 9.997794, 10.000953 
1.8749547e+3, 1.5473874e+2, -1729793.9, -1474782.5, 66366.39, -0.012369852, 0.20309414, -1458544.6, -34969.887, 0.021407956, 9.997439, 10.000832 
1.874974e+3, 1.6473961e+2, -1623993.8, -1454721.1, 23590.576, -0.09181968, 0.25284111, -1451494.9, -125928.53, 0.0050250688, 9.997842, 10.000103 
1.874995e+3, 1.747382e+2, -1339731.4, -1243703.6, 17851.973, 0.004584919, 0.05441966, -1240492.3, -12914.054, 0.00038988978, 9.999044, 10.000282 
1.875016e+3, 1.8473756e+2, -1226787.6, -1323935.3, 8026.9326, 0.05821796, 0.04807682, -1226128.9, -96543.34, 0.000000733184, 9.999921, 9.998659 
1.8750371e+3, 1.9473796e+2, -1041801.9, -1170325.9, -12096.951, 0.07687831, 0.1835745, -1040673.2, -9087.272, 0.0, 10.000489, 9.99875 
1.8750575e+3, 2.0473728e+2, -844014.3, -944258.94, -78976.305, 0.08058714, 0.20974047, -800597.8, 132993.83, 0.0, 10.000791, 9.999503 
1.875077e+3, 2.1473524e+2, -740293.56, -822961.3, -24516.11, 0.07942716, 0.01069357, -733569.9, 102034.18, 0.0, 10.000774, 9.999653 
1.8750972e+3, 2.2473373e+2, -765493.7, -1025482.44, 16073.563, 0.061609782, 0.0048729875, -764503.7, -26885.639, 0.0, 10.000939, 9.997531 
1.875118e+3, 2.3473276e+2, -576518.8, -863526.1, -20282.096, 0.045771535, 0.11051258, -575092.6, 64540.953, 0.0, 10.001513, 9.997669 
1.8751383e+3, 2.4473147e+2, -333499.28, -537968.1, -82884.74, 0.019124564, 0.15258081, -304121.53, 237524.7, 0.0, 10.001793, 9.999112 
1.8751577e+3, 2.5472972e+2, -202638.28, -394915.4, -12702.922, -0.016454106, 0.009720024, -201802.69, 241854.23, 0.0, 10.001929, 9.999334 
1.8751782e+3, 2.6472807e+2, -189731.19, -525613.3, 43465.844, 0.007705531, -0.0024427557, -184197.53, 161473.64, 0.00000004605578, 10.0021105, 9.997707 
1.8752001e+3, 2.7472672e+2, -32312.064, -384075.6, 45625.492, 0.09409255, 0.04726226, -26490.555, 221196.98, 0.000008319171, 10.002472, 9.99782 
1.875221e+3, 2.847256e+2, 50749.258, -350628.7, 8649.976, 0.09330982, 0.19180447, 50935.586, 200636.64, 0.00010877432, 10.002601, 9.997321 
1.8752408e+3, 2.9472426e+2, 168868.58, -205671.64, 35189.766, 0.032121733, 0.26124132, 172146.14, 223863.6, 0.00047256332, 10.002607, 9.99762 
1.8752602e+3, 3.0471972e+2, 265346.53, -106009.125, 78655.71, -0.12793308, 0.041665606, 281319.34, 281319.34, 0.0011935771, 10.0028105, 9.997877 
1.8752839e+3, 3.1471977e+2, 435687.25, 174242.3, 27633.787, 0.07058991, 0.18793048, 438576.13, 438576.13, 0.0021828366, 10.003094, 9.99965 
1.8848957e+3, 1.2471038e+2, -2189851.3, -2027726.0, -30007.873, 0.4391742, 0.029785823, -2022350.1, -304502.2, 0.15411249, 9.996973, 9.999293 
1.8849096e+3, 1.3471705e+2, -1926062.3, -1454073.8, -27818.451, -0.22256832, 0.3651468, -1452439.8, 167347.28, 0.10442951, 9.996426, 10.0029335 
1.8849334e+3, 1.4471625e+2, -1855386.6, -1582059.3, -37153.668, 0.14443362, 0.088963956, -1577098.9, -55302.066, 0.057399224, 9.997248, 10.000852 
1.8849535e+3, 1.5471889e+2, -1532867.9, -1361841.0, -25067.932, 0.06936337, 0.22382613, -1358242.5, 65527.938, 0.023018045, 9.998761, 10.000951 
1.8849736e+3, 1.647194e+2, -1429087.3, -1407001.9, -17717.205, 0.019398002, 0.2504545, -1397167.8, -71403.31, 0.005521801, 9.999361, 9.999704 
1.8849942e+3, 1.747174e+2, -1314503.8, -1277536.1, -34844.94, 0.026870437, 0.030896144, -1256576.0, -28793.361, 0.0004532519, 9.999398, 9.99989 
1.8850157e+3, 1.8471667e+2, -1271156.0, -1340659.4, 28448.752, 0.057531793, 0.0347607, -1260996.5, -131205.83, 0.0000010252129, 9.999599, 9.998688 
1.8850376e+3, 1.9471735e+2, -1055938.3, -1170005.4, 65339.09, 0.08682807, 0.18710388, -1026242.2, 5545.4805, 0.0, 10.000356, 9.998806 
1.8850583e+3, 2.047167e+2, -863962.0, -980028.7, -5031.1255, 0.10308397, 0.22441728, -863744.3, 70048.94, 0.0, 10.000774, 9.999261 
1.885078e+3, 2.1471447e+2, -718430.1, -838802.8, -80467.99, 0.09059605, 0.03067848, -678130.2, 157679.23, 0.0, 10.001036, 9.999419 
1.8850984e+3, 2.24713e+2, -725837.7, -990606.44, -8112.846, 0.09102891, 0.03808369, -725589.3, 12234.57, 0.0, 10.001161, 9.997653 
1.8851197e+3, 2.3471236e+2, -606751.75, -867298.5, 35907.754, 0.081601255, 0.16658035, -601893.7, 37943.414, 0.0, 10.001264, 9.997762 
1.8851401e+3, 2.4471113e+2, -377538.13, -527050.0, 4701.429, 0.06210467, 0.19744909, -377390.44, 164458.03, 0.0, 10.001366, 9.999387 
1.8851595e+3, 2.5470915e+2, -245834.52, -393203.0, -54273.79, 0.008861081, 0.009114262, -228003.67, 215855.56, 0.0, 10.001529, 9.999545 
1.8851803e+3, 2.647073e+2, -225452.33, -530816.75, 10494.939, 0.02693065, -0.03488806, -225092.06, 120781.625, 0.000000017635879, 10.0018425, 9.997784 
1.8852022e+3, 2.7470595e+2, -30459.975, -367588.03, 15109.194, 0.08373948, 0.0026571727, -29784.174, 218105.56, 0.000007223604, 10.002454, 9.997919 
1.8852237e+3, 2.84705e+2, 87494.414, -335857.16, 12812.739, 0.117854364, 0.16011935, 87881.836, 237784.23, 0.00010058898, 10.002894, 9.997265 
1.885245e+3, 2.9470387e+2, 260164.1, -174851.69, -30189.184, 0.17035225, 0.26114142, 262249.16, 314167.66, 0.0004433926, 10.003294, 9.997495 
1.8852636e+3, 3.047e+2, 404902.38, 20611.227, -4704.001, -0.06512635, 0.08583751, 404959.97, 404959.97, 0.0011175724, 10.003463, 9.998471 
1.8852879e+3, 3.1469977e+2, 407568.47, 165501.88, -214014.9, 0.18901381, 0.14925979, 532403.94, 532403.94, 0.0020292015, 10.002856, 9.9997225 
1.8948905e+3, 1.2469022e+2, -2167214.8, -2041617.8, -78284.89, 0.124610566, 0.022532213, -2004056.1, -286007.9, 0.16258536, 9.997198, 9.999116 
1.8949103e+3, 1.3469627e+2, -2005110.9, -1602515.8, -13333.173, 0.1808389, 0.38750356, -1602074.8, 17920.703, 0.110513955, 9.996416, 10.001817 
1.8949296e+3, 1.446946e+2, -1848542.3, -1568534.4, 8194.429, -0.008215531, 0.090675086, -1568294.8, -46281.457, 0.06108175, 9.997262, 10.000932 
1.8949534e+3, 1.546967e+2, -1511581.8, -1318666.1, 41788.305, 0.15230003, 0.14259548, -1310003.3, 113985.71, 0.024752133, 9.998762, 10.001256 
1.8949746e+3, 1.6469797e+2, -1417294.8, -1412911.9, -32180.113, 0.12618749, 0.23392773, -1382848.6, -56873.586, 0.0060684755, 9.999485, 9.999606 
1.8949942e+3, 1.7469734e+2, -1323876.3, -1297841.3, -24812.24, 0.047645725, 0.16514859, -1282839.0, -54856.547, 0.0005270964, 9.999399, 9.999751 
1.8950151e+3, 1.8469705e+2, -1189921.3, -1177729.4, 41230.492, 0.0026018524, 0.16526, -1142146.6, -12161.548, 0.0000013718216, 9.999634, 9.9997835 
1.8950368e+3, 1.946974e+2, -992296.6, -1012001.5, 101338.07, -0.039786045, 0.171232, -900333.2, 131646.13, 0.0, 10.000256, 9.999932 
1.895058e+3, 2.0469671e+2, -992236.4, -1218006.8, -7674.92, -0.049843837, 0.22426847, -991975.75, -57989.047, 0.0, 10.00064, 9.9977 
1.8950784e+3, 2.1469478e+2, -858851.8, -1089639.9, -56581.19, 0.007231249, 0.22160932, -845726.56, -9716.462, 0.0, 10.000853, 9.997789 
1.8950994e+3, 2.2469345e+2, -666310.06, -804593.44, -18573.611, 0.04893708, 0.256447, -663858.8, 74166.34, 0.0, 10.000893, 9.999057 
1.895121e+3, 2.346929e+2, -536406.06, -664364.6, 56126.66, 0.0551399, 0.24110848, -515276.28, 124753.625, 0.0, 10.001021, 9.999267 
1.8951415e+3, 2.4469176e+2, -489833.03, -699015.2, -4680.1255, 0.028149929, 0.2523533, -489728.38, 52310.82, 0.0, 10.001087, 9.998347 
1.8951608e+3, 2.5468984e+2, -355534.25, -566529.25, -33496.53, -0.017391311, 0.17654699, -350344.2, 93710.7, 0.0, 10.001296, 9.998465 
1.8951818e+3, 2.6468748e+2, -231404.95, -483471.97, 18702.871, -0.028126217, 0.11426041, -230024.8, 116050.12, 0.0000000071100716, 10.001584, 9.998234 
1.8952039e+3, 2.7468482e+2, -35693.363, -309575.53, 55006.656, -0.02347379, -0.025813144, -25058.727, 223038.77, 0.0000064443307, 10.002169, 9.998451 
1.8952264e+3, 2.8468338e+2, 9447.483, -420156.2, 7005.9287, 0.061134733, 0.06869711, 9561.705, 159674.83, 0.0000894982, 10.002551, 9.996855 
1.8952501e+3, 2.9468253e+2, 159920.0, -293656.84, 13907.238, 0.32464504, 0.23986669, 160346.02, 212474.28, 0.00040206578, 10.002902, 9.996873 
1.8952678e+3, 3.0467948e+2, 299190.97, -84648.79, -36146.1, -0.045500915, 0.2117838, 302565.16, 302565.16, 0.0010247865, 10.003002, 9.997952 
1.8952899e+3, 3.1467646e+2, 166104.97, -148680.58, -124738.2, 0.04708829, 0.032982692, 209540.75, 209540.75, 0.001871482, 10.00213, 9.99788 
1.9048853e+3, 1.2467044e+2, -2058046.3, -1827235.3, 110313.64, -0.09161711, 0.051825665, -1782992.6, -64750.637, 0.1713416, 9.997322, 10.000484 
1.9049105e+3, 1.346745e+2, -1834434.6, -1687045.5, -48629.707, 0.4729789, 0.33316398, -1672446.5, -52237.117, 0.11689223, 9.998371, 10.000246 
1.9049259e+3, 1.4467248e+2, -1711995.1, -1509731.6, 6041.2397, -0.1302133, 0.10000325, -1509551.4, 12679.222, 0.06499328, 9.998176, 10.000927 
1.9049516e+3, 1.5467452e+2, -1594024.3, -1313961.3, 14693.984, 0.1615255, 0.104196616, -1313192.4, 111013.38, 0.026617203, 9.99795, 10.001709 
1.9049741e+3, 1.6467634e+2, -1582410.8, -1488551.0, -9476.617, 0.21165079, 0.22686683, -1487603.8, -161417.06, 0.0066676727, 9.998354, 9.999627 
1.9049944e+3, 1.7467639e+2, -1223034.1, -1244017.4, -19638.025, 0.09743481, 0.22361067, -1211260.9, 16928.574, 0.0006122247, 10.0000925, 9.999772 
1.9050154e+3, 1.8467599e+2, -1091919.4, -1127784.4, -6239.699, 0.048296425, 0.2114244, -1090864.8, 39328.52, 0.0000017786746, 10.000299, 9.999815 
1.905037e+3, 1.9467561e+2, -1159156.6, -1091000.6, -58152.387, 0.011284034, 0.14922497, -1057676.8, -25483.53, 0.0, 9.9991045, 9.999961 
1.9050582e+3, 2.0467499e+2, -1187240.8, -1272818.0, -70547.625, -0.009066267, 0.19379927, -1147519.8, -213319.86, 0.0, 9.999157, 9.998023 
1.905079e+3, 2.1467388e+2, -830958.44, -1038461.8, -5071.5405, -0.011488792, 0.24015108, -830834.56, 5381.4937, 0.0, 10.000898, 9.998108 
1.9051003e+3, 2.2467291e+2, -582342.56, -740726.56, 40208.633, 0.041181613, 0.28306925, -572719.56, 165507.77, 0.0, 10.001348, 9.999285 
1.9051223e+3, 2.3467216e+2, -610463.0, -682397.7, -7240.851, 0.12759544, 0.2279528, -609741.4, 30490.969, 0.0, 10.000403, 9.999454 
1.9051433e+3, 2.4467123e+2, -588240.06, -756822.6, -10925.074, 0.1328226, 0.25342527, -587535.0, -45294.8, 0.0, 10.000482, 9.998227 
1.905163e+3, 2.5466973e+2, -270751.16, -535977.4, -605.03906, 0.038368605, 0.23564771, -270749.78, 173504.1, 0.0, 10.001934, 9.998356 
1.9051842e+3, 2.646674e+2, -115811.06, -458860.03, 66674.23, 0.014473196, 0.19308697, -103308.09, 242966.58, 0.000000016068412, 10.002497, 9.997967 
1.9052064e+3, 2.7466434e+2, -57053.58, -360221.22, 8474.138, 0.027692962, 0.042860117, -56816.895, 191484.14, 0.000006020835, 10.002147, 9.998132 
1.9052292e+3, 2.8466234e+2, -36803.113, -409686.38, -1803.7562, 0.12855257, 0.08087029, -36794.387, 113526.72, 0.00007835106, 10.0020685, 9.997172 
1.9052532e+3, 2.9466093e+2, 121462.125, -266820.06, 18054.432, 0.38001457, 0.16696796, 122299.81, 174638.97, 0.00035541714, 10.002443, 9.997276 
1.905271e+3, 3.0465907e+2, 325832.5, -106171.21, 55499.75, -0.013758221, 0.24927601, 332848.63, 332848.63, 0.0009238466, 10.003339, 9.997646 
1.9052947e+3, 3.1465486e+2, 482128.8, -106498.95, -75953.734, 0.20834075, -0.0016943531, 491771.53, 491771.53, 0.0017193621, 10.004686, 9.996987 
1.9148818e+3, 1.2465027e+2, -1866796.1, -1457770.0, 316482.4, -0.27658153, 0.024629662, -1285471.9, 432965.1, 0.18042894, 9.997332, 10.00351 
1.9149098e+3, 1.3465124e+2, -1980586.0, -1998172.3, -30479.623, 0.53009254, 0.16499373, -1957656.5, -337222.66, 0.12358676, 9.998406, 9.998092 
1.914922e+3, 1.446496e+2, -1682005.9, -1490033.3, -24696.38, -0.40072677, 0.099069186, -1486907.0, 35544.836, 0.069141634, 9.998349, 10.000993 
1.914948e+3, 1.546524e+2, -1543262.9, -1212126.4, 13108.218, -0.04477028, 0.11727093, -1211608.4, 212812.03, 0.028615344, 9.997954, 10.002426 
1.914972e+3, 1.6465476e+2, -1559911.6, -1464167.6, 34576.637, 0.11422163, 0.24311946, -1452986.5, -126589.336, 0.0073205116, 9.998447, 9.999748 
1.9149943e+3, 1.7465462e+2, -1225829.1, -1243299.0, 53975.71, 0.049210496, 0.21877865, -1179886.1, 48516.313, 0.00070924795, 10.000068, 9.999785 
1.915016e+3, 1.8465357e+2, -1160195.3, -1282446.3, -66553.52, 0.044005923, 0.19423057, -1130956.5, -541.7156, 0.0000023137907, 10.000345, 9.998737 
1.9150375e+3, 1.9465208e+2, -1247064.8, -1252858.4, -93220.15, 0.12517944, 0.13001508, -1156696.4, -124267.47, 0.0, 9.999015, 9.998895 
1.9150585e+3, 2.0465149e+2, -1063810.9, -988544.1, -22599.197, 0.07655431, 0.13414314, -982279.94, -47846.758, 0.0, 9.999027, 10.000036 
1.9150792e+3, 2.1465172e+2, -709302.94, -740483.25, 69415.766, -0.09101596, 0.097932935, -653748.2, 182679.8, 0.0, 10.000696, 10.000249 
1.9151008e+3, 2.2465135e+2, -685205.94, -888129.1, -4481.097, -0.067422174, 0.13140264, -685107.0, 53323.902, 0.0, 10.001059, 9.998415 
1.9151235e+3, 2.3465033e+2, -714539.8, -840917.56, -28774.04, 0.18480171, 0.1496201, -708296.9, -67853.96, 0.0, 10.000169, 9.998476 
1.9151449e+3, 2.446495e+2, -579745.7, -680225.0, 26601.695, 0.22252992, 0.20842151, -573137.5, -30685.951, 0.0, 10.000222, 9.99888 
1.9151652e+3, 2.5464886e+2, -255551.98, -444843.25, 67981.836, 0.035649277, 0.19918132, -233667.25, 210789.25, 0.0, 10.001681, 9.999102 
1.9151866e+3, 2.6464725e+2, -228851.27, -627038.8, 35716.094, -0.0135051645, 0.23817284, -225673.02, 120798.93, 0.000000038925435, 10.002202, 9.996961 
1.9152093e+3, 2.7464443e+2, -169389.4, -536068.7, 10915.523, 0.08247201, 0.22006103, -169064.75, 79435.58, 0.0000054500297, 10.001905, 9.997039 
1.9152316e+3, 2.846417e+2, -14806.185, -301210.84, -8179.2427, 0.13308685, 0.20342948, -14572.789, 135954.3, 0.00006657065, 10.001801, 9.998048 
1.915254e+3, 2.94639e+2, 133720.36, -154874.58, 52168.406, 0.18395938, 0.055544168, 142861.16, 195413.72, 0.0003045757, 10.002081, 9.9982195 
1.9152732e+3, 3.0463874e+2, 248757.08, -170442.47, 79133.414, -0.16635515, 0.26321962, 263197.84, 263197.84, 0.0008128925, 10.002924, 9.997396 
1.915299e+3, 3.1463644e+2, 371914.25, -128860.78, 72871.35, 0.12002066, 0.20851085, 382302.78, 382302.78, 0.0015555569, 10.0038595, 9.997196 
1.924879e+3, 1.246301e+2, -2095580.8, -1405315.9, 237091.88, -0.13477872, 0.20004612, -1331725.3, 386910.06, 0.18987963, 9.994873, 10.005141 
1.9249068e+3, 1.34628e+2, -2054923.6, -2038396.8, -18666.883, 0.43374836, 0.025538256, -2026246.1, -405587.94, 0.13060497, 9.99789, 9.99808 
1.9249216e+3, 1.4462782e+2, -1673095.6, -1547186.1, 35655.094, -0.2925306, 0.1382423, -1537790.4, -15129.244, 0.07352615, 9.998711, 10.000394 
1.924946e+3, 1.5462977e+2, -1491478.5, -1246386.6, -48456.434, -0.048872937, 0.12332005, -1237154.3, 187487.66, 0.030745408, 9.998588, 10.00187 
1.9249701e+3, 1.6463149e+2, -1523014.4, -1407777.5, -2050.8105, 0.08677912, 0.19894522, -1407741.0, -81114.7, 0.008026891, 9.998542, 10.000083 
1.9249935e+3, 1.746321e+2, -1371911.3, -1274816.8, 17154.143, 0.037271105, 0.21168554, -1271875.3, -43251.88, 0.0008187495, 9.998896, 10.000136 
1.925016e+3, 1.8463162e+2, -1271566.4, -1319576.9, -48092.37, 0.07415117, 0.21882477, -1241821.0, -111191.6, 0.0000031359323, 9.999482, 9.998904 
1.9250377e+3, 1.9463015e+2, -973885.7, -1100576.0, -6652.051, 0.17813094, 0.13265209, -973537.4, 59106.29, 0.0, 10.000766, 9.999097 
1.9250593e+3, 2.0462953e+2, -791726.75, -859459.5, 76897.52, 0.15760234, 0.12026639, -741568.4, 193079.92, 0.0, 10.000899, 10.000027 
1.9250803e+3, 2.146298e+2, -814370.4, -794257.9, -14704.401, -0.014642903, 0.09393376, -786499.9, 50143.07, 0.0, 9.999989, 10.000225 
1.9251019e+3, 2.2462937e+2, -790410.75, -918274.7, -105746.98, -0.006484061, 0.1165377, -730772.0, 7873.6943, 0.0, 10.000278, 9.99857 
1.9251244e+3, 2.3462802e+2, -425539.16, -680212.44, -78708.414, 0.18058479, 0.08598666, -403177.3, 237481.6, 0.0, 10.002079, 9.998654 
1.9251463e+3, 2.4462706e+2, -259223.77, -553289.9, 4194.7764, 0.23517194, 0.13255905, -259163.94, 283504.6, 0.0, 10.002515, 9.998659 
1.9251674e+3, 2.546267e+2, -303941.38, -503550.28, -51657.504, 0.12214364, 0.17903131, -291365.1, 153307.78, 0.0, 10.001471, 9.99882 
1.9251896e+3, 2.646252e+2, -310192.8, -659149.56, -35116.492, 0.10278224, 0.24254836, -306694.03, 39993.832, 0.000000047147957, 10.00162, 9.997016 
1.9252126e+3, 2.7462217e+2, 29400.867, -431632.72, -13830.897, 0.14706795, 0.19444527, 29815.42, 278533.2, 0.0000044268, 10.003237, 9.997116 
1.9252346e+3, 2.846194e+2, 223533.83, -194664.5, -31854.23, 0.16209386, 0.1726136, 225946.25, 376691.06, 0.000054025306, 10.00349, 9.9979515 
1.9252558e+3, 2.9461706e+2, 170587.72, -159889.63, -91042.47, 0.1639782, 0.08662611, 194008.94, 246775.6, 0.0002523606, 10.002411, 9.998028 
1.9252765e+3, 3.0461583e+2, 216262.64, -133054.73, 32989.402, -0.085650995, 0.1821779, 219350.84, 219350.84, 0.0006949562, 10.002467, 9.997871 
1.9253041e+3, 3.1461498e+2, 440721.88, 23612.088, 19253.957, 0.27829784, 0.23188004, 441608.78, 441608.78, 0.0013694268, 10.003738, 9.998332 
1.9348766e+3, 1.2460752e+2, -2080403.0, -1402651.0, -80402.516, 0.05955689, 0.3544281, -1393243.4, 325617.63, 0.1997211, 9.994953, 10.005101 
1.9349006e+3, 1.3460442e+2, -1901938.9, -1712105.6, 71709.52, -0.014794048, -0.11030489, -1688062.5, -67177.125, 0.13795441, 9.997855, 10.000338 
1.9349237e+3, 1.4460762e+2, -1741947.6, -1719243.1, 12211.107, 0.0058964873, 0.2588619, -1713922.5, -191068.25, 0.07814733, 9.998824, 9.999163 
1.9349457e+3, 1.5460664e+2, -1617006.3, -1515484.3, -43912.19, 0.031570826, 0.1341233, -1499126.3, -74256.18, 0.033007, 9.998635, 9.999968 
1.9349681e+3, 1.6460636e+2, -1465259.0, -1310735.6, -6742.4004, -0.030854736, 0.08375288, -1310442.0, 16434.0, 0.008786739, 9.998634, 10.0007105 
1.9349918e+3, 1.7460872e+2, -1317610.9, -1165386.8, 39046.93, -0.0567843, 0.19753943, -1155955.1, 72897.81, 0.00094156526, 9.998905, 10.00089 
1.935015e+3, 1.8461016e+2, -1159309.4, -1097166.6, -16940.75, -0.026284764, 0.2824324, -1092848.5, 37988.777, 0.0000044945964, 9.999527, 10.000409 
1.9350375e+3, 1.9460993e+2, -885364.0, -896725.5, 51949.35, 0.049799375, 0.17186013, -838785.7, 194050.63, 0.0, 10.000673, 10.000546 
1.9350596e+3, 2.0460922e+2, -952135.6, -1159025.6, 28973.582, 0.08041467, 0.1719474, -948154.7, -13310.416, 0.0, 10.000753, 9.998041 
1.9350815e+3, 2.1460816e+2, -997487.2, -1122598.0, -38030.32, 0.09396339, 0.2278658, -986834.1, -149973.67, 0.0, 9.999771, 9.998075 
1.9351032e+3, 2.2460684e+2, -761568.3, -785003.4, -54364.543, 0.065925546, 0.22155812, -717672.8, 21199.96, 0.0, 9.999967, 9.999635 
1.9351247e+3, 2.3460515e+2, -377294.7, -523284.5, 2751.189, -0.011510446, 0.036624297, -377242.88, 263638.34, 0.0, 10.001836, 9.999847 
1.9351469e+3, 2.4460392e+2, -375830.75, -729111.6, -47334.668, 0.01202785, 0.04538771, -369598.5, 173292.6, 0.0, 10.002226, 9.997596 
1.9351697e+3, 2.5460324e+2, -415695.38, -686461.5, -77215.08, 0.17459978, 0.17661057, -395223.56, 49679.418, 0.0, 10.001265, 9.9976635 
1.9351926e+3, 2.646012e+2, -288137.3, -541618.5, 6113.5293, 0.21400875, 0.20109944, -287989.97, 58933.094, 0.00000001782158, 10.001325, 9.99796 
1.9352153e+3, 2.7459753e+2, 54119.082, -297694.94, 61390.926, 0.09159859, -0.014000895, 64523.97, 313477.13, 0.0000033385966, 10.002909, 9.998179 
1.9352372e+3, 2.8459555e+2, 104209.66, -378284.63, -94446.52, 0.042597696, 0.041057937, 122038.43, 273010.6, 0.00004416703, 10.0032, 9.996839 
1.9352584e+3, 2.9459527e+2, 56328.77, -335134.9, -112686.914, 0.12795043, 0.26907682, 86449.3, 139430.3, 0.00021030588, 10.002154, 9.996943 
1.9352804e+3, 3.045908e+2, 222636.8, -39790.414, 55364.742, 0.01659898, 0.0555392, 233839.02, 233839.02, 0.0005915191, 10.002124, 9.998678 
1.9353077e+3, 3.1458887e+2, 443562.4, 235745.22, 133998.83, 0.22687456, -0.096513435, 509219.97, 509219.97, 0.0011872258, 10.002922, 10.000152 
1.9448741e+3, 1.24582164e+2, -1884414.1, -1393396.9, -111219.34, 0.25790715, 0.23784354, -1369379.5, 349732.28, 0.20999403, 9.996644, 10.004411 
1.9448963e+3, 1.3458e+2, -1977392.1, -1649758.3, 23359.537, -0.16722067, -0.1966739, -1648101.1, -26976.68, 0.14565058, 9.996879, 10.001257 
1.9449246e+3, 1.445855e+2, -1817591.3, -1757987.4, -69341.88, 0.24718192, 0.3422558, -1712314.5, -189244.81, 0.083007626, 9.998289, 9.999175 
1.9449453e+3, 1.5458366e+2, -1632281.8, -1571991.3, -63521.348, 0.12927379, 0.16871402, -1531825.1, -106729.63, 0.03539992, 9.998727, 9.999546 
1.9449666e+3, 1.645825e+2, -1500895.3, -1311491.3, 38051.848, -0.013658724, 0.04293599, -1304132.5, 22977.316, 0.009600047, 9.998313, 10.000866 
1.9449903e+3, 1.7458463e+2, -1448336.0, -1204836.5, 19669.328, -0.022740971, 0.11391122, -1203257.9, 25828.447, 0.0010784023, 9.997902, 10.0011015 
1.9450143e+3, 1.845865e+2, -1355790.1, -1169246.4, -39078.395, 0.024014773, 0.22100344, -1161390.9, -30324.604, 0.0000066792873, 9.998108, 10.00059 
1.9450374e+3, 1.945872e+2, -1077262.6, -967764.2, -94780.64, 0.046326138, 0.1902895, -913056.3, 120002.44, 0.0, 9.999305, 10.000706 
1.94506e+3, 2.0458686e+2, -1034134.3, -1207147.3, -120119.266, 0.09001707, 0.22574021, -972613.75, -37549.242, 0.0, 10.00024, 9.997957 
1.9450825e+3, 2.1458544e+2, -809787.75, -1042299.44, -64222.895, 0.16734688, 0.2565581, -793227.9, 43856.508, 0.0, 10.00111, 9.997981 
1.9451047e+3, 2.2458391e+2, -547707.75, -702035.8, 15101.011, 0.14990234, 0.24241133, -546244.0, 192854.69, 0.0, 10.001503, 9.999465 
1.9451264e+3, 2.3458214e+2, -448796.72, -579831.56, -50472.082, -0.0055852663, 0.070201226, -431610.06, 209497.53, 0.0, 10.001423, 9.999665 
1.9451489e+3, 2.445807e+2, -442270.25, -761114.6, -116783.734, 0.02179232, 0.06965782, -404071.9, 139047.38, 0.0, 10.001805, 9.997565 
1.9451724e+3, 2.545795e+2, -181040.64, -581314.6, -101301.484, 0.24685661, 0.15739162, -156863.56, 288271.88, 0.0, 10.002919, 9.997582 
1.9451955e+3, 2.645772e+2, 5319.1274, -375095.28, 39144.234, 0.2849104, 0.14709315, 9305.259, 356462.47, 0.000000002142629, 10.003203, 9.998211 
1.9452178e+3, 2.745738e+2, 19025.432, -295341.88, 9245.315, 0.06726553, -0.06529604, 19297.096, 268480.47, 0.0000030022966, 10.002536, 9.998402 
1.9452399e+3, 2.8457183e+2, 9906.006, -474712.97, -126751.18, 0.02424187, 0.0046968865, 41055.383, 192257.86, 0.00003904193, 10.002769, 9.996391 
1.945262e+3, 2.945714e+2, 322416.66, -254920.77, -142428.92, 0.19219011, 0.27017227, 355641.75, 408856.66, 0.00018459432, 10.004171, 9.996537 
1.9452846e+3, 3.0456585e+2, 501149.1, 82241.7, 35095.582, 0.1536102, -0.027577631, 504069.03, 504069.03, 0.00051477127, 10.004111, 9.99855 
1.9453098e+3, 3.1456515e+2, 385494.22, 207918.0, -44810.207, 0.18405655, -0.01979006, 396161.03, 396161.03, 0.0010271312, 10.002456, 10.000217 
1.954871e+3, 1.2455694e+2, -1933730.3, -1553113.5, 12182.883, 0.18328674, 0.13052607, -1552724.0, 166635.31, 0.22070916, 9.996954, 10.002915 
1.9548936e+3, 1.3455479e+2, -1984690.1, -1693927.5, 96944.54, -0.14429803, -0.2293258, -1664569.1, -43194.574, 0.15369554, 9.996977, 10.0009165 
1.9549236e+3, 1.4456142e+2, -1707320.4, -1564812.5, -47831.867, 0.26726854, 0.37039202, -1550246.9, -26938.527, 0.08810495, 9.998447, 10.00042 
1.9549441e+3, 1.5456076e+2, -1557495.6, -1425014.8, -40103.793, 0.108815886, 0.21104364, -1413820.6, 11498.289, 0.037922986, 9.998756, 10.0005455 
1.9549651e+3, 1.645599e+2, -1505544.0, -1346931.3, -27.170574, -0.039837, 0.07700529, -1346931.3, -19604.002, 0.010466628, 9.998424, 10.000568 
1.954989e+3, 1.7455988e+2, -1470175.3, -1259368.4, 14891.929, 0.021939108, -0.030986493, -1258321.5, -28998.904, 0.0012294218, 9.997933, 10.000714 
1.9550131e+3, 1.8456063e+2, -1428037.8, -1331926.1, -8555.137, 0.06906222, 0.039158028, -1331170.5, -199854.3, 0.000009908067, 9.99817, 9.99944 
1.9550368e+3, 1.9456193e+2, -1174489.8, -1149096.9, -40286.81, 0.04333899, 0.1902501, -1119553.3, -86241.984, 0.0, 9.99922, 9.9995 
1.95506e+3, 2.0456225e+2, -939119.1, -970745.06, -101843.03, 0.03345087, 0.2707304, -851868.75, 83442.53, 0.0, 10.000068, 9.999663 
1.955083e+3, 2.145615e+2, -708753.56, -783705.7, -20244.14, 0.080951475, 0.1845388, -703635.3, 133680.44, 0.0, 10.000904, 9.999851 
1.9551058e+3, 2.2456047e+2, -678442.5, -913215.8, 2397.9465, 0.09000481, 0.1834836, -678418.06, 60906.07, 0.0, 10.001234, 9.998149 
1.9551286e+3, 2.3455897e+2, -585502.6, -807545.75, -40455.332, 0.06216057, 0.18219674, -578361.5, 62976.836, 0.0, 10.001189, 9.99821 
1.9551516e+3, 2.4455735e+2, -435706.5, -672176.0, -88346.54, 0.08905349, 0.20211439, -406345.3, 137008.27, 0.0, 10.001481, 9.99833 
1.9551751e+3, 2.5455546e+2, -156892.73, -468025.9, -44282.95, 0.209591, 0.128209, -150712.78, 294658.3, 0.0, 10.002658, 9.998476 
1.9551978e+3, 2.645534e+2, -66846.375, -458634.13, -849.4984, 0.1667147, 0.11301985, -66844.54, 280544.2, 0.00000003752054, 10.00291, 9.997784 
1.9552192e+3, 2.74551e+2, -47994.17, -379990.44, -1083.2958, -0.060938135, 0.044998243, -47990.637, 201417.19, 0.0000033251551, 10.002309, 9.997928 
1.955242e+3, 2.8454843e+2, -46505.13, -507073.4, -96009.086, -0.07084364, 0.081961095, -27292.715, 124140.83, 0.000036409245, 10.002408, 9.996342 
1.9552664e+3, 2.9454595e+2, 269623.7, -263536.44, -64118.76, 0.20125863, 0.1402037, 277226.3, 330690.63, 0.00016708692, 10.003753, 9.996671 
1.9552888e+3, 3.0454126e+2, 357353.13, -120570.16, -47091.02, 0.1181594, -0.028990217, 361948.94, 361948.94, 0.00045041088, 10.0036745, 9.997381 
1.955311e+3, 3.1454325e+2, 223437.84, -2128.5593, -80790.47, 0.0008383862, 0.3660241, 249388.73, 249388.73, 0.0008724613, 10.001959, 9.99899 
1.9648685e+3, 1.2453232e+2, -2001783.1, -1716899.4, 46342.277, 0.22753562, 0.2590739, -1709550.5, 10051.2, 0.23177752, 9.997333, 10.00125 
1.9648914e+3, 1.3453019e+2, -1869869.4, -1573625.1, 71074.56, -0.07877819, -0.14653258, -1557455.6, 64163.02, 0.1620495, 9.997547, 10.001492 
1.9649221e+3, 1.4453615e+2, -1870497.5, -1590592.4, -55531.68, 0.36137754, 0.33626026, -1579977.8, -56418.734, 0.093428105, 9.997129, 10.000855 
1.9649422e+3, 1.5453652e+2, -1683216.8, -1426850.4, -127522.35, 0.112718426, 0.22879393, -1374221.9, 51335.797, 0.04057487, 9.99766, 10.001046 
1.9649637e+3, 1.6453606e+2, -1552019.9, -1399422.3, -86703.34, 0.0056212675, 0.11794474, -1360226.6, -32665.16, 0.011385711, 9.998223, 10.000312 
1.9649887e+3, 1.745356e+2, -1338155.0, -1229986.5, -92146.58, 0.14194754, -0.0030198435, -1177224.6, 52337.28, 0.0013940044, 9.998983, 10.000416 
1.965013e+3, 1.8453595e+2, -1308853.6, -1291826.6, -44978.22, 0.20069104, 0.051469058, -1254563.3, -123003.695, 0.000014255441, 9.999051, 9.999294 
1.9650364e+3, 1.945369e+2, -1260881.4, -1206419.8, -21000.977, 0.10966444, 0.17803052, -1199262.3, -165704.3, 0.0, 9.998687, 9.999365 
1.9650598e+3, 2.0453715e+2, -1052120.6, -983892.1, -35532.83, 0.065847054, 0.24331665, -968748.2, -33190.676, 0.0, 9.999104, 10.000034 
1.9650835e+3, 2.1453673e+2, -735556.0, -757158.75, -86024.71, 0.0767137, 0.14722423, -659657.2, 177900.56, 0.0, 10.000523, 10.000221 
1.9651073e+3, 2.2453603e+2, -685816.75, -928286.94, -97277.92, 0.12360305, 0.1659903, -651613.94, 87949.164, 0.0, 10.00124, 9.998047 
1.9651309e+3, 2.3453484e+2, -575644.25, -821717.8, -77922.336, 0.17246789, 0.21589251, -553044.7, 88531.375, 0.0, 10.001323, 9.998058 
1.9651541e+3, 2.445331e+2, -429312.63, -668303.44, -50897.473, 0.21391144, 0.22932346, -418924.63, 124668.484, 0.0, 10.001473, 9.998387 
1.9651774e+3, 2.5453082e+2, -301675.28, -536226.9, -93103.45, 0.22803643, 0.11484696, -269211.75, 176401.5, 0.0, 10.001627, 9.998529 
1.9652e+3, 2.64529e+2, -189016.33, -506377.4, -54684.57, 0.15027465, 0.12003094, -179857.9, 167771.22, 0.00000006167767, 10.002046, 9.997866 
1.9652216e+3, 2.745274e+2, 31089.186, -338550.6, -59929.18, -0.064548865, 0.13176319, 40562.625, 290205.53, 0.000003603985, 10.002851, 9.997945 
1.9652446e+3, 2.845249e+2, 72481.086, -362690.34, -68973.234, -0.054240543, 0.13906445, 83151.48, 234818.88, 0.00003430298, 10.002854, 9.997115 
1.9652694e+3, 2.9452193e+2, 66747.055, -283296.97, -25923.547, 0.21830636, 0.07922068, 68656.484, 122355.14, 0.00015136057, 10.002013, 9.997385 
1.9652918e+3, 3.0451864e+2, 141704.27, -309046.13, 58659.547, 0.122890286, 0.051150605, 149212.98, 149212.98, 0.00039140965, 10.002552, 9.996633 
1.9653133e+3, 3.145194e+2, 535132.0, 69070.72, -90662.86, -0.07496315, 0.41631684, 552147.4, 552147.4, 0.0007269925, 10.00441, 9.998323 
1.9748648e+3, 1.245064e+2, -2116380.3, -2026894.0, 73816.336, 0.022252347, 0.38558593, -1985319.1, -265461.47, 0.24301729, 9.997642, 9.9989605 
1.9748893e+3, 1.3450646e+2, -1765128.3, -1420624.8, 57226.01, -0.07331046, 0.06758665, -1411367.6, 210486.14, 0.17062773, 9.997673, 10.0027 
1.9749194e+3, 1.4450943e+2, -1877328.8, -1633123.6, -64886.035, 0.32622692, 0.21176317, -1616953.9, -93130.04, 0.09895461, 9.99724, 10.000516 
1.9749393e+3, 1.5451084e+2, -1681483.9, -1431617.6, -99122.73, 0.010670501, 0.22045359, -1397071.6, 28740.879, 0.04335473, 9.997695, 10.000995 
1.974962e+3, 1.6451088e+2, -1543157.1, -1406202.9, -72890.164, -0.021087138, 0.16717419, -1374669.5, -46856.22, 0.012356995, 9.998342, 10.000206 
1.9749886e+3, 1.7451167e+2, -1350220.0, -1254254.1, -55122.3, 0.22350903, 0.19453903, -1229156.1, 648.91986, 0.0015709848, 9.998987, 10.000245 
1.9750132e+3, 1.8451235e+2, -1244207.1, -1168144.0, -74087.445, 0.26990515, 0.25033826, -1122896.8, 8900.961, 0.000019593592, 9.99909, 10.000129 
1.9750354e+3, 1.94512e+2, -1205002.4, -1073539.3, -24622.027, 0.1108155, 0.156568, -1069079.0, -35279.215, 0.0, 9.998617, 10.000309 
1.9750588e+3, 2.0451155e+2, -1143011.8, -1134873.4, 3929.8228, 0.027091948, 0.14499334, -1133285.5, -197481.28, 0.0, 9.998942, 9.999076 
1.9750838e+3, 2.1451122e+2, -841369.06, -925186.4, -21288.75, 0.03662775, 0.16326734, -836271.94, 1537.1058, 0.0, 10.000301, 9.999174 
1.9751085e+3, 2.2451073e+2, -668512.25, -822352.0, -106123.13, 0.08961544, 0.21489632, -614364.25, 125449.516, 0.0, 10.000929, 9.998927 
1.9751327e+3, 2.3450978e+2, -534265.2, -690686.8, -58327.84, 0.21486512, 0.1848388, -514910.28, 126910.53, 0.0, 10.001121, 9.999057 
1.9751562e+3, 2.445081e+2, -515234.06, -786881.8, -59740.74, 0.24750341, 0.18263648, -502676.4, 41160.125, 0.0, 10.001209, 9.9977045 
1.9751787e+3, 2.5450566e+2, -376449.8, -653888.4, -73675.67, 0.1777788, 0.12719679, -358098.6, 87762.64, 0.0, 10.00146, 9.997803 
1.9752014e+3, 2.6450396e+2, -212220.38, -483259.8, -41014.43, 0.06549746, 0.16758054, -206149.92, 141728.78, 0.000000055759365, 10.00174, 9.998168 
1.9752245e+3, 2.745031e+2, 15493.485, -295144.03, -10818.653, -0.081662215, 0.20679565, 15869.813, 265757.5, 0.0000036492006, 10.002535, 9.998384 
1.9752474e+3, 2.8450146e+2, 114436.19, -201772.03, -117242.78, -0.092708856, 0.2124364, 153163.94, 305066.0, 0.00003270768, 10.002522, 9.998389 
1.9752704e+3, 2.9449913e+2, 135636.44, -103952.47, -33358.723, 0.08678583, 0.07385707, 140194.36, 194115.25, 0.00013942833, 10.001849, 9.998698 
1.975293e+3, 3.0449778e+2, 12888.919, -474305.6, 101007.14, -0.055662796, 0.22107257, 32999.957, 32999.957, 0.00034788318, 10.002142, 9.995685 
1.9753182e+3, 3.1449404e+2, 427491.78, 32581.805, 7210.033, -0.07178054, 0.21625893, 427623.38, 427623.38, 0.0006200003, 10.003662, 9.998404 
1.9848643e+3, 1.2447924e+2, -1937511.5, -2052245.0, 160325.42, 0.16427396, 0.2750992, -1824598.5, -104473.11, 0.25424254, 9.999314, 9.998018 
1.9848886e+3, 1.3448149e+2, -1674220.3, -1379032.5, -6137.476, 0.077375814, 0.16427694, -1378904.9, 243196.42, 0.17932345, 9.998223, 10.002817 
1.9849156e+3, 1.444832e+2, -1940814.6, -1680093.0, -82380.234, 0.2524542, 0.18921226, -1656244.8, -132160.8, 0.104643695, 9.996874, 10.00038 
1.9849375e+3, 1.544849e+2, -1651206.6, -1417443.6, -115937.695, 0.072944544, 0.22821099, -1369695.8, 56373.402, 0.046255346, 9.997892, 10.00102 
1.9849615e+3, 1.6448537e+2, -1539829.0, -1409756.9, -73859.87, 0.0911573, 0.21922068, -1376380.8, -48314.37, 0.013380272, 9.9984045, 10.00014 
1.9849874e+3, 1.7448665e+2, -1437852.6, -1303125.0, -76289.1, 0.23875065, 0.3001597, -1268715.0, -38658.78, 0.0017591557, 9.998433, 10.000168 
1.985012e+3, 1.8448733e+2, -1255542.1, -1145530.3, -81423.33, 0.26402158, 0.34982738, -1102274.3, 29773.979, 0.0000256483, 9.998874, 10.000391 
1.985035e+3, 1.9448644e+2, -961346.9, -927203.06, -103236.01, 0.14427315, 0.16822718, -839636.94, 194414.55, 0.0, 10.000128, 10.000597 
1.9850594e+3, 2.0448576e+2, -917770.06, -1043743.5, -42308.266, 0.106810845, 0.1279595, -904879.8, 31176.668, 0.0, 10.000561, 9.998927 
1.985085e+3, 2.1448573e+2, -859343.8, -955034.06, -33235.664, 0.13444997, 0.19781148, -848932.94, -10872.69, 0.0, 10.000271, 9.998986 
1.9851099e+3, 2.244853e+2, -731409.0, -821221.3, -86823.016, 0.1791993, 0.2505661, -678566.5, 61498.69, 0.0, 10.000355, 9.999209 
1.9851337e+3, 2.3448415e+2, -549963.7, -666823.5, -116702.086, 0.23492363, 0.17021102, -477881.38, 164192.1, 0.0, 10.000874, 9.999336 
1.9851574e+3, 2.4448258e+2, -464206.03, -740642.6, -83282.9, 0.23892128, 0.1586254, -441054.13, 103033.6, 0.0, 10.001519, 9.997843 
1.9851802e+3, 2.5448042e+2, -217063.88, -566503.7, -66571.695, 0.14308815, 0.12259895, -204810.95, 241299.02, 0.0, 10.002534, 9.997873 
1.9852035e+3, 2.6447895e+2, -94574.82, -401413.63, -14797.665, 0.074501194, 0.17390282, -93862.836, 254262.75, 0.00000004684117, 10.002449, 9.998379 
1.9852273e+3, 2.7447844e+2, -187868.69, -371379.56, -38680.215, 0.02525752, 0.23095156, -180048.92, 70082.92, 0.000003631824, 10.001053, 9.998566 
1.9852506e+3, 2.844773e+2, -30919.977, -250891.2, -114078.82, 0.022206811, 0.26963595, 17558.328, 169699.73, 0.000030883682, 10.001455, 9.998552 
1.9852729e+3, 2.9447514e+2, 456176.5, 61340.66, -161143.86, 0.059093706, 0.1428564, 513594.2, 567751.5, 0.00012822116, 10.004044, 9.998757 
1.9852957e+3, 3.0447313e+2, 444248.3, -258617.52, -23538.465, -0.111882284, 0.22047348, 445035.72, 445035.72, 0.0003141248, 10.005024, 9.995786 
1.9853236e+3, 3.144689e+2, 461000.0, 31434.5, -130126.51, 0.11662667, 0.15822525, 497343.78, 497343.78, 0.00054965925, 10.00388, 9.998311 
1.9948654e+3, 1.2445433e+2, -1850478.6, -1923173.3, -19327.781, 0.24544162, 0.3040374, -1845659.4, -125288.74, 0.26535824, 9.999541, 9.998786 
1.9948885e+3, 1.3445498e+2, -1728992.9, -1492839.4, -78612.55, 0.21061793, 0.13008524, -1469064.0, 153299.78, 0.18805622, 9.998323, 10.001849 
1.9949104e+3, 1.4445728e+2, -1909212.8, -1649614.4, -84776.68, -0.008784897, 0.25518805, -1624381.6, -100040.71, 0.11045076, 9.997022, 10.000521 
1.9949368e+3, 1.5445852e+2, -1636234.8, -1389680.1, -66985.484, 0.18529502, 0.23935623, -1372656.5, 53672.348, 0.04926506, 9.997914, 10.001199 
1.9949614e+3, 1.644594e+2, -1525083.1, -1402651.6, -83480.59, 0.19443479, 0.26243332, -1360347.5, -32025.344, 0.014456319, 9.998501, 10.000143 
1.9949844e+3, 1.744604e+2, -1433559.0, -1296390.6, -69404.95, 0.072072916, 0.31274727, -1267400.0, -37083.703, 0.0019582892, 9.998444, 10.000206 
1.995009e+3, 1.8446079e+2, -1270224.6, -1183098.0, -50537.055, 0.040612817, 0.34234694, -1159939.8, -27627.408, 0.000032105352, 9.99891, 10.000114 
1.995035e+3, 1.9446012e+2, -995862.8, -974458.3, -46667.48, 0.10087159, 0.21599227, -937281.6, 97031.7, 0.0, 10.000033, 10.000313 
1.9950607e+3, 2.0445989e+2, -903425.0, -978110.75, -67470.73, 0.16046426, 0.2072357, -863652.44, 72661.02, 0.0, 10.000401, 9.9994545 
1.9950867e+3, 2.1446018e+2, -844567.44, -882817.9, -32855.563, 0.24768692, 0.248194, -825676.06, 12636.517, 0.0, 10.00009, 9.999568 
1.9951111e+3, 2.2445963e+2, -794667.5, -888956.9, -78768.58, 0.23619375, 0.27473322, -750012.9, -9694.537, 0.0, 10.000078, 9.9988785 
1.9951338e+3, 2.3445801e+2, -607030.9, -736614.9, -80066.695, 0.11638414, 0.18211487, -568824.44, 73508.68, 0.0, 10.000659, 9.99896 
1.9951572e+3, 2.4445643e+2, -461617.2, -659771.7, -60224.535, 0.032220364, 0.1520872, -444749.2, 99598.28, 0.0, 10.00119, 9.998559 
1.9951816e+3, 2.5445494e+2, -197358.11, -465682.06, -13200.612, 0.0157824, 0.1013402, -196710.25, 249650.39, 0.0, 10.002274, 9.99869 
1.9952059e+3, 2.644538e+2, -149646.78, -437275.9, -77373.54, 0.03273793, 0.14531565, -130153.984, 218217.27, 0.000000042002604, 10.002119, 9.99829 
1.9952294e+3, 2.7445325e+2, -228819.83, -402341.5, -76018.77, 0.11481935, 0.20825535, -200227.75, 50149.344, 0.0000035134383, 10.000835, 9.998451 
1.995253e+3, 2.8445208e+2, -153463.28, -442135.1, -43856.23, 0.091530964, 0.30694634, -146947.53, 5440.805, 0.00002820436, 10.001178, 9.997374 
1.9952764e+3, 2.9444978e+2, 319789.78, -139378.05, -44702.145, -0.03703064, 0.27334854, 324101.28, 378511.47, 0.00011358975, 10.00368, 9.997553 
1.9952998e+3, 3.0444494e+2, 414244.75, -170832.33, -78742.66, -0.25667948, 0.086532936, 424657.03, 424657.03, 0.0002776181, 10.004413, 9.996668 
1.9953278e+3, 3.1444407e+2, 313361.38, -117758.94, -74952.86, 0.07976687, 0.2456328, 326020.66, 326020.66, 0.00049017585, 10.003257, 9.997558 
2.0048635e+3, 1.2442971e+2, -2185565.5, -1913664.8, 26344.217, 0.26569018, 0.3685114, -1911135.8, -190523.92, 0.27641812, 9.996515, 10.000282 
2.0048857e+3, 1.3442914e+2, -1864422.5, -1612401.5, -100731.51, 0.14358081, 0.11809868, -1577087.9, 45529.293, 0.1968332, 9.997701, 10.001163 
2.0049086e+3, 1.4443143e+2, -1785885.5, -1583412.4, -12526.414, 0.084141865, 0.27195045, -1582640.3, -58046.063, 0.11636926, 9.997849, 10.000566 
2.0049356e+3, 1.544323e+2, -1536748.5, -1345891.8, -13344.68, 0.24430121, 0.21213536, -1344963.3, 81622.12, 0.05238356, 9.998594, 10.001185 
2.00496e+3, 1.6443314e+2, -1481432.4, -1410197.4, -43658.258, 0.20351607, 0.24361466, -1389470.9, -60892.066, 0.015589432, 9.998895, 9.999912 
2.004983e+3, 1.7443398e+2, -1358136.3, -1290318.3, -74248.82, 0.053287942, 0.29663867, -1242601.9, -12026.973, 0.0021699998, 9.99905, 9.999971 
2.0050079e+3, 1.8443424e+2, -1263901.4, -1176036.6, -9890.338, 0.059739318, 0.32447383, -1174937.1, -42364.617, 0.00003871999, 9.998956, 10.000133 
2.005035e+3, 1.9443388e+2, -1131151.4, -1039643.9, -9340.527, 0.15800658, 0.22843058, -1038700.2, -4129.2026, 0.0, 9.999125, 10.0003 
2.0050612e+3, 2.0443372e+2, -1041488.0, -1022735.06, -27421.498, 0.22368073, 0.2227466, -1003131.25, -66560.88, 0.0, 9.999375, 9.999641 
2.0050867e+3, 2.1443379e+2, -854441.7, -865609.8, -45088.99, 0.25519943, 0.22381058, -814592.25, 23979.256, 0.0, 9.999934, 9.999765 
2.005111e+3, 2.2443351e+2, -738478.06, -835767.44, -56910.258, 0.2182485, 0.25772285, -712255.6, 28319.783, 0.0, 10.00038, 9.999088 
2.0051338e+3, 2.3443279e+2, -568382.2, -691259.9, -51108.45, 0.05912232, 0.23783283, -549903.56, 92679.234, 0.0, 10.000849, 9.999167 
2.0051579e+3, 2.4443178e+2, -485758.4, -677871.25, -15922.128, 0.017703984, 0.25727168, -484447.75, 60144.78, 0.0, 10.001009, 9.99854 
2.0051838e+3, 2.5443038e+2, -430552.2, -581014.06, -56498.4, 0.10409813, 0.21826042, -411699.3, 34906.35, 0.0, 10.000669, 9.998673 
2.0052084e+3, 2.6442873e+2, -298308.53, -514291.44, -130011.92, 0.14898749, 0.21158403, -237287.39, 111332.8, 0.000000029896977, 10.001093, 9.998265 
2.0052312e+3, 2.7442652e+2, 23496.963, -292593.56, -148756.28, 0.13427743, 0.116112635, 82492.56, 333131.4, 0.0000031274246, 10.002575, 9.998387 
2.0052552e+3, 2.8442496e+2, 112320.16, -364890.16, -26356.045, 0.11374678, 0.19758841, 113771.37, 266424.7, 0.000025154262, 10.003215, 9.996932 
2.0052803e+3, 2.944238e+2, 148435.33, -282237.47, -32139.424, 0.04566079, 0.3390635, 150820.56, 205487.28, 0.00009776422, 10.002759, 9.99702 
2.0053044e+3, 3.0441844e+2, 300977.7, -165921.77, -33843.965, -0.14371085, 0.105187565, 303418.2, 303418.2, 0.00024035014, 10.003362, 9.997229 
2.0053324e+3, 3.1441677e+2, 539082.9, -104935.06, -97311.266, 0.1329211, 0.1460688, 553465.44, 553465.44, 0.00043376652, 10.005186, 9.996755 
2.0148607e+3, 1.2440393e+2, -2026730.0, -1633803.3, 115903.65, 0.2576562, 0.2907816, -1602162.5, 118700.86, 0.28771394, 9.996577, 10.002479 
2.0148799e+3, 1.3440387e+2, -1886899.9, -1662419.3, -82612.72, -0.23805985, 0.11356411, -1635294.0, -12431.939, 0.20582092, 9.997736, 10.000744 
2.01491e+3, 1.4440557e+2, -1768889.9, -1583587.8, -10179.187, 0.37222674, 0.23475039, -1583030.3, -58185.816, 0.12247417, 9.997994, 10.000498 
2.0149332e+3, 1.5440613e+2, -1542240.6, -1359160.0, 19559.754, 0.11929019, 0.15252285, -1357093.6, 69745.664, 0.055639356, 9.99861, 10.001082 
2.0149569e+3, 1.6440664e+2, -1490505.3, -1454407.8, -52000.098, -0.043502294, 0.17243393, -1417413.1, -88577.53, 0.016791714, 9.999002, 9.999561 
2.0149826e+3, 1.744074e+2, -1389372.9, -1348394.3, -60130.28, 0.081567906, 0.260443, -1305358.3, -74526.62, 0.0023981123, 9.999029, 9.999582 
2.0150085e+3, 1.8440777e+2, -1238720.0, -1141429.6, -24279.016, 0.1754289, 0.3089707, -1135707.3, -2879.4148, 0.000045425786, 9.99902, 10.000345 
2.0150347e+3, 1.9440761e+2, -1124550.6, -1010038.56, 2812.827, 0.19034378, 0.2099584, -1009969.5, 24855.836, 0.0, 9.999057, 10.000537 
2.0150599e+3, 2.0440733e+2, -1072399.4, -1051172.4, -21163.523, 0.14197959, 0.1822923, -1038110.1, -101283.11, 0.0, 9.99922, 9.999524 
2.0150848e+3, 2.1440673e+2, -900297.44, -910596.25, -11839.497, 0.050870508, 0.13538, -892536.0, -53699.777, 0.0, 9.99972, 9.999562 
2.0151092e+3, 2.2440687e+2, -744358.0, -783289.5, -51187.918, -0.021633476, 0.20217612, -709059.56, 31777.422, 0.0, 10.000088, 9.999596 
2.0151336e+3, 2.3440814e+2, -551072.56, -617780.5, -20518.754, -0.051683407, 0.3228866, -545266.56, 97559.234, 0.0, 10.0006695, 9.999765 
2.0151593e+3, 2.4440819e+2, -581835.8, -805746.75, -36990.363, 0.029472863, 0.449063, -575883.2, -31055.744, 0.0, 10.000711, 9.997802 
2.0151864e+3, 2.5440654e+2, -520881.88, -715994.06, -56094.742, 0.26798058, 0.46822557, -505904.38, -59057.688, 0.0, 10.000451, 9.99785 
2.0152108e+3, 2.6440337e+2, -341331.2, -533338.94, -91367.555, 0.2521617, 0.35528234, -304802.9, 44072.555, 0.0000000091701935, 10.000795, 9.998278 
2.0152323e+3, 2.7439845e+2, -10803.682, -295573.97, -73215.664, -0.038975175, -0.026792422, 6917.5825, 257832.89, 0.0000023642951, 10.002291, 9.9985 
2.0152566e+3, 2.8439626e+2, 51977.336, -403149.4, -57858.73, -0.10095144, -0.009334922, 59217.543, 212150.63, 0.000021595964, 10.002849, 9.996839 
2.015284e+3, 2.9439706e+2, 107542.336, -321493.03, -28204.615, 0.124006554, 0.3324162, 109388.55, 164317.55, 0.000083873885, 10.002539, 9.996863 
2.0153093e+3, 3.043931e+2, 222770.36, -211935.19, 8019.5986, -0.033509836, 0.25039926, 222918.25, 222918.25, 0.00020823472, 10.002899, 9.997112 
2.0153353e+3, 3.1438938e+2, 354620.5, -245447.16, 77395.31, -0.15780385, 0.07613315, 364442.03, 364442.03, 0.0003833975, 10.004227, 9.996209 
2.0248589e+3, 1.2437852e+2, -1759480.1, -1404978.1, 82052.836, 0.3693538, 0.27062243, -1386907.4, 334202.28, 0.29983783, 9.997646, 10.004141 
2.0248784e+3, 1.3437717e+2, -2039252.6, -1771561.0, -84914.51, -0.1023661, -0.013034134, -1746897.6, -123776.98, 0.21537028, 9.99689, 10.000375 
2.0249085e+3, 1.4438082e+2, -1749307.3, -1614506.9, 17340.883, 0.4352183, 0.33019465, -1612311.9, -87227.06, 0.12892798, 9.998288, 10.00015 
2.0249318e+3, 1.543803e+2, -1545028.0, -1420464.9, -22907.648, 0.113981955, 0.19529012, -1416385.6, 10706.2705, 0.05909158, 9.998858, 10.00052 
2.0249559e+3, 1.6437991e+2, -1476484.8, -1419794.4, -79966.14, -0.027336141, 0.14530806, -1363298.4, -34201.434, 0.018083457, 9.999017, 9.999773 
2.0249824e+3, 1.7438032e+2, -1271165.0, -1258471.0, -61508.97, 0.13826656, 0.17225318, -1202982.5, 28110.262, 0.0026487417, 9.9997425, 9.999837 
2.0250085e+3, 1.8438074e+2, -1130486.9, -1125044.5, -10513.546, 0.24440485, 0.22714095, -1116905.8, 16182.449, 0.000052423693, 9.999916, 10.00002 
2.0250341e+3, 1.9438088e+2, -1057409.3, -1026578.6, -53598.52, 0.21011487, 0.19583009, -986222.7, 48863.793, 0.0, 9.999711, 10.000109 
2.0250592e+3, 2.0438083e+2, -1033651.1, -1010774.6, -58642.492, 0.15021671, 0.20366238, -962465.3, -25377.373, 0.0, 9.999401, 9.9997015 
2.0250839e+3, 2.1438041e+2, -963469.4, -920397.0, -50701.26, 0.033985995, 0.15551917, -886847.56, -47752.742, 0.0, 9.999195, 9.999738 
2.025109e+3, 2.2438064e+2, -836940.44, -830615.9, -43283.348, -0.024256384, 0.21953702, -790379.44, -49284.727, 0.0, 9.999463, 9.999563 
2.0251344e+3, 2.3438187e+2, -587634.06, -639382.6, -78217.016, -0.02985031, 0.34073642, -531122.8, 111961.51, 0.0, 10.000442, 9.999716 
2.0251606e+3, 2.4438183e+2, -537761.44, -756964.7, -98614.86, 0.08975431, 0.45043123, -499926.94, 45159.6, 0.0, 10.000918, 9.99802 
2.0251876e+3, 2.5437993e+2, -449951.4, -661442.1, -72512.8, 0.33538553, 0.42559716, -427477.47, 19630.043, 0.0, 10.000859, 9.99802 
2.0252125e+3, 2.643771e+2, -299968.28, -522285.97, -2555.201, 0.33308047, 0.33655283, -299938.9, 49195.03, 0.000000001074916, 10.001122, 9.998194 
2.0252346e+3, 2.7437326e+2, -96720.82, -342502.34, -31720.133, 0.0066142282, 0.082591325, -92693.08, 158471.56, 0.0000018159459, 10.001753, 9.998424 
2.0252594e+3, 2.843711e+2, -1262.4683, -443801.34, -24236.887, -0.06707308, 0.10883137, 60.975204, 153244.2, 0.000018189116, 10.002514, 9.996732 
2.025287e+3, 2.9437038e+2, 218126.05, -264740.47, -33606.81, 0.137459, 0.3140338, 220453.81, 275646.25, 0.000072171526, 10.003291, 9.996882 
2.0253143e+3, 3.0436665e+2, 363400.13, -184398.34, 64715.445, 0.13701673, 0.25609744, 370941.63, 370941.63, 0.00017992329, 10.00395, 9.9968405 
2.0253392e+3, 3.143639e+2, 351166.4, -190189.19, 5831.324, -0.14375283, 0.23207739, 351229.22, 351229.22, 0.00033564074, 10.0038595, 9.996803 
2.0348541e+3, 1.2435287e+2, -1678596.4, -1325917.6, -113979.266, 0.027379274, 0.20523508, -1292288.4, 429068.3, 0.3135409, 9.997903, 10.00489 
2.034881e+3, 1.3434881e+2, -2042394.6, -1813873.8, -34764.965, 0.4231014, -0.28021377, -1808702.0, -185307.08, 0.22593072, 9.997026, 10.000028 
2.0349038e+3, 1.4435703e+2, -1761405.4, -1689452.6, 43333.105, 0.07903066, 0.5542306, -1669107.9, -143791.2, 0.13594478, 9.998496, 9.9995365 
2.0349309e+3, 1.5435487e+2, -1603842.8, -1553337.6, -2253.577, 0.113154925, 0.34408662, -1553237.3, -125893.695, 0.06282382, 9.998908, 9.999575 
2.0349567e+3, 1.6435292e+2, -1411488.5, -1310448.3, -77941.88, 0.09098553, 0.15599398, -1268085.5, 61277.605, 0.019494196, 9.99912, 10.000482 
2.034982e+3, 1.7435268e+2, -1198306.0, -1119579.0, -23795.3, 0.099934645, 0.029399117, -1112945.8, 118413.07, 0.0029308582, 9.999786, 10.0007715 
2.0350076e+3, 1.8435313e+2, -1185524.1, -1249358.4, -27604.531, 0.10896319, 0.07211923, -1175242.8, -41889.25, 0.00006041413, 9.999961, 9.999147 
2.0350331e+3, 1.9435377e+2, -1142838.4, -1181501.8, -51297.938, 0.10531122, 0.19737111, -1107350.4, -71996.7, 0.0, 9.999621, 9.999088 
2.0350583e+3, 2.043543e+2, -1024799.2, -958703.75, -80226.305, 0.08289257, 0.29539055, -904985.06, 32367.549, 0.0, 9.999259, 10.000126 
2.0350838e+3, 2.1435474e+2, -950247.8, -850873.56, -46460.44, 0.08072072, 0.2800128, -832535.8, 6812.856, 0.0, 9.999015, 10.000304 
2.0351093e+3, 2.2435471e+2, -917342.8, -924684.4, -18830.197, 0.045065586, 0.31251684, -901828.94, -160479.39, 0.0, 9.999163, 9.999056 
2.0351352e+3, 2.3435403e+2, -670044.56, -748978.2, -24034.313, 0.0003447752, 0.30240795, -663302.3, -19944.85, 0.0, 10.000188, 9.99908 
2.0351614e+3, 2.4435276e+2, -512002.0, -634865.4, -110247.27, 0.036382757, 0.27474788, -447226.25, 98143.39, 0.0, 10.000623, 9.999002 
2.0351872e+3, 2.5435066e+2, -398127.2, -511657.3, -64136.58, 0.19612595, 0.11718345, -369243.1, 78144.58, 0.0, 10.000673, 9.999142 
2.0352128e+3, 2.6434973e+2, -369184.25, -590515.1, 4373.5186, 0.22532703, 0.17633396, -369097.84, -19701.271, 0.000000023664393, 10.000813, 9.997868 
2.0352378e+3, 2.7435032e+2, -156548.0, -420867.3, 6641.895, 0.11620112, 0.3954694, -156381.22, 95012.51, 0.0000019634658, 10.001548, 9.997986 
2.0352632e+3, 2.843486e+2, -66813.016, -486689.06, -15861.352, 0.022062467, 0.49688318, -66214.69, 87196.82, 0.000016146072, 10.002133, 9.996613 
2.0352888e+3, 2.943437e+2, 171920.84, -283285.4, 17848.7, -0.041703265, 0.29042706, 172619.63, 228077.56, 0.00006227005, 10.002948, 9.996926 
2.0353182e+3, 3.0433884e+2, 217910.6, -323706.3, 47513.305, 0.10613881, 0.1463735, 222047.1, 222047.1, 0.00015436458, 10.003291, 9.996178 
2.0353445e+3, 3.143381e+2, 370848.7, 32389.023, 24240.588, -0.052578148, 0.37166518, 372576.0, 372576.0, 0.0002908974, 10.003139, 9.998651 
2.0448512e+3, 1.24326624e+2, -1774944.3, -1451918.1, -134816.61, -0.020171868, 0.18346384, -1403045.9, 318564.9, 0.3294151, 9.99777, 10.003815 
2.0448804e+3, 1.3432178e+2, -1781805.3, -1752599.5, -86069.67, 0.5683832, -0.29907146, -1679902.8, -56243.066, 0.23787552, 9.99912, 9.999444 
2.0449017e+3, 1.4432977e+2, -1582941.6, -1594985.6, -453.88983, -0.029903188, 0.5449104, -1582924.6, -57339.945, 0.14372098, 9.999701, 9.999598 
2.0449308e+3, 1.5432757e+2, -1523117.8, -1498292.6, -25474.088, 0.1911602, 0.32009378, -1482367.9, -54757.055, 0.06692591, 9.999408, 9.999703 
2.044957e+3, 1.6432588e+2, -1455237.3, -1319300.6, -50831.914, 0.2527762, 0.14305197, -1302395.0, 27232.975, 0.021061258, 9.998751, 10.000603 
2.0449814e+3, 1.7432629e+2, -1407265.8, -1213302.0, -81843.836, 0.14489411, 0.06904397, -1183382.8, 48236.31, 0.003256253, 9.99831, 10.000848 
2.0450065e+3, 1.8432689e+2, -1416100.9, -1336837.1, -56188.652, 0.10510606, 0.11787032, -1307709.6, -174097.5, 0.00007088071, 9.998287, 9.9993515 
2.0450321e+3, 1.9432704e+2, -1192223.9, -1176581.4, -11893.9, 0.08997509, 0.16833104, -1170167.5, -134552.44, 0.0, 9.999175, 9.999328 
2.0450577e+3, 2.0432736e+2, -956407.0, -959024.8, 4927.435, 0.08774053, 0.24909545, -952617.56, -15002.617, 0.0, 9.999849, 9.999854 
2.0450836e+3, 2.1432815e+2, -757443.3, -784054.7, -48479.03, 0.10459251, 0.29552978, -720477.1, 119131.234, 0.0, 10.000452, 10.000071 
2.0451096e+3, 2.2432807e+2, -698526.0, -829997.6, -8287.474, 0.09729794, 0.3339575, -698005.6, 43604.293, 0.0, 10.000692, 9.998986 
2.045136e+3, 2.3432644e+2, -621174.4, -734464.25, 1780.8126, 0.044983022, 0.23895042, -621146.4, 22479.154, 0.0, 10.000539, 9.999024 
2.045162e+3, 2.443248e+2, -511230.1, -632869.1, -73004.28, 0.059273645, 0.17797624, -477030.47, 68610.125, 0.0, 10.000601, 9.9990425 
2.0451874e+3, 2.543232e+2, -350838.5, -481887.4, -131716.86, 0.1386784, 0.07098072, -269248.1, 178406.19, 0.0, 10.000965, 9.999209 
2.0452134e+3, 2.6432273e+2, -268998.7, -567006.25, -49009.992, 0.18401174, 0.17871417, -261145.52, 88515.234, 0.00000011200642, 10.001583, 9.997663 
2.0452404e+3, 2.743235e+2, -24940.17, -390376.44, -67245.45, 0.18198074, 0.4474696, -12958.875, 238699.92, 0.000002326167, 10.002576, 9.997704 
2.0452662e+3, 2.843217e+2, 62982.547, -382231.5, -67177.44, 0.10401612, 0.5361152, 72897.984, 226576.55, 0.000014696717, 10.002827, 9.997 
2.0452908e+3, 2.943165e+2, 64199.125, -282011.63, -49036.832, -0.07537456, 0.2634437, 71010.625, 126737.11, 0.00005375532, 10.001993, 9.997389 
2.0453215e+3, 3.0431277e+2, 107493.17, -369914.2, 104000.59, 0.17380728, 0.20766671, 129165.31, 129165.31, 0.00013253847, 10.00249, 9.996239 
2.0453496e+3, 3.143114e+2, 597488.06, 139573.06, -72000.0, 0.08573437, 0.38260537, 608542.1, 608542.1, 0.0002539401, 10.004652, 9.998663 
2.0548515e+3, 1.2429885e+2, -1954997.5, -1791070.3, 47854.063, 0.13382623, 0.11833112, -1778123.1, -56242.023, 0.3476065, 9.998036, 10.000417 
2.0548755e+3, 1.3429648e+2, -1814545.4, -1841034.9, -17163.201, 0.13971852, -0.02716345, -1806110.6, -182199.98, 0.2513395, 9.999203, 9.998798 
2.0549014e+3, 1.4429884e+2, -1512255.1, -1489445.6, -16119.116, -0.0961502, 0.26777914, -1481104.6, 44785.984, 0.15236652, 9.99987, 10.000283 
2.0549306e+3, 1.542985e+2, -1428838.8, -1327937.1, -24429.887, 0.2049197, 0.11540979, -1322333.4, 105559.78, 0.071473114, 9.99948, 10.000893 
2.0549569e+3, 1.6429886e+2, -1476602.8, -1401656.4, -86376.53, 0.29099715, 0.109255195, -1344974.6, -15083.744, 0.022826005, 9.998903, 9.999968 
2.0549802e+3, 1.743011e+2, -1462572.5, -1331890.5, -91645.836, 0.156668, 0.30032286, -1284677.5, -52804.195, 0.0036400491, 9.998321, 10.000031 
2.0550048e+3, 1.8430187e+2, -1318462.8, -1156194.1, -40059.055, 0.06796176, 0.35609442, -1146843.6, -12978.1875, 0.00008593674, 9.998364, 10.000563 
2.055031e+3, 1.943004e+2, -1092174.5, -966368.9, 29541.014, 0.035231333, 0.10005111, -959777.56, 76095.875, 0.0, 9.999145, 10.000794 
2.0550571e+3, 2.0429984e+2, -1044362.3, -1106827.4, 14588.326, 0.00041523785, 0.05584741, -1041123.25, -103246.016, 0.0, 9.999701, 9.998911 
2.055083e+3, 2.1430056e+2, -867559.6, -964065.9, -14366.449, -0.013298949, 0.20370987, -865466.4, -25591.176, 0.0, 10.000238, 9.998938 
2.0551094e+3, 2.2430035e+2, -723723.9, -807019.94, -25688.215, -0.0253788, 0.27815846, -716438.9, 25439.807, 0.0, 10.000379, 9.99929 
2.055136e+3, 2.3429886e+2, -624318.2, -685870.6, 8668.764, -0.018334173, 0.15178736, -623120.56, 20769.959, 0.0, 10.000306, 9.999469 
2.0551623e+3, 2.4429776e+2, -622284.9, -781686.7, -74857.37, -0.003893659, 0.15981726, -592642.94, -46741.445, 0.0, 10.000264, 9.998175 
2.0551875e+3, 2.5429723e+2, -456267.63, -639671.9, -102837.99, 0.03886822, 0.2520805, -410183.94, 37726.92, 0.0, 10.000716, 9.9982395 
2.055214e+3, 2.6429585e+2, -329231.97, -615756.6, -25684.879, 0.05523001, 0.3278591, -326947.72, 22980.51, 0.00000017468948, 10.001261, 9.997479 
2.0552422e+3, 2.7429307e+2, -75375.14, -436111.16, -11738.291, 0.0755996, 0.25780058, -74993.586, 176964.4, 0.0000023499456, 10.002314, 9.99752 
2.0552683e+3, 2.8429055e+2, 34742.18, -330359.47, -104835.53, -0.0032651196, 0.2625457, 62703.332, 216686.17, 0.000012296112, 10.002371, 9.997567 
2.0552923e+3, 2.9428843e+2, 70821.516, -208619.6, -57991.36, -0.15095928, 0.21420588, 82378.3, 138379.28, 0.000044415407, 10.001736, 9.9980135 
2.0553234e+3, 3.0428728e+2, 58431.188, -338091.47, 151715.94, 0.09357799, 0.35833853, 109820.18, 109820.18, 0.00011238554, 10.001957, 9.996695 
2.0553538e+3, 3.142834e+2, 305120.0, -241279.66, -57878.598, -0.017438529, 0.22963873, 311183.63, 311183.63, 0.00022337346, 10.003722, 9.996476 
2.0648511e+3, 1.2427037e+2, -1917337.3, -1857907.4, 101288.76, 0.28371388, 0.09162339, -1782064.9, -59899.74, 0.36771804, 9.998653, 9.99964 
2.0648733e+3, 1.3427053e+2, -1781506.9, -1815126.6, -43589.13, 0.0038952113, 0.18031079, -1751598.6, -127428.42, 0.26616043, 9.999357, 9.998895 
2.0649008e+3, 1.4427017e+2, -1824503.0, -1563567.3, 6741.5894, 0.0135475295, 0.16639432, -1563393.1, -37217.652, 0.1618756, 9.997376, 10.000941 
2.064929e+3, 1.5427138e+2, -1635518.0, -1327162.0, -26677.012, 0.191254, 0.077631466, -1324871.1, 103287.78, 0.07651462, 9.997599, 10.0018215 
2.0649551e+3, 1.6427298e+2, -1586509.0, -1490425.3, -41693.84, 0.27217224, 0.15864626, -1474855.9, -144712.2, 0.024829434, 9.998327, 9.999619 
2.0649795e+3, 1.7427503e+2, -1324717.0, -1318544.6, -48923.418, 0.21776907, 0.3784522, -1272610.1, -40478.71, 0.0041003036, 9.9995165, 9.999529 
2.0650047e+3, 1.8427527e+2, -1150477.5, -1103340.8, -18342.924, 0.15469487, 0.420946, -1097043.9, 37086.215, 0.000108260756, 9.999653, 10.00029 
2.06503e+3, 1.9427328e+2, -1120252.1, -1000711.9, -99212.93, 0.04109255, 0.13545182, -944655.94, 91485.74, 0.0, 9.99905, 10.000597 
2.0650564e+3, 2.0427233e+2, -1124664.6, -1141334.5, -99151.805, -0.0033530712, 0.062080387, -1033498.06, -95350.25, 0.0, 9.999133, 9.998942 
2.0650835e+3, 2.1427265e+2, -856505.0, -956507.94, -67908.63, 0.01916448, 0.17090777, -822175.4, 17972.17, 0.0, 10.000315, 9.998951 
2.06511e+3, 2.2427231e+2, -678857.8, -796010.8, -62162.54, 0.014914683, 0.23800604, -652021.25, 90130.41, 0.0, 10.000724, 9.999202 
2.065136e+3, 2.342711e+2, -657460.44, -708511.4, -95232.305, -0.036403242, 0.14682344, -584392.06, 59769.81, 0.0, 10.000121, 9.9993925 
2.0651624e+3, 2.442702e+2, -627630.56, -825957.9, -115032.85, -0.02545176, 0.19808811, -574919.3, -28747.184, 0.0, 10.000407, 9.997799 
2.0651887e+3, 2.5426957e+2, -312099.75, -610771.75, -128620.695, 0.04271307, 0.31970316, -264345.63, 183838.75, 0.0, 10.0018835, 9.997868 
2.0652159e+3, 2.642678e+2, -179024.9, -503507.2, -25648.092, 0.074675806, 0.3594191, -177010.11, 173195.23, 0.00000012472299, 10.002107, 9.997852 
2.0652434e+3, 2.742645e+2, -270186.06, -472303.13, -16.84057, 0.054353792, 0.19733733, -270186.06, -17948.57, 0.0000018192295, 10.000734, 9.998029 
2.06527e+3, 2.842625e+2, -187267.73, -435062.16, -23612.422, 0.030332593, 0.22086352, -185037.77, -30780.49, 0.000008845643, 10.000826, 9.9976015 
2.0652957e+3, 2.9426178e+2, 203089.81, -153253.47, -74548.55, -0.022921428, 0.31993324, 218057.03, 274322.34, 0.000033872344, 10.002696, 9.997929 
2.0653261e+3, 3.0426005e+2, 348437.25, -91085.2, 153584.67, 0.10119756, 0.36297548, 396786.53, 396786.53, 0.00009226449, 10.003412, 9.997737 
2.0653577e+3, 3.1425658e+2, 128603.664, -275191.78, -159606.98, 0.102140374, 0.17739742, 184071.6, 184071.6, 0.00019361054, 10.002239, 9.996995 
2.0748484e+3, 1.24243475e+2, -1758769.5, -1628899.5, -32773.332, 0.035946712, 0.32544082, -1621097.6, 101343.26, 0.38886976, 9.998863, 10.001522 
2.074873e+3, 1.3424374e+2, -1710839.5, -1697512.6, -108808.414, 0.0028940667, 0.3068695, -1595163.8, 29276.977, 0.28190908, 9.999487, 9.999691 
2.0749e+3, 1.4424375e+2, -1759856.9, -1466539.8, -42589.66, 0.12681305, 0.25939894, -1460481.0, 65958.47, 0.17213808, 9.997478, 10.001654 
2.074925e+3, 1.5424614e+2, -1574248.6, -1215183.5, -3966.3157, 0.014626325, 0.21420237, -1215139.8, 213269.13, 0.08207624, 9.997625, 10.002646 
2.0749514e+3, 1.6424812e+2, -1568593.5, -1483723.1, -8828.603, 0.025484689, 0.28666347, -1482814.5, -152426.88, 0.027111659, 9.998454, 9.999604 
2.0749792e+3, 1.7424807e+2, -1332195.6, -1337664.6, 1809.1344, 0.21138087, 0.30832738, -1331651.4, -99258.086, 0.0046569863, 9.999536, 9.999385 
2.0750053e+3, 1.8424715e+2, -1264998.5, -1360769.4, -52298.13, 0.2166421, 0.32543886, -1241974.8, -107569.41, 0.00014131474, 9.99974, 9.998481 
2.075029e+3, 1.9424562e+2, -1265662.0, -1288879.0, -114476.02, -0.004902756, 0.27946392, -1162207.4, -125786.79, 0.0000000002137382, 9.998991, 9.998649 
2.075055e+3, 2.0424464e+2, -1079628.8, -1019202.5, -75475.97, -0.078417175, 0.26572004, -968117.06, -29688.762, 0.0, 9.999001, 9.999847 
2.0750844e+3, 2.1424423e+2, -803839.3, -804046.44, -9771.4375, 0.07292164, 0.18912861, -794170.9, 46256.695, 0.0, 10.000123, 10.000092 
2.0751116e+3, 2.2424373e+2, -762421.75, -889273.8, -88420.16, 0.067781046, 0.19679146, -717031.5, 25399.414, 0.0, 10.000395, 9.998711 
2.0751356e+3, 2.3424302e+2, -740096.4, -818025.8, -104494.945, -0.12657866, 0.22037724, -667537.8, -23097.676, 0.0, 9.999872, 9.998754 
2.0751616e+3, 2.4424194e+2, -674486.94, -844758.44, -76261.66, -0.1703477, 0.28399482, -645325.1, -98871.2, 0.0, 10.000073, 9.9978285 
2.0751907e+3, 2.5424019e+2, -341788.5, -616926.8, -59775.27, 0.015980413, 0.28338662, -329363.13, 119112.38, 0.0, 10.001649, 9.997937 
2.075218e+3, 2.642386e+2, -171620.7, -399274.97, -86827.766, 0.06686296, 0.29721218, -142284.73, 208207.94, 0.000000021824269, 10.001737, 9.998742 
2.0752434e+3, 2.742374e+2, -229364.77, -335284.6, -37837.32, -0.0241146, 0.24218315, -217236.92, 35265.23, 0.00000084431264, 10.000522, 9.999071 
2.075271e+3, 2.8423676e+2, -284212.03, -545955.1, 16107.95, -0.007289271, 0.36972225, -283224.47, -128714.54, 0.000005133315, 10.000455, 9.997009 
2.0753004e+3, 2.9423603e+2, 89797.91, -318303.44, 16840.492, 0.14393504, 0.5463346, 90491.66, 147015.56, 0.000023723636, 10.002376, 9.996954 
2.0753287e+3, 3.0423105e+2, 329781.84, 53863.62, 95231.14, -0.02196173, 0.26230973, 359458.3, 359458.3, 0.00007269807, 10.0026865, 9.99905 
2.0753597e+3, 3.142318e+2, 164893.22, 35618.145, -139965.81, 0.009954819, 0.31079385, 254425.84, 254425.84, 0.00016065389, 10.001327, 9.999523 
2.0848465e+3, 1.24216676e+2, -1929097.9, -1537746.8, 69169.12, 0.07956597, 0.44405463, -1525881.3, 196830.36, 0.40993002, 9.996668, 10.003684 
2.0848721e+3, 1.3421668e+2, -2063777.0, -1833832.6, -108918.266, 0.09389641, 0.35397142, -1790432.5, -165722.77, 0.29801235, 9.996903, 9.999951 
2.0848978e+3, 1.442171e+2, -1717625.6, -1468928.0, -35088.617, 0.14800222, 0.33684513, -1464072.1, 62630.406, 0.18298064, 9.997904, 10.001418 
2.0849231e+3, 1.5421881e+2, -1498263.6, -1238359.3, -103498.9, 0.014523343, 0.27343202, -1202180.3, 226500.05, 0.088167645, 9.998436, 10.002098 
2.0849502e+3, 1.6422036e+2, -1525236.9, -1449208.9, -123611.36, 0.057696674, 0.33015466, -1357898.4, -27235.764, 0.029713616, 9.998683, 9.999748 
2.0849788e+3, 1.7421953e+2, -1340385.4, -1315033.6, -115821.82, 0.23558706, 0.25307578, -1211196.1, 21476.063, 0.005333032, 9.999346, 9.999652 
2.0850053e+3, 1.8421835e+2, -1261216.0, -1395337.3, -105548.23, 0.25242648, 0.2451953, -1203226.5, -68540.83, 0.00018960002, 9.999921, 9.998169 
2.0850293e+3, 1.942174e+2, -1022774.25, -1215927.9, -73277.39, 0.033656318, 0.29621002, -998121.25, 38576.57, 0.000000020895914, 10.000857, 9.998251 
2.0850554e+3, 2.0421657e+2, -811241.6, -902674.0, 13868.161, -0.03170055, 0.32708335, -809184.44, 129520.69, 0.0, 10.000939, 9.999693 
2.0850848e+3, 2.1421573e+2, -800925.44, -812439.1, -43709.86, 0.09210593, 0.21867576, -762594.94, 78113.06, 0.0, 10.000212, 9.999972 
2.085112e+3, 2.2421497e+2, -821912.1, -941919.56, -144011.83, 0.103263795, 0.21648979, -725903.5, 16810.402, 0.0, 10.000063, 9.9985285 
2.0851362e+3, 2.3421426e+2, -627223.44, -784601.44, -153346.94, -0.06159981, 0.25946474, -533554.56, 111169.41, 0.0, 10.000707, 9.998598 
2.0851626e+3, 2.4421313e+2, -495775.88, -699165.8, -37855.23, -0.09737741, 0.30067763, -488958.7, 57778.734, 0.0, 10.001033, 9.998368 
2.0851919e+3, 2.5421122e+2, -387704.25, -578855.4, -7709.9106, 0.019374562, 0.23357068, -387393.78, 61363.746, 0.0, 10.001059, 9.998491 
2.0852195e+3, 2.6421002e+2, -229258.06, -440609.06, -55297.08, 0.05959348, 0.26315024, -215664.63, 135105.75, 0.0, 10.001404, 9.998618 
2.0852448e+3, 2.7420977e+2, -3211.1694, -249330.11, -127373.51, -0.021383265, 0.3243387, 50838.49, 303611.75, 0.000000115745564, 10.002185, 9.998855 
2.0852727e+3, 2.8420907e+2, 5003.5366, -392926.03, -46473.79, 0.04420622, 0.44884488, 10359.086, 165142.55, 0.0000020138657, 10.0023575, 9.997149 
2.0853032e+3, 2.942073e+2, -12909.406, -336467.63, -20193.559, 0.24023908, 0.51300234, -11653.9795, 45153.156, 0.000014504671, 10.001547, 9.997223 
2.0853303e+3, 3.0420405e+2, 201246.6, 62271.32, 108571.04, -0.03648793, 0.34734818, 260662.81, 260662.81, 0.00005340342, 10.00143, 9.999741 
2.0853628e+3, 3.1420505e+2, 296940.3, 92680.74, -233917.84, 0.16550492, 0.3726906, 450051.7, 450051.7, 0.0001257325, 10.002125, 9.99958 
2.0948435e+3, 1.2418897e+2, -1739749.3, -1317314.9, 115986.35, 0.029071704, 0.34748358, -1287564.1, 435422.5, 0.42994058, 9.99678, 10.006366 
2.0948699e+3, 1.341891e+2, -2070890.9, -1850880.5, -57514.63, 0.146892, 0.30737746, -1836752.4, -211773.31, 0.31401625, 9.996921, 9.99983 
2.0948936e+3, 1.441902e+2, -1778942.3, -1625583.8, -23910.145, -0.12768629, 0.40775436, -1621942.4, -94977.15, 0.19429262, 9.998071, 10.000177 
2.094922e+3, 1.5418933e+2, -1623063.4, -1501157.1, -87712.77, 0.047426358, 0.26856714, -1455298.3, -26324.482, 0.094824284, 9.998509, 10.000128 
2.0949507e+3, 1.6418958e+2, -1482582.5, -1398940.8, -122355.49, 0.19530638, 0.29586974, -1311456.4, 19513.516, 0.032688897, 9.998841, 10.00002 
2.0949778e+3, 1.7418942e+2, -1289477.9, -1218599.8, -84292.06, 0.17145932, 0.2248231, -1162599.9, 70368.35, 0.0061590113, 9.999379, 10.0003 
2.0950042e+3, 1.8418893e+2, -1165905.5, -1218578.0, -86397.44, 0.09757047, 0.1944551, -1101919.5, 33051.34, 0.00026052183, 10.000009, 9.99934 
2.0950302e+3, 1.9418865e+2, -949870.75, -1054365.0, -31304.438, 0.02644858, 0.19985066, -941210.3, 95762.47, 0.00000016154512, 10.000813, 9.999381 
2.0950566e+3, 2.0418812e+2, -923991.9, -1102322.9, -23487.367, -0.02104851, 0.2568352, -920950.3, 18027.703, 0.0, 10.000793, 9.998391 
2.095084e+3, 2.1418703e+2, -938676.4, -1046824.4, -61533.86, -0.037200328, 0.26942003, -910833.25, -69843.38, 0.0, 9.999998, 9.99846 
2.095111e+3, 2.241859e+2, -854874.6, -941902.2, -134517.9, -0.036158357, 0.30535692, -757007.6, -14005.896, 0.0, 9.999768, 9.998669 
2.095138e+3, 2.3418476e+2, -642198.5, -761045.1, -114577.79, 0.016166652, 0.2761274, -572551.25, 72462.336, 0.0, 10.000471, 9.998873 
2.0951651e+3, 2.4418372e+2, -478421.75, -582283.25, -47890.816, 0.0073025585, 0.2657833, -459710.2, 87313.05, 0.0, 10.000688, 9.999335 
2.0951921e+3, 2.5418267e+2, -345703.2, -442865.53, 6480.5137, -0.06793626, 0.17874993, -345272.84, 103758.47, 0.0, 10.000845, 9.999529 
2.0952192e+3, 2.6418197e+2, -360127.5, -633546.56, -42606.66, -0.12244778, 0.25263777, -353642.0, -2601.7542, 0.0, 10.001078, 9.997444 
2.0952466e+3, 2.741815e+2, -147107.7, -482427.72, -80269.914, -0.0831224, 0.42788512, -128882.97, 124169.61, 0.0, 10.001904, 9.997385 
2.095275e+3, 2.8417945e+2, -20432.377, -328501.8, -87079.68, 0.008793636, 0.470193, 2477.9949, 157555.7, 0.00000039293647, 10.001864, 9.997827 
2.0953037e+3, 2.941759e+2, 27588.79, -179242.8, -24999.443, 0.116456226, 0.2544469, 30567.537, 87680.72, 0.000007667558, 10.001235, 9.998454 
2.09533e+3, 3.0417758e+2, 87524.1, 5861.703, 107856.27, -0.23270334, 0.5068401, 162019.23, 162019.23, 0.000037309022, 10.00072, 9.999668 
2.095367e+3, 3.141759e+2, 45244.266, -183345.02, 8625.335, 0.31145898, 0.30583698, 45569.266, 45569.266, 0.00009614077, 10.001163, 9.998104 
2.1048413e+3, 1.24162175e+2, -1659780.8, -1272139.8, 91946.75, 0.13690226, 0.5437712, -1251436.1, 471811.28, 0.44859928, 9.997336, 10.006792 
2.1048681e+3, 1.3415883e+2, -1958148.9, -1836508.4, -150730.73, 0.2635425, 0.15402323, -1734789.9, -109515.16, 0.3298663, 9.99785, 9.99949 
2.1048914e+3, 1.4416187e+2, -1726723.1, -1669330.1, -106729.625, -0.17337978, 0.5004839, -1587506.5, -60263.35, 0.20615475, 9.998738, 9.999546 
2.1049213e+3, 1.5415983e+2, -1532011.8, -1509331.6, -113133.46, 0.10008885, 0.29394248, -1406971.3, 22293.137, 0.10215144, 9.999394, 9.999636 
2.1049502e+3, 1.6415913e+2, -1405848.6, -1347129.8, -73065.02, 0.26021972, 0.24556424, -1297746.1, 33524.027, 0.036114734, 9.99931, 10.00014 
2.104977e+3, 1.7415956e+2, -1325922.9, -1211156.5, -87385.18, 0.17751803, 0.21115208, -1163997.8, 69263.336, 0.007176738, 9.99902, 10.000516 
2.1050039e+3, 1.8415964e+2, -1277486.0, -1236515.9, -91970.25, 0.12587026, 0.20899798, -1162776.9, -27520.125, 0.0003661867, 9.99909, 9.999658 
2.1050313e+3, 1.941592e+2, -1036810.1, -1059625.5, -121687.21, 0.1004854, 0.16716918, -925997.06, 111262.086, 0.00000091193453, 10.000068, 9.999701 
2.1050581e+3, 2.041585e+2, -947955.56, -1145457.4, -126569.086, 0.05946588, 0.20207985, -886171.5, 53094.33, 0.0, 10.00072, 9.998155 
2.1050845e+3, 2.141572e+2, -799611.7, -1021842.9, -101032.61, -0.03647724, 0.22827409, -760546.5, 80734.35, 0.0, 10.001082, 9.998142 
2.1051113e+3, 2.2415592e+2, -653961.8, -823469.75, -85592.17, -0.025431281, 0.25956616, -618261.44, 125032.67, 0.0, 10.001078, 9.998835 
2.1051393e+3, 2.3415452e+2, -562581.7, -697174.9, -101561.39, 0.10517703, 0.18615541, -508044.2, 137262.14, 0.0, 10.000927, 9.999075 
2.1051668e+3, 2.4415365e+2, -460808.53, -567876.56, -59707.984, 0.11417669, 0.18060191, -434149.44, 113164.09, 0.0, 10.0007715, 9.999403 
2.1051927e+3, 2.5415343e+2, -392106.25, -456163.34, -101977.83, -0.087933205, 0.17404848, -317245.56, 132068.86, 0.0, 10.000498, 9.999602 
2.1052197e+3, 2.6415297e+2, -422733.66, -641761.25, -94952.31, -0.15050529, 0.25890854, -387301.9, -35980.72, 0.0, 10.000525, 9.997667 
2.1052486e+3, 2.741518e+2, -266724.22, -516078.97, -44303.555, -0.008851224, 0.34712148, -259086.63, -5747.1655, 0.0, 10.000964, 9.997615 
2.1052773e+3, 2.8414956e+2, -72152.89, -314963.4, 7864.736, 0.10457466, 0.34702086, -71898.414, 83466.91, 0.00000006547354, 10.001379, 9.998134 
2.1053047e+3, 2.9414633e+2, 110028.66, -116892.516, -37995.063, 0.07653945, 0.14184545, 116221.445, 173619.06, 0.000004738257, 10.0017395, 9.998628 
2.105332e+3, 3.041486e+2, 235303.73, -14686.31, 80945.17, -0.16160524, 0.486481, 259224.38, 259224.38, 0.00002905632, 10.002097, 9.998871 
2.1053691e+3, 3.141457e+2, 263411.13, 15334.891, -84904.22, 0.3804363, 0.25112566, 289686.63, 289686.63, 0.00007991688, 10.002219, 9.998971 
2.1148388e+3, 1.2413278e+2, -1797230.0, -1513308.9, 25888.299, 0.029610086, 0.6456529, -1510967.6, 212560.4, 0.46656317, 9.997489, 10.003802 
2.1148665e+3, 1.3412586e+2, -1980538.6, -1911731.0, -109628.33, 0.25136787, -0.10516215, -1831234.9, -205638.44, 0.34608045, 9.997974, 9.998908 
2.1148907e+3, 1.4413168e+2, -1706487.5, -1680996.4, -83494.945, -0.17898546, 0.582119, -1609279.8, -81739.96, 0.21890919, 9.998957, 9.999363 
2.1149206e+3, 1.5413016e+2, -1442681.0, -1359811.1, -81251.66, 0.038047217, 0.3433773, -1310039.3, 119514.59, 0.110347085, 9.999529, 10.000659 
2.1149482e+3, 1.6412885e+2, -1377764.5, -1326368.4, -98746.11, 0.08056402, 0.16780338, -1250031.3, 81533.49, 0.040102176, 9.999468, 10.0002165 
2.1149759e+3, 1.741299e+2, -1337272.1, -1246428.1, -90766.91, 0.12942147, 0.214338, -1190352.5, 43198.895, 0.008443992, 9.99906, 10.0002575 
2.1150039e+3, 1.8413025e+2, -1310754.4, -1315896.1, -76187.16, 0.16970336, 0.27904406, -1237094.8, -101549.16, 0.00052604213, 9.999138, 9.999086 
2.115032e+3, 1.9412884e+2, -1088462.1, -1145654.8, -78059.125, 0.13356575, 0.19789179, -1033926.1, 3632.039, 0.0000034897541, 9.999983, 9.999145 
2.115059e+3, 2.0412749e+2, -924691.56, -1048936.9, -125393.65, 0.04912873, 0.16231088, -846875.7, 92694.42, 0.0, 10.000515, 9.998915 
2.1150857e+3, 2.141263e+2, -774113.4, -908420.4, -79283.37, -0.033824675, 0.11153352, -737365.75, 104214.65, 0.0, 10.000844, 9.999028 
2.1151125e+3, 2.2412504e+2, -696110.6, -835307.06, -100939.87, -0.0367096, 0.09272576, -643100.6, 100490.01, 0.0, 10.000749, 9.998913 
2.1151404e+3, 2.3412347e+2, -595802.75, -715634.0, -93993.92, 0.088885054, 0.0006027366, -544252.06, 101351.31, 0.0, 10.000707, 9.999056 
2.115167e+3, 2.4412279e+2, -567107.06, -709713.9, -82033.82, 0.050475243, 0.05075288, -529719.5, 17890.582, 0.0, 10.000439, 9.998583 
2.1151924e+3, 2.5412333e+2, -486318.0, -604558.5, -99935.28, -0.16940184, 0.20546691, -429325.1, 20283.611, 0.0, 10.000301, 9.998671 
2.11522e+3, 2.641229e+2, -375954.22, -458540.06, -90560.43, -0.19915818, 0.2795869, -317716.75, 33897.914, 0.0, 10.000168, 9.999091 
2.1152505e+3, 2.7412084e+2, -174274.34, -272480.25, -10440.764, 0.04982777, 0.10705631, -173176.61, 80456.31, 0.0, 10.000743, 9.999391 
2.115279e+3, 2.841191e+2, -158825.06, -400702.53, 2346.1765, 0.090274945, 0.0690533, -158802.3, -3151.2156, 0.00000005479561, 10.000975, 9.99774 
2.1153054e+3, 2.9411793e+2, 3656.5713, -281266.7, 2686.7473, -0.067472704, 0.1241729, 3681.9045, 61349.766, 0.0000044706885, 10.001473, 9.997633 
2.115335e+3, 3.0411696e+2, -20226.756, -319317.6, 61259.78, -0.12737557, 0.29909694, -8165.8843, -8165.8843, 0.000027145721, 10.001204, 9.997173 
2.1153694e+3, 3.1411484e+2, 251845.72, 246107.47, 35591.13, 0.12331448, 0.25107002, 284683.2, 284683.2, 0.00007500438, 10.0012045, 10.001016 
2.124835e+3, 1.2409708e+2, -1914492.5, -1777915.4, 35302.75, -0.15705678, 0.08747313, -1769329.9, -45456.547, 0.48543465, 9.998233, 10.000399 
2.1248648e+3, 1.3409604e+2, -1732415.8, -1751955.5, -112954.87, 0.21609704, -0.06808489, -1628809.0, -2921.5664, 0.3637423, 9.999549, 9.999226 
2.1248908e+3, 1.44101e+2, -1724119.5, -1684252.4, 8060.6445, -0.029501673, 0.5234616, -1682684.4, -154843.98, 0.23315269, 9.998797, 9.999423 
2.1249199e+3, 1.540999e+2, -1522289.0, -1375369.0, -68198.72, 0.070056, 0.30631647, -1348592.1, 81256.21, 0.1197026, 9.998822, 10.000912 
2.1249475e+3, 1.6409877e+2, -1466703.9, -1415384.5, -117489.14, 0.076887555, 0.1512921, -1320785.6, 11072.37, 0.044803485, 9.999047, 9.999807 
2.1249753e+3, 1.7409989e+2, -1229483.9, -1257235.5, -155057.67, 0.13777822, 0.26537666, -1087682.4, 146165.14, 0.01004214, 10.00008, 9.999694 
2.1250036e+3, 1.8410021e+2, -1147643.1, -1233319.3, -118079.24, 0.20372537, 0.35601467, -1064871.4, 70972.49, 0.0007722133, 10.000224, 9.99913 
2.125032e+3, 1.9409844e+2, -1138078.3, -1161593.4, -92284.164, 0.16116056, 0.22902302, -1056805.6, -18946.834, 0.000010944595, 9.999581, 9.99924 
2.1250595e+3, 2.0409708e+2, -1073803.4, -1094634.9, -97822.22, 0.114737496, 0.1757695, -985843.94, -45973.52, 0.0, 9.999397, 9.999127 
2.125087e+3, 2.1409625e+2, -856744.2, -918981.94, -128511.055, 0.0532569, 0.13819426, -755637.94, 86239.23, 0.0, 10.000177, 9.999255 
2.1251142e+3, 2.2409523e+2, -701205.44, -836932.5, -170544.38, 0.065052226, 0.12923262, -585518.3, 158366.69, 0.0, 10.000698, 9.998932 
2.1251413e+3, 2.3409382e+2, -576255.25, -704224.56, -184495.64, 0.11399209, 0.054709993, -444964.0, 200931.61, 0.0, 10.000831, 9.999078 
2.1251675e+3, 2.44093e+2, -510143.13, -675652.4, -128338.4, 0.051520173, 0.08774615, -440191.9, 107710.7, 0.0, 10.000819, 9.998627 
2.1251929e+3, 2.5409284e+2, -425640.56, -573336.1, -110815.72, -0.17431311, 0.17533167, -366320.7, 83585.88, 0.0, 10.000718, 9.998688 
2.1252207e+3, 2.640922e+2, -283457.1, -379722.03, -67024.266, -0.15235068, 0.21516591, -249072.98, 102840.61, 0.0, 10.000672, 9.999385 
2.1252519e+3, 2.7409056e+2, -182094.94, -242033.17, -124266.4, 0.14862339, 0.060371075, -84234.93, 169693.03, 0.0, 10.00057, 9.999677 
2.1252808e+3, 2.8408962e+2, -131174.4, -345993.1, -98007.03, 0.18486899, 0.07202352, -93180.36, 62757.008, 0.000000117451826, 10.000953, 9.99815 
2.1253066e+3, 2.940894e+2, 104208.72, -186852.39, -66934.15, -0.08632675, 0.19449168, 118863.445, 176806.16, 0.0000050467984, 10.001959, 9.998054 
2.1253377e+3, 3.0408657e+2, 128978.14, -345553.03, 89568.555, -0.008489975, 0.19563067, 145321.47, 145321.47, 0.00002697455, 10.002541, 9.996414 
2.1253714e+3, 3.1408605e+2, 259067.28, 210304.73, -49746.918, 0.20695156, 0.4152348, 290086.4, 290086.4, 0.00007158717, 10.001305, 10.0007925 
2.1348628e+3, 1.3406986e+2, -1660169.4, -1603167.1, -127690.63, 0.026942797, 0.36793935, -1500835.5, 125307.97, 0.38411817, 9.9996395, 10.000499 
2.1348913e+3, 1.4406985e+2, -1686445.4, -1652412.5, -30600.0, 0.076117635, 0.3473085, -1634415.8, -106271.12, 0.24951555, 9.998987, 9.999546 
2.1349192e+3, 1.54069e+2, -1538958.1, -1431309.9, -65760.19, 0.06824374, 0.19352518, -1400154.9, 29993.574, 0.13052814, 9.998924, 10.000434 
2.134947e+3, 1.640687e+2, -1505847.4, -1538135.6, -100284.21, 0.07112371, 0.18719102, -1420416.1, -88264.67, 0.050404422, 9.999224, 9.998877 
2.1349753e+3, 1.7406945e+2, -1290487.0, -1388319.3, -110819.875, 0.078871675, 0.35506874, -1218267.5, 15883.332, 0.012084308, 10.0001, 9.998776 
2.1350032e+3, 1.8406942e+2, -1093591.3, -1140364.3, -149551.83, 0.06381221, 0.4354301, -965608.4, 170544.17, 0.001155736, 10.000305, 9.99973 
2.1350308e+3, 1.9406804e+2, -1091870.3, -1059243.4, -107946.41, 0.060854774, 0.2712272, -966384.6, 71776.266, 0.000030850606, 9.999546, 9.999963 
2.1350588e+3, 2.040671e+2, -1125696.6, -1160178.0, -87023.2, 0.07153272, 0.23832144, -1054222.8, -114054.78, 0.0, 9.999218, 9.998765 
2.1350878e+3, 2.1406674e+2, -921398.7, -1000881.9, -87425.16, 0.11660046, 0.29646978, -865106.2, -22932.457, 0.0, 9.999954, 9.998801 
2.1351157e+3, 2.2406632e+2, -752791.44, -858794.06, -169277.19, 0.11236186, 0.3674903, -628412.06, 115766.03, 0.0, 10.000345, 9.998943 
2.1351418e+3, 2.3406546e+2, -610504.1, -721585.9, -166125.17, 0.057343747, 0.34410807, -490881.2, 155302.23, 0.0, 10.000602, 9.999067 
2.1351674e+3, 2.4406408e+2, -510754.3, -599083.7, -141927.53, -0.062863655, 0.29028282, -406278.7, 141914.16, 0.0, 10.000491, 9.999305 
2.135193e+3, 2.5406182e+2, -396184.97, -471595.0, -101418.33, -0.22737132, 0.08895009, -325689.5, 124519.66, 0.0, 10.000543, 9.999467 
2.1352214e+3, 2.6406053e+2, -398590.34, -542895.56, -84195.79, -0.18496874, 0.060279015, -359860.44, -7639.196, 0.0, 10.00036, 9.998407 
2.135253e+3, 2.7406034e+2, -299652.4, -438334.75, -111749.7, 0.15473983, 0.16623725, -237478.58, 16750.328, 0.00000000014169585, 10.00036, 9.99843 
2.1352817e+3, 2.840603e+2, -140115.53, -242621.08, -80090.23, 0.16359536, 0.2969699, -96282.6, 59948.28, 0.000000256191, 10.000461, 9.999077 
2.1353084e+3, 2.9406035e+2, 155868.95, -5792.8486, 3670.006, -0.13940373, 0.31177685, 155952.23, 214178.17, 0.0000052967753, 10.001631, 9.9994545 
2.1353394e+3, 3.040562e+2, -3758.945, -398395.78, 48058.61, -0.13913256, 0.09118688, 2009.2888, 2009.2888, 0.000025200057, 10.001672, 9.9964285 
2.1353719e+3, 3.140551e+2, -76746.125, -189034.97, -75656.85, 0.06283452, 0.27772504, -38677.2, -38677.2, 0.00006359548, 10.000139, 9.998557 
2.1448608e+3, 1.3403992e+2, -1962234.1, -1692003.8, -77954.39, 0.018287217, 0.44742522, -1671128.6, -44693.402, 0.40760165, 9.997213, 10.0007105 
2.1448909e+3, 1.4403878e+2, -1778604.5, -1678211.4, -99512.555, 0.19233978, 0.28929308, -1616951.9, -88502.625, 0.26811564, 9.998281, 9.999703 
2.1449184e+3, 1.5403832e+2, -1435124.1, -1385021.5, -97801.72, 0.08826025, 0.17205994, -1309113.6, 121334.805, 0.14296411, 9.999697, 10.00043 
2.1449468e+3, 1.6403843e+2, -1376821.1, -1485419.6, -88985.086, 0.10981872, 0.21473496, -1326876.8, 5570.774, 0.057087187, 10.000171, 9.998778 
2.144975e+3, 1.740388e+2, -1366249.6, -1430368.5, -65371.18, 0.10133201, 0.34860522, -1325499.8, -91048.11, 0.014719365, 9.999624, 9.998713 
2.145003e+3, 1.8403864e+2, -1250475.8, -1220850.6, -80128.28, 0.08180133, 0.4193972, -1154177.4, -17721.256, 0.0017550356, 9.999257, 9.9996805 
2.1450305e+3, 1.9403769e+2, -1054080.5, -1042772.25, -119962.8, 0.0760167, 0.30195218, -928330.4, 110130.62, 0.00008036648, 9.999833, 9.999926 
2.1450591e+3, 2.0403709e+2, -986232.56, -1078472.9, -71219.35, 0.12599784, 0.29924074, -947504.2, -7039.032, 0.000000018813253, 10.000114, 9.998893 
2.1450889e+3, 2.1403688e+2, -862752.7, -959743.3, -46807.547, 0.20555377, 0.35633448, -843848.1, -1379.0491, 0.0, 10.000281, 9.998935 
2.1451169e+3, 2.2403638e+2, -773572.2, -853142.7, -100913.984, 0.21756023, 0.4077754, -704883.94, 39589.6, 0.0, 10.000133, 9.999091 
2.1451421e+3, 2.3403525e+2, -732263.5, -760653.06, -118215.46, 0.09590061, 0.3468064, -627393.6, 19087.324, 0.0, 9.99969, 9.99924 
2.1451682e+3, 2.4403374e+2, -592932.25, -651809.06, -64304.055, -0.014453433, 0.27414203, -551648.44, -3157.1284, 0.0, 9.9999695, 9.999207 
2.145195e+3, 2.5403154e+2, -296188.1, -438562.25, -107157.95, -0.12925878, 0.09486522, -238726.7, 211780.34, 0.0, 10.001287, 9.999339 
2.1452233e+3, 2.6403016e+2, -233312.42, -516602.5, -126869.11, -0.08052537, 0.08577757, -184802.02, 167718.44, 0.0, 10.001703, 9.997946 
2.1452534e+3, 2.740298e+2, -273104.0, -478823.84, -146037.7, 0.15852048, 0.22391172, -197338.13, 57193.258, 0.00000000016893417, 10.0007715, 9.997953 
2.1452825e+3, 2.8402972e+2, -160079.84, -250604.69, -44303.383, 0.21338847, 0.37249142, -142006.05, 14527.742, 0.0000002738674, 10.000269, 9.999127 
2.1453111e+3, 2.9402944e+2, -7076.1904, -50375.957, -76102.0, 0.0420311, 0.35048985, 50395.56, 108926.055, 0.0000047479944, 10.000373, 9.999742 
2.1453422e+3, 3.0402562e+2, 55260.78, -265318.47, -10436.673, 0.01806339, 0.08349848, 55600.19, 55600.19, 0.000021563434, 10.001518, 9.9974575 
2.1453735e+3, 3.1402445e+2, 337200.8, -72650.555, -188407.63, 0.0949231, 0.19002539, 410648.94, 410648.94, 0.000054127682, 10.003252, 9.9978695 
2.1548581e+3, 1.3400628e+2, -2028483.8, -1855079.5, -23359.7, -0.054126758, 0.18418701, -1851987.8, -225225.39, 0.43279883, 9.997346, 9.999516 
2.1548884e+3, 1.440073e+2, -1715086.8, -1632280.5, -98345.23, 0.0072600543, 0.28899077, -1566978.4, -38219.113, 0.28823382, 9.998629, 9.999855 
2.1549174e+3, 1.5400785e+2, -1393700.3, -1336551.8, -41038.746, -0.01775921, 0.235557, -1315119.4, 115629.41, 0.15688464, 9.999823, 10.000735 
2.1549465e+3, 1.6400808e+2, -1306672.0, -1380282.9, -112168.7, 0.0043440266, 0.23977886, -1225424.6, 107320.35, 0.06501248, 10.0003805, 9.999414 
2.1549748e+3, 1.7400792e+2, -1315183.5, -1326211.6, -85048.14, 0.07241003, 0.25313637, -1235470.9, -720.1735, 0.018139776, 9.9996395, 9.9994135 
2.1550027e+3, 1.8400767e+2, -1285531.4, -1314552.6, -79965.67, 0.08725247, 0.3093227, -1218770.4, -82014.67, 0.0026903055, 9.999337, 9.999003 
2.1550305e+3, 1.9400737e+2, -1113827.0, -1154610.1, -89673.67, 0.07269638, 0.33159682, -1042255.6, -3496.163, 0.00019736934, 9.999784, 9.99918 
2.1550591e+3, 2.0400701e+2, -965972.44, -1006614.25, -77646.89, 0.098196454, 0.36989403, -906031.4, 34730.75, 0.0000007869328, 9.99998, 9.999454 
2.1550891e+3, 2.1400651e+2, -840097.7, -873201.44, -32444.764, 0.1936591, 0.3263199, -820226.7, 22537.986, 0.0, 10.000103, 9.999617 
2.1551172e+3, 2.2400537e+2, -804220.06, -846777.0, -128194.09, 0.20069753, 0.26605108, -695550.44, 49221.914, 0.0, 9.999826, 9.999282 
2.1551421e+3, 2.3400317e+2, -748039.44, -748871.56, -122117.945, 0.09628012, 0.078523576, -626336.8, 20452.176, 0.0, 9.999493, 9.999415 
2.1551687e+3, 2.440019e+2, -704479.6, -800103.56, -32764.219, 0.016868835, 0.056592096, -694330.6, -145531.34, 0.0, 9.999627, 9.998345 
2.1551977e+3, 2.5400174e+2, -396651.34, -599485.7, -43650.11, -0.0028353734, 0.17667119, -387656.66, 63145.707, 0.0, 10.0010805, 9.998334 
2.1552259e+3, 2.6400074e+2, -291791.53, -553392.8, -159947.28, -0.023179812, 0.26511252, -215971.89, 136842.47, 0.0, 10.001347, 9.997862 
2.155253e+3, 2.7399853e+2, -297995.78, -485872.78, -163730.9, 0.026642442, 0.21380754, -203169.22, 51669.625, 0.0, 10.000573, 9.998004 
2.1552822e+3, 2.8399724e+2, -284566.06, -398684.16, -55217.305, 0.1262844, 0.27108872, -262223.06, -105370.35, 0.000000100631844, 9.999835, 9.998301 
2.1553142e+3, 2.939966e+2, -127903.61, -220297.52, -37458.87, 0.27490819, 0.30587056, -114625.14, -55768.13, 0.0000031808167, 10.000032, 9.998735 
2.1553448e+3, 3.0399364e+2, 30224.459, -90846.14, 36729.938, 0.0583598, 0.11176708, 40496.016, 40496.016, 0.000016664693, 10.000609, 9.999062 
2.155375e+3, 3.1399533e+2, 177257.8, -164227.3, 43739.184, -0.16761762, 0.2860454, 182771.13, 182771.13, 0.000045618737, 10.002247, 9.997713 
2.1648577e+3, 1.3397436e+2, -1818761.9, -1810907.9, 12564.032, 0.091706395, 0.16108873, -1801671.4, -174594.06, 0.45757636, 9.99912, 9.998999 
2.1648872e+3, 1.43975e+2, -1562987.9, -1520829.0, -96182.18, 0.0070402795, 0.26966378, -1443443.4, 85635.484, 0.3088363, 9.99957, 10.000329 
2.164917e+3, 1.539769e+2, -1488605.4, -1354575.0, -80798.14, -0.0068838242, 0.30418128, -1316617.0, 114439.75, 0.17204043, 9.999039, 10.000986 
2.1649463e+3, 1.6397773e+2, -1540507.0, -1441334.3, -165818.48, 0.049777232, 0.33567822, -1317846.8, 15200.03, 0.07433442, 9.998487, 9.999906 
2.1649744e+3, 1.7397726e+2, -1319472.3, -1263734.0, -154828.02, 0.092029095, 0.2570006, -1134286.9, 100765.05, 0.022589553, 9.999298, 10.000036 
2.1650024e+3, 1.8397693e+2, -1210859.4, -1269157.1, -89641.305, 0.13112812, 0.26960295, -1145746.8, -8690.72, 0.00413868, 9.999843, 9.999063 
2.1650314e+3, 1.9397679e+2, -1011891.94, -1116124.6, -75465.13, 0.1518762, 0.3174263, -972296.2, 66762.734, 0.00045452762, 10.000541, 9.999086 
2.1650603e+3, 2.0397641e+2, -875200.9, -956197.06, -60856.184, 0.19264252, 0.3546202, -842599.2, 98463.2, 0.000007502901, 10.000554, 9.99953 
2.1650891e+3, 2.1397565e+2, -860525.7, -871358.9, -85713.99, 0.20200172, 0.27825865, -780057.3, 63010.125, 0.0, 9.999913, 9.999724 
2.1651167e+3, 2.2397478e+2, -800871.7, -812407.4, -166056.5, 0.20450492, 0.23023777, -640482.9, 104589.586, 0.0, 9.999726, 9.999554 
2.1651429e+3, 2.339736e+2, -592025.25, -645680.8, -175993.27, 0.17040968, 0.11530194, -440826.75, 206252.66, 0.0, 10.000445, 9.999662 
2.1651702e+3, 2.4397261e+2, -551059.06, -772958.75, -32365.83, 0.14859043, 0.13056374, -546434.6, 2653.2783, 0.0, 10.000867, 9.997938 
2.1651995e+3, 2.539718e+2, -459511.16, -668537.9, -28056.986, 0.088257715, 0.23075642, -455810.66, -4710.663, 0.0, 10.000849, 9.997952 
2.1652275e+3, 2.6397058e+2, -311498.13, -522353.38, -115547.23, 0.042712107, 0.30041024, -260509.17, 92604.375, 0.0, 10.001021, 9.998238 
2.1652542e+3, 2.739684e+2, -133718.8, -355361.06, -118262.12, 0.046192497, 0.20918824, -82468.17, 172665.23, 0.0, 10.001482, 9.998461 
2.1652833e+3, 2.8396642e+2, -46933.94, -360925.03, 46117.15, 0.16160257, 0.20213804, -40300.66, 116851.95, 0.0000000029805467, 10.001775, 9.997636 
2.165315e+3, 2.9396483e+2, 53739.992, -220664.66, 31600.484, 0.29386047, 0.23334089, 57332.086, 116503.08, 0.000001345268, 10.001668, 9.997942 
2.1653457e+3, 3.039647e+2, 155767.31, 80018.2, 130565.516, 0.12033256, 0.30166104, 253840.67, 253840.67, 0.000010778314, 10.000982, 10.00006 
2.1653762e+3, 3.1396475e+2, -154650.95, -277249.75, 19956.832, -0.12650149, 0.22436556, -151484.14, -151484.14, 0.00003608632, 9.99979, 9.99811 
2.1748604e+3, 1.3394594e+2, -1784766.4, -1772600.5, -125795.98, 0.36945152, 0.5806447, -1652740.5, -25376.836, 0.48078975, 9.999522, 9.998932 
2.1748877e+3, 1.4394277e+2, -1511739.8, -1481259.4, -78478.74, -0.010634036, 0.25424087, -1416554.8, 112844.94, 0.32934, 9.999898, 10.000504 
2.1749166e+3, 1.5394565e+2, -1496718.3, -1380141.5, -103304.61, 0.0030401098, 0.39843318, -1319815.5, 111555.4, 0.18832743, 9.999089, 10.000783 
2.1749453e+3, 1.6394714e+2, -1492915.6, -1385534.0, -154486.47, 0.040670086, 0.5012148, -1275674.4, 57680.51, 0.0852701, 9.998664, 10.000221 
2.1749733e+3, 1.7394687e+2, -1258077.3, -1154303.1, -112618.85, 0.023034004, 0.37278417, -1082193.1, 153161.55, 0.028395085, 9.999368, 10.000759 
2.175002e+3, 1.8394646e+2, -1159919.9, -1183984.0, -78796.43, 0.04075723, 0.3061134, -1092242.3, 45114.207, 0.006367479, 9.999933, 9.9996 
2.1750325e+3, 1.9394577e+2, -990324.9, -1057822.4, -42313.81, 0.18618391, 0.25470856, -969949.3, 69412.02, 0.0009868387, 10.000486, 9.999506 
2.1750616e+3, 2.0394503e+2, -926485.7, -1029985.7, -92045.59, 0.22179319, 0.25036114, -872639.94, 68728.41, 0.000047582707, 10.000403, 9.999101 
2.1750884e+3, 2.1394415e+2, -920657.7, -949683.75, -100223.875, 0.110018186, 0.20907712, -833901.5, 9476.954, 0.00000000032497088, 9.99971, 9.999284 
2.1751155e+3, 2.2394438e+2, -837486.3, -806220.1, -152659.16, 0.072649986, 0.28389686, -668395.7, 76980.3, 0.0, 9.99938, 9.999761 
2.1751435e+3, 2.3394597e+2, -606876.44, -621751.4, -135284.56, 0.1916548, 0.41869992, -478825.1, 168532.05, 0.0, 10.000218, 9.99993 
2.1751717e+3, 2.4394535e+2, -613984.2, -803758.8, -42746.18, 0.19014189, 0.4540846, -604800.2, -55438.027, 0.0, 10.000453, 9.997916 
2.1752e+3, 2.5394148e+2, -498001.0, -688107.1, -16377.228, 0.026060976, 0.24753386, -496600.47, -45198.176, 0.0, 10.000595, 9.997934 
2.175228e+3, 2.6393944e+2, -321356.9, -442342.3, -112570.44, -0.053091396, 0.201454, -254054.97, 99365.96, 0.0, 10.00061, 9.998976 
2.1752562e+3, 2.739392e+2, -114415.875, -255612.94, -85214.81, 0.07046173, 0.21832189, -74354.05, 181063.1, 0.0, 10.001241, 9.999255 
2.1752846e+3, 2.8393695e+2, -160184.92, -485458.3, 28851.398, 0.090075165, 0.17131472, -157645.66, -207.48369, 0.0, 10.001325, 9.996986 
2.1753132e+3, 2.9393366e+2, -56620.125, -376553.0, 43905.934, -0.0683258, 0.09567275, -50704.098, 8774.03, 0.00000028754212, 10.001358, 9.997015 
2.1753453e+3, 3.0393693e+2, 40526.0, 19648.973, 55522.39, -0.082338266, 0.5795295, 86582.6, 86582.6, 0.0000061263827, 10.0002775, 9.9999485 
2.1753779e+3, 3.1393522e+2, -238030.3, -221876.4, 100744.766, -0.008778878, 0.28067353, -128885.336, -128885.336, 0.000027574106, 9.99885, 9.99892 
2.1848881e+3, 1.4391452e+2, -1567368.9, -1526143.8, 15711.724, 0.102285154, 0.3451474, -1520838.5, 8838.377, 0.34983045, 9.999439, 10.000213 
2.1849152e+3, 1.5391582e+2, -1463885.8, -1503601.4, -89928.38, -0.048712518, 0.50558126, -1391648.8, 40017.53, 0.2059314, 9.999939, 9.999451 
2.1849453e+3, 1.6391502e+2, -1477855.3, -1347546.4, -84390.914, 0.17878358, 0.4349069, -1306085.0, 27588.734, 0.09816949, 9.9986515, 10.000476 
2.1849734e+3, 1.7391613e+2, -1203411.0, -1092735.8, -75736.72, 0.093366414, 0.41669527, -1054274.1, 181384.05, 0.036017943, 9.999641, 10.001048 
2.185002e+3, 1.8391624e+2, -1113230.6, -1157203.5, -80789.4, 0.056976836, 0.38134855, -1051489.4, 86164.6, 0.009796201, 10.000192, 9.99968 
2.185033e+3, 1.9391505e+2, -1047806.0, -1079343.1, -95668.52, 0.21996725, 0.2715798, -966615.2, 73049.13, 0.0020521113, 10.000027, 9.999586 
2.1850623e+3, 2.0391445e+2, -994637.94, -1026178.7, -119733.26, 0.29316303, 0.26372007, -889640.94, 52029.402, 0.00020967671, 9.999802, 9.999412 
2.1850884e+3, 2.1391453e+2, -846371.7, -874991.9, -101751.46, 0.1400717, 0.28434962, -757929.0, 85742.234, 0.00000086887735, 10.000063, 9.999628 
2.1851155e+3, 2.2391488e+2, -725255.56, -798793.75, -89573.11, 0.10188157, 0.370303, -665198.5, 80469.7, 0.0, 10.00033, 9.999369 
2.1851443e+3, 2.3391548e+2, -560540.56, -643211.75, -144162.3, 0.23362884, 0.4543811, -451904.84, 195755.33, 0.0, 10.000743, 9.999527 
2.1851729e+3, 2.4391456e+2, -546985.75, -712351.44, -73845.21, 0.26360393, 0.45769563, -518810.28, 30857.574, 0.0, 10.000639, 9.998465 
2.1852008e+3, 2.5391138e+2, -569092.56, -656493.5, -29799.387, 0.09096899, 0.2585511, -559899.44, -108200.28, 0.0, 9.999787, 9.998558 
2.1852288e+3, 2.6390988e+2, -439833.28, -504944.94, -56855.88, 0.022254003, 0.23108613, -406872.13, -53160.42, 0.0, 9.999798, 9.998952 
2.1852574e+3, 2.7390975e+2, -109968.14, -266988.88, -118486.734, 0.08294039, 0.28315005, -46341.31, 209366.63, 0.0, 10.001325, 9.999147 
2.1852858e+3, 2.8390765e+2, -41455.684, -394644.5, -40329.105, 0.06816963, 0.23621435, -36909.203, 120818.734, 0.0, 10.001955, 9.997328 
2.185314e+3, 2.9390404e+2, -75431.06, -368175.63, 1211.856, -0.105927646, 0.10524865, -75426.04, -15655.882, 0.000000027227998, 10.001118, 9.997209 
2.1853462e+3, 3.0390736e+2, 49188.89, -96580.266, 63127.223, -0.004006093, 0.6365745, 72726.34, 72726.34, 0.0000044959556, 10.000767, 9.998965 
2.185378e+3, 3.1390437e+2, 107010.64, 79902.6, -107137.53, 0.040872157, 0.3385137, 201448.11, 201448.11, 0.000025056477, 10.000491, 10.000285 
2.1948881e+3, 1.4388716e+2, -1498696.3, -1423852.1, -45156.02, 0.07739269, 0.42436618, -1402627.1, 127312.97, 0.371045, 9.999566, 10.001235 
2.1949129e+3, 1.5388665e+2, -1578623.9, -1780870.4, -149267.4, -0.33370325, 0.61238605, -1499451.0, -67500.54, 0.22535217, 10.000074, 9.9974575 
2.1949455e+3, 1.6388139e+2, -1440313.6, -1299688.3, -97990.23, 0.2827503, 0.1518438, -1249394.4, 84609.31, 0.113554515, 9.9987755, 10.000786 
2.1949744e+3, 1.7388476e+2, -1228360.3, -1142231.4, -27137.748, 0.18686907, 0.38440952, -1134394.0, 101571.44, 0.046104282, 9.999631, 10.000708 
2.1950021e+3, 1.8388577e+2, -1118580.8, -1186129.1, -86469.01, 0.005729953, 0.47427484, -1059524.0, 78429.57, 0.015073848, 10.000266, 9.99945 
2.1950325e+3, 1.9388464e+2, -1058411.3, -1094259.3, -97423.0, 0.1308304, 0.38292313, -977277.1, 62690.73, 0.004138987, 10.0, 9.999498 
2.1950616e+3, 2.0388477e+2, -953481.56, -907153.56, -129411.86, 0.21960934, 0.4124697, -798848.94, 143118.9, 0.00072646124, 9.99966, 10.000296 
2.1950889e+3, 2.138865e+2, -808607.0, -743858.5, -84566.95, 0.15001328, 0.49824443, -685680.75, 158267.73, 0.000022642807, 9.999841, 10.0006275 
2.1951163e+3, 2.2388609e+2, -843576.9, -960231.4, -87150.71, 0.10730579, 0.49280328, -797036.0, -51085.188, 0.000000000011542125, 9.999967, 9.998432 
2.1951447e+3, 2.3388217e+2, -670301.1, -823184.7, -116756.14, 0.1699615, 0.23335914, -607188.8, 40799.3, 0.0, 10.000534, 9.998389 
2.1951729e+3, 2.4388035e+2, -542062.94, -600378.8, -113387.21, 0.17627214, 0.1649253, -454144.66, 95859.8, 0.0, 10.00022, 9.999425 
2.1952012e+3, 2.538814e+2, -512475.47, -494288.6, -52335.06, 0.14145865, 0.26615676, -450262.84, 1728.9375, 0.0, 9.999601, 9.999756 
2.1952292e+3, 2.6388153e+2, -566065.5, -668288.2, -25313.262, 0.0638417, 0.37660193, -560140.6, -206150.9, 0.0, 9.999398, 9.998006 
2.1952575e+3, 2.7387974e+2, -232967.66, -449150.88, -43717.418, -0.05415408, 0.37047645, -224461.64, 31547.268, 0.0, 10.001033, 9.998016 
2.1952863e+3, 2.8387788e+2, -41237.887, -280627.78, -76594.234, -0.11560188, 0.35995573, -18828.799, 139199.5, 0.0, 10.0014925, 9.9983225 
2.1953167e+3, 2.9387584e+2, -44348.383, -231481.16, -8204.922, 0.00033104426, 0.2694712, -43989.324, 16058.635, 0.000000020729713, 10.0008135, 9.99829 
2.1953474e+3, 3.038755e+2, -191553.44, -422834.7, 52634.164, 0.0010613573, 0.47339284, -180138.52, -180138.52, 0.0000055230016, 10.000075, 9.997025 
2.1953757e+3, 3.1387076e+2, -50785.516, 13725.163, -96814.14, -0.27176338, 0.17640184, 83515.82, 83515.82, 0.000029811183, 9.999469, 10.000271 
2.2048873e+3, 1.4385375e+2, -1721851.0, -1348250.9, -79094.336, 0.16193831, 0.1266557, -1332195.9, 198073.33, 0.39437363, 9.996894, 10.003449 
2.2049136e+3, 1.5385586e+2, -1681086.0, -1794805.6, -151389.6, -0.21511948, 0.600845, -1576230.5, -143977.61, 0.24751917, 9.999239, 9.99776 
2.2049454e+3, 1.6385143e+2, -1135861.9, -1172327.6, -80071.35, 0.29833084, 0.20128258, -1071973.8, 262324.0, 0.13222682, 10.001105, 10.000665 
2.2049741e+3, 1.7385367e+2, -1200075.1, -1188296.5, -38409.63, 0.20855172, 0.36402357, -1155327.3, 80943.664, 0.059555795, 10.000038, 10.000219 
2.2050028e+3, 1.8385427e+2, -1265512.5, -1231506.1, -53167.066, 0.09061341, 0.43085402, -1192689.5, -54426.17, 0.023171267, 9.999143, 9.9996805 
2.2050323e+3, 1.9385386e+2, -1096127.1, -1074019.4, -56831.137, 0.15497021, 0.3774781, -1027177.06, 13093.362, 0.008108057, 9.999576, 9.999858 
2.2050613e+3, 2.0385437e+2, -921353.44, -913668.94, -75003.57, 0.22542639, 0.4356241, -842409.25, 99857.5, 0.0021629941, 9.999964, 10.000116 
2.2050892e+3, 2.1385579e+2, -720230.0, -733770.3, -140618.53, 0.18183503, 0.5166674, -586218.75, 258032.89, 0.00023583506, 10.000566, 10.000359 
2.2051169e+3, 2.2385518e+2, -716224.2, -864904.5, -147798.0, 0.17502907, 0.49524269, -625123.4, 121132.95, 0.0000019906881, 10.000685, 9.998748 
2.2051452e+3, 2.338518e+2, -692419.94, -796043.4, -101970.98, 0.2057484, 0.2542076, -629852.75, 18435.174, 0.0, 10.000195, 9.998757 
2.2051734e+3, 2.4385022e+2, -547091.06, -613184.1, -42036.92, 0.22529896, 0.1968054, -526666.3, 23635.373, 0.0, 10.000211, 9.999351 
2.2052017e+3, 2.5385118e+2, -298905.28, -393041.44, -103859.195, 0.16978146, 0.2995639, -231946.45, 220343.3, 0.0, 10.001122, 9.9997 
2.2052297e+3, 2.6385117e+2, -256191.08, -514583.44, -62869.496, 0.093991585, 0.39540395, -241706.27, 112583.1, 0.0, 10.001488, 9.998064 
2.2052586e+3, 2.7384928e+2, -214768.72, -445715.47, -16217.494, -0.04336968, 0.37676898, -213635.45, 42674.52, 0.0, 10.001136, 9.998013 
2.2052881e+3, 2.8384796e+2, -102672.336, -269657.97, -24153.686, -0.04851223, 0.40479594, -99248.805, 59074.035, 0.0, 10.0009, 9.998678 
2.2053187e+3, 2.9384622e+2, 41005.508, -140044.34, -71121.37, 0.10682186, 0.3192016, 65602.305, 125939.48, 0.00000007580395, 10.001203, 9.998725 
2.2053486e+3, 3.0384415e+2, -12340.039, -374773.13, 72999.61, 0.07177804, 0.32319468, 1810.7096, 1810.7096, 0.0000083740215, 10.001429, 9.996722 
2.2053787e+3, 3.138408e+2, 252592.08, 170827.72, -89037.34, -0.007532311, 0.24015938, 309684.4, 309684.4, 0.000042885644, 10.001459, 10.000387 
2.214885e+3, 1.4382172e+2, -1506641.1, -1068247.1, 5029.1924, 0.14932932, 0.19933426, -1068189.4, 462402.47, 0.4221777, 9.996801, 10.006892 
2.2149177e+3, 1.5382329e+2, -1534380.5, -1471544.6, 24934.701, 0.24400434, 0.4706081, -1462852.4, -30276.803, 0.27423543, 9.999176, 10.000011 
2.214944e+3, 1.6382483e+2, -1139480.5, -1216632.5, -107877.83, 0.00010720615, 0.5887464, -1063488.9, 271070.28, 0.15564767, 10.001326, 10.000229 
2.2149727e+3, 1.7382291e+2, -1225900.1, -1246209.8, -82240.29, 0.010537021, 0.36781535, -1153190.1, 83384.414, 0.07778218, 10.000074, 9.999798 
2.2150026e+3, 1.8382178e+2, -1218383.8, -1148544.0, -61848.414, 0.14081381, 0.2625366, -1112438.4, 26144.387, 0.035576556, 9.9992, 10.000233 
2.2150323e+3, 1.9382259e+2, -1060169.4, -975089.2, -31483.63, 0.1714609, 0.26244885, -964705.94, 75867.05, 0.0154146915, 9.999473, 10.000589 
2.2150607e+3, 2.0382304e+2, -1026793.6, -1097886.3, -61519.89, 0.1295958, 0.3229875, -991289.0, -48719.664, 0.005714695, 9.999808, 9.998926 
2.215089e+3, 2.1382229e+2, -851192.0, -960313.3, -105480.586, 0.10057847, 0.33248523, -786996.56, 57584.605, 0.0013616167, 10.00037, 9.998895 
2.2151174e+3, 2.2382234e+2, -683300.4, -705060.5, -172519.44, 0.11394333, 0.40354785, -521318.28, 225264.03, 0.00013056793, 10.000296, 10.000032 
2.2151458e+3, 2.3382391e+2, -606188.56, -563801.56, -107856.695, 0.21155713, 0.48854446, -475075.84, 173488.1, 0.0000045921656, 9.99996, 10.000465 
2.2151738e+3, 2.4382377e+2, -690749.75, -800405.4, -32695.023, 0.20897071, 0.52811044, -681741.44, -131177.81, 0.000000030624218, 9.999759, 9.998271 
2.2152019e+3, 2.538206e+2, -438655.4, -613075.2, -56063.19, 0.05984298, 0.35098913, -422189.63, 30404.9, 0.0, 10.000839, 9.998316 
2.2152302e+3, 2.6381847e+2, -262429.63, -420711.1, -85522.63, -0.05505451, 0.2817222, -225048.34, 129565.2, 0.0, 10.001052, 9.99891 
2.21526e+3, 2.7381828e+2, -179480.67, -296953.94, -17723.955, -0.03126997, 0.31129622, -176864.8, 79747.29, 0.0, 10.00083, 9.99917 
2.21529e+3, 2.8381783e+2, -223118.7, -387944.53, -33086.473, 0.014574289, 0.38595474, -216725.08, -58111.418, 0.0, 10.000362, 9.99811 
2.2153196e+3, 2.938149e+2, -47558.28, -246421.16, -35893.688, 0.061542742, 0.24394761, -41278.0, 19362.697, 0.00000027397763, 10.000892, 9.998132 
2.2153491e+3, 3.0381274e+2, -14338.242, -235352.72, 59869.375, -0.08512178, 0.20347635, 837.4219, 837.4219, 0.000015050563, 10.000861, 9.997924 
2.2153828e+3, 3.1381232e+2, 48750.17, 924.3344, 76478.234, 0.2041245, 0.280422, 104966.82, 104966.82, 0.00007034586, 10.000433, 9.999685 
2.2248791e+3, 1.4379527e+2, -1505338.4, -1570084.1, -268441.88, -0.3509684, 0.9526069, -1267324.4, 263528.66, 0.45833316, 10.000933, 9.999751 
2.2249201e+3, 1.5379196e+2, -1355289.5, -1354320.3, 77411.72, 0.52638227, 0.32049137, -1277391.6, 155491.0, 0.30885017, 10.000434, 10.000425 
2.2249441e+3, 1.6379556e+2, -1499898.8, -1437088.3, -69954.92, -0.0024196268, 0.6667251, -1391812.5, -56967.12, 0.18666483, 9.998807, 9.999782 
2.2249728e+3, 1.7379315e+2, -1210774.5, -1213040.0, -37618.316, 0.0403852, 0.3879482, -1174271.9, 62595.047, 0.103338934, 10.000082, 10.000019 
2.2250034e+3, 1.8379216e+2, -1052273.5, -1085566.3, 16000.286, 0.2502026, 0.28514993, -1045830.7, 93043.97, 0.054786276, 10.0004225, 10.000107 
2.2250324e+3, 1.9379298e+2, -904411.75, -926297.06, -33236.68, 0.20490989, 0.30560717, -880362.7, 160501.83, 0.028543482, 10.00065, 10.000375 
2.2250608e+3, 2.0379305e+2, -914506.9, -1029759.44, -44004.18, 0.13558203, 0.3309082, -899626.94, 43236.957, 0.013685946, 10.000538, 9.999032 
2.2250894e+3, 2.1379176e+2, -895441.25, -968738.8, -5947.2813, 0.12611093, 0.2758078, -894961.8, -50082.1, 0.005262215, 10.000025, 9.999002 
2.2251177e+3, 2.237918e+2, -732620.25, -734315.5, -18780.082, 0.15795867, 0.33935785, -714668.7, 32211.813, 0.001420654, 9.999951, 10.000008 
2.2251455e+3, 2.3379408e+2, -522556.34, -525477.1, -95551.61, 0.18309097, 0.49855655, -428453.97, 220401.81, 0.0002619265, 10.000523, 10.000468 
2.2251736e+3, 2.437941e+2, -543648.94, -745640.25, -23960.152, 0.17752542, 0.5656782, -540845.7, 10008.555, 0.000035642544, 10.000833, 9.998138 
2.2252029e+3, 2.5379053e+2, -418395.22, -619626.6, 24593.256, 0.08572459, 0.36241677, -415433.2, 37456.195, 0.0000011567587, 10.001004, 9.998218 
2.2252317e+3, 2.637882e+2, -286596.1, -403899.56, 12507.419, 0.037752077, 0.26599345, -285277.3, 69632.68, 0.0, 10.0007515, 9.999178 
2.2252612e+3, 2.737881e+2, -234593.72, -277231.47, -19759.44, 0.04150523, 0.274449, -226844.9, 30060.88, 0.0, 10.000287, 9.999563 
2.2252908e+3, 2.8378764e+2, -234353.73, -397071.25, 12857.605, 0.09059937, 0.32439736, -233344.03, -74437.62, 0.0, 10.000275, 9.998113 
2.2253211e+3, 2.9378432e+2, 41994.543, -208437.47, 29500.771, 0.10010578, 0.1664089, 45422.79, 106360.49, 0.00000073017384, 10.001532, 9.998085 
2.2253518e+3, 3.037831e+2, 216887.8, -83912.79, 94394.49, 0.0448812, 0.18560046, 244056.0, 244056.0, 0.00002755439, 10.002246, 9.998326 
2.2253838e+3, 3.1378078e+2, 218799.02, 86573.625, -69965.51, 0.21721008, 0.09666153, 248946.7, 248946.7, 0.000118261974, 10.001517, 9.9998045 
2.2349201e+3, 1.5376252e+2, -1462193.4, -1528430.3, -79785.74, 0.44474474, 0.24128474, -1408925.5, 24242.441, 0.35698506, 10.000217, 9.999077 
2.2349449e+3, 1.6376293e+2, -1547092.8, -1533038.5, -47168.746, 0.11802749, 0.37191918, -1492376.4, -157212.98, 0.23053116, 9.998789, 9.999132 
2.2349747e+3, 1.7376412e+2, -1175976.1, -1123254.8, 6316.659, 0.1768367, 0.4011582, -1122508.5, 114642.87, 0.14104874, 9.999995, 10.000778 
2.2350042e+3, 1.8376529e+2, -1107407.9, -1196839.4, 10704.585, 0.21465825, 0.4885003, -1106144.4, 32996.117, 0.08532412, 10.000409, 9.999325 
2.2350328e+3, 1.9376498e+2, -996127.3, -1090905.5, -17653.643, 0.13051082, 0.5069225, -992945.9, 48199.42, 0.05187056, 10.000544, 9.999274 
2.2350611e+3, 2.0376448e+2, -862444.3, -869832.56, -71240.77, 0.06576844, 0.4871914, -794801.94, 148347.39, 0.030293982, 10.000326, 10.000247 
2.2350898e+3, 2.1376385e+2, -811810.3, -746357.25, -18217.754, 0.13155195, 0.3382575, -741628.3, 103522.28, 0.015773455, 9.999811, 10.000642 
2.2351177e+3, 2.2376323e+2, -878030.9, -938333.8, -13876.835, 0.120730944, 0.2969233, -874990.8, -127836.87, 0.0069356123, 9.999545, 9.998792 
2.2351442e+3, 2.3376235e+2, -663106.9, -767227.25, -59787.754, -0.015227587, 0.2883552, -635890.1, 13272.901, 0.002541045, 10.000307, 9.998902 
2.2351724e+3, 2.4376144e+2, -566977.75, -693823.75, -32265.332, -0.064083695, 0.32812935, -559242.3, -8070.3345, 0.00075579167, 10.000415, 9.998686 
2.2352043e+3, 2.5376096e+2, -386807.78, -487185.8, 41293.29, 0.100542486, 0.3278802, -372003.9, 81171.62, 0.00014769337, 10.000718, 9.999259 
2.235234e+3, 2.637601e+2, -403554.28, -518537.47, -29219.182, 0.14251389, 0.34606358, -396555.22, -41373.84, 0.000007045108, 10.000228, 9.998627 
2.2352615e+3, 2.737584e+2, -315815.2, -385641.66, -26359.057, 0.029029334, 0.25648826, -306982.2, -49788.777, 0.00000000065814787, 10.000034, 9.998926 
2.2352903e+3, 2.8375685e+2, -290979.34, -387474.28, 19379.979, -0.032954212, 0.20691013, -287232.56, -128026.87, 0.0, 9.999774, 9.998395 
2.235322e+3, 2.9375425e+2, -24463.979, -218242.67, 94145.81, 0.03085173, 0.06873484, 13742.858, 74973.336, 0.0000012574419, 10.001021, 9.998238 
2.2353552e+3, 3.0375415e+2, -2143.6143, -315112.84, 54211.934, 0.12756914, 0.25919005, 6980.8535, 6980.8535, 0.000044073433, 10.001345, 9.997145 
2.2353828e+3, 3.1374952e+2, 56089.207, 47069.81, -8063.237, -0.09103649, 0.03284542, 60818.188, 60818.188, 0.00018419352, 10.000345, 10.000058 
2.2449204e+3, 1.537375e+2, -1120533.0, -1756450.1, -190169.52, 0.091382906, 0.47696784, -1068002.6, 365405.88, 0.42759266, 10.006333, 9.9945545 
2.2449458e+3, 1.6373193e+2, -1290227.6, -1393884.9, -7049.214, 0.25554952, 0.19925787, -1289750.4, 45713.69, 0.29616648, 10.0006485, 9.999205 
2.2449747e+3, 1.7373484e+2, -1135273.1, -1115809.3, -770.6163, 0.19369651, 0.4048916, -1115778.8, 121659.0, 0.19952731, 10.000422, 10.000708 
2.2450037e+3, 1.8373653e+2, -1166368.1, -1226220.6, -11928.558, 0.18341608, 0.5496479, -1164078.4, -24655.172, 0.13536815, 9.999982, 9.999321 
2.245033e+3, 1.9373575e+2, -1069802.0, -1126423.8, 12941.274, 0.1506639, 0.51847905, -1066984.4, -25552.725, 0.09319166, 10.0, 9.999307 
2.2450617e+3, 2.0373534e+2, -922145.8, -921175.6, -20884.256, 0.1529272, 0.5087994, -900770.8, 42664.023, 0.06306426, 9.999938, 10.000119 
2.2450903e+3, 2.137352e+2, -819906.44, -774244.56, -120024.64, 0.21801403, 0.43405345, -674898.7, 170533.67, 0.0400799, 9.999831, 10.000488 
2.2451185e+3, 2.2373424e+2, -801249.2, -917946.0, -103703.28, 0.21792307, 0.38122916, -740606.44, 6833.127, 0.023131557, 10.000116, 9.998674 
2.245146e+3, 2.3373212e+2, -600833.1, -743034.1, -78189.06, 0.10341121, 0.25331062, -566251.06, 83209.55, 0.011994159, 10.000763, 9.9988575 
2.245174e+3, 2.4373074e+2, -449088.44, -625007.06, -3560.1846, 0.06346401, 0.24932142, -449016.44, 102456.85, 0.0054928027, 10.001121, 9.998844 
2.2452046e+3, 2.5373113e+2, -343747.75, -437081.72, -9336.914, 0.07887138, 0.314827, -342822.88, 110644.4, 0.002050329, 10.000876, 9.999537 
2.2452337e+3, 2.6373073e+2, -344317.0, -507936.7, -71097.016, 0.0922652, 0.37667307, -317740.3, 37728.027, 0.0004876709, 10.000688, 9.998493 
2.2452627e+3, 2.73729e+2, -86258.98, -277374.94, -39671.555, 0.0837224, 0.29319814, -78351.21, 179130.64, 0.000047167257, 10.001613, 9.998922 
2.2452919e+3, 2.8372753e+2, -22793.713, -240715.61, 31455.965, 0.094298884, 0.2392128, -18344.053, 141149.98, 0.00000034188096, 10.001517, 9.998575 
2.2453235e+3, 2.9372486e+2, 15477.76, -208315.69, 49878.063, 0.069977134, 0.1101303, 26091.027, 87611.055, 0.0000013302117, 10.00128, 9.998214 
2.2453567e+3, 3.037246e+2, -43390.31, -343676.78, 68345.414, 0.18835407, 0.26525387, -28566.615, -28566.615, 0.0000584347, 10.001025, 9.997117 
2.2453845e+3, 3.1372145e+2, 195307.72, 252676.78, -44899.918, 0.040048946, 0.22718653, 277272.7, 277272.7, 0.00025945, 10.000579, 10.001372 
2.2549458e+3, 1.6370367e+2, -1364637.4, -1440625.1, -82357.09, 0.099126674, 0.2771329, -1311932.8, 23804.227, 0.39765337, 10.000092, 9.999159 
2.2549734e+3, 1.7370513e+2, -1198120.8, -1228776.6, -15676.821, -0.046417285, 0.3895135, -1191523.6, 46204.758, 0.29298013, 10.000365, 9.999762 
2.2550024e+3, 1.837055e+2, -1177956.1, -1186563.4, -56453.543, -0.04200026, 0.44410565, -1125642.5, 14084.035, 0.21888196, 9.999728, 9.99971 
2.2550333e+3, 1.9370481e+2, -1035619.44, -998729.3, 9708.51, 0.11722836, 0.31370363, -996330.3, 45398.36, 0.16615056, 9.999743, 10.000344 
2.2550625e+3, 2.0370527e+2, -1069338.9, -1156002.4, -34444.84, 0.18063891, 0.37682495, -1057316.5, -113592.66, 0.12546477, 9.999637, 9.99862 
2.2550903e+3, 2.1370563e+2, -986018.9, -1068476.6, -114881.15, 0.22417518, 0.53249043, -905192.44, -59466.08, 0.0914258, 9.999618, 9.998522 
2.2551191e+3, 2.2370481e+2, -831098.7, -874335.8, -88717.234, 0.25009438, 0.58563286, -761404.0, -13667.06, 0.062582165, 9.9996605, 9.999192 
2.25515e+3, 2.3370308e+2, -559439.1, -592147.6, -40683.82, 0.41096836, 0.3810378, -531945.56, 117805.39, 0.039919913, 10.000485, 10.000046 
2.2551782e+3, 2.4370177e+2, -577378.5, -719535.94, -30211.607, 0.33661208, 0.3301171, -571224.3, -19463.658, 0.023601582, 10.000409, 9.998522 
2.2552036e+3, 2.537011e+2, -427243.06, -518759.1, -10347.151, -0.117716394, 0.32051644, -426087.75, 27676.05, 0.012405956, 10.00051, 9.999134 
2.2552307e+3, 2.6370004e+2, -429335.47, -548061.25, -75069.14, -0.2962293, 0.35378835, -392993.97, -37222.797, 0.005154125, 10.000133, 9.998472 
2.2552642e+3, 2.736996e+2, -122309.734, -233287.03, 5818.175, 0.03743975, 0.34336933, -122005.54, 135767.38, 0.0013586987, 10.001127, 9.999444 
2.2552949e+3, 2.8369918e+2, -167876.7, -355220.6, -16750.574, 0.20251292, 0.38023537, -166390.81, -6614.9736, 0.00015517221, 10.000763, 9.99813 
2.2553247e+3, 2.936964e+2, -77082.664, -279949.38, 65541.71, 0.05055675, 0.29321572, -57749.953, 4053.738, 0.0000026982873, 10.000839, 9.997893 
2.2553557e+3, 3.0369452e+2, -97229.92, -292866.97, 29916.24, -0.10084037, 0.25343314, -92757.46, -92757.46, 0.000065484004, 10.00039, 9.997744 
2.2553852e+3, 3.136928e+2, 178464.23, 432699.4, 140122.89, -0.008054838, 0.30840284, 494773.0, 494773.0, 0.00034262822, 9.99973, 10.003001 
2.2649756e+3, 1.7367461e+2, -1251949.6, -1640812.0, 13616.401, 0.12070117, 0.23944467, -1251473.5, -13452.077, 0.44342524, 10.000824, 9.996862 
2.2650066e+3, 1.8367726e+2, -965288.8, -1174499.6, 14978.404, 0.2559749, 0.48614663, -964221.9, 175781.77, 0.3585124, 10.002241, 9.998612 
2.2650346e+3, 1.9367477e+2, -920880.44, -992727.94, -67661.984, 0.23009676, 0.28407982, -880197.0, 161825.13, 0.29413474, 10.001125, 9.999745 
2.2650617e+3, 2.0367342e+2, -932664.44, -1077765.6, -119510.48, 0.11397428, 0.1858649, -865406.8, 78627.52, 0.24160613, 10.00053, 9.998821 
2.2650872e+3, 2.1367419e+2, -930574.1, -1035998.6, -96156.14, -0.07298027, 0.37968373, -873629.75, -27596.184, 0.1940874, 9.999895, 9.998652 
2.2651157e+3, 2.2367436e+2, -777849.5, -859899.5, 62989.008, -0.051708914, 0.5184254, -743703.56, 4331.9165, 0.14888066, 10.000025, 9.999143 
2.2651485e+3, 2.3367383e+2, -566502.2, -626918.9, -16880.232, 0.21782292, 0.4798474, -562105.8, 87933.3, 0.108788945, 10.000628, 9.99975 
2.2651784e+3, 2.4367279e+2, -468728.22, -594063.5, -47069.555, 0.29585487, 0.45598257, -453020.0, 99026.67, 0.07581198, 10.000804, 9.999228 
2.2652058e+3, 2.5367212e+2, -395301.78, -415440.5, 26731.537, 0.080583595, 0.35581812, -376806.0, 77242.91, 0.048806984, 10.000237, 10.000062 
2.2652334e+3, 2.636707e+2, -460061.2, -609239.7, 68443.86, -0.012691962, 0.32673636, -433417.47, -77358.6, 0.026684597, 10.000028, 9.998141 
2.2652659e+3, 2.736689e+2, -101204.2, -285098.8, 61589.0, 0.1179932, 0.22274674, -82483.03, 175591.45, 0.010897145, 10.001448, 9.998984 
2.2652958e+3, 2.836681e+2, -120061.69, -317552.22, -17125.615, 0.24035981, 0.24982643, -118587.62, 41493.086, 0.002788968, 10.00098, 9.998314 
2.2653276e+3, 2.9366788e+2, 215040.67, -90556.06, 145004.11, 0.16686189, 0.3997083, 272892.56, 334975.88, 0.0003034348, 10.0026655, 9.998322 
2.265358e+3, 3.0366537e+2, 315204.63, -190965.48, 85902.07, -0.04238161, 0.26942968, 329385.75, 329385.75, 0.000074942734, 10.003687, 9.996875 
2.2653879e+3, 3.1366044e+2, 533007.0, 299037.56, -11438.966, 0.10372409, 0.28339747, 533564.94, 533564.94, 0.00045627946, 10.003342, 10.000452 
2.2750641e+3, 2.0364405e+2, -905847.06, -1038096.8, -55938.71, 0.22799385, 0.41005293, -885359.94, 58964.953, 0.4526298, 10.000844, 9.998883 
2.2750898e+3, 2.1364428e+2, -746736.06, -750308.75, -46871.254, 0.1796404, 0.33632833, -701617.1, 144703.9, 0.38963944, 10.0006485, 10.0005865 
2.2751206e+3, 2.236438e+2, -894970.5, -1061592.5, 26928.863, 0.35661188, 0.30395317, -890726.44, -142400.06, 0.32267725, 9.999875, 9.997775 
2.2751462e+3, 2.3364298e+2, -826456.8, -951578.4, 28837.055, -0.09224343, 0.3846932, -820130.5, -169791.73, 0.25840095, 9.999669, 9.997893 
2.2751746e+3, 2.4364242e+2, -603930.75, -601235.7, -45675.32, -0.2781363, 0.50838107, -556888.0, -4543.0996, 0.20062341, 9.999595, 9.999722 
2.2752109e+3, 2.536437e+2, -380445.6, -203774.44, 20499.164, 0.51488954, 0.35133955, -201427.11, 252900.33, 0.14660953, 9.9994135, 10.002144 
2.2752412e+3, 2.6364297e+2, -812911.56, -960722.56, 61975.477, 0.6868619, 0.33058503, -790365.06, -434035.2, 0.09444842, 9.998436, 9.996452 
2.2752686e+3, 2.736378e+2, -289092.72, -532826.75, 109199.48, 0.18437329, 0.01107536, -247325.72, 11051.2705, 0.04983968, 10.000868, 9.997513 
2.275295e+3, 2.8363517e+2, -278612.5, -376711.13, -88333.04, -0.0076520164, -0.06332638, -226624.39, -66224.17, 0.019500945, 9.999877, 9.9984045 
2.2753303e+3, 2.936391e+2, 152693.39, -24262.438, 209207.7, 0.16899213, 0.3787583, 291363.47, 353725.06, 0.004786881, 10.00189, 9.999116 
2.275362e+3, 3.036368e+2, -86283.42, -682026.44, 5504.4287, -0.048957303, 0.29786068, -86232.57, -86232.57, 0.0007184054, 10.002331, 9.9941 
2.2753902e+3, 3.136263e+2, -218023.78, -810153.06, 99137.74, -0.08459922, 0.13024561, -201866.44, -201866.44, 0.0007782504, 10.001632, 9.993549 
2.2851843e+3, 2.4361862e+2, -242679.56, -529196.6, 3073.304, 0.3823745, 0.13682939, -242646.6, 309925.66, 0.45869297, 10.003839, 9.998873 
2.2852066e+3, 2.5362158e+2, -970820.6, -1189410.5, -59360.418, 0.17515475, 0.9670271, -955740.94, -501197.2, 0.36361384, 9.9983635, 9.99573 
2.2852312e+3, 2.636103e+2, -396741.44, -727258.2, -148319.25, -0.33953694, 0.24804102, -339943.66, 16709.38, 0.26167566, 10.000928, 9.996956 
2.2852688e+3, 2.7361044e+2, 286661.7, -146916.81, 55814.73, -0.057530656, 0.39664716, 293731.44, 552378.0, 0.1640845, 10.005056, 9.998421 
2.2852974e+3, 2.836074e+2, 72932.445, -300231.25, -215099.02, 0.12599792, 0.31478235, 171096.75, 331770.4, 0.0825175, 10.002754, 9.997644 
2.2853307e+3, 2.936057e+2, 202592.81, -58171.01, 103594.64, 0.021383697, 0.25169134, 238738.05, 301429.97, 0.030766618, 10.002329, 9.998779 
2.2853662e+3, 3.0360526e+2, 268800.8, -27966.852, -17817.105, 0.15223365, 0.20426457, 269866.7, 269866.7, 0.009050352, 10.002485, 9.998603 
2.2853915e+3, 3.136031e+2, 14119.507, -13772.287, 262727.34, -0.014401309, 0.38161406, 263270.8, 263270.8, 0.0039666877, 10.000222, 9.99969 
2.295278e+3, 2.7357182e+2, -339922.66, -182523.11, 167974.86, 0.34115237, -0.163209, -75725.69, 183304.55, 0.434636, 9.998763, 10.0015745 
2.295304e+3, 2.83583e+2, -1125596.0, -1436653.3, -565134.94, 0.39851785, 1.1040031, -694979.0, -534060.25, 0.25417715, 9.996851, 9.99256 
2.2953291e+3, 2.9357234e+2, -78565.24, -361092.47, 203893.38, -0.4804467, 0.15627642, 28219.361, 91246.836, 0.12177227, 10.001286, 9.997066 
2.2953701e+3, 3.0357528e+2, -286357.38, 338893.06, -89766.68, 0.14343055, 0.30475098, 351525.56, 351525.56, 0.05403949, 9.996038, 10.004224 
2.2953953e+3, 3.1358686e+2, 685146.75, 1953958.0, -155306.72, 0.14750019, 0.43372813, 1972691.5, 1972691.5, 0.031575628, 9.998022, 10.01451 
2.3053347e+3, 2.9354778e+2, -131860.02, 332507.72, -595955.75, -0.36837494, 0.21703829, 739911.7, 803183.75, 0.36153358, 9.99709, 10.006601 
2.3053804e+3, 3.0355996e+2, -599073.4, -688471.7, 462067.28, 0.8092384, 0.7542986, -179548.25, -179548.25, 0.21577235, 9.997298, 9.996573 
2.3053984e+3, 3.1354192e+2, 273574.63, -1748999.6, -342686.8, -0.15393214, 0.29387885, 330058.94, 330058.94, 0.16861935, 10.009702, 9.98402 
2.3448537e+3, 2.7731663e+2, 181622.78, -864498.44, -727952.4, -0.056765128, -0.6145121, 554947.75, 777273.7, 0.47130373, 10.010155, 9.990816 
2.3445004e+3, 2.8732723e+2, -621477.8, -320943.22, -432918.0, -0.98147005, 1.2019724, -12954.85, 111286.195, 0.4429869, 9.995788, 10.000443 
2.3582283e+3, 1.7773212e+2, -971225.25, -1350460.9, -61965.313, 0.5072625, -0.0053394902, -961357.2, 236892.5, 0.43648925, 10.0035715, 9.996574 
2.3578821e+3, 1.8773164e+2, -768009.25, -1154418.6, 245779.61, -0.22287181, 0.90873116, -648586.9, 451674.38, 0.37765327, 10.004619, 9.996982 
2.3575386e+3, 1.9772488e+2, -1474099.4, -1476309.0, 617929.1, -0.33018392, 0.93708664, -857274.06, 145068.9, 0.33357388, 9.997435, 9.997567 
2.3571965e+3, 2.0770806e+2, -908832.44, -608110.2, 350179.47, -1.0107185, -0.21921945, -377375.34, 527125.3, 0.3010301, 9.998265, 10.003185 
2.3568779e+3, 2.1770631e+2, -965823.5, -747164.6, 373246.16, 0.7023015, -0.23445198, -467565.25, 338936.28, 0.27822682, 9.997608, 10.001624 
2.3565364e+3, 2.2770965e+2, -284961.8, -687772.06, 37675.445, 0.2879493, 0.73448724, -281468.28, 427003.97, 0.26116833, 10.004348, 9.997485 
2.3561826e+3, 2.3770241e+2, -1410256.1, -1226539.8, -85964.414, -1.4602066, 0.64886785, -1192589.4, -582035.3, 0.24572708, 9.994724, 9.997783 
2.3558591e+3, 2.4769573e+2, -688047.56, -784593.9, 268085.9, -0.11856541, 0.7325718, -463923.3, 48694.46, 0.23013131, 9.999122, 9.99792 
2.3555353e+3, 2.5768396e+2, -567044.3, -726226.5, 475003.7, 0.9814458, 0.29889056, -165009.77, 249716.84, 0.20986715, 9.999373, 9.997864 
2.3551892e+3, 2.6767874e+2, 433324.66, 132739.25, 216173.22, 0.43606904, 0.32814583, 546316.5, 863096.3, 0.17515534, 10.004947, 10.0009575 
2.3548472e+3, 2.776722e+2, -389797.03, -1219612.5, 473605.88, -0.634625, 0.452708, -175061.27, 43787.945, 0.13162628, 10.002232, 9.991597 
2.3545083e+3, 2.8766358e+2, 342171.1, -97946.03, -72538.24, -0.34158218, 0.6976294, 353818.3, 474760.84, 0.12163138, 10.0040655, 9.997724 
2.3541844e+3, 2.9766336e+2, -1194491.1, -559236.25, 497559.97, 0.57869303, 0.8680428, -286564.53, -263608.34, 0.18185836, 9.991622, 10.0002775 
2.353856e+3, 3.0765316e+2, 95144.03, -220285.06, -458326.7, 0.7388622, 0.68490607, 422132.72, 422132.72, 0.30738804, 10.003082, 9.997544 
2.3688842e+3, 1.5807131e+2, -1791373.8, -1987302.1, 62562.42, -0.013301327, 0.56680447, -1773101.0, -382146.66, 0.40917698, 9.9980955, 9.996298 
2.3685427e+3, 1.6806541e+2, -792260.0, -593668.5, 224474.78, -0.48549858, 0.311123, -447508.4, 845498.56, 0.31914198, 10.001676, 10.005622 
2.3682126e+3, 1.780629e+2, -1352136.8, -977333.8, -94391.09, -0.49564818, -0.012822535, -954904.44, 240109.52, 0.25440058, 9.996749, 10.003091 
2.3678814e+3, 1.8805811e+2, -1282394.0, -1132808.9, -427489.97, 0.26695228, -0.040492576, -773618.0, 323443.9, 0.20803133, 9.998205, 10.000356 
2.3675495e+3, 1.9805631e+2, -711594.9, -872924.8, -340161.88, 1.3045615, 0.23480387, -442664.47, 556421.94, 0.17323087, 10.001817, 9.999832 
2.3672041e+3, 2.0805323e+2, -648079.8, -708901.94, -163646.95, 0.3738649, 0.45395756, -512042.22, 389071.3, 0.14628425, 10.001111, 10.000493 
2.366857e+3, 2.1805003e+2, -828675.94, -799682.6, -265234.47, -0.79309356, 0.5814069, -548548.94, 254589.44, 0.1255361, 9.999146, 10.000109 
2.3665299e+3, 2.2804166e+2, -626352.5, -709058.94, -162815.77, 0.19248241, 0.31814116, -499720.4, 205499.39, 0.1083094, 10.000188, 9.999425 
2.366205e+3, 2.3802862e+2, -344034.63, -540359.94, -16332.871, 1.5107807, -0.36808503, -342685.13, 264664.56, 0.092003874, 10.001573, 9.999276 
2.36586e+3, 2.4802507e+2, -147175.08, -97002.99, 26184.139, 0.6945827, -0.26355797, -85827.23, 423557.6, 0.07587102, 10.000999, 10.002102 
2.3655143e+3, 2.5802383e+2, -497610.75, -665298.8, 5294.9917, -0.5855376, 0.11140585, -497443.72, -86047.26, 0.05915994, 9.999756, 9.997867 
2.3651801e+3, 2.6802048e+2, -48678.91, -261970.9, -96237.65, -0.28779468, 0.49384642, -11675.842, 301756.47, 0.040453468, 10.001721, 9.998973 
2.3648554e+3, 2.780148e+2, -302686.1, -846216.44, 244505.36, 0.45370394, 0.6819001, -208884.34, 6608.474, 0.022688523, 10.001634, 9.994251 
2.3645085e+3, 2.880003e+2, 146627.6, -503250.97, -176548.44, -0.15496382, 0.33717814, 191492.16, 309130.3, 0.017875569, 10.003931, 9.994718 
2.3641594e+3, 2.9798588e+2, 77748.78, -283079.1, 301784.44, -1.1280875, -0.4367303, 248935.52, 268717.4, 0.03845886, 10.002064, 9.996888 
2.3638445e+3, 3.079871e+2, -391420.1, -448035.97, 225788.83, 0.065566495, 0.64460313, -192171.58, -192171.58, 0.085373, 9.99867, 9.997298 
2.3792158e+3, 1.4841743e+2, -2528175.5, -2014721.0, 48682.688, -0.17597373, 0.4442187, -2010146.0, -524586.44, 0.38968265, 9.992647, 9.999247 
2.3788784e+3, 1.5841474e+2, -1456600.8, -1684802.6, 69800.945, -0.060888894, 0.6849219, -1436943.6, -49356.6, 0.27836236, 10.000193, 9.997382 
2.3785459e+3, 1.6840576e+2, -1367578.1, -1413914.3, 191523.6, 0.2089, 0.5542428, -1197826.4, 91845.375, 0.19862524, 9.999568, 9.998805 
2.3782136e+3, 1.7839822e+2, -1753197.6, -1624905.0, -89318.984, 0.40314004, 0.3583576, -1579084.9, -387343.72, 0.1461588, 9.996395, 9.998251 
2.3778696e+3, 1.8839487e+2, -1351288.4, -1181337.5, -194032.14, -0.23288128, 0.6381891, -1054489.1, 39288.344, 0.11113541, 9.997749, 9.999911 
2.3775256e+3, 1.983908e+2, -1023232.56, -1077613.8, -216813.3, -0.78088576, 0.7140822, -831911.5, 163911.88, 0.08556882, 9.999627, 9.999198 
2.3771946e+3, 2.0838381e+2, -912472.25, -873654.0, -171289.44, -0.17400274, 0.5746908, -720677.5, 177215.58, 0.065839775, 9.999383, 9.999946 
2.3768626e+3, 2.183759e+2, -1095766.0, -897101.0, -220273.06, 0.33221042, 0.25983334, -754799.1, 45170.617, 0.050802168, 9.997248, 10.000193 
2.3765236e+3, 2.283756e+2, -573854.9, -127354.79, -87045.055, 0.05540168, 0.45222235, -110985.5, 590978.1, 0.03888462, 9.99821, 10.0043955 
2.3761867e+3, 2.3837604e+2, -632671.2, -542747.25, -21412.22, -0.057260774, 0.6641691, -537909.0, 66040.305, 0.028499532, 9.998992, 10.000438 
2.3758492e+3, 2.4836932e+2, -497327.72, -597365.44, -64451.168, -0.0712592, 0.6035939, -465763.25, 40254.793, 0.019239584, 10.000092, 9.9987755 
2.3755142e+3, 2.583595e+2, -808191.9, -973549.0, -40785.13, -0.12649176, 0.36112815, -798679.5, -390559.6, 0.011432521, 9.998511, 9.996293 
2.3751797e+3, 2.6835337e+2, -77272.85, -112469.734, -116611.05, 0.0005536997, 0.383401, 23060.217, 333235.1, 0.00541735, 10.000987, 10.000252 
2.3748481e+3, 2.7834696e+2, -304325.28, -604396.1, 96361.47, 0.058915924, 0.2597541, -276045.94, -63814.902, 0.0017239725, 10.000666, 9.996376 
2.374507e+3, 2.883376e+2, 234092.6, -439320.13, -176924.72, -0.22417128, 0.35731238, 277745.97, 392072.2, 0.0009962119, 10.004394, 9.994969 
2.3741704e+3, 2.983329e+2, 237124.05, -340739.47, 123852.34, -0.20337081, 0.6196168, 262550.3, 278927.94, 0.0037776483, 10.003641, 9.9957905 
2.3738453e+3, 3.083197e+2, 202613.55, 108118.875, 203900.9, 0.115869224, 0.2444314, 364669.56, 364669.56, 0.011107733, 10.001636, 9.999752 
2.3895478e+3, 1.387641e+2, -1680429.3, -1644528.5, 283746.4, -0.055813074, 1.1021798, -1378165.3, 202005.4, 0.42782596, 9.99931, 9.999704 
2.3892108e+3, 1.487541e+2, -1095557.4, -1188636.3, -60311.133, -0.20080851, 0.559944, -1065917.1, 416342.75, 0.2998544, 10.002699, 10.001077 
2.3888785e+3, 1.5874876e+2, -1015564.06, -1281427.8, -71570.125, 0.18852237, 0.47369274, -997521.9, 386785.66, 0.19614406, 10.002939, 9.9991 
2.388543e+3, 1.6874331e+2, -1132466.1, -1271343.1, -17005.234, 0.3410001, 0.5617876, -1130414.1, 155947.38, 0.12585048, 10.00098, 9.999172 
2.3882061e+3, 1.7873746e+2, -1430059.0, -1421286.5, 59853.594, 0.3723864, 0.5739446, -1365658.6, -177238.33, 0.083471425, 9.998267, 9.998818 
2.3878628e+3, 1.8873174e+2, -1212694.0, -1057276.3, 101988.8, -0.19551814, 0.57452375, -1006765.06, 83711.414, 0.057587944, 9.99836, 10.0005245 
2.3875187e+3, 1.9872586e+2, -1128806.0, -1098117.3, 115286.414, -0.8740997, 0.48476705, -997158.5, -4623.3677, 0.03970386, 9.998639, 9.999505 
2.3871863e+3, 2.087199e+2, -1020608.7, -980811.5, 94991.12, -0.38671187, 0.49213144, -903657.2, -9058.621, 0.026570952, 9.998797, 9.999458 
2.3868562e+3, 2.1871366e+2, -822565.4, -761440.3, 99402.45, 0.3387605, 0.4532855, -688008.06, 108656.01, 0.017417854, 9.999045, 10.000262 
2.3865181e+3, 2.287121e+2, -452940.22, -106742.94, 45203.62, 0.1200059, 0.5726208, -100937.95, 597732.7, 0.011141793, 9.999228, 10.003972 
2.386179e+3, 2.3871095e+2, -553416.3, -496277.5, -61243.7, -0.29555085, 0.6966864, -457267.3, 143403.3, 0.0065593217, 9.999491, 10.000492 
2.385843e+3, 2.4870414e+2, -404345.25, -630034.2, -67866.23, -0.22991058, 0.66275936, -385509.44, 117230.414, 0.0032030866, 10.001002, 9.998124 
2.3855108e+3, 2.5869492e+2, -315052.78, -687465.44, 118448.03, -0.015658323, 0.53726584, -280572.16, 124263.305, 0.0011282732, 10.001648, 9.996719 
2.385177e+3, 2.6868698e+2, 121994.8, -81810.71, 21270.875, 0.056440584, 0.42151898, 124191.13, 431097.22, 0.00023273825, 10.002592, 9.999695 
2.384844e+3, 2.7867872e+2, 23550.158, -263594.0, 22077.54, -0.015300454, 0.13726819, 25237.709, 234215.05, 0.000018977813, 10.002046, 9.998041 
2.3845066e+3, 2.8867194e+2, 106496.164, -344829.66, -136496.2, -0.11977293, 0.31841213, 144566.0, 255610.02, 0.000039610317, 10.002818, 9.996351 
2.3841746e+3, 2.9867122e+2, 74052.18, -457134.6, 74314.32, 0.40584776, 1.005741, 84253.04, 97306.79, 0.00031053094, 10.002586, 9.995476 
2.3838423e+3, 3.0865124e+2, 168909.36, 243673.97, -274999.34, 0.28229293, -0.025000205, 483820.2, 483820.2, 0.0010092399, 10.000893, 10.000873 
2.3998767e+3, 1.2910067e+2, -1932486.4, -1912802.3, 455584.25, 0.38169196, 0.7739217, -1466953.8, 207905.7, 0.49043652, 9.999115, 9.998615 
2.3995456e+3, 1.3909158e+2, -1670420.6, -1777435.9, 164434.72, 0.11483621, 0.3517808, -1551006.8, 25942.342, 0.36336103, 9.999772, 9.998211 
2.3992133e+3, 1.4908557e+2, -1323982.8, -1293800.5, 8224.932, 0.35944155, 0.26743618, -1291704.8, 187300.02, 0.24041095, 10.000601, 10.000743 
2.3988791e+3, 1.5908056e+2, -1319838.1, -1330588.9, -101147.45, 0.56268066, 0.18672866, -1223923.3, 157126.88, 0.14389461, 10.0000105, 9.999955 
2.3985378e+3, 1.6907941e+2, -1194947.4, -1036276.6, -95022.31, 0.3337507, 0.49930722, -991824.56, 291240.72, 0.08188297, 9.999367, 10.001644 
2.3981959e+3, 1.7907734e+2, -1424895.5, -1262330.8, -44245.68, 0.08610569, 0.67220634, -1251068.5, -65978.6, 0.047678713, 9.997699, 10.000194 
2.3978575e+3, 1.8907024e+2, -1179160.0, -979742.1, 71231.766, -0.029275779, 0.43921447, -956911.94, 130242.13, 0.028905774, 9.998424, 10.000984 
2.3975188e+3, 1.9906294e+2, -1220639.6, -1195340.9, 47414.316, -0.16060087, 0.16627567, -1158917.6, -169697.86, 0.017015342, 9.998374, 9.998949 
2.397181e+3, 2.0905977e+2, -1104558.4, -1069942.8, 53276.215, -0.22232379, 0.50355494, -1031233.44, -139975.69, 0.00915297, 9.998577, 9.998923 
2.3968449e+3, 2.1905631e+2, -1156113.5, -1143856.6, 52195.14, -0.08072315, 0.8161293, -1097431.4, -304131.13, 0.0045936005, 9.997866, 9.998193 
2.3965113e+3, 2.2904749e+2, -785261.2, -642861.1, 26790.791, 0.103963085, 0.4877558, -637987.56, 57394.92, 0.0022051786, 9.998657, 10.000491 
2.3961775e+3, 2.3903722e+2, -854304.56, -855072.0, -57431.06, 0.17455807, -0.0061476687, -797255.94, -199779.58, 0.0009056362, 9.998442, 9.998531 
2.3958406e+3, 2.4903429e+2, -350312.2, -379865.03, -39084.97, -0.008429039, 0.26430008, -323303.72, 176199.98, 0.00023937336, 10.000621, 9.999916 
2.3955059e+3, 2.590315e+2, -454367.13, -759481.25, 104140.125, -0.15792589, 0.59154284, -422211.38, -20680.352, 0.000025130046, 10.0008, 9.996637 
2.3951736e+3, 2.690231e+2, -16059.877, -360715.28, 41772.547, -0.023078872, 0.57317406, -11069.2705, 292540.22, 0.00000030344088, 10.002667, 9.9977045 
2.3948424e+3, 2.7901384e+2, -96765.23, -347195.22, -15727.184, 0.06962633, 0.30229494, -95781.414, 109913.305, 0.0000000068303647, 10.001398, 9.997798 
2.3945044e+3, 2.8900507e+2, 187154.94, -33814.188, -82500.2, -0.09450442, 0.10486027, 214558.45, 322331.78, 0.0000039429096, 10.002324, 9.998677 
2.3941682e+3, 2.9899976e+2, -324933.28, -787126.56, 103678.305, -0.14420612, 0.25591156, -302741.84, -292922.38, 0.00006190627, 10.000523, 9.994185 
2.3938386e+3, 3.0898735e+2, 45658.793, -26872.373, -36411.965, 0.08175568, 0.10728859, 60784.1, 60784.1, 0.0002690841, 10.000847, 9.999026 
2.4098694e+3, 1.2942988e+2, -1440563.1, -1460993.6, 45362.043, -0.15783277, 0.150385, -1404280.4, 267329.94, 0.44510007, 10.001799, 10.001135 
2.4095418e+3, 1.3942686e+2, -1641751.4, -1706925.5, 121286.05, 0.17436779, 0.23185457, -1548751.0, 24895.563, 0.31930807, 9.99955, 9.998922 
2.4092075e+3, 1.4942193e+2, -1624581.0, -1535826.9, -40766.996, 0.3554264, 0.32615846, -1519944.0, -44241.867, 0.20041417, 9.998703, 9.99962 
2.408871e+3, 1.5941611e+2, -1663392.1, -1521555.1, -131394.19, 0.37455487, 0.27376842, -1443162.3, -65396.695, 0.110025235, 9.997638, 9.999714 
2.4085298e+3, 1.6941422e+2, -1309792.6, -1041068.0, -189984.84, 0.20710997, 0.47928968, -942734.25, 337053.34, 0.054970514, 9.99831, 10.002093 
2.4081883e+3, 1.7941241e+2, -1238124.3, -1119618.9, -141314.03, -0.015177901, 0.64433765, -1025637.94, 156169.28, 0.027314784, 9.998679, 10.000738 
2.4078521e+3, 1.8940647e+2, -856755.7, -849410.75, -44052.61, -0.0044064317, 0.50158787, -808877.8, 274981.7, 0.013986388, 10.000683, 10.000825 
2.4075164e+3, 1.9939956e+2, -631656.2, -896483.75, -109448.234, -0.013788622, 0.29240137, -592278.5, 393642.2, 0.006556314, 10.002259, 9.99916 
2.4071775e+3, 2.0939492e+2, -641295.06, -848234.3, -163358.83, -0.08224304, 0.45775983, -551394.44, 336576.8, 0.002469395, 10.001718, 9.998972 
2.4068391e+3, 2.1939032e+2, -725068.56, -936149.3, -76112.01, -0.15140656, 0.67051345, -700486.6, 89536.4, 0.00078321603, 10.000698, 9.998287 
2.4065053e+3, 2.293826e+2, -591932.2, -678320.0, -2415.901, 0.049590793, 0.5036566, -591864.7, 100234.734, 0.00023610769, 10.000381, 9.999467 
2.4061729e+3, 2.3937336e+2, -568206.25, -713430.44, 81063.8, 0.23634365, 0.21021236, -531988.8, 62199.008, 0.000047296035, 10.000225, 9.998679 
2.405838e+3, 2.4936813e+2, -92561.336, -193634.83, 88617.6, 0.10702613, 0.2225919, -41083.176, 455147.2, 0.0000020598873, 10.002078, 10.000519 
2.4055041e+3, 2.5936365e+2, 9384.512, -436237.56, 127223.305, -0.07602605, 0.3254235, 43148.08, 441414.16, 0.0, 10.003475, 9.997563 
2.4051714e+3, 2.6935616e+2, -92349.53, -532329.5, 45456.152, -0.019830845, 0.45743236, -87702.35, 212637.94, 0.0, 10.002694, 9.9965315 
2.4048388e+3, 2.7934816e+2, -103427.375, -297903.56, -25342.838, 0.06739375, 0.4340039, -100179.12, 102240.47, 0.0, 10.000978, 9.998373 
2.4045022e+3, 2.8933853e+2, 291879.06, 222153.64, -101689.945, 0.023276119, -0.010478558, 364516.34, 469017.72, 0.00000028208012, 10.001996, 10.00068 
2.4041668e+3, 2.9933184e+2, -51019.18, -526675.56, 121468.22, 0.06632012, -0.13011613, -21795.36, -15240.1045, 0.000017512673, 10.001683, 9.99546 
2.403836e+3, 3.093233e+2, 25675.463, -218344.13, -36517.99, 0.1805031, 0.18313193, 31023.25, 31023.25, 0.0001005609, 10.001289, 9.99762 
2.4198674e+3, 1.2975755e+2, -1544089.0, -1308050.9, 67688.22, 0.06713426, -0.38183093, -1290017.8, 378364.03, 0.41411293, 9.99884, 10.004191 
2.4195369e+3, 1.3976343e+2, -1712421.0, -1658444.5, -44746.145, 0.2983033, 0.31464094, -1633177.8, -62844.15, 0.28877336, 9.998594, 9.999705 
2.4192002e+3, 1.497589e+2, -1672628.0, -1655747.0, -69200.11, 0.2931835, 0.4748121, -1594474.5, -122079.336, 0.17287979, 9.998703, 9.998857 
2.4188618e+3, 1.5975238e+2, -1621453.6, -1597367.4, -115932.62, 0.22952582, 0.4366064, -1492854.0, -118378.4, 0.08747846, 9.9982395, 9.9989805 
2.4185218e+3, 1.6974893e+2, -1240228.4, -1002916.8, -126523.164, 0.13248801, 0.50208104, -948115.7, 328395.13, 0.038149297, 9.998809, 10.002047 
2.4181823e+3, 1.7974614e+2, -1285221.3, -1186079.0, -57990.957, 0.071303606, 0.5736437, -1159359.6, 19177.232, 0.01570925, 9.998629, 10.000241 
2.4178477e+3, 1.8974148e+2, -906516.7, -912706.56, 45261.883, 0.039478026, 0.5898257, -864244.06, 216334.47, 0.0064830934, 10.00056, 10.000388 
2.4175134e+3, 1.9973564e+2, -830435.9, -1067771.0, -117776.25, 0.06026743, 0.52654016, -781911.2, 200720.47, 0.0021827125, 10.001278, 9.998438 
2.4171746e+3, 2.0972754e+2, -682879.6, -853539.06, -208043.52, 0.03308752, 0.34418365, -543346.56, 341365.94, 0.00044835047, 10.001393, 9.999065 
2.4168354e+3, 2.1971999e+2, -875852.4, -1006744.0, -116530.79, 0.01461443, 0.2202094, -807647.25, -20857.637, 0.000068581576, 9.999776, 9.998222 
2.4164997e+3, 2.2971907e+2, -599606.3, -597049.06, -28184.414, 0.010427909, 0.68834335, -570114.3, 118689.91, 0.0000096515805, 10.000194, 10.000018 
2.416166e+3, 2.3971695e+2, -720237.56, -800673.2, 77311.22, 0.084932566, 1.0377893, -673308.94, -82481.2, 0.00000040342232, 9.99942, 9.998431 
2.4158353e+3, 2.497053e+2, -156340.28, -251164.25, 153263.13, 0.1383426, 0.41984966, -43323.207, 449599.94, 0.0, 10.001848, 10.000195 
2.4155045e+3, 2.5969306e+2, -236869.19, -661814.8, 84888.93, 0.12796286, -0.23407595, -220538.97, 174485.98, 0.0, 10.002344, 9.996573 
2.4151683e+3, 2.6968744e+2, -259287.39, -692978.25, -28128.355, -0.042681403, 0.1363186, -257470.66, 39616.707, 0.0, 10.002021, 9.995683 
2.4148326e+3, 2.7968228e+2, -407669.97, -550962.9, -57918.25, -0.1666305, 0.4872641, -387187.5, -188041.67, 0.0, 9.999451, 9.99737 
2.4145012e+3, 2.8967342e+2, 323029.28, 437313.38, -50360.77, 0.23240894, 0.035780355, 456338.38, 557556.0, 0.0000000009564638, 10.001514, 10.002316 
2.4141717e+3, 2.9966658e+2, -262924.47, -528024.1, 130482.555, 0.66110015, -0.28168812, -209476.58, -206205.17, 0.0000015325257, 9.999964, 9.996252 
2.4138264e+3, 3.0966327e+2, -312903.56, -548984.1, -147473.11, -0.52676487, 0.4363052, -242047.52, -242047.52, 0.000021924814, 9.999737, 9.996086 
2.4298613e+3, 1.3009304e+2, -1896378.1, -1596130.4, 156423.16, 0.14112426, -0.40560108, -1529447.0, 135652.97, 0.39271495, 9.997009, 10.001902 
2.4295278e+3, 1.4009649e+2, -1672674.5, -1599519.9, -29656.725, -0.03673273, 0.26869425, -1589007.6, -21932.254, 0.26710206, 9.998694, 10.000072 
2.429192e+3, 1.5009387e+2, -1382168.8, -1315289.4, -60867.895, 0.061798885, 0.45534724, -1279280.4, 189832.83, 0.15331793, 9.999808, 10.000898 
2.4288552e+3, 1.6008992e+2, -1286010.6, -1277022.8, -20179.885, 0.11382237, 0.5142392, -1260842.5, 110320.21, 0.07196278, 9.999864, 10.000458 
2.428515e+3, 1.700859e+2, -1004105.56, -886084.8, -38660.875, -0.02357276, 0.49057013, -874548.1, 398649.3, 0.027363949, 10.0004635, 10.002061 
2.428175e+3, 1.8008116e+2, -1067053.1, -1192814.9, 69239.82, -0.17548372, 0.4188654, -1036402.4, 138836.2, 0.009079448, 10.000577, 9.999244 
2.4278435e+3, 1.9007389e+2, -917093.44, -1159796.1, 103121.13, 0.022498688, 0.37489375, -879196.2, 198115.44, 0.002868925, 10.001477, 9.998269 
2.4275117e+3, 2.0006663e+2, -723805.44, -1026621.1, -120980.56, 0.18695073, 0.34712058, -681407.6, 297977.7, 0.00059867656, 10.001963, 9.998416 
2.4271712e+3, 2.1006073e+2, -486401.25, -659303.0, -212278.63, 0.057515692, 0.31268838, -343644.84, 537799.44, 0.000045539302, 10.0021715, 10.000096 
2.4268308e+3, 2.2005513e+2, -479554.25, -733175.9, -64469.32, -0.084496014, 0.31382725, -464107.28, 319393.38, 0.0000022398012, 10.00202, 9.999035 
2.4264963e+3, 2.3005265e+2, -274979.1, -476534.72, -11824.78, 0.031802274, 0.63436717, -274287.75, 411241.38, 0.000000052409952, 10.002527, 9.999744 
2.4261636e+3, 2.400497e+2, -217250.52, -534195.9, 51481.95, 0.161253, 0.93178695, -209097.92, 378462.25, 0.0, 10.002713, 9.998668 
2.4258325e+3, 2.5003874e+2, -217763.92, -393381.38, 68365.85, 0.19314595, 0.45283824, -194288.05, 295365.88, 0.0, 10.001833, 9.999272 
2.4255016e+3, 2.6002678e+2, -404660.03, -665750.1, -48558.45, 0.16744106, -0.09933487, -395921.44, -4164.621, 0.0, 10.000711, 9.997356 
2.4251647e+3, 2.7002054e+2, -230455.81, -584394.56, -87763.76, -0.04791495, 0.111847736, -209888.77, 83934.36, 0.0, 10.0016365, 9.996687 
2.4248284e+3, 2.800155e+2, 33592.984, -210844.1, 3586.559, -0.14950366, 0.40658283, 33645.598, 229524.5, 0.0, 10.001785, 9.998597 
2.4244978e+3, 2.900088e+2, 142142.89, 343654.44, -69586.51, 0.33168557, 0.14957325, 365348.7, 463281.72, 0.0, 10.000117, 10.002421 
2.4241684e+3, 3.0000287e+2, -337592.66, -364853.13, 27343.652, 0.806119, -0.114973396, -320670.34, -320670.34, 0.000000086511356, 9.998378, 9.998193 
2.4238238e+3, 3.1000146e+2, 370404.4, -138009.03, -350288.78, -0.44598964, 0.67731637, 549006.25, 549006.25, 0.0000026170453, 10.003759, 9.997113 
2.4401931e+3, 1.2044298e+2, -1998488.8, -2564219.8, -530084.06, 0.58146334, 0.32782942, -1680519.9, 79144.56, 0.49454322, 10.001294, 9.993507 
2.439855e+3, 1.3042957e+2, -1649421.5, -1745863.0, 149178.9, 0.20225577, -0.29282668, -1540863.4, 120949.26, 0.3775347, 10.000599, 9.998811 
2.4395193e+3, 1.4042878e+2, -1714594.0, -1610571.5, -17842.566, -0.21695237, 0.19885442, -1607596.1, -43768.242, 0.25111946, 9.998438, 10.0000925 
2.4391848e+3, 1.5042849e+2, -1327959.3, -1074227.5, -83937.66, -0.07716901, 0.4285739, -1048973.4, 416861.53, 0.13882844, 9.999199, 10.003056 
2.4388497e+3, 1.6042715e+2, -1319256.4, -1194492.5, -116282.13, 0.1367742, 0.5587094, -1124916.0, 242933.63, 0.060861234, 9.99925, 10.001312 
2.4385086e+3, 1.7042236e+2, -1003095.4, -897669.06, -158682.05, -0.13633086, 0.41797635, -783173.75, 486712.06, 0.02025213, 10.000587, 10.001864 
2.4381685e+3, 1.80416e+2, -1168228.6, -1442113.4, -58203.313, -0.3489475, 0.23571698, -1156373.0, 15566.038, 0.0052852775, 10.000793, 9.997442 
2.4378398e+3, 1.9040547e+2, -1159031.1, -1559687.9, 53084.42, 0.04782334, 0.07947726, -1152117.1, -78067.0, 0.0012089658, 10.001088, 9.995711 
2.4375105e+3, 2.0039608e+2, -988655.44, -1205925.1, -130451.234, 0.44884586, 0.034844913, -927528.56, 48622.3, 0.00012403581, 10.000509, 9.997852 
2.4371678e+3, 2.1039516e+2, -515811.8, -490120.38, -240969.4, 0.08594361, 0.36722285, -261654.52, 616507.8, 0.000001917801, 10.001351, 10.001547 
2.4368256e+3, 2.203934e+2, -685247.75, -879146.6, -93557.266, -0.21908118, 0.64313847, -647467.25, 132713.05, 0.000000018702426, 10.000932, 9.998507 
2.436494e+3, 2.3038433e+2, -389757.03, -643964.3, -19226.143, 0.095501535, 0.3760149, -388311.13, 293955.72, 0.0, 10.002251, 9.998684 
2.4361631e+3, 2.4037522e+2, -506351.4, -869199.7, 10954.02, 0.41182578, 0.14958423, -506021.0, 78333.83, 0.0, 10.001655, 9.996872 
2.4358296e+3, 2.5037047e+2, -399572.56, -629818.25, 14090.381, 0.25002727, 0.4225579, -398713.5, 87690.05, 0.0, 10.001383, 9.997805 
2.4354959e+3, 2.6036498e+2, -571943.1, -761161.25, -62310.098, 0.043298207, 0.61666924, -553267.5, -164809.6, 0.0, 9.999767, 9.997139 
2.4351609e+3, 2.7035603e+2, -111724.44, -236433.66, -49331.94, -0.05322911, 0.35783455, -94569.695, 195971.77, 0.0, 10.0013075, 9.999191 
2.4348263e+3, 2.8034794e+2, -159931.39, -309299.1, -59083.125, -0.03803512, 0.13737604, -139386.61, 53230.92, 0.0, 10.000584, 9.998507 
2.43449e+3, 2.9034477e+2, -184869.34, -64440.63, -167827.48, 0.10025848, 0.35539737, 53647.66, 148295.8, 0.0, 9.99904, 10.000106 
2.434155e+3, 3.0034116e+2, -749617.7, -516070.5, 124964.91, 0.062324345, 0.49821532, -461811.06, -461811.06, 0.0, 9.995502, 9.99853 
2.4338284e+3, 3.1033096e+2, 562676.4, 502543.88, 301377.66, -0.060153738, -0.051395245, 835483.8, 835483.8, 0.00000012758136, 10.003048, 10.001718 
2.4501914e+3, 1.207785e+2, -1331383.1, -1540243.0, -132885.94, 0.40737778, 0.59934556, -1266803.4, 489597.63, 0.48539883, 10.005122, 10.0 
2.4498491e+3, 1.3076705e+2, -1335810.1, -1595168.3, -26636.299, -0.1764027, 0.066421196, -1333102.9, 325416.3, 0.36593348, 10.003951, 9.998313 
2.4495152e+3, 1.4076628e+2, -1646406.5, -1599627.4, -61093.867, -0.056742385, 0.6148305, -1557598.8, 2929.9705, 0.23856215, 9.999005, 9.999902 
2.4491782e+3, 1.50762e+2, -1343439.3, -1102023.9, -106052.51, -0.12835614, 0.47311518, -1062053.4, 400511.78, 0.1275105, 9.99914, 10.002846 
2.4488415e+3, 1.6075696e+2, -1388626.1, -1376907.9, -189023.02, -0.15335429, 0.28899935, -1193653.1, 170956.2, 0.052560914, 9.999425, 9.999923 
2.448504e+3, 1.707505e+2, -1019228.44, -1198943.4, -304615.97, -0.19598038, 0.20599097, -791493.0, 475175.4, 0.01541553, 10.001679, 9.999269 
2.4481668e+3, 1.8074378e+2, -838919.1, -1220763.5, -318102.28, -0.25919846, 0.15648983, -658842.2, 509888.47, 0.0031067657, 10.002735, 9.998042 
2.4478352e+3, 1.9073713e+2, -982128.06, -1188849.8, -113534.41, -0.0005674897, 0.15673566, -931952.2, 138847.13, 0.00048131414, 10.001036, 9.9983 
2.4475034e+3, 2.0073049e+2, -1105768.5, -1176427.3, -101949.51, 0.23051183, 0.19040011, -1033200.44, -60331.547, 0.000015932997, 9.999271, 9.998638 
2.447163e+3, 2.1072699e+2, -722250.4, -719388.6, -276031.1, 0.06608521, 0.34803903, -444784.7, 430122.8, 0.0000000054715246, 10.00047, 10.000395 
2.4468234e+3, 2.207232e+2, -527878.44, -758016.2, -219047.56, -0.104539745, 0.49445447, -395515.13, 381431.72, 0.0, 10.001731, 9.998962 
2.446492e+3, 2.3071474e+2, -306631.34, -562238.9, -113612.56, 0.16512886, 0.23957135, -263433.3, 415590.78, 0.0, 10.002543, 9.999166 
2.4461606e+3, 2.4070607e+2, -291175.28, -701344.5, -61160.266, 0.39931718, 0.0323255, -282249.9, 298855.03, 0.0, 10.002684, 9.997568 
2.4458256e+3, 2.507017e+2, -384704.84, -649675.9, -6258.205, 0.24191247, 0.3496396, -384557.1, 98598.06, 0.0, 10.001434, 9.997735 
2.445491e+3, 2.606975e+2, -412413.7, -500075.13, 16117.976, 0.036696453, 0.6584424, -409544.06, -24341.945, 0.0, 9.999912, 9.998906 
2.4451572e+3, 2.7068937e+2, -220311.38, -111317.14, 18570.053, 0.042144064, 0.31916022, -108240.11, 179032.61, 0.0, 9.999663, 10.000907 
2.4448232e+3, 2.8068155e+2, -178517.34, -277089.03, -56353.39, 0.102335386, 0.019988505, -152937.98, 36403.31, 0.0, 10.000092, 9.998996 
2.4444844e+3, 2.906789e+2, 254289.19, -41323.273, -178894.36, -0.0076930714, 0.41036826, 338538.72, 429913.66, 0.0, 10.002697, 9.998567 
2.4441482e+3, 3.0067554e+2, 382224.53, 118107.484, 163682.17, -0.11404799, 0.69576013, 460478.4, 460478.4, 0.0, 10.0026655, 9.999486 
2.4438296e+3, 3.1066325e+2, 17128.791, 565741.9, 270280.03, 0.3727768, -0.16147082, 676526.7, 676526.7, 0.000000000000427524, 9.997636, 10.004828 
2.4601884e+3, 1.21111564e+2, -1568054.4, -1472141.8, 98171.516, 0.19532858, 0.5572001, -1410839.4, 342315.3, 0.4772248, 10.000384, 10.003159 
2.4598445e+3, 1.3110486e+2, -1573602.9, -1728596.3, -130087.555, -0.4318571, 0.43874487, -1499677.9, 155540.88, 0.3557266, 10.001315, 9.998613 
2.4595125e+3, 1.4110398e+2, -1580693.8, -1620819.9, -68438.2, 0.30529562, 0.99606895, -1529438.4, 27785.541, 0.22774403, 9.999709, 9.999446 
2.4591726e+3, 1.5109496e+2, -1311197.9, -1174353.9, -72026.15, -0.06954832, 0.45764217, -1143431.3, 315868.3, 0.11809006, 9.999908, 10.001843 
2.4588338e+3, 1.6108547e+2, -1495996.3, -1699023.5, -125829.55, -0.32681185, -0.01876109, -1435837.1, -74454.44, 0.04605504, 9.999855, 9.997473 
2.4585004e+3, 1.7107737e+2, -1306243.3, -1670756.9, -153495.14, -0.14601143, 0.01452277, -1250218.1, 13249.426, 0.012013259, 10.001145, 9.996258 
2.4581668e+3, 1.8107086e+2, -979581.7, -1178819.9, -221589.88, 0.026678856, 0.1652162, -836248.0, 329287.94, 0.0018483637, 10.00134, 9.998998 
2.45783e+3, 1.9106944e+2, -796149.6, -660132.25, -160167.66, -0.049124766, 0.34671363, -554132.7, 513412.7, 0.00018026956, 10.000424, 10.002217 
2.4574941e+3, 2.0106664e+2, -1220956.1, -1254254.9, -135814.64, -0.050744694, 0.48769227, -1100774.1, -131204.13, 0.0000007906511, 9.998669, 9.998399 
2.4571583e+3, 2.1105736e+2, -940220.2, -1102971.8, -224488.56, 0.08372725, 0.2527105, -782813.4, 88854.695, 0.0, 10.000242, 9.997881 
2.4568227e+3, 2.2104874e+2, -748465.44, -924739.75, -171567.84, 0.22130328, 0.1075761, -643720.06, 130037.2, 0.0, 10.000651, 9.998321 
2.4564898e+3, 2.3104526e+2, -343211.2, -410349.75, -86469.49, 0.2561718, 0.23994346, -284023.4, 391760.47, 0.0, 10.001799, 10.000464 
2.4561565e+3, 2.4104103e+2, -496724.03, -748281.9, -90954.75, 0.28822657, 0.36265123, -467283.4, 110536.16, 0.0, 10.001207, 9.99792 
2.455821e+3, 2.5103277e+2, -428017.03, -595139.0, -76019.55, 0.19143444, 0.20689815, -398611.6, 81294.49, 0.0, 10.000866, 9.998345 
2.455486e+3, 2.6102525e+2, -574775.0, -528238.5, -39654.51, 0.113339245, 0.10861364, -505529.66, -123546.63, 0.0, 9.9987, 9.999271 
2.455153e+3, 2.7102113e+2, -237228.69, 4992.603, 9087.511, 0.20174694, 0.052084908, 5333.0645, 289345.13, 0.0, 9.99914, 10.001889 
2.4548198e+3, 2.81017e+2, -467237.38, -523682.53, 21649.133, 0.24800849, 0.08070052, -459890.3, -273846.13, 0.0, 9.998741, 9.997926 
2.4544822e+3, 2.9101077e+2, 79413.984, -267315.22, -56179.824, 0.005755701, 0.20857888, 88289.49, 176404.05, 0.0, 10.002233, 9.99719 
2.4541494e+3, 3.0100304e+2, -153649.86, -489782.6, 20791.498, 0.12126818, 0.2752809, -152368.69, -152368.69, 0.0, 10.000701, 9.996216 
2.4538228e+3, 3.1099722e+2, -705159.25, 45390.074, 47473.832, 0.4162798, 0.24634002, 48380.977, 48380.977, 0.0, 9.99377, 10.002975 
2.4701811e+3, 1.2144596e+2, -2312253.8, -2153900.8, 331405.4, 0.12952782, 0.33312348, -1892345.0, -142481.9, 0.46784812, 9.996416, 9.998558 
2.4698389e+3, 1.3144146e+2, -1734729.4, -1697189.9, -28984.756, -0.43005008, 0.4500156, -1681428.3, -29521.975, 0.34520847, 9.999272, 9.9996395 
2.4695098e+3, 1.4143315e+2, -1512101.9, -1687837.3, 43788.527, 0.44842094, 0.2325604, -1501795.5, 52187.836, 0.21743059, 10.000691, 9.998483 
2.4691692e+3, 1.5142696e+2, -1256349.8, -1358609.8, -7888.432, 0.008883003, 0.17560288, -1255744.9, 200295.36, 0.109704144, 10.001414, 9.999623 
2.46883e+3, 1.6142045e+2, -1265215.1, -1563775.4, -44191.113, -0.3398058, 0.15985237, -1258811.6, 99289.875, 0.040704507, 10.001362, 9.997671 
2.4684969e+3, 1.7141297e+2, -1226143.3, -1493318.4, 44510.6, -0.09437584, 0.16357073, -1218923.1, 41256.938, 0.00953522, 10.001047, 9.997566 
2.4681628e+3, 1.8140613e+2, -1135929.3, -1228249.6, 51884.69, 0.067927584, 0.22672163, -1112643.1, 49607.535, 0.0011160366, 10.000101, 9.9992695 
2.467825e+3, 1.9140193e+2, -956105.4, -850038.5, -58380.258, -0.04616481, 0.236616, -824199.9, 240086.5, 0.00006263998, 9.999765, 10.0012665 
2.4674876e+3, 2.0139757e+2, -1090971.8, -1164755.8, -113340.21, -0.13228133, 0.29970565, -1008670.56, -42344.574, 0.0000000031066179, 9.99939, 9.998678 
2.4671535e+3, 2.1139008e+2, -820104.56, -1034744.06, -74339.164, 0.1000002, 0.24303204, -796872.25, 71535.0, 0.0, 10.000953, 9.998062 
2.4668196e+3, 2.2138248e+2, -539901.4, -778027.94, 21172.309, 0.25299084, 0.21127447, -538033.5, 232453.4, 0.0, 10.001761, 9.998831 
2.4664846e+3, 2.3137772e+2, -501183.06, -508323.94, 13152.046, 0.14792134, 0.23739293, -491125.4, 181400.2, 0.0, 10.000685, 10.000395 
2.46615e+3, 2.4137299e+2, -624935.56, -717085.0, -45206.48, 0.050617654, 0.31590346, -606461.8, -31895.844, 0.0, 9.999795, 9.99885 
2.4658152e+3, 2.5136572e+2, -458117.72, -559736.7, -47264.09, 0.072965816, 0.21782707, -439533.4, 37109.17, 0.0, 10.0003, 9.998942 
2.4654812e+3, 2.6135868e+2, -203263.02, -240643.08, -7201.7236, 0.13000427, 0.11814683, -201923.52, 176790.83, 0.0, 10.000601, 10.000368 
2.4651495e+3, 2.7135512e+2, 60420.992, 158435.86, -34738.945, 0.3404413, 0.08957278, 169499.4, 450238.16, 0.0, 10.000991, 10.002116 
2.4648164e+3, 2.813517e+2, -69764.31, -271559.7, -36398.566, 0.38488898, 0.17158878, -63399.71, 119365.03, 0.0, 10.001087, 9.998552 
2.4644785e+3, 2.9134366e+2, -12047.043, -335432.2, -16792.457, -0.04015036, 0.13660939, -11177.398, 73673.21, 0.0, 10.001573, 9.9971285 
2.4641475e+3, 3.0133393e+2, -12810.857, -433716.72, 40638.61, 0.23951365, 0.045225255, -8923.095, -8923.095, 0.0, 10.001499, 9.996276 
2.4638148e+3, 3.1132883e+2, 183199.19, 334618.28, -22141.443, 0.38235822, 0.25591427, 337789.53, 337789.53, 0.0, 10.000078, 10.002072 
2.4801748e+3, 1.21783346e+2, -2093954.4, -2466900.3, 321411.97, 0.21536581, 0.33763787, -1908839.0, -162298.52, 0.4557168, 9.999541, 9.994969 
2.4798344e+3, 1.3177666e+2, -1539374.4, -1579331.9, -10765.954, -0.30737802, 0.25535005, -1536658.3, 111946.64, 0.33319858, 10.000784, 9.999975 
2.4795076e+3, 1.4176199e+2, -1545257.3, -1826614.5, 13098.105, 0.6715192, -0.5922934, -1544648.9, 6096.014, 0.20679392, 10.000931, 9.997419 
2.4791667e+3, 1.5175994e+2, -1354405.1, -1651873.0, -10445.772, 0.1422769, -0.053471692, -1354038.8, 98733.53, 0.10179194, 10.001686, 9.9974575 
2.4788274e+3, 1.6175725e+2, -1242794.4, -1483605.1, -38463.28, -0.17798425, 0.44575047, -1236800.1, 118004.89, 0.036105353, 10.001283, 9.99826 
2.4784935e+3, 1.717511e+2, -1117889.6, -1181583.6, -17956.664, 0.022859277, 0.3780979, -1113176.0, 143691.2, 0.0076701324, 10.000784, 9.999799 
2.4781585e+3, 1.8174396e+2, -1277518.0, -1428695.0, -22410.219, 0.17952207, 0.3024064, -1274265.9, -115328.32, 0.000687035, 9.999804, 9.998001 
2.4778198e+3, 1.9173479e+2, -1103941.5, -1208872.8, -93712.35, 0.03141719, 0.030238539, -1049007.6, 12015.543, 0.000019881356, 10.000121, 9.99856 
2.4774827e+3, 2.0172712e+2, -1113055.1, -1226524.9, -70692.99, -0.013879985, -0.038454838, -1079145.9, -116049.22, 0.0, 9.999548, 9.998132 
2.4771494e+3, 2.1172471e+2, -808640.5, -889845.94, -17778.28, 0.1462344, 0.3021686, -804918.9, 60209.57, 0.0, 10.000516, 9.999182 
2.4768154e+3, 2.2172073e+2, -796516.6, -973465.5, 6241.67, 0.22663242, 0.5618749, -796296.75, -29124.297, 0.0, 10.000388, 9.9981165 
2.4764778e+3, 2.3171113e+2, -627034.9, -695401.9, -38300.914, -0.055238117, 0.18766642, -609881.5, 59376.87, 0.0, 10.00039, 9.999232 
2.4761413e+3, 2.4170312e+2, -799292.1, -853889.5, -49584.445, -0.22773127, 0.02659167, -769988.4, -198656.6, 0.0, 9.998978, 9.998272 
2.4758084e+3, 2.5170052e+2, -500817.84, -508142.8, -28926.203, -0.07465925, 0.33408937, -475323.2, -1959.1301, 0.0, 9.999845, 9.99943 
2.4754766e+3, 2.6169702e+2, -467153.06, -471462.97, 4156.616, 0.13914028, 0.5764659, -464626.0, -89223.04, 0.0, 9.9994, 9.999339 
2.4751458e+3, 2.7169102e+2, -123506.805, -38210.426, -29882.072, 0.40501615, 0.3838824, -28783.607, 248672.69, 0.0, 10.000332, 10.001043 
2.4748123e+3, 2.8168508e+2, -308346.22, -425677.5, -50235.223, 0.39196113, 0.30552936, -289776.94, -110267.38, 0.0, 9.999738, 9.998133 
2.4744727e+3, 2.9167753e+2, -75196.47, -197730.5, -7665.608, -0.2444919, 0.18607499, -74718.78, 6865.4146, 0.0, 10.000589, 9.99847 
2.4741419e+3, 3.0166993e+2, -332279.1, -519872.78, 20574.111, 0.02555403, 0.18545395, -330049.16, -330049.16, 0.0, 9.999189, 9.996763 
2.4738084e+3, 3.116628e+2, -23834.602, 305511.44, -50741.777, 0.10291046, 0.029916143, 313151.88, 313151.88, 0.0, 9.998508, 10.002591 
2.4901725e+3, 1.2211704e+2, -1542766.8, -1674450.9, 237443.13, 0.1891541, 0.19414578, -1362205.9, 381058.56, 0.43991777, 10.002354, 9.999802 
2.4898335e+3, 1.3211122e+2, -1423442.8, -1611507.8, -57886.457, -0.09810091, 0.19900693, -1407053.5, 238269.89, 0.31901658, 10.002503, 9.998809 
2.4895029e+3, 1.4210159e+2, -1523284.1, -1785395.1, -45302.234, 0.5618332, -0.073714, -1515675.1, 31744.57, 0.19536594, 10.001012, 9.997664 
2.4891628e+3, 1.5209746e+2, -1260769.5, -1506508.4, 35677.11, 0.09136751, 0.19069575, -1255694.6, 193773.69, 0.094030365, 10.001962, 9.99834 
2.4888244e+3, 1.6209294e+2, -1154351.8, -1448447.6, -507.38205, -0.20526117, 0.46513095, -1154350.9, 197168.64, 0.032013185, 10.00192, 9.998188 
2.4884893e+3, 1.7208686e+2, -1130088.5, -1270076.1, -70626.58, 0.037720922, 0.47525936, -1100647.6, 152933.7, 0.0062260167, 10.001034, 9.999061 
2.4881539e+3, 1.8208016e+2, -1152430.1, -1310985.4, -77811.016, 0.1655179, 0.47137618, -1120624.5, 35022.973, 0.00043419475, 10.000361, 9.998537 
2.4878164e+3, 1.9207168e+2, -772180.8, -994980.5, -24032.79, 0.064683385, 0.21793191, -769617.94, 288108.1, 0.0000058323185, 10.002097, 9.999101 
2.4874794e+3, 2.0206408e+2, -637197.6, -972063.3, 25106.43, -0.008308063, 0.13899688, -635325.7, 324472.66, 0.000000000090419006, 10.00262, 9.998405 
2.4871448e+3, 2.1206039e+2, -727787.75, -877625.1, 15662.757, 0.112642884, 0.38038278, -726168.0, 135673.4, 0.0, 10.001062, 9.999039 
2.4868098e+3, 2.2205564e+2, -802245.5, -935826.25, 35499.523, 0.1318334, 0.56923586, -793397.5, -29505.908, 0.0, 10.000092, 9.998509 
2.486474e+3, 2.3204653e+2, -378108.4, -613539.75, 54449.74, -0.02923226, 0.27704608, -366125.38, 299848.6, 0.0, 10.0022, 9.998963 
2.4861386e+3, 2.4203816e+2, -143559.48, -504186.72, 2404.5356, -0.13874857, 0.11531501, -143543.45, 424507.63, 0.0, 10.003232, 9.998625 
2.4858044e+3, 2.5203374e+2, -358927.0, -472315.06, -43612.3, -0.000638638, 0.26578894, -344093.1, 126004.734, 0.0, 10.0008335, 9.999243 
2.4854709e+3, 2.6202962e+2, -485588.3, -447828.0, 6174.4937, 0.14930801, 0.46240225, -446844.0, -74702.83, 0.0, 9.998972, 9.999732 
2.4851397e+3, 2.7202496e+2, -187970.05, -117307.31, 53480.316, 0.29971114, 0.43946803, -88541.49, 185644.23, 0.0, 9.999926, 10.000778 
2.4848066e+3, 2.8201956e+2, -99394.016, -190229.81, 55693.082, 0.27598438, 0.41698796, -72947.42, 103288.945, 0.0, 10.000389, 9.999488 
2.4844682e+3, 2.9201248e+2, -96525.85, -60409.02, 66920.71, -0.1648012, 0.23870528, -9153.024, 69148.68, 0.0, 9.999622, 9.99996 
2.4841373e+3, 3.0200592e+2, -187003.28, -331613.8, 115349.96, 0.08419419, 0.21552669, -123170.14, -123170.14, 0.0, 9.999565, 9.997894 
2.4838024e+3, 3.1199756e+2, 431689.28, 427059.56, -132889.63, 0.012049546, 0.031602144, 562284.2, 562284.2, 0.0, 10.001721, 10.002021 
2.5001714e+3, 1.2244714e+2, -1458573.8, -1373797.0, 256044.05, 0.3232076, -0.30275422, -1156656.3, 583367.9, 0.42027465, 10.001202, 10.003545 
2.499833e+3, 1.3244656e+2, -1548333.5, -1792354.6, -155132.23, 0.1837434, 0.26272994, -1472980.0, 169056.6, 0.30251706, 10.001836, 9.997904 
2.4994975e+3, 1.4244264e+2, -1463626.8, -1710896.8, -48189.03, 0.45780233, 0.62871706, -1454567.4, 89515.66, 0.18302314, 10.001239, 9.998104 
2.4991591e+3, 1.5243515e+2, -1168023.0, -1358559.0, -14349.675, 0.06353742, 0.44310468, -1166948.4, 279215.22, 0.08629053, 10.002111, 9.999363 
2.4988215e+3, 1.6242811e+2, -1207405.6, -1559818.1, -129512.0, -0.1172169, 0.4191623, -1164929.4, 183309.14, 0.028287582, 10.001914, 9.9974165 
2.4984851e+3, 1.7242184e+2, -1206988.8, -1485687.4, -172953.02, 0.0692755, 0.5099226, -1124232.4, 126071.055, 0.0050760456, 10.001213, 9.997506 
2.4981491e+3, 1.8241563e+2, -1158419.9, -1250038.8, -53641.49, 0.21344668, 0.6315986, -1133689.1, 18676.174, 0.00028139996, 10.00015, 9.99904 
2.4978134e+3, 1.9241011e+2, -804740.7, -829388.44, -8439.029, 0.12402826, 0.5225885, -802128.2, 252286.56, 0.0000014559199, 10.001218, 10.000632 
2.4974771e+3, 2.0240383e+2, -890488.7, -1139368.1, -48190.07, 0.082661405, 0.49214342, -881483.56, 74990.6, 0.0, 10.001188, 9.997939 
2.4971399e+3, 2.1239646e+2, -884426.4, -1009821.7, -74150.51, 0.08256672, 0.4073701, -850019.5, 8531.725, 0.0, 10.000409, 9.998397 
2.4968041e+3, 2.2238973e+2, -973817.5, -1086410.9, 66680.56, 0.119423576, 0.46717942, -942846.7, -182227.14, 0.0, 9.999324, 9.997846 
2.4964729e+3, 2.3238371e+2, -497248.47, -661712.4, 125923.35, 0.1825418, 0.46990284, -429085.0, 233588.05, 0.0, 10.001425, 9.998974 
2.4961399e+3, 2.4237628e+2, -463701.78, -765067.44, -61696.477, 0.2267438, 0.42909464, -451560.25, 113180.37, 0.0, 10.001581, 9.997614 
2.4958014e+3, 2.5236553e+2, -537459.8, -637434.94, -148401.14, 0.19086023, -0.0012368986, -430853.47, 35989.184, 0.0, 10.000059, 9.998435 
2.4954644e+3, 2.6235798e+2, -664938.44, -563372.6, 11864.733, 0.12842724, -0.08647006, -562005.0, -193090.02, 0.0, 9.997999, 9.99938 
2.4951316e+3, 2.723577e+2, -239871.14, -100589.64, 106335.516, 0.03416787, 0.2757007, -43119.902, 227800.13, 0.0, 9.999455, 10.001097 
2.494799e+3, 2.8235567e+2, -259694.16, -201020.67, 32166.934, 0.025338873, 0.55376196, -186821.72, -13882.11, 0.0, 9.99915, 9.999974 
2.4944653e+3, 2.9234898e+2, -172279.7, 37641.56, 51166.83, 0.11871424, 0.26312748, 49448.98, 124447.07, 0.0, 9.998617, 10.00107 
2.4941336e+3, 3.0234206e+2, -545942.06, -647233.25, 162555.7, 0.2601754, 0.19079167, -426325.1, -426325.1, 0.0, 9.997923, 9.996467 
2.4937981e+3, 3.123338e+2, -79020.37, -160060.5, 64034.406, -0.17962447, 0.16404606, -43762.594, -43762.594, 0.0, 10.000055, 9.998666 
2.5101674e+3, 1.2278264e+2, -1716960.4, -1626286.3, 237963.16, 0.27751645, -0.083283596, -1429379.8, 307353.53, 0.39734322, 9.999617, 10.001513 
2.5098273e+3, 1.32778e+2, -1545113.4, -1717757.5, -127649.664, 0.014340266, 0.026596166, -1477338.3, 161445.5, 0.28406283, 10.001491, 9.998542 
2.5094882e+3, 1.4277293e+2, -1454441.6, -1826751.8, -13874.199, -0.19378516, 0.29168478, -1453925.4, 86915.64, 0.16993596, 10.00182, 9.997009 
2.5091556e+3, 1.5276651e+2, -1186729.6, -1531118.3, -44579.355, -0.041987617, 0.35434663, -1181052.6, 261862.56, 0.078587286, 10.002652, 9.997873 
2.5088206e+3, 1.627598e+2, -1057157.1, -1371195.4, -255507.7, 0.026693905, 0.41272748, -914277.6, 430709.1, 0.024857625, 10.002449, 9.998465 
2.5084808e+3, 1.7275241e+2, -972218.7, -1186821.5, -202039.63, -0.040989287, 0.24201284, -850754.7, 396298.47, 0.0041356636, 10.00201, 9.999197 
2.508142e+3, 1.8274601e+2, -1015998.94, -1138742.6, -49666.8, -0.08292221, 0.23797455, -998419.56, 150693.7, 0.00018434241, 10.000911, 9.9994335 
2.5078076e+3, 1.9274221e+2, -1009028.06, -982169.94, -48104.207, 0.027984997, 0.35240513, -945655.5, 105498.266, 0.00000026313862, 10.00001, 10.000186 
2.5074723e+3, 2.0273748e+2, -1063845.3, -1148838.6, -139418.58, 0.07779671, 0.48535627, -960590.44, -7386.718, 0.0, 9.999623, 9.998636 
2.5071356e+3, 2.1273047e+2, -779218.75, -921450.44, -117981.43, 0.105565265, 0.40288407, -712577.25, 142700.33, 0.0, 10.000891, 9.998835 
2.5068e+3, 2.2272368e+2, -619843.3, -867127.1, 44794.035, 0.12677814, 0.42220816, -611979.2, 145367.25, 0.0, 10.001371, 9.998428 
2.5064686e+3, 2.327176e+2, -696328.9, -773522.6, 89273.484, 0.19214758, 0.42808032, -637665.94, 21735.666, 0.0, 9.99996, 9.998994 
2.506135e+3, 2.427108e+2, -710378.8, -810453.3, -82789.14, 0.20808585, 0.43060264, -663680.5, -102216.69, 0.0, 9.999441, 9.998362 
2.5057963e+3, 2.52701e+2, -308807.0, -508477.84, -112318.76, 0.13162395, 0.08650775, -258367.3, 205188.23, 0.0, 10.00141, 9.998744 
2.5054586e+3, 2.6269323e+2, -65192.746, -254980.95, 46396.348, 0.047025904, -0.038218245, -54457.727, 311171.44, 0.0, 10.001925, 9.999638 
2.505125e+3, 2.7269104e+2, -310598.2, -200159.47, 46837.93, -0.027949713, 0.20578262, -182970.48, 84681.11, 0.0, 9.999173, 10.000602 
2.5047922e+3, 2.8268814e+2, -431009.9, -260860.7, -58966.223, -0.01396247, 0.42968392, -242423.45, -72744.734, 0.0, 9.997712, 10.000294 
2.5044605e+3, 2.9268223e+2, -17745.385, 78781.53, -138071.81, 0.2395824, 0.21957386, 176782.17, 248511.64, 0.0, 9.999578, 10.000991 
2.5041297e+3, 3.026764e+2, -173705.94, -443705.0, 12528.44, 0.45589834, 0.2433797, -173125.84, -173125.84, 0.0, 10.000158, 9.996849 
2.5037962e+3, 3.1266913e+2, -255770.36, -313090.84, 87063.734, 0.13930987, 0.3200726, -192770.89, -192770.89, 0.0, 9.998821, 9.998297 
2.5201637e+3, 1.2311924e+2, -1835223.1, -1881601.8, 237948.89, 0.3830659, 0.13672526, -1619336.3, 114098.71, 0.3720952, 9.999517, 9.999209 
2.519821e+3, 1.331094e+2, -1417738.5, -1608316.1, -70773.055, -0.2622188, -0.27739668, -1394331.1, 241201.3, 0.26429757, 10.0023575, 9.998865 
2.5194806e+3, 1.4310302e+2, -1369109.6, -1896770.8, 36781.08, -0.6258182, -0.11780131, -1366558.1, 171042.55, 0.15642525, 10.003112, 9.995832 
2.5191525e+3, 1.5309775e+2, -1330093.9, -1802865.0, 33408.473, -0.051545743, 0.22027285, -1327744.6, 111921.81, 0.071005836, 10.002566, 9.99597 
2.51882e+3, 1.6309136e+2, -1116188.9, -1260478.8, -165210.69, 0.28340897, 0.3928338, -1008057.75, 333675.8, 0.021693112, 10.0015135, 9.999658 
2.518476e+3, 1.7308258e+2, -960237.75, -914248.2, -209711.45, -0.123010084, -0.121198796, -726274.56, 517528.25, 0.00335279, 10.001104, 10.001467 
2.518135e+3, 1.8307586e+2, -1189870.3, -1308956.6, -80026.88, -0.2982213, -0.2596845, -1149665.3, -3803.7463, 0.00011963712, 10.000108, 9.99864 
2.5178012e+3, 1.9307275e+2, -1149327.5, -1199043.0, -77712.51, -0.049027268, 0.018953662, -1092594.0, -44689.41, 0.00000002568285, 9.999667, 9.998843 
2.517467e+3, 2.0306915e+2, -1143289.5, -1201671.8, -73831.92, 0.15563725, 0.34457207, -1093087.4, -143136.97, 0.0, 9.999166, 9.998487 
2.5171316e+3, 2.1306373e+2, -800779.7, -868272.2, -78346.375, 0.19724882, 0.3463251, -749220.8, 102788.93, 0.0, 10.000466, 9.999385 
2.5167963e+3, 2.2305754e+2, -826344.8, -993086.5, 20200.416, 0.20822763, 0.40380207, -823932.5, -69859.45, 0.0, 10.000212, 9.99807 
2.516462e+3, 2.3304975e+2, -805742.6, -829205.75, 30835.205, 0.08904051, 0.2171389, -784482.7, -128337.22, 0.0, 9.999336, 9.998866 
2.516127e+3, 2.4304363e+2, -854414.56, -847201.1, -41691.848, -0.008567179, 0.2909006, -808960.25, -250757.53, 0.0, 9.998462, 9.998556 
2.5157902e+3, 2.5304e+2, -375027.94, -443090.16, -43007.734, -0.068295285, 0.45750356, -354215.8, 106022.664, 0.0, 10.0006695, 9.999509 
2.515454e+3, 2.630341e+2, -357733.2, -562306.75, -32345.28, -0.07233911, 0.54919994, -352740.88, 9553.299, 0.0, 10.00078, 9.998039 
2.5151193e+3, 2.730242e+2, -545160.25, -485267.44, -69696.62, 0.026609804, 0.14519414, -439356.03, -174968.52, 0.0, 9.99845, 9.998916 
2.5147858e+3, 2.8301612e+2, -723558.0, -583453.0, -38231.887, 0.08115991, 0.013291535, -573699.3, -407236.13, 0.0, 9.996671, 9.998533 
2.514454e+3, 2.9301155e+2, -214265.45, -162935.63, -55855.496, 0.13762611, 0.059435204, -127130.836, -58626.71, 0.0, 9.999022, 9.999542 
2.514124e+3, 3.0300826e+2, -156108.22, -195228.36, -48336.832, 0.35460415, 0.346999, -123523.81, -123523.81, 0.0, 9.999418, 9.998857 
2.5137886e+3, 3.1299952e+2, -320202.25, 21196.064, 130366.59, -0.04361401, -0.08250229, 65284.363, 65284.363, 0.0, 9.997036, 10.001377 
2.5301564e+3, 1.234554e+2, -1880441.5, -1814835.5, 97304.67, 0.10174188, 0.12587592, -1744953.4, -14798.762, 0.34545994, 9.998694, 9.9998255 
2.5298202e+3, 1.3344803e+2, -1353190.1, -1581930.4, 96363.26, -0.10986417, -0.031045472, -1318006.3, 314217.97, 0.24384509, 10.002906, 9.998817 
2.5294822e+3, 1.4344211e+2, -1181303.9, -1677708.5, 81392.516, -0.42734554, 0.15643346, -1168299.1, 365982.75, 0.14280653, 10.004136, 9.996818 
2.52915e+3, 1.5343423e+2, -1244136.3, -1619700.5, 150929.88, -0.09678389, 0.13256878, -1190999.4, 245363.27, 0.06363834, 10.002616, 9.997197 
2.528814e+3, 1.634267e+2, -1256663.0, -1441476.3, -26047.514, 0.09273984, 0.18140325, -1253062.0, 85374.91, 0.0187796, 10.000952, 9.998677 
2.528471e+3, 1.7341891e+2, -1180960.8, -1218034.6, -152154.77, -0.15339181, -0.05550216, -1046217.94, 194288.08, 0.0026956536, 10.000304, 9.9998045 
2.52813e+3, 1.8341236e+2, -1218737.5, -1273039.1, -76450.055, -0.2948517, -0.09360317, -1164760.1, -22193.297, 0.00007576087, 9.99968, 9.999074 
2.5277954e+3, 1.9340762e+2, -1047598.4, -1095777.9, -5989.2695, -0.108231604, -0.009582672, -1046865.0, -2246.3108, 0.00000000011876218, 10.000071, 9.999374 
2.527461e+3, 2.034032e+2, -946721.4, -1109971.3, 48638.47, 0.043322764, 0.2199021, -933328.75, 13341.096, 0.0, 10.000467, 9.998484 
2.527127e+3, 2.1339875e+2, -673560.9, -873899.0, 20059.041, 0.1396921, 0.39604858, -671572.2, 177151.06, 0.0, 10.001534, 9.998862 
2.5267926e+3, 2.2339292e+2, -549082.06, -768098.2, 9569.114, 0.17658108, 0.48874614, -548664.75, 202119.5, 0.0, 10.001615, 9.998952 
2.5264576e+3, 2.3338422e+2, -612744.44, -689137.0, 39349.117, 0.16935045, 0.18343034, -596101.8, 56760.92, 0.0, 10.000314, 9.999417 
2.5261217e+3, 2.4337766e+2, -642616.0, -637364.6, 39292.816, 0.08005289, 0.15110451, -600609.9, -45686.97, 0.0, 9.999345, 9.999587 
2.5257847e+3, 2.5337508e+2, -493898.03, -448154.13, 48686.52, -0.0888433, 0.40193644, -417234.78, 39713.734, 0.0, 9.999546, 10.000044 
2.5254488e+3, 2.6337004e+2, -430074.7, -627929.6, 20401.943, -0.13401084, 0.5602735, -427992.8, -68994.66, 0.0, 10.000274, 9.997866 
2.5251147e+3, 2.7335927e+2, -107453.21, -392890.66, -1305.5635, 0.0918379, 0.18961553, -107447.24, 153655.36, 0.0, 10.001797, 9.998006 
2.5247812e+3, 2.833499e+2, 599.14355, -246349.56, 105310.28, 0.20286828, 0.003530561, 39409.02, 202600.73, 0.0, 10.001643, 9.998437 
2.5244474e+3, 2.9334396e+2, -212134.27, -229763.73, 109335.766, 0.08217872, 0.0011750897, -111258.484, -46013.156, 0.0, 9.9992695, 9.998988 
2.5241166e+3, 3.0333963e+2, -316796.13, -212953.4, 65019.066, 0.2421646, 0.22414663, -181668.36, -181668.36, 0.0, 9.997952, 9.999485 
2.5237837e+3, 3.1333464e+2, -114512.04, 219157.8, -30484.525, 0.1984814, 0.16098152, 221920.05, 221920.05, 0.0, 9.99788, 10.002412 
2.5401542e+3, 1.2379724e+2, -1644471.4, -1565153.9, -44213.836, 0.5010561, 0.73627806, -1545418.4, 181398.22, 0.31815657, 9.999808, 10.001493 
2.5398213e+3, 1.3378793e+2, -1518828.9, -1667997.8, 137976.77, 0.30761218, 0.3344375, -1436568.1, 192335.66, 0.22319712, 10.001363, 9.998956 
2.539484e+3, 1.4378202e+2, -1332584.8, -1601610.9, -990.4762, -0.08329832, 0.4475452, -1332581.1, 198375.03, 0.12934339, 10.002155, 9.998316 
2.5391468e+3, 1.5377186e+2, -1267517.0, -1466605.3, 5166.5586, -0.08958453, 0.02677104, -1267383.0, 165663.7, 0.05657354, 10.001651, 9.998762 
2.5388083e+3, 1.6376363e+2, -1427787.1, -1736054.6, -111457.11, -0.03677042, -0.00066996034, -1391710.8, -56585.77, 0.016116831, 10.000724, 9.996749 
2.5384665e+3, 1.737576e+2, -1270058.5, -1558637.4, -202835.92, -0.081449285, 0.16215786, -1165426.6, 71764.23, 0.0021455006, 10.000979, 9.99713 
2.538126e+3, 1.837513e+2, -1088497.5, -1187471.9, -50519.01, -0.109555066, 0.29565024, -1067265.9, 71988.195, 0.000046550977, 10.000496, 9.999279 
2.53779e+3, 1.9374421e+2, -935511.2, -953435.0, -35205.11, -0.10439033, 0.04906115, -908145.25, 133172.03, 0.0, 10.000477, 10.000167 
2.5374553e+3, 2.0373857e+2, -1074023.9, -1278005.1, 50037.855, -0.031437315, 0.15793242, -1062410.5, -119035.68, 0.0, 10.000171, 9.997429 
2.5371218e+3, 2.1373464e+2, -869878.25, -1081312.5, 20236.129, 0.050967645, 0.4610209, -867958.9, -22530.986, 0.0, 10.000786, 9.99775 
2.5367886e+3, 2.23729e+2, -721467.1, -808054.44, -42958.98, 0.19762225, 0.6275685, -703770.5, 43717.36, 0.0, 10.000375, 9.999251 
2.5364542e+3, 2.3371997e+2, -700541.94, -628851.94, -33357.55, 0.39834037, 0.1861739, -615731.75, 33833.332, 0.0, 9.999417, 10.000213 
2.5361183e+3, 2.4371262e+2, -805766.94, -713744.25, 15278.158, 0.3903326, 0.038286697, -711274.0, -159644.89, 0.0, 9.998368, 9.999479 
2.5357795e+3, 2.537073e+2, -593663.7, -478459.3, 44126.16, -0.012347149, -0.034262635, -463500.3, -9821.48, 0.0, 9.99888, 10.000108 
2.5354433e+3, 2.6370233e+2, -626645.9, -789874.75, 60710.633, -0.1486689, 0.16708009, -606541.6, -250812.13, 0.0, 9.999357, 9.997152 
2.5351122e+3, 2.7369732e+2, -251921.86, -497185.4, 60535.84, 0.1773272, 0.3752308, -237794.2, 19992.729, 0.0, 10.001067, 9.997605 
2.534778e+3, 2.8369048e+2, -180022.27, -378122.1, 23171.38, 0.26079714, 0.4927029, -177348.06, -17493.111, 0.0, 10.000704, 9.997966 
2.5344396e+3, 2.9367968e+2, -357094.56, -298426.97, 40446.746, -0.0868966, -0.023833342, -277796.66, -215846.17, 0.0, 9.998374, 9.998914 
2.534106e+3, 3.036707e+2, -714882.56, -686901.7, 77090.41, -0.054070614, -0.1345423, -622542.5, -622542.5, 0.0, 9.996614, 9.996823 
2.5337777e+3, 3.1367022e+2, -438290.6, -88067.45, 27787.6, 0.2561663, 0.4915524, -85876.42, -85876.42, 0.0, 9.996464, 10.000952 
2.550144e+3, 1.2412499e+2, -1560410.4, -1514208.5, 80316.18, -0.20558934, 0.072847724, -1453737.0, 269859.06, 0.29081753, 10.000587, 10.001558 
2.5498167e+3, 1.341224e+2, -1628291.4, -1732934.5, 164950.05, 0.25058544, 0.3530987, -1507563.6, 118060.2, 0.2027681, 10.000483, 9.998932 
2.549479e+3, 1.4411688e+2, -1511365.1, -1567064.1, -61989.64, -0.19005488, 0.45867234, -1471256.5, 56418.65, 0.11625642, 10.0001955, 9.999503 
2.5491422e+3, 1.5410875e+2, -1352318.8, -1387109.4, -47050.18, -0.10371091, 0.11509252, -1319551.1, 110193.22, 0.04988728, 10.00045, 9.999916 
2.5488046e+3, 1.6410108e+2, -1372771.4, -1694533.3, -131937.0, -0.035742894, 0.079381265, -1325589.8, 6226.2554, 0.013707004, 10.001049, 9.9968815 
2.5484645e+3, 1.7409378e+2, -969528.9, -1431889.9, -110308.27, 0.034685127, 0.14584436, -944560.3, 289333.53, 0.0016894786, 10.00312, 9.996986 
2.5481248e+3, 1.8408665e+2, -648608.7, -1059349.1, -25601.717, -0.0378182, 0.24442047, -647019.06, 488946.1, 0.000027889511, 10.003833, 9.998557 
2.5477853e+3, 1.940792e+2, -655000.0, -946407.44, -77794.45, -0.25454283, 0.083651714, -635532.44, 402499.63, 0.0, 10.002912, 9.9990635 
2.5474492e+3, 2.0407249e+2, -800993.4, -1117234.6, -37614.863, -0.26700306, 0.1333885, -796580.94, 143516.89, 0.0, 10.001853, 9.99774 
2.5471172e+3, 2.1406639e+2, -830493.06, -1063637.6, -4309.4497, -0.017874708, 0.22240621, -830413.44, 11753.694, 0.0, 10.000943, 9.997842 
2.546783e+3, 2.2406036e+2, -726556.9, -778973.25, -91731.1, 0.1601679, 0.32874322, -657363.5, 86866.8, 0.0, 10.000149, 9.99957 
2.5464475e+3, 2.3405369e+2, -645936.7, -627012.25, -126994.234, 0.27101687, 0.15732628, -509128.22, 137162.39, 0.0, 9.99984, 10.000049 
2.5461113e+3, 2.4404737e+2, -548883.1, -549216.25, -94745.58, 0.24998261, 0.09223321, -454303.97, 94043.01, 0.0, 9.999783, 10.000003 
2.5457737e+3, 2.5404122e+2, -450535.88, -417303.2, -84270.484, -0.008590736, -0.057197057, -348026.47, 102376.125, 0.0, 9.99969, 10.000245 
2.5454384e+3, 2.6403573e+2, -575152.06, -672433.0, -41775.94, -0.07771875, 0.03678072, -559674.44, -207217.45, 0.0, 9.999203, 9.998078 
2.545107e+3, 2.7403146e+2, -569146.9, -610338.8, -4760.16, 0.20921648, 0.2959285, -568603.94, -314096.75, 0.0, 9.998612, 9.998074 
2.5447726e+3, 2.8402567e+2, -375275.4, -388655.84, -15163.866, 0.24632515, 0.45207414, -365391.5, -208826.36, 0.0, 9.998846, 9.998847 
2.5444332e+3, 2.9401585e+2, -90504.77, -140933.7, -13471.319, -0.13113461, 0.020383412, -87131.734, -28480.516, 0.0, 9.999941, 9.999315 
2.5441003e+3, 3.040066e+2, -150221.34, -390768.6, 146108.19, 0.05803139, -0.15669891, -81250.83, -81250.83, 0.0, 10.000199, 9.997212 
2.5437695e+3, 3.1400332e+2, -213684.83, -189682.61, 140418.92, 0.21739276, 0.288656, -60752.88, -60752.88, 0.0, 9.998638, 9.999316 
2.5601417e+3, 1.2445895e+2, -1558592.5, -1568070.9, -145120.73, 0.034410834, -0.12496598, -1418133.6, 302179.6, 0.26403108, 10.0008955, 10.000843 
2.5598106e+3, 1.3445653e+2, -1640273.9, -1825628.9, 170556.48, 0.103905335, 0.25565267, -1538841.5, 83502.766, 0.18292536, 10.000799, 9.9981165 
2.5594744e+3, 1.4445165e+2, -1468370.3, -1479158.3, -38858.46, -0.14322372, 0.45336348, -1434533.1, 89859.67, 0.1037245, 10.000192, 10.000124 
2.559138e+3, 1.5444551e+2, -1312856.4, -1314355.5, -101864.66, -0.032071967, 0.22201581, -1211738.5, 214705.78, 0.043632858, 10.00046, 10.000427 
2.5588012e+3, 1.6443829e+2, -1375774.4, -1635486.5, -101130.99, 0.10244767, 0.18244292, -1341039.8, -12528.95, 0.011545959, 10.000854, 9.997336 
2.5584638e+3, 1.7442931e+2, -1085671.0, -1438648.0, -89724.266, 0.21710463, 0.012938016, -1064173.0, 166428.03, 0.0013158798, 10.002189, 9.997348 
2.558124e+3, 1.8442126e+2, -945312.6, -1372267.4, -58764.703, 0.07700146, 0.070240095, -937372.1, 195308.28, 0.000016496271, 10.002641, 9.996965 
2.5577813e+3, 1.9441378e+2, -926811.8, -1299857.1, -115546.86, -0.39998323, 0.0753113, -893922.1, 140829.1, 0.0, 10.002066, 9.997054 
2.5574437e+3, 2.0440575e+2, -908271.3, -1116785.6, -38023.86, -0.44480348, 0.099603064, -901553.9, 35274.508, 0.0, 10.001009, 9.998129 
2.5571123e+3, 2.1439663e+2, -951913.5, -1053593.5, -28147.16, -0.011356762, -0.19499557, -944641.8, -105723.48, 0.0, 9.999939, 9.998375 
2.5567776e+3, 2.2439028e+2, -929142.9, -978661.9, -86516.99, 0.15243548, -0.091529325, -863912.25, -122928.5, 0.0, 9.999302, 9.998561 
2.556438e+3, 2.3438661e+2, -846312.3, -843266.5, -129419.72, -0.06489535, 0.10556773, -715360.75, -72334.34, 0.0, 9.999055, 9.998902 
2.5561017e+3, 2.4438229e+2, -725745.9, -652473.4, -77257.28, -0.1040669, 0.31682327, -603605.8, -58536.203, 0.0, 9.9987755, 9.999725 
2.5557676e+3, 2.5437662e+2, -598322.06, -506846.8, -86585.6, -0.0067101633, 0.19166347, -454661.0, -7541.1675, 0.0, 9.998875, 9.999979 
2.5554335e+3, 2.6436988e+2, -666738.56, -624255.75, -68716.52, 0.06880255, 0.15632519, -573572.5, -224390.2, 0.0, 9.998352, 9.998733 
2.5550994e+3, 2.7436104e+2, -600268.6, -525807.7, -17752.104, 0.12258683, -0.17441085, -521792.0, -270523.5, 0.0, 9.998089, 9.998852 
2.5547647e+3, 2.8435516e+2, -455364.16, -358103.8, 4771.1255, 0.095106736, -0.09051443, -357870.3, -204545.39, 0.0, 9.99814, 9.999332 
2.5544286e+3, 2.943527e+2, -169502.2, -141852.48, 27982.906, -0.031581596, 0.13578458, -124465.65, -69119.88, 0.0, 9.999343, 9.999536 
2.5541e+3, 3.043472e+2, -129311.164, -239403.47, 73762.57, 0.46819088, 0.275494, -92319.3, -92319.3, 0.0, 9.999936, 9.998268 
2.5537658e+3, 3.1434166e+2, -223203.77, -47316.81, 157349.14, 0.38563198, 0.2951108, 44997.33, 44997.33, 0.0, 9.9982195, 10.000365 
2.570135e+3, 1.2479479e+2, -1603786.4, -1664734.3, 51456.6, -0.3070061, -0.05410418, -1574456.9, 142562.06, 0.23823552, 10.000911, 9.999872 
2.5698054e+3, 1.3479066e+2, -1618622.4, -1703839.8, 160759.6, 0.025134997, 0.054888584, -1494920.6, 124135.97, 0.16394834, 10.000491, 9.999092 
2.5694713e+3, 1.4478424e+2, -1610708.0, -1685447.9, 1801.5415, 0.04864933, 0.117359295, -1610664.6, -89545.72, 0.09188186, 9.999777, 9.998877 
2.569135e+3, 1.5477763e+2, -1385428.0, -1509706.8, -84034.89, 0.11402265, -0.00089020445, -1343053.5, 80130.44, 0.03784501, 10.000615, 9.999011 
2.5687972e+3, 1.6477117e+2, -1286353.9, -1472612.3, -152131.55, 0.10434125, 0.050150808, -1201109.8, 124137.03, 0.009625426, 10.00095, 9.9984045 
2.5684577e+3, 1.7476386e+2, -1181126.9, -1389967.5, -91143.414, -0.02494986, -0.040741574, -1146944.4, 80372.96, 0.0010124295, 10.001079, 9.998235 
2.5681186e+3, 1.8475674e+2, -1091962.4, -1343575.9, -74044.766, -0.13150477, 0.026236001, -1071789.9, 57596.5, 0.000009793076, 10.001176, 9.997871 
2.5677794e+3, 1.9474949e+2, -984291.5, -1265658.8, -9598.244, -0.20823677, 0.0148634575, -983964.44, 47492.215, 0.0, 10.001323, 9.997677 
2.5674418e+3, 2.0474173e+2, -858679.0, -1032939.06, 73666.91, -0.20584127, 0.010357831, -831710.56, 101820.875, 0.0, 10.000997, 9.998733 
2.567107e+3, 2.1473305e+2, -845310.0, -984268.75, 89688.62, -0.038104683, -0.22994123, -801337.0, 34277.492, 0.0, 10.000474, 9.998641 
2.566771e+3, 2.2472665e+2, -770032.56, -882913.8, 50598.75, 0.026062062, -0.15188602, -750672.3, -12992.836, 0.0, 10.000191, 9.99882 
2.566433e+3, 2.3472254e+2, -699876.3, -807568.1, 60761.42, -0.048731405, 0.055163566, -672535.25, -32808.246, 0.0, 10.000043, 9.998732 
2.5660968e+3, 2.4471751e+2, -581827.75, -632677.25, 115709.09, -0.05400961, 0.24059811, -488783.06, 52995.918, 0.0, 9.999915, 9.999304 
2.5657624e+3, 2.547111e+2, -484244.5, -537871.8, 59251.457, 0.043424614, 0.16317695, -446021.97, -2182.8281, 0.0, 9.999952, 9.999257 
2.5654286e+3, 2.6470378e+2, -343934.72, -425718.53, 38793.324, 0.11464034, 0.08981619, -328461.13, 17446.246, 0.0, 10.000259, 9.999189 
2.5650942e+3, 2.7469432e+2, -142376.8, -286627.0, 15224.232, 0.17213255, -0.29484797, -140787.53, 107208.62, 0.0, 10.001004, 9.999114 
2.5647599e+3, 2.846883e+2, 4604.964, -167953.61, -7084.403, 0.15519802, -0.23645586, 4895.3257, 154949.08, 0.0, 10.001335, 9.999115 
2.5644255e+3, 2.946869e+2, 87892.17, -88706.445, -69339.21, 0.1301714, 0.17436644, 111863.49, 163931.66, 0.0, 10.001285, 9.999003 
2.564096e+3, 3.046819e+2, -53531.176, -113213.75, -106048.47, 0.6071903, 0.3337437, 26794.59, 26794.59, 0.0, 9.999899, 9.999209 
2.563756e+3, 3.146688e+2, -371706.38, -157079.58, -179395.36, 0.14059758, -0.43992063, -55350.254, -55350.254, 0.0, 9.997079, 10.000248 
2.580133e+3, 1.2513088e+2, -1603248.3, -1623545.9, 50742.734, -0.12792936, 0.18877019, -1561649.4, 152073.38, 0.21373183, 10.000511, 10.000417 
2.5798014e+3, 1.3512449e+2, -1508865.8, -1491486.8, 29027.52, 0.09091906, -0.14042434, -1469876.0, 145895.81, 0.14603193, 10.00042, 10.000702 
2.5794688e+3, 1.4511663e+2, -1673316.6, -1864456.6, -6654.4053, 0.32407117, -0.24447592, -1673085.3, -155238.11, 0.080827504, 10.000043, 9.997503 
2.5791323e+3, 1.551097e+2, -1487523.1, -1748940.6, -62056.35, 0.33686876, -0.24452457, -1473539.9, -53616.008, 0.032553293, 10.00076, 9.997279 
2.578793e+3, 1.6510388e+2, -1223181.3, -1338120.6, -97719.516, 0.13942553, -0.08073332, -1167284.9, 154698.63, 0.007938516, 10.000956, 9.999284 
2.57845e+3, 1.7509863e+2, -1208198.3, -1311799.5, -90097.875, -0.30454752, -0.080073304, -1156071.4, 67960.13, 0.00076767127, 10.0005245, 9.999007 
2.5781125e+3, 1.8509287e+2, -1094067.8, -1197321.1, -54923.46, -0.27310532, 0.024574107, -1070316.0, 55770.258, 0.000005913737, 10.000623, 9.999097 
2.577779e+3, 1.950861e+2, -1003132.25, -1127077.1, -42233.375, 0.20535266, -0.09383853, -990109.75, 38042.727, 0.0, 10.000687, 9.998875 
2.5774422e+3, 2.0507957e+2, -947415.44, -1094252.4, 35752.18, 0.27489275, -0.027135653, -939173.1, -8957.093, 0.0, 10.000527, 9.998507 
2.5771016e+3, 2.1507257e+2, -960642.1, -1070722.1, 35132.28, -0.0604257, -0.117965296, -950385.3, -118101.76, 0.0, 9.999864, 9.998318 
2.5767645e+3, 2.2506632e+2, -885260.3, -898013.0, 31837.125, -0.054670844, -0.022293653, -859167.3, -124822.16, 0.0, 9.999424, 9.999028 
2.57643e+3, 2.3506027e+2, -842742.7, -856423.2, 31771.08, 0.24983533, -0.053849235, -817083.9, -180677.92, 0.0, 9.999152, 9.998777 
2.5760946e+3, 2.4505341e+2, -812565.7, -908396.6, 107911.734, 0.28566667, 0.027627802, -742409.8, -203934.73, 0.0, 9.999192, 9.997708 
2.5757572e+3, 2.550449e+2, -713807.25, -837900.06, 61035.34, 0.076140575, -0.1346908, -688818.8, -248259.02, 0.0, 9.999314, 9.99747 
2.575423e+3, 2.650381e+2, -509002.66, -581489.56, 62706.887, 0.10350656, -0.025305802, -472818.63, -130192.484, 0.0, 9.99956, 9.998443 
2.5750917e+3, 2.7503237e+2, -347452.66, -479459.06, 50289.19, 0.35298866, 0.00047076808, -330477.4, -85797.22, 0.0, 10.000129, 9.998183 
2.5747582e+3, 2.8502533e+2, -199892.63, -421544.7, 4421.332, 0.3772891, 0.08315095, -199804.47, -53055.387, 0.0, 10.000706, 9.9976425 
2.5744218e+3, 2.9501668e+2, -118603.59, -366990.84, -33017.754, 0.14174974, -0.11545139, -114289.52, -65453.56, 0.0, 10.00073, 9.997344 
2.574088e+3, 3.050108e+2, -93125.28, -3054.056, -202392.72, 0.36233062, -0.002907428, 159253.08, 159253.08, 0.0, 9.999211, 10.000255 
2.5737527e+3, 3.1500316e+2, -422803.0, 80581.58, 5288.449, 0.5602049, -0.36164862, 80637.13, 80637.13, 0.0, 9.995758, 10.0025015 
2.5901282e+3, 1.2546492e+2, -1643969.1, -1551582.3, 46573.7, -0.21361503, 0.11647643, -1532178.9, 178266.6, 0.19077115, 9.999761, 10.001345 
2.5897962e+3, 1.3545853e+2, -1556517.3, -1551600.9, 22080.84, 0.040955707, -0.16627857, -1531841.8, 80658.305, 0.12932457, 10.000229, 10.000316 
2.5894624e+3, 1.454517e+2, -1522143.8, -1606858.5, -6944.956, 0.15011917, -0.23198079, -1521578.3, -7011.7227, 0.07062259, 10.000296, 9.999146 
2.5891262e+3, 1.5544777e+2, -1322451.9, -1515457.5, 68472.06, 0.09207904, -0.059479844, -1300628.0, 115983.086, 0.027766839, 10.001231, 9.998664 
2.5887877e+3, 1.6544217e+2, -1159584.0, -1277853.1, -26226.87, -0.0068480903, 0.052562073, -1154029.0, 164637.8, 0.0064744665, 10.001242, 9.999568 
2.5884476e+3, 1.7543498e+2, -1238353.0, -1319428.8, -13479.512, -0.1128248, -0.12799098, -1236170.6, -15437.42, 0.0005723583, 10.000205, 9.999142 
2.5881097e+3, 1.854288e+2, -1140833.6, -1206183.0, -8372.4, -0.08778126, -0.07564367, -1139778.0, -16985.56, 0.0000035552432, 10.000187, 9.9992695 
2.5877738e+3, 1.9542271e+2, -956583.4, -1114917.0, -16480.826, 0.0770593, -0.10113179, -954886.1, 69966.836, 0.0, 10.00093, 9.998895 
2.5874364e+3, 2.0541672e+2, -797764.4, -965246.56, -24093.064, 0.11957091, -0.015685385, -794367.4, 132544.47, 0.0, 10.001285, 9.999043 
2.5870982e+3, 2.154106e+2, -713316.25, -928176.5, -1308.7727, 0.021772599, -0.014573988, -713308.3, 115662.93, 0.0, 10.001362, 9.998628 
2.5867608e+3, 2.2540407e+2, -635539.8, -773310.4, -35626.383, 0.04973707, 0.027922606, -626872.4, 104161.68, 0.0, 10.001042, 9.999124 
2.586425e+3, 2.3539692e+2, -645116.3, -791124.75, -38115.37, 0.22951595, -0.077068664, -635765.25, -2662.7854, 0.0, 10.000526, 9.998604 
2.5860897e+3, 2.4538927e+2, -503756.44, -773644.7, 77953.555, 0.27137947, -0.07506902, -482858.75, 52319.05, 0.0, 10.001232, 9.997702 
2.585754e+3, 2.553806e+2, -204309.45, -620890.5, 93589.25, 0.16346143, -0.20602478, -184249.61, 253014.8, 0.0, 10.002808, 9.997323 
2.5854197e+3, 2.6537398e+2, -101846.66, -397740.2, 76036.8, 0.16586646, -0.071481094, -83450.89, 255879.11, 0.0, 10.002337, 9.998393 
2.5850865e+3, 2.7536896e+2, -360330.06, -520323.72, 78516.484, 0.34380144, 0.10101294, -328236.16, -86857.56, 0.0, 10.000078, 9.997981 
2.584753e+3, 2.853613e+2, -374387.78, -409613.2, 139581.94, 0.39620993, 0.082984775, -251311.73, -107859.016, 0.0, 9.999006, 9.998567 
2.5844175e+3, 2.9535028e+2, -344890.34, -419066.1, 192968.5, 0.22770397, -0.37249184, -185477.95, -139918.17, 0.0, 9.998788, 9.997969 
2.5840816e+3, 3.0534518e+2, 45868.055, 79171.34, -2777.1204, 0.31482694, -0.20053662, 79401.336, 79401.336, 0.0, 10.000026, 10.0004635 
2.5837427e+3, 3.1534323e+2, 58022.34, -121901.83, -9778.325, 0.2868458, 0.067248516, 58552.2, 58552.2, 0.0, 10.000807, 9.998713 
2.6001245e+3, 1.258006e+2, -1807021.0, -1848118.3, 54275.465, -0.073619515, 0.075842686, -1769534.5, -62380.605, 0.16949552, 9.999589, 9.999174 
2.599791e+3, 1.3579287e+2, -1716819.9, -1767657.1, -14941.124, 0.05776235, -0.2001763, -1712753.9, -103524.95, 0.11391175, 9.999695, 9.999046 
2.5994557e+3, 1.457881e+2, -1484326.6, -1376811.6, 20728.53, 0.0038023256, -0.10161811, -1372953.6, 138322.13, 0.061296463, 9.999684, 10.001026 
2.5991192e+3, 1.5578702e+2, -1387307.3, -1387892.5, 22161.871, -0.14485958, 0.15827248, -1365436.0, 47851.664, 0.023481611, 10.000114, 10.000059 
2.5987828e+3, 1.6578141e+2, -1280019.1, -1349126.1, -111402.88, -0.023027493, 0.20885359, -1197934.0, 117407.2, 0.005220199, 10.000476, 9.999479 
2.5984466e+3, 1.7577209e+2, -1290115.0, -1392390.1, -120557.91, 0.33452263, -0.17754865, -1210297.4, 7131.8125, 0.00041937284, 10.000079, 9.998728 
2.5981075e+3, 1.8576509e+2, -1176298.4, -1285693.4, -6275.768, 0.2333906, -0.15965228, -1175939.5, -56442.484, 0.0000020172258, 10.000258, 9.998656 
2.597766e+3, 1.9575931e+2, -1093589.3, -1272644.8, -28999.45, -0.20789577, -0.113037914, -1089009.6, -67454.234, 0.0, 10.000443, 9.998015 
2.5974292e+3, 2.0575374e+2, -877237.94, -962144.06, -37006.15, -0.15014243, 0.0407094, -863373.0, 60237.734, 0.0, 10.00067, 9.999321 
2.5970963e+3, 2.15748e+2, -921116.94, -1025316.25, -35846.863, 0.2728245, 0.027800528, -909976.0, -84309.2, 0.0, 10.000062, 9.998536 
2.5967583e+3, 2.2574122e+2, -784496.7, -907408.2, -70670.55, 0.2732155, 0.086161405, -752298.1, -24566.758, 0.0, 10.0003605, 9.998505 
2.5964174e+3, 2.3573305e+2, -794631.1, -951712.0, -76210.85, 0.005849399, -0.091356106, -763733.5, -133925.06, 0.0, 9.999966, 9.997742 
2.5960833e+3, 2.4572566e+2, -578302.56, -755977.6, 122592.65, 0.0724556, -0.041037846, -515743.06, 16136.1045, 0.0, 10.000599, 9.998098 
2.595753e+3, 2.557182e+2, -389449.22, -696627.25, 128784.06, 0.339658, -0.11760487, -342601.4, 91349.99, 0.0, 10.00156, 9.997395 
2.5954175e+3, 2.6571086e+2, -272081.94, -505404.06, -20796.506, 0.28214705, -0.04171321, -270242.78, 65781.34, 0.0, 10.001408, 9.998059 
2.5950783e+3, 2.7570316e+2, -530577.9, -649396.4, -4819.29, 0.04912855, -0.13440265, -530382.7, -292281.88, 0.0, 9.999207, 9.997498 
2.5947443e+3, 2.8569612e+2, -342979.53, -143165.92, 110636.11, 0.165674, -0.17808174, -94003.21, 46161.67, 0.0, 9.998243, 10.000741 
2.5944126e+3, 2.9568902e+2, -431025.1, -282124.56, 177567.06, 0.39128995, -0.47492322, -164031.6, -121806.49, 0.0, 9.99757, 9.999464 
2.5940764e+3, 3.0568326e+2, -180091.36, -256726.8, 72957.18, 0.35668224, -0.32860562, -136001.56, -136001.56, 0.0, 9.999619, 9.998277 
2.5937372e+3, 3.156854e+2, -45803.746, -245978.72, -68944.49, 0.05105436, 0.53218985, -24355.852, -24355.852, 0.0, 10.000594, 9.997917 
2.610119e+3, 1.2613548e+2, -1910952.0, -1789228.5, -44802.82, -0.1197055, 0.1369982, -1774516.1, -70637.41, 0.14988421, 9.998431, 10.000126 
2.609786e+3, 1.361294e+2, -1810645.1, -1810515.1, 10802.156, 0.11991979, 0.0019768013, -1799777.8, -193839.63, 0.09979623, 9.99903, 9.999082 
2.6094508e+3, 1.4612435e+2, -1602752.3, -1411259.3, 12737.067, 0.09175794, 0.060630206, -1410415.8, 97571.125, 0.05285716, 9.998773, 10.00122 
2.6091146e+3, 1.5611987e+2, -1608938.4, -1510457.6, -14227.188, -0.062150322, -0.003965781, -1508443.5, -98414.016, 0.019694533, 9.998598, 9.999985 
2.6087776e+3, 1.6611505e+2, -1373964.1, -1340220.0, -161700.48, -0.0031476116, 0.09368038, -1194513.8, 117562.38, 0.004163879, 9.99959, 9.999955 
2.6084408e+3, 1.7610928e+2, -1128609.8, -1284183.4, -136500.83, 0.19926062, 0.032396547, -1049287.5, 164844.64, 0.00030229846, 10.001045, 9.999002 
2.608103e+3, 1.8610264e+2, -936435.3, -1140389.4, -57671.547, 0.16237664, 0.049600456, -921257.25, 194938.16, 0.0000010444409, 10.00171, 9.998976 
2.607763e+3, 1.9609529e+2, -918465.2, -1182159.3, -39065.86, -0.09573377, -0.06107063, -912799.4, 105466.1, 0.0, 10.001493, 9.998171 
2.6074257e+3, 2.0608884e+2, -807623.75, -950713.06, -92629.4, -0.07316032, -0.0054601566, -762126.3, 158201.22, 0.0, 10.001131, 9.999219 
2.6070905e+3, 2.1608256e+2, -858699.5, -1032303.4, -95819.08, 0.15934804, -0.03005157, -816211.56, 6176.5044, 0.0, 10.00049, 9.99833 
2.606753e+3, 2.2607535e+2, -602138.7, -868673.94, -94062.805, 0.16938168, 0.0009030142, -572286.5, 152171.33, 0.0, 10.001695, 9.998177 
2.6064143e+3, 2.3606718e+2, -241303.36, -733273.06, -99720.164, -0.0048565767, -0.10769, -221859.02, 404677.88, 0.0, 10.003806, 9.997452 
2.6060796e+3, 2.4606e+2, -245090.95, -526936.94, -8249.704, 0.05474645, -0.06788502, -244849.69, 283755.97, 0.0, 10.002569, 9.998712 
2.6057482e+3, 2.5605315e+2, -653867.2, -778310.75, -10443.598, 0.2862323, -0.100838795, -652996.9, -222325.83, 0.0, 9.999422, 9.997897 
2.6054123e+3, 2.660463e+2, -488061.53, -494885.6, -70593.79, 0.26107734, -0.07187108, -420797.38, -88059.664, 0.0, 9.999312, 9.999186 
2.6050735e+3, 2.7603897e+2, -171475.94, -373112.06, 15344.293, 0.07477873, -0.19327389, -170314.95, 64495.086, 0.0, 10.001089, 9.998528 
2.6047394e+3, 2.8603274e+2, 163890.95, 83324.29, 61317.49, 0.16602814, -0.20207296, 196973.7, 333839.16, 0.0, 10.001724, 10.000641 
2.6044068e+3, 2.9602742e+2, 119224.18, -40291.62, -35906.04, 0.39481002, -0.27952206, 126933.8, 165841.38, 0.0, 10.001327, 9.999353 
2.6040706e+3, 3.0601904e+2, 98297.64, -158566.97, -34059.18, 0.24568798, -0.4043045, 102737.02, 102737.02, 0.0, 10.00148, 9.998121 
2.6037428e+3, 3.1601498e+2, 138082.64, -128570.875, -248077.14, 1.009785, -0.118777275, 286390.94, 286390.94, 0.0, 10.001538, 9.998289 
2.6201132e+3, 1.2646924e+2, -1564722.9, -1530695.4, 19649.385, -0.066006735, 0.08502802, -1521717.5, 178897.83, 0.13183987, 10.000581, 10.000971 
2.6197812e+3, 1.3646679e+2, -1612542.6, -1654798.5, -974.13727, 0.26692346, 0.23401563, -1612520.3, -9881.644, 0.08692974, 10.000173, 9.999573 
2.6194465e+3, 1.4646062e+2, -1479640.1, -1418647.4, 24568.113, 0.29963443, 0.18929234, -1409982.3, 94714.88, 0.045284748, 9.999857, 10.000671 
2.6191103e+3, 1.5645218e+2, -1532125.3, -1530561.1, -27146.707, 0.19410877, -0.21981825, -1504185.3, -97407.72, 0.01638905, 9.999361, 9.999502 
2.6187724e+3, 1.6644841e+2, -1296855.6, -1269772.5, -85964.45, 0.0737549, -0.01468665, -1196289.6, 112525.73, 0.0032885466, 10.000022, 10.000216 
2.618434e+3, 1.7644683e+2, -1157539.4, -1290767.8, -102606.984, -0.019237358, 0.31173044, -1101819.5, 109014.055, 0.00021471751, 10.000834, 9.99907 
2.6180983e+3, 1.8644053e+2, -955796.56, -1105828.6, -75619.45, 0.0936214, 0.3309066, -924296.4, 188595.81, 0.00000047553752, 10.001404, 9.999362 
2.617763e+3, 1.9643143e+2, -1030138.75, -1234309.5, -89213.164, 0.3043473, -0.0017923093, -996649.75, 18324.975, 0.0, 10.000789, 9.998151 
2.6174235e+3, 2.0642354e+2, -910903.5, -1061738.6, -123031.16, 0.17682207, -0.055334706, -842014.2, 75033.766, 0.0, 10.000752, 9.99861 
2.6170826e+3, 2.1641602e+2, -1041648.8, -1218874.6, -112470.07, -0.09747632, -0.16464636, -987077.4, -167958.2, 0.0, 9.999757, 9.997385 
2.616747e+3, 2.264085e+2, -729529.5, -956687.4, -1681.2742, -0.040563032, -0.10106071, -729517.06, -8323.081, 0.0, 10.001086, 9.9978075 
2.6164144e+3, 2.3640075e+2, -530922.8, -933975.06, -41888.816, 0.1832451, -0.14791438, -526615.4, 96657.29, 0.0, 10.002244, 9.996781 
2.6160774e+3, 2.4639349e+2, -387471.3, -583937.06, -106487.266, 0.14207308, -0.0909231, -340827.56, 184516.55, 0.0, 10.001656, 9.998711 
2.615739e+3, 2.5638622e+2, -819580.25, -866409.4, -99987.71, -0.0077728317, -0.18665186, -740302.2, -312888.03, 0.0, 9.998446, 9.997727 
2.6154044e+3, 2.663813e+2, -424759.28, -243935.33, 608.9007, 0.11471586, -0.06913589, -243933.28, 85527.055, 0.0, 9.998878, 10.001067 
2.615072e+3, 2.763772e+2, -233195.05, -301429.2, 82689.58, 0.36757374, -0.08001281, -177860.78, 53637.016, 0.0, 10.000325, 9.999352 
2.614737e+3, 2.8637165e+2, -97702.36, -325511.44, 47296.59, 0.2877784, 0.08765322, -88273.16, 45278.355, 0.0, 10.001287, 9.997983 
2.6143998e+3, 2.9636502e+2, -155657.1, -445123.2, -39784.31, 0.03746519, 0.11281356, -150288.69, -114672.77, 0.0, 10.000725, 9.9968405 
2.614062e+3, 3.063537e+2, 140390.42, 109086.1, -64494.254, -0.19719793, -0.31867006, 191104.67, 191104.67, 0.0, 10.000819, 10.00025 
2.6137295e+3, 3.1635135e+2, -60535.85, -273834.66, -41851.68, -0.010881759, -0.076472364, -52617.99, -52617.99, 0.0, 10.00059, 9.997722 
2.6301128e+3, 1.2680562e+2, -1362928.6, -1421764.5, -5327.962, 0.090815455, 0.13387401, -1362450.1, 334871.8, 0.11528824, 10.002086, 10.001066 
2.6297757e+3, 1.3680276e+2, -1464629.9, -1580090.5, 27599.322, 0.058717467, 0.22257678, -1458371.8, 140976.19, 0.07524984, 10.001208, 9.99962 
2.6294398e+3, 1.4679778e+2, -1373405.3, -1397331.4, 57272.234, 0.06566754, 0.31166923, -1326860.0, 174536.1, 0.038529176, 10.000786, 10.000356 
2.6291052e+3, 1.5679105e+2, -1342224.8, -1467274.5, 39780.105, 0.119264506, 0.11346985, -1330642.9, 72818.805, 0.013527696, 10.00079, 9.9992485 
2.6287675e+3, 1.6678523e+2, -1156573.4, -1267371.6, -48317.316, 0.011638378, 0.15898108, -1138463.1, 167054.98, 0.0025719018, 10.001213, 9.999688 
2.6284286e+3, 1.767802e+2, -1100685.1, -1304059.6, -69181.3, -0.18977395, 0.20520084, -1079383.3, 128184.016, 0.00015054179, 10.001313, 9.998777 
2.6280934e+3, 1.8677384e+2, -931838.1, -1094122.5, -113602.64, -0.0061342134, 0.22308232, -873375.06, 236252.92, 0.0000001940375, 10.001513, 9.999412 
2.6277593e+3, 1.9676623e+2, -944253.0, -1159903.8, -112540.8, 0.3184357, 0.041507807, -896220.3, 115479.33, 0.0, 10.001123, 9.998535 
2.62742e+3, 2.0675921e+2, -752621.75, -885633.94, -119313.38, 0.2224311, -0.00013464871, -682530.8, 231232.81, 0.0, 10.001369, 9.999531 
2.6270783e+3, 2.1675232e+2, -653711.8, -946882.6, -18151.238, -0.11872212, -0.10984369, -652592.25, 163233.97, 0.0, 10.001945, 9.998223 
2.6267427e+3, 2.2674508e+2, -628905.4, -966091.44, 95201.37, -0.10832695, -0.020342603, -603883.06, 114017.08, 0.0, 10.00195, 9.997355 
2.62641e+3, 2.3673765e+2, -617236.25, -984516.75, 42039.703, 0.07824217, 0.03705523, -612485.75, 7494.243, 0.0, 10.001542, 9.996814 
2.626073e+3, 2.4673031e+2, -381670.47, -542984.7, -71914.83, 0.09118201, 0.057966042, -354265.97, 167786.4, 0.0, 10.0013895, 9.999178 
2.6257336e+3, 2.5672287e+2, -355266.97, -565827.0, -13193.558, -0.018076425, -0.07056714, -354443.5, 69678.86, 0.0, 10.001147, 9.99853 
2.6253995e+3, 2.6671776e+2, -173237.02, -154689.61, 57482.79, 0.119851604, 0.008161851, -105737.266, 220431.92, 0.0, 10.00062, 10.00089 
2.6250675e+3, 2.767139e+2, -294869.13, -335494.53, -10332.194, 0.41166615, 0.06281428, -292392.38, -64188.81, 0.0, 9.99975, 9.999449 
2.624733e+3, 2.8670773e+2, -256504.9, -474175.84, 3147.3098, 0.34248364, 0.18439525, -256459.4, -126194.5, 0.0, 10.000391, 9.997438 
2.6243958e+3, 2.967002e+2, -14762.787, -373191.88, 38686.62, 0.044455387, 0.20384663, -10634.735, 21707.496, 0.0, 10.001559, 9.996978 
2.6240572e+3, 3.0668935e+2, 328361.63, 223189.86, -45815.184, -0.27958333, -0.20946375, 345520.3, 345520.3, 0.0, 10.001908, 10.000568 
2.6237267e+3, 3.1668338e+2, 43885.77, -23452.553, 74207.75, 0.21205077, -0.30152395, 91705.27, 91705.27, 0.0, 10.000226, 9.999709 
2.6401114e+3, 1.2714246e+2, -1457612.0, -1491515.4, -12869.817, 0.29906014, 0.15424731, -1453280.1, 240741.3, 0.10017185, 10.001365, 10.000894 
2.63977e+3, 1.3713866e+2, -1425929.3, -1575175.6, -48813.367, -0.10857964, 0.1657648, -1411382.0, 184674.16, 0.06469282, 10.001568, 9.99948 
2.6394337e+3, 1.4713511e+2, -1298444.6, -1411187.4, 34073.246, -0.1117723, 0.41618127, -1288947.0, 209144.83, 0.032530583, 10.001538, 9.99988 
2.6391e+3, 1.5713061e+2, -1356312.5, -1558870.0, -19113.934, 0.083940476, 0.48547316, -1354524.6, 45613.063, 0.011066901, 10.001066, 9.998479 
2.6387632e+3, 1.6712226e+2, -1214520.5, -1362974.6, -50994.367, 0.0014823412, 0.33267966, -1198691.6, 103525.46, 0.0019930317, 10.001125, 9.99905 
2.638424e+3, 1.7711236e+2, -1292714.4, -1502016.1, -69724.41, -0.21426974, -0.040040266, -1271614.3, -67304.47, 0.00010503105, 10.000451, 9.997848 
2.6380888e+3, 1.8710615e+2, -1032216.2, -1115630.9, -86354.53, -0.054615922, 0.017275194, -978024.56, 128347.38, 0.00000008640195, 10.000877, 9.9994755 
2.6377544e+3, 1.9710119e+2, -1003863.06, -1188709.8, -113386.23, 0.2837242, 0.08893534, -950004.06, 58419.496, 0.0, 10.000847, 9.9984255 
2.637416e+3, 2.0709594e+2, -629317.94, -674677.75, -95200.055, 0.25923696, 0.14054954, -554133.5, 356337.44, 0.0, 10.001597, 10.000865 
2.6370764e+3, 2.1709038e+2, -733750.6, -931741.56, -49583.195, 0.081142515, 0.026158221, -722027.5, 90490.33, 0.0, 10.00121, 9.998696 
2.6367393e+3, 2.2708382e+2, -755503.06, -1100735.0, 58770.457, -0.06703408, 0.19805963, -745772.5, -31184.89, 0.0, 10.001453, 9.996635 
2.6364034e+3, 2.3707664e+2, -867753.44, -1191118.3, 17175.648, -0.16858828, 0.3271858, -866843.75, -250174.63, 0.0, 10.000268, 9.996004 
2.6360676e+3, 2.4706963e+2, -432864.28, -475825.22, -83365.91, -0.023825802, 0.36084718, -368255.94, 150481.56, 0.0, 10.00074, 9.999916 
2.6357314e+3, 2.5706238e+2, -539982.0, -671148.75, -33054.387, 0.20986782, 0.16619386, -532123.06, -111320.3, 0.0, 10.000048, 9.998331 
2.6353955e+3, 2.6705542e+2, -407229.66, -482598.8, 14689.656, 0.22874193, 0.17903267, -404467.78, -81600.266, 0.0, 10.00008, 9.998841 
2.63506e+3, 2.7704856e+2, -609243.9, -706370.6, -30713.648, 0.18122739, 0.11891957, -600346.56, -375414.7, 0.0, 9.998663, 9.997413 
2.6347277e+3, 2.8704074e+2, -272729.25, -331186.0, 45042.71, 0.31202248, 0.08171062, -248262.7, -121254.695, 0.0, 9.99972, 9.998709 
2.6343957e+3, 2.9703254e+2, -142809.33, -382758.47, 74570.6, 0.40843406, -0.11250506, -121522.89, -92433.77, 0.0, 10.000556, 9.997379 
2.634057e+3, 3.070263e+2, 129083.664, -82663.125, -67137.516, 0.04158091, 0.010956267, 148576.22, 148576.22, 0.0, 10.001589, 9.998534 
2.63372e+3, 3.170215e+2, -31194.123, 43448.707, -72164.99, -0.014540107, 0.17065497, 87371.82, 87371.82, 0.0, 9.999437, 10.000482 
2.6501033e+3, 1.2747906e+2, -1775074.5, -1728194.0, 16739.193, -0.13375267, 0.09901561, -1722830.6, -32116.434, 0.086430125, 9.999558, 9.999933 
2.6497665e+3, 1.374727e+2, -1461792.9, -1693684.4, 24368.549, -0.13875753, -0.036558516, -1459259.8, 133517.33, 0.055199515, 10.001725, 9.998596 
2.6494303e+3, 1.474677e+2, -1238669.0, -1460446.6, 18868.988, -0.13887717, 0.13904947, -1237075.1, 257750.25, 0.027235242, 10.002264, 9.999196 
2.6490954e+3, 1.5746251e+2, -1271835.6, -1549167.9, -25207.271, -0.10203249, 0.2129784, -1269563.1, 127312.24, 0.0089680515, 10.001722, 9.998245 
2.648759e+3, 1.674555e+2, -1175908.3, -1234501.4, -75367.95, -0.031028498, 0.13986826, -1124343.1, 174599.28, 0.0015322798, 10.000995, 9.999951 
2.6484212e+3, 1.7744733e+2, -1345311.6, -1433193.1, -16829.617, -0.021862198, -0.12936871, -1342198.9, -141178.7, 0.00007382683, 9.999646, 9.998706 
2.6480848e+3, 1.8744187e+2, -1045995.9, -1113326.9, 39420.313, -0.0009102238, -0.030382441, -1027821.94, 75255.52, 0.000000036839044, 10.00069, 9.999615 
2.6477486e+3, 1.9743751e+2, -760344.44, -1067713.8, 21349.445, 0.010910074, 0.1157571, -758868.6, 246257.28, 0.0, 10.002412, 9.998527 
2.6474115e+3, 2.0743221e+2, -461402.9, -758866.8, -92188.57, 0.07550008, 0.24861075, -435149.38, 472030.5, 0.0, 10.00342, 9.999421 
2.6470742e+3, 2.1742645e+2, -394999.25, -821596.7, -153887.84, 0.09667775, 0.25778458, -345281.22, 463954.63, 0.0, 10.0036745, 9.998284 
2.646737e+3, 2.2741944e+2, -439010.2, -772657.1, -64447.61, -0.001174647, 0.28463757, -426994.2, 284311.84, 0.0, 10.002776, 9.998292 
2.6463997e+3, 2.3741187e+2, -569358.25, -882036.2, 23132.85, -0.14844456, 0.23478094, -567656.06, 45727.23, 0.0, 10.001441, 9.997606 
2.6460636e+3, 2.4740559e+2, -359969.7, -476582.38, -53119.29, 0.0016752017, 0.29531935, -339400.9, 176043.22, 0.0, 10.001279, 9.999711 
2.6457277e+3, 2.573996e+2, -323740.78, -592129.25, -53881.555, 0.26550737, 0.2787613, -313327.6, 104172.625, 0.0, 10.001481, 9.998236 
2.6453915e+3, 2.6739132e+2, -134932.25, -514057.78, -5174.4663, 0.2273473, 0.24474424, -134861.64, 184718.73, 0.0, 10.0025625, 9.997467 
2.6450554e+3, 2.773823e+2, 122134.65, -399483.53, -33539.227, 0.12338288, 0.1237428, 124282.32, 345950.66, 0.0, 10.003748, 9.997105 
2.6447237e+3, 2.873749e+2, 72240.25, -72999.99, 6230.172, 0.36378142, 0.074160606, 72507.01, 196246.69, 0.0, 10.001533, 9.999674 
2.644392e+3, 2.9736817e+2, -421791.06, -403766.22, 30932.186, 0.598265, -0.03487753, -380560.28, -354756.3, 0.0, 9.997974, 9.998517 
2.6440534e+3, 3.073631e+2, -250618.16, -282186.97, 25394.758, 0.18270549, 0.15911765, -236502.03, -236502.03, 0.0, 9.998889, 9.998528 
2.6437148e+3, 3.173572e+2, 390378.16, 448335.44, -39864.633, -0.06968863, 0.23782861, 468641.2, 468641.2, 0.0, 10.001201, 10.002486 
2.660095e+3, 1.2781528e+2, -1859805.6, -1893177.1, 4983.5293, -0.38666663, 0.04443468, -1859077.4, -171665.14, 0.07399981, 9.999396, 9.998875 
2.6597643e+3, 1.3780694e+2, -1385563.1, -1804834.6, -37362.066, 0.012479518, -0.20607334, -1382259.8, 207236.98, 0.046711504, 10.002831, 9.997322 
2.659428e+3, 1.4780006e+2, -1155794.5, -1465113.8, -55345.37, -0.06281485, -0.1425662, -1146190.0, 345370.4, 0.022592498, 10.003133, 9.998729 
2.6590905e+3, 1.5779369e+2, -1291633.5, -1585657.1, -114623.25, -0.19287814, -0.14215782, -1252229.3, 141388.61, 0.0071954923, 10.001759, 9.997989 
2.6587546e+3, 1.6778837e+2, -1103683.6, -1111676.0, -170503.25, 0.027964883, -0.09175265, -937129.8, 358539.84, 0.001170623, 10.001108, 10.000752 
2.658419e+3, 1.7778341e+2, -1317920.9, -1357297.4, -137429.44, 0.35708913, -0.1358192, -1198776.6, -1056.8296, 0.00005271245, 9.99965, 9.999211 
2.6580814e+3, 1.8777871e+2, -1025072.06, -1089185.0, 24849.123, 0.13506663, -0.003579931, -1016568.75, 83202.14, 0.000000014947995, 10.000798, 9.999722 
2.6577428e+3, 1.9777426e+2, -982296.75, -1281675.4, -2685.9558, -0.21684837, 0.123531505, -982272.7, 19548.736, 0.0, 10.0014305, 9.99753 
2.6574072e+3, 2.0776829e+2, -793395.4, -1181891.1, -101449.27, -0.12734997, 0.368429, -768499.06, 135391.03, 0.0, 10.002428, 9.996908 
2.6570722e+3, 2.1776158e+2, -805390.2, -1193777.0, -159432.53, 0.11668642, 0.50401425, -748327.1, 57638.977, 0.0, 10.001772, 9.996589 
2.6567355e+3, 2.2775353e+2, -387337.9, -422467.47, -104545.73, 0.12812, 0.30567586, -298891.72, 409146.53, 0.0, 10.001857, 10.001061 
2.6563978e+3, 2.377451e+2, -670488.5, -769891.44, -39979.836, 0.08297989, -0.11692256, -656404.2, -46294.863, 0.0, 10.000193, 9.99894 
2.6560602e+3, 2.4773987e+2, -507211.8, -654767.75, -72166.78, 0.11458481, 0.05192707, -477785.0, 34375.242, 0.0, 10.000837, 9.998656 
2.6557225e+3, 2.577354e+2, -619792.25, -908518.2, -47654.5, 0.15357672, 0.27979612, -612130.2, -197922.84, 0.0, 10.000353, 9.99657 
2.6553878e+3, 2.6772624e+2, -304535.97, -683268.6, 47344.813, 0.14776404, 0.26986766, -298707.16, 17593.568, 0.0, 10.001962, 9.996503 
2.6550543e+3, 2.7771565e+2, -104520.81, -601512.2, -12694.392, 0.18447673, 0.060285404, -104196.78, 114211.43, 0.0, 10.002762, 9.996145 
2.65472e+3, 2.8771085e+2, 35650.984, 1136.0992, -136006.44, 0.3971747, 0.24731219, 155490.48, 275944.3, 0.0, 10.001062, 10.000322 
2.6543832e+3, 2.97708e+2, -601418.5, -438124.03, -38069.15, 0.45839086, 0.45023558, -429685.03, -407206.66, 0.0, 9.996693, 9.998856 
2.654044e+3, 3.0769908e+2, -230982.67, -49753.414, 130771.55, -0.08742901, 0.11971318, 18730.066, 18730.066, 0.0, 9.998196, 10.000382 
2.6537123e+3, 3.1769326e+2, -110065.71, -329965.0, 66281.664, 0.054220013, 0.06265681, -91632.41, -91632.41, 0.0, 10.000256, 9.997542 
2.67009e+3, 1.2814833e+2, -1964231.4, -1866828.1, 9297.588, -0.41196933, 0.20729297, -1865948.5, -181791.38, 0.062782034, 9.99838, 9.999556 
2.6697642e+3, 1.3814273e+2, -1244889.0, -1673609.0, -12313.082, 0.09567762, 0.16702896, -1244535.6, 341677.66, 0.039146993, 10.00355, 9.997893 
2.669427e+3, 1.4813441e+2, -1021518.4, -1327187.4, -164816.08, -0.0285164, 0.0141100045, -949580.3, 538705.94, 0.018543638, 10.003805, 9.999344 
2.669087e+3, 1.5812568e+2, -1220602.8, -1525555.4, -166088.28, -0.2928784, -0.26649603, -1147614.3, 242747.17, 0.005710664, 10.002121, 9.998233 
2.6687497e+3, 1.6812073e+2, -1083253.1, -1240509.9, -263290.0, -0.081857786, -0.12268997, -887101.56, 405312.66, 0.0008890518, 10.001786, 9.99956 
2.6684135e+3, 1.7811692e+2, -1103183.8, -1304698.8, -258066.31, 0.22257166, 0.057752233, -926902.8, 267556.88, 0.000037964888, 10.001268, 9.998798 
2.6680768e+3, 1.8811227e+2, -875709.5, -936643.56, -110514.92, 0.07314071, 0.14586282, -791538.9, 304968.94, 0.0000000057994387, 10.001448, 10.000456 
2.6677394e+3, 1.9810729e+2, -933926.7, -1148850.3, -125201.19, -0.23529002, 0.14342575, -876393.4, 122164.93, 0.0, 10.001208, 9.998551 
2.6674035e+3, 2.0810078e+2, -945401.25, -1159504.1, -147909.58, -0.11758948, 0.23755853, -869867.75, 30761.045, 0.0, 10.000945, 9.997797 
2.6670682e+3, 2.1809365e+2, -900083.0, -1120819.4, -66901.63, 0.099616066, 0.26906142, -881389.3, -78682.39, 0.0, 10.000477, 9.9977455 
2.666731e+3, 2.2808744e+2, -531896.06, -472684.63, -65476.957, 0.11606969, 0.20649607, -430431.25, 274331.6, 0.0, 10.000684, 10.001335 
2.6663932e+3, 2.3808128e+2, -498288.4, -670556.5, -108822.484, 0.073844396, 0.016343411, -445636.97, 161176.97, 0.0, 10.00118, 9.99918 
2.666057e+3, 2.4807467e+2, -318710.1, -694860.5, -168790.1, 0.16226831, 0.101327695, -254075.23, 254804.97, 0.0, 10.002597, 9.99757 
2.6657206e+3, 2.580681e+2, -100748.07, -679152.06, -167619.36, 0.2260009, 0.22430794, -55683.64, 355265.8, 0.0, 10.003873, 9.996474 
2.665385e+3, 2.6805952e+2, -163053.86, -572792.94, -44890.92, 0.15268034, 0.23252326, -158193.28, 154845.16, 0.0, 10.002613, 9.997009 
2.6650506e+3, 2.7805007e+2, -348298.06, -595016.3, -35845.293, 0.12910956, 0.105079606, -343195.7, -128060.66, 0.0, 10.00042, 9.997343 
2.6647148e+3, 2.8804642e+2, -10607.971, 52139.555, -169009.81, 0.3646677, 0.32217324, 192662.94, 309831.28, 0.0, 10.000363, 10.001061 
2.6643768e+3, 2.9804453e+2, 31841.639, -21409.547, -55910.406, 0.48679698, 0.575221, 67142.58, 86325.26, 0.0, 10.000411, 9.999978 
2.6640365e+3, 3.0803457e+2, 94322.18, 170215.94, 119876.875, -0.22690777, 0.0712818, 258008.6, 258008.6, 0.0, 10.000082, 10.001036 
2.6637113e+3, 3.1803212e+2, -334603.9, -670064.75, 20621.855, 0.4478626, 0.36086664, -333340.97, -333340.97, 0.0, 9.999524, 9.995615 
2.6800862e+3, 1.2848097e+2, -1565336.4, -1601272.0, 237210.73, -0.18963574, 0.35972807, -1345413.9, 335490.88, 0.05267765, 10.000793, 10.000316 
2.6797637e+3, 1.3847825e+2, -1406564.3, -1647614.8, 58890.38, 0.26686096, 0.5358661, -1392946.3, 189985.3, 0.03242507, 10.001958, 9.998812 
2.6794255e+3, 1.4846914e+2, -1163126.0, -1305113.1, -167850.19, 0.04096327, 0.19675864, -1051873.1, 433135.75, 0.015032841, 10.002345, 10.000185 
2.6790833e+3, 1.5845847e+2, -1292983.4, -1572209.8, -166468.44, -0.27200457, -0.35059547, -1215332.8, 171766.77, 0.0044764117, 10.001682, 9.998116 
2.678745e+3, 1.684535e+2, -1141298.1, -1438784.1, -203462.66, -0.17571552, -0.093394816, -1038006.3, 251151.28, 0.00066900725, 10.0022, 9.997979 
2.6784077e+3, 1.7845023e+2, -1101037.9, -1409807.3, -192379.28, 0.047112007, 0.2932735, -1008755.94, 182448.88, 0.000027210404, 10.001806, 9.997821 
2.6780722e+3, 1.884452e+2, -806226.1, -816696.75, -57041.785, 0.017898805, 0.32766464, -754179.9, 339073.47, 0.000000001728097, 10.0016165, 10.001188 
2.677737e+3, 1.9843969e+2, -1040407.8, -1102599.9, -124422.33, -0.054463767, 0.19821998, -943254.56, 52047.875, 0.0, 10.000141, 9.999375 
2.6774e+3, 2.084323e+2, -881839.06, -894044.75, -159580.17, 0.026813466, 0.026295258, -728245.06, 169128.42, 0.0, 10.000404, 9.999859 
2.6770633e+3, 2.1842478e+2, -1045973.25, -1115112.6, -91440.78, 0.15987682, -0.16952626, -982785.7, -183338.36, 0.0, 9.99922, 9.998398 
2.6767257e+3, 2.2842175e+2, -650807.8, -662703.2, -64209.492, 0.07471268, 0.11515012, -592271.1, 109208.14, 0.0, 10.000471, 10.000111 
2.676388e+3, 2.3841938e+2, -777913.6, -1024504.2, -89261.34, -0.025140308, 0.42283726, -748994.2, -145489.61, 0.0, 10.000315, 9.997152 
2.6760542e+3, 2.484097e+2, -501729.2, -910355.2, -99450.4, 0.19165842, 0.3378481, -478810.63, 26792.707, 0.0, 10.002055, 9.996244 
2.675721e+3, 2.5839853e+2, -392711.4, -913576.9, -137309.19, 0.43937314, 0.09875563, -358731.13, 48985.758, 0.0, 10.002414, 9.995528 
2.6753822e+3, 2.6839173e+2, -154334.84, -385601.06, -126640.45, 0.17815806, 0.19763, -98477.945, 211308.48, 0.0, 10.001973, 9.998557 
2.675043e+3, 2.783859e+2, -467470.1, -562457.44, -103421.19, -0.12342589, 0.2654562, -401158.72, -189313.13, 0.0, 9.999305, 9.998099 
2.6747084e+3, 2.8838092e+2, -56632.473, 89530.27, -169962.64, 0.23840944, 0.27354738, 201457.52, 315347.78, 0.0, 9.999857, 10.001525 
2.6743734e+3, 2.9837653e+2, -138152.81, -153440.61, -57773.273, 0.6045328, 0.22311388, -87519.95, -71591.77, 0.0, 9.999573, 9.999459 
2.6740322e+3, 3.0837002e+2, -47869.34, -34830.734, 62565.246, -0.12735145, 0.1480726, 21553.947, 21553.947, 0.0, 9.999818, 9.999695 
2.673707e+3, 3.1836557e+2, -246650.63, -101669.54, 112009.21, 0.5503942, 0.26203907, -40739.914, -40739.914, 0.0, 9.998094, 10.000154 
2.6900858e+3, 1.2881042e+2, -1448205.1, -1561602.0, 159723.7, -0.027274966, 0.04105034, -1335415.0, 342245.94, 0.043619107, 10.001843, 9.999951 
2.6897565e+3, 1.388066e+2, -1740158.0, -1732352.6, 54770.234, -0.022245497, 0.09435998, -1681346.3, -101645.77, 0.026486209, 9.99932, 9.9994755 
2.6894197e+3, 1.4880185e+2, -1325841.4, -1176341.0, -84733.86, -0.09930021, 0.038903914, -1138098.3, 343642.03, 0.012009438, 10.000267, 10.002102 
2.6890814e+3, 1.5879625e+2, -1223170.9, -1412197.4, -39057.164, -0.1707621, -0.1614683, -1215418.8, 168368.63, 0.003455713, 10.001545, 9.999295 
2.6887423e+3, 1.6879027e+2, -971969.2, -1371248.8, -23431.234, -0.21882322, -0.039068963, -970598.8, 315255.75, 0.00049606664, 10.0033455, 9.997917 
2.688403e+3, 1.787846e+2, -733718.3, -1270245.6, 16003.898, -0.29351693, 0.14348337, -733241.4, 454681.16, 0.00001910138, 10.0044, 9.997552 
2.6880673e+3, 1.8877892e+2, -668177.5, -869832.44, 19838.295, -0.15163395, 0.20322439, -666244.4, 423734.3, 0.0000000002885943, 10.002991, 10.000192 
2.6877326e+3, 1.9877341e+2, -968674.0, -1078831.5, -74572.42, -0.0031067554, 0.18039767, -931045.06, 60984.57, 0.0, 10.000562, 9.999354 
2.6873955e+3, 2.0876661e+2, -818719.25, -764948.8, -118073.266, 0.060939167, 0.012615089, -670738.56, 223354.4, 0.0, 10.000322, 10.000822 
2.6870576e+3, 2.1875976e+2, -802155.9, -929549.94, -65438.16, 0.08058782, -0.19046552, -774532.25, 21625.313, 0.0, 10.000494, 9.999071 
2.6867208e+3, 2.2875543e+2, -468693.66, -695705.4, -29991.672, -0.015106249, 0.020273054, -464798.13, 233405.28, 0.0, 10.002149, 9.999131 
2.6863843e+3, 2.3875192e+2, -243536.55, -730649.0, -68233.37, -0.12544867, 0.31051394, -234159.14, 366083.78, 0.0, 10.003703, 9.997575 
2.6860505e+3, 2.4874364e+2, -307925.0, -711721.94, -9438.714, 0.104915045, 0.2895597, -307704.5, 194623.52, 0.0, 10.002801, 9.997331 
2.685717e+3, 2.587338e+2, -455126.5, -817284.9, 67991.24, 0.37699127, 0.1254144, -442782.63, -38354.68, 0.0, 10.00126, 9.996792 
2.6853788e+3, 2.6872677e+2, -297182.72, -435542.66, 13046.46, 0.22387367, 0.1696458, -295963.25, 10536.802, 0.0, 10.00077, 9.998865 
2.6850387e+3, 2.7872092e+2, -273114.6, -404984.25, -33894.027, -0.00102027, 0.23675604, -264913.03, -56352.926, 0.0, 10.000216, 9.99877 
2.684703e+3, 2.8871578e+2, -45834.258, 56953.07, -122990.64, 0.23491856, 0.2245362, 138856.1, 249463.17, 0.0, 9.999942, 10.001301 
2.684367e+3, 2.987108e+2, -137368.89, -164999.66, -66470.04, 0.5239322, 0.15410219, -83293.695, -70642.48, 0.0, 9.999487, 9.999431 
2.6840284e+3, 3.0870384e+2, -109259.31, -136813.88, 61009.02, 0.04326342, 0.073506795, -60491.3, -60491.3, 0.0, 9.999588, 9.999145 
2.683701e+3, 3.186978e+2, 143293.75, 545209.3, 105899.85, 0.5859326, 0.033473827, 571405.25, 571405.25, 0.0, 9.99861, 10.004373 
2.700085e+3, 1.2914091e+2, -1376795.3, -1597630.0, 121089.484, 0.18803966, -0.30458078, -1323338.6, 351067.38, 0.03555001, 10.002569, 9.999373 
2.6997483e+3, 1.3913517e+2, -1520336.8, -1597067.4, 13482.245, -0.28169352, -0.38001603, -1518036.8, 58428.953, 0.021269772, 10.000646, 9.999815 
2.699414e+3, 1.491349e+2, -1218203.1, -930322.8, -81571.01, -0.16811305, -0.1289537, -908816.3, 569651.6, 0.009415533, 10.000175, 10.003854 
2.6990798e+3, 1.591348e+2, -1418269.5, -1403972.0, -102857.234, 0.09037909, 0.06765769, -1308015.4, 72452.76, 0.0026134893, 9.999794, 10.000189 
2.6987398e+3, 1.6912764e+2, -1075835.5, -1369221.6, -66830.77, -0.21276367, -0.00043349926, -1061329.3, 221214.63, 0.0003600524, 10.002446, 9.998321 
2.698399e+3, 1.7911923e+2, -849385.5, -1382021.6, -61956.82, -0.5609822, -0.12395472, -842273.56, 342359.44, 0.000012952271, 10.003927, 9.996983 
2.6980636e+3, 1.8911324e+2, -806802.3, -1096775.0, -96300.836, -0.2804388, 0.0053430004, -777734.4, 308959.97, 0.000000000007316074, 10.002825, 9.998671 
2.697729e+3, 1.9910796e+2, -1168667.1, -1305816.6, -119153.32, 0.11106991, 0.14751726, -1099764.6, -111017.22, 0.0, 9.999813, 9.998169 
2.6973903e+3, 2.0910236e+2, -813868.6, -729317.75, -126631.17, 0.09133635, 0.09868538, -638091.6, 252708.0, 0.0, 10.000264, 10.001074 
2.6970515e+3, 2.1909651e+2, -974018.9, -1092842.5, -59482.79, -0.001497861, -0.017809218, -949359.5, -156505.64, 0.0, 9.999791, 9.998258 
2.6967165e+3, 2.2908881e+2, -640151.6, -868949.06, 25803.13, -0.09603738, -0.07973394, -637277.7, 57653.445, 0.0, 10.001535, 9.998132 
2.6963818e+3, 2.3908152e+2, -530348.06, -893886.9, -50411.41, -0.1668771, -0.098938525, -523487.06, 73518.71, 0.0, 10.001956, 9.997269 
2.6960462e+3, 2.4907734e+2, -244621.06, -391841.8, -88936.945, -0.05235883, 0.106576964, -202783.33, 296265.4, 0.0, 10.00207, 9.999831 
2.6957104e+3, 2.590732e+2, -627693.9, -820334.6, 1949.6901, 0.12909867, 0.27631786, -627674.1, -226582.61, 0.0, 9.999888, 9.997392 
2.6953748e+3, 2.6906443e+2, -456241.1, -597594.8, -6128.6484, 0.32007292, 0.16430162, -455975.88, -152792.98, 0.0, 10.000183, 9.997955 
2.6950383e+3, 2.7905554e+2, -531962.94, -660986.4, -37157.47, 0.44994345, 0.0017512201, -522027.13, -316752.0, 0.0, 9.999167, 9.997484 
2.6946977e+3, 2.890521e+2, -197642.03, -106977.87, -129607.38, 0.29391608, 0.2554024, -15003.462, 92304.23, 0.0, 9.999468, 10.000336 
2.6943567e+3, 2.9904872e+2, -391657.56, -400697.16, -49967.02, 0.07611068, 0.44798583, -346006.34, -336668.22, 0.0, 9.998378, 9.998328 
2.6940235e+3, 3.09035e+2, -177659.11, -144764.02, 81576.89, 0.13529661, -0.30821905, -77993.11, -77993.11, 0.0, 9.999121, 9.999278 
2.6936916e+3, 3.1903338e+2, -25855.66, 480205.72, -12005.251, 0.27007025, 0.05177903, 480490.34, 480490.34, 0.0, 9.997572, 10.004406 
2.7100834e+3, 1.2947701e+2, -1405200.4, -1604289.9, 62338.36, 0.16289817, -0.20025575, -1387292.0, 283818.97, 0.028414996, 10.002367, 9.999424 
2.7097416e+3, 1.3947107e+2, -1427032.3, -1652519.5, 16610.572, -0.63831365, -0.27446666, -1425815.3, 147357.5, 0.016713178, 10.001745, 9.998907 
2.7094066e+3, 1.4946845e+2, -1403563.6, -1230387.3, -179767.78, -0.3421091, -0.101123296, -1117441.0, 357759.78, 0.0071980846, 9.999827, 10.001924 
2.7090734e+3, 1.5946613e+2, -1760066.9, -1629105.5, -199395.48, 0.08283839, 0.03210435, -1484714.1, -107488.16, 0.0019202423, 9.997688, 9.9996605 
2.708737e+3, 1.6946015e+2, -1155622.6, -1273629.0, -51568.97, -0.12791955, 0.005810438, -1136262.9, 143025.06, 0.00025324232, 10.001309, 9.999542 
2.7083996e+3, 1.7945357e+2, -636222.9, -1101091.5, -140299.11, -0.46372837, -0.059789073, -597162.2, 584193.6, 0.000008369746, 10.004569, 9.99861 
2.708061e+3, 1.8944813e+2, -704873.7, -902531.06, -224219.31, -0.27688217, -0.02310286, -558668.9, 524739.25, 0.0, 10.002891, 9.999987 
2.7077228e+3, 1.9944304e+2, -1077782.5, -1232964.9, -83113.945, -0.026130913, 0.047671583, -1041670.9, -56213.867, 0.0, 10.00024, 9.998484 
2.7073854e+3, 2.0943666e+2, -735891.6, -909363.8, -69514.29, 0.041835677, 0.0612474, -711472.94, 176047.73, 0.0, 10.001617, 9.999256 
2.7070487e+3, 2.1943024e+2, -501138.22, -876265.7, -113787.89, 0.018563781, 0.041830886, -469321.38, 320263.28, 0.0, 10.002971, 9.998245 
2.7067137e+3, 2.2942282e+2, -573843.9, -757057.56, -16112.67, -0.021952774, -0.03853168, -572437.6, 119219.33, 0.0, 10.001559, 9.998951 
2.7063787e+3, 2.3941542e+2, -759813.3, -894628.44, -23523.254, -0.0735307, -0.119701624, -755826.75, -162097.33, 0.0, 9.999791, 9.998316 
2.7060416e+3, 2.4941096e+2, -516456.3, -495351.84, -149619.58, -0.051464956, 0.015385337, -355912.84, 139862.6, 0.0, 10.000024, 10.000131 
2.7057043e+3, 2.594072e+2, -453345.06, -590136.56, -177164.53, 0.012402405, 0.18638253, -331832.3, 65982.56, 0.0, 10.000373, 9.998732 
2.705369e+3, 2.694004e+2, -311523.1, -406588.4, -106604.68, 0.2619742, 0.13828869, -242334.23, 57551.234, 0.0, 10.000569, 9.999109 
2.705034e+3, 2.7939293e+2, -238203.19, -403385.6, -27919.143, 0.5297009, 0.02419404, -233611.9, -31649.422, 0.0, 10.000577, 9.99858 
2.704693e+3, 2.8938892e+2, 44947.703, -15365.024, -43800.316, 0.36861145, 0.21663542, 67969.1, 171968.94, 0.0, 10.001198, 10.000172 
2.704351e+3, 2.9938474e+2, 57750.16, -182731.0, 65983.27, 0.05576974, 0.37297425, 74664.93, 80703.57, 0.0, 10.001327, 9.998441 
2.7040178e+3, 3.0936998e+2, -65980.63, -138505.78, 137450.98, 0.16969696, -0.43217754, 39910.742, 39910.742, 0.0, 9.999978, 9.998973 
2.7036825e+3, 3.1937283e+2, 135058.9, 522347.47, -52280.266, 0.07091107, 0.4331561, 529280.7, 529280.7, 0.0, 9.998697, 10.004187 
2.720081e+3, 1.2981375e+2, -1187972.6, -1488392.6, 29791.143, 0.14115319, -0.08544344, -1185046.9, 482766.78, 0.022191128, 10.003787, 9.9995775 
2.7197367e+3, 1.398082e+2, -1546285.4, -1841484.3, -89756.984, -0.7351569, -0.08308053, -1521136.6, 48734.77, 0.012784308, 10.001432, 9.997788 
2.7194005e+3, 1.4980237e+2, -1321600.8, -1448506.5, -213303.28, -0.40454462, -0.047430757, -1162512.5, 309419.75, 0.00532732, 10.001521, 9.999618 
2.719067e+3, 1.5979657e+2, -1348123.0, -1517374.6, -66535.266, 0.14248219, -0.046007384, -1325099.0, 48893.508, 0.0013580795, 10.000961, 9.998848 
2.7187347e+3, 1.6979231e+2, -1079206.9, -1089327.4, 158685.81, 0.052263785, 0.021377139, -925500.6, 350535.7, 0.00016970174, 10.001269, 10.000809 
2.7184013e+3, 1.7978834e+2, -1049797.3, -1149591.8, -85007.125, -0.13698044, 0.096665725, -1001125.0, 176951.2, 0.0000049540654, 10.001128, 9.99994 
2.7180585e+3, 1.8978345e+2, -743192.25, -698087.25, -332674.6, -0.19754292, -0.011930624, -387201.63, 692916.94, 0.0, 10.001685, 10.001939 
2.717716e+3, 1.9977817e+2, -1118646.1, -1316066.1, -142040.66, -0.1505689, -0.102675185, -1044384.44, -62218.844, 0.0, 10.000345, 9.997822 
2.7173814e+3, 2.0977071e+2, -953793.0, -1276910.6, -7080.327, 0.02775828, -0.015299288, -953637.94, -69393.07, 0.0, 10.0014305, 9.996736 
2.7170476e+3, 2.1976335e+2, -838507.75, -1160212.3, -73142.59, 0.20474002, 0.08990531, -822658.9, -36335.246, 0.0, 10.001294, 9.997093 
2.7167115e+3, 2.2975774e+2, -567479.3, -575797.9, -63590.836, 0.19593452, 0.09266399, -507911.9, 180464.0, 0.0, 10.000915, 10.000475 
2.716375e+3, 2.3975225e+2, -967705.94, -1012032.1, -45415.74, 0.15174484, 0.08428924, -939334.0, -348907.47, 0.0, 9.998595, 9.99805 
2.716037e+3, 2.4974442e+2, -693646.1, -719226.25, -112889.836, 0.058198508, -0.039848734, -592824.1, -100317.09, 0.0, 9.999509, 9.998789 
2.715699e+3, 2.597374e+2, -633628.56, -686896.3, -148972.88, -0.008406064, -0.097178966, -508927.47, -114347.15, 0.0, 9.999272, 9.998613 
2.715362e+3, 2.697356e+2, -203646.42, -41047.188, -96274.02, 0.055151258, 0.14303404, 3662.3816, 300260.28, 0.0, 10.000077, 10.001828 
2.7150255e+3, 2.7973348e+2, -324380.47, -319997.4, -21365.143, 0.19828081, 0.3300496, -300711.7, -102094.35, 0.0, 9.999549, 9.999649 
2.7146894e+3, 2.8972575e+2, 3501.9165, -705.69147, -30355.545, 0.42550966, 0.0653565, 31826.473, 132514.0, 0.0, 10.000811, 10.000431 
2.7143508e+3, 2.997179e+2, -150701.52, -376598.3, 44043.824, 0.41167897, -0.15283506, -142417.9, -139658.38, 0.0, 10.000409, 9.997527 
2.714011e+3, 3.09711e+2, -228252.25, -331127.47, 55888.77, 0.03648596, -0.09364925, -203733.4, -203733.4, 0.0, 9.999464, 9.99782 
2.7136773e+3, 3.1970784e+2, -131192.36, 140216.56, 130807.46, 0.1564781, 0.28292137, 192996.3, 192996.3, 0.0, 9.998153, 10.001747 
2.7300736e+3, 1.3014922e+2, -1197076.5, -1552389.8, -221605.89, -0.5758556, 0.06652835, -1090706.6, 573831.75, 0.016854065, 10.004068, 9.998918 
2.729739e+3, 1.4014375e+2, -1632191.0, -1813011.4, -156544.56, -0.14640334, 0.07730207, -1541824.5, 24769.746, 0.009467284, 10.000565, 9.998385 
2.729401e+3, 1.5013814e+2, -903488.3, -1068034.5, -35813.68, -0.16424198, 0.0011242926, -896031.3, 572613.9, 0.0037924994, 10.003666, 10.0011835 
2.7290636e+3, 1.601324e+2, -574998.2, -1047815.5, 80300.36, -0.17226294, -0.10932702, -561732.7, 808965.1, 0.0009170214, 10.005858, 9.999699 
2.7287287e+3, 1.7012775e+2, -1119480.9, -1112720.6, 159020.16, -0.16940737, -0.07644345, -957044.6, 315698.78, 0.0001065257, 10.0009985, 10.000781 
2.7283937e+3, 1.8012357e+2, -1796770.9, -1522927.0, -3865.688, -0.210192, 0.0024332467, -1522872.4, -348087.66, 0.0000025959862, 9.996005, 9.999854 
2.728054e+3, 1.9011843e+2, -1061504.9, -956631.25, -199799.77, -0.16560818, -0.045242447, -802501.9, 274332.13, 0.0, 9.999845, 10.001121 
2.7277136e+3, 2.0011297e+2, -598982.25, -999858.1, -166542.19, -0.12883104, -0.09268439, -538821.5, 440064.7, 0.0, 10.003544, 9.99846 
2.7273774e+3, 2.1010579e+2, -691039.3, -1031494.94, 16575.914, -0.067596935, -0.072629385, -690234.2, 190724.08, 0.0, 10.002658, 9.997857 
2.727042e+3, 2.2009873e+2, -787913.56, -1048245.2, 80432.55, 0.0008363356, -0.008316196, -765067.8, 17961.809, 0.0, 10.001163, 9.997928 
2.7267066e+3, 2.3009303e+2, -627377.5, -645679.44, 24012.578, 0.15642457, 0.009652325, -610831.3, 74253.055, 0.0, 10.000599, 10.000162 
2.7263707e+3, 2.4008755e+2, -705197.06, -843867.75, -16666.535, 0.25897488, 0.033871073, -703222.06, -116085.25, 0.0, 10.000106, 9.99849 
2.7260318e+3, 2.5007957e+2, -519369.6, -648939.9, 8664.386, 0.07597801, -0.092393234, -518792.75, -29573.58, 0.0, 10.000641, 9.998797 
2.725693e+3, 2.6007217e+2, -319725.2, -416640.47, -2472.9133, -0.09267552, -0.18204224, -319662.13, 71633.21, 0.0, 10.000794, 9.999751 
2.7253556e+3, 2.7007085e+2, -270126.88, 20846.838, -64789.156, 0.014948012, 0.038071826, 34620.965, 327926.13, 0.0, 9.99913, 10.002758 
2.7250192e+3, 2.8006953e+2, -548973.7, -358334.56, -52571.97, 0.20136136, 0.23673908, -344798.13, -149483.44, 0.0, 9.99755, 10.0003805 
2.7246842e+3, 2.9006094e+2, -159362.02, -131894.75, -89345.17, 0.41512862, -0.0891817, -55233.848, 42160.953, 0.0, 9.999777, 10.000074 
2.724347e+3, 3.0005267e+2, 70209.39, -220962.9, -102542.04, 0.4590109, -0.33627045, 102696.81, 102696.81, 0.0, 10.00161, 9.998022 
2.7240056e+3, 3.1005016e+2, -59234.84, -240228.17, -57472.887, 0.06250064, 0.12766087, -42527.125, -42527.125, 0.0, 10.000427, 9.998067 
2.7236727e+3, 3.200416e+2, -203019.03, -47988.64, 195470.44, 0.3745823, 0.014110227, 84775.26, 84775.26, 0.0, 9.998051, 10.000597 
2.7400687e+3, 1.3048568e+2, -1305108.0, -1633924.8, -145840.53, -0.92156655, 0.18499401, -1249744.8, 411507.34, 0.012358498, 10.00335, 9.998696 
2.7397415e+3, 1.4048006e+2, -1526284.5, -1662855.4, 37183.766, 0.5897096, 0.20480058, -1516816.9, 46489.965, 0.0067449147, 10.000881, 9.999219 
2.7394015e+3, 1.5047498e+2, -902997.7, -867801.44, 192226.27, 0.09213627, 0.021936346, -692369.44, 772976.0, 0.0025850076, 10.002778, 10.002966 
2.7390608e+3, 1.6046993e+2, -804055.2, -1086771.9, 41104.426, -0.44507214, -0.16350323, -798200.25, 569183.75, 0.0005889778, 10.003976, 10.000322 
2.738722e+3, 1.7046453e+2, -1070851.5, -1142179.4, -37426.24, -0.39025852, -0.20756733, -1054817.9, 214617.23, 0.00006228534, 10.001529, 10.000333 
2.7383843e+3, 1.8045928e+2, -1604375.6, -1590482.8, 23336.063, -0.24494548, -0.1518727, -1573081.1, -401594.06, 0.0000011486238, 9.998078, 9.998374 
2.738049e+3, 1.9045384e+2, -1106554.9, -1155547.0, 23249.61, -0.06987569, -0.08536082, -1097278.1, -23732.059, 0.0, 10.000402, 9.999417 
2.7377135e+3, 2.0044845e+2, -805367.06, -1080805.0, -51778.816, 0.05659555, -0.0028744533, -795954.94, 179648.1, 0.0, 10.002148, 9.998556 
2.7373734e+3, 2.1044184e+2, -595441.44, -727825.25, -26117.568, -0.16062452, -0.12271157, -590475.1, 287186.0, 0.0, 10.002199, 10.00016 
2.7370343e+3, 2.2043517e+2, -918773.7, -1111474.5, 35754.363, -0.30263662, -0.18975438, -912353.56, -132633.05, 0.0, 10.000342, 9.997876 
2.7367002e+3, 2.3042843e+2, -784014.25, -862924.75, -2196.8333, 0.034512512, -0.20180838, -783953.2, -102164.32, 0.0, 10.000238, 9.998794 
2.7363658e+3, 2.404221e+2, -929641.9, -1053231.4, -1116.142, 0.33137465, -0.13385661, -929631.8, -345778.06, 0.0, 9.999081, 9.997539 
2.7360266e+3, 2.5041616e+2, -541640.56, -563452.75, 38860.168, 0.03525784, -0.12584126, -512185.13, -26270.635, 0.0, 10.000158, 9.999564 
2.735687e+3, 2.6041064e+2, -536799.94, -567025.3, -32265.246, -0.23631085, -0.08662513, -516283.44, -128313.44, 0.0, 9.999641, 9.999233 
2.73535e+3, 2.7040574e+2, -396539.0, -121862.33, -140932.1, 0.10784305, -0.19461809, -62417.34, 227595.06, 0.0, 9.998675, 10.00195 
2.7350137e+3, 2.804009e+2, -820097.3, -668669.7, -30487.32, 0.44004807, -0.23990147, -662762.06, -470707.06, 0.0, 9.99662, 9.998656 
2.7346772e+3, 2.903949e+2, -301682.75, -325141.97, 11075.348, 0.2806365, -0.20950311, -297280.2, -203160.52, 0.0, 9.999478, 9.998832 
2.7343392e+3, 3.0038932e+2, -61570.027, -274678.75, -108532.17, 0.04617888, -0.09555197, -16028.8125, -16028.8125, 0.0, 10.000813, 9.9980135 
2.734002e+3, 3.1038573e+2, 9859.904, 48484.625, -129489.55, 0.19711645, 0.05749907, 160094.03, 160094.03, 0.0, 9.999965, 10.000186 
2.7336645e+3, 3.2037687e+2, -422063.94, -184665.19, 82217.68, 0.26771, -0.24873757, -158971.73, -158971.73, 0.0, 9.996895, 10.000144 
2.750072e+3, 1.3082632e+2, -1315031.4, -1307368.3, -92793.414, -0.39097854, 0.004827154, -1218327.4, 439580.7, 0.008685325, 10.001869, 10.001683 
2.7497342e+3, 1.4082271e+2, -1565271.1, -1697776.5, 299383.47, 0.23873891, 0.037320532, -1324897.3, 235033.4, 0.004592608, 10.000692, 9.999068 
2.7493957e+3, 1.5081568e+2, -1296801.1, -1365086.4, 408510.63, -0.15459272, -0.10863619, -921008.8, 540987.2, 0.0016782222, 10.00137, 10.000246 
2.7490577e+3, 1.6080892e+2, -1185498.4, -1342022.0, 112098.38, -0.5323498, -0.23358291, -1127045.4, 237014.02, 0.0003582281, 10.001659, 9.999678 
2.7487203e+3, 1.7080465e+2, -832661.75, -950419.75, 36806.383, -0.2819383, -0.19244204, -822104.1, 443994.63, 0.000033741435, 10.002838, 10.001016 
2.7483827e+3, 1.8080015e+2, -855738.5, -1231816.6, 133434.94, -0.07364556, -0.09032634, -813205.3, 354936.97, 0.00000040337267, 10.003196, 9.998358 
2.748045e+3, 1.9079283e+2, -909450.5, -1177314.6, 174395.67, -0.112671375, -0.11743457, -823492.5, 246727.53, 0.0, 10.002214, 9.998404 
2.7477077e+3, 2.0078586e+2, -933154.44, -1166562.9, 104263.87, -0.15917695, -0.09318097, -893363.2, 78929.984, 0.0, 10.0012665, 9.998418 
2.7473703e+3, 2.107794e+2, -547059.8, -713154.3, 68581.75, -0.14589615, -0.17397445, -522402.34, 351948.8, 0.0, 10.00242, 10.00023 
2.747033e+3, 2.2077312e+2, -444673.3, -800220.3, 23960.332, -0.14466375, -0.21880552, -443065.9, 333341.53, 0.0, 10.003118, 9.998704 
2.746696e+3, 2.3076662e+2, -445111.22, -672416.8, 42606.69, -0.011259919, -0.23050836, -437387.38, 241085.0, 0.0, 10.002314, 9.999176 
2.7463585e+3, 2.4076048e+2, -520413.44, -735279.94, 131558.92, 0.10050168, -0.17695005, -457994.84, 122539.805, 0.0, 10.001267, 9.998676 
2.746021e+3, 2.5075516e+2, -429837.0, -459595.03, 166009.86, -0.04025399, -0.1341391, -278040.7, 204547.08, 0.0, 10.000656, 10.000067 
2.7456826e+3, 2.6074985e+2, -415229.1, -487055.9, 61485.723, -0.15611398, -0.08563382, -379936.7, 4703.188, 0.0, 10.000254, 9.999513 
2.7453452e+3, 2.707429e+2, -117764.36, -122609.086, -88602.555, 0.1685332, -0.28652528, -31551.06, 255152.0, 0.0, 10.001045, 10.00086 
2.7450082e+3, 2.8073642e+2, -107582.4, -309969.94, 37073.45, 0.4613127, -0.40398893, -101005.02, 87758.15, 0.0, 10.001339, 9.998866 
2.7446708e+3, 2.9073212e+2, -193372.84, -249699.84, 181971.39, 0.20167011, -0.19037169, -37398.438, 53415.383, 0.0, 10.000072, 9.999118 
2.744333e+3, 3.0072775e+2, -279095.28, -289695.5, 89122.234, -0.07890108, 0.04465233, -195115.7, -195115.7, 0.0, 9.998801, 9.9989195 
2.7439976e+3, 3.107217e+2, -65951.664, 83070.54, -75006.02, 0.34753236, -0.08780256, 114284.59, 114284.59, 0.0, 9.998995, 10.000962 
2.743658e+3, 3.2071477e+2, 28524.605, 147323.08, 93756.89, 0.33116555, -0.2617028, 198913.14, 198913.14, 0.0, 9.999307, 10.001289 
2.760074e+3, 1.3116778e+2, -1085153.9, -881227.56, -194684.52, 0.21009898, -0.19904374, -763421.44, 891130.7, 0.005822727, 10.0020895, 10.004504 
2.7597263e+3, 1.4116642e+2, -1148641.5, -1601546.1, 83124.42, -0.12969331, -0.10395201, -1133867.1, 422675.25, 0.002969682, 10.0040245, 9.998129 
2.75939e+3, 1.511569e+2, -1370231.4, -1752398.8, 275754.94, -0.3523508, -0.24898428, -1225824.8, 232816.83, 0.0010279784, 10.002432, 9.997053 
2.759055e+3, 1.6114832e+2, -1395092.0, -1560795.4, 77834.51, -0.3957633, -0.30227992, -1364266.0, -3533.9355, 0.0002033788, 10.000719, 9.998653 
2.7587196e+3, 1.7114583e+2, -882063.6, -893761.94, 250.5777, -0.033485495, -0.13812412, -882058.3, 380695.9, 0.000016580547, 10.002146, 10.001748 
2.7583832e+3, 1.8114255e+2, -986851.2, -1338869.9, 43837.695, 0.22368594, 0.04113411, -981474.1, 183310.42, 0.00000009587778, 10.002561, 9.99792 
2.7580413e+3, 1.911329e+2, -1007046.2, -1316814.9, 46750.19, -0.14639269, -0.15828663, -1000144.44, 66738.305, 0.0, 10.001991, 9.997549 
2.7577013e+3, 2.0112376e+2, -1107504.5, -1372522.3, 86799.99, -0.39169618, -0.2522465, -1081606.3, -112630.234, 0.0, 10.000673, 9.997282 
2.7573687e+3, 2.1111766e+2, -749066.8, -884635.2, 94896.27, 0.011804356, -0.24156322, -700231.94, 170803.97, 0.0, 10.001469, 9.999456 
2.7570346e+3, 2.2111213e+2, -752323.6, -931109.94, 30933.094, 0.3201957, -0.15990464, -747122.94, 25966.436, 0.0, 10.001105, 9.998729 
2.7566922e+3, 2.3110674e+2, -497028.06, -554217.0, 10544.789, -0.015594549, -0.18383029, -495145.72, 179994.61, 0.0, 10.001453, 10.000355 
2.7563506e+3, 2.4110153e+2, -702279.75, -814763.44, 100358.27, -0.27122986, -0.117089294, -643478.44, -66288.266, 0.0, 10.000149, 9.998623 
2.7560154e+3, 2.5109568e+2, -512544.28, -497010.34, 133914.48, -0.09227855, -0.16114622, -370637.78, 108609.34, 0.0, 10.000164, 9.999997 
2.7556798e+3, 2.6108956e+2, -676562.6, -777656.75, 58631.613, 0.08105301, -0.1491157, -649697.4, -268390.47, 0.0, 9.99929, 9.997971 
2.7553406e+3, 2.7108234e+2, -333629.4, -405672.38, -73358.25, 0.17257074, -0.2344871, -287925.88, -4548.585, 0.0, 10.000498, 9.999131 
2.7550018e+3, 2.8107592e+2, -295724.0, -413613.1, 3181.6948, 0.26023078, -0.21329603, -295638.2, -110198.22, 0.0, 10.000235, 9.998667 
2.7546647e+3, 2.9107267e+2, -176934.03, -59642.465, 119698.26, 0.15020409, -0.050360847, 15004.668, 102480.17, 0.0, 9.999461, 10.0006895 
2.7543274e+3, 3.010684e+2, -505718.38, -454961.75, 62479.805, 0.040267773, 0.10208673, -412902.78, -412902.78, 0.0, 9.997608, 9.998338 
2.7539924e+3, 3.110581e+2, -281236.7, -177125.86, -63941.74, 0.5188696, -0.35383496, -146729.39, -146729.39, 0.0, 9.998285, 9.999486 
2.7536532e+3, 3.2105643e+2, 200689.78, 685146.06, 335551.75, 0.36425224, -0.042286362, 856765.06, 856765.06, 0.0, 9.998772, 10.005177 
2.770068e+3, 1.3150616e+2, -1369896.9, -1348076.4, -139674.78, -0.14889766, -0.21066919, -1218886.4, 432342.66, 0.0036892197, 10.001658, 10.001418 
2.7697262e+3, 1.4150356e+2, -775014.7, -1509361.4, -134778.66, -0.2923106, -0.033082332, -751059.44, 802181.44, 0.0018042208, 10.007014, 9.997298 
2.7693895e+3, 1.5149456e+2, -1204617.1, -1607117.4, -12354.732, -0.19394924, -0.18196198, -1204238.3, 251097.94, 0.00058557204, 10.003293, 9.997623 
2.7690536e+3, 1.6148636e+2, -1526577.0, -1626778.8, -25465.94, -0.0813507, -0.24579738, -1520476.4, -163052.83, 0.00010501939, 9.99978, 9.998663 
2.768716e+3, 1.7148294e+2, -1030665.1, -1042121.3, -45655.598, -0.048527177, -0.12807992, -990379.7, 269076.72, 0.0000068884756, 10.001385, 10.00114 
2.768378e+3, 1.8147914e+2, -985833.56, -1312187.4, -108458.93, -0.06291851, 0.03483027, -953076.7, 208416.58, 0.00000000965895, 10.002424, 9.998175 
2.768037e+3, 1.9147074e+2, -941466.94, -1241924.8, -71663.39, -0.23266056, -0.08242528, -925249.56, 138329.47, 0.0, 10.002188, 9.998009 
2.767698e+3, 2.014628e+2, -924514.9, -1134295.0, -6850.1416, -0.34824422, -0.13308765, -924291.4, 41368.336, 0.0, 10.001249, 9.9986315 
2.7673638e+3, 2.1145763e+2, -925622.44, -865345.8, 74655.914, 0.0008464692, -0.116455846, -814974.4, 52735.59, 0.0, 9.999793, 10.00041 
2.7670288e+3, 2.2145279e+2, -984369.0, -913158.5, 77081.484, 0.24351591, -0.053599086, -863856.25, -94100.18, 0.0, 9.998864, 9.999959 
2.7666873e+3, 2.3144749e+2, -599946.25, -541471.2, 72643.46, -0.044999518, -0.111313626, -492402.22, 179401.08, 0.0, 10.000386, 10.001027 
2.7663463e+3, 2.4144211e+2, -447990.8, -669765.75, 102975.25, -0.278467, -0.1014787, -407551.03, 166301.52, 0.0, 10.001672, 9.9989195 
2.7660117e+3, 2.514355e+2, -312170.72, -517535.88, 71920.266, -0.033818815, -0.12700692, -289488.88, 186429.73, 0.0, 10.001914, 9.9990835 
2.765676e+3, 2.614288e+2, -317947.63, -614913.3, -51326.98, 0.17449436, -0.10147986, -309326.66, 68658.75, 0.0, 10.001702, 9.997936 
2.7653348e+3, 2.7142155e+2, -269982.1, -442141.6, -100881.21, 0.09478582, -0.1332642, -223446.83, 56610.688, 0.0, 10.001121, 9.998641 
2.7649948e+3, 2.814152e+2, -230068.14, -286473.25, 18083.828, 0.06544433, -0.09150973, -224768.33, -42648.387, 0.0, 10.000142, 9.999597 
2.7646586e+3, 2.9141197e+2, -190004.9, 8304.301, 44827.754, 0.14871903, 0.0052476474, 17966.805, 102115.62, 0.0, 9.998842, 10.001528 
2.7643216e+3, 3.014073e+2, -402117.16, -381324.84, 26741.893, 0.18503797, 0.053374097, -363029.38, -363029.38, 0.0, 9.998075, 9.998626 
2.7639854e+3, 3.113955e+2, 12161.732, -118815.84, -15483.193, 0.44141343, -0.49230942, 13967.153, 13967.153, 0.0, 10.000572, 9.998792 
2.7636474e+3, 3.2139707e+2, 460791.1, 937258.75, 230374.33, 0.3178369, 0.16154444, 1030427.5, 1030427.5, 0.0, 9.999873, 10.006376 
2.7800623e+3, 1.3184339e+2, -1463322.9, -1702977.0, 39796.61, -0.40275705, -0.21029474, -1456887.1, 191032.97, 0.0021709697, 10.002298, 9.998681 
2.779727e+3, 1.4183918e+2, -1469662.4, -1872788.8, -95293.01, -0.25262153, 0.0118697835, -1448271.6, 101685.54, 0.0010072378, 10.00225, 9.997153 
2.7793896e+3, 1.5183176e+2, -1200469.8, -1462830.5, -111436.42, 0.06855216, -0.09511249, -1159527.0, 292509.97, 0.00030058212, 10.002599, 9.999018 
2.779052e+3, 1.6182452e+2, -1249296.9, -1506791.3, 18285.361, 0.30521938, -0.13900544, -1248004.9, 106109.47, 0.000046417692, 10.001765, 9.998529 
2.7787113e+3, 1.718193e+2, -1028703.56, -1153711.0, 33385.37, -0.078636646, -0.13109538, -1020346.2, 235821.19, 0.0000020738605, 10.001912, 10.000109 
2.7783713e+3, 1.8181436e+2, -1106444.6, -1371808.9, -51994.344, -0.37421545, 0.0034727051, -1096620.8, 61597.043, 0.00000000000031198744, 10.001647, 9.998125 
2.7780333e+3, 1.9180837e+2, -884616.5, -1096398.8, -64469.87, -0.2479213, 0.022826588, -866534.7, 193745.8, 0.0, 10.002138, 9.998991 
2.7776957e+3, 2.0180286e+2, -864218.5, -991457.06, -18663.387, -0.10736039, 0.11943855, -861537.44, 100799.59, 0.0, 10.001279, 9.999576 
2.777357e+3, 2.117985e+2, -817596.7, -661257.06, -8721.94, -0.05235395, 0.069776356, -660771.94, 203605.33, 0.0, 9.999962, 10.001709 
2.7770194e+3, 2.217941e+2, -1074494.3, -929491.5, 70334.22, 0.016576711, 0.08856621, -900981.25, -134564.83, 0.0, 9.998204, 10.000142 
2.7766824e+3, 2.3178835e+2, -661549.44, -541007.6, 96374.56, -0.00093405857, -0.07018854, -487609.53, 180856.02, 0.0, 9.999907, 10.001216 
2.7763453e+3, 2.4178243e+2, -736840.7, -956692.06, 106483.945, 0.0012774211, -0.08326114, -693722.3, -123203.09, 0.0, 10.0004635, 9.997508 
2.776009e+3, 2.5177503e+2, -547684.56, -796146.0, 65515.074, 0.110845655, -0.052283276, -531467.8, -58871.31, 0.0, 10.0011425, 9.99751 
2.7756718e+3, 2.6176775e+2, -567913.56, -788668.25, -63398.332, 0.16000071, 0.04784725, -551001.8, -176329.73, 0.0, 10.000385, 9.99732 
2.7753288e+3, 2.7176037e+2, -342644.53, -413494.16, -117607.19, -0.07061378, -0.05370435, -255242.78, 21501.518, 0.0, 10.000458, 9.999102 
2.7749872e+3, 2.817539e+2, -394016.97, -354262.53, -29623.941, -0.16051006, -0.058252424, -338465.1, -159659.75, 0.0, 9.999125, 9.999585 
2.7746522e+3, 2.9174942e+2, -314638.2, -32350.754, -4753.7256, 0.1743802, -0.12128387, -32270.723, 48568.516, 0.0, 9.998073, 10.001547 
2.7743146e+3, 3.017443e+2, -576690.1, -488918.56, 79513.77, 0.20998783, -0.09537275, -441983.63, -441983.63, 0.0, 9.997156, 9.998291 
2.7739742e+3, 3.117347e+2, -50937.01, -111914.92, 97753.65, -0.22201554, -0.46599525, 20972.04, 20972.04, 0.0, 10.000117, 9.999022 
2.7736416e+3, 3.2173258e+2, -185741.44, -15126.942, -142544.19, 0.23578964, 0.008651512, 65686.76, 65686.76, 0.0, 9.998391, 10.000524 
2.790061e+3, 1.3217707e+2, -1270126.6, -1141540.6, -281334.9, -0.294445, -0.32844836, -917245.8, 727407.5, 0.0011674941, 10.001629, 10.002867 
2.7897215e+3, 1.4217561e+2, -2111053.0, -1962028.8, 27175.307, -0.18834808, -0.14772171, -1957227.9, -410572.44, 0.00050489604, 9.996925, 9.999099 
2.7893838e+3, 1.5217078e+2, -1219569.5, -1323939.3, 143565.48, -0.18081701, -0.12905574, -1118998.6, 329712.0, 0.00013439951, 10.001842, 10.000334 
2.789047e+3, 1.6216527e+2, -811825.94, -1329252.3, 103083.28, -0.11288033, -0.059236243, -792045.56, 558727.25, 0.000016423304, 10.004901, 9.998237 
2.788708e+3, 1.7215867e+2, -979930.56, -1261658.9, 75573.65, -0.16843528, -0.06759374, -960938.25, 291904.4, 0.0000003300107, 10.002787, 9.998955 
2.7883688e+3, 1.8215288e+2, -1107205.4, -1268831.8, 45728.277, -0.28328443, 0.028925749, -1095164.6, 59738.676, 0.0, 10.001126, 9.99911 
2.7880308e+3, 1.9214778e+2, -675848.1, -849930.75, 107322.51, -0.26695326, 0.041769527, -624707.25, 432247.0, 0.0, 10.002859, 10.0004 
2.7876925e+3, 2.02143e+2, -528109.8, -814488.2, 32578.186, -0.20058177, 0.13607585, -524450.5, 434551.8, 0.0, 10.00351, 9.9997 
2.7873534e+3, 2.1213822e+2, -590845.75, -677521.2, -54637.984, -0.04451883, 0.15735064, -564444.94, 296605.63, 0.0, 10.002027, 10.00062 
2.7870145e+3, 2.2213317e+2, -674261.06, -744517.0, -502.58948, 0.05724821, 0.18426907, -674257.5, 88840.98, 0.0, 10.000872, 10.000143 
2.786678e+3, 2.3212685e+2, -491661.16, -495966.0, 27132.855, 0.0304283, -0.005017024, -466595.47, 198557.64, 0.0, 10.001091, 10.001005 
2.7863413e+3, 2.421207e+2, -561777.3, -749536.7, 6148.9663, 0.037731696, -0.06725918, -561576.2, 5631.574, 0.0, 10.001071, 9.998635 
2.7860054e+3, 2.5211397e+2, -532952.44, -670459.56, 85918.49, 0.16004127, -0.059816897, -491664.9, -22390.154, 0.0, 10.000674, 9.998624 
2.7856672e+3, 2.6210728e+2, -500802.16, -636488.6, 58148.19, 0.18899082, -0.00033748036, -479292.63, -107950.75, 0.0, 10.00019, 9.998491 
2.785324e+3, 2.7210036e+2, -375693.66, -403618.38, 14728.284, -0.04771438, -0.06955984, -369361.44, -95951.51, 0.0, 9.999948, 9.999493 
2.784982e+3, 2.820939e+2, -272492.0, -262945.94, 95830.19, -0.11986268, -0.09262794, -171769.98, 3700.3938, 0.0, 9.999708, 9.999945 
2.7846465e+3, 2.9208812e+2, -4052.346, 68555.02, 60281.637, 0.2412843, -0.22255458, 102620.6, 180135.4, 0.0, 10.000317, 10.001184 
2.7843085e+3, 3.0208206e+2, -102245.23, -224698.84, 162060.19, 0.2549362, -0.27702454, 9768.342, 9768.342, 0.0, 10.000113, 9.998714 
2.783966e+3, 3.1207424e+2, -234557.48, -196737.84, 177036.53, -0.4402183, -0.46090946, -37604.09, -37604.09, 0.0, 9.998649, 9.999239 
2.783637e+3, 3.220697e+2, -140088.17, -262648.78, -111354.195, 0.4369181, -0.12335749, -74266.02, -74266.02, 0.0, 9.999659, 9.99828 
2.8000596e+3, 1.3251244e+2, -976327.9, -611646.06, -327451.25, -0.022634393, -0.43958917, -419190.3, 1222178.5, 0.0005665457, 10.001888, 10.006395 
2.7997148e+3, 1.425133e+2, -1508688.3, -1519547.1, 100214.65, -0.06093751, -0.2998533, -1413756.1, 129585.63, 0.00022570654, 10.000442, 10.000397 
2.799378e+3, 1.5251039e+2, -1072246.0, -1172143.9, 251140.53, -0.4445518, -0.18085049, -866135.5, 579242.9, 0.00005282333, 10.002535, 10.001007 
2.799042e+3, 1.6250613e+2, -1057087.4, -1509066.5, 18160.418, -0.52791417, -0.009285508, -1056358.9, 291070.22, 0.000004777361, 10.003565, 9.997582 
2.798705e+3, 1.7249879e+2, -1122687.9, -1443437.8, -54913.62, -0.15194304, -0.020264769, -1113547.0, 135962.13, 0.00000002399446, 10.002325, 9.997888 
2.7983674e+3, 1.8249245e+2, -1101351.3, -1202292.4, 76298.09, 0.03472572, 0.07294803, -1060341.4, 91234.57, 0.0, 10.000984, 9.999603 
2.798028e+3, 1.9248793e+2, -774504.6, -741125.94, 128241.39, -0.22840324, 0.00017861009, -628492.44, 425124.5, 0.0, 10.001592, 10.001723 
2.7976888e+3, 2.0248327e+2, -920780.5, -1168508.5, -13740.045, -0.30037847, 0.08142123, -920020.75, 35641.42, 0.0, 10.001555, 9.998209 
2.7973503e+3, 2.1247724e+2, -859047.7, -1039799.4, -101854.77, 0.07552915, 0.15524824, -813253.8, 44474.223, 0.0, 10.001198, 9.998522 
2.7970123e+3, 2.2247124e+2, -884922.56, -950423.3, 60046.08, 0.29946417, 0.2609512, -849276.2, -89486.24, 0.0, 10.000038, 9.99908 
2.7966738e+3, 2.3246427e+2, -646613.4, -608134.25, 67457.445, 0.0899651, 0.03772221, -557226.3, 104625.79, 0.0, 10.000315, 10.000573 
2.796336e+3, 2.4245799e+2, -658963.1, -641078.75, 28265.973, -0.0057846294, -0.0418597, -620374.2, -56467.71, 0.0, 9.999847, 9.999945 
2.7960005e+3, 2.5245252e+2, -475400.97, -342158.28, 78945.586, 0.18353142, -0.17827088, -305480.03, 160472.14, 0.0, 9.999867, 10.001226 
2.7956626e+3, 2.6244727e+2, -640377.6, -631176.7, 42848.99, 0.27681044, -0.15685046, -592681.94, -224683.52, 0.0, 9.999037, 9.999062 
2.7953196e+3, 2.7244142e+2, -459617.75, -402193.8, 3964.9558, 0.13606307, -0.186207, -401921.34, -131864.88, 0.0, 9.999294, 9.99978 
2.7949786e+3, 2.824354e+2, -479636.9, -481274.13, 105540.75, 0.092485614, -0.13342725, -374911.6, -202798.22, 0.0, 9.998925, 9.998792 
2.794642e+3, 2.924279e+2, -164540.7, -124239.336, 79363.766, 0.27445036, -0.34986007, -62508.047, 11669.785, 0.0, 9.999817, 10.000075 
2.794303e+3, 3.0242074e+2, -271644.84, -340337.22, 90535.5, 0.23199232, -0.4237854, -209159.55, -209159.55, 0.0, 9.999278, 9.998248 
2.793963e+3, 3.124139e+2, -425935.25, -255241.95, 104328.79, -0.043347985, -0.54723, -205797.86, -205797.86, 0.0, 9.997363, 9.999367 
2.7936298e+3, 3.224113e+2, 64466.258, 363043.7, 331564.34, 0.22773851, -0.20943202, 577378.44, 577378.44, 0.0, 9.999126, 10.002698 
2.8100553e+3, 1.3285717e+2, -1392406.3, -1450996.3, -152919.6, -0.19329347, -0.262669, -1266000.9, 371985.13, 0.00024941846, 10.001814, 10.000665 
2.8097096e+3, 1.428541e+2, -1163475.0, -1543142.1, 83681.54, -0.38728747, -0.09613098, -1145849.3, 394165.16, 0.00009135431, 10.00368, 9.998665 
2.8093758e+3, 1.528489e+2, -1121081.1, -1297083.1, 200213.47, -0.42852393, -0.108652964, -990382.3, 451686.1, 0.000018191195, 10.002635, 10.00012 
2.809041e+3, 1.6284335e+2, -1251273.1, -1484960.6, -93801.41, -0.36671355, -0.046908643, -1218279.8, 125846.305, 0.000001253609, 10.001714, 9.998645 
2.808702e+3, 1.7283736e+2, -1080718.6, -1272738.8, -59851.375, -0.17100316, -0.04732652, -1063591.1, 182597.02, 0.0000000065346386, 10.001939, 9.999266 
2.8083622e+3, 1.8283173e+2, -1036240.0, -1118375.9, 47783.637, -0.092736356, 0.023128062, -1014301.1, 133943.72, 0.0, 10.001212, 10.000045 
2.8080228e+3, 1.928262e+2, -1123373.9, -955899.56, 65048.324, -0.26315784, -0.108336255, -933602.8, 116693.86, 0.0, 9.999373, 10.0013275 
2.8076836e+3, 2.0282122e+2, -1217466.4, -1117439.4, -44338.73, -0.28528163, -0.10230565, -1100615.3, -148271.94, 0.0, 9.998623, 9.999975 
2.8073454e+3, 2.1281639e+2, -792898.0, -811124.5, 69161.53, 0.025714211, -0.07918627, -732251.9, 122139.0, 0.0, 10.000695, 10.000376 
2.8070074e+3, 2.2281097e+2, -618285.94, -807583.9, 280870.5, 0.21807247, -0.013320128, -416545.5, 339898.38, 0.0, 10.001743, 9.999253 
2.8066698e+3, 2.3280372e+2, -634412.75, -697556.06, 284478.84, 0.13630474, -0.1492405, -379759.03, 278754.1, 0.0, 10.00072, 9.9998 
2.806332e+3, 2.4279737e+2, -575487.25, -534375.56, 217209.34, 0.07315806, -0.19598155, -336751.6, 223819.58, 0.0, 10.000006, 10.000618 
2.8059947e+3, 2.527927e+2, -363298.4, -239407.28, 168147.11, 0.1222718, -0.27503043, -122158.234, 340450.7, 0.0, 10.000275, 10.001794 
2.805656e+3, 2.6278782e+2, -391532.8, -495392.97, 27136.564, 0.16814026, -0.252748, -384870.0, -20218.68, 0.0, 10.000548, 9.999315 
2.8053147e+3, 2.7278152e+2, -260884.17, -361425.63, -63008.44, 0.1809472, -0.27042657, -230549.63, 36165.863, 0.0, 10.00074, 9.999447 
2.804974e+3, 2.8277522e+2, -219410.9, -388903.5, 25550.332, 0.21633783, -0.2256222, -215643.05, -46865.703, 0.0, 10.000696, 9.998623 
2.8046364e+3, 2.9276797e+2, -97784.88, -205020.61, 17291.344, 0.26750162, -0.32331598, -95065.67, -24221.352, 0.0, 10.000589, 9.99923 
2.8042975e+3, 3.0276078e+2, -85371.74, -163825.13, 10510.812, 0.24750751, -0.38043866, -83987.96, -83987.96, 0.0, 10.000103, 9.999067 
2.8039598e+3, 3.1275374e+2, -69544.445, -8506.408, 30795.557, 0.36366192, -0.5762864, 4330.9663, 4330.9663, 0.0, 9.999359, 10.000153 
2.8036222e+3, 3.2275185e+2, -143007.3, 448004.44, 344325.13, 0.14535682, -0.27692157, 606242.44, 606242.44, 0.0, 9.996675, 10.004553 
2.8200507e+3, 1.332015e+2, -1551258.9, -2183446.0, -130970.37, -0.30772653, -0.13734709, -1525199.9, 109409.16, 0.00010704356, 10.00359, 9.994768 
2.8197065e+3, 1.4319526e+2, -1180456.1, -1752315.0, 91266.13, -0.54816633, 0.16573964, -1166243.8, 370440.78, 0.000035101017, 10.004474, 9.996838 
2.819375e+3, 1.5318704e+2, -1188136.1, -1431604.5, 160071.8, -0.2272348, -0.048861522, -1108767.9, 329994.7, 0.0000055355054, 10.002688, 9.999154 
2.8190407e+3, 1.6318029e+2, -1231980.9, -1331480.9, -55137.813, 0.010148959, -0.090573885, -1207466.3, 133359.63, 0.0000002527922, 10.001274, 9.999918 
2.8186983e+3, 1.7317605e+2, -1044431.06, -1045578.4, -57061.55, -0.13081573, -0.09876513, -987940.3, 254924.34, 0.0, 10.001356, 10.001122 
2.8183565e+3, 1.831713e+2, -1134015.6, -1206938.4, 17839.09, -0.2348947, -0.035911046, -1129885.5, 15024.083, 0.0, 10.000746, 9.999666 
2.8180167e+3, 1.9316415e+2, -1156069.1, -1095229.1, 10096.98, -0.21416238, -0.24734396, -1093597.1, -46617.957, 0.0, 9.999666, 10.000251 
2.817678e+3, 2.031587e+2, -1048218.75, -777800.06, 19743.57, -0.14295839, -0.3033447, -776366.2, 172662.25, 0.0, 9.998807, 10.002159 
2.8173396e+3, 2.1315575e+2, -624193.9, -359646.53, 73887.695, -0.038735848, -0.43574277, -340408.75, 510637.28, 0.0, 10.000391, 10.003562 
2.8170016e+3, 2.2315162e+2, -777055.8, -936823.8, 190344.03, 0.07163902, -0.40502912, -650512.3, 102567.33, 0.0, 10.000986, 9.998698 
2.8166655e+3, 2.3314427e+2, -805816.6, -878072.06, 187513.0, 0.23725031, -0.4915492, -650982.75, 4171.3223, 0.0, 10.000091, 9.998812 
2.8163278e+3, 2.4313833e+2, -782250.2, -743400.06, 193550.25, 0.23888765, -0.39707193, -568302.56, -11089.684, 0.0, 9.999193, 9.99954 
2.8159878e+3, 2.5313395e+2, -530755.9, -413807.5, 150387.8, -0.015805313, -0.3846784, -310925.8, 148326.44, 0.0, 9.999632, 10.000872 
2.8156483e+3, 2.6312876e+2, -637944.5, -764602.06, 12957.35, -0.109118395, -0.27052194, -636632.5, -275330.03, 0.0, 9.999682, 9.997818 
2.815309e+3, 2.7312058e+2, -436998.5, -552810.9, -52445.93, 0.09229395, -0.40032515, -416778.5, -153390.64, 0.0, 10.000138, 9.998354 
2.814969e+3, 2.8311384e+2, -423271.25, -588747.3, 20329.742, 0.18383941, -0.28283614, -420810.22, -255351.7, 0.0, 9.999919, 9.997559 
2.8146303e+3, 2.9310882e+2, -259157.16, -328708.2, 9445.376, 0.13401169, -0.12731688, -257897.25, -190386.22, 0.0, 9.999842, 9.99867 
2.8142914e+3, 3.0310264e+2, -156674.55, -118408.05, -26645.36, 0.16165103, -0.07252853, -104738.0, -104738.0, 0.0, 9.999367, 9.999721 
2.8139564e+3, 3.1309313e+2, -117811.5, 115597.22, 7258.846, 0.62844414, -0.6651412, 115822.75, 115822.75, 0.0, 9.99847, 10.001412 
2.813614e+3, 3.2308972e+2, -675095.6, -152714.77, 122286.586, 0.16785777, -0.49015045, -125505.38, -125505.38, 0.0, 9.994744, 10.0012665 
2.8300482e+3, 1.3353966e+2, -1367615.0, -1973106.6, -212614.89, -0.51492983, -0.16907182, -1300414.6, 330882.2, 0.00005058897, 10.004352, 9.995835 
2.8297105e+3, 1.4353591e+2, -1090871.1, -1636576.3, 51184.563, -0.16345373, 0.30606696, -1086111.8, 447234.34, 0.000015386415, 10.00482, 9.997436 
2.829373e+3, 1.5352556e+2, -1257029.5, -1478952.9, 147608.67, -0.1940575, -0.123016685, -1183327.1, 252115.67, 0.0000020566958, 10.002288, 9.999012 
2.829035e+3, 1.6351828e+2, -1255990.9, -1235916.5, -25030.555, -0.16293354, -0.24756935, -1218985.6, 118523.65, 0.00000005936716, 10.0006275, 10.000885 
2.828693e+3, 1.7351553e+2, -1085018.6, -995261.0, -3664.887, -0.20075785, -0.17180158, -995111.56, 244420.3, 0.0, 10.00072, 10.001796 
2.8283522e+3, 1.8351167e+2, -1081861.3, -1120954.1, 27404.426, -0.23125914, -0.078547284, -1067746.6, 73819.83, 0.0, 10.000795, 10.000256 
2.8280124e+3, 1.9350484e+2, -923986.4, -967499.1, 86661.81, -0.19108163, -0.27112108, -856391.75, 187240.69, 0.0, 10.001141, 10.000447 
2.8276736e+3, 2.0349927e+2, -735366.4, -756868.1, 65760.81, -0.1133565, -0.30155587, -679483.44, 266201.94, 0.0, 10.001437, 10.001074 
2.827336e+3, 2.1349524e+2, -520492.44, -518349.28, -45520.88, -0.021509912, -0.34258208, -473887.38, 373834.16, 0.0, 10.001915, 10.0017805 
2.8269985e+3, 2.234909e+2, -527149.4, -678772.3, -117492.96, 0.09769306, -0.31035662, -463132.47, 286627.34, 0.0, 10.00203, 9.999986 
2.8266618e+3, 2.3348485e+2, -540487.4, -629525.44, -32290.105, 0.2878736, -0.39222446, -530010.06, 121805.15, 0.0, 10.001275, 9.999997 
2.8263232e+3, 2.4347891e+2, -573829.2, -697118.06, 40561.043, 0.2868899, -0.36287838, -561681.75, -7809.8213, 0.0, 10.000792, 9.99911 
2.825983e+3, 2.5347245e+2, -423060.9, -541347.8, -21897.307, -0.026015617, -0.4125885, -419137.4, 36799.52, 0.0, 10.001016, 9.99939 
2.8256428e+3, 2.6346648e+2, -388472.9, -516277.13, -163685.9, -0.1395063, -0.35995266, -276657.75, 81338.65, 0.0, 10.000766, 9.999007 
2.825303e+3, 2.734602e+2, -410175.47, -435818.66, -110901.6, 0.07937369, -0.3935324, -311356.75, -51297.93, 0.0, 9.999828, 9.99931 
2.8249636e+3, 2.8345433e+2, -437182.28, -512727.97, 107187.65, 0.20017485, -0.2840365, -361306.63, -199187.61, 0.0, 9.999352, 9.998396 
2.8246242e+3, 2.9344893e+2, -256387.13, -346254.16, 135502.03, 0.09502809, -0.1481713, -158562.73, -94385.85, 0.0, 9.99979, 9.99864 
2.8242853e+3, 3.0344272e+2, -67470.76, -46096.906, 74311.54, 0.13888913, -0.0969994, 18292.232, 18292.232, 0.0, 9.999716, 10.000086 
2.8239515e+3, 3.134339e+2, -61067.13, 81609.695, -42352.73, 0.7752052, -0.57861644, 93234.664, 93234.664, 0.0, 9.998953, 10.001002 
2.8236055e+3, 3.234285e+2, -404085.1, -328618.16, -126464.766, 0.26669332, -0.47550064, -234377.56, -234377.56, 0.0, 9.997702, 9.998724 
2.8400478e+3, 1.3387771e+2, -1218337.9, -1711696.4, -120401.41, -0.4516277, -0.20190123, -1190522.8, 437462.47, 0.000026717651, 10.004405, 9.997683 
2.8397143e+3, 1.4387587e+2, -1142912.3, -1577099.0, -7581.912, 0.33652613, 0.3449649, -1142780.0, 387231.0, 0.000008259606, 10.004042, 9.998231 
2.83937e+3, 1.5386434e+2, -1208978.8, -1444165.3, 36250.855, -0.13295828, -0.22919895, -1203518.0, 228600.16, 0.0000013335809, 10.002506, 9.999164 
2.8390282e+3, 1.6385698e+2, -1143531.1, -1127272.1, -33418.42, -0.31506622, -0.39440066, -1101008.6, 233175.94, 0.000000073245815, 10.001235, 10.001305 
2.8386885e+3, 1.7385517e+2, -1019665.0, -950940.94, -61813.12, -0.1734619, -0.25678542, -914580.9, 321616.7, 0.0, 10.001159, 10.00187 
2.8383487e+3, 1.8385217e+2, -1031731.44, -1044250.7, -11699.007, -0.093107186, -0.09997928, -1024722.7, 113500.164, 0.0, 10.000985, 10.000645 
2.8380084e+3, 1.9384618e+2, -891276.1, -914985.3, 7.9962316, -0.107349135, -0.28490004, -891276.1, 149002.72, 0.0, 10.001264, 10.000706 
2.83767e+3, 2.0384051e+2, -976354.7, -1215452.3, 32737.234, -0.050430525, -0.20965771, -971953.3, -29615.512, 0.0, 10.001327, 9.997953 
2.8373334e+3, 2.1383461e+2, -920422.8, -1131445.0, -41112.324, 0.11025007, -0.10720981, -912696.06, -68287.89, 0.0, 10.00107, 9.997941 
2.836996e+3, 2.2382987e+2, -621480.75, -554212.56, -104493.87, 0.24488403, 0.04463612, -478073.16, 268383.53, 0.0, 10.000748, 10.001438 
2.8366575e+3, 2.3382571e+2, -524642.1, -384904.66, -64776.15, 0.33641008, -0.09693638, -359497.0, 288987.0, 0.0, 10.000441, 10.0020685 
2.8363183e+3, 2.4381937e+2, -783308.9, -965261.3, 52733.75, 0.2874623, -0.14614838, -769130.3, -218589.08, 0.0, 10.000173, 9.997555 
2.8359792e+3, 2.538088e+2, -699096.3, -900218.56, -5009.5303, 0.08078192, -0.44871235, -698971.6, -246319.06, 0.0, 10.000212, 9.997289 
2.835639e+3, 2.6380226e+2, -387494.1, -265750.03, -187550.8, 0.00040687603, -0.42028573, -129440.16, 225277.72, 0.0, 9.999846, 10.001111 
2.8352976e+3, 2.738005e+2, -346571.56, -109591.34, -142691.5, 0.12782635, -0.310974, -42607.004, 214119.14, 0.0, 9.999116, 10.001843 
2.8349572e+3, 2.8379637e+2, -469707.03, -405747.06, 123203.914, 0.19106519, -0.20837374, -310440.28, -151679.16, 0.0, 9.998724, 9.9993925 
2.8346187e+3, 2.9378766e+2, -319302.78, -292720.4, 163708.23, 0.1058117, -0.5172944, -141764.7, -80919.625, 0.0, 9.999107, 9.999312 
2.834279e+3, 3.0378118e+2, -329995.1, -367293.03, 52902.51, 0.083602004, -0.44888204, -292550.75, -292550.75, 0.0, 9.998938, 9.998188 
2.8339428e+3, 3.137767e+2, -427335.0, -377030.84, -65206.6, 0.5711245, -0.2912285, -332293.5, -332293.5, 0.0, 9.997839, 9.998323 
2.833597e+3, 3.2376823e+2, -540139.2, -398028.4, -91204.89, 0.1464961, -0.39143932, -353467.2, -353467.2, 0.0, 9.997066, 9.998418 
2.850047e+3, 1.3421625e+2, -1261919.6, -1618661.9, -207682.95, -0.46195054, -0.18783998, -1166523.6, 458140.22, 0.000013313982, 10.003598, 9.998738 
2.8497106e+3, 1.4421013e+2, -1216395.1, -1486322.6, -51904.707, 0.11279182, -0.16051517, -1206758.4, 319965.0, 0.0000038169696, 10.002986, 9.999366 
2.8493682e+3, 1.5420449e+2, -1124865.4, -1339411.9, 50671.027, -0.09078662, -0.22803447, -1113500.1, 315278.06, 0.0000005153316, 10.002775, 9.999771 
2.8490272e+3, 1.641988e+2, -1017158.25, -1177598.5, -56739.156, -0.13845001, -0.21414772, -999120.5, 331711.66, 0.00000002542409, 10.002579, 10.000299 
2.848686e+3, 1.7419335e+2, -954895.5, -1084580.1, -101506.15, -0.08841108, -0.2933337, -899288.56, 333594.2, 0.0, 10.002304, 10.0004 
2.8483453e+3, 1.841886e+2, -843296.56, -1000852.9, -110112.66, -0.0940056, -0.22316995, -786683.5, 348244.1, 0.0, 10.002421, 10.000263 
2.8480053e+3, 1.9418357e+2, -696003.0, -874446.3, -105269.91, -0.14007753, -0.26018703, -647231.0, 389744.8, 0.0, 10.00274, 10.000298 
2.847666e+3, 2.0417847e+2, -783935.2, -1030068.94, -115713.98, -0.10576517, -0.16276503, -738078.5, 200950.56, 0.0, 10.0022, 9.998815 
2.8473282e+3, 2.1417233e+2, -966601.25, -1081850.6, -6125.0117, 0.037190694, -0.1383603, -966276.6, -125178.14, 0.0, 10.000351, 9.998656 
2.8469905e+3, 2.2416751e+2, -718590.1, -565400.06, 43880.28, 0.17982985, -0.043058425, -553721.25, 189426.81, 0.0, 9.999889, 10.001775 
2.8466523e+3, 2.3416372e+2, -384422.16, -317793.63, -953.2132, 0.25786996, -0.108282775, -317780.0, 327396.34, 0.0, 10.001305, 10.002142 
2.8463137e+3, 2.4415854e+2, -456034.25, -639776.75, 48583.145, 0.2493795, -0.12064752, -443979.34, 103244.09, 0.0, 10.001572, 9.999162 
2.8459746e+3, 2.5415054e+2, -599110.44, -689794.75, 188324.1, 0.123866335, -0.27822298, -450746.97, -1439.5951, 0.0, 10.000056, 9.998866 
2.845634e+3, 2.641444e+2, -444586.8, -271124.7, 58939.57, 0.071534604, -0.29174736, -252993.22, 98374.28, 0.0, 9.99925, 10.0014105 
2.8452915e+3, 2.7414104e+2, -217098.0, -55158.91, -86055.445, 0.11770016, -0.26526645, -17969.209, 235421.94, 0.0, 9.999909, 10.001904 
2.8449515e+3, 2.841364e+2, -170001.14, -202186.55, 56315.0, 0.16896631, -0.2520455, -127524.625, 27904.934, 0.0, 10.000418, 10.000013 
2.8446135e+3, 2.9412833e+2, -62573.59, -110446.28, 42120.813, 0.15013802, -0.52708733, -38062.938, 19441.46, 0.0, 10.000528, 9.999909 
2.844274e+3, 3.0412185e+2, -88250.81, -295381.22, -48947.727, 0.15668277, -0.49558455, -77266.33, -77266.33, 0.0, 10.0006485, 9.997916 
2.8439364e+3, 3.1411785e+2, -53735.086, -295246.63, -50197.76, 0.5464259, -0.19298963, -43717.117, -43717.117, 0.0, 10.00068, 9.997595 
2.8435907e+3, 3.2410845e+2, -4714.3457, -253327.6, -67355.08, 0.16072075, -0.28123945, 12360.938, 12360.938, 0.0, 10.000935, 9.997678 
2.8600466e+3, 1.3455455e+2, -1240691.6, -1504594.6, -183560.06, -0.31818667, -0.26072806, -1146577.9, 474766.8, 0.0000059672334, 10.0033, 9.999659 
2.859705e+3, 1.4454511e+2, -1295418.1, -1424992.0, 7312.903, -0.13203916, -0.6301357, -1295006.6, 228422.3, 0.0000015122073, 10.002054, 10.000215 
2.8593668e+3, 1.545453e+2, -1106898.6, -1272835.1, 21087.291, 0.07155179, -0.18546565, -1104260.8, 321172.03, 0.0000000966577, 10.002664, 10.000268 
2.8590274e+3, 1.6454081e+2, -1120363.0, -1388988.8, -71389.25, 0.19217353, -0.010268641, -1102569.4, 224910.06, 0.00000000026919006, 10.002573, 9.998862 
2.858684e+3, 1.745311e+2, -1178641.4, -1392455.5, -89803.88, 0.07039348, -0.3632713, -1145928.1, 83646.36, 0.0, 10.001636, 9.998612 
2.8583422e+3, 1.8452446e+2, -1032680.75, -1148852.5, -12033.82, -0.06767455, -0.34922355, -1031447.3, 100192.984, 0.0, 10.001483, 9.999675 
2.8580025e+3, 1.945205e+2, -894519.4, -1050021.9, -38791.68, -0.12665541, -0.22042938, -885379.6, 148301.61, 0.0, 10.001842, 9.999496 
2.8576627e+3, 2.0451602e+2, -746928.56, -788501.75, -109296.62, -0.100817785, -0.09691068, -656459.5, 279266.16, 0.0, 10.001528, 10.000792 
2.857322e+3, 2.145098e+2, -919713.1, -846515.4, -74548.99, -0.0036527691, -0.31290418, -800065.9, 37719.355, 0.0, 9.999774, 10.00057 
2.8569835e+3, 2.2450459e+2, -897768.44, -777487.0, 97056.15, 0.08756637, -0.30354065, -723448.9, 16387.861, 0.0, 9.999288, 10.000549 
2.856647e+3, 2.345e+2, -677200.4, -644542.75, 43837.64, 0.18551844, -0.33660322, -614091.56, 27792.027, 0.0, 10.000236, 10.000343 
2.856309e+3, 2.4449764e+2, -414150.66, -233399.1, 8469.732, 0.20854439, -0.12630144, -233003.08, 310903.13, 0.0, 10.000386, 10.00241 
2.855969e+3, 2.544965e+2, -534418.7, -279447.9, 109044.86, 0.14327908, 0.00039881287, -239173.63, 206740.64, 0.0, 9.999014, 10.002103 
2.8556275e+3, 2.6449135e+2, -712350.4, -685449.75, 49210.035, 0.09249406, 0.03894192, -647884.94, -299922.06, 0.0, 9.998734, 9.99877 
2.8552854e+3, 2.7448115e+2, -543868.8, -584849.6, -68782.984, 0.07559141, -0.35727707, -492589.06, -242527.44, 0.0, 9.999321, 9.998538 
2.8549457e+3, 2.8447467e+2, -318314.34, -300690.56, 62160.17, 0.12185474, -0.3244928, -246720.8, -94597.72, 0.0, 9.999705, 9.9996 
2.854609e+3, 2.9447103e+2, -231230.83, -236276.05, 46250.3, 0.18635736, -0.16543214, -187434.39, -133278.61, 0.0, 9.999705, 9.999388 
2.8542703e+3, 3.0446455e+2, -111918.64, -160003.34, -62931.27, 0.25056258, -0.16125062, -68593.49, -68593.49, 0.0, 10.000031, 9.99906 
2.8539318e+3, 3.1445518e+2, -171062.7, -252302.16, -30583.826, 0.5678946, -0.5663983, -160836.27, -160836.27, 0.0, 9.999626, 9.998321 
2.8535873e+3, 3.2444915e+2, -132968.5, -356304.34, 63410.414, 0.16841982, -0.35532904, -116220.67, -116220.67, 0.0, 10.00047, 9.997105 
2.8700465e+3, 1.3489696e+2, -1193535.5, -1174213.1, -347485.97, -0.10296845, -0.15053001, -836254.06, 781742.56, 0.0000021514043, 10.002271, 10.002444 
2.869698e+3, 1.4488934e+2, -1573113.6, -1701558.0, 128609.77, -0.4377306, -0.4012182, -1493582.6, 26471.375, 0.00000043033984, 10.000756, 9.998939 
2.869365e+3, 1.5488537e+2, -1270555.8, -1538446.5, 99292.55, 0.10564816, -0.21249907, -1237766.8, 184337.5, 0.000000019645139, 10.002309, 9.998634 
2.8690258e+3, 1.6488005e+2, -1046216.6, -1230248.5, -136507.16, 0.2816703, -0.094867505, -973608.3, 350552.34, 0.0, 10.002554, 9.999958 
2.8686783e+3, 1.7487289e+2, -1235990.3, -1320684.9, -35926.39, -0.12695168, -0.26961443, -1222803.8, 3424.6467, 0.0, 10.000776, 9.99953 
2.8683355e+3, 1.8486711e+2, -1140828.0, -1148352.0, 155093.83, -0.28478667, -0.2377218, -989450.56, 138833.3, 0.0, 10.000418, 10.000231 
2.8679985e+3, 1.9486219e+2, -986339.1, -1075949.4, 216992.17, -0.15349543, -0.20451277, -809574.6, 220757.77, 0.0, 10.000984, 9.999804 
2.8676596e+3, 2.0485698e+2, -774850.1, -820943.9, 42813.5, -0.0069558574, -0.14665262, -749274.44, 183108.33, 0.0, 10.001392, 10.000628 
2.867319e+3, 2.1485075e+2, -708695.75, -778600.94, -5567.0703, 0.11186559, -0.2921265, -708255.2, 126186.91, 0.0, 10.001288, 10.000326 
2.866979e+3, 2.2484529e+2, -676293.56, -676509.56, 127020.37, 0.14697002, -0.29923025, -549381.2, 187114.42, 0.0, 10.000718, 10.000601 
2.866641e+3, 2.348404e+2, -782292.9, -706255.9, 150429.13, 0.10918526, -0.3154145, -589115.4, 49430.465, 0.0, 9.99942, 10.000372 
2.8663024e+3, 2.4483761e+2, -605478.75, -316487.44, 41222.92, 0.13333195, -0.15190852, -310722.25, 229851.23, 0.0, 9.998917, 10.002586 
2.8659633e+3, 2.548366e+2, -445242.84, -220079.95, -66530.266, 0.1811921, 0.011808438, -201891.16, 240690.31, 0.0, 9.99942, 10.002359 
2.865623e+3, 2.648316e+2, -422691.34, -554007.94, -109836.48, 0.17728454, 0.025244638, -360384.53, -15756.382, 0.0, 10.000646, 9.998791 
2.8652814e+3, 2.7482128e+2, -78783.21, -386792.88, -52311.973, 0.12224284, -0.34598625, -70141.09, 176586.5, 0.0, 10.002485, 9.998412 
2.864942e+3, 2.8481445e+2, 56719.71, -124566.96, 96817.94, 0.15925793, -0.3430921, 98703.41, 247497.3, 0.0, 10.002246, 9.9996 
2.8646043e+3, 2.9481125e+2, -164625.39, -218128.92, 60395.727, 0.24442619, -0.091981165, -125321.875, -74497.016, 0.0, 10.000121, 9.999343 
2.864265e+3, 3.0480516e+2, -36449.945, 12344.423, -7536.923, 0.3060016, -0.108115986, 13482.074, 13482.074, 0.0, 9.9998455, 10.000384 
2.8639266e+3, 3.1479546e+2, 179242.16, 73553.62, -20484.96, 0.53438145, -0.62139213, 183073.72, 183073.72, 0.0, 10.001193, 9.99987 
2.8635836e+3, 3.247912e+2, 253401.39, -191789.78, 119702.41, 0.17079082, -0.2871451, 283545.72, 283545.72, 0.0, 10.003025, 9.997069 
2.8800446e+3, 1.3524012e+2, -1081039.5, -895459.0, -428731.6, 0.037218135, -0.054540075, -549591.3, 1065048.1, 0.00000033823923, 10.002018, 10.004494 
2.8796926e+3, 1.4523481e+2, -1303069.6, -1739187.0, 145933.81, -0.5712914, -0.085925505, -1258742.6, 257928.0, 0.000000039050374, 10.003341, 9.997435 
2.8793624e+3, 1.552255e+2, -1507917.6, -1848593.5, 153126.55, 0.21240404, -0.2581007, -1449208.1, -30431.197, 0.0000000006124831, 10.001528, 9.996897 
2.8790227e+3, 1.6521956e+2, -1160543.8, -1123118.9, -119806.195, 0.3317308, -0.1872409, -1020572.6, 300267.22, 0.0, 10.001099, 10.001356 
2.8786713e+3, 1.7521615e+2, -1134639.8, -1139537.1, -89453.33, -0.30040792, -0.13864402, -1047601.6, 175266.56, 0.0, 10.000911, 10.000696 
2.8783286e+3, 1.8521161e+2, -1049691.5, -1029938.94, 168957.27, -0.44992742, -0.076262936, -870569.56, 254338.98, 0.0, 10.000851, 10.0007925 
2.8779948e+3, 1.9520551e+2, -1017646.25, -1050503.9, 166123.48, -0.069483645, -0.23705646, -867141.2, 159823.64, 0.0, 10.000702, 10.0000925 
2.877657e+3, 2.0519969e+2, -966757.9, -1076387.9, 7718.6997, 0.19114201, -0.1805852, -966217.06, -37195.97, 0.0, 10.0008955, 9.999086 
2.8773168e+3, 2.1519348e+2, -924934.75, -1085575.0, -37623.477, 0.368316, -0.18309872, -916559.6, -85475.71, 0.0, 10.000809, 9.998419 
2.8769758e+3, 2.2518805e+2, -714839.56, -614836.2, 72452.47, 0.3220673, -0.12517978, -576806.44, 156329.95, 0.0, 10.000247, 10.001212 
2.8766343e+3, 2.3518315e+2, -925050.9, -760377.25, 69682.875, 0.093373165, -0.21765903, -734848.2, -99666.625, 0.0, 9.998521, 10.000404 
2.8762951e+3, 2.451781e+2, -858254.8, -710193.25, 53082.043, 0.08728299, -0.15574433, -693129.25, -155896.88, 0.0, 9.99844, 10.000104 
2.875958e+3, 2.5517237e+2, -768741.8, -701942.75, -46013.492, 0.27314913, -0.22656515, -678484.8, -239191.69, 0.0, 9.9987135, 9.999385 
2.8756192e+3, 2.6516753e+2, -385481.72, -295290.97, -34439.813, 0.3119588, -0.1508149, -283644.0, 57694.09, 0.0, 10.000005, 10.000826 
2.8752792e+3, 2.7516225e+2, -144390.86, -232922.34, 18921.21, 0.24301402, -0.25147608, -140516.52, 102864.516, 0.0, 10.0013685, 9.999973 
2.874939e+3, 2.851557e+2, -75754.75, -236257.34, 15684.533, 0.23804976, -0.2800549, -74236.4, 71206.21, 0.0, 10.001611, 9.999111 
2.874599e+3, 2.9514766e+2, -386721.63, -438215.0, -10283.845, 0.2739858, -0.4863173, -384743.78, -337220.28, 0.0, 9.999163, 9.998288 
2.8742597e+3, 3.051428e+2, -105335.13, 71636.38, 28440.967, 0.29047018, -0.36402154, 76094.79, 76094.79, 0.0, 9.999137, 10.001091 
2.8739217e+3, 3.1513974e+2, -85291.9, -96734.92, 39593.11, 0.46528473, -0.28951633, -51009.035, -51009.035, 0.0, 9.999699, 9.999404 
2.8735784e+3, 3.2513335e+2, 109386.13, -115382.28, 301878.28, -0.15953536, -0.29236168, 319121.0, 319121.0, 0.0, 10.00175, 9.998051 
2.890037e+3, 1.3558082e+2, -1416338.4, -1451353.1, -45025.492, -0.39946702, -0.15531553, -1385536.4, 225759.77, 0.0000000028010363, 10.001444, 10.000953 
2.889694e+3, 1.4557593e+2, -879079.1, -1343888.4, -67005.77, -0.43768594, -0.06283847, -869612.56, 643724.4, 0.0, 10.005444, 9.999118 
2.8893548e+3, 1.5556848e+2, -1633641.4, -1730026.3, 76415.36, -0.13716467, -0.20783786, -1591491.0, -176072.58, 0.0, 9.999859, 9.998523 
2.8890136e+3, 1.6556346e+2, -1436882.1, -1286125.8, 33952.496, -0.012149802, -0.116711736, -1278832.1, 38637.62, 0.0, 9.999272, 10.001137 
2.8886688e+3, 1.7556028e+2, -970779.6, -1095181.1, 37656.535, -0.23578846, -0.005841617, -960268.94, 259228.1, 0.0, 10.0021105, 10.000448 
2.888328e+3, 1.855544e+2, -833923.56, -1083575.5, 95097.43, -0.21417865, 0.0034814724, -801825.9, 319726.56, 0.0, 10.0029125, 9.999465 
2.8879917e+3, 1.9554625e+2, -984419.8, -1168882.1, 40738.734, 0.040201403, -0.21158059, -975823.25, 47807.73, 0.0, 10.001396, 9.998986 
2.8876528e+3, 2.0553981e+2, -881303.2, -1000772.9, -83090.79, 0.17591885, -0.20172322, -838703.6, 86988.73, 0.0, 10.001261, 9.999448 
2.8873113e+3, 2.1553408e+2, -674835.94, -912498.2, -20620.969, 0.17780328, -0.17714798, -673060.0, 154687.02, 0.0, 10.002175, 9.998983 
2.8869703e+3, 2.2552839e+2, -479859.34, -578023.94, -4506.9424, 0.1769147, -0.14687599, -479652.84, 250147.6, 0.0, 10.002078, 10.000622 
2.886629e+3, 2.3552273e+2, -590487.4, -641072.25, -42824.793, 0.10903112, -0.23648673, -566043.8, 65809.32, 0.0, 10.000822, 10.000171 
2.8862906e+3, 2.4551703e+2, -510723.38, -594437.25, 41544.773, 0.16873951, -0.22736357, -493605.97, 40303.586, 0.0, 10.000948, 9.999739 
2.8859535e+3, 2.555105e+2, -274572.94, -495440.03, 55114.402, 0.31584, -0.3026016, -261583.77, 174393.77, 0.0, 10.002077, 9.999252 
2.8856152e+3, 2.6550537e+2, -162491.45, -175891.64, 6012.7153, 0.35959226, -0.2531933, -160189.11, 177837.36, 0.0, 10.00143, 10.000966 
2.8852752e+3, 2.7550116e+2, -365313.9, -300977.13, -76166.37, 0.28633562, -0.22763446, -250464.67, -10403.441, 0.0, 9.999583, 10.000383 
2.8849342e+3, 2.8549525e+2, -358846.75, -333458.44, -123653.78, 0.25832185, -0.25307363, -221848.94, -79731.59, 0.0, 9.999332, 9.999596 
2.8845933e+3, 2.954872e+2, -186946.08, -267836.88, -68141.45, 0.26709732, -0.4850128, -148150.78, -103952.67, 0.0, 10.000056, 9.999076 
2.884254e+3, 3.0548215e+2, 20541.781, 36480.246, 2809.4663, 0.33059794, -0.38606554, 36960.97, 36960.97, 0.0, 10.000337, 10.0003395 
2.8839177e+3, 3.1547984e+2, -24974.318, -88994.97, -99709.62, 0.5942578, -0.12101852, 47737.215, 47737.215, 0.0, 10.000086, 9.999359 
2.8835753e+3, 3.2547417e+2, -24829.838, 162179.13, 134508.42, -0.05858388, -0.15115003, 232490.39, 232490.39, 0.0, 9.9990635, 10.001469 
2.9000312e+3, 1.3592115e+2, -1606913.8, -1957574.5, 378350.44, -0.6208204, -0.30111817, -1365243.3, 242715.19, 0.00000000011876347, 10.0018635, 9.997324 
2.8996947e+3, 1.459165e+2, -1225279.3, -1288879.5, -189160.66, -0.20274316, -0.11788637, -1065264.4, 444744.5, 0.0, 10.002108, 10.001123 
2.899346e+3, 1.5591218e+2, -1501056.3, -1460656.8, -98030.055, -0.43028167, -0.15384117, -1380767.0, 31284.97, 0.0, 9.999895, 10.0003605 
2.8990048e+3, 1.659082e+2, -1375745.1, -1318314.1, 125080.89, -0.27517256, -0.014568914, -1218694.9, 95395.04, 0.0, 10.000052, 10.000501 
2.8986678e+3, 1.7590424e+2, -1148112.8, -1291320.1, 116655.12, 0.030342743, 0.07552083, -1082838.8, 133287.88, 0.0, 10.001424, 9.999428 
2.898329e+3, 1.8589677e+2, -1102418.6, -1417868.8, 83548.305, 0.16165273, 0.07417864, -1081657.0, 36543.76, 0.0, 10.00197, 9.997595 
2.8979895e+3, 1.9588657e+2, -1192652.4, -1465430.5, 46392.348, 0.25523287, -0.18042164, -1184978.3, -164674.52, 0.0, 10.000863, 9.997161 
2.8976476e+3, 2.0587943e+2, -874828.9, -890858.94, 21239.783, 0.12974334, -0.20751356, -860142.2, 62228.082, 0.0, 10.000905, 10.000322 
2.8973046e+3, 2.1587397e+2, -823776.2, -925396.9, 33329.555, -0.10446873, -0.25861207, -813820.2, 10596.37, 0.0, 10.000985, 9.999431 
2.8969643e+3, 2.2586784e+2, -705734.2, -805835.9, -9855.277, -0.045700923, -0.24074557, -704773.2, 21700.453, 0.0, 10.001177, 9.999421 
2.896625e+3, 2.358609e+2, -849186.06, -932285.2, -54961.83, 0.22056657, -0.35321736, -821835.9, -193294.47, 0.0, 9.999866, 9.998599 
2.8962874e+3, 2.4585551e+2, -557041.44, -512619.2, 113983.016, 0.32987282, -0.2848381, -418703.4, 111889.31, 0.0, 10.00034, 10.00049 
2.89595e+3, 2.5585058e+2, -474522.66, -565462.25, 94253.09, 0.34796622, -0.30443442, -415344.72, 17294.285, 0.0, 10.000752, 9.999331 
2.8956103e+3, 2.6584443e+2, -395166.38, -479833.94, -46622.31, 0.3176104, -0.26754645, -374525.66, -39824.598, 0.0, 10.000761, 9.999147 
2.8952685e+3, 2.7583727e+2, -628468.9, -657291.1, -129939.89, 0.24677886, -0.38569683, -512143.4, -275368.2, 0.0, 9.99886, 9.998268 
2.8949273e+3, 2.858332e+2, -325694.53, -119329.945, -108891.17, 0.16661529, -0.21452934, -72499.33, 66317.375, 0.0, 9.998866, 10.001242 
2.8945863e+3, 2.9583052e+2, -280878.88, -228149.6, -33033.95, 0.099399544, -0.0811475, -212249.17, -171405.56, 0.0, 9.999195, 9.999718 
2.8942466e+3, 3.0582508e+2, -110467.98, -282882.25, -10299.479, 0.11752279, 0.05468204, -109854.9, -109854.9, 0.0, 10.000751, 9.997759 
2.893909e+3, 3.1581855e+2, -320676.06, -654025.2, -83385.92, 0.23178817, 0.15745124, -300981.06, -300981.06, 0.0, 10.000098, 9.995345 
2.8935748e+3, 3.2580584e+2, -330800.47, 565145.5, -39125.418, 0.5636167, -0.7597799, 566850.9, 566850.9, 0.0, 9.995067, 10.005816 
2.910029e+3, 1.362662e+2, -1671092.3, -1821544.9, 49578.79, -0.53416127, -0.012215462, -1656223.9, -51641.246, 0.0000000000007792345, 10.000678, 9.998856 
2.9096913e+3, 1.4625911e+2, -1793531.9, -1552815.8, -107027.97, 0.065774545, -0.14071165, -1512111.5, -5456.3496, 0.0, 9.998127, 10.001254 
2.9093423e+3, 1.5625627e+2, -1440270.9, -1431428.6, -49604.363, -0.30919066, -0.031097516, -1386048.8, 22631.924, 0.0, 10.000268, 10.000407 
2.9090005e+3, 1.6625106e+2, -1219738.8, -1251983.4, 97885.58, -0.27724624, -0.021879243, -1136656.6, 174071.16, 0.0, 10.001146, 10.000426 
2.908662e+3, 1.7624435e+2, -1264330.0, -1354452.4, 125243.734, -0.13963675, -0.19007197, -1176287.8, 36501.383, 0.0, 10.000586, 9.999419 
2.908324e+3, 1.8623783e+2, -1167300.4, -1346431.4, 128532.945, 0.06103727, -0.15181631, -1100204.8, 14649.022, 0.0, 10.001009, 9.998574 
2.9079857e+3, 1.9623108e+2, -1059380.6, -1303060.0, 212474.73, 0.27223957, -0.1296193, -936290.9, 80632.94, 0.0, 10.001255, 9.998117 
2.9076442e+3, 2.0622425e+2, -837482.4, -952624.9, 170612.84, 0.21019258, -0.12326897, -714989.2, 204000.69, 0.0, 10.001377, 9.999721 
2.907301e+3, 2.1621737e+2, -846028.2, -963213.25, 140262.47, -0.08268021, -0.23114084, -752612.0, 68441.21, 0.0, 10.000824, 9.999283 
2.9069597e+3, 2.2621061e+2, -735289.06, -821779.44, 90487.42, -0.043945722, -0.26252168, -678244.06, 44871.902, 0.0, 10.000912, 9.999477 
2.9066202e+3, 2.3620343e+2, -609336.6, -781287.7, 131203.2, 0.17688715, -0.3600103, -538448.9, 86734.74, 0.0, 10.001226, 9.999024 
2.9062825e+3, 2.4619794e+2, -429589.9, -460494.8, 291722.56, 0.29399443, -0.3068066, -152910.83, 374324.38, 0.0, 10.001112, 10.000531 
2.9059455e+3, 2.5619337e+2, -458114.75, -526166.75, 237161.06, 0.31547153, -0.25970438, -252551.22, 176726.6, 0.0, 10.000552, 9.999743 
2.905606e+3, 2.6618648e+2, -420596.9, -626143.25, 115874.23, 0.3347884, -0.24939461, -368485.72, -37136.637, 0.0, 10.000959, 9.998143 
2.9052645e+3, 2.7617797e+2, -218186.78, -516915.44, 79776.33, 0.31960377, -0.35936496, -198217.23, 35222.24, 0.0, 10.001757, 9.997891 
2.9049227e+3, 2.8617373e+2, 480.92816, 8125.386, 49798.844, 0.24202798, -0.16467753, 54248.47, 189733.36, 0.0, 10.001182, 10.001012 
2.9045802e+3, 2.9617202e+2, -248093.17, -149416.73, 43378.41, 0.107916445, 0.11762097, -133059.1, -95555.9, 0.0, 9.998953, 10.000403 
2.9200274e+3, 1.3661106e+2, -1654529.4, -1595280.1, -205780.34, -0.205729, 0.20333359, -1417002.9, 184204.94, 0.0, 9.999886, 10.00075 
2.9196864e+3, 1.4660278e+2, -1546879.6, -1474764.6, -6484.5723, 0.30534157, -0.11202962, -1474186.3, 29102.492, 0.0, 10.00002, 10.000845 
2.9193398e+3, 1.566003e+2, -1411347.9, -1473186.1, 13597.496, -0.010753138, 0.08129556, -1408490.0, -3180.8352, 0.0, 10.000712, 9.999903 
2.918997e+3, 1.6659316e+2, -1256486.1, -1303042.5, 71905.03, -0.16736428, -0.07138347, -1204185.1, 103187.93, 0.0, 10.001, 10.000178 
2.9186556e+3, 1.7658328e+2, -1343971.6, -1397600.0, 68474.73, -0.28741872, -0.53760237, -1297248.1, -87785.36, 0.0, 10.00009, 9.999378 
2.9183176e+3, 1.8657885e+2, -1108975.9, -1111295.3, 99826.22, -0.09189686, -0.40734026, -1010302.6, 101202.95, 0.0, 10.000638, 10.000304 
2.917982e+3, 1.9657682e+2, -1060287.9, -1207132.1, 137578.61, 0.36198094, -0.09403182, -977765.56, 35762.973, 0.0, 10.000871, 9.998964 
2.9176417e+3, 2.0657068e+2, -950409.06, -1136234.3, 102018.2, 0.3846086, 0.0021052775, -905334.5, 10256.948, 0.0, 10.001259, 9.998486 
2.917298e+3, 2.1656206e+2, -1039471.6, -1205588.5, 78300.375, 0.15584952, -0.17274638, -1008382.56, -190704.69, 0.0, 10.000232, 9.997902 
2.916956e+3, 2.2655483e+2, -770818.06, -775892.56, 83646.266, 0.07201642, -0.23444144, -689670.56, 30073.887, 0.0, 10.000466, 9.999974 
2.9166147e+3, 2.3654813e+2, -795024.8, -864747.44, 122049.31, 0.09239924, -0.35538983, -702955.6, -81153.15, 0.0, 10.000041, 9.998993 
2.9162768e+3, 2.4654266e+2, -580642.7, -580427.44, 259197.83, 0.16480978, -0.28311437, -321337.22, 202517.28, 0.0, 10.000405, 9.99999 
2.91594e+3, 2.5653765e+2, -685624.7, -737127.0, 201541.98, 0.27344114, -0.25085837, -508195.38, -82290.414, 0.0, 9.99955, 9.998754 
2.9156017e+3, 2.665311e+2, -519580.5, -675129.7, 138190.58, 0.39770535, -0.16322972, -438781.7, -110809.12, 0.0, 10.000493, 9.997918 
2.915262e+3, 2.7652338e+2, -431171.22, -707624.7, 114147.125, 0.46829757, -0.20499256, -390132.25, -160079.4, 0.0, 10.000817, 9.996992 
2.9149196e+3, 2.865167e+2, -267566.88, -406856.63, -7372.983, 0.39480785, -0.0816449, -267177.7, -135054.73, 0.0, 10.000705, 9.998319 
2.914573e+3, 2.9651016e+2, -498564.53, -349250.78, 169877.38, 0.014266363, -0.10966415, -238349.11, -204156.83, 0.0, 9.997745, 9.999577 
2.930024e+3, 1.369517e+2, -1778648.6, -1562722.5, -70294.05, 0.03494599, -0.07227191, -1541855.1, 56008.5, 0.0, 9.99865, 10.001576 
2.9296762e+3, 1.469467e+2, -1344817.3, -1438934.8, -20722.264, -0.31179672, -0.06516544, -1340456.8, 159454.3, 0.0, 10.001615, 10.00035 
2.9293343e+3, 1.5694124e+2, -1413760.5, -1553110.3, 15637.561, -0.15810488, -0.10919841, -1412027.1, -10064.092, 0.0, 10.000975, 9.999253 
2.928994e+3, 1.6693449e+2, -1373212.1, -1488310.6, 21328.518, -0.03215789, -0.130293, -1369386.9, -65358.668, 0.0, 10.000733, 9.999048 
2.9286525e+3, 1.7692658e+2, -1415730.3, -1517186.9, 17098.299, -0.10799583, -0.2809392, -1412926.1, -206821.3, 0.0, 9.999894, 9.998678 
2.928313e+3, 1.8692099e+2, -1108524.9, -1123485.3, 13482.803, -0.08789993, -0.23921543, -1100586.3, 7572.654, 0.0, 10.000667, 10.000222 
2.9279754e+3, 1.9691661e+2, -930567.56, -1100570.4, -15050.826, 0.032333795, -0.15135938, -929245.3, 80956.45, 0.0, 10.001515, 9.999396 
2.9276356e+3, 2.069115e+2, -757926.25, -969203.06, -78220.05, 0.14127357, -0.030693758, -732119.44, 180135.77, 0.0, 10.002228, 9.99919 
2.927294e+3, 2.1690546e+2, -681400.0, -938589.56, -19407.531, 0.13672331, -0.005849517, -679943.75, 134375.13, 0.0, 10.002135, 9.998876 
2.9269522e+3, 2.26899e+2, -499449.6, -560641.1, 6420.906, 0.12564956, -0.08307318, -498783.1, 217592.53, 0.0, 10.001783, 10.000917 
2.9266098e+3, 2.368924e+2, -566907.94, -657507.5, 79589.664, 0.062707506, -0.26691243, -520629.44, 97799.44, 0.0, 10.000984, 10.000044 
2.926272e+3, 2.468862e+2, -546953.25, -729531.2, 183911.84, 0.13650888, -0.237574, -432919.9, 87570.39, 0.0, 10.00121, 9.998654 
2.9259357e+3, 2.5688002e+2, -373268.22, -662270.2, 69760.81, 0.27305692, -0.17295437, -357310.16, 65246.99, 0.0, 10.001849, 9.998222 
2.9255974e+3, 2.6687348e+2, -129744.49, -445084.84, 40517.637, 0.32312167, -0.10460217, -124621.664, 200002.23, 0.0, 10.00286, 9.9984045 
2.9252577e+3, 2.768664e+2, 141172.45, -348101.53, 12926.44, 0.2865042, -0.124113046, 141513.73, 368208.2, 0.0, 10.004173, 9.9979105 
2.9249164e+3, 2.8685933e+2, -4713.041, -342631.06, -78929.15, 0.48663184, -0.059990328, 12813.76, 141578.6, 0.0, 10.002537, 9.998018 
2.9245663e+3, 2.968507e+2, -231719.78, -168538.25, 314410.25, -0.018576168, -0.21910919, 115864.305, 146716.63, 0.0, 9.999026, 10.000308 
2.9400182e+3, 1.3729231e+2, -1678881.0, -1496386.4, 66034.375, 0.121658735, -0.3141672, -1474998.9, 119519.46, 0.0, 9.999175, 10.001814 
2.9396668e+3, 1.4728981e+2, -1531978.9, -1566022.0, -55398.32, -0.82794863, -0.051840097, -1491046.1, 5494.56, 0.0, 10.000526, 9.999995 
2.9393294e+3, 1.5728177e+2, -1398135.1, -1611554.5, -38553.016, -0.20767279, -0.32079387, -1391384.3, 7236.6714, 0.0, 10.001421, 9.998628 
2.938991e+3, 1.6727617e+2, -1342246.1, -1598052.4, -4610.0015, 0.15510026, -0.13416179, -1342163.1, -41481.953, 0.0, 10.001562, 9.997856 
2.9386503e+3, 1.772711e+2, -1411510.5, -1656819.3, 26025.076, 0.25628135, 0.112978235, -1408779.9, -206042.52, 0.0, 10.000596, 9.997338 
2.9383087e+3, 1.8726328e+2, -1150165.5, -1233400.0, 94995.305, -0.015289525, 0.027753016, -1088071.1, 16742.666, 0.0, 10.000807, 9.999385 
2.9379678e+3, 1.9725437e+2, -1107717.8, -1241487.3, 43790.28, -0.2969573, -0.259941, -1094657.9, -87760.1, 0.0, 10.000628, 9.998835 
2.937629e+3, 2.0725048e+2, -810830.56, -838242.1, -49922.227, -0.1690248, -0.0960363, -772766.9, 136172.36, 0.0, 10.001283, 10.000489 
2.9372904e+3, 2.1724826e+2, -866590.94, -946785.94, -28599.639, 0.13774095, 0.18769763, -857436.56, -46470.15, 0.0, 10.000596, 9.999552 
2.9369488e+3, 2.272431e+2, -561298.25, -463410.8, -20755.568, 0.19631134, 0.13416755, -459191.75, 253816.63, 0.0, 10.000957, 10.001885 
2.9366058e+3, 2.372364e+2, -750058.5, -762465.7, 44510.016, 0.15373144, -0.17448744, -711321.8, -96261.91, 0.0, 9.999954, 9.999754 
2.9362682e+3, 2.472288e+2, -776855.1, -1049991.8, 196279.06, 0.19449367, -0.1599278, -674307.6, -157169.33, 0.0, 10.000714, 9.996598 
2.935932e+3, 2.572211e+2, -679446.56, -997539.4, 108467.9, 0.30733526, -0.07050783, -645980.5, -226755.13, 0.0, 10.000743, 9.9964075 
2.9355928e+3, 2.6721403e+2, -154266.44, -353886.4, 102554.445, 0.11081881, -0.04557234, -110970.0, 210327.14, 0.0, 10.002325, 9.999282 
2.9352513e+3, 2.77207e+2, -2394.2185, -321758.6, 28473.795, -0.21179622, -0.16446754, 124.57432, 223489.1, 0.0, 10.002931, 9.998662 
2.9349133e+3, 2.8720158e+2, 46222.496, -71716.13, -201964.48, 0.50845015, -0.1058124, 197650.52, 323061.8, 0.0, 10.002011, 10.000056 
2.9345608e+3, 2.9719436e+2, -344176.44, 5958.7085, 74496.734, 0.07495825, -0.31654713, 21149.955, 48623.574, 0.0, 9.997587, 10.002099 
2.9500088e+3, 1.376327e+2, -1730895.9, -1485476.8, -208444.63, -0.28814372, -0.2849903, -1366304.5, 224873.02, 0.0, 9.998649, 10.002171 
2.9496643e+3, 1.4762938e+2, -1708041.5, -1633141.3, -56317.88, -0.49039045, -0.14648454, -1602958.4, -109748.89, 0.0, 9.999252, 10.000156 
2.9493263e+3, 1.5762365e+2, -1337455.4, -1561862.5, -37307.05, -0.2018117, -0.19012342, -1331415.8, 63854.766, 0.0, 10.0016985, 9.998866 
2.9489863e+3, 1.6761799e+2, -1130042.5, -1435515.0, -49424.176, -0.0038459266, -0.060079064, -1122244.9, 175085.11, 0.0, 10.002685, 9.998465 
2.9486442e+3, 1.7761247e+2, -1106780.6, -1443891.6, 39658.95, -0.06939393, 0.09495745, -1102177.9, 97210.38, 0.0, 10.002317, 9.997996 
2.9483038e+3, 1.8760441e+2, -1038690.56, -1211093.9, 124685.59, -0.12392718, -0.026276954, -973309.8, 128156.96, 0.0, 10.001614, 9.999182 
2.9479647e+3, 1.975954e+2, -1154767.5, -1254403.5, 115836.53, -0.18394448, -0.2879245, -1078490.5, -74937.72, 0.0, 10.000147, 9.999009 
2.9476246e+3, 2.0759116e+2, -940038.8, -866072.2, 15801.581, -0.117394514, -0.17641859, -862837.94, 42758.566, 0.0, 10.000103, 10.000934 
2.9472837e+3, 2.1758857e+2, -895940.1, -915873.1, -1350.7169, -0.02979759, 0.050456055, -895849.0, -88223.375, 0.0, 10.000044, 10.000072 
2.9469436e+3, 2.275832e+2, -690578.56, -670207.56, -71986.14, 0.16150966, 0.03379184, -607689.94, 101984.6, 0.0, 10.000616, 10.000669 
2.9466033e+3, 2.3757662e+2, -568925.6, -719751.2, -104007.54, 0.32318485, -0.14300914, -515867.94, 95864.04, 0.0, 10.001258, 9.999446 
2.946265e+3, 2.4756938e+2, -531551.25, -885478.8, 128508.1, 0.3045625, -0.122024365, -489813.13, 23992.912, 0.0, 10.002037, 9.997174 
2.9459286e+3, 2.5756168e+2, -261878.05, -684123.25, 160805.58, 0.24527298, -0.06770326, -207611.9, 208277.22, 0.0, 10.002925, 9.997578 
2.9455885e+3, 2.6755536e+2, -240656.72, -305266.56, 147051.13, 0.0858666, -0.06759331, -122403.875, 195549.69, 0.0, 10.001182, 10.000247 
2.9452467e+3, 2.7754956e+2, -542961.3, -434684.38, 75293.88, -0.18980388, -0.1250332, -396085.9, -176075.97, 0.0, 9.998409, 10.000121 
2.9449075e+3, 2.8754544e+2, -126933.375, -16573.533, -137784.19, 0.41888615, -0.069591545, 76669.266, 198710.61, 0.0, 10.000037, 10.001481 
2.944553e+3, 2.975394e+2, 470684.22, 416069.97, -75221.26, -0.1767655, -0.24181491, 523401.56, 547488.75, 0.0, 10.002764, 10.0025215 
2.9600015e+3, 1.379716e+2, -1699956.9, -1444814.5, -258619.44, -0.31772313, -0.36229146, -1284013.6, 303839.2, 0.0, 9.998788, 10.002382 
2.9596627e+3, 1.47968e+2, -1494957.9, -1510244.6, 35260.688, -0.06016801, -0.26104504, -1466521.6, 23368.32, 0.0, 10.000671, 10.000316 
2.9593235e+3, 1.5796483e+2, -1428516.4, -1579347.8, 426.23343, -0.071287364, -0.051914107, -1428515.1, -36586.746, 0.0, 10.000956, 9.999112 
2.9589814e+3, 1.67959e+2, -1215567.5, -1368231.8, -65890.9, -0.17218234, -0.020314017, -1191062.1, 102924.13, 0.0, 10.0016165, 9.999447 
2.9586372e+3, 1.7795223e+2, -1201562.5, -1413403.9, 23002.672, -0.3977159, -0.09146741, -1199093.5, -3042.2231, 0.0, 10.001374, 9.998661 
2.958299e+3, 1.8794493e+2, -1136687.5, -1247736.6, 59923.52, -0.20225972, -0.1817808, -1110518.6, -12396.284, 0.0, 10.000995, 9.999176 
2.9579628e+3, 1.9793722e+2, -1335127.8, -1393318.5, 60727.402, 0.23159008, -0.30450293, -1296885.5, -296688.06, 0.0, 9.999219, 9.998488 
2.9576212e+3, 2.0793222e+2, -1011919.1, -879705.44, 30310.408, 0.10188622, -0.26892588, -873087.94, 29158.385, 0.0, 9.999658, 10.000989 
2.9572767e+3, 2.1792772e+2, -1096361.6, -1118802.0, 30326.533, -0.17301548, -0.23863016, -1075246.3, -270955.4, 0.0, 9.999287, 9.998991 
2.9569378e+3, 2.2792119e+2, -879604.2, -1019442.56, -15722.606, 0.12792292, -0.18878031, -877858.25, -171499.02, 0.0, 10.000526, 9.998269 
2.9566017e+3, 2.3791452e+2, -798101.75, -997958.25, -43482.12, 0.61635053, -0.15857193, -789051.3, -180622.02, 0.0, 10.000516, 9.9978895 
2.956263e+3, 2.4790846e+2, -423605.66, -570467.8, 180584.33, 0.4563662, -0.12150908, -302093.6, 208393.86, 0.0, 10.001741, 9.999434 
2.955925e+3, 2.579022e+2, -368207.13, -572327.9, 167039.78, 0.14907862, -0.15022856, -274516.1, 138030.2, 0.0, 10.001634, 9.998925 
2.9555854e+3, 2.678977e+2, -302774.72, -236206.03, 40456.73, 0.20561416, -0.087475635, -217101.5, 97491.23, 0.0, 10.000445, 10.001 
2.955244e+3, 2.77894e+2, -711325.4, -485191.78, 14245.675, 0.25021476, -0.012417768, -484297.9, -267665.66, 0.0, 9.997289, 10.000265 
2.9548976e+3, 2.8789175e+2, -121205.45, 107018.875, -18558.838, 0.0037448653, 0.12615903, 108518.195, 227166.16, 0.0, 9.999734, 10.002379 
2.954551e+3, 2.9788256e+2, 67819.914, -155373.1, 6138.1304, -0.15297489, -0.4249325, 67988.59, 88717.71, 0.0, 10.001852, 9.998969 
2.9699966e+3, 1.3831112e+2, -1703219.4, -1537592.3, 13181.689, -0.26104555, -0.4546008, -1536549.8, 47979.31, 0.0, 9.999169, 10.001549 
2.969655e+3, 1.4830697e+2, -1392082.3, -1551528.5, -2014.3235, -0.43722364, -0.33049154, -1392056.8, 94515.59, 0.0, 10.001743, 9.999513 
2.9693183e+3, 1.5830189e+2, -1536895.0, -1643316.5, -51898.87, -0.13630183, -0.23689078, -1515776.3, -127148.21, 0.0, 10.000227, 9.99903 
2.9689774e+3, 1.6829686e+2, -1290700.9, -1278966.0, -72285.78, -0.128209, -0.20822826, -1212309.9, 78363.51, 0.0, 10.000531, 10.000598 
2.9686338e+3, 1.7829134e+2, -1206047.4, -1338079.5, -16996.203, -0.37602228, -0.24952379, -1203894.6, -11172.956, 0.0, 10.000954, 9.999387 
2.968294e+3, 1.8828498e+2, -1198039.0, -1314255.3, -46994.434, -0.2298159, -0.25037286, -1181414.1, -86627.44, 0.0, 10.000629, 9.998947 
2.9679555e+3, 1.9827822e+2, -1249904.8, -1263908.6, -32742.67, 0.04684128, -0.2722132, -1223423.8, -226566.33, 0.0, 9.999282, 9.9993925 
2.9676133e+3, 2.0827414e+2, -875749.6, -648593.0, 39008.516, -0.086396806, -0.27032322, -642080.94, 256812.7, 0.0, 9.999839, 10.002516 
2.9672697e+3, 2.182707e+2, -800293.75, -874871.3, 109602.17, -0.37569144, -0.25919572, -721810.8, 79111.63, 0.0, 10.000763, 9.999991 
2.9669327e+3, 2.2826357e+2, -622661.2, -1064108.4, 143786.88, -0.06954166, -0.19684121, -579958.2, 123041.04, 0.0, 10.002847, 9.996933 
2.9665968e+3, 2.3825558e+2, -181842.38, -741375.25, 135795.02, 0.37287062, -0.1500542, -150627.22, 454459.9, 0.0, 10.004758, 9.997651 
2.9662597e+3, 2.4824934e+2, -165597.95, -375034.5, 231859.77, 0.39433044, -0.14656919, -15905.403, 491242.2, 0.0, 10.003073, 10.000192 
2.9659218e+3, 2.582437e+2, -437308.28, -475256.84, 117553.734, 0.26874214, -0.1708808, -337207.34, 71991.65, 0.0, 10.000415, 10.000213 
2.9655814e+3, 2.6823938e+2, -328619.25, -192481.81, -27813.33, 0.3579641, -0.16594379, -187018.69, 124222.09, 0.0, 9.999855, 10.001676 
2.9652387e+3, 2.782358e+2, -261409.75, -190991.11, -19295.096, 0.40424538, -0.1207956, -186050.75, 27226.297, 0.0, 9.999828, 10.001139 
2.964892e+3, 2.8823546e+2, 95838.92, 159154.61, -33690.168, -0.042525217, 0.21087366, 173727.13, 289003.53, 0.0, 10.001301, 10.002086 
2.9645538e+3, 2.9822588e+2, 34840.348, -329904.8, -246583.75, 0.44787708, -0.28757238, 159165.19, 176532.17, 0.0, 10.002141, 9.9977 
2.979991e+3, 1.3865207e+2, -1572197.3, -1579386.4, 101406.62, -0.27251115, -0.3241188, -1474321.5, 106871.1, 0.0, 10.0004835, 10.000656 
2.979648e+3, 1.4864711e+2, -1478574.1, -1644042.9, -119338.91, -0.742607, -0.21945493, -1416095.8, 67147.414, 0.0, 10.001375, 9.999073 
2.979313e+3, 1.5863965e+2, -1497474.3, -1613567.6, -83335.23, -0.12387668, -0.34827614, -1453962.3, -68642.484, 0.0, 10.000475, 9.999151 
2.9789734e+3, 1.6863525e+2, -1171755.5, -1084821.1, -39156.72, 0.002146575, -0.3427807, -1069784.9, 217570.02, 0.0, 10.000833, 10.00179 
2.978632e+3, 1.7863098e+2, -1255207.8, -1362703.8, 16204.926, -0.11292624, -0.34330198, -1252818.0, -63430.793, 0.0, 10.000659, 9.9993925 
2.9782894e+3, 1.8862534e+2, -1191478.8, -1348873.1, -56421.746, -0.17321382, -0.23906475, -1173342.8, -81893.25, 0.0, 10.000894, 9.998589 
2.977947e+3, 1.9861972e+2, -1140122.4, -1140878.4, -24867.387, -0.1803185, -0.14887157, -1115630.1, -122115.62, 0.0, 9.999805, 9.999984 
2.9776052e+3, 2.0861655e+2, -769098.8, -431253.63, 30908.988, -0.3241038, -0.20253623, -428449.1, 467089.2, 0.0, 9.999805, 10.004058 
2.9772642e+3, 2.1861488e+2, -1049434.3, -941660.7, 78156.17, -0.4039508, -0.17498352, -900615.0, -103070.42, 0.0, 9.998903, 10.000437 
2.9769275e+3, 2.286081e+2, -851528.25, -1224224.1, 171758.72, -0.27678666, -0.07480529, -784446.5, -84829.42, 0.0, 10.001637, 9.996368 
2.9765913e+3, 2.3859878e+2, -504149.34, -1004458.44, 141087.53, -0.07490939, -0.08764735, -467105.38, 134613.28, 0.0, 10.00315, 9.996602 
2.9762557e+3, 2.4859177e+2, -384746.2, -493781.94, 120912.31, 0.24318598, -0.13178073, -306629.28, 197161.42, 0.0, 10.001809, 9.999928 
2.9759195e+3, 2.5858587e+2, -775990.44, -722903.5, 57112.29, 0.5879386, -0.1314548, -686467.9, -280618.8, 0.0, 9.998608, 9.99937 
2.975577e+3, 2.6858002e+2, -380400.22, -137964.92, -31360.69, 0.5236332, -0.3123588, -133973.9, 173926.84, 0.0, 9.999316, 10.00226 
2.975232e+3, 2.7857473e+2, -493711.94, -388573.1, -136.71455, 0.29519516, -0.48749393, -388572.9, -178627.02, 0.0, 9.998792, 10.000259 
2.974892e+3, 2.8857565e+2, -184537.33, -199862.02, 16709.629, 0.37757125, 0.121717885, -173816.98, -61881.316, 0.0, 10.000526, 9.99994 
2.9745504e+3, 2.9856992e+2, -35033.75, -84374.39, -358864.47, 0.43143502, 0.12917548, 300007.38, 314002.06, 0.0, 10.000768, 9.999978 
2.989987e+3, 1.3899419e+2, -1643794.3, -1611230.5, -105150.47, -0.3642472, 0.47395352, -1521108.8, 56735.79, 0.0, 10.000057, 10.000677 
2.9896477e+3, 1.4899112e+2, -1481210.4, -1328085.6, -212812.9, -0.33001924, 0.5591291, -1178481.8, 301386.72, 0.0, 10.000063, 10.001899 
2.989305e+3, 1.5898567e+2, -1410024.9, -1345453.3, -76499.06, -0.53191185, 0.38262972, -1294706.1, 87212.875, 0.0, 10.0000925, 10.001189 
2.9889673e+3, 1.689782e+2, -1125354.4, -923761.6, -34927.434, -0.17622963, -0.061626896, -917881.7, 366105.7, 0.0, 10.000538, 10.00306 
2.9886293e+3, 1.7897096e+2, -1166461.9, -1165463.4, 41181.63, 0.026056096, -0.47558382, -1124778.0, 61275.32, 0.0, 10.000579, 10.000793 
2.9882875e+3, 1.8896648e+2, -962920.75, -1167357.6, 42330.95, 0.014135899, -0.32625693, -954502.3, 133600.3, 0.0, 10.002157, 9.999239 
2.9879463e+3, 1.9896291e+2, -827779.9, -1082905.6, 9124.996, 0.066554286, -0.031362873, -827453.94, 162691.06, 0.0, 10.002302, 9.999178 
2.9876062e+3, 2.0895767e+2, -942242.9, -877965.7, -157442.83, 0.2864613, -0.02965851, -749414.75, 142779.77, 0.0, 10.000141, 10.0008545 
2.9872653e+3, 2.18951e+2, -1269819.8, -1144779.4, -216690.58, 0.3748216, -0.21697544, -981770.06, -187514.3, 0.0, 9.997675, 9.999666 
2.9869282e+3, 2.2894406e+2, -852423.25, -948905.7, 49727.7, 0.24915406, -0.28936717, -831382.0, -135057.08, 0.0, 10.0003, 9.998976 
2.9865918e+3, 2.3893893e+2, -269341.28, -604952.9, 35203.688, 0.12049957, -0.15380645, -265688.38, 332690.03, 0.0, 10.003404, 9.999264 
2.9862487e+3, 2.4893759e+2, -551403.3, -501369.56, -61678.234, 0.008832408, 0.25061393, -459827.8, 40566.227, 0.0, 10.000276, 10.00068 
2.985906e+3, 2.5893486e+2, -1022874.56, -720101.4, 57212.688, -0.022140635, 0.5075551, -709651.0, -307228.56, 0.0, 9.996235, 10.000603 
2.9855692e+3, 2.6892543e+2, -285847.38, -80023.89, 126026.23, 0.33654374, -0.04159817, -20229.037, 284279.38, 0.0, 9.999863, 10.002487 
2.985231e+3, 2.7891606e+2, 417016.06, 166929.11, 65556.32, 0.5584438, -0.6243694, 433158.63, 639750.9, 0.0, 10.0043955, 10.001481 
2.9848894e+3, 2.889095e+2, 60717.715, 26038.748, 179366.75, 0.6010704, -0.85415995, 223581.14, 332236.9, 0.0, 10.001593, 10.001162 
2.9845408e+3, 2.9890782e+2, -315643.84, -110476.08, 15060.822, 0.09326929, -0.46792924, -109376.39, -98698.3, 0.0, 9.998016, 10.001365 
2.9999813e+3, 1.3932152e+2, -1440037.3, -1199695.0, 17345.3, -0.49048257, -0.48222718, -1198449.8, 376184.44, 0.0, 9.999837, 10.0036955 
2.9996473e+3, 1.4931832e+2, -1729282.3, -1140347.9, 323527.22, 0.29140478, -0.66981685, -997344.2, 479305.72, 0.0, 9.997014, 10.004604 
2.9993027e+3, 1.5931366e+2, -1973302.1, -1556532.6, 338689.22, -0.15326935, -0.96626055, -1367256.0, 11430.874, 0.0, 9.995825, 10.001769 
2.9989606e+3, 1.6931461e+2, -1515123.8, -1256902.8, 17982.818, -0.26786587, -0.5085665, -1255656.4, 25024.658, 0.0, 9.99841, 10.001691 
2.998623e+3, 1.7931366e+2, -1081790.9, -1122442.3, -193155.06, -0.13296773, -0.25648636, -907895.0, 274799.6, 0.0, 10.001027, 10.000865 
2.9982832e+3, 1.8931092e+2, -1098044.9, -1001786.94, 28996.904, -0.06271877, -0.17623195, -993726.75, 90995.12, 0.0, 10.000137, 10.001279 
2.997942e+3, 1.9930346e+2, -1349333.0, -1653203.5, 235402.31, -0.065828994, -0.3227237, -1221092.3, -234295.64, 0.0, 9.999993, 9.996359 
2.9975966e+3, 2.0929438e+2, -1007614.6, -1476446.6, 53237.805, -0.1174226, -0.2757617, -1001645.25, -112752.04, 0.0, 10.002179, 9.995632 
2.9972535e+3, 2.1928479e+2, -756605.94, -1224528.8, 32531.299, -0.092156745, -0.23613673, -754355.1, 36638.426, 0.0, 10.002605, 9.996687 
2.9969203e+3, 2.292786e+2, -811803.6, -585866.9, 129226.58, -0.0035806044, -0.39521065, -527192.1, 165856.78, 0.0, 9.999162, 10.001862 
2.9965913e+3, 2.3927794e+2, -1104182.6, -740142.94, -142058.38, 0.3162256, -0.17089635, -691269.3, -96220.74, 0.0, 9.996566, 10.001542 
2.99625e+3, 2.4926658e+2, -414071.25, -297816.44, -121142.805, 0.7223321, -0.9968922, -221577.27, 275581.16, 0.0, 10.000674, 10.001729 
2.9958975e+3, 2.5926548e+2, -572747.44, -505655.75, -85718.7, 0.030083505, -0.70346755, -447152.6, -47983.824, 0.0, 9.999387, 10.000464 
2.9955655e+3, 2.6926616e+2, 255991.11, 156330.63, 160071.53, 0.5040415, -0.30675286, 373809.16, 674967.4, 0.0, 10.003869, 10.001966 
2.9952323e+3, 2.792624e+2, -65018.207, 1173.3389, 123219.94, 0.78916144, -0.3275118, 95664.73, 298855.03, 0.0, 10.000888, 10.001932 
2.994881e+3, 2.8926322e+2, 205242.36, 537381.44, 48677.684, 0.20234191, -0.15392464, 544368.56, 649548.0, 0.0, 10.000927, 10.004779 
2.9945338e+3, 2.9925779e+2, -468665.4, -411687.6, -302461.94, 0.20071594, -0.42599672, -136375.86, -129137.48, 0.0, 9.998271, 9.998948 
