coord_x,coord_y,stress_xx,stress_yy,tau_xy,velocity_x,velocity_y,stress_1,eps,damage,lx,ly
5.000134e+0, 1.2530212e+2, -1678533.4, -1687647.9, -38774.49, 0.0034101966, 0.8060508, -1644049.3, 68070.22, 0.0026898824, 10.000111, 10.000126 
5.000282e+0, 1.3530225e+2, -1681094.6, -1850394.3, 41409.32, 0.0071273153, 0.9410926, -1671509.0, -57388.105, 0.0015908045, 10.000373, 9.998201 
5.000106e+0, 1.4530185e+2, -1399166.1, -1368257.5, 45693.996, -0.0103040375, 0.9558396, -1335475.1, 180649.72, 0.0007108368, 10.000374, 10.0008335 
4.9996266e+0, 1.5530221e+2, -1343189.6, -1288328.3, -25056.443, -0.043292265, 0.86011165, -1278607.0, 139512.17, 0.00020845741, 10.000077, 10.000852 
4.9996725e+0, 1.6530217e+2, -1413653.0, -1540440.3, 5616.827, -0.038518567, 0.89686036, -1413404.6, -93282.28, 0.000030560106, 10.000077, 9.998451 
5.000183e+0, 1.7530097e+2, -1276514.4, -1419580.9, 82341.0, -0.000042653024, 0.89566135, -1238974.1, -16832.938, 0.0000010193884, 10.00033, 9.998486 
5.0001234e+0, 1.8530068e+2, -997135.56, -897088.44, 79156.67, 0.0035457376, 0.8674629, -853473.7, 270666.28, 0.0, 10.000132, 10.001493 
4.9995407e+0, 1.9530126e+2, -995907.75, -859778.8, 9408.917, -0.024144128, 0.7426332, -859131.56, 166988.77, 0.0, 9.999527, 10.00137 
4.9994427e+0, 2.0530118e+2, -1107489.1, -1116085.6, 16034.073, -0.017095415, 0.71877027, -1095187.1, -167068.38, 0.0, 9.9991865, 9.999098 
4.999752e+0, 2.1530029e+2, -1025741.5, -1024072.94, 48477.2, 0.019971645, 0.68575245, -976422.9, -146287.8, 0.0, 9.999064, 9.999116 
4.9999362e+0, 2.2530095e+2, -799712.56, -668240.7, 45644.074, 0.03672477, 0.75416756, -653947.9, 78181.945, 0.0, 9.9991, 10.00087 
5.000008e+0, 2.3530285e+2, -682381.4, -571357.44, -28095.55, 0.035021756, 0.8194752, -564652.56, 69453.88, 0.0, 9.999276, 10.000778 
4.999841e+0, 2.45303e+2, -735381.94, -782805.1, -42747.12, 0.01971295, 0.86955875, -710210.44, -174106.36, 0.0, 9.999254, 9.998665 
4.999486e+0, 2.553014e+2, -667054.56, -704074.9, -17613.42, -0.007001023, 0.80574036, -660013.6, -221891.17, 0.0, 9.999071, 9.998621 
4.9994308e+0, 2.6530045e+2, -532183.25, -489860.75, 4931.5024, -0.0038765944, 0.81147534, -489293.72, -149162.48, 0.000000019594776, 9.998902, 9.9994955 
4.9996433e+0, 2.7530026e+2, -458188.13, -400905.06, -4347.3403, 0.025814192, 0.8038343, -400577.0, -158446.47, 0.00000068486895, 9.998726, 9.999517 
4.999256e+0, 2.853002e+2, -405329.03, -248564.05, -21894.467, 0.018874144, 0.81484723, -245563.61, -101434.42, 0.0000056407102, 9.998093, 10.00019 
4.9982816e+0, 2.952994e+2, -451998.3, -216224.67, -35951.04, -0.028253451, 0.6776729, -210864.67, -164728.8, 0.00003698917, 9.997071, 10.000233 
4.9983278e+0, 3.0529815e+2, -330552.38, -90222.48, -35262.152, -0.038822774, 0.50685024, -85155.51, -85155.51, 0.00018828975, 9.997385, 10.000616 
4.9993926e+0, 3.153024e+2, 27833.934, 328939.38, -122586.27, -0.0030305781, 0.8339424, 372534.84, 372534.84, 0.00054298295, 9.998736, 10.002857 
1.5000315e+1, 1.2530139e+2, -1540173.6, -1354305.3, -53732.41, 0.0031112768, 0.84904325, -1339889.9, 372240.13, 0.0025876667, 9.999941, 10.002508 
1.5000853e+1, 1.3530017e+2, -1528698.1, -1513168.8, 56244.746, 0.02231941, 0.6359332, -1464155.3, 149975.58, 0.0015348786, 10.000304, 10.00056 
1.5000321e+1, 1.4529997e+2, -1525950.6, -1604083.1, 28571.514, -0.029038023, 0.6355643, -1516617.5, -484.8834, 0.00068435894, 10.000267, 9.999274 
1.499887e+1, 1.5530166e+2, -1463360.9, -1513815.5, -28286.613, -0.1304143, 0.8520683, -1450686.3, -32560.787, 0.00019662973, 9.999989, 9.999352 
1.4999044e+1, 1.6530268e+2, -1267951.3, -1214756.3, 8954.852, -0.112707704, 0.9495526, -1213289.3, 106828.875, 0.000026649353, 9.999984, 10.000741 
1.500058e+1, 1.7530252e+2, -1131199.4, -1101050.4, 97534.07, 0.0018128264, 0.84234023, -1017432.75, 204683.03, 0.00000066228677, 10.000261, 10.000715 
1.5000345e+1, 1.8530224e+2, -1127538.6, -1137160.5, 51073.94, 0.009630794, 0.7862822, -1081049.5, 43065.438, 0.0, 10.000016, 9.999905 
1.499863e+1, 1.9530192e+2, -1117707.3, -1087889.5, -5218.124, -0.07174545, 0.7473627, -1087002.6, -60887.87, 0.0, 9.99943, 9.999857 
1.4998305e+1, 2.0530206e+2, -1049485.1, -962801.8, 6311.1733, -0.051771615, 0.762609, -962344.75, -34232.563, 0.0, 9.9990635, 10.000213 
1.4999244e+1, 2.1530257e+2, -971857.06, -881039.75, 52463.99, 0.059508905, 0.7731922, -857062.4, -26954.344, 0.0, 9.998946, 10.000158 
1.4999793e+1, 2.2530247e+2, -933849.06, -916113.4, 44289.848, 0.110525064, 0.79994714, -879812.3, -147701.92, 0.0, 9.998984, 9.999228 
1.4999998e+1, 2.3530191e+2, -810183.44, -807366.56, -14543.661, 0.10387911, 0.8031657, -794163.3, -160045.19, 0.0, 9.9991665, 9.999214 
1.4999534e+1, 2.4530117e+2, -686749.1, -661280.5, -56900.523, 0.060192734, 0.7949433, -615706.75, -79582.14, 0.0, 9.999172, 9.999547 
1.4998451e+1, 2.5530022e+2, -620415.0, -576900.2, -18141.44, -0.021519395, 0.7238064, -570329.25, -132198.56, 0.0, 9.99895, 9.999558 
1.4998303e+1, 2.6529926e+2, -542630.0, -489175.66, -8846.154, -0.0109457215, 0.67593855, -487749.75, -147612.16, 0.0000000045160005, 9.998819, 9.999546 
1.4998952e+1, 2.7529842e+2, -475602.22, -410235.78, -7285.333, 0.079320066, 0.62123215, -409433.66, -167289.38, 0.0000004592844, 9.998619, 9.999514 
1.4997736e+1, 2.8529897e+2, -434030.13, -283145.34, -66479.32, 0.054373864, 0.7031534, -258033.98, -113895.42, 0.00000436483, 9.998002, 10.000002 
1.499483e+1, 2.9530022e+2, -487422.1, -255412.42, -60180.64, -0.08712577, 0.80105656, -240731.27, -194603.8, 0.000032381515, 9.996933, 10.000036 
1.4995006e+1, 3.0529866e+2, -487643.16, -381044.3, 11326.384, -0.11182054, 0.7125039, -379854.16, -379854.16, 0.00017490126, 9.997274, 9.998679 
1.4998175e+1, 3.152987e+2, -129118.414, 66511.11, -49177.824, -0.006449232, 0.8464771, 78177.79, 78177.79, 0.0005127624, 9.998504, 10.001173 
2.5000167e+1, 1.2530127e+2, -1520294.5, -1316376.6, 59552.555, -0.00048021556, 0.8349682, -1300258.8, 411871.94, 0.002469487, 9.999956, 10.002758 
2.5000513e+1, 1.3530062e+2, -1617711.1, -1521023.4, 461.11102, 0.00042842655, 0.64031506, -1521021.1, 93103.7, 0.0014658497, 9.999551, 10.00087 
2.500014e+1, 1.4530036e+2, -1664141.0, -1704617.3, -27296.195, -0.029656256, 0.631932, -1650398.8, -134271.55, 0.0006493342, 9.999481, 9.998948 
2.4999331e+1, 1.553013e+2, -1527310.8, -1584050.0, 3027.6738, -0.065817304, 0.8015606, -1527149.8, -109021.7, 0.00018140074, 9.999725, 9.998989 
2.4999298e+1, 1.6530232e+2, -1278356.6, -1161757.9, 39184.91, -0.06634841, 0.8952141, -1149812.9, 170306.5, 0.000022322774, 9.9996805, 10.001236 
2.4999951e+1, 1.75303e+2, -1227532.8, -1092012.3, -16142.787, -0.040034603, 0.8124052, -1090115.9, 131990.86, 0.00000035252413, 9.999385, 10.001183 
2.4999693e+1, 1.8530284e+2, -1233247.3, -1252443.9, -68606.125, -0.031079188, 0.77699757, -1173571.3, -49465.383, 0.0, 9.999562, 9.999327 
2.4998705e+1, 1.9530213e+2, -1061730.4, -1118688.9, -52181.613, -0.03562041, 0.7481624, -1030762.3, -4648.2256, 0.0, 10.000068, 9.999328 
2.4998268e+1, 2.0530233e+2, -890490.3, -846692.75, -23453.525, -0.0038846922, 0.77583474, -836503.75, 91607.53, 0.0, 9.999971, 10.000572 
2.4998343e+1, 2.1530329e+2, -899497.44, -810086.4, -38472.555, 0.06156914, 0.79029065, -795811.2, 34288.395, 0.0, 9.999279, 10.0004835 
2.499861e+1, 2.2530305e+2, -953492.44, -952828.44, 23652.922, 0.09796683, 0.8010306, -929505.2, -197403.28, 0.0, 9.998956, 9.998983 
2.4999061e+1, 2.3530182e+2, -863962.3, -863163.8, 66034.234, 0.1086944, 0.7542595, -797527.6, -163411.03, 0.0, 9.998915, 9.998948 
2.4998555e+1, 2.4530093e+2, -725609.9, -657407.3, 58024.543, 0.06542291, 0.73482007, -624205.2, -88081.22, 0.0, 9.998819, 9.999731 
2.4997185e+1, 2.5530025e+2, -649608.56, -573902.1, 34307.754, -0.025596172, 0.6689728, -560668.3, -122542.28, 0.0, 9.998677, 9.9997015 
2.4997172e+1, 2.652993e+2, -621109.25, -551269.75, 22382.396, 0.018389372, 0.62531936, -544712.3, -204579.14, 0.00000000030772893, 9.998397, 9.999314 
2.4998344e+1, 2.7529818e+2, -581592.06, -486409.8, -2798.7852, 0.190987, 0.56176597, -486327.6, -244184.0, 0.000000332103, 9.998013, 9.999271 
2.4996841e+1, 2.852984e+2, -427002.03, -352038.03, -57227.465, 0.15127361, 0.65311754, -321110.34, -176967.88, 0.000003312623, 9.998355, 9.999357 
2.4993008e+1, 2.9529932e+2, -189167.5, -182054.67, -93158.95, -0.07526985, 0.7810279, -92384.27, -46248.73, 0.000027299557, 9.9992895, 9.999402 
2.499304e+1, 3.0529806e+2, -293673.75, -354007.22, 39845.426, -0.10972158, 0.7860131, -273863.6, -273863.6, 0.00015832737, 9.998899, 9.998086 
2.4996662e+1, 3.15296e+2, -330813.1, -58114.227, 56067.875, 0.06690143, 0.75576043, -47036.477, -47036.477, 0.0004751241, 9.997255, 10.000909 
3.4999573e+1, 1.2530166e+2, -1657879.5, -1575970.8, 23292.934, -0.091227785, 0.7296839, -1569810.1, 142312.73, 0.0023442833, 9.999858, 10.001019 
3.4999073e+1, 1.3530368e+2, -1725637.9, -1735852.8, -8841.255, -0.11736535, 0.9675085, -1720534.9, -106432.6, 0.0013882996, 9.999528, 9.999402 
3.4999344e+1, 1.4530295e+2, -1599290.6, -1556481.6, -23360.797, -0.079299204, 0.9318637, -1546202.1, -30093.219, 0.0006086515, 9.999425, 9.99999 
3.50008e+1, 1.5530114e+2, -1462353.3, -1437129.1, 20190.043, 0.08858857, 0.72188765, -1425935.8, -7809.259, 0.00016439817, 9.999682, 10.000014 
3.5000315e+1, 1.6530114e+2, -1367483.4, -1337018.5, 20009.732, 0.047881268, 0.72236204, -1327103.0, -6976.9805, 0.000017966355, 9.999633, 10.000063 
3.499815e+1, 1.7530222e+2, -1312867.1, -1262603.6, -19301.361, -0.17693378, 0.8055443, -1256047.1, -33931.688, 0.00000014192928, 9.999354, 10.000031 
3.4997997e+1, 1.8530233e+2, -1201575.5, -1166031.0, -54730.855, -0.17401488, 0.821302, -1126259.1, -2145.2375, 0.0, 9.999479, 9.999958 
3.4999597e+1, 1.9530171e+2, -1028248.3, -1034033.56, -26597.166, 0.028370766, 0.7434064, -1004386.94, 21732.621, 0.0, 10.000002, 9.999942 
3.4999153e+1, 2.0530184e+2, -920033.56, -881434.5, -57857.504, 0.07245342, 0.74117625, -839742.56, 88374.8, 0.0, 9.9998665, 10.000382 
3.499689e+1, 2.1530245e+2, -922478.5, -835143.2, -56572.4, -0.028291939, 0.7467484, -807345.5, 22764.135, 0.0, 9.999188, 10.000355 
3.499624e+1, 2.2530271e+2, -876983.3, -765805.9, 16455.73, -0.05088749, 0.74142736, -763421.4, -31316.922, 0.0, 9.998842, 10.000322 
3.4997016e+1, 2.3530267e+2, -787111.6, -678361.4, 71421.92, -0.00363192, 0.68840045, -642971.56, -8870.609, 0.0, 9.998814, 10.000264 
3.499675e+1, 2.4530232e+2, -767050.2, -726435.2, 46071.793, -0.01226525, 0.68157184, -696393.8, -160291.94, 0.0, 9.998747, 9.999295 
3.4995538e+1, 2.553016e+2, -693757.7, -642824.44, 35900.2, -0.07574327, 0.6576516, -624275.44, -186167.63, 0.0, 9.998586, 9.999271 
3.4995902e+1, 2.653006e+2, -652441.3, -608680.7, 1237.8456, 0.035513923, 0.65314084, -608645.7, -268528.6, 0.00000000006499392, 9.998359, 9.998942 
3.4997594e+1, 2.7529952e+2, -619026.75, -546352.2, -7870.6777, 0.29554713, 0.6341987, -545509.56, -303381.56, 0.0000002836276, 9.997934, 9.9989 
3.4996414e+1, 2.8529844e+2, -501328.66, -492680.8, -29041.041, 0.25504863, 0.6606052, -467643.56, -323502.7, 0.000002745044, 9.998302, 9.998417 
3.499265e+1, 2.952968e+2, -263094.9, -319788.06, -54052.51, -0.0605297, 0.63000834, -230407.06, -184246.92, 0.000022379118, 9.999224, 9.99849 
3.4992188e+1, 3.052963e+2, -230542.69, -220501.34, -26973.201, -0.101024054, 0.706477, -198085.53, -198085.53, 0.00013928866, 9.9988785, 9.999013 
3.4994456e+1, 3.1529436e+2, -251489.69, 112386.03, 8140.1367, 0.083182454, 0.59862286, 112568.05, 112568.05, 0.00043208257, 9.997216, 10.002103 
4.4999877e+1, 1.253027e+2, -1721839.4, -1708151.4, 58218.16, -0.03036682, 0.69696605, -1656376.3, 55731.18, 0.0022184679, 9.999886, 10.000085 
4.499939e+1, 1.3530451e+2, -1570379.5, -1738159.3, 53946.43, -0.09821762, 0.9872737, -1554531.1, 59562.84, 0.0013082918, 10.000941, 9.998702 
4.4999686e+1, 1.4530344e+2, -1333399.6, -1378443.8, 41054.81, -0.058016688, 0.9301684, -1309095.0, 207009.11, 0.00056754425, 10.0010195, 10.0004635 
4.500123e+1, 1.5530165e+2, -1353610.0, -1338269.0, 23439.285, 0.14437228, 0.6803356, -1321277.0, 96840.59, 0.00014805637, 10.000216, 10.000452 
4.500077e+1, 1.6530168e+2, -1316777.5, -1343043.0, 68180.34, 0.11304951, 0.67521536, -1260476.6, 59639.668, 0.000013959289, 10.000115, 9.999791 
4.499861e+1, 1.7530271e+2, -1140315.9, -1208821.8, 83422.85, -0.12586261, 0.7838087, -1084387.8, 137720.06, 0.000000037538413, 10.000658, 9.999778 
4.4998127e+1, 1.8530293e+2, -1091605.3, -1073295.4, 59995.64, -0.13170803, 0.80374604, -1021760.2, 102345.625, 0.0, 10.000058, 10.000323 
4.499908e+1, 1.9530267e+2, -1240625.8, -1097700.1, 57144.797, 0.063981, 0.72427046, -1077661.8, -51554.53, 0.0, 9.998382, 10.000287 
4.4998425e+1, 2.0530266e+2, -1181309.1, -1052387.9, 53677.24, 0.099655576, 0.7149959, -1032965.1, -104858.86, 0.0, 9.998262, 9.999985 
4.4996396e+1, 2.1530275e+2, -911924.9, -873495.44, 25255.957, -0.002760205, 0.70714766, -860975.8, -30871.34, 0.0, 9.999443, 9.999971 
4.4995692e+1, 2.253029e+2, -741876.4, -670869.94, 42592.23, -0.0231447, 0.69750994, -650924.3, 81175.586, 0.0, 9.999644, 10.000588 
4.4996175e+1, 2.3530315e+2, -746572.5, -631032.7, 4844.789, 0.028598761, 0.647183, -630829.9, 3262.5383, 0.0, 9.998976, 10.000513 
4.4995987e+1, 2.4530298e+2, -749179.1, -700395.5, -5660.9624, 0.04047139, 0.63781387, -699747.2, -163656.23, 0.0, 9.998798, 9.999445 
4.4995174e+1, 2.5530222e+2, -614630.25, -593035.75, 16668.322, 0.010053106, 0.59854066, -583973.2, -145876.39, 0.0, 9.999072, 9.99938 
4.4995236e+1, 2.6530147e+2, -495642.03, -556737.9, 24508.695, 0.079070166, 0.6197194, -487025.53, -146920.78, 0.00000000016705606, 9.999547, 9.998722 
4.499609e+1, 2.753008e+2, -296278.34, -418769.4, 14425.417, 0.24129677, 0.6659304, -294602.44, -52489.227, 0.00000025698242, 10.000271, 9.998655 
4.4995153e+1, 2.8529927e+2, -291459.84, -415628.53, 28461.205, 0.2270739, 0.67660487, -285247.0, -141116.6, 0.0000023157831, 9.999858, 9.998197 
4.49925e+1, 2.9529664e+2, -390293.22, -406856.78, 41986.26, 0.0455825, 0.56694394, -355779.75, -309620.53, 0.000017842196, 9.998475, 9.998253 
4.4991708e+1, 3.0529657e+2, -352281.7, -274069.2, 60072.855, 0.012474604, 0.69626397, -241495.27, -241495.27, 0.0001190779, 9.998012, 9.999063 
4.4992226e+1, 3.1529382e+2, -86646.48, 221108.88, 9471.128, 0.097575486, 0.4997437, 221400.06, 221400.06, 0.00038609168, 9.998214, 10.00237 
5.500028e+1, 1.2530468e+2, -1732609.4, -1753698.0, 70684.2, -0.030490393, 0.7509766, -1671687.4, 40394.1, 0.0020911084, 9.999967, 9.999739 
5.5001193e+1, 1.3530307e+2, -1563235.0, -1739977.6, 98356.02, -0.03893826, 0.70234925, -1519381.5, 94718.414, 0.0012261746, 10.001003, 9.998663 
5.5000997e+1, 1.4530179e+2, -1336670.8, -1392292.1, 2450.338, -0.05549599, 0.62845, -1336563.0, 179550.1, 0.0005263589, 10.001045, 10.000357 
5.500033e+1, 1.5530287e+2, -1359291.5, -1353985.4, 1679.0868, 0.009816334, 0.6804177, -1353498.8, 64602.5, 0.00013276051, 10.000231, 10.000338 
5.500029e+1, 1.6530395e+2, -1279146.5, -1257454.8, 81087.39, 0.032572556, 0.75314075, -1186491.1, 133598.83, 0.0000106646075, 10.000086, 10.00039 
5.5000997e+1, 1.7530438e+2, -1101232.6, -1121797.1, 107840.836, 0.026443731, 0.73980916, -1003184.94, 218900.06, 0.000000007551507, 10.000637, 10.000383 
5.4999834e+1, 1.8530464e+2, -1090013.9, -1059259.9, -10937.073, 0.013281489, 0.72804594, -1055767.0, 68314.445, 0.0, 10.0000105, 10.0004425 
5.4996896e+1, 1.9530492e+2, -1237729.3, -1085376.1, 2285.6643, -0.014460733, 0.69255346, -1085341.9, -59264.375, 0.0, 9.998355, 10.000383 
5.4995847e+1, 2.0530477e+2, -1233170.3, -1142817.3, 91798.32, -0.0025015555, 0.694088, -1085681.3, -157603.08, 0.0, 9.998192, 9.999395 
5.499654e+1, 2.153041e+2, -961775.1, -963687.9, 74366.71, 0.047224633, 0.67008513, -888358.6, -58274.16, 0.0, 9.999389, 9.999376 
5.4996645e+1, 2.2530364e+2, -804318.1, -788667.06, 10554.633, 0.08763545, 0.66578466, -783353.4, -51264.95, 0.0, 9.999593, 9.999803 
5.499631e+1, 2.3530334e+2, -805954.6, -742289.44, -12338.217, 0.1257145, 0.6379207, -739981.94, -105891.94, 0.0, 9.998921, 9.999774 
5.499598e+1, 2.453029e+2, -704080.06, -598298.1, -279.35214, 0.13963526, 0.6004462, -598297.44, -62206.344, 0.0, 9.998762, 10.000164 
5.4995733e+1, 2.5530222e+2, -578095.4, -494254.84, 33536.14, 0.13667747, 0.49474707, -482491.0, -44398.434, 0.0, 9.99898, 10.0001 
5.499489e+1, 2.653019e+2, -505823.38, -571923.3, 44542.18, 0.06929199, 0.5303317, -483408.88, -143313.16, 0.00000000012003064, 9.999518, 9.998633 
5.4993635e+1, 2.7530193e+2, -307956.2, -432173.3, 45936.816, -0.050536875, 0.65535176, -292814.06, -50714.51, 0.00000017731924, 10.000219, 9.99859 
5.499279e+1, 2.8530097e+2, -259086.84, -345153.9, -31886.635, -0.014980432, 0.6955274, -248560.67, -104449.05, 0.0000014956321, 9.999845, 9.998688 
5.4992247e+1, 2.9529876e+2, -366529.5, -347320.7, -146.84486, 0.14907381, 0.5862614, -347319.56, -301185.88, 0.000012909044, 9.998425, 9.998688 
5.4991305e+1, 3.0529886e+2, -408456.75, -378533.63, 64747.38, 0.15218864, 0.74615353, -327041.66, -327041.66, 0.00009809619, 9.99797, 9.998364 
5.498942e+1, 3.1529444e+2, -137289.95, 128856.79, 41841.527, -0.045536906, 0.45248184, 135279.78, 135279.78, 0.00033776127, 9.998166, 10.001755 
6.500105e+1, 1.2530547e+2, -1457180.9, -1608371.0, 98327.37, -0.03080969, 0.6464264, -1408748.3, 303317.44, 0.0019647046, 10.001789, 9.9998665 
6.5002143e+1, 1.3530385e+2, -1600808.1, -1704102.8, 149020.06, -0.011611044, 0.54885787, -1494739.1, 119343.26, 0.0011417874, 10.000496, 9.99916 
6.500151e+1, 1.4530274e+2, -1511169.3, -1536876.3, 78096.75, -0.056531914, 0.49564293, -1444875.4, 71219.51, 0.0004823996, 10.000123, 9.999798 
6.4999986e+1, 1.5530445e+2, -1311414.1, -1391214.9, 28191.422, -0.07176882, 0.66476935, -1302459.6, 115621.266, 0.00011742101, 10.000827, 9.999784 
6.500002e+1, 1.653054e+2, -1242158.6, -1207506.6, 71093.52, -0.0029080326, 0.7389887, -1151658.4, 168413.03, 0.000008467286, 10.0002, 10.000678 
6.500164e+1, 1.7530522e+2, -1421660.8, -1246976.6, 62354.586, 0.14796369, 0.63430345, -1227002.6, -4931.915, 0.000000004638606, 9.998315, 10.000642 
6.500037e+1, 1.853055e+2, -1303470.8, -1186753.5, -32408.107, 0.13901243, 0.62468827, -1178358.8, -54291.79, 0.0, 9.998661, 10.000214 
6.499645e+1, 1.9530632e+2, -868871.2, -934169.8, -60271.055, -0.021388294, 0.66744035, -832974.3, 193084.92, 0.0, 10.000998, 10.000153 
6.4995456e+1, 2.0530608e+2, -791935.2, -934615.06, 28111.012, -0.008782561, 0.6726504, -786596.5, 141464.56, 0.0, 10.001238, 9.999358 
6.4997065e+1, 2.1530485e+2, -942812.5, -959956.4, 39295.227, 0.15814202, 0.5966462, -911165.1, -81093.445, 0.0, 9.999546, 9.999326 
6.499693e+1, 2.2530411e+2, -930867.6, -892473.1, 24037.988, 0.1959266, 0.5887784, -880907.44, -148828.34, 0.0, 9.998904, 9.999429 
6.4995265e+1, 2.353038e+2, -791205.9, -774132.7, 17794.61, 0.12019197, 0.5974328, -762932.94, -128849.53, 0.0, 9.9991865, 9.999433 
6.499487e+1, 2.4530348e+2, -621514.8, -556512.4, 39703.555, 0.13067721, 0.5866958, -537703.75, -1619.2229, 0.0, 9.999309, 10.000202 
6.4995646e+1, 2.5530308e+2, -532384.3, -468064.66, 7246.1563, 0.22144695, 0.50854146, -467258.44, -29175.365, 0.0, 9.99927, 10.000152 
6.499476e+1, 2.653027e+2, -591662.7, -592167.6, 14068.808, 0.14388072, 0.52457863, -577844.06, -237757.23, 0.00000000000043891748, 9.998831, 9.998833 
6.4992476e+1, 2.7530232e+2, -606650.25, -548409.3, 24640.203, -0.074538715, 0.5848698, -539383.44, -297288.75, 0.00000007111923, 9.998057, 9.998829 
6.499147e+1, 2.8530166e+2, -447828.16, -373724.34, -30713.617, -0.046483193, 0.6195661, -362649.66, -218547.48, 0.00000065443334, 9.998275, 9.999248 
6.499162e+1, 2.9530063e+2, -195891.63, -202948.06, -7302.8877, 0.20536791, 0.5706849, -191309.33, -145198.5, 0.000008482825, 9.999331, 9.999241 
6.499077e+1, 3.0530092e+2, -247983.13, -347353.7, 77678.7, 0.24398749, 0.7433735, -205458.81, -205458.81, 0.00007932554, 9.999265, 9.997959 
6.4988387e+1, 3.1529588e+2, -191278.19, 22539.82, 52596.082, 0.04680219, 0.43085876, 34777.293, 34777.293, 0.00029245962, 9.998129, 10.001057 
7.5001734e+1, 1.253049e+2, -1393684.0, -1486285.8, 20470.115, -0.18718766, 0.37949687, -1389360.8, 322701.2, 0.0018421272, 10.001829, 10.000687 
7.500188e+1, 1.353068e+2, -1522368.0, -1545914.0, 102927.45, -0.10950934, 0.52548337, -1430542.4, 183499.02, 0.0010580781, 10.000522, 10.000232 
7.5000846e+1, 1.4530636e+2, -1578973.0, -1682404.4, 97671.11, -0.16039215, 0.53610885, -1520171.0, -4122.007, 0.0004375462, 10.000141, 9.998793 
7.4999887e+1, 1.5530631e+2, -1379961.9, -1537805.5, 59624.273, -0.18673846, 0.6309166, -1359971.1, 58086.023, 0.00010224, 10.000843, 9.998775 
7.499969e+1, 1.6530612e+2, -1246200.6, -1211797.8, -5368.1943, -0.07679239, 0.64166474, -1210979.5, 109080.766, 0.000007138289, 10.000179, 10.000659 
7.5000274e+1, 1.7530529e+2, -1423958.0, -1253179.9, 2074.0933, 0.15911667, 0.47302824, -1253154.6, -31090.191, 0.00000003688298, 9.998319, 10.000598 
7.4999475e+1, 1.8530552e+2, -1348329.5, -1278381.0, 49664.977, 0.16354965, 0.49199665, -1252611.5, -128549.266, 0.0, 9.998651, 9.999593 
7.499747e+1, 1.9530678e+2, -913085.06, -1021084.06, 30378.11, -0.038754858, 0.63927233, -905126.75, 120926.76, 0.0, 10.000976, 9.999568 
7.499698e+1, 2.0530657e+2, -766071.75, -867936.8, -40647.83, 0.002148558, 0.65263194, -751840.1, 176214.53, 0.0, 10.001185, 9.99984 
7.499778e+1, 2.1530499e+2, -916875.1, -895108.75, -16000.1045, 0.2559469, 0.48913708, -886641.3, -56575.598, 0.0, 9.999495, 9.999796 
7.499626e+1, 2.2530432e+2, -938424.75, -895859.56, 29702.883, 0.2219277, 0.46590865, -880601.6, -148530.05, 0.0, 9.998851, 9.99943 
7.499276e+1, 2.3530447e+2, -802273.7, -783932.2, 36294.016, -0.06675398, 0.5178637, -755668.25, -121595.164, 0.0, 9.999125, 9.999396 
7.499232e+1, 2.4530469e+2, -676056.5, -658472.06, 32294.307, -0.07051722, 0.596193, -633794.5, -97723.03, 0.0, 9.999264, 9.999518 
7.4994683e+1, 2.5530484e+2, -585934.4, -568219.7, 10919.336, 0.18127339, 0.63912714, -563017.0, -124948.86, 0.0, 9.999219, 9.999489 
7.499455e+1, 2.6530385e+2, -561232.6, -519270.06, -20137.867, 0.22371806, 0.60405827, -511169.6, -171092.02, 0.0, 9.998793, 9.99935 
7.499228e+1, 2.7530187e+2, -581027.06, -481067.13, 6856.9805, 0.079536974, 0.45334452, -480598.94, -238500.75, 0.000000009748358, 9.997994, 9.999322 
7.499092e+1, 2.8530142e+2, -403621.2, -277995.0, 4080.9626, 0.051084578, 0.44729012, -277862.56, -133760.88, 0.00000018808618, 9.998256, 9.999914 
7.4990374e+1, 2.953022e+2, -157306.05, -115279.266, 36924.406, 0.12690021, 0.51267636, -93807.664, -47716.82, 0.000005696117, 9.9992895, 9.999867 
7.4989873e+1, 3.0530265e+2, -263576.56, -374553.56, 34924.42, 0.20923974, 0.67918766, -253500.67, -253500.67, 0.00006525944, 9.999245, 9.997775 
7.4988633e+1, 3.1529778e+2, -257170.47, -92726.57, 32245.977, 0.22184195, 0.39658555, -86629.49, -86629.49, 0.00025509726, 9.998034, 10.000305 
8.500391e+1, 1.253057e+2, -1650750.1, -1646177.3, -35264.793, -0.06402488, 0.3148696, -1613124.9, 98925.4, 0.0017237901, 10.000232, 10.000349 
8.5001963e+1, 1.3530846e+2, -1551052.1, -1559423.0, -63272.68, -0.13655674, 0.5478085, -1491826.6, 122196.11, 0.0009802121, 10.000332, 10.000226 
8.500045e+1, 1.4530806e+2, -1573230.1, -1636850.6, -17070.932, -0.20127842, 0.5429027, -1568939.0, -52910.004, 0.00039778455, 9.99999, 9.999183 
8.5000616e+1, 1.5530756e+2, -1582313.4, -1596858.8, 35335.254, -0.11540038, 0.5567195, -1553510.1, -135471.31, 0.000088897265, 9.999288, 9.99912 
8.500017e+1, 1.653072e+2, -1395951.6, -1357860.9, -7934.123, -0.007087449, 0.5656988, -1356274.4, -36229.83, 0.000006071428, 9.999475, 9.999995 
8.499924e+1, 1.7530638e+2, -1158852.6, -1194793.5, -60597.973, 0.12155086, 0.46668977, -1113616.6, 108435.19, 0.000000076650345, 10.000439, 9.999977 
8.4998685e+1, 1.8530644e+2, -1082546.1, -1136976.0, 46400.64, 0.13547085, 0.49210453, -1055968.3, 68083.91, 0.0, 10.00042, 9.999713 
8.4998584e+1, 1.9530745e+2, -1119538.5, -1104591.3, 70557.08, 0.053791504, 0.604285, -1041113.1, -15068.987, 0.0, 9.999496, 9.999704 
8.4998107e+1, 2.0530742e+2, -1032576.06, -974416.2, -24916.836, 0.098104954, 0.6167052, -965201.3, -37157.8, 0.0, 9.99925, 10.000048 
8.499721e+1, 2.1530637e+2, -891674.94, -860359.75, -33966.555, 0.2520226, 0.4888511, -838615.6, -8565.38, 0.0, 9.999567, 10.000005 
8.4995383e+1, 2.2530591e+2, -773985.25, -812479.0, 50995.527, 0.19760749, 0.47405046, -738725.4, -6670.8394, 0.0, 9.999967, 9.999461 
8.499279e+1, 2.3530601e+2, -613801.44, -690577.8, 44112.367, -0.035379853, 0.5202331, -593712.7, 40343.52, 0.0, 10.000413, 9.9994135 
8.499218e+1, 2.4530607e+2, -561312.7, -611321.0, 47122.016, -0.04897741, 0.58801264, -532971.8, 3084.4722, 0.0, 10.000083, 9.999444 
8.499336e+1, 2.5530607e+2, -608083.2, -582567.5, 59796.637, 0.13836549, 0.6211341, -534182.9, -96127.695, 0.0, 9.999092, 9.999445 
8.499312e+1, 2.653054e+2, -551866.06, -483926.94, 59378.086, 0.20936331, 0.60350454, -449488.25, -109426.58, 0.0, 9.9987135, 9.999637 
8.4991676e+1, 2.753041e+2, -441450.4, -383747.72, 55763.043, 0.18352681, 0.49170312, -349814.38, -107739.01, 0.0, 9.998816, 9.9996 
8.499043e+1, 2.853035e+2, -318961.0, -276978.78, 55991.645, 0.1440512, 0.47717813, -238172.8, -94092.04, 0.000000024133003, 9.999002, 9.999567 
8.4989375e+1, 2.9530352e+2, -171340.34, -153434.72, -1910.9745, 0.10189532, 0.5018604, -153233.05, -107154.36, 0.0000041706858, 9.999329, 9.999586 
8.4989e+1, 3.0530372e+2, -187833.03, -229552.9, -31276.717, 0.2015047, 0.6061771, -171098.16, -171098.16, 0.00005536609, 9.99929, 9.998754 
8.4988534e+1, 3.1530082e+2, -142224.28, -18635.545, 26186.174, 0.3829391, 0.42084506, -13316.132, -13316.132, 0.00022562832, 9.998741, 10.000464 
9.5007104e+1, 1.2530817e+2, -1766578.3, -1880901.9, -52546.063, 0.1909452, 0.47201276, -1746096.3, -34068.27, 0.0016162735, 10.000211, 9.998743 
9.5002013e+1, 1.3530879e+2, -1627738.3, -1726981.9, -55269.605, -0.18327804, 0.6160177, -1603083.1, 10943.07, 0.000914127, 10.000365, 9.999058 
9.500002e+1, 1.4530784e+2, -1447256.0, -1374737.0, -49149.613, -0.26345107, 0.51890165, -1349919.3, 166115.6, 0.00036652523, 9.999989, 10.00098 
9.5002e+1, 1.5530825e+2, -1463476.0, -1351936.3, 18138.31, 0.07176715, 0.4441585, -1349060.8, 68964.99, 0.00007896126, 9.999295, 10.000794 
9.500128e+1, 1.6530865e+2, -1492915.9, -1554574.1, 21440.402, 0.1384377, 0.52004886, -1486193.4, -166169.89, 0.000005121987, 9.999454, 9.998655 
9.499824e+1, 1.7530845e+2, -1248534.4, -1379409.6, -20714.922, -0.040499873, 0.61394995, -1245333.9, -23300.74, 0.00000007826353, 10.00043, 9.9987135 
9.499775e+1, 1.8530826e+2, -1029358.1, -1017585.94, 6014.989, -0.015056771, 0.6310319, -1015056.2, 108980.32, 0.0, 10.0003805, 10.000551 
9.499956e+1, 1.9530827e+2, -1066439.0, -987094.4, 44184.348, 0.1824746, 0.55755675, -967385.3, 58646.484, 0.0, 9.999465, 10.000525 
9.4998586e+1, 2.0530856e+2, -1045205.25, -989204.44, -18930.918, 0.20467812, 0.5662865, -983405.4, -55377.633, 0.0, 9.9992, 9.99997 
9.4995123e+1, 2.1530892e+2, -903853.1, -876190.25, -12878.663, 0.0682629, 0.5844567, -871122.75, -41096.547, 0.0, 9.99952, 9.999921 
9.4994056e+1, 2.2530878e+2, -783950.8, -818678.9, 62983.51, 0.050273106, 0.60789895, -735981.6, -3952.929, 0.0, 9.999906, 9.999446 
9.4995135e+1, 2.3530826e+2, -620750.1, -692753.94, 65350.793, 0.13956627, 0.59003246, -582140.6, 51893.91, 0.0, 10.000357, 9.999427 
9.499419e+1, 2.4530758e+2, -530210.25, -532315.0, 2741.4329, 0.12708573, 0.55452484, -528326.1, 7713.481, 0.0, 10.000026, 10.000013 
9.4991434e+1, 2.5530672e+2, -577066.1, -508676.25, 31648.496, 0.018582068, 0.44549248, -496278.06, -58233.414, 0.0, 9.999046, 9.999976 
9.499023e+1, 2.653072e+2, -556403.3, -484467.53, 57538.2, 0.032900836, 0.5152813, -452580.2, -112540.01, 0.0, 9.998678, 9.999647 
9.499042e+1, 2.753088e+2, -451475.25, -389982.75, 66991.91, 0.15859479, 0.68985933, -347018.44, -104990.85, 0.0, 9.998752, 9.999587 
9.498977e+1, 2.8530785e+2, -417667.72, -474689.6, 61726.313, 0.15988058, 0.7099712, -378185.9, -234146.25, 0.000000004406078, 9.998974, 9.9982195 
9.498831e+1, 2.953046e+2, -269839.56, -340517.38, 20496.887, 0.042182427, 0.539491, -264325.56, -218251.47, 0.0000031909003, 9.999254, 9.998337 
9.498787e+1, 3.053042e+2, -38279.934, 84727.164, -53463.484, 0.14186046, 0.5317822, 104716.14, 104716.14, 0.000047523536, 9.999272, 10.00092 
9.4987494e+1, 3.1530502e+2, -86542.86, 119498.305, 33449.777, 0.36419934, 0.5110606, 124792.67, 124792.67, 0.00020078661, 9.998646, 10.001461 
1.0500679e+2, 1.2530999e+2, -1744547.3, -1893563.5, -33614.48, 0.13725343, 0.5625401, -1737315.6, -25304.59, 0.0015309328, 10.000424, 9.998565 
1.0500354e+2, 1.353094e+2, -1545216.5, -1676484.9, 46213.33, -0.085856415, 0.57347506, -1530579.1, 83440.26, 0.0008642909, 10.000861, 9.999173 
1.0500154e+2, 1.4530817e+2, -1378996.9, -1347816.4, 2277.0098, -0.13030761, 0.44211593, -1347651.0, 168379.13, 0.00034447288, 10.000494, 10.000919 
1.0500192e+2, 1.5530883e+2, -1446929.0, -1356818.1, -85265.54, 0.13218583, 0.4078525, -1305436.0, 112582.64, 0.00007296801, 9.999469, 10.000682 
1.0500077e+2, 1.6530947e+2, -1473746.6, -1515092.3, -3656.4724, 0.14578678, 0.50117105, -1473425.8, -153412.56, 0.000004414203, 9.999464, 9.998915 
1.0499846e+2, 1.753096e+2, -1242699.9, -1350448.1, 56500.688, -0.05341294, 0.599635, -1218505.1, 3513.5735, 0.000000050630582, 10.000369, 9.998936 
1.0499793e+2, 1.8530925e+2, -1038178.25, -1021929.56, 49274.633, -0.02834033, 0.5907245, -980114.0, 143908.95, 0.0, 10.000317, 10.000548 
1.04998946e+2, 1.9530869e+2, -1089641.0, -998967.94, 10865.33, 0.18742667, 0.4572837, -997684.1, 28339.957, 0.0, 9.999306, 10.000518 
1.0499774e+2, 2.053092e+2, -1030606.9, -981085.9, -10193.908, 0.19952133, 0.4898633, -979069.56, -51050.625, 0.0, 9.999305, 9.999973 
1.0499465e+2, 2.1531056e+2, -813709.94, -829586.75, -13335.583, 0.04197797, 0.6085384, -806128.8, 23880.791, 0.0, 10.000138, 9.999937 
1.04993924e+2, 2.2531061e+2, -741285.75, -805879.3, 52962.49, 0.035597775, 0.6526745, -711549.44, 20461.807, 0.0, 10.000226, 9.999388 
1.0499539e+2, 2.3530954e+2, -725510.56, -747256.8, 39193.453, 0.169377, 0.5873763, -695709.94, -61687.58, 0.0, 9.999657, 9.999392 
1.0499421e+2, 2.4530885e+2, -605021.4, -526133.5, -39249.977, 0.16525434, 0.53241694, -509932.28, 26094.701, 0.0, 9.99933, 10.000389 
1.0499075e+2, 2.5530848e+2, -530851.75, -445532.03, -37507.16, 0.042101175, 0.43382683, -431388.28, 6638.005, 0.0, 9.999195, 10.000335 
1.0498918e+2, 2.6530898e+2, -469869.13, -455092.88, 18203.895, 0.032392677, 0.4988698, -442835.0, -102814.32, 0.0, 9.999328, 9.999533 
1.0498938e+2, 2.7531034e+2, -315388.56, -337693.0, 2718.096, 0.1346262, 0.65861446, -315062.13, -73051.375, 0.0, 9.99974, 9.999472 
1.04988955e+2, 2.8530958e+2, -316240.9, -389639.84, 53606.49, 0.15942174, 0.6854437, -287974.94, -143954.31, 0.0000000012345152, 9.999501, 9.998559 
1.0498789e+2, 2.953069e+2, -328787.03, -327580.8, 122509.836, 0.109919004, 0.5342342, -205672.61, -159624.1, 0.0000025074758, 9.998661, 9.998716 
1.04987234e+2, 3.0530664e+2, -131968.19, 49322.254, 54895.703, 0.19223878, 0.51941067, 64649.17, 64649.17, 0.000040782536, 9.998594, 10.001004 
1.0498651e+2, 3.1530812e+2, -61705.094, 41034.31, -31686.672, 0.3819563, 0.5646226, 50020.977, 50020.977, 0.0001788825, 9.999205, 10.000656 
1.15002386e+2, 1.2531091e+2, -1649018.0, -1706936.0, -48059.434, -0.3919275, 0.5710755, -1621867.0, 90134.88, 0.001474528, 10.000473, 9.999824 
1.1500636e+2, 1.3531016e+2, -1438451.5, -1460033.0, 62920.484, 0.08800416, 0.41354433, -1385403.1, 228600.23, 0.00083337264, 10.000884, 10.000647 
1.1500487e+2, 1.4530897e+2, -1521902.1, -1636278.6, -44434.38, 0.13256066, 0.3151869, -1506668.6, 9346.559, 0.00033260565, 10.00046, 9.998955 
1.1499998e+2, 1.5530929e+2, -1575818.6, -1624972.5, -111561.24, -0.029204968, 0.4427109, -1486159.3, -68141.99, 0.0000710648, 9.999479, 9.998832 
1.1499835e+2, 1.653097e+2, -1346698.0, -1255041.4, 24838.125, -0.06339812, 0.5080275, -1248743.3, 71270.33, 0.0000041843605, 9.999468, 10.000706 
1.1499975e+2, 1.7530976e+2, -1116180.5, -1095223.4, 95450.06, 0.017995639, 0.420953, -1009678.44, 212330.16, 0.000000024917117, 10.000394, 10.00068 
1.1499907e+2, 1.8530938e+2, -1105983.9, -1148226.0, 6241.224, 0.035918914, 0.36828595, -1105081.1, 18930.582, 0.0, 10.000257, 9.999711 
1.14996456e+2, 1.9530864e+2, -1151319.9, -1118508.0, -19204.865, -0.012546315, 0.30108878, -1109655.6, -83634.29, 0.0, 9.999272, 9.999713 
1.1499533e+2, 2.0530936e+2, -1035229.2, -979528.94, 14663.226, 0.013088093, 0.39016685, -975904.6, -47887.684, 0.0, 9.999252, 10.000011 
1.1499551e+2, 2.1531126e+2, -817837.6, -826480.44, 22261.426, 0.09886499, 0.5589954, -799482.06, 30518.92, 0.0, 10.000083, 9.999987 
1.149948e+2, 2.2531135e+2, -756747.44, -824774.6, 24852.74, 0.085784726, 0.6097164, -748635.25, -16632.537, 0.0, 10.000169, 9.999286 
1.14993304e+2, 2.353098e+2, -740100.6, -763702.94, 25786.063, -0.021741277, 0.5053876, -723543.56, -89523.26, 0.0, 9.999594, 9.9993105 
1.1499207e+2, 2.4530983e+2, -603997.4, -509261.72, -50599.754, 0.000953115, 0.5189989, -487318.3, 48700.387, 0.0, 9.999269, 10.000535 
1.1499104e+2, 2.553112e+2, -529627.5, -429294.53, -37697.168, 0.13508101, 0.580842, -416709.5, 21291.42, 0.0, 9.999136, 10.000475 
1.1498978e+2, 2.6531076e+2, -488819.25, -489635.9, 27287.346, 0.14271013, 0.55204666, -461937.2, -121933.29, 0.0, 9.999307, 9.999309 
1.1498833e+2, 2.7530873e+2, -336098.2, -369093.47, 24608.877, 0.037582222, 0.39873832, -322968.66, -80943.42, 0.0, 9.999685, 9.999287 
1.14987746e+2, 2.8530866e+2, -180654.67, -98673.23, 16429.656, 0.07213705, 0.40307835, -95503.19, 48520.594, 0.00000000007947066, 9.999468, 10.00057 
1.1498787e+2, 2.9531038e+2, -210314.16, -55438.34, 99504.17, 0.22249797, 0.4938638, -6790.1265, 39211.79, 0.000001910546, 9.998557, 10.000633 
1.1498685e+2, 3.05311e+2, -274942.34, -237778.4, 76087.875, 0.2776379, 0.5766522, -178036.34, -178036.34, 0.000034748213, 9.998561, 9.999043 
1.14985056e+2, 3.1531015e+2, -255024.81, -339177.75, 19500.113, 0.274011, 0.5783353, -250725.83, -250725.83, 0.00015878698, 9.999121, 9.998081 
1.2500195e+2, 1.2531175e+2, -1896501.8, -1781202.5, -8518.97, -0.38374934, 0.5513786, -1780576.5, -68583.234, 0.0014451224, 9.998609, 10.000204 
1.250069e+2, 1.3531138e+2, -1682429.9, -1521626.6, 5959.2856, 0.1562247, 0.3824508, -1521406.0, 92583.99, 0.000820366, 9.998977, 10.001143 
1.2500538e+2, 1.4531073e+2, -1658505.1, -1728725.5, -65170.086, 0.1879977, 0.32555106, -1619589.3, -103592.18, 0.00033115427, 9.999635, 9.998715 
1.24999665e+2, 1.5531102e+2, -1416886.8, -1576345.8, -22253.867, -0.06358058, 0.4752113, -1413839.3, 4161.92, 0.00007354598, 10.000682, 9.998584 
1.2499789e+2, 1.6531137e+2, -1208448.4, -1135835.1, 115607.1, -0.08802023, 0.5221442, -1050967.6, 269030.16, 0.0000047036624, 10.000187, 10.001181 
1.249997e+2, 1.7531148e+2, -1394963.9, -1179731.9, 73947.305, 0.08539042, 0.39292777, -1156774.5, 65215.934, 0.000000012759114, 9.998258, 10.001136 
1.2499871e+2, 1.8531144e+2, -1427426.6, -1309684.0, 4598.7896, 0.0886365, 0.35601047, -1309504.6, -185514.25, 0.0, 9.99808, 9.999651 
1.2499522e+2, 1.9531135e+2, -1138190.3, -1122669.5, 25171.416, -0.066115424, 0.36357737, -1104089.4, -78093.35, 0.0, 9.999407, 9.999623 
1.2499432e+2, 2.0531192e+2, -943001.44, -935876.1, 99183.97, -0.040825617, 0.44310656, -840190.9, 87802.09, 0.0, 9.999891, 9.999997 
1.2499577e+2, 2.1531303e+2, -891492.25, -863866.3, 87592.01, 0.14481574, 0.5330463, -789004.8, 40977.934, 0.0, 9.999585, 9.999967 
1.2499514e+2, 2.2531295e+2, -864317.5, -853795.5, 88247.67, 0.1490262, 0.55544424, -770652.1, -38666.96, 0.0, 9.9993305, 9.999486 
1.2499271e+2, 2.3531178e+2, -801763.4, -772639.06, 96693.59, -0.009806838, 0.47066826, -689417.25, -55418.438, 0.0, 9.999088, 9.999487 
1.2499129e+2, 2.4531195e+2, -635708.9, -565724.9, 45604.668, 0.0028900171, 0.50722027, -543234.5, -7238.0444, 0.0, 9.999227, 10.000169 
1.2499079e+2, 2.553132e+2, -464706.63, -441276.6, 8740.071, 0.17006412, 0.59637356, -438375.5, -394.6464, 0.0, 9.999756, 10.0001 
1.2498959e+2, 2.6531246e+2, -462303.3, -475330.84, 57683.1, 0.18804798, 0.5576847, -410767.34, -70780.76, 0.0, 9.999493, 9.999311 
1.2498784e+2, 2.7531e+2, -498508.06, -442437.97, 59205.14, 0.080068976, 0.35838675, -404965.66, -162954.44, 0.0, 9.998568, 9.9993105 
1.249868e+2, 2.853098e+2, -333607.9, -153633.4, 1749.184, 0.09171284, 0.3387161, -153616.4, -9606.131, 0.00000000021645001, 9.998343, 10.0007305 
1.2498637e+2, 2.9531172e+2, -169369.42, -13561.42, -65226.19, 0.214056, 0.43277577, 10139.153, 56124.766, 0.0000014014497, 9.99875, 10.000824 
1.2498513e+2, 3.0531287e+2, -219054.1, -209568.77, -41254.625, 0.23917875, 0.5524905, -172785.1, -172785.1, 0.000028996776, 9.998913, 9.999086 
1.2498372e+2, 3.1531212e+2, -333425.13, -394657.06, 29053.139, 0.26132792, 0.5641505, -321834.2, -321834.2, 0.00013884061, 9.998649, 9.997939 
1.3500497e+2, 1.2531243e+2, -1940714.1, -1864892.5, -21621.654, 0.018394701, 0.4974758, -1859160.1, -147174.45, 0.0014399097, 9.998584, 9.999638 
1.3500483e+2, 1.3531317e+2, -1707293.5, -1575087.8, 26611.889, 0.03286537, 0.48359823, -1569932.0, 44046.18, 0.0008240123, 9.999001, 10.000756 
1.3500288e+2, 1.4531355e+2, -1554697.6, -1525098.5, -33785.934, -0.049085412, 0.47787583, -1503012.9, 12961.658, 0.00033951883, 9.999672, 10.000098 
1.3500078e+2, 1.5531404e+2, -1322002.9, -1381469.1, 20794.95, -0.04026072, 0.506338, -1315452.6, 102517.41, 0.00008018549, 10.000686, 9.999921 
1.3499911e+2, 1.6531456e+2, -1277190.5, -1265030.6, 35807.832, -0.0009985726, 0.5494323, -1234790.3, 85175.2, 0.0000062149566, 10.000135, 10.000316 
1.3499795e+2, 1.7531472e+2, -1454784.6, -1299578.3, 13446.684, 0.06655824, 0.5144695, -1298421.9, -76457.74, 0.000000017143847, 9.998249, 10.000311 
1.3499655e+2, 1.8531547e+2, -1382608.9, -1213955.9, 47782.305, 0.04552054, 0.5602528, -1201359.1, -77400.58, 0.0, 9.998058, 10.000323 
1.3499491e+2, 1.9531682e+2, -1093568.3, -1025850.44, 80292.72, -0.05601452, 0.64176553, -972569.5, 53378.574, 0.0, 9.999386, 10.0002985 
1.349945e+2, 2.0531692e+2, -958029.25, -955049.44, 81554.805, -0.02817373, 0.6466541, -874970.94, 52976.18, 0.0, 9.999838, 9.999894 
1.3499513e+2, 2.153158e+2, -907089.75, -878561.9, 83835.95, 0.10592856, 0.5263571, -807785.06, 22170.326, 0.0, 9.999512, 9.999901 
1.349947e+2, 2.2531536e+2, -839956.94, -791441.0, 71370.59, 0.15455844, 0.492292, -740318.5, -8359.824, 0.0, 9.999272, 9.999946 
1.3499328e+2, 2.3531543e+2, -778812.94, -714743.56, 93190.97, 0.1227251, 0.4837125, -648235.0, -14276.741, 0.0, 9.999041, 9.9999075 
1.3499163e+2, 2.4531513e+2, -701191.8, -693311.4, 58118.574, 0.09855945, 0.49772522, -638999.6, -103038.984, 0.0, 9.99919, 9.9993105 
1.3498983e+2, 2.553145e+2, -530629.0, -564493.6, 33280.76, 0.08039207, 0.48324877, -510220.8, -72255.08, 0.0, 9.999698, 9.999283 
1.3498843e+2, 2.6531422e+2, -453055.25, -448958.7, 17593.223, 0.10613143, 0.51909417, -433294.9, -93326.805, 0.0, 9.999464, 9.999503 
1.3498758e+2, 2.7531415e+2, -499443.28, -425977.25, 32835.05, 0.17936963, 0.54034513, -413441.03, -171471.89, 0.0, 9.99849, 9.999459 
1.3498585e+2, 2.853129e+2, -451154.0, -389730.94, 9524.278, 0.14566676, 0.4913084, -388288.0, -244306.94, 0.000000004047862, 9.998311, 9.999125 
1.3498326e+2, 2.9531077e+2, -282277.9, -235988.84, -42908.82, 0.007877129, 0.3397912, -210380.56, -164379.3, 0.0000011638989, 9.998695, 9.999325 
1.3498178e+2, 3.0531204e+2, -80170.72, 90043.57, -53454.996, 0.00010582667, 0.43989012, 105438.48, 105438.48, 0.00002379093, 9.998871, 10.001162 
1.3498199e+2, 3.15314e+2, -183548.86, -66867.54, 41900.047, 0.18715388, 0.52037126, -53380.305, -53380.305, 0.00011909773, 9.998578, 10.000226 
1.4500614e+2, 1.253147e+2, -1694037.3, -1792299.8, 77315.375, 0.19337437, 0.47682753, -1651563.1, 60399.313, 0.0014542761, 10.000466, 9.999233 
1.450037e+2, 1.3531533e+2, -1643562.1, -1583831.5, 108211.21, -0.00526998, 0.48843688, -1501440.0, 112519.17, 0.0008417685, 9.999595, 10.000412 
1.4500168e+2, 1.4531626e+2, -1567312.4, -1432005.0, 74908.57, -0.107095994, 0.5075843, -1398721.5, 117227.61, 0.0003553583, 9.999157, 10.000993 
1.4500122e+2, 1.5531698e+2, -1494807.0, -1370398.1, 73948.44, 0.019943235, 0.47297415, -1335970.4, 81967.41, 0.00008912462, 9.999091, 10.000772 
1.449993e+2, 1.6531758e+2, -1472519.0, -1415994.4, 47657.313, 0.06321313, 0.5086785, -1388849.3, -68916.695, 0.000008328298, 9.999046, 9.999801 
1.4499621e+2, 1.7531775e+2, -1386819.1, -1326619.9, 37278.09, 0.03444811, 0.52470237, -1308806.6, -86870.984, 0.0000000715251, 9.998966, 9.999781 
1.4499488e+2, 1.8531851e+2, -1212892.5, -1111784.3, 143443.08, 0.023109267, 0.5906063, -1010247.44, 113683.164, 0.0, 9.999141, 10.000503 
1.4499503e+2, 1.9531988e+2, -1063011.8, -994889.4, 121127.17, 0.017361889, 0.65828377, -903125.5, 122792.195, 0.0, 9.999518, 10.000454 
1.4499472e+2, 2.0531978e+2, -987955.56, -959124.75, 83336.86, 0.024737854, 0.6322048, -888965.7, 38951.61, 0.0, 9.999596, 9.999979 
1.4499386e+2, 2.1531832e+2, -920908.0, -880594.3, 84269.15, 0.037187807, 0.46944126, -814104.8, 15823.784, 0.0, 9.999399, 9.999941 
1.4499348e+2, 2.2531812e+2, -798546.4, -780822.75, 84585.73, 0.09259813, 0.46227846, -704635.9, 27293.977, 0.0, 9.99961, 9.999851 
1.4499354e+2, 2.3531896e+2, -616486.7, -650220.75, 49472.063, 0.18999185, 0.5423961, -581085.3, 52837.145, 0.0, 10.000216, 9.999788 
1.4499213e+2, 2.453182e+2, -588964.75, -656398.75, 22219.873, 0.18909855, 0.52517676, -582301.6, -46372.414, 0.0, 10.000038, 9.999156 
1.4498939e+2, 2.553161e+2, -614865.4, -615830.4, 36330.29, 0.097447954, 0.37623844, -579014.4, -141066.52, 0.0, 9.999183, 9.999169 
1.4498784e+2, 2.6531592e+2, -488414.13, -474807.16, 51859.35, 0.11495158, 0.43111202, -429306.9, -89357.58, 0.0, 9.999248, 9.999439 
1.4498746e+2, 2.7531734e+2, -269229.6, -326512.34, 35998.04, 0.24338107, 0.6128212, -251868.94, -9932.257, 0.0, 10.000109, 9.999373 
1.4498575e+2, 2.853159e+2, -272010.3, -383499.0, 41943.645, 0.23141196, 0.5818396, -257992.89, -114040.25, 0.000000009906891, 9.999872, 9.998424 
1.4498267e+2, 2.9531205e+2, -331715.6, -333632.8, 44435.55, 0.084390596, 0.33044994, -288228.3, -242236.36, 0.0000010398929, 9.998667, 9.998669 
1.449805e+2, 3.0531296e+2, -115229.36, 115523.12, 31530.53, 0.012972539, 0.4047452, 119753.945, 119753.945, 0.000019274365, 9.998458, 10.001523 
1.4498028e+2, 3.1531528e+2, -64821.59, 101984.93, -24199.568, 0.14968385, 0.48153874, 105424.76, 105424.76, 0.00010043125, 9.998926, 10.001206 
1.5500498e+2, 1.2531878e+2, -1706261.1, -1832497.3, 15942.8955, -0.012128543, 0.5063904, -1704278.9, 7642.0576, 0.0014746141, 10.000526, 9.998931 
1.5500326e+2, 1.3531789e+2, -1663347.4, -1629860.9, 79365.47, -0.029434219, 0.40303868, -1565491.8, 48440.81, 0.00086313457, 9.999609, 10.000094 
1.5500143e+2, 1.453188e+2, -1541552.9, -1371523.9, 63771.58, -0.06513381, 0.41381508, -1350263.9, 165657.6, 0.00037152023, 9.99913, 10.00142 
1.5500072e+2, 1.5531987e+2, -1466056.8, -1310923.9, 79200.49, 0.04037037, 0.37271196, -1277633.4, 140271.0, 0.00009663115, 9.999096, 10.001176 
1.5499818e+2, 1.6532053e+2, -1491388.4, -1445549.6, 37897.574, 0.031052265, 0.40432924, -1424179.9, -104281.57, 0.000009881803, 9.999008, 9.999617 
1.5499425e+2, 1.7532061e+2, -1404081.4, -1353844.5, 42785.336, -0.07626342, 0.4329563, -1329349.1, -107445.34, 0.00000020107916, 9.998935, 9.999609 
1.5499346e+2, 1.853206e+2, -1243000.6, -1169012.6, 151099.38, -0.0517862, 0.44866666, -1050444.5, 73461.54, 0.0, 9.999116, 10.000123 
1.5499541e+2, 1.9532052e+2, -1095898.5, -1049699.8, 141499.39, 0.08482509, 0.4095661, -929426.7, 96478.26, 0.0, 9.99947, 10.000098 
1.5499473e+2, 2.0532055e+2, -978175.44, -929635.1, 69939.1, 0.049235515, 0.40278146, -879874.75, 48028.656, 0.0, 9.99955, 10.000208 
1.5499163e+2, 2.1532063e+2, -914420.8, -851583.5, 83854.6, -0.14369193, 0.3681639, -793454.8, 36447.355, 0.0, 9.999333, 10.000171 
1.5499124e+2, 2.2532126e+2, -856780.2, -888449.6, 101262.695, -0.10811703, 0.47103745, -770121.6, -38223.68, 0.0, 9.999551, 9.999143 
1.5499333e+2, 2.3532234e+2, -670567.44, -752788.06, 78156.12, 0.1304535, 0.6458173, -623369.0, 10522.707, 0.0, 10.00017, 9.999108 
1.5499249e+2, 2.4532115e+2, -554157.44, -577546.2, -16206.418, 0.20580278, 0.5885293, -545866.7, -9964.487, 0.0, 10.000007, 9.999712 
1.5498918e+2, 2.553179e+2, -587485.9, -546965.1, 13370.57, 0.14209102, 0.26883584, -542950.94, -105022.734, 0.0, 9.999123, 9.999676 
1.5498751e+2, 2.653175e+2, -514250.94, -518578.16, 77856.66, 0.14226887, 0.29305834, -438527.84, -98596.69, 0.0, 9.999212, 9.999151 
1.549873e+2, 2.7531958e+2, -299880.47, -376011.7, 73990.46, 0.20167117, 0.56795603, -254738.03, -12823.484, 0.0, 10.000049, 9.999063 
1.5498625e+2, 2.8531876e+2, -260930.02, -352739.78, -7930.9424, 0.27720582, 0.6062914, -260249.94, -116324.63, 0.000000005626964, 9.999843, 9.998645 
1.5498428e+2, 2.953156e+2, -329903.63, -314885.88, 13140.614, 0.35756037, 0.39859954, -307260.06, -261301.98, 0.00000084127635, 9.9986, 9.99883 
1.5498106e+2, 3.0531564e+2, -216507.03, -82931.71, 46973.086, 0.20711903, 0.45116195, -68067.29, -68067.29, 0.000015268795, 9.998418, 10.00017 
1.5497816e+2, 3.1531605e+2, -101382.35, 45633.727, 16256.173, 0.006178356, 0.46602717, 47409.78, 47409.78, 0.00008386637, 9.998853, 10.000846 
1.6500403e+2, 1.2532227e+2, -1890301.4, -1864233.8, 5995.709, -0.07878668, 0.5070694, -1862920.8, -151033.89, 0.0014821975, 9.999008, 9.999446 
1.6500348e+2, 1.3532169e+2, -1561699.5, -1543484.6, 108460.15, 0.009006721, 0.40026584, -1443750.3, 170143.13, 0.0008719991, 10.000151, 10.000425 
1.650017e+2, 1.453228e+2, -1430614.6, -1342038.8, 80144.43, 0.010258926, 0.42636883, -1294759.5, 221120.33, 0.0003781117, 10.00002, 10.001179 
1.6500005e+2, 1.5532325e+2, -1518181.0, -1364645.5, 30706.652, 0.07954425, 0.34902975, -1358732.0, 59137.688, 0.000098805474, 9.998874, 10.000905 
1.6499737e+2, 1.6532375e+2, -1477021.3, -1435928.8, 33366.66, 0.049368072, 0.37649584, -1417289.8, -97424.04, 0.000009884257, 9.99908, 9.999648 
1.6499399e+2, 1.7532417e+2, -1190894.5, -1245637.4, 41952.48, -0.06369885, 0.4299998, -1168174.0, 53693.883, 0.0000002904704, 10.000367, 9.9996605 
1.6499323e+2, 1.8532392e+2, -1094422.8, -1112385.4, 140404.55, -0.037175972, 0.4285052, -962712.56, 161158.64, 0.0, 10.000213, 9.999973 
1.6499476e+2, 1.9532312e+2, -1204266.5, -1120307.5, 135377.39, 0.111079134, 0.32949066, -1020550.25, 5325.4766, 0.0, 9.998801, 9.99993 
1.64994e+2, 2.0532309e+2, -1112372.4, -1030991.56, 102118.11, 0.06488902, 0.34151542, -961755.56, -33879.496, 0.0, 9.998795, 9.999873 
1.6499117e+2, 2.1532379e+2, -832557.44, -847586.7, 57646.816, -0.1529677, 0.40387225, -781937.5, 47934.99, 0.0, 10.000051, 9.999853 
1.6499065e+2, 2.2532427e+2, -801270.44, -848265.06, 65125.086, -0.13640109, 0.50190014, -755533.4, -23663.164, 0.0, 9.999882, 9.999255 
1.6499211e+2, 2.3532467e+2, -915713.8, -854799.6, 89736.78, 0.083639935, 0.5950147, -790492.1, -156623.72, 0.0, 9.998435, 9.999235 
1.6499148e+2, 2.4532372e+2, -786568.6, -685549.06, 38317.445, 0.18828738, 0.5552902, -672659.56, -136783.16, 0.0, 9.998397, 9.999747 
1.6498904e+2, 2.553216e+2, -514621.47, -507426.44, 15382.213, 0.19593473, 0.34902596, -495226.66, -57333.55, 0.0, 9.999605, 9.999713 
1.6498739e+2, 2.6532096e+2, -442295.7, -502776.47, 78716.7, 0.18382263, 0.35320917, -388210.53, -48311.18, 0.0, 9.999779, 9.998989 
1.6498648e+2, 2.7532148e+2, -449065.66, -456080.47, 70130.555, 0.16808476, 0.4846885, -382354.84, -140457.34, 0.0, 9.999065, 9.998975 
1.6498542e+2, 2.8532118e+2, -350862.6, -337773.16, 6953.7656, 0.25796863, 0.5496882, -334768.63, -190865.73, 0.00000000009995645, 9.99898, 9.999161 
1.6498417e+2, 2.9532036e+2, -166158.31, -181391.14, 35800.047, 0.44598755, 0.529252, -137173.45, -91261.48, 0.00000051342266, 9.999492, 9.999318 
1.6498056e+2, 3.053198e+2, -171055.16, -155977.25, 117795.93, 0.28623885, 0.5388117, -45479.277, -45479.277, 0.000011747977, 9.999128, 9.999336 
1.649769e+2, 3.153181e+2, -258323.61, -42238.324, 96174.4, 0.05525495, 0.43099427, -5634.0605, -5634.0605, 0.00007014343, 9.997813, 10.000751 
1.7500272e+2, 1.2532501e+2, -1794362.9, -1656252.1, 24057.244, -0.1457602, 0.46204013, -1652181.6, 59680.402, 0.001464911, 9.998981, 10.000879 
1.7500408e+2, 1.3532682e+2, -1490411.8, -1393468.6, 151793.92, 0.03691672, 0.48133314, -1282595.0, 331245.47, 0.0008580161, 10.000152, 10.00145 
1.7500234e+2, 1.453283e+2, -1499067.1, -1484584.4, 30101.428, 0.052037377, 0.5470539, -1460865.5, 54958.1, 0.00036898247, 10.000013, 10.000209 
1.7499898e+2, 1.553271e+2, -1581374.8, -1496467.6, 16.32407, 0.06544135, 0.39869764, -1496467.6, -78633.17, 0.00009401229, 9.998873, 10.000004 
1.749966e+2, 1.6532722e+2, -1460934.3, -1392807.9, 75851.41, 0.045563646, 0.41813648, -1343722.1, -23887.094, 0.000008393363, 9.99904, 9.999965 
1.7499518e+2, 1.7532845e+2, -1172326.5, -1202237.0, 93708.85, 0.00011363397, 0.5215893, -1092387.0, 129440.13, 0.00000020811186, 10.000354, 9.999963 
1.7499395e+2, 1.853286e+2, -1088530.8, -1101079.6, 81595.89, -0.004653282, 0.53894866, -1012968.44, 110856.93, 0.0, 10.000205, 10.00006 
1.7499283e+2, 1.9532774e+2, -1205872.3, -1114114.6, 92377.28, 0.020527609, 0.427776, -1056850.6, -31021.395, 0.0, 9.998757, 9.999995 
1.7499231e+2, 2.053275e+2, -1184298.4, -1169721.1, 141224.13, 0.00012300258, 0.46121985, -1035597.7, -107763.414, 0.0, 9.998745, 9.998946 
1.7499232e+2, 2.1532774e+2, -902096.94, -981720.3, 108726.586, -0.058296226, 0.5708727, -826122.44, 3717.9717, 0.0, 10.000006, 9.998955 
1.7499141e+2, 2.2532718e+2, -743173.4, -715922.5, 3843.2957, -0.06355138, 0.55990565, -715390.8, 16455.607, 0.0, 9.99983, 10.000188 
1.7498969e+2, 2.3532586e+2, -860459.25, -730052.7, 45416.336, -0.018848741, 0.3879077, -715794.56, -81941.555, 0.0, 9.998384, 10.000117 
1.7498885e+2, 2.453259e+2, -829246.44, -763844.94, 76886.35, 0.06898156, 0.43066788, -712994.2, -177142.48, 0.0, 9.998355, 9.999227 
1.7498876e+2, 2.553272e+2, -560656.6, -587991.0, 63534.688, 0.19024046, 0.61681736, -509335.75, -71492.695, 0.0, 9.999544, 9.999187 
1.7498733e+2, 2.6532623e+2, -441118.22, -499320.78, 45407.457, 0.1847258, 0.6124815, -416286.94, -76432.484, 0.0, 9.999771, 9.999017 
1.7498472e+2, 2.7532303e+2, -451443.56, -452462.44, 51071.04, 0.06824758, 0.36622372, -400879.4, -158993.67, 0.0, 9.999024, 9.999022 
1.7498298e+2, 2.8532305e+2, -292351.97, -216703.47, 17138.021, 0.09977468, 0.42229664, -213002.0, -69116.42, 0.0, 9.99898, 9.99999 
1.7498194e+2, 2.9532635e+2, -119242.62, -71309.1, 61878.117, 0.25437304, 0.7272067, -28918.445, 16935.285, 0.00000027417164, 9.999443, 10.0000925 
1.7497878e+2, 3.0532533e+2, -189073.11, -197922.14, 64384.26, 0.17970216, 0.6673686, -128961.516, -128961.516, 0.000009335192, 9.999141, 9.999048 
1.7497593e+2, 3.1532153e+2, -259331.33, -23584.574, 69575.34, 0.13995156, 0.37779853, -4582.6035, -4582.6035, 0.000059812894, 9.997734, 10.000915 
1.8500158e+2, 1.2532778e+2, -1851519.4, -1644541.1, 10654.173, -0.12382852, 0.4692625, -1643994.1, 67840.78, 0.0014182838, 9.9984045, 10.001243 
1.8500334e+2, 1.353295e+2, -1783976.0, -1525591.9, 41982.55, 0.056094334, 0.4714112, -1518941.8, 94872.3, 0.00082149997, 9.998092, 10.0015335 
1.8500166e+2, 1.4533105e+2, -1738722.5, -1603455.0, -77993.76, 0.06966524, 0.54049957, -1567854.3, -52057.36, 0.00034638878, 9.998366, 10.000188 
1.8499795e+2, 1.5532991e+2, -1522916.4, -1466162.3, -50263.793, 0.059370473, 0.39689445, -1436818.4, -19010.5, 0.000084445885, 9.999257, 10.000029 
1.8499576e+2, 1.6533017e+2, -1396184.8, -1339950.8, 87762.414, 0.04362649, 0.41722974, -1275911.4, 43895.41, 0.000006352812, 9.999399, 10.000151 
1.8499511e+2, 1.7533155e+2, -1369855.4, -1280087.0, 82385.89, 0.033813756, 0.5191621, -1231152.1, -9356.185, 0.000000056960435, 9.998919, 10.000123 
1.849938e+2, 1.8533175e+2, -1258624.1, -1196591.8, 42198.504, 0.019843126, 0.5401973, -1175237.0, -51443.516, 0.0, 9.999104, 9.999932 
1.8499179e+2, 1.9533092e+2, -1053891.5, -1052725.0, 23499.262, -0.010090098, 0.44341898, -1029801.75, -4003.3315, 0.0, 9.999859, 9.999885 
1.8499133e+2, 2.053307e+2, -1060047.1, -1116683.4, 128310.83, -0.012509089, 0.48842824, -956966.6, -29162.783, 0.0, 9.999622, 9.998887 
1.8499224e+2, 2.1533103e+2, -1123065.6, -1091659.0, 149814.98, 0.009937702, 0.6130258, -956726.56, -126916.99, 0.0, 9.998496, 9.998928 
1.8499137e+2, 2.2533044e+2, -876263.25, -737747.4, 64285.91, 0.009381694, 0.5780303, -712510.1, 19304.814, 0.0, 9.99872, 10.000583 
1.8498905e+2, 2.35329e+2, -580495.44, -554062.4, 52957.83, -0.0034895411, 0.35530916, -512696.78, 121123.484, 0.0, 10.000118, 10.000497 
1.8498804e+2, 2.4532904e+2, -590281.4, -703238.56, 84313.03, 0.062147122, 0.4052083, -545278.3, -9458.436, 0.0, 10.000225, 9.998744 
1.8498814e+2, 2.5533044e+2, -642798.56, -678122.5, 60046.125, 0.1974019, 0.6475046, -597870.75, -160056.4, 0.0, 9.999191, 9.998741 
1.849869e+2, 2.6532966e+2, -506998.44, -487876.63, 67461.01, 0.20101558, 0.6658314, -429302.38, -89477.89, 0.0, 9.999135, 9.9994 
1.8498448e+2, 2.753268e+2, -287724.25, -333772.72, 86147.086, 0.097449765, 0.41788587, -221577.66, 20272.781, 0.0, 9.99997, 9.999388 
1.8498234e+2, 2.8532675e+2, -178481.39, -164084.27, 31182.043, 0.10150717, 0.4498003, -139280.66, 4569.106, 0.0, 9.999764, 9.999979 
1.8498033e+2, 2.9532966e+2, -240693.9, -141304.48, -6451.895, 0.19399066, 0.71687007, -140887.42, -95065.86, 0.00000021710767, 9.998646, 10.000004 
1.849774e+2, 3.05328e+2, -228583.47, -249494.47, -2003.6652, 0.14019752, 0.6186119, -228393.22, -228393.22, 0.0000079127085, 9.999009, 9.998751 
1.849765e+2, 3.1532544e+2, 140280.89, 129442.305, -23977.941, 0.28729004, 0.47818968, 159444.33, 159444.33, 0.00005116492, 10.000618, 10.000591 
1.950002e+2, 1.2533057e+2, -1906571.3, -1746723.8, -29273.225, -0.14265129, 0.5360332, -1741531.5, -29726.037, 0.0013429979, 9.998367, 10.000555 
1.9500107e+2, 1.3532965e+2, -1852799.9, -1652725.1, 32923.684, 0.0039351983, 0.36332285, -1647446.6, -33631.664, 0.0007683095, 9.998041, 10.000678 
1.949995e+2, 1.4533097e+2, -1673548.0, -1463386.9, -53004.508, -0.00493897, 0.4015492, -1450775.5, 65024.832, 0.00031677555, 9.998337, 10.001167 
1.9499664e+2, 1.5533173e+2, -1456587.3, -1326010.3, -11771.413, -0.0135291, 0.34686676, -1324957.6, 92831.92, 0.000073711046, 9.999246, 10.000996 
1.9499464e+2, 1.6533265e+2, -1394046.0, -1332811.1, 64931.266, -0.024137814, 0.38438094, -1291640.6, 28139.209, 0.0000047225935, 9.999379, 10.000213 
1.9499364e+2, 1.7533357e+2, -1369388.1, -1275510.6, 75244.32, -0.022358552, 0.43150866, -1233764.9, -11991.844, 0.0000000036456946, 9.998897, 10.000167 
1.9499262e+2, 1.8533346e+2, -1290880.9, -1253813.8, 63380.35, -0.027332244, 0.439978, -1206312.8, -82537.805, 0.0, 9.999058, 9.999565 
1.9499144e+2, 1.9533251e+2, -1082131.8, -1104365.5, 56927.336, -0.048684496, 0.3693558, -1035246.0, -9461.887, 0.0, 9.999825, 9.99955 
1.949908e+2, 2.0533265e+2, -1009450.94, -995634.06, 79905.72, -0.04398391, 0.42221686, -922338.7, 5446.5117, 0.0, 9.999556, 9.999747 
1.9499062e+2, 2.1533369e+2, -1075018.3, -976117.5, 117607.914, -0.01730956, 0.52709764, -897986.7, -68206.555, 0.0, 9.998429, 9.999751 
1.9499032e+2, 2.2533411e+2, -896496.0, -764941.2, 109369.09, 0.018157588, 0.56429106, -703093.1, 28682.102, 0.0, 9.998659, 10.000423 
1.9498998e+2, 2.3533407e+2, -599490.56, -580457.75, 109239.47, 0.062095676, 0.4990871, -480320.94, 153449.17, 0.0, 10.000064, 10.00034 
1.9498886e+2, 2.453331e+2, -627868.7, -771960.8, 38803.09, 0.10686201, 0.4768769, -618083.75, -82302.58, 0.0, 10.000184, 9.998292 
1.9498698e+2, 2.5533125e+2, -679751.56, -740669.3, 30585.695, 0.14524287, 0.43914697, -667045.3, -229238.4, 0.0, 9.999132, 9.998338 
1.949859e+2, 2.653313e+2, -457340.84, -382806.1, 92869.65, 0.16950954, 0.5219113, -320005.34, 19803.125, 0.0, 9.999125, 10.000131 
1.9498554e+2, 2.7533287e+2, -246487.78, -239708.42, 124378.59, 0.18771046, 0.6438982, -118673.336, 123117.36, 0.0, 9.999929, 10.000057 
1.9498327e+2, 2.8533223e+2, -245898.88, -298169.63, -15943.088, 0.20127855, 0.6332141, -241419.88, -97624.57, 0.0, 9.9997425, 9.999067 
1.9497916e+2, 2.9533026e+2, -320059.25, -286247.2, -34188.13, 0.19266666, 0.50493807, -265013.47, -219198.7, 0.0000002787285, 9.9985695, 9.9990425 
1.9497618e+2, 3.0532792e+2, -249010.81, -290762.8, 56358.81, 0.099286705, 0.40016, -209785.88, -209785.88, 0.000006930128, 9.999004, 9.998469 
1.9497813e+2, 3.1533024e+2, 91201.53, 39497.35, 51339.438, 0.35130993, 0.7644588, 122830.47, 122830.47, 0.00004299831, 10.000577, 9.999987 
2.0500031e+2, 1.2533316e+2, -1681481.5, -1681970.1, 41324.402, -0.048388794, 0.46762863, -1640400.6, 71376.14, 0.0012444656, 10.0001135, 10.000153 
2.049996e+2, 1.3533233e+2, -1747155.4, -1675493.4, 106481.63, 0.00894981, 0.36841854, -1598975.8, 14813.197, 0.00070293987, 9.999067, 10.000039 
2.0499808e+2, 1.4533353e+2, -1602248.0, -1401489.3, 67324.86, 0.0049949223, 0.4140948, -1381002.4, 134774.81, 0.00028321997, 9.998722, 10.001403 
2.049962e+2, 1.5533449e+2, -1450277.6, -1297498.5, 29605.963, 0.025262306, 0.3562719, -1291962.1, 125801.65, 0.000063005726, 9.999179, 10.001223 
2.0499434e+2, 1.6533542e+2, -1372155.1, -1311447.0, 64518.797, 0.0044206693, 0.37893832, -1270498.6, 49254.492, 0.0000035155435, 9.999491, 10.000301 
2.0499276e+2, 1.7533624e+2, -1251697.4, -1208504.0, 61787.117, -0.037060436, 0.40959474, -1164648.0, 57098.082, 0.0000000004928599, 9.999671, 10.00025 
2.0499185e+2, 1.8533622e+2, -1201878.3, -1217265.9, 95937.58, -0.036428317, 0.42336228, -1113326.5, 10420.944, 0.0, 9.99969, 9.999514 
2.049915e+2, 1.9533546e+2, -1124093.0, -1128533.1, 98464.484, -0.0073538274, 0.37692288, -1027823.5, -2067.8157, 0.0, 9.999548, 9.999518 
2.0499067e+2, 2.053355e+2, -979130.1, -942019.1, 97599.625, -0.010030851, 0.40153006, -861226.8, 66529.89, 0.0, 9.999593, 10.000102 
2.049895e+2, 2.1533611e+2, -858097.94, -836218.56, 85875.84, -0.036406137, 0.4348673, -760588.44, 69163.555, 0.0, 9.999764, 10.0000725 
2.0498934e+2, 2.2533678e+2, -780704.1, -761357.1, 97810.04, 0.0061968993, 0.5027606, -672743.4, 59002.504, 0.0, 9.999681, 9.999951 
2.0499015e+2, 2.3533745e+2, -731747.0, -695108.1, 59089.633, 0.11074521, 0.5534316, -651563.3, -17824.49, 0.0, 9.999374, 9.999885 
2.0498897e+2, 2.4533659e+2, -687996.25, -742458.8, -130.76588, 0.13701826, 0.53930694, -687995.94, -152247.16, 0.0, 9.999516, 9.998816 
2.04986e+2, 2.5533438e+2, -502698.8, -602176.56, 53291.75, 0.08933855, 0.41329455, -479540.72, -41766.5, 0.0, 10.000113, 9.998818 
2.0498502e+2, 2.6533437e+2, -335798.97, -340783.53, 136352.45, 0.1274281, 0.47533464, -201916.0, 137859.16, 0.0, 10.000041, 9.999972 
2.049858e+2, 2.7533615e+2, -334304.84, -297848.25, 82640.62, 0.25117466, 0.63444746, -231449.47, 10306.8125, 0.0, 9.999408, 9.999902 
2.0498388e+2, 2.8533536e+2, -265483.94, -325098.38, -47789.355, 0.29434004, 0.62131697, -238968.05, -95205.23, 0.0, 9.999686, 9.998908 
2.0497935e+2, 2.953328e+2, -7680.78, -151450.39, -16027.317, 0.24888459, 0.44974363, -5915.737, 39871.055, 0.00000036340376, 10.000788, 9.998897 
2.049759e+2, 3.053303e+2, 28816.24, -160971.6, 145547.92, 0.08066939, 0.33976004, 107672.3, 107672.3, 0.000006339283, 10.000943, 9.998428 
2.0497817e+2, 3.1533283e+2, -984.289, -48259.902, 114257.85, 0.32448173, 0.7269006, 92055.24, 92055.24, 0.00003635789, 10.000165, 9.999569 
2.150014e+2, 1.2533556e+2, -1700039.8, -1708247.3, -29141.133, 0.01258929, 0.26271498, -1674714.9, 37033.785, 0.0011273269, 10.000065, 9.999996 
2.1499877e+2, 1.353377e+2, -1771798.9, -1726428.5, 75234.83, 0.00074076664, 0.49473274, -1670533.1, -56797.992, 0.0006276391, 9.999073, 9.999685 
2.1499716e+2, 1.4533886e+2, -1646300.5, -1492881.4, 74505.555, 0.019532818, 0.5902762, -1462654.3, 53071.695, 0.0002466057, 9.998715, 10.000783 
2.1499638e+2, 1.5533823e+2, -1487040.4, -1377308.6, 53043.95, 0.10598542, 0.43024752, -1355859.8, 61870.46, 0.000052325075, 9.99919, 10.000672 
2.1499462e+2, 1.6533847e+2, -1370344.3, -1298311.0, 63657.086, 0.06660363, 0.40475395, -1261187.9, 58538.67, 0.000002586899, 9.999451, 10.000411 
2.149922e+2, 1.7533949e+2, -1248109.9, -1191978.9, 75374.22, -0.075634256, 0.4450735, -1139614.6, 82101.195, 0.000000000052014764, 9.999637, 10.000377 
2.1499132e+2, 1.853399e+2, -1190969.8, -1184770.3, 84445.8, -0.07319981, 0.48479012, -1103367.4, 20344.234, 0.0, 9.999642, 9.999763 
2.149918e+2, 1.9533971e+2, -1109087.3, -1092602.9, 100426.71, 0.049047124, 0.46670213, -1000080.7, 25633.049, 0.0, 9.999524, 9.999777 
2.149908e+2, 2.053392e+2, -997300.56, -968457.9, 96796.375, 0.028044162, 0.4310154, -885014.44, 42704.027, 0.0, 9.999544, 9.999943 
2.149886e+2, 2.1533836e+2, -878237.7, -863320.3, 97338.18, -0.11722917, 0.33430707, -773155.44, 56570.008, 0.0, 9.999701, 9.999917 
2.1498819e+2, 2.2533837e+2, -846810.44, -881403.8, 79302.1, -0.09181722, 0.38548717, -782940.6, -51212.805, 0.0, 9.99961, 9.99916 
2.1498932e+2, 2.3533905e+2, -794589.1, -804192.6, 56814.33, 0.07747156, 0.51535946, -742374.0, -108647.305, 0.0, 9.999286, 9.999176 
2.1498817e+2, 2.4533954e+2, -588614.0, -529699.5, 15988.979, 0.08848459, 0.59303755, -525639.94, 10082.638, 0.0, 9.999489, 10.000291 
2.1498504e+2, 2.5533986e+2, -415526.53, -403285.1, 80625.0, -0.03602367, 0.57886094, -328548.8, 109166.766, 0.0, 10.000038, 10.000221 
2.1498409e+2, 2.653389e+2, -416140.16, -503258.1, 106575.15, 0.013110505, 0.5306456, -344565.97, -4841.8545, 0.0, 10.00002, 9.998865 
2.1498501e+2, 2.7533653e+2, -418701.5, -459931.8, 68994.28, 0.21501078, 0.39014077, -367308.34, -125560.32, 0.0, 9.999349, 9.998817 
2.1498388e+2, 2.8533596e+2, -217002.88, -219305.08, -13374.395, 0.30917177, 0.41165566, -204730.14, -60977.195, 0.0, 9.999667, 9.999643 
2.1498075e+2, 2.953373e+2, 34519.785, -56648.11, 29882.234, 0.29353976, 0.5542806, 43441.29, 89178.69, 0.0000004878426, 10.000756, 9.999564 
2.1497644e+2, 3.0533513e+2, 40773.438, -141687.81, 113601.055, 0.023798581, 0.44299382, 95241.914, 95241.914, 0.0000063211505, 10.00096, 9.998557 
2.1497628e+2, 3.1533328e+2, -35818.203, -114570.695, 90562.16, 0.083944015, 0.3792397, 23557.732, 23557.732, 0.0000317033, 10.000128, 9.999141 
2.250004e+2, 1.2533964e+2, -2101138.3, -1873305.1, -87513.14, 0.058867928, 0.34111452, -1843571.0, -131859.9, 0.0009979393, 9.997179, 10.000262 
2.2499873e+2, 1.3534118e+2, -1742837.4, -1690743.4, 36006.098, 0.09086865, 0.49138087, -1672350.6, -58650.52, 0.0005469221, 9.999192, 9.999866 
2.2499727e+2, 1.4534192e+2, -1537323.5, -1483245.3, 60775.313, 0.11539551, 0.55337405, -1443765.5, 71929.69, 0.00020906674, 9.999651, 10.000401 
2.2499534e+2, 1.5534186e+2, -1566262.9, -1457300.6, 42800.99, 0.10538347, 0.49193957, -1442498.9, -24802.7, 0.000042237294, 9.998828, 10.000301 
2.2499354e+2, 1.653421e+2, -1441712.0, -1329000.5, 96934.62, 0.04290391, 0.48120204, -1273230.0, 46462.605, 0.0000020119714, 9.998937, 10.000452 
2.24992e+2, 1.7534254e+2, -1225234.5, -1182303.3, 85223.484, -0.06276409, 0.46043345, -1115883.6, 105802.33, 0.0, 9.999785, 10.00038 
2.249912e+2, 1.8534279e+2, -1158300.1, -1148552.6, 66178.09, -0.05326264, 0.47284377, -1087069.1, 36613.465, 0.0, 9.999787, 9.999935 
2.2499101e+2, 1.9534281e+2, -1175555.3, -1108944.6, 62521.24, 0.04782864, 0.45968655, -1071411.0, -45728.74, 0.0, 9.999015, 9.999907 
2.2499017e+2, 2.0534238e+2, -1096154.6, -1054695.6, 92114.984, 0.04014217, 0.4472024, -981006.5, -53320.39, 0.0, 9.999028, 9.999604 
2.2498885e+2, 2.1534154e+2, -902429.7, -911132.2, 66300.45, -0.05942782, 0.38186067, -840337.9, -10644.048, 0.0, 9.999687, 9.999598 
2.2498824e+2, 2.2534107e+2, -833416.4, -875084.2, 54099.14, -0.0489354, 0.40048328, -796278.2, -64577.465, 0.0, 9.9997, 9.999163 
2.249883e+2, 2.3534085e+2, -818227.25, -812915.06, 77173.81, 0.05911841, 0.43915212, -738351.7, -104643.93, 0.0, 9.999111, 9.9992 
2.2498724e+2, 2.4534148e+2, -627009.9, -510870.84, 68000.98, 0.07080095, 0.5120659, -479518.88, 56181.797, 0.0, 9.999065, 10.000626 
2.249852e+2, 2.553428e+2, -463224.4, -390461.03, 31898.092, 0.004268815, 0.5642369, -378457.63, 59223.875, 0.0, 9.999553, 10.0005455 
2.2498427e+2, 2.653416e+2, -470739.06, -561227.5, 35135.473, 0.04514037, 0.49350175, -458698.53, -119007.62, 0.0, 9.999778, 9.998585 
2.2498433e+2, 2.7533808e+2, -363343.97, -462424.28, 49788.477, 0.19075973, 0.25900513, -342647.94, -100921.625, 0.0, 9.999848, 9.998561 
2.2498344e+2, 2.8533736e+2, -150947.89, -204147.44, 19038.145, 0.2775398, 0.28850907, -144836.83, -1103.4429, 0.00000000075483947, 10.000181, 9.999507 
2.2498153e+2, 2.953394e+2, 16900.654, -84309.28, -21845.955, 0.30387768, 0.5192275, 21414.725, 67127.69, 0.00000073344995, 10.000709, 9.999401 
2.2497769e+2, 3.0533788e+2, 51837.2, -118193.82, 8409.281, 0.059102617, 0.46878248, 52252.086, 52252.086, 0.000007274646, 10.000957, 9.998717 
2.2497761e+2, 3.1533468e+2, 97432.35, -38373.887, -53270.25, 0.17012733, 0.24896751, 115834.234, 115834.234, 0.000030117351, 10.000981, 9.999255 
2.3499689e+2, 1.2534535e+2, -2045836.3, -1767489.0, -41646.914, -0.05131553, 0.698146, -1761391.3, -49726.598, 0.0008671324, 9.997217, 10.000971 
2.3499924e+2, 1.3534272e+2, -1684701.0, -1585019.8, 105334.0, 0.20479427, 0.36020446, -1518329.9, 95355.13, 0.0004662031, 9.99924, 10.000576 
2.3499805e+2, 1.453425e+2, -1550014.8, -1497776.3, 20937.291, 0.21203682, 0.29604554, -1490420.4, 25266.059, 0.00017258529, 9.999607, 10.0003195 
2.3499285e+2, 1.5534535e+2, -1571465.9, -1467561.1, 21504.64, -0.04843583, 0.53500926, -1463286.3, -45624.44, 0.000033446406, 9.998828, 10.00023 
2.3499086e+2, 1.6534625e+2, -1455102.0, -1348475.9, 120707.96, -0.13603653, 0.6008605, -1269831.8, 49820.473, 0.0000017722703, 9.998899, 10.00034 
2.3499197e+2, 1.7534532e+2, -1228534.6, -1187865.3, 121725.28, -0.06116151, 0.4509189, -1084787.9, 136869.4, 0.0000000001389195, 9.999778, 10.000346 
2.3499125e+2, 1.8534482e+2, -1164614.5, -1147468.5, 29746.256, -0.04154442, 0.38731912, -1125084.5, -1424.0922, 0.0, 9.999727, 9.999973 
2.349889e+2, 1.9534469e+2, -1179088.8, -1107044.5, 40658.45, -0.081169985, 0.35792622, -1088746.3, -63084.48, 0.0, 9.998975, 9.99994 
2.3498851e+2, 2.0534503e+2, -1140580.4, -1129490.6, 110786.44, -0.04233853, 0.4446311, -1024110.4, -96450.35, 0.0, 9.998955, 9.9991255 
2.3498997e+2, 2.1534568e+2, -943563.4, -980402.94, 96619.836, 0.06825108, 0.57626486, -863623.2, -33966.496, 0.0, 9.999616, 9.999157 
2.3498932e+2, 2.2534494e+2, -792802.1, -770574.4, 26695.436, 0.07518433, 0.5488684, -752771.75, -21107.693, 0.0, 9.999617, 9.99992 
2.3498684e+2, 2.3534289e+2, -778964.3, -715095.75, 63548.355, -0.013673348, 0.33379954, -675909.06, -42227.76, 0.0, 9.999042, 9.999907 
2.3498586e+2, 2.4534236e+2, -686618.7, -625972.1, 78540.85, 0.0076673497, 0.29583192, -572104.2, -36420.594, 0.0, 9.999028, 9.999851 
2.349862e+2, 2.5534314e+2, -524731.0, -502578.22, 56273.49, 0.13181111, 0.36533725, -456301.38, -18628.41, 0.0, 9.999486, 9.999807 
2.3498537e+2, 2.6534256e+2, -434324.72, -479079.56, 31488.787, 0.16117044, 0.36443195, -418071.94, -78396.2, 0.0, 9.999751, 9.999163 
2.349835e+2, 2.753407e+2, -332963.78, -387350.72, 61146.133, 0.105338216, 0.24277177, -293236.9, -51545.46, 0.0, 9.999795, 9.9991045 
2.3498225e+2, 2.8533956e+2, -224127.38, -351209.13, 32777.92, 0.12360585, 0.2548737, -216171.16, -72466.78, 0.00000003119879, 10.000161, 9.998506 
2.3498148e+2, 2.9533917e+2, -60476.668, -233183.67, 4450.7026, 0.20512442, 0.34184605, -60362.047, -14647.883, 0.0000012360658, 10.000652, 9.99841 
2.3497939e+2, 3.053385e+2, 69173.95, -81275.875, 5236.08, 0.11622314, 0.4143443, 69355.96, 69355.96, 0.000009095323, 10.000948, 9.998978 
2.349817e+2, 3.1533703e+2, 136268.84, 47423.184, -51473.82, 0.4449443, 0.34081087, 159838.23, 159838.23, 0.00003154515, 10.000947, 9.999867 
2.449951e+2, 1.2534787e+2, -1774924.5, -1616278.4, 43278.414, -0.03239494, 0.6889983, -1605240.1, 106398.87, 0.0007416808, 9.99899, 10.001156 
2.4499743e+2, 1.3534558e+2, -1754132.4, -1582636.5, 136123.6, 0.135752, 0.35281762, -1507504.5, 106149.87, 0.00038814702, 9.998612, 10.000897 
2.4499667e+2, 1.4534503e+2, -1689809.8, -1575579.4, 18600.059, 0.16427124, 0.24558471, -1572627.0, -56968.445, 0.00013769997, 9.998689, 10.000228 
2.4499185e+2, 1.5534787e+2, -1517884.3, -1453590.5, 4500.4683, -0.04646599, 0.49131143, -1453277.0, -35642.32, 0.000025817635, 9.999255, 10.000117 
2.449903e+2, 1.6534868e+2, -1396173.0, -1324954.3, 130856.484, -0.09938557, 0.556015, -1224948.5, 94677.625, 0.0000016011192, 9.99933, 10.000291 
2.4499203e+2, 1.753475e+2, -1362382.1, -1262753.6, 118735.64, 0.014706454, 0.38787898, -1183806.0, 37827.008, 0.0000000006420841, 9.998907, 10.000253 
2.4499117e+2, 1.853469e+2, -1294765.3, -1260642.5, 8414.475, 0.0137002915, 0.3449115, -1258680.4, -135042.31, 0.0, 9.999051, 9.99952 
2.4498793e+2, 1.9534683e+2, -1112635.6, -1123733.9, -30580.334, -0.104223445, 0.36516652, -1087105.0, -61463.766, 0.0, 9.99964, 9.999501 
2.4498764e+2, 2.0534706e+2, -1016376.5, -1026058.75, 71195.055, -0.054277334, 0.4411963, -949858.1, -22217.613, 0.0, 9.99962, 9.999515 
2.4499008e+2, 2.1534753e+2, -1012252.3, -970411.94, 107590.086, 0.15519507, 0.5154348, -881727.0, -52090.41, 0.0, 9.998967, 9.9995365 
2.449896e+2, 2.2534707e+2, -843921.56, -783440.1, 63007.316, 0.16712642, 0.49432933, -743792.2, -12153.038, 0.0, 9.99921, 10.000028 
2.4498661e+2, 2.3534578e+2, -603492.5, -621016.25, 39409.098, 0.0045087673, 0.34184498, -571883.0, 61764.855, 0.0, 10.00021, 9.9999895 
2.4498576e+2, 2.4534474e+2, -519964.25, -625037.8, 44565.47, 0.024510536, 0.287241, -503608.38, 32047.254, 0.0, 10.000516, 9.999143 
2.4498683e+2, 2.5534394e+2, -460609.25, -546686.1, 12540.474, 0.21371618, 0.27047923, -458819.44, -21156.684, 0.0, 10.000253, 9.999136 
2.4498592e+2, 2.6534328e+2, -342215.22, -400564.8, -6741.692, 0.2206592, 0.279177, -341446.4, -1780.1685, 0.0, 10.00023, 9.9994755 
2.4498324e+2, 2.7534276e+2, -222052.55, -298701.8, -9993.624, 0.074130684, 0.258984, -220771.0, 20895.941, 0.0, 10.000415, 9.999412 
2.4498227e+2, 2.8534168e+2, -214432.89, -387702.44, -3650.759, 0.100974604, 0.27789554, -214356.0, -70676.0, 0.00000009388162, 10.000409, 9.998135 
2.4498263e+2, 2.953401e+2, -144967.6, -309958.2, 1022.67725, 0.28199995, 0.28005162, -144961.25, -99257.38, 0.0000018075962, 10.000238, 9.998076 
2.4498105e+2, 3.0533943e+2, 30493.506, -114750.94, 43643.23, 0.20351386, 0.3779635, 42598.605, 42598.605, 0.000010445255, 10.000755, 9.998836 
2.4498314e+2, 3.153384e+2, 293726.94, 176988.77, -90436.68, 0.45942315, 0.36139095, 342994.94, 342994.94, 0.00003251449, 10.0018215, 10.000322 
2.5499454e+2, 1.2534735e+2, -1798926.6, -1666399.6, 12284.763, -0.025715016, 0.3244246, -1665270.5, 46362.03, 0.000622871, 9.998993, 10.000811 
2.5499314e+2, 1.3534972e+2, -1755600.4, -1583525.3, 124731.664, -0.1717915, 0.4573687, -1518035.8, 95572.945, 0.00031436078, 9.9986105, 10.000889 
2.5499308e+2, 1.4534949e+2, -1703111.8, -1600419.9, 32803.36, -0.08360689, 0.39107007, -1590835.8, -75224.0, 0.00010539114, 9.9986725, 10.000066 
2.5499204e+2, 1.5534936e+2, -1525302.8, -1472590.5, 32378.75, 0.030055925, 0.35383797, -1457197.0, -39581.85, 0.000019009012, 9.999266, 9.999982 
2.5499156e+2, 1.6534932e+2, -1405146.5, -1332992.3, 108933.55, 0.07634369, 0.3408118, -1254317.1, 65297.566, 0.0000013062046, 9.9992895, 10.000254 
2.5499192e+2, 1.7534916e+2, -1368518.8, -1270577.0, 111392.43, 0.09470536, 0.27933517, -1197866.3, 23746.313, 0.000000000635992, 9.998891, 10.000202 
2.5499067e+2, 1.8534915e+2, -1371097.8, -1407718.8, 24822.645, 0.042233065, 0.3463795, -1358562.9, -234947.95, 0.0, 9.999001, 9.998538 
2.549879e+2, 1.9534919e+2, -1179692.9, -1255220.8, -3649.9126, -0.08875348, 0.4736356, -1179517.0, -153895.31, 0.0, 9.999604, 9.998617 
2.5498742e+2, 2.053484e+2, -943441.44, -856685.94, 40894.664, -0.05389925, 0.42942765, -840448.25, 87180.055, 0.0, 9.999542, 10.000716 
2.549889e+2, 2.1534689e+2, -936740.56, -804697.5, 92434.48, 0.12560448, 0.18547298, -757127.75, 72507.26, 0.0, 9.998925, 10.000696 
2.5498882e+2, 2.2534736e+2, -888963.9, -861742.7, 93585.375, 0.15304331, 0.22606577, -780783.4, -49156.04, 0.0, 9.999146, 9.999521 
2.5498736e+2, 2.3534942e+2, -646986.4, -699786.94, 82556.22, 0.042745266, 0.4578489, -586711.94, 46896.29, 0.0, 10.000156, 9.999475 
2.5498676e+2, 2.4534862e+2, -572787.8, -726266.4, 28025.412, 0.0578041, 0.48552483, -567830.44, -32213.285, 0.0, 10.000482, 9.998463 
2.549869e+2, 2.5534523e+2, -513471.97, -644235.8, 7637.22, 0.17873847, 0.2784937, -513027.4, -75375.97, 0.0, 10.0001955, 9.998494 
2.549857e+2, 2.6534384e+2, -342007.9, -392728.5, -6370.9893, 0.15903562, 0.23972611, -341219.9, -1557.0245, 0.0, 10.000198, 9.999547 
2.5498337e+2, 2.7534416e+2, -224288.2, -292399.1, 4093.3853, 0.02465586, 0.29850078, -224043.08, 17611.523, 0.0, 10.00036, 9.999487 
2.5498322e+2, 2.8534356e+2, -202023.1, -348074.3, -19051.56, 0.13872436, 0.3493893, -199578.83, -55917.156, 0.00000013919723, 10.00036, 9.9984255 
2.5498477e+2, 2.9534206e+2, -137438.23, -271925.8, 1367.9048, 0.4538413, 0.3330395, -137424.33, -91741.41, 0.0000021199414, 10.000148, 9.998379 
2.549824e+2, 3.0534053e+2, -8886.589, -196331.64, 81242.42, 0.24691258, 0.35349277, 21424.117, 21424.117, 0.000010666905, 10.0007515, 9.99828 
2.5498143e+2, 3.1533843e+2, 298614.66, 192699.06, -45705.703, 0.064097166, 0.29481384, 315610.72, 315610.72, 0.00003213242, 10.001792, 10.000452 
2.6499394e+2, 1.2534806e+2, -2003670.3, -1808954.5, -14196.971, 0.08362734, 0.14818034, -1807924.8, -96307.9, 0.0005136847, 9.9977665, 10.000419 
2.6499134e+2, 1.3535167e+2, -1806460.8, -1623114.0, 63901.746, -0.18715078, 0.41341734, -1603040.3, 10545.462, 0.0002486243, 9.998302, 10.000772 
2.6499167e+2, 1.4535193e+2, -1679640.4, -1572167.6, 19915.447, -0.091342576, 0.39373815, -1568595.9, -53009.81, 0.00007773356, 9.998772, 10.000207 
2.6499164e+2, 1.5535155e+2, -1475937.4, -1432011.4, 23710.936, 0.05237482, 0.31689394, -1421654.4, -4062.7932, 0.000013419433, 9.999538, 10.000126 
2.649913e+2, 1.6535163e+2, -1378540.0, -1329609.8, 77491.3, 0.1165689, 0.31234434, -1272813.3, 46777.117, 0.0000010267595, 9.999507, 10.000179 
2.649911e+2, 1.7535195e+2, -1401696.3, -1293897.3, 65798.07, 0.13876131, 0.30580887, -1262740.6, -41155.918, 0.0000000012219834, 9.998694, 10.000138 
2.6499006e+2, 1.8535188e+2, -1383448.8, -1405126.3, 83749.89, 0.09113677, 0.3689128, -1309839.1, -186252.52, 0.0, 9.998879, 9.998612 
2.6498818e+2, 1.9535147e+2, -1140510.9, -1233222.6, 117170.414, -0.029341042, 0.4456023, -1060859.6, -35264.0, 0.0, 9.999859, 9.998648 
2.6498756e+2, 2.0535031e+2, -927299.0, -919738.06, 84513.555, -0.009790287, 0.39414468, -838920.44, 88685.9, 0.0, 9.99997, 10.000071 
2.6498803e+2, 2.1534844e+2, -931578.5, -875232.56, -18226.771, 0.13256884, 0.1814451, -869850.6, -40231.523, 0.0, 9.999282, 10.000038 
2.6498795e+2, 2.2534853e+2, -876820.7, -844424.4, 722.1724, 0.15243387, 0.21097127, -844408.3, -112792.86, 0.0, 9.999176, 9.999628 
2.6498744e+2, 2.3535031e+2, -731458.25, -731635.1, 17780.766, 0.06840801, 0.4060996, -713765.7, -80168.266, 0.0, 9.9995365, 9.999558 
2.64987e+2, 2.4534972e+2, -668706.94, -784446.3, -2347.477, 0.06646364, 0.45751047, -668659.4, -133055.03, 0.0, 9.999874, 9.998358 
2.6498663e+2, 2.5534698e+2, -517782.97, -655502.7, 11656.967, 0.1340984, 0.32611525, -516803.25, -79169.586, 0.0, 10.000215, 9.998404 
2.6498568e+2, 2.653453e+2, -350414.8, -428164.28, 14189.939, 0.13715206, 0.27813563, -347905.97, -8256.997, 0.0, 10.000277, 9.999263 
2.6498428e+2, 2.7534467e+2, -277000.8, -345065.47, -15753.121, 0.09846553, 0.2657715, -273531.7, -31880.295, 0.0, 10.000122, 9.999234 
2.6498443e+2, 2.8534424e+2, -159456.25, -304207.56, -26799.143, 0.2205244, 0.33399016, -154654.0, -10997.7705, 0.00000017298198, 10.000541, 9.998641 
2.649857e+2, 2.9534382e+2, 68310.02, -144965.25, -25486.553, 0.4747195, 0.40195018, 71313.39, 116978.46, 0.0000022646286, 10.001428, 9.998636 
2.6498362e+2, 3.053413e+2, 117128.08, -205658.34, 78028.41, 0.24196143, 0.3426656, 135000.6, 135000.6, 0.000010678338, 10.001914, 9.997664 
2.6498267e+2, 3.1533852e+2, 304507.16, 171556.84, -87648.766, 0.009010897, 0.2786181, 348037.72, 348037.72, 0.000032089163, 10.001931, 10.000242 
2.7499294e+2, 1.253498e+2, -2034271.3, -1870709.5, -15339.317, 0.16302653, 0.14037447, -1869283.4, -157689.17, 0.00042107303, 9.997756, 9.999999 
2.7499172e+2, 1.3535152e+2, -1812447.5, -1641228.4, 83195.695, 0.00088760606, 0.23101255, -1607462.4, 6122.1494, 0.00019522583, 9.998326, 10.000634 
2.7499217e+2, 1.4535247e+2, -1652111.8, -1515169.8, 36391.836, 0.05847222, 0.26540628, -1506099.5, 9480.813, 0.000056360343, 9.998772, 10.000599 
2.749904e+2, 1.5535447e+2, -1448747.8, -1374521.4, 57811.484, -0.042042978, 0.38896924, -1342935.5, 74627.88, 0.000009372096, 9.999538, 10.000522 
2.749894e+2, 1.6535561e+2, -1384405.5, -1340085.5, 39660.17, -0.042646624, 0.4727418, -1316814.4, 2738.7363, 0.0000008660051, 9.999497, 10.000109 
2.749893e+2, 1.7535573e+2, -1407911.3, -1304710.9, 43981.84, 0.06987219, 0.45517284, -1288510.1, -66959.66, 0.000000004874734, 9.998685, 10.000067 
2.7498907e+2, 1.8535505e+2, -1316809.3, -1250842.8, 114244.42, 0.08722451, 0.40596324, -1164915.6, -41361.47, 0.0, 9.998816, 9.999701 
2.7498856e+2, 1.9535378e+2, -1076398.8, -1089682.3, 159522.17, 0.002016656, 0.28356615, -923380.06, 102182.49, 0.0, 9.999821, 9.999648 
2.749879e+2, 2.0535289e+2, -1116414.4, -1300181.0, 51692.066, 0.014939289, 0.34581006, -1102871.9, -175298.17, 0.0, 9.999915, 9.997491 
2.7498725e+2, 2.1535216e+2, -1113217.0, -1236112.0, -35942.105, 0.10856682, 0.5016523, -1103477.3, -273888.13, 0.0, 9.99921, 9.997596 
2.749868e+2, 2.2535057e+2, -846208.25, -758350.2, 7872.649, 0.106082685, 0.44929403, -757650.3, -26046.668, 0.0, 9.99908, 10.000268 
2.7498654e+2, 2.353483e+2, -696457.9, -641662.8, 37129.63, 0.013526784, 0.17513923, -622916.75, 10700.416, 0.0, 9.99946, 10.000214 
2.749862e+2, 2.4534793e+2, -640419.4, -712877.2, 3628.427, -0.014977945, 0.19067185, -640238.1, -104619.695, 0.0, 9.999824, 9.998871 
2.7498576e+2, 2.553491e+2, -494938.34, -595503.8, 30677.559, 0.006748663, 0.39864314, -486318.88, -48708.367, 0.0, 10.000155, 9.998846 
2.7498567e+2, 2.6534772e+2, -402861.38, -525100.4, 52.27059, 0.08940193, 0.39073125, -402861.34, -63236.34, 0.0, 10.000231, 9.998618 
2.7498585e+2, 2.753441e+2, -328543.88, -440883.4, -12847.966, 0.22332285, 0.15086882, -327093.22, -85434.484, 0.00000000009324417, 10.000073, 9.998602 
2.7498576e+2, 2.853435e+2, -149128.89, -277954.44, 304.4772, 0.27837306, 0.22049272, -149128.17, -5462.508, 0.00000023612336, 10.000522, 9.998828 
2.749852e+2, 2.9534525e+2, 75950.77, -120587.22, 14926.618, 0.25442758, 0.48556674, 77077.95, 122729.266, 0.0000024951785, 10.001386, 9.998825 
2.749843e+2, 3.0534187e+2, 76111.13, -284739.66, 72469.945, 0.10150974, 0.3552705, 90121.375, 90121.375, 0.000011113361, 10.001901, 9.997119 
2.749864e+2, 3.1533858e+2, 242856.64, 70765.01, -81466.38, 0.14912163, 0.30486295, 275304.1, 275304.1, 0.000032683794, 10.001818, 9.999602 
2.849914e+2, 1.253514e+2, -1853115.4, -1789270.5, -60443.902, 0.18067464, 0.20808023, -1752837.3, -41256.258, 0.00034660724, 9.99903, 9.999939 
2.8499004e+2, 1.3535254e+2, -1837577.9, -1634220.3, 18316.975, 0.018442897, 0.22935529, -1632583.6, -19007.11, 0.00015383559, 9.998087, 10.000789 
2.849908e+2, 1.4535393e+2, -1766045.9, -1537853.1, 28930.652, 0.09572097, 0.2850159, -1534242.4, -18675.564, 0.00004093297, 9.997847, 10.000894 
2.849892e+2, 1.5535633e+2, -1587921.4, -1412064.5, 26953.799, -0.05958642, 0.4208044, -1408026.0, 9518.436, 0.0000066741927, 9.998444, 10.000799 
2.849884e+2, 1.6535735e+2, -1440181.5, -1392136.1, -11909.282, -0.0759154, 0.49305946, -1389346.1, -69811.445, 0.00000074756446, 9.999237, 9.999876 
2.8498864e+2, 1.7535691e+2, -1200885.0, -1233369.4, -35968.996, 0.06107664, 0.44538853, -1177661.0, 43877.184, 0.000000006090155, 10.000228, 9.99982 
2.8498876e+2, 1.8535599e+2, -1075652.6, -1125313.5, 11190.885, 0.10221978, 0.37689468, -1073247.3, 50296.793, 0.0, 10.000431, 9.9997835 
2.849888e+2, 1.9535469e+2, -1057994.3, -1075430.1, -36720.418, 0.044198006, 0.24760826, -1028971.06, -3419.7385, 0.0, 9.999919, 9.9997015 
2.849882e+2, 2.0535387e+2, -1121881.1, -1333110.4, -89720.55, 0.048813578, 0.32669854, -1088916.5, -161354.03, 0.0, 10.00001, 9.997211 
2.849871e+2, 2.1535328e+2, -935066.0, -1182883.6, -18873.545, 0.1064042, 0.527123, -933636.9, -104058.305, 0.0, 10.000581, 9.997295 
2.8498644e+2, 2.2535153e+2, -671559.56, -707903.7, 77541.41, 0.100113854, 0.4880643, -610089.3, 121506.875, 0.0, 10.00043, 9.999959 
2.8498626e+2, 2.3534876e+2, -691062.3, -670882.44, 22537.38, 0.03590289, 0.19468068, -656279.44, -22664.295, 0.0, 9.999635, 9.9999275 
2.849862e+2, 2.4534824e+2, -643635.5, -671555.94, -8586.621, 0.016802667, 0.18896237, -641206.2, -105588.945, 0.0, 9.999611, 9.999257 
2.8498626e+2, 2.553497e+2, -449932.34, -531312.4, -7162.9014, 0.04128625, 0.38631624, -449306.7, -11702.034, 0.0, 10.000287, 9.999221 
2.8498623e+2, 2.6534873e+2, -354411.28, -510591.88, -25859.281, 0.111217454, 0.40615764, -350241.03, -10625.878, 0.0, 10.000604, 9.998535 
2.849862e+2, 2.7534562e+2, -261347.0, -412691.56, -9655.247, 0.2349633, 0.21767415, -260733.52, -19087.217, 0.0000000018932573, 10.000557, 9.998558 
2.84986e+2, 2.853447e+2, -145297.45, -283638.28, 53711.13, 0.25263962, 0.26422104, -126892.57, 16762.928, 0.00000028816427, 10.000578, 9.99877 
2.8498542e+2, 2.953457e+2, -20197.92, -163094.0, 38542.977, 0.1766127, 0.46233773, -10464.784, 35181.348, 0.0000027347362, 10.000719, 9.998854 
2.849857e+2, 3.0534193e+2, 26098.902, -272225.53, 133784.36, 0.08428462, 0.27005184, 77305.4, 77305.4, 0.000011990512, 10.001381, 9.997458 
2.8498933e+2, 3.153406e+2, 265046.72, 59363.316, 10945.672, 0.2606435, 0.3830522, 265627.56, 265627.56, 0.000033758955, 10.002066, 9.999398 
2.949888e+2, 1.2535302e+2, -1832359.6, -1757778.4, -101891.9, -0.03309362, 0.35971692, -1686567.6, 25008.14, 0.00028487924, 9.999069, 10.000142 
2.9498604e+2, 1.3535477e+2, -1811463.4, -1587571.0, -16817.238, -0.2096666, 0.40827894, -1586314.9, 27246.457, 0.000121053716, 9.99812, 10.001093 
2.9498738e+2, 1.4535627e+2, -1748744.0, -1508180.1, 37426.85, -0.05494123, 0.44870663, -1502491.8, 13054.565, 0.000029834508, 9.997863, 10.001095 
2.949876e+2, 1.5535714e+2, -1578440.0, -1391075.9, 54240.355, -0.08279991, 0.41062412, -1376506.6, 41027.977, 0.000004731658, 9.998436, 10.000946 
2.9498804e+2, 1.653569e+2, -1477234.1, -1460208.4, 19401.455, -0.05330692, 0.37647524, -1447534.3, -127999.27, 0.00000054097734, 9.999204, 9.999422 
2.9498887e+2, 1.7535558e+2, -1231900.1, -1293925.8, 9131.623, 0.04250073, 0.28263342, -1230583.8, -9036.765, 0.0000000012704189, 10.000221, 9.999401 
2.9498905e+2, 1.8535471e+2, -1146314.3, -1267422.4, -15393.645, 0.0665241, 0.28662616, -1144388.3, -20832.488, 0.0, 10.000406, 9.998824 
2.9498866e+2, 1.9535412e+2, -1126786.1, -1208040.0, -48276.434, 0.020698687, 0.3274436, -1104316.6, -78754.086, 0.0, 9.999875, 9.998813 
2.9498804e+2, 2.0535316e+2, -992233.56, -1045754.6, -73182.02, 0.017982416, 0.3297357, -941072.75, -13499.339, 0.0, 9.999931, 9.999221 
2.949872e+2, 2.1535176e+2, -812261.25, -908523.75, 9275.752, 0.04675907, 0.24921834, -811375.56, 18212.652, 0.0, 10.000501, 9.999214 
2.949867e+2, 2.2535135e+2, -772422.9, -897873.9, 40847.06, 0.063608356, 0.31720403, -760295.4, -28701.852, 0.0, 10.000345, 9.998697 
2.9498643e+2, 2.3535173e+2, -787018.5, -851483.5, 2158.0515, 0.07323739, 0.46522668, -786946.3, -153355.1, 0.0, 9.999557, 9.998726 
2.9498687e+2, 2.4535081e+2, -629529.2, -633379.44, 10257.559, 0.10628204, 0.46182868, -621017.7, -85418.36, 0.0, 9.999568, 9.999546 
2.9498792e+2, 2.553487e+2, -436710.03, -494579.03, 24503.635, 0.16099523, 0.28099528, -427728.4, 9888.467, 0.0, 10.00024, 9.999502 
2.949872e+2, 2.653482e+2, -321266.63, -438255.78, -33973.68, 0.13190535, 0.30755326, -312116.34, 27504.988, 0.0, 10.000586, 9.9990425 
2.9498506e+2, 2.75349e+2, -235155.9, -348391.53, -6503.148, 0.04073249, 0.4609251, -234783.66, 6831.5117, 0.0000000016821552, 10.000508, 9.999025 
2.9498485e+2, 2.8534788e+2, -166317.77, -318453.75, 49220.344, 0.060970698, 0.47326255, -151782.33, -8156.538, 0.00000022409213, 10.000545, 9.998546 
2.9498616e+2, 2.9534513e+2, -38760.67, -193068.97, 57381.527, 0.15522893, 0.3210603, -19761.807, 25888.629, 0.0000026529046, 10.000677, 9.998672 
2.9498756e+2, 3.0534136e+2, 110090.12, -91040.664, 158766.13, 0.113698885, 0.07663015, 197461.1, 197461.1, 0.000012335517, 10.001353, 9.998714 
2.9499078e+2, 3.1534415e+2, 280294.44, 90902.875, 60579.3, 0.15264611, 0.4755764, 298013.72, 298013.72, 0.000034800534, 10.002056, 9.999619 
3.0498663e+2, 1.253536e+2, -2082633.9, -1857012.4, -60012.246, -0.05828368, 0.43377742, -1842043.0, -130467.89, 0.00023189351, 9.997267, 10.000336 
3.0498478e+2, 1.3535541e+2, -1625717.0, -1488972.9, -41143.426, -0.20716463, 0.47916934, -1477548.3, 136008.56, 0.000094942065, 9.999342, 10.00119 
3.0498645e+2, 1.4535658e+2, -1510794.9, -1437786.4, -25714.426, -0.021475049, 0.50371236, -1429638.8, 85904.08, 0.000021738364, 9.999718, 10.000667 
3.0498642e+2, 1.5535572e+2, -1537647.5, -1420234.8, -76163.125, -0.06113821, 0.33952683, -1382778.5, 34768.26, 0.0000030875526, 9.9989395, 10.000495 
3.049874e+2, 1.653551e+2, -1447638.6, -1414299.9, -42937.285, -0.03473225, 0.2724728, -1384909.6, -65359.28, 0.0000002653173, 9.999259, 9.99971 
3.0498934e+2, 1.7535461e+2, -1172097.4, -1230173.6, -16007.028, 0.06082149, 0.23051403, -1167977.8, 53576.52, 0.0, 10.000482, 9.99971 
3.049896e+2, 1.8535435e+2, -1133296.9, -1244619.0, -29883.332, 0.08427919, 0.2748258, -1125782.3, -2224.3904, 0.0, 10.000431, 9.998967 
3.0498835e+2, 1.953542e+2, -1201745.9, -1229278.3, 9893.772, 0.034728453, 0.34301904, -1198559.4, -172997.14, 0.0, 9.9992895, 9.998954 
3.0498764e+2, 2.0535354e+2, -1033146.5, -996066.6, 44568.34, 0.017826596, 0.3417704, -966335.8, -38766.28, 0.0, 9.999352, 9.999845 
3.0498752e+2, 2.153525e+2, -775872.06, -828148.1, 5328.614, 0.030597432, 0.23444837, -775334.44, 54244.965, 0.0, 10.00047, 9.999788 
3.0498722e+2, 2.2535224e+2, -702516.75, -910966.3, -8587.541, 0.05194131, 0.31021726, -702163.56, 29420.223, 0.0, 10.001027, 9.998278 
3.0498675e+2, 2.3535262e+2, -590915.44, -801773.4, 3479.633, 0.07972365, 0.4982692, -590858.0, 42725.69, 0.0, 10.001104, 9.998316 
3.0498743e+2, 2.4535151e+2, -423948.03, -551517.75, 62504.766, 0.13530844, 0.50405616, -398428.06, 137166.3, 0.0, 10.001067, 9.999378 
3.04989e+2, 2.5534907e+2, -337526.94, -459844.8, 33728.41, 0.21373357, 0.30413222, -328843.03, 108771.48, 0.0, 10.000994, 9.999368 
3.049882e+2, 2.6534837e+2, -274776.72, -437790.4, -62236.883, 0.15554512, 0.3262124, -253732.13, 85889.05, 0.0, 10.000996, 9.998851 
3.049853e+2, 2.7534905e+2, -161739.31, -335846.66, -99827.24, -0.00704279, 0.48870516, -116339.9, 125277.18, 0.00000000014964384, 10.001108, 9.998826 
3.0498528e+2, 2.8534782e+2, -33336.21, -260705.84, -33583.71, 0.011228976, 0.5008814, -28479.463, 115149.9, 0.00000013461268, 10.001493, 9.998478 
3.049876e+2, 2.9534507e+2, 158880.98, -100648.13, -27990.305, 0.16930245, 0.35501137, 161865.42, 207519.13, 0.0000024042524, 10.002065, 9.998628 
3.0498964e+2, 3.0534193e+2, 221166.2, 47436.99, 49765.715, 0.1718866, 0.134668, 234411.97, 234411.97, 0.000011969342, 10.001746, 9.999483 
3.049924e+2, 3.1534475e+2, 33667.527, -38447.78, -105081.2, 0.1980339, 0.4663863, 108705.39, 108705.39, 0.00003458678, 10.000398, 9.999543 
3.1498453e+2, 1.2535335e+2, -2061891.0, -1820517.5, 17645.36, -0.035648204, 0.45352906, -1819234.4, -107657.34, 0.00018871382, 9.997306, 10.000565 
3.149858e+2, 1.3535473e+2, -1633214.6, -1493567.1, 33908.0, -0.05249029, 0.45412913, -1485769.3, 127791.33, 0.00007509751, 9.999316, 10.001164 
3.149877e+2, 1.4535508e+2, -1596750.8, -1617017.5, -65533.844, 0.11183868, 0.46321717, -1540571.4, -25017.049, 0.00001598166, 9.99971, 9.999444 
3.1498545e+2, 1.553521e+2, -1614186.5, -1584060.9, -94903.46, -0.07452708, 0.20501164, -1503032.3, -85451.13, 0.00000170519, 9.998959, 9.99936 
3.149863e+2, 1.6535187e+2, -1376250.1, -1265708.8, -8863.221, -0.08884628, 0.17946644, -1265002.6, 54579.164, 0.000000057148895, 9.99925, 10.000738 
3.1498986e+2, 1.7535397e+2, -1103508.6, -1080758.4, 30010.059, 0.04880188, 0.29308462, -1060039.9, 161520.44, 0.0, 10.000451, 10.0007515 
3.1499016e+2, 1.8535498e+2, -1049510.8, -1065065.5, -80983.88, 0.0808214, 0.34932327, -975931.7, 147618.03, 0.0, 10.0004, 10.000218 
3.1498754e+2, 1.9535492e+2, -1124189.0, -1054953.9, -23306.684, 0.010827391, 0.29982412, -1047839.2, -22289.602, 0.0, 9.999232, 10.000177 
3.149868e+2, 2.0535517e+2, -1102284.0, -1119831.5, 79288.88, -0.018823808, 0.36967844, -1031284.9, -103734.93, 0.0, 9.99927, 9.999034 
3.149877e+2, 2.153556e+2, -843141.44, -947493.06, 52622.74, -0.011338029, 0.49251136, -821212.8, 8338.553, 0.0, 10.000386, 9.999007 
3.1498775e+2, 2.253543e+2, -677820.7, -845761.9, -12546.95, -0.010606217, 0.47769922, -676888.5, 54677.418, 0.0, 10.000965, 9.998757 
3.1498706e+2, 2.3535137e+2, -568833.06, -742374.06, 13703.07, -0.017799003, 0.29092044, -567757.7, 65835.22, 0.0, 10.001043, 9.998756 
3.149876e+2, 2.4535026e+2, -468007.2, -638119.4, 52482.473, 0.027261704, 0.3046622, -453118.56, 82484.47, 0.0, 10.001045, 9.998793 
3.1498927e+2, 2.5535077e+2, -387261.28, -548692.2, 34689.41, 0.121394046, 0.4555191, -380122.66, 57475.21, 0.0, 10.00093, 9.99879 
3.1498894e+2, 2.6534927e+2, -336570.56, -559975.25, -64943.33, 0.11429157, 0.46868366, -319063.6, 20550.791, 0.0, 10.000969, 9.998028 
3.1498685e+2, 2.7534577e+2, -222186.92, -452636.63, -87072.33, 0.017855765, 0.29790688, -192987.55, 48664.617, 0.00000000001473293, 10.001067, 9.998046 
3.1498715e+2, 2.8534445e+2, -34750.902, -256035.64, -18886.346, 0.029067984, 0.33991072, -33150.555, 110516.03, 0.000000108201135, 10.001463, 9.998523 
3.1498942e+2, 2.953454e+2, 152467.28, -104346.22, -667.4532, 0.121726036, 0.55636066, 152469.02, 198126.27, 0.0000022594174, 10.002017, 9.998628 
3.1499165e+2, 3.0534342e+2, 243014.39, 99334.55, -3369.1826, 0.17986234, 0.43569884, 243093.34, 243093.34, 0.00001165084, 10.001723, 9.99985 
3.1499362e+2, 3.153424e+2, 11878.713, -72634.86, -130652.33, 0.24182034, 0.3426756, 106937.87, 106937.87, 0.000033846463, 10.000348, 9.999333 
3.2498378e+2, 1.2535217e+2, -1644281.1, -1642327.4, 23771.01, 0.014967925, 0.4321466, -1619513.3, 92072.44, 0.00015750076, 10.00025, 10.000372 
3.2498538e+2, 1.3535224e+2, -1741413.6, -1607428.4, -46703.33, 0.0067417156, 0.35551903, -1592755.8, 20827.035, 0.00006189271, 9.998812, 10.000639 
3.249876e+2, 1.4535266e+2, -1709730.1, -1651152.9, -83920.98, 0.17673099, 0.38719934, -1591556.4, -75980.46, 0.000012633238, 9.998829, 9.999642 
3.249859e+2, 1.5535036e+2, -1384774.5, -1450436.4, -20785.137, 0.005960826, 0.17484206, -1378748.1, 38847.555, 0.0000008198343, 10.0004225, 9.999578 
3.249865e+2, 1.6535059e+2, -1266620.6, -1198374.1, 61753.547, -0.028720673, 0.17749618, -1161943.1, 157649.4, 0.000000004124255, 9.999957, 10.000853 
3.249889e+2, 1.7535299e+2, -1496621.0, -1260863.1, 16291.18, 0.047578856, 0.31407356, -1259742.8, -38172.953, 0.0, 9.997708, 10.000838 
3.2498902e+2, 1.8535423e+2, -1362016.1, -1138557.8, -98772.91, 0.05257901, 0.35434723, -1101157.9, 22398.549, 0.0, 9.9979315, 10.000894 
3.2498705e+2, 1.9535436e+2, -925609.7, -887011.1, -105033.78, -0.010456126, 0.2543015, -799518.3, 226033.73, 0.0, 10.000295, 10.000811 
3.249869e+2, 2.0535472e+2, -893302.1, -1065961.1, -13139.428, -0.009803622, 0.32659405, -892307.94, 35243.42, 0.0, 10.0009, 9.998622 
3.249884e+2, 2.153553e+2, -938160.9, -1034658.7, -20347.06, 0.048289306, 0.50406057, -934046.06, -104492.17, 0.0, 9.999912, 9.99864 
3.249888e+2, 2.2535412e+2, -793998.6, -825935.0, -36364.277, 0.054607745, 0.48422873, -770251.06, -38683.824, 0.0, 9.999842, 9.999435 
3.249882e+2, 2.3535131e+2, -586174.8, -678015.44, -8841.616, 0.016327977, 0.24025242, -585331.4, 48259.414, 0.0, 10.000609, 9.999409 
3.249885e+2, 2.4535032e+2, -505358.1, -673949.9, 48349.13, 0.027171087, 0.24279651, -492476.66, 43122.34, 0.0, 10.000856, 9.998646 
3.2498965e+2, 2.5535095e+2, -427442.2, -586979.06, 53939.27, 0.08392041, 0.42015523, -410917.1, 26676.379, 0.0, 10.000725, 9.9986315 
3.2498977e+2, 2.6534918e+2, -339274.84, -614786.9, 19619.48, 0.09173518, 0.4403654, -337884.72, 1728.9187, 0.0, 10.001194, 9.997536 
3.249889e+2, 2.753451e+2, -92429.03, -441345.84, 6224.0366, 0.061200406, 0.25960276, -92318.04, 149340.73, 0.00000000010851988, 10.002196, 9.997573 
3.2498914e+2, 2.8534368e+2, 44645.395, -208763.89, 68771.6, 0.06396893, 0.31068406, 62105.938, 205780.58, 0.00000014601811, 10.001959, 9.998616 
3.2499042e+2, 2.95345e+2, -53291.81, -196872.06, 78641.52, 0.0973365, 0.5567677, -18600.426, 27060.371, 0.000002235968, 10.000575, 9.998686 
3.2499275e+2, 3.0534393e+2, 40826.016, -61092.137, 66828.78, 0.18220483, 0.55247235, 73908.08, 73908.08, 0.000011376777, 10.00062, 9.99927 
3.2499498e+2, 3.1534168e+2, 176828.48, -52065.87, -156364.27, 0.2823338, 0.38499504, 256154.22, 256154.22, 0.000032649332, 10.001766, 9.998776 
3.3498374e+2, 1.2534995e+2, -1694573.1, -1737665.1, -39232.715, -0.054380506, 0.36449045, -1671359.4, 40243.008, 0.00013853858, 10.000223, 9.999725 
3.3498332e+2, 1.3534796e+2, -1811331.9, -1747417.9, -98265.81, -0.10016582, 0.18770726, -1676043.3, -62419.723, 0.000055370125, 9.998812, 9.999665 
3.3498585e+2, 1.4534934e+2, -1595298.5, -1410300.9, -37089.176, 0.09888585, 0.276813, -1403142.1, 112465.555, 0.000011804474, 9.998815, 10.001302 
3.3498752e+2, 1.553507e+2, -1271360.5, -1212108.3, 40773.477, 0.10653325, 0.26139843, -1191334.1, 226254.34, 0.00000057438905, 10.000413, 10.001218 
3.3498758e+2, 1.6535142e+2, -1329949.0, -1325499.9, -29605.873, 0.069954574, 0.2779124, -1298035.1, 21545.875, 0.00000000201948, 9.999935, 9.999993 
3.349862e+2, 1.7535174e+2, -1557666.0, -1384278.8, -55073.887, -0.0125767905, 0.29277125, -1368264.5, -146682.3, 0.0, 9.997692, 10.000002 
3.3498588e+2, 1.8535212e+2, -1370579.5, -1140973.6, -17459.547, -0.071942195, 0.28585154, -1139653.5, -16075.441, 0.0, 9.997864, 10.000912 
3.349866e+2, 1.9535239e+2, -930096.25, -886756.5, -14455.186, -0.10410586, 0.1996888, -882377.7, 143192.9, 0.0, 10.000253, 10.0008335 
3.349878e+2, 2.053522e+2, -899564.5, -1064485.6, -58920.766, -0.025540097, 0.21459681, -880677.1, 46896.836, 0.0, 10.000841, 9.99866 
3.3498937e+2, 2.1535157e+2, -944587.25, -1026212.75, -48658.008, 0.1413109, 0.26332018, -921891.9, -92304.32, 0.0, 9.999821, 9.998741 
3.3499005e+2, 2.2535168e+2, -748142.44, -711438.6, -14715.224, 0.18091016, 0.32459497, -706267.56, 25320.594, 0.0, 9.999759, 10.000262 
3.349899e+2, 2.353524e+2, -540191.56, -563436.5, 23378.26, 0.11123196, 0.35160047, -525706.06, 107871.37, 0.0, 10.000526, 10.000236 
3.3498994e+2, 2.4535167e+2, -484272.75, -624115.4, 36614.473, 0.064278476, 0.3215993, -475266.2, 60316.094, 0.0, 10.000828, 9.9990015 
3.3499005e+2, 2.553496e+2, -408976.5, -541254.0, 56422.086, 0.032810733, 0.19507436, -388179.72, 49421.332, 0.0, 10.000692, 9.9989605 
3.3499047e+2, 2.653481e+2, -357575.66, -650880.25, 50866.258, 0.028124938, 0.23907009, -349004.66, -9385.803, 0.0, 10.001184, 9.997293 
3.349911e+2, 2.7534693e+2, -113745.27, -475109.22, 46787.105, 0.044706143, 0.36980256, -107785.86, 133852.0, 0.000000000044508567, 10.002147, 9.997365 
3.3499104e+2, 2.8534544e+2, 59299.81, -175220.14, 10718.738, 0.039746545, 0.4084333, 59788.688, 203442.4, 0.00000018850986, 10.001942, 9.9988575 
3.349903e+2, 2.95344e+2, -48419.613, -184600.39, 37946.227, 0.0054368195, 0.356094, -38559.91, 7103.7915, 0.0000021997091, 10.000557, 9.998786 
3.3499265e+2, 3.0534336e+2, -77451.05, -301808.06, 105821.664, 0.09430482, 0.47935972, -35414.637, -35414.637, 0.000010801098, 10.0006, 9.997625 
3.3499593e+2, 3.153423e+2, 90403.12, -214330.84, -81057.35, 0.15865213, 0.59047794, 110622.32, 110622.32, 0.000030818417, 10.001687, 9.997703 
3.4498435e+2, 1.2534921e+2, -1727972.6, -1735414.4, 38521.715, 0.012166113, 0.34187096, -1692992.5, 18615.188, 0.00012841672, 9.999925, 9.999885 
3.4498242e+2, 1.3534693e+2, -1743992.4, -1739109.5, -966.7321, -0.091929525, 0.15538836, -1738925.1, -125293.55, 0.00005393956, 9.999364, 9.999469 
3.4498423e+2, 1.4534825e+2, -1566409.3, -1361843.3, 119765.54, 0.05763549, 0.23418172, -1306628.4, 208988.19, 0.00001321429, 9.998877, 10.001596 
3.4498695e+2, 1.5535045e+2, -1505541.1, -1296241.9, 69284.42, 0.1017219, 0.27343464, -1275385.1, 142204.69, 0.00000089811203, 9.998685, 10.00147 
3.4498718e+2, 1.653513e+2, -1460586.3, -1399391.6, -57418.734, 0.08211463, 0.2952821, -1364926.6, -45345.703, 0.0000000015154811, 9.999081, 9.999899 
3.4498492e+2, 1.753511e+2, -1231589.4, -1234771.6, -36859.168, -0.019020485, 0.2650643, -1196287.0, 25299.213, 0.0, 9.999971, 9.999924 
3.4498477e+2, 1.8535112e+2, -1081534.4, -1077286.5, 75350.65, -0.07989443, 0.26121354, -1004029.8, 119556.984, 0.0, 10.000166, 10.000245 
3.4498668e+2, 1.9535117e+2, -1054182.1, -1017417.1, 15316.809, -0.091455914, 0.22106963, -1011872.2, 13712.6, 0.0, 9.999697, 10.000212 
3.4498823e+2, 2.0535079e+2, -986381.0, -1019506.56, -53382.395, -0.013854496, 0.20506518, -947050.94, -19461.738, 0.0, 9.999863, 9.999442 
3.4498945e+2, 2.153499e+2, -786964.75, -869760.56, -2953.8237, 0.13330592, 0.15266699, -786859.5, 42740.996, 0.0, 10.000543, 9.999471 
3.449901e+2, 2.2535051e+2, -616732.7, -655363.06, 47819.97, 0.1705219, 0.23396118, -584474.4, 147121.11, 0.0, 10.000695, 10.0001955 
3.4499034e+2, 2.3535244e+2, -565094.6, -584005.44, 3511.7007, 0.11631325, 0.38831857, -564463.56, 69112.83, 0.0, 10.000392, 10.00016 
3.4499073e+2, 2.4535197e+2, -565584.56, -666940.94, -30302.496, 0.091881186, 0.38977903, -557216.0, -21635.266, 0.0, 10.000296, 9.998961 
3.4499115e+2, 2.553493e+2, -458040.63, -570147.5, -53013.445, 0.09299203, 0.21014814, -436942.2, 664.1563, 0.0, 10.0003805, 9.998915 
3.4499174e+2, 2.6534793e+2, -415613.9, -636863.2, -11239.307, 0.067281246, 0.24685127, -415044.44, -75422.16, 0.0, 10.000603, 9.997671 
3.4499243e+2, 2.753475e+2, -257400.5, -504768.4, 18633.643, 0.025352508, 0.41798833, -256004.73, -14373.614, 0.0, 10.000992, 9.99772 
3.449924e+2, 2.853457e+2, -51393.613, -249509.36, -50467.49, 0.018204164, 0.42084783, -39278.516, 104370.164, 0.00000016974016, 10.001292, 9.9986515 
3.4499153e+2, 2.953429e+2, 71128.69, -150895.72, -72057.49, 0.033666827, 0.253433, 92464.48, 138136.58, 0.0000019719364, 10.001495, 9.998562 
3.4499383e+2, 3.053422e+2, 40507.184, -267707.2, 99284.88, 0.11512289, 0.39244604, 69720.79, 69720.79, 0.000009630792, 10.001487, 9.997441 
3.449968e+2, 3.1534138e+2, 44663.117, -195704.88, 16675.09, 0.11168972, 0.53622913, 45814.406, 45814.406, 0.000028581368, 10.001175, 9.998079 
3.5498533e+2, 1.2535009e+2, -1654473.5, -1597713.1, 12046.169, 0.06329431, 0.38045642, -1595262.4, 116337.76, 0.00012227354, 9.999977, 10.000808 
3.5498226e+2, 1.3534926e+2, -1694582.9, -1636108.4, -18779.898, -0.057564177, 0.26424292, -1630596.5, -16990.688, 0.00005490219, 9.999368, 10.000172 
3.5498244e+2, 1.453496e+2, -1647899.4, -1534722.1, 103737.484, -0.037987098, 0.27169442, -1473142.5, 42458.12, 0.000015641235, 9.998887, 10.000409 
3.5498407e+2, 1.5534969e+2, -1583710.9, -1464860.3, 69326.03, -0.07862094, 0.22273894, -1432975.8, -15376.747, 0.0000017221555, 9.998712, 10.000301 
3.54985e+2, 1.6535015e+2, -1412048.8, -1295351.0, -33667.668, -0.06403864, 0.22676586, -1286334.4, 33258.406, 0.000000007086625, 9.999063, 10.000622 
3.549848e+2, 1.7535098e+2, -1184311.9, -1138649.5, 2009.0992, -0.04692257, 0.22646892, -1138561.3, 83021.03, 0.0, 9.999974, 10.000585 
3.5498542e+2, 1.8535121e+2, -1184051.6, -1275408.5, 51582.563, -0.049197294, 0.27931547, -1160829.5, -37246.74, 0.0, 10.000107, 9.998911 
3.54987e+2, 1.9535078e+2, -1148187.8, -1200143.1, 5991.8604, -0.04339554, 0.32412574, -1147505.6, -121911.75, 0.0, 9.999645, 9.9989805 
3.5498798e+2, 2.0535052e+2, -893382.56, -811062.9, -33910.53, -0.037932843, 0.3040762, -798893.06, 128703.49, 0.0, 9.999791, 10.00091 
3.5498834e+2, 2.1535036e+2, -698660.75, -672037.94, 28005.21, -0.04458865, 0.17596695, -654341.5, 175250.64, 0.0, 10.000478, 10.000859 
3.549888e+2, 2.2535075e+2, -695339.75, -805138.06, 31269.951, -0.043294843, 0.21782722, -687058.75, 44529.9, 0.0, 10.000636, 9.999195 
3.5498935e+2, 2.3535152e+2, -642194.94, -732381.1, -243.14005, -0.036574595, 0.35522532, -642194.25, -8607.359, 0.0, 10.00034, 9.999166 
3.549907e+2, 2.4535124e+2, -607578.75, -744615.1, -33953.21, 0.04607494, 0.45290598, -599627.56, -64033.473, 0.0, 10.0002575, 9.9984455 
3.5499272e+2, 2.5534996e+2, -499073.66, -640121.4, -45545.344, 0.19536744, 0.46084452, -485645.2, -48035.137, 0.0, 10.000319, 9.998462 
3.5499328e+2, 2.6534858e+2, -349537.38, -490698.22, -1446.5767, 0.14730714, 0.46404642, -349522.56, -9898.442, 0.0, 10.0005665, 9.998689 
3.5499266e+2, 2.7534693e+2, -198761.36, -372924.78, 42327.973, -0.067777485, 0.40979627, -189019.1, 52618.496, 0.0, 10.00095, 9.998643 
3.54993e+2, 2.853445e+2, -105281.875, -358529.94, -49139.96, -0.068397336, 0.347519, -96081.086, 47578.3, 0.00000011654808, 10.001279, 9.997909 
3.54994e+2, 2.9534152e+2, 22028.01, -246972.44, -58183.98, 0.10695312, 0.23190257, 34073.633, 79761.38, 0.0000016005947, 10.001468, 9.997916 
3.5499611e+2, 3.0534032e+2, 138595.95, -60611.133, 85982.36, 0.178496, 0.28098962, 170574.45, 170574.45, 0.000008029012, 10.001474, 9.998869 
3.54997e+2, 3.153393e+2, 165673.16, 72006.48, 45193.1, -0.025945311, 0.25966918, 183922.67, 183922.67, 0.00002594716, 10.001112, 9.999947 
3.6498502e+2, 1.2535022e+2, -1880633.0, -1711583.0, 59139.42, 0.122019626, 0.33753738, -1692948.1, 18648.754, 0.000118926524, 9.9984455, 10.000764 
3.6498243e+2, 1.3535012e+2, -1619795.0, -1611695.4, -73326.38, -0.0011235232, 0.30538675, -1542307.0, 71288.57, 0.000056465244, 9.99993, 10.00006 
3.649818e+2, 1.4534992e+2, -1478662.8, -1527542.8, 31384.408, -0.05658548, 0.2942784, -1463324.6, 52272.824, 0.00001794202, 10.000377, 9.999742 
3.6498314e+2, 1.5534924e+2, -1458527.8, -1475654.1, 23170.557, -0.094150305, 0.23850422, -1442388.8, -24783.016, 0.000002788093, 9.999874, 9.999672 
3.6498424e+2, 1.6534942e+2, -1315454.6, -1226942.0, -33900.773, -0.06656602, 0.23598203, -1215449.9, 104152.336, 0.00000008230677, 9.999634, 10.000817 
3.6498457e+2, 1.7535043e+2, -1217279.1, -1132591.4, -57039.746, -0.047134396, 0.23250736, -1103896.3, 117691.57, 0.0, 9.999657, 10.000779 
3.649856e+2, 1.853507e+2, -1272033.8, -1338955.1, 4165.4966, -0.011914435, 0.2908658, -1271775.5, -148187.94, 0.0, 9.9995985, 9.998719 
3.6498752e+2, 1.9535016e+2, -1191718.9, -1240983.8, 34308.96, 0.06031609, 0.3452877, -1174115.5, -148514.3, 0.0, 9.999438, 9.998799 
3.6498848e+2, 2.0535006e+2, -948247.2, -834731.94, 13625.84, 0.05451653, 0.34744814, -833119.3, 94483.79, 0.0, 9.9994135, 10.000928 
3.6498845e+2, 2.1535026e+2, -843422.5, -739733.56, -50595.45, -0.02934972, 0.2544185, -719136.7, 110458.336, 0.0, 9.999487, 10.000872 
3.6498874e+2, 2.2535041e+2, -813204.25, -865587.5, -57746.02, -0.07033034, 0.27489024, -775987.6, -44394.17, 0.0, 9.999842, 9.999163 
3.6498937e+2, 2.3535044e+2, -636178.2, -731950.9, -28470.229, -0.06635518, 0.3446201, -628354.06, 5244.273, 0.0, 10.000393, 9.999142 
3.6499107e+2, 2.4535023e+2, -542212.6, -697089.94, 7375.6064, 0.042811647, 0.4390798, -541862.1, -6257.3516, 0.0, 10.000622, 9.998605 
3.649936e+2, 2.553497e+2, -453769.13, -598189.44, 34578.07, 0.24516226, 0.5050734, -445917.1, -8303.747, 0.0, 10.000537, 9.998648 
3.649942e+2, 2.6534832e+2, -347331.13, -461731.5, 87258.14, 0.18979737, 0.48928317, -300196.06, 39429.875, 0.0, 10.000461, 9.998941 
3.6499316e+2, 2.753461e+2, -266708.56, -379517.78, 60133.65, -0.078988016, 0.35500932, -240666.02, 977.1131, 0.0, 10.000369, 9.9988785 
3.6499396e+2, 2.8534383e+2, -219487.22, -461425.94, -19255.266, -0.0658114, 0.3142121, -217964.33, -74299.64, 0.000000055764154, 10.000685, 9.997494 
3.649962e+2, 2.9534152e+2, -20981.979, -306286.47, -22097.28, 0.1896003, 0.3087048, -19280.654, 26408.975, 0.0000011854916, 10.00134, 9.997569 
3.6499798e+2, 3.0534e+2, 103601.31, -21516.441, 66915.21, 0.24904932, 0.3103595, 132646.25, 132646.25, 0.000006614604, 10.001003, 9.999364 
3.6499763e+2, 3.1533828e+2, -7022.0938, 56126.563, -55436.74, 0.0028468277, 0.18078496, 88350.12, 88350.12, 0.000023524617, 9.999643, 10.00055 
3.749828e+2, 1.2534985e+2, -1948560.4, -1856447.9, 90801.805, 0.015837507, 0.24083151, -1800689.8, -89094.19, 0.0001191897, 9.998461, 9.999759 
3.7498257e+2, 1.3534977e+2, -1679183.3, -1744070.5, -13521.77, -0.0021973448, 0.29942703, -1676478.3, -62879.246, 0.00005856906, 9.999969, 9.99913 
3.7498218e+2, 1.4534917e+2, -1488455.1, -1546012.1, 2408.5222, -0.07944262, 0.30326104, -1488354.5, 27252.389, 0.000020069963, 10.000368, 9.999619 
3.749839e+2, 1.5534903e+2, -1463897.8, -1489730.5, 12230.828, -0.02405391, 0.3101022, -1459025.8, -41415.332, 0.0000038584762, 9.999887, 9.999568 
3.7498474e+2, 1.6534913e+2, -1344781.5, -1282601.5, -40342.21, -0.003090377, 0.3218517, -1262759.4, 56849.395, 0.00000020238203, 9.999611, 10.000444 
3.74984e+2, 1.753495e+2, -1242564.6, -1183383.3, -49024.523, -0.087956056, 0.29291186, -1155711.3, 65890.62, 0.0, 9.999645, 10.000438 
3.7498507e+2, 1.8534958e+2, -1210586.6, -1198685.8, -8299.777, -0.039555438, 0.29697695, -1194423.8, -70822.44, 0.0, 9.999545, 9.999705 
3.7498805e+2, 1.9534929e+2, -1137030.8, -1112802.5, 35998.277, 0.15052107, 0.27729794, -1086934.6, -61327.492, 0.0, 9.999379, 9.999703 
3.749895e+2, 2.0534933e+2, -1062005.5, -1059134.5, 9942.123, 0.20213126, 0.32842514, -1050524.9, -122915.47, 0.0, 9.999359, 9.999416 
3.749895e+2, 2.1534954e+2, -952041.25, -949201.4, -40388.24, 0.112409145, 0.3891964, -910208.1, -80598.96, 0.0, 9.999418, 9.999466 
3.7498972e+2, 2.2534949e+2, -759234.6, -736782.2, -44420.71, 0.03125956, 0.41010714, -702191.06, 29418.64, 0.0, 9.999764, 10.000088 
3.7499022e+2, 2.3534915e+2, -577370.4, -598058.3, -2747.5496, -0.037957992, 0.3455528, -577011.7, 56599.906, 0.0, 10.000336, 10.000092 
3.7499157e+2, 2.4534887e+2, -490111.4, -574201.2, -729.8003, 0.018476538, 0.34297693, -490105.1, 45508.03, 0.0, 10.000564, 9.9994755 
3.749936e+2, 2.553485e+2, -405023.28, -486514.94, 39842.957, 0.17377937, 0.34167254, -388780.66, 48835.023, 0.0, 10.000489, 9.999439 
3.7499422e+2, 2.653472e+2, -390773.5, -544729.25, 78124.22, 0.13197665, 0.32255632, -358074.63, -18446.928, 0.0, 10.000434, 9.9983835 
3.7499368e+2, 2.7534497e+2, -310884.78, -459302.34, 65169.25, -0.08167895, 0.24157132, -286331.38, -44682.816, 0.0, 10.000317, 9.998357 
3.74995e+2, 2.8534362e+2, -228023.02, -470497.38, -616.0609, -0.04816395, 0.32231784, -228021.45, -84356.84, 0.00000003400916, 10.000648, 9.997452 
3.7499782e+2, 2.9534298e+2, -31473.637, -319219.22, 8487.77, 0.20003903, 0.49039385, -31223.486, 14453.736, 0.0000008994765, 10.001294, 9.997507 
3.749991e+2, 3.0534106e+2, 60881.918, -95242.52, 11266.651, 0.248171, 0.48324054, 61690.78, 61690.78, 0.000005653841, 10.000951, 9.998879 
3.7499803e+2, 3.1533813e+2, -66024.38, -45939.387, -72737.4, 0.04453901, 0.28349638, 17445.496, 17445.496, 0.000021891798, 9.999562, 9.9998865 
3.8498232e+2, 1.2534803e+2, -1751123.8, -1754088.5, -38433.125, 0.0601493, 0.23331533, -1714144.4, -2529.2537, 0.00012316402, 9.999792, 9.999823 
3.8498294e+2, 1.3534845e+2, -1611945.3, -1688565.3, -73598.01, 0.023323994, 0.32266635, -1567283.5, 46330.13, 0.000061385945, 10.000326, 9.999349 
3.8498217e+2, 1.4534783e+2, -1503993.9, -1533474.3, -50698.19, -0.104207195, 0.30356926, -1465936.5, 49684.965, 0.000022093489, 10.000174, 9.999797 
3.8498408e+2, 1.5534802e+2, -1550624.6, -1512681.6, -43506.93, 0.041719243, 0.32670796, -1484189.8, -66568.69, 0.000004863891, 9.999219, 9.999728 
3.8498518e+2, 1.6534814e+2, -1404786.1, -1334724.8, -20609.29, 0.100794435, 0.34343043, -1329111.9, -9492.387, 0.00000029520132, 9.999289, 10.00025 
3.8498464e+2, 1.7534824e+2, -1165239.1, -1165944.9, -27297.63, -0.012482483, 0.3049526, -1138292.1, 83324.71, 0.0, 10.000254, 10.000268 
3.8498548e+2, 1.8534836e+2, -1036789.44, -1070754.5, -15965.935, 0.0007346318, 0.30083135, -1030462.8, 93152.305, 0.0, 10.000544, 10.000105 
3.849879e+2, 1.9534832e+2, -987421.1, -1003074.4, -31397.87, 0.16088554, 0.26828873, -962889.06, 62726.77, 0.0, 10.00023, 10.000053 
3.8498926e+2, 2.0534842e+2, -979466.25, -1059170.1, -6208.402, 0.20962547, 0.3266145, -978985.56, -51368.367, 0.0, 10.0000925, 9.999062 
3.849895e+2, 2.1534851e+2, -877335.3, -955185.44, 18111.854, 0.14089744, 0.4107282, -873327.9, -43708.043, 0.0, 10.000098, 9.999103 
3.849899e+2, 2.2534813e+2, -781457.56, -755287.5, 22099.371, 0.08084045, 0.4177184, -742689.9, -11066.221, 0.0, 9.999648, 10.000013 
3.8499048e+2, 2.3534727e+2, -806700.56, -715872.56, -27852.125, 0.033575192, 0.30944136, -708012.06, -74383.266, 0.0, 9.998802, 10.000017 
3.8499174e+2, 2.4534668e+2, -694518.6, -654848.3, -53578.168, 0.05457641, 0.27064458, -617551.56, -81919.29, 0.0, 9.999087, 9.999624 
3.849935e+2, 2.553462e+2, -419313.28, -479823.53, -80914.43, 0.12783654, 0.2425011, -363182.56, 74452.88, 0.0, 10.000334, 9.999556 
3.8499442e+2, 2.6534536e+2, -336398.7, -509564.4, -57267.48, 0.094722226, 0.262489, -319173.28, 20469.865, 0.0, 10.000758, 9.998471 
3.8499463e+2, 2.7534416e+2, -287030.8, -434800.6, -35974.523, -0.020195844, 0.27542058, -278738.2, -37083.26, 0.0, 10.000426, 9.998469 
3.8499603e+2, 2.8534296e+2, -249645.5, -462453.13, -27817.824, 0.008849428, 0.35365093, -246069.3, -102399.48, 0.000000026095549, 10.000423, 9.997614 
3.8499844e+2, 2.9534164e+2, -111679.0, -340684.84, -14926.665, 0.16744192, 0.4370093, -110710.17, -65022.12, 0.0000006696504, 10.000679, 9.997652 
3.8499978e+2, 3.053398e+2, 90648.72, -152630.86, -15175.16, 0.20109147, 0.463426, 91591.66, 91591.66, 0.0000049598348, 10.001449, 9.998244 
3.8500005e+2, 3.153373e+2, 312738.0, 51729.52, -125169.836, 0.1508757, 0.3673106, 363062.0, 363062.0, 0.000021460863, 10.002523, 9.99913 
3.949831e+2, 1.253448e+2, -1679510.9, -1597918.1, -55900.547, 0.119106404, 0.31867838, -1569510.4, 142144.94, 0.0001272644, 9.999778, 10.000898 
3.949832e+2, 1.3534611e+2, -1515281.4, -1487238.8, -47258.363, 0.0027361992, 0.36004046, -1451965.6, 161674.63, 0.00006380605, 10.000335, 10.000725 
3.9498144e+2, 1.4534585e+2, -1479878.9, -1482133.3, -91324.8, -0.21479379, 0.29049557, -1389674.3, 125967.25, 0.000023677207, 10.000156, 10.000162 
3.9498332e+2, 1.5534627e+2, -1520991.5, -1458166.6, -69443.95, 0.02229114, 0.298401, -1413360.9, 4276.197, 0.000005569423, 9.999242, 10.000093 
3.9498532e+2, 1.6534644e+2, -1406529.6, -1330799.5, 4593.7617, 0.16760063, 0.30155745, -1330521.9, -10886.996, 0.00000035120044, 9.999259, 10.000292 
3.9498636e+2, 1.7534658e+2, -1164451.1, -1158644.1, 13616.579, 0.11612028, 0.26427016, -1147625.0, 74007.93, 0.0, 10.000232, 10.000328 
3.949867e+2, 1.8534698e+2, -1060426.5, -1107019.3, -33872.316, 0.052559324, 0.295303, -1042612.6, 81016.8, 0.0, 10.000485, 9.999886 
3.949869e+2, 1.9534741e+2, -1009175.0, -1031010.5, -36700.387, 0.021521298, 0.329846, -981802.9, 43823.477, 0.0, 10.000159, 9.999893 
3.949875e+2, 2.0534745e+2, -933924.25, -944530.6, -13713.918, 0.009741399, 0.34881443, -924523.9, 3101.9504, 0.0, 10.000008, 9.999889 
3.949882e+2, 2.1534717e+2, -838002.9, -847078.44, 24984.191, -0.012201673, 0.31126156, -817147.75, 12479.566, 0.0, 9.999991, 9.999892 
3.9498907e+2, 2.253463e+2, -871205.0, -924723.5, -16431.771, 0.01759868, 0.28924364, -866562.6, -134927.31, 0.0, 9.999572, 9.998891 
3.9498997e+2, 2.3534475e+2, -894474.2, -881651.4, -49768.504, 0.08504771, 0.22719476, -837883.0, -204232.44, 0.0, 9.99873, 9.998916 
3.949913e+2, 2.4534357e+2, -743108.75, -744363.8, -11981.734, 0.087701626, 0.21427438, -731738.1, -196075.13, 0.0, 9.999039, 9.999035 
3.949931e+2, 2.5534263e+2, -463777.25, -561098.4, -28351.56, 0.035275467, 0.19825551, -456120.3, -18446.602, 0.0, 10.00028, 9.999027 
3.9499453e+2, 2.653428e+2, -290356.3, -400747.44, -75053.27, 0.016751563, 0.3036872, -252387.8, 87284.7, 0.0, 10.000704, 9.999245 
3.9499575e+2, 2.7534375e+2, -240380.98, -328404.66, -39713.13, 0.031358447, 0.45707428, -225112.36, 16549.99, 0.0, 10.000381, 9.999224 
3.9499685e+2, 2.8534183e+2, -225187.38, -402403.8, -24315.371, 0.031597957, 0.4059341, -221911.67, -78231.31, 0.000000010243951, 10.00039, 9.99804 
3.9499775e+2, 2.9533747e+2, -96378.73, -289997.22, 6639.7266, 0.011097579, 0.14471136, -96151.3, -50429.117, 0.00000051187845, 10.000603, 9.998036 
3.9499977e+2, 3.0533615e+2, 34382.4, -260499.52, 22792.816, 0.039996166, 0.24160154, 36133.76, 36133.76, 0.0000058228006, 10.001412, 9.997518 
3.950032e+2, 3.153358e+2, 243004.1, -73272.82, -66830.695, 0.17807142, 0.4330627, 256545.9, 256545.9, 0.00002601799, 10.00245, 9.9983 
4.0498286e+2, 1.253426e+2, -1841570.0, -1672747.9, 82672.96, 0.18375799, 0.34137914, -1639006.3, 72672.97, 0.0001282802, 9.998636, 10.0009365 
4.0498406e+2, 1.3534418e+2, -1646618.8, -1515445.4, 15544.808, 0.11437451, 0.37277701, -1513628.4, 100033.72, 0.00006493345, 9.999272, 10.001044 
4.049819e+2, 1.4534423e+2, -1489339.5, -1472486.6, -83158.52, -0.17421605, 0.31171706, -1397328.6, 118331.2, 0.00002457309, 10.000035, 10.000284 
4.0498316e+2, 1.5534464e+2, -1303308.8, -1343846.0, -100145.28, 0.016478876, 0.30753794, -1221401.6, 196252.44, 0.000005781208, 10.00069, 10.000181 
4.049852e+2, 1.6534476e+2, -1230908.0, -1270189.8, -19162.611, 0.16875218, 0.3133519, -1223108.6, 96543.7, 0.0000003430959, 10.000575, 10.000067 
4.0498665e+2, 1.7534484e+2, -1244307.4, -1222204.8, -49340.11, 0.14808893, 0.2906974, -1182693.4, 38959.0, 0.0, 9.999792, 10.000101 
4.0498692e+2, 1.8534526e+2, -1177172.5, -1152990.6, -84766.84, 0.07064455, 0.33148432, -1079456.8, 44192.11, 0.0, 9.99964, 9.999977 
4.049866e+2, 1.9534576e+2, -1025176.94, -1029349.2, -74054.625, -0.011235963, 0.365511, -953179.06, 72465.41, 0.0, 10.000009, 9.999981 
4.0498704e+2, 2.053458e+2, -928261.94, -918435.06, -63053.008, -0.028001612, 0.3694492, -860104.3, 67538.55, 0.0, 9.99995, 10.000094 
4.04988e+2, 2.153454e+2, -898336.5, -859347.3, -88186.75, -0.0042947526, 0.30042937, -788526.1, 41117.992, 0.0, 9.999502, 10.000047 
4.04989e+2, 2.253445e+2, -834557.8, -930104.0, -88729.04, 0.040926047, 0.27980167, -781558.3, -49906.0, 0.0, 9.999929, 9.998677 
4.0499e+2, 2.3534305e+2, -559373.94, -746988.4, -67341.7, 0.100010365, 0.24960178, -537705.2, 95962.664, 0.0, 10.0011425, 9.998678 
4.0499133e+2, 2.453419e+2, -478150.0, -629090.75, 25088.055, 0.09750584, 0.2570094, -474089.3, 61591.33, 0.0, 10.000911, 9.998925 
4.04993e+2, 2.5534105e+2, -590990.8, -625178.5, 31408.178, 0.0454325, 0.2591621, -572326.1, -134635.67, 0.0, 9.999437, 9.998985 
4.0499467e+2, 2.6534122e+2, -515478.75, -466261.66, 5868.418, 0.048464566, 0.34385434, -465571.6, -125883.37, 0.0, 9.998964, 9.999636 
4.049963e+2, 2.7534202e+2, -366308.16, -348742.25, 2521.0042, 0.10653491, 0.44064036, -348387.6, -106709.8, 0.0, 9.999336, 9.999591 
4.049977e+2, 2.8533986e+2, -266966.7, -414502.63, 28180.125, 0.10035747, 0.34740287, -261767.38, -118071.27, 0.0000000008315615, 10.000058, 9.998118 
4.049988e+2, 2.9533523e+2, -16459.336, -241171.47, 17357.291, 0.04078379, 0.04883101, -15126.522, 30612.39, 0.00000071034475, 10.001096, 9.998133 
4.0500104e+2, 3.053343e+2, 37183.33, -283608.34, 54721.21, 0.024376048, 0.18562491, 46260.895, 46260.895, 0.0000094188645, 10.001532, 9.997308 
4.0500522e+2, 3.1533355e+2, 90182.11, -143611.77, -21873.367, 0.1997717, 0.36129376, 92210.94, 92210.94, 0.00003801625, 10.001358, 9.998353 
4.1498113e+2, 1.2534131e+2, -1905570.1, -1810566.9, 43883.582, 0.10167102, 0.2876978, -1793398.8, -81711.11, 0.0001259659, 9.998658, 9.999974 
4.1498518e+2, 1.3534279e+2, -1685554.6, -1609206.4, 48885.79, 0.27537936, 0.3738343, -1585355.6, 28322.088, 0.00006410072, 9.999315, 10.0003805 
4.1498318e+2, 1.45343e+2, -1498901.6, -1490879.1, -61425.715, -0.07150887, 0.36635682, -1433333.8, 82342.4, 0.00002430965, 10.000036, 10.000157 
4.1498345e+2, 1.5534319e+2, -1313551.8, -1359848.4, -68312.48, -0.042144623, 0.3529198, -1264572.1, 153099.2, 0.0000053776803, 10.000675, 10.000077 
4.149846e+2, 1.653431e+2, -1276672.4, -1355484.0, -55630.71, 0.033896163, 0.37336335, -1247904.9, 71766.695, 0.0000002359893, 10.000531, 9.999502 
4.1498527e+2, 1.7534304e+2, -1282567.4, -1299243.8, -69530.05, 0.009151636, 0.3902178, -1220877.4, 797.2795, 0.0, 9.999781, 9.9995775 
4.1498578e+2, 1.853432e+2, -1154626.4, -1095888.0, -78140.75, -0.023689793, 0.4103001, -1041779.5, 81893.81, 0.0, 9.9995985, 10.000388 
4.1498673e+2, 1.9534346e+2, -1005474.2, -972848.44, -55892.633, -0.014906212, 0.37708023, -930936.75, 94732.78, 0.0, 9.9999485, 10.000394 
4.1498774e+2, 2.053435e+2, -972365.75, -996758.75, -86927.555, 0.032184005, 0.38769814, -896783.25, 30884.783, 0.0, 9.999884, 9.999595 
4.1498858e+2, 2.1534327e+2, -940906.06, -928348.0, -97917.41, 0.08967855, 0.3833607, -836508.5, -6838.8955, 0.0, 9.999417, 9.999614 
4.1498944e+2, 2.2534281e+2, -801243.5, -841536.75, -48639.49, 0.077086695, 0.39470246, -768743.3, -37069.39, 0.0, 9.999844, 9.999328 
4.1499034e+2, 2.3534212e+2, -522510.25, -655295.44, -16860.965, 0.0020063045, 0.37226492, -520402.72, 113278.586, 0.0, 10.001077, 9.99934 
4.1499153e+2, 2.4534167e+2, -455698.5, -573369.9, -37033.453, 0.005206368, 0.39761886, -445013.6, 90671.445, 0.0, 10.000874, 9.999323 
4.1499293e+2, 2.5534138e+2, -571549.1, -573102.8, -14839.193, 0.07744799, 0.41398558, -557466.5, -119780.016, 0.0, 9.999384, 9.999369 
4.1499448e+2, 2.6534048e+2, -515471.3, -459388.7, 14248.085, 0.11864913, 0.37422663, -455976.47, -116285.12, 0.0, 9.9989395, 9.999692 
4.1499603e+2, 2.7533895e+2, -371567.22, -347187.47, 25954.652, 0.12590829, 0.23297116, -330702.7, -89002.04, 0.0, 9.999285, 9.999625 
4.1499835e+2, 2.853371e+2, -284754.06, -453619.13, 60365.074, 0.13925312, 0.17852232, -265394.5, -121677.86, 0.00000000001177225, 10.00006, 9.997851 
4.1500136e+2, 2.9533494e+2, -39436.727, -280776.75, 62103.383, 0.16311398, 0.15220544, -24393.504, 21344.977, 0.0000013022876, 10.001054, 9.997883 
4.1500327e+2, 3.0533424e+2, 63044.95, -224511.78, 44834.71, 0.07428974, 0.3052041, 69873.26, 69873.26, 0.000014524035, 10.001519, 9.997715 
4.1500565e+2, 3.1533083e+2, 148349.38, 1847.7295, -20457.953, 0.06494544, 0.17034969, 151152.55, 151152.55, 0.000053920798, 10.001267, 9.99939 
4.2498046e+2, 1.2534095e+2, -1631896.6, -1731260.5, 3632.6973, 0.07235015, 0.31251696, -1631764.0, 79927.22, 0.000120138786, 10.000737, 9.999528 
4.2498454e+2, 1.3534205e+2, -1708113.5, -1660675.3, 68498.23, 0.29114822, 0.39308855, -1611905.8, 1781.4503, 0.00006079175, 9.999322, 10.00003 
4.2498326e+2, 1.4534244e+2, -1576382.5, -1526174.9, 35795.742, -0.036268912, 0.42081407, -1507557.6, 8126.662, 0.00002257458, 9.999491, 10.00018 
4.2498478e+2, 1.5534253e+2, -1323903.3, -1361426.4, 13195.716, 0.032024812, 0.3950078, -1319727.4, 97952.04, 0.0000044461326, 10.00059, 10.000107 
4.2498568e+2, 1.6534206e+2, -1309834.3, -1386064.8, -3400.3965, 0.10004466, 0.38076177, -1309682.9, 9999.375, 0.00000009724189, 10.000363, 9.999375 
4.2498478e+2, 1.7534119e+2, -1399175.6, -1370588.0, 4807.9272, 0.024497507, 0.33276, -1369801.1, -148110.3, 0.0, 9.9990425, 9.999449 
4.2498526e+2, 1.8534116e+2, -1260205.9, -1179166.5, 59352.51, -0.0006411957, 0.35395652, -1147821.3, -24130.098, 0.0, 9.999013, 10.000099 
4.249875e+2, 1.953417e+2, -1006079.0, -1008570.0, 14129.246, 0.06285359, 0.37862763, -993140.5, 32545.719, 0.0, 10.000091, 10.00008 
4.249886e+2, 2.0534147e+2, -937990.7, -1007103.5, -66487.49, 0.115463845, 0.38829717, -897615.56, 30072.432, 0.0, 10.000242, 9.999344 
4.249885e+2, 2.1534047e+2, -936224.5, -953890.0, -72111.39, 0.13583721, 0.33519208, -872406.94, -42710.09, 0.0, 9.999572, 9.999362 
4.2498904e+2, 2.2534016e+2, -855712.0, -829577.44, 27710.887, 0.08346752, 0.35482225, -812007.4, -80307.77, 0.0, 9.99931, 9.999665 
4.2499015e+2, 2.3534045e+2, -748942.3, -726294.1, 17301.082, -0.032765158, 0.39763132, -716940.6, -83243.47, 0.0, 9.999364, 9.999676 
4.249915e+2, 2.4534026e+2, -656571.94, -647896.44, -60444.137, -0.0069584935, 0.42111897, -591634.6, -55937.23, 0.0, 9.99939, 9.999532 
4.2499298e+2, 2.553395e+2, -554376.2, -546121.56, -63756.51, 0.14679009, 0.37293348, -486358.9, -48657.62, 0.0, 9.99941, 9.999547 
4.249945e+2, 2.653381e+2, -434014.03, -473140.8, -5385.264, 0.19267744, 0.29627016, -433286.38, -93575.19, 0.0, 9.999729, 9.99922 
4.24996e+2, 2.75336e+2, -249485.02, -334774.9, -48532.766, 0.14776465, 0.14482105, -227523.3, 14203.917, 0.0, 10.00033, 9.999206 
4.2499876e+2, 2.8533438e+2, -201693.67, -375859.53, 2336.691, 0.15625742, 0.120137244, -201662.31, -57921.383, 0.0000000012455732, 10.000477, 9.998181 
4.250026e+2, 2.9533315e+2, -140404.06, -294766.2, 33647.703, 0.2270595, 0.15507032, -133388.44, -87634.96, 0.0000019825331, 10.000213, 9.998194 
4.2500487e+2, 3.0533242e+2, -40359.465, -289119.78, 42531.613, 0.12468698, 0.2983306, -33288.637, -33288.637, 0.000019596095, 10.000872, 9.997587 
4.2500734e+2, 3.1532902e+2, 326526.2, 135490.63, -109593.39, 0.06781487, 0.1733894, 376385.0, 376385.0, 0.00006922057, 10.002291, 9.999818 
4.349803e+2, 1.253416e+2, -1630758.4, -1712907.0, -125115.45, -0.055649392, 0.41971564, -1540147.6, 171541.78, 0.000112459136, 10.000701, 9.999661 
4.3498224e+2, 1.3534199e+2, -1708891.0, -1661161.9, 31801.553, 0.102673456, 0.43245235, -1645266.5, -31576.865, 0.000055857796, 9.999327, 10.000023 
4.349819e+2, 1.4534247e+2, -1571197.3, -1511267.3, 76819.44, -0.1444037, 0.46567768, -1458775.5, 56909.125, 0.000019900395, 9.999469, 10.000295 
4.349868e+2, 1.5534262e+2, -1310532.0, -1340161.1, 59554.234, 0.15296704, 0.43089136, -1263977.4, 153701.77, 0.0000034951138, 10.000611, 10.000246 
4.349881e+2, 1.6534151e+2, -1289258.4, -1336317.1, -61931.79, 0.2860107, 0.32658648, -1246536.9, 73148.29, 0.000000032016867, 10.000339, 9.999727 
4.34985e+2, 1.7533934e+2, -1381630.6, -1327864.0, -34584.883, 0.12611918, 0.11531434, -1310942.9, -89242.36, 0.0, 9.999017, 9.999754 
4.349851e+2, 1.8533915e+2, -1341722.1, -1332205.3, 94631.875, 0.065526016, 0.15778384, -1242212.3, -118509.94, 0.0, 9.998946, 9.999081 
4.3498862e+2, 1.9534054e+2, -1083805.6, -1155007.6, 59526.93, 0.14877816, 0.36863506, -1050046.0, -24352.28, 0.0, 10.000031, 9.999102 
4.349894e+2, 2.0533979e+2, -953136.4, -1019732.4, -99109.93, 0.15327248, 0.37567842, -881880.4, 45821.47, 0.0, 10.000162, 9.999295 
4.3498752e+2, 2.1533707e+2, -948904.56, -964699.06, -90386.59, 0.06344269, 0.15356275, -866070.9, -36345.426, 0.0, 9.999505, 9.999318 
4.3498752e+2, 2.2533663e+2, -874081.2, -843080.4, 21921.064, -0.011394666, 0.16484904, -831733.1, -100004.38, 0.0, 9.999205, 9.999623 
4.3498924e+2, 2.3533806e+2, -763526.44, -735604.25, 25232.16, -0.072609976, 0.3269457, -720728.3, -87012.984, 0.0, 9.999274, 9.999654 
4.3499106e+2, 2.4533767e+2, -664489.25, -652789.6, -66852.46, -0.0021224984, 0.33093238, -591531.5, -55813.996, 0.0, 9.999339, 9.999522 
4.3499285e+2, 2.5533554e+2, -564915.0, -555252.94, -56105.035, 0.17694592, 0.14471766, -503771.3, -66037.07, 0.0, 9.999355, 9.999511 
4.349945e+2, 2.6533407e+2, -505386.97, -618862.1, 10635.275, 0.20172769, 0.11594984, -504398.8, -164651.75, 0.0, 9.999717, 9.998226 
4.3499595e+2, 2.7533305e+2, -318721.94, -472263.8, -19694.838, 0.089580275, 0.17125686, -316235.94, -74478.164, 0.0, 10.000297, 9.998281 
4.3499857e+2, 2.853317e+2, -140304.03, -242029.0, -13733.577, 0.0741537, 0.1665208, -138482.52, 5287.1006, 0.000000012355592, 10.000455, 9.999109 
4.3500227e+2, 2.9532993e+2, -88271.21, -178631.97, 34164.52, 0.1520502, 0.057897538, -76808.13, -31024.604, 0.0000027659546, 10.00018, 9.999009 
4.350056e+2, 3.053289e+2, -87234.625, -389454.56, 92140.54, 0.09539127, 0.16989885, -61358.434, -61358.434, 0.000024042205, 10.000876, 9.996897 
4.3500984e+2, 3.153279e+2, 302450.0, 95061.04, -49225.094, 0.046913937, 0.35171854, 313540.78, 313540.78, 0.00008111006, 10.002248, 9.99956 
4.4497925e+2, 1.2534171e+2, -1881044.9, -1794157.9, -159936.47, -0.12953284, 0.46095824, -1671869.6, 39819.516, 0.00010599228, 9.998832, 9.999998 
4.4498232e+2, 1.353418e+2, -1642983.4, -1609062.6, 44255.92, 0.17067076, 0.42366877, -1578628.5, 35060.82, 0.00005101591, 9.999708, 10.0001955 
4.4498286e+2, 1.4534213e+2, -1527055.1, -1549278.9, 111267.71, -0.01931414, 0.4606199, -1426345.9, 89340.125, 0.000017295639, 10.000024, 9.999768 
4.4498694e+2, 1.5534173e+2, -1503948.5, -1485302.8, 22204.367, 0.16853166, 0.4196786, -1470543.5, -52854.516, 0.0000027656245, 9.999506, 9.999783 
4.4498822e+2, 1.6534072e+2, -1353196.6, -1332859.5, -124737.375, 0.29858387, 0.3316241, -1217876.9, 101817.17, 0.000000035556127, 9.999743, 10.000042 
4.449858e+2, 1.7533927e+2, -1121555.1, -1167713.5, -111825.18, 0.22686912, 0.15831427, -1030452.4, 191247.81, 0.0, 10.000656, 10.000059 
4.449858e+2, 1.853388e+2, -1116143.1, -1266388.0, 69611.43, 0.1589693, 0.17669788, -1088849.1, 34854.367, 0.0, 10.000674, 9.998702 
4.4498855e+2, 1.95339e+2, -1135839.4, -1221884.5, 67798.62, 0.15486714, 0.3075635, -1098565.0, -72859.0, 0.0, 9.999848, 9.9987335 
4.4498923e+2, 2.0533799e+2, -984063.9, -1046249.75, -56406.27, 0.13534863, 0.3133594, -950748.44, -23031.473, 0.0, 10.000007, 9.999185 
4.4498786e+2, 2.1533585e+2, -742525.8, -877947.44, -67699.586, 0.07873276, 0.16278914, -714487.0, 115249.04, 0.0, 10.000984, 9.999201 
4.449879e+2, 2.2533536e+2, -639470.2, -732341.25, 30562.975, 0.02832035, 0.17547274, -630314.75, 101424.58, 0.0, 10.000817, 9.999604 
4.4498926e+2, 2.353362e+2, -716622.0, -719864.0, 22530.695, -0.01374586, 0.27750435, -695654.06, -61923.996, 0.0, 9.999619, 9.999597 
4.449909e+2, 2.4533539e+2, -667360.44, -709764.6, -37564.918, 0.040567808, 0.2698274, -645427.25, -109690.82, 0.0, 9.999559, 9.9990225 
4.4499272e+2, 2.553331e+2, -431205.6, -545128.9, -79204.55, 0.17238513, 0.11372713, -390607.06, 47150.402, 0.0, 10.00051, 9.999022 
4.4499457e+2, 2.6533172e+2, -351192.34, -556991.2, 6780.815, 0.18475935, 0.12290816, -350969.16, -11197.983, 0.0, 10.000828, 9.998114 
4.4499645e+2, 2.7533102e+2, -280112.84, -467004.47, 30745.707, 0.09935045, 0.22587657, -275184.78, -33405.1, 0.0, 10.000619, 9.998159 
4.4499922e+2, 2.8532985e+2, -141799.64, -249108.17, 26864.469, 0.0942449, 0.24739663, -135449.9, 8340.675, 0.00000003062236, 10.000473, 9.999049 
4.4500265e+2, 2.9532808e+2, -70665.08, -167693.63, -17080.799, 0.17147183, 0.14239505, -67746.01, -21941.377, 0.0000032981313, 10.000304, 9.999015 
4.450063e+2, 3.0532625e+2, -186749.3, -383903.16, 99011.14, 0.12954088, 0.14678355, -145610.03, -145610.03, 0.000027025699, 9.999957, 9.997376 
4.450109e+2, 3.153257e+2, -78595.31, -36999.688, 8570.855, 0.07826237, 0.3296311, -35302.867, -35302.867, 0.00008860118, 9.999396, 10.000023 
4.549767e+2, 1.2534124e+2, -1841443.4, -1710707.9, -200444.73, -0.309529, 0.42407584, -1565241.5, 146450.34, 0.00010140695, 9.998835, 10.000564 
4.5498452e+2, 1.3534136e+2, -1617849.3, -1563966.5, 86684.53, 0.39996138, 0.3509154, -1500133.1, 113554.49, 0.00004730018, 9.999735, 10.000492 
4.549858e+2, 1.4534125e+2, -1605668.3, -1712002.5, 91315.31, 0.2515145, 0.39003783, -1553169.8, -37479.76, 0.000015080613, 10.000024, 9.9986515 
4.5498502e+2, 1.5533991e+2, -1579613.9, -1640938.5, 13861.277, 0.0028580583, 0.36627322, -1576626.3, -158917.84, 0.0000021144335, 9.999504, 9.998714 
4.5498583e+2, 1.6533978e+2, -1331045.6, -1287990.0, -99849.625, 0.06461417, 0.40331385, -1207373.8, 112334.52, 0.00000004449902, 9.99974, 10.000355 
4.5498696e+2, 1.7534089e+2, -1097061.6, -1123059.6, -72973.55, 0.25771743, 0.45543128, -1035938.4, 185752.03, 0.0, 10.000672, 10.000362 
4.5498714e+2, 1.8534e+2, -1106339.0, -1231682.9, 32008.645, 0.21114902, 0.40410766, -1098638.1, 25057.115, 0.0, 10.000618, 9.998963 
4.5498708e+2, 1.9533709e+2, -1129021.0, -1192144.5, 45637.918, 0.005038016, 0.19673696, -1105094.4, -79371.625, 0.0, 9.999786, 9.998964 
4.5498788e+2, 2.0533611e+2, -1010563.75, -1080037.9, -27950.14, -0.015230088, 0.2040348, -1000715.2, -72982.086, 0.0, 9.999914, 9.998999 
4.5498928e+2, 2.1533683e+2, -767283.25, -906202.44, -25863.283, 0.10777031, 0.3563559, -762624.4, 67104.28, 0.0, 10.000884, 9.999053 
4.549899e+2, 2.253364e+2, -653881.06, -741092.6, -20050.566, 0.13288596, 0.38326216, -649492.1, 82239.09, 0.0, 10.000725, 9.999592 
4.549899e+2, 2.3533484e+2, -727386.5, -728210.4, -12472.103, 0.07126283, 0.24828729, -715319.56, -81578.39, 0.0, 9.9995575, 9.999569 
4.549907e+2, 2.4533346e+2, -745025.56, -857981.7, -9152.097, 0.051196616, 0.23445797, -744288.9, -208534.63, 0.0, 9.999506, 9.998033 
4.5499226e+2, 2.553321e+2, -504541.16, -682221.6, -38328.19, 0.06276113, 0.27598324, -496625.84, -58854.758, 0.0, 10.000443, 9.998114 
4.549945e+2, 2.65331e+2, -304054.9, -450586.38, -5948.347, 0.082607046, 0.31521893, -303813.8, 35969.652, 0.0, 10.0007925, 9.99886 
4.549973e+2, 2.7532995e+2, -239980.19, -372888.3, 31997.813, 0.104503766, 0.30490854, -232677.88, 9115.087, 0.0, 10.000571, 9.998828 
4.5500037e+2, 2.8532892e+2, -218929.86, -402525.34, 14845.893, 0.14556043, 0.36389154, -217737.14, -73933.93, 0.000000022691747, 10.00044, 9.998014 
4.5500356e+2, 2.9532766e+2, -135884.23, -299831.8, -14953.406, 0.21035318, 0.41250128, -134531.52, -88715.12, 0.0000033719941, 10.000278, 9.998126 
4.5500678e+2, 3.0532438e+2, -70080.81, -137923.31, 75960.664, 0.16154584, 0.22282231, -20811.475, -20811.475, 0.000028147611, 9.999952, 9.999063 
4.550102e+2, 3.1532246e+2, -3320.1794, 133860.14, -5970.0903, 0.029319972, 0.10245799, 134119.47, 134119.47, 0.00009108323, 9.999341, 10.001223 
4.649754e+2, 1.2533993e+2, -1977195.8, -1775149.1, -198694.25, -0.27264065, 0.34082517, -1653270.8, 58428.59, 0.000096649455, 9.997874, 10.000588 
4.649839e+2, 1.3533978e+2, -1567289.9, -1562349.9, 67992.75, 0.35222515, 0.2572382, -1496782.3, 116915.43, 0.00004344866, 10.000149, 10.000315 
4.6498674e+2, 1.4533964e+2, -1455580.4, -1644378.1, 42317.438, 0.29568508, 0.3035869, -1446529.3, 69171.445, 0.000012657647, 10.001073, 9.998609 
4.649851e+2, 1.5533856e+2, -1410911.0, -1563574.4, 27557.887, 0.010277693, 0.3080564, -1406088.6, 11628.446, 0.0000014631825, 10.000674, 9.998683 
4.6498543e+2, 1.6533872e+2, -1266988.4, -1293046.5, -24096.545, 0.02570666, 0.39134747, -1252624.0, 67092.39, 0.000000030371112, 10.000355, 10.000015 
4.649867e+2, 1.7534006e+2, -1191685.6, -1204125.6, -65019.16, 0.19403103, 0.50016725, -1132589.6, 89110.484, 0.0, 10.000187, 10.000037 
4.6498698e+2, 1.8533911e+2, -1194529.0, -1240888.3, -5294.2056, 0.17317301, 0.44345665, -1193932.1, -70226.49, 0.0, 9.999865, 9.999266 
4.6498677e+2, 1.9533595e+2, -1171057.1, -1182807.6, 3920.342, 0.021769177, 0.18309307, -1169869.3, -144136.78, 0.0, 9.999362, 9.999239 
4.6498767e+2, 2.0533492e+2, -1120145.9, -1152340.6, -6978.2007, 0.011334729, 0.17891192, -1118698.4, -190955.6, 0.0, 9.999238, 9.99883 
4.6498942e+2, 2.153357e+2, -990988.06, -1036970.9, -22414.39, 0.108929574, 0.35409078, -981870.1, -152130.9, 0.0, 9.99944, 9.998854 
4.649903e+2, 2.2533508e+2, -793140.44, -834799.3, -43907.637, 0.14681059, 0.38486177, -765372.06, -33627.965, 0.0, 9.999891, 9.999347 
4.6499053e+2, 2.3533311e+2, -593732.3, -693440.1, -67988.47, 0.13294977, 0.2344728, -559278.2, 74479.59, 0.0, 10.000606, 9.999305 
4.6499133e+2, 2.4533157e+2, -552958.8, -782833.6, -1897.3263, 0.095932275, 0.22670671, -552943.1, -17170.514, 0.0, 10.0008955, 9.997879 
4.649926e+2, 2.5533032e+2, -458326.22, -677386.06, 18695.914, 0.035294537, 0.29189178, -456742.03, -18952.717, 0.0, 10.000833, 9.99796 
4.6499494e+2, 2.6532912e+2, -319512.8, -460011.8, 36310.0, 0.05505858, 0.33236152, -310683.8, 29118.873, 0.0, 10.000687, 9.998851 
4.6499816e+2, 2.753279e+2, -262556.0, -385812.7, 1974.5745, 0.1437033, 0.3026387, -262524.38, -20710.111, 0.0, 10.000422, 9.998816 
4.650015e+2, 2.853268e+2, -182232.31, -404226.5, 33622.902, 0.20518084, 0.36578882, -177251.6, -33426.316, 0.00000001636591, 10.000763, 9.997853 
4.65005e+2, 2.953257e+2, 64078.0, -214006.19, 51827.18, 0.25964597, 0.44484773, 73423.1, 119260.586, 0.0000038591365, 10.001694, 9.998035 
4.6500805e+2, 3.0532226e+2, 169409.6, -621.90485, 77717.02, 0.22291704, 0.23666894, 199578.97, 199578.97, 0.00002953643, 10.001497, 9.999272 
4.6500984e+2, 3.153204e+2, 75454.35, 137929.56, -149916.69, 0.03385875, 0.10539464, 259828.52, 259828.52, 0.00009247593, 10.0000305, 10.000926 
4.7497442e+2, 1.2533773e+2, -2015247.5, -1837171.1, -165871.13, -0.1987764, 0.21475628, -1737951.5, -26239.125, 0.000091564856, 9.997825, 10.000174 
4.7498032e+2, 1.3533723e+2, -1612888.6, -1645228.9, 160506.92, -0.041644856, 0.1576217, -1467739.4, 145978.7, 0.000038474074, 10.00012, 9.999747 
4.749855e+2, 1.4533743e+2, -1380115.0, -1491567.5, 23090.15, 0.038376264, 0.21156378, -1375520.6, 140196.38, 0.000009911169, 10.001075, 9.999663 
4.7498697e+2, 1.5533772e+2, -1333788.5, -1411700.3, 20701.709, 0.10318674, 0.24481757, -1328629.5, 89085.195, 0.0000009593812, 10.000703, 9.999716 
4.7498682e+2, 1.653375e+2, -1339197.0, -1441367.8, -38625.523, 0.10728695, 0.29235876, -1326238.3, -6519.5073, 0.000000014696447, 10.000345, 9.999005 
4.7498482e+2, 1.7533667e+2, -1261233.0, -1346737.0, -63740.59, -0.0329121, 0.28753325, -1227234.8, -5504.7495, 0.0, 10.00018, 9.999062 
4.7498497e+2, 1.8533607e+2, -1172350.0, -1183702.3, -30086.668, -0.031156773, 0.2927435, -1147408.8, -23673.674, 0.0, 9.999816, 9.999683 
4.749874e+2, 1.9533563e+2, -1147888.4, -1127240.4, -6894.0117, 0.13173258, 0.26263353, -1125150.1, -99414.88, 0.0, 9.999326, 9.99964 
4.749884e+2, 2.0533445e+2, -1145193.4, -1187070.9, -5786.7773, 0.1452401, 0.23673877, -1144408.5, -216662.58, 0.0, 9.9991665, 9.998626 
4.74988e+2, 2.1533252e+2, -1017757.44, -1073657.1, -8100.615, 0.011165551, 0.16215277, -1016607.25, -186840.16, 0.0, 9.99936, 9.99864 
4.7498885e+2, 2.2533141e+2, -837259.1, -913124.8, -23466.076, -0.0031961824, 0.17874615, -830587.56, -98809.59, 0.0, 9.999827, 9.998844 
4.7499096e+2, 2.35331e+2, -638412.6, -766137.7, -34866.77, 0.100382686, 0.23395076, -629514.44, 4265.655, 0.0, 10.000518, 9.99885 
4.7499248e+2, 2.4532974e+2, -511759.78, -687423.7, -9441.402, 0.10540837, 0.24286988, -511253.78, 24537.863, 0.0, 10.00085, 9.998558 
4.7499344e+2, 2.5532767e+2, -423554.72, -597090.1, 24184.213, 0.017817732, 0.15702614, -420247.4, 17565.262, 0.0, 10.000788, 9.998537 
4.749956e+2, 2.6532608e+2, -378587.03, -573907.3, 22103.994, 0.034357745, 0.17008482, -376116.8, -36287.4, 0.0, 10.000651, 9.998084 
4.7499874e+2, 2.7532476e+2, -317183.2, -489723.13, 1950.1154, 0.14061584, 0.21215351, -317161.16, -75317.07, 0.0, 10.000382, 9.998119 
4.7500247e+2, 2.853234e+2, -134075.97, -303898.4, 61294.99, 0.2054754, 0.24764362, -114263.78, 29593.387, 0.0000000367379, 10.000757, 9.998546 
4.7500664e+2, 2.953221e+2, 100447.11, -131693.11, 93792.49, 0.23621897, 0.22877055, 133606.02, 179475.17, 0.000004901276, 10.001649, 9.998628 
4.7500983e+2, 3.053199e+2, 70307.75, -188619.63, 19890.678, 0.23783454, 0.18296246, 71826.83, 71826.83, 0.000032485186, 10.001426, 9.998012 
4.750094e+2, 3.153194e+2, -52319.195, -125227.37, -179321.25, -0.053251527, 0.32196137, 94215.81, 94215.81, 0.000096372605, 10.000019, 9.999123 
4.849748e+2, 1.2533534e+2, -1925023.0, -1786265.9, -171383.69, 0.034678783, 0.15853667, -1670750.6, 40981.773, 0.00008660855, 9.998405, 10.00025 
4.849785e+2, 1.3533527e+2, -1738298.5, -1705371.9, 186575.78, -0.18458417, 0.14298546, -1534534.5, 79200.48, 0.000032757685, 9.999231, 9.99978 
4.8498514e+2, 1.4533551e+2, -1604537.1, -1548615.8, -1262.1411, -0.014929126, 0.1775878, -1548587.4, -32854.63, 0.000007215262, 9.999334, 10.000101 
4.8498714e+2, 1.5533611e+2, -1569202.8, -1479497.3, -76173.914, 0.14885114, 0.1989558, -1435951.8, -18226.352, 0.00000059770906, 9.9989, 10.000114 
4.8498693e+2, 1.6533577e+2, -1514378.6, -1529330.0, -76120.96, 0.1509106, 0.21601576, -1445367.1, -125636.49, 0.0000000048834687, 9.999157, 9.998974 
4.8498464e+2, 1.753344e+2, -1284137.5, -1360424.1, -37277.08, -0.056733, 0.16120134, -1268947.1, -47198.156, 0.0, 10.000037, 9.999033 
4.8498502e+2, 1.8533425e+2, -1058841.0, -1119895.3, 12265.597, -0.041907202, 0.20562631, -1056469.1, 67282.22, 0.0, 10.000554, 9.999763 
4.84988e+2, 1.9533512e+2, -941978.25, -1015805.9, -1139.6385, 0.19418268, 0.29516286, -941960.6, 83779.52, 0.0, 10.000695, 9.999738 
4.8498902e+2, 2.053342e+2, -877014.44, -1064513.0, 27247.27, 0.20159873, 0.29269445, -873135.1, 54613.332, 0.0, 10.001033, 9.998573 
4.849883e+2, 2.1533154e+2, -707882.56, -929108.75, 28613.932, 0.0027201513, 0.15225787, -704241.5, 125534.03, 0.0, 10.001509, 9.998598 
4.8498917e+2, 2.2533014e+2, -665851.5, -863417.4, 18806.932, -0.01953064, 0.15596318, -664077.2, 67712.54, 0.0, 10.001147, 9.9985485 
4.8499143e+2, 2.3532973e+2, -725327.7, -839723.75, 10971.9375, 0.121695906, 0.24121389, -724284.9, -90491.28, 0.0, 10.000054, 9.998565 
4.8499334e+2, 2.4532852e+2, -632191.2, -737397.44, 54228.64, 0.15314625, 0.26393676, -609244.1, -73438.76, 0.0, 9.999993, 9.998624 
4.8499492e+2, 2.5532654e+2, -412408.75, -581284.25, 25674.508, 0.08524992, 0.1825964, -408591.66, 29233.291, 0.0, 10.0008335, 9.998616 
4.8499715e+2, 2.6532492e+2, -280013.03, -532419.75, 30854.52, 0.094353855, 0.19118276, -276296.1, 63545.645, 0.0, 10.001356, 9.998028 
4.8500013e+2, 2.7532336e+2, -138349.67, -408471.88, 52908.766, 0.18220828, 0.2153862, -128356.17, 113502.195, 0.0, 10.00163, 9.998077 
4.850033e+2, 2.853218e+2, -50464.777, -234124.08, 130548.01, 0.19423522, 0.21665859, 17315.932, 161189.28, 0.00000008825205, 10.001213, 9.998802 
4.8500657e+2, 2.9532045e+2, -107333.58, -205729.4, 109595.555, 0.14448367, 0.17559388, -36399.813, 9484.935, 0.0000056074396, 10.000127, 9.998844 
4.8501065e+2, 3.0531916e+2, -119041.555, -324915.63, 73939.48, 0.24122727, 0.22574812, -95238.39, -95238.39, 0.000034672463, 10.000311, 9.997603 
4.850115e+2, 3.1531918e+2, 128113.375, -92391.58, -70578.58, 0.08944219, 0.45138538, 148769.05, 148769.05, 0.000099448036, 10.00149, 9.998629 
4.9497586e+2, 1.253328e+2, -1883673.0, -1702553.3, -161550.38, 0.25451487, 0.17948222, -1607911.6, 103847.47, 0.00007902746, 9.998422, 10.000814 
4.9497813e+2, 1.3533394e+2, -1691297.3, -1604767.0, 222183.05, -0.16262047, 0.21149166, -1421675.8, 192071.84, 0.000026309019, 9.999225, 10.000469 
4.9498528e+2, 1.4533395e+2, -1628010.5, -1593228.0, -26256.973, 0.044647563, 0.20517537, -1579125.1, -63377.77, 0.0000047383246, 9.999314, 9.999805 
4.9498546e+2, 1.5533376e+2, -1589436.8, -1518179.6, -84834.82, 0.07171774, 0.17782137, -1461795.5, -44046.55, 0.0000002991547, 9.998889, 9.999853 
4.9498564e+2, 1.6533358e+2, -1447917.9, -1385745.0, -51247.797, 0.08549849, 0.17324427, -1356892.3, -37140.67, 0.0000000005507737, 9.99913, 9.999973 
4.9498603e+2, 1.7533328e+2, -1218615.0, -1220914.8, 1022.69684, 0.057139415, 0.12406059, -1218226.0, 3530.5537, 0.0, 10.000022, 9.999996 
4.9498692e+2, 1.8533361e+2, -1082947.5, -1158291.1, 9855.441, 0.074004054, 0.18204479, -1081679.6, 42074.934, 0.0, 10.000503, 9.999524 
4.9498832e+2, 1.9533432e+2, -962198.56, -1049822.0, 7931.643, 0.13946228, 0.27993268, -961486.4, 64261.605, 0.0, 10.000656, 9.999525 
4.9498934e+2, 2.0533407e+2, -872879.25, -1040294.2, 37433.76, 0.116879076, 0.34294403, -864890.3, 62860.797, 0.0, 10.000962, 9.998777 
4.949901e+2, 2.1533285e+2, -704029.94, -908072.44, 51614.813, 0.015939808, 0.32801506, -691716.5, 138047.16, 0.0, 10.001445, 9.99878 
4.949909e+2, 2.2533125e+2, -686286.9, -887490.94, -27338.275, 0.023644887, 0.31096545, -682638.5, 49141.055, 0.0, 10.00107, 9.998419 
4.9499166e+2, 2.3532924e+2, -747494.44, -865848.3, -20851.438, 0.12415722, 0.24801026, -743928.3, -110129.22, 0.0, 9.99997, 9.998426 
4.9499366e+2, 2.4532788e+2, -674128.6, -817936.56, 80991.06, 0.16464329, 0.2875148, -637728.7, -101914.586, 0.0, 9.999964, 9.998086 
4.949966e+2, 2.5532693e+2, -453628.97, -658308.8, 63594.14, 0.1548358, 0.36501023, -435479.56, 2347.2185, 0.0, 10.0007925, 9.99811 
4.9499938e+2, 2.6532558e+2, -238382.11, -437138.9, 33781.7, 0.16491312, 0.39081153, -232797.31, 107043.37, 0.0, 10.00132, 9.998698 
4.9500194e+2, 2.7532363e+2, -104890.125, -321519.06, 70082.73, 0.18466853, 0.30698684, -84194.47, 157663.28, 0.0, 10.001556, 9.998708 
4.9500367e+2, 2.85322e+2, -71796.35, -268144.25, 84862.516, 0.09245381, 0.28214344, -40202.156, 103670.69, 0.00000018947561, 10.001169, 9.9985895 
4.9500453e+2, 2.953208e+2, -121153.35, -234868.28, 83606.3, -0.09446314, 0.28160882, -76903.03, -31018.184, 0.000005616016, 10.000128, 9.998644 
4.9501044e+2, 3.0531988e+2, -82958.234, -254106.1, 115132.555, 0.16764548, 0.356625, -25080.422, -25080.422, 0.000033520122, 10.000322, 9.998085 
4.950154e+2, 3.153196e+2, 178431.05, 22419.758, 15155.113, 0.28931683, 0.49265274, 179889.6, 179889.6, 0.000095768366, 10.00144, 9.999438 
5.0497633e+2, 1.2533101e+2, -1518989.0, -1574889.8, -49447.08, 0.32917088, 0.16603942, -1490139.4, 221636.33, 0.00006639799, 10.001149, 10.000369 
5.049779e+2, 1.3533238e+2, -1640959.0, -1617209.3, 200599.3, -0.12569246, 0.25664842, -1428133.6, 185630.36, 0.00001955312, 9.9997225, 10.000149 
5.0498587e+2, 1.4533222e+2, -1632765.6, -1562110.9, -26969.951, 0.18540497, 0.23456843, -1552992.8, -37227.125, 0.0000028130235, 9.9991455, 10.000097 
5.049841e+2, 1.55332e+2, -1457105.3, -1421740.0, -59585.36, 0.00933625, 0.17604566, -1377268.9, 40497.38, 0.00000011765629, 9.999661, 10.000141 
5.0498426e+2, 1.6533223e+2, -1356262.1, -1331316.9, -18351.184, 0.0123797385, 0.19064234, -1321601.0, -1836.1315, 0.000000000026416515, 9.999708, 10.000069 
5.0498676e+2, 1.7533262e+2, -1324177.6, -1266507.1, -50174.71, 0.17095466, 0.20501325, -1237472.0, -15708.312, 0.0, 9.999262, 10.000056 
5.0498796e+2, 1.8533272e+2, -1225921.3, -1235128.0, -40082.344, 0.18447432, 0.2432292, -1190178.8, -66414.3, 0.0, 9.999566, 9.999445 
5.0498813e+2, 1.9533248e+2, -983729.3, -1066367.4, -44610.12, 0.06701745, 0.25666508, -964242.7, 61525.01, 0.0, 10.000551, 9.999456 
5.0498927e+2, 2.0533231e+2, -890421.3, -1003543.25, -17705.598, 0.035995923, 0.309911, -887714.8, 40054.746, 0.0, 10.000649, 9.999173 
5.049914e+2, 2.1533208e+2, -906214.5, -963632.75, -4875.276, 0.08377981, 0.35227135, -905803.5, -76032.14, 0.0, 9.999884, 9.999145 
5.0499254e+2, 2.2533065e+2, -757344.4, -940122.25, -41537.28, 0.106646925, 0.3453803, -748347.6, -16562.021, 0.0, 10.000659, 9.998258 
5.0499284e+2, 2.3532814e+2, -349257.88, -690064.25, -51327.867, 0.10807356, 0.24615675, -341695.34, 292116.2, 0.0, 10.002776, 9.998281 
5.0499475e+2, 2.4532658e+2, -242601.55, -618724.9, 52741.875, 0.12958115, 0.27849016, -235345.8, 300482.88, 0.0, 10.002971, 9.998007 
5.04998e+2, 2.5532573e+2, -345035.9, -613389.06, 59685.44, 0.18042456, 0.37579888, -332359.8, 105479.7, 0.0, 10.001574, 9.998043 
5.050009e+2, 2.6532462e+2, -277053.66, -456984.06, 52416.594, 0.20154043, 0.42743942, -262897.6, 76954.06, 0.0, 10.001057, 9.9986925 
5.0500333e+2, 2.753231e+2, -151957.02, -347450.6, 15099.41, 0.18997845, 0.38577336, -150797.64, 91068.85, 0.00000000061010413, 10.001249, 9.998676 
5.050047e+2, 2.8532147e+2, -106021.91, -314913.38, -16544.117, 0.092152685, 0.37632492, -104719.734, 39162.96, 0.00000027597625, 10.001069, 9.998314 
5.050051e+2, 2.9531989e+2, -78246.71, -245760.2, -35665.926, -0.06887542, 0.36743215, -70969.12, -25070.314, 0.0000049400037, 10.000563, 9.998361 
5.050112e+2, 3.0531856e+2, -42804.113, -186029.58, 56501.043, 0.2140287, 0.3955285, -23198.693, -23198.693, 0.000029285811, 10.000398, 9.998521 
5.0501615e+2, 3.1531805e+2, 71725.695, 42262.85, -51151.902, 0.27835914, 0.46548006, 110225.2, 110225.2, 0.000085814645, 10.000395, 10.0000925 
5.1497537e+2, 1.2532996e+2, -1620280.1, -1789738.0, -79767.51, 0.07440143, 0.11735042, -1588639.6, 123142.98, 0.0000519356, 10.00117, 9.99888 
5.1497763e+2, 1.3533078e+2, -1730199.9, -1805694.4, 155206.9, -0.13963763, 0.28689608, -1608216.0, 5566.4033, 0.000013925394, 9.999738, 9.998846 
5.149867e+2, 1.4533049e+2, -1571987.9, -1438900.3, -18588.023, 0.32952723, 0.2740252, -1436352.9, 79433.17, 0.000001645238, 9.999153, 10.000943 
5.1498264e+2, 1.5533087e+2, -1400076.8, -1305031.1, -31567.613, -0.115877725, 0.18909448, -1295501.9, 122275.125, 0.00000003629146, 9.999667, 10.000942 
5.149825e+2, 1.6533165e+2, -1422799.0, -1457603.8, -40338.086, -0.1481613, 0.2637386, -1396269.6, -76498.84, 0.0, 9.999662, 9.999219 
5.149866e+2, 1.7533249e+2, -1385042.4, -1389151.8, -57710.543, 0.20894131, 0.40578902, -1329350.0, -107580.25, 0.0, 9.999249, 9.999217 
5.1498806e+2, 1.8533179e+2, -1226167.1, -1228873.3, -11262.364, 0.21214859, 0.4016765, -1216176.8, -92397.51, 0.0, 9.999536, 9.9995 
5.1498723e+2, 1.953297e+2, -982678.75, -1058956.8, -1308.0046, -0.09569212, 0.2216519, -982656.3, 43142.18, 0.0, 10.000523, 9.999523 
5.1498866e+2, 2.0532888e+2, -868686.06, -938413.3, -53065.78, -0.10947991, 0.18394889, -840056.0, 87748.45, 0.0, 10.000562, 9.999662 
5.14992e+2, 2.1532908e+2, -881824.6, -898576.2, -24527.793, 0.13968374, 0.21691795, -864281.94, -34482.035, 0.0, 9.999815, 9.999625 
5.1499397e+2, 2.2532827e+2, -779517.56, -970470.1, 30456.441, 0.16550195, 0.25397155, -774777.5, -42968.56, 0.0, 10.000589, 9.998084 
5.149946e+2, 2.3532644e+2, -369879.0, -716424.9, 29354.428, -0.0040175985, 0.2435705, -367410.1, 266420.6, 0.0, 10.0027075, 9.998133 
5.149963e+2, 2.453247e+2, -217253.89, -559953.0, -7553.5005, -0.02531297, 0.24363798, -217087.48, 318760.97, 0.0, 10.002943, 9.998425 
5.149988e+2, 2.5532296e+2, -325075.7, -560714.75, 18682.102, 0.080252655, 0.20508309, -323603.72, 114259.88, 0.0, 10.001521, 9.998431 
5.150014e+2, 2.6532206e+2, -334275.5, -566707.06, 53785.81, 0.129701, 0.2995585, -322432.63, 17442.162, 0.0, 10.001023, 9.997954 
5.1500416e+2, 2.7532166e+2, -208305.64, -454588.3, 30445.62, 0.1259552, 0.44969228, -204597.75, 37287.168, 0.0000000018853024, 10.001209, 9.997961 
5.150063e+2, 2.853201e+2, -132350.75, -367015.2, -43419.555, 0.1201032, 0.4993459, -124574.59, 19328.617, 0.00000034894228, 10.001055, 9.997964 
5.1500773e+2, 2.9531765e+2, -106162.59, -299891.0, -44190.152, 0.11842227, 0.43220973, -96558.76, -50631.613, 0.0000043002137, 10.000542, 9.997999 
5.1501256e+2, 3.0531517e+2, -23625.688, -138947.98, 52932.098, 0.293471, 0.34113854, -3014.1404, -3014.1404, 0.00002546161, 10.000378, 9.998854 
5.150135e+2, 3.1531435e+2, 92216.95, 111851.83, 5134.678, -0.065832436, 0.3588101, 113113.516, 113113.516, 0.00007750593, 10.000298, 10.000612 
5.249763e+2, 1.2532935e+2, -1702798.6, -1872960.6, -112528.58, 0.07942028, 0.20946626, -1646807.1, 64982.504, 0.000041741634, 10.000782, 9.998499 
5.2497685e+2, 1.353287e+2, -1707603.8, -1823442.9, 105629.97, -0.19892904, 0.25645122, -1645056.0, -31252.621, 0.000010470756, 10.0000105, 9.998595 
5.2498674e+2, 1.4532813e+2, -1528162.8, -1404710.1, 15659.001, 0.4130946, 0.22511333, -1402754.9, 113054.1, 0.0000009776196, 9.999401, 10.001057 
5.2498287e+2, 1.5532918e+2, -1440948.4, -1311309.3, -67711.18, -0.044173367, 0.19286367, -1282393.1, 135399.94, 0.000000005050013, 9.999328, 10.001059 
5.249826e+2, 1.6532996e+2, -1398204.6, -1458812.0, -51401.887, -0.12246628, 0.26766652, -1368838.6, -49051.89, 0.0, 9.999884, 9.999114 
5.249863e+2, 1.7533027e+2, -1136733.9, -1279613.4, -29518.875, 0.17496115, 0.36772308, -1130875.5, 90915.625, 0.0, 10.000998, 9.999133 
5.2498794e+2, 1.8532981e+2, -1030820.44, -1130006.3, 38264.78, 0.184891, 0.3900325, -1017774.3, 106024.945, 0.0, 10.000857, 9.999545 
5.2498746e+2, 1.9532858e+2, -1125154.0, -1121848.4, 31049.754, -0.06942102, 0.29426813, -1092407.4, -66595.875, 0.0, 9.999527, 9.999569 
5.249891e+2, 2.0532764e+2, -994448.2, -1014973.5, -9584.706, -0.07253749, 0.24975725, -990668.44, -62848.84, 0.0, 9.999769, 9.999517 
5.249927e+2, 2.1532688e+2, -661672.6, -804308.8, -42956.188, 0.15115118, 0.20004985, -649735.06, 180089.94, 0.0, 10.001386, 9.999511 
5.249949e+2, 2.2532625e+2, -631520.8, -876192.1, 19588.951, 0.16635658, 0.25252795, -629962.4, 101870.07, 0.0, 10.001514, 9.998282 
5.2499616e+2, 2.353256e+2, -703973.2, -857288.3, 31163.639, -0.00024142276, 0.341967, -697880.8, -64037.41, 0.0, 10.000329, 9.998313 
5.2499807e+2, 2.4532405e+2, -555300.2, -699198.7, -8862.083, -0.016739925, 0.33989903, -554756.5, -18897.896, 0.0, 10.000515, 9.998637 
5.250006e+2, 2.5532162e+2, -257314.52, -505575.5, -14945.907, 0.094175816, 0.21314047, -256417.97, 181460.1, 0.0, 10.001894, 9.998629 
5.25003e+2, 2.6532024e+2, -196250.19, -537695.9, 34505.152, 0.131684, 0.26768667, -192798.14, 147095.14, 0.0, 10.0021305, 9.997622 
5.250053e+2, 2.7531958e+2, -208933.73, -489096.13, 31772.602, 0.11322219, 0.4222863, -205375.66, 36531.246, 0.00000000009174081, 10.001358, 9.997651 
5.250077e+2, 2.853181e+2, -67498.28, -336255.44, 19999.617, 0.14497717, 0.49474803, -66018.16, 77906.305, 0.00000033351301, 10.001505, 9.997957 
5.2501017e+2, 2.9531598e+2, 162138.36, -178066.64, 20104.303, 0.21759665, 0.4627262, 163322.3, 209267.06, 0.0000041079616, 10.002414, 9.997937 
5.250142e+2, 3.0531287e+2, 172708.34, -62269.953, 81627.75, 0.3545327, 0.32295585, 198281.39, 198281.39, 0.000024461535, 10.001802, 9.998693 
5.25013e+2, 3.153116e+2, -13308.701, 19685.553, -4267.743, -0.10283614, 0.30826476, 20228.639, 20228.639, 0.000075222786, 9.999735, 10.000257 
5.349787e+2, 1.2532897e+2, -1641483.3, -1751641.5, -85058.27, 0.19079947, 0.42411527, -1595228.3, 116570.555, 0.000035627574, 10.000818, 9.9993105 
5.3497523e+2, 1.3532606e+2, -1654588.3, -1708117.1, 75843.39, -0.38070053, 0.16460341, -1600925.4, 12901.623, 0.000008273398, 9.999991, 9.999398 
5.3498566e+2, 1.4532514e+2, -1572589.1, -1493124.1, 3093.663, 0.3422123, 0.08741844, -1493003.9, 22830.676, 0.00000061502607, 9.999383, 10.000458 
5.349843e+2, 1.5532695e+2, -1480795.9, -1395686.9, -61423.582, 0.15284166, 0.18979746, -1363516.9, 54297.652, 0.00000000036285042, 9.9993305, 10.000481 
5.34984e+2, 1.653272e+2, -1357137.4, -1366495.0, -17664.297, 0.01935768, 0.20769405, -1343542.8, -23730.277, 0.0, 9.999857, 9.999761 
5.349858e+2, 1.7532597e+2, -1092498.3, -1189064.0, 18785.068, 0.0027683128, 0.091723904, -1088972.8, 132854.8, 0.0, 10.001, 9.999757 
5.349874e+2, 1.8532671e+2, -1034346.4, -1130317.6, -17842.775, 0.026247976, 0.20269364, -1031136.44, 92688.31, 0.0, 10.000827, 9.999557 
5.3498864e+2, 1.9532907e+2, -1134783.0, -1133937.0, -7986.5176, 0.07397284, 0.46441418, -1126362.3, -100554.81, 0.0, 9.999487, 9.999509 
5.3499055e+2, 2.053286e+2, -1058113.0, -1129507.4, 44751.715, 0.07379656, 0.5077514, -1036565.06, -108749.94, 0.0, 9.999697, 9.998764 
5.349932e+2, 2.1532556e+2, -721069.0, -913013.1, 21411.549, 0.04818323, 0.30729312, -718709.5, 111135.79, 0.0, 10.00132, 9.998797 
5.349954e+2, 2.253247e+2, -603456.3, -804353.5, -32703.39, 0.03937174, 0.34328157, -598266.7, 133588.89, 0.0, 10.0014515, 9.998808 
5.349971e+2, 2.3532563e+2, -677326.9, -786993.94, -3907.3994, 0.045520917, 0.5345768, -677187.9, -43338.215, 0.0, 10.000262, 9.998827 
5.349997e+2, 2.4532457e+2, -565413.56, -709273.44, 38223.348, 0.08649498, 0.560376, -555888.4, -20028.928, 0.0, 10.000472, 9.998589 
5.350032e+2, 2.5532168e+2, -265587.38, -515003.25, 42531.523, 0.15078488, 0.39185116, -258534.16, 179349.77, 0.0, 10.001859, 9.998582 
5.3500533e+2, 2.6531917e+2, -189187.63, -518689.97, -521.69476, 0.13735302, 0.32892635, -189186.8, 150720.84, 0.0, 10.0021105, 9.997761 
5.350063e+2, 2.7531686e+2, -203073.17, -470074.4, 15267.083, 0.060943406, 0.3003878, -202203.03, 39729.47, 0.0, 10.001323, 9.9978 
5.3500885e+2, 2.8531545e+2, -51365.5, -299970.84, 48480.3, 0.08358066, 0.35986397, -42245.934, 101700.89, 0.00000019037492, 10.001494, 9.998212 
5.3501236e+2, 2.9531482e+2, 170722.17, -148702.23, 60672.883, 0.17308353, 0.4564451, 181858.39, 227810.38, 0.0000040138116, 10.002362, 9.998164 
5.3501594e+2, 3.053117e+2, 119752.57, -167459.94, 2982.578, 0.3323937, 0.3419377, 119783.54, 119783.54, 0.000024849203, 10.001778, 9.997982 
5.3501403e+2, 3.1530958e+2, -92722.77, -150537.9, -29088.822, -0.015021664, 0.30641553, -80620.5, -80620.5, 0.00007616266, 9.999752, 9.999078 
5.449814e+2, 1.2532695e+2, -1304392.6, -1593559.4, 53434.965, 0.28011745, 0.33871755, -1294834.4, 416983.63, 0.000030309948, 10.003144, 9.999297 
5.4497534e+2, 1.3532476e+2, -1600556.4, -1681446.9, 28307.84, -0.37908533, 0.15910658, -1591634.0, 22203.686, 0.000006366235, 10.000365, 9.999403 
5.44985e+2, 1.4532398e+2, -1664846.0, -1573799.3, 32722.578, 0.36797294, 0.11148046, -1563258.9, -47414.453, 0.00000037085837, 9.998904, 10.000136 
5.449841e+2, 1.5532506e+2, -1504869.6, -1436961.1, -24683.045, 0.2046486, 0.17184335, -1428937.5, -11104.582, 0.00000000007720086, 9.999297, 10.000211 
5.449839e+2, 1.6532508e+2, -1390174.1, -1357757.1, 43767.336, 0.045661718, 0.16567932, -1327293.5, -7460.569, 0.0, 9.99953, 9.999971 
5.4498565e+2, 1.75324e+2, -1300078.6, -1264171.3, 32273.9, -0.029325396, 0.044668604, -1245193.4, -23349.014, 0.0, 9.99948, 9.999966 
5.449875e+2, 1.8532483e+2, -1173699.6, -1225409.4, -40647.543, 0.0020773136, 0.16734545, -1151380.9, -27540.016, 0.0, 9.999973, 9.999326 
5.4498917e+2, 1.9532725e+2, -929882.75, -1056826.6, -60398.527, 0.11075243, 0.45676297, -905738.06, 120087.02, 0.0, 10.0009775, 9.999323 
5.4499125e+2, 2.0532705e+2, -842610.75, -1030865.6, 56162.715, 0.10621546, 0.5369425, -827128.75, 100702.78, 0.0, 10.001194, 9.998725 
5.449938e+2, 2.1532437e+2, -817582.7, -961237.7, 74891.914, 0.018502474, 0.37835655, -785641.25, 44217.67, 0.0, 10.000666, 9.998783 
5.449962e+2, 2.253235e+2, -670748.25, -803027.5, 21032.768, 0.014673305, 0.3974748, -667484.5, 64384.156, 0.0, 10.000844, 9.999108 
5.449984e+2, 2.3532404e+2, -453786.7, -650023.3, 17919.328, 0.08222865, 0.5216944, -452163.8, 181700.56, 0.0, 10.00167, 9.999091 
5.4500127e+2, 2.4532299e+2, -387379.66, -643396.0, 81415.31, 0.12739009, 0.5440683, -363682.38, 172191.95, 0.0, 10.001774, 9.998416 
5.450047e+2, 2.5532046e+2, -364668.16, -579209.8, 61131.023, 0.14681774, 0.42878014, -348472.25, 89425.305, 0.0, 10.001253, 9.998431 
5.45007e+2, 2.65318e+2, -267709.6, -522418.78, 19182.314, 0.13402404, 0.3629431, -266273.06, 73647.1, 0.0, 10.001427, 9.998064 
5.450085e+2, 2.7531543e+2, -50234.98, -364314.8, 30323.787, 0.10516285, 0.27882916, -47334.07, 194610.25, 0.0, 10.002232, 9.998092 
5.4501086e+2, 2.8531396e+2, 1100.8834, -295137.78, 57378.234, 0.11744917, 0.32783216, 11826.123, 155784.6, 0.00000011177434, 10.00195, 9.998024 
5.4501367e+2, 2.9531345e+2, -70067.63, -279492.8, 22135.492, 0.15485084, 0.45419794, -67753.555, -21789.7, 0.0000045059896, 10.000791, 9.998014 
5.45017e+2, 3.0531055e+2, -39970.043, -254027.05, -24851.035, 0.31873322, 0.3748264, -37122.824, -37122.824, 0.00002638034, 10.000719, 9.997893 
5.450163e+2, 3.1530803e+2, 110327.04, -100621.78, -21039.975, 0.15640853, 0.30776143, 112405.09, 112405.09, 0.00007851539, 10.001363, 9.998636 
5.5498415e+2, 1.2532343e+2, -1353041.5, -1689140.1, 16057.586, 0.19316179, -0.014506828, -1352276.1, 359569.06, 0.000026661139, 10.003138, 9.998634 
5.54977e+2, 1.3532491e+2, -1659180.3, -1795249.8, -78210.25, -0.26186565, 0.24907593, -1623554.1, -9719.3545, 0.0000052899522, 10.000344, 9.998628 
5.549847e+2, 1.4532469e+2, -1664017.9, -1575621.3, 32836.234, 0.4238696, 0.29832587, -1564758.6, -48920.496, 0.00000021782215, 9.998912, 10.000123 
5.5498195e+2, 1.5532352e+2, -1504276.5, -1440474.4, -113.490814, 0.03428415, 0.13603579, -1440474.3, -22626.23, 0.00000000000011946363, 9.999308, 10.000187 
5.5498195e+2, 1.6532351e+2, -1406906.4, -1388868.4, 35259.156, -0.12683229, 0.14090596, -1361493.0, -41644.92, 0.0, 9.999517, 9.99976 
5.549857e+2, 1.753243e+2, -1319436.8, -1299554.4, 37524.914, 0.011367247, 0.22570385, -1270676.1, -48834.066, 0.0, 9.99946, 9.999731 
5.549881e+2, 1.853242e+2, -1210047.6, -1288184.6, -9543.3, 0.05154761, 0.28617436, -1208899.0, -85051.586, 0.0, 9.99992, 9.99892 
5.54989e+2, 1.9532317e+2, -964262.75, -1118773.4, -16698.154, -0.02567829, 0.27292785, -962478.75, 63385.31, 0.0, 10.000931, 9.998926 
5.54991e+2, 2.0532292e+2, -799726.5, -926806.06, 29877.979, -0.049783345, 0.33234397, -793052.3, 134817.14, 0.0, 10.001132, 9.999467 
5.549944e+2, 2.1532327e+2, -780234.1, -867543.1, 63458.406, -0.008963123, 0.40210325, -746864.75, 83001.51, 0.0, 10.000591, 9.999464 
5.549973e+2, 2.2532256e+2, -682808.56, -805671.3, 46266.08, 0.025654253, 0.40354532, -667335.0, 64537.344, 0.0, 10.000754, 9.99913 
5.549999e+2, 2.353208e+2, -465818.75, -652890.44, 55675.47, 0.046576492, 0.29661044, -450502.78, 183384.83, 0.0, 10.001577, 9.999114 
5.5500233e+2, 2.4531934e+2, -416968.88, -692555.8, 56493.926, 0.03870598, 0.29233012, -405837.53, 130065.195, 0.0, 10.00172, 9.998106 
5.550047e+2, 2.55318e+2, -392768.38, -624958.4, 51877.88, 0.006060204, 0.32676354, -381704.56, 56214.234, 0.0, 10.001199, 9.998144 
5.550079e+2, 2.653167e+2, -240056.95, -460165.1, 43572.0, 0.059223168, 0.364584, -231745.4, 108186.086, 0.0, 10.001408, 9.998499 
5.5501163e+2, 2.7531525e+2, -32263.504, -314738.88, 65988.55, 0.18219903, 0.35373488, -17608.367, 224334.52, 0.0, 10.002182, 9.998455 
5.5501366e+2, 2.8531358e+2, -42468.254, -387043.38, 6687.0576, 0.1850987, 0.3982318, -42338.527, 101621.46, 0.00000024371042, 10.001949, 9.997397 
5.550139e+2, 2.953117e+2, -108157.56, -363268.53, -8977.296, 0.07397354, 0.44629502, -107842.04, -61859.918, 0.0000058589785, 10.000799, 9.997441 
5.55017e+2, 3.0530933e+2, -5504.384, -180559.11, -2698.4438, 0.22505239, 0.4211199, -5462.7974, -5462.7974, 0.000029983938, 10.000717, 9.998392 
5.550191e+2, 3.153067e+2, 121521.09, -64914.777, 33050.887, 0.26547632, 0.2958846, 127206.875, 127206.875, 0.00008393316, 10.0013075, 9.998907 
5.649852e+2, 1.2532257e+2, -1777235.8, -1857857.5, 25964.775, 0.15369204, -0.0043862774, -1769597.4, -57743.555, 0.000022362587, 10.000047, 9.998968 
5.64978e+2, 1.3532406e+2, -1487977.0, -1682662.1, -110185.19, -0.237749, 0.22780414, -1438294.6, 175546.9, 0.000004259607, 10.001371, 9.998906 
5.6498426e+2, 1.4532384e+2, -1349112.6, -1460206.3, 63826.457, 0.3789466, 0.27909085, -1320047.0, 195797.63, 0.00000013010742, 10.001232, 9.999799 
5.649811e+2, 1.5532269e+2, -1389565.1, -1418632.5, -5007.8315, -0.019063776, 0.15329978, -1388726.5, 29128.559, 0.0, 10.000247, 9.999885 
5.649812e+2, 1.6532262e+2, -1357556.5, -1407581.3, 49586.863, -0.17086314, 0.18526705, -1327030.8, -7173.8936, 0.0, 10.00004, 9.999386 
5.649856e+2, 1.7532322e+2, -1184484.4, -1274018.3, 23395.367, 0.00207872, 0.28744397, -1178739.6, 43114.152, 0.0, 10.000554, 9.999381 
5.649884e+2, 1.8532239e+2, -1130108.3, -1271051.1, -4480.726, 0.06117348, 0.30361602, -1129966.0, -6100.481, 0.0, 10.000562, 9.998726 
5.649895e+2, 1.9532023e+2, -1102333.0, -1200182.9, -5748.558, -0.015636537, 0.19586648, -1101996.5, -76105.54, 0.0, 10.000054, 9.998781 
5.649916e+2, 2.0531993e+2, -944869.6, -962324.7, 33488.203, -0.05055594, 0.23906595, -918990.4, 8905.286, 0.0, 9.999994, 9.999769 
5.649947e+2, 2.1532115e+2, -798494.25, -840580.4, 20999.9, -0.022883747, 0.36500052, -789808.44, 40074.74, 0.0, 10.000324, 9.999771 
5.649979e+2, 2.2532032e+2, -702747.94, -854452.44, 19436.9, 0.014845774, 0.35837358, -700297.2, 31592.596, 0.0, 10.000776, 9.998789 
5.650014e+2, 2.353176e+2, -529332.9, -718239.2, -10694.463, 0.064120784, 0.18616372, -528729.4, 105184.984, 0.0, 10.001287, 9.998804 
5.650041e+2, 2.4531616e+2, -440355.88, -715213.5, -31978.707, 0.05023181, 0.20628785, -436684.3, 99246.28, 0.0, 10.001634, 9.997977 
5.6500596e+2, 2.5531563e+2, -299591.3, -597177.7, -40830.77, -0.017946396, 0.33819565, -294090.75, 143850.81, 0.0, 10.00192, 9.997984 
5.6500924e+2, 2.6531467e+2, -204693.25, -431093.25, -38004.613, 0.04519474, 0.41463193, -198483.92, 141468.05, 0.0, 10.001609, 9.998594 
5.6501347e+2, 2.7531323e+2, -222046.13, -389704.3, -52987.336, 0.22075725, 0.38964608, -206703.77, 35258.836, 0.0, 10.000825, 9.998581 
5.650153e+2, 2.853111e+2, -173431.19, -463882.75, -84076.89, 0.20271082, 0.3896642, -150849.19, -6865.5156, 0.00000046127252, 10.001103, 9.997278 
5.650148e+2, 2.9530844e+2, 108912.52, -271019.5, -74932.18, 0.011930492, 0.37065506, 123156.984, 169170.52, 0.000007820285, 10.002338, 9.997336 
5.65018e+2, 3.0530673e+2, 267091.5, -66777.5, -61289.793, 0.16231306, 0.42467552, 277987.16, 277987.16, 0.000035959114, 10.00266, 9.998249 
5.650219e+2, 3.1530437e+2, 226798.11, -4741.1284, -95595.02, 0.38105935, 0.33910802, 261165.14, 261165.14, 0.000094359246, 10.001994, 9.998992 
5.7498443e+2, 1.2532431e+2, -1679610.0, -1655759.1, 125112.6, 0.031370346, 0.35808206, -1542004.9, 169839.84, 0.000015098279, 10.00005, 10.000348 
5.7497805e+2, 1.3532227e+2, -1397083.5, -1490685.1, -65950.71, -0.3920446, 0.0957384, -1363015.3, 250842.39, 0.0000026568694, 10.001357, 10.000225 
5.7498354e+2, 1.4532149e+2, -1396474.9, -1554840.3, 11854.182, 0.159798, 0.06153703, -1395592.5, 120270.59, 0.000000050157187, 10.00122, 9.999155 
5.749815e+2, 1.5532263e+2, -1436908.6, -1513295.1, -33993.055, -0.023931094, 0.22972225, -1423972.1, -6118.0537, 0.0, 10.000236, 9.999241 
5.7498163e+2, 1.6532238e+2, -1393823.4, -1481266.5, 59854.6, -0.15206252, 0.29937994, -1363422.4, -43562.85, 0.0, 10.000026, 9.998888 
5.7498497e+2, 1.7532068e+2, -1221383.9, -1348964.8, 49448.844, -0.12970832, 0.22288615, -1204462.4, 17417.428, 0.0, 10.000542, 9.998875 
5.749881e+2, 1.8531948e+2, -1129659.0, -1260150.6, -28986.45, -0.04245027, 0.22252843, -1123510.0, 384.2603, 0.0, 10.000524, 9.998817 
5.7499063e+2, 1.9531858e+2, -1105109.0, -1192316.4, -16884.918, 0.06736146, 0.23196098, -1101954.0, -76048.89, 0.0, 9.999998, 9.998863 
5.749926e+2, 2.0531811e+2, -965191.25, -987549.94, 37907.035, 0.040536642, 0.2625993, -936849.44, -8939.615, 0.0, 9.999918, 9.999633 
5.7499444e+2, 2.1531796e+2, -822123.25, -870642.25, 40207.516, -0.09578544, 0.26560393, -799423.56, 30486.611, 0.0, 10.000238, 9.999608 
5.7499784e+2, 2.2531676e+2, -757332.2, -946606.44, 32078.705, -0.08644027, 0.25822192, -752043.25, -20121.715, 0.0, 10.000688, 9.998198 
5.750028e+2, 2.3531447e+2, -583965.6, -811359.06, 16534.693, 0.055061348, 0.19280718, -582769.6, 51174.363, 0.0, 10.001201, 9.998207 
5.7500625e+2, 2.4531342e+2, -444352.47, -721832.94, -28395.54, 0.08443615, 0.2826423, -441476.47, 94481.86, 0.0, 10.001614, 9.997948 
5.750083e+2, 2.5531334e+2, -308081.6, -605183.94, -24422.213, 0.00913045, 0.46353534, -306087.44, 131879.1, 0.0, 10.001872, 9.997955 
5.7501084e+2, 2.65312e+2, -219010.6, -462595.97, -74052.13, 0.03175081, 0.5112284, -198264.94, 141716.67, 0.0, 10.001606, 9.998384 
5.7501376e+2, 2.753093e+2, -237802.8, -419785.47, -74747.45, 0.14028652, 0.3846285, -211037.58, 30966.68, 0.0, 10.000799, 9.998394 
5.750154e+2, 2.8530654e+2, -147540.61, -400925.1, -45320.594, 0.089499906, 0.30687612, -139678.48, 4351.391, 0.0000006054728, 10.001066, 9.997728 
5.7501614e+2, 2.9530373e+2, 128145.02, -218364.16, -20489.672, -0.10671665, 0.23144762, 129352.41, 175410.61, 0.000009307056, 10.002287, 9.997723 
5.750199e+2, 3.0530283e+2, 214424.75, -176359.48, -88009.24, 0.0714625, 0.3848351, 233330.81, 233330.81, 0.00004067109, 10.002656, 9.997504 
5.750241e+2, 3.1530082e+2, 217290.75, -22772.338, -104870.04, 0.36996692, 0.4083927, 256649.6, 256649.6, 0.00010363106, 10.00198, 9.998883 
5.849852e+2, 1.2532318e+2, -1698443.8, -1662035.8, 237262.36, 0.11314588, 0.39966938, -1442280.1, 269574.63, 0.000008007214, 9.999893, 10.000386 
5.849787e+2, 1.3532062e+2, -1658085.8, -1608857.8, -138665.6, -0.36877733, 0.08216874, -1492638.5, 121234.8, 0.0000012151539, 9.999535, 10.000293 
5.849827e+2, 1.4531954e+2, -1634885.5, -1672699.0, -80712.266, 0.041080575, 0.016525127, -1570895.1, -55013.62, 0.000000012980553, 9.999605, 9.999117 
5.8498204e+2, 1.5532075e+2, -1401156.6, -1502054.9, -94996.75, 0.0034662413, 0.195058, -1344044.1, 73826.61, 0.0, 10.000506, 9.999181 
5.849825e+2, 1.6532034e+2, -1311181.0, -1480225.5, 46863.027, -0.09356944, 0.2693229, -1299058.9, 20819.088, 0.0, 10.000753, 9.998543 
5.8498526e+2, 1.7531833e+2, -1264203.1, -1403814.3, 33898.805, -0.14838137, 0.19394302, -1256407.5, -34505.164, 0.0, 10.000391, 9.998568 
5.849883e+2, 1.8531732e+2, -1110899.1, -1207590.5, -15979.599, -0.068373516, 0.20614493, -1108326.8, 15587.135, 0.0, 10.00047, 9.999205 
5.8499134e+2, 1.9531704e+2, -946800.56, -1077520.6, 4288.13, 0.10190972, 0.24198493, -946660.06, 79255.55, 0.0, 10.00092, 9.999208 
5.849936e+2, 2.0531632e+2, -826960.2, -1022986.06, 68503.734, 0.08043245, 0.27402398, -805393.44, 122529.945, 0.0, 10.001304, 9.998722 
5.849953e+2, 2.1531504e+2, -680076.7, -899731.6, -425.8034, -0.09722366, 0.25514793, -680075.9, 149861.63, 0.0, 10.001633, 9.998736 
5.849987e+2, 2.2531351e+2, -656315.25, -898559.06, -14874.23, -0.09816197, 0.2579376, -655405.4, 76548.016, 0.0, 10.001396, 9.998187 
5.8500373e+2, 2.3531154e+2, -665436.06, -853027.7, -1722.7664, 0.059466403, 0.22733016, -665420.25, -31447.652, 0.0, 10.000653, 9.998189 
5.850073e+2, 2.4531035e+2, -626281.8, -789433.5, 7776.2256, 0.103237376, 0.29400676, -625912.06, -89924.65, 0.0, 10.000271, 9.998133 
5.850097e+2, 2.5530976e+2, -520758.6, -685370.8, 16045.714, 0.04234373, 0.4030936, -519209.13, -81210.3, 0.0, 10.000316, 9.998151 
5.850122e+2, 2.6530838e+2, -347498.44, -525432.3, -9299.58, 0.051638164, 0.44001108, -347013.72, -6999.7744, 0.0, 10.000739, 9.9983635 
5.850147e+2, 2.753061e+2, -127836.32, -367719.16, -9552.381, 0.12797856, 0.35577756, -127456.54, 114577.555, 0.0, 10.001565, 9.99838 
5.850165e+2, 2.853037e+2, -58965.875, -284250.3, 49967.31, 0.07620959, 0.28244635, -48380.656, 95674.33, 0.00000055145284, 10.001357, 9.998389 
5.850175e+2, 2.9530132e+2, -135165.14, -276451.25, 76472.586, -0.08859852, 0.18529414, -101700.086, -55624.285, 0.000008783807, 10.000188, 9.998329 
5.8502144e+2, 3.053004e+2, -101485.44, -378191.94, 67542.836, 0.058878127, 0.33050597, -85878.766, -85878.766, 0.000039664603, 10.000698, 9.997048 
5.8502614e+2, 3.1529844e+2, 318002.97, 37816.902, 44208.387, 0.34390986, 0.39527148, 324812.75, 324812.75, 0.00010367087, 10.002616, 9.99898 
5.949873e+2, 1.2531911e+2, -1781421.6, -1831299.5, 235916.36, 0.2882964, 0.12117295, -1569129.8, 142754.52, 0.0000033726953, 9.999898, 9.999216 
5.949797e+2, 1.3531916e+2, -1744583.6, -1780123.6, -154158.33, -0.23817392, 0.18710862, -1607174.5, 6713.4995, 0.00000044999516, 9.999515, 9.999123 
5.949815e+2, 1.4531802e+2, -1595294.0, -1587632.0, -58882.633, -0.060721662, 0.14216487, -1532455.9, -16556.695, 0.000000014541682, 9.999588, 9.999709 
5.949826e+2, 1.5531711e+2, -1364763.9, -1425344.6, -54655.656, -0.0143047115, 0.048463043, -1332566.3, 85338.83, 0.0, 10.000501, 9.999711 
5.949838e+2, 1.6531666e+2, -1329509.0, -1508878.0, 25057.248, -0.061140116, 0.103293814, -1326074.4, -6163.3315, 0.0, 10.000715, 9.998365 
5.949861e+2, 1.7531627e+2, -1273398.5, -1420667.9, 27651.541, -0.12327215, 0.2099754, -1268377.9, -46457.54, 0.0, 10.000383, 9.998457 
5.9498864e+2, 1.8531595e+2, -1066435.4, -1109447.0, -6345.313, -0.09242717, 0.26017842, -1065518.8, 58405.207, 0.0, 10.000443, 9.999892 
5.9499145e+2, 1.9531563e+2, -912033.1, -993527.3, 28048.037, 0.0068208235, 0.22111028, -903312.9, 122610.34, 0.0, 10.000868, 9.999812 
5.949942e+2, 2.053145e+2, -950726.75, -1264492.6, 74014.836, -0.0027966148, 0.2704847, -934143.7, -6207.0923, 0.0, 10.001236, 9.997099 
5.9499705e+2, 2.153125e+2, -799660.75, -1132774.4, 18413.385, -0.0989879, 0.3420545, -798646.0, 31318.268, 0.0, 10.001566, 9.997171 
5.950003e+2, 2.2531065e+2, -626142.25, -824004.75, -50528.563, -0.092201754, 0.36295986, -613985.56, 117999.16, 0.0, 10.001339, 9.998728 
5.950039e+2, 2.3530881e+2, -639457.9, -782796.06, -21940.975, 0.0023584722, 0.28800678, -636174.56, -2174.1633, 0.0, 10.000577, 9.998711 
5.9500706e+2, 2.4530688e+2, -600076.1, -729030.75, 2208.8833, 0.031401888, 0.23579144, -600038.25, -64019.957, 0.0, 10.000239, 9.998566 
5.950098e+2, 2.5530487e+2, -496919.13, -623865.06, 24199.164, 0.0040023173, 0.1580128, -492462.6, -54423.977, 0.0, 10.000259, 9.998602 
5.9501296e+2, 2.6530388e+2, -341500.8, -504464.4, 14929.024, 0.034031343, 0.20470694, -340144.47, -95.63834, 0.0, 10.000706, 9.998525 
5.950163e+2, 2.7530357e+2, -123460.64, -348086.06, 27911.887, 0.107282795, 0.30050275, -120044.28, 122008.305, 0.0, 10.001519, 9.998537 
5.950182e+2, 2.8530258e+2, -943.54785, -160798.58, -2228.7158, 0.09038532, 0.3137759, -912.4809, 143146.88, 0.0000003359344, 10.001344, 9.999242 
5.950187e+2, 2.953011e+2, -84071.46, -159687.84, 42259.36, -0.012582273, 0.22190575, -65175.926, -19108.54, 0.000006914508, 10.000143, 9.999151 
5.9502226e+2, 3.0529937e+2, -117247.164, -406024.78, 135428.44, 0.05758429, 0.2545729, -63673.887, -63673.887, 0.000035630153, 10.000676, 9.996871 
5.950272e+2, 3.152972e+2, 329081.25, 77451.89, 132363.48, 0.15166648, 0.31300718, 385884.84, 385884.84, 0.0000986736, 10.002548, 9.999286 
6.049862e+2, 1.2531535e+2, -1808042.1, -1859985.1, 168104.45, 0.21212754, -0.0049635675, -1663914.8, 48002.754, 0.0000011578151, 9.999761, 9.999103 
6.049808e+2, 1.3531694e+2, -1692630.0, -1757847.9, -169643.64, -0.087288, 0.22017276, -1552489.6, 61420.094, 0.00000014603442, 9.999886, 9.999095 
6.049815e+2, 1.4531624e+2, -1526680.6, -1552544.1, -7714.51, -0.034676038, 0.21710756, -1524554.4, -8635.876, 0.0000000031309833, 10.00005, 9.999732 
6.0498357e+2, 1.5531476e+2, -1363088.9, -1423619.3, -65744.27, 0.04212849, 0.070542246, -1320978.0, 96951.61, 0.0, 10.0005045, 9.999727 
6.049851e+2, 1.653141e+2, -1316059.5, -1447953.8, 2076.327, 0.010781168, 0.077470735, -1316026.9, 3908.3186, 0.0, 10.00057, 9.998853 
6.049869e+2, 1.7531386e+2, -1256845.3, -1364141.8, 40978.723, -0.07517071, 0.1499883, -1242985.1, -21046.957, 0.0, 10.000287, 9.998894 
6.049894e+2, 1.8531317e+2, -1089351.4, -1212001.9, 18131.123, -0.07152891, 0.1851684, -1086727.1, 37217.934, 0.0, 10.000678, 9.999075 
6.049926e+2, 1.9531201e+2, -851887.3, -1049714.4, -74889.18, 0.0016473113, 0.14351323, -826735.25, 199221.2, 0.0, 10.001649, 9.999047 
6.0499567e+2, 2.0531076e+2, -835658.3, -1164873.4, -15513.016, -0.010729002, 0.19450194, -834928.94, 93042.766, 0.0, 10.001838, 9.997496 
6.0499847e+2, 2.153092e+2, -815458.06, -1098586.5, 68285.58, -0.093102016, 0.2737038, -799849.3, 30143.008, 0.0, 10.001273, 9.99755 
6.0500175e+2, 2.2530772e+2, -663505.25, -849795.3, 55036.81, -0.06798521, 0.31579688, -648460.4, 83548.8, 0.0, 10.001117, 9.998656 
6.050053e+2, 2.3530617e+2, -531617.6, -733298.44, 24622.695, 0.05219348, 0.27588063, -528655.06, 105369.125, 0.0, 10.00134, 9.998675 
6.0500824e+2, 2.4530427e+2, -407713.22, -626000.9, 41663.836, 0.064610936, 0.22437666, -400031.3, 136010.63, 0.0, 10.001538, 9.998639 
6.0501057e+2, 2.55302e+2, -276286.66, -509594.56, 21358.953, -0.015875855, 0.114715286, -274347.38, 163715.83, 0.0, 10.001752, 9.998665 
6.0501367e+2, 2.65301e+2, -214310.77, -440161.1, 5047.204, 0.0022958997, 0.15410705, -214198.03, 125874.85, 0.0, 10.00155, 9.9985695 
6.050175e+2, 2.7530092e+2, -202320.03, -383790.4, -5712.5596, 0.10957168, 0.27293608, -202140.39, 39933.734, 0.0, 10.000951, 9.998575 
6.0501957e+2, 2.8529978e+2, -77849.086, -232335.83, -83394.85, 0.1183824, 0.2851411, -41420.83, 102661.36, 0.00000016006682, 10.000964, 9.998933 
6.0502005e+2, 2.952978e+2, 101459.05, -103457.3, -141063.31, 0.045854934, 0.16963157, 173346.9, 219442.0, 0.0000052467194, 10.001552, 9.998862 
6.0502344e+2, 3.0529526e+2, 46260.836, -266339.25, -10023.375, 0.07006224, 0.11212919, 46581.902, 46581.902, 0.000031327, 10.001551, 9.997412 
6.050282e+2, 3.1529415e+2, 127940.15, 31918.236, -456.11905, 0.07916116, 0.2336144, 127942.32, 127942.32, 0.00009198692, 10.00095, 9.999755 
6.149818e+2, 1.253121e+2, -1732498.1, -1698451.8, 131650.89, -0.25026387, 0.03738124, -1582728.0, 129224.73, 0.00000031033701, 9.999752, 10.000207 
6.149819e+2, 1.3531414e+2, -1615517.0, -1591286.3, -160408.58, 0.0097011775, 0.189133, -1442536.1, 171400.95, 0.000000018009526, 9.999869, 10.000239 
6.149826e+2, 1.4531423e+2, -1571008.6, -1647079.4, -4042.3442, 0.045309857, 0.24285978, -1570794.5, -54855.734, 0.0, 10.00005, 9.999087 
6.1498487e+2, 1.5531372e+2, -1396959.3, -1504046.0, -42623.14, 0.0979765, 0.2567246, -1382065.6, 35878.902, 0.0, 10.000534, 9.999166 
6.149862e+2, 1.6531269e+2, -1239256.0, -1280834.1, -15681.08, 0.039808758, 0.19431031, -1234005.1, 85944.836, 0.0, 10.000544, 10.000012 
6.1498743e+2, 1.7531101e+2, -1186106.8, -1218326.3, 39751.156, -0.064900994, 0.008346141, -1159325.0, 62631.625, 0.0, 10.000286, 9.999898 
6.1499023e+2, 1.8530893e+2, -1261380.6, -1552622.6, 48133.918, -0.07068216, -0.026295258, -1253631.8, -129653.43, 0.0, 10.000612, 9.996765 
6.149946e+2, 1.9530632e+2, -1012633.5, -1371497.1, -32325.102, 0.011929019, 0.017240306, -1009745.0, 16269.438, 0.0, 10.001598, 9.996862 
6.149975e+2, 2.0530517e+2, -674910.2, -814314.2, -44184.957, -0.020431587, 0.059556536, -662085.3, 265942.28, 0.0, 10.001766, 9.999934 
6.149994e+2, 2.1530518e+2, -664037.0, -765782.2, 53541.426, -0.1481437, 0.048762914, -641053.6, 188967.97, 0.0, 10.001192, 9.999874 
6.150028e+2, 2.2530472e+2, -720584.5, -952151.8, 57793.863, -0.087834686, 0.11498753, -706961.9, 25064.916, 0.0, 10.001044, 9.99799 
6.150077e+2, 2.353037e+2, -586978.1, -832234.3, 40736.633, 0.13905884, 0.19606349, -580388.9, 53654.402, 0.0, 10.001267, 9.998033 
6.150106e+2, 2.453025e+2, -437080.63, -678914.2, 41354.098, 0.13072172, 0.26201966, -430204.5, 105853.875, 0.0, 10.001499, 9.998296 
6.1501175e+2, 2.5530103e+2, -307510.88, -566396.1, 33532.793, -0.08814146, 0.26460117, -303237.97, 134835.73, 0.0, 10.001712, 9.998296 
6.1501426e+2, 2.6529962e+2, -222843.6, -451431.78, -23897.623, -0.10802263, 0.28649515, -220371.95, 119714.65, 0.0, 10.001523, 9.998504 
6.15018e+2, 2.7529815e+2, -217965.31, -401746.25, -18270.46, 0.050320636, 0.26993278, -216166.58, 25932.176, 0.0, 10.000892, 9.998477 
6.150204e+2, 2.8529534e+2, -184189.81, -449108.97, -69204.77, 0.08520967, 0.19785963, -167200.94, -23077.828, 0.00000012615395, 10.000941, 9.997456 
6.1502135e+2, 2.952914e+2, -4063.0986, -308632.72, -113032.51, 0.0023004499, 0.02841611, 33301.8, 79459.93, 0.000004351736, 10.001493, 9.9974785 
6.150247e+2, 3.0528823e+2, 124917.836, -100215.36, -35576.06, 0.021761708, -0.08387306, 130405.87, 130405.87, 0.000027327762, 10.001536, 9.998568 
6.150285e+2, 3.1528947e+2, 163726.28, 120702.555, -7109.3975, -0.022986071, 0.16036412, 164870.63, 164870.63, 0.00008366508, 10.000892, 10.000397 
6.2497985e+2, 1.2530981e+2, -1954360.8, -1766511.6, 219859.11, -0.32011694, 0.070510544, -1621354.9, 90621.234, 0.000000031381585, 9.998053, 10.000572 
6.249823e+2, 1.3531178e+2, -1613701.5, -1543603.8, -121814.33, 0.08606771, 0.17720333, -1451896.4, 162062.67, 0.000000000001578113, 9.999669, 10.000676 
6.2498236e+2, 1.453119e+2, -1543346.0, -1642264.0, 28485.672, 0.006246735, 0.21609057, -1535729.4, -19769.813, 0.0, 10.000282, 9.999004 
6.2498516e+2, 1.5531135e+2, -1435785.9, -1529147.1, 17711.494, 0.08714122, 0.2299983, -1432538.9, -14572.548, 0.0, 10.000319, 9.9990835 
6.24987e+2, 1.6531025e+2, -1196313.4, -1279500.8, 29595.277, 0.053567916, 0.17533256, -1186858.9, 133113.92, 0.0, 10.000921, 9.999843 
6.2498873e+2, 1.7530857e+2, -966498.44, -1122844.6, -32622.45, -0.037110828, 0.003487143, -959964.7, 262015.98, 0.0, 10.00186, 9.999787 
6.249918e+2, 1.8530662e+2, -1063738.5, -1458462.5, 32536.78, -0.04287511, -0.0105627645, -1061074.5, 62926.813, 0.0, 10.001958, 9.996772 
6.2499595e+2, 1.9530426e+2, -1057465.4, -1390923.1, 115417.17, 0.01683216, 0.05674279, -1021414.5, 4620.9395, 0.0, 10.001271, 9.996892 
6.249988e+2, 2.0530304e+2, -786471.44, -849427.1, 92440.4, -0.025120316, 0.08174244, -720296.4, 207752.45, 0.0, 10.000916, 10.000105 
6.2500036e+2, 2.1530265e+2, -702103.25, -760804.2, 6880.655, -0.14668825, 0.0131517, -701307.5, 128738.1, 0.0, 10.000836, 10.000077 
6.250037e+2, 2.2530223e+2, -714493.6, -937372.1, -840.12256, -0.09907316, 0.06841554, -714490.5, 17558.908, 0.0, 10.001034, 9.9980955 
6.2500864e+2, 2.3530163e+2, -553498.0, -808533.9, 26038.781, 0.10176561, 0.18215466, -550866.6, 83194.52, 0.0, 10.001459, 9.998106 
6.2501186e+2, 2.453005e+2, -473941.56, -730648.9, 52116.926, 0.114800185, 0.26500022, -463764.25, 72311.664, 0.0, 10.001378, 9.998006 
6.250135e+2, 2.552988e+2, -447679.25, -664103.44, 35393.73, -0.039033066, 0.27192, -442038.03, -3943.6274, 0.0, 10.000875, 9.998031 
6.25016e+2, 2.6529706e+2, -306518.84, -512926.44, -4872.9404, -0.061811976, 0.28378302, -306403.88, 33706.605, 0.0, 10.001037, 9.998315 
6.250192e+2, 2.7529514e+2, -103978.54, -367866.66, -23450.627, 0.034165792, 0.24222286, -101910.78, 140215.31, 0.0, 10.001764, 9.998288 
6.250217e+2, 2.8529194e+2, -24408.781, -422031.38, -8078.1978, 0.05956632, 0.16217631, -24244.73, 119910.13, 0.000000116905284, 10.002257, 9.997008 
6.2502354e+2, 2.9528752e+2, 122281.39, -299429.75, 3776.2158, 0.02172593, -0.008565331, 122315.2, 168511.3, 0.000004287332, 10.002572, 9.99703 
6.250266e+2, 3.052843e+2, 190767.8, -26231.473, 45190.387, 0.059257198, -0.12134626, 199802.6, 199802.6, 0.000025839543, 10.00181, 9.998934 
6.250291e+2, 3.152861e+2, 31843.334, 51674.254, -15511.092, 0.0074639865, 0.13567162, 60168.313, 60168.313, 0.00007841617, 10.000003, 10.000338 
6.349802e+2, 1.253083e+2, -1980091.3, -1821174.6, 201097.31, -0.13010454, 0.078691594, -1684406.8, 27582.578, 0.0000000061075784, 9.998065, 10.000189 
6.34982e+2, 1.3530983e+2, -1637959.4, -1593419.9, -62375.563, 0.07279371, 0.17693776, -1549457.9, 64518.227, 0.0, 9.999666, 10.000337 
6.3498044e+2, 1.4530928e+2, -1511924.4, -1569956.3, 18990.383, -0.22929956, 0.14068715, -1506262.4, 9718.456, 0.0, 10.000254, 9.999515 
6.3498425e+2, 1.5530752e+2, -1402849.6, -1467776.1, 30816.281, -0.055735584, -0.013912014, -1390552.4, 27443.201, 0.0, 10.000341, 9.999498 
6.3498735e+2, 1.6530661e+2, -1303345.0, -1494046.1, 56197.71, -0.021257248, 0.005807317, -1288016.3, 31988.86, 0.0, 10.000892, 9.998382 
6.3499045e+2, 1.7530638e+2, -1061448.0, -1321895.5, 6932.827, -0.06273054, 0.1261047, -1061263.5, 160747.48, 0.0, 10.001861, 9.998425 
6.349937e+2, 1.8530615e+2, -903741.6, -1116109.5, -90.46824, -0.0663209, 0.22691381, -903741.6, 220273.84, 0.0, 10.001919, 9.999136 
6.349968e+2, 1.9530578e+2, -908385.75, -1070473.6, 96150.77, -0.052929144, 0.25670063, -863679.56, 162340.31, 0.0, 10.001223, 9.999114 
6.349992e+2, 2.0530432e+2, -945899.06, -1158001.9, 81635.77, -0.08707944, 0.25643536, -918117.3, 9918.495, 0.0, 10.000822, 9.998031 
6.3500124e+2, 2.1530166e+2, -854967.44, -1054809.4, 11925.061, -0.16050111, 0.16848052, -854258.3, -24194.572, 0.0, 10.000737, 9.998105 
6.3500416e+2, 2.2530031e+2, -667237.2, -818906.56, 8431.221, -0.17119385, 0.18082827, -666769.94, 65306.89, 0.0, 10.000944, 9.998954 
6.350079e+2, 2.3529994e+2, -506712.47, -693751.4, 49307.613, -0.1311915, 0.22979376, -494509.97, 139568.28, 0.0, 10.00138, 9.998935 
6.3501173e+2, 2.4529827e+2, -497821.0, -769465.9, 27396.453, -0.052277442, 0.23009378, -495085.5, 41008.938, 0.0, 10.001332, 9.997763 
6.3501555e+2, 2.5529528e+2, -472202.84, -703460.4, 24485.479, 0.06199973, 0.13652688, -469638.75, -31513.637, 0.0, 10.000822, 9.997788 
6.350185e+2, 2.6529327e+2, -336368.84, -561813.25, 15225.039, 0.07637286, 0.14976881, -335345.28, 4799.1133, 0.0, 10.000988, 9.997999 
6.350207e+2, 2.7529195e+2, -136631.02, -416222.94, 12238.539, -0.0065906676, 0.19815269, -136096.31, 106059.24, 0.0, 10.001687, 9.9979925 
6.3502324e+2, 2.8528956e+2, 13812.862, -338139.1, -5893.3335, -0.025880618, 0.18028642, 13911.518, 158088.89, 0.0000001448745, 10.002238, 9.997597 
6.350262e+2, 2.9528612e+2, 149790.61, -223920.89, 21291.674, 0.015610376, 0.057883542, 150999.77, 197208.52, 0.000005079309, 10.002507, 9.997576 
6.35029e+2, 3.0528358e+2, 159610.78, -97223.16, -26567.893, 0.09215154, 0.0073605706, 162330.27, 162330.27, 0.000027818513, 10.001822, 9.998445 
6.3502955e+2, 3.1528425e+2, -41155.23, -78897.195, -60115.473, 0.0012865062, 0.19762652, 2981.597, 2981.597, 0.00008105603, 9.999913, 9.999483 
6.44979e+2, 1.2530656e+2, -1863251.3, -1749001.0, 134302.31, -0.082446046, 0.13961664, -1660179.5, 51828.73, 0.0000000021671396, 9.9987955, 10.00033 
6.4498216e+2, 1.3530722e+2, -1701666.8, -1607119.6, -53013.336, 0.15666018, 0.13679162, -1583363.5, 30637.258, 0.0, 9.999173, 10.000465 
6.4498025e+2, 1.4530672e+2, -1557522.6, -1580021.1, 32979.145, -0.2523446, 0.09176, -1533926.9, -17923.162, 0.0, 9.999889, 9.999624 
6.449845e+2, 1.553052e+2, -1322214.4, -1415932.0, -2297.7136, -0.08274445, -0.046760105, -1322158.1, 95857.48, 0.0, 10.000838, 9.999615 
6.4498824e+2, 1.6530457e+2, -1315149.3, -1531397.6, 59819.54, -0.024684358, 0.006298849, -1299704.8, 20319.916, 0.0, 10.000941, 9.998104 
6.449919e+2, 1.7530458e+2, -1299040.0, -1463462.0, 87702.445, -0.028913101, 0.18106945, -1261041.4, -39009.2, 0.0, 10.000341, 9.998189 
6.4499485e+2, 1.8530482e+2, -1121577.0, -1126437.8, 54974.19, -0.037270367, 0.29660076, -1068979.5, 55052.14, 0.0, 10.000012, 9.999986 
6.449972e+2, 1.9530508e+2, -1050437.4, -1047831.6, 22961.725, -0.05867103, 0.30283803, -1026135.9, -109.90412, 0.0, 9.999862, 9.999923 
6.4499974e+2, 2.053037e+2, -1069857.6, -1290928.8, 56754.125, -0.08119707, 0.3044203, -1056138.9, -128098.164, 0.0, 10.000284, 9.9973755 
6.450027e+2, 2.1530068e+2, -839369.7, -1123729.3, 76242.61, -0.0975196, 0.24624878, -820217.44, 9858.055, 0.0, 10.001166, 9.997429 
6.450057e+2, 2.252987e+2, -609530.8, -794132.2, 85868.484, -0.1308373, 0.23186184, -575764.8, 156330.05, 0.0, 10.001347, 9.998933 
6.450085e+2, 2.3529753e+2, -577837.8, -727050.7, 42412.78, -0.18235026, 0.20119728, -566624.9, 67477.09, 0.0, 10.000888, 9.9989395 
6.450124e+2, 2.452957e+2, -505424.56, -749088.75, 31681.705, -0.10667722, 0.175029, -501372.63, 34745.25, 0.0, 10.001185, 9.9979725 
6.4501727e+2, 2.5529313e+2, -263342.47, -579748.3, 51847.938, 0.08599441, 0.10432221, -255063.03, 183079.77, 0.0, 10.002164, 9.997991 
6.4502054e+2, 2.65291e+2, -157737.34, -520545.97, 69491.086, 0.113948494, 0.11422145, -144882.72, 195280.7, 0.0, 10.0023985, 9.99761 
6.450226e+2, 2.7528906e+2, -116194.49, -447805.16, 45090.06, 0.0048589897, 0.1355521, -110172.82, 132009.38, 0.000000000000000000046744374, 10.001998, 9.99763 
6.4502525e+2, 2.852871e+2, -43807.3, -335517.2, 24442.979, -0.020009657, 0.16811498, -41773.355, 102427.48, 0.00000034821963, 10.001709, 9.997871 
6.450283e+2, 2.9528505e+2, 16064.698, -262485.03, 12235.678, 0.0313923, 0.15271847, 16601.135, 62821.97, 0.0000068469953, 10.001457, 9.997825 
6.450311e+2, 3.0528274e+2, 122340.33, -156769.83, -39920.316, 0.12531139, 0.13908902, 127937.76, 127937.76, 0.00003363737, 10.001761, 9.998055 
6.450313e+2, 3.1528148e+2, 331640.4, 55615.555, -95278.19, 0.055659927, 0.17470361, 361334.16, 361334.16, 0.000093360155, 10.00267, 9.999077 
6.549759e+2, 1.2530458e+2, -1807686.6, -1636173.6, 48566.285, -0.31418708, 0.24926427, -1623376.3, 88656.67, 0.0000000012982254, 9.998804, 10.001099 
6.549826e+2, 1.35304e+2, -1653492.3, -1512390.3, -33549.09, 0.2596334, 0.056305446, -1504819.6, 109213.234, 0.0, 9.999196, 10.001103 
6.5498155e+2, 1.4530416e+2, -1575938.9, -1621678.8, 58666.734, -0.13261177, 0.059784308, -1535842.0, -19813.176, 0.0, 9.9999, 9.999338 
6.549857e+2, 1.5530439e+2, -1341221.8, -1455751.9, 37850.53, -0.07038686, 0.12706093, -1329843.1, 88183.63, 0.0, 10.000835, 9.999349 
6.5498924e+2, 1.6530408e+2, -1253112.8, -1396618.1, 28990.826, -0.0357623, 0.18011568, -1247477.4, 72554.35, 0.0, 10.000915, 9.999039 
6.5499264e+2, 1.7530322e+2, -1236987.5, -1336930.3, 73120.945, -0.0080225775, 0.17139594, -1198393.5, 23649.996, 0.0, 10.000346, 9.999054 
6.5499526e+2, 1.8530264e+2, -1172176.0, -1221230.8, 40922.047, -0.022547401, 0.19560182, -1148993.8, -24943.693, 0.0, 9.9999695, 9.999355 
6.5499705e+2, 1.9530214e+2, -1097388.0, -1132360.9, 26190.596, -0.07385419, 0.18792698, -1083382.8, -57329.113, 0.0, 9.999809, 9.999366 
6.5500027e+2, 2.0530118e+2, -1033060.0, -1196093.5, 83566.91, -0.07550614, 0.22476996, -997835.94, -69772.4, 0.0, 10.000204, 9.998067 
6.550047e+2, 2.1529964e+2, -804976.25, -1032394.0, 115515.92, -0.03508514, 0.24405034, -756593.6, 73487.37, 0.0, 10.001082, 9.9980955 
6.5500796e+2, 2.252974e+2, -690664.3, -938755.0, 60773.88, -0.04976214, 0.21981579, -676576.7, 55526.83, 0.0, 10.00125, 9.997983 
6.550101e+2, 2.3529442e+2, -655647.44, -864011.5, 33466.875, -0.12191824, 0.10116574, -650404.06, -16271.813, 0.0, 10.000789, 9.998044 
6.550137e+2, 2.4529281e+2, -468626.84, -654449.94, 60062.313, -0.11474185, 0.10648505, -450903.7, 85242.45, 0.0, 10.001109, 9.998657 
6.550183e+2, 2.5529233e+2, -225883.3, -487046.63, 94645.72, -0.04162536, 0.17061935, -195190.72, 242957.44, 0.0, 10.002107, 9.998651 
6.550219e+2, 2.652902e+2, -187771.84, -584513.0, 45370.324, -0.013601819, 0.17139147, -182649.55, 157518.42, 0.0, 10.002396, 9.997176 
6.550245e+2, 2.752865e+2, -151493.25, -512774.13, 37985.855, -0.019314142, 0.067287676, -147542.55, 94662.18, 0.0000000002377775, 10.001955, 9.997209 
6.550272e+2, 2.8528473e+2, -49910.703, -336705.06, 7609.104, -0.013598636, 0.13711374, -49708.965, 94515.14, 0.0000008000927, 10.001667, 9.997878 
6.5502954e+2, 2.9528436e+2, 6265.49, -262928.63, 12976.738, -0.015399593, 0.28871384, 6889.598, 53120.246, 0.000010270006, 10.001388, 9.997848 
6.550326e+2, 3.0528206e+2, 103648.1, -207082.44, -10804.151, 0.083009094, 0.2843086, 104023.31, 104023.31, 0.00004390313, 10.001797, 9.9977045 
6.5503395e+2, 3.15278e+2, 326290.47, 49383.805, -25675.7, 0.00982858, 0.08269642, 328651.1, 328651.1, 0.000113456364, 10.002647, 9.999051 
6.64975e+2, 1.2530217e+2, -1907516.8, -1683991.1, 84888.555, -0.24314088, 0.24901074, -1655407.9, 56649.203, 0.00000000035571668, 9.998109, 10.001107 
6.649818e+2, 1.353016e+2, -1587689.4, -1499593.8, -10502.01, 0.24201751, 0.07177793, -1498359.0, 115697.57, 0.0, 9.99971, 10.000954 
6.6498137e+2, 1.4530188e+2, -1527719.1, -1583792.0, 57446.69, -0.14443126, 0.0884428, -1491832.4, 24218.848, 0.0, 10.000188, 9.999449 
6.6498667e+2, 1.5530221e+2, -1476974.6, -1507625.0, 48047.082, 0.002501511, 0.1541523, -1441867.9, -23819.633, 0.0, 9.999856, 9.99946 
6.649904e+2, 1.6530193e+2, -1360912.3, -1394103.0, 41174.51, 0.04729622, 0.17917769, -1333114.5, -13063.123, 0.0, 9.99994, 9.999528 
6.6499317e+2, 1.7530103e+2, -1205497.6, -1266652.0, 37605.61, 0.017440297, 0.115143225, -1187606.8, 34454.176, 0.0, 10.000326, 9.999542 
6.649957e+2, 1.8530014e+2, -1087872.5, -1220672.8, 24521.814, -0.0062447004, 0.10449339, -1083489.1, 40580.816, 0.0, 10.000732, 9.998988 
6.64998e+2, 1.9529912e+2, -923128.0, -1089354.1, 11853.022, -0.027440554, 0.08389366, -922287.06, 103793.06, 0.0, 10.001179, 9.999003 
6.650014e+2, 2.0529823e+2, -826982.6, -1037402.06, 93368.52, -0.03291587, 0.117606886, -791526.9, 136561.73, 0.0, 10.001362, 9.998601 
6.650059e+2, 2.1529728e+2, -741950.44, -945847.6, 96845.68, -0.023842158, 0.1445909, -703283.94, 126813.48, 0.0, 10.001276, 9.998596 
6.6500956e+2, 2.252954e+2, -703340.8, -978559.0, 54366.93, -0.0137743205, 0.14400522, -692990.4, 39126.508, 0.0, 10.0013075, 9.997683 
6.650123e+2, 2.3529252e+2, -588157.25, -869018.0, 62461.11, -0.007514565, 0.07014246, -574892.9, 59254.21, 0.0, 10.001407, 9.997718 
6.650157e+2, 2.45291e+2, -440322.4, -659197.6, 115552.58, -0.028811209, 0.10825388, -390609.2, 145552.67, 0.0, 10.001366, 9.998507 
6.650195e+2, 2.552905e+2, -371084.3, -577319.5, 67531.95, -0.0762839, 0.18966126, -350938.75, 87225.76, 0.0, 10.001174, 9.998489 
6.6502327e+2, 2.6528817e+2, -340260.7, -637653.0, 9620.679, -0.057995252, 0.16711941, -339949.78, 236.20744, 0.0, 10.001264, 9.9973545 
6.6502666e+2, 2.7528405e+2, -183212.31, -507850.25, 33070.36, 0.020622857, 0.0011211425, -179877.73, 62347.617, 0.0000000023427176, 10.001653, 9.997385 
6.6502935e+2, 2.8528228e+2, -15724.464, -337542.88, 38900.72, 0.026360855, 0.07018615, -11088.998, 133155.98, 0.0000014418595, 10.001978, 9.997719 
6.650311e+2, 2.9528224e+2, 122069.76, -220918.27, 12836.869, -0.03803418, 0.2702585, 122549.53, 168799.66, 0.000014823799, 10.002246, 9.997716 
6.6503465e+2, 3.052798e+2, 190520.64, -208164.39, 17015.582, 0.075233705, 0.27779305, 191245.53, 191245.53, 0.000057815294, 10.00259, 9.9973135 
6.650374e+2, 3.1527555e+2, 354344.9, 56884.344, -12671.616, 0.08663993, 0.100397475, 354883.75, 354883.75, 0.0001407211, 10.002872, 9.998999 
6.749758e+2, 1.2529936e+2, -1964041.5, -1798631.5, 57227.945, -0.0083255125, 0.13396938, -1780762.4, -68682.164, 0.0000000023126079, 9.998111, 10.000313 
6.749796e+2, 1.3530013e+2, -1655821.3, -1635284.0, 50816.477, 0.03190097, 0.18366632, -1593709.0, 20362.197, 0.0, 9.999698, 10.000024 
6.749795e+2, 1.4530009e+2, -1494463.4, -1515826.6, 35994.566, -0.37471834, 0.19135362, -1467599.0, 48470.273, 0.0, 10.000184, 9.999922 
6.749872e+2, 1.5529883e+2, -1438450.0, -1435582.5, 45658.496, 0.045152128, 0.04879748, -1391335.3, 26743.367, 0.0, 9.999883, 9.999946 
6.7499155e+2, 1.6529818e+2, -1353476.6, -1378569.0, 47112.17, 0.14782034, 0.0064512803, -1317268.6, 2814.5962, 0.0, 9.999938, 9.999637 
6.7499334e+2, 1.75298e+2, -1201206.5, -1252629.4, 59554.453, -0.016129792, 0.007054017, -1162050.3, 60033.957, 0.0, 10.000305, 9.999649 
6.74996e+2, 1.8529737e+2, -1102490.0, -1245540.0, 33019.914, -0.061327033, 0.022237925, -1095236.0, 28855.008, 0.0, 10.000703, 9.998834 
6.749996e+2, 1.9529611e+2, -941131.25, -1114148.3, 35510.906, -0.0019269224, -0.0047995076, -934126.4, 91978.18, 0.0, 10.001124, 9.99886 
6.75003e+2, 2.0529494e+2, -816117.9, -997624.94, 83106.11, -0.0284037, -0.008982907, -783815.2, 144299.88, 0.0, 10.001283, 9.998915 
6.750063e+2, 2.1529365e+2, -729533.2, -901609.7, 101112.27, -0.13134058, -0.049421027, -682807.5, 147316.92, 0.0, 10.001194, 9.9989395 
6.7501026e+2, 2.2529271e+2, -692776.25, -932371.06, 52321.875, -0.085831925, 0.00995443, -681848.75, 50285.35, 0.0, 10.001207, 9.998047 
6.7501485e+2, 2.3529193e+2, -579317.1, -826829.6, 75806.45, 0.085987024, 0.10828741, -557945.06, 76200.58, 0.0, 10.001311, 9.998049 
6.750183e+2, 2.4529037e+2, -523728.3, -817629.2, 102526.836, 0.0769598, 0.18169102, -491496.75, 44667.047, 0.0, 10.001305, 9.997446 
6.7502075e+2, 2.5528795e+2, -452708.78, -731272.94, 67540.17, -0.09189004, 0.17532083, -437196.88, 993.0102, 0.0, 10.001106, 9.997464 
6.7502433e+2, 2.652851e+2, -291885.66, -527493.5, 16874.23, -0.09021844, 0.11137118, -290683.25, 49532.836, 0.0, 10.001222, 9.998132 
6.7502886e+2, 2.752817e+2, -136027.03, -399880.78, 56123.496, 0.052162703, -0.06030019, -124585.33, 117658.39, 0.0000000015372758, 10.001613, 9.998145 
6.7503166e+2, 2.8527975e+2, -33972.742, -382351.4, 41228.574, 0.036461145, -0.032169975, -29160.066, 115103.37, 0.0000017821444, 10.001998, 9.997405 
6.7503273e+2, 2.9527885e+2, 92456.07, -270931.22, 30709.324, -0.121617705, 0.113982305, 95032.99, 141310.78, 0.000019076204, 10.002193, 9.9974 
6.750368e+2, 3.052761e+2, 151022.67, -279718.47, 22236.0, 0.011888291, 0.13081324, 152167.52, 152167.52, 0.000073988194, 10.002547, 9.996837 
6.7504096e+2, 3.152738e+2, 334209.8, 33746.523, 31100.07, 0.11813175, 0.19564101, 337395.1, 337395.1, 0.00017623325, 10.002802, 9.998864 
6.8497604e+2, 1.252965e+2, -1712580.6, -1685700.1, -39836.355, 0.11880469, 0.12931214, -1657097.8, 55008.906, 0.0000000036242784, 9.999865, 10.000247 
6.8497926e+2, 1.3529687e+2, -1641926.9, -1646472.9, 38343.875, 0.02309382, 0.1596115, -1605788.8, 8312.668, 0.0, 9.999882, 9.999852 
6.8497956e+2, 1.4529659e+2, -1537006.0, -1510679.9, 24203.813, -0.36000836, 0.13987444, -1496291.3, 19810.148, 0.0, 9.999773, 10.0001545 
6.849872e+2, 1.5529549e+2, -1457514.8, -1418093.3, 2234.9473, 0.0730661, -0.011567613, -1417966.9, 142.05168, 0.0, 9.999632, 10.000187 
6.849918e+2, 1.6529498e+2, -1342087.0, -1367645.3, 35927.832, 0.17699714, -0.053757124, -1316733.3, 3378.6838, 0.0, 9.999995, 9.999684 
6.8499404e+2, 1.7529494e+2, -1128078.4, -1214736.9, 26361.805, 0.00246911, -0.044661783, -1120689.0, 101422.54, 0.0, 10.000794, 9.999675 
6.8499696e+2, 1.8529464e+2, -1057265.3, -1239150.3, -3261.4258, -0.054073714, 0.013315056, -1057206.8, 66908.62, 0.0, 10.001083, 9.9986925 
6.850004e+2, 1.9529393e+2, -984917.75, -1148367.5, -12884.728, -0.012993956, 0.051269386, -983908.3, 42216.926, 0.0, 10.000884, 9.998736 
6.850042e+2, 2.0529246e+2, -897441.8, -1040240.5, 27699.943, -0.0076178, 0.02656343, -892256.8, 35881.438, 0.0, 10.000745, 9.998874 
6.850081e+2, 2.1529022e+2, -809602.94, -944246.56, 3563.2815, -0.035739236, -0.10545183, -809508.75, 20646.957, 0.0, 10.000661, 9.998902 
6.850122e+2, 2.252892e+2, -704595.7, -917990.7, -33076.254, -0.002084135, -0.062712096, -699586.44, 32579.057, 0.0, 10.001026, 9.998241 
6.850163e+2, 2.3528911e+2, -501684.78, -770636.4, -38870.875, 0.085150294, 0.08564566, -496179.56, 137990.55, 0.0, 10.001748, 9.998233 
6.850196e+2, 2.4528763e+2, -463995.38, -804621.06, 4158.837, 0.056921694, 0.16416237, -463944.63, 72243.48, 0.0, 10.001781, 9.997304 
6.8502206e+2, 2.5528476e+2, -440386.97, -738092.56, 26961.354, -0.0761866, 0.12734517, -437964.97, 254.48042, 0.0, 10.001253, 9.997341 
6.8502575e+2, 2.6528212e+2, -286167.03, -508809.28, 26592.629, -0.064526096, 0.0850987, -283034.84, 57209.332, 0.0, 10.001194, 9.99827 
6.850307e+2, 2.7527955e+2, -141047.8, -388605.6, 382.10327, 0.08250037, -0.021685645, -141047.2, 101217.45, 0.00000000039754933, 10.001514, 9.998271 
6.8503374e+2, 2.8527755e+2, -110145.63, -439428.56, -30917.795, 0.07140594, 0.007399301, -107267.77, 37016.418, 0.000001935021, 10.001563, 9.997225 
6.850349e+2, 2.9527587e+2, -24952.16, -348884.1, -45850.05, -0.08688837, 0.098792695, -18587.494, 27717.348, 0.000022833043, 10.001469, 9.997221 
6.8503916e+2, 3.0527228e+2, 82946.43, -297278.53, 12360.047, 0.033096828, 0.0316929, 83347.8, 83347.8, 0.00009092674, 10.002006, 9.996974 
6.8504435e+2, 3.152707e+2, 336414.5, 32136.848, 52994.14, 0.18693103, 0.15252613, 345380.0, 345380.0, 0.00021661, 10.0028, 9.998859 
6.949749e+2, 1.2529372e+2, -1656990.1, -1576360.8, -107102.06, -0.021256242, 0.24568653, -1502237.1, 209897.78, 0.00000000017840025, 9.999904, 10.00097 
6.949805e+2, 1.3529189e+2, -1603159.9, -1563807.5, 43320.547, 0.14564247, -0.002359168, -1535904.0, 78242.28, 0.0, 9.999878, 10.000417 
6.949815e+2, 1.4529134e+2, -1536606.8, -1508855.9, 13017.949, -0.16629022, -0.07840274, -1503705.1, 12443.121, 0.0, 9.999767, 10.000173 
6.9498646e+2, 1.5529217e+2, -1453841.3, -1416744.6, 8351.065, 0.017172191, -0.036759026, -1414951.4, 3188.0403, 0.0, 9.999653, 10.000191 
6.9499075e+2, 1.6529238e+2, -1346953.5, -1376123.9, 58636.402, 0.056159128, -0.003974208, -1301115.5, 19021.652, 0.0, 9.9999895, 9.999627 
6.94995e+2, 1.7529196e+2, -1135129.9, -1225413.1, 63849.863, 0.0005985474, -0.027257353, -1102075.9, 120065.78, 0.0, 10.000775, 9.999612 
6.9499815e+2, 1.8529211e+2, -1070858.1, -1257042.5, -16479.326, -0.057490047, 0.08202442, -1069410.8, 54731.52, 0.0, 10.00104, 9.9985895 
6.9500035e+2, 1.9529258e+2, -1001883.0, -1169791.3, -12141.147, -0.12780191, 0.24848251, -1001009.7, 25132.145, 0.0, 10.000829, 9.998615 
6.9500476e+2, 2.0529082e+2, -937398.94, -1105765.1, 16977.443, -0.03933192, 0.22127731, -935704.06, -7545.539, 0.0, 10.000668, 9.998463 
6.9501126e+2, 2.1528699e+2, -850430.4, -1009607.1, 8198.657, 0.19158877, -0.027579606, -850009.2, -19817.547, 0.0, 10.000579, 9.998493 
6.950151e+2, 2.2528486e+2, -716353.94, -921254.5, -12376.956, 0.17312425, -0.07496741, -715609.0, 16602.176, 0.0, 10.000938, 9.998259 
6.950166e+2, 2.3528408e+2, -512166.16, -770332.94, -5522.3765, -0.073795915, 0.0024933852, -512048.1, 122172.32, 0.0, 10.001658, 9.998275 
6.950194e+2, 2.4528283e+2, -416432.28, -691273.9, -22266.168, -0.15626155, 0.059291027, -414640.1, 121593.89, 0.0, 10.0017185, 9.998115 
6.9502324e+2, 2.5528097e+2, -391223.78, -626514.44, 16021.943, -0.09708562, 0.04262131, -390137.8, 48115.113, 0.0, 10.00121, 9.99813 
6.950274e+2, 2.652793e+2, -326681.34, -585670.3, 33028.492, -0.036960218, 0.08441371, -322535.66, 17734.377, 0.0, 10.001166, 9.997755 
6.9503194e+2, 2.752776e+2, -187003.55, -470538.0, 20780.87, 0.0347631, 0.122767985, -185488.56, 56798.793, 0.0000000054780975, 10.001458, 9.997735 
6.950352e+2, 2.852757e+2, -119223.39, -451584.53, -41062.055, 0.04462244, 0.19015205, -114225.48, 30081.719, 0.000002364329, 10.0015335, 9.997153 
6.950372e+2, 2.952734e+2, -31224.584, -355035.47, -34525.266, -0.028567774, 0.22329836, -27584.365, 18746.506, 0.000027093956, 10.001442, 9.9971895 
6.950418e+2, 3.052684e+2, 135335.06, -191423.84, 40667.08, 0.066280715, -0.019894032, 140320.27, 140320.27, 0.00010798756, 10.002017, 9.997698 
6.950474e+2, 3.1526625e+2, 334748.94, 45466.945, 119991.234, 0.16111878, -0.023412934, 378041.22, 378041.22, 0.00025660693, 10.002733, 9.998984 
7.049729e+2, 1.25289e+2, -1823626.6, -1627007.8, -115001.95, -0.14091298, 0.17121002, -1574022.1, 138158.13, 0.0, 9.998615, 10.001259 
7.0498127e+2, 1.352883e+2, -1645701.4, -1558924.1, 19167.443, 0.2592586, 0.013858543, -1554879.0, 59301.617, 0.0, 9.99946, 10.00066 
7.049836e+2, 1.4528787e+2, -1540566.4, -1537122.9, -26302.787, 0.06872348, -0.048836894, -1512485.5, 3697.0947, 0.0, 9.999857, 9.999934 
7.049864e+2, 1.5528873e+2, -1397063.0, -1409929.6, -66553.43, 0.024111427, 0.017266039, -1336632.6, 81543.53, 0.0, 10.000148, 9.9999895 
7.0499015e+2, 1.6528913e+2, -1300243.3, -1341372.3, 7366.02, -0.008202212, 0.07427031, -1298963.9, 21209.068, 0.0, 10.000265, 9.999729 
7.049956e+2, 1.7528898e+2, -1221476.1, -1253236.4, 8496.72, 0.013441886, 0.066218674, -1219345.9, 2828.3442, 0.0, 10.000133, 9.999726 
7.0499927e+2, 1.8528874e+2, -1167879.4, -1301917.3, -51697.445, -0.009546397, 0.13076949, -1150257.0, -26079.506, 0.0, 10.000362, 9.99861 
7.050016e+2, 1.9528824e+2, -986571.06, -1161561.4, -52664.164, -0.08492576, 0.20034643, -971944.1, 54240.465, 0.0, 10.000923, 9.99863 
7.050062e+2, 2.0528652e+2, -858446.9, -1075265.4, 3304.7527, 0.011306586, 0.18003193, -858396.5, 69804.805, 0.0, 10.001246, 9.998394 
7.050128e+2, 2.1528362e+2, -747760.3, -966547.3, 6876.5195, 0.25992694, 0.031191006, -747544.4, 82683.234, 0.0, 10.001311, 9.998438 
7.050167e+2, 2.252818e+2, -666029.2, -855328.44, 31904.316, 0.23439461, -0.0013360732, -660796.7, 71447.164, 0.0, 10.001109, 9.998624 
7.0501804e+2, 2.352808e+2, -627391.0, -784646.4, 51744.95, -0.04323285, 0.015901307, -611891.94, 22360.959, 0.0, 10.000696, 9.998635 
7.050208e+2, 2.4527931e+2, -534474.25, -729674.25, 32616.535, -0.13723974, 0.024858717, -529168.5, 7098.0273, 0.0, 10.000833, 9.998273 
7.0502484e+2, 2.5527725e+2, -344880.3, -586738.6, 9193.175, -0.06778873, -0.02972455, -344531.38, 93754.46, 0.0, 10.001456, 9.9982815 
7.0502913e+2, 2.6527575e+2, -243170.39, -556406.4, 37736.887, -0.009865851, 0.025623376, -238688.2, 101613.55, 0.0, 10.001795, 9.997653 
7.0503366e+2, 2.7527454e+2, -133681.77, -450861.66, 39749.004, 0.049507543, 0.121281505, -128776.29, 113540.15, 0.000000016182126, 10.001862, 9.99767 
7.050373e+2, 2.8527266e+2, 12654.293, -388837.9, 24028.564, 0.059808735, 0.19391787, 14087.244, 158423.36, 0.0000030357212, 10.002433, 9.997157 
7.0503986e+2, 2.9527006e+2, 254759.23, -213698.13, 22206.46, 0.009169547, 0.19291033, 255809.55, 302170.72, 0.000031540207, 10.0033865, 9.997226 
7.0504427e+2, 3.0526525e+2, 302447.28, -95824.266, 65455.582, 0.0671858, -0.038312357, 312929.0, 312929.0, 0.00012311795, 10.003104, 9.997829 
7.050497e+2, 3.152635e+2, 133760.19, -97104.07, 72008.11, 0.1885832, -0.013287661, 154378.58, 154378.58, 0.00029058926, 10.001556, 9.998565 
7.149693e+2, 1.2528233e+2, -1821830.0, -1623082.8, -118199.2, -0.40072054, -0.08314961, -1568034.3, 144208.39, 0.0, 9.998625, 10.001274 
7.1498126e+2, 1.3528606e+2, -1643313.4, -1563175.1, 53853.47, 0.29508516, 0.20005298, -1536119.5, 78085.195, 0.0, 9.999498, 10.000614 
7.149856e+2, 1.4528626e+2, -1574339.8, -1610938.0, -26856.025, 0.2629598, 0.22889587, -1560141.1, -43936.813, 0.0, 9.999875, 9.999414 
7.149866e+2, 1.5528521e+2, -1433870.8, -1484203.0, -48670.87, 0.017419593, 0.15429161, -1404244.6, 13974.14, 0.0, 10.000134, 9.999487 
7.1498984e+2, 1.6528518e+2, -1287756.4, -1303376.0, -3595.573, -0.08599236, 0.17929801, -1286968.5, 33250.92, 0.0, 10.00022, 10.000009 
7.149955e+2, 1.7528589e+2, -1205597.8, -1217415.3, 12134.67, -0.022270596, 0.2314891, -1198009.6, 24200.223, 0.0, 10.000124, 9.999976 
7.150001e+2, 1.8528445e+2, -1160293.9, -1280339.0, -37472.535, 0.021393353, 0.15561967, -1149557.0, -25335.65, 0.0, 10.000337, 9.99877 
7.1500397e+2, 1.9528098e+2, -985978.2, -1143295.9, -24007.688, 0.040287815, -0.0882257, -982396.06, 43856.82, 0.0, 10.000851, 9.998789 
7.150082e+2, 2.0527968e+2, -854157.2, -1043997.8, -1231.0072, 0.07086039, -0.08918502, -854149.2, 74116.484, 0.0, 10.001154, 9.998651 
7.1501267e+2, 2.152801e+2, -746187.7, -936475.25, 13940.44, 0.10695183, 0.07066321, -745171.8, 85091.79, 0.0, 10.001204, 9.998692 
7.150168e+2, 2.2528002e+2, -626008.94, -752522.56, 8917.041, 0.11798737, 0.15850446, -625383.56, 106880.11, 0.0, 10.0010195, 9.999374 
7.1502036e+2, 2.3527926e+2, -588360.9, -686490.1, 44422.63, 0.10464365, 0.12715144, -571238.56, 63028.668, 0.0, 10.000619, 9.999348 
7.1502364e+2, 2.4527715e+2, -577724.4, -804930.06, 48533.555, 0.045049258, 0.06337189, -567791.4, -31505.953, 0.0, 10.00077, 9.997789 
7.150265e+2, 2.5527364e+2, -385330.38, -657705.56, 38673.06, -0.061014794, -0.08500549, -379945.84, 58372.41, 0.0, 10.001402, 9.997823 
7.1503055e+2, 2.6527148e+2, -222318.22, -510796.66, 32867.207, -0.059091423, -0.08969646, -218620.95, 121718.48, 0.0, 10.0017805, 9.997974 
7.150356e+2, 2.7527028e+2, -119465.484, -410718.34, 52957.94, 0.04307469, -0.025687274, -110135.14, 132217.16, 0.000000020828322, 10.001811, 9.9979725 
7.1503985e+2, 2.8526837e+2, 19004.871, -369030.3, 52301.844, 0.048991285, 0.022893967, 25930.826, 170302.02, 0.0000037854625, 10.00241, 9.997303 
7.150428e+2, 2.952658e+2, 250448.19, -206330.22, 66621.94, -0.053951107, 0.013541918, 259966.77, 306362.5, 0.000035842306, 10.0033245, 9.997305 
7.150464e+2, 3.0526274e+2, 272524.3, -161595.53, 3953.437, -0.050830428, -0.021887852, 272560.3, 272560.3, 0.00013552581, 10.003109, 9.997379 
7.150507e+2, 3.1526256e+2, 60859.367, -244535.52, 31022.84, 0.089870244, 0.19701995, 63978.883, 63978.883, 0.00031572883, 10.001531, 9.997571 
7.249694e+2, 1.252784e+2, -1685203.8, -1626411.4, -68894.586, -0.30474052, -0.097579636, -1580903.6, 131375.66, 0.0, 9.999818, 10.000705 
7.2498e+2, 1.3528197e+2, -1620918.3, -1590854.3, 48888.523, 0.20502537, 0.21495363, -1554739.0, 59506.223, 0.0, 9.999826, 10.000265 
7.2498536e+2, 1.4528193e+2, -1565609.6, -1595200.3, -7911.614, 0.25377807, 0.23076837, -1563627.1, -47379.3, 0.0, 9.999883, 9.999524 
7.249872e+2, 1.5528096e+2, -1433746.3, -1468763.9, 3043.7307, 0.06813296, 0.15528771, -1433483.8, -15223.097, 0.0, 10.000069, 9.999625 
7.2499067e+2, 1.6528097e+2, -1280951.8, -1309986.3, 68342.97, -0.025875654, 0.17998427, -1225601.3, 94659.7, 0.0, 10.000293, 9.999936 
7.2499603e+2, 1.7528163e+2, -1145380.9, -1191983.0, 43459.348, 0.0022338934, 0.23327209, -1119370.1, 102882.23, 0.0, 10.000548, 9.999946 
7.250009e+2, 1.8528022e+2, -1077615.5, -1205068.3, 10717.436, 0.048028298, 0.14189008, -1076720.6, 47542.625, 0.0, 10.000744, 9.999093 
7.250054e+2, 1.9527678e+2, -960901.6, -1095889.3, 22200.285, 0.10071218, -0.12893096, -957344.25, 68948.77, 0.0, 10.000862, 9.999115 
7.250095e+2, 2.0527592e+2, -853829.4, -1015211.06, 59752.605, 0.1051031, -0.114464134, -834114.06, 94186.96, 0.0, 10.001026, 9.998917 
7.2501343e+2, 2.1527714e+2, -725806.44, -900621.1, 62558.676, 0.06381491, 0.09772754, -705725.94, 124565.88, 0.0, 10.00122, 9.998938 
7.2501737e+2, 2.2527708e+2, -592618.94, -760466.9, 25674.93, 0.067180224, 0.18966767, -588779.4, 143512.78, 0.0, 10.001354, 9.999159 
7.250215e+2, 2.3527579e+2, -479798.88, -658820.56, -26541.451, 0.11677911, 0.12633887, -475946.78, 158355.33, 0.0, 10.00147, 9.99913 
7.250254e+2, 2.4527366e+2, -432117.97, -714665.25, 7460.551, 0.0998856, 0.06323968, -431921.1, 104398.81, 0.0, 10.001682, 9.997968 
7.250289e+2, 2.5527066e+2, -284359.8, -591468.8, 32554.729, 0.0087265605, -0.05459796, -280946.84, 157399.58, 0.0, 10.002016, 9.997981 
7.2503275e+2, 2.6526827e+2, -184429.75, -519817.53, 24743.709, -0.03273273, -0.07513626, -182614.08, 157755.25, 0.0, 10.002161, 9.997725 
7.250371e+2, 2.752663e+2, -81641.625, -417361.1, -13733.341, -0.008599165, -0.067643404, -81080.77, 161310.22, 0.000000011844985, 10.002177, 9.99775 
7.2504175e+2, 2.8526425e+2, 15105.299, -309466.3, 15017.654, 0.018605575, -0.048176557, 15798.672, 160209.02, 0.000004675658, 10.002137, 9.997835 
7.2504634e+2, 2.9526207e+2, 99732.6, -221506.05, 39643.47, 0.03193029, -0.071454324, 104552.61, 150981.38, 0.000040333267, 10.002049, 9.99781 
7.250497e+2, 3.0526003e+2, 193774.63, -205258.72, 1105.8455, 0.003501813, -0.022712493, 193777.69, 193777.69, 0.00014552723, 10.002604, 9.997321 
7.25053e+2, 3.1525952e+2, 358397.22, -114220.87, 17242.836, 0.07345761, 0.1690556, 359025.47, 359025.47, 0.0003309744, 10.00363, 9.997457 
7.349727e+2, 1.2527733e+2, -1755920.9, -1768626.8, -84247.43, 0.016776731, 0.1508921, -1677787.1, 34501.734, 0.0, 9.999818, 9.999716 
7.349771e+2, 1.3527608e+2, -1677882.9, -1706326.6, 50523.73, -0.08395158, 0.060957804, -1639617.5, -25315.953, 0.0, 9.999812, 9.999478 
7.349825e+2, 1.4527476e+2, -1518267.5, -1484363.3, -9348.338, -0.039546467, -0.05317068, -1481956.5, 34357.836, 0.0, 9.999838, 10.0002985 
7.3498785e+2, 1.5527596e+2, -1385807.4, -1370548.8, 20434.973, 0.103455804, 0.010078765, -1356365.4, 61936.926, 0.0, 10.000076, 10.000293 
7.3499244e+2, 1.652765e+2, -1304943.9, -1363253.6, 68126.35, 0.10148922, 0.075727515, -1259996.1, 60301.19, 0.0, 10.000304, 9.999563 
7.349969e+2, 1.7527628e+2, -1172146.5, -1243815.4, 59983.117, 0.01743259, 0.075466834, -1138109.1, 84191.71, 0.0, 10.000528, 9.999602 
7.350013e+2, 1.8527605e+2, -1052088.6, -1140007.8, 8403.149, 0.00081299426, 0.09606097, -1051292.8, 73009.945, 0.0, 10.000694, 9.999563 
7.350057e+2, 1.9527566e+2, -938586.75, -1032067.1, 33847.402, 0.029187137, 0.083322614, -927618.25, 98686.22, 0.0, 10.000793, 9.999582 
7.3501015e+2, 2.0527531e+2, -842075.1, -975509.4, 60161.758, 0.046830293, 0.11082921, -818955.7, 109351.02, 0.0, 10.000956, 9.999225 
7.3501474e+2, 2.1527478e+2, -716844.6, -862931.94, 77889.18, 0.05172834, 0.114701785, -683107.7, 147203.63, 0.0, 10.001139, 9.999232 
7.350184e+2, 2.2527316e+2, -690492.75, -945683.1, 21912.244, 0.013535914, 0.09985183, -688624.9, 43702.96, 0.0, 10.001274, 9.997928 
7.3502123e+2, 2.352704e+2, -574083.44, -833762.2, -14264.253, -0.0693639, 0.0103839515, -573302.25, 61054.82, 0.0, 10.001378, 9.997974 
7.3502576e+2, 2.452689e+2, -380899.4, -594910.1, 14551.703, -0.0451393, 0.020877516, -379914.47, 156455.47, 0.0, 10.001625, 9.9988165 
7.350317e+2, 2.552683e+2, -238774.17, -480729.2, 52378.637, 0.07365548, 0.060834695, -227921.95, 210448.3, 0.0, 10.001949, 9.998774 
7.350356e+2, 2.6526624e+2, -248136.6, -641942.6, 19670.445, 0.017128998, 0.07509698, -247156.5, 93234.305, 0.0, 10.002118, 9.996908 
7.350377e+2, 2.752626e+2, -141744.27, -532493.0, -2054.821, -0.18785737, 0.0010508539, -141733.47, 100698.445, 0.000000051096855, 10.002135, 9.996982 
7.3504275e+2, 2.8526023e+2, 83641.76, -171436.39, 5319.5806, -0.11947798, -0.024580235, 83752.65, 228206.53, 0.0000058850314, 10.002151, 9.998776 
7.350501e+2, 2.9525894e+2, 157450.5, -94257.58, 49430.96, 0.17502892, -0.05520806, 166809.84, 213269.17, 0.000044056193, 10.002016, 9.998699 
7.35054e+2, 3.0525726e+2, 211271.89, -174757.45, 37082.484, 0.15182108, -0.02688622, 214801.81, 214801.81, 0.00015023218, 10.002619, 9.997527 
7.350561e+2, 3.152545e+2, 389730.47, -36404.016, 69467.55, -0.02712315, -0.07882272, 400768.97, 400768.97, 0.0003328002, 10.0035715, 9.998019 
7.449734e+2, 1.2527342e+2, -1914722.9, -1867729.3, -106304.74, 0.16330862, 0.22075926, -1782355.5, -70030.51, 0.0, 9.998835, 9.9995 
7.449766e+2, 1.352708e+2, -1649134.4, -1686075.1, 46966.902, -0.116866745, -0.0064771506, -1617136.5, -2785.5862, 0.0, 9.999999, 9.999518 
7.4498224e+2, 1.4526938e+2, -1470762.1, -1448997.6, -22639.836, -0.053034466, -0.1399164, -1434760.4, 81604.35, 0.0, 10.000104, 10.000414 
7.4498767e+2, 1.5527163e+2, -1462568.9, -1392134.1, -59389.07, 0.1143162, 0.017411066, -1358305.6, 60036.62, 0.0, 9.999486, 10.000424 
7.449925e+2, 1.6527234e+2, -1433011.9, -1406216.3, 23289.053, 0.13267308, 0.083181545, -1392746.1, -72410.73, 0.0, 9.999343, 9.999739 
7.449975e+2, 1.7527139e+2, -1288138.3, -1279277.4, 40962.152, 0.07275079, -0.0041968357, -1242506.8, -20161.54, 0.0, 9.999639, 9.999793 
7.450019e+2, 1.8527149e+2, -1171231.9, -1180580.8, 4139.781, 0.033202063, 0.03197495, -1169662.3, -45317.96, 0.0, 9.999809, 9.99971 
7.4500555e+2, 1.9527233e+2, -1061086.0, -1076291.0, -9201.153, -0.010387705, 0.12581441, -1056752.9, -30417.084, 0.0, 9.999888, 9.999714 
7.450102e+2, 2.0527208e+2, -974857.44, -1030805.4, 12030.374, 0.009616387, 0.1540074, -972380.25, -44043.043, 0.0, 10.000017, 9.999287 
7.4501574e+2, 2.1527071e+2, -851153.56, -924049.9, -5351.644, 0.09155445, 0.07025573, -850762.8, -20413.469, 0.0, 10.000204, 9.999262 
7.4501973e+2, 2.2526874e+2, -783049.3, -1004567.56, -4874.6475, 0.04919329, 0.025881695, -782942.06, -50572.55, 0.0, 10.000704, 9.997798 
7.450221e+2, 2.352661e+2, -572042.5, -846104.3, 23831.27, -0.11829535, -0.039214864, -569985.7, 64412.99, 0.0, 10.001447, 9.997858 
7.450271e+2, 2.4526484e+2, -333025.78, -564393.1, 71089.836, -0.08665912, 0.00003536355, -312928.47, 223481.39, 0.0, 10.001921, 9.998888 
7.4503434e+2, 2.552647e+2, -193345.67, -450678.03, 34471.664, 0.13342668, 0.07883945, -188807.94, 249598.64, 0.0, 10.002226, 9.998849 
7.450387e+2, 2.652629e+2, -189931.11, -606684.2, 17827.865, 0.10208602, 0.113114715, -189169.86, 151254.92, 0.0, 10.00248, 9.996981 
7.450404e+2, 2.7525944e+2, -56984.266, -482078.47, 47038.375, -0.14989543, 0.045799166, -51841.5, 190622.89, 0.00000017449423, 10.002678, 9.9970665 
7.450451e+2, 2.852571e+2, 162635.94, -128992.91, 55779.688, -0.112802744, 0.021034557, 172940.77, 317426.66, 0.0000070145306, 10.002679, 9.998812 
7.450524e+2, 2.952558e+2, 241028.56, -48215.363, 17221.908, 0.18228038, -0.01465057, 242050.36, 288542.13, 0.00004543542, 10.002569, 9.998746 
7.4505675e+2, 3.0525395e+2, 242996.98, -153736.55, 18041.8, 0.16365522, -0.0072662607, 243815.77, 243815.77, 0.00014809403, 10.002817, 9.997576 
7.450598e+2, 3.152504e+2, 362399.3, 5815.777, 2006.4742, 0.01615875, -0.14697513, 362410.63, 362410.63, 0.00032277982, 10.003147, 9.998512 
7.5497097e+2, 1.2526667e+2, -1880650.4, -1784773.9, -61836.277, -0.010218041, 0.1066307, -1754470.1, -42082.62, 0.0, 9.998795, 10.000083 
7.549783e+2, 1.3526611e+2, -1594995.0, -1571801.3, 91451.43, 0.036625102, -0.00039647406, -1491214.4, 123179.44, 0.0, 9.999999, 10.0002985 
7.5498456e+2, 1.4526573e+2, -1509457.6, -1531815.5, -57603.363, 0.14754711, -0.036369774, -1461958.5, 54441.09, 0.0, 10.000109, 9.999846 
7.5498646e+2, 1.5526812e+2, -1497899.9, -1463084.6, -73805.8, 0.018909939, 0.19013055, -1404661.4, 13718.003, 0.0, 9.999473, 9.999948 
7.549906e+2, 1.6526856e+2, -1383228.1, -1298579.9, 25475.15, -0.009509195, 0.21121156, -1291504.4, 28870.06, 0.0, 9.999324, 10.000486 
7.549976e+2, 1.7526706e+2, -1243563.1, -1182354.8, 58638.5, 0.102553815, -0.0022408268, -1146814.5, 75570.5, 0.0, 9.999623, 10.000464 
7.5500226e+2, 1.8526657e+2, -1185858.9, -1204523.6, -856.0045, 0.07561691, -0.046981916, -1185819.8, -61431.8, 0.0, 9.999779, 9.999561 
7.5500476e+2, 1.9526678e+2, -1080725.3, -1101042.9, 1533.3597, -0.09584119, -0.00019297266, -1080610.1, -54223.85, 0.0, 9.999822, 9.999575 
7.5500953e+2, 2.0526627e+2, -1002831.1, -1075575.1, 11192.987, -0.07554555, 0.020589527, -1001147.8, -72755.85, 0.0, 9.999952, 9.999016 
7.550164e+2, 2.1526492e+2, -880731.8, -960969.2, 9225.605, 0.1197248, -0.03484016, -879684.75, -49279.0, 0.0, 10.000102, 9.999057 
7.550211e+2, 2.2526386e+2, -730427.56, -871446.1, 17634.643, 0.10667673, -0.027363703, -728255.75, 4160.7764, 0.0, 10.000603, 9.99876 
7.5502384e+2, 2.3526292e+2, -521957.72, -720728.75, 60975.11, -0.10408077, -0.018086117, -504743.72, 129682.76, 0.0, 10.001359, 9.99876 
7.550291e+2, 2.4526164e+2, -391211.47, -676279.3, 75014.945, -0.09768187, 0.012775607, -372676.6, 163762.17, 0.0, 10.001879, 9.998139 
7.550365e+2, 2.5525987e+2, -245858.23, -552677.25, 53365.754, 0.106727354, -0.0007732965, -236841.19, 201614.28, 0.0, 10.002191, 9.998166 
7.550417e+2, 2.652583e+2, -125529.29, -465282.06, 19457.326, 0.14144993, 0.03927909, -124418.62, 216052.7, 0.0, 10.002453, 9.997963 
7.5504506e+2, 2.7525675e+2, -3023.063, -354538.03, 64378.13, 0.025075385, 0.071148604, 8396.473, 250884.73, 0.0000002213921, 10.002615, 9.9979725 
7.550488e+2, 2.8525496e+2, 98336.45, -259056.14, 44763.164, -0.026926026, 0.09759505, 103857.71, 248363.63, 0.000006961638, 10.002657, 9.997934 
7.5505304e+2, 2.9525268e+2, 179112.5, -171992.31, 24066.998, -0.0305902, 0.056314003, 180754.53, 227280.66, 0.00004401986, 10.002538, 9.997919 
7.5505763e+2, 3.052501e+2, 228131.22, -168798.75, 29090.18, -0.05098977, 0.033058893, 230251.84, 230251.84, 0.0001416952, 10.002765, 9.997489 
7.550637e+2, 3.1524703e+2, 380645.1, 62411.293, 29200.291, 0.048389804, -0.049808163, 383302.22, 383302.22, 0.00030697437, 10.003078, 9.998929 
7.6497024e+2, 1.2525894e+2, -1796305.9, -1735207.4, -48264.145, 0.022884445, -0.053457208, -1708636.6, 3821.9985, 0.00000000032551553, 9.999286, 10.000196 
7.6497805e+2, 1.3526051e+2, -1775748.8, -1630502.9, 6618.068, 0.08766436, 0.02207325, -1630202.0, -15754.69, 0.0, 9.998604, 10.000576 
7.649848e+2, 1.4526093e+2, -1693376.9, -1586285.1, -100334.77, 0.23284549, 0.034391552, -1526102.3, -9656.198, 0.0, 9.9987, 10.000152 
7.6498634e+2, 1.552624e+2, -1419893.1, -1395422.9, -71129.87, 0.050465267, 0.13985455, -1335483.5, 82949.92, 0.0, 9.99987, 10.000226 
7.6499027e+2, 1.6526283e+2, -1258350.0, -1228156.5, 33557.3, -0.0073870327, 0.1436675, -1206456.4, 113971.805, 0.0, 10.000145, 10.00057 
7.64997e+2, 1.7526217e+2, -1242394.5, -1170717.3, 4248.508, 0.08870361, 0.0026897509, -1170466.3, 51965.42, 0.0, 9.999592, 10.000556 
7.6500213e+2, 1.8526177e+2, -1184901.5, -1211569.6, -36032.68, 0.086522736, -0.035305016, -1159814.9, -35380.113, 0.0, 9.999818, 9.999493 
7.650057e+2, 1.9526142e+2, -952231.4, -1048582.9, -42365.79, -0.022098973, -0.03698198, -936252.94, 90186.78, 0.0, 10.000735, 9.999499 
7.6501036e+2, 2.0526099e+2, -876333.7, -985824.7, -25873.398, -0.017840063, -0.01638067, -870527.56, 57917.133, 0.0, 10.000699, 9.999274 
7.6501596e+2, 2.1526027e+2, -904438.2, -946334.06, -3707.0037, 0.08667396, -0.0343841, -904112.7, -73660.83, 0.0, 9.999815, 9.999302 
7.6502115e+2, 2.2525981e+2, -761029.9, -828013.7, 72010.35, 0.077771015, -0.006834936, -715103.9, 17351.938, 0.0, 10.00015, 9.999274 
7.650259e+2, 2.3525947e+2, -452884.63, -632881.2, 64726.8, -0.038835306, 0.014598506, -432026.03, 202432.14, 0.0, 10.001602, 9.999244 
7.6503164e+2, 2.4525815e+2, -363951.2, -676953.8, 61112.1, -0.0413775, 0.023812618, -352442.53, 184028.69, 0.0, 10.002132, 9.998013 
7.6503795e+2, 2.552558e+2, -308665.75, -593812.06, 70095.87, 0.057093125, -0.033153836, -292366.2, 146129.19, 0.0, 10.001819, 9.998061 
7.6504344e+2, 2.652542e+2, -157872.94, -422184.9, 65346.805, 0.09521367, -0.014868796, -142599.58, 197911.16, 0.0, 10.001986, 9.998482 
7.650482e+2, 2.752532e+2, 25528.484, -283023.44, 59658.21, 0.08996205, 0.015864803, 36661.637, 279181.38, 0.00000016204108, 10.002574, 9.998479 
7.6505244e+2, 2.852516e+2, 110793.52, -329328.56, 42649.875, 0.05035285, 0.07202497, 114888.4, 259424.36, 0.000006290961, 10.003064, 9.997258 
7.6505595e+2, 2.9524922e+2, 258620.45, -203064.75, 20816.695, -0.029900966, 0.088112794, 259557.16, 306117.84, 0.000041719115, 10.003388, 9.9972925 
7.6506037e+2, 3.0524597e+2, 320521.6, -118897.4, 48350.12, -0.07338912, 0.024087891, 325778.75, 325778.75, 0.00013461517, 10.003372, 9.997542 
7.6506674e+2, 3.1524312e+2, 341059.25, 58098.87, 21007.121, 0.07000306, -0.04005639, 342610.3, 342610.3, 0.00029000925, 10.002753, 9.999051 
7.7497077e+2, 1.2525013e+2, -1823721.3, -1778016.8, -73870.945, 0.101561084, -0.2733088, -1723544.1, -11004.923, 0.00000000045588486, 9.999234, 9.999926 
7.7497554e+2, 1.3525409e+2, -1785230.0, -1651064.5, -17857.314, -0.044112112, 0.06382885, -1648728.4, -34217.664, 0.0, 9.998608, 10.000433 
7.7498263e+2, 1.4525501e+2, -1610841.9, -1414794.0, -68986.1, 0.124072514, 0.071177214, -1392952.3, 123551.62, 0.0, 9.998697, 10.001333 
7.749873e+2, 1.5525456e+2, -1341687.0, -1235780.5, -20819.48, 0.13924262, -0.12742946, -1231834.8, 186668.7, 0.0, 9.999879, 10.001321 
7.749914e+2, 1.6525526e+2, -1299555.1, -1309257.5, 4377.7695, 0.068511404, -0.121308394, -1297871.9, 22624.117, 0.0, 10.000126, 10.000023 
7.7499557e+2, 1.7525676e+2, -1279481.6, -1244488.4, -6168.898, -0.037743933, 0.008486821, -1243432.6, -20948.049, 0.0, 9.999576, 10.000057 
7.750012e+2, 1.8525714e+2, -1191237.6, -1214415.1, -7217.9946, -0.005720577, 0.07066717, -1189173.5, -64689.457, 0.0, 9.999772, 9.999499 
7.750083e+2, 1.9525635e+2, -960436.1, -1048711.6, -1889.9274, 0.1402002, 0.024168069, -960395.7, 66099.1, 0.0, 10.000663, 9.999535 
7.750125e+2, 2.0525634e+2, -837312.9, -883498.8, -67333.1, 0.11170602, 0.047103997, -789222.75, 139271.95, 0.0, 10.000607, 10.000023 
7.750143e+2, 2.1525684e+2, -868239.1, -847683.8, -27613.62, -0.07600702, 0.076685496, -828497.25, 1989.9025, 0.0, 9.999718, 10.000025 
7.750195e+2, 2.2525667e+2, -774086.56, -830742.06, 118273.35, -0.10879135, 0.09798111, -680795.9, 51690.727, 0.0, 10.000046, 9.999307 
7.7502805e+2, 2.352557e+2, -463218.7, -630863.5, 124966.22, 0.001362499, 0.052963264, -396566.0, 237928.55, 0.0, 10.0015, 9.999308 
7.7503437e+2, 2.4525434e+2, -342959.9, -615222.75, 40567.363, 0.007791817, 0.029690396, -337043.88, 199463.94, 0.0, 10.002054, 9.998475 
7.7503854e+2, 2.5525248e+2, -285360.25, -533586.5, 67094.32, -0.08239061, -0.020805804, -268385.75, 170141.06, 0.0, 10.001767, 9.998501 
7.750437e+2, 2.6525068e+2, -158727.02, -418408.88, 81331.27, -0.09511919, -0.049712785, -135357.48, 205185.72, 0.0, 10.001959, 9.998523 
7.7504975e+2, 2.7524865e+2, 23252.457, -279566.88, 89497.68, -0.03453041, -0.12373652, 47725.484, 290285.28, 0.00000014054619, 10.002533, 9.998527 
7.750555e+2, 2.8524694e+2, 73442.76, -395292.34, 47983.74, 0.03328688, -0.05980776, 78304.36, 222881.47, 0.0000059856334, 10.003019, 9.996823 
7.750609e+2, 2.952453e+2, 227000.23, -267907.25, 41240.19, 0.10152554, 0.07056784, 230413.2, 277010.38, 0.0000396548, 10.003381, 9.996851 
7.750649e+2, 3.0524153e+2, 332500.9, -92035.51, 23299.93, 0.025328262, -0.034549255, 333775.84, 333775.84, 0.00012692052, 10.003363, 9.997733 
7.750684e+2, 3.152386e+2, 325475.28, 28640.084, 15366.698, -0.088991255, -0.119794674, 326268.66, 326268.66, 0.00027213217, 10.002726, 9.99887 
7.8497046e+2, 1.2524496e+2, -1907553.8, -1864096.3, 79987.75, 0.1758119, -0.27369907, -1802938.5, -90351.414, 0.0000000009851104, 9.998858, 9.9995165 
7.8497404e+2, 1.3524778e+2, -1740700.6, -1667531.8, 67005.9, -0.07097929, -0.011841035, -1627773.5, -13201.839, 0.0, 9.999095, 10.000078 
7.8498095e+2, 1.4524902e+2, -1562031.1, -1338888.9, 15465.917, 0.084567204, 0.019183742, -1337822.0, 178740.06, 0.0, 9.998807, 10.001801 
7.849863e+2, 1.5524936e+2, -1557427.6, -1291460.8, -2396.338, 0.1429534, -0.14647207, -1291439.1, 127113.41, 0.0, 9.998198, 10.001746 
7.8499097e+2, 1.6525035e+2, -1541805.8, -1442530.5, 29927.611, 0.094652586, -0.12475716, -1434206.5, -113664.04, 0.0, 9.998539, 9.999865 
7.849954e+2, 1.7525166e+2, -1279035.9, -1261070.3, 28776.82, -0.009996201, 0.002127468, -1239906.8, -17372.615, 0.0, 9.999657, 9.999896 
7.850013e+2, 1.8525216e+2, -1162857.9, -1188483.8, 55054.254, 0.019939534, 0.078350835, -1119145.3, 5388.006, 0.0, 9.999918, 9.999605 
7.8500843e+2, 1.9525172e+2, -1145589.5, -1123566.5, 53882.836, 0.15766858, 0.05581648, -1079581.5, -53040.58, 0.0, 9.999343, 9.999652 
7.85013e+2, 2.0525183e+2, -924251.8, -920478.2, -11896.21, 0.13717, 0.08182738, -910320.06, 18219.662, 0.0, 9.999993, 10.00006 
7.850154e+2, 2.1525227e+2, -589007.0, -710037.8, -42139.574, -0.024107208, 0.102094226, -575780.6, 254751.66, 0.0, 10.001628, 10.000047 
7.850209e+2, 2.2525175e+2, -576183.2, -746508.25, 68665.195, -0.042842727, 0.093809806, -551949.4, 180585.23, 0.0, 10.001442, 9.999214 
7.8502923e+2, 2.3525026e+2, -748287.0, -777003.56, 52013.195, 0.06602677, 0.0029942202, -708686.6, -74139.016, 0.0, 9.9995775, 9.99923 
7.8503567e+2, 2.4524921e+2, -676025.1, -737612.06, 7871.607, 0.055071387, -0.00034304196, -675034.94, -138476.97, 0.0, 9.999611, 9.998802 
7.850402e+2, 2.5524843e+2, -319832.4, -516539.03, 6208.933, -0.06572591, 0.021067424, -319636.63, 118930.875, 0.0, 10.001382, 9.998797 
7.850457e+2, 2.652469e+2, -142553.16, -442217.13, 593.1508, -0.10301715, 0.020057188, -142551.98, 198030.28, 0.0, 10.002202, 9.998245 
7.8505176e+2, 2.7524447e+2, -50101.598, -345300.28, -31092.105, -0.062390044, -0.06428416, -46862.336, 195741.7, 0.0000001311964, 10.002153, 9.9982605 
7.85058e+2, 2.8524238e+2, 21102.533, -384748.84, -30606.64, 0.016726717, -0.040859174, 23397.703, 168021.47, 0.0000058891046, 10.002508, 9.997142 
7.850645e+2, 2.9524052e+2, 216962.31, -237606.67, 2984.1143, 0.13642909, 0.03947167, 216981.9, 263624.06, 0.000037489564, 10.003174, 9.997156 
7.85069e+2, 3.0523667e+2, 394476.97, -105434.414, -7391.0703, 0.07350156, -0.06701619, 394586.22, 394586.22, 0.00011865352, 10.003955, 9.997358 
7.850725e+2, 3.1523398e+2, 556469.56, 53290.258, -89317.4, -0.043763127, -0.10041361, 571853.6, 571853.6, 0.0002544846, 10.004666, 9.998109 
7.9496884e+2, 1.2524362e+2, -1949164.1, -1950814.1, 90480.55, 0.09105653, -0.05518477, -1859504.8, -146904.47, 0.0000000034592607, 9.998872, 9.998915 
7.949734e+2, 1.3524175e+2, -1776228.6, -1743356.8, 77480.4, -0.070737846, -0.2070007, -1680588.1, -65959.414, 0.0, 9.999115, 9.999543 
7.949795e+2, 1.4524302e+2, -1583510.8, -1379893.9, -17873.238, 0.038138352, -0.13195813, -1378336.9, 138283.23, 0.0, 9.998789, 10.001528 
7.9498315e+2, 1.5524682e+2, -1570942.3, -1323210.9, -13506.4, -0.018480262, 0.071924195, -1322476.6, 96104.09, 0.0, 9.998208, 10.001523 
7.949887e+2, 1.6524813e+2, -1535363.0, -1420794.5, 65050.89, -0.00568321, 0.12744994, -1391400.6, -70833.23, 0.0, 9.998501, 10.000034 
7.949964e+2, 1.7524697e+2, -1267136.3, -1236438.9, 75541.42, 0.10716192, -0.011192771, -1174702.6, 47876.93, 0.0, 9.999653, 10.00007 
7.950021e+2, 1.8524687e+2, -1157121.9, -1163060.1, 25461.295, 0.094123684, -0.012579195, -1134457.1, -9874.969, 0.0, 9.999858, 9.999808 
7.9500586e+2, 1.9524756e+2, -1138592.6, -1097742.5, 42172.02, -0.052029856, 0.05489022, -1071309.6, -44731.46, 0.0, 9.999292, 9.999851 
7.950116e+2, 2.0524746e+2, -985972.44, -1026443.3, 41423.66, -0.018861653, 0.087283455, -960105.9, -31526.295, 0.0, 9.9999, 9.999378 
7.9501915e+2, 2.1524644e+2, -648550.44, -813150.0, 23432.586, 0.1760466, 0.03046239, -645279.56, 185308.64, 0.0, 10.001539, 9.999382 
7.95025e+2, 2.2524507e+2, -606257.6, -783203.6, -7876.464, 0.20595986, -0.024542185, -605907.75, 126692.28, 0.0, 10.001332, 9.999014 
7.950291e+2, 2.3524322e+2, -772497.4, -811946.4, -6198.118, 0.08258478, -0.12931849, -771546.44, -136930.16, 0.0, 9.999507, 9.999026 
7.950351e+2, 2.4524283e+2, -672382.75, -717345.56, 65929.66, 0.024732044, -0.06572973, -625206.94, -88585.79, 0.0, 9.999556, 9.998969 
7.9504275e+2, 2.5524354e+2, -319616.8, -500049.47, 78320.42, 0.025843605, 0.09111057, -290363.16, 148254.53, 0.0, 10.001311, 9.998945 
7.95049e+2, 2.6524282e+2, -187115.48, -529136.94, -9210.521, -0.006515899, 0.19163184, -186867.63, 153760.5, 0.0, 10.002171, 9.997665 
7.95054e+2, 2.752406e+2, -94159.23, -431920.25, -22013.457, -0.07236635, 0.18719041, -92730.55, 149922.27, 0.000000103459534, 10.002127, 9.99768 
7.9505986e+2, 2.8523797e+2, 93231.19, -234130.78, -11181.603, -0.0680793, 0.13547413, 93612.67, 238287.72, 0.0000054454867, 10.002504, 9.9981785 
7.950664e+2, 2.9523492e+2, 280426.94, -95146.195, 41108.875, -0.013419712, -0.009854387, 284873.9, 331569.6, 0.00003447301, 10.003123, 9.998162 
7.9507226e+2, 3.0523142e+2, 325064.88, -241355.3, 18509.207, -0.012212902, -0.08716123, 325669.06, 325669.06, 0.0001104858, 10.003921, 9.996439 
7.950785e+2, 3.15229e+2, 446330.2, -164705.45, -39320.832, 0.043718148, 0.0032798862, 448850.13, 448850.13, 0.000240168, 10.004618, 9.996635 
8.0496716e+2, 1.2523964e+2, -2104974.0, -1934784.1, 19917.055, 0.11737459, 0.065988354, -1932484.3, -219838.14, 0.0000000057252847, 9.9974165, 9.999735 
8.0497193e+2, 1.3523765e+2, -1880126.1, -1724209.3, 57555.32, -0.068667375, -0.16529171, -1705265.0, -90596.04, 0.0, 9.998092, 10.000186 
8.04978e+2, 1.4523871e+2, -1660606.9, -1530975.0, -18856.9, 0.018903926, -0.08912602, -1528287.8, -11626.269, 0.0, 9.998755, 10.000507 
8.04982e+2, 1.5524179e+2, -1448555.3, -1378847.3, -96464.75, -0.013730844, 0.14611484, -1311133.0, 107500.875, 0.0, 9.999544, 10.0005 
8.04988e+2, 1.6524251e+2, -1333046.0, -1294020.9, -15038.712, 0.023012519, 0.18121567, -1288898.0, 31728.443, 0.0, 9.999758, 10.000308 
8.049963e+2, 1.7524098e+2, -1286581.3, -1217735.3, -11983.251, 0.1535716, -0.018564519, -1215709.1, 6929.7183, 0.0, 9.999401, 10.000326 
8.0500215e+2, 1.8524092e+2, -1199553.5, -1181986.6, -70023.91, 0.13399087, -0.028774027, -1120197.4, 4442.3813, 0.0, 9.999564, 9.999816 
8.050056e+2, 1.9524199e+2, -1023226.2, -1049437.4, -85941.01, -0.040272005, 0.07967091, -949397.25, 77235.39, 0.0, 10.000111, 9.999795 
8.050116e+2, 2.0524175e+2, -967240.0, -1051787.8, -44164.29, -0.014864807, 0.11578733, -948378.25, -19741.535, 0.0, 10.0001745, 9.999075 
8.0502e+2, 2.152401e+2, -929750.94, -979166.25, -52081.473, 0.19481105, 0.027045611, -896813.56, -66160.46, 0.0, 9.999745, 9.9991045 
8.0502594e+2, 2.2523884e+2, -732795.2, -812144.75, -67571.64, 0.22720529, -0.017351089, -694111.75, 38552.023, 0.0, 10.000329, 9.999295 
8.0502987e+2, 2.352378e+2, -425352.72, -614301.06, -42615.16, 0.09420683, -0.06784991, -416186.06, 218484.48, 0.0, 10.001768, 9.9992895 
8.0503595e+2, 2.452374e+2, -334948.88, -567633.9, 72237.34, 0.037773933, -0.013962937, -314346.84, 222327.97, 0.0, 10.001918, 9.998867 
8.0504405e+2, 2.552373e+2, -390715.7, -547019.44, 48579.957, 0.055502106, 0.071554616, -376847.28, 61831.965, 0.0, 10.00087, 9.998846 
8.0505097e+2, 2.652365e+2, -344321.4, -602829.7, 2832.2356, 0.031060873, 0.16931237, -344290.4, -3599.7495, 0.0, 10.001088, 9.997675 
8.050567e+2, 2.7523488e+2, -41221.03, -401724.78, 18588.46, -0.028096147, 0.21855026, -40265.098, 202445.27, 0.00000004701224, 10.00247, 9.997717 
8.050629e+2, 2.8523228e+2, 183575.14, -154109.2, 23747.28, -0.03957986, 0.15039232, 185236.97, 329968.8, 0.000004093495, 10.002969, 9.998504 
8.0506927e+2, 2.952287e+2, 246827.27, -74431.125, 3435.3389, -0.014908376, -0.08148031, 246864.0, 293620.16, 0.000029631305, 10.002731, 9.998491 
8.050759e+2, 3.0522618e+2, 233018.19, -297231.72, 32934.71, -0.009142108, -0.06930936, 235055.98, 235055.98, 0.00010221737, 10.00335, 9.996336 
8.050835e+2, 3.1522438e+2, 426405.22, -186243.84, 8681.542, 0.095950715, 0.09451283, 426528.2, 426528.2, 0.00023173615, 10.004561, 9.99651 
8.1496483e+2, 1.252331e+2, -1954789.1, -1622988.4, 36863.54, 0.09850389, 0.08848839, -1618942.1, 93781.86, 0.000000004999778, 9.99742, 10.001869 
8.1496936e+2, 1.3523558e+2, -1743737.3, -1444748.1, 87187.56, -0.1504586, 0.10257763, -1421181.1, 193510.34, 0.0, 9.99811, 10.0020895 
8.149763e+2, 1.4523625e+2, -1800027.3, -1815323.0, 2115.6602, -0.054534253, 0.14825302, -1799740.0, -283055.22, 0.0, 9.998736, 9.998567 
8.149827e+2, 1.5523429e+2, -1577603.4, -1648293.6, -58184.316, 0.08265376, 0.07361899, -1544869.9, -126158.55, 0.0, 9.999551, 9.998648 
8.1498885e+2, 1.6523352e+2, -1311773.5, -1245649.4, -38362.52, 0.10517307, 0.03164289, -1228067.8, 92651.87, 0.0, 9.999739, 10.000649 
8.149949e+2, 1.7523372e+2, -1263034.6, -1167626.6, -16826.27, 0.050205655, -0.032200515, -1164746.1, 57966.03, 0.0, 9.999392, 10.000674 
8.1500113e+2, 1.8523434e+2, -1229054.4, -1227775.0, -55134.402, 0.061189145, 0.023048578, -1173276.6, -48570.664, 0.0, 9.999497, 9.999535 
8.1500745e+2, 1.952351e+2, -1049185.1, -1092375.5, -57820.457, 0.11635976, 0.12799925, -1009058.7, 17644.9, 0.0, 10.000062, 9.999522 
8.150129e+2, 2.0523477e+2, -981797.44, -1058839.3, -68922.49, 0.07920445, 0.16832429, -941361.56, -12651.36, 0.0, 10.000073, 9.999077 
8.150175e+2, 2.1523328e+2, -940339.75, -980367.8, -59021.887, -0.0373393, 0.093144156, -898030.9, -67304.41, 0.0, 9.999652, 9.999143 
8.150236e+2, 2.2523312e+2, -695505.0, -707739.2, -21130.889, -0.05106111, 0.11889275, -679623.6, 53101.836, 0.0, 10.000214, 10.000069 
8.15031e+2, 2.3523398e+2, -385695.03, -510861.94, 17157.264, 0.021292118, 0.17974523, -383385.8, 251325.14, 0.0, 10.001677, 10.000046 
8.1503785e+2, 2.4523287e+2, -371579.97, -627993.56, 24516.37, 0.019685235, 0.14544086, -369256.94, 167462.7, 0.0, 10.001847, 9.998488 
8.1504405e+2, 2.5522977e+2, -421771.06, -603530.6, 18374.258, -0.0460645, -0.029642627, -419932.2, 18819.014, 0.0, 10.000832, 9.998478 
8.150513e+2, 2.6522803e+2, -303125.03, -509730.28, 48540.47, -0.05568936, -0.04172861, -292289.13, 48479.92, 0.0, 10.00106, 9.998328 
8.150595e+2, 2.752273e+2, -12178.73, -317770.63, 79345.17, -0.015519103, 0.035360157, 7194.5923, 249970.94, 0.000000004527389, 10.002376, 9.998339 
8.150666e+2, 2.852252e+2, 153233.6, -214491.63, 5610.643, 0.01655419, 0.0071605192, 153319.19, 298113.66, 0.0000024308686, 10.002947, 9.998103 
8.1507283e+2, 2.9522184e+2, 212038.8, -143473.75, 4017.972, 0.04366537, -0.16464344, 212084.19, 258907.66, 0.00002455122, 10.002712, 9.998029 
8.150795e+2, 3.05221e+2, 286008.06, -190513.97, 74694.69, 0.004594463, 0.003243548, 297442.1, 297442.1, 0.00009685274, 10.003367, 9.997055 
8.1508696e+2, 3.152199e+2, 480561.97, -46919.273, 72519.695, -0.056973055, 0.16392086, 490350.53, 490350.53, 0.00023258898, 10.004448, 9.997521 
8.2496184e+2, 1.2522614e+2, -1866981.9, -1553223.0, 44977.027, 0.048443556, 0.13103917, -1546902.9, 165894.84, 0.0000000017683296, 9.997876, 10.002129 
8.2496864e+2, 1.3522913e+2, -1681386.8, -1408014.4, -85495.91, -0.05082182, 0.18391563, -1383478.3, 231279.83, 0.0, 9.998498, 10.002155 
8.24976e+2, 1.4522956e+2, -1788810.3, -1794373.0, -143936.61, 0.053855658, 0.19601122, -1647628.1, -130876.234, 0.0, 9.998754, 9.998696 
8.249822e+2, 1.5522659e+2, -1682235.4, -1686170.8, -68647.086, 0.12436531, 0.0073997504, -1615527.9, -196740.44, 0.0, 9.998789, 9.998747 
8.249881e+2, 1.6522573e+2, -1427831.0, -1315907.4, 6215.231, 0.10037777, -0.04195057, -1315563.3, 5232.9644, 0.0, 9.999007, 10.00051 
8.249939e+2, 1.752267e+2, -1280412.3, -1195817.5, -27776.354, 0.01766508, -0.01309585, -1187512.6, 35269.063, 0.0, 9.999351, 10.000499 
8.250005e+2, 1.8522751e+2, -1212518.4, -1219986.3, -44087.508, 0.05153198, 0.06821299, -1172007.0, -47233.035, 0.0, 9.999617, 9.999531 
8.250079e+2, 1.9522788e+2, -1095463.4, -1112794.1, -43958.332, 0.1761034, 0.13574846, -1059324.5, -32549.477, 0.0, 9.99975, 9.999527 
8.250135e+2, 2.0522745e+2, -963599.1, -1032847.75, -34515.52, 0.13797091, 0.15734854, -949334.2, -20552.412, 0.0, 10.000129, 9.99922 
8.250176e+2, 2.1522613e+2, -785467.1, -892481.1, -31131.586, -0.041721307, 0.087606885, -777069.56, 53725.348, 0.0, 10.000661, 9.999258 
8.250239e+2, 2.2522591e+2, -602838.9, -687250.9, 14372.923, -0.084021, 0.11033947, -600458.75, 132336.16, 0.0, 10.000948, 9.999862 
8.2503206e+2, 2.3522641e+2, -505162.28, -592386.25, -38817.52, -0.005921553, 0.15739818, -490389.3, 144396.08, 0.0, 10.000957, 9.999837 
8.2503945e+2, 2.4522527e+2, -480347.88, -685455.7, -78288.25, 0.036296546, 0.13410084, -453881.03, 82913.76, 0.0, 10.001134, 9.998433 
8.250461e+2, 2.552225e+2, -323661.5, -556955.56, -74620.82, 0.048844464, -0.004832337, -301835.44, 136987.42, 0.0, 10.001528, 9.998455 
8.250535e+2, 2.6522067e+2, -185719.44, -409806.28, 5098.473, 0.03171808, -0.042769905, -185603.5, 155236.47, 0.0, 10.001675, 9.998721 
8.2506144e+2, 2.7521947e+2, -103854.95, -319923.0, 1169.0846, -0.011106011, -0.052395515, -103848.625, 139000.97, 0.0, 10.001559, 9.998719 
8.25069e+2, 2.8521758e+2, 18036.344, -329723.94, -66205.13, 0.00575653, -0.055896208, 30213.783, 175081.34, 0.000001518397, 10.002244, 9.997649 
8.2507634e+2, 2.9521492e+2, 311990.66, -143435.66, -87114.17, 0.08917873, -0.10663515, 328085.13, 374979.7, 0.000022026383, 10.003612, 9.997596 
8.250837e+2, 3.052144e+2, 429211.8, -88535.19, -15346.715, 0.046123188, 0.10135093, 429666.3, 429666.3, 0.00009707927, 10.004205, 9.997344 
8.2509077e+2, 3.152125e+2, 478964.7, 49798.367, -87340.52, -0.085837685, 0.13674594, 496058.66, 496058.66, 0.00024342752, 10.004007, 9.998386 
8.349577e+2, 1.2521884e+2, -1988428.4, -1793241.9, 52172.305, -0.19453526, 0.18831858, -1780171.8, -67304.92, 0.000000000051048894, 9.997835, 10.000496 
8.349694e+2, 1.3521838e+2, -1793509.4, -1645063.6, -55163.37, 0.16165818, 0.07302853, -1626809.4, -11941.583, 0.0, 9.998522, 10.000513 
8.349771e+2, 1.4521873e+2, -1641065.5, -1490984.0, -152168.63, 0.2655321, 0.050445855, -1396359.1, 120502.91, 0.0, 9.998763, 10.000774 
8.3498025e+2, 1.552187e+2, -1535837.1, -1383612.3, -59124.52, 0.018052334, -0.057375662, -1363346.3, 55515.207, 0.0, 9.998791, 10.000821 
8.3498555e+2, 1.6521914e+2, -1480230.3, -1412489.8, 11893.909, -0.07273552, -0.045262672, -1410462.1, -89605.97, 0.0, 9.998959, 9.999872 
8.349932e+2, 1.7522004e+2, -1324430.0, -1285238.8, -4346.416, -0.007929258, 0.040105313, -1284762.5, -61915.79, 0.0, 9.999348, 9.999886 
8.350002e+2, 1.852205e+2, -1199819.6, -1189471.8, -47757.94, 0.038744107, 0.107372425, -1146608.3, -21765.281, 0.0, 9.999593, 9.999756 
8.350067e+2, 1.9522028e+2, -1082372.9, -1076891.8, -30393.773, 0.06010571, 0.09014033, -1049115.3, -22267.902, 0.0, 9.999706, 9.999798 
8.350132e+2, 2.0521973e+2, -961811.6, -1004931.1, -22184.56, 0.0817376, 0.07376957, -952436.3, -23584.393, 0.0, 10.000024, 9.999462 
8.350199e+2, 2.152187e+2, -783067.7, -867338.4, -3096.5254, 0.10521449, 0.005562031, -782954.06, 47904.47, 0.0, 10.000575, 9.999469 
8.350264e+2, 2.2521725e+2, -700390.5, -867780.6, 4815.6304, 0.05908788, -0.04260648, -700252.06, 32619.506, 0.0, 10.000849, 9.9986725 
8.350326e+2, 2.3521525e+2, -596826.5, -766375.1, -29860.494, -0.06013451, -0.12807405, -591721.25, 43171.188, 0.0, 10.000879, 9.998683 
8.350405e+2, 2.4521473e+2, -471580.75, -653743.3, -70647.35, 0.013832097, -0.043710407, -447393.44, 89505.555, 0.0, 10.001072, 9.998682 
8.3505e+2, 2.5521544e+2, -315956.88, -528239.5, -50018.566, 0.26605797, 0.13842952, -304761.75, 134132.61, 0.0, 10.001467, 9.998685 
8.3505726e+2, 2.6521438e+2, -181622.39, -391240.22, -4188.366, 0.22170503, 0.15820183, -181538.73, 159365.39, 0.0, 10.001631, 9.99887 
8.350624e+2, 2.752115e+2, -102513.31, -307049.88, 8744.089, -0.09407396, -0.032935336, -102140.18, 140789.08, 0.0, 10.001514, 9.998832 
8.3506995e+2, 2.852095e+2, -17280.166, -396751.75, -21441.713, -0.14680083, -0.028872192, -16072.464, 128877.555, 0.0000012583888, 10.00222, 9.997198 
8.350797e+2, 2.9520807e+2, 268044.66, -217128.45, -25293.787, 0.04078608, 0.08702844, 269359.75, 316329.13, 0.000022671806, 10.003536, 9.997128 
8.35088e+2, 3.0520654e+2, 416511.3, -107238.61, -22517.137, 0.0400907, 0.22294989, 417477.6, 417477.6, 0.0001036696, 10.004171, 9.997236 
8.350946e+2, 3.152024e+2, 512143.0, 130455.055, -66475.46, -0.15980862, 0.05103987, 523389.13, 523389.13, 0.00026236358, 10.003962, 9.998967 
8.449569e+2, 1.2521075e+2, -1882136.6, -1770522.4, 66223.555, -0.09934363, 0.16465117, -1739727.0, -26783.57, 0.0, 9.998686, 10.000251 
8.449672e+2, 1.3520902e+2, -1964586.3, -1771784.0, 30167.8, 0.14102003, -0.032285195, -1767173.9, -152214.9, 0.0, 9.997546, 10.000116 
8.4497446e+2, 1.4520964e+2, -1787436.9, -1521581.4, -34684.21, 0.19265436, -0.028080652, -1517130.9, -178.81485, 0.0, 9.997591, 10.001126 
8.44979e+2, 1.5521146e+2, -1488171.3, -1326101.9, -94761.2, 0.015714059, 0.015101328, -1282451.6, 136482.27, 0.0, 9.998967, 10.001135 
8.4498477e+2, 1.652124e+2, -1386374.6, -1349612.8, -64658.535, -0.06939064, 0.053225823, -1300773.3, 20150.055, 0.0, 9.999524, 10.000035 
8.4499186e+2, 1.7521252e+2, -1336008.0, -1273765.4, -37303.05, -0.05861117, 0.04891135, -1256306.4, -33386.688, 0.0, 9.9992, 10.000037 
8.449993e+2, 1.8521234e+2, -1226081.9, -1217723.3, -36367.24, -0.0018406044, 0.051283553, -1185296.0, -60375.242, 0.0, 9.999483, 9.999608 
8.450069e+2, 1.9521162e+2, -1010621.2, -1062854.0, -65496.12, 0.088180244, -0.00066526065, -966226.56, 60702.008, 0.0, 10.000286, 9.999615 
8.4501404e+2, 2.0521109e+2, -868809.6, -965444.6, -76768.73, 0.13297556, -0.0032803721, -826418.75, 102513.625, 0.0, 10.000679, 9.999424 
8.450208e+2, 2.1521054e+2, -787675.06, -879846.7, -96724.28, 0.13859098, -0.016619887, -726618.5, 104315.95, 0.0, 10.000582, 9.999386 
8.450274e+2, 2.2520903e+2, -779941.7, -962648.94, -64398.06, 0.09687995, -0.040095042, -759525.06, -26575.14, 0.0, 10.000565, 9.998144 
8.4503394e+2, 2.3520651e+2, -674393.5, -858075.0, -71304.33, 0.008116919, -0.12355835, -649962.9, -14984.183, 0.0, 10.000605, 9.998173 
8.450419e+2, 2.4520573e+2, -472239.25, -625190.25, -56233.43, 0.056824937, -0.055765264, -453790.03, 83198.414, 0.0, 10.00094, 9.998941 
8.450511e+2, 2.5520626e+2, -291174.22, -484666.25, -53245.914, 0.23053052, 0.084698126, -277489.63, 161493.56, 0.0, 10.001506, 9.998957 
8.450587e+2, 2.6520553e+2, -164352.83, -406836.4, -19814.646, 0.19149025, 0.13511205, -162744.34, 178245.84, 0.0, 10.001858, 9.998649 
8.4506476e+2, 2.7520353e+2, -38715.57, -295823.06, -46694.254, -0.030405877, 0.04974206, -30497.906, 212511.97, 0.0000000050987805, 10.002044, 9.99865 
8.450727e+2, 2.8520176e+2, 18162.281, -362225.22, -17441.03, -0.09289512, 0.07760295, 18960.29, 163989.42, 0.0000017149706, 10.002378, 9.99736 
8.4508234e+2, 2.951999e+2, 171123.19, -237591.69, 5048.56, -0.0043969275, 0.12825306, 171185.53, 218237.13, 0.0000255943, 10.002758, 9.997354 
8.450912e+2, 3.0519757e+2, 202568.13, -240543.2, 8464.388, 0.019700143, 0.18524295, 202729.75, 202729.75, 0.000114907256, 10.002827, 9.996976 
8.450988e+2, 3.1519383e+2, 317771.6, 54760.996, -71895.09, -0.04899033, 0.081923895, 336141.4, 336141.4, 0.00028673265, 10.002527, 9.999147 
8.549588e+2, 1.2520216e+2, -1812518.6, -1622942.3, -3734.855, 0.18824589, 0.08085675, -1622868.6, 90155.98, 0.0, 9.998679, 10.001265 
8.549616e+2, 1.3520119e+2, -1911396.4, -1652443.9, -9414.522, -0.19285868, -0.13001332, -1652102.0, -37071.6, 0.0, 9.997525, 10.000937 
8.5496795e+2, 1.4520237e+2, -1882648.3, -1726268.8, 8436.283, -0.2419944, -0.038350914, -1725814.9, -208793.64, 0.0, 9.997606, 9.999722 
8.5497844e+2, 1.5520486e+2, -1579481.0, -1522766.8, -32295.66, 0.04001077, 0.21573329, -1508145.5, -89140.875, 0.0, 9.998992, 9.999774 
8.549856e+2, 1.6520554e+2, -1329075.1, -1224806.0, -85935.445, 0.04197355, 0.25098237, -1176427.3, 144569.64, 0.0, 9.999498, 10.000905 
8.549898e+2, 1.752042e+2, -1275354.8, -1145197.3, -41029.664, -0.2084115, 0.007949106, -1133343.1, 89657.18, 0.0, 9.999187, 10.000926 
8.5499746e+2, 1.8520308e+2, -1272900.8, -1303643.4, -12504.928, -0.15051845, -0.10024471, -1268456.6, -143449.66, 0.0, 9.999431, 9.999046 
8.5500836e+2, 1.9520193e+2, -1052279.8, -1146045.0, -28302.332, 0.1859302, -0.13654158, -1044399.25, -17380.705, 0.0, 10.000265, 9.999056 
8.5501575e+2, 2.0520161e+2, -903979.94, -1023884.7, -89382.38, 0.22642891, -0.0727569, -856305.6, 72716.836, 0.0, 10.000614, 9.999058 
8.5502e+2, 2.1520177e+2, -820825.8, -929984.56, -91828.2, -0.011138741, 0.01860403, -768581.4, 62440.53, 0.0, 10.000497, 9.999084 
8.5502666e+2, 2.2520126e+2, -794637.1, -965089.56, -70110.47, -0.042122032, 0.109022275, -769504.9, -36475.387, 0.0, 10.000444, 9.998187 
8.5503584e+2, 2.352001e+2, -682219.5, -856145.5, -59957.74, 0.12174534, 0.1561525, -663553.5, -28508.02, 0.0, 10.000524, 9.998225 
8.5504335e+2, 2.4519813e+2, -464376.88, -593319.8, -43534.645, 0.092443965, 0.08943773, -451054.78, 86009.445, 0.0, 10.000873, 9.999194 
8.550493e+2, 2.551951e+2, -284583.78, -455016.0, -25575.719, -0.11508368, -0.15390225, -280828.53, 158260.2, 0.0, 10.001433, 9.999199 
8.5505766e+2, 2.6519424e+2, -208516.08, -487387.97, -21405.191, -0.10430054, -0.10029691, -206882.67, 134215.0, 0.0, 10.001807, 9.998124 
8.550683e+2, 2.751954e+2, -86201.086, -377211.22, -29308.143, 0.10228343, 0.18638529, -83278.76, 159813.94, 0.0000001292932, 10.001969, 9.99813 
8.55077e+2, 2.8519425e+2, 69042.055, -244969.39, -7838.963, 0.08639496, 0.25747353, 69237.625, 214343.47, 0.0000031613251, 10.002327, 9.99819 
8.5508406e+2, 2.9519045e+2, 220566.3, -124764.26, 27652.553, -0.13530834, 0.036794756, 222766.58, 269907.25, 0.000030116835, 10.002709, 9.998156 
8.5509306e+2, 3.0518746e+2, 169346.17, -296532.75, -7568.752, -0.09394238, 0.0042146854, 169469.11, 169469.11, 0.0001273879, 10.002784, 9.996608 
8.5510314e+2, 3.151865e+2, 281637.7, 10790.709, -58413.555, 0.092420384, 0.22406493, 293698.66, 293698.66, 0.00031292601, 10.002412, 9.9988985 
8.649581e+2, 1.2519291e+2, -2037813.3, -1682709.6, -47090.97, 0.34930518, 0.03199583, -1676570.9, 36546.523, 0.00000000000000000000885557, 9.9969225, 10.001695 
8.6495966e+2, 1.3519403e+2, -1661136.6, -1494387.5, -112830.18, -0.20327435, -0.009317162, -1437469.6, 177633.5, 0.0, 9.999056, 10.001289 
8.649658e+2, 1.4519523e+2, -1605591.6, -1618986.0, -52541.555, -0.310929, 0.08017444, -1559322.1, -42229.09, 0.0, 9.999631, 9.999478 
8.649774e+2, 1.5519632e+2, -1609875.6, -1568927.1, -25326.926, 0.048270352, 0.22048758, -1556833.8, -137744.88, 0.0, 9.9989195, 9.999496 
8.649853e+2, 1.651963e+2, -1409179.8, -1308099.5, -66671.65, 0.08870878, 0.22131728, -1274977.1, 46111.02, 0.0, 9.999142, 10.000499 
8.649899e+2, 1.7519504e+2, -1151644.9, -1133102.4, -140801.83, -0.16266689, 0.023952214, -1001266.9, 221825.92, 0.0, 10.000234, 10.000503 
8.6499786e+2, 1.8519394e+2, -1091917.4, -1198880.8, -123080.48, -0.110039234, -0.06756999, -1011201.06, 113897.695, 0.0, 10.000604, 9.999197 
8.650089e+2, 1.9519287e+2, -1042133.3, -1125672.3, -97093.8, 0.21826646, -0.108896255, -978205.56, 48901.67, 0.0, 10.000278, 9.999184 
8.650164e+2, 2.0519222e+2, -946196.5, -1096838.4, -120843.24, 0.23414531, -0.05713789, -879122.5, 49992.03, 0.0, 10.000562, 9.998572 
8.650205e+2, 2.1519174e+2, -732793.7, -941385.56, -154400.88, -0.04394974, 0.017943567, -650763.94, 180359.0, 0.0, 10.001347, 9.99859 
8.650274e+2, 2.2519134e+2, -638158.5, -855395.94, -138013.67, -0.057275705, 0.12632887, -571147.5, 161982.52, 0.0, 10.001363, 9.998503 
8.650369e+2, 2.3519091e+2, -646338.44, -805467.2, -120405.2, 0.17932051, 0.21540025, -581584.06, 53552.86, 0.0, 10.000621, 9.998528 
8.650444e+2, 2.4518904e+2, -558938.44, -652821.94, -71145.945, 0.14589573, 0.15014757, -520643.63, 16510.57, 0.0, 10.000292, 9.999059 
8.650499e+2, 2.5518554e+2, -444721.0, -546316.56, -100242.164, -0.14105433, -0.12416802, -383140.38, 56043.28, 0.0, 10.000402, 9.999064 
8.650585e+2, 2.6518443e+2, -362355.34, -535828.7, -67551.51, -0.13911983, -0.10476691, -339153.6, 2041.4618, 0.0000000005766255, 10.000635, 9.998353 
8.6507e+2, 2.7518538e+2, -213366.72, -411577.6, -36958.54, 0.13315417, 0.13651435, -206699.67, 36491.17, 0.000000514823, 10.000974, 9.998371 
8.650792e+2, 2.851845e+2, -82496.7, -267421.66, 9879.589, 0.13807248, 0.20261237, -81970.38, 63229.22, 0.0000054394536, 10.001072, 9.998641 
8.6508626e+2, 2.9518154e+2, 1059.567, -175088.66, 4137.996, -0.09294655, 0.021015229, 1156.7214, 48381.28, 0.000035908153, 10.000966, 9.9986515 
8.6509556e+2, 3.0517834e+2, 18164.863, -351582.8, 6915.919, -0.055745073, -0.06614669, 18294.178, 18294.178, 0.00014004746, 10.001657, 9.996769 
8.651061e+2, 3.1517807e+2, 333242.25, 31403.97, -29129.309, 0.12786657, 0.20362361, 336027.72, 336027.72, 0.00033713353, 10.002787, 9.998846 
8.7495404e+2, 1.2518325e+2, -2045988.0, -1703114.5, 7107.905, 0.20677486, 0.039348897, -1702967.3, 10251.884, 0.0000000055054987, 9.996932, 10.001548 
8.749613e+2, 1.351877e+2, -1664684.1, -1494618.1, -28813.756, 0.03754968, 0.3297934, -1489868.9, 125306.71, 0.0, 9.999031, 10.001292 
8.7496793e+2, 1.4518844e+2, -1551142.0, -1507354.4, -90189.1, -0.08212256, 0.33402863, -1436439.6, 80726.3, 0.0, 9.999633, 10.000246 
8.749757e+2, 1.551859e+2, -1556437.9, -1454010.9, -42426.613, -0.0343777, 0.030061195, -1438719.9, -19533.898, 0.0, 9.998911, 10.000285 
8.7498367e+2, 1.651848e+2, -1529416.1, -1559239.9, -33955.473, -0.008743221, -0.03045475, -1507242.5, -186046.42, 0.0, 9.99914, 9.998781 
8.749921e+2, 1.7518501e+2, -1268801.8, -1379868.4, -93989.11, 0.009355327, 0.0948563, -1215165.9, 8031.184, 0.0, 10.000243, 9.998808 
8.7500024e+2, 1.8518502e+2, -1037500.44, -1078063.1, -143249.98, 0.052219506, 0.1554906, -913103.2, 212091.97, 0.0, 10.00057, 10.000042 
8.750083e+2, 1.9518448e+2, -988457.8, -1004404.3, -100438.91, 0.11246001, 0.07756645, -895676.2, 131517.95, 0.0, 10.000234, 10.000038 
8.750156e+2, 2.05183e+2, -1008899.56, -1203846.1, -98450.24, 0.08460375, 0.036339507, -967832.25, -38624.074, 0.0, 10.000463, 9.997887 
8.750222e+2, 2.151805e+2, -791120.2, -1044443.9, -118729.32, -0.027232762, -0.018862667, -744173.6, 87063.78, 0.0, 10.0012665, 9.997922 
8.750294e+2, 2.2517928e+2, -609396.8, -776573.8, -173415.31, -0.012241033, 0.012628175, -500475.84, 232775.14, 0.0, 10.001278, 9.999085 
8.7503713e+2, 2.3517907e+2, -619206.4, -727506.4, -139714.27, 0.11877073, 0.060737066, -523515.44, 111736.58, 0.0, 10.000524, 9.99911 
8.750449e+2, 2.4517852e+2, -610434.06, -742249.44, -74415.695, 0.14585346, 0.1294837, -576935.94, -39678.484, 0.0, 10.000214, 9.998484 
8.750526e+2, 2.5517753e+2, -494680.22, -632104.44, -86471.945, 0.070207156, 0.16436373, -452944.38, -13675.892, 0.0, 10.000325, 9.998512 
8.7506086e+2, 2.651759e+2, -299703.7, -401323.28, -60895.582, 0.016651373, 0.11197081, -271204.56, 70078.766, 0.0000000691861, 10.000609, 9.999292 
8.750697e+2, 2.7517343e+2, -156502.34, -279821.34, -16181.797, -0.017411746, -0.08233179, -154414.34, 88889.336, 0.000001269736, 10.000913, 9.999307 
8.7507904e+2, 2.8517267e+2, -74668.625, -247097.08, -3367.569, -0.008039682, -0.06330362, -74602.88, 70706.14, 0.000008255043, 10.001049, 9.9987955 
8.7508875e+2, 2.9517305e+2, 7630.533, -153066.23, 9902.105, 0.043880742, 0.074312076, 8238.399, 55542.785, 0.000042714033, 10.000925, 9.998827 
8.7509865e+2, 3.0517003e+2, 57905.145, -253088.28, 49146.44, 0.06468687, -0.037418693, 65486.94, 65486.94, 0.00015286829, 10.001594, 9.997472 
8.7510705e+2, 3.1516826e+2, 322472.1, 25042.338, 37045.75, -0.09737412, 0.019198013, 327016.78, 327016.78, 0.00035722472, 10.002721, 9.998835 
8.849513e+2, 1.2517469e+2, -1813131.4, -1682261.6, 86138.0, 0.14763886, 0.098652415, -1639523.1, 73778.17, 0.00000006865043, 9.998922, 10.000741 
8.84961e+2, 1.3517796e+2, -1802471.0, -1647211.6, -23220.775, 0.14237309, 0.34881365, -1643813.1, -28539.45, 0.0, 9.998447, 10.000539 
8.849684e+2, 1.4517802e+2, -1649915.6, -1530180.9, -129112.84, 0.037488174, 0.31429505, -1447730.9, 69539.945, 0.0, 9.998859, 10.000455 
8.849752e+2, 1.551757e+2, -1336395.9, -1328154.5, -149082.97, -0.03562678, 0.012356738, -1183135.3, 236150.53, 0.0, 10.000334, 10.00046 
8.8498354e+2, 1.6517463e+2, -1313394.6, -1455937.5, -88486.016, -0.008817756, -0.052180562, -1271046.6, 50247.76, 0.0, 10.000641, 9.998764 
8.8499314e+2, 1.7517479e+2, -1321992.4, -1406719.8, -34753.75, 0.11713837, 0.07233123, -1309561.0, -86264.89, 0.0, 9.999897, 9.998789 
8.850014e+2, 1.8517497e+2, -1125180.0, -1147063.3, -42779.9, 0.13795125, 0.16324505, -1091964.6, 33329.35, 0.0, 10.000079, 9.999806 
8.8500834e+2, 1.9517487e+2, -880976.6, -978075.4, -103195.68, 0.05321928, 0.15188393, -815480.44, 211811.02, 0.0, 10.001085, 9.999807 
8.850157e+2, 2.0517342e+2, -922906.06, -1150722.8, -115179.58, 0.031712018, 0.12026661, -874822.25, 54483.42, 0.0, 10.000993, 9.998 
8.8502365e+2, 2.1517062e+2, -994855.06, -1130669.4, -87103.02, 0.07396212, 0.02402535, -952316.25, -120979.484, 0.0, 9.999809, 9.998037 
8.850308e+2, 2.25169e+2, -820742.6, -850662.94, -101689.2, 0.08977596, -0.0021193589, -732919.06, 433.51688, 0.0, 9.999714, 9.999326 
8.8503724e+2, 2.3516828e+2, -587411.0, -687661.56, -116204.38, 0.07796845, -0.0258378, -510981.94, 124374.49, 0.0, 10.000642, 9.999327 
8.8504505e+2, 2.4516803e+2, -488649.94, -703444.4, -31891.57, 0.09999744, 0.07086331, -484014.88, 53344.234, 0.0, 10.001132, 9.998308 
8.8505405e+2, 2.5516802e+2, -373024.75, -594323.4, -30981.266, 0.15143858, 0.21835868, -368769.28, 70593.555, 0.00000000006372724, 10.001238, 9.998334 
8.8506263e+2, 2.651662e+2, -263523.03, -411699.16, -29580.145, 0.11578856, 0.17144631, -257836.25, 83543.766, 0.00000025387644, 10.000984, 9.999035 
8.850705e+2, 2.7516258e+2, -240541.36, -347297.6, -91060.54, 0.001733099, -0.11651507, -188367.39, 55044.21, 0.0000021793016, 10.000457, 9.999058 
8.850796e+2, 2.851617e+2, -172735.69, -299964.2, -103337.57, -0.012809681, -0.08778252, -115001.58, 30416.334, 0.000011106664, 10.000413, 9.998732 
8.850898e+2, 2.9516318e+2, -9986.332, -165122.31, -122295.1, 0.07307209, 0.1661203, 57265.86, 104669.75, 0.000049522223, 10.000826, 9.998786 
8.8510025e+2, 3.0516046e+2, -2930.7778, -223550.17, -72309.21, 0.106531054, 0.055876084, 18656.65, 18656.65, 0.00016466355, 10.000913, 9.998017 
8.851091e+2, 3.1515828e+2, -16431.559, -144552.1, -117752.66, -0.043300584, 0.023553949, 53558.184, 53558.184, 0.00037254568, 10.000414, 9.998799 
8.949493e+2, 1.2516713e+2, -1925415.1, -1902275.4, 35087.47, 0.020007782, 0.20327091, -1876899.5, -163534.64, 0.00000033567557, 9.998883, 9.999243 
8.949586e+2, 1.3516495e+2, -1907148.3, -1857948.6, -37393.098, 0.044264875, 0.061146982, -1837789.1, -222394.11, 0.00000000007521531, 9.998439, 9.99909 
8.949667e+2, 1.4516427e+2, -1676737.8, -1591098.3, -84417.58, -0.032886233, 0.040795658, -1539261.5, -21856.549, 0.0, 9.998872, 10.000037 
8.9497584e+2, 1.5516587e+2, -1365337.0, -1388193.0, -85359.6, -0.028381621, 0.17600258, -1290643.9, 128743.164, 0.0, 10.00033, 10.000053 
8.9498454e+2, 1.6516596e+2, -1196942.4, -1215604.0, -125223.77, 0.011528496, 0.16513197, -1080702.3, 240679.23, 0.0, 10.000642, 10.000413 
8.94993e+2, 1.7516443e+2, -1208059.8, -1169722.3, -52578.344, 0.097734444, -0.049238503, -1132927.5, 90462.125, 0.0, 9.99989, 10.00042 
8.9500105e+2, 1.8516387e+2, -1228418.8, -1350319.6, -12012.925, 0.081694126, -0.045538772, -1227246.3, -101851.375, 0.0, 10.00003, 9.998437 
8.9500874e+2, 1.9516401e+2, -984603.0, -1179980.5, -59165.61, -0.033246916, 0.10881621, -968082.9, 59316.375, 0.0, 10.001023, 9.998452 
8.950166e+2, 2.051635e+2, -871026.9, -1021714.8, -167321.58, 0.0055985763, 0.19083226, -762868.2, 166539.02, 0.0, 10.000903, 9.998929 
8.950248e+2, 2.1516214e+2, -945388.3, -1002409.94, -121810.88, 0.190077, 0.14301698, -848796.1, -17375.629, 0.0, 9.999703, 9.998966 
8.9503163e+2, 2.2516057e+2, -850360.7, -889159.7, -74362.73, 0.18224351, 0.084788956, -792908.7, -59474.48, 0.0, 9.999607, 9.999117 
8.9503706e+2, 2.3515862e+2, -612742.4, -721375.44, -73644.91, -0.017172761, -0.041693073, -575550.1, 59899.766, 0.0, 10.000557, 9.999137 
8.950447e+2, 2.4515754e+2, -481563.22, -676166.6, -36115.09, -0.06274267, -0.027697299, -475077.06, 62382.3, 0.0, 10.001076, 9.998525 
8.9505434e+2, 2.5515708e+2, -373395.97, -574277.7, -19094.291, 0.032928105, 0.054026626, -371597.1, 67868.336, 0.0000000002378373, 10.001148, 9.998517 
8.950635e+2, 2.6515555e+2, -369202.25, -620675.44, -56520.555, 0.08943348, 0.09463389, -357082.9, -15599.704, 0.00000030747992, 10.000939, 9.997622 
8.950722e+2, 2.751527e+2, -348606.78, -558970.94, -100103.414, 0.10904474, 0.03354868, -308585.7, -65071.324, 0.0000026197797, 10.000405, 9.99763 
8.9508086e+2, 2.851516e+2, -196532.34, -350323.44, -93536.3, 0.046896253, 0.12343142, -152341.3, -6814.437, 0.000013171274, 10.000407, 9.99839 
8.9508927e+2, 2.9515198e+2, -32075.19, -210253.33, -96528.18, -0.09190688, 0.29883084, 10192.325, 57715.38, 0.000055655084, 10.000811, 9.9984865 
8.951002e+2, 3.0514959e+2, 16075.223, -166246.81, -95305.23, -0.006060319, 0.21418431, 56798.313, 56798.313, 0.00017577781, 10.000853, 9.99843 
8.9511156e+2, 3.1514728e+2, -36168.527, -157745.73, -109755.51, 0.12599832, 0.12859143, 28508.105, 28508.105, 0.0003866523, 10.000312, 9.998746 
9.049491e+2, 1.2515596e+2, -1918226.0, -1918845.3, -65634.99, 0.11843797, 0.114115596, -1852899.9, -139429.28, 0.0000010657902, 9.999011, 9.999074 
9.049578e+2, 1.3515331e+2, -1704052.9, -1774887.5, -58779.633, 0.049074247, -0.06239906, -1670844.9, -55339.977, 0.000000007369457, 9.999888, 9.998965 
9.049661e+2, 1.451529e+2, -1479505.1, -1488162.8, 640.68256, -0.04034055, -0.05265709, -1479458.0, 38054.887, 0.0, 10.000196, 10.000098 
9.049763e+2, 1.5515552e+2, -1388008.9, -1391425.1, 16032.519, 0.003454537, 0.17540249, -1373593.8, 45893.137, 0.0, 10.000144, 10.000117 
9.049853e+2, 1.6515605e+2, -1221188.9, -1215460.3, -74574.14, 0.035657957, 0.20051147, -1143695.4, 177782.13, 0.0, 10.000425, 10.000522 
9.049931e+2, 1.7515436e+2, -1034902.06, -1071924.8, -138938.75, 0.068251245, -0.04040805, -913246.94, 310239.6, 0.0, 10.001024, 10.00054 
9.050014e+2, 1.8515337e+2, -1116101.6, -1307579.4, -86513.95, 0.07879236, -0.08003402, -1082803.4, 42692.758, 0.0, 10.000847, 9.998335 
9.050101e+2, 1.951529e+2, -1144495.9, -1267957.6, -47715.9, 0.064567134, 0.022439143, -1128204.3, -100696.75, 0.0, 9.999961, 9.998364 
9.0501815e+2, 2.0515278e+2, -957776.25, -990656.2, -112203.164, 0.11607132, 0.115419544, -860815.06, 68695.96, 0.0, 9.99999, 9.99958 
9.050254e+2, 2.1515273e+2, -730856.2, -831214.4, -109346.7, 0.23047142, 0.13425523, -660724.7, 170785.02, 0.0, 10.000876, 9.999578 
9.050319e+2, 2.2515169e+2, -673351.56, -852431.0, -51372.207, 0.18442878, 0.12102001, -659661.1, 73857.38, 0.0, 10.001035, 9.99868 
9.050375e+2, 2.3514952e+2, -643994.44, -786637.5, -84122.44, -0.019449858, 0.019088639, -605028.4, 30510.264, 0.0, 10.000558, 9.998689 
9.050454e+2, 2.4514787e+2, -603914.0, -736593.75, -59943.598, -0.053642042, -0.0024237896, -580843.5, -43288.895, 0.0, 10.000251, 9.9985 
9.050553e+2, 2.5514653e+2, -521744.47, -647886.4, -78794.23, 0.06924247, -0.00680989, -483887.34, -44319.023, 0.0, 10.000145, 9.998489 
9.050646e+2, 2.6514518e+2, -427187.3, -680548.06, -52473.934, 0.1197076, 0.0687759, -416749.38, -75164.77, 0.0000002007212, 10.000687, 9.997334 
9.050733e+2, 2.751435e+2, -156849.31, -498729.94, -29964.443, 0.10952872, 0.15342243, -154242.92, 89363.04, 0.0000025589381, 10.001862, 9.997344 
9.0508187e+2, 2.8514174e+2, -19848.553, -305443.8, 7018.066, 0.043052264, 0.20910315, -19676.197, 125949.445, 0.000014749117, 10.001795, 9.998035 
9.050901e+2, 2.9513982e+2, -103232.2, -278969.84, -16843.982, -0.07039151, 0.19546282, -101632.32, -53988.68, 0.00006245814, 10.000484, 9.99817 
9.0510106e+2, 3.051379e+2, -31987.121, -108474.59, 26911.73, 0.041467786, 0.13546848, -23467.361, -23467.361, 0.00018870574, 10.00017, 9.999159 
9.0511256e+2, 3.1513706e+2, 31904.848, -67571.87, 7922.839, 0.19329472, 0.12471371, 32531.91, 32531.91, 0.00040376265, 10.000518, 9.999273 
9.149501e+2, 1.2514164e+2, -1829452.9, -1743491.9, -61557.29, 0.27153587, -0.13483264, -1711395.0, 2219.5444, 0.000002613721, 9.999053, 10.000256 
9.149582e+2, 1.3514312e+2, -1618501.4, -1592734.9, -21552.854, 0.08424162, -0.023984512, -1580508.4, 35094.05, 0.00000007607973, 9.999869, 10.000223 
9.149662e+2, 1.4514388e+2, -1446122.0, -1413492.4, -10584.921, -0.06969931, 0.01581835, -1410359.5, 107235.52, 0.0, 10.000171, 10.000624 
9.149764e+2, 1.5514475e+2, -1351929.4, -1316663.3, 24965.37, -0.01809171, 0.013384073, -1303731.8, 115852.695, 0.0, 10.000146, 10.000628 
9.149854e+2, 1.6514507e+2, -1324201.8, -1429964.5, -62249.008, -0.012183748, 0.066212095, -1295404.6, 26176.2, 0.0, 10.000426, 9.999049 
9.149932e+2, 1.7514469e+2, -1141025.9, -1285824.6, -110260.76, -0.042974185, 0.10617388, -1081519.6, 142066.22, 0.0, 10.000994, 9.999087 
9.150022e+2, 1.8514358e+2, -1036399.06, -1130713.9, -127387.94, 0.056102797, 0.06317779, -947720.1, 177876.81, 0.0, 10.000796, 9.999576 
9.150124e+2, 1.9514158e+2, -1070272.0, -1096670.9, -70100.42, 0.275055, -0.10916291, -1012139.1, 15476.444, 0.0, 9.999887, 9.9995775 
9.1502005e+2, 2.0514135e+2, -949906.44, -952820.7, -85707.02, 0.29127645, -0.10223214, -865644.2, 63972.273, 0.0, 9.999896, 9.999886 
9.1502535e+2, 2.1514255e+2, -724739.7, -795514.94, -69047.79, 0.12153073, 0.010780074, -682539.4, 149063.42, 0.0, 10.000778, 9.99987 
9.1503143e+2, 2.2514246e+2, -732218.1, -958568.94, -77818.0, 0.021993289, 0.113533065, -708046.1, 25558.646, 0.0, 10.000959, 9.99799 
9.150384e+2, 2.3514104e+2, -706135.8, -893948.5, -93277.375, -0.004201944, 0.15289572, -667682.56, -32059.8, 0.0, 10.000465, 9.997996 
9.150469e+2, 2.4513909e+2, -630290.3, -780196.7, -69646.74, 0.04878988, 0.14998147, -602927.06, -65283.176, 0.0, 10.000197, 9.99823 
9.150567e+2, 2.551364e+2, -546580.0, -690551.3, -72523.56, 0.18004788, 0.041602798, -516381.53, -76710.875, 0.0, 10.000101, 9.998222 
9.150655e+2, 2.651351e+2, -374307.47, -566371.7, -14651.372, 0.13506824, 0.09486799, -373196.25, -31512.004, 0.00000011562638, 10.000667, 9.998127 
9.150735e+2, 2.7513486e+2, -108638.7, -388074.2, 22869.244, -0.07584741, 0.24036549, -106779.44, 136907.86, 0.0000025826089, 10.001812, 9.998129 
9.150824e+2, 2.8513205e+2, -52583.26, -364385.44, -50679.68, -0.10086572, 0.1738467, -44552.72, 101161.95, 0.000017159802, 10.001754, 9.997651 
9.1509205e+2, 2.951267e+2, -135899.34, -342572.8, -53802.934, 0.052777883, -0.14644167, -122731.85, -74965.63, 0.00007135739, 10.00046, 9.997748 
9.151027e+2, 3.051254e+2, 28422.674, 32616.701, 37455.332, 0.17300893, -0.17218646, 68033.68, 68033.68, 0.00020552066, 10.000113, 10.000151 
9.151117e+2, 3.151271e+2, 98775.04, 95769.03, 51773.902, 0.009931364, -0.029997004, 149067.75, 149067.75, 0.00042645857, 10.000425, 10.000433 
9.2495024e+2, 1.2513186e+2, -1617120.8, -1604099.9, 123300.984, 0.32525313, -0.12442162, -1487137.5, 226574.08, 0.0000053718704, 10.00034, 10.0005865 
9.249589e+2, 1.3513426e+2, -1519834.8, -1498664.1, 75172.945, 0.14795624, 0.029477002, -1433334.9, 182351.64, 0.00000033393198, 10.000338, 10.000645 
9.249669e+2, 1.4513488e+2, -1490682.3, -1476347.9, 19404.898, -0.014392217, 0.053397134, -1462828.9, 54850.387, 0.0, 10.000043, 10.000258 
9.249762e+2, 1.551345e+2, -1446147.5, -1405082.4, -35233.78, -0.025037393, -0.033436675, -1384835.0, 34847.33, 0.0, 9.999679, 10.00025 
9.2498547e+2, 1.6513425e+2, -1444225.1, -1521202.5, -64512.934, -0.008457558, -0.0054940623, -1407591.9, -85905.734, 0.0, 9.999743, 9.99875 
9.249945e+2, 1.7513397e+2, -1268899.6, -1380465.9, -38616.633, 0.032189716, 0.074346706, -1256837.4, -33145.34, 0.0, 10.000256, 9.9987955 
9.250036e+2, 1.851334e+2, -1053253.9, -1088229.3, -65475.473, 0.13628031, 0.075518094, -1002970.94, 122727.06, 0.0, 10.000467, 10.000023 
9.250127e+2, 1.951323e+2, -967533.06, -994991.8, -88846.98, 0.29595613, -0.054144822, -891360.94, 136345.23, 0.0, 10.00038, 10.0000305 
9.250199e+2, 2.0513195e+2, -884905.0, -958704.25, -99058.375, 0.26338473, -0.06443342, -816096.8, 113610.72, 0.0, 10.000501, 9.9995575 
9.2502546e+2, 2.1513212e+2, -736651.1, -835213.0, -140752.03, 0.054143034, -0.022256095, -636802.06, 194902.31, 0.0, 10.000841, 9.999569 
9.2503196e+2, 2.2513156e+2, -717228.94, -955749.56, -161174.27, -0.025991816, 0.051583413, -635989.44, 97721.375, 0.0, 10.001088, 9.997943 
9.250394e+2, 2.351302e+2, -593660.8, -845728.25, -145640.38, 0.016524715, 0.102412045, -527092.3, 108635.51, 0.0, 10.001259, 9.997945 
9.25048e+2, 2.4512841e+2, -447955.94, -715490.2, -67911.16, 0.075797565, 0.12730737, -431704.5, 106043.54, 0.0, 10.001549, 9.998029 
9.250575e+2, 2.5512597e+2, -281172.03, -580945.4, -80977.945, 0.15306741, 0.0644799, -260696.03, 179077.45, 0.0, 10.002009, 9.998055 
9.2506635e+2, 2.651246e+2, -204185.89, -450227.7, -28815.074, 0.09879303, 0.10461322, -200856.28, 140931.31, 0.00000007319143, 10.001678, 9.998442 
9.250747e+2, 2.7512398e+2, -267891.3, -428127.1, -41142.457, -0.07242913, 0.17915727, -257944.89, -14151.775, 0.0000027897247, 10.000556, 9.998459 
9.250839e+2, 2.8512147e+2, -239982.0, -442669.94, -103391.29, -0.053410552, 0.11939892, -196549.05, -50731.082, 0.000020180585, 10.000418, 9.997753 
9.250939e+2, 2.9511708e+2, -17837.281, -277471.56, -89321.01, 0.15614146, -0.11253944, 9923.284, 57784.86, 0.00008284934, 10.001233, 9.997821 
9.251041e+2, 3.0511624e+2, 154478.95, 41949.17, -20101.209, 0.25229532, -0.0720674, 157961.83, 157961.83, 0.00022869528, 10.00117, 9.999714 
9.251116e+2, 3.1511718e+2, 38602.625, 50893.246, -135297.86, -0.0130740525, 0.03410816, 180185.28, 180185.28, 0.0004606453, 10.000059, 10.000308 
9.3494886e+2, 1.251265e+2, -1664181.0, -1678504.4, 97354.94, 0.10745659, 0.108760804, -1573724.8, 140038.7, 0.000009857008, 10.0002575, 10.00011 
9.3495953e+2, 1.3512695e+2, -1542240.5, -1549924.4, 80482.34, 0.16155005, 0.10311007, -1465508.5, 150246.83, 0.0000009955157, 10.00037, 10.000272 
9.349677e+2, 1.451262e+2, -1580406.3, -1674665.8, -5090.7427, 0.044913612, 0.07643657, -1580132.1, -62368.99, 0.00000000002439963, 10.000087, 9.998881 
9.3497545e+2, 1.551249e+2, -1545353.5, -1602768.9, -40649.77, -0.09231662, 0.03850953, -1524296.4, -104516.65, 0.0, 9.99964, 9.998916 
9.3498516e+2, 1.6512366e+2, -1383688.8, -1384421.9, -55359.563, -0.03142614, -0.016693976, -1328694.5, -6901.3003, 0.0, 9.999697, 9.99971 
9.349969e+2, 1.751223e+2, -1204839.1, -1246117.3, -10960.514, 0.22254804, -0.13915874, -1202109.4, 21695.205, 0.0, 10.00025, 9.999721 
9.350053e+2, 1.851229e+2, -1087868.3, -1152558.4, -75337.445, 0.24446799, -0.041725356, -1038225.94, 87572.62, 0.0, 10.000434, 9.999599 
9.3501073e+2, 1.9512507e+2, -1006957.44, -1062287.0, -84533.35, 0.044474922, 0.19694524, -945677.1, 82101.73, 0.0, 10.000318, 9.9996 
9.3501747e+2, 2.0512459e+2, -952896.9, -1087481.3, -96612.73, -0.046915162, 0.23690732, -902451.0, 27332.982, 0.0, 10.000443, 9.998703 
9.350255e+2, 2.1512142e+2, -811058.56, -970108.9, -120851.664, -0.03483309, 0.034126267, -745913.8, 85900.39, 0.0, 10.00075, 9.9986925 
9.350332e+2, 2.2511902e+2, -692111.8, -879658.75, -160184.02, -0.02669836, -0.063819304, -600271.75, 133564.66, 0.0, 10.000984, 9.998515 
9.350405e+2, 2.3511711e+2, -569606.0, -773651.25, -129750.51, -0.018106315, -0.123772554, -506571.66, 129281.516, 0.0, 10.001161, 9.998489 
9.3504846e+2, 2.4511588e+2, -466445.1, -738557.7, -58542.625, -0.04269687, -0.06295314, -454384.72, 83481.7, 0.0, 10.001483, 9.9979 
9.350572e+2, 2.5511512e+2, -300429.66, -608381.44, -55924.0, -0.08196547, 0.054599077, -290588.34, 149289.52, 0.0, 10.001949, 9.997899 
9.3506664e+2, 2.6511362e+2, -215640.52, -464339.25, -75403.63, -0.053085037, 0.09202997, -194564.73, 147330.67, 0.00000003612581, 10.001637, 9.998364 
9.350766e+2, 2.7511105e+2, -283772.9, -445940.66, -70416.71, 0.041743107, -0.016651796, -257464.47, -13542.888, 0.0000027030533, 10.000495, 9.998365 
9.3508613e+2, 2.8511012e+2, -204372.98, -363216.1, -77365.96, 0.107030205, 0.059806116, -172919.5, -26986.111, 0.000022488803, 10.000389, 9.998312 
9.3509525e+2, 2.9511082e+2, 15059.583, -208502.97, -45471.61, 0.15211643, 0.2770686, 23954.406, 71885.13, 0.000095232324, 10.001225, 9.998301 
9.3510485e+2, 3.0511025e+2, 24188.271, -226921.33, -63508.582, 0.19650573, 0.41528907, 39336.52, 39336.52, 0.0002574787, 10.001165, 9.997867 
9.351117e+2, 3.1510678e+2, -64995.258, -143814.83, -140404.0, -0.047896326, 0.25924322, 41425.035, 41425.035, 0.00050761335, 9.999978, 9.999005 
9.449484e+2, 1.251173e+2, -1623719.9, -1666352.1, -55903.12, 0.029379075, 0.16047826, -1585206.8, 128647.47, 0.000016753027, 10.000546, 10.000071 
9.4495916e+2, 1.3511685e+2, -1679429.0, -1622009.4, -76090.305, 0.14025664, 0.07342587, -1569392.8, 46461.207, 0.000002343361, 9.999449, 10.000231 
9.449678e+2, 1.4511603e+2, -1671553.6, -1725399.0, -45878.64, 0.07791586, 0.047774255, -1645281.6, -127419.04, 0.0000000053592455, 9.999498, 9.99881 
9.44976e+2, 1.5511525e+2, -1376705.6, -1531507.8, -2183.9036, -0.06086658, 0.06399343, -1376674.8, 43200.926, 0.0, 10.00084, 9.998824 
9.449858e+2, 1.6511445e+2, -1182890.8, -1256324.3, -1977.1052, 0.0059895734, 0.04378096, -1182837.6, 139047.66, 0.0, 10.00094, 9.9999895 
9.449974e+2, 1.7511351e+2, -1243327.6, -1232586.4, -27749.787, 0.2749288, -0.06525242, -1209692.3, 14199.813, 0.0, 9.999849, 10.000003 
9.450054e+2, 1.851138e+2, -1214748.8, -1225466.3, -70008.89, 0.25477353, -0.0068158833, -1149893.8, -24005.979, 0.0, 9.999619, 9.999486 
9.4501007e+2, 1.95115e+2, -1025072.1, -1085423.8, -66937.625, -0.043028098, 0.14593478, -981822.94, 46052.77, 0.0, 10.000253, 9.999473 
9.450171e+2, 2.0511429e+2, -932457.4, -1098412.8, -25249.932, -0.1359394, 0.17867938, -928700.6, 1182.4122, 0.0, 10.000686, 9.998502 
9.4502634e+2, 2.1511164e+2, -799214.4, -980493.06, -18326.613, -0.028015576, 0.047211926, -797380.2, 34529.484, 0.0, 10.0009165, 9.998527 
9.450347e+2, 2.2510931e+2, -651246.2, -830883.94, -30818.121, 0.02075397, -0.04951846, -646106.2, 87825.05, 0.0, 10.001137, 9.998779 
9.450421e+2, 2.3510705e+2, -522333.34, -716872.44, -37826.12, 0.01735658, -0.17218542, -515237.3, 120712.49, 0.0, 10.001345, 9.998787 
9.4505e+2, 2.4510598e+2, -473796.56, -727916.1, 48372.8, -0.030722242, -0.1147707, -464900.03, 73060.32, 0.0, 10.001365, 9.998033 
9.450585e+2, 2.5510594e+2, -400911.06, -638011.56, 57374.72, -0.10711605, 0.057329383, -387757.03, 52207.586, 0.0, 10.001177, 9.998066 
9.4506794e+2, 2.6510438e+2, -337462.0, -574637.5, 18655.234, -0.055483233, 0.10311717, -336003.63, 5980.3984, 0.000000027783642, 10.001026, 9.9979 
9.450781e+2, 2.7510098e+2, -251753.31, -479752.6, -21600.979, 0.12355389, -0.040390514, -249724.86, -5703.8257, 0.000002329391, 10.000928, 9.997925 
9.450873e+2, 2.8510028e+2, -90935.086, -276777.22, 7608.522, 0.16291519, 0.0654931, -90624.11, 55407.76, 0.000023981273, 10.001035, 9.998599 
9.450958e+2, 2.9510212e+2, 40102.844, -163869.19, 2267.1414, 0.07747596, 0.3679809, 40128.043, 88145.52, 0.000106754764, 10.001262, 9.99859 
9.451054e+2, 3.0510145e+2, -46315.85, -338209.03, -16934.152, 0.13785629, 0.5181722, -45336.703, -45336.703, 0.00028782972, 10.00103, 9.997172 
9.45113e+2, 3.1509712e+2, -41889.633, -172873.11, -30026.197, 0.07245206, 0.34794226, -35334.58, -35334.58, 0.0005617437, 10.00031, 9.998658 
9.54948e+2, 1.2510443e+2, -1602435.5, -1623501.4, -121189.84, -0.10197079, 0.046402562, -1491321.6, 222660.83, 0.00002677623, 10.000567, 10.000341 
9.549575e+2, 1.3510409e+2, -1670926.9, -1588382.1, -113368.81, 0.01213704, -0.05892261, -1509006.8, 106974.75, 0.0000047533053, 9.999389, 10.000482 
9.5496684e+2, 1.4510436e+2, -1592383.6, -1550015.8, -5776.7056, 0.0064323694, -0.04822105, -1549242.3, -31264.041, 0.000000046136613, 9.999447, 10.00004 
9.549774e+2, 1.5510552e+2, -1284857.1, -1351011.5, 55242.305, -0.020096837, 0.037706763, -1253546.3, 166424.03, 0.0, 10.000883, 10.000044 
9.5498705e+2, 1.6510668e+2, -1207992.9, -1315387.5, -51988.01, 0.01866821, 0.17783134, -1186949.6, 135011.86, 0.0, 10.000968, 9.999572 
9.5499593e+2, 1.7510769e+2, -1274664.3, -1294631.5, -60756.05, 0.12035772, 0.30226272, -1223077.0, 876.68024, 0.0, 9.999833, 9.999587 
9.550036e+2, 1.8510619e+2, -1200977.8, -1191125.1, -53713.47, 0.09460374, 0.18806069, -1142112.5, -16147.361, 0.0, 9.999591, 9.999737 
9.550104e+2, 1.951021e+2, -1014208.6, -1052154.5, -35649.11, -0.0487085, -0.21032251, -992798.0, 35198.75, 0.0, 10.000206, 9.999723 
9.550186e+2, 2.0510107e+2, -910975.8, -1039279.4, -25046.506, -0.0737633, -0.24342483, -906259.75, 23744.691, 0.0, 10.000619, 9.998943 
9.550278e+2, 2.1510279e+2, -785638.56, -928727.0, -1370.9706, 0.009653303, 0.017683424, -785625.44, 46365.594, 0.0, 10.00081, 9.998939 
9.550363e+2, 2.2510245e+2, -664593.75, -833672.1, -30815.512, 0.049740113, 0.09875392, -659152.5, 74842.94, 0.0, 10.001033, 9.998808 
9.550439e+2, 2.3509987e+2, -537261.9, -726238.06, -21293.129, 0.05178988, -0.054593433, -534892.4, 101126.99, 0.0, 10.0012455, 9.9987755 
9.5505214e+2, 2.4509864e+2, -454273.88, -665016.6, 35495.78, 0.03414354, -0.03939313, -448455.88, 89575.33, 0.0, 10.001278, 9.998501 
9.55061e+2, 2.550985e+2, -380386.0, -582171.06, 58518.61, 0.0044459198, 0.07840525, -364643.5, 75389.77, 0.0, 10.001119, 9.998477 
9.5506996e+2, 2.6509687e+2, -406389.7, -703851.8, 8398.418, 0.026870513, 0.1441777, -406152.75, -64099.19, 0.000000030362223, 10.000971, 9.997037 
9.5507884e+2, 2.750936e+2, -322991.28, -613518.1, -13960.783, 0.09583704, 0.09806163, -322321.97, -78228.45, 0.000002140531, 10.00087, 9.997035 
9.550873e+2, 2.850917e+2, -93465.98, -271004.78, 9935.897, 0.039598867, 0.12644649, -92911.65, 53204.086, 0.000025889522, 10.000989, 9.998657 
9.550951e+2, 2.950911e+2, 35860.285, -161064.45, 20252.277, -0.13509852, 0.17693411, 37921.51, 86042.53, 0.000117742304, 10.001211, 9.998632 
9.551053e+2, 3.0509007e+2, -22933.305, -280708.72, -45474.94, 0.016236046, 0.26957378, -15146.173, -15146.173, 0.00031737162, 10.000991, 9.997589 
9.5511484e+2, 3.1508845e+2, -1049.7043, -79946.45, -22143.785, 0.1934449, 0.32679555, 4740.416, 4740.416, 0.0006187078, 10.000275, 9.999315 
9.6494853e+2, 1.2509385e+2, -1762940.4, -1727469.1, 54834.62, -0.04515366, -0.043434594, -1687573.3, 26510.123, 0.000040530904, 9.999566, 10.000118 
9.649572e+2, 1.3509397e+2, -1465480.9, -1507373.1, 161.7181, -0.022187423, -0.08613722, -1465480.3, 150599.16, 0.000008656152, 10.000867, 10.000327 
9.6496665e+2, 1.4509453e+2, -1394557.9, -1416388.1, 82894.586, -0.005520055, -0.057460207, -1321862.9, 196211.02, 0.00000019058375, 10.000655, 10.000368 
9.6497786e+2, 1.550956e+2, -1504457.4, -1418861.4, 52952.86, 0.023656402, -0.007389396, -1393573.5, 26492.234, 0.0, 9.999231, 10.000367 
9.6498734e+2, 1.6509698e+2, -1476362.5, -1444581.1, -57254.91, 0.04822675, 0.13590169, -1401052.6, -78997.59, 0.0, 9.999136, 9.999564 
9.649954e+2, 1.7509839e+2, -1198045.6, -1260192.0, -49988.53, 0.06592715, 0.301998, -1170259.8, 53784.17, 0.0, 10.000373, 9.999562 
9.6500325e+2, 1.8509686e+2, -1045025.3, -1126082.6, -26750.252, 0.048132118, 0.19085446, -1036993.2, 89062.49, 0.0, 10.000697, 9.99966 
9.6501106e+2, 1.9509235e+2, -1031009.4, -1069173.3, -48772.258, 0.0002511073, -0.24180353, -997719.06, 30372.023, 0.0, 10.000123, 9.999653 
9.6501976e+2, 2.0509133e+2, -973508.75, -1030265.1, -27904.367, 0.017275972, -0.28833705, -962087.75, -31989.602, 0.0, 10.000032, 9.999281 
9.6502924e+2, 2.1509348e+2, -815119.06, -905054.4, -28690.813, 0.09492647, -0.019395523, -806745.8, 25333.936, 0.0, 10.000451, 9.999268 
9.650376e+2, 2.2509356e+2, -722812.5, -895104.6, -60037.668, 0.10126952, 0.10355708, -703955.44, 30125.582, 0.0, 10.000777, 9.998512 
9.650449e+2, 2.3509146e+2, -589849.0, -776470.25, -88041.74, 0.050259423, 0.026084602, -554870.0, 81232.8, 0.0, 10.001003, 9.998542 
9.650533e+2, 2.4508998e+2, -467899.66, -656383.56, -48981.066, 0.04050472, 0.021498742, -455931.0, 82186.5, 0.0, 10.001113, 9.998645 
9.6506286e+2, 2.5508898e+2, -369859.38, -558373.9, -62858.7, 0.08414901, 0.03998813, -350822.13, 89304.37, 0.0, 10.001122, 9.998636 
9.650716e+2, 2.650875e+2, -360046.34, -637084.75, -60311.453, 0.09868632, 0.09085456, -347485.97, -5342.2056, 0.000000012060779, 10.001082, 9.997446 
9.650796e+2, 2.7508527e+2, -284000.44, -549975.4, -3692.5457, 0.084331244, 0.10596229, -283949.2, -39777.617, 0.0000023356135, 10.000932, 9.997443 
9.650879e+2, 2.8508317e+2, -122889.65, -330058.78, 80322.805, 0.006960633, 0.11509519, -95395.93, 50798.473, 0.000028869204, 10.000983, 9.998251 
9.650963e+2, 2.950812e+2, 6003.88, -221517.42, 34905.473, -0.12329975, 0.0720275, 11238.513, 59451.066, 0.00012890252, 10.001213, 9.998214 
9.6510655e+2, 3.050793e+2, 18892.684, -258984.17, -70364.914, 0.04151686, 0.09790518, 35694.77, 35694.77, 0.00034520676, 10.001263, 9.997603 
9.651159e+2, 3.1507823e+2, 94274.1, -26931.975, -100230.75, 0.2472439, 0.20281337, 150798.9, 150798.9, 0.0006746709, 10.000911, 9.999359 
9.749494e+2, 1.250855e+2, -1801661.9, -1805629.1, 78780.49, 0.03820954, -0.1161111, -1724840.1, -10682.44, 0.000058506626, 9.999559, 9.99958 
9.7495794e+2, 1.3508667e+2, -1496616.1, -1574989.4, 51061.348, -0.0460918, -0.0054506552, -1471437.8, 144708.58, 0.00001444443, 10.000887, 9.999848 
9.749672e+2, 1.4508674e+2, -1436250.1, -1513367.3, 19584.236, -0.04844219, 0.02910995, -1431561.6, 86585.82, 0.0000005546723, 10.000694, 9.999687 
9.749771e+2, 1.5508567e+2, -1556097.9, -1522199.4, 8569.439, 0.0037539392, -0.06700492, -1520156.3, -99995.11, 0.0, 9.999211, 9.99967 
9.749865e+2, 1.6508533e+2, -1451763.6, -1387439.6, -21820.191, 0.028453592, -0.079400726, -1380736.3, -58570.438, 0.0, 9.999105, 9.999972 
9.7499573e+2, 1.7508559e+2, -1168279.0, -1202212.3, 782.68463, 0.04221697, -0.06885818, -1168260.9, 55902.004, 0.0, 10.000386, 9.999955 
9.750041e+2, 1.850858e+2, -1074232.9, -1183938.3, -54757.945, 0.04277511, -0.0042772396, -1051579.1, 74580.56, 0.0, 10.000684, 9.999268 
9.7501165e+2, 1.9508576e+2, -1066024.0, -1130534.8, -61377.836, 0.03211653, 0.048101075, -1028942.2, -783.74335, 0.0, 10.000072, 9.999256 
9.7502047e+2, 2.050851e+2, -970100.8, -1007087.8, -21112.244, 0.0690683, 0.047179636, -960527.7, -30364.143, 0.0, 9.999959, 9.999477 
9.750304e+2, 2.1508361e+2, -815396.7, -885315.44, -6343.892, 0.15027615, -0.066172495, -814825.75, 17350.879, 0.0, 10.00036, 9.99945 
9.750385e+2, 2.2508256e+2, -775540.1, -980891.06, -60187.563, 0.10150004, -0.038150314, -759199.6, -25011.244, 0.0, 10.000676, 9.997971 
9.750449e+2, 2.3508176e+2, -646524.5, -867421.3, -71743.375, -0.06737355, 0.06712026, -625268.9, 10931.767, 0.0, 10.000887, 9.997973 
9.750534e+2, 2.4508007e+2, -486508.1, -680937.9, -56106.617, -0.079976425, 0.07750587, -471479.13, 66739.805, 0.0, 10.001048, 9.998509 
9.750639e+2, 2.5507733e+2, -386235.5, -581274.9, -52979.086, 0.05708628, -0.063251205, -372773.78, 67471.11, 0.0, 10.001066, 9.998509 
9.7507274e+2, 2.6507604e+2, -251298.55, -393891.2, -70779.58, 0.08807307, -0.073125064, -222131.38, 120124.86, 0.0000000034767167, 10.001015, 9.9991455 
9.7508e+2, 2.7507597e+2, -175005.44, -309681.3, 1507.2906, 0.0141485585, -0.013918351, -174988.58, 69266.66, 0.0000028342504, 10.000876, 9.999118 
9.7508895e+2, 2.8507474e+2, -188352.55, -459547.1, 82551.23, -0.0062834076, 0.043754388, -165200.56, -18933.164, 0.000032313746, 10.0009575, 9.997376 
9.750992e+2, 2.950723e+2, -61353.61, -351666.2, 57574.74, 0.015854055, 0.045029555, -50352.29, -2058.8105, 0.00013997531, 10.001173, 9.997341 
9.751088e+2, 3.0506888e+2, -26151.266, -332729.44, -86647.78, 0.12778902, -0.015502367, -3356.9, -3356.9, 0.00037147623, 10.001183, 9.997134 
9.7511554e+2, 3.150664e+2, 38314.28, -119134.38, -80403.89, 0.08150934, -0.0039559547, 72116.86, 72116.86, 0.0007275027, 10.0008135, 9.998767 
9.849499e+2, 1.2507676e+2, -1647320.0, -1702768.3, -39792.863, 0.09120718, -0.04449299, -1626545.8, 87700.164, 0.00008108169, 10.000501, 9.999833 
9.849583e+2, 1.350777e+2, -1709186.0, -1654676.1, -42168.742, -0.0138294725, 0.02359857, -1631721.1, -15486.102, 0.000022462764, 9.99932, 10.000062 
9.8496747e+2, 1.4507765e+2, -1681665.1, -1651464.5, -23874.01, -0.0024770414, 0.046154555, -1638316.1, -120079.46, 0.0000013019285, 9.999085, 9.999517 
9.849767e+2, 1.5507664e+2, -1453461.4, -1488385.3, -14126.899, 0.011762483, -0.030713817, -1448462.5, -28212.096, 0.0, 9.999981, 9.999527 
9.849859e+2, 1.6507609e+2, -1277523.4, -1275414.6, 18434.889, 0.0050515705, -0.06965278, -1258004.0, 64252.31, 0.0, 10.000185, 10.000218 
9.8499525e+2, 1.7507587e+2, -1247197.4, -1209616.4, 12406.263, -0.006723419, -0.13066004, -1205890.3, 18365.379, 0.0, 9.999723, 10.000217 
9.8500407e+2, 1.8507625e+2, -1187184.8, -1240954.6, -34502.754, 0.016203169, -0.062282536, -1170329.1, -44078.35, 0.0, 9.999924, 9.999241 
9.8501235e+2, 1.9507703e+2, -973874.56, -1089116.9, -31537.59, 0.06441797, 0.073522046, -965808.44, 62435.484, 0.0, 10.000724, 9.999225 
9.8502123e+2, 2.0507649e+2, -827100.8, -949582.3, 26721.97, 0.10704846, 0.092524305, -821524.75, 108724.1, 0.0, 10.000978, 9.999392 
9.8503083e+2, 2.1507448e+2, -780581.56, -877014.2, 5079.8735, 0.14628968, -0.06402934, -780314.7, 51952.38, 0.0, 10.000632, 9.99938 
9.8503906e+2, 2.2507322e+2, -730828.4, -912524.06, 8667.779, 0.08667107, -0.07632659, -730415.8, 3863.9705, 0.0, 10.0007715, 9.998395 
9.850461e+2, 2.3507251e+2, -548044.06, -772993.2, 54759.03, -0.060182083, -0.004253077, -535422.3, 100866.32, 0.0, 10.001354, 9.998397 
9.8505443e+2, 2.4507123e+2, -511119.84, -680154.9, 88425.52, -0.06795936, 0.021180995, -473316.97, 64985.434, 0.0, 10.000839, 9.998609 
9.85064e+2, 2.550692e+2, -635598.44, -690749.8, 90400.9, 0.057716276, -0.060659043, -568660.94, -128337.83, 0.0, 9.999312, 9.998601 
9.850728e+2, 2.6506788e+2, -493435.6, -498498.34, 86386.54, 0.0848826, -0.08220255, -409543.34, -67209.07, 0.00000001775074, 9.999298, 9.999261 
9.8508096e+2, 2.7506715e+2, -191059.95, -305789.4, 25309.123, 0.027984967, -0.09711557, -185724.89, 58612.62, 0.000003544514, 10.000713, 9.999231 
9.8509026e+2, 2.85066e+2, -160203.73, -435498.4, 69662.484, 0.032616552, -0.039510857, -143579.72, 2768.3037, 0.00003520851, 10.001099, 9.9974785 
9.851007e+2, 2.9506436e+2, -154484.84, -386119.75, 99905.766, 0.097267926, 0.025980264, -117348.56, -68981.08, 0.00014919741, 10.000481, 9.99744 
9.8511016e+2, 3.0506074e+2, -93135.88, -299323.56, 61279.484, 0.18702272, -0.08824724, -76298.43, -76298.43, 0.00039500848, 10.000436, 9.997722 
9.8511666e+2, 3.1505802e+2, 60554.99, -59477.523, 118065.86, 0.1173815, -0.16088668, 132983.05, 132983.05, 0.0007743285, 10.000731, 9.999227 
9.949494e+2, 1.2506774e+2, -1577939.4, -1560779.5, -108429.67, -0.051091284, 0.1873898, -1460590.9, 253756.27, 0.000108580556, 10.000516, 10.000797 
9.949581e+2, 1.3506714e+2, -1645990.1, -1517444.3, -83191.82, 0.017643914, 0.003920812, -1476589.1, 139755.81, 0.000033028722, 9.9993, 10.001012 
9.9496746e+2, 1.4506744e+2, -1658868.9, -1601244.0, -2529.718, 0.064177014, -0.0021623918, -1601133.3, -82792.914, 0.0000026281716, 9.999067, 9.999874 
9.9497646e+2, 1.5506867e+2, -1421958.3, -1430860.0, 27343.084, -0.03383342, 0.10644664, -1398706.1, 21626.553, 0.00000000019976186, 10.000008, 9.999912 
9.9498516e+2, 1.6506934e+2, -1270529.6, -1262489.0, -8106.0986, -0.10593663, 0.16560882, -1257461.0, 64864.9, 0.0, 10.000193, 10.000302 
9.9499375e+2, 1.7506924e+2, -1240943.0, -1197379.1, 1976.6981, -0.14258692, 0.109176524, -1197289.6, 27032.533, 0.0, 9.999722, 10.000304 
9.95003e+2, 1.8506819e+2, -1172262.6, -1201572.8, -13478.871, -0.0977699, 0.0153543735, -1167006.6, -40677.527, 0.0, 9.999888, 9.999529 
9.950128e+2, 1.9506605e+2, -957183.06, -1047317.75, 5398.8545, 0.02345806, -0.1698663, -956860.8, 71487.23, 0.0, 10.0006895, 9.999529 
9.9502194e+2, 2.0506541e+2, -864411.1, -1005795.4, 3768.815, 0.060265236, -0.15737465, -864310.75, 66043.914, 0.0, 10.00089, 9.999047 
9.950303e+2, 2.1506609e+2, -819029.6, -931117.1, -58.363117, 0.016389946, -0.012781813, -819029.56, 13321.457, 0.0, 10.000523, 9.999062 
9.95039e+2, 2.2506557e+2, -651870.56, -716754.5, 23531.74, -0.0056993836, -0.0043853875, -644234.8, 90119.73, 0.0, 10.00064, 9.9998 
9.950481e+2, 2.3506372e+2, -466816.13, -575674.5, 83250.76, -0.0076418733, -0.1872276, -421780.6, 214586.16, 0.0, 10.001237, 9.9998045 
9.950561e+2, 2.4506341e+2, -502109.13, -645648.6, 21683.576, -0.00025536303, -0.15007238, -498905.03, 39463.637, 0.0, 10.000767, 9.998881 
9.950631e+2, 2.550644e+2, -625679.8, -656360.4, 41014.62, 0.01483393, 0.044032063, -597230.56, -156868.19, 0.0, 9.9992485, 9.998869 
9.950717e+2, 2.6506293e+2, -603252.94, -714584.4, 132424.14, 0.026936205, 0.065776, -515270.38, -172891.95, 0.000000028595345, 9.9992485, 9.9978 
9.9508184e+2, 2.7505884e+2, -304297.0, -521146.3, 88489.4, 0.030800095, -0.14035106, -272770.66, -28352.393, 0.000003781716, 10.000632, 9.997789 
9.950916e+2, 2.85057e+2, -95294.77, -285469.7, 39645.848, 0.039530184, -0.13520521, -87360.79, 59075.836, 0.000036350866, 10.001029, 9.998544 
9.95101e+2, 2.9505733e+2, -81638.15, -226684.81, 88081.57, 0.051976874, 0.019428976, -40065.047, 8369.776, 0.00015454051, 10.000448, 9.9985485 
9.951105e+2, 3.0505484e+2, 12196.279, -72589.305, 69260.23, 0.16145314, -0.11465451, 51007.723, 51007.723, 0.00041140616, 10.000406, 9.999292 
9.951183e+2, 3.15053e+2, 136166.53, 142246.36, 151240.03, 0.17846996, -0.25595996, 290477.03, 290477.03, 0.0008072484, 10.000561, 10.000688 
1.0049495e+3, 1.250588e+2, -1664794.3, -1600268.3, 91213.695, -0.04870416, 0.1784752, -1535779.8, 178654.45, 0.00014134821, 9.999918, 10.000808 
1.0049581e+3, 1.3505821e+2, -1445530.8, -1417683.6, 17773.773, 0.022836927, -0.0061544287, -1409029.1, 207402.73, 0.000046426092, 10.000674, 10.001024 
1.0049678e+3, 1.4505848e+2, -1380297.0, -1478171.6, 96809.1, 0.10052311, -0.009989206, -1320759.1, 197668.05, 0.00000474816, 10.00105, 9.999753 
1.004977e+3, 1.5505973e+2, -1266895.3, -1372782.8, 63981.39, -0.031381786, 0.11592374, -1236792.9, 183626.39, 0.000000004412824, 10.001154, 9.999759 
1.0049856e+3, 1.650603e+2, -1209860.5, -1242690.8, -30255.527, -0.0991459, 0.17848967, -1191853.9, 130560.055, 0.0, 10.000639, 10.000234 
1.0049938e+3, 1.750601e+2, -1274421.4, -1219954.9, -47375.38, -0.09855673, 0.11585403, -1192543.1, 31869.697, 0.0, 9.9995165, 10.000254 
1.005003e+3, 1.8505934e+2, -1242026.4, -1154989.1, 13173.668, -0.04563074, 0.020615064, -1153039.0, -26622.602, 0.0, 9.999071, 10.000237 
1.00501314e+3, 1.9505794e+2, -1114363.0, -1045339.06, 45393.27, 0.05536471, -0.16004004, -1022828.06, 5597.9673, 0.0, 9.999287, 10.000215 
1.0050221e+3, 2.0505753e+2, -1036344.0, -1092093.0, 70889.09, 0.055702355, -0.15987699, -988046.0, -57616.074, 0.0, 9.999718, 9.999017 
1.00503005e+3, 2.150579e+2, -855388.44, -953688.75, 72411.805, -0.04471771, -0.0435626, -817021.7, 15408.259, 0.0, 10.000291, 9.999017 
1.00503914e+3, 2.2505762e+2, -658423.8, -678855.44, 85183.81, -0.04413388, -0.027223319, -582845.44, 151585.5, 0.0, 10.000422, 10.000168 
1.00504935e+3, 2.3505649e+2, -605791.4, -605109.44, 49334.773, 0.05440632, -0.17280032, -556114.44, 80320.66, 0.0, 10.000117, 10.000148 
1.0050575e+3, 2.4505624e+2, -587568.06, -716157.25, -78362.52, 0.08650678, -0.13166565, -550499.56, -12063.042, 0.0, 10.000297, 9.998628 
1.0050635e+3, 2.5505674e+2, -399402.63, -573638.7, -114290.98, 0.059428383, 0.036373977, -342812.7, 97623.89, 0.0, 10.000917, 9.9986315 
1.005072e+3, 2.6505524e+2, -380721.4, -582924.2, 56452.32, 0.061546188, 0.057909355, -366028.34, -23575.303, 0.000000017098808, 10.000686, 9.998003 
1.0050824e+3, 2.7505153e+2, -440657.9, -564557.94, 115353.66, 0.086697824, -0.12464833, -371671.78, -127183.945, 0.000003428396, 9.999605, 9.99798 
1.0050922e+3, 2.8504986e+2, -309363.56, -349761.4, 114281.695, 0.08653739, -0.1330099, -213509.48, -67004.945, 0.00003625069, 9.999386, 9.998895 
1.00510135e+3, 2.9505002e+2, -132163.94, -215601.53, 91945.66, 0.0734709, -0.029753197, -72915.11, -24410.367, 0.00015742959, 9.999929, 9.998882 
1.0051108e+3, 3.0504826e+2, 28107.678, 15932.783, 29943.555, 0.16445637, -0.14693472, 52576.3, 52576.3, 0.00042159262, 10.000161, 10.000022 
1.00511886e+3, 3.150479e+2, 84867.8, 164076.03, 15416.1045, 0.22017303, -0.20680532, 166970.66, 166970.66, 0.0008274756, 9.999975, 10.001134 
1.01494975e+3, 1.2505007e+2, -1730591.0, -1742147.9, 93876.94, -0.059421826, -0.07910156, -1642314.9, 72190.984, 0.0001798155, 9.999933, 9.999828 
1.01495795e+3, 1.35051e+2, -1507637.5, -1557496.5, 52491.2, -0.082306325, -0.016649716, -1474456.8, 142037.83, 0.000062927356, 10.000709, 10.0000515 
1.0149682e+3, 1.4505085e+2, -1429938.5, -1582758.0, 91169.67, 0.019686434, 0.020758329, -1387393.0, 131103.6, 0.000007860604, 10.001057, 9.999032 
1.01497814e+3, 1.5504986e+2, -1321567.9, -1482808.3, 75508.8, -0.050288245, -0.0015190276, -1291729.0, 128780.53, 0.000000028517778, 10.0011425, 9.999007 
1.014987e+3, 1.6504912e+2, -1222666.6, -1271779.0, -82446.16, -0.04399865, -0.024731701, -1161197.4, 161321.84, 0.0, 10.000646, 10.000031 
1.01499505e+3, 1.7504844e+2, -1285527.9, -1248237.1, -82432.1, 0.05573586, -0.11378472, -1182368.0, 42159.008, 0.0, 9.999533, 10.000053 
1.0150037e+3, 1.8504974e+2, -1169586.1, -999008.06, 12421.854, 0.1013934, -0.050249845, -998108.25, 128404.02, 0.0, 9.999045, 10.001322 
1.01501286e+3, 1.9505271e+2, -1047343.3, -892695.7, 60825.645, 0.089412265, 0.097453244, -871639.0, 156838.8, 0.0, 9.999222, 10.001295 
1.0150216e+3, 2.0505278e+2, -1032819.7, -1061519.3, 84006.72, 0.017974678, 0.080052845, -961946.0, -31471.207, 0.0, 9.99962, 9.999272 
1.0150298e+3, 2.1504986e+2, -849333.3, -922218.3, 99847.33, -0.111432076, -0.15799214, -779485.9, 53018.26, 0.0, 10.000212, 9.9992695 
1.0150391e+3, 2.2504929e+2, -723470.56, -787291.7, 64813.1, -0.09925239, -0.14913255, -683138.3, 51371.188, 0.0, 10.000309, 9.9994755 
1.0150496e+3, 2.3505083e+2, -669466.0, -712443.25, 46423.824, 0.05107218, 0.03959685, -639798.6, -3305.4846, 0.0, 10.00001, 9.99946 
1.0150583e+3, 2.4504985e+2, -659912.44, -839386.5, -62892.863, 0.122718714, 0.08114488, -640067.4, -101562.91, 0.0, 10.000187, 9.997832 
1.0150652e+3, 2.5504622e+2, -464892.53, -693473.94, -81513.55, 0.11285946, -0.0832502, -438802.25, 1742.4509, 0.0, 10.000851, 9.99784 
1.0150733e+3, 2.6504478e+2, -260834.73, -324745.56, 10889.598, 0.11379491, -0.107388936, -259030.23, 83527.914, 0.000000011022683, 10.000641, 9.9998 
1.0150827e+3, 2.750453e+2, -319246.66, -303079.4, 87509.445, 0.12427073, -0.050180484, -223281.03, 21265.53, 0.0000031084232, 9.999563, 9.999796 
1.01509206e+3, 2.8504464e+2, -342196.88, -409063.28, 127965.54, 0.11045617, -0.027296249, -243369.13, -96817.27, 0.000035475467, 9.999354, 9.998498 
1.01510145e+3, 2.9504263e+2, -174466.3, -279360.5, 124364.164, 0.06956604, -0.10041423, -91942.5, -43367.03, 0.00015859005, 9.99984, 9.99848 
1.01511054e+3, 3.0504102e+2, 15792.458, -2795.4136, 20959.215, 0.10531252, -0.17683513, 29425.928, 29425.928, 0.00042792628, 10.000124, 9.999914 
1.015118e+3, 3.150429e+2, 39540.098, 95329.875, 35748.24, 0.08895015, -0.003646085, 112778.805, 112778.805, 0.00084052904, 9.999876, 10.000704 
1.0249503e+3, 1.2504156e+2, -1715451.3, -1797433.9, 35933.82, -0.00781803, -0.18862808, -1701930.9, 12649.343, 0.00022439056, 10.000296, 9.999283 
1.02495864e+3, 1.3504243e+2, -1469887.1, -1604338.5, 5498.3657, -0.1013088, -0.07190816, -1469662.6, 146911.2, 0.0000828242, 10.001239, 9.999484 
1.0249694e+3, 1.45042e+2, -1415744.9, -1559444.6, 61549.484, 0.028889956, -0.041902244, -1392986.4, 125593.26, 0.000012107546, 10.001073, 9.999188 
1.0249789e+3, 1.5504073e+2, -1479820.8, -1540331.1, 97462.18, -0.026938867, -0.111680955, -1408025.6, 12567.732, 0.00000009714164, 9.999967, 9.99918 
1.0249874e+3, 1.6504014e+2, -1374546.0, -1344445.6, 7524.1343, -0.008918471, -0.12740207, -1342669.6, -20067.719, 0.0, 9.999611, 10.000025 
1.0249954e+3, 1.7504013e+2, -1204987.1, -1208078.8, 4984.5835, 0.10680025, -0.14907223, -1201314.3, 23291.701, 0.0, 10.000088, 10.000058 
1.02500364e+3, 1.8504179e+2, -975987.56, -912171.2, 97057.11, 0.13635996, -0.049507275, -841911.8, 284677.56, 0.0, 10.000393, 10.001272 
1.0250124e+3, 1.950448e+2, -861866.94, -807585.3, 45306.56, 0.06823188, 0.10862184, -781912.25, 246642.34, 0.0, 10.000512, 10.001259 
1.02502145e+3, 2.0504488e+2, -908273.8, -977952.2, 38195.914, 0.0071334606, 0.08340446, -891414.9, 39136.227, 0.0, 10.00039, 9.999474 
1.0250306e+3, 2.150419e+2, -861868.75, -907888.1, 30717.521, -0.040748306, -0.17646854, -846498.6, -13918.776, 0.0, 10.000048, 9.999448 
1.0250401e+3, 2.250412e+2, -780040.75, -843069.0, 18570.4, -0.015026452, -0.17559981, -774976.2, -40389.43, 0.0, 10.000039, 9.999224 
1.0250499e+3, 2.350426e+2, -650522.2, -731773.56, 16751.176, 0.082589604, 0.027063664, -647204.2, -10630.358, 0.0, 10.00027, 9.999203 
1.0250586e+3, 2.4504153e+2, -567699.5, -751846.44, 3699.2905, 0.12092843, 0.053269804, -567625.25, -29039.365, 0.0, 10.000647, 9.998203 
1.0250659e+3, 2.5503784e+2, -403761.2, -623495.0, 49583.977, 0.09517602, -0.1546629, -393090.53, 47533.934, 0.0, 10.001104, 9.998193 
1.0250738e+3, 2.6503667e+2, -187086.67, -271785.63, 90074.05, 0.092056185, -0.17343102, -129903.17, 212731.25, 0.00000001218603, 10.001059, 9.999969 
1.02508254e+3, 2.750379e+2, -177759.16, -213001.48, 29640.62, 0.12072715, -0.06831522, -160897.39, 83720.34, 0.0000027111198, 10.000441, 9.999991 
1.025092e+3, 2.850376e+2, -164926.72, -301525.56, 100967.97, 0.12214833, -0.03101979, -111327.234, 35292.55, 0.00003356273, 10.000493, 9.99868 
1.02510214e+3, 2.9503548e+2, 31691.555, -160033.98, 117163.54, 0.09582209, -0.12733856, 87212.29, 135855.08, 0.00015687123, 10.001177, 9.998652 
1.0251111e+3, 3.0503386e+2, 153348.31, 22918.39, 9229.799, 0.102642395, -0.19176212, 153998.2, 153998.2, 0.0004299211, 10.001261, 9.999537 
1.0251179e+3, 3.1503573e+2, 103445.28, 61648.02, -31130.545, 0.06894717, 0.01344817, 120041.5, 120041.5, 0.00084804866, 10.00059, 10.000127 
1.0349507e+3, 1.250334e+2, -1726087.8, -1818145.9, 33368.832, -0.043826383, -0.13646479, -1715264.8, -608.4011, 0.00027553758, 10.000299, 9.999135 
1.0349601e+3, 1.3503261e+2, -1490747.8, -1637728.6, 44602.707, -0.09978679, -0.16475025, -1478271.8, 138397.13, 0.000106410545, 10.001208, 9.999267 
1.0349708e+3, 1.4503205e+2, -1335514.4, -1399598.9, 8445.236, 0.046397865, -0.19000068, -1334420.1, 184255.47, 0.000017580353, 10.001094, 10.000278 
1.03497885e+3, 1.5503232e+2, -1400487.1, -1378438.5, 62838.805, -0.037268296, -0.21585561, -1325664.3, 95006.336, 0.00000023822265, 9.99997, 10.000295 
1.0349866e+3, 1.6503343e+2, -1363159.5, -1314533.8, 14354.114, -0.06902534, -0.12728666, -1310612.6, 12048.356, 0.0, 9.99959, 10.000237 
1.03499435e+3, 1.7503521e+2, -1198067.8, -1185404.8, 30615.504, -0.014599382, 0.009133622, -1160472.9, 64175.848, 0.0, 10.000056, 10.000228 
1.03500284e+3, 1.8503554e+2, -1063276.3, -1086234.5, 92390.62, -0.01607646, 0.030712573, -981654.4, 144992.06, 0.0, 10.000361, 10.0000925 
1.0350117e+3, 1.9503427e+2, -950624.7, -981724.0, 55099.86, -0.079956375, -0.1252647, -908922.4, 119733.41, 0.0, 10.000465, 10.000086 
1.0350215e+3, 2.050338e+2, -915123.1, -971774.25, 15474.991, -0.043884736, -0.1502361, -911171.56, 19487.201, 0.0, 10.000299, 9.999559 
1.0350321e+3, 2.1503393e+2, -866227.9, -899523.5, 26925.43, 0.09631024, -0.10971433, -851219.25, -18561.857, 0.0, 9.999968, 9.999544 
1.0350417e+3, 2.250333e+2, -787111.7, -830372.8, 19249.012, 0.13796744, -0.11537707, -779787.06, -45123.754, 0.0, 9.999924, 9.999367 
1.0350503e+3, 2.3503177e+2, -651305.75, -713320.7, 34097.383, 0.07285192, -0.22137968, -636225.3, 452.1834, 0.0, 10.000182, 9.999371 
1.0350582e+3, 2.4503122e+2, -483177.06, -550584.6, 14247.299, 0.0057227775, -0.22328623, -480289.47, 58392.094, 0.0, 10.000537, 9.999639 
1.03506565e+3, 2.5503147e+2, -312870.2, -420235.63, 76536.5, -0.060031306, -0.18163297, -273066.72, 167610.4, 0.0, 10.001039, 9.999623 
1.0350735e+3, 2.6503095e+2, -292437.97, -475331.5, 57947.902, -0.064713694, -0.1403486, -275623.63, 67059.05, 0.00000000560088, 10.001, 9.998595 
1.0350819e+3, 2.7502945e+2, -287958.94, -420582.63, 16751.377, -0.009960439, -0.16976301, -285875.84, -41175.324, 0.0000022721786, 10.00036, 9.998601 
1.0350918e+3, 2.8502867e+2, -122814.89, -202976.89, 120124.44, 0.038059793, -0.14259054, -36261.113, 110447.3, 0.000031159278, 10.0004425, 9.999382 
1.0351034e+3, 2.950286e+2, 70129.08, -62584.973, 157456.84, 0.076191425, -0.10920777, 174640.17, 223346.77, 0.00015252481, 10.001104, 9.999355 
1.0351123e+3, 3.050269e+2, 96668.0, -88364.1, -19922.633, 0.08561685, -0.18121149, 98788.79, 98788.79, 0.00042681675, 10.001234, 9.998783 
1.035118e+3, 3.1502655e+2, 28228.89, -60114.098, -31195.209, -0.020953448, -0.12021039, 38133.844, 38133.844, 0.0008482355, 10.000464, 9.99934 
1.0449519e+3, 1.2502414e+2, -1754347.9, -1790552.5, 44882.605, 0.07442311, -0.17463262, -1724054.5, -9308.384, 0.0003338259, 9.999913, 9.9995165 
1.04496084e+3, 1.3502409e+2, -1613584.9, -1660728.5, 87313.88, -0.09276142, -0.16454688, -1546717.0, 70034.76, 0.00013404706, 10.000192, 9.999602 
1.0449714e+3, 1.4502405e+2, -1432012.9, -1372508.1, 33546.938, 0.04650166, -0.1877661, -1357420.8, 161331.75, 0.000024406929, 10.00012, 10.000932 
1.044979e+3, 1.5502495e+2, -1366210.8, -1284214.5, 31508.695, -0.0149370665, -0.21523835, -1273505.4, 147234.31, 0.0000004785213, 9.999884, 10.000977 
1.0449865e+3, 1.650263e+2, -1284312.8, -1278990.9, 24359.5, -0.061815858, -0.13680318, -1257147.4, 65578.98, 0.0, 10.000137, 10.000219 
1.0449943e+3, 1.7502789e+2, -1075196.3, -1127247.8, 9601.858, -0.070418924, -0.01841727, -1073481.5, 151233.3, 0.0, 10.0009, 10.000218 
1.0450027e+3, 1.8502772e+2, -1020321.3, -1121450.8, 71033.35, -0.07755316, -0.02093326, -983693.56, 143024.66, 0.0, 10.000907, 9.999586 
1.04501195e+3, 1.9502573e+2, -1027034.4, -1074380.1, 65892.516, -0.08636056, -0.19764483, -980691.3, 48046.61, 0.0, 10.000192, 9.99958 
1.04502186e+3, 2.0502533e+2, -937494.75, -975244.3, 81169.49, -0.018807774, -0.19396903, -873034.44, 57707.086, 0.0, 10.000108, 9.999631 
1.04503274e+3, 2.1502627e+2, -772629.06, -845475.2, 74724.03, 0.12938799, -0.07782265, -725923.75, 106807.664, 0.0, 10.000574, 9.999622 
1.0450421e+3, 2.2502567e+2, -710958.0, -809089.56, 60743.02, 0.16082437, -0.078388244, -681939.44, 52797.945, 0.0, 10.000509, 9.999232 
1.0450502e+3, 2.3502335e+2, -701552.1, -757665.3, 34610.215, 0.067104794, -0.24889377, -685054.94, -48294.332, 0.0, 9.99991, 9.999205 
1.0450584e+3, 2.4502292e+2, -578570.4, -537909.0, 2768.0557, 0.013069122, -0.25677842, -537721.44, 1041.5448, 0.0, 9.999613, 10.00018 
1.04506664e+3, 2.5502425e+2, -481640.72, -439718.3, -16552.61, 0.006015332, -0.16325791, -433970.7, 6775.2744, 0.0, 9.999607, 10.00018 
1.0450748e+3, 2.6502395e+2, -424635.13, -601018.56, -18204.643, -0.003446605, -0.098320484, -422775.8, -80025.734, 0.0000000009945924, 10.00037, 9.998033 
1.0450829e+3, 2.7502176e+2, -113226.7, -402554.9, -18277.777, -0.01403702, -0.13730223, -112076.61, 132701.75, 0.0000020282196, 10.001834, 9.998018 
1.0450924e+3, 2.8502062e+2, 39271.51, -84953.91, 72488.875, 0.01660845, -0.13391969, 72618.875, 219408.28, 0.00002862002, 10.001366, 9.999759 
1.0451034e+3, 2.9502058e+2, -221338.64, -159479.16, 63753.793, 0.09418074, -0.14055721, -119548.51, -70764.914, 0.00014590684, 9.998899, 9.999758 
1.04511306e+3, 3.0501902e+2, -147921.08, -229503.31, 7773.964, 0.12191757, -0.20558518, -147186.9, -147186.9, 0.0004167961, 9.999654, 9.99857 
1.0451206e+3, 3.1501868e+2, 447068.56, 107342.05, 1057.6099, 0.04400381, -0.12090469, 447071.84, 447071.84, 0.0008355391, 10.003463, 9.999061 
1.05495326e+3, 1.2501393e+2, -1684118.5, -1639291.5, 5184.994, 0.17240283, -0.3022519, -1638699.5, 76149.01, 0.00039971265, 9.999903, 10.00055 
1.0549604e+3, 1.3501701e+2, -1553043.6, -1528680.1, 103269.195, -0.1635216, -0.07022193, -1436876.6, 179944.47, 0.00016604259, 10.000169, 10.000518 
1.05497085e+3, 1.4501825e+2, -1415790.8, -1342505.0, 12838.724, -0.05321155, -0.021083433, -1340321.0, 178487.34, 0.000032768716, 10.0001335, 10.001133 
1.0549789e+3, 1.5501878e+2, -1354899.5, -1262639.3, 29902.516, -0.030906238, -0.10600423, -1253795.3, 167004.17, 0.0000008393984, 9.999885, 10.001128 
1.0549868e+3, 1.6501883e+2, -1302106.4, -1309174.5, 44161.617, -0.067273416, -0.1548739, -1261337.6, 61459.613, 0.0, 10.000113, 10.00002 
1.05499476e+3, 1.7501822e+2, -1089393.8, -1157107.9, 44239.996, -0.13286564, -0.23763245, -1067542.0, 157261.55, 0.0, 10.0009, 10.000013 
1.0550034e+3, 1.8501839e+2, -1016779.94, -1105361.5, 33763.582, -0.11932756, -0.20322509, -1005378.25, 121425.984, 0.0, 10.000872, 9.999713 
1.0550128e+3, 1.9501917e+2, -1024999.7, -1059875.1, 47088.477, -0.032419544, -0.114418134, -992223.94, 36576.98, 0.0, 10.000146, 9.999702 
1.0550223e+3, 2.0501947e+2, -947252.2, -975573.4, 88625.08, 0.0067314794, -0.04937015, -871663.56, 59135.523, 0.0, 10.00002, 9.999673 
1.0550321e+3, 2.1501908e+2, -782218.5, -845971.3, 98848.49, -0.002438129, -0.074785896, -710233.8, 122566.945, 0.0, 10.000487, 9.999662 
1.0550411e+3, 2.2501841e+2, -760343.0, -888527.9, 30649.164, -0.007220273, -0.056172613, -753391.7, -18583.54, 0.0, 10.000405, 9.998737 
1.0550495e+3, 2.3501731e+2, -746809.94, -832370.9, 20485.584, -0.008495971, -0.057499137, -742158.06, -105334.93, 0.0, 9.9998255, 9.998731 
1.0550586e+3, 2.4501668e+2, -612191.9, -590910.1, -5923.166, 0.064180106, -0.047480766, -589372.6, -50543.055, 0.0, 9.999538, 9.999852 
1.0550684e+3, 2.5501627e+2, -512889.66, -492167.7, -9671.596, 0.21170416, -0.094354734, -488355.1, -47525.47, 0.0, 9.999551, 9.999847 
1.05507724e+3, 2.6501572e+2, -422260.0, -579157.7, 30892.441, 0.20253488, -0.04933423, -416396.53, -73560.02, 0.000000000012280949, 10.000302, 9.998212 
1.05508536e+3, 2.7501485e+2, -111895.72, -381636.5, 49737.453, 0.032144047, 0.026331088, -103016.89, 141834.48, 0.0000016155456, 10.0017605, 9.998195 
1.0550936e+3, 2.8501356e+2, 38557.918, -81371.75, -27665.52, -0.01589398, 0.00040951688, 44632.18, 191494.66, 0.000025303238, 10.001339, 9.999799 
1.0551023e+3, 2.9501155e+2, -223259.28, -158791.02, -16623.932, 0.06337778, -0.20543848, -154756.78, -105884.5, 0.000137169, 9.9988785, 9.999777 
1.0551129e+3, 3.0501032e+2, -131107.11, -186740.95, 148382.98, 0.123104244, -0.25354946, -7956.1807, -7956.1807, 0.00040068463, 9.999621, 9.99888 
1.055125e+3, 3.1501216e+2, 439188.34, 131246.2, 167901.77, 0.10048478, 0.0191123, 513028.8, 513028.8, 0.0008105275, 10.003302, 9.999301 
1.06495336e+3, 1.2500653e+2, -1647782.8, -1574515.0, 74108.02, 0.20850936, -0.25054544, -1528480.6, 186441.77, 0.00047318285, 9.999939, 10.000981 
1.0649604e+3, 1.350093e+2, -1607305.1, -1512531.9, 129920.01, -0.14463189, -0.081969, -1421626.4, 195268.4, 0.00020250746, 9.9996195, 10.00089 
1.0649706e+3, 1.4501049e+2, -1541002.8, -1428510.6, 17083.459, -0.042649668, -0.048958246, -1425973.4, 92908.65, 0.000042863663, 9.999386, 10.000905 
1.0649784e+3, 1.550111e+2, -1450781.3, -1331831.5, -20058.277, -0.03883278, -0.09935548, -1328540.1, 92333.31, 0.0000013547858, 9.999333, 10.000916 
1.0649866e+3, 1.650108e+2, -1404017.1, -1343114.5, 33775.375, -0.056686725, -0.18162128, -1328089.9, -5215.7207, 0.0, 9.999341, 10.000164 
1.0649956e+3, 1.7500941e+2, -1300165.0, -1240600.4, 43306.766, -0.053010516, -0.35277233, -1217823.5, 7061.436, 0.0, 9.999382, 10.0001745 
1.0650046e+3, 1.8500976e+2, -1170739.3, -1188854.4, 41495.535, -0.025304725, -0.3045015, -1137324.3, -10440.622, 0.0, 9.999843, 9.9996395 
1.0650137e+3, 1.9501163e+2, -949722.6, -1034505.0, 23692.713, 0.013207855, -0.09970156, -943550.94, 85321.29, 0.0, 10.000698, 9.999616 
1.06502295e+3, 2.050121e+2, -813232.8, -911044.5, 70256.79, 0.023505688, -0.013215569, -776536.1, 154333.45, 0.0, 10.000946, 9.999663 
1.0650327e+3, 2.1501105e+2, -767898.75, -841418.3, 56797.734, 0.0060965014, -0.101917855, -737003.06, 95874.086, 0.0, 10.000601, 9.999637 
1.06504165e+3, 2.2501022e+2, -762296.06, -906751.06, 1905.0702, 0.0029477873, -0.08999957, -762270.94, -27384.47, 0.0, 10.000465, 9.998584 
1.0650499e+3, 2.3500949e+2, -659579.4, -805914.06, 1111.4578, 0.013984262, -0.040535364, -659570.94, -22671.695, 0.0, 10.000498, 9.998586 
1.0650591e+3, 2.4500872e+2, -451745.88, -564578.2, 18899.43, 0.09944684, -0.011684335, -448664.38, 90244.09, 0.0, 10.00087, 9.999389 
1.06506936e+3, 2.550077e+2, -250573.83, -420161.88, -15294.427, 0.25173965, -0.06932481, -249205.52, 191710.94, 0.0, 10.001587, 9.999365 
1.0650788e+3, 2.6500705e+2, -210300.72, -436237.66, 42219.332, 0.26258025, -0.02944565, -202669.23, 140255.11, 0.0, 10.001561, 9.998594 
1.0650876e+3, 2.7500665e+2, -239262.8, -397548.3, 56391.582, 0.14135139, 0.050470695, -221227.44, 23705.328, 0.00000091217555, 10.000679, 9.99861 
1.06509574e+3, 2.8500527e+2, -47286.375, -187867.06, -43550.543, 0.07377835, 0.026995849, -34888.25, 112055.52, 0.000020741376, 10.001047, 9.999199 
1.06510304e+3, 2.9500267e+2, 294261.97, 24034.91, -99362.01, 0.061742302, -0.17861144, 326863.9, 375824.44, 0.0001251533, 10.002723, 9.999176 
1.06511354e+3, 3.05001e+2, 270132.06, 9178.9375, 87474.734, 0.0849247, -0.24537444, 296741.34, 296741.34, 0.0003777452, 10.002354, 9.998913 
1.0651266e+3, 3.1500226e+2, -73597.61, -110140.57, 51217.05, 0.11718274, -0.033514474, -37490.48, -37490.48, 0.00077370065, 9.999737, 9.999358 
1.0749519e+3, 1.2500192e+2, -1661344.0, -1591740.6, 5863.4395, 0.017160393, -0.024409737, -1591250.1, 123717.08, 0.00055371417, 9.999916, 10.000862 
1.0749606e+3, 1.3500103e+2, -1628941.0, -1544983.8, 120320.21, -0.11425712, -0.2031464, -1459529.4, 157442.9, 0.00024334127, 9.999584, 10.000674 
1.0749707e+3, 1.4500071e+2, -1585965.6, -1527749.5, 1679.228, 0.002903144, -0.27384084, -1527701.1, -8727.365, 0.00005483326, 9.999396, 10.000225 
1.07497714e+3, 1.5500188e+2, -1493691.9, -1427301.4, -15060.973, -0.11954086, -0.20622034, -1424044.5, -3082.207, 0.000002073113, 9.999352, 10.000255 
1.0749857e+3, 1.6500223e+2, -1372144.6, -1272127.1, 25561.81, -0.098592296, -0.21228874, -1265973.0, 56983.48, 0.0000000000166348, 9.999325, 10.000657 
1.07499674e+3, 1.7500155e+2, -1264477.1, -1168837.8, 52188.09, 0.10300025, -0.36839378, -1145873.8, 79084.65, 0.0, 9.999386, 10.000665 
1.0750062e+3, 1.8500191e+2, -1198075.4, -1231985.8, 64202.92, 0.13451757, -0.3282524, -1148626.5, -21670.424, 0.0, 9.999791, 9.999367 
1.0750142e+3, 1.9500318e+2, -976074.5, -1075251.1, 63392.105, -0.016078532, -0.15485014, -945179.5, 83771.414, 0.0, 10.000643, 9.99936 
1.0750234e+3, 2.0500332e+2, -834843.5, -937719.06, 47188.938, -0.033361815, -0.08086776, -816477.0, 114475.06, 0.0, 10.000867, 9.99952 
1.0750342e+3, 2.1500216e+2, -791493.25, -866416.2, 52337.78, 0.08281785, -0.16780995, -764591.6, 68369.44, 0.0, 10.000496, 9.9995165 
1.0750433e+3, 2.250011e+2, -766568.4, -887995.5, -4146.888, 0.117775574, -0.18437332, -766426.94, -31454.44, 0.0, 10.000348, 9.998769 
1.0750511e+3, 2.3499997e+2, -661521.1, -785245.1, 11617.65, 0.07322046, -0.19432802, -660439.7, -23451.74, 0.0, 10.000395, 9.998776 
1.0750597e+3, 2.4499916e+2, -514213.25, -673312.75, 41284.59, 0.055954035, -0.14349851, -504138.34, 34860.523, 0.0, 10.000778, 9.998687 
1.0750692e+3, 2.549985e+2, -306188.97, -523022.9, 23156.879, 0.061366156, -0.09626321, -303743.5, 137263.61, 0.0, 10.00153, 9.998686 
1.0750791e+3, 2.6499793e+2, -179727.39, -354354.2, 1582.4169, 0.12123094, -0.044140488, -179713.06, 163301.06, 0.000000000031670343, 10.001485, 9.999196 
1.0750895e+3, 2.7499723e+2, -207906.36, -317161.75, 33809.93, 0.23733696, -0.055901486, -198290.02, 46731.723, 0.00000057346807, 10.000613, 9.999197 
1.0750983e+3, 2.8499597e+2, -138909.39, -369357.7, 10574.336, 0.20429994, -0.035449143, -138425.2, 8607.17, 0.000016659129, 10.001007, 9.997972 
1.07510544e+3, 2.94994e+2, 201163.4, -155707.27, -21375.12, 0.013655273, -0.054025088, 202439.13, 251486.6, 0.00011189467, 10.002663, 9.997971 
1.0751145e+3, 3.0499107e+2, 243642.27, -34282.195, -11033.966, -0.063303895, -0.17252894, 244079.64, 244079.64, 0.00035149738, 10.002307, 9.998637 
1.0751249e+3, 3.1498915e+2, -108182.42, -161028.78, -20179.549, -0.065261655, -0.25264198, -101358.07, -101358.07, 0.00073256163, 9.999649, 9.999053 
1.0849506e+3, 1.24994524e+2, -1856142.3, -1702572.8, -18267.258, -0.027003728, -0.045665484, -1700429.8, 14607.735, 0.00064071716, 9.998642, 10.00073 
1.08496055e+3, 1.3499328e+2, -1691228.1, -1601631.4, 96553.16, -0.04517353, -0.23576735, -1539990.1, 77055.21, 0.00028839763, 9.999257, 10.000458 
1.084971e+3, 1.4499271e+2, -1527789.9, -1508734.8, 28769.766, 0.076451674, -0.31548172, -1487956.0, 31093.066, 0.00006873226, 9.9998665, 10.000113 
1.08497776e+3, 1.5499344e+2, -1326277.3, -1363493.0, 25202.79, -0.041689165, -0.27617738, -1313557.4, 107484.68, 0.0000030594845, 10.000585, 10.0000925 
1.0849862e+3, 1.6499394e+2, -1169216.9, -1200126.0, 56259.52, -0.04598073, -0.2488477, -1126327.9, 196707.89, 0.000000000186287, 10.000825, 10.000428 
1.08499646e+3, 1.7499405e+2, -1107308.4, -1119914.6, 10036.588, 0.09113685, -0.29915726, -1101759.8, 123271.99, 0.0, 10.0005865, 10.0004225 
1.085006e+3, 1.8499418e+2, -1108948.4, -1198116.4, 36430.344, 0.107372776, -0.26746562, -1095957.1, 31074.572, 0.0, 10.000439, 9.999287 
1.0850148e+3, 1.9499418e+2, -1027823.4, -1109719.8, 31568.23, -0.0023305602, -0.21245039, -1017067.5, 11969.364, 0.0, 10.000335, 9.9992695 
1.0850243e+3, 2.0499384e+2, -928411.4, -1000186.8, 17961.506, -0.005260743, -0.17401363, -924167.5, 6874.7603, 0.0, 10.0002985, 9.999362 
1.0850347e+3, 2.1499293e+2, -827598.25, -904200.4, 1466.5334, 0.09520206, -0.22219431, -827570.2, 5480.1763, 0.0, 10.000331, 9.999335 
1.0850439e+3, 2.2499223e+2, -733808.75, -826904.9, -23480.545, 0.14633214, -0.21096277, -728221.8, 6836.417, 0.0, 10.00039, 9.999167 
1.0850523e+3, 2.3499162e+2, -616255.0, -719652.44, -13774.909, 0.15060322, -0.20496023, -614451.4, 22616.146, 0.0, 10.000524, 9.999166 
1.08506076e+3, 2.4499094e+2, -545651.56, -700674.6, 70261.336, 0.09921219, -0.15481481, -518546.22, 20530.486, 0.0, 10.000607, 9.998589 
1.0850695e+3, 2.549901e+2, -455104.38, -606781.56, 81478.125, -0.008091964, -0.11749476, -419631.8, 21455.44, 0.0, 10.00056, 9.998583 
1.08507946e+3, 2.649892e+2, -308500.9, -448315.25, 44248.06, 0.045631982, -0.07647992, -295674.16, 47423.082, 0.000000020287489, 10.000741, 9.9989 
1.0850905e+3, 2.7498806e+2, -153235.86, -324700.4, -11011.836, 0.25948864, -0.10006488, -152531.55, 92577.11, 0.0000009638229, 10.001138, 9.998885 
1.0850997e+3, 2.849867e+2, -110092.664, -381410.1, 27009.484, 0.24978492, -0.063687526, -107430.016, 39690.88, 0.000015514439, 10.001314, 9.997743 
1.0851074e+3, 2.9498497e+2, -33256.98, -292084.84, 43284.914, 0.022952346, -0.037702408, -26210.113, 22925.047, 0.00010321646, 10.001155, 9.997761 
1.08511634e+3, 3.0498174e+2, 37813.836, -149773.42, 31415.584, -0.042236228, -0.16524135, 42935.24, 42935.24, 0.0003319706, 10.000979, 9.998479 
1.0851261e+3, 3.149792e+2, 23585.178, -116886.87, -10173.957, 0.042477336, -0.29254857, 24318.22, 24318.22, 0.00070415816, 10.000662, 9.998858 
1.0949493e+3, 1.2498445e+2, -1870410.6, -1726794.1, -41134.938, -0.056722187, -0.31324258, -1715846.8, -715.15955, 0.000734217, 9.998615, 10.000577 
1.0949602e+3, 1.3498637e+2, -1703286.8, -1625812.3, 124701.33, -0.0207058, -0.17344253, -1533970.0, 83140.45, 0.00033773432, 9.999255, 10.000291 
1.0949712e+3, 1.4498669e+2, -1508062.8, -1468114.0, 48188.55, 0.09385456, -0.16823877, -1435924.1, 83181.25, 0.0000845864, 9.999866, 10.000392 
1.09498024e+3, 1.5498582e+2, -1308451.9, -1323056.0, 61844.832, 0.123043716, -0.31830198, -1253479.5, 167632.8, 0.0000043925156, 10.000575, 10.000372 
1.0949881e+3, 1.6498595e+2, -1236205.9, -1342539.0, 36654.625, 0.03142839, -0.29034698, -1224795.0, 98316.516, 0.0000000006358386, 10.0008335, 9.999451 
1.0949948e+3, 1.7498693e+2, -1170052.5, -1260053.8, 10492.904, -0.15802981, -0.15868235, -1168845.4, 56259.816, 0.0, 10.000618, 9.999449 
1.0950038e+3, 1.8498658e+2, -1106704.0, -1186999.3, 23649.352, -0.17647293, -0.12942559, -1100256.4, 26854.021, 0.0, 10.000416, 9.999371 
1.0950151e+3, 1.949847e+2, -1030763.94, -1099977.8, 37112.85, -0.014511465, -0.27233773, -1014626.4, 14502.749, 0.0, 10.000268, 9.999366 
1.09502524e+3, 2.0498367e+2, -954755.75, -1037775.1, 8932.588, 0.039169237, -0.2973006, -953805.5, -22665.428, 0.0, 10.000221, 9.9991455 
1.09503396e+3, 2.1498339e+2, -854648.1, -939773.9, 9567.231, -0.018608961, -0.25990468, -853586.1, -20441.863, 0.0, 10.00024, 9.999137 
1.0950432e+3, 2.249837e+2, -714855.1, -762879.9, -26643.18, 0.023052402, -0.16334882, -703000.3, 32142.617, 0.0, 10.000285, 9.999655 
1.0950531e+3, 2.3498437e+2, -598880.0, -657194.75, 762.6016, 0.16641566, -0.079910785, -598870.0, 38268.637, 0.0, 10.000409, 9.999648 
1.09506205e+3, 2.44984e+2, -525968.3, -633969.2, 60031.313, 0.14906502, -0.050109662, -499223.44, 39919.574, 0.0, 10.000497, 9.999099 
1.0950701e+3, 2.5498244e+2, -427390.25, -534838.5, 89237.555, -0.027835399, -0.13661957, -376952.84, 64204.336, 0.0, 10.000497, 9.999106 
1.09507956e+3, 2.649809e+2, -404306.47, -630423.56, 53668.414, -0.030727766, -0.121974535, -392214.97, -49041.848, 0.00000010014453, 10.0006695, 9.9976845 
1.0950906e+3, 2.7497923e+2, -241562.55, -501481.16, 18383.037, 0.13198446, -0.080988154, -240268.81, 4924.439, 0.0000018004142, 10.001106, 9.997687 
1.0951002e+3, 2.849774e+2, -64785.9, -282031.47, 12960.233, 0.13839962, -0.06596134, -64015.46, 83195.02, 0.000016749296, 10.001287, 9.998439 
1.09510854e+3, 2.949753e+2, 8774.972, -196535.47, 50350.67, -0.00023337168, -0.14472419, 20458.215, 69684.03, 0.000099959936, 10.001114, 9.99844 
1.0951184e+3, 3.0497286e+2, 20848.236, -170649.92, 14314.695, 0.056435283, -0.22410806, 21912.361, 21912.361, 0.00032156563, 10.00092, 9.9983635 
1.09512955e+3, 3.1497216e+2, 4265.3765, -148154.08, -1633.7886, 0.27642325, -0.1537301, 4282.887, 4282.887, 0.0006902416, 10.000616, 9.998672 
1.1049482e+3, 1.2497612e+2, -1798524.3, -1693064.8, -31462.963, -0.05032472, -0.34720162, -1684391.4, 30818.475, 0.00083503575, 9.999123, 10.000547 
1.1049608e+3, 1.3497785e+2, -1502121.1, -1530473.1, 125568.72, 0.0480836, -0.23191299, -1389930.8, 227259.83, 0.0003918232, 10.0006275, 10.000284 
1.10497154e+3, 1.4497827e+2, -1447448.6, -1464902.1, -4614.418, 0.11901659, -0.20513585, -1446303.8, 72881.43, 0.000102570426, 10.000387, 10.000168 
1.10498026e+3, 1.5497747e+2, -1630567.0, -1503463.5, -45899.41, 0.17722385, -0.32081255, -1488621.5, -67428.34, 0.0000061708192, 9.998467, 10.000152 
1.1049879e+3, 1.6497763e+2, -1615541.8, -1525572.9, 13614.349, 0.07292735, -0.28188726, -1523557.9, -200364.31, 0.0000000015512864, 9.998248, 9.999431 
1.1049949e+3, 1.7497855e+2, -1284550.1, -1314751.6, 37318.977, -0.16706036, -0.15234773, -1259392.5, -34204.63, 0.0, 9.999846, 9.9994335 
1.1050039e+3, 1.8497816e+2, -1121066.8, -1214395.1, 53648.375, -0.19897848, -0.11796592, -1096627.5, 30565.924, 0.0, 10.000407, 9.999191 
1.105015e+3, 1.9497624e+2, -1098788.3, -1151242.9, 29965.393, -0.028763263, -0.24867485, -1085193.5, -55981.03, 0.0, 9.9998865, 9.999199 
1.10502526e+3, 2.0497516e+2, -980981.7, -1031267.44, 52100.504, 0.04492051, -0.27894115, -948274.5, -17051.084, 0.0, 9.99996, 9.999318 
1.1050348e+3, 2.1497479e+2, -779305.75, -883815.4, 62128.99, 0.024486253, -0.2632375, -750378.2, 82849.3, 0.0, 10.000676, 9.999312 
1.10504396e+3, 2.2497506e+2, -641349.7, -733150.94, 14108.138, 0.04803391, -0.17807205, -639230.5, 95995.41, 0.0, 10.00081, 9.999605 
1.1050528e+3, 2.3497574e+2, -616981.44, -672705.6, -15505.318, 0.11602883, -0.09047318, -612957.6, 24263.307, 0.0, 10.000313, 9.999588 
1.10506214e+3, 2.4497528e+2, -524931.2, -631058.9, 47057.105, 0.116398655, -0.06559953, -507071.5, 32153.752, 0.0, 10.000501, 9.999109 
1.1050717e+3, 2.5497356e+2, -297482.78, -471180.88, 14748.096, 0.048461515, -0.16594861, -296239.47, 145000.84, 0.0, 10.001394, 9.9991045 
1.1050815e+3, 2.6497185e+2, -246132.92, -574299.75, 3752.6628, 0.045952052, -0.16469073, -246090.02, 97168.086, 0.00000018749917, 10.001841, 9.997508 
1.10509165e+3, 2.7496994e+2, -162868.75, -485136.38, 24853.887, 0.11005124, -0.12767485, -160963.23, 84317.18, 0.0000025324416, 10.001745, 9.997496 
1.1051012e+3, 2.8496793e+2, -31263.793, -252038.81, 35609.824, 0.11328113, -0.12562364, -25662.244, 121637.48, 0.000018771152, 10.001469, 9.998553 
1.1051102e+3, 2.9496568e+2, -10083.068, -193204.52, 6628.2476, 0.07106572, -0.22537291, -9843.466, 39473.62, 0.00010053436, 10.000943, 9.99854 
1.1051201e+3, 3.0496374e+2, 84555.02, -131038.76, 8482.68, 0.119040355, -0.26489708, 84888.266, 84888.266, 0.00031863083, 10.001295, 9.998465 
1.1051308e+3, 3.1496435e+2, 256502.27, 1406.9078, -29970.03, 0.2720656, -0.08088167, 259976.02, 259976.02, 0.00068520685, 10.002241, 9.998907 
1.11494675e+3, 1.24969676e+2, -1806713.5, -1696965.0, 5474.525, -0.1522542, -0.16218826, -1696692.5, 18578.43, 0.000944546, 9.9990835, 10.000535 
1.1149622e+3, 1.3496785e+2, -1501728.5, -1519266.9, 191578.53, 0.10790653, -0.4030488, -1318718.5, 298565.28, 0.00045159098, 10.000595, 10.000374 
1.1149718e+3, 1.4496756e+2, -1491647.5, -1563021.4, -89724.44, 0.07751948, -0.41844475, -1430773.4, 88513.73, 0.00012308804, 10.000406, 9.99949 
1.1149775e+3, 1.5496868e+2, -1676118.6, -1601302.3, -111259.91, 0.039770745, -0.27920577, -1521330.1, -100047.664, 0.000008505592, 9.998477, 9.99948 
1.1149856e+3, 1.6496916e+2, -1554931.6, -1398326.6, 61570.055, -0.0035208582, -0.21487668, -1377019.1, -53739.414, 0.0000000033697685, 9.998238, 10.000313 
1.1149966e+3, 1.7496899e+2, -1222937.9, -1187261.9, 104440.11, 0.0010667415, -0.28043833, -1099147.4, 126132.19, 0.0, 9.999841, 10.0003195 
1.1150062e+3, 1.8496893e+2, -1153236.8, -1277896.5, 24213.371, -0.03289908, -0.23595814, -1148698.9, -21417.576, 0.0, 10.000394, 9.998761 
1.1150142e+3, 1.9496883e+2, -1136708.9, -1219934.0, 16795.172, -0.1181369, -0.14035147, -1133447.3, -104160.945, 0.0, 9.999843, 9.998749 
1.1150244e+3, 2.0496829e+2, -953032.8, -958371.25, 67407.09, -0.06164527, -0.119383894, -888242.1, 43050.07, 0.0, 9.999895, 9.999847 
1.1150368e+3, 2.1496707e+2, -760172.94, -817228.06, 98653.39, 0.14797273, -0.24601723, -686005.25, 147295.92, 0.0, 10.000558, 9.999826 
1.1150459e+3, 2.2496624e+2, -698275.5, -824160.5, -12141.955, 0.1443895, -0.2659889, -697115.06, 38192.984, 0.0, 10.000696, 9.999034 
1.1150515e+3, 2.3496576e+2, -668775.8, -759808.7, -25051.713, -0.064297, -0.23658897, -662337.1, -25023.518, 0.0, 10.000226, 9.999033 
1.11506104e+3, 2.449649e+2, -577557.44, -720210.3, 73924.69, -0.06659017, -0.19713998, -546159.4, -6836.715, 0.0, 10.000413, 9.998541 
1.1150742e+3, 2.5496346e+2, -347052.34, -560283.25, 60187.527, 0.1409153, -0.21591158, -331236.63, 110100.586, 0.0, 10.001331, 9.998524 
1.1150851e+3, 2.6496193e+2, -198396.4, -461596.94, -7752.21, 0.19784163, -0.20727639, -198168.27, 145184.48, 0.00000020790911, 10.001781, 9.99831 
1.1150936e+3, 2.7496007e+2, -115209.12, -370835.1, 34153.13, 0.10777043, -0.24368948, -110724.734, 134646.17, 0.0000030041272, 10.001676, 9.998314 
1.1151027e+3, 2.8495824e+2, -80315.375, -330910.94, 10318.824, 0.09419199, -0.23857515, -79891.195, 67497.34, 0.000021469468, 10.001374, 9.998055 
1.1151123e+3, 2.949562e+2, -48823.0, -267755.34, 4831.5483, 0.15527289, -0.2727171, -48716.426, 691.4941, 0.00010455908, 10.000917, 9.998039 
1.1151211e+3, 3.0495444e+2, 102675.65, -91463.43, 40799.363, 0.0750826, -0.2835978, 110901.33, 110901.33, 0.0003215128, 10.001286, 9.998741 
1.1151295e+3, 3.1495538e+2, 274400.44, 54977.453, 30010.994, -0.12862411, -0.09027171, 278431.1, 278431.1, 0.00068624306, 10.002166, 9.999313 
1.1249464e+3, 1.24961145e+2, -1703006.4, -1668037.6, 14074.459, -0.124637134, -0.1721604, -1663076.6, 52275.066, 0.0010643419, 9.999863, 10.000375 
1.1249619e+3, 1.34959e+2, -1963045.1, -1751123.8, 150193.5, 0.18774551, -0.43551254, -1673275.4, -55905.83, 0.00051804923, 9.997469, 10.00029 
1.1249703e+3, 1.4495893e+2, -1911036.3, -1750550.4, -51225.47, 0.051202033, -0.43284854, -1735593.6, -216221.6, 0.00014661087, 9.997474, 9.999611 
1.1249762e+3, 1.549607e+2, -1444038.8, -1476933.9, -39997.78, -0.008930524, -0.2406986, -1417238.9, 4122.205, 0.00001150662, 10.000018, 9.999589 
1.12498485e+3, 1.6496111e+2, -1243419.6, -1268353.5, 132578.42, -0.004985744, -0.17999126, -1122723.3, 200635.89, 0.0000000061074554, 10.000454, 10.00014 
1.12499684e+3, 1.749601e+2, -1381067.1, -1278399.9, 81318.78, 0.10108375, -0.31406653, -1233567.5, -8200.659, 0.0, 9.998821, 10.000183 
1.1250068e+3, 1.8495993e+2, -1354231.9, -1337574.3, 32111.676, 0.06915256, -0.29304624, -1312728.9, -185359.84, 0.0, 9.998859, 9.999086 
1.1250144e+3, 1.9496034e+2, -993132.3, -1116225.5, 64012.38, -0.11660288, -0.17947876, -965878.2, 63489.305, 0.0, 10.0006695, 9.999065 
1.12502456e+3, 2.0496002e+2, -820135.9, -942643.4, 93244.945, -0.09100183, -0.12912071, -769825.1, 161546.31, 0.0, 10.001026, 9.999408 
1.1250371e+3, 2.1495877e+2, -878975.56, -917875.56, 30012.537, 0.15739533, -0.2159308, -862661.7, -29278.643, 0.0, 9.999943, 9.999424 
1.12504676e+3, 2.249575e+2, -764263.44, -867571.4, -47454.11, 0.18235765, -0.25646842, -745774.5, -10380.045, 0.0, 10.000286, 9.998939 
1.12505324e+3, 2.3495615e+2, -394767.47, -635855.25, -41111.6, -0.012178108, -0.3040305, -387949.7, 249456.73, 0.0, 10.00214, 9.9989605 
1.12506285e+3, 2.4495499e+2, -270833.75, -573390.7, 83054.664, -0.024413142, -0.29082444, -249533.97, 289883.25, 0.0, 10.002528, 9.99853 
1.1250756e+3, 2.5495383e+2, -337263.28, -558007.7, 95201.49, 0.14478706, -0.27699548, -301877.66, 139550.95, 0.0, 10.0014105, 9.998504 
1.1250864e+3, 2.6495266e+2, -276306.9, -456507.06, 61256.223, 0.20175056, -0.24808834, -257455.86, 85984.37, 0.00000016860811, 10.001074, 9.998683 
1.12509556e+3, 2.7495125e+2, -104971.9, -321648.13, 46406.38, 0.15034774, -0.27987748, -95451.2, 150002.83, 0.0000038179373, 10.001568, 9.998696 
1.1251047e+3, 2.8494972e+2, -26448.688, -311848.5, 23291.672, 0.15161222, -0.26457345, -24560.332, 122908.86, 0.000026281929, 10.001765, 9.998001 
1.12511404e+3, 2.9494783e+2, 42001.973, -226876.19, 27737.951, 0.2076071, -0.277643, 44833.65, 94321.18, 0.00011344339, 10.001558, 9.998008 
1.1251225e+3, 3.049457e+2, 136341.89, -120458.76, 113826.03, 0.07870431, -0.30054283, 179531.22, 179531.22, 0.00033239592, 10.001734, 9.998322 
1.12513095e+3, 3.149461e+2, 244012.13, -3087.548, 15625.839, -0.18418573, -0.11849393, 244996.34, 244996.34, 0.000697837, 10.002132, 9.998944 
1.1349469e+3, 1.2495036e+2, -1708628.0, -1679891.3, -68884.93, -0.09990659, -0.40004194, -1623892.1, 91561.49, 0.0011953667, 9.999883, 10.000276 
1.1349597e+3, 1.3495149e+2, -1972831.1, -1765249.0, 64034.85, 0.19823048, -0.3288578, -1747085.0, -129638.81, 0.00059164723, 9.997445, 10.000205 
1.13496706e+3, 1.449526e+2, -1854461.8, -1624176.5, 35262.46, -0.050755195, -0.24807085, -1618897.9, -99460.27, 0.00017336896, 9.997436, 10.000499 
1.1349762e+3, 1.5495372e+2, -1381596.4, -1349090.3, 67641.03, -0.03705212, -0.20441808, -1295777.0, 125650.59, 0.000015247707, 10.000022, 10.000468 
1.13498546e+3, 1.6495362e+2, -1326579.5, -1441463.5, 60914.99, -0.01701762, -0.18213613, -1300294.5, 23136.059, 0.000000009421829, 10.000457, 9.998948 
1.1349954e+3, 1.7495206e+2, -1465807.9, -1455447.9, 26475.184, 0.051143702, -0.25211754, -1433650.8, -208202.23, 0.0, 9.998825, 9.998965 
1.1350055e+3, 1.8495119e+2, -1276842.9, -1179116.9, 88777.5, 0.02887528, -0.29169235, -1126643.6, 812.46783, 0.0, 9.998862, 10.000174 
1.1350155e+3, 1.9495079e+2, -926740.75, -962996.06, 139027.63, -0.09592901, -0.3680554, -804663.94, 224791.38, 0.0, 10.000596, 10.000155 
1.1350254e+3, 2.0495042e+2, -933315.75, -1160330.0, 42829.88, -0.11449824, -0.30639544, -925504.0, 5956.2627, 0.0, 10.000951, 9.997951 
1.1350355e+3, 2.1494995e+2, -996442.1, -1139150.3, -5147.072, -0.011137629, -0.16751221, -996256.7, -162784.34, 0.0, 9.999843, 9.997957 
1.13504626e+3, 2.2494882e+2, -749327.1, -811508.3, 11094.655, 0.09039491, -0.14178222, -747406.9, -11922.004, 0.0, 10.000179, 9.9993725 
1.1350576e+3, 2.3494685e+2, -384440.88, -585518.6, 37686.168, 0.19556792, -0.29627633, -377609.75, 259889.77, 0.0, 10.002015, 9.999366 
1.1350674e+3, 2.4494554e+2, -247911.64, -503717.16, 32497.787, 0.16075484, -0.34341007, -243847.66, 295661.34, 0.0, 10.002432, 9.999056 
1.13507554e+3, 2.5494477e+2, -306970.44, -481110.56, 61689.813, -0.008579199, -0.34465942, -287331.4, 154182.78, 0.0, 10.001347, 9.999064 
1.1350856e+3, 2.6494417e+2, -287745.97, -470764.1, 74016.56, -0.009777136, -0.28755987, -261558.98, 81961.5, 0.00000020663475, 10.001029, 9.9986105 
1.13509744e+3, 2.7494338e+2, -120140.2, -344296.03, 79919.78, 0.15933241, -0.24260129, -94564.09, 150966.22, 0.0000055002247, 10.001525, 9.998566 
1.1351072e+3, 2.8494215e+2, -8856.995, -263081.63, 5181.834, 0.20299196, -0.20928761, -8751.418, 138791.61, 0.00003348711, 10.001719, 9.998353 
1.1351151e+3, 2.9494026e+2, 59692.656, -177181.72, 29945.586, 0.13746569, -0.25607693, 63419.727, 112978.76, 0.00012779766, 10.001501, 9.998376 
1.1351241e+3, 3.049374e+2, 50024.785, -280263.03, 124124.97, 0.044175833, -0.32421097, 91471.09, 91471.09, 0.00035415098, 10.001655, 9.99726 
1.1351348e+3, 3.1493646e+2, 159433.31, -157194.86, 53835.82, -0.06670817, -0.16395873, 168336.58, 168336.58, 0.0007275568, 10.002047, 9.997923 
1.1449474e+3, 1.2494171e+2, -1931607.9, -1816459.6, -35927.94, 0.036060978, -0.41432112, -1806169.1, -90629.164, 0.0013373722, 9.998464, 10.000039 
1.14495724e+3, 1.349433e+2, -1787791.4, -1704271.6, 5731.803, 0.14956488, -0.2696383, -1703880.1, -86350.25, 0.000672049, 9.9988165, 9.999979 
1.1449639e+3, 1.4494434e+2, -1661794.8, -1506134.4, 47464.055, -0.16403376, -0.19616348, -1492803.4, 26718.443, 0.0002032588, 9.998646, 10.000727 
1.1449761e+3, 1.5494525e+2, -1653545.0, -1453496.1, 6134.254, 0.06038096, -0.196473, -1453308.3, -31796.93, 0.000019742625, 9.998051, 10.000696 
1.1449862e+3, 1.6494508e+2, -1648484.4, -1636787.6, -18457.271, 0.11444896, -0.17309259, -1623274.3, -299759.84, 0.000000013934886, 9.998416, 9.998596 
1.14499435e+3, 1.749436e+2, -1358639.6, -1444435.6, -4970.401, 0.029397668, -0.20060338, -1358352.6, -132819.02, 0.0, 9.999728, 9.998609 
1.1450045e+3, 1.8494262e+2, -1102457.4, -1094482.0, 94267.03, -0.008023083, -0.23487103, -1004118.4, 123425.31, 0.0, 10.000063, 10.000173 
1.14501625e+3, 1.9494192e+2, -1085820.4, -1032051.7, 42732.293, -0.012670805, -0.34142932, -1008450.25, 21095.875, 0.0, 9.999491, 10.0002 
1.14502646e+3, 2.0494162e+2, -1041583.2, -1165274.0, -18369.9, -0.044040576, -0.29606786, -1038912.7, -107363.516, 0.0, 10.0, 9.998378 
1.1450354e+3, 2.1494159e+2, -709947.06, -951023.44, 62218.496, -0.08816639, -0.1564953, -694836.44, 138717.44, 0.0, 10.001594, 9.998406 
1.1450463e+3, 2.2494064e+2, -558898.25, -769663.6, 131970.75, 0.0019966878, -0.11231049, -495397.0, 240167.44, 0.0, 10.0017, 9.99893 
1.14505894e+3, 2.3493859e+2, -667979.0, -771182.94, 73940.086, 0.23003027, -0.23051989, -629415.06, 8167.816, 0.0, 10.000273, 9.998934 
1.1450693e+3, 2.4493714e+2, -566043.5, -643779.5, 36922.387, 0.23563027, -0.2767005, -551301.94, -11707.189, 0.0, 10.000198, 9.999162 
1.1450773e+3, 2.5493613e+2, -262541.63, -440697.7, 15233.388, 0.021854866, -0.31404042, -261248.48, 180352.78, 0.0, 10.001595, 9.999207 
1.1450869e+3, 2.649355e+2, -121908.68, -359639.7, 31884.746, -0.019594891, -0.2808181, -117706.54, 225899.84, 0.00000038376965, 10.002022, 9.998899 
1.14509836e+3, 2.74935e+2, -113350.91, -307287.1, 49839.766, 0.11452744, -0.24373505, -101292.336, 144319.83, 0.0000075917305, 10.001414, 9.998875 
1.1451085e+3, 2.8493392e+2, 2751.9407, -257296.03, 27625.62, 0.16684118, -0.20453425, 5654.2944, 153276.5, 0.0000412879, 10.00179, 9.998366 
1.1451176e+3, 2.949323e+2, 290714.94, -64851.844, 5875.687, 0.16324969, -0.22791758, 290812.0, 340448.72, 0.0001447931, 10.00308, 9.998393 
1.145127e+3, 3.0492926e+2, 287723.06, -163370.61, 112100.56, 0.09225515, -0.31203586, 314045.06, 314045.06, 0.00038302585, 10.00325, 9.9973 
1.1451373e+3, 3.1492794e+2, 173737.38, -128528.875, 82563.04, -0.002381201, -0.20072763, 194818.88, 194818.88, 0.00077395706, 10.002049, 9.998111 
1.1549475e+3, 1.2493515e+2, -1964534.1, -1863997.6, 22329.234, 0.16885501, -0.22666232, -1859261.5, -143650.11, 0.001489488, 9.998393, 9.999734 
1.1549544e+3, 1.3493463e+2, -1810599.3, -1753872.8, 27640.207, -0.0340127, -0.26067826, -1742632.3, -125013.11, 0.00075867696, 9.99883, 9.999626 
1.1549607e+3, 1.4493424e+2, -1696172.8, -1583960.5, 14119.865, -0.36949846, -0.28466687, -1582211.0, -62587.28, 0.0002361324, 9.998664, 10.000189 
1.1549758e+3, 1.549353e+2, -1683603.5, -1525572.5, -8869.442, 0.19632919, -0.2203253, -1525076.3, -103464.13, 0.000024990082, 9.998081, 10.000193 
1.1549867e+3, 1.6493553e+2, -1609674.8, -1554833.6, 19777.639, 0.30265522, -0.15997253, -1548445.3, -224834.31, 0.000000023716384, 9.998415, 9.999156 
1.1549938e+3, 1.7493483e+2, -1324665.3, -1365928.0, 51148.098, -0.030325782, -0.16588582, -1290144.3, -64522.66, 0.0, 9.999699, 9.999159 
1.1550037e+3, 1.8493429e+2, -1187270.5, -1265885.0, 63245.23, -0.11252027, -0.121597596, -1152112.9, -24482.416, 0.0, 10.000041, 9.999008 
1.1550166e+3, 1.9493377e+2, -1173206.9, -1205939.0, 27521.229, 0.051024284, -0.09743995, -1157553.1, -127913.75, 0.0, 9.999451, 9.99903 
1.15502745e+3, 2.0493363e+2, -882986.4, -821496.56, 27354.818, 0.03786647, -0.097588055, -811088.9, 120549.164, 0.0, 9.999935, 10.000769 
1.1550366e+3, 2.1493365e+2, -558284.2, -612372.0, 129404.43, -0.14801234, -0.19293797, -453127.97, 380500.22, 0.0, 10.001481, 10.00079 
1.1550465e+3, 2.2493295e+2, -670449.94, -971668.75, 69508.69, -0.15227449, -0.17747457, -655183.94, 80449.72, 0.0, 10.001577, 9.9976 
1.1550574e+3, 2.3493141e+2, -776150.9, -973712.4, 29105.512, 0.02651245, -0.10997053, -771952.2, -134296.08, 0.0, 10.000182, 9.997586 
1.1550687e+3, 2.4492976e+2, -600139.6, -693773.94, 77619.71, 0.1321605, -0.091797665, -556310.94, -16636.383, 0.0, 10.000109, 9.998861 
1.1550804e+3, 2.5492787e+2, -298348.03, -495668.9, 76122.18, 0.16167395, -0.1897143, -272395.2, 169294.97, 0.0, 10.001507, 9.998872 
1.1550903e+3, 2.649266e+2, -86109.95, -268394.44, 1575.8813, 0.09945291, -0.23209488, -86096.336, 257602.28, 0.0000005356376, 10.001949, 9.999561 
1.1550982e+3, 2.7492583e+2, -70215.93, -201051.52, 37169.83, -0.064793095, -0.2906724, -60393.55, 185307.56, 0.000008957139, 10.001344, 9.999639 
1.1551085e+3, 2.849251e+2, -26154.168, -295803.84, 68216.19, -0.03413119, -0.25223336, -9879.088, 137827.75, 0.00004724257, 10.001699, 9.998145 
1.15512125e+3, 2.949241e+2, 262074.73, -115122.87, 71400.14, 0.1956432, -0.18720517, 275137.75, 324856.53, 0.00015956932, 10.003033, 9.9980755 
1.1551309e+3, 3.0492142e+2, 339616.75, -29979.195, 62871.23, 0.13804916, -0.26455703, 350018.88, 350018.88, 0.00041272215, 10.003154, 9.998256 
1.1551382e+3, 3.149201e+2, 237235.03, 33444.84, 61785.668, -0.1601396, -0.25125504, 254504.02, 254504.02, 0.00082886074, 10.001925, 9.999279 
1.1649462e+3, 1.2492786e+2, -1890874.3, -1801902.9, 78924.336, 0.18672873, -0.08009753, -1755790.4, -40102.65, 0.0016512593, 9.998763, 9.999977 
1.1649529e+3, 1.349264e+2, -1898824.0, -1778798.9, 28805.037, -0.03298825, -0.22389875, -1772243.9, -154542.98, 0.0008513687, 9.998156, 9.999773 
1.16495974e+3, 1.4492501e+2, -1742257.6, -1679161.5, 74070.63, -0.33146, -0.32075268, -1630200.4, -110486.37, 0.00027198074, 9.99867, 9.999528 
1.1649749e+3, 1.5492551e+2, -1409960.9, -1468756.5, 21198.227, 0.18740249, -0.2473583, -1403115.1, 18594.969, 0.00003101119, 10.000284, 9.999518 
1.1649858e+3, 1.649257e+2, -1287851.6, -1368066.5, 33224.805, 0.28408778, -0.17163317, -1275877.5, 47832.75, 0.00000004774233, 10.000501, 9.999427 
1.1649933e+3, 1.7492546e+2, -1354305.1, -1349260.4, 21831.568, -0.0247506, -0.15477131, -1329805.9, -104090.38, 0.0, 9.9993725, 9.99943 
1.1650033e+3, 1.8492535e+2, -1321671.9, -1339635.4, 81495.67, -0.10071826, -0.07907966, -1248664.5, -120944.266, 0.0, 9.999145, 9.9989395 
1.16501614e+3, 1.9492525e+2, -1122821.6, -1188165.4, 114622.375, 0.04792693, -0.0057151373, -1036305.6, -6580.2065, 0.0, 9.99982, 9.998978 
1.1650277e+3, 2.0492484e+2, -855748.25, -817465.9, 109346.19, 0.055078626, -0.025127297, -725598.2, 206128.45, 0.0, 10.000162, 10.000683 
1.16503805e+3, 2.1492396e+2, -754428.2, -711324.5, 2718.2559, -0.071869016, -0.20507272, -711153.75, 122571.516, 0.0, 10.000164, 10.000735 
1.1650481e+3, 2.2492322e+2, -781427.44, -987888.2, -106791.5, -0.10135339, -0.20954955, -736128.56, -397.74966, 0.0, 10.000658, 9.99793 
1.1650577e+3, 2.3492238e+2, -541645.1, -821678.56, -39044.652, -0.026872965, -0.10468813, -536303.06, 101442.695, 0.0, 10.00163, 9.99793 
1.1650691e+3, 2.4492119e+2, -339177.7, -568912.2, 125594.36, 0.07753312, -0.057893198, -283843.8, 255915.61, 0.0, 10.001891, 9.998866 
1.1650823e+3, 2.5491953e+2, -316026.9, -506606.84, 129384.33, 0.20835036, -0.13115825, -250629.34, 191143.5, 0.0, 10.001376, 9.998871 
1.16509266e+3, 2.64918e+2, -201839.8, -355063.9, 29403.441, 0.17083566, -0.18749858, -196391.1, 147392.92, 0.00000056359414, 10.001297, 9.999274 
1.1651e+3, 2.7491638e+2, -50033.363, -227689.39, -31918.201, -0.036936402, -0.29869014, -44472.883, 201321.75, 0.00000928475, 10.001647, 9.999311 
1.1651103e+3, 2.8491524e+2, -29454.938, -308692.88, 4914.2524, -0.017441073, -0.27685547, -29368.479, 118436.016, 0.000050363375, 10.001723, 9.998041 
1.1651238e+3, 2.9491442e+2, 31522.672, -231816.48, -4309.777, 0.23707455, -0.18401031, 31593.186, 81408.47, 0.00017039297, 10.001487, 9.998007 
1.1651334e+3, 3.0491176e+2, 161732.27, -101379.4, -36295.316, 0.15454271, -0.26247096, 166647.27, 166647.27, 0.00043955247, 10.001864, 9.998394 
1.1651403e+3, 3.149101e+2, 351808.9, 127508.98, -127052.99, -0.16578129, -0.28920954, 409128.94, 409128.94, 0.0008813095, 10.002542, 9.999643 
1.174943e+3, 1.2491975e+2, -1842500.3, -1683640.0, 84615.51, -0.04614894, 0.003126845, -1647014.4, 68755.766, 0.0018234614, 9.998697, 10.000818 
1.1749524e+3, 1.3491859e+2, -1853282.6, -1689215.0, 11071.221, 0.08323401, -0.1693732, -1688471.3, -70696.32, 0.0009506097, 9.99817, 10.000383 
1.17496066e+3, 1.4491671e+2, -1798685.6, -1789468.5, 124952.44, -0.12254704, -0.31134078, -1669039.6, -149247.56, 0.00031097958, 9.998646, 9.998779 
1.174973e+3, 1.5491597e+2, -1466291.1, -1584289.4, 90975.45, -0.04013061, -0.28318983, -1416858.5, 4945.5376, 0.00003785508, 10.000281, 9.998725 
1.1749835e+3, 1.6491559e+2, -1298027.4, -1388419.4, -18387.87, -0.023331821, -0.21499553, -1294430.0, 29381.56, 0.00000010132158, 10.000497, 9.999288 
1.1749928e+3, 1.7491552e+2, -1361926.9, -1363792.4, -12966.792, -0.025115183, -0.17402323, -1349859.4, -124044.18, 0.0, 9.999364, 9.999333 
1.1750032e+3, 1.8491583e+2, -1249003.0, -1184722.3, 95680.87, -0.04439239, -0.105627984, -1115927.9, 11884.463, 0.0, 9.999127, 10.0000105 
1.17501475e+3, 1.9491634e+2, -1054559.8, -1037430.9, 149392.0, -0.09388748, -0.08088368, -896358.06, 133446.38, 0.0, 9.999775, 10.000037 
1.1750268e+3, 2.0491534e+2, -1045804.7, -1193589.9, 99221.586, -0.06473385, -0.08479652, -995983.75, -64169.496, 0.0, 10.000086, 9.9981365 
1.1750398e+3, 2.1491265e+2, -950437.1, -1095987.4, 9865.3545, 0.06263725, -0.18701825, -949771.5, -115927.84, 0.0, 10.000062, 9.998147 
1.1750508e+3, 2.2491139e+2, -660762.9, -706596.8, -80406.2, 0.083117895, -0.21200879, -600071.56, 135784.58, 0.0, 10.000527, 9.999925 
1.1750597e+3, 2.3491147e+2, -417576.6, -532917.5, 6890.2373, -0.010549846, -0.2189555, -417166.44, 220685.48, 0.0, 10.001498, 9.999976 
1.1750703e+3, 2.4491142e+2, -336468.6, -536059.25, 97528.32, -0.008964123, -0.17433344, -296725.8, 243123.47, 0.0, 10.001772, 9.999151 
1.1750826e+3, 2.5491112e+2, -302105.7, -462232.75, 119152.42, 0.09163548, -0.14382418, -238616.2, 203233.45, 0.0, 10.0013075, 9.9992075 
1.1750937e+3, 2.649096e+2, -304270.5, -551106.9, 32329.543, 0.1360832, -0.15154104, -300106.38, 43756.85, 0.0000005132723, 10.0012245, 9.997965 
1.17510326e+3, 2.7490655e+2, -153718.56, -430009.56, -6495.2793, 0.108843945, -0.27234766, -153565.95, 92326.9, 0.000009286575, 10.001591, 9.99795 
1.1751136e+3, 2.8490442e+2, -41598.75, -323799.94, -10589.388, 0.12994362, -0.2756639, -41201.95, 106712.51, 0.00005131962, 10.0016775, 9.997961 
1.1751251e+3, 2.9490313e+2, 35516.36, -226689.34, -886.61145, 0.20437483, -0.2290048, 35519.355, 85447.56, 0.00017698437, 10.001487, 9.998047 
1.1751346e+3, 3.0490014e+2, 114130.11, -179134.33, -13079.281, 0.06954564, -0.32094797, 114712.27, 114712.27, 0.00045726626, 10.001789, 9.997891 
1.17514305e+3, 3.1489834e+2, 315531.2, 80823.805, -75626.555, -0.18722092, -0.3105734, 337788.63, 337788.63, 0.00091290916, 10.002432, 9.999368 
1.184941e+3, 1.24908194e+2, -1969287.8, -1700161.1, 16631.4, -0.049779233, -0.08231426, -1699137.3, 16745.607, 0.0020081834, 9.997635, 10.00122 
1.18495144e+3, 1.3490812e+2, -1727096.0, -1610287.4, -138459.45, 0.13394395, -0.16580611, -1518418.3, 99459.664, 0.0010574218, 9.998944, 10.000564 
1.1849613e+3, 1.4490715e+2, -1723875.0, -1720406.8, 14234.265, 0.06371335, -0.24299435, -1707801.4, -187914.03, 0.00035351914, 9.999017, 9.999072 
1.1849718e+3, 1.549067e+2, -1793511.1, -1706004.1, 35607.17, -0.06588352, -0.21413341, -1693346.3, -271449.66, 0.00004562391, 9.997888, 9.999041 
1.1849819e+3, 1.6490626e+2, -1622019.8, -1549946.0, -1169.7185, -0.112117164, -0.16650832, -1549927.1, -226022.42, 0.00000019883093, 9.998287, 9.999251 
1.1849926e+3, 1.7490572e+2, -1226090.0, -1300386.1, -4985.2944, -0.0334712, -0.1726049, -1225757.0, 155.5247, 0.0, 10.000298, 9.999321 
1.1850035e+3, 1.8490566e+2, -956291.4, -1047121.1, 72685.11, -0.02055847, -0.13587187, -915999.56, 211912.55, 0.0, 10.001165, 9.999968 
1.185015e+3, 1.9490603e+2, -889767.1, -958198.5, 17347.14, -0.09045868, -0.12209836, -885620.94, 144283.64, 0.0, 10.000924, 10.000019 
1.1850272e+3, 2.0490503e+2, -1016270.94, -1220429.9, 4299.3296, -0.04819043, -0.107375264, -1016180.44, -84265.336, 0.0, 10.000463, 9.997779 
1.18504025e+3, 2.149024e+2, -1023151.25, -1167527.4, 68221.234, 0.12772512, -0.16620755, -996015.4, -162068.95, 0.0, 9.999726, 9.997819 
1.1850517e+3, 2.2490117e+2, -738970.4, -723593.3, 66626.25, 0.17156373, -0.18075925, -664213.44, 71745.664, 0.0, 9.999896, 10.000109 
1.1850616e+3, 2.3490123e+2, -475494.16, -539573.06, -4603.126, 0.07115562, -0.20925201, -475165.16, 162788.47, 0.0, 10.001002, 10.000168 
1.1850723e+3, 2.4490109e+2, -392927.38, -562901.44, -27945.076, 0.042158354, -0.1857689, -388450.88, 151500.23, 0.0, 10.001386, 9.999153 
1.18508376e+3, 2.549005e+2, -341350.78, -486522.78, -47668.695, 0.09170731, -0.17946199, -327097.66, 114856.125, 0.0, 10.00106, 9.999165 
1.18509494e+3, 2.6489902e+2, -296013.25, -543590.2, -47558.65, 0.14339814, -0.18033361, -287191.72, 56775.438, 0.0000005059796, 10.001277, 9.997986 
1.18510574e+3, 2.748964e+2, -86394.69, -397359.44, -11841.874, 0.182996, -0.25828618, -85944.39, 160049.2, 0.000009353779, 10.00206, 9.997945 
1.1851163e+3, 2.8489438e+2, 86237.5, -277070.5, 35081.703, 0.18738995, -0.24278173, 89594.05, 237608.73, 0.000051335024, 10.002638, 9.997811 
1.18512705e+3, 2.9489294e+2, 241191.53, -143270.25, 15083.07, 0.1732044, -0.19296646, 241782.36, 291812.4, 0.0001797707, 10.002991, 9.997887 
1.1851367e+3, 3.048899e+2, 259374.69, -129408.75, 15056.505, 0.05517241, -0.27757335, 259956.92, 259956.92, 0.00046111151, 10.002846, 9.997733 
1.1851467e+3, 3.148875e+2, 248307.72, 53636.938, -57034.348, -0.027548153, -0.31280947, 263786.75, 263786.75, 0.0009128904, 10.001912, 9.99944 
1.19493954e+3, 1.2489322e+2, -1980106.3, -1702125.6, 21429.486, -0.0027846347, -0.3487794, -1700483.3, 15542.471, 0.0022081332, 9.997561, 10.001234 
1.19494945e+3, 1.348951e+2, -1741223.0, -1632553.4, -81995.61, 0.033537883, -0.22635417, -1588523.8, 29485.635, 0.0011730703, 9.998919, 10.00042 
1.1949613e+3, 1.4489639e+2, -1639039.3, -1539299.8, -36789.195, 0.13369755, -0.12936097, -1527198.3, -7199.4136, 0.00040013902, 9.998993, 10.000327 
1.194971e+3, 1.5489784e+2, -1701239.0, -1519841.4, 2550.4778, 0.04447263, -0.03857835, -1519805.5, -97818.85, 0.00005450229, 9.9979, 10.000317 
1.1949811e+3, 1.6489781e+2, -1611716.6, -1528815.9, 61000.57, -0.05219808, -0.022823492, -1496515.3, -172526.56, 0.00000035173326, 9.998287, 9.999397 
1.1949922e+3, 1.7489612e+2, -1222472.3, -1287388.5, 77652.625, -0.11274043, -0.15454385, -1170767.0, 55239.484, 0.0, 10.000273, 9.999425 
1.19500406e+3, 1.8489501e+2, -1044247.75, -1227223.6, 55030.38, -0.10385025, -0.169278, -1028972.5, 99045.984, 0.0, 10.001153, 9.998738 
1.1950169e+3, 1.9489436e+2, -984391.8, -1144886.6, 16292.474, -0.021808777, -0.12881945, -982754.56, 47270.84, 0.0, 10.0008745, 9.998767 
1.1950286e+3, 2.0489378e+2, -897577.94, -953652.7, -35127.496, 0.02913192, -0.100649655, -880670.5, 51359.68, 0.0, 10.00038, 9.999647 
1.1950393e+3, 2.1489313e+2, -905152.1, -898439.44, 46968.133, 0.053223033, -0.15497613, -854707.9, -20673.78, 0.0, 9.999624, 9.999714 
1.195051e+3, 2.2489248e+2, -866101.9, -964112.4, 98127.17, 0.09086658, -0.12601307, -805423.7, -69383.44, 0.0, 9.999792, 9.998508 
1.19506344e+3, 2.3489174e+2, -603595.6, -783459.25, 44849.145, 0.1438904, -0.07287626, -593032.8, 45017.223, 0.0, 10.000906, 9.998539 
1.1950749e+3, 2.4489026e+2, -427247.22, -614233.75, -49543.4, 0.15310213, -0.08633118, -414931.5, 125132.45, 0.0, 10.001296, 9.998848 
1.1950852e+3, 2.5488782e+2, -375007.38, -532927.9, -50144.58, 0.1206229, -0.23447305, -360430.47, 81653.21, 0.0, 10.00096, 9.998893 
1.1950961e+3, 2.6488644e+2, -225898.75, -381256.38, -25550.67, 0.110057905, -0.27097538, -221804.5, 122289.89, 0.0000006389743, 10.001196, 9.9991455 
1.1951073e+3, 2.7488595e+2, -7193.491, -219347.22, 29021.559, 0.11540109, -0.25652874, -3295.1218, 242801.98, 0.000009301616, 10.002001, 9.999198 
1.1951183e+3, 2.8488514e+2, 60249.26, -321004.56, 38982.36, 0.093469724, -0.17167018, 64194.3, 212299.95, 0.000051838055, 10.002586, 9.997539 
1.195129e+3, 2.9488376e+2, 210565.83, -198033.47, 41786.73, 0.05229458, -0.08807255, 214795.5, 264917.66, 0.0001815093, 10.002938, 9.997541 
1.19513944e+3, 3.0488083e+2, 245106.66, -128269.336, -22750.932, 0.019325402, -0.13910185, 246487.83, 246487.83, 0.00045696262, 10.002728, 9.997791 
1.1951508e+3, 3.148773e+2, 255794.23, 105202.586, -59935.81, 0.15016732, -0.30383414, 276736.47, 276736.47, 0.00089152856, 10.001769, 9.999857 
1.2049378e+3, 1.2488062e+2, -2105272.0, -1731161.3, 28659.227, 0.11604221, -0.36575237, -1728978.5, -12829.517, 0.0024257244, 9.996566, 10.001525 
1.204947e+3, 1.348831e+2, -1911513.1, -1663457.5, -13132.015, -0.023747053, -0.22084333, -1662764.3, -44635.457, 0.0012988481, 9.99755, 10.00086 
1.2049604e+3, 1.448852e+2, -1660385.8, -1493099.3, 5186.757, 0.17988732, -0.09270188, -1492938.5, 27171.87, 0.00045139206, 9.998591, 10.000844 
1.2049702e+3, 1.5488641e+2, -1427553.3, -1325223.3, -36030.457, 0.10293635, -0.07958442, -1313809.9, 108288.41, 0.00006471426, 9.99951, 10.000877 
1.2049803e+3, 1.6488685e+2, -1400775.4, -1408195.4, 46708.492, -0.01101146, -0.053653173, -1357629.8, -33534.758, 0.00000057087306, 9.999658, 9.999559 
1.2049917e+3, 1.7488629e+2, -1373992.1, -1339014.1, 45536.56, -0.12451302, -0.087669015, -1307723.6, -81621.02, 0.0, 9.999151, 9.999603 
1.20500416e+3, 1.8488517e+2, -1360372.3, -1425566.5, 54212.45, -0.10172222, -0.09089767, -1329711.5, -201595.67, 0.0, 9.999183, 9.998322 
1.20501794e+3, 1.9488329e+2, -1170213.9, -1278292.8, 63258.9, 0.054298855, -0.13574235, -1141055.1, -110918.25, 0.0, 9.999793, 9.9983635 
1.2050296e+3, 2.0488271e+2, -873492.44, -877112.2, 83.557556, 0.1124445, -0.117969245, -873490.5, 58650.79, 0.0, 10.00026, 10.000226 
1.2050397e+3, 2.1488333e+2, -724453.3, -747016.56, -36758.086, 0.07329652, -0.10203151, -697284.56, 136845.4, 0.0, 10.000575, 10.000297 
1.20505124e+3, 2.2488283e+2, -752707.25, -972389.06, 52652.633, 0.08757307, -0.061062194, -740739.6, -4605.0044, 0.0, 10.000845, 9.997948 
1.2050646e+3, 2.3488095e+2, -620517.06, -855918.75, 62483.844, 0.16140245, -0.06152286, -604959.8, 33197.68, 0.0, 10.001072, 9.997963 
1.2050764e+3, 2.4487905e+2, -460357.2, -624131.25, -1420.4058, 0.18493658, -0.08824159, -460344.88, 79831.484, 0.0, 10.001048, 9.99889 
1.2050863e+3, 2.5487697e+2, -400187.44, -539676.3, 3270.052, 0.1439963, -0.20875867, -400110.8, 42081.79, 0.00000000020898414, 10.000763, 9.998938 
1.2050971e+3, 2.648758e+2, -268372.5, -409015.44, 53994.39, 0.10470787, -0.22214164, -250034.48, 94166.49, 0.00000074892756, 10.000941, 9.999069 
1.20510854e+3, 2.748754e+2, -67479.914, -256258.69, -4739.1147, 0.06765914, -0.19320337, -67361.02, 178841.75, 0.000009032264, 10.00162, 9.999118 
1.2051202e+3, 2.8487432e+2, -10203.507, -338405.16, -31652.684, 0.06433368, -0.13690248, -7178.7114, 141034.53, 0.000052112464, 10.002028, 9.99769 
1.2051319e+3, 2.9487243e+2, 93017.414, -237597.11, -21692.367, 0.09909356, -0.1191183, 94434.625, 144668.81, 0.00018290883, 10.00206, 9.997693 
1.20514244e+3, 3.0487007e+2, 195276.39, -159197.19, -63726.508, 0.077369034, -0.1187781, 206384.89, 206384.89, 0.0004542555, 10.002429, 9.997713 
1.20515384e+3, 3.148668e+2, 408486.25, 184402.89, -147247.98, 0.22903462, -0.24125144, 481472.44, 481472.44, 0.00087136845, 10.002831, 9.999874 
1.2149337e+3, 1.2486987e+2, -2074186.5, -1649588.8, -50770.445, 0.029407615, -0.20630108, -1643602.4, 72655.49, 0.0026624324, 9.996511, 10.002102 
1.2149441e+3, 1.3487229e+2, -1853464.9, -1541590.5, 33835.79, -0.09438703, -0.15162784, -1537961.9, 80273.04, 0.0014356553, 9.9975395, 10.001705 
1.2149589e+3, 1.4487359e+2, -1669900.3, -1504098.6, 31163.953, 0.13367407, -0.14284475, -1498434.5, 21786.98, 0.0005075534, 9.998564, 10.000779 
1.2149692e+3, 1.5487248e+2, -1439614.8, -1348983.0, 9977.555, 0.033848476, -0.3491158, -1347897.6, 74333.18, 0.000076397075, 9.999501, 10.000722 
1.2149796e+3, 1.6487338e+2, -1391760.1, -1386722.3, 18101.648, -0.07692933, -0.27403995, -1370965.1, -46741.484, 0.0000008702971, 9.999649, 9.999707 
1.214991e+3, 1.748763e+2, -1367339.6, -1320978.5, 34512.703, -0.1359392, 0.024502741, -1302584.3, -76383.96, 0.0, 9.999126, 9.999742 
1.2150038e+3, 1.8487622e+2, -1328953.3, -1355158.0, 66410.29, -0.08688003, 0.09204174, -1274365.1, -146160.83, 0.0, 9.999163, 9.998814 
1.21501796e+3, 1.9487283e+2, -1144585.9, -1215100.4, 94511.125, 0.061252944, -0.15062788, -1078969.9, -48731.305, 0.0, 9.999746, 9.998822 
1.21503025e+3, 2.048718e+2, -939110.56, -989804.8, 1560.0945, 0.1243034, -0.16109234, -939062.6, -6814.629, 0.0, 10.000164, 9.9994955 
1.2150407e+3, 2.148732e+2, -794731.44, -862394.7, -18195.361, 0.10849339, 0.0018959598, -790148.9, 44083.64, 0.0, 10.000445, 9.999564 
1.2150522e+3, 2.2487229e+2, -739642.0, -918507.3, 49344.535, 0.08868238, 0.01930906, -726932.2, 9308.815, 0.0, 10.000727, 9.998377 
1.2150648e+3, 2.3486891e+2, -604159.4, -796228.7, 79782.055, 0.06411575, -0.1764718, -575342.75, 62932.71, 0.0, 10.000958, 9.99843 
1.21507645e+3, 2.4486752e+2, -452663.6, -579298.3, -18200.953, 0.06360566, -0.19556397, -450099.53, 90188.72, 0.0, 10.000927, 9.999253 
1.2150868e+3, 2.54868e+2, -383602.56, -492402.7, 1397.9467, 0.095298655, -0.09708317, -383584.6, 58695.6, 0.00000000018849695, 10.00071, 9.999287 
1.2150977e+3, 2.6486716e+2, -363111.16, -599360.6, 70687.15, 0.055348534, -0.032053582, -343576.44, 710.4994, 0.00000061447383, 10.000907, 9.997783 
1.2151092e+3, 2.748647e+2, -164481.5, -450355.97, 31608.537, -0.049110703, -0.07614645, -161028.31, 85282.67, 0.000008322687, 10.001578, 9.997809 
1.2151218e+3, 2.8486204e+2, 9413.585, -273977.4, -36488.664, 0.005010199, -0.13896847, 14036.359, 162373.36, 0.000050693892, 10.001934, 9.998177 
1.2151355e+3, 2.9485908e+2, 126420.83, -159208.61, -3869.9998, 0.22103411, -0.27872574, 126473.25, 176838.38, 0.00018219525, 10.002022, 9.998249 
1.2151457e+3, 3.0485758e+2, 160535.4, -217703.61, -53323.95, 0.15340592, -0.20374183, 167909.23, 167909.23, 0.00045297266, 10.002372, 9.997338 
1.2151551e+3, 3.148559e+2, 361177.06, 113105.55, -98319.96, 0.04546509, -0.13225123, 395418.53, 395418.53, 0.0008607727, 10.002724, 9.99943 
1.2249302e+3, 1.2485898e+2, -2004108.3, -1651939.6, -57574.75, 0.005341959, -0.096990086, -1642765.9, 73600.586, 0.0029179724, 9.997092, 10.001826 
1.2249419e+3, 1.3486058e+2, -1935384.9, -1581672.0, 14394.495, -0.023266174, -0.123603486, -1581087.3, 37262.586, 0.0015834377, 9.996965, 10.001708 
1.22495666e+3, 1.4486162e+2, -1877420.8, -1605008.4, 11385.659, 0.14046365, -0.1445958, -1604533.4, -84194.74, 0.00056846405, 9.997151, 10.000762 
1.22496754e+3, 1.5486056e+2, -1698668.3, -1468968.1, -27225.957, 0.013613551, -0.3476954, -1465785.3, -43437.453, 0.00008951281, 9.997719, 10.000744 
1.22497864e+3, 1.6486141e+2, -1551618.0, -1449600.0, -12099.199, -0.06832923, -0.2865399, -1448184.8, -123843.98, 0.0000012652538, 9.998462, 9.9998665 
1.2249909e+3, 1.748642e+2, -1321940.8, -1277177.3, -4533.657, -0.049318485, -0.01987291, -1276722.8, -50405.145, 0.0, 9.9993305, 9.999952 
1.2250039e+3, 1.8486445e+2, -1224339.1, -1255600.3, 46986.848, -0.004630535, 0.048791237, -1190451.3, -62133.996, 0.0, 9.999662, 9.999263 
1.22501746e+3, 1.9486186e+2, -1149645.8, -1164113.9, 51289.13, 0.056072026, -0.1583124, -1105083.0, -74740.414, 0.0, 9.999484, 9.999301 
1.2250299e+3, 2.0486079e+2, -1025386.2, -1114985.8, -6409.1953, 0.08869434, -0.16286726, -1024930.06, -92576.016, 0.0, 9.999919, 9.998759 
1.2250412e+3, 2.1486118e+2, -776541.9, -937362.2, -41843.87, 0.10084346, -0.021573158, -766306.0, 68046.08, 0.0, 10.000929, 9.998818 
1.2250531e+3, 2.2486033e+2, -665590.4, -823497.3, 10380.825, 0.09987628, 0.010765504, -664910.9, 71450.61, 0.0, 10.0009775, 9.998905 
1.22506544e+3, 2.3485799e+2, -701835.2, -781932.75, 23378.89, 0.076203465, -0.13670944, -695510.75, -57126.617, 0.0, 10.000019, 9.998979 
1.2250773e+3, 2.448569e+2, -548375.94, -653807.0, -33993.508, 0.0916536, -0.14122888, -538366.0, 2027.6547, 0.0, 10.000385, 9.999011 
1.22508876e+3, 2.5485694e+2, -185581.36, -421844.3, -74753.35, 0.15360749, -0.059060775, -163916.17, 278474.72, 0.0, 10.002182, 9.999063 
1.2251002e+3, 2.648556e+2, -63204.824, -472765.16, 8642.445, 0.1136915, -0.023842689, -63022.535, 281379.97, 0.0000003685213, 10.003049, 9.997622 
1.22511156e+3, 2.748526e+2, 9757.02, -382632.0, 33195.71, -0.033861987, -0.10624385, 12545.526, 258976.42, 0.0000073761885, 10.002864, 9.997652 
1.2251244e+3, 2.8484973e+2, 135240.67, -214270.38, -1995.5688, 0.029986337, -0.17880705, 135252.06, 283710.06, 0.00004908337, 10.002786, 9.9981785 
1.2251387e+3, 2.94847e+2, 221956.08, -114146.47, -27412.863, 0.31525654, -0.29743755, 224177.22, 274661.22, 0.00018065568, 10.002677, 9.998245 
1.2251492e+3, 3.048462e+2, 269264.1, -164455.94, -38045.008, 0.2191907, -0.15510537, 272576.03, 272576.03, 0.00045038539, 10.003106, 9.997356 
1.22515805e+3, 3.1484422e+2, 501513.53, 139472.97, -84272.84, 0.012976083, -0.11425919, 520168.6, 520168.6, 0.0008532325, 10.003818, 9.999106 
1.2349269e+3, 1.2484767e+2, -2060447.6, -1766388.8, -126161.51, -0.08061307, -0.07129609, -1719680.3, -3202.7761, 0.0031899144, 9.99709, 10.001036 
1.23494044e+3, 1.3484809e+2, -1985612.0, -1689948.1, 12306.243, 0.10765882, -0.14415623, -1689436.8, -70963.85, 0.0017411282, 9.996979, 10.000959 
1.2349536e+3, 1.448492e+2, -1876812.4, -1606401.0, 23327.299, 0.1002537, -0.11697549, -1604403.5, -83941.25, 0.0006337289, 9.997156, 10.000755 
1.2349651e+3, 1.5485056e+2, -1692554.6, -1468881.4, 1649.7588, -0.029081741, -0.07733765, -1468869.3, -46419.24, 0.00010392506, 9.997751, 10.000741 
1.23497754e+3, 1.6485085e+2, -1524470.1, -1391241.1, 7369.0923, -0.053174984, -0.09349103, -1390834.8, -66387.61, 0.0000017603737, 9.998459, 10.000264 
1.23499155e+3, 1.7485e+2, -1298326.9, -1226208.5, 34027.793, 0.060507182, -0.22635514, -1212688.0, 13766.022, 0.0, 9.999317, 10.00031 
1.2350045e+3, 1.8484987e+2, -1203952.6, -1205505.8, 31499.518, 0.06892593, -0.23137367, -1173220.1, -44765.7, 0.0, 9.999632, 9.999621 
1.23501614e+3, 1.9485033e+2, -1130345.3, -1114211.9, 53951.793, -0.037634768, -0.16877067, -1067727.0, -37277.62, 0.0, 9.999437, 9.999669 
1.23502836e+3, 2.0484957e+2, -1086808.6, -1219753.8, 18251.871, -0.06836525, -0.12987667, -1084348.4, -151888.34, 0.0, 9.999825, 9.998084 
1.2350412e+3, 2.1484742e+2, -843115.56, -1050099.6, 3361.745, -0.016826717, -0.17455615, -843061.0, -8573.049, 0.0, 10.000815, 9.998101 
1.2350537e+3, 2.2484699e+2, -643029.2, -747617.0, -33808.355, 0.045735776, -0.089989625, -633052.25, 103443.2, 0.0, 10.000853, 9.999487 
1.23506606e+3, 2.3484819e+2, -677710.44, -707527.3, -2931.9749, 0.11781245, 0.05696834, -677424.9, -38941.617, 0.0, 9.999914, 9.999542 
1.2350787e+3, 2.4484721e+2, -617933.06, -778086.06, 23213.555, 0.18062413, 0.07767948, -614636.25, -74144.05, 0.0, 10.0002985, 9.9981985 
1.2350919e+3, 2.5484383e+2, -252486.98, -545926.9, 2855.723, 0.24121863, -0.102493025, -252459.2, 190065.25, 0.0, 10.002109, 9.998251 
1.2351043e+3, 2.6484117e+2, -21935.953, -356128.88, -3586.4944, 0.20001478, -0.20237726, -21897.469, 322650.1, 0.00000016286783, 10.002921, 9.998482 
1.2351154e+3, 2.7483904e+2, 58143.043, -262254.1, 39356.33, 0.040182773, -0.2831368, 62906.598, 309469.22, 0.000006622681, 10.002778, 9.998519 
1.2351277e+3, 2.8483734e+2, 88181.63, -288736.1, -11992.97, 0.06303321, -0.2605345, 88562.85, 237140.28, 0.00004875032, 10.00269, 9.997711 
1.2351414e+3, 2.9483598e+2, 180767.81, -190317.78, -16826.154, 0.294578, -0.19273171, 181529.2, 232121.98, 0.00018162774, 10.002631, 9.997747 
1.23515196e+3, 3.048357e+2, 285228.8, -114278.08, -11898.449, 0.18145195, 0.008474978, 285582.88, 285582.88, 0.0004514282, 10.003034, 9.997736 
1.2351619e+3, 3.148319e+2, 474029.4, 111810.74, -23153.297, -0.035005715, -0.17105022, 475503.38, 475503.38, 0.00085091515, 10.003692, 9.998976 
1.2449237e+3, 1.248351e+2, -2100235.0, -1812236.4, -74502.055, -0.09110133, -0.14752914, -1794105.0, -77507.6, 0.003475539, 9.9969635, 10.000772 
1.2449391e+3, 1.348351e+2, -1832138.9, -1656288.6, 37494.723, 0.23120444, -0.22273839, -1648627.8, -30031.393, 0.0019075654, 9.998216, 10.000597 
1.2449509e+3, 1.448358e+2, -1691236.4, -1547209.3, 55743.094, 0.04369036, -0.20309693, -1528155.5, -7565.219, 0.0007030745, 9.998554, 10.00049 
1.2449629e+3, 1.5483789e+2, -1654836.3, -1477698.4, -3086.7058, -0.030044802, -0.0653875, -1477644.6, -55071.855, 0.00011956255, 9.998134, 10.000494 
1.2449762e+3, 1.6483833e+2, -1542462.1, -1370697.0, 30647.791, -0.007326568, -0.06512014, -1365392.4, -40823.715, 0.0000023468863, 9.998226, 10.000509 
1.24499135e+3, 1.7483701e+2, -1345041.9, -1218333.3, 25531.727, 0.1313864, -0.2711333, -1213382.0, 13197.116, 0.0, 9.998887, 10.00056 
1.2450045e+3, 1.8483695e+2, -1236280.9, -1221399.5, -4129.782, 0.12148874, -0.28057936, -1220330.3, -91751.44, 0.0, 9.999402, 9.999623 
1.2450156e+3, 1.9483808e+2, -1091442.5, -1097490.3, -22827.248, -0.043405775, -0.15442462, -1071439.8, -40870.777, 0.0, 9.999705, 9.999658 
1.24502786e+3, 2.0483764e+2, -1091287.9, -1152978.1, -1942.777, -0.07690487, -0.112216, -1091226.8, -158651.0, 0.0, 9.999493, 9.998705 
1.2450414e+3, 2.1483546e+2, -1106571.3, -1102356.0, 62609.72, 0.036460463, -0.22304027, -1041818.44, -207217.38, 0.0, 9.998687, 9.998767 
1.2450542e+3, 2.2483522e+2, -883429.3, -864124.9, 86193.86, 0.10245929, -0.15495852, -787044.44, -50438.38, 0.0, 9.99921, 9.9994755 
1.2450665e+3, 2.3483674e+2, -498970.63, -621984.94, 52882.59, 0.11914725, 0.026267027, -479362.44, 159229.47, 0.0, 10.001147, 9.999534 
1.24507986e+3, 2.4483578e+2, -401294.0, -713929.56, 99058.71, 0.18366662, 0.06553163, -372549.97, 168052.6, 0.0, 10.001956, 9.997843 
1.2450944e+3, 2.5483215e+2, -362920.44, -638410.9, 93837.164, 0.30362943, -0.104157105, -333994.84, 108645.03, 0.0, 10.001525, 9.997892 
1.2451072e+3, 2.648297e+2, -231530.94, -438993.88, 69581.516, 0.29150784, -0.17245597, -210355.22, 134306.84, 0.000000050542315, 10.0013895, 9.9986515 
1.2451184e+3, 2.748283e+2, -112343.336, -328940.88, 39672.46, 0.13540618, -0.19900236, -105305.52, 141364.56, 0.0000061370592, 10.00152, 9.998675 
1.2451306e+3, 2.848265e+2, 2588.2148, -359902.13, 12815.725, 0.123256385, -0.18039899, 3040.7456, 151725.84, 0.000049451537, 10.002243, 9.997436 
1.24514416e+3, 2.948241e+2, 298734.8, -159997.22, -919.585, 0.27302262, -0.1865931, 298736.66, 349445.53, 0.00018698946, 10.003574, 9.997496 
1.24515526e+3, 3.0482328e+2, 386927.47, -88566.195, -15081.755, 0.16580833, -0.014809033, 387405.34, 387405.34, 0.00046381343, 10.003815, 9.997545 
1.24516614e+3, 3.148194e+2, 297704.38, -45752.67, -95839.016, 0.07883573, -0.18646768, 322637.5, 322637.5, 0.00086837995, 10.002799, 9.998322 
1.2549211e+3, 1.2482188e+2, -2076652.0, -1774900.1, 34649.27, -0.08092011, -0.27519143, -1770972.5, -54252.74, 0.0037739007, 9.997001, 10.001013 
1.2549381e+3, 1.3482162e+2, -1828931.8, -1663327.0, 88681.555, 0.28586668, -0.37282544, -1624800.6, -6080.615, 0.0020822603, 9.998257, 10.000535 
1.2549484e+3, 1.4482154e+2, -1721290.6, -1612914.9, 29041.41, -0.0863049, -0.4067477, -1605623.3, -84901.53, 0.0007764397, 9.998568, 10.000032 
1.2549607e+3, 1.5482266e+2, -1680397.0, -1540661.6, -10746.809, -0.067280196, -0.32029575, -1539840.0, -117125.05, 0.00013646827, 9.998169, 10.000049 
1.2549748e+3, 1.6482387e+2, -1544034.4, -1375149.5, 44337.945, -0.0035228473, -0.22005224, -1364217.0, -39511.484, 0.0000030208696, 9.998229, 10.000478 
1.2549901e+3, 1.7482518e+2, -1344006.1, -1220569.4, 57345.563, 0.099018216, -0.16115446, -1198040.1, 28653.035, 0.0, 9.998897, 10.000544 
1.2550037e+3, 1.8482569e+2, -1256011.5, -1259475.6, -3397.0618, 0.08703966, -0.10257104, -1253930.5, -125239.91, 0.0, 9.999388, 9.999371 
1.2550154e+3, 1.9482511e+2, -1113530.8, -1137326.4, -4251.1235, -0.0395989, -0.11950028, -1112794.1, -82093.6, 0.0, 9.999672, 9.999402 
1.2550282e+3, 2.0482501e+2, -973267.5, -882795.8, -41659.36, -0.008740198, -0.12248256, -866535.44, 66165.44, 0.0, 9.999391, 10.00061 
1.2550417e+3, 2.1482535e+2, -987376.5, -830528.5, 40621.832, 0.18382725, -0.17608808, -820632.3, 14059.396, 0.0, 9.998581, 10.000687 
1.2550545e+3, 2.2482495e+2, -940697.7, -956354.3, 146698.56, 0.1896909, -0.19037716, -801618.75, -64924.55, 0.0, 9.999096, 9.998898 
1.2550667e+3, 2.3482369e+2, -554709.75, -718171.06, 133573.77, 0.008808801, -0.22813815, -479845.88, 158864.16, 0.0, 10.001056, 9.99892 
1.2550804e+3, 2.4482268e+2, -412113.5, -709507.56, 74842.84, 0.034302805, -0.16837595, -394340.53, 146383.7, 0.0, 10.00184, 9.99793 
1.2550958e+3, 2.548218e+2, -372051.03, -637375.1, 86954.445, 0.2731515, -0.07267185, -346093.1, 96645.05, 0.0, 10.001433, 9.997945 
1.255109e+3, 2.6482096e+2, -285342.38, -525564.06, 65425.688, 0.32078496, 0.047153, -268679.2, 76069.16, 0.00000007625481, 10.001286, 9.998105 
1.2551203e+3, 2.748201e+2, -162012.27, -412850.63, 56685.88, 0.16844086, 0.12815548, -149796.92, 96958.45, 0.0000061507535, 10.001439, 9.998137 
1.255133e+3, 2.8481704e+2, -12452.0, -382712.88, 54172.844, 0.12028444, 0.056057815, -4688.7476, 144093.03, 0.000051588435, 10.002198, 9.997301 
1.2551472e+3, 2.948114e+2, 283645.97, -185518.1, 62393.28, 0.17682165, -0.26719937, 291801.78, 342633.13, 0.00019949443, 10.003537, 9.997342 
1.2551586e+3, 3.048089e+2, 324469.63, -204663.97, -57763.785, 0.097833864, -0.21571374, 330702.1, 330702.1, 0.00049676397, 10.003761, 9.996769 
1.2551703e+3, 3.1480658e+2, 186439.0, -249487.19, -99553.445, 0.17645748, -0.15525125, 208098.11, 208098.11, 0.0009252034, 10.002681, 9.996981 
1.2649181e+3, 1.2480765e+2, -2052960.6, -1742284.4, 67709.05, -0.0811717, -0.33196786, -1728169.1, -11311.362, 0.004085261, 9.997085, 10.001192 
1.2649353e+3, 1.3480817e+2, -1944067.5, -1720635.3, -23048.053, 0.22859009, -0.34412217, -1718282.5, -99430.95, 0.0022650692, 9.997497, 10.000492 
1.2649456e+3, 1.4480832e+2, -1848469.4, -1642828.1, -69484.4, -0.16755034, -0.36708957, -1621551.4, -100700.36, 0.00085386867, 9.997565, 10.00031 
1.2649593e+3, 1.5480907e+2, -1740748.8, -1534418.6, -74507.61, -0.012388688, -0.34547877, -1510326.4, -87479.695, 0.00015477135, 9.997616, 10.000353 
1.2649736e+3, 1.6481009e+2, -1598122.3, -1426244.5, 54143.62, 0.08126886, -0.2665025, -1410610.6, -85772.24, 0.0000038088367, 9.997957, 10.000258 
1.2649885e+3, 1.7481144e+2, -1394727.1, -1269557.6, 35944.48, 0.07502859, -0.18454677, -1259970.0, -33144.203, 0.0, 9.998653, 10.000324 
1.2650026e+3, 1.8481201e+2, -1297042.0, -1248764.9, -17834.074, 0.071187064, -0.11978977, -1242891.4, -114068.91, 0.0, 9.99898, 9.999639 
1.265016e+3, 1.9481164e+2, -1207328.9, -1149551.3, -295.9091, 0.07984968, -0.14204176, -1149549.8, -118719.18, 0.0, 9.998903, 9.999681 
1.2650287e+3, 2.0481195e+2, -928629.06, -801291.6, -48640.35, 0.10860057, -0.14605612, -784838.0, 147987.8, 0.0, 9.999437, 10.0011425 
1.265041e+3, 2.1481282e+2, -666003.94, -615666.1, -90088.9, 0.15029708, -0.20066136, -547296.3, 287512.34, 0.0, 10.000532, 10.001217 
1.2650539e+3, 2.2481237e+2, -689315.8, -866742.44, 18676.074, 0.12675242, -0.23292331, -687371.25, 49439.973, 0.0, 10.000945, 9.998631 
1.2650679e+3, 2.3481052e+2, -647299.44, -790360.44, 14609.093, 0.049926117, -0.30097592, -645822.8, -6987.9185, 0.0, 10.000543, 9.9986725 
1.265082e+3, 2.4480966e+2, -533412.75, -723599.1, -24104.238, 0.07685931, -0.23212923, -530405.4, 10442.718, 0.0, 10.00082, 9.998319 
1.2650967e+3, 2.5480965e+2, -288602.0, -553019.56, -8587.418, 0.21257152, -0.08457541, -288323.38, 154528.69, 0.0, 10.001817, 9.998338 
1.2651102e+3, 2.6480892e+2, -105227.86, -482951.3, 11346.566, 0.24644174, 0.044147924, -104887.33, 239974.52, 0.00000015326442, 10.002705, 9.997722 
1.2651227e+3, 2.748073e+2, 94154.2, -330690.7, -8749.887, 0.17666875, 0.08864247, 94334.336, 341212.84, 0.0000068361555, 10.003375, 9.997771 
1.2651363e+3, 2.848041e+2, 164496.42, -297308.1, 18708.0, 0.1709784, 0.020900724, 165253.05, 314160.47, 0.000055435252, 10.00342, 9.997295 
1.2651508e+3, 2.9479897e+2, 197873.31, -225618.6, 14178.737, 0.2337124, -0.24771857, 198347.5, 249299.27, 0.00021908835, 10.002951, 9.997339 
1.2651627e+3, 3.0479595e+2, 306843.97, -223847.61, -58159.004, 0.14800218, -0.24615233, 313142.9, 313142.9, 0.0005508417, 10.003698, 9.996659 
1.2651752e+3, 3.1479353e+2, 569080.8, -111093.81, -80663.016, 0.25521564, -0.18100698, 578515.94, 578515.94, 0.0010267269, 10.005522, 9.996557 
1.2749146e+3, 1.24792986e+2, -2046824.5, -1730519.3, 176622.55, -0.18290664, -0.27015224, -1651590.0, 65415.777, 0.0044096503, 9.997089, 10.00127 
1.2749304e+3, 1.3479483e+2, -1948456.5, -1736262.3, -9463.371, -0.025503153, -0.13685259, -1735841.1, -116851.15, 0.0024558255, 9.997512, 10.000385 
1.2749422e+3, 1.4479621e+2, -1778480.4, -1497473.3, -80087.17, -0.29003924, -0.08381441, -1476251.0, 44726.508, 0.00093550276, 9.997566, 10.001304 
1.274958e+3, 1.5479715e+2, -1670678.8, -1392463.9, -63879.945, 0.06540396, -0.14295219, -1378497.8, 44469.992, 0.00017466526, 9.997626, 10.001323 
1.2749727e+3, 1.6479702e+2, -1619416.0, -1475476.5, 68354.516, 0.17622866, -0.21145244, -1448189.0, -123221.78, 0.0000047674703, 9.9979725, 9.999916 
1.2749866e+3, 1.7479576e+2, -1416875.3, -1320915.6, 68257.9, -0.011275525, -0.35228664, -1285461.6, -58484.78, 0.0, 9.99867, 9.999967 
1.2750012e+3, 1.8479596e+2, -1248502.9, -1146078.6, -28461.96, -0.00026361723, -0.34295097, -1138701.0, -9726.767, 0.0, 9.998969, 10.000349 
1.2750167e+3, 1.9479764e+2, -1158120.8, -1045658.0, 6242.3057, 0.23840126, -0.23548763, -1045312.56, -14353.267, 0.0, 9.998885, 10.000407 
1.2750293e+3, 2.0479839e+2, -1000651.1, -930253.6, -19048.941, 0.20205207, -0.19119857, -925429.7, 7521.267, 0.0, 9.999351, 10.000298 
1.2750387e+3, 2.1479796e+2, -742766.2, -747844.25, -41981.79, -0.13298991, -0.28888085, -703246.75, 131704.36, 0.0, 10.000413, 10.000366 
1.275052e+3, 2.2479759e+2, -702708.4, -861690.75, -4916.372, -0.15414353, -0.2760331, -702556.44, 34399.363, 0.0, 10.000809, 9.998728 
1.2750697e+3, 2.347972e+2, -658499.0, -788184.56, 10182.811, 0.16557772, -0.2095552, -657704.3, -18737.719, 0.0, 10.000431, 9.99874 
1.2750846e+3, 2.4479663e+2, -509180.53, -645789.8, 4174.3774, 0.23736553, -0.14094879, -509053.1, 31921.809, 0.0, 10.000701, 9.99891 
1.275097e+3, 2.5479582e+2, -255167.11, -463449.56, 39830.26, 0.04197252, -0.14123379, -247810.16, 195171.05, 0.0, 10.001729, 9.998995 
1.2751105e+3, 2.6479378e+2, -133060.05, -522305.9, 29265.371, -0.010534116, -0.16584301, -130872.04, 214128.7, 0.00000020123079, 10.002623, 9.99749 
1.2751253e+3, 2.747902e+2, 58721.57, -379210.75, 29199.504, 0.082699254, -0.29426736, 60659.89, 307696.72, 0.0000077157165, 10.003268, 9.997489 
1.2751402e+3, 2.8478783e+2, 156729.9, -295387.7, -8013.4365, 0.19977297, -0.2631599, 156871.89, 305932.3, 0.000060403843, 10.00334, 9.997346 
1.2751551e+3, 2.9478672e+2, 189304.08, -221546.63, 11938.793, 0.346592, -0.14205483, 189650.72, 240722.22, 0.00024205422, 10.002855, 9.997415 
1.2751673e+3, 3.047842e+2, 325745.56, -169145.81, 5484.465, 0.2256292, -0.11084266, 325806.34, 325806.34, 0.0006157275, 10.00363, 9.997067 
1.27518e+3, 3.1478077e+2, 573694.9, -67748.59, 24971.107, 0.16008767, -0.19766344, 574665.5, 574665.5, 0.0011558497, 10.005392, 9.99691 
1.2849127e+3, 1.24778785e+2, -1815119.6, -1584730.6, 249505.44, -0.13979585, -0.19238946, -1425111.1, 292034.13, 0.0047468157, 9.9985075, 10.001601 
1.2849261e+3, 1.3477997e+2, -2189150.0, -1804442.1, -2567.5208, -0.12246627, -0.16536461, -1804425.0, -185290.78, 0.0026545508, 9.995656, 10.000809 
1.2849396e+3, 1.4478171e+2, -2093079.8, -1643090.9, 33462.582, -0.18971245, -0.10196994, -1640616.0, -119497.98, 0.0010215283, 9.99538, 10.001363 
1.284956e+3, 1.5478316e+2, -1567640.9, -1334455.5, -35894.305, 0.096783735, -0.11586988, -1329055.4, 94049.375, 0.00019628371, 9.9983, 10.001395 
1.2849717e+3, 1.6478322e+2, -1376001.6, -1343881.4, 45886.74, 0.19825733, -0.17548685, -1311325.4, 13777.22, 0.0000059623408, 9.999586, 10.000046 
1.284986e+3, 1.7478178e+2, -1353280.0, -1277430.5, 62078.055, 0.054008007, -0.34374136, -1242609.3, -15496.589, 0.0, 9.999056, 10.000081 
1.2850004e+3, 1.847816e+2, -1262327.6, -1127807.1, -22532.492, 0.057604045, -0.38746256, -1124133.1, 4978.2676, 0.0, 9.998774, 10.000566 
1.2850153e+3, 1.9478267e+2, -1152312.1, -1016929.75, -46265.85, 0.2290864, -0.36382142, -1002629.3, 28469.615, 0.0, 9.998828, 10.0006275 
1.2850282e+3, 2.0478319e+2, -1060932.4, -1015529.2, -29338.068, 0.17369942, -0.32720235, -1001135.2, -68042.516, 0.0, 9.999175, 9.999801 
1.2850389e+3, 2.1478298e+2, -871708.4, -865214.2, -41926.445, -0.12332495, -0.35074872, -826409.3, 8684.965, 0.0, 9.999766, 9.999872 
1.2850529e+3, 2.247829e+2, -774424.4, -866616.9, -4674.1387, -0.11083296, -0.29881936, -774188.0, -37090.445, 0.0, 10.000193, 9.998986 
1.2850706e+3, 2.3478277e+2, -639552.44, -747848.4, 67.43336, 0.23659982, -0.23025197, -639552.4, -448.38272, 0.0, 10.000433, 9.999013 
1.285086e+3, 2.4478213e+2, -443701.53, -587607.1, 47870.242, 0.2845252, -0.1960368, -429232.3, 111879.0, 0.0, 10.001021, 9.999163 
1.2850983e+3, 2.5478083e+2, -208113.97, -413696.28, 36689.38, 0.0122446595, -0.26953736, -201762.4, 241358.05, 0.0, 10.001928, 9.999247 
1.2851125e+3, 2.6477867e+2, -170659.2, -520528.97, 14256.804, -0.05133356, -0.32553923, -170079.22, 175061.23, 0.00000014147287, 10.002289, 9.997655 
1.2851283e+3, 2.7477548e+2, -89866.445, -431886.78, 20428.105, 0.109484226, -0.4334257, -88650.65, 158523.27, 0.000007879153, 10.002171, 9.997648 
1.2851433e+3, 2.847738e+2, 55780.97, -304169.5, 26677.242, 0.22642255, -0.35991853, 57747.375, 206939.67, 0.000065258544, 10.002471, 9.997709 
1.2851577e+3, 2.947736e+2, 252448.19, -149631.5, 41419.35, 0.30180895, -0.18224727, 256670.58, 307866.94, 0.00026845583, 10.003106, 9.997791 
1.2851705e+3, 3.047713e+2, 391681.34, -97098.17, 116360.516, 0.16603321, -0.16777642, 417968.75, 417968.75, 0.0006902029, 10.003904, 9.997436 
1.2851854e+3, 3.147689e+2, 542075.7, -30014.332, 105751.8, 0.17257418, -0.18264028, 560998.2, 560998.2, 0.0013021678, 10.0049095, 9.9974165 
1.2949105e+3, 1.2476466e+2, -1774739.1, -1499238.1, 116728.484, -0.24439368, -0.15421861, -1456431.9, 260848.08, 0.0050962004, 9.998501, 10.0021925 
1.2949218e+3, 1.3476361e+2, -2129094.0, -1672461.6, -109362.19, -0.12493676, -0.4433753, -1647621.0, -28336.965, 0.0028611089, 9.995628, 10.001727 
1.2949376e+3, 1.4476478e+2, -2156285.8, -1769944.6, 125973.586, 0.0638789, -0.4375695, -1732498.1, -211225.33, 0.00111182, 9.995362, 10.000502 
1.2949537e+3, 1.5476723e+2, -1627686.8, -1464852.6, 84093.08, 0.0059653744, -0.26387239, -1429221.0, -5964.6235, 0.000219555, 9.998316, 10.000497 
1.29497e+3, 1.6476876e+2, -1337052.5, -1262333.0, 16633.41, 0.06064347, -0.1589545, -1258797.5, 66446.2, 0.0000074533, 9.999581, 10.000607 
1.2949868e+3, 1.7476952e+2, -1312079.3, -1192744.6, 48514.42, 0.20429623, -0.16819826, -1175510.5, 51722.61, 0.0, 9.999056, 10.000662 
1.2950008e+3, 1.8476902e+2, -1286875.3, -1176951.8, -30376.041, 0.1774448, -0.2590268, -1169116.3, -39882.902, 0.0, 9.998761, 10.000237 
1.295012e+3, 1.9476682e+2, -1179006.8, -1068713.8, -36041.227, -0.017001377, -0.52467686, -1057980.8, -26732.275, 0.0, 9.998804, 10.000288 
1.2950252e+3, 2.047664e+2, -1082176.1, -1041122.5, -16889.934, -0.047581643, -0.5589589, -1035067.0, -101816.41, 0.0, 9.999098, 9.999661 
1.295041e+3, 2.1476789e+2, -900260.8, -896187.1, -11581.343, 0.101601265, -0.40037602, -886464.9, -51226.27, 0.0, 9.999645, 9.999718 
1.2950562e+3, 2.2476827e+2, -768181.2, -824748.75, -4097.191, 0.18148747, -0.3089199, -767886.0, -30649.252, 0.0, 10.000066, 9.999336 
1.2950708e+3, 2.3476732e+2, -627409.0, -698005.94, 20589.006, 0.18675077, -0.36080787, -621843.2, 17403.62, 0.0, 10.000321, 9.999411 
1.2950857e+3, 2.4476622e+2, -470143.72, -608316.1, 72162.61, 0.14145145, -0.38972858, -439328.25, 101928.83, 0.0, 10.000883, 9.9990835 
1.2951009e+3, 2.547648e+2, -236442.89, -438401.53, 80924.24, 0.043858793, -0.46641073, -208017.58, 235251.63, 0.0, 10.001792, 9.999138 
1.295116e+3, 2.6476368e+2, -148695.89, -460240.72, 1739.4844, 0.04974976, -0.43435284, -148686.17, 196594.58, 0.000000052302592, 10.002211, 9.998114 
1.2951313e+3, 2.74763e+2, -67877.45, -364229.13, 28813.824, 0.16583146, -0.33798578, -65101.926, 182188.95, 0.000007172051, 10.002069, 9.998166 
1.2951455e+3, 2.8476188e+2, 85372.99, -219451.72, 42161.168, 0.16000818, -0.2695964, 91096.945, 240400.86, 0.00006966216, 10.002366, 9.998342 
1.295158e+3, 2.9475984e+2, 281408.94, -71846.234, 78174.85, 0.017380746, -0.34179127, 297935.72, 349260.38, 0.00029972047, 10.003028, 9.9983635 
1.2951718e+3, 3.0475733e+2, 396374.44, -66010.1, 142097.23, -0.096660726, -0.3836956, 436551.8, 436551.8, 0.00077769125, 10.003824, 9.997686 
1.2951903e+3, 3.1475797e+2, 556936.5, 63664.34, 180264.11, 0.15069199, -0.12842053, 615791.0, 615791.0, 0.001468833, 10.0046625, 9.998172 
1.3049088e+3, 1.2474877e+2, -2284124.5, -1732974.5, 19472.012, -0.07952143, -0.19396462, -1732287.4, -14854.583, 0.0054552136, 9.994971, 10.002277 
1.3049184e+3, 1.3474806e+2, -1723417.9, -1435060.9, -228547.25, -0.1503631, -0.4826699, -1309014.9, 310418.53, 0.003073975, 9.998242, 10.002096 
1.3049363e+3, 1.4474933e+2, -1614140.3, -1519342.5, 55434.7, 0.21304494, -0.4835037, -1493805.5, 27615.34, 0.0012055306, 9.999121, 10.000409 
1.3049515e+3, 1.5475132e+2, -1757497.9, -1539547.5, 55234.023, 0.0038569435, -0.34259832, -1526349.1, -102941.055, 0.000244213, 9.997484, 10.000381 
1.3049679e+3, 1.647531e+2, -1681621.4, -1397643.9, 9548.658, 0.019097963, -0.21951483, -1397323.3, -71929.72, 0.000009295233, 9.997094, 10.000873 
1.3049856e+3, 1.7475483e+2, -1423845.6, -1214682.9, -2991.3474, 0.24066871, -0.15906966, -1214640.1, 12735.105, 0.0, 9.998162, 10.000937 
1.305e+3, 1.847547e+2, -1250022.1, -1182913.6, -67318.766, 0.22763984, -0.2149118, -1141250.1, -11877.325, 0.0, 9.999106, 10.000035 
1.3050109e+3, 1.947523e+2, -1039513.6, -1026089.94, -81615.555, -0.040112432, -0.47945485, -950910.7, 80479.586, 0.0, 9.999864, 10.000072 
1.3050249e+3, 2.0475157e+2, -930435.44, -964871.75, -44151.273, -0.04023282, -0.5338504, -900263.75, 33131.53, 0.0, 10.000135, 9.999681 
1.305042e+3, 2.1475266e+2, -866219.1, -874545.94, -44927.695, 0.25125736, -0.41844678, -825262.3, 10124.179, 0.0, 9.999872, 9.999752 
1.3050576e+3, 2.2475284e+2, -710960.1, -764337.2, 6613.4214, 0.3126823, -0.36235785, -710152.94, 27231.783, 0.0, 10.000317, 9.999628 
1.3050711e+3, 2.3475191e+2, -438123.97, -571194.0, 6664.4897, 0.12417391, -0.4447585, -437791.03, 201600.63, 0.0, 10.001474, 9.99972 
1.305086e+3, 2.4475098e+2, -359065.97, -581340.56, 45986.88, 0.056738906, -0.46326104, -349927.38, 191473.11, 0.0, 10.0017605, 9.998843 
1.305103e+3, 2.5474983e+2, -352668.53, -523397.22, 24855.086, 0.12677951, -0.4835013, -349123.66, 94289.46, 0.0, 10.001109, 9.998884 
1.3051185e+3, 2.6474926e+2, -278416.44, -432037.7, -30194.584, 0.15480182, -0.42305678, -272694.75, 72725.05, 0.000000026393016, 10.000941, 9.998918 
1.3051325e+3, 2.7474928e+2, -120518.58, -300696.94, -3592.2678, 0.12969634, -0.34125105, -120446.984, 126973.55, 0.0000066700077, 10.001322, 9.998969 
1.3051467e+3, 2.847482e+2, -1673.9204, -307575.2, 32243.14, 0.07377767, -0.28595403, 1687.6859, 151120.52, 0.00007503933, 10.001971, 9.997923 
1.3051607e+3, 2.947458e+2, 245301.86, -141006.84, -33545.82, -0.01120567, -0.34881902, 248193.23, 299653.56, 0.0003340975, 10.003006, 9.997895 
1.3051756e+3, 3.0474278e+2, 332500.1, -88759.34, -15048.764, -0.08699016, -0.41921097, 333037.0, 333037.0, 0.0008727027, 10.00333, 9.997777 
1.305194e+3, 3.1474322e+2, 320581.0, 8808.984, -13375.572, 0.17081061, -0.19281273, 321153.78, 321153.78, 0.0016510802, 10.00275, 9.998733 
1.3149048e+3, 1.2473092e+2, -2316916.8, -1799438.4, 234.0926, -0.017399147, -0.35589042, -1799438.3, -81832.42, 0.005819013, 9.99495, 10.00184 
1.3149157e+3, 1.3473344e+2, -1740544.1, -1478370.0, -94616.46, -0.2640931, -0.2863154, -1447790.4, 171790.88, 0.0032902497, 9.998265, 10.001791 
1.3149352e+3, 1.4473547e+2, -1562959.5, -1411788.0, -16834.62, 0.16180237, -0.23512362, -1409936.0, 111624.836, 0.0013013786, 9.999125, 10.0011425 
1.3149494e+3, 1.5473555e+2, -1712189.1, -1441867.3, -51.28976, 0.02731076, -0.35286203, -1441867.3, -18308.791, 0.00026992275, 9.997469, 10.00106 
1.314965e+3, 1.6473627e+2, -1688323.4, -1412285.8, 36712.063, 0.0073300917, -0.365575, -1407486.6, -81935.195, 0.00001153221, 9.9970875, 10.00078 
1.3149825e+3, 1.7473774e+2, -1426851.1, -1226427.5, 44848.91, 0.10008962, -0.32272214, -1216849.4, 10689.378, 0.0, 9.998175, 10.000855 
1.3149984e+3, 1.8473874e+2, -1261919.5, -1199291.4, -48322.38, 0.12930632, -0.25654012, -1173024.0, -43494.684, 0.0, 9.999073, 9.999937 
1.3150123e+3, 1.947391e+2, -1052974.8, -1044302.56, -46381.555, 0.08845755, -0.23674208, -1002054.9, 29469.826, 0.0, 9.999817, 9.99997 
1.3150269e+3, 2.047387e+2, -930422.06, -944323.2, -62628.81, 0.12527923, -0.26143286, -874359.3, 59167.605, 0.0, 10.000049, 9.999865 
1.3150422e+3, 2.1473739e+2, -868175.56, -857548.44, -46194.914, 0.2572866, -0.40493214, -816362.5, 19175.072, 0.0, 9.999773, 9.999921 
1.315057e+3, 2.2473666e+2, -712148.1, -736289.94, 40540.84, 0.20994258, -0.45921174, -681919.3, 55622.11, 0.0, 10.000188, 9.999883 
1.3150711e+3, 2.3473656e+2, -440187.06, -546298.5, 61248.242, -0.03038284, -0.48392746, -412210.3, 227328.13, 0.0, 10.001349, 9.999953 
1.315087e+3, 2.4473637e+2, -405376.9, -646507.3, 13398.5205, -0.049934726, -0.41869852, -404634.7, 136906.88, 0.0, 10.001624, 9.998464 
1.3151048e+3, 2.547361e+2, -398159.3, -588547.44, 10797.627, 0.18165086, -0.314965, -397548.9, 46002.27, 0.0, 10.000978, 9.998502 
1.31512e+3, 2.6473552e+2, -221027.86, -287263.6, -25910.09, 0.18335807, -0.28841007, -212096.64, 133460.7, 0.000000066602475, 10.000831, 9.999965 
1.315132e+3, 2.7473435e+2, -59756.87, -148822.17, 23269.58, -0.07603109, -0.430145, -54043.82, 193518.13, 0.0000067822207, 10.0012245, 10.000052 
1.315147e+3, 2.84733e+2, -106104.9, -521500.2, 60679.945, -0.103415646, -0.3891029, -97422.4, 52154.527, 0.00008160277, 10.001941, 9.996479 
1.3151652e+3, 2.9473138e+2, 125768.41, -368748.3, 20940.652, 0.120279305, -0.22370702, 126653.57, 178257.56, 0.0003678658, 10.002902, 9.99639 
1.3151808e+3, 3.0472764e+2, 306128.53, -110947.07, -37562.508, 0.08883726, -0.28756747, 309484.47, 309484.47, 0.0009642348, 10.003205, 9.997674 
1.315196e+3, 3.1472495e+2, 322045.8, 63829.297, 10350.006, 0.054880008, -0.36726683, 322460.03, 322460.03, 0.0018274339, 10.002555, 9.999192 
1.3249008e+3, 1.2471386e+2, -2123903.8, -1757470.4, 21041.348, 0.024896735, -0.464529, -1756266.0, -38497.918, 0.006183249, 9.996449, 10.001421 
1.3249142e+3, 1.3471723e+2, -1882553.0, -1584917.4, 529.5299, -0.19876015, -0.272372, -1584916.4, 34822.664, 0.0035072896, 9.997479, 10.00142 
1.3249344e+3, 1.4471948e+2, -1692057.1, -1442651.9, -32131.482, 0.22341779, -0.1934294, -1438578.8, 83137.766, 0.0013982238, 9.998098, 10.001428 
1.3249473e+3, 1.5471922e+2, -1571171.0, -1341139.6, -64669.16, 0.045156118, -0.37582228, -1324205.6, 99508.46, 0.00029637254, 9.99829, 10.001359 
1.3249627e+3, 1.6471957e+2, -1504738.5, -1337193.6, 23248.666, 0.00048198164, -0.4340385, -1334027.4, -8318.029, 0.000014169166, 9.998412, 10.000649 
1.3249806e+3, 1.7472062e+2, -1389784.6, -1227896.0, 8626.517, 0.080562755, -0.41889054, -1227437.6, 264.55777, 0.0, 9.998516, 10.000679 
1.3249972e+3, 1.847218e+2, -1319406.5, -1213776.5, -68168.29, 0.13478318, -0.32895786, -1180357.3, -50664.61, 0.0, 9.998633, 10.000044 
1.3250121e+3, 1.947231e+2, -1192384.6, -1096497.5, -69539.164, 0.15710537, -0.22659709, -1059976.4, -28294.963, 0.0, 9.998814, 10.000087 
1.3250272e+3, 2.0472312e+2, -1028660.25, -993086.3, -73482.914, 0.19553895, -0.21586905, -935268.3, -1587.5486, 0.0, 9.99937, 9.99986 
1.3250422e+3, 2.1472162e+2, -792189.25, -821634.25, -88246.336, 0.258861, -0.37460527, -717445.75, 118246.766, 0.0, 10.000294, 9.999919 
1.325057e+3, 2.2472079e+2, -661234.7, -726470.6, -2566.6245, 0.17813952, -0.43312952, -661133.9, 76563.914, 0.0, 10.000617, 9.999739 
1.3250716e+3, 2.3472063e+2, -601407.6, -636726.1, -30617.768, -0.05893295, -0.44940314, -583721.5, 55975.113, 0.0, 10.00031, 9.999827 
1.3250875e+3, 2.4472052e+2, -571069.9, -679846.3, -66268.61, -0.07961641, -0.38838148, -539728.25, 1970.3448, 0.0, 10.000281, 9.998884 
1.3251051e+3, 2.5472048e+2, -433508.2, -553118.3, -29833.951, 0.13861412, -0.30570254, -426479.78, 17224.484, 0.0, 10.000517, 9.998964 
1.3251205e+3, 2.647198e+2, -202061.0, -310599.8, -30868.973, 0.1426688, -0.29859513, -193895.95, 151814.78, 0.0000000978673, 10.0011, 9.999675 
1.3251333e+3, 2.7471817e+2, 45955.867, -134224.77, -103295.08, -0.09442364, -0.45573887, 92928.086, 340648.7, 0.000006920427, 10.002097, 9.999738 
1.3251492e+3, 2.8471676e+2, 10105.773, -434705.97, -44258.547, -0.092869416, -0.41509983, 14466.722, 164202.81, 0.000086783104, 10.002626, 9.996737 
1.3251685e+3, 2.9471564e+2, 124121.055, -338487.2, 13939.829, 0.16369635, -0.22458047, 124540.73, 176298.55, 0.00039350512, 10.002763, 9.996661 
1.3251843e+3, 3.0471227e+2, 252455.16, -162349.08, 18395.506, 0.14254808, -0.25415885, 253269.36, 253269.36, 0.0010365263, 10.002953, 9.997441 
1.3251989e+3, 3.1470874e+2, 414482.78, 110329.516, 24479.283, 0.056022808, -0.39508837, 416440.34, 416440.34, 0.0019683393, 10.003172, 9.999218 
1.3348956e+3, 1.24697804e+2, -2146079.8, -1798010.4, -25923.223, -0.1840249, -0.51613396, -1796090.3, -78172.83, 0.0065457188, 9.996432, 10.00115 
1.3349137e+3, 1.3469942e+2, -1920616.6, -1659769.0, 42537.39, -0.013039226, -0.45077914, -1653007.6, -33101.367, 0.0037237175, 9.997462, 10.000913 
1.3349336e+3, 1.4470123e+2, -1698103.3, -1454704.3, -33575.02, 0.31904277, -0.38549, -1450157.8, 71731.414, 0.0014951822, 9.998088, 10.001354 
1.3349453e+3, 1.5470243e+2, -1571014.5, -1346867.1, -47256.137, -0.014458907, -0.4180115, -1337311.8, 86562.27, 0.00032323142, 9.998303, 10.001319 
1.3349605e+3, 1.6470318e+2, -1526833.1, -1378562.3, 16242.401, -0.08211721, -0.42109165, -1376803.8, -50937.91, 0.000017128494, 9.998394, 10.000375 
1.3349797e+3, 1.747035e+2, -1409693.4, -1269095.8, 20874.545, 0.117592365, -0.45019272, -1266062.0, -38197.094, 0.00000000003443261, 9.998511, 10.000399 
1.3349965e+3, 1.8470392e+2, -1299821.9, -1175068.1, -71033.86, 0.17394686, -0.43644303, -1142911.0, -13048.298, 0.0, 9.998635, 10.000312 
1.3350107e+3, 1.9470431e+2, -1174665.6, -1057791.9, -54955.543, 0.09707865, -0.4529857, -1036010.4, -4150.0205, 0.0, 9.998793, 10.000367 
1.3350257e+3, 2.0470484e+2, -1054133.6, -1024826.7, -49481.77, 0.09810624, -0.39801154, -987874.25, -54017.914, 0.0, 9.999279, 9.999685 
1.3350418e+3, 2.1470541e+2, -822764.3, -861210.75, -45020.164, 0.18480082, -0.3319079, -793035.0, 42816.223, 0.0, 10.000181, 9.999708 
1.3350573e+3, 2.2470517e+2, -715194.6, -810799.44, -19524.945, 0.13905899, -0.29420274, -711360.9, 26493.467, 0.0, 10.000494, 9.999219 
1.335072e+3, 2.3470408e+2, -653474.3, -723697.06, -30507.396, -0.04232095, -0.35062718, -642072.1, -2205.8054, 0.0, 10.000211, 9.999282 
1.3350876e+3, 2.447034e+2, -502881.22, -513656.2, -66252.76, -0.12240773, -0.37714297, -441797.25, 100074.695, 0.0, 10.000176, 10.000073 
1.3351035e+3, 2.547031e+2, -359268.2, -381449.4, -12373.157, -0.08640247, -0.4448212, -353742.63, 90129.05, 0.0, 10.0004425, 10.000176 
1.3351199e+3, 2.6470223e+2, -319776.1, -546113.94, -3108.1846, -0.04718884, -0.43850744, -319733.4, 26145.758, 0.00000008871969, 10.001051, 9.998085 
1.3351364e+3, 2.7470067e+2, -85053.1, -381843.56, -51517.496, -0.012203682, -0.42659447, -76364.93, 171531.61, 0.000006673535, 10.001986, 9.998094 
1.3351531e+3, 2.846995e+2, 118980.91, -187172.52, -47520.777, 0.00870155, -0.36510321, 126187.39, 276097.88, 0.00008870036, 10.002528, 9.998485 
1.33517e+3, 2.9469875e+2, 235799.86, -78679.84, 33261.31, 0.03342784, -0.3242103, 239279.28, 291200.0, 0.0004060733, 10.002642, 9.998506 
1.3351859e+3, 3.0469692e+2, 220938.17, -205325.89, 22789.348, -0.008815888, -0.27905643, 222153.11, 222153.11, 0.0010792791, 10.002865, 9.997183 
1.335202e+3, 3.1469393e+2, 352285.63, 35381.477, 71974.92, 0.01840805, -0.33218852, 367866.44, 367866.44, 0.0020577214, 10.002953, 9.998804 
1.3448931e+3, 1.2468158e+2, -1920941.1, -1681191.9, -126887.266, -0.14441253, -0.4229828, -1626509.1, 91569.2, 0.0069055543, 9.997956, 10.00121 
1.3449119e+3, 1.3468173e+2, -1947106.9, -1689567.4, -45896.61, 0.07375027, -0.48974013, -1681632.5, -61554.2, 0.0039389143, 9.997363, 10.000757 
1.3449307e+3, 1.4468281e+2, -1812487.5, -1530406.8, -78991.23, 0.26245773, -0.47673458, -1509793.1, 12274.517, 0.0015916337, 9.997406, 10.001154 
1.344944e+3, 1.546845e+2, -1536133.4, -1348991.3, -126691.2, 0.016251853, -0.4420132, -1285062.4, 138987.08, 0.0003501717, 9.998647, 10.001126 
1.3449597e+3, 1.6468558e+2, -1438394.8, -1310857.9, -70973.84, -0.016665323, -0.41183412, -1279213.0, 46825.61, 0.000020254476, 9.9989, 10.000594 
1.3449782e+3, 1.7468601e+2, -1471335.1, -1268506.5, -48937.453, 0.14278984, -0.45108828, -1257316.4, -29280.82, 0.0000000014653116, 9.997977, 10.000654 
1.3449949e+3, 1.8468659e+2, -1367317.1, -1170215.4, -65224.63, 0.1870166, -0.45292392, -1150586.1, -20554.963, 0.0, 9.998011, 10.000647 
1.3450098e+3, 1.9468713e+2, -1093874.4, -980628.75, -61245.016, 0.119271755, -0.48685327, -953842.4, 78184.234, 0.0, 9.999187, 10.000707 
1.3450253e+3, 2.046877e+2, -969974.9, -984866.25, -34916.53, 0.10391396, -0.44250217, -941719.0, -7696.7544, 0.0, 9.999862, 9.999676 
1.3450415e+3, 2.1468824e+2, -860586.25, -871652.7, -38498.52, 0.14151655, -0.38098556, -827225.3, 8793.078, 0.0, 9.999911, 9.999749 
1.3450573e+3, 2.2468838e+2, -788290.2, -823921.6, 13582.801, 0.12183488, -0.31878245, -783702.94, -45684.402, 0.0, 9.999883, 9.999432 
1.345073e+3, 2.3468803e+2, -704439.94, -721273.56, 44006.59, 0.049220145, -0.3222698, -668052.44, -28028.98, 0.0, 9.9997425, 9.999526 
1.345089e+3, 2.446874e+2, -506467.9, -554898.94, 38022.184, -0.010999751, -0.34242555, -485604.84, 56424.563, 0.0, 10.0003395, 9.999709 
1.3451049e+3, 2.5468627e+2, -193627.6, -344948.03, -43863.76, -0.05780811, -0.45272988, -181832.11, 262205.56, 0.0, 10.0017805, 9.999784 
1.3451214e+3, 2.6468524e+2, -171324.94, -465829.97, -52260.88, -0.032050118, -0.44694248, -162326.05, 183721.23, 0.000000062099474, 10.0020485, 9.99815 
1.3451387e+3, 2.7468413e+2, -209898.81, -429138.34, -652.3536, 0.06776781, -0.3942775, -209896.88, 38162.855, 0.0000065347235, 10.001085, 9.998193 
1.3451557e+3, 2.8468296e+2, -70166.664, -244317.06, 62171.023, 0.08722231, -0.3544586, -50249.68, 99822.61, 0.00008983349, 10.001074, 9.998797 
1.3451724e+3, 2.9468182e+2, 189264.39, -55128.617, 6750.962, 0.032625005, -0.3844128, 189450.73, 241533.83, 0.0004117743, 10.002124, 9.998916 
1.3451888e+3, 3.0468062e+2, 242117.52, -171205.95, -31668.877, -0.006686788, -0.3156518, 244529.92, 244529.92, 0.0010985263, 10.00288, 9.997428 
1.3452052e+3, 3.1467783e+2, 394898.3, 57593.49, 26048.563, 0.035652764, -0.36868197, 396898.06, 396898.06, 0.0020991834, 10.003222, 9.998833 
1.3548945e+3, 1.2466499e+2, -1902880.8, -1636806.0, -117915.03, 0.15912779, -0.22392875, -1592071.4, 126181.484, 0.0072628423, 9.997942, 10.001521 
1.3549085e+3, 1.346643e+2, -1933337.9, -1659372.5, -68051.836, -0.015159214, -0.40040055, -1643399.9, -23145.605, 0.004152666, 9.997361, 10.000964 
1.3549253e+3, 1.4466444e+2, -1849286.4, -1601278.9, -46112.832, -0.036959216, -0.4626857, -1592982.5, -70732.414, 0.0016872559, 9.997381, 10.00068 
1.3549432e+3, 1.5466553e+2, -1562140.3, -1409750.6, -70282.13, 0.057004593, -0.446249, -1382286.3, 41953.688, 0.0003769789, 9.998666, 10.000704 
1.3549602e+3, 1.6466673e+2, -1384804.1, -1206791.3, -114967.51, 0.12086181, -0.41643742, -1150402.8, 175825.5, 0.000023370363, 9.998923, 10.001303 
1.3549758e+3, 1.7466807e+2, -1420849.9, -1165929.4, -77557.91, 0.09368485, -0.4395997, -1144187.3, 84028.03, 0.0000000068048798, 9.997972, 10.0013685 
1.3549921e+3, 1.8466969e+2, -1345346.8, -1116117.0, -33683.063, 0.09078445, -0.38926587, -1111270.1, 18928.95, 0.0, 9.997976, 10.001031 
1.3550094e+3, 1.9467153e+2, -1070467.1, -927181.8, -7509.576, 0.14326927, -0.33628774, -926789.3, 105391.195, 0.0, 9.999159, 10.001088 
1.3550256e+3, 2.0467174e+2, -969031.5, -965829.1, -41873.99, 0.13625252, -0.35535014, -925525.75, 8652.456, 0.0, 9.999789, 9.999842 
1.3550408e+3, 2.1467012e+2, -864501.7, -858235.5, -30092.936, 0.06157624, -0.5247404, -831113.0, 5081.3423, 0.0, 9.99981, 9.999894 
1.3550568e+3, 2.2467034e+2, -740954.94, -690798.0, -4199.3267, 0.06032619, -0.5099774, -690448.9, 47742.793, 0.0, 9.999739, 10.000413 
1.3550739e+3, 2.3467258e+2, -648937.8, -581904.44, 45069.395, 0.14225018, -0.35622633, -559255.1, 80912.94, 0.0, 9.9996395, 10.000532 
1.3550912e+3, 2.4467255e+2, -650406.5, -831668.9, 80444.22, 0.17600274, -0.2754466, -619854.8, -77684.26, 0.0, 10.000239, 9.997861 
1.3551088e+3, 2.546699e+2, -347770.25, -635795.25, 21522.842, 0.14718272, -0.34322226, -346170.84, 98032.17, 0.0, 10.001654, 9.997851 
1.3551252e+3, 2.6466855e+2, -77123.95, -247961.45, -94695.09, 0.10981149, -0.34378633, -35014.184, 311202.66, 0.000000036385206, 10.001948, 9.999698 
1.35514e+3, 2.7466848e+2, -108735.98, -197470.36, -26265.254, 0.07114988, -0.35345432, -101544.35, 146666.92, 0.0000068750182, 10.00099, 9.999833 
1.3551566e+3, 2.8466713e+2, -150919.6, -397658.53, 89911.75, 0.0556326, -0.3636666, -121632.1, 28589.494, 0.00009118057, 10.001012, 9.997773 
1.3551751e+3, 2.9466456e+2, 95739.31, -228341.4, 60394.65, 0.06658854, -0.42700052, 106628.39, 158876.67, 0.00041364625, 10.002028, 9.997776 
1.3551924e+3, 3.0466297e+2, 275338.66, -67952.56, -27104.494, 0.056906797, -0.3739163, 277465.5, 277465.5, 0.0010984994, 10.002751, 9.99819 
1.3552077e+3, 3.1466028e+2, 376491.0, 87875.62, 68625.35, -0.071975134, -0.4983381, 391977.38, 391977.38, 0.0020944665, 10.002952, 9.999162 
1.364893e+3, 1.2464782e+2, -1920207.8, -1659022.6, 61427.29, 0.23132822, -0.2088334, -1645297.0, 73126.65, 0.0076198755, 9.997856, 10.001417 
1.3649069e+3, 1.3464756e+2, -1683861.8, -1564109.5, -6566.991, 0.0014929355, -0.32424808, -1563750.5, 56669.86, 0.004366158, 9.999151, 10.000767 
1.3649233e+3, 1.4464752e+2, -1626686.5, -1525246.5, 25609.17, -0.053803507, -0.38199407, -1519147.9, 3270.2742, 0.0017823466, 9.99905, 10.000394 
1.3649419e+3, 1.546477e+2, -1685737.9, -1498730.4, -2070.6238, 0.10982221, -0.42787048, -1498707.5, -74289.84, 0.0004035849, 9.997962, 10.000425 
1.3649592e+3, 1.6464877e+2, -1534915.1, -1253448.9, -44938.215, 0.18429281, -0.408358, -1246448.3, 79959.234, 0.000026350568, 9.997771, 10.001536 
1.364974e+3, 1.74651e+2, -1300681.3, -1075697.1, -62583.207, 0.087187484, -0.37025285, -1059460.4, 168924.89, 0.000000016360648, 9.998659, 10.001652 
1.3649905e+3, 1.8465288e+2, -1173714.5, -1034131.9, -5568.324, 0.07965258, -0.31047902, -1033910.1, 96456.25, 0.0, 9.999161, 10.001023 
1.3650091e+3, 1.9465421e+2, -1065574.4, -921496.94, -27616.746, 0.20078143, -0.3055206, -916384.75, 115967.67, 0.0, 9.999195, 10.001103 
1.365026e+3, 2.0465447e+2, -1012995.6, -949097.2, -72771.445, 0.20795365, -0.33794957, -901570.4, 32778.594, 0.0, 9.999323, 10.000186 
1.3650405e+3, 2.1465349e+2, -874870.3, -823729.6, -60802.836, 0.078735456, -0.47599366, -783339.2, 53018.297, 0.0, 9.999572, 10.000249 
1.3650566e+3, 2.2465362e+2, -686607.6, -702332.1, -41594.13, 0.05288519, -0.47245258, -652139.2, 86216.664, 0.0, 10.000272, 10.000072 
1.3650744e+3, 2.3465492e+2, -420851.22, -516480.38, -115303.84, 0.14277469, -0.37542462, -343841.06, 296502.22, 0.0, 10.001393, 10.000137 
1.3650921e+3, 2.4465483e+2, -484985.66, -724832.9, -63955.52, 0.19935754, -0.2906071, -468997.6, 73349.24, 0.0, 10.001264, 9.998096 
1.36511e+3, 2.546531e+2, -607855.8, -731621.4, 16259.387, 0.20952396, -0.29385585, -605755.44, -161386.14, 0.0, 9.999738, 9.998113 
1.3651265e+3, 2.6465192e+2, -381638.1, -406589.66, -30179.639, 0.17122562, -0.2866802, -361457.22, -15076.093, 0.000000033203506, 9.999913, 9.999586 
1.3651414e+3, 2.7465123e+2, 38239.703, -134872.3, -110882.49, 0.080208264, -0.34831706, 92349.51, 340731.7, 0.0000069323874, 10.002043, 9.999751 
1.3651583e+3, 2.8464955e+2, 96156.26, -293383.5, -24585.297, 0.03460327, -0.38236326, 97701.8, 248096.95, 0.00008947194, 10.002797, 9.997621 
1.3651769e+3, 2.946469e+2, 102261.5, -232271.63, -3120.4329, 0.05193042, -0.43757826, 102290.6, 154710.69, 0.00040406178, 10.002124, 9.997692 
1.3651949e+3, 3.0464506e+2, 136183.92, -161820.53, -61465.406, 0.09581004, -0.39368406, 148363.77, 148363.77, 0.001070079, 10.001897, 9.997964 
1.3652109e+3, 3.1464216e+2, 181038.34, -86343.48, -86510.1, 0.0056026, -0.5090469, 206587.06, 206587.06, 0.0020370646, 10.001905, 9.998491 
1.3748895e+3, 1.24629974e+2, -1973350.9, -1747214.1, 117974.18, 0.051859103, -0.4029295, -1696873.9, 21717.287, 0.0079810945, 9.997793, 10.000826 
1.3749063e+3, 1.3463163e+2, -1723315.6, -1647018.8, 42004.17, 0.026047302, -0.26686373, -1628425.3, -7849.856, 0.0045821774, 9.999159, 10.000191 
1.3749246e+3, 1.4463218e+2, -1634596.9, -1545909.6, -30003.041, 0.14053918, -0.2312438, -1536713.3, -14142.587, 0.0018779465, 9.999065, 10.000246 
1.3749401e+3, 1.5463094e+2, -1697739.9, -1523511.4, -33441.336, 0.10281552, -0.4025705, -1517313.1, -92730.086, 0.00043006244, 9.997958, 10.000258 
1.3749562e+3, 1.6463171e+2, -1547897.4, -1283006.6, -25477.11, 0.0908302, -0.39452538, -1280578.5, 45997.41, 0.000029160963, 9.997775, 10.001338 
1.3749725e+3, 1.746349e+2, -1309755.0, -1101365.6, -20567.703, 0.046123058, -0.24133955, -1099355.0, 129189.67, 0.000000027808229, 9.998672, 10.00148 
1.3749897e+3, 1.8463619e+2, -1202219.0, -1090753.9, -14518.645, 0.07591116, -0.21286188, -1088893.8, 41638.527, 0.0, 9.999154, 10.000636 
1.3750087e+3, 1.9463514e+2, -1104070.0, -989288.3, -21465.002, 0.2247635, -0.40473416, -985405.5, 47137.473, 0.0, 9.99914, 10.000669 
1.3750257e+3, 2.0463575e+2, -985119.2, -870993.3, -73430.98, 0.24149764, -0.4038523, -835060.06, 99475.73, 0.0, 9.999238, 10.000762 
1.3750406e+3, 2.1463837e+2, -847923.0, -744108.94, -41449.28, 0.10780036, -0.246599, -729590.25, 106917.766, 0.0, 9.999468, 10.000847 
1.3750567e+3, 2.2463833e+2, -824305.44, -954701.94, -7562.515, 0.01740659, -0.20885071, -823868.3, -85358.086, 0.0, 10.00013, 9.998407 
1.3750741e+3, 2.3463519e+2, -563137.56, -780094.75, -62292.625, -0.023678664, -0.38134813, -546524.3, 94023.56, 0.0, 10.001258, 9.99839 
1.3750914e+3, 2.4463426e+2, -352235.28, -421554.25, -128988.03, -0.011567918, -0.39181808, -253331.33, 289226.56, 0.0, 10.001141, 10.000241 
1.3751085e+3, 2.546359e+2, -458236.25, -400563.4, -33572.367, 0.06935358, -0.28946465, -385143.28, 59392.69, 0.0, 9.999646, 10.000432 
1.3751258e+3, 2.6463544e+2, -508865.88, -650118.7, 36488.188, 0.08409002, -0.25217268, -499997.13, -153458.28, 0.000000022673568, 9.999826, 9.997955 
1.3751431e+3, 2.7463233e+2, -108764.164, -406160.5, -19127.365, 0.018250184, -0.37736756, -107539.016, 141033.56, 0.0000066245593, 10.001906, 9.997951 
1.3751604e+3, 2.8463003e+2, 136136.58, -193135.64, -55480.035, -0.04849293, -0.4118614, 145233.27, 295826.53, 0.00008472814, 10.002716, 9.998351 
1.3751778e+3, 2.946289e+2, 144448.45, -117941.37, -11766.192, -0.09178546, -0.3992476, 144975.02, 197572.28, 0.0003804188, 10.002006, 9.99854 
1.3751963e+3, 3.0462688e+2, 43028.492, -335592.66, -61445.668, 0.020955691, -0.36297888, 52750.74, 52750.74, 0.0010069014, 10.001818, 9.996804 
1.3752139e+3, 3.146232e+2, 34071.67, -340434.97, -63119.34, 0.09389987, -0.42701548, 44423.656, 44423.656, 0.0019208379, 10.00171, 9.996827 
1.3848867e+3, 1.2461251e+2, -2023971.6, -1789455.3, 46284.477, 0.016317358, -0.40564635, -1780651.0, -61890.613, 0.008351057, 9.997514, 10.000675 
1.3849056e+3, 1.3461377e+2, -1835916.5, -1694295.0, -912.87805, 0.08192214, -0.31151378, -1694289.1, -73538.79, 0.004803759, 9.998353, 10.000259 
1.3849252e+3, 1.446147e+2, -1655979.5, -1524073.8, -53584.79, 0.3320869, -0.2535034, -1505049.5, 17692.428, 0.0019753822, 9.998776, 10.000536 
1.3849385e+3, 1.5461415e+2, -1469187.0, -1381841.0, -46050.938, 0.083886325, -0.38634038, -1362047.4, 62699.133, 0.00045665295, 9.999385, 10.0005455 
1.384954e+3, 1.6461492e+2, -1322863.0, -1214539.1, 15570.553, 0.008129719, -0.37509, -1212345.5, 114393.734, 0.00003186285, 9.999518, 10.000958 
1.3849716e+3, 1.7461741e+2, -1269573.1, -1123808.9, -18704.69, 0.0744793, -0.2511416, -1121447.0, 107268.97, 0.000000039188958, 9.999157, 10.0010805 
1.3849893e+3, 1.8461825e+2, -1244791.9, -1136935.1, -4612.206, 0.12772465, -0.23673752, -1136738.3, -6029.178, 0.0, 9.998966, 10.000416 
1.3850072e+3, 1.9461712e+2, -1118982.5, -1013765.3, -9919.358, 0.17868681, -0.4157672, -1012838.3, 19882.887, 0.0, 9.999115, 10.000509 
1.3850245e+3, 2.0461789e+2, -940549.75, -823472.75, -32594.664, 0.20102115, -0.40502012, -815010.0, 119702.71, 0.0, 9.999428, 10.000995 
1.385041e+3, 2.1462084e+2, -761033.06, -673388.3, -47290.105, 0.19324929, -0.24022855, -652737.8, 183942.89, 0.0, 9.999932, 10.001111 
1.3850577e+3, 2.2462098e+2, -851411.7, -1006713.8, 43900.863, 0.118346155, -0.18320319, -839860.9, -101178.875, 0.0, 10.000097, 9.998078 
1.3850746e+3, 2.3461781e+2, -773633.2, -921962.06, 74883.22, -0.035991967, -0.3218454, -742403.8, -101681.3, 0.0, 9.999975, 9.998044 
1.3850915e+3, 2.4461676e+2, -467272.03, -452541.56, -14467.576, -0.066512555, -0.3383352, -443672.34, 99061.664, 0.0, 10.000258, 10.000441 
1.3851087e+3, 2.5461817e+2, -230717.16, -262300.7, -97405.914, 0.044440452, -0.28274468, -147831.2, 296880.44, 0.0, 10.001102, 10.000668 
1.3851264e+3, 2.6461756e+2, -301705.8, -567233.7, 593.353, 0.10097414, -0.2650942, -301704.5, 45010.438, 0.0000000049794013, 10.001322, 9.997801 
1.3851452e+3, 2.7461448e+2, -265932.06, -501847.9, 47740.07, 0.09006555, -0.37167993, -256637.55, -7888.159, 0.0000064670485, 10.000896, 9.997784 
1.3851628e+3, 2.8461242e+2, -51028.24, -279994.53, 57108.992, 0.004564714, -0.37546805, -37574.57, 113193.734, 0.000079933714, 10.001413, 9.998388 
1.3851796e+3, 2.946116e+2, 315073.38, -21554.605, 18951.25, -0.15339084, -0.33400673, 316136.94, 368905.88, 0.0003519979, 10.0031185, 9.998663 
1.3851987e+3, 3.0460903e+2, 330045.94, -195539.61, -33606.23, -0.018128736, -0.36404923, 332186.0, 332186.0, 0.00092815317, 10.003789, 9.996815 
1.3852173e+3, 3.1460527e+2, 229388.11, -250395.06, 10459.603, 0.19933969, -0.43934357, 229616.03, 229616.03, 0.0017753835, 10.003069, 9.99679 
1.3948837e+3, 1.2459506e+2, -2012110.4, -1739085.5, -41821.137, -0.070148215, -0.24962473, -1732823.0, -13887.95, 0.008733579, 9.997424, 10.001054 
1.3949041e+3, 1.3459398e+2, -1786179.3, -1583758.4, 31284.836, 0.0858533, -0.466151, -1579033.5, 41911.453, 0.005033633, 9.998327, 10.001026 
1.3949254e+3, 1.4459525e+2, -1597672.3, -1411274.1, -49926.785, 0.44080952, -0.45325765, -1398743.5, 124187.39, 0.002076125, 9.998801, 10.001307 
1.3949367e+3, 1.5459746e+2, -1416469.8, -1274162.9, -12602.703, -0.04034831, -0.38211194, -1273055.5, 151851.19, 0.00048381835, 9.999383, 10.001291 
1.3949521e+3, 1.6459855e+2, -1365765.1, -1308651.6, -8999.227, -0.16010022, -0.34610683, -1307267.1, 19628.814, 0.000034571214, 9.999536, 10.000307 
1.3949712e+3, 1.7459841e+2, -1326777.9, -1235875.5, -27253.45, 0.10826628, -0.41328543, -1228330.8, 569.5537, 0.00000005013657, 9.999125, 10.000331 
1.3949887e+3, 1.8459895e+2, -1237393.9, -1122813.1, -13186.648, 0.16289057, -0.391103, -1121315.1, 9582.296, 0.0, 9.998967, 10.000514 
1.3950047e+3, 1.9460024e+2, -1115706.3, -1002144.2, 2635.301, -0.011233168, -0.34132352, -1002083.06, 30803.602, 0.0, 9.999083, 10.000612 
1.3950223e+3, 2.0460095e+2, -957862.1, -839596.75, -24298.8, 0.009682985, -0.3378963, -834798.94, 100080.05, 0.0, 9.999346, 10.000922 
1.3950418e+3, 2.1460101e+2, -786671.0, -697772.44, -21725.871, 0.25733718, -0.4500753, -692746.94, 144127.98, 0.0, 9.99981, 10.001001 
1.3950594e+3, 2.2460161e+2, -794064.4, -868637.06, 29828.814, 0.27388743, -0.38990596, -783601.06, -44730.0, 0.0, 10.000005, 9.999073 
1.3950753e+3, 2.346028e+2, -715151.94, -778684.94, 79623.234, 0.03193714, -0.19920145, -661192.3, -20324.902, 0.0, 9.999873, 9.999079 
1.3950922e+3, 2.4460237e+2, -601712.56, -706658.25, 7591.014, -0.049724482, -0.12766954, -601166.4, -58291.707, 0.0, 10.000152, 9.998747 
1.39511e+3, 2.5459984e+2, -379848.7, -542550.0, -54692.95, 0.056988552, -0.2802768, -363172.56, 81723.7, 0.0, 10.000981, 9.998799 
1.3951284e+3, 2.645982e+2, -223927.38, -391959.66, -22406.557, 0.1450664, -0.32798362, -220990.86, 125918.914, 0.0000000011462398, 10.001257, 9.999039 
1.3951474e+3, 2.7459764e+2, -183801.31, -308919.2, 41782.473, 0.21674274, -0.3197372, -171131.3, 77781.28, 0.0000063015364, 10.000793, 9.999162 
1.3951655e+3, 2.8459674e+2, -112538.03, -382863.75, 107902.234, 0.10042185, -0.25151056, -74750.35, 76169.3, 0.00007549202, 10.001308, 9.99773 
1.3951823e+3, 2.945949e+2, 233741.03, -153885.69, 97968.04, -0.22486559, -0.23426625, 257094.31, 310030.47, 0.0003283141, 10.002964, 9.9978285 
1.3952017e+3, 3.0459124e+2, 397730.5, -28558.256, -65554.63, -0.11345904, -0.38348144, 407583.72, 407583.72, 0.0008653395, 10.003672, 9.998018 
1.3952205e+3, 3.1458846e+2, 301076.25, -47853.094, -7199.164, 0.18302174, -0.49548897, 301224.72, 301224.72, 0.0016584882, 10.002844, 9.99829 
1.4048831e+3, 1.2457783e+2, -1783422.5, -1665957.0, 53110.02, 0.052394334, -0.24287775, -1645505.1, 73597.41, 0.009133226, 9.999128, 10.000743 
1.404903e+3, 1.3457654e+2, -1690118.9, -1535598.4, 115820.586, 0.11052101, -0.4855445, -1473633.8, 147481.27, 0.005275387, 9.998963, 10.001061 
1.4049238e+3, 1.445778e+2, -1593723.1, -1404434.1, 1534.7847, 0.41522056, -0.47782323, -1404421.6, 118679.81, 0.0021822979, 9.998809, 10.001347 
1.4049357e+3, 1.5458043e+2, -1493300.4, -1310632.0, -40241.207, -0.042585794, -0.3687466, -1302159.9, 122913.586, 0.00051218417, 9.998857, 10.001292 
1.4049512e+3, 1.6458145e+2, -1462785.3, -1387148.1, -39343.14, -0.1594621, -0.32591233, -1370394.5, -43330.31, 0.000037386584, 9.999008, 10.000019 
1.4049704e+3, 1.745806e+2, -1288474.9, -1247167.3, -43000.33, 0.11308978, -0.4375634, -1220117.8, 8958.654, 0.00000006103049, 9.999511, 10.000064 
1.4049882e+3, 1.845812e+2, -1139583.1, -1038415.75, 10307.915, 0.17852843, -0.41283846, -1037376.1, 93696.38, 0.0, 9.999485, 10.000839 
1.4050037e+3, 1.9458352e+2, -1111578.5, -956684.94, 23305.348, 0.0021861822, -0.2968348, -953254.4, 79795.14, 0.0, 9.998931, 10.000992 
1.4050213e+3, 2.0458423e+2, -1030199.6, -960317.3, 39033.69, -0.00986449, -0.27894533, -942870.4, -7827.5166, 0.0, 9.999218, 10.000158 
1.405041e+3, 2.1458304e+2, -730686.44, -755493.0, -24870.754, 0.16775186, -0.43711156, -715297.7, 121757.71, 0.0, 10.000569, 10.000235 
1.4050594e+3, 2.2458345e+2, -588665.6, -691145.2, -34929.605, 0.22265144, -0.385969, -577892.56, 161160.86, 0.0, 10.001109, 9.999745 
1.4050767e+3, 2.345857e+2, -534886.06, -600683.44, -31654.955, 0.13819635, -0.16258554, -522129.97, 118904.63, 0.0, 10.000748, 9.999865 
1.405094e+3, 2.4458548e+2, -521134.94, -714624.06, -14478.544, 0.09611997, -0.09207999, -520057.53, 22980.592, 0.0, 10.000898, 9.998342 
1.4051116e+3, 2.5458217e+2, -308487.06, -556800.2, 10480.148, 0.09402841, -0.27841222, -308045.53, 137023.58, 0.0, 10.001674, 9.998375 
1.40513e+3, 2.6458004e+2, -101954.016, -375718.47, 33039.766, 0.13676721, -0.3322606, -98023.0, 249065.34, 0.0000000047036606, 10.002278, 9.99866 
1.4051493e+3, 2.7457955e+2, 80395.05, -218164.58, -59798.656, 0.23452559, -0.277957, 91926.74, 341017.84, 0.000006310061, 10.00278, 9.998825 
1.4051677e+3, 2.8457844e+2, 27593.045, -324888.03, -18824.092, 0.15613677, -0.20923245, 28595.484, 179696.72, 0.000071733004, 10.002322, 9.99763 
1.405185e+3, 2.9457593e+2, -97824.95, -322714.13, 2588.8525, -0.11127095, -0.24805312, -97795.16, -44669.78, 0.0003149259, 10.000737, 9.997732 
1.4052047e+3, 3.045723e+2, 72009.61, -136583.73, -98182.695, -0.03720696, -0.4087449, 110952.73, 110952.73, 0.00083511043, 10.001213, 9.998465 
1.4052233e+3, 3.1457144e+2, 546229.9, 174293.56, -152830.33, 0.11852604, -0.38068599, 600971.6, 600971.6, 0.0016026316, 10.004077, 9.999224 
1.4148833e+3, 1.245606e+2, -1851245.1, -1803004.6, -55317.75, 0.12115859, -0.4441452, -1766777.3, -47512.844, 0.009556688, 9.999121, 9.999804 
1.4149019e+3, 1.3456169e+2, -1746960.0, -1640319.5, 121999.14, 0.0810436, -0.37359515, -1560497.5, 60760.63, 0.0055341963, 9.9989195, 10.000358 
1.4149202e+3, 1.4456254e+2, -1643270.8, -1514592.1, -10324.8955, 0.14210266, -0.3362861, -1513769.0, 9483.221, 0.0022969088, 9.998833, 10.000582 
1.4149353e+3, 1.5456317e+2, -1550154.9, -1428188.5, -31336.766, 0.0036454804, -0.34604546, -1420608.3, 4638.019, 0.0005425403, 9.998852, 10.00049 
1.4149514e+3, 1.6456378e+2, -1447514.6, -1358323.3, -34937.15, -0.062220797, -0.31055573, -1346267.6, -19025.277, 0.000040406845, 9.999019, 10.000215 
1.4149693e+3, 1.745642e+2, -1276691.6, -1214735.4, -16466.387, 0.017492812, -0.31717595, -1210630.9, 18611.39, 0.00000007226826, 9.999473, 10.000308 
1.414987e+3, 1.8456522e+2, -1102044.8, -959387.4, -19454.48, 0.09161616, -0.28986937, -956781.9, 174450.36, 0.0, 9.999477, 10.001386 
1.4150043e+3, 1.94567e+2, -1078399.8, -881124.25, 9416.3, 0.14198078, -0.28263828, -880675.8, 152533.95, 0.0, 9.9988985, 10.001528 
1.4150214e+3, 2.0456764e+2, -1133839.4, -1163403.5, 72396.59, 0.07053446, -0.23285842, -1074731.1, -139526.0, 0.0, 9.999161, 9.998794 
1.4150386e+3, 2.1456689e+2, -852048.8, -979700.06, 32895.05, -0.13468972, -0.2050749, -844070.6, -6848.328, 0.0, 10.000442, 9.998762 
1.4150575e+3, 2.2456647e+2, -583861.1, -650234.56, -57331.027, -0.10374225, -0.17598864, -550804.3, 188425.08, 0.0, 10.000975, 10.00009 
1.4150782e+3, 2.3456657e+2, -528437.8, -555398.8, -35388.473, 0.20400879, -0.2092305, -504049.2, 137174.7, 0.0, 10.000614, 10.000237 
1.415097e+3, 2.4456619e+2, -468348.9, -589304.9, 3835.746, 0.2796386, -0.21395044, -468227.38, 74996.15, 0.0, 10.00082, 9.999241 
1.4151132e+3, 2.5456512e+2, -255798.16, -428281.4, 48679.266, 0.08358873, -0.2725304, -243008.02, 202222.4, 0.0, 10.001582, 9.999306 
1.4151311e+3, 2.6456314e+2, -255909.39, -670661.94, 43217.215, 0.00879852, -0.26857346, -251454.02, 95796.55, 0.000000079284355, 10.002173, 9.996682 
1.4151506e+3, 2.7456012e+2, -89628.58, -544111.1, -25926.98, 0.069805145, -0.2548718, -88154.3, 161131.3, 0.000007370644, 10.002666, 9.996639 
1.4151695e+3, 2.8455746e+2, 61484.125, -251123.34, -81223.055, 0.08777572, -0.24674322, 81328.17, 232641.36, 0.000072022085, 10.002293, 9.998156 
1.4151882e+3, 2.945548e+2, -63772.36, -242133.44, -39159.977, 0.090384305, -0.3700772, -55553.348, -2217.4912, 0.0003160208, 10.000672, 9.998329 
1.4152075e+3, 3.045523e+2, 22163.11, -202978.6, -63.73475, 0.10696698, -0.43412864, 22163.127, 22163.127, 0.0008386739, 10.001075, 9.998057 
1.4152251e+3, 3.14554e+2, 507841.72, 172824.53, -29235.885, -0.13651723, -0.10520589, 510373.9, 510373.9, 0.0016067583, 10.00377, 9.999344 
1.4248835e+3, 1.2454373e+2, -1798018.0, -1785220.8, -125516.91, 0.2002824, -0.5176215, -1665939.5, 53490.664, 0.010011913, 9.999519, 9.999738 
1.424901e+3, 1.3454589e+2, -1801100.6, -1697048.8, 60598.09, 0.13155974, -0.30915338, -1669207.1, -47794.156, 0.0058154534, 9.998698, 10.000066 
1.4249171e+3, 1.4454615e+2, -1721374.1, -1583645.0, 15365.946, -0.03176562, -0.30076748, -1581951.5, -58538.516, 0.002423067, 9.998461, 10.000277 
1.4249344e+3, 1.5454607e+2, -1550007.6, -1458774.1, 9519.469, 0.02712319, -0.35507992, -1457791.5, -32376.441, 0.00057589856, 9.999, 10.000201 
1.4249513e+3, 1.6454643e+2, -1411626.3, -1349412.1, 39096.344, 0.016094305, -0.326011, -1330557.5, -3143.7444, 0.00004378684, 9.999287, 10.00015 
1.4249684e+3, 1.7454733e+2, -1282276.0, -1219682.6, 17388.133, -0.009574064, -0.28159827, -1215176.6, 14231.89, 0.00000008454083, 9.999442, 10.000288 
1.4249858e+3, 1.8454827e+2, -1098286.3, -996437.0, -22902.422, 0.032584727, -0.24483909, -991524.06, 139875.17, 0.0, 9.999681, 10.001028 
1.4250036e+3, 1.945493e+2, -926798.6, -849751.2, -81669.61, 0.1276841, -0.27575204, -797975.4, 235409.08, 0.0, 10.000127, 10.001149 
1.4250211e+3, 2.0454963e+2, -993671.2, -1114822.9, 27805.354, 0.078580864, -0.228863, -987594.4, -52211.22, 0.0, 10.000209, 9.998619 
1.4250389e+3, 2.1454899e+2, -935679.2, -1038106.7, 64601.906, -0.13255078, -0.16970195, -904453.5, -67054.66, 0.0, 9.99994, 9.998603 
1.4250578e+3, 2.2454831e+2, -708129.6, -722510.06, 15732.822, -0.111397326, -0.15679277, -698021.8, 41385.996, 0.0, 10.000169, 9.999984 
1.4250787e+3, 2.3454763e+2, -470684.88, -539908.5, -19266.426, 0.17165494, -0.25703162, -465683.9, 175724.19, 0.0, 10.001051, 10.00014 
1.4250979e+3, 2.4454682e+2, -394668.44, -595656.3, -19367.586, 0.26552698, -0.28066656, -392819.16, 150592.69, 0.0, 10.001515, 9.998863 
1.4251153e+3, 2.5454575e+2, -274666.4, -476396.9, -96398.516, 0.13771167, -0.29893845, -236009.36, 209411.25, 0.00000000006254562, 10.001627, 9.998951 
1.4251336e+3, 2.6454383e+2, -297624.84, -676995.6, -62061.094, 0.069709525, -0.27780008, -287730.34, 59711.01, 0.00000036239143, 10.001825, 9.996808 
1.425153e+3, 2.7454087e+2, -156296.25, -555978.8, 20599.654, 0.06930392, -0.2734069, -155237.34, 94238.12, 0.000010087366, 10.00211, 9.996826 
1.4251716e+3, 2.8453848e+2, 88174.945, -226708.97, 27952.988, 0.071637556, -0.25332248, 90637.14, 242137.77, 0.00007867192, 10.00243, 9.998264 
1.42519e+3, 2.9453647e+2, 281176.47, -61408.703, -6186.6147, 0.104851715, -0.32285637, 281288.16, 334805.97, 0.00033170477, 10.00299, 9.998455 
1.4252093e+3, 3.0453417e+2, 214079.69, -139239.72, 79315.19, 0.11667641, -0.35616904, 231068.0, 231068.0, 0.00087102765, 10.002491, 9.997831 
1.4252274e+3, 3.145348e+2, 50834.65, -39543.336, 29332.035, -0.108890995, -0.117672294, 59519.707, 59519.707, 0.0016626937, 10.000566, 9.999442 
1.4348829e+3, 1.2452761e+2, -1724749.4, -1636857.4, -93074.64, 0.15179846, -0.43878233, -1577875.5, 141720.53, 0.010506618, 9.999522, 10.000756 
1.4349005e+3, 1.3452947e+2, -1802293.9, -1687512.3, 38018.26, 0.19134381, -0.28025082, -1676062.0, -54485.504, 0.006123269, 9.99865, 10.000148 
1.4349142e+3, 1.4452893e+2, -1700046.0, -1551277.1, 22202.303, -0.19112273, -0.36567947, -1548034.4, -24453.152, 0.002563054, 9.9985, 10.000488 
1.4349328e+3, 1.545292e+2, -1534652.9, -1424990.6, 38281.277, -0.04518988, -0.40421742, -1412949.5, 12629.433, 0.0006133788, 9.998984, 10.000447 
1.4349505e+3, 1.6452953e+2, -1433917.5, -1396786.9, 34289.664, -0.014762477, -0.3766853, -1376359.1, -48782.023, 0.000047750204, 9.999288, 9.999826 
1.4349677e+3, 1.7452997e+2, -1307194.0, -1274134.4, 30584.6, -0.045623183, -0.3433023, -1255898.5, -26322.988, 0.00000010052836, 9.999445, 9.999916 
1.4349847e+3, 1.8453033e+2, -1186867.5, -1177281.5, -19493.145, -0.07208161, -0.28515986, -1162000.8, -30426.926, 0.0, 9.999669, 9.999794 
1.4350013e+3, 1.9453049e+2, -1026267.25, -1041924.9, -57550.145, -0.11321343, -0.27546558, -976015.9, 57557.22, 0.0, 10.000063, 9.999863 
1.43502e+3, 2.0453025e+2, -934588.06, -976456.75, 7313.795, -0.07217717, -0.26514235, -933347.25, 2228.9204, 0.0, 10.000136, 9.999604 
1.435041e+3, 2.1452951e+2, -880315.94, -895322.2, 62947.55, 0.088115126, -0.32427767, -824425.94, 13158.122, 0.0, 9.999818, 9.999643 
1.4350604e+3, 2.2452903e+2, -765935.9, -812915.1, 37032.613, 0.11615334, -0.3170413, -745571.44, -5983.29, 0.0, 10.000041, 9.999425 
1.435078e+3, 2.345289e+2, -534734.25, -638992.4, 21860.822, -0.02301039, -0.30090612, -530336.0, 111251.125, 0.0, 10.000908, 9.999529 
1.4350969e+3, 2.4452735e+2, -526736.8, -844132.1, -25380.697, -0.015441103, -0.2883434, -524720.0, 18883.002, 0.0, 10.001395, 9.997219 
1.4351174e+3, 2.5452408e+2, -414636.44, -739677.0, -80888.96, 0.17415695, -0.35562772, -395619.22, 50020.2, 0.000000006122379, 10.001509, 9.997202 
1.4351374e+3, 2.645222e+2, -147645.22, -352509.84, -57750.05, 0.23873363, -0.34555817, -132487.38, 215172.3, 0.0000008787704, 10.0017605, 9.999073 
1.435156e+3, 2.7452192e+2, 1155.4078, -206241.52, 44946.613, 0.14668047, -0.31780058, 10477.161, 260137.38, 0.000014147242, 10.002004, 9.999288 
1.4351737e+3, 2.8452143e+2, 46144.01, -292545.56, 38373.457, 0.019688644, -0.21836431, 50437.293, 202101.88, 0.00009061613, 10.002331, 9.997858 
1.4351907e+3, 2.9452044e+2, 216784.02, -169544.33, 28170.73, -0.14076446, -0.12956932, 218827.39, 272503.34, 0.00036054887, 10.002873, 9.997769 
1.43521e+3, 3.0451772e+2, 213440.66, -118733.39, 3002.4617, -0.08327301, -0.17249681, 213467.8, 213467.8, 0.00093364663, 10.002407, 9.99801 
1.4352298e+3, 3.14514e+2, 34274.074, -26536.086, -17543.764, 0.037207995, -0.39366895, 38972.45, 38972.45, 0.0017759766, 10.000362, 9.999633 
1.4448811e+3, 1.2451176e+2, -1846223.5, -1607692.3, 13181.989, 0.09795251, -0.3170445, -1606966.0, 112791.18, 0.011047917, 9.998299, 10.001553 
1.4448993e+3, 1.3451242e+2, -1885477.4, -1710249.0, 9142.51, 0.25206155, -0.30322224, -1709773.3, -88027.65, 0.00646129, 9.997984, 10.000318 
1.4449127e+3, 1.4451158e+2, -1778322.3, -1612229.1, 44238.76, -0.1646284, -0.41396588, -1601181.0, -77429.336, 0.0027186894, 9.998073, 10.000265 
1.4449319e+3, 1.545122e+2, -1574676.3, -1464022.0, 2241.3323, -0.029476922, -0.39854681, -1463976.6, -38229.594, 0.0006559602, 9.998807, 10.000257 
1.4449498e+3, 1.645126e+2, -1458903.8, -1405612.1, -6631.8276, 0.005092066, -0.35296756, -1404799.3, -77055.01, 0.000052490832, 9.9991255, 9.999832 
1.4449672e+3, 1.745129e+2, -1340048.8, -1286868.6, -284.76297, -0.011756614, -0.3356795, -1286867.1, -57125.094, 0.00000012546444, 9.999221, 9.99993 
1.4449844e+3, 1.8451273e+2, -1288557.0, -1303369.3, 7515.4424, -0.0474365, -0.2961696, -1285411.8, -153666.38, 0.0, 9.999289, 9.999117 
1.4450008e+3, 1.9451204e+2, -1178545.4, -1189424.6, -6639.255, -0.1391764, -0.3042314, -1175401.9, -141646.39, 0.0, 9.999338, 9.999195 
1.4450197e+3, 2.0451152e+2, -960600.6, -934662.9, 80103.95, -0.09551681, -0.31075013, -866484.75, 69275.62, 0.0, 9.999725, 10.000089 
1.4450416e+3, 2.1451119e+2, -733616.9, -760492.4, 77569.69, 0.12937616, -0.38517994, -668329.56, 169429.75, 0.0, 10.000553, 10.000212 
1.4450614e+3, 2.2451079e+2, -668426.3, -857039.6, 57924.33, 0.16166043, -0.36102945, -652057.9, 87704.23, 0.0, 10.001095, 9.998617 
1.4450786e+3, 2.3451027e+2, -531730.5, -735485.0, 5993.049, -0.046853516, -0.2989346, -531554.4, 110215.51, 0.0, 10.001336, 9.998662 
1.4450976e+3, 2.4450858e+2, -481551.34, -793228.7, 22254.557, -0.06364952, -0.26837736, -479970.34, 63818.918, 0.0, 10.001593, 9.997464 
1.445119e+3, 2.5450543e+2, -322506.6, -665250.9, 96584.92, 0.14432944, -0.35387626, -297163.06, 148660.14, 0.000000012932129, 10.001999, 9.99748 
1.4451392e+3, 2.6450384e+2, -85180.26, -293471.13, 138452.6, 0.23344721, -0.33765194, -16076.189, 331763.03, 0.0000016431604, 10.002072, 9.999321 
1.4451583e+3, 2.7450424e+2, 4471.11, -171855.88, 53144.34, 0.1774413, -0.27314487, 19249.941, 269083.06, 0.000019343763, 10.0019, 9.999562 
1.4451762e+3, 2.845037e+2, -34251.41, -357966.9, -151.28148, 0.055053648, -0.18256019, -34251.34, 117587.055, 0.00010729349, 10.001898, 9.997611 
1.4451931e+3, 2.9450193e+2, 75424.81, -264186.28, 298.41254, -0.1315533, -0.14624177, 75425.08, 129283.42, 0.00040473163, 10.002012, 9.997527 
1.4452122e+3, 3.044996e+2, 154204.86, -148428.75, -33228.016, -0.08000564, -0.13645543, 157810.22, 157810.22, 0.00103285, 10.002005, 9.998004 
1.4452314e+3, 3.1449607e+2, 263101.84, 75174.836, -120116.914, 0.10093983, -0.34288403, 321641.5, 321641.5, 0.001956194, 10.001993, 9.9995365 
1.4548793e+3, 1.2449724e+2, -1818745.1, -1544483.3, 119031.734, 0.04537952, -0.07741467, -1500028.3, 219874.94, 0.011640448, 9.998282, 10.001996 
1.4548974e+3, 1.3449492e+2, -1880192.8, -1679809.0, 4215.3325, 0.24310997, -0.38418713, -1679720.4, -57801.813, 0.0068325973, 9.997909, 10.00056 
1.4549123e+3, 1.4449431e+2, -1832396.3, -1721969.1, 61401.254, -0.041329566, -0.44723246, -1694607.6, -170685.22, 0.0028915813, 9.998056, 9.99952 
1.454931e+3, 1.5449512e+2, -1632031.8, -1577626.9, 36954.84, -0.01184928, -0.3399865, -1558942.1, -133023.3, 0.00070428615, 9.998782, 9.999488 
1.4549491e+3, 1.6449575e+2, -1428539.5, -1349373.5, -15814.203, -0.0070975954, -0.24794391, -1346331.4, -18417.514, 0.000058062662, 9.999149, 10.000209 
1.4549671e+3, 1.7449619e+2, -1312847.9, -1226755.0, 12803.06, 0.028248593, -0.2597601, -1224891.4, 5016.013, 0.00000016567238, 9.999201, 10.000355 
1.4549845e+3, 1.8449566e+2, -1298017.5, -1321759.1, 247.8436, 0.029553391, -0.27721223, -1298014.9, -166102.25, 0.0, 9.999282, 9.998994 
1.4550014e+3, 1.9449401e+2, -1198251.1, -1221778.5, 3270.611, -0.028382659, -0.36062208, -1197804.9, -163873.53, 0.0, 9.999296, 9.998999 
1.4550197e+3, 2.0449336e+2, -972838.6, -937988.7, 99353.96, -0.07174931, -0.36760223, -854543.25, 81393.305, 0.0, 9.999636, 10.000107 
1.4550401e+3, 2.1449395e+2, -748946.0, -760882.6, 115955.04, -0.079040684, -0.35569787, -638805.75, 199119.55, 0.0, 10.0004225, 10.000271 
1.4550605e+3, 2.2449352e+2, -753300.94, -1005832.25, 57661.48, -0.05214465, -0.2931624, -740757.9, -827.7085, 0.0, 10.000975, 9.997655 
1.4550807e+3, 2.3449187e+2, -633810.44, -903257.9, 25844.045, 0.015425791, -0.23741342, -631354.0, 10600.562, 0.0, 10.001157, 9.997595 
1.4551005e+3, 2.4449055e+2, -350979.28, -502948.9, 29272.063, 0.03211853, -0.2105562, -345535.9, 198433.84, 0.0, 10.0014925, 9.999513 
1.4551194e+3, 2.5448966e+2, -180485.73, -346566.88, 120713.5, -0.018991357, -0.29194805, -117008.43, 328964.75, 0.000000017460069, 10.00189, 9.999724 
1.4551389e+3, 2.644887e+2, -219609.86, -550866.8, 123198.24, -0.013237794, -0.25145513, -178814.98, 169166.5, 0.000002726617, 10.001971, 9.997605 
1.4551592e+3, 2.7448758e+2, -151308.94, -464837.13, 57396.324, 0.07289661, -0.14531007, -141131.97, 108864.45, 0.000025176965, 10.001771, 9.99761 
1.4551786e+3, 2.8448516e+2, -42388.215, -352983.84, -3277.3962, 0.09427081, -0.14362668, -42353.637, 109669.16, 0.0001274956, 10.001799, 9.997698 
1.455197e+3, 2.9448116e+2, 75536.45, -239425.58, 18983.764, 0.03892618, -0.3481535, 76676.54, 130739.0, 0.00046125852, 10.001898, 9.99776 
1.4552155e+3, 3.0448008e+2, 116003.23, -194779.67, -39956.273, 0.033396393, -0.22037944, 121058.05, 121058.05, 0.0011631551, 10.001865, 9.997748 
1.4552322e+3, 3.1448054e+2, 178232.97, -47452.695, -96193.86, -0.06371974, 0.0026680366, 213669.48, 213669.48, 0.00219637, 10.00177, 9.998796 
1.4648773e+3, 1.2447847e+2, -2155875.5, -1745705.8, 104974.48, 0.12830971, -0.08594113, -1720400.9, -312.8272, 0.012283002, 9.996123, 10.001653 
1.4648947e+3, 1.344768e+2, -1818933.0, -1635002.8, -125473.03, 0.16848364, -0.3373319, -1571400.9, 50700.082, 0.00723705, 9.998263, 10.0007 
1.4649116e+3, 1.4447749e+2, -1675383.0, -1624044.0, -30530.244, 0.03876834, -0.28419426, -1609826.0, -85732.68, 0.0030819494, 9.999024, 9.999734 
1.4649299e+3, 1.5447779e+2, -1626399.8, -1548251.6, -2390.5085, -0.0016038921, -0.2512586, -1548178.5, -122085.59, 0.0007585455, 9.998686, 9.999744 
1.4649479e+3, 1.64478e+2, -1516862.1, -1421469.4, -12913.496, -0.01064227, -0.20573597, -1419752.1, -91660.43, 0.00006440502, 9.998667, 9.99995 
1.4649662e+3, 1.7447798e+2, -1321640.8, -1262506.5, -59826.207, 0.03929575, -0.23338269, -1225339.9, 4750.525, 0.00000022299002, 9.999275, 10.000074 
1.4649844e+3, 1.8447742e+2, -1210555.9, -1240113.0, -70268.055, 0.060635176, -0.2521417, -1153529.1, -21433.955, 0.0, 9.999729, 9.999329 
1.4650017e+3, 1.9447629e+2, -1039557.3, -1099807.3, -44975.65, 0.03820594, -0.32352743, -1015549.8, 18556.34, 0.0, 10.000196, 9.999392 
1.4650203e+3, 2.0447573e+2, -884362.0, -948140.94, 84973.555, -0.021413594, -0.32149908, -825491.1, 110618.72, 0.0, 10.000467, 9.99964 
1.4650401e+3, 2.1447587e+2, -757943.5, -819457.5, 46713.62, -0.11951616, -0.30214602, -732770.56, 105333.7, 0.0, 10.000594, 9.999788 
1.4650609e+3, 2.2447519e+2, -784670.7, -959450.75, 16657.158, -0.09167043, -0.26471344, -783097.4, -42986.008, 0.0, 10.000515, 9.998191 
1.4650822e+3, 2.3447338e+2, -715887.9, -876445.0, 84194.93, 0.089154534, -0.28381568, -679833.2, -37698.3, 0.0, 10.000307, 9.998189 
1.465102e+3, 2.4447234e+2, -495815.44, -561820.1, 122923.125, 0.109188445, -0.26356804, -401541.5, 142604.56, 0.0, 10.000466, 9.9995985 
1.4651202e+3, 2.5447235e+2, -272118.16, -379905.2, 35505.79, -0.077631086, -0.26071233, -261473.53, 184667.69, 0.000000044837254, 10.001229, 9.999805 
1.4651397e+3, 2.644713e+2, -289047.22, -625154.0, -5579.179, -0.112484716, -0.21437946, -288954.66, 59196.215, 0.0000038968087, 10.001681, 9.99723 
1.4651605e+3, 2.7446893e+2, -176880.53, -523729.1, 24773.85, 0.037449338, -0.19052826, -175119.98, 75058.44, 0.000030518888, 10.001789, 9.997202 
1.4651804e+3, 2.8446603e+2, -45158.93, -350166.88, 43494.54, 0.10229852, -0.21318713, -39077.793, 113131.58, 0.00014638911, 10.001761, 9.997737 
1.465199e+3, 2.9446286e+2, 46054.34, -238630.63, 17987.799, 0.06030711, -0.34580705, 47186.395, 101427.72, 0.00051755557, 10.00165, 9.997875 
1.4652173e+3, 3.0446184e+2, 114722.74, -182423.78, -6071.133, 0.04703566, -0.22412108, 114846.73, 114846.73, 0.001301741, 10.0018, 9.997857 
1.4652343e+3, 3.1446144e+2, 197795.25, -90926.88, -59577.414, -0.019881897, -0.08837507, 209605.84, 209605.84, 0.0024605144, 10.002092, 9.998355 
1.4748748e+3, 1.2445426e+2, -2244484.3, -1908285.3, 137223.8, 0.21280967, -0.44401997, -1859387.5, -139064.6, 0.012969953, 9.99606, 10.000549 
1.4748906e+3, 1.3445808e+2, -1824955.1, -1632616.3, -43993.79, -0.09096304, -0.14872354, -1623031.3, -738.7026, 0.0076708426, 9.998211, 10.000732 
1.4749102e+3, 1.4446124e+2, -1574649.0, -1431871.4, -58054.742, -0.028141407, 0.08591606, -1411245.4, 113018.055, 0.0032881629, 9.9990835, 10.001031 
1.474928e+3, 1.5446047e+2, -1541612.4, -1361198.1, -7829.1597, -0.06934107, -0.11878192, -1360859.0, 65407.84, 0.00081847684, 9.998636, 10.001054 
1.474946e+3, 1.644595e+2, -1579174.1, -1558301.8, -4109.8857, -0.09079621, -0.21439236, -1557521.6, -229246.06, 0.000071419374, 9.998689, 9.999002 
1.4749648e+3, 1.7445835e+2, -1401346.1, -1422462.6, -30110.15, -0.06190449, -0.24984643, -1379996.8, -149706.47, 0.0000002932695, 9.999249, 9.99899 
1.4749832e+3, 1.844581e+2, -1150029.1, -1120401.9, -63638.027, -0.03665741, -0.21858215, -1069876.0, 62416.566, 0.0, 9.999746, 10.000147 
1.4750016e+3, 1.944589e+2, -981664.1, -969196.9, -20165.258, -0.012007912, -0.18822575, -954323.75, 79956.16, 0.0, 10.000147, 10.000319 
1.475021e+3, 2.0445865e+2, -952997.44, -1077776.0, 77503.38, -0.024948033, -0.16432406, -915892.0, 20387.748, 0.0, 10.000409, 9.998778 
1.4750414e+3, 2.1445715e+2, -849036.44, -977462.1, 57634.73, -0.07393329, -0.21235625, -826964.56, 11330.086, 0.0, 10.0004635, 9.998766 
1.475062e+3, 2.2445588e+2, -667861.0, -689235.94, -395.8885, -0.03600211, -0.26848316, -667853.7, 72451.375, 0.0, 10.000386, 10.000112 
1.4750826e+3, 2.3445487e+2, -582596.44, -575666.44, 85435.97, 0.09929711, -0.4198146, -493625.25, 148684.73, 0.0, 10.0002, 10.000308 
1.4751025e+3, 2.4445403e+2, -632673.4, -832245.9, 137728.97, 0.08195416, -0.40592265, -562381.5, -18064.193, 0.0, 10.000398, 9.997778 
1.4751214e+3, 2.5445345e+2, -434688.6, -690530.4, 74112.875, -0.11312648, -0.25810358, -414770.16, 31557.063, 0.000000082863835, 10.00111, 9.997732 
1.475141e+3, 2.6445168e+2, -241125.4, -501237.88, -4716.6655, -0.15369874, -0.21532327, -241039.9, 107306.38, 0.0000048986644, 10.001573, 9.998132 
1.475162e+3, 2.744484e+2, -120657.17, -375194.25, 44686.05, -0.011909351, -0.39675492, -113040.11, 137337.53, 0.00003489947, 10.001653, 9.998283 
1.4751813e+3, 2.8444645e+2, -76376.24, -391329.75, 29488.281, -0.0044011744, -0.37363142, -73639.12, 78758.164, 0.00016158463, 10.001648, 9.997514 
1.4751986e+3, 2.944465e+2, 11530.514, -287123.1, 26154.385, -0.15380867, -0.15547283, 13803.664, 68202.95, 0.0005683203, 10.001546, 9.997594 
1.4752175e+3, 3.0444446e+2, 138699.92, -104879.5, 705.8354, -0.12492416, -0.14953361, 138701.97, 138701.97, 0.0014328049, 10.001689, 9.998437 
1.4752376e+3, 3.1443915e+2, 149563.58, -114499.69, -16887.125, 0.064482614, -0.5677303, 150639.16, 150639.16, 0.0027090134, 10.001783, 9.998331 
1.4848715e+3, 1.2443395e+2, -2024093.0, -1788169.6, 151461.02, 0.23058192, -0.4450874, -1714153.8, 6368.9736, 0.013700781, 9.997481, 10.0007105 
1.4848869e+3, 1.3443853e+2, -1874021.8, -1578198.3, 62862.547, -0.23557691, -0.1417205, -1565394.1, 57089.953, 0.00813248, 9.997506, 10.001467 
1.4849089e+3, 1.444417e+2, -1764028.9, -1507053.0, 30004.27, 0.016345749, 0.049721625, -1503596.3, 20858.936, 0.0035089266, 9.997741, 10.00115 
1.4849272e+3, 1.5444133e+2, -1485704.0, -1318129.4, -35001.645, -0.008986115, -0.12691568, -1311112.4, 115343.79, 0.0008836724, 9.998963, 10.001183 
1.4849454e+3, 1.6444084e+2, -1458636.8, -1453660.6, -19625.785, -0.03557438, -0.19909427, -1436365.8, -107905.49, 0.00007901186, 9.99934, 9.999396 
1.4849639e+3, 1.7444022e+2, -1422995.9, -1381846.0, 44995.453, -0.057336394, -0.2247478, -1352944.5, -122476.16, 0.00000037325287, 9.998896, 9.999432 
1.4849825e+3, 1.8444005e+2, -1231387.9, -1182550.0, 91494.49, -0.0597459, -0.19926263, -1112271.9, 20196.982, 0.0, 9.999285, 9.9999485 
1.4850017e+3, 1.944405e+2, -874646.6, -939408.6, 33109.203, -0.052232664, -0.18276432, -860716.2, 173743.67, 0.0, 10.0009775, 10.000123 
1.4850214e+3, 2.0444e+2, -846246.2, -1021656.06, 65663.4, -0.026162826, -0.17559436, -824389.06, 112073.48, 0.0, 10.001132, 9.998809 
1.4850424e+3, 2.1443832e+2, -995795.1, -1040318.3, 100522.664, 0.034202993, -0.24407634, -915098.5, -76619.305, 0.0, 9.999423, 9.998833 
1.4850627e+3, 2.2443722e+2, -852194.3, -758036.5, 95604.266, 0.07115117, -0.2958087, -698548.06, 41939.457, 0.0, 9.999029, 10.00029 
1.4850824e+3, 2.3443693e+2, -543689.94, -533870.6, 21499.629, 0.05625527, -0.39507183, -516727.2, 125757.29, 0.0, 10.000369, 10.00051 
1.4851026e+3, 2.4443613e+2, -518808.1, -790357.44, 69950.22, 0.027180832, -0.38269597, -501848.38, 42642.68, 0.0, 10.001236, 9.997664 
1.4851235e+3, 2.544347e+2, -377423.53, -676684.06, 128225.336, -0.011673063, -0.30582818, -329998.1, 116511.51, 0.00000011463164, 10.001557, 9.997617 
1.4851438e+3, 2.6443273e+2, -251558.19, -470652.5, 88993.28, -0.019664643, -0.29086623, -219965.75, 128564.65, 0.000005857849, 10.001353, 9.998448 
1.4851631e+3, 2.744302e+2, -247687.3, -398739.0, 54275.652, -0.0013807536, -0.43011352, -230207.77, 20346.297, 0.000039275426, 10.000622, 9.99862 
1.4851822e+3, 2.8442875e+2, -184328.66, -426265.47, 80654.9, -0.041819356, -0.37848547, -159905.97, -7338.082, 0.0001769937, 10.000855, 9.9976425 
1.4852005e+3, 2.9442886e+2, 143694.16, -210005.4, 89382.85, -0.1487254, -0.15965259, 164998.7, 219566.66, 0.00061951595, 10.002392, 9.997718 
1.4852203e+3, 3.0442607e+2, 298922.34, -8409.741, 39983.613, -0.06560588, -0.24402003, 304039.0, 304039.0, 0.0015545744, 10.002695, 9.998629 
1.4852409e+3, 3.144213e+2, 82404.05, -146211.75, -60176.05, 0.23580152, -0.62949044, 97276.07, 97276.07, 0.0029229536, 10.001317, 9.998338 
1.4948662e+3, 1.2441795e+2, -1885748.3, -1512284.8, -21348.787, -0.09844662, -0.05573429, -1511068.4, 209615.19, 0.014485426, 9.997525, 10.002597 
1.4948834e+3, 1.3441855e+2, -1786894.4, -1376904.9, 66306.81, -0.34328553, -0.295642, -1366447.9, 256223.17, 0.008627366, 9.997425, 10.0028925 
1.4949077e+3, 1.4441888e+2, -1835882.1, -1666987.1, 55223.27, 0.09017722, -0.40852642, -1650533.8, -125866.2, 0.0037456865, 9.997769, 10.000048 
1.4949274e+3, 1.5442045e+2, -1573441.0, -1497263.4, 20133.965, 0.09023491, -0.2724966, -1492269.4, -65609.46, 0.0009542572, 9.998946, 9.999968 
1.494946e+3, 1.6442218e+2, -1321614.0, -1185281.9, -46127.24, 0.056577403, -0.14645806, -1171141.6, 157502.9, 0.00008722728, 9.999405, 10.001205 
1.4949633e+3, 1.7442365e+2, -1294726.4, -1105472.5, 33036.313, -0.011181513, -0.15556298, -1099871.4, 130752.41, 0.0000004647829, 9.998855, 10.001348 
1.4949816e+3, 1.844234e+2, -1309569.0, -1352316.4, 138009.31, -0.08968555, -0.18367703, -1191288.0, -58665.176, 0.0, 9.999309, 9.998775 
1.4950018e+3, 1.9442119e+2, -978674.06, -1145726.1, 102599.62, -0.17084354, -0.29839417, -929900.1, 104745.12, 0.0, 10.000931, 9.998732 
1.495022e+3, 2.0441979e+2, -789459.44, -890117.94, -2345.1414, -0.11059291, -0.34962764, -789404.8, 147253.03, 0.0, 10.001068, 9.999743 
1.4950429e+3, 2.1441942e+2, -934719.25, -888514.1, 42287.277, 0.13702872, -0.39932278, -863430.1, -24772.04, 0.0, 9.999317, 9.999923 
1.4950627e+3, 2.2441928e+2, -971510.3, -990152.06, 127270.234, 0.15796657, -0.33906725, -853220.06, -112561.555, 0.0, 9.998951, 9.99874 
1.4950813e+3, 2.3441952e+2, -681645.75, -792572.2, 80034.38, -0.113671, -0.21437271, -639735.1, 2923.3552, 0.0, 10.000247, 9.9987955 
1.4951023e+3, 2.4441858e+2, -433208.28, -582969.9, 76206.38, -0.13843462, -0.19486876, -401250.22, 143417.27, 0.0, 10.001105, 9.999151 
1.4951268e+3, 2.5441605e+2, -280365.47, -443861.16, 151144.83, 0.14454669, -0.3981241, -190277.7, 256410.92, 0.00000015644366, 10.001424, 9.999279 
1.4951476e+3, 2.6441443e+2, -290312.4, -528293.2, 53631.992, 0.20353353, -0.4232559, -278784.2, 69919.37, 0.000006865855, 10.001249, 9.998103 
1.4951639e+3, 2.7441406e+2, -295986.3, -476892.13, 36762.598, -0.015164755, -0.29589823, -288801.03, -38091.367, 0.00004412312, 10.000527, 9.998129 
1.4951825e+3, 2.8441274e+2, -165142.77, -369216.28, 124931.875, -0.105244905, -0.22733495, -105874.0, 46848.953, 0.00019336937, 10.000773, 9.998077 
1.4952044e+3, 2.944101e+2, 154363.67, -148957.9, 165186.22, -0.02994726, -0.33923694, 226951.6, 281698.13, 0.000667863, 10.002222, 9.998222 
1.495225e+3, 3.0440682e+2, 250628.02, -62221.113, -12873.469, 0.11226554, -0.48490176, 251156.86, 251156.86, 0.0016538163, 10.002507, 9.998341 
1.4952432e+3, 3.1440735e+2, 44110.17, -187209.81, -81180.734, 0.30445075, -0.303949, 69756.75, 69756.75, 0.003077113, 10.001163, 9.998125 
1.5048629e+3, 1.2439845e+2, -1969145.0, -1574026.9, 4280.9473, -0.14978553, -0.102097645, -1573980.5, 146889.75, 0.015336173, 9.997077, 10.002367 
1.504882e+3, 1.3439845e+2, -1787803.4, -1451437.4, -19078.559, -0.23423578, -0.34709176, -1450358.8, 172506.86, 0.0091627855, 9.99773, 10.002235 
1.504906e+3, 1.4439838e+2, -1831760.4, -1638766.6, -34104.58, 0.15110141, -0.47291082, -1632917.1, -108049.88, 0.0040015904, 9.9977045, 10.000261 
1.5049256e+3, 1.5440093e+2, -1730770.8, -1531351.3, 24745.863, 0.09154902, -0.27386758, -1528326.4, -101476.586, 0.001031135, 9.997696, 10.000328 
1.5049446e+3, 1.64403e+2, -1475501.9, -1233730.6, -17954.324, 0.040274333, -0.1421963, -1232404.5, 96425.47, 0.000096309515, 9.998223, 10.001454 
1.5049626e+3, 1.7440401e+2, -1157937.0, -1008727.06, -85209.81, 0.0004168898, -0.22290446, -970077.44, 260734.42, 0.000000575819, 9.999645, 10.0016365 
1.5049818e+3, 1.8440373e+2, -1186443.0, -1274962.0, 22874.875, -0.04594646, -0.27547613, -1180881.3, -48070.734, 0.0, 10.000095, 9.998912 
1.5050024e+3, 1.9440211e+2, -1177603.5, -1220863.9, 83311.34, -0.102766916, -0.34491488, -1113160.3, -78332.586, 0.0, 9.999493, 9.998896 
1.505023e+3, 2.0440099e+2, -996231.6, -999751.56, -2969.3333, -0.051292412, -0.37493166, -994539.9, -57701.168, 0.0, 9.9997, 9.999654 
1.5050429e+3, 2.1440043e+2, -689773.25, -783976.6, -67746.34, 0.1331443, -0.43091366, -654363.5, 184478.97, 0.0, 10.001055, 9.99981 
1.5050629e+3, 2.2440019e+2, -570742.8, -792367.5, 68581.21, 0.14005446, -0.37476274, -551237.2, 189607.27, 0.0, 10.001713, 9.998755 
1.5050824e+3, 2.3440044e+2, -486852.88, -696775.7, 126463.69, -0.08216697, -0.25062782, -427467.2, 215376.4, 0.0, 10.001586, 9.998803 
1.5051039e+3, 2.4439959e+2, -408170.2, -558076.0, 134846.83, -0.10168165, -0.22491191, -328845.4, 216006.22, 0.0, 10.001232, 9.999253 
1.5051275e+3, 2.5439745e+2, -387874.0, -480101.3, 68306.8, 0.12294004, -0.40114576, -351572.34, 95298.01, 0.00000020302433, 10.00063, 9.999399 
1.5051486e+3, 2.6439607e+2, -340497.25, -544285.06, -39574.363, 0.1976769, -0.41366482, -333081.97, 15801.727, 0.0000077496, 10.0008745, 9.99817 
1.5051661e+3, 2.743957e+2, -32579.377, -342004.66, -33931.848, 0.08808224, -0.29134455, -28902.084, 221986.92, 0.00004843342, 10.002289, 9.998211 
1.5051854e+3, 2.8439435e+2, 77932.92, -217765.19, 74785.96, 0.03742179, -0.24339561, 95771.17, 248673.11, 0.0002078638, 10.002298, 9.9983835 
1.5052067e+3, 2.9439163e+2, -48641.758, -204033.64, 69328.875, 0.0598421, -0.39726412, -22207.242, 32718.834, 0.0007072892, 10.000661, 9.998584 
1.505227e+3, 3.0438834e+2, 49389.47, -169560.28, -49449.14, 0.14006487, -0.5611919, 60039.387, 60039.387, 0.001718545, 10.001137, 9.998282 
1.5052457e+3, 3.1439072e+2, 476382.66, 55826.54, -122736.88, 0.3062561, -0.18151958, 509581.9, 509581.9, 0.0031512629, 10.003961, 9.998472 
1.5148607e+3, 1.24376565e+2, -2133961.0, -1926115.9, -17100.422, -0.12450133, -0.5194102, -1924718.3, -203647.22, 0.016257107, 9.997126, 9.999917 
1.5148821e+3, 1.3437851e+2, -2002946.6, -1878060.5, 11537.631, 0.0057875053, -0.29490924, -1877003.5, -253938.31, 0.009740974, 9.997665, 9.999324 
1.5149033e+3, 1.4438063e+2, -1719787.9, -1425538.5, -53443.24, 0.08968176, -0.10889004, -1416132.5, 108917.84, 0.0042781597, 9.997769, 10.001702 
1.5149218e+3, 1.5438291e+2, -1608111.9, -1268793.4, 31436.111, -0.091336176, -0.11273799, -1265905.5, 161118.77, 0.0011151112, 9.99766, 10.002149 
1.5149409e+3, 1.6438352e+2, -1553985.9, -1407145.8, 19260.855, -0.17593946, -0.17017986, -1404661.4, -75646.484, 0.000106548556, 9.9982605, 10.000247 
1.5149614e+3, 1.7438148e+2, -1256806.1, -1213121.1, -24669.705, -0.10240622, -0.41994807, -1202013.8, 29017.332, 0.0000007145684, 9.999636, 10.00024 
1.5149824e+3, 1.8438122e+2, -1080037.0, -1059715.5, -5696.4067, -0.013981021, -0.46861047, -1058227.6, 74803.03, 0.0, 10.000116, 10.000382 
1.515004e+3, 1.9438338e+2, -1070917.0, -986899.4, 66479.65, 0.079835065, -0.32250884, -950267.94, 84738.76, 0.0, 9.99944, 10.000527 
1.515024e+3, 2.0438367e+2, -1083613.6, -1166859.0, 30497.123, 0.075343795, -0.24420267, -1073636.8, -136632.16, 0.0, 9.999633, 9.998542 
1.5150423e+3, 2.1438156e+2, -797928.6, -978048.56, -9851.835, -0.047008224, -0.32586336, -797391.4, 41638.67, 0.0, 10.000923, 9.998542 
1.5150627e+3, 2.2438017e+2, -489047.03, -590068.75, 56794.95, -0.059453968, -0.38667968, -463551.25, 277491.72, 0.0, 10.001567, 10.000219 
1.5150855e+3, 2.3437975e+2, -393529.5, -469767.63, 131116.34, 0.06665427, -0.49002773, -295103.47, 347935.4, 0.0, 10.001444, 10.000431 
1.5151069e+3, 2.443793e+2, -513827.97, -751803.4, 101038.69, 0.052155428, -0.4536125, -476716.7, 68325.71, 0.0, 10.001112, 9.997986 
1.5151256e+3, 2.5437889e+2, -503896.5, -697999.2, 54677.125, -0.1415804, -0.31396034, -489554.2, -42499.21, 0.00000026346208, 10.000527, 9.997957 
1.5151465e+3, 2.643775e+2, -321178.56, -482491.9, 1733.1469, -0.10635457, -0.26773313, -321159.94, 27911.621, 0.0000083363275, 10.000777, 9.998644 
1.5151699e+3, 2.7437514e+2, -14099.647, -265756.66, 32560.504, 0.21727389, -0.40525648, -9955.081, 241136.08, 0.00005084747, 10.002133, 9.998809 
1.5151903e+3, 2.8437376e+2, 67582.53, -214592.72, 9699.284, 0.28257588, -0.3996513, 67915.53, 221018.61, 0.00021983829, 10.002179, 9.998466 
1.5152071e+3, 2.943733e+2, -60719.805, -210106.44, 23611.938, 0.030207591, -0.33366975, -57076.57, -1969.0645, 0.00074040476, 10.000572, 9.998585 
1.5152262e+3, 3.0437034e+2, 42772.504, -143353.94, 39856.906, -0.059694007, -0.47211805, 50948.29, 50948.29, 0.0017581307, 10.000993, 9.99852 
1.5152478e+3, 3.143715e+2, 497562.53, 185966.98, 8703.661, 0.09023019, -0.25055122, 497805.47, 497805.47, 0.0031630676, 10.003639, 9.999503 
1.5248585e+3, 1.2435604e+2, -2063777.9, -1958203.1, -94655.54, -0.08448006, -0.5970511, -1902610.8, -181341.83, 0.017244658, 9.997899, 9.999323 
1.5248813e+3, 1.3435851e+2, -1922464.4, -1900756.1, 29844.346, 0.12562029, -0.26993477, -1879853.4, -256592.45, 0.010359608, 9.998475, 9.998777 
1.524901e+3, 1.4436057e+2, -1633584.4, -1377725.3, 22052.27, 0.05319689, -0.061766576, -1375838.5, 149408.05, 0.0045741852, 9.998351, 10.001745 
1.5249193e+3, 1.5436195e+2, -1533920.4, -1221887.3, -43521.01, -0.11930655, -0.16954987, -1215930.8, 211295.3, 0.0012060112, 9.998114, 10.002256 
1.5249391e+3, 1.6436204e+2, -1584881.0, -1450236.4, -25617.262, -0.17439821, -0.26767394, -1445527.1, -116306.08, 0.000118081814, 9.998203, 9.99997 
1.5249611e+3, 1.7436047e+2, -1353662.3, -1287724.1, -8014.891, -0.052732192, -0.43949986, -1286763.9, -55527.785, 0.0000008766353, 9.999125, 9.999966 
1.5249829e+3, 1.8436047e+2, -1133307.9, -1041298.3, -20244.203, 0.061615285, -0.46336445, -1037041.1, 96192.93, 0.0, 9.999558, 10.000782 
1.525004e+3, 1.9436261e+2, -1025524.4, -920035.4, -59956.785, 0.13745426, -0.36184254, -892925.0, 142284.06, 0.0, 9.999545, 10.000945 
1.5250239e+3, 2.0436321e+2, -1034073.06, -1120072.9, -30716.063, 0.10219513, -0.28354564, -1024229.2, -87025.54, 0.0, 9.999864, 9.998749 
1.5250427e+3, 2.143619e+2, -827463.2, -971389.0, 23542.885, -0.07556399, -0.3055338, -823710.0, 15512.165, 0.0, 10.000617, 9.9987335 
1.5250637e+3, 2.2436084e+2, -601646.9, -627367.2, 68784.39, -0.08008091, -0.35361373, -544530.75, 196701.72, 0.0, 10.000708, 10.0003805 
1.5250868e+3, 2.343601e+2, -600465.6, -551899.5, 14980.872, 0.12692645, -0.5065731, -547650.25, 95581.33, 0.0, 9.99994, 10.000593 
1.5251082e+3, 2.4435976e+2, -644608.7, -801308.75, 27216.943, 0.12984207, -0.4718834, -640016.06, -94781.98, 0.0, 10.000177, 9.998085 
1.5251268e+3, 2.5435996e+2, -311669.47, -595916.25, 73693.32, -0.13149345, -0.27582526, -293699.88, 153540.8, 0.0000003530132, 10.001807, 9.99804 
1.5251479e+3, 2.6435864e+2, -121595.53, -399162.84, 62644.99, -0.12077532, -0.2232047, -108111.99, 241145.16, 0.00000861748, 10.002208, 9.998528 
1.5251715e+3, 2.743556e+2, -176785.88, -354473.63, 16583.207, 0.22669113, -0.4197177, -175251.45, 76032.91, 0.00005158201, 10.001072, 9.998702 
1.525192e+3, 2.8435418e+2, -98776.51, -264661.2, -18515.701, 0.30980277, -0.4208638, -96734.95, 56561.223, 0.00023167011, 10.000921, 9.998725 
1.5252088e+3, 2.9435465e+2, 180828.55, -66881.44, -12001.911, 0.05962309, -0.28637382, 181408.7, 236699.38, 0.0007727991, 10.002111, 9.998837 
1.5252283e+3, 3.0435178e+2, 295838.16, -67601.8, 73168.98, -0.036059417, -0.40930852, 310015.72, 310015.72, 0.0017907068, 10.002914, 9.998127 
1.5252514e+3, 3.1435132e+2, 417837.75, 152618.03, -47219.742, 0.13083817, -0.30578148, 425993.94, 425993.94, 0.0031567547, 10.003025, 9.999587 
1.5348566e+3, 1.2433663e+2, -1983558.6, -1793659.6, -2238.8691, -0.122669175, -0.3643961, -1793633.3, -72166.37, 0.018294634, 9.997899, 10.000453 
1.534879e+3, 1.3433881e+2, -1793450.8, -1623158.9, 49728.875, 0.028341167, -0.24937868, -1609700.5, 13748.458, 0.011016667, 9.998439, 10.000698 
1.5348986e+3, 1.443386e+2, -1715024.1, -1569808.1, -2073.9485, -0.05191034, -0.30743513, -1569778.5, -44326.676, 0.0048880493, 9.998441, 10.000388 
1.534918e+3, 1.5433817e+2, -1654191.0, -1455301.6, -46861.676, -0.07348206, -0.43858644, -1444813.3, -17359.547, 0.0013030368, 9.998055, 10.00068 
1.534939e+3, 1.6433881e+2, -1539176.0, -1367258.8, -8044.5635, -0.03266037, -0.42320403, -1366883.1, -37436.445, 0.00013086536, 9.9982395, 10.000529 
1.5349618e+3, 1.743411e+2, -1308517.3, -1188854.3, 33834.105, 0.08231881, -0.27661455, -1179950.4, 51475.08, 0.0000010420176, 9.9991, 10.000657 
1.534983e+3, 1.8434167e+2, -1176858.8, -1141017.4, -28775.074, 0.09734443, -0.24690138, -1125038.9, 8380.523, 0.0, 9.999593, 10.000083 
1.5350021e+3, 1.9433996e+2, -1082589.6, -1033567.06, -53899.203, -0.009033445, -0.45444208, -998867.5, 36566.023, 0.0, 9.999519, 10.000179 
1.5350224e+3, 2.0433973e+2, -943394.3, -909264.94, -13242.19, -0.057888865, -0.48960632, -904729.6, 32705.305, 0.0, 9.999771, 10.000237 
1.535044e+3, 2.1434148e+2, -734189.5, -744498.8, 59437.617, -0.033747673, -0.3699648, -679683.44, 159735.39, 0.0, 10.000478, 10.000355 
1.5350652e+3, 2.2434214e+2, -697731.4, -796004.4, 33328.35, -0.006079858, -0.27910182, -687494.7, 53918.76, 0.0, 10.0005665, 9.999294 
1.5350859e+3, 2.343414e+2, -699838.94, -736300.5, -3302.8828, 0.032900713, -0.30781093, -699542.1, -56120.676, 0.0, 9.999842, 9.999376 
1.5351076e+3, 2.443409e+2, -570805.94, -617960.4, 74001.18, 0.052299928, -0.28751758, -516716.8, 28709.813, 0.0, 10.000049, 9.999405 
1.5351307e+3, 2.543408e+2, -229089.23, -390153.6, 144814.16, 0.058882955, -0.27370667, -143921.16, 303505.84, 0.0000004707298, 10.001667, 9.999517 
1.535152e+3, 2.6433954e+2, -184934.08, -505912.94, 12676.327, 0.054196022, -0.26113713, -184434.22, 165005.89, 0.000008627056, 10.002092, 9.997854 
1.5351708e+3, 2.7433693e+2, -247062.03, -479332.5, -19232.975, 0.03714759, -0.33047628, -245480.23, 5988.642, 0.00005250251, 10.000981, 9.99789 
1.5351905e+3, 2.843355e+2, -88146.89, -222410.73, 10629.422, 0.03930007, -0.30991647, -87310.59, 66172.3, 0.00024464625, 10.000824, 9.99907 
1.535211e+3, 2.9433548e+2, 191708.5, -18615.055, 47645.977, 0.056060664, -0.26616928, 201998.61, 257476.4, 0.0008062841, 10.001996, 9.999228 
1.5352328e+3, 3.043326e+2, 200476.89, -224238.23, 68207.766, 0.105056316, -0.3620134, 211162.0, 211162.0, 0.0018299954, 10.0027485, 9.997123 
1.5352559e+3, 3.1433022e+2, 326354.94, 41973.324, -14490.941, 0.23289527, -0.35006955, 327091.44, 327091.44, 0.0031748605, 10.002716, 9.998956 
1.5448548e+3, 1.243153e+2, -2133148.5, -1758059.4, 38273.31, 0.006685456, -0.23955858, -1754193.9, -32511.762, 0.019406972, 9.996417, 10.001403 
1.5448764e+3, 1.3431703e+2, -1835073.8, -1544859.8, -71517.73, -0.038933646, -0.25614887, -1528192.8, 95468.66, 0.0117135905, 9.997718, 10.001585 
1.5448967e+3, 1.4431591e+2, -1756674.4, -1618349.3, -126713.91, -0.06410262, -0.4419189, -1543151.6, -17481.494, 0.0052204016, 9.998284, 10.000131 
1.544917e+3, 1.54316e+2, -1580480.3, -1466430.3, -103131.82, -0.017556977, -0.48006803, -1405607.8, 22061.572, 0.0014059248, 9.998742, 10.000286 
1.5449382e+3, 1.6431718e+2, -1422108.0, -1277394.1, 11484.009, 0.051108945, -0.4041288, -1276488.5, 53169.918, 0.00014487762, 9.998904, 10.000815 
1.5449615e+3, 1.7432001e+2, -1306201.0, -1154018.0, 8271.276, 0.14266358, -0.23952076, -1153569.9, 78062.11, 0.000001197513, 9.998949, 10.000971 
1.5449825e+3, 1.8432073e+2, -1271970.6, -1192952.6, -41969.27, 0.12547216, -0.20768876, -1174821.5, -41196.54, 0.0, 9.9989805, 10.000016 
1.5450013e+3, 1.9431889e+2, -1129038.5, -1063586.9, -32226.303, -0.039111704, -0.41880468, -1050383.3, -14741.318, 0.0, 9.999248, 10.000101 
1.5450217e+3, 2.0431864e+2, -954798.56, -861383.5, 27744.926, -0.079584904, -0.47161558, -853764.5, 83878.54, 0.0, 9.999473, 10.000711 
1.5450446e+3, 2.1432066e+2, -821291.75, -728680.94, -906.8596, 0.039294537, -0.37663385, -728672.06, 110950.05, 0.0, 9.999645, 10.000865 
1.5450661e+3, 2.2432153e+2, -763598.0, -842973.1, -31524.07, 0.0719367, -0.28233495, -752601.56, -10987.174, 0.0, 10.000197, 9.999142 
1.5450859e+3, 2.3432103e+2, -508265.84, -665646.06, -18565.295, -0.016980208, -0.26754242, -506105.47, 137517.67, 0.0, 10.001268, 9.999167 
1.5451078e+3, 2.4432047e+2, -331452.53, -486954.06, 84912.27, -0.014304221, -0.24821714, -294071.72, 251557.64, 0.000000000009610117, 10.001612, 9.999561 
1.5451324e+3, 2.5431994e+2, -317386.53, -412830.53, 45855.715, 0.105790555, -0.29187945, -298925.94, 148705.39, 0.0000005675007, 10.000971, 9.999704 
1.545154e+3, 2.6431876e+2, -366988.16, -587818.1, -118915.516, 0.13306905, -0.28426245, -315130.63, 34512.477, 0.000008574752, 10.000826, 9.9979 
1.5451719e+3, 2.7431673e+2, -185337.48, -453578.0, -115217.77, 0.024337787, -0.29234228, -142643.2, 109024.43, 0.000054092365, 10.001409, 9.997874 
1.5451916e+3, 2.8431526e+2, 68827.83, -151395.8, -14410.432, 0.017386831, -0.27150163, 69766.78, 223448.88, 0.00025774646, 10.001937, 9.999006 
1.5452138e+3, 2.9431447e+2, 237165.13, -8250.853, -35682.113, 0.113353476, -0.2948967, 242247.84, 297930.6, 0.00084183685, 10.002369, 9.999107 
1.5452361e+3, 3.0431178e+2, 198477.64, -265454.03, -2019.2504, 0.1700923, -0.35325944, 198486.44, 198486.44, 0.0018861917, 10.002891, 9.9967785 
1.5452588e+3, 3.1430867e+2, 406167.25, 31896.785, -79303.33, 0.22771376, -0.37022308, 422277.22, 422277.22, 0.0032430727, 10.003434, 9.99856 
1.5548539e+3, 1.2429272e+2, -2062131.3, -1626746.9, 49471.055, 0.2262152, -0.1542773, -1621196.4, 100711.805, 0.020587768, 9.99647, 10.002297 
1.554873e+3, 1.3429327e+2, -1855012.0, -1560771.0, -28954.877, -0.17174445, -0.27033705, -1557948.8, 65948.42, 0.012455585, 9.99762, 10.001521 
1.5548952e+3, 1.4429249e+2, -1687421.0, -1485992.9, -123408.05, -0.0827118, -0.46647602, -1427418.3, 98483.57, 0.0055746003, 9.998317, 10.001031 
1.5549155e+3, 1.5429579e+2, -1523655.0, -1345303.8, -76071.5, -0.042534687, -0.2719023, -1317265.3, 110604.68, 0.001515748, 9.998734, 10.001118 
1.5549368e+3, 1.6429754e+2, -1410790.8, -1271892.8, 3011.864, -0.014421629, -0.18237157, -1271827.5, 58025.293, 0.00016035176, 9.998971, 10.000827 
1.5549597e+3, 1.742973e+2, -1311661.6, -1157073.8, 14276.799, 0.062058393, -0.3207422, -1155766.3, 76088.414, 0.0000013687348, 9.998914, 10.000968 
1.5549812e+3, 1.8429781e+2, -1232755.3, -1112664.1, -42256.65, 0.07035604, -0.33674145, -1099285.6, 34563.895, 0.0, 9.998983, 10.000566 
1.5550007e+3, 1.9429943e+2, -1097172.8, -985111.06, -14126.515, -0.02856049, -0.2610501, -983357.75, 52476.414, 0.0, 9.999198, 10.000663 
1.5550217e+3, 2.0430005e+2, -999670.25, -945085.56, 25084.305, -0.04114371, -0.2297805, -935309.1, 2518.3755, 0.0, 9.999418, 10.000171 
1.5550448e+3, 2.1429956e+2, -874726.8, -822086.25, 14883.347, 0.073914595, -0.3241724, -818169.6, 21661.36, 0.0, 9.999555, 10.000275 
1.5550664e+3, 2.2429918e+2, -738942.75, -762624.5, -1604.4672, 0.06507817, -0.3549101, -738834.56, 2999.6306, 0.0, 10.000071, 9.999755 
1.5550864e+3, 2.3429899e+2, -477240.28, -576246.06, 31763.254, -0.10138266, -0.37619984, -467926.16, 175910.27, 0.0, 10.001157, 9.999837 
1.555108e+3, 2.4429843e+2, -415468.7, -632821.4, 57116.01, -0.15771297, -0.3478727, -401373.75, 144468.73, 0.0, 10.001484, 9.998624 
1.5551318e+3, 2.5429747e+2, -404935.44, -569573.94, 32144.24, -0.056268055, -0.33297575, -398882.13, 48970.63, 0.0000005355393, 10.00086, 9.998684 
1.555154e+3, 2.642963e+2, -340352.7, -507797.28, -103843.82, 0.030981442, -0.29862192, -290684.72, 59180.81, 0.000008556659, 10.000715, 9.998503 
1.5551741e+3, 2.7429503e+2, -149064.89, -359120.28, -77461.125, 0.105764486, -0.30785105, -123589.555, 128290.68, 0.000056207, 10.001326, 9.998559 
1.555195e+3, 2.8429356e+2, 19503.348, -234906.97, -4923.0073, 0.14825408, -0.29771733, 19598.574, 173492.06, 0.00027237786, 10.001852, 9.998475 
1.5552166e+3, 2.9429176e+2, 181592.4, -94717.39, -5632.2124, 0.13843703, -0.36508808, 181707.17, 237611.55, 0.00088338385, 10.002248, 9.9985695 
1.5552382e+3, 3.0428937e+2, 176178.78, -259648.31, 10067.846, 0.069363564, -0.37066492, 176411.23, 176411.23, 0.0019680208, 10.002692, 9.996904 
1.55526e+3, 3.1428638e+2, 350994.53, -183.74808, -29644.89, -0.026105931, -0.3995542, 353479.44, 353479.44, 0.0033748897, 10.003124, 9.9984665 
1.5648519e+3, 1.2426971e+2, -1919979.8, -1560314.6, 87983.484, 0.32567808, -0.17751144, -1539945.3, 182188.4, 0.021849003, 9.997451, 10.002301 
1.5648702e+3, 1.3427018e+2, -1911584.6, -1623632.4, 20478.393, -0.18221918, -0.27093983, -1622183.3, 1942.0039, 0.013250772, 9.997362, 10.001227 
1.5648939e+3, 1.4427017e+2, -1762115.0, -1453197.0, -75981.836, 0.0015906072, -0.40312052, -1435519.9, 90602.57, 0.0059556314, 9.99753, 10.00163 
1.5649138e+3, 1.5427348e+2, -1556009.3, -1289469.6, -68131.19, -0.046095975, -0.27051917, -1273064.1, 155024.31, 0.0016345053, 9.998214, 10.001746 
1.5649348e+3, 1.6427524e+2, -1440655.4, -1250138.6, 19350.283, -0.082242616, -0.22820467, -1248193.3, 81876.41, 0.00017771397, 9.99861, 10.001157 
1.5649578e+3, 1.7427517e+2, -1286831.0, -1108678.3, 41274.832, -0.013439977, -0.3793589, -1099580.3, 132488.31, 0.0000016137079, 9.998925, 10.001299 
1.56498e+3, 1.8427598e+2, -1196006.5, -1090088.9, 3444.7458, 0.0424455, -0.387034, -1089977.0, 44083.15, 0.0, 9.999208, 10.000615 
1.5650007e+3, 1.9427802e+2, -1034207.1, -953125.7, -24781.188, 0.039714493, -0.27169687, -946151.56, 89889.516, 0.0, 9.999612, 10.000688 
1.565022e+3, 2.0427868e+2, -961753.56, -929661.94, 12354.569, 0.043054495, -0.2383331, -925456.75, 12577.834, 0.0, 9.999704, 10.000127 
1.5650441e+3, 2.1427768e+2, -872671.3, -822200.4, 24155.117, 0.05572803, -0.3784844, -812503.06, 27539.563, 0.0, 9.999592, 10.000243 
1.5650661e+3, 2.2427721e+2, -741131.4, -772125.8, 64586.04, 0.028395917, -0.41314095, -690209.3, 51837.49, 0.0, 10.000081, 9.999688 
1.5650882e+3, 2.3427746e+2, -452411.53, -569267.0, 32019.48, -0.050672982, -0.38704088, -444213.06, 199832.27, 0.0, 10.001338, 9.999797 
1.5651102e+3, 2.4427694e+2, -395812.22, -619945.1, 7338.169, -0.09639553, -0.35256708, -395572.22, 150478.78, 0.0, 10.001601, 9.998657 
1.565132e+3, 2.542756e+2, -439689.44, -580046.6, 34665.977, -0.10932345, -0.37815806, -431594.38, 16470.148, 0.00000039469393, 10.000595, 9.998737 
1.5651542e+3, 2.6427436e+2, -309866.34, -487747.9, 9871.177, -0.03364314, -0.35715032, -309320.22, 40757.25, 0.000008163994, 10.00091, 9.998543 
1.5651767e+3, 2.7427328e+2, 88736.375, -237340.66, -28248.76, 0.1538388, -0.351807, 91165.53, 343255.06, 0.000058093792, 10.002938, 9.99861 
1.5651985e+3, 2.8427154e+2, 256326.16, -174727.7, -13215.2, 0.2352797, -0.3456966, 256730.92, 410836.44, 0.00028837356, 10.00371, 9.998007 
1.5652192e+3, 2.9426908e+2, 235876.16, -127517.06, -42334.76, 0.1685951, -0.42336404, 240742.92, 296867.97, 0.0009303234, 10.002864, 9.998064 
1.5652409e+3, 3.0426687e+2, 233073.77, -242117.97, 40233.023, 0.0709013, -0.37876707, 236456.1, 236456.1, 0.002071048, 10.003107, 9.996826 
1.5652642e+3, 3.1426463e+2, 549744.5, 38763.1, -53746.24, 0.01505175, -0.32155976, 555336.44, 555336.44, 0.0035608946, 10.004698, 9.997994 
1.5748468e+3, 1.2424659e+2, -1982333.6, -1693829.3, -58582.23, 0.035372738, -0.29058602, -1682387.6, 39967.465, 0.023204513, 9.997476, 10.001355 
1.574868e+3, 1.3424829e+2, -1957705.4, -1706003.0, 24013.094, -0.16479157, -0.21162328, -1703732.5, -79392.555, 0.014108494, 9.997322, 10.000672 
1.5748926e+3, 1.4424947e+2, -1730159.9, -1410416.9, -65164.477, 0.10940965, -0.20599982, -1397646.3, 128680.67, 0.0063687824, 9.997611, 10.001897 
1.5749118e+3, 1.5424907e+2, -1534396.3, -1238031.6, -36898.715, -0.09052066, -0.4772599, -1233506.6, 194818.63, 0.00176415, 9.998182, 10.002121 
1.5749322e+3, 1.6425028e+2, -1387372.5, -1146337.3, 19921.08, -0.23662399, -0.5422168, -1144701.9, 185607.0, 0.00019721544, 9.998633, 10.001859 
1.5749554e+3, 1.7425375e+2, -1244576.3, -1014270.94, 61071.29, -0.15911892, -0.41204122, -999078.5, 233194.19, 0.0000019795527, 9.998898, 10.001959 
1.5749785e+3, 1.8425544e+2, -1218601.1, -1148019.3, 10416.142, -0.041995354, -0.34902233, -1146514.3, -12259.021, 0.0, 9.999247, 10.000201 
1.575001e+3, 1.9425486e+2, -1076910.1, -1032275.44, -2579.8308, 0.09494818, -0.44299567, -1032126.9, 4134.364, 0.0, 9.999566, 10.00017 
1.5750225e+3, 2.0425467e+2, -943583.6, -879146.0, 1173.4143, 0.09021731, -0.48445106, -879124.6, 59137.98, 0.0, 9.999644, 10.000503 
1.5750423e+3, 2.1425502e+2, -860657.2, -770663.3, 26638.953, -0.08559711, -0.5337741, -763369.2, 76888.16, 0.0, 9.999476, 10.000652 
1.575065e+3, 2.2425553e+2, -803100.4, -872755.44, 100724.87, -0.11495938, -0.46214047, -731351.8, 10901.506, 0.0, 9.999958, 9.999055 
1.5750907e+3, 2.3425636e+2, -526447.44, -687039.9, 87392.34, 0.05551707, -0.3073252, -488063.84, 156186.52, 0.0, 10.0011835, 9.9990635 
1.5751137e+3, 2.4425606e+2, -358103.0, -503673.66, -33495.96, 0.07285743, -0.2545476, -350765.4, 195489.02, 0.0, 10.001435, 9.999535 
1.5751326e+3, 2.5425437e+2, -385374.34, -447215.6, 3685.1494, -0.118165836, -0.41661644, -385155.53, 63111.223, 0.00000029448665, 10.000503, 9.999694 
1.5751542e+3, 2.6425287e+2, -361853.4, -574183.3, 69917.93, -0.13010107, -0.44794485, -340898.28, 9381.739, 0.000007127328, 10.000815, 9.997995 
1.5751792e+3, 2.7425143e+2, 23483.207, -335627.1, 59190.168, 0.0910143, -0.4131405, 32987.645, 285283.44, 0.00005845978, 10.002782, 9.99801 
1.575202e+3, 2.842492e+2, 197766.22, -266770.75, -49263.445, 0.18881607, -0.40183935, 202933.06, 357251.6, 0.000301475, 10.0035715, 9.997444 
1.5752219e+3, 2.9424635e+2, 177619.02, -222690.17, -58318.875, 0.1213876, -0.46765968, 185942.13, 242287.47, 0.0009761355, 10.002746, 9.997471 
1.575244e+3, 3.0424416e+2, 193868.72, -284048.0, 87717.445, 0.061231192, -0.3769101, 209459.86, 209459.86, 0.0021803575, 10.002958, 9.996595 
1.5752704e+3, 3.1424332e+2, 449525.4, -84894.02, 34250.145, 0.15115221, -0.16007571, 451711.5, 451711.5, 0.0037681665, 10.004359, 9.99729 
1.584844e+3, 1.24224454e+2, -1934829.3, -1685969.5, -67760.84, 0.003820561, -0.3418994, -1668715.5, 53852.453, 0.024665277, 9.997885, 10.001201 
1.5848659e+3, 1.342263e+2, -1900885.8, -1669829.6, 94799.44, -0.11280173, -0.2562767, -1635913.1, -11361.863, 0.0150364665, 9.99768, 10.000742 
1.5848897e+3, 1.4422779e+2, -1751882.6, -1451814.4, 44558.83, 0.07688837, -0.21335775, -1445337.4, 81198.53, 0.0068181083, 9.997606, 10.001603 
1.5849099e+3, 1.5422688e+2, -1631208.0, -1322002.6, -1699.024, -0.078130394, -0.50062627, -1321993.3, 106547.45, 0.0019058621, 9.997674, 10.001785 
1.5849307e+3, 1.6422796e+2, -1485851.5, -1205605.9, 24231.309, -0.20594275, -0.5574783, -1203526.3, 127000.9, 0.0002187055, 9.998021, 10.001739 
1.5849544e+3, 1.742316e+2, -1234163.8, -1016815.8, -13235.111, -0.15148729, -0.40042982, -1016012.9, 216477.14, 0.000002466339, 9.999011, 10.00188 
1.584978e+3, 1.8423322e+2, -1180832.8, -1096840.9, -74846.8, -0.020996165, -0.35187364, -1053013.1, 81459.21, 0.0, 9.999371, 10.000493 
1.5850009e+3, 1.9423233e+2, -1114760.1, -1009191.0, -44329.965, 0.15299693, -0.5085145, -993045.5, 43432.785, 0.0, 9.999132, 10.000533 
1.5850225e+3, 2.0423204e+2, -1008632.9, -966040.5, -2433.173, 0.14036608, -0.5577991, -965901.94, -27421.924, 0.0, 9.999433, 10.000017 
1.5850422e+3, 2.142325e+2, -742960.25, -778317.25, -64543.16, -0.09494326, -0.5396308, -693718.25, 146758.16, 0.0, 10.000542, 10.000099 
1.585065e+3, 2.2423287e+2, -669566.2, -785834.25, 8588.763, -0.14157134, -0.46138117, -668935.2, 73539.336, 0.0, 10.000793, 9.999251 
1.5850914e+3, 2.3423328e+2, -663558.9, -724769.9, 45732.438, 0.057599902, -0.36789602, -639135.75, 5337.296, 0.0, 10.000125, 9.999322 
1.5851146e+3, 2.4423294e+2, -535078.2, -600921.4, -57049.77, 0.099164486, -0.32568452, -502132.44, 44344.53, 0.0, 10.000296, 9.9994 
1.585134e+3, 2.5423172e+2, -230136.56, -392676.25, -126750.586, -0.079839095, -0.42212677, -160839.14, 287647.8, 0.00000023115544, 10.001665, 9.999498 
1.5851562e+3, 2.6423013e+2, -198204.39, -517884.16, -66654.99, -0.08116038, -0.43786833, -184863.22, 165638.64, 0.0000061293663, 10.002042, 9.997788 
1.5851818e+3, 2.7422813e+2, -218882.69, -474195.53, -67892.766, 0.15392932, -0.43938276, -201951.45, 50571.465, 0.000059474278, 10.001219, 9.997808 
1.5852049e+3, 2.8422573e+2, -127857.72, -456919.66, -137052.92, 0.24155632, -0.41386142, -78253.34, 76293.79, 0.00031290337, 10.001488, 9.997132 
1.5852246e+3, 2.9422322e+2, 221637.39, -228876.5, -158780.77, 0.11060731, -0.4185213, 271974.4, 328547.03, 0.001018314, 10.003174, 9.997208 
1.5852474e+3, 3.0422014e+2, 393758.1, -185481.56, 44581.887, 0.03905926, -0.40400434, 397169.3, 397169.3, 0.0022823438, 10.004288, 9.996662 
1.5852758e+3, 3.1421864e+2, 450156.72, -94531.34, -32065.326, 0.24640635, -0.2586255, 452037.88, 452037.88, 0.0039566252, 10.00439, 9.997224 
1.5948427e+3, 1.2420321e+2, -1878248.3, -1598999.1, -100494.94, 0.03634545, -0.37368238, -1566593.9, 156179.56, 0.026239868, 9.997978, 10.00178 
1.594864e+3, 1.3420433e+2, -1857375.6, -1575801.1, 102974.39, -0.081469774, -0.422424, -1542161.4, 82596.445, 0.016040104, 9.997657, 10.001404 
1.594885e+3, 1.4420512e+2, -1804312.3, -1583755.4, 36529.223, -0.19324346, -0.4438556, -1577862.8, -51113.664, 0.0073062, 9.997688, 10.000664 
1.5949075e+3, 1.5420721e+2, -1710679.1, -1489173.0, 8153.0996, -0.085918665, -0.32225507, -1488873.4, -60141.4, 0.002060233, 9.997673, 10.000644 
1.5949301e+3, 1.6420859e+2, -1547877.5, -1341292.6, 46472.406, -0.075081766, -0.24294533, -1331319.9, -598.93195, 0.00024185247, 9.998053, 10.000791 
1.5949546e+3, 1.742089e+2, -1305612.5, -1156502.8, 31251.564, -0.04809039, -0.32800585, -1150217.8, 82501.3, 0.0000030340082, 9.998977, 10.0009365 
1.594978e+3, 1.8420942e+2, -1104678.3, -946076.6, -91649.586, 0.032948967, -0.38401648, -904182.3, 230528.48, 0.0, 9.999397, 10.001515 
1.5950002e+3, 1.942105e+2, -1042877.75, -845401.4, -44503.582, 0.1425494, -0.46412265, -835835.4, 200856.42, 0.0, 9.999072, 10.001686 
1.5950218e+3, 2.0421082e+2, -1110809.1, -1163118.4, 27063.484, 0.11716111, -0.45166397, -1099327.4, -160640.8, 0.0, 9.999368, 9.998694 
1.5950434e+3, 2.1421017e+2, -872305.44, -1010376.1, -14762.573, -0.0519987, -0.39284024, -870744.7, -30045.56, 0.0, 10.000393, 9.998575 
1.5950659e+3, 2.2420937e+2, -621053.4, -658375.4, -18941.45, -0.13829397, -0.39515024, -613124.7, 129583.57, 0.0, 10.000666, 10.000192 
1.5950899e+3, 2.3420839e+2, -602224.3, -571947.75, 32739.914, -0.11423951, -0.5557188, -551015.7, 93695.97, 0.0, 10.000007, 10.000431 
1.5951131e+3, 2.4420777e+2, -637201.75, -782528.2, -15810.074, -0.09827039, -0.5473079, -635501.6, -88784.69, 0.0, 10.000168, 9.998212 
1.595136e+3, 2.5420767e+2, -347066.0, -598214.75, -63534.074, -0.078719094, -0.3976376, -331908.38, 116816.24, 0.00000009760233, 10.001515, 9.998153 
1.5951595e+3, 2.6420626e+2, -211391.22, -525285.06, -100354.29, 0.030794598, -0.32150427, -182049.88, 168691.83, 0.0000054247644, 10.0019455, 9.9977865 
1.595184e+3, 2.7420342e+2, -223601.19, -469202.88, -84236.69, 0.25446653, -0.4219865, -197486.39, 55282.87, 0.00006233866, 10.001145, 9.99788 
1.595207e+3, 2.8420112e+2, -150478.69, -481384.97, -87060.766, 0.2891847, -0.38674688, -128971.09, 25820.695, 0.0003236723, 10.00139, 9.997011 
1.5952273e+3, 2.9419938e+2, 195582.88, -251716.92, -76483.43, 0.044117566, -0.30022517, 208299.2, 265108.7, 0.0010474791, 10.003033, 9.997125 
1.5952507e+3, 3.0419472e+2, 377133.38, -159872.72, 46094.094, -0.08843204, -0.45346734, 381061.16, 381061.16, 0.0023494298, 10.004056, 9.99694 
1.5952796e+3, 3.141909e+2, 417757.8, -72746.695, 13364.461, 0.15189672, -0.5680573, 418121.7, 418121.7, 0.004074849, 10.004034, 9.997539 
1.60484e+3, 1.2418125e+2, -1919790.9, -1583995.5, -99213.84, 0.003124933, -0.37743866, -1556872.6, 166116.02, 0.027939666, 9.997547, 10.002093 
1.6048622e+3, 1.3418186e+2, -1889686.3, -1582941.8, -29464.648, -0.004203755, -0.48174757, -1580137.1, 44838.94, 0.01712635, 9.997409, 10.001468 
1.604882e+3, 1.441825e+2, -1807022.0, -1595332.3, -40917.387, -0.24963757, -0.5127229, -1587698.6, -60731.145, 0.007836914, 9.997748, 10.000536 
1.604906e+3, 1.5418482e+2, -1485734.9, -1392772.8, -17700.605, -0.078870304, -0.3577498, -1389516.5, 39431.727, 0.0022287087, 9.999287, 10.000515 
1.6049296e+3, 1.6418622e+2, -1361472.3, -1273951.1, 72072.58, -0.0057486044, -0.25980768, -1233394.1, 97542.8, 0.00026665046, 9.999427, 10.000593 
1.6049537e+3, 1.7418647e+2, -1456040.5, -1248827.6, 93845.56, 0.030794151, -0.33059773, -1212643.9, 20292.014, 0.0000036433328, 9.998023, 10.000767 
1.6049771e+3, 1.8418685e+2, -1317664.0, -1092225.5, 13170.474, 0.06391512, -0.37601674, -1091458.6, 43471.46, 0.0, 9.998124, 10.001122 
1.6049989e+3, 1.941874e+2, -858911.9, -802914.44, -74922.37, 0.046418644, -0.46653515, -750930.1, 285987.9, 0.0, 10.000523, 10.001278 
1.6050212e+3, 2.041875e+2, -802213.3, -1002675.06, -37393.402, 0.0260864, -0.45937818, -795465.25, 143450.03, 0.0, 10.001439, 9.998798 
1.6050443e+3, 2.1418713e+2, -848681.75, -977041.06, 22939.293, 0.016053848, -0.3883392, -844705.4, -3782.324, 0.0, 10.000468, 9.998762 
1.6050674e+3, 2.2418624e+2, -692650.44, -694922.6, 69943.45, -0.025815757, -0.4060018, -623833.9, 119097.586, 0.0, 10.000194, 10.000156 
1.60509e+3, 2.3418482e+2, -462597.44, -502114.25, 15054.095, -0.12576471, -0.6102065, -457515.94, 187423.19, 0.0, 10.000973, 10.000426 
1.6051134e+3, 2.4418391e+2, -455873.5, -733247.1, -6367.968, -0.14969234, -0.613174, -455727.38, 91220.15, 0.0, 10.00156, 9.997897 
1.6051377e+3, 2.5418392e+2, -314934.63, -619731.75, 8372.855, -0.053646296, -0.41528913, -314704.78, 134250.75, 0.000000007673713, 10.001886, 9.997841 
1.605162e+3, 2.641826e+2, -144561.02, -500318.63, -306.0938, 0.0778795, -0.31405258, -144560.75, 206412.23, 0.0000049768487, 10.002445, 9.997714 
1.6051863e+3, 2.741797e+2, 84862.67, -330992.84, -30304.31, 0.25632772, -0.4099515, 87059.414, 340060.9, 0.00006447964, 10.003305, 9.997794 
1.6052094e+3, 2.8417727e+2, 169576.55, -348614.3, 5427.3325, 0.28897408, -0.3705952, 169633.38, 324659.06, 0.0003297949, 10.003671, 9.996828 
1.605231e+3, 2.9417548e+2, 246882.38, -243933.11, -14182.09, 0.099405415, -0.2695443, 247291.81, 304336.88, 0.001054947, 10.003462, 9.996968 
1.6052544e+3, 3.041707e+2, 275554.03, -148930.98, 105783.766, -0.045819875, -0.45674872, 300455.13, 300455.13, 0.0023614643, 10.003096, 9.997469 
1.6052827e+3, 3.141672e+2, 245482.83, -49398.99, 52171.344, 0.17069751, -0.5962609, 254441.0, 254441.0, 0.00409404, 10.002369, 9.998498 
1.6148365e+3, 1.2415925e+2, -1895850.1, -1567563.6, 8173.283, -0.15263832, -0.30320936, -1567360.3, 155846.92, 0.02978273, 9.997668, 10.002159 
1.6148603e+3, 1.3415945e+2, -1939876.4, -1682051.6, -37099.137, 0.04119647, -0.3898011, -1676819.5, -51618.87, 0.018308382, 9.997387, 10.000796 
1.6148807e+3, 1.4416033e+2, -1752298.9, -1494211.3, 2305.7908, -0.1908442, -0.38858756, -1494190.6, 32996.945, 0.008418617, 9.997793, 10.001212 
1.6149049e+3, 1.5415964e+2, -1427986.5, -1273608.4, 47896.535, -0.13241348, -0.6136796, -1259955.8, 169234.23, 0.0024150687, 9.999292, 10.00133 
1.6149284e+3, 1.6416074e+2, -1300403.4, -1175816.5, 13837.85, -0.08116897, -0.6196802, -1174298.0, 156878.23, 0.0002938315, 9.999534, 10.001222 
1.6149518e+3, 1.7416437e+2, -1414016.1, -1163672.1, 46545.387, 0.01390271, -0.41234237, -1155298.3, 77841.79, 0.000004294035, 9.998018, 10.001361 
1.6149746e+3, 1.8416546e+2, -1445129.9, -1358785.4, 83829.555, -0.011026781, -0.33213508, -1307664.3, -172534.05, 0.0, 9.9981365, 9.999284 
1.614997e+3, 1.9416313e+2, -1011778.0, -1109565.0, 24476.824, -0.20897827, -0.5084405, -1005993.5, 31162.89, 0.0, 10.000478, 9.999195 
1.6150203e+3, 2.0416218e+2, -708794.56, -790748.7, -76921.56, -0.2223757, -0.5597216, -662616.3, 276548.94, 0.0, 10.001361, 10.00029 
1.6150452e+3, 2.1416336e+2, -738456.25, -724149.75, -8248.89, 0.041336916, -0.5153951, -720384.56, 120763.625, 0.0, 10.000364, 10.000548 
1.615069e+3, 2.2416347e+2, -785300.75, -850715.2, 83038.73, 0.1196925, -0.4850539, -728760.06, 14384.54, 0.0, 10.000041, 9.999159 
1.6150919e+3, 2.3416227e+2, -570558.3, -692518.8, 54203.734, -0.062247925, -0.5422936, -549950.4, 95207.48, 0.0, 10.000832, 9.999186 
1.6151151e+3, 2.441612e+2, -436103.38, -664617.06, -3310.9524, -0.14664416, -0.5211922, -436055.4, 111114.89, 0.0, 10.001435, 9.99843 
1.6151392e+3, 2.541605e+2, -288080.9, -531584.4, 31166.61, -0.08988099, -0.46770105, -284155.1, 165024.61, 0.00000000987263, 10.001747, 9.998511 
1.6151635e+3, 2.64159e+2, -190707.31, -553845.06, 20715.188, -0.019978985, -0.40768197, -189529.44, 161667.33, 0.000004852571, 10.002266, 9.997432 
1.615188e+3, 2.7415654e+2, 36242.64, -390709.16, 16491.992, 0.0805714, -0.4218794, 36878.734, 290101.9, 0.000064250504, 10.003144, 9.997454 
1.615212e+3, 2.8415412e+2, 128811.984, -404395.06, -11176.062, 0.15824768, -0.35310414, 129046.13, 284296.38, 0.00032947832, 10.003538, 9.996511 
1.6152354e+3, 2.941516e+2, 204152.4, -302816.4, -3943.327, 0.16790792, -0.2993723, 204183.08, 261462.05, 0.0010456778, 10.003325, 9.9966345 
1.6152586e+3, 3.041476e+2, 299578.06, -49495.473, 68110.43, 0.04642618, -0.41985297, 312396.88, 312396.88, 0.002329441, 10.0029125, 9.998223 
1.6152848e+3, 3.1414714e+2, 306776.72, 164524.33, 68096.65, 0.10905614, -0.34845233, 334119.25, 334119.25, 0.0040265364, 10.002046, 10.000102 
1.6248332e+3, 1.2413634e+2, -2185159.5, -1769670.5, 129353.53, -0.15836751, -0.30114314, -1732690.4, -9262.583, 0.03179242, 9.99598, 10.001541 
1.624858e+3, 1.3413636e+2, -1908711.1, -1669786.4, -125.34983, 0.070443064, -0.4045309, -1669786.4, -44360.875, 0.019603958, 9.997606, 10.000772 
1.62488e+3, 1.441378e+2, -1732468.1, -1504111.5, 68679.33, -0.036163993, -0.33777818, -1485047.5, 42360.19, 0.009062119, 9.998016, 10.001039 
1.6249037e+3, 1.541364e+2, -1618447.1, -1375003.0, 30629.828, -0.11756806, -0.62073904, -1371208.4, 58206.992, 0.002624408, 9.998034, 10.001237 
1.624927e+3, 1.6413681e+2, -1477210.9, -1292965.8, -90577.03, -0.11368724, -0.6775124, -1255895.5, 75511.85, 0.00032476612, 9.998479, 10.000915 
1.6249506e+3, 1.7413956e+2, -1199227.4, -1093416.8, -152946.78, 0.012516424, -0.5258205, -984483.6, 248895.56, 0.000005034694, 9.999657, 10.0010395 
1.6249736e+3, 1.8414049e+2, -1194648.4, -1272014.0, -47927.305, -0.0055830297, -0.43023682, -1171740.8, -36368.855, 0.0, 10.000003, 9.998984 
1.6249965e+3, 1.9413915e+2, -1196737.1, -1219624.4, 16692.068, -0.22741778, -0.48047617, -1187942.6, -150552.08, 0.0, 9.999318, 9.998989 
1.6250204e+3, 2.0413844e+2, -988859.1, -885835.8, -60742.957, -0.2422681, -0.5154463, -857703.56, 81693.67, 0.0, 9.999275, 10.000637 
1.6250452e+3, 2.1413861e+2, -738194.6, -679440.4, -115743.74, 0.038064595, -0.6086143, -589403.8, 251982.98, 0.0, 10.000178, 10.000947 
1.6250697e+3, 2.2413856e+2, -693196.9, -868121.4, -28648.102, 0.13917294, -0.58908445, -688624.56, 54760.414, 0.0, 10.000924, 9.998619 
1.6250932e+3, 2.3413834e+2, -527879.75, -745346.5, -29772.645, -0.023761412, -0.48450515, -523877.34, 121516.17, 0.0, 10.001426, 9.998544 
1.6251169e+3, 2.441375e+2, -400977.03, -608672.7, -77403.38, -0.10267168, -0.4197167, -375303.97, 172100.69, 0.0, 10.001514, 9.998768 
1.6251408e+3, 2.5413585e+2, -351893.13, -518912.1, -89472.9, -0.08549565, -0.50109386, -313012.94, 136406.1, 0.000000011745934, 10.001108, 9.998908 
1.625165e+3, 2.641339e+2, -313193.53, -593318.3, -37666.47, -0.043494817, -0.51253986, -308217.2, 43220.7, 0.0000048598445, 10.001339, 9.997608 
1.6251904e+3, 2.7413186e+2, -49004.38, -415720.53, -25172.166, 0.039179664, -0.49983945, -47284.574, 206176.22, 0.00006262469, 10.0024805, 9.997603 
1.625215e+3, 2.8412983e+2, 103566.32, -370862.6, -23217.264, 0.12027494, -0.41838032, 104699.805, 260184.08, 0.0003255941, 10.003178, 9.996914 
1.6252384e+3, 2.941276e+2, 226656.55, -248654.3, -7028.292, 0.14857708, -0.37147722, 226760.45, 284270.53, 0.0010299269, 10.003288, 9.997026 
1.6252615e+3, 3.0412441e+2, 314853.03, -83538.95, 67186.055, 0.046472553, -0.41846618, 325878.38, 325878.38, 0.002274669, 10.003176, 9.997884 
1.6252877e+3, 3.1412432e+2, 411546.94, 191516.27, -57040.254, 0.17336611, -0.2606768, 425454.8, 425454.8, 0.0039006188, 10.002804, 9.999969 
1.6348298e+3, 1.2411234e+2, -2292327.8, -1981708.0, 193389.97, -0.12781437, -0.41436782, -1888983.9, -165331.88, 0.03398967, 9.995952, 10.00009 
1.634855e+3, 1.3411254e+2, -1871725.1, -1593123.4, 54195.92, 0.007367405, -0.5439544, -1582952.0, 42699.086, 0.02102759, 9.997613, 10.001295 
1.63488e+3, 1.4411487e+2, -1782620.8, -1635903.4, 49553.496, 0.12832136, -0.36948916, -1620735.0, -93106.984, 0.009775217, 9.998122, 10.000087 
1.6349019e+3, 1.5411541e+2, -1695077.3, -1527103.8, 37177.242, -0.121611334, -0.35892212, -1519243.3, -89621.625, 0.002860367, 9.998002, 10.000208 
1.634925e+3, 1.641147e+2, -1566441.5, -1484703.9, -58757.637, -0.18933864, -0.41177794, -1453999.5, -122371.74, 0.00036087315, 9.998499, 9.999594 
1.6349499e+3, 1.7411205e+2, -1297071.1, -1297308.9, -104713.9, -0.04132999, -0.66080433, -1192476.0, 41177.5, 0.000005927034, 9.999659, 9.999641 
1.634974e+3, 1.8411183e+2, -1090305.8, -1067425.5, -79750.91, 0.003621687, -0.66517776, -998298.3, 137357.28, 0.0, 10.000049, 10.00037 
1.6349976e+3, 1.9411536e+2, -1084662.3, -981229.56, -2757.1978, -0.08098149, -0.39466128, -981156.1, 56465.53, 0.0, 9.999288, 10.000646 
1.6350211e+3, 2.0411605e+2, -1053541.3, -999846.3, -40024.293, -0.11266022, -0.344892, -978499.06, -38885.973, 0.0, 9.99919, 9.999895 
1.6350445e+3, 2.1411279e+2, -823886.0, -835006.9, -70987.625, -0.064206205, -0.6819558, -758241.4, 83398.37, 0.0, 10.000075, 9.999931 
1.6350688e+3, 2.2411147e+2, -731744.75, -907421.7, -15357.266, -0.057422705, -0.7240316, -730412.4, 13240.666, 0.0, 10.00075, 9.998431 
1.6350941e+3, 2.341131e+2, -555255.06, -769597.7, -975.50793, -0.08672988, -0.42730582, -555250.6, 90394.51, 0.0, 10.001284, 9.998445 
1.6351187e+3, 2.4411282e+2, -421528.9, -610356.6, -98141.36, -0.10487854, -0.30675313, -379760.16, 167890.3, 0.0, 10.001341, 9.998839 
1.6351417e+3, 2.5410995e+2, -359371.25, -508834.06, -93767.56, -0.11758596, -0.51636523, -314197.97, 135475.27, 0.000000006263202, 10.001007, 9.9990225 
1.6351661e+3, 2.6410753e+2, -284249.8, -518576.9, -8325.346, -0.08050465, -0.6092989, -283954.4, 67740.01, 0.000005059976, 10.001262, 9.998166 
1.635193e+3, 2.7410588e+2, -23840.318, -335875.97, 34125.016, 0.035255406, -0.6243144, -20151.918, 233560.08, 0.000060713708, 10.002353, 9.998217 
1.6352178e+3, 2.8410447e+2, 142467.22, -249574.25, -25879.914, 0.067240454, -0.55462545, 144168.27, 299895.88, 0.0003182201, 10.003011, 9.997825 
1.63524e+3, 2.941034e+2, 268427.03, -123668.4, 12261.577, -0.04735746, -0.4820729, 268810.13, 326550.06, 0.0010069184, 10.003135, 9.997955 
1.6352631e+3, 3.041011e+2, 189367.78, -296880.03, 39820.246, -0.13360971, -0.42674854, 192607.19, 192607.19, 0.0022050568, 10.002981, 9.996506 
1.635291e+3, 3.140989e+2, 270895.88, -40011.53, -29719.984, 0.19715644, -0.33506063, 273711.34, 273711.34, 0.00374414, 10.00256, 9.998478 
1.6448277e+3, 1.2408755e+2, -2141036.3, -1973642.4, 131389.97, 0.018610481, -0.50750685, -1901555.9, -177669.19, 0.036383986, 9.997274, 9.999517 
1.6448519e+3, 1.3408813e+2, -1798971.3, -1560848.0, -30690.61, -0.085412756, -0.58994466, -1556956.0, 68928.62, 0.022584815, 9.9981165, 10.0012865 
1.6448788e+3, 1.4408948e+2, -1769857.1, -1661434.8, -47642.098, 0.1917263, -0.4991748, -1643475.1, -115602.12, 0.010560797, 9.998351, 9.999801 
1.6449001e+3, 1.5409061e+2, -1604070.4, -1521771.1, -25817.049, -0.11266338, -0.39735633, -1514342.9, -84480.9, 0.0031241647, 9.998776, 9.999876 
1.6449238e+3, 1.6409011e+2, -1510219.3, -1496492.5, -20980.467, -0.18401526, -0.39509445, -1481281.3, -149413.94, 0.0004029895, 9.999053, 9.999247 
1.6449495e+3, 1.7408732e+2, -1378658.9, -1376661.3, -3236.843, -0.00781626, -0.6223869, -1374272.6, -140376.13, 0.0000070009137, 9.999268, 9.9992895 
1.6449742e+3, 1.8408695e+2, -1175488.8, -1062490.0, 10217.728, 0.07538234, -0.6419428, -1061573.5, 74326.6, 0.0, 9.999279, 10.000763 
1.6449977e+3, 1.9409025e+2, -1064088.3, -920428.1, -28559.504, 0.027775897, -0.44175187, -914958.75, 122906.84, 0.0, 9.999215, 10.001092 
1.6450211e+3, 2.0409092e+2, -1044961.75, -1044439.25, -46821.22, -0.030930111, -0.39538056, -997878.56, -58021.8, 0.0, 9.999446, 9.999471 
1.6450442e+3, 2.1408819e+2, -850040.7, -897185.94, -52501.227, -0.10872289, -0.6353504, -816062.94, 25818.965, 0.0, 10.000117, 9.999474 
1.6450687e+3, 2.2408697e+2, -759929.9, -896203.0, 34608.516, -0.1341931, -0.65248543, -751644.3, -7749.613, 0.0, 10.000451, 9.99866 
1.6450949e+3, 2.3408799e+2, -677881.3, -796144.75, 58567.082, -0.07967382, -0.44557247, -653786.44, -7896.506, 0.0, 10.000303, 9.998742 
1.6451201e+3, 2.4408722e+2, -522055.34, -689737.5, -4988.8506, -0.05394296, -0.3758461, -521907.03, 25991.428, 0.0, 10.000791, 9.998558 
1.6451435e+3, 2.5408408e+2, -210514.86, -480969.06, -51350.652, -0.09580417, -0.57313854, -201093.22, 248831.44, 0.000000005166704, 10.002217, 9.998637 
1.6451682e+3, 2.640819e+2, -54141.965, -382367.88, 8281.906, -0.07614256, -0.6293041, -53933.13, 298011.06, 0.000005473011, 10.002737, 9.998382 
1.6451949e+3, 2.740811e+2, -38554.137, -312769.9, -7160.9395, 0.023340112, -0.5856384, -38367.26, 215586.84, 0.00005878461, 10.00213, 9.998474 
1.6452199e+3, 2.8407994e+2, 56489.99, -231274.14, -59018.805, 0.031361174, -0.5308674, 68124.055, 224091.27, 0.00030601537, 10.002176, 9.998347 
1.6452423e+3, 2.940786e+2, 277845.6, -59281.203, -76141.15, -0.10809842, -0.54200363, 294244.63, 352225.78, 0.0009737511, 10.002966, 9.998468 
1.6452658e+3, 3.0407682e+2, 306082.84, -286581.9, -5115.267, -0.17924032, -0.43948367, 306127.0, 306127.0, 0.0021281093, 10.003937, 9.996123 
1.6452947e+3, 3.1407422e+2, 576144.1, 37023.242, -48082.16, 0.20936237, -0.34460628, 580398.8, 580398.8, 0.0035924353, 10.00496, 9.997837 
1.6548261e+3, 1.2406149e+2, -2072369.1, -1861811.3, -6707.358, 0.06690426, -0.60679734, -1861597.8, -137461.19, 0.03897044, 9.997409, 10.000214 
1.6548479e+3, 1.3406354e+2, -1838167.6, -1632376.5, -6257.8545, -0.30576685, -0.50239444, -1632186.4, -6064.105, 0.024272982, 9.998076, 10.000807 
1.6548762e+3, 1.4406179e+2, -1742830.1, -1608967.5, -50417.277, 0.06207386, -0.7162474, -1592103.3, -63962.055, 0.0114189135, 9.998363, 10.000157 
1.6548985e+3, 1.5406202e+2, -1581855.8, -1475263.1, -2416.468, -0.1671084, -0.7344301, -1475208.4, -45072.305, 0.0034161112, 9.998777, 10.000196 
1.654923e+3, 1.6406311e+2, -1445660.9, -1387749.6, -23448.424, -0.19689791, -0.6215769, -1379446.0, -47320.453, 0.00045137366, 9.9991455, 9.999953 
1.6549495e+3, 1.740655e+2, -1323411.1, -1259813.9, 10917.391, 0.04319241, -0.41122213, -1257992.0, -23885.125, 0.000008273259, 9.999256, 10.000097 
1.6549744e+3, 1.8406597e+2, -1218638.1, -1161143.1, 1975.7203, 0.13753526, -0.36303377, -1161075.4, -24971.22, 0.0, 9.999309, 10.000076 
1.6549972e+3, 1.940638e+2, -1129559.5, -1052559.1, -24892.27, 0.027123524, -0.6206384, -1045213.0, -7090.3823, 0.0, 9.999187, 10.000205 
1.6550203e+3, 2.0406315e+2, -1061846.8, -1059471.3, -31807.844, -0.08292371, -0.6564268, -1028829.0, -88700.97, 0.0, 9.999364, 9.999404 
1.6550438e+3, 2.140648e+2, -863299.1, -899992.06, -20137.225, -0.17027688, -0.46015576, -854404.06, -12290.794, 0.0, 10.000009, 9.999507 
1.6550685e+3, 2.2406492e+2, -732475.56, -810363.3, 21199.594, -0.18129617, -0.37848797, -727079.3, 17032.723, 0.0, 10.000325, 9.9993105 
1.6550954e+3, 2.3406288e+2, -647787.9, -705619.44, 63450.582, -0.07927792, -0.54265916, -606974.94, 39154.22, 0.0, 10.00018, 9.999427 
1.6551211e+3, 2.440606e+2, -591986.4, -800129.9, 37950.535, -0.04513248, -0.6289788, -585282.8, -37132.85, 0.0, 10.00064, 9.997871 
1.6551457e+3, 2.5405827e+2, -290352.44, -608318.8, 14401.955, -0.09244686, -0.6713723, -289701.44, 160472.14, 0.00000000856411, 10.002065, 9.997828 
1.6551708e+3, 2.64057e+2, -92346.71, -434402.16, -16706.703, -0.10553333, -0.5769067, -91532.664, 260655.45, 0.0000057188686, 10.002608, 9.998092 
1.6551961e+3, 2.7405733e+2, -64628.297, -343717.97, -16038.256, -0.07314552, -0.398244, -63709.664, 190479.84, 0.00005715205, 10.002025, 9.998314 
1.6552211e+3, 2.840561e+2, 46116.867, -220583.63, -43720.16, -0.078547016, -0.3516608, 53101.01, 209305.28, 0.00029400203, 10.00203, 9.998495 
1.6552451e+3, 2.9405284e+2, 271440.78, -44813.67, -28700.861, -0.14361487, -0.57369643, 274024.34, 332259.72, 0.0009429052, 10.002835, 9.998633 
1.6552697e+3, 3.0405128e+2, 290798.47, -247629.38, 20861.398, -0.207786, -0.47668678, 291605.53, 291605.53, 0.0020703655, 10.003657, 9.996517 
1.6552988e+3, 3.140498e+2, 525757.06, 6573.392, 43122.746, 0.0656336, -0.31177384, 529314.4, 529314.4, 0.003493175, 10.00464, 9.997783 
1.6648231e+3, 1.24034934e+2, -2322419.0, -1909023.0, -130075.875, 0.14617452, -0.6568881, -1871500.3, -147103.36, 0.041736465, 9.995352, 10.000897 
1.6648452e+3, 1.3403742e+2, -1993196.4, -1752191.0, -42250.53, -0.32593971, -0.47498658, -1744998.8, -118619.195, 0.026087236, 9.997186, 10.0004225 
1.6648737e+3, 1.4403568e+2, -1724734.3, -1543235.8, -92732.08, 0.0041661886, -0.6869627, -1504236.6, 24161.346, 0.012349877, 9.998252, 10.000656 
1.6648975e+3, 1.5403594e+2, -1595545.4, -1409681.1, -42041.03, -0.12785797, -0.7642539, -1400614.1, 29775.848, 0.003737191, 9.998387, 10.000825 
1.6649222e+3, 1.6403744e+2, -1550161.8, -1393588.6, -56567.82, -0.13574739, -0.66291934, -1375290.0, -42915.785, 0.00050616945, 9.9982605, 10.000328 
1.6649479e+3, 1.7404054e+2, -1481224.6, -1299268.4, -77720.484, 0.032164924, -0.4144683, -1270590.8, -36241.94, 0.000009797576, 9.998011, 10.000426 
1.6649728e+3, 1.8404105e+2, -1411321.8, -1287989.1, -58107.848, 0.11116136, -0.3638214, -1264925.0, -128578.83, 0.0, 9.998142, 9.999761 
1.6649963e+3, 1.9403817e+2, -1159350.5, -1100576.1, -61607.414, 0.037740782, -0.65949917, -1061705.9, -23333.424, 0.0, 9.999154, 9.999872 
1.6650203e+3, 2.0403737e+2, -962590.3, -992859.2, -17545.465, -0.0332683, -0.7004554, -954553.75, -14174.359, 0.0, 9.999965, 9.999572 
1.6650449e+3, 2.1403974e+2, -776880.7, -832493.9, -5061.786, -0.08576885, -0.4529038, -776423.75, 65933.26, 0.0, 10.000493, 9.999738 
1.6650702e+3, 2.2403984e+2, -668925.3, -810197.9, 10614.778, -0.082257494, -0.37155327, -668132.25, 76223.266, 0.0, 10.000899, 9.999025 
1.6650967e+3, 2.3403677e+2, -527160.06, -680806.2, -47393.44, -0.008323368, -0.60894626, -513717.3, 132665.63, 0.0, 10.001159, 9.999108 
1.6651225e+3, 2.4403435e+2, -475975.25, -720000.5, -45708.414, 0.005678672, -0.70391834, -467694.6, 80710.78, 0.0, 10.001313, 9.998113 
1.6651475e+3, 2.54033e+2, -372688.9, -612461.25, -774.68695, -0.0663519, -0.67388666, -372686.4, 77732.85, 0.0000000057748837, 10.001335, 9.99816 
1.6651729e+3, 2.64032e+2, -259902.3, -541293.2, 12420.02, -0.095963255, -0.5591742, -259355.16, 93076.29, 0.0000055479773, 10.001584, 9.997847 
1.6651982e+3, 2.7403155e+2, -57225.938, -385927.8, -21709.248, -0.08134228, -0.42537078, -55798.344, 198643.02, 0.000055344583, 10.0022545, 9.997926 
1.6652234e+3, 2.8402987e+2, 94551.75, -240234.55, -45178.85, -0.068433516, -0.38023892, 100541.41, 257002.84, 0.00028408016, 10.002543, 9.998109 
1.6652481e+3, 2.9402706e+2, 160988.92, -139744.8, -107814.81, -0.08119053, -0.51540625, 195647.0, 254137.36, 0.00092112675, 10.002275, 9.998242 
1.6652736e+3, 3.0402556e+2, 256973.05, -188230.7, 4458.45, -0.14678018, -0.42291924, 257017.69, 257017.69, 0.0020421273, 10.003099, 9.997192 
1.6653031e+3, 3.1402344e+2, 609927.94, 91976.95, 2957.1023, 0.031465806, -0.3940727, 609944.8, 609944.8, 0.003463114, 10.005055, 9.998164 
1.6748177e+3, 1.2400904e+2, -2269815.0, -1788846.9, -181366.81, 0.019930651, -0.5384423, -1728122.5, -3466.0496, 0.044670317, 9.995305, 10.001742 
1.6748437e+3, 1.3400978e+2, -2022797.3, -1806933.6, 34758.16, -0.20870213, -0.5026202, -1801474.9, -174818.94, 0.028026333, 9.99716, 10.00006 
1.6748714e+3, 1.4401126e+2, -1662462.0, -1426947.1, -91737.06, -0.06705029, -0.41038162, -1395431.4, 133210.95, 0.013357116, 9.998298, 10.001442 
1.6748968e+3, 1.5401256e+2, -1536192.4, -1284631.8, -28410.027, -0.06756628, -0.47400162, -1281463.3, 149158.72, 0.004090086, 9.998367, 10.001702 
1.6749212e+3, 1.6401307e+2, -1545893.0, -1393710.3, -75230.66, -0.090373136, -0.51822126, -1362799.0, -30185.623, 0.0005678562, 9.998296, 10.000313 
1.6749446e+3, 1.7401247e+2, -1498635.4, -1325725.3, -82435.414, -0.109134495, -0.6258281, -1292723.0, -58100.836, 0.000011659807, 9.9979725, 10.000264 
1.674969e+3, 1.8401234e+2, -1397865.0, -1269910.5, -35103.8, -0.09263129, -0.63381577, -1260912.6, -124287.66, 0.0, 9.998173, 9.999878 
1.6749951e+3, 1.9401322e+2, -1155041.0, -1084401.8, -17101.473, -0.021278346, -0.56521904, -1080479.3, -41863.074, 0.0, 9.999115, 10.00001 
1.675021e+3, 2.040135e+2, -937324.8, -928329.94, -5670.1353, 0.035327956, -0.52773327, -925590.1, 15021.803, 0.0, 9.999911, 10.000041 
1.675047e+3, 2.1401297e+2, -763045.44, -778648.2, 21627.322, 0.07050677, -0.61835396, -747855.44, 94758.28, 0.0, 10.000375, 10.000169 
1.6750728e+3, 2.2401173e+2, -781040.9, -1000574.75, 13804.18, 0.07689956, -0.63924557, -780176.25, -35550.4, 0.0, 10.000718, 9.997803 
1.6750987e+3, 2.3400968e+2, -644490.94, -895599.1, -29440.541, 0.05733137, -0.635022, -641085.44, 5565.611, 0.0, 10.001035, 9.997694 
1.675124e+3, 2.4400836e+2, -414450.97, -561981.94, -54417.906, 0.008073123, -0.5934394, -396550.44, 152114.89, 0.0, 10.001181, 9.999261 
1.6751488e+3, 2.5400832e+2, -293635.84, -413936.8, 8522.242, -0.09250634, -0.57600504, -293035.13, 157626.61, 0.0000000017385277, 10.001189, 9.999591 
1.6751742e+3, 2.6400697e+2, -301133.5, -593868.94, 25162.787, -0.1390049, -0.5656352, -298986.3, 53687.81, 0.0000048816705, 10.001431, 9.997564 
1.6752005e+3, 2.740037e+2, -107300.664, -466615.13, 19008.838, -0.09131253, -0.6618545, -106297.84, 148412.34, 0.000051549574, 10.002148, 9.997427 
1.6752264e+3, 2.840014e+2, -1689.6042, -407267.1, -59618.21, -0.047746666, -0.6017259, 6892.4297, 163630.53, 0.0002709475, 10.002399, 9.997035 
1.6752513e+3, 2.9400107e+2, 83714.375, -290066.88, -94627.125, -0.027338225, -0.38228577, 106305.01, 165053.1, 0.00089568296, 10.002212, 9.99725 
1.675277e+3, 3.0399948e+2, 279520.03, -85973.695, 63801.973, -0.119656034, -0.29115522, 290337.4, 290337.4, 0.002017622, 10.002877, 9.997995 
1.675307e+3, 3.139947e+2, 615449.6, 169021.72, 104980.46, -0.114591755, -0.6186691, 638904.25, 638904.25, 0.0034630077, 10.004783, 9.998819 
1.684813e+3, 1.2398165e+2, -1931160.5, -1593943.9, -196754.61, -0.053788826, -0.47117642, -1503436.1, 221493.02, 0.04776628, 9.997489, 10.002074 
1.6848423e+3, 1.3398208e+2, -2001387.4, -1726953.9, 50987.047, -0.060336106, -0.5264377, -1717787.1, -90858.54, 0.030093629, 9.997039, 10.0006485 
1.6848691e+3, 1.4398497e+2, -1840690.9, -1522319.5, -61877.84, -0.066680856, -0.32189628, -1510716.0, 18184.104, 0.0144471, 9.997114, 10.001349 
1.684895e+3, 1.539856e+2, -1632931.3, -1348249.3, -106323.84, -0.03528017, -0.43487048, -1312922.8, 117964.94, 0.004479329, 9.997777, 10.00155 
1.6849197e+3, 1.6398562e+2, -1556515.0, -1397439.5, -184920.89, -0.059452537, -0.5187793, -1275676.5, 57208.453, 0.0006375465, 9.998224, 10.000322 
1.6849428e+3, 1.7398487e+2, -1378008.5, -1253583.5, -189916.31, -0.11915657, -0.65028673, -1115949.6, 118945.12, 0.00001399049, 9.998756, 10.00037 
1.6849676e+3, 1.8398517e+2, -1204143.8, -1118479.5, -84626.73, -0.09574477, -0.6451303, -1066462.9, 70429.766, 0.0, 9.999259, 10.00039 
1.684995e+3, 1.9398719e+2, -1010084.0, -957123.75, -45892.316, 0.021165192, -0.51411605, -930619.9, 108251.9, 0.0, 9.999845, 10.000541 
1.6850217e+3, 2.0398761e+2, -925528.3, -946815.3, -49698.75, 0.10069631, -0.48224133, -885346.1, 55520.01, 0.0, 10.000093, 9.99983 
1.6850476e+3, 2.1398595e+2, -856154.3, -850533.3, -100880.88, 0.124494575, -0.6569404, -752423.8, 90456.11, 0.0, 9.999863, 9.999918 
1.6850737e+3, 2.2398451e+2, -842319.06, -1013693.75, -51101.348, 0.11699183, -0.68983924, -828238.4, -83343.914, 0.0, 10.000215, 9.99797 
1.6850998e+3, 2.3398356e+2, -579389.9, -840245.0, 13264.332, 0.06224596, -0.5942841, -578717.1, 68191.38, 0.0, 10.001372, 9.997923 
1.6851255e+3, 2.4398282e+2, -342716.53, -547869.94, -11751.773, 0.013713901, -0.50043195, -342045.53, 206872.55, 0.0, 10.001764, 9.999066 
1.6851503e+3, 2.5398242e+2, -328525.75, -466015.44, -96311.97, -0.045498516, -0.49368003, -278941.2, 171979.16, 0.0000000018399801, 10.001078, 9.999293 
1.685176e+3, 2.6398078e+2, -326509.38, -560144.94, -61256.67, -0.07218717, -0.51348, -311422.75, 41512.66, 0.0000039092515, 10.001066, 9.99797 
1.685203e+3, 2.7397746e+2, -61725.887, -380569.22, -19512.287, -0.0519274, -0.6675358, -60536.23, 194431.73, 0.000046409757, 10.002219, 9.997966 
1.6852295e+3, 2.8397503e+2, 104867.93, -382529.94, -31430.902, -0.004061768, -0.6339946, 106886.46, 263880.53, 0.00025641202, 10.003241, 9.996805 
1.6852552e+3, 2.939746e+2, 334385.63, -198135.31, -39622.82, 0.059948973, -0.3940498, 337317.66, 396323.0, 0.00086490717, 10.004061, 9.996993 
1.6852814e+3, 3.0397254e+2, 472087.88, -37062.832, 145801.58, -0.044043243, -0.32032338, 510883.8, 510883.8, 0.00198046, 10.004362, 9.997636 
1.6853112e+3, 3.1396827e+2, 397604.0, -14143.5, 40565.902, -0.10365033, -0.5409551, 401562.53, 401562.53, 0.0034473017, 10.003558, 9.998188 
1.6948095e+3, 1.2395149e+2, -1938050.0, -1637000.9, -149039.95, -0.21687612, -0.60438305, -1575698.8, 149528.05, 0.051028147, 9.997601, 10.001717 
1.6948405e+3, 1.3395426e+2, -1906359.0, -1519129.3, 41375.56, 0.036836244, -0.56177753, -1514757.5, 112439.695, 0.032295942, 9.996972, 10.002134 
1.6948663e+3, 1.439567e+2, -1909321.4, -1667615.3, -44353.37, -0.08517154, -0.43996602, -1659733.4, -130561.734, 0.015627254, 9.997118, 10.000354 
1.6948922e+3, 1.539552e+2, -1725961.3, -1542879.1, -74451.85, -0.11257583, -0.6373416, -1516425.0, -85238.586, 0.004910431, 9.997781, 10.000214 
1.6949174e+3, 1.639551e+2, -1538176.5, -1371977.8, -177786.17, -0.13544422, -0.6630692, -1258828.8, 74359.93, 0.0007170378, 9.998273, 10.000476 
1.6949423e+3, 1.7395777e+2, -1356734.0, -1208880.1, -164134.8, -0.06595522, -0.48312077, -1102792.0, 132374.38, 0.000016975888, 9.998748, 10.000685 
1.6949682e+3, 1.8395954e+2, -1135797.4, -986201.94, -73309.83, 0.017538175, -0.38922828, -956266.56, 180882.78, 0.0, 9.999293, 10.001284 
1.6949956e+3, 1.9396006e+2, -952873.44, -824861.8, -19491.826, 0.08535239, -0.5058176, -821959.7, 217179.92, 0.0, 9.999784, 10.001478 
1.6950217e+3, 2.039598e+2, -1004428.6, -1083839.3, -66136.375, 0.08457119, -0.55223894, -966994.25, -25853.486, 0.0, 9.999979, 9.998944 
1.6950464e+3, 2.1395871e+2, -946491.7, -1017475.06, -101455.92, 0.001909419, -0.5620152, -874498.7, -31343.543, 0.0, 9.999768, 9.99882 
1.6950722e+3, 2.2395815e+2, -749504.75, -791796.06, -21742.879, -0.054055415, -0.51858985, -740320.7, 4840.814, 0.0, 10.000091, 9.99955 
1.6950999e+3, 2.3395842e+2, -475098.5, -583266.2, 68026.79, -0.07018462, -0.48853365, -442276.03, 204879.6, 0.0, 10.001198, 9.999772 
1.6951266e+3, 2.4395756e+2, -480577.9, -783386.25, -39228.05, -0.060692556, -0.43882707, -475578.53, 73586.555, 0.0, 10.001545, 9.997559 
1.6951519e+3, 2.5395533e+2, -478993.28, -749223.94, -111959.6, 0.0015870853, -0.4257739, -438634.66, 12560.005, 0.0000000033657745, 10.000956, 9.997408 
1.695178e+3, 2.6395348e+2, -277169.28, -429321.56, -32625.578, 0.007818545, -0.4038356, -270468.56, 82745.8, 0.0000030031388, 10.00094, 9.99893 
1.6952053e+3, 2.7395242e+2, 8933.727, -199874.94, 35516.582, -0.05024699, -0.46361473, 14809.456, 270026.78, 0.000041455987, 10.002075, 9.999276 
1.6952327e+3, 2.8395042e+2, 112876.44, -321997.53, -14414.313, -0.031148855, -0.48802254, 113353.69, 270586.75, 0.0002433747, 10.003049, 9.997316 
1.6952597e+3, 2.939473e+2, 340614.72, -148989.47, 2487.552, 0.08377353, -0.55531776, 340627.34, 399893.4, 0.0008324831, 10.003896, 9.997416 
1.695286e+3, 3.0394438e+2, 324914.13, -269513.44, 111825.29, -0.031641558, -0.52476144, 345254.94, 345254.94, 0.0019236389, 10.004065, 9.996174 
1.6953148e+3, 3.139443e+2, 241419.67, -249437.8, 41403.348, -0.12087053, -0.16584489, 244887.5, 244887.5, 0.0033805245, 10.003199, 9.996728 
1.7048074e+3, 1.2392387e+2, -1982951.9, -1741563.6, -2484.462, -0.17377083, -0.5760029, -1741538.1, -16038.172, 0.054460447, 9.997645, 10.000947 
1.7048381e+3, 1.3392636e+2, -1694458.4, -1450993.0, -15608.863, 0.045191377, -0.5288748, -1449996.4, 177476.73, 0.034638863, 9.99854, 10.001877 
1.704864e+3, 1.4392792e+2, -1665853.0, -1532254.8, -118174.414, -0.09172347, -0.48772082, -1463306.6, 66149.82, 0.016903277, 9.998745, 10.000497 
1.7048901e+3, 1.5392727e+2, -1657305.6, -1487957.6, -63807.945, -0.09765872, -0.6158142, -1466607.4, -35144.227, 0.00538814, 9.998177, 10.000392 
1.7049158e+3, 1.6392766e+2, -1542396.1, -1328708.4, -58731.625, -0.09784016, -0.6235961, -1313630.1, 19830.016, 0.0008082668, 9.998033, 10.000892 
1.7049414e+3, 1.7393042e+2, -1325575.9, -1143235.6, -44129.34, -0.020509463, -0.47819042, -1133117.0, 102317.49, 0.000020835996, 9.99873, 10.001154 
1.7049679e+3, 1.8393229e+2, -1190603.9, -1023688.44, 19289.387, 0.06924558, -0.39384106, -1021488.3, 115927.52, 0.0, 9.998969, 10.001187 
1.7049952e+3, 1.9393288e+2, -1121114.3, -924044.56, -28407.896, 0.13912384, -0.48602334, -920031.25, 119376.125, 0.0, 9.998709, 10.001321 
1.7050214e+3, 2.0393278e+2, -1121674.3, -1141108.9, -54756.426, 0.11660599, -0.5087966, -1075779.6, -134371.05, 0.0, 9.999191, 9.998919 
1.7050461e+3, 2.1393198e+2, -784235.4, -944310.44, -26770.617, -0.041711934, -0.4860453, -779876.94, 63543.535, 0.0, 10.000912, 9.998766 
1.7050724e+3, 2.239314e+2, -533741.56, -691921.3, 32487.014, -0.111439295, -0.4405273, -527329.3, 218098.2, 0.0, 10.001589, 9.999513 
1.705101e+3, 2.3393123e+2, -552510.7, -621093.0, -41618.145, -0.048687678, -0.45005107, -532876.4, 114549.55, 0.0, 10.000675, 9.999757 
1.7051284e+3, 2.4393016e+2, -655732.8, -908369.4, -164317.92, 0.030592216, -0.40482494, -574791.1, -25352.889, 0.0, 10.000519, 9.997196 
1.7051543e+3, 2.539279e+2, -422242.3, -761234.94, -149453.66, 0.11650927, -0.3565967, -365762.1, 85707.39, 0.0000000026261497, 10.001531, 9.997042 
1.7051804e+3, 2.6392585e+2, -116086.56, -344807.13, -13793.934, 0.10741311, -0.33755007, -115257.664, 238233.42, 0.0000021613648, 10.002017, 9.998991 
1.7052072e+3, 2.7392438e+2, -30953.227, -211453.75, -50210.04, -0.043560576, -0.44178683, -17926.396, 237569.53, 0.000036656253, 10.001759, 9.999354 
1.7052348e+3, 2.839225e+2, -21563.68, -357584.3, -112774.836, -0.053199686, -0.46970373, 12776.268, 170285.36, 0.00022920681, 10.002009, 9.997566 
1.7052633e+3, 2.9391995e+2, 234243.77, -175371.64, -133162.06, 0.104406476, -0.4989124, 273727.53, 333262.3, 0.00079222047, 10.003061, 9.997636 
1.7052901e+3, 3.0391678e+2, 238598.84, -310125.1, -20445.893, 0.017663825, -0.50523657, 239359.63, 239359.63, 0.0018352459, 10.0034485, 9.996191 
1.7053193e+3, 3.139158e+2, 185964.83, -251593.22, -36560.934, 0.05085178, -0.23798566, 188998.7, 188998.7, 0.0032403683, 10.002701, 9.996941 
1.7148072e+3, 1.2389905e+2, -2070376.8, -1902280.6, 30298.652, -0.020889265, -0.37676555, -1896986.1, -171240.38, 0.058051143, 9.997573, 9.999868 
1.714835e+3, 1.3389899e+2, -1849248.5, -1755367.9, 26796.152, -0.12792952, -0.38021988, -1748257.9, -120507.234, 0.037118543, 9.998514, 9.999749 
1.714862e+3, 1.4389884e+2, -1560518.1, -1348661.1, -143327.05, -0.1870493, -0.4430884, -1276366.5, 253385.77, 0.018276531, 9.998863, 10.001732 
1.7148888e+3, 1.5390176e+2, -1540847.8, -1248909.1, -77296.41, -0.07373426, -0.3790542, -1229706.5, 202012.36, 0.005915651, 9.998172, 10.002048 
1.7149147e+3, 1.6390334e+2, -1489230.1, -1217899.3, -48440.688, -0.027494265, -0.39494362, -1209510.5, 124187.914, 0.0009130136, 9.998036, 10.001646 
1.7149398e+3, 1.73903e+2, -1288679.9, -1054923.0, -10766.064, -0.05892068, -0.62460136, -1054428.1, 181268.94, 0.000025810483, 9.998689, 10.001772 
1.714966e+3, 1.8390357e+2, -1266815.1, -1186772.9, 4568.506, -0.025970189, -0.65465784, -1186512.9, -48822.105, 0.0, 9.998979, 10.000068 
1.7149937e+3, 1.9390574e+2, -1214894.4, -1113748.1, -29915.57, 0.1040953, -0.4614158, -1105562.6, -65888.06, 0.0, 9.998682, 10.000033 
1.7150207e+3, 2.039066e+2, -1077337.9, -1038998.1, -5036.6826, 0.103936836, -0.3488598, -1038347.5, -96678.64, 0.0, 9.999142, 9.999647 
1.7150468e+3, 2.1390562e+2, -735029.44, -811786.9, 47154.273, -0.0833148, -0.44157073, -712609.7, 131067.88, 0.0, 10.000773, 9.999746 
1.7150739e+3, 2.2390412e+2, -675789.56, -942081.06, 925.6426, -0.1307747, -0.4711609, -675786.4, 69907.47, 0.0, 10.001392, 9.997892 
1.7151026e+3, 2.3390213e+2, -703719.94, -909898.44, -64722.547, 0.043214362, -0.47084028, -685086.5, -37368.168, 0.0, 10.00056, 9.997834 
1.7151305e+3, 2.4390064e+2, -628337.25, -815941.25, -139896.23, 0.17176686, -0.3925646, -553706.0, -3969.0652, 0.0, 10.00037, 9.997899 
1.715157e+3, 2.538999e+2, -369381.25, -624067.94, -97686.055, 0.22168474, -0.29046926, -336228.8, 115517.38, 0.0000000000058928205, 10.0014105, 9.998041 
1.7151828e+3, 2.6389766e+2, -194181.47, -470933.28, -27321.875, 0.14022587, -0.3140712, -191509.95, 162257.53, 0.0000014626683, 10.001868, 9.998196 
1.7152084e+3, 2.7389348e+2, -122173.09, -363776.0, -46542.098, -0.114149794, -0.58847994, -113517.38, 142285.25, 0.000032258973, 10.001605, 9.99838 
1.7152359e+3, 2.838914e+2, -55685.145, -388409.22, -83768.21, -0.16862068, -0.57330763, -35785.426, 122034.71, 0.00021422045, 10.001828, 9.997447 
1.7152657e+3, 2.9389256e+2, 211235.08, -184106.44, -69028.875, 0.022504466, -0.24380246, 222941.28, 282752.8, 0.00074489583, 10.002886, 9.997661 
1.7152935e+3, 3.0388963e+2, 269863.38, -169657.84, -51639.586, -0.004355404, -0.27441674, 275849.03, 275849.03, 0.0017239766, 10.00315, 9.9972925 
1.7153242e+3, 3.138827e+2, 256201.33, -5786.0815, -24266.547, 0.23186757, -0.7273573, 258430.05, 258430.05, 0.0030507322, 10.002317, 9.998799 
1.7248055e+3, 1.2387248e+2, -1949138.1, -1823557.3, 7878.15, 0.04745328, -0.314993, -1823064.9, -97056.18, 0.06177432, 9.998301, 10.000061 
1.7248335e+3, 1.3387239e+2, -1902255.1, -1768232.6, 176193.0, -0.10872482, -0.34156215, -1646738.0, -18725.768, 0.039721623, 9.998088, 9.999861 
1.7248613e+3, 1.4387214e+2, -1711364.0, -1415203.3, 52371.594, -0.105554305, -0.4271778, -1406214.9, 123799.01, 0.019743169, 9.99779, 10.001781 
1.7248867e+3, 1.5387484e+2, -1629907.9, -1280072.1, -21297.346, -0.051486243, -0.39304006, -1278780.4, 153201.56, 0.006494274, 9.997486, 10.002173 
1.7249124e+3, 1.6387652e+2, -1547378.9, -1240916.5, -17163.459, -0.04350371, -0.40719676, -1239958.3, 94001.73, 0.001032908, 9.9976225, 10.001688 
1.7249382e+3, 1.7387632e+2, -1295138.5, -1056578.6, -40871.37, -0.094330646, -0.6282201, -1049770.6, 186185.92, 0.00003215152, 9.998632, 10.001791 
1.7249648e+3, 1.8387653e+2, -1226685.6, -1228811.0, -31499.068, -0.06679428, -0.6705709, -1196231.3, -58277.434, 0.0, 9.999531, 9.999505 
1.7249928e+3, 1.9387783e+2, -983171.94, -1071090.3, -38618.293, 0.049836554, -0.49806607, -968618.0, 71329.6, 0.0, 10.000583, 9.999401 
1.7250204e+3, 2.0387828e+2, -821293.9, -925848.25, 3292.5579, 0.06704976, -0.3873748, -821190.25, 120756.57, 0.0, 10.000939, 9.999565 
1.7250474e+3, 2.1387757e+2, -805624.8, -846432.5, -33942.355, -0.068129644, -0.44899204, -786425.6, 57527.336, 0.0, 10.000295, 9.999742 
1.7250752e+3, 2.2387631e+2, -852606.25, -1036794.25, -68353.83, -0.07694388, -0.4470554, -830011.3, -84043.766, 0.0, 10.000237, 9.997789 
1.725104e+3, 2.3387456e+2, -627186.0, -886266.7, -25253.615, 0.10164648, -0.41102323, -624747.4, 23244.598, 0.0, 10.00116, 9.997698 
1.725132e+3, 2.4387302e+2, -360529.25, -630823.75, 8776.184, 0.21884783, -0.35432246, -360244.6, 189765.78, 0.0, 10.001969, 9.998395 
1.7251588e+3, 2.5387183e+2, -161470.77, -455705.2, 6741.5225, 0.21870774, -0.35503528, -161316.39, 290702.56, 0.0000000000049057277, 10.002557, 9.998635 
1.725185e+3, 2.6386967e+2, -112830.3, -493651.34, 44588.215, 0.13461587, -0.37938067, -107679.38, 246359.13, 0.0000011502509, 10.002689, 9.997646 
1.7252108e+3, 2.7386627e+2, -104488.98, -436366.5, 19234.324, -0.05135221, -0.505874, -103377.95, 152693.55, 0.000029351942, 10.002064, 9.997664 
1.7252383e+3, 2.8386417e+2, -59003.496, -383536.38, 57090.516, -0.09223672, -0.46256158, -49253.297, 108838.87, 0.0002033291, 10.001786, 9.997492 
1.7252678e+3, 2.9386377e+2, 99866.89, -227149.63, 47591.082, 0.00131682, -0.29526716, 106652.086, 166747.6, 0.00070474244, 10.0020895, 9.997736 
1.725296e+3, 3.0386075e+2, 219831.81, -187226.67, 48405.457, -0.04174585, -0.34042427, 225508.78, 225508.78, 0.0016267578, 10.002752, 9.997381 
1.7253284e+3, 3.138549e+2, 497810.4, 127500.26, -43181.625, 0.35448268, -0.69362915, 502779.13, 502779.13, 0.002882315, 10.003851, 9.999019 
1.7348017e+3, 1.23844735e+2, -1831532.8, -1597859.4, -119357.78, -0.2215786, -0.33899188, -1547671.9, 178611.56, 0.06561491, 9.998358, 10.00165 
1.734833e+3, 1.3384652e+2, -1742412.6, -1424479.9, 170787.75, 0.020281726, -0.43349576, -1350125.1, 278132.84, 0.042436883, 9.998007, 10.002331 
1.734861e+3, 1.4384767e+2, -1796098.3, -1582399.6, 33620.574, 0.064941786, -0.4599357, -1577235.0, -46993.1, 0.021297567, 9.9977665, 10.000624 
1.7348836e+3, 1.538467e+2, -1736323.4, -1491784.6, -24093.602, -0.122098096, -0.65314233, -1489433.4, -57182.543, 0.0071235094, 9.99746, 10.000719 
1.7349082e+3, 1.638474e+2, -1587548.0, -1339765.3, 7090.2637, -0.24544871, -0.6534629, -1339562.5, -5319.332, 0.0011691477, 9.997674, 10.000992 
1.734936e+3, 1.7385039e+2, -1336898.3, -1147553.5, 4806.317, -0.1958654, -0.49113384, -1147431.5, 88780.88, 0.00004011834, 9.998638, 10.001168 
1.7349638e+3, 1.8385123e+2, -1231041.8, -1245354.6, -4950.143, -0.13853793, -0.43116468, -1229496.5, -91292.26, 0.0, 9.999559, 9.999379 
1.7349921e+3, 1.9384907e+2, -1000558.4, -1089041.6, 7332.364, -0.096552625, -0.59840214, -999954.9, 40272.535, 0.0, 10.000501, 9.999319 
1.73502e+3, 2.0384778e+2, -896913.75, -1060479.6, -24218.379, -0.07717067, -0.6185681, -893403.2, 48839.73, 0.0, 10.000841, 9.998688 
1.7350475e+3, 2.1384797e+2, -887727.8, -997084.44, -50194.563, -0.0825326, -0.4949409, -868182.06, -23936.762, 0.0, 10.000203, 9.998753 
1.7350757e+3, 2.2384806e+2, -786203.75, -863344.6, -48689.582, -0.05515767, -0.3593465, -762658.5, -16410.201, 0.0, 10.000085, 9.999052 
1.7351048e+3, 2.3384829e+2, -537155.5, -666831.2, 19159.742, 0.04376686, -0.2825625, -534383.9, 113865.75, 0.0, 10.001015, 9.999275 
1.735133e+3, 2.43847e+2, -368144.8, -597067.3, 22625.537, 0.088911496, -0.30135822, -365930.03, 184331.78, 0.0, 10.001762, 9.998727 
1.7351596e+3, 2.5384364e+2, -174324.94, -437579.13, 39708.875, 0.032299187, -0.5409696, -168465.72, 283822.78, 0.000000000000012544113, 10.002373, 9.998845 
1.7351866e+3, 2.6384175e+2, -167844.4, -562967.2, 18497.54, 0.00022952369, -0.53123206, -166980.34, 187325.56, 0.0000010511417, 10.002493, 9.997265 
1.7352138e+3, 2.7384245e+2, -158949.45, -512537.47, 9328.692, 0.041439954, -0.20715752, -158703.5, 97602.414, 0.000029114979, 10.001906, 9.997213 
1.7352419e+3, 2.8384024e+2, -84846.125, -397217.88, 51323.3, 0.06057421, -0.14730759, -76629.73, 81699.55, 0.00019954717, 10.001613, 9.997483 
1.7352696e+3, 2.938334e+2, 77833.52, -233845.45, 75029.28, -0.054802284, -0.6314995, 94954.55, 155343.72, 0.0006830725, 10.001925, 9.99777 
1.7352971e+3, 3.0383e+2, 116050.0, -332802.2, 74287.74, -0.21734889, -0.6815223, 128025.555, 128025.555, 0.0015752185, 10.002466, 9.996507 
1.7353314e+3, 3.1383067e+2, 343213.63, -60743.223, 54018.438, 0.23153082, -0.29660925, 350312.4, 350312.4, 0.0028011068, 10.003307, 9.997965 
1.7447996e+3, 1.238184e+2, -1812881.5, -1622961.9, -9909.754, -0.27695465, -0.37767595, -1622446.3, 104091.71, 0.06957688, 9.998639, 10.001327 
1.744832e+3, 1.3382e+2, -1808386.9, -1451609.9, 62759.63, 0.1403597, -0.49235582, -1440892.0, 187621.73, 0.045260757, 9.997529, 10.002365 
1.7448589e+3, 1.4382051e+2, -1872898.0, -1698728.9, -85264.07, 0.10072136, -0.5492334, -1663937.8, -133433.16, 0.022935338, 9.997593, 9.999905 
1.7448828e+3, 1.538194e+2, -1477936.8, -1453047.3, -113998.06, -0.06356684, -0.6775511, -1350816.6, 81701.76, 0.0078018596, 9.999613, 9.999943 
1.7449076e+3, 1.6381988e+2, -1237993.4, -1230282.0, -61075.605, -0.1768729, -0.63232625, -1172940.5, 161575.13, 0.0013223152, 10.000328, 10.000468 
1.7449352e+3, 1.7382276e+2, -1264740.9, -1167236.8, -74714.34, -0.1589779, -0.43160453, -1126775.6, 109712.1, 0.000049909977, 9.999376, 10.00068 
1.7449632e+3, 1.8382339e+2, -1268545.6, -1256920.8, -18717.54, -0.14027604, -0.36523524, -1243134.0, -104652.71, 0.0000000000000006446772, 9.999285, 9.999424 
1.744992e+3, 1.9382083e+2, -979726.4, -1067170.3, -5696.1343, -0.15843517, -0.58445483, -979356.9, 61148.836, 0.0, 10.000597, 9.9994135 
1.7450203e+3, 2.0381927e+2, -862888.0, -1050363.9, -43562.2, -0.14526589, -0.633648, -853260.25, 89262.03, 0.0, 10.001101, 9.998628 
1.7450479e+3, 2.138195e+2, -851256.44, -984239.3, -31448.518, -0.085965574, -0.4994493, -844194.4, 329.687, 0.0, 10.000478, 9.998703 
1.745076e+3, 2.2381961e+2, -743472.06, -816730.8, 35548.367, -0.029934159, -0.37199026, -729058.4, 17468.037, 0.0, 10.000251, 9.999304 
1.7451052e+3, 2.3381977e+2, -576036.2, -654356.7, 379.17188, 0.02232885, -0.32834178, -576034.4, 72492.54, 0.0, 10.0006075, 9.999564 
1.7451337e+3, 2.4381875e+2, -491770.84, -637359.4, -50349.625, 0.048670404, -0.34322524, -476054.72, 74481.5, 0.0, 10.000839, 9.998889 
1.7451608e+3, 2.5381604e+2, -377537.28, -524158.34, -63968.406, 0.007509993, -0.5308837, -353552.44, 99005.49, 0.0, 10.000922, 9.998954 
1.7451881e+3, 2.6381454e+2, -357137.44, -616125.06, -62531.082, -0.0040623, -0.5027741, -342830.06, 11741.866, 0.0000010008785, 10.001031, 9.997604 
1.7452155e+3, 2.7381513e+2, -210450.75, -498960.16, -39786.91, 0.040676236, -0.22339548, -205064.48, 51507.79, 0.000030147008, 10.001386, 9.997559 
1.7452438e+3, 2.8381282e+2, -9185.767, -357120.84, 86031.195, 0.07947076, -0.19017842, 10924.18, 169520.11, 0.00019895253, 10.002124, 9.997508 
1.7452727e+3, 2.9380617e+2, 252841.95, -162481.11, 71472.02, 0.026325831, -0.6518565, 264797.28, 325452.22, 0.00067913963, 10.003174, 9.997664 
1.7453004e+3, 3.038035e+2, 209337.94, -202660.6, 96151.28, -0.1328203, -0.65279317, 230672.72, 230672.72, 0.0015789078, 10.002716, 9.99729 
1.745333e+3, 3.138048e+2, -15520.71, -159911.9, 155532.4, 0.21584111, -0.29661956, 83755.36, 83755.36, 0.0028336905, 10.000492, 9.998636 
1.7547984e+3, 1.2379267e+2, -1994396.1, -1968111.1, 10604.2, -0.28196874, -0.5339314, -1964366.6, -237587.16, 0.07366958, 9.998553, 9.998939 
1.7548297e+3, 1.3379295e+2, -2000361.0, -1827149.5, 25849.21, 0.15824194, -0.5114847, -1823374.3, -194596.47, 0.048192136, 9.997477, 9.999749 
1.7548546e+3, 1.43791e+2, -1889436.0, -1741205.1, -32953.85, -0.108974904, -0.6567524, -1734209.1, -203410.11, 0.024652572, 9.997622, 9.999603 
1.7548837e+3, 1.5379308e+2, -1483509.5, -1467975.8, -30290.086, 0.051332932, -0.45452878, -1444472.6, -11688.77, 0.008527423, 9.99962, 9.999838 
1.754911e+3, 1.6379398e+2, -1260693.9, -1286035.1, -100979.16, 0.08034398, -0.3438711, -1171593.5, 163184.34, 0.0014925194, 10.000365, 10.000069 
1.7549357e+3, 1.7379332e+2, -1296833.9, -1225463.4, -104645.734, -0.057373695, -0.455412, -1150585.8, 86197.35, 0.00006156021, 9.999342, 10.000296 
1.7549625e+3, 1.83793e+2, -1255525.1, -1223800.6, 13170.617, -0.16012768, -0.47660062, -1219045.5, -80260.38, 0.0000000010737394, 9.999262, 9.9996605 
1.754992e+3, 1.9379316e+2, -966198.25, -1029053.7, 53108.777, -0.22037691, -0.45260084, -935915.0, 104867.15, 0.0, 10.000554, 9.999697 
1.7550206e+3, 2.037928e+2, -822453.0, -951264.7, -70012.336, -0.23340678, -0.42836368, -791728.2, 151056.28, 0.0, 10.00103, 9.999344 
1.7550479e+3, 2.13792e+2, -810899.06, -876698.4, -49079.773, -0.15025869, -0.47775617, -784712.25, 60079.13, 0.0, 10.000367, 9.999499 
1.7550759e+3, 2.237908e+2, -815860.0, -931983.7, 36142.918, -0.07977866, -0.49253297, -805529.7, -58726.168, 0.0, 10.000104, 9.998583 
1.7551053e+3, 2.337892e+2, -662846.5, -802465.5, 25398.271, -0.04570772, -0.53246665, -658369.8, -9547.672, 0.0, 10.000468, 9.998615 
1.7551342e+3, 2.4378833e+2, -527199.5, -669635.3, -51064.36, -0.01261269, -0.4741167, -510784.34, 40048.49, 0.0, 10.000656, 9.998759 
1.7551623e+3, 2.5378892e+2, -395863.9, -531014.8, -49572.727, 0.046250965, -0.33232445, -379630.66, 73197.31, 0.0, 10.000791, 9.998968 
1.7551896e+3, 2.6378787e+2, -309454.3, -497575.47, -60419.926, 0.026103895, -0.2967031, -291720.63, 63117.074, 0.00000094846536, 10.000937, 9.9984665 
1.7552154e+3, 2.737845e+2, -158500.16, -355890.63, -11822.294, -0.13116041, -0.519652, -157794.61, 99073.766, 0.000030605133, 10.001242, 9.998604 
1.755244e+3, 2.8378204e+2, -36350.32, -376001.78, 115026.664, -0.12664199, -0.5607899, -1061.6598, 157829.19, 0.00020031627, 10.001953, 9.997464 
1.7552769e+3, 2.937815e+2, 202535.55, -215157.67, 124227.664, 0.11096057, -0.39387867, 236689.8, 297587.16, 0.00069413544, 10.002951, 9.997409 
1.7553051e+3, 3.0378088e+2, 305136.6, 67298.96, 4066.2378, 0.0467201, -0.26059866, 305206.1, 305206.1, 0.0016346293, 10.002422, 9.99928 
1.755333e+3, 3.1377798e+2, 55088.375, 70778.07, 124388.75, 0.13087003, -0.5731553, 187569.11, 187569.11, 0.0029570481, 10.000156, 10.000373 
1.7647971e+3, 1.2376482e+2, -2173512.8, -2048348.5, -75045.34, -0.19733055, -0.58371747, -2013215.1, -286162.78, 0.07790593, 9.997277, 9.999003 
1.7648278e+3, 1.3376528e+2, -1818815.3, -1799402.6, -66061.78, 0.16138811, -0.48633736, -1742337.9, -113287.32, 0.05123237, 9.998965, 9.999224 
1.7648521e+3, 1.4376312e+2, -1669448.0, -1611574.4, 23440.809, -0.1728557, -0.6374215, -1603271.3, -72196.68, 0.026445003, 9.999026, 9.999821 
1.7648825e+3, 1.5376577e+2, -1693901.4, -1540723.1, 35812.664, 0.05749453, -0.40229365, -1532763.9, -99710.66, 0.009296644, 9.998067, 10.000087 
1.7649108e+3, 1.6376673e+2, -1579689.8, -1478817.8, 6081.845, 0.1397331, -0.2829187, -1478452.4, -143405.97, 0.0016790463, 9.998364, 9.999695 
1.7649363e+3, 1.7376524e+2, -1135335.0, -1199693.1, -25111.041, 0.0035746132, -0.43274027, -1126696.6, 110364.23, 0.000074904594, 10.000684, 9.999818 
1.7649633e+3, 1.8376441e+2, -948264.9, -1101588.1, 68551.58, -0.10358429, -0.46674058, -922085.25, 216983.36, 0.000000009428086, 10.001465, 9.99945 
1.7649926e+3, 1.937648e+2, -1044747.7, -1083994.1, 51403.754, -0.18724006, -0.40509272, -1009348.94, 31715.148, 0.0, 10.000082, 9.9995575 
1.7650211e+3, 2.037646e+2, -1013735.3, -1010324.56, -80451.73, -0.21028022, -0.3686358, -931560.1, 11504.388, 0.0, 9.999582, 9.999634 
1.7650484e+3, 2.1376386e+2, -763708.9, -815457.94, -107183.35, -0.12919416, -0.44065133, -679321.2, 165747.98, 0.0, 10.000535, 9.999836 
1.7650765e+3, 2.2376257e+2, -704157.8, -865942.5, -11330.079, -0.059107404, -0.4902077, -703368.2, 43712.47, 0.0, 10.000827, 9.998678 
1.7651056e+3, 2.3376046e+2, -702805.2, -811814.9, 26577.635, -0.034872405, -0.5874769, -696670.5, -47568.723, 0.0, 10.00016, 9.998692 
1.7651343e+3, 2.4375951e+2, -609608.6, -706669.56, 34956.285, -0.007575611, -0.5451268, -598329.8, -47217.28, 0.0, 10.000072, 9.998793 
1.765163e+3, 2.5376058e+2, -370811.53, -516893.25, 26682.854, 0.030874219, -0.35396805, -366090.3, 87013.945, 0.0, 10.000949, 9.998993 
1.7651908e+3, 2.6375967e+2, -206066.47, -424021.75, 3519.8684, 0.022054186, -0.3150396, -206009.64, 149102.97, 0.0000007067664, 10.001562, 9.998665 
1.765217e+3, 2.737557e+2, -73050.016, -294458.88, -31317.326, -0.09203484, -0.61268395, -68705.56, 188440.92, 0.000029110019, 10.001737, 9.998794 
1.7652461e+3, 2.8375342e+2, -58001.582, -357173.53, 93290.4, -0.08335436, -0.6625884, -31295.01, 127871.63, 0.00020317562, 10.00168, 9.997727 
1.765279e+3, 2.9375413e+2, 6229.155, -287584.1, 97111.14, 0.11117947, -0.38927716, 35425.145, 96586.695, 0.00072233164, 10.001501, 9.997614 
1.7653075e+3, 3.0375332e+2, 198595.05, -18326.748, -76491.72, 0.0933584, -0.2714375, 222854.72, 222854.72, 0.0017127431, 10.001838, 9.998974 
1.7653352e+3, 3.1374878e+2, 384976.0, 158067.19, -175689.34, 0.22592671, -0.6936132, 480659.47, 480659.47, 0.003093255, 10.002727, 9.999753 
1.774796e+3, 1.2373606e+2, -1980995.8, -1654879.9, 106110.2, -0.08249189, -0.39206734, -1623394.1, 103951.89, 0.08231803, 9.997268, 10.00177 
1.774826e+3, 1.33737e+2, -1692771.0, -1544854.0, -18098.043, 0.058322784, -0.4148592, -1542671.9, 86660.24, 0.054393712, 9.998965, 10.001007 
1.7748514e+3, 1.4373665e+2, -1609106.5, -1494883.1, -23236.045, -0.18913761, -0.5227988, -1490337.3, 40995.605, 0.02831169, 9.999053, 10.000618 
1.7748788e+3, 1.5373747e+2, -1656004.1, -1452235.3, 8760.796, -0.14228752, -0.53264165, -1451859.3, -18533.533, 0.010105246, 9.998024, 10.000714 
1.774907e+3, 1.6373822e+2, -1614056.6, -1546655.5, 71558.37, -0.099080995, -0.4520018, -1501259.1, -165938.72, 0.0018804772, 9.998348, 9.999239 
1.7749365e+3, 1.737385e+2, -1183761.9, -1292982.3, 71753.76, -0.05363933, -0.36376095, -1148200.8, 89120.4, 0.00008970714, 10.000657, 9.999189 
1.7749655e+3, 1.8373773e+2, -987282.0, -1193465.4, 22805.182, -0.060347285, -0.32868844, -984789.75, 154541.45, 0.000000028818846, 10.001506, 9.9988 
1.7749932e+3, 1.9373566e+2, -1093423.0, -1179933.9, 5708.3667, -0.14081116, -0.4464222, -1093047.9, -51695.695, 0.0, 10.000052, 9.998918 
1.7750213e+3, 2.0373455e+2, -1036382.4, -1037484.44, -63083.09, -0.17063387, -0.46001786, -973847.9, -30484.428, 0.0, 9.999507, 9.9994755 
1.7750493e+3, 2.1373513e+2, -796288.8, -844630.94, -63598.26, -0.10109159, -0.3928264, -752423.25, 92934.2, 0.0, 10.0003805, 9.999701 
1.7750776e+3, 2.2373487e+2, -669271.94, -762491.4, -36612.125, -0.04986045, -0.36463612, -656611.8, 90746.31, 0.0, 10.000679, 9.999467 
1.7751059e+3, 2.3373343e+2, -648031.94, -678271.8, 11544.786, -0.020681452, -0.4925357, -644128.4, 5238.8257, 0.0, 10.000062, 9.999662 
1.7751344e+3, 2.4373204e+2, -619785.4, -691632.3, 50942.82, -0.027225072, -0.5548591, -593373.7, -41996.12, 0.0, 9.999919, 9.998967 
1.7751627e+3, 2.537311e+2, -391624.53, -521827.97, 68369.48, -0.098960094, -0.5738282, -362319.6, 91066.88, 0.0, 10.000794, 9.999028 
1.7751913e+3, 2.6372996e+2, -265072.34, -511743.28, 5871.0205, -0.09297164, -0.5393687, -264932.7, 90464.24, 0.00000032366296, 10.001406, 9.99814 
1.7752203e+3, 2.7372867e+2, -140213.27, -392126.63, -12731.301, 0.04572408, -0.50818646, -139571.48, 117836.69, 0.00002512301, 10.00157, 9.9981985 
1.7752497e+3, 2.837268e+2, -57205.56, -327382.56, 72742.29, 0.07980607, -0.4894336, -38865.434, 120558.75, 0.00020074962, 10.001546, 9.998004 
1.775279e+3, 2.9372424e+2, 23250.773, -224139.42, 102036.016, -0.060264472, -0.59672534, 59904.75, 121350.49, 0.0007393441, 10.001375, 9.998113 
1.7753077e+3, 3.0372113e+2, -2247.778, -378284.5, -56485.22, -0.09753461, -0.6385324, 6053.712, 6053.712, 0.0017547982, 10.0016, 9.996612 
1.7753391e+3, 3.13719e+2, 125913.88, -255643.98, -85813.72, 0.31193715, -0.5403621, 144325.28, 144325.28, 0.0031372139, 10.002236, 9.997121 
1.7847937e+3, 1.23706296e+2, -1961342.4, -1575088.4, 235530.22, -0.012614563, -0.33728716, -1463629.5, 264009.84, 0.08696164, 9.997114, 10.002457 
1.7848232e+3, 1.3370745e+2, -1889241.4, -1554067.9, -50462.594, -0.021775873, -0.40915582, -1546635.3, 82988.66, 0.057701517, 9.997268, 10.001756 
1.7848513e+3, 1.4370862e+2, -1807336.1, -1572546.5, -115819.9, -0.021110393, -0.41534096, -1525029.9, 6579.9556, 0.030258754, 9.997623, 10.000769 
1.7848769e+3, 1.5370822e+2, -1448126.4, -1356339.3, -146996.95, -0.18365441, -0.54563904, -1248238.3, 185375.39, 0.0109521225, 9.99946, 10.000694 
1.784905e+3, 1.6370863e+2, -1281846.3, -1379758.3, -48939.656, -0.23117587, -0.5007451, -1261579.5, 74031.89, 0.0020959692, 10.000582, 9.99931 
1.7849371e+3, 1.7370985e+2, -1177366.4, -1281716.4, -14181.203, -0.056893393, -0.32844034, -1175473.5, 62130.35, 0.000105867584, 10.000652, 9.9992695 
1.7849669e+3, 1.837095e+2, -1151041.5, -1264204.5, -65138.355, 0.009224958, -0.25736386, -1121341.6, 18268.916, 0.0000000562377, 10.000362, 9.998867 
1.7849933e+3, 1.9370715e+2, -1132077.3, -1186557.8, -53924.223, -0.12211925, -0.40988278, -1098903.5, -57268.813, 0.0, 9.999743, 9.999017 
1.7850207e+3, 2.03706e+2, -1025612.94, -1027297.1, -12126.248, -0.164492, -0.43634427, -1014299.56, -70652.99, 0.0, 9.999554, 9.999534 
1.78505e+3, 2.137069e+2, -815319.06, -847671.0, -9629.288, -0.053746015, -0.34167162, -812669.9, 32967.586, 0.0, 10.000216, 9.99977 
1.7850786e+3, 2.2370698e+2, -674852.9, -736672.1, -15425.569, 0.00734771, -0.29339853, -671217.56, 76416.914, 0.0, 10.0005245, 9.99972 
1.785106e+3, 2.3370594e+2, -604265.3, -628297.94, -47609.77, -0.018986292, -0.4061656, -567178.9, 82460.26, 0.0, 10.000248, 9.999916 
1.7851342e+3, 2.4370445e+2, -557771.2, -642918.9, 15634.827, -0.041745096, -0.49705732, -554991.06, -3342.3345, 0.0, 10.000271, 9.999127 
1.7851637e+3, 2.5370255e+2, -370346.44, -501357.47, 26041.002, -0.07893806, -0.62184733, -365360.06, 88303.27, 0.0, 10.000885, 9.999129 
1.7851934e+3, 2.6370102e+2, -265379.53, -566149.0, -18288.215, -0.03574576, -0.6104411, -264271.6, 91404.945, 0.00000018370703, 10.001632, 9.997659 
1.785223e+3, 2.7370012e+2, -15832.208, -403613.44, -59185.094, 0.11386139, -0.48338237, -7000.2393, 250686.83, 0.000020759246, 10.002703, 9.997584 
1.7852524e+3, 2.8369796e+2, 139691.61, -240598.08, 5104.0073, 0.14692874, -0.4552302, 139760.11, 299467.1, 0.00019246414, 10.002968, 9.997895 
1.7852813e+3, 2.936943e+2, 134387.38, -175227.03, -36946.344, 0.0062204814, -0.663056, 138735.14, 200472.77, 0.00073561596, 10.002182, 9.998046 
1.78531e+3, 3.0369058e+2, 76116.72, -355648.0, -84886.734, -0.036481112, -0.75129557, 92206.234, 92206.234, 0.0017390973, 10.002195, 9.996479 
1.7853405e+3, 3.1368977e+2, 226789.88, -223191.75, 1426.3342, 0.20069696, -0.49963975, 226794.39, 226794.39, 0.0030548186, 10.00296, 9.997008 
1.7947894e+3, 1.2367501e+2, -2068140.4, -1795134.3, 121962.37, -0.20348561, -0.50798947, -1748585.6, -20648.94, 0.09190124, 9.997145, 10.000797 
1.7948191e+3, 1.3367668e+2, -1921993.8, -1615555.4, -48977.277, -0.18273693, -0.47430566, -1607917.8, 22007.387, 0.06119029, 9.997243, 10.001326 
1.7948517e+3, 1.4367917e+2, -1857359.5, -1672086.6, -78433.55, 0.24629304, -0.29604867, -1643342.1, -111437.85, 0.03230053, 9.997604, 10.000094 
1.794877e+3, 1.5367807e+2, -1501857.1, -1459887.1, -69302.445, -0.13771947, -0.4263473, -1408462.3, 25454.6, 0.011841973, 9.999432, 9.999986 
1.7949048e+3, 1.6367799e+2, -1231277.1, -1285856.4, -51500.97, -0.33961925, -0.41700858, -1200282.4, 135637.31, 0.0023264778, 10.000618, 9.999944 
1.7949376e+3, 1.7367926e+2, -1117076.9, -1158703.6, -9235.576, -0.0763176, -0.321159, -1115119.8, 122790.09, 0.00012352158, 10.000654, 10.000119 
1.7949675e+3, 1.8367976e+2, -1093488.1, -1147261.8, -94805.16, 0.014628873, -0.24865896, -1021831.0, 118075.65, 0.000000085167756, 10.000375, 9.999661 
1.7949922e+3, 1.9367929e+2, -1088953.4, -1083616.8, -70818.49, -0.20711435, -0.29014367, -1015416.4, 26495.13, 0.0, 9.999684, 9.999753 
1.7950194e+3, 2.03679e+2, -1015416.06, -989920.75, -3510.804, -0.27818653, -0.28326887, -989446.1, -45532.66, 0.0, 9.999478, 9.999827 
1.7950502e+3, 2.1367927e+2, -812984.9, -820868.7, 23906.555, -0.06461146, -0.27712983, -792697.4, 53210.848, 0.0, 10.000114, 10.000007 
1.7950794e+3, 2.2367889e+2, -726303.4, -809452.25, -29871.518, 0.025261886, -0.26922163, -716684.6, 31225.26, 0.0, 10.00038, 9.9992895 
1.7951056e+3, 2.3367779e+2, -664301.25, -715130.7, -49932.344, -0.10071513, -0.33789152, -633687.9, 16231.391, 0.0, 10.000092, 9.999391 
1.7951338e+3, 2.436765e+2, -574136.4, -641796.56, 26790.133, -0.13552703, -0.38514662, -564813.4, -12885.382, 0.0, 10.000116, 9.999213 
1.7951654e+3, 2.5367504e+2, -375131.66, -480926.38, 59856.27, 0.0030329959, -0.48744687, -348148.47, 105785.8, 0.0, 10.000763, 9.999326 
1.7951962e+3, 2.6367295e+2, -320890.56, -652331.06, 11272.699, 0.08989152, -0.518611, -320507.63, 35443.387, 0.00000013255313, 10.001498, 9.997136 
1.7952251e+3, 2.736701e+2, -81467.1, -496983.8, -8520.34, 0.036082968, -0.52840155, -81292.46, 176689.72, 0.0000188634, 10.002528, 9.997023 
1.7952543e+3, 2.8366712e+2, 71110.41, -343578.13, -29841.861, 0.02578548, -0.52887315, 73246.88, 233259.05, 0.00018763484, 10.002784, 9.997284 
1.7952853e+3, 2.9366428e+2, 63923.293, -273182.06, -44136.41, 0.1799114, -0.5909323, 69606.17, 131642.27, 0.0007279235, 10.001981, 9.997467 
1.7953141e+3, 3.0366147e+2, 143122.67, -160493.66, -70087.0, 0.1286469, -0.61803657, 158520.69, 158520.69, 0.001696841, 10.001944, 9.997947 
1.7953387e+3, 3.136609e+2, 345397.75, 112888.46, 57145.543, -0.29558557, -0.5438477, 358683.66, 358683.66, 0.0029077495, 10.002601, 9.999477 
1.8047883e+3, 1.2364481e+2, -1973851.3, -1864612.6, 10813.901, -0.08568988, -0.54992926, -1863552.5, -135321.97, 0.097200245, 9.998299, 9.9997635 
1.8048169e+3, 1.3364615e+2, -1646159.0, -1538394.5, -48293.33, -0.21487817, -0.5014456, -1519919.8, 110306.57, 0.06490086, 9.999354, 10.00088 
1.8048508e+3, 1.4364909e+2, -1534323.6, -1491042.5, -29647.508, 0.30581445, -0.2639612, -1475977.6, 56225.063, 0.034457777, 9.999714, 10.000321 
1.8048768e+3, 1.5364875e+2, -1562961.0, -1457102.4, 34865.223, -0.06757275, -0.35211188, -1446651.1, -12444.18, 0.0127833225, 9.998877, 10.000265 
1.8049045e+3, 1.6364875e+2, -1548210.1, -1407513.8, 93985.1, -0.29945564, -0.3603268, -1360464.9, -24257.084, 0.0025744103, 9.998334, 10.000204 
1.8049371e+3, 1.7364934e+2, -1398328.5, -1259088.3, 72950.65, -0.086097226, -0.36000648, -1227868.1, 10335.792, 0.00014305822, 9.998603, 10.000407 
1.8049672e+3, 1.8364988e+2, -1233613.9, -1182774.0, -31617.41, 0.015034086, -0.31339735, -1167625.1, -27425.309, 0.00000010953618, 9.999252, 9.999965 
1.8049929e+3, 1.9365066e+2, -931204.0, -969986.56, -57433.67, -0.15029766, -0.2628505, -889976.44, 152215.97, 0.0, 10.000604, 10.000088 
1.8050201e+3, 2.0365076e+2, -795266.5, -893738.7, -20353.223, -0.20547703, -0.23381701, -791225.5, 152964.56, 0.0, 10.001024, 9.999751 
1.8050502e+3, 2.1364988e+2, -849716.25, -853949.94, -40066.848, -0.043218445, -0.32597792, -811710.4, 34483.93, 0.0, 9.999927, 9.99987 
1.8050794e+3, 2.2364895e+2, -858983.2, -892037.44, -69305.05, 0.037918657, -0.35882837, -804261.9, -56060.555, 0.0, 9.999573, 9.999098 
1.8051064e+3, 2.3364821e+2, -604333.1, -715157.2, -83898.805, -0.04523049, -0.3665742, -559199.1, 91010.88, 0.0, 10.000631, 9.999127 
1.8051353e+3, 2.4364719e+2, -370836.72, -540576.5, 22922.799, -0.0514752, -0.37210977, -367795.56, 184421.5, 0.0, 10.001485, 9.99926 
1.8051675e+3, 2.536459e+2, -199868.3, -391886.25, 27447.082, 0.086435266, -0.45948994, -196022.05, 258197.63, 0.0, 10.001926, 9.999393 
1.8051988e+3, 2.6364365e+2, -235825.7, -629357.75, 900.0129, 0.15328975, -0.503059, -235823.66, 120413.56, 0.00000007008213, 10.002172, 9.996964 
1.8052271e+3, 2.7364007e+2, -149592.88, -561278.7, -20018.55, 0.022956591, -0.55690736, -148621.75, 109654.54, 0.000018211349, 10.002194, 9.996749 
1.8052565e+3, 2.8363696e+2, -7959.4956, -380758.47, -15199.987, -0.006407956, -0.5551171, -7340.7793, 152967.72, 0.00018383289, 10.002218, 9.997308 
1.8052879e+3, 2.936349e+2, 139070.7, -236989.63, -12739.312, 0.21405444, -0.53810215, 139501.77, 201827.27, 0.00071480655, 10.002469, 9.997496 
1.8053173e+3, 3.036324e+2, 256798.28, -95315.35, -10004.119, 0.23307718, -0.5380265, 257082.28, 257082.28, 0.0016441797, 10.002699, 9.998021 
1.8053421e+3, 3.1363088e+2, 319023.97, 118810.734, -93869.26, -0.18940853, -0.5506805, 356149.9, 356149.9, 0.0027675093, 10.00229, 9.999697 
1.8147884e+3, 1.23615585e+2, -2001735.5, -1930378.6, -163545.6, 0.06854493, -0.47505042, -1798665.0, -70142.33, 0.10291468, 9.998329, 9.999302 
1.8148166e+3, 1.3361587e+2, -1668845.0, -1580172.8, 6401.5093, -0.20954303, -0.48986834, -1579713.0, 50814.47, 0.06887483, 9.999347, 10.000574 
1.8148483e+3, 1.4361842e+2, -1443147.9, -1316641.3, -64713.89, 0.04717491, -0.33035213, -1289402.3, 243102.95, 0.036753505, 9.999763, 10.001549 
1.814876e+3, 1.5362021e+2, -1464804.1, -1262547.4, 10995.621, -0.060695633, -0.33548906, -1261951.4, 172532.81, 0.01378539, 9.998893, 10.0016165 
1.8149038e+3, 1.6362105e+2, -1557583.4, -1428282.5, 88234.77, -0.21734044, -0.33131075, -1383548.0, -47073.66, 0.002842686, 9.998337, 10.000059 
1.8149352e+3, 1.7362012e+2, -1429382.3, -1320985.5, 93311.74, -0.14814949, -0.44656628, -1267274.0, -28788.43, 0.00016504708, 9.998578, 9.999999 
1.8149659e+3, 1.8361989e+2, -1246388.0, -1205159.8, 6310.5713, -0.067005455, -0.44885162, -1204215.5, -63725.74, 0.00000012908751, 9.999234, 9.999821 
1.8149948e+3, 1.9362126e+2, -940968.94, -985563.5, 1991.8639, -0.034050997, -0.32760027, -940880.1, 101597.44, 0.0, 10.00058, 9.999994 
1.8150231e+3, 2.0362116e+2, -836775.9, -965524.25, -57324.65, -0.035352666, -0.29357374, -814951.75, 129525.68, 0.0, 10.000964, 9.999286 
1.8150502e+3, 2.1361868e+2, -903618.44, -939839.06, -73525.72, -0.055247158, -0.49632618, -846005.5, 490.946, 0.0, 9.999812, 9.999335 
1.8150786e+3, 2.2361709e+2, -885787.2, -913737.4, -48935.863, -0.031254858, -0.560537, -848870.0, -100360.5, 0.0, 9.99942, 9.999026 
1.8151082e+3, 2.3361729e+2, -622282.8, -725745.7, -31736.834, 0.0582198, -0.47284588, -613323.5, 37186.64, 0.0, 10.000514, 9.999113 
1.8151385e+3, 2.436167e+2, -402449.78, -570935.25, 35655.996, 0.10433193, -0.42813578, -395214.72, 157299.52, 0.0, 10.00133, 9.9991255 
1.8151698e+3, 2.5361514e+2, -223744.3, -409637.8, 54478.066, 0.09962549, -0.5399761, -208955.45, 245564.92, 0.0, 10.001788, 9.999335 
1.8152003e+3, 2.6361302e+2, -260764.73, -642599.56, -6340.74, 0.074060544, -0.5677779, -260659.47, 95877.234, 0.0000000874347, 10.002, 9.996961 
1.815229e+3, 2.736101e+2, -176054.75, -573955.2, -5216.6367, -0.01641478, -0.56200856, -175986.38, 82582.93, 0.00001648955, 10.002023, 9.996738 
1.8152583e+3, 2.836075e+2, -4495.633, -335542.53, -15864.675, -0.067742065, -0.5155772, -3737.0923, 156858.69, 0.00017253889, 10.002043, 9.997706 
1.8152885e+3, 2.9360607e+2, 155494.75, -165144.33, 15848.799, 0.010955072, -0.501087, 156276.23, 218883.19, 0.00068025076, 10.002302, 9.998066 
1.8153195e+3, 3.0360344e+2, 112692.38, -331049.0, -28874.525, 0.15199284, -0.4861017, 114563.375, 114563.375, 0.0015745051, 10.00243, 9.996532 
1.815348e+3, 3.1359774e+2, 141115.9, -119063.48, -103462.58, 0.14237197, -0.74453205, 177242.44, 177242.44, 0.0026622687, 10.001777, 9.99828 
1.8247879e+3, 1.2358812e+2, -1767239.1, -1799605.4, -77460.58, 0.10910353, -0.3862494, -1704289.3, 24505.898, 0.10907774, 9.999859, 9.999467 
1.8248165e+3, 1.3358739e+2, -1716395.0, -1590003.3, 178246.81, -0.12783505, -0.5226119, -1464081.0, 166724.34, 0.07313931, 9.998958, 10.000736 
1.8248461e+3, 1.4359008e+2, -1619672.4, -1434208.1, 90671.22, -0.092888206, -0.34971496, -1397246.3, 135533.63, 0.039204508, 9.998708, 10.001217 
1.8248752e+3, 1.5359136e+2, -1413393.5, -1292919.3, 4261.5557, -0.035034243, -0.35730794, -1292768.6, 141997.33, 0.014855209, 9.999502, 10.001108 
1.8249036e+3, 1.6359203e+2, -1350445.1, -1316452.1, 21024.076, -0.12708795, -0.34596995, -1306413.6, 30345.203, 0.0031336718, 9.999692, 10.000175 
1.824934e+3, 1.7359169e+2, -1348043.5, -1250162.8, 56227.457, -0.13221595, -0.42639938, -1224559.9, 14202.193, 0.00019006866, 9.999004, 10.000275 
1.8249647e+3, 1.8359159e+2, -1339967.5, -1255066.1, 50294.508, -0.061489962, -0.42948428, -1231702.0, -90938.24, 0.00000015151502, 9.998629, 9.999762 
1.8249951e+3, 1.9359222e+2, -1188646.5, -1115963.3, 32764.977, 0.017281126, -0.3699834, -1103373.6, -60614.92, 0.0, 9.998953, 9.999872 
1.825024e+3, 2.0359173e+2, -1033459.1, -1060304.5, -25521.047, 0.038355574, -0.36701867, -1018046.2, -73283.73, 0.0, 9.999622, 9.999271 
1.8250509e+3, 2.1358941e+2, -751700.56, -863628.94, -22890.553, -0.018018717, -0.5551871, -747200.2, 99579.95, 0.0, 10.000852, 9.999351 
1.8250792e+3, 2.2358792e+2, -578344.4, -806158.4, 52804.098, 0.004417537, -0.59725314, -566700.3, 182092.38, 0.0, 10.001683, 9.998684 
1.8251102e+3, 2.3358807e+2, -456522.13, -686670.7, 27965.3, 0.13989979, -0.47838983, -453172.8, 197621.4, 0.0, 10.001824, 9.99875 
1.8251409e+3, 2.4358717e+2, -364285.25, -623446.3, 68521.81, 0.19909489, -0.41818982, -347283.53, 205519.36, 0.0, 10.001902, 9.998482 
1.8251716e+3, 2.5358486e+2, -263644.78, -507770.4, 22955.605, 0.12664662, -0.5326181, -261504.98, 193314.67, 0.0, 10.001856, 9.998622 
1.8252021e+3, 2.635826e+2, -246346.42, -575498.8, -35444.875, 0.08086963, -0.55853665, -242572.8, 114265.28, 0.00000011582431, 10.001854, 9.997485 
1.8252318e+3, 2.735803e+2, -125348.36, -476379.9, -16397.51, 0.057582527, -0.5512806, -124584.055, 134275.95, 0.000015405387, 10.002043, 9.997405 
1.8252613e+3, 2.835778e+2, 1255.1963, -337740.16, 10704.034, 0.035331644, -0.5352855, 1592.8479, 162477.38, 0.00016027999, 10.00212, 9.997646 
1.8252906e+3, 2.935756e+2, 102798.23, -217289.34, -38164.04, 0.015128099, -0.56607896, 107285.61, 170191.97, 0.00063761644, 10.002056, 9.997828 
1.8253213e+3, 3.0357358e+2, 110666.75, -257013.89, -26589.979, 0.1314277, -0.5095547, 112579.734, 112579.734, 0.0015046491, 10.002083, 9.997209 
1.8253517e+3, 3.135696e+2, 249798.75, -8694.786, -43825.992, 0.3305548, -0.666433, 257027.05, 257027.05, 0.002602594, 10.002208, 9.998868 
1.834786e+3, 1.2356253e+2, -1716609.6, -1691585.8, -73906.27, -0.10967592, -0.30384406, -1629139.9, 99906.98, 0.11569034, 9.99985, 10.0002575 
1.8348163e+3, 1.3356109e+2, -1663956.0, -1480098.1, 155339.05, -0.052242354, -0.59530485, -1391524.6, 239531.36, 0.07769921, 9.998942, 10.001533 
1.8348436e+3, 1.4356443e+2, -1763960.9, -1734795.6, 109731.1, -0.22632432, -0.31376714, -1638682.4, -105659.37, 0.04181763, 9.998721, 9.999118 
1.8348746e+3, 1.5356225e+2, -1587925.6, -1658849.9, 45615.02, -0.076599464, -0.42035255, -1565609.8, -130557.56, 0.015997248, 9.999513, 9.998582 
1.8349038e+3, 1.6356163e+2, -1317560.4, -1253150.3, -10612.174, -0.11345761, -0.40934256, -1251446.9, 85614.7, 0.0034491862, 9.999715, 10.000601 
1.8349335e+3, 1.7356391e+2, -1281737.0, -1117744.5, 34825.543, -0.109718196, -0.3138595, -1110655.4, 128379.555, 0.00021871291, 9.999018, 10.001182 
1.8349636e+3, 1.8356478e+2, -1341367.4, -1256304.3, 48558.074, -0.07185287, -0.27166766, -1234285.0, -93261.266, 0.00000018976193, 9.998626, 9.999751 
1.8349932e+3, 1.9356345e+2, -1210704.0, -1151033.4, 53582.918, -0.07073566, -0.39382556, -1119539.4, -76502.46, 0.0, 9.998903, 9.999657 
1.8350227e+3, 2.0356238e+2, -1012556.44, -998497.0, 8015.7954, -0.06624581, -0.4564563, -994865.06, -49818.906, 0.0, 9.999541, 9.999734 
1.8350519e+3, 2.135621e+2, -729863.4, -789702.1, 29678.643, -0.018506467, -0.4945832, -717640.25, 129405.125, 0.0, 10.0007305, 9.999915 
1.8350814e+3, 2.2356145e+2, -642089.6, -901846.56, 56248.83, 0.044899058, -0.45935076, -630432.44, 118618.125, 0.0, 10.001523, 9.998107 
1.835112e+3, 2.335603e+2, -527098.9, -801987.0, 43447.72, 0.13336475, -0.39916283, -520395.2, 130669.445, 0.0, 10.001689, 9.998025 
1.8351425e+3, 2.4355829e+2, -467604.4, -800970.1, 59325.098, 0.16214624, -0.35824817, -457361.75, 95724.2, 0.0, 10.001739, 9.997347 
1.8351732e+3, 2.535552e+2, -371472.56, -700033.0, 35060.7, 0.08704837, -0.42505732, -367772.88, 87343.44, 0.0, 10.001725, 9.997365 
1.8352039e+3, 2.6355258e+2, -207803.97, -471678.6, -34856.734, 0.06508699, -0.44576928, -203277.2, 153861.89, 0.000000090536304, 10.0017395, 9.998259 
1.8352348e+3, 2.735507e+2, -57555.777, -309183.06, 6787.868, 0.13965036, -0.5182877, -57372.8, 201776.45, 0.00001528185, 10.001926, 9.99861 
1.835265e+3, 2.8354764e+2, -65356.5, -440251.53, -6732.0156, 0.17776513, -0.60033625, -65235.652, 95940.67, 0.00015297295, 10.001959, 9.997024 
1.8352938e+3, 2.935436e+2, 8226.646, -355678.78, -22389.084, 0.1147641, -0.729775, 9598.948, 72821.945, 0.0006053897, 10.001821, 9.996982 
1.8353228e+3, 3.035431e+2, 225193.2, 46634.94, -31903.686, 0.04610402, -0.57110137, 230722.34, 230722.34, 0.001453225, 10.001794, 9.999437 
1.8353516e+3, 3.1354636e+2, 337539.25, 253434.03, -47135.395, 0.06777291, -0.2870294, 358654.4, 358654.4, 0.0025773698, 10.001881, 10.000822 
1.8447846e+3, 1.2353586e+2, -1675546.8, -1635318.5, -20051.986, -0.22007371, -0.296286, -1627030.9, 102275.3, 0.12272786, 9.999975, 10.000625 
1.8448156e+3, 1.3353293e+2, -1771049.0, -1599327.4, -27495.3, 0.013174788, -0.674807, -1595032.4, 36297.254, 0.08254445, 9.998534, 10.000822 
1.8448423e+3, 1.4353651e+2, -1864831.5, -1816584.9, 12368.995, -0.19448486, -0.3106131, -1813598.8, -280304.56, 0.04459436, 9.998161, 9.998833 
1.8448743e+3, 1.5353386e+2, -1541175.0, -1649840.3, 116571.51, -0.059555866, -0.44864815, -1466896.0, -31568.797, 0.017215712, 9.999899, 9.998456 
1.8449041e+3, 1.635328e+2, -1237094.9, -1275590.9, 81761.98, -0.07908856, -0.45311174, -1172345.9, 164995.23, 0.0037916328, 10.000547, 10.000045 
1.8449329e+3, 1.7353454e+2, -1251291.9, -1173687.8, -17076.387, -0.07997173, -0.34852555, -1170096.4, 69224.63, 0.00025177147, 9.999543, 10.000545 
1.8449625e+3, 1.8353507e+2, -1267652.1, -1194553.3, -6328.8164, -0.04110604, -0.31369165, -1194009.4, -52696.51, 0.00000025167606, 9.999006, 9.999996 
1.8449928e+3, 1.9353373e+2, -1097804.5, -1050054.8, 31602.06, -0.02946874, -0.47493476, -1034322.9, 9000.048, 0.0, 9.999464, 10.000083 
1.8450229e+3, 2.0353289e+2, -984494.3, -1027719.4, 17136.383, -0.02510026, -0.5247744, -978525.0, -33195.22, 0.0, 9.999911, 9.999362 
1.8450524e+3, 2.1353313e+2, -800669.2, -880438.1, -52849.22, -0.015515637, -0.45971408, -774343.3, 72984.94, 0.0, 10.000489, 9.999412 
1.8450828e+3, 2.2353254e+2, -687906.75, -922659.44, -43457.97, 0.0506848, -0.38729137, -680120.0, 69214.72, 0.0, 10.001223, 9.998097 
1.8451144e+3, 2.3353061e+2, -431548.16, -749306.25, -17698.287, 0.19028626, -0.40962115, -430565.47, 220788.64, 0.0, 10.002323, 9.9980755 
1.8451457e+3, 2.4352822e+2, -297658.56, -740707.94, 55701.15, 0.23872417, -0.40435967, -290763.0, 262615.5, 0.0, 10.003017, 9.997133 
1.8451756e+3, 2.5352538e+2, -199064.8, -646113.2, 72777.695, 0.10281832, -0.42059296, -187515.27, 267893.25, 0.0, 10.003039, 9.997098 
1.845206e+3, 2.6352283e+2, -43428.62, -388154.4, 40154.406, 0.05715307, -0.42076823, -38813.145, 318618.72, 0.00000009817215, 10.002861, 9.998286 
1.8452372e+3, 2.7352086e+2, 18318.219, -266067.97, -14225.3955, 0.17786397, -0.5072678, 19028.021, 278471.28, 0.000013983738, 10.002428, 9.998657 
1.8452677e+3, 2.83518e+2, -81019.54, -438760.06, -46214.58, 0.2700704, -0.577663, -75145.766, 86323.35, 0.00014293527, 10.001825, 9.997099 
1.8452962e+3, 2.935145e+2, -103121.68, -397165.9, -37934.375, 0.220105, -0.65195197, -98306.65, -34796.24, 0.0005725451, 10.000988, 9.997116 
1.8453237e+3, 3.0351374e+2, 159349.42, 59103.656, 28754.678, 0.011162482, -0.54656404, 167011.8, 167011.8, 0.0013987414, 10.001165, 9.999825 
1.8453525e+3, 3.1351623e+2, 556931.06, 342858.97, -223659.1, -0.08888695, -0.36208445, 697846.8, 697846.8, 0.0025301094, 10.003468, 10.000665 
1.8547843e+3, 1.2350787e+2, -1674874.1, -1654337.1, 31884.965, -0.30075908, -0.40816954, -1631108.0, 98467.17, 0.13014582, 10.000053, 10.000451 
1.8548141e+3, 1.3350275e+2, -1945492.0, -1952866.9, -86137.16, -0.007288202, -0.7818466, -1862963.4, -231335.36, 0.08765755, 9.998503, 9.99839 
1.8548417e+3, 1.4350624e+2, -1754571.6, -1585526.0, 50821.176, -0.0873353, -0.35310903, -1571423.8, -37829.152, 0.04753598, 9.99815, 10.000426 
1.8548743e+3, 1.5350617e+2, -1375995.4, -1312473.9, 188347.03, -0.06843451, -0.4548888, -1153228.5, 282362.9, 0.01851746, 9.999921, 10.000787 
1.8549044e+3, 1.6350552e+2, -1338660.8, -1496627.0, 48610.473, -0.13091743, -0.48812, -1324900.6, 12696.226, 0.0041650403, 10.0005865, 9.9985075 
1.8549323e+3, 1.735035e+2, -1409823.0, -1505252.5, -47317.484, -0.11897041, -0.5402662, -1390339.3, -150718.5, 0.00029041685, 9.999542, 9.998274 
1.8549617e+3, 1.835023e+2, -1231555.8, -1119572.3, -6675.2275, -0.051932912, -0.56815577, -1119175.8, 22456.623, 0.0000003514084, 9.999009, 10.00051 
1.8549933e+3, 1.9350308e+2, -1034287.9, -907249.0, 54887.992, 0.05876432, -0.61349267, -886819.56, 156797.11, 0.0, 9.999414, 10.001089 
1.8550238e+3, 2.0350324e+2, -1078993.9, -1204392.0, 30004.557, 0.06968656, -0.5695174, -1072184.4, -126571.19, 0.0, 9.99983, 9.998189 
1.8550524e+3, 2.1350244e+2, -928160.6, -1116590.8, -22900.352, -0.06841274, -0.45564616, -925417.44, -77788.125, 0.0, 10.000368, 9.997849 
1.8550831e+3, 2.2350115e+2, -671179.2, -855106.8, -11854.907, -0.052171145, -0.38853744, -670418.25, 79227.7, 0.0, 10.001077, 9.998636 
1.8551172e+3, 2.334992e+2, -392783.4, -635930.7, 34500.59, 0.22709602, -0.49237224, -387982.84, 263678.1, 0.0, 10.002178, 9.998928 
1.8551497e+3, 2.4349718e+2, -283890.4, -670260.9, 53610.168, 0.327581, -0.5217882, -276589.78, 277088.53, 0.0, 10.002832, 9.997709 
1.8551788e+3, 2.534953e+2, -183474.16, -570238.4, 81543.8, 0.10233, -0.5004597, -166984.8, 288712.44, 0.0, 10.00286, 9.997701 
1.8552084e+3, 2.6349318e+2, -111981.07, -493786.38, 15068.0205, -0.012538086, -0.46613464, -111387.33, 246331.0, 0.00000008466028, 10.002698, 9.997644 
1.855239e+3, 2.734908e+2, -76945.72, -413171.03, -14858.986, 0.10247008, -0.5102313, -76290.33, 183451.73, 0.000011476472, 10.002216, 9.997747 
1.8552692e+3, 2.8348875e+2, -79502.81, -389743.06, -87165.65, 0.21872963, -0.4591534, -56690.07, 105072.52, 0.00012751702, 10.0016165, 9.997542 
1.8552974e+3, 2.9348797e+2, -59602.664, -275184.53, -53302.06, 0.22903006, -0.34183493, -47143.88, 16627.95, 0.00053064205, 10.0008545, 9.998018 
1.8553239e+3, 3.0348545e+2, 34539.61, -165865.33, 82078.22, -0.11766675, -0.41014823, 63864.625, 63864.625, 0.001324133, 10.001012, 9.998355 
1.8553554e+3, 3.134818e+2, 331048.63, -685.9229, -97422.65, -0.19748624, -0.6367181, 357543.3, 357543.3, 0.0024247116, 10.002945, 9.998544 
1.8647839e+3, 1.2347916e+2, -1951159.0, -1704027.0, 9852.367, -0.21848388, -0.42117822, -1703634.8, 26221.514, 0.1378835, 9.997766, 10.001158 
1.8648128e+3, 1.3347422e+2, -1862504.1, -2008563.1, -104449.2, -0.012346588, -0.7080975, -1808085.8, -176176.05, 0.09301642, 9.999475, 9.99754 
1.8648411e+3, 1.4347693e+2, -1475809.8, -1418795.5, 92233.25, -0.03795538, -0.32104436, -1350764.4, 183119.55, 0.050644647, 9.999946, 10.000736 
1.8648739e+3, 1.5347679e+2, -1492415.0, -1312433.1, 80945.62, -0.03763955, -0.482919, -1281384.5, 154492.58, 0.01991141, 9.998876, 10.001281 
1.8649045e+3, 1.6347602e+2, -1599971.1, -1627686.6, -74722.836, -0.08328586, -0.55232877, -1537831.9, -199950.47, 0.0045744055, 9.998821, 9.998452 
1.8649326e+3, 1.73474e+2, -1257245.5, -1442995.4, -32947.566, -0.08089482, -0.5921449, -1251574.5, -11668.015, 0.0003360051, 10.000657, 9.998148 
1.864962e+3, 1.8347277e+2, -928951.44, -1026353.94, 60183.656, -0.02747852, -0.5964413, -900232.5, 241687.08, 0.00000050835786, 10.001323, 10.000031 
1.864993e+3, 1.9347347e+2, -974074.75, -936303.4, -8468.266, 0.059382156, -0.59819806, -934491.7, 109414.21, 0.0, 10.0000925, 10.000561 
1.8650235e+3, 2.0347327e+2, -1097182.5, -1224830.0, -2800.4226, 0.080873735, -0.5548642, -1097121.1, -151215.14, 0.0, 9.999765, 9.998074 
1.8650536e+3, 2.1347156e+2, -809672.1, -1065975.3, 46166.465, -0.022668973, -0.52852726, -801610.0, 46319.438, 0.0, 10.001204, 9.997795 
1.865085e+3, 2.2346982e+2, -558067.5, -824803.1, 89766.09, 0.0021570572, -0.4952721, -530671.75, 219278.23, 0.0, 10.001956, 9.998424 
1.865119e+3, 2.3346838e+2, -508264.1, -718343.4, 35283.613, 0.23395716, -0.52450925, -502496.44, 149465.28, 0.0, 10.001501, 9.9986925 
1.8651517e+3, 2.4346673e+2, -484950.13, -730979.06, 13689.503, 0.3239115, -0.5148748, -484190.78, 69785.35, 0.0, 10.001293, 9.998034 
1.8651812e+3, 2.5346485e+2, -338700.75, -602903.25, 14334.651, 0.12270461, -0.53473693, -337925.28, 118068.92, 0.0, 10.001603, 9.998086 
1.8652107e+3, 2.6346284e+2, -256761.16, -551837.1, -36318.574, 0.00820661, -0.51382565, -252356.72, 105657.96, 0.000000065173005, 10.001659, 9.997742 
1.8652405e+3, 2.7346104e+2, -205640.47, -473024.66, -36834.52, 0.08564663, -0.5009677, -200659.0, 59376.992, 0.000009433609, 10.001314, 9.997776 
1.8652704e+3, 2.834596e+2, -50549.316, -315374.75, -15165.935, 0.20423444, -0.41424936, -49683.63, 112367.11, 0.00011541111, 10.001565, 9.998063 
1.8652993e+3, 2.934591e+2, 297190.84, -30748.967, -20406.045, 0.23895253, -0.33578497, 298455.72, 362508.0, 0.0004954094, 10.003006, 9.99864 
1.8653259e+3, 3.034558e+2, 265229.66, -201672.56, 123878.47, -0.119551934, -0.4581113, 296061.16, 296061.16, 0.001249624, 10.003222, 9.99704 
1.865359e+3, 3.1345192e+2, 67340.81, -272420.38, -59534.016, -0.042854592, -0.55208206, 77470.54, 77470.54, 0.0022871566, 10.00171, 9.997276 
1.8747827e+3, 1.23449564e+2, -1855388.9, -1522470.4, 56042.203, -0.16237636, -0.36075968, -1513289.6, 216862.03, 0.14588223, 9.997711, 10.002651 
1.874812e+3, 1.3344768e+2, -1799178.8, -1877004.5, -35705.26, -0.08454971, -0.43835226, -1785279.9, -153108.47, 0.0986057, 9.999475, 9.9984455 
1.8748401e+3, 1.4344881e+2, -1541721.8, -1567608.8, 59989.44, -0.15983905, -0.21444343, -1493295.3, 40864.582, 0.053927336, 9.999996, 9.999655 
1.8748727e+3, 1.5344566e+2, -1592260.5, -1519055.4, 50767.918, -0.05393374, -0.536845, -1493071.0, -56885.94, 0.021407956, 9.99887, 9.999851 
1.874904e+3, 1.6344424e+2, -1497388.9, -1414260.6, -29306.398, -0.02545587, -0.6524815, -1404967.8, -66772.18, 0.0050250688, 9.9988165, 9.999921 
1.8749337e+3, 1.7344601e+2, -1118487.5, -1154409.4, 45340.707, -0.049288608, -0.50432163, -1087679.9, 152498.44, 0.00038988978, 10.000646, 10.00014 
1.874963e+3, 1.8344644e+2, -1023280.44, -1226035.4, 20420.586, -0.07325623, -0.40069947, -1021244.2, 120930.5, 0.000000733184, 10.001341, 9.998653 
1.8749915e+3, 1.9344485e+2, -1122096.0, -1234318.6, -48963.953, -0.10260747, -0.43155187, -1103736.3, -59545.266, 0.0, 10.0000515, 9.998538 
1.8750219e+3, 2.0344287e+2, -1037832.2, -1092061.1, 25018.48, -0.080359876, -0.48950616, -1028053.3, -81843.96, 0.0, 9.999715, 9.999013 
1.8750554e+3, 2.1344051e+2, -725731.9, -867270.56, 109359.086, 0.033651225, -0.66797185, -666241.06, 181987.38, 0.0, 10.001088, 9.99922 
1.875088e+3, 2.2343862e+2, -647542.25, -974336.7, 75133.305, 0.11077063, -0.69035804, -631096.0, 119150.2, 0.0, 10.001792, 9.997479 
1.8751197e+3, 2.3343797e+2, -623796.4, -922880.2, 28051.188, 0.13722423, -0.51157254, -621188.2, 31069.758, 0.0, 10.0013485, 9.997358 
1.8751511e+3, 2.4343659e+2, -504894.94, -733425.75, 15407.021, 0.14403911, -0.4042398, -503860.9, 50413.83, 0.0, 10.001123, 9.998101 
1.8751824e+3, 2.53434e+2, -343423.47, -570854.3, 41106.82, 0.080634534, -0.5222089, -336221.7, 120077.27, 0.0, 10.0014305, 9.998388 
1.8752126e+3, 2.6343194e+2, -232501.28, -468313.72, -51994.684, 0.022832585, -0.5495428, -221545.86, 136773.2, 0.00000004605578, 10.001501, 9.998401 
1.8752414e+3, 2.7343154e+2, -173383.3, -369141.4, -34684.867, 0.03003366, -0.46779957, -167419.45, 92906.17, 0.000008319171, 10.001151, 9.998571 
1.8752714e+3, 2.8343055e+2, -33613.34, -245710.34, 17487.031, 0.10467369, -0.4118304, -32181.232, 130152.74, 0.00010877432, 10.00141, 9.998624 
1.8753017e+3, 2.934279e+2, 284613.56, 1523.5155, 51109.254, 0.16763994, -0.58857435, 293558.25, 357909.16, 0.0004719854, 10.002763, 9.9989805 
1.8753292e+3, 3.0342472e+2, 149290.17, -385181.7, 60390.8, -0.14370885, -0.6656678, 156028.86, 156028.86, 0.0011856594, 10.0029745, 9.9959 
1.8753648e+3, 3.134247e+2, -32724.45, -365465.88, -12731.9, 0.32115474, -0.24742506, -32237.992, -32237.992, 0.0021480394, 10.001236, 9.996864 
1.8847813e+3, 1.2341813e+2, -1661213.3, -1440345.3, 110113.31, -0.12394385, -0.43474406, -1394828.5, 335627.25, 0.15411249, 9.999109, 10.002659 
1.8848114e+3, 1.3341843e+2, -1816552.1, -1844179.9, -87501.14, -0.05197969, -0.34354964, -1741781.3, -109326.75, 0.10442951, 9.999182, 9.998807 
1.8848398e+3, 1.434177e+2, -1666112.0, -1669340.6, -20114.64, -0.1439819, -0.3055872, -1647547.0, -113084.67, 0.057399224, 9.999314, 9.999278 
1.8848723e+3, 1.53415e+2, -1500370.5, -1504525.8, 27675.059, -0.014861288, -0.5507361, -1474695.3, -38209.71, 0.023018045, 9.999654, 9.99956 
1.8849038e+3, 1.6341405e+2, -1356826.8, -1296025.5, 17100.371, 0.03929267, -0.62024516, -1291546.0, 46945.746, 0.005521801, 9.999558, 10.000378 
1.8849336e+3, 1.7341636e+2, -1331569.8, -1193734.1, -21771.81, -0.039747052, -0.47677675, -1190377.0, 50090.08, 0.0004532519, 9.9988985, 10.000721 
1.884963e+3, 1.8341683e+2, -1397151.0, -1454504.8, -71451.14, -0.085375674, -0.38358274, -1348836.8, -206374.2, 0.0000010252129, 9.998979, 9.998222 
1.8849921e+3, 1.9341426e+2, -1068634.6, -1276275.9, -51798.664, -0.08230012, -0.45588496, -1056430.3, -11938.989, 0.0, 10.000704, 9.9979315 
1.885023e+3, 2.0341207e+2, -762754.25, -936723.06, 78374.3, -0.0355442, -0.5093552, -732654.0, 213859.1, 0.0, 10.001517, 9.999207 
1.8850568e+3, 2.1341087e+2, -731335.75, -824562.0, 64881.566, 0.07294307, -0.6035675, -698058.94, 150460.39, 0.0, 10.00088, 9.9996 
1.8850896e+3, 2.2340949e+2, -816282.3, -1046492.0, 19829.553, 0.14385861, -0.6013381, -814586.75, -64055.496, 0.0, 10.000608, 9.997543 
1.8851209e+3, 2.3340777e+2, -658843.94, -943751.3, 51295.99, 0.14107893, -0.52639014, -649889.8, 2663.0857, 0.0, 10.001118, 9.997328 
1.8851523e+3, 2.4340592e+2, -451841.0, -690242.6, 116780.484, 0.14109206, -0.46883687, -404169.06, 150404.81, 0.0, 10.001413, 9.998255 
1.8851839e+3, 2.5340405e+2, -339387.97, -551678.44, 110392.02, 0.11220289, -0.53560334, -292388.78, 164203.22, 0.0, 10.001375, 9.9985485 
1.8852144e+3, 2.6340258e+2, -230024.97, -414677.94, 16814.06, 0.08142243, -0.53462833, -228506.42, 130099.71, 0.000000017635879, 10.0013075, 9.998854 
1.8852428e+3, 2.7340242e+2, -98670.32, -272888.4, -6435.1567, 0.05735968, -0.47880805, -98432.945, 162175.19, 0.000007223604, 10.001419, 9.999095 
1.8852729e+3, 2.8340134e+2, 10164.957, -261564.55, 79827.71, 0.099839516, -0.44972253, 31880.959, 194498.25, 0.00010058898, 10.001899, 9.998267 
1.8853046e+3, 2.9339802e+2, 292226.13, -69374.69, 19217.975, 0.16964205, -0.64197963, 293244.63, 357888.3, 0.00044319447, 10.003134, 9.998319 
1.8853323e+3, 3.0339503e+2, 188365.67, -350962.3, -48909.13, -0.11357467, -0.65717494, 192765.13, 192765.13, 0.0011127426, 10.0031595, 9.996063 
1.8853663e+3, 3.133951e+2, 63036.793, -170824.6, -36212.43, 0.37629312, -0.27710438, 68515.766, 68515.766, 0.0020053464, 10.001247, 9.998197 
1.8947789e+3, 1.2338423e+2, -1769170.1, -1660270.4, 156958.69, -0.3238074, -0.73120654, -1548585.4, 182188.36, 0.16258536, 9.999206, 10.000907 
1.8948111e+3, 1.3338628e+2, -1844497.3, -1897335.0, -79210.43, -0.015107522, -0.43671137, -1787416.1, -154656.19, 0.110513955, 9.9991455, 9.998471 
1.89484e+3, 1.4338331e+2, -1638761.0, -1597183.8, -19272.957, -0.08149708, -0.615794, -1589624.4, -54830.902, 0.06108175, 9.999259, 9.999795 
1.8948725e+3, 1.5338476e+2, -1443895.0, -1385283.5, 50056.44, 0.0066099726, -0.52654314, -1356585.1, 80192.86, 0.024752133, 9.999642, 10.000397 
1.8949033e+3, 1.633855e+2, -1386484.3, -1369284.6, -9214.223, 0.0087497225, -0.45569104, -1365280.5, -26510.848, 0.0060684755, 9.999606, 9.999852 
1.8949318e+3, 1.7338504e+2, -1392585.0, -1314262.8, -40708.523, -0.12409844, -0.5110852, -1296936.9, -56164.063, 0.0005270964, 9.99887, 9.99991 
1.8949616e+3, 1.8338387e+2, -1356193.8, -1369509.3, -28016.73, -0.14763883, -0.5585964, -1334054.6, -191270.6, 0.0000013718216, 9.9989805, 9.998801 
1.8949941e+3, 1.9338185e+2, -1020366.94, -1160814.4, 20484.861, 0.030853238, -0.6592627, -1017440.1, 27365.129, 0.0, 10.000642, 9.998751 
1.8950261e+3, 2.0338096e+2, -807619.7, -1024483.25, 59786.33, 0.11504426, -0.6041767, -792229.6, 154586.17, 0.0, 10.001479, 9.99863 
1.8950573e+3, 2.1338254e+2, -800139.6, -948525.1, 46862.36, 0.027709601, -0.34350815, -786579.06, 62223.91, 0.0, 10.000785, 9.998802 
1.8950891e+3, 2.2338201e+2, -769420.75, -914917.25, 23594.684, 0.024915528, -0.25126654, -765690.1, -14881.377, 0.0, 10.000459, 9.99852 
1.8951222e+3, 2.333778e+2, -591674.5, -766508.3, 81690.14, 0.15494938, -0.5545902, -559446.1, 93400.14, 0.0, 10.000959, 9.998617 
1.8951547e+3, 2.4337493e+2, -462350.4, -678858.25, 108929.83, 0.21321106, -0.6810861, -417031.5, 137840.94, 0.0, 10.001256, 9.998417 
1.8951859e+3, 2.533749e+2, -364137.75, -564531.4, 118215.45, 0.14170355, -0.5614114, -309369.1, 147505.17, 0.0, 10.001209, 9.998541 
1.8952161e+3, 2.6337445e+2, -235472.86, -394135.06, 11234.214, 0.09423553, -0.46549937, -234681.36, 124197.36, 0.0000000071100716, 10.001163, 9.999067 
1.8952446e+3, 2.733735e+2, -103538.45, -241313.05, 10092.74, 0.07417464, -0.51931316, -102803.03, 158082.39, 0.0000064443307, 10.00125, 9.999387 
1.8952747e+3, 2.833719e+2, -93425.984, -446863.3, 106090.734, 0.07424377, -0.51131964, -64026.406, 98874.625, 0.0000894982, 10.001749, 9.997075 
1.8953073e+3, 2.9336897e+2, 132476.0, -335402.9, 88749.195, 0.120607555, -0.517429, 148744.64, 213678.05, 0.00040204253, 10.002841, 9.996638 
1.895335e+3, 3.0336648e+2, 220087.23, -205934.11, -111834.11, -0.19259046, -0.42395115, 247660.05, 247660.05, 0.0010225481, 10.00284, 9.997202 
1.8953642e+3, 3.133631e+2, 138725.8, 104414.99, 1021.55084, 0.00014961227, -0.5711229, 138756.19, 138756.19, 0.0018580131, 10.000792, 10.000296 
1.9047779e+3, 1.2334948e+2, -1996439.8, -1818319.5, -8320.933, -0.26194775, -0.79994357, -1817931.6, -86819.445, 0.1713416, 9.997857, 10.00031 
1.9048096e+3, 1.333525e+2, -1917317.4, -1837754.5, -234622.9, -0.015461869, -0.50107235, -1639564.4, -6476.446, 0.11689223, 9.998264, 9.999291 
1.9048394e+3, 1.433496e+2, -1717525.8, -1592596.8, -100240.305, -0.00806601, -0.72363424, -1536951.4, -1830.8834, 0.06499328, 9.998528, 10.000182 
1.9048718e+3, 1.5335286e+2, -1513433.1, -1352500.5, -68924.13, 0.021016164, -0.5137932, -1327017.0, 110073.16, 0.026617203, 9.998864, 10.001008 
1.9049025e+3, 1.6335446e+2, -1454337.1, -1398692.9, -117903.19, -0.000173965, -0.3902064, -1305373.6, 33700.844, 0.0066676727, 9.99912, 9.9998865 
1.904931e+3, 1.7335308e+2, -1271576.1, -1256742.9, -109057.65, -0.1115934, -0.5352236, -1154850.0, 86236.07, 0.0006122247, 9.999715, 9.999887 
1.9049613e+3, 1.833517e+2, -1149880.6, -1202592.8, -15019.981, -0.11404071, -0.6277087, -1145901.3, -2803.0234, 0.0000017786746, 10.000114, 9.9994 
1.9049947e+3, 1.933507e+2, -1008585.25, -1077375.6, 14079.338, 0.058644384, -0.6922263, -1005815.2, 39292.492, 0.0, 10.000386, 9.999453 
1.9050273e+3, 2.0335047e+2, -950376.56, -1092875.4, 39478.95, 0.14485727, -0.6113073, -940170.06, 6941.797, 0.0, 10.000515, 9.998614 
1.9050582e+3, 2.1335179e+2, -842318.25, -991507.2, 48078.773, 0.06680426, -0.35881758, -828166.44, 20937.79, 0.0, 10.000591, 9.998601 
1.9050899e+3, 2.2335128e+2, -680094.9, -818688.8, 80260.21, 0.059171066, -0.27239907, -643355.2, 107755.58, 0.0, 10.000835, 9.9990015 
1.9051233e+3, 2.3334771e+2, -474933.78, -645446.0, 74338.17, 0.15645102, -0.5729026, -447075.94, 206064.02, 0.0, 10.001475, 9.999203 
1.905156e+3, 2.4334541e+2, -391555.34, -604162.44, 65892.38, 0.20919174, -0.6898532, -372789.9, 182369.45, 0.0, 10.001594, 9.998753 
1.905187e+3, 2.5334564e+2, -381396.53, -539001.5, 68579.3, 0.16602929, -0.5747834, -355733.97, 101425.516, 0.0, 10.000954, 9.998831 
1.9052175e+3, 2.633452e+2, -280228.75, -425716.8, 18619.16, 0.13331996, -0.49115816, -277883.72, 81280.14, 0.000000016068412, 10.000907, 9.998968 
1.9052462e+3, 2.7334386e+2, 10813.441, -213542.7, -31096.861, 0.07941009, -0.56430763, 15043.852, 276217.66, 0.000006020835, 10.002129, 9.9991665 
1.9052765e+3, 2.8334197e+2, 29194.775, -365312.56, 86850.266, 0.05728492, -0.578116, 47468.316, 210660.39, 0.00007835106, 10.002493, 9.99728 
1.9053094e+3, 2.933396e+2, -42583.86, -386244.66, 148797.5, 0.12177907, -0.5540121, 12888.147, 78108.78, 0.00035541307, 10.001493, 9.996933 
1.9053379e+3, 3.033381e+2, 34350.652, -286523.13, 33512.33, -0.09370773, -0.38475057, 37813.34, 37813.34, 0.0009231034, 10.001538, 9.997275 
1.905367e+3, 3.1333312e+2, 504807.47, 250294.53, -7496.2236, 0.07703459, -0.68594015, 505028.06, 505028.06, 0.0017128557, 10.003387, 10.00008 
1.9147776e+3, 1.23315044e+2, -1958714.8, -1714987.4, -39342.777, -0.11793603, -0.5024009, -1708794.0, 22667.072, 0.18042894, 9.997752, 10.001086 
1.9148068e+3, 1.3331681e+2, -1792295.3, -1570558.9, -207534.38, -0.15026352, -0.5496147, -1446135.3, 187305.95, 0.12358676, 9.998219, 10.001273 
1.9148381e+3, 1.433164e+2, -1688658.9, -1545245.0, -96477.2, -0.027408175, -0.63979113, -1496744.9, 38700.65, 0.069141634, 9.998576, 10.000499 
1.9148698e+3, 1.533191e+2, -1493364.5, -1307550.4, -50827.82, -0.062039725, -0.5145836, -1294555.6, 142867.5, 0.028615344, 9.998838, 10.00134 
1.914901e+3, 1.6332094e+2, -1402304.3, -1296781.6, -109358.38, -0.0914128, -0.41894805, -1228122.1, 111284.37, 0.0073205116, 9.999147, 10.000573 
1.9149312e+3, 1.733206e+2, -1223096.4, -1151119.9, -81169.586, -0.08050851, -0.5347177, -1098318.1, 143087.33, 0.00070924795, 9.999694, 10.000621 
1.9149621e+3, 1.8332034e+2, -1102837.5, -1113432.9, -11228.0625, -0.07115953, -0.58133346, -1095720.1, 47684.582, 0.0000023137907, 10.000143, 10.000004 
1.914994e+3, 1.9332093e+2, -976735.56, -998319.5, 31660.268, -0.06699599, -0.543503, -954078.44, 91319.414, 0.0, 10.000326, 10.000029 
1.9150263e+3, 2.0332058e+2, -927665.75, -1033937.0, 35672.918, -0.027979666, -0.52586204, -916801.75, 30599.75, 0.0, 10.000454, 9.99905 
1.9150594e+3, 2.1331877e+2, -830511.7, -941027.0, 57525.84, 0.10231968, -0.62902504, -806003.25, 43418.652, 0.0, 10.000476, 9.999001 
1.915092e+3, 2.233175e+2, -703620.1, -830126.44, 95794.84, 0.15932164, -0.6415532, -652079.5, 99356.11, 0.0, 10.0006695, 9.999007 
1.915124e+3, 2.333176e+2, -506388.5, -665809.56, 109717.84, 0.07489471, -0.5665483, -450482.75, 202950.33, 0.0, 10.001289, 9.999152 
1.915156e+3, 2.4331719e+2, -388074.38, -555184.4, 40707.2, 0.035741106, -0.5088314, -378685.78, 176750.81, 0.0, 10.001404, 9.999185 
1.9151874e+3, 2.5331616e+2, -365432.66, -469282.7, 52697.926, 0.09596819, -0.5696361, -343376.06, 114071.92, 0.0, 10.000802, 9.99938 
1.9152182e+3, 2.6331505e+2, -328069.84, -498419.56, 41420.09, 0.10424525, -0.5713366, -318532.6, 40926.836, 0.000000038925435, 10.000782, 9.998536 
1.9152474e+3, 2.733136e+2, -61314.742, -320210.84, 27808.928, -0.019581093, -0.59546936, -58361.38, 203110.58, 0.0000054500297, 10.001947, 9.99852 
1.9152778e+3, 2.8331164e+2, 94641.69, -191155.42, 50327.438, -0.073066294, -0.62893903, 103245.11, 266734.9, 0.00006657065, 10.002322, 9.998561 
1.9153106e+3, 2.933098e+2, 47118.523, -151260.48, 124307.56, 0.065428585, -0.7180364, 106960.234, 172467.61, 0.00030456812, 10.001294, 9.998641 
1.9153409e+3, 3.0330998e+2, -43360.246, -413943.9, 69829.36, 0.037009217, -0.45146868, -30638.94, -30638.94, 0.00081260083, 10.001375, 9.996476 
1.9153707e+3, 3.1330702e+2, 289945.16, -80054.016, 88295.81, 0.09074051, -0.43920904, 309935.8, 309935.8, 0.0015525428, 10.00291, 9.998017 
1.9247764e+3, 1.23281926e+2, -1912021.5, -1618242.0, 100853.266, 0.009699638, -0.35867098, -1586952.1, 144837.19, 0.18987963, 9.997652, 10.0019865 
1.9248042e+3, 1.3328394e+2, -1868221.8, -1495318.8, -81949.43, -0.1642814, -0.5020292, -1478104.3, 155658.3, 0.13060497, 9.997134, 10.002339 
1.9248366e+3, 1.4328311e+2, -1933334.8, -1665574.0, 18568.883, 0.060248747, -0.6893794, -1664292.4, -128523.79, 0.07352615, 9.996912, 10.000462 
1.9248681e+3, 1.53286e+2, -1749915.5, -1439267.1, 11986.584, -0.03528311, -0.53624606, -1438805.4, -1059.2369, 0.030745408, 9.997135, 10.001226 
1.9248992e+3, 1.6328792e+2, -1610748.6, -1368542.1, -45014.41, -0.08757192, -0.43422905, -1360446.8, -20717.291, 0.008026891, 9.997617, 10.000806 
1.9249307e+3, 1.7328769e+2, -1321069.8, -1167110.1, -64281.973, -0.05511877, -0.5685932, -1143800.1, 97926.89, 0.0008187495, 9.998893, 10.000897 
1.9249621e+3, 1.8328784e+2, -1189987.3, -1122615.5, -41987.54, -0.034527715, -0.6046402, -1102471.1, 41250.824, 0.0000031359323, 9.999404, 10.000295 
1.9249934e+3, 1.932892e+2, -1172806.5, -1055462.6, -38280.19, -0.06695047, -0.52097034, -1044079.06, 1628.4045, 0.0, 9.998818, 10.000358 
1.9250257e+3, 2.0328914e+2, -1130118.5, -1109692.0, -1726.7253, -0.039539304, -0.5031931, -1109547.1, -161838.81, 0.0, 9.998979, 9.99924 
1.9250599e+3, 2.1328668e+2, -767508.1, -889843.94, -7295.289, 0.09790793, -0.68782556, -767074.6, 82660.86, 0.0, 10.000835, 9.999172 
1.9250931e+3, 2.232856e+2, -542633.8, -688265.8, 8023.868, 0.16985856, -0.71515995, -542193.06, 209554.58, 0.0, 10.001515, 9.999567 
1.9251248e+3, 2.3328725e+2, -648186.0, -662807.94, 46389.5, 0.08906168, -0.54666257, -608534.94, 45195.242, 0.0, 10.000006, 9.999794 
1.9251564e+3, 2.4328764e+2, -661794.06, -662262.06, 47585.223, 0.048672993, -0.45549303, -614442.25, -58716.227, 0.0, 9.999415, 9.999406 
1.9251877e+3, 2.532862e+2, -355881.38, -458635.94, 19245.67, 0.070543446, -0.56746143, -352395.0, 105347.336, 0.0, 10.000822, 9.9994545 
1.9252193e+3, 2.632851e+2, -179945.67, -402579.6, 31503.557, 0.087626286, -0.5820965, -175573.66, 184180.61, 0.000000047147957, 10.0016985, 9.99875 
1.9252497e+3, 2.732845e+2, -100985.7, -307024.16, 51261.332, 0.036856163, -0.54675984, -88936.75, 172821.75, 0.0000044268, 10.001543, 9.998802 
1.9252807e+3, 2.8328294e+2, -4811.118, -199698.33, 82390.72, 0.020799654, -0.57050246, 25352.045, 189123.61, 0.000054025306, 10.001496, 9.998886 
1.9253124e+3, 2.9328072e+2, 186118.03, -54458.543, 34824.54, 0.10046864, -0.72506475, 191057.61, 256848.73, 0.00025235597, 10.002108, 9.998919 
1.9253431e+3, 3.032799e+2, 193100.28, -241935.81, 35845.17, 0.062377926, -0.59486586, 196033.98, 196033.98, 0.000694764, 10.002742, 9.997005 
1.925374e+3, 3.132787e+2, 339973.9, -27957.281, 91925.94, 0.12393135, -0.4471817, 361662.7, 361662.7, 0.0013677371, 10.003089, 9.998312 
1.9347732e+3, 1.2324791e+2, -1816814.8, -1471903.8, -116744.92, -0.12323431, -0.62455153, -1436103.9, 296014.34, 0.1997211, 9.997738, 10.003203 
1.9348015e+3, 1.3325392e+2, -1872422.0, -1494236.9, -88077.17, -0.16546205, -0.3667327, -1474730.4, 159320.23, 0.13795441, 9.997084, 10.002387 
1.9348346e+3, 1.4325014e+2, -1959781.6, -1718308.4, 18402.137, 0.14283256, -0.8454821, -1716914.0, -180828.47, 0.07814733, 9.9969, 10.000106 
1.9348659e+3, 1.532537e+2, -1796342.4, -1531476.6, 30889.416, 0.021808023, -0.56717783, -1527921.9, -89865.14, 0.033007, 9.997111, 10.000609 
1.9348972e+3, 1.6325536e+2, -1623988.0, -1399107.1, -11610.892, -0.08425075, -0.44738767, -1398509.3, -58465.555, 0.008786739, 9.997627, 10.000594 
1.9349292e+3, 1.7325434e+2, -1338286.1, -1197740.9, -8519.476, -0.10274502, -0.6395386, -1197226.4, 44824.48, 0.00094156526, 9.998866, 10.000706 
1.9349611e+3, 1.8325414e+2, -1184821.3, -1114844.9, -59805.824, -0.09507029, -0.70130545, -1080544.5, 63506.195, 0.0000044945964, 9.999415, 10.000342 
1.934993e+3, 1.9325565e+2, -1174562.0, -1047753.44, -53691.12, -0.021925172, -0.6122083, -1028074.4, 17961.04, 0.0, 9.998769, 10.000436 
1.9350255e+3, 2.0325617e+2, -1140630.4, -1121395.6, 44026.113, 0.015128773, -0.5369278, -1085948.6, -137916.58, 0.0, 9.998929, 9.999187 
1.9350596e+3, 2.1325536e+2, -797440.7, -917299.8, 70957.47, -0.014257279, -0.54472476, -764491.25, 85555.1, 0.0, 10.000683, 9.999062 
1.935093e+3, 2.2325522e+2, -499618.28, -547294.2, -36333.71, 0.00010341161, -0.51452464, -480000.66, 272049.47, 0.0, 10.0013, 10.000635 
1.935125e+3, 2.3325658e+2, -576404.1, -477223.2, -5193.0186, 0.105676875, -0.506109, -476952.03, 177079.7, 0.0, 9.999859, 10.001132 
1.9351567e+3, 2.4325696e+2, -679124.2, -672322.75, 69687.09, 0.13477555, -0.49653414, -605953.44, -49927.258, 0.0, 9.999296, 9.999399 
1.9351882e+3, 2.5325575e+2, -398645.56, -510196.88, 80001.04, 0.012224865, -0.55987835, -356896.4, 101145.89, 0.0, 10.000668, 9.999174 
1.93522e+3, 2.632552e+2, -158571.55, -309690.47, 22755.71, -0.007723592, -0.5275403, -155219.33, 204829.98, 0.00000001782158, 10.001496, 9.999484 
1.9352524e+3, 2.7325633e+2, -61279.215, -174784.16, 50141.133, 0.15202346, -0.4175122, -42302.063, 219733.39, 0.0000033385966, 10.00135, 9.999793 
1.9352843e+3, 2.832558e+2, -62679.875, -297692.53, 76145.64, 0.21630967, -0.3721884, -40165.15, 123872.81, 0.00004416703, 10.001381, 9.998277 
1.9353147e+3, 2.9325223e+2, 94546.35, -194134.44, 69679.2, 0.09994566, -0.57506424, 110484.91, 176557.14, 0.00021030295, 10.001898, 9.998057 
1.9353442e+3, 3.0324817e+2, 253492.13, -56938.813, 36758.95, -0.13544428, -0.7785401, 257785.47, 257785.47, 0.0005914213, 10.002483, 9.998404 
1.9353749e+3, 3.1324723e+2, 430266.1, 273022.34, 84659.96, -0.1162678, -0.79918694, 467180.8, 467180.8, 0.0011860685, 10.002652, 10.000569 
1.9447708e+3, 1.2321629e+2, -1724053.9, -1330388.6, -52198.12, -0.11652002, -0.8620856, -1323585.0, 408837.75, 0.20999403, 9.997746, 10.004441 
1.9447993e+3, 1.3322347e+2, -1820941.6, -1655181.9, -72989.57, -0.13947369, -0.3090325, -1627623.8, 6722.154, 0.14565058, 9.998309, 10.000541 
1.9448322e+3, 1.4321782e+2, -1670332.6, -1608082.0, -11806.113, 0.11521856, -0.8672438, -1605918.1, -69517.18, 0.083007626, 9.998993, 9.999864 
1.9448642e+3, 1.5322079e+2, -1458233.1, -1388066.1, 9312.861, 0.046078086, -0.6335171, -1386851.1, 51524.418, 0.03539992, 9.999493, 10.0004635 
1.944896e+3, 1.6322206e+2, -1403499.9, -1319906.9, -3691.6104, -0.02912541, -0.5352339, -1319744.1, 20621.51, 0.009600047, 9.99924, 10.00037 
1.944928e+3, 1.7322175e+2, -1468581.6, -1280868.0, -18879.885, -0.06358273, -0.6335692, -1278987.9, -36619.332, 0.0010784023, 9.99806, 10.000518 
1.94496e+3, 1.8322179e+2, -1435407.0, -1263008.4, -48711.414, -0.049435113, -0.65044415, -1250197.0, -105828.734, 0.0000066792873, 9.997816, 10.000095 
1.9449924e+3, 1.9322228e+2, -1064910.1, -1023301.7, -78842.58, 0.026076589, -0.63664347, -962564.7, 83798.96, 0.0, 9.999652, 10.000176 
1.9450253e+3, 2.0322265e+2, -933831.25, -984220.5, 10417.08, 0.059155542, -0.5782812, -931762.6, 16599.73, 0.0, 10.000194, 9.999516 
1.9450592e+3, 2.1322311e+2, -1099397.8, -1015151.44, 57778.836, -0.007252794, -0.49808216, -985771.06, -135407.73, 0.0, 9.998398, 9.999493 
1.9450924e+3, 2.2322358e+2, -978786.56, -764765.44, -19051.063, -0.012898484, -0.43768254, -763082.9, -10721.966, 0.0, 9.99794, 10.000762 
1.9451249e+3, 2.3322423e+2, -507233.25, -438264.34, -88954.336, 0.09906594, -0.50701845, -377344.13, 277005.88, 0.0, 10.0002985, 10.001196 
1.9451572e+3, 2.4322449e+2, -355343.3, -499882.44, -57858.42, 0.1533786, -0.5187615, -335035.94, 221310.11, 0.0, 10.00147, 9.9995365 
1.9451891e+3, 2.5322402e+2, -419735.84, -508091.38, -41748.16, 0.057970714, -0.5163827, -403130.53, 55224.39, 0.0, 10.000468, 9.999288 
1.9452213e+3, 2.6322374e+2, -318923.84, -341323.66, -59057.957, 0.04362594, -0.4871863, -270013.2, 90346.23, 0.000000002142629, 10.00019, 9.999896 
1.945254e+3, 2.7322423e+2, -4568.815, -108603.58, -85378.29, 0.17967829, -0.47148618, 43390.098, 305739.44, 0.0000030022966, 10.001533, 10.000183 
1.9452864e+3, 2.832239e+2, 49734.957, -246727.6, -64467.313, 0.26021084, -0.42725322, 63146.95, 227496.98, 0.00003904193, 10.00217, 9.998251 
1.945317e+3, 2.9322177e+2, 22421.646, -236175.81, -57698.28, 0.1702524, -0.47359246, 34711.24, 101084.29, 0.0001845939, 10.001418, 9.998006 
1.945346e+3, 3.032173e+2, 99291.625, -113315.53, -25869.934, -0.12900417, -0.7271471, 102394.19, 102394.19, 0.0005147017, 10.001364, 9.998541 
1.9453774e+3, 3.1321633e+2, 543418.94, 347303.72, -139800.55, -0.13236156, -0.7417613, 616122.8, 616122.8, 0.0010261646, 10.003314, 10.00077 
1.9547687e+3, 1.23189576e+2, -1636947.5, -1180411.0, -51447.297, -0.16194157, -0.82882124, -1174685.1, 557992.75, 0.22070916, 9.997851, 10.005774 
1.9547977e+3, 1.3319258e+2, -2073334.9, -2200648.3, -34885.8, -0.16685508, -0.33468035, -2064402.4, -429753.3, 0.15369554, 9.998388, 9.99676 
1.9548288e+3, 1.4318612e+2, -1663856.8, -1619275.4, -352.85297, -0.13964534, -0.7584592, -1619272.5, -82557.32, 0.08810495, 9.999099, 9.999734 
1.9548629e+3, 1.5318716e+2, -1432751.5, -1345876.4, 32258.734, -0.0535405, -0.7433607, -1335208.1, 103495.5, 0.037922986, 9.999528, 10.0007515 
1.9548956e+3, 1.6318803e+2, -1405251.9, -1340436.0, -47439.71, -0.02948763, -0.69503367, -1315391.4, 25303.934, 0.010466628, 9.99931, 10.000196 
1.9549267e+3, 1.7318997e+2, -1484741.0, -1322089.8, -58990.67, -0.015071218, -0.5436003, -1302947.6, -60267.547, 0.0012294218, 9.998081, 10.000229 
1.9549586e+3, 1.8319075e+2, -1468604.4, -1336125.1, -5553.365, 0.004377515, -0.4482911, -1335892.8, -191217.33, 0.000009908067, 9.997842, 9.9995775 
1.9549921e+3, 1.9318913e+2, -1113796.9, -1112959.1, -1070.5327, 0.0051927296, -0.5863667, -1112228.5, -65536.234, 0.0, 9.999601, 9.999586 
1.9550252e+3, 2.031884e+2, -901723.6, -894248.44, -43713.113, 0.0058072903, -0.6288494, -854113.44, 94587.12, 0.0, 10.000095, 10.000178 
1.9550578e+3, 2.1318993e+2, -1047859.94, -880052.25, -4415.3027, 0.032140408, -0.53886896, -879936.1, -29249.314, 0.0, 9.998283, 10.000471 
1.9550908e+3, 2.231907e+2, -1048558.0, -881499.56, 37734.88, 0.031797398, -0.4770847, -873371.5, -120691.36, 0.0, 9.99781, 10.000027 
1.9551241e+3, 2.3319033e+2, -611943.75, -612724.1, 11129.813, -0.008679574, -0.53963864, -601197.3, 53486.38, 0.0, 10.000124, 10.000077 
1.9551574e+3, 2.4319029e+2, -375179.1, -493555.84, -82590.6, 0.0038182128, -0.5186907, -332758.06, 223926.86, 0.0, 10.001262, 9.99968 
1.9551902e+3, 2.531911e+2, -408713.63, -448285.06, -71249.32, 0.11830911, -0.43425745, -354553.8, 104125.91, 0.0, 10.000323, 9.99976 
1.9552226e+3, 2.631909e+2, -332158.16, -344427.72, -33983.125, 0.14371398, -0.4279883, -303760.5, 56921.01, 0.00000003752054, 10.000071, 9.999941 
1.9552542e+3, 2.7318877e+2, -34110.902, -127809.42, -21503.33, 0.037666373, -0.672794, -29411.678, 233284.0, 0.0000033251551, 10.001351, 10.000138 
1.9552866e+3, 2.8318793e+2, 31713.896, -223749.67, -93182.56, 0.05621321, -0.6898612, 62090.93, 226792.58, 0.000036409245, 10.001908, 9.998535 
1.9553189e+3, 2.931897e+2, 37371.55, -163949.42, -74967.03, 0.21880624, -0.38631296, 62220.383, 128910.26, 0.00016708692, 10.001256, 9.998573 
1.9553481e+3, 3.0318737e+2, 11932.735, -273087.63, 3818.6338, -0.06998769, -0.42260742, 11983.888, 11983.888, 0.00045037686, 10.001248, 9.997511 
1.9553828e+3, 3.131854e+2, 379135.56, 99570.3, -8334.374, 0.027492529, -0.39813897, 379383.8, 379383.8, 0.000871658, 10.002936, 9.999237 
1.9647668e+3, 1.2315911e+2, -1777685.3, -1254117.8, -190366.1, -0.08477342, -0.7406639, -1192219.6, 540757.4, 0.23177752, 9.996903, 10.005637 
1.9647959e+3, 1.3315937e+2, -2032346.9, -2264192.3, -101561.28, -0.1970209, -0.44702175, -1994150.3, -359173.47, 0.1620495, 9.999076, 9.995973 
1.9648279e+3, 1.4315414e+2, -1579500.9, -1603867.5, 18237.932, -0.1769634, -0.68724865, -1569751.3, -32720.191, 0.093428105, 9.999817, 9.999476 
1.9648622e+3, 1.5315458e+2, -1519733.8, -1397279.8, -7207.981, -0.05377922, -0.71848315, -1396856.9, 42167.266, 0.04057487, 9.999007, 10.000614 
1.964895e+3, 1.6315521e+2, -1524156.4, -1427029.0, -96943.6, 0.028980097, -0.67503476, -1367165.4, -26147.393, 0.011385711, 9.99863, 9.999926 
1.964926e+3, 1.7315726e+2, -1329623.9, -1277083.5, -125165.41, 0.047993887, -0.4868324, -1175461.1, 67541.664, 0.0013940044, 9.999287, 9.999954 
1.9649577e+3, 1.8315786e+2, -1257531.8, -1244337.6, -25005.89, 0.06946774, -0.3896979, -1225073.3, -80073.1, 0.000014255441, 9.999321, 9.9995 
1.9649914e+3, 1.9315572e+2, -1311903.9, -1212318.8, 10526.838, 0.06753183, -0.57707447, -1211218.1, -164196.78, 0.0, 9.998258, 9.99955 
1.9650249e+3, 2.0315485e+2, -1143855.9, -973762.9, -6925.171, 0.07032009, -0.64534646, -973481.44, -24451.707, 0.0, 9.99826, 10.000524 
1.9650577e+3, 2.131569e+2, -703268.6, -664292.5, -22311.266, 0.087696634, -0.54767, -654156.6, 196852.28, 0.0, 10.000423, 10.000926 
1.9650908e+3, 2.231578e+2, -576358.44, -715993.44, 19994.623, 0.07961135, -0.477529, -573551.8, 179448.73, 0.0, 10.001326, 9.99947 
1.965124e+3, 2.331564e+2, -704793.25, -752006.56, -102.57422, -0.010278329, -0.5600902, -704793.0, -49776.21, 0.0, 9.999874, 9.999249 
1.9651572e+3, 2.4315576e+2, -664062.1, -632824.8, -76055.9, -0.01818761, -0.55187154, -570800.44, -13774.837, 0.0, 9.999258, 9.999694 
1.9651902e+3, 2.5315708e+2, -387383.03, -420980.53, -104172.516, 0.09643222, -0.43258983, -298663.5, 160350.73, 0.0, 10.00038, 9.9999275 
1.965223e+3, 2.631571e+2, -226047.88, -301690.3, -61570.215, 0.12841812, -0.40485057, -191610.28, 169402.72, 0.00000006167767, 10.000853, 9.999852 
1.9652547e+3, 2.7315453e+2, -230822.73, -238648.22, -83619.39, 0.022146119, -0.67967355, -151024.6, 112007.87, 0.000003603985, 10.000094, 9.999968 
1.9652875e+3, 2.8315318e+2, -186251.6, -306306.38, -117655.79, 0.042564686, -0.74527293, -114195.02, 50848.57, 0.00003430298, 10.000316, 9.998733 
1.9653203e+3, 2.9315498e+2, 255730.66, -29634.488, -132533.34, 0.16186288, -0.45460847, 307787.4, 374817.5, 0.00015136057, 10.002619, 9.998851 
1.9653504e+3, 3.0315426e+2, 393396.1, -117423.28, -34653.047, -0.11063347, -0.34438887, 395736.16, 395736.16, 0.0003913985, 10.003995, 9.997259 
1.9653864e+3, 3.131523e+2, 285678.88, -137102.92, -31485.887, 0.11718212, -0.2526443, 288010.88, 288010.88, 0.0007264296, 10.003079, 9.997562 
1.9747657e+3, 1.2312527e+2, -1906794.0, -1502913.0, -17066.338, 0.059761, -0.5658714, -1502193.1, 231123.88, 0.24301729, 9.996984, 10.003397 
1.9747941e+3, 1.3312382e+2, -1871975.8, -1938317.8, -25971.17, -0.30280817, -0.65008026, -1863018.3, -227689.3, 0.17062773, 9.999097, 9.998205 
1.9748287e+3, 1.4312194e+2, -1594467.4, -1654962.0, -7107.1084, -0.09571711, -0.660757, -1593643.6, -56295.934, 0.09895461, 9.999889, 9.999097 
1.9748616e+3, 1.5312313e+2, -1563028.1, -1493842.3, -33582.16, -0.031192765, -0.55515105, -1480222.8, -40885.277, 0.04335473, 9.999034, 9.999935 
1.9748941e+3, 1.6312365e+2, -1539511.6, -1466238.9, -89615.086, 0.05442566, -0.46741897, -1406060.5, -64726.61, 0.012356995, 9.99867, 9.999635 
1.9749254e+3, 1.7312352e+2, -1347427.1, -1309326.0, -91744.305, 0.054936945, -0.47057733, -1234675.3, 8662.537, 0.0015709848, 9.999275, 9.999737 
1.9749571e+3, 1.8312296e+2, -1231030.4, -1191781.5, -62174.746, 0.06144894, -0.4903752, -1146207.6, -863.42773, 0.000019593592, 9.99933, 9.999861 
1.9749904e+3, 1.9312194e+2, -1282778.6, -1141243.6, -22356.691, 0.12173068, -0.6133341, -1137796.1, -90444.06, 0.0, 9.998213, 10.00006 
1.975024e+3, 2.0312189e+2, -1155858.5, -976858.06, 47979.094, 0.14672226, -0.6306302, -964808.9, -15457.945, 0.0, 9.99817, 10.000543 
1.9750582e+3, 2.1312413e+2, -733734.4, -691427.75, 67386.375, 0.087465666, -0.504092, -641952.56, 209375.84, 0.0, 10.000268, 10.0008135 
1.9750918e+3, 2.2312482e+2, -637013.3, -798847.1, -21266.15, 0.035835788, -0.4293559, -634265.44, 119057.1, 0.0, 10.001134, 9.998995 
1.9751243e+3, 2.3312242e+2, -760280.2, -840941.2, -47121.06, 0.022478247, -0.5628296, -738586.94, -83237.04, 0.0, 9.999756, 9.998696 
1.9751568e+3, 2.4312095e+2, -696689.5, -670997.9, -56949.117, -0.002735316, -0.59761435, -625463.75, -68096.445, 0.0, 9.999128, 9.999497 
1.975189e+3, 2.5312203e+2, -414575.66, -443122.75, -50943.11, -0.07544893, -0.49149594, -375944.25, 83413.586, 0.0, 10.0002365, 9.999844 
1.9752215e+3, 2.631224e+2, -278998.1, -365892.84, -89121.29, -0.097798645, -0.40889594, -223297.7, 138056.11, 0.000000055759365, 10.000655, 9.999504 
1.9752552e+3, 2.7312133e+2, -273436.84, -294806.0, -102286.87, 0.038578246, -0.50093734, -181278.02, 82083.234, 0.0000036492006, 9.999965, 9.999636 
1.9752885e+3, 2.8311965e+2, -203944.34, -317719.22, -65915.16, 0.10650134, -0.5799502, -173762.9, -8387.368, 0.00003270768, 10.000195, 9.998722 
1.9753206e+3, 2.9311782e+2, 234219.77, -21100.416, -25673.518, -0.08753914, -0.66400653, 236775.75, 304168.53, 0.00013942833, 10.00239, 9.999021 
1.9753519e+3, 3.031184e+2, 325444.56, -146853.44, -64386.68, -0.37286678, -0.44341353, 334064.84, 334064.84, 0.00034788088, 10.003534, 9.997276 
1.975391e+3, 3.1311694e+2, 102855.36, -415348.1, 38521.34, 0.22063214, -0.2903292, 105703.25, 105703.25, 0.00061963446, 10.002664, 9.995846 
1.9847637e+3, 1.2309102e+2, -1926648.4, -1646797.0, 113772.32, 0.15693234, -0.47910744, -1606380.4, 127276.336, 0.25424254, 9.997623, 10.001866 
1.9847925e+3, 1.3309059e+2, -1728391.3, -1684087.6, 14055.496, -0.36674193, -0.6063898, -1680004.8, -44348.117, 0.17932345, 9.999295, 9.999853 
1.9848302e+3, 1.4308973e+2, -1621274.0, -1687849.6, -37257.55, 0.0709693, -0.6018653, -1604599.8, -66935.43, 0.104643695, 9.999791, 9.998924 
1.9848615e+3, 1.5309039e+2, -1536477.5, -1526663.1, -75640.85, 0.049323022, -0.50628006, -1455770.4, -16109.797, 0.046255346, 9.999414, 9.999528 
1.9848934e+3, 1.6309045e+2, -1473753.6, -1441039.0, -63389.535, 0.099748805, -0.44132686, -1391930.4, -50268.367, 0.013380272, 9.999141, 9.99958 
1.9849245e+3, 1.7308965e+2, -1343063.4, -1304968.4, -51470.33, 0.057373565, -0.5128331, -1269134.1, -25463.86, 0.0017591557, 9.999282, 9.999768 
1.9849563e+3, 1.83089e+2, -1192980.9, -1171572.1, -20444.646, 0.0438006, -0.54598486, -1159199.1, -13522.762, 0.0000256483, 9.999578, 9.999876 
1.9849898e+3, 1.9308883e+2, -951777.06, -983212.8, -36688.016, 0.13491882, -0.58728343, -927581.75, 120094.5, 0.0, 10.000476, 10.000057 
1.9850236e+3, 2.0308891e+2, -851914.2, -876965.9, 23398.809, 0.18435735, -0.57381165, -837899.5, 111774.98, 0.0, 10.000459, 10.000128 
1.9850579e+3, 2.1308982e+2, -983267.1, -871591.2, -2368.9531, 0.10547225, -0.52802193, -871540.94, -19874.586, 0.0, 9.998816, 10.000277 
1.9850916e+3, 2.2309011e+2, -1020185.1, -930930.4, -64837.742, 0.050040167, -0.47839913, -896846.06, -143181.5, 0.0, 9.998279, 9.999461 
1.9851243e+3, 2.3308934e+2, -666946.7, -714386.56, -20957.043, 0.056290712, -0.51676, -659014.9, -3341.1885, 0.0, 10.000056, 9.999411 
1.9851573e+3, 2.4308842e+2, -444594.1, -590507.94, 34839.23, 0.04756572, -0.52495575, -436702.5, 120981.64, 0.0, 10.001061, 9.999104 
1.9851898e+3, 2.5308746e+2, -407485.53, -516204.13, -14901.128, -0.033896085, -0.55881315, -405480.16, 54214.445, 0.0, 10.000621, 9.999154 
1.9852225e+3, 2.6308694e+2, -312347.5, -429309.8, -66966.164, -0.052541006, -0.50493646, -281921.3, 79779.055, 0.00000004684117, 10.000628, 9.999081 
1.9852561e+3, 2.730876e+2, -66579.38, -244788.22, -107780.125, 0.06206994, -0.38673362, -15840.484, 247854.84, 0.000003631824, 10.001574, 9.999216 
1.9852895e+3, 2.830863e+2, -12201.286, -263438.47, -53401.91, 0.099121206, -0.3842098, -1321.5463, 164386.02, 0.000030883682, 10.001693, 9.998365 
1.9853218e+3, 2.9308215e+2, -85501.414, -228594.5, -74984.99, -0.094237745, -0.6579999, -53405.992, 14339.425, 0.00012822116, 10.000445, 9.998523 
1.9853549e+3, 3.0308202e+2, -69102.51, -263383.78, -104716.914, -0.24817735, -0.49768052, -23407.797, -23407.797, 0.00031412422, 10.000489, 9.997936 
1.985393e+3, 3.130807e+2, 142575.98, -255410.92, 25271.396, 0.20868951, -0.42844197, 144174.25, 144174.25, 0.0005494111, 10.00231, 9.997112 
1.9947596e+3, 1.2305509e+2, -1954602.4, -1705976.5, 29218.256, -0.0746631, -0.6139482, -1702589.0, 31419.174, 0.26535824, 9.997705, 10.001226 
1.9947907e+3, 1.3305981e+2, -1654954.3, -1557889.6, 52363.945, -0.4884667, -0.30985954, -1535026.1, 100932.78, 0.18805622, 9.999345, 10.000831 
1.9948319e+3, 1.4305745e+2, -1608366.3, -1679139.4, -52755.508, 0.22590725, -0.51248133, -1580228.4, -42247.023, 0.11045076, 9.999865, 9.99895 
1.9948617e+3, 1.5305628e+2, -1543059.9, -1544141.0, -83151.61, 0.11034049, -0.58386433, -1460447.1, -20452.379, 0.04926506, 9.999431, 9.999401 
1.9948925e+3, 1.630554e+2, -1450624.4, -1402237.1, -70941.66, 0.07695278, -0.6148935, -1351477.1, -9472.972, 0.014456319, 9.999177, 9.99983 
1.9949232e+3, 1.730557e+2, -1318903.1, -1256118.6, -42654.297, -0.01788681, -0.6131592, -1234549.9, 9450.155, 0.0019582892, 9.999282, 10.000105 
1.994955e+3, 1.8305598e+2, -1215807.9, -1222141.5, 1560.4867, -0.07160413, -0.5570448, -1215444.3, -69447.49, 0.000032105352, 9.999597, 9.99952 
1.9949894e+3, 1.9305634e+2, -994387.5, -1057439.0, 4443.725, 0.039378464, -0.49451485, -994075.9, 53918.49, 0.0, 10.0004225, 9.99957 
1.9950235e+3, 2.0305584e+2, -923464.75, -1008921.2, -31095.188, 0.1053055, -0.47688845, -913347.8, 36653.332, 0.0, 10.000381, 9.999261 
1.9950563e+3, 2.1305394e+2, -1064357.8, -1017175.4, -56690.258, 0.06373507, -0.6188748, -979363.56, -127340.61, 0.0, 9.998715, 9.999327 
1.9950897e+3, 2.230537e+2, -947705.0, -750132.6, -23569.297, 0.025668457, -0.61931765, -747359.9, 6666.3057, 0.0, 9.998145, 10.000767 
1.995124e+3, 2.3305717e+2, -557875.9, -454841.47, 59654.336, 0.013250397, -0.4153635, -427538.22, 228450.08, 0.0, 9.99991, 10.001264 
1.9951583e+3, 2.4305789e+2, -520148.56, -702067.56, 21564.729, 0.027944256, -0.34314182, -517627.22, 40351.668, 0.0, 10.000862, 9.998437 
1.995192e+3, 2.5305328e+2, -511089.13, -702644.06, -26442.885, 0.12679522, -0.62517923, -507505.88, -47480.53, 0.0, 10.0005, 9.99793 
1.9952254e+3, 2.6305082e+2, -377373.63, -529636.0, -48403.348, 0.1589414, -0.67329466, -363289.28, -1236.7751, 0.000000042002604, 10.000481, 9.998465 
1.9952571e+3, 2.730532e+2, -127282.055, -322512.88, -59088.617, 0.012188165, -0.330028, -110791.23, 153243.92, 0.0000035134383, 10.001377, 9.998773 
1.9952893e+3, 2.8305298e+2, -108823.59, -414620.75, -99128.97, -0.09211038, -0.15951285, -79501.08, 86539.72, 0.00002820436, 10.001474, 9.997435 
1.9953233e+3, 2.9304767e+2, -185218.97, -410571.66, -100868.25, -0.006547328, -0.45611668, -146665.81, -78575.01, 0.00011358975, 10.000332, 9.997327 
1.995359e+3, 3.03045e+2, -48204.324, -151424.7, -59965.04, 0.09089579, -0.49624833, -20698.033, -20698.033, 0.00027761376, 10.00021, 9.998832 
1.9953917e+3, 3.1304434e+2, 304380.3, 205607.75, 110952.63, -0.19569997, -0.5512138, 376441.5, 376441.5, 0.0004898738, 10.0018, 10.00051 
2.004759e+3, 1.2302061e+2, -1677367.8, -1613551.8, -39422.832, 0.012535054, -0.58737594, -1594742.1, 139605.8, 0.27641812, 9.999812, 10.001077 
2.0047905e+3, 1.330254e+2, -1788509.6, -1606743.8, -27855.08, -0.38504413, -0.27688494, -1602570.8, 33727.105, 0.1968332, 9.998362, 10.000888 
2.0048304e+3, 1.4302278e+2, -1882853.9, -1720702.4, -128280.73, 0.22598997, -0.54688776, -1650024.3, -111702.14, 0.11636926, 9.997601, 9.999747 
2.004861e+3, 1.5302274e+2, -1613939.9, -1490272.6, -97415.48, 0.15452181, -0.58627367, -1436723.5, 3599.2754, 0.05238356, 9.998564, 10.000191 
2.004892e+3, 1.630224e+2, -1424027.8, -1381774.8, -29954.707, 0.111974694, -0.61273843, -1366245.9, -23920.184, 0.015589432, 9.999325, 9.999903 
2.0049225e+3, 1.7302223e+2, -1237708.6, -1229899.8, -49991.086, -0.04569491, -0.6494892, -1183660.9, 60665.27, 0.0021699998, 9.999897, 9.999989 
2.0049542e+3, 1.8302234e+2, -1143157.3, -1186906.6, -2252.2134, -0.11289696, -0.60455346, -1143041.6, 3283.3499, 0.00003871999, 10.000107, 9.999509 
2.0049894e+3, 1.9302318e+2, -1060577.4, -1090419.6, 23568.719, 0.02769288, -0.49327776, -1047603.6, 715.4474, 0.0, 9.999988, 9.999546 
2.0050235e+3, 2.0302294e+2, -1005345.7, -1078756.0, 8886.311, 0.11448972, -0.43630096, -1004285.3, -53961.19, 0.0, 9.999951, 9.998988 
2.0050557e+3, 2.1302079e+2, -864538.4, -956797.44, 5232.054, 0.063840784, -0.5728662, -864242.56, -11893.572, 0.0, 10.0002365, 9.99901 
2.0050889e+3, 2.2302012e+2, -649846.44, -639053.1, 75991.414, 0.043056235, -0.58624715, -568267.0, 186089.48, 0.0, 10.000339, 10.000472 
2.0051247e+3, 2.3302273e+2, -528645.3, -473039.6, -1581.4661, 0.06320219, -0.43437177, -472994.66, 183331.6, 0.0, 10.000267, 10.000964 
2.0051596e+3, 2.430231e+2, -561152.1, -715679.44, -115405.48, 0.08969038, -0.38148645, -499534.16, 58785.465, 0.0, 10.0005245, 9.99852 
2.005193e+3, 2.5301906e+2, -386229.44, -627213.25, -88134.95, 0.12770663, -0.6180381, -357436.16, 102923.51, 0.0, 10.0012665, 9.998089 
2.005226e+3, 2.6301667e+2, -262324.3, -504080.9, -29403.764, 0.12859988, -0.6562722, -258799.47, 103586.19, 0.000000029896977, 10.001409, 9.998183 
2.0052579e+3, 2.7301794e+2, -260996.83, -434460.6, -57890.746, -0.007977529, -0.3864273, -243451.4, 20928.854, 0.0000031274246, 10.000666, 9.998342 
2.0052904e+3, 2.830176e+2, -200934.34, -439634.84, -38029.246, -0.086292855, -0.21160921, -195022.05, -28634.602, 0.000025154262, 10.000758, 9.997609 
2.0053248e+3, 2.9301387e+2, 103557.23, -258577.45, 11784.656, 0.033271767, -0.367308, 103940.32, 172361.61, 0.00009776422, 10.002261, 9.99744 
2.0053618e+3, 3.030101e+2, 227540.95, -94323.95, 71652.164, 0.2662101, -0.48903313, 242771.17, 242771.17, 0.0002403355, 10.002405, 9.998189 
2.005394e+3, 3.130068e+2, -14611.528, 96782.15, -51254.793, -0.01616984, -0.73841935, 116776.734, 116776.734, 0.00043342356, 9.999383, 10.000949 
2.0147611e+3, 1.2298744e+2, -1639726.4, -1552455.9, -138409.16, 0.17830352, -0.40807363, -1450966.6, 283711.4, 0.28771394, 9.999932, 10.001637 
2.0147917e+3, 1.32987e+2, -1848203.1, -1718422.8, -87397.3, -0.13091254, -0.52784854, -1674459.8, -37782.652, 0.20582092, 9.9983425, 10.000079 
2.0148256e+3, 1.4298546e+2, -1776185.5, -1504585.4, -115912.414, -0.028348707, -0.7189199, -1461843.1, 76846.22, 0.12247417, 9.997585, 10.001306 
2.0148592e+3, 1.529897e+2, -1488602.0, -1237197.5, -50878.324, 0.09348409, -0.50924885, -1227291.3, 213354.22, 0.055639356, 9.998546, 10.002017 
2.0148915e+3, 1.6299164e+2, -1422583.3, -1390938.1, -13279.036, 0.10361185, -0.41945526, -1386104.3, -43479.22, 0.016791714, 9.999374, 9.999818 
2.014922e+3, 1.7298923e+2, -1280262.4, -1315006.9, -22493.016, -0.08927043, -0.6206122, -1269214.0, -24565.316, 0.0023981123, 9.999883, 9.999412 
2.0149541e+3, 1.8298794e+2, -1119451.1, -1144727.4, -14143.34, -0.16294932, -0.6938613, -1113122.0, 33540.03, 0.000045425786, 10.00013, 9.999793 
2.0149896e+3, 1.9298933e+2, -1033818.8, -1024512.7, 23265.656, 0.018074967, -0.57266587, -1005439.4, 43211.11, 0.0, 9.999942, 10.000024 
2.0150237e+3, 2.0299028e+2, -995540.2, -1035423.1, 8824.24, 0.112312295, -0.44210985, -993675.06, -43031.703, 0.0, 9.999855, 9.9993305 
2.0150557e+3, 2.1299031e+2, -869778.44, -931481.94, 22876.43, 0.033983637, -0.38327447, -862222.4, -9577.116, 0.0, 10.000089, 9.999254 
2.0150891e+3, 2.2298919e+2, -804778.44, -927773.3, 66233.51, 0.010668381, -0.37965408, -775894.44, -21236.787, 0.0, 10.000185, 9.998569 
2.0151256e+3, 2.3298606e+2, -710381.75, -832178.9, 5874.7964, 0.12674113, -0.56468534, -710099.06, -53411.566, 0.0, 10.000172, 9.998551 
2.0151605e+3, 2.4298409e+2, -539145.3, -622956.94, -94627.39, 0.13037217, -0.6320824, -477559.88, 81146.08, 0.0, 10.000332, 9.999245 
2.015192e+3, 2.5298473e+2, -310637.84, -421797.9, -51069.625, -0.09398222, -0.54111725, -290737.75, 169960.28, 0.0, 10.001076, 9.999583 
2.015224e+3, 2.6298425e+2, -296220.47, -531087.25, -56882.027, -0.2186916, -0.47331634, -283169.5, 79533.55, 0.0000000091701935, 10.001217, 9.998095 
2.0152579e+3, 2.7298185e+2, -307171.2, -501579.66, -71428.76, -0.09399573, -0.531397, -283749.0, -19018.463, 0.0000023642951, 10.000543, 9.99794 
2.0152919e+3, 2.8298047e+2, -162550.28, -317211.44, -8174.5415, -0.029958194, -0.47690132, -162119.4, 4625.8984, 0.000021595964, 10.000582, 9.9985285 
2.0153263e+3, 2.929804e+2, 154277.6, -106263.23, 80428.95, -0.06465358, -0.39261094, 177105.84, 245847.72, 0.000083873885, 10.002046, 9.998594 
2.0153631e+3, 3.0297664e+2, 23865.803, -429682.72, -18852.367, 0.13619243, -0.4919078, 24648.078, 24648.078, 0.00020822523, 10.002049, 9.996045 
2.0153973e+3, 3.129701e+2, -201942.84, -193597.77, -250641.14, 0.3430587, -0.8031628, 52905.56, 52905.56, 0.00038320478, 9.999023, 9.999096 
2.0247607e+3, 1.22954264e+2, -1698556.5, -1485053.3, 10814.299, 0.21097353, -0.37021413, -1484506.9, 250496.39, 0.29983783, 9.998774, 10.0028715 
2.0247918e+3, 1.329519e+2, -1971345.3, -1867782.0, -23717.598, 0.095361255, -0.6029759, -1862608.8, -225587.58, 0.21537028, 9.997907, 9.999254 
2.0248236e+3, 1.4295082e+2, -1704709.9, -1429057.1, -6888.4116, 0.004697874, -0.7279973, -1428885.0, 110144.125, 0.12892798, 9.997852, 10.001749 
2.0248577e+3, 1.5295544e+2, -1473236.8, -1187964.1, -54203.5, 0.109641746, -0.5247782, -1178012.4, 262968.6, 0.05909158, 9.99845, 10.00243 
2.0248903e+3, 1.6295764e+2, -1480089.0, -1385293.3, -65322.395, 0.09472259, -0.44197458, -1351984.4, -9026.936, 0.018083457, 9.998847, 10.000104 
2.0249219e+3, 1.7295597e+2, -1313728.0, -1305590.1, -28578.594, -0.062402125, -0.59338003, -1280792.3, -35818.188, 0.0026487417, 9.999563, 9.999621 
2.0249546e+3, 1.8295497e+2, -1134177.0, -1155488.5, 2539.86, -0.1080074, -0.64910334, -1133878.5, 13106.029, 0.000052423693, 10.000036, 9.9997635 
2.0249896e+3, 1.9295552e+2, -1001157.2, -1025876.2, -21842.027, 0.023139508, -0.6039368, -988420.25, 60560.51, 0.0, 10.000219, 9.999886 
2.0250237e+3, 2.0295604e+2, -889487.94, -979678.1, -38706.355, 0.09821768, -0.50980014, -875154.5, 75822.55, 0.0, 10.000569, 9.999362 
2.0250563e+3, 2.1295656e+2, -658038.4, -824820.06, -52208.227, 0.022910628, -0.40750644, -643043.6, 209929.28, 0.0, 10.001522, 9.99929 
2.02509e+3, 2.2295551e+2, -615758.06, -894452.94, 2810.6497, 0.009110823, -0.37920046, -615729.7, 139254.61, 0.0, 10.0017395, 9.99804 
2.0251259e+3, 2.3295157e+2, -711924.6, -906064.1, 42278.2, 0.12531786, -0.57976633, -703117.2, -46093.05, 0.0, 10.000484, 9.997886 
2.0251605e+3, 2.4294928e+2, -648614.4, -661721.25, 43994.543, 0.14809716, -0.6446078, -610687.9, -51640.813, 0.0, 9.999537, 9.9993515 
2.0251922e+3, 2.5295055e+2, -520278.9, -493355.6, -3634.3806, -0.07701223, -0.5177656, -492873.63, -31840.334, 0.0, 9.999517, 9.999838 
2.0252247e+3, 2.629504e+2, -442188.13, -578649.06, -33114.46, -0.20628524, -0.4431755, -434576.88, -71542.63, 0.000000001074916, 10.000106, 9.998308 
2.0252588e+3, 2.7294752e+2, -133581.72, -398879.06, -27661.283, -0.10310949, -0.56422484, -130728.305, 134334.88, 0.0000018159459, 10.001653, 9.998111 
2.0252933e+3, 2.829454e+2, 51456.117, -215265.11, 28503.633, 0.005802562, -0.5896738, 54468.195, 221551.64, 0.000018189116, 10.002031, 9.998538 
2.025328e+3, 2.92945e+2, -122221.58, -214034.55, 2180.4473, 0.019993752, -0.53926116, -122169.83, -53084.785, 0.000072171526, 10.000048, 9.998806 
2.0253637e+3, 3.0294302e+2, -213665.02, -509651.34, 7753.546, 0.09856372, -0.49967757, -213462.05, -213462.05, 0.00017992307, 10.000208, 9.99641 
2.0253988e+3, 3.1293908e+2, 463181.2, 38489.05, -167851.36, 0.36939004, -0.5536117, 521510.06, 521510.06, 0.00033557636, 10.00393, 9.9983425 
2.0347585e+3, 1.2292108e+2, -1608686.9, -1313103.6, 165271.38, 0.05784581, -0.5141184, -1239181.4, 496141.9, 0.3135409, 9.998814, 10.004634 
2.0347908e+3, 1.3292019e+2, -2027301.1, -1996033.1, -35342.344, 0.17337811, -0.50096506, -1973021.3, -335692.5, 0.22593072, 9.997949, 9.998356 
2.034824e+3, 1.4291908e+2, -1737513.1, -1517787.3, 1920.962, 0.22657204, -0.55925876, -1517770.5, 21569.053, 0.13594478, 9.997989, 10.000989 
2.0348565e+3, 1.5291986e+2, -1545400.1, -1330408.6, -33445.7, 0.13406347, -0.6360826, -1325325.8, 116004.414, 0.06282382, 9.998452, 10.001392 
2.0348884e+3, 1.6292025e+2, -1432881.5, -1295060.1, -54480.586, -0.018042086, -0.69456464, -1276125.4, 67199.33, 0.019494196, 9.998871, 10.000721 
2.0349218e+3, 1.7292237e+2, -1233510.6, -1144123.3, 5841.2705, -0.047636364, -0.5732693, -1143743.1, 101559.92, 0.0029308582, 9.999573, 10.00073 
2.0349556e+3, 1.8292347e+2, -1155626.0, -1206451.1, 9927.641, -0.044602644, -0.4768285, -1153755.6, -6463.584, 0.00006041413, 10.000065, 9.999403 
2.0349893e+3, 1.9292174e+2, -1061424.9, -1138251.9, -6804.458, -0.029647017, -0.5837979, -1060826.9, -11516.867, 0.0, 10.000166, 9.999143 
2.0350231e+3, 2.0292017e+2, -919726.5, -1025275.4, -17221.242, -0.03710143, -0.6420302, -916987.75, 34338.273, 0.0, 10.000497, 9.9990835 
2.0350572e+3, 2.129196e+2, -684406.75, -849519.06, -7948.8804, -0.049816255, -0.636133, -684024.94, 169306.45, 0.0, 10.00139, 9.999186 
2.0350912e+3, 2.2291917e+2, -592325.0, -793544.6, -34124.633, -0.05662539, -0.5710848, -586695.3, 168640.53, 0.0, 10.001523, 9.998836 
2.035125e+3, 2.3291905e+2, -667339.44, -775498.2, 4646.3804, -0.009013407, -0.48597708, -667140.2, -9801.833, 0.0, 10.000327, 9.998857 
2.0351592e+3, 2.4291825e+2, -707314.5, -747763.06, 26902.852, 0.044214316, -0.43891177, -693881.94, -134534.44, 0.0, 9.999379, 9.99884 
2.0351934e+3, 2.5291646e+2, -591020.44, -627418.9, 7282.0557, 0.08367343, -0.53671896, -589617.6, -128251.414, 0.0, 9.99945, 9.998957 
2.0352271e+3, 2.6291513e+2, -440300.84, -533716.2, 9880.022, 0.021281268, -0.53897715, -439267.34, -75888.57, 0.000000023664393, 9.999944, 9.998689 
2.0352602e+3, 2.7291447e+2, -113975.52, -318006.78, 43277.64, -0.13277756, -0.51326597, -105175.35, 160207.6, 0.0000019634658, 10.001478, 9.998752 
2.0352946e+3, 2.8291187e+2, -48921.543, -355973.66, -34835.08, -0.07874015, -0.5857228, -45019.1, 122388.08, 0.000016146072, 10.001752, 9.997703 
2.03533e+3, 2.929078e+2, -188392.83, -329182.66, -52932.734, 0.18747379, -0.7970342, -170712.1, -101262.625, 0.00006227005, 9.99994, 9.998074 
2.0353627e+3, 3.0290937e+2, -104370.34, -191111.8, 104156.2, -0.041152958, -0.48357463, -34915.832, -34915.832, 0.00015436458, 9.999848, 9.998753 
2.0354e+3, 3.1291017e+2, 396374.03, 50078.793, 16349.886, 0.05467231, -0.32773712, 397144.25, 397144.25, 0.00029086007, 10.003322, 9.998693 
2.0447575e+3, 1.2288637e+2, -1692558.8, -1352780.0, 169668.23, 0.13333507, -0.6172065, -1282565.9, 453094.47, 0.3294151, 9.998016, 10.004742 
2.0447874e+3, 1.328862e+2, -1821878.6, -1844991.5, -79481.46, -0.0057839765, -0.5651502, -1753117.9, -115458.62, 0.23787552, 9.99914, 9.998824 
2.0448239e+3, 1.4288668e+2, -1543320.6, -1472319.9, 35132.234, 0.34666258, -0.47422555, -1457874.8, 81780.375, 0.14372098, 9.999518, 10.000615 
2.044856e+3, 1.5288647e+2, -1483037.9, -1364635.3, 12030.166, 0.20174517, -0.597052, -1363425.3, 78232.914, 0.06692591, 9.999166, 10.000797 
2.0448877e+3, 1.628863e+2, -1412662.9, -1291757.4, 29981.928, 0.025315445, -0.6755098, -1284730.9, 58928.723, 0.021061258, 9.999043, 10.000655 
2.0449215e+3, 1.7288838e+2, -1202487.0, -1125003.6, -242.88676, -0.03377392, -0.5635092, -1125002.9, 120634.555, 0.003256253, 9.999774, 10.00076 
2.0449556e+3, 1.8288931e+2, -1150143.3, -1221802.1, -51438.75, -0.035512183, -0.47546396, -1123285.5, 24341.467, 0.00007088071, 10.000192, 9.999232 
2.0449898e+3, 1.9288737e+2, -1083368.6, -1170105.1, -51122.883, 0.0072194096, -0.58504134, -1059696.9, -10050.968, 0.0, 10.000124, 9.998935 
2.0450237e+3, 2.0288545e+2, -1002357.4, -1076009.5, -4612.896, 0.0129725, -0.65892434, -1002069.6, -50405.242, 0.0, 9.999971, 9.998998 
2.0450577e+3, 2.128844e+2, -913934.0, -959647.8, -2905.52, -0.050939538, -0.6954011, -913750.06, -60075.715, 0.0, 9.999826, 9.999181 
2.0450915e+3, 2.2288395e+2, -812866.5, -855675.2, -47118.375, -0.07508049, -0.64709, -782518.7, -26840.002, 0.0, 9.999811, 9.999235 
2.045125e+3, 2.3288459e+2, -659080.8, -712427.5, -65568.92, -0.013523276, -0.5412683, -614967.5, 42705.95, 0.0, 10.000128, 9.999381 
2.0451595e+3, 2.428842e+2, -537596.94, -677617.44, -8732.726, 0.081764475, -0.4808015, -537054.4, 22623.852, 0.0, 10.000585, 9.998742 
2.0451945e+3, 2.5288224e+2, -343529.72, -531048.75, 7426.4165, 0.1633399, -0.5694989, -343236.06, 118463.01, 0.0, 10.001255, 9.998741 
2.0452285e+3, 2.6288092e+2, -223821.56, -408591.66, 43415.996, 0.103874005, -0.568853, -214128.48, 149583.5, 0.00000011200642, 10.001326, 9.998888 
2.0452614e+3, 2.7288055e+2, -287582.16, -368027.63, 25369.93, -0.09957458, -0.535471, -280249.63, -14536.993, 0.000002326167, 10.000144, 9.999048 
2.0452961e+3, 2.8287834e+2, -293404.97, -477109.94, -21111.188, -0.010805293, -0.5912992, -291010.1, -123276.2, 0.000014696717, 10.00008, 9.997679 
2.0453323e+3, 2.928744e+2, 100802.37, -197980.52, -9239.438, 0.33871838, -0.7729998, 101087.81, 170864.38, 0.00005375532, 10.001969, 9.997995 
2.045363e+3, 3.0287632e+2, 261642.23, 73858.21, 142625.22, -0.08349587, -0.4545177, 338506.38, 338506.38, 0.00013253847, 10.001977, 9.999543 
2.0454004e+3, 3.128766e+2, -110185.016, -53177.543, -69624.47, -0.0014022761, -0.42440394, -6448.108, -6448.108, 0.0002538957, 9.999204, 9.999973 
2.0547584e+3, 1.2285199e+2, -1821096.8, -1566368.1, 173089.31, 0.35821158, -0.49263412, -1478833.4, 257162.3, 0.3476065, 9.9981, 10.002677 
2.0547813e+3, 1.3285021e+2, -1682311.3, -1579302.8, -25980.203, -0.5456029, -0.7750406, -1573121.1, 64888.39, 0.2513395, 9.999169, 10.0007715 
2.0548223e+3, 1.4285362e+2, -1531493.8, -1464488.1, 22130.033, 0.21229027, -0.4983241, -1457839.0, 82137.555, 0.15236652, 9.999574, 10.000657 
2.0548555e+3, 1.5285553e+2, -1482304.0, -1372061.4, 9229.985, 0.20818336, -0.3999562, -1371293.9, 70668.17, 0.071473114, 9.9992, 10.000732 
2.054888e+3, 1.6285613e+2, -1467897.3, -1422181.8, 42796.51, 0.13388486, -0.36438173, -1396521.3, -52562.766, 0.022826005, 9.999106, 9.999729 
2.054921e+3, 1.7285399e+2, -1286751.9, -1300407.0, 33502.234, -0.09085892, -0.55431485, -1259388.6, -13411.464, 0.0036400491, 9.999769, 9.999562 
2.0549546e+3, 1.8285231e+2, -1145130.0, -1218813.1, -56143.32, -0.18734676, -0.6536612, -1114819.8, 33171.453, 0.00008593674, 10.000215, 9.999246 
2.0549902e+3, 1.9285218e+2, -1059140.9, -1119383.9, -47640.938, 0.04240317, -0.6122893, -1032897.8, 17092.592, 0.0, 10.00011, 9.999296 
2.0550251e+3, 2.0285176e+2, -1004408.7, -1067472.6, -16010.884, 0.14460002, -0.56503314, -1000576.7, -48583.254, 0.0, 9.999916, 9.999082 
2.0550576e+3, 2.1285075e+2, -932216.94, -971528.5, 1276.0525, -0.057804905, -0.5983088, -932175.56, -78171.54, 0.0, 9.999705, 9.99916 
2.0550905e+3, 2.2284953e+2, -840632.6, -864922.94, -45276.07, -0.16000909, -0.6295386, -805901.06, -49884.664, 0.0, 9.999613, 9.999263 
2.0551257e+3, 2.3284806e+2, -676133.4, -713328.2, -43447.934, 0.019946983, -0.73626316, -647469.94, 10559.967, 0.0, 9.999984, 9.999443 
2.0551609e+3, 2.4284714e+2, -548187.9, -647631.44, 6156.269, 0.1514813, -0.74722815, -547808.25, 12230.489, 0.0, 10.000374, 9.999044 
2.0551953e+3, 2.528476e+2, -343324.03, -489649.5, 42711.516, 0.09413897, -0.6273062, -331769.22, 130265.32, 0.0, 10.001088, 9.999104 
2.0552288e+3, 2.628474e+2, -251462.4, -419641.4, 4616.33, -0.035305187, -0.54474276, -251335.78, 112701.55, 0.00000017468948, 10.001127, 9.998906 
2.0552614e+3, 2.7284575e+2, -303797.2, -386470.4, -5841.716, -0.10045384, -0.63084733, -303386.47, -37333.31, 0.0000023499456, 10.000068, 9.998962 
2.0552973e+3, 2.8284454e+2, -292471.5, -420749.44, 20715.848, 0.071241416, -0.59892815, -289209.06, -121143.64, 0.000012296112, 9.999865, 9.998162 
2.0553347e+3, 2.9284412e+2, 100087.12, -152868.63, 75359.13, 0.3618706, -0.49760482, 120835.77, 190907.84, 0.000044415407, 10.001771, 9.998399 
2.0553643e+3, 3.0284262e+2, 133394.02, -85631.766, 33161.39, -0.18653251, -0.49272874, 138304.69, 138304.69, 0.00011238554, 10.001547, 9.998641 
2.0554005e+3, 3.1283957e+2, -53819.746, 157943.77, -7272.6577, 0.018098393, -0.73416877, 158193.23, 158193.23, 0.00022330276, 9.998795, 10.001626 
2.0647588e+3, 1.228182e+2, -1633112.8, -1655149.1, 238878.89, 0.49831924, -0.51889896, -1404998.0, 331322.97, 0.36771804, 10.000894, 10.000582 
2.0647795e+3, 1.3281713e+2, -1584022.0, -1477460.0, 15756.725, -0.6539382, -0.7944713, -1475179.0, 163151.38, 0.26616043, 9.999603, 10.001512 
2.0648217e+3, 1.4282018e+2, -1716907.3, -1588180.4, 42783.055, 0.27729785, -0.5783127, -1575258.4, -34956.582, 0.1618756, 9.99849, 10.000236 
2.0648545e+3, 1.5282214e+2, -1513165.6, -1441578.3, -18071.768, 0.20723273, -0.4230022, -1437274.9, 5012.8926, 0.07651462, 9.99925, 10.000192 
2.0648871e+3, 1.628228e+2, -1400301.1, -1456453.0, 27842.627, 0.11839695, -0.32594636, -1388836.4, -44551.8, 0.024829434, 9.999861, 9.999126 
2.064921e+3, 1.728196e+2, -1296758.4, -1370654.6, 49017.277, -0.05611883, -0.5633863, -1272323.6, -26008.799, 0.0041003036, 9.999992, 9.998963 
2.0649554e+3, 1.8281731e+2, -1142568.8, -1199097.4, 5634.23, -0.12168623, -0.6942312, -1142012.6, 6322.6655, 0.000108260756, 10.000165, 9.999395 
2.064991e+3, 1.9281796e+2, -932348.1, -1011252.06, -2376.5168, 0.07075726, -0.61017865, -932276.6, 118049.56, 0.0, 10.000795, 9.999699 
2.0650256e+3, 2.0281817e+2, -877835.8, -993642.4, 9255.885, 0.16996633, -0.5282132, -877100.7, 75221.7, 0.0, 10.0007305, 9.999191 
2.0650576e+3, 2.1281725e+2, -997587.06, -999269.4, 4189.9697, 0.0037322284, -0.5600742, -994154.6, -139822.4, 0.0, 9.999244, 9.999188 
2.0650905e+3, 2.2281592e+2, -971920.7, -938314.0, 33993.17, -0.07838586, -0.59913135, -917197.9, -160852.22, 0.0, 9.998738, 9.999193 
2.0651264e+3, 2.328142e+2, -610692.06, -692598.6, 25902.412, 0.078003585, -0.72077656, -603188.06, 55174.164, 0.0, 10.000475, 9.999354 
2.065162e+3, 2.4281321e+2, -372698.25, -549492.0, 45311.62, 0.18293339, -0.7359095, -361761.6, 198609.98, 0.0, 10.001516, 9.99917 
2.0651957e+3, 2.5281376e+2, -365248.9, -476917.75, 38829.566, 0.059803646, -0.62821305, -353074.38, 109291.445, 0.0, 10.000839, 9.999308 
2.065229e+3, 2.6281348e+2, -330289.44, -463291.53, 6355.2056, -0.083368115, -0.56096655, -329986.44, 34382.25, 0.00000012472299, 10.000614, 9.998849 
2.0652625e+3, 2.728118e+2, -83443.54, -290439.66, -23651.975, -0.09815748, -0.6365756, -80775.39, 185610.75, 0.0000018192295, 10.001637, 9.9988575 
2.0652984e+3, 2.8281096e+2, 76645.96, -195426.92, 33461.168, 0.09909035, -0.58462167, 80700.79, 249095.92, 0.000008845643, 10.002185, 9.998597 
2.0653357e+3, 2.928108e+2, 16219.586, -145838.88, 39191.016, 0.34472513, -0.50583, 25199.643, 95596.08, 0.000033872344, 10.001006, 9.998811 
2.0653655e+3, 3.0280814e+2, -86108.47, -257738.56, 3594.4148, -0.13745405, -0.6095011, -86033.23, -86033.23, 0.00009226444, 10.000278, 9.9980955 
2.065401e+3, 3.1280616e+2, 298422.13, 278646.94, 2178.4475, 0.092330165, -0.67911583, 298659.25, 298659.25, 0.00019349271, 10.001387, 10.00123 
2.0747562e+3, 1.2278317e+2, -1702947.6, -1872305.9, 124675.664, 0.06549851, -0.9040835, -1636913.1, 99740.445, 0.38886976, 10.001066, 9.99848 
2.0747815e+3, 1.3278703e+2, -1597725.5, -1527721.0, -24595.951, -0.43556806, -0.6239771, -1519943.4, 118677.48, 0.28190908, 9.999712, 10.00102 
2.0748225e+3, 1.4278641e+2, -1779364.4, -1730450.1, 35150.445, 0.45316744, -0.7047902, -1712085.5, -171455.1, 0.17213808, 9.998539, 9.999241 
2.074853e+3, 1.5278606e+2, -1582599.0, -1592052.5, 21767.402, 0.10680032, -0.67463756, -1565051.1, -122413.92, 0.08207624, 9.999275, 9.999145 
2.0748848e+3, 1.6278598e+2, -1405844.4, -1476392.8, 26716.553, -0.14219831, -0.58076733, -1396868.8, -52228.05, 0.027111659, 9.999893, 9.998975 
2.0749216e+3, 1.7278509e+2, -1288183.8, -1355212.5, 58530.977, -0.010659429, -0.5931865, -1254251.1, -7599.9976, 0.0046569863, 10.000001, 9.999067 
2.0749575e+3, 1.8278433e+2, -1115920.3, -1155965.3, 20067.545, 0.07606222, -0.58955306, -1107594.9, 41064.27, 0.00014131474, 10.0002165, 9.999667 
2.0749915e+3, 1.9278456e+2, -916676.94, -970841.7, 28098.063, 0.023054415, -0.57884073, -904734.25, 145920.19, 0.0000000002137382, 10.000759, 9.999996 
2.0750247e+3, 2.0278445e+2, -877936.56, -978835.7, -39322.848, -0.0050257673, -0.5529046, -864421.75, 88231.85, 0.0, 10.000663, 9.999325 
2.0750573e+3, 2.1278363e+2, -1007127.5, -993869.6, -45756.543, 0.046590522, -0.5835068, -954264.3, -99603.27, 0.0, 9.999131, 9.99928 
2.0750909e+3, 2.2278292e+2, -1007712.0, -971397.25, 70801.21, 0.07888359, -0.56213176, -916462.2, -159793.92, 0.0, 9.998571, 9.999039 
2.0751269e+3, 2.3278277e+2, -652071.7, -742159.0, 105884.5, 0.086759396, -0.5064363, -582048.2, 76624.164, 0.0, 10.000325, 9.999084 
2.0751625e+3, 2.4278209e+2, -407431.9, -574288.94, 34053.863, 0.07078877, -0.47132614, -400749.47, 159930.75, 0.0, 10.001319, 9.99909 
2.0751958e+3, 2.5278047e+2, -389145.13, -491891.28, 19912.373, -0.028875347, -0.5771482, -385421.06, 77273.445, 0.0, 10.000693, 9.999271 
2.075229e+3, 2.627791e+2, -377538.22, -506778.22, 20785.682, -0.14707375, -0.60852456, -374277.53, -9570.2295, 0.000000021824269, 10.000388, 9.998658 
2.0752634e+3, 2.7277842e+2, -123879.88, -326889.72, 30388.174, -0.17639494, -0.56775755, -119428.73, 147286.3, 0.00000084431264, 10.001442, 9.9987 
2.0752993e+3, 2.82777e+2, 53400.61, -175018.52, -3813.6648, -0.050453775, -0.57311654, 53464.266, 222192.53, 0.000005133315, 10.001896, 9.998873 
2.0753352e+3, 2.9277426e+2, 15387.843, -118444.91, 1202.3524, 0.17725393, -0.78873146, 15398.645, 86149.55, 0.000023723636, 10.000861, 9.999074 
2.0753665e+3, 3.0277294e+2, -182221.1, -337462.63, 1468.8483, -0.08650526, -0.76274407, -182207.2, -182207.2, 0.00007269625, 9.999817, 9.997747 
2.0754011e+3, 3.1277665e+2, 23557.059, -133075.52, 142081.4, -0.07006786, -0.22006345, 107476.92, 107476.92, 0.0001604189, 10.000771, 9.998672 
2.0847544e+3, 1.2275118e+2, -2041368.1, -2141189.5, 123980.03, -0.086858295, -0.98343825, -1957629.6, -220667.56, 0.40993002, 9.998835, 9.997612 
2.0847844e+3, 1.327565e+2, -1606688.1, -1620382.0, -63942.785, -0.14519705, -0.46346804, -1549226.8, 89692.22, 0.29801235, 10.000195, 9.999969 
2.0848213e+3, 1.427531e+2, -1507806.0, -1639422.4, 11170.767, 0.3927766, -0.74474746, -1506864.6, 34092.61, 0.18298064, 10.000663, 9.998834 
2.0848526e+3, 1.52752e+2, -1410473.6, -1534537.0, 52245.84, 0.09405454, -0.763983, -1391403.1, 51565.957, 0.088167645, 10.000612, 9.998902 
2.0848848e+3, 1.6275178e+2, -1357523.6, -1441394.8, 95470.086, -0.12528338, -0.67063284, -1295184.9, 49787.543, 0.029713616, 10.000181, 9.999083 
2.0849219e+3, 1.7275198e+2, -1413704.5, -1393418.5, 108412.13, 0.07453091, -0.5963264, -1294675.9, -47702.563, 0.005333032, 9.999036, 9.999273 
2.084958e+3, 1.8275176e+2, -1408069.6, -1321423.4, 108365.516, 0.19506685, -0.54293305, -1248041.9, -99064.65, 0.00018960002, 9.998309, 9.999462 
2.0849912e+3, 1.9275123e+2, -1193623.1, -1141102.3, 67828.31, 0.01677185, -0.5775258, -1094628.3, -43646.758, 0.000000020895914, 9.999006, 9.99968 
2.0850241e+3, 2.0275056e+2, -995175.9, -1022912.2, -38741.563, -0.07787359, -0.59163624, -967895.1, -14908.443, 0.0, 9.999827, 9.999421 
2.0850573e+3, 2.127497e+2, -699558.4, -819672.25, -62189.88, 0.052480668, -0.6427669, -673160.6, 181831.53, 0.0, 10.001148, 9.999496 
2.0850916e+3, 2.2274913e+2, -550885.25, -766772.0, 84264.27, 0.13441291, -0.6170853, -521889.8, 235107.27, 0.0, 10.001761, 9.998919 
2.0851274e+3, 2.3274937e+2, -593846.2, -734602.8, 111864.805, 0.080604725, -0.5017677, -532062.3, 126936.58, 0.0, 10.000799, 9.998916 
2.0851628e+3, 2.4274893e+2, -595568.6, -674090.06, 40816.164, 0.038368985, -0.43173814, -578195.75, -17189.709, 0.0, 10.000057, 9.999019 
2.0851962e+3, 2.52747e+2, -485599.4, -547043.44, 5138.9956, 0.003206929, -0.5593183, -485172.56, -22148.51, 0.0, 10.000055, 9.999209 
2.08523e+3, 2.627455e+2, -417568.3, -528258.25, 54340.902, -0.05619855, -0.5976413, -395350.4, -30311.924, 0.0, 10.000122, 9.998639 
2.0852645e+3, 2.7274504e+2, -300026.44, -414551.28, 61285.45, -0.14322484, -0.52996606, -273414.6, -6370.9746, 0.000000115745564, 10.000247, 9.9986725 
2.0853001e+3, 2.8274363e+2, -173940.0, -300881.63, 13432.263, -0.07638696, -0.5317728, -172534.23, -3477.2039, 0.0000020138657, 10.000389, 9.998736 
2.085336e+3, 2.9274064e+2, -30576.05, -151476.38, -58271.54, 0.1725137, -0.75330627, -7063.1597, 64018.6, 0.000014504671, 10.0006075, 9.998963 
2.0853686e+3, 3.0273965e+2, 8162.768, -262881.53, -6138.1147, 0.09835307, -0.68642575, 8301.701, 8301.701, 0.000053401804, 10.001151, 9.997636 
2.0854023e+3, 3.127422e+2, 95486.13, -176865.63, 66010.1, -0.03806404, -0.22755472, 110641.69, 110641.69, 0.00012544218, 10.001526, 9.998032 
2.094753e+3, 1.2272243e+2, -2004882.3, -2056669.8, 193578.98, -0.16037093, -0.7224226, -1835472.9, -98228.34, 0.42994058, 9.998811, 9.998204 
2.0947874e+3, 1.3272557e+2, -1693249.8, -1827164.8, -42618.465, 0.11371605, -0.309111, -1680837.0, -41611.992, 0.31401625, 10.000212, 9.998423 
2.0948179e+3, 1.4272028e+2, -1489374.9, -1615608.1, -108.782455, -0.04519781, -0.68555504, -1489374.8, 51907.934, 0.19429262, 10.00075, 9.998965 
2.0948532e+3, 1.5272e+2, -1357705.5, -1437061.9, 54967.64, 0.07308352, -0.6803497, -1329591.4, 113691.72, 0.094824284, 10.000689, 9.999552 
2.0948872e+3, 1.627203e+2, -1320701.1, -1389252.3, 54843.02, 0.070249856, -0.5892131, -1290303.9, 54975.16, 0.032688897, 10.000283, 9.9993925 
2.0949216e+3, 1.727203e+2, -1394022.9, -1356315.4, 67547.81, 0.12318742, -0.5591385, -1305039.5, -57758.68, 0.0061590113, 9.999046, 9.999525 
2.0949557e+3, 1.827196e+2, -1451456.4, -1416707.1, 110275.93, 0.13408324, -0.54237026, -1322445.5, -173156.03, 0.00026052183, 9.99833, 9.998797 
2.0949897e+3, 1.9271801e+2, -1264017.5, -1280665.1, 102224.78, -0.032350607, -0.59377235, -1169778.1, -118471.12, 0.00000016154512, 9.998977, 9.998735 
2.0950234e+3, 2.027165e+2, -1007544.56, -1032226.2, -2358.9463, -0.13691038, -0.6340967, -1007321.1, -53999.668, 0.0, 9.999759, 9.999387 
2.0950577e+3, 2.1271539e+2, -706258.25, -800089.3, -4185.764, -0.048800435, -0.7315234, -706071.9, 149254.47, 0.0, 10.001006, 9.999698 
2.0950921e+3, 2.2271436e+2, -584202.5, -790641.44, 58783.758, 0.0037843322, -0.7593481, -568637.3, 188696.19, 0.0, 10.001566, 9.998848 
2.0951273e+3, 2.3271403e+2, -631920.0, -768872.5, 83591.016, -0.028258953, -0.6901072, -592338.6, 67003.586, 0.0, 10.000609, 9.998772 
2.0951624e+3, 2.427137e+2, -632391.56, -696862.2, 26407.283, -0.026500877, -0.59779245, -622956.06, -61606.348, 0.0, 9.999827, 9.998972 
2.0951973e+3, 2.5271332e+2, -504616.16, -563040.4, 16289.593, 0.068671234, -0.569205, -500381.34, -37026.035, 0.0, 9.999951, 9.999151 
2.0952314e+3, 2.6271257e+2, -434031.47, -528658.8, 50621.816, 0.06418997, -0.5330548, -412054.78, -46690.734, 0.0, 9.999988, 9.998696 
2.0952651e+3, 2.7271152e+2, -318015.84, -419146.25, 77604.984, -0.1042584, -0.53285307, -275956.13, -8581.525, 0.0, 10.000109, 9.998705 
2.0953003e+3, 2.8271058e+2, -262045.66, -401854.16, 9212.953, -0.10130638, -0.4644459, -261441.16, -92057.766, 0.00000039293647, 10.000048, 9.998204 
2.0953372e+3, 2.9270965e+2, -96258.48, -241061.53, -25889.32, 0.2246207, -0.41710448, -91768.92, -20377.902, 0.000007667558, 10.000409, 9.998445 
2.095371e+3, 3.0270663e+2, -75994.35, -311112.47, 7815.6177, 0.19854005, -0.5159202, -75734.836, -75734.836, 0.000037309004, 10.000655, 9.997524 
2.0954047e+3, 3.127023e+2, 98244.49, 7534.5107, 41481.285, -0.0018380043, -0.74316686, 114353.086, 114353.086, 0.000096027696, 10.000839, 9.999598 
2.1047518e+3, 1.2268957e+2, -1790904.6, -1761519.1, 62944.863, -0.1889863, -0.6385196, -1711574.9, 25994.48, 0.44859928, 9.9994545, 10.000006 
2.1047874e+3, 1.3269025e+2, -1952978.3, -1969311.0, -113082.69, 0.19580415, -0.50045973, -1847767.4, -208197.34, 0.3298663, 9.998481, 9.998299 
2.1048169e+3, 1.4268698e+2, -1810778.8, -1727110.0, 17540.658, -0.08042223, -0.67436785, -1723581.5, -181974.88, 0.20615475, 9.998263, 9.999384 
2.1048528e+3, 1.5268767e+2, -1578211.5, -1465740.5, 64123.37, 0.07803905, -0.64692056, -1436686.9, 6910.633, 0.10215144, 9.998783, 10.000245 
2.1048872e+3, 1.6268802e+2, -1485880.6, -1471965.0, 53250.84, 0.09024066, -0.58991694, -1425219.4, -79626.484, 0.036114734, 9.999155, 9.999361 
2.1049204e+3, 1.7268756e+2, -1313928.3, -1338219.5, 15083.736, 0.09530634, -0.58937067, -1306708.1, -59108.605, 0.007176738, 9.999688, 9.999335 
2.1049546e+3, 1.8268667e+2, -1214934.0, -1329097.9, 86377.69, 0.100586355, -0.57088107, -1168481.1, -18870.543, 0.0003661867, 10.000079, 9.99855 
2.1049894e+3, 1.9268502e+2, -1079423.5, -1222849.0, 114951.84, -0.028245423, -0.59716105, -1015649.5, 35980.26, 0.00000091193453, 10.000398, 9.99844 
2.1050239e+3, 2.0268351e+2, -915772.7, -1011540.75, 46478.492, -0.10111203, -0.6132023, -896924.94, 56720.367, 0.0, 10.000446, 9.999214 
2.1050581e+3, 2.126824e+2, -864413.75, -891423.44, 6298.5083, -0.028054578, -0.6984855, -863017.2, -7366.074, 0.0, 9.999957, 9.999591 
2.1050926e+3, 2.226815e+2, -876620.94, -901015.9, 49675.074, 0.019240856, -0.719683, -837667.7, -80010.34, 0.0, 9.999445, 9.999097 
2.105127e+3, 2.3268095e+2, -803715.75, -812214.9, 82114.84, -0.035437785, -0.70255554, -725740.56, -66074.82, 0.0, 9.999268, 9.999107 
2.1051618e+3, 2.426805e+2, -674265.1, -747719.2, 99418.77, -0.024779912, -0.63230604, -605006.44, -43332.92, 0.0, 9.999672, 9.9987 
2.105198e+3, 2.526803e+2, -338287.78, -529070.75, 57623.83, 0.09734809, -0.5430185, -322234.03, 141445.34, 0.0, 10.001313, 9.998719 
2.1052334e+3, 2.6267952e+2, -114665.03, -382866.34, 45648.55, 0.14527945, -0.48039845, -107108.44, 258580.61, 0.0, 10.002182, 9.998657 
2.105267e+3, 2.7267787e+2, -178766.77, -344850.97, 39293.137, 0.055216238, -0.5437496, -169939.72, 97763.42, 0.0, 10.001011, 9.998794 
2.105302e+3, 2.8267673e+2, -205072.4, -343586.63, 48404.594, 0.07008331, -0.5136004, -189833.64, -20121.305, 0.00000006547354, 10.000317, 9.9984665 
2.1053372e+3, 2.9267615e+2, 16047.482, -158723.33, 51039.34, 0.16321634, -0.4522857, 29861.006, 101577.88, 0.000004738257, 10.001065, 9.998692 
2.1053702e+3, 3.0267352e+2, 91624.18, -196045.22, 146949.25, 0.029809091, -0.54561013, 153416.58, 153416.58, 0.00002905632, 10.001609, 9.997871 
2.1054073e+3, 3.126692e+2, 159821.97, 77812.055, 87271.51, 0.18322973, -0.8021038, 215241.7, 215241.7, 0.00007990002, 10.001043, 9.999992 
2.1147527e+3, 1.2265136e+2, -1647223.4, -1513386.5, -13156.296, -0.10658125, -0.86496973, -1512105.4, 225843.28, 0.46656317, 9.999513, 10.002931 
2.114784e+3, 1.3265023e+2, -1853590.9, -1765281.5, -133467.98, -0.029165879, -1.0701623, -1668854.0, -28897.004, 0.34608045, 9.998496, 9.999681 
2.1148181e+3, 1.4265296e+2, -1766033.5, -1654926.9, 32601.414, 0.19247732, -0.7371972, -1646067.4, -104136.0, 0.21890919, 9.998338, 9.999848 
2.1148513e+3, 1.5265484e+2, -1517554.6, -1361747.3, 80830.63, 0.015971113, -0.6644904, -1327389.8, 116523.89, 0.110347085, 9.998837, 10.001012 
2.1148838e+3, 1.62655e+2, -1500147.0, -1510719.6, 63599.625, -0.18417752, -0.6666987, -1441614.4, -95700.55, 0.040102176, 9.999195, 9.999076 
2.1149185e+3, 1.7265375e+2, -1355975.3, -1430357.8, 42002.465, -0.09164003, -0.6864341, -1337064.9, -89135.0, 0.008443992, 9.9997015, 9.998699 
2.1149538e+3, 1.8265277e+2, -1205671.8, -1315729.4, 90396.56, -0.0053348383, -0.6433328, -1154871.9, -4929.1143, 0.00052604213, 10.000107, 9.998627 
2.1149898e+3, 1.9265215e+2, -1067417.5, -1187292.9, 133920.25, -0.04977176, -0.59192336, -980633.8, 71317.43, 0.0000034897541, 10.000354, 9.998704 
2.1150249e+3, 2.026514e+2, -947726.7, -1056263.6, 28851.643, -0.07101792, -0.5365358, -940533.94, 13426.125, 0.0, 10.000354, 9.998953 
2.1150589e+3, 2.1265075e+2, -915649.2, -964151.7, -7535.786, 0.030079737, -0.53518337, -914505.3, -58538.883, 0.0, 9.999822, 9.999153 
2.1150927e+3, 2.2265024e+2, -868666.3, -842424.2, 34532.008, 0.07254565, -0.50785685, -818604.5, -60633.844, 0.0, 9.99926, 9.999588 
2.1151264e+3, 2.3264992e+2, -766466.75, -710912.2, 85080.08, -0.019866481, -0.5406844, -649189.75, 10782.064, 0.0, 9.999162, 9.999855 
2.1151614e+3, 2.4264911e+2, -731904.75, -828191.6, 139343.75, -0.06773286, -0.53582126, -632622.06, -70642.2, 0.0, 9.999508, 9.998222 
2.1151985e+3, 2.5264764e+2, -421463.84, -668723.9, 129945.61, 0.010944909, -0.49362046, -365733.22, 98266.13, 0.0, 10.00117, 9.997828 
2.1152352e+3, 2.626461e+2, -162956.11, -418432.0, 20065.115, 0.08550347, -0.44459546, -161389.8, 204626.3, 0.0, 10.001911, 9.998539 
2.11527e+3, 2.7264416e+2, -182091.16, -329818.9, 5103.2065, 0.2296907, -0.5531228, -181915.08, 86114.46, 0.0, 10.000913, 9.998944 
2.1153045e+3, 2.8264177e+2, -182737.66, -255790.56, 48842.77, 0.25814125, -0.6828124, -158273.95, 11773.53, 0.00000005479561, 10.000143, 9.99915 
2.1153358e+3, 2.9263988e+2, 42733.305, -66534.664, 101488.42, -0.1104385, -0.84628177, 103358.91, 175421.63, 0.0000044706885, 10.000886, 9.999417 
2.115366e+3, 3.026401e+2, 38325.58, -129189.58, 113302.91, -0.5886854, -0.73514026, 95468.24, 95468.24, 0.000027145721, 10.000909, 9.998633 
2.1154104e+3, 3.1264198e+2, -36895.074, -175090.69, 173872.0, 0.33382294, -0.4494408, 81105.98, 81105.98, 0.00007500409, 10.000425, 9.998535 
2.124755e+3, 1.22621834e+2, -1448619.6, -905783.25, 13921.51, 0.24317396, -0.3256468, -905426.44, 832813.9, 0.48543465, 9.997794, 10.011989 
2.1247813e+3, 1.3261591e+2, -2000950.6, -1799549.4, -38809.535, -0.07204822, -1.2180103, -1792329.6, -152038.55, 0.3637423, 9.997364, 9.999968 
2.124817e+3, 1.426206e+2, -1737395.4, -1663252.1, 119457.28, 0.24923868, -0.69444007, -1575246.4, -33000.844, 0.23315269, 9.998621, 9.999659 
2.1248502e+3, 1.5262158e+2, -1431798.4, -1349209.4, 64136.516, -0.002586022, -0.6849103, -1314223.3, 130013.85, 0.1197026, 9.999546, 10.000783 
2.1248831e+3, 1.6262108e+2, -1403570.9, -1472971.3, -1571.3846, -0.1938538, -0.7359425, -1403535.3, -57290.906, 0.044803485, 9.999885, 9.999013 
2.1249177e+3, 1.7262034e+2, -1371698.5, -1449861.4, -1622.3617, -0.12937751, -0.6909673, -1371664.9, -123408.37, 0.01004214, 9.999637, 9.998602 
2.1249531e+3, 1.8261974e+2, -1300041.1, -1359707.0, 85568.15, -0.04274721, -0.60706115, -1239254.5, -88988.04, 0.0007722133, 9.99943, 9.9986515 
2.1249902e+3, 1.9261876e+2, -1159634.5, -1225037.5, 103229.875, 0.008521905, -0.5982556, -1084050.3, -31773.018, 0.000010944595, 9.999676, 9.998772 
2.1250261e+3, 2.026179e+2, -1039635.06, -1108083.0, -9141.117, 0.053676378, -0.5566498, -1038435.3, -84148.15, 0.0, 9.999791, 9.998852 
2.125059e+3, 2.1261746e+2, -922807.06, -985673.75, -51550.684, 0.06917134, -0.51422006, -893862.2, -37568.723, 0.0, 9.999873, 9.99897 
2.1250923e+3, 2.2261702e+2, -730387.3, -777962.56, 26601.396, 0.06895381, -0.46981034, -718489.0, 39809.082, 0.0, 10.000208, 9.99958 
2.1251267e+3, 2.3261653e+2, -476330.38, -563246.06, 18336.56, -0.01698637, -0.5227794, -472620.28, 187678.42, 0.0, 10.001129, 9.99992 
2.1251619e+3, 2.4261548e+2, -439453.97, -677605.0, 64859.125, -0.04921328, -0.5506835, -422935.7, 139371.39, 0.0, 10.001478, 9.998307 
2.1251994e+3, 2.5261346e+2, -516955.84, -708072.6, 100925.625, 0.018755559, -0.5662399, -473527.25, -9196.779, 0.0, 10.00048, 9.997898 
2.1252361e+3, 2.6261163e+2, -417625.66, -546933.8, 49745.12, 0.10066013, -0.54890215, -400703.22, -34354.227, 0.0, 10.00021, 9.9984665 
2.1252713e+3, 2.7260977e+2, -79320.55, -288323.34, -7105.2124, 0.22304751, -0.6301386, -79079.28, 189282.3, 0.0, 10.001695, 9.9988365 
2.1253054e+3, 2.8260747e+2, 116543.77, -153686.81, -471.29242, 0.24520242, -0.7336731, 116544.59, 286924.38, 0.000000117451826, 10.00236, 9.998801 
2.1253364e+3, 2.9260543e+2, -1681.4392, -134342.03, -74073.43, -0.11140115, -0.8621271, 31419.557, 103818.06, 0.0000050467984, 10.000796, 9.998987 
2.1253672e+3, 3.026056e+2, -31220.209, -186544.5, -85381.48, -0.51725864, -0.7209106, 6536.038, 6536.038, 0.00002697455, 10.000465, 9.998501 
2.1254121e+3, 3.126085e+2, 280096.44, 40518.82, -80595.15, 0.40156034, -0.31531763, 304685.4, 304685.4, 0.00007158717, 10.002268, 9.999169 
2.1347795e+3, 1.3258758e+2, -2056609.9, -1905250.6, -18529.629, 0.00894687, -0.88379854, -1903015.3, -262445.88, 0.38411817, 9.997335, 9.999239 
2.1348129e+3, 1.4259024e+2, -1793993.9, -1798704.4, 158037.97, -0.05644079, -0.49946085, -1638293.6, -95747.56, 0.24951555, 9.9987, 9.998685 
2.1348494e+3, 1.5258788e+2, -1510918.0, -1515410.1, 104955.62, -0.06406886, -0.7016367, -1408184.4, 36383.71, 0.13052814, 9.999591, 9.999539 
2.1348847e+3, 1.6258596e+2, -1387562.6, -1463919.4, -13104.993, -0.032090995, -0.82098174, -1385376.0, -38788.215, 0.050404422, 9.99998, 9.999032 
2.134918e+3, 1.7258722e+2, -1340755.6, -1389187.0, -8627.605, -0.09504443, -0.61375767, -1339264.6, -90683.71, 0.012084308, 9.999649, 9.999013 
2.1349521e+3, 1.8258755e+2, -1296758.3, -1361245.5, 84382.33, -0.11249633, -0.4596553, -1238669.0, -88087.29, 0.001155736, 9.999462, 9.998628 
2.1349905e+3, 1.9258493e+2, -1175175.1, -1253397.3, 118477.33, 0.06384957, -0.6017475, -1089520.3, -36912.69, 0.000030850606, 9.999651, 9.998592 
2.135027e+3, 2.0258282e+2, -1052645.8, -1113652.4, -15194.845, 0.15799658, -0.67444855, -1049070.8, -94442.15, 0.0, 9.999698, 9.99886 
2.1350586e+3, 2.1258238e+2, -933666.0, -982522.0, -40856.08, 0.02188986, -0.63912165, -910492.0, -53857.63, 0.0, 9.99976, 9.999049 
2.1350911e+3, 2.2258182e+2, -791977.1, -856787.9, 50820.977, -0.09160002, -0.5959433, -764109.1, -5469.274, 0.0, 10.000007, 9.999131 
2.1351269e+3, 2.3258078e+2, -545301.6, -674646.2, 63790.496, -0.103182316, -0.6410648, -519134.84, 141511.56, 0.0, 10.000988, 9.999226 
2.1351634e+3, 2.4257948e+2, -434291.06, -618122.44, 35527.89, -0.08032564, -0.6708379, -427663.72, 134992.78, 0.0, 10.001273, 9.998812 
2.1352002e+3, 2.5257766e+2, -466888.53, -582626.6, 69006.484, 0.03786286, -0.7530705, -434698.03, 29975.416, 0.0, 10.000382, 9.998805 
2.1352363e+3, 2.625759e+2, -448952.03, -576158.44, 75737.35, 0.08163778, -0.7845108, -413653.7, -46963.996, 0.0, 10.000067, 9.998328 
2.1352705e+3, 2.7257437e+2, -134474.1, -373292.5, 62103.58, -0.028902052, -0.78911656, -119289.78, 149413.08, 0.00000000014169585, 10.001563, 9.998319 
2.1353047e+3, 2.8257313e+2, -22642.986, -367193.28, -43960.99, -0.09433361, -0.7055121, -17122.48, 153592.89, 0.000000256191, 10.002058, 9.997465 
2.1353386e+3, 2.9257223e+2, -136550.78, -399766.25, -110361.08, 0.021114146, -0.5656558, -96402.41, -23673.572, 0.0000052967753, 10.000715, 9.997208 
2.1353723e+3, 3.0256876e+2, -182270.9, -372778.28, -43224.41, -0.07469006, -0.61201006, -172922.42, -172922.42, 0.000025200057, 9.999983, 9.997422 
2.1354112e+3, 3.1256694e+2, 307754.25, 326723.63, 116733.24, 0.03995571, -0.65237963, 434356.84, 434356.84, 0.00006359548, 10.001343, 10.001556 
2.144778e+3, 1.3255453e+2, -1904538.8, -1788153.8, -125586.53, 0.10673152, -0.6697987, -1707932.6, -67036.65, 0.40760165, 9.998153, 9.999649 
2.1448113e+3, 1.425556e+2, -1548542.3, -1674091.0, -31704.3, -0.16564885, -0.48066756, -1540990.4, 1897.6055, 0.26811564, 10.000358, 9.998745 
2.1448484e+3, 1.5255275e+2, -1616331.3, -1584470.5, -28454.441, -0.07853819, -0.7121571, -1567790.5, -122876.7, 0.14296411, 9.998922, 9.999374 
2.1448848e+3, 1.6255082e+2, -1635496.8, -1574434.1, -56374.26, 0.06302641, -0.82290006, -1540854.4, -193921.72, 0.057087187, 9.99826, 9.999096 
2.144918e+3, 1.7255223e+2, -1340069.5, -1370448.9, -81938.516, -0.03186227, -0.615934, -1271924.6, -23000.525, 0.014719365, 9.9996, 9.999158 
2.1449521e+3, 1.8255258e+2, -1158358.0, -1272344.0, -4093.4463, -0.08303203, -0.47540557, -1158211.1, -7286.923, 0.0017550356, 10.000333, 9.9988165 
2.1449903e+3, 1.9255008e+2, -1114923.4, -1201833.1, 36927.94, 0.061310165, -0.6220678, -1101352.0, -48403.582, 0.00008036648, 9.999982, 9.998786 
2.1450266e+3, 2.0254813e+2, -1010095.56, -1059210.4, -40793.348, 0.1478421, -0.7003439, -987038.25, -32071.035, 0.000000018813253, 9.999833, 9.999169 
2.1450587e+3, 2.1254797e+2, -788898.1, -875717.94, -58147.25, 0.019342963, -0.67086935, -759744.1, 97224.83, 0.0, 10.000584, 9.999383 
2.1450916e+3, 2.225475e+2, -673423.2, -811621.7, 53253.574, -0.07389611, -0.6363928, -655283.4, 103689.61, 0.0, 10.000872, 9.999029 
2.1451277e+3, 2.3254608e+2, -699230.06, -775277.0, 78086.94, -0.07902476, -0.69364536, -650401.06, 10582.989, 0.0, 10.000054, 9.998986 
2.145164e+3, 2.4254462e+2, -652820.3, -738653.56, 73033.2, -0.028300114, -0.7180806, -611027.5, -48031.43, 0.0, 9.999835, 9.99868 
2.1452017e+3, 2.5254297e+2, -359795.38, -540470.0, 24042.63, 0.12408137, -0.7686891, -356650.72, 108360.67, 0.0, 10.001163, 9.998715 
2.145238e+3, 2.6254123e+2, -170380.81, -474146.6, 8347.44, 0.16656007, -0.7847361, -170151.6, 196877.1, 0.0, 10.002104, 9.998055 
2.1452717e+3, 2.7253965e+2, -94896.61, -389233.5, -16715.127, -0.07379256, -0.76244867, -93950.414, 175094.97, 0.00000000016893417, 10.001981, 9.998008 
2.1453059e+3, 2.8253862e+2, -33800.94, -416992.66, -101486.6, -0.17726564, -0.6232348, -8582.356, 162474.4, 0.0000002738674, 10.002143, 9.997091 
2.1453409e+3, 2.9253736e+2, 150562.05, -288394.84, -123238.01, 0.06342685, -0.47927013, 182794.53, 255866.83, 0.0000047479944, 10.002815, 9.996954 
2.1453755e+3, 3.0253223e+2, 205458.22, -227438.83, 69361.66, 0.1328734, -0.673154, 216300.27, 216300.27, 0.000021563434, 10.002733, 9.997137 
2.1454114e+3, 3.1252915e+2, 122572.46, 223844.17, 121769.2, 0.00587454, -0.79464436, 305086.03, 305086.03, 0.000054127435, 10.00009, 10.001451 
2.1547763e+3, 1.325169e+2, -1787920.4, -1593833.5, 47339.42, 0.049878567, -0.52374834, -1582902.6, 58367.152, 0.43279883, 9.998206, 10.001241 
2.1548113e+3, 1.425159e+2, -1472609.0, -1512577.6, -69612.36, -0.25154778, -0.69304866, -1420169.1, 123109.07, 0.28823382, 10.000523, 9.999905 
2.154847e+3, 1.5251611e+2, -1545622.6, -1455975.4, -78847.77, -0.13570203, -0.72052515, -1410101.0, 35174.16, 0.15688464, 9.998989, 10.000259 
2.1548823e+3, 1.6251601e+2, -1618849.1, -1559357.8, -35365.793, -0.03030725, -0.70793706, -1542891.5, -195614.95, 0.06501248, 9.998346, 9.999155 
2.1549177e+3, 1.7251533e+2, -1356209.6, -1402316.3, -25892.396, -0.035549883, -0.6919199, -1344595.0, -95308.38, 0.018139776, 9.999597, 9.998934 
2.1549529e+3, 1.825146e+2, -1126687.9, -1221533.4, -14396.543, -0.06142816, -0.655646, -1124550.9, 26745.43, 0.0026903055, 10.00039, 9.99914 
2.1549888e+3, 1.9251412e+2, -1071382.1, -1110033.8, 27909.654, -0.08764533, -0.660695, -1056760.4, -3459.642, 0.00019736934, 9.999977, 9.999414 
2.1550244e+3, 2.0251384e+2, -983670.25, -988150.9, -28803.639, -0.08691673, -0.63172656, -957019.94, -1717.2456, 0.0000007869328, 9.999762, 9.999693 
2.1550588e+3, 2.1251412e+2, -770720.0, -813134.0, -22390.814, -0.024037477, -0.6105655, -761087.3, 96211.445, 0.0, 10.000468, 9.99987 
2.1550933e+3, 2.2251381e+2, -686892.0, -796857.6, 28108.54, 0.005116559, -0.59671366, -680123.7, 79176.375, 0.0, 10.0006895, 9.999215 
2.1551281e+3, 2.325122e+2, -704671.4, -765175.8, 52851.34, -0.032303315, -0.6866538, -674026.44, -12712.977, 0.0, 9.999956, 9.999103 
2.1551643e+3, 2.4251066e+2, -732485.56, -858869.9, 98935.55, -0.0009663874, -0.7004831, -678283.1, -114955.17, 0.0, 9.999651, 9.997938 
2.1552037e+3, 2.525092e+2, -451837.28, -704826.25, 85528.61, 0.19860084, -0.63388425, -425636.0, 39710.395, 0.0, 10.001046, 9.997643 
2.1552412e+3, 2.6250726e+2, -235428.72, -557780.2, 10907.456, 0.23963597, -0.57968414, -235060.06, 132308.88, 0.0, 10.001887, 9.997582 
2.1552745e+3, 2.7250513e+2, -138203.31, -441465.0, -9623.198, -0.01943157, -0.586068, -137898.25, 131494.19, 0.0, 10.001815, 9.997731 
2.1553083e+3, 2.8250343e+2, -57904.42, -380989.53, -87278.65, -0.15413699, -0.51242125, -35834.453, 135574.92, 0.000000100631844, 10.001803, 9.997488 
2.1553425e+3, 2.9250067e+2, 169286.86, -192513.89, -72730.28, -0.06653944, -0.5815912, 183359.92, 256790.0, 0.0000031808167, 10.002566, 9.997733 
2.155376e+3, 3.0249497e+2, 134834.11, -218289.02, -9888.845, -0.1345263, -0.9144519, 135110.83, 135110.83, 0.000016664693, 10.002113, 9.997471 
2.155411e+3, 3.1249547e+2, -191467.83, -327952.78, 8684.209, -0.088109165, -0.67352074, -190917.48, -190917.48, 0.00004561872, 9.999675, 9.997851 
2.1647744e+3, 1.3247932e+2, -1499964.5, -1506501.8, 126897.65, -0.08407168, -0.64010674, -1376293.4, 265342.2, 0.45757636, 10.0011835, 10.00088 
2.1648106e+3, 1.4247887e+2, -2012620.5, -1719961.3, -15296.881, -0.15622716, -0.75241625, -1719163.9, -175523.31, 0.3088363, 9.996409, 10.000323 
2.1648455e+3, 1.5248016e+2, -1665831.6, -1466103.5, -44337.01, -0.10091949, -0.7188109, -1456703.6, -11075.525, 0.17204043, 9.997983, 10.000626 
2.164881e+3, 1.6248074e+2, -1491393.9, -1469111.4, 17822.809, -0.03511305, -0.6696078, -1459234.0, -111611.22, 0.07433442, 9.999081, 9.999425 
2.1649177e+3, 1.7247976e+2, -1284302.6, -1340075.4, 63789.953, -0.0061521046, -0.70901364, -1242570.0, 7063.6157, 0.022589553, 9.99995, 9.999205 
2.1649538e+3, 1.8247896e+2, -1146519.9, -1219106.1, 55676.527, 0.0025120398, -0.7026457, -1116352.0, 35290.82, 0.00413868, 10.000216, 9.999238 
2.1649888e+3, 1.9247882e+2, -1152558.6, -1156378.0, 15925.598, -0.06304104, -0.6682342, -1138428.6, -84783.64, 0.00045452762, 9.999453, 9.999354 
2.1650237e+3, 2.0247874e+2, -1095001.6, -1026512.1, -34887.184, -0.08270024, -0.6218187, -1011871.06, -56225.156, 0.000007502901, 9.998926, 9.999833 
2.1650586e+3, 2.1247888e+2, -903578.0, -852251.0, -52978.66, -0.030905148, -0.63002247, -819047.25, 38595.215, 0.0, 9.999462, 10.000085 
2.1650936e+3, 2.224786e+2, -774081.1, -836423.56, -22787.273, 0.005728193, -0.6267582, -766640.1, -6996.7017, 0.0, 10.000091, 9.999225 
2.1651289e+3, 2.3247732e+2, -547393.2, -695785.56, -33796.625, -0.009116441, -0.6776596, -540058.5, 121596.07, 0.0, 10.00107, 9.999036 
2.1651652e+3, 2.4247594e+2, -446845.0, -752590.44, 43368.01, 0.04064569, -0.6600489, -440812.56, 122856.53, 0.0, 10.001736, 9.997666 
2.1652046e+3, 2.5247422e+2, -396509.16, -703682.7, 72715.19, 0.16396481, -0.5868016, -380165.34, 85526.53, 0.0, 10.001564, 9.997387 
2.165242e+3, 2.624724e+2, -303045.78, -561452.44, 40579.4, 0.1798379, -0.52113473, -296823.16, 70891.586, 0.0, 10.001303, 9.997834 
2.1652761e+3, 2.7247062e+2, -250013.75, -443896.78, 42513.49, 0.025849393, -0.52892333, -241101.34, 28632.168, 0.0, 10.000845, 9.998169 
2.165311e+3, 2.8246886e+2, -176971.19, -404351.56, 52828.742, -0.008144376, -0.50022465, -165296.58, 6452.592, 0.0000000029805467, 10.000824, 9.997804 
2.165345e+3, 2.9246587e+2, 104374.16, -171588.8, 24373.402, -0.032139234, -0.61647254, 106510.31, 180280.63, 0.000001345268, 10.00192, 9.998179 
2.1653774e+3, 3.024618e+2, 304183.47, -109804.46, 40959.035, -0.22154939, -0.8497128, 308196.94, 308196.94, 0.000010778314, 10.003136, 9.997727 
2.1654138e+3, 3.124621e+2, 327542.22, -289513.2, -56479.24, -0.0018534368, -0.59563994, 332669.2, 332669.2, 0.00003608632, 10.00417, 9.995939 
2.1747728e+3, 1.3244265e+2, -1605067.9, -1795897.8, -140924.14, -0.43004784, -0.9860837, -1530295.8, 111688.336, 0.48078975, 10.001668, 9.997962 
2.1748093e+3, 1.4244525e+2, -2055661.9, -1823797.9, -6792.7075, 0.0152458465, -0.6171174, -1823599.1, -279631.9, 0.32934, 9.996482, 9.999572 
2.1748443e+3, 1.5244499e+2, -1695060.8, -1521075.1, 27273.754, -0.048818637, -0.6997366, -1516899.9, -70928.34, 0.18832743, 9.997954, 10.00026 
2.1748799e+3, 1.6244474e+2, -1446232.5, -1403571.0, 46938.816, -0.088884905, -0.7204364, -1373343.5, -25369.086, 0.0852701, 9.999192, 9.999821 
2.1749175e+3, 1.7244565e+2, -1218116.4, -1213834.3, 103125.99, -0.034287024, -0.65793496, -1112827.1, 137137.0, 0.028395085, 10.000006, 10.000053 
2.1749544e+3, 1.8244575e+2, -1164305.6, -1270192.5, 33679.418, 0.005732495, -0.60143614, -1154501.0, -2538.3154, 0.006367479, 10.000274, 9.9988575 
2.1749894e+3, 1.9244404e+2, -1213094.3, -1280658.6, -10106.125, 0.04826167, -0.64822644, -1211615.0, -157632.22, 0.0009868387, 9.999446, 9.998502 
2.1750239e+3, 2.0244259e+2, -1122850.0, -1073000.5, -35203.67, 0.04078067, -0.67523855, -1054791.3, -98792.23, 0.000047582707, 9.998871, 9.999544 
2.1750577e+3, 2.1244216e+2, -925184.0, -868096.8, -24677.918, -0.07658705, -0.73264974, -858907.94, -906.81964, 0.00000000032497088, 9.999334, 10.000039 
2.1750923e+3, 2.2244176e+2, -821269.7, -884243.0, 5051.7295, -0.15839814, -0.7312245, -820867.0, -60863.242, 0.0, 9.999881, 9.998995 
2.1751292e+3, 2.3244125e+2, -594081.25, -753729.1, 13223.273, -0.08720037, -0.6750933, -592993.4, 69015.81, 0.0, 10.000907, 9.9987135 
2.1751668e+3, 2.424402e+2, -473284.34, -743470.4, 38913.195, -0.022681532, -0.6130285, -467791.6, 96230.12, 0.0, 10.001471, 9.997851 
2.1752042e+3, 2.5243795e+2, -396475.5, -660878.5, 72957.79, -0.053877294, -0.6313347, -377680.06, 88369.18, 0.0, 10.001386, 9.997764 
2.1752405e+3, 2.6243636e+2, -279234.28, -450989.97, 18466.307, -0.109920226, -0.59559, -277271.3, 90796.8, 0.0, 10.001053, 9.998708 
2.1752764e+3, 2.7243593e+2, -197002.34, -301964.56, 35760.246, -0.031529408, -0.5715806, -185977.06, 84093.086, 0.0, 10.000716, 9.999203 
2.175313e+3, 2.8243458e+2, -204937.02, -393047.2, 67849.53, 0.09507138, -0.5761971, -183018.33, -10937.673, 0.0, 10.000546, 9.998008 
2.1753474e+3, 2.924321e+2, 71862.75, -201370.06, 79796.4, 0.013961903, -0.6427219, 93459.83, 167560.39, 0.00000028754212, 10.001754, 9.9980545 
2.1753797e+3, 3.0243078e+2, 209636.11, -171150.58, 60795.88, -0.35314268, -0.5802278, 219107.14, 219107.14, 0.0000061263827, 10.002614, 9.997529 
2.17542e+3, 3.1242973e+2, 183425.19, -404871.3, 87716.69, 0.15238638, -0.45192018, 196225.48, 196225.48, 0.000027574106, 10.0034, 9.995512 
2.1848077e+3, 1.4240912e+2, -1767699.9, -1755492.0, -69241.08, 0.11043166, -0.59762186, -1692086.4, -147767.86, 0.34983045, 9.99872, 9.99896 
2.1848445e+3, 1.5240766e+2, -1471579.9, -1431989.1, -83445.3, 0.12188269, -0.76096237, -1366023.4, 80312.95, 0.2059314, 9.999565, 10.000198 
2.1848774e+3, 1.6240865e+2, -1539143.3, -1415970.6, -40160.53, -0.2066837, -0.6671114, -1404033.3, -55705.387, 0.09816949, 9.998437, 10.000099 
2.184917e+3, 1.724095e+2, -1384942.4, -1249550.6, -25615.746, -0.016082507, -0.63660395, -1244866.3, 5450.706, 0.036017943, 9.998713, 10.000402 
2.1849546e+3, 1.8240939e+2, -1317767.8, -1332351.1, -112477.016, 0.06735907, -0.62693393, -1212346.3, -60029.285, 0.009796201, 9.999149, 9.99898 
2.1849893e+3, 1.9240747e+2, -1137930.4, -1237965.0, -108293.92, 0.07037397, -0.7013315, -1068661.1, -14321.834, 0.0020521113, 9.999923, 9.998563 
2.1850237e+3, 2.0240614e+2, -884146.2, -945175.44, -48063.953, 0.06669533, -0.72285473, -857728.5, 98625.95, 0.00020967671, 10.000465, 9.999656 
2.1850578e+3, 2.124064e+2, -713590.44, -755035.94, -41751.94, -0.051744927, -0.7215112, -687701.44, 170649.23, 0.00000086887735, 10.000734, 10.000147 
2.1850927e+3, 2.2240637e+2, -682826.2, -823728.3, 17857.934, -0.13151044, -0.68580645, -680598.06, 79752.15, 0.0, 10.000842, 9.99896 
2.1851301e+3, 2.3240536e+2, -618437.25, -765558.56, 32393.826, -0.07549581, -0.6734628, -611620.5, 50740.176, 0.0, 10.000755, 9.998703 
2.1851675e+3, 2.4240401e+2, -575403.8, -752607.75, 71425.305, -0.024693731, -0.6537919, -550199.44, 14176.245, 0.0, 10.000589, 9.998215 
2.1852043e+3, 2.5240225e+2, -526688.7, -678623.3, 84824.52, -0.08981555, -0.6678451, -488786.66, -22388.982, 0.0, 10.000267, 9.998196 
2.1852407e+3, 2.6240128e+2, -369246.63, -461898.16, 49048.12, -0.13417564, -0.6084455, -348105.4, 20304.236, 0.0, 10.000266, 9.999029 
2.1852773e+3, 2.7240115e+2, -106327.09, -232439.03, -3497.6707, -0.025526514, -0.5752109, -106230.164, 164178.53, 0.0, 10.001206, 9.999463 
2.1853144e+3, 2.8239965e+2, -1391.0641, -271101.97, 14241.528, 0.12084915, -0.622033, -641.1546, 171779.63, 0.0, 10.001815, 9.998247 
2.1853496e+3, 2.923969e+2, 94711.86, -181815.86, 21518.693, 0.0635392, -0.7224299, 96376.37, 170821.5, 0.000000027227998, 10.001866, 9.998141 
2.1853836e+3, 3.0239725e+2, 167013.7, -164645.23, 32782.098, -0.18397297, -0.5108354, 170222.92, 170222.92, 0.0000044959556, 10.002153, 9.997826 
2.1854219e+3, 3.1239542e+2, 73338.96, -268767.94, 45860.055, 0.12149242, -0.4863237, 79379.914, 79379.914, 0.000025056477, 10.001726, 9.997301 
2.1948032e+3, 1.4236894e+2, -1732957.6, -1677191.5, 98835.91, -0.27195626, -0.7282407, -1602380.9, -57671.313, 0.371045, 9.998735, 9.999471 
2.1948461e+3, 1.5236747e+2, -1441237.5, -1382319.8, -110020.7, 0.31153077, -0.9084333, -1297882.3, 148846.56, 0.22535217, 9.9996395, 10.000607 
2.1948732e+3, 1.6237238e+2, -1516308.9, -1380698.1, -69474.88, -0.49458402, -0.4777053, -1351424.5, -2741.2827, 0.113554515, 9.998487, 10.000317 
2.1949157e+3, 1.7237097e+2, -1408189.4, -1291159.9, -6683.134, -0.022071026, -0.6496911, -1290779.4, -40083.69, 0.046104282, 9.998687, 10.000128 
2.1949542e+3, 1.8236935e+2, -1259912.5, -1218567.4, -88615.2, 0.08593338, -0.8012162, -1148245.4, 4465.312, 0.015073848, 9.999175, 9.999749 
2.1949878e+3, 1.9236906e+2, -1062331.4, -1076811.9, -72750.336, -0.074786074, -0.8190662, -996461.9, 58252.813, 0.004138987, 9.999909, 9.999675 
2.1950224e+3, 2.0236944e+2, -867255.5, -895795.4, -41738.305, -0.123271585, -0.7528839, -837415.2, 119296.805, 0.00072646124, 10.000405, 10.000023 
2.1950586e+3, 2.1237147e+2, -723046.25, -741143.06, -27719.287, -0.054133818, -0.5944151, -702935.94, 155756.55, 0.000022642807, 10.000593, 10.000304 
2.1950947e+3, 2.2237228e+2, -699520.6, -811004.0, 9971.239, -0.028493453, -0.4925904, -698635.75, 62048.625, 0.000000000011542125, 10.000633, 9.9991455 
2.195131e+3, 2.3236957e+2, -619139.75, -742870.8, 36481.34, -0.06676631, -0.6766964, -609184.44, 53525.43, 0.0, 10.000644, 9.998911 
2.1951675e+3, 2.423673e+2, -581870.06, -710117.2, 51865.758, -0.09223509, -0.77843755, -563520.06, 1212.0308, 0.0, 10.000359, 9.998612 
2.1952051e+3, 2.5236696e+2, -512921.34, -620689.44, 78966.34, -0.049743894, -0.6951692, -471206.38, -4467.5273, 0.0, 10.000144, 9.998649 
2.1952422e+3, 2.623669e+2, -434857.4, -527971.25, 64270.22, -0.03446983, -0.56696516, -402053.06, -33310.63, 0.0, 9.999987, 9.998696 
2.1952783e+3, 2.723659e+2, -177268.4, -327454.72, 43143.25, -0.0582516, -0.5683702, -165757.16, 104995.27, 0.0, 10.0009985, 9.9988985 
2.1953145e+3, 2.8236365e+2, -39062.84, -274878.7, 9864.33, -0.072154455, -0.6615172, -38650.93, 134123.1, 0.0, 10.00151, 9.998362 
2.1953511e+3, 2.923606e+2, 66389.914, -181853.1, 42071.324, 0.007136364, -0.82486254, 73326.195, 148127.5, 0.000000020729713, 10.001613, 9.998263 
2.195388e+3, 3.023609e+2, 123631.0, -120811.03, 27934.596, 0.015996408, -0.6211229, 126782.7, 126782.7, 0.0000055230016, 10.0016165, 9.998356 
2.1954204e+3, 3.123575e+2, 117354.7, -4357.447, 97888.86, -0.2284158, -0.87965566, 171762.2, 171762.2, 0.000029811183, 10.001064, 9.999394 
2.2047988e+3, 1.4232841e+2, -1819383.9, -1618730.8, 107803.6, -0.50654125, -0.8780799, -1571792.1, -26685.75, 0.39437363, 9.997699, 10.000384 
2.204845e+3, 1.5232858e+2, -1443333.1, -1309570.1, -86805.29, 0.26695246, -0.9404489, -1266869.4, 180241.23, 0.24751917, 9.999173, 10.001472 
2.2048733e+3, 1.6233511e+2, -1260474.9, -1237787.0, -59886.523, -0.40566978, -0.42841208, -1188179.5, 160870.11, 0.13222682, 10.00019, 10.000607 
2.2049142e+3, 1.7233297e+2, -1395730.9, -1331605.6, -11877.69, -0.024573768, -0.6462007, -1329476.3, -78406.33, 0.059555795, 9.998906, 9.999781 
2.2049521e+3, 1.8233107e+2, -1391735.8, -1213793.5, -48109.152, 0.0563275, -0.8292478, -1201619.4, -48531.59, 0.023171267, 9.997975, 10.000367 
2.2049868e+3, 1.9233194e+2, -1164476.1, -1022781.5, -51318.625, -0.09167387, -0.8179234, -1006147.75, 48929.836, 0.008108057, 9.998755, 10.00062 
2.2050223e+3, 2.0233305e+2, -1011834.94, -962778.25, -40523.7, -0.1250933, -0.73662484, -939937.7, 17128.11, 0.0021629941, 9.999396, 10.000053 
2.2050586e+3, 2.1233442e+2, -855486.4, -837797.2, -74932.49, -0.060710195, -0.6170302, -771189.1, 87864.91, 0.00023583506, 9.999818, 10.000018 
2.2050951e+3, 2.2233473e+2, -747331.1, -812985.4, -47805.234, -0.01214988, -0.55263, -722167.2, 38884.637, 0.0000019906881, 10.000214, 9.999336 
2.2051321e+3, 2.3233263e+2, -597767.44, -699870.94, -37258.836, -0.008881867, -0.7053631, -585617.1, 77453.67, 0.0, 10.000629, 9.9992285 
2.2051689e+3, 2.4233097e+2, -462034.16, -590369.5, -5546.19, -0.00063428766, -0.78110695, -461794.9, 103291.28, 0.0, 10.0009, 9.999183 
2.2052059e+3, 2.5233117e+2, -348853.28, -450873.94, 13826.991, -0.027018655, -0.71292543, -347012.5, 120073.11, 0.0, 10.000928, 9.999414 
2.2052424e+3, 2.6233125e+2, -338627.2, -518273.56, 36684.117, -0.026040565, -0.6062862, -331424.97, 37662.09, 0.0, 10.000798, 9.998375 
2.2052798e+3, 2.723298e+2, -302998.8, -471551.47, -1917.88, 0.019641599, -0.5864714, -302976.97, -31871.861, 0.0, 10.000482, 9.99816 
2.2053164e+3, 2.8232792e+2, -187838.05, -304949.3, -24216.5, 0.042787913, -0.61528873, -183028.06, -9902.505, 0.0, 10.000316, 9.998726 
2.205352e+3, 2.923255e+2, -61528.234, -177312.8, -10181.776, 0.019969773, -0.7665465, -60639.695, 14507.2, 0.00000007580395, 10.000445, 9.998859 
2.2053894e+3, 3.0232474e+2, -51908.18, -294613.06, 15239.765, 0.07542587, -0.6695357, -50954.996, -50954.996, 0.0000083740215, 10.000761, 9.997595 
2.205424e+3, 3.123216e+2, 471556.47, 327094.0, -99168.61, -0.044959843, -0.8020851, 522010.88, 522010.88, 0.000042885644, 10.002764, 10.000861 
2.2148006e+3, 1.4229004e+2, -1733743.5, -1476120.1, -139450.61, -0.15851943, -0.76710653, -1415092.6, 130392.055, 0.4221777, 9.99767, 10.001917 
2.2148408e+3, 1.5229085e+2, -1382615.8, -1181199.3, -1836.4247, -0.07528647, -0.8463671, -1181182.5, 266300.28, 0.27423543, 9.999068, 10.0027685 
2.2148772e+3, 1.6229647e+2, -1226593.6, -1177959.0, -87902.46, -0.072503336, -0.53047967, -1111072.3, 238358.45, 0.15564767, 10.000255, 10.001081 
2.2149126e+3, 1.722956e+2, -1418015.9, -1376825.9, -63164.227, -0.11447289, -0.6148744, -1330983.9, -79544.8, 0.07778218, 9.9989, 9.999472 
2.2149487e+3, 1.8229464e+2, -1363415.6, -1163637.5, -46626.95, -0.1227488, -0.6919942, -1153291.0, 156.14922, 0.035576556, 9.998004, 10.000703 
2.2149861e+3, 1.9229601e+2, -1127052.9, -928836.6, -14501.959, -0.057118546, -0.6902057, -927781.25, 127647.24, 0.0154146915, 9.998683, 10.001309 
2.2150227e+3, 2.0229681e+2, -1042782.7, -1009698.06, -26224.402, -0.045853786, -0.6770535, -995234.44, -37816.74, 0.005714695, 9.999318, 9.999769 
2.2150576e+3, 2.1229519e+2, -918079.6, -945116.0, -51351.89, -0.16086614, -0.79340035, -878496.44, -19060.246, 0.0013616167, 9.999716, 9.9993305 
2.2150935e+3, 2.2229393e+2, -779383.4, -828227.1, -39283.96, -0.19854379, -0.8415458, -757548.8, 3901.7002, 0.00013056793, 9.999993, 9.999338 
2.215133e+3, 2.3229444e+2, -597825.2, -662020.56, -11704.99, 0.017898, -0.76363736, -595757.56, 67687.04, 0.0000045921656, 10.000461, 9.999571 
2.2151715e+3, 2.4229485e+2, -464749.1, -514767.66, -11458.514, 0.123982005, -0.6753873, -462249.06, 103190.31, 0.000000030624218, 10.000569, 9.999853 
2.215206e+3, 2.522947e+2, -319119.84, -337000.75, 21268.695, -0.100701824, -0.73132515, -304988.9, 162450.89, 0.0, 10.000712, 10.000297 
2.2152416e+3, 2.6229405e+2, -404474.25, -589555.94, 11796.642, -0.21061194, -0.7363854, -403725.38, -34278.395, 0.0, 10.000534, 9.998006 
2.2152813e+3, 2.722928e+2, -387084.03, -605069.25, -6501.118, 0.10012249, -0.62880707, -386890.3, -115423.17, 0.0, 10.000316, 9.997317 
2.2153193e+3, 2.8229222e+2, -208689.66, -277617.72, -29590.12, 0.27400705, -0.48525196, -197729.63, -24251.914, 0.0, 10.000035, 9.999034 
2.2153525e+3, 2.922911e+2, -34463.902, -93558.61, 2428.666, -0.00007231095, -0.5826369, -34364.258, 41122.684, 0.00000027397763, 10.000346, 9.99947 
2.215388e+3, 3.0228823e+2, -220337.84, -568122.9, 46986.01, -0.18695101, -0.6516162, -214101.81, -214101.81, 0.000015050563, 10.000479, 9.995828 
2.215429e+3, 3.1228682e+2, 353805.88, 293720.2, 51161.7, 0.13932963, -0.41870204, 383093.38, 383093.38, 0.00007034586, 10.001912, 10.001017 
2.2248018e+3, 1.422549e+2, -1254235.9, -1905660.8, -347405.56, -0.2418583, -0.6746961, -1103734.9, 442095.03, 0.45833316, 10.006508, 9.994554 
2.2248381e+3, 1.5225597e+2, -1541288.9, -1335297.3, 190075.11, -0.20356895, -0.7408152, -1222106.4, 225719.19, 0.30885017, 9.998439, 10.001819 
2.2248782e+3, 1.6225879e+2, -1355922.9, -1285740.1, -27252.871, 0.05496417, -0.61006695, -1276400.4, 73399.77, 0.18666483, 9.999436, 10.000621 
2.2249119e+3, 1.7225888e+2, -1327297.0, -1301298.1, -37119.363, -0.08162129, -0.6125967, -1274967.9, -23169.182, 0.103338934, 9.999413, 9.999732 
2.2249472e+3, 1.8225868e+2, -1261046.0, -1121922.6, 40332.965, -0.069794096, -0.62916464, -1111075.5, 42722.727, 0.054786276, 9.998714, 10.000673 
2.2249854e+3, 1.9225898e+2, -1170431.6, -965506.75, 22385.582, 0.028803533, -0.72643065, -963089.9, 92699.02, 0.028543482, 9.998418, 10.001193 
2.2250225e+3, 2.0225899e+2, -1162200.3, -1098150.0, 9711.427, 0.049841795, -0.7805406, -1096709.9, -138924.17, 0.013685946, 9.998637, 9.999482 
2.2250581e+3, 2.1225797e+2, -901331.1, -981732.9, -13617.188, -0.10360856, -0.79725593, -899087.44, -39286.465, 0.005262215, 10.000035, 9.998925 
2.2250943e+3, 2.2225703e+2, -662043.25, -772021.2, -8364.163, -0.15578473, -0.78424305, -661410.75, 100402.83, 0.001420654, 10.000782, 9.999351 
2.225133e+3, 2.3225707e+2, -720772.6, -694696.1, -17717.008, 0.04485352, -0.7723223, -685736.94, -21925.984, 0.0002619265, 9.9994955, 9.999816 
2.2251712e+3, 2.4225724e+2, -742586.94, -650804.6, -846.93396, 0.15743813, -0.722414, -650796.8, -84989.68, 0.000035642544, 9.998653, 9.999852 
2.2252065e+3, 2.5225753e+2, -503758.5, -436845.38, -29371.137, -0.039074235, -0.7262692, -425782.22, 42021.582, 0.0000011567587, 9.999443, 10.000247 
2.2252427e+3, 2.6225692e+2, -416520.97, -539546.8, -48814.082, -0.13531461, -0.7426263, -399505.84, -29695.389, 0.0, 10.000204, 9.998512 
2.2252817e+3, 2.7225518e+2, -178919.53, -418254.8, 7532.7583, 0.085370444, -0.7461513, -178682.69, 93148.44, 0.0, 10.001394, 9.99808 
2.22532e+3, 2.8225508e+2, 79983.445, -221491.61, 39467.62, 0.25589362, -0.5796363, 85064.71, 258900.19, 0.0, 10.002363, 9.998317 
2.2253549e+3, 2.9225475e+2, 239365.72, -105599.73, -90765.39, 0.092876144, -0.4594364, 261789.75, 337632.13, 0.00000073017384, 10.002865, 9.998169 
2.2253907e+3, 3.0224988e+2, 74776.695, -424086.16, -78248.33, -0.05094727, -0.66868055, 86762.25, 86762.25, 0.00002755439, 10.002463, 9.995886 
2.2254297e+3, 3.1224722e+2, 197756.3, 254351.06, 45248.1, 0.100519106, -0.56029767, 279421.6, 279421.6, 0.000118261974, 10.000615, 10.001412 
2.2348367e+3, 1.522247e+2, -1780041.4, -1737791.0, 218628.08, -0.23124777, -0.5381129, -1539269.9, -91138.64, 0.35698506, 9.998191, 9.998627 
2.2348762e+3, 1.6222192e+2, -1482479.8, -1516388.1, -8109.7236, -0.12348844, -0.6830302, -1480640.0, -130480.5, 0.23053116, 9.99934, 9.998981 
2.234912e+3, 1.7222254e+2, -1291918.4, -1210199.5, -42704.39, -0.0048824893, -0.66430277, -1191955.9, 60195.44, 0.14104874, 9.999307, 10.000465 
2.234948e+3, 1.8222299e+2, -1292817.8, -1178417.3, 16518.412, 0.0942658, -0.660194, -1176079.9, -21936.23, 0.08532412, 9.998679, 10.000285 
2.2349846e+3, 1.9222075e+2, -1236354.4, -1089407.5, 20422.785, 0.0850268, -0.93173003, -1086621.9, -30462.299, 0.05187056, 9.998369, 10.000349 
2.2350213e+3, 2.022197e+2, -1205346.3, -1159531.0, 40994.54, 0.048452545, -1.0222411, -1135477.9, -177309.69, 0.030293982, 9.998522, 9.999115 
2.2350593e+3, 2.1222252e+2, -932113.4, -1011850.06, 49003.543, 0.027778925, -0.63759285, -908808.7, -48658.508, 0.015773455, 9.999888, 9.99879 
2.2350967e+3, 2.2222373e+2, -706749.0, -793478.94, -36800.34, -0.0007744258, -0.40060374, -693238.8, 68905.58, 0.0069356123, 10.000489, 9.999334 
2.235132e+3, 2.3222032e+2, -726821.56, -684166.25, -60563.56, -0.022368431, -0.74803907, -641284.75, 22887.025, 0.002541045, 9.9993925, 9.999932 
2.2351679e+3, 2.4221805e+2, -827172.1, -769128.94, -3137.6406, -0.021258367, -0.91876733, -768959.8, -202769.72, 0.00075579167, 9.998421, 9.999145 
2.235207e+3, 2.5221977e+2, -592840.9, -576666.1, 11016.568, 0.052512087, -0.7036999, -571087.1, -102910.2, 0.00014769337, 9.999251, 9.999375 
2.2352447e+3, 2.6221994e+2, -406000.3, -418384.75, -25890.996, 0.037347704, -0.6206437, -385571.34, -15395.053, 0.000007045108, 9.999803, 9.999521 
2.2352813e+3, 2.7221695e+2, -73448.016, -153530.92, 60218.098, -0.10662596, -0.9300887, -41173.93, 231024.14, 0.00000000065814787, 10.001206, 9.999975 
2.2353189e+3, 2.8221628e+2, -92570.91, -498606.66, 41195.45, -0.12102624, -0.88836354, -88433.47, 85769.055, 0.0, 10.002047, 9.996547 
2.2353587e+3, 2.9221672e+2, -41715.28, -604697.5, -62568.285, 0.15626265, -0.4001487, -34845.445, 41366.586, 0.0000012574419, 10.002528, 9.994886 
2.2353962e+3, 3.0220935e+2, 58158.695, -306197.2, -144931.92, 0.21640994, -0.6981258, 108776.94, 108776.94, 0.000044073433, 10.001859, 9.99696 
2.235428e+3, 3.1220582e+2, 67539.18, 171114.89, 118825.125, -0.15831798, -0.8981076, 248947.22, 248947.22, 0.00018419352, 9.999895, 10.001157 
2.2448394e+3, 1.5218858e+2, -1228458.0, -1491003.9, 4043.7444, -0.06549162, -0.6248979, -1228395.8, 220088.53, 0.42759266, 10.003557, 9.997645 
2.2448757e+3, 1.6218555e+2, -1247439.1, -1387584.8, 16517.834, -0.17100595, -0.7547476, -1245518.6, 104995.1, 0.29616648, 10.00127, 9.998945 
2.2449121e+3, 1.7218615e+2, -1175177.0, -1189019.4, -71632.555, 0.022444768, -0.70683265, -1110132.0, 142373.6, 0.19952731, 10.000397, 10.000131 
2.244948e+3, 1.8218651e+2, -1165802.5, -1167628.0, -51899.13, 0.18706824, -0.6775141, -1114808.1, 39691.535, 0.13536815, 9.999778, 9.999849 
2.2449839e+3, 1.921846e+2, -1006870.7, -1030772.44, -35536.766, 0.1074159, -0.8687863, -981329.1, 75185.81, 0.09319166, 10.0002, 9.999898 
2.2450206e+3, 2.0218377e+2, -930797.44, -1014778.06, 33216.945, 0.051433142, -0.9157723, -919247.56, 39274.93, 0.06306426, 10.000307, 9.999292 
2.2450596e+3, 2.1218587e+2, -997287.94, -1000434.0, 66171.3, 0.106489204, -0.6352006, -932671.0, -72161.82, 0.0400799, 9.999212, 9.999226 
2.2450975e+3, 2.2218665e+2, -922512.4, -886441.06, 37506.49, 0.11118019, -0.46801388, -862859.1, -100353.664, 0.023131557, 9.998931, 9.999466 
2.245132e+3, 2.3218408e+2, -558979.25, -606030.9, -18993.07, -0.0105417725, -0.7339172, -552269.3, 112256.4, 0.011994159, 10.000555, 9.999922 
2.2451678e+3, 2.4218214e+2, -410925.88, -622644.56, 35360.285, -0.042492386, -0.8494069, -405176.3, 161365.33, 0.0054928027, 10.001496, 9.9986725 
2.245207e+3, 2.5218284e+2, -482569.16, -572882.4, 49153.086, 0.08809342, -0.68349886, -460978.9, 7558.866, 0.002050329, 10.000228, 9.998926 
2.2452451e+3, 2.6218227e+2, -461434.3, -475544.2, 65727.48, 0.12734716, -0.6315887, -402384.22, -31840.387, 0.0004876709, 9.999539, 9.999265 
2.245283e+3, 2.721791e+2, 25640.361, -112596.68, 40621.5, -0.07406186, -0.9439724, 36693.383, 309259.56, 0.000047167257, 10.001912, 9.999923 
2.2453213e+3, 2.8217795e+2, 47259.254, -421325.03, -76600.21, -0.11060856, -0.95745623, 59463.36, 234038.16, 0.00000034188096, 10.002951, 9.996648 
2.245361e+3, 2.921778e+2, -42225.555, -600099.8, -17769.59, 0.17194861, -0.51394325, -41660.125, 34929.535, 0.0000013302117, 10.002469, 9.994971 
2.2453992e+3, 3.0217192e+2, 225515.52, -166816.11, 63143.887, 0.30881006, -0.7220099, 235427.8, 235427.8, 0.0000584347, 10.002706, 9.997521 
2.2454311e+3, 3.1217018e+2, 467443.8, 270940.56, 34048.094, 0.011364326, -0.7511752, 473176.1, 473176.1, 0.00025945, 10.002963, 10.000365 
2.2548765e+3, 1.6214986e+2, -1271980.9, -1312432.8, -37321.508, -0.30659658, -0.7880463, -1249757.0, 101103.96, 0.39765337, 10.000678, 9.999908 
2.2549118e+3, 1.7214961e+2, -1283937.0, -1393254.5, -127457.33, -0.0937395, -0.74312246, -1199912.9, 52949.89, 0.29298013, 10.000283, 9.998721 
2.2549476e+3, 1.8214901e+2, -1242260.1, -1283499.4, -79066.78, 0.090008296, -0.6899725, -1181168.5, -26299.992, 0.21888196, 9.999591, 9.999109 
2.2549832e+3, 1.9215004e+2, -1048073.4, -1072702.8, -20555.342, -0.0038452803, -0.5646231, -1036426.2, 20433.355, 0.16615056, 10.000005, 9.999681 
2.2550198e+3, 2.0215064e+2, -917089.3, -930352.44, 2547.816, -0.08788536, -0.4930901, -916616.7, 42237.215, 0.12546477, 10.000086, 9.999989 
2.2550581e+3, 2.1214777e+2, -947675.9, -869457.7, 29127.87, 0.015850946, -0.80999327, -859802.5, 1077.4473, 0.0914258, 9.999092, 10.00017 
2.255096e+3, 2.2214592e+2, -953438.4, -896491.06, 70251.375, 0.053146273, -0.9712502, -849162.3, -86265.86, 0.062582165, 9.998696, 9.999512 
2.2551331e+3, 2.3214827e+2, -599954.0, -651045.06, 51942.27, 0.012365781, -0.7303592, -567615.4, 97258.055, 0.039919913, 10.000374, 9.999711 
2.2551695e+3, 2.4214928e+2, -519418.06, -719000.9, -1024.6407, -0.044646457, -0.5134263, -519412.8, 47450.66, 0.023601582, 10.000964, 9.998258 
2.2552061e+3, 2.521467e+2, -518631.47, -601777.6, -379.92828, -0.032320693, -0.66926473, -518629.72, -49742.094, 0.012405956, 10.000044, 9.998806 
2.2552437e+3, 2.6214367e+2, -614430.6, -722289.56, 88259.734, 0.005397401, -0.7832405, -564928.1, -194012.25, 0.005154125, 9.999257, 9.9977 
2.2552861e+3, 2.721416e+2, -160228.78, -403454.53, 140279.72, 0.04575145, -0.8222127, -96185.83, 176749.98, 0.0013586987, 10.001518, 9.998108 
2.2553264e+3, 2.8214002e+2, 30456.697, -275323.13, -104013.734, 0.074397534, -0.81215286, 62483.473, 237435.73, 0.00015517221, 10.002219, 9.99798 
2.2553626e+3, 2.9213816e+2, 97326.23, -202744.42, -19712.354, 0.052997485, -0.7824218, 98615.64, 175589.83, 0.0000026982873, 10.00208, 9.997848 
2.2553997e+3, 3.0213714e+2, 149576.61, -215894.89, 66489.836, 0.026202375, -0.7135954, 161297.17, 161297.17, 0.000065484004, 10.00228, 9.997372 
2.2554353e+3, 3.1213668e+2, 263073.3, 3777.7131, 7675.793, 0.09218597, -0.45288083, 263300.3, 263300.3, 0.00034262822, 10.002346, 9.998813 
2.2649069e+3, 1.721093e+2, -1429284.8, -1047693.9, -86548.45, -0.40163612, -0.85611933, -1028981.5, 224276.13, 0.44342524, 9.996245, 10.004304 
2.2649527e+3, 1.8211374e+2, -715636.9, -1040093.1, 92700.34, 0.37064368, -0.77586997, -691019.3, 464191.47, 0.3585124, 10.005035, 9.998629 
2.2649845e+3, 1.9211271e+2, -1051265.3, -1327197.5, -54308.605, 0.08754688, -0.6163531, -1040961.06, 16264.799, 0.29413474, 10.001121, 9.99735 
2.2650178e+3, 2.0211169e+2, -1115290.4, -990846.56, -61566.754, -0.18865165, -0.58018625, -965535.44, -6296.671, 0.24160613, 9.998464, 10.000343 
2.2650559e+3, 2.1211065e+2, -854471.5, -736896.75, -34322.926, -0.094621584, -0.80579364, -727610.5, 133633.25, 0.1940874, 9.999191, 10.001255 
2.265095e+3, 2.2211005e+2, -724758.06, -798059.7, 46094.434, 0.018692145, -0.91214836, -702519.4, 60726.227, 0.14888066, 10.000328, 9.999432 
2.2651336e+3, 2.3211113e+2, -602299.94, -699373.0, -6435.687, 0.036772896, -0.7403947, -601875.1, 63359.676, 0.108788945, 10.000606, 9.999266 
2.265171e+3, 2.4211082e+2, -474428.9, -689423.44, -46907.086, 0.018354688, -0.62943846, -464640.47, 102596.516, 0.07581198, 10.001204, 9.998384 
2.2652067e+3, 2.521082e+2, -143121.02, -432582.44, -57658.56, -0.08304395, -0.79268235, -132058.63, 337201.25, 0.048806984, 10.002694, 9.998775 
2.2652432e+3, 2.6210538e+2, -120986.83, -556422.75, 46807.906, -0.12662452, -0.8440735, -116011.98, 255273.84, 0.026684597, 10.002925, 9.997106 
2.2652873e+3, 2.7210343e+2, -259476.53, -497360.0, 171653.61, 0.054294582, -0.82765114, -169583.16, 103724.82, 0.010897145, 10.000953, 9.997775 
2.2653279e+3, 2.8210205e+2, -440490.16, -404750.44, 4231.426, 0.21316148, -0.8027985, -404256.28, -228932.77, 0.002788968, 9.998534, 9.998882 
2.2653638e+3, 2.9210153e+2, 136764.95, -27718.242, 57934.88, -0.0038101336, -0.7618311, 155122.22, 232450.55, 0.0003034348, 10.001691, 9.999238 
2.2654004e+3, 3.021013e+2, 291735.25, -210204.5, 23199.652, -0.1774049, -0.7208057, 292805.25, 292805.25, 0.000074942734, 10.003582, 9.996781 
2.2654392e+3, 3.1209615e+2, 135529.84, -256696.36, -139205.95, 0.23589301, -0.6506675, 179913.39, 179913.39, 0.00045627946, 10.002218, 9.997171 
2.2750154e+3, 2.020685e+2, -1020053.44, -1050065.8, -80721.53, -0.3399261, -0.98829633, -952955.1, 6706.4023, 0.4526298, 9.999612, 9.999358 
2.2750561e+3, 2.1207444e+2, -626569.1, -582240.3, 6691.504, -0.017026022, -0.6210084, -581252.2, 280348.9, 0.38963944, 10.0012455, 10.002306 
2.2750984e+3, 2.2207822e+2, -725845.2, -858191.9, 48307.742, 0.2695292, -0.35691166, -710088.4, 53472.44, 0.32267725, 10.000727, 9.998792 
2.275135e+3, 2.3207116e+2, -759143.3, -866582.8, 15605.739, 0.09951929, -0.9362569, -756922.44, -91298.3, 0.25840095, 9.999878, 9.998421 
2.2751722e+3, 2.4206558e+2, -597695.56, -782475.9, -1178.2872, -0.04634099, -1.2977273, -597688.0, -30013.914, 0.20062341, 10.000461, 9.99807 
2.2752093e+3, 2.5206724e+2, -259844.42, -471785.9, 9132.777, -0.15294391, -1.0943222, -259451.61, 210204.17, 0.14660953, 10.002034, 9.998768 
2.2752438e+3, 2.6206782e+2, -363237.0, -728859.0, -29628.123, -0.39205244, -0.7715045, -360851.63, 10797.321, 0.09444842, 10.001492, 9.996573 
2.2752869e+3, 2.720652e+2, -267156.3, -390771.9, 81720.586, -0.11859459, -0.9042713, -226502.13, 47174.645, 0.04983968, 10.000473, 9.998699 
2.2753261e+3, 2.8206423e+2, -528989.8, -414204.66, -30800.037, 0.15033711, -0.9094294, -406462.34, -230774.47, 0.019500945, 9.997833, 9.9991255 
2.2753638e+3, 2.9206797e+2, 52178.21, -67696.32, 180935.13, -0.18027565, -0.48601192, 182845.23, 260497.08, 0.004786881, 10.001158, 9.999196 
2.2754002e+3, 3.0206507e+2, 33809.9, -477869.5, -57954.406, -0.5763288, -0.68845654, 40291.88, 40291.88, 0.0007184054, 10.002516, 9.995418 
2.2754407e+3, 3.1205156e+2, -227658.88, -705324.25, -2817.6274, 0.12567224, -1.2153991, -227642.25, -227642.25, 0.0007782504, 10.001093, 9.994545 
2.2851719e+3, 2.4203974e+2, 8905.698, 156930.19, -29540.838, -0.34592482, -0.38044533, 162607.81, 730540.5, 0.45869297, 10.002871, 10.008048 
2.2852148e+3, 2.5202858e+2, -772228.75, -1024169.75, -117901.945, 0.33222547, -1.1678826, -725661.0, -255626.08, 0.36361384, 9.999478, 9.996316 
2.2852498e+3, 2.6202852e+2, -845840.06, -807788.1, -42474.926, 0.21055096, -0.82589394, -780272.6, -408239.03, 0.26167566, 9.997315, 9.998105 
2.285292e+3, 2.7202702e+2, 114290.79, -115948.7, 153586.5, 0.26207283, -0.9652309, 191112.11, 465163.44, 0.1640845, 10.00308, 9.999647 
2.2853264e+3, 2.820258e+2, 232235.81, -142780.84, -93587.086, 0.11755084, -0.97466594, 254293.5, 430359.6, 0.0825175, 10.003677, 9.998249 
2.2853665e+3, 2.920279e+2, 104786.25, -136822.86, 135023.78, -0.028096369, -0.63690484, 165158.86, 243207.17, 0.030766618, 10.001831, 9.998476 
2.2854072e+3, 3.02025e+2, -273486.28, -397710.53, -134145.64, 0.061705604, -0.85448515, -187770.92, -187770.92, 0.009050311, 9.999294, 9.997559 
2.285438e+3, 3.1202078e+2, -268404.22, -55764.164, 172235.08, -0.077160686, -0.77889615, 40323.492, 40323.492, 0.00396517, 9.997891, 10.000532 
2.2952886e+3, 2.7199262e+2, -328430.53, -218294.8, 54209.145, -0.40584302, -0.65215445, -196089.77, 78304.89, 0.434636, 9.998891, 10.001003 
2.2953264e+3, 2.819881e+2, -739113.2, -1030119.2, -444278.38, -0.3342446, -0.9746793, -417118.2, -240673.61, 0.25417694, 9.998603, 9.994502 
2.2953719e+3, 2.9198483e+2, -130478.586, -386728.88, 99250.49, 0.2628311, -1.0831567, -96533.64, -18051.938, 0.12176133, 10.000918, 9.9970665 
2.2954202e+3, 3.019833e+2, -798968.4, -287379.0, -256211.98, 1.3193707, -1.1849035, -181130.17, -181130.17, 0.05395521, 9.994287, 10.000622 
2.2954339e+3, 3.1200048e+2, 402436.44, 1583946.4, 37531.508, -0.4190565, 0.22956683, 1585137.4, 1585137.4, 0.03126977, 9.996977, 10.012463 
2.3053786e+3, 2.9196334e+2, -137472.53, 575634.56, -204935.98, 0.7542244, 0.31189984, 630334.25, 709049.3, 0.36085805, 9.9947815, 10.009779 
2.305397e+3, 3.0196515e+2, 481171.72, 264976.2, 203755.88, -1.4464859, -0.4519488, 603728.6, 603728.6, 0.21395575, 10.003844, 10.000415 
2.3054433e+3, 3.1194684e+2, -522640.34, -1561379.4, 63882.035, 0.537552, -0.9073034, -518726.38, -518726.38, 0.1652027, 10.00152, 9.98898 
2.352512e+3, 2.779992e+2, -478384.7, 144332.03, 517923.72, 0.2917174, 0.6131986, 437282.38, 652925.56, 0.44950745, 9.994867, 10.007117 
2.3521401e+3, 2.8799182e+2, 117894.68, -203676.89, -320507.47, -1.3125782, 0.14271118, 315685.4, 433390.3, 0.35249743, 10.002808, 9.998181 
2.35183e+3, 2.9799822e+2, -57051.93, 436888.44, 642795.56, 1.4529902, 0.5794354, 878525.9, 898166.1, 0.27554184, 9.997666, 10.005736 
2.3514861e+3, 3.079847e+2, 535088.25, 563857.6, -791859.4, -0.146719, -0.15164825, 1341463.0, 1341463.0, 0.22125845, 10.004551, 10.00322 
2.3659153e+3, 1.7841235e+2, -2163206.3, -1324975.4, -117197.23, -0.61959213, 0.667192, -1308897.9, -117311.445, 0.43640867, 9.991392, 10.002713 
2.3655781e+3, 1.8839858e+2, -554578.2, -823946.3, 20537.549, 0.006551317, -0.21663406, -553021.3, 540693.6, 0.3775989, 10.005565, 9.999696 
2.3652393e+3, 1.9839887e+2, -782301.4, -966657.6, 15014.223, 0.44219008, 0.27144212, -781086.6, 214620.84, 0.33353588, 10.0022545, 9.998664 
2.364895e+3, 2.0839502e+2, -313636.78, -820685.56, -60317.38, -0.35920683, 0.7134925, -306560.3, 591183.5, 0.30097756, 10.006668, 9.996931 
2.3645529e+3, 2.183777e+2, -597882.8, -898675.75, 69128.91, -0.7495213, -0.23756786, -582756.1, 217157.45, 0.27814138, 10.002337, 9.997769 
2.364232e+3, 2.2837758e+2, -28713.979, -573843.94, -124714.695, 1.5010146, 0.5084449, -1536.6937, 700383.1, 0.26103863, 10.006913, 9.997352 
2.3638679e+3, 2.3836914e+2, -1431032.5, -1068218.4, 91324.08, -0.6089439, 0.38905317, -1046527.9, -442518.7, 0.24561481, 9.994086, 9.999185 
2.3635103e+3, 2.4836156e+2, -1078411.0, -631337.5, 222860.69, -1.5732108, 0.16478638, -539223.25, -33139.063, 0.23008126, 9.994843, 10.001172 
2.3631738e+3, 2.583575e+2, -754147.1, -436354.03, 410651.3, -0.58911955, 0.25193417, -154929.55, 253192.36, 0.2098275, 9.996381, 10.001457 
2.3628362e+3, 2.6835197e+2, -70679.26, -1483.3025, 144577.08, 0.10384957, 0.052586988, 112577.9, 422746.0, 0.17456141, 10.000252, 10.002131 
2.3625025e+3, 2.7834314e+2, -720277.0, -1113316.5, 160429.73, 0.22674266, -0.1629051, -663108.5, -450863.47, 0.12474777, 9.998947, 9.993861 
2.3621494e+3, 2.883357e+2, 395822.13, -161129.06, -564619.7, -0.23071057, 0.09358956, 746905.1, 861225.1, 0.081768006, 10.004645, 9.99717 
2.361801e+3, 2.983337e+2, -193369.52, -329278.0, 224203.23, -0.864971, 0.2435026, -27048.568, -10701.463, 0.055123158, 9.999686, 9.997918 
2.3614965e+3, 3.083222e+2, -169813.2, -1186186.6, 233555.81, 1.1103548, 0.6046093, -118712.83, -118712.83, 0.039434306, 10.004023, 9.990034 
2.3766004e+3, 1.5875812e+2, -1219381.6, -1245005.6, 272823.0, 0.15400518, 0.2994956, -959069.94, 425128.0, 0.40916032, 10.001028, 10.000953 
2.3762444e+3, 1.6875416e+2, -1095280.4, -1200508.4, 62008.305, -1.4000863, 0.4700364, -1066572.4, 219662.16, 0.31914034, 10.001593, 9.999597 
2.3759243e+3, 1.7874692e+2, -1023501.06, -1133575.0, -75390.375, 0.7018987, 0.29707512, -985195.75, 203105.8, 0.25440004, 10.001201, 9.999499 
2.3755813e+3, 1.887396e+2, -835973.7, -949036.0, -170611.3, 0.70208734, 0.17234986, -712771.75, 377599.2, 0.20803122, 10.001746, 9.99991 
2.3752332e+3, 1.9873369e+2, -753189.94, -882319.06, -151301.88, 0.1827929, 0.122360624, -653252.7, 339173.56, 0.17323056, 10.001483, 9.999816 
2.3748918e+3, 2.087276e+2, -978274.25, -921753.3, -21320.432, -0.020430518, 0.08193535, -914613.0, -20131.064, 0.14628343, 9.998838, 9.999957 
2.3745514e+3, 2.1872151e+2, -1081113.0, -863090.25, -1978.8302, -0.05229705, 0.005468343, -863072.3, -66534.49, 0.1255341, 9.99721, 10.000479 
2.3742114e+3, 2.2871721e+2, -825841.44, -723661.44, 84320.15, 0.119436584, 0.114648975, -676161.0, 22419.482, 0.10829949, 9.998481, 10.000145 
2.3738709e+3, 2.3871161e+2, -604864.8, -640157.94, 63149.36, 0.30568245, 0.1680427, -556942.75, 43694.76, 0.09199208, 9.999661, 9.999474 
2.3735234e+3, 2.4870667e+2, -135243.53, -316535.38, -166240.08, 0.23146406, 0.2816522, -36542.023, 466148.72, 0.07586676, 10.002179, 9.999932 
2.3731777e+3, 2.5870138e+2, 145173.84, -405993.16, -168960.23, 0.024484323, 0.4702447, 192845.39, 597592.25, 0.059159193, 10.004817, 9.997235 
2.3728338e+3, 2.686928e+2, 464629.6, -103703.445, -226204.2, -0.04108774, 0.3644846, 543669.56, 850498.0, 0.040411934, 10.005816, 9.998225 
2.3724969e+3, 2.786815e+2, -29576.0, -703428.94, 37880.49, -0.030796072, 0.09506623, -27453.244, 181481.52, 0.02171765, 10.003573, 9.994342 
2.3721477e+3, 2.886709e+2, 183215.47, -418100.72, -453383.8, -0.28859085, 0.11739528, 426572.25, 537609.3, 0.009488228, 10.003895, 9.995396 
2.3718022e+3, 2.9866302e+2, 204723.67, -59454.17, 160082.3, -0.45046836, 0.0052594002, 280177.1, 293292.1, 0.004342407, 10.002349, 9.998234 
2.3714888e+3, 3.0865592e+2, 103015.555, -304523.28, 521349.44, 0.56709254, 0.34260708, 459002.53, 459002.53, 0.0025724524, 10.002559, 9.996424 
2.3869348e+3, 1.4909819e+2, -1101759.6, -1307517.4, 182405.48, 0.21003701, -0.6491341, -995220.7, 483627.44, 0.38967898, 10.004029, 9.9994755 
2.3865923e+3, 1.5910546e+2, -1472452.4, -1551758.9, 67158.98, -0.17715783, 0.6461273, -1434114.0, -53333.15, 0.2783623, 9.999497, 9.998696 
2.3862532e+3, 1.6909528e+2, -1398540.6, -1404267.9, 112475.74, -0.046064816, 0.31774962, -1288892.1, -6010.917, 0.19862524, 9.999179, 9.999085 
2.3859128e+3, 1.790827e+2, -1236399.8, -1376557.4, 82981.66, 0.024754332, -0.31029093, -1197864.6, -12860.37, 0.1461588, 9.999977, 9.99828 
2.3855667e+3, 1.8907726e+2, -1009788.4, -1163988.1, 59969.92, -0.37113827, -0.11213191, -989211.3, 97847.94, 0.11113541, 10.000789, 9.998648 
2.3852205e+3, 1.9907264e+2, -804397.3, -950131.2, 14083.918, -0.68676335, 0.08348427, -803048.7, 186056.95, 0.08556882, 10.001159, 9.999358 
2.3848833e+3, 2.0906758e+2, -791300.1, -710460.25, 41702.06, -0.27575064, 0.08751258, -692804.06, 198346.72, 0.065839775, 9.999696, 10.001051 
2.384546e+3, 2.1906231e+2, -972368.2, -772772.25, -39863.633, 0.13579388, 0.00087531883, -765105.1, 28091.912, 0.050802168, 9.997853, 10.000789 
2.3842e+3, 2.2905754e+2, -838631.06, -559379.56, -53717.51, -0.3475386, -0.061036877, -549402.75, 145839.95, 0.038884565, 9.997733, 10.001629 
2.383853e+3, 2.3905215e+2, -960484.6, -916030.75, -153074.81, -0.8772814, -0.11067896, -783577.56, -186281.64, 0.028499383, 9.997742, 9.9985 
2.3835127e+3, 2.4904522e+2, -645163.8, -888890.5, -157432.42, -0.451889, 0.014681327, -567940.1, -68571.4, 0.019239577, 10.000008, 9.996893 
2.3831774e+3, 2.590365e+2, -536676.7, -986770.06, 351.50757, 0.2016631, 0.12738232, -536676.44, -135216.25, 0.011432521, 10.001026, 9.995035 
2.3828344e+3, 2.6902995e+2, -71203.4, -320494.28, -105406.95, 0.16090477, 0.29099485, -32609.402, 270915.34, 0.005416997, 10.001877, 9.998504 
2.3824921e+3, 2.7902225e+2, -473967.94, -748898.8, 43513.242, -0.18726286, 0.2572412, -467245.47, -261646.92, 0.001679893, 9.999792, 9.995853 
2.3821452e+3, 2.8900844e+2, 137353.78, -491194.4, -255971.27, -0.36562797, -0.047997013, 228406.1, 336136.66, 0.00032890253, 10.003771, 9.99497 
2.3818052e+3, 2.9899976e+2, 376354.16, -36336.707, 226985.22, -0.017177563, -0.12983768, 476767.16, 486578.84, 0.00010157759, 10.003685, 9.997843 
2.3814787e+3, 3.089948e+2, -412587.28, 71963.35, 518969.6, -0.16335891, 0.07606606, 402424.25, 402424.25, 0.00014334769, 9.9962, 10.002159 
2.3972702e+3, 1.3945784e+2, -2193317.8, -1913533.3, -76431.664, -0.75131136, 0.46704173, -1894015.3, -320687.63, 0.42782384, 9.995614, 9.999239 
2.3969294e+3, 1.4945008e+2, -1128267.9, -1335804.3, -47020.773, -0.21464564, 0.27054432, -1118111.6, 357290.38, 0.2998544, 10.003197, 9.999432 
2.396587e+3, 1.5944181e+2, -1412276.5, -1504911.0, -12763.05, -0.17217498, 0.08837733, -1410550.1, -33072.652, 0.19614406, 9.999756, 9.998944 
2.3962453e+3, 1.6943495e+2, -1247246.4, -1229754.1, 76680.15, -0.23530531, -0.008916481, -1161323.0, 118221.09, 0.12585048, 9.999694, 10.000172 
2.3959048e+3, 1.7942825e+2, -1155630.6, -1268384.8, 84803.54, -0.2679425, -0.117860764, -1110174.4, 71436.17, 0.083471425, 10.000214, 9.998947 
2.3955657e+3, 1.8942398e+2, -946874.06, -1177392.0, 67709.24, -0.020221824, 0.18291481, -928457.44, 155201.55, 0.057587944, 10.001341, 9.998307 
2.3952256e+3, 1.9941948e+2, -719030.3, -984076.94, 20940.744, 0.17565942, 0.45372573, -717386.0, 268323.34, 0.03970386, 10.002014, 9.998683 
2.3948799e+3, 2.0941138e+2, -774159.7, -821122.3, -44370.03, -0.058345478, 0.25575754, -747440.7, 140345.39, 0.026570952, 10.000367, 9.999873 
2.3945346e+3, 2.1940294e+2, -962952.56, -901817.6, -48321.242, -0.29297605, 0.0013005905, -875207.2, -85342.234, 0.017417854, 9.998517, 9.999559 
2.3941948e+3, 2.2939852e+2, -790997.5, -696355.44, -65730.34, -0.1348413, 0.11674052, -662684.2, 29226.139, 0.011141793, 9.998766, 10.000157 
2.3938555e+3, 2.3939349e+2, -655404.1, -753432.75, -123835.12, 0.012607067, 0.23338008, -571236.06, 22725.969, 0.0065593217, 9.999775, 9.998604 
2.3935112e+3, 2.4938512e+2, -305367.16, -505280.16, -105822.48, -0.12639049, 0.07120451, -259756.84, 236286.08, 0.0032030866, 10.001418, 9.998818 
2.3931694e+3, 2.5937596e+2, -301443.06, -678517.8, 77141.32, -0.21525736, -0.061818667, -286272.0, 111859.34, 0.0011282732, 10.001826, 9.996723 
2.3928279e+3, 2.6937017e+2, -314169.22, -489496.84, -40691.453, -0.032395635, 0.18814203, -305185.56, -4999.9434, 0.00023273825, 10.000466, 9.9979925 
2.3924878e+3, 2.7936384e+2, -615941.3, -658215.25, 132780.8, 0.05500161, 0.30688143, -502625.63, -300379.6, 0.000018051116, 9.998161, 9.997206 
2.3921457e+3, 2.893513e+2, 17417.582, -433521.0, 60009.918, -0.06982786, 0.011267562, 25266.938, 129636.58, 0.000004039042, 10.002453, 9.995964 
2.391808e+3, 2.9934412e+2, 689237.06, 20067.941, 201249.6, 0.2605025, 0.121099785, 745098.7, 751538.94, 0.00001362104, 10.006158, 9.997043 
2.3914678e+3, 3.0933374e+2, -581734.06, -41916.727, -120500.99, -0.1594584, -0.017354446, -16239.235, -16239.235, 0.000054133918, 9.995152, 10.001911 
2.4076182e+3, 1.2979868e+2, -1705651.0, -1815673.4, 121891.03, 1.0394843, -0.34954393, -1626932.4, 41062.74, 0.49043465, 10.000449, 9.998217 
2.4072668e+3, 1.3979985e+2, -1765701.1, -1849653.4, 63583.348, -0.39168593, 0.44561085, -1731487.8, -161505.94, 0.36336103, 9.999092, 9.998123 
2.4069248e+3, 1.4979096e+2, -1546614.0, -1584855.4, -86518.234, -0.2209457, 0.21273534, -1477128.8, -5066.575, 0.24041095, 9.999587, 9.998961 
2.406583e+3, 1.5978071e+2, -1422726.6, -1489434.9, -64757.35, 0.03620788, -0.15971532, -1383238.4, -9082.32, 0.14389461, 9.999723, 9.99897 
2.4062406e+3, 1.6977632e+2, -1266591.1, -1234579.8, 35800.953, -0.13450584, -0.013869793, -1211369.5, 64831.57, 0.08188297, 9.99959, 10.000131 
2.4058992e+3, 1.7977229e+2, -1270776.4, -1275962.3, -18145.943, -0.22974823, 0.14138342, -1255039.0, -76795.58, 0.047678713, 9.99918, 9.999409 
2.405562e+3, 1.8976757e+2, -1055547.5, -1093603.8, 58533.59, 0.11243314, 0.2810284, -1013026.9, 67265.08, 0.028905774, 9.999997, 9.999513 
2.4052237e+3, 1.997626e+2, -954161.0, -1108052.9, 26313.184, 0.42935702, 0.41618416, -949786.25, 32556.9, 0.017015342, 10.000418, 9.998595 
2.404875e+3, 2.0975453e+2, -962253.75, -1003738.3, -46246.027, 0.028708786, 0.29283866, -932311.4, -47888.176, 0.00915297, 9.999511, 9.99902 
2.4045266e+3, 2.1974577e+2, -1105812.8, -1114171.8, 2914.5972, -0.35145533, 0.11005759, -1104896.9, -318387.13, 0.0045936005, 9.998226, 9.998243 
2.4041894e+3, 2.2974016e+2, -757632.4, -825739.25, 92401.48, -0.016113253, 0.23555186, -693209.06, -4640.8525, 0.0022051786, 9.999649, 9.998835 
2.4038538e+3, 2.3973387e+2, -555786.44, -739257.9, 30757.027, 0.36104763, 0.33170232, -550767.6, 39865.496, 0.0009056362, 10.000633, 9.998295 
2.4035083e+3, 2.4972679e+2, -236189.63, -292691.56, -39552.78, 0.0071242135, 0.19722068, -215834.63, 276864.28, 0.00023937336, 10.001219, 10.000319 
2.4031633e+3, 2.5971913e+2, -465912.13, -681945.3, -1073.685, -0.3928557, 0.044264205, -465906.78, -71137.87, 0.000025130046, 10.0004, 9.9973955 
2.4028221e+3, 2.6971206e+2, -5868.12, -377315.34, -106169.81, -0.1711106, 0.17137097, 22336.5, 319169.0, 0.00000030344088, 10.002803, 9.997616 
2.402483e+3, 2.7970526e+2, 35922.96, -284764.2, 46421.42, 0.11649184, 0.21555434, 42507.547, 241402.63, 0.000000006555133, 10.0023775, 9.997773 
2.4021445e+3, 2.8969598e+2, -173845.97, -377510.53, 153718.88, 0.17832892, 0.102652855, -91289.24, 9701.44, 0.00000087941476, 10.000535, 9.997273 
2.4018076e+3, 2.9968926e+2, -700348.8, -841138.3, 124340.695, 0.3358714, 0.26871216, -627858.9, -624798.44, 0.0000072209577, 9.997481, 9.995307 
2.40146e+3, 3.0967602e+2, 245015.17, 193467.56, -193414.13, -0.20178661, -0.02812975, 414365.22, 414365.22, 0.00003484927, 10.001569, 10.000378 
2.417604e+3, 1.3015038e+2, -1581113.6, -1267427.5, 41190.313, 0.1744239, 1.1317532, -1262109.0, 402463.38, 0.44509998, 9.998101, 10.005347 
2.4172598e+3, 1.4013806e+2, -1634796.8, -1524678.6, 61145.547, -0.51420075, 0.027610648, -1497456.0, 69213.375, 0.31930807, 9.998787, 10.000729 
2.4169199e+3, 1.5013012e+2, -1580746.6, -1715929.0, -74637.58, -0.123193465, -0.077243514, -1547643.5, -78904.375, 0.20041417, 9.999842, 9.99795 
2.4165799e+3, 1.6012256e+2, -1407023.1, -1557912.1, -29179.969, 0.25345355, -0.07972718, -1401576.6, -30766.852, 0.110025235, 10.000179, 9.998268 
2.416237e+3, 1.7011854e+2, -1241455.6, -1284533.9, 30504.494, 0.089306675, 0.15845384, -1225652.3, 47204.363, 0.054970514, 10.000059, 9.99952 
2.4158943e+3, 1.8011434e+2, -1150199.4, -1126230.6, 17711.107, -0.12335767, 0.32982874, -1116830.3, 58073.664, 0.027314784, 9.999609, 10.000233 
2.4155544e+3, 1.9010794e+2, -859207.1, -765276.75, 91262.68, -0.10369548, 0.11909809, -709603.75, 367353.9, 0.013986388, 10.000312, 10.001654 
2.4152139e+3, 2.0010138e+2, -834959.9, -958218.75, 27372.547, -0.05937511, -0.07087977, -829154.6, 149859.06, 0.006556314, 10.000806, 9.999444 
2.4148689e+3, 2.1009625e+2, -948420.9, -1073208.4, -107162.32, 0.016218362, 0.12635615, -886811.6, -5741.24, 0.002469395, 9.999921, 9.998362 
2.4145237e+3, 2.2009037e+2, -1005308.2, -1122776.8, 42834.92, 0.021336997, 0.31170684, -991347.56, -208212.34, 0.00078321603, 9.999107, 9.997774 
2.4141832e+3, 2.3008221e+2, -698834.7, -864108.94, 166901.98, -0.104508385, 0.23615254, -595232.25, 89985.39, 0.00023610769, 10.000301, 9.998262 
2.413844e+3, 2.4007392e+2, -453340.3, -703690.7, 93639.62, -0.20286806, 0.17828125, -422191.44, 165109.08, 0.000047296035, 10.001359, 9.998187 
2.413503e+3, 2.5006986e+2, -305432.0, -390258.4, -38015.473, -0.08855383, 0.39921013, -290888.6, 198452.34, 0.0000020598873, 10.001008, 9.9997635 
2.4131623e+3, 2.6006478e+2, -416547.53, -600371.2, 40903.543, -0.010443097, 0.54003733, -407856.75, -16467.803, 0.0, 10.000472, 9.997904 
2.412821e+3, 2.7005276e+2, 41536.902, -361251.16, 20310.43, -0.052549127, 0.16289894, 42558.457, 336053.47, 0.0, 10.003191, 9.997522 
2.4124797e+3, 2.8004158e+2, 434238.8, -26051.078, -29880.402, -0.10765017, -0.21211861, 436170.44, 631765.3, 0.0, 10.004749, 9.998427 
2.4121372e+3, 2.9003662e+2, -216643.55, -284245.66, -136185.08, 0.022441238, 0.009540503, -110127.516, -12478.006, 0.0000001537889, 9.999641, 9.998413 
2.4117976e+3, 3.0003348e+2, -782135.2, -745770.3, 181424.66, 0.23897453, 0.45831683, -581619.25, -581619.25, 0.000003139397, 9.996216, 9.996593 
2.4114627e+3, 3.10017e+2, 1178839.8, 664791.3, 289305.03, 0.025683569, -0.24297142, 1308802.4, 1308802.4, 0.000017281642, 10.007717, 10.000722 
2.4275976e+3, 1.3049136e+2, -1854463.8, -1443237.8, 291841.88, 0.37086624, 0.93655133, -1291851.5, 369375.3, 0.4141129, 9.996593, 10.004153 
2.427253e+3, 1.4048074e+2, -1823692.8, -1592823.4, 54346.492, -0.42206275, 0.08134436, -1580670.0, -17355.11, 0.28877336, 9.9974375, 10.000716 
2.4269141e+3, 1.5047358e+2, -1562795.8, -1587166.5, 26204.336, -0.10347644, -0.031209692, -1546082.3, -80705.39, 0.17287979, 9.999389, 9.999081 
2.4265747e+3, 1.6046697e+2, -1260891.4, -1446657.5, 114314.32, 0.26048905, -0.015644915, -1206482.1, 160954.98, 0.08747846, 10.000983, 9.998725 
2.426232e+3, 1.7046331e+2, -1156522.1, -1240786.8, 188229.08, 0.12687922, 0.2512134, -1005767.6, 263713.25, 0.038149297, 10.000606, 9.999602 
2.4258892e+3, 1.8045926e+2, -1134293.6, -1112608.1, 207203.23, -0.037842587, 0.4486254, -915964.1, 255562.58, 0.01570925, 9.99971, 10.000281 
2.4255481e+3, 1.9045123e+2, -961347.2, -806874.4, 198649.83, -0.14653352, 0.07312168, -670974.2, 402619.53, 0.0064830934, 9.99956, 10.001711 
2.425207e+3, 2.0044325e+2, -1081713.9, -1129985.0, 6800.1104, -0.17560515, -0.24882454, -1080774.3, -105113.03, 0.0021827125, 9.999363, 9.998955 
2.4248636e+3, 2.1043907e+2, -759996.3, -1034844.56, -106520.734, 0.017568113, 0.08602211, -723546.75, 154163.75, 0.00044835047, 10.001489, 9.997848 
2.4245203e+3, 2.2043422e+2, -565302.8, -977427.2, 40414.152, 0.1709741, 0.409957, -561377.06, 218390.53, 0.000068581576, 10.002489, 9.997134 
2.4241772e+3, 2.3042451e+2, -629421.5, -863840.56, 160427.3, -0.19174604, 0.22820239, -547947.9, 133914.94, 0.0000096515805, 10.001059, 9.997856 
2.423836e+3, 2.4041502e+2, -837814.25, -946752.5, 68665.375, -0.47620392, 0.076107085, -804637.4, -220682.03, 0.00000040342232, 9.999052, 9.997626 
2.4234968e+3, 2.5041193e+2, -506986.44, -543949.1, -25316.527, -0.1583837, 0.43572783, -494123.13, -8135.049, 0.0, 9.999898, 9.999238 
2.4231587e+3, 2.6040772e+2, -575656.44, -705534.44, 64872.777, 0.16229886, 0.6893682, -548804.6, -160775.1, 0.0, 9.999539, 9.997658 
2.4228181e+3, 2.7039385e+2, -397977.9, -534140.4, 140613.03, 0.009328743, 0.089522, -309831.5, -19679.26, 0.0, 10.000057, 9.997811 
2.4224766e+3, 2.803806e+2, -396060.78, -550759.1, -27849.686, -0.1770743, -0.47263715, -391199.84, -198929.86, 0.0, 9.999618, 9.997309 
2.4221301e+3, 2.9037726e+2, 111724.87, -171361.67, -249464.4, -0.15064833, -0.008641642, 257003.81, 351313.28, 0.0000000009564638, 10.002186, 9.997917 
2.4217898e+3, 3.003748e+2, -67248.766, -336088.72, 269515.63, 0.10046546, 0.48203874, 99507.97, 99507.97, 0.0000004799063, 10.000926, 9.997147 
2.4214624e+3, 3.1035963e+2, -98201.375, 62403.95, 376009.72, -0.09528008, -0.28803647, 366590.34, 366590.34, 0.0000055147566, 9.998944, 10.0008 
2.4375916e+3, 1.3083285e+2, -1977387.8, -1893468.9, 351721.7, 0.55279106, 0.55229676, -1581212.6, 76654.8, 0.39271495, 9.99794, 9.999185 
2.4372458e+3, 1.4082475e+2, -1800772.1, -1656049.1, 142072.08, -0.37344408, 0.34799337, -1568972.0, -9023.39, 0.26710206, 9.997951, 10.000026 
2.436907e+3, 1.5081805e+2, -1386841.0, -1256909.0, 78974.29, -0.19691573, 0.10644449, -1219613.0, 242392.34, 0.15331793, 9.999502, 10.001558 
2.4365681e+3, 1.6081215e+2, -1227681.3, -1280207.4, 124300.28, 0.021791125, -0.021543168, -1126899.9, 237156.03, 0.07196278, 10.00055, 10.000109 
2.436226e+3, 1.7080973e+2, -1121319.3, -1179059.1, 143464.64, 0.013995013, 0.30886346, -1003848.6, 262235.75, 0.027363949, 10.000637, 10.000013 
2.4358837e+3, 1.8080623e+2, -1136064.9, -1176932.5, 191342.83, -0.04336969, 0.54754597, -964067.9, 204054.84, 0.009079448, 9.999996, 9.999674 
2.4355434e+3, 1.9079699e+2, -1035808.44, -1015064.0, 177718.66, -0.04003553, 0.19145882, -847415.1, 222790.53, 0.002868925, 9.999815, 10.000139 
2.4352026e+3, 2.007878e+2, -1063224.6, -1203714.4, 50320.066, -0.050003372, -0.105445705, -1047060.9, -74771.47, 0.00059867656, 9.999826, 9.998229 
2.4348588e+3, 2.1078272e+2, -724331.0, -1047449.8, -21700.309, -0.035458304, 0.17958333, -722880.1, 151466.06, 0.000045539302, 10.001822, 9.997617 
2.4345157e+3, 2.207769e+2, -469148.6, -938864.1, 51916.1, -0.056629732, 0.43539542, -463478.94, 312930.9, 0.0000022398012, 10.003151, 9.997071 
2.4341728e+3, 2.3076628e+2, -611161.9, -894137.9, 83231.695, -0.22031283, 0.19510405, -588496.4, 90014.586, 0.000000052409952, 10.001346, 9.997514 
2.4338311e+3, 2.4075602e+2, -746528.4, -860604.3, 59950.64, -0.3678574, -0.012817774, -720817.25, -140209.33, 0.0, 9.999468, 9.998015 
2.43349e+3, 2.5075048e+2, -533741.2, -575019.06, 8839.511, -0.27348748, 0.1101701, -531927.9, -49266.63, 0.0, 9.999753, 9.999119 
2.43315e+3, 2.6074487e+2, -464593.78, -552363.1, 79674.375, -0.16639954, 0.22726856, -417517.63, -32803.094, 0.0, 9.999809, 9.998579 
2.4328116e+3, 2.7073592e+2, -444641.34, -474404.75, 121027.945, -0.040250607, 0.037656248, -337583.6, -50787.188, 0.0, 9.999282, 9.998639 
2.4324729e+3, 2.807268e+2, -389827.28, -568469.8, 86027.91, 0.067690864, -0.14041345, -355136.06, -166254.7, 0.0, 9.999641, 9.997191 
2.4321294e+3, 2.9071954e+2, 401644.25, -190206.25, -11621.958, -0.0665089, 0.05324535, 401872.4, 492828.8, 0.0, 10.004744, 9.996605 
2.4317889e+3, 3.0071288e+2, 813601.56, 123638.11, 157827.9, -0.044081394, 0.2274384, 847990.4, 847990.4, 0.000000008678429, 10.006721, 9.997532 
2.4314563e+3, 3.1070483e+2, -735172.56, -338252.53, -225239.0, 0.26518258, 0.19125831, -236514.31, -236514.31, 0.0000009202062, 9.99471, 10.000209 
2.4479185e+3, 1.2117589e+2, -1925608.9, -1917759.0, -131700.19, 0.016470479, -0.29204965, -1789925.3, -37439.773, 0.4945417, 9.998866, 9.999042 
2.4475823e+3, 1.311752e+2, -1678964.6, -1823943.3, 258626.4, 0.21982722, 0.31568557, -1482860.8, 171642.81, 0.3775347, 10.000779, 9.998373 
2.4472427e+3, 1.411685e+2, -1653380.4, -1633563.9, 203746.31, -0.010464431, 0.33930865, -1439485.0, 117089.24, 0.25111946, 9.999239, 9.999719 
2.4469018e+3, 1.511626e+2, -1554518.6, -1369426.1, 89110.16, -0.04265707, 0.21536002, -1333499.0, 125129.73, 0.13882844, 9.998458, 10.001171 
2.446561e+3, 1.611569e+2, -1613850.3, -1436077.0, 32946.992, 0.0031045743, 0.12764539, -1430167.4, -69487.0, 0.060861234, 9.997744, 10.000323 
2.4462198e+3, 1.7115298e+2, -1275814.4, -1189098.9, 50882.316, -0.021776412, 0.24528237, -1165606.8, 97111.14, 0.02025213, 9.999365, 10.000496 
2.4458784e+3, 1.8114838e+2, -1093104.0, -1241866.0, 70777.18, -0.027762832, 0.3549005, -1064811.0, 99952.38, 0.0052852775, 10.000678, 9.998887 
2.4455388e+3, 1.9114022e+2, -939254.06, -1138198.8, 56641.727, 0.019111233, 0.22382808, -924257.94, 142585.55, 0.0012089658, 10.001218, 9.998619 
2.4451987e+3, 2.0113187e+2, -881534.0, -1174692.9, -42791.824, 0.077693954, 0.12412397, -875415.44, 93509.8, 0.00012403581, 10.001367, 9.99768 
2.444855e+3, 2.1112569e+2, -711797.25, -1006145.56, -51335.363, -0.027978145, 0.2617614, -703101.06, 167887.4, 0.000001917801, 10.001795, 9.997879 
2.4445117e+3, 2.211188e+2, -732943.6, -1102733.3, -6775.9854, -0.110603094, 0.38504085, -732819.5, 40238.73, 0.000000018702426, 10.001529, 9.996713 
2.4441689e+3, 2.3110864e+2, -638165.5, -938767.1, 4473.1885, -0.17236137, 0.20941441, -638098.94, 37055.93, 0.0, 10.001292, 9.997216 
2.4438266e+3, 2.410984e+2, -670095.6, -888009.06, 23881.994, -0.20854591, 0.017337764, -667509.0, -90257.27, 0.0, 10.000315, 9.997411 
2.4434848e+3, 2.5109076e+2, -360846.0, -524178.6, -8458.385, -0.25500786, -0.038999584, -360409.13, 118914.28, 0.0, 10.0011835, 9.998727 
2.4431436e+3, 2.610839e+2, -313562.44, -527052.1, 11334.844, -0.26989478, -0.02974061, -312962.3, 68425.81, 0.0, 10.001112, 9.998117 
2.4428055e+3, 2.7107826e+2, -112623.836, -288256.03, 16536.873, -0.09902338, 0.094488956, -111080.35, 172362.84, 0.0, 10.001489, 9.998847 
2.4424683e+3, 2.8107187e+2, -228928.45, -481178.34, 60844.094, 0.117117204, 0.15476444, -215019.45, -29513.969, 0.0, 10.000756, 9.997274 
2.4421284e+3, 2.9106265e+2, 29431.598, -314954.44, 185567.84, 0.013491096, 0.076947786, 110390.43, 197986.16, 0.0, 10.002024, 9.997035 
2.4417876e+3, 3.0105415e+2, -175906.67, -417612.9, 147147.88, -0.14063324, 0.061669968, -106344.53, -106344.53, 0.0, 10.000266, 9.996938 
2.4414475e+3, 3.110477e+2, -276666.03, -140782.7, -171162.9, 0.3158002, 0.18145485, -24570.053, -24570.053, 0.00000009984614, 9.998252, 9.999734 
2.4579144e+3, 1.2152161e+2, -1934796.8, -1901689.4, 240213.88, 0.1519208, 0.0623664, -1677459.5, 71635.25, 0.48539782, 9.998868, 9.999424 
2.4575734e+3, 1.3151619e+2, -1614612.3, -1628737.9, 107954.72, -0.21685296, 0.061722312, -1513489.6, 137664.47, 0.36593348, 10.000311, 9.9999275 
2.4572405e+3, 1.4151216e+2, -1691598.3, -1705240.5, 109207.14, 0.35078394, 0.25458965, -1588999.5, -35802.93, 0.23856215, 9.999177, 9.99909 
2.4568968e+3, 1.5150718e+2, -1638074.3, -1584449.3, 15287.253, 0.15621778, 0.36992547, -1580397.4, -125147.52, 0.1275105, 9.998701, 9.999439 
2.4565537e+3, 1.6150123e+2, -1568119.3, -1434208.9, 48313.457, -0.004588909, 0.37612727, -1418597.9, -61288.266, 0.052560914, 9.998168, 10.000111 
2.4562134e+3, 1.7149359e+2, -1213070.4, -1106146.1, 97666.43, -0.067049906, 0.08116938, -1048266.8, 211109.6, 0.01541553, 9.999554, 10.00098 
2.4558733e+3, 1.8148635e+2, -1138611.6, -1340329.0, 94213.64, -0.117513284, -0.07583476, -1101453.3, 59990.1, 0.0031067657, 10.000685, 9.998207 
2.4555345e+3, 1.9148114e+2, -1014396.2, -1316455.9, 71062.445, -0.0049051046, 0.20925519, -998513.25, 64992.082, 0.00048131414, 10.001303, 9.997357 
2.455195e+3, 2.0147508e+2, -830337.1, -1123043.9, -21867.264, 0.07917622, 0.42043516, -828712.5, 136859.77, 0.000015932997, 10.001589, 9.997911 
2.4548519e+3, 2.1146706e+2, -626767.6, -875475.8, -45713.21, 0.016860245, 0.31089076, -618631.56, 249014.8, 0.0000000054715246, 10.001984, 9.99869 
2.4545088e+3, 2.2145899e+2, -602042.5, -952859.8, -17890.486, -0.05313856, 0.25067934, -601132.5, 168589.31, 0.0, 10.002015, 9.997517 
2.4541658e+3, 2.3145138e+2, -599829.9, -903864.75, -20569.094, -0.052583545, 0.30435145, -598444.6, 73353.72, 0.0, 10.001426, 9.99743 
2.453824e+3, 2.4144302e+2, -592042.75, -869102.94, 32273.125, -0.03966341, 0.30954522, -588333.06, -14451.771, 0.0, 10.000863, 9.997291 
2.4534836e+3, 2.5143358e+2, -358428.9, -632606.44, 13202.67, 0.0306105, 0.15951796, -357794.63, 118177.24, 0.0, 10.001623, 9.997803 
2.4531433e+3, 2.6142493e+2, -170279.81, -502746.6, 324.097, 0.02089295, 0.0807669, -170279.5, 207775.73, 0.0, 10.002207, 9.997776 
2.4528015e+3, 2.7141842e+2, -62826.13, -358698.53, -29192.133, -0.14129007, 0.18357089, -59973.406, 220147.23, 0.0, 10.002155, 9.998084 
2.4524617e+3, 2.8141242e+2, 152846.13, 15766.376, -3507.7031, -0.18926086, 0.2572324, 152935.81, 335114.72, 0.0, 10.00194, 10.000135 
2.4521238e+3, 2.9140723e+2, 213624.92, 245892.77, 138864.33, -0.020933203, 0.17992538, 369557.28, 453777.94, 0.0, 10.001147, 10.001352 
2.4517857e+3, 3.014011e+2, -11919.679, -246167.42, 161089.0, 0.11321154, 0.114293754, 70123.89, 70123.89, 0.0, 10.000834, 9.997858 
2.4514443e+3, 3.1139266e+2, 500081.06, 171823.78, 620.06036, 0.32018533, 0.17125288, 500082.25, 500082.25, 0.000000000000427524, 10.003651, 9.999322 
2.467909e+3, 1.2185937e+2, -2199564.5, -2111401.8, 185186.8, 0.3252987, 0.15158565, -1965122.1, -219335.16, 0.47722325, 9.997173, 9.998612 
2.4675654e+3, 1.3185322e+2, -1846137.4, -1661115.9, -104718.055, -0.3583623, 0.015241151, -1613898.0, 33952.855, 0.3557266, 9.998019, 10.000714 
2.4672341e+3, 1.4184874e+2, -1784792.5, -1689695.1, -182246.25, 0.4220731, 0.079129644, -1548896.9, 999.3309, 0.22774403, 9.998229, 9.999676 
2.4668904e+3, 1.518453e+2, -1584357.3, -1522560.0, -178229.1, 0.20713148, 0.2808317, -1372571.0, 79364.69, 0.11809006, 9.998958, 9.999768 
2.4665473e+3, 1.618407e+2, -1405603.6, -1350661.5, -91815.77, 0.056054637, 0.38573515, -1282295.3, 71688.46, 0.04605504, 9.999251, 10.000182 
2.4662073e+3, 1.7183316e+2, -1388903.8, -1202851.6, -73032.414, -0.011377114, 0.086704046, -1177608.6, 78441.016, 0.012013259, 9.998399, 10.000873 
2.4658674e+3, 1.8182604e+2, -1536091.9, -1487262.3, -54855.05, -0.046640653, -0.080156, -1451634.0, -293519.13, 0.0018483637, 9.997759, 9.998617 
2.465529e+3, 1.9182153e+2, -1262990.1, -1365185.4, 46034.137, -0.000106030406, 0.1919621, -1245312.0, -185142.73, 0.00018026956, 9.9992695, 9.998016 
2.46519e+3, 2.018162e+2, -989498.9, -1149691.8, 36701.215, 0.063153334, 0.4176037, -981490.7, -19262.252, 0.0000007906511, 10.000336, 9.998331 
2.4648474e+3, 2.1180765e+2, -686668.5, -853502.94, 9875.257, -0.0021906344, 0.20365329, -686086.0, 178218.19, 0.0, 10.001392, 9.9991255 
2.4645048e+3, 2.2179933e+2, -696228.3, -1001553.44, -25333.197, -0.029321065, 0.09095578, -694140.7, 72239.484, 0.0, 10.001463, 9.9974375 
2.4641618e+3, 2.3179334e+2, -689955.8, -927264.75, -46806.215, 0.0064496496, 0.28785035, -681057.5, -12612.923, 0.0, 10.000841, 9.997491 
2.4638198e+3, 2.4178652e+2, -777074.4, -1007561.06, 54566.016, 0.074446216, 0.44538024, -764809.0, -194292.6, 0.0, 9.999877, 9.996805 
2.4634802e+3, 2.5177664e+2, -435548.56, -721737.56, 126370.73, 0.12505408, 0.2844369, -387735.78, 84877.664, 0.0, 10.001319, 9.997343 
2.4631403e+3, 2.61767e+2, -328098.75, -657323.3, 130239.69, 0.10433044, 0.16428645, -282807.3, 91900.54, 0.0, 10.0014925, 9.99707 
2.4627976e+3, 2.7175963e+2, -184035.16, -444457.8, 145855.72, -0.1664739, 0.21024074, -118724.4, 158057.81, 0.0, 10.001487, 9.997781 
2.4624562e+3, 2.817539e+2, -12579.385, 51354.246, 149523.19, -0.30213562, 0.30539078, 172289.56, 351126.75, 0.0, 10.000375, 10.001128 
2.4621184e+3, 2.9175106e+2, 202076.16, 468898.25, 70655.734, -0.10315931, 0.2675056, 486453.22, 567305.3, 0.0, 10.000116, 10.003376 
2.461783e+3, 3.017449e+2, -536227.6, -678905.56, 9970.074, 0.33083475, 0.11869771, -535534.3, -535534.3, 0.0, 9.998147, 9.996176 
2.4614415e+3, 3.1173512e+2, -145487.48, -235574.48, 19256.262, 0.2246626, 0.17907992, -141544.05, -141544.05, 0.0, 9.999953, 9.998182 
2.4779026e+3, 1.2219674e+2, -1983617.6, -2082585.4, 189390.16, 0.38863257, 0.40960017, -1837353.5, -94868.32, 0.4678463, 9.999108, 9.997813 
2.4775569e+3, 1.3218898e+2, -1728237.9, -1581582.8, -41797.547, -0.47957164, 0.09280195, -1570506.6, 74056.45, 0.34520847, 9.998724, 10.001008 
2.4772258e+3, 1.421819e+2, -1724318.9, -1560524.4, -109422.48, 0.28790268, -0.15294273, -1505745.3, 40887.465, 0.21743059, 9.9982195, 10.000618 
2.4768832e+3, 1.5217997e+2, -1452877.3, -1311070.9, -101126.35, 0.14253719, 0.07168136, -1258467.8, 190188.08, 0.109704144, 9.999219, 10.001158 
2.4765415e+3, 1.6217725e+2, -1357022.5, -1304752.9, -71581.984, 0.042711727, 0.27272752, -1254684.0, 96001.234, 0.040704507, 9.999513, 10.000366 
2.4762009e+3, 1.7217182e+2, -1372325.8, -1239099.4, -95659.7, 0.062147208, 0.22229287, -1189144.6, 63590.34, 0.00953522, 9.998701, 10.0004835 
2.4758609e+3, 1.8216622e+2, -1372479.0, -1220886.6, -9949.143, 0.032458737, 0.18476908, -1220236.4, -65449.418, 0.0011160366, 9.998071, 10.000296 
2.4755228e+3, 1.9216092e+2, -1064520.1, -997291.4, 105759.27, -0.017980993, 0.15076941, -919933.0, 136906.75, 0.00006263998, 9.999455, 10.000456 
2.4751839e+3, 2.0215504e+2, -873555.2, -962056.75, 80207.34, -0.07523506, 0.12983207, -826201.7, 132694.61, 0.0000000031066179, 10.0005665, 9.999503 
2.4748422e+3, 2.1214727e+2, -618796.5, -790291.06, 51747.742, -0.113016486, -0.040986992, -604391.75, 256572.42, 0.0, 10.001696, 9.999442 
2.4745002e+3, 2.2213954e+2, -594265.06, -924902.3, -32613.588, -0.14065035, -0.10848715, -591078.8, 171956.48, 0.0, 10.001998, 9.997721 
2.4741563e+3, 2.3213337e+2, -666874.94, -927055.4, -80484.73, -0.061594266, 0.083204, -643990.44, 21112.537, 0.0, 10.001, 9.997446 
2.4738137e+3, 2.4212694e+2, -605424.3, -810940.2, 85661.71, -0.03639913, 0.25981772, -574402.1, -7229.531, 0.0, 10.000502, 9.9978695 
2.4734734e+3, 2.521193e+2, -323392.34, -560921.7, 186156.58, -0.15771057, 0.23481567, -221341.89, 247907.95, 0.0, 10.001585, 9.998346 
2.4731338e+3, 2.6211163e+2, -104978.95, -393176.0, 174127.66, -0.24158747, 0.20932937, -23057.953, 348268.1, 0.0, 10.002269, 9.998519 
2.4727939e+3, 2.7210468e+2, -46718.24, -266588.94, 187204.86, -0.15881382, 0.19680682, 60444.176, 333835.88, 0.0, 10.001874, 9.99885 
2.4724542e+3, 2.8209844e+2, -3858.5479, -154904.05, 166622.97, -0.10292002, 0.25518218, 103558.31, 279009.38, 0.0, 10.001274, 9.999277 
2.4721135e+3, 2.9209176e+2, -16963.521, -83540.35, -4685.555, -0.059434418, 0.19690524, -16635.379, 60879.93, 0.0, 10.000397, 9.999518 
2.4717781e+3, 3.020833e+2, -211883.06, -527017.44, -19830.973, 0.40769818, 0.091273256, -210640.03, -210640.03, 0.0, 10.00021, 9.996283 
2.4714333e+3, 3.1207615e+2, 297892.4, 133725.47, 34530.27, -0.1569926, 0.32464376, 304859.7, 304859.7, 0.0, 10.0020075, 9.999863 
2.4878974e+3, 1.2253131e+2, -1551973.4, -1746742.0, -6049.187, 0.22898993, 0.18141876, -1551785.8, 187424.36, 0.45571515, 10.002788, 9.998384 
2.4875517e+3, 1.3252784e+2, -1463042.6, -1339112.3, -3040.1384, -0.40881112, 0.13355988, -1339037.8, 302205.72, 0.33319858, 10.000261, 10.002746 
2.487216e+3, 1.425224e+2, -1562661.8, -1410314.8, 47297.105, 0.026016898, -0.07127752, -1396825.4, 146470.17, 0.20679392, 9.998891, 10.001528 
2.4868762e+3, 1.5252066e+2, -1311755.4, -1211204.6, 46858.285, 0.041548733, 0.14311522, -1192753.6, 252560.67, 0.10179194, 10.000059, 10.001546 
2.4865364e+3, 1.6251741e+2, -1271998.9, -1322070.1, -6084.0044, 0.11281551, 0.30428675, -1271270.3, 76077.836, 0.036105353, 10.000375, 9.999821 
2.4861948e+3, 1.7251055e+2, -1306351.8, -1311069.1, -69310.7, 0.10742502, 0.20340012, -1239359.6, 10056.928, 0.0076701324, 9.999621, 9.999537 
2.4858545e+3, 1.8250449e+2, -1258319.4, -1157452.6, 22628.623, 0.09996019, 0.18650958, -1152608.6, -1132.1536, 0.000687035, 9.998846, 10.00034 
2.4855168e+3, 1.9250047e+2, -1136071.3, -960285.4, 27942.285, 0.050364517, 0.21348982, -955950.6, 97564.234, 0.000019881356, 9.9987135, 10.001026 
2.4851783e+3, 2.0249511e+2, -1196367.9, -1123862.0, -94732.54, -0.003893168, 0.19360197, -1058682.6, -103117.766, 0.0, 9.998419, 9.999403 
2.4848367e+3, 2.1248712e+2, -1026147.1, -995562.9, -140896.7, -0.14591555, -0.011639756, -869130.9, -11493.818, 0.0, 9.999004, 9.999279 
2.4844946e+3, 2.224796e+2, -925345.6, -1005134.7, -236442.02, -0.19436713, -0.10038085, -725456.06, 34249.79, 0.0, 9.999406, 9.998413 
2.4841511e+3, 2.3247358e+2, -617629.0, -777156.6, -170794.73, -0.09472393, -0.02890449, -508890.53, 152874.8, 0.0, 10.000789, 9.998585 
2.4838084e+3, 2.4246752e+2, -537507.75, -748821.4, 77740.17, -0.06381015, 0.09955044, -511989.5, 51837.652, 0.0, 10.000908, 9.998086 
2.4834678e+3, 2.524614e+2, -467031.53, -594620.0, 124370.95, -0.28742793, 0.17898357, -391047.94, 74844.125, 0.0, 10.0005, 9.998598 
2.4831282e+3, 2.6245496e+2, -489026.56, -551609.5, 42938.355, -0.35152563, 0.23494425, -467187.47, -99230.555, 0.0, 9.999599, 9.998713 
2.4827905e+3, 2.7244815e+2, -260861.66, -307254.94, 10741.689, -0.06737155, 0.16320486, -258495.27, 11522.929, 0.0, 10.000199, 9.999361 
2.4824509e+3, 2.824409e+2, -347569.44, -568511.94, 11342.3125, 0.058846813, 0.15274473, -346988.72, -174901.56, 0.0, 10.00004, 9.997035 
2.4821083e+3, 2.9243132e+2, -101603.59, -392179.97, 13447.815, -0.09586653, 0.04003461, -100982.56, -26794.572, 0.0, 10.001115, 9.996985 
2.4817728e+3, 3.024237e+2, -197646.02, -446901.3, 145328.83, 0.3508475, 0.15340503, -130825.195, -130825.195, 0.0, 10.000129, 9.996844 
2.4814275e+3, 3.1242087e+2, 59266.895, 249707.69, 120870.29, -0.41229692, 0.5846538, 308359.16, 308359.16, 0.0, 9.99945, 10.001889 
2.497895e+3, 1.22867055e+2, -1610740.5, -1659764.1, -75129.45, 0.2307398, 0.038684797, -1556225.4, 179696.95, 0.43991756, 10.001234, 10.000098 
2.4975474e+3, 1.3286823e+2, -1363651.4, -1099077.8, -18574.336, -0.31634706, 0.20165409, -1097780.1, 540128.0, 0.31901658, 10.0000725, 10.005165 
2.4972056e+3, 1.4286608e+2, -1529141.5, -1370338.4, 60034.75, -0.39530626, 0.17215192, -1350197.1, 189729.34, 0.19536594, 9.999053, 10.001745 
2.4968694e+3, 1.5286395e+2, -1354280.8, -1240902.3, 83129.3, -0.09684603, 0.3583215, -1196972.8, 244973.11, 0.094030365, 9.999791, 10.001419 
2.4965318e+3, 1.6285908e+2, -1402976.4, -1502786.3, -26920.828, 0.12639715, 0.41208547, -1396178.3, -52183.83, 0.032013185, 9.999981, 9.998747 
2.4961887e+3, 1.7284879e+2, -1399389.0, -1486023.4, -85467.97, 0.08106355, 0.080034085, -1346887.9, -100786.695, 0.0062260167, 9.999549, 9.998351 
2.4958476e+3, 1.8284124e+2, -1306972.4, -1262841.6, 38781.914, 0.04570372, 0.0146147385, -1240287.3, -92107.19, 0.00043419475, 9.998866, 9.999596 
2.4955115e+3, 1.9283983e+2, -1159329.1, -1064163.1, 38788.83, 0.15927872, 0.38643298, -1050356.3, -158.68076, 0.0000058323185, 9.99893, 10.000215 
2.495173e+3, 2.0283584e+2, -1173558.5, -1175571.4, -82208.79, 0.13362849, 0.5889435, -1092350.0, -140110.94, 0.000000000090419006, 9.998819, 9.998852 
2.4948303e+3, 2.1282662e+2, -1015890.5, -1050919.8, -124034.086, -0.14591107, 0.31659478, -908140.56, -53810.914, 0.0, 9.999285, 9.998767 
2.4944878e+3, 2.2281857e+2, -671764.94, -597123.4, -210691.52, -0.30514216, 0.10667711, -420472.75, 335930.56, 0.0, 9.999878, 10.000977 
2.4941462e+3, 2.328136e+2, -339133.84, -293964.47, -123165.37, -0.12164043, -0.02101776, -191330.23, 467106.0, 0.0, 10.001162, 10.001738 
2.493805e+3, 2.4280828e+2, -406774.38, -662427.94, 64877.95, -0.028229292, -0.008267428, -391252.53, 169227.5, 0.0, 10.00166, 9.998308 
2.4934646e+3, 2.5280228e+2, -529230.5, -742480.25, 64560.688, -0.10208857, 0.17183892, -511208.06, -48662.133, 0.0, 10.000507, 9.9976015 
2.493125e+3, 2.6279527e+2, -464988.13, -556897.3, 332.6009, -0.0931278, 0.2449665, -464986.94, -100368.484, 0.0, 9.999776, 9.998592 
2.4927871e+3, 2.7278665e+2, -265961.13, -335780.66, -14768.094, 0.14534311, 0.021442024, -262965.88, 3731.8516, 0.0, 10.00023, 9.999172 
2.492447e+3, 2.8277883e+2, -86231.66, -256168.78, 20024.248, 0.15244378, -0.090288065, -83904.016, 84867.89, 0.0, 10.000915, 9.998785 
2.4921025e+3, 2.9277232e+2, 168594.81, -51085.535, 81622.086, -0.28990003, -0.0746521, 195601.38, 266441.94, 0.0, 10.001961, 9.998972 
2.4917659e+3, 3.0276734e+2, 219425.39, -55651.47, 173959.66, 0.04563043, 0.12511374, 303649.88, 303649.88, 0.0, 10.002097, 9.998586 
2.491426e+3, 3.127633e+2, 153643.98, 340318.03, 58130.367, 0.037341136, 0.4015624, 356939.8, 356939.8, 0.0, 9.999727, 10.00243 
2.507884e+3, 1.2321079e+2, -1916080.6, -1748299.1, -55063.08, -0.24531963, 0.025823731, -1731842.5, 710.69855, 0.42027465, 9.99815, 10.000659 
2.507543e+3, 1.3321087e+2, -1519685.9, -1309080.0, 18961.578, -0.13237949, 0.26677164, -1307386.5, 327165.38, 0.30251706, 9.999341, 10.003365 
2.507201e+3, 1.4320809e+2, -1509113.1, -1448768.9, -7612.6113, -0.20589988, 0.33979133, -1447823.4, 88753.52, 0.18302314, 9.999579, 10.000839 
2.5068632e+3, 1.5320235e+2, -1591647.9, -1425420.4, -27221.146, -0.044356495, 0.22083183, -1421076.3, 17552.436, 0.08629053, 9.998384, 10.00072 
2.506524e+3, 1.6319627e+2, -1761198.1, -1681878.5, -126062.516, 0.09596858, 0.18516935, -1589384.4, -248695.77, 0.028287582, 9.997518, 9.99871 
2.5061813e+3, 1.7318878e+2, -1613208.9, -1592361.6, -117571.59, 0.019779572, 0.11418399, -1484752.5, -241981.89, 0.0050760456, 9.998051, 9.998362 
2.50584e+3, 1.8318236e+2, -1417498.9, -1303448.5, 88107.14, 0.011601173, 0.15690693, -1255522.5, -110682.92, 0.00028139996, 9.998103, 9.999685 
2.5055042e+3, 1.9317937e+2, -1288863.3, -1114821.4, 141284.33, 0.1341967, 0.37184337, -1035908.9, 10960.615, 0.0000014559199, 9.998086, 10.00026 
2.5051662e+3, 2.0317492e+2, -1281411.9, -1212609.6, 104571.51, 0.16432892, 0.53775483, -1136926.1, -188010.72, 0.0, 9.998044, 9.9989805 
2.504824e+3, 2.1316727e+2, -1115969.0, -1052638.8, 134220.31, -0.0857735, 0.39877063, -946398.94, -95404.2, 0.0, 9.998475, 9.999132 
2.5044826e+3, 2.2316019e+2, -807385.75, -639953.44, 38951.62, -0.22188064, 0.28235736, -631335.3, 121725.734, 0.0, 9.998903, 10.001152 
2.504141e+3, 2.3315474e+2, -415366.97, -276249.13, -83073.86, -0.124909915, 0.06926113, -237458.11, 417637.8, 0.0, 10.000438, 10.00219 
2.5038004e+3, 2.43149e+2, -544167.94, -739962.56, -68681.21, -0.021908315, 0.003923208, -522478.47, 34661.855, 0.0, 10.000775, 9.998219 
2.5034606e+3, 2.5314242e+2, -541164.06, -733924.3, 15249.987, 0.029095078, 0.09847021, -539965.0, -80756.33, 0.0, 10.0004, 9.997705 
2.5031212e+3, 2.6313514e+2, -496506.4, -604255.7, 65006.492, 0.0959721, 0.15237828, -465951.7, -104669.33, 0.0, 9.999736, 9.998292 
2.5027823e+3, 2.7312613e+2, -303822.34, -375556.66, 71991.66, 0.22225854, -0.09847005, -259257.84, 4109.344, 0.0, 10.000074, 9.998983 
2.5024426e+3, 2.8311852e+2, -222107.39, -250679.98, 80233.914, 0.17984866, -0.19376291, -154897.8, 10542.615, 0.0, 9.999767, 9.999354 
2.502098e+3, 2.9311422e+2, 31669.553, 4307.8306, 53208.81, -0.3367712, -0.0862525, 72928.14, 140414.13, 0.0, 10.000556, 9.999996 
2.501759e+3, 3.0310956e+2, -17572.25, -111413.19, -12637.377, -0.28974077, 0.0592134, -15900.192, -15900.192, 0.0, 10.000326, 9.99903 
2.501423e+3, 3.131035e+2, 23880.717, 223885.02, -93658.68, 0.25701177, 0.009255763, 260895.19, 260895.19, 0.0, 9.999261, 10.0017805 
2.5178745e+3, 1.23555586e+2, -1986945.1, -1824544.6, -140771.52, -0.4558552, 0.0077919397, -1743233.0, -14059.764, 0.39734322, 9.997956, 10.00018 
2.517539e+3, 1.3355343e+2, -1698063.8, -1648307.1, 90074.62, 0.05225502, 0.31529176, -1579738.4, 51458.152, 0.28406283, 9.999457, 10.000056 
2.5171992e+3, 1.4354832e+2, -1624129.4, -1638251.3, 15130.971, 0.14867441, 0.41796094, -1614492.9, -81247.48, 0.16993596, 9.999456, 9.999432 
2.5168568e+3, 1.5353775e+2, -1605199.5, -1510988.1, -13435.143, 0.023645487, -0.1063122, -1509109.6, -73767.05, 0.078587286, 9.998673, 9.999957 
2.516515e+3, 1.6353092e+2, -1652056.0, -1562885.8, -80804.55, -0.06852111, -0.18992169, -1515182.1, -177772.5, 0.024857625, 9.997992, 9.99929 
2.5161725e+3, 1.7352995e+2, -1459373.8, -1405817.3, -63490.09, -0.09936738, 0.30524087, -1363689.3, -124259.25, 0.0041356636, 9.998627, 9.999363 
2.515832e+3, 1.8352605e+2, -1281724.5, -1128730.3, 96067.086, -0.120877855, 0.5067176, -1082423.9, 59048.027, 0.00018434241, 9.998569, 10.000647 
2.515495e+3, 1.9351818e+2, -1196610.9, -985238.0, 151414.02, -0.0521247, 0.15720665, -906273.9, 137266.78, 0.00000026313862, 9.998332, 10.001037 
2.5151575e+3, 2.0351209e+2, -1145092.6, -989518.94, 117954.1, -0.0054018768, 0.06309749, -926011.9, 19584.756, 0.0, 9.9983, 10.000381 
2.5148183e+3, 2.1350895e+2, -976111.0, -840244.3, 164184.52, 0.024783794, 0.25065053, -730494.0, 117137.77, 0.0, 9.99879, 10.000459 
2.5144783e+3, 2.2350416e+2, -861726.3, -912701.94, 95523.35, -0.020126766, 0.38627905, -788348.9, -38668.703, 0.0, 9.999527, 9.999 
2.514136e+3, 2.3349684e+2, -593861.9, -719419.06, -41966.11, -0.12850697, 0.30292457, -581126.8, 70620.88, 0.0, 10.0006895, 9.999053 
2.5137952e+3, 2.4348919e+2, -355550.44, -476772.72, -86135.09, -0.14205632, 0.17292958, -310838.44, 242977.66, 0.0, 10.001282, 9.999783 
2.5134555e+3, 2.534807e+2, -312457.03, -378097.3, 899.7938, 0.009552208, -0.13356937, -312444.7, 143445.9, 0.0, 10.000841, 9.999969 
2.513116e+3, 2.6347372e+2, -330839.44, -438331.94, 71417.72, 0.10134992, -0.20893985, -295203.63, 62750.984, 0.0, 10.00043, 9.999117 
2.5127763e+3, 2.7346888e+2, -268172.1, -352929.72, 86554.03, 0.124440975, -0.051571857, -214178.89, 45824.777, 0.0, 10.000216, 9.999115 
2.512436e+3, 2.8346285e+2, -221712.56, -385396.75, 106450.99, 0.0694774, 0.065463044, -169279.03, -7212.9824, 0.0, 10.000266, 9.998206 
2.512095e+3, 2.9345557e+2, -57217.207, -255613.31, 33626.277, -0.16088544, 0.055505574, -51672.816, 12472.005, 0.0, 10.00075, 9.998165 
2.5117555e+3, 3.0344868e+2, 100805.234, -37624.77, -101914.47, -0.12041233, 0.07318711, 154786.33, 154786.33, 0.0, 10.000961, 9.999254 
2.5114173e+3, 3.1344143e+2, 272206.6, 305010.56, -163100.73, 0.18456073, -0.09070855, 452531.97, 452531.97, 0.0, 10.000968, 10.001569 
2.5278702e+3, 1.2390084e+2, -1746495.5, -1631237.6, -81348.57, -0.18129747, 0.2079262, -1589173.6, 136622.08, 0.3720952, 9.99903, 10.001443 
2.527533e+3, 1.3389653e+2, -1637914.3, -1625683.0, 124453.88, 0.08677673, 0.2780173, -1507194.6, 120636.04, 0.26429757, 9.999882, 10.000105 
2.5271943e+3, 1.4388986e+2, -1590213.1, -1634133.1, 141041.94, 0.2840078, 0.23631589, -1469431.9, 60459.977, 0.15642525, 9.999787, 9.999316 
2.5268504e+3, 1.5388058e+2, -1491422.4, -1515420.0, 123696.766, -0.0015199899, -0.10321318, -1379143.9, 52837.395, 0.071005836, 9.999767, 9.999404 
2.5265077e+3, 1.6387385e+2, -1357960.8, -1447055.4, 114476.77, -0.12549102, -0.108363554, -1279669.3, 54379.734, 0.021693112, 10.000169, 9.999048 
2.5261667e+3, 1.738716e+2, -1068137.1, -1219937.8, 70552.92, -0.11354465, 0.29160258, -1040410.4, 195667.89, 0.00335279, 10.001431, 9.999281 
2.5258264e+3, 1.8386693e+2, -932654.4, -1038082.0, 109533.25, -0.0927131, 0.4533016, -863810.5, 274315.44, 0.00011963712, 10.001261, 9.999994 
2.5254878e+3, 1.9385774e+2, -1097480.4, -1025235.8, 59524.03, -0.097252615, 0.03398658, -991731.0, 48476.832, 0.00000002568285, 9.999326, 10.000304 
2.5251496e+3, 2.0385121e+2, -1137397.1, -1002645.8, 12936.201, -0.04544389, -0.07342372, -1001415.1, -59146.95, 0.0, 9.998398, 10.000251 
2.5248122e+3, 2.1384887e+2, -873838.7, -787161.44, -23268.764, 0.055444077, 0.15944989, -781309.94, 62985.242, 0.0, 9.999425, 10.000524 
2.524473e+3, 2.238445e+2, -928344.94, -1034334.06, -60070.777, 0.087145515, 0.34701627, -901233.8, -154893.56, 0.0, 9.999533, 9.998136 
2.5241312e+3, 2.3383676e+2, -865055.06, -953842.6, -5874.708, -0.050450068, 0.28160068, -864668.06, -216252.1, 0.0, 9.999329, 9.998083 
2.5237906e+3, 2.438288e+2, -626146.0, -574890.75, 8687.318, -0.07815338, 0.17694145, -573458.4, -22967.938, 0.0, 9.999369, 10.000015 
2.5234514e+3, 2.538205e+2, -318434.6, -298273.66, -47705.04, 0.07074067, -0.18637201, -259595.67, 192966.02, 0.0, 10.0005245, 10.00065 
2.5231114e+3, 2.638141e+2, -311304.7, -438622.84, -72729.78, 0.13338886, -0.2456165, -278309.25, 76309.77, 0.0, 10.000684, 9.998969 
2.5227702e+3, 2.7381092e+2, -247927.69, -328896.8, -50747.234, 0.044375483, 0.04181671, -223494.75, 33157.773, 0.0, 10.000376, 9.99915 
2.5224298e+3, 2.8380546e+2, -350585.75, -541772.3, 40282.336, -0.030855328, 0.23747869, -342445.06, -183734.06, 0.0, 9.999867, 9.997311 
2.5220907e+3, 2.9379645e+2, -254706.84, -439256.53, 100449.87, -0.10059026, 0.119080275, -210582.2, -149773.9, 0.0, 9.999847, 9.99732 
2.5217524e+3, 3.0378896e+2, -175742.8, -213001.02, 12815.35, 0.046674065, 0.15039068, -171760.48, -171760.48, 0.0, 9.999345, 9.998806 
2.5214073e+3, 3.1377834e+2, -108876.54, 86186.555, 10961.716, -0.32591206, -0.35022834, 86800.625, 86800.625, 0.0, 9.998689, 10.0011015 
2.5378627e+3, 1.2424665e+2, -1704836.5, -1510753.5, 58860.45, -0.34357014, 0.54731953, -1494297.9, 228114.66, 0.34545994, 9.998673, 10.002742 
2.537527e+3, 1.3423945e+2, -1578389.9, -1463374.8, 122306.516, 0.046816327, 0.17978343, -1385730.5, 238732.66, 0.24384509, 9.999599, 10.001563 
2.537188e+3, 1.4423198e+2, -1670481.0, -1686094.5, 120600.586, 0.20464009, -0.011796535, -1557434.8, -30906.227, 0.14280653, 9.999336, 9.999109 
2.5368434e+3, 1.542271e+2, -1507506.1, -1544998.5, 116309.08, -0.12071865, 0.11476407, -1408442.3, 20140.916, 0.06363834, 9.999797, 9.99915 
2.5365016e+3, 1.6422068e+2, -1387547.9, -1558845.6, 141496.08, -0.2282854, 0.19911663, -1307797.6, 22851.99, 0.0187796, 10.000389, 9.998162 
2.5361627e+3, 1.742125e+2, -1097023.1, -1340512.4, 126114.69, -0.11510874, 0.09389395, -1043477.56, 189252.38, 0.0026956536, 10.001644, 9.998361 
2.5358227e+3, 1.8420495e+2, -1022892.7, -1243335.1, 52350.063, -0.075839005, 0.09072769, -1011092.44, 123711.555, 0.00007576087, 10.001365, 9.998511 
2.535482e+3, 1.9419767e+2, -1189929.9, -1255063.9, -5703.011, -0.07833823, 0.03148768, -1189434.4, -152559.39, 0.00000000011876218, 9.999479, 9.99865 
2.535143e+3, 2.0419128e+2, -1153141.4, -1088451.5, 47876.52, -0.07669872, 0.06753895, -1063017.9, -124078.71, 0.0, 9.998618, 9.999541 
2.5348055e+3, 2.1418649e+2, -869470.94, -874151.75, 26617.047, -0.051882826, 0.14109151, -845091.6, -4100.035, 0.0, 9.999816, 9.999738 
2.5344667e+3, 2.2418073e+2, -683324.8, -676239.06, -83955.484, 0.0019027457, 0.13749024, -595751.75, 147294.92, 0.0, 10.000144, 10.000301 
2.534127e+3, 2.3417337e+2, -662919.25, -605087.75, -11643.747, 0.119387895, -0.101023614, -602831.44, 42276.74, 0.0, 9.999578, 10.0003805 
2.5337875e+3, 2.4416746e+2, -658162.4, -730306.9, 55876.69, 0.20010832, -0.06675142, -627725.9, -80562.08, 0.0, 9.999682, 9.998813 
2.5334483e+3, 2.5416347e+2, -394909.06, -542364.44, -6015.4146, 0.26931262, 0.19698831, -394664.1, 54546.395, 0.0, 10.000849, 9.998835 
2.5331077e+3, 2.6415768e+2, -189304.23, -361291.72, -102815.48, 0.20407163, 0.296515, -141260.88, 210008.95, 0.0, 10.001394, 9.999166 
2.532765e+3, 2.7414978e+2, -148614.56, -274576.0, -90825.94, 0.012798046, 0.11095353, -101069.62, 152274.52, 0.0, 10.0009575, 9.99927 
2.5324237e+3, 2.841435e+2, -73029.375, -110794.0, 16328.398, -0.11525282, 0.095542714, -66948.55, 88457.41, 0.0, 10.00046, 9.999978 
2.532084e+3, 2.9413882e+2, -55903.574, -61653.027, 116010.56, -0.19126192, 0.16939078, 57267.875, 114723.5, 0.0, 9.999942, 9.999899 
2.531746e+3, 3.041336e+2, -130154.57, -183821.64, 54028.504, 0.041288063, 0.29508403, -96663.01, -96663.01, 0.0, 9.999546, 9.998948 
2.5314042e+3, 3.141264e+2, -52139.39, 61024.44, 51072.254, 0.037021972, 0.22823447, 80665.15, 80665.15, 0.0, 9.999118, 10.000824 
2.5478578e+3, 1.2458377e+2, -1755643.8, -1489338.0, 228259.4, -0.17449059, 0.14990984, -1358233.3, 360862.16, 0.31815657, 9.998381, 10.003103 
2.547521e+3, 1.345793e+2, -1681090.0, -1474932.3, 3289.1843, 0.10967679, 0.0077161854, -1474879.8, 146242.88, 0.22319712, 9.998606, 10.001853 
2.5471807e+3, 1.44573e+2, -1724052.0, -1755901.3, -26527.041, 0.11890578, -0.0755712, -1709036.6, -185855.63, 0.12934339, 9.999103, 9.998773 
2.5468385e+3, 1.545688e+2, -1530212.6, -1612575.1, -44677.715, -0.037278745, 0.1500228, -1510632.0, -85397.75, 0.05657354, 9.999829, 9.998717 
2.5464982e+3, 1.645629e+2, -1336636.8, -1466323.4, 51406.668, -0.079510525, 0.26832572, -1318731.6, 8564.985, 0.016116831, 10.000413, 9.998786 
2.546159e+3, 1.7455445e+2, -1087691.9, -1289968.3, 98919.42, -0.0818307, 0.055770766, -1047359.3, 182015.6, 0.0021455006, 10.001449, 9.998808 
2.5458184e+3, 1.8454652e+2, -1084011.9, -1363419.5, 22564.23, -0.06823753, 0.022847593, -1082201.4, 49251.28, 0.000046550977, 10.001335, 9.99771 
2.5454763e+3, 1.9453925e+2, -1151410.0, -1330587.5, 7194.2275, -0.05274006, 0.047781583, -1151121.6, -117593.45, 0.0, 10.000175, 9.997798 
2.5451368e+3, 2.0453286e+2, -1115204.0, -1118140.8, 193128.98, -0.004647909, 0.16077086, -923537.75, 12057.411, 0.0, 9.999141, 9.999068 
2.5448e+3, 2.145273e+2, -1089954.6, -1034035.4, 186093.66, 0.034699515, 0.20390701, -873812.7, -36157.68, 0.0, 9.998579, 9.999222 
2.5444615e+3, 2.2452065e+2, -855155.25, -723418.06, 30265.342, 0.07304939, 0.1447784, -716797.56, 22919.283, 0.0, 9.998839, 10.0006075 
2.544121e+3, 2.3451285e+2, -538665.5, -478237.44, -34940.418, 0.112184115, -0.1997639, -462259.25, 179520.58, 0.0, 10.000198, 10.0009365 
2.5437823e+3, 2.4450746e+2, -652276.3, -859976.06, -2454.9048, 0.24592526, -0.08806479, -652247.3, -108415.33, 0.0, 10.000375, 9.997562 
2.5434446e+3, 2.5450483e+2, -631074.6, -785633.6, 6400.1978, 0.39258537, 0.4042166, -630810.06, -184936.81, 0.0, 9.999839, 9.997621 
2.5431037e+3, 2.6449886e+2, -446435.22, -487501.13, -59721.61, 0.2938047, 0.558103, -403815.4, -55877.664, 0.0, 9.999684, 9.999119 
2.5427592e+3, 2.744886e+2, -250850.6, -300194.56, -41347.547, -0.04469449, 0.09602995, -227373.58, 22659.422, 0.0, 10.000201, 9.999454 
2.5424176e+3, 2.8448257e+2, -122255.055, 4727.028, -10161.893, -0.171523, 0.051350024, 5535.103, 157623.86, 0.0, 9.999596, 10.001178 
2.5420782e+3, 2.944813e+2, -167728.31, 72905.64, -17143.797, -0.17213129, 0.28116703, 74120.91, 128222.59, 0.0, 9.998466, 10.001495 
2.5417396e+3, 3.0447605e+2, -285674.25, -345313.13, -86352.35, 0.030965962, 0.35255554, -224137.64, -224137.64, 0.0, 9.998962, 9.998087 
2.5414005e+3, 3.144711e+2, 259743.6, 310504.44, -103223.92, 0.22104862, 0.53257984, 391422.38, 391422.38, 0.0, 10.000976, 10.001604 
2.5578505e+3, 1.2492004e+2, -1868248.0, -1706754.0, 129813.516, -0.2792332, -0.22315851, -1634623.1, 81158.016, 0.29081753, 9.998539, 10.000822 
2.5575146e+3, 1.3491757e+2, -1638032.1, -1457553.9, 29742.814, 0.12952136, -0.1525129, -1452778.6, 165019.03, 0.2027681, 9.998946, 10.001806 
2.5571725e+3, 1.4491275e+2, -1719993.0, -1776778.1, -4306.7637, -0.075673774, -0.06389238, -1719668.3, -199819.6, 0.11625642, 9.999271, 9.998527 
2.5568342e+3, 1.5490757e+2, -1508791.6, -1614275.9, 1902.6782, 0.10728937, 0.068531245, -1508757.4, -86841.77, 0.04988728, 10.000048, 9.99858 
2.556495e+3, 1.6490243e+2, -1227862.0, -1244375.8, 102766.59, 0.120488614, 0.2033443, -1133021.1, 190949.52, 0.013707004, 10.000446, 10.000306 
2.5561553e+3, 1.7489693e+2, -1022619.2, -1083023.9, 161358.84, -0.069854155, 0.14119592, -888660.44, 337357.25, 0.0016894786, 10.001133, 10.000394 
2.5558138e+3, 1.8489005e+2, -1088485.5, -1349753.6, -18298.305, -0.14499831, 0.13348679, -1087210.1, 40875.285, 0.000027889511, 10.001245, 9.997834 
2.555471e+3, 1.9488181e+2, -1109847.9, -1310921.1, -15705.024, -0.063261375, 0.061693653, -1108628.6, -78455.06, 0.0, 10.0004635, 9.99779 
2.5551316e+3, 2.0487562e+2, -1059685.8, -1079946.8, 182724.61, 0.08315766, 0.19188191, -886811.06, 45428.25, 0.0, 9.999452, 9.999186 
2.554796e+3, 2.1487132e+2, -1044087.94, -1019787.25, 185794.84, 0.2978077, 0.37465248, -845745.9, -11461.362, 0.0, 9.998882, 9.99919 
2.5544563e+3, 2.2486502e+2, -886111.3, -892096.0, 94139.81, 0.19476607, 0.41699544, -794916.3, -58571.25, 0.0, 9.999267, 9.9992485 
2.5541127e+3, 2.3485678e+2, -571331.06, -680498.3, 34017.09, -0.20422077, 0.20543233, -561598.8, 76820.98, 0.0, 10.000748, 9.999295 
2.5537738e+3, 2.4484901e+2, -520033.8, -763447.2, -35687.586, -0.13845947, 0.15385984, -514909.4, 25586.209, 0.0, 10.00109, 9.997893 
2.5534388e+3, 2.5484177e+2, -585225.4, -747496.3, -20441.244, 0.37054488, 0.17670423, -582690.0, -140116.44, 0.0, 10.000021, 9.99782 
2.5530985e+3, 2.6483533e+2, -353517.13, -337861.66, -22350.258, 0.3660027, 0.22426619, -322008.03, 22630.727, 0.0, 9.999803, 10.00012 
2.5527534e+3, 2.748292e+2, -168239.14, -198637.2, 5327.6807, -0.11570883, 0.14007975, -167332.44, 79362.28, 0.0, 10.000426, 10.000092 
2.5524122e+3, 2.8482404e+2, -128496.19, -126158.4, -50423.313, -0.1711013, 0.20203172, -76890.43, 71853.8, 0.0, 10.000022, 10.000099 
2.5520736e+3, 2.9482007e+2, -258961.88, -137709.36, -110553.16, 0.12349125, 0.3211178, -72250.16, -21465.29, 0.0, 9.998475, 10.000079 
2.5517356e+3, 3.048123e+2, -153081.81, -292512.4, -20897.313, 0.24110916, 0.21319889, -150017.16, -150017.16, 0.0, 9.999821, 9.998075 
2.5513905e+3, 3.1480405e+2, 520243.13, 246343.81, -95575.42, -0.5115548, 0.11922743, 550296.06, 550296.06, 0.0, 10.003419, 10.000041 
2.5678486e+3, 1.2526302e+2, -1672557.3, -1625966.9, 54746.703, 0.18367703, -0.08658451, -1589765.3, 122647.1, 0.26403108, 9.999925, 10.000803 
2.5675082e+3, 1.352575e+2, -1697853.1, -1640719.4, -16210.07, 0.14173599, -0.14283073, -1636440.8, -21972.807, 0.18292536, 9.999371, 10.000104 
2.5671664e+3, 1.4525181e+2, -1628068.9, -1665353.5, 3100.8262, -0.05292405, -0.080727264, -1627812.8, -111283.75, 0.1037245, 9.999552, 9.999174 
2.5668287e+3, 1.55246e+2, -1349786.9, -1500451.3, 13574.673, 0.06244414, -0.076409526, -1348573.6, 70022.84, 0.043632858, 10.000919, 9.998975 
2.5664896e+3, 1.6524185e+2, -1236800.0, -1141182.6, 52428.75, 0.09637602, 0.086597644, -1118037.5, 202603.0, 0.011545959, 9.9999485, 10.001229 
2.5661483e+3, 1.75239e+2, -1559040.3, -1256577.9, 55044.453, -0.072043, 0.19445637, -1246871.9, -24207.318, 0.0013158798, 9.997133, 10.001093 
2.5658074e+3, 1.8523297e+2, -1591826.1, -1574331.8, -17453.207, -0.13135074, 0.23168184, -1563556.5, -438831.38, 0.000016496271, 9.9977455, 9.997976 
2.5654662e+3, 1.9522409e+2, -963263.9, -1237670.0, -17672.137, -0.06688706, 0.071873695, -962130.44, 64688.47, 0.0, 10.001456, 9.997832 
2.5651273e+3, 2.0521736e+2, -669850.4, -922080.7, 94462.54, 0.112502836, 0.16023587, -638395.9, 290492.6, 0.0, 10.002292, 9.99891 
2.5647905e+3, 2.1521257e+2, -849301.94, -962169.56, 66873.7, 0.35718656, 0.31451413, -818232.2, 12703.728, 0.0, 10.000422, 9.99885 
2.5644508e+3, 2.2520651e+2, -854577.94, -965260.9, 97238.75, 0.24401742, 0.43711525, -798035.3, -65039.25, 0.0, 9.999918, 9.998407 
2.5641072e+3, 2.3519896e+2, -676808.2, -833464.75, 102573.52, -0.26957732, 0.36138943, -626075.8, 8994.711, 0.0, 10.000506, 9.9983425 
2.563768e+3, 2.4519058e+2, -541851.6, -716613.44, 36608.145, -0.23754875, 0.28189692, -534493.0, 2659.8694, 0.0, 10.000748, 9.998358 
2.5634328e+3, 2.5518116e+2, -461266.3, -637180.5, 72904.43, 0.29028943, 0.025268197, -434980.22, 4265.428, 0.0, 10.000688, 9.998252 
2.5630927e+3, 2.6517466e+2, -319035.34, -359037.4, 81696.88, 0.35141027, 0.07839109, -254926.78, 86383.05, 0.0, 10.000303, 9.999677 
2.5627482e+3, 2.751707e+2, -225398.0, -262505.34, 21602.953, -0.09589872, 0.22462466, -215474.9, 27873.662, 0.0, 10.000269, 9.999684 
2.562407e+3, 2.8516486e+2, -180076.1, -322124.47, -107224.89, -0.12312126, 0.3168538, -122486.086, 22920.822, 0.0, 10.000459, 9.99852 
2.5620687e+3, 2.9515767e+2, -15386.413, -199495.14, -128980.52, 0.22956634, 0.24136078, 51020.52, 98499.56, 0.0, 10.000958, 9.998435 
2.5617316e+3, 3.0514959e+2, -5812.8247, -277800.06, 90536.89, 0.3578845, 0.22142886, 21567.951, 21567.951, 0.0, 10.001178, 9.99747 
2.5613883e+3, 3.1514362e+2, 79395.55, 30295.676, 110653.8, -0.49360865, 0.35131928, 168190.05, 168190.05, 0.0, 10.000586, 9.999844 
2.5778413e+3, 1.2560591e+2, -1913848.9, -2055250.3, 86959.57, -0.047007684, 0.055430036, -1872475.6, -163426.52, 0.23823552, 9.999626, 9.997767 
2.5775018e+3, 1.355974e+2, -1759362.6, -1884074.6, -12709.38, 0.11352456, -0.101931095, -1758080.6, -146937.6, 0.16394834, 9.999882, 9.998154 
2.5771615e+3, 1.4559041e+2, -1528941.1, -1517905.3, 85991.016, -0.013568171, -0.12081104, -1437255.4, 75960.766, 0.09188186, 9.999856, 10.000054 
2.5768223e+3, 1.5558398e+2, -1324295.8, -1377242.6, 96978.38, -0.12970252, -0.25934434, -1250242.3, 165037.2, 0.03784501, 10.000627, 9.999981 
2.5764817e+3, 1.6558099e+2, -1231695.6, -1085958.3, -43927.035, -0.13576159, -0.050646488, -1073742.1, 243568.42, 0.009625426, 9.999798, 10.001658 
2.5761396e+3, 1.7558041e+2, -1475554.1, -1187511.8, -27548.305, -0.12915298, 0.2522899, -1184900.8, 34417.758, 0.0010124295, 9.997591, 10.001336 
2.5757998e+3, 1.855752e+2, -1484407.3, -1464114.6, 109728.88, -0.13623738, 0.3400977, -1364063.9, -242691.75, 0.000009793076, 9.998246, 9.998476 
2.5754616e+3, 1.955661e+2, -906615.0, -1163090.3, 134621.77, -0.11577072, 0.12961906, -848928.1, 174536.31, 0.0, 10.001631, 9.9982605 
2.5751227e+3, 2.0555781e+2, -683123.06, -983737.94, 34376.895, -0.018495545, 0.06357643, -679242.0, 246303.48, 0.0, 10.0023985, 9.998441 
2.5747836e+3, 2.155503e+2, -818719.1, -1012218.9, 31060.885, 0.15177068, 0.0127146505, -813855.44, 13760.705, 0.0, 10.000862, 9.998312 
2.5744447e+3, 2.2554389e+2, -725679.2, -836440.7, 125778.54, 0.14826436, 0.09278478, -643628.94, 86051.51, 0.0, 10.000472, 9.999018 
2.5741056e+3, 2.3553799e+2, -562004.25, -728393.06, 141331.38, 0.0016323341, 0.14654274, -481199.06, 150543.83, 0.0, 10.001008, 9.998835 
2.5737658e+3, 2.4553216e+2, -350992.88, -447644.44, 62015.504, -0.021824194, 0.21425787, -320697.4, 213102.75, 0.0, 10.001252, 9.999972 
2.573426e+3, 2.5552616e+2, -271048.4, -402874.3, 121045.71, 0.089715265, 0.1760979, -199133.27, 236722.53, 0.0, 10.001314, 9.999588 
2.573086e+3, 2.6551908e+2, -348457.7, -608862.9, 102433.51, 0.11972099, 0.21990387, -312993.94, 24934.654, 0.0, 10.001067, 9.997593 
2.5727448e+3, 2.755113e+2, -327554.03, -565611.7, 15782.508, 0.066078655, 0.22657779, -326512.25, -86499.055, 0.0, 10.000593, 9.997463 
2.572404e+3, 2.8550386e+2, -93965.195, -328577.38, -56554.43, 0.023763062, 0.2906801, -81044.09, 61044.613, 0.0, 10.001192, 9.998134 
2.5720632e+3, 2.9549682e+2, 199420.66, -176173.92, -61515.023, 0.02405018, 0.30645874, 209238.95, 253395.36, 0.0, 10.002691, 9.997791 
2.5717252e+3, 3.054885e+2, 130615.05, -187833.06, 60890.42, 0.084604524, 0.28000098, 141860.77, 141860.77, 0.0, 10.001925, 9.997756 
2.5713888e+3, 3.1547755e+2, -48066.844, 18268.7, 71759.75, 0.1548001, -0.059229914, 64155.1, 64155.1, 0.0, 9.999345, 10.000409 
2.5878373e+3, 1.2594563e+2, -1964427.6, -2069103.9, 98321.49, 0.14373903, -0.090425566, -1905381.8, -199661.52, 0.21373183, 9.999135, 9.997912 
2.587497e+3, 1.3593821e+2, -1476876.4, -1784192.8, 71557.445, 0.0885663, -0.117034145, -1461031.5, 146773.78, 0.14603193, 10.002099, 9.9978075 
2.587157e+3, 1.4593197e+2, -1246299.0, -1331104.4, 106223.33, 0.006078266, -0.06963441, -1174327.8, 335542.5, 0.080827504, 10.001739, 10.000484 
2.5868168e+3, 1.5592718e+2, -1515081.5, -1448277.6, 84134.07, -0.07256591, -0.07507297, -1391157.6, 20757.453, 0.032553293, 9.999239, 10.000123 
2.5864756e+3, 1.6592273e+2, -1439529.5, -1361049.8, -61705.54, -0.09889852, 0.061514705, -1327164.1, -13203.378, 0.007938516, 9.999123, 10.000072 
2.5861335e+3, 1.759188e+2, -1151915.0, -1218054.0, -158588.3, -0.09937382, 0.17795043, -1022985.0, 193019.06, 0.00076767127, 10.000609, 9.999683 
2.585795e+3, 1.8591297e+2, -1095511.4, -1270978.8, -24080.994, -0.02855585, 0.26795712, -1092266.5, 25798.258, 0.000005913737, 10.000906, 9.998503 
2.5854588e+3, 1.9590516e+2, -1145337.4, -1270844.8, -50097.89, 0.070372544, 0.1493384, -1127792.8, -107649.31, 0.0, 9.999999, 9.998278 
2.585119e+3, 2.0589718e+2, -1038520.94, -1139271.0, -167935.17, 0.063468516, 0.08575626, -913568.06, 8650.847, 0.0, 9.999916, 9.998553 
2.584777e+3, 2.1588893e+2, -904445.1, -1045241.1, -116543.24, -0.011174669, -0.08352898, -838688.06, -14394.42, 0.0, 10.000242, 9.998375 
2.5844386e+3, 2.2588229e+2, -771512.06, -812060.8, 42095.492, 0.048099685, -0.056471944, -745063.0, -18704.023, 0.0, 10.000032, 9.999387 
2.5841022e+3, 2.358767e+2, -767685.3, -784881.7, 43795.387, 0.17777638, -0.026097773, -731652.06, -103233.53, 0.0, 9.999485, 9.999172 
2.583762e+3, 2.4587245e+2, -524520.75, -472982.06, -51365.92, 0.12490507, 0.1500105, -441283.88, 89176.73, 0.0, 9.999865, 10.000446 
2.58342e+3, 2.5586885e+2, -359580.75, -414736.5, -70568.695, -0.07363929, 0.2649184, -311392.66, 121100.0, 0.0, 10.0006275, 9.999817 
2.5830796e+3, 2.6586136e+2, -442718.97, -783894.0, -55486.043, -0.039044, 0.3065624, -433922.0, -99350.8, 0.0, 10.000997, 9.996438 
2.582741e+3, 2.758511e+2, -352784.4, -709044.2, -7698.502, 0.15209426, 0.15002617, -352618.13, -115935.23, 0.0, 10.001042, 9.996249 
2.5824007e+3, 2.8584355e+2, -33056.49, -322355.25, 59526.21, 0.10109082, 0.27494246, -21287.156, 117473.41, 0.0, 10.001778, 9.997867 
2.582059e+3, 2.9583734e+2, 195453.17, -211245.8, 68835.375, -0.15351355, 0.38348222, 206787.92, 247606.72, 0.0, 10.002877, 9.997437 
2.5817183e+3, 3.05828e+2, 154172.44, -147768.22, 55754.664, -0.25762832, 0.27338398, 164138.81, 164138.81, 0.0, 10.002035, 9.9979515 
2.581382e+3, 3.158232e+2, -265645.34, -451689.66, -213872.08, 0.05245444, 0.52502304, -125441.46, -125441.46, 0.0, 9.999519, 9.997086 
2.597834e+3, 1.262861e+2, -1924304.6, -1999592.8, 22026.035, 0.38013616, -0.15331008, -1918334.1, -215948.05, 0.19077104, 9.999285, 9.998315 
2.5974932e+3, 1.3627952e+2, -1552379.9, -1788586.8, 145409.2, 0.020266766, -0.12477873, -1483154.1, 121307.07, 0.12932456, 10.001383, 9.998146 
2.597153e+3, 1.4627475e+2, -1326005.5, -1352078.3, 5433.396, -0.038249273, 0.04587563, -1324918.6, 181592.8, 0.07062259, 10.001081, 10.000621 
2.596812e+3, 1.5627252e+2, -1509015.4, -1472615.9, 3845.454, 0.05313377, 0.29392785, -1472214.1, -63682.184, 0.027766839, 9.9994135, 9.999861 
2.5964704e+3, 1.6626507e+2, -1551810.4, -1695048.8, -10877.359, 0.005368102, 0.28706968, -1550989.0, -240381.13, 0.0064744665, 9.99956, 9.997572 
2.5961292e+3, 1.762545e+2, -1268232.5, -1531662.0, -67695.06, -0.08536901, 0.0010558582, -1251854.8, -39137.355, 0.0005723583, 10.0008955, 9.997406 
2.5957918e+3, 1.8624717e+2, -1084091.0, -1274567.6, -33009.563, 0.08698528, 0.053607922, -1078532.6, 36261.15, 0.0000035552432, 10.001023, 9.998423 
2.5954568e+3, 1.962414e+2, -1100232.3, -1247995.3, -46508.23, 0.39751765, 0.16186552, -1086812.5, -69958.59, 0.0, 10.000276, 9.998316 
2.5951153e+3, 2.0623516e+2, -901250.9, -931334.56, -138615.16, 0.22689155, 0.1983611, -776863.8, 142047.77, 0.0, 10.000235, 9.999837 
2.59477e+3, 2.1622847e+2, -748566.7, -853565.2, -81715.31, -0.20311287, 0.09220828, -703939.4, 117029.58, 0.0, 10.000754, 9.999479 
2.5944313e+3, 2.2622168e+2, -665435.9, -698341.75, 19704.31, -0.14757052, 0.023350175, -656218.6, 66813.68, 0.0, 10.000476, 9.999949 
2.5940964e+3, 2.3621485e+2, -680831.3, -707793.8, 41246.344, 0.18643928, -0.10485079, -650919.0, -25819.545, 0.0, 9.999882, 9.999521 
2.593757e+3, 2.4620983e+2, -525108.1, -568262.0, -31152.96, 0.12884957, 0.022690386, -508789.56, 18361.855, 0.0, 10.000205, 9.999647 
2.5934142e+3, 2.562058e+2, -342860.7, -482233.44, -68106.23, -0.15885329, 0.19667433, -315106.56, 114088.42, 0.0, 10.00099, 9.999207 
2.5930744e+3, 2.66199e+2, -234282.3, -453477.38, -71452.97, -0.13351914, 0.22025606, -213047.31, 118216.7, 0.0, 10.00143, 9.998492 
2.5927365e+3, 2.761904e+2, -114609.93, -389804.13, 18565.564, 0.12336688, 0.05855794, -113363.08, 119987.81, 0.0, 10.001754, 9.998111 
2.5923964e+3, 2.8618369e+2, 108486.7, -208248.25, 116480.414, 0.005845649, 0.1572526, 146710.03, 282128.7, 0.0, 10.002525, 9.998296 
2.592054e+3, 2.9617786e+2, 306299.63, -116460.85, 101168.77, -0.41322058, 0.29664916, 329262.56, 366739.47, 0.0, 10.003408, 9.997847 
2.5917152e+3, 3.061701e+2, 248299.6, -137725.6, -17241.527, -0.28484416, 0.33766672, 249068.14, 249068.14, 0.0, 10.0027895, 9.99767 
2.591375e+3, 3.161603e+2, -24145.877, -373306.8, 58708.977, -0.1310709, 0.1513093, -14538.714, -14538.714, 0.0, 10.001231, 9.996827 
2.6078263e+3, 1.2662265e+2, -1547196.8, -1549329.5, -148155.92, 0.1672103, -0.043319583, -1400103.4, 299004.8, 0.16949531, 10.000834, 10.00089 
2.607488e+3, 1.3662088e+2, -1585806.5, -1508760.0, 29.81829, 0.050939832, 0.11065503, -1508760.0, 92359.99, 0.11391174, 9.999716, 10.00094 
2.607148e+3, 1.4661564e+2, -1574881.1, -1574939.6, -97827.44, 0.02686918, 0.15986975, -1477083.0, 26087.154, 0.061296463, 9.99974, 9.999653 
2.606807e+3, 1.5660983e+2, -1385839.9, -1521336.8, -156479.81, 0.10325354, 0.13196713, -1283072.1, 122155.9, 0.023481611, 10.000722, 9.998904 
2.606466e+3, 1.6660231e+2, -1268857.3, -1517591.0, -60097.477, 0.08038975, 0.12445171, -1255098.0, 52205.098, 0.005220199, 10.001304, 9.997984 
2.6061258e+3, 1.7659323e+2, -1206858.5, -1492244.3, 11064.442, 0.024165496, -0.038594462, -1206430.1, 2964.1008, 0.00041937284, 10.001264, 9.997529 
2.6057875e+3, 1.8658593e+2, -1024469.44, -1250604.5, 108674.34, 0.121745564, 0.022444189, -980711.0, 130758.44, 0.0000020172258, 10.001415, 9.998415 
2.605451e+3, 1.9657975e+2, -932623.75, -1174756.6, 88614.88, 0.31573415, 0.099845745, -903657.9, 109876.43, 0.0, 10.001446, 9.998264 
2.60511e+3, 2.0657413e+2, -710835.0, -779625.0, 12448.468, 0.19221632, 0.1869426, -708651.6, 206935.27, 0.0, 10.001339, 10.00032 
2.604766e+3, 2.165686e+2, -755198.0, -820310.5, 9875.713, -0.13517089, 0.14866948, -753733.06, 63901.242, 0.0, 10.000633, 9.999736 
2.604426e+3, 2.2656173e+2, -774863.8, -780502.25, 40406.668, -0.13841937, 0.08347282, -737178.1, -17479.53, 0.0, 9.999863, 9.999683 
2.604089e+3, 2.365539e+2, -909125.2, -859973.25, 8548.107, 0.08716283, -0.12913163, -858529.06, -236755.13, 0.0, 9.998527, 9.99912 
2.6037502e+3, 2.4654837e+2, -785191.5, -738197.0, 14680.988, 0.0840221, -0.010705008, -733987.75, -210155.02, 0.0, 9.99867, 9.999202 
2.6034096e+3, 2.565439e+2, -622342.1, -657688.44, 12400.489, -0.094041884, 0.15249564, -618425.6, -192541.69, 0.0, 9.999309, 9.998792 
2.6030695e+3, 2.6653764e+2, -433692.88, -424890.38, -35786.246, -0.1298847, 0.18755347, -393235.75, -65289.73, 0.0, 9.999569, 9.999579 
2.6027304e+3, 2.7653003e+2, -434089.56, -451680.22, -7647.0005, -0.010060089, 0.0030500975, -431230.1, -201213.55, 0.0, 9.999206, 9.998913 
2.6023912e+3, 2.8652337e+2, -330398.34, -410133.06, 83449.984, -0.12769929, 0.07054338, -277781.6, -145698.89, 0.0, 9.999491, 9.998371 
2.6020497e+3, 2.9651743e+2, -241339.5, -401393.22, 54602.535, -0.5209353, 0.1652914, -224486.36, -190341.11, 0.0, 9.999781, 9.997638 
2.6017123e+3, 3.065112e+2, -100321.766, -377776.38, -95189.35, -0.18345441, 0.40658358, -70804.375, -70804.375, 0.0, 10.0007715, 9.996968 
2.6013726e+3, 3.1649855e+2, -7302.009, -138030.23, -105615.18, 0.016748223, -0.030200511, 51539.484, 51539.484, 0.0, 10.000518, 9.998739 
2.6178202e+3, 1.26959e+2, -1286387.8, -885047.25, -87965.34, -0.042938963, 0.23826405, -866613.75, 829222.1, 0.1498841, 10.000225, 10.0064945 
2.6174825e+3, 1.3696222e+2, -1434928.0, -1116642.8, -32506.984, 0.07715976, 0.45428336, -1113356.6, 484422.84, 0.09979623, 9.999355, 10.00408 
2.6171425e+3, 1.4695491e+2, -1687420.6, -1759343.3, -80660.22, 0.060115222, 0.24322924, -1635068.4, -135223.08, 0.05285716, 9.999555, 9.998462 
2.616802e+3, 1.5694265e+2, -1444534.6, -1652010.6, -97311.945, 0.03880948, -0.29636967, -1406036.3, -4067.7908, 0.019694533, 10.000735, 9.998007 
2.6164618e+3, 1.6693693e+2, -1113306.9, -1203287.5, -52583.48, 0.06804036, -0.20843452, -1089093.5, 214928.77, 0.004163879, 10.001366, 10.000089 
2.6161227e+3, 1.7693387e+2, -1065376.6, -1235833.8, 23919.443, 0.104934216, 0.026615893, -1062083.8, 143963.97, 0.00030229846, 10.001442, 9.99918 
2.6157826e+3, 1.8692753e+2, -976103.3, -1193857.9, 109330.31, -0.012730703, 0.09568402, -930684.2, 177426.86, 0.0000010444409, 10.001584, 9.998723 
2.6154426e+3, 1.9691962e+2, -880665.6, -1133699.5, 107923.47, -0.18399829, -0.01292475, -840887.6, 169304.6, 0.0, 10.001673, 9.998452 
2.6151034e+3, 2.0691384e+2, -684206.6, -773891.75, 1057.8422, -0.054501023, 0.050541315, -684194.2, 228054.14, 0.0, 10.001528, 10.000269 
2.6147643e+3, 2.169089e+2, -696696.8, -824601.44, 7381.1978, 0.16898353, 0.09377112, -696272.25, 118021.6, 0.0, 10.001139, 9.999459 
2.6144224e+3, 2.2690195e+2, -774199.3, -871598.4, 1171.0426, 0.040125746, 0.08020904, -774185.25, -57822.59, 0.0, 10.000222, 9.9989 
2.6140794e+3, 2.3689398e+2, -881443.9, -913793.2, -5668.8936, -0.20701796, -0.047429617, -880479.2, -262036.36, 0.0, 9.998927, 9.998586 
2.613742e+3, 2.468885e+2, -704304.6, -627058.0, 50104.523, -0.05133846, 0.058858905, -602418.2, -81917.484, 0.0, 9.998894, 9.999863 
2.613407e+3, 2.5688413e+2, -545205.44, -573311.6, 58057.938, 0.243159, 0.1967726, -499524.03, -76975.305, 0.0, 9.999588, 9.999254 
2.6130652e+3, 2.6687765e+2, -429090.25, -437115.3, -31836.53, 0.034617264, 0.20108332, -401014.38, -76402.69, 0.0, 9.999604, 9.999501 
2.6127204e+3, 2.7687004e+2, -447832.66, -469027.1, -7673.1084, -0.3587863, 0.054004185, -445346.38, -218663.67, 0.0, 9.99907, 9.998886 
2.612383e+3, 2.86863e+2, -374089.97, -384821.53, 97473.28, -0.27614844, 0.052009113, -281834.88, -153082.38, 0.0, 9.998938, 9.998824 
2.6120478e+3, 2.9685646e+2, -310007.25, -397527.84, 87961.13, -0.061682627, 0.07608745, -255522.33, -224702.45, 0.0, 9.999083, 9.998022 
2.6117095e+3, 3.0685037e+2, -121974.805, -302063.66, 10235.428, 0.065283895, 0.27068028, -121394.94, -121394.94, 0.0, 10.00016, 9.997813 
2.6113683e+3, 3.168396e+2, 363213.28, 288528.3, -314506.8, 0.06636339, -0.043161407, 642586.75, 642586.75, 0.0, 10.001918, 10.00099 
2.6278168e+3, 1.2729892e+2, -1490117.4, -1274488.3, 24648.17, 0.14267504, 0.33369136, -1271706.6, 420795.5, 0.13183983, 10.000028, 10.003361 
2.6274765e+3, 1.3729626e+2, -1685410.5, -1452231.1, -192351.03, 0.13553788, 0.26207948, -1343894.0, 250619.14, 0.08692974, 9.998586, 10.001913 
2.627136e+3, 1.4729053e+2, -1634876.5, -1608044.5, -160415.14, 0.054863222, 0.206828, -1460485.3, 36079.824, 0.045284748, 9.999279, 9.999704 
2.6267964e+3, 1.5728249e+2, -1380969.4, -1520461.6, -85896.61, -0.0022467764, -0.028196344, -1340068.5, 58576.266, 0.01638905, 10.000698, 9.998975 
2.6264572e+3, 1.6727626e+2, -1117304.6, -1225345.6, -88195.4, 0.029077286, -0.022934336, -1067900.5, 232801.23, 0.0032885466, 10.001426, 9.999912 
2.626118e+3, 1.7727119e+2, -1028654.9, -1213082.3, -144834.1, 0.09142431, 0.015287523, -949170.4, 253574.77, 0.00021471751, 10.001656, 9.99925 
2.6257777e+3, 1.8726546e+2, -1026355.7, -1100756.5, -96947.44, -0.04210991, 0.058216985, -959716.44, 145083.42, 0.00000047553752, 10.000763, 9.99975 
2.6254365e+3, 1.9725913e+2, -1243201.0, -1239268.0, -68853.445, -0.24888729, -0.007290433, -1172353.0, -165490.39, 0.0, 9.998944, 9.999032 
2.625098e+3, 2.0725305e+2, -1085431.3, -1012494.2, -126360.93, -0.05328147, 0.017357297, -917444.5, -8523.003, 0.0, 9.998951, 9.999887 
2.6247606e+3, 2.1724719e+2, -1011277.0, -1020760.3, -138942.11, 0.3237446, -0.016133506, -876995.6, -66017.77, 0.0, 9.999184, 9.9990635 
2.6244178e+3, 2.2724111e+2, -770659.5, -835214.8, -75547.22, 0.14304586, 0.045598395, -720783.5, -7744.366, 0.0, 10.000145, 9.999169 
2.6240727e+3, 2.3723465e+2, -670084.0, -810114.8, -4565.9272, -0.2702343, 0.033014894, -669935.25, -54829.945, 0.0, 10.000432, 9.998565 
2.6237354e+3, 2.4722886e+2, -540152.9, -536949.94, 78220.29, -0.10664942, 0.107127085, -460314.72, 56849.332, 0.0, 10.000015, 9.999925 
2.6234013e+3, 2.5722337e+2, -678607.44, -666931.5, 46203.496, 0.3164275, 0.11877535, -626198.6, -206978.75, 0.0, 9.998825, 9.998981 
2.6230595e+3, 2.6721704e+2, -388715.38, -422002.78, -24584.814, 0.054334443, 0.15486845, -375670.25, -54388.895, 0.0, 9.99995, 9.999407 
2.622713e+3, 2.7721024e+2, -159290.11, -364677.28, 1952.8594, -0.5250906, 0.077788666, -159271.55, 64075.086, 0.0, 10.00126, 9.9985285 
2.6223764e+3, 2.872033e+2, -100357.13, -185776.28, 90903.52, -0.33997566, 0.072984666, -42629.875, 82785.76, 0.0, 10.000602, 9.999366 
2.622044e+3, 2.9719612e+2, -357827.75, -402571.13, 108948.75, 0.21005918, -0.037815053, -268977.5, -241488.92, 0.0, 9.9987335, 9.99815 
2.621706e+3, 3.0719078e+2, -178228.92, -230271.95, 61821.254, 0.2917668, 0.18995887, -137175.95, -137175.95, 0.0, 9.999427, 9.99864 
2.6213622e+3, 3.171814e+2, 110464.11, 30042.38, 243190.34, -0.24372646, -0.08969436, 316745.53, 316745.53, 0.0, 10.000832, 9.999757 
2.637814e+3, 1.276396e+2, -1910963.6, -2048193.0, -72315.37, 0.3761813, 0.4080163, -1879891.4, -190737.98, 0.11528821, 9.999668, 9.997769 
2.6374698e+3, 1.376269e+2, -1840988.0, -1938730.5, -150553.95, 0.117984556, -0.14114548, -1731571.9, -140289.98, 0.07524984, 9.99932, 9.998099 
2.637129e+3, 1.4762492e+2, -1411155.0, -1222087.5, -50015.17, -0.042170662, 0.17777659, -1209672.0, 283628.3, 0.038529176, 9.999655, 10.002211 
2.636791e+3, 1.5762596e+2, -1301634.4, -1298901.0, -15187.353, -0.10716676, 0.6085109, -1285018.9, 110268.45, 0.013527696, 10.000496, 10.000579 
2.636452e+3, 1.6761747e+2, -1229272.0, -1424785.0, -61510.945, -0.08560188, 0.4092964, -1211529.9, 85837.01, 0.0025719018, 10.00128, 9.998618 
2.6361132e+3, 1.7760588e+2, -1068889.3, -1292450.0, -106726.03, -0.054626226, -0.07696026, -1026120.9, 173355.38, 0.00015054179, 10.001614, 9.998733 
2.635773e+3, 1.8760087e+2, -913704.4, -877468.06, -144605.55, -0.031964827, -0.03580431, -749850.06, 351671.66, 0.0000001940375, 10.000821, 10.001248 
2.6354325e+3, 1.9759792e+2, -1122526.4, -1059815.0, -90846.59, -0.0390947, 0.1000305, -995065.06, 8482.206, 0.0, 9.999216, 10.000139 
2.6350927e+3, 2.0759119e+2, -1087025.1, -1046386.06, -98671.51, 0.08171677, 0.03339101, -965963.56, -60351.816, 0.0, 9.999096, 9.999571 
2.6347536e+3, 2.1758327e+2, -914918.44, -947065.5, -89211.055, 0.2350319, -0.17137852, -840344.44, -32655.924, 0.0, 9.99969, 9.99933 
2.6344126e+3, 2.2757901e+2, -587948.7, -561173.6, -30459.23, 0.14351068, -0.04137165, -541289.7, 168440.64, 0.0, 10.000563, 10.000863 
2.6340705e+3, 2.375759e+2, -434205.1, -550883.1, 32915.867, -0.06871433, 0.13275045, -425559.84, 186201.34, 0.0, 10.001373, 9.999902 
2.6337302e+3, 2.4756892e+2, -491329.28, -572420.7, 38411.17, -0.12957293, 0.067094035, -476023.63, 37803.234, 0.0, 10.000572, 9.999415 
2.6333907e+3, 2.575607e+2, -630591.25, -660563.5, 46676.92, -0.107409544, -0.13828555, -596553.75, -180649.4, 0.0, 9.999177, 9.998855 
2.633052e+3, 2.67555e+2, -301330.1, -368559.34, 68588.77, -0.16193393, -0.04465776, -258561.72, 59399.69, 0.0, 10.000451, 9.999556 
2.6327124e+3, 2.7755022e+2, 71825.74, -196382.44, 59497.953, -0.27001813, 0.08602095, 84431.96, 304443.06, 0.0, 10.002528, 9.999094 
2.6323742e+3, 2.8754416e+2, 87326.12, -12490.173, 15539.482, -0.16101177, 0.09313679, 89689.36, 211761.73, 0.0, 10.001455, 10.000175 
2.632036e+3, 2.9753754e+2, -237709.64, -256813.66, 70962.59, 0.055247977, -0.014746238, -175659.06, -151520.16, 0.0, 9.999102, 9.999 
2.6317003e+3, 3.0753216e+2, -174450.23, -310285.2, 110000.61, 0.31374913, 0.20733687, -113089.26, -113089.26, 0.0, 9.999743, 9.997972 
2.6313612e+3, 3.175286e+2, 109605.71, 256402.58, -45988.074, 0.19965757, 0.6079702, 269619.56, 269619.56, 0.0, 9.999734, 10.001874 
2.647807e+3, 1.2797602e+2, -1745231.9, -1857134.5, -103097.586, 0.22388454, 0.22873917, -1683881.6, 1975.8792, 0.10017183, 10.000289, 9.998819 
2.6474643e+3, 1.3796856e+2, -1396780.1, -1649210.4, 22980.46, 0.044517156, 0.1340285, -1394705.1, 193229.66, 0.06469282, 10.002215, 9.998671 
2.6471242e+3, 1.4796446e+2, -1238590.9, -1263078.5, 48472.32, -0.045751777, 0.3004727, -1200839.9, 289133.34, 0.032530583, 10.001445, 10.001024 
2.6467857e+3, 1.5796165e+2, -1501817.4, -1475190.0, -64875.21, -0.06275677, 0.45891768, -1422276.4, -30279.057, 0.011066901, 9.9994545, 9.99985 
2.646447e+3, 1.6795395e+2, -1424671.9, -1450269.8, -26331.648, -0.026919326, 0.316432, -1408193.4, -114122.58, 0.0019930317, 9.999612, 9.99925 
2.646109e+3, 1.7794435e+2, -1294598.9, -1378305.4, -5121.7524, 0.009606701, -0.015797831, -1294286.8, -98123.45, 0.00010503105, 9.999954, 9.998958 
2.6457682e+3, 1.879402e+2, -965922.94, -912285.5, -88255.805, -0.0043258206, 0.11371491, -846863.6, 251339.42, 0.00000008640195, 10.000556, 10.00111 
2.6454273e+3, 1.9793776e+2, -912854.44, -976165.75, -152844.88, -0.002372708, 0.31353775, -788421.56, 211803.95, 0.0, 10.000764, 9.999965 
2.6450872e+3, 2.0793048e+2, -916178.4, -911941.25, -125714.8, 0.13840859, 0.16423252, -788327.1, 113966.68, 0.0, 10.000076, 10.000017 
2.6447478e+3, 2.1792175e+2, -1091232.1, -1016570.9, -66044.98, 0.31029102, -0.1625036, -978036.4, -173660.17, 0.0, 9.998429, 9.999476 
2.644407e+3, 2.2791801e+2, -769371.8, -626311.44, -28568.084, 0.1717139, -0.0007698171, -620817.6, 85594.516, 0.0, 9.999218, 10.00106 
2.644066e+3, 2.3791589e+2, -675021.75, -678726.1, -93356.66, -0.04813597, 0.2314706, -583498.94, 24933.443, 0.0, 9.999802, 9.999779 
2.643725e+3, 2.4790801e+2, -490678.16, -595979.4, -127966.44, -0.14178216, 0.07679706, -404954.28, 105548.76, 0.0, 10.000711, 9.999178 
2.643384e+3, 2.5789818e+2, -476069.63, -638905.9, -82079.17, -0.20131008, -0.2802812, -441876.75, -29285.586, 0.0, 10.000513, 9.998359 
2.6430467e+3, 2.678928e+2, -372586.88, -405740.6, -5953.1973, -0.17145021, -0.14420442, -371550.3, -56903.555, 0.0, 10.000043, 9.999455 
2.64271e+3, 2.7788892e+2, -487079.78, -496523.28, -56796.805, -0.08618555, 0.055471946, -434808.78, -218117.19, 0.0, 9.998898, 9.998761 
2.64237e+3, 2.878837e+2, -307595.78, -156159.75, -205497.61, -0.042820223, 0.1265318, -12874.378, 105870.445, 0.0, 9.998639, 10.000497 
2.6420277e+3, 2.9787818e+2, -427395.06, -353271.6, -141695.03, -0.07729756, 0.06732619, -243871.55, -223071.58, 0.0, 9.997905, 9.99889 
2.641693e+3, 3.0787155e+2, -289758.72, -410631.06, 36902.383, 0.2033973, 0.16738361, -279383.03, -279383.03, 0.0, 9.99919, 9.997512 
2.6413512e+3, 3.178633e+2, -60529.89, -28254.549, -241886.44, -0.18661168, 0.11768132, 198031.94, 198031.94, 0.0, 9.999503, 10.000004 
2.6577982e+3, 1.2831223e+2, -1521664.1, -1400909.6, 29060.457, -0.15513691, 0.057194185, -1394280.0, 288285.94, 0.08643012, 10.000442, 10.002015 
2.65746e+3, 1.383147e+2, -1271080.4, -1445252.6, 72758.734, -0.08888207, 0.65475374, -1244686.0, 339853.28, 0.055199515, 10.002476, 10.0 
2.6571202e+3, 1.4830528e+2, -1417837.6, -1647147.9, -13158.3125, -0.06386105, 0.4174222, -1417085.1, 69543.164, 0.027235242, 10.001506, 9.998297 
2.6567802e+3, 1.5829295e+2, -1586216.9, -1668798.6, -52512.78, -0.019426059, -0.117392056, -1560705.5, -171959.81, 0.0089680515, 9.9995365, 9.998479 
2.6564425e+3, 1.6828837e+2, -1284636.5, -1174348.1, 26120.799, 0.07079287, -0.017521502, -1168474.5, 122315.97, 0.0015322798, 9.999736, 10.001058 
2.656105e+3, 1.7828567e+2, -1199930.6, -1228011.5, 39107.313, 0.11896149, 0.17988288, -1172419.6, 20398.207, 0.00007382683, 10.000155, 9.999886 
2.6557633e+3, 1.8828212e+2, -1033792.3, -1100725.3, -52268.85, -0.027263694, 0.42978123, -1005194.0, 89663.79, 0.000000036839044, 10.000739, 9.999739 
2.6554206e+3, 1.9827817e+2, -903201.1, -1024941.6, -127197.76, -0.2098352, 0.6100197, -823059.1, 173842.84, 0.0, 10.001028, 9.999506 
2.6550812e+3, 2.082707e+2, -819334.94, -745367.06, -164158.88, 0.09121852, 0.38653374, -614077.56, 284892.2, 0.0, 10.000231, 10.001076 
2.6547426e+3, 2.1826242e+2, -967362.1, -913361.94, -60124.047, 0.45428962, 0.01789249, -874453.75, -73410.53, 0.0, 9.99905, 9.999889 
2.6544008e+3, 2.2825766e+2, -822518.25, -810254.4, 13189.9, 0.13354707, 0.15207468, -801840.75, -98751.1, 0.0, 9.999496, 9.999676 
2.6540577e+3, 2.3825382e+2, -630117.56, -745217.0, -53956.188, -0.33371338, 0.351073, -608779.75, -3651.2495, 0.0, 10.000415, 9.999045 
2.653721e+3, 2.4824543e+2, -402242.6, -512343.56, -105730.79, -0.08941369, 0.15294798, -338089.22, 169112.44, 0.0, 10.001111, 9.99958 
2.653385e+3, 2.5823596e+2, -302104.72, -512008.1, -75734.45, 0.2998545, -0.19171989, -277632.44, 131651.4, 0.0, 10.001472, 9.998775 
2.6530445e+3, 2.6822996e+2, -375730.97, -463993.94, -77588.03, 0.1497192, -0.10368672, -330601.66, -19254.523, 0.0, 10.000229, 9.998973 
2.6527032e+3, 2.782251e+2, -545009.25, -546409.4, -128906.01, -0.086426735, 0.059583843, -416801.4, -203397.81, 0.0, 9.998526, 9.9986105 
2.6523617e+3, 2.8821984e+2, -415438.53, -309526.75, -246970.86, -0.11357992, 0.17983375, -109898.13, 5559.8413, 0.0, 9.998275, 9.999656 
2.6520196e+3, 2.982146e+2, -330137.9, -283724.7, -196914.11, -0.16295773, 0.2349318, -108654.44, -91143.95, 0.0, 9.998406, 9.999135 
2.651687e+3, 3.0820668e+2, -188325.36, -150515.27, 10468.136, 0.26226437, 0.0648136, -147810.53, -147810.53, 0.0, 9.998921, 9.999452 
2.651348e+3, 3.182025e+2, 188723.73, 219685.95, -88050.63, 0.012671667, 0.26280966, 293606.06, 293606.06, 0.0, 10.000542, 10.001246 
2.6677918e+3, 1.286537e+2, -1387885.1, -1573899.6, 199324.67, -0.41375366, 0.05193679, -1260936.3, 418270.34, 0.07399976, 10.002456, 9.999723 
2.6674598e+3, 1.386515e+2, -1188763.3, -1575813.6, -24520.465, 0.11648837, 0.39548934, -1187216.1, 394015.5, 0.04671147, 10.003755, 9.998448 
2.667118e+3, 1.486428e+2, -1285313.6, -1581843.9, -140251.95, 0.09246437, 0.26914325, -1229487.6, 253827.81, 0.022592494, 10.0023985, 9.998361 
2.6667747e+3, 1.5863231e+2, -1484967.4, -1614594.4, -39651.086, 0.0012767945, -0.0752217, -1473800.6, -88385.0, 0.0071954923, 10.000177, 9.99858 
2.6664367e+3, 1.686278e+2, -1218386.8, -1140344.5, 75718.88, 0.08146838, 0.026529089, -1094183.5, 193277.33, 0.001170623, 10.000167, 10.001096 
2.6661e+3, 1.7862506e+2, -1210887.0, -1243534.0, -7934.7827, 0.19863993, 0.21409129, -1209060.6, -19571.11, 0.00005271245, 10.000152, 9.999778 
2.665759e+3, 1.8862012e+2, -1148419.1, -1188070.4, -63411.453, 0.07862695, 0.34025028, -1101806.4, -10263.783, 0.000000014947995, 10.000105, 9.999449 
2.665417e+3, 1.9861472e+2, -1164480.6, -1195084.8, -90053.53, -0.05630739, 0.4102665, -1088438.4, -94837.555, 0.0, 9.999472, 9.999084 
2.665076e+3, 2.0860873e+2, -802978.2, -756007.7, -164923.61, 0.11050074, 0.35974672, -612905.56, 282752.78, 0.0, 10.000474, 10.00085 
2.664736e+3, 2.1860254e+2, -748603.5, -850588.75, -145175.97, 0.35216197, 0.21268126, -645725.0, 151990.42, 0.0, 10.000834, 9.999427 
2.664394e+3, 2.2859682e+2, -657082.1, -761207.9, 1895.246, 0.042085055, 0.27751923, -657047.6, 42722.418, 0.0, 10.000848, 9.999315 
2.6640522e+3, 2.3859105e+2, -754715.5, -885570.06, -6557.753, -0.360608, 0.3204145, -754387.7, -152562.03, 0.0, 9.99997, 9.998286 
2.6637167e+3, 2.4858247e+2, -544096.56, -643795.9, -95419.9, -0.0012369968, 0.16755836, -486289.6, 17613.018, 0.0, 10.00045, 9.998989 
2.6633826e+3, 2.585733e+2, -531387.94, -692236.3, -166987.39, 0.5145562, -0.09999235, -426466.97, -20482.896, 0.0, 10.000247, 9.998134 
2.6630402e+3, 2.6856747e+2, -465559.0, -490956.84, -175220.38, 0.29149503, 0.0045662704, -302578.0, 5468.4365, 0.0, 9.9995985, 9.999073 
2.662696e+3, 2.785625e+2, -624602.1, -619512.56, -130860.375, -0.08963024, 0.13952033, -491172.22, -281068.22, 0.0, 9.998196, 9.998266 
2.6623544e+3, 2.885566e+2, -118254.38, -190091.89, -120392.52, -0.18315233, 0.22386311, -28536.688, 83625.445, 0.0, 10.000495, 9.999369 
2.662013e+3, 2.9855058e+2, 189352.28, -83596.55, -35970.594, -0.28193048, 0.23265247, 194013.08, 208233.27, 0.0, 10.002275, 9.998634 
2.6616824e+3, 3.085424e+2, 147179.98, 83324.46, 10070.282, 0.37249446, 0.022751924, 148730.45, 148730.45, 0.0, 10.000985, 10.000029 
2.6613453e+3, 3.1853896e+2, -17908.016, 224025.16, -105809.38, 0.2570511, 0.18973412, 263771.2, 263771.2, 0.0, 9.998807, 10.002079 
2.6777866e+3, 1.2899554e+2, -1825203.0, -2208689.0, 140848.73, -0.68305475, 0.069462396, -1779030.6, -103190.875, 0.06278177, 10.001192, 9.995893 
2.6774606e+3, 1.3898389e+2, -1517766.6, -1979351.6, -27867.205, 0.37661088, -0.18951765, -1516090.3, 61876.11, 0.039146893, 10.002419, 9.996327 
2.677116e+3, 1.4897914e+2, -1298999.1, -1431285.1, -206476.25, 0.2573253, 0.0534476, -1148330.4, 331683.63, 0.018543635, 10.001666, 9.999729 
2.676769e+3, 1.5897554e+2, -1452976.3, -1531463.3, -55134.207, -0.07739105, 0.2755914, -1424545.3, -42497.473, 0.005710664, 10.000111, 9.999177 
2.676431e+3, 1.6896933e+2, -1283003.9, -1262787.9, 97056.516, 0.00042439048, 0.24309847, -1175314.4, 108795.72, 0.0008890518, 10.000125, 10.000262 
2.6760948e+3, 1.7896256e+2, -1219883.0, -1278371.6, 14597.722, 0.14677162, 0.10330541, -1216442.0, -30263.766, 0.000037964888, 10.00022, 9.999493 
2.6757553e+3, 1.8895493e+2, -1080716.8, -1084937.1, -63232.133, 0.25114003, -0.06821641, -1019559.56, 68691.77, 0.0000000057994387, 10.000269, 10.000078 
2.6754147e+3, 1.9894777e+2, -1094731.6, -1155683.0, -61613.258, 0.29415378, -0.2179499, -1056469.0, -66148.37, 0.0, 9.999898, 9.999151 
2.675071e+3, 2.0894483e+2, -855505.44, -922523.8, -109409.37, 0.10520035, 0.11973523, -774588.8, 117769.336, 0.0, 10.000708, 9.9996 
2.6747274e+3, 2.1894217e+2, -640401.6, -831713.0, -101417.88, -0.11418617, 0.44472298, -596645.7, 197747.16, 0.0, 10.001652, 9.999176 
2.6743883e+3, 2.2893505e+2, -529509.4, -605118.1, -9088.093, -0.11211165, 0.31714866, -528432.3, 168024.33, 0.0, 10.001277, 10.000199 
2.67405e+3, 2.3892696e+2, -663625.1, -856533.8, 4376.7534, -0.081632756, 0.078140736, -663525.9, -64998.043, 0.0, 10.000603, 9.998194 
2.6737124e+3, 2.4891818e+2, -643200.7, -923768.6, -80646.46, 0.04204349, 0.053309787, -621671.6, -121056.945, 0.0, 10.000722, 9.996957 
2.6733744e+3, 2.589097e+2, -464635.9, -700869.25, -177599.42, 0.17491274, 0.036798645, -369461.44, 33239.07, 0.0, 10.000797, 9.997833 
2.6730323e+3, 2.6890555e+2, -315071.78, -259261.58, -213587.17, 0.0965693, 0.21358164, -71764.31, 232980.42, 0.0, 9.999877, 10.0005665 
2.6726896e+3, 2.7890193e+2, -379984.38, -301048.56, -78619.93, -0.02167528, 0.35551396, -252545.97, -45763.348, 0.0, 9.998948, 10.000097 
2.6723507e+3, 2.8889453e+2, 160864.8, 110982.84, 66142.15, -0.15135162, 0.12619507, 206612.11, 315457.7, 0.0, 10.00167, 10.000891 
2.6720113e+3, 2.9888663e+2, 531580.6, 42045.156, 74296.336, -0.3136115, -0.13880585, 542608.06, 553520.75, 0.0, 10.004708, 9.99836 
2.671678e+3, 3.088808e+2, 98007.01, -359145.25, -92220.15, 0.27626225, 0.16446742, 115909.28, 115909.28, 0.0, 10.002396, 9.996345 
2.6713347e+3, 3.188731e+2, -82546.06, 94096.164, -242592.7, -0.10873503, 0.23698081, 263945.22, 263945.22, 0.0, 9.998632, 10.00131 
2.687784e+3, 1.2933043e+2, -1881388.9, -1883603.9, -114545.47, -0.3726032, 0.10758912, -1767945.5, -95378.98, 0.052677374, 9.9991665, 9.999175 
2.6874566e+3, 1.3932279e+2, -1802781.9, -1868010.9, -80981.77, 0.49354243, -0.052067287, -1748093.6, -173450.53, 0.032425035, 9.999355, 9.99857 
2.6871112e+3, 1.4931685e+2, -1535516.4, -1487211.1, -226718.94, 0.29008794, -0.042645045, -1283362.0, 193337.1, 0.015032841, 9.999764, 10.000234 
2.6867634e+3, 1.5931173e+2, -1487479.6, -1525227.6, -121464.76, -0.033692732, -0.024643354, -1383431.3, -4684.0127, 0.0044764117, 9.999794, 9.99936 
2.6864251e+3, 1.6930726e+2, -1414580.4, -1365060.9, 48525.246, 0.0043492834, 0.13386779, -1335343.6, -54547.973, 0.00066900725, 9.999408, 9.999914 
2.6860884e+3, 1.7930219e+2, -1455223.6, -1410529.8, -9641.024, 0.12820132, 0.19495152, -1408538.8, -225688.3, 0.000027210404, 9.998681, 9.999347 
2.68575e+3, 1.8929376e+2, -1094716.3, -1062315.9, -62947.93, 0.29945093, -0.072899975, -1013516.94, 71413.15, 0.000000001728097, 10.000051, 10.000345 
2.685411e+3, 1.9928564e+2, -962604.9, -1109331.5, -91897.195, 0.4485846, -0.34099644, -918378.75, 68628.11, 0.0, 10.0008955, 9.998996 
2.685066e+3, 2.0928296e+2, -815897.25, -967010.3, -96813.94, 0.07819897, 0.05853723, -768646.06, 120397.734, 0.0, 10.001249, 9.999042 
2.6847208e+3, 2.1928099e+2, -832262.56, -973595.1, -54401.527, -0.3222801, 0.50787115, -813747.9, -22672.947, 0.0, 10.000574, 9.998732 
2.6843837e+3, 2.2927347e+2, -530398.9, -573584.06, -5510.063, -0.13783602, 0.33074552, -529706.94, 163434.4, 0.0, 10.001164, 10.000461 
2.6840475e+3, 2.3926474e+2, -660401.3, -905821.2, -22449.873, 0.14531247, 0.012897801, -658364.6, -63147.91, 0.0, 10.000903, 9.9977045 
2.6837075e+3, 2.4925612e+2, -617642.8, -974065.25, 14774.187, 0.034962956, 0.048589263, -617031.44, -119725.664, 0.0, 10.001238, 9.996306 
2.6833665e+3, 2.5924817e+2, -542010.7, -787385.8, -13099.371, -0.1265223, 0.1422914, -541313.4, -141922.3, 0.0, 10.000563, 9.997321 
2.6830247e+3, 2.6924425e+2, -316230.75, -194904.98, -130933.23, -0.06894666, 0.32874915, -111264.39, 190166.78, 0.0, 9.999659, 10.001065 
2.6826835e+3, 2.7924073e+2, -497680.13, -307637.1, -16167.011, 0.025396204, 0.41395792, -306271.6, -102806.9, 0.0, 9.997978, 10.00051 
2.682346e+3, 2.8923294e+2, -104834.086, 91168.57, 148484.2, -0.12797529, 0.06424126, 171076.83, 276601.88, 0.0, 9.9993925, 10.001845 
2.6820087e+3, 2.9922467e+2, -178070.38, -399506.22, 25264.69, -0.3212068, -0.30833954, -175224.39, -167633.94, 0.0, 10.000325, 9.997425 
2.681672e+3, 3.092192e+2, -468671.97, -917949.5, -142097.34, 0.115007974, 0.23929743, -427502.13, -427502.13, 0.0, 9.999833, 9.993688 
2.681325e+3, 3.1920642e+2, -262694.3, -103437.71, -71464.52, -0.42124107, 0.02747375, -76071.414, -76071.414, 0.0, 9.998045, 10.000185 
2.697782e+3, 1.2966344e+2, -1448541.0, -1052683.6, -33488.277, -0.008090485, 0.17960536, -1049870.6, 619448.5, 0.04361894, 9.999529, 10.004823 
2.6974496e+3, 1.3966447e+2, -1761119.0, -1478677.1, -50617.51, 0.42624974, 0.35814866, -1469879.8, 101414.34, 0.026486203, 9.998093, 10.00184 
2.6971045e+3, 1.4965469e+2, -1585825.5, -1492401.5, -191127.17, 0.22554854, -0.12237275, -1342360.9, 131022.195, 0.012009438, 9.999351, 10.00039 
2.6967582e+3, 1.5964432e+2, -1411188.5, -1485949.4, -93672.5, -0.012115464, -0.63618505, -1347713.5, 27767.719, 0.003455713, 10.000314, 9.999369 
2.696419e+3, 1.6964345e+2, -1353320.3, -1343448.1, 47093.637, 0.00884665, -0.12037286, -1301032.6, -23533.51, 0.00049606664, 9.999836, 9.999852 
2.6960814e+3, 1.7964324e+2, -1388807.0, -1383363.8, 30155.775, 0.052645452, 0.43795484, -1355807.0, -176295.64, 0.00001910138, 9.999135, 9.999311 
2.695744e+3, 1.8963543e+2, -1062642.0, -1039170.3, 4935.8403, 0.21093832, 0.22282062, -1038174.56, 43413.996, 0.0000000002885943, 10.000227, 10.000405 
2.6954055e+3, 1.9962694e+2, -891586.7, -1061377.8, -44480.484, 0.32248372, -0.08175685, -880639.9, 103031.17, 0.0, 10.001285, 9.999132 
2.6950607e+3, 2.0962235e+2, -761661.25, -925460.7, -84113.47, -0.0023438768, 0.11192368, -726161.5, 159560.28, 0.0, 10.001492, 9.999233 
2.6947162e+3, 2.1961844e+2, -718113.7, -905545.3, -24038.521, -0.34117118, 0.35835898, -715079.8, 72686.414, 0.0, 10.001249, 9.998874 
2.69438e+3, 2.2961193e+2, -507593.25, -615876.94, 24827.701, -0.081018806, 0.312253, -502172.1, 187654.22, 0.0, 10.001509, 10.000019 
2.6940444e+3, 2.3960495e+2, -471846.56, -713451.75, 2728.5083, 0.2128284, 0.1949363, -471815.75, 120073.79, 0.0, 10.001716, 9.998633 
2.693703e+3, 2.4959743e+2, -420651.7, -672027.75, 43166.54, -0.031700775, 0.18254296, -413445.66, 80517.95, 0.0, 10.001655, 9.998202 
2.6933601e+3, 2.5958982e+2, -360643.63, -608430.5, 12390.6455, -0.32613468, 0.16907786, -360025.56, 36014.28, 0.0, 10.001336, 9.998188 
2.6930177e+3, 2.6958328e+2, -346278.03, -351752.47, -142598.83, -0.18124609, 0.16310513, -206390.14, 91713.87, 0.0, 10.000007, 9.9998455 
2.6926762e+3, 2.7957743e+2, -454858.25, -369465.56, 8603.1455, 0.018537631, 0.14966854, -368607.44, -168447.28, 0.0, 9.998549, 9.999819 
2.6923397e+3, 2.895729e+2, -203349.5, -27772.168, 188937.86, -0.095724225, 0.18668905, 92776.31, 194970.75, 0.0, 9.998933, 10.001269 
2.6920035e+3, 2.995676e+2, -251211.53, -362822.03, 8769.317, -0.26062196, 0.15170653, -250526.72, -246289.8, 0.0, 9.999434, 9.998102 
2.6916635e+3, 3.0955476e+2, -444932.4, -677288.94, -121733.43, -0.0497109, -0.19941801, -392835.84, -392835.84, 0.0, 9.998931, 9.995805 
2.6913196e+3, 3.195485e+2, -105980.54, -85429.22, 212695.02, -0.27552333, 0.109622315, 117238.22, 117238.22, 0.0, 9.999233, 9.9997635 
2.707778e+3, 1.3000108e+2, -1157306.6, -923901.5, -34158.742, 0.024536118, 0.05743311, -919005.06, 747007.2, 0.035549063, 10.001615, 10.004715 
2.707439e+3, 1.4000323e+2, -2183317.8, -1674132.6, -95386.836, 0.3094289, 0.38174307, -1656850.1, -88870.62, 0.021269565, 9.995108, 10.001967 
2.707097e+3, 1.4999557e+2, -1664562.6, -1481220.6, -64998.78, 0.17236531, 0.0734538, -1460515.4, 9534.916, 0.0094155185, 9.998543, 10.000895 
2.7067545e+3, 1.5998667e+2, -1072891.5, -1313317.9, -39775.11, 0.034745935, -0.32062125, -1066482.1, 305653.06, 0.0026134893, 10.002568, 9.999489 
2.7064142e+3, 1.6998366e+2, -1047405.6, -1220742.1, -4694.758, 0.0028167092, -0.0140260765, -1047278.56, 226892.44, 0.0003600524, 10.002021, 9.999636 
2.706075e+3, 1.7998157e+2, -1244563.9, -1341681.3, -3260.263, -0.0021656563, 0.37634796, -1244454.5, -68255.41, 0.000012952271, 10.00027, 9.999038 
2.705737e+3, 1.8997549e+2, -1134697.1, -1100281.0, -6481.3955, 0.10404897, 0.35303995, -1099100.9, -20837.375, 0.000000000007316074, 9.999874, 10.000142 
2.7053988e+3, 1.999687e+2, -1150756.5, -1146265.1, -53251.215, 0.19491388, 0.22505307, -1095212.3, -114879.484, 0.0, 9.999349, 9.999496 
2.705056e+3, 2.099632e+2, -756229.6, -768685.44, -13978.405, -0.01196698, 0.21222958, -747154.5, 135228.69, 0.0, 10.00089, 10.0006 
2.7047133e+3, 2.199579e+2, -687758.7, -908066.6, 96055.82, -0.21795088, 0.22879632, -651759.94, 132672.44, 0.0, 10.001575, 9.998698 
2.704376e+3, 2.2995113e+2, -678859.44, -817675.8, 87776.38, -0.044782765, 0.2409074, -636365.0, 50135.203, 0.0, 10.00091, 9.998881 
2.704039e+3, 2.3994455e+2, -822093.1, -905096.94, 28695.092, 0.15140536, 0.24806531, -813138.94, -224573.34, 0.0, 9.999453, 9.998399 
2.7036977e+3, 2.4993835e+2, -479369.9, -525791.06, 47276.855, -0.08368311, 0.25464252, -449913.28, 40710.79, 0.0, 10.00052, 9.999734 
2.7033556e+3, 2.5993177e+2, -472264.6, -683860.3, -38069.41, -0.33635497, 0.2144063, -465623.72, -72937.11, 0.0, 10.000747, 9.997934 
2.7030122e+3, 2.6992303e+2, -260533.52, -464915.63, -221408.25, -0.19657686, 0.09354079, -118870.87, 175901.63, 0.0, 10.001335, 9.998402 
2.7026698e+3, 2.7991512e+2, -229002.98, -397970.4, -48623.62, -0.0065639685, -0.002372757, -216009.75, -19159.791, 0.0, 10.000781, 9.998536 
2.7023342e+3, 2.8991267e+2, -72335.98, -39079.285, 143593.39, -0.071149275, 0.31097212, 88845.35, 187714.5, 0.0, 10.000229, 10.000533 
2.7019978e+3, 2.9990897e+2, -296291.63, -371021.7, -38491.004, -0.21645741, 0.48404422, -280012.4, -279111.84, 0.0, 9.999135, 9.998188 
2.7016562e+3, 3.0989113e+2, 17071.842, -222185.02, -192311.53, -0.17993297, -0.53379416, 123926.72, 123926.72, 0.0, 10.001163, 9.997836 
2.7013168e+3, 3.198936e+2, 167125.28, -8531.481, 245071.86, -0.08882324, 0.47044438, 339631.38, 339631.38, 0.0, 10.001462, 9.999214 
2.7177724e+3, 1.3034067e+2, -1437026.3, -1296923.0, -282096.84, -0.11679508, -0.06602379, -1076310.1, 586371.6, 0.028413368, 10.000743, 10.002448 
2.717427e+3, 1.4034072e+2, -1977025.3, -1683949.3, -93434.84, 0.09847466, 0.24313954, -1656695.9, -92015.54, 0.016712883, 9.99704, 10.000947 
2.717089e+3, 1.5033811e+2, -1501358.6, -1327052.8, 139586.92, 0.06791776, 0.42305177, -1249645.3, 217061.98, 0.007198081, 9.999392, 10.001518 
2.7167517e+3, 1.6033404e+2, -1120618.9, -1319254.1, 32921.79, 0.010176626, 0.4614471, -1115304.6, 253443.75, 0.0019202423, 10.002188, 9.99962 
2.7164105e+3, 1.7032564e+2, -1086302.9, -1269601.3, -45459.043, -0.053749517, 0.2517681, -1075648.1, 195181.25, 0.00025324232, 10.001906, 9.9993515 
2.716069e+3, 1.8031779e+2, -1217809.3, -1357006.9, -24093.68, -0.12843807, 0.10446032, -1213756.9, -40850.06, 0.000008369746, 10.000557, 9.9988 
2.7157298e+3, 1.9031441e+2, -1143862.1, -1148672.9, -3606.775, -0.06066646, 0.38657725, -1141932.1, -66981.91, 0.0, 10.000006, 9.999749 
2.7153912e+3, 2.0031117e+2, -1009957.9, -924040.7, -7211.502, 0.001024262, 0.6145803, -923439.6, 53548.996, 0.0, 9.999639, 10.000886 
2.715052e+3, 2.1030551e+2, -541670.44, -379805.3, 69944.15, 0.030583646, 0.36339933, -353769.34, 525258.25, 0.0, 10.001133, 10.003165 
2.714712e+3, 2.2029926e+2, -543950.9, -784252.6, 119257.33, -0.0051536476, 0.0981031, -494813.4, 286260.56, 0.0, 10.002293, 9.999212 
2.7143708e+3, 2.3029068e+2, -769632.7, -1069695.4, 55414.047, -0.08551081, 0.069389865, -759726.2, -76560.664, 0.0, 10.00115, 9.997065 
2.7140304e+3, 2.4028273e+2, -738158.4, -868458.6, 47731.117, -0.14810021, 0.094669804, -722544.7, -137293.05, 0.0, 9.999987, 9.998398 
2.7136925e+3, 2.502786e+2, -379218.16, -360253.56, 102550.36, -0.099568896, 0.22833364, -266748.03, 220542.52, 0.0, 10.000668, 10.000815 
2.7133536e+3, 2.60274e+2, -381512.2, -650792.2, -8281.203, -0.06903994, 0.33043563, -381257.75, 8075.875, 0.0, 10.00137, 9.997858 
2.7130097e+3, 2.7026394e+2, -285104.7, -687923.4, -198258.72, -0.061856948, 0.22093451, -203897.25, 87539.48, 0.0, 10.0020275, 9.996561 
2.7126664e+3, 2.8025422e+2, -55997.492, -390773.28, -60536.2, -0.0381172, 0.11028023, -45387.246, 148148.81, 0.0, 10.002263, 9.997862 
2.71233e+3, 2.9024974e+2, 1409.8588, -60112.094, 78466.07, -0.046626218, 0.2827197, 54929.14, 150505.77, 0.0, 10.000987, 10.000024 
2.7119932e+3, 3.0024487e+2, -136842.08, -249940.63, -24441.973, -0.11470113, 0.3851737, -131785.9, -131785.9, 0.0, 9.999971, 9.998627 
2.711655e+3, 3.1023276e+2, 322437.1, 16358.136, -104362.59, 0.02333773, -0.12935045, 354634.3, 354634.3, 0.0, 10.002796, 9.998734 
2.7113146e+3, 3.2023296e+2, 524666.4, 313930.7, -25060.518, -0.037478503, 0.5765688, 527605.56, 527605.56, 0.0, 10.003186, 10.000628 
2.7277648e+3, 1.3068669e+2, -1691735.1, -1850640.4, -119616.77, -0.34702107, 0.11979853, -1627588.0, 31697.012, 0.022190303, 10.000727, 9.998649 
2.7274233e+3, 1.406808e+2, -1118365.8, -1515400.5, -24814.324, 0.19517326, 0.19945125, -1116820.9, 444532.03, 0.012784265, 10.003948, 9.998825 
2.7270854e+3, 1.5067752e+2, -1118941.9, -1242961.9, 138142.89, 0.15794685, 0.4219629, -1029529.6, 433857.97, 0.00532732, 10.002418, 10.000676 
2.7267483e+3, 1.606738e+2, -1384310.0, -1459845.4, -17271.846, 0.11624618, 0.56705225, -1380548.0, -15123.187, 0.0013580795, 10.000439, 9.999514 
2.7264073e+3, 1.7066526e+2, -1149473.0, -1236944.9, -69598.625, 0.0579564, 0.29865864, -1111009.3, 156495.14, 0.00016970174, 10.001259, 9.999888 
2.7260658e+3, 1.8065698e+2, -1058915.6, -1292640.5, -29818.893, 0.007432974, 0.0771694, -1055171.4, 114412.34, 0.0000049540654, 10.00174, 9.998676 
2.7257255e+3, 1.9065315e+2, -965412.25, -1115525.5, -17351.893, -0.00229643, 0.34872973, -963432.6, 108198.73, 0.0, 10.001464, 9.999267 
2.725386e+3, 2.0064984e+2, -904702.4, -888868.75, -21657.146, 0.035051342, 0.6040944, -873726.75, 99943.85, 0.0, 10.000463, 10.000712 
2.7250475e+3, 2.1064435e+2, -628044.44, -386281.06, -70613.875, 0.07781038, 0.33500418, -367167.4, 508539.1, 0.0, 10.000443, 10.003412 
2.7247086e+3, 2.2063825e+2, -915486.75, -980941.56, -155823.05, 0.102871336, 0.048583407, -788991.4, -11241.569, 0.0, 9.999874, 9.99902 
2.7243665e+3, 2.3063013e+2, -874534.25, -1107410.5, -114690.664, -0.034852687, 0.03885871, -827534.94, -147696.95, 0.0, 10.000437, 9.9971285 
2.724025e+3, 2.4062258e+2, -772871.7, -892864.5, 29887.244, -0.14947972, 0.09340232, -765839.6, -183917.6, 0.0, 9.999874, 9.99827 
2.723688e+3, 2.506189e+2, -465724.6, -371632.88, 53316.688, -0.07085663, 0.24815707, -347573.3, 136384.0, 0.0, 10.000018, 10.001017 
2.72335e+3, 2.6061484e+2, -696074.8, -865656.3, -99951.4, 0.033166323, 0.39246085, -649794.0, -263797.78, 0.0, 9.99953, 9.997279 
2.7230057e+3, 2.706048e+2, -582674.25, -878459.7, -157671.66, -0.014257112, 0.31129345, -514389.72, -226289.72, 0.0, 10.000225, 9.996109 
2.722662e+3, 2.805947e+2, -449674.75, -683719.4, 74553.25, -0.05550561, 0.22205502, -427944.0, -237739.83, 0.0, 10.000041, 9.996934 
2.7223253e+3, 2.9058817e+2, -59913.99, -164076.63, 177159.34, -0.05882048, 0.25514722, 72660.85, 164927.53, 0.0, 10.000907, 9.999337 
2.721988e+3, 3.0058208e+2, -70152.44, -260920.94, 113224.24, -0.11227231, 0.30242094, -17489.79, -17489.79, 0.0, 10.000678, 9.998199 
2.721654e+3, 3.1057456e+2, 125483.6, -11038.383, 71728.98, 0.22664794, 0.20312275, 156240.83, 156240.83, 0.0, 10.001194, 9.999273 
2.7213094e+3, 3.2056916e+2, 190149.53, 229710.89, -162290.17, -0.23427859, 0.2778857, 373421.4, 373421.4, 0.0, 10.000673, 10.001208 
2.737757e+3, 1.3103399e+2, -2081617.4, -2493109.0, -90182.94, -0.65108865, 0.40481067, -2062720.5, -406844.6, 0.016853144, 10.000096, 9.994493 
2.7374235e+3, 1.4102176e+2, -1347030.6, -1906130.6, 4838.5054, 0.32228878, 0.18518761, -1346988.8, 211026.98, 0.009467199, 10.003606, 9.996279 
2.7370834e+3, 1.5101531e+2, -1248205.5, -1461262.4, 84457.82, 0.2707251, 0.25352362, -1218787.5, 241292.36, 0.0037924992, 10.002241, 9.9992285 
2.7367443e+3, 1.6100952e+2, -1383511.1, -1456172.0, -277.71436, 0.17801684, 0.29973677, -1383510.1, -21375.113, 0.0009170214, 10.000461, 9.999503 
2.7364045e+3, 1.7100394e+2, -1067927.3, -1075241.4, 1474.1165, 0.2151679, 0.24724844, -1067641.4, 196544.11, 0.0001065257, 10.001319, 10.000953 
2.7360645e+3, 1.809982e+2, -1016526.25, -1242080.8, -1824.7482, 0.21387127, 0.20825507, -1016511.44, 149727.61, 0.0000025959862, 10.001901, 9.998939 
2.7357233e+3, 1.909913e+2, -975081.3, -1176099.9, -14864.111, 0.18717182, 0.20909937, -973988.2, 94323.984, 0.0, 10.001612, 9.998798 
2.7353826e+3, 2.0098493e+2, -913718.8, -1005403.56, -14728.053, 0.14003468, 0.22699569, -911411.06, 58967.445, 0.0, 10.000854, 9.999719 
2.7350423e+3, 2.1097963e+2, -728005.1, -647689.25, -55830.53, 0.03913395, 0.14696665, -619074.3, 253347.8, 0.0, 10.000639, 10.001532 
2.7347025e+3, 2.2097468e+2, -754661.5, -822072.3, -138459.77, -0.029192874, 0.10082529, -645863.7, 128599.49, 0.0, 10.000586, 9.999765 
2.734363e+3, 2.3096973e+2, -651740.8, -725221.0, -91737.29, 0.11713154, 0.2020355, -589660.0, 86856.11, 0.0, 10.000743, 9.999618 
2.7340233e+3, 2.409646e+2, -600625.25, -729722.06, 39680.508, 0.19154651, 0.3116425, -589404.06, -10832.442, 0.0, 10.00066, 9.99901 
2.7336827e+3, 2.5095868e+2, -494512.1, -521602.5, 44564.633, -0.042400867, 0.32495984, -461479.63, 19152.193, 0.0, 10.000348, 9.999851 
2.7333418e+3, 2.609528e+2, -515841.25, -620756.2, -108881.54, -0.21945485, 0.34017402, -447439.38, -64748.613, 0.0, 10.000032, 9.9987135 
2.732999e+3, 2.709456e+2, -394377.25, -486505.5, -126268.44, -0.11635842, 0.31094334, -306032.97, -21273.193, 0.0, 10.000169, 9.99885 
2.732657e+3, 2.8093812e+2, -318436.8, -506730.16, 173988.33, -0.015882464, 0.27642572, -214756.44, -27924.121, 0.0, 10.000342, 9.998033 
2.7323198e+3, 2.9093084e+2, -40524.418, -242274.28, 281681.16, -0.1511805, 0.28513497, 157799.64, 246702.28, 0.0, 10.001319, 9.998656 
2.7319828e+3, 3.0092356e+2, 110718.74, -162925.28, 177789.61, -0.2637227, 0.27152172, 198238.89, 198238.89, 0.0, 10.001811, 9.998334 
2.7316496e+3, 3.1091407e+2, 40399.332, -54667.074, 104529.914, 0.31587315, -0.014250944, 107696.04, 107696.04, 0.0, 10.000556, 9.9993105 
2.731301e+3, 3.209096e+2, 78034.98, 18368.773, -33876.402, -0.551797, 0.2186664, 93341.93, 93341.93, 0.0, 10.000442, 9.999906 
2.747758e+3, 1.3136977e+2, -1876267.8, -2030503.8, -153564.39, 0.0030910315, 0.23268543, -1781545.1, -128955.445, 0.012356598, 9.999888, 9.997757 
2.7474192e+3, 1.413614e+2, -1210128.3, -1698424.6, -19162.238, 0.12617971, 0.14159265, -1209377.5, 345302.66, 0.0067446986, 10.003923, 9.997533 
2.7470782e+3, 1.5135482e+2, -1202330.5, -1457585.9, 25387.152, 0.084704295, 0.17347145, -1199830.1, 256916.9, 0.0025850064, 10.002586, 9.999088 
2.7467382e+3, 1.6134873e+2, -1332107.5, -1450714.6, 47069.38, 0.09653129, 0.20840816, -1315698.3, 43109.42, 0.0005889778, 10.000861, 9.999342 
2.7463996e+3, 1.7134376e+2, -1069954.1, -1112928.3, 35719.875, 0.16147506, 0.23388779, -1049756.6, 211098.66, 0.00006228534, 10.001403, 10.000661 
2.7460602e+3, 1.8133853e+2, -1062258.4, -1265797.8, -26971.77, 0.20958325, 0.26568666, -1058744.9, 104160.516, 0.0000011486238, 10.001582, 9.998929 
2.7457196e+3, 1.9133106e+2, -903523.7, -1087249.8, -4588.4785, 0.19150041, 0.15998566, -903409.1, 161570.17, 0.0, 10.00188, 9.999263 
2.7453783e+3, 2.0132394e+2, -881080.56, -1098085.4, 60203.918, 0.15297347, 0.10316703, -865497.2, 101552.92, 0.0, 10.001589, 9.998724 
2.7450377e+3, 2.113183e+2, -694053.6, -835863.5, 22977.117, 0.0179085, 0.1525651, -690423.6, 178681.61, 0.0, 10.001759, 9.999702 
2.7446976e+3, 2.2131304e+2, -737846.2, -871257.1, -86047.24, -0.039894097, 0.22929645, -695676.75, 75479.83, 0.0, 10.000986, 9.999227 
2.7443585e+3, 2.3130833e+2, -649997.94, -639573.0, -175432.92, 0.16367085, 0.29311115, -469275.13, 203929.19, 0.0, 10.000428, 10.000332 
2.7440187e+3, 2.4130362e+2, -812758.4, -850259.1, -121854.88, 0.29003966, 0.38830566, -708219.7, -132967.48, 0.0, 9.99933, 9.998816 
2.7436772e+3, 2.5129732e+2, -649946.94, -626851.25, -48719.766, -0.028893871, 0.35773778, -588329.44, -111012.45, 0.0, 9.999439, 9.999547 
2.743335e+3, 2.6129115e+2, -606662.94, -599726.56, -137610.33, -0.29835042, 0.3403588, -465540.72, -86161.82, 0.0, 9.999205, 9.999241 
2.7429935e+3, 2.712857e+2, -192809.47, -186370.08, -216636.44, -0.13636266, 0.3103837, 27070.588, 308496.8, 0.0, 10.000737, 10.000604 
2.7426526e+3, 2.8127977e+2, -206196.22, -447972.06, 23229.586, 0.0008627784, 0.2949221, -203984.58, -20505.49, 0.0, 10.001194, 9.997998 
2.742315e+3, 2.912721e+2, -169996.53, -351858.78, 137492.8, -0.22309214, 0.27308166, -96086.1, -10530.949, 0.0, 10.000733, 9.998144 
2.7419773e+3, 3.0126435e+2, -246234.36, -354356.6, 29431.53, -0.37453252, 0.24061733, -238742.1, -238742.1, 0.0, 9.999545, 9.998091 
2.7416444e+3, 3.1125528e+2, -96641.0, -66929.66, -6074.848, 0.31517988, -0.06283284, -65735.57, -65735.57, 0.0, 9.999487, 9.999684 
2.7412933e+3, 3.2125142e+2, -209543.27, -281816.66, 69489.0, -0.78649455, 0.23779453, -167356.39, -167356.39, 0.0, 9.999278, 9.998371 
2.7577606e+3, 1.3170196e+2, -1434388.9, -1178121.8, 90456.15, 0.7521485, -0.07094786, -1149409.8, 499930.6, 0.008683989, 10.000227, 10.003459 
2.7574134e+3, 1.4170061e+2, -1240178.4, -1461219.9, 13279.597, -0.32006654, 0.07240142, -1239383.5, 311960.8, 0.0045924764, 10.002661, 9.99976 
2.757072e+3, 1.5169539e+2, -1249128.4, -1410753.1, -39247.383, -0.25991592, 0.1512026, -1240102.0, 213298.4, 0.001678222, 10.002001, 9.999682 
2.7567318e+3, 1.6168988e+2, -1354928.0, -1505485.5, 36894.953, -0.1285445, 0.21948835, -1346372.9, 9086.998, 0.0003582281, 10.000909, 9.998939 
2.7563933e+3, 1.7168401e+2, -1132810.8, -1260779.5, 64365.383, -0.055604514, 0.2484285, -1106037.8, 151483.44, 0.000033741435, 10.001481, 9.999602 
2.7560544e+3, 1.816783e+2, -989237.3, -1160739.5, -14183.599, -0.021899527, 0.28472444, -988072.25, 171506.66, 0.00000040337267, 10.001773, 9.99955 
2.7557138e+3, 1.916723e+2, -797106.7, -887889.3, 13197.035, -0.0032832269, 0.2075317, -795227.2, 266406.4, 0.0, 10.001963, 10.000588 
2.7553734e+3, 2.0166638e+2, -861998.9, -1153646.9, 68760.586, -0.004054731, 0.2081333, -846600.44, 117089.47, 0.0, 10.001963, 9.998176 
2.7550337e+3, 2.1166006e+2, -770514.4, -1063340.5, 44630.438, 0.0013603157, 0.34241977, -763863.2, 101895.336, 0.0, 10.001992, 9.998065 
2.754694e+3, 2.2165339e+2, -732929.44, -1004764.5, -95034.87, -0.0034494333, 0.43145323, -703000.06, 64829.414, 0.0, 10.001593, 9.998009 
2.7543515e+3, 2.3164517e+2, -708558.56, -832043.75, -189904.86, 0.0046634898, 0.3012777, -570611.4, 99298.8, 0.0, 10.000707, 9.998894 
2.7540103e+3, 2.4163814e+2, -668665.7, -697328.6, -131529.66, 0.008464885, 0.24263796, -550689.06, 21290.125, 0.0, 9.999891, 9.999612 
2.7536714e+3, 2.516342e+2, -525006.5, -419863.1, -43430.586, -0.0033791673, 0.3385531, -404243.88, 69774.15, 0.0, 9.999624, 10.000906 
2.7533317e+3, 2.6162982e+2, -471453.3, -457804.84, -92261.016, -0.030117653, 0.40244243, -372116.03, 3943.6128, 0.0, 9.999739, 9.999967 
2.75299e+3, 2.7162334e+2, -111998.17, -173465.55, -158770.58, -0.0017709959, 0.2881853, 18985.975, 297101.75, 0.0, 10.001359, 10.000417 
2.7526492e+3, 2.816165e+2, -35640.207, -341231.22, -19739.246, -0.0038250466, 0.19851689, -34370.453, 145807.92, 0.0, 10.002235, 9.998224 
2.75231e+3, 2.9160845e+2, -162722.55, -351913.88, 31119.6, -0.2094002, 0.15005152, -157735.23, -75471.305, 0.0, 10.000798, 9.99812 
2.7519715e+3, 3.016024e+2, -136773.17, -118729.734, -35331.863, -0.35219204, 0.24280982, -91285.96, -91285.96, 0.0, 9.999435, 9.999788 
2.7516368e+3, 3.1160235e+2, 90509.48, 239718.03, -21988.879, 0.17988744, 0.6528469, 242891.05, 242891.05, 0.0, 9.999727, 10.001742 
2.7512914e+3, 3.2159573e+2, -209054.44, -295622.9, 53605.555, -0.3618018, 0.5554371, -183439.61, -183439.61, 0.0, 9.999202, 9.99834 
2.7677557e+3, 1.3204163e+2, -1181526.6, -1036129.06, 188934.25, 0.6738633, -0.049096968, -906389.56, 739624.0, 0.00582172, 10.00183, 10.003714 
2.7674088e+3, 1.4204176e+2, -1672117.1, -1667645.4, -51197.37, -0.27622858, 0.26441035, -1618635.1, -70632.83, 0.0029696182, 9.99967, 9.999799 
2.7670678e+3, 1.520353e+2, -1454660.3, -1520457.0, -127363.72, -0.18642306, 0.21846415, -1356014.6, 94056.47, 0.0010279779, 10.000657, 9.999576 
2.7667284e+3, 1.6202882e+2, -1310455.9, -1540672.6, -61545.44, -0.042447757, 0.2111292, -1295035.4, 57105.17, 0.0002033788, 10.001438, 9.998471 
2.7663893e+3, 1.7202283e+2, -1110985.9, -1322732.1, -23319.297, -0.07287974, 0.2765475, -1108448.3, 145755.88, 0.000016580547, 10.001919, 9.998998 
2.76605e+3, 1.8201719e+2, -970191.2, -1148912.1, -104876.1, -0.085953936, 0.35540348, -921768.2, 234493.66, 0.00000009587778, 10.001915, 9.999568 
2.7657098e+3, 1.920118e+2, -771508.2, -844232.6, -161869.14, -0.034749124, 0.29931545, -641967.3, 416343.22, 0.0, 10.002026, 10.000864 
2.7653697e+3, 2.0200633e+2, -857242.2, -1131263.6, -102141.32, 0.0070514907, 0.31201977, -823358.8, 137002.95, 0.0, 10.001936, 9.998345 
2.7650306e+3, 2.1200001e+2, -646010.9, -956599.75, -1756.3356, 0.015171834, 0.38626653, -646000.94, 216427.84, 0.0, 10.0026865, 9.998448 
2.7646905e+3, 2.2199316e+2, -600842.5, -979996.8, -26324.086, 0.022426227, 0.45068476, -599023.6, 165476.73, 0.0, 10.002711, 9.997641 
2.7643472e+3, 2.3198427e+2, -408623.25, -741074.1, -44899.402, -0.04526574, 0.2895628, -402666.06, 263921.38, 0.0, 10.003028, 9.998391 
2.7640048e+3, 2.4197645e+2, -381945.1, -603729.9, 38395.93, -0.07098852, 0.21918604, -375486.03, 193177.4, 0.0, 10.002123, 9.999162 
2.763666e+3, 2.5197232e+2, -389194.0, -347354.4, 11590.452, 0.031899836, 0.29384726, -344358.16, 126345.29, 0.0, 10.000575, 10.000922 
2.763327e+3, 2.6196796e+2, -588710.75, -564893.06, -58096.89, 0.112580545, 0.3757477, -517497.03, -144753.13, 0.0, 9.999217, 9.999481 
2.762986e+3, 2.719614e+2, -255121.34, -268400.06, -99717.516, 0.054483537, 0.26937664, -161822.4, 112979.21, 0.0, 10.000561, 10.000132 
2.7626452e+3, 2.8195423e+2, -293445.06, -505866.6, -21410.17, -0.006793363, 0.17924975, -291308.6, -114439.586, 0.0, 10.000691, 9.997836 
2.7623057e+3, 2.9194546e+2, -308891.66, -418952.1, 18318.104, -0.13137808, 0.050136935, -305922.94, -226958.97, 0.0, 9.999793, 9.998138 
2.7619657e+3, 3.019407e+2, -213543.39, -79988.35, -6778.5796, -0.26708502, 0.24945955, -79645.19, -79645.19, 0.0, 9.998657, 10.000412 
2.7616292e+3, 3.1194675e+2, 219444.66, 435331.5, -63984.56, -0.01663202, 1.1452452, 452870.38, 452870.38, 0.0, 10.000109, 10.0028715 
2.7612892e+3, 3.219354e+2, -151254.45, -326588.13, -113970.0, -0.003043242, 0.49940962, -95134.516, -95134.516, 0.0, 10.000056, 9.997644 
2.7777484e+3, 1.3238385e+2, -1367750.9, -1324541.3, 15790.442, 0.2684794, 0.14709044, -1319385.9, 323274.84, 0.0036883934, 10.001497, 10.00182 
2.777405e+3, 1.4238329e+2, -1718223.4, -1797260.0, -66195.73, -0.08718797, 0.53145283, -1680647.1, -135984.75, 0.0018041466, 9.999863, 9.998792 
2.777065e+3, 1.5237467e+2, -1461956.9, -1577957.3, -69061.76, 0.017124861, 0.3170361, -1429770.9, 16981.148, 0.00058556965, 10.000856, 9.999068 
2.776726e+3, 1.6236657e+2, -1312016.1, -1574690.4, -20109.406, 0.10359276, 0.19219199, -1310485.6, 38350.855, 0.00010501939, 10.001567, 9.998172 
2.7763858e+3, 1.723609e+2, -1120770.9, -1341516.1, 29946.408, -0.040650886, 0.3073928, -1116780.5, 134115.23, 0.0000068884756, 10.001901, 9.998881 
2.7760464e+3, 1.8235551e+2, -994584.25, -1197488.3, -73856.47, -0.12890863, 0.43805742, -970548.06, 182403.06, 0.00000000965895, 10.001919, 9.999224 
2.7757066e+3, 1.9234987e+2, -806047.75, -931606.75, -115216.41, 0.011354735, 0.41875437, -737617.2, 317389.2, 0.0, 10.002075, 10.000253 
2.7753672e+3, 2.0234425e+2, -706326.56, -858585.3, -52389.406, 0.075524606, 0.4005843, -690042.0, 267017.6, 0.0, 10.002117, 10.0001135 
2.7750275e+3, 2.1233825e+2, -455678.47, -596392.1, 57821.42, -0.008758333, 0.28455243, -434967.2, 424146.66, 0.0, 10.00285, 10.000837 
2.7746874e+3, 2.2233242e+2, -386314.25, -707300.5, 1669.6621, -0.05827358, 0.25093475, -386305.56, 374862.47, 0.0, 10.003416, 9.9991865 
2.7743456e+3, 2.3232646e+2, -264845.0, -571478.56, -10.263883, 0.023105284, 0.3020774, -264845.0, 398380.7, 0.0, 10.003538, 9.999345 
2.7740034e+3, 2.4231991e+2, -302097.84, -638075.9, 31937.31, 0.055033013, 0.32838985, -299088.9, 266200.88, 0.0, 10.002967, 9.99851 
2.7736613e+3, 2.523119e+2, -448903.97, -601710.7, -26324.23, 0.01526422, 0.2098618, -444496.2, 22873.176, 0.0, 10.001112, 9.998938 
2.77332e+3, 2.6230502e+2, -499057.66, -556442.3, -27140.223, -0.02146063, 0.19127645, -488255.16, -118818.64, 0.0, 9.99993, 9.9992075 
2.77298e+3, 2.7230033e+2, -202550.53, -254834.48, -33017.383, -0.06977384, 0.29556608, -186578.97, 84900.055, 0.0, 10.000916, 10.000087 
2.7726403e+3, 2.8229442e+2, -142843.47, -331639.44, -2012.5458, -0.038672965, 0.3157714, -142822.02, 30712.764, 0.0, 10.001213, 9.998785 
2.7723026e+3, 2.9228523e+2, -205474.61, -285359.25, 16987.748, 0.13643269, 0.06647288, -202012.17, -126383.79, 0.0, 10.000021, 9.998986 
2.7719623e+3, 3.022787e+2, -168141.39, -171144.56, 66461.29, 0.026828533, 0.073658854, -103164.73, -103164.73, 0.0, 9.999367, 9.999444 
2.7716196e+3, 3.122789e+2, 152354.39, 165826.03, -16856.094, -0.4518387, 0.5816662, 177242.31, 177242.31, 0.0, 10.000601, 10.000787 
2.7712873e+3, 3.2226592e+2, -10218.515, -534067.6, -189513.42, 0.22252835, 0.020019917, 51152.164, 51152.164, 0.0, 10.002096, 9.995246 
2.7877408e+3, 1.3272293e+2, -1364596.4, -1597382.4, -92248.15, -0.1368968, 0.16522053, -1332473.3, 306863.25, 0.0021706237, 10.002637, 9.999398 
2.7874026e+3, 1.4272109e+2, -1443652.3, -1692529.1, -145307.5, 0.1419549, 0.57910186, -1376781.5, 164577.6, 0.0010072021, 10.001785, 9.998615 
2.787062e+3, 1.5271285e+2, -1245916.5, -1432878.1, -89721.93, 0.13171741, 0.35732636, -1209826.1, 233616.22, 0.00030058064, 10.002062, 9.999535 
2.7867222e+3, 1.627052e+2, -1193992.9, -1388786.5, -2571.7344, 0.12948959, 0.20869084, -1193959.0, 151559.6, 0.000046417692, 10.001821, 9.9993305 
2.7863815e+3, 1.7269981e+2, -1147748.4, -1216337.9, 90720.63, -0.06532047, 0.22623259, -1085056.8, 162513.05, 0.0000020738605, 10.001146, 10.0001 
2.7860412e+3, 1.8269458e+2, -1189141.9, -1305342.8, 79208.24, -0.17735627, 0.31673992, -1149009.9, 611.3335, 0.00000000000031198744, 10.00065, 9.999087 
2.785702e+3, 1.9268905e+2, -904476.75, -1026788.4, 48883.168, -0.05110667, 0.35130134, -887340.8, 164338.16, 0.0, 10.001631, 9.999787 
2.785363e+3, 2.0268354e+2, -805701.44, -907173.7, 68963.99, 0.038836487, 0.38448742, -770821.06, 182913.13, 0.0, 10.001484, 10.00008 
2.7850232e+3, 2.1267742e+2, -864075.25, -748885.5, 20316.914, -0.027194586, 0.23049034, -745407.06, 110382.305, 0.0, 9.999909, 10.001194 
2.7846828e+3, 2.2267191e+2, -1032141.7, -944753.7, -94306.34, -0.040297687, 0.18037704, -884510.9, -126672.09, 0.0, 9.998703, 9.999808 
2.7843422e+3, 2.3266746e+2, -698759.7, -665141.9, -85118.88, 0.055729404, 0.2650466, -595188.1, 64691.38, 0.0, 10.000112, 10.0003195 
2.7840003e+3, 2.4266167e+2, -667478.44, -905697.4, -49974.7, 0.11256372, 0.32955703, -657419.25, -95484.305, 0.0, 10.000896, 9.997671 
2.7836573e+3, 2.5265196e+2, -388557.6, -694597.56, -51134.992, 0.037145372, 0.13585323, -380239.72, 83791.81, 0.0, 10.0021, 9.997813 
2.783315e+3, 2.6264384e+2, -307574.03, -544299.1, 24711.275, -0.040607017, 0.09710069, -305021.97, 61090.086, 0.0, 10.001685, 9.998416 
2.7829742e+3, 2.7263948e+2, -332662.38, -354702.97, -3847.8342, -0.14328067, 0.27281398, -332009.94, -63856.293, 0.0, 10.0002575, 9.999686 
2.782635e+3, 2.8263414e+2, -472827.25, -481403.44, -26575.525, -0.08094201, 0.36787295, -450196.1, -279990.38, 0.0, 9.998992, 9.998813 
2.782299e+3, 2.9262507e+2, -229902.06, -235856.14, -53507.01, 0.3125371, 0.073226675, -179289.33, -106995.34, 0.0, 9.999681, 9.999449 
2.7819583e+3, 3.026172e+2, -159843.9, -321998.1, 53907.74, 0.18073888, -0.027672863, -143558.08, -143558.08, 0.0, 10.000204, 9.997983 
2.7816114e+3, 3.126119e+2, 210179.39, 2240.4604, 38689.094, -0.822883, 0.07805135, 217144.58, 217144.58, 0.0, 10.001935, 9.998992 
2.7812874e+3, 3.2259896e+2, -337857.97, -881720.3, -133306.56, 0.5727239, -0.2717392, -306940.66, -306940.66, 0.0, 10.000752, 9.993519 
2.797734e+3, 1.330609e+2, -1584939.0, -1967078.9, -96063.445, -0.5345563, 0.11135429, -1562149.4, 73873.45, 0.0011672289, 10.0023155, 9.996994 
2.7974004e+3, 1.4305781e+2, -1419393.9, -1669093.3, -62584.168, 0.28728396, 0.55444807, -1404586.1, 133479.34, 0.00050489313, 10.001942, 9.998682 
2.7970585e+3, 1.5305105e+2, -1185558.9, -1279303.0, -401.1814, 0.13923854, 0.387021, -1185557.1, 254573.9, 0.00013439951, 10.001983, 10.000605 
2.796718e+3, 1.6304465e+2, -1093808.8, -1146041.3, 18061.031, 0.020082116, 0.23679057, -1088171.9, 254018.0, 0.000016423304, 10.001691, 10.001052 
2.7963763e+3, 1.7303927e+2, -1022571.2, -945437.56, 89263.234, -0.17045057, 0.07761137, -886765.9, 357466.72, 0.0000003300107, 10.001113, 10.001971 
2.7960354e+3, 1.8303423e+2, -1139812.9, -1253694.9, 100560.766, -0.31563166, 0.06539197, -1081191.1, 65086.375, 0.0, 10.000837, 9.999362 
2.7956963e+3, 1.9302896e+2, -908689.0, -1061766.4, 104373.66, -0.26456216, 0.15893294, -855798.06, 192536.89, 0.0, 10.001721, 9.999524 
2.7953568e+3, 2.0302361e+2, -840421.7, -1033598.4, 28884.947, -0.18512063, 0.27037123, -836195.1, 114197.8, 0.0, 10.001722, 9.999084 
2.795017e+3, 2.1301726e+2, -951917.5, -957858.56, -19645.217, -0.07691142, 0.2436642, -935019.5, -82560.95, 0.0, 10.000021, 9.999711 
2.7946767e+3, 2.2301142e+2, -900293.56, -807708.44, -55678.566, -0.025927808, 0.23168495, -781591.7, -27076.066, 0.0, 9.999235, 10.000493 
2.7943355e+3, 2.3300634e+2, -587608.56, -503354.47, -23666.643, -0.04194096, 0.1604148, -497161.78, 159397.11, 0.0, 10.00035, 10.001321 
2.7939948e+3, 2.4300072e+2, -514643.53, -744022.25, 5342.0313, -0.010711471, 0.15569456, -514519.2, 44090.44, 0.0, 10.001517, 9.998487 
2.793655e+3, 2.52993e+2, -239148.38, -569911.25, 26957.451, 0.10855054, 0.11930029, -236965.72, 223719.77, 0.0, 10.002816, 9.998367 
2.7933136e+3, 2.629855e+2, -165120.22, -512354.97, -186.07835, 0.112849995, 0.12700205, -165120.13, 197639.39, 0.0, 10.002756, 9.998126 
2.7929693e+3, 2.7297863e+2, -363232.94, -489061.75, -59747.42, -0.11085573, 0.15126331, -339383.44, -74555.13, 0.0, 10.000498, 9.998668 
2.7926278e+3, 2.8297183e+2, -477512.94, -531863.56, 7212.246, -0.145855, 0.19388324, -476572.16, -309675.88, 0.0, 9.999148, 9.998378 
2.7922916e+3, 2.9296452e+2, -197629.86, -283430.5, -14623.074, 0.16678384, 0.14171323, -195206.11, -126236.14, 0.0, 10.000146, 9.998898 
2.7919528e+3, 3.029576e+2, 57615.04, -205938.08, 125837.984, 0.07661392, 0.15925044, 108047.87, 108047.87, 0.0, 10.001557, 9.998152 
2.7916116e+3, 3.129516e+2, 495632.56, 119784.4, 128467.87, -0.5781378, 0.22372244, 535347.4, 535347.4, 0.0, 10.003876, 9.998923 
2.7912816e+3, 3.229407e+2, -203678.8, -568695.06, -424237.4, 0.52529126, 0.021901939, 75642.68, 75642.68, 0.0, 10.0004835, 9.995832 
2.8077352e+3, 1.3340123e+2, -1387409.5, -1708860.3, 64989.313, -0.14386222, -0.040875588, -1374767.5, 257913.16, 0.0005662577, 10.002898, 9.998518 
2.8073952e+3, 1.4339642e+2, -1129386.4, -1518466.1, 144438.02, 0.033274237, 0.15842406, -1081628.6, 453106.25, 0.00022570654, 10.003862, 9.998799 
2.807054e+3, 1.5339181e+2, -1090721.6, -1265721.9, 140376.9, 0.0085114315, 0.24761745, -1012807.3, 423975.88, 0.00005282333, 10.002754, 10.000337 
2.8067133e+3, 1.633866e+2, -1135881.9, -1235163.3, 106907.69, 0.0019023692, 0.27254102, -1067652.1, 271181.22, 0.000004777361, 10.001711, 10.000402 
2.806372e+3, 1.7338035e+2, -1014617.8, -1028234.56, 35765.637, -0.14122178, 0.09152279, -985018.3, 255868.69, 0.00000002399446, 10.001499, 10.001207 
2.8060314e+3, 1.8337466e+2, -1094456.4, -1217678.4, 9501.755, -0.25696185, 0.046556268, -1093728.0, 49211.13, 0.0, 10.0011425, 9.999444 
2.805692e+3, 1.9336945e+2, -955540.75, -1050118.4, 32848.17, -0.27762708, 0.10158968, -945251.5, 99743.65, 0.0, 10.001284, 9.999808 
2.8053522e+3, 2.033641e+2, -951256.06, -1140860.4, -13391.344, -0.22465788, 0.21715796, -950314.9, -3262.0835, 0.0, 10.001186, 9.998615 
2.805012e+3, 2.1335806e+2, -787720.7, -931807.5, -10829.739, -0.07224823, 0.25367302, -786911.25, 62206.28, 0.0, 10.001364, 9.999237 
2.8046715e+3, 2.2335218e+2, -648823.9, -747135.6, 46040.17, -0.008402371, 0.2926897, -630629.94, 120547.92, 0.0, 10.0013075, 9.999903 
2.8043306e+3, 2.3334618e+2, -344252.72, -435049.8, -45022.254, -0.10502846, 0.17309284, -325713.53, 327519.3, 0.0, 10.002284, 10.000868 
2.8039905e+3, 2.4334028e+2, -417832.9, -652590.3, -96071.27, -0.07598148, 0.15492153, -383529.53, 171756.9, 0.0, 10.002073, 9.998833 
2.803652e+3, 2.5333408e+2, -458436.78, -571995.7, -69308.91, 0.15633027, 0.1675694, -425619.2, 31725.111, 0.0, 10.000972, 9.999197 
2.8033105e+3, 2.6332724e+2, -573902.75, -773004.94, -96389.36, 0.19898292, 0.20939556, -534885.0, -175474.56, 0.0, 10.000263, 9.99753 
2.8029644e+3, 2.7331856e+2, -257321.64, -512032.8, -119422.05, -0.10796292, 0.09674317, -210088.94, 51408.41, 0.0, 10.001557, 9.997994 
2.8026217e+3, 2.8331086e+2, -182408.86, -501997.6, 21546.389, -0.20271808, 0.13046288, -180962.77, -17386.98, 0.0, 10.001711, 9.997345 
2.8022859e+3, 2.9330432e+2, -83718.95, -310347.22, -3377.4067, 0.06880589, 0.22545189, -83668.63, -18025.05, 0.0, 10.00134, 9.998134 
2.8019482e+3, 3.0329794e+2, -126434.92, -302327.8, 161839.48, 0.015583288, 0.35027772, -30189.629, -30189.629, 0.0, 10.000423, 9.997999 
2.8016114e+3, 3.1329158e+2, -114263.195, -148531.63, 206574.05, -0.3292513, 0.34511152, 75886.01, 75886.01, 0.0, 9.999666, 9.999056 
2.8012726e+3, 3.2328314e+2, -109244.64, -215702.77, -654423.6, 0.18610674, 0.2692048, 494111.1, 494111.1, 0.0, 10.00003, 9.998393 
2.817737e+3, 1.3374276e+2, -1316267.0, -1364245.3, 130930.586, 0.28270248, -0.19832858, -1207146.1, 422178.28, 0.00024916983, 10.002114, 10.001239 
2.8173885e+3, 1.4373602e+2, -1252620.5, -1590683.6, 76550.27, -0.46473208, -0.3594225, -1236094.5, 295293.8, 0.00009133095, 10.003127, 9.998638 
2.8170487e+3, 1.537341e+2, -1217980.1, -1410304.5, 88169.75, -0.21276574, 0.0604737, -1183677.5, 249738.38, 0.000018190256, 10.002264, 9.999575 
2.8167096e+3, 1.6372998e+2, -1292555.6, -1511345.9, 87520.414, -0.03889963, 0.31661785, -1261853.9, 73608.07, 0.000001253609, 10.00151, 9.998608 
2.8163686e+3, 1.7372245e+2, -1176683.4, -1337192.5, 65088.598, -0.09177053, 0.21987142, -1153606.8, 83929.734, 0.0000000065346386, 10.001392, 9.999143 
2.8160283e+3, 1.8371585e+2, -1058192.9, -1142353.8, 27432.988, -0.16589467, 0.19326441, -1050040.5, 89561.664, 0.0, 10.001182, 9.999915 
2.8156886e+3, 1.9371027e+2, -894290.75, -940254.9, 65488.34, -0.20405044, 0.1488545, -847868.94, 193790.19, 0.0, 10.001363, 10.000523 
2.8153485e+3, 2.0370512e+2, -850342.3, -994433.9, -5635.065, -0.18366632, 0.21221153, -850122.3, 93589.56, 0.0, 10.001444, 9.999492 
2.8150076e+3, 2.1370013e+2, -707485.7, -820928.3, 24717.643, -0.09128494, 0.29228342, -702334.0, 143428.95, 0.0, 10.001563, 9.999917 
2.8146672e+3, 2.2369438e+2, -656133.1, -928716.4, 89338.36, -0.075498015, 0.38052997, -629462.3, 118361.17, 0.0, 10.002005, 9.998322 
2.8143272e+3, 2.3368713e+2, -392687.75, -712864.06, 16371.532, -0.16851532, 0.36802563, -391852.78, 258048.66, 0.0, 10.003002, 9.998632 
2.8139868e+3, 2.4368055e+2, -231867.98, -473077.75, -140485.11, -0.13949272, 0.37759432, -167319.94, 384646.66, 0.0, 10.00292, 9.999658 
2.8136465e+3, 2.536748e+2, -354749.44, -404315.72, -125863.9, 0.094183065, 0.34193447, -251251.94, 202762.88, 0.0, 10.001131, 10.000289 
2.8133047e+3, 2.6366833e+2, -458110.6, -644893.1, -47372.953, 0.13382404, 0.3315253, -446782.6, -90708.74, 0.0, 10.000667, 9.998245 
2.8129604e+3, 2.7366006e+2, -91017.945, -403266.44, -40169.0, -0.1482864, 0.23672886, -85933.23, 172222.97, 0.0, 10.002475, 9.998354 
2.8126195e+3, 2.836522e+2, 17196.309, -459099.75, 37043.086, -0.17298493, 0.25721064, 20060.05, 180295.8, 0.0, 10.003223, 9.996939 
2.8122836e+3, 2.9364464e+2, 28315.383, -364178.8, -7287.746, 0.19060026, 0.3502029, 28450.654, 90764.49, 0.0, 10.002483, 9.997257 
2.811945e+3, 3.0363753e+2, 24276.207, -99287.01, 116760.32, 0.16972241, 0.4066945, 94592.82, 94592.82, 0.0, 10.000853, 9.999185 
2.8116053e+3, 3.13631e+2, -243839.16, -86842.13, 168542.61, -0.2060574, 0.28816736, 20585.764, 20585.764, 0.0, 9.998171, 10.000225 
2.8112662e+3, 3.2362434e+2, 284684.78, 148397.31, -279377.4, 0.021289485, 0.25833988, 504108.94, 504108.94, 0.0, 10.001842, 10.000059 
2.8277293e+3, 1.3408893e+2, -1435392.6, -1552620.4, 140977.28, -0.101644605, 0.17673403, -1341329.8, 284611.75, 0.00010688274, 10.001844, 10.000074 
2.8273854e+3, 1.4407983e+2, -1416242.5, -1705378.0, -94989.73, -0.46528703, -0.11995065, -1387828.0, 140201.66, 0.00003507575, 10.002166, 9.998299 
2.827045e+3, 1.5407622e+2, -1350845.5, -1518077.4, -103745.67, -0.19111042, 0.15790415, -1301214.4, 128854.336, 0.000005535207, 10.001581, 9.999143 
2.8267053e+3, 1.6407101e+2, -1339467.1, -1502492.3, -16202.305, 0.0073810327, 0.30669877, -1337872.4, -5751.0986, 0.0000002527922, 10.001072, 9.998884 
2.8263646e+3, 1.7406288e+2, -1260207.8, -1348850.5, 58828.344, -0.041169517, 0.11788716, -1230873.5, 3326.0042, 0.0, 10.000748, 9.99938 
2.8260243e+3, 1.8405639e+2, -1167097.4, -1280130.9, 114661.12, -0.091906235, 0.12830548, -1095781.0, 40483.883, 0.0, 10.000758, 9.999201 
2.8256854e+3, 1.9405161e+2, -925047.7, -1047185.6, 61328.984, -0.09386256, 0.2337612, -899568.06, 138749.39, 0.0, 10.001503, 9.999743 
2.825345e+3, 2.0404628e+2, -821476.2, -996526.4, -83767.93, -0.10776517, 0.32539463, -787849.7, 152522.44, 0.0, 10.001759, 9.999297 
2.8250027e+3, 2.1403997e+2, -675069.3, -805842.75, -123372.94, -0.1747263, 0.25238523, -600826.9, 241605.84, 0.0, 10.001837, 9.999863 
2.824662e+3, 2.2403409e+2, -739558.4, -1013930.56, 9698.229, -0.21031529, 0.33999753, -739216.0, 5277.811, 0.0, 10.00168, 9.997865 
2.8243235e+3, 2.3402783e+2, -631702.3, -869172.9, 79284.805, -0.20857845, 0.44189358, -607664.56, 38901.297, 0.0, 10.001608, 9.998193 
2.8239834e+3, 2.440216e+2, -401394.13, -545700.06, -52679.78, -0.17008367, 0.5187381, -384209.47, 164420.5, 0.0, 10.001785, 9.999692 
2.8236413e+3, 2.5401524e+2, -126672.94, -266355.25, -115382.06, -0.027589472, 0.39000854, -61640.79, 389042.75, 0.0, 10.002612, 10.000517 
2.8232992e+3, 2.6400876e+2, -222279.22, -551340.9, -29620.371, 0.019624356, 0.38787457, -219634.22, 133108.02, 0.0, 10.002466, 9.997986 
2.8229576e+3, 2.740012e+2, -174594.56, -433946.63, -48311.15, -0.10913214, 0.3434951, -165887.66, 88929.984, 0.0, 10.00194, 9.9983635 
2.8226173e+3, 2.8399345e+2, -294955.97, -649868.75, -7782.298, -0.09817236, 0.39188984, -294785.4, -137889.45, 0.0, 10.001356, 9.996491 
2.8222802e+3, 2.939848e+2, -154644.8, -475604.1, 6765.1567, 0.19637194, 0.37950456, -154502.27, -95518.875, 0.0, 10.001408, 9.996975 
2.8219405e+3, 3.0397725e+2, -15534.559, -62331.168, 81151.37, 0.17329493, 0.3961214, 45524.38, 45524.38, 0.0, 10.000399, 9.999646 
2.8215992e+3, 3.1397113e+2, -193145.9, 25304.424, 62024.574, -0.122701205, 0.22487822, 41686.523, 41686.523, 0.0, 9.99819, 10.000972 
2.821261e+3, 3.2396576e+2, -5021.369, 188100.58, 66517.195, -0.10172525, 0.20085074, 208793.86, 208793.86, 0.0, 9.999223, 10.001543 
2.8377196e+3, 1.3443637e+2, -1692349.5, -1956987.5, 137976.16, -0.7076361, 0.76214254, -1633499.1, -10945.245, 0.000050503466, 10.00133, 9.997533 
2.8373834e+3, 1.4442514e+2, -1518403.8, -1792131.6, -103686.07, -0.3217819, 0.40199044, -1483562.9, 41104.68, 0.000015384565, 10.001662, 9.997929 
2.8370416e+3, 1.5441804e+2, -1431553.8, -1594048.4, -73983.375, -0.1263043, 0.35596022, -1402916.3, 23815.957, 0.0000020566958, 10.001209, 9.998793 
2.836701e+3, 1.6441062e+2, -1258963.8, -1291972.5, -4585.615, 0.0038055626, 0.23904091, -1258338.5, 70459.44, 0.00000005936716, 10.000908, 10.000388 
2.8363597e+3, 1.7440209e+2, -1140498.8, -1127282.4, 62083.81, -0.064697064, -0.1435008, -1071456.1, 159416.03, 0.0, 10.0008545, 10.00085 
2.8360197e+3, 1.8439625e+2, -1211507.1, -1446504.6, 133925.44, -0.08758893, -0.08569457, -1150843.1, -17913.041, 0.0, 10.001053, 9.99793 
2.8356823e+3, 1.9439323e+2, -1011095.06, -1271760.3, 111360.45, -0.0082827015, 0.3615525, -969999.1, 64973.57, 0.0, 10.001682, 9.998126 
2.8353417e+3, 2.0438734e+2, -819964.9, -1046622.44, -72160.76, -0.08519075, 0.50629276, -798941.2, 138094.38, 0.0, 10.001988, 9.998844 
2.8349972e+3, 2.1437745e+2, -679776.1, -884296.5, -89488.38, -0.3927469, 0.15031439, -646149.2, 192978.89, 0.0, 10.002106, 9.999213 
2.834656e+3, 2.24371e+2, -524001.34, -683432.1, 19357.197, -0.46566692, 0.1265784, -521684.78, 219506.02, 0.0, 10.002155, 9.999915 
2.8343195e+3, 2.3436822e+2, -446895.9, -563983.44, 102089.336, -0.25082666, 0.3903913, -387755.3, 255467.78, 0.0, 10.001895, 10.000177 
2.8339794e+3, 2.4436317e+2, -349964.72, -551268.7, 7752.189, -0.18416868, 0.4921049, -349666.63, 195607.6, 0.0, 10.002235, 9.999446 
2.8336364e+3, 2.5435507e+2, -58307.125, -332841.72, -33950.96, -0.26750445, 0.28417894, -54170.82, 393179.25, 0.0, 10.003444, 9.999688 
2.8332952e+3, 2.6434788e+2, -98183.84, -545951.94, -35765.266, -0.17994876, 0.28039432, -95345.11, 254074.78, 0.0, 10.003511, 9.997522 
2.8329557e+3, 2.7434134e+2, -172496.25, -517298.63, -83922.625, 0.082205765, 0.4203476, -153154.97, 98332.67, 0.0, 10.00229, 9.997634 
2.8326154e+3, 2.8433368e+2, -147858.14, -402137.63, 10702.001, 0.123736896, 0.4479823, -147408.52, 6154.827, 0.0, 10.001555, 9.998112 
2.8322732e+3, 2.9432425e+2, -9584.962, -262702.84, 49889.484, -0.09632378, 0.23215668, -106.67858, 55546.6, 0.0, 10.001718, 9.998314 
2.8319317e+3, 3.0431715e+2, 49414.977, -83566.63, 64294.4, -0.21213265, 0.23557378, 75416.32, 75416.32, 0.0, 10.000985, 9.999242 
2.8315935e+3, 3.1431293e+2, -121733.375, -78829.484, -9821.71, 0.007816057, 0.37542975, -76687.96, -76687.96, 0.0, 9.999172, 9.999825 
2.8312576e+3, 3.2430694e+2, -51634.23, 187374.7, 122606.44, 0.25896206, 0.34380347, 239082.55, 239082.55, 0.0, 9.998678, 10.001854 
2.847721e+3, 1.3477577e+2, -1640118.8, -1952346.0, 88204.414, -0.18403748, 0.6386059, -1616924.0, 2307.0798, 0.000026706124, 10.001649, 9.997478 
2.8473786e+3, 1.4476654e+2, -1481462.4, -1631451.3, -79545.52, -0.3395155, 0.4308977, -1447133.3, 74191.586, 0.000008259573, 10.001261, 9.999242 
2.8470382e+3, 1.5475883e+2, -1380053.1, -1466352.9, -2246.2405, 0.0097365305, 0.2298113, -1379994.6, 43396.09, 0.0000013335809, 10.001073, 9.999753 
2.8466973e+3, 1.6475193e+2, -1280653.6, -1411876.9, 92924.336, 0.10715815, 0.1750856, -1232511.9, 92940.73, 0.000000073245815, 10.001269, 9.999369 
2.8463545e+3, 1.7474532e+2, -1046027.8, -1205329.5, 1359.5009, -0.14534768, 0.097940885, -1046016.25, 181499.11, 0.0, 10.002065, 9.999712 
2.8460145e+3, 1.8473898e+2, -1024446.7, -1383115.1, 47340.582, -0.20899339, 0.16919854, -1018303.44, 111275.69, 0.0, 10.002493, 9.997661 
2.8456783e+3, 1.9473307e+2, -901807.2, -1258447.6, 75056.05, -0.050045896, 0.33523098, -886655.2, 144989.66, 0.0, 10.002627, 9.997759 
2.8453383e+3, 2.047264e+2, -758915.2, -990057.94, -47523.734, -0.06169228, 0.4124658, -749525.56, 184187.02, 0.0, 10.002324, 9.999065 
2.8449938e+3, 2.1471776e+2, -771300.25, -919747.56, -22092.348, -0.3065064, 0.16159275, -768082.1, 67710.875, 0.0, 10.001499, 9.999244 
2.8446525e+3, 2.2471157e+2, -762277.2, -718391.6, 78124.86, -0.3492959, 0.1396698, -659186.5, 78665.12, 0.0, 10.000186, 10.000636 
2.8443152e+3, 2.3470832e+2, -848064.1, -677121.6, 51882.81, -0.13492885, 0.26827475, -662607.06, -22723.258, 0.0, 9.998795, 10.0009165 
2.843975e+3, 2.4470326e+2, -859402.1, -897483.56, 8239.375, -0.14012851, 0.3742563, -857695.94, -315760.94, 0.0, 9.999192, 9.998546 
2.8436324e+3, 2.546952e+2, -425312.66, -613308.5, -44058.21, -0.36649677, 0.23613943, -415499.5, 28516.309, 0.0, 10.001428, 9.998722 
2.8432912e+3, 2.6468787e+2, -346766.22, -700819.3, -109125.664, -0.27882063, 0.28628018, -315834.1, 30255.91, 0.0, 10.002041, 9.997133 
2.8429532e+3, 2.7468094e+2, -350122.84, -636363.6, -114421.19, 0.17861624, 0.38884097, -310006.63, -61845.895, 0.0, 10.001292, 9.99726 
2.8426117e+3, 2.846734e+2, -205237.11, -352871.0, 26956.154, 0.21553105, 0.41986492, -200469.23, -50235.08, 0.0, 10.000884, 9.998754 
2.8422675e+3, 2.9466435e+2, -71233.42, -214392.66, -3310.8503, -0.2571477, 0.14870018, -71156.89, -18838.959, 0.0, 10.001011, 9.998975 
2.8419247e+3, 3.046577e+2, -75344.15, -252360.16, -78311.96, -0.43254188, 0.20476449, -45672.5, -45672.5, 0.0, 10.000712, 9.998176 
2.841588e+3, 3.146536e+2, -114132.83, -208383.11, -136984.17, 0.062654726, 0.44327456, -16394.45, -16394.45, 0.0, 9.999917, 9.998529 
2.841252e+3, 3.2464725e+2, -90604.67, 177256.7, 100366.28, 0.36693048, 0.39692757, 210690.34, 210690.34, 0.0, 9.998527, 10.00178 
2.8577235e+3, 1.3511287e+2, -1704735.9, -1841863.8, 53503.254, 0.4477788, 0.3157748, -1686330.8, -70405.17, 0.000013311812, 10.000634, 9.998718 
2.8573725e+3, 1.4510651e+2, -1459660.3, -1431677.4, -86938.4, -0.48218364, 0.25720245, -1357611.8, 160376.22, 0.0000038169696, 10.000623, 10.000901 
2.8570348e+3, 1.5509944e+2, -1269375.1, -1257611.4, -7711.0176, 0.1168784, -0.039291788, -1253795.0, 166248.94, 0.0000005153316, 10.001173, 10.001131 
2.8566942e+3, 1.6509455e+2, -1379953.3, -1738249.3, 98253.48, 0.19210003, 0.16090891, -1354778.5, -32685.848, 0.00000002542409, 10.001784, 9.996882 
2.8563493e+3, 1.7509139e+2, -1183228.6, -1565959.3, 54620.063, -0.33054486, 0.68733, -1175586.4, 48551.3, 0.0, 10.002391, 9.997082 
2.8560093e+3, 1.8508355e+2, -938188.2, -1246327.4, 75240.21, -0.48259053, 0.70571476, -920797.8, 205419.42, 0.0, 10.0026865, 9.998492 
2.8556737e+3, 1.9507125e+2, -849663.2, -1144047.8, 120646.7, -0.26422447, 0.16290054, -806536.8, 221794.36, 0.0, 10.002586, 9.998565 
2.8553352e+3, 2.050642e+2, -681612.3, -845010.3, -66433.266, -0.08320821, 0.11161366, -658011.25, 272385.4, 0.0, 10.00235, 10.0000515 
2.8549933e+3, 2.1506126e+2, -682840.56, -781280.4, -23613.004, 0.03404355, 0.35191235, -677469.5, 154954.97, 0.0, 10.001642, 10.000135 
2.854652e+3, 2.2505572e+2, -724915.2, -736150.06, 38331.742, 0.09105967, 0.36208856, -691791.5, 42685.367, 0.0, 10.000574, 10.000324 
2.854311e+3, 2.3504765e+2, -839837.0, -734423.06, 25147.447, 0.09276952, 0.0749179, -728731.2, -92178.1, 0.0, 9.999049, 10.000416 
2.85397e+3, 2.4504136e+2, -869731.1, -993254.75, 99036.49, -0.01810037, 0.12337778, -814776.4, -276158.13, 0.0, 9.99946, 9.997776 
2.8536293e+3, 2.5503612e+2, -427274.3, -705136.5, 60951.043, -0.24898908, 0.36849135, -414492.28, 26185.994, 0.0, 10.001734, 9.997969 
2.8532884e+3, 2.6502877e+2, -227438.1, -530311.94, -129061.82, -0.24885218, 0.4050148, -179902.42, 162849.95, 0.0, 10.002323, 9.99819 
2.8529468e+3, 2.750193e+2, -228146.83, -464233.72, -111943.14, -0.02329829, 0.18360692, -183508.0, 61333.605, 0.0, 10.001587, 9.998322 
2.8526065e+3, 2.8501207e+2, -182322.9, -424047.7, 58985.67, 0.10545683, 0.22212233, -168697.28, -21785.086, 0.0, 10.001315, 9.998091 
2.8522667e+3, 2.950065e+2, -54621.48, -294761.22, -773.6277, 0.08655364, 0.4043287, -54618.99, -5650.066, 0.0, 10.001453, 9.998237 
2.8519237e+3, 3.0499905e+2, 343.77124, -288790.0, -95165.27, -0.08360249, 0.4490054, 28854.941, 28854.941, 0.0, 10.001478, 9.99759 
2.851582e+3, 3.1498992e+2, 74028.055, -201165.55, -146245.73, -0.09898688, 0.27792683, 137231.39, 137231.39, 0.0, 10.0015135, 9.997841 
2.851241e+3, 3.2498497e+2, -41115.63, 12600.989, -112022.49, -0.11728833, 0.48815626, 100939.94, 100939.94, 0.0, 9.999508, 10.000255 
2.8677145e+3, 1.35454e+2, -1714922.4, -1609322.9, 46055.605, 0.08703277, 0.31095803, -1592058.9, 20522.414, 0.000005962988, 9.999489, 10.000887 
2.8673697e+3, 1.454468e+2, -1558734.1, -1592423.9, -38369.215, -0.22650222, 0.12857224, -1533675.0, -19025.398, 0.0000015122073, 10.000422, 9.999905 
2.86703e+3, 1.5544148e+2, -1122737.4, -1322908.8, -90084.664, -0.0092856, 0.10743654, -1088166.5, 328528.6, 0.0000000966577, 10.002744, 9.999936 
2.86669e+3, 1.6543576e+2, -1051533.6, -1600831.3, -12759.972, 0.030311648, 0.27948704, -1051237.4, 267516.66, 0.00000000026919006, 10.004084, 9.996746 
2.866348e+3, 1.7543006e+2, -904381.0, -1472461.8, 36587.19, -0.23873587, 0.56745386, -902034.3, 318788.0, 0.0, 10.004404, 9.996791 
2.8660077e+3, 1.8542248e+2, -801388.9, -1064803.4, 65928.38, -0.361214, 0.57562363, -785809.5, 337087.8, 0.0, 10.003192, 9.999462 
2.8656694e+3, 1.9541232e+2, -1070686.0, -1148002.8, 100699.96, -0.26542398, 0.15260166, -1001478.94, 23508.309, 0.0, 10.000698, 9.999412 
2.86533e+3, 2.0540582e+2, -1091275.1, -1029442.75, -43668.938, -0.08825668, 0.11337622, -1006853.94, -79808.055, 0.0, 9.999503, 10.000147 
2.8649893e+3, 2.1540266e+2, -1024042.75, -944630.06, -63720.832, 0.15370129, 0.3089436, -909256.9, -80180.62, 0.0, 9.999287, 10.000155 
2.8646478e+3, 2.2539718e+2, -819543.4, -835686.8, 14145.526, 0.22641398, 0.34766954, -811328.6, -80199.48, 0.0, 10.000206, 9.999776 
2.8643063e+3, 2.3538883e+2, -493801.9, -640449.5, -11245.212, 0.15054208, 0.061064545, -492944.6, 140265.13, 0.0, 10.00183, 9.999662 
2.863966e+3, 2.4538247e+2, -471561.75, -772128.06, 170867.89, 0.04316704, 0.13530377, -394290.84, 140984.73, 0.0, 10.002171, 9.997918 
2.863627e+3, 2.5537765e+2, -465784.1, -734528.1, 193930.72, -0.08493052, 0.391321, -364221.88, 73109.81, 0.0, 10.001586, 9.997791 
2.8632855e+3, 2.6537016e+2, -280058.2, -516216.75, -17599.914, -0.17232466, 0.42150262, -278753.75, 60652.395, 0.0, 10.001846, 9.998492 
2.862941e+3, 2.7535972e+2, -86017.81, -376068.44, -44022.293, -0.20057642, 0.05818902, -79483.555, 162018.45, 0.0, 10.002504, 9.998486 
2.862601e+3, 2.8535295e+2, -94570.3, -447274.47, 113256.94, -0.035276003, 0.17688501, -61334.234, 82235.26, 0.0, 10.002297, 9.997424 
2.8622642e+3, 2.9534903e+2, -130802.59, -424632.47, 76027.58, 0.27222455, 0.58149403, -112296.28, -66681.16, 0.0, 10.001408, 9.997346 
2.8619215e+3, 3.0534023e+2, -87669.99, -367254.2, 18533.033, 0.09432895, 0.5658058, -86446.83, -86446.83, 0.0, 10.001104, 9.99719 
2.8615755e+3, 3.1532744e+2, -91061.15, -358797.53, 12820.74, -0.29701716, 0.054774873, -90448.62, -90448.62, 0.0, 10.00078, 9.9970875 
2.8612313e+3, 3.253234e+2, -87607.46, -173902.97, -53263.348, -0.5083969, 0.47806334, -62208.06, -62208.06, 0.0, 10.000005, 9.998698 
2.877703e+3, 1.3579626e+2, -1564167.5, -1315948.4, -28129.37, -0.4771937, 0.40934414, -1312800.5, 296425.1, 0.0000021473002, 9.999607, 10.002831 
2.8773677e+3, 1.4578748e+2, -1687822.0, -1865935.1, 21828.484, 0.08471407, 0.078438304, -1685185.8, -173876.31, 0.00000043033984, 10.00046, 9.998001 
2.8770238e+3, 1.5578432e+2, -1303854.4, -1628847.1, 24415.012, -0.36028653, 0.47238958, -1302030.4, 111314.195, 0.000000019645139, 10.002449, 9.997978 
2.8766853e+3, 1.6577594e+2, -1049793.0, -1465567.9, 25398.697, -0.27979344, 0.41508755, -1048247.25, 267181.16, 0.0, 10.003528, 9.997936 
2.8763494e+3, 1.7576411e+2, -928580.56, -1354934.4, 87368.79, -0.018221056, -0.009373355, -911371.5, 306173.44, 0.0, 10.003682, 9.997942 
2.8760087e+3, 1.8575832e+2, -773177.6, -930729.75, -11929.414, -0.038295828, 0.060288355, -772279.5, 347320.03, 0.0, 10.00283, 10.000571 
2.8756654e+3, 1.9575602e+2, -1006489.1, -1021482.44, 43247.707, -0.19075195, 0.33228144, -970093.2, 51523.938, 0.0, 10.000686, 10.000307 
2.8753233e+3, 2.0574997e+2, -1068237.4, -1030527.9, -36369.445, -0.17282768, 0.30312175, -1008416.3, -84743.95, 0.0, 9.999731, 10.000014 
2.874981e+3, 2.1574132e+2, -1004625.6, -966588.3, -27097.688, -0.06815352, -0.00664406, -952501.2, -126747.1, 0.0, 9.999538, 9.999885 
2.8746405e+3, 2.2573626e+2, -762940.0, -834147.75, 103186.695, -0.041346226, 0.099555306, -689387.44, 38418.773, 0.0, 10.000682, 9.999563 
2.8743008e+3, 2.3573315e+2, -380815.78, -607799.2, 86964.83, -0.08220138, 0.38434538, -351327.6, 278515.3, 0.0, 10.002648, 9.999513 
2.8739625e+3, 2.4572738e+2, -215269.45, -445907.13, 164634.14, -0.014179068, 0.42551515, -129583.73, 402316.72, 0.0, 10.002998, 9.999793 
2.8736255e+3, 2.5571954e+2, -253841.77, -453011.8, 209106.06, 0.10082675, 0.23359387, -121818.24, 312156.97, 0.0, 10.002181, 9.999479 
2.8732833e+3, 2.6571226e+2, -206625.61, -509621.38, 74345.67, -0.041451387, 0.2196638, -189366.6, 146678.95, 0.0, 10.002419, 9.998276 
2.8729373e+3, 2.7570498e+2, 53369.992, -344164.25, 47278.547, -0.35365888, 0.2300731, 58915.45, 297031.7, 0.0, 10.00355, 9.998218 
2.8725955e+3, 2.8569812e+2, 53320.875, -360290.7, 122991.88, -0.3241752, 0.34594384, 87130.21, 227316.86, 0.0, 10.003215, 9.997586 
2.872257e+3, 2.9569143e+2, -14599.383, -357394.94, 108582.99, -0.08133911, 0.48811954, 16900.51, 59158.484, 0.0, 10.0020895, 9.9974985 
2.8719142e+3, 3.056818e+2, 87470.875, -169032.92, 113447.53, -0.18518734, 0.32716516, 130446.58, 130446.58, 0.0, 10.001737, 9.998272 
2.8715706e+3, 3.1567016e+2, 162986.7, -145261.16, 122795.45, -0.37595245, -0.12506776, 205923.45, 205923.45, 0.0, 10.002034, 9.997987 
2.8712296e+3, 3.25666e+2, -7157.531, -406241.13, 28128.25, -0.21207368, 0.3810596, -5184.7446, -5184.7446, 0.0, 10.001618, 9.9963455 
2.8877023e+3, 1.3613565e+2, -1442321.6, -1601596.8, -194581.4, -0.06070951, 0.42085657, -1311711.5, 294193.63, 0.0000003382392, 10.0018425, 9.999802 
2.8873634e+3, 1.4612795e+2, -1428006.6, -1581696.0, -24342.553, 0.11981183, 0.2500451, -1424243.1, 83740.02, 0.000000039050374, 10.001508, 9.99946 
2.887021e+3, 1.5612453e+2, -1199039.3, -1459934.1, 92266.22, -0.29769832, 0.4980919, -1169706.9, 240308.75, 0.0000000006124831, 10.00262, 9.9990835 
2.8866825e+3, 1.6611724e+2, -1209392.5, -1411893.0, 97368.18, -0.2622969, 0.44389647, -1170171.5, 141914.67, 0.0, 10.001898, 9.999052 
2.886345e+3, 1.7610687e+2, -1401315.4, -1471377.5, 142830.44, -0.033223834, 0.052178465, -1289282.8, -75096.87, 0.0, 9.999962, 9.9989195 
2.8860041e+3, 1.8610142e+2, -1207024.0, -1143993.4, 52257.254, -0.043366253, 0.11900161, -1114483.9, 1752.6978, 0.0, 9.999885, 10.000549 
2.8856608e+3, 1.9609936e+2, -998217.7, -1027970.1, 27021.922, -0.15457839, 0.40870067, -982247.75, 36005.98, 0.0, 10.000788, 10.000246 
2.8853184e+3, 2.0609307e+2, -839076.2, -928253.5, -21275.508, -0.15052284, 0.36942726, -834260.44, 86050.69, 0.0, 10.001417, 9.999907 
2.884976e+3, 2.1608345e+2, -706461.6, -864928.44, -16318.207, -0.0702225, -0.026480542, -704798.7, 117602.4, 0.0, 10.001845, 9.999468 
2.8846353e+3, 2.2607793e+2, -736601.9, -879902.8, 119679.81, -0.080903746, 0.09087469, -668763.9, 55695.273, 0.0, 10.001185, 9.999004 
2.8842962e+3, 2.3607543e+2, -851281.94, -901144.75, 70784.54, -0.11904736, 0.48438314, -801166.5, -174673.33, 0.0, 9.9998, 9.998869 
2.8839585e+3, 2.4606971e+2, -596539.94, -566977.6, 81205.66, -0.032430716, 0.5318819, -499218.84, 29331.092, 0.0, 10.000128, 10.000352 
2.8836218e+3, 2.560613e+2, -440862.38, -501344.25, 26105.223, 0.14246458, 0.19528857, -431153.38, -526.06177, 0.0, 10.000779, 9.999817 
2.8832796e+3, 2.6605472e+2, -403208.9, -566471.44, -66553.766, -0.03787574, 0.20724429, -379516.53, -46827.387, 0.0, 10.000985, 9.998555 
2.882933e+3, 2.7604914e+2, -392983.6, -556872.25, -36794.914, -0.42996782, 0.33302128, -385101.75, -150357.44, 0.0, 10.000559, 9.998178 
2.8825906e+3, 2.8604224e+2, -255801.17, -442409.7, 52974.473, -0.49294654, 0.41581652, -241811.55, -104997.77, 0.0, 10.000838, 9.998149 
2.8822505e+3, 2.9603395e+2, -196277.1, -419012.72, 101634.66, -0.3324955, 0.32602555, -156872.25, -117973.79, 0.0, 10.000775, 9.997698 
2.881909e+3, 3.060249e+2, 82506.79, -74445.3, 143356.83, -0.33997113, 0.17419408, 167461.67, 167461.67, 0.0, 10.001395, 9.999064 
2.881568e+3, 3.1601527e+2, 140209.92, -148463.14, 134084.7, -0.2889236, -0.1570273, 192880.34, 192880.34, 0.0, 10.001939, 9.998001 
2.8812274e+3, 3.2601017e+2, -305037.7, -670939.3, 101924.27, -0.03073459, 0.26016673, -278561.78, -278561.78, 0.0, 10.000331, 9.995046 
2.8977042e+3, 1.3647455e+2, -1866194.6, -2260579.8, -295022.84, 0.46661404, 0.49865112, -1708530.4, -105936.336, 0.0000000028010363, 10.000938, 9.9957075 
2.8973582e+3, 1.4646813e+2, -1300913.4, -1212395.1, 45041.566, 0.001629457, 0.47999007, -1193506.8, 311156.8, 0.0, 10.00109, 10.002174 
2.8970203e+3, 1.5646353e+2, -1215930.6, -1188004.5, 134928.28, -0.08431956, 0.3405815, -1066318.8, 340377.25, 0.0, 10.001304, 10.001579 
2.8966796e+3, 1.6645953e+2, -1247477.5, -1298685.5, 24753.584, -0.1580777, 0.4368845, -1237468.3, 71263.055, 0.0, 10.0010605, 10.000234 
2.896337e+3, 1.7645529e+2, -1330245.8, -1331611.1, 94026.48, -0.30513766, 0.550103, -1236899.5, -26125.51, 0.0, 9.999987, 9.999868 
2.895996e+3, 1.8644904e+2, -1208085.9, -1214976.8, 85148.12, -0.31242087, 0.52752733, -1126313.5, -13479.993, 0.0, 10.000159, 9.999931 
2.8956556e+3, 1.964419e+2, -1018801.7, -1102925.9, 70333.79, -0.22866647, 0.3937305, -978912.2, 35987.887, 0.0, 10.000885, 9.999699 
2.895315e+3, 2.0643552e+2, -810803.4, -918361.56, -936.09686, -0.07611844, 0.36344066, -810795.25, 106163.375, 0.0, 10.001577, 9.999911 
2.8949738e+3, 2.1642889e+2, -666500.8, -856676.94, 26345.006, 0.07344374, 0.2794358, -662918.7, 156100.2, 0.0, 10.002101, 9.999421 
2.8946328e+3, 2.2642146e+2, -750112.56, -989827.25, 70133.305, 0.0806441, 0.25714266, -731101.44, -10006.77, 0.0, 10.001503, 9.998104 
2.894292e+3, 2.3641394e+2, -855423.9, -990057.3, 50232.125, -0.009451615, 0.25442138, -838747.7, -215571.89, 0.0, 10.00007, 9.99815 
2.8939524e+3, 2.4640822e+2, -642344.3, -699602.25, 119951.45, -0.08933692, 0.3763186, -547652.7, -22415.025, 0.0, 10.000235, 9.999405 
2.8936142e+3, 2.5640288e+2, -401154.16, -536038.5, 46539.293, -0.17630191, 0.4612892, -386655.2, 40638.5, 0.0, 10.001209, 9.99939 
2.893273e+3, 2.6639664e+2, -249043.61, -307816.84, -98235.734, -0.23801015, 0.42048034, -175893.25, 153458.06, 0.0, 10.001211, 10.000237 
2.8929293e+3, 2.7638966e+2, -242477.0, -289863.13, -42721.688, -0.32284924, 0.2671382, -217318.2, 14093.537, 0.0, 10.000698, 9.999951 
2.8925875e+3, 2.8638348e+2, -132581.17, -176168.84, 85036.52, -0.30889186, 0.23570931, -66590.15, 66878.6, 0.0, 10.00072, 10.000052 
2.8922468e+3, 2.9637745e+2, -3775.3367, -116805.76, 162057.73, -0.22834125, 0.20141172, 111338.94, 146866.16, 0.0, 10.001132, 9.999612 
2.8919077e+3, 3.0637175e+2, 191706.52, -205.82558, 241008.0, -0.061332714, 0.28603116, 355158.22, 355158.22, 0.0, 10.002032, 9.999299 
2.891571e+3, 3.163658e+2, 372998.22, 32376.695, 174318.66, 0.29180193, 0.34389994, 446393.72, 446393.72, 0.0, 10.003183, 9.998706 
2.8912196e+3, 3.2635748e+2, 125864.03, -23434.762, -608.96185, -0.32427514, 0.26091692, 125866.516, 125866.516, 0.0, 10.001252, 9.9991865 
2.9076946e+3, 1.3681386e+2, -1713001.5, -1971607.6, -120533.625, -0.002168028, 0.56784904, -1665534.6, -66260.516, 0.00000000011876347, 10.001008, 9.997692 
2.907355e+3, 1.4680845e+2, -1243454.5, -1134505.6, 21185.521, 0.13988015, 0.53852403, -1130531.0, 370801.4, 0.0, 10.001277, 10.00263 
2.9070148e+3, 1.5680446e+2, -1769102.8, -1391953.6, 24754.797, 0.028913002, 0.41513044, -1390335.8, 13024.088, 0.0, 9.997243, 10.002133 
2.906674e+3, 1.6680072e+2, -1634310.9, -1376507.4, -1644.563, -0.086241215, 0.45173243, -1376496.9, -71107.484, 0.0, 9.997951, 10.001198 
2.9063317e+3, 1.76797e+2, -1186139.4, -1181154.5, 37123.258, -0.28079486, 0.5101155, -1146440.1, 60981.766, 0.0, 10.000651, 10.0005865 
2.905991e+3, 1.867906e+2, -1066054.8, -1149501.6, 26067.057, -0.30535883, 0.43865588, -1058581.3, 50900.125, 0.0, 10.001175, 9.999861 
2.9056507e+3, 1.9678259e+2, -1109181.5, -1166503.3, 43713.77, -0.1781225, 0.20530643, -1085570.6, -74013.766, 0.0, 10.00039, 9.9994545 
2.9053107e+3, 2.0677684e+2, -923844.1, -1028011.25, 6312.7646, -0.041099254, 0.26789248, -923462.94, -9849.945, 0.0, 10.001037, 9.999382 
2.9049706e+3, 2.1677187e+2, -716496.1, -934063.25, -16542.295, 0.11557663, 0.37960932, -715245.56, 100416.83, 0.0, 10.002002, 9.998915 
2.9046297e+3, 2.2676454e+2, -666526.0, -880442.6, 42500.973, 0.1625984, 0.34678137, -658391.25, 59344.477, 0.0, 10.001821, 9.998671 
2.904288e+3, 2.3675576e+2, -784464.0, -940250.4, 143024.8, 0.14684172, 0.1592835, -699497.0, -79672.42, 0.0, 10.000528, 9.998249 
2.9039472e+3, 2.4675013e+2, -691227.3, -752355.9, 336298.72, -0.06632581, 0.32131004, -384106.84, 137780.3, 0.0, 10.000129, 9.999024 
2.9036078e+3, 2.5674593e+2, -668679.0, -704082.4, 284076.94, -0.35189885, 0.56100214, -401752.75, 22184.9, 0.0, 9.999627, 9.998956 
2.9032668e+3, 2.6673988e+2, -307901.6, -211820.45, 117991.586, -0.3456204, 0.51203954, -132464.36, 193528.94, 0.0, 10.000321, 10.001295 
2.9029256e+3, 2.7673241e+2, -202262.2, -196483.61, 108431.02, -0.19714357, 0.20354743, -90903.39, 137151.44, 0.0, 10.000692, 10.000596 
2.9025838e+3, 2.867267e+2, -103264.586, -47943.637, 131951.66, -0.16672769, 0.15221265, 59215.555, 189320.42, 0.0, 10.000539, 10.000994 
2.9022425e+3, 2.9672182e+2, -209081.97, -162175.94, 119934.49, -0.17462015, 0.13861407, -63422.88, -31272.604, 0.0, 9.999599, 10.000006 
2.9018995e+3, 3.067181e+2, -202002.34, -207766.31, 141317.61, -0.42447302, 0.4006481, -63537.344, -63537.344, 0.0, 9.99952, 9.998979 
2.901558e+3, 3.1671536e+2, -302360.3, -355159.22, 17156.027, -0.60286754, 0.80079544, -297275.5, -297275.5, 0.0, 9.998965, 9.997985 
2.9012135e+3, 3.2670724e+2, -333256.5, 435694.7, -112416.31, -0.30685884, 0.37304705, 451792.3, 451792.3, 0.0, 9.9953575, 10.005016 
2.9176834e+3, 1.371532e+2, -1472057.4, -1411703.1, 84422.94, -0.7002729, 0.6111768, -1352226.0, 243724.72, 0.0000000000007792345, 10.00081, 10.001623 
2.9173526e+3, 1.471489e+2, -1403634.1, -1261173.4, -127746.1, 0.32871038, 0.56367886, -1186140.9, 311854.97, 0.0, 10.000416, 10.002169 
2.917006e+3, 1.5714628e+2, -1684295.1, -1390154.3, -53325.336, -0.016417779, 0.6238894, -1380785.3, 19231.537, 0.0, 9.9979925, 10.00179 
2.9166666e+3, 1.6714093e+2, -1481627.4, -1189593.5, 100017.5, -0.091791086, 0.45060483, -1158623.3, 143434.53, 0.0, 9.998518, 10.002194 
2.9163286e+3, 1.771343e+2, -1165593.5, -1080927.6, 111394.68, -0.15627955, 0.12778325, -1004093.25, 200015.63, 0.0, 10.000377, 10.001416 
2.9159877e+3, 1.8712807e+2, -1051823.6, -1078498.3, -9947.238, -0.1669538, 0.0028109169, -1048522.75, 57640.668, 0.0, 10.0009775, 10.000446 
2.9156464e+3, 1.971218e+2, -1079615.8, -1122906.1, 40947.11, -0.14618129, -0.102729455, -1054944.9, -46723.184, 0.0, 10.0004225, 9.999753 
2.9153058e+3, 2.0711681e+2, -954675.8, -1133903.5, 48038.793, -0.09178994, 0.07312719, -942611.9, -32334.201, 0.0, 10.001161, 9.998623 
2.9149657e+3, 2.1711223e+2, -665006.94, -907000.5, 17011.568, -0.051704776, 0.30582675, -663816.94, 148516.45, 0.0, 10.002284, 9.998991 
2.9146254e+3, 2.2710742e+2, -456870.25, -499205.94, 4825.372, 0.12174363, 0.37125006, -456327.22, 258052.48, 0.0, 10.002018, 10.001214 
2.9142848e+3, 2.3710214e+2, -553430.94, -578546.75, 144289.55, 0.30239978, 0.3043005, -421153.84, 195272.6, 0.0, 10.000958, 10.00055 
2.9139435e+3, 2.470965e+2, -610219.25, -651657.06, 353005.06, 0.06837876, 0.3347174, -277325.6, 241159.67, 0.0, 10.000357, 9.999616 
2.913602e+3, 2.5709075e+2, -550208.6, -561402.25, 325776.38, -0.3433527, 0.37084526, -229981.0, 190567.97, 0.0, 9.99997, 9.999791 
2.913262e+3, 2.6708552e+2, -287397.8, -196065.4, 212133.47, -0.31142148, 0.36877248, -24738.504, 297859.94, 0.0, 10.000359, 10.001419 
2.912922e+3, 2.7708033e+2, -129219.51, -153555.16, 191690.72, -0.10976284, 0.29192406, 50689.19, 275332.16, 0.0, 10.001084, 10.000723 
2.9125795e+3, 2.870743e+2, -143116.22, -229526.95, 169726.38, -0.12173026, 0.29262143, -11182.373, 115517.77, 0.0, 10.000913, 9.999591 
2.912236e+3, 2.9706767e+2, -285818.3, -300623.34, 121466.97, -0.22515647, 0.2575774, -171528.5, -142762.64, 0.0, 9.999395, 9.999171 
2.927683e+3, 1.3749248e+2, -1496016.6, -1620664.1, -106737.375, -0.3128653, 0.41858798, -1434739.8, 157882.11, 0.0, 10.001456, 9.999889 
2.9273462e+3, 1.4748976e+2, -1545192.4, -1358280.3, -54402.156, 0.3029673, 0.6068489, -1343599.3, 151057.27, 0.0, 9.999531, 10.001942 
2.9270014e+3, 1.5748751e+2, -988813.1, -1072285.1, -4865.4653, -0.0011907553, 0.7324213, -988530.5, 408146.1, 0.0, 10.002818, 10.001653 
2.926662e+3, 1.6748177e+2, -1007504.4, -941371.3, 71079.48, -0.022777768, 0.51520276, -896043.44, 402678.4, 0.0, 10.001682, 10.002381 
2.926324e+3, 1.7747447e+2, -1389065.9, -1155068.3, 52156.703, 0.00023264582, 0.10292307, -1143969.3, 56809.484, 0.0, 9.998692, 10.001732 
2.9259834e+3, 1.8746923e+2, -1240915.4, -1086938.8, -16399.094, -0.051865622, 0.009057748, -1085211.6, 17611.73, 0.0, 9.99933, 10.001176 
2.9256424e+3, 1.9746453e+2, -974874.44, -1015696.56, 26198.262, -0.054369256, -0.017096357, -962074.6, 42791.54, 0.0, 10.000885, 10.000285 
2.9253012e+3, 2.0746012e+2, -925210.75, -1040385.3, 110425.6, -0.09985256, 0.15306978, -858258.44, 48657.582, 0.0, 10.00107, 9.9993 
2.9249603e+3, 2.1745566e+2, -964458.94, -1009561.7, 159384.77, -0.15594468, 0.33651647, -826038.06, -17067.62, 0.0, 10.000098, 9.999338 
2.9246202e+3, 2.2745092e+2, -685851.3, -611005.5, 28657.63, 0.026018608, 0.4036795, -601293.1, 109723.43, 0.0, 10.000475, 10.00118 
2.9242802e+3, 2.3744617e+2, -592226.4, -590351.44, -20477.885, 0.30701914, 0.3615565, -570789.56, 42268.582, 0.0, 10.000702, 10.0005865 
2.9239383e+3, 2.4744073e+2, -569355.1, -554100.56, 140387.61, 0.077516355, 0.35380656, -421133.2, 93978.47, 0.0, 10.000359, 10.000278 
2.9235965e+3, 2.5743484e+2, -639837.06, -544054.9, 125376.84, -0.320618, 0.2787748, -457733.78, -40561.758, 0.0, 9.999176, 10.000285 
2.9232568e+3, 2.674308e+2, -430295.28, -212698.73, 71039.65, -0.25875485, 0.33513966, -191559.73, 127650.85, 0.0, 9.999277, 10.001769 
2.9229173e+3, 2.7742746e+2, -411511.66, -275269.56, 81498.07, -0.038305055, 0.37774342, -237171.92, -15931.165, 0.0, 9.999181, 10.000775 
2.9225746e+3, 2.8742167e+2, -160362.45, -282761.94, 130031.74, -0.12150576, 0.40652993, -77848.375, 45449.813, 0.0, 10.001097, 9.999067 
2.9222304e+3, 2.9741445e+2, -11505.519, -156620.42, 84915.84, -0.23913075, 0.30803028, 27629.844, 53001.094, 0.0, 10.0013275, 9.999209 
2.937684e+3, 1.378326e+2, -1815345.9, -2140467.5, -483132.13, 0.22235774, 0.25009277, -1468159.1, 121125.055, 0.0, 10.000893, 9.996583 
2.9373387e+3, 1.4783068e+2, -1440400.9, -1309902.1, 124653.82, 0.12180791, 0.6336033, -1234453.0, 256863.58, 0.0, 10.000256, 10.001925 
2.9369986e+3, 1.5782844e+2, -1079311.4, -1127088.9, 105585.164, -0.03849409, 0.7706465, -994946.25, 398391.7, 0.0, 10.002236, 10.001562 
2.936659e+3, 1.6782314e+2, -1082970.4, -1005714.2, -11145.877, 0.049224745, 0.61499053, -1004138.3, 291243.94, 0.0, 10.00127, 10.002142 
2.936318e+3, 1.7781661e+2, -1378801.6, -1140969.5, 21113.166, 0.066085555, 0.30682775, -1139109.8, 58326.098, 0.0, 9.998697, 10.001836 
2.935978e+3, 1.8781303e+2, -1167182.3, -951659.7, 62443.336, 0.0053481027, 0.3214091, -934875.1, 164591.42, 0.0, 9.999394, 10.002079 
2.935638e+3, 1.9781023e+2, -888955.3, -832770.7, 79519.59, -0.045088038, 0.39987907, -776527.1, 224964.94, 0.0, 10.000844, 10.001565 
2.9352963e+3, 2.0780644e+2, -787122.3, -744499.25, 77848.76, -0.13954142, 0.45783472, -685097.6, 218431.72, 0.0, 10.001044, 10.001341 
2.934954e+3, 2.1780196e+2, -868415.5, -879129.6, 144076.72, -0.2983832, 0.46458262, -729596.25, 75978.66, 0.0, 10.000336, 10.000136 
2.934613e+3, 2.2779466e+2, -848866.0, -1026894.25, 38276.535, -0.17966269, 0.43506414, -840985.3, -133334.3, 0.0, 10.000714, 9.998257 
2.9342726e+3, 2.3778665e+2, -619459.9, -783950.56, -31952.316, -0.004297271, 0.35304275, -613471.2, -3737.0593, 0.0, 10.001182, 9.999072 
2.9339316e+3, 2.4778171e+2, -466586.66, -412614.9, 65831.7, -0.10907305, 0.38777912, -368452.7, 143327.88, 0.0, 10.0005865, 10.0011835 
2.9335907e+3, 2.5777766e+2, -494723.3, -359521.66, 53647.492, -0.3187185, 0.41617155, -340821.13, 72995.38, 0.0, 9.999575, 10.001396 
2.933251e+3, 2.6777425e+2, -392108.13, -136987.03, 18407.072, -0.20379376, 0.4513789, -135665.8, 180181.92, 0.0, 9.999208, 10.002353 
2.9329112e+3, 2.777711e+2, -293100.7, -95934.32, 42142.934, -0.025501395, 0.44804907, -87304.305, 130573.06, 0.0, 9.999334, 10.001971 
2.9325706e+3, 2.8776553e+2, -3349.8684, -51806.07, 169906.58, -0.079405986, 0.35851717, 144047.33, 263977.88, 0.0, 10.001337, 10.000626 
2.9322296e+3, 2.9776058e+2, 497941.78, 245893.92, -25410.723, -0.054905716, 0.34906375, 500478.1, 522456.44, 0.0, 10.003908, 10.0008135 
2.947678e+3, 1.3817936e+2, -1467980.0, -1829254.1, -238314.31, 0.047745805, 0.42328903, -1349579.5, 236306.1, 0.0, 10.002571, 9.997947 
2.947334e+3, 1.4817329e+2, -1011916.06, -1182489.1, 301628.97, 0.017576976, 0.4044025, -783747.94, 704202.5, 0.0, 10.003529, 10.001241 
2.9469955e+3, 1.5817e+2, -1258200.1, -1273841.9, 228788.77, 0.05658015, 0.518058, -1037098.56, 352880.78, 0.0, 10.001262, 10.001043 
2.9466546e+3, 1.6816585e+2, -1252504.5, -1131358.6, 88277.016, 0.1337775, 0.5375449, -1084871.1, 207147.05, 0.0, 10.000322, 10.0017395 
2.946312e+3, 1.781611e+2, -1266633.5, -1121199.5, 133041.86, 0.1165923, 0.45587748, -1042298.94, 151763.67, 0.0, 9.999639, 10.0015 
2.9459718e+3, 1.881574e+2, -1146072.9, -943169.1, 211390.23, 0.044530395, 0.47978032, -810146.5, 285950.84, 0.0, 9.999552, 10.002058 
2.9456332e+3, 1.9815397e+2, -1119204.3, -944968.56, 157862.97, 0.038879614, 0.50142086, -851780.5, 146349.05, 0.0, 9.999288, 10.001537 
2.9452914e+3, 2.0814969e+2, -977940.9, -802886.6, 41461.387, -0.11909182, 0.48165867, -793563.1, 106605.836, 0.0, 9.999582, 10.001634 
2.9449478e+3, 2.1814491e+2, -1027000.3, -987755.56, 3607.3555, -0.30296665, 0.42952543, -987426.75, -185213.34, 0.0, 9.999401, 9.999847 
2.944608e+3, 2.2813796e+2, -885751.06, -1086062.8, 77495.26, -0.174868, 0.45603982, -859270.8, -154983.11, 0.0, 10.000729, 9.997784 
2.9442686e+3, 2.3812999e+2, -614217.6, -836313.7, 149071.6, 0.02952699, 0.42393857, -539378.56, 66995.32, 0.0, 10.001552, 9.998493 
2.9439265e+3, 2.4812439e+2, -489448.0, -388020.3, 180951.4, -0.11921376, 0.409472, -250810.47, 257614.19, 0.0, 10.000395, 10.001386 
2.943584e+3, 2.5812e+2, -715622.7, -460697.22, 124231.44, -0.30550146, 0.38132155, -410170.63, 289.5274, 0.0, 9.998142, 10.001369 
2.9432443e+3, 2.681166e+2, -543567.06, -226970.47, 77207.62, -0.17029417, 0.43305096, -209145.61, 103346.13, 0.0, 9.998277, 10.002185 
2.9429048e+3, 2.7811325e+2, -472581.38, -188016.73, 67714.51, 0.020091549, 0.4201707, -172725.22, 41799.465, 0.0, 9.998199, 10.001876 
2.9425654e+3, 2.8810802e+2, -312616.4, -76848.984, 173685.5, -0.09945375, 0.29610795, 15179.721, 131754.88, 0.0, 9.998785, 10.001647 
2.9422268e+3, 2.9810488e+2, -214059.66, -30780.0, -112777.984, 0.010375549, 0.37882638, 22896.145, 41500.18, 0.0, 9.998941, 10.001242 
2.9576704e+3, 1.3852777e+2, -1485758.0, -1513707.5, -53848.68, -0.40973344, 0.6571343, -1444100.3, 138370.34, 0.0, 10.001077, 10.000828 
2.957331e+3, 1.4851682e+2, -1229560.5, -1404746.1, 161682.11, -0.08169054, 0.10296923, -1133268.5, 351302.75, 0.0, 10.002553, 10.0001745 
2.9569918e+3, 1.5851194e+2, -1365886.9, -1435767.0, 115684.66, 0.101313725, 0.16480847, -1279981.0, 106630.17, 0.0, 10.000982, 10.000074 
2.9566494e+3, 1.6850922e+2, -1289828.8, -1199635.3, 26380.78, 0.16635588, 0.38320366, -1192485.9, 96156.43, 0.0, 10.000267, 10.001297 
2.9563057e+3, 1.7850687e+2, -1313849.9, -1187441.5, 103031.516, 0.044597823, 0.5854427, -1129772.8, 60899.723, 0.0, 9.999478, 10.001127 
2.9559657e+3, 1.8850164e+2, -1170002.6, -1017078.44, 184023.13, 0.0266439, 0.4988773, -894264.4, 198459.64, 0.0, 9.999631, 10.001515 
2.9556277e+3, 1.9849567e+2, -1127850.0, -1033968.7, 146528.45, 0.052262127, 0.3319391, -927045.75, 67735.46, 0.0, 9.99954, 10.000821 
2.9552856e+3, 2.084901e+2, -1009688.25, -947998.6, 33622.41, -0.09110875, 0.28161064, -933215.94, -36382.453, 0.0, 9.999823, 10.000565 
2.9549423e+3, 2.1848476e+2, -930942.9, -913006.9, 12616.485, -0.2933963, 0.26242283, -906495.8, -107612.086, 0.0, 9.999865, 10.000159 
2.9546052e+3, 2.284812e+2, -677226.1, -717897.56, 121279.875, 0.028532062, 0.462333, -574588.9, 126332.41, 0.0, 10.001002, 10.000187 
2.954269e+3, 2.3847741e+2, -398194.3, -553514.0, 152275.58, 0.4139923, 0.6308955, -304918.78, 298043.28, 0.0, 10.002192, 10.000137 
2.9539236e+3, 2.4846955e+2, -499964.56, -497348.38, 98220.6, 0.092830926, 0.39011818, -400427.16, 104605.54, 0.0, 10.00067, 10.000554 
2.9535767e+3, 2.584611e+2, -679716.06, -533626.94, 72764.18, -0.3529301, 0.057257988, -503568.94, -96462.0, 0.0, 9.998658, 10.000666 
2.9532373e+3, 2.6845676e+2, -570548.06, -385449.13, 72875.83, -0.15159474, 0.112576865, -360200.94, -51051.168, 0.0, 9.998625, 10.000971 
2.952899e+3, 2.784535e+2, -398024.22, -257775.13, 48808.94, 0.11580581, 0.24339199, -242461.0, -31276.715, 0.0, 9.999047, 10.001026 
2.952556e+3, 2.8844908e+2, -359054.25, -173700.78, 101092.305, -0.29856357, 0.26524663, -129232.95, -16001.416, 0.0, 9.998655, 10.001098 
2.9522187e+3, 2.984464e+2, -244621.69, -63142.9, -143610.63, -0.08938287, 0.4590549, 15993.098, 31254.568, 0.0, 9.998581, 10.001242 
2.9676673e+3, 1.3887e+2, -1917411.5, -1633167.8, 27951.559, -0.048162304, 0.5892562, -1630445.3, -51332.254, 0.0, 9.997738, 10.001614 
2.9673275e+3, 1.4885932e+2, -1544313.3, -1623753.3, 26675.139, 0.0037477426, 0.07151432, -1536187.3, -54976.793, 0.0, 10.0007, 9.999569 
2.966987e+3, 1.5885353e+2, -1292507.3, -1437787.1, -32476.586, 0.05784171, 0.089015834, -1285577.8, 97684.03, 0.0, 10.001627, 9.999762 
2.9666433e+3, 1.6885054e+2, -1216920.0, -1170940.0, -124083.03, 0.07850826, 0.2765626, -1067735.3, 217559.89, 0.0, 10.000755, 10.001279 
2.9662985e+3, 1.7884822e+2, -1328854.1, -1207452.1, 11411.133, -0.020790862, 0.4695209, -1206388.9, -19064.457, 0.0, 9.999418, 10.001034 
2.9659596e+3, 1.8884371e+2, -1051420.0, -976102.7, 142708.27, -0.058782373, 0.461784, -866167.94, 223203.67, 0.0, 10.00057, 10.001329 
2.9656222e+3, 1.9883816e+2, -830807.8, -929472.44, 114320.016, 0.022831077, 0.3546817, -755630.1, 235797.39, 0.0, 10.001803, 10.000439 
2.965281e+3, 2.0883237e+2, -586615.8, -745768.3, 54319.137, -0.12835209, 0.29558432, -569844.0, 323637.7, 0.0, 10.002832, 10.000473 
2.964938e+3, 2.1882653e+2, -504236.56, -710592.06, 65911.89, -0.3095878, 0.23593234, -484980.56, 310555.25, 0.0, 10.002885, 10.00008 
2.964601e+3, 2.2882316e+2, -545424.5, -575416.75, 77676.61, 0.013122993, 0.40990782, -481309.72, 216260.6, 0.0, 10.001581, 10.000888 
2.9642648e+3, 2.3882039e+2, -747407.56, -691348.44, -20015.092, 0.45503452, 0.5969222, -684935.8, -85336.73, 0.0, 9.9997, 10.000403 
2.9639184e+3, 2.4881299e+2, -573950.7, -550728.7, -68339.27, 0.12520775, 0.38351035, -493021.1, 8643.7, 0.0, 10.00027, 10.0003605 
2.9635707e+3, 2.588042e+2, -503176.63, -541265.56, -11573.762, -0.3331231, 0.030382423, -499935.6, -96193.0, 0.0, 10.000347, 9.99977 
2.9632312e+3, 2.6879862e+2, -386608.7, -405108.94, 46601.78, -0.12741278, 0.045120586, -348347.88, -42550.46, 0.0, 10.000413, 9.999934 
2.962893e+3, 2.787941e+2, -404953.7, -383016.3, 41055.086, 0.13624883, 0.14236306, -351489.9, -143645.73, 0.0, 9.999634, 9.999855 
2.962548e+3, 2.8879052e+2, -285612.16, -170912.34, 109351.336, -0.45838276, 0.2972137, -104784.62, 5100.188, 0.0, 9.999404, 10.000707 
2.9622126e+3, 2.9878643e+2, -206319.9, -51513.203, -4130.072, -0.019769507, 0.3676701, -51403.094, -39472.66, 0.0, 9.999006, 10.001089 
2.9776648e+3, 1.3921113e+2, -1738284.3, -1567804.4, 186434.53, 0.40072373, 0.54916143, -1448047.5, 127717.73, 0.0, 9.999135, 10.00136 
2.9773235e+3, 1.4920123e+2, -1566068.0, -1677073.6, 62976.324, 0.10927054, 0.1495182, -1537626.9, -59766.867, 0.0, 10.000767, 9.999153 
2.976981e+3, 1.59195e+2, -1337529.1, -1458518.9, -49902.816, -0.12408232, 0.15856825, -1319602.6, 60318.734, 0.0, 10.001329, 9.999756 
2.9766366e+3, 1.6919085e+2, -1214931.4, -1135175.5, -179549.16, -0.11741147, 0.20154512, -991129.1, 290832.8, 0.0, 10.000628, 10.001586 
2.976291e+3, 1.791871e+2, -1282727.1, -1168834.8, 1428.571, -0.20099527, 0.23852243, -1168816.9, 15182.852, 0.0, 9.9996395, 10.001202 
2.9759532e+3, 1.8918459e+2, -1024432.3, -961853.1, 183072.2, -0.20905823, 0.4172928, -807415.8, 278615.25, 0.0, 10.000678, 10.001409 
2.975617e+3, 1.9918172e+2, -790316.56, -862447.5, 133321.61, -0.17708167, 0.56461495, -688268.44, 299797.22, 0.0, 10.001802, 10.000929 
2.9752764e+3, 2.0917608e+2, -548924.7, -665354.7, 56574.273, -0.30004302, 0.47046208, -525963.1, 364154.34, 0.0, 10.002797, 10.001062 
2.974934e+3, 2.191699e+2, -438185.34, -670089.2, 28940.793, -0.47430325, 0.33084616, -434628.2, 357545.03, 0.0, 10.003206, 10.000238 
2.974594e+3, 2.2916345e+2, -574043.44, -731519.1, -11519.534, -0.28954557, 0.27304527, -573205.25, 121034.086, 0.0, 10.001863, 9.999744 
2.9742542e+3, 2.3915754e+2, -668829.94, -676908.94, -76152.59, -0.056003466, 0.2514302, -596609.75, -308.96805, 0.0, 10.000247, 10.000272 
2.973911e+3, 2.491546e+2, -446783.7, -405621.53, -62525.008, -0.11378294, 0.42994195, -360377.4, 137948.86, 0.0, 10.000687, 10.001195 
2.9735672e+3, 2.5915128e+2, -285860.38, -382724.38, -34941.19, -0.22836208, 0.55797654, -274571.8, 125782.164, 0.0, 10.001474, 10.000352 
2.973227e+3, 2.6914388e+2, -282776.5, -399496.72, 1431.1609, -0.079566844, 0.40928704, -282758.94, 19664.986, 0.0, 10.001229, 9.999647 
2.972887e+3, 2.7913636e+2, -194055.73, -241689.67, 11489.198, 0.009976614, 0.24515791, -191429.38, 13067.033, 0.0, 10.00077, 10.0003395 
2.9725432e+3, 2.891337e+2, -101858.086, 3947.4949, 97605.77, -0.36149144, 0.4157943, 62065.387, 168587.94, 0.0, 10.000189, 10.001601 
2.9722074e+3, 2.9912928e+2, 29580.283, 103705.73, 119522.38, -0.009005783, 0.41574198, 191779.9, 200343.06, 0.0, 10.000365, 10.001544 
2.98766e+3, 1.3955157e+2, -1131886.5, -1403714.1, 33916.617, 0.24078292, 0.46620882, -1127718.5, 444711.0, 0.0, 10.003764, 10.000286 
2.9873195e+3, 1.4954306e+2, -1408324.1, -1659735.4, 33596.81, 0.13604404, 0.2762744, -1403911.9, 70604.266, 0.0, 10.002033, 9.998692 
2.986977e+3, 1.5953842e+2, -1315594.5, -1418808.8, -90267.125, -0.09264104, 0.4570296, -1263223.5, 113342.055, 0.0, 10.001328, 10.000051 
2.986632e+3, 1.695337e+2, -1056508.1, -951035.94, -191966.0, -0.05680733, 0.361813, -804694.0, 473912.4, 0.0, 10.001265, 10.00256 
2.9862875e+3, 1.795287e+2, -1085428.4, -1050539.8, 47042.277, -0.037674017, 0.2077301, -1017811.56, 162838.56, 0.0, 10.000897, 10.001431 
2.9859492e+3, 1.8952633e+2, -1232963.8, -1054899.4, 213414.75, -0.04808068, 0.4002087, -912690.1, 169988.94, 0.0, 9.99922, 10.001488 
2.9856122e+3, 1.995244e+2, -1444601.4, -1154831.1, 191052.66, -0.06354607, 0.6180438, -1059939.6, -75234.555, 0.0, 9.997231, 10.001124 
2.9852712e+3, 2.095185e+2, -1132223.6, -970790.5, 131282.23, -0.31854975, 0.49865973, -897396.06, -10634.55, 0.0, 9.998856, 10.000881 
2.98493e+3, 2.1951261e+2, -879129.4, -889783.6, 41526.152, -0.4837016, 0.38654318, -842590.0, -53773.453, 0.0, 10.000256, 10.000152 
2.9845905e+3, 2.2950664e+2, -713965.0, -778546.7, 17182.291, -0.19554377, 0.3640759, -709678.1, -18800.66, 0.0, 10.000915, 9.999848 
2.9842505e+3, 2.3950002e+2, -617517.9, -685489.8, 48552.605, 0.08428153, 0.29168433, -592238.3, 707.08813, 0.0, 10.00081, 9.999932 
2.983907e+3, 2.4949747e+2, -311273.22, -307607.7, 56773.035, -0.07953292, 0.51030296, -252637.86, 242332.42, 0.0, 10.0015955, 10.001393 
2.9835635e+3, 2.5949547e+2, -301651.4, -423208.56, 12353.029, -0.18767385, 0.77589315, -300408.75, 96579.77, 0.0, 10.001609, 9.999995 
2.983222e+3, 2.694873e+2, -361478.34, -394928.28, 47117.008, -0.13358146, 0.53467345, -328205.94, -29142.59, 0.0, 10.000557, 9.999981 
2.9828793e+3, 2.7947873e+2, -514311.72, -405937.63, 131884.73, -0.15771873, 0.23232539, -317542.0, -116399.555, 0.0, 9.998727, 10.00018 
2.982539e+3, 2.8947634e+2, -94709.61, 1148.9901, 134933.56, -0.25393283, 0.44313154, 96412.86, 199577.16, 0.0, 10.000405, 10.00144 
2.9822013e+3, 2.994705e+2, 142494.77, 250298.56, 159508.16, -0.17381518, 0.29203007, 364766.1, 369978.38, 0.0, 10.000956, 10.002214 
2.9976547e+3, 1.3989016e+2, -1445291.0, -1641161.0, -181973.44, -0.12190677, 0.2824535, -1336572.8, 232542.55, 0.0, 10.002064, 9.999485 
2.9973155e+3, 1.4988407e+2, -1527832.8, -1725979.9, -10125.038, 0.09377046, 0.3661224, -1527316.8, -56133.86, 0.0, 10.001297, 9.998596 
2.9969734e+3, 1.5988211e+2, -1331093.0, -1363855.6, -80746.3, -0.040957715, 0.8139555, -1265083.1, 108125.36, 0.0, 10.000958, 10.000611 
2.9966298e+3, 1.6987659e+2, -1062832.4, -820197.6, -210840.77, 0.16458571, 0.53479534, -698262.6, 576989.1, 0.0, 10.000648, 10.00376 
2.9962856e+3, 1.7987123e+2, -1098068.4, -931968.3, -14032.006, 0.23886263, 0.22554955, -930791.25, 246501.28, 0.0, 10.000304, 10.002515 
2.9959455e+3, 1.8986814e+2, -1186811.6, -1000112.94, 119713.85, 0.19373418, 0.30034593, -941654.8, 137669.48, 0.0, 9.999432, 10.001749 
2.9956067e+3, 1.9986524e+2, -1436652.6, -1168278.0, 146372.1, 0.1819576, 0.43021724, -1103892.9, -122536.14, 0.0, 9.997351, 10.000963 
2.9952666e+3, 2.098607e+2, -1144512.4, -994700.4, 194844.92, -0.13469434, 0.4663676, -860859.06, 22545.59, 0.0, 9.998851, 10.000714 
2.9949257e+3, 2.1985534e+2, -764799.5, -786665.4, 72284.125, -0.44763467, 0.42991522, -702626.2, 82833.38, 0.0, 10.000782, 10.000609 
2.9945907e+3, 2.2985202e+2, -610317.2, -611842.06, 6616.38, 0.2679243, 0.5946438, -604419.44, 83071.2, 0.0, 10.001055, 10.000964 
2.9942554e+3, 2.3984906e+2, -458897.38, -535418.44, 71045.66, 0.986566, 0.7844779, -416464.97, 173053.44, 0.0, 10.001524, 10.000631 
2.9939076e+3, 2.4984176e+2, -250365.3, -386239.78, 75231.03, 0.36554387, 0.58238196, -216935.98, 274656.06, 0.0, 10.002433, 10.000487 
2.9935583e+3, 2.5983405e+2, -128185.266, -279717.34, -15390.387, -0.37241766, 0.34972876, -126637.94, 267030.72, 0.0, 10.002451, 10.000626 
2.993214e+3, 2.6982787e+2, -242777.66, -155737.02, -14011.9, -0.39469373, 0.18404908, -153536.98, 142183.16, 0.0, 10.00053, 10.001695 
2.9928705e+3, 2.7982187e+2, -489837.7, -428231.44, 166595.08, -0.36784023, 0.035262708, -289615.72, -91844.836, 0.0, 9.998955, 9.999974 
2.9925358e+3, 2.8981575e+2, -210409.23, -394942.13, 226178.7, -0.08911672, 0.109151304, -58401.438, 41434.336, 0.0, 10.000986, 9.998559 
2.992195e+3, 2.9980773e+2, 427551.44, 599492.56, 20090.854, -0.4111103, -0.049657837, 601808.9, 603716.25, 0.0, 10.0017605, 10.004415 
3.007653e+3, 1.4023486e+2, -1762553.8, -1687484.6, -419997.78, 0.1785917, 0.9815718, -1303347.6, 262414.44, 0.0, 9.9992485, 10.000591 
3.0073124e+3, 1.502248e+2, -1285362.0, -1252311.4, 73104.836, 0.25335103, 0.36779022, -1193887.4, 273970.28, 0.0, 10.0014, 10.0017805 
3.0069712e+3, 1.602232e+2, -1199251.5, -1310175.8, -5203.47, 0.13338532, 0.6280645, -1199007.9, 170862.38, 0.0, 10.001809, 10.000563 
3.0066207e+3, 1.70218e+2, -1364293.6, -1268871.9, -318554.22, -0.14346859, 0.573566, -994475.44, 277440.0, 0.0, 9.999777, 10.0010805 
3.006274e+3, 1.8021238e+2, -1543913.9, -1375317.1, -190361.45, -0.24443577, 0.43442658, -1251424.0, -77459.3, 0.0, 9.998107, 10.000554 
3.0059364e+3, 1.902095e+2, -1125794.5, -1113328.8, -167384.48, -0.15632974, 0.60108435, -952061.2, 123932.734, 0.0, 10.000339, 10.00053 
3.005599e+3, 2.0020269e+2, -729774.56, -1099941.0, -203704.22, -0.09398417, 0.4802112, -639628.44, 338435.03, 0.0, 10.003275, 9.998581 
3.0052593e+3, 2.101973e+2, -699924.3, -873043.75, -229275.95, -0.37740704, 0.5105786, -541412.56, 338710.13, 0.0, 10.002312, 9.9998045 
3.004918e+3, 2.2019239e+2, -607215.0, -557640.8, -407590.13, -0.7437028, 0.52042323, -174084.77, 608089.25, 0.0, 10.001186, 10.001948 
3.0045778e+3, 2.3018944e+2, -276545.88, 43008.367, -209076.89, -0.52591425, 0.2884383, 146369.75, 830557.1, 0.0, 10.001203, 10.005312 
3.0042398e+3, 2.401886e+2, -715677.2, -507979.38, 90464.055, -0.07829717, 0.28054023, -474102.7, 112079.32, 0.0, 9.999119, 10.001927 
3.003899e+3, 2.5018367e+2, -1059968.0, -916149.44, 118713.42, 0.03589388, 0.35320574, -849264.5, -361028.84, 0.0, 9.997538, 9.999092 
3.0035546e+3, 2.6017708e+2, -1042287.25, -800009.9, 30525.78, -0.15470748, 0.31682336, -796223.0, -405917.53, 0.0, 9.996559, 9.999826 
3.0032125e+3, 2.7017292e+2, -242863.69, -126529.14, -54767.72, -0.0057468065, 0.33210117, -104803.15, 187532.48, 0.0, 10.000489, 10.001802 
3.0028695e+3, 2.8016907e+2, 10074.242, -423006.6, 17354.203, 0.014913373, 0.41691306, 10768.538, 205133.6, 0.0, 10.003445, 9.99779 
3.0025348e+3, 2.901595e+2, -668605.8, -988021.7, 55024.57, 0.33687094, 0.41367602, -659392.7, -562918.7, 0.0, 9.999579, 9.995036 
3.0021858e+3, 3.001533e+2, -409170.13, 631359.75, -340538.97, -0.6427453, 0.5350745, 732900.56, 732900.56, 0.0, 9.994373, 10.008039 
