coord_x,coord_y,stress_xx,stress_yy,tau_xy,velocity_x,velocity_y,stress_1,eps,damage,lx,ly
4.9984694e+0, 1.2585603e+2, -2012440.5, -1673422.9, -2528.9192, -0.011174997, 0.14959809, -1673404.0, 33206.414, 0.0013801174, 9.997152, 10.001654 
4.998923e+0, 1.3585386e+2, -1941414.8, -1737082.9, 1071.0306, 0.011374767, -0.09614506, -1737077.4, -128444.78, 0.0008364695, 9.997612, 10.00032 
4.9989992e+0, 1.4585613e+2, -1731302.4, -1462045.0, -8841.45, 0.006973737, 0.03887351, -1461755.0, 48854.48, 0.00038681776, 9.997851, 10.001414 
4.9988064e+0, 1.5585703e+2, -1634171.5, -1383500.1, -19855.104, -0.01601383, -0.011422553, -1381937.1, 30661.502, 0.00011816065, 9.997929, 10.001243 
4.9989572e+0, 1.6585784e+2, -1554795.0, -1398559.3, -6655.7163, -0.016934829, -0.0046927356, -1398276.3, -83684.82, 0.000016018055, 9.998249, 10.000315 
4.999358e+0, 1.7585836e+2, -1382201.4, -1261985.5, 8207.145, -0.001887441, 0.009603754, -1261427.8, -44839.133, 0.00000013955699, 9.998751, 10.000338 
4.9995917e+0, 1.8585877e+2, -1234503.4, -1126260.8, -5401.6563, 0.0073344763, 0.008679209, -1125991.9, -7407.067, 0.0, 9.999033, 10.000463 
4.9997061e+0, 1.958591e+2, -1126136.6, -1035090.4, -29428.473, 0.012750493, -0.0091318535, -1026406.6, -5826.755, 0.0, 9.999155, 10.000357 
4.9998683e+0, 2.0585896e+2, -1031778.6, -1048433.1, -22186.896, 0.0065701567, -0.0041273204, -1016407.75, -93826.484, 0.0, 9.999602, 9.999374 
5.000059e+0, 2.1585844e+2, -836277.8, -906182.0, -11905.396, -0.008392985, -0.00055962405, -834305.8, -9718.071, 0.0, 10.000283, 9.999351 
5.000283e+0, 2.2585781e+2, -686698.0, -806338.2, -16649.293, -0.008663545, 0.012086806, -684424.25, 42169.684, 0.0, 10.000737, 9.999145 
5.0005305e+0, 2.3585704e+2, -550569.06, -695667.0, -24276.465, 0.0017561337, 0.0136076305, -546615.1, 81985.17, 0.0, 10.001023, 9.999093 
5.0007033e+0, 2.4585581e+2, -445965.0, -663318.7, -15077.787, 0.001964159, 0.01439569, -444924.06, 85687.836, 0.0, 10.001366, 9.998479 
5.0008273e+0, 2.558542e+2, -291733.88, -538470.44, 1441.8264, -0.005065933, 0.00081799884, -291725.47, 140902.17, 0.0, 10.001753, 9.998477 
5.0010943e+0, 2.6585242e+2, -125199.7, -390416.72, 4600.7773, 0.0017989381, -0.034598626, -125119.914, 209523.94, 0.0, 10.002151, 9.998629 
5.001465e+0, 2.758505e+2, 27775.057, -270897.53, -5874.591, 0.018915359, -0.095951445, 27890.56, 264550.66, 0.0, 10.002549, 9.998584 
5.0015783e+0, 2.8584912e+2, 139123.64, -237633.33, -15445.356, 0.010347921, -0.058180977, 139755.77, 278428.0, 0.000000004221918, 10.002947, 9.997948 
5.001505e+0, 2.9584786e+2, 292074.66, -119591.49, -25527.064, -0.01728262, 0.016815599, 293651.5, 334335.44, 0.0000065845143, 10.003352, 9.99789 
5.001763e+0, 3.058435e+2, 299624.63, -260401.89, -19889.66, -0.013721423, -0.12950528, 300330.13, 300330.13, 0.00007542163, 10.003798, 9.996379 
5.0022596e+0, 3.15841e+2, 523522.75, 101376.65, -10065.946, 0.013520775, -0.020597849, 523762.63, 523762.63, 0.00027017322, 10.004241, 9.9986515 
1.4995399e+1, 1.2585343e+2, -2004842.0, -1655240.6, 11371.521, -0.034281373, -0.080029495, -1654871.1, 51759.637, 0.00135349, 9.997143, 10.001783 
1.4996772e+1, 1.3585356e+2, -1935061.4, -1722492.1, 17510.105, 0.034196693, -0.107488856, -1721059.5, -112427.53, 0.0008181531, 9.997607, 10.000423 
1.4996997e+1, 1.4585613e+2, -1752184.5, -1503253.9, -7043.774, 0.020902546, 0.0677972, -1503054.8, 7553.1025, 0.00037595516, 9.997844, 10.001136 
1.4996418e+1, 1.55856e+2, -1650581.3, -1415931.5, -15296.153, -0.048004504, -0.055724986, -1414938.6, -2329.5598, 0.00011312574, 9.997923, 10.001024 
1.4996873e+1, 1.6585691e+2, -1524419.8, -1334312.9, 11205.552, -0.050723825, -0.05157468, -1333654.8, -19054.285, 0.000014709239, 9.998244, 10.000759 
1.4998077e+1, 1.7585842e+2, -1358774.9, -1212394.0, 26133.93, -0.0056485957, 0.018377665, -1207868.1, 8718.129, 0.00000010097208, 9.998747, 10.000681 
1.4998774e+1, 1.8585877e+2, -1280916.1, -1220528.0, -1415.0765, 0.022006366, 0.029961603, -1220494.9, -101910.914, 0.0, 9.999025, 9.999819 
1.499912e+1, 1.9585827e+2, -1165839.6, -1116023.3, -22440.336, 0.03824255, -0.0046365056, -1107405.5, -86815.53, 0.0, 9.99915, 9.999804 
1.4999603e+1, 2.058581e+2, -1010524.6, -1002332.25, 2739.2725, 0.019570306, 0.003160913, -1001500.75, -78908.766, 0.0, 9.999596, 9.999696 
1.5000178e+1, 2.1585809e+2, -818017.8, -866502.2, 13339.622, -0.025115939, 0.027961204, -814589.94, 10001.69, 0.0, 10.000277, 9.999627 
1.5000848e+1, 2.2585729e+2, -699550.56, -831097.44, -6832.9307, -0.02608587, 0.019767245, -699196.56, 27402.672, 0.0, 10.00073, 9.998979 
1.5001592e+1, 2.358559e+2, -560469.94, -714645.8, -12524.439, 0.005244839, -0.02079069, -559459.1, 69153.34, 0.0, 10.001018, 9.998966 
1.5002109e+1, 2.4585477e+2, -414933.06, -597460.5, -1505.2164, 0.005820523, -0.028778592, -414920.66, 115701.62, 0.0, 10.00136, 9.998935 
1.500248e+1, 2.5585377e+2, -263674.75, -478181.94, 16629.412, -0.015401867, -0.027314955, -262393.25, 170236.72, 0.0, 10.001745, 9.998896 
1.5003285e+1, 2.658522e+2, -143142.5, -425856.4, 18985.416, 0.005514243, -0.04591887, -141873.25, 192770.7, 0.0, 10.002143, 9.998389 
1.5004393e+1, 2.7585027e+2, 7657.459, -310420.38, 9652.573, 0.056551654, -0.08213851, 7950.1123, 244612.27, 0.0, 10.002541, 9.998317 
1.5004736e+1, 2.858486e+2, 120185.17, -275147.97, -1241.2346, 0.03133636, -0.048313633, 120189.07, 258867.19, 0.0000000059189293, 10.00294, 9.997694 
1.5004511e+1, 2.958469e+2, 278133.1, -146521.06, -8974.291, -0.05220708, 0.011050469, 278322.66, 319016.66, 0.0000065077284, 10.003345, 9.997709 
1.5005293e+1, 3.058423e+2, 323431.7, -208863.17, -3369.4026, -0.040648792, -0.17438804, 323453.0, 323453.0, 0.000074265045, 10.003791, 9.9967375 
1.500677e+1, 3.1583962e+2, 540658.06, 140457.61, 4375.256, 0.039730012, -0.11494969, 540705.9, 540705.9, 0.00026659592, 10.004229, 9.998927 
2.4992895e+1, 1.2585202e+2, -1954166.1, -1601290.3, -19736.688, -0.010471699, -0.14598852, -1600189.8, 106453.97, 0.0013145427, 9.997368, 10.002046 
2.499384e+1, 1.3585293e+2, -1999839.9, -1730237.4, -4947.203, 0.0074458034, -0.118575156, -1730146.6, -121510.266, 0.0007913486, 9.997065, 10.000634 
2.4994326e+1, 1.4585565e+2, -1837228.3, -1555436.1, -6032.105, -0.003680267, 0.06852755, -1555307.1, -44696.05, 0.00036019128, 9.997309, 10.001038 
2.4994545e+1, 1.5585533e+2, -1652075.0, -1426103.9, -1402.0104, -0.029395567, -0.065158434, -1426095.3, -13479.804, 0.00010584406, 9.997953, 10.00094 
2.4995366e+1, 1.6585618e+2, -1503585.3, -1314672.1, 16961.371, -0.031216437, -0.068941645, -1313161.4, 1445.9961, 0.000012859098, 9.998347, 10.000844 
2.4996634e+1, 1.7585771e+2, -1381121.6, -1216364.1, 4631.156, -0.015520556, -0.005474166, -1216234.1, 358.0932, 0.00000006033416, 9.998566, 10.000742 
2.4997663e+1, 1.8585806e+2, -1277451.3, -1237768.0, -7645.8926, 0.0033690264, 0.015461322, -1236345.9, -117755.87, 0.0, 9.99913, 9.999651 
2.499853e+1, 1.9585763e+2, -1060706.6, -1082002.0, 5274.7163, 0.024697986, 0.0018907333, -1059471.8, -38875.105, 0.0, 9.999944, 9.999656 
2.4999477e+1, 2.0585746e+2, -927437.25, -956898.3, 26193.934, 0.020266134, 0.013094567, -912116.0, 10482.772, 0.0, 10.000142, 9.999744 
2.5000474e+1, 2.1585737e+2, -870422.7, -886477.06, 16594.607, -0.0038257954, 0.026756313, -860015.75, -35417.43, 0.0, 9.999895, 9.999674 
2.5001475e+1, 2.2585654e+2, -778708.9, -868892.56, 6852.7207, -0.008879759, 0.012773805, -778191.1, -51584.973, 0.0, 10.000184, 9.998982 
2.5002483e+1, 2.3585516e+2, -582340.44, -724567.44, 13009.31, 0.00035938527, -0.02817636, -581160.25, 47459.43, 0.0, 10.000865, 9.998972 
2.5003457e+1, 2.4585405e+2, -411017.25, -587866.9, 11004.299, 0.0050289053, -0.03794617, -410335.16, 120293.9, 0.0, 10.001353, 9.999004 
2.5004417e+1, 2.5585306e+2, -266704.2, -474001.66, -918.9212, 0.0062252358, -0.04261859, -266700.13, 165935.84, 0.0, 10.001699, 9.998946 
2.5005528e+1, 2.6585144e+2, -163454.17, -458940.34, -6517.526, 0.017728746, -0.056601763, -163310.48, 171340.16, 0.0, 10.002105, 9.998181 
2.500676e+1, 2.7584943e+2, -2102.9487, -338030.88, -13125.717, 0.037434753, -0.08051715, -1590.8679, 235079.8, 0.0, 10.002572, 9.998114 
2.5007647e+1, 2.8584766e+2, 133509.28, -274370.06, -10814.013, 0.02275311, -0.043808103, 133795.78, 272483.7, 0.0000000086392555, 10.003057, 9.9976425 
2.5008252e+1, 2.9584593e+2, 301072.06, -140470.06, -5209.203, -0.021570213, 0.0120150335, 301133.53, 341837.97, 0.0000063841276, 10.003524, 9.997665 
2.5009328e+1, 3.0584124e+2, 341358.8, -196910.55, -7787.683, -0.021500155, -0.17836672, 341471.44, 341471.44, 0.00007245626, 10.003902, 9.996766 
2.5010684e+1, 3.1583866e+2, 538196.0, 135167.36, -31037.406, 0.008108713, -0.110780664, 540572.2, 540572.2, 0.00026107463, 10.004233, 9.998887 
3.499095e+1, 1.2585175e+2, -1927361.8, -1544875.3, -35813.074, 0.055469923, -0.052830923, -1541550.9, 165098.7, 0.0012623775, 9.997365, 10.002435 
3.4990117e+1, 1.3585196e+2, -1976836.3, -1682920.0, -12536.991, -0.07253394, -0.130302, -1682386.3, -73740.16, 0.000755357, 9.9970665, 10.0009575 
3.499097e+1, 1.4585473e+2, -1829842.6, -1540285.0, 16891.44, -0.07152605, 0.040151253, -1539303.0, -28683.734, 0.00033918672, 9.99731, 10.001142 
3.499318e+1, 1.5585506e+2, -1647593.4, -1416100.0, 21950.844, 0.037516914, -0.037241057, -1414036.9, -1419.4525, 0.00009620481, 9.997951, 10.00101 
3.499443e+1, 1.6585563e+2, -1523281.4, -1354078.6, 24580.227, 0.039027598, -0.05726643, -1350580.3, -35967.926, 0.000010539653, 9.998342, 10.000576 
3.4995013e+1, 1.758562e+2, -1396664.3, -1247917.9, 15508.815, -0.03496482, -0.062412713, -1246318.1, -29711.568, 0.000000028001644, 9.998563, 10.000525 
3.499625e+1, 1.8585669e+2, -1255898.0, -1191930.1, 22503.582, -0.052254066, -0.03609112, -1184806.8, -66204.055, 0.0, 9.9991255, 9.999968 
3.4997937e+1, 1.9585717e+2, -1042935.8, -1043871.06, 33343.066, -0.02996715, 0.011566707, -1010057.06, 10542.656, 0.0, 9.999938, 9.99992 
3.4999484e+1, 2.0585701e+2, -943525.9, -988022.5, 16197.775, 0.0060601486, 0.02503504, -938254.06, -15652.439, 0.0, 10.0001335, 9.999535 
3.500094e+1, 2.1585631e+2, -883704.75, -912351.94, 10926.209, 0.05275758, -0.0030000098, -880013.2, -55405.37, 0.0, 9.999888, 9.999499 
3.5002154e+1, 2.2585556e+2, -766195.25, -841325.5, 31852.686, 0.039657112, -0.010672468, -754508.6, -27893.945, 0.0, 10.000177, 9.999175 
3.50032e+1, 2.358548e+2, -572660.75, -703151.3, 38505.953, -0.015310932, -0.007848145, -562145.56, 66476.305, 0.0, 10.000859, 9.999123 
3.5004738e+1, 2.4585362e+2, -433488.78, -632577.9, 23458.574, -0.0030914955, -0.014673897, -430762.0, 99870.23, 0.0, 10.001346, 9.9987 
3.500663e+1, 2.5585207e+2, -289584.7, -518975.78, 12963.324, 0.056688163, -0.043389928, -288854.4, 143791.06, 0.0, 10.00169, 9.998641 
3.5007817e+1, 2.6585016e+2, -175786.19, -483599.5, 10157.432, 0.03533075, -0.06692549, -175451.38, 159212.53, 0.0, 10.002101, 9.9980135 
3.5008544e+1, 2.7584797e+2, -11741.3, -355947.84, 5498.822, -0.042217363, -0.08953459, -11653.477, 225032.06, 0.0, 10.002563, 9.997994 
3.5010302e+1, 2.8584632e+2, 143507.53, -251735.39, 6522.587, -0.018351993, -0.04603398, 143615.14, 282316.7, 0.000000011844628, 10.00305, 9.997802 
3.5012707e+1, 2.9584482e+2, 307067.8, -125185.016, 12702.433, 0.070652306, 0.019848278, 307440.78, 348156.1, 0.0000061783935, 10.003514, 9.997774 
3.501387e+1, 3.058403e+2, 319844.63, -240059.84, 3596.5408, 0.041701965, -0.1423973, 319867.72, 319867.72, 0.00006980898, 10.003897, 9.996472 
3.501399e+1, 3.1583813e+2, 513113.94, 85150.79, -21772.941, -0.08709422, -0.0038140062, 514218.8, 514218.8, 0.00025315434, 10.004226, 9.998547 
4.498785e+1, 1.2585135e+2, -2054092.9, -1593358.4, -17093.668, 0.05592769, 0.018834596, -1592725.0, 113930.305, 0.0011988538, 9.996439, 10.002552 
4.49875e+1, 1.3585092e+2, -1915473.9, -1646129.0, -14887.139, -0.059983626, -0.12790097, -1645308.6, -36652.02, 0.0007112032, 9.9974575, 10.001023 
4.4988576e+1, 1.4585352e+2, -1758505.8, -1506014.9, -16.515959, -0.06677454, 0.023555413, -1506014.9, 4615.9365, 0.00031351, 9.9978, 10.001141 
4.4990817e+1, 1.5585415e+2, -1688883.5, -1436887.3, -3891.1318, 0.02060862, -0.02452596, -1436827.1, -24200.922, 0.000084590996, 9.997671, 10.001004 
4.4992498e+1, 1.6585472e+2, -1563678.4, -1379336.9, 16078.244, 0.024929002, -0.041707896, -1377945.0, -63323.945, 0.000007991499, 9.99809, 10.000525 
4.49938e+1, 1.7585509e+2, -1348949.5, -1228679.9, 21934.227, -0.029477274, -0.06353761, -1224804.5, -8187.233, 0.000000008983813, 9.998907, 10.000493 
4.4995508e+1, 1.8585554e+2, -1237621.6, -1171580.9, 22240.941, -0.04263294, -0.043767776, -1164789.1, -46175.813, 0.0, 9.999202, 10.000072 
4.4997475e+1, 1.9585614e+2, -1156004.5, -1088599.3, 16015.837, -0.028601043, 0.005133873, -1084987.4, -64378.74, 0.0, 9.999121, 10.000008 
4.4999328e+1, 2.058559e+2, -1028407.1, -1037373.25, -1756.1702, 0.0047459705, 0.012311133, -1028075.44, -105464.52, 0.0, 9.999586, 9.999461 
4.500111e+1, 2.1585505e+2, -808325.7, -884348.2, 2368.267, 0.053320833, -0.027030233, -808251.94, 16366.914, 0.0, 10.000441, 9.999426 
4.5002803e+1, 2.2585425e+2, -663333.94, -804494.75, 21202.186, 0.048908, -0.028273162, -660218.1, 66408.17, 0.0, 10.000938, 9.999063 
4.5004436e+1, 2.3585357e+2, -533654.9, -697200.94, 3858.0776, 0.0068335636, -0.0075597893, -533563.9, 95069.26, 0.0, 10.001183, 9.999008 
4.5006305e+1, 2.4585234e+2, -418886.94, -648244.3, -16853.354, 0.009728959, -0.002359067, -417655.16, 112989.55, 0.0, 10.001544, 9.998498 
4.5008343e+1, 2.5585067e+2, -257967.03, -524688.7, -20308.664, 0.04383329, -0.023205213, -256429.56, 176230.67, 0.0, 10.001996, 9.998455 
4.5009956e+1, 2.6584867e+2, -128775.16, -458298.5, -8603.289, 0.023935966, -0.047146857, -128550.695, 206128.75, 0.0, 10.002412, 9.998038 
4.5011327e+1, 2.7584642e+2, 22399.88, -337816.47, -779.1621, -0.03133927, -0.07829898, 22401.566, 259102.45, 0.0, 10.00279, 9.998011 
4.5013478e+1, 2.8584468e+2, 133731.84, -271305.0, -8964.228, -0.0051264986, -0.037507445, 133930.14, 272647.9, 0.000000014278152, 10.003048, 9.997669 
4.501609e+1, 2.9584306e+2, 259649.83, -163038.95, -24933.615, 0.07107566, 0.030236898, 261115.53, 301848.78, 0.0000058442592, 10.003253, 9.997642 
4.5017663e+1, 3.058385e+2, 303014.84, -249701.97, -21758.158, 0.03746093, -0.1289135, 303870.06, 303870.06, 0.00006621042, 10.003788, 9.99646 
4.5018277e+1, 3.1583664e+2, 541291.75, 83150.54, -33676.465, -0.09293526, 0.04222591, 543754.0, 543754.0, 0.0002426259, 10.004483, 9.998413 
5.4983526e+1, 1.2585081e+2, -2062135.5, -1612237.9, 18817.031, -0.023267621, 0.07143131, -1611452.3, 95208.72, 0.0011275938, 9.996449, 10.002418 
5.4986006e+1, 1.3584986e+2, -1927653.1, -1671427.1, 19774.275, 0.04340364, -0.10755447, -1669910.0, -61242.164, 0.00066134764, 9.9974575, 10.000851 
5.498713e+1, 1.4585207e+2, -1766027.5, -1520364.8, -5295.789, 0.007516294, 0.01790781, -1520250.6, -9604.699, 0.00028458898, 9.997795, 10.001045 
5.498742e+1, 1.5585262e+2, -1694221.9, -1448692.8, -4787.8877, -0.08801251, -0.028382001, -1448599.4, -35957.547, 0.00007188515, 9.997675, 10.000922 
5.498954e+1, 1.6585347e+2, -1551158.3, -1353891.8, 46193.55, -0.081412755, -0.023152104, -1343610.5, -28976.781, 0.0000055425044, 9.998093, 10.000699 
5.4993e+1, 1.7585437e+2, -1338674.3, -1206834.5, 50268.7, -0.0014872671, -0.0075062243, -1189854.5, 26769.887, 0.00000000116644, 9.998905, 10.000644 
5.499543e+1, 1.8585466e+2, -1246031.9, -1187206.9, 18562.768, 0.028548913, -0.0069255386, -1181839.1, -63217.367, 0.0, 9.999194, 9.999968 
5.499712e+1, 1.9585456e+2, -1162617.9, -1101453.1, 16534.49, 0.023471856, -0.017856834, -1097269.6, -76646.3, 0.0, 9.999118, 9.999921 
5.499899e+1, 2.0585418e+2, -1023699.4, -1026591.2, 30205.615, 0.011180586, -0.026432538, -994905.06, -72278.5, 0.0, 9.999582, 9.999537 
5.5000967e+1, 2.1585354e+2, -807449.56, -880881.4, 33455.105, -0.005986894, -0.045169387, -794493.56, 30138.047, 0.0, 10.000434, 9.9994545 
5.500341e+1, 2.2585261e+2, -693340.0, -864526.0, 29795.227, 0.014768605, -0.040683996, -688302.3, 38338.707, 0.0, 10.00093, 9.998654 
5.500619e+1, 2.3585145e+2, -561257.0, -753440.9, 14266.251, 0.062775314, -0.02603055, -560203.75, 68449.8, 0.0, 10.001178, 9.998624 
5.500815e+1, 2.458502e+2, -425396.75, -660998.0, -398.76056, 0.038576175, -0.0018846372, -425396.06, 105270.51, 0.0, 10.00154, 9.998412 
5.500953e+1, 2.5584885e+2, -263166.13, -534014.4, -2733.6501, -0.037515398, 0.017999776, -263138.56, 169541.67, 0.0, 10.001989, 9.998395 
5.5011934e+1, 2.6584703e+2, -113984.35, -426470.9, 5366.8765, -0.020820042, 0.001213887, -113892.2, 220805.14, 0.0, 10.002408, 9.998259 
5.501509e+1, 2.758448e+2, 32288.322, -315291.94, 13190.842, 0.064701125, -0.04628105, 32788.203, 269504.88, 0.0, 10.002784, 9.998168 
5.5017155e+1, 2.858428e+2, 103453.11, -333957.56, -2356.096, 0.056810524, -0.017377377, 103465.805, 242202.28, 0.000000014996283, 10.003046, 9.99724 
5.501839e+1, 2.958407e+2, 233968.66, -215233.16, -13952.0205, -0.025604185, 0.04570273, 234401.6, 275159.56, 0.0000053587105, 10.003247, 9.997286 
5.502069e+1, 3.0583587e+2, 321208.66, -211069.3, 4738.885, -0.03967162, -0.13885723, 321250.84, 321250.84, 0.000061679886, 10.003784, 9.996727 
5.50235e+1, 3.1583416e+2, 545888.2, 94510.06, -8536.643, -0.021527648, 0.022572141, 546049.56, 546049.56, 0.00022954191, 10.004477, 9.998494 
6.498008e+1, 1.2584873e+2, -1986067.0, -1591896.4, -17480.918, -0.04203628, 0.039180372, -1591122.6, 115557.586, 0.001052614, 9.997043, 10.002269 
6.4983124e+1, 1.3584815e+2, -2030974.8, -1739281.1, -18142.73, 0.042010896, -0.0871848, -1738157.0, -129471.7, 0.00060904585, 9.996828, 10.000687 
6.498473e+1, 1.4585024e+2, -1838632.1, -1547629.5, -34223.84, 0.015485481, 0.03025648, -1543658.8, -32994.03, 0.000254567, 9.997265, 10.001114 
6.498546e+1, 1.5585059e+2, -1615952.5, -1403591.3, -22079.555, -0.07631684, -0.041161492, -1401319.9, 11341.793, 0.00005931439, 9.998181, 10.000987 
6.498793e+1, 1.6585153e+2, -1495086.3, -1323035.8, 27004.418, -0.0699082, -0.032025203, -1318896.9, -4244.5503, 0.0000034805446, 9.998461, 10.000733 
6.499166e+1, 1.7585269e+2, -1426825.5, -1246684.0, 20343.41, 0.0057251747, 0.007409718, -1244415.1, -27774.979, 0.00000000000024211628, 9.998289, 10.000668 
6.4994484e+1, 1.8585286e+2, -1308361.3, -1224783.4, -7907.1265, 0.035099793, -0.0012404438, -1224041.9, -105403.484, 0.0, 9.998801, 9.999898 
6.499667e+1, 1.9585234e+2, -1067704.0, -1063975.5, -8306.183, 0.032416753, -0.046511997, -1057327.0, -36683.35, 0.0, 9.999805, 9.9998455 
6.4999026e+1, 2.058519e+2, -930648.4, -1000630.06, -2266.241, 0.02068523, -0.04862937, -930575.06, -7927.033, 0.0, 10.000303, 9.999367 
6.500147e+1, 2.1585149e+2, -817304.44, -902600.8, -18299.76, 0.0015681704, -0.03074652, -813544.1, 11108.001, 0.0, 10.000442, 9.9993 
6.500425e+1, 2.2585046e+2, -725384.5, -880473.3, -16793.521, 0.017377052, -0.02731569, -723586.9, 3075.4695, 0.0, 10.000712, 9.99865 
6.500727e+1, 2.35849e+2, -576824.75, -761456.6, -2104.6384, 0.058599126, -0.04291359, -576800.75, 51876.246, 0.0, 10.001074, 9.998619 
6.500966e+1, 2.4584767e+2, -430904.88, -668893.44, 5389.9653, 0.036293615, -0.023316765, -430782.88, 99907.72, 0.0, 10.001525, 9.998366 
6.50116e+1, 2.5584644e+2, -258368.84, -536152.25, 4965.3794, -0.031457763, 0.010700981, -258280.11, 174423.52, 0.0, 10.002042, 9.998356 
6.501438e+1, 2.6584458e+2, -119722.97, -434225.25, -2121.3684, -0.015032524, -0.0028831782, -119708.664, 215012.31, 0.0, 10.002391, 9.998213 
6.5017784e+1, 2.7584228e+2, 6847.4727, -333230.66, -14578.522, 0.06440394, -0.056271233, 7471.2827, 244212.61, 0.0, 10.002634, 9.9981165 
6.5020126e+1, 2.858402e+2, 106554.48, -338164.44, -17455.297, 0.047969434, -0.024830597, 107238.55, 245999.97, 0.000000013847158, 10.003092, 9.997189 
6.502165e+1, 2.958382e+2, 295147.5, -189117.98, -1638.259, -0.04557199, 0.048017036, 295153.06, 335935.44, 0.0000047556837, 10.003683, 9.997255 
6.5024585e+1, 3.0583322e+2, 370871.84, -180615.95, 25190.063, -0.043268032, -0.15384577, 372020.06, 372020.06, 0.000056396846, 10.004098, 9.996784 
6.502817e+1, 3.1583142e+2, 523503.38, 66181.88, -10131.636, 0.0030006396, -0.0051814155, 523727.72, 523727.72, 0.00021421668, 10.004398, 9.998336 
7.49775e+1, 1.2584506e+2, -1997028.3, -1615374.1, -29001.14, -0.0068404805, -0.085147195, -1613183.0, 93530.42, 0.0009783517, 9.9970455, 10.002106 
7.49788e+1, 1.3584569e+2, -2040670.6, -1762467.0, -21851.844, -0.075822376, -0.07075663, -1760761.1, -152051.86, 0.00055803865, 9.99684, 10.000522 
7.4981326e+1, 1.4584795e+2, -1821016.3, -1512768.5, -297.26306, -0.05420481, 0.058371283, -1512768.3, -2080.7485, 0.00022607559, 9.997272, 10.001349 
7.498497e+1, 1.5584806e+2, -1601044.3, -1372649.5, 9391.348, 0.055363998, -0.061517596, -1372264.0, 40421.586, 0.000048170983, 9.99818, 10.001201 
7.498768e+1, 1.658489e+2, -1502506.8, -1336885.3, 20077.55, 0.058279965, -0.067816995, -1334486.1, -19809.488, 0.0000019773436, 9.998455, 10.000641 
7.498976e+1, 1.7585005e+2, -1433172.6, -1260307.1, 18418.23, -0.014897012, -0.01955879, -1258366.5, -41702.03, 0.0, 9.998292, 10.000572 
7.4992645e+1, 1.8585014e+2, -1310857.3, -1230145.5, 29875.566, -0.030704867, -0.028291695, -1220290.4, -101626.984, 0.0, 9.998802, 9.999862 
7.4996126e+1, 1.9584954e+2, -1072867.6, -1073861.3, 27248.96, -0.004110527, -0.079988115, -1046110.94, -25441.262, 0.0, 9.999802, 9.99978 
7.4999434e+1, 2.0584913e+2, -960180.5, -1060168.1, 2489.5913, 0.030749587, -0.053885445, -960118.56, -37443.383, 0.0, 10.000297, 9.998961 
7.5002617e+1, 2.1584883e+2, -841823.7, -952385.8, -11669.481, 0.07080468, 0.016766854, -840605.44, -15924.836, 0.0, 10.000437, 9.9989605 
7.5005317e+1, 2.258478e+2, -697133.6, -821219.7, -3576.2998, 0.051466357, 0.011352639, -697030.7, 29659.781, 0.0, 10.00071, 9.999058 
7.5007665e+1, 2.3584619e+2, -551076.5, -707433.5, 12576.226, -0.009396102, -0.058636293, -550071.44, 78632.22, 0.0, 10.001071, 9.998993 
7.501082e+1, 2.4584474e+2, -431754.9, -669277.44, 24471.451, -0.00067509327, -0.068217315, -429259.88, 101457.07, 0.0, 10.001519, 9.998366 
7.5014544e+1, 2.558434e+2, -261159.69, -540546.06, 23805.885, 0.056984536, -0.043743607, -259145.77, 173584.66, 0.0, 10.002036, 9.998328 
7.5017303e+1, 2.6584134e+2, -141268.97, -478560.44, 6119.373, 0.036998745, -0.058280237, -141157.98, 193592.31, 0.0, 10.002389, 9.99791 
7.5019425e+1, 2.758388e+2, -12046.9, -371143.16, -3308.9597, -0.035882726, -0.107959405, -12016.412, 224758.38, 0.0, 10.002627, 9.997859 
7.5022393e+1, 2.8583694e+2, 128973.31, -290801.8, 4222.9346, -0.03640898, -0.06060186, 129015.8, 267808.4, 0.000000011324871, 10.003089, 9.997516 
7.502584e+1, 2.9583547e+2, 315182.34, -146326.33, 20017.012, 0.00460948, 0.035824273, 316048.9, 356855.53, 0.000004098041, 10.003678, 9.997552 
7.502932e+1, 3.058305e+2, 359935.8, -203070.48, 35965.574, 0.01964304, -0.17297576, 362224.03, 362224.03, 0.000050636394, 10.004097, 9.99663 
7.503229e+1, 3.158284e+2, 495400.66, 10106.963, -1127.8536, -0.027784593, -0.03721654, 495403.28, 495403.28, 0.00019719901, 10.004389, 9.997953 
8.4974176e+1, 1.2584217e+2, -2067929.1, -1635179.4, -37115.363, -0.01669479, -0.114036724, -1632019.3, 74721.234, 0.00090933184, 9.996496, 10.002235 
8.49756e+1, 1.3584302e+2, -1990368.5, -1730593.5, -7251.0986, -0.09416624, -0.084130354, -1730391.4, -121657.34, 0.0005120121, 9.997152, 10.00059 
8.497864e+1, 1.458452e+2, -1791467.9, -1511670.9, 20993.248, -0.062759764, 0.04080188, -1510104.5, 608.56995, 0.00020159004, 9.997533, 10.001231 
8.498309e+1, 1.5584534e+2, -1673980.4, -1421407.3, 1526.9603, 0.072067305, -0.06409364, -1421398.0, -8686.844, 0.000039447743, 9.997742, 10.001077 
8.4986204e+1, 1.6584593e+2, -1537325.1, -1368486.8, -9091.563, 0.07482768, -0.08181475, -1367998.5, -53293.84, 0.0000010481418, 9.9982815, 10.000506 
8.498841e+1, 1.7584665e+2, -1330919.0, -1224302.4, -14299.437, -0.016291227, -0.06405571, -1222417.9, -5720.955, 0.0, 9.999052, 10.000452 
8.4991693e+1, 1.8584679e+2, -1222704.9, -1186301.1, 7054.2563, -0.035861336, -0.06385183, -1184981.9, -66286.414, 0.0, 9.999401, 9.999874 
8.4995735e+1, 1.9584657e+2, -1122323.0, -1095579.1, 7542.173, -0.0048867026, -0.07702678, -1093598.8, -72900.625, 0.0, 9.9994545, 9.999797 
8.4999484e+1, 2.0584624e+2, -1022069.4, -1087570.3, -656.3111, 0.028368143, -0.045396753, -1022062.75, -99359.81, 0.0, 9.999862, 9.998982 
8.500302e+1, 2.1584578e+2, -829034.3, -944482.44, 15886.465, 0.06366258, 0.0067744404, -826888.1, -2178.2012, 0.0, 10.000516, 9.998978 
8.500605e+1, 2.2584471e+2, -651207.5, -799300.4, 20293.246, 0.038890153, -0.0017120887, -648477.06, 78242.88, 0.0, 10.001025, 9.999056 
8.5008734e+1, 2.358432e+2, -497943.22, -682061.7, 4475.0176, -0.028306775, -0.062178236, -497834.53, 130897.59, 0.0, 10.001438, 9.998989 
8.5012364e+1, 2.4584171e+2, -397229.28, -661915.2, 2068.7976, -0.011488395, -0.073315464, -397213.13, 133532.73, 0.0, 10.001797, 9.998282 
8.501669e+1, 2.5584018e+2, -255655.77, -548043.3, -5650.2354, 0.064289205, -0.057649203, -255546.61, 177214.27, 0.0, 10.002118, 9.998237 
8.5019815e+1, 2.6583803e+2, -128617.26, -486420.38, -19620.99, 0.041919414, -0.072909355, -127544.516, 207237.69, 0.0, 10.002535, 9.997786 
8.502214e+1, 2.758354e+2, 37359.07, -358627.94, -16618.064, -0.04601245, -0.117856376, 38055.242, 274863.28, 0.0, 10.003015, 9.997759 
8.502549e+1, 2.858336e+2, 170890.16, -264006.3, -10818.661, -0.047511224, -0.06494512, 171159.11, 309984.78, 0.000000007967864, 10.003347, 9.997577 
8.502943e+1, 2.9583228e+2, 306223.3, -143463.95, -16649.818, 0.00026677366, 0.04093748, 306838.94, 347677.13, 0.0000034232567, 10.003585, 9.997617 
8.503339e+1, 3.058274e+2, 342471.13, -196579.22, 851.2386, 0.02724074, -0.16364054, 342472.5, 342472.5, 0.00004462947, 10.003911, 9.996765 
8.503672e+1, 3.158255e+2, 463619.16, -21975.23, -19904.957, -0.015098385, -0.022747718, 464433.72, 464433.72, 0.00017906453, 10.004241, 9.997806 
9.497002e+1, 1.2584002e+2, -2037319.1, -1573328.1, -16409.9, -0.08497997, -0.045853335, -1572748.5, 134012.9, 0.0008487081, 9.996503, 10.002658 
9.497359e+1, 1.3584013e+2, -1968565.4, -1686800.6, 16256.92, -0.011975648, -0.12676719, -1685865.9, -77106.5, 0.00047347447, 9.997157, 10.000889 
9.49767e+1, 1.4584202e+2, -1824398.8, -1579716.4, 28330.55, -0.011102331, -0.021462457, -1576479.0, -65737.76, 0.00018256163, 9.997532, 10.000765 
9.497977e+1, 1.5584242e+2, -1705271.5, -1487747.0, 12456.862, -0.03637107, -0.050972994, -1487036.0, -74297.56, 0.00003354367, 9.997746, 10.000619 
9.498345e+1, 1.6584262e+2, -1550946.8, -1396712.6, 19926.56, -0.030681634, -0.07603663, -1394179.8, -79443.086, 0.00000057940093, 9.998282, 10.000312 
9.498764e+1, 1.7584248e+2, -1342482.4, -1248000.1, 12962.251, 0.00016662462, -0.12632862, -1246254.0, -29516.545, 0.0, 9.99905, 10.00029 
9.4991636e+1, 1.8584278e+2, -1217525.5, -1175215.9, 8344.54, 0.017605614, -0.106698185, -1173629.6, -54894.83, 0.0, 9.999399, 9.99995 
9.49955e+1, 1.9584346e+2, -1115134.3, -1080756.3, 12078.443, 0.024962867, -0.03760268, -1076936.9, -56207.96, 0.0, 9.999455, 9.999899 
9.499916e+1, 2.0584324e+2, -991711.0, -1023762.9, 23754.803, 0.009057822, -0.022982834, -979081.75, -56350.367, 0.0, 9.999858, 9.999423 
9.5002675e+1, 2.1584234e+2, -803451.94, -890406.6, 40446.633, -0.023051055, -0.060605116, -787547.4, 37192.86, 0.0, 10.000511, 9.9993515 
9.500646e+1, 2.2584124e+2, -681254.94, -860294.1, 35255.438, -0.023805698, -0.06620745, -674562.75, 52188.1, 0.0, 10.0010195, 9.99864 
9.501045e+1, 2.3584004e+2, -526502.1, -739719.56, 20147.824, -0.0014243458, -0.05418116, -524615.0, 104147.56, 0.0, 10.001431, 9.998596 
9.50143e+1, 2.4583854e+2, -409181.7, -685946.25, 13425.841, 0.00083955843, -0.038175456, -408531.94, 122245.49, 0.0, 10.001793, 9.998119 
9.501804e+1, 2.5583676e+2, -267038.97, -570385.6, 7589.3193, -0.013227778, -0.032367654, -266849.22, 165945.9, 0.0, 10.002112, 9.998086 
9.50219e+1, 2.6583454e+2, -126003.055, -479854.8, -2023.5688, -0.003435379, -0.04781004, -125991.48, 208825.33, 0.0, 10.00253, 9.997834 
9.5025903e+1, 2.7583203e+2, 39680.13, -352865.84, 959.17, 0.027676595, -0.085714474, 39682.473, 276523.6, 0.0, 10.003011, 9.997802 
9.50294e+1, 2.858301e+2, 156723.36, -292685.34, -3148.5098, 0.0085859215, -0.03626386, 156745.4, 295605.9, 0.0000000042394483, 10.003345, 9.997381 
9.503241e+1, 2.9582855e+2, 293087.84, -168138.55, -6141.0146, -0.061039522, 0.06319812, 293169.6, 334046.5, 0.000002739973, 10.003573, 9.997453 
9.503681e+1, 3.0582398e+2, 370716.56, -135606.53, 13195.644, -0.022863809, -0.12686785, 371060.22, 371060.22, 0.000038513957, 10.003902, 9.997187 
9.5041436e+1, 3.1582266e+2, 468808.53, -9961.319, -7480.016, 0.030194914, 0.033460237, 468925.38, 468925.38, 0.00016023204, 10.004236, 9.9978895 
1.0496626e+2, 1.2583663e+2, -2070778.3, -1587823.0, -40249.824, -0.098056406, -0.03758286, -1584491.5, 122302.76, 0.00079770345, 9.996268, 10.002669 
1.0497085e+2, 1.3583668e+2, -1996454.5, -1701236.6, -38061.66, 0.0074308957, -0.12504394, -1696408.5, -87615.836, 0.0004431459, 9.996972, 10.000878 
1.0497436e+2, 1.4583832e+2, -1814782.3, -1577100.4, -26960.488, -0.0012941707, -0.04132851, -1574080.5, -63303.953, 0.00016917764, 9.997605, 10.000748 
1.0497741e+2, 1.5583876e+2, -1644576.8, -1461864.1, -9738.851, -0.06708228, -0.065677315, -1461346.5, -48573.277, 0.000030278157, 9.998177, 10.000589 
1.0498164e+2, 1.6583902e+2, -1512738.8, -1390144.9, 23302.223, -0.055756602, -0.077590495, -1385865.1, -71093.9, 0.0000004316036, 9.998594, 10.000208 
1.0498674e+2, 1.7583898e+2, -1369879.5, -1272417.6, 21125.111, 0.0130141415, -0.10871564, -1268035.8, -51263.855, 0.0, 9.998912, 10.00019 
1.04991175e+2, 1.858392e+2, -1231609.5, -1190909.8, 4107.6543, 0.035004713, -0.086681664, -1190499.3, -71729.15, 0.0, 9.999342, 9.99987 
1.0499513e+2, 1.9583969e+2, -1062052.6, -1062869.1, -5051.7373, 0.023102455, -0.027881363, -1057392.6, -36626.51, 0.0, 9.999851, 9.999831 
1.0499902e+2, 2.0583938e+2, -939744.25, -988977.94, -7879.6387, -0.0057493406, -0.023593212, -938513.9, -15744.877, 0.0, 10.000173, 9.999511 
1.05002865e+2, 2.1583846e+2, -821394.75, -890941.06, -18274.424, -0.046994846, -0.0715371, -816885.25, 7891.9688, 0.0, 10.000356, 9.999422 
1.0500727e+2, 2.2583732e+2, -725291.6, -901543.4, -19605.393, -0.033394553, -0.07430762, -723137.2, 3651.324, 0.0, 10.000805, 9.99846 
1.0501209e+2, 2.3583607e+2, -536119.94, -763682.56, -18492.814, 0.01997879, -0.049886886, -534626.94, 94174.9, 0.0, 10.001447, 9.998425 
1.0501629e+2, 2.4583453e+2, -382279.06, -672915.5, -14764.748, 0.011975838, -0.029763259, -381530.9, 149286.45, 0.0, 10.001977, 9.998121 
1.05020024e+2, 2.5583273e+2, -220457.47, -546857.1, -10161.883, -0.041433383, -0.02678726, -220141.4, 212693.53, 0.0, 10.002427, 9.998096 
1.0502423e+2, 2.6583058e+2, -102674.06, -463925.34, -16340.476, -0.03012023, -0.039719287, -101936.44, 232919.45, 0.0, 10.002668, 9.997878 
1.0502883e+2, 2.7582818e+2, 3073.2473, -368513.25, -14993.389, 0.032412577, -0.07059788, 3677.2437, 240556.31, 0.0, 10.002749, 9.997821 
1.0503272e+2, 2.8582615e+2, 102458.22, -339414.8, -16045.81, 0.020490525, -0.02369676, 103040.125, 241940.05, 0.0000000012344323, 10.003059, 9.997198 
1.0503599e+2, 2.9582432e+2, 277355.5, -192287.61, -18225.71, -0.058190554, 0.069015756, 278061.72, 318981.1, 0.0000020653147, 10.003534, 9.997307 
1.0504079e+2, 3.058199e+2, 407200.56, -94913.2, -1800.647, -0.022114856, -0.111271225, 407207.0, 407207.0, 0.00003243676, 10.00405, 9.997397 
1.0504574e+2, 3.1581867e+2, 507844.9, -2687.9521, -42908.688, 0.02170568, 0.038077757, 511426.13, 511426.13, 0.0001410817, 10.004554, 9.997788 
1.14962906e+2, 1.2583198e+2, -2099450.5, -1647472.1, -15606.363, -0.06355816, -0.09204575, -1646933.9, 59905.313, 0.0007564602, 9.99627, 10.002259 
1.1496731e+2, 1.358326e+2, -2019207.6, -1748661.9, -11023.916, -0.04483513, -0.08170215, -1748213.5, -139379.27, 0.00042056636, 9.996972, 10.000553 
1.14971556e+2, 1.4583409e+2, -1785815.6, -1516223.4, -5493.8438, -0.043366417, -0.021111254, -1516111.5, -5292.076, 0.00016082273, 9.997602, 10.001166 
1.1497605e+2, 1.5583432e+2, -1616399.0, -1404786.6, 11843.895, -0.022563746, -0.10823882, -1404125.9, 8689.864, 0.000029173776, 9.998182, 10.000978 
1.1498077e+2, 1.6583511e+2, -1511942.3, -1389568.9, 34349.867, -0.0024517782, -0.085051686, -1380586.4, -65778.07, 0.0000005105562, 9.998599, 10.00021 
1.149857e+2, 1.7583612e+2, -1371386.6, -1276269.3, 34385.066, 0.016484825, -0.010325415, -1265141.0, -48341.023, 0.0, 9.998914, 10.000162 
1.1499027e+2, 1.8583605e+2, -1249699.9, -1227719.5, 23163.09, 0.00984278, -0.0041010776, -1213071.6, -94269.89, 0.0, 9.999339, 9.999619 
1.1499463e+2, 1.9583525e+2, -1079546.6, -1098815.0, 13820.769, -0.013395188, -0.04861507, -1072333.6, -51523.598, 0.0, 9.99985, 9.999585 
1.1499907e+2, 2.0583467e+2, -958755.7, -1027579.4, -1679.7944, -0.019009953, -0.04731045, -958714.7, -35898.68, 0.0, 10.000168, 9.999248 
1.1500358e+2, 2.1583417e+2, -838381.1, -925227.06, -9391.536, -0.011694802, -0.026369834, -837377.1, -12556.151, 0.0, 10.000351, 9.999188 
1.1500848e+2, 2.25833e+2, -722343.8, -894367.4, 4227.854, 0.0064752917, -0.026530916, -722240.0, 4592.919, 0.0, 10.0008, 9.998512 
1.15013674e+2, 2.3583132e+2, -532926.75, -755702.7, 5825.4424, 0.03247837, -0.04874851, -532774.56, 96075.336, 0.0, 10.001441, 9.998482 
1.1501834e+2, 2.458297e+2, -372263.4, -650768.94, 1706.2795, 0.018692609, -0.04708638, -372252.97, 158612.55, 0.0, 10.001971, 9.998277 
1.1502262e+2, 2.5582808e+2, -210046.66, -523821.1, 6234.107, -0.025247613, -0.040121846, -209922.84, 222957.45, 0.0, 10.002421, 9.998258 
1.1502679e+2, 2.6582608e+2, -100305.02, -458253.25, -14162.415, -0.04160371, -0.04779491, -99745.555, 235153.92, 0.0, 10.0026655, 9.997918 
1.1503092e+2, 2.758238e+2, 2688.9473, -368102.63, -10252.272, -0.03426203, -0.073979385, 2972.2031, 239894.23, 0.0, 10.002744, 9.997827 
1.1503544e+2, 2.8582162e+2, 89510.36, -364571.5, 1084.2609, -0.013830402, -0.029172506, 89512.945, 228457.02, 0.00000000006210851, 10.003053, 9.997029 
1.1504012e+2, 2.9581958e+2, 267630.75, -212094.45, 1212.3379, 0.0008293602, 0.058930732, 267633.84, 308599.22, 0.0000014487281, 10.003533, 9.997172 
1.15045294e+2, 3.058152e+2, 407263.16, -93325.94, 16863.898, 0.022910105, -0.114930935, 407830.63, 407830.63, 0.000026628812, 10.0040455, 9.997411 
1.1504964e+2, 3.1581354e+2, 485817.34, -44988.605, -23142.244, -0.046602778, -0.007910236, 486824.4, 486824.4, 0.00012212119, 10.0045395, 9.997504 
1.2495931e+2, 1.2582734e+2, -2066969.0, -1632465.3, -29003.229, -0.061066173, -0.098846085, -1630537.8, 76346.766, 0.0007247361, 9.996496, 10.0022545 
1.2496407e+2, 1.3582803e+2, -2015459.3, -1746956.0, 4736.9956, -0.0656211, -0.080685414, -1746872.5, -137994.02, 0.00040489552, 9.997, 10.000551 
1.2496902e+2, 1.4582935e+2, -1787167.3, -1516980.8, 7367.1143, -0.05644647, -0.036477152, -1516780.0, -5915.0015, 0.00015657058, 9.997593, 10.001166 
1.2497449e+2, 1.5582967e+2, -1605239.1, -1400166.5, -9988.583, -0.0008164965, -0.115496844, -1399681.1, 13179.47, 0.000029665785, 9.998263, 10.000972 
1.2497963e+2, 1.6583048e+2, -1505894.0, -1394147.5, -15610.66, 0.019941144, -0.08641413, -1392007.8, -77154.66, 0.0000007617598, 9.998671, 10.000144 
1.24984555e+2, 1.7583145e+2, -1380574.0, -1287653.1, -21215.086, 0.013284484, -0.007822438, -1283038.5, -66193.22, 0.0, 9.998879, 10.000102 
1.2498945e+2, 1.8583128e+2, -1261154.1, -1232727.8, -13037.448, -0.0017991401, -0.008730967, -1227653.9, -108805.984, 0.0, 9.999256, 9.999625 
1.24994345e+2, 1.9583037e+2, -1093990.1, -1106819.9, -4222.2544, -0.021633048, -0.067488775, -1092725.3, -71868.18, 0.0, 9.999756, 9.999575 
1.24999315e+2, 2.0582972e+2, -951704.94, -1049345.9, -12550.9375, -0.018999992, -0.058547474, -950117.44, -27253.32, 0.0, 10.000325, 9.9990225 
1.2500434e+2, 2.1582922e+2, -765564.94, -912018.4, -19386.34, -0.0005584941, -0.0148743205, -763042.2, 61827.92, 0.0, 10.000943, 9.998995 
1.2500955e+2, 2.2582813e+2, -647713.0, -839957.7, -615.5423, 0.011033888, -0.007626022, -647711.06, 79170.42, 0.0, 10.001231, 9.998678 
1.2501489e+2, 2.3582658e+2, -544556.4, -742525.5, 8775.265, 0.01754647, -0.03373856, -544168.1, 84728.445, 0.0, 10.001281, 9.99865 
1.2501997e+2, 2.4582495e+2, -425477.78, -660609.0, 12240.253, 0.006153838, -0.048509814, -424842.3, 106069.33, 0.0, 10.001537, 9.998418 
1.2502486e+2, 2.5582325e+2, -272196.8, -540693.75, 14338.653, -0.019936634, -0.06540324, -271433.28, 161493.52, 0.0, 10.001937, 9.998376 
1.250294e+2, 2.6582128e+2, -132532.67, -481724.2, -13343.323, -0.036779158, -0.067952074, -132023.53, 202921.92, 0.0, 10.002479, 9.997847 
1.2503378e+2, 2.7581915e+2, 54977.93, -349635.5, -19477.477, -0.041928034, -0.07023505, 55913.383, 292880.44, 0.0, 10.003132, 9.997767 
1.2503864e+2, 2.858169e+2, 165183.89, -317300.3, 1373.7499, -0.022675851, -0.036919028, 165187.8, 304177.44, 0.0, 10.003524, 9.9971285 
1.250437e+2, 2.9581463e+2, 295852.78, -188800.64, 19507.02, -0.0012652365, 0.018401952, 296636.66, 337648.8, 0.00000094519226, 10.003686, 9.997259 
1.2504935e+2, 3.0581057e+2, 388998.0, -102196.3, 45451.375, 0.030767888, -0.12669905, 393168.3, 393168.3, 0.000021325412, 10.003921, 9.997411 
1.2505403e+2, 3.158088e+2, 417837.88, -107639.68, 2489.557, -0.042121723, -0.029962583, 417849.66, 417849.66, 0.00010391032, 10.004199, 9.99724 
1.3495545e+2, 1.2582274e+2, -2040325.8, -1575936.5, -14922.182, -0.09872939, -0.054519195, -1575457.5, 131472.67, 0.0007016644, 9.9964905, 10.0026455 
1.3496116e+2, 1.3582297e+2, -1991732.4, -1700431.6, 25290.49, -0.05970424, -0.12076328, -1698252.3, -89326.84, 0.00039489288, 9.997011, 10.000866 
1.3496673e+2, 1.458241e+2, -1814866.9, -1576369.9, 31280.484, -0.04635221, -0.08688356, -1572335.5, -61421.848, 0.00015526546, 9.9976015, 10.000754 
1.3497268e+2, 1.5582478e+2, -1633072.1, -1458044.6, 14630.145, -0.008744001, -0.08773008, -1456830.1, -43922.293, 0.000031126172, 9.998263, 10.000574 
1.3497815e+2, 1.6582508e+2, -1516582.1, -1415557.8, -8252.474, 0.004383895, -0.08293821, -1414888.1, -99982.26, 0.0000011270397, 9.998668, 9.999999 
1.3498332e+2, 1.7582494e+2, -1387307.4, -1302523.5, -11932.4375, 0.00023675931, -0.10313461, -1300876.1, -83967.85, 0.0, 9.998883, 9.999998 
1.3498871e+2, 1.858249e+2, -1241392.6, -1192074.0, 5080.467, -0.0030420145, -0.10126996, -1191556.1, -72647.21, 0.0, 9.999257, 9.999905 
1.3499427e+2, 1.9582501e+2, -1077685.5, -1073029.6, 15548.932, -0.005519045, -0.08399665, -1059635.4, -38727.85, 0.0, 9.999755, 9.999808 
1.3499974e+2, 2.0582455e+2, -966107.1, -1077900.8, 10373.101, -0.010162627, -0.0575184, -965152.75, -42239.44, 0.0, 10.0003195, 9.99883 
1.3500513e+2, 2.1582362e+2, -777554.9, -935330.7, 3101.601, -0.01621775, -0.03708773, -777493.94, 47430.824, 0.0, 10.0009365, 9.998838 
1.3501044e+2, 2.2582272e+2, -629443.3, -800386.5, 696.0962, -0.022985753, -0.016795458, -629440.44, 97493.7, 0.0, 10.0012245, 9.998954 
1.350157e+2, 2.3582184e+2, -525622.1, -702742.3, 12293.855, -0.028708622, -0.005702063, -524772.9, 104169.18, 0.0, 10.001278, 9.998925 
1.3502115e+2, 2.4582025e+2, -416969.4, -641910.3, 26712.29, -0.029743303, -0.035199028, -413840.78, 117115.2, 0.0, 10.0015335, 9.9985485 
1.3502671e+2, 2.5581816e+2, -266358.84, -527376.25, 30486.654, -0.028888248, -0.10310489, -262845.3, 170129.13, 0.0, 10.001932, 9.99847 
1.3503207e+2, 2.658162e+2, -147220.66, -510762.06, 10645.672, -0.018602418, -0.100754626, -146909.19, 188084.63, 0.0, 10.002473, 9.997651 
1.3503736e+2, 2.7581432e+2, 45563.234, -368302.6, 4774.2983, 0.0023674928, -0.05860353, 45618.3, 282632.4, 0.0, 10.003128, 9.997641 
1.3504227e+2, 2.8581202e+2, 189522.16, -264850.56, 6745.951, -0.011863791, -0.04592923, 189622.3, 328658.88, 0.0, 10.003515, 9.997493 
1.3504672e+2, 2.9580948e+2, 316675.06, -143555.33, 26644.639, -0.06816923, -0.05380633, 318212.47, 359272.25, 0.0000005800232, 10.003676, 9.997575 
1.3505295e+2, 3.0580604e+2, 386515.88, -104560.8, 54881.113, -0.00069899793, -0.1497391, 392574.44, 392574.44, 0.000016654767, 10.00391, 9.997399 
1.3505891e+2, 3.1580448e+2, 400649.16, -141619.05, 14414.159, 0.02354934, -0.030520558, 401032.03, 401032.03, 0.00008687348, 10.004194, 9.997007 
1.4495194e+2, 1.2581737e+2, -2059756.5, -1586511.5, -18287.557, -0.090766385, -0.04734057, -1585805.9, 121176.016, 0.0006852014, 9.996361, 10.002635 
1.4495844e+2, 1.3581733e+2, -1949146.1, -1679170.3, -6040.619, -0.045643926, -0.14093882, -1679035.1, -70056.36, 0.00038852147, 9.997299, 10.000874 
1.4496459e+2, 1.4581823e+2, -1786898.0, -1586511.0, -9250.199, -0.03504562, -0.120505504, -1586084.9, -75115.14, 0.00015533686, 9.997893, 10.0005455 
1.4497097e+2, 1.5581909e+2, -1654114.0, -1489731.0, -12453.48, -0.0032020002, -0.08366459, -1488792.9, -75829.41, 0.00003278088, 9.99821, 10.000383 
1.4497687e+2, 1.658193e+2, -1512234.6, -1405501.0, -21056.752, 0.009139372, -0.08280698, -1401497.0, -86534.734, 0.0000015078091, 9.998663, 10.000071 
1.4498244e+2, 1.7581888e+2, -1333502.5, -1269650.5, -9971.1, 0.006798757, -0.13683042, -1268129.6, -51163.117, 0.0, 9.999223, 10.00006 
1.4498825e+2, 1.858189e+2, -1186626.5, -1170168.6, 1962.8387, 0.006053423, -0.13059323, -1169937.9, -50971.246, 0.0, 9.999652, 9.999865 
1.4499424e+2, 1.9581927e+2, -1045723.6, -1060413.1, -12655.117, 0.0058706976, -0.08228491, -1038436.3, -17473.377, 0.0, 9.999986, 9.999784 
1.4500003e+2, 2.0581886e+2, -965352.06, -1059061.1, -11076.933, -0.0076298974, -0.058965903, -964060.5, -41092.39, 0.0, 10.000244, 9.998996 
1.4500566e+2, 2.1581784e+2, -838351.9, -947121.6, 7050.3384, -0.030721024, -0.06479039, -837896.8, -12916.947, 0.0, 10.000444, 9.998994 
1.4501128e+2, 2.2581694e+2, -693246.4, -830818.06, 84.045906, -0.038583707, -0.05145092, -693246.3, 33742.617, 0.0, 10.000785, 9.998957 
1.450169e+2, 2.3581612e+2, -533577.94, -706657.4, -9391.028, -0.034564503, -0.034582026, -533069.9, 95926.336, 0.0, 10.0012245, 9.998924 
1.4502276e+2, 2.4581467e+2, -401593.1, -638679.75, -4364.7383, -0.02750041, -0.049171347, -401512.78, 129496.69, 0.0, 10.001657, 9.998511 
1.450288e+2, 2.5581276e+2, -246114.98, -520640.5, -14326.233, -0.01997177, -0.09431067, -245369.39, 187657.73, 0.0, 10.002085, 9.998443 
1.450346e+2, 2.6581088e+2, -159135.31, -502570.5, -25405.23, -0.005885646, -0.090294056, -157266.17, 177779.61, 0.0, 10.00233, 9.997775 
1.4504027e+2, 2.7580896e+2, -50960.93, -402092.84, -8482.722, 0.017233498, -0.06372171, -50756.12, 186309.44, 0.0, 10.002411, 9.997753 
1.4504547e+2, 2.8580657e+2, 88922.875, -315877.38, -10667.3125, -0.008545654, -0.062434345, 89203.78, 228292.53, 0.0, 10.002836, 9.997468 
1.4505015e+2, 2.9580396e+2, 295227.56, -156664.31, -20978.719, -0.085624106, -0.07599465, 296199.4, 337312.7, 0.00000034163278, 10.003541, 9.99755 
1.4505695e+2, 3.0580103e+2, 427073.28, -63425.824, 2058.5188, -0.000056761484, -0.1283228, 427081.9, 427081.9, 0.000012640429, 10.004093, 9.997594 
1.4506353e+2, 3.1579924e+2, 439525.63, -115439.94, -25471.313, 0.05668934, -0.053523943, 440692.25, 440692.25, 0.000071238006, 10.004428, 9.997075 
1.5494874e+2, 1.2581117e+2, -2086702.3, -1645358.8, 14618.678, -0.050840445, -0.080719, -1644875.1, 62165.004, 0.0006719969, 9.996372, 10.002226 
1.5495591e+2, 1.3581112e+2, -1969714.6, -1722896.6, 27848.754, -0.029420976, -0.14244449, -1719793.5, -110754.6, 0.00038301162, 9.997301, 10.000573 
1.5496257e+2, 1.4581174e+2, -1787719.0, -1587465.5, 1888.2563, -0.027935509, -0.13795307, -1587447.6, -76414.21, 0.00015494693, 9.99789, 10.00054 
1.5496935e+2, 1.5581255e+2, -1652065.6, -1486886.6, 798.83765, 0.011609113, -0.10353706, -1486882.8, -73855.22, 0.000033834087, 9.998216, 10.0004 
1.5497574e+2, 1.6581309e+2, -1490729.6, -1362223.3, -868.84125, 0.029041458, -0.086227775, -1362217.4, -47194.723, 0.0000017896223, 9.998668, 10.000364 
1.5498187e+2, 1.7581329e+2, -1316746.0, -1235114.0, 10990.194, 0.028253268, -0.108272955, -1233660.3, -16640.275, 0.0, 9.999223, 10.000297 
1.5498805e+2, 1.8581326e+2, -1212405.0, -1223122.0, 14138.451, 0.020347051, -0.096638545, -1202643.6, -83622.79, 0.0, 9.999649, 9.999503 
1.5499428e+2, 1.9581313e+2, -1065953.8, -1102390.0, 162.4081, 0.009304543, -0.06340802, -1065953.0, -44929.453, 0.0, 9.999985, 9.999497 
1.5500021e+2, 2.0581263e+2, -928909.44, -982535.8, -4141.78, -0.014744385, -0.06341813, -928591.44, -5562.805, 0.0, 10.000239, 9.999523 
1.5500595e+2, 2.1581185e+2, -806100.56, -879971.9, 15846.085, -0.048167083, -0.09890958, -802844.9, 22190.686, 0.0, 10.0004425, 9.999456 
1.5501206e+2, 2.2581075e+2, -712398.6, -869324.75, 16029.136, -0.0405017, -0.112829044, -710778.1, 16267.867, 0.0, 10.00078, 9.998694 
1.5501845e+2, 2.3580942e+2, -552678.0, -745357.75, 7734.022, -0.0025899732, -0.120372534, -552368.06, 76690.94, 0.0, 10.00122, 9.998661 
1.550248e+2, 2.4580818e+2, -417118.66, -669526.06, 11344.599, 0.009453151, -0.09010274, -416609.78, 114462.2, 0.0, 10.001651, 9.998302 
1.550311e+2, 2.55807e+2, -256986.39, -542535.1, 1672.775, 0.001072735, -0.03964977, -256976.6, 176108.28, 0.0, 10.002081, 9.998294 
1.5503696e+2, 2.658053e+2, -129037.805, -438540.7, -22682.35, -0.0036131733, -0.037988592, -127384.33, 207717.2, 0.0, 10.002324, 9.998218 
1.5504251e+2, 2.7580306e+2, -25528.379, -348334.6, -3532.3208, -0.0009361137, -0.086393096, -25489.73, 211631.81, 0.0, 10.002408, 9.998123 
1.5504825e+2, 2.8580058e+2, 59726.37, -376615.63, 14889.431, -0.015525413, -0.08833767, 60233.855, 199380.08, 0.0, 10.002835, 9.997052 
1.5505396e+2, 2.957981e+2, 271162.3, -207066.69, 6731.8735, -0.060674947, -0.048881743, 271257.06, 312429.72, 0.00000019535571, 10.003542, 9.997204 
1.550613e+2, 3.0579558e+2, 453107.13, -7571.0137, 14763.315, 0.02551956, -0.06283153, 453579.75, 453579.75, 0.000009261703, 10.0040865, 9.99798 
1.5506789e+2, 3.157931e+2, 464510.56, -61502.0, -8939.34, 0.045851834, -0.09758349, 464662.44, 464662.44, 0.000057107005, 10.00442, 9.997448 
1.649456e+2, 1.2580428e+2, -2021342.9, -1651894.1, -11263.788, -0.031696513, -0.116204545, -1651551.0, 55554.625, 0.00065754744, 9.9969845, 10.001884 
1.6495337e+2, 1.3580444e+2, -1966148.1, -1747449.6, 5149.2427, -0.019185424, -0.12942646, -1747328.4, -138224.0, 0.00037533476, 9.99744, 10.000335 
1.6496046e+2, 1.4580491e+2, -1779434.0, -1567064.8, -22322.713, -0.02554279, -0.13550016, -1564743.6, -53643.043, 0.00015252095, 9.997877, 10.000685 
1.6496758e+2, 1.5580569e+2, -1633076.0, -1462716.1, -13570.848, 0.010950539, -0.11902485, -1461641.9, -48547.832, 0.000033788867, 9.998282, 10.000533 
1.649744e+2, 1.6580638e+2, -1478311.9, -1357630.0, -16350.726, 0.024851792, -0.0927057, -1355454.0, -40366.24, 0.0000018950186, 9.998758, 10.000353 
1.6498104e+2, 1.7580685e+2, -1308449.5, -1232428.5, -29797.494, 0.018406065, -0.08576509, -1222141.0, -5058.0234, 0.0, 9.999285, 10.000286 
1.6498761e+2, 1.8580683e+2, -1224685.4, -1227611.3, -30275.643, 0.016716331, -0.07421974, -1195837.4, -76753.36, 0.0, 9.999559, 9.999516 
1.649942e+2, 1.958065e+2, -1113421.8, -1123840.4, -16999.613, 0.02005376, -0.061239373, -1100851.3, -79762.68, 0.0, 9.999653, 9.99951 
1.650005e+2, 2.0580596e+2, -971824.6, -1006336.94, -28134.947, 0.0045160744, -0.06547277, -956075.5, -32981.383, 0.0, 9.999958, 9.9994955 
1.6500661e+2, 2.158052e+2, -810255.44, -883552.44, -50092.387, -0.02507603, -0.09405849, -784836.56, 40264.234, 0.0, 10.000421, 9.999443 
1.650131e+2, 2.2580414e+2, -681095.25, -839244.75, -43477.434, -0.019779507, -0.11232738, -669930.9, 57179.707, 0.0, 10.000931, 9.998828 
1.6501993e+2, 2.3580281e+2, -507308.56, -709762.8, -24212.332, 0.01146293, -0.13079964, -504453.2, 124669.5, 0.0, 10.001473, 9.998782 
1.6502653e+2, 2.4580158e+2, -411695.03, -669412.06, -8514.68, 0.016706785, -0.1040813, -411414.03, 119721.49, 0.0, 10.0016985, 9.998281 
1.6503298e+2, 2.5580043e+2, -315939.66, -572043.1, -3827.798, 0.0013496315, -0.052204177, -315882.47, 117266.46, 0.0, 10.001681, 9.998283 
1.6503912e+2, 2.6579875e+2, -141638.16, -437458.56, -27195.373, -0.013087805, -0.048499987, -139158.81, 196006.25, 0.0, 10.002207, 9.998281 
1.6504507e+2, 2.757966e+2, 83362.18, -290933.66, -38396.027, -0.021442441, -0.09540719, 87260.33, 324444.3, 0.0, 10.003134, 9.998168 
1.6505142e+2, 2.8579408e+2, 157131.6, -339042.5, -21853.738, -0.016557718, -0.0993259, 158092.27, 297301.66, 0.0, 10.003546, 9.996967 
1.6505791e+2, 2.9579148e+2, 265053.88, -220923.23, -6910.6123, -0.019551847, -0.061259802, 265152.1, 306389.6, 0.00000010392393, 10.003548, 9.997105 
1.6506557e+2, 3.057894e+2, 415665.97, -35595.723, -4651.885, 0.05555107, -0.023597902, 415713.9, 415713.9, 0.0000064948917, 10.003873, 9.997889 
1.6507193e+2, 3.1578645e+2, 467661.56, -58649.598, -64227.0, 0.009246748, -0.09663752, 475385.97, 475385.97, 0.000044536446, 10.004434, 9.99746 
1.7494252e+2, 1.2579666e+2, -2040189.4, -1691457.5, 500.9195, -0.0417125, -0.15317102, -1691456.8, 15721.881, 0.0006370072, 9.996986, 10.001611 
1.7495082e+2, 1.3579726e+2, -1977469.1, -1772922.4, 23282.55, -0.019989807, -0.101571895, -1770305.8, -161130.3, 0.00036284848, 9.997448, 10.000156 
1.7495827e+2, 1.4579774e+2, -1757806.5, -1523589.8, -8176.939, -0.034281496, -0.113668986, -1523304.6, -12133.26, 0.00014707113, 9.997882, 10.000981 
1.7496565e+2, 1.5579851e+2, -1615412.9, -1426686.8, 2459.743, -0.011175547, -0.1298727, -1426654.8, -13491.474, 0.00003249045, 9.998284, 10.000779 
1.7497283e+2, 1.6579913e+2, -1500614.5, -1404089.6, 2750.5393, -0.008832585, -0.102288894, -1404011.3, -88853.54, 0.0000018022155, 9.998759, 10.000034 
1.7497988e+2, 1.7579955e+2, -1326735.4, -1270699.8, -10656.209, -0.026361216, -0.06989074, -1268741.8, -51586.035, 0.0, 9.999286, 10.000023 
1.7498693e+2, 1.8579955e+2, -1197307.9, -1170825.1, -27387.059, -0.00974192, -0.06329588, -1153646.4, -34490.137, 0.0, 9.999558, 9.999906 
1.74994e+2, 1.9579938e+2, -1091613.0, -1078400.5, -11947.135, 0.034623034, -0.076258525, -1071354.8, -50196.91, 0.0, 9.999652, 9.999823 
1.7500089e+2, 2.057988e+2, -1012858.94, -1090639.1, -11193.364, 0.04688035, -0.06560285, -1011280.2, -88115.55, 0.0, 9.999954, 9.998919 
1.7500763e+2, 2.1579792e+2, -845434.56, -955350.8, -31617.441, 0.03499563, -0.050967235, -836988.75, -11813.261, 0.0, 10.000415, 9.998953 
1.7501445e+2, 2.2579709e+2, -645076.56, -763058.6, -23450.3, 0.02000968, -0.0502931, -640586.44, 86596.33, 0.0, 10.000924, 9.999354 
1.7502134e+2, 2.357963e+2, -472737.38, -637496.44, -4775.205, 0.0034951032, -0.068036474, -472599.1, 156588.33, 0.0, 10.001471, 9.999281 
1.7502798e+2, 2.4579488e+2, -400591.78, -645390.8, -9797.5, -0.0095724715, -0.09299887, -400200.28, 131000.07, 0.0, 10.001695, 9.998446 
1.7503443e+2, 2.5579298e+2, -307028.25, -552905.06, -1340.8152, -0.022162396, -0.13154928, -307020.94, 126198.37, 0.0, 10.001678, 9.998416 
1.750411e+2, 2.6579127e+2, -163870.19, -483460.88, 7203.2837, -0.03674313, -0.121712655, -163707.9, 171528.48, 0.0, 10.002206, 9.997966 
1.7504795e+2, 2.7578956e+2, 63897.945, -330437.6, -4995.3726, -0.049200196, -0.0914628, 63961.215, 301214.13, 0.0, 10.003129, 9.997899 
1.7505497e+2, 2.8578702e+2, 171826.33, -306928.06, -22393.244, -0.017839363, -0.095191196, 172871.47, 312149.7, 0.0, 10.00354, 9.99719 
1.7506199e+2, 2.957841e+2, 274788.5, -199825.97, -4403.6245, 0.032033667, -0.112146564, 274829.34, 316137.2, 0.00000004563321, 10.003545, 9.997251 
1.7506975e+2, 3.057824e+2, 377483.84, -116315.32, 16177.896, 0.08503394, -0.010763222, 378013.3, 378013.3, 0.0000043095733, 10.003877, 9.997333 
1.750757e+2, 3.157793e+2, 445887.7, -105037.29, -38260.29, -0.0607593, -0.048343748, 448532.06, 448532.06, 0.000033531494, 10.0044365, 9.997141 
1.8493961e+2, 1.2578887e+2, -2044413.0, -1681292.4, -27004.408, -0.026522025, -0.15242729, -1679295.1, 27959.578, 0.0006065531, 9.996904, 10.001719 
1.8494818e+2, 1.3578959e+2, -1988006.0, -1758762.3, 28006.594, -0.021585636, -0.109569006, -1755390.3, -146140.55, 0.00034376056, 9.9972925, 10.000328 
1.8495603e+2, 1.4579001e+2, -1765126.8, -1530241.4, 265.19547, -0.045295876, -0.13362774, -1530241.0, -18995.06, 0.00013809917, 9.997845, 10.000954 
1.8496397e+2, 1.5579088e+2, -1585699.6, -1415054.0, -15675.468, -0.018269816, -0.13529307, -1413626.0, -389.05005, 0.000029920388, 9.9985, 10.000755 
1.8497159e+2, 1.657915e+2, -1500331.3, -1405350.5, -20692.28, -0.00973913, -0.10760814, -1401038.4, -85806.36, 0.0000015280342, 9.998767, 10.000021 
1.8497895e+2, 1.757918e+2, -1404984.0, -1308692.0, -12201.628, -0.021695726, -0.08465147, -1307170.0, -89938.64, 0.0, 9.998751, 10.00002 
1.8498631e+2, 1.8579184e+2, -1253574.1, -1187588.5, -26420.25, -0.0038437066, -0.08087582, -1178313.8, -59082.05, 0.0, 9.999127, 9.999998 
1.8499376e+2, 1.9579175e+2, -1064123.8, -1055247.1, -33483.703, 0.038295448, -0.09245896, -1025908.9, -4676.9946, 0.0, 9.999798, 9.99991 
1.8500113e+2, 2.0579128e+2, -948295.7, -1059088.1, -11488.348, 0.053104017, -0.07704667, -947116.94, -23879.416, 0.0, 10.000396, 9.998923 
1.8500842e+2, 2.1579047e+2, -768469.8, -917904.2, 9323.819, 0.046616692, -0.054377668, -767890.3, 57357.273, 0.0, 10.000941, 9.998956 
1.8501554e+2, 2.2578968e+2, -619536.0, -754136.0, 3595.8843, 0.029384686, -0.047944825, -619440.0, 107814.84, 0.0, 10.001114, 9.999325 
1.8502258e+2, 2.3578891e+2, -540004.1, -671113.2, -19538.76, 0.0056682974, -0.0609501, -537154.25, 92105.875, 0.0, 10.001014, 9.9992695 
1.8502949e+2, 2.4578752e+2, -428758.9, -636602.7, -34456.77, -0.011980355, -0.09305549, -423195.5, 108076.88, 0.0, 10.001406, 9.998646 
1.850363e+2, 2.5578567e+2, -225543.05, -494856.7, -24927.21, -0.026862001, -0.1472267, -223255.27, 210034.4, 0.0, 10.002158, 9.998584 
1.850435e+2, 2.6578397e+2, -128417.11, -484587.5, -3884.9307, -0.032324158, -0.13324848, -128374.74, 206931.77, 0.0, 10.002529, 9.997802 
1.8505102e+2, 2.757823e+2, -21576.324, -386910.0, -6136.812, -0.02687565, -0.08448225, -21473.268, 215850.5, 0.0, 10.002609, 9.997761 
1.8505836e+2, 2.857796e+2, 118672.33, -317207.22, -24210.777, -0.011108293, -0.10488627, 120012.984, 259363.3, 0.0, 10.003109, 9.997326 
1.8506539e+2, 2.9577643e+2, 335315.47, -160751.05, -14978.136, -0.0008401347, -0.16234054, 335767.3, 377148.72, 0.000000013949684, 10.003919, 9.997338 
1.8507369e+2, 3.0577496e+2, 421634.8, -125043.75, 12830.049, 0.06995775, -0.026919762, 421935.75, 421935.75, 0.0000026617806, 10.004311, 9.997064 
1.850804e+2, 3.1577164e+2, 438017.22, -102734.7, -19136.65, -0.029880073, -0.060705736, 438693.6, 438693.6, 0.000024094807, 10.00436, 9.997191 
1.9493689e+2, 1.2578091e+2, -2008830.1, -1608795.6, -16934.834, 0.0077885618, -0.11212476, -1608080.0, 99253.695, 0.0005643703, 9.99691, 10.002215 
1.9494542e+2, 1.3578138e+2, -1950658.4, -1681783.4, 44229.523, -0.0279208, -0.15389648, -1674694.6, -65367.066, 0.00031730495, 9.997294, 10.000856 
1.9495371e+2, 1.4578168e+2, -1789783.3, -1581672.5, 24629.887, -0.063982815, -0.19633934, -1578797.3, -67472.445, 0.00012543245, 9.997846, 10.0006 
1.9496253e+2, 1.5578282e+2, -1605981.8, -1458339.1, 7905.3184, -0.01355857, -0.13531795, -1457917.0, -44601.74, 0.000026112697, 9.998505, 10.000456 
1.9497065e+2, 1.6578345e+2, -1479615.8, -1362722.0, -22165.512, 0.01832053, -0.10889023, -1358660.1, -43349.59, 0.0000011234973, 9.998769, 10.000314 
1.949782e+2, 1.757836e+2, -1387015.8, -1271357.3, -10412.089, 0.02974113, -0.13000768, -1270427.4, -53117.203, 0.0, 9.99875, 10.000277 
1.9498579e+2, 1.8578362e+2, -1267747.8, -1216479.1, -1542.2402, 0.030874314, -0.12715232, -1216432.8, -97122.37, 0.0, 9.9991255, 9.999801 
1.9499345e+2, 1.9578364e+2, -1074249.5, -1075784.5, -8108.751, 0.028255425, -0.109854236, -1066872.0, -45561.46, 0.0, 9.999795, 9.999771 
1.9500118e+2, 2.0578337e+2, -907832.94, -974123.2, 8631.189, 0.019844074, -0.09928306, -906727.56, 16585.367, 0.0, 10.000391, 9.999508 
1.9500896e+2, 2.1578285e+2, -734246.1, -845988.9, 28724.99, 0.0063041197, -0.105588615, -727294.5, 98022.78, 0.0, 10.000937, 9.999452 
1.9501643e+2, 2.2578192e+2, -660901.6, -839181.25, -1073.1697, 0.0054031117, -0.10572086, -660895.2, 66431.83, 0.0, 10.00111, 9.998742 
1.950237e+2, 2.3578067e+2, -576545.8, -746407.9, -20342.955, 0.014655246, -0.10907067, -574143.44, 55197.316, 0.0, 10.001011, 9.9987545 
1.9503109e+2, 2.4577954e+2, -413220.22, -603937.56, -6600.9355, 0.0065385555, -0.103855684, -412992.03, 118359.555, 0.0, 10.001404, 9.998871 
1.9503857e+2, 2.5577846e+2, -212155.39, -465821.6, 2035.6781, -0.016994327, -0.101024166, -212139.05, 221221.11, 0.0, 10.002152, 9.998785 
1.9504632e+2, 2.6577687e+2, -130643.84, -488564.75, -1837.7162, -0.0037600524, -0.083995394, -130634.414, 204741.11, 0.0, 10.002525, 9.997777 
1.9505432e+2, 2.757748e+2, -22222.46, -388549.5, -924.6496, 0.040826585, -0.07440761, -22220.127, 215176.61, 0.0, 10.00261, 9.99775 
1.9506156e+2, 2.857718e+2, 122068.625, -310048.13, 5687.446, -0.0002065365, -0.12848137, 122143.47, 261569.33, 0.0, 10.003109, 9.9973755 
1.9506812e+2, 2.9576838e+2, 336356.22, -157487.45, 14751.577, -0.12018448, -0.21293846, 336796.47, 378254.84, 0.0000000023315327, 10.003914, 9.997363 
1.9507737e+2, 3.05767e+2, 421356.94, -125166.164, 13087.543, 0.0066224877, -0.07072969, 421670.2, 421670.2, 0.0000014940417, 10.004309, 9.997064 
1.9508597e+2, 3.1576353e+2, 465717.03, -46752.563, -11074.783, 0.088591315, -0.12364651, 465956.25, 465956.25, 0.000016341239, 10.004367, 9.997573 
2.0493346e+2, 1.2577209e+2, -2036759.5, -1611825.1, -29387.662, -0.013199602, -0.11729176, -1609802.4, 97617.72, 0.0005112227, 9.996675, 10.002309 
2.0494293e+2, 1.3577273e+2, -1930316.9, -1651237.3, 999.1592, -0.008484939, -0.15856817, -1651233.8, -41822.4, 0.00028397882, 9.997345, 10.001042 
2.0495172e+2, 1.4577308e+2, -1795204.0, -1574484.0, -14142.695, -0.042002257, -0.21063775, -1573581.5, -62173.508, 0.000109345056, 9.9977665, 10.000689 
2.0496076e+2, 1.5577438e+2, -1676419.3, -1481991.8, 723.3834, -0.012230115, -0.14332819, -1481989.0, -68592.02, 0.000021261263, 9.997976, 10.000549 
2.0496929e+2, 1.6577512e+2, -1520458.3, -1377939.9, -27945.316, 0.019878095, -0.112512775, -1372656.3, -57264.93, 0.00000067965186, 9.998468, 10.000354 
2.049773e+2, 1.7577536e+2, -1321985.6, -1235989.8, -35910.918, 0.044436112, -0.12920251, -1222966.1, -5575.7344, 0.0, 9.999179, 10.000314 
2.0498528e+2, 1.8577538e+2, -1192589.1, -1182945.8, -21814.77, 0.040172223, -0.12672584, -1165426.3, -46035.586, 0.0, 9.999652, 9.999778 
2.0499322e+2, 1.9577533e+2, -1051862.6, -1065662.4, -16783.71, 0.017841833, -0.11403442, -1040615.9, -19224.467, 0.0, 9.999952, 9.999765 
2.0500135e+2, 2.0577501e+2, -925094.4, -963580.06, -14940.528, 0.007539841, -0.117075816, -919975.25, 3418.5159, 0.0, 10.000192, 9.999677 
2.050096e+2, 2.1577446e+2, -803991.94, -863272.7, -27124.459, 0.0047160774, -0.14308575, -793454.1, 31943.457, 0.0, 10.000389, 9.999598 
2.0501745e+2, 2.2577362e+2, -703070.75, -874247.2, -51822.273, 0.00735472, -0.13398442, -688604.5, 38802.36, 0.0, 10.000885, 9.9986105 
2.0502499e+2, 2.3577254e+2, -499305.0, -723036.2, -38896.543, 0.014680884, -0.107449934, -492735.6, 136684.77, 0.0, 10.001601, 9.998631 
2.0503278e+2, 2.4577141e+2, -343695.94, -574502.2, -19277.725, 0.009901367, -0.09292877, -342096.88, 189334.6, 0.0, 10.001899, 9.998835 
2.050407e+2, 2.5577027e+2, -252532.78, -487982.1, -30599.318, -0.0056515234, -0.095536806, -248621.05, 184819.81, 0.0, 10.001887, 9.998761 
2.0504887e+2, 2.6576865e+2, -146748.86, -481631.03, -31822.893, 0.007853892, -0.08517063, -143751.64, 191704.25, 0.0, 10.002352, 9.997909 
2.0505726e+2, 2.7576664e+2, 65070.797, -334152.2, -21412.422, 0.047808856, -0.08191521, 66215.98, 303691.8, 0.0, 10.003157, 9.997861 
2.0506492e+2, 2.8576368e+2, 184404.4, -294181.78, -15618.995, 0.000832173, -0.13043715, 184913.6, 324418.22, 0.0, 10.003598, 9.99725 
2.050719e+2, 2.9576027e+2, 305411.16, -187519.42, -20476.186, -0.124817125, -0.20082527, 306260.25, 347797.78, 0.000000000097020676, 10.003767, 9.997228 
2.0508169e+2, 3.057586e+2, 408302.6, -143708.58, -32534.709, 0.008600278, -0.0722692, 410213.53, 410213.53, 0.0000007297642, 10.0042715, 9.996956 
2.0509075e+2, 3.1575468e+2, 579258.4, 40823.555, -62105.48, 0.09770283, -0.16423889, 586329.06, 586329.06, 0.000010389921, 10.005005, 9.99787 
2.149293e+2, 1.2576239e+2, -2060054.4, -1660120.9, -8132.78, -0.10006259, -0.1698302, -1659955.6, 47558.67, 0.00045034575, 9.996675, 10.001977 
2.149407e+2, 1.3576367e+2, -1941727.5, -1676306.4, 26140.703, 0.033881802, -0.12295648, -1673756.4, -64254.98, 0.0002457903, 9.99735, 10.000869 
2.1495008e+2, 1.4576423e+2, -1756558.1, -1494954.1, -7100.497, 0.017040221, -0.17503105, -1494761.5, 16734.217, 0.00009091271, 9.997769, 10.001233 
2.1495871e+2, 1.5576556e+2, -1642113.0, -1410502.5, 10708.341, -0.01730199, -0.15933235, -1410008.5, 3473.8499, 0.000015871614, 9.997974, 10.001041 
2.1496747e+2, 1.657665e+2, -1535808.4, -1409079.4, -1443.671, -0.0099287, -0.1188455, -1409062.9, -93588.4, 0.00000031009594, 9.998466, 10.000141 
2.1497624e+2, 1.7576706e+2, -1334641.0, -1263416.8, -9563.04, 0.018883772, -0.08216885, -1262155.1, -44683.203, 0.0, 9.999183, 10.000123 
2.1498473e+2, 1.857671e+2, -1181647.3, -1160593.0, -10835.125, 0.019478861, -0.07929198, -1156013.1, -36540.88, 0.0, 9.999654, 9.99993 
2.1499304e+2, 1.9576682e+2, -1043092.3, -1047144.4, -5057.678, 0.004436521, -0.10498556, -1039669.94, -18195.58, 0.0, 9.99995, 9.999893 
2.150016e+2, 2.0576619e+2, -943279.44, -999998.75, -7965.7573, 0.013321152, -0.13042864, -942182.0, -18702.016, 0.0, 10.000187, 9.99943 
2.1501033e+2, 2.157653e+2, -819038.75, -893431.5, -17534.553, 0.038483135, -0.16583681, -815113.0, 10375.373, 0.0, 10.000384, 9.9993925 
2.1501859e+2, 2.2576477e+2, -682070.56, -829483.8, -25346.137, 0.03209963, -0.1328151, -677834.3, 49660.203, 0.0, 10.000879, 9.99892 
2.1502648e+2, 2.3576447e+2, -481959.06, -685469.75, -13458.147, 0.0028181765, -0.05741332, -481072.94, 148426.08, 0.0, 10.0015955, 9.998891 
2.1503453e+2, 2.4576315e+2, -364973.53, -618042.9, -20785.23, -0.0042708875, -0.060062036, -363277.75, 168234.4, 0.0, 10.001896, 9.998538 
2.1504268e+2, 2.5576103e+2, -269862.88, -523295.44, -28389.697, 0.0031055447, -0.1301089, -266721.56, 166810.13, 0.0, 10.001884, 9.998521 
2.1505114e+2, 2.6575932e+2, -128195.836, -442068.22, -2009.7134, -0.0003077001, -0.13591947, -128182.97, 207364.53, 0.0, 10.002347, 9.998182 
2.1505986e+2, 2.7575782e+2, 79614.766, -302428.75, 7562.3286, -0.008740464, -0.10759037, 79764.4, 317325.6, 0.0, 10.00315, 9.998081 
2.150684e+2, 2.8575522e+2, 163115.14, -337841.53, -11021.937, -0.0114341015, -0.111061215, 163357.53, 302944.25, 0.0, 10.003595, 9.996952 
2.1507668e+2, 2.9575208e+2, 285648.7, -229816.31, -12432.094, -0.023489712, -0.12786557, 285948.38, 327567.38, 0.0, 10.003771, 9.996937 
2.1508655e+2, 3.057498e+2, 393347.38, -173523.22, -5409.3306, 0.06958906, -0.03315043, 393398.97, 393398.97, 0.00000029127253, 10.004268, 9.996752 
2.1509472e+2, 3.1574517e+2, 592467.44, 70702.86, -27818.21, -0.007713228, -0.17852204, 593946.4, 593946.4, 0.0000061268147, 10.004994, 9.99808 
2.2492607e+2, 1.2575275e+2, -2092291.3, -1699889.4, -6434.9937, -0.08384872, -0.18252753, -1699783.9, 7823.3574, 0.0003861587, 9.996561, 10.001759 
2.249381e+2, 1.3575399e+2, -1937338.8, -1686167.1, 37720.703, 0.033593416, -0.12974152, -1680624.5, -71028.516, 0.00020573656, 9.997435, 10.000759 
2.2494788e+2, 1.4575452e+2, -1721951.1, -1470408.0, -30308.328, 0.011058403, -0.1816413, -1466807.8, 44783.137, 0.00007189719, 9.9979725, 10.001305 
2.2495686e+2, 1.5575603e+2, -1595071.5, -1378647.1, -49761.367, -0.014207166, -0.15556143, -1367754.0, 45821.516, 0.000010694928, 9.99826, 10.001122 
2.2496602e+2, 1.6575705e+2, -1508747.6, -1384449.5, -51354.676, -0.008177, -0.1168525, -1365977.3, -50410.61, 0.000000092361944, 9.998601, 10.000246 
2.2497521e+2, 1.757576e+2, -1357183.3, -1262658.0, -36986.016, 0.008798295, -0.09090241, -1249906.3, -32342.613, 0.0, 9.998979, 10.000227 
2.2498411e+2, 1.857577e+2, -1227105.0, -1179849.6, -40221.938, 0.009764896, -0.08954935, -1156829.0, -37265.223, 0.0, 9.9993305, 9.999954 
2.2499284e+2, 1.9575746e+2, -1082469.8, -1064017.1, -45035.004, 0.0038617307, -0.110772066, -1027273.0, -5707.3057, 0.0, 9.999672, 9.999912 
2.250018e+2, 2.0575699e+2, -956211.4, -1012985.2, -41238.082, 0.017600963, -0.11857336, -934534.4, -10963.953, 0.0, 10.000127, 9.99937 
2.2501092e+2, 2.1575631e+2, -781252.56, -880969.5, -37576.94, 0.043958247, -0.126394, -768677.94, 56899.492, 0.0, 10.0006695, 9.999341 
2.2501951e+2, 2.2575569e+2, -656362.2, -810734.94, -45527.707, 0.030490488, -0.10387691, -643935.5, 83648.72, 0.0, 10.001029, 9.998977 
2.2502775e+2, 2.3575507e+2, -529217.7, -703306.25, -54123.336, -0.011959572, -0.06750426, -513763.0, 115827.91, 0.0, 10.001249, 9.998936 
2.250362e+2, 2.4575366e+2, -408112.78, -646067.2, -65935.984, -0.012936086, -0.075893834, -391063.78, 140540.88, 0.0, 10.001632, 9.998473 
2.250448e+2, 2.5575167e+2, -238701.19, -515805.66, -57572.39, 0.015269924, -0.12717581, -227215.77, 206407.86, 0.0, 10.002131, 9.998453 
2.250537e+2, 2.6574987e+2, -98966.95, -432968.75, -24551.928, 0.01013607, -0.13314505, -97171.83, 238468.3, 0.0, 10.00257, 9.998137 
2.2506283e+2, 2.757482e+2, 49814.87, -321135.2, -39564.93, -0.01670168, -0.11723393, 53987.86, 291643.13, 0.0, 10.002965, 9.998042 
2.2507201e+2, 2.857457e+2, 157724.4, -334631.13, -57265.395, -0.007420179, -0.11531801, 164297.14, 303977.2, 0.0, 10.003532, 9.997005 
2.2508109e+2, 2.9574275e+2, 349432.63, -197754.94, -35661.586, 0.01712136, -0.11703303, 351747.0, 393457.25, 0.0, 10.004203, 9.99695 
2.2509117e+2, 3.057401e+2, 414047.3, -197724.56, -20062.68, 0.090945154, -0.04614327, 414704.53, 414704.53, 0.00000008644038, 10.004556, 9.9964485 
2.2509915e+2, 3.1573543e+2, 548879.4, 49168.72, -45592.03, -0.048087955, -0.16211192, 553005.0, 553005.0, 0.000003258449, 10.004697, 9.9980755 
2.3492378e+2, 1.2574324e+2, -2099084.0, -1714444.0, 19298.111, 0.029528301, -0.15014623, -1713478.3, -5779.616, 0.00032267286, 9.996565, 10.001657 
2.3493506e+2, 1.3574363e+2, -1941055.4, -1692792.4, 69872.59, -0.013076857, -0.18005523, -1674478.0, -64782.555, 0.0001666326, 9.997429, 10.000717 
2.3494512e+2, 1.4574392e+2, -1751882.9, -1531629.1, -19869.686, -0.06548581, -0.23261747, -1529851.0, -18157.313, 0.00005400246, 9.997969, 10.000887 
2.3495519e+2, 1.5574576e+2, -1618454.1, -1429582.1, -38064.016, -0.007723828, -0.13212343, -1422199.5, -8522.678, 0.000006396683, 9.998269, 10.00077 
2.349649e+2, 1.6574672e+2, -1477084.3, -1320168.8, -38073.07, 0.019904243, -0.10635803, -1311418.9, 4249.1353, 0.000000013163342, 9.998608, 10.000684 
2.3497424e+2, 1.7574696e+2, -1329067.0, -1204090.9, -22447.012, 0.011509907, -0.1557515, -1200181.5, 17484.246, 0.0, 9.998978, 10.000629 
2.3498344e+2, 1.8574713e+2, -1235227.6, -1195507.4, -27838.496, 0.007844272, -0.1585389, -1181171.0, -61505.816, 0.0, 9.999327, 9.999848 
2.3499261e+2, 1.9574729e+2, -1088866.4, -1077151.6, -31168.35, 0.0132348845, -0.13080157, -1051295.0, -29629.617, 0.0, 9.999671, 9.999823 
2.3500192e+2, 2.0574743e+2, -947601.8, -994567.4, -21175.82, 0.017099027, -0.08133697, -939464.1, -15798.873, 0.0, 10.000125, 9.999496 
2.3501132e+2, 2.157475e+2, -774963.56, -866337.25, -17246.936, 0.01778934, -0.025315415, -771816.56, 53848.277, 0.0, 10.000663, 9.999444 
2.3502024e+2, 2.2574638e+2, -671098.3, -839905.3, -37954.7, -0.00050327386, -0.046859797, -662957.1, 64718.816, 0.0, 10.001023, 9.99878 
2.3502879e+2, 2.3574431e+2, -541121.06, -727024.8, -44400.625, -0.03248874, -0.13583082, -531061.0, 98634.83, 0.0, 10.0012455, 9.998775 
2.3503777e+2, 2.4574295e+2, -398168.3, -624873.1, -47718.95, -0.01912523, -0.1398391, -388533.47, 143175.4, 0.0, 10.001628, 9.99862 
2.3504706e+2, 2.5574213e+2, -232384.45, -501394.06, -38665.11, 0.026828686, -0.08808261, -226937.36, 206779.48, 0.0, 10.002125, 9.998555 
2.3505652e+2, 2.6574036e+2, -124465.91, -484801.13, -10862.887, 0.035133775, -0.07745634, -124138.72, 211595.11, 0.0, 10.002565, 9.997785 
2.3506615e+2, 2.7573785e+2, 29445.465, -362131.6, -23291.432, 0.017795678, -0.11144927, 30825.998, 268583.97, 0.0, 10.002959, 9.997764 
2.350757e+2, 2.8573507e+2, 183367.92, -279381.7, -32237.336, 0.00849562, -0.14323452, 185602.94, 325387.34, 0.0, 10.003524, 9.997389 
2.3508507e+2, 2.9573226e+2, 369800.13, -153412.88, -11605.401, -0.0056591704, -0.16705808, 370057.44, 411868.56, 0.0, 10.004193, 9.997259 
2.3509553e+2, 3.057294e+2, 385367.38, -255224.36, -16549.31, 0.07107704, -0.110674836, 385794.63, 385794.63, 0.000000016964176, 10.004546, 9.996058 
2.3510398e+2, 3.1572554e+2, 533510.56, 18185.734, -31729.203, -0.03705992, -0.11209656, 535456.8, 535456.8, 0.0000014938959, 10.004693, 9.997865 
2.449211e+2, 1.2573247e+2, -1951580.0, -1652042.8, -25393.135, 0.05316178, -0.16826202, -1649905.3, 57897.895, 0.00026299746, 9.997612, 10.00158 
2.4493256e+2, 1.3573316e+2, -1913379.9, -1677244.3, 29331.691, -0.012742707, -0.17075434, -1673655.3, -63857.7, 0.0001305452, 9.99761, 10.000736 
2.4494293e+2, 1.4573336e+2, -1771862.3, -1549365.9, -44559.19, -0.07450868, -0.23008254, -1540773.8, -28976.887, 0.000038366878, 9.997868, 10.000814 
2.4495345e+2, 1.557349e+2, -1619882.8, -1436609.5, -37642.957, -0.007984925, -0.15186684, -1429179.1, -15396.253, 0.000003303544, 9.998287, 10.000713 
2.4496354e+2, 1.6573578e+2, -1476519.1, -1318392.1, -44979.504, 0.023561437, -0.1312063, -1306493.0, 9281.539, 0.00000000018007511, 9.998606, 10.000698 
2.4497315e+2, 1.7573613e+2, -1343949.9, -1209182.8, -62900.914, 0.012527344, -0.17060354, -1184386.8, 33384.4, 0.0, 9.998868, 10.000648 
2.4498273e+2, 1.857364e+2, -1238518.6, -1192936.6, -70614.26, 0.0075864415, -0.16541697, -1141526.5, -21756.945, 0.0, 9.999286, 9.9998865 
2.4499236e+2, 1.9573666e+2, -1064928.6, -1061071.9, -63850.23, 0.013563888, -0.13228965, -999120.9, 22648.328, 0.0, 9.999817, 9.999863 
2.4500202e+2, 2.0573683e+2, -930753.0, -980445.4, -51754.62, 0.009145147, -0.08387898, -898189.5, 25579.2, 0.0, 10.000215, 9.999551 
2.4501166e+2, 2.1573691e+2, -792739.44, -869202.06, -55046.15, -0.0057312725, -0.03416982, -763950.56, 61817.742, 0.0, 10.000515, 9.999497 
2.4502103e+2, 2.2573575e+2, -695985.75, -847231.25, -71155.766, -0.01365172, -0.06316954, -667772.4, 60007.01, 0.0, 10.000833, 9.998821 
2.4503016e+2, 2.3573363e+2, -550389.8, -728394.4, -60904.94, -0.0153133385, -0.16095212, -531545.8, 98253.45, 0.0, 10.001168, 9.998802 
2.4503958e+2, 2.4573229e+2, -407536.94, -642819.44, -58642.637, -0.00031832588, -0.15636158, -393730.78, 138081.56, 0.0, 10.001622, 9.998499 
2.4504916e+2, 2.5573158e+2, -234306.98, -515131.9, -70775.695, 0.024882263, -0.08210462, -217478.05, 216342.19, 0.0, 10.002168, 9.998441 
2.4505907e+2, 2.6572978e+2, -124213.836, -488814.88, -42154.035, 0.033195302, -0.06696186, -119403.586, 216434.4, 0.0, 10.002584, 9.997747 
2.450692e+2, 2.7572715e+2, 17440.611, -371135.56, -32972.105, 0.03179143, -0.10998364, 20218.555, 258082.08, 0.0, 10.002891, 9.997736 
2.4507914e+2, 2.8572443e+2, 144992.19, -287661.34, -38096.766, 0.018145664, -0.14118625, 148321.13, 288210.6, 0.0, 10.003217, 9.99748 
2.4508885e+2, 2.9572177e+2, 285733.63, -184144.67, -40253.547, -0.013982536, -0.15929884, 289157.13, 331071.66, 0.0, 10.003575, 9.997345 
2.4509984e+2, 3.0571863e+2, 344090.72, -262310.25, -31681.05, 0.06534665, -0.13970932, 345741.38, 345741.38, 0.0000000018496129, 10.00421, 9.99617 
2.4510904e+2, 3.1571543e+2, 588659.44, 55307.223, -7585.514, -0.015464836, -0.0851647, 588767.25, 588767.25, 0.0000005590252, 10.005027, 9.997959 
2.5491798e+2, 1.2572035e+2, -1954962.3, -1659733.4, -31791.432, -0.02228498, -0.2419283, -1656348.8, 51572.938, 0.000209724, 9.997614, 10.001528 
2.5493062e+2, 1.3572252e+2, -1906262.9, -1666545.9, 31015.125, 0.027816549, -0.100829534, -1662598.1, -52695.39, 0.00009902971, 9.997625, 10.000804 
2.5494134e+2, 1.4572278e+2, -1749822.5, -1505775.5, -29953.783, -0.022488868, -0.17203285, -1502152.9, 9747.853, 0.000025643241, 9.997877, 10.001109 
2.5495166e+2, 1.5572342e+2, -1602867.8, -1400073.6, -22196.184, -0.018513966, -0.21520323, -1397672.6, 16220.899, 0.0000014046367, 9.9982815, 10.000966 
2.549619e+2, 1.6572423e+2, -1507096.3, -1380599.4, -35773.695, -0.00037938633, -0.1924328, -1371183.4, -55296.87, 0.0, 9.9986, 10.000274 
2.5497198e+2, 1.7572512e+2, -1369898.8, -1264619.5, -51728.035, 0.0073887827, -0.13537624, -1243457.3, -25577.186, 0.0, 9.998875, 10.000265 
2.54982e+2, 1.8572553e+2, -1224640.9, -1164962.0, -51105.785, 0.0038131431, -0.10991911, -1135622.1, -15744.865, 0.0, 9.9992895, 10.000076 
2.5499204e+2, 1.9572558e+2, -1052770.1, -1035147.2, -43956.113, 0.001322969, -0.115148194, -999128.06, 22749.094, 0.0, 9.999814, 10.000042 
2.5500205e+2, 2.0572522e+2, -933387.75, -984323.1, -40713.48, -0.00927581, -0.12648945, -910832.6, 13048.22, 0.0, 10.000208, 9.999528 
2.5501195e+2, 2.1572453e+2, -793281.3, -869105.4, -42869.53, -0.029712398, -0.15112844, -773964.7, 51922.836, 0.0, 10.00051, 9.9995 
2.5502187e+2, 2.257238e+2, -677087.44, -807514.7, -59202.324, -0.0123565, -0.15216921, -654223.1, 73671.28, 0.0, 10.00083, 9.999096 
2.5503185e+2, 2.35723e+2, -535553.0, -696467.4, -47170.91, 0.03521577, -0.1435614, -522744.7, 107156.76, 0.0, 10.0011635, 9.999024 
2.550416e+2, 2.4572173e+2, -435008.56, -698851.44, -38852.723, 0.038272228, -0.12543662, -429406.2, 102508.89, 0.0, 10.001617, 9.998117 
2.5505114e+2, 2.5572005e+2, -257619.98, -562330.94, -50214.813, 0.0060601654, -0.10863966, -249558.13, 184375.48, 0.0, 10.002162, 9.998119 
2.5506133e+2, 2.6571816e+2, -106088.98, -450643.47, -31018.814, 0.0015302368, -0.101527415, -103318.75, 232633.75, 0.0, 10.002582, 9.998012 
2.55072e+2, 2.757161e+2, 32025.018, -340022.53, -21026.766, 0.020541715, -0.11262143, 33209.6, 271181.6, 0.0, 10.002886, 9.997952 
2.5508234e+2, 2.857137e+2, 130783.266, -316030.1, -25957.557, 0.016206436, -0.110136405, 132286.22, 272281.53, 0.0, 10.003212, 9.997288 
2.550924e+2, 2.957112e+2, 277311.2, -201090.28, -24967.531, -0.014424538, -0.09650847, 278610.7, 320631.2, 0.0, 10.003573, 9.99723 
2.551041e+2, 3.0570772e+2, 384443.84, -178134.13, -954.8628, 0.06849409, -0.13545103, 384445.47, 384445.47, 0.000000000039700524, 10.004208, 9.996751 
2.5511432e+2, 3.157051e+2, 613396.3, 109273.15, 31462.256, 0.0067167864, -0.08300068, 615352.25, 615352.25, 0.00000017363527, 10.005014, 9.998338 
2.649152e+2, 1.2570861e+2, -1998824.8, -1682629.6, -48681.66, -0.04758415, -0.25712225, -1675304.3, 32732.867, 0.0001649167, 9.997319, 10.001512 
2.649284e+2, 1.3571104e+2, -1906108.4, -1658044.1, 22398.09, 0.04777426, -0.09728949, -1656038.0, -46022.484, 0.000073287774, 9.997589, 10.000879 
2.6493943e+2, 1.4571145e+2, -1737771.6, -1492685.3, -36957.082, -0.0027324813, -0.1596616, -1487233.6, 24778.152, 0.000016155976, 9.997929, 10.001174 
2.6494983e+2, 1.5571222e+2, -1593473.9, -1388605.0, -49486.746, -0.029004676, -0.19745107, -1377277.6, 36725.594, 0.00000046134082, 9.998318, 10.001028 
2.6496044e+2, 1.6571291e+2, -1484383.5, -1383225.5, -55302.426, -0.016323943, -0.18352804, -1358860.6, -42863.3, 0.0, 9.998815, 10.000153 
2.6497105e+2, 1.7571346e+2, -1302730.5, -1244809.3, -49799.2, 0.0021384396, -0.14628321, -1216161.9, 1832.0146, 0.0, 9.99939, 10.000153 
2.6498145e+2, 1.8571386e+2, -1170396.1, -1136584.8, -50432.56, 0.0024002944, -0.11925492, -1100299.8, 19691.467, 0.0, 9.999652, 10.000096 
2.6499176e+2, 1.957141e+2, -1069544.5, -1041807.0, -57560.02, -0.0019448275, -0.10672269, -996468.5, 25520.555, 0.0, 9.999693, 10.000054 
2.650021e+2, 2.0571357e+2, -989007.6, -1020937.6, -61575.074, -0.00465156, -0.1298447, -941361.56, -17367.264, 0.0, 9.999869, 9.99944 
2.6501244e+2, 2.1571246e+2, -851984.44, -906248.25, -68821.99, -0.010202459, -0.18870352, -805139.25, 20866.043, 0.0, 10.000146, 9.999421 
2.6502272e+2, 2.2571188e+2, -705257.4, -815597.94, -89474.22, 0.0017732241, -0.1733591, -655311.56, 72699.54, 0.0, 10.000612, 9.9991455 
2.6503295e+2, 2.357117e+2, -523741.88, -686002.6, -95322.25, 0.027831547, -0.109670095, -479698.5, 150314.45, 0.0, 10.001224, 9.999067 
2.650431e+2, 2.457104e+2, -434513.22, -705550.6, -80925.14, 0.028960263, -0.0901931, -412189.6, 119837.266, 0.0, 10.001652, 9.998055 
2.6505324e+2, 2.5570828e+2, -293519.78, -584802.2, -70043.75, 0.010619724, -0.11421244, -277551.94, 156498.05, 0.0, 10.001938, 9.998073 
2.6506385e+2, 2.6570636e+2, -148975.17, -456611.28, -49491.223, 0.011029774, -0.11347561, -141209.27, 194859.64, 0.0, 10.002225, 9.998142 
2.6507473e+2, 2.7570465e+2, -12880.637, -348386.03, -48700.58, 0.027512519, -0.102574535, -5954.4463, 232130.33, 0.0, 10.0025215, 9.99807 
2.6508558e+2, 2.8570247e+2, 123553.555, -328119.75, -38865.99, 0.019441376, -0.08016505, 126873.53, 266979.84, 0.0, 10.0032015, 9.997209 
2.6509628e+2, 2.957e+2, 355222.78, -168722.66, -33558.11, -0.014113077, -0.052103948, 357363.4, 399494.84, 0.0, 10.004132, 9.997183 
2.651083e+2, 3.0569628e+2, 419986.63, -128113.21, -31630.117, 0.06443644, -0.12914994, 421805.9, 421805.9, 0.0, 10.004312, 9.997043 
2.651189e+2, 3.1569394e+2, 462570.47, 38183.105, -15938.797, 0.017501645, -0.07562332, 463168.25, 463168.25, 0.000000056271777, 10.003975, 9.998346 
2.749127e+2, 1.2569723e+2, -1995130.5, -1676167.5, -49598.117, -0.032043755, -0.20973071, -1668633.0, 39516.582, 0.00012966055, 9.997326, 10.001553 
2.7492595e+2, 1.3569869e+2, -1900232.9, -1643947.9, 32808.594, 0.04253233, -0.16104838, -1639814.5, -29678.328, 0.00005392466, 9.9975815, 10.00098 
2.7493718e+2, 1.4569935e+2, -1750481.3, -1518157.6, -23045.756, -0.020241877, -0.19453996, -1515893.6, -3763.189, 0.0000098627, 9.997924, 10.001002 
2.7494797e+2, 1.557013e+2, -1602493.4, -1409102.4, -33858.848, -0.045730572, -0.09754325, -1403345.8, 10766.13, 0.00000011248763, 9.998324, 10.000884 
2.7495915e+2, 1.657018e+2, -1470265.6, -1355633.8, -34657.777, -0.030533839, -0.10324521, -1345970.0, -29863.129, 0.0, 9.998822, 10.000339 
2.7497035e+2, 1.7570119e+2, -1290565.6, -1219982.9, -29426.344, -0.0065901186, -0.20301351, -1209324.4, 8788.373, 0.0, 9.999391, 10.000323 
2.7498108e+2, 1.8570139e+2, -1181911.5, -1159876.1, -49605.29, -0.0001501612, -0.19378391, -1120079.8, 31.85841, 0.0, 9.99965, 9.999938 
2.7499148e+2, 1.9570222e+2, -1081046.9, -1065468.0, -54980.85, 0.00055826484, -0.10661446, -1017727.5, 4377.3633, 0.0, 9.999692, 9.999892 
2.7500224e+2, 2.0570192e+2, -999874.94, -1042540.06, -51479.86, 0.0194356, -0.09382215, -965482.7, -41373.633, 0.0, 9.999865, 9.999293 
2.7501318e+2, 2.157007e+2, -862858.75, -928016.9, -56622.91, 0.049154006, -0.14763802, -830111.3, -3989.5815, 0.0, 10.000141, 9.999273 
2.7502355e+2, 2.2569999e+2, -718854.4, -842250.94, -66706.35, 0.024777157, -0.12780887, -689687.8, 38441.797, 0.0, 10.000606, 9.998965 
2.750335e+2, 2.3569968e+2, -534376.75, -706931.7, -72374.5, -0.038859773, -0.059669334, -508040.4, 122093.41, 0.0, 10.001219, 9.998926 
2.750442e+2, 2.4569835e+2, -417070.28, -668712.0, -70775.055, -0.030328404, -0.0515776, -398530.5, 133617.3, 0.0, 10.001649, 9.99831 
2.7505538e+2, 2.556962e+2, -278104.88, -551841.44, -58896.88, 0.03266675, -0.09912925, -265970.56, 168198.84, 0.0, 10.001933, 9.998302 
2.750665e+2, 2.656944e+2, -149148.75, -455662.9, -39190.473, 0.055545807, -0.10262238, -144217.25, 191969.89, 0.0, 10.002219, 9.998151 
2.750775e+2, 2.756928e+2, -11820.9795, -345173.97, -35064.5, 0.0485642, -0.08066673, -8172.57, 230029.28, 0.0, 10.002518, 9.998093 
2.7508885e+2, 2.856907e+2, 124237.125, -325548.63, -3939.1829, 0.0244433, -0.05297945, 124271.625, 264494.13, 0.0, 10.003196, 9.99723 
2.7510038e+2, 2.9568824e+2, 354155.13, -167708.97, -1555.4122, -0.018529793, -0.025644232, 354159.75, 396407.1, 0.0, 10.004118, 9.997197 
2.7511242e+2, 3.0568436e+2, 419334.97, -127756.21, -46220.38, 0.046907175, -0.12001851, 423212.34, 423212.34, 0.0, 10.004304, 9.997049 
2.7512276e+2, 3.1568196e+2, 438547.7, -13628.525, -20654.166, 0.0052441964, -0.068000324, 439489.16, 439489.16, 0.000000026248587, 10.003983, 9.997987 
2.8491017e+2, 1.2568532e+2, -1986491.5, -1670161.1, -69215.2, -0.015488222, -0.17482622, -1655679.3, 52588.805, 0.00010364884, 9.997378, 10.001569 
2.8492343e+2, 1.3568655e+2, -1823585.0, -1595716.0, 17612.656, 0.011092922, -0.16058648, -1594362.8, 15893.199, 0.000040612387, 9.998058, 10.001082 
2.8493503e+2, 1.4568707e+2, -1687466.4, -1501967.1, -43297.996, -0.050877348, -0.20561442, -1492358.5, 19892.46, 0.0000062724685, 9.998419, 10.0008745 
2.849465e+2, 1.5568896e+2, -1585942.9, -1412614.5, -52120.63, -0.032233164, -0.10270789, -1398148.9, 16084.134, 0.000000028346124, 9.998488, 10.000781 
2.849581e+2, 1.6568948e+2, -1485031.0, -1346461.3, -45431.426, -0.0065726493, -0.109308384, -1332894.5, -16667.164, 0.0, 9.998653, 10.000483 
2.8496957e+2, 1.7568897e+2, -1350668.4, -1234648.6, -45485.875, -0.00038424507, -0.21289688, -1218942.1, -710.80383, 0.0, 9.9989195, 10.000448 
2.8498057e+2, 1.8568912e+2, -1233835.8, -1200664.8, -69919.62, -0.00013531487, -0.20745498, -1145390.4, -25159.635, 0.0, 9.999363, 9.999796 
2.849913e+2, 1.9568977e+2, -1055511.9, -1068597.9, -75170.0, 0.0030772362, -0.124020085, -986600.7, 35626.066, 0.0, 9.999933, 9.999755 
2.8500235e+2, 2.0568958e+2, -926015.0, -1012851.2, -65352.98, 0.018585082, -0.09084835, -890972.0, 33258.324, 0.0, 10.000397, 9.999241 
2.8501356e+2, 2.1568869e+2, -774221.0, -891197.4, -64777.85, 0.04007004, -0.10608456, -745433.56, 80806.42, 0.0, 10.000777, 9.99922 
2.8502432e+2, 2.2568782e+2, -680654.3, -839744.5, -69729.6, 0.023901226, -0.09252208, -654418.3, 73831.445, 0.0, 10.0009365, 9.998823 
2.8503478e+2, 2.3568696e+2, -585145.94, -744746.75, -73093.64, -0.018558603, -0.06498453, -556729.94, 73529.71, 0.0, 10.000927, 9.998807 
2.8504583e+2, 2.4568565e+2, -457547.2, -667803.56, -66453.45, -0.012621363, -0.05768275, -438304.97, 93968.04, 0.0, 10.001283, 9.998492 
2.8505728e+2, 2.5568402e+2, -268853.16, -529606.56, -61146.777, 0.02862229, -0.07418215, -255226.36, 179062.64, 0.0, 10.001922, 9.99846 
2.8506875e+2, 2.6568216e+2, -123094.32, -465396.56, -53399.16, 0.047841355, -0.07792827, -114957.47, 221349.55, 0.0, 10.002495, 9.9979515 
2.8508028e+2, 2.756801e+2, 46520.2, -335570.78, -66236.14, 0.05321255, -0.081972286, 57676.6, 296003.34, 0.0, 10.002998, 9.997928 
2.850921e+2, 2.856779e+2, 117064.89, -304780.72, -35603.965, 0.03806341, -0.067308426, 120048.78, 260396.6, 0.0, 10.003043, 9.997445 
2.85104e+2, 2.9567567e+2, 171803.67, -232014.61, -19245.844, 0.0013762354, -0.0409867, 172718.84, 215088.31, 0.0, 10.002766, 9.997405 
2.8511637e+2, 3.0567196e+2, 308938.53, -182803.3, -45935.29, 0.048872005, -0.12792252, 313192.7, 313192.7, 0.0, 10.003554, 9.997031 
2.8512728e+2, 3.156695e+2, 576078.25, 9529.58, -20271.307, 0.0039091865, -0.07779866, 576802.6, 576802.6, 0.00000002110199, 10.005112, 9.997603 
2.949077e+2, 1.2567286e+2, -1987071.9, -1672797.1, -53476.875, -0.0075361375, -0.15438335, -1663946.9, 44445.918, 0.000085497144, 9.997384, 10.001549 
2.9492083e+2, 1.3567466e+2, -1815951.8, -1581622.6, 42569.35, -0.05242833, -0.094259545, -1574129.0, 36245.4, 0.000032281903, 9.998066, 10.001176 
2.94933e+2, 1.4567465e+2, -1692798.4, -1514803.0, -41210.137, -0.10001014, -0.19063202, -1505724.9, 6648.301, 0.0000046245973, 9.9984255, 10.000784 
2.9494542e+2, 1.556752e+2, -1590511.1, -1422195.1, -49172.453, 0.006408478, -0.21287984, -1408882.6, 5483.828, 0.00000001715619, 9.998489, 10.000715 
2.9495734e+2, 1.6567594e+2, -1478513.6, -1332421.0, -36556.375, 0.050504263, -0.20186841, -1323784.3, -7425.7383, 0.0, 9.998651, 10.000581 
2.9496866e+2, 1.7567681e+2, -1345548.6, -1223269.9, -34142.31, 0.017196856, -0.17701977, -1214382.6, 3967.0886, 0.0, 9.998916, 10.000528 
2.9497993e+2, 1.8567702e+2, -1243908.6, -1220626.8, -48631.887, -0.0013825112, -0.16094694, -1182262.0, -61912.938, 0.0, 9.999358, 9.999661 
2.9499125e+2, 1.9567673e+2, -1063902.9, -1085754.6, -53560.824, 0.0027084562, -0.15894195, -1020164.94, 2189.6963, 0.0, 9.999932, 9.999638 
2.9500243e+2, 2.0567653e+2, -924021.06, -1007457.75, -51430.016, -0.010330204, -0.12106706, -899516.56, 24841.594, 0.0, 10.000391, 9.999281 
2.9501352e+2, 2.1567641e+2, -772935.6, -887336.06, -50713.53, -0.040256437, -0.064569265, -753691.56, 72668.63, 0.0, 10.0007715, 9.999249 
2.9502496e+2, 2.2567534e+2, -688330.4, -854461.44, -70807.54, -0.004768898, -0.06780507, -662246.5, 66125.19, 0.0, 10.000932, 9.998725 
2.950367e+2, 2.3567352e+2, -591515.5, -757554.2, -71273.18, 0.083213925, -0.124836445, -565117.9, 65272.69, 0.0, 10.000925, 9.998721 
2.95048e+2, 2.4567235e+2, -449884.22, -651722.56, -43063.152, 0.07713764, -0.10772581, -441080.5, 91321.95, 0.0, 10.001282, 9.998603 
2.9505888e+2, 2.5567165e+2, -263816.97, -518262.56, -36949.836, -0.0037380613, -0.04105816, -258559.84, 175849.11, 0.0, 10.001917, 9.99854 
2.9507065e+2, 2.6566964e+2, -152496.45, -525066.0, -35178.83, -0.013047842, -0.0412004, -149203.89, 187224.9, 0.0, 10.002489, 9.997544 
2.950831e+2, 2.756666e+2, 20557.031, -387613.88, -48924.184, 0.03530155, -0.10544034, 26339.27, 264798.56, 0.0, 10.002991, 9.997574 
2.9509526e+2, 2.8566414e+2, 144995.81, -246323.31, -47568.9, 0.05335296, -0.12014414, 150695.3, 291177.28, 0.0, 10.003041, 9.997848 
2.9510716e+2, 2.9566225e+2, 199236.17, -175305.64, -24526.426, 0.039676078, -0.096568294, 200835.44, 243333.16, 0.0, 10.002766, 9.997794 
2.951201e+2, 3.0565906e+2, 304372.03, -190043.86, 12241.0625, 0.06711409, -0.15251587, 304674.9, 304674.9, 0.0, 10.003545, 9.996986 
2.9513243e+2, 3.1565636e+2, 545037.5, -48934.152, 43561.176, 0.0026110483, -0.11813255, 548215.25, 548215.25, 0.000000019534246, 10.005086, 9.997214 
3.049054e+2, 1.256604e+2, -1910502.6, -1671171.3, -46644.613, -0.0024626697, -0.13586503, -1662401.8, 46113.9, 0.000073591786, 9.998067, 10.001228 
3.0491903e+2, 1.3566215e+2, -1838626.3, -1616241.3, 32051.09, -0.035744168, -0.057845615, -1611714.1, -1215.2511, 0.000027638554, 9.998013, 10.000964 
3.049315e+2, 1.4566197e+2, -1705005.8, -1516800.0, -55280.7, -0.08518621, -0.1652748, -1501764.0, 10735.272, 0.000004191702, 9.998327, 10.000816 
3.0494407e+2, 1.5566216e+2, -1528860.8, -1390213.1, -57663.15, 0.003628236, -0.22464725, -1369365.8, 45128.938, 0.000000032166714, 9.998903, 10.000735 
3.0495614e+2, 1.6566284e+2, -1412375.3, -1317652.3, -57478.023, 0.042455237, -0.21212593, -1290536.6, 25950.58, 0.0, 9.99918, 10.000426 
3.0496764e+2, 1.7566386e+2, -1311072.5, -1223002.0, -74771.19, 0.009953595, -0.15553296, -1180262.6, 38215.11, 0.0, 9.999223, 10.000382 
3.0497923e+2, 1.8566406e+2, -1232271.3, -1214529.0, -79406.49, -0.0082249725, -0.13478197, -1143499.6, -23022.494, 0.0, 9.999437, 9.999665 
3.0499104e+2, 1.9566362e+2, -1082509.0, -1093026.5, -75334.625, -0.0032500143, -0.14827594, -1012249.8, 10233.721, 0.0, 9.9998, 9.999651 
3.050027e+2, 2.0566325e+2, -961795.6, -1022929.1, -73342.76, -0.010764238, -0.13035995, -912904.94, 11583.295, 0.0, 10.000122, 9.999304 
3.050142e+2, 2.1566293e+2, -824253.1, -909891.25, -74829.26, -0.032931816, -0.0961083, -780857.94, 45633.766, 0.0, 10.00041, 9.999269 
3.0502596e+2, 2.2566193e+2, -687289.9, -855057.6, -89419.336, 0.0006521989, -0.09281702, -648567.4, 79934.96, 0.0, 10.000942, 9.998716 
3.0503798e+2, 2.3566039e+2, -485482.5, -708763.1, -84468.41, 0.0789884, -0.12161213, -457128.28, 173390.25, 0.0, 10.001663, 9.9987 
3.0504966e+2, 2.4565905e+2, -356881.5, -631523.94, -65989.07, 0.07675741, -0.10540393, -341848.94, 190682.88, 0.0, 10.002027, 9.998383 
3.0506104e+2, 2.556579e+2, -248608.78, -533217.3, -85300.77, 0.011802989, -0.06259251, -225001.25, 209541.7, 0.0, 10.002117, 9.998342 
3.0507317e+2, 2.6565585e+2, -174360.13, -525271.94, -71348.164, 0.0014889177, -0.063816175, -160408.17, 176155.22, 0.0, 10.002296, 9.997636 
3.0508587e+2, 2.7565303e+2, -37813.375, -406387.03, -50860.313, 0.035147782, -0.110677645, -30923.828, 207667.52, 0.0, 10.002552, 9.997656 
3.050983e+2, 2.856506e+2, 138963.89, -253237.22, -58102.688, 0.05272608, -0.1274235, 147390.47, 288004.56, 0.0, 10.003018, 9.997811 
3.0511048e+2, 2.9564852e+2, 324152.5, -115537.29, -68172.445, 0.053265527, -0.119544365, 334479.84, 377111.78, 0.0, 10.003627, 9.997792 
3.0512372e+2, 3.0564585e+2, 346778.56, -119321.195, -11652.73, 0.07316369, -0.14687692, 347069.7, 347069.7, 0.0, 10.003619, 9.997437 
3.051367e+2, 3.1564316e+2, 277573.4, -150311.5, 56252.285, 0.024745837, -0.15559867, 284845.06, 284845.06, 0.000000009333619, 10.003129, 9.997459 
3.149035e+2, 1.2564802e+2, -1954813.9, -1765311.8, -59879.664, -0.0052031195, -0.11628213, -1747976.6, -39340.254, 0.00006650563, 9.9980755, 10.00058 
3.1491795e+2, 1.3564907e+2, -1873492.9, -1691185.6, 32821.12, 0.053670738, -0.050323714, -1685456.8, -74827.64, 0.000025576577, 9.998023, 10.000445 
3.1493053e+2, 1.4564903e+2, -1693448.6, -1494352.1, -34205.68, -0.015712913, -0.1280556, -1488639.4, 23989.72, 0.000004447986, 9.998333, 10.000969 
3.1494248e+2, 1.5564987e+2, -1521847.1, -1374415.9, -36499.3, -0.04390636, -0.13778499, -1365874.6, 48742.914, 0.00000006594377, 9.9988985, 10.000846 
3.1495455e+2, 1.6565023e+2, -1443090.6, -1380407.3, -56358.086, -0.03434903, -0.13878599, -1347262.3, -30648.863, 0.0, 9.999175, 9.999998 
3.149665e+2, 1.756502e+2, -1337812.0, -1279291.3, -72035.664, -0.027685413, -0.14671217, -1230800.0, -12184.822, 0.0, 9.999227, 9.999994 
3.1497848e+2, 1.8565027e+2, -1221670.5, -1193265.3, -66700.93, -0.027373055, -0.12708217, -1139271.6, -18656.418, 0.0, 9.999439, 9.999811 
3.149907e+2, 1.9565046e+2, -1073340.5, -1073280.8, -61387.79, -0.018144296, -0.09335248, -1011922.9, 10690.785, 0.0, 9.999796, 9.999789 
3.1500304e+2, 2.056497e+2, -962796.9, -1022741.4, -62898.227, 0.013517502, -0.11937756, -923094.7, 1525.9838, 0.0, 10.000113, 9.9993105 
3.150155e+2, 2.1564823e+2, -824435.7, -909044.5, -62158.098, 0.057954144, -0.1998074, -791551.7, 35082.867, 0.0, 10.000404, 9.999278 
3.1502727e+2, 2.2564757e+2, -682461.75, -843998.1, -62658.926, 0.036955614, -0.16751225, -661006.44, 67635.26, 0.0, 10.000937, 9.9987955 
3.150385e+2, 2.356475e+2, -483311.3, -703260.7, -58347.215, -0.032606117, -0.056668602, -468791.7, 161852.05, 0.0, 10.001658, 9.998741 
3.1505075e+2, 2.4564579e+2, -395814.6, -711624.2, -63369.227, -0.016007999, -0.051730603, -383573.63, 149087.6, 0.0, 10.002024, 9.997835 
3.1506371e+2, 2.5564283e+2, -282252.53, -601939.1, -80824.836, 0.06770395, -0.13696611, -262979.88, 171710.81, 0.0, 10.002112, 9.997872 
3.1507632e+2, 2.6564077e+2, -134869.42, -442658.78, -62125.49, 0.084948115, -0.1432831, -122802.81, 213907.64, 0.0, 10.002294, 9.998204 
3.1508857e+2, 2.7563947e+2, -3682.7012, -333612.88, -39535.875, 0.04834566, -0.09881246, 988.78076, 239711.78, 0.0, 10.002543, 9.998159 
3.1510115e+2, 2.8563726e+2, 103969.12, -322855.16, -35851.195, 0.034769785, -0.091650374, 106959.49, 247703.97, 0.0, 10.003005, 9.997339 
3.1511393e+2, 2.9563442e+2, 296336.47, -171337.17, -46541.813, 0.036090054, -0.11262525, 300923.22, 343695.2, 0.0, 10.003618, 9.997412 
3.1512722e+2, 3.056323e+2, 410770.16, 13156.066, -31032.582, 0.060722113, -0.113050304, 413177.56, 413177.56, 0.0, 10.00362, 9.998346 
3.1514016e+2, 3.156298e+2, 337865.53, -24336.656, 41103.71, 0.057057176, -0.19588453, 342471.5, 342471.5, 0.0000000005270663, 10.003125, 9.998327 
3.249013e+2, 1.2563485e+2, -2009835.0, -1789881.6, -106672.94, -0.011383595, -0.10853095, -1746646.1, -37880.223, 0.00006287029, 9.997693, 10.000593 
3.2491624e+2, 1.3563561e+2, -1816713.0, -1653509.8, 46987.25, 0.064487465, -0.080729686, -1640948.6, -30188.012, 0.000025189593, 9.998368, 10.000537 
3.249293e+2, 1.4563578e+2, -1634754.5, -1478608.8, -7339.887, 0.003937889, -0.13634427, -1478264.5, 34494.438, 0.0000050024137, 9.998792, 10.0008545 
3.2494146e+2, 1.5563709e+2, -1524121.9, -1387413.3, -32372.139, -0.033430092, -0.089420356, -1380135.1, 34609.195, 0.000000115129794, 9.998934, 10.000739 
3.249537e+2, 1.6563737e+2, -1451673.8, -1397877.1, -50843.348, -0.037922483, -0.087292515, -1367255.3, -50513.906, 0.0, 9.999174, 9.999878 
3.249656e+2, 1.7563684e+2, -1303077.1, -1274679.1, -44199.813, -0.05182845, -0.1309768, -1242453.6, -23706.043, 0.0, 9.999519, 9.999885 
3.2497793e+2, 1.8563668e+2, -1169029.1, -1172243.6, -31504.834, -0.042997297, -0.12735996, -1139090.6, -18341.375, 0.0, 9.999821, 9.99977 
3.2499075e+2, 1.9563682e+2, -1033722.7, -1059629.0, -41731.797, -0.004542872, -0.0936956, -1002980.0, 19767.145, 0.0, 10.000091, 9.999742 
3.2500345e+2, 2.0563601e+2, -934141.94, -1024151.3, -55240.52, 0.029989969, -0.1181524, -907894.0, 16860.709, 0.0, 10.000373, 9.999175 
3.25016e+2, 2.1563445e+2, -795866.75, -909389.3, -65483.273, 0.056757264, -0.19505334, -765968.4, 60801.453, 0.0, 10.000662, 9.99915 
3.250282e+2, 2.2563367e+2, -673239.3, -851569.0, -66137.46, 0.030966839, -0.1622768, -651388.25, 77389.97, 0.0, 10.001054, 9.998686 
3.250401e+2, 2.3563346e+2, -508689.2, -725934.2, -77854.016, -0.033430338, -0.053636737, -483670.0, 147111.66, 0.0, 10.00153, 9.998647 
3.2505268e+2, 2.4563166e+2, -415953.97, -710063.2, -77170.56, -0.015135993, -0.059020575, -396935.22, 135864.4, 0.0, 10.001838, 9.997935 
3.2506576e+2, 2.5562865e+2, -290174.72, -595452.0, -48254.63, 0.06648172, -0.16005152, -282728.8, 152099.97, 0.0, 10.002014, 9.997964 
3.2507858e+2, 2.656267e+2, -148029.25, -450573.63, -28871.488, 0.08671279, -0.1598305, -145298.72, 191548.67, 0.0, 10.00221, 9.998191 
3.2509112e+2, 2.7562562e+2, -21897.107, -343046.0, -49785.38, 0.059161536, -0.091978565, -14356.305, 224501.86, 0.0, 10.00242, 9.998155 
3.2510397e+2, 2.8562334e+2, 57907.082, -331187.8, -32236.324, 0.03997021, -0.09391279, 60559.758, 201439.75, 0.0, 10.002629, 9.997463 
3.25117e+2, 2.9562032e+2, 188226.72, -211306.17, -3004.224, 0.024442224, -0.14656356, 188249.31, 231158.64, 0.0, 10.002824, 9.9975195 
3.2513043e+2, 3.0561873e+2, 335952.38, -24100.824, -22032.875, 0.04805835, -0.096822664, 337295.63, 337295.63, 0.0, 10.003112, 9.998335 
3.2514384e+2, 3.1561625e+2, 396476.0, 16106.169, -17451.959, 0.09334326, -0.17959037, 397275.03, 397275.03, 0.0, 10.003475, 9.998437 
3.3489874e+2, 1.2562092e+2, -1959590.4, -1688289.5, -93901.06, -0.03913134, -0.112499915, -1658959.9, 49944.41, 0.000061273975, 9.9977045, 10.001286 
3.349139e+2, 1.3562183e+2, -1767073.8, -1548940.3, 73796.86, -0.0052425666, -0.15011336, -1526319.8, 84573.234, 0.000025556885, 9.998361, 10.001259 
3.3492774e+2, 1.4562227e+2, -1663348.4, -1536742.8, -864.9755, -0.028078716, -0.1906778, -1536736.9, -23848.242, 0.0000055599335, 9.998786, 10.000459 
3.34941e+2, 1.5562382e+2, -1547357.5, -1437029.6, -25390.396, 0.02582312, -0.078786135, -1431466.9, -16592.12, 0.00000016881297, 9.99894, 10.000395 
3.349535e+2, 1.6562426e+2, -1436322.4, -1368434.4, -38826.383, 0.021467865, -0.055527013, -1350806.3, -33935.367, 0.0, 9.999183, 10.000077 
3.3496502e+2, 1.7562383e+2, -1291299.3, -1249908.8, -30585.004, -0.0638629, -0.11017322, -1233675.3, -14800.298, 0.0, 9.999516, 10.000057 
3.3497763e+2, 1.8562333e+2, -1186539.5, -1206868.8, -21547.28, -0.057526074, -0.13644424, -1172879.6, -52000.418, 0.0, 9.999813, 9.9995365 
3.3499125e+2, 1.9562279e+2, -1051152.0, -1095544.6, -30675.516, 0.03346699, -0.14897205, -1035484.6, -12600.588, 0.0, 10.000089, 9.9994955 
3.3500385e+2, 2.0562218e+2, -954077.06, -1064497.0, -44690.992, 0.03404723, -0.12584373, -938255.9, -13365.606, 0.0, 10.000368, 9.998901 
3.350157e+2, 2.1562153e+2, -815047.7, -948921.2, -53383.67, -0.03963647, -0.08342812, -796367.0, 30530.63, 0.0, 10.000659, 9.998881 
3.350287e+2, 2.256202e+2, -694826.5, -895001.44, -48664.902, -0.0214957, -0.07780484, -683622.56, 45289.42, 0.0, 10.001048, 9.998391 
3.3504266e+2, 2.3561831e+2, -525602.06, -759527.9, -59639.273, 0.07102089, -0.11068715, -511274.56, 119657.516, 0.0, 10.001523, 9.99842 
3.350554e+2, 2.4561669e+2, -365784.38, -604704.25, -70821.92, 0.07466548, -0.12579647, -346368.75, 186578.23, 0.0, 10.001832, 9.998661 
3.3506718e+2, 2.556153e+2, -245705.5, -502060.28, -40919.28, 0.0066714617, -0.13313042, -239332.4, 195625.23, 0.0, 10.002009, 9.998607 
3.3508e+2, 2.6561353e+2, -189439.5, -536082.56, -21777.393, 0.0067139855, -0.115114786, -188076.72, 148897.83, 0.0, 10.002207, 9.997605 
3.3509356e+2, 2.7561143e+2, -56180.582, -414751.72, -41129.117, 0.061558377, -0.09090537, -51523.445, 187473.39, 0.0, 10.002422, 9.997662 
3.3510682e+2, 2.8560892e+2, 106336.84, -230894.55, -25362.418, 0.06149713, -0.13254313, 108233.625, 249254.17, 0.0, 10.00263, 9.998152 
3.3511972e+2, 2.9560626e+2, 227577.77, -127098.8, 5528.6787, 0.013361259, -0.21786131, 227663.92, 270707.88, 0.0, 10.002813, 9.998103 
3.351334e+2, 3.0560517e+2, 270342.7, -157248.27, -10335.432, 0.03202623, -0.097635336, 270592.38, 270592.38, 0.0, 10.0030985, 9.997427 
3.3514762e+2, 3.156024e+2, 353427.28, -71700.02, -1772.4259, 0.12308813, -0.11971492, 353434.7, 353434.7, 0.0, 10.0034685, 9.997836 
3.4489658e+2, 1.2560725e+2, -1920891.0, -1659812.4, -58670.445, -0.035948765, -0.12324999, -1647233.8, 61804.152, 0.000060228966, 9.997928, 10.001371 
3.449121e+2, 1.3560833e+2, -1765405.5, -1530745.0, 69927.74, -0.015442603, -0.16018684, -1511487.4, 99536.61, 0.000025763518, 9.998294, 10.001417 
3.449264e+2, 1.456088e+2, -1694953.0, -1560947.3, -20889.5, -0.032396607, -0.20195612, -1557766.4, -44747.27, 0.000005876301, 9.998609, 10.000377 
3.4493986e+2, 1.556101e+2, -1569294.8, -1455507.3, -24346.16, 0.021351809, -0.10968028, -1450517.0, -35508.61, 0.0000002059256, 9.998825, 10.000323 
3.4495276e+2, 1.6561054e+2, -1432430.4, -1369519.1, -26790.502, 0.02951175, -0.08146585, -1359656.6, -42651.805, 0.0, 9.999224, 10.000049 
3.4496492e+2, 1.7561033e+2, -1253496.9, -1235458.6, -37740.223, -0.036508843, -0.10943502, -1205674.9, 13331.882, 0.0, 9.999791, 10.000023 
3.4497774e+2, 1.8560979e+2, -1153123.0, -1207877.0, -40242.793, -0.04311408, -0.13056661, -1131827.9, -10816.088, 0.0, 10.000115, 9.999383 
3.4499115e+2, 1.9560896e+2, -1038600.1, -1105301.1, -43691.48, 0.01036756, -0.15407719, -1016985.1, 6034.2153, 0.0, 10.000245, 9.9993515 
3.4500405e+2, 2.0560831e+2, -935979.4, -1065636.9, -40036.773, 0.009109798, -0.12541668, -924612.94, 413.3783, 0.0, 10.000535, 9.998812 
3.450165e+2, 2.1560776e+2, -777817.44, -940507.75, -36479.027, -0.03973166, -0.06498484, -770012.4, 57020.414, 0.0, 10.000956, 9.998796 
3.4502986e+2, 2.2560626e+2, -688350.3, -895023.9, -18928.146, -0.01341197, -0.069590785, -686631.06, 42417.48, 0.0, 10.001106, 9.9983635 
3.4504396e+2, 2.3560402e+2, -597498.9, -796083.4, -11147.28, 0.073604584, -0.13427696, -596875.06, 34196.574, 0.0, 10.001039, 9.998402 
3.4505704e+2, 2.4560252e+2, -419599.84, -614931.6, -28751.213, 0.07697194, -0.14344169, -415455.8, 117629.305, 0.0, 10.001394, 9.998801 
3.450693e+2, 2.5560164e+2, -225357.4, -478352.28, -43657.98, 0.013795892, -0.116015844, -218035.48, 217055.53, 0.0, 10.0020895, 9.998732 
3.4508234e+2, 2.6559982e+2, -146875.13, -528916.06, -29477.678, 0.0048119905, -0.10186414, -144614.06, 192494.02, 0.0, 10.002557, 9.997486 
3.45096e+2, 2.755972e+2, -5150.094, -404123.2, -17330.371, 0.03887575, -0.112421304, -4398.722, 234735.81, 0.0, 10.002832, 9.997538 
3.4510943e+2, 2.855946e+2, 126299.28, -231498.58, -27835.848, 0.05177925, -0.15700291, 128451.9, 269611.72, 0.0, 10.0028105, 9.99806 
3.4512272e+2, 2.9559207e+2, 185314.02, -159246.81, -54537.074, 0.044873547, -0.2191271, 193740.08, 236922.73, 0.0, 10.002572, 9.997998 
3.4513643e+2, 3.0559105e+2, 206672.31, -202802.86, -47141.164, 0.0472288, -0.08252891, 212029.39, 212029.39, 0.0, 10.002725, 9.9972925 
3.451508e+2, 3.1558785e+2, 321666.47, -61121.21, 13464.121, 0.11175874, -0.13421482, 322139.47, 322139.47, 0.0, 10.00314, 9.998066 
3.5489485e+2, 1.2559386e+2, -1959721.1, -1739668.0, -55471.16, -0.005062496, -0.14142732, -1726475.8, -17309.086, 0.00005843651, 9.997925, 10.000825 
3.549108e+2, 1.3559519e+2, -1794452.9, -1593227.5, 85848.18, 0.023015667, -0.107554406, -1561579.8, 49573.246, 0.000025162195, 9.998302, 10.000984 
3.549251e+2, 1.455954e+2, -1675774.3, -1524561.1, -12610.312, -0.022337958, -0.1665085, -1523516.8, -10366.486, 0.0000057861466, 9.998621, 10.000622 
3.5493797e+2, 1.5559584e+2, -1555296.8, -1425578.6, -14657.599, -0.048025563, -0.18331328, -1423943.0, -8797.609, 0.00000020730299, 9.998819, 10.000532 
3.549515e+2, 1.6559613e+2, -1451820.0, -1408569.1, -5875.113, -0.015947968, -0.16605951, -1407785.3, -90642.055, 0.0, 9.999218, 9.9997835 
3.5496533e+2, 1.7559631e+2, -1270729.4, -1272343.6, -16229.606, 0.023567807, -0.12886743, -1255286.9, -36143.695, 0.0, 9.999796, 9.999767 
3.549782e+2, 1.8559603e+2, -1157184.0, -1217497.1, -35874.19, -0.0072833085, -0.10852758, -1140475.1, -19328.336, 0.0, 10.000119, 9.999316 
3.549905e+2, 1.9559537e+2, -1041903.56, -1112455.8, -37635.37, -0.07713654, -0.11016681, -1025596.5, -2443.105, 0.0, 10.000245, 9.999304 
3.55004e+2, 2.0559438e+2, -930249.25, -1052159.1, -24660.305, -0.048211783, -0.11765302, -925449.8, -286.7642, 0.0, 10.000528, 9.998908 
3.5501838e+2, 2.1559311e+2, -771706.2, -926334.9, -20737.805, 0.05219486, -0.13891558, -768973.25, 58202.145, 0.0, 10.000949, 9.998898 
3.550316e+2, 2.2559184e+2, -673141.94, -861929.8, -22050.885, 0.051282544, -0.13714844, -670600.5, 58587.43, 0.0, 10.0011, 9.998593 
3.5504398e+2, 2.3559059e+2, -584199.2, -768595.56, -11650.09, -0.026990429, -0.12500739, -583466.06, 47734.625, 0.0, 10.001039, 9.99859 
3.5505757e+2, 2.4558917e+2, -450425.7, -678249.9, -3400.2073, -0.009949332, -0.11296104, -450374.97, 82839.44, 0.0, 10.001391, 9.998368 
3.5507205e+2, 2.555876e+2, -252979.38, -533686.1, -18019.287, 0.08181933, -0.10863518, -251827.39, 183401.45, 0.0, 10.002081, 9.998356 
3.5508558e+2, 2.6558557e+2, -125400.016, -481826.06, -19301.77, 0.074429445, -0.11962739, -124357.805, 212890.13, 0.0, 10.002546, 9.997814 
3.550983e+2, 2.7558306e+2, 10709.271, -368621.3, -7122.129, -0.011933127, -0.1548697, 10842.946, 250114.19, 0.0, 10.002821, 9.9977865 
3.551118e+2, 2.8558043e+2, 65719.89, -355945.28, -37768.715, 0.008521591, -0.16740625, 69076.14, 210373.94, 0.0, 10.002805, 9.99721 
3.5512596e+2, 2.9557776e+2, 132260.22, -270819.47, -60353.36, 0.11137416, -0.15496917, 141102.97, 184428.4, 0.0, 10.002578, 9.99723 
3.5513955e+2, 3.0557632e+2, 248497.95, -116548.58, -30887.586, 0.086065084, -0.05261192, 251092.98, 251092.98, 0.0, 10.002727, 9.997885 
3.551533e+2, 3.1557265e+2, 390084.8, 85993.78, 29769.734, 0.04869256, -0.21609011, 392971.78, 392971.78, 0.0, 10.0031185, 9.999087 
3.6489284e+2, 1.2557986e+2, -1957277.0, -1756606.4, -113951.41, 0.0013330202, -0.14590867, -1705112.5, 4190.587, 0.000055122826, 9.99802, 10.000662 
3.6490917e+2, 1.3558125e+2, -1812436.5, -1611376.4, 68261.81, 0.036284864, -0.095446, -1590391.1, 20898.496, 0.000023501116, 9.9982195, 10.000899 
3.6492395e+2, 1.4558147e+2, -1674808.8, -1527850.6, -24981.557, -0.0010791535, -0.14944363, -1523720.1, -10433.113, 0.00000526637, 9.998644, 10.000588 
3.6493695e+2, 1.555816e+2, -1504528.1, -1403802.6, -50719.703, -0.048974592, -0.19477507, -1382688.9, 32595.87, 0.00000017249042, 9.999179, 10.000508 
3.6495078e+2, 1.655818e+2, -1424662.6, -1393783.0, -40429.453, -0.020393526, -0.18536302, -1365945.5, -48662.34, 0.0, 9.999397, 9.999798 
3.6496493e+2, 1.755821e+2, -1331871.3, -1299456.0, -30464.17, 0.02826072, -0.13895428, -1281156.4, -61874.34, 0.0, 9.999368, 9.999786 
3.6497813e+2, 1.855819e+2, -1211442.9, -1238729.4, -29856.486, -0.004629335, -0.11253974, -1192260.1, -70975.36, 0.0, 9.999725, 9.99936 
3.6499074e+2, 1.9558132e+2, -1013916.8, -1094068.6, -25186.648, -0.08696634, -0.11090835, -1006659.4, 16631.336, 0.0, 10.000414, 9.999349 
3.650045e+2, 2.055803e+2, -908215.3, -1039084.4, -19494.156, -0.05724332, -0.12426527, -905373.2, 19927.443, 0.0, 10.000669, 9.998932 
3.6501914e+2, 2.1557891e+2, -825704.44, -949082.7, -22131.236, 0.05437848, -0.15755196, -821854.75, 5459.0693, 0.0, 10.000565, 9.998926 
3.6503258e+2, 2.2557774e+2, -706067.75, -870461.1, -27400.51, 0.054105587, -0.15158206, -701621.0, 27704.28, 0.0, 10.000841, 9.99866 
3.6504516e+2, 2.3557673e+2, -525134.56, -735241.0, -30106.797, -0.03145334, -0.1221936, -520905.56, 110429.84, 0.0, 10.001423, 9.998635 
3.6505905e+2, 2.4557519e+2, -425208.03, -698430.75, -16208.435, -0.015829543, -0.10822786, -424249.84, 109100.86, 0.0, 10.001703, 9.998079 
3.6507392e+2, 2.5557324e+2, -320220.9, -594789.9, -22100.38, 0.07795066, -0.114676975, -318453.4, 116916.7, 0.0, 10.001741, 9.9981 
3.650878e+2, 2.6557115e+2, -201105.2, -486480.16, -23586.06, 0.07730377, -0.13451089, -199168.95, 138220.58, 0.0, 10.001887, 9.9981 
3.651009e+2, 2.7556884e+2, -70554.39, -378218.84, -15645.424, 0.0024785767, -0.17600141, -69760.836, 169648.66, 0.0, 10.002134, 9.998052 
3.651146e+2, 2.855664e+2, 37413.14, -381075.5, -15562.697, 0.016407935, -0.17703736, 37991.086, 179425.06, 0.0, 10.002658, 9.997108 
3.651288e+2, 2.9556388e+2, 237612.08, -233654.83, 13396.465, 0.09877961, -0.14191674, 237992.6, 281453.44, 0.0, 10.00336, 9.997109 
3.6514232e+2, 3.0556196e+2, 289707.4, -123161.08, 17752.363, 0.07019613, -0.071451366, 290469.28, 290469.28, 0.0, 10.003122, 9.997649 
3.6515626e+2, 3.1555793e+2, 265828.94, 39557.535, 13600.459, 0.078713864, -0.24718995, 266643.47, 266643.47, 0.0, 10.002204, 9.99921 
3.748906e+2, 1.2556519e+2, -1939906.4, -1721663.4, -121310.41, -0.030739797, -0.13539031, -1667617.1, 41830.652, 0.00005010573, 9.998024, 10.0009 
3.7490726e+2, 1.3556652e+2, -1792886.1, -1571407.8, 78354.84, 0.023460688, -0.12432934, -1546490.6, 64943.414, 0.000020857056, 9.9982195, 10.001175 
3.749229e+2, 1.4556696e+2, -1697155.5, -1573963.4, -4727.39, 0.029812925, -0.15069735, -1573782.3, -60352.7, 0.000004428325, 9.998643, 10.000272 
3.7493673e+2, 1.555673e+2, -1522871.1, -1442753.5, -31061.691, 0.0112874275, -0.14229748, -1432121.8, -16695.13, 0.00000011962439, 9.999183, 10.000238 
3.7495047e+2, 1.6556752e+2, -1402396.9, -1349069.6, -42352.625, 0.007860352, -0.1367061, -1325686.4, -8261.6875, 0.0, 9.999402, 10.000102 
3.749638e+2, 1.7556763e+2, -1310844.5, -1256259.5, -29581.127, -0.024774816, -0.1395769, -1243303.6, -23880.271, 0.0, 9.999368, 10.000084 
3.749775e+2, 1.8556736e+2, -1201050.4, -1216775.9, -4565.1274, -0.039024115, -0.1432251, -1199821.3, -78395.37, 0.0, 9.999723, 9.999512 
3.749918e+2, 1.9556677e+2, -1004461.94, -1073945.0, -46.733887, -0.023176113, -0.15657817, -1004461.9, 18969.615, 0.0, 10.000412, 9.999489 
3.750055e+2, 2.0556603e+2, -912448.9, -1046917.6, -23832.979, -0.02140269, -0.14496791, -908349.75, 17089.336, 0.0, 10.000664, 9.99888 
3.750188e+2, 2.1556519e+2, -829735.56, -956537.8, -23949.719, -0.035858728, -0.1220027, -825362.9, 2085.3625, 0.0, 10.00056, 9.998877 
3.750328e+2, 2.2556396e+2, -713510.25, -884880.0, -6299.4604, -0.008396083, -0.11352339, -713279.0, 16181.619, 0.0, 10.000836, 9.998564 
3.7504745e+2, 2.3556244e+2, -532545.3, -749242.94, -8841.93, 0.05508702, -0.12622915, -532185.1, 99290.67, 0.0, 10.001416, 9.998543 
3.7506142e+2, 2.455606e+2, -437008.88, -720934.0, -15125.405, 0.054573458, -0.12980516, -436205.4, 97288.664, 0.0, 10.001695, 9.99793 
3.750749e+2, 2.5555852e+2, -330032.38, -614654.4, -19403.162, 0.0011777472, -0.13354053, -328715.72, 106799.0, 0.0, 10.0017395, 9.997965 
3.7508905e+2, 2.6555654e+2, -185146.64, -452565.1, -14879.736, 0.012185982, -0.14614956, -184321.25, 153211.67, 0.0, 10.0018835, 9.998335 
3.7510377e+2, 2.755546e+2, -53096.47, -339345.1, -4479.71, 0.0751964, -0.17749503, -53026.38, 186523.08, 0.0, 10.002123, 9.998324 
3.7511778e+2, 2.8555253e+2, 78992.42, -290576.53, 10636.008, 0.06880943, -0.18656985, 79298.266, 220866.89, 0.0, 10.00264, 9.997738 
3.7513122e+2, 2.955504e+2, 271804.5, -158893.53, 36481.043, 0.0057166643, -0.17631523, 274872.7, 318461.78, 0.0, 10.003344, 9.99763 
3.751447e+2, 3.0554786e+2, 217534.97, -272693.53, -18733.621, -0.002146393, -0.13583785, 218249.81, 218249.81, 0.0, 10.003121, 9.996623 
3.751595e+2, 3.1554368e+2, 216499.86, -65027.484, -20518.643, 0.1859608, -0.22864237, 217987.47, 217987.47, 0.0, 10.002214, 9.998486 
3.8488847e+2, 1.2555028e+2, -2006125.5, -1745814.3, -103042.31, -0.021144994, -0.1552266, -1709963.3, -370.02493, 0.00004363311, 9.99754, 10.000965 
3.8490558e+2, 1.3555166e+2, -1720247.0, -1523958.8, 92423.73, 0.014212193, -0.15090714, -1487290.4, 124288.27, 0.000017489165, 9.998662, 10.001287 
3.8492188e+2, 1.4555237e+2, -1626573.6, -1546129.6, -555.2091, 0.03787717, -0.15439506, -1546125.9, -32553.762, 0.0000034194288, 9.999153, 10.0002165 
3.84936e+2, 1.5555283e+2, -1551631.9, -1461738.6, -10858.118, 0.028438434, -0.12826766, -1460445.6, -44877.203, 0.00000006772674, 9.999008, 10.000193 
3.849499e+2, 1.65553e+2, -1422923.1, -1355908.1, -20776.346, 0.017594881, -0.1259328, -1349989.6, -32422.777, 0.0, 9.999248, 10.000132 
3.8496324e+2, 1.7555296e+2, -1238478.6, -1217851.4, -29907.395, -0.036956586, -0.14709541, -1196529.3, 23037.473, 0.0, 9.999848, 10.000116 
3.8497737e+2, 1.8555269e+2, -1159082.1, -1193858.3, -20244.396, -0.039835315, -0.15525478, -1149783.5, -28214.309, 0.0, 10.0, 9.9995365 
3.849922e+2, 1.9555217e+2, -1096003.3, -1114926.3, -26501.18, 0.012737273, -0.16237672, -1077325.3, -53750.94, 0.0, 9.99977, 9.999516 
3.8500616e+2, 2.0555152e+2, -998029.06, -1082444.4, -46314.21, 0.00636164, -0.14789991, -977574.94, -51993.73, 0.0, 10.000052, 9.99893 
3.8501927e+2, 2.1555072e+2, -798331.7, -936872.6, -40370.563, -0.052024625, -0.124175094, -787426.25, 40163.46, 0.0, 10.000756, 9.998918 
3.8503358e+2, 2.2554953e+2, -683385.56, -882887.9, -18286.807, -0.029097406, -0.10800089, -681723.25, 47878.973, 0.0, 10.001097, 9.998451 
3.8504878e+2, 2.3554802e+2, -578480.1, -781084.75, -24079.291, 0.0602087, -0.10729825, -575657.6, 55960.45, 0.0, 10.0011425, 9.998455 
3.8506305e+2, 2.4554622e+2, -470943.78, -704070.0, -17022.74, 0.06475137, -0.119383335, -469707.38, 63928.316, 0.0, 10.001319, 9.998226 
3.8507655e+2, 2.555442e+2, -330720.0, -583861.5, 10618.033, 0.00035843367, -0.14899738, -330275.4, 105379.18, 0.0, 10.001601, 9.998242 
3.8509083e+2, 2.655424e+2, -205387.14, -465334.9, 19842.428, 0.010361396, -0.15653668, -203881.25, 133789.73, 0.0, 10.001757, 9.998308 
3.8510573e+2, 2.755407e+2, -101828.52, -364606.56, 10413.098, 0.08025192, -0.15767978, -101416.53, 138269.11, 0.0, 10.001795, 9.998309 
3.8512015e+2, 2.8553867e+2, -7465.239, -313565.9, 12645.608, 0.07754342, -0.17008711, -6943.713, 134760.53, 0.0, 10.001965, 9.997906 
3.8513413e+2, 2.9553637e+2, 125778.99, -213229.83, 1003.3439, 0.016191885, -0.19410539, 125781.96, 169507.61, 0.0, 10.002269, 9.997775 
3.851476e+2, 3.055335e+2, 179506.02, -294068.06, -46059.688, -0.008335768, -0.19133236, 183944.17, 183944.17, 0.0, 10.002872, 9.996596 
3.851624e+2, 3.1553018e+2, 437528.47, 49277.48, 19100.482, 0.17938879, -0.19401105, 438465.88, 438465.88, 0.000000000002787424, 10.003699, 9.998557 
3.9488646e+2, 1.2553513e+2, -2016285.4, -1764581.0, -73433.93, 0.02551076, -0.20608534, -1744723.5, -34984.26, 0.0000362571, 9.997532, 10.00084 
3.9490414e+2, 1.3553672e+2, -1723454.0, -1531801.5, 134699.9, 0.0028667494, -0.17562565, -1462319.8, 149404.02, 0.000013744367, 9.998666, 10.001233 
3.949208e+2, 1.4553767e+2, -1612199.9, -1516821.9, -5136.1104, 0.014840791, -0.16017771, -1516546.1, -2831.569, 0.0000023661473, 9.999154, 10.000418 
3.9493468e+2, 1.5553816e+2, -1538746.4, -1435770.1, -14415.046, -0.0026471212, -0.15357165, -1433790.3, -18079.844, 0.000000028035489, 9.99901, 10.00037 
3.94949e+2, 1.6553825e+2, -1440545.6, -1392829.0, 671.10846, 0.0037692965, -0.15351915, -1392819.6, -75109.65, 0.0, 9.9992485, 9.999878 
3.9496335e+2, 1.7553811e+2, -1255075.3, -1252395.8, -8197.155, -0.011378587, -0.16099568, -1245429.6, -25717.76, 0.0, 9.999848, 9.99988 
3.9497766e+2, 1.8553787e+2, -1166344.3, -1209081.4, -29202.14, -0.011105981, -0.14773801, -1151527.5, -29812.627, 0.0, 10.0, 9.999432 
3.9499202e+2, 1.9553752e+2, -1102528.0, -1127962.3, -32651.682, 0.017421847, -0.12838413, -1080204.4, -56485.223, 0.0, 9.999768, 9.999428 
3.9500636e+2, 2.055367e+2, -988284.4, -1061156.1, -20393.98, 0.021741156, -0.13293782, -982965.1, -57237.957, 0.0, 10.000048, 9.999079 
3.9502057e+2, 2.155355e+2, -789599.94, -917554.6, -14303.136, 0.0011317971, -0.16393757, -788020.6, 39717.582, 0.0, 10.000751, 9.999053 
3.9503482e+2, 2.2553444e+2, -693744.25, -902675.6, -17033.885, -0.011939969, -0.13507375, -692364.6, 37385.293, 0.0, 10.001089, 9.99832 
3.9504912e+2, 2.3553348e+2, -585079.3, -793905.5, -21275.39, -0.016941775, -0.066707134, -582933.8, 48828.527, 0.0, 10.001139, 9.998369 
3.9506382e+2, 2.4553205e+2, -420864.0, -598548.4, -7112.9795, 0.012339878, -0.07764459, -420579.72, 113196.05, 0.0, 10.001312, 9.998954 
3.9507884e+2, 2.555302e+2, -284271.66, -485148.53, 20980.715, 0.06886126, -0.16126665, -282103.72, 153686.25, 0.0, 10.001591, 9.998925 
3.9509314e+2, 2.655286e+2, -225609.1, -505177.0, 20346.244, 0.06631769, -0.16648392, -224136.1, 113667.92, 0.0, 10.001748, 9.998039 
3.951069e+2, 2.7552715e+2, -120738.74, -404805.13, 12422.542, 0.016620237, -0.11670289, -120196.52, 119621.625, 0.0, 10.001799, 9.998032 
3.9512172e+2, 2.8552485e+2, -26528.498, -354600.5, 22980.568, 0.039596535, -0.12825343, -24926.592, 116914.13, 0.0, 10.00197, 9.997622 
3.9513743e+2, 2.9552183e+2, 108971.3, -245412.64, 14362.439, 0.11923791, -0.1952526, 109552.42, 153422.48, 0.0, 10.002257, 9.9975605 
3.95151e+2, 3.055189e+2, 241072.22, -161397.1, -15480.697, 0.04408789, -0.23849109, 241666.8, 241666.8, 0.0, 10.002853, 9.997517 
3.9516488e+2, 3.155175e+2, 491535.0, 167824.48, 47090.3, 0.05479966, -0.14307733, 498246.1, 498246.1, 0.000000001718879, 10.003675, 9.999382 
4.0488476e+2, 1.2552011e+2, -1940001.9, -1741559.8, -82623.375, 0.072023414, -0.21357462, -1711662.9, -1778.1782, 0.000028702449, 9.9981165, 10.000716 
4.0490252e+2, 1.355215e+2, -1779801.0, -1567710.3, 134909.34, -0.0051815594, -0.1938699, -1502156.8, 109714.74, 0.000010028613, 9.998317, 10.001157 
4.049196e+2, 1.4552255e+2, -1668899.3, -1536096.6, -25800.791, 0.0014481967, -0.16922517, -1531260.3, -17398.582, 0.0000013962007, 9.99873, 10.00049 
4.0493354e+2, 1.5552305e+2, -1496633.3, -1407588.5, -48097.152, -0.029702289, -0.16991186, -1386570.3, 29287.316, 0.000000006286357, 9.999265, 10.000441 
4.0494823e+2, 1.6552317e+2, -1396457.1, -1378946.5, -22008.19, -0.009444338, -0.16601178, -1364016.0, -46159.09, 0.0, 9.999582, 9.999812 
4.0496334e+2, 1.7552309e+2, -1280572.9, -1272272.4, -18845.238, 0.010903562, -0.16038403, -1257125.8, -37267.11, 0.0, 9.999705, 9.999812 
4.049779e+2, 1.8552285e+2, -1182904.3, -1226566.5, -42869.08, 0.016276151, -0.13722076, -1156627.6, -34765.758, 0.0, 9.999928, 9.999346 
4.0499213e+2, 1.955225e+2, -1035968.56, -1104838.4, -45672.76, 0.0250552, -0.11106798, -1013204.1, 10662.733, 0.0, 10.000263, 9.999348 
4.0500665e+2, 2.0552163e+2, -924013.1, -1028048.9, -24290.916, 0.025978357, -0.11969527, -918621.0, 7254.5967, 0.0, 10.00048, 9.999098 
4.0502134e+2, 2.155203e+2, -809969.5, -923428.7, -29666.611, 0.013174633, -0.16400757, -802680.75, 25206.678, 0.0, 10.000595, 9.999087 
4.050358e+2, 2.2551924e+2, -739084.0, -900250.56, -33981.89, -0.002507363, -0.14782955, -732211.94, -2313.354, 0.0, 10.000675, 9.998535 
4.0505004e+2, 2.3551838e+2, -630728.8, -792722.4, -12811.27, -0.017452942, -0.09125436, -629721.9, 2187.4783, 0.0, 10.000727, 9.998575 
4.0506494e+2, 2.4551718e+2, -469689.88, -615683.7, -3375.383, 0.013475203, -0.08994982, -469611.88, 64308.51, 0.0, 10.000949, 9.999012 
4.0508035e+2, 2.5551572e+2, -320965.0, -496713.28, -26449.193, 0.08017782, -0.14199172, -317070.8, 118860.79, 0.0, 10.001312, 9.9989805 
4.050949e+2, 2.6551408e+2, -235116.06, -516582.63, -42577.35, 0.06752508, -0.15146664, -228816.4, 109130.22, 0.0, 10.001712, 9.997978 
4.051086e+2, 2.7551225e+2, -72880.65, -387969.2, -36653.258, -0.008259004, -0.13367464, -68673.08, 171291.77, 0.0, 10.002154, 9.997975 
4.0512374e+2, 2.8551006e+2, 38131.266, -315339.22, -7062.454, 0.023432361, -0.13321659, 38272.32, 180258.6, 0.0, 10.002379, 9.997695 
4.0513992e+2, 2.9550755e+2, 135666.97, -222373.64, 10004.255, 0.14031887, -0.15831494, 135946.3, 179956.98, 0.0, 10.002397, 9.997651 
4.0515372e+2, 3.0550438e+2, 200174.47, -160102.67, -21096.406, 0.050064538, -0.23710208, 201405.6, 201405.6, 0.0, 10.0024805, 9.9977045 
4.051678e+2, 3.1550333e+2, 342569.03, 92013.914, -21013.563, 0.03168467, -0.12397284, 344319.16, 344319.16, 0.00000001196501, 10.002664, 9.999349 
4.1488326e+2, 1.255052e+2, -1949019.4, -1759973.0, -88720.1, 0.10908833, -0.17945133, -1724858.6, -14828.777, 0.000021697306, 9.9981165, 10.000588 
4.1490075e+2, 1.3550603e+2, -1786242.9, -1582321.1, 144379.36, -0.014392028, -0.20537385, -1507529.6, 104492.45, 0.000006740833, 9.99832, 10.001056 
4.1491824e+2, 1.45507e+2, -1673845.4, -1545955.3, -5274.335, -0.007864895, -0.18105341, -1545738.1, -31724.756, 0.0000006540361, 9.998728, 10.000424 
4.1493255e+2, 1.5550748e+2, -1499332.4, -1413173.3, -28060.943, -0.054498125, -0.17649561, -1404840.1, 11169.782, 0.0000000002364484, 9.999265, 10.000403 
4.149477e+2, 1.6550775e+2, -1388205.4, -1361239.4, -18149.775, -0.025355283, -0.16296801, -1352112.5, -34104.477, 0.0, 9.99958, 9.999935 
4.149632e+2, 1.755079e+2, -1273437.8, -1256585.0, -13342.557, 0.02534303, -0.1447559, -1249230.8, -29223.732, 0.0, 9.999702, 9.999922 
4.1497803e+2, 1.8550767e+2, -1188346.9, -1237553.5, -31023.451, 0.037083354, -0.12358851, -1173355.0, -51344.7, 0.0, 9.999927, 9.999271 
4.1499245e+2, 1.9550712e+2, -1041698.2, -1115824.6, -32866.84, 0.033392932, -0.1094702, -1029224.44, -5207.0728, 0.0, 10.000259, 9.999274 
4.1500703e+2, 2.0550625e+2, -932192.6, -1043833.4, -20369.453, 0.016479356, -0.107565396, -928592.2, -2565.7275, 0.0, 10.000475, 9.998992 
4.150216e+2, 2.1550511e+2, -815984.94, -934169.6, -24825.209, -0.01854694, -0.12477223, -810982.06, 17055.365, 0.0, 10.000587, 9.999017 
4.1503644e+2, 2.2550394e+2, -700699.5, -819313.9, -32598.646, -0.0043938807, -0.14627951, -692330.94, 37717.414, 0.0, 10.0006695, 9.999093 
4.150515e+2, 2.3550273e+2, -595903.75, -719957.8, -9794.96, 0.053395867, -0.17928272, -595135.1, 36924.0, 0.0, 10.000725, 9.999077 
4.1506642e+2, 2.4550168e+2, -512069.22, -702701.1, 9681.624, 0.063449144, -0.15529796, -511578.78, 22490.67, 0.0, 10.000945, 9.998416 
4.150812e+2, 2.5550076e+2, -360871.78, -578700.25, -12196.988, 0.033139743, -0.093549065, -360190.94, 75888.516, 0.0, 10.0013075, 9.99842 
4.15096e+2, 2.6549882e+2, -227029.44, -497640.25, -26457.686, 0.012541791, -0.11298855, -224466.92, 113631.7, 0.0, 10.001703, 9.998112 
4.1511083e+2, 2.7549604e+2, -65125.063, -367516.6, -19421.557, -0.00012706005, -0.20542522, -63882.785, 176242.47, 0.0, 10.002136, 9.998125 
4.1512612e+2, 2.8549436e+2, 65353.297, -254722.06, -6946.8403, 0.024345484, -0.18309909, 65503.996, 207644.66, 0.0, 10.002362, 9.998119 
4.1514173e+2, 2.954935e+2, 162314.72, -165651.22, 10647.134, 0.079605035, -0.085242964, 162660.02, 206807.86, 0.0, 10.002391, 9.998044 
4.1515577e+2, 3.0549002e+2, 165777.23, -232858.1, -14833.911, 0.0069088377, -0.18837714, 166328.47, 166328.47, 0.0, 10.002486, 9.997202 
4.151711e+2, 3.1548786e+2, 284956.66, -28438.22, -18473.516, 0.09196468, -0.13317592, 286041.84, 286041.84, 0.000000036873733, 10.002668, 9.998518 
4.2488128e+2, 1.2548918e+2, -1876893.0, -1725180.9, -146649.33, 0.0762447, -0.18445437, -1635930.4, 74256.19, 0.000015823704, 9.998614, 10.0005865 
4.24899e+2, 1.3549006e+2, -1734713.5, -1556772.0, 105858.984, -0.03306866, -0.20806144, -1507460.8, 104717.34, 0.0000041887733, 9.998669, 10.001063 
4.249172e+2, 1.4549111e+2, -1655946.0, -1551462.6, -30188.805, 0.008857438, -0.16907622, -1543367.3, -29198.447, 0.00000021832761, 9.998913, 10.000298 
4.2493188e+2, 1.5549137e+2, -1518789.0, -1434716.8, -61558.71, -0.041892864, -0.17416476, -1402210.9, 13957.227, 0.0, 9.999185, 10.000294 
4.2494726e+2, 1.6549163e+2, -1402061.9, -1352663.4, -60242.637, -0.015542638, -0.16546963, -1312253.3, 5913.226, 0.0, 9.999422, 10.00007 
4.2496294e+2, 1.7549188e+2, -1268045.4, -1239451.4, -55859.957, 0.033534493, -0.14815255, -1196087.9, 24075.994, 0.0, 9.999678, 10.000051 
4.24978e+2, 1.854917e+2, -1168667.8, -1222012.6, -59665.883, 0.039081015, -0.13247846, -1129983.9, -7817.5454, 0.0, 10.000036, 9.999325 
4.249927e+2, 1.954911e+2, -1006602.44, -1092612.4, -53760.18, 0.022939472, -0.12718439, -980762.75, 43410.613, 0.0, 10.000475, 9.999329 
4.2500737e+2, 2.0549035e+2, -930717.2, -1038102.2, -48348.355, 0.0067303437, -0.11854007, -912157.0, 14024.641, 0.0, 10.000465, 9.999035 
4.2502198e+2, 2.1548945e+2, -885284.4, -962359.4, -41972.535, -0.015259906, -0.116507865, -866840.9, -38649.76, 0.0, 10.00009, 9.9990635 
4.25037e+2, 2.2548836e+2, -747785.8, -825802.5, -43062.117, 0.0043423977, -0.13807774, -728690.9, 1509.9913, 0.0, 10.000277, 9.999238 
4.2505237e+2, 2.3548715e+2, -556689.9, -686462.75, -53027.55, 0.060274906, -0.18541528, -537777.94, 94432.734, 0.0, 10.000932, 9.999206 
4.2506748e+2, 2.4548602e+2, -486202.72, -714929.6, -37498.457, 0.0638992, -0.16549216, -480211.97, 54010.24, 0.0, 10.001229, 9.998195 
4.2508236e+2, 2.5548488e+2, -385996.03, -613099.3, -32391.395, 0.023740094, -0.10055794, -381466.44, 54769.047, 0.0, 10.001231, 9.9982195 
4.250975e+2, 2.6548302e+2, -261598.22, -487855.06, -23717.164, 0.008891546, -0.1157951, -259138.83, 79115.586, 0.0, 10.001351, 9.99835 
4.251128e+2, 2.7548054e+2, -132552.89, -373050.66, -10532.198, 0.015670886, -0.20245308, -132092.53, 108185.266, 0.0, 10.001557, 9.998365 
4.2512825e+2, 2.8547913e+2, -3597.9133, -272692.03, -8952.115, 0.03338391, -0.17328845, -3300.4268, 138989.73, 0.0, 10.001822, 9.998256 
4.251438e+2, 2.9547846e+2, 137077.05, -162507.86, -14149.289, 0.060268845, -0.07025818, 137743.83, 182038.64, 0.0, 10.002151, 9.998181 
4.2515814e+2, 3.0547482e+2, 203440.45, -227480.34, -18589.709, -0.017135227, -0.19021524, 204240.92, 204240.92, 0.0, 10.0028, 9.997088 
4.251744e+2, 3.1547242e+2, 397625.34, -33225.715, -3336.9622, 0.10493521, -0.14576854, 397651.2, 397651.2, 0.00000007454206, 10.003698, 9.99799 
4.3487877e+2, 1.2547205e+2, -1867659.5, -1707367.5, -157493.2, -0.040542662, -0.22986631, -1610800.5, 99554.68, 0.0000113764345, 9.998621, 10.000705 
4.348974e+2, 1.354736e+2, -1723801.6, -1537897.1, 110736.55, -0.06452331, -0.20239334, -1486271.8, 126068.164, 0.0000025044064, 9.998682, 10.001188 
4.349165e+2, 1.454749e+2, -1668768.5, -1578341.0, -19475.482, 0.04788113, -0.13349517, -1574324.9, -59996.793, 0.000000047491298, 9.998914, 10.000113 
4.3493155e+2, 1.5547472e+2, -1531942.6, -1460950.3, -51272.063, 0.0032924016, -0.16364583, -1434086.1, -17754.033, 0.0, 9.999181, 10.000115 
4.3494698e+2, 1.6547474e+2, -1393592.5, -1334016.6, -51403.18, 0.014238285, -0.17391585, -1304394.1, 13938.369, 0.0, 9.999417, 10.000199 
4.3496263e+2, 1.7547503e+2, -1258217.1, -1218921.5, -45037.477, 0.03256363, -0.16951075, -1189432.6, 30896.438, 0.0, 9.999677, 10.000193 
4.349778e+2, 1.8547492e+2, -1156026.4, -1195367.3, -43877.184, 0.017903196, -0.16267928, -1127612.3, -5282.1997, 0.0, 10.000034, 9.999509 
4.3499285e+2, 1.9547445e+2, -994566.1, -1066372.0, -38396.92, -0.010052127, -0.16438723, -977901.5, 46433.535, 0.0, 10.00047, 9.999511 
4.3500772e+2, 2.0547388e+2, -918277.3, -1010924.94, -62893.17, -0.006543097, -0.15313771, -886489.4, 39851.875, 0.0, 10.00046, 9.999225 
4.350224e+2, 2.154733e+2, -874136.75, -938355.5, -53553.477, 0.018686207, -0.13879637, -843804.25, -15455.786, 0.0, 10.000087, 9.99923 
4.350374e+2, 2.2547254e+2, -767148.6, -865268.9, -19100.883, 0.019678697, -0.12299494, -763561.44, -33205.336, 0.0, 10.000273, 9.998969 
4.350527e+2, 2.3547164e+2, -574630.1, -722658.0, -29189.65, 0.0020878147, -0.112751484, -569082.1, 63281.99, 0.0, 10.000927, 9.99896 
4.350682e+2, 2.4547015e+2, -477133.6, -694562.6, -38004.918, 0.0130850645, -0.122086674, -470682.06, 63696.75, 0.0, 10.001223, 9.998338 
4.350838e+2, 2.5546816e+2, -376371.97, -591481.75, -31206.541, 0.045845408, -0.1596902, -371936.22, 64463.25, 0.0, 10.0012245, 9.998372 
4.3509927e+2, 2.6546672e+2, -238711.5, -438614.63, -16775.04, 0.05071528, -0.1582862, -237313.6, 101100.4, 0.0, 10.001344, 9.998692 
4.3511456e+2, 2.754657e+2, -111098.07, -326675.34, -2789.5063, 0.034879114, -0.12877738, -111061.98, 129361.055, 0.0, 10.001549, 9.998689 
4.351302e+2, 2.8546432e+2, -14354.296, -293029.8, 2227.8071, 0.045795918, -0.10619237, -14336.487, 128098.65, 0.0, 10.001815, 9.998119 
4.351461e+2, 2.9546243e+2, 128349.22, -178968.64, 44.080463, 0.07481523, -0.10933773, 128349.22, 172800.39, 0.0, 10.002144, 9.998071 
4.3516085e+2, 3.054588e+2, 220190.1, -190424.34, 14074.464, -0.027196024, -0.23967388, 220671.95, 220671.95, 0.0, 10.00279, 9.997348 
4.3517768e+2, 3.1545693e+2, 377049.38, -70108.24, 24414.596, 0.06436853, -0.16304609, 378378.47, 378378.47, 0.0000001100893, 10.003674, 9.997748 
4.4487703e+2, 1.254554e+2, -1905652.1, -1737209.3, -155683.48, -0.06670507, -0.22641501, -1644426.3, 66092.43, 0.000008277144, 9.998415, 10.000598 
4.44896e+2, 1.3545673e+2, -1678002.4, -1526346.6, 103509.62, -0.08337904, -0.20781179, -1473861.9, 138643.69, 0.0000015575915, 9.9990425, 10.001094 
4.4491574e+2, 1.4545815e+2, -1600495.4, -1532756.8, -30046.768, 0.058618005, -0.12934232, -1521349.8, -6857.3433, 0.000000013935479, 9.999329, 10.000225 
4.449307e+2, 1.5545797e+2, -1514185.5, -1440248.5, -42244.53, -0.0010617579, -0.17018889, -1421080.8, -4585.347, 0.0, 9.999251, 10.000223 
4.4494632e+2, 1.65458e+2, -1392215.0, -1343534.8, -29531.65, 0.003796207, -0.18340233, -1329605.4, -11109.41, 0.0, 9.999471, 10.000108 
4.4496235e+2, 1.7545822e+2, -1223810.0, -1210667.5, -40964.285, 0.0248234, -0.17413822, -1175750.8, 44742.72, 0.0, 9.999951, 10.000115 
4.4497782e+2, 1.8545812e+2, -1142078.4, -1172042.1, -56885.58, 0.013031077, -0.16925496, -1098234.9, 24259.244, 0.0, 10.000061, 9.999655 
4.44993e+2, 1.9545771e+2, -1072079.1, -1088164.3, -55473.04, -0.012637024, -0.18002762, -1024068.6, 429.4031, 0.0, 9.999871, 9.99965 
4.4500807e+2, 2.0545721e+2, -971967.3, -1036547.5, -89015.01, 0.0007798792, -0.16997418, -909566.75, 16936.893, 0.0, 10.000091, 9.999226 
4.4502297e+2, 2.1545668e+2, -792279.75, -899237.8, -94386.74, 0.04181338, -0.14947113, -737274.4, 91236.2, 0.0, 10.000651, 9.999226 
4.450381e+2, 2.2545598e+2, -680343.25, -835853.25, -50093.05, 0.03170617, -0.12098939, -665604.2, 64914.05, 0.0, 10.000925, 9.998857 
4.450534e+2, 2.3545514e+2, -577037.3, -734797.44, -50298.324, -0.019734291, -0.09411997, -562365.3, 70161.266, 0.0, 10.0009575, 9.998861 
4.450691e+2, 2.4545369e+2, -495844.6, -675695.5, -60797.58, -0.0042705587, -0.108113065, -477220.84, 57319.984, 0.0, 10.000974, 9.998588 
4.4508508e+2, 2.5545174e+2, -395904.78, -573430.44, -46989.848, 0.06546118, -0.1667921, -384234.13, 52326.07, 0.0, 10.000973, 9.998616 
4.451007e+2, 2.6545045e+2, -272834.1, -453931.8, -32862.69, 0.07502742, -0.16110459, -267055.13, 71517.73, 0.0, 10.001104, 9.998701 
4.45116e+2, 2.754497e+2, -138592.8, -339575.34, -44307.004, 0.037224777, -0.10581225, -129258.73, 111320.84, 0.0, 10.001357, 9.9986925 
4.4513196e+2, 2.854482e+2, -23616.56, -298803.6, -37258.97, 0.04411446, -0.09784449, -18661.115, 123932.26, 0.0, 10.001756, 9.998109 
4.4514838e+2, 2.9544577e+2, 147064.4, -166220.55, -31471.863, 0.08558083, -0.15072781, 150194.72, 194809.2, 0.0, 10.002257, 9.998104 
4.4516355e+2, 3.0544275e+2, 228610.88, -140222.72, 2058.061, -0.028568408, -0.24491519, 228622.36, 228622.36, 0.00000000000009396187, 10.002649, 9.997761 
4.451807e+2, 3.1544146e+2, 272930.5, -115698.93, 11346.965, 0.039960437, -0.14780444, 273261.53, 273261.53, 0.00000013361628, 10.002937, 9.99779 
4.5487604e+2, 1.2543918e+2, -1928533.8, -1785622.0, -142819.11, -0.0064994385, -0.17637153, -1697380.5, 13296.493, 0.0000061456926, 9.99842, 10.000262 
4.54895e+2, 1.3543949e+2, -1700996.9, -1574573.4, 128079.26, -0.09206436, -0.22549334, -1494956.5, 117718.945, 0.0000010596042, 9.999042, 10.000766 
4.5491484e+2, 1.4544085e+2, -1572188.9, -1472816.5, -31512.861, 0.03437263, -0.15780273, -1463665.9, 50996.195, 0.000000007555667, 9.999324, 10.000639 
4.5492932e+2, 1.5544116e+2, -1486524.8, -1383523.4, -42721.887, -0.061765913, -0.19271725, -1368110.0, 48547.94, 0.0, 9.999255, 10.00061 
4.549452e+2, 1.6544133e+2, -1412871.4, -1387500.0, -12303.275, -0.053135145, -0.1925316, -1382513.8, -63856.965, 0.0, 9.9994755, 9.9998045 
4.549621e+2, 1.7544147e+2, -1244977.3, -1253537.0, -23293.787, 0.007496754, -0.16243123, -1225573.5, -4916.413, 0.0, 9.999947, 9.999824 
4.5497796e+2, 1.8544133e+2, -1135907.0, -1157552.3, -64202.254, 0.02126265, -0.15328637, -1081621.6, 41037.242, 0.0, 10.000054, 9.999758 
4.5499307e+2, 1.9544092e+2, -1066168.5, -1074897.1, -60696.05, 0.01086878, -0.1735749, -1009680.06, 14982.261, 0.0, 9.999867, 9.9997425 
4.5500836e+2, 2.0544034e+2, -985837.94, -1064089.6, -68586.96, 0.024252266, -0.16799766, -946001.75, -19333.049, 0.0, 10.000084, 9.99904 
4.5502374e+2, 2.154396e+2, -805020.25, -924786.2, -73519.07, 0.051885605, -0.14830682, -770082.25, 58595.273, 0.0, 10.000647, 9.999052 
4.5503908e+2, 2.2543871e+2, -679033.8, -831547.06, -49284.71, 0.03805523, -0.13182636, -664493.7, 66193.57, 0.0, 10.000917, 9.998889 
4.5505446e+2, 2.3543768e+2, -574544.06, -728433.75, -48608.766, -0.008995409, -0.12742983, -560476.1, 72221.82, 0.0, 10.000953, 9.998908 
4.550702e+2, 2.4543662e+2, -471816.47, -624592.2, -61739.35, 0.007906479, -0.12242836, -449985.94, 84722.28, 0.0, 10.000968, 9.998941 
4.5508617e+2, 2.554356e+2, -373584.78, -525615.56, -46806.14, 0.079102695, -0.12524076, -360330.03, 76388.05, 0.0, 10.000966, 9.998948 
4.5510188e+2, 2.654342e+2, -294978.25, -499748.34, -24261.22, 0.07960395, -0.12600207, -292143.03, 46588.156, 0.0, 10.001103, 9.998387 
4.5511723e+2, 2.754326e+2, -159401.5, -383528.34, -33615.426, 0.019005382, -0.13015108, -154468.31, 86278.71, 0.0, 10.00136, 9.99839 
4.5513353e+2, 2.8543073e+2, -16789.787, -282969.84, -19584.846, 0.024865014, -0.1455283, -15356.502, 127407.92, 0.0, 10.001749, 9.99822 
4.5515063e+2, 2.9542848e+2, 155165.92, -144331.72, -13232.907, 0.08783781, -0.19396836, 155749.47, 200534.02, 0.0, 10.002235, 9.998265 
4.551662e+2, 3.0542663e+2, 264089.9, -61211.48, 11926.609, -0.026028503, -0.20877875, 264526.6, 264526.6, 0.00000000000087855477, 10.002627, 9.998314 
4.5518348e+2, 3.1542596e+2, 292283.94, -71931.914, 13078.931, 0.020883404, -0.10428082, 292753.0, 292753.0, 0.00000014519496, 10.002924, 9.998096 
4.64875e+2, 1.254225e+2, -1818812.8, -1749454.6, -159831.11, 0.00966585, -0.15514907, -1620583.6, 90256.98, 0.000004581255, 9.99925, 10.000108 
4.648937e+2, 1.3542223e+2, -1728352.3, -1607554.8, 131820.53, -0.11619111, -0.24276237, -1522954.6, 89890.15, 0.0000007444035, 9.998938, 10.000589 
4.6491393e+2, 1.4542356e+2, -1600672.8, -1483703.9, -32655.447, 0.027703468, -0.17054613, -1475204.8, 39626.848, 0.0000000034677494, 9.999117, 10.000664 
4.6492863e+2, 1.5542404e+2, -1425966.9, -1350913.6, -76148.93, -0.07608858, -0.19147265, -1303546.8, 113278.52, 0.0, 9.999657, 10.000641 
4.6494466e+2, 1.6542421e+2, -1363756.6, -1370783.1, -49649.82, -0.070775725, -0.18974942, -1317495.9, 1327.8823, 0.0, 9.999844, 9.999742 
4.649618e+2, 1.7542419e+2, -1278681.6, -1276796.5, -43476.22, -0.0062361695, -0.16875438, -1234252.6, -13426.909, 0.0, 9.999745, 9.999762 
4.6497792e+2, 1.8542403e+2, -1162562.4, -1175854.5, -84274.8, 0.019736644, -0.15712786, -1084672.0, 38156.13, 0.0, 9.999895, 9.999709 
4.649933e+2, 1.9542369e+2, -1010648.7, -1053184.4, -92157.23, 0.02649817, -0.16377907, -937337.0, 87494.375, 0.0, 10.000271, 9.999697 
4.6500874e+2, 2.0542312e+2, -920706.5, -1028695.06, -86497.01, 0.03140991, -0.15813167, -872734.5, 54103.117, 0.0, 10.000516, 9.999074 
4.650241e+2, 2.154223e+2, -803821.2, -920484.25, -77503.4, 0.0277638, -0.14912319, -765150.94, 63695.42, 0.0, 10.00064, 9.999084 
4.6503973e+2, 2.2542126e+2, -719326.44, -850331.56, -59464.53, 0.026193125, -0.14862983, -696360.9, 34496.42, 0.0, 10.000636, 9.998897 
4.6505558e+2, 2.3542005e+2, -636845.6, -757255.4, -60790.234, 0.028194845, -0.16414507, -611493.0, 21377.11, 0.0, 10.00052, 9.998919 
4.650714e+2, 2.4541919e+2, -493456.97, -633202.7, -74128.5, 0.043483593, -0.14209192, -461461.03, 73417.945, 0.0, 10.000813, 9.998957 
4.6508732e+2, 2.5541863e+2, -301624.56, -490655.06, -86104.99, 0.0696731, -0.0969771, -268283.63, 168600.92, 0.0, 10.001459, 9.998952 
4.6510303e+2, 2.654172e+2, -207524.44, -469652.4, -73211.11, 0.055942412, -0.09889379, -188463.03, 150435.39, 0.0, 10.001757, 9.99828 
4.6511865e+2, 2.75415e+2, -109421.3, -369984.72, -69020.64, 0.008147938, -0.14644521, -92267.69, 148651.56, 0.0, 10.001752, 9.998293 
4.651352e+2, 2.8541303e+2, -25541.432, -284771.2, -47811.863, 0.02078649, -0.16907646, -17004.252, 125933.9, 0.0, 10.001678, 9.998241 
4.651525e+2, 2.954111e+2, 57661.453, -186278.61, -49108.543, 0.0859134, -0.1910579, 67176.55, 112133.08, 0.0, 10.001543, 9.998311 
4.6516848e+2, 3.0541006e+2, 184354.66, -65107.77, -21074.625, -0.022237564, -0.14179833, 186122.52, 186122.52, 0.00000000000042122027, 10.001927, 9.998625 
4.651863e+2, 3.154091e+2, 277860.2, -53259.53, -48823.137, 0.02570704, -0.09735816, 284909.03, 284909.03, 0.00000014428599, 10.002712, 9.998327 
4.7487387e+2, 1.254053e+2, -1816321.5, -1745723.6, -180776.03, -0.03331455, -0.16284187, -1596832.5, 114177.11, 0.0000033199578, 9.999254, 10.000133 
4.7489214e+2, 1.3540497e+2, -1728444.9, -1610923.0, 123681.266, -0.16495648, -0.25684777, -1532753.6, 80260.07, 0.00000048107097, 9.998949, 10.000563 
4.7491312e+2, 1.454063e+2, -1624316.3, -1535985.9, -12084.0205, 0.031022491, -0.16401011, -1534362.5, -19361.719, 0.000000000765976, 9.999129, 10.0003 
4.749286e+2, 1.554066e+2, -1450269.3, -1400439.3, -56312.6, -0.044924095, -0.16678104, -1363776.1, 53221.46, 0.0, 9.999653, 10.000302 
4.7494474e+2, 1.654066e+2, -1351805.8, -1345130.3, -53720.21, -0.050925966, -0.17508785, -1294644.1, 24353.238, 0.0, 9.99984, 9.999919 
4.7496137e+2, 1.7540638e+2, -1266933.5, -1252369.3, -45511.082, -0.023540098, -0.19184858, -1213561.4, 7438.1187, 0.0, 9.999745, 9.999928 
4.749776e+2, 1.8540622e+2, -1175955.4, -1204075.5, -70858.58, 0.0007106, -0.17863445, -1117775.4, 5226.5693, 0.0, 9.999896, 9.999515 
4.7499362e+2, 1.9540603e+2, -1022867.25, -1078746.4, -77565.72, 0.032634683, -0.15138067, -968362.5, 56642.754, 0.0, 10.000271, 9.999521 
4.750091e+2, 2.0540553e+2, -905292.44, -994674.4, -82158.13, 0.0200177, -0.14087701, -856456.7, 70553.77, 0.0, 10.000506, 9.999312 
4.7502413e+2, 2.1540476e+2, -788302.94, -887441.7, -72680.74, -0.034249913, -0.15208085, -749897.25, 79120.07, 0.0, 10.000636, 9.999313 
4.7504002e+2, 2.2540364e+2, -720997.4, -852527.3, -64803.832, -0.008714952, -0.17124888, -694433.75, 36594.684, 0.0, 10.00063, 9.998884 
4.7505668e+2, 2.3540223e+2, -638179.25, -759945.4, -63556.89, 0.08795084, -0.20524946, -611049.6, 21993.545, 0.0, 10.000519, 9.9989 
4.7507277e+2, 2.4540134e+2, -516866.47, -681419.25, -50414.58, 0.0986603, -0.16773781, -502649.16, 32403.957, 0.0, 10.000811, 9.998627 
4.7508842e+2, 2.5540087e+2, -324075.53, -536954.3, -62208.605, 0.0341418, -0.080079995, -307229.66, 129829.63, 0.0, 10.001457, 9.998635 
4.7510424e+2, 2.653994e+2, -202180.02, -457232.8, -73837.05, 0.0016870212, -0.07839201, -182346.67, 156727.5, 0.0, 10.001751, 9.998368 
4.751203e+2, 2.75397e+2, -104855.945, -357434.34, -68849.28, -0.00040837735, -0.1555042, -87307.79, 153788.53, 0.0, 10.001738, 9.998386 
4.751369e+2, 2.8539512e+2, -31431.102, -294809.9, -53274.957, 0.026989412, -0.17015234, -21063.053, 122051.64, 0.0, 10.001669, 9.998178 
4.7515392e+2, 2.9539356e+2, 54315.49, -193960.05, -51055.938, 0.075054415, -0.14588977, 64404.746, 109535.33, 0.0, 10.001546, 9.998257 
4.751704e+2, 3.0539304e+2, 189256.4, -53347.89, 8142.493, -0.021738488, -0.04746953, 189529.38, 189529.38, 0.0, 10.001922, 9.998708 
4.751892e+2, 3.1539088e+2, 285531.47, -30527.844, -25212.307, 0.043022443, -0.12518734, 287530.03, 287530.03, 0.00000012581201, 10.002685, 9.998496 
4.8487276e+2, 1.2538803e+2, -1852779.0, -1764974.4, -188851.9, -0.053353474, -0.16492827, -1614989.0, 96190.97, 0.0000022837717, 9.999017, 10.000113 
4.8489138e+2, 1.3538787e+2, -1614911.0, -1565060.5, 114508.06, -0.1733806, -0.2350087, -1472796.3, 140385.8, 0.0000002759338, 9.999764, 10.000484 
4.8491293e+2, 1.4538911e+2, -1519066.1, -1518305.8, -22101.809, 0.058701165, -0.1312565, -1496580.9, 18589.395, 0.000000000009128432, 9.999996, 10.000003 
4.8492828e+2, 1.553889e+2, -1465421.3, -1439360.4, -64696.668, -0.039579127, -0.15529238, -1386395.0, 30777.574, 0.0, 9.999684, 10.000021 
4.8494437e+2, 1.6538867e+2, -1370521.6, -1338657.5, -61226.207, -0.057671092, -0.1794761, -1291324.4, 27849.799, 0.0, 9.999645, 10.000057 
4.8496112e+2, 1.753885e+2, -1236203.4, -1222842.4, -57051.684, -0.029048767, -0.20523855, -1172081.4, 49093.195, 0.0, 9.999893, 10.00006 
4.8497748e+2, 1.853884e+2, -1149017.5, -1193471.5, -69420.06, -0.007890943, -0.19127584, -1098352.9, 24823.16, 0.0, 10.00009, 9.999495 
4.8499367e+2, 1.953883e+2, -1031057.6, -1084635.3, -64663.37, 0.012918351, -0.1531967, -987853.6, 37325.188, 0.0, 10.000222, 9.999505 
4.8500943e+2, 2.053878e+2, -929095.1, -1001118.06, -75226.625, 0.010553546, -0.14419226, -881704.7, 45479.324, 0.0, 10.0003195, 9.99936 
4.8502484e+2, 2.1538694e+2, -821483.25, -898495.75, -80417.87, -0.0139778005, -0.16745274, -770828.0, 58363.27, 0.0, 10.000387, 9.999359 
4.8504084e+2, 2.2538592e+2, -714727.1, -855091.7, -75860.85, 0.009449091, -0.17661215, -681563.3, 49638.176, 0.0, 10.000699, 9.998833 
4.8505738e+2, 2.3538475e+2, -539965.0, -719108.8, -79800.87, 0.0737734, -0.18154423, -509573.13, 123641.05, 0.0, 10.001222, 9.998841 
4.8507363e+2, 2.4538362e+2, -437055.72, -659728.6, -57179.375, 0.07395694, -0.15725285, -423231.13, 111995.37, 0.0, 10.00143, 9.998478 
4.8508963e+2, 2.553825e+2, -347759.2, -563288.3, -57135.15, 0.018126575, -0.11964098, -333549.88, 103689.0, 0.0, 10.00136, 9.9985 
4.8510578e+2, 2.653811e+2, -246089.66, -463686.5, -68443.38, -0.000989221, -0.109049134, -226351.72, 112901.16, 0.0, 10.001388, 9.998499 
4.8512203e+2, 2.7537942e+2, -131588.6, -357258.78, -61587.203, 0.013705638, -0.1275432, -115875.09, 125393.14, 0.0, 10.001497, 9.998505 
4.8513865e+2, 2.8537756e+2, -36107.16, -301700.97, -43228.348, 0.036785264, -0.14444843, -29248.389, 114038.11, 0.0, 10.001657, 9.9981365 
4.851555e+2, 2.9537547e+2, 96200.63, -178315.92, -41076.492, 0.06293768, -0.1708347, 102215.22, 147522.86, 0.0, 10.001854, 9.998216 
4.8517224e+2, 3.0537513e+2, 189055.66, -75269.3, 23414.027, -0.032461368, -0.041175067, 191113.66, 191113.66, 0.0, 10.002014, 9.998513 
4.8519143e+2, 3.1537253e+2, 202857.67, -63259.6, -39336.465, 0.030846944, -0.14530653, 208550.45, 208550.45, 0.00000009052117, 10.002085, 9.99856 
4.948717e+2, 1.2537062e+2, -1857856.8, -1775718.5, -165097.4, -0.06525363, -0.16202095, -1646658.8, 64693.02, 0.0000015131136, 9.999018, 10.000038 
4.9489146e+2, 1.3537087e+2, -1624081.1, -1584960.9, 142986.05, -0.14080226, -0.17685795, -1460203.3, 153146.86, 0.00000014199817, 9.999766, 10.000348 
4.9491343e+2, 1.4537196e+2, -1534731.3, -1551907.6, -32940.727, 0.108877994, -0.07016549, -1509277.6, 6062.2915, 0.0, 9.999999, 9.999772 
4.9492767e+2, 1.5537094e+2, -1480227.4, -1470948.4, -74992.51, -0.06981188, -0.15342343, -1400452.0, 16898.223, 0.0, 9.999688, 9.999802 
4.949436e+2, 1.6537045e+2, -1362546.0, -1324320.0, -53322.707, -0.10148968, -0.19840144, -1286788.4, 32565.654, 0.0, 9.999654, 10.000153 
4.9496105e+2, 1.7537051e+2, -1229248.6, -1208851.3, -47030.977, -0.023884973, -0.20987873, -1170925.9, 50425.277, 0.0, 9.999894, 10.000156 
4.9497756e+2, 1.8537055e+2, -1139438.4, -1172209.0, -64544.26, -0.007865996, -0.19517712, -1089232.1, 34118.395, 0.0, 10.000084, 9.999644 
4.949934e+2, 1.9537047e+2, -1021174.8, -1064268.3, -59189.418, -0.037380047, -0.16943702, -979732.25, 45619.977, 0.0, 10.000222, 9.999645 
4.9500957e+2, 2.0536989e+2, -939177.25, -1021060.9, -73465.49, -0.003268864, -0.16817687, -896015.5, 31342.85, 0.0, 10.000316, 9.999225 
4.9502617e+2, 2.1536887e+2, -830760.25, -917641.9, -76313.555, 0.08498069, -0.19667168, -786389.56, 42978.78, 0.0, 10.000385, 9.9992285 
4.950422e+2, 2.2536811e+2, -723472.8, -871833.7, -56745.676, 0.0766509, -0.16648014, -704257.25, 27119.23, 0.0, 10.000692, 9.998721 
4.950577e+2, 2.3536758e+2, -547816.94, -735224.4, -60445.957, -0.014948817, -0.0939757, -530012.4, 103370.74, 0.0, 10.001221, 9.998733 
4.95074e+2, 2.45366e+2, -436196.16, -656337.44, -60369.22, -0.032133136, -0.11066007, -420728.0, 114671.08, 0.0, 10.001423, 9.998504 
4.9509096e+2, 2.5536352e+2, -346273.88, -558360.0, -58890.81, 0.016751269, -0.21390589, -331018.72, 106404.555, 0.0, 10.001351, 9.998538 
4.9510756e+2, 2.6536232e+2, -235648.61, -440560.75, -64945.875, 0.04165837, -0.1900203, -216798.4, 122636.31, 0.0, 10.001381, 9.998661 
4.9512383e+2, 2.7536228e+2, -121073.36, -335367.56, -56734.28, 0.04532344, -0.06547367, -106979.875, 134455.61, 0.0, 10.001496, 9.998655 
4.951404e+2, 2.8536037e+2, -39081.043, -306493.16, -36552.17, 0.046664618, -0.093014814, -34174.793, 109279.1, 0.0, 10.001651, 9.998107 
4.9515715e+2, 2.9535684e+2, 92200.73, -183615.48, -32615.746, 0.04522606, -0.25883797, 96005.125, 141492.53, 0.0, 10.001841, 9.998185 
4.9517402e+2, 3.0535638e+2, 154535.94, -143229.27, 26169.635, -0.057401255, -0.115868025, 156818.4, 156818.4, 0.0, 10.001999, 9.998054 
4.9519306e+2, 3.1535387e+2, 198764.2, -67815.35, -40673.06, -0.018200034, -0.16665195, 204831.73, 204831.73, 0.000000050936965, 10.002069, 9.998535 
5.0487113e+2, 1.2535313e+2, -1770718.9, -1729808.9, -176992.06, -0.049932823, -0.14136034, -1572093.8, 139430.95, 0.0000009949754, 9.999603, 10.000069 
5.048909e+2, 1.3535325e+2, -1675982.3, -1612783.8, 140343.63, -0.15494001, -0.165558, -1500526.0, 112997.7, 0.000000065122016, 9.99942, 10.000326 
5.049133e+2, 1.4535433e+2, -1606719.1, -1576448.8, -28284.77, 0.12185877, -0.06518128, -1559504.4, -43991.168, 0.0, 9.999461, 9.999863 
5.049274e+2, 1.553533e+2, -1471386.9, -1457529.9, -49430.91, -0.06425027, -0.15874623, -1414544.3, 2978.6685, 0.0, 9.999708, 9.999885 
5.049434e+2, 1.6535279e+2, -1340453.3, -1331693.9, -18253.078, -0.09919758, -0.19934888, -1317302.4, 2224.2898, 0.0, 9.999882, 9.999992 
5.04961e+2, 1.7535289e+2, -1231003.1, -1227157.5, -32224.523, -0.017494336, -0.19244781, -1196798.5, 24725.717, 0.0, 9.999956, 10.000002 
5.0497764e+2, 1.853528e+2, -1142631.3, -1174804.4, -63508.816, -0.0055402643, -0.18153024, -1093203.3, 30321.373, 0.0, 10.000066, 9.999636 
5.049935e+2, 1.953525e+2, -1019899.7, -1064722.1, -71008.625, -0.048917964, -0.1779078, -967849.56, 57678.42, 0.0, 10.000236, 9.999636 
5.0501e+2, 2.0535186e+2, -909335.94, -1015196.3, -83995.5, -0.0072031855, -0.17861103, -862984.5, 64550.285, 0.0, 10.000556, 9.99915 
5.0502706e+2, 2.1535091e+2, -747423.25, -885693.3, -84452.9, 0.105596095, -0.19089293, -707416.44, 122127.99, 0.0, 10.000992, 9.999156 
5.0504327e+2, 2.2535011e+2, -657412.56, -844119.3, -59149.586, 0.09304369, -0.15868706, -640251.1, 91301.836, 0.0, 10.0011635, 9.998686 
5.0505877e+2, 2.3534946e+2, -567681.1, -748060.8, -58537.516, -0.027271135, -0.09707586, -550349.56, 83211.0, 0.0, 10.0011, 9.998703 
5.0507504e+2, 2.4534784e+2, -480983.72, -668857.25, -61911.086, -0.050305497, -0.12014465, -462416.72, 73159.7, 0.0, 10.001078, 9.998585 
5.050921e+2, 2.553454e+2, -377956.47, -565542.06, -57324.41, 0.011047305, -0.22540845, -361825.78, 75773.73, 0.0, 10.0011, 9.9986105 
5.0510883e+2, 2.653442e+2, -256216.7, -456331.53, -61180.156, 0.040574126, -0.2048225, -238994.55, 100616.53, 0.0, 10.001266, 9.998607 
5.0512534e+2, 2.75344e+2, -116888.22, -339312.78, -71140.51, 0.04202429, -0.08694151, -96081.02, 145532.28, 0.0, 10.001554, 9.998599 
5.051419e+2, 2.8534207e+2, -33322.574, -306773.6, -60774.742, 0.033059906, -0.11248235, -20423.773, 123208.39, 0.0, 10.001704, 9.998078 
5.051586e+2, 2.9533866e+2, 71661.766, -197127.8, -57812.793, 0.015358976, -0.26372784, 83568.984, 129233.71, 0.0, 10.001716, 9.998153 
5.051757e+2, 3.0533814e+2, 104844.6, -184737.16, 11559.737, -0.07089662, -0.11735994, 105305.32, 105305.32, 0.0, 10.001733, 9.997897 
5.051949e+2, 3.153352e+2, 168997.05, -49100.285, -42471.598, -0.021869224, -0.19913378, 176975.94, 176975.94, 0.000000020855737, 10.001723, 9.998832 
5.148711e+2, 1.2533551e+2, -1760818.4, -1709302.5, -188981.64, -0.016442271, -0.10207397, -1544331.5, 167367.39, 0.00000067894854, 9.999602, 10.000211 
5.148896e+2, 1.3533504e+2, -1668084.5, -1597391.8, 134724.0, -0.22682327, -0.19806956, -1493454.5, 120248.16, 0.000000029496794, 9.999423, 10.000431 
5.1491237e+2, 1.453362e+2, -1577725.3, -1517497.0, -19845.125, 0.083546616, -0.11273507, -1511546.0, 4143.786, 0.0, 9.999465, 10.000266 
5.149275e+2, 1.5533589e+2, -1444634.3, -1402059.5, -39366.965, -0.024675023, -0.17281365, -1378593.0, 39097.94, 0.0, 9.999708, 10.000266 
5.149437e+2, 1.653357e+2, -1369329.9, -1391066.6, -15873.735, -0.05188676, -0.18209608, -1360960.4, -41268.098, 0.0, 9.999879, 9.999586 
5.14961e+2, 1.7533562e+2, -1258464.1, -1284923.8, -28708.572, -0.015469645, -0.15197834, -1240083.6, -18390.084, 0.0, 9.999959, 9.999603 
5.1497763e+2, 1.8533517e+2, -1154131.4, -1199501.5, -58101.645, -0.008938361, -0.14831369, -1114443.3, 9255.096, 0.0, 10.000069, 9.999465 
5.1499397e+2, 1.9533435e+2, -1031549.1, -1088915.3, -63558.508, -0.023923067, -0.17924683, -990501.25, 35205.004, 0.0, 10.000235, 9.999471 
5.1501054e+2, 2.0533367e+2, -912465.0, -1019421.0, -68081.13, -0.0037806393, -0.1760352, -879369.7, 48343.66, 0.0, 10.0005455, 9.9991255 
5.1502746e+2, 2.1533307e+2, -749290.06, -889315.8, -68015.92, 0.045604788, -0.15108915, -721691.6, 108028.12, 0.0, 10.00099, 9.999132 
5.150441e+2, 2.2533193e+2, -655379.5, -838504.06, -62102.67, 0.054850776, -0.1533802, -636305.44, 95425.45, 0.0, 10.001158, 9.998727 
5.150604e+2, 2.3533034e+2, -564765.56, -741560.8, -59924.918, 0.031432252, -0.18951653, -546368.4, 87378.086, 0.0, 10.001096, 9.998749 
5.150767e+2, 2.4532908e+2, -472667.03, -650843.06, -61901.55, 0.012679032, -0.18671252, -453272.44, 82486.21, 0.0, 10.001075, 9.99871 
5.150931e+2, 2.5532812e+2, -370452.47, -549780.56, -55742.68, -0.001988317, -0.15822695, -354537.7, 83230.25, 0.0, 10.001098, 9.99872 
5.1510966e+2, 2.6532662e+2, -275984.94, -496161.22, -50617.137, -0.0051062074, -0.15530474, -264905.88, 74876.27, 0.0, 10.00126, 9.998337 
5.1512647e+2, 2.7532467e+2, -136180.4, -377594.06, -59521.234, 0.0017655903, -0.18669046, -122303.0, 119498.21, 0.0, 10.001544, 9.998341 
5.151432e+2, 2.8532273e+2, -37448.395, -312147.9, -60525.855, -0.007931412, -0.20014307, -24703.73, 119117.29, 0.0, 10.001691, 9.998048 
5.1515985e+2, 2.9532087e+2, 67554.41, -202672.53, -55736.27, -0.031670902, -0.19357322, 78599.0, 124439.21, 0.0, 10.001703, 9.998121 
5.1517737e+2, 3.0532035e+2, 111068.0, -167854.06, 10943.168, -0.07831648, -0.05234929, 111496.68, 111496.68, 0.0, 10.001717, 9.998021 
5.151969e+2, 3.1531638e+2, 207866.0, 37085.65, -43964.695, 0.010322817, -0.24854352, 218519.44, 218519.44, 0.0000000053166334, 10.0017, 9.999435 
5.248711e+2, 1.2531795e+2, -1747268.1, -1700323.8, -153001.92, 0.019057883, -0.10773275, -1569004.0, 142866.5, 0.0000005002885, 9.999688, 10.000228 
5.2488893e+2, 1.353173e+2, -1647398.9, -1592117.4, 156406.92, -0.24102657, -0.21877766, -1460927.6, 152948.11, 0.000000016983103, 9.999584, 10.00039 
5.24912e+2, 1.4531836e+2, -1540212.0, -1509741.1, -3663.4248, 0.08949043, -0.13535197, -1509306.9, 6556.7544, 0.0, 9.999766, 10.000174 
5.249275e+2, 1.553181e+2, -1390652.9, -1386631.9, -63341.68, -0.01465596, -0.18254873, -1325268.8, 92595.68, 0.0, 10.000125, 10.000171 
5.2494377e+2, 1.653178e+2, -1332883.8, -1394752.4, -58766.06, -0.046203434, -0.18583743, -1297407.4, 22459.682, 0.0, 10.000219, 9.999398 
5.24961e+2, 1.7531756e+2, -1246992.5, -1300271.3, -57006.7, -0.014499593, -0.15550746, -1210708.0, 11162.93, 0.0, 10.000126, 9.999419 
5.249779e+2, 1.8531696e+2, -1129027.5, -1191732.0, -63364.46, -0.0024669222, -0.153484, -1089683.1, 34193.844, 0.0, 10.000258, 9.999427 
5.249945e+2, 1.953161e+2, -985314.4, -1070543.3, -60250.625, -0.007978723, -0.18605609, -954130.94, 71754.09, 0.0, 10.000569, 9.999435 
5.250112e+2, 2.0531541e+2, -887509.94, -1013012.94, -59044.246, -0.003829117, -0.17826322, -864098.94, 63793.168, 0.0, 10.000742, 9.999075 
5.2502793e+2, 2.1531488e+2, -780618.06, -909157.2, -62768.992, 0.008520651, -0.14248337, -755051.56, 74846.71, 0.0, 10.000797, 9.999088 
5.2504474e+2, 2.2531371e+2, -684098.75, -842295.9, -61608.83, 0.022999922, -0.15230942, -662936.5, 68973.2, 0.0, 10.0009165, 9.998817 
5.250616e+2, 2.3531194e+2, -558957.6, -729068.4, -57132.9, 0.04013075, -0.2133661, -541550.4, 92375.64, 0.0, 10.001095, 9.998836 
5.2507806e+2, 2.4531074e+2, -459046.5, -653761.8, -65159.457, 0.031934835, -0.20286374, -439253.53, 96683.99, 0.0, 10.001208, 9.998626 
5.250943e+2, 2.553101e+2, -352764.1, -550519.94, -76044.62, 0.001981891, -0.13712505, -326903.78, 111041.03, 0.0, 10.001261, 9.998635 
5.251107e+2, 2.653085e+2, -278266.47, -507680.7, -66383.66, -0.02303594, -0.13643527, -260442.42, 79517.88, 0.0, 10.001289, 9.998243 
5.251275e+2, 2.7530605e+2, -179453.42, -407505.72, -63215.99, -0.043822322, -0.20667958, -163102.34, 78881.38, 0.0, 10.001287, 9.998259 
5.2514434e+2, 2.8530407e+2, -87220.47, -329658.66, -56849.063, -0.04510213, -0.2202086, -74551.984, 69451.695, 0.0, 10.001322, 9.998105 
5.2516145e+2, 2.9530266e+2, 24169.396, -218782.83, -48188.813, -0.028601827, -0.17577204, 33378.43, 79397.48, 0.0, 10.001386, 9.998163 
5.251791e+2, 3.05302e+2, 61680.695, -184077.06, 15636.666, -0.052414134, -0.054429807, 62671.605, 62671.605, 0.0, 10.001344, 9.998088 
5.251982e+2, 3.1529832e+2, 160692.88, 63479.754, -47158.75, -0.0010967263, -0.2276086, 179810.36, 179810.36, 0.00000000056215, 10.0011635, 9.999875 
5.34871e+2, 1.2530048e+2, -1756449.4, -1722417.6, -156723.06, 0.035375763, -0.15925598, -1581789.4, 130249.81, 0.00000041209, 9.999701, 10.000072 
5.348889e+2, 1.3530003e+2, -1661591.6, -1624083.3, 153709.94, -0.19788739, -0.22845495, -1487987.6, 126055.12, 0.000000018082496, 9.999592, 10.000168 
5.349122e+2, 1.453008e+2, -1581638.9, -1595106.4, 9422.391, 0.13857551, -0.1323795, -1576791.4, -60756.902, 0.0, 9.999764, 9.999589 
5.3492737e+2, 1.552999e+2, -1430178.6, -1469308.0, -50284.785, -0.041683733, -0.186483, -1395786.5, 22257.098, 0.0, 10.000128, 9.999601 
5.349435e+2, 1.6529916e+2, -1330595.5, -1391619.4, -64069.066, -0.09218818, -0.20848781, -1290143.9, 29907.248, 0.0, 10.000225, 9.999417 
5.349611e+2, 1.7529866e+2, -1245073.1, -1296708.0, -59453.973, -0.017858882, -0.20409001, -1206073.0, 15983.346, 0.0, 10.000127, 9.999444 
5.349783e+2, 1.8529819e+2, -1122490.4, -1177455.4, -52314.066, 0.010302462, -0.19783865, -1090879.4, 33181.36, 0.0, 10.000256, 9.999527 
5.349951e+2, 1.9529772e+2, -978878.1, -1057356.3, -48547.07, -0.0053581805, -0.19996291, -955695.06, 70369.45, 0.0, 10.000568, 9.999527 
5.350118e+2, 2.0529708e+2, -893638.2, -1024596.25, -57648.46, -0.012132042, -0.18566859, -871877.06, 56194.0, 0.0, 10.000736, 9.998998 
5.350286e+2, 2.1529633e+2, -786429.0, -920042.5, -59822.83, -0.009278318, -0.16512714, -763559.06, 66521.01, 0.0, 10.000791, 9.999017 
5.350453e+2, 2.2529536e+2, -675298.7, -822588.4, -55817.355, -0.006387358, -0.1569369, -656536.06, 75553.41, 0.0, 10.00091, 9.998957 
5.3506225e+2, 2.3529422e+2, -550601.2, -711387.75, -49984.063, -0.0032039676, -0.17111266, -536329.4, 97770.17, 0.0, 10.001092, 9.99896 
5.35079e+2, 2.4529284e+2, -480074.56, -696324.9, -63492.23, 0.0052363984, -0.1703028, -462811.1, 73302.13, 0.0, 10.001204, 9.998336 
5.350957e+2, 2.552913e+2, -372835.78, -591969.6, -73212.01, 0.018201947, -0.16066436, -350626.75, 87503.15, 0.0, 10.001259, 9.998353 
5.351121e+2, 2.6528972e+2, -273479.16, -496944.2, -66585.2, -0.018414974, -0.14922696, -255143.45, 85002.2, 0.0, 10.001286, 9.998319 
5.351282e+2, 2.7528802e+2, -174645.64, -396152.25, -62157.906, -0.09873499, -0.15283763, -158395.4, 83766.08, 0.0, 10.001282, 9.99834 
5.351453e+2, 2.8528607e+2, -78444.56, -309553.13, -54533.617, -0.08277149, -0.1761203, -66222.84, 77957.82, 0.0, 10.001313, 9.998248 
5.351633e+2, 2.9528406e+2, 31778.506, -201913.23, -43946.617, 0.017756082, -0.20610197, 39769.58, 85970.664, 0.0, 10.001379, 9.998282 
5.35181e+2, 3.0528307e+2, 60941.1, -183197.3, 9170.026, 0.00004010142, -0.11972868, 61285.05, 61285.05, 0.0, 10.001335, 9.998097 
5.351988e+2, 3.1528082e+2, 180007.03, 105132.81, -52102.887, -0.061888307, -0.15540154, 206727.92, 206727.92, 0.0000000000003731001, 10.001157, 10.000163 
5.4487073e+2, 1.2528309e+2, -1748054.8, -1738218.0, -169691.1, 0.035377868, -0.17108612, -1573374.0, 138834.56, 0.00000036785775, 9.9998455, 9.999891 
5.448889e+2, 1.3528255e+2, -1584145.0, -1612782.9, 134152.77, -0.18879418, -0.22455668, -1463549.1, 150664.17, 0.000000024396927, 10.0002365, 9.999934 
5.449126e+2, 1.4528309e+2, -1527680.4, -1598040.1, 1747.1378, 0.17272182, -0.12950148, -1527637.0, -11428.801, 0.0, 10.000259, 9.999329 
5.449274e+2, 1.552819e+2, -1465397.5, -1514658.0, -37117.42, -0.037493255, -0.18421713, -1445481.6, -27261.148, 0.0, 10.000008, 9.999349 
5.449437e+2, 1.6528106e+2, -1340166.6, -1392849.1, -32964.06, -0.09846497, -0.2073575, -1324312.0, -4082.7656, 0.0, 10.000147, 9.999446 
5.449616e+2, 1.7528056e+2, -1173964.8, -1258868.4, -28644.928, -0.011506, -0.20492733, -1165204.4, 57029.594, 0.0, 10.000603, 9.999473 
5.449788e+2, 1.8528008e+2, -1065448.0, -1158947.1, -32108.627, 0.021284092, -0.19616848, -1055483.5, 68754.68, 0.0, 10.000687, 9.999446 
5.449956e+2, 1.952796e+2, -1000652.56, -1076351.9, -43245.805, 0.0002554315, -0.19177124, -981032.25, 45209.89, 0.0, 10.000457, 9.999451 
5.450125e+2, 2.052789e+2, -920482.3, -1033242.9, -47099.55, -0.010489988, -0.18284142, -903397.6, 24851.559, 0.0, 10.000533, 9.999037 
5.4502934e+2, 2.1527801e+2, -770894.9, -908510.44, -41533.176, -0.0101152845, -0.17861561, -759331.56, 70927.37, 0.0, 10.000879, 9.999054 
5.4504627e+2, 2.2527711e+2, -668698.25, -826776.56, -45953.016, -0.008376011, -0.16425304, -656310.56, 75957.33, 0.0, 10.000988, 9.998889 
5.450632e+2, 2.3527615e+2, -585052.2, -735284.06, -56952.58, -0.0052370043, -0.1517325, -565902.5, 68373.88, 0.0, 10.000888, 9.998893 
5.4508e+2, 2.4527468e+2, -519829.97, -726145.5, -64720.18, -0.0032250981, -0.1537941, -501208.3, 35083.25, 0.0, 10.0009775, 9.998239 
5.4509676e+2, 2.5527275e+2, -382237.16, -605939.0, -61130.79, -0.0028353408, -0.17433228, -366622.0, 71690.46, 0.0, 10.001237, 9.998266 
5.451132e+2, 2.6527125e+2, -258571.39, -468997.25, -50063.94, -0.03235912, -0.15986322, -247267.55, 93059.84, 0.0, 10.001299, 9.998504 
5.451295e+2, 2.7527007e+2, -176038.89, -377116.63, -39443.88, -0.08715352, -0.13037485, -168578.3, 73759.52, 0.0, 10.001186, 9.998516 
5.451465e+2, 2.8526825e+2, -89236.805, -309082.16, -25450.006, -0.08044147, -0.15151028, -86329.086, 58026.047, 0.0, 10.001215, 9.998298 
5.4516417e+2, 2.9526603e+2, 29463.18, -198212.86, -23316.053, -0.020514932, -0.20635298, 31826.422, 78203.11, 0.0, 10.001346, 9.9983225 
5.4518205e+2, 3.0526444e+2, 47071.27, -222684.7, 10808.782, -0.02170716, -0.16892025, 47503.67, 47503.67, 0.0, 10.00138, 9.997806 
5.452e+2, 3.1526276e+2, 191135.31, 85900.49, -73035.234, -0.05923597, -0.11856694, 228533.1, 228533.1, 0.000000000015387011, 10.00134, 9.999943 
5.548703e+2, 1.2526578e+2, -1759546.6, -1763500.5, -153404.61, 0.009999672, -0.14292872, -1608106.3, 104272.58, 0.0000003291145, 9.999851, 9.999716 
5.548888e+2, 1.3526492e+2, -1597114.0, -1642871.4, 148008.38, -0.22256449, -0.2064965, -1470226.5, 144160.69, 0.000000025104656, 10.00025, 9.9997225 
5.54913e+2, 1.4526522e+2, -1523089.8, -1591160.3, -9318.63, 0.18185283, -0.12614954, -1521837.1, -5452.809, 0.0, 10.00027, 9.9993725 
5.5492777e+2, 1.5526414e+2, -1461558.8, -1507321.0, -45214.65, -0.005185694, -0.17514947, -1433765.3, -15370.212, 0.0, 10.00001, 9.999399 
5.549441e+2, 1.652635e+2, -1337156.4, -1385795.4, -16444.04, -0.06784123, -0.18190382, -1332118.6, -11717.248, 0.0, 10.000143, 9.999496 
5.549622e+2, 1.7526329e+2, -1171278.6, -1253156.6, -11791.001, 0.00031687343, -0.15709211, -1169614.4, 52789.066, 0.0, 10.000603, 9.999512 
5.5497956e+2, 1.852627e+2, -1084128.4, -1198016.8, -41634.25, 0.025355311, -0.1475791, -1070531.4, 53877.684, 0.0, 10.000687, 9.999178 
5.5499613e+2, 1.9526176e+2, -1018989.5, -1113776.6, -50836.73, 0.006019621, -0.1609729, -996881.06, 29536.82, 0.0, 10.000453, 9.999196 
5.5501306e+2, 2.0526084e+2, -909772.44, -1009608.8, -34701.75, -0.002403903, -0.17018604, -898895.56, 29530.906, 0.0, 10.000527, 9.999203 
5.550304e+2, 2.1525995e+2, -761408.25, -887161.0, -28314.627, 0.001422278, -0.18401168, -755327.0, 75107.914, 0.0, 10.000872, 9.999205 
5.550475e+2, 2.2525893e+2, -688561.25, -866870.5, -50406.03, 0.012515502, -0.17477745, -675298.5, 57146.453, 0.0, 10.000982, 9.998617 
5.550644e+2, 2.3525776e+2, -603527.8, -773851.6, -59888.473, 0.029836843, -0.15430284, -584578.3, 49878.234, 0.0, 10.000888, 9.998628 
5.5508107e+2, 2.4525623e+2, -513637.06, -713105.06, -55437.92, 0.0033976957, -0.1536568, -499264.8, 37207.89, 0.0, 10.000977, 9.998329 
5.5509734e+2, 2.5525433e+2, -376403.53, -591991.44, -51029.88, -0.06295531, -0.1790051, -364934.8, 73558.05, 0.0, 10.001229, 9.998365 
5.5511415e+2, 2.65253e+2, -239490.66, -427735.13, -54896.242, -0.06785239, -0.16819738, -224651.45, 115854.34, 0.0, 10.001291, 9.998792 
5.551314e+2, 2.7525213e+2, -158181.11, -338893.78, -42721.652, -0.017435044, -0.13861153, -148590.42, 93922.56, 0.0, 10.001181, 9.998782 
5.5514807e+2, 2.852505e+2, -94206.23, -317115.75, -21099.22, -0.043740425, -0.14693806, -92226.69, 52300.86, 0.0, 10.0012045, 9.998247 
5.551643e+2, 2.9524848e+2, 24016.002, -207381.97, -18544.117, -0.1420132, -0.17969276, 25492.695, 72039.45, 0.0, 10.001336, 9.998264 
5.551825e+2, 3.05246e+2, 6443.9834, -303717.88, 8224.591, -0.11704123, -0.2011207, 6661.923, 6661.923, 0.0, 10.001366, 9.997255 
5.552019e+2, 3.152441e+2, 143748.72, -9299.176, -69185.95, -0.0076067327, -0.119561486, 170387.8, 170387.8, 0.0000000020600701, 10.001326, 9.999296 
5.648704e+2, 1.2524773e+2, -1766293.5, -1758474.5, -181148.08, 0.038110275, -0.1206236, -1581193.8, 131363.23, 0.00000027083397, 9.999771, 9.999787 
5.6488883e+2, 1.352468e+2, -1618568.0, -1649569.6, 127975.445, -0.23308837, -0.19516067, -1505158.0, 109407.47, 0.000000017878008, 10.000084, 9.999758 
5.6491333e+2, 1.4524703e+2, -1496159.4, -1565527.4, -26231.55, 0.19126916, -0.12957011, -1487357.0, 29205.957, 0.0, 10.000401, 9.999486 
5.6492835e+2, 1.5524615e+2, -1342226.5, -1437464.8, -57337.734, 0.016946211, -0.16953143, -1315312.5, 103258.58, 0.0, 10.000777, 9.999507 
5.6494474e+2, 1.6524556e+2, -1253237.8, -1360966.6, -31948.684, -0.049159978, -0.16902466, -1244475.5, 76101.38, 0.0, 10.00079, 9.999353 
5.649628e+2, 1.7524526e+2, -1199754.8, -1283056.5, -44654.105, 0.0075651756, -0.13856518, -1180341.9, 42238.78, 0.0, 10.000478, 9.999367 
5.649802e+2, 1.8524459e+2, -1103449.6, -1207137.3, -69064.8, 0.028914759, -0.13050994, -1068935.4, 55651.867, 0.0, 10.000554, 9.999179 
5.649969e+2, 1.9524358e+2, -940992.75, -1076207.5, -59130.805, 0.0090243025, -0.15137896, -918782.5, 107813.94, 0.0, 10.000989, 9.999195 
5.6501395e+2, 2.0524254e+2, -839885.9, -986722.75, -44760.234, 0.0041531925, -0.16718382, -827317.44, 101288.56, 0.0, 10.001054, 9.999106 
5.650313e+2, 2.1524149e+2, -779806.8, -905956.4, -59307.24, 0.016620398, -0.18708588, -756303.44, 74312.49, 0.0, 10.00079, 9.999115 
5.6504846e+2, 2.2524038e+2, -699366.0, -865223.4, -71456.836, 0.022219658, -0.18356656, -672826.7, 59799.93, 0.0, 10.00088, 9.998677 
5.650654e+2, 2.3523924e+2, -539626.4, -735719.2, -57248.375, 0.020600159, -0.16800499, -524136.53, 110501.555, 0.0, 10.001297, 9.9986925 
5.65082e+2, 2.4523786e+2, -464118.3, -676333.75, -48253.094, -0.008874244, -0.16077055, -453661.84, 82990.766, 0.0, 10.001262, 9.998444 
5.6509835e+2, 2.5523624e+2, -427645.78, -604981.56, -43569.266, -0.06310743, -0.16894037, -417519.56, 21150.283, 0.0, 10.000825, 9.998471 
5.6511515e+2, 2.6523492e+2, -317012.53, -466625.28, -51447.504, -0.062911816, -0.1637059, -301028.84, 39654.227, 0.0, 10.000767, 9.9987755 
5.6513244e+2, 2.7523375e+2, -179187.05, -349392.1, -62524.99, -0.01467994, -0.16153501, -158687.42, 84005.99, 0.0, 10.001041, 9.998775 
5.6514925e+2, 2.8523228e+2, -96361.85, -315363.8, -46231.78, -0.044780806, -0.15589786, -87002.234, 57704.434, 0.0, 10.001179, 9.998271 
5.651655e+2, 2.952308e+2, 6001.71, -215425.08, -40092.492, -0.14512211, -0.13400325, 13037.471, 59757.75, 0.0, 10.001208, 9.998271 
5.651838e+2, 3.0522788e+2, -7703.913, -298416.4, 10204.723, -0.10735264, -0.2060735, -7346.1426, -7346.1426, 0.0, 10.001215, 9.997365 
5.6520313e+2, 3.1522575e+2, 111522.445, -41816.965, -20041.352, -0.008940559, -0.1597019, 114098.56, 114098.56, 0.000000017271022, 10.001175, 9.999146 
5.748709e+2, 1.2522899e+2, -1744314.4, -1716938.6, -165897.56, 0.11225328, -0.10379617, -1564165.3, 148577.44, 0.00000019303324, 9.999785, 10.000068 
5.74889e+2, 1.3522822e+2, -1598618.8, -1609767.1, 138888.89, -0.22282436, -0.18875787, -1465192.3, 149555.89, 0.000000007774616, 10.000089, 10.00003 
5.749138e+2, 1.452285e+2, -1482236.0, -1537001.1, -13717.559, 0.19628093, -0.13837214, -1478992.3, 37751.48, 0.0, 10.0004015, 9.9996805 
5.749292e+2, 1.5522794e+2, -1328033.8, -1409288.0, -43093.758, 0.022933584, -0.16722378, -1309435.5, 109312.6, 0.0, 10.000783, 9.999698 
5.7494557e+2, 1.6522725e+2, -1277572.3, -1413033.3, -44578.125, -0.047863934, -0.1690214, -1264218.6, 56536.934, 0.0, 10.000794, 9.998995 
5.7496333e+2, 1.7522645e+2, -1223735.4, -1333499.4, -55311.715, 0.0073424876, -0.14946477, -1200698.1, 22067.133, 0.0, 10.000479, 9.999021 
5.7498074e+2, 1.8522573e+2, -1084923.5, -1168200.0, -53428.234, 0.027322898, -0.14505896, -1058824.6, 65947.94, 0.0, 10.000551, 9.999448 
5.749978e+2, 1.95225e+2, -923715.6, -1039249.8, -43071.2, 0.0047888714, -0.16341577, -909426.0, 117351.74, 0.0, 10.000984, 9.999452 
5.7501495e+2, 2.0522398e+2, -865664.94, -1039448.75, -55552.004, 0.0057279686, -0.17383602, -849424.75, 79362.83, 0.0, 10.001049, 9.998746 
5.750323e+2, 2.1522263e+2, -804084.2, -955659.4, -68127.0, 0.03211108, -0.18632373, -777964.7, 52836.977, 0.0, 10.000786, 9.9987755 
5.7504934e+2, 2.252215e+2, -672248.7, -808212.94, -56228.367, 0.017823983, -0.18967779, -652008.4, 80804.38, 0.0, 10.000876, 9.99907 
5.750661e+2, 2.3522055e+2, -513892.94, -679842.3, -41581.14, -0.03469856, -0.19332811, -504057.13, 130763.92, 0.0, 10.001286, 9.999082 
5.7508296e+2, 2.4521954e+2, -455877.2, -657444.0, -65422.86, -0.043269478, -0.17560863, -436504.7, 100326.734, 0.0, 10.001253, 9.998578 
5.7509965e+2, 2.5521845e+2, -420361.63, -588711.75, -58759.69, -0.010320373, -0.14459826, -401881.22, 36962.37, 0.0, 10.00082, 9.998586 
5.751164e+2, 2.6521695e+2, -339638.94, -513025.9, -41291.156, -0.022111662, -0.14643578, -330307.84, 10551.395, 0.0, 10.000764, 9.998459 
5.7513285e+2, 2.7521494e+2, -200045.73, -391681.13, -51607.402, -0.078290746, -0.19712001, -187031.66, 55847.242, 0.0, 10.001037, 9.9984865 
5.7515e+2, 2.8521353e+2, -89603.3, -300256.84, -45504.973, -0.08576234, -0.17624867, -80193.71, 64698.492, 0.0, 10.001174, 9.998378 
5.751678e+2, 2.9521298e+2, 11230.668, -202619.08, -37072.57, -0.04529375, -0.07313785, 17475.154, 64372.496, 0.0, 10.0012, 9.9983635 
5.751861e+2, 3.0521e+2, 38717.22, -198852.6, 8789.846, -0.004481495, -0.18781503, 39041.992, 39041.992, 0.00000000021282408, 10.001202, 9.998055 
5.752037e+2, 3.1520763e+2, 129647.03, 1308.0518, -14737.386, -0.06464482, -0.23343706, 131317.61, 131317.61, 0.0000000699572, 10.001152, 9.999453 
5.848715e+2, 1.252102e+2, -1579347.4, -1639175.9, -133569.56, 0.13183537, -0.12123486, -1472383.3, 240543.16, 0.00000011738098, 10.00093, 10.000047 
5.8488935e+2, 1.3520952e+2, -1552285.0, -1590474.9, 136789.95, -0.21408322, -0.19405535, -1433263.6, 181667.22, 0.0000000014227642, 10.000424, 9.999997 
5.849143e+2, 1.4520968e+2, -1503616.4, -1549625.1, -17538.766, 0.21366045, -0.15271999, -1497693.1, 19234.5, 0.0, 10.000268, 9.999657 
5.849299e+2, 1.5520915e+2, -1365374.1, -1430015.8, -66502.7, 0.024504349, -0.17831388, -1323754.1, 95178.06, 0.0, 10.000539, 9.999673 
5.849463e+2, 1.6520843e+2, -1283757.5, -1412099.0, -75547.375, -0.04932783, -0.18264802, -1248805.6, 72134.0, 0.0, 10.000734, 9.99903 
5.849641e+2, 1.7520759e+2, -1164778.0, -1301426.3, -57091.008, 0.02133124, -0.17214929, -1144065.3, 78884.27, 0.0, 10.000868, 9.999053 
5.849816e+2, 1.8520686e+2, -1049441.6, -1156977.9, -45076.977, 0.047135405, -0.16443118, -1033046.06, 91910.78, 0.0, 10.000822, 9.999393 
5.849987e+2, 1.9520624e+2, -982614.25, -1073092.4, -60429.305, 0.018097682, -0.16866267, -952366.4, 74595.516, 0.0, 10.000605, 9.999401 
5.850159e+2, 2.0520529e+2, -907756.4, -1048701.9, -66538.21, 0.010175269, -0.17263041, -881307.8, 47663.258, 0.0, 10.000715, 9.998843 
5.850331e+2, 2.1520405e+2, -746374.1, -916904.4, -46431.984, 0.026006069, -0.18555446, -734551.25, 96432.7, 0.0, 10.001136, 9.998872 
5.850502e+2, 2.2520305e+2, -639096.6, -782324.8, -34354.375, 0.012224896, -0.18470937, -631282.75, 101711.09, 0.0, 10.001061, 9.99916 
5.850671e+2, 2.3520227e+2, -617147.9, -719755.4, -43616.94, -0.029980082, -0.18036169, -601112.9, 33888.23, 0.0, 10.000534, 9.99917 
5.8508384e+2, 2.4520138e+2, -558383.56, -685623.44, -74740.21, -0.033809185, -0.16361178, -523852.63, 13157.371, 0.0, 10.000458, 9.998768 
5.851006e+2, 2.552004e+2, -411397.9, -562775.75, -64687.49, -0.0025273494, -0.14255962, -387521.34, 51499.023, 0.0, 10.00079, 9.998777 
5.851172e+2, 2.651989e+2, -312918.3, -504892.84, -25014.6, -0.018769372, -0.14991151, -309712.4, 31323.197, 0.0, 10.000969, 9.998416 
5.8513385e+2, 2.7519685e+2, -204461.97, -399348.84, -17079.594, -0.07984197, -0.19994396, -202976.45, 40079.535, 0.0, 10.001028, 9.998439 
5.851512e+2, 2.8519547e+2, -98616.22, -299270.84, -9269.412, -0.08025633, -0.1773971, -98188.92, 46880.71, 0.0, 10.001088, 9.998426 
5.8516914e+2, 2.9519495e+2, 2496.2815, -200859.8, -7849.471, -0.023093684, -0.075413264, 2798.818, 49873.902, 0.0, 10.001115, 9.998416 
5.851874e+2, 3.0519232e+2, 44709.902, -138074.66, 27379.346, 0.017307382, -0.18377757, 48722.953, 48722.953, 0.000000006848287, 10.000995, 9.99857 
5.852045e+2, 3.1519067e+2, 87735.734, -3464.7134, -4530.969, -0.08487462, -0.21188302, 87960.29, 87960.29, 0.00000018333391, 10.000797, 9.999591 
5.9487194e+2, 1.2519147e+2, -1597879.3, -1685996.8, -143864.28, 0.084934175, -0.17088455, -1491478.4, 221628.81, 0.000000058921596, 10.000962, 9.999711 
5.9488976e+2, 1.3519076e+2, -1575094.1, -1639538.9, 116822.875, -0.21215302, -0.21305242, -1486131.3, 128982.16, 0.000000000010343272, 10.000431, 9.999658 
5.949148e+2, 1.451906e+2, -1522746.1, -1589258.8, -8699.058, 0.23941156, -0.17394423, -1521627.1, -4512.6196, 0.0, 10.000266, 9.999387 
5.9493035e+2, 1.5518974e+2, -1383392.1, -1467729.6, -55417.336, 0.018357992, -0.20319408, -1355924.1, 63198.957, 0.0, 10.00054, 9.999414 
5.949469e+2, 1.6518909e+2, -1253723.1, -1349717.0, -71414.72, -0.058873262, -0.21021894, -1215674.9, 105454.32, 0.0, 10.000733, 9.999458 
5.949652e+2, 1.7518862e+2, -1134803.3, -1240206.5, -51796.863, 0.045260113, -0.206602, -1113610.5, 109523.01, 0.0, 10.000871, 9.999472 
5.949828e+2, 1.8518801e+2, -1075904.8, -1212269.4, -53818.5, 0.08391236, -0.18861939, -1057223.6, 67916.36, 0.0, 10.000823, 9.999014 
5.9499955e+2, 1.9518729e+2, -1007918.7, -1125751.9, -67837.75, 0.04584987, -0.16573597, -976984.7, 50163.906, 0.0, 10.000605, 9.99904 
5.950166e+2, 2.051865e+2, -870163.9, -969312.75, -51404.56, 0.014354384, -0.16274554, -848323.6, 80832.62, 0.0, 10.000709, 9.999391 
5.95034e+2, 2.1518569e+2, -710603.56, -840205.75, -30603.164, -0.004564402, -0.18584403, -703740.56, 127422.336, 0.0, 10.001126, 9.999403 
5.9505117e+2, 2.2518499e+2, -655003.25, -813958.1, -55153.875, 0.0015653418, -0.17010565, -637740.75, 95429.38, 0.0, 10.001054, 9.998946 
5.9506816e+2, 2.3518439e+2, -631708.25, -750047.7, -62210.227, 0.029121894, -0.12896864, -605022.5, 30155.691, 0.0, 10.000533, 9.998962 
5.950848e+2, 2.451834e+2, -541238.7, -650167.25, -62595.754, 0.014483033, -0.12403242, -512729.53, 24458.695, 0.0, 10.000458, 9.999012 
5.9510094e+2, 2.551821e+2, -393972.06, -525774.2, -52096.566, -0.040344432, -0.16065706, -375867.16, 63332.87, 0.0, 10.000786, 9.999034 
5.9511787e+2, 2.6518077e+2, -298113.22, -473262.1, -23768.365, -0.054223727, -0.17255907, -294945.1, 46267.164, 0.0, 10.000964, 9.998635 
5.951354e+2, 2.7517942e+2, -192409.9, -371358.97, -14055.242, -0.029503306, -0.17357212, -191312.69, 51912.668, 0.0, 10.001015, 9.998638 
5.9515274e+2, 2.8517804e+2, -103757.266, -305668.56, -9304.689, -0.036863085, -0.16166903, -103329.38, 41910.21, 0.0, 10.001069, 9.998392 
5.9516966e+2, 2.951767e+2, -964.2403, -203461.1, -7981.2896, -0.07588981, -0.13348185, -650.1498, 46603.195, 0.0, 10.001095, 9.998407 
5.951878e+2, 3.0517483e+2, 68745.91, -84891.195, 18026.203, -0.038411673, -0.18899076, 70832.58, 70832.58, 0.000000033052434, 10.00098, 9.998944 
5.952053e+2, 3.1517482e+2, 89034.516, 961.76276, -3396.9033, -0.082619555, -0.0927011, 89165.336, 89165.336, 0.00000037488923, 10.000791, 9.999625 
6.0487276e+2, 1.2517297e+2, -1673602.4, -1760206.6, -129374.77, 0.08175923, -0.19600642, -1580475.4, 132811.3, 0.000000021349177, 10.000608, 9.9993725 
6.048905e+2, 1.3517222e+2, -1488054.0, -1634558.3, 114466.65, -0.21285073, -0.20851435, -1425407.3, 189888.03, 0.0, 10.00119, 9.999325 
6.049157e+2, 1.4517191e+2, -1390466.9, -1521778.0, -445.40656, 0.25478822, -0.17026275, -1390465.4, 126833.414, 0.0, 10.00116, 9.999418 
6.049311e+2, 1.5517116e+2, -1352571.6, -1448617.0, -24205.37, 0.032857183, -0.19208868, -1346816.4, 72489.375, 0.0, 10.000735, 9.99945 
6.049477e+2, 1.6517052e+2, -1262461.6, -1345657.3, -32921.57, -0.051481012, -0.2031836, -1251010.4, 70300.86, 0.0, 10.000638, 9.999532 
6.04966e+2, 1.7516997e+2, -1138296.1, -1233823.5, -42276.414, 0.042779073, -0.21403338, -1122273.8, 101041.75, 0.0, 10.0008135, 9.999542 
6.049836e+2, 1.8516932e+2, -1051830.3, -1203196.6, -48383.59, 0.081110135, -0.20180197, -1037686.3, 87635.9, 0.0, 10.000999, 9.998991 
6.050005e+2, 1.951686e+2, -920039.9, -1085924.5, -36967.23, 0.04933884, -0.17620125, -912174.7, 115156.555, 0.0, 10.00122, 9.999017 
6.050176e+2, 2.0516793e+2, -807123.4, -924798.3, -24312.672, 0.019161338, -0.16717593, -802298.0, 127039.85, 0.0, 10.0010805, 9.999517 
6.050348e+2, 2.1516734e+2, -779674.8, -860271.94, -36257.387, -0.0027195753, -0.18163939, -765764.75, 65577.6, 0.0, 10.000593, 9.999522 
6.05052e+2, 2.2516672e+2, -728452.25, -852036.3, -68383.71, 0.007182581, -0.16336337, -698078.2, 35270.887, 0.0, 10.000562, 9.998921 
6.0506904e+2, 2.3516604e+2, -571482.06, -723414.6, -62844.16, 0.04360682, -0.12575468, -548856.94, 86501.28, 0.0, 10.000958, 9.9989395 
6.050856e+2, 2.4516504e+2, -451748.53, -601330.1, -57915.574, 0.02399183, -0.12342509, -431946.13, 105422.445, 0.0, 10.001049, 9.999062 
6.051017e+2, 2.5516376e+2, -380185.88, -514414.0, -63712.906, -0.047544826, -0.16011575, -354760.03, 84619.766, 0.0, 10.00086, 9.999077 
6.0511863e+2, 2.651626e+2, -331207.25, -481097.3, -51892.5, -0.057684302, -0.16403858, -314995.34, 26395.236, 0.0, 10.000699, 9.998711 
6.0513633e+2, 2.7516147e+2, -255324.9, -393281.75, -54145.914, -0.011139393, -0.15094548, -236611.81, 6789.693, 0.0, 10.0005455, 9.9987135 
6.0515356e+2, 2.8516e+2, -188456.6, -347782.3, -46905.188, -0.027027888, -0.14895031, -175673.42, -30256.988, 0.0, 10.000493, 9.99838 
6.0517025e+2, 2.951584e+2, -79816.805, -244164.47, -45914.4, -0.10237735, -0.15219896, -67859.5, -20426.004, 0.00000000003092486, 10.000564, 9.998384 
6.051885e+2, 3.0515686e+2, 37104.4, -91131.68, -30790.254, -0.055529714, -0.17197901, 44114.152, 44114.152, 0.00000008707832, 10.000725, 9.999024 
6.052064e+2, 3.1515688e+2, 103446.34, -7841.808, -69951.3, -0.06305968, -0.07571379, 137185.98, 137185.98, 0.0000006525611, 10.000958, 9.999484 
6.1487377e+2, 1.2515481e+2, -1699429.0, -1813531.5, -97322.09, 0.12362462, -0.19112407, -1643668.8, 69795.41, 0.0000000039655865, 10.000605, 9.999009 
6.1489165e+2, 1.3515396e+2, -1511080.1, -1683746.8, 134982.95, -0.220439, -0.17752637, -1437182.9, 178293.19, 0.0, 10.001197, 9.998983 
6.149168e+2, 1.4515364e+2, -1365132.8, -1472767.0, -19199.09, 0.2522433, -0.13986585, -1361810.8, 155669.13, 0.0, 10.001174, 9.999748 
6.149321e+2, 1.551534e+2, -1328332.3, -1400586.5, -38844.457, 0.0640974, -0.14467658, -1311411.6, 108068.37, 0.0, 10.000742, 9.999777 
6.149485e+2, 1.6515274e+2, -1282579.8, -1387551.5, -26550.275, -0.031848855, -0.16031969, -1276246.6, 45238.65, 0.0, 10.000639, 9.999245 
6.149665e+2, 1.7515166e+2, -1157750.1, -1274634.0, -35235.008, 0.010700488, -0.1940707, -1147950.1, 75545.28, 0.0, 10.000815, 9.999262 
6.149842e+2, 1.8515082e+2, -1029675.75, -1156713.0, -41206.48, 0.034240145, -0.20415957, -1017480.56, 108022.97, 0.0, 10.000997, 9.999311 
6.1500144e+2, 1.951502e+2, -898202.2, -1040529.75, -28533.707, 0.02491661, -0.2010136, -892694.9, 134814.97, 0.0, 10.001219, 9.99933 
6.150186e+2, 2.0514959e+2, -828334.3, -967645.94, -43491.97, 0.02054712, -0.18709111, -815871.44, 113644.6, 0.0, 10.001076, 9.999226 
6.150357e+2, 2.15149e+2, -799585.56, -901219.5, -53721.56, 0.026988987, -0.17173469, -776454.1, 55067.992, 0.0, 10.000591, 9.999242 
6.1505276e+2, 2.2514823e+2, -718807.1, -830608.7, -54224.22, 0.024863439, -0.16225119, -696828.75, 36701.703, 0.0, 10.000556, 9.999072 
6.150697e+2, 2.3514727e+2, -561788.3, -701564.56, -47636.32, 0.01240714, -0.16927306, -547097.7, 88443.43, 0.0, 10.000952, 9.999093 
6.150864e+2, 2.4514633e+2, -462886.44, -623070.6, -65795.516, -0.006611859, -0.16093123, -439326.28, 98224.73, 0.0, 10.001042, 9.998916 
6.151027e+2, 2.5514546e+2, -391769.2, -537218.75, -69900.875, -0.030450743, -0.14305736, -363622.63, 75937.234, 0.0, 10.000854, 9.998923 
6.151196e+2, 2.6514438e+2, -336814.53, -492107.66, -57786.7, -0.03582119, -0.12644769, -317671.2, 23899.434, 0.0, 10.000696, 9.998637 
6.1513674e+2, 2.75143e+2, -259235.25, -401195.06, -59229.7, -0.02536608, -0.12870276, -237768.92, 5814.9204, 0.0, 10.000545, 9.99866 
6.151538e+2, 2.8514144e+2, -186956.86, -345045.6, -44587.477, -0.050866358, -0.13575928, -175248.52, -29648.982, 0.0, 10.000494, 9.998399 
6.151707e+2, 2.9513988e+2, -80882.71, -245450.84, -41447.863, -0.1108143, -0.13633387, -71033.21, -23417.598, 0.0000000010306047, 10.000559, 9.998379 
6.1518925e+2, 3.051384e+2, 18409.328, -126454.03, -22098.117, -0.044134263, -0.1379109, 21705.287, 21705.287, 0.00000016756015, 10.0007105, 9.998789 
6.1520755e+2, 3.1513724e+2, 75310.38, -58385.418, -51822.12, -0.035896096, -0.13812381, 93044.836, 93044.836, 0.000001002472, 10.000926, 9.999151 
6.24875e+2, 1.251365e+2, -1520918.3, -1731632.0, -122317.37, 0.12702711, -0.1603842, -1464839.0, 248806.08, 0.00000000008306351, 10.001844, 9.998974 
6.2489253e+2, 1.3513562e+2, -1574116.0, -1714355.4, 118800.414, -0.22492595, -0.14898415, -1506285.4, 109371.305, 0.0, 10.000766, 9.9989805 
6.249176e+2, 1.451351e+2, -1474106.6, -1530122.9, -23044.445, 0.25418353, -0.12869428, -1465844.9, 51817.414, 0.0, 10.000445, 9.999706 
6.249331e+2, 1.5513486e+2, -1291592.4, -1387131.3, -71228.8, 0.07571836, -0.13053125, -1253597.9, 166064.95, 0.0, 10.001013, 9.999739 
6.249494e+2, 1.6513422e+2, -1212036.8, -1350525.5, -64907.164, -0.025871465, -0.14307919, -1186372.1, 135295.78, 0.0, 10.001111, 9.999271 
6.2496716e+2, 1.751332e+2, -1161519.6, -1273168.5, -51397.395, 0.00060751237, -0.17425714, -1141462.3, 82215.05, 0.0, 10.000776, 9.99929 
6.2498486e+2, 1.8513235e+2, -1076863.1, -1170201.4, -46278.313, 0.021819886, -0.18942492, -1057807.9, 67877.09, 0.0, 10.000632, 9.999395 
6.250023e+2, 1.9513169e+2, -975436.9, -1069038.5, -53096.754, 0.019486886, -0.19909698, -951459.25, 76232.14, 0.0, 10.000649, 9.999409 
6.250196e+2, 2.0513102e+2, -879568.4, -999341.56, -76653.27, 0.0240067, -0.18994689, -842181.5, 87516.516, 0.0, 10.000753, 9.999164 
6.250366e+2, 2.151304e+2, -752014.44, -884709.4, -71106.195, 0.040717278, -0.17230934, -721109.25, 110595.56, 0.0, 10.000947, 9.999185 
6.250535e+2, 2.2512963e+2, -662864.44, -787079.1, -56116.934, 0.03308078, -0.16595219, -641267.3, 92445.39, 0.0, 10.00087, 9.999219 
6.2507033e+2, 2.3512876e+2, -613538.2, -711060.6, -51516.035, -0.00014999889, -0.180206, -591365.94, 44355.844, 0.0, 10.000528, 9.999232 
6.250869e+2, 2.4512783e+2, -551532.94, -678378.1, -67701.7, -0.022514828, -0.1723889, -522187.28, 15544.396, 0.0, 10.000487, 9.998804 
6.251035e+2, 2.5512686e+2, -417938.84, -562036.56, -71022.0, -0.034344323, -0.15131837, -388818.72, 50923.66, 0.0, 10.000727, 9.998814 
6.251203e+2, 2.651258e+2, -312958.38, -475734.97, -55444.03, -0.035728764, -0.12802695, -295867.78, 45885.46, 0.0, 10.00084, 9.998679 
6.251374e+2, 2.7512464e+2, -213074.27, -374484.63, -49921.42, -0.028101929, -0.11795516, -198882.27, 44882.453, 0.0, 10.000842, 9.998701 
6.251545e+2, 2.8512302e+2, -145004.78, -330991.1, -31449.654, -0.04825804, -0.12829013, -139830.69, 5949.8257, 0.0, 10.000809, 9.998343 
6.251715e+2, 2.951212e+2, -59561.984, -242047.92, -35858.367, -0.095246345, -0.15008588, -52768.727, -4969.9175, 0.000000004235602, 10.000735, 9.998317 
6.251901e+2, 3.0511984e+2, 350.79477, -138984.94, -8021.2324, -0.02797385, -0.13131206, 811.0381, 811.0381, 0.000000262113, 10.000602, 9.9987545 
6.2520826e+2, 3.1511804e+2, 6827.89, -86561.64, -18170.744, -0.034351047, -0.19399224, 10238.784, 10238.784, 0.0000013873902, 10.000432, 9.999196 
6.348765e+2, 1.2511803e+2, -1493979.6, -1682760.4, -153084.95, 0.08386801, -0.10375809, -1408524.1, 305305.72, 0.0, 10.001871, 9.999298 
6.3489324e+2, 1.351172e+2, -1549791.1, -1663403.0, 76025.35, -0.23061667, -0.123359546, -1511693.1, 104144.06, 0.0, 10.000763, 9.999331 
6.349181e+2, 1.451163e+2, -1505109.6, -1593079.0, -4336.8457, 0.2561542, -0.13639171, -1504896.4, 12949.583, 0.0, 10.000441, 9.999276 
6.34934e+2, 1.5511551e+2, -1320977.8, -1448552.8, -49754.613, 0.06375237, -0.15068392, -1303868.0, 115986.375, 0.0, 10.001015, 9.999317 
6.349504e+2, 1.6511492e+2, -1187443.0, -1300567.0, -79024.84, -0.039686427, -0.15298533, -1146823.8, 175035.55, 0.0, 10.001115, 9.999613 
6.3496804e+2, 1.7511454e+2, -1137153.0, -1224096.4, -63551.934, 0.008591946, -0.15535507, -1103627.1, 120234.16, 0.0, 10.000781, 9.999625 
6.349857e+2, 1.8511392e+2, -1088410.3, -1193577.1, -46384.715, 0.03898161, -0.15794787, -1070875.5, 54991.234, 0.0, 10.000629, 9.999235 
6.350031e+2, 1.9511306e+2, -986132.5, -1091318.4, -52130.93, 0.029673439, -0.16928707, -964673.75, 63201.895, 0.0, 10.000649, 9.999255 
6.350203e+2, 2.051123e+2, -869117.94, -976742.56, -70399.83, 0.025345422, -0.17460725, -834319.3, 95564.23, 0.0, 10.000749, 9.999322 
6.350375e+2, 2.1511154e+2, -741454.2, -862028.94, -63367.176, 0.035283763, -0.18465424, -714277.5, 117613.05, 0.0, 10.000943, 9.999343 
6.3505435e+2, 2.2511095e+2, -654346.75, -767615.9, -69603.79, 0.028001701, -0.1768027, -621247.5, 112648.63, 0.0, 10.000861, 9.999356 
6.350708e+2, 2.351105e+2, -604575.0, -691616.6, -63320.633, 0.0017850178, -0.15984, -571261.2, 64639.066, 0.0, 10.0005245, 9.999368 
6.350874e+2, 2.4510953e+2, -558768.94, -692211.8, -59147.67, -0.028516473, -0.15794758, -536326.5, 1584.073, 0.0, 10.000482, 9.998713 
6.351039e+2, 2.5510806e+2, -424766.38, -574134.56, -61238.055, -0.06126147, -0.18135844, -402869.84, 37057.184, 0.0, 10.000718, 9.998735 
6.351209e+2, 2.6510698e+2, -303499.94, -454085.94, -55309.785, -0.059320197, -0.1648243, -285368.06, 56570.152, 0.0, 10.00083, 9.998834 
6.351383e+2, 2.7510628e+2, -204575.02, -354403.84, -48505.742, -0.024944808, -0.11994072, -190242.7, 53701.715, 0.0, 10.000831, 9.998845 
6.3515544e+2, 2.8510466e+2, -155869.14, -351439.25, -34120.477, -0.026292369, -0.1291566, -150087.19, -4127.4077, 0.0, 10.000799, 9.998208 
6.3517255e+2, 2.9510233e+2, -70586.6, -261553.03, -37178.81, -0.060324546, -0.18836202, -63603.684, -15620.851, 0.000000008608103, 10.000721, 9.99819 
6.3519084e+2, 3.0510125e+2, 9948.511, -116646.39, -14056.682, -0.0098185465, -0.14579271, 11490.535, 11490.535, 0.00000035003856, 10.00059, 9.998915 
6.3520837e+2, 3.150994e+2, 32528.398, -29762.756, -14932.918, -0.064689875, -0.2319732, 35923.22, 35923.22, 0.0000017531552, 10.000417, 9.999595 
6.448776e+2, 1.250993e+2, -1616480.9, -1716561.3, -131373.39, 0.0627384, -0.098492175, -1525940.3, 188074.66, 0.0, 10.00092, 9.999526 
6.4489436e+2, 1.350986e+2, -1447434.3, -1584639.8, 72033.04, -0.22260368, -0.13191807, -1416562.9, 199455.92, 0.0, 10.001343, 9.999591 
6.4491886e+2, 1.4509758e+2, -1414337.4, -1566653.6, 13604.713, 0.26334468, -0.16056679, -1413131.8, 104896.33, 0.0, 10.001139, 9.999121 
6.4493465e+2, 1.5509674e+2, -1403010.0, -1505162.4, -11517.748, 0.05256015, -0.16397107, -1401727.5, 18310.604, 0.0, 10.000526, 9.999164 
6.449511e+2, 1.6509621e+2, -1285743.8, -1347595.5, -40463.363, -0.04583461, -0.15556172, -1265741.3, 56302.215, 0.0, 10.000438, 9.999617 
6.4496905e+2, 1.750959e+2, -1129622.9, -1220354.8, -52249.285, 0.031968307, -0.14840448, -1105793.0, 118251.93, 0.0, 10.000832, 9.999627 
6.449866e+2, 1.8509535e+2, -1042065.75, -1171944.1, -43839.85, 0.06243412, -0.1440057, -1028652.94, 97397.22, 0.0, 10.000952, 9.9992285 
6.4500374e+2, 1.9509456e+2, -961681.44, -1079728.1, -39457.51, 0.02252623, -0.14952981, -949707.25, 78351.46, 0.0, 10.000821, 9.999251 
6.450209e+2, 2.0509382e+2, -868572.75, -961717.3, -49046.582, 0.0088582095, -0.15696694, -847509.6, 82556.27, 0.0, 10.00069, 9.999452 
6.450381e+2, 2.1509309e+2, -789220.4, -871169.2, -46097.32, 0.02970465, -0.17751734, -768519.3, 63552.8, 0.0, 10.000555, 9.999466 
6.4505494e+2, 2.2509252e+2, -712835.2, -800829.1, -66763.36, 0.025581406, -0.17188375, -676875.44, 57202.008, 0.0, 10.00048, 9.999313 
6.450712e+2, 2.3509209e+2, -616495.6, -701579.56, -75478.32, -0.0061699045, -0.14933866, -572395.8, 63686.043, 0.0, 10.000462, 9.99933 
6.450877e+2, 2.4509121e+2, -560990.94, -665803.75, -56938.652, -0.031549376, -0.14732012, -536012.3, 2078.5007, 0.0, 10.000349, 9.998957 
6.451044e+2, 2.550899e+2, -490981.8, -579065.8, -35888.383, -0.050436005, -0.1753977, -478211.2, -38107.004, 0.0, 10.000147, 9.998977 
6.4512146e+2, 2.650889e+2, -399125.7, -508554.44, -20623.139, -0.05141986, -0.16392578, -395368.06, -53253.387, 0.0, 10.000211, 9.998757 
6.451388e+2, 2.7508804e+2, -253305.17, -386062.6, -32157.969, -0.035513714, -0.12579226, -245925.7, -1803.0308, 0.0, 10.000532, 9.99877 
6.451561e+2, 2.8508642e+2, -166061.58, -340264.5, -23027.707, -0.037291586, -0.1420864, -163068.97, -16930.732, 0.0, 10.000661, 9.998351 
6.4517325e+2, 2.9508415e+2, -79091.04, -250030.25, -7710.2046, -0.054783914, -0.2097007, -78743.98, -30583.957, 0.000000011710588, 10.000595, 9.998329 
6.4519143e+2, 3.050833e+2, -24180.502, -147690.47, 10860.371, -0.0006102349, -0.14036943, -23232.809, -23232.809, 0.00000040808163, 10.000419, 9.998784 
6.4520866e+2, 3.1508148e+2, 8824.003, -21309.848, -6547.664, -0.059549276, -0.21207757, 10185.229, 10185.229, 0.0000020409286, 10.000167, 9.999773 
6.5487856e+2, 1.2508032e+2, -1608118.3, -1698486.3, -102921.33, 0.06485389, -0.14736299, -1540899.5, 173300.4, 0.0, 10.000916, 9.999654 
6.548959e+2, 1.350798e+2, -1436515.1, -1562153.6, 85927.195, -0.20505093, -0.17738812, -1392893.1, 223308.23, 0.0, 10.001345, 9.999744 
6.549201e+2, 1.4507894e+2, -1405087.0, -1548581.4, -13250.223, 0.27048996, -0.20433743, -1403873.8, 114335.0, 0.0, 10.0011425, 9.999243 
6.54935e+2, 1.550786e+2, -1394618.3, -1488500.8, -33696.438, 0.0371238, -0.17017518, -1383776.0, 36437.59, 0.0, 10.000527, 9.999277 
6.5495145e+2, 1.6507806e+2, -1310557.3, -1398541.6, -26320.197, -0.049666442, -0.14938037, -1303284.8, 18935.203, 0.0, 10.000435, 9.999269 
6.549702e+2, 1.7507732e+2, -1153667.6, -1270613.0, -37400.297, 0.067835145, -0.15366873, -1142729.6, 81498.58, 0.0, 10.000833, 9.999282 
6.549879e+2, 1.8507665e+2, -1032000.1, -1150675.9, -50122.92, 0.088015854, -0.14873187, -1013663.7, 112571.47, 0.0, 10.00095, 9.999375 
6.5500426e+2, 1.9507614e+2, -951565.6, -1058818.1, -44128.18, -0.0048725023, -0.14167704, -935743.56, 92497.04, 0.0, 10.00082, 9.999395 
6.550212e+2, 2.0507562e+2, -863050.4, -949055.3, -54804.41, -0.029206613, -0.1386871, -836391.25, 93854.0, 0.0, 10.000685, 9.999541 
6.5503865e+2, 2.1507506e+2, -783599.94, -859007.5, -50514.074, 0.021053556, -0.15085672, -758270.0, 73979.46, 0.0, 10.000552, 9.999552 
6.5505534e+2, 2.2507437e+2, -728982.2, -833296.3, -68286.234, 0.021881256, -0.15036133, -695212.7, 39043.82, 0.0, 10.000475, 9.999093 
6.550715e+2, 2.3507352e+2, -631627.44, -732975.25, -75434.8, -0.026443858, -0.14832152, -591426.44, 44840.066, 0.0, 10.000461, 9.999115 
6.55088e+2, 2.4507287e+2, -521997.63, -584482.3, -64917.31, -0.03610998, -0.14134264, -481195.94, 57076.527, 0.0, 10.000347, 9.999516 
6.55105e+2, 2.5507247e+2, -452062.8, -498202.4, -42986.64, -0.0068980535, -0.1363508, -426346.7, 13927.605, 0.0, 10.000146, 9.999532 
6.55122e+2, 2.6507154e+2, -420324.56, -552672.2, -9364.067, -0.015772201, -0.12883379, -419665.28, -77382.19, 0.0, 10.000211, 9.998454 
6.55139e+2, 2.7506998e+2, -275379.3, -429543.9, -19368.361, -0.062855385, -0.13250807, -272983.22, -28683.92, 0.0, 10.000523, 9.998476 
6.5515625e+2, 2.8506827e+2, -139176.2, -282260.44, -25987.64, -0.08478884, -0.16227101, -134602.4, 11713.228, 0.0, 10.00065, 9.9987545 
6.551736e+2, 2.9506654e+2, -53395.434, -193693.22, -10312.177, -0.081491716, -0.21582006, -52641.52, -4310.542, 0.000000011654482, 10.000581, 9.998723 
6.551918e+2, 3.05066e+2, -53302.28, -205595.86, -109.35237, -0.0032994812, -0.12015865, -53302.203, -53302.203, 0.00000041978168, 10.000408, 9.99839 
6.552092e+2, 3.1506422e+2, 3031.713, -28857.424, -8613.997, -0.027669668, -0.1424808, 5209.788, 5209.788, 0.000002202322, 10.000149, 9.999729 
6.6488e+2, 1.2506202e+2, -1535601.3, -1685805.0, -58639.56, 0.088111185, -0.1660249, -1515419.9, 198958.05, 0.0, 10.001507, 9.999456 
6.64897e+2, 1.3506152e+2, -1513987.8, -1616427.4, 86098.33, -0.19336872, -0.17947938, -1465025.8, 151355.05, 0.0, 10.00089, 9.999589 
6.649209e+2, 1.4506066e+2, -1470304.6, -1562781.5, -24047.205, 0.26227587, -0.20671172, -1464425.3, 53963.195, 0.0, 10.000622, 9.999397 
6.6493565e+2, 1.5506053e+2, -1331721.6, -1441281.6, -41006.91, 0.030889375, -0.16628253, -1318073.5, 102316.9, 0.0, 10.000887, 9.999429 
6.649521e+2, 1.6506001e+2, -1256236.3, -1384965.3, -13612.705, -0.05452201, -0.14579156, -1254812.5, 67584.05, 0.0, 10.000865, 9.999153 
6.649708e+2, 1.7505907e+2, -1202337.4, -1306222.3, -9063.706, 0.06389357, -0.15717044, -1201552.5, 22854.879, 0.0, 10.000554, 9.999169 
6.649885e+2, 1.8505844e+2, -1090452.9, -1166289.8, -13480.019, 0.0848124, -0.15013343, -1088128.1, 38286.24, 0.0, 10.000497, 9.999486 
6.6500497e+2, 1.9505814e+2, -962920.0, -1052449.5, -12089.939, -0.00856649, -0.13301691, -961316.1, 67101.33, 0.0, 10.000691, 9.999501 
6.650218e+2, 2.050577e+2, -860591.06, -954822.56, -34906.684, -0.03700211, -0.12369671, -849069.2, 81352.24, 0.0, 10.000731, 9.99948 
6.65039e+2, 2.1505713e+2, -778131.7, -862048.56, -42948.426, 0.0046423567, -0.13170539, -760047.8, 72378.54, 0.0, 10.000617, 9.999497 
6.6505575e+2, 2.250564e+2, -721806.4, -827160.94, -53114.617, 0.007586313, -0.132777, -699676.9, 34756.85, 0.0, 10.000515, 9.999114 
6.6507185e+2, 2.3505548e+2, -635520.9, -732575.3, -43591.04, -0.02935617, -0.13892628, -618817.2, 17626.553, 0.0, 10.000424, 9.999135 
6.650884e+2, 2.4505478e+2, -518149.4, -601438.25, -49196.453, -0.032363687, -0.1310978, -495338.03, 43112.22, 0.0, 10.000454, 9.999348 
6.651054e+2, 2.550543e+2, -397590.9, -490602.66, -82354.25, -0.00069943815, -0.117591195, -349518.66, 90934.57, 0.0, 10.000601, 9.999365 
6.6512257e+2, 2.6505315e+2, -363594.97, -521498.38, -58539.92, -0.0026115733, -0.12141372, -344259.88, -1796.3492, 0.0, 10.000586, 9.9984865 
6.6513973e+2, 2.7505133e+2, -290319.9, -432657.16, -45493.22, -0.038731445, -0.15505365, -277021.94, -32540.584, 0.0, 10.000404, 9.998511 
6.6515684e+2, 2.850497e+2, -189550.86, -304335.8, -56556.89, -0.07116613, -0.1781201, -166366.81, -19870.092, 0.0, 10.000297, 9.998772 
6.651738e+2, 2.9504842e+2, -94815.15, -211753.98, -70750.22, -0.099079505, -0.19169414, -61500.766, -12991.907, 0.000000008469742, 10.00029, 9.998737 
6.651919e+2, 3.0504766e+2, -79144.5, -228423.4, -66201.91, -0.027605994, -0.111869894, -54015.516, -54015.516, 0.00000038345433, 10.000277, 9.998296 
6.652094e+2, 3.150457e+2, 26442.135, 3626.4243, -49663.957, -0.018256914, -0.1434005, 65991.59, 65991.59, 0.0000022156387, 10.000217, 9.999919 
6.7488194e+2, 1.2504448e+2, -1571779.4, -1764403.8, -70718.24, 0.1315729, -0.15533571, -1548604.8, 165943.69, 0.0, 10.001517, 9.998914 
6.7489797e+2, 1.3504383e+2, -1547909.0, -1687042.1, 60686.773, -0.19495341, -0.13559987, -1525158.8, 91397.61, 0.0, 10.000892, 9.999104 
6.749212e+2, 1.4504279e+2, -1456781.4, -1535110.6, -17338.363, 0.2317709, -0.16557378, -1453115.0, 65451.684, 0.0, 10.000623, 9.999587 
6.7493653e+2, 1.5504257e+2, -1318218.6, -1413854.9, -30494.29, 0.029774176, -0.15324098, -1309322.8, 111245.266, 0.0, 10.000889, 9.999617 
6.749528e+2, 1.6504206e+2, -1248244.5, -1367623.6, -26379.52, -0.064818785, -0.14682706, -1242675.1, 79897.91, 0.0, 10.000861, 9.999273 
6.749709e+2, 1.7504123e+2, -1193860.0, -1288651.8, -20213.396, 0.016088923, -0.15895092, -1189729.6, 34852.402, 0.0, 10.000554, 9.99929 
6.749886e+2, 1.8504074e+2, -1086700.9, -1158104.9, -7098.806, 0.047612, -0.14792973, -1086002.0, 40585.34, 0.0, 10.000494, 9.999544 
6.750058e+2, 1.9504055e+2, -959467.8, -1044951.9, -4715.347, 0.007921333, -0.12305493, -959208.5, 69380.68, 0.0, 10.000689, 9.999555 
6.750227e+2, 2.0504007e+2, -875784.5, -984758.4, -40349.043, -0.01825548, -0.111576736, -862471.2, 68123.164, 0.0, 10.000724, 9.999278 
6.7503935e+2, 2.1503928e+2, -792783.4, -891639.9, -46851.793, -0.021885931, -0.12145021, -774107.0, 58495.813, 0.0, 10.000612, 9.999297 
6.75056e+2, 2.2503859e+2, -704533.9, -789949.7, -57293.645, -0.021068864, -0.12093925, -675781.8, 58827.39, 0.0, 10.000508, 9.9993725 
6.750724e+2, 2.35038e+2, -617809.94, -695867.25, -46389.496, -0.017631553, -0.1216547, -596215.0, 40398.887, 0.0, 10.000423, 9.999388 
6.75089e+2, 2.4503694e+2, -579484.9, -728552.8, -44116.53, -0.022758607, -0.1172132, -567407.2, -28782.908, 0.0, 10.000453, 9.998476 
6.7510563e+2, 2.5503546e+2, -459273.84, -617782.4, -75530.11, -0.03453211, -0.11702195, -429047.38, 11593.114, 0.0, 10.000597, 9.998493 
6.75123e+2, 2.6503387e+2, -339632.47, -471047.88, -64804.74, -0.016727451, -0.13892162, -313051.72, 29603.545, 0.0, 10.000582, 9.998835 
6.751408e+2, 2.750322e+2, -266525.16, -382103.03, -50957.938, 0.030344408, -0.19363852, -247266.89, -2598.1777, 0.0, 10.0004, 9.99886 
6.7515785e+2, 2.850308e+2, -213999.31, -354869.47, -56788.57, -0.0011718504, -0.19219694, -193957.64, -47276.152, 0.0, 10.000296, 9.998426 
6.7517394e+2, 2.9502982e+2, -121066.836, -263570.53, -68601.48, -0.11248606, -0.1376953, -93409.695, -44716.61, 0.0000000040864183, 10.000278, 9.998387 
6.7519164e+2, 3.0502847e+2, -67581.52, -202263.02, -67047.0, -0.07787844, -0.11161852, -39895.56, -39895.56, 0.0000003121116, 10.000267, 9.99848 
6.752094e+2, 3.1502602e+2, 51751.99, 59580.62, -43389.176, -0.04033431, -0.21555401, 99231.69, 99231.69, 0.0000020914758, 10.000203, 10.00031 
6.8488353e+2, 1.250269e+2, -1598797.0, -1784947.5, -75733.95, 0.15216587, -0.142463, -1571877.9, 142843.02, 0.0, 10.001366, 9.998847 
6.8489885e+2, 1.3502628e+2, -1516560.5, -1675181.6, 73233.81, -0.19688441, -0.115006484, -1487920.4, 128808.766, 0.0, 10.001123, 9.999072 
6.8492174e+2, 1.4502516e+2, -1424789.6, -1529108.8, 24340.752, 0.2114285, -0.14806858, -1419389.6, 99351.03, 0.0, 10.000884, 9.999501 
6.849374e+2, 1.5502486e+2, -1333967.8, -1431361.6, -9890.869, 0.039469097, -0.13538145, -1332973.5, 87769.59, 0.0, 10.000825, 9.999526 
6.8495375e+2, 1.6502434e+2, -1256680.3, -1364164.8, -27375.852, -0.05332481, -0.12877618, -1250109.4, 72638.59, 0.0, 10.000773, 9.999339 
6.849714e+2, 1.7502356e+2, -1164339.8, -1267255.1, -27656.023, 0.0023085454, -0.14195742, -1157378.8, 67377.12, 0.0, 10.000727, 9.999353 
6.8498904e+2, 1.85023e+2, -1076600.6, -1161014.5, -14102.304, 0.030527452, -0.13732506, -1074307.0, 52454.5, 0.0, 10.000598, 9.999474 
6.850063e+2, 1.9502264e+2, -1007626.06, -1074599.4, -21528.068, 0.006340995, -0.123568445, -1001303.0, 27461.994, 0.0, 10.00039, 9.999493 
6.8502325e+2, 2.050221e+2, -934453.2, -1011258.4, -52741.39, -0.01183747, -0.115660824, -907614.6, 23156.152, 0.0, 10.000316, 9.999291 
6.8503994e+2, 2.1502134e+2, -825779.44, -906189.06, -44993.887, -0.014810057, -0.12194527, -805644.56, 27134.17, 0.0, 10.00038, 9.99931 
6.850565e+2, 2.2502068e+2, -706362.9, -790284.06, -53169.64, -0.01416918, -0.120922744, -680590.9, 54193.875, 0.0, 10.000493, 9.999378 
6.85073e+2, 2.3502007e+2, -583237.8, -677530.9, -62564.71, -0.012374538, -0.12391917, -552044.44, 84744.625, 0.0, 10.000656, 9.9994 
6.850895e+2, 2.4501887e+2, -556780.1, -739480.44, -43425.3, -0.02228324, -0.12493491, -546983.8, -8182.9536, 0.0, 10.000704, 9.998279 
6.851062e+2, 2.550171e+2, -467188.22, -643051.75, -26129.006, -0.043031696, -0.13433488, -463388.2, -22567.81, 0.0, 10.000636, 9.998301 
6.851235e+2, 2.6501548e+2, -337487.34, -468873.03, -6298.5933, -0.026695428, -0.15140653, -337186.1, 5649.694, 0.0, 10.000592, 9.998845 
6.851413e+2, 2.75014e+2, -238502.88, -367751.3, -18833.717, 0.02766039, -0.1875257, -235814.39, 9032.894, 0.0, 10.0005865, 9.998868 
6.851583e+2, 2.8501263e+2, -195779.42, -363526.94, -30229.305, 0.013167594, -0.17839539, -190498.16, -43637.98, 0.0, 10.000497, 9.998268 
6.8517464e+2, 2.950114e+2, -128338.14, -283897.3, -30101.068, -0.072077304, -0.12974606, -122716.66, -73842.516, 0.0000000009738006, 10.000302, 9.998236 
6.8519205e+2, 3.0500948e+2, -79240.14, -211382.58, -23092.908, -0.05684921, -0.1502503, -75320.734, -75320.734, 0.00000022618863, 10.000203, 9.998448 
6.852094e+2, 3.1500736e+2, 57967.875, 65565.99, -13856.981, -0.060532782, -0.21908255, 76135.26, 76135.26, 0.0000018666766, 10.000236, 10.000335 
6.948849e+2, 1.250093e+2, -1568393.8, -1725884.6, -73065.234, 0.14385791, -0.13096097, -1539717.8, 175177.48, 0.0, 10.00138, 9.999247 
6.948999e+2, 1.3500895e+2, -1485903.6, -1610405.3, 62525.7, -0.20383473, -0.120167665, -1459923.9, 156974.56, 0.0, 10.00112, 9.999517 
6.949225e+2, 1.4500783e+2, -1451820.1, -1583632.5, 19686.55, 0.1973646, -0.15672436, -1448942.8, 69967.14, 0.0, 10.000878, 9.99913 
6.949384e+2, 1.5500747e+2, -1359202.5, -1484864.5, -10522.068, 0.055107437, -0.11223206, -1358327.5, 62587.164, 0.0, 10.00083, 9.999157 
6.9495475e+2, 1.6500689e+2, -1257370.9, -1366387.4, -30099.822, -0.026700752, -0.09120368, -1249612.4, 73308.414, 0.0, 10.000776, 9.999323 
6.949723e+2, 1.7500609e+2, -1165686.4, -1269960.1, -29499.775, 0.018584853, -0.10620654, -1157919.3, 67009.266, 0.0, 10.000726, 9.999336 
6.9498956e+2, 1.8500526e+2, -1090158.0, -1187586.3, -23003.535, 0.029527668, -0.11861205, -1084999.8, 41936.83, 0.0, 10.000591, 9.999294 
6.950065e+2, 1.950044e+2, -1020489.5, -1100768.8, -28803.426, -0.01547485, -0.13604696, -1011224.4, 17720.422, 0.0, 10.000387, 9.999315 
6.950234e+2, 2.0500378e+2, -919438.7, -979509.4, -51248.094, -0.02119182, -0.13751966, -890072.94, 40877.617, 0.0, 10.000313, 9.999511 
6.9504064e+2, 2.1500337e+2, -811102.56, -875191.0, -42018.62, 0.02100072, -0.13290535, -790303.6, 42650.47, 0.0, 10.000377, 9.999525 
6.950574e+2, 2.2500269e+2, -723472.06, -824991.2, -47906.01, 0.023365708, -0.13202815, -704435.3, 30524.91, 0.0, 10.000489, 9.999143 
6.950736e+2, 2.3500174e+2, -600526.25, -712797.2, -55797.54, -0.016426401, -0.14502169, -577512.8, 59456.293, 0.0, 10.000652, 9.999161 
6.950902e+2, 2.4500057e+2, -524827.1, -672094.44, -46379.81, -0.034771904, -0.15420425, -511437.78, 27542.332, 0.0, 10.000699, 9.998744 
6.951069e+2, 2.549992e+2, -435265.03, -575664.75, -28094.146, -0.030163419, -0.1693844, -429852.03, 11141.305, 0.0, 10.00063, 9.998766 
6.95124e+2, 2.6499793e+2, -359967.94, -514526.16, -7029.039, -0.034525517, -0.16054066, -359648.9, -16643.229, 0.0, 10.000587, 9.998533 
6.9514114e+2, 2.749967e+2, -262716.44, -415322.9, -17830.809, -0.047183145, -0.13775454, -260660.75, -15643.392, 0.0, 10.000575, 9.998548 
6.9515836e+2, 2.849951e+2, -195565.14, -361483.72, -37167.195, -0.031130165, -0.13648203, -187619.83, -40586.855, 0.0, 10.00049, 9.998285 
6.9517577e+2, 2.9499316e+2, -126327.48, -279880.28, -35917.19, 0.013110441, -0.16455357, -118341.5, -69289.13, 0.000000000021633938, 10.000303, 9.998262 
6.951931e+2, 3.049907e+2, -94726.4, -244300.47, -22021.441, 0.027672486, -0.22529277, -91551.62, -91551.62, 0.00000014519733, 10.000206, 9.99822 
6.952094e+2, 3.1498963e+2, 31259.477, 16995.307, -6274.6484, -0.08824755, -0.1676054, 33626.754, 33626.754, 0.0000015881137, 10.000205, 10.000015 
7.0488596e+2, 1.2499168e+2, -1610020.9, -1742993.6, -51136.19, 0.133286, -0.13276893, -1592630.3, 122438.44, 0.0, 10.0010805, 9.999274 
7.0490116e+2, 1.3499138e+2, -1477818.8, -1599456.8, 38345.105, -0.19025682, -0.12298215, -1466740.0, 150331.2, 0.0, 10.001149, 9.999576 
7.049234e+2, 1.449903e+2, -1436842.0, -1572855.4, -4196.1123, 0.1996514, -0.16121617, -1436712.8, 82369.25, 0.0, 10.000967, 9.99916 
7.049392e+2, 1.5499002e+2, -1375156.3, -1489331.5, -3930.4004, 0.061530896, -0.109812476, -1375021.1, 46064.453, 0.0, 10.000708, 9.999185 
7.049556e+2, 1.6498941e+2, -1276969.4, -1391455.6, -2107.3992, -0.016846532, -0.08730742, -1276930.6, 46161.5, 0.0, 10.000709, 9.999183 
7.049732e+2, 1.7498843e+2, -1140999.0, -1273148.8, -11495.306, 0.026915336, -0.10652871, -1140006.5, 85095.68, 0.0, 10.000962, 9.9992 
7.0499045e+2, 1.8498753e+2, -1042069.56, -1168506.8, -15973.016, 0.035946965, -0.11709859, -1040082.9, 87028.266, 0.0, 10.00094, 9.999255 
7.05007e+2, 1.9498672e+2, -985637.0, -1088945.5, -13604.68, -0.011170097, -0.12699264, -983875.44, 45243.484, 0.0, 10.000647, 9.999271 
7.0502394e+2, 2.0498604e+2, -887390.94, -963271.25, -26080.324, -0.017227937, -0.1323342, -879291.56, 51833.344, 0.0, 10.000528, 9.999519 
7.050411e+2, 2.1498547e+2, -779479.5, -858324.4, -33594.37, 0.025583418, -0.14432508, -767107.06, 66022.32, 0.0, 10.000588, 9.999537 
7.050579e+2, 2.2498474e+2, -721242.0, -837159.3, -42536.816, 0.028712695, -0.14326538, -707307.75, 27828.305, 0.0, 10.000563, 9.9990225 
7.0507413e+2, 2.3498385e+2, -637748.2, -744068.8, -43041.15, -0.010487125, -0.1382666, -622508.5, 14636.528, 0.0, 10.000454, 9.999042 
7.0509076e+2, 2.4498275e+2, -546404.75, -665423.75, -38470.24, -0.02526889, -0.14304383, -535052.8, 4102.607, 0.0, 10.000478, 9.998897 
7.0510775e+2, 2.5498143e+2, -422462.16, -552355.5, -44905.83, -0.0142014325, -0.16823354, -408449.3, 32717.98, 0.0, 10.000645, 9.9989195 
7.0512456e+2, 2.649802e+2, -364821.78, -522722.56, -33114.207, -0.026925225, -0.15967046, -358158.44, -14979.193, 0.0, 10.00058, 9.998481 
7.0514137e+2, 2.74979e+2, -309696.9, -443116.72, -25636.5, -0.06313848, -0.12756237, -304940.44, -59749.023, 0.0, 10.000276, 9.998501 
7.0515865e+2, 2.8497756e+2, -206752.08, -351419.56, -17604.55, -0.046765663, -0.11497541, -204640.61, -57435.016, 0.0, 10.000347, 9.998425 
7.051765e+2, 2.9497588e+2, -41199.61, -222741.64, -9447.697, 0.02248401, -0.12993543, -40709.26, 8512.454, 0.0, 10.000818, 9.998407 
7.051936e+2, 3.049733e+2, -33050.598, -203034.52, -2241.791, 0.03867664, -0.22270061, -33021.035, -33021.035, 0.00000008201181, 10.00058, 9.998324 
7.0520943e+2, 3.1497237e+2, -63255.668, -41094.664, 36459.7, -0.07257093, -0.15277821, -14068.902, -14068.902, 0.0000012936833, 9.999608, 9.999905 
7.148869e+2, 1.2497412e+2, -1637010.9, -1798123.4, -38755.766, 0.116150916, -0.14998564, -1628173.0, 87067.77, 0.0, 10.001075, 9.998899 
7.149026e+2, 1.3497363e+2, -1500794.5, -1648482.6, 40371.973, -0.16204682, -0.123135, -1490478.9, 126767.66, 0.0, 10.001157, 9.999235 
7.149245e+2, 1.4497258e+2, -1406703.6, -1511549.1, -17180.857, 0.21071543, -0.16220906, -1403960.0, 115296.62, 0.0, 10.000973, 9.9995775 
7.149399e+2, 1.5497254e+2, -1346130.6, -1428657.5, -13201.267, 0.05436735, -0.12959774, -1344070.4, 77185.01, 0.0, 10.000705, 9.999602 
7.1495616e+2, 1.649719e+2, -1295317.3, -1427842.8, 7195.8525, -0.028501485, -0.118892774, -1294927.6, 28334.066, 0.0, 10.000701, 9.998937 
7.149741e+2, 1.7497061e+2, -1158023.3, -1308985.9, -884.923, 0.02388314, -0.14411409, -1158018.0, 67258.36, 0.0, 10.000964, 9.998953 
7.149914e+2, 1.8496983e+2, -1036473.94, -1157018.0, -27811.645, 0.044702884, -0.13414563, -1030366.75, 96918.18, 0.0, 10.00094, 9.999334 
7.1500796e+2, 1.9496958e+2, -980599.06, -1078023.3, -24415.264, 0.014828273, -0.09567359, -974822.9, 54464.195, 0.0, 10.000644, 9.999348 
7.1502453e+2, 2.0496885e+2, -901671.1, -991542.0, -24808.88, -0.0037823657, -0.09928465, -895277.5, 36015.992, 0.0, 10.000523, 9.999329 
7.1504146e+2, 2.1496765e+2, -793830.2, -886937.75, -30814.695, -0.003051594, -0.1564679, -784555.7, 48748.78, 0.0, 10.000583, 9.999345 
7.1505815e+2, 2.2496681e+2, -721337.56, -836932.94, -47377.73, -0.0005569425, -0.15571758, -704400.94, 30911.396, 0.0, 10.00056, 9.999025 
7.150748e+2, 2.3496638e+2, -638021.5, -744232.44, -46179.426, 0.0016926212, -0.10452077, -620751.3, 16565.658, 0.0, 10.000452, 9.999042 
7.150915e+2, 2.4496537e+2, -557350.1, -687811.9, -32654.795, 0.0016548244, -0.09255055, -549633.06, -10306.237, 0.0, 10.000476, 9.998744 
7.151085e+2, 2.5496376e+2, -434517.4, -576281.7, -37730.848, 0.0012476447, -0.13102658, -425100.78, 16241.3, 0.0, 10.00064, 9.998757 
7.151254e+2, 2.649623e+2, -350765.34, -493358.63, -44680.96, -0.008120233, -0.14864895, -337921.63, 5434.6, 0.0, 10.000579, 9.998684 
7.1514195e+2, 2.7496094e+2, -295058.75, -412595.66, -36331.387, -0.027316382, -0.15500988, -284735.22, -39365.957, 0.0, 10.000276, 9.998711 
7.1515906e+2, 2.8496003e+2, -189811.63, -315088.78, -665.1655, -0.03887352, -0.11330195, -189808.1, -42429.97, 0.0, 10.000341, 9.998676 
7.151766e+2, 2.9495957e+2, -28305.39, -188355.03, 9036.555, -0.043156795, -0.029332682, -27796.795, 21585.89, 0.0, 10.000786, 9.998659 
7.1519357e+2, 3.0495706e+2, -7113.979, -144492.83, -39472.72, -0.02280645, -0.14632559, 3419.903, 3419.903, 0.00000004119849, 10.000559, 9.998737 
7.152095e+2, 3.149556e+2, -54932.81, -27020.045, 2466.6182, -0.026904766, -0.17322533, -26803.75, -26803.75, 0.0000010048329, 9.999622, 9.999994 
7.248883e+2, 1.2495683e+2, -1556031.6, -1755806.6, -37796.797, 0.12759967, -0.13425885, -1549119.8, 166292.06, 0.0, 10.001612, 9.998933 
7.24904e+2, 1.3495658e+2, -1500291.4, -1641939.8, 57737.824, -0.13375415, -0.08897544, -1479738.8, 137676.25, 0.0, 10.001135, 9.9992895 
7.249254e+2, 1.4495544e+2, -1420742.8, -1517037.1, 6655.5474, 0.21108362, -0.14120252, -1420284.9, 99140.58, 0.0, 10.000872, 9.999588 
7.2494054e+2, 1.5495495e+2, -1306927.9, -1409006.6, -20179.752, 0.04257622, -0.15438348, -1303083.4, 118344.586, 0.0, 10.000972, 9.999607 
7.249569e+2, 1.649543e+2, -1257605.8, -1398609.5, 2456.0122, -0.03684873, -0.150466, -1257563.0, 65870.98, 0.0, 10.000913, 9.999035 
7.2497505e+2, 1.7495343e+2, -1191177.4, -1314080.5, 18516.629, 0.032692213, -0.14300221, -1188448.3, 36996.02, 0.0, 10.000689, 9.99905 
7.249924e+2, 1.8495272e+2, -1085483.3, -1191041.8, -3832.4238, 0.060458407, -0.12507966, -1085344.3, 42107.594, 0.0, 10.000648, 9.999242 
7.250087e+2, 1.949522e+2, -963699.56, -1079264.0, -13771.81, 0.02629209, -0.10474352, -962081.0, 67375.945, 0.0, 10.000802, 9.999262 
7.2502524e+2, 2.0495145e+2, -869102.44, -988478.9, -15401.213, -0.0017360215, -0.10429156, -867147.5, 64316.94, 0.0, 10.000801, 9.999215 
7.250419e+2, 2.1495038e+2, -794420.06, -899934.25, -16910.65, -0.015956443, -0.13428546, -791776.06, 41698.387, 0.0, 10.000632, 9.999232 
7.250587e+2, 2.2494951e+2, -706785.25, -831521.2, -25022.166, -0.014474025, -0.13264167, -701952.94, 33529.844, 0.0, 10.000667, 9.999013 
7.250754e+2, 2.3494877e+2, -570129.6, -712678.9, -26838.18, 0.0011447346, -0.10912605, -565244.2, 72245.34, 0.0, 10.000923, 9.999032 
7.2509223e+2, 2.4494766e+2, -511184.25, -683003.94, -19392.584, 0.008297349, -0.10008869, -509022.7, 30477.771, 0.0, 10.000868, 9.998589 
7.2510916e+2, 2.549461e+2, -466219.84, -608437.5, -24964.246, 0.008189375, -0.1160567, -461965.03, -20449.238, 0.0, 10.000495, 9.998607 
7.25126e+2, 2.6494458e+2, -368456.38, -500529.25, -33192.695, 0.008846428, -0.1336886, -360583.66, -17052.91, 0.0, 10.000452, 9.998696 
7.2514284e+2, 2.7494302e+2, -223870.77, -377006.72, -40765.9, 0.009857973, -0.16253677, -213694.78, 31850.494, 0.0, 10.000758, 9.998723 
7.251597e+2, 2.8494206e+2, -168001.66, -297001.75, -27137.01, -0.013037532, -0.12971437, -162525.47, -14971.033, 0.0, 10.000458, 9.998745 
7.251765e+2, 2.9494172e+2, -204096.34, -265159.56, -31366.4, -0.06181267, -0.041954864, -190855.47, -141297.27, 0.0, 9.999543, 9.998732 
7.2519344e+2, 3.049395e+2, -114100.28, -170982.17, -74921.23, -0.047582254, -0.14237352, -62403.363, -62403.363, 0.000000018939705, 9.999717, 9.9989605 
7.2521013e+2, 3.1493852e+2, 138515.0, 53531.55, -48000.51, 0.009445953, -0.14297524, 160129.4, 160129.4, 0.0000007295325, 10.001005, 9.999883 
7.348903e+2, 1.2493984e+2, -1523773.9, -1690737.9, -47143.7, 0.1594797, -0.087962955, -1511382.1, 204199.83, 0.0, 10.001618, 9.999377 
7.349054e+2, 1.3494028e+2, -1468277.5, -1574344.8, 38424.77, -0.10876084, -0.020671567, -1455820.4, 161755.6, 0.0, 10.001132, 9.999754 
7.349261e+2, 1.4493892e+2, -1448732.3, -1574642.4, 8733.54, 0.1955001, -0.098693095, -1448129.3, 71458.65, 0.0, 10.000869, 9.999194 
7.3494136e+2, 1.5493728e+2, -1334709.8, -1468595.4, -14913.029, 0.021277113, -0.18442431, -1333068.8, 88534.0, 0.0, 10.000979, 9.999195 
7.349577e+2, 1.6493662e+2, -1227456.3, -1336560.6, -6909.464, -0.047796004, -0.18300635, -1227020.4, 96588.25, 0.0, 10.000916, 9.99946 
7.349759e+2, 1.749369e+2, -1161020.6, -1251449.0, 10279.508, 0.050200164, -0.10256693, -1159866.8, 65738.67, 0.0, 10.000688, 9.999481 
7.3499316e+2, 1.8493626e+2, -1103430.0, -1227314.0, 968.6182, 0.07949341, -0.08947955, -1103422.4, 24189.52, 0.0, 10.000643, 9.998996 
7.3500943e+2, 1.9493464e+2, -981597.8, -1116265.8, -7677.6426, 0.019748421, -0.15464748, -981161.5, 48466.926, 0.0, 10.000801, 9.999009 
7.350259e+2, 2.0493376e+2, -871957.44, -993374.9, -22602.39, -0.015173015, -0.14844826, -867886.4, 63751.223, 0.0, 10.000796, 9.999185 
7.350425e+2, 2.1493368e+2, -797624.2, -905195.1, -22718.41, -0.017346544, -0.07780624, -793023.0, 40616.387, 0.0, 10.000626, 9.9992 
7.3505926e+2, 2.249328e+2, -710109.5, -836961.56, -16540.752, -0.016752196, -0.07379253, -707988.1, 27659.393, 0.0, 10.00066, 9.998979 
7.350762e+2, 2.3493105e+2, -573568.7, -718566.0, -16685.03, -0.014573284, -0.149681, -571673.5, 65989.03, 0.0, 10.0009165, 9.998995 
7.3509294e+2, 2.4492961e+2, -520937.94, -703244.2, -33812.62, -0.008070011, -0.16362108, -514868.72, 24807.486, 0.0, 10.000867, 9.99845 
7.3510957e+2, 2.549285e+2, -475925.53, -628226.4, -38115.434, 0.0027842682, -0.12297027, -466919.2, -25230.72, 0.0, 10.000493, 9.998472 
7.351266e+2, 2.6492706e+2, -381465.44, -526714.2, -21595.066, 0.019939125, -0.114893965, -378322.75, -34619.945, 0.0, 10.000448, 9.998518 
7.351439e+2, 2.7492526e+2, -239303.56, -405498.2, -27615.945, 0.044783212, -0.14893045, -234834.88, 10884.45, 0.0, 10.000743, 9.998535 
7.351605e+2, 2.849237e+2, -174938.28, -309924.25, -60718.3, 0.025939977, -0.16145533, -151645.72, -3911.5938, 0.0, 10.000451, 9.99866 
7.3517627e+2, 2.9492238e+2, -206919.77, -274620.53, -63277.547, -0.041101996, -0.1617066, -169007.36, -119260.1, 0.0, 9.999558, 9.998659 
7.351932e+2, 3.049207e+2, -111413.52, -167974.98, -25801.977, -0.04292433, -0.2066709, -101411.86, -101411.86, 0.0000000073965225, 9.999728, 9.998977 
7.352113e+2, 3.1492132e+2, 109816.99, 4952.742, 3768.9072, 0.026387217, -0.050509926, 109952.27, 109952.27, 0.0000004773962, 10.000959, 9.999572 
7.448917e+2, 1.24922946e+2, -1577848.4, -1715335.0, -17337.639, 0.15994291, -0.06837976, -1575695.8, 140052.69, 0.0, 10.001241, 9.999391 
7.4490666e+2, 1.3492322e+2, -1460579.8, -1568188.0, 20806.43, -0.08958869, -0.020460263, -1456696.8, 161047.1, 0.0, 10.001177, 9.999773 
7.4492705e+2, 1.4492187e+2, -1424986.4, -1574752.8, -982.1339, 0.1983866, -0.092558555, -1424979.9, 94775.98, 0.0, 10.00108, 9.999093 
7.449424e+2, 1.5492046e+2, -1324245.8, -1474722.5, -1139.523, 0.032759, -0.14630237, -1324237.0, 97532.29, 0.0, 10.001099, 9.999096 
7.449588e+2, 1.6491976e+2, -1198271.8, -1325027.6, -1700.5884, -0.035979085, -0.14145973, -1198249.0, 125526.51, 0.0, 10.001127, 9.999437 
7.449768e+2, 1.7491977e+2, -1093237.6, -1221360.4, -19951.115, 0.050855912, -0.08796633, -1090202.8, 135571.64, 0.0, 10.001165, 9.999456 
7.4499404e+2, 1.8491895e+2, -1050426.6, -1200032.3, -36171.0, 0.07984888, -0.09011382, -1042140.25, 85641.64, 0.0, 10.0009985, 9.999013 
7.4501026e+2, 1.949173e+2, -1007717.3, -1127242.9, -26191.46, 0.030304901, -0.15858905, -1002229.94, 27568.324, 0.0, 10.000613, 9.999025 
7.450266e+2, 2.0491649e+2, -917763.0, -1016332.0, -25124.64, -0.0028975834, -0.14922562, -911728.4, 20078.666, 0.0, 10.000485, 9.999176 
7.4504316e+2, 2.1491648e+2, -797325.5, -905074.2, -24944.818, -0.012392931, -0.069690205, -791830.75, 41977.387, 0.0, 10.000629, 9.999197 
7.450599e+2, 2.2491558e+2, -702577.56, -829351.94, -8772.064, -0.016018398, -0.068904825, -701973.44, 33842.89, 0.0, 10.000694, 9.999015 
7.450769e+2, 2.349137e+2, -607728.4, -730613.75, -4591.9033, -0.015019995, -0.16025838, -607557.0, 30274.97, 0.0, 10.000664, 9.999034 
7.4509376e+2, 2.4491224e+2, -542522.4, -721296.5, -22196.336, -0.0058644316, -0.176709, -539807.75, 38.227646, 0.0, 10.000753, 9.998381 
7.4511033e+2, 2.5491115e+2, -410260.94, -604842.25, -23742.285, 0.01169494, -0.12536658, -407405.88, 34452.383, 0.0, 10.000979, 9.998399 
7.4512714e+2, 2.649097e+2, -339436.06, -508127.03, -3650.2097, 0.01940418, -0.11149412, -339357.13, 4515.4404, 0.0, 10.000743, 9.998504 
7.4514407e+2, 2.7490792e+2, -343018.94, -457281.3, 1520.6285, 0.018044943, -0.14545952, -342998.72, -97109.625, 0.0, 10.000037, 9.99852 
7.4516064e+2, 2.849062e+2, -238292.6, -353323.34, -18437.775, 0.011857388, -0.16617249, -235409.53, -87504.19, 0.0, 10.000072, 9.998545 
7.4517685e+2, 2.9490465e+2, -24335.795, -199107.95, -25469.834, -0.0014034547, -0.18173671, -20699.684, 29221.574, 0.0, 10.000866, 9.9985485 
7.451937e+2, 3.0490324e+2, 45046.574, -94845.2, 17669.586, -0.014656175, -0.19585022, 47243.887, 47243.887, 0.0000000015345106, 10.000813, 9.998957 
7.452114e+2, 3.149036e+2, -60309.34, -104230.69, 40672.605, -0.0033932636, -0.059773937, -36047.38, -36047.38, 0.00000026410652, 9.9999075, 9.999327 
7.548925e+2, 1.2490621e+2, -1610593.8, -1783686.4, -13373.817, 0.11402537, -0.07644128, -1609566.5, 106343.97, 0.0, 10.001241, 9.998921 
7.5490797e+2, 1.349054e+2, -1493403.3, -1635330.3, 17369.426, -0.08099027, -0.09075495, -1491308.5, 126610.15, 0.0, 10.001173, 9.999313 
7.5492835e+2, 1.4490432e+2, -1410655.5, -1544880.3, -2884.698, 0.21542841, -0.12458275, -1410593.5, 109335.88, 0.0, 10.00108, 9.999298 
7.5494397e+2, 1.5490451e+2, -1308255.1, -1442415.8, 286.90518, 0.07432551, -0.03838485, -1308254.5, 113672.66, 0.0, 10.0011015, 9.999317 
7.549602e+2, 1.6490377e+2, -1230338.0, -1392585.8, -1011.31, -0.006024336, -0.024803499, -1230331.6, 93602.37, 0.0, 10.00113, 9.998972 
7.549777e+2, 1.7490202e+2, -1126252.4, -1291419.3, -18118.94, 0.03024899, -0.10008543, -1124288.1, 101662.89, 0.0, 10.00117, 9.998975 
7.5499475e+2, 1.8490084e+2, -1031638.1, -1160384.5, -51581.297, 0.056155644, -0.128811, -1013521.7, 114440.195, 0.0, 10.000996, 9.999287 
7.550111e+2, 1.9490027e+2, -988314.9, -1086699.9, -40511.676, 0.05511318, -0.116844885, -973780.6, 56185.59, 0.0, 10.000611, 9.999305 
7.550275e+2, 2.048996e+2, -917271.4, -1014615.0, -21092.406, 0.03271617, -0.10654687, -912897.56, 19074.86, 0.0, 10.000482, 9.99919 
7.5504386e+2, 2.1489881e+2, -796929.06, -903366.3, -19380.424, -0.005430679, -0.10858971, -793510.06, 40470.62, 0.0, 10.000625, 9.999212 
7.550606e+2, 2.2489788e+2, -695262.8, -812536.44, -10890.335, -0.017316166, -0.117407404, -694260.1, 41729.035, 0.0, 10.000687, 9.999134 
7.550777e+2, 2.348968e+2, -600649.56, -714100.8, -5517.076, -0.0037865513, -0.14216913, -600381.94, 37615.94, 0.0, 10.000655, 9.999151 
7.5509465e+2, 2.4489553e+2, -544556.3, -723734.0, -14384.617, 0.011997989, -0.1407409, -543408.9, -3399.1013, 0.0, 10.000745, 9.998368 
7.551116e+2, 2.548941e+2, -413380.22, -608749.8, -14416.588, 0.03056119, -0.121843845, -412322.13, 29702.965, 0.0, 10.000968, 9.998377 
7.551277e+2, 2.648926e+2, -329793.38, -486902.2, -30109.61, 0.003940163, -0.12207116, -324220.6, 19819.467, 0.0, 10.000737, 9.998652 
7.5514317e+2, 2.74891e+2, -331172.63, -433619.22, -23703.877, -0.07047317, -0.1543623, -325953.94, -79898.984, 0.0, 10.000041, 9.998681 
7.5516003e+2, 2.8488955e+2, -249910.56, -377115.06, 11215.046, -0.05608775, -0.14699006, -248929.36, -100860.72, 0.0, 10.00007, 9.998383 
7.551782e+2, 2.9488844e+2, -40118.758, -225912.95, 6205.2007, 0.05027845, -0.10317407, -39911.746, 10169.021, 0.0, 10.000839, 9.998377 
7.5519496e+2, 3.04887e+2, 39730.305, -100165.086, -16097.884, 0.029816646, -0.10980314, 41558.805, 41558.805, 0.00000000001992495, 10.000788, 9.998931 
7.552106e+2, 3.1488556e+2, -72583.98, -127925.0, 8732.617, -0.083528705, -0.14810762, -71238.7, -71238.7, 0.000000109993245, 9.9999, 9.999167 
7.6489395e+2, 1.2488921e+2, -1522439.8, -1770132.0, -27105.092, 0.09592855, -0.08981624, -1519508.4, 196567.89, 0.0, 10.001968, 9.998666 
7.649093e+2, 1.3488816e+2, -1428742.8, -1632639.3, 8899.618, -0.0918853, -0.10336834, -1428355.0, 189733.22, 0.0, 10.001741, 9.999057 
7.649294e+2, 1.4488709e+2, -1352516.1, -1514380.4, -4875.691, 0.19931494, -0.123708345, -1352369.4, 167729.86, 0.0, 10.001469, 9.99932 
7.649454e+2, 1.5488751e+2, -1280022.4, -1426070.3, -16321.932, 0.0974297, -0.017133687, -1278220.5, 143873.9, 0.0, 10.001284, 9.999342 
7.649616e+2, 1.6488673e+2, -1246018.1, -1413307.1, -11386.935, 0.022106484, -0.004275523, -1245246.6, 78855.26, 0.0, 10.001076, 9.9988575 
7.6497865e+2, 1.7488463e+2, -1181407.6, -1330465.6, -2312.8523, 0.022557216, -0.101781145, -1181371.6, 44750.85, 0.0, 10.000845, 9.998864 
7.649954e+2, 1.8488342e+2, -1057995.8, -1166115.3, -29217.17, 0.037177626, -0.1310826, -1050605.5, 77528.17, 0.0, 10.000786, 9.999348 
7.6501185e+2, 1.9488314e+2, -939766.06, -1056194.1, -35582.414, 0.051279075, -0.09823378, -929752.7, 100382.414, 0.0, 10.000916, 9.999367 
7.650282e+2, 2.0488244e+2, -859621.75, -988519.4, -20506.66, 0.040183526, -0.0921731, -856437.94, 75703.08, 0.0, 10.000884, 9.999176 
7.650446e+2, 2.1488132e+2, -791352.56, -902917.94, -22340.31, 0.007965478, -0.12473775, -787045.3, 47106.51, 0.0, 10.000672, 9.999192 
7.650613e+2, 2.2488037e+2, -719358.3, -831807.75, -20514.234, -0.0034460642, -0.13079542, -715732.75, 20428.115, 0.0, 10.000557, 9.999063 
7.6507837e+2, 2.3487958e+2, -621252.8, -732347.56, -31463.852, 0.004815422, -0.11864768, -612960.7, 25207.52, 0.0, 10.000552, 9.999075 
7.6509535e+2, 2.448785e+2, -560618.1, -697538.3, -32711.318, 0.018955994, -0.11242885, -553204.56, -13026.028, 0.0, 10.000488, 9.998672 
7.651123e+2, 2.548771e+2, -479277.13, -606231.3, -10089.692, 0.039265707, -0.12223101, -478480.22, -36288.113, 0.0, 10.000369, 9.998683 
7.651284e+2, 2.6487565e+2, -378931.47, -517419.47, -30070.082, 0.01008281, -0.12792912, -372684.13, -28478.035, 0.0, 10.00043, 9.9985895 
7.651436e+2, 2.7487415e+2, -243290.89, -398545.78, -42310.035, -0.070189886, -0.14168625, -232509.28, 13711.521, 0.0, 10.000677, 9.998614 
7.6516026e+2, 2.8487277e+2, -180651.66, -338858.88, 4923.915, -0.059425503, -0.12699606, -180498.56, -32264.324, 0.0, 10.000524, 9.998426 
7.6517856e+2, 2.9487163e+2, -162452.17, -280089.03, 14016.639, 0.044469215, -0.0856402, -160805.13, -110559.26, 0.0, 9.999978, 9.99842 
7.651952e+2, 3.0487052e+2, -87845.53, -158439.95, -10640.725, 0.019200752, -0.066198714, -86276.52, -86276.52, 0.0, 9.999896, 9.9989605 
7.652106e+2, 3.1486842e+2, -16766.918, -95019.54, 13775.968, -0.08099695, -0.17683822, -14412.564, -14412.564, 0.000000028836135, 10.000256, 9.999223 
7.7489585e+2, 1.24872014e+2, -1523806.6, -1774182.4, -31581.223, 0.096718974, -0.103901096, -1519884.6, 196360.77, 0.00000000003061157, 10.001973, 9.998636 
7.749106e+2, 1.3487151e+2, -1431338.1, -1638745.6, -570.55756, -0.12842709, -0.056333523, -1431336.5, 186915.67, 0.0, 10.001745, 9.999013 
7.749303e+2, 1.4487022e+2, -1362286.5, -1536741.5, -14389.478, 0.14116387, -0.0892263, -1361107.6, 159157.45, 0.0, 10.001476, 9.999163 
7.7494663e+2, 1.5486945e+2, -1291518.4, -1451706.5, -22969.504, 0.097828045, -0.08570924, -1288289.9, 133981.33, 0.0, 10.001288, 9.999165 
7.749629e+2, 1.648686e+2, -1229266.9, -1377858.6, -21218.686, 0.04434588, -0.08310863, -1226296.3, 97982.72, 0.0, 10.001074, 9.999102 
7.749795e+2, 1.7486763e+2, -1163453.1, -1292967.3, -10659.453, 0.024595823, -0.09259764, -1162581.8, 63706.9, 0.0, 10.000844, 9.999123 
7.7499604e+2, 1.8486673e+2, -1068530.5, -1187821.1, -25376.15, 0.018765172, -0.096287906, -1063356.8, 64940.363, 0.0, 10.000784, 9.999201 
7.750124e+2, 1.9486591e+2, -950790.06, -1079067.4, -30436.352, 0.015071807, -0.10247475, -943934.75, 86369.734, 0.0, 10.000914, 9.999211 
7.750288e+2, 2.0486502e+2, -863743.0, -995357.75, -29357.615, 0.014881445, -0.10642517, -857491.5, 74820.99, 0.0, 10.000877, 9.999132 
7.7504545e+2, 2.1486406e+2, -795434.5, -910119.56, -30015.727, 0.024478866, -0.11837541, -788053.7, 46267.695, 0.0, 10.000667, 9.9991455 
7.750622e+2, 2.2486308e+2, -738901.9, -871862.1, -21650.152, 0.022742528, -0.10974972, -735465.4, 866.011, 0.0, 10.000554, 9.99879 
7.750789e+2, 2.348621e+2, -640874.25, -772363.06, -30634.656, 0.006590375, -0.08915988, -634087.25, 4255.4063, 0.0, 10.000547, 9.998803 
7.7509576e+2, 2.448611e+2, -518918.06, -609472.9, -37338.65, 0.010407668, -0.09147241, -505508.03, 34843.98, 0.0, 10.000482, 9.99928 
7.751126e+2, 2.5486004e+2, -436227.22, -515464.84, -13605.879, 0.03535594, -0.12829822, -433956.03, 8403.341, 0.0, 10.000362, 9.99931 
7.75129e+2, 2.648588e+2, -399367.8, -558590.56, -20910.879, 0.034556262, -0.12972881, -396667.38, -52296.71, 0.0, 10.000424, 9.998311 
7.75145e+2, 2.7485743e+2, -266260.75, -443217.66, -31463.31, 0.0075193886, -0.10427319, -260833.0, -14446.677, 0.0, 10.000663, 9.998315 
7.751613e+2, 2.8485593e+2, -163841.1, -300891.38, -15381.975, -0.008980697, -0.10299284, -162135.89, -13734.157, 0.0, 10.00051, 9.998693 
7.751779e+2, 2.9485434e+2, -144307.4, -241597.66, -3935.3496, -0.01705983, -0.13288441, -144148.48, -93731.77, 0.0, 9.999974, 9.998687 
7.751944e+2, 3.048538e+2, -85527.96, -152106.31, 3739.7302, -0.045256335, -0.06791527, -85318.555, -85318.555, 0.0, 9.999889, 9.999008 
7.752116e+2, 3.148523e+2, -6265.909, -68834.04, 28399.994, -0.017629415, -0.12604457, 4702.272, 4702.272, 0.0000000029769756, 10.000236, 9.9994135 
7.8489745e+2, 1.2485496e+2, -1602559.3, -1797576.4, -23951.988, 0.08833526, -0.10057031, -1599660.5, 116752.73, 0.0000000009851104, 10.001367, 9.99877 
7.849126e+2, 1.3485481e+2, -1429000.9, -1624798.8, 9916.488, -0.104726315, -0.027901843, -1428499.9, 189916.08, 0.0, 10.001708, 9.999126 
7.8493184e+2, 1.4485347e+2, -1347008.6, -1536072.9, -6277.991, 0.14195734, -0.07008958, -1346800.4, 173628.73, 0.0, 10.001608, 9.999106 
7.849476e+2, 1.5485212e+2, -1318427.5, -1470870.4, -6796.855, 0.07158337, -0.11692233, -1318125.1, 104315.65, 0.0, 10.001131, 9.999109 
7.849636e+2, 1.6485123e+2, -1243403.3, -1366834.0, 7162.067, 0.018385652, -0.12422188, -1242989.0, 81459.62, 0.0, 10.000901, 9.99926 
7.849804e+2, 1.7485076e+2, -1136373.0, -1262121.3, 8981.033, 0.025012566, -0.09952496, -1135734.9, 90718.02, 0.0, 10.000954, 9.999281 
7.849969e+2, 1.8485002e+2, -1052918.0, -1193565.4, -2514.498, 0.027172435, -0.08955792, -1052873.1, 75587.0, 0.0, 10.000947, 9.999083 
7.8501326e+2, 1.9484898e+2, -964965.3, -1099100.4, -6239.7554, 0.010441431, -0.10420703, -964675.7, 65794.83, 0.0, 10.000874, 9.999093 
7.8502953e+2, 2.0484804e+2, -875814.3, -1004739.3, -8167.2607, 0.0042270417, -0.10785217, -875298.94, 57180.797, 0.0, 10.000812, 9.999098 
7.850461e+2, 2.1484713e+2, -783162.5, -908263.4, -9612.907, 0.015150255, -0.11011862, -782428.1, 52059.945, 0.0, 10.00077, 9.999108 
7.8506273e+2, 2.2484618e+2, -717228.06, -859362.7, 13452.579, 0.019270722, -0.09764521, -715966.06, 20531.818, 0.0, 10.000695, 9.998807 
7.8507954e+2, 2.3484522e+2, -633357.5, -766487.2, 24136.16, 0.012803538, -0.07995444, -629116.75, 9392.591, 0.0, 10.000591, 9.998821 
7.850962e+2, 2.448442e+2, -519279.3, -608284.3, 5309.3467, 0.016060771, -0.084242694, -518963.72, 21555.225, 0.0, 10.000476, 9.9992895 
7.8511286e+2, 2.5484315e+2, -438692.7, -515828.84, -17815.111, 0.02973097, -0.12144528, -434776.97, 7749.625, 0.0, 10.000343, 9.999315 
7.8512925e+2, 2.648421e+2, -418246.34, -554468.5, -24998.578, 0.030275965, -0.114418134, -413803.66, -69267.305, 0.0, 10.000237, 9.998429 
7.851455e+2, 2.7484098e+2, -328258.72, -460049.75, -6835.932, 0.017162422, -0.07104782, -327905.1, -81356.484, 0.0, 10.000181, 9.998432 
7.851617e+2, 2.8483933e+2, -226823.7, -340917.06, -1927.1527, -0.0005538286, -0.08563108, -226791.16, -78225.79, 0.0, 10.00012, 9.998607 
7.851778e+2, 2.9483715e+2, -144113.86, -251188.47, -19074.8, -0.022925917, -0.16622801, -140817.28, -90230.625, 0.0, 10.000019, 9.998597 
7.851943e+2, 3.0483693e+2, -66026.734, -126295.73, -376.03867, -0.050723188, -0.07412545, -66024.38, -66024.38, 0.0, 9.999953, 9.999154 
7.852118e+2, 3.1483582e+2, -19137.55, -30129.965, 26234.607, 0.004805942, -0.105833165, 2170.4004, 2170.4004, 0.0, 9.999956, 9.999813 
7.948985e+2, 1.2483809e+2, -1581125.9, -1753830.8, -8193.231, 0.052114617, -0.07805546, -1580738.0, 135841.48, 0.0000000034592607, 10.001368, 9.99907 
7.9491514e+2, 1.3483807e+2, -1409070.9, -1584742.8, 22367.965, -0.021399548, -0.019854583, -1406267.5, 212311.97, 0.0, 10.001713, 9.9994 
7.949341e+2, 1.4483684e+2, -1342617.9, -1527438.8, -26029.443, 0.20038044, -0.06713904, -1339022.0, 181569.19, 0.0, 10.001611, 9.999164 
7.949481e+2, 1.5483561e+2, -1313793.3, -1460768.9, -24166.46, 0.012058324, -0.109368764, -1309921.6, 112680.78, 0.0, 10.001129, 9.999179 
7.9496366e+2, 1.648347e+2, -1239287.0, -1358093.6, 7883.805, -0.0634568, -0.12632935, -1238766.1, 85844.29, 0.0, 10.000899, 9.999322 
7.949813e+2, 1.7483406e+2, -1132267.6, -1254574.4, 11476.306, 0.021161752, -0.12280099, -1131200.0, 95415.08, 0.0, 10.000956, 9.999332 
7.949982e+2, 1.8483332e+2, -1059370.0, -1205984.0, -6252.1772, 0.058662307, -0.11223629, -1059103.9, 69518.555, 0.0, 10.000943, 9.998999 
7.950143e+2, 1.9483243e+2, -971783.6, -1112029.8, -8909.343, 0.033474732, -0.10412921, -971219.9, 59413.0, 0.0, 10.000869, 9.999007 
7.9503036e+2, 2.0483151e+2, -878557.6, -1009528.75, -10845.57, 0.0047510616, -0.09668886, -877665.6, 54977.004, 0.0, 10.000807, 9.999067 
7.9504645e+2, 2.1483058e+2, -785858.9, -912647.7, -10793.078, -0.02266564, -0.09954871, -784946.6, 49705.027, 0.0, 10.000764, 9.999082 
7.950631e+2, 2.2482972e+2, -697711.7, -817220.2, 8551.7705, -0.017576832, -0.094155945, -697102.9, 39557.37, 0.0, 10.000688, 9.9991 
7.950802e+2, 2.3482887e+2, -613182.5, -723516.94, 20702.967, 0.021047927, -0.09060691, -609425.75, 29242.674, 0.0, 10.000586, 9.99912 
7.9509693e+2, 2.4482779e+2, -559631.5, -691444.9, 214.70499, 0.03286541, -0.08999371, -559631.2, -18951.709, 0.0, 10.000471, 9.998721 
7.951131e+2, 2.5482643e+2, -480162.84, -601405.44, -21454.559, 0.016228817, -0.100200124, -476478.3, -33784.875, 0.0, 10.0003395, 9.998731 
7.951292e+2, 2.648254e+2, -383634.56, -482054.75, -27182.521, -0.0075093573, -0.082467206, -376626.13, -31923.117, 0.0, 10.000235, 9.998929 
7.951451e+2, 2.7482474e+2, -292536.94, -385043.6, -7455.35, -0.039228644, -0.047860328, -291939.94, -45231.61, 0.0, 10.000176, 9.99895 
7.951614e+2, 2.8482297e+2, -258617.7, -405836.94, -4668.515, -0.033662878, -0.07710697, -258469.81, -109744.25, 0.0, 10.000114, 9.998164 
7.9517823e+2, 2.9482016e+2, -176721.25, -318154.78, -20175.162, 0.011525313, -0.17808713, -173899.61, -123144.54, 0.0, 10.000014, 9.998141 
7.9519457e+2, 3.048199e+2, -48243.516, -87021.56, -352.4906, -0.012613181, -0.077308916, -48240.313, -48240.313, 0.0, 9.999944, 9.999428 
7.9521155e+2, 3.1481898e+2, 18718.916, 54008.73, 27187.38, -0.016650038, -0.11862872, 68775.19, 68775.19, 0.0, 9.999932, 10.000403 
8.0490005e+2, 1.248212e+2, -1485673.3, -1691434.4, -6594.916, 0.044967573, -0.064208694, -1485462.0, 231283.81, 0.0000000057252847, 10.001952, 9.999219 
8.049165e+2, 1.3482088e+2, -1497962.9, -1613239.0, 5491.4746, -0.019345807, -0.049686376, -1497701.9, 121045.8, 0.0, 10.001042, 9.999527 
8.049351e+2, 1.448198e+2, -1457541.6, -1572682.5, -34203.457, 0.18960913, -0.09142412, -1448147.6, 72609.95, 0.0, 10.000781, 9.999251 
8.049493e+2, 1.5481919e+2, -1278223.8, -1434573.3, -31781.057, 0.009680113, -0.08112089, -1272010.6, 150753.4, 0.0, 10.001335, 9.99926 
8.0496484e+2, 1.6481842e+2, -1153836.1, -1316772.9, -5484.2397, -0.06255743, -0.08662053, -1153651.8, 171119.3, 0.0, 10.001485, 9.999324 
8.049823e+2, 1.7481746e+2, -1097849.8, -1237699.8, -7560.9053, 0.014536705, -0.11677762, -1097442.1, 129336.875, 0.0, 10.001191, 9.999334 
8.049991e+2, 1.8481672e+2, -1058358.1, -1190371.3, -20634.947, 0.05353722, -0.112415306, -1055207.9, 73578.42, 0.0, 10.000887, 9.999132 
8.050151e+2, 1.9481619e+2, -1003577.56, -1112439.0, -7872.756, 0.041352615, -0.080907434, -1003011.2, 27781.914, 0.0, 10.000587, 9.999139 
8.0503106e+2, 2.048154e+2, -915266.94, -1021882.6, 12638.314, 0.011974503, -0.07063568, -913789.25, 19012.377, 0.0, 10.000532, 9.999115 
8.0504704e+2, 2.1481432e+2, -786370.2, -907059.7, 16947.223, -0.03291952, -0.093578234, -784035.6, 50776.668, 0.0, 10.000736, 9.999131 
8.050636e+2, 2.2481349e+2, -686688.44, -795406.6, 24270.316, -0.029245868, -0.09280533, -681516.3, 55303.777, 0.0, 10.000693, 9.999247 
8.050808e+2, 2.3481295e+2, -632529.2, -716494.9, 23835.787, 0.026387973, -0.07569529, -626234.7, 12590.308, 0.0, 10.000382, 9.999265 
8.0509734e+2, 2.448119e+2, -595726.7, -732382.8, 20723.512, 0.038808566, -0.06736109, -592653.2, -51817.36, 0.0, 10.000325, 9.99851 
8.051134e+2, 2.5481033e+2, -464301.34, -618004.94, 24304.744, 0.0035269056, -0.0776877, -460549.66, -17696.572, 0.0, 10.000554, 9.998512 
8.0512935e+2, 2.6480913e+2, -344636.84, -464510.9, 5365.5435, -0.02715242, -0.06507488, -344397.16, 467.5929, 0.0, 10.000508, 9.998917 
8.0514514e+2, 2.7480835e+2, -296536.94, -387835.53, -14955.539, -0.051554717, -0.040577404, -294149.53, -47278.62, 0.0, 10.000154, 9.99894 
8.051615e+2, 2.8480667e+2, -264292.47, -397885.56, -2410.4888, -0.033709545, -0.06701428, -264249.0, -115361.89, 0.0, 10.00003, 9.998259 
8.0517846e+2, 2.948041e+2, -146594.02, -292859.94, 19841.215, 0.027896203, -0.15107353, -143950.31, -93036.83, 0.0, 10.000175, 9.998237 
8.0519456e+2, 3.0480382e+2, -69735.78, -126019.2, 27555.943, -0.0043735644, -0.046316493, -58491.125, -58491.125, 0.0, 9.999919, 9.999173 
8.0521095e+2, 3.1480256e+2, -85890.09, 11261.773, 11388.97, -0.031727307, -0.097094536, 12579.025, 12579.025, 0.0, 9.999181, 10.000471 
8.149021e+2, 1.248044e+2, -1484574.5, -1691523.1, -39630.04, 0.052093375, -0.053272747, -1477245.0, 239666.08, 0.000000004999778, 10.001963, 9.999212 
8.149166e+2, 1.3480325e+2, -1501476.6, -1617087.5, -29959.168, -0.10807791, -0.117896326, -1494174.3, 124745.71, 0.0, 10.00103, 9.999504 
8.1493497e+2, 1.4480239e+2, -1451299.3, -1558532.3, -15990.417, 0.09968217, -0.14230593, -1448965.5, 71962.51, 0.0, 10.000772, 9.999353 
8.149512e+2, 1.5480287e+2, -1269863.9, -1420231.4, -9452.997, 0.0627232, -0.03224796, -1269271.9, 153653.3, 0.0, 10.001346, 9.999354 
8.1496716e+2, 1.6480243e+2, -1157277.9, -1325359.4, -17008.26, 0.019094087, -0.006425679, -1155574.1, 169356.23, 0.0, 10.001492, 9.999261 
8.149833e+2, 1.7480096e+2, -1102545.9, -1246099.1, -18575.234, 0.00013986477, -0.08226592, -1100181.3, 126763.02, 0.0, 10.001186, 9.999279 
8.149995e+2, 1.8480025e+2, -1034841.5, -1140674.9, -33004.01, 0.006602386, -0.08984964, -1025392.8, 103558.36, 0.0, 10.000881, 9.999476 
8.1501555e+2, 1.948003e+2, -978820.5, -1061373.6, -19042.482, 0.03143717, -0.03313744, -974639.7, 56310.934, 0.0, 10.000587, 9.999491 
8.1503177e+2, 2.047997e+2, -907075.2, -1004171.5, 18914.365, 0.02257914, -0.02955195, -903520.8, 29435.828, 0.0, 10.000529, 9.999238 
8.150479e+2, 2.1479833e+2, -779058.94, -890385.9, 24844.576, -0.019676246, -0.09241651, -773766.06, 61203.703, 0.0, 10.0007305, 9.999249 
8.150644e+2, 2.2479756e+2, -686701.06, -794580.5, 11984.374, -0.020180786, -0.09337585, -685385.75, 51591.62, 0.0, 10.000689, 9.999254 
8.150811e+2, 2.3479742e+2, -632374.25, -715866.8, 12569.868, 0.024779858, -0.035883527, -630522.9, 8455.978, 0.0, 10.0003805, 9.99927 
8.150976e+2, 2.4479654e+2, -587673.44, -715144.3, 28095.438, 0.02976133, -0.018110197, -581755.75, -40767.68, 0.0, 10.000322, 9.998631 
8.151138e+2, 2.547948e+2, -456627.28, -600480.75, 33519.223, -0.0095620565, -0.055315524, -449200.44, -6194.558, 0.0, 10.0005455, 9.998637 
8.1512976e+2, 2.6479328e+2, -381018.44, -538300.6, -7087.992, -0.03126971, -0.060847208, -380699.66, -35677.96, 0.0, 10.000501, 9.998414 
8.1514543e+2, 2.747919e+2, -332864.63, -463043.0, -26202.004, -0.03171543, -0.04283376, -327788.66, -80752.95, 0.0, 10.000152, 9.9984255 
8.1516176e+2, 2.847904e+2, -221185.44, -308871.22, 2653.1394, -0.01170859, -0.053142697, -221105.23, -72055.49, 0.0, 10.000031, 9.99887 
8.151786e+2, 2.9478887e+2, -104567.85, -203674.48, 27150.83, 0.026225826, -0.0963983, -97617.195, -46553.797, 0.0, 10.000166, 9.998855 
8.1519425e+2, 3.0478853e+2, -124174.09, -236831.42, 1834.6317, -0.02432663, 0.009903016, -124144.23, -124144.23, 0.0, 9.999909, 9.998416 
8.1520987e+2, 3.147865e+2, -117826.3, -55347.145, -15301.428, -0.05869637, -0.041334253, -51801.023, -51801.023, 0.0000000016901937, 9.999182, 10.000013 
8.249042e+2, 1.24788165e+2, -1503738.0, -1712702.5, 3108.194, 0.06963059, -0.05312237, -1503691.8, 213378.55, 0.0000000017683296, 10.001884, 9.999103 
8.24918e+2, 1.347869e+2, -1370610.1, -1571508.4, -3093.9285, -0.123740055, -0.11472447, -1370562.5, 248518.14, 0.0, 10.002005, 9.999349 
8.249359e+2, 1.4478602e+2, -1319063.3, -1496672.5, 15814.325, 0.067383796, -0.13475822, -1317666.1, 203423.36, 0.0, 10.001689, 9.999337 
8.2495236e+2, 1.5478641e+2, -1326079.8, -1448507.1, 12882.773, 0.071321726, -0.03092811, -1324738.9, 98348.82, 0.0, 10.000966, 9.999343 
8.249684e+2, 1.6478607e+2, -1285790.8, -1374528.6, 5035.457, 0.03787599, 0.0009474985, -1285506.0, 39586.12, 0.0, 10.000556, 9.9993725 
8.2498413e+2, 1.7478493e+2, -1193533.5, -1277856.3, 15401.328, -0.0061342046, -0.053306058, -1190808.6, 36294.684, 0.0, 10.00051, 9.999386 
8.2500005e+2, 1.8478432e+2, -1061924.3, -1143010.3, 7420.369, -0.013441952, -0.061819915, -1061250.8, 67858.44, 0.0, 10.000651, 9.999571 
8.2501614e+2, 1.9478421e+2, -912825.5, -1018987.9, 697.6745, 0.008237966, -0.032311272, -912820.94, 118289.016, 0.0, 10.000996, 9.999583 
8.2503235e+2, 2.0478365e+2, -839174.1, -965331.8, 21856.117, 0.0100553855, -0.030434161, -835495.0, 97620.26, 0.0, 10.00097, 9.999291 
8.250487e+2, 2.1478261e+2, -802484.9, -895967.94, 21754.402, -0.006180927, -0.065785564, -797670.4, 37455.094, 0.0, 10.000545, 9.9993 
8.250651e+2, 2.2478187e+2, -734240.8, -825479.94, 5718.5273, -0.004754037, -0.061424013, -733883.8, 3249.136, 0.0, 10.000397, 9.999184 
8.250814e+2, 2.3478146e+2, -613079.8, -714506.75, -1234.052, 0.014653581, -0.024330132, -613064.8, 26072.846, 0.0, 10.000548, 9.999199 
8.250978e+2, 2.4478064e+2, -546348.25, -666409.94, 18553.158, 0.013366757, -0.008966411, -543546.6, -2400.6091, 0.0, 10.0004835, 9.998887 
8.2511413e+2, 2.5477937e+2, -490438.5, -586786.0, 33013.348, -0.010620139, -0.027021876, -480212.0, -37053.53, 0.0, 10.000186, 9.998904 
8.2513016e+2, 2.6477793e+2, -435048.97, -579853.1, 12905.873, -0.02203855, -0.03180476, -433907.7, -88734.14, 0.0, 10.000197, 9.998274 
8.2514596e+2, 2.747762e+2, -286024.9, -456913.9, 18639.684, -0.017812427, -0.03301374, -284015.4, -36823.496, 0.0, 10.0005455, 9.998278 
8.2516205e+2, 2.8477472e+2, -154483.52, -271652.66, 33667.09, -0.0061178906, -0.036384553, -145498.67, 3707.4329, 0.0, 10.000468, 9.998916 
8.2517844e+2, 2.9477358e+2, -136980.78, -213357.44, 14948.69, 0.009800051, -0.04624407, -134159.22, -82943.56, 0.0, 9.999919, 9.998906 
8.251939e+2, 3.047729e+2, -174683.19, -287419.0, -14227.331, -0.04136317, 0.03684594, -172915.4, -172915.4, 0.0, 9.999676, 9.998181 
8.2520944e+2, 3.1477067e+2, -34570.31, -13155.776, 620.9359, -0.047650013, -0.014477212, -13137.787, -13137.787, 0.000000023716037, 9.999745, 10.0000305 
8.349061e+2, 1.2477259e+2, -1519800.8, -1747258.3, 10261.505, 0.079600915, -0.064494416, -1519338.8, 197883.84, 0.000000000051048894, 10.001886, 9.998867 
8.349205e+2, 1.3477193e+2, -1387084.3, -1611597.6, 3257.0442, -0.06818498, -0.03947145, -1387037.0, 232191.75, 0.0, 10.002027, 9.9990635 
8.349378e+2, 1.447707e+2, -1328811.9, -1519559.1, -12666.037, 0.089439705, -0.06922808, -1327974.5, 193266.86, 0.0, 10.001701, 9.999173 
8.3495295e+2, 1.5476982e+2, -1337016.4, -1469028.4, -14355.0, 0.031176547, -0.07809749, -1335473.4, 87777.74, 0.0, 10.0009575, 9.999206 
8.3496845e+2, 1.647694e+2, -1266306.8, -1332740.9, 2204.462, -0.012114803, -0.063931584, -1266233.8, 59022.336, 0.0, 10.000548, 9.999664 
8.349846e+2, 1.7476945e+2, -1172051.6, -1235031.6, 14670.095, -0.008089623, -0.02809165, -1168802.1, 58453.254, 0.0, 10.000516, 9.999679 
8.3500075e+2, 1.8476896e+2, -1073700.9, -1167295.4, 19228.53, -0.011191428, -0.02826196, -1069904.4, 59355.617, 0.0, 10.00065, 9.999404 
8.350167e+2, 1.9476788e+2, -926071.8, -1044696.25, 13760.969, -0.031559978, -0.07922126, -924496.4, 106774.36, 0.0, 10.000988, 9.999411 
8.350329e+2, 2.0476727e+2, -841151.75, -968281.9, 5362.28, -0.02886837, -0.072982684, -840925.94, 92351.24, 0.0, 10.000964, 9.999275 
8.3504933e+2, 2.1476717e+2, -803343.6, -897685.06, 5725.7124, 0.0038118223, -0.0136757875, -802997.44, 32281.557, 0.0, 10.000544, 9.9992895 
8.350656e+2, 2.2476648e+2, -745599.1, -848794.94, 9960.807, 0.01332305, 0.002447578, -744646.44, -7359.805, 0.0, 10.000394, 9.999025 
8.350818e+2, 2.3476511e+2, -624755.6, -738072.6, 4999.5474, -0.005112078, -0.039691523, -624535.44, 14765.475, 0.0, 10.000545, 9.99904 
8.35098e+2, 2.4476427e+2, -519694.84, -610088.9, 7387.208, -0.012198869, -0.036702618, -519095.13, 22214.014, 0.0, 10.000478, 9.999277 
8.3511436e+2, 2.5476402e+2, -463205.0, -529349.06, 22790.129, -0.00662098, 0.0072755823, -456113.0, -12802.344, 0.0, 10.000181, 9.999302 
8.351306e+2, 2.6476303e+2, -421656.56, -551394.06, 24978.992, -0.006360345, 0.019430656, -417013.4, -71692.766, 0.0, 10.000193, 9.998471 
8.3514655e+2, 2.7476117e+2, -274088.7, -429923.6, 32510.252, -0.010982375, -0.015440206, -267578.4, -20238.1, 0.0, 10.000534, 9.998468 
8.351624e+2, 2.8475958e+2, -190637.17, -344130.6, 14224.284, -0.017541246, -0.017831229, -189330.14, -39973.473, 0.0, 10.000457, 9.998423 
8.3517796e+2, 2.9475826e+2, -173003.42, -286523.66, -3342.9004, -0.029291138, 0.0054606367, -172905.06, -121535.414, 0.0, 9.999912, 9.998407 
8.3519334e+2, 3.04757e+2, -156339.34, -249749.88, -10965.589, -0.06405986, 0.041131705, -155069.34, -155069.34, 0.0, 9.999676, 9.99844 
8.3520955e+2, 3.1475475e+2, -4688.1704, 50593.375, 4339.794, -0.010651022, -0.033722255, 50931.992, 50931.992, 0.00000010288848, 9.999737, 10.000473 
8.449081e+2, 1.24757156e+2, -1498847.6, -1733673.5, 4245.625, 0.082921095, -0.060625196, -1498770.9, 218603.67, 0.0, 10.002013, 9.9988985 
8.449225e+2, 1.3475671e+2, -1482431.3, -1656194.9, 14399.668, -0.044040777, -0.013664087, -1481246.0, 138132.95, 0.0, 10.00137, 9.99907 
8.449393e+2, 1.4475553e+2, -1420124.6, -1562541.1, 15566.359, 0.09649825, -0.039974697, -1418443.0, 102948.14, 0.0, 10.001072, 9.99918 
8.449538e+2, 1.5475442e+2, -1299502.4, -1450063.4, 25753.39, 0.00792963, -0.0746103, -1295219.1, 128183.82, 0.0, 10.001212, 9.999212 
8.44969e+2, 1.6475387e+2, -1167153.3, -1287551.6, 46765.867, -0.039114997, -0.070621036, -1151122.6, 174286.14, 0.0, 10.001241, 9.999641 
8.4498537e+2, 1.7475395e+2, -1082342.4, -1194493.1, 33408.867, -0.014559887, -0.029968107, -1073144.5, 154263.31, 0.0, 10.001144, 9.999654 
8.4500146e+2, 1.8475354e+2, -1030141.25, -1152792.4, 34570.566, -0.012221209, -0.019239208, -1021068.3, 108343.82, 0.0, 10.000976, 9.999348 
8.4501743e+2, 1.9475259e+2, -968851.94, -1071588.0, 37544.195, -0.04378077, -0.051102728, -956594.2, 74828.13, 0.0, 10.00072, 9.999355 
8.450336e+2, 2.0475201e+2, -891338.1, -994515.5, 27638.06, -0.04253784, -0.0387529, -884401.1, 49027.69, 0.0, 10.0006275, 9.999257 
8.4504986e+2, 2.1475178e+2, -780967.44, -888917.0, 26064.61, -0.0015991011, 0.00963814, -775003.56, 60428.04, 0.0, 10.000706, 9.999271 
8.4506613e+2, 2.2475103e+2, -709125.4, -829365.4, 41948.508, 0.010052028, 0.019011414, -695937.2, 41502.605, 0.0, 10.000638, 9.99904 
8.4508216e+2, 2.3474966e+2, -642669.6, -745095.4, 48173.098, -0.012875946, -0.022684453, -623573.2, 15880.6045, 0.0, 10.000415, 9.999053 
8.450983e+2, 2.4474882e+2, -554171.75, -630891.6, 36798.285, -0.018891044, -0.022044146, -539375.3, 2087.164, 0.0, 10.000259, 9.999239 
8.451145e+2, 2.5474843e+2, -466612.3, -535281.44, 18230.303, -0.0061330786, 0.014472503, -462072.63, -18607.02, 0.0, 10.000176, 9.999262 
8.451307e+2, 2.6474762e+2, -417399.25, -527102.94, 18331.066, -0.0060684173, 0.036910955, -414417.25, -68943.18, 0.0, 10.000128, 9.998669 
8.451468e+2, 2.7474627e+2, -318481.84, -428106.84, 25399.768, -0.01900173, 0.033973973, -312882.78, -65394.19, 0.0, 10.000133, 9.9986725 
8.4516263e+2, 2.847448e+2, -244938.22, -377534.0, 6249.252, -0.017967397, 0.035332438, -244644.34, -95140.46, 0.0, 10.000117, 9.998355 
8.4517825e+2, 2.947431e+2, -157589.1, -286850.34, 16976.576, -0.0020667699, 0.028172113, -155396.66, -103876.11, 0.0, 10.000052, 9.998336 
8.451934e+2, 3.047414e+2, -122244.28, -224850.77, 26377.594, -0.041234557, 0.019901268, -115860.44, -115860.44, 0.00000000024035085, 9.999875, 9.998513 
8.45209e+2, 3.1473988e+2, -17264.617, 60393.156, 23221.47, -0.030977901, 0.0075888154, 66807.164, 66807.164, 0.00000026211356, 9.999582, 10.000614 
8.549099e+2, 1.2474193e+2, -1477440.5, -1690848.8, -22223.14, 0.060249712, -0.040684886, -1475150.8, 242374.83, 0.0, 10.002021, 9.999188 
8.549238e+2, 1.3474132e+2, -1464492.4, -1617071.3, -10375.724, -0.052704442, -0.03777464, -1463790.0, 155740.97, 0.0, 10.001362, 9.999343 
8.549402e+2, 1.4474055e+2, -1406107.8, -1532507.1, 19387.05, 0.084251165, -0.046296667, -1403201.0, 118337.54, 0.0, 10.001065, 9.999391 
8.549549e+2, 1.5474024e+2, -1284466.1, -1422171.0, 32952.832, -0.004853295, -0.019528693, -1276986.6, 146555.83, 0.0, 10.0012245, 9.999399 
8.5497016e+2, 1.6473958e+2, -1192531.1, -1341262.6, 42850.75, -0.049709946, -0.019908603, -1181068.9, 144480.84, 0.0, 10.0012455, 9.9992695 
8.549863e+2, 1.7473847e+2, -1108436.9, -1248115.0, 29959.13, -0.02726838, -0.060305003, -1102282.3, 125278.15, 0.0, 10.001142, 9.999287 
8.550024e+2, 1.8473805e+2, -1026222.0, -1143724.1, 24231.43, -0.019641506, -0.03530988, -1021421.1, 108144.34, 0.0, 10.000971, 9.9994135 
8.5501826e+2, 1.9473837e+2, -963073.0, -1060565.4, 28100.92, -0.03227548, 0.05210576, -955553.3, 76011.055, 0.0, 10.000724, 9.99943 
8.5503423e+2, 2.0473789e+2, -893008.25, -997637.75, 29134.613, -0.035005454, 0.07135919, -885442.6, 48127.28, 0.0, 10.000626, 9.999237 
8.550503e+2, 2.1473649e+2, -783225.06, -892591.75, 29117.092, -0.024803834, 0.004991265, -775956.2, 59626.766, 0.0, 10.0007, 9.999249 
8.550665e+2, 2.2473554e+2, -698122.25, -804925.8, 32542.959, -0.017314266, -0.009698789, -688987.7, 48604.266, 0.0, 10.00063, 9.999211 
8.550826e+2, 2.3473513e+2, -630593.9, -719258.5, 40180.88, -0.0131716225, 0.024050124, -615094.25, 24502.105, 0.0, 10.000411, 9.999233 
8.550986e+2, 2.4473421e+2, -586646.25, -697897.3, 33017.29, -0.011559682, 0.031516246, -577585.25, -35978.92, 0.0, 10.000257, 9.998781 
8.5511464e+2, 2.5473267e+2, -499821.28, -604055.06, 15895.602, -0.011263415, -0.0035770168, -497451.13, -53828.16, 0.0, 10.0001745, 9.998792 
8.551307e+2, 2.6473176e+2, -403807.1, -498533.88, 18179.361, -0.021846527, 0.024440408, -400438.06, -54804.824, 0.0, 10.000126, 9.998867 
8.5514665e+2, 2.7473158e+2, -305043.8, -398089.3, 27113.764, -0.046451632, 0.11527477, -297719.34, -50082.79, 0.0, 10.000123, 9.998884 
8.551628e+2, 2.847304e+2, -223352.03, -331312.88, 4625.2095, -0.01420567, 0.12184817, -223154.25, -73506.31, 0.0, 10.00011, 9.998676 
8.5517913e+2, 2.947281e+2, -135496.77, -240231.34, 16240.84, 0.0818456, 0.021783946, -133036.16, -81367.336, 0.0, 10.000048, 9.998659 
8.5519385e+2, 3.047261e+2, -129317.234, -239743.7, 15689.026, 0.02086763, -0.027126478, -127131.45, -127131.45, 0.0000000059514194, 9.999876, 9.998411 
8.5520774e+2, 3.1472573e+2, -28492.135, 39774.26, 12700.076, -0.11287678, 0.089480124, 42060.39, 42060.39, 0.0000005093443, 9.999572, 10.000478 
8.649115e+2, 1.24726996e+2, -1563352.5, -1711189.5, -9266.475, 0.050469026, -0.019954234, -1562774.0, 154899.83, 0.00000000000000000000885557, 10.001342, 9.999375 
8.649251e+2, 1.3472632e+2, -1452587.1, -1593045.1, -7658.773, -0.055114403, -0.039638083, -1452170.8, 167508.17, 0.0, 10.001366, 9.999506 
8.6494136e+2, 1.4472571e+2, -1367855.8, -1518425.5, 23676.033, 0.077932805, -0.04086038, -1364220.6, 157464.31, 0.0, 10.001348, 9.9993515 
8.6495614e+2, 1.5472558e+2, -1274175.0, -1422435.0, 17044.023, -0.0063967668, 0.008388806, -1272240.9, 151447.1, 0.0, 10.001318, 9.999352 
8.649714e+2, 1.6472493e+2, -1194772.0, -1337718.9, 26365.152, -0.049975984, 0.011799053, -1190064.3, 135630.64, 0.0, 10.001207, 9.999313 
8.649874e+2, 1.7472373e+2, -1124616.0, -1249746.3, 45320.277, -0.033665117, -0.043632656, -1109926.3, 117779.586, 0.0, 10.001004, 9.999342 
8.650033e+2, 1.8472323e+2, -1042308.4, -1161016.6, 53472.58, -0.022838209, -0.02583127, -1021773.7, 107937.68, 0.0, 10.000902, 9.999327 
8.6501914e+2, 1.9472346e+2, -942042.25, -1060863.5, 43382.813, -0.021028746, 0.061405938, -927888.7, 103822.64, 0.0, 10.000914, 9.999336 
8.650351e+2, 2.0472287e+2, -861048.2, -982505.9, 42242.344, -0.023820877, 0.07576069, -847801.25, 85916.555, 0.0, 10.000846, 9.999235 
8.65051e+2, 2.1472141e+2, -785340.94, -893355.9, 42816.043, -0.03198435, 0.0018559432, -770428.0, 65303.438, 0.0, 10.000685, 9.999251 
8.650669e+2, 2.2472051e+2, -725901.8, -822446.0, 32701.695, -0.028535828, -0.0072821905, -715867.9, 21872.248, 0.0, 10.000457, 9.999175 
8.650828e+2, 2.3472023e+2, -671598.5, -742768.25, 22190.031, -0.012024525, 0.043430056, -665246.75, -25503.186, 0.0, 10.000147, 9.999198 
8.6509883e+2, 2.4471931e+2, -615484.94, -721108.8, 34445.348, -0.008462911, 0.05826127, -605244.7, -63490.92, 0.0, 10.0001, 9.998696 
8.651148e+2, 2.5471768e+2, -478473.9, -603224.06, 44569.598, -0.019369293, 0.021773428, -464186.75, -20415.043, 0.0, 10.000363, 9.998705 
8.651308e+2, 2.6471666e+2, -368497.22, -476680.4, 46551.2, -0.02641956, 0.040219355, -351224.16, -5440.9414, 0.0, 10.00035, 9.998908 
8.651469e+2, 2.747163e+2, -318959.8, -400129.66, 41268.453, -0.029066846, 0.111644246, -301663.63, -53875.95, 0.0, 10.000008, 9.998925 
8.6516297e+2, 2.847153e+2, -238941.25, -318038.22, 18156.531, 0.0014737031, 0.12531592, -234972.58, -85175.445, 0.0, 9.999914, 9.998861 
8.6517906e+2, 2.9471356e+2, -110732.96, -206341.16, 18240.186, 0.06744956, 0.06082468, -107371.28, -55558.527, 0.0, 10.000126, 9.998853 
8.6519367e+2, 3.0471143e+2, -104408.88, -236059.77, 309.28226, 0.00636663, -0.0076746778, -104408.16, -104408.16, 0.000000027135602, 10.000084, 9.998336 
8.652075e+2, 3.1471127e+2, -25631.197, 19153.61, -5460.647, -0.095973745, 0.1362822, 19809.816, 19809.816, 0.00000083365, 9.999684, 10.000281 
8.7491274e+2, 1.247124e+2, -1556971.8, -1696461.3, -8474.842, 0.038976125, 0.0004788313, -1556458.8, 161359.83, 0.0000000055054987, 10.001334, 9.99948 
8.749264e+2, 1.3471179e+2, -1446784.8, -1581808.1, -5694.813, -0.059242543, -0.020742938, -1446545.0, 173277.28, 0.0, 10.0013685, 9.999582 
8.7494254e+2, 1.44711e+2, -1390926.1, -1567446.0, 21753.193, 0.068844944, -0.025427401, -1388284.9, 133545.33, 0.0, 10.001351, 9.999013 
8.749575e+2, 1.547104e+2, -1296794.6, -1469752.0, 16335.564, 0.0028958998, 0.009193502, -1295265.3, 128573.93, 0.0, 10.001318, 9.999027 
8.7497264e+2, 1.6470996e+2, -1160218.1, -1266287.9, 17611.482, -0.04090074, 0.025786677, -1157370.5, 168473.5, 0.0, 10.001208, 9.9998045 
8.7498826e+2, 1.7470977e+2, -1088709.9, -1176426.3, 37992.555, -0.038773414, 0.020589918, -1074542.5, 153301.08, 0.0, 10.001008, 9.999844 
8.750042e+2, 1.847091e+2, -1059923.1, -1197157.3, 52699.19, -0.027729182, 0.008945612, -1042021.4, 87828.06, 0.0, 10.0009, 9.999081 
8.7502015e+2, 1.9470789e+2, -961118.44, -1099810.9, 43830.92, -0.012601709, -0.022693364, -948427.8, 83435.086, 0.0, 10.00091, 9.999071 
8.75036e+2, 2.04707e+2, -860932.0, -980896.94, 35295.25, -0.012341295, -0.024532024, -851318.1, 82554.15, 0.0, 10.000839, 9.999249 
8.750517e+2, 2.1470653e+2, -783549.3, -889684.7, 36852.03, -0.026813421, -0.0010204577, -772008.56, 63868.258, 0.0, 10.000685, 9.999277 
8.750673e+2, 2.2470587e+2, -743359.44, -858482.75, 19952.063, -0.027544012, 0.023872282, -739999.56, -2115.4517, 0.0, 10.000456, 9.998929 
8.75083e+2, 2.3470497e+2, -689341.1, -779833.2, 10939.803, -0.011417447, 0.037934307, -688037.4, -48142.613, 0.0, 10.000147, 9.998944 
8.750989e+2, 2.4470414e+2, -595874.25, -680566.4, 42928.39, -0.0121696135, 0.061768636, -577920.8, -36016.695, 0.0, 10.0001, 9.998975 
8.75115e+2, 2.547034e+2, -459341.03, -561844.9, 55386.023, -0.03446985, 0.087623045, -435131.9, 8780.2, 0.0, 10.000356, 9.998994 
8.751312e+2, 2.6470223e+2, -378297.53, -495049.47, 34762.973, -0.024632541, 0.081038535, -368730.75, -22806.34, 0.0, 10.00034, 9.998786 
8.751474e+2, 2.747005e+2, -327939.5, -418527.88, 29984.05, 0.025906056, 0.027784156, -318914.2, -70972.445, 0.0, 10.000006, 9.9988 
8.751631e+2, 2.846996e+2, -235150.83, -310678.2, 25093.916, 0.024528006, 0.051110666, -227573.58, -77622.44, 0.0, 9.999915, 9.998912 
8.751781e+2, 2.9469946e+2, -107960.695, -198163.94, 27749.822, -0.04138512, 0.14288788, -100107.54, -48154.945, 0.0, 10.000115, 9.998915 
8.751929e+2, 3.0469736e+2, -109020.76, -243162.69, -12391.503, -0.08270132, 0.07492313, -107885.68, -107885.68, 0.00000006425192, 10.000073, 9.998291 
8.752082e+2, 3.1469628e+2, -42330.633, -14517.005, -17791.627, -0.0008713143, 0.13492776, -5841.936, -5841.936, 0.0000011924308, 9.999681, 10.000051 
8.849139e+2, 1.2469782e+2, -1597271.1, -1711282.1, 8136.2383, 0.045767125, 0.010664107, -1596693.5, 121269.23, 0.00000006865043, 10.001039, 9.999523 
8.8492775e+2, 1.3469729e+2, -1453501.5, -1582876.9, 3994.9365, -0.056849983, -0.0055961083, -1453378.3, 166587.55, 0.0, 10.001313, 9.999601 
8.8494384e+2, 1.446965e+2, -1392435.5, -1565090.9, 34435.777, 0.06364351, -0.011711003, -1385820.9, 136152.61, 0.0, 10.0013275, 9.999042 
8.849587e+2, 1.546957e+2, -1327213.8, -1480192.9, 56312.277, -0.0001926096, -0.00062651926, -1308720.5, 115262.99, 0.0, 10.001093, 9.9990635 
8.849737e+2, 1.6469526e+2, -1210465.4, -1297487.8, 51372.477, -0.04065993, 0.017233191, -1186653.9, 139334.44, 0.0, 10.0008955, 9.99974 
8.849892e+2, 1.7469528e+2, -1133495.1, -1206941.6, 26113.469, -0.033354457, 0.040500462, -1125157.3, 102829.42, 0.0, 10.000738, 9.999764 
8.8500494e+2, 1.8469454e+2, -1091776.5, -1208520.5, 36799.84, -0.02229778, 0.024885772, -1081144.8, 48848.3, 0.0, 10.000663, 9.999118 
8.850209e+2, 1.94693e+2, -991088.4, -1108783.6, 50349.316, -0.016820312, -0.045661896, -972488.6, 59520.01, 0.0, 10.000681, 9.99912 
8.850367e+2, 2.0469205e+2, -895515.25, -1007804.4, 46401.984, -0.019959264, -0.051413313, -878821.94, 55196.35, 0.0, 10.000647, 9.999157 
8.8505226e+2, 2.1469182e+2, -809987.75, -913040.6, 37378.68, -0.029588534, 0.0057377084, -797857.75, 38163.547, 0.0, 10.000549, 9.999181 
8.850678e+2, 2.2469118e+2, -728382.25, -854364.5, 26851.576, -0.02959747, 0.03853223, -722897.9, 15130.888, 0.0, 10.000573, 9.9989 
8.850833e+2, 2.3469007e+2, -605627.25, -742535.25, 32755.537, -0.019084297, 0.034093533, -598194.0, 41847.176, 0.0, 10.000735, 9.998917 
8.850992e+2, 2.446892e+2, -527228.3, -647165.25, 61632.035, -0.015385101, 0.05425145, -501204.22, 40846.594, 0.0, 10.000571, 9.998978 
8.851154e+2, 2.5468856e+2, -504700.94, -583112.3, 51123.434, -0.021048022, 0.09114139, -479480.75, -35423.19, 0.0, 10.000042, 9.998999 
8.851315e+2, 2.646874e+2, -438271.0, -515916.7, 32519.422, -0.0090517765, 0.08061107, -426450.72, -80381.195, 0.0, 9.999893, 9.998858 
8.851475e+2, 2.7468556e+2, -296425.5, -394197.44, 41128.12, 0.02609441, 0.007843246, -281425.94, -33338.598, 0.0, 10.000184, 9.99888 
8.8516307e+2, 2.8468466e+2, -197214.52, -308450.22, 38264.58, 0.013297685, 0.03711325, -185322.94, -35226.29, 0.0, 10.000247, 9.998767 
8.8517797e+2, 2.9468468e+2, -132251.05, -227225.25, 24208.623, -0.05736143, 0.16322415, -126436.336, -74338.9, 0.0, 10.000021, 9.998761 
8.851929e+2, 3.0468243e+2, -105957.71, -212623.67, -15456.375, -0.08095724, 0.072717056, -103763.164, -103763.164, 0.00000010587227, 9.999968, 9.998552 
8.852084e+2, 3.1468135e+2, 24843.957, 23755.342, -3211.599, 0.034869812, 0.10701381, 27557.047, 27557.047, 0.0000015115112, 10.000118, 10.000103 
8.9491504e+2, 1.246833e+2, -1601201.6, -1718782.4, 13368.736, 0.048136596, 0.0084935315, -1599700.8, 118404.89, 0.00000033567557, 10.001035, 9.999473 
8.949291e+2, 1.3468286e+2, -1458930.1, -1594332.0, 14797.978, -0.047312908, 0.0094893, -1457331.8, 162777.28, 0.00000000007521531, 10.001314, 9.999522 
8.949452e+2, 1.4468227e+2, -1360137.9, -1500703.3, 23733.705, 0.06277839, 0.0044603194, -1356238.8, 165875.11, 0.0, 10.001337, 9.99948 
8.949595e+2, 1.5468153e+2, -1296380.9, -1416687.3, 47881.406, -0.023067951, -0.021521391, -1279650.9, 144469.55, 0.0, 10.001094, 9.999499 
8.949744e+2, 1.6468088e+2, -1256234.0, -1391979.9, 45027.043, -0.05748395, -0.015806353, -1242656.5, 83470.76, 0.0, 10.000893, 9.999092 
8.9499e+2, 1.746803e+2, -1180758.9, -1304763.4, 20514.832, -0.020003812, 0.015733635, -1177453.1, 50681.64, 0.0, 10.000737, 9.999094 
8.9500576e+2, 1.8467961e+2, -1069339.0, -1162037.0, 35955.832, -0.010235578, 0.02261998, -1057027.5, 73114.26, 0.0, 10.000662, 9.999438 
8.950214e+2, 1.9467878e+2, -965850.0, -1057221.3, 50733.63, -0.036275424, -0.008464466, -943263.56, 88884.72, 0.0, 10.000684, 9.999474 
8.9503706e+2, 2.0467803e+2, -909741.75, -1036759.7, 41240.57, -0.04917554, -0.0064683473, -897526.4, 36629.4, 0.0, 10.000644, 9.99896 
8.950527e+2, 2.1467729e+2, -826114.44, -945093.5, 33589.758, -0.04396586, 0.022687964, -817286.5, 18878.113, 0.0, 10.000543, 9.998964 
8.950683e+2, 2.2467646e+2, -716492.4, -828318.7, 31436.63, -0.039470132, 0.03852982, -708260.9, 29912.805, 0.0, 10.000566, 9.9990835 
8.9508384e+2, 2.3467551e+2, -592891.6, -714884.8, 39151.75, -0.038153745, 0.030890785, -581407.6, 58775.254, 0.0, 10.000729, 9.99911 
8.950997e+2, 2.4467443e+2, -547181.9, -687781.6, 41949.21, -0.021379935, 0.034203123, -535617.2, 6576.7817, 0.0, 10.000567, 9.998701 
8.9511573e+2, 2.5467318e+2, -524404.1, -624407.44, 32251.412, 0.015516679, 0.036037613, -514905.2, -70697.516, 0.0, 10.000043, 9.998715 
8.951316e+2, 2.6467216e+2, -419074.8, -477322.72, 41675.72, 0.015389794, 0.042879354, -397355.2, -51137.07, 0.0, 9.999898, 9.999123 
8.9514714e+2, 2.7467135e+2, -277675.1, -354624.7, 52746.08, -0.02846098, 0.048824858, -250862.39, -2637.619, 0.0, 10.000181, 9.999154 
8.951628e+2, 2.8467047e+2, -221231.25, -357009.94, 30997.563, -0.033766165, 0.08044958, -214489.42, -64255.457, 0.0, 10.00024, 9.998436 
8.951787e+2, 2.9466936e+2, -157263.97, -278052.5, 18298.297, 0.005988593, 0.12558532, -154552.81, -102305.945, 0.0, 10.000015, 9.998415 
8.951936e+2, 3.0466676e+2, -69748.305, -137396.73, -10438.701, -0.0014704866, -0.008597577, -68174.16, -68174.16, 0.00000013409642, 9.999967, 9.99907 
8.952083e+2, 3.1466642e+2, 45070.305, 67837.29, 3160.0789, 0.0070403023, 0.04479321, 68267.766, 68267.766, 0.0000016978646, 10.00011, 10.000409 
9.0491617e+2, 1.246691e+2, -1620536.8, -1735486.6, 28622.871, 0.06045301, 0.024424968, -1613803.9, 104440.984, 0.0000010657902, 10.00093, 9.999411 
9.0493023e+2, 1.3466847e+2, -1532463.0, -1637439.5, 31961.94, -0.04362728, 0.014149638, -1523497.4, 96753.37, 0.000000007369457, 10.000842, 9.999454 
9.049462e+2, 1.4466794e+2, -1419853.5, -1517607.3, 26223.371, 0.059870776, 0.012772419, -1413263.1, 108991.92, 0.0, 10.000878, 9.999583 
9.0496063e+2, 1.5466733e+2, -1292547.3, -1403871.9, 22679.514, -0.01847657, -0.011645528, -1288104.3, 136155.14, 0.0, 10.001071, 9.9996 
9.0497553e+2, 1.6466655e+2, -1228273.0, -1403756.1, 22875.338, -0.049433704, -0.012863599, -1225340.0, 100927.41, 0.0, 10.001192, 9.998868 
9.049911e+2, 1.7466557e+2, -1122114.5, -1301516.6, 30219.34, -0.018682519, 0.0016661987, -1117161.0, 111118.77, 0.0, 10.001249, 9.998869 
9.050066e+2, 1.8466492e+2, -996727.6, -1124214.9, 51170.88, -0.013924501, 0.022413379, -978729.56, 151557.39, 0.0, 10.001151, 9.99946 
9.050221e+2, 1.9466463e+2, -935136.7, -1039602.8, 40690.81, -0.04100258, 0.041291174, -921157.75, 111130.64, 0.0, 10.000883, 9.999498 
9.0503764e+2, 2.0466384e+2, -906152.94, -1040691.2, 25503.586, -0.050594505, 0.04395481, -901480.7, 32815.09, 0.0, 10.000693, 9.998909 
9.0505326e+2, 2.146625e+2, -822242.4, -949160.1, 27850.34, -0.03991931, 0.01832794, -816400.0, 19909.979, 0.0, 10.000596, 9.998911 
9.050689e+2, 2.2466151e+2, -731136.75, -833128.94, 30072.793, -0.032480326, 0.01980247, -722930.0, 15390.2295, 0.0, 10.000457, 9.999103 
9.0508443e+2, 2.346609e+2, -656815.8, -743161.0, 23786.576, -0.03043305, 0.04319317, -650696.7, -10370.619, 0.0, 10.000279, 9.999132 
9.051001e+2, 2.4465983e+2, -593641.2, -713592.1, 23827.703, -0.018206773, 0.046874806, -589081.3, -46744.49, 0.0, 10.000263, 9.99867 
9.051159e+2, 2.546582e+2, -470384.7, -601759.25, 30920.65, 0.007237492, 0.01436095, -463470.97, -19117.508, 0.0, 10.00043, 9.998683 
9.0513164e+2, 2.6465702e+2, -344752.13, -456881.4, 46207.33, 0.0035670605, 0.015621092, -328164.44, 18200.82, 0.0, 10.000476, 9.998983 
9.051473e+2, 2.746564e+2, -258480.88, -361546.66, 25670.797, -0.034562223, 0.049544, -252440.95, -4069.5435, 0.0, 10.000381, 9.99901 
9.051631e+2, 2.846555e+2, -215758.17, -339370.6, -6093.9653, -0.029672002, 0.08440374, -215458.48, -65078.176, 0.0, 10.000212, 9.998572 
9.0517884e+2, 2.946543e+2, -155392.25, -259480.28, 14013.502, 0.025024807, 0.10315262, -153538.61, -101145.46, 0.0, 9.999954, 9.99857 
9.051938e+2, 3.046516e+2, -64778.453, -145613.6, 5332.451, 0.016263137, -0.04132514, -64428.203, -64428.203, 0.0000001316986, 10.00005, 9.998973 
9.0520847e+2, 3.1465134e+2, 79838.56, 43649.39, -30418.586, -0.004292929, 0.03199804, 97137.54, 97137.54, 0.0000016698094, 10.000522, 10.000046 
9.149172e+2, 1.246553e+2, -1619190.1, -1737901.5, 20902.676, 0.0689679, 0.060317986, -1615617.1, 102762.74, 0.000002613721, 10.00095, 9.999386 
9.1493094e+2, 1.3465422e+2, -1535489.3, -1642216.3, 28291.885, -0.053749397, 0.007049975, -1528453.3, 91937.195, 0.00000007607973, 10.000834, 9.999426 
9.14947e+2, 1.4465357e+2, -1438810.3, -1555520.9, 33012.1, 0.045067534, 0.01045048, -1430119.8, 92276.51, 0.0, 10.000872, 9.999327 
9.1496205e+2, 1.5465315e+2, -1310269.1, -1440931.4, 30874.285, 0.010493398, 0.030356435, -1303341.1, 121058.805, 0.0, 10.001073, 9.999345 
9.149771e+2, 1.6465235e+2, -1212980.9, -1374239.4, 23566.611, -0.019297292, 0.029670557, -1209607.4, 116800.79, 0.0, 10.0012, 9.999068 
9.149922e+2, 1.7465113e+2, -1106603.3, -1270035.5, 32144.152, -0.03299873, -0.0003609003, -1100508.4, 127912.81, 0.0, 10.00125, 9.999084 
9.1500753e+2, 1.8465051e+2, -1015880.2, -1163698.8, 40117.652, -0.037746962, 0.024626296, -1005694.25, 124733.875, 0.0, 10.001149, 9.99919 
9.150231e+2, 1.9465053e+2, -956137.3, -1082314.5, 30455.602, -0.03511313, 0.10322996, -949170.9, 83257.6, 0.0, 10.000878, 9.9992075 
9.150386e+2, 2.0464957e+2, -901753.94, -1030662.4, 20445.092, -0.029825427, 0.10045735, -898589.0, 35848.625, 0.0, 10.000688, 9.998981 
9.15054e+2, 2.1464752e+2, -816149.06, -936128.94, 24092.56, -0.02078115, -0.0070309, -811491.94, 24965.09, 0.0, 10.000593, 9.999002 
9.150695e+2, 2.2464636e+2, -741325.44, -854102.8, 22123.56, -0.011108239, -0.018008135, -737140.75, 1327.5945, 0.0, 10.000455, 9.99896 
9.15085e+2, 2.3464626e+2, -667375.75, -764770.75, 17661.4, 0.00016862727, 0.0713908, -664271.94, -23801.475, 0.0, 10.0002775, 9.998985 
9.151004e+2, 2.4464539e+2, -579164.3, -683842.7, 29167.547, -0.010928611, 0.09283277, -571585.75, -29106.871, 0.0, 10.000264, 9.998874 
9.151158e+2, 2.5464362e+2, -456056.56, -571749.56, 37918.727, -0.0476785, 0.024858296, -444736.25, -241.41528, 0.0, 10.000428, 9.998891 
9.1513157e+2, 2.64642e+2, -381636.47, -532991.2, 43286.535, -0.046229217, -0.002234002, -370131.34, -23620.518, 0.0, 10.000473, 9.998462 
9.151481e+2, 2.7464062e+2, -297593.0, -440931.16, 24537.355, -0.00012875645, 0.011055378, -293508.94, -44982.254, 0.0, 10.000372, 9.99847 
9.1516376e+2, 2.846398e+2, -177803.1, -258817.39, -15571.727, 0.016640816, 0.050666273, -174913.16, -24378.05, 0.0, 10.000204, 9.999129 
9.151785e+2, 2.9463947e+2, -112596.66, -171683.8, 5553.667, -0.0013236401, 0.09747739, -112079.195, -59542.918, 0.0, 9.999959, 9.999172 
9.1519344e+2, 3.0463696e+2, -108310.81, -238543.1, 22961.283, -0.026641324, -0.026279239, -104381.08, -104381.08, 0.00000009563079, 10.000058, 9.998331 
9.1520894e+2, 3.1463608e+2, 11588.312, -93909.33, -7767.516, -0.011517393, 0.052669235, 12157.146, 12157.146, 0.0000014046396, 10.000504, 9.99911 
9.2491776e+2, 1.24640554e+2, -1702974.1, -1772960.0, -9590.478, 0.06750893, 0.056637466, -1701683.8, 16839.807, 0.0000053718704, 10.000359, 9.999427 
9.2493194e+2, 1.3463944e+2, -1506067.4, -1622969.9, 4897.532, -0.048391167, -0.0055014696, -1505862.5, 114672.3, 0.00000033393198, 10.001016, 9.99947 
9.24948e+2, 1.4463888e+2, -1391848.9, -1539384.0, 10443.929, 0.04790612, 0.0068955375, -1391113.3, 131427.14, 0.0, 10.001224, 9.999268 
9.24963e+2, 1.5463854e+2, -1334574.6, -1458119.9, 20727.041, 0.013474518, 0.04230588, -1331190.0, 93353.59, 0.0, 10.000933, 9.999291 
9.24978e+2, 1.6463779e+2, -1263818.5, -1382742.8, 23801.65, -0.018372174, 0.04205656, -1259231.8, 67319.31, 0.0, 10.000788, 9.999206 
9.2499316e+2, 1.7463657e+2, -1158989.6, -1279820.9, 26059.758, -0.036741465, -0.0029788306, -1153609.0, 74954.02, 0.0, 10.000826, 9.999222 
9.250084e+2, 1.8463585e+2, -1071639.8, -1202084.5, 30047.018, -0.04183547, 0.01034323, -1065051.4, 65519.258, 0.0, 10.000816, 9.999087 
9.250238e+2, 1.9463566e+2, -981741.44, -1106320.6, 31605.238, -0.037476756, 0.081383154, -974182.0, 58391.57, 0.0, 10.000755, 9.999101 
9.2503923e+2, 2.0463477e+2, -897771.44, -1021249.2, 32851.266, -0.026113393, 0.084780924, -889575.4, 45007.2, 0.0, 10.000685, 9.999046 
9.250547e+2, 2.14633e+2, -809121.3, -924817.44, 33942.395, -0.0056771585, -0.000059931772, -799898.7, 36699.97, 0.0, 10.000608, 9.999072 
9.2507017e+2, 2.246318e+2, -730823.44, -861083.44, 33936.117, 0.0030931386, -0.013561959, -722512.5, 16097.656, 0.0, 10.00058, 9.998851 
9.250854e+2, 2.3463127e+2, -628442.06, -758662.75, 29566.3, -0.0010708012, 0.043759737, -622043.56, 18572.994, 0.0, 10.000601, 9.998872 
9.2510074e+2, 2.4463034e+2, -527237.94, -655913.94, 42412.813, -0.02064767, 0.06430102, -514516.03, 28109.434, 0.0, 10.000608, 9.9989 
9.251161e+2, 2.5462896e+2, -426229.9, -554055.0, 36840.543, -0.05870592, 0.03369408, -416372.28, 28265.117, 0.0, 10.000618, 9.998922 
9.2513204e+2, 2.6462737e+2, -391724.56, -541712.0, 41048.598, -0.051006686, 0.008432895, -381225.3, -34572.234, 0.0, 10.000421, 9.998428 
9.251483e+2, 2.7462554e+2, -357757.28, -473407.8, 56474.063, 0.010597794, -0.019116817, -334755.06, -86082.09, 0.0, 9.999975, 9.998438 
9.25164e+2, 2.846246e+2, -193168.92, -266576.56, 37729.992, 0.026211327, 0.011072305, -177235.1, -26552.58, 0.0, 10.000102, 9.9991255 
9.251788e+2, 2.9462457e+2, 23400.691, -106190.76, 14386.118, -0.011369013, 0.087889135, 24978.504, 77659.65, 0.0, 10.000893, 9.999173 
9.251938e+2, 3.0462244e+2, 19502.969, -162064.08, 17823.662, -0.03763006, -0.007964807, 21236.098, 21236.098, 0.00000004550982, 10.000872, 9.998466 
9.2520916e+2, 3.1462163e+2, -79769.38, -144631.72, 42289.09, -0.00986988, 0.06573791, -58907.516, -58907.516, 0.0000009683944, 9.999906, 9.99905 
9.349178e+2, 1.24624856e+2, -1698205.9, -1760780.8, 8095.636, 0.03396494, 0.0023395582, -1697175.5, 21500.691, 0.000009857008, 10.000348, 9.999516 
9.349332e+2, 1.3462423e+2, -1498429.1, -1608552.6, 30769.896, -0.030265398, -0.020707082, -1490414.9, 130268.24, 0.0000009955157, 10.001023, 9.999564 
9.3494946e+2, 1.4462397e+2, -1378502.4, -1516678.0, -950.4581, 0.06531211, 0.007467036, -1378495.9, 144190.23, 0.00000000002439963, 10.001243, 9.999416 
9.349637e+2, 1.546236e+2, -1324353.8, -1436903.8, 9730.52, -0.014024797, 0.025134578, -1323518.6, 101170.96, 0.0, 10.000931, 9.999439 
9.349784e+2, 1.6462292e+2, -1259587.8, -1372844.8, 24009.178, -0.052412793, 0.0239994, -1254708.3, 71987.44, 0.0, 10.000783, 9.999276 
9.3499404e+2, 1.7462192e+2, -1155043.9, -1270966.4, 27816.004, -0.03403861, -0.0067100944, -1148714.9, 79989.93, 0.0, 10.000824, 9.999284 
9.3500936e+2, 1.8462098e+2, -1068598.0, -1195707.1, 26708.75, -0.03159548, -0.01946517, -1063213.9, 67500.06, 0.0, 10.000814, 9.999133 
9.3502444e+2, 1.9462012e+2, -977601.3, -1097941.1, 28946.705, -0.050322305, -0.022933893, -971000.5, 61722.813, 0.0, 10.000755, 9.999159 
9.350398e+2, 2.0461945e+2, -893747.0, -1012706.06, 28200.516, -0.041164503, -0.00198171, -887400.4, 47329.938, 0.0, 10.000684, 9.999106 
9.350555e+2, 2.1461898e+2, -805832.06, -917267.8, 31012.992, 0.0018489482, 0.0387885, -797782.5, 38951.996, 0.0, 10.000604, 9.999127 
9.3507075e+2, 2.2461787e+2, -737549.44, -874013.06, 33403.56, 0.0057450775, 0.03333416, -729811.7, 8933.616, 0.0, 10.000575, 9.998765 
9.350857e+2, 2.3461595e+2, -635434.2, -772450.2, 30626.97, -0.035844214, -0.03764815, -628899.8, 11864.035, 0.0, 10.000597, 9.998778 
9.351011e+2, 2.4461472e+2, -537703.06, -677436.44, 42073.992, -0.049672734, -0.03598726, -526012.56, 16763.545, 0.0, 10.000607, 9.998754 
9.3511707e+2, 2.5461426e+2, -436820.34, -575073.06, 38447.47, -0.03143147, 0.03985786, -426847.63, 17933.334, 0.0, 10.000612, 9.998781 
9.3513274e+2, 2.6461312e+2, -362530.4, -480369.53, 24614.328, -0.016786171, 0.0455685, -357595.6, -10803.535, 0.0, 10.000417, 9.998852 
9.351481e+2, 2.7461115e+2, -326349.25, -409614.1, 40437.55, -0.0055531817, -0.03987341, -309943.28, -61132.754, 0.0, 9.999981, 9.998874 
9.351638e+2, 2.8460994e+2, -228408.6, -341350.38, 65329.94, -0.0035199125, -0.032039937, -198525.78, -47703.168, 0.0, 10.000107, 9.9986105 
9.351797e+2, 2.9460964e+2, -18515.994, -188330.39, 46360.277, -0.012455309, 0.07224708, -6683.8135, 46143.72, 0.0, 10.00087, 9.998621 
9.351948e+2, 3.0460796e+2, 73639.234, -43447.56, -16721.172, -0.02520989, 0.010813945, 75980.375, 75980.375, 0.000000010385675, 10.000846, 9.999292 
9.3520904e+2, 3.146079e+2, -27806.703, -37268.1, 7466.249, -0.011487174, 0.06841405, -23698.602, -23698.602, 0.00000050425, 9.999908, 9.999786 
9.4491816e+2, 1.24609254e+2, -1613629.3, -1716552.4, 6844.149, 0.0068122665, -0.034724116, -1613176.1, 105652.12, 0.000016753027, 10.000913, 9.999548 
9.44934e+2, 1.3460904e+2, -1564566.1, -1633584.6, 30109.027, -0.019295754, -0.02091838, -1553277.5, 67553.94, 0.000002343361, 10.000541, 9.999624 
9.4495046e+2, 1.4460897e+2, -1485591.9, -1555932.3, -9726.902, 0.07975638, 0.018754805, -1484271.6, 38561.023, 0.0000000053592455, 10.00046, 9.999521 
9.4496447e+2, 1.5460843e+2, -1344635.0, -1434892.5, -3744.964, -0.018671118, 0.0085570365, -1344479.9, 80357.55, 0.0, 10.000743, 9.999543 
9.449792e+2, 1.6460778e+2, -1245228.1, -1358877.6, 9043.172, -0.060179144, -0.00064085657, -1244513.0, 82330.27, 0.0, 10.000852, 9.999339 
9.449948e+2, 1.7460696e+2, -1160674.3, -1266017.9, 10926.582, -0.028868299, -0.016679011, -1159552.9, 69297.414, 0.0, 10.000754, 9.99935 
9.450101e+2, 1.8460609e+2, -1090946.4, -1196039.0, 10336.96, -0.020504665, -0.030829923, -1089939.3, 40919.375, 0.0, 10.00062, 9.999222 
9.4502515e+2, 1.9460513e+2, -1014848.44, -1106146.1, 14244.176, -0.041849196, -0.052704543, -1012677.7, 20190.826, 0.0, 10.000459, 9.999245 
9.4504035e+2, 2.0460452e+2, -924461.75, -1019128.94, 21058.781, -0.040123172, -0.03417106, -919988.56, 14886.211, 0.0, 10.000437, 9.999181 
9.450559e+2, 2.1460429e+2, -804634.2, -908261.2, 23256.957, -0.011129271, 0.02244272, -799654.0, 37222.727, 0.0, 10.000578, 9.999201 
9.450712e+2, 2.2460325e+2, -720225.56, -865621.25, 31329.988, -0.008666703, 0.020678917, -713761.94, 25124.715, 0.0, 10.000694, 9.998765 
9.4508636e+2, 2.3460124e+2, -607759.9, -759444.6, 33879.836, -0.03745356, -0.058790505, -600536.56, 40369.25, 0.0, 10.000789, 9.9987755 
9.4510174e+2, 2.4459991e+2, -532917.75, -687097.6, 43362.395, -0.047891002, -0.06167851, -521559.1, 21360.12, 0.0, 10.000691, 9.998647 
9.451174e+2, 2.5459933e+2, -481388.16, -608574.0, 39645.965, -0.036911488, 0.011577933, -470042.0, -25115.828, 0.0, 10.000359, 9.9986725 
9.451331e+2, 2.6459825e+2, -359219.78, -466611.88, 23311.738, -0.021394422, 0.02350096, -354377.78, -7441.0767, 0.0, 10.000387, 9.9989605 
9.4514865e+2, 2.745966e+2, -190949.66, -330810.34, 15415.187, 0.00092082814, -0.043186117, -189270.78, 59680.49, 0.0, 10.000853, 9.998996 
9.4516426e+2, 2.8459537e+2, -158138.53, -327815.88, 37432.113, 0.0025836208, -0.03357735, -150247.69, 715.66943, 0.0, 10.000677, 9.998429 
9.451799e+2, 2.945947e+2, -197594.77, -295688.97, 41941.484, -0.019884957, 0.05281918, -182107.33, -129134.516, 0.0, 9.99973, 9.998432 
9.451951e+2, 3.04593e+2, -64969.3, -92892.0, -16956.475, -0.027203426, -0.009077518, -56966.1, -56966.1, 0.00000000032400083, 9.999819, 9.999448 
9.452098e+2, 3.1459284e+2, 154204.17, 55571.543, -46621.297, 0.0102819735, 0.024042593, 172752.75, 172752.75, 0.00000016973306, 10.001138, 9.999832 
9.549186e+2, 1.2459385e+2, -1611054.4, -1717854.3, -16286.103, -0.036237903, -0.052639153, -1608626.1, 110352.58, 0.00002677623, 10.000939, 9.999527 
9.549346e+2, 1.34594e+2, -1564292.4, -1631869.6, 16083.993, -0.019451851, -0.004459574, -1560659.5, 60319.37, 0.0000047533053, 10.000534, 9.99964 
9.549509e+2, 1.4459403e+2, -1483552.3, -1549366.0, -429.599, 0.086027555, 0.0409396, -1483549.5, 39429.594, 0.000000046136613, 10.000448, 9.999572 
9.5496535e+2, 1.5459315e+2, -1341202.4, -1427615.5, 7924.176, -0.004347563, -0.0075614834, -1340481.8, 84504.805, 0.0, 10.000743, 9.999593 
9.5498013e+2, 1.6459239e+2, -1241013.3, -1351546.4, 5233.259, -0.04690088, -0.03046969, -1240766.1, 86227.19, 0.0, 10.000855, 9.999388 
9.5499563e+2, 1.745918e+2, -1156168.9, -1257355.5, 7545.7856, -0.02386151, -0.03228095, -1155609.3, 73389.63, 0.0, 10.000755, 9.99941 
9.550109e+2, 1.8459125e+2, -1081891.5, -1177539.4, 3057.328, -0.012215881, -0.022768214, -1081793.9, 49210.246, 0.0, 10.000621, 9.99935 
9.550258e+2, 1.9459078e+2, -1006532.1, -1088717.0, 8021.2715, -0.015688386, -0.008335569, -1005756.56, 27252.229, 0.0, 10.000457, 9.999366 
9.550409e+2, 2.0459002e+2, -919885.1, -1008952.9, 24445.555, -0.027347261, -0.012012441, -913616.9, 21398.676, 0.0, 10.000433, 9.999252 
9.550561e+2, 2.1458896e+2, -799866.0, -897231.06, 28316.422, -0.04696639, -0.048122004, -792229.75, 44795.14, 0.0, 10.000572, 9.99928 
9.5507157e+2, 2.2458799e+2, -715161.75, -853668.7, 33225.89, -0.04278825, -0.050346967, -707603.75, 31430.047, 0.0, 10.000687, 9.998851 
9.550874e+2, 2.3458715e+2, -602409.9, -747227.56, 37726.453, -0.01061999, -0.02277385, -593171.2, 47871.094, 0.0, 10.000783, 9.998863 
9.551027e+2, 2.445859e+2, -539037.94, -698904.44, 30845.871, -0.019971954, -0.016571261, -533292.75, 9762.1045, 0.0, 10.000687, 9.998569 
9.551174e+2, 2.545842e+2, -488029.0, -622144.94, 27700.74, -0.07771744, -0.047475196, -482532.8, -37460.27, 0.0, 10.000358, 9.998581 
9.55133e+2, 2.6458278e+2, -371215.16, -492323.5, 39033.805, -0.06706568, -0.05206601, -359724.6, -12638.303, 0.0, 10.000389, 9.998784 
9.551497e+2, 2.7458185e+2, -204394.97, -356603.97, 34100.035, 0.02386994, -0.03202257, -197104.58, 51990.4, 0.0, 10.000842, 9.998825 
9.5516527e+2, 2.8458083e+2, -150788.63, -310114.22, 3745.8936, 0.038198095, 0.00084309455, -150700.61, 404.22318, 0.0, 10.000667, 9.998556 
9.5517945e+2, 2.9457974e+2, -186602.94, -275161.2, 7597.63, -0.038794227, 0.03146162, -185955.84, -132839.05, 0.0, 9.999741, 9.998569 
9.5519465e+2, 3.045776e+2, -95070.45, -158772.5, 28818.246, -0.04791151, -0.061723813, -83968.26, -83968.26, 0.0, 9.999831, 9.99899 
9.552112e+2, 3.1457654e+2, 108766.13, -31530.625, 7274.6733, 0.041269045, -0.066236645, 109142.33, 109142.33, 0.000000027453995, 10.001105, 9.999249 
9.649195e+2, 1.2457897e+2, -1690440.6, -1756955.8, -13700.699, -0.01744799, -0.029621068, -1687729.1, 31395.531, 0.000040530904, 10.000402, 9.999515 
9.64935e+2, 1.3457899e+2, -1540294.9, -1616811.9, 25017.133, -0.03141232, 0.0035371855, -1532841.6, 88284.13, 0.000008656152, 10.000687, 9.999669 
9.649512e+2, 1.4457886e+2, -1440523.5, -1529734.4, 12384.81, 0.05795013, 0.033165134, -1438836.1, 84290.87, 0.00000019058375, 10.000751, 9.999559 
9.64966e+2, 1.5457782e+2, -1373988.1, -1444448.3, 13158.755, 0.00117822, -0.03194592, -1371610.9, 53524.996, 0.0, 10.000524, 9.999582 
9.6498096e+2, 1.6457714e+2, -1298750.6, -1369063.4, 9023.704, -0.02834525, -0.049753346, -1297611.1, 29530.766, 0.0, 10.000418, 9.999477 
9.649963e+2, 1.7457697e+2, -1189523.9, -1262421.4, 13219.264, -0.018945519, -0.020427544, -1187200.8, 41943.242, 0.0, 10.000481, 9.999506 
9.650114e+2, 1.8457656e+2, -1093963.5, -1183463.8, 5209.2515, -0.013036246, -0.0027173462, -1093661.4, 37486.684, 0.0, 10.000539, 9.999349 
9.650264e+2, 1.9457588e+2, -987843.44, -1079669.8, -859.1449, -0.014151833, -0.00728624, -987835.44, 45318.7, 0.0, 10.000587, 9.999364 
9.6504146e+2, 2.0457499e+2, -897526.5, -994367.25, 13994.811, -0.024230424, -0.026951332, -895544.6, 39617.34, 0.0, 10.000572, 9.999285 
9.6505666e+2, 2.1457383e+2, -810115.5, -898342.3, 13718.316, -0.043667294, -0.07489487, -808031.7, 29140.191, 0.0, 10.000485, 9.999313 
9.6507215e+2, 2.2457297e+2, -750299.56, -864588.75, 17242.875, -0.04161225, -0.07147231, -747754.75, -8574.882, 0.0, 10.000421, 9.998904 
9.650879e+2, 2.3457243e+2, -657555.06, -767564.56, 16854.445, -0.015646854, -0.019805897, -655030.75, -13844.911, 0.0, 10.000378, 9.998918 
9.651032e+2, 2.4457121e+2, -573232.9, -716735.75, 8967.344, -0.02156725, -0.012662963, -572674.7, -29476.557, 0.0, 10.000459, 9.998555 
9.6511805e+2, 2.5456923e+2, -439957.3, -600167.5, 10330.666, -0.06396544, -0.06708634, -439293.9, 5923.9717, 0.0, 10.000695, 9.998569 
9.6513367e+2, 2.645678e+2, -340416.0, -494565.47, 30319.074, -0.05576852, -0.072401576, -334667.06, 12565.639, 0.0, 10.000676, 9.998631 
9.651501e+2, 2.745669e+2, -290093.44, -415725.34, 24522.277, 0.011719482, -0.02833565, -285476.56, -36234.996, 0.0, 10.00033, 9.998666 
9.651657e+2, 2.845658e+2, -194252.67, -331976.34, -17737.676, 0.025966482, 0.0029366247, -192004.89, -40752.39, 0.0, 10.000372, 9.998548 
9.651799e+2, 2.9456437e+2, -16657.361, -193346.69, -26358.377, -0.022249259, 0.0032921953, -12809.055, 40457.453, 0.0, 10.000909, 9.998568 
9.6519524e+2, 3.0456218e+2, 56792.473, -98425.04, 20653.613, -0.028106688, -0.08560452, 59493.684, 59493.684, 0.0, 10.000933, 9.998874 
9.652118e+2, 3.145612e+2, -20432.17, -114468.72, 23003.291, 0.031099146, -0.07539225, -15106.681, -15106.681, 0.00000000015790982, 10.000308, 9.999064 
9.749205e+2, 1.2456463e+2, -1691308.4, -1756383.1, -9567.128, 0.045521714, 0.029556595, -1689931.0, 29334.758, 0.000058506626, 10.000391, 9.999524 
9.749354e+2, 1.345641e+2, -1536726.1, -1610573.4, 37758.996, -0.06002981, 0.002814483, -1520837.9, 100433.31, 0.00001444443, 10.00069, 9.99971 
9.7495127e+2, 1.4456359e+2, -1445723.8, -1542094.6, 4480.631, -0.011713973, -0.0043770955, -1445515.9, 77759.79, 0.0000005546723, 10.000756, 9.999473 
9.749664e+2, 1.545625e+2, -1380502.1, -1457668.5, 5287.3057, -0.005722991, -0.063985094, -1380141.5, 45143.316, 0.0, 10.000522, 9.999493 
9.7498155e+2, 1.645621e+2, -1290283.8, -1351190.1, 9820.664, -0.00899186, -0.056775153, -1288739.4, 38548.953, 0.0, 10.000415, 9.999601 
9.7499675e+2, 1.7456251e+2, -1180605.8, -1243782.4, 15813.476, -0.016784133, 0.019832108, -1176868.6, 52416.43, 0.0, 10.00048, 9.999635 
9.750118e+2, 1.8456203e+2, -1103058.9, -1201969.3, 5872.5986, -0.027108995, 0.029635314, -1102711.4, 28578.39, 0.0, 10.000536, 9.999223 
9.7502667e+2, 1.9456048e+2, -997468.06, -1099208.4, 811.4462, -0.03999014, -0.049690776, -997461.6, 35842.54, 0.0, 10.000585, 9.999232 
9.7504187e+2, 2.0455942e+2, -898419.4, -995298.75, 9259.16, -0.03465955, -0.0790628, -897542.4, 37771.24, 0.0, 10.000567, 9.999282 
9.750575e+2, 2.1455894e+2, -810712.5, -898876.75, 10307.229, -0.005690336, -0.058748856, -809523.5, 27793.77, 0.0, 10.000482, 9.999312 
9.7507286e+2, 2.245582e+2, -750076.94, -863248.8, 14201.528, -0.00973246, -0.04427398, -748322.06, -8997.6045, 0.0, 10.000416, 9.998916 
9.750879e+2, 2.345571e+2, -657708.25, -766552.7, 15415.234, -0.053763893, -0.04715099, -655567.1, -14231.375, 0.0, 10.000371, 9.998928 
9.751033e+2, 2.4455588e+2, -569970.5, -709211.7, 16404.98, -0.054468676, -0.045887634, -568063.8, -24715.527, 0.0, 10.000454, 9.99861 
9.7511935e+2, 2.5455445e+2, -436563.75, -591572.1, 19972.78, -0.002654812, -0.051022798, -434031.63, 11330.561, 0.0, 10.000687, 9.9986315 
9.7513497e+2, 2.6455307e+2, -351472.44, -515478.84, 18648.617, 0.0058856397, -0.043878097, -349378.7, -2002.406, 0.0, 10.000667, 9.998491 
9.7515e+2, 2.7455172e+2, -300938.9, -438210.75, 13381.076, -0.03798412, -0.030935565, -299646.7, -50256.11, 0.0, 10.00033, 9.998511 
9.751654e+2, 2.8455025e+2, -203959.86, -353059.03, 1216.6868, -0.036363, -0.021586712, -203949.94, -52544.426, 0.0, 10.000375, 9.998403 
9.751813e+2, 2.9454863e+2, -28697.375, -214629.2, -3437.6606, 0.02002294, -0.029452732, -28633.838, 24787.527, 0.0, 10.000892, 9.998431 
9.7519666e+2, 3.045468e+2, 66335.61, -73440.805, 282.70844, 0.023945028, -0.08305189, 66336.18, 66336.18, 0.0, 10.00091, 9.999057 
9.7521156e+2, 3.1454653e+2, -10719.928, -90950.2, 3840.3228, -0.027001908, -0.02094181, -10536.525, -10536.525, 0.0, 10.000293, 9.999233 
9.849209e+2, 1.2454951e+2, -1698781.5, -1759160.4, -21312.822, 0.044050217, 0.03170892, -1692016.4, 27396.717, 0.00008108169, 10.000338, 9.99953 
9.8493606e+2, 1.3454875e+2, -1573730.5, -1624829.6, 28470.93, -0.0519948, -0.020633277, -1561026.0, 60394.55, 0.000022462764, 10.000421, 9.9997425 
9.849519e+2, 1.4454825e+2, -1471125.8, -1544114.4, -5592.1895, -0.01582505, -0.032989647, -1470699.9, 52724.957, 0.0000013019285, 10.000538, 9.999564 
9.849671e+2, 1.5454753e+2, -1349491.0, -1431039.9, 7650.5645, -0.0024563936, -0.066430695, -1348779.4, 76650.78, 0.0, 10.000686, 9.999596 
9.849822e+2, 1.6454718e+2, -1255097.9, -1349405.8, 13124.28, -0.004234479, -0.052457526, -1253305.5, 74127.9, 0.0, 10.000723, 9.999465 
9.8499733e+2, 1.7454727e+2, -1169431.1, -1254687.3, -3453.8235, -0.016804777, 0.0066696755, -1169291.4, 60142.48, 0.0, 10.0006275, 9.999489 
9.850123e+2, 1.8454668e+2, -1103831.1, -1196907.9, -17167.508, -0.030393487, 0.010572393, -1100765.6, 30674.475, 0.0, 10.000507, 9.999271 
9.850271e+2, 1.9454527e+2, -1024193.75, -1105185.8, -9006.639, -0.047615495, -0.06019554, -1023204.25, 10248.579, 0.0, 10.000371, 9.999294 
9.850423e+2, 2.0454434e+2, -936684.25, -1017873.75, 8422.754, -0.03557418, -0.07773964, -935819.7, -358.51944, 0.0, 10.000321, 9.999246 
9.850581e+2, 2.1454397e+2, -827963.2, -911369.56, 5072.4717, 0.012137059, -0.04336881, -827655.9, 9808.446, 0.0, 10.000381, 9.999274 
9.850735e+2, 2.2454317e+2, -749336.94, -866682.8, 7661.082, 0.0109659135, -0.030927017, -748838.94, -9366.502, 0.0, 10.000439, 9.99888 
9.850884e+2, 2.3454185e+2, -642910.4, -763114.5, 4088.999, -0.04846681, -0.052834075, -642771.44, -1285.2123, 0.0, 10.000491, 9.998894 
9.8510385e+2, 2.4454068e+2, -559840.4, -687277.7, 9325.144, -0.052743297, -0.050789364, -559161.6, -15663.56, 0.0, 10.000452, 9.99876 
9.8511994e+2, 2.5453964e+2, -482696.9, -596284.56, 17559.97, 0.007933446, -0.03438481, -480044.2, -34536.53, 0.0, 10.000295, 9.998788 
9.851355e+2, 2.6453832e+2, -404470.94, -539910.94, 21911.72, 0.015468694, -0.02764116, -401014.25, -53493.527, 0.0, 10.000298, 9.998501 
9.8515034e+2, 2.7453673e+2, -273710.56, -424097.97, 25879.703, -0.04033205, -0.039999653, -269381.63, -19843.951, 0.0, 10.000516, 9.998517 
9.8516583e+2, 2.8453526e+2, -170816.06, -331147.97, 35662.402, -0.03976871, -0.035425544, -163241.56, -11688.513, 0.0, 10.000579, 9.998453 
9.851819e+2, 2.9453388e+2, -94956.82, -240404.23, 43972.926, 0.029474253, -0.022608247, -82696.086, -29129.432, 0.0, 10.000411, 9.998485 
9.851973e+2, 3.045324e+2, -12301.585, -106733.27, 37541.16, 0.029883644, -0.045553893, 803.99994, 803.99994, 0.0, 10.000351, 9.999097 
9.8521173e+2, 3.145323e+2, 14854.583, -78158.25, 24643.973, -0.045975737, 0.030038906, 20980.592, 20980.592, 0.0, 10.000465, 9.999238 
9.949204e+2, 1.2453359e+2, -1700241.4, -1762654.8, -25544.348, -0.043673247, -0.031054696, -1691119.8, 28446.96, 0.000108580556, 10.00034, 9.999505 
9.949369e+2, 1.3453302e+2, -1573473.0, -1623860.9, 32877.973, -0.010329206, -0.066282816, -1557246.0, 64327.24, 0.000033028722, 10.000419, 9.999751 
9.94953e+2, 1.4453292e+2, -1451938.0, -1504215.4, -843.2026, 0.04199866, -0.05048225, -1451924.5, 71649.24, 0.0000026281716, 10.000536, 9.99984 
9.949678e+2, 1.5453294e+2, -1328703.4, -1388098.5, 14016.418, 0.0071651177, -0.039159402, -1325561.9, 100009.54, 0.00000000019976186, 10.000686, 9.99989 
9.949828e+2, 1.6453244e+2, -1283052.9, -1407275.8, 8990.716, -0.019435963, -0.038044903, -1282405.5, 45170.77, 0.0, 10.000722, 9.999069 
9.9499786e+2, 1.7453128e+2, -1199465.8, -1317430.5, -6912.9053, -0.02308415, -0.060297385, -1199062.1, 30527.924, 0.0, 10.0006275, 9.999058 
9.950128e+2, 1.8453053e+2, -1088225.8, -1164687.3, -23710.455, -0.028507698, -0.059343733, -1081470.1, 50128.145, 0.0, 10.000507, 9.999494 
9.9502754e+2, 1.9453031e+2, -1006609.1, -1068636.4, -14557.04, -0.040028937, -0.037955668, -1003362.7, 30237.043, 0.0, 10.00037, 9.999546 
9.950427e+2, 2.045298e+2, -941752.6, -1027777.1, 8635.353, -0.030125836, -0.023108728, -940894.4, -5290.2075, 0.0, 10.000319, 9.999179 
9.950585e+2, 2.1452896e+2, -834565.6, -923455.94, 7072.7344, 0.0073898644, -0.028351357, -834006.44, 3606.0085, 0.0, 10.000375, 9.999194 
9.95074e+2, 2.2452793e+2, -755779.25, -878684.9, 8265.24, 0.017220942, -0.030572794, -755225.94, -15602.678, 0.0, 10.000432, 9.998802 
9.950893e+2, 2.3452666e+2, -648712.94, -774485.06, 6570.2534, -0.0054858797, -0.038718496, -648370.6, -6733.651, 0.0, 10.000487, 9.998817 
9.9510455e+2, 2.4452563e+2, -544190.75, -653816.5, 3595.4404, -0.022230217, -0.030810619, -544072.94, -425.61362, 0.0, 10.000447, 9.998993 
9.951198e+2, 2.5452483e+2, -465490.63, -560684.3, 12884.748, -0.032586627, -0.015430419, -463777.47, -18123.668, 0.0, 10.000295, 9.999033 
9.9513537e+2, 2.6452363e+2, -394712.94, -520710.38, 29082.928, -0.0271669, -0.018539365, -388323.94, -40658.637, 0.0, 10.000301, 9.9986315 
9.951512e+2, 2.7452192e+2, -266435.53, -406024.16, 35211.76, -0.0039380956, -0.053392287, -258056.23, -8373.479, 0.0, 10.000502, 9.998649 
9.951669e+2, 2.845207e+2, -156537.3, -296404.88, 30572.521, 0.0063421517, -0.041157518, -150146.69, 1549.0345, 0.0, 10.000557, 9.998703 
9.9518216e+2, 2.9452005e+2, -77269.52, -202847.16, 39801.59, 0.0031691084, 0.017690295, -65717.22, -12014.063, 0.0, 10.000408, 9.998744 
9.9519724e+2, 3.045189e+2, -20111.184, -124144.13, 41159.336, -0.011819758, 0.022862688, -5796.6353, -5796.6353, 0.0, 10.000354, 9.998977 
9.9521226e+2, 3.1451848e+2, -1134.0117, -104437.3, 33294.32, -0.039796118, 0.07855611, 8666.799, 8666.799, 0.0, 10.000435, 9.999073 
1.0049206e+3, 1.2451783e+2, -1675982.8, -1755014.5, -34325.508, -0.0586133, -0.06784148, -1663156.0, 56563.2, 0.00014134821, 10.000522, 9.999474 
1.0049375e+3, 1.345175e+2, -1561387.5, -1618325.6, 27408.672, 0.009104378, -0.077671334, -1550337.9, 71385.95, 0.000046426092, 10.000503, 9.999749 
1.0049535e+3, 1.4451754e+2, -1463949.0, -1505884.1, -13833.244, 0.051488638, -0.049156804, -1459796.9, 63926.598, 0.00000474816, 10.000438, 9.999875 
1.0049684e+3, 1.5451768e+2, -1385825.4, -1412164.1, -21867.912, 0.019430296, -0.030335553, -1373467.5, 52253.254, 0.000000004412824, 10.000277, 9.999924 
1.00498326e+3, 1.6451715e+2, -1352001.6, -1430760.3, -18875.223, -0.010425434, -0.03667181, -1347711.8, -19985.717, 0.0, 10.000205, 9.999158 
1.0049983e+3, 1.7451586e+2, -1246129.1, -1328786.6, 3708.3838, -0.025363142, -0.08339711, -1245963.0, -16222.468, 0.0, 10.000259, 9.999157 
1.0050132e+3, 1.845152e+2, -1112049.9, -1172585.3, 2184.9902, -0.02877481, -0.07971791, -1111971.1, 19776.766, 0.0, 10.000329, 9.999524 
1.00502804e+3, 1.9451533e+2, -997599.56, -1060995.8, -6427.5977, -0.023493556, -0.024155475, -996954.44, 36791.91, 0.0, 10.000418, 9.999575 
1.0050432e+3, 2.0451492e+2, -925474.9, -1018658.44, 12599.895, -0.01666315, -0.0028106296, -923801.25, 11949.162, 0.0, 10.000426, 9.999188 
1.00505866e+3, 2.1451384e+2, -838668.1, -924461.4, 16271.608, -0.0061687906, -0.03314272, -835685.7, 2075.4436, 0.0, 10.000343, 9.999203 
1.0050742e+3, 2.2451283e+2, -768780.3, -876932.94, 29461.377, 0.005613637, -0.03602769, -761275.6, -21503.906, 0.0, 10.00031, 9.998872 
1.0050899e+3, 2.3451191e+2, -664997.2, -774325.9, 36391.383, 0.017931119, -0.018055731, -653991.75, -12209.568, 0.0, 10.000341, 9.998888 
1.0051052e+3, 2.4451093e+2, -549752.56, -655422.1, 29507.744, 0.003468065, -0.007640644, -542071.06, 1720.8641, 0.0, 10.000406, 9.999001 
1.0051201e+3, 2.5450993e+2, -433568.28, -543924.94, 19657.805, -0.043803558, -0.015083262, -430171.2, 15629.48, 0.0, 10.000512, 9.999041 
1.00513555e+3, 2.645087e+2, -366601.63, -496992.66, 25248.736, -0.045624435, -0.022560237, -361883.22, -14071.168, 0.0, 10.000455, 9.998718 
1.00515164e+3, 2.7450725e+2, -308340.66, -416271.06, 27018.865, 0.0065688384, -0.041102104, -301954.72, -52128.035, 0.0, 10.000172, 9.998736 
1.0051673e+3, 2.845062e+2, -220790.4, -325009.16, 17567.73, 0.020673338, -0.019781273, -217908.77, -66070.375, 0.0, 10.000107, 9.998722 
1.00518234e+3, 2.9450557e+2, -87828.22, -206010.97, 5714.124, -0.009316692, 0.039054394, -87552.586, -33706.08, 0.0, 10.000329, 9.998759 
1.0051975e+3, 3.0450454e+2, 1901.6211, -88916.8, 6522.867, -0.030984433, 0.044404853, 2367.722, 2367.722, 0.0, 10.0004, 9.999196 
1.0052126e+3, 3.1450412e+2, -16396.262, -87472.82, 24146.092, -0.04029092, 0.07763437, -8969.402, -8969.402, 0.0, 10.000226, 9.999289 
1.0149215e+3, 1.2450224e+2, -1676809.6, -1755251.1, -38638.996, -0.021164, -0.082161434, -1660973.6, 58897.023, 0.0001798155, 10.000517, 9.999474 
1.0149379e+3, 1.3450229e+2, -1561016.3, -1617066.8, 28125.576, 0.00083824224, -0.055291213, -1549336.8, 72535.0, 0.000062927356, 10.000501, 9.999759 
1.01495355e+3, 1.445022e+2, -1479374.0, -1538257.0, -20044.684, 0.005725765, -0.03038106, -1473198.3, 50675.32, 0.000007860604, 10.000437, 9.999654 
1.0149688e+3, 1.5450181e+2, -1402539.8, -1447369.6, -27514.787, 0.028833803, -0.039335087, -1389465.4, 36412.418, 0.000000028517778, 10.0002775, 9.999682 
1.0149837e+3, 1.6450141e+2, -1311401.3, -1347274.9, -18442.568, 0.01651618, -0.04616036, -1303611.5, 24270.14, 0.0, 10.000207, 9.99973 
1.01499856e+3, 1.7450105e+2, -1202536.9, -1238279.6, 5722.0957, -0.026974045, -0.06198996, -1201643.3, 28241.807, 0.0, 10.000258, 9.99978 
1.01501346e+3, 1.8450072e+2, -1122981.4, -1194983.0, 3873.9036, -0.03485725, -0.05144524, -1122773.6, 9114.968, 0.0, 10.000327, 9.9993725 
1.01502866e+3, 1.9450045e+2, -1011266.9, -1088952.6, -3470.6682, -0.002483838, -0.019340249, -1011112.1, 22780.19, 0.0, 10.000415, 9.999385 
1.0150438e+3, 2.0449978e+2, -920037.25, -1006917.44, 8092.9297, -0.00011184036, -0.016340189, -919289.8, 16609.46, 0.0, 10.000423, 9.999271 
1.0150587e+3, 2.1449868e+2, -832351.56, -910894.2, 12865.519, -0.032169294, -0.056983713, -830297.9, 7612.0234, 0.0, 10.0003395, 9.999298 
1.01507425e+3, 2.2449794e+2, -755618.5, -848093.25, 28810.707, -0.028019974, -0.04732745, -747376.94, -7459.512, 0.0, 10.000303, 9.999073 
1.0150903e+3, 2.3449764e+2, -650858.06, -744261.44, 37696.023, 0.020272985, 0.009638213, -637542.75, 4378.7847, 0.0, 10.000338, 9.999097 
1.01510584e+3, 2.4449667e+2, -565417.8, -686950.0, 32340.87, 0.022090403, 0.021209996, -557347.5, -13416.111, 0.0, 10.000401, 9.998787 
1.01512074e+3, 2.5449494e+2, -450906.72, -578413.3, 24324.36, -0.032479305, -0.032463573, -446423.97, -475.92276, 0.0, 10.0005045, 9.998809 
1.015136e+3, 2.644936e+2, -364309.3, -489987.22, 15721.337, -0.04705218, -0.04239153, -362372.53, -14411.46, 0.0, 10.000443, 9.998772 
1.0151516e+3, 2.744928e+2, -302162.66, -405407.66, 18481.258, -0.01228901, -0.0070697595, -298954.16, -48984.777, 0.0, 10.000179, 9.998807 
1.01516716e+3, 2.8449178e+2, -235314.88, -358783.9, 25422.367, 0.00034062003, 0.027937472, -230285.28, -78304.64, 0.0, 10.00012, 9.998485 
1.0151826e+3, 2.9449052e+2, -108495.91, -244967.86, 16488.193, -0.015328569, 0.049699567, -106532.11, -52536.375, 0.0, 10.00031, 9.998502 
1.0151978e+3, 3.0448934e+2, 36283.914, -10665.312, 2086.5762, -0.035938397, 0.027497457, 36376.465, 36376.465, 0.0, 10.000371, 9.999746 
1.0152126e+3, 3.1448916e+2, 24326.473, -645.5862, 21205.867, -0.060765684, 0.022409828, 36449.176, 36449.176, 0.0, 10.000218, 9.999887 
1.0249221e+3, 1.2448667e+2, -1689762.5, -1761895.0, -36223.49, -0.0074858572, -0.08984916, -1674712.1, 45309.684, 0.00022439056, 10.000432, 9.999467 
1.02493845e+3, 1.3448662e+2, -1561203.3, -1618515.5, 26430.54, 0.0026718369, -0.072161324, -1550875.5, 71148.48, 0.0000828242, 10.000504, 9.999747 
1.02495365e+3, 1.4448644e+2, -1472105.1, -1536117.6, -19629.416, -0.026312826, -0.055992883, -1466565.3, 57461.957, 0.000012107546, 10.000491, 9.999643 
1.024969e+3, 1.544862e+2, -1393881.3, -1443631.3, -12034.338, 0.017423145, -0.050144166, -1391123.1, 34907.69, 0.00000009714164, 10.00034, 9.999677 
1.024984e+3, 1.6448605e+2, -1283526.5, -1306456.9, 4127.9263, 0.019421263, -0.04284491, -1282806.0, 45226.426, 0.0, 10.000282, 9.999973 
1.0249989e+3, 1.7448606e+2, -1172193.6, -1195642.1, -137.36969, -0.015875977, -0.047065653, -1172192.9, 57838.684, 0.0, 10.000345, 10.0000305 
1.0250139e+3, 1.8448582e+2, -1117603.6, -1189407.3, -9711.422, -0.019610655, -0.04066267, -1116313.3, 15720.553, 0.0, 10.000351, 9.999398 
1.0250292e+3, 1.9448534e+2, -1025453.0, -1093795.1, -3142.7214, 0.009955639, -0.03070296, -1025308.75, 8731.075, 0.0, 10.00031, 9.999401 
1.0250442e+3, 2.0448467e+2, -939006.1, -1018144.5, 12129.113, 0.012457391, -0.028453419, -937188.94, -1141.6912, 0.0, 10.000303, 9.999251 
1.0250592e+3, 2.1448378e+2, -832967.94, -913584.7, 6653.694, -0.017267767, -0.045139443, -832422.44, 5633.781, 0.0, 10.000347, 9.999275 
1.0250746e+3, 2.2448312e+2, -744478.7, -830250.6, 15589.323, -0.021322163, -0.032993145, -741733.2, -1670.0973, 0.0, 10.000326, 9.999184 
1.0250904e+3, 2.344827e+2, -658712.44, -734425.0, 16478.852, 0.005363385, 0.004005223, -655281.3, -13214.108, 0.0, 10.000228, 9.999216 
1.0251061e+3, 2.4448177e+2, -596265.25, -709074.06, 18376.865, 0.013909576, 0.013407012, -593347.06, -49270.16, 0.0, 10.000222, 9.998719 
1.0251214e+3, 2.5448015e+2, -483338.97, -603084.56, 19824.467, 0.000048458915, -0.023264484, -480142.25, -34048.645, 0.0, 10.00032, 9.998727 
1.0251367e+3, 2.6447886e+2, -367906.0, -489870.38, 9906.358, -0.014327084, -0.024903083, -367106.6, -18999.998, 0.0, 10.000411, 9.998788 
1.02515176e+3, 2.7447802e+2, -255554.45, -379765.34, 6260.055, -0.029214974, 0.007999049, -255239.75, -5125.052, 0.0, 10.000489, 9.998832 
1.0251671e+3, 2.8447688e+2, -186657.67, -335166.75, 22723.117, -0.031832844, 0.025994988, -183258.64, -31131.73, 0.0, 10.000456, 9.998484 
1.0251828e+3, 2.9447523e+2, -113032.81, -247243.08, 31844.338, -0.019556168, 0.012337072, -105860.35, -51715.91, 0.0, 10.00028, 9.998499 
1.0251981e+3, 3.0447406e+2, 15919.442, -18763.074, 11486.21, -0.026400292, -0.013496409, 19378.479, 19378.479, 0.0, 10.000225, 9.999761 
1.02521285e+3, 3.1447402e+2, 34944.793, 3768.3442, -16506.912, -0.0560028, -0.0023359947, 42060.555, 42060.555, 0.0, 10.000294, 9.999883 
1.0349222e+3, 1.244712e+2, -1693633.0, -1768930.0, -33613.004, -0.034594506, -0.093169674, -1680811.3, 39360.516, 0.00027553758, 10.000428, 9.999419 
1.034939e+3, 1.3447058e+2, -1564368.0, -1625042.0, 30357.7, 0.009143931, -0.12788592, -1551787.4, 70392.24, 0.000106410545, 10.000503, 9.999703 
1.034954e+3, 1.4447033e+2, -1457865.6, -1506850.4, -25423.129, -0.05079407, -0.12449094, -1447056.3, 77127.21, 0.000017580353, 10.000491, 9.999845 
1.034969e+3, 1.5447086e+2, -1377914.8, -1410357.4, -17234.572, -0.017925972, -0.063646436, -1370468.4, 55710.977, 0.00000023822265, 10.0003395, 9.999906 
1.03498414e+3, 1.6447109e+2, -1289278.4, -1319359.0, 4831.0537, -0.005312627, -0.02862884, -1288521.6, 39656.223, 0.0, 10.000285, 9.999885 
1.0349994e+3, 1.7447092e+2, -1179818.5, -1211757.8, 2283.3777, 0.0031934031, -0.03882463, -1179656.1, 50523.445, 0.0, 10.000346, 9.999921 
1.0350146e+3, 1.8447058e+2, -1104070.0, -1161480.8, -12606.71, 0.010908808, -0.04562143, -1101423.6, 30759.299, 0.0, 10.000351, 9.999591 
1.03502944e+3, 1.9447011e+2, -1011067.44, -1063413.5, -5278.2964, 0.011423152, -0.056559384, -1010540.5, 23647.69, 0.0, 10.000307, 9.999612 
1.0350446e+3, 2.0446964e+2, -948450.7, -1036724.44, 11782.908, 0.017968021, -0.03906196, -946904.94, -10711.236, 0.0, 10.0002985, 9.999126 
1.0350601e+3, 2.1446918e+2, -843178.44, -934285.9, 7953.095, 0.034373946, 0.00003843735, -842489.4, -4289.4976, 0.0, 10.000343, 9.999135 
1.0350753e+3, 2.244684e+2, -743299.06, -827202.8, 10544.893, 0.021022016, 0.006936048, -741994.06, -1785.978, 0.0, 10.000322, 9.999207 
1.03509024e+3, 2.3446724e+2, -656561.44, -730199.2, 12866.006, -0.029485706, -0.03409112, -654378.2, -12159.705, 0.0, 10.000227, 9.999246 
1.0351058e+3, 2.4446626e+2, -592087.4, -699483.44, 21145.055, -0.024966119, -0.0325503, -588074.1, -43845.895, 0.0, 10.000217, 9.998788 
1.0351222e+3, 2.544655e+2, -478028.6, -592844.7, 24691.129, 0.049048547, 0.010361124, -472943.97, -26706.84, 0.0, 10.000322, 9.998797 
1.0351377e+3, 2.6446444e+2, -371144.9, -496803.53, 12979.519, 0.047785863, 0.03055675, -369818.22, -21570.037, 0.0, 10.000411, 9.998741 
1.0351521e+3, 2.7446306e+2, -260775.03, -388293.66, 10308.843, -0.048129417, 0.010199154, -259947.02, -9685.058, 0.0, 10.000478, 9.99878 
1.0351671e+3, 2.8446147e+2, -171378.89, -300235.84, 16814.73, -0.07995345, -0.021205068, -169220.86, -16943.93, 0.0, 10.000442, 9.99873 
1.035183e+3, 2.9445973e+2, -92869.62, -206667.11, 27897.688, -0.029314796, -0.07490066, -86398.43, -32105.52, 0.0, 10.000285, 9.9987755 
1.0351985e+3, 3.0445862e+2, -18220.293, -93489.63, 15004.989, -0.010087494, -0.08154188, -15339.31, -15339.31, 0.0, 10.000238, 9.999242 
1.0352134e+3, 3.1445876e+2, -8102.577, -82682.734, -9820.306, -0.03514924, 0.0053532696, -6831.1675, -6831.1675, 0.0, 10.000279, 9.999296 
1.04492284e+3, 1.2445542e+2, -1658040.9, -1744173.9, -44173.895, -0.034807514, -0.10890082, -1639414.1, 80912.56, 0.0003338259, 10.000635, 9.99949 
1.04493946e+3, 1.3445513e+2, -1592286.0, -1630556.1, 22468.611, 0.021836825, -0.11889516, -1581908.5, 40423.03, 0.00013404706, 10.000276, 9.999775 
1.0449541e+3, 1.4445497e+2, -1495150.4, -1507694.0, -22482.246, -0.062573, -0.1163536, -1478081.5, 46252.402, 0.000024406929, 10.000164, 9.999995 
1.0449693e+3, 1.5445547e+2, -1372016.3, -1390875.6, -22658.64, -0.012764062, -0.07419276, -1356903.5, 69425.6, 0.0000004785213, 10.000306, 10.000056 
1.04498446e+3, 1.6445561e+2, -1292121.0, -1338229.0, -4757.3906, 0.0064276853, -0.04860561, -1291635.3, 36692.977, 0.0, 10.00034, 9.999728 
1.0449997e+3, 1.744553e+2, -1202663.6, -1241441.3, -13455.856, 0.009510133, -0.054610685, -1198451.9, 31880.447, 0.0, 10.000271, 9.999752 
1.04501486e+3, 1.8445502e+2, -1114824.5, -1156487.5, -33615.586, 0.0128855435, -0.05247664, -1096109.1, 36226.77, 0.0, 10.000236, 9.999679 
1.0450297e+3, 1.9445479e+2, -1011758.4, -1052246.9, -35218.797, 0.008094159, -0.04869725, -991380.06, 42958.45, 0.0, 10.000254, 9.999713 
1.04504496e+3, 2.044544e+2, -948180.06, -1030433.8, -12766.722, 0.020338597, -0.029800618, -946244.06, -9901.209, 0.0, 10.000275, 9.99918 
1.0450605e+3, 2.1445388e+2, -844851.4, -929010.6, -3498.235, 0.055856265, -0.0039147744, -844706.25, -6356.8184, 0.0, 10.000308, 9.9991865 
1.04507595e+3, 2.24453e+2, -742066.0, -835874.1, 2517.7036, 0.04978369, -0.003350464, -741998.44, -1640.179, 0.0, 10.000372, 9.999124 
1.04509085e+3, 2.3445177e+2, -627256.4, -726411.56, -6269.882, -0.008738438, -0.04344105, -626861.5, 15508.42, 0.0, 10.000472, 9.999153 
1.0451062e+3, 2.4445081e+2, -545821.6, -661095.06, -121.03991, -0.02015694, -0.042571235, -545821.5, -1442.0332, 0.0, 10.000465, 9.998932 
1.0451223e+3, 2.544502e+2, -467415.4, -569277.9, 8213.579, 0.026891056, -0.0010032816, -466757.34, -20371.078, 0.0, 10.000318, 9.99896 
1.0451378e+3, 2.644492e+2, -388624.34, -508892.44, 5917.409, 0.026379202, 0.02048632, -388333.9, -39937.34, 0.0, 10.000309, 9.998706 
1.0451527e+3, 2.744478e+2, -264218.0, -395206.34, 3002.5327, -0.033972804, 0.0028389387, -264149.22, -13737.811, 0.0, 10.000477, 9.998733 
1.0451678e+3, 2.8444633e+2, -150505.77, -274308.63, -1648.5222, -0.05465011, -0.019863432, -150483.83, 1941.4642, 0.0, 10.000517, 9.998872 
1.0451835e+3, 2.9444492e+2, -69945.32, -178052.0, -3111.308, -0.022526708, -0.056160007, -69855.85, -15418.499, 0.0, 10.000368, 9.998931 
1.0451989e+3, 3.0444375e+2, -16654.021, -113406.3, -578.86316, -0.008222668, -0.069299735, -16650.559, -16650.559, 0.0, 10.0003395, 9.999055 
1.0452139e+3, 3.1444326e+2, 6227.2295, -99563.516, 441.45496, -0.022081038, -0.025309967, 6229.0713, 6229.0713, 0.0, 10.000481, 9.999083 
1.0549236e+3, 1.24439366e+2, -1643383.5, -1713396.4, -50149.297, -0.02513922, -0.14104037, -1617231.1, 103255.32, 0.00039971265, 10.000633, 9.999703 
1.0549399e+3, 1.3444033e+2, -1577654.5, -1600970.9, 10169.721, 0.038904034, -0.044145174, -1573842.1, 48636.684, 0.00016604259, 10.0002775, 9.999978 
1.0549542e+3, 1.4444046e+2, -1488130.8, -1494284.3, -18167.982, -0.06510532, -0.030539414, -1472780.9, 51696.805, 0.000032768716, 10.000168, 10.000086 
1.0549701e+3, 1.544401e+2, -1367717.9, -1380839.1, -16828.871, 0.02781836, -0.080653384, -1356216.1, 70263.04, 0.0000008393984, 10.0003, 10.000128 
1.0549852e+3, 1.6443971e+2, -1308656.8, -1372428.8, -8207.269, 0.04819016, -0.09997213, -1307617.4, 20865.398, 0.0, 10.000339, 9.999495 
1.055e+3, 1.7443928e+2, -1219713.3, -1276924.8, -16145.324, 0.0007560358, -0.09358953, -1215471.5, 15017.735, 0.0, 10.000271, 9.999509 
1.0550149e+3, 1.8443917e+2, -1115709.0, -1158602.0, -34467.23, -0.01684034, -0.06221252, -1096560.6, 35931.42, 0.0, 10.000236, 9.999665 
1.0550298e+3, 1.9443941e+2, -1011756.06, -1052479.3, -34749.16, -0.003616295, -0.009699159, -991842.4, 42648.05, 0.0, 10.000254, 9.999712 
1.0550452e+3, 2.0443906e+2, -932682.75, -998188.3, -13022.877, 0.015421174, -0.0003267449, -930188.7, 6305.3096, 0.0, 10.000274, 9.999402 
1.0550608e+3, 2.1443793e+2, -828777.1, -895183.56, -2383.0708, 0.04453153, -0.055068683, -828691.7, 9812.342, 0.0, 10.000305, 9.999421 
1.0550764e+3, 2.2443701e+2, -756053.9, -864156.75, 4846.5527, 0.060864016, -0.06370299, -755837.06, -15323.863, 0.0, 10.000367, 9.998932 
1.0550919e+3, 2.3443633e+2, -642120.8, -757713.9, -2079.501, 0.062103264, -0.026367355, -642083.44, 437.75208, 0.0, 10.000473, 9.998939 
1.0551072e+3, 2.4443546e+2, -531203.4, -630649.3, -5481.705, 0.02334009, -0.016731735, -530902.1, 13628.034, 0.0, 10.0004635, 9.999143 
1.0551217e+3, 2.544343e+2, -450807.2, -534795.4, 3417.1343, -0.06577826, -0.053757884, -450668.4, -4127.991, 0.0, 10.000316, 9.999198 
1.0551371e+3, 2.6443323e+2, -390267.75, -511357.34, 11387.438, -0.078219354, -0.0540729, -389206.16, -40654.797, 0.0, 10.000304, 9.998692 
1.0551535e+3, 2.7443227e+2, -266366.3, -399525.13, 11262.722, 0.00471714, -0.017683031, -265420.4, -14857.456, 0.0, 10.000475, 9.998704 
1.0551692e+3, 2.844315e+2, -150121.17, -272927.84, -5589.1284, 0.033454183, 0.025356188, -149867.33, 2704.623, 0.0, 10.000513, 9.998883 
1.0551839e+3, 2.9443085e+2, -70182.01, -177400.58, -6889.0464, -0.0031487923, 0.06590673, -69741.18, -15163.631, 0.0, 10.000361, 9.998939 
1.055199e+3, 3.0442944e+2, -7845.813, -93570.37, 4040.2244, -0.022659821, 0.022380427, -7655.817, -7655.817, 0.0, 10.000333, 9.999195 
1.0552143e+3, 3.1442755e+2, 16839.197, -76178.36, 9696.177, -0.028501438, -0.09185979, 17839.18, 17839.18, 0.0, 10.000474, 9.999247 
1.0649241e+3, 1.2442457e+2, -1667517.9, -1737437.3, -3106.0688, -0.026393555, -0.097101085, -1667380.3, 53253.035, 0.00047318285, 10.000526, 9.999588 
1.06494054e+3, 1.3442521e+2, -1548838.5, -1604064.0, 17161.81, 0.063453756, -0.017848298, -1543939.9, 78688.78, 0.00020250746, 10.000547, 9.999827 
1.0649546e+3, 1.4442508e+2, -1436473.3, -1473397.4, -21460.123, -0.06198757, -0.020332474, -1426626.5, 98003.27, 0.000042863663, 10.00054, 10.00005 
1.0649705e+3, 1.544247e+2, -1349262.1, -1374557.8, -30098.463, 0.031191317, -0.069511406, -1329262.0, 97369.125, 0.0000013547858, 10.000442, 10.000101 
1.0649856e+3, 1.6442432e+2, -1303913.1, -1360527.3, -16047.699, 0.048132952, -0.09012917, -1299680.6, 28953.701, 0.0, 10.000334, 9.999577 
1.06500015e+3, 1.7442393e+2, -1218839.0, -1266565.6, -81.06661, -0.0069989627, -0.089344494, -1218838.9, 11801.014, 0.0, 10.000235, 9.999597 
1.06501505e+3, 1.8442374e+2, -1119339.3, -1168083.1, 569.0857, -0.017361043, -0.06490218, -1119332.6, 13310.25, 0.0, 10.000245, 9.999595 
1.0650304e+3, 1.9442385e+2, -993706.06, -1052470.8, -6467.1353, 0.019589694, -0.019063821, -993002.75, 41639.72, 0.0, 10.000417, 9.999633 
1.0650457e+3, 2.044234e+2, -895836.4, -979632.8, 2998.195, 0.034944948, -0.015137739, -895729.2, 40917.582, 0.0, 10.000524, 9.999409 
1.065061e+3, 2.1442226e+2, -791438.25, -875994.5, -4560.378, 0.025444547, -0.07384615, -791193.0, 47463.89, 0.0, 10.000556, 9.999432 
1.0650765e+3, 2.2442137e+2, -730887.25, -850844.4, 1496.016, 0.034854632, -0.08043508, -730868.6, 9797.036, 0.0, 10.000536, 9.998941 
1.0650925e+3, 2.3442082e+2, -644055.1, -756911.25, 9596.717, 0.067828946, -0.032318737, -643244.9, -572.3453, 0.0, 10.000454, 9.998953 
1.0651078e+3, 2.4441998e+2, -536178.94, -633425.06, 6472.343, 0.04431414, -0.017789522, -535750.06, 8931.115, 0.0, 10.000433, 9.999138 
1.0651223e+3, 2.544188e+2, -425037.8, -522985.06, -4076.3306, -0.050430845, -0.058574505, -424868.44, 21823.662, 0.0, 10.000496, 9.999192 
1.0651376e+3, 2.6441768e+2, -360581.38, -485235.78, 247.11156, -0.072630845, -0.06597234, -360580.88, -11877.621, 0.0, 10.000455, 9.998798 
1.0651538e+3, 2.7441677e+2, -290524.4, -397845.78, 8556.389, -0.004091473, -0.038951755, -289846.5, -39132.324, 0.0, 10.000252, 9.998822 
1.0651696e+3, 2.844161e+2, -191261.86, -300807.25, -1247.155, 0.021494942, 0.014554321, -191247.66, -38525.438, 0.0, 10.000267, 9.99881 
1.0651845e+3, 2.944157e+2, -43477.918, -173893.97, -10212.497, -0.0054352675, 0.088291086, -42683.055, 12043.694, 0.0, 10.0005865, 9.998853 
1.06519945e+3, 3.0441436e+2, 39751.246, -52627.555, -9423.111, -0.018130707, 0.048499554, 40702.652, 40702.652, 0.0, 10.000582, 9.999356 
1.0652147e+3, 3.144125e+2, -27944.467, -77785.31, -8276.223, -0.015748195, -0.07953832, -26606.113, -26606.113, 0.0, 10.000082, 9.999424 
1.0749245e+3, 1.2441118e+2, -1701357.8, -1807115.0, 9442.8125, -0.051844195, 0.027054505, -1700521.3, 20244.248, 0.00055371417, 10.000525, 9.999109 
1.0749414e+3, 1.3440983e+2, -1586879.1, -1681143.5, 19361.8, 0.09067644, -0.040074777, -1583057.3, 39722.938, 0.00024334127, 10.00054, 9.999302 
1.0749552e+3, 1.4440891e+2, -1448502.1, -1498041.6, -24903.639, -0.059639525, -0.085650526, -1438147.4, 86642.33, 0.00005483326, 10.000537, 9.999883 
1.07497044e+3, 1.5440935e+2, -1358239.5, -1394174.3, -33457.348, -0.005814113, -0.040131897, -1338230.4, 88554.24, 0.000002073113, 10.000445, 9.999966 
1.0749855e+3, 1.644095e+2, -1274889.0, -1301834.3, -21114.543, 0.0022493477, -0.019528512, -1263315.0, 65467.34, 0.0000000000166348, 10.0003395, 9.999977 
1.07500024e+3, 1.744093e+2, -1189107.4, -1204669.3, -3707.9434, -0.017493455, -0.042839002, -1188269.0, 42514.6, 0.0, 10.000233, 10.000023 
1.0750155e+3, 1.8440887e+2, -1128966.1, -1187707.4, 4924.3, 0.005501361, -0.05887359, -1128556.1, 4231.2505, 0.0, 10.000242, 9.999462 
1.0750314e+3, 1.944082e+2, -1005931.6, -1077237.0, -324.46384, 0.07408919, -0.074479215, -1005930.1, 28863.803, 0.0, 10.000413, 9.999465 
1.07504666e+3, 2.0440751e+2, -910959.9, -1010549.2, 2836.9045, 0.07532532, -0.073481984, -910879.1, 25921.564, 0.0, 10.000521, 9.999199 
1.07506126e+3, 2.1440686e+2, -806488.3, -907115.6, -3664.7793, -0.0043603177, -0.06257462, -806355.06, 32452.691, 0.0, 10.000554, 9.99922 
1.0750764e+3, 2.2440611e+2, -716825.56, -821393.6, -2843.7483, -0.030838259, -0.054024242, -716748.3, 24067.07, 0.0, 10.000533, 9.9991455 
1.07509226e+3, 2.3440525e+2, -628342.1, -723881.5, 6755.6875, 0.008432993, -0.059583586, -627866.8, 14956.826, 0.0, 10.000451, 9.999182 
1.0751081e+3, 2.4440442e+2, -551644.6, -664869.1, 7837.4043, 0.040043373, -0.046050172, -551104.7, -6272.456, 0.0, 10.000429, 9.998924 
1.0751239e+3, 2.5440365e+2, -442446.88, -558705.56, -680.187, 0.06258542, -0.01963014, -442442.9, 4398.392, 0.0, 10.000493, 9.998949 
1.07513905e+3, 2.6440263e+2, -346243.0, -454652.53, -6165.691, 0.033794414, -0.018157836, -345893.47, 2958.6064, 0.0, 10.000451, 9.999011 
1.0751534e+3, 2.7440128e+2, -273359.56, -362429.75, 2232.6255, -0.059735842, -0.059261657, -273303.66, -22438.893, 0.0, 10.000252, 9.999067 
1.0751687e+3, 2.8440022e+2, -202087.36, -322491.3, 9104.941, -0.08751841, -0.048453007, -201402.73, -48527.082, 0.0, 10.000262, 9.998663 
1.0751847e+3, 2.9439956e+2, -56161.207, -198481.55, 4383.4473, -0.034751717, 0.014985191, -56026.324, -1142.0447, 0.0, 10.000578, 9.998689 
1.0752003e+3, 3.043986e+2, 49230.89, -31157.768, -24563.744, -0.001155172, 0.010749681, 56142.418, 56142.418, 0.0, 10.000573, 9.999508 
1.0752151e+3, 3.1439814e+2, -14596.833, -52232.824, -24198.877, 0.0075443606, 0.009394379, -2760.2593, -2760.2593, 0.0, 10.000091, 9.999596 
1.0849253e+3, 1.243962e+2, -1634489.8, -1765347.8, -16077.796, -0.034866925, 0.037873883, -1632543.4, 88369.68, 0.00064071716, 10.000945, 9.999193 
1.0849419e+3, 1.3439469e+2, -1596876.3, -1678607.8, 21267.627, 0.093786806, -0.05127737, -1591673.4, 31254.762, 0.00028839763, 10.000442, 9.999367 
1.0849553e+3, 1.4439367e+2, -1502955.4, -1543075.1, 13981.091, -0.085349165, -0.1025869, -1498563.9, 26374.637, 0.00006873226, 10.000248, 9.999711 
1.0849708e+3, 1.5439412e+2, -1378347.6, -1425271.9, -1279.5209, -0.009277136, -0.034978442, -1378312.8, 48621.55, 0.0000030594845, 10.000401, 9.999773 
1.08498596e+3, 1.6439432e+2, -1255611.3, -1296202.8, -8126.0405, 0.014420999, 0.00080738135, -1254044.9, 74887.45, 0.000000000186287, 10.000487, 9.999944 
1.08500086e+3, 1.7439416e+2, -1151472.6, -1188712.3, -26338.068, 0.003234713, -0.014298296, -1137837.4, 93095.67, 0.0, 10.000504, 10.000001 
1.0850161e+3, 1.8439367e+2, -1088893.4, -1162592.9, -23829.316, 0.024898037, -0.038705572, -1081859.9, 51077.082, 0.0, 10.000494, 9.999512 
1.08503185e+3, 1.9439274e+2, -994298.44, -1065341.5, -13233.833, 0.07667433, -0.0849004, -991913.3, 43031.664, 0.0, 10.000466, 9.99952 
1.0850471e+3, 2.04392e+2, -928138.6, -1031387.44, 2220.2173, 0.07533042, -0.08859291, -928090.9, 8861.371, 0.0, 10.000458, 9.999085 
1.0850619e+3, 2.1439151e+2, -825727.75, -930085.56, 868.5031, 0.010519138, -0.04850814, -825720.5, 13237.981, 0.0, 10.000483, 9.999096 
1.085077e+3, 2.2439076e+2, -718312.7, -813790.7, -1093.5931, -0.017888764, -0.036325887, -718300.2, 22665.94, 0.0, 10.000487, 9.99922 
1.08509265e+3, 2.3438969e+2, -618741.8, -709643.2, -4345.9736, -0.0028055934, -0.07081021, -618534.5, 24440.96, 0.0, 10.000475, 9.999268 
1.0851084e+3, 2.443888e+2, -559836.1, -676725.3, -3091.913, 0.024253085, -0.06418029, -559754.4, -14769.873, 0.0, 10.000406, 9.998854 
1.08512424e+3, 2.5438818e+2, -482473.75, -586463.4, -1001.92444, 0.067389965, -0.015833057, -482464.13, -35471.09, 0.0, 10.000256, 9.998873 
1.0851395e+3, 2.6438728e+2, -366450.72, -453954.53, -937.2568, 0.041066524, -0.0013848065, -366440.7, -17438.127, 0.0, 10.000269, 9.999103 
1.0851537e+3, 2.7438605e+2, -228170.9, -329453.53, -3823.36, -0.07351317, -0.041127805, -228026.78, 22986.434, 0.0, 10.000514, 9.9991665 
1.0851688e+3, 2.8438485e+2, -169236.34, -313212.28, -377.00223, -0.108038895, -0.048795816, -169235.36, -16210.092, 0.0, 10.000516, 9.998605 
1.085185e+3, 2.943837e+2, -122699.62, -238490.14, -905.92084, -0.040599287, -0.027619218, -122692.53, -67653.6, 0.0, 10.000155, 9.998618 
1.0852007e+3, 3.043826e+2, -8271.297, -62307.703, -27810.943, 0.0048018848, -0.038959, 3484.6133, 3484.6133, 0.0, 10.000194, 9.999476 
1.0852156e+3, 3.1438282e+2, 86075.7, -4709.486, -44019.098, 0.020724552, 0.028902419, 103914.18, 103914.18, 0.0, 10.000787, 9.999585 
1.09492674e+3, 1.24379605e+2, -1587595.1, -1666521.6, -17453.531, 0.017270502, -0.07015474, -1583907.9, 137168.19, 0.000734217, 10.000939, 9.999874 
1.094942e+3, 1.3437985e+2, -1549151.6, -1580669.0, 3658.9636, 0.06848632, -0.05023064, -1548732.4, 74339.12, 0.00033773432, 10.000444, 10.000038 
1.094955e+3, 1.4437944e+2, -1515088.8, -1568656.1, 18380.332, -0.1452696, -0.06900416, -1509388.5, 15686.606, 0.0000845864, 10.00025, 9.999535 
1.0949715e+3, 1.5437911e+2, -1396980.9, -1462774.8, 5322.5137, 0.01652275, -0.054372128, -1396553.1, 30526.545, 0.0000043925156, 10.000395, 9.999518 
1.0949871e+3, 1.6437887e+2, -1289058.0, -1365463.3, -8261.228, 0.079466395, -0.028655855, -1288174.9, 40908.8, 0.0000000006358386, 10.000485, 9.99947 
1.09500185e+3, 1.7437863e+2, -1185447.0, -1259729.0, -25684.152, 0.052067246, -0.0027780626, -1177431.3, 53656.023, 0.0, 10.0005045, 9.999513 
1.09501675e+3, 1.843782e+2, -1072812.3, -1129181.6, -26331.203, 0.03609201, -0.0050337063, -1062426.1, 70665.11, 0.0, 10.000494, 9.999742 
1.0950317e+3, 1.9437754e+2, -975060.1, -1025023.5, -14695.328, 0.024975121, -0.052261733, -971058.4, 64036.92, 0.0, 10.000464, 9.999799 
1.09504715e+3, 2.0437689e+2, -929751.5, -1034535.5, 1276.1302, 0.03178662, -0.060896907, -929736.0, 7365.019, 0.0, 10.000455, 9.999066 
1.095063e+3, 2.1437626e+2, -829117.2, -936595.8, 1807.269, 0.06532784, -0.030752338, -829086.8, 10021.784, 0.0, 10.000479, 9.999054 
1.0950784e+3, 2.2437538e+2, -722873.56, -822671.2, -3002.4097, 0.06767872, -0.026518162, -722783.3, 18334.121, 0.0, 10.000484, 9.999161 
1.0950935e+3, 2.343742e+2, -623245.0, -718521.9, -4685.615, 0.029028688, -0.06722321, -623015.1, 20112.68, 0.0, 10.000473, 9.999208 
1.09510854e+3, 2.4437319e+2, -555350.4, -667446.0, -8910.161, -0.0054455427, -0.07252932, -554646.56, -9508.856, 0.0, 10.000405, 9.9989195 
1.0951235e+3, 2.5437242e+2, -476795.63, -574843.7, -5943.235, -0.033619348, -0.045294736, -476436.7, -29289.855, 0.0, 10.000256, 9.998954 
1.0951388e+3, 2.643717e+2, -368587.5, -457875.5, 6951.654, -0.04958776, -0.014391823, -368049.5, -18895.156, 0.0, 10.000266, 9.999078 
1.0951544e+3, 2.7437112e+2, -231809.27, -334889.5, 7015.989, -0.05280719, 0.012561743, -231333.92, 19825.467, 0.0, 10.0005045, 9.999133 
1.0951699e+3, 2.8436998e+2, -170263.52, -313069.22, -11581.1455, -0.04848828, 0.010135687, -169330.4, -16159.46, 0.0, 10.0005045, 9.998611 
1.0951853e+3, 2.9436806e+2, -122246.2, -237343.53, -12391.14, -0.029729838, -0.042742044, -120927.31, -65736.5, 0.0, 10.000154, 9.998628 
1.0952008e+3, 3.0436638e+2, -23666.506, -93461.516, -8394.06, -0.0057580923, -0.10131094, -22671.168, -22671.168, 0.0, 10.000189, 9.999265 
1.0952163e+3, 3.1436664e+2, 70556.53, -32106.232, -17710.055, 0.015400235, -0.012150559, 73525.766, 73525.766, 0.0, 10.000766, 9.999408 
1.1049275e+3, 1.24363974e+2, -1618762.6, -1671949.3, 25560.02, 0.014792582, -0.11762721, -1608470.8, 112758.086, 0.00083503575, 10.000685, 9.999958 
1.1049428e+3, 1.3436493e+2, -1514798.6, -1559012.3, -24551.854, 0.077573925, -0.032986663, -1503867.5, 119350.36, 0.0003918232, 10.000655, 10.000087 
1.10495545e+3, 1.4436467e+2, -1466010.9, -1554025.6, -19818.957, -0.14527111, -0.03486269, -1461753.9, 63466.133, 0.000102570426, 10.000625, 9.9994545 
1.1049721e+3, 1.5436384e+2, -1390252.0, -1469167.4, -23239.93, 0.02581835, -0.062192228, -1383916.6, 43312.76, 0.0000061708192, 10.000485, 9.99943 
1.1049876e+3, 1.643633e+2, -1312593.5, -1389622.5, -15633.473, 0.09040662, -0.05445117, -1309541.6, 19694.707, 0.0000000015512864, 10.000383, 9.9993515 
1.1050022e+3, 1.7436306e+2, -1213298.1, -1286241.3, -6792.2495, 0.053238478, -0.01623417, -1212671.1, 18568.975, 0.0, 10.000371, 9.999394 
1.105017e+3, 1.8436271e+2, -1088809.3, -1144077.9, 267.56625, 0.024429807, -0.002296981, -1088808.0, 44435.78, 0.0, 10.000415, 9.999678 
1.105032e+3, 1.9436221e+2, -968222.94, -1028379.8, -14247.237, -0.0049142754, -0.027609179, -965019.3, 70227.734, 0.0, 10.000541, 9.999739 
1.1050474e+3, 2.0436159e+2, -895996.25, -1009363.2, -6979.4385, 0.0072255945, -0.033869952, -895568.2, 41684.3, 0.0, 10.000649, 9.999145 
1.1050636e+3, 2.143608e+2, -784742.0, -905313.9, 997.6236, 0.07488297, -0.027097756, -784733.75, 54526.92, 0.0, 10.000742, 9.999142 
1.1050792e+3, 2.243599e+2, -700453.1, -824253.5, -5652.6724, 0.08953048, -0.026621107, -700195.56, 41074.14, 0.0, 10.000692, 9.999049 
1.105094e+3, 2.343588e+2, -633532.7, -737549.9, -13767.999, 0.03518381, -0.045561887, -631741.2, 11538.489, 0.0, 10.0004635, 9.999082 
1.1051088e+3, 2.4435772e+2, -548500.44, -658660.44, -14324.701, -0.015245881, -0.052358437, -546668.2, -1378.233, 0.0, 10.00043, 9.998967 
1.1051237e+3, 2.543567e+2, -413042.25, -538111.9, -14471.399, -0.061426006, -0.056399845, -411389.63, 35910.902, 0.0, 10.000668, 9.999007 
1.105139e+3, 2.6435584e+2, -326273.88, -445206.53, -10079.259, -0.06842375, -0.042359017, -325425.75, 23883.58, 0.0, 10.00059, 9.999008 
1.10515505e+3, 2.743552e+2, -298821.75, -375861.53, -15342.668, -0.026293073, -0.0118585145, -295878.66, -44563.438, 0.0, 10.000083, 9.999056 
1.10517055e+3, 2.8435418e+2, -246144.0, -341739.84, -26610.81, -0.007930902, 0.0038099198, -239235.66, -85910.23, 0.0, 9.999951, 9.99868 
1.1051857e+3, 2.943527e+2, -90354.414, -213503.53, -23948.771, -0.017286548, -0.014699208, -85861.055, -30519.67, 0.0, 10.000337, 9.998702 
1.105201e+3, 3.0435097e+2, 11892.881, -81176.625, -5554.3037, -0.0151613755, -0.08343127, 12223.185, 12223.185, 0.0, 10.000455, 9.999221 
1.1052167e+3, 3.1435093e+2, -14074.847, -73604.18, -7635.2046, -0.0029119996, -0.017838068, -13111.159, -13111.159, 0.0, 10.000188, 9.999401 
1.11492746e+3, 1.24349385e+2, -1656614.5, -1749583.4, 46574.18, -0.052701615, -0.10708644, -1637296.6, 84074.18, 0.000944546, 10.000682, 9.999426 
1.1149437e+3, 1.3434996e+2, -1557307.1, -1647178.8, -23746.746, 0.11665671, 0.00032679268, -1551418.4, 71948.12, 0.00045159098, 10.000654, 9.999482 
1.1149565e+3, 1.4434941e+2, -1464125.9, -1550120.6, -24922.016, -0.08905326, -0.0002992583, -1457425.3, 67947.375, 0.00012308804, 10.000625, 9.999481 
1.1149724e+3, 1.5434836e+2, -1384871.0, -1458469.3, -28446.264, 0.013761878, -0.057003677, -1375158.1, 52224.76, 0.000008505592, 10.000487, 9.999503 
1.1149876e+3, 1.643477e+2, -1295768.4, -1355093.4, -18065.998, 0.040409423, -0.07573904, -1290699.9, 38689.484, 0.0000000033697685, 10.000384, 9.999588 
1.1150021e+3, 1.7434755e+2, -1195953.4, -1250196.8, -7246.666, 0.0035134766, -0.055020813, -1195002.0, 36388.777, 0.0, 10.000371, 9.999642 
1.1150171e+3, 1.8434726e+2, -1113721.4, -1195677.6, 3058.827, -0.014229386, -0.030023642, -1113607.4, 19786.584, 0.0, 10.000413, 9.999325 
1.11503236e+3, 1.9434682e+2, -996307.8, -1086662.3, -9628.143, -0.016933044, -0.009961465, -995293.2, 40106.25, 0.0, 10.00054, 9.999339 
1.115048e+3, 2.0434615e+2, -885104.7, -985941.4, -5135.4717, -0.0029065239, -0.0067860936, -884843.8, 52562.313, 0.0, 10.000646, 9.999309 
1.11506395e+3, 2.143452e+2, -771268.8, -875726.75, 4104.929, 0.037146915, -0.037308436, -771107.75, 68306.516, 0.0, 10.000734, 9.999349 
1.11507945e+3, 2.2434431e+2, -712382.6, -847890.2, -14942.654, 0.045740973, -0.03678816, -710754.44, 30668.088, 0.0, 10.000687, 9.99889 
1.1150943e+3, 2.3434354e+2, -646489.7, -764299.1, -21905.75, 0.013569162, -0.0059800167, -642548.4, 882.29517, 0.0, 10.000462, 9.998899 
1.11510925e+3, 2.4434248e+2, -547349.56, -656095.3, -6904.577, -0.010174333, -0.0032687967, -546912.94, -1472.0773, 0.0, 10.000428, 9.998986 
1.11512475e+3, 2.5434107e+2, -412276.66, -534875.5, -4162.75, -0.023263039, -0.049774826, -412135.47, 35318.29, 0.0, 10.000659, 9.999033 
1.1151402e+3, 2.6433966e+2, -336026.16, -463491.7, -26791.178, -0.022040179, -0.084659874, -330624.03, 18842.969, 0.0, 10.000581, 9.998887 
1.1151554e+3, 2.743383e+2, -308477.2, -394783.84, -32711.285, -0.000060793263, -0.111661, -297480.38, -46000.27, 0.0, 10.000077, 9.998928 
1.11517064e+3, 2.843376e+2, -237405.56, -323336.63, -14110.682, 0.007563485, -0.0651635, -235147.78, -81659.69, 0.0, 9.999949, 9.998809 
1.1151861e+3, 2.9433772e+2, -80206.66, -192226.0, -6281.527, -0.007002038, 0.055924658, -79855.516, -24365.33, 0.0, 10.000335, 9.99885 
1.1152013e+3, 3.043363e+2, 17688.684, -68673.48, -12755.12, -0.025439352, 0.0124759935, 19533.139, 19533.139, 0.0, 10.000452, 9.99931 
1.1152165e+3, 3.143357e+2, -4921.5146, -52605.92, -14155.811, -0.044561695, 0.014512117, -1035.7963, -1035.7963, 0.0, 10.000177, 9.999552 
1.1249281e+3, 1.2433496e+2, -1619598.5, -1756027.4, 38111.926, -0.08048486, -0.04698205, -1609673.8, 111839.62, 0.0010643419, 10.001042, 9.999208 
1.1249443e+3, 1.3433467e+2, -1611577.3, -1702915.8, -33774.625, 0.12515889, 0.000775022, -1600445.1, 23073.139, 0.00051804923, 10.00041, 9.999217 
1.1249571e+3, 1.4433388e+2, -1512193.3, -1561559.0, 491.71442, -0.07214323, -0.01449624, -1512188.4, 13338.441, 0.00014661087, 10.000246, 9.999585 
1.1249729e+3, 1.5433332e+2, -1359264.1, -1432149.3, -1603.8534, 0.009645123, -0.034066323, -1359228.9, 68302.75, 0.00001150662, 10.000602, 9.999629 
1.1249879e+3, 1.643328e+2, -1235482.6, -1317704.3, 1161.2783, 0.024085527, -0.047320716, -1235466.3, 94069.62, 0.0000000061074554, 10.000761, 9.999664 
1.1250024e+3, 1.743324e+2, -1147118.9, -1218560.0, -2833.7788, -0.01413978, -0.06172353, -1147006.6, 84532.19, 0.0, 10.000671, 9.999715 
1.1250175e+3, 1.8433201e+2, -1096263.8, -1197582.8, 13671.424, -0.019006677, -0.045605503, -1094451.5, 39091.293, 0.0, 10.000579, 9.999231 
1.12503305e+3, 1.943317e+2, -1009578.9, -1104549.4, 21086.965, 0.0068208524, -0.0013964472, -1005107.3, 30440.447, 0.0, 10.000499, 9.999235 
1.1250487e+3, 2.0433103e+2, -917775.4, -1007532.8, 31987.186, 0.017776642, 0.007579617, -907542.56, 30012.283, 0.0, 10.000447, 9.999255 
1.12506434e+3, 2.1432985e+2, -818494.2, -903982.25, 21429.861, 0.012544573, -0.041065548, -813423.06, 26141.586, 0.0, 10.000435, 9.999299 
1.1250797e+3, 2.2432882e+2, -731679.0, -862153.06, -1600.422, 0.010549756, -0.050595798, -731659.4, 9914.795, 0.0, 10.000576, 9.998846 
1.1250948e+3, 2.34328e+2, -581861.25, -737729.75, -1188.0101, 0.011257449, -0.018185873, -581852.25, 61730.8, 0.0, 10.000927, 9.9988575 
1.1251101e+3, 2.4432702e+2, -492307.28, -635063.75, 6973.889, 0.01083379, -0.0033431735, -491967.4, 53625.383, 0.0, 10.000832, 9.998936 
1.1251255e+3, 2.543258e+2, -490483.75, -577867.5, 2137.1462, 0.008129066, -0.024279242, -490431.53, -42827.688, 0.0, 10.000147, 9.998984 
1.1251406e+3, 2.6432434e+2, -430967.78, -511372.38, -12009.362, 0.0039007806, -0.060690235, -429212.34, -79594.734, 0.0, 9.99994, 9.998867 
1.12515554e+3, 2.7432263e+2, -268006.22, -377848.94, -11472.394, -0.0009836339, -0.123798996, -266820.78, -15186.424, 0.0, 10.000367, 9.998905 
1.1251708e+3, 2.8432187e+2, -161859.36, -286599.72, 9870.138, -0.0064644287, -0.0822365, -161083.22, -7440.308, 0.0, 10.000467, 9.998812 
1.1251863e+3, 2.9432228e+2, -109982.01, -206264.78, 4498.594, -0.0144270705, 0.07441666, -109772.28, -54130.69, 0.0, 10.000131, 9.998852 
1.1252015e+3, 3.0432093e+2, -45324.598, -97881.945, -11208.812, -0.030871084, 0.0287071, -43033.95, -43033.95, 0.0, 10.000016, 9.999317 
1.12521656e+3, 3.1432027e+2, 5140.545, -35668.17, -19906.037, -0.05127221, 0.02727343, 13242.119, 13242.119, 0.0, 10.000197, 9.999658 
1.1349293e+3, 1.2432079e+2, -1610619.4, -1736668.8, 40647.063, -0.06961561, 0.06748985, -1598648.8, 123007.06, 0.0011953667, 10.001041, 9.999341 
1.1349445e+3, 1.3431913e+2, -1605306.1, -1690050.0, -56544.906, 0.09616229, -0.03069883, -1577019.0, 46653.23, 0.00059164723, 10.000409, 9.999307 
1.13495715e+3, 1.4431816e+2, -1500063.1, -1535661.3, 11889.402, -0.10321931, -0.07736071, -1496457.4, 29224.135, 0.00017336896, 10.000242, 9.999764 
1.13497354e+3, 1.543188e+2, -1346941.5, -1406795.5, 12545.8955, 0.0095358435, 0.00566001, -1344418.1, 83256.92, 0.000015247707, 10.000603, 9.999803 
1.13498874e+3, 1.6431873e+2, -1241475.3, -1330545.3, -2464.2659, 0.036971048, 0.030571064, -1241407.1, 88267.875, 0.000000009421829, 10.000762, 9.999577 
1.1350032e+3, 1.7431769e+2, -1154261.1, -1233812.0, -6358.9556, -0.004358077, -0.0359289, -1153756.0, 77927.62, 0.0, 10.000672, 9.999611 
1.1350183e+3, 1.8431704e+2, -1085318.8, -1174796.0, 8717.929, 0.0037997637, -0.04897614, -1084477.3, 49212.266, 0.0, 10.000578, 9.999389 
1.1350342e+3, 1.9431694e+2, -997211.5, -1078475.5, 17449.344, 0.063124225, -0.0013322757, -993623.2, 42068.25, 0.0, 10.000497, 9.999416 
1.1350495e+3, 2.0431626e+2, -936418.5, -1045541.0, 29534.035, 0.06509913, 0.009806876, -928937.9, 8760.292, 0.0, 10.000443, 9.998996 
1.1350646e+3, 2.1431479e+2, -839275.5, -947225.4, 20882.59, -0.002774299, -0.037571464, -835376.7, 4334.5938, 0.0, 10.000434, 9.999002 
1.1350799e+3, 2.2431344e+2, -728249.6, -854681.5, 9223.32, -0.021180071, -0.06630261, -727580.3, 14143.805, 0.0, 10.000574, 9.9988985 
1.13509595e+3, 2.3431224e+2, -577915.1, -727347.06, 12165.202, 0.02454882, -0.08063166, -576931.25, 66805.14, 0.0, 10.0009165, 9.998935 
1.1351112e+3, 2.4431138e+2, -501988.44, -652546.06, -16994.842, 0.043200295, -0.05232689, -500093.9, 45651.66, 0.0, 10.00082, 9.99882 
1.1351258e+3, 2.5431094e+2, -499391.22, -595925.5, -22816.326, 0.028921444, 0.018176336, -494270.13, -46519.445, 0.0, 10.000145, 9.998861 
1.13514066e+3, 2.643099e+2, -425098.53, -499950.06, 1443.2163, 0.005704916, 0.027430331, -425070.72, -75309.63, 0.0, 9.999942, 9.998945 
1.1351556e+3, 2.7430815e+2, -261238.88, -364767.03, 6864.3657, -0.031414755, -0.050738666, -260785.72, -9007.777, 0.0, 10.000369, 9.998995 
1.13517076e+3, 2.8430697e+2, -172978.05, -308536.0, -883.67474, -0.05219282, -0.04874505, -172972.3, -19182.45, 0.0, 10.000463, 9.998664 
1.135186e+3, 2.9430655e+2, -123728.44, -231322.84, -6332.2705, -0.045998335, 0.040377874, -123357.04, -67561.305, 0.0, 10.000115, 9.998687 
1.1352014e+3, 3.0430478e+2, -50386.977, -105815.71, -5464.1714, -0.039810605, -0.032528456, -49853.453, -49853.453, 0.0, 10.000004, 9.9992695 
1.13521695e+3, 3.1430477e+2, 13131.485, -20876.594, -8773.767, -0.03535044, 0.032784607, 15261.612, 15261.612, 0.0, 10.000203, 9.999758 
1.14493005e+3, 1.2430572e+2, -1667631.3, -1746760.1, 75367.22, -0.065601006, 0.07447295, -1622074.9, 99729.84, 0.0013373722, 10.000575, 9.999496 
1.1449448e+3, 1.3430414e+2, -1560282.8, -1654471.5, -49361.54, 0.08135554, -0.02661425, -1539153.6, 84665.8, 0.000672049, 10.000656, 9.999434 
1.14495754e+3, 1.4430329e+2, -1439374.9, -1511397.5, 28127.717, -0.107941, -0.06574943, -1429691.8, 96135.68, 0.0002032588, 10.000679, 9.9997225 
1.144974e+3, 1.5430397e+2, -1365149.8, -1421531.6, 9372.469, 0.0023546983, 0.024209935, -1363632.6, 64188.543, 0.000019742625, 10.000504, 9.999749 
1.14498936e+3, 1.6430387e+2, -1294120.8, -1361371.1, -14920.832, 0.03678835, 0.051828835, -1290958.9, 38862.66, 0.000000013934886, 10.000424, 9.999527 
1.1450039e+3, 1.7430276e+2, -1182291.8, -1253205.5, -16344.757, 0.010989673, -0.017221594, -1178705.9, 53124.996, 0.0, 10.0005045, 9.999558 
1.145019e+3, 1.8430191e+2, -1086444.5, -1184235.9, -4471.196, 0.018827569, -0.042032547, -1086240.5, 47597.785, 0.0, 10.000609, 9.999309 
1.14503466e+3, 1.943015e+2, -964641.25, -1072210.6, -16455.918, 0.056768123, -0.01788505, -962180.1, 73662.64, 0.0, 10.000762, 9.999331 
1.14505015e+3, 2.0430075e+2, -871081.5, -1007233.56, -3510.6384, 0.053204622, -0.01069092, -870991.06, 66858.805, 0.0, 10.000863, 9.999056 
1.1450653e+3, 2.1429959e+2, -765883.8, -903208.6, 12771.071, -0.00061970553, -0.03551843, -764706.2, 75153.766, 0.0, 10.000903, 9.999078 
1.1450807e+3, 2.2429834e+2, -707872.06, -851659.44, 10883.803, -0.014447445, -0.053604584, -707052.9, 34818.953, 0.0, 10.000746, 9.998836 
1.1450964e+3, 2.34297e+2, -668566.7, -779088.44, 1915.9285, 0.021355188, -0.073912345, -668533.5, -24647.643, 0.0, 10.00033, 9.99886 
1.1451117e+3, 2.4429606e+2, -578019.4, -685638.2, -29389.436, 0.034595747, -0.0516195, -570516.56, -24620.467, 0.0, 10.000283, 9.998852 
1.1451261e+3, 2.5429562e+2, -412547.22, -549713.2, -26158.357, 0.020456834, 0.013959796, -407727.97, 40173.25, 0.0, 10.000723, 9.9989 
1.1451409e+3, 2.642947e+2, -313206.06, -457288.56, 1226.05, -0.001817077, 0.037404504, -313195.63, 36715.227, 0.0, 10.000759, 9.998845 
1.1451559e+3, 2.742932e+2, -284888.0, -387850.6, -9077.724, -0.03766131, -0.0015974286, -284093.78, -32167.84, 0.0, 10.00026, 9.998888 
1.145171e+3, 2.84292e+2, -228703.3, -325804.25, -17722.1, -0.050951574, 0.0005490936, -225569.92, -71632.03, 0.0, 10.00004, 9.998747 
1.1451863e+3, 2.942912e+2, -110292.92, -214819.0, -5578.8604, -0.028442118, 0.03646058, -109996.01, -54049.51, 0.0, 10.000165, 9.998777 
1.1452016e+3, 3.042891e+2, -39424.273, -132998.7, 6016.382, -0.023626903, -0.05968734, -39039.035, -39039.035, 0.0, 10.000219, 9.99898 
1.14521705e+3, 3.1428933e+2, 977.18677, -45107.36, -23232.047, -0.038779426, 0.06304093, 10656.074, 10656.074, 0.0, 10.000201, 9.999591 
1.1549305e+3, 1.2428979e+2, -1657857.4, -1722672.0, 103072.46, -0.07389537, -0.028868113, -1582217.6, 139741.75, 0.001489488, 10.000561, 9.999669 
1.1549454e+3, 1.3428979e+2, -1549469.4, -1632591.8, -44550.11, 0.076438986, 0.012178301, -1530104.0, 93855.39, 0.00075867696, 10.000659, 9.999583 
1.1549584e+3, 1.4428939e+2, -1456307.3, -1548323.6, 22329.97, -0.090268016, 0.021275306, -1451174.6, 74788.91, 0.0002361324, 10.000686, 9.999466 
1.15497425e+3, 1.5428887e+2, -1384617.6, -1462110.0, 2930.346, -0.016369313, 0.02277769, -1384507.0, 43462.082, 0.000024990082, 10.000504, 9.999472 
1.1549896e+3, 1.642883e+2, -1295424.1, -1363433.0, -14096.155, 0.017044613, 0.01732493, -1292618.3, 37356.395, 0.000000023716384, 10.000422, 9.999515 
1.15500465e+3, 1.7428765e+2, -1182496.3, -1253076.4, -13362.436, 0.028640054, -0.005073908, -1180051.1, 51928.477, 0.0, 10.000502, 9.99956 
1.1550196e+3, 1.8428673e+2, -1109375.1, -1231299.8, -300.62613, 0.022247601, -0.024355784, -1109374.4, 24613.688, 0.0, 10.000606, 9.998988 
1.1550348e+3, 1.9428545e+2, -989048.0, -1122971.8, -10722.112, -0.01506184, -0.05097156, -988195.0, 47806.13, 0.0, 10.000761, 9.998984 
1.1550502e+3, 2.0428458e+2, -846048.8, -954910.9, -3384.5889, -0.021949468, -0.053797934, -845943.7, 92065.484, 0.0, 10.000861, 9.999417 
1.1550663e+3, 2.1428427e+2, -737471.75, -842771.06, 13716.908, 0.015668988, -0.03543239, -735714.25, 104296.14, 0.0, 10.0008955, 9.999497 
1.1550818e+3, 2.2428358e+2, -720897.3, -875996.9, -5286.5063, 0.026404304, -0.014139191, -720717.3, 21299.775, 0.0, 10.000734, 9.998673 
1.1550966e+3, 2.3428236e+2, -683563.44, -809887.8, -13260.146, -0.000246356, -0.0003699203, -682186.56, -38155.51, 0.0, 10.000329, 9.998651 
1.1551114e+3, 2.4428116e+2, -567012.25, -662091.25, -15172.107, -0.017649531, -0.0016382867, -564649.9, -18606.13, 0.0, 10.000279, 9.999016 
1.1551265e+3, 2.542799e+2, -399982.44, -522980.25, -8485.84, -0.020723812, -0.034481518, -399399.75, 48655.09, 0.0, 10.000718, 9.999086 
1.1551414e+3, 2.642788e+2, -334549.72, -499220.03, -15531.016, -0.023167253, -0.028854305, -333097.7, 16968.818, 0.0, 10.00075, 9.998562 
1.1551563e+3, 2.742779e+2, -308631.13, -434411.63, -26590.213, -0.025389945, 0.02217225, -303240.9, -51162.652, 0.0, 10.000249, 9.998573 
1.1551714e+3, 2.8427708e+2, -206297.95, -277247.6, -13498.666, -0.010109388, 0.06332419, -203816.53, -49729.63, 0.0, 10.00003, 9.999086 
1.15518704e+3, 2.9427627e+2, -81724.0, -158244.47, 2579.223, 0.027185591, 0.06397117, -81637.164, -25544.035, 0.0, 10.0001745, 9.999162 
1.15520224e+3, 3.0427387e+2, -80116.72, -219423.63, 5763.9873, 0.009172127, -0.053389885, -79878.63, -79878.63, 0.0, 10.000227, 9.998383 
1.1552169e+3, 3.1427392e+2, -34675.91, -116836.49, -20436.08, -0.068293884, 0.116955146, -29873.484, -29873.484, 0.0, 10.000191, 9.999104 
1.1649313e+3, 1.2427432e+2, -1619079.9, -1704644.8, 107483.3, -0.06980575, -0.05835163, -1546177.4, 175932.63, 0.0016512593, 10.000831, 9.999662 
1.16494566e+3, 1.3427459e+2, -1579754.1, -1650641.0, -80762.836, 0.05177477, 0.012309804, -1526999.6, 97108.42, 0.0008513687, 10.0004635, 9.999555 
1.16495885e+3, 1.442743e+2, -1506812.5, -1567900.9, -4843.111, -0.08380957, 0.03128929, -1506430.9, 19680.4, 0.00027198074, 10.000319, 9.999509 
1.1649747e+3, 1.5427352e+2, -1399303.4, -1463711.0, -3094.6687, -0.015199829, 0.0013696165, -1399155.0, 28963.857, 0.00003101119, 10.000379, 9.999521 
1.16499e+3, 1.6427286e+2, -1292584.5, -1377851.5, -2184.3752, 0.014385494, -0.007826998, -1292528.6, 37596.715, 0.00000004774233, 10.000509, 9.999374 
1.1650051e+3, 1.7427239e+2, -1156427.8, -1257748.4, -14121.238, 0.01909202, 0.0027505343, -1154496.4, 77633.47, 0.0, 10.000755, 9.999407 
1.16502024e+3, 1.842715e+2, -1069910.5, -1205235.1, 2617.2065, 0.0070812497, -0.007880677, -1069859.9, 64278.51, 0.0, 10.000846, 9.999051 
1.1650353e+3, 1.9427007e+2, -986443.25, -1111929.4, 22799.809, -0.03554998, -0.05761462, -982429.1, 53722.79, 0.0, 10.000737, 9.999071 
1.1650508e+3, 2.0426922e+2, -876582.94, -975720.8, 34594.13, -0.040652167, -0.06202559, -865704.9, 72454.84, 0.0, 10.00068, 9.99936 
1.165067e+3, 2.1426909e+2, -770756.94, -866945.3, 14701.375, 0.0071000443, -0.017767884, -768560.1, 71599.92, 0.0, 10.000702, 9.999425 
1.1650825e+3, 2.2426848e+2, -721173.8, -864699.8, -22797.607, 0.026214065, 0.0106099, -717639.7, 24526.523, 0.0, 10.000683, 9.9987755 
1.1650971e+3, 2.3426722e+2, -634680.75, -772919.4, -10780.702, 0.0064683207, 0.008551987, -633845.06, 10334.737, 0.0, 10.000608, 9.998769 
1.16511196e+3, 2.4426596e+2, -539486.06, -654158.8, 6470.5093, -0.012265274, -0.0021102685, -539122.06, 7070.497, 0.0, 10.000492, 9.998968 
1.16512686e+3, 2.5426465e+2, -461777.7, -558992.25, -4217.6797, -0.03008949, -0.03645569, -461595.03, -13390.632, 0.0, 10.000323, 9.999029 
1.1651418e+3, 2.6426345e+2, -402980.5, -524182.78, -20818.059, -0.026598118, -0.03878282, -399504.4, -49287.664, 0.0, 10.000247, 9.9986315 
1.1651567e+3, 2.7426246e+2, -301134.1, -423090.06, -6226.0947, 0.007446488, -0.0034610846, -300817.06, -48588.02, 0.0, 10.000266, 9.998644 
1.16517186e+3, 2.8426176e+2, -176494.69, -272977.97, 19746.58, 0.02205273, 0.047408894, -172609.72, -18372.682, 0.0, 10.0002775, 9.998998 
1.1651871e+3, 2.9426122e+2, -70860.23, -164402.48, -2157.5676, 0.007903581, 0.08928036, -70810.49, -14569.355, 0.0, 10.000301, 9.999058 
1.1652022e+3, 3.0425876e+2, -68553.49, -217304.8, -2067.9563, -0.023094632, -0.030035857, -68524.75, -68524.75, 0.0, 10.000323, 9.99835 
1.1652173e+3, 3.142584e+2, -11385.355, -86821.914, 18050.818, -0.054296426, 0.100816414, -7288.5576, -7288.5576, 0.0, 10.00027, 9.999274 
1.1749323e+3, 1.2425946e+2, -1632051.9, -1732224.1, 114634.125, -0.05552999, -0.0074797617, -1557039.6, 165215.92, 0.0018234614, 10.0008335, 9.999472 
1.1749457e+3, 1.3425864e+2, -1594712.6, -1681310.6, -93435.05, 0.001450117, -0.025197972, -1535031.5, 89233.29, 0.0009506097, 10.000461, 9.999347 
1.1749591e+3, 1.442581e+2, -1483813.5, -1518929.5, -4040.0564, -0.095379926, -0.035279717, -1483354.8, 42915.258, 0.00031097958, 10.000313, 9.999847 
1.1749752e+3, 1.5425795e+2, -1372992.1, -1409121.0, -599.25616, 0.0015598438, -0.040948868, -1372982.3, 55287.56, 0.00003785508, 10.000379, 9.999895 
1.1749906e+3, 1.6425762e+2, -1311396.9, -1417719.8, 5307.986, 0.02336601, -0.025327437, -1311132.5, 19140.537, 0.00000010132158, 10.000511, 9.999101 
1.1750055e+3, 1.7425703e+2, -1178561.1, -1304200.6, -4736.2275, -0.021001969, 0.005432741, -1178382.8, 53898.277, 0.0, 10.000756, 9.999088 
1.1750206e+3, 1.8425629e+2, -1039046.9, -1140518.8, -2194.7188, -0.032010157, 0.007586086, -1038999.44, 95288.97, 0.0, 10.000842, 9.999497 
1.1750363e+3, 1.9425541e+2, -951513.7, -1038478.56, 18225.059, -0.008635605, -0.037713505, -947848.75, 88445.83, 0.0, 10.000733, 9.999577 
1.1750518e+3, 2.0425469e+2, -909852.1, -1043432.44, 33415.082, -0.0070979306, -0.035643455, -901959.7, 36341.508, 0.0, 10.000673, 9.9988985 
1.17506735e+3, 2.1425411e+2, -809397.94, -946105.4, 15664.228, -0.029675674, 0.016388921, -807626.06, 32682.373, 0.0, 10.000696, 9.998884 
1.1750828e+3, 2.2425312e+2, -698638.94, -816413.8, -26431.045, -0.019324314, 0.021530556, -692979.25, 49339.19, 0.0, 10.000675, 9.999111 
1.17509805e+3, 2.3425163e+2, -606172.94, -713614.56, -13636.674, 0.03627496, -0.046012916, -604469.1, 39862.58, 0.0, 10.000606, 9.999178 
1.17511295e+3, 2.442505e+2, -556908.7, -689170.7, -804.1121, 0.04466892, -0.05300107, -556903.8, -10561.437, 0.0, 10.000487, 9.99873 
1.1751273e+3, 2.5424984e+2, -482435.25, -600993.6, -9412.279, -0.011558724, 0.005124278, -481692.66, -33342.9, 0.0, 10.0003195, 9.998743 
1.1751422e+3, 2.642487e+2, -374913.72, -465020.5, -19560.441, -0.015769351, 0.0053452933, -370850.75, -20489.37, 0.0, 10.000241, 9.999041 
1.1751575e+3, 2.7424702e+2, -268373.5, -355865.22, -3380.282, 0.05050342, -0.07499753, -268243.1, -15865.288, 0.0, 10.000267, 9.999105 
1.1751723e+3, 2.842461e+2, -215431.48, -353325.84, 20202.31, 0.03719981, -0.04397582, -212532.67, -58144.797, 0.0, 10.000275, 9.998447 
1.17518656e+3, 2.942461e+2, -116286.58, -255970.27, 518.1358, -0.08338663, 0.109523304, -116284.66, -59893.84, 0.0, 10.000289, 9.998435 
1.1752015e+3, 3.0424368e+2, -30778.29, -135513.03, -1647.3574, -0.11810609, 0.0073838565, -30752.385, -30752.385, 0.0, 10.000308, 9.99892 
1.175218e+3, 3.142429e+2, 50194.023, 41100.973, 21760.516, -0.016415317, 0.02647123, 67877.91, 67877.91, 0.0, 10.000268, 10.000154 
1.1849331e+3, 1.2424422e+2, -1636879.3, -1728888.4, 123919.35, -0.047257658, 0.0041393023, -1550700.5, 171704.89, 0.0020081834, 10.000778, 9.99952 
1.1849458e+3, 1.3424334e+2, -1609844.1, -1682584.1, -86062.8, -0.024736637, -0.02368801, -1552781.9, 71633.05, 0.0010574218, 10.000332, 9.999399 
1.18495956e+3, 1.4424284e+2, -1499450.8, -1524415.5, 23831.72, -0.07155137, -0.033972915, -1485030.4, 41389.223, 0.00035351914, 10.000197, 9.999865 
1.1849756e+3, 1.542426e+2, -1367517.8, -1404441.5, -925.7175, 0.0033513627, -0.050042864, -1367494.6, 60925.402, 0.00004562391, 10.000408, 9.999912 
1.184991e+3, 1.6424224e+2, -1302519.1, -1403769.9, 4314.818, 0.008111041, -0.04257951, -1302335.6, 28087.76, 0.00000019883093, 10.00053, 9.9991865 
1.1850058e+3, 1.7424169e+2, -1202158.0, -1304693.0, 23983.598, -0.051778622, -0.01507456, -1196825.4, 35604.94, 0.0, 10.000548, 9.999185 
1.1850211e+3, 1.8424115e+2, -1077476.6, -1163357.0, 23044.818, -0.059598, 0.0020227889, -1071683.6, 62752.395, 0.0, 10.000599, 9.999456 
1.185037e+3, 1.9424061e+2, -958610.44, -1048218.06, -297.26468, -0.008269089, -0.0051531093, -958609.44, 77830.47, 0.0, 10.0007105, 9.999521 
1.1850526e+3, 2.0423983e+2, -917449.25, -1046100.25, 3538.5642, 0.007984918, -0.0046967566, -917352.0, 21095.113, 0.0, 10.000615, 9.99891 
1.1850679e+3, 2.1423873e+2, -873814.6, -973982.94, 24958.18, -0.01956044, -0.005923524, -867940.5, -27481.857, 0.0, 10.000243, 9.99891 
1.18508324e+3, 2.242376e+2, -762978.4, -840068.0, 9285.717, -0.014020058, -0.018683659, -761875.6, -19406.14, 0.0, 10.000203, 9.999176 
1.1850987e+3, 2.342365e+2, -600609.5, -703343.6, -2741.4167, 0.034939528, -0.056803104, -600536.4, 43942.867, 0.0, 10.000611, 9.999245 
1.1851135e+3, 2.4423555e+2, -520960.88, -665906.9, -7298.985, 0.04693643, -0.05174963, -520594.25, 25893.893, 0.0, 10.000709, 9.998782 
1.18512794e+3, 2.5423482e+2, -470530.38, -589940.56, 4672.926, 0.010025194, -0.0040365425, -470347.8, -21851.693, 0.0, 10.000378, 9.998791 
1.18514255e+3, 2.642337e+2, -380472.5, -467216.97, 4192.801, 0.0061409515, -0.0055639218, -380270.3, -29762.697, 0.0, 10.0002, 9.999046 
1.18515775e+3, 2.742321e+2, -271165.38, -356504.22, -13974.351, 0.045147702, -0.07726902, -268935.34, -16412.096, 0.0, 10.000248, 9.999109 
1.1851725e+3, 2.8423116e+2, -213135.56, -347098.84, 11315.2705, 0.022829305, -0.04883834, -212186.55, -57653.332, 0.0, 10.000271, 9.99849 
1.1851868e+3, 2.9423106e+2, -122649.03, -254534.48, 39468.05, -0.07857223, 0.087740906, -111740.15, -55203.188, 0.0, 10.000225, 9.998476 
1.1852018e+3, 3.0422863e+2, -50751.535, -138275.06, 45207.477, -0.109224476, -0.020111918, -31594.24, -31594.24, 0.0, 10.000142, 9.9989805 
1.1852182e+3, 3.1422785e+2, 36927.28, 66910.27, 18990.04, -0.019125838, -0.009592761, 76113.125, 76113.125, 0.0, 10.000041, 10.000439 
1.1949338e+3, 1.24228686e+2, -1617982.3, -1688663.9, 118339.24, -0.05652971, -0.023707846, -1529819.4, 192739.53, 0.0022081332, 10.000772, 9.9998 
1.194946e+3, 1.3422878e+2, -1588093.3, -1638055.3, -101568.98, -0.03155701, 0.016699, -1508478.4, 116079.32, 0.0011730703, 10.000333, 9.999705 
1.1949603e+3, 1.4422859e+2, -1520407.3, -1569034.0, 29572.572, -0.016873412, 0.035506867, -1506436.5, 20122.69, 0.00040013902, 10.000201, 9.9995575 
1.1949758e+3, 1.5422757e+2, -1392034.8, -1455172.9, 7197.5415, -0.012954558, -0.025240686, -1391224.6, 37344.14, 0.00005450229, 10.000407, 9.999565 
1.1949911e+3, 1.642268e+2, -1271528.1, -1339490.9, 4313.1694, -0.03645342, -0.05742439, -1271255.5, 59319.85, 0.00000035173326, 10.000529, 9.999628 
1.1950061e+3, 1.7422651e+2, -1166768.5, -1231370.0, 24650.395, -0.076866865, -0.058240082, -1158437.0, 74140.15, 0.0, 10.000547, 9.999688 
1.1950215e+3, 1.8422614e+2, -1114838.9, -1240819.3, 25546.848, -0.08063256, -0.026052145, -1109855.5, 24725.334, 0.0, 10.000598, 9.998926 
1.1950374e+3, 1.9422571e+2, -1002164.1, -1138214.8, 3623.1777, -0.037851598, 0.038447637, -1002067.75, 34519.715, 0.0, 10.000708, 9.998905 
1.1950531e+3, 2.0422474e+2, -885452.8, -978596.8, -10751.684, -0.00004510766, 0.03185353, -884227.8, 54369.13, 0.0, 10.00061, 9.999375 
1.1950686e+3, 2.1422306e+2, -834959.1, -893077.2, 10231.924, 0.03358372, -0.08352902, -833210.4, 7399.9214, 0.0, 10.00024, 9.999467 
1.195084e+3, 2.2422202e+2, -776846.56, -867692.0, 20687.363, 0.037936345, -0.10944825, -772357.5, -29738.313, 0.0, 10.000197, 9.998989 
1.1950989e+3, 2.3422186e+2, -618799.1, -739992.8, 12970.541, 0.0016957638, -0.02613951, -617426.56, 27195.412, 0.0, 10.000606, 9.998998 
1.1951137e+3, 2.4422114e+2, -500623.84, -621597.9, -18317.762, -0.006342163, 0.00040943088, -497911.03, 48718.383, 0.0, 10.000699, 9.999092 
1.1951284e+3, 2.5421965e+2, -446260.7, -538545.25, -7491.997, 0.0270722, -0.062464543, -445656.44, 2986.618, 0.0, 10.000372, 9.999146 
1.1951431e+3, 2.6421848e+2, -408689.3, -525691.9, 4099.6025, 0.032276742, -0.07132984, -408545.84, -57890.44, 0.0, 10.000199, 9.998646 
1.1951575e+3, 2.7421772e+2, -303162.03, -422923.25, -11012.438, -0.0055715083, -0.0143376235, -302157.8, -49492.375, 0.0, 10.000247, 9.998654 
1.1951722e+3, 2.8421697e+2, -168095.95, -253788.81, 10652.142, -0.019967712, 0.028520701, -166791.69, -12118.554, 0.0, 10.00027, 9.999132 
1.1951877e+3, 2.942162e+2, -72771.73, -150140.75, 39972.52, 0.0013019888, 0.026153652, -55829.863, 849.3206, 0.0, 10.00022, 9.999195 
1.1952029e+3, 3.0421364e+2, -87890.19, -214175.52, 40488.164, -0.01717867, -0.10865617, -76024.266, -76024.266, 0.0, 10.000136, 9.998463 
1.19521774e+3, 3.142132e+2, 8884.488, 10502.94, 17447.555, -0.06102937, -0.0029702233, 27160.025, 27160.025, 0.0, 10.000033, 10.000053 
1.2049346e+3, 1.2421359e+2, -1672772.0, -1701878.5, 123407.984, -0.038933013, -0.0058449353, -1563062.1, 159645.55, 0.0024257244, 10.000342, 9.999915 
1.2049463e+3, 1.3421364e+2, -1567994.4, -1613367.9, -118176.1, -0.04130695, 0.01604983, -1470347.1, 154358.97, 0.0012988481, 10.000404, 9.999841 
1.2049611e+3, 1.4421353e+2, -1493220.8, -1570350.1, 23603.281, 0.025143322, 0.040100254, -1486571.0, 40135.844, 0.00045139206, 10.000451, 9.999427 
1.2049761e+3, 1.542125e+2, -1401869.1, -1476460.8, 13912.723, -0.026900813, -0.00379088, -1399358.6, 29358.44, 0.00006471426, 10.000412, 9.999415 
1.2049912e+3, 1.6421176e+2, -1284201.3, -1333173.4, 6778.8975, -0.06649761, -0.032849632, -1283280.3, 47443.438, 0.00000057087306, 10.000392, 9.999737 
1.2050066e+3, 1.7421143e+2, -1173920.1, -1220860.5, -2904.1624, -0.07760613, -0.04846339, -1173741.1, 58983.355, 0.0, 10.00044, 9.999811 
1.2050221e+3, 1.8421091e+2, -1141316.4, -1263798.9, -387.31296, -0.07128648, -0.033538777, -1141315.1, -6585.779, 0.0, 10.00046, 9.998835 
1.2050378e+3, 1.9421017e+2, -1049225.4, -1171922.0, 14695.792, -0.043753795, 0.011094512, -1047489.75, -10750.335, 0.0, 10.000435, 9.998804 
1.2050535e+3, 2.0420921e+2, -907823.9, -982123.8, 917.27026, -0.008884355, 0.007565114, -907812.56, 30936.436, 0.0, 10.000427, 9.999438 
1.205069e+3, 2.1420795e+2, -799806.7, -868140.75, -15619.738, 0.03644597, -0.07327923, -796405.6, 44352.35, 0.0, 10.000446, 9.999539 
1.20508425e+3, 2.2420703e+2, -755105.2, -857128.06, -8424.82, 0.044012953, -0.091424234, -754414.2, -11648.5625, 0.0, 10.000345, 9.998991 
1.2050992e+3, 2.3420659e+2, -694750.94, -776437.4, 94.55681, 0.00006571251, -0.035919607, -694750.8, -49979.555, 0.0, 10.000085, 9.998997 
1.205114e+3, 2.4420585e+2, -587320.75, -653626.2, -31116.074, -0.01084344, -0.015447513, -575005.75, -28226.629, 0.0, 10.000063, 9.999177 
1.2051288e+3, 2.542047e+2, -440801.06, -524803.2, -40874.43, 0.02395077, -0.055657126, -424194.88, 24595.105, 0.0, 10.000364, 9.999244 
1.2051433e+3, 2.6420367e+2, -358427.2, -493561.3, -22664.434, 0.025843402, -0.055572458, -354727.25, -3926.6926, 0.0, 10.000513, 9.9987135 
1.2051576e+3, 2.7420285e+2, -268878.94, -399378.03, -1278.8572, -0.017653432, -0.009305366, -268866.4, -16056.092, 0.0, 10.000452, 9.998717 
1.2051726e+3, 2.842021e+2, -148905.28, -237188.23, 19359.488, -0.020555085, 0.020243827, -144846.56, 9971.537, 0.0, 10.000371, 9.999197 
1.2051883e+3, 2.9420117e+2, -60601.254, -137383.67, -2708.9514, 0.032909364, 0.0028245188, -60505.8, -3681.1265, 0.0, 10.000277, 9.999254 
1.2052034e+3, 3.0419874e+2, -90352.766, -242669.36, -15353.431, 0.011192275, -0.1159809, -88820.555, -88820.555, 0.0, 10.000237, 9.998217 
1.2052176e+3, 3.1419802e+2, 32600.703, 13457.92, -12515.707, -0.073214, -0.008798051, 38785.402, 38785.402, 0.0, 10.000229, 9.999982 
1.2149352e+3, 1.2419911e+2, -1679149.1, -1713589.1, 122346.8, -0.003976912, 0.06299479, -1572816.5, 150033.84, 0.0026624324, 10.000335, 9.999839 
1.2149465e+3, 1.34198e+2, -1570732.4, -1619205.6, -114631.81, -0.058163755, -0.026234115, -1477803.0, 147056.4, 0.0014356553, 10.000404, 9.999801 
1.2149618e+3, 1.4419769e+2, -1489860.3, -1564412.8, 21733.262, 0.04766046, -0.020985192, -1483987.3, 42874.434, 0.0005075534, 10.000454, 9.999467 
1.21497646e+3, 1.5419751e+2, -1398737.0, -1469917.1, 12764.999, -0.042617448, 0.013519331, -1396517.0, 32347.152, 0.000076397075, 10.00041, 9.999462 
1.2149914e+3, 1.6419713e+2, -1301211.1, -1368637.5, 6488.639, -0.087462425, 0.030132953, -1300592.4, 30275.38, 0.0000008702971, 10.000391, 9.999494 
1.2150072e+3, 1.7419651e+2, -1192687.5, -1259922.6, -1336.3342, -0.057543762, 0.014207863, -1192661.0, 40211.145, 0.0, 10.000439, 9.999544 
1.21502295e+3, 1.8419556e+2, -1117160.5, -1212989.4, -2509.897, -0.03648077, -0.017580166, -1117094.8, 17785.941, 0.0, 10.000456, 9.999186 
1.21503845e+3, 1.9419411e+2, -1021184.56, -1113676.1, 13464.372, -0.029120957, -0.08547233, -1019264.4, 17630.746, 0.0, 10.000434, 9.999205 
1.2150538e+3, 2.0419331e+2, -930890.5, -1030331.4, -122.512184, -0.022214815, -0.07822186, -930890.3, 8012.557, 0.0, 10.000427, 9.999108 
1.215069e+3, 2.1419346e+2, -827713.75, -925570.0, -14952.369, -0.013591858, 0.021273397, -825480.0, 15421.37, 0.0, 10.0004425, 9.999147 
1.2150842e+3, 2.2419271e+2, -744443.9, -833696.75, -18954.365, 0.0011082166, 0.033621036, -740585.44, 2322.9348, 0.0, 10.000339, 9.999155 
1.2150995e+3, 2.3419075e+2, -680071.4, -745505.5, -9659.5, 0.024666429, -0.08502605, -678675.2, -33748.586, 0.0, 10.000082, 9.999211 
1.2151145e+3, 2.4418972e+2, -596308.4, -671839.56, -22270.715, 0.027793981, -0.09880664, -590230.75, -43293.918, 0.0, 10.000059, 9.999055 
1.2151289e+3, 2.5418997e+2, -451249.75, -546604.0, -28421.123, 0.0003070681, 0.014049502, -443421.3, 5515.1113, 0.0, 10.000362, 9.999095 
1.2151434e+3, 2.6418933e+2, -323598.03, -420503.38, -23951.701, -0.013012459, 0.0397012, -318001.22, 32941.445, 0.0, 10.000509, 9.999218 
1.2151582e+3, 2.7418762e+2, -231760.28, -318639.84, -2487.924, -0.0045336126, -0.05940942, -231689.1, 21268.238, 0.0, 10.000436, 9.999279 
1.2151732e+3, 2.8418648e+2, -187232.23, -314165.53, 15363.508, 0.0073437993, -0.07028208, -185399.16, -30431.541, 0.0, 10.000358, 9.998675 
1.2151885e+3, 2.9418603e+2, -103397.75, -226160.28, -4788.533, 0.020044062, 0.016132444, -103211.25, -46238.035, 0.0, 10.000276, 9.998646 
1.21520326e+3, 3.0418387e+2, -84540.17, -231472.47, -14570.614, -0.018483166, -0.04528126, -83109.21, -83109.21, 0.0, 10.00024, 9.998293 
1.21521786e+3, 3.1418246e+2, 50979.234, 57137.22, -6808.9204, -0.07668232, -0.020701185, 61530.95, 61530.95, 0.0, 10.000206, 10.000292 
1.2249358e+3, 1.2418379e+2, -1712411.9, -1753797.8, 140568.25, 0.028818706, 0.040089127, -1591021.6, 131976.77, 0.0029179724, 10.000211, 9.999621 
1.22494675e+3, 1.341825e+2, -1527513.0, -1617990.4, -103330.38, -0.0996062, -0.049588837, -1459952.3, 165058.23, 0.0015834377, 10.000789, 9.999622 
1.22496255e+3, 1.4418219e+2, -1418237.3, -1536441.3, 6804.9595, 0.0584566, -0.03133639, -1417846.9, 109166.49, 0.00056846405, 10.0009775, 9.999405 
1.2249771e+3, 1.5418208e+2, -1369930.4, -1462030.3, -13567.854, -0.024059867, 0.015847534, -1367973.1, 61042.145, 0.00008951281, 10.000636, 9.999406 
1.224992e+3, 1.6418163e+2, -1314031.0, -1389818.6, -14114.065, -0.06574251, 0.036773242, -1311487.9, 19531.887, 0.0000012652538, 10.000368, 9.999359 
1.2250077e+3, 1.7418087e+2, -1238551.3, -1297003.5, -13529.391, -0.04274356, 0.01692258, -1235571.6, -2544.9248, 0.0, 10.00019, 9.999409 
1.2250232e+3, 1.8417995e+2, -1145803.3, -1197356.0, -7085.808, -0.030573944, -0.014626494, -1144847.0, -9812.352, 0.0, 10.0001335, 9.999448 
1.2250387e+3, 1.9417883e+2, -1023869.1, -1082061.8, -87.70381, -0.037238423, -0.07801639, -1023869.0, 13175.317, 0.0, 10.000273, 9.999499 
1.22505404e+3, 2.0417812e+2, -945319.7, -1049231.9, -9985.415, -0.035113085, -0.072244406, -944368.8, -5317.9946, 0.0, 10.00038, 9.9990015 
1.2250693e+3, 2.1417806e+2, -837682.25, -945218.0, -7632.8994, -0.018376566, 0.01865382, -837143.2, 3909.4883, 0.0, 10.000441, 9.999013 
1.2250846e+3, 2.2417726e+2, -729666.5, -819451.1, -12122.715, 0.006091807, 0.030577125, -728058.5, 15002.059, 0.0, 10.000412, 9.999217 
1.22509986e+3, 2.3417549e+2, -650184.5, -722606.06, -15523.913, 0.04047822, -0.07649942, -646997.1, -1920.7014, 0.0, 10.00025, 9.999287 
1.2251148e+3, 2.4417451e+2, -585722.4, -672917.1, -17508.908, 0.040414043, -0.08696042, -582337.94, -35251.914, 0.0, 10.000158, 9.999 
1.225129e+3, 2.5417462e+2, -482145.4, -568676.06, -18568.172, -0.008614765, 0.018685078, -478329.25, -29242.012, 0.0, 10.000182, 9.99903 
1.2251437e+3, 2.641739e+2, -365174.6, -431169.0, -32192.504, -0.025730211, 0.03513491, -352072.2, -977.99664, 0.0, 10.000183, 9.999301 
1.2251586e+3, 2.7417216e+2, -269983.38, -326309.56, -47684.93, 0.002587198, -0.07744645, -242765.86, 10342.682, 0.0, 10.000129, 9.999373 
1.2251735e+3, 2.8417104e+2, -213154.89, -321645.22, -23986.758, 0.012966409, -0.09393229, -208088.14, -52969.77, 0.0, 10.000161, 9.998717 
1.22518845e+3, 2.941707e+2, -94653.36, -218230.53, 1483.7092, -0.004549087, 0.00094797596, -94635.55, -37512.656, 0.0, 10.000319, 9.998679 
1.22520335e+3, 3.0416885e+2, -74962.68, -224914.13, 9214.5205, -0.04107293, -0.030377883, -74398.57, -74398.57, 0.0, 10.0002985, 9.998309 
1.2252184e+3, 3.141671e+2, 36061.234, 65852.37, 3415.9482, -0.0446277, -0.041198242, 66239.03, 66239.03, 0.0, 10.000035, 10.000435 
1.2349362e+3, 1.2416772e+2, -1739372.5, -1808598.8, 148328.16, 0.04248479, -0.07709453, -1621672.4, 101478.664, 0.0031899144, 10.000205, 9.9992485 
1.2349468e+3, 1.3416721e+2, -1551378.1, -1666426.0, -80235.01, -0.16910903, -0.053717148, -1510176.9, 114981.42, 0.0017411282, 10.000783, 9.999292 
1.2349635e+3, 1.4416711e+2, -1430831.0, -1562441.5, -5375.4546, 0.051435824, 0.011096647, -1430611.8, 96548.94, 0.0006337289, 10.000975, 9.9992285 
1.23497814e+3, 1.541663e+2, -1380956.5, -1486486.3, -26372.807, 0.024563754, 0.0038487506, -1374732.8, 54436.918, 0.00010392506, 10.000641, 9.999237 
1.2349929e+3, 1.6416539e+2, -1315691.0, -1393333.0, -22274.852, -0.0067182425, -0.012019107, -1309754.4, 21424.682, 0.0000017603737, 10.000368, 9.999335 
1.23500794e+3, 1.741645e+2, -1239469.6, -1299117.3, -20117.197, -0.036102433, -0.04075274, -1233319.0, -131.3349, 0.0, 10.00019, 9.999394 
1.2350231e+3, 1.841641e+2, -1134222.4, -1173339.8, -4750.1875, -0.058293093, -0.027331734, -1133653.8, 1537.134, 0.0, 10.000133, 9.999613 
1.2350387e+3, 1.9416438e+2, -1011524.94, -1055686.4, 4725.08, -0.071315445, 0.03153997, -1011025.06, 26161.594, 0.0, 10.000269, 9.999683 
1.2350543e+3, 2.0416375e+2, -938610.1, -1033937.25, -8973.039, -0.05104346, 0.026912142, -937772.9, 1419.3401, 0.0, 10.000373, 9.99911 
1.2350701e+3, 2.1416181e+2, -831384.1, -930980.56, -5586.4404, 0.017526131, -0.078083724, -831071.75, 10139.427, 0.0, 10.000435, 9.999113 
1.2350854e+3, 2.2416073e+2, -732531.94, -824809.75, -18769.787, 0.05375269, -0.09824029, -728860.2, 14361.589, 0.0, 10.000407, 9.999183 
1.2351001e+3, 2.3416083e+2, -653539.3, -729862.25, -21055.117, 0.044796187, -0.012812126, -648116.2, -2895.647, 0.0, 10.000251, 9.999238 
1.2351148e+3, 2.4416023e+2, -586032.2, -674316.8, -17951.146, 0.024872899, 0.01823062, -582521.75, -35295.285, 0.0, 10.000161, 9.998989 
1.2351292e+3, 2.541587e+2, -483133.06, -569509.06, -16451.236, -0.009620689, -0.03902045, -480105.84, -30863.895, 0.0, 10.000175, 9.999028 
1.2351439e+3, 2.641574e+2, -389377.5, -479444.34, -33444.35, -0.019576067, -0.06620529, -378316.97, -27062.342, 0.0, 10.000173, 9.998975 
1.2351587e+3, 2.7415645e+2, -294493.72, -378109.8, -47561.234, 0.0027352062, -0.06382745, -272977.3, -19713.87, 0.0, 10.000131, 9.999018 
1.2351735e+3, 2.841557e+2, -172949.61, -238291.78, -18188.174, -0.004268308, -0.052508023, -168228.05, -12958.061, 0.0, 10.000161, 9.9992895 
1.2351883e+3, 2.9415515e+2, -52214.316, -124673.95, 9605.542, -0.050628297, -0.042680886, -50962.59, 6311.0303, 0.0, 10.000296, 9.999332 
1.2352034e+3, 3.0415365e+2, -83788.62, -239010.06, 475.12344, -0.06916409, -0.068755254, -83787.164, -83787.164, 0.0, 10.000278, 9.998222 
1.235219e+3, 3.1415203e+2, 31685.002, 54470.52, -2227.405, 0.013126609, -0.05598337, 54686.22, 54686.22, 0.0, 10.000044, 10.000352 
1.2449369e+3, 1.2415186e+2, -1637345.1, -1755874.0, 79346.09, 0.057515327, -0.08844516, -1597573.9, 125732.24, 0.003475539, 10.000895, 9.999276 
1.24494724e+3, 1.3415161e+2, -1577097.4, -1664771.9, -101329.93, -0.19140534, -0.05009211, -1510528.8, 114781.945, 0.0019075654, 10.000546, 9.999417 
1.2449644e+3, 1.4415164e+2, -1507859.0, -1591110.3, -5510.533, 0.08034522, 0.015052582, -1507495.9, 19815.994, 0.0007030745, 10.000409, 9.999304 
1.2449789e+3, 1.5415059e+2, -1389169.8, -1481129.1, -10674.048, 0.032187514, -0.022059835, -1387947.0, 41375.83, 0.00011956255, 10.000546, 9.999317 
1.2449934e+3, 1.6414969e+2, -1267871.8, -1364978.5, 9952.594, -0.0072954404, -0.044020835, -1266862.1, 64469.902, 0.0000023468863, 10.000674, 9.999381 
1.2450084e+3, 1.7414911e+2, -1146836.3, -1249641.6, 15189.765, -0.033858445, -0.047138862, -1144638.9, 88698.99, 0.0, 10.000806, 9.999436 
1.2450235e+3, 1.8414883e+2, -1057462.3, -1144837.6, 21278.215, -0.0523434, -0.020475274, -1052555.9, 82784.13, 0.0, 10.000697, 9.9995365 
1.245039e+3, 1.9414899e+2, -1021938.7, -1069961.9, 9039.947, -0.05903204, 0.034670636, -1020293.4, 17043.8, 0.0, 10.000238, 9.9995985 
1.2450546e+3, 2.0414826e+2, -996863.2, -1054880.0, -10232.618, -0.034150425, 0.024000311, -995111.3, -55767.64, 0.0, 9.999944, 9.999171 
1.2450704e+3, 2.1414632e+2, -905719.44, -958610.44, -10406.315, 0.03336555, -0.09006295, -903745.6, -62382.64, 0.0, 9.999889, 9.999186 
1.2450857e+3, 2.2414534e+2, -783277.7, -841493.0, -16111.79, 0.05514118, -0.10809914, -779116.06, -35743.38, 0.0, 10.000026, 9.999252 
1.2451001e+3, 2.3414567e+2, -620235.44, -705040.25, -10839.371, 0.013192123, -0.0063665477, -618871.94, 26497.004, 0.0, 10.0004425, 9.999315 
1.2451147e+3, 2.4414513e+2, -525839.5, -643265.8, -10356.675, -0.008148844, 0.024495812, -524933.06, 22441.06, 0.0, 10.000567, 9.999005 
1.2451295e+3, 2.541434e+2, -468988.34, -561622.94, -10893.047, -0.00027720904, -0.053622797, -467724.66, -18333.377, 0.0, 10.000269, 9.999037 
1.24514416e+3, 2.641421e+2, -406174.4, -498127.88, -13753.196, -0.0012547738, -0.07928661, -404161.44, -52757.15, 0.0, 10.000104, 9.998879 
1.24515854e+3, 2.7414134e+2, -299498.47, -392091.38, -10563.144, -0.01642427, -0.047066018, -298308.7, -44896.84, 0.0, 10.000146, 9.998914 
1.2451734e+3, 2.8414047e+2, -179278.67, -236204.31, 10285.741, -0.025808515, -0.04017513, -177477.19, -22057.959, 0.0, 10.000095, 9.999335 
1.2451887e+3, 2.9413953e+2, -110228.164, -145789.25, -8172.388, -0.025745155, -0.076943785, -108439.97, -51013.863, 0.0, 9.999868, 9.999392 
1.2452038e+3, 3.0413827e+2, -132915.56, -270927.56, -28845.303, -0.04479482, -0.08080445, -127129.33, -127129.33, 0.0, 9.999977, 9.998147 
1.2452189e+3, 3.1413656e+2, 104840.51, 81418.1, -25340.357, -0.020378416, -0.06802387, 121045.0, 121045.0, 0.0, 10.000583, 10.000277 
1.2549378e+3, 1.2413637e+2, -1606686.1, -1694266.6, 42966.313, 0.05893746, 0.012781736, -1589127.4, 134334.77, 0.0037739007, 10.0009, 9.999698 
1.254948e+3, 1.341358e+2, -1535695.1, -1580105.8, -113615.305, -0.1700782, -0.03886249, -1442135.5, 183331.27, 0.0020822603, 10.00055, 9.999998 
1.2549655e+3, 1.441358e+2, -1484685.8, -1542279.6, -3492.2341, 0.13998166, -0.022863902, -1484474.8, 42991.492, 0.0007764397, 10.000406, 9.99964 
1.254979e+3, 1.5413503e+2, -1366786.1, -1434249.4, -5034.1494, -0.0045768474, -0.06329514, -1366412.5, 63061.45, 0.00013646827, 10.000544, 9.999641 
1.2549934e+3, 1.641346e+2, -1260725.9, -1349181.3, 12932.029, -0.07274645, -0.060657132, -1258874.0, 72604.09, 0.0000030208696, 10.0006695, 9.999493 
1.2550092e+3, 1.7413475e+2, -1140102.3, -1236280.9, 19985.777, -0.040008727, -0.0009635583, -1136114.6, 97361.85, 0.0, 10.000807, 9.999529 
1.2550247e+3, 1.8413422e+2, -1079413.9, -1190372.4, 4463.0117, -0.017677482, 0.008298484, -1079234.6, 56246.566, 0.0, 10.000696, 9.999225 
1.2550397e+3, 1.9413272e+2, -1046676.56, -1121447.1, -8612.771, -0.004454895, -0.06697662, -1045697.3, -8202.109, 0.0, 10.000238, 9.999246 
1.255055e+3, 2.0413175e+2, -996224.06, -1053911.0, -15273.015, 0.010695892, -0.08128028, -992429.94, -52925.195, 0.0, 9.999945, 9.999178 
1.2550701e+3, 2.1413161e+2, -903219.44, -953071.56, -12495.369, 0.027001789, -0.019719804, -900262.9, -58755.055, 0.0, 9.999887, 9.999226 
1.2550852e+3, 2.2413109e+2, -772083.3, -817690.4, -3446.2458, 0.008536375, -0.00054929353, -771824.4, -28311.385, 0.0, 10.000022, 9.999418 
1.2550999e+3, 2.3413005e+2, -608891.5, -679266.56, 5021.0117, -0.055995826, -0.054402575, -608535.1, 36986.023, 0.0, 10.000431, 9.999497 
1.2551147e+3, 2.4412923e+2, -524412.6, -637419.2, -20070.705, -0.061802685, -0.064998165, -520953.8, 26574.824, 0.0, 10.000553, 9.999053 
1.25513e+3, 2.5412866e+2, -467640.3, -558202.2, -21461.566, 0.01498481, -0.027189245, -462811.75, -13276.535, 0.0, 10.000265, 9.999063 
1.2551445e+3, 2.6412788e+2, -398368.97, -482033.97, -13780.888, 0.0248125, -0.0076626483, -396157.5, -44614.03, 0.0, 10.000103, 9.998991 
1.2551583e+3, 2.741267e+2, -291631.88, -374137.56, -7846.701, -0.059670914, -0.028127177, -290892.25, -37338.117, 0.0, 10.000138, 9.999042 
1.2551732e+3, 2.8412536e+2, -212348.55, -303708.88, 2905.5688, -0.058236092, -0.056962065, -212256.23, -56689.875, 0.0, 10.000089, 9.998876 
1.2551895e+3, 2.9412383e+2, -144449.11, -220123.17, -14899.116, 0.06032928, -0.10079928, -141621.36, -84041.22, 0.0, 9.999882, 9.998876 
1.2552044e+3, 3.0412266e+2, -135479.97, -277141.84, -8921.125, 0.024583062, -0.06600565, -134920.38, -134920.38, 0.0, 9.999981, 9.998103 
1.2552182e+3, 3.1412077e+2, 93522.11, 68998.31, 3868.6606, -0.14786464, -0.072989374, 94117.914, 94117.914, 0.0, 10.000534, 10.000215 
1.2649384e+3, 1.24120526e+2, -1696788.0, -1717613.0, 57850.613, 0.06704441, 0.03193403, -1648420.3, 75199.13, 0.004085261, 10.000191, 9.99988 
1.2649485e+3, 1.3412012e+2, -1523359.3, -1537087.0, -95820.39, -0.17620413, -0.03434697, -1434157.3, 191463.88, 0.0022650692, 10.000477, 10.000328 
1.2649661e+3, 1.4412028e+2, -1439714.4, -1516848.9, 290.13623, 0.16634354, -0.024074515, -1439713.3, 87905.28, 0.00085386867, 10.000701, 9.999671 
1.2649795e+3, 1.5411973e+2, -1324431.6, -1414535.3, -26447.674, -0.02138929, -0.04070462, -1317242.3, 112381.93, 0.00015477135, 10.000839, 9.999633 
1.2649938e+3, 1.6411938e+2, -1241254.5, -1333589.1, -30895.916, -0.09569929, -0.032718513, -1231870.3, 99757.28, 0.0000038088367, 10.000777, 9.999547 
1.26501e+3, 1.7411937e+2, -1190698.9, -1253503.5, -28749.805, -0.018158859, 0.0064582373, -1179525.9, 54100.902, 0.0, 10.00043, 9.99959 
1.2650256e+3, 1.8411869e+2, -1135524.4, -1215692.1, -34126.418, 0.020846402, -0.0029552905, -1122964.8, 12668.016, 0.0, 10.000305, 9.999239 
1.2650403e+3, 1.9411702e+2, -1007382.7, -1100997.5, -22059.139, 0.0073734964, -0.09584074, -1002445.1, 35203.24, 0.0, 10.000504, 9.999257 
1.2650551e+3, 2.0411618e+2, -901500.2, -998105.6, -9184.463, -0.00101356, -0.10330488, -900634.75, 39022.066, 0.0, 10.000552, 9.999269 
1.2650701e+3, 2.1411654e+2, -824341.4, -903541.3, -3450.34, -0.0032695588, -0.0012001955, -824191.4, 17463.389, 0.0, 10.0003805, 9.999327 
1.265085e+3, 2.241161e+2, -756348.6, -816526.0, 7894.8555, -0.018786237, 0.024021614, -755330.1, -11671.085, 0.0, 10.000159, 9.999359 
1.2651001e+3, 2.3411459e+2, -695778.5, -729366.9, -3630.5703, -0.051678408, -0.07107487, -695390.5, -49718.586, 0.0, 9.999871, 9.999423 
1.265115e+3, 2.4411356e+2, -639544.06, -695259.75, -44231.625, -0.04826175, -0.09448741, -615128.6, -67447.266, 0.0, 9.999773, 9.999031 
1.26513e+3, 2.541133e+2, -513993.2, -582003.9, -51027.574, 0.0043485626, -0.029995486, -486678.25, -36992.418, 0.0, 9.999954, 9.999048 
1.2651445e+3, 2.6411265e+2, -394083.56, -477982.6, -42866.01, 0.008238803, 0.006705405, -376055.97, -24363.3, 0.0, 10.000124, 9.999008 
1.2651585e+3, 2.7411154e+2, -274654.22, -363560.4, -45857.086, -0.05442996, -0.011178311, -255240.67, -1537.6658, 0.0, 10.000244, 9.999063 
1.2651734e+3, 2.8411007e+2, -186658.69, -311667.6, -32581.875, -0.05462552, -0.044735216, -178676.36, -22959.467, 0.0, 10.000353, 9.9986925 
1.2651893e+3, 2.9410824e+2, -73661.42, -208671.7, -30123.1, 0.028413154, -0.09768727, -67245.35, -9510.854, 0.0, 10.000465, 9.9986725 
1.2652041e+3, 3.0410743e+2, -91617.086, -224477.42, -5880.15, -0.004795434, -0.028234666, -91357.35, -91357.35, 0.0, 10.000147, 9.998384 
1.2652184e+3, 3.1410566e+2, -86870.086, 2470.8672, 28352.637, -0.11464014, -0.055065252, 10709.023, 10709.023, 0.0, 9.9992075, 10.000396 
1.2749386e+3, 1.2410438e+2, -1703043.0, -1728076.1, 38236.004, 0.06692722, -0.034870066, -1675327.0, 48449.977, 0.0044096503, 10.000179, 9.999814 
1.2749486e+3, 1.3410465e+2, -1518865.1, -1527029.3, -83752.88, -0.2131714, -0.037330627, -1439094.9, 186677.78, 0.0024558255, 10.000475, 10.000398 
1.2749667e+3, 1.4410512e+2, -1458915.6, -1557648.9, 4049.4705, 0.15314095, 0.011835371, -1458749.8, 69017.984, 0.00093550276, 10.000703, 9.999392 
1.2749803e+3, 1.5410477e+2, -1347514.8, -1463836.9, -20946.207, -0.02374592, 0.046231683, -1343857.9, 85914.61, 0.00017466526, 10.000843, 9.999293 
1.2749949e+3, 1.6410406e+2, -1242508.6, -1335965.9, -43790.9, -0.08124089, 0.03971671, -1225196.6, 106582.89, 0.0000047674703, 10.000775, 9.999532 
1.2750109e+3, 1.7410304e+2, -1189133.3, -1250101.6, -42078.37, 0.0283026, -0.024754798, -1167657.1, 66131.14, 0.0, 10.000429, 9.999615 
1.275026e+3, 1.8410231e+2, -1112668.5, -1167502.1, -30218.695, 0.058336306, -0.05554418, -1099282.8, 36511.465, 0.0, 10.000301, 9.999572 
1.2750404e+3, 1.9410197e+2, -982258.44, -1048434.5, -14742.862, -0.02535058, -0.05211531, -979122.56, 58673.73, 0.0, 10.000501, 9.99962 
1.275055e+3, 2.0410159e+2, -889697.06, -972980.75, -15935.127, -0.07133956, -0.041557405, -886752.25, 53047.066, 0.0, 10.000548, 9.999443 
1.2750699e+3, 2.1410117e+2, -814286.4, -881767.9, -10421.051, -0.06030156, -0.032694932, -812713.75, 29089.613, 0.0, 10.000375, 9.999479 
1.275085e+3, 2.2410046e+2, -776114.44, -856347.2, -4391.219, -0.03244115, -0.032582335, -775874.8, -32064.523, 0.0, 10.000154, 9.999088 
1.2751006e+3, 2.3409931e+2, -717865.8, -775565.7, -14368.026, 0.019933427, -0.057429075, -714486.0, -68664.914, 0.0, 9.999872, 9.999105 
1.2751156e+3, 2.4409823e+2, -645952.56, -709329.5, -39628.76, 0.026143488, -0.06539619, -626900.56, -79068.586, 0.0, 9.999776, 9.998934 
1.2751295e+3, 2.5409728e+2, -518914.1, -592026.6, -43012.188, -0.034127284, -0.06030792, -499022.1, -49179.54, 0.0, 9.999951, 9.998981 
1.275144e+3, 2.6409647e+2, -400071.4, -489175.28, -37664.344, -0.052357417, -0.03373608, -386284.03, -34432.777, 0.0, 10.000117, 9.998935 
1.2751593e+3, 2.7409586e+2, -280622.4, -374934.34, -39403.49, -0.00929847, 0.004650384, -266326.63, -12468.716, 0.0, 10.000239, 9.998987 
1.275174e+3, 2.8409463e+2, -182878.77, -302056.53, -28376.932, -0.02235672, -0.004065555, -176467.0, -20596.627, 0.0, 10.000343, 9.998764 
1.2751882e+3, 2.9409277e+2, -71208.51, -197396.97, -23935.047, -0.1181128, -0.0707304, -66821.125, -8931.968, 0.0, 10.000438, 9.998764 
1.275203e+3, 3.0409256e+2, -54946.168, -143600.19, -36857.203, -0.13122222, 0.02833878, -41624.785, -41624.785, 0.0, 10.000126, 9.99895 
1.2752193e+3, 3.140913e+2, -58652.27, 59404.773, -973.21747, 0.05338878, -0.0034350483, 59412.793, 59412.793, 0.0, 9.999214, 10.000784 
1.2849388e+3, 1.2408909e+2, -1678355.0, -1758416.6, 55039.152, 0.053797852, -0.046093576, -1650328.6, 73596.734, 0.0047468157, 10.000533, 9.999434 
1.2849492e+3, 1.3408929e+2, -1442405.0, -1522926.0, -66172.52, -0.22986268, -0.025322033, -1405207.8, 220715.64, 0.0026545508, 10.001144, 10.000102 
1.284968e+3, 1.4408943e+2, -1372633.6, -1518794.8, -6157.707, 0.17169997, 0.007914445, -1372374.6, 155547.47, 0.0010215283, 10.001308, 9.999366 
1.2849815e+3, 1.5408897e+2, -1341393.0, -1461313.1, -9636.22, 0.006151717, 0.03272817, -1340623.5, 89303.195, 0.00019628371, 10.000887, 9.9992895 
1.2849957e+3, 1.6408819e+2, -1274019.4, -1358495.4, -21657.93, -0.055590205, 0.021083297, -1268790.5, 63143.918, 0.0000059623408, 10.000592, 9.999465 
1.2850112e+3, 1.7408712e+2, -1188666.1, -1258018.0, -28854.81, 0.024645934, -0.04107891, -1178230.9, 55713.62, 0.0, 10.000469, 9.99954 
1.2850264e+3, 1.8408653e+2, -1091757.0, -1137316.3, -15024.087, 0.043651294, -0.06251721, -1087248.6, 48700.758, 0.0, 10.00036, 9.99975 
1.2850408e+3, 1.9408658e+2, -1001554.56, -1034768.06, -12040.805, -0.024486357, -0.041030187, -997648.75, 40298.125, 0.0, 10.000271, 9.999824 
1.2850554e+3, 2.0408626e+2, -939872.8, -1000639.7, -30491.166, -0.056493383, -0.032742634, -927211.4, 12737.234, 0.0, 10.00022, 9.999411 
1.2850705e+3, 2.1408547e+2, -839438.44, -899289.7, -42225.8, -0.036771446, -0.054912485, -817609.25, 24346.625, 0.0, 10.000228, 9.99943 
1.2850854e+3, 2.2408462e+2, -773809.7, -871434.4, -40979.0, -0.013344678, -0.06002273, -758888.8, -14924.393, 0.0, 10.000239, 9.998943 
1.2851006e+3, 2.3408364e+2, -673551.2, -771042.44, -41174.438, 0.014977677, -0.054373793, -658488.75, -12514.035, 0.0, 10.00025, 9.998955 
1.2851153e+3, 2.4408257e+2, -575173.5, -670439.9, -47297.53, 0.0073242523, -0.05491106, -555680.1, -7694.3257, 0.0, 10.00024, 9.998978 
1.2851293e+3, 2.5408143e+2, -477925.63, -565175.6, -41988.34, -0.05132798, -0.07364401, -461001.8, -11004.322, 0.0, 10.000202, 9.999044 
1.285144e+3, 2.6408055e+2, -407986.25, -501583.28, -34030.5, -0.06677145, -0.054147273, -396921.34, -44914.57, 0.0, 10.0001, 9.9988575 
1.2851591e+3, 2.7407998e+2, -334163.06, -411052.75, -39150.734, -0.020606931, -0.0016713014, -317737.28, -63723.668, 0.0, 9.999915, 9.998896 
1.285174e+3, 2.8407887e+2, -259678.69, -325971.22, -25900.879, -0.032067183, 0.0005781372, -250759.16, -94733.65, 0.0, 9.999761, 9.998881 
1.2851882e+3, 2.9407725e+2, -180620.47, -234635.6, -20338.203, -0.12598595, -0.056589544, -173819.0, -115776.69, 0.0, 9.999618, 9.998903 
1.285203e+3, 3.0407736e+2, -118057.61, -158768.81, -52370.938, -0.13294046, 0.062192757, -82225.44, -82225.44, 0.0, 9.999629, 9.9990835 
1.285219e+3, 3.140759e+2, 32745.412, 86287.39, -52167.58, 0.061844084, -0.0032404107, 118152.07, 118152.07, 0.0, 9.999916, 10.00063 
1.2949388e+3, 1.2407479e+2, -1727877.5, -1863598.6, 45433.895, 0.009612211, -0.0005972542, -1714072.4, 9990.976, 0.0050962004, 10.00054, 9.998711 
1.2949502e+3, 1.3407414e+2, -1490115.5, -1620570.3, -42161.2, -0.23015256, 0.0016825843, -1477675.8, 148396.45, 0.0028611089, 10.00114, 9.999433 
1.2949698e+3, 1.4407328e+2, -1357777.9, -1487506.1, -21115.793, 0.21612386, -0.037035443, -1354427.4, 173653.48, 0.00111182, 10.001306, 9.999583 
1.2949829e+3, 1.5407245e+2, -1317468.5, -1412896.9, -25491.29, 0.0647995, -0.081390165, -1311086.0, 119000.2, 0.000219555, 10.000892, 9.99962 
1.2949967e+3, 1.6407184e+2, -1282002.4, -1375672.0, -28456.969, -0.023675574, -0.08961807, -1274034.9, 58056.508, 0.0000074533, 10.000593, 9.999348 
1.295011e+3, 1.7407168e+2, -1200637.0, -1283548.5, -33549.926, -0.032562852, -0.043106593, -1188761.9, 45332.914, 0.0, 10.000471, 9.999365 
1.295026e+3, 1.8407139e+2, -1090713.5, -1135284.4, -20128.842, -0.027179101, -0.024285167, -1082968.8, 53128.816, 0.0, 10.00036, 9.999764 
1.2950414e+3, 1.9407088e+2, -999122.5, -1029620.5, -15796.243, 0.0055979104, -0.06184451, -992415.8, 45683.85, 0.0, 10.000269, 9.999861 
1.2950566e+3, 2.0407026e+2, -956391.2, -1034186.3, -32251.816, 0.036715064, -0.0765269, -944759.56, -4655.3657, 0.0, 10.000216, 9.999183 
1.2950717e+3, 2.1406952e+2, -857603.4, -936804.6, -42169.367, 0.062400986, -0.06887155, -839355.4, 2756.4578, 0.0, 10.000225, 9.999174 
1.2950861e+3, 2.2406866e+2, -776481.75, -875765.3, -41741.72, 0.035061754, -0.059317, -761264.6, -17143.625, 0.0, 10.000234, 9.998917 
1.2951002e+3, 2.3406757e+2, -674598.7, -772009.0, -40155.84, -0.06612105, -0.06166394, -660179.5, -14047.147, 0.0, 10.000243, 9.998952 
1.2951145e+3, 2.440666e+2, -564041.0, -645528.56, -48929.746, -0.10514134, -0.06262297, -541112.4, 7030.1196, 0.0, 10.000232, 9.999153 
1.2951297e+3, 2.5406575e+2, -465457.03, -537916.44, -42396.035, -0.053272728, -0.07064607, -445919.22, 4231.2197, 0.0, 10.0001955, 9.999236 
1.2951443e+3, 2.6406488e+2, -414865.72, -515050.7, -40615.887, -0.04167496, -0.05548525, -400468.63, -48309.41, 0.0, 10.000095, 9.998769 
1.2951584e+3, 2.7406397e+2, -343293.0, -427799.38, -44232.79, -0.08919705, -0.028419448, -324375.34, -70205.516, 0.0, 9.999905, 9.998786 
1.2951732e+3, 2.8406283e+2, -250356.58, -305007.8, -30289.455, -0.0859499, -0.028412797, -236888.33, -80706.29, 0.0, 9.999752, 9.999029 
1.295189e+3, 2.9406172e+2, -168728.19, -208554.39, -23263.502, -0.012142109, -0.05133214, -158019.03, -99825.31, 0.0, 9.999612, 9.999085 
1.2952036e+3, 3.0406192e+2, -136875.95, -198517.55, -43584.703, -0.0246951, 0.077728026, -114315.59, -114315.59, 0.0, 9.999629, 9.998812 
1.2952174e+3, 3.1405962e+2, -16152.675, -10896.6045, -34776.953, -0.08470905, -0.04069803, 21351.469, 21351.469, 0.0, 9.999897, 9.999972 
1.3049395e+3, 1.2405914e+2, -1717509.5, -1856441.1, -17395.84, 0.020254852, -0.015523311, -1715364.5, 8852.14, 0.0054552136, 10.000602, 9.99873 
1.3049515e+3, 1.3405886e+2, -1516213.1, -1627544.8, -23316.521, -0.22956823, 0.01928191, -1511527.1, 114694.984, 0.003073975, 10.000937, 9.999481 
1.3049708e+3, 1.4405783e+2, -1392161.6, -1490334.9, -1844.5579, 0.21408299, -0.044173993, -1392127.0, 136105.11, 0.0012055306, 10.001011, 9.999705 
1.3049838e+3, 1.5405701e+2, -1333719.5, -1406305.5, -24562.842, 0.062417146, -0.10056093, -1326188.9, 104048.01, 0.000244213, 10.000719, 9.999748 
1.3049974e+3, 1.640565e+2, -1272030.4, -1365675.0, -15432.4, -0.022637403, -0.10866017, -1269552.6, 62687.992, 0.000009295233, 10.000641, 9.999392 
1.305012e+3, 1.7405654e+2, -1135919.0, -1248242.9, -4736.923, -0.022619756, -0.04462598, -1135719.6, 98522.016, 0.0, 10.000898, 9.999401 
1.3050267e+3, 1.8405624e+2, -1026084.2, -1134073.4, 99.27785, -0.009450122, -0.01714057, -1026084.1, 110160.7, 0.0, 10.000933, 9.999496 
1.305042e+3, 1.9405541e+2, -966830.94, -1047139.1, -22951.541, 0.02546904, -0.058480028, -960734.4, 77516.93, 0.0, 10.000635, 9.999563 
1.3050571e+3, 2.040545e+2, -937316.06, -1034343.75, -42993.043, 0.053298254, -0.08059187, -921007.1, 19251.857, 0.0, 10.000388, 9.999099 
1.3050719e+3, 2.1405359e+2, -863174.3, -946356.06, -40148.453, 0.068158306, -0.08428716, -846957.75, -4689.948, 0.0, 10.000218, 9.999111 
1.3050863e+3, 2.2405265e+2, -791166.3, -875408.06, -25757.87, 0.03449969, -0.08039218, -783914.75, -39637.637, 0.0, 10.0001, 9.998983 
1.3051002e+3, 2.3405169e+2, -695458.7, -772702.6, -19691.76, -0.06738475, -0.08047184, -690728.4, -44441.188, 0.0, 10.00006, 9.999035 
1.3051145e+3, 2.4405086e+2, -605505.25, -669709.75, -34406.43, -0.10512493, -0.0684565, -590550.56, -42254.547, 0.0, 9.999966, 9.999116 
1.3051297e+3, 2.5405025e+2, -528651.75, -574135.5, -47293.777, -0.050250273, -0.048537362, -498916.06, -48613.31, 0.0, 9.999786, 9.999185 
1.3051443e+3, 2.6404944e+2, -466975.72, -532611.44, -47822.383, -0.039294846, -0.028495682, -441793.66, -89482.3, 0.0, 9.999705, 9.998836 
1.3051581e+3, 2.7404827e+2, -358004.6, -426436.28, -39822.543, -0.09125056, -0.030531969, -339717.5, -85394.1, 0.0, 9.999766, 9.998861 
1.305173e+3, 2.8404704e+2, -255535.55, -308121.5, -25456.984, -0.08499575, -0.047413606, -245231.0, -88894.625, 0.0, 9.99972, 9.999023 
1.3051885e+3, 2.940459e+2, -182222.14, -216160.06, -35037.973, 0.0016035653, -0.07013383, -160260.33, -101912.32, 0.0, 9.999524, 9.999076 
1.3052033e+3, 3.0404612e+2, -138304.19, -191551.1, -32514.932, -0.016229976, 0.055662006, -122903.5, -122903.5, 0.0, 9.999588, 9.99888 
1.305217e+3, 3.1404394e+2, -15008.569, -40503.52, 5956.518, -0.11400893, -0.053278256, -13685.57, -13685.57, 0.0, 10.000031, 9.999707 
1.3149406e+3, 1.2404222e+2, -1665091.9, -1746552.8, -35660.465, 0.070763394, -0.09169579, -1651686.9, 72698.05, 0.005819013, 10.000596, 9.999488 
1.3149522e+3, 1.3404354e+2, -1461473.0, -1514665.3, -9854.805, -0.23100476, 0.02692393, -1459705.9, 166666.14, 0.0032902497, 10.00094, 10.0002575 
1.3149713e+3, 1.4404319e+2, -1389506.0, -1485874.9, -12320.2705, 0.15827987, -0.014000128, -1387955.9, 140419.0, 0.0013013786, 10.001015, 9.999734 
1.3149838e+3, 1.5404275e+2, -1340081.6, -1418288.9, -35632.445, -0.005809478, -0.024944816, -1326281.9, 104095.945, 0.00026992275, 10.000714, 9.999668 
1.3149975e+3, 1.6404223e+2, -1259169.9, -1338084.9, -9480.839, -0.05728923, -0.035790674, -1258046.9, 74334.58, 0.00001153221, 10.000636, 9.999584 
1.3150136e+3, 1.7404181e+2, -1118645.0, -1213046.9, 4921.4688, 0.050121743, -0.044583805, -1118389.1, 115995.11, 0.0, 10.0009, 9.999642 
1.3150287e+3, 1.8404116e+2, -1064533.4, -1213639.3, -10688.879, 0.09011743, -0.04033655, -1063771.0, 72619.34, 0.0, 10.000931, 9.998952 
1.3150427e+3, 1.9404018e+2, -1010998.25, -1139170.0, -34669.063, 0.0327315, -0.032602165, -1002221.6, 36179.797, 0.0, 10.000635, 9.998933 
1.3150568e+3, 2.0403905e+2, -934217.06, -1027919.25, -51273.01, -0.0075396514, -0.04622423, -911613.5, 28799.107, 0.0, 10.000387, 9.999144 
1.3150711e+3, 2.1403772e+2, -854890.4, -929748.5, -46443.35, -0.020302547, -0.10127005, -832671.1, 9752.311, 0.0, 10.000219, 9.999226 
1.3150859e+3, 2.2403666e+2, -780422.75, -852848.06, -29162.914, -0.019026589, -0.12276799, -770139.9, -25707.389, 0.0, 10.000098, 9.99914 
1.315101e+3, 2.3403598e+2, -684722.8, -750193.0, -20972.658, 0.0043860087, -0.11076232, -678580.7, -32141.697, 0.0, 10.000058, 9.999191 
1.3151155e+3, 2.4403538e+2, -622933.9, -704876.4, -41044.29, -0.000193047, -0.07325064, -605911.4, -57465.12, 0.0, 9.999961, 9.998877 
1.3151294e+3, 2.5403494e+2, -549205.2, -615132.56, -52576.984, -0.045765497, -0.008154978, -520112.9, -69658.83, 0.0, 9.999778, 9.998908 
1.3151437e+3, 2.640342e+2, -454594.03, -505053.28, -45639.44, -0.06256893, 0.025225885, -427674.9, -75211.914, 0.0, 9.999696, 9.999029 
1.3151586e+3, 2.7403298e+2, -342246.78, -392108.72, -35189.16, -0.03596135, -0.008042537, -324052.0, -69577.85, 0.0, 9.999759, 9.999102 
1.3151732e+3, 2.8403148e+2, -266256.88, -330501.34, -31914.443, -0.038016386, -0.05521319, -253098.1, -96609.64, 0.0, 9.999718, 9.998872 
1.3151874e+3, 2.9402983e+2, -195757.23, -243957.4, -39930.145, -0.08375342, -0.11063691, -173217.95, -114713.12, 0.0, 9.999521, 9.998888 
1.315202e+3, 3.0402997e+2, -112432.43, -136827.97, -16426.248, -0.10714301, -0.002840921, -104170.31, -104170.31, 0.0, 9.999583, 9.999259 
1.3152178e+3, 3.1402895e+2, -12166.601, -25284.594, 30494.602, -0.04558478, -0.036253136, 12466.407, 12466.407, 0.0, 9.999992, 9.99983 
1.3249415e+3, 1.2402706e+2, -1601864.8, -1694535.1, 13767.471, 0.07896882, -0.08128445, -1599862.6, 124672.555, 0.006183249, 10.000937, 9.999683 
1.3249533e+3, 1.3402854e+2, -1486493.1, -1511856.9, 14687.846, -0.21923861, 0.041006725, -1479769.8, 146749.38, 0.0035072896, 10.000707, 10.000388 
1.3249722e+3, 1.4402795e+2, -1453900.1, -1539742.4, -24906.69, 0.15586971, -0.021554243, -1447197.0, 81326.98, 0.0013982238, 10.000673, 9.999528 
1.3249847e+3, 1.5402766e+2, -1315964.4, -1435037.8, -62547.438, 0.0017449537, 0.0059620943, -1289148.3, 141378.92, 0.00029637254, 10.001002, 9.999414 
1.3249986e+3, 1.6402711e+2, -1198711.0, -1300484.6, -49205.09, -0.043780122, 0.0030738707, -1178812.1, 153719.27, 0.000014169166, 10.001015, 9.9996605 
1.3250144e+3, 1.7402644e+2, -1163136.9, -1221990.1, -47087.41, 0.06498161, -0.03959325, -1137037.4, 97497.555, 0.0, 10.000542, 9.999754 
1.3250296e+3, 1.8402562e+2, -1160768.6, -1272564.3, -50815.81, 0.10539975, -0.054038223, -1141123.0, -4580.8237, 0.0, 10.000325, 9.998838 
1.3250433e+3, 1.9402453e+2, -1039044.8, -1167842.4, -38959.242, 0.043861758, -0.043527067, -1028177.2, 10377.753, 0.0, 10.000509, 9.9987955 
1.3250574e+3, 2.0402345e+2, -882716.56, -994221.7, -30786.201, -0.0048533105, -0.047839537, -874781.3, 65784.64, 0.0, 10.000703, 9.999223 
1.3250716e+3, 2.1402243e+2, -748874.9, -866454.8, -28397.82, -0.03417167, -0.08328719, -742375.5, 100198.1, 0.0, 10.000896, 9.999332 
1.3250862e+3, 2.240215e+2, -681762.0, -800236.06, -26210.31, -0.031136, -0.09970143, -676222.44, 68358.65, 0.0, 10.000756, 9.999184 
1.3251013e+3, 2.3402071e+2, -672633.56, -739688.8, -29596.303, 0.019538203, -0.10360403, -661439.3, -14851.023, 0.0, 10.000122, 9.999231 
1.3251156e+3, 2.4401996e+2, -666045.4, -737231.6, -41751.344, 0.021841746, -0.07777652, -646774.6, -98177.69, 0.0, 9.999716, 9.998773 
1.3251291e+3, 2.5401932e+2, -576065.6, -640784.94, -43367.293, -0.046609167, -0.01916366, -554315.5, -103708.42, 0.0, 9.999651, 9.998792 
1.3251431e+3, 2.640186e+2, -469491.4, -501713.78, -30266.93, -0.06840836, 0.015435641, -451314.75, -98698.39, 0.0, 9.999551, 9.999123 
1.3251583e+3, 2.7401763e+2, -388652.1, -401030.34, -30190.797, -0.02036384, -0.003873521, -364022.56, -109397.695, 0.0, 9.999386, 9.99922 
1.3251728e+3, 2.840163e+2, -296754.06, -346728.34, -17686.45, -0.029007258, -0.038450614, -291128.0, -134490.64, 0.0, 9.999518, 9.998856 
1.3251868e+3, 2.940147e+2, -115204.555, -207267.2, -15689.784, -0.12037858, -0.089005515, -112604.08, -53950.375, 0.0, 10.000085, 9.998867 
1.3252014e+3, 3.0401465e+2, -34609.164, -69263.39, -5607.8477, -0.13312857, -0.009797802, -33724.28, -33724.28, 0.0, 9.9999895, 9.999526 
1.3252176e+3, 3.140143e+2, -164098.34, -91504.2, 28283.658, 0.0018472299, -0.008851672, -81785.59, -81785.59, 0.0, 9.998921, 9.999888 
1.3349418e+3, 1.24013804e+2, -1627235.3, -1749341.4, -18759.146, 0.027803298, 0.020751394, -1624418.3, 100247.71, 0.0065457188, 10.000945, 9.999304 
1.334954e+3, 1.3401397e+2, -1525784.5, -1590188.9, 5953.1943, -0.19613655, 0.06336733, -1525238.9, 101423.42, 0.0037237175, 10.000694, 9.999854 
1.3349733e+3, 1.440122e+2, -1486283.5, -1605366.1, -16865.473, 0.20219962, -0.066268444, -1483941.0, 44737.805, 0.0014951822, 10.000665, 9.999083 
1.3349864e+3, 1.5401179e+2, -1344471.6, -1495591.1, -49344.785, 0.080184706, -0.008542525, -1329786.1, 100898.26, 0.00032323142, 10.001006, 9.998998 
1.3350001e+3, 1.6401118e+2, -1202708.9, -1309454.5, -65309.84, 0.010673489, 0.008042239, -1171736.9, 160952.92, 0.000017128494, 10.001017, 9.9995985 
1.3350146e+3, 1.7401053e+2, -1165286.6, -1226909.0, -65388.984, 0.019646076, -0.030187933, -1123813.3, 110879.695, 0.00000000003443261, 10.000543, 9.999721 
1.335029e+3, 1.8400967e+2, -1139070.3, -1227710.9, -48076.754, 0.0331792, -0.05879961, -1118002.0, 18697.535, 0.0, 10.000325, 9.999147 
1.335044e+3, 1.940085e+2, -1014381.3, -1117106.4, -32153.148, 0.05512014, -0.09074082, -1005147.3, 33564.08, 0.0, 10.000509, 9.999145 
1.3350587e+3, 2.0400776e+2, -876121.8, -978575.06, -25030.158, 0.054333586, -0.08438541, -870333.75, 70384.8, 0.0, 10.000694, 9.999334 
1.3350731e+3, 2.1400772e+2, -744739.7, -855347.5, -21510.908, 0.021086967, -0.0324491, -740703.56, 102014.625, 0.0, 10.000884, 9.999416 
1.3350871e+3, 2.2400714e+2, -687639.56, -809504.06, -48488.69, -0.005772208, -0.014746417, -670700.8, 74022.15, 0.0, 10.000743, 9.999126 
1.3351008e+3, 2.3400585e+2, -678583.8, -750913.0, -53162.61, -0.021944279, -0.060449358, -650451.1, -3716.2515, 0.0, 10.000116, 9.999159 
1.3351147e+3, 2.4400459e+2, -665497.94, -735968.4, -46724.418, -0.03927079, -0.08173848, -642212.3, -93464.52, 0.0, 9.999714, 9.998782 
1.3351287e+3, 2.5400344e+2, -574579.44, -638937.25, -44597.867, -0.05745892, -0.078152224, -551763.3, -101001.805, 0.0, 9.999655, 9.998803 
1.3351429e+3, 2.6400262e+2, -467919.94, -500526.78, -35823.797, -0.062072057, -0.05415398, -444864.2, -92092.86, 0.0, 9.999558, 9.999127 
1.3351573e+3, 2.740022e+2, -388007.28, -400031.63, -34483.766, -0.047476664, -0.018395588, -359015.53, -104239.96, 0.0, 9.999386, 9.999228 
1.335172e+3, 2.8400147e+2, -291095.13, -333089.13, 1889.2576, -0.061574295, -0.0006343431, -291010.3, -134226.89, 0.0, 9.999509, 9.998954 
1.335187e+3, 2.940004e+2, -110980.96, -192973.72, 8782.458, -0.11628426, -0.005512615, -110050.8, -51255.92, 0.0, 10.00006, 9.998979 
1.3352017e+3, 3.0400008e+2, -25968.305, -47027.637, -39039.043, -0.1049751, 0.034781955, 3936.1807, 3936.1807, 0.0, 9.99997, 9.999688 
1.3352168e+3, 3.1399977e+2, -161964.23, -89589.57, -7153.829, 0.016974477, 0.025383895, -88889.23, -88889.23, 0.0, 9.998932, 9.999898 
1.3449427e+3, 1.2399936e+2, -1652963.3, -1774170.3, -53208.715, 0.017662846, 0.04228613, -1632919.6, 91888.25, 0.0069055543, 10.000824, 9.999191 
1.3449554e+3, 1.3399923e+2, -1422084.4, -1571046.1, 8630.792, -0.17283922, 0.082701884, -1421586.0, 205221.19, 0.0039389143, 10.001544, 9.999576 
1.3449745e+3, 1.4399698e+2, -1351783.4, -1548703.9, -5374.348, 0.21297261, -0.07750036, -1351636.8, 177191.45, 0.0015916337, 10.001625, 9.999008 
1.3449876e+3, 1.5399642e+2, -1381974.3, -1519670.0, -14632.729, 0.09568788, -0.025690524, -1380436.4, 50398.18, 0.0003501717, 10.000776, 9.998942 
1.345001e+3, 1.6399573e+2, -1295642.0, -1373497.5, -8967.317, 0.02582807, -0.009599904, -1294622.5, 38218.656, 0.000020254476, 10.000463, 9.999426 
1.3450153e+3, 1.7399496e+2, -1115390.8, -1223300.6, -19855.146, 0.02773624, -0.04054974, -1111853.4, 122992.81, 0.0000000014653116, 10.000973, 9.999537 
1.3450298e+3, 1.8399414e+2, -1010934.94, -1150543.0, -16709.537, 0.03656545, -0.06250751, -1008962.9, 127889.664, 0.0, 10.001138, 9.999286 
1.3450447e+3, 1.9399323e+2, -964872.9, -1073422.0, -16381.408, 0.053954322, -0.08660039, -962454.6, 76406.24, 0.0, 10.000765, 9.999321 
1.3450593e+3, 2.0399258e+2, -938891.5, -1018870.1, -25117.81, 0.059024725, -0.077860445, -931657.4, 9209.463, 0.0, 10.000306, 9.999245 
1.3450736e+3, 2.1399233e+2, -920712.8, -953247.94, -38283.492, 0.045292117, -0.032830358, -895384.0, -52514.902, 0.0, 9.999732, 9.999299 
1.3450876e+3, 2.2399166e+2, -863764.5, -898302.9, -68747.83, 0.017948078, -0.016646862, -810150.06, -65274.64, 0.0, 9.999552, 9.999091 
1.3451008e+3, 2.3399042e+2, -703239.3, -764360.94, -72175.12, -0.028703418, -0.055107806, -655421.5, -8534.176, 0.0, 9.999958, 9.999141 
1.3451144e+3, 2.4398924e+2, -585660.56, -677892.3, -55922.883, -0.059815533, -0.07507668, -559291.7, -10392.637, 0.0, 10.000182, 9.998954 
1.3451284e+3, 2.539882e+2, -493051.8, -577446.5, -41901.836, -0.06739939, -0.08015732, -475781.7, -24871.48, 0.0, 10.000123, 9.998999 
1.3451426e+3, 2.6398733e+2, -406546.13, -483924.34, -31906.168, -0.06771792, -0.064492226, -395086.97, -42167.18, 0.0, 10.000039, 9.999009 
1.3451569e+3, 2.7398673e+2, -318751.2, -383106.9, -44605.613, -0.05832533, -0.03452653, -295928.38, -41001.332, 0.0, 9.999935, 9.999078 
1.3451715e+3, 2.8398606e+2, -267400.38, -301743.97, -9350.767, -0.06465827, -0.007018939, -265019.47, -108085.266, 0.0, 9.999589, 9.99913 
1.3451865e+3, 2.939855e+2, -265702.28, -242038.36, 3066.5833, -0.092046775, 0.013464045, -241647.42, -182707.14, 0.0, 9.998894, 9.999201 
1.3452014e+3, 3.0398485e+2, -172427.77, -123851.19, -40033.27, -0.07905165, 0.011783227, -101314.445, -101314.445, 0.0, 9.998994, 9.999631 
1.345216e+3, 3.1398472e+2, 15022.252, -16130.745, -26663.58, -0.013248704, 0.029500343, 30325.744, 30325.744, 0.0, 10.0002, 9.999791 
1.3549437e+3, 1.2398383e+2, -1645088.3, -1755203.5, -45157.098, 0.04025274, -0.015660312, -1628938.4, 96021.77, 0.0072628423, 10.000812, 9.999329 
1.3549572e+3, 1.339844e+2, -1422753.3, -1572419.1, 36495.19, -0.15442091, 0.09726821, -1414328.4, 212624.67, 0.004152666, 10.001546, 9.999565 
1.3549757e+3, 1.4398235e+2, -1331488.9, -1508862.4, -33008.918, 0.178267, -0.056598227, -1325545.1, 203426.6, 0.0016872559, 10.001634, 9.999279 
1.3549878e+3, 1.539817e+2, -1361584.1, -1478021.5, -47247.16, 0.04518017, -0.044150252, -1344824.8, 86152.15, 0.0003769789, 10.000778, 9.9992285 
1.3550012e+3, 1.6398083e+2, -1314904.9, -1412923.0, 3243.2966, -0.0011598123, -0.048842333, -1314797.8, 18186.941, 0.000023370363, 10.000459, 9.999158 
1.3550168e+3, 1.7397982e+2, -1137719.8, -1270037.0, -228.08894, 0.08439247, -0.0717636, -1137719.4, 97274.56, 0.0000000068048798, 10.000974, 9.999217 
1.3550317e+3, 1.8397908e+2, -1014298.44, -1156496.9, -28976.926, 0.1070424, -0.065108486, -1008620.3, 128380.05, 0.0, 10.001133, 9.999247 
1.3550451e+3, 1.9397873e+2, -965422.5, -1074423.1, -30975.875, 0.038133737, -0.033139065, -957234.8, 81768.14, 0.0, 10.000763, 9.999315 
1.3550591e+3, 2.0397787e+2, -959173.8, -1060860.0, -47652.086, 0.007991412, -0.030380966, -940333.75, 676.94293, 0.0, 10.000305, 9.998958 
1.3550733e+3, 2.1397635e+2, -942426.75, -999206.7, -60032.703, 0.035893854, -0.08203512, -904409.56, -61383.953, 0.0, 9.999735, 9.998983 
1.3550873e+3, 2.2397514e+2, -865131.56, -901560.0, -58212.93, 0.035698634, -0.10215721, -822349.9, -77312.14, 0.0, 9.999552, 9.999068 
1.355101e+3, 2.3397444e+2, -703192.44, -763930.56, -56189.07, -0.0062747947, -0.0863334, -669690.56, -22645.477, 0.0, 9.999954, 9.9991455 
1.3551147e+3, 2.4397391e+2, -562955.56, -629031.25, -56767.754, -0.045813587, -0.058986504, -530311.75, 18738.88, 0.0, 10.000174, 9.999293 
1.3551284e+3, 2.5397357e+2, -468612.75, -523580.7, -43164.652, -0.08044454, -0.028986145, -444924.9, 6128.415, 0.0, 10.000109, 9.999376 
1.3551424e+3, 2.6397276e+2, -426527.53, -522314.0, -35340.887, -0.08841165, -0.019759016, -414899.84, -61837.8, 0.0, 10.000025, 9.998753 
1.3551569e+3, 2.739712e+2, -342796.4, -431695.78, -46200.336, -0.058214042, -0.049314093, -323134.9, -68055.85, 0.0, 9.9999275, 9.998748 
1.3551714e+3, 2.8397018e+2, -250099.19, -266258.3, -32544.053, -0.045620028, -0.05140414, -224646.75, -67557.31, 0.0, 9.99959, 9.999373 
1.3551858e+3, 2.9396987e+2, -243255.39, -197270.95, -20803.38, -0.057765804, -0.03144866, -189256.36, -130165.94, 0.0, 9.998899, 9.999506 
1.3552006e+3, 3.0396885e+2, -190274.83, -161624.53, -312.2755, -0.062886916, -0.07896797, -161621.14, -161621.14, 0.0, 9.998996, 9.999372 
1.3552155e+3, 3.1396896e+2, -1354.3892, -43949.18, 23696.498, -0.092163846, -0.0056571104, 9208.897, 9208.897, 0.0, 10.000174, 9.999615 
1.3649449e+3, 1.23968944e+2, -1568572.8, -1711866.6, -20108.623, 0.057552673, -0.046110183, -1565804.3, 159300.63, 0.0076198755, 10.001309, 9.999388 
1.3649586e+3, 1.339696e+2, -1528520.3, -1632122.1, 66197.57, -0.13543692, 0.08269864, -1496265.0, 130832.62, 0.004366158, 10.000855, 9.999487 
1.3649768e+3, 1.4396755e+2, -1447312.3, -1557569.0, -20637.629, 0.16166009, -0.06807919, -1443576.0, 85540.4, 0.0017823466, 10.000808, 9.999343 
1.3649888e+3, 1.5396716e+2, -1255918.5, -1419021.5, -51825.984, 0.045489304, -0.037393015, -1240844.0, 190274.66, 0.0004035849, 10.001468, 9.999302 
1.3650022e+3, 1.6396634e+2, -1165892.3, -1363721.1, -6728.2773, 0.0012737099, -0.030973652, -1165663.6, 167462.47, 0.000026350568, 10.001579, 9.998955 
1.3650176e+3, 1.7396516e+2, -1173869.1, -1313773.0, -6014.7617, 0.07011862, -0.050457075, -1173611.0, 61527.383, 0.000000016360648, 10.000839, 9.998981 
1.3650322e+3, 1.8396427e+2, -1124813.8, -1215523.5, -32113.836, 0.089317545, -0.044126414, -1114595.5, 22551.322, 0.0, 10.000399, 9.999197 
1.3650458e+3, 1.939638e+2, -1015442.3, -1101628.3, -36978.258, 0.032349203, -0.020537093, -1001751.56, 37398.46, 0.0, 10.000432, 9.999289 
1.3650593e+3, 2.0396282e+2, -930086.75, -1045556.3, -45561.5, 0.00054671324, -0.029076286, -914274.56, 26883.92, 0.0, 10.000501, 9.998968 
1.3650732e+3, 2.1396117e+2, -813203.0, -934414.25, -35170.688, 0.0065207146, -0.094625115, -803737.1, 39437.047, 0.0, 10.000615, 9.999002 
1.365087e+3, 2.2395994e+2, -727774.2, -844021.2, -12625.622, 0.006564859, -0.115951285, -726418.75, 18767.873, 0.0, 10.000536, 9.998988 
1.365101e+3, 2.339593e+2, -680214.6, -763695.25, -18736.871, -0.0034450924, -0.08356377, -676202.06, -29008.258, 0.0, 10.00016, 9.999048 
1.365115e+3, 2.4395879e+2, -613009.75, -656100.94, -39893.617, -0.027930098, -0.04711034, -589215.4, -40015.91, 0.0, 9.999845, 9.999266 
1.3651283e+3, 2.539584e+2, -538938.56, -558709.5, -58045.97, -0.0729021, -0.021689154, -489942.3, -38739.63, 0.0, 9.999635, 9.999361 
1.3651422e+3, 2.6395753e+2, -491678.94, -542502.56, -50137.383, -0.08041951, -0.020044422, -460881.16, -107669.66, 0.0, 9.999534, 9.998848 
1.3651569e+3, 2.7395603e+2, -385925.66, -439757.97, -31417.154, -0.0335202, -0.056642715, -371471.3, -116243.875, 0.0, 9.999583, 9.998856 
1.3651711e+3, 2.83955e+2, -244791.98, -269949.0, -18538.717, -0.02234341, -0.058952495, -234967.3, -77730.35, 0.0, 9.999657, 9.999315 
1.3651852e+3, 2.9395464e+2, -124751.11, -148316.1, -36615.816, -0.059316654, -0.039774954, -98068.74, -38830.316, 0.0, 9.999751, 9.999432 
1.3651998e+3, 3.0395305e+2, -105691.26, -147470.48, -4239.786, -0.072580725, -0.12839231, -105265.34, -105265.34, 0.0, 9.999692, 9.999133 
1.365215e+3, 3.1395325e+2, -115867.5, -99160.89, 22585.54, -0.11393757, -0.020403445, -83433.41, -83433.41, 0.0, 9.999386, 9.999615 
1.3749462e+3, 1.23954706e+2, -1569943.5, -1716010.4, -47850.2, 0.0590627, -0.05411988, -1555664.1, 169577.9, 0.0079810945, 10.001313, 9.999359 
1.3749596e+3, 1.339549e+2, -1540326.5, -1654755.0, 48225.223, -0.117993966, 0.042000763, -1522713.4, 104526.65, 0.0045821774, 10.000848, 9.999335 
1.3749775e+3, 1.439527e+2, -1457146.4, -1577030.6, -2281.1746, 0.15955907, -0.109148435, -1457103.0, 72158.24, 0.0018779465, 10.000802, 9.999212 
1.3749908e+3, 1.539529e+2, -1264573.8, -1436988.4, -25986.748, 0.09114308, -0.0074175, -1260742.1, 170517.31, 0.00043006244, 10.001468, 9.999179 
1.375004e+3, 1.6395238e+2, -1176801.6, -1386686.3, -30361.152, 0.024843397, 0.042864464, -1172497.9, 160767.03, 0.000029160963, 10.001579, 9.998797 
1.3750176e+3, 1.73951e+2, -1184635.9, -1337276.5, -34444.176, -0.016458288, 0.023410076, -1177223.4, 58055.855, 0.000000027808229, 10.000843, 9.998818 
1.3750316e+3, 1.8394971e+2, -1128857.1, -1224610.3, -35669.117, -0.018221578, -0.00024004877, -1117030.6, 20260.951, 0.0, 10.000401, 9.999134 
1.375046e+3, 1.9394848e+2, -1018810.7, -1108757.3, -35848.223, 0.03233407, -0.04802708, -1006271.44, 33030.04, 0.0, 10.000432, 9.999241 
1.3750602e+3, 2.0394745e+2, -909896.1, -1002227.56, -43048.207, 0.030689811, -0.072480775, -892939.56, 48370.035, 0.0, 10.000494, 9.9992695 
1.3750732e+3, 2.1394679e+2, -790437.2, -885367.5, -31089.373, -0.045915183, -0.07210031, -781161.75, 62152.887, 0.0, 10.000606, 9.999344 
1.3750868e+3, 2.23946e+2, -739191.25, -865206.25, -26335.014, -0.07175735, -0.061647553, -733909.1, 11413.187, 0.0, 10.0005245, 9.998848 
1.375101e+3, 2.3394501e+2, -694883.9, -792642.7, -32725.264, -0.021918789, -0.04759687, -684940.3, -37606.906, 0.0, 10.000153, 9.998854 
1.3751149e+3, 2.4394391e+2, -640899.94, -713305.8, -48714.97, -0.008903377, -0.039468963, -616408.56, -67063.34, 0.0, 9.999841, 9.998875 
1.3751282e+3, 2.5394273e+2, -567712.9, -619026.5, -64394.96, -0.050337344, -0.05446026, -524051.72, -72693.99, 0.0, 9.999636, 9.998947 
1.375142e+3, 2.639417e+2, -461667.3, -481460.25, -48711.2, -0.049921397, -0.061565477, -421857.44, -68489.68, 0.0, 9.999538, 9.999266 
1.3751568e+3, 2.7394107e+2, -350484.2, -365425.44, -27522.021, 0.007671388, -0.06052419, -329436.9, -74063.95, 0.0, 9.999578, 9.99937 
1.375171e+3, 2.839405e+2, -270230.0, -320342.5, -14371.554, -0.0018409482, -0.0358427, -266401.0, -109023.125, 0.0, 9.999646, 9.998974 
1.3751845e+3, 2.939398e+2, -157002.4, -212526.1, -29811.82, -0.099319495, -0.008422225, -144027.73, -84643.67, 0.0, 9.999739, 9.998997 
1.3751991e+3, 3.0393746e+2, -123528.33, -183698.63, -12331.648, -0.111457705, -0.13276815, -121099.086, -121099.086, 0.0, 9.999686, 9.998888 
1.3752146e+3, 3.139373e+2, -107947.35, -79551.81, 15025.885, -0.09701095, -0.0387849, -73077.04, -73077.04, 0.0, 9.999371, 9.999757 
1.3849477e+3, 1.2394052e+2, -1547057.6, -1721395.5, -62196.375, 0.06225896, -0.049702268, -1527143.4, 198237.1, 0.008351057, 10.001545, 9.999209 
1.3849609e+3, 1.3394044e+2, -1448221.3, -1637608.1, 30699.176, -0.10963031, 0.04355214, -1443369.4, 184012.17, 0.004803759, 10.001602, 9.999088 
1.3849784e+3, 1.4393805e+2, -1369779.1, -1542338.5, -10022.194, 0.13814393, -0.11055296, -1369199.0, 160206.25, 0.0019753822, 10.001435, 9.999145 
1.384992e+3, 1.539383e+2, -1341399.6, -1479530.5, -29086.334, 0.08520045, 0.0003219426, -1335524.8, 95878.586, 0.00045665295, 10.000963, 9.99913 
1.3850051e+3, 1.6393778e+2, -1291924.0, -1438208.9, -33336.246, 0.021586735, 0.052599803, -1284685.4, 48723.445, 0.00003186285, 10.000772, 9.998834 
1.3850184e+3, 1.7393635e+2, -1150879.0, -1315748.3, -24092.824, -0.034824725, 0.023645788, -1147430.4, 87992.66, 0.000000039188958, 10.001053, 9.998865 
1.3850321e+3, 1.8393502e+2, -1035609.06, -1179513.6, -12650.564, -0.041504778, -0.007690248, -1034505.44, 102930.234, 0.0, 10.001041, 9.999133 
1.3850465e+3, 1.9393374e+2, -996676.9, -1098704.8, -10990.011, 0.016331773, -0.057340253, -995506.5, 43939.375, 0.0, 10.000588, 9.999233 
1.3850605e+3, 2.0393275e+2, -949787.56, -1032721.44, -21564.52, 0.028460901, -0.07359758, -944515.5, -3061.477, 0.0, 10.000269, 9.999167 
1.3850737e+3, 2.1393222e+2, -863787.7, -934113.8, -43970.043, -0.026241932, -0.051378112, -842649.75, 808.9081, 0.0, 10.000159, 9.999225 
1.3850872e+3, 2.2393143e+2, -805888.06, -895047.94, -59494.406, -0.053898074, -0.03382663, -776124.5, -30658.27, 0.0, 10.000057, 9.998869 
1.385101e+3, 2.3393032e+2, -718560.1, -798687.75, -51815.656, -0.042441502, -0.035344787, -693126.06, -45648.12, 0.0, 9.99997, 9.998898 
1.3851145e+3, 2.4392913e+2, -627849.75, -713635.9, -40937.953, -0.038691092, -0.03594416, -611449.25, -61958.848, 0.0, 9.999963, 9.998811 
1.385128e+3, 2.539279e+2, -509978.44, -599530.44, -32406.97, -0.046001345, -0.04839512, -499481.47, -47977.727, 0.0, 10.000072, 9.998869 
1.3851419e+3, 2.639268e+2, -385368.6, -436468.0, -16123.698, -0.037261643, -0.058574174, -380706.34, -27192.338, 0.0, 10.000029, 9.999337 
1.3851564e+3, 2.7392617e+2, -317907.1, -339567.25, -28046.94, -0.009523007, -0.071074806, -298671.88, -43153.195, 0.0, 9.999759, 9.999459 
1.3851704e+3, 2.839256e+2, -288527.38, -347699.47, -19085.389, -0.023214256, -0.040701702, -282905.66, -125382.45, 0.0, 9.999602, 9.998806 
1.3851844e+3, 2.9392502e+2, -187195.78, -248230.23, -20145.32, -0.08529941, 0.01950835, -181146.16, -121616.836, 0.0, 9.999626, 9.998803 
1.3851991e+3, 3.0392247e+2, -149698.19, -191242.34, 2518.87, -0.07539179, -0.11687746, -149546.03, -149546.03, 0.0, 9.999488, 9.998931 
1.385214e+3, 3.139219e+2, -119789.27, -29441.6, 46737.234, -0.08084481, -0.0782197, -9615.092, -9615.092, 0.0, 9.999052, 10.000253 
1.3949494e+3, 1.2392647e+2, -1566695.6, -1761541.0, -66122.69, 0.06033155, -0.03339072, -1546375.4, 179144.11, 0.008733579, 10.00154, 9.998937 
1.3949624e+3, 1.3392632e+2, -1472663.4, -1687615.3, 32942.16, -0.11533609, 0.0856244, -1467728.3, 159793.45, 0.005033633, 10.001598, 9.998746 
1.3949794e+3, 1.4392366e+2, -1371310.3, -1545908.9, -27414.988, 0.0881984, -0.07468439, -1367106.8, 162440.97, 0.002076125, 10.001436, 9.999121 
1.3949923e+3, 1.5392342e+2, -1340295.6, -1477542.4, -47265.492, 0.024376633, -0.01250146, -1325593.1, 105956.58, 0.00048381835, 10.000964, 9.999144 
1.3950056e+3, 1.6392262e+2, -1275306.5, -1405053.1, -27781.0, -0.01258746, 0.0010168668, -1269608.4, 63948.53, 0.000034571214, 10.000776, 9.999061 
1.3950197e+3, 1.7392126e+2, -1132861.3, -1278296.0, -13489.537, 0.009566035, -0.049322184, -1131620.6, 103948.67, 0.00000005013657, 10.001051, 9.999125 
1.3950337e+3, 1.839202e+2, -1032343.0, -1171558.0, -28278.385, 0.01172855, -0.06580373, -1026818.2, 110760.266, 0.0, 10.001036, 9.999191 
1.3950467e+3, 1.9391964e+2, -994304.75, -1094129.3, -28455.55, -0.018151414, -0.049588032, -986763.06, 52819.887, 0.0, 10.000588, 9.999265 
1.3950604e+3, 2.0391876e+2, -985168.25, -1106220.8, -28334.305, -0.00944187, -0.03465202, -978864.44, -37272.906, 0.0, 10.000269, 9.998664 
1.3950749e+3, 2.1391746e+2, -903606.8, -1016960.8, -47832.05, 0.06005638, -0.032190345, -886120.56, -42514.99, 0.0, 10.000158, 9.998657 
1.3950884e+3, 2.2391626e+2, -794426.06, -871074.4, -63683.35, 0.053593576, -0.03135344, -758424.56, -12806.693, 0.0, 10.000055, 9.999035 
1.3951007e+3, 2.3391528e+2, -700785.7, -761808.25, -54548.75, -0.06869645, -0.045012232, -668794.94, -21168.137, 0.0, 9.999969, 9.999152 
1.3951136e+3, 2.4391444e+2, -610643.44, -677133.25, -38032.742, -0.12024804, -0.03617578, -593373.9, -43739.05, 0.0, 9.999958, 9.999064 
1.395128e+3, 2.5391388e+2, -493655.53, -563572.1, -27272.734, -0.06339537, -0.0071300883, -484275.53, -32634.336, 0.0, 10.000061, 9.999122 
1.395142e+3, 2.639129e+2, -405475.13, -476068.28, -24327.834, -0.04537896, -0.015314118, -397903.4, -44252.57, 0.0, 10.000018, 9.999071 
1.3951553e+3, 2.7391133e+2, -341114.44, -387020.16, -36080.496, -0.08728225, -0.08317616, -321304.75, -65640.625, 0.0, 9.999755, 9.999136 
1.3951693e+3, 2.8391042e+2, -289850.2, -352009.16, -18621.111, -0.09072552, -0.0678596, -284698.72, -127026.25, 0.0, 9.999607, 9.998775 
1.3951844e+3, 2.9391026e+2, -189999.28, -251438.78, -16404.041, -0.030437957, 0.03748308, -185893.81, -126218.48, 0.0, 9.999613, 9.998789 
1.3951994e+3, 3.03908e+2, -128795.94, -143440.23, -11308.671, 0.02078609, -0.08632347, -122645.9, -122645.9, 0.0, 9.999469, 9.999268 
1.395213e+3, 3.1390685e+2, -64884.473, 89491.27, 31309.662, -0.07525447, -0.1435731, 95599.64, 95599.64, 0.0, 9.999032, 10.001079 
1.4049508e+3, 1.2391239e+2, -1575104.9, -1751715.1, -77144.84, 0.060169235, -0.000768889, -1546153.4, 179506.28, 0.009133226, 10.001422, 9.999063 
1.404964e+3, 1.3391207e+2, -1489721.6, -1684811.9, 53658.145, -0.1053876, 0.094180636, -1475937.3, 151724.61, 0.005275387, 10.001434, 9.998845 
1.4049806e+3, 1.439093e+2, -1375129.1, -1553557.4, 4786.0825, 0.06437893, -0.08192787, -1375000.8, 154687.8, 0.0021822979, 10.001436, 9.999067 
1.4049932e+3, 1.5390904e+2, -1266083.3, -1449070.3, -22601.338, -0.015164595, -0.015421825, -1263333.0, 168357.98, 0.00051218417, 10.001507, 9.999077 
1.4050062e+3, 1.6390826e+2, -1195832.4, -1345640.0, -8276.621, -0.04391751, -0.0041317753, -1195376.5, 138321.13, 0.000037386584, 10.001233, 9.999247 
1.4050208e+3, 1.7390701e+2, -1204486.0, -1288651.0, 779.1469, 0.025249211, -0.06588283, -1204478.9, 31228.89, 0.00000006103049, 10.000456, 9.99934 
1.4050345e+3, 1.8390603e+2, -1175446.6, -1265699.1, -15260.216, 0.044452697, -0.078067355, -1172936.3, -35220.055, 0.0, 10.000162, 9.998966 
1.4050473e+3, 1.9390547e+2, -1009150.1, -1132235.3, -39083.203, -0.018476123, -0.033951, -997788.75, 41933.79, 0.0, 10.000621, 9.998987 
1.4050607e+3, 2.0390451e+2, -920363.9, -1080273.0, -44791.813, -0.030035313, -0.0086726, -908672.2, 33060.5, 0.0, 10.000738, 9.998614 
1.4050749e+3, 2.1390301e+2, -877971.7, -1006156.9, -26010.475, 0.037859328, -0.02265248, -872894.9, -29146.793, 0.0, 10.000345, 9.998639 
1.4050883e+3, 2.2390167e+2, -781869.6, -863830.9, -15439.12, 0.04167962, -0.03559899, -779057.8, -33296.547, 0.0, 10.000138, 9.9990425 
1.4051008e+3, 2.3390062e+2, -664547.75, -743744.4, -24529.355, -0.054293342, -0.057326786, -657565.9, -9795.257, 0.0, 10.000216, 9.999158 
1.4051141e+3, 2.4389985e+2, -588599.3, -663280.44, -29970.904, -0.0958849, -0.043790255, -578059.06, -28281.152, 0.0, 10.000095, 9.999094 
1.405128e+3, 2.538995e+2, -547662.75, -585774.7, -38115.723, -0.054589808, 0.0068877037, -524104.88, -72322.87, 0.0, 9.999674, 9.999156 
1.4051417e+3, 2.6389855e+2, -485392.06, -529675.75, -33306.73, -0.0434577, 0.007925136, -467538.9, -113747.48, 0.0, 9.999536, 9.998934 
1.4051552e+3, 2.7389678e+2, -340852.78, -403414.53, -34218.004, -0.07950548, -0.06929062, -325772.4, -69965.03, 0.0, 9.999831, 9.998984 
1.405169e+3, 2.838957e+2, -254500.45, -321246.38, -13834.654, -0.08434338, -0.06998609, -251746.52, -93928.805, 0.0, 9.999792, 9.998897 
1.4051838e+3, 2.9389548e+2, -234282.3, -255977.9, -2869.036, -0.03566792, 0.011528734, -233909.3, -174088.02, 0.0, 9.999235, 9.9989395 
1.4051987e+3, 3.038937e+2, -219182.05, -191103.05, 752.04724, 0.02468339, -0.06956791, -191082.92, -191082.92, 0.0, 9.998866, 9.999231 
1.4052121e+3, 3.1389275e+2, -78460.26, 114449.29, 3446.4211, -0.04898812, -0.09996956, 114510.84, 114510.84, 0.0, 9.998803, 10.001361 
1.4149521e+3, 1.2389828e+2, -1540577.8, -1677692.8, -79272.24, 0.055189542, 0.042867146, -1504329.6, 221471.11, 0.009556688, 10.001412, 9.999577 
1.4149657e+3, 1.3389784e+2, -1453974.6, -1608678.4, 53292.55, -0.08267918, 0.072398804, -1437393.5, 190407.81, 0.0055341963, 10.001429, 9.99937 
1.4149821e+3, 1.4389507e+2, -1378591.1, -1562667.3, 4937.8867, 0.062009886, -0.12858129, -1378458.8, 151367.9, 0.0022969088, 10.001443, 9.999003 
1.4149944e+3, 1.5389523e+2, -1275865.1, -1469379.4, -19624.121, -0.03793208, -0.008692888, -1273895.1, 157931.53, 0.0005425403, 10.001506, 9.998939 
1.4150073e+3, 1.6389477e+2, -1186898.1, -1326971.4, -35797.887, -0.078977, 0.036575418, -1178279.8, 155550.75, 0.000040406845, 10.001231, 9.999376 
1.415021e+3, 1.7389365e+2, -1192149.1, -1264835.3, -28940.666, 0.009614516, -0.026911354, -1182033.8, 53804.14, 0.00000007226826, 10.000463, 9.999501 
1.4150348e+3, 1.8389249e+2, -1210136.6, -1339329.3, -4363.354, 0.05178102, -0.04468717, -1209989.5, -72140.914, 0.0, 10.000168, 9.998458 
1.4150482e+3, 1.9389126e+2, -1050833.0, -1218750.5, -21588.148, 0.01140681, -0.009815103, -1048101.94, -8237.907, 0.0, 10.00062, 9.998395 
1.4150612e+3, 2.0389003e+2, -893577.1, -1023638.1, -57496.145, -0.0374758, 0.005197314, -871804.56, 70072.56, 0.0, 10.000732, 9.999006 
1.4150739e+3, 2.138889e+2, -841986.44, -931434.56, -41008.906, -0.092905484, -0.022698577, -826031.25, 17854.756, 0.0, 10.000343, 9.999154 
1.4150871e+3, 2.2388768e+2, -792795.5, -885963.75, -15493.905, -0.09121561, -0.046243496, -790286.44, -44389.824, 0.0, 10.000134, 9.998893 
1.4151016e+3, 2.3388635e+2, -680898.4, -777724.06, -20931.387, -0.003735315, -0.07304981, -676567.25, -28657.959, 0.0, 10.000214, 9.998926 
1.4151153e+3, 2.4388537e+2, -602664.9, -692130.8, -43938.203, 0.027381087, -0.059973806, -584695.3, -34775.836, 0.0, 10.000092, 9.9988985 
1.415128e+3, 2.538849e+2, -560697.8, -613518.75, -52877.617, -0.025315661, -0.002504767, -528001.94, -76076.3, 0.0, 9.999675, 9.998965 
1.4151414e+3, 2.63884e+2, -486424.47, -533314.94, -24504.816, -0.038488705, 0.014869486, -475955.63, -122020.3, 0.0, 9.99954, 9.998907 
1.4151558e+3, 2.7388248e+2, -342434.5, -405458.06, -20787.607, 0.0029859785, -0.033932004, -336195.56, -80246.625, 0.0, 9.999824, 9.998975 
1.4151695e+3, 2.8388134e+2, -235594.92, -279717.28, -30543.436, -0.01371633, -0.051481493, -219978.56, -62019.06, 0.0, 9.999782, 9.999187 
1.4151824e+3, 2.9388064e+2, -212033.11, -209659.69, -21332.797, -0.101671055, -0.050236244, -189480.63, -129514.11, 0.0, 9.999234, 9.999259 
1.4151967e+3, 3.038796e+2, -245780.22, -250118.6, -2613.9846, -0.06347807, -0.058590323, -244552.61, -244552.61, 0.0, 9.998879, 9.998819 
1.4152113e+3, 3.138795e+2, -101052.234, 68372.45, 385.39502, -0.016889706, 0.03981468, 68373.33, 68373.33, 0.0, 9.998798, 10.001048 
1.4249538e+3, 1.2388449e+2, -1492419.1, -1664058.9, -9392.148, 0.05911535, 0.025138102, -1491906.6, 234028.13, 0.010011913, 10.001788, 9.999491 
1.4249673e+3, 1.3388409e+2, -1446825.5, -1618569.0, 73194.46, -0.06956193, 0.07008759, -1419863.9, 208071.61, 0.0058154534, 10.001534, 9.999251 
1.4249834e+3, 1.4388134e+2, -1409650.6, -1580545.0, 800.8031, 0.06461722, -0.12331357, -1409646.9, 120314.34, 0.002423067, 10.001245, 9.998975 
1.4249958e+3, 1.5388149e+2, -1351247.5, -1507803.5, -17095.947, -0.019683953, -0.0006758532, -1349402.3, 82558.7, 0.00057589856, 10.000998, 9.99892 
1.4250085e+3, 1.6388094e+2, -1234362.3, -1374930.8, -41180.43, -0.06481595, 0.0477734, -1223186.6, 110779.33, 0.00004378684, 10.001015, 9.99915 
1.4250217e+3, 1.738796e+2, -1067318.6, -1231836.0, -66809.05, -0.0088925455, -0.013688614, -1043605.94, 192370.66, 0.00000008454083, 10.00144, 9.999254 
1.4250353e+3, 1.8387829e+2, -1027008.8, -1243960.5, -38709.34, 0.024490338, -0.03603584, -1020309.06, 117679.83, 0.0, 10.001397, 9.998519 
1.4250489e+3, 1.9387701e+2, -1036343.8, -1200174.9, -5573.506, 0.009062056, -0.0134966355, -1036154.4, 3849.135, 0.0, 10.000671, 9.998496 
1.4250618e+3, 2.038758e+2, -944866.8, -1045660.8, -19708.514, -0.03209522, -0.0050037107, -941150.25, 865.8033, 0.0, 10.000369, 9.99903 
1.4250742e+3, 2.1387473e+2, -786249.2, -903429.7, -41263.16, -0.10803089, -0.028625246, -773177.3, 70847.305, 0.0, 10.000721, 9.999165 
1.4250875e+3, 2.2387356e+2, -716432.8, -859451.3, -41558.906, -0.10684364, -0.043063253, -705233.44, 40801.547, 0.0, 10.000702, 9.998802 
1.4251018e+3, 2.3387228e+2, -702523.75, -798738.2, -40812.266, 0.009419246, -0.054682385, -687544.2, -39496.52, 0.0, 10.000113, 9.99883 
1.4251155e+3, 2.4387118e+2, -639459.06, -712852.2, -46495.86, 0.05543761, -0.045221694, -616923.0, -66864.06, 0.0, 9.999853, 9.998871 
1.425128e+3, 2.5387043e+2, -499348.44, -585708.44, -43098.344, -0.004030027, -0.017996628, -481520.4, -29452.637, 0.0, 10.000104, 9.998949 
1.4251412e+3, 2.638695e+2, -407645.25, -490133.88, -5121.387, -0.02330696, -0.002255139, -407328.5, -53251.047, 0.0, 10.000057, 9.998955 
1.4251557e+3, 2.7386844e+2, -377164.22, -416127.16, 958.20636, 0.01214759, -0.0131223155, -377140.7, -121053.23, 0.0, 9.999556, 9.999032 
1.4251693e+3, 2.8386736e+2, -306253.28, -313625.6, -17661.146, -0.009844475, -0.026633123, -291897.7, -133800.06, 0.0, 9.999294, 9.999188 
1.4251818e+3, 2.9386628e+2, -187954.44, -198650.2, -35384.34, -0.09962, -0.06451219, -157516.13, -97407.82, 0.0, 9.999403, 9.999252 
1.4251956e+3, 3.0386564e+2, -193650.77, -236968.45, -19965.588, -0.06529582, -0.023350745, -185852.34, -185852.34, 0.0, 9.9992895, 9.998712 
1.42521e+3, 3.1386536e+2, -99302.3, 59746.65, 4392.62, -0.03515292, 0.06681255, 59867.87, 59867.87, 0.0, 9.99885, 10.000963 
1.4349557e+3, 1.2387106e+2, -1540608.6, -1762991.0, -19648.906, 0.068687335, -0.05795333, -1538885.9, 187175.42, 0.010506618, 10.001782, 9.998811 
1.4349687e+3, 1.3387091e+2, -1500848.9, -1729028.8, 63611.566, -0.07239458, 0.086803615, -1484313.6, 143749.89, 0.006123269, 10.001528, 9.998496 
1.4349847e+3, 1.438681e+2, -1411076.0, -1583834.6, -10797.407, 0.063456595, -0.066541545, -1410403.8, 119687.695, 0.002563054, 10.001244, 9.998953 
1.4349973e+3, 1.5386786e+2, -1345039.9, -1495741.5, -26357.57, 0.0352872, 0.008653508, -1340563.0, 91530.69, 0.0006133788, 10.000999, 9.999002 
1.43501e+3, 1.6386686e+2, -1274517.4, -1459171.0, -29616.781, -0.0064123534, 0.03156085, -1269883.4, 64220.14, 0.000047750204, 10.001018, 9.998571 
1.435023e+3, 1.7386492e+2, -1114304.9, -1328870.0, -50744.08, -0.033476256, -0.0252956, -1102909.3, 133213.83, 0.00000010052836, 10.001436, 9.99859 
1.435036e+3, 1.8386345e+2, -984249.44, -1154453.1, -63128.313, -0.04197074, -0.050974727, -963391.4, 174745.3, 0.0, 10.001392, 9.999136 
1.4350492e+3, 1.938628e+2, -980875.75, -1086364.4, -33333.125, -0.028730642, -0.045649145, -971225.7, 68915.16, 0.0, 10.000675, 9.999276 
1.4350624e+3, 2.0386185e+2, -969039.1, -1095918.5, -11975.325, -0.02002274, -0.03859588, -967918.75, -25769.549, 0.0, 10.000369, 9.998686 
1.4350758e+3, 2.138605e+2, -821132.2, -975055.56, -27385.709, -0.014316199, -0.041170336, -816404.94, 27758.691, 0.0, 10.000716, 9.998675 
1.435089e+3, 2.2385933e+2, -720726.0, -866374.5, -60748.76, -0.01180299, -0.027636336, -698714.7, 47461.57, 0.0, 10.000692, 9.99876 
1.4351016e+3, 2.3385844e+2, -701804.75, -797304.8, -62501.7, -0.016864495, -0.0024837137, -670900.3, -22714.82, 0.0, 10.000111, 9.998841 
1.4351146e+3, 2.4385734e+2, -629920.8, -692957.75, -40546.508, -0.0135453325, 0.0009616759, -610083.3, -59887.203, 0.0, 9.99985, 9.999009 
1.4351282e+3, 2.5385603e+2, -489594.13, -564225.06, -32069.402, 0.0058193007, -0.041134257, -477707.03, -25498.623, 0.0, 10.000096, 9.999102 
1.4351414e+3, 2.6385507e+2, -400020.9, -472527.1, -20357.28, -0.0005226302, -0.044570193, -394696.28, -40478.42, 0.0, 10.000049, 9.999082 
1.4351545e+3, 2.7385464e+2, -368814.63, -398844.78, -16028.269, -0.05150714, -0.0027238165, -361867.06, -105644.54, 0.0, 9.999555, 9.999152 
1.4351678e+3, 2.8385374e+2, -326026.6, -356222.9, -14993.371, -0.075457714, 0.0073061497, -319846.7, -161614.77, 0.0, 9.9993, 9.998894 
1.4351816e+3, 2.9385227e+2, -214186.81, -252090.27, -28425.938, -0.042606995, -0.03796316, -198974.2, -138726.78, 0.0, 9.999397, 9.998889 
1.4351958e+3, 3.0385178e+2, -178290.67, -204012.5, -33738.71, 0.007596681, 0.0322713, -155044.75, -155044.75, 0.0, 9.999285, 9.998941 
1.4352082e+3, 3.1385067e+2, -91214.14, 76965.9, -12661.667, -0.105904944, 0.01123379, 77913.805, 77913.805, 0.0, 9.998848, 10.001083 
1.4449576e+3, 1.23857275e+2, -1500126.9, -1757158.4, -87398.97, 0.056629032, -0.08504782, -1473224.1, 252970.3, 0.011047917, 10.002127, 9.998685 
1.4449705e+3, 1.3385724e+2, -1446006.5, -1723513.3, 32162.764, -0.06918327, 0.0877991, -1442327.6, 185869.33, 0.00646129, 10.001999, 9.998305 
1.444986e+3, 1.4385432e+2, -1336665.4, -1560605.8, -20979.367, 0.059940297, -0.05927, -1334716.9, 195509.47, 0.0027186894, 10.001813, 9.9988365 
1.4449985e+3, 1.5385371e+2, -1267716.5, -1468704.6, -50824.117, 0.02396538, -0.012330862, -1255595.6, 176636.19, 0.0006559602, 10.001577, 9.998907 
1.445011e+3, 1.6385257e+2, -1246087.3, -1456351.9, -35769.98, -0.013382653, 0.005753699, -1240168.8, 94074.36, 0.000052490832, 10.001265, 9.998469 
1.4450243e+3, 1.738508e+2, -1202311.3, -1383212.8, -16877.44, -0.014524025, -0.021418557, -1200750.1, 35511.914, 0.00000012546444, 10.000886, 9.998482 
1.4450374e+3, 1.8384942e+2, -1063265.4, -1177780.6, -28085.178, -0.014549224, -0.038640775, -1056748.4, 81526.71, 0.0, 10.000787, 9.999268 
1.4450501e+3, 1.938487e+2, -905415.2, -1031776.2, -46672.242, -0.025406064, -0.054962777, -890045.9, 150232.83, 0.0, 10.001117, 9.999437 
1.445063e+3, 2.0384777e+2, -881859.94, -1062007.6, -42443.55, -0.015043659, -0.0522052, -872360.94, 69925.62, 0.0, 10.001003, 9.998612 
1.4450768e+3, 2.1384656e+2, -901922.4, -1025334.94, -31724.691, 0.031911045, -0.031759433, -894244.75, -49944.273, 0.0, 10.000213, 9.998571 
1.4450897e+3, 2.2384539e+2, -837266.56, -919901.7, -41789.113, 0.037846494, -0.01177421, -819817.9, -73504.52, 0.0, 9.999882, 9.998782 
1.4451018e+3, 2.3384434e+2, -676905.56, -781390.44, -42810.32, -0.02302416, -0.0058637206, -661605.5, -13281.605, 0.0, 10.000265, 9.998876 
1.4451145e+3, 2.438432e+2, -561361.2, -652991.7, -22937.084, -0.039375942, -0.012473224, -555940.25, -5605.4814, 0.0, 10.00029, 9.999073 
1.4451282e+3, 2.53842e+2, -535210.1, -578722.0, -23224.227, 0.014874825, -0.049479723, -525143.3, -72797.75, 0.0, 9.999749, 9.999169 
1.4451414e+3, 2.6384115e+2, -482376.44, -514184.97, -19218.104, 0.016608732, -0.043913126, -473335.16, -118981.15, 0.0, 9.999491, 9.9990635 
1.445154e+3, 2.738408e+2, -353607.56, -394004.75, -26949.664, -0.06779632, 0.009622698, -340127.28, -83768.73, 0.0, 9.999671, 9.999128 
1.445167e+3, 2.8383994e+2, -265994.75, -320824.94, -16032.509, -0.0933276, 0.018073667, -261650.94, -103282.79, 0.0, 9.999683, 9.998953 
1.4451814e+3, 2.9383835e+2, -204640.73, -240474.94, -1107.7528, -0.01334146, -0.04243643, -204606.53, -144222.86, 0.0, 9.99943, 9.998953 
1.4451954e+3, 3.038381e+2, -191692.77, -211814.27, -2482.0486, 0.044966135, 0.04689359, -191391.13, -191391.13, 0.0, 9.999199, 9.998928 
1.445207e+3, 3.1383628e+2, -90551.016, 41417.082, -13341.579, -0.11245526, -0.04527309, 42752.363, 42752.363, 0.0, 9.999008, 10.00076 
1.4549592e+3, 1.2384324e+2, -1470423.5, -1696431.9, -93920.74, 0.014038032, -0.055237412, -1436488.8, 289845.0, 0.011640448, 10.002131, 9.999102 
1.4549726e+3, 1.3384312e+2, -1421426.1, -1672624.8, 26773.734, -0.06275168, 0.073253855, -1418604.1, 209730.97, 0.0068325973, 10.002, 9.998654 
1.4549878e+3, 1.4384007e+2, -1350122.5, -1588685.4, -32085.07, 0.050266158, -0.09937571, -1345882.6, 184482.61, 0.0028915813, 10.001814, 9.998644 
1.4549993e+3, 1.5383908e+2, -1286803.6, -1507150.9, -59645.426, -0.058575906, -0.06329054, -1271694.4, 160680.22, 0.00070428615, 10.001574, 9.998645 
1.4550117e+3, 1.638381e+2, -1221087.9, -1405904.6, -51284.875, -0.09336818, -0.028690549, -1207810.6, 126573.57, 0.000058062662, 10.001268, 9.998815 
1.4550258e+3, 1.7383727e+2, -1171174.3, -1320726.9, -30969.95, 0.042407922, -0.0037029376, -1165014.6, 71378.48, 0.00000016567238, 10.000892, 9.998909 
1.4550392e+3, 1.838362e+2, -1088314.8, -1229411.0, -19912.205, 0.0992616, 0.00058817584, -1085558.5, 52845.16, 0.0, 10.000785, 9.998914 
1.4550516e+3, 1.9383478e+2, -937589.56, -1098406.4, -33844.113, 0.016040966, -0.042150058, -930757.3, 109659.43, 0.0, 10.001116, 9.998981 
1.4550641e+3, 2.038336e+2, -870000.44, -1036837.5, -69100.125, -0.01958702, -0.04642465, -845097.8, 97330.02, 0.0, 10.001, 9.998787 
1.455077e+3, 2.1383289e+2, -882700.3, -986965.4, -61507.563, 0.027539896, -0.0012677042, -854204.2, -9769.126, 0.0, 10.000217, 9.998834 
1.4550896e+3, 2.2383177e+2, -831651.8, -908432.06, -33331.26, 0.037809253, 0.005124703, -819201.25, -72755.12, 0.0, 9.999882, 9.998862 
1.4551021e+3, 2.3383003e+2, -673215.44, -773229.5, -27340.703, -0.012786129, -0.063868485, -666229.3, -17766.557, 0.0, 10.000261, 9.998934 
1.455115e+3, 2.4382876e+2, -563378.0, -655620.6, -39740.945, -0.025968807, -0.085180014, -548618.1, 1856.7639, 0.0, 10.000281, 9.99906 
1.455128e+3, 2.5382835e+2, -536913.06, -582349.94, -42572.848, 0.019785542, -0.042355563, -511376.2, -58896.996, 0.0, 9.999748, 9.9991455 
1.455141e+3, 2.638278e+2, -493373.84, -537100.2, -15077.896, 0.023126116, -0.0005563254, -488678.75, -134192.95, 0.0, 9.999491, 9.998906 
1.4551538e+3, 2.7382696e+2, -366708.66, -419907.2, -18024.543, -0.044513285, 0.02256403, -361176.88, -104681.17, 0.0, 9.999664, 9.998954 
1.455167e+3, 2.838259e+2, -237752.17, -261158.48, -22811.76, -0.06960577, 0.0049459217, -223816.69, -65310.176, 0.0, 9.999677, 9.999366 
1.4551808e+3, 2.938246e+2, -172822.11, -172424.3, -8581.614, -0.013776054, -0.073549315, -164039.28, -103522.43, 0.0, 9.999419, 9.999427 
1.4551947e+3, 3.0382463e+2, -210101.69, -248670.78, -8607.216, 0.04324914, 0.02513213, -208268.05, -208268.05, 0.0, 9.999192, 9.998678 
1.4552064e+3, 3.1382233e+2, -149303.3, -77073.92, -20699.254, -0.07089665, -0.077527456, -71562.54, -71562.54, 0.0, 9.998992, 9.999954 
1.4649613e+3, 1.2382914e+2, -1494264.8, -1678817.0, -78075.63, 0.030792754, -0.054336455, -1465666.3, 260807.08, 0.012283001, 10.001839, 9.999364 
1.4649744e+3, 1.3382916e+2, -1454227.8, -1667654.1, 28350.227, -0.057169408, 0.06907207, -1450526.0, 177946.42, 0.00723705, 10.001683, 9.99884 
1.4649895e+3, 1.438263e+2, -1379558.0, -1592220.4, -24959.027, 0.045046475, -0.098064676, -1376667.9, 153832.05, 0.0030819494, 10.001569, 9.998735 
1.4650008e+3, 1.5382537e+2, -1275886.6, -1492425.9, -29374.367, -0.055564474, -0.06547671, -1271972.6, 160535.67, 0.0007585455, 10.001609, 9.998729 
1.465013e+3, 1.6382444e+2, -1179603.8, -1378910.3, -21871.988, -0.08628648, -0.03575232, -1177231.8, 157285.56, 0.00006440502, 10.001523, 9.998877 
1.4650269e+3, 1.7382358e+2, -1115079.9, -1286092.6, -31357.059, 0.046779286, -0.019875577, -1109511.5, 127014.6, 0.00000022299002, 10.001248, 9.998973 
1.4650403e+3, 1.838225e+2, -1074959.3, -1251913.9, -18158.121, 0.10417427, -0.007510092, -1073115.1, 65422.137, 0.0, 10.001005, 9.998652 
1.4650527e+3, 1.9382112e+2, -1000262.06, -1162906.8, -20653.18, 0.024067141, -0.01368873, -997680.44, 42871.2, 0.0, 10.000835, 9.9986725 
1.4650649e+3, 2.0381989e+2, -891067.56, -1035301.3, -63582.62, -0.019419404, -0.011876014, -867040.8, 75523.234, 0.0, 10.000805, 9.998892 
1.4650773e+3, 2.1381891e+2, -761289.5, -911194.56, -67220.98, 0.0007456473, -0.008464158, -735561.6, 109011.016, 0.0, 10.0009775, 9.998987 
1.4650898e+3, 2.2381778e+2, -691820.06, -835798.06, -38629.363, 0.013641421, -0.014134423, -682110.56, 64472.688, 0.0, 10.000818, 9.998909 
1.4651026e+3, 2.338164e+2, -689674.3, -777481.94, -35970.176, 0.011030323, -0.04923838, -676820.75, -28224.123, 0.0, 10.0001335, 9.998966 
1.4651154e+3, 2.4381529e+2, -638536.94, -695626.6, -50003.984, 0.011026151, -0.056567654, -609503.94, -58896.207, 0.0, 9.9997835, 9.999023 
1.4651278e+3, 2.5381464e+2, -509500.06, -573995.3, -56116.098, 0.015212112, -0.032303542, -477025.78, -24411.24, 0.0, 9.999959, 9.999101 
1.4651406e+3, 2.63814e+2, -420071.28, -492792.9, -17050.365, 0.008989727, 0.0003051826, -416272.13, -61650.13, 0.0, 9.999955, 9.998987 
1.4651538e+3, 2.7381337e+2, -360663.44, -406324.53, -1912.3834, -0.016954541, 0.029313441, -360583.5, -103953.46, 0.0, 9.999659, 9.99905 
1.4651668e+3, 2.838124e+2, -280316.16, -267296.22, -12189.412, -0.029483616, 0.014660597, -259987.31, -101347.945, 0.0, 9.999323, 9.999494 
1.46518e+3, 2.9381126e+2, -231348.3, -185683.08, -26054.533, -0.00857924, -0.06577226, -173872.27, -113223.39, 0.0, 9.998956, 9.9995575 
1.4651933e+3, 3.038115e+2, -245932.06, -229223.97, -10306.398, 0.027404662, 0.03497411, -224311.06, -224311.06, 0.0, 9.998788, 9.999005 
1.4652054e+3, 3.1380978e+2, -169163.95, -95300.234, 21222.025, -0.06103736, -0.042963333, -89637.06, -89637.06, 0.0, 9.998894, 9.999875 
1.474964e+3, 1.2381508e+2, -1486688.3, -1661810.1, -87057.11, 0.1059631, -0.07832952, -1450775.0, 275837.03, 0.012969934, 10.001834, 9.999485 
1.4749761e+3, 1.3381547e+2, -1452243.3, -1662750.4, 22180.0, -0.06035531, 0.07560929, -1449931.6, 178676.27, 0.0076708426, 10.001681, 9.998876 
1.474991e+3, 1.4381316e+2, -1352976.0, -1540124.3, -26254.152, 0.033240568, -0.053467542, -1349362.8, 181266.98, 0.0032881629, 10.00158, 9.999088 
1.4750034e+3, 1.5381263e+2, -1246926.9, -1433170.5, -27525.775, 0.02933722, -0.019609386, -1242944.0, 189688.67, 0.00081847684, 10.00161, 9.999136 
1.4750154e+3, 1.6381156e+2, -1195413.8, -1410967.0, -33051.17, 0.002927801, -0.014474498, -1190459.8, 144182.17, 0.000071419374, 10.00152, 9.998658 
1.4750277e+3, 1.7380972e+2, -1136189.9, -1330591.8, -41996.05, -0.0044409875, -0.06873867, -1127505.6, 109155.086, 0.0000002932695, 10.001251, 9.998666 
1.4750402e+3, 1.8380834e+2, -1086958.1, -1278038.1, -26412.748, -0.004329001, -0.061992634, -1083374.4, 55301.04, 0.0, 10.001008, 9.998472 
1.4750533e+3, 1.9380777e+2, -1010814.25, -1186598.6, -26755.26, -0.0055919345, 0.029002396, -1006832.2, 33851.004, 0.0, 10.00084, 9.998508 
1.4750658e+3, 2.0380664e+2, -890684.4, -1032947.8, -59516.03, -0.020256167, 0.05002658, -869069.75, 73625.336, 0.0, 10.000797, 9.998912 
1.4750777e+3, 2.1380466e+2, -759314.75, -905109.0, -60177.04, -0.050935276, -0.052321363, -737685.3, 107027.61, 0.0, 10.000969, 9.999033 
1.4750901e+3, 2.2380343e+2, -693248.0, -836304.06, -61525.305, -0.03669617, -0.06905023, -670427.6, 76296.805, 0.0, 10.000807, 9.998913 
1.475103e+3, 2.3380347e+2, -689563.0, -777489.06, -60963.105, 0.044025812, 0.03580312, -658364.56, -9639.037, 0.0, 10.0001335, 9.998967 
1.4751156e+3, 2.4380274e+2, -643259.6, -705251.3, -47001.03, 0.066372514, 0.069641374, -617954.1, -67220.65, 0.0, 9.999782, 9.99896 
1.4751276e+3, 2.538009e+2, -515671.94, -585056.1, -47589.59, -0.0025724552, -0.020037806, -491471.66, -38720.055, 0.0, 9.999951, 9.999029 
1.4751402e+3, 2.6379982e+2, -399855.34, -448874.0, -25217.705, -0.028418977, -0.040530827, -389198.78, -34436.324, 0.0, 9.999945, 9.999294 
1.4751537e+3, 2.7379993e+2, -337958.25, -356122.84, -11231.41, 0.010632421, 0.031449515, -332596.44, -75834.84, 0.0, 9.999644, 9.999403 
1.4751667e+3, 2.8379944e+2, -292521.75, -289882.13, -25426.479, 0.021201877, 0.04800551, -265741.22, -106974.37, 0.0, 9.9993105, 9.999345 
1.475179e+3, 2.9379815e+2, -247464.38, -218218.52, -37584.816, -0.0031061296, -0.021049218, -192512.19, -131732.25, 0.0, 9.998951, 9.999337 
1.4751917e+3, 3.0379862e+2, -182906.28, -100034.016, -7254.049, -0.0051753884, 0.07119717, -99403.84, -99403.84, 0.0, 9.998793, 9.999891 
1.4752041e+3, 3.1379873e+2, -127297.15, -6169.632, 24944.736, -0.09095473, 0.07492997, -1233.7052, -1233.7052, 0.0, 9.998883, 10.000493 
1.4849657e+3, 1.2380201e+2, -1440464.0, -1651241.0, -37581.563, 0.0824587, -0.06705395, -1433963.6, 292776.53, 0.013700746, 10.002213, 9.999375 
1.484978e+3, 1.3380216e+2, -1397257.8, -1663111.8, 48530.492, -0.056387667, 0.08420179, -1388675.8, 240063.19, 0.00813248, 10.00218, 9.998632 
1.484993e+3, 1.4379983e+2, -1299120.4, -1517844.5, -26909.146, 0.057739887, -0.030954488, -1295858.4, 234902.64, 0.0035089266, 10.001968, 9.999055 
1.4850052e+3, 1.5379913e+2, -1261282.8, -1438709.4, -59939.582, 0.057696752, -0.015243535, -1242931.5, 189833.89, 0.0008836724, 10.001508, 9.9991455 
1.4850171e+3, 1.63798e+2, -1230093.8, -1431677.6, -68315.47, 0.025568416, -0.015318981, -1209123.5, 125651.73, 0.00007901186, 10.001302, 9.99862 
1.485029e+3, 1.7379624e+2, -1097758.9, -1317478.1, -59364.117, -0.001524674, -0.056435134, -1082745.6, 154047.6, 0.00000037325287, 10.001538, 9.998617 
1.4850414e+3, 1.8379481e+2, -1005509.7, -1228158.3, -32642.104, -0.01228199, -0.054322626, -1000822.75, 137985.39, 0.0, 10.001522, 9.998568 
1.485054e+3, 1.9379407e+2, -965822.9, -1151574.1, -15090.745, -0.014452257, 0.0059136515, -964604.9, 76212.305, 0.0, 10.001094, 9.998626 
1.4850666e+3, 2.0379297e+2, -911898.1, -1040952.2, -30497.916, -0.021508448, 0.02379694, -905053.9, 37774.742, 0.0, 10.000645, 9.998929 
1.4850785e+3, 2.1379139e+2, -876142.4, -961837.56, -35378.53, -0.03180727, -0.0392986, -863424.2, -18580.756, 0.0, 10.000169, 9.999028 
1.4850907e+3, 2.237903e+2, -814107.1, -894318.6, -39350.637, -0.01460369, -0.042005394, -798026.2, -51172.1, 0.0, 9.999979, 9.998912 
1.4851032e+3, 2.3379007e+2, -675292.56, -771685.6, -41670.457, 0.039589174, 0.03663195, -659776.2, -10918.574, 0.0, 10.000237, 9.998956 
1.4851154e+3, 2.4378926e+2, -575941.44, -674291.6, -22682.822, 0.05173028, 0.06440705, -570962.1, -20095.771, 0.0, 10.000252, 9.998944 
1.4851275e+3, 2.5378764e+2, -529858.0, -594139.4, -21285.273, -0.0013080491, 0.0002993866, -523448.9, -70566.61, 0.0, 9.999865, 9.999008 
1.48514e+3, 2.637866e+2, -464368.34, -469904.13, -11416.109, -0.017800044, -0.016997192, -455389.38, -100496.93, 0.0, 9.99946, 9.999382 
1.4851531e+3, 2.7378651e+2, -417542.25, -382684.97, -17989.348, 0.01874623, 0.023144014, -375066.2, -118173.08, 0.0, 9.999049, 9.999506 
1.485166e+3, 2.8378606e+2, -360912.7, -329660.44, -28544.973, 0.023827717, 0.03942371, -312744.4, -153846.2, 0.0, 9.998873, 9.999282 
1.485178e+3, 2.9378515e+2, -237081.61, -223420.33, -32982.418, -0.010679703, 0.0149099, -196568.66, -135659.72, 0.0, 9.999066, 9.999245 
1.4851905e+3, 3.0378538e+2, -122442.66, -38423.457, -16340.659, -0.02201965, 0.07502843, -35357.305, -35357.305, 0.0, 9.99907, 10.00018 
1.485203e+3, 3.1378594e+2, -142165.77, 624.9259, -37436.008, -0.0798192, 0.09331258, 9844.406, 9844.406, 0.0, 9.998723, 10.000615 
1.4949667e+3, 1.2379012e+2, -1466146.6, -1704187.0, -42055.37, -0.047224056, -0.014252198, -1458935.0, 267921.1, 0.014485405, 10.0022135, 9.999005 
1.4949803e+3, 1.337893e+2, -1436495.4, -1744659.5, 47107.438, -0.046810433, 0.09498379, -1429455.1, 199409.75, 0.008627366, 10.002179, 9.998074 
1.4949955e+3, 1.4378639e+2, -1326876.9, -1576634.4, -44668.254, 0.116009995, -0.029208763, -1319128.5, 211765.05, 0.0037456865, 10.001972, 9.99865 
1.4950064e+3, 1.5378493e+2, -1288141.3, -1494951.5, -77462.79, 0.023778386, -0.052084796, -1262344.5, 170561.53, 0.0009542572, 10.00151, 9.998759 
1.4950179e+3, 1.6378379e+2, -1220346.6, -1412884.9, -63931.43, -0.026309563, -0.037624095, -1201052.0, 133864.44, 0.00008722728, 10.001307, 9.998747 
1.4950311e+3, 1.7378314e+2, -1084017.5, -1289540.1, -50112.207, 0.051563438, 0.015372879, -1072449.9, 164473.69, 0.0000004647829, 10.001539, 9.99881 
1.4950436e+3, 1.8378197e+2, -981286.6, -1176296.1, -47208.0, 0.07461259, 0.014844761, -970459.6, 168475.56, 0.0, 10.0015135, 9.998927 
1.4950553e+3, 1.9378005e+2, -938926.4, -1095687.5, -31347.04, -0.0060599875, -0.08075307, -932890.4, 108062.766, 0.0, 10.001093, 9.99901 
1.4950672e+3, 2.037789e+2, -912329.75, -1041208.6, -49354.473, -0.02750167, -0.08891264, -895600.8, 47363.535, 0.0, 10.000641, 9.99893 
1.4950794e+3, 2.1377908e+2, -879248.75, -968577.0, -52981.566, 0.051993255, 0.028529616, -854616.9, -9652.663, 0.0, 10.00017, 9.998982 
1.4950916e+3, 2.2377834e+2, -816488.94, -898594.1, -33731.684, 0.07285643, 0.06417679, -804408.25, -57435.957, 0.0, 9.999974, 9.998885 
1.4951031e+3, 2.3377623e+2, -677442.06, -774811.44, -30930.137, -0.0038613023, -0.04272645, -668447.7, -19454.945, 0.0, 10.000232, 9.998938 
1.4951149e+3, 2.437749e+2, -576249.6, -673230.25, -34209.633, -0.033639513, -0.06662117, -565396.8, -14390.904, 0.0, 10.000243, 9.998957 
1.4951275e+3, 2.5377488e+2, -529490.06, -592385.0, -34391.125, 0.014589368, 0.028546752, -514336.13, -61329.215, 0.0, 9.99986, 9.9990225 
1.4951399e+3, 2.637744e+2, -472740.66, -486829.34, -26336.662, 0.034471516, 0.06780451, -452522.53, -97510.0, 0.0, 9.999458, 9.999268 
1.495152e+3, 2.7377313e+2, -426316.28, -401442.44, -31317.643, 0.0040485454, 0.0041183187, -380182.6, -123157.87, 0.0, 9.99905, 9.999377 
1.4951643e+3, 2.8377232e+2, -360264.13, -329558.4, -22738.156, -0.02323775, -0.009389893, -317475.25, -158441.86, 0.0, 9.998877, 9.999282 
1.4951767e+3, 2.937722e+2, -238259.58, -223578.8, -22775.795, -0.036342878, 0.04452795, -206989.75, -145953.69, 0.0, 9.999055, 9.99925 
1.4951895e+3, 3.0377176e+2, -142982.6, -78157.23, -25750.053, -0.030834513, 0.05017772, -69173.69, -69173.69, 0.0, 9.999057, 9.999914 
1.4952022e+3, 3.1377155e+2, -164966.23, -44656.473, -46061.84, -0.0414602, 0.020284405, -29046.566, -29046.566, 0.0, 9.998714, 10.000308 
1.5049693e+3, 1.2377749e+2, -1407791.3, -1677208.1, -82124.49, -0.023786902, 0.011178522, -1384731.5, 342248.97, 0.01533617, 10.002625, 9.998997 
1.5049826e+3, 1.337761e+2, -1428353.3, -1755657.3, 38562.367, -0.04550233, 0.07534588, -1423871.3, 205123.0, 0.0091627855, 10.002299, 9.997939 
1.5049975e+3, 1.4377306e+2, -1316910.3, -1585661.5, -24251.646, 0.10836434, -0.047084972, -1314739.4, 216284.48, 0.0040015904, 10.002103, 9.998524 
1.5050082e+3, 1.5377158e+2, -1194176.4, -1463195.5, -39472.938, 0.019679531, -0.060945306, -1188504.1, 244533.2, 0.001031135, 10.002213, 9.998639 
1.5050194e+3, 1.6377047e+2, -1116539.4, -1359598.1, -19255.969, -0.029773379, -0.03855082, -1115023.3, 220024.64, 0.000096309515, 10.002004, 9.998778 
1.5050325e+3, 1.7376992e+2, -1119696.4, -1300137.4, -17102.588, 0.046720557, 0.019156005, -1118089.6, 118964.22, 0.000000575819, 10.0012665, 9.998868 
1.5050448e+3, 1.8376888e+2, -1092642.5, -1217922.9, -29986.627, 0.07218109, 0.024587909, -1085834.9, 53229.133, 0.0, 10.0007, 9.999032 
1.505056e+3, 1.9376715e+2, -1026380.5, -1126211.1, -36829.797, -0.0040794793, -0.062437803, -1014263.8, 26816.408, 0.0, 10.000443, 9.999113 
1.5050676e+3, 2.0376611e+2, -956593.25, -1054591.6, -59259.367, -0.022794558, -0.06948735, -928699.06, 14391.345, 0.0, 10.000303, 9.999001 
1.5050797e+3, 2.1376623e+2, -850654.56, -947579.2, -55997.152, 0.055236496, 0.03651045, -825061.0, 20029.56, 0.0, 10.000336, 9.999046 
1.5050916e+3, 2.2376548e+2, -765276.44, -867941.94, -19702.814, 0.07428808, 0.0635406, -761625.06, -14526.335, 0.0, 10.000302, 9.998937 
1.5051031e+3, 2.3376337e+2, -685001.9, -773366.8, -12529.604, -0.004348206, -0.046158537, -683259.6, -34140.71, 0.0, 10.000158, 9.998982 
1.505115e+3, 2.437621e+2, -608572.25, -678545.44, -21698.117, -0.03284051, -0.07162547, -602390.06, -51258.707, 0.0, 9.99998, 9.999046 
1.5051273e+3, 2.5376216e+2, -538391.94, -586236.9, -20215.236, 0.017842717, 0.020998653, -530994.44, -77863.34, 0.0, 9.999755, 9.999115 
1.5051395e+3, 2.637616e+2, -467066.94, -497811.9, -7587.035, 0.032306176, 0.055690903, -465296.6, -110159.43, 0.0, 9.999558, 9.999144 
1.5051511e+3, 2.7376017e+2, -386910.4, -399931.4, -16314.26, -0.013686783, -0.011136525, -375855.56, -118703.52, 0.0, 9.999398, 9.999219 
1.5051632e+3, 2.837594e+2, -312492.7, -299399.63, 823.1753, -0.036824152, -0.012694022, -299348.06, -140187.78, 0.0, 9.999175, 9.999345 
1.5051758e+3, 2.9375964e+2, -260071.1, -222829.08, 6122.9536, -0.017726796, 0.06962152, -221848.23, -160689.92, 0.0, 9.998859, 9.99935 
1.5051886e+3, 3.037586e+2, -226550.11, -144337.34, 3236.6794, -0.013677192, 0.020307314, -144210.11, -144210.11, 0.0, 9.998594, 9.999683 
1.5052007e+3, 3.137581e+2, -218665.9, -80457.81, -17365.402, -0.040971834, -0.012189339, -78309.305, -78309.305, 0.0, 9.998386, 10.000222 
1.5149738e+3, 1.2376424e+2, -1381851.9, -1622071.4, -100403.336, 0.15404722, 0.018067554, -1345413.9, 381698.3, 0.016257105, 10.002623, 9.999383 
1.5149847e+3, 1.337626e+2, -1406893.4, -1710477.1, 25891.568, -0.05781938, 0.025629044, -1404701.0, 224425.16, 0.009740974, 10.002299, 9.99825 
1.5149988e+3, 1.4375994e+2, -1307505.9, -1566434.4, -24075.307, 0.026529979, -0.08351322, -1305286.4, 225865.0, 0.0042781597, 10.002104, 9.998655 
1.5150106e+3, 1.5375912e+2, -1186111.5, -1446700.6, -34785.08, 0.041929513, -0.042135436, -1181548.1, 251610.86, 0.0011151112, 10.0022135, 9.998753 
1.5150219e+3, 1.6375807e+2, -1119328.0, -1365866.1, -44770.61, 0.0107507175, -0.017292768, -1111449.6, 223719.52, 0.000106548556, 10.002005, 9.998734 
1.5150331e+3, 1.7375663e+2, -1124440.5, -1310581.8, -45257.363, -0.019967053, -0.043801855, -1114020.1, 123163.44, 0.0000007145684, 10.001268, 9.9987955 
1.5150446e+3, 1.8375562e+2, -1103903.9, -1241746.3, -42925.723, -0.02494617, -0.02479721, -1091629.3, 47565.1, 0.0, 10.000701, 9.998869 
1.5150563e+3, 1.937554e+2, -1038104.5, -1151658.9, -46091.44, -0.011356733, 0.058443386, -1021751.2, 19447.023, 0.0, 10.000446, 9.998938 
1.515068e+3, 2.0375459e+2, -948042.1, -1036876.8, -60215.938, -0.010407805, 0.07948938, -917633.94, 25572.697, 0.0, 10.000302, 9.999124 
1.5150793e+3, 2.137529e+2, -839965.7, -923913.4, -54252.24, -0.02290105, -0.012121101, -813345.75, 31876.041, 0.0, 10.000329, 9.999212 
1.515091e+3, 2.2375174e+2, -758817.6, -851971.0, -25060.428, -0.012445038, -0.040378112, -752503.75, -5270.943, 0.0, 10.00029, 9.999053 
1.5151037e+3, 2.3375146e+2, -678016.6, -758079.25, -16953.232, 0.03359393, 0.022345632, -674574.75, -25338.348, 0.0, 10.0001545, 9.999089 
1.5151156e+3, 2.437508e+2, -598647.7, -656893.6, -29809.338, 0.04632378, 0.043697033, -586096.4, -34853.23, 0.0, 9.999974, 9.999198 
1.515127e+3, 2.5374946e+2, -527623.0, -562890.2, -27449.773, 0.004987578, -0.019421568, -512630.9, -59376.18, 0.0, 9.99975, 9.999278 
1.5151384e+3, 2.637483e+2, -478294.13, -520266.66, -13362.861, -0.025589885, -0.047231916, -474400.88, -119134.875, 0.0, 9.999554, 9.998992 
1.5151502e+3, 2.737476e+2, -402085.44, -430315.44, -20335.62, -0.037817944, -0.022213485, -391446.22, -134170.89, 0.0, 9.9993925, 9.999014 
1.5151624e+3, 2.837473e+2, -303677.03, -279879.06, -10517.545, -0.023586152, 0.027782662, -275897.1, -116617.63, 0.0, 9.999168, 9.999483 
1.5151753e+3, 2.9374748e+2, -247373.73, -196178.94, -3993.8787, 0.035974015, 0.0890867, -195869.23, -134593.06, 0.0, 9.998856, 9.999535 
1.5151875e+3, 3.0374593e+2, -242443.23, -176969.19, -4045.246, 0.022792105, -0.016289433, -176720.2, -176720.2, 0.0, 9.998592, 9.999461 
1.5151986e+3, 3.1374535e+2, -209755.75, -58826.2, -18036.674, -0.0863798, -0.02694709, -56700.68, -56700.68, 0.0, 9.998373, 10.000378 
1.524977e+3, 1.2375134e+2, -1322730.8, -1583084.5, -76701.53, 0.18913126, 0.011196109, -1301814.5, 425425.56, 0.017244656, 10.002995, 9.999476 
1.5249872e+3, 1.3374987e+2, -1370220.0, -1689186.9, 27751.773, -0.053298157, 0.030706683, -1367823.4, 261428.86, 0.010359608, 10.002539, 9.998282 
1.5250008e+3, 1.4374754e+2, -1303248.1, -1557469.6, -26181.977, 0.024165682, -0.049221266, -1300579.8, 230694.64, 0.0045741852, 10.002101, 9.998721 
1.5250126e+3, 1.5374687e+2, -1254921.3, -1470340.1, -39039.06, 0.04097662, -0.0008283814, -1248064.6, 185216.25, 0.0012060112, 10.001699, 9.998838 
1.5250236e+3, 1.6374585e+2, -1195935.5, -1390230.0, -52028.14, 0.006755028, 0.016257204, -1182880.5, 152410.2, 0.000118081814, 10.001427, 9.998845 
1.5250342e+3, 1.7374419e+2, -1096728.3, -1285187.1, -42175.906, -0.034432184, -0.04266035, -1087720.1, 149586.19, 0.0000008766353, 10.001407, 9.998903 
1.5250455e+3, 1.8374312e+2, -1019832.4, -1202034.1, -22877.178, -0.038757514, -0.035331294, -1017003.9, 122313.3, 0.0, 10.00128, 9.998863 
1.5250571e+3, 1.9374312e+2, -962814.2, -1118079.4, -14926.756, -0.009202584, 0.07149542, -961392.2, 79926.79, 0.0, 10.000975, 9.998914 
1.5250684e+3, 2.0374228e+2, -898612.94, -1014993.06, -22404.477, -0.005045963, 0.09221891, -894448.8, 48878.754, 0.0, 10.000652, 9.9991045 
1.5250795e+3, 2.137402e+2, -843199.5, -928567.5, -31659.281, -0.035680786, -0.037003435, -832740.0, 12606.262, 0.0, 10.00032, 9.999185 
1.5250912e+3, 2.2373901e+2, -788251.6, -854876.44, -10335.059, -0.02489619, -0.069568, -786685.25, -39327.945, 0.0, 10.000041, 9.999152 
1.5251039e+3, 2.3373935e+2, -715670.4, -763186.1, -4085.111, 0.0483628, 0.041209016, -715321.75, -65966.41, 0.0, 9.999842, 9.999205 
1.5251158e+3, 2.4373889e+2, -632487.25, -675878.56, -18276.969, 0.06369244, 0.07998175, -625814.75, -74454.67, 0.0, 9.999755, 9.999173 
1.5251265e+3, 2.537372e+2, -518296.78, -563529.25, -31874.678, -0.015331428, -0.01294359, -501829.9, -48454.668, 0.0, 9.999838, 9.999231 
1.5251379e+3, 2.6373592e+2, -456164.3, -512636.9, -29466.807, -0.05188497, -0.04879987, -443589.1, -88201.08, 0.0, 9.999721, 9.998963 
1.5251498e+3, 2.737354e+2, -422322.03, -442769.0, -26980.947, -0.019109365, -0.000025634645, -403692.6, -146296.92, 0.0, 9.999268, 9.998988 
1.5251617e+3, 2.837352e+2, -333569.53, -282682.28, -7360.324, 0.006850187, 0.0540234, -281639.06, -122239.95, 0.0, 9.998915, 9.999586 
1.525174e+3, 2.937353e+2, -259844.33, -188705.83, -7928.696, 0.021291915, 0.090885125, -187832.86, -126436.55, 0.0, 9.998714, 9.999655 
1.5251857e+3, 3.0373365e+2, -272332.0, -209220.39, -6984.0454, -0.012035243, -0.0191088, -208456.77, -208456.77, 0.0, 9.998465, 9.999301 
1.525197e+3, 3.1373346e+2, -222389.36, -38761.184, -12301.766, -0.07467422, 0.022389356, -37940.72, -37940.72, 0.0, 9.998175, 10.000611 
1.5349787e+3, 1.237389e+2, -1338685.3, -1615688.9, -98611.914, 0.07592345, -0.007037894, -1307166.4, 420196.66, 0.018294634, 10.002995, 9.999249 
1.5349899e+3, 1.3373794e+2, -1388717.3, -1730285.0, 10685.673, -0.03767881, 0.08899937, -1388383.3, 240988.88, 0.011016667, 10.002546, 9.997998 
1.5350036e+3, 1.437359e+2, -1301358.1, -1554000.6, -43679.664, 0.095561534, 0.055695426, -1294019.5, 237373.03, 0.0048880493, 10.002105, 9.998743 
1.5350139e+3, 1.537349e+2, -1250779.3, -1460777.5, -54122.977, 0.01271456, 0.063545845, -1237650.8, 195751.86, 0.0013030368, 10.001696, 9.998906 
1.5350243e+3, 1.6373384e+2, -1178817.3, -1354854.1, -55809.824, -0.04855637, 0.062440522, -1162614.8, 172797.55, 0.00013086536, 10.001426, 9.999089 
1.535036e+3, 1.7373264e+2, -1077032.8, -1245408.6, -42464.953, -0.00097385567, 0.022010872, -1066929.3, 170492.58, 0.0000010420176, 10.0014105, 9.999176 
1.5350473e+3, 1.8373142e+2, -1009408.9, -1180526.9, -34257.758, 0.025593717, -0.006342002, -1002805.3, 136626.73, 0.0, 10.00128, 9.999012 
1.5350582e+3, 1.9373032e+2, -954661.2, -1100050.0, -26411.514, -0.0020414747, -0.020949075, -950011.94, 91430.21, 0.0, 10.000969, 9.999041 
1.535069e+3, 2.0372921e+2, -911667.1, -1040875.75, -35873.54, -0.012693797, -0.029014038, -902375.4, 41077.508, 0.0, 10.000645, 9.998931 
1.5350804e+3, 2.137281e+2, -858179.94, -960250.6, -43313.855, 0.01129308, -0.0400516, -842277.25, 3186.7368, 0.0, 10.000321, 9.998967 
1.5350917e+3, 2.2372729e+2, -783250.44, -844758.5, -19002.16, 0.030244857, -0.026035188, -777853.5, -30381.246, 0.0, 10.000041, 9.999223 
1.5351035e+3, 2.3372702e+2, -708230.56, -747207.06, -10638.22, 0.03825398, 0.013888729, -705516.0, -56040.645, 0.0, 9.999838, 9.999317 
1.5351151e+3, 2.4372643e+2, -647772.6, -705374.1, -16682.787, 0.01780576, 0.04103708, -643289.75, -91807.94, 0.0, 9.999744, 9.998976 
1.5351261e+3, 2.537254e+2, -537249.2, -601211.2, -26894.645, -0.04620244, 0.0373073, -527443.75, -73950.86, 0.0, 9.999829, 9.998977 
1.5351374e+3, 2.6372445e+2, -450308.7, -498961.84, -43155.85, -0.05303281, 0.044175845, -425095.28, -69591.64, 0.0, 9.999712, 9.999062 
1.5351495e+3, 2.7372366e+2, -411955.25, -421238.0, -41754.215, 0.03399779, 0.05167884, -374585.25, -117071.945, 0.0, 9.999265, 9.999138 
1.5351611e+3, 2.8372315e+2, -330853.03, -276347.63, -14478.75, 0.04820099, 0.06565764, -272740.25, -113221.01, 0.0, 9.998911, 9.999632 
1.5351719e+3, 2.9372305e+2, -258648.66, -184985.3, -12929.411, -0.06079255, 0.07869909, -182781.83, -121263.34, 0.0, 9.998708, 9.999683 
1.535183e+3, 3.037218e+2, -279463.94, -221760.4, -17757.873, -0.116094165, 0.012367792, -216733.47, -216733.47, 0.0, 9.998453, 9.999221 
1.5351957e+3, 3.1372198e+2, -200801.95, 9500.838, -13359.0, -0.027236188, 0.09813319, 10346.04, 10346.04, 0.0, 9.998158, 10.000951 
1.5449814e+3, 1.237274e+2, -1351559.5, -1639291.4, -73666.25, 0.040280774, 0.01954833, -1333795.8, 393681.3, 0.019406972, 10.002985, 9.99909 
1.5449925e+3, 1.3372622e+2, -1358189.9, -1730787.3, 48259.145, -0.050876293, 0.10809747, -1352040.8, 277448.25, 0.0117135905, 10.00283, 9.997858 
1.545006e+3, 1.4372411e+2, -1250020.5, -1531107.9, -6832.3477, 0.10905297, 0.07654678, -1249854.6, 281655.75, 0.0052204016, 10.00247, 9.998723 
1.5450157e+3, 1.5372315e+2, -1225994.9, -1448359.8, -25014.098, 0.015692087, 0.086222656, -1223215.8, 210304.47, 0.0014059248, 10.001864, 9.99891 
1.5450259e+3, 1.6372214e+2, -1173945.9, -1349312.6, -20234.469, -0.049410585, 0.089021966, -1171641.4, 163887.84, 0.00014487762, 10.001444, 9.99912 
1.5450375e+3, 1.7372105e+2, -1086727.8, -1246284.5, -23379.75, 0.00863493, 0.056365415, -1083372.5, 154164.75, 0.000001197513, 10.001327, 9.99921 
1.5450487e+3, 1.8371974e+2, -1032995.7, -1186444.0, -37943.52, 0.04192178, 0.014962639, -1024126.0, 115421.734, 0.0, 10.001096, 9.999059 
1.5450591e+3, 1.9371822e+2, -992011.5, -1112973.5, -39425.203, 0.0103262495, -0.046383034, -980296.25, 61264.887, 0.0, 10.000692, 9.999085 
1.5450698e+3, 2.037171e+2, -933354.3, -1045685.4, -35885.805, -0.0010985328, -0.059688766, -922868.8, 20702.729, 0.0, 10.000473, 9.9989805 
1.5450808e+3, 2.1371666e+2, -819928.5, -936379.2, -24379.521, 0.025849078, -0.0086434325, -815030.5, 30545.793, 0.0, 10.000562, 9.999015 
1.545092e+3, 2.2371595e+2, -734468.2, -839418.3, -2358.2888, 0.034340285, 0.018956501, -734415.25, 13168.471, 0.0, 10.000456, 9.999059 
1.5451033e+3, 2.3371483e+2, -693549.0, -762589.0, -18666.732, 0.009917604, -0.00581181, -688825.2, -39230.41, 0.0, 10.000036, 9.999116 
1.5451145e+3, 2.437139e+2, -658553.44, -703992.44, -22370.71, -0.012887202, -0.0032714999, -649388.4, -97783.734, 0.0, 9.999643, 9.999034 
1.5451257e+3, 2.5371337e+2, -608228.5, -624941.7, -9496.363, -0.0332069, 0.03507591, -603935.5, -150323.98, 0.0, 9.999299, 9.99907 
1.545137e+3, 2.6371282e+2, -531047.8, -517125.75, -11405.91, -0.02844263, 0.06884131, -510724.5, -155105.9, 0.0, 9.999069, 9.999248 
1.5451485e+3, 2.7371225e+2, -432133.75, -408994.75, -8570.233, 0.01741684, 0.07466302, -406166.25, -148540.25, 0.0, 9.999034, 9.999333 
1.5451598e+3, 2.8371164e+2, -333145.9, -284764.97, 18741.832, 0.019526785, 0.073953405, -278354.22, -118721.61, 0.0, 9.99893, 9.999564 
1.5451707e+3, 2.937112e+2, -274198.72, -204425.94, 7910.1055, -0.05249706, 0.061041508, -203540.4, -141904.1, 0.0, 9.998655, 9.999575 
1.5451816e+3, 3.0371034e+2, -311469.63, -214937.95, -2551.792, -0.09313743, 0.035370454, -214870.55, -214870.55, 0.0, 9.998142, 9.999415 
1.5451932e+3, 3.137107e+2, -287644.8, 21937.41, 24742.537, -0.034762803, 0.11183905, 23902.42, 23902.42, 0.0, 9.997333, 10.001432 
1.5549849e+3, 1.23716965e+2, -1358737.1, -1650585.1, -86611.09, 0.08136809, 0.09813793, -1334969.4, 392611.97, 0.020587768, 10.002975, 9.999016 
1.5549949e+3, 1.3371481e+2, -1357453.5, -1729097.6, 41775.12, -0.095359355, 0.08870183, -1352815.6, 276786.44, 0.012455585, 10.002831, 9.997869 
1.555008e+3, 1.4371225e+2, -1254524.5, -1541972.0, -29442.135, 0.05888306, 0.01375201, -1251539.9, 280087.53, 0.0055746003, 10.002475, 9.998648 
1.555018e+3, 1.5371162e+2, -1230414.1, -1459973.9, -47408.04, 0.043182444, 0.06607148, -1221008.9, 212624.7, 0.001515748, 10.001872, 9.998828 
1.5550278e+3, 1.6371076e+2, -1185787.0, -1374662.5, -28130.64, -0.001827549, 0.095772184, -1181686.4, 153954.97, 0.00016035176, 10.001448, 9.998944 
1.5550385e+3, 1.7370944e+2, -1101052.4, -1275323.9, -27423.533, -0.008999542, 0.06060902, -1096838.9, 140813.38, 0.0000013687348, 10.001324, 9.999013 
1.5550493e+3, 1.837081e+2, -1038171.8, -1196547.5, -52686.535, 0.0038166768, 0.028795965, -1022246.1, 117417.836, 0.0, 10.001092, 9.998992 
1.55506e+3, 1.9370681e+2, -994330.94, -1119139.5, -54075.61, 0.024903063, -0.005678641, -974161.2, 67514.59, 0.0, 10.000696, 9.999042 
1.5550706e+3, 2.0370597e+2, -915123.4, -1008661.8, -35622.766, 0.026901023, -0.00062949, -903101.94, 40581.445, 0.0, 10.000475, 9.999234 
1.5550812e+3, 2.1370587e+2, -800335.0, -893906.3, -20465.283, 0.005164578, 0.05648787, -796054.75, 49628.52, 0.0, 10.000553, 9.999311 
1.5550919e+3, 2.2370495e+2, -763498.94, -897040.4, -16699.898, -0.016799767, 0.06493127, -761442.25, -13750.535, 0.0, 10.0004425, 9.99867 
1.5551028e+3, 2.3370278e+2, -728837.4, -835371.44, -33077.652, -0.039005477, -0.019424753, -719402.7, -69689.15, 0.0, 10.000033, 9.998618 
1.555114e+3, 2.4370131e+2, -638628.4, -662224.6, -34679.266, -0.033850804, -0.053764407, -613795.25, -62066.824, 0.0, 9.99964, 9.999323 
1.5551256e+3, 2.5370118e+2, -580064.7, -566018.5, -20377.922, 0.016686039, -0.017898235, -551487.4, -97756.44, 0.0, 9.999295, 9.999477 
1.5551366e+3, 2.637011e+2, -513351.56, -479123.25, -13231.676, 0.016811455, 0.029189117, -474604.75, -118871.914, 0.0, 9.9990635, 9.999512 
1.5551467e+3, 2.7370113e+2, -416571.38, -375856.94, -7291.9077, -0.06761443, 0.07374012, -374590.34, -116856.52, 0.0, 9.999029, 9.999564 
1.5551578e+3, 2.8370064e+2, -344968.22, -308624.38, 10968.474, -0.07976791, 0.07942937, -305570.72, -145831.03, 0.0, 9.998925, 9.999404 
1.5551701e+3, 2.9369962e+2, -289860.28, -236724.5, 128.05132, 0.030147381, 0.030806571, -236724.2, -174973.56, 0.0, 9.998652, 9.999355 
1.5551811e+3, 3.0369925e+2, -284494.44, -157363.94, -30203.785, 0.040659655, 0.04587113, -150552.98, -150552.98, 0.0, 9.998135, 9.999816 
1.55519e+3, 3.136995e+2, -250495.89, 100618.15, 1482.625, -0.101055995, 0.065903686, 100624.414, 100624.414, 0.0, 9.997325, 10.001978 
1.5649879e+3, 1.2370627e+2, -1362537.8, -1665961.1, -61757.652, 0.089519724, 0.10877194, -1350449.5, 377237.25, 0.021849003, 10.003014, 9.99889 
1.5649974e+3, 1.3370417e+2, -1370163.3, -1733542.8, 67015.89, -0.11348852, 0.10339163, -1358197.9, 271509.5, 0.013250772, 10.002735, 9.997887 
1.5650104e+3, 1.4370157e+2, -1268393.5, -1559821.1, -10273.458, 0.054996405, 0.02749208, -1268031.9, 263701.47, 0.0059556314, 10.002428, 9.998548 
1.5650201e+3, 1.5370077e+2, -1190075.1, -1452432.6, -32584.293, 0.050369807, 0.07426893, -1186088.8, 247652.02, 0.0016345053, 10.002203, 9.998719 
1.5650295e+3, 1.6369975e+2, -1123540.1, -1354048.0, -5558.916, 0.008762397, 0.097379446, -1123406.1, 212343.81, 0.00017771397, 10.001918, 9.9988575 
1.56504e+3, 1.7369829e+2, -1077562.1, -1273317.9, 2303.8174, -0.0043015447, 0.05597987, -1077535.0, 160227.48, 0.0000016137079, 10.001528, 9.998927 
1.5650505e+3, 1.8369696e+2, -1020379.75, -1198919.1, -16419.572, 0.0040951995, 0.03584335, -1018882.25, 120892.12, 0.0, 10.001262, 9.998894 
1.5650609e+3, 1.93696e+2, -925358.0, -1097636.1, -23644.232, 0.020928344, 0.043288462, -922171.9, 119611.805, 0.0, 10.001221, 9.998937 
1.5650712e+3, 2.0369515e+2, -845918.25, -983995.6, -18302.102, 0.019082153, 0.05676951, -843533.5, 100258.1, 0.0, 10.000988, 9.999156 
1.5650815e+3, 2.136945e+2, -822045.4, -913210.8, -32108.604, -0.005973378, 0.067184895, -811872.0, 33924.47, 0.0, 10.000443, 9.999231 
1.565092e+3, 2.2369337e+2, -813120.0, -903572.25, -27369.518, -0.025350787, 0.051983047, -805483.1, -57676.65, 0.0, 10.000029, 9.998824 
1.5651026e+3, 2.3369151e+2, -744542.56, -822028.06, 2478.895, -0.037760288, -0.017931167, -744463.4, -94638.984, 0.0, 9.999836, 9.998804 
1.5651135e+3, 2.436903e+2, -641460.0, -649197.4, 22228.35, -0.026385106, -0.045986325, -622766.2, -70929.555, 0.0, 9.999559, 9.999451 
1.5651248e+3, 2.536902e+2, -592582.44, -558457.7, 14537.491, 0.024277538, -0.016127074, -553104.4, -99265.766, 0.0, 9.999152, 9.999597 
1.5651356e+3, 2.636902e+2, -533015.25, -476063.2, 16698.254, 0.016618777, 0.027371416, -471528.38, -115688.914, 0.0, 9.998876, 9.999622 
1.5651454e+3, 2.736903e+2, -442667.9, -376677.72, 13007.065, -0.08868665, 0.06707713, -374206.47, -116367.195, 0.0, 9.998801, 9.999668 
1.5651561e+3, 2.836899e+2, -384833.97, -322947.72, 25474.115, -0.11213047, 0.0689528, -313810.84, -153966.0, 0.0, 9.998631, 9.999447 
1.5651684e+3, 2.9368898e+2, -339676.88, -256239.27, 28865.895, 0.0032694049, 0.032950934, -247226.44, -185370.97, 0.0, 9.998293, 9.999394 
1.5651792e+3, 3.0368918e+2, -319527.88, -171687.64, -11626.755, 0.046289343, 0.10089424, -170778.86, -170778.86, 0.0, 9.997883, 9.999838 
1.5651877e+3, 3.1368884e+2, -256015.6, 76940.66, -16110.794, -0.054856103, 0.058989808, 77718.39, 77718.39, 0.0, 9.997375, 10.001792 
1.5749906e+3, 1.2369538e+2, -1376351.0, -1694542.1, -78133.875, 0.061716124, 0.050079867, -1358200.1, 369592.6, 0.023204513, 10.0030155, 9.998689 
1.5750003e+3, 1.3369437e+2, -1368817.4, -1732325.4, 55333.65, -0.11155579, 0.15086997, -1360581.0, 269223.75, 0.014108494, 10.002741, 9.997893 
1.5750133e+3, 1.436921e+2, -1278162.5, -1579771.1, -22009.69, 0.09170663, 0.117912464, -1276564.9, 255263.14, 0.0063687824, 10.002427, 9.998411 
1.575022e+3, 1.5369064e+2, -1200642.3, -1474290.4, -40575.547, 0.034885194, 0.11145435, -1194752.6, 239088.83, 0.00176415, 10.002203, 9.9985695 
1.5750311e+3, 1.6368915e+2, -1122756.8, -1353611.4, -20481.383, -0.022679841, 0.09568934, -1120953.8, 214900.94, 0.00019721544, 10.001922, 9.99886 
1.5750417e+3, 1.7368758e+2, -1075787.8, -1270624.1, -12238.696, 0.019103728, 0.042249784, -1075022.0, 162846.0, 0.0000019795527, 10.00153, 9.998945 
1.5750521e+3, 1.8368636e+2, -1030359.75, -1219664.6, -20454.545, 0.039143488, 0.0356549, -1028174.8, 111704.125, 0.0, 10.001261, 9.998753 
1.5750618e+3, 1.9368577e+2, -938315.6, -1123277.8, -24693.66, -0.0057494575, 0.09932571, -935075.6, 106809.37, 0.0, 10.001214, 9.998764 
1.5750717e+3, 2.0368463e+2, -875245.56, -1043362.94, -36879.164, -0.03051608, 0.111963436, -867511.4, 76384.875, 0.0, 10.00098, 9.998753 
1.5750821e+3, 2.1368259e+2, -853303.4, -977737.9, -51361.113, -0.010890966, 0.02517937, -834842.56, 11072.937, 0.0, 10.00044, 9.998791 
1.5750924e+3, 2.2368123e+2, -767286.56, -808013.1, -36077.316, 0.0041670543, -0.017637102, -746222.4, 1705.3427, 0.0, 10.000026, 9.999482 
1.575103e+3, 2.3368102e+2, -687349.1, -702354.1, -3633.38, 0.008332964, -0.0020520918, -686515.6, -36587.96, 0.0, 9.999831, 9.999629 
1.5751134e+3, 2.4368075e+2, -643799.0, -652596.7, 7865.856, 0.004737566, 0.017866544, -639185.56, -87255.57, 0.0, 9.999552, 9.999432 
1.5751237e+3, 2.536804e+2, -603671.0, -581230.7, 721.896, -0.011641824, 0.0387048, -581207.5, -127272.59, 0.0, 9.999149, 9.999443 
1.5751341e+3, 2.636801e+2, -535547.8, -481364.84, 13194.942, -0.031718522, 0.060418714, -478322.38, -122383.336, 0.0, 9.998875, 9.999588 
1.5751445e+3, 2.7367967e+2, -444555.2, -379745.34, 12419.384, -0.056189988, 0.049938645, -377446.97, -119503.9, 0.0, 9.9987955, 9.999651 
1.575155e+3, 2.8367922e+2, -371290.03, -292549.2, 14939.522, -0.08696996, 0.04049447, -289810.0, -129861.336, 0.0, 9.998619, 9.999661 
1.5751652e+3, 2.9367927e+2, -322138.16, -218867.02, 18009.459, -0.12862119, 0.07179553, -215816.45, -153865.3, 0.0, 9.998287, 9.999655 
1.575176e+3, 3.0368012e+2, -340329.8, -215022.92, -30029.73, -0.07186683, 0.20101339, -208198.03, -208198.03, 0.0, 9.997883, 9.999541 
1.5751866e+3, 3.136787e+2, -314222.0, -46945.207, -31280.545, 0.078374356, 0.09690083, -43333.13, -43333.13, 0.0, 9.997388, 10.000935 
1.5849936e+3, 1.2368505e+2, -1381502.5, -1710660.5, -87141.375, 0.062230457, 0.04266085, -1359856.1, 368038.44, 0.024665277, 10.003049, 9.998558 
1.585003e+3, 1.3368438e+2, -1395240.5, -1731685.9, 50888.04, -0.103977606, 0.16813411, -1387712.0, 242191.55, 0.0150364665, 10.002504, 9.998009 
1.5850158e+3, 1.4368224e+2, -1318445.6, -1595340.4, -2625.6685, 0.12724765, 0.13813291, -1318420.8, 213504.81, 0.0068181083, 10.002136, 9.998442 
1.5850241e+3, 1.5368044e+2, -1197195.3, -1470265.4, -8286.906, 0.027840927, 0.09905666, -1196944.0, 236997.27, 0.0019058621, 10.002219, 9.998588 
1.585033e+3, 1.6367887e+2, -1107334.3, -1361005.5, 3654.1228, -0.048355587, 0.07772096, -1107281.6, 228673.69, 0.0002187055, 10.002093, 9.998725 
1.5850434e+3, 1.7367752e+2, -1071436.1, -1286424.3, -5004.2085, 0.017720796, 0.061634254, -1071319.8, 166647.81, 0.000002466339, 10.001638, 9.998783 
1.5850537e+3, 1.8367627e+2, -1036060.1, -1226803.9, -8571.458, 0.052230883, 0.064200714, -1035675.75, 104303.33, 0.0, 10.001244, 9.998711 
1.585063e+3, 1.9367531e+2, -978060.4, -1144968.6, -2155.328, 0.0022486697, 0.09100144, -978032.56, 63955.676, 0.0, 10.000956, 9.998738 
1.5850726e+3, 2.0367393e+2, -925608.6, -1075359.5, -4507.0244, -0.02771116, 0.08668204, -925473.1, 18528.213, 0.0, 10.00067, 9.998681 
1.5850824e+3, 2.13672e+2, -865460.25, -992804.5, 3642.3042, -0.014344626, 0.017281158, -865356.1, -19335.842, 0.0, 10.000398, 9.998707 
1.5850924e+3, 2.2367081e+2, -752218.5, -784027.0, 21553.127, 0.004285748, -0.008184428, -741336.9, 6694.0186, 0.0, 10.000057, 9.999631 
1.585103e+3, 2.3367098e+2, -704991.56, -689920.7, 7322.1875, 0.028374514, 0.024000488, -686949.1, -36922.156, 0.0, 9.99962, 9.999815 
1.5851131e+3, 2.4367084e+2, -683349.44, -678294.56, -6114.9424, 0.020771096, 0.052407585, -674205.3, -122177.72, 0.0, 9.999311, 9.999371 
1.5851225e+3, 2.536704e+2, -603023.5, -592590.3, -12095.157, -0.040494744, 0.06914057, -584634.75, -130600.18, 0.0, 9.999206, 9.999337 
1.5851325e+3, 2.636699e+2, -533385.5, -478146.84, 600.1256, -0.0665418, 0.078856595, -478140.3, -122099.93, 0.0, 9.998881, 9.999606 
1.5851434e+3, 2.7366927e+2, -529150.4, -415359.53, 1638.5516, -0.03192746, 0.044201627, -415335.94, -157290.61, 0.0, 9.998195, 9.999694 
1.5851535e+3, 2.8366876e+2, -489822.66, -343276.78, 11020.514, -0.045691896, 0.024834206, -342452.66, -182401.81, 0.0, 9.997781, 9.999716 
1.5851632e+3, 2.9366902e+2, -385561.1, -242477.36, -652.35547, -0.13941374, 0.06887748, -242474.39, -180422.53, 0.0, 9.997825, 9.999714 
1.5851735e+3, 3.0367002e+2, -314251.72, -191039.55, -41033.383, -0.099030495, 0.20759505, -178625.05, -178625.05, 0.0, 9.9980135, 9.999642 
1.585184e+3, 3.1366873e+2, -199113.28, -27471.637, -12907.977, 0.055041965, 0.1083847, -26506.348, -26506.348, 0.0, 9.998333, 10.000613 
1.5949969e+3, 1.2367542e+2, -1387740.0, -1722759.4, -108443.98, 0.08596878, 0.09666305, -1355701.3, 372289.4, 0.026239868, 10.003047, 9.998478 
1.5950055e+3, 1.336743e+2, -1378374.1, -1698360.9, 29067.686, -0.093310505, 0.15508609, -1375755.1, 254248.02, 0.016040104, 10.002513, 9.998234 
1.5950184e+3, 1.4367202e+2, -1304534.5, -1567662.0, -5546.1743, 0.15596646, 0.088951826, -1304417.6, 227607.73, 0.0073062, 10.002142, 9.99863 
1.5950264e+3, 1.5367027e+2, -1185558.1, -1445643.9, -4730.1616, 0.024404868, 0.036992792, -1185472.1, 248567.52, 0.002060233, 10.002217, 9.998758 
1.5950347e+3, 1.6366892e+2, -1127207.4, -1402149.5, -12254.507, -0.073041625, 0.043516424, -1126662.3, 209389.42, 0.00024185247, 10.002091, 9.998445 
1.5950447e+3, 1.7366809e+2, -1096202.6, -1338226.4, -21922.434, -0.012632509, 0.11380907, -1094232.9, 143828.22, 0.0000030340082, 10.001639, 9.998428 
1.5950547e+3, 1.8366674e+2, -1031973.4, -1218415.0, -20998.508, 0.03691184, 0.12257025, -1029637.6, 110436.89, 0.0, 10.001243, 9.998769 
1.5950644e+3, 1.936646e+2, -969979.0, -1128109.1, -12263.858, 0.041631803, 0.021060547, -969033.5, 73059.58, 0.0, 10.000954, 9.998856 
1.5950738e+3, 2.0366307e+2, -909777.0, -1042242.1, -15405.799, 0.023880897, -0.016295895, -908008.94, 36097.87, 0.0, 10.000668, 9.998911 
1.5950826e+3, 2.1366264e+2, -848957.1, -957523.2, -6026.5835, -0.02100502, 0.041875873, -848623.6, -2512.1658, 0.0, 10.000392, 9.998953 
1.5950921e+3, 2.2366208e+2, -775883.06, -832573.8, 5251.3994, -0.02966425, 0.077587955, -775400.75, -27284.0, 0.0, 10.000053, 9.999301 
1.5951024e+3, 2.3366131e+2, -734597.7, -751452.5, -7665.735, 0.019711941, 0.059624087, -731632.8, -81510.41, 0.0, 9.9996195, 9.999393 
1.5951122e+3, 2.436606e+2, -692437.2, -696541.4, -11190.279, 0.017940907, 0.058212698, -683112.44, -130982.945, 0.0, 9.999307, 9.9992485 
1.5951215e+3, 2.5366008e+2, -609030.9, -603912.6, -14008.054, -0.066914424, 0.0753902, -592231.8, -138094.14, 0.0, 9.999199, 9.999264 
1.5951312e+3, 2.6365957e+2, -529467.9, -469037.0, -21540.043, -0.09172373, 0.08365076, -462145.22, -106001.56, 0.0, 9.998875, 9.999672 
1.5951416e+3, 2.7365905e+2, -522207.28, -402858.6, -22136.365, -0.01994012, 0.05254329, -398885.1, -140738.95, 0.0, 9.998201, 9.999778 
1.5951519e+3, 2.8365844e+2, -494769.88, -356389.56, 9954.31, 0.0040362743, 0.022705661, -355677.2, -195525.44, 0.0, 9.997791, 9.999621 
1.595162e+3, 2.9365808e+2, -394170.0, -261050.02, 4139.22, -0.045619793, 0.02000467, -260921.44, -198763.1, 0.0, 9.997826, 9.999587 
1.595172e+3, 3.0365884e+2, -285796.72, -127808.49, -28180.732, -0.049332388, 0.12030512, -122932.33, -122932.33, 0.0, 9.997995, 10.000085 
1.5951808e+3, 3.1365907e+2, -191713.89, -6040.691, -2671.898, -0.11728724, 0.12002172, -6002.2495, -6002.2495, 0.0, 9.998307, 10.000772 
1.6049996e+3, 1.23665825e+2, -1488700.0, -1783108.4, -76620.58, 0.083561435, 0.118479215, -1469953.0, 258132.53, 0.027939666, 10.00239, 9.998375 
1.6050078e+3, 1.3366443e+2, -1331396.9, -1656619.1, 46670.668, -0.12581055, 0.13473356, -1324832.0, 305267.84, 0.01712635, 10.002763, 9.998401 
1.6050208e+3, 1.4366229e+2, -1226526.5, -1526935.5, -18.896856, 0.15843993, 0.07370351, -1226526.5, 305593.88, 0.007836914, 10.002673, 9.998652 
1.6050288e+3, 1.536609e+2, -1209193.3, -1456987.5, -13302.613, 0.049997516, 0.055863496, -1208481.3, 225650.98, 0.0022287087, 10.002057, 9.998755 
1.605037e+3, 1.6365966e+2, -1195811.4, -1443587.0, -19030.379, -0.04021812, 0.0770563, -1194358.3, 141785.4, 0.00026665046, 10.001661, 9.998364 
1.6050465e+3, 1.7365858e+2, -1101923.9, -1350775.3, -11593.589, 0.0033607576, 0.13149014, -1101384.9, 136770.83, 0.0000036433328, 10.001647, 9.998335 
1.6050561e+3, 1.836571e+2, -1006250.06, -1205037.6, -7415.8945, 0.039571743, 0.13175209, -1005973.75, 134196.69, 0.0, 10.001416, 9.998776 
1.6050652e+3, 1.9365501e+2, -987512.8, -1134440.6, -8455.751, 0.032902606, 0.034468714, -987027.8, 55160.594, 0.0, 10.000826, 9.998873 
1.6050743e+3, 2.0365362e+2, -928579.25, -1036772.2, -7070.118, 0.012474411, 0.0036822078, -928119.25, 16081.344, 0.0, 10.000478, 9.99904 
1.6050832e+3, 2.1365345e+2, -816205.06, -925283.25, -4277.468, -0.02053766, 0.072343335, -816037.56, 30164.73, 0.0, 10.000548, 9.999098 
1.6050924e+3, 2.236528e+2, -742101.06, -836742.7, -5154.633, -0.026706593, 0.100764275, -741821.1, 6386.8057, 0.0, 10.000376, 9.999116 
1.6051021e+3, 2.3365146e+2, -726943.9, -774881.6, -9869.313, 0.006705403, 0.04718532, -724991.5, -74772.1, 0.0, 9.99979, 9.999149 
1.6051115e+3, 2.4365042e+2, -710745.1, -711432.6, 2510.3787, 0.0046696197, 0.030851535, -708555.06, -156325.48, 0.0, 9.999208, 9.999192 
1.6051205e+3, 2.5365007e+2, -692646.6, -646606.3, 2693.5232, -0.05365472, 0.06718524, -646449.25, -192212.95, 0.0, 9.998638, 9.999239 
1.60513e+3, 2.636497e+2, -597916.75, -496778.88, 2144.0298, -0.069822714, 0.088573836, -496733.44, -140492.42, 0.0, 9.998386, 9.999715 
1.60514e+3, 2.736493e+2, -451681.88, -363579.75, -2308.4233, -0.020903189, 0.06388953, -363519.3, -105276.77, 0.0, 9.998666, 9.999822 
1.60515e+3, 2.8364873e+2, -390798.63, -315104.75, 22898.15, -0.003157479, 0.04021109, -308716.9, -148469.4, 0.0, 9.998544, 9.999542 
1.60516e+3, 2.936482e+2, -412948.2, -279835.38, 15879.452, -0.029492408, 0.03313659, -277967.28, -215712.33, 0.0, 9.997741, 9.999497 
1.6051698e+3, 3.0364847e+2, -376371.9, -145794.34, -672.68, -0.035431072, 0.076504186, -145792.38, -145792.38, 0.0, 9.997264, 10.000314 
1.6051783e+3, 3.1364915e+2, -333031.22, -56708.24, -1126.4503, -0.15463734, 0.09375228, -56703.645, -56703.645, 0.0, 9.997266, 10.000923 
1.6150017e+3, 1.2365641e+2, -1499298.9, -1806497.1, -59288.805, 0.04653414, 0.11509096, -1488253.4, 239924.55, 0.02978273, 10.002397, 9.998211 
1.6150098e+3, 1.3365483e+2, -1325490.8, -1644912.9, 57764.113, -0.20438565, 0.10798911, -1315365.6, 314827.6, 0.018308382, 10.002767, 9.998482 
1.615023e+3, 1.4365315e+2, -1236749.6, -1547327.3, -21825.693, 0.12964547, 0.09472535, -1235223.4, 296986.4, 0.008418617, 10.002669, 9.998514 
1.6150314e+3, 1.5365237e+2, -1221659.1, -1483338.3, -36105.684, 0.099504545, 0.1547483, -1216768.8, 217449.58, 0.0024150687, 10.002059, 9.998574 
1.6150394e+3, 1.6365111e+2, -1187535.5, -1427039.9, -23568.076, 0.043075323, 0.17823534, -1185238.4, 150992.67, 0.0002938315, 10.001662, 9.998478 
1.6150486e+3, 1.73649e+2, -1091552.3, -1329314.3, -11391.895, 0.062497467, 0.11562607, -1091007.6, 147243.4, 0.000004294035, 10.001645, 9.998485 
1.6150576e+3, 1.8364733e+2, -1010516.44, -1212994.9, -27697.88, 0.055983473, 0.092253536, -1006795.94, 133471.02, 0.0, 10.001412, 9.998724 
1.6150653e+3, 1.9364652e+2, -994432.44, -1148235.3, -30377.176, -0.02722574, 0.12861013, -988650.06, 53624.3, 0.0, 10.000822, 9.99878 
1.6150738e+3, 2.0364556e+2, -926720.1, -1032160.7, -8274.818, -0.06608035, 0.14402546, -926074.7, 18208.3, 0.0, 10.000473, 9.999073 
1.6150838e+3, 2.136444e+2, -813340.0, -917960.75, -246.6282, -0.016857123, 0.1090052, -813339.44, 32953.324, 0.0, 10.000541, 9.999152 
1.6150932e+3, 2.23643e+2, -747884.2, -847689.3, -24328.535, 0.0076585826, 0.06415161, -742269.7, 6034.612, 0.0, 10.000369, 9.999045 
1.6151015e+3, 2.3364136e+2, -733129.1, -788052.75, -30917.703, -0.013676547, -0.01110996, -719238.1, -68919.97, 0.0, 9.99979, 9.999061 
1.6151103e+3, 2.4364027e+2, -710318.4, -710552.3, -18794.47, -0.022259144, -0.027703114, -691640.5, -139312.23, 0.0, 9.9992075, 9.9992 
1.6151196e+3, 2.536403e+2, -690690.5, -643664.06, -16808.707, -0.007792136, 0.045342185, -638273.94, -183943.11, 0.0, 9.998641, 9.999258 
1.615129e+3, 2.636402e+2, -597397.25, -496484.25, 9366.15, -0.009199694, 0.09243709, -495622.28, -139289.06, 0.0, 9.998388, 9.999717 
1.6151385e+3, 2.7363986e+2, -452697.56, -365008.84, 10765.455, -0.03858682, 0.07482251, -363706.5, -105371.05, 0.0, 9.99866, 9.999816 
1.6151479e+3, 2.8363952e+2, -398218.53, -327485.06, -1810.8789, -0.067908525, 0.075052544, -327438.75, -167099.69, 0.0, 9.99853, 9.999464 
1.6151571e+3, 2.936393e+2, -418311.9, -291710.16, -12498.993, -0.09227642, 0.1085457, -290487.97, -228145.39, 0.0, 9.997743, 9.999415 
1.6151668e+3, 3.036388e+2, -372760.94, -141290.86, -2742.1655, -0.06315672, 0.07651633, -141258.38, -141258.38, 0.0, 9.997276, 10.0003395 
1.6151762e+3, 3.1363884e+2, -319571.9, -29689.271, -4941.699, -0.07460835, 0.025010515, -29605.055, -29605.055, 0.0, 9.997269, 10.001108 
1.6250044e+3, 1.236471e+2, -1365499.4, -1734484.6, -40435.668, 0.034641534, 0.11032142, -1361120.1, 367148.94, 0.031792413, 10.003328, 9.998255 
1.6250123e+3, 1.3364552e+2, -1335825.3, -1623416.8, 70202.914, -0.21830814, 0.08051927, -1319603.3, 310680.16, 0.019603958, 10.0025835, 9.998717 
1.6250256e+3, 1.4364421e+2, -1341546.8, -1608779.5, -1893.3065, 0.15054329, 0.09406279, -1341533.4, 190763.06, 0.009062119, 10.001993, 9.998417 
1.6250332e+3, 1.5364349e+2, -1243815.3, -1511556.8, -15571.196, 0.09223777, 0.17724775, -1242912.8, 191393.38, 0.002624408, 10.001985, 9.998415 
1.625041e+3, 1.636422e+2, -1166784.0, -1410307.8, -2646.1558, 0.027505279, 0.20266409, -1166755.3, 169564.7, 0.00032476612, 10.001778, 9.998537 
1.6250503e+3, 1.7363985e+2, -1148234.5, -1346279.0, 3799.5708, 0.070020616, 0.10589869, -1148161.6, 90179.7, 0.000005034694, 10.001213, 9.998576 
1.6250588e+3, 1.8363813e+2, -1094952.5, -1253033.6, -13457.857, 0.07252763, 0.07318994, -1093815.0, 46542.027, 0.0, 10.000832, 9.998727 
1.6250661e+3, 1.9363764e+2, -1002444.6, -1152866.1, -12387.611, -0.026530785, 0.14273143, -1001431.3, 40930.457, 0.0, 10.000773, 9.99877 
1.6250743e+3, 2.036367e+2, -921526.9, -1043060.7, 13265.464, -0.0674015, 0.16789618, -920095.75, 24274.396, 0.0, 10.000567, 9.998953 
1.6250843e+3, 2.136351e+2, -888290.44, -969757.5, 5827.433, 0.0005693849, 0.10186334, -887875.75, -41491.496, 0.0, 10.000093, 9.999011 
1.6250934e+3, 2.236336e+2, -828588.3, -882444.56, -24632.408, 0.028366445, 0.051233213, -819021.5, -70624.375, 0.0, 9.999799, 9.999081 
1.6251014e+3, 2.3363239e+2, -725812.75, -777494.56, -22227.135, -0.015746718, 0.014530526, -717568.5, -67161.45, 0.0, 9.999812, 9.999122 
1.6251098e+3, 2.4363141e+2, -649460.2, -683619.6, -12105.203, -0.03107114, 0.0051884153, -645605.44, -93189.39, 0.0, 9.999637, 9.999176 
1.6251186e+3, 2.5363094e+2, -620299.2, -614301.75, -17939.914, 0.00066920987, 0.033096977, -599111.6, -144689.58, 0.0, 9.9991455, 9.999215 
1.6251275e+3, 2.6363066e+2, -568389.56, -489004.25, 16275.502, 0.0036476583, 0.06458122, -485797.03, -129370.87, 0.0, 9.998615, 9.999659 
1.6251369e+3, 2.736306e+2, -554450.1, -420175.34, 13539.301, -0.039795313, 0.08146572, -418823.75, -160396.78, 0.0, 9.99799, 9.999758 
1.6251458e+3, 2.8363043e+2, -514412.34, -365721.44, 3126.1492, -0.079548106, 0.09748617, -365655.72, -205226.72, 0.0, 9.997659, 9.9996195 
1.6251546e+3, 2.936302e+2, -394611.5, -258644.25, 9161.31, -0.113362774, 0.10990532, -258029.75, -195598.34, 0.0, 9.997814, 9.999606 
1.625164e+3, 3.0362943e+2, -311545.97, -126453.875, 30189.48, -0.086652346, 0.048052076, -121654.27, -121654.27, 0.0, 9.997757, 10.00021 
1.625174e+3, 3.1362996e+2, -302686.63, -9360.5625, 5465.3877, -0.037243996, 0.061448872, -9258.764, -9258.764, 0.0, 9.997329, 10.001221 
1.6350079e+3, 1.2363812e+2, -1347792.6, -1695241.1, -52176.277, 0.03743523, 0.11962333, -1340126.4, 388230.56, 0.033989586, 10.003326, 9.998531 
1.6350153e+3, 1.336365e+2, -1308543.1, -1566737.0, 39675.41, -0.17347328, 0.049396418, -1302583.9, 327786.13, 0.02102759, 10.002587, 9.999112 
1.6350281e+3, 1.4363547e+2, -1346743.3, -1619087.5, -9571.669, 0.21186553, 0.0702166, -1346407.3, 185972.63, 0.009775217, 10.001989, 9.998349 
1.6350345e+3, 1.5363432e+2, -1255178.1, -1535805.5, -14705.977, 0.02605907, 0.12571093, -1254409.5, 179985.5, 0.002860367, 10.001985, 9.99825 
1.6350417e+3, 1.6363294e+2, -1166536.4, -1409034.0, -22049.516, -0.089091636, 0.15230706, -1164547.8, 171862.58, 0.00036087315, 10.001774, 9.9985485 
1.635051e+3, 1.7363109e+2, -1146366.1, -1342651.4, -17108.645, 0.022596193, 0.10207456, -1144886.1, 93540.51, 0.000005927034, 10.001213, 9.998602 
1.6350599e+3, 1.8362947e+2, -1090802.5, -1244868.0, -18615.475, 0.082953736, 0.074686915, -1088585.1, 51855.664, 0.0, 10.000833, 9.998783 
1.6350675e+3, 1.9362839e+2, -997818.7, -1144121.0, -13393.125, 0.029953875, 0.07921024, -996602.75, 45847.598, 0.0, 10.000775, 9.99883 
1.6350757e+3, 2.0362712e+2, -940999.6, -1083443.1, -3052.7825, 0.002292857, 0.078160614, -940934.25, 3527.8076, 0.0, 10.000566, 9.998677 
1.6350846e+3, 2.1362558e+2, -912130.5, -1019397.0, -11154.0625, 0.028026206, 0.05240165, -910982.94, -64506.137, 0.0, 10.000093, 9.998672 
1.6350932e+3, 2.2362454e+2, -819485.44, -862994.1, -26746.154, 0.031672157, 0.062219027, -806763.6, -58277.09, 0.0, 9.999795, 9.999216 
1.6351013e+3, 2.3362449e+2, -711786.7, -747802.75, -20233.334, -0.0044868016, 0.119425096, -702708.25, -52221.47, 0.0, 9.999808, 9.999328 
1.6351093e+3, 2.4362373e+2, -655101.94, -694432.44, -28183.973, -0.027684955, 0.1251435, -640400.7, -87907.14, 0.0, 9.999631, 9.999105 
1.6351174e+3, 2.5362194e+2, -627821.1, -631098.9, -34884.297, -0.029781746, 0.030558024, -594537.25, -140026.75, 0.0, 9.999147, 9.999101 
1.6351259e+3, 2.6362097e+2, -576555.0, -506338.28, -5944.5894, -0.03189136, 0.006951825, -505838.56, -149318.34, 0.0, 9.998616, 9.999539 
1.6351348e+3, 2.736214e+2, -562142.06, -437870.7, -8189.3823, -0.03212103, 0.0854855, -437333.34, -178815.89, 0.0, 9.997996, 9.999635 
1.6351438e+3, 2.836214e+2, -486945.53, -310842.88, 5454.3315, -0.048705097, 0.10752489, -310674.1, -150155.95, 0.0, 9.997665, 9.999994 
1.6351525e+3, 2.9362082e+2, -363208.06, -194224.02, 16855.447, -0.10095108, 0.038125902, -192559.16, -130036.74, 0.0, 9.997814, 10.00005 
1.6351616e+3, 3.0362034e+2, -333174.22, -168856.45, 15869.307, -0.11018039, -0.007219655, -167337.89, -167337.89, 0.0, 9.997747, 9.999924 
1.6351712e+3, 3.1362218e+2, -299081.72, -1922.0671, -10884.145, -0.047475427, 0.17816398, -1523.9441, -1523.9441, 0.0, 9.997331, 10.00127 
1.6450106e+3, 1.2362923e+2, -1488979.6, -1757265.1, -14014.413, 0.034394413, 0.099000596, -1488249.5, 240193.84, 0.036383595, 10.002297, 9.998593 
1.6450176e+3, 1.3362779e+2, -1355529.3, -1578192.9, 28200.07, -0.18354593, 0.03798531, -1352013.3, 278441.63, 0.022584807, 10.0022135, 9.999212 
1.6450302e+3, 1.436271e+2, -1342387.1, -1604979.0, -15706.397, 0.21918301, 0.08298443, -1341451.0, 191010.28, 0.010560797, 10.001969, 9.998456 
1.6450362e+3, 1.5362568e+2, -1284013.3, -1539251.1, 235.842, 0.013171533, 0.101705074, -1284013.0, 150465.67, 0.0031241647, 10.001743, 9.998342 
1.645043e+3, 1.6362426e+2, -1190255.1, -1411554.8, 416.26776, -0.111441836, 0.11495686, -1190254.3, 146239.8, 0.0004029895, 10.001574, 9.998626 
1.6450521e+3, 1.7362279e+2, -1099414.9, -1311031.6, 6117.7188, 0.0047294884, 0.0960447, -1099238.3, 139268.16, 0.0000070009137, 10.001499, 9.998679 
1.6450608e+3, 1.8362127e+2, -1025502.3, -1228125.0, 6448.245, 0.076355696, 0.08013483, -1025297.3, 115222.33, 0.0, 10.001346, 9.998651 
1.6450687e+3, 1.9361979e+2, -969708.9, -1149458.9, -5938.7827, 0.044185013, 0.059607446, -969512.9, 73020.56, 0.0, 10.001051, 9.99866 
1.6450766e+3, 2.0361824e+2, -915704.2, -1079812.6, -3673.2112, 0.021023888, 0.04443487, -915622.0, 28925.861, 0.0, 10.000777, 9.998599 
1.6450848e+3, 2.136167e+2, -851275.6, -997396.44, 5003.4604, 0.022315856, 0.025256205, -851104.5, -4542.182, 0.0, 10.000545, 9.998604 
1.6450931e+3, 2.2361568e+2, -774878.5, -866227.6, -5868.753, 0.020571392, 0.04932243, -774503.0, -25930.473, 0.0, 10.000208, 9.998995 
1.6451012e+3, 2.3361564e+2, -744905.5, -791684.25, -33971.93, 0.010725119, 0.13290615, -727049.8, -76475.12, 0.0, 9.9997015, 9.999077 
1.645109e+3, 2.4361493e+2, -694558.2, -700230.7, -57460.07, -0.0046455534, 0.15184663, -639864.44, -87282.47, 0.0, 9.999304, 9.999223 
1.6451165e+3, 2.536132e+2, -627436.75, -611869.4, -45887.645, -0.031004969, 0.048661496, -573109.94, -118513.15, 0.0, 9.999069, 9.9992695 
1.6451244e+3, 2.636122e+2, -563846.1, -510842.06, -9071.155, -0.04574845, 0.017735867, -509332.6, -152726.61, 0.0, 9.99875, 9.999443 
1.6451329e+3, 2.7361247e+2, -527415.75, -437921.9, -15319.172, -0.03771768, 0.08963338, -435372.28, -176766.75, 0.0, 9.998307, 9.999483 
1.6451417e+3, 2.836123e+2, -441634.03, -283202.2, 3355.7566, -0.043256663, 0.10385425, -283131.16, -122523.41, 0.0, 9.997952, 10.000044 
1.6451505e+3, 2.9361176e+2, -381992.4, -193019.8, -12497.638, -0.08114832, 0.03079164, -192196.84, -129585.58, 0.0, 9.997644, 10.000138 
1.6451591e+3, 3.0361152e+2, -390612.03, -210885.25, -23020.607, -0.1122952, 0.011091915, -207983.47, -207983.47, 0.0, 9.9974165, 9.999792 
1.6451685e+3, 3.1361294e+2, -267722.3, 24762.469, -35643.56, -0.05459533, 0.17129318, 29043.498, 29043.498, 0.0, 9.997496, 10.001373 
1.6550127e+3, 1.2362048e+2, -1497767.6, -1777332.5, 3951.091, 0.00793207, 0.050219033, -1497711.8, 230815.64, 0.038969472, 10.002305, 9.998453 
1.6550192e+3, 1.3361941e+2, -1370074.5, -1609495.1, 22213.793, -0.2503304, 0.047911406, -1368030.9, 262506.47, 0.024272928, 10.002218, 9.998992 
1.6550317e+3, 1.4361914e+2, -1324355.1, -1564995.9, -26947.346, 0.16923259, 0.13340403, -1321374.4, 211165.92, 0.0114189135, 10.001962, 9.998734 
1.6550384e+3, 1.5361758e+2, -1260470.1, -1490082.1, -7924.6226, 0.04696024, 0.103697814, -1260197.0, 174360.03, 0.0034161112, 10.001741, 9.99868 
1.6550453e+3, 1.6361612e+2, -1179717.0, -1390154.6, -4004.9387, -0.04790966, 0.08886232, -1179640.8, 156930.5, 0.00045137366, 10.001574, 9.998775 
1.6550536e+3, 1.7361496e+2, -1090931.6, -1294187.5, 3873.503, 0.011687218, 0.08817882, -1090857.8, 147722.9, 0.000008273259, 10.001499, 9.9987955 
1.6550618e+3, 1.8361354e+2, -1048567.7, -1275033.1, -4580.7075, 0.048080716, 0.08962583, -1048475.06, 92118.42, 0.0, 10.001341, 9.998331 
1.6550693e+3, 1.9361179e+2, -998292.44, -1208247.0, -16820.303, 0.014585462, 0.082556926, -996953.44, 45657.824, 0.0, 10.001047, 9.998259 
1.6550769e+3, 2.0361005e+2, -908629.9, -1063792.5, -13439.419, -0.013523962, 0.06529222, -907474.44, 37153.402, 0.0, 10.0007715, 9.998713 
1.655085e+3, 2.1360841e+2, -838649.2, -970129.9, -2972.1533, -0.020132868, 0.018731583, -838582.06, 8059.1416, 0.0, 10.000539, 9.998795 
1.655093e+3, 2.2360696e+2, -815721.8, -949915.94, -24161.623, -0.009956795, 0.012982695, -811504.06, -62848.586, 0.0, 10.000201, 9.998425 
1.655101e+3, 2.3360585e+2, -793176.2, -893018.5, -51358.97, 0.026274625, 0.058929503, -771474.25, -120803.484, 0.0, 9.999704, 9.998382 
1.6551088e+3, 2.43605e+2, -674080.44, -657990.9, -66583.914, 0.033494916, 0.089268975, -598967.5, -46286.445, 0.0, 9.999304, 9.999514 
1.6551158e+3, 2.536047e+2, -595666.9, -546742.2, -52778.18, -0.009384643, 0.08519233, -513032.88, -58351.348, 0.0, 9.999071, 9.999717 
1.6551232e+3, 2.636043e+2, -569587.56, -524161.78, -24484.594, -0.04376787, 0.09269636, -513477.5, -156793.2, 0.0, 9.998754, 9.999351 
1.6551311e+3, 2.736037e+2, -538283.3, -464175.16, -29530.959, -0.060227115, 0.09548477, -453846.94, -195155.28, 0.0, 9.998321, 9.999298 
1.6551395e+3, 2.836031e+2, -458012.0, -320884.22, -7989.6855, -0.06522302, 0.087983534, -320420.25, -159722.06, 0.0, 9.997967, 9.99978 
1.6551483e+3, 2.9360297e+2, -398054.03, -229740.6, -23396.408, -0.062099308, 0.08271858, -226548.89, -163849.97, 0.0, 9.997657, 9.999881 
1.6551566e+3, 3.0360293e+2, -388813.22, -206742.44, -23501.434, -0.10139755, 0.09830225, -203757.83, -203757.83, 0.0, 9.997415, 9.999822 
1.6551659e+3, 3.1360233e+2, -262194.7, 40191.242, -23204.238, -0.07299593, 0.047715448, 41961.508, 41961.508, 0.0, 9.997479, 10.001486 
1.6650155e+3, 1.2361246e+2, -1352538.8, -1725836.8, 20298.82, 0.0108405175, 0.06555597, -1351438.3, 377167.22, 0.04173462, 10.003448, 9.998256 
1.6650212e+3, 1.3361108e+2, -1366641.9, -1639461.6, -1239.2745, -0.28760335, 0.060001887, -1366636.3, 263983.53, 0.02608708, 10.00239, 9.998697 
1.6650331e+3, 1.436107e+2, -1359827.9, -1570865.3, -39265.69, 0.1232097, 0.14781366, -1352758.9, 179864.95, 0.012349877, 10.001667, 9.998836 
1.6650401e+3, 1.5360905e+2, -1244776.5, -1464911.9, -30652.197, 0.038472265, 0.09417647, -1240588.1, 194051.83, 0.003737191, 10.001775, 9.998837 
1.6650471e+3, 1.6360761e+2, -1154328.0, -1373612.8, -41702.62, -0.029601645, 0.06894491, -1146665.0, 189988.56, 0.00050616945, 10.00173, 9.998812 
1.6650553e+3, 1.7360666e+2, -1103689.4, -1298838.5, -44314.984, 0.029069215, 0.087831065, -1094097.6, 144563.73, 0.000009797576, 10.001405, 9.998809 
1.6650632e+3, 1.836053e+2, -1086198.3, -1303299.0, -50097.9, 0.060939755, 0.0992517, -1075195.4, 65478.594, 0.0, 10.001125, 9.998241 
1.6650704e+3, 1.9360337e+2, -1022698.9, -1231203.9, -42471.176, 0.018322704, 0.08353868, -1014379.7, 28314.15, 0.0, 10.00093, 9.9981575 
1.6650777e+3, 2.0360158e+2, -923894.75, -1063618.5, -30520.887, -0.013878228, 0.064752914, -917518.8, 27192.055, 0.0, 10.000636, 9.998777 
1.6650853e+3, 2.1360016e+2, -887196.25, -983164.4, -29642.08, -0.01703458, 0.029548088, -878778.9, -32056.926, 0.0, 10.000163, 9.998885 
1.665093e+3, 2.2359869e+2, -871080.25, -980322.56, -34728.42, -0.011547548, 0.01972386, -860974.8, -112238.81, 0.0, 9.999839, 9.998389 
1.6651006e+3, 2.3359722e+2, -789594.06, -897976.1, -17436.893, 0.004440692, 0.03472412, -786857.9, -136103.22, 0.0, 9.999759, 9.998321 
1.6651079e+3, 2.4359623e+2, -642718.3, -660266.1, -18795.055, 0.00932637, 0.060951687, -630750.06, -77983.47, 0.0, 9.999594, 9.999358 
1.665115e+3, 2.535962e+2, -576133.75, -556892.75, -51314.105, -0.006088869, 0.10076551, -514305.1, -59539.434, 0.0, 9.999291, 9.999539 
1.6651222e+3, 2.6359582e+2, -529776.1, -516526.16, -48292.93, -0.02665971, 0.1262737, -474405.9, -117637.234, 0.0, 9.999078, 9.999246 
1.6651298e+3, 2.735948e+2, -449968.6, -432358.63, -49025.82, -0.0503647, 0.09677183, -391353.38, -132573.78, 0.0, 9.998975, 9.9992 
1.6651379e+3, 2.8359392e+2, -364503.8, -298057.2, -25237.242, -0.05577057, 0.07657055, -289558.72, -128769.914, 0.0, 9.998705, 9.999579 
1.6651464e+3, 2.9359388e+2, -340640.5, -225215.52, -40685.02, -0.04517859, 0.10144136, -212316.38, -149526.69, 0.0, 9.998151, 9.999674 
1.6651542e+3, 3.0359417e+2, -352705.38, -164300.25, -25567.273, -0.09932534, 0.14899394, -160892.33, -160892.33, 0.0, 9.997555, 10.000045 
1.665163e+3, 3.1359276e+2, -337188.34, 10277.532, -3019.1086, -0.07366727, -0.0034144418, 10303.764, 10303.764, 0.0, 9.996937, 10.001543 
1.6750191e+3, 1.2360512e+2, -1368026.3, -1758001.3, 11175.216, 0.030087844, 0.13578883, -1367706.3, 360971.84, 0.044667274, 10.0034485, 9.998036 
1.6750233e+3, 1.3360281e+2, -1391943.4, -1693415.8, -43357.94, -0.30298632, 0.07379971, -1385831.5, 244870.14, 0.028025994, 10.002394, 9.998327 
1.6750343e+3, 1.436018e+2, -1365007.6, -1581820.8, -43458.29, 0.073469326, 0.1244109, -1356621.1, 176090.6, 0.013357116, 10.001668, 9.998761 
1.6750413e+3, 1.5360017e+2, -1246880.9, -1468844.4, -24875.076, -0.015177893, 0.07371009, -1244127.4, 190599.84, 0.004090086, 10.001772, 9.998812 
1.6750486e+3, 1.6359876e+2, -1160366.9, -1386053.0, -52229.72, -0.05985357, 0.05664413, -1148865.8, 187874.72, 0.0005678562, 10.001727, 9.998729 
1.675057e+3, 1.735979e+2, -1110370.8, -1313488.8, -56152.83, 0.052915312, 0.0950009, -1095880.8, 142867.53, 0.000011659807, 10.001407, 9.998709 
1.6750649e+3, 1.8359657e+2, -1076639.4, -1282719.8, -58463.176, 0.109806225, 0.108586214, -1061209.1, 79551.68, 0.0, 10.001121, 9.998385 
1.6750716e+3, 1.9359452e+2, -1009855.1, -1205322.3, -48664.375, 0.049771003, 0.0621513, -998409.56, 44371.395, 0.0, 10.000931, 9.998335 
1.6750784e+3, 2.0359282e+2, -922594.06, -1060869.0, -47488.74, 0.013269865, 0.0422939, -907855.6, 36941.324, 0.0, 10.000635, 9.998797 
1.6750859e+3, 2.1359189e+2, -887872.25, -985259.56, -46421.77, 0.027327191, 0.057229042, -869289.94, -22485.441, 0.0, 10.000165, 9.998872 
1.6750932e+3, 2.2359084e+2, -838161.5, -911459.5, -39781.82, 0.011842022, 0.06866855, -820720.4, -71906.164, 0.0, 9.999836, 9.998864 
1.6750997e+3, 2.3358965e+2, -751113.1, -818514.6, -19096.297, -0.05618076, 0.057262354, -746078.75, -95251.64, 0.0, 9.999759, 9.998866 
1.6751067e+3, 2.4358852e+2, -684440.5, -746773.8, -29275.14, -0.07883574, 0.06476662, -672847.4, -120007.93, 0.0, 9.999592, 9.998766 
1.6751142e+3, 2.5358763e+2, -630202.25, -670623.7, -60472.01, -0.02565808, 0.09748084, -586653.0, -131803.56, 0.0, 9.999295, 9.998758 
1.6751216e+3, 2.6358676e+2, -537861.25, -534375.4, -51503.68, 0.000008173439, 0.119796924, -484585.16, -127725.91, 0.0, 9.999081, 9.999124 
1.6751291e+3, 2.7358574e+2, -450391.25, -434093.28, -50085.15, -0.015001212, 0.092149265, -391498.53, -132628.61, 0.0, 9.998977, 9.999188 
1.675137e+3, 2.8358474e+2, -374938.97, -319666.1, -42518.164, -0.022472246, 0.06904156, -296591.94, -135711.83, 0.0, 9.998703, 9.9994335 
1.6751446e+3, 2.9358453e+2, -350590.44, -246758.6, -58181.21, -0.036473908, 0.09437926, -220698.13, -157814.75, 0.0, 9.998154, 9.999525 
1.6751516e+3, 3.0358517e+2, -324300.44, -107467.67, -48265.773, -0.10946317, 0.16581114, -97209.305, -97209.305, 0.0, 9.997562, 10.000433 
1.6751601e+3, 3.1358454e+2, -339639.22, 1868.7166, -7526.4326, -0.074655935, 0.04732254, 2034.5098, 2034.5098, 0.0, 9.996951, 10.001479 
1.6850226e+3, 1.2359728e+2, -1441355.4, -1789426.9, 34282.105, 0.055019416, 0.137431, -1438011.0, 290743.5, 0.04776178, 10.002906, 9.998082 
1.6850261e+3, 1.3359475e+2, -1377315.5, -1690157.8, -32762.553, -0.2721169, 0.0534774, -1373921.3, 256858.4, 0.030093022, 10.00252, 9.998288 
1.6850361e+3, 1.4359355e+2, -1307305.9, -1563098.8, 4109.7974, 0.07301253, 0.09154739, -1307239.9, 225551.5, 0.0144470995, 10.002111, 9.998675 
1.685043e+3, 1.5359206e+2, -1247672.0, -1479739.1, 20359.766, -0.027050827, 0.06516557, -1245899.3, 188906.47, 0.004479329, 10.001811, 9.998719 
1.68505e+3, 1.6359065e+2, -1192268.0, -1411872.6, -13797.286, -0.07345901, 0.057938103, -1191404.5, 145414.77, 0.0006375465, 10.0015545, 9.998635 
1.6850582e+3, 1.735896e+2, -1120078.3, -1327919.3, -19268.822, 0.042127647, 0.08441101, -1118307.0, 120522.445, 0.00001399049, 10.001385, 9.99862 
1.6850659e+3, 1.8358816e+2, -1043871.6, -1255970.3, -15996.452, 0.10102737, 0.087936714, -1042671.94, 98170.99, 0.0, 10.0013, 9.998483 
1.6850726e+3, 1.9358617e+2, -941651.6, -1159323.5, -11216.778, 0.041618414, 0.036891337, -941075.1, 101786.6, 0.0, 10.001343, 9.998453 
1.6850793e+3, 2.0358457e+2, -849034.7, -1036518.8, -28793.924, 0.009611872, 0.024022372, -844712.2, 100164.75, 0.0, 10.001186, 9.9987 
1.6850865e+3, 2.1358377e+2, -820444.0, -967170.06, -40570.582, 0.032600403, 0.06488974, -809973.25, 36911.457, 0.0, 10.00069, 9.998742 
1.6850932e+3, 2.2358282e+2, -765731.75, -862833.0, -39046.082, 0.0211177, 0.089141175, -751978.6, -3084.8486, 0.0, 10.000276, 9.998985 
1.6850996e+3, 2.335817e+2, -704647.3, -777872.44, -46663.875, -0.051174108, 0.069909, -681947.2, -31042.885, 0.0, 10.000003, 9.999026 
1.6851063e+3, 2.435805e+2, -666025.4, -742493.8, -58159.777, -0.07736296, 0.06264317, -634657.75, -81741.24, 0.0, 9.999742, 9.998723 
1.6851135e+3, 2.5357926e+2, -609703.56, -670031.06, -41791.73, -0.026777085, 0.06561339, -588327.0, -133396.63, 0.0, 9.999477, 9.998673 
1.6851208e+3, 2.6357827e+2, -522135.5, -529011.1, 3028.5742, 0.000652065, 0.08290871, -520991.75, -164049.98, 0.0, 9.999199, 9.999103 
1.6851282e+3, 2.7357763e+2, -461525.84, -440958.97, 3852.0967, -0.0077542146, 0.09858226, -440261.16, -181312.0, 0.0, 9.998908, 9.999174 
1.6851357e+3, 2.835769e+2, -406034.63, -343832.0, 3195.3472, -0.01335964, 0.10194801, -343668.28, -182710.6, 0.0, 9.998531, 9.99935 
1.6851428e+3, 2.9357642e+2, -383229.0, -271442.38, -12116.596, -0.026760897, 0.107479595, -270144.13, -207180.34, 0.0, 9.99797, 9.999444 
1.6851492e+3, 3.0357674e+2, -315316.56, -109909.08, -2610.6157, -0.10295223, 0.1566609, -109875.91, -109875.91, 0.0, 9.997656, 10.000369 
1.6851571e+3, 3.1357676e+2, -252764.72, -5378.1157, 14540.944, -0.10468052, 0.11149494, -4526.3574, -4526.3574, 0.0, 9.997758, 10.001041 
1.6950257e+3, 1.2358881e+2, -1423449.4, -1748782.0, 47032.27, 0.07186135, 0.050177414, -1416786.5, 312049.63, 0.05102197, 10.002904, 9.998365 
1.6950293e+3, 1.3358693e+2, -1359369.4, -1648824.8, -48113.453, -0.20042534, 0.001176681, -1351581.5, 279271.97, 0.03229503, 10.002513, 9.998575 
1.6950387e+3, 1.4358594e+2, -1315707.3, -1580494.3, -9416.11, 0.11695013, 0.0490165, -1315372.9, 217489.98, 0.01562725, 10.00211, 9.998558 
1.6950451e+3, 1.5358475e+2, -1258800.3, -1504969.6, 9480.149, -0.0031435709, 0.06890613, -1258435.6, 176439.98, 0.004910431, 10.001819, 9.998544 
1.6950516e+3, 1.6358331e+2, -1198142.0, -1425436.4, -21743.613, -0.07694015, 0.074016824, -1196080.6, 140809.47, 0.0007170378, 10.001558, 9.998541 
1.6950592e+3, 1.7358172e+2, -1125053.3, -1339508.1, -24735.725, -0.0064453413, 0.054932937, -1122237.1, 116667.8, 0.000016975888, 10.001388, 9.99854 
1.6950665e+3, 1.8358004e+2, -1041793.44, -1250877.6, -15877.005, 0.03047866, 0.03723202, -1040594.7, 100325.68, 0.0, 10.001295, 9.99852 
1.6950735e+3, 1.9357832e+2, -938135.94, -1152021.6, -8744.351, -0.00784227, 0.008232216, -937779.0, 105157.164, 0.0, 10.001341, 9.998505 
1.6950803e+3, 2.0357682e+2, -864852.3, -1067783.0, -45160.32, -0.026574815, 0.010354606, -855256.1, 89694.83, 0.0, 10.001179, 9.998489 
1.6950868e+3, 2.1357578e+2, -838869.0, -1004960.06, -58416.125, -0.0041737854, 0.051970247, -820381.25, 26581.549, 0.0, 10.000687, 9.998485 
1.6950934e+3, 2.2357462e+2, -781739.6, -894871.25, -50837.723, 0.010937295, 0.08094482, -762251.75, -13276.903, 0.0, 10.00027, 9.998769 
1.6951004e+3, 2.3357342e+2, -720192.5, -810028.6, -54924.945, 0.012439667, 0.07264181, -694157.2, -43170.95, 0.0, 10.0, 9.998808 
1.6951069e+3, 2.4357218e+2, -634139.1, -675109.4, -67232.05, 0.0060482286, 0.054090142, -584340.6, -31342.723, 0.0, 9.999735, 9.999189 
1.6951132e+3, 2.53571e+2, -569191.7, -586332.0, -49771.203, -0.012913945, 0.0064414213, -527258.2, -72249.11, 0.0, 9.999477, 9.999249 
1.6951196e+3, 2.6357028e+2, -517277.56, -519268.97, -7582.8354, -0.027093034, 0.01747109, -510625.34, -153608.42, 0.0, 9.999199, 9.99917 
1.6951269e+3, 2.735705e+2, -463065.22, -444771.75, -4994.6343, -0.03395273, 0.11696438, -443496.9, -184478.66, 0.0, 9.998909, 9.999147 
1.6951339e+3, 2.8357026e+2, -408381.75, -349535.75, -16250.039, -0.033636168, 0.17353499, -345346.6, -184323.7, 0.0, 9.998533, 9.999311 
1.6951409e+3, 2.935693e+2, -383483.06, -274579.75, -30930.477, -0.021570325, 0.14023001, -266408.1, -203375.8, 0.0, 9.997978, 9.999419 
1.6951472e+3, 3.0356872e+2, -347923.7, -181113.64, -1193.9707, -0.08617821, 0.11655413, -181105.1, -181105.1, 0.0, 9.997669, 9.999875 
1.695154e+3, 3.1356966e+2, -300870.34, -104785.95, 38107.12, -0.17918833, 0.2244852, -97640.58, -97640.58, 0.0, 9.997755, 10.00036 
1.7050286e+3, 1.23581335e+2, -1406742.5, -1717284.0, 60926.547, 0.06319194, 0.062409528, -1395216.9, 333693.3, 0.05445245, 10.0029335, 9.99857 
1.7050321e+3, 1.335796e+2, -1355827.8, -1620980.8, -70424.695, -0.1722201, 0.0019666126, -1338283.8, 292641.2, 0.034637704, 10.002435, 9.998805 
1.7050408e+3, 1.435785e+2, -1312934.8, -1586803.5, -17663.783, 0.10885017, 0.031866595, -1311800.3, 221134.19, 0.01690327, 10.002168, 9.9984865 
1.7050472e+3, 1.5357739e+2, -1201026.0, -1490093.8, 5183.186, 0.017908908, 0.07085645, -1200933.1, 234013.77, 0.00538814, 10.0022745, 9.9984255 
1.7050537e+3, 1.6357592e+2, -1101961.3, -1382938.9, -24746.04, -0.049333885, 0.07898447, -1099798.5, 237163.5, 0.0008082668, 10.002234, 9.9985075 
1.7050606e+3, 1.7357408e+2, -1043037.9, -1302845.4, -25894.871, -0.024104692, 0.0386476, -1040482.1, 198496.97, 0.000020835996, 10.001962, 9.998516 
1.7050678e+3, 1.8357238e+2, -982521.2, -1216434.6, -9935.838, -0.0028804862, 0.018235855, -982099.94, 158894.78, 0.0, 10.001677, 9.998573 
1.7050748e+3, 1.9357102e+2, -927947.0, -1139130.4, -2990.8406, -0.0045495722, 0.017014971, -927904.7, 115102.69, 0.0, 10.001379, 9.998574 
1.7050816e+3, 2.0356958e+2, -894857.6, -1104365.1, -46726.344, -0.006164587, 0.032331996, -884908.7, 60112.94, 0.0, 10.001071, 9.998289 
1.7050876e+3, 2.135682e+2, -850397.75, -1038407.8, -62555.586, -0.004073822, 0.06382556, -831486.2, 15551.517, 0.0, 10.0007305, 9.998233 
1.7050937e+3, 2.2356676e+2, -772033.9, -891481.4, -45384.625, 0.009872956, 0.07806095, -756746.4, -7693.5015, 0.0, 10.000343, 9.998755 
1.7051005e+3, 2.3356535e+2, -735851.6, -815115.56, -34875.32, 0.042435627, 0.04762468, -722691.7, -71626.22, 0.0, 9.999884, 9.998828 
1.705107e+3, 2.4356417e+2, -652163.56, -672921.3, -41546.027, 0.04498927, 0.03113765, -619719.6, -66643.51, 0.0, 9.999564, 9.999286 
1.7051126e+3, 2.535635e+2, -561475.0, -569751.8, -58415.96, -0.002010582, 0.023705296, -507051.06, -51968.492, 0.0, 9.999479, 9.999361 
1.7051187e+3, 2.6356298e+2, -509477.6, -507217.1, -43048.105, -0.036634356, 0.044338595, -465284.4, -108195.71, 0.0, 9.999221, 9.999241 
1.7051254e+3, 2.735629e+2, -499470.84, -455599.8, -38785.465, -0.053393986, 0.10660916, -432976.63, -173883.77, 0.0, 9.998632, 9.999206 
1.7051321e+3, 2.8356272e+2, -417030.47, -331084.9, -25624.502, -0.06903231, 0.15883143, -324024.97, -162928.67, 0.0, 9.998378, 9.999511 
1.7051387e+3, 2.9356232e+2, -254792.13, -188328.73, -20279.922, -0.07309754, 0.1553037, -182629.45, -119529.73, 0.0, 9.998759, 9.999635 
1.7051451e+3, 3.035613e+2, -244700.2, -152261.33, 5322.3867, -0.088729225, 0.08646862, -151955.89, -151955.89, 0.0, 9.998468, 9.999689 
1.7051518e+3, 3.1356215e+2, -432530.25, -169704.48, 70895.414, -0.13328029, 0.21053043, -151800.58, -151800.58, 0.0, 9.99686, 10.000344 
1.7150311e+3, 1.2357466e+2, -1403645.8, -1706923.0, 66489.86, 0.021366669, 0.1532767, -1389709.1, 339269.47, 0.058041386, 10.002922, 9.998654 
1.7150342e+3, 1.3357274e+2, -1343522.1, -1595440.0, -88584.78, -0.19444743, 0.05801578, -1315491.0, 315502.56, 0.03711724, 10.00244, 9.998983 
1.7150423e+3, 1.435713e+2, -1314221.6, -1590567.9, -17082.242, 0.041538637, 0.042750515, -1313169.8, 219836.02, 0.018276524, 10.002173, 9.998458 
1.7150497e+3, 1.5357001e+2, -1205611.0, -1499174.0, 9918.018, 0.032320857, 0.06894584, -1205276.4, 229743.1, 0.005915651, 10.002273, 9.998364 
1.7150564e+3, 1.6356845e+2, -1101833.4, -1381319.5, -33881.24, 0.0039309203, 0.07202835, -1097784.8, 239250.39, 0.0009130136, 10.002228, 9.998523 
1.7150627e+3, 1.7356668e+2, -1040983.5, -1299471.1, -35558.992, -0.015715426, 0.03574218, -1036181.06, 202870.72, 0.000025810483, 10.001964, 9.998539 
1.7150693e+3, 1.8356517e+2, -978334.5, -1207296.4, -21908.467, -0.0058067157, 0.030519066, -976257.0, 164808.95, 0.0, 10.001673, 9.998639 
1.7150767e+3, 1.9356418e+2, -923188.1, -1128931.8, -13363.756, 0.04591861, 0.059745755, -922323.75, 120751.83, 0.0, 10.001375, 9.998647 
1.7150834e+3, 2.0356284e+2, -909357.56, -1132674.5, -59589.04, 0.06381245, 0.087132946, -894451.94, 50637.52, 0.0, 10.001062, 9.998099 
1.7150885e+3, 2.1356101e+2, -868026.75, -1074402.8, -73675.33, 0.027863055, 0.09978578, -844424.3, 2685.253, 0.0, 10.000727, 9.99799 
1.7150941e+3, 2.2355919e+2, -761321.1, -868230.44, -61830.945, 0.014031068, 0.08070568, -733041.7, 16086.375, 0.0, 10.000339, 9.998919 
1.7151004e+3, 2.3355745e+2, -719150.3, -781450.9, -50424.4, 0.03788013, -0.0044055106, -691030.4, -39887.844, 0.0, 9.9998865, 9.999059 
1.7151065e+3, 2.4355644e+2, -670252.6, -710333.1, -46169.086, 0.037536453, -0.0065535163, -639962.0, -86810.28, 0.0, 9.999563, 9.999029 
1.7151122e+3, 2.5355673e+2, -585508.56, -620143.25, -58937.652, -0.0006729905, 0.113983184, -541396.75, -86245.22, 0.0, 9.99948, 9.999015 
1.715118e+3, 2.6355627e+2, -504981.34, -498347.25, -61333.395, -0.034467313, 0.158295, -440241.25, -83083.375, 0.0, 9.999222, 9.999303 
1.715124e+3, 2.7355477e+2, -489680.88, -436462.88, -59041.86, -0.06931954, 0.06927151, -398310.9, -139137.64, 0.0, 9.998636, 9.999336 
1.7151299e+3, 2.835543e+2, -387362.28, -268899.38, -15783.981, -0.12269468, 0.062649295, -266832.38, -105654.34, 0.0, 9.998375, 9.99994 
1.7151363e+3, 2.935553e+2, -226600.8, -126154.164, -1662.233, -0.18596582, 0.15574835, -126126.664, -62960.0, 0.0, 9.998743, 10.00007 
1.7151435e+3, 3.0355433e+2, -243898.52, -148254.64, -44623.73, -0.1171684, 0.067419805, -130668.51, -130668.51, 0.0, 9.998456, 9.999724 
1.7151503e+3, 3.135537e+2, -380576.94, -66369.82, 14997.128, 0.015232005, 0.03493558, -65655.63, -65655.63, 0.0, 9.996878, 10.001047 
1.7250341e+3, 1.2356739e+2, -1353314.6, -1702227.4, 111587.77, 0.015432964, 0.13187325, -1320679.6, 408369.66, 0.061762962, 10.003391, 9.998466 
1.7250375e+3, 1.335659e+2, -1263260.5, -1572075.0, -88912.734, -0.15354769, 0.09329535, -1239490.6, 391571.03, 0.039720148, 10.003093, 9.998836 
1.7250444e+3, 1.4356439e+2, -1226539.0, -1546554.3, -19488.025, 0.012823708, 0.0794569, -1225356.6, 307718.3, 0.019743165, 10.002785, 9.998467 
1.7250519e+3, 1.5356265e+2, -1187017.0, -1486285.9, 12326.478, 0.017814152, 0.058455527, -1186510.3, 248581.38, 0.006494274, 10.002385, 9.9984 
1.7250587e+3, 1.6356097e+2, -1126991.9, -1388890.3, -28380.932, 0.006481614, 0.04545757, -1123951.6, 213156.2, 0.001032908, 10.002036, 9.998563 
1.7250647e+3, 1.7355956e+2, -1064976.3, -1306728.0, -30943.62, -0.0016633298, 0.041192677, -1061078.5, 178043.06, 0.00003215152, 10.001781, 9.998576 
1.7250712e+3, 1.835583e+2, -996562.0, -1213379.4, -16878.217, 0.013725407, 0.056529306, -995255.94, 145878.13, 0.0, 10.001536, 9.998663 
1.7250782e+3, 1.9355737e+2, -930957.94, -1130959.4, -14139.396, 0.059358235, 0.09069257, -929963.25, 113180.71, 0.0, 10.001315, 9.998662 
1.7250845e+3, 2.0355602e+2, -889004.94, -1102363.6, -49583.137, 0.07552125, 0.10890324, -878045.1, 67112.76, 0.0, 10.001114, 9.998283 
1.7250896e+3, 2.1355405e+2, -821300.6, -1028075.25, -33431.445, 0.045804057, 0.08621862, -816029.75, 31147.93, 0.0, 10.000946, 9.9982 
1.7250948e+3, 2.2355223e+2, -711751.06, -848191.9, -13512.365, 0.02634973, 0.057106037, -710425.75, 38769.727, 0.0, 10.000696, 9.998882 
1.7251003e+3, 2.3355079e+2, -666152.6, -763684.9, -26363.787, 0.02118351, 0.008443777, -659482.44, -8274.332, 0.0, 10.000288, 9.998985 
1.725106e+3, 2.4354991e+2, -624117.2, -696823.6, -20217.879, 0.009369763, 0.026090473, -618873.3, -65656.45, 0.0, 9.999922, 9.998947 
1.7251118e+3, 2.5354996e+2, -569119.7, -622881.7, -16115.34, -0.008101547, 0.1342941, -564659.2, -109440.16, 0.0, 9.99964, 9.998918 
1.7251173e+3, 2.6354936e+2, -489403.63, -479209.56, -17415.033, -0.027787834, 0.16092558, -466160.97, -108934.25, 0.0, 9.999279, 9.999406 
1.7251226e+3, 2.7354774e+2, -459547.16, -406452.72, -18098.518, -0.06582905, 0.04629984, -400870.3, -141628.56, 0.0, 9.998779, 9.999473 
1.7251281e+3, 2.8354722e+2, -409236.28, -271839.66, 26852.129, -0.12695335, 0.028162064, -266778.25, -105532.44, 0.0, 9.998195, 10.000006 
1.7251344e+3, 2.9354843e+2, -415427.03, -215622.58, 10762.742, -0.18938063, 0.13501067, -215044.5, -151811.22, 0.0, 9.997444, 10.00008 
1.7251416e+3, 3.0354777e+2, -447432.66, -249352.61, -65363.2, -0.07639084, 0.08407977, -229728.08, -229728.08, 0.0, 9.997074, 9.999695 
1.7251472e+3, 3.135467e+2, -281802.97, 42763.555, -17876.678, 0.003544192, 0.0038485562, 43745.21, 43745.21, 0.0, 9.997292, 10.001598 
1.7350377e+3, 1.2355955e+2, -1392345.1, -1781382.4, 112029.18, 0.033824753, -0.0010490442, -1362391.0, 366731.1, 0.065601364, 10.003377, 9.997928 
1.7350414e+3, 1.3355902e+2, -1297708.9, -1641241.8, -99729.74, -0.055915944, 0.10396298, -1270855.8, 360273.72, 0.042435013, 10.003086, 9.998354 
1.7350474e+3, 1.4355776e+2, -1224680.4, -1541207.5, -33196.36, 0.018297948, 0.14000286, -1221236.4, 311905.78, 0.02129755, 10.002781, 9.998507 
1.7350538e+3, 1.5355536e+2, -1176831.9, -1467369.8, -1684.1012, -0.030208685, 0.041304182, -1176822.1, 258340.97, 0.0071235094, 10.002395, 9.998526 
1.7350602e+3, 1.6355349e+2, -1121874.6, -1379287.8, -39486.785, -0.04887626, 0.0014418775, -1115953.6, 221226.4, 0.0011691477, 10.00204, 9.998628 
1.7350666e+3, 1.735527e+2, -1061517.1, -1299399.9, -39694.8, 0.014413784, 0.052634228, -1055068.3, 184120.25, 0.00004011834, 10.00178, 9.998628 
1.7350732e+3, 1.8355173e+2, -999544.0, -1217911.5, -25578.65, 0.051502794, 0.094897896, -996587.9, 144611.34, 0.0, 10.001528, 9.998636 
1.7350793e+3, 1.9355057e+2, -934643.94, -1138216.4, -20991.89, 0.032927845, 0.11097486, -932501.8, 110710.625, 0.0, 10.001311, 9.998615 
1.7350852e+3, 2.0354913e+2, -852319.75, -1025100.9, -56618.848, 0.02599424, 0.09929281, -835419.4, 109807.51, 0.0, 10.001107, 9.998817 
1.7350905e+3, 2.1354726e+2, -778158.7, -937685.4, -38577.86, 0.046472996, 0.022843817, -769319.3, 77923.35, 0.0, 10.00094, 9.998824 
1.7350955e+3, 2.2354582e+2, -728568.0, -880221.56, -27783.7, 0.04143394, 0.0063891164, -723638.2, 25617.674, 0.0, 10.000684, 9.998669 
1.7351002e+3, 2.3354529e+2, -692778.7, -817321.5, -39938.76, -0.01195443, 0.08356606, -681071.5, -29808.6, 0.0, 10.000279, 9.998622 
1.7351054e+3, 2.4354446e+2, -621044.4, -688701.8, -30990.443, -0.04330218, 0.12615742, -608995.06, -55722.72, 0.0, 9.999913, 9.999007 
1.7351112e+3, 2.535432e+2, -560053.3, -603710.44, -24549.14, -0.027203737, 0.087698326, -549031.5, -93746.02, 0.0, 9.999638, 9.999051 
1.7351167e+3, 2.6354215e+2, -480433.22, -459806.6, -34356.61, -0.020317636, 0.057302803, -434248.75, -76952.945, 0.0, 9.999275, 9.999542 
1.7351216e+3, 2.735416e+2, -450456.84, -387826.6, -35171.156, -0.051071245, 0.038825933, -372049.8, -112750.43, 0.0, 9.998779, 9.9996 
1.7351267e+3, 2.8354138e+2, -428510.34, -313388.38, 141.70967, -0.0915724, 0.051696483, -313388.22, -152087.02, 0.0, 9.998199, 9.99972 
1.7351328e+3, 2.935415e+2, -441781.47, -274468.25, -14915.639, -0.09354079, 0.08951086, -273148.97, -209847.95, 0.0, 9.997458, 9.999671 
1.7351396e+3, 3.035416e+2, -452000.5, -261763.13, -61455.215, 0.025537338, 0.14140972, -243637.36, -243637.36, 0.0, 9.997087, 9.999604 
1.7351428e+3, 3.135403e+2, -256710.28, 96197.266, -27815.97, -0.16167364, 0.038629618, 98376.25, 98376.25, 0.0, 9.997287, 10.001966 
1.745041e+3, 1.2355321e+2, -1408492.3, -1818723.0, 136310.31, 0.020710258, -0.021734372, -1367329.6, 361852.47, 0.06955941, 10.003397, 9.997666 
1.7450453e+3, 1.335524e+2, -1304929.0, -1667399.0, -61912.383, 0.0010467189, 0.07620586, -1294645.6, 336547.66, 0.045257993, 10.003146, 9.99814 
1.7450501e+3, 1.4355095e+2, -1190465.5, -1525315.5, 18134.27, -0.0034288175, 0.10814142, -1189486.3, 343721.88, 0.022935271, 10.003034, 9.998493 
1.7450564e+3, 1.5354879e+2, -1094452.8, -1425670.5, 37901.57, -0.043245666, 0.031708516, -1090171.0, 345055.66, 0.0078018596, 10.002961, 9.998538 
1.7450625e+3, 1.6354704e+2, -1037228.9, -1341640.1, -15048.098, -0.052236147, 0.001837227, -1036486.8, 300755.75, 0.0013223152, 10.002635, 9.9986 
1.7450686e+3, 1.7354605e+2, -1044178.94, -1295251.3, -24662.389, 0.017742516, 0.037979614, -1041779.4, 197473.81, 0.000049909977, 10.001917, 9.99859 
1.7450745e+3, 1.8354501e+2, -1013884.4, -1228799.3, -1648.1434, 0.05282632, 0.0762942, -1013871.75, 127393.25, 0.0000000000000006446772, 10.00145, 9.998598 
1.7450805e+3, 1.9354396e+2, -921952.94, -1136452.3, 3291.936, 0.01630575, 0.10724314, -921902.44, 121375.375, 0.0, 10.001421, 9.998572 
1.745086e+3, 2.0354274e+2, -817990.44, -975795.2, -46262.207, 0.0017922235, 0.10752798, -805428.2, 139862.16, 0.0, 10.001204, 9.999108 
1.7450912e+3, 2.135413e+2, -795765.6, -907430.94, -51600.61, 0.030605422, 0.04053474, -775572.6, 71728.91, 0.0, 10.000654, 9.999169 
1.745096e+3, 2.2354013e+2, -788616.25, -901826.94, -40367.004, 0.03853482, 0.029105248, -775697.1, -26385.338, 0.0, 10.000241, 9.998733 
1.7451006e+3, 2.3353955e+2, -721649.6, -830300.56, -27791.627, 0.006022245, 0.10021644, -714953.5, -63634.117, 0.0, 10.000078, 9.99863 
1.7451054e+3, 2.4353863e+2, -629340.0, -681696.56, -3882.7322, -0.020617856, 0.12871812, -629053.6, -75723.945, 0.0, 9.999809, 9.999105 
1.7451106e+3, 2.5353727e+2, -596728.44, -608165.56, -592.3923, -0.027808337, 0.06821062, -596697.8, -141354.45, 0.0, 9.999331, 9.9991665 
1.7451157e+3, 2.6353636e+2, -536576.06, -490160.56, -16383.889, -0.028996909, 0.049938384, -484960.0, -127608.16, 0.0, 9.998907, 9.999508 
1.7451203e+3, 2.7353638e+2, -482058.84, -410017.94, -33067.65, -0.044402886, 0.09088426, -397141.13, -137790.42, 0.0, 9.998595, 9.999536 
1.745125e+3, 2.8353596e+2, -423198.66, -313629.0, -2118.3818, -0.08395486, 0.088554144, -313588.03, -152233.63, 0.0, 9.99825, 9.999693 
1.7451304e+3, 2.9353487e+2, -393821.72, -258205.5, 4293.2505, -0.101015575, 0.0089142695, -258069.72, -194704.72, 0.0, 9.99782, 9.999607 
1.7451371e+3, 3.035355e+2, -390150.3, -242208.27, -1328.2585, 0.038918667, 0.123668015, -242196.34, -242196.34, 0.0, 9.997555, 9.999515 
1.74514e+3, 3.135346e+2, -249777.84, 76229.28, -9254.858, -0.17834106, 0.061113562, 76491.8, 76491.8, 0.0, 9.997438, 10.001756 
1.755044e+3, 1.235485e+2, -1411890.8, -1819470.8, 119688.64, -0.026824411, 0.080107264, -1379342.6, 349885.66, 0.073645785, 10.003378, 9.997669 
1.7550485e+3, 1.3354605e+2, -1302089.6, -1660352.3, -68351.58, 0.012300254, 0.010488218, -1289492.1, 341760.97, 0.048187766, 10.003149, 9.998189 
1.7550525e+3, 1.4354406e+2, -1196608.3, -1537204.5, 15187.324, -0.05956854, -0.011213809, -1195932.4, 337340.03, 0.024652414, 10.003035, 9.99841 
1.7550595e+3, 1.5354295e+2, -1103512.0, -1442953.6, 35372.246, -0.026286347, 0.02771377, -1099865.1, 335417.44, 0.008527423, 10.002955, 9.998423 
1.7550656e+3, 1.6354154e+2, -1047487.56, -1360479.0, -39859.797, -0.009072552, 0.04388256, -1042491.1, 294805.0, 0.0014925194, 10.002624, 9.998476 
1.7550702e+3, 1.7353961e+2, -1053641.4, -1314700.5, -51215.77, 0.0034974054, -0.0004749299, -1043953.2, 195362.22, 0.00006156021, 10.001916, 9.998458 
1.7550758e+3, 1.8353814e+2, -1017665.4, -1236567.9, -6541.274, 0.011707932, 0.0032947443, -1017470.06, 123861.24, 0.0000000010737394, 10.001448, 9.998547 
1.7550817e+3, 1.9353747e+2, -925903.2, -1143831.3, 3971.381, 0.0053855525, 0.07811707, -925830.8, 117509.61, 0.0, 10.001415, 9.998526 
1.7550872e+3, 2.035368e+2, -815600.2, -968199.44, -63993.15, -0.0013241755, 0.13204011, -792316.94, 153031.77, 0.0, 10.001191, 9.9991665 
1.7550914e+3, 2.1353613e+2, -791607.9, -897275.44, -70759.234, -0.005562134, 0.13694112, -756133.8, 91220.62, 0.0, 10.000647, 9.999244 
1.755096e+3, 2.2353512e+2, -767455.4, -856655.56, -48245.176, 0.013497396, 0.123093285, -746353.4, 3010.205, 0.0, 10.000235, 9.999047 
1.7551014e+3, 2.3353356e+2, -697900.7, -780417.44, -31764.367, 0.06973527, 0.059991807, -687089.6, -35711.68, 0.0, 10.000073, 9.998975 
1.7551062e+3, 2.4353237e+2, -621276.0, -662426.5, -19995.664, 0.07019115, 0.036537394, -613160.4, -59771.063, 0.0, 9.999799, 9.999244 
1.7551102e+3, 2.5353208e+2, -590834.25, -594676.2, -17106.545, -0.015700135, 0.07453204, -575541.1, -120147.664, 0.0, 9.999326, 9.999262 
1.7551143e+3, 2.6353195e+2, -551173.56, -520679.84, -28839.262, -0.05818792, 0.13411823, -503305.1, -145909.0, 0.0, 9.998906, 9.9993 
1.755119e+3, 2.7353194e+2, -499384.4, -447406.1, -42395.99, -0.05004976, 0.19938314, -423667.44, -164270.77, 0.0, 9.998599, 9.999278 
1.755123e+3, 2.8353086e+2, -408443.53, -282716.5, -17352.07, -0.10816259, 0.13783613, -280365.63, -118959.28, 0.0, 9.998249, 9.999906 
1.755127e+3, 2.9352844e+2, -374447.4, -219862.53, -10609.591, -0.2124193, -0.106418505, -219137.77, -155711.33, 0.0, 9.997828, 9.999867 
1.7551339e+3, 3.035295e+2, -393486.78, -250596.47, -4876.214, -0.03961767, 0.039564233, -250430.27, -250430.27, 0.0, 9.99756, 9.9994545 
1.755139e+3, 3.1353015e+2, -326107.22, -79372.6, -55952.445, -0.03804477, 0.14987285, -67277.11, -67277.11, 0.0, 9.997427, 10.000691 
1.7650469e+3, 1.2354264e+2, -1378510.0, -1776960.3, 73316.2, -0.073791, 0.11483718, -1365447.8, 363839.9, 0.07787326, 10.003535, 9.997877 
1.7650522e+3, 1.3354012e+2, -1212483.3, -1582359.6, -83923.08, 0.042234074, 0.011105329, -1194332.3, 436978.78, 0.051225442, 10.003661, 9.998489 
1.7650554e+3, 1.4353815e+2, -1140952.0, -1510362.9, -4163.52, -0.09051515, -0.028201045, -1140905.1, 392424.4, 0.02644467, 10.003433, 9.998406 
1.7650622e+3, 1.535373e+2, -1175500.9, -1483732.3, 15366.248, -0.01599737, 0.044218924, -1174736.8, 260601.58, 0.009296644, 10.002486, 9.998368 
1.7650682e+3, 1.6353609e+2, -1149431.9, -1404696.0, -43608.383, 0.016289962, 0.080574736, -1142187.6, 195163.16, 0.0016790463, 10.001906, 9.998516 
1.7650722e+3, 1.7353417e+2, -1039289.8, -1302475.4, -42939.89, -0.0023859844, 0.030962091, -1032461.1, 206908.58, 0.000074904594, 10.001994, 9.998504 
1.765077e+3, 1.835325e+2, -962038.5, -1191713.5, 12856.86, -0.006929643, 0.008839081, -961321.06, 180065.23, 0.000000009428086, 10.001753, 9.998707 
1.7650831e+3, 1.9353144e+2, -982100.5, -1151738.9, 37004.977, 0.005300464, 0.025192844, -974379.6, 69017.695, 0.0, 10.000947, 9.998697 
1.7650881e+3, 2.0353068e+2, -932343.2, -1036561.1, -20142.951, 0.003335881, 0.0670525, -928585.5, 16820.367, 0.0, 10.000443, 9.999058 
1.7650919e+3, 2.1353057e+2, -826910.25, -932117.6, -45246.69, -0.021481806, 0.14003305, -810128.0, 37280.977, 0.0, 10.0004835, 9.999082 
1.765096e+3, 2.2352983e+2, -739657.56, -816254.06, -37547.477, -0.007843321, 0.1531308, -724322.1, 25094.262, 0.0, 10.00031, 9.999288 
1.7651013e+3, 2.3352812e+2, -724622.9, -758621.8, -26613.486, 0.06872276, 0.046107017, -710042.9, -58612.21, 0.0, 9.999743, 9.999283 
1.7651057e+3, 2.4352698e+2, -693484.2, -686888.8, -17348.195, 0.07758305, 0.0038720418, -672527.6, -119086.77, 0.0, 9.999259, 9.999335 
1.7651092e+3, 2.5352702e+2, -643007.56, -614796.5, -19666.346, -0.0229205, 0.06860073, -604700.2, -149258.17, 0.0, 9.998945, 9.999308 
1.7651129e+3, 2.6352695e+2, -584531.0, -536809.5, -21576.684, -0.07267212, 0.13627656, -528500.56, -171056.75, 0.0, 9.998679, 9.999299 
1.7651173e+3, 2.7352667e+2, -520603.16, -458261.53, -18455.406, -0.05313871, 0.1736911, -453207.75, -193759.98, 0.0, 9.998459, 9.99927 
1.7651212e+3, 2.8352565e+2, -420414.72, -278085.5, 8089.7734, -0.10028149, 0.11385096, -277627.2, -116170.06, 0.0, 9.998123, 9.999997 
1.765125e+3, 2.9352394e+2, -392846.75, -216808.97, 815.26294, -0.20888294, -0.072192505, -216805.19, -153335.16, 0.0, 9.997652, 9.999971 
1.7651309e+3, 3.0352503e+2, -391206.78, -211638.98, 28835.695, -0.072301656, 0.05340764, -207122.06, -207122.06, 0.0, 9.99741, 9.999794 
1.7651366e+3, 3.1352502e+2, -372587.03, -143587.31, -31529.906, -0.0028451118, 0.069887295, -139325.44, -139325.44, 0.0, 9.997291, 10.000314 
1.77505e+3, 1.2353588e+2, -1359072.4, -1724927.0, 51589.16, -0.11881752, 0.10174644, -1351937.0, 377420.8, 0.08227463, 10.003515, 9.998241 
1.7750563e+3, 1.3353463e+2, -1182081.3, -1515581.4, -76605.93, 0.08364192, 0.07511352, -1165326.4, 466040.63, 0.054383095, 10.003655, 9.998979 
1.7750587e+3, 1.4353316e+2, -1136296.8, -1497813.5, -34367.98, -0.10326062, 0.05410087, -1133058.5, 400321.38, 0.028310949, 10.003426, 9.9985 
1.7750648e+3, 1.535319e+2, -1174497.4, -1481707.5, -19748.379, -0.01681265, 0.081502475, -1173233.1, 262160.63, 0.010105246, 10.002487, 9.998382 
1.7750701e+3, 1.635307e+2, -1136375.6, -1378218.9, -46245.508, 0.018375345, 0.11262339, -1127834.1, 209572.14, 0.0018804772, 10.001908, 9.998697 
1.7750742e+3, 1.7352965e+2, -1025152.1, -1272454.5, -38373.723, -0.003775584, 0.12940688, -1019334.56, 220081.94, 0.00008970714, 10.00199, 9.998712 
1.7750789e+3, 1.835281e+2, -938334.7, -1140875.9, -13220.042, -0.0074935574, 0.09130297, -937475.44, 203954.78, 0.000000028818846, 10.001744, 9.999062 
1.775084e+3, 1.9352584e+2, -956177.4, -1097237.9, 7299.754, 0.011426285, -0.04936234, -955800.6, 87648.06, 0.0, 10.000942, 9.999074 
1.7750886e+3, 2.0352441e+2, -952262.3, -1077914.5, -23322.568, 0.010223162, -0.08368135, -948073.0, -2611.032, 0.0, 10.000442, 9.998775 
1.7750923e+3, 2.1352452e+2, -855687.75, -991646.44, -41707.16, -0.021534327, 0.051306248, -843913.25, 3552.2578, 0.0, 10.00048, 9.998675 
1.7750962e+3, 2.235242e+2, -728733.8, -791824.7, -55312.574, -0.029664401, 0.12104229, -696603.56, 52867.19, 0.0, 10.000301, 9.999459 
1.7751004e+3, 2.3352319e+2, -706691.0, -719969.4, -46599.797, 0.0022496015, 0.0575652, -666259.8, -14781.579, 0.0, 9.999736, 9.999553 
1.7751043e+3, 2.4352235e+2, -690490.06, -680626.1, -30230.648, 0.0010998124, 0.027162682, -654927.75, -101442.56, 0.0, 9.999257, 9.999379 
1.7751078e+3, 2.5352195e+2, -643120.8, -616007.4, -29157.049, -0.054090723, 0.050124932, -597409.5, -141920.03, 0.0, 9.998947, 9.9993 
1.7751116e+3, 2.6352143e+2, -571475.7, -509585.28, -29725.22, -0.07956315, 0.06036226, -497621.34, -140125.95, 0.0, 9.998677, 9.999486 
1.7751157e+3, 2.7352056e+2, -504798.06, -426605.5, -25413.516, -0.05997502, 0.021016857, -419071.7, -159567.5, 0.0, 9.998463, 9.999486 
1.7751198e+3, 2.8352022e+2, -420700.66, -279629.3, -9445.05, -0.06654476, 0.020067947, -278999.75, -117492.375, 0.0, 9.998126, 9.999986 
1.7751236e+3, 2.9352114e+2, -395241.22, -222349.94, -14650.057, -0.099422984, 0.10292479, -221117.34, -157620.08, 0.0, 9.997652, 9.999935 
1.7751284e+3, 3.035218e+2, -339199.22, -102380.82, 26768.842, -0.07098329, 0.15035997, -99392.7, -99392.7, 0.0, 9.997404, 10.000547 
1.7751336e+3, 3.135211e+2, -353040.53, -104848.875, -66185.695, -0.032716755, 0.012950586, -88302.17, -88302.17, 0.0, 9.997301, 10.000573 
1.7850535e+3, 1.2353e+2, -1380050.8, -1732920.6, 93319.91, -0.1111567, 0.0753234, -1356891.4, 372524.28, 0.08690676, 10.003361, 9.99827 
1.7850602e+3, 1.3352929e+2, -1216941.9, -1514342.5, -24223.467, 0.118276805, 0.090722606, -1214981.8, 416437.94, 0.0576862, 10.003334, 9.999145 
1.7850618e+3, 1.4352803e+2, -1175033.0, -1516360.4, -21992.553, -0.12965785, 0.08003608, -1173621.9, 359809.0, 0.030257246, 10.003163, 9.998492 
1.7850673e+3, 1.5352646e+2, -1149765.5, -1474809.5, -20009.021, -0.029250916, 0.081229284, -1148538.4, 286909.3, 0.010952116, 10.0026865, 9.998331 
1.7850721e+3, 1.6352515e+2, -1088965.6, -1346357.9, -35607.293, 0.014861631, 0.10029908, -1084130.6, 253330.77, 0.0020959692, 10.002197, 9.998776 
1.7850761e+3, 1.7352434e+2, -1058785.4, -1277704.8, -34173.08, -0.0015016951, 0.13079168, -1053575.0, 185894.1, 0.000105867584, 10.001714, 9.998808 
1.7850803e+3, 1.8352304e+2, -988265.94, -1148017.4, -28723.176, -0.0064309067, 0.10648058, -983258.5, 158221.39, 0.0000000562377, 10.001332, 9.999208 
1.7850849e+3, 1.9352107e+2, -916330.2, -1060728.9, -28499.9, -0.0057231174, -0.021033036, -910908.75, 132586.42, 0.0, 10.001145, 9.999225 
1.7850891e+3, 2.0351966e+2, -888496.4, -1038041.6, -47864.15, -0.009621201, -0.06720025, -874488.8, 71018.95, 0.0, 10.000841, 9.998856 
1.7850928e+3, 2.135193e+2, -873247.5, -992840.5, -32520.96, -0.017500237, 0.015421756, -864976.1, -17461.363, 0.0, 10.000329, 9.998739 
1.7850964e+3, 2.2351886e+2, -789432.44, -825132.06, -37400.563, -0.023156669, 0.07039504, -765840.56, -16319.476, 0.0, 9.999903, 9.999423 
1.7850998e+3, 2.3351827e+2, -724424.06, -734592.7, -54920.695, -0.024670988, 0.056531355, -674352.9, -22827.393, 0.0, 9.99964, 9.999498 
1.7851031e+3, 2.4351767e+2, -665580.3, -644636.9, -43928.977, -0.031716723, 0.04424888, -609948.75, -56418.363, 0.0, 9.999324, 9.999595 
1.7851067e+3, 2.5351718e+2, -632097.4, -581365.6, -25538.682, -0.049080536, 0.028494885, -570736.3, -115201.72, 0.0, 9.998897, 9.999561 
1.7851104e+3, 2.6351655e+2, -588728.2, -506692.38, -11937.516, -0.06470511, 0.0109194685, -504990.56, -147450.11, 0.0, 9.99851, 9.999587 
1.785114e+3, 2.7351573e+2, -536183.75, -435267.0, -18222.627, -0.07168689, -0.032051265, -432077.34, -172528.52, 0.0, 9.998218, 9.999546 
1.7851178e+3, 2.8351563e+2, -459096.84, -307554.1, -16497.518, -0.05642478, -0.01078549, -305778.9, -144228.55, 0.0, 9.997902, 9.999903 
1.785122e+3, 2.93517e+2, -429120.75, -246865.31, -30903.58, -0.015157835, 0.12960328, -241767.83, -178230.83, 0.0, 9.997455, 9.999862 
1.7851254e+3, 3.0351704e+2, -368423.53, -97845.05, 7583.627, -0.09709543, 0.11043162, -97632.66, -97632.66, 0.0, 9.997122, 10.000715 
1.7851306e+3, 3.1351697e+2, -369155.63, -98289.29, -137423.8, -0.050650693, 0.020115685, -40778.313, -40778.313, 0.0, 9.997131, 10.000699 
1.7950575e+3, 1.2352502e+2, -1401607.9, -1771860.8, 54058.484, -0.05698651, 0.04006425, -1393876.6, 335584.13, 0.0918353, 10.003341, 9.998003 
1.7950638e+3, 1.3352421e+2, -1228113.0, -1534736.8, -21591.277, 0.14365096, 0.05978115, -1226600.1, 404868.22, 0.061169565, 10.003333, 9.999001 
1.7950645e+3, 1.4352283e+2, -1185650.5, -1536946.6, -38140.23, -0.1749302, 0.05213247, -1181557.3, 351924.56, 0.03229786, 10.00316, 9.998351 
1.7950696e+3, 1.5352105e+2, -1160484.3, -1495830.0, -37042.867, -0.058924396, 0.045503117, -1156441.3, 279059.0, 0.011841936, 10.002682, 9.99819 
1.795074e+3, 1.6351946e+2, -1091385.1, -1350352.6, -54305.613, 0.000011839825, 0.046450056, -1080458.4, 257057.73, 0.0023264778, 10.0021925, 9.998753 
1.7950779e+3, 1.7351826e+2, -1059222.3, -1279213.3, -51260.87, 0.00076796365, 0.039088488, -1047864.25, 191662.95, 0.00012352158, 10.001716, 9.998796 
1.7950816e+3, 1.8351735e+2, -992495.7, -1157748.9, -37461.195, -0.009081491, 0.056553032, -984400.2, 157135.13, 0.000000085167756, 10.001334, 9.999142 
1.7950855e+3, 1.9351706e+2, -922120.3, -1072456.6, -34141.613, -0.04917327, 0.10546783, -914730.0, 128807.29, 0.0, 10.0011425, 9.999147 
1.7950894e+3, 2.0351629e+2, -859567.44, -976011.94, -65440.21, -0.059015095, 0.111477144, -830198.3, 115345.53, 0.0, 10.000832, 9.999287 
1.7950931e+3, 2.1351483e+2, -838343.56, -918996.75, -50251.68, -0.012302947, 0.030839857, -814238.3, 33318.984, 0.0, 10.00032, 9.999252 
1.7950965e+3, 2.2351372e+2, -807032.06, -860891.06, -48533.52, 0.006844961, 0.00081016426, -778457.5, -28889.531, 0.0, 9.999898, 9.999181 
1.7950995e+3, 2.3351336e+2, -751755.56, -791072.6, -62916.504, -0.019593105, 0.043030582, -705497.94, -53924.992, 0.0, 9.999637, 9.999113 
1.7951025e+3, 2.4351294e+2, -638973.9, -588502.75, -58661.6, -0.028828958, 0.05672514, -549879.0, 3697.8447, 0.0, 9.999319, 9.999984 
1.7951061e+3, 2.535126e+2, -596083.1, -505681.75, -40523.426, -0.012686177, 0.006065339, -490176.2, -34598.34, 0.0, 9.998892, 10.000085 
1.795109e+3, 2.6351222e+2, -586305.0, -502446.78, -23694.99, -0.031630002, -0.014845112, -496214.66, -138634.75, 0.0, 9.998511, 9.999617 
1.7951119e+3, 2.73512e+2, -540409.1, -446724.84, -26494.26, -0.09543442, 0.0025605937, -439751.25, -180167.98, 0.0, 9.998226, 9.999464 
1.7951156e+3, 2.8351167e+2, -470364.8, -331681.5, -32185.117, -0.076029666, 0.016510464, -324576.13, -162989.2, 0.0, 9.997905, 9.999736 
1.79512e+3, 2.9351157e+2, -437447.94, -265902.84, -47252.707, 0.038503494, 0.024755895, -253748.14, -190160.03, 0.0, 9.99746, 9.999728 
1.7951219e+3, 3.035107e+2, -395413.7, -155098.84, 4640.828, -0.1601317, -0.06311592, -155009.25, -155009.25, 0.0, 9.997127, 10.00032 
1.7951277e+3, 3.1351215e+2, -338879.4, -38759.684, -97407.914, -0.06993092, 0.046510898, -9916.598, -9916.598, 0.0, 9.997144, 10.001103 
1.8050611e+3, 1.2352049e+2, -1345377.0, -1774088.9, 37952.727, -0.050888993, 0.008111262, -1342043.0, 387460.13, 0.097124286, 10.003929, 9.997701 
1.8050672e+3, 1.3351978e+2, -1214722.6, -1549142.3, -2351.2656, 0.15220617, 0.060523886, -1214706.1, 416805.3, 0.06487435, 10.00354, 9.998797 
1.8050675e+3, 1.4351855e+2, -1183649.9, -1534008.8, -23403.297, -0.18783453, 0.07874613, -1182093.5, 351430.53, 0.034453526, 10.003175, 9.998363 
1.8050724e+3, 1.535165e+2, -1129353.8, -1474805.8, -10459.978, -0.06188155, 0.04008107, -1129037.4, 306506.6, 0.012783201, 10.002876, 9.9982395 
1.8050766e+3, 1.6351467e+2, -1040190.3, -1331361.0, -18095.523, 0.0011255316, 0.016864933, -1039070.06, 298491.22, 0.0025744103, 10.002575, 9.998696 
1.8050799e+3, 1.7351334e+2, -979689.2, -1249541.0, -22364.225, -0.0025164124, 0.0032198667, -977848.3, 261725.31, 0.00014305822, 10.002302, 9.998716 
1.8050833e+3, 1.8351234e+2, -944325.6, -1162727.3, -22694.174, -0.009285815, 0.027142158, -941992.4, 199590.64, 0.00000010953618, 10.001787, 9.998889 
1.8050867e+3, 1.9351205e+2, -983734.94, -1133990.8, -36789.402, -0.03656854, 0.105394185, -975210.8, 68375.43, 0.0, 10.000858, 9.998861 
1.8050902e+3, 2.0351133e+2, -937070.94, -989753.7, -75383.23, -0.04699171, 0.12151087, -883559.3, 62033.58, 0.0, 10.000199, 9.999496 
1.8050931e+3, 2.135099e+2, -860339.2, -896080.44, -77965.625, -0.02577416, 0.016480295, -798222.3, 49382.203, 0.0, 10.000029, 9.999548 
1.8050961e+3, 2.2350886e+2, -812430.0, -854079.9, -71936.984, -0.0156123685, -0.027408367, -758364.3, -8750.609, 0.0, 9.999821, 9.999265 
1.805099e+3, 2.335086e+2, -764627.6, -791877.44, -56081.266, -0.02049201, 0.02222236, -720539.94, -68922.375, 0.0, 9.999526, 9.99916 
1.805102e+3, 2.4350826e+2, -685101.9, -630781.3, -58949.906, -0.008782661, 0.046536956, -593035.75, -39414.27, 0.0, 9.999089, 9.9998045 
1.8051049e+3, 2.5350785e+2, -681191.5, -571597.3, -97561.97, 0.022420425, 0.011189407, -514496.88, -58872.316, 0.0, 9.998415, 9.999862 
1.8051076e+3, 2.635076e+2, -638168.9, -499157.44, -89326.664, -0.0045187874, 0.0026354247, -455480.56, -97854.5, 0.0, 9.998032, 9.999871 
1.8051101e+3, 2.7350768e+2, -530053.56, -404717.7, -62647.152, -0.10398345, 0.023455815, -378774.47, -119149.89, 0.0, 9.998137, 9.999796 
1.8051136e+3, 2.835074e+2, -440561.5, -320656.06, -53529.89, -0.08153673, 0.021448873, -300236.03, -138608.69, 0.0, 9.998123, 9.999706 
1.805118e+3, 2.935068e+2, -390588.03, -248719.33, -66356.086, 0.07855262, -0.010643998, -222520.72, -158887.17, 0.0, 9.997806, 9.9996805 
1.8051189e+3, 3.0350596e+2, -383157.03, -139550.88, 3265.2388, -0.17974272, -0.098206416, -139507.11, -139507.11, 0.0, 9.99717, 10.000405 
1.8051247e+3, 3.1350788e+2, -415587.94, -15311.526, -12915.168, -0.033004012, 0.047105473, -14895.243, -14895.243, 0.0, 9.996357, 10.001644 
1.8150645e+3, 1.2351646e+2, -1371226.3, -1825346.5, -18319.348, -0.10264443, -0.014890493, -1370488.5, 359053.78, 0.102828465, 10.003918, 9.997353 
1.8150707e+3, 1.3351606e+2, -1234802.6, -1586873.4, -13180.9375, 0.13772397, 0.09277394, -1234309.9, 397239.13, 0.06884197, 10.003535, 9.998525 
1.8150708e+3, 1.435152e+2, -1174448.0, -1511588.9, -36988.35, -0.1782286, 0.1581073, -1170437.6, 363120.28, 0.036747266, 10.003168, 9.998526 
1.8150754e+3, 1.5351282e+2, -1113678.0, -1440526.3, -20783.176, -0.042789064, 0.06416765, -1112361.8, 323217.34, 0.013785113, 10.002873, 9.998477 
1.8150792e+3, 1.6351078e+2, -1047176.56, -1346287.3, -29207.668, 0.012064406, 0.011577989, -1044351.1, 293246.1, 0.002842686, 10.002575, 9.998595 
1.815082e+3, 1.7350952e+2, -990625.3, -1272528.5, -31728.355, -0.01565004, 0.021258922, -987098.44, 252510.42, 0.00016504708, 10.002301, 9.99856 
1.815085e+3, 1.83508e+2, -975841.75, -1227030.3, -54458.68, -0.012711513, 0.01907471, -964543.1, 177080.22, 0.00000012908751, 10.001782, 9.99845 
1.8150882e+3, 1.935061e+2, -1017627.6, -1205461.9, -70293.26, 0.027260104, -0.016727965, -994235.06, 49406.98, 0.0, 10.000861, 9.998369 
1.8150909e+3, 2.0350476e+2, -937894.6, -992611.7, -85238.31, 0.020600548, -0.032316394, -875731.9, 69923.07, 0.0, 10.000203, 9.9994755 
1.8150929e+3, 2.135045e+2, -856115.56, -887796.56, -82165.48, -0.06217662, -0.027368216, -788277.56, 59379.316, 0.0, 10.000029, 9.999606 
1.8150952e+3, 2.2350423e+2, -784510.94, -794410.06, -82101.18, -0.09359841, -0.014360863, -707210.25, 42448.48, 0.0, 9.999812, 9.999679 
1.8150984e+3, 2.3350403e+2, -731837.3, -723584.7, -65411.32, -0.02972265, -0.00500661, -662169.7, -10509.839, 0.0, 9.999524, 9.999632 
1.8151015e+3, 2.4350357e+2, -736189.75, -737856.56, -82106.75, 0.024826938, 0.012247819, -654912.2, -101247.09, 0.0, 9.999091, 9.999068 
1.8151037e+3, 2.5350285e+2, -747402.06, -711019.75, -120624.234, 0.04887128, 0.040397365, -607222.7, -151547.27, 0.0, 9.998422, 9.998902 
1.815106e+3, 2.6350257e+2, -604970.7, -430832.28, -88605.74, 0.010030798, 0.062336177, -393675.78, -35996.566, 0.0, 9.9980345, 10.0003395 
1.8151082e+3, 2.735029e+2, -480290.6, -300452.6, -56590.313, -0.10308234, 0.03708636, -284127.13, -24454.598, 0.0, 9.998133, 10.000514 
1.8151116e+3, 2.835028e+2, -431240.5, -302657.8, -61443.043, -0.07827368, 0.006810748, -278018.72, -116346.84, 0.0, 9.998125, 9.999831 
1.8151161e+3, 2.9350257e+2, -383075.44, -239928.56, -76336.48, 0.098277576, 0.007046057, -206859.69, -143184.38, 0.0, 9.99783, 9.999731 
1.8151164e+3, 3.0350268e+2, -350461.78, -70624.68, -32266.924, -0.16159981, -0.0035716356, -66952.3, -66952.3, 0.0, 9.99717, 10.000876 
1.8151206e+3, 3.1350192e+2, -374801.78, 70977.14, 33438.086, -0.091101155, -0.17978492, 73471.39, 73471.39, 0.0, 9.9963455, 10.002244 
1.8250686e+3, 1.2351348e+2, -1333703.6, -1810747.1, -38207.105, -0.11240119, 0.031380072, -1330663.0, 398909.47, 0.108977646, 10.004255, 9.997292 
1.8250744e+3, 1.3351215e+2, -1157418.3, -1559708.8, 14526.38, 0.11935124, 0.058950447, -1156894.4, 474692.3, 0.07309833, 10.004171, 9.998423 
1.8250746e+3, 1.4351116e+2, -1093925.5, -1490344.8, -18292.475, -0.15721476, 0.12217016, -1093083.3, 440513.3, 0.03919577, 10.003834, 9.998356 
1.8250787e+3, 1.5350877e+2, -1071167.5, -1439457.1, -33637.504, -0.026630709, 0.04636607, -1068120.4, 367497.63, 0.014854678, 10.003261, 9.998296 
1.8250819e+3, 1.6350682e+2, -1033228.56, -1358427.1, -57886.83, 0.019699989, 0.017355269, -1023231.75, 314404.5, 0.0031336718, 10.002755, 9.998424 
1.8250842e+3, 1.7350574e+2, -995793.8, -1294383.6, -63138.49, -0.020461071, 0.06314659, -982991.75, 256655.47, 0.00019006866, 10.002353, 9.998384 
1.8250866e+3, 1.8350409e+2, -947966.5, -1195945.0, -79672.55, -0.02174721, 0.053634387, -924575.1, 217087.5, 0.00000015151502, 10.001901, 9.998606 
1.8250893e+3, 1.9350159e+2, -929524.94, -1139392.9, -49226.715, 0.024155837, -0.063748665, -918552.0, 125132.76, 0.0, 10.001368, 9.998577 
1.8250914e+3, 2.035e+2, -868756.4, -989596.6, -30301.467, 0.023129562, -0.10392073, -861583.9, 84115.46, 0.0, 10.000809, 9.999204 
1.825093e+3, 2.1350016e+2, -856506.56, -927190.5, -56486.5, -0.054546304, -0.021034319, -825216.9, 22482.51, 0.0, 10.000196, 9.999253 
1.8250951e+3, 2.2350009e+2, -794544.06, -798849.3, -80149.76, -0.08461579, 0.030370913, -716518.06, 33182.58, 0.0, 9.9997425, 9.999682 
1.825098e+3, 2.334996e+2, -722880.5, -711381.8, -94700.1, -0.027541121, 0.0049934294, -622256.7, 29447.03, 0.0, 9.999554, 9.999701 
1.8251005e+3, 2.4349895e+2, -703035.8, -717087.2, -112651.23, 0.019413969, -0.0025561093, -597191.44, -43481.37, 0.0, 9.999299, 9.999111 
1.8251023e+3, 2.5349823e+2, -674823.3, -671704.0, -82232.19, 0.03711296, 0.019436676, -591016.7, -135296.8, 0.0, 9.998901, 9.998941 
1.825104e+3, 2.6349783e+2, -554900.3, -418930.38, -15908.045, 0.00944332, 0.036099594, -417093.97, -59369.805, 0.0, 9.998432, 10.000229 
1.8251066e+3, 2.7349806e+2, -535827.8, -342750.4, -45518.906, -0.066971734, 0.008843887, -332557.22, -72837.53, 0.0, 9.997821, 10.000373 
1.8251099e+3, 2.83498e+2, -523611.25, -329825.06, -81270.0, -0.040773787, -0.012009417, -300254.38, -138535.5, 0.0, 9.9974165, 9.999986 
1.8251136e+3, 2.934982e+2, -438768.16, -241379.94, -87359.31, 0.09151781, 0.013155658, -208270.5, -144552.31, 0.0, 9.99734, 9.999957 
1.8251137e+3, 3.0349895e+2, -365784.56, -67794.35, -64539.445, -0.11822604, 0.04638914, -54416.793, -54416.793, 0.0, 9.9970255, 10.000964 
1.8251175e+3, 3.1349766e+2, -350548.34, 77530.94, 17515.047, -0.047805585, -0.18674916, 78246.375, 78246.375, 0.0, 9.996529, 10.002204 
1.835073e+3, 1.2351149e+2, -1326557.4, -1782608.8, -75301.695, -0.10334576, 0.14257333, -1314445.5, 415148.6, 0.115568995, 10.004235, 9.9975 
1.8350783e+3, 1.3350818e+2, -1157136.5, -1552863.0, 12227.166, 0.09215758, -0.03657606, -1156759.0, 474865.25, 0.07764608, 10.004163, 9.99848 
1.8350786e+3, 1.435065e+2, -1129927.9, -1563725.5, -39746.383, -0.1346864, -0.021246044, -1126316.3, 407323.06, 0.041805238, 10.003829, 9.997845 
1.835082e+3, 1.535044e+2, -1112476.9, -1526464.4, -53402.617, -0.019687748, -0.011489887, -1105699.1, 329961.38, 0.015996287, 10.003262, 9.997701 
1.8350847e+3, 1.6350274e+2, -1051098.5, -1395095.1, -73657.35, 0.01752701, 0.033765417, -1035990.3, 301687.97, 0.0034491855, 10.002752, 9.998174 
1.8350866e+3, 1.7350192e+2, -1009655.56, -1323660.1, -76708.7, -0.02056908, 0.1271857, -991918.2, 247770.66, 0.00021871291, 10.002354, 9.998183 
1.8350884e+3, 1.8350057e+2, -898163.44, -1092504.0, -98525.67, -0.041414417, 0.12936626, -856952.44, 284748.72, 0.00000018976193, 10.001898, 9.999318 
1.8350899e+3, 1.9349843e+2, -867923.3, -1012533.25, -67936.35, -0.048113845, -0.038559124, -841014.6, 202700.75, 0.0, 10.001369, 9.999449 
1.8350917e+3, 2.0349696e+2, -904653.25, -1063864.5, -52974.504, -0.04209982, -0.09514713, -888638.0, 57088.934, 0.0, 10.000807, 9.998695 
1.8350938e+3, 2.1349683e+2, -908736.9, -1036848.8, -77415.53, -0.008289989, 0.032690436, -872312.3, -24579.58, 0.0, 10.0002, 9.998501 
1.8350957e+3, 2.2349635e+2, -822873.25, -857653.56, -88686.75, 0.004043691, 0.102615595, -749887.75, -147.5737, 0.0, 9.999742, 9.999279 
1.8350977e+3, 2.3349527e+2, -747456.5, -762240.3, -99210.03, -0.02009162, 0.050744098, -655363.4, -3613.587, 0.0, 9.99955, 9.999353 
1.8350993e+3, 2.4349436e+2, -648159.2, -601145.0, -125666.53, -0.029140301, 0.0029852649, -496805.84, 56951.01, 0.0, 9.9992895, 9.999912 
1.8351007e+3, 2.5349385e+2, -603981.0, -525281.56, -95325.58, -0.015718581, -0.048641033, -461503.34, -5744.772, 0.0, 9.998903, 9.999947 
1.8351024e+3, 2.6349336e+2, -601321.25, -517855.66, -37517.094, -0.009013068, -0.07371049, -503471.1, -145709.08, 0.0, 9.998441, 9.999547 
1.835105e+3, 2.7349296e+2, -602919.75, -485218.8, -66534.49, -0.002218027, -0.0639539, -455242.38, -195475.11, 0.0, 9.997831, 9.999392 
1.835108e+3, 2.834929e+2, -511255.3, -305632.38, -86855.38, 0.022905894, -0.03790835, -273855.38, -112085.95, 0.0, 9.997423, 10.000149 
1.8351105e+3, 2.9349372e+2, -411397.56, -186771.81, -90462.28, 0.046523027, 0.012338446, -154870.94, -91108.16, 0.0, 9.99735, 10.000327 
1.8351115e+3, 3.0349475e+2, -383565.25, -106284.66, -85505.47, -0.048969176, 0.06361609, -82037.516, -82037.516, 0.0, 9.997031, 10.000698 
1.835114e+3, 3.134959e+2, -420402.75, -76411.55, 21426.229, -0.036989916, 0.1154161, -75082.1, -75082.1, 0.0, 9.996558, 10.001138 
1.8450774e+3, 1.235089e+2, -1341558.0, -1775581.1, -67341.375, -0.07180794, 0.15067686, -1331349.6, 398270.7, 0.12257454, 10.004086, 9.99762 
1.8450822e+3, 1.3350545e+2, -1162502.9, -1566898.9, 29491.385, 0.073735885, -0.032890808, -1160363.5, 471287.97, 0.0824727, 10.004199, 9.99836 
1.845083e+3, 1.435038e+2, -1098600.8, -1561913.6, -29101.61, -0.09590475, -0.0013552333, -1096780.0, 436885.84, 0.044575796, 10.004127, 9.997712 
1.8450856e+3, 1.5350147e+2, -1031016.94, -1501711.6, -13108.896, -0.013240604, -0.0016518756, -1030652.1, 405037.4, 0.017213976, 10.003901, 9.997561 
1.8450877e+3, 1.6349956e+2, -960076.06, -1358278.1, -15611.325, 0.009835879, 0.029803256, -959465.0, 378244.72, 0.0037916135, 10.003413, 9.998107 
1.845089e+3, 1.7349851e+2, -994538.06, -1322644.3, -11021.519, -0.014929708, 0.10496443, -994168.25, 245554.25, 0.00025177147, 10.002485, 9.998126 
1.8450904e+3, 1.8349726e+2, -916263.44, -1101843.8, -39733.477, -0.02935192, 0.12083498, -908114.2, 233620.02, 0.00000025167606, 10.001778, 9.999311 
1.8450914e+3, 1.9349581e+2, -853942.9, -1005592.44, -73033.336, -0.043835852, 0.021483818, -824490.56, 219252.39, 0.0, 10.001466, 9.999449 
1.8450926e+3, 2.0349447e+2, -869737.94, -1063055.9, -85968.56, -0.03971248, -0.016108988, -837038.7, 108714.95, 0.0, 10.001118, 9.998551 
1.8450943e+3, 2.134935e+2, -849895.2, -1027433.56, -71573.38, 0.0025137735, 0.04436084, -824634.94, 23131.502, 0.0, 10.000689, 9.998328 
1.8450958e+3, 2.2349246e+2, -768738.2, -845370.25, -45358.86, 0.018387478, 0.07519577, -747677.94, 2100.4827, 0.0, 10.000174, 9.999155 
1.8450972e+3, 2.334914e+2, -763287.25, -783116.4, -40068.777, -0.011898513, 0.03797034, -731924.6, -80136.72, 0.0, 9.9995, 9.999233 
1.8450986e+3, 2.4349062e+2, -673193.0, -602595.94, -69796.09, -0.021692915, 0.005857148, -559680.1, -5886.3945, 0.0, 9.999074, 10.000005 
1.8451e+3, 2.5349036e+2, -570934.94, -493995.28, -103353.414, 0.003724565, -0.03452708, -422184.28, 33608.41, 0.0, 9.999067, 10.00008 
1.8451013e+3, 2.6348984e+2, -560098.6, -514206.22, -80355.305, 0.016934698, -0.06276679, -453585.06, -95789.016, 0.0, 9.998795, 9.999401 
1.845103e+3, 2.734891e+2, -587220.0, -499963.0, -57196.49, 0.010706796, -0.0730141, -471654.84, -211849.56, 0.0, 9.998036, 9.999191 
1.8451053e+3, 2.8348887e+2, -508649.28, -328316.34, -34201.938, 0.008315, -0.03869283, -322047.5, -160238.64, 0.0, 9.997544, 9.999934 
1.8451075e+3, 2.934898e+2, -408127.1, -211646.27, -81064.63, 0.008852586, 0.046071272, -182518.5, -118716.94, 0.0, 9.997488, 10.000089 
1.8451093e+3, 3.0349004e+2, -367649.5, -144767.06, -115782.484, 0.001487192, 0.049789984, -95507.53, -95507.53, 0.0, 9.997343, 10.00028 
1.8451107e+3, 3.134907e+2, -355665.06, -86695.41, -17638.871, -0.06755377, 0.09269129, -85543.59, -85543.59, 0.0, 9.997179, 10.000768 
1.8550816e+3, 1.23505756e+2, -1341331.1, -1768181.9, -80250.73, -0.05085603, 0.061578304, -1326742.0, 402908.84, 0.12994702, 10.0040865, 9.997674 
1.8550862e+3, 1.3350393e+2, -1182839.0, -1603968.3, 33949.406, 0.058784407, 0.06343736, -1180119.8, 451548.94, 0.08755958, 10.004197, 9.998085 
1.8550876e+3, 1.4350298e+2, -1088551.3, -1533035.9, -38541.543, -0.049281586, 0.17195515, -1085234.0, 448443.06, 0.04750786, 10.004108, 9.997921 
1.8550897e+3, 1.5349995e+2, -1013265.9, -1461548.5, -21060.193, -0.01322302, 0.073967405, -1012278.6, 423426.8, 0.01851442, 10.003894, 9.997841 
1.855091e+3, 1.6349727e+2, -952540.5, -1342212.3, -47031.52, -0.009930531, 0.009411595, -946944.4, 390786.34, 0.004164961, 10.003411, 9.9982195 
1.8550916e+3, 1.7349547e+2, -988015.94, -1310256.8, -44988.715, -0.0077040284, -0.000043703672, -981852.8, 257895.72, 0.00029041685, 10.002488, 9.998211 
1.8550925e+3, 1.8349412e+2, -966238.06, -1205681.4, -54941.883, 0.0077079823, 0.02987562, -954233.2, 187529.11, 0.0000003514084, 10.001777, 9.998599 
1.8550937e+3, 1.9349363e+2, -913661.75, -1130387.9, -82760.17, 0.03014344, 0.11305672, -885673.06, 158095.08, 0.0, 10.001469, 9.998592 
1.8550944e+3, 2.0349243e+2, -855794.94, -1034401.56, -101057.5, 0.024064733, 0.12985723, -810236.44, 135543.44, 0.0, 10.001118, 9.998749 
1.8550947e+3, 2.134901e+2, -823488.8, -972605.6, -85656.93, -0.02572939, 0.01608173, -784486.4, 63314.47, 0.0, 10.000687, 9.998707 
1.8550953e+3, 2.2348839e+2, -759037.44, -824217.3, -69042.02, -0.043851636, -0.047429185, -715280.1, 34535.72, 0.0, 10.000169, 9.999303 
1.8550968e+3, 2.3348796e+2, -755885.9, -768684.6, -63494.3, -0.0063439226, -0.03275726, -698469.25, -46650.188, 0.0, 9.999503, 9.999332 
1.8550983e+3, 2.4348766e+2, -715319.2, -690510.06, -73254.85, 0.03544949, 0.0033499203, -628616.94, -74795.1, 0.0, 9.999075, 9.999401 
1.8550998e+3, 2.5348765e+2, -621525.2, -599530.75, -101643.555, 0.08659909, 0.058322694, -508291.22, -52468.03, 0.0, 9.999067, 9.999356 
1.8551007e+3, 2.6348722e+2, -535121.06, -462011.66, -104957.15, 0.08162088, 0.06477327, -387425.7, -29598.313, 0.0, 9.998794, 9.999761 
1.8551007e+3, 2.734862e+2, -547965.25, -419704.94, -84061.24, -0.029631592, -0.019094244, -378104.44, -118269.62, 0.0, 9.998041, 9.999741 
1.8551017e+3, 2.834858e+2, -547877.75, -412639.22, -41147.336, -0.08745615, -0.01452777, -401103.78, -239265.27, 0.0, 9.997554, 9.9993515 
1.8551046e+3, 2.9348636e+2, -464367.7, -331350.94, -84063.22, -0.030989336, 0.10929593, -290667.94, -226831.84, 0.0, 9.997498, 9.999264 
1.855107e+3, 3.0348468e+2, -406511.2, -227117.92, -121354.484, 0.0327165, -0.0032063976, -165909.3, -165909.3, 0.0, 9.997352, 9.999711 
1.855108e+3, 3.1348407e+2, -323320.34, -22935.348, -71963.36, -0.05276076, -0.041050874, -6585.0244, -6585.0244, 0.0, 9.997195, 10.001197 
1.865087e+3, 1.23504154e+2, -1143784.3, -1688922.8, -42515.33, -0.017419863, 0.04721449, -1140488.4, 589176.7, 0.13762344, 10.005807, 9.99742 
1.8650904e+3, 1.3350198e+2, -1159293.0, -1649809.5, 46961.383, 0.035386633, 0.06851018, -1154837.5, 476850.13, 0.0928841, 10.004662, 9.997532 
1.8650919e+3, 1.4350073e+2, -1126795.1, -1540816.0, -26696.275, -0.012221128, 0.17415097, -1125080.9, 408619.06, 0.05060347, 10.003797, 9.998016 
1.8650933e+3, 1.5349811e+2, -1031051.44, -1446375.0, -11271.888, -0.026258726, 0.09689067, -1030745.75, 404978.0, 0.0199064, 10.003673, 9.998051 
1.865094e+3, 1.6349557e+2, -955523.5, -1335797.1, -60468.926, -0.039891656, 0.030580817, -946139.7, 391607.3, 0.004574265, 10.003359, 9.998288 
1.8650943e+3, 1.7349342e+2, -959632.44, -1292387.8, -68772.516, -0.0070523717, -0.019987633, -945979.06, 293788.2, 0.0003360051, 10.0026655, 9.998248 
1.8650948e+3, 1.8349183e+2, -945933.56, -1235461.1, -53097.51, 0.027823675, -0.0014635136, -936503.0, 205280.64, 0.00000050835786, 10.002087, 9.998245 
1.8650955e+3, 1.9349135e+2, -905663.2, -1173707.6, -48446.664, 0.050490662, 0.12493801, -897175.7, 146616.36, 0.0, 10.001729, 9.998168 
1.8650958e+3, 2.0349015e+2, -815431.75, -1001917.75, -53110.895, 0.043738507, 0.16184573, -801366.7, 144438.06, 0.0, 10.00134, 9.998863 
1.8650956e+3, 2.1348777e+2, -778829.56, -928032.0, -52628.254, -0.009314038, 0.02548197, -762134.1, 85689.92, 0.0, 10.000895, 9.998912 
1.8650958e+3, 2.2348602e+2, -735787.7, -826139.94, -56835.188, -0.03434137, -0.051049773, -708361.3, 41477.305, 0.0, 10.000385, 9.999185 
1.8650964e+3, 2.3348546e+2, -730200.3, -775400.94, -74663.414, -0.011532375, -0.031245554, -674791.6, -22947.955, 0.0, 9.999764, 9.999159 
1.8650974e+3, 2.43485e+2, -714282.0, -730700.6, -71032.195, 0.030525243, 0.015293522, -650986.3, -97137.39, 0.0, 9.99926, 9.999035 
1.865099e+3, 2.5348482e+2, -667361.75, -667236.9, -75125.77, 0.11059554, 0.09103472, -592173.5, -136319.73, 0.0, 9.998951, 9.998946 
1.8650998e+3, 2.634843e+2, -554823.1, -465546.38, -86222.24, 0.11994401, 0.112058654, -413092.72, -55233.41, 0.0, 9.998635, 9.999811 
1.865099e+3, 2.734834e+2, -503062.78, -381980.3, -98964.68, -0.0057376027, 0.02554321, -326507.53, -66642.65, 0.0, 9.998283, 9.999881 
1.8650997e+3, 2.8348285e+2, -492171.75, -386603.22, -43147.906, -0.075365715, 0.008674971, -371211.8, -209342.92, 0.0, 9.997943, 9.999342 
1.8651024e+3, 2.9348296e+2, -456458.84, -333146.78, -32888.992, -0.020589279, 0.093044296, -324923.28, -261053.45, 0.0, 9.997579, 9.99921 
1.8651038e+3, 3.0348134e+2, -443993.75, -251315.53, -22720.457, 0.011284126, -0.005621951, -248672.61, -248672.61, 0.0, 9.997118, 9.999657 
1.8651044e+3, 3.1348068e+2, -392532.1, -28052.143, 21580.783, -0.09532728, -0.050424766, -26778.797, -26778.797, 0.0, 9.9966, 10.001447 
1.8750928e+3, 1.23503886e+2, -1188234.5, -1772114.6, -72099.14, -0.0074355314, 0.08672563, -1179463.3, 550201.75, 0.14554368, 10.005778, 9.996829 
1.8750948e+3, 1.3349973e+2, -1216828.8, -1774441.1, 5273.2417, -0.0037148297, -0.009726562, -1216778.9, 414929.03, 0.09842954, 10.004659, 9.9966755 
1.8750958e+3, 1.434972e+2, -1128400.3, -1541202.5, -38063.332, 0.0056113247, 0.01786481, -1124919.9, 408813.66, 0.053869303, 10.003794, 9.998016 
1.8750966e+3, 1.5349598e+2, -1021689.56, -1424397.8, -13107.41, -0.056094103, 0.0675944, -1021263.44, 414481.03, 0.021400152, 10.003666, 9.998207 
1.8750969e+3, 1.634944e+2, -957554.5, -1336669.8, -83670.46, -0.08491086, 0.08696679, -939909.7, 397849.3, 0.0050248993, 10.003345, 9.99829 
1.8750969e+3, 1.7349225e+2, -961768.3, -1297324.3, -94121.31, -0.016874516, 0.040722344, -937170.94, 302608.28, 0.00038988978, 10.002666, 9.998215 
1.8750969e+3, 1.834903e+2, -945377.4, -1235993.8, -68498.016, 0.026381195, 0.027059145, -930041.7, 211756.84, 0.000000733184, 10.002092, 9.9982395 
1.8750969e+3, 1.9348891e+2, -905927.25, -1174904.4, -60390.934, 0.0151370885, 0.06154647, -892990.44, 150824.28, 0.0, 10.00173, 9.998161 
1.8750969e+3, 2.0348758e+2, -813635.9, -997669.75, -69407.445, 0.016632719, 0.08360552, -790394.4, 155434.11, 0.0, 10.001336, 9.998896 
1.875097e+3, 2.1348646e+2, -777750.7, -924455.7, -67673.984, 0.046191603, 0.06965868, -751301.56, 96535.38, 0.0, 10.000888, 9.99894 
1.8750969e+3, 2.2348523e+2, -762965.44, -881447.56, -79078.65, 0.040005706, 0.059379637, -723398.94, 26449.01, 0.0, 10.00038, 9.998809 
1.875096e+3, 2.3348384e+2, -761546.25, -840760.44, -96127.47, -0.032075997, 0.040889386, -697186.0, -45323.56, 0.0, 9.9997635, 9.998712 
1.875096e+3, 2.434826e+2, -723895.75, -751254.6, -83574.99, -0.0388218, 0.04127469, -652888.06, -99012.5, 0.0, 9.999262, 9.998894 
1.8750976e+3, 2.5348178e+2, -673710.25, -682790.8, -84294.78, 0.07330104, 0.064751215, -593833.56, -137948.4, 0.0, 9.9989605, 9.9988365 
1.8750985e+3, 2.6348105e+2, -571322.0, -501516.4, -98654.76, 0.12788583, 0.08053265, -431772.34, -73879.64, 0.0, 9.998641, 9.999561 
1.8750982e+3, 2.7348056e+2, -521141.94, -420569.78, -109757.22, 0.073599294, 0.06087629, -350127.5, -90231.164, 0.0, 9.998286, 9.999616 
1.8750988e+3, 2.8348e+2, -455168.8, -308408.3, -56513.53, 0.034486298, 0.032603327, -289168.7, -127267.92, 0.0, 9.997937, 9.999882 
1.8751004e+3, 2.9347965e+2, -409481.7, -234194.6, -45204.52, 0.035678092, 0.0045422176, -223223.53, -159320.27, 0.0, 9.997571, 9.999894 
1.8751003e+3, 3.0347994e+2, -410934.8, -185991.52, -42883.12, -0.070305645, 0.039458483, -178093.6, -178093.6, 0.0, 9.997128, 10.000103 
1.8751018e+3, 3.134787e+2, -369730.1, 15600.581, -13376.606, -0.02424063, -0.09506291, 16064.387, 16064.387, 0.0, 9.996618, 10.001737 
1.8850988e+3, 1.2350284e+2, -1275313.5, -1801370.6, -83001.45, 0.033106677, 0.07467702, -1262528.1, 467146.3, 0.15367812, 10.005038, 9.996987 
1.8850994e+3, 1.3349885e+2, -1144131.8, -1719165.0, 33294.227, -0.02876872, -0.019758517, -1142210.5, 489503.78, 0.10419918, 10.005173, 9.996808 
1.8851005e+3, 1.4349583e+2, -1003646.06, -1500991.6, 24519.738, 0.028546982, -0.03922174, -1002440.1, 531303.9, 0.057319842, 10.004811, 9.997814 
1.8851005e+3, 1.5349448e+2, -1039331.06, -1463091.0, 18422.465, -0.03924751, 0.021463145, -1038531.7, 397225.75, 0.023006307, 10.003678, 9.997934 
1.8851002e+3, 1.6349289e+2, -1016599.5, -1380675.8, -60608.59, -0.071421884, 0.06293271, -1006774.94, 330997.94, 0.0055215857, 10.003003, 9.998153 
1.8850997e+3, 1.73491e+2, -898411.6, -1279126.4, -76538.21, -0.020889502, 0.05276674, -883600.7, 356190.7, 0.0004532519, 10.003157, 9.998103 
1.8850991e+3, 1.8348904e+2, -817547.25, -1175222.5, -63175.22, 0.009480333, 0.04498632, -806716.75, 335094.16, 0.0000010252129, 10.002975, 9.998231 
1.8850985e+3, 1.9348717e+2, -836898.75, -1141176.0, -57830.47, -0.004089361, 0.030552488, -826278.25, 217552.56, 0.0, 10.002201, 9.998165 
1.8850982e+3, 2.0348565e+2, -802355.1, -997286.8, -67895.67, 0.005684886, 0.0369157, -781037.9, 164808.17, 0.0, 10.001436, 9.99885 
1.885098e+3, 2.1348494e+2, -807949.06, -945538.44, -75309.57, 0.06020803, 0.068135366, -774742.56, 73109.24, 0.0, 10.00071, 9.998882 
1.8850975e+3, 2.2348396e+2, -798244.6, -913446.3, -73929.59, 0.065867744, 0.0932198, -762125.44, -12264.16, 0.0, 10.000206, 9.998672 
1.8850961e+3, 2.3348258e+2, -722788.06, -839270.7, -70075.9, -0.017474521, 0.09182591, -689910.3, -38033.8, 0.0, 10.000107, 9.998554 
1.8850954e+3, 2.4348119e+2, -634382.6, -700531.5, -40298.92, -0.040649753, 0.079742424, -615323.4, -61431.926, 0.0, 9.999843, 9.998962 
1.8850964e+3, 2.534798e+2, -620861.0, -645688.44, -27917.535, 0.04804565, 0.038536128, -602721.6, -146817.03, 0.0, 9.999274, 9.998939 
1.8850969e+3, 2.634789e+2, -581129.2, -514283.13, -31599.592, 0.1066661, 0.035243917, -501710.16, -143796.97, 0.0, 9.99861, 9.999488 
1.8850966e+3, 2.7347898e+2, -606641.8, -473175.44, -33251.688, 0.10105956, 0.081976324, -465349.97, -205436.97, 0.0, 9.997749, 9.999512 
1.8850967e+3, 2.8347868e+2, -556435.75, -336721.1, 30186.209, 0.08549168, 0.07906188, -332649.3, -170733.56, 0.0, 9.997156, 10.000063 
1.8850982e+3, 2.9347798e+2, -462626.6, -234958.78, 11867.515, 0.07634809, -0.004478639, -234341.84, -170420.64, 0.0, 9.997103, 10.0001135 
1.8850967e+3, 3.034791e+2, -440105.84, -126057.766, -27526.143, -0.10177626, 0.06505938, -123663.37, -123663.37, 0.0, 9.996609, 10.000765 
1.8850982e+3, 3.1347886e+2, -580414.0, -49205.477, 32853.0, 0.021824047, -0.035945848, -47181.37, -47181.37, 0.0, 9.995023, 10.002055 
1.8951042e+3, 1.23501e+2, -1231806.5, -1686712.1, -54279.34, 0.06779879, 0.0046648514, -1225419.5, 504274.16, 0.16203713, 10.005026, 9.997824 
1.8951043e+3, 1.3349928e+2, -1080958.1, -1568497.3, 36059.586, -0.047303516, 0.030015409, -1078305.5, 553402.06, 0.110218376, 10.005158, 9.997902 
1.8951055e+3, 1.4349654e+2, -1036766.9, -1562635.1, -11561.508, 0.048598032, -0.00888254, -1036512.8, 497220.06, 0.06097581, 10.004788, 9.99739 
1.8951048e+3, 1.5349355e+2, -1088628.0, -1566950.6, -23563.195, 0.016564164, -0.03958706, -1087470.0, 348293.03, 0.024734898, 10.003678, 9.997223 
1.8951039e+3, 1.6349111e+2, -1034642.25, -1419029.4, -62227.957, -0.009365568, -0.03258524, -1024819.3, 312968.9, 0.006068137, 10.003006, 9.9978895 
1.8951027e+3, 1.7348965e+2, -912458.2, -1307382.5, -69069.05, -0.023590118, 0.019745387, -900727.0, 339076.72, 0.0005270964, 10.003151, 9.997912 
1.8951018e+3, 1.8348797e+2, -820347.06, -1177941.1, -87516.66, -0.027120529, 0.04976287, -800077.44, 341743.84, 0.0000013718216, 10.002961, 9.9982195 
1.8951008e+3, 1.9348603e+2, -837510.1, -1139950.8, -85594.24, -0.011858533, 0.029475294, -814966.4, 228874.63, 0.0, 10.00219, 9.998179 
1.8950996e+3, 2.0348436e+2, -812263.94, -1016997.25, -95004.586, 0.005835376, 0.021848049, -774971.0, 170886.89, 0.0, 10.0014305, 9.998718 
1.8950984e+3, 2.1348318e+2, -819670.06, -969802.4, -100271.73, 0.029224398, 0.023837637, -769479.06, 78389.75, 0.0, 10.000708, 9.998717 
1.8950973e+3, 2.2348219e+2, -791744.75, -900223.2, -80613.58, 0.040505067, 0.05332063, -748822.06, 1056.9954, 0.0, 10.000205, 9.998763 
1.8950966e+3, 2.3348165e+2, -715035.5, -822689.2, -71401.73, 0.026381113, 0.12114242, -679444.56, -27557.805, 0.0, 10.000103, 9.998671 
1.895096e+3, 2.4348062e+2, -616515.56, -662207.9, -58803.5, 0.01819118, 0.13020219, -576276.06, -22378.566, 0.0, 9.999837, 9.999229 
1.8950956e+3, 2.5347877e+2, -599980.6, -602551.8, -47667.543, 0.029981455, 0.012716374, -553581.3, -97668.17, 0.0, 9.999273, 9.999237 
1.8950951e+3, 2.6347774e+2, -573656.1, -499521.03, -61873.313, 0.05276568, -0.024482854, -464461.53, -106539.47, 0.0, 9.998611, 9.99959 
1.895094e+3, 2.734785e+2, -601671.8, -466447.25, -65487.92, 0.070924625, 0.08723934, -439931.5, -180015.03, 0.0, 9.997763, 9.999553 
1.8950939e+3, 2.834788e+2, -566914.8, -359259.7, 23034.066, 0.07446484, 0.14602885, -356735.3, -194819.9, 0.0, 9.99716, 9.999907 
1.8950956e+3, 2.9347792e+2, -480201.66, -270715.88, 16672.61, 0.10023677, 0.063486315, -269397.22, -205472.19, 0.0, 9.997097, 9.999872 
1.8950935e+3, 3.0347863e+2, -378696.38, -382.85608, -79035.086, -0.09764474, 0.070707574, 15464.833, 15464.833, 0.0, 9.9966135, 10.001628 
1.8950933e+3, 3.1348118e+2, -583107.9, -58133.727, 40509.54, 0.045599423, 0.14603212, -55026.207, -55026.207, 0.0, 9.995041, 10.001984 
1.9051096e+3, 1.23500235e+2, -1128751.6, -1654734.3, -108.72078, 0.0644048, -0.020033661, -1128751.6, 600949.25, 0.17065531, 10.006022, 9.997614 
1.9051096e+3, 1.3349907e+2, -1107779.0, -1578855.5, -12936.425, -0.028953245, 0.062367875, -1107424.0, 524285.84, 0.116517246, 10.004975, 9.997912 
1.9051105e+3, 1.4349632e+2, -1104418.6, -1596272.5, -92327.51, 0.09553523, 0.021283904, -1087658.6, 446077.0, 0.06485415, 10.004302, 9.997399 
1.9051085e+3, 1.534932e+2, -1006670.56, -1526073.0, -61206.074, 0.007651787, -0.025403064, -999555.56, 436211.1, 0.026592309, 10.004263, 9.997222 
1.905107e+3, 1.6349055e+2, -909671.3, -1366872.0, -56847.926, -0.033108268, -0.03315501, -902708.94, 435084.28, 0.0066670235, 10.00391, 9.997811 
1.905106e+3, 1.7348883e+2, -937920.4, -1330725.1, -57956.547, -0.003122826, 0.0031559337, -929547.6, 310263.7, 0.0006122247, 10.003023, 9.997814 
1.9051047e+3, 1.8348713e+2, -910233.7, -1203936.9, -74659.18, 0.010854485, 0.031146638, -892344.94, 249484.02, 0.0000017786746, 10.002269, 9.998375 
1.9051027e+3, 1.9348568e+2, -885615.3, -1141383.4, -63548.008, -0.0042886767, 0.036349226, -870696.44, 173147.63, 0.0, 10.001766, 9.998373 
1.9051008e+3, 2.0348413e+2, -824469.06, -1033540.56, -56522.223, -0.0102522075, 0.037773274, -810166.75, 135692.52, 0.0, 10.001395, 9.99862 
1.9050992e+3, 2.1348256e+2, -749612.44, -952635.44, -61606.973, 0.0030329209, 0.014565934, -732380.5, 115493.5, 0.0, 10.001262, 9.998567 
1.9050978e+3, 2.2348125e+2, -709713.5, -865894.5, -49674.023, 0.02736817, 0.021257794, -695253.3, 54634.125, 0.0, 10.000791, 9.998716 
1.9050968e+3, 2.3348051e+2, -773883.1, -855026.44, -54280.645, 0.06335895, 0.07418324, -746687.2, -94790.34, 0.0, 9.999716, 9.998635 
1.9050957e+3, 2.4347968e+2, -729047.2, -692324.94, -40878.426, 0.06313994, 0.0967555, -665873.4, -111967.805, 0.0, 9.998964, 9.999441 
1.9050945e+3, 2.5347868e+2, -652456.94, -599647.56, -33335.836, 0.016844884, 0.03838866, -583526.0, -127612.62, 0.0, 9.998795, 9.999486 
1.9050932e+3, 2.6347792e+2, -593021.8, -522381.8, -64544.754, 0.017042214, 0.016900167, -484125.13, -126204.81, 0.0, 9.998539, 9.999467 
1.9050919e+3, 2.73478e+2, -566265.3, -469070.97, -89744.805, 0.06082406, 0.07624183, -415610.25, -155687.9, 0.0, 9.998095, 9.999373 
1.905091e+3, 2.8347823e+2, -534326.4, -329691.8, 184.42085, 0.06139546, 0.13798898, -329691.66, -167769.48, 0.0, 9.997324, 10.00003 
1.9050919e+3, 2.934783e+2, -630606.56, -335584.66, 22500.443, 0.07870506, 0.13096644, -333878.47, -269954.78, 0.0, 9.996035, 9.999937 
1.90509e+3, 3.034785e+2, -519261.2, -71410.336, -84106.74, -0.047530167, 0.09138922, -56135.97, -56135.97, 0.0, 9.995663, 10.001599 
1.9050898e+3, 3.1348068e+2, -391322.78, 37132.617, 5720.182, 0.10591651, 0.12663321, 37208.973, 37208.973, 0.0, 9.996348, 10.0020075 
1.915115e+3, 1.2350045e+2, -1212801.9, -1825691.5, -5047.9126, -0.0035242783, -0.0071394495, -1212760.4, 516936.53, 0.17957179, 10.005981, 9.996355 
1.9151151e+3, 1.334983e+2, -1177111.3, -1725265.8, -48349.344, 0.018540256, 0.08151918, -1172879.3, 458841.47, 0.1231133, 10.00497, 9.996865 
1.9151154e+3, 1.434953e+2, -1077598.4, -1533606.8, -97186.39, 0.16102305, 0.058507048, -1057749.5, 476001.38, 0.06896055, 10.004302, 9.997834 
1.915112e+3, 1.5349331e+2, -961827.25, -1427555.0, -60745.734, -0.07049769, 0.05927238, -954034.44, 481734.1, 0.02857989, 10.004256, 9.997903 
1.9151099e+3, 1.6349111e+2, -906337.3, -1355486.0, -85928.52, -0.14601116, 0.051215697, -890459.25, 447329.66, 0.0073191114, 10.003893, 9.997899 
1.9151095e+3, 1.7348851e+2, -940295.75, -1334280.4, -89687.86, 0.035321586, 0.0011150393, -920839.75, 318974.84, 0.00070924795, 10.003016, 9.997793 
1.915108e+3, 1.8348657e+2, -889137.75, -1160394.4, -95293.63, 0.114728995, -0.0071212854, -859007.5, 282826.5, 0.0000023137907, 10.002268, 9.998675 
1.9151047e+3, 1.9348599e+2, -861458.0, -1091048.6, -81206.266, 0.0127650555, 0.05358067, -835638.9, 208201.61, 0.0, 10.001764, 9.998721 
1.9151019e+3, 2.0348492e+2, -829914.44, -1043927.6, -63575.16, -0.046462167, 0.08324699, -812453.3, 133397.77, 0.0, 10.0013895, 9.998551 
1.9151002e+3, 2.13483e+2, -761045.9, -974777.9, -64602.7, -0.023333078, 0.038672585, -743036.56, 104831.8, 0.0, 10.001254, 9.998419 
1.9150986e+3, 2.2348103e+2, -723070.75, -892377.8, -84479.88, 0.021669826, -0.002781625, -688128.8, 61758.402, 0.0, 10.000784, 9.998539 
1.9150968e+3, 2.3347916e+2, -786890.6, -881806.4, -92995.98, 0.08950504, -0.046229016, -729943.0, -78035.78, 0.0, 9.999714, 9.998454 
1.915095e+3, 2.4347834e+2, -718404.6, -670679.06, -51357.98, 0.09053982, -0.018873112, -637910.8, -83994.39, 0.0, 9.998964, 9.99959 
1.9150932e+3, 2.5347945e+2, -638245.44, -571656.56, -37601.37, 0.0012056478, 0.112884045, -554727.7, -98821.414, 0.0, 9.998799, 9.999677 
1.9150916e+3, 2.6347932e+2, -616486.94, -571197.4, -79972.41, -0.0061154873, 0.15668976, -510725.53, -152816.55, 0.0, 9.998538, 9.999133 
1.91509e+3, 2.7347726e+2, -593873.7, -527692.44, -105365.47, 0.065473884, 0.049576763, -450343.63, -190412.22, 0.0, 9.998097, 9.998971 
1.9150881e+3, 2.8347692e+2, -504865.25, -270241.56, -44100.867, 0.04054849, 0.05540547, -262226.0, -100289.19, 0.0, 9.997332, 10.000434 
1.9150871e+3, 2.9347894e+2, -603063.25, -284512.72, -20336.799, 0.003289502, 0.19529426, -283219.63, -219301.14, 0.0, 9.996058, 10.0002775 
1.9150867e+3, 3.034786e+2, -579963.44, -202990.42, -63293.41, 0.040639456, 0.12871104, -192647.31, -192647.31, 0.0, 9.995684, 10.000687 
1.9150852e+3, 3.1347972e+2, -374816.84, 72438.766, 80899.67, 0.021852858, 0.14955354, 86622.13, 86622.13, 0.0, 9.996338, 10.002258 
1.9251217e+3, 1.2350075e+2, -1197996.6, -1844247.3, -10636.792, 0.049305495, 0.029805098, -1197821.6, 531873.3, 0.18881589, 10.006287, 9.996081 
1.9251204e+3, 1.3349798e+2, -1102306.9, -1693289.4, -26936.94, 0.010730938, 0.07039442, -1101081.6, 530643.5, 0.13001108, 10.00564, 9.996759 
1.9251195e+3, 1.43495e+2, -984447.56, -1470412.8, -30830.256, 0.10582974, 0.047381632, -982499.44, 551255.94, 0.07329245, 10.004936, 9.997986 
1.9251162e+3, 1.5349337e+2, -977387.4, -1416633.6, -29211.027, -0.07539076, 0.067908, -975453.3, 460315.94, 0.030695671, 10.004073, 9.998069 
1.9251138e+3, 1.6349146e+2, -957084.94, -1350541.5, -72449.016, -0.117019385, 0.066927314, -944168.6, 393617.75, 0.008024026, 10.003417, 9.998161 
1.9251126e+3, 1.7348896e+2, -906191.7, -1286998.5, -58531.063, 0.046779897, -0.00011641705, -897398.4, 342411.4, 0.0008187495, 10.003121, 9.998066 
1.9251105e+3, 1.8348701e+2, -836418.25, -1152183.4, -64000.46, 0.11205402, -0.017470974, -823939.56, 317889.16, 0.0000031359323, 10.0027075, 9.998518 
1.9251065e+3, 1.9348624e+2, -828352.44, -1102059.5, -93642.02, 0.008043168, 0.04602808, -799381.6, 244456.61, 0.0, 10.00211, 9.998478 
1.9251032e+3, 2.0348513e+2, -796796.06, -1010977.4, -84890.984, -0.04827185, 0.08073776, -767230.6, 178618.77, 0.0, 10.001546, 9.998701 
1.9251014e+3, 2.1348356e+2, -775519.6, -958480.8, -61326.38, -0.01579917, 0.04895986, -756865.6, 90997.11, 0.0, 10.001055, 9.998627 
1.9250992e+3, 2.234817e+2, -755873.6, -904295.7, -74176.8, 0.027786676, 0.0058468278, -725158.6, 24721.139, 0.0, 10.000545, 9.998571 
1.9250965e+3, 2.3347948e+2, -744414.0, -861640.4, -73802.945, 0.07348211, -0.071289904, -708780.8, -56878.59, 0.0, 10.000008, 9.99845 
1.9250938e+3, 2.4347845e+2, -662687.56, -662090.7, -20424.428, 0.063018456, -0.058535066, -641962.5, -88048.85, 0.0, 9.999426, 9.999427 
1.9250917e+3, 2.5347966e+2, -660315.7, -604405.56, -34421.98, -0.011798207, 0.103249066, -588017.0, -132112.78, 0.0, 9.998744, 9.999478 
1.92509e+3, 2.634797e+2, -663323.56, -581623.56, -77291.66, 0.00017583079, 0.17164771, -535050.9, -177144.75, 0.0, 9.998166, 9.99924 
1.9250882e+3, 2.734778e+2, -629380.8, -525569.0, -62268.457, 0.084497, 0.059421796, -496409.63, -236482.63, 0.0, 9.997773, 9.999141 
1.9250852e+3, 2.8347737e+2, -510189.03, -269059.2, -6042.963, 0.02556059, 0.045560047, -268907.84, -106974.92, 0.0, 9.997281, 10.000466 
1.9250828e+3, 2.9347938e+2, -517086.56, -248128.42, -18998.281, -0.08123502, 0.1863106, -246793.08, -182878.66, 0.0, 9.996674, 10.00023 
1.9250832e+3, 3.034791e+2, -555074.5, -246580.55, -31779.266, 0.1085345, 0.1535391, -243340.86, -243340.86, 0.0, 9.996097, 10.000187 
1.9250813e+3, 3.1348002e+2, -621786.2, -66660.07, 111528.35, 0.07292087, 0.1983576, -45091.348, -45091.348, 0.0, 9.994732, 10.002075 
1.9351295e+3, 1.23501234e+2, -1169059.5, -1747515.1, -8591.852, 0.20370527, 0.10144886, -1168931.9, 560761.5, 0.19841826, 10.00626, 9.996759 
1.9351253e+3, 1.3349809e+2, -1060587.1, -1585712.6, -45965.75, -0.06186723, 0.026896775, -1056593.9, 575129.56, 0.13721797, 10.005623, 9.997555 
1.9351226e+3, 1.4349537e+2, -999202.5, -1491676.9, -58608.54, -0.074694216, -0.012811343, -992323.6, 541426.06, 0.077849045, 10.004917, 9.997839 
1.9351208e+3, 1.5349339e+2, -1002362.25, -1465456.4, -58692.297, -0.014867427, 0.00562108, -995039.4, 440729.28, 0.032938354, 10.004064, 9.997735 
1.9351187e+3, 1.6349162e+2, -928620.2, -1290997.3, -86465.7, 0.040696364, 0.021358918, -909046.1, 428738.94, 0.008781477, 10.003416, 9.998574 
1.9351156e+3, 1.7349014e+2, -867790.5, -1208154.9, -68621.42, 0.026813818, 0.0018676046, -854476.4, 385320.8, 0.000941564, 10.003124, 9.998608 
1.9351122e+3, 1.8348838e+2, -878539.6, -1239901.3, -85098.16, 0.0026965318, -0.002051712, -859502.5, 282311.6, 0.0000044945964, 10.0027075, 9.997917 
1.9351085e+3, 1.9348633e+2, -884593.3, -1218241.8, -113920.38, -0.022076976, 0.012702018, -849407.2, 194430.61, 0.0, 10.002106, 9.997683 
1.9351052e+3, 2.0348477e+2, -773690.56, -962147.3, -102818.6, -0.021901315, 0.03175696, -728453.3, 217401.17, 0.0, 10.00154, 9.999041 
1.9351028e+3, 2.1348418e+2, -739522.1, -881276.6, -77187.57, 0.02090147, 0.04787123, -705606.7, 142250.81, 0.0, 10.001042, 9.999164 
1.9351e+3, 2.2348318e+2, -741142.56, -871890.6, -93645.47, 0.041776624, 0.046947476, -692309.6, 57556.082, 0.0, 10.000534, 9.998799 
1.935096e+3, 2.3348138e+2, -732877.0, -837608.5, -91920.11, 0.0110818185, -0.00419801, -679453.0, -27570.004, 0.0, 10.000007, 9.998616 
1.9350925e+3, 2.4347992e+2, -695402.44, -730714.0, -44911.695, -0.022779692, -0.024317788, -664800.75, -110902.34, 0.0, 9.999427, 9.998957 
1.9350903e+3, 2.5347927e+2, -699955.75, -688316.1, -58462.047, -0.02753461, 0.01048738, -635384.94, -179477.1, 0.0, 9.998749, 9.998901 
1.9350885e+3, 2.6347905e+2, -625798.1, -503510.88, -93118.484, 0.030238843, 0.06374494, -453256.16, -95343.664, 0.0, 9.998164, 9.999778 
1.9350863e+3, 2.734794e+2, -580162.2, -423370.4, -75488.61, 0.10933259, 0.10618931, -392934.1, -133023.78, 0.0, 9.997771, 9.999845 
1.9350824e+3, 2.8347936e+2, -533095.94, -317788.5, -29440.537, 0.00946187, 0.106954254, -313835.47, -151923.47, 0.0, 9.997283, 10.000133 
1.9350784e+3, 2.9347947e+2, -544361.6, -309413.3, -36688.676, -0.18257517, 0.10263918, -303817.44, -239904.4, 0.0, 9.99669, 9.999804 
1.9350798e+3, 3.0347994e+2, -557478.1, -253991.48, -66010.914, 0.15588695, 0.17238165, -240255.27, -240255.27, 0.0, 9.996107, 10.000132 
1.9350764e+3, 3.1347987e+2, -637408.4, -104646.46, -39246.035, 0.111108094, 0.1259323, -101770.914, -101770.914, 0.0, 9.994752, 10.001806 
1.9451357e+3, 1.2350256e+2, -1196660.1, -1743303.5, 94931.71, 0.20905027, 0.073695995, -1180643.3, 549036.94, 0.20842272, 10.005995, 9.9969425 
1.945131e+3, 1.334996e+2, -1103262.3, -1597132.8, 2789.7297, -0.037962865, 0.008795236, -1103246.5, 528461.9, 0.1447498, 10.005282, 9.99763 
1.9451272e+3, 1.4349724e+2, -1031996.4, -1510441.9, -30083.955, -0.08984751, 0.0043093413, -1030112.2, 503618.84, 0.08263198, 10.004711, 9.997799 
1.9451253e+3, 1.5349503e+2, -1000535.9, -1471007.4, -16162.926, 0.013979848, 0.0038909584, -999981.25, 435771.84, 0.035307087, 10.004119, 9.997667 
1.9451226e+3, 1.6349311e+2, -898846.9, -1286869.4, -29611.666, 0.07500916, 0.014850408, -896600.06, 441171.1, 0.009591274, 10.003676, 9.998474 
1.9451186e+3, 1.7349178e+2, -811755.06, -1193548.6, -57029.04, -0.010292059, 0.020637527, -803418.56, 436363.63, 0.0010783738, 10.003566, 9.998493 
1.9451144e+3, 1.8349004e+2, -802579.4, -1202386.3, -96395.85, -0.06232404, 0.023905108, -780551.4, 361247.4, 0.0000066792873, 10.003227, 9.997923 
1.9451104e+3, 1.9348775e+2, -828459.9, -1188887.9, -71129.29, -0.03833172, 0.013316902, -814930.56, 228893.27, 0.0, 10.002483, 9.997702 
1.945107e+3, 2.03486e+2, -760158.25, -964753.9, -38807.53, -0.006095793, 0.01687836, -753044.56, 192797.5, 0.0, 10.001676, 9.998956 
1.9451039e+3, 2.1348532e+2, -785111.94, -914997.06, -61813.656, 0.03514885, 0.034632865, -760397.06, 87449.97, 0.0, 10.000784, 9.999054 
1.9451003e+3, 2.2348447e+2, -785902.25, -877798.7, -95339.27, 0.044911765, 0.050169878, -726016.56, 23837.582, 0.0, 10.000162, 9.998937 
1.9450957e+3, 2.3348328e+2, -720867.44, -811714.44, -92228.5, -0.008590181, 0.041642, -663483.4, -11618.289, 0.0, 10.000004, 9.998795 
1.9450916e+3, 2.4348192e+2, -684894.75, -727717.56, -46306.797, -0.048282683, 0.021322954, -655288.8, -101409.67, 0.0, 9.999512, 9.998935 
1.9450888e+3, 2.5348046e+2, -750844.06, -719721.2, -26833.541, -0.038955376, -0.018612187, -704263.3, -248367.28, 0.0, 9.998432, 9.9988365 
1.9450863e+3, 2.634801e+2, -683048.5, -503889.1, -30344.393, 0.021183748, 0.012931887, -498889.2, -140987.39, 0.0, 9.997654, 10.00002 
1.9450836e+3, 2.734814e+2, -623903.44, -413440.53, -43320.758, 0.10416253, 0.12105384, -404872.4, -144982.06, 0.0, 9.997339, 10.00012 
1.9450796e+3, 2.8348166e+2, -607667.6, -343076.0, -14520.343, 0.024098935, 0.13339892, -342281.53, -180392.8, 0.0, 9.996726, 10.000226 
1.9450746e+3, 2.9348123e+2, -670049.06, -344992.28, 21567.305, -0.1684723, 0.06806835, -343567.53, -279673.56, 0.0, 9.995723, 10.000024 
1.9450752e+3, 3.03482e+2, -637745.0, -259656.13, 51502.117, 0.12636077, 0.13374487, -252766.22, -252766.22, 0.0, 9.995417, 10.000424 
1.9450714e+3, 3.134823e+2, -479327.47, -14984.498, 6661.6465, 0.08139455, 0.108224414, -14888.947, -14888.947, 0.0, 9.99578, 10.001926 
1.9551401e+3, 1.235048e+2, -1224759.6, -1790368.1, 78831.12, 0.04871803, -0.040101867, -1213978.1, 515676.63, 0.21884537, 10.005963, 9.996625 
1.9551374e+3, 1.3350244e+2, -1147774.5, -1685604.5, -17177.723, 0.0722425, 0.016979406, -1147226.4, 484453.84, 0.15261112, 10.005271, 9.996988 
1.9551334e+3, 1.435006e+2, -1031620.94, -1503995.5, -49835.777, 0.04509736, 0.098450504, -1026420.44, 507279.3, 0.08763982, 10.004709, 9.99785 
1.9551292e+3, 1.5349817e+2, -989024.5, -1445032.5, -37495.742, 0.005026692, 0.06001666, -985961.94, 449761.2, 0.037800886, 10.004124, 9.997845 
1.9551255e+3, 1.6349585e+2, -940690.8, -1374056.1, -37081.75, -0.015492948, 0.044845607, -937540.75, 400204.72, 0.010453226, 10.003677, 9.997873 
1.9551216e+3, 1.7349382e+2, -864646.3, -1302053.4, -59139.7, -0.06710561, 0.054500803, -856791.4, 382973.7, 0.0012292981, 10.003558, 9.997753 
1.9551174e+3, 1.8349193e+2, -764793.0, -1120615.4, -119763.734, -0.09108938, 0.060110427, -728238.0, 413545.06, 0.000009908067, 10.003211, 9.998493 
1.955113e+3, 1.934904e+2, -774455.2, -1074463.4, -97478.586, -0.046495803, 0.048656438, -745564.6, 298232.47, 0.0, 10.002471, 9.998494 
1.9551086e+3, 2.0348874e+2, -797134.5, -1040178.44, -71429.914, -0.0052579306, 0.036435265, -777696.1, 168117.08, 0.0, 10.001668, 9.998443 
1.9551045e+3, 2.134869e+2, -836985.3, -1023479.75, -93123.9, 0.022880087, 0.008911987, -798448.25, 49383.91, 0.0, 10.000786, 9.998309 
1.9551003e+3, 2.2348553e+2, -781487.44, -869512.0, -104062.2, 0.032338534, 0.01571597, -712512.9, 37332.844, 0.0, 10.000163, 9.998995 
1.955096e+3, 2.3348513e+2, -707706.5, -783420.7, -95345.664, 0.0083957035, 0.066864885, -642977.25, 8871.934, 0.0, 9.999997, 9.998994 
1.9550915e+3, 2.4348438e+2, -658447.3, -670697.56, -81290.875, -0.02059816, 0.07771541, -583051.1, -29194.334, 0.0, 9.999502, 9.9993305 
1.9550872e+3, 2.5348312e+2, -720805.7, -658418.25, -65794.125, -0.051113695, 0.014433011, -616797.7, -160927.58, 0.0, 9.998436, 9.999256 
1.9550833e+3, 2.6348266e+2, -685568.6, -510489.66, -46066.223, -0.030308979, 0.017519841, -499108.66, -141233.08, 0.0, 9.997658, 9.999975 
1.9550806e+3, 2.7348357e+2, -632396.75, -435026.0, -54546.844, 0.06028109, 0.101367995, -420954.28, -161085.69, 0.0, 9.997353, 9.999968 
1.9550766e+3, 2.834841e+2, -569883.8, -266535.72, -51831.77, 0.06185309, 0.12567666, -257923.94, -96059.586, 0.0, 9.996734, 10.000749 
1.9550718e+3, 2.9348463e+2, -611689.5, -224449.86, -13577.755, -0.04556805, 0.08929424, -223974.38, -160116.19, 0.0, 9.995723, 10.000853 
1.9550696e+3, 3.0348495e+2, -591159.1, -163859.66, 63770.63, 0.011872218, 0.02430168, -154545.48, -154545.48, 0.0, 9.9954195, 10.0010805 
1.9550677e+3, 3.1348613e+2, -464193.2, 7098.079, -68254.68, 0.11764917, 0.043866415, 16783.988, 16783.988, 0.0, 9.995818, 10.002062 
1.9651458e+3, 1.2350805e+2, -1204349.6, -1739445.0, 20286.842, 0.010995946, 0.0084121, -1203581.6, 526043.75, 0.22960958, 10.006064, 9.996911 
1.9651431e+3, 1.3350564e+2, -1149633.0, -1672432.5, -31912.5, 0.11849271, 0.04802057, -1147692.3, 483957.84, 0.16076659, 10.005244, 9.997093 
1.9651383e+3, 1.4350359e+2, -1031258.9, -1522415.3, -27801.965, 0.055171903, 0.112061955, -1029690.1, 503980.9, 0.09286162, 10.004836, 9.997647 
1.9651337e+3, 1.535011e+2, -897234.1, -1427845.3, -47862.223, -0.013548804, 0.09345483, -892951.44, 542744.3, 0.040418044, 10.004918, 9.997581 
1.9651292e+3, 1.6349864e+2, -827189.5, -1326137.9, -62927.195, -0.043287363, 0.08142885, -819375.5, 518344.44, 0.011366587, 10.004501, 9.997806 
1.9651249e+3, 1.7349632e+2, -915211.25, -1329233.5, -39569.094, -0.07616434, 0.067301504, -911463.44, 328278.63, 0.0013937104, 10.003227, 9.997724 
1.9651203e+3, 1.8349434e+2, -892369.75, -1166496.0, -78929.27, -0.08734453, 0.05975971, -871268.0, 270492.72, 0.000014255441, 10.002272, 9.998629 
1.965115e+3, 1.9349305e+2, -845925.7, -1090487.3, -102563.24, -0.04064133, 0.055962153, -808607.56, 235164.38, 0.0, 10.001905, 9.998654 
1.9651103e+3, 2.0349148e+2, -817014.1, -1060107.6, -89188.78, -0.008727161, 0.04762371, -787801.94, 157984.94, 0.0, 10.001576, 9.998349 
1.9651052e+3, 2.1348946e+2, -773600.56, -1009090.1, -69726.99, -0.011957959, 0.016462374, -754503.5, 93304.23, 0.0, 10.001291, 9.998165 
1.9651003e+3, 2.2348797e+2, -700159.94, -826874.0, -56073.69, -0.010451229, 0.017643146, -678909.8, 70912.97, 0.0, 10.00071, 9.9990225 
1.9650957e+3, 2.3348755e+2, -758416.5, -801338.8, -60224.875, 0.0047226436, 0.060400523, -715943.2, -64116.3, 0.0, 9.999624, 9.999047 
1.965091e+3, 2.4348696e+2, -756940.4, -702286.44, -63782.81, 0.009720676, 0.079178095, -660223.1, -106390.35, 0.0, 9.998756, 9.999473 
1.9650859e+3, 2.534862e+2, -736479.06, -648086.8, -69754.234, -0.011810453, 0.049579218, -609706.0, -153865.13, 0.0, 9.998253, 9.9994135 
1.9650811e+3, 2.6348588e+2, -686160.1, -501781.38, -48922.99, -0.027223555, 0.050857686, -489604.38, -131759.58, 0.0, 9.99762, 10.000051 
1.9650769e+3, 2.7348626e+2, -717654.1, -470358.4, -44228.49, -0.00633317, 0.08030598, -462686.22, -202844.28, 0.0, 9.996748, 10.000013 
1.9650729e+3, 2.8348672e+2, -641811.75, -285313.0, -43736.0, 0.040619228, 0.0902858, -280025.8, -118187.93, 0.0, 9.996174, 10.000889 
1.9650687e+3, 2.934877e+2, -556194.44, -167747.05, -42427.75, 0.06944113, 0.08143076, -163166.92, -99339.66, 0.0, 9.995977, 10.001119 
1.9650641e+3, 3.0348843e+2, -578414.56, -101308.67, 10450.72, -0.071603395, 0.017926382, -101079.86, -101079.86, 0.0, 9.995265, 10.001585 
1.9650616e+3, 3.134902e+2, -650938.06, -32180.205, -109114.26, 0.012985121, 0.051725756, -13502.367, -13502.367, 0.0, 9.994322, 10.002511 
1.9751525e+3, 1.2351224e+2, -1164537.0, -1634813.5, -14736.585, 0.07790278, 0.20921507, -1164075.8, 565516.9, 0.24054563, 10.006043, 9.997842 
1.975148e+3, 1.3350919e+2, -1107675.0, -1565764.6, -53265.22, 0.09543441, 0.10184543, -1101563.0, 530054.6, 0.1691338, 10.005234, 9.997919 
1.9751419e+3, 1.4350626e+2, -1064858.1, -1591926.9, -27956.447, -0.06363885, 0.05072652, -1063379.5, 470264.97, 0.09827259, 10.004834, 9.997166 
1.9751382e+3, 1.5350382e+2, -948096.8, -1532613.5, -42752.38, -0.046473633, 0.105758525, -944986.4, 490684.47, 0.043155544, 10.004908, 9.996866 
1.975134e+3, 1.6350146e+2, -800528.3, -1265625.6, -102770.516, -0.018899864, 0.12555367, -778831.7, 558863.06, 0.012330498, 10.004482, 9.998237 
1.9751284e+3, 1.7349926e+2, -872818.3, -1239370.5, -86386.52, -0.044349838, 0.06089793, -853479.6, 386234.13, 0.001570458, 10.003219, 9.998345 
1.9751228e+3, 1.8349722e+2, -913117.0, -1208786.3, -97104.21, -0.057289343, 0.02567478, -884077.94, 257654.38, 0.000019593592, 10.002267, 9.998341 
1.9751172e+3, 1.9349563e+2, -877103.5, -1155750.4, -113608.57, -0.026173163, 0.034380026, -836655.06, 207093.95, 0.0, 10.001905, 9.998207 
1.9751115e+3, 2.0349416e+2, -795953.1, -1016249.75, -99080.58, -0.021621326, 0.04839541, -757947.4, 187816.44, 0.0, 10.0015745, 9.998653 
1.975106e+3, 2.1349294e+2, -744730.56, -946958.75, -77710.945, -0.07347423, 0.05720727, -718317.94, 129456.586, 0.0, 10.001279, 9.998598 
1.9751003e+3, 2.2349168e+2, -703511.9, -831445.2, -91988.02, -0.08716038, 0.05601376, -655436.0, 94350.26, 0.0, 10.000697, 9.998999 
1.9750951e+3, 2.334904e+2, -766496.9, -818211.06, -99344.08, -0.023886845, 0.022409897, -689700.0, -37900.773, 0.0, 9.999622, 9.998934 
1.9750899e+3, 2.4348955e+2, -763891.94, -717257.06, -85799.33, 0.03793033, 0.026738567, -651663.2, -97854.89, 0.0, 9.998757, 9.999372 
1.975085e+3, 2.5348955e+2, -742358.25, -662486.2, -87380.46, 0.069723606, 0.086596325, -606348.1, -150538.6, 0.0, 9.9982605, 9.999313 
1.9750792e+3, 2.634895e+2, -671626.4, -473502.22, -80269.42, 0.021718062, 0.11124642, -445063.4, -87252.766, 0.0, 9.997626, 10.000242 
1.9750728e+3, 2.7348933e+2, -700362.94, -437131.84, -75639.6, -0.100842014, 0.057085242, -416944.9, -157133.25, 0.0, 9.9967575, 10.000238 
1.9750683e+3, 2.834894e+2, -656341.2, -317853.4, -54290.836, -0.04272529, 0.027513005, -309358.75, -147548.27, 0.0, 9.996182, 10.000662 
1.9750656e+3, 2.934903e+2, -573806.0, -210754.94, -50326.94, 0.16824843, 0.04273777, -203907.66, -140105.1, 0.0, 9.996002, 10.000813 
1.9750588e+3, 3.034924e+2, -554300.4, -55903.707, -37023.254, -0.13536607, 0.117771655, -53168.457, -53168.457, 0.0, 9.995285, 10.001887 
1.975056e+3, 3.1349447e+2, -590027.4, 88555.5, -28493.156, 0.01259147, 0.14229435, 89749.805, 89749.805, 0.0, 9.994341, 10.003334 
1.9851582e+3, 1.23515524e+2, -1197246.3, -1646390.5, 22218.104, 0.052835394, 0.2153558, -1196149.9, 533412.0, 0.2514677, 10.005815, 9.997856 
1.9851534e+3, 1.3351262e+2, -1015320.06, -1519667.5, -47462.363, 0.06914742, 0.121526055, -1010892.44, 620693.0, 0.17760383, 10.006049, 9.997916 
1.9851467e+3, 1.4350937e+2, -930482.6, -1500900.6, -44457.773, -0.11639731, 0.031023676, -927038.44, 606576.5, 0.103829175, 10.005797, 9.997351 
1.9851428e+3, 1.5350713e+2, -1001794.06, -1531505.6, -3335.7283, -0.05153106, 0.08302862, -1001773.06, 433865.13, 0.04600399, 10.004418, 9.997106 
1.9851382e+3, 1.6350499e+2, -956774.94, -1323878.3, -37804.254, 0.008114299, 0.10587436, -952922.25, 384737.1, 0.013343819, 10.00333, 9.998383 
1.9851318e+3, 1.7350307e+2, -923788.06, -1249326.0, -59144.516, -0.01299817, 0.057765312, -913375.6, 326300.66, 0.0017582919, 10.00281, 9.998472 
1.9851252e+3, 1.8350121e+2, -900368.25, -1212828.1, -63862.535, -0.03692795, 0.036416583, -887819.6, 253874.27, 0.0000256483, 10.002399, 9.99825 
1.985119e+3, 1.9349958e+2, -847247.0, -1156253.5, -56201.785, -0.045924712, 0.052785564, -837342.56, 206369.27, 0.0, 10.002175, 9.998074 
1.985113e+3, 2.034981e+2, -767759.06, -995039.44, -44433.805, -0.048916023, 0.07196629, -759381.0, 186345.94, 0.0, 10.001738, 9.998718 
1.9851072e+3, 2.13497e+2, -789402.8, -957367.5, -51662.723, -0.05066957, 0.08234265, -774784.56, 72951.52, 0.0, 10.000929, 9.998693 
1.9851011e+3, 2.2349572e+2, -798204.0, -896041.9, -95407.945, -0.046683453, 0.082300104, -739904.75, 9843.175, 0.0, 10.000131, 9.998826 
1.9850945e+3, 2.3349425e+2, -821720.3, -869026.4, -113834.54, -0.020494733, 0.05166231, -729107.4, -77343.695, 0.0, 9.9993515, 9.998714 
1.9850884e+3, 2.434933e+2, -767621.25, -706150.44, -82218.4, 0.017961865, 0.05435778, -649110.44, -95336.586, 0.0, 9.99868, 9.999482 
1.985083e+3, 2.534933e+2, -737881.7, -641427.3, -62755.582, 0.049619496, 0.09806933, -610508.3, -154734.5, 0.0, 9.998212, 9.999479 
1.9850767e+3, 2.6349327e+2, -661079.3, -469256.25, -58888.664, 0.0037625837, 0.11096939, -452620.47, -94846.2, 0.0, 9.997704, 10.000234 
1.9850695e+3, 2.734931e+2, -658844.56, -422352.63, -77288.6, -0.108662225, 0.06632669, -399334.2, -139559.52, 0.0, 9.997068, 10.000188 
1.9850646e+3, 2.834932e+2, -620853.1, -312243.84, -51431.145, -0.041669704, 0.042997718, -303898.3, -142124.84, 0.0, 9.996479, 10.000556 
1.9850616e+3, 2.9349372e+2, -611364.1, -245553.08, -36620.6, 0.17304339, 0.032495942, -241923.08, -178154.22, 0.0, 9.995822, 10.000658 
1.9850537e+3, 3.0349565e+2, -619237.56, -94627.055, -52484.246, -0.14038333, 0.102282956, -89427.836, -89427.836, 0.0, 9.994873, 10.001819 
1.9850503e+3, 3.134978e+2, -633929.1, 62107.043, 23725.514, 0.022734402, 0.13817313, 62914.83, 62914.83, 0.0, 9.994062, 10.003285 
1.9951627e+3, 1.2351786e+2, -1254645.4, -1751982.1, 7778.8716, -0.0779758, 0.02480344, -1254523.8, 475010.5, 0.2622643, 10.005787, 9.996953 
1.9951592e+3, 1.3351597e+2, -1072055.0, -1620568.9, -34074.637, 0.03224909, 0.11277826, -1069946.4, 561606.9, 0.18608981, 10.006025, 9.997087 
1.9951525e+3, 1.435129e+2, -884702.0, -1395119.1, -80846.805, -0.11489091, 0.054812767, -872202.5, 661380.1, 0.10948481, 10.00578, 9.998178 
1.9951473e+3, 1.5351097e+2, -928207.5, -1369938.6, -52257.707, -0.036103204, 0.026151795, -922109.5, 513488.97, 0.04895024, 10.004411, 9.998242 
1.9951417e+3, 1.635092e+2, -966882.3, -1344088.5, -62035.793, 0.030611502, 0.026345428, -956941.8, 380672.6, 0.014406348, 10.003328, 9.998245 
1.995135e+3, 1.7350774e+2, -948604.44, -1302201.4, -76810.56, 0.0131945945, 0.057742335, -932639.94, 306990.44, 0.0019568831, 10.002813, 9.998109 
1.9951278e+3, 1.8350624e+2, -893988.94, -1200101.4, -73507.57, -0.03134785, 0.08942119, -877252.44, 264393.9, 0.000032105352, 10.0024, 9.998338 
1.9951208e+3, 1.9350481e+2, -836758.25, -1133556.9, -62279.67, -0.10315126, 0.11061661, -824219.3, 219442.0, 0.0, 10.002171, 9.998233 
1.9951142e+3, 2.0350324e+2, -782160.25, -1023726.2, -71362.875, -0.09435014, 0.11914241, -762653.6, 183023.48, 0.0, 10.001731, 9.998526 
1.9951092e+3, 2.135015e+2, -807843.2, -995151.2, -80038.17, 0.047757078, 0.0912875, -778301.5, 69391.945, 0.0, 10.000925, 9.998437 
1.9951028e+3, 2.235e+2, -819874.4, -940765.7, -124233.28, 0.102632344, 0.0952449, -742162.2, 7546.583, 0.0, 10.000128, 9.998522 
1.9950943e+3, 2.33499e+2, -844024.2, -915862.56, -140694.08, 0.00869767, 0.14592437, -734736.56, -83015.336, 0.0, 9.9993515, 9.998394 
1.9950864e+3, 2.434981e+2, -746023.1, -662415.3, -101164.55, -0.054369703, 0.1587419, -594757.7, -41027.055, 0.0, 9.998683, 9.999782 
1.99508e+3, 2.5349733e+2, -708227.75, -581911.4, -78680.03, -0.07379188, 0.08336441, -544176.06, -88441.12, 0.0, 9.9982195, 9.999886 
1.9950736e+3, 2.6349697e+2, -675612.56, -500934.8, -82852.16, -0.080727726, 0.052824043, -467888.66, -110151.914, 0.0, 9.997708, 10.000015 
1.9950674e+3, 2.7349752e+2, -682179.06, -473955.34, -100425.05, -0.038458005, 0.109345414, -433414.28, -173681.97, 0.0, 9.99708, 9.999829 
1.9950618e+3, 2.8349787e+2, -618600.25, -310508.56, -76782.96, 0.03247885, 0.13467535, -292433.1, -130704.39, 0.0, 9.996491, 10.000562 
1.9950566e+3, 2.9349765e+2, -611200.3, -248797.8, -65241.074, 0.073989704, 0.043368895, -237410.66, -173681.9, 0.0, 9.995835, 10.000629 
1.9950493e+3, 3.03498e+2, -647576.7, -157388.67, -94044.42, -0.07995279, -0.021719763, -139965.2, -139965.2, 0.0, 9.994887, 10.001382 
1.9950439e+3, 3.1350043e+2, -720079.44, -123118.53, 81308.56, -0.014705766, 0.08859599, -112242.13, -112242.13, 0.0, 9.994087, 10.002004 
2.005169e+3, 1.23522766e+2, -1177617.8, -1740813.9, 27110.088, -0.086311184, -0.00807177, -1176315.8, 553168.94, 0.27296647, 10.006766, 9.996563 
2.005165e+3, 1.3352112e+2, -1168398.5, -1694958.3, 42737.406, 0.061383046, 0.12501562, -1164952.4, 466550.75, 0.1945891, 10.005351, 9.996888 
2.0051582e+3, 1.4351803e+2, -1049957.3, -1462326.3, 4869.2397, -0.06531473, 0.07291473, -1049899.8, 483633.6, 0.115228854, 10.004479, 9.998287 
2.0051523e+3, 1.535161e+2, -916034.25, -1346433.3, -31975.207, 0.0024797043, 0.02822754, -913671.75, 521876.8, 0.051991027, 10.004433, 9.9984045 
2.0051457e+3, 1.6351433e+2, -866585.1, -1316324.4, -79282.56, 0.0454809, 0.027796926, -853018.06, 484546.44, 0.015520809, 10.004125, 9.9980545 
2.0051377e+3, 1.735128e+2, -885425.7, -1300483.4, -89578.91, -0.011719711, 0.07907322, -866917.8, 372664.53, 0.0021675862, 10.003375, 9.997849 
2.0051299e+3, 1.8351127e+2, -836090.8, -1158861.8, -70425.23, -0.07129607, 0.117069304, -821394.0, 320205.13, 0.00003871999, 10.002744, 9.998453 
2.0051228e+3, 1.9350989e+2, -801624.1, -1096074.9, -58263.457, -0.11773484, 0.12549023, -790514.56, 253097.9, 0.0, 10.002327, 9.998412 
2.005116e+3, 2.0350835e+2, -789561.3, -1029307.0, -78655.92, -0.090278246, 0.12826605, -766059.7, 179567.7, 0.0, 10.001693, 9.998504 
2.0051101e+3, 2.1350661e+2, -846755.94, -1021396.8, -78332.51, 0.060115095, 0.1063418, -816769.8, 30874.648, 0.0, 10.000691, 9.998369 
2.005103e+3, 2.2350506e+2, -837901.94, -939403.8, -87668.06, 0.11876124, 0.10672905, -787354.56, -37694.39, 0.0, 9.999964, 9.99861 
2.0050938e+3, 2.3350398e+2, -780892.1, -873801.6, -72892.58, 0.01596306, 0.13643585, -740909.8, -89237.36, 0.0, 9.999736, 9.998497 
2.0050853e+3, 2.4350297e+2, -674170.4, -650245.5, -35508.438, -0.059514694, 0.14238381, -624738.6, -71056.35, 0.0, 9.999274, 9.999579 
2.0050782e+3, 2.5350216e+2, -705770.6, -609324.4, -63706.934, -0.08373732, 0.08831639, -577647.3, -121959.52, 0.0, 9.998363, 9.999626 
2.0050712e+3, 2.6350167e+2, -718276.25, -530983.06, -92882.71, -0.073093124, 0.064791046, -492732.4, -135041.2, 0.0, 9.997461, 9.999924 
2.0050646e+3, 2.7350193e+2, -754804.44, -514596.0, -91208.93, 0.0005837744, 0.09744315, -483888.75, -224199.2, 0.0, 9.99661, 9.999775 
2.0050581e+3, 2.8350228e+2, -679447.8, -318247.3, -37439.125, 0.040240716, 0.11706282, -314407.5, -152721.9, 0.0, 9.995983, 10.000752 
2.0050517e+3, 2.9350266e+2, -633582.44, -247180.39, -19821.809, 0.011430636, 0.06506853, -246166.22, -182487.02, 0.0, 9.995632, 10.000737 
2.005045e+3, 3.035028e+2, -638109.9, -172862.2, -49610.11, 0.0021228795, -0.010458624, -167631.02, -167631.02, 0.0, 9.99504, 10.001202 
2.005038e+3, 3.1350344e+2, -754471.5, -155043.7, 160226.92, -0.015142844, -0.06977702, -114903.1, -114903.1, 0.0, 9.99393, 10.001855 
2.0151766e+3, 1.2352995e+2, -1181045.5, -1724965.0, -26752.74, 0.009127616, 0.09706585, -1179732.8, 549683.4, 0.28385353, 10.006756, 9.996684 
2.0151712e+3, 1.3352792e+2, -1150654.1, -1633984.1, 1543.5933, 0.1432002, 0.15379183, -1150649.3, 480787.0, 0.20325997, 10.005345, 9.997305 
2.0151635e+3, 1.4352466e+2, -1089658.5, -1539876.4, -2368.9993, 0.018282881, 0.08498255, -1089646.1, 443821.84, 0.12113059, 10.004479, 9.997693 
2.0151572e+3, 1.5352245e+2, -970246.5, -1456290.9, -31311.941, 0.05564048, 0.0889836, -968237.6, 467251.2, 0.05515103, 10.004428, 9.997621 
2.0151497e+3, 1.6352034e+2, -886417.6, -1354891.8, -102960.59, 0.046074722, 0.10987061, -864787.75, 472721.97, 0.016697034, 10.004113, 9.997796 
2.0151402e+3, 1.7351824e+2, -898698.75, -1327260.5, -115494.586, -0.089547634, 0.12072381, -869555.56, 369977.06, 0.0023937626, 10.00337, 9.997669 
2.0151319e+3, 1.8351626e+2, -827225.75, -1139204.1, -86572.17, -0.15909125, 0.1206307, -804812.6, 336739.97, 0.000045425786, 10.002738, 9.998591 
2.0151253e+3, 1.9351475e+2, -790789.7, -1070168.6, -71216.2, -0.09711423, 0.09889084, -773683.44, 269882.3, 0.0, 10.002311, 9.998599 
2.0151182e+3, 2.0351338e+2, -782180.75, -1010861.3, -112309.91, -0.0444574, 0.10017701, -736248.75, 209329.69, 0.0, 10.0016775, 9.998639 
2.01511e+3, 2.1351226e+2, -838966.25, -1004779.6, -113481.664, -0.014985359, 0.1281501, -781332.5, 66257.234, 0.0, 10.000689, 9.998486 
2.0151016e+3, 2.2351086e+2, -806385.06, -875468.4, -99537.69, 0.0022329018, 0.11769094, -735566.0, 14036.806, 0.0, 9.999968, 9.999047 
2.0150934e+3, 2.3350905e+2, -745694.25, -801960.06, -79475.516, -0.0033427016, 0.026809897, -689519.25, -37900.95, 0.0, 9.99974, 9.998989 
2.0150852e+3, 2.4350783e+2, -722023.56, -750271.4, -66357.09, -0.0038460335, 0.00971748, -668303.94, -114674.086, 0.0, 9.999275, 9.998894 
2.0150775e+3, 2.535077e+2, -769707.44, -742717.0, -97375.875, 0.0098090265, 0.112307526, -657905.6, -202272.14, 0.0, 9.9983635, 9.998712 
2.0150696e+3, 2.6350725e+2, -715768.0, -527516.6, -125932.37, 0.01805778, 0.14381254, -464420.78, -106781.75, 0.0, 9.997467, 9.999947 
2.0150612e+3, 2.735062e+2, -735265.44, -478567.47, -121369.375, 0.0024997636, 0.02992196, -430269.94, -170622.23, 0.0, 9.996627, 10.000015 
2.0150535e+3, 2.835063e+2, -651933.3, -265225.38, -54720.406, -0.021130238, -0.0065338705, -257631.39, -95986.24, 0.0, 9.995999, 10.00111 
2.0150469e+3, 2.9350862e+2, -616180.3, -215286.42, -35656.785, -0.022849873, 0.10200111, -212139.69, -148518.44, 0.0, 9.995646, 10.00095 
2.015041e+3, 3.035099e+2, -630918.2, -161341.02, -83588.766, 0.09624713, 0.12920837, -146905.28, -146905.28, 0.0, 9.995053, 10.001275 
2.0150311e+3, 3.1350914e+2, -676201.4, 5053.616, 41312.168, -0.09574881, -0.094419286, 7549.6934, 7549.6934, 0.0, 9.993945, 10.002944 
2.0251833e+3, 1.2353703e+2, -1170348.8, -1717662.6, -30515.035, -0.007457772, 0.13888033, -1168652.6, 560695.3, 0.29551414, 10.006956, 9.996659 
2.0251772e+3, 1.3353464e+2, -1005826.0, -1552173.5, -13267.826, 0.13500549, 0.1531038, -1005504.0, 625866.7, 0.2124489, 10.006607, 9.997405 
2.0251688e+3, 1.4353143e+2, -925500.0, -1482426.4, -13671.324, 0.03651349, 0.09346887, -925164.6, 608237.25, 0.12734857, 10.005915, 9.997445 
2.0251615e+3, 1.5352914e+2, -972037.75, -1491662.8, -14984.77, 0.033949945, 0.121427245, -971606.0, 463818.75, 0.058486674, 10.004581, 9.997301 
2.0251533e+3, 1.6352688e+2, -955180.94, -1392280.3, -51576.12, 0.012193341, 0.14702539, -949177.56, 388270.13, 0.017953431, 10.003656, 9.997756 
2.0251438e+3, 1.735245e+2, -884108.75, -1319019.8, -50547.016, -0.079923615, 0.13064468, -878311.25, 361160.97, 0.002640759, 10.0034685, 9.997677 
2.025135e+3, 1.8352239e+2, -810000.06, -1131974.5, -30710.236, -0.12018086, 0.1133865, -807097.06, 334396.2, 0.000052423362, 10.002862, 9.998581 
2.0251276e+3, 1.9352084e+2, -905782.2, -1128024.3, -34842.49, -0.058760263, 0.09092683, -900447.75, 143058.86, 0.0, 10.001533, 9.998576 
2.0251197e+3, 2.0351942e+2, -902897.6, -1058246.0, -66522.64, -0.026403615, 0.08750332, -878304.8, 67214.23, 0.0, 10.000801, 9.998736 
2.0251106e+3, 2.135183e+2, -766197.75, -956411.1, -67132.1, -0.049069386, 0.10367796, -744891.4, 102638.12, 0.0, 10.00113, 9.998604 
2.0251016e+3, 2.2351699e+2, -671128.6, -825031.94, -80085.21, -0.04545491, 0.09778006, -637016.4, 112525.46, 0.0, 10.00096, 9.998915 
2.0250933e+3, 2.335153e+2, -735814.7, -817052.9, -111598.96, 0.0039111543, 0.03852868, -657672.5, -6115.65, 0.0, 9.999894, 9.998811 
2.0250846e+3, 2.4351403e+2, -786113.8, -780842.94, -113863.18, 0.03498012, 0.028620802, -669584.7, -116015.61, 0.0, 9.998837, 9.998894 
2.0250759e+3, 2.5351363e+2, -845223.5, -776751.56, -80742.48, 0.03599963, 0.10035107, -723286.6, -267711.34, 0.0, 9.997836, 9.998732 
2.025067e+3, 2.6351312e+2, -762364.8, -547567.75, -53027.637, 0.027888207, 0.12508965, -535189.94, -177608.94, 0.0, 9.997137, 9.999968 
2.025058e+3, 2.7351233e+2, -691575.6, -455374.22, -59761.414, -0.0034623558, 0.035937496, -441114.8, -181527.97, 0.0, 9.99692, 10.000032 
2.0250496e+3, 2.8351235e+2, -618619.3, -279029.9, -31296.191, -0.034827027, 0.0005350546, -276169.78, -114584.09, 0.0, 9.996359, 10.00084 
2.0250422e+3, 2.9351425e+2, -699706.06, -284107.2, -64741.105, -0.03567873, 0.09846679, -274255.47, -210687.83, 0.0, 9.995201, 10.00069 
2.0250358e+3, 3.0351582e+2, -701284.9, -164721.67, -105762.46, 0.10479311, 0.15486242, -144627.28, -144627.28, 0.0, 9.994432, 10.001554 
2.025025e+3, 3.135166e+2, -634497.44, 30196.186, -21417.855, -0.118924096, 0.057582173, 30885.6, 30885.6, 0.0, 9.994208, 10.00299 
2.035189e+3, 1.2354408e+2, -1196314.6, -1750149.0, -48920.465, -0.15121931, 0.12623864, -1192026.6, 537252.8, 0.30869505, 10.006908, 9.99644 
2.0351827e+3, 1.3354133e+2, -1028658.8, -1581042.4, -20479.21, 0.032689035, 0.13053319, -1027900.6, 603405.4, 0.2226002, 10.006591, 9.997167 
2.0351744e+3, 1.435384e+2, -926238.5, -1473034.0, -52191.14, -0.015576768, 0.10629573, -921301.5, 612033.1, 0.13409205, 10.005905, 9.997529 
2.035165e+3, 1.5353613e+2, -967431.06, -1476277.5, -60744.79, -0.0640314, 0.12461769, -960280.0, 475077.13, 0.06207757, 10.004574, 9.997414 
2.0351562e+3, 1.6353388e+2, -944514.06, -1368612.6, -63242.46, -0.06060247, 0.13831581, -935284.1, 402095.28, 0.019317118, 10.003654, 9.997921 
2.0351481e+3, 1.7353156e+2, -872987.44, -1294345.6, -54648.176, 0.007627462, 0.1102212, -866015.2, 373386.97, 0.0029165214, 10.00346, 9.997851 
2.0351394e+3, 1.8352951e+2, -822853.0, -1157051.4, -74090.8, 0.0333369, 0.09727417, -807163.8, 334258.16, 0.000060399623, 10.002853, 9.998413 
2.0351297e+3, 1.9352803e+2, -920992.25, -1162096.5, -83083.984, -0.009405767, 0.10338663, -895134.8, 148300.98, 0.0, 10.001541, 9.998339 
2.0351203e+3, 2.0352641e+2, -896595.06, -1049392.1, -62186.26, -0.039930426, 0.0907798, -874485.44, 70964.76, 0.0, 10.000817, 9.99879 
2.0351116e+3, 2.1352467e+2, -759398.2, -941744.9, -51925.36, -0.048651185, 0.03379706, -745648.56, 101816.22, 0.0, 10.001126, 9.998708 
2.0351028e+3, 2.235233e+2, -720618.56, -925506.9, -112621.53, -0.031749308, 0.047636554, -670818.1, 78660.016, 0.0, 10.000949, 9.998232 
2.0350935e+3, 2.3352261e+2, -794686.44, -938078.25, -150056.7, 0.031573497, 0.1672196, -700077.44, -48588.4, 0.0, 9.999887, 9.997984 
2.0350836e+3, 2.4352151e+2, -739848.0, -686213.0, -151857.92, 0.05251419, 0.19425267, -558822.8, -5321.666, 0.0, 9.998841, 9.999543 
2.0350732e+3, 2.5351986e+2, -778583.25, -642051.6, -117288.305, -0.0087000895, 0.054358028, -574609.06, -119095.016, 0.0, 9.997849, 9.999651 
2.0350634e+3, 2.6351923e+2, -759076.75, -544089.7, -66139.75, -0.046615127, 0.012417259, -525371.8, -167853.78, 0.0, 9.99715, 9.999986 
2.0350547e+3, 2.7352023e+2, -704029.2, -484172.97, -67329.57, -0.025441688, 0.11313764, -465192.34, -205684.0, 0.0, 9.99693, 9.99983 
2.0350462e+3, 2.8352028e+2, -681296.56, -410589.03, -71674.766, -0.005261822, 0.13486125, -392783.03, -231274.36, 0.0, 9.996364, 9.999935 
2.0350376e+3, 2.9351938e+2, -747303.2, -388498.53, -108390.55, -0.025487578, 0.051521655, -358297.16, -294777.3, 0.0, 9.995223, 9.999965 
2.0350292e+3, 3.035205e+2, -660881.06, -82540.695, -118439.03, 0.008548243, 0.06712889, -59225.36, -59225.36, 0.0, 9.994439, 10.002115 
2.0350204e+3, 3.1352383e+2, -675515.6, -60433.36, -31562.793, -0.008292129, 0.18077391, -58817.965, -58817.965, 0.0, 9.994227, 10.00236 
2.0451964e+3, 1.23551734e+2, -1185465.3, -1736835.5, -25266.055, -0.10310361, 0.09093904, -1184309.9, 544894.06, 0.32398838, 10.0071535, 9.996403 
2.045189e+3, 1.3354902e+2, -1084680.5, -1612906.3, 13415.089, 0.0118076345, 0.10906766, -1084340.0, 546890.7, 0.23408177, 10.006212, 9.997069 
2.0451798e+3, 1.4354634e+2, -985998.5, -1488005.5, -13830.01, -0.041564483, 0.10946647, -985617.8, 547639.44, 0.14154898, 10.00541, 9.99765 
2.0451696e+3, 1.535441e+2, -908528.9, -1429309.3, -20888.072, -0.09486987, 0.11827415, -907692.44, 527586.7, 0.066005856, 10.004953, 9.997554 
2.0451601e+3, 1.6354193e+2, -847484.44, -1310641.5, -11675.696, -0.0772476, 0.12736505, -847190.3, 490109.97, 0.020820675, 10.004296, 9.998013 
2.0451519e+3, 1.7353971e+2, -890905.94, -1294521.0, -10249.976, 0.043934274, 0.10295841, -890645.8, 348675.4, 0.0032314712, 10.003303, 9.997926 
2.0451427e+3, 1.8353762e+2, -867238.6, -1218399.8, -38305.945, 0.08094759, 0.09619023, -863108.7, 278232.94, 0.00007073161, 10.002721, 9.998056 
2.0451318e+3, 1.9353583e+2, -759322.2, -1131216.3, -62935.754, -0.026183544, 0.11458013, -748960.25, 294399.38, 0.0, 10.002857, 9.997916 
2.0451216e+3, 2.0353396e+2, -676878.0, -962786.8, -56051.617, -0.07587419, 0.10860102, -666281.94, 279095.22, 0.0, 10.002415, 9.998613 
2.045113e+3, 2.1353205e+2, -791542.4, -972344.06, -64865.098, -0.024779852, 0.04763378, -770678.7, 76714.445, 0.0, 10.000975, 9.9985695 
2.0451036e+3, 2.2353047e+2, -873489.75, -1006224.7, -119029.99, 0.012284575, 0.052117757, -803575.25, -54167.176, 0.0, 9.999933, 9.998165 
2.0450932e+3, 2.3352955e+2, -837820.5, -965262.94, -103753.57, 0.027523477, 0.15500446, -779782.94, -128361.81, 0.0, 9.99962, 9.997926 
2.0450824e+3, 2.4352846e+2, -682657.75, -651541.9, -93426.5, 0.018471796, 0.18316339, -572386.75, -18953.488, 0.0, 9.999204, 9.999605 
2.045071e+3, 2.5352716e+2, -663625.25, -576609.56, -119916.44, -0.04203541, 0.07128228, -492552.16, -37109.254, 0.0, 9.998597, 9.999739 
2.0450607e+3, 2.635267e+2, -672798.2, -506801.0, -103647.47, -0.0637225, 0.04261321, -457015.7, -99570.13, 0.0, 9.997763, 9.999946 
2.0450518e+3, 2.7352762e+2, -768223.3, -522935.4, -99786.84, 0.0073206606, 0.14139374, -487468.78, -228031.69, 0.0, 9.996526, 9.999758 
2.0450427e+3, 2.8352755e+2, -788997.8, -448481.4, -64408.48, 0.044823, 0.1513036, -436705.8, -275267.53, 0.0, 9.995565, 10.000059 
2.0450325e+3, 2.9352635e+2, -758044.25, -369379.84, -19980.656, -0.029016785, 0.021152465, -368355.38, -304903.97, 0.0, 9.995047, 10.000179 
2.0450231e+3, 3.0352783e+2, -687501.94, -90715.69, -11997.918, -0.027360404, 0.05330205, -90474.58, -90474.58, 0.0, 9.994245, 10.002149 
2.045014e+3, 3.1353164e+2, -841425.75, -137786.56, 45346.56, -0.0036752196, 0.22416167, -134876.2, -134876.2, 0.0, 9.993085, 10.002376 
2.0552056e+3, 1.23560175e+2, -1194926.8, -1721486.1, -48224.75, 0.09996745, 0.057615068, -1190546.6, 538572.94, 0.341568, 10.007135, 9.996539 
2.0551956e+3, 1.3355757e+2, -1094643.8, -1610601.1, -11901.144, 0.058041826, 0.082802065, -1094369.4, 536776.8, 0.24703804, 10.006188, 9.997106 
2.055185e+3, 1.4355512e+2, -985679.75, -1472291.1, -30611.07, -0.05083825, 0.09837062, -983761.7, 549409.3, 0.14982748, 10.005385, 9.997794 
2.0551749e+3, 1.5355301e+2, -902368.2, -1409239.5, -33914.816, -0.07086024, 0.10583373, -900109.06, 535082.2, 0.07034066, 10.004942, 9.997708 
2.0551646e+3, 1.6355097e+2, -848540.8, -1310898.0, -44866.0, -0.050397545, 0.11951329, -844227.4, 492983.3, 0.022500273, 10.0042925, 9.9980135 
2.055155e+3, 1.7354889e+2, -892306.3, -1300136.0, -46182.324, 0.02619462, 0.10901713, -887142.06, 352088.3, 0.0035987236, 10.003312, 9.997884 
2.0551448e+3, 1.8354659e+2, -903098.7, -1295207.4, -38454.39, 0.024302406, 0.108060054, -899363.06, 241890.1, 0.0000853102, 10.002729, 9.997526 
2.0551337e+3, 1.9354416e+2, -803757.8, -1221714.3, -54842.46, -0.11030202, 0.12290478, -796681.4, 246597.69, 0.0, 10.002849, 9.9973 
2.0551233e+3, 2.03542e+2, -706507.25, -1022757.44, -101027.445, -0.1384251, 0.13986005, -676988.9, 268312.03, 0.0, 10.002406, 9.998206 
2.0551145e+3, 2.1354033e+2, -818107.94, -1027780.25, -116642.0, 0.016980277, 0.14262266, -766113.06, 81202.164, 0.0, 10.000974, 9.99819 
2.0551042e+3, 2.2353838e+2, -836585.56, -931880.3, -135444.42, 0.081012055, 0.11016262, -740652.1, 8680.319, 0.0, 9.999942, 9.9986725 
2.0550923e+3, 2.3353605e+2, -791264.8, -869188.0, -113036.21, -0.0120881945, 0.0066350973, -710663.9, -59310.04, 0.0, 9.99962, 9.998586 
2.0550805e+3, 2.4353479e+2, -718685.06, -726239.56, -114886.01, -0.07020675, 0.0011392677, -607514.25, -54147.926, 0.0, 9.999202, 9.999093 
2.0550694e+3, 2.535354e+2, -715149.56, -683364.8, -141730.22, -0.06925884, 0.148555, -556638.75, -101275.46, 0.0, 9.998595, 9.999007 
2.0550588e+3, 2.6353538e+2, -680046.9, -522291.56, -147804.89, -0.028585177, 0.21135615, -433634.25, -76269.26, 0.0, 9.997764, 9.999841 
2.0550491e+3, 2.7353436e+2, -762778.06, -514648.16, -146041.83, 0.086408384, 0.11955095, -447087.63, -187713.45, 0.0, 9.996536, 9.999811 
2.0550388e+3, 2.835341e+2, -706913.4, -281102.03, -88455.41, 0.1072415, 0.05314072, -263457.94, -102082.73, 0.0, 9.995577, 10.001204 
2.0550276e+3, 2.9353502e+2, -674647.8, -202163.16, -38646.29, -0.05415013, 0.009725268, -199023.0, -135659.8, 0.0, 9.9950695, 10.001318 
2.0550178e+3, 3.0353743e+2, -730503.8, -178185.5, -62055.25, 0.001351714, 0.10222333, -171299.19, -171299.19, 0.0, 9.994239, 10.001551 
2.0550062e+3, 3.135392e+2, -828160.4, -119698.875, 42940.395, -0.10973108, 0.1355155, -117105.72, -117105.72, 0.0, 9.993111, 10.002497 
2.0652132e+3, 1.2357024e+2, -1203395.3, -1714816.4, -8105.7017, 0.12461104, 0.054239135, -1203266.9, 525754.0, 0.36109298, 10.0071945, 9.996584 
2.0652017e+3, 1.3356777e+2, -1121244.4, -1617226.3, 25590.549, 0.054382917, 0.09243692, -1119927.5, 511118.8, 0.26133245, 10.006027, 9.997126 
2.0651902e+3, 1.4356531e+2, -1025349.1, -1498482.0, 27027.44, -0.04552569, 0.11016717, -1023810.25, 509261.0, 0.1589268, 10.005156, 9.997697 
2.06518e+3, 1.5356284e+2, -915388.75, -1427914.8, 12268.754, -0.04429093, 0.09512674, -915095.2, 519999.44, 0.075127, 10.004928, 9.997579 
2.0651694e+3, 1.6356054e+2, -814499.8, -1324065.0, -24929.148, -0.025954872, 0.101281755, -813283.1, 523833.66, 0.024391482, 10.004668, 9.997741 
2.0651586e+3, 1.7355844e+2, -764153.7, -1269786.4, -47272.973, 0.006553748, 0.118582696, -759772.0, 479365.16, 0.004033333, 10.004335, 9.997599 
2.0651478e+3, 1.8355602e+2, -759169.8, -1240057.4, -27740.201, -0.006589278, 0.12648089, -757574.94, 383586.2, 0.00010634207, 10.003782, 9.997396 
2.0651367e+3, 1.935532e+2, -807708.44, -1236049.8, -8283.101, -0.095540695, 0.113264926, -807548.3, 235641.5, 0.0, 10.002872, 9.99719 
2.065126e+3, 2.0355076e+2, -766445.94, -1090664.4, -45787.605, -0.1067225, 0.12298306, -760103.7, 185110.78, 0.0, 10.002161, 9.997859 
2.0651157e+3, 2.13549e+2, -722071.25, -1024864.9, -68246.24, 0.01631806, 0.15595935, -707400.1, 139831.5, 0.0, 10.001821, 9.997802 
2.0651047e+3, 2.2354701e+2, -646859.1, -814841.6, -91663.29, 0.0603914, 0.13100556, -606525.44, 142724.23, 0.0, 10.001136, 9.9989 
2.0650917e+3, 2.3354466e+2, -730564.56, -802184.8, -93455.055, -0.032832418, -0.0048286445, -666293.6, -15025.095, 0.0, 9.999878, 9.9989195 
2.0650797e+3, 2.4354333e+2, -807998.7, -793562.7, -99106.02, -0.07948612, -0.029485898, -701412.2, -148131.33, 0.0, 9.998696, 9.998874 
2.0650679e+3, 2.535437e+2, -874543.25, -796051.4, -98290.195, -0.040208813, 0.1281715, -729461.56, -274180.03, 0.0, 9.997658, 9.998685 
2.0650564e+3, 2.6354367e+2, -810561.25, -569975.1, -79899.84, 0.0170007, 0.20206368, -545857.7, -188573.27, 0.0, 9.996804, 9.999974 
2.0650457e+3, 2.7354285e+2, -789884.4, -503604.1, -65332.188, 0.098837994, 0.109982684, -489399.4, -230108.05, 0.0, 9.996248, 10.000026 
2.0650342e+3, 2.835428e+2, -690570.4, -235205.31, -22525.553, 0.07624563, 0.03912357, -234093.75, -72803.9, 0.0, 9.995528, 10.001541 
2.0650217e+3, 2.9354426e+2, -734637.06, -201358.02, -44242.906, -0.10842278, 0.012322608, -197712.38, -134439.81, 0.0, 9.994535, 10.001578 
2.0650122e+3, 3.0354732e+2, -780497.9, -198652.45, -79739.5, 0.0316396, 0.16386311, -187922.38, -187922.38, 0.0, 9.993883, 10.001579 
2.0649998e+3, 3.1354663e+2, -800272.56, -121822.29, 52585.836, -0.05954779, -0.06013251, -117770.625, -117770.625, 0.0, 9.993368, 10.002358 
2.0752187e+3, 1.2358195e+2, -1224794.5, -1719089.3, -32940.957, -0.034217745, 0.09200138, -1222608.9, 506298.66, 0.38176423, 10.007155, 9.99656 
2.0752071e+3, 1.3357958e+2, -1133075.6, -1619664.4, -5734.9614, -0.010085314, 0.14066255, -1133008.0, 497923.7, 0.27657285, 10.006023, 9.997107 
2.0751956e+3, 1.4357686e+2, -1048991.0, -1541536.3, 14859.235, -0.04023761, 0.14881521, -1048543.2, 484415.4, 0.16874057, 10.005174, 9.997351 
2.075185e+3, 1.535735e+2, -943312.75, -1487275.3, 6510.8477, -0.020850912, 0.08434267, -943234.8, 491755.88, 0.08038112, 10.00494, 9.997163 
2.0751743e+3, 1.6357054e+2, -849830.06, -1398599.1, -35844.15, -0.008116219, 0.070678525, -847498.7, 489520.9, 0.026525633, 10.004675, 9.997227 
2.0751628e+3, 1.7356832e+2, -799862.25, -1345234.5, -57203.223, -0.020351756, 0.13061897, -793926.9, 445115.2, 0.004550763, 10.004339, 9.997081 
2.0751514e+3, 1.8356584e+2, -741564.1, -1204806.5, -57624.023, -0.019418465, 0.15069087, -734503.75, 406562.4, 0.00013656868, 10.003785, 9.997638 
2.0751406e+3, 1.9356288e+2, -782450.4, -1183750.8, -40098.39, 0.007561697, 0.08842645, -778482.94, 264609.6, 0.0000000002137382, 10.0028715, 9.997551 
2.0751292e+3, 2.0356016e+2, -788150.9, -1135727.5, -60764.17, 0.009963379, 0.06247942, -777834.1, 167284.56, 0.0, 10.002159, 9.997551 
2.0751172e+3, 2.1355794e+2, -754835.25, -1089041.9, -78150.766, -0.029615846, 0.09077756, -737463.44, 109679.97, 0.0, 10.0018015, 9.997372 
2.0751047e+3, 2.2355619e+2, -651430.7, -821488.56, -133299.22, -0.05019212, 0.11652006, -578350.2, 170810.78, 0.0, 10.0011215, 9.998862 
2.0750917e+3, 2.3355524e+2, -730584.2, -801237.2, -138671.78, -0.04089406, 0.11629485, -622809.94, 28356.629, 0.0, 9.999872, 9.99893 
2.0750788e+3, 2.4355386e+2, -803292.6, -785126.1, -139668.13, -0.017996466, 0.08677081, -654246.2, -101067.94, 0.0, 9.998701, 9.998931 
2.0750661e+3, 2.5355196e+2, -868453.3, -786288.2, -136785.84, 0.036010895, 0.011619515, -684548.7, -229349.88, 0.0, 9.997668, 9.998748 
2.0750539e+3, 2.6355147e+2, -784945.4, -519024.75, -103907.5, 0.06894336, 0.020067398, -483239.06, -126034.29, 0.0, 9.996813, 10.00032 
2.0750412e+3, 2.7355292e+2, -761829.5, -449359.9, -85157.414, 0.04267955, 0.11550084, -427659.06, -168469.1, 0.0, 9.9962635, 10.000391 
2.0750283e+3, 2.8355348e+2, -723041.2, -306523.7, -61388.28, -0.054239318, 0.1030357, -297664.44, -136480.05, 0.0, 9.995543, 10.001046 
2.0750152e+3, 2.9355365e+2, -776002.5, -292526.38, -83849.04, -0.21273537, 0.0143999765, -278397.38, -215214.8, 0.0, 9.994555, 10.000944 
2.0750064e+3, 3.0355763e+2, -732279.4, -99547.875, -96518.625, 0.07245798, 0.2600293, -85152.18, -85152.18, 0.0, 9.99389, 10.002256 
2.0749946e+3, 3.1355652e+2, -818094.4, -161847.3, -65832.52, 0.07997799, -0.08582393, -155308.36, -155308.36, 0.0, 9.9933815, 10.002077 
2.0852253e+3, 1.2359418e+2, -1238738.4, -1723347.4, -21052.678, -0.071613036, 0.11833046, -1237825.5, 490963.72, 0.4025165, 10.007224, 9.996483 
2.0852134e+3, 1.335915e+2, -1044729.3, -1580403.0, 1660.1172, -0.02165885, 0.14836508, -1044724.1, 586091.6, 0.29221648, 10.007033, 9.997003 
2.0852014e+3, 1.4358883e+2, -890527.2, -1478577.4, 29675.213, -0.04094318, 0.17419533, -889033.44, 643808.75, 0.17909643, 10.006646, 9.997152 
2.0851907e+3, 1.5358534e+2, -828839.25, -1448018.4, 37160.285, 0.002521484, 0.11665453, -826617.0, 608258.56, 0.08609992, 10.005921, 9.996961 
2.0851794e+3, 1.6358203e+2, -776441.56, -1393024.0, 19981.572, 0.016764445, 0.093564376, -775794.7, 561113.06, 0.028932074, 10.00534, 9.996943 
2.0851672e+3, 1.7357925e+2, -719004.44, -1340039.0, 13986.18, -0.034155145, 0.12449997, -718689.6, 520246.25, 0.005167911, 10.005045, 9.996777 
2.0851552e+3, 1.8357639e+2, -644837.1, -1168188.0, -7234.5815, -0.043854397, 0.12971942, -644737.1, 496225.97, 0.00017940845, 10.004492, 9.99755 
2.0851438e+3, 1.9357346e+2, -690966.1, -1144206.4, -25249.816, 0.020678833, 0.07493095, -689563.8, 353424.66, 0.000000020841018, 10.003522, 9.997508 
2.0851319e+3, 2.0357074e+2, -748171.7, -1113556.8, -46975.805, 0.043482635, 0.05126465, -742228.9, 202785.14, 0.0, 10.002426, 9.997572 
2.0851189e+3, 2.1356848e+2, -845767.8, -1128532.3, -31712.492, -0.0059802877, 0.07355166, -842254.8, 4784.231, 0.0, 10.0011635, 9.997406 
2.0851055e+3, 2.2356676e+2, -805744.9, -928460.1, -74490.62, -0.031016277, 0.11153203, -770595.44, -21538.336, 0.0, 10.000204, 9.998569 
2.0850918e+3, 2.3356587e+2, -769012.4, -859391.25, -109155.34, -0.0133179, 0.15458743, -696062.2, -44998.273, 0.0, 9.99978, 9.998575 
2.085078e+3, 2.4356446e+2, -718393.2, -719052.8, -122509.59, 0.0068807444, 0.1304012, -596212.94, -43136.45, 0.0, 9.999174, 9.999157 
2.0850642e+3, 2.5356227e+2, -758629.6, -696303.75, -102084.445, 0.040461093, -0.0038698323, -620731.7, -165634.16, 0.0, 9.998262, 9.999079 
2.0850508e+3, 2.635618e+2, -705657.2, -485881.6, -59643.953, 0.04991673, -0.011357992, -470738.47, -113636.15, 0.0, 9.997379, 10.000275 
2.0850371e+3, 2.735637e+2, -730580.94, -448116.8, -77218.695, 0.00007559256, 0.14319725, -428385.47, -169301.4, 0.0, 9.99654, 10.000265 
2.0850234e+3, 2.8356433e+2, -747775.9, -326300.53, -80199.79, -0.08416477, 0.14940922, -311555.7, -150476.73, 0.0, 9.995405, 10.0009775 
2.0850098e+3, 2.9356402e+2, -912231.94, -366754.8, -67649.02, -0.17105515, 0.01636406, -358490.34, -295406.63, 0.0, 9.993655, 10.000871 
2.0849998e+3, 3.0356798e+2, -910308.4, -155982.19, -30297.25, 0.09496763, 0.25341752, -154767.27, -154767.27, 0.0, 9.992539, 10.002521 
2.0849878e+3, 3.1356886e+2, -862187.44, -68811.43, -71642.016, 0.0909691, 0.072324716, -62394.05, -62394.05, 0.0, 9.992587, 10.0030985 
2.0952332e+3, 1.23606876e+2, -1264098.9, -1743188.9, -31968.531, -0.01968372, 0.13691905, -1261975.1, 466690.88, 0.42234656, 10.007175, 9.996361 
2.0952207e+3, 1.3360356e+2, -1069836.4, -1603410.8, -1147.6664, 0.0070182746, 0.119952, -1069834.0, 560864.94, 0.30777475, 10.007012, 9.996796 
2.095208e+3, 1.4360112e+2, -902494.8, -1484886.1, 9880.152, -0.05474272, 0.18603429, -902327.25, 630395.7, 0.1898592, 10.006634, 9.997112 
2.0951968e+3, 1.5359826e+2, -830552.2, -1444685.1, 14222.203, 0.017061781, 0.1890106, -830223.0, 604527.3, 0.0923025, 10.005929, 9.996979 
2.095185e+3, 1.6359495e+2, -783099.4, -1406563.5, 7687.263, 0.039957978, 0.16716692, -783004.6, 553777.56, 0.031653404, 10.005348, 9.996848 
2.0951724e+3, 1.7359108e+2, -727709.4, -1357569.1, 5109.871, -0.03962872, 0.10238068, -727667.94, 511151.56, 0.0059085614, 10.005044, 9.996658 
2.0951594e+3, 1.8358757e+2, -674154.6, -1227988.8, -39482.8, -0.0824996, 0.06788188, -671354.06, 469498.7, 0.00023993035, 10.004485, 9.997144 
2.0951468e+3, 1.935848e+2, -724412.94, -1211871.1, -59447.484, -0.057337515, 0.07248692, -717267.8, 325610.75, 0.00000014078343, 10.003512, 9.997049 
2.0951338e+3, 2.0358233e+2, -723208.25, -1062192.0, -92481.016, -0.007492717, 0.08635696, -699619.25, 245282.38, 0.0, 10.002427, 9.997926 
2.0951208e+3, 2.1358049e+2, -811325.5, -1058335.5, -76604.92, 0.0793593, 0.10213797, -789497.06, 57422.86, 0.0, 10.001166, 9.997887 
2.0951071e+3, 2.2357857e+2, -843983.7, -1009464.56, -93902.97, 0.1087836, 0.115832, -801569.2, -52629.664, 0.0, 10.00021, 9.998011 
2.0950921e+3, 2.3357649e+2, -821641.75, -968239.75, -122567.57, 0.042398326, 0.1128148, -752127.75, -101166.266, 0.0, 9.999776, 9.99783 
2.0950772e+3, 2.4357498e+2, -690381.25, -660456.3, -154804.5, -0.008455257, 0.10533056, -519892.88, 33083.508, 0.0, 9.999172, 9.99956 
2.0950618e+3, 2.535745e+2, -716582.8, -611019.9, -135887.23, -0.032049667, 0.08114404, -518023.38, -63044.457, 0.0, 9.99827, 9.999662 
2.0950471e+3, 2.6357445e+2, -735113.9, -549241.4, -93243.33, -0.045350976, 0.10269421, -510528.6, -153549.78, 0.0, 9.997388, 9.999836 
2.0950334e+3, 2.7357504e+2, -771602.0, -537230.25, -108185.52, -0.038204845, 0.18483162, -494927.44, -235951.83, 0.0, 9.996555, 9.999647 
2.0950195e+3, 2.835754e+2, -722971.5, -275490.4, -143326.97, -0.016998693, 0.18227263, -233519.73, -72545.41, 0.0, 9.995408, 10.001325 
2.0950054e+3, 2.9357544e+2, -876530.4, -293070.75, -134630.34, 0.017229667, 0.0395692, -263503.78, -200528.89, 0.0, 9.993657, 10.001376 
2.0949923e+3, 3.0357784e+2, -918064.06, -175741.1, -39459.82, 0.07940483, 0.10466665, -173649.4, -173649.4, 0.0, 9.992553, 10.00238 
2.0949794e+3, 3.1358117e+2, -674815.7, 308478.3, -55114.465, -0.003719273, 0.17727067, 311557.88, 311557.88, 0.0, 9.992638, 10.005666 
2.1052405e+3, 1.2362087e+2, -1253891.5, -1703256.0, -3312.11, -0.013263204, 0.15538661, -1253867.0, 474661.8, 0.440742, 10.007332, 9.996676 
2.1052277e+3, 1.3361683e+2, -1092890.9, -1622050.8, 58554.652, 0.010165926, 0.07781334, -1086488.9, 544079.4, 0.3230529, 10.006987, 9.996624 
2.1052146e+3, 1.436142e+2, -906699.3, -1507903.4, 72361.57, -0.07130388, 0.14763993, -898112.44, 634481.6, 0.20103441, 10.006806, 9.996835 
2.1052031e+3, 1.5361135e+2, -746653.2, -1428972.6, 61233.71, 0.019796643, 0.17964323, -741201.44, 693420.44, 0.0990616, 10.006738, 9.996701 
2.1051909e+3, 1.6360803e+2, -664846.75, -1364807.9, 36051.543, 0.0545752, 0.18186042, -662994.8, 673659.3, 0.034752168, 10.006281, 9.996685 
2.1051775e+3, 1.7360416e+2, -708119.7, -1362372.1, 29868.77, -0.030004734, 0.13034856, -706758.94, 531932.8, 0.0068055904, 10.005248, 9.996527 
2.1051638e+3, 1.8360052e+2, -711109.56, -1266339.9, -11532.298, -0.07628688, 0.09629824, -710870.1, 429856.5, 0.00032650487, 10.004324, 9.996956 
2.1051504e+3, 1.9359732e+2, -718658.3, -1231713.6, -15103.555, -0.051652495, 0.08131583, -718214.06, 324542.28, 0.00000068550696, 10.003651, 9.996846 
2.1051365e+3, 2.035947e+2, -646906.25, -1032295.3, -53221.84, -0.004400305, 0.091370896, -639691.44, 305089.72, 0.0, 10.002981, 9.997864 
2.1051225e+3, 2.13593e+2, -643478.1, -982107.3, -78907.586, 0.07852247, 0.12750298, -625993.8, 220803.84, 0.0, 10.00234, 9.997844 
2.1051079e+3, 2.2359096e+2, -673029.8, -929100.25, -99985.5, 0.108060494, 0.13292441, -638614.7, 110203.37, 0.0, 10.001394, 9.997991 
2.1050921e+3, 2.3358834e+2, -798832.06, -958233.2, -76611.29, 0.050344035, 0.07631748, -767981.9, -117137.15, 0.0, 9.999941, 9.997818 
2.1050759e+3, 2.4358682e+2, -759235.4, -700659.4, -87328.05, -0.009573633, 0.07300388, -637838.9, -84979.25, 0.0, 9.998732, 9.9994955 
2.1050596e+3, 2.5358722e+2, -771024.94, -646470.6, -117579.09, -0.07096028, 0.14330527, -575694.06, -120839.07, 0.0, 9.997939, 9.999577 
2.105044e+3, 2.6358715e+2, -802448.8, -573556.75, -95969.44, -0.088084005, 0.16701977, -538644.06, -181788.8, 0.0, 9.996889, 9.99991 
2.1050295e+3, 2.7358654e+2, -930932.8, -602807.44, -60978.105, -0.024402821, 0.11814397, -591841.8, -332978.88, 0.0, 9.995412, 9.999749 
2.1050149e+3, 2.8358713e+2, -852115.1, -300900.44, -61742.445, 0.027293969, 0.11984238, -294069.22, -133210.7, 0.0, 9.994363, 10.001655 
2.1049996e+3, 2.9358917e+2, -810742.1, -223699.78, -64282.574, 0.05220114, 0.14132181, -216743.13, -153903.69, 0.0, 9.993945, 10.001714 
2.1049851e+3, 3.0358988e+2, -822935.2, -175115.2, 44407.86, 0.058641132, 0.034999944, -172085.23, -172085.23, 0.0, 9.9934025, 10.001975 
2.1049717e+3, 3.1359303e+2, -672900.9, 278202.28, 25132.514, -0.03961691, 0.14113209, 278865.94, 278865.94, 0.0, 9.992793, 10.005381 
2.1152472e+3, 1.23635955e+2, -1252753.6, -1655966.8, -43903.164, -0.072246335, 0.16342312, -1248028.6, 480351.16, 0.45801598, 10.007209, 9.997343 
2.1152344e+3, 1.3363124e+2, -1113043.9, -1641469.6, 54405.027, -0.02153884, 0.02188357, -1107500.6, 522924.34, 0.3383374, 10.0069685, 9.996491 
2.1152209e+3, 1.43628e+2, -943281.06, -1581761.4, 69951.29, -0.09978174, 0.065606035, -935707.1, 596749.1, 0.21284175, 10.006829, 9.996291 
2.1152097e+3, 1.5362458e+2, -786438.75, -1512723.0, 60681.31, 0.005682353, 0.096178286, -781403.75, 653086.94, 0.1065218, 10.006755, 9.9961195 
2.1151973e+3, 1.6362126e+2, -681581.6, -1396902.5, 3555.9336, 0.054850776, 0.14251779, -681564.0, 654960.0, 0.038314052, 10.006285, 9.996464 
2.1151829e+3, 1.7361838e+2, -718435.9, -1384191.6, -6966.769, -0.012672211, 0.20583627, -718363.0, 520190.78, 0.007902704, 10.005252, 9.996375 
2.1151687e+3, 1.8361503e+2, -708991.06, -1263384.8, -38056.75, -0.03376022, 0.20841537, -706390.9, 434195.44, 0.0004527511, 10.004328, 9.996976 
2.1151547e+3, 1.9361095e+2, -716470.94, -1226111.4, -37461.15, 0.02822503, 0.10015969, -713732.06, 328891.03, 0.0000024075175, 10.003645, 9.996888 
2.11514e+3, 2.0360771e+2, -681496.2, -1102962.8, -76190.37, 0.046532266, 0.06819101, -668145.8, 276507.7, 0.0, 10.002974, 9.997384 
2.115124e+3, 2.1360594e+2, -685959.5, -1067453.6, -99769.734, -0.011693091, 0.15167566, -661442.9, 185230.2, 0.0, 10.002326, 9.997267 
2.1151079e+3, 2.2360384e+2, -637804.8, -854885.8, -149625.94, -0.03297328, 0.16385442, -561496.8, 187196.64, 0.0, 10.001388, 9.998505 
2.1150915e+3, 2.3360126e+2, -749559.44, -857267.4, -129725.805, 0.0070174844, 0.044376068, -662953.3, -12238.251, 0.0, 9.999945, 9.99851 
2.1150747e+3, 2.4359983e+2, -795618.0, -777399.6, -120913.57, -0.0012186448, 0.03096284, -665252.6, -112524.67, 0.0, 9.998736, 9.998966 
2.1150574e+3, 2.5360027e+2, -823049.6, -756583.8, -146752.1, -0.08287977, 0.17943878, -639348.8, -184621.56, 0.0, 9.997947, 9.998817 
2.1150407e+3, 2.6359984e+2, -760956.25, -488685.0, -149680.94, -0.08287075, 0.18375118, -422490.94, -65758.37, 0.0, 9.996894, 10.000491 
2.1150254e+3, 2.7359816e+2, -871211.56, -482100.75, -116569.88, 0.031724636, -0.04764476, -449851.53, -191105.2, 0.0, 9.995424, 10.000572 
2.1150093e+3, 2.8359944e+2, -828076.8, -254620.14, -83296.77, 0.03892523, -0.041232105, -242766.0, -82033.07, 0.0, 9.994376, 10.001967 
2.1149921e+3, 2.9360488e+2, -795461.94, -198963.33, -79000.18, -0.072424516, 0.29553628, -188677.9, -125997.195, 0.0, 9.993972, 10.001872 
2.114978e+3, 3.0360433e+2, -876151.25, -284524.22, 14165.083, 0.03186946, 0.08598944, -284185.28, -284185.28, 0.0, 9.993402, 10.001223 
2.1149653e+3, 3.1360555e+2, -907654.56, -214461.48, 59750.28, 0.028219381, 0.100966945, -209348.97, -209348.97, 0.0, 9.992811, 10.00199 
2.1252537e+3, 1.23651944e+2, -1441557.0, -1714616.5, -11392.981, -0.02170443, 0.13617004, -1441082.5, 287139.53, 0.47537085, 10.004705, 9.997815 
2.1252418e+3, 1.3364719e+2, -1128691.1, -1702422.1, 130624.88, -0.0023891127, 0.027720602, -1100350.9, 529916.6, 0.35445002, 10.007161, 9.996055 
2.1252288e+3, 1.4364347e+2, -801520.0, -1531633.4, 105421.41, -0.09546791, 0.06486447, -786602.94, 745700.7, 0.225744, 10.008355, 9.995914 
2.1252166e+3, 1.536394e+2, -711364.94, -1506521.9, 109769.21, -0.027298214, 0.06758918, -696489.9, 737854.0, 0.11491099, 10.007547, 9.995787 
2.1252033e+3, 1.636357e+2, -653131.6, -1417398.8, 51250.527, 0.016607903, 0.10555113, -649710.2, 686671.25, 0.0424542, 10.00667, 9.996137 
2.1251884e+3, 1.7363273e+2, -652724.2, -1389992.6, 25819.838, -0.007197468, 0.19519006, -651821.06, 586591.9, 0.009259498, 10.005878, 9.996033 
2.1251734e+3, 1.8362932e+2, -617911.1, -1211566.8, -12281.189, -0.0134430565, 0.21012765, -617657.2, 522788.84, 0.00064069073, 10.004923, 9.997045 
2.1251582e+3, 1.9362521e+2, -698156.3, -1202841.4, -8155.686, 0.015053603, 0.08711239, -698024.56, 344457.28, 0.0000069974976, 10.00371, 9.997016 
2.1251425e+3, 2.0362177e+2, -734697.3, -1159667.4, -23893.807, 0.015828695, 0.04039364, -733358.1, 211155.61, 0.0, 10.002745, 9.997103 
2.125126e+3, 2.1361956e+2, -725227.8, -1124881.5, -30324.209, -0.031662874, 0.11388294, -722940.0, 123598.625, 0.0, 10.002225, 9.99692 
2.1251091e+3, 2.2361743e+2, -619864.8, -830280.9, -104966.086, -0.044790093, 0.13537537, -576457.2, 172102.44, 0.0, 10.001446, 9.998644 
2.1250916e+3, 2.3361541e+2, -690857.7, -804916.6, -125079.1, -0.0021454839, 0.053045277, -610420.3, 40154.21, 0.0, 10.000247, 9.998723 
2.1250735e+3, 2.4361399e+2, -766489.1, -782495.6, -113228.055, -0.0067011486, 0.03394118, -660981.8, -108394.79, 0.0, 9.999019, 9.9987955 
2.1250552e+3, 2.536135e+2, -866662.3, -804110.9, -101889.61, -0.074458964, 0.11414337, -728804.9, -274208.84, 0.0, 9.997763, 9.998579 
2.1250379e+3, 2.6361302e+2, -772080.56, -455242.5, -94250.016, -0.06521038, 0.11139244, -429325.8, -72723.75, 0.0, 9.996653, 10.000836 
2.125021e+3, 2.736125e+2, -800757.5, -397777.9, -91443.79, 0.0361763, -0.048288032, -377998.4, -119394.984, 0.0, 9.995695, 10.001019 
2.1250036e+3, 2.8361398e+2, -792201.1, -258133.69, -67691.22, 0.013470244, -0.036405668, -249687.63, -89100.11, 0.0, 9.994714, 10.001779 
2.1249856e+3, 2.9361874e+2, -828298.6, -251870.52, -99351.5, -0.11821404, 0.2630849, -235227.13, -172683.86, 0.0, 9.993911, 10.001536 
2.1249714e+3, 3.036189e+2, -869397.1, -269285.5, -8005.7495, 0.026337085, 0.13721116, -269178.72, -269178.72, 0.0, 9.993392, 10.001333 
2.1249582e+3, 3.136201e+2, -1030438.44, -285917.6, 107521.016, 0.08882601, 0.1296447, -270700.8, -270700.8, 0.0, 9.992014, 10.001886 
2.1352595e+3, 1.23668745e+2, -1430296.8, -1691248.4, -10703.292, 0.097493775, 0.077830404, -1429858.4, 298198.06, 0.4947151, 10.004888, 9.998051 
2.1352495e+3, 1.3366455e+2, -1173476.3, -1816073.5, 203726.56, 0.053534623, 0.09187844, -1114331.4, 515765.72, 0.3725917, 10.007244, 9.995309 
2.1352373e+3, 1.4366041e+2, -829655.9, -1563622.4, 90294.26, -0.0711368, 0.1398373, -818710.9, 713426.44, 0.24035306, 10.008326, 9.995704 
2.1352236e+3, 1.5365568e+2, -726658.06, -1519976.5, 80698.195, -0.084142186, 0.08825263, -718532.5, 715650.5, 0.12451265, 10.00753, 9.995699 
2.1352093e+3, 1.6365118e+2, -688043.2, -1484268.9, 21575.266, -0.06380207, 0.070243046, -687459.0, 648768.6, 0.047320616, 10.00666, 9.995682 
2.1351944e+3, 1.7364714e+2, -690384.6, -1467597.8, -928.2922, -0.01709309, 0.10483859, -690383.5, 547886.25, 0.010958825, 10.005879, 9.995501 
2.1351781e+3, 1.8364339e+2, -610181.56, -1197953.8, -54133.156, -0.017733682, 0.109743506, -605237.56, 535068.6, 0.0009253639, 10.004932, 9.997134 
2.1351609e+3, 1.9364005e+2, -683514.44, -1174889.5, -51584.145, -0.09145018, 0.046426848, -678157.56, 364175.88, 0.000018747287, 10.003719, 9.997205 
2.135144e+3, 2.0363681e+2, -739508.6, -1172031.5, -46361.363, -0.096943274, 0.010322725, -734595.0, 209767.92, 0.0, 10.002752, 9.997015 
2.1351287e+3, 2.1363376e+2, -734852.7, -1144259.9, -46821.152, 0.011791167, 0.014832214, -729566.3, 116829.33, 0.0, 10.00222, 9.99679 
2.1351115e+3, 2.2363156e+2, -637366.6, -865265.94, -145925.22, 0.06387556, 0.04710368, -566171.25, 182246.77, 0.0, 10.001438, 9.998407 
2.135092e+3, 2.3363067e+2, -710240.6, -844655.56, -168688.53, 0.01537344, 0.102239996, -595864.3, 54559.973, 0.0, 10.000242, 9.998453 
2.1350722e+3, 2.4362917e+2, -753219.06, -756353.06, -161175.69, -0.030674472, 0.08374766, -593602.75, -41164.836, 0.0, 9.999023, 9.998974 
2.1350533e+3, 2.536268e+2, -846765.7, -765936.8, -148261.03, -0.053849794, -0.048777774, -652680.6, -198218.25, 0.0, 9.997774, 9.998837 
2.1350347e+3, 2.6362652e+2, -762861.94, -438218.97, -132980.7, -0.042403404, -0.049660802, -390702.13, -34237.11, 0.0, 9.99666, 10.00095 
2.1350163e+3, 2.7362928e+2, -793706.0, -387385.5, -129912.805, -0.015141924, 0.108553916, -349399.7, -90963.47, 0.0, 9.995711, 10.001082 
2.1349978e+3, 2.836306e+2, -842153.0, -363832.53, -103514.27, -0.05100837, 0.13338538, -342391.88, -181968.13, 0.0, 9.994723, 10.001048 
2.1349797e+3, 2.9363075e+2, -884480.25, -371453.38, -123008.84, -0.0939504, 0.055232123, -343484.25, -281056.72, 0.0, 9.993922, 10.000711 
2.1349649e+3, 3.036332e+2, -787954.9, -103074.59, -36860.26, 0.031849332, 0.1634963, -101096.49, -101096.49, 0.0, 9.993402, 10.002471 
2.1349494e+3, 3.1363356e+2, -800222.7, 192821.36, -18313.967, -0.0040948396, -0.073323585, 193159.0, 193159.0, 0.0, 9.992016, 10.00517 
2.1452583e+3, 1.3368171e+2, -826489.94, -1563510.8, 122907.4, -0.004363913, 0.18092458, -806533.94, 823395.6, 0.3936756, 10.01132, 9.995206 
2.1452457e+3, 1.4367677e+2, -928849.7, -1605232.9, 67341.12, -0.019423462, 0.15140823, -922210.3, 609766.94, 0.25706396, 10.007506, 9.995802 
2.1452308e+3, 1.5367231e+2, -802219.25, -1542587.1, 75960.586, -0.08611177, 0.11350731, -794506.1, 639514.1, 0.13553965, 10.00694, 9.995826 
2.1452156e+3, 1.6366778e+2, -701856.4, -1474560.6, 43855.434, -0.08742168, 0.081053264, -699375.3, 636689.06, 0.05307408, 10.00653, 9.99581 
2.1452004e+3, 1.7366323e+2, -640879.56, -1429547.6, 66648.74, -0.007814896, 0.05115618, -635286.9, 602823.0, 0.013111003, 10.00618, 9.995615 
2.1451838e+3, 1.8365924e+2, -528212.2, -1198879.6, 13267.278, -0.0033739116, 0.043890033, -527949.9, 612198.44, 0.0013600686, 10.005677, 9.996767 
2.145165e+3, 1.9365625e+2, -532361.4, -1151218.9, -31702.959, -0.11900893, 0.05891878, -530741.56, 511432.94, 0.000047641508, 10.004972, 9.996761 
2.1451472e+3, 2.0365308e+2, -563585.9, -1071745.6, -49027.855, -0.13135403, 0.050105628, -558898.8, 385305.03, 0.0000000013270797, 10.003898, 9.997151 
2.1451311e+3, 2.1364965e+2, -714890.44, -1109921.5, -27758.13, 0.028967952, -0.005504699, -712949.44, 133288.75, 0.0, 10.002253, 9.997008 
2.1451133e+3, 2.2364718e+2, -713181.06, -933679.2, -103708.12, 0.09301002, -0.0013516037, -672068.9, 76193.78, 0.0, 10.001055, 9.998123 
2.145092e+3, 2.336462e+2, -679757.2, -870172.9, -132510.44, -0.006908846, 0.08253321, -611797.8, 38473.684, 0.0, 10.000627, 9.998093 
2.1450713e+3, 2.4364476e+2, -642182.0, -676380.3, -148857.69, -0.060089342, 0.08050245, -509444.6, 42840.336, 0.0, 9.999673, 9.999208 
2.1450512e+3, 2.5364262e+2, -812750.2, -711606.9, -134740.25, -0.024315914, -0.06072265, -618260.44, -163955.1, 0.0, 9.997845, 9.999175 
2.1450315e+3, 2.6364237e+2, -814584.3, -500083.22, -103294.88, -0.0021863512, -0.06424222, -469191.38, -112884.47, 0.0, 9.996464, 10.000619 
2.145012e+3, 2.7364486e+2, -804236.5, -443471.03, -137206.78, -0.02079994, 0.111331545, -397218.3, -138936.53, 0.0, 9.995858, 10.000628 
2.1449925e+3, 2.8364572e+2, -818684.56, -370804.75, -124386.36, -0.055742975, 0.123123854, -338578.6, -178304.16, 0.0, 9.994963, 10.000885 
2.1449736e+3, 2.936449e+2, -942521.94, -405075.25, -84821.39, -0.06950666, -0.03836611, -392006.28, -329719.03, 0.0, 9.993548, 10.00066 
2.1449575e+3, 3.0364808e+2, -919192.9, -102724.66, 19594.443, 0.02119213, 0.11535027, -102254.68, -102254.68, 0.0, 9.992224, 10.003042 
2.144941e+3, 3.1364876e+2, -881775.3, 256573.19, -53237.566, 0.0027015586, -0.15057184, 259057.55, 259057.55, 0.0, 9.991032, 10.006073 
2.1552679e+3, 1.3369876e+2, -844811.8, -1532092.1, 9651.136, -0.17328493, 0.29161343, -844676.3, 785087.7, 0.41727775, 10.01126, 9.995635 
2.1552539e+3, 1.4369267e+2, -923627.1, -1552113.0, 28739.014, 0.043405455, 0.10819451, -922315.7, 609506.44, 0.27561685, 10.007528, 9.996146 
2.1552381e+3, 1.5368928e+2, -790788.56, -1498622.5, 62813.996, -0.042103946, 0.14474219, -785257.6, 648597.9, 0.14800046, 10.006964, 9.996117 
2.1552224e+3, 1.6368541e+2, -663388.44, -1381362.8, 32648.93, -0.06308429, 0.13496609, -661906.8, 673985.7, 0.0598641, 10.0065365, 9.996447 
2.1552068e+3, 1.7368081e+2, -593017.6, -1326632.6, 55174.055, 0.01429806, 0.03156131, -588891.25, 649043.5, 0.015857745, 10.006185, 9.99632 
2.1551897e+3, 1.8367673e+2, -585449.8, -1317633.0, -11139.377, 0.023474596, 0.010812272, -585280.4, 554693.56, 0.002023408, 10.005677, 9.995954 
2.1551704e+3, 1.9367366e+2, -605764.5, -1303280.1, -54869.17, -0.07683264, 0.11896106, -601474.7, 440531.6, 0.000114385446, 10.004969, 9.995721 
2.1551514e+3, 2.0367047e+2, -541220.2, -1024806.25, -104950.59, -0.09657913, 0.15393916, -519425.47, 424612.2, 0.000000081029725, 10.003894, 9.997477 
2.1551333e+3, 2.136671e+2, -677392.5, -1032383.1, -87616.66, 0.01533267, 0.051667806, -656945.2, 189122.28, 0.0, 10.002253, 9.997542 
2.1551138e+3, 2.2366413e+2, -736085.44, -982503.3, -125224.914, 0.04193993, -0.007990846, -683619.4, 64475.227, 0.0, 10.001059, 9.997787 
2.155092e+3, 2.3366189e+2, -711861.75, -938436.0, -146545.88, -0.072502255, -0.0050869756, -639920.2, 10196.876, 0.0, 10.000631, 9.997623 
2.1550706e+3, 2.4366061e+2, -621271.6, -633565.94, -212015.38, -0.09936622, 0.022805635, -415314.3, 136815.11, 0.0, 9.999675, 9.999502 
2.1550496e+3, 2.536608e+2, -782284.4, -650735.3, -204367.2, 0.009188508, 0.07377974, -501818.8, -47692.41, 0.0, 9.997853, 9.99959 
2.1550286e+3, 2.636604e+2, -866167.0, -610604.75, -133649.97, 0.051463258, 0.06408578, -553479.56, -197350.44, 0.0, 9.996478, 9.999855 
2.155008e+3, 2.7365914e+2, -869571.5, -582075.56, -159856.25, 0.008177132, -0.03973937, -510840.97, -252699.95, 0.0, 9.99587, 9.999672 
2.154988e+3, 2.8365928e+2, -789039.25, -310134.9, -175211.39, -0.0069934805, -0.06720005, -252877.83, -92737.56, 0.0, 9.9949665, 10.001301 
2.1549675e+3, 2.9366118e+2, -890874.4, -300910.13, -136464.66, -0.04172415, -0.020196637, -270873.72, -208750.47, 0.0, 9.99356, 10.00137 
2.1549495e+3, 3.036634e+2, -925165.25, -115870.695, -32245.775, -0.021924337, -0.004607405, -114587.92, -114587.92, 0.0, 9.992224, 10.002954 
2.1549316e+3, 3.1366798e+2, -1001523.1, -285.5136, -53342.67, -0.03127152, 0.14832368, 2548.389, 2548.389, 0.0, 9.991059, 10.004299 
2.1652772e+3, 1.3371581e+2, -1088437.3, -1667650.9, 70743.836, -0.25103888, 0.10153112, -1079922.0, 549669.5, 0.44164297, 10.0087385, 9.995485 
2.1652624e+3, 1.4371066e+2, -801080.6, -1491611.4, 129786.22, 0.079235524, 0.025668608, -777492.8, 754149.2, 0.2951599, 10.0089655, 9.995977 
2.1652459e+3, 1.5370736e+2, -674708.06, -1456624.4, 152787.28, -0.03595401, 0.09183061, -645913.6, 787762.6, 0.16171744, 10.008119, 9.995878 
2.1652293e+3, 1.637037e+2, -561084.7, -1335551.9, 103171.125, -0.07708083, 0.12308473, -547576.3, 788136.25, 0.06783131, 10.007369, 9.996367 
2.1652131e+3, 1.7369959e+2, -496524.94, -1282680.8, 77612.75, -0.0043727066, 0.07273814, -488935.94, 748815.06, 0.01937964, 10.006896, 9.996282 
2.1651955e+3, 1.836955e+2, -522155.66, -1299748.0, -11402.858, 0.021328898, 0.058141444, -521988.47, 617802.2, 0.0030287676, 10.006174, 9.995837 
2.1651758e+3, 1.9369163e+2, -596268.75, -1314311.3, 4176.079, -0.028429346, 0.09991744, -596244.5, 445585.8, 0.0002566661, 10.005102, 9.995581 
2.165156e+3, 2.0368811e+2, -524751.8, -1047332.75, -36027.89, -0.03870868, 0.123495206, -522279.66, 421585.28, 0.000001895948, 10.004138, 9.997204 
2.165136e+3, 2.1368521e+2, -530272.3, -993311.56, -80542.62, 0.015483126, 0.09829397, -516662.47, 329229.1, 0.0, 10.003402, 9.997257 
2.165115e+3, 2.2368225e+2, -541068.1, -883349.06, -130533.555, 0.009122352, 0.05221964, -496969.03, 250949.77, 0.0, 10.002379, 9.997829 
2.1650928e+3, 2.3367922e+2, -663011.56, -905109.5, -111384.0, -0.09010273, -0.031101227, -619563.6, 30383.455, 0.0, 10.000927, 9.997708 
2.1650703e+3, 2.436777e+2, -638839.6, -671784.94, -183175.25, -0.10254043, -0.020003943, -471397.84, 80563.266, 0.0, 9.999682, 9.999237 
2.1650478e+3, 2.5367847e+2, -667794.0, -630193.4, -231832.63, 0.011869161, 0.12204807, -416400.03, 37553.79, 0.0, 9.99879, 9.99928 
2.1650256e+3, 2.6367807e+2, -708781.5, -533606.5, -160824.77, 0.050771013, 0.12624316, -438065.13, -82107.83, 0.0, 9.997556, 9.999863 
2.1650039e+3, 2.7367583e+2, -882145.4, -583043.9, -112747.67, 0.0076456205, -0.078599766, -545304.8, -287327.22, 0.0, 9.995764, 9.999715 
2.1649827e+3, 2.8367594e+2, -877382.3, -308813.63, -91249.92, 0.013221041, -0.1271247, -294527.8, -134552.05, 0.0, 9.994173, 10.00169 
2.164961e+3, 2.93679e+2, -975443.44, -290801.22, -73396.44, -0.0069975317, -0.006501686, -283021.22, -221075.84, 0.0, 9.992765, 10.00182 
2.1649411e+3, 3.0368066e+2, -1072693.5, -225912.08, 19409.78, -0.02105324, -0.060791783, -225467.4, -225467.4, 0.0, 9.991387, 10.002598 
2.1649213e+3, 3.136855e+2, -1123903.9, -167468.34, -12822.021, -0.15541533, 0.16851215, -167296.48, -167296.48, 0.0, 9.990686, 10.003331 
2.1752857e+3, 1.3373289e+2, -1146575.8, -1765364.3, 64625.906, -0.25482678, -0.3524031, -1139898.3, 489514.22, 0.46502978, 10.008593, 9.994867 
2.1752715e+3, 1.4373055e+2, -857782.1, -1584884.3, 121714.76, 0.08203298, -0.092151046, -837948.5, 693490.94, 0.3148958, 10.008933, 9.995297 
2.1752535e+3, 1.5372638e+2, -731768.9, -1564391.4, 127593.586, -0.0725118, -0.0396962, -712654.9, 720829.6, 0.17657381, 10.008118, 9.995127 
2.1752359e+3, 1.6372256e+2, -615534.4, -1441531.1, 86843.55, -0.13420835, 0.051823642, -606502.6, 729022.94, 0.077182755, 10.007373, 9.995637 
2.1752195e+3, 1.7371942e+2, -548835.06, -1388777.8, 64657.74, -0.06565905, 0.16972496, -543886.94, 693672.75, 0.023926465, 10.006903, 9.99555 
2.1752015e+3, 1.8371537e+2, -485809.4, -1224007.6, -46389.047, -0.01201329, 0.17837438, -482905.7, 656693.94, 0.004542912, 10.006182, 9.996353 
2.1751814e+3, 1.9371007e+2, -545617.56, -1213193.1, -32956.76, 0.021583535, 0.008195822, -543994.5, 497652.84, 0.00054172496, 10.005119, 9.996266 
2.175161e+3, 2.0370597e+2, -581114.0, -1169481.0, -63996.945, 0.037568152, -0.030421367, -574233.44, 369453.03, 0.000016799406, 10.004158, 9.996357 
2.1751393e+3, 2.1370386e+2, -605397.25, -1150840.3, -104842.03, 0.021721017, 0.13152936, -585939.25, 259772.33, 0.0, 10.003406, 9.996175 
2.1751171e+3, 2.2370134e+2, -513469.56, -825806.7, -180877.08, -0.011540039, 0.17244805, -430671.3, 317065.4, 0.0, 10.002377, 9.998227 
2.1750937e+3, 2.3369806e+2, -620381.75, -815817.3, -164801.27, -0.06625543, 0.0034242389, -526505.6, 123257.01, 0.0, 10.000921, 9.998324 
2.1750703e+3, 2.4369593e+2, -696409.94, -791379.25, -220475.83, -0.07509033, -0.046839263, -518363.28, 33417.758, 0.0, 9.999681, 9.998417 
2.1750462e+3, 2.5369555e+2, -739047.2, -781311.06, -265202.7, -0.024265707, 0.08564093, -494135.84, -40347.566, 0.0, 9.998802, 9.998238 
2.1750225e+3, 2.6369524e+2, -654449.94, -421523.97, -225642.06, -0.008416302, 0.123240925, -284061.84, 71730.42, 0.0, 9.997558, 10.000631 
2.1749993e+3, 2.7369478e+2, -807988.94, -431169.78, -178420.06, -0.023536906, -0.004069143, -360095.47, -102302.82, 0.0, 9.995771, 10.000754 
2.1749768e+3, 2.8369558e+2, -850448.7, -257821.11, -148636.1, -0.0037751624, -0.058444988, -222631.42, -62849.066, 0.0, 9.994191, 10.002033 
2.1749538e+3, 2.9369822e+2, -961250.56, -266172.44, -134064.2, 0.009706373, -0.0042585204, -241211.0, -179455.39, 0.0, 9.992784, 10.001982 
2.1749334e+3, 3.0369967e+2, -1125633.0, -329374.8, -23741.418, 0.05094934, -0.052059345, -328667.56, -328667.56, 0.0, 9.991365, 10.001896 
2.1749118e+3, 3.1370255e+2, -1105959.8, -138935.1, -96780.05, -0.17694807, 0.05149849, -129344.44, -129344.44, 0.0, 9.990707, 10.003526 
2.185295e+3, 1.3375627e+2, -1381956.5, -1616293.6, 41937.68, 0.035148248, 0.08279966, -1374677.3, 254506.92, 0.48685944, 10.004138, 9.998091 
2.1852805e+3, 1.437517e+2, -845659.75, -1520162.9, 117275.52, 0.099598184, -0.08344295, -825850.9, 705381.0, 0.33475706, 10.009065, 9.99569 
2.1852615e+3, 1.5374745e+2, -675392.75, -1526496.0, 142145.69, -0.12205287, -0.03766028, -652280.2, 780996.3, 0.19279844, 10.008726, 9.995104 
2.1852432e+3, 1.6374351e+2, -527182.3, -1408370.6, 151860.63, -0.19514062, 0.048470903, -501745.53, 833573.1, 0.08828819, 10.008178, 9.995489 
2.1852265e+3, 1.7374003e+2, -486982.16, -1376099.1, 170984.36, -0.067796744, 0.15157393, -455234.13, 782123.3, 0.029865239, 10.007458, 9.995375 
2.1852082e+3, 1.837359e+2, -374183.7, -1156839.4, 72327.57, 0.013029091, 0.1574008, -367555.78, 771842.9, 0.00682184, 10.006909, 9.996466 
2.1851875e+3, 1.9373088e+2, -307626.88, -1079957.8, 47350.953, 0.027908912, 0.0020838985, -304734.66, 736707.94, 0.0010915465, 10.0066805, 9.996431 
2.1851657e+3, 2.0372663e+2, -361358.16, -1132621.1, -10842.898, 0.03349924, -0.032443516, -361205.75, 582277.44, 0.00007824444, 10.005968, 9.995737 
2.1851435e+3, 2.1372369e+2, -490593.16, -1178158.0, -31488.469, 0.020542432, 0.119284846, -489154.1, 356364.28, 0.000000011060763, 10.004551, 9.995436 
2.1851201e+3, 2.2372088e+2, -427965.7, -796555.0, -123082.78, 0.0035456843, 0.17635004, -390643.8, 356903.66, 0.0, 10.0030155, 9.99812 
2.1850954e+3, 2.337181e+2, -561053.94, -788969.3, -156596.02, -0.011908539, 0.06082808, -481340.1, 168227.86, 0.0, 10.001337, 9.998308 
2.1850705e+3, 2.4371578e+2, -665483.06, -785186.94, -190552.88, -0.020124413, -0.0042086104, -525603.56, 25983.697, 0.0, 9.999933, 9.998338 
2.1850452e+3, 2.537141e+2, -719493.4, -783140.25, -164152.94, -0.026106844, 0.010709272, -584107.6, -130501.99, 0.0, 9.998986, 9.998135 
2.1850197e+3, 2.6371357e+2, -657561.5, -434282.63, -147057.4, -0.040097777, 0.034418266, -361289.3, -5677.0566, 0.0, 9.997584, 10.000532 
2.1849947e+3, 2.7371442e+2, -863069.9, -468864.0, -189030.86, -0.042738684, 0.047796417, -392869.47, -135266.58, 0.0, 9.995444, 10.000653 
2.1849705e+3, 2.8371584e+2, -923169.1, -272415.25, -193528.53, -0.008777284, 0.057048433, -219211.36, -59623.465, 0.0, 9.9936075, 10.002214 
2.1849465e+3, 2.937184e+2, -1038808.9, -282755.3, -184782.06, 0.02873889, 0.08031474, -240010.6, -178448.19, 0.0, 9.992165, 10.002167 
2.1849236e+3, 3.0371988e+2, -1225288.3, -336278.63, -32682.93, 0.0055765947, 0.012602407, -335078.72, -335078.72, 0.0, 9.990501, 10.002268 
2.1849014e+3, 3.1372285e+2, -1334539.3, -99212.34, -124.28712, -0.18655315, 0.07960738, -99212.33, -99212.33, 0.0, 9.988499, 10.004863 
2.1952897e+3, 1.437739e+2, -812990.6, -1395554.4, 128079.61, 0.1151467, 0.038366668, -786075.2, 744945.4, 0.3556862, 10.008999, 9.997022 
2.1952695e+3, 1.5377033e+2, -659564.1, -1435996.8, 127290.4, -0.18757096, 0.0857563, -639228.44, 793826.0, 0.21106672, 10.008701, 9.995742 
2.1952505e+3, 1.6376626e+2, -517838.66, -1354753.5, 126011.72, -0.2636628, 0.104964696, -499277.13, 835817.3, 0.10173016, 10.008156, 9.995867 
2.1952344e+3, 1.737613e+2, -472776.13, -1330334.1, 145937.38, -0.021004708, 0.026418235, -448621.2, 788524.6, 0.037729505, 10.007447, 9.995696 
2.1952158e+3, 1.8375699e+2, -394358.06, -1194274.4, 63070.84, 0.0865429, 0.007180481, -389415.7, 749773.3, 0.010261636, 10.00691, 9.996209 
2.1951936e+3, 1.9375384e+2, -331761.5, -1129101.0, 41234.625, -0.0136214765, 0.07468926, -329634.72, 711583.44, 0.0021217698, 10.0066805, 9.996095 
2.195171e+3, 2.037499e+2, -389747.38, -1192441.3, -58653.074, -0.051592134, 0.105534606, -385484.22, 557773.2, 0.00026092693, 10.005971, 9.995326 
2.195148e+3, 2.1374463e+2, -518809.1, -1238635.1, -81514.336, 0.0077797174, 0.066417895, -509693.7, 335619.25, 0.0000019823065, 10.004558, 9.995018 
2.1951236e+3, 2.237408e+2, -468598.34, -883941.94, -183727.77, 0.04917008, 0.07317255, -398991.47, 348360.1, 0.0, 10.003026, 9.997516 
2.1950977e+3, 2.337392e+2, -604246.1, -882202.75, -217900.95, 0.06419802, 0.13862151, -484775.63, 164588.55, 0.0, 10.001349, 9.9976635 
2.1950713e+3, 2.4373707e+2, -619755.75, -691630.75, -230730.75, 0.05536867, 0.1026279, -422180.56, 129200.7, 0.0, 9.999938, 9.998978 
2.1950442e+3, 2.5373405e+2, -661947.8, -664486.2, -199631.45, -0.0018118826, -0.102973826, -463581.5, -10174.506, 0.0, 9.998989, 9.998949 
2.195017e+3, 2.637329e+2, -725479.25, -576032.06, -224914.95, -0.051020216, -0.14007981, -413752.8, -58334.285, 0.0, 9.997587, 9.999559 
2.1949899e+3, 2.7373457e+2, -947718.56, -647318.3, -270287.28, -0.05771691, 0.07510803, -488301.22, -230891.69, 0.0, 9.995455, 9.999425 
2.1949641e+3, 2.8373665e+2, -923376.5, -273331.34, -252436.52, -0.006601414, 0.21780778, -186815.48, -27421.9, 0.0, 9.9936075, 10.002209 
2.194939e+3, 2.9373944e+2, -1024109.94, -253396.58, -239157.81, 0.04712786, 0.25258312, -185215.8, -123849.31, 0.0, 9.9921665, 10.002368 
2.1949123e+3, 3.0374125e+2, -1111656.9, -104687.484, -104569.78, -0.18304801, 0.13350801, -93942.98, -93942.98, 0.0, 9.99052, 10.00385 
2.1948904e+3, 3.1374398e+2, -1198082.0, 189730.88, 8486.59, -0.12268438, 0.011364633, 189782.77, 189782.77, 0.0, 9.988488, 10.006845 
2.2052984e+3, 1.4379668e+2, -780389.3, -1331240.1, 99243.94, 0.04505143, 0.12926486, -763054.56, 767748.2, 0.37926885, 10.009362, 9.997612 
2.2052774e+3, 1.5379296e+2, -705207.0, -1369984.3, 158263.81, -0.24547403, 0.07926501, -669452.1, 763384.3, 0.2324083, 10.008063, 9.996597 
2.2052592e+3, 1.6378981e+2, -602922.9, -1345599.4, 185409.88, -0.16431831, 0.11917457, -559208.25, 775657.8, 0.11833038, 10.007394, 9.99632 
2.2052419e+3, 1.737849e+2, -458851.1, -1277156.0, 215450.64, -0.011911439, 0.009127888, -405591.7, 831322.44, 0.048271134, 10.007421, 9.996083 
2.2052224e+3, 1.8378061e+2, -371099.4, -1244405.8, 135318.47, 0.049401887, -0.0046345224, -350612.47, 788344.44, 0.015458894, 10.007375, 9.995643 
2.2052005e+3, 1.9377744e+2, -291724.0, -1185125.8, 88895.64, -0.02767064, 0.12775704, -282964.53, 758025.44, 0.003991839, 10.007295, 9.995414 
2.2051775e+3, 2.0377336e+2, -237320.77, -1086153.0, -32744.238, -0.04418017, 0.17274617, -236059.52, 706971.4, 0.00071034866, 10.006881, 9.995618 
2.2051533e+3, 2.1376784e+2, -273254.2, -1071187.5, -1613.8397, 0.038202424, 0.066226915, -273250.94, 571834.0, 0.000028903489, 10.006037, 9.995454 
2.2051276e+3, 2.2376363e+2, -268446.78, -870158.8, -93871.79, 0.0734453, 0.043367635, -254142.11, 492984.1, 0.0000000018849466, 10.00476, 9.996775 
2.2050993e+3, 2.3376144e+2, -448915.53, -908418.8, -149731.2, 0.037853643, 0.14225975, -404431.4, 244716.72, 0.0, 10.002855, 9.9967575 
2.205071e+3, 2.4375916e+2, -495421.56, -622426.75, -185391.98, 0.020651976, 0.13709188, -362957.94, 188210.95, 0.0, 10.000753, 9.99906 
2.2050433e+3, 2.537566e+2, -742697.9, -680166.0, -199773.42, 0.023564998, -0.040507622, -509226.66, -56037.504, 0.0, 9.998336, 9.999156 
2.2050147e+3, 2.637557e+2, -882425.0, -644480.8, -211958.47, -0.0027691831, -0.06855504, -520387.56, -165189.98, 0.0, 9.996481, 9.99962 
2.2049856e+3, 2.73757e+2, -947231.75, -643978.3, -165019.1, -0.04539655, 0.11065914, -571502.44, -314311.44, 0.0, 9.995443, 9.999452 
2.2049575e+3, 2.8375837e+2, -895075.7, -292542.97, -107759.484, -0.030876573, 0.19273388, -273850.7, -114667.86, 0.0, 9.993942, 10.001915 
2.2049305e+3, 2.9376027e+2, -1091328.9, -317336.97, -132703.05, 0.0012455933, 0.1741616, -295216.84, -234049.8, 0.0, 9.991844, 10.002085 
2.2049023e+3, 3.0376464e+2, -1233491.4, -79750.664, -74647.03, -0.17081633, 0.29210746, -74941.05, -74941.05, 0.0, 9.989318, 10.004604 
2.204879e+3, 3.137675e+2, -1548018.1, 68684.81, 3053.3862, 0.012940805, 0.09790815, 68690.58, 68690.58, 0.0, 9.98589, 10.007264 
2.2153057e+3, 1.438198e+2, -823951.4, -1344765.0, -20657.621, -0.15150003, 0.17689155, -823133.25, 707447.7, 0.4075502, 10.009251, 9.997612 
2.2152847e+3, 1.5381543e+2, -679404.5, -1259904.9, 130896.836, -0.3041293, -0.04326045, -651253.75, 781368.44, 0.25835386, 10.008018, 9.997657 
2.215269e+3, 1.6381404e+2, -588903.06, -1276969.9, 182707.2, 0.07529321, 0.09680032, -543397.1, 791236.8, 0.13933682, 10.007402, 9.996814 
2.2152491e+3, 1.7381062e+2, -435152.84, -1212313.9, 216859.88, -0.043837827, 0.09151089, -378735.6, 857928.8, 0.062588416, 10.00747, 9.996514 
2.2152285e+3, 1.8380652e+2, -428877.97, -1365628.4, 133131.77, -0.09358053, 0.11045153, -410324.63, 728380.25, 0.023299417, 10.007423, 9.994788 
2.2152078e+3, 1.9380154e+2, -360225.38, -1329855.5, 89556.45, -0.021643775, 0.16380018, -352023.22, 688735.44, 0.007269717, 10.007321, 9.994409 
2.215185e+3, 2.0379701e+2, -170982.97, -948231.44, -59964.453, 0.04482131, 0.17617764, -166383.95, 776420.0, 0.0016862839, 10.0068865, 9.996563 
2.2151601e+3, 2.1379313e+2, -190129.02, -894943.44, -32222.074, 0.10041437, 0.113016374, -188658.98, 656177.44, 0.00015924411, 10.006021, 9.996673 
2.2151323e+3, 2.2378913e+2, -333059.38, -999815.3, -162222.95, 0.069566675, 0.08013867, -295685.22, 451188.5, 0.0000008770732, 10.004739, 9.995896 
2.2151008e+3, 2.3378474e+2, -531437.5, -1078958.3, -219762.45, -0.09329506, 0.07490265, -454141.94, 194779.0, 0.0, 10.00285, 9.995591 
2.2150703e+3, 2.4378194e+2, -528615.0, -691502.2, -274818.03, -0.12466752, 0.10414649, -323426.4, 227524.38, 0.0, 10.000753, 9.998587 
2.2150418e+3, 2.537817e+2, -767704.94, -735851.4, -289974.38, 0.044344116, 0.19628592, -461366.72, -8413.72, 0.0, 9.99835, 9.998768 
2.2150122e+3, 2.637818e+2, -804773.44, -484858.06, -257927.86, 0.09768717, 0.24374673, -341314.13, 13636.375, 0.0, 9.996487, 10.000715 
2.2149812e+3, 2.7378172e+2, -854385.7, -454996.1, -204905.7, -0.020867305, 0.15147488, -368571.4, -111623.305, 0.0, 9.995458, 10.000743 
2.2149509e+3, 2.8378096e+2, -936912.4, -380636.8, -185184.89, -0.08873274, -0.020036673, -324627.8, -165671.63, 0.0, 9.993949, 10.0013075 
2.2149211e+3, 2.937808e+2, -1144846.6, -428616.34, -208259.55, -0.10046519, -0.16315593, -372462.84, -311497.6, 0.0, 9.991844, 10.001322 
2.2148935e+3, 3.0379006e+2, -1239408.5, -86254.91, -198901.17, 0.028368799, 0.48151636, -52911.64, -52911.64, 0.0, 9.989289, 10.004576 
2.2148645e+3, 3.1379312e+2, -1641538.0, -130905.26, -104939.73, -0.025027808, 0.31985152, -123650.22, -123650.22, 0.0, 9.985908, 10.00589 
2.2253147e+3, 1.4384869e+2, -1133922.6, -1495590.8, 74558.5, -0.02328163, 0.15424651, -1119155.1, 411144.6, 0.44366682, 10.006029, 9.997445 
2.2252928e+3, 1.5384509e+2, -856852.94, -1432204.4, 388006.75, -0.26152277, 0.08250262, -661510.5, 770823.56, 0.29154557, 10.007071, 9.996962 
2.2252776e+3, 1.6384208e+2, -513074.28, -1320335.6, 389331.3, 0.13127932, 0.13611156, -355905.0, 978456.6, 0.16692081, 10.008617, 9.996059 
2.2252578e+3, 1.7383774e+2, -203896.86, -1167848.9, 357856.78, -0.03908645, 0.11175673, -85570.99, 1150828.9, 0.08244527, 10.009676, 9.995805 
2.225237e+3, 1.8383281e+2, -121341.016, -1253296.6, 223934.28, -0.110342816, 0.10560874, -78650.234, 1059797.3, 0.03512265, 10.009867, 9.994392 
2.225216e+3, 1.9382712e+2, -142387.52, -1259946.3, 223726.0, -0.015989387, 0.12294396, -99263.484, 941244.2, 0.012813238, 10.00903, 9.99407 
2.2251926e+3, 2.038223e+2, -74094.04, -951459.2, 31334.172, 0.059893098, 0.14523025, -72976.4, 869580.25, 0.00361419, 10.007786, 9.996107 
2.225166e+3, 2.1381871e+2, -224308.47, -963547.0, -65963.85, 0.10182853, 0.16395503, -218468.5, 626120.25, 0.00055091816, 10.006014, 9.996204 
2.2251368e+3, 2.2381492e+2, -353574.16, -961890.5, -229942.75, 0.06689742, 0.15757108, -276437.34, 470187.34, 0.000015895248, 10.0043955, 9.996321 
2.2251038e+3, 2.3381047e+2, -465063.78, -986987.6, -167670.39, -0.08349483, 0.09395613, -415841.1, 232828.72, 0.0, 10.003051, 9.996123 
2.2250715e+3, 2.4380763e+2, -434737.6, -671883.4, -159617.11, -0.11694776, 0.09898171, -354470.97, 196228.64, 0.0, 10.00151, 9.998356 
2.2250405e+3, 2.5380734e+2, -601170.56, -691234.9, -173056.95, 0.030721597, 0.22012593, -467382.66, -14677.515, 0.0, 9.999651, 9.9984455 
2.2250088e+3, 2.6380762e+2, -635399.3, -351283.22, -150632.44, 0.073454194, 0.28594136, -286289.03, 68412.64, 0.0, 9.997426, 10.001179 
2.2249761e+3, 2.7380818e+2, -944558.94, -433464.78, -155388.72, -0.037938572, 0.20165108, -389930.0, -133238.67, 0.0, 9.994564, 10.001321 
2.2249438e+3, 2.8380793e+2, -1186121.5, -439592.78, -130242.234, -0.08905943, 0.024368897, -417522.7, -258830.2, 0.0, 9.991979, 10.001852 
2.2249123e+3, 2.9380774e+2, -1403601.0, -501220.9, -50737.293, -0.07335441, -0.1717744, -498377.13, -437677.56, 0.0, 9.989846, 10.001786 
2.2248828e+3, 3.0381674e+2, -1385594.8, -140427.67, 6460.667, 0.07190579, 0.41558185, -140394.16, -140394.16, 0.0, 9.98822, 10.004717 
2.22485e+3, 3.138193e+2, -1503081.8, -124784.875, 64730.375, -0.11123431, 0.19149378, -121751.555, -121751.555, 0.0, 9.987129, 10.005338 
2.2353247e+3, 1.4388339e+2, -1264208.5, -1628532.4, -135154.9, 0.37813446, 0.14981404, -1219545.0, 310414.16, 0.49256167, 10.0050335, 9.997027 
2.235301e+3, 1.5388112e+2, -1043990.2, -1770728.4, 445954.53, -0.13805684, 0.4262922, -832109.3, 599871.8, 0.33651218, 10.00685, 9.994689 
2.2352852e+3, 1.6387351e+2, -657728.44, -1590856.9, 419029.75, 0.015415006, 0.22941512, -497181.72, 836872.1, 0.20493986, 10.008659, 9.9941845 
2.2352676e+3, 1.7386605e+2, -346352.66, -1425583.5, 386550.22, -0.012356176, 0.07225942, -222186.56, 1013936.1, 0.110831164, 10.009691, 9.994041 
2.2352478e+3, 1.8385941e+2, -139167.5, -1250398.5, 194947.72, -0.021305831, -0.009481714, -105959.43, 1032225.94, 0.053000197, 10.00986, 9.994417 
2.2352251e+3, 1.9385397e+2, -130903.52, -1221924.9, 191357.3, -0.017144877, 0.009291867, -98314.29, 941924.75, 0.021850418, 10.009045, 9.994325 
2.2351997e+3, 2.0384902e+2, -199209.92, -1210008.0, -32543.098, -0.00021692381, 0.08184184, -198163.27, 744127.7, 0.007085003, 10.007799, 9.994326 
2.2351713e+3, 2.1384458e+2, -366606.9, -1262147.0, -128032.445, 0.0402466, 0.21990886, -348662.1, 495680.06, 0.00142748, 10.006028, 9.994149 
2.2351411e+3, 2.23841e+2, -237258.95, -720583.1, -279734.34, 0.061617482, 0.27560005, -109256.51, 637122.6, 0.0000908273, 10.004397, 9.997977 
2.2351082e+3, 2.3383848e+2, -315661.03, -675204.9, -216563.8, 0.054825585, 0.1932842, -213976.34, 434420.16, 0.000000033740235, 10.003043, 9.998268 
2.2350745e+3, 2.4383602e+2, -436890.53, -673673.2, -229581.94, 0.030836802, 0.115650706, -296971.25, 253446.31, 0.0, 10.001496, 9.998351 
2.2350396e+3, 2.5383338e+2, -620175.5, -730784.2, -243177.56, -0.027957039, 0.03237508, -426092.8, 26353.914, 0.0, 9.99965, 9.998176 
2.2350046e+3, 2.6383314e+2, -648843.6, -378193.03, -256058.75, -0.07960953, 0.0623333, -223899.58, 130552.32, 0.0, 9.997421, 10.000998 
2.23497e+3, 2.738363e+2, -954108.7, -454130.3, -263484.0, -0.097095616, 0.26288536, -340913.75, -84492.27, 0.0, 9.994566, 10.00118 
2.2349362e+3, 2.8383923e+2, -1063654.1, -186027.19, -215894.52, -0.03991319, 0.32783768, -135792.9, 22599.184, 0.0, 9.991977, 10.003596 
2.2349033e+3, 2.938412e+2, -1282854.1, -253802.1, -130007.04, 0.056512177, 0.15373707, -237631.53, -177262.53, 0.0, 9.989855, 10.003483 
2.2348699e+3, 3.0384454e+2, -1382208.6, -128791.1, -35021.79, -0.029265337, 0.08750402, -127813.32, -127813.32, 0.0, 9.988203, 10.004804 
2.2348374e+3, 3.1384915e+2, -1482928.9, -90112.62, -84218.41, -0.08100388, 0.049027488, -85038.734, -85038.734, 0.0, 9.987145, 10.005575 
2.2453055e+3, 1.539063e+2, -1501177.4, -1607585.3, 328707.03, -0.061871354, 0.46542236, -1221396.4, 210339.81, 0.40054345, 10.000534, 9.998879 
2.245293e+3, 1.6389863e+2, -478603.94, -1375186.3, 253282.08, -0.14544348, 0.0066540265, -412000.2, 921805.7, 0.25968108, 10.010376, 9.994794 
2.2452778e+3, 1.7389385e+2, -258077.56, -1331272.6, 317317.13, -0.0012590991, 0.094443716, -171275.48, 1064577.3, 0.15249524, 10.010635, 9.994246 
2.2452588e+3, 1.8388855e+2, -57281.49, -1173175.3, 175387.0, 0.06833244, 0.12602358, -30364.863, 1107539.1, 0.07996307, 10.010599, 9.994595 
2.2452348e+3, 1.9388236e+2, 53999.0, -1104709.8, 162793.17, -0.0031020772, 0.05468812, 76436.2, 1116398.6, 0.035946798, 10.010378, 9.994489 
2.245208e+3, 2.0387699e+2, 46905.9, -1075206.4, -42505.336, -0.03853249, 0.069965154, 48513.684, 990530.8, 0.012732988, 10.009489, 9.994438 
2.2451778e+3, 2.1387263e+2, -114783.56, -1128569.8, 7222.3555, -0.009364348, 0.20678592, -114732.12, 729335.8, 0.002998965, 10.007726, 9.9942465 
2.2451457e+3, 2.2386926e+2, -48865.242, -597011.44, -111066.234, 0.03297571, 0.2675017, -27215.883, 718887.25, 0.00028965157, 10.00555, 9.998271 
2.2451116e+3, 2.338672e+2, -338586.8, -649822.5, -178492.61, 0.09883886, 0.20208372, -257399.83, 390716.8, 0.000001997949, 10.002729, 9.998593 
2.245076e+3, 2.4386531e+2, -576859.44, -676047.1, -238617.81, 0.099827446, 0.13847868, -382736.22, 167395.66, 0.0, 10.000258, 9.998929 
2.2450386e+3, 2.5386328e+2, -779670.44, -740656.06, -189310.25, -0.01748322, 0.05539658, -569850.56, -117696.59, 0.0, 9.998268, 9.998773 
2.245001e+3, 2.6386318e+2, -816757.94, -438355.72, -172453.55, -0.11197571, 0.0606858, -371554.34, -17397.02, 0.0, 9.996182, 10.001179 
2.2449638e+3, 2.738661e+2, -1027156.8, -475060.13, -160754.22, -0.11953928, 0.22172701, -431664.25, -175533.4, 0.0, 9.994006, 10.001303 
2.2449285e+3, 2.8386974e+2, -998040.0, -82236.375, -122360.586, -0.011536332, 0.32896042, -66169.64, 91924.445, 0.0, 9.992122, 10.004236 
2.2448944e+3, 2.9387358e+2, -1168266.1, -122311.17, -138505.03, 0.14435343, 0.26709977, -104281.18, -44229.54, 0.0, 9.990321, 10.004156 
2.244857e+3, 3.038754e+2, -1481027.6, -127139.875, -76459.44, -0.09038534, -0.0038332313, -122835.586, -122835.586, 0.0, 9.98732, 10.005239 
2.2448234e+3, 3.138821e+2, -1929225.9, -196317.06, -44381.723, -0.022290705, 0.12079472, -195181.14, -195181.14, 0.0, 9.983617, 10.006551 
2.2553068e+3, 1.5392211e+2, -1003821.9, -731182.2, 536685.06, 0.041574333, 0.24879427, -313774.7, 1117809.8, 0.49428278, 10.001512, 10.008733 
2.2553013e+3, 1.6391824e+2, -468955.53, -1096989.9, 266301.8, -0.36013445, -0.49432904, -371240.47, 962370.06, 0.3400428, 10.010104, 9.997523 
2.2552885e+3, 1.739213e+2, -217237.39, -1078285.8, 299005.78, -0.008739993, 0.17591447, -123590.28, 1111998.3, 0.21383765, 10.010665, 9.996167 
2.2552703e+3, 1.8391997e+2, -70534.625, -1126405.0, 163175.75, 0.15309069, 0.48838526, -45892.313, 1091712.9, 0.119670115, 10.010728, 9.994863 
2.2552453e+3, 1.939121e+2, 42515.492, -1090320.0, 156345.66, 0.016499117, 0.24153495, 63697.12, 1103376.4, 0.056597367, 10.010424, 9.99457 
2.2552173e+3, 2.0390609e+2, 164723.56, -808483.9, -98395.54, -0.06363937, 0.10387002, 174572.11, 1116308.0, 0.020926517, 10.009479, 9.996293 
2.2551851e+3, 2.1390261e+2, 25669.424, -828401.1, -55337.676, -0.055251755, 0.1237214, 29239.982, 873008.5, 0.0053025577, 10.007709, 9.996317 
2.2551507e+3, 2.2389948e+2, -123291.586, -745600.4, -213089.1, -0.025193784, 0.13684152, -57319.984, 688479.5, 0.0006359782, 10.005526, 9.997263 
2.2551137e+3, 2.3389658e+2, -436248.97, -853168.94, -282443.5, 0.045794275, 0.12478486, -293667.8, 354163.13, 0.0000106174475, 10.00273, 9.997198 
2.2550762e+3, 2.438955e+2, -498001.53, -512194.28, -316501.47, 0.08837975, 0.17034067, -188516.9, 361325.84, 0.0, 10.000258, 10.000055 
2.2550374e+3, 2.538969e+2, -677445.75, -530369.2, -264181.47, 0.054574646, 0.28660345, -329681.78, 122146.234, 0.0, 9.998275, 10.000215 
2.2549981e+3, 2.638977e+2, -778565.0, -360854.53, -256740.88, -0.03226761, 0.27499926, -238746.97, 115072.27, 0.0, 9.996185, 10.001712 
2.254958e+3, 2.7389735e+2, -1000500.0, -421203.6, -240164.39, -0.119094715, 0.0718806, -334587.25, -78766.664, 0.0, 9.994008, 10.001674 
2.2549206e+3, 2.8389943e+2, -1036568.5, -163915.45, -190993.75, -0.0079276925, 0.023662837, -123944.33, 33855.375, 0.0, 9.992126, 10.0036745 
2.254885e+3, 2.9390463e+2, -1193234.5, -178262.56, -215990.75, 0.19721407, 0.1708865, -134210.67, -74461.555, 0.0, 9.990336, 10.003767 
2.2548437e+3, 3.0390918e+2, -1409601.1, 24092.172, -224981.53, -0.13560478, 0.13524048, 58568.227, 58568.227, 0.0, 9.987305, 10.006287 
2.2548062e+3, 3.1391606e+2, -1787715.0, 111612.945, 57365.258, -0.10420722, 0.18187931, 113343.97, 113343.97, 0.0, 9.983557, 10.008693 
2.2653145e+3, 1.6395348e+2, -1077026.6, -1389765.1, 456205.94, 0.22972536, 0.23832244, -751135.3, 582131.94, 0.45648792, 10.004628, 9.998458 
2.2652993e+3, 1.7395228e+2, -44595.863, -808109.7, 529806.2, -0.07965245, 0.30219087, 226665.53, 1461951.3, 0.30145726, 10.012542, 9.998099 
2.265283e+3, 1.8394932e+2, 522108.75, -765642.2, 302506.34, 0.08419302, 0.323846, 589630.3, 1726948.3, 0.17499352, 10.01601, 9.995313 
2.2652574e+3, 1.9394347e+2, 362748.03, -885435.94, 306417.53, 0.03567953, 0.25339478, 433913.2, 1473286.6, 0.08429479, 10.012933, 9.994855 
2.2652276e+3, 2.0393862e+2, 284771.2, -669116.2, 28017.078, -0.0063657425, 0.18440458, 285593.38, 1227011.9, 0.031339154, 10.010074, 9.997003 
2.2651929e+3, 2.1393488e+2, 58980.836, -727165.94, -20689.78, -0.037185702, 0.10590279, 59524.973, 902976.75, 0.008053312, 10.007592, 9.997072 
2.2651558e+3, 2.2393201e+2, -128600.586, -718880.25, -194683.55, -0.042565607, 0.089877926, -70174.016, 675306.1, 0.0010527385, 10.005365, 9.997523 
2.2651163e+3, 2.3393005e+2, -324774.47, -778464.94, -151595.45, 0.0022032098, 0.15519091, -278782.88, 368721.7, 0.000025386547, 10.003407, 9.997384 
2.2650762e+3, 2.4392954e+2, -340038.9, -386330.1, -142011.81, 0.04390813, 0.2286671, -219298.89, 330212.94, 0.0, 10.001125, 10.000502 
2.2650357e+3, 2.53931e+2, -634017.25, -455299.47, -160514.52, 0.04857145, 0.30518222, -360946.84, 90548.19, 0.0, 9.99834, 10.000697 
2.2649941e+3, 2.63932e+2, -815188.5, -338913.88, -195141.88, -0.011685889, 0.27416375, -269171.78, 84311.32, 0.0, 9.995768, 10.002062 
2.2649519e+3, 2.7393192e+2, -1067907.3, -418261.13, -185192.61, -0.09023284, 0.06401368, -369177.34, -113695.89, 0.0, 9.993397, 10.001987 
2.2649121e+3, 2.8393388e+2, -1226982.6, -266044.0, -117736.625, 0.0033490623, -0.005716393, -251828.89, -94367.14, 0.0, 9.990868, 10.003579 
2.264874e+3, 2.9393888e+2, -1503025.6, -327904.53, -110375.54, 0.1595307, 0.13613385, -317627.2, -258213.0, 0.0, 9.9882145, 10.003762 
2.2648308e+3, 3.039443e+2, -1590350.1, -28803.002, -154625.9, -0.09246042, 0.16841008, -13639.049, -13639.049, 0.0, 9.985923, 10.006586 
2.2647901e+3, 3.1395116e+2, -1685733.8, 177803.6, 145044.2, -0.10134207, 0.19800074, 189025.2, 189025.2, 0.0, 9.984192, 10.008835 
2.2753106e+3, 1.739866e+2, -153925.39, -706120.4, 624667.06, -0.2121656, 0.4870197, 252940.31, 1487887.5, 0.41871852, 10.012639, 10.000097 
2.2752969e+3, 1.8397687e+2, 437903.16, -720741.06, 228074.11, -0.13086788, -0.31364116, 481181.97, 1618222.8, 0.24537212, 10.016243, 9.995893 
2.2752702e+3, 1.9397634e+2, 355278.34, -828143.3, 200968.55, 0.04854314, 0.10992822, 388475.56, 1427522.1, 0.117341176, 10.01306, 9.99528 
2.2752388e+3, 2.0397428e+2, 253548.8, -718599.1, -59588.066, 0.120077915, 0.30857283, 257187.64, 1198255.9, 0.04272614, 10.010121, 9.996649 
2.275201e+3, 2.1396928e+2, 25969.281, -793137.0, -104188.375, 0.032014396, 0.14739327, 39014.05, 882133.25, 0.010689611, 10.0076, 9.9966135 
2.2751611e+3, 2.2396669e+2, -28175.336, -507004.1, -265678.94, -0.028478093, 0.122063726, 90047.73, 835193.56, 0.0013885677, 10.005352, 9.998988 
2.2751191e+3, 2.3396741e+2, -208670.58, -533866.75, -222370.95, -0.040263407, 0.28616363, -95792.76, 551346.9, 0.000035449615, 10.003391, 9.999072 
2.2750764e+3, 2.4396719e+2, -357827.13, -420789.84, -245351.77, -0.039294254, 0.30686674, -141945.25, 407196.16, 0.0, 10.001112, 10.000275 
2.275033e+3, 2.539655e+2, -666120.25, -521911.1, -264580.97, -0.041244444, 0.11046955, -319785.56, 131370.5, 0.0, 9.998338, 10.000243 
2.2749892e+3, 2.6396608e+2, -803929.2, -316221.8, -286991.0, -0.052514352, 0.06343088, -183474.3, 169674.64, 0.0, 9.995768, 10.00222 
2.2749455e+3, 2.7396986e+2, -1048266.8, -380319.94, -275587.38, -0.03791737, 0.21031082, -281296.06, -26183.223, 0.0, 9.993406, 10.002246 
2.274903e+3, 2.839732e+2, -1198646.0, -206491.1, -218963.56, 0.010756529, 0.24433324, -160315.95, -3236.0088, 0.0, 9.99086, 10.003994 
2.2748606e+3, 2.939762e+2, -1480308.5, -273402.6, -209093.28, 0.0076370924, 0.14348851, -238204.25, -179156.17, 0.0, 9.988178, 10.004157 
2.2748181e+3, 3.0398107e+2, -1640708.4, -126110.586, -224330.06, 0.064828806, 0.13090523, -93583.17, -93583.17, 0.0, 9.985889, 10.005937 
2.2747752e+3, 3.1398734e+2, -1862447.4, -215655.39, -22380.045, -0.0052467654, 0.17608373, -215351.31, -215351.31, 0.0, 9.984286, 10.0061 
2.2853187e+3, 1.8401949e+2, 1191369.4, -390677.2, 488197.56, -0.08076108, -0.22436664, 1329891.5, 2466515.8, 0.32349163, 10.026009, 9.994976 
2.2852862e+3, 1.9401564e+2, 901682.9, -728381.06, 351886.6, 0.032000333, 0.057281323, 974401.6, 2013065.1, 0.15117104, 10.018849, 9.993366 
2.28525e+3, 2.0401332e+2, 639102.94, -528722.06, 109167.0, 0.10412793, 0.34125444, 649220.1, 1589908.1, 0.053223994, 10.013019, 9.996649 
2.2852093e+3, 2.140087e+2, 248347.98, -663802.8, 122065.734, 0.020219997, 0.20102638, 264400.53, 1107134.8, 0.012678458, 10.009068, 9.996808 
2.2851665e+3, 2.2400627e+2, 40997.117, -427141.88, -14766.277, -0.030523336, 0.16547978, 41462.42, 786221.1, 0.0015341536, 10.00563, 9.999402 
2.2851223e+3, 2.3400685e+2, -263837.44, -511027.78, -57022.695, -0.02700177, 0.27432463, -251317.38, 395435.72, 0.000032656993, 10.002799, 9.999513 
2.2850771e+3, 2.440067e+2, -481685.6, -452624.13, -118837.2, -0.035319414, 0.26891825, -347432.6, 201321.39, 0.0, 10.000143, 10.00052 
2.2850305e+3, 2.5400534e+2, -750469.2, -538345.6, -91372.61, -0.071007505, 0.08751896, -504414.38, -53648.723, 0.0, 9.997653, 10.000459 
2.2849846e+3, 2.6400632e+2, -871480.9, -337396.6, -75018.98, -0.06774541, 0.06459799, -327059.28, 25696.213, 0.0, 9.995255, 10.002319 
2.2849391e+3, 2.740106e+2, -1094537.3, -389431.2, -76498.48, 0.011720962, 0.25518295, -381227.16, -126512.12, 0.0, 9.9930315, 10.002362 
2.284894e+3, 2.8401405e+2, -1182936.6, -177961.34, -35206.83, 0.0392456, 0.29001212, -176729.47, -20048.625, 0.0, 9.990881, 10.004177 
2.2848484e+3, 2.9401654e+2, -1380901.8, -215275.83, -49799.17, -0.05593275, 0.12248626, -213152.13, -154498.83, 0.0, 9.988823, 10.004241 
2.2848044e+3, 3.0402198e+2, -1601986.5, -83902.44, -63810.91, 0.11404222, 0.15488954, -81224.945, -81224.945, 0.0, 9.986061, 10.00614 
2.2847578e+3, 3.1402814e+2, -2214527.5, -432485.53, 150755.44, -0.042851523, 0.16508302, -419822.06, -419822.06, 0.0, 9.982083, 10.0056715 
2.2953469e+3, 1.8407488e+2, 848835.56, -680190.2, 329452.22, 0.17150433, 0.44198942, 916800.1, 2052889.8, 0.3943863, 10.026011, 9.992568 
2.2953044e+3, 1.9406064e+2, 606538.94, -1264341.1, 125515.53, -0.021440128, 0.08052304, 614922.06, 1653152.4, 0.17940277, 10.018858, 9.989317 
2.2952615e+3, 2.0405552e+2, 650913.9, -486037.06, -36003.266, -0.049502954, 0.2901436, 652052.8, 1592332.9, 0.06108423, 10.013039, 9.996978 
2.2952172e+3, 2.1405281e+2, 298927.97, -553410.5, -17970.701, -0.07321165, 0.26685873, 299306.7, 1141607.4, 0.013794885, 10.009052, 9.997587 
2.2951719e+3, 2.240504e+2, -2543.4536, -514456.38, -122919.21, -0.053106215, 0.21775456, 25441.703, 769764.0, 0.0015011729, 10.00561, 9.998813 
2.2951254e+3, 2.3404825e+2, -316658.88, -618841.5, -160108.6, 0.031279914, 0.125041, -247606.27, 398739.97, 0.000022797956, 10.002787, 9.99878 
2.2950779e+3, 2.4404804e+2, -432399.28, -349271.0, -213907.19, 0.044608083, 0.124644995, -172927.22, 375422.2, 0.0, 10.000134, 10.001237 
2.2950283e+3, 2.5405052e+2, -688093.9, -410390.9, -184977.22, -0.051594585, 0.23955545, -317949.7, 132374.47, 0.0, 9.997656, 10.001339 
2.2949797e+3, 2.6405257e+2, -868467.25, -333059.06, -160742.81, -0.06558434, 0.27284154, -288507.28, 63796.098, 0.0, 9.99526, 10.002349 
2.2949326e+3, 2.74054e+2, -1095451.1, -393838.8, -157526.78, 0.051190216, 0.18607889, -360093.72, -105804.84, 0.0, 9.993038, 10.002331 
2.2948852e+3, 2.840565e+2, -1188410.3, -191338.66, -113901.06, 0.08480288, 0.13003507, -178492.6, -22228.686, 0.0, 9.990886, 10.004086 
2.2948371e+3, 2.9406026e+2, -1399610.1, -257710.17, -126791.27, -0.03678475, 0.10008801, -243801.28, -185574.48, 0.0, 9.988832, 10.003947 
2.2947896e+3, 3.0406663e+2, -1518827.5, 84848.06, -200049.08, 0.035665527, 0.19943283, 109426.31, 109426.31, 0.0, 9.986072, 10.007297 
2.294739e+3, 3.1407478e+2, -2061867.8, -96314.414, -37491.62, -0.12026555, 0.26300257, -95599.55, -95599.55, 0.0, 9.982009, 10.008011 
2.3053743e+3, 1.8412681e+2, 834258.94, -682679.75, 127314.39, 0.19616662, 0.62485534, 844870.0, 1980455.3, 0.44114545, 10.027944, 9.992027 
2.3053247e+3, 1.9410868e+2, 738014.5, -1392079.3, 114096.805, 0.010992617, 0.06799502, 744108.56, 1781872.4, 0.19641997, 10.021249, 9.9872875 
2.3052749e+3, 2.0410354e+2, 953389.6, -360656.47, 71069.44, -0.11480366, 0.4019972, 957222.2, 1897035.0, 0.06512694, 10.015421, 9.996765 
2.3052266e+3, 2.1409975e+2, 393729.84, -512794.6, 40631.246, -0.060148817, 0.27760038, 395547.3, 1237389.6, 0.014042192, 10.00974, 9.997538 
2.3051777e+3, 2.2409682e+2, -24839.889, -508986.0, 4977.8003, -0.011197083, 0.17558755, -24788.715, 719079.2, 0.0013723267, 10.00539, 9.998954 
2.3051281e+3, 2.3409498e+2, -298412.53, -592889.4, 38093.1, 0.031536885, 0.10028793, -293564.66, 352324.38, 0.000014156496, 10.00284, 9.998932 
2.3050779e+3, 2.4409531e+2, -379152.06, -271625.6, 17790.729, 0.03710594, 0.12835479, -268758.47, 279128.44, 0.0, 10.000279, 10.0016985 
2.305026e+3, 2.540987e+2, -656845.75, -339989.72, 16380.432, -0.018129976, 0.29111245, -339145.16, 110707.21, 0.0, 9.997636, 10.001829 
2.3049754e+3, 2.641009e+2, -862797.6, -321422.34, 42590.066, -0.02137509, 0.31524625, -318092.25, 33737.355, 0.0, 9.995264, 10.002425 
2.3049258e+3, 2.741015e+2, -1063132.9, -373760.56, 51119.355, 0.06985808, 0.14300343, -369990.5, -116167.375, 0.0, 9.993246, 10.002366 
2.304876e+3, 2.8410408e+2, -1235771.3, -207998.61, 76831.98, 0.08412922, 0.09032897, -202286.72, -46488.938, 0.0, 9.990537, 10.004138 
2.3048249e+3, 2.941089e+2, -1663577.9, -373415.47, 74861.49, -0.045905836, 0.16437262, -369086.2, -311335.38, 0.0, 9.986976, 10.004049 
2.3047747e+3, 3.0411422e+2, -1714940.5, 29074.363, 7922.095, 0.02460912, 0.14504506, 29110.35, 29110.35, 0.0, 9.984556, 10.007647 
2.3047222e+3, 3.141226e+2, -1875070.8, 30300.4, -19463.291, -0.05815789, 0.19721523, 30499.195, 30499.195, 0.0, 9.983139, 10.008329 
2.3154011e+3, 1.8417546e+2, 826564.2, -612271.75, -202537.5, 0.09910908, 0.3454697, 854530.75, 1989640.8, 0.4521966, 10.027819, 9.993079 
2.3153467e+3, 1.9415961e+2, 706601.3, -1434921.6, -72884.04, 0.10609669, 0.03504312, 709078.94, 1746344.8, 0.1990354, 10.021142, 9.987042 
2.3152903e+3, 2.0415692e+2, 891611.5, -468349.8, -121236.61, -0.1114883, 0.66092855, 902334.8, 1841626.4, 0.06481742, 10.015314, 9.996026 
2.3152374e+3, 2.1414933e+2, 330996.84, -632945.7, -160313.19, 0.039566275, 0.23557593, 356959.28, 1198320.1, 0.013509947, 10.009685, 9.996729 
2.3151839e+3, 2.2414547e+2, 30498.525, -391111.66, -94673.836, 0.07948383, 0.049321335, 50781.992, 794177.75, 0.0012207695, 10.005373, 9.999776 
2.3151304e+3, 2.3414679e+2, -232474.02, -452399.1, -52899.816, -0.03388402, 0.1942831, -220411.34, 424972.2, 0.000008865144, 10.002821, 9.999908 
2.3150772e+3, 2.4414822e+2, -368146.6, -246875.23, -82094.13, -0.05958249, 0.2702373, -205451.47, 341917.4, 0.0, 10.000266, 10.001877 
2.3150241e+3, 2.541498e+2, -649879.5, -326904.78, -82657.766, 0.022716595, 0.2386364, -306979.7, 142371.64, 0.0, 9.997638, 10.001921 
2.3149712e+3, 2.6415142e+2, -853006.9, -303725.47, -36195.004, 0.05735111, 0.19579983, -301350.66, 49983.234, 0.0, 9.99527, 10.002547 
2.3149186e+3, 2.7415326e+2, -1054219.5, -359040.28, -23642.16, 0.05110295, 0.13523889, -358237.16, -104920.836, 0.0, 9.993257, 10.002465 
2.3148657e+3, 2.841568e+2, -1221102.3, -177136.13, -52137.547, 0.028448932, 0.17057222, -174538.73, -19257.707, 0.0, 9.990532, 10.0043545 
2.3148115e+3, 2.9416245e+2, -1627562.5, -295366.4, -51991.87, -0.07688058, 0.2983404, -293340.38, -236115.73, 0.0, 9.986956, 10.004597 
2.3147595e+3, 3.041654e+2, -1755232.1, -50246.523, -36648.14, 0.059906363, 0.018011605, -49459.145, -49459.145, 0.0, 9.984531, 10.007117 
2.3147063e+3, 3.1417322e+2, -1977931.6, -195161.45, -187896.56, 0.044815876, 0.11349356, -175573.17, -175573.17, 0.0, 9.983188, 10.00676 
2.3254277e+3, 1.8422702e+2, 960803.9, -496412.16, -377136.84, 0.02188634, 0.29469466, 1052623.8, 2187230.0, 0.42269763, 10.02762, 9.994232 
2.3253672e+3, 1.9421452e+2, 650049.2, -1214015.6, -119626.484, 0.14169939, 0.088831544, 657694.9, 1694422.1, 0.1862876, 10.01926, 9.989474 
2.3253052e+3, 2.0421185e+2, 595276.6, -581306.5, 45446.957, -0.021311143, 0.57219195, 597029.44, 1535781.5, 0.060305156, 10.012936, 9.996326 
2.3252466e+3, 2.1420506e+2, 286408.84, -647667.56, 79704.336, 0.037100185, 0.22789066, 293161.16, 1133976.1, 0.012379312, 10.009338, 9.996789 
2.325189e+3, 2.2420174e+2, 115368.04, -330226.84, 218116.53, 0.044329, 0.08744499, 204361.44, 947206.9, 0.001083459, 10.005876, 9.99995 
2.3251328e+3, 2.3420314e+2, -278511.4, -454032.8, 206848.1, -0.019870674, 0.22969516, -141576.61, 503254.97, 0.000006773654, 10.002421, 10.000087 
2.3250774e+3, 2.4420428e+2, -475639.06, -322646.75, 161353.23, -0.013952631, 0.2813989, -220574.92, 326244.47, 0.0, 9.9996395, 10.001654 
2.3250222e+3, 2.54205e+2, -656507.7, -359239.53, 133633.28, 0.0814369, 0.19587728, -307998.78, 140811.64, 0.0, 9.997725, 10.001654 
2.3249671e+3, 2.642065e+2, -812425.25, -279068.6, 162500.02, 0.10695942, 0.15616146, -233459.25, 117335.336, 0.0, 9.995533, 10.002587 
2.3249118e+3, 2.7420905e+2, -1095673.1, -371734.97, 164925.27, 0.06320643, 0.16587365, -335932.8, -83162.625, 0.0, 9.992946, 10.002526 
2.3248562e+3, 2.842127e+2, -1212842.0, -163165.33, 112652.55, 0.027650528, 0.20672764, -151211.45, 3522.8743, 0.0, 9.99055, 10.004439 
2.324799e+3, 2.9421797e+2, -1403856.0, -171141.13, 95231.02, -0.058260493, 0.29739088, -163827.63, -107146.37, 0.0, 9.988427, 10.004735 
2.3247442e+3, 3.042215e+2, -1633911.3, -7641.0273, 104835.945, 0.049562458, 0.07030151, -910.73224, -910.73224, 0.0, 9.985437, 10.006969 
2.324688e+3, 3.1422898e+2, -2196259.5, -275360.8, -2864.7424, 0.008708625, 0.15858272, -275356.53, -275356.53, 0.0, 9.981596, 10.006973 
2.3354532e+3, 1.8428351e+2, 1221670.4, -295123.78, -497084.97, -0.17290361, 0.6686369, 1370058.6, 2504113.3, 0.35758886, 10.027135, 9.995857 
2.335386e+3, 1.9427292e+2, 954695.6, -618416.0, -371742.34, 0.11904774, 0.19778048, 1038118.2, 2074271.5, 0.1600185, 10.019029, 9.99421 
2.3353194e+3, 2.0426829e+2, 672632.6, -426429.75, -86568.39, 0.1309243, 0.17383882, 679409.44, 1617604.3, 0.052412532, 10.012853, 9.997471 
2.3352547e+3, 2.1426657e+2, 334631.44, -536580.3, -45334.742, -0.06915821, 0.25382954, 336984.16, 1177193.4, 0.010884978, 10.009272, 9.997595 
2.3351932e+3, 2.2426505e+2, 75227.25, -403979.44, 91756.67, -0.11041691, 0.274643, 92195.625, 834418.25, 0.00096957514, 10.005829, 9.999466 
2.335136e+3, 2.342638e+2, -322678.7, -542192.6, 79252.29, 0.062387533, 0.20889272, -297056.5, 347178.9, 0.000006997728, 10.002401, 9.999493 
2.3350786e+3, 2.4426343e+2, -520949.97, -415833.03, 83900.836, 0.15899512, 0.17023821, -369387.75, 176851.19, 0.0, 9.999632, 10.00102 
2.3350205e+3, 2.542643e+2, -700102.56, -451349.6, 62618.168, 0.146226, 0.16489783, -436476.13, 11753.91, 0.0, 9.997726, 10.001022 
2.3349626e+3, 2.6426613e+2, -816367.25, -289969.78, 66781.99, 0.1226257, 0.19416562, -281629.56, 68582.25, 0.0, 9.995539, 10.002512 
2.334905e+3, 2.742689e+2, -1093150.3, -371505.22, 68291.65, 0.10159761, 0.22902943, -365099.4, -112914.62, 0.0, 9.992962, 10.002522 
2.3348472e+3, 2.8427178e+2, -1217630.9, -177494.47, 32772.504, 0.07503528, 0.19896488, -176462.89, -22306.104, 0.0, 9.990563, 10.004336 
2.3347881e+3, 2.9427573e+2, -1422768.9, -220557.39, 21019.953, -0.008642059, 0.16853091, -220189.98, -164070.73, 0.0, 9.988465, 10.004381 
2.334729e+3, 3.042826e+2, -1608993.9, 38723.984, -47920.55, 0.0013928157, 0.2931266, 40116.477, 40116.477, 0.0, 9.9854555, 10.007282 
2.3346685e+3, 3.14288e+2, -2099430.0, -76924.88, 1641.0706, -0.10285643, 0.11520991, -76923.55, -76923.55, 0.0, 9.981593, 10.008344 
2.345571e+3, 1.7434023e+2, -235554.45, -750715.75, -650775.56, 0.24933124, -0.21639854, 206762.45, 1438249.0, 0.47726834, 10.012974, 10.000051 
2.3454739e+3, 1.8434632e+2, 388145.0, -736386.3, -108196.68, -0.23089005, 0.59556323, 398460.5, 1531894.5, 0.27454343, 10.016367, 9.995826 
2.3454016e+3, 1.9433793e+2, 499851.56, -735307.44, -119302.58, 0.06369688, 0.23820223, 511269.3, 1546783.1, 0.12576842, 10.014205, 9.995471 
2.3453316e+3, 2.0433281e+2, 490791.56, -513468.38, 103186.14, 0.16032562, 0.1003548, 501284.16, 1438846.0, 0.042380597, 10.011418, 9.997492 
2.3452634e+3, 2.1433169e+2, 109142.21, -651084.56, 92704.25, -0.012220148, 0.25413144, 120283.555, 959854.4, 0.00913891, 10.007725, 9.997536 
2.3451987e+3, 2.2433025e+2, -117653.9, -541829.9, 231727.6, -0.056339744, 0.30692872, -15609.768, 725974.25, 0.00085418485, 10.004704, 9.999056 
2.3451385e+3, 2.3432815e+2, -343720.34, -600279.4, 230289.23, 0.08232655, 0.20810793, -208392.64, 435212.9, 0.000007763715, 10.002473, 9.999056 
2.3450784e+3, 2.4432728e+2, -425835.66, -399600.72, 288030.88, 0.15555872, 0.15641643, -124388.76, 421225.47, 0.0, 10.000422, 10.000748 
2.3450182e+3, 2.54328e+2, -601353.1, -432139.0, 293680.06, 0.13351466, 0.17052865, -211121.58, 236484.23, 0.0, 9.998536, 10.000761 
2.3449582e+3, 2.6432967e+2, -714084.5, -267724.44, 282371.88, 0.10477563, 0.21232289, -130983.375, 218605.73, 0.0, 9.996367, 10.002261 
2.344898e+3, 2.7433217e+2, -988927.6, -345722.84, 260438.9, 0.0846262, 0.24998607, -253493.72, -1928.563, 0.0, 9.993793, 10.002295 
2.3448376e+3, 2.8433472e+2, -1185461.6, -182420.39, 207191.3, 0.06996084, 0.20904475, -141307.47, 12233.886, 0.0, 9.990883, 10.004146 
2.3447761e+3, 2.9433802e+2, -1576455.5, -334186.84, 189782.6, 0.029299447, 0.1418044, -305840.4, -250329.27, 0.0, 9.98759, 10.004021 
2.3447141e+3, 3.0434522e+2, -1651477.1, -23331.098, 93416.016, -0.01437965, 0.34787366, -17988.818, -17988.818, 0.0, 9.985349, 10.006906 
2.3446514e+3, 3.1435052e+2, -1798178.8, 100521.625, 102174.984, -0.054225132, 0.18385704, 106004.15, 106004.15, 0.0, 9.983526, 10.008624 
2.355678e+3, 1.6441998e+2, -1050160.3, -1351427.6, -522978.44, -0.24347588, 0.41937712, -656554.1, 672154.5, 0.4987689, 10.005288, 9.998938 
2.3555815e+3, 1.7441618e+2, 37078.008, -596841.5, -629252.2, 0.050817776, 0.027939575, 424690.34, 1655429.4, 0.33562976, 10.012891, 10.000329 
2.3554908e+3, 1.8441336e+2, 436087.88, -903185.2, -163712.97, -0.1415173, 0.028155865, 455809.75, 1588575.5, 0.19433577, 10.016159, 9.99414 
2.3554145e+3, 1.9440885e+2, 429862.53, -966650.5, -191865.47, -0.03259026, 0.23320295, 455743.13, 1490559.1, 0.0908347, 10.014058, 9.993711 
2.355342e+3, 2.0440447e+2, 430651.66, -648135.1, -20442.617, 0.079533346, 0.30988213, 431038.9, 1367900.4, 0.031642273, 10.01133, 9.99655 
2.3552729e+3, 2.1440008e+2, 45085.914, -780322.6, -37199.938, 0.18671146, 0.22668031, 46759.066, 885661.56, 0.0071280682, 10.007686, 9.996662 
2.3552056e+3, 2.2439723e+2, -143468.52, -595441.9, 149693.81, 0.1773957, 0.19814928, -98386.54, 642543.7, 0.00069043215, 10.004697, 9.998693 
2.3551401e+3, 2.3439604e+2, -366097.03, -648407.5, 149720.05, 0.02837571, 0.22497688, -301483.25, 341460.22, 0.0000068289205, 10.002473, 9.998729 
2.355077e+3, 2.4439561e+2, -422566.25, -394320.16, 216133.69, -0.025107635, 0.23363763, -191848.58, 353098.2, 0.0, 10.000422, 10.000787 
2.3550156e+3, 2.5439605e+2, -593504.1, -420644.63, 223443.08, 0.034620352, 0.21273068, -267497.84, 179440.4, 0.0, 9.99855, 10.000836 
2.3549539e+3, 2.643971e+2, -745451.3, -335890.34, 186191.72, 0.046153147, 0.2122915, -263899.44, 85026.84, 0.0, 9.996376, 10.001791 
2.3548909e+3, 2.743989e+2, -1021234.7, -416221.7, 165347.38, 0.0028303058, 0.23006855, -373982.0, -123071.47, 0.0, 9.993803, 10.001807 
2.3548277e+3, 2.8440154e+2, -1204083.0, -223971.28, 85217.89, 0.0026173652, 0.23773865, -216617.02, -63730.48, 0.0, 9.990889, 10.0038595 
2.3547637e+3, 2.9440507e+2, -1602048.5, -389965.94, 73344.57, 0.035780136, 0.21687125, -385543.9, -330689.2, 0.0, 9.987594, 10.003639 
2.3546995e+3, 3.044094e+2, -1736303.3, -203856.6, 50119.277, 0.0116553325, 0.22401978, -202219.19, -202219.19, 0.0, 9.985364, 10.005661 
2.354636e+3, 3.1441745e+2, -1849908.1, -18652.373, -75250.93, 0.06697596, 0.44635445, -15565.326, -15565.326, 0.0, 9.983575, 10.007783 
2.3657757e+3, 1.5449226e+2, -974770.75, -1460296.3, -160734.7, 0.15320109, -0.26129478, -926381.6, 499620.22, 0.49215814, 10.007955, 9.996172 
2.3656867e+3, 1.6450067e+2, -771805.5, -1177718.9, -363820.38, 0.07802797, 0.8929046, -558160.8, 769762.8, 0.3493208, 10.0065775, 9.998561 
2.365592e+3, 1.7449209e+2, -142722.28, -816676.5, -519638.3, 0.0058336616, 0.18073824, 139636.98, 1369634.9, 0.22676533, 10.01024, 9.998712 
2.3655051e+3, 1.8448575e+2, -27412.871, -1199169.5, -168276.8, -0.04379239, -0.070795156, -3725.373, 1128331.6, 0.12927385, 10.011604, 9.993937 
2.3654263e+3, 1.944822e+2, -22864.941, -1224575.8, -102678.695, -0.055913582, 0.23755187, -14154.819, 1019942.44, 0.060748003, 10.010429, 9.993637 
2.3653513e+3, 2.0447789e+2, 81576.85, -872474.7, 120512.13, 0.01726522, 0.3524983, 96564.05, 1032706.0, 0.021610143, 10.009014, 9.996063 
2.3652802e+3, 2.144724e+2, -32003.06, -873311.8, 127716.01, 0.19550869, 0.21437392, -13042.284, 825152.2, 0.0049651125, 10.007386, 9.9961605 
2.365211e+3, 2.244689e+2, -82454.19, -631838.7, 334780.53, 0.21065412, 0.18145989, 75905.336, 816134.56, 0.00046621895, 10.00541, 9.998096 
2.3651429e+3, 2.3446769e+2, -333210.66, -697049.1, 315675.47, 0.027114272, 0.27081218, -150787.19, 491456.34, 0.000003883378, 10.002988, 9.998142 
2.3650768e+3, 2.4446687e+2, -424520.94, -436757.72, 365580.53, -0.0378286, 0.2940213, -65007.625, 479242.84, 0.0, 10.000597, 10.000407 
2.365014e+3, 2.544664e+2, -671833.44, -497970.94, 338266.84, 0.04321307, 0.22366521, -235643.69, 210606.03, 0.0, 9.998194, 10.000472 
2.3649497e+3, 2.6446676e+2, -835305.75, -415105.94, 280916.53, 0.04666555, 0.18997557, -274412.34, 73832.01, 0.0, 9.995924, 10.00146 
2.364884e+3, 2.7446812e+2, -1044652.25, -464765.97, 269629.88, -0.029643131, 0.20075919, -358770.63, -108537.12, 0.0, 9.9938135, 10.001465 
2.3648183e+3, 2.844708e+2, -1075199.9, -182910.6, 186430.22, -0.035271995, 0.24228704, -145525.23, 6684.26, 0.0, 9.991875, 10.003661 
2.364752e+3, 2.9447475e+2, -1271644.4, -244537.66, 174364.67, 0.01899159, 0.2871604, -215744.17, -161571.02, 0.0, 9.989931, 10.003504 
2.364686e+3, 3.0447793e+2, -1523413.4, -190820.27, 202945.64, 0.06424518, 0.22483632, -160598.31, -160598.31, 0.0, 9.987215, 10.004853 
2.3646197e+3, 3.144841e+2, -1741494.4, -32113.799, 54818.953, 0.071452744, 0.3522945, -30357.588, -30357.588, 0.0, 9.984605, 10.007191 
2.375782e+3, 1.5457468e+2, -638407.8, -933573.94, -300098.78, 0.014212752, 0.27681136, -451565.9, 973635.2, 0.37092566, 10.007794, 10.001583 
2.3756926e+3, 1.6457471e+2, -817573.9, -1493703.8, -355755.28, 0.04098957, 0.44643238, -664874.4, 662320.9, 0.24677736, 10.006735, 9.995821 
2.3756026e+3, 1.7456841e+2, -229210.78, -1186765.6, -456173.34, 0.072039135, 0.28405225, -46684.99, 1182573.0, 0.1505574, 10.010224, 9.995545 
2.3755176e+3, 1.8456271e+2, 89084.36, -1054744.6, -200526.48, 0.05102072, 0.21212144, 123220.24, 1254533.5, 0.082185775, 10.011516, 9.994999 
2.3754366e+3, 1.9455771e+2, 81444.01, -1040298.0, -142058.7, -0.02643935, 0.24303411, 99154.86, 1132514.5, 0.037881926, 10.010371, 9.994935 
2.3753594e+3, 2.0455293e+2, 76580.875, -893232.9, 64024.62, -0.03853731, 0.2506602, 80789.35, 1016194.2, 0.013375165, 10.008977, 9.995937 
2.3752856e+3, 2.1454827e+2, -50862.19, -907712.6, 70380.25, 0.021047948, 0.21788359, -45119.76, 792330.3, 0.0029721295, 10.007343, 9.995949 
2.3752145e+3, 2.2454493e+2, -144945.08, -756964.7, 246882.28, 0.057916313, 0.24957553, -57771.89, 681712.56, 0.00023982061, 10.005382, 9.997252 
2.375146e+3, 2.345429e+2, -394582.78, -824158.3, 226275.03, 0.0724885, 0.3461158, -297386.3, 344121.2, 0.0000012295927, 10.002979, 9.997276 
2.3750788e+3, 2.4454096e+2, -482112.75, -556998.06, 274094.5, 0.10610166, 0.338508, -242915.33, 300611.03, 0.0, 10.000594, 9.999585 
2.375013e+3, 2.54539e+2, -728097.44, -617164.25, 247559.19, 0.14959933, 0.20300579, -418933.97, 26606.922, 0.0, 9.9981985, 9.999654 
2.374946e+3, 2.645386e+2, -848952.5, -447379.9, 199692.06, 0.09950267, 0.1432287, -364984.2, -17440.47, 0.0, 9.995933, 10.001238 
2.3748776e+3, 2.7453974e+2, -1056945.3, -497810.38, 193848.34, -0.03214829, 0.15537812, -437179.16, -187644.5, 0.0, 9.993838, 10.001228 
2.3748098e+3, 2.8454244e+2, -1082429.6, -206606.05, 114293.016, -0.047034476, 0.22216341, -191936.75, -40426.703, 0.0, 9.991906, 10.003486 
2.3747417e+3, 2.9454723e+2, -1254425.3, -226532.31, 96830.53, -0.0018726363, 0.36914006, -217490.13, -164025.45, 0.0, 9.99, 10.003597 
2.3746736e+3, 3.0455086e+2, -1531206.0, -220349.2, 85376.38, 0.101918116, 0.34137046, -214812.02, -214812.02, 0.0, 9.987266, 10.00463 
2.374603e+3, 3.145523e+2, -1668928.4, 88268.3, 10772.403, -0.047966544, 0.050206836, 88334.336, 88334.336, 0.0, 9.984713, 10.0079775 
2.3858787e+3, 1.4465813e+2, -1172935.5, -1313058.0, -101448.44, -0.116915844, 0.83499336, -1119707.0, 402689.84, 0.42124507, 10.003816, 10.000615 
2.3857878e+3, 1.5465476e+2, -686986.6, -986006.06, -268351.63, -0.048477408, 0.38839763, -529306.25, 895110.3, 0.28884014, 10.006602, 10.001026 
2.3856995e+3, 1.6465065e+2, -624729.1, -1484737.1, -310264.8, 0.020225089, 0.21061608, -524480.6, 801970.7, 0.17838258, 10.00828, 9.995016 
2.3856121e+3, 1.746465e+2, -345387.03, -1352220.6, -278035.1, 0.086830206, 0.34555408, -273710.8, 954784.9, 0.099954434, 10.0092745, 9.994709 
2.3855278e+3, 1.8464138e+2, -133137.56, -1151640.5, -42545.484, 0.078783505, 0.36847186, -131363.42, 999182.4, 0.05063712, 10.0094795, 9.995261 
2.385446e+3, 1.9463517e+2, -69535.52, -1085817.4, -45626.957, -0.014337925, 0.24866118, -67491.17, 965110.6, 0.022163875, 10.009028, 9.995259 
2.3853676e+3, 2.0462987e+2, -96253.67, -1010661.3, 95616.85, -0.029496824, 0.20437077, -86362.305, 848289.06, 0.0074517154, 10.007878, 9.995652 
2.3852922e+3, 2.1462558e+2, -263238.38, -1043984.75, 90313.41, 0.04099502, 0.23980321, -252927.47, 583766.7, 0.0014748436, 10.0060215, 9.9956455 
2.3852192e+3, 2.2462206e+2, -308626.22, -870325.5, 280502.03, 0.06940689, 0.2885676, -192540.2, 546189.7, 0.000084931766, 10.004408, 9.996942 
2.3851487e+3, 2.3461927e+2, -400905.56, -861322.5, 298322.97, 0.06349266, 0.34208143, -254295.05, 386464.03, 0.00000013632315, 10.003088, 9.996967 
2.3850794e+3, 2.4461682e+2, -435034.16, -605034.2, 354601.94, 0.09242064, 0.3337675, -155387.05, 387396.53, 0.0, 10.001232, 9.998944 
2.3850112e+3, 2.5461465e+2, -696011.9, -675423.8, 335955.6, 0.14783551, 0.24491419, -349604.6, 95198.945, 0.0, 9.998745, 9.998987 
2.3849422e+3, 2.64614e+2, -757788.3, -403676.3, 316745.3, 0.103766814, 0.20123681, -217859.86, 128949.62, 0.0, 9.996572, 10.001225 
2.3848718e+3, 2.7461496e+2, -936011.1, -437345.7, 323212.25, -0.022127489, 0.19897127, -278471.4, -29670.914, 0.0, 9.994669, 10.00124 
2.384802e+3, 2.8461742e+2, -996530.94, -188988.38, 252807.55, -0.031050809, 0.25456437, -116374.41, 34402.426, 0.0, 9.992606, 10.003265 
2.3847316e+3, 2.9462177e+2, -1197627.1, -221463.05, 225261.39, 0.01435505, 0.38410982, -171988.78, -119254.06, 0.0, 9.990495, 10.00339 
2.3846604e+3, 3.0462453e+2, -1356808.9, -128390.19, 173541.08, 0.03159594, 0.28230718, -104344.39, -104344.39, 0.0, 9.988438, 10.004689 
2.3845866e+3, 3.1462815e+2, -1517719.1, 243859.61, 74325.34, -0.16531414, 0.20575319, 246990.02, 246990.02, 0.0, 9.985413, 10.0086975 
2.3959734e+3, 1.3474163e+2, -1061505.5, -1380253.6, -69481.3, 0.23759577, 0.38093895, -1047018.3, 572544.7, 0.48720467, 10.007726, 9.99945 
2.3958819e+3, 1.4474045e+2, -1299257.4, -1758475.9, -102722.13, -0.13472292, 0.5235277, -1277326.9, 244242.67, 0.35866246, 10.00412, 9.996414 
2.395794e+3, 1.5473336e+2, -890313.6, -1542177.9, -234689.06, -0.06289458, 0.20055512, -814610.75, 609031.56, 0.23315407, 10.006682, 9.996073 
2.3957072e+3, 1.6472822e+2, -537381.1, -1364431.4, -281633.0, 0.003376759, 0.1365478, -450586.2, 875107.7, 0.13303098, 10.008249, 9.995825 
2.3956206e+3, 1.7472607e+2, -254558.56, -1211494.8, -250675.4, 0.05380903, 0.3699003, -192869.39, 1034845.0, 0.06720248, 10.009229, 9.995682 
2.3955366e+3, 1.8472148e+2, -150963.47, -1221876.9, -60583.348, 0.04742828, 0.42120323, -147547.06, 982211.06, 0.030586096, 10.0094185, 9.994811 
2.3954548e+3, 1.9471432e+2, -106332.6, -1165907.4, -63191.434, -0.022852488, 0.2562632, -102577.27, 929249.06, 0.012246437, 10.008947, 9.994752 
2.395376e+3, 2.0470852e+2, -130658.14, -1078187.9, 27952.857, 0.034088634, 0.207937, -129834.23, 804048.8, 0.0037232384, 10.007826, 9.995217 
2.3952998e+3, 2.1470414e+2, -293823.97, -1107890.8, 23640.568, 0.23040244, 0.2789221, -293138.03, 542789.56, 0.0005807846, 10.006013, 9.995215 
2.3952249e+3, 2.2470023e+2, -293642.1, -843324.06, 232620.16, 0.22179903, 0.30047902, -208414.06, 529552.2, 0.000017662343, 10.004419, 9.997125 
2.3951507e+3, 2.3469672e+2, -387276.66, -833336.1, 249476.3, -0.011483388, 0.26237318, -275671.25, 364327.75, 0.0, 10.003083, 9.997165 
2.3950785e+3, 2.4469443e+2, -471470.56, -681335.5, 260594.8, -0.079966486, 0.28394964, -295475.16, 246547.47, 0.0, 10.001225, 9.998426 
2.3950085e+3, 2.5469327e+2, -732933.2, -755711.6, 242798.6, 0.029616069, 0.35258946, -501256.84, -57218.824, 0.0, 9.998754, 9.998435 
2.394938e+3, 2.6469302e+2, -742770.56, -378040.13, 243879.14, 0.05618853, 0.3683236, -255882.58, 90158.84, 0.0, 9.996589, 10.001397 
2.3948665e+3, 2.7469394e+2, -911870.44, -397396.03, 251334.03, 0.0012476693, 0.3414926, -294994.8, -46965.254, 0.0, 9.994704, 10.0015 
2.394795e+3, 2.8469586e+2, -1013948.94, -232591.56, 173092.38, 0.0058269226, 0.33868292, -195963.8, -45954.98, 0.0, 9.992631, 10.002957 
2.3947221e+3, 2.9469812e+2, -1231069.5, -300989.2, 156995.97, 0.033619557, 0.2952022, -275203.4, -223218.13, 0.0, 9.990531, 10.00283 
2.394647e+3, 3.0469924e+2, -1340903.1, -106411.75, 82111.29, -0.13998763, 0.061373767, -100974.125, -100974.125, 0.0, 9.988477, 10.004826 
2.3945728e+3, 3.1470826e+2, -1722615.4, -200679.58, -179200.77, -0.07509358, 0.49527916, -179864.22, -179864.22, 0.0, 9.9854765, 10.005624 
2.4059792e+3, 1.3481739e+2, -1129637.5, -1390990.0, -226901.89, 0.20316462, -0.19371496, -998472.6, 620341.6, 0.44210026, 10.006076, 9.999861 
2.4058874e+3, 1.4481919e+2, -1095055.8, -1765322.3, -245307.88, -0.103475474, 0.26635912, -1014869.56, 505925.5, 0.31536707, 10.0066395, 9.99526 
2.405801e+3, 1.5481326e+2, -845807.44, -1663087.6, -215758.58, -0.03645668, 0.18808562, -792345.3, 630514.06, 0.19497238, 10.007438, 9.994815 
2.4057151e+3, 1.6480838e+2, -534150.56, -1352014.6, -193758.94, 0.014035447, 0.20521306, -490569.66, 834339.5, 0.10272884, 10.007979, 9.995986 
2.4056289e+3, 1.7480543e+2, -339021.5, -1240093.6, -210718.25, 0.0331226, 0.34141314, -292179.5, 934755.9, 0.046171576, 10.00837, 9.995877 
2.405545e+3, 1.8480068e+2, -355555.97, -1354717.1, -80238.62, 0.03686586, 0.37865612, -349153.34, 779828.2, 0.01828837, 10.0080185, 9.994571 
2.4054629e+3, 1.9479409e+2, -396482.94, -1336803.1, -71364.06, 0.025315136, 0.2934727, -391097.72, 639950.4, 0.0064362492, 10.007028, 9.994499 
2.405383e+3, 2.047885e+2, -329589.28, -1156044.0, 42557.902, 0.07603942, 0.2759716, -327403.56, 605699.9, 0.001660956, 10.006369, 9.995381 
2.4053054e+3, 2.1478407e+2, -258782.45, -1071562.6, 75944.234, 0.2004039, 0.32312712, -251747.3, 583399.44, 0.00016869533, 10.006173, 9.995384 
2.4052288e+3, 2.2477987e+2, -225094.83, -819406.6, 268320.4, 0.17220147, 0.3163976, -121879.055, 615307.8, 0.0000014862793, 10.004939, 9.997034 
2.4051534e+3, 2.3477595e+2, -463964.03, -880543.06, 261341.17, -0.024030548, 0.24677935, -338062.38, 301161.2, 0.0, 10.002608, 9.997066 
2.4050792e+3, 2.4477369e+2, -588651.0, -731783.4, 267355.75, -0.080207564, 0.276561, -383448.66, 157798.2, 0.0, 10.000403, 9.998473 
2.4050069e+3, 2.5477305e+2, -794408.94, -779860.9, 290883.1, 0.018351512, 0.3950815, -496160.84, -52903.164, 0.0, 9.998316, 9.998477 
2.404934e+3, 2.6477277e+2, -758758.1, -405091.13, 326042.4, 0.041799575, 0.41847274, -211015.28, 134246.23, 0.0, 9.996572, 10.001216 
2.4048613e+3, 2.7477318e+2, -853652.2, -389218.38, 299634.25, -0.0010615843, 0.36159584, -242350.36, 4904.401, 0.0, 9.995201, 10.001312 
2.4047874e+3, 2.8477493e+2, -924879.0, -192093.9, 184832.98, -0.008792029, 0.35576192, -148112.56, 1122.9265, 0.0, 9.993262, 10.002926 
2.4047121e+3, 2.9477713e+2, -1227006.5, -301635.06, 192636.64, -0.013060878, 0.3117266, -263135.25, -211922.64, 0.0, 9.990581, 10.002797 
2.4046355e+3, 3.0477837e+2, -1279099.4, -34405.605, 178641.75, -0.09975778, 0.07350888, -9273.904, -9273.904, 0.0, 9.988724, 10.005199 
2.404561e+3, 3.1478724e+2, -1453861.9, -282617.88, -55379.22, 0.11826394, 0.46335813, -280005.25, -280005.25, 0.0, 9.988233, 10.00373 
2.4159837e+3, 1.3490382e+2, -1253357.6, -1780173.4, -270823.8, 0.05926725, 0.47354248, -1138970.3, 479003.84, 0.41090855, 10.006261, 9.996221 
2.4158943e+3, 1.4489564e+2, -986185.44, -1566437.5, -206003.33, -0.045810133, 0.062116, -920487.8, 599567.3, 0.28498277, 10.006809, 9.996544 
2.4158086e+3, 1.5489432e+2, -736602.06, -1448609.4, -185079.47, 0.014228693, 0.3054643, -691366.4, 730701.5, 0.16829221, 10.00745, 9.99628 
2.4157229e+3, 1.6489053e+2, -549722.44, -1415314.0, -185468.42, 0.037446063, 0.3755573, -511656.56, 812446.9, 0.08214619, 10.007925, 9.995568 
2.4156368e+3, 1.7488468e+2, -365960.34, -1309571.1, -199009.08, 0.013227314, 0.2650957, -325706.22, 900451.75, 0.032618098, 10.008303, 9.99543 
2.4155527e+3, 1.8487926e+2, -361770.5, -1369177.8, -113298.6, 0.038526308, 0.26217586, -349185.53, 779027.25, 0.010914299, 10.007967, 9.994499 
2.4154705e+3, 1.948744e+2, -402668.66, -1349686.4, -103880.87, 0.114008166, 0.35952207, -391407.6, 638859.0, 0.0032396559, 10.007005, 9.994425 
2.4153891e+3, 2.0486972e+2, -281597.78, -1057992.1, 38780.95, 0.08911027, 0.39967734, -279665.47, 652648.0, 0.00064955314, 10.006364, 9.996059 
2.4153088e+3, 2.1486521e+2, -216439.56, -976437.1, 71693.03, -0.038547408, 0.3716961, -209735.66, 624617.25, 0.000031125594, 10.006135, 9.996058 
2.4152312e+3, 2.2486092e+2, -257058.16, -878042.4, 183570.97, -0.06220029, 0.3393856, -206851.44, 529541.5, 0.000000007804179, 10.004899, 9.9966545 
2.415156e+3, 2.3485683e+2, -495528.3, -942092.8, 174905.19, 0.02160191, 0.2940823, -435179.13, 203254.72, 0.0, 10.0025835, 9.996658 
2.4150808e+3, 2.448545e+2, -546977.94, -646305.3, 186908.92, 0.08049142, 0.30711502, -403247.13, 137210.05, 0.0, 10.000401, 9.999064 
2.4150056e+3, 2.548539e+2, -749435.7, -690170.5, 211775.16, 0.10354095, 0.36972812, -505964.8, -63501.65, 0.0, 9.998324, 9.999092 
2.4149305e+3, 2.648532e+2, -798720.7, -494000.78, 272929.38, 0.052572016, 0.3490029, -333784.34, 10686.003, 0.0, 9.996588, 10.000601 
2.4148557e+3, 2.7485254e+2, -897995.2, -490692.4, 249473.97, -0.050195124, 0.2504326, -372301.63, -125824.25, 0.0, 9.995234, 10.000604 
2.4147795e+3, 2.8485465e+2, -902604.56, -150777.67, 82648.57, -0.08304801, 0.30364722, -141799.3, 6658.154, 0.0, 9.993277, 10.003206 
2.4147014e+3, 2.9485908e+2, -1184949.0, -220440.86, 90823.56, -0.113300435, 0.45461994, -211962.92, -161548.39, 0.0, 9.990597, 10.00335 
2.4146265e+3, 3.0486232e+2, -1223305.4, 69524.055, 151084.78, 0.15058391, 0.34146073, 86945.61, 86945.61, 0.0, 9.988765, 10.0058975 
2.414547e+3, 3.1486836e+2, -1293816.0, 19856.785, 141859.39, -0.07802079, 0.39914018, 35001.145, 35001.145, 0.0, 9.988372, 10.005733 
2.42599e+3, 1.3498658e+2, -1147571.0, -1787343.5, -143585.16, 0.04554101, 0.63435334, -1116823.8, 500343.28, 0.3890748, 10.007601, 9.995265 
2.4259023e+3, 1.449776e+2, -747293.9, -1411372.1, -106094.55, 0.026951984, 0.18280497, -730755.9, 788501.6, 0.2631697, 10.008742, 9.996784 
2.4258156e+3, 1.5497635e+2, -686671.44, -1390973.4, -137264.84, 0.012187795, 0.4123024, -660864.8, 760402.4, 0.14914277, 10.007573, 9.996591 
2.4257298e+3, 1.6497228e+2, -662441.75, -1477730.5, -132699.38, 0.013427318, 0.4373105, -641386.9, 681917.2, 0.06782245, 10.00701, 9.995564 
2.4256441e+3, 1.7496556e+2, -518018.22, -1387420.4, -118726.84, 0.02045893, 0.2426928, -502096.3, 723270.06, 0.02376631, 10.007183, 9.995424 
2.42556e+3, 1.8496016e+2, -469410.34, -1379529.6, -33744.465, 0.055524364, 0.22551651, -468160.9, 659259.5, 0.0065403287, 10.00702, 9.994879 
2.425477e+3, 1.9495627e+2, -432680.7, -1321762.6, 641.6939, 0.12449981, 0.38202378, -432680.22, 596784.2, 0.0015676882, 10.00661, 9.994802 
2.425395e+3, 2.0495182e+2, -348351.7, -1075910.4, 144264.61, 0.08588768, 0.4255561, -320790.16, 610718.3, 0.00021133873, 10.005848, 9.996182 
2.4253137e+3, 2.1494691e+2, -402751.8, -1052202.3, 135081.56, -0.06534622, 0.34768754, -375776.2, 457775.47, 0.000002457861, 10.004802, 9.996178 
2.4252346e+3, 2.2494262e+2, -490838.66, -998918.44, 186757.66, -0.087269954, 0.31646767, -429577.6, 306014.5, 0.0, 10.003331, 9.996577 
2.425158e+3, 2.3493895e+2, -665153.44, -1032007.1, 199113.83, 0.035483032, 0.32189855, -577855.8, 59774.508, 0.0, 10.001459, 9.99658 
2.425081e+3, 2.449365e+2, -596558.0, -664351.7, 227274.52, 0.09754903, 0.3282737, -400666.44, 138988.36, 0.0, 10.000042, 9.99911 
2.425004e+3, 2.5493532e+2, -632219.44, -627506.56, 207943.88, 0.08643689, 0.32956174, -421905.78, 19759.576, 0.0, 9.999108, 9.999141 
2.4249268e+3, 2.649347e+2, -708281.0, -441764.16, 249644.64, 0.031041307, 0.3103873, -292038.03, 51633.21, 0.0, 9.997178, 10.000671 
2.4248503e+3, 2.7493456e+2, -1048620.8, -558825.56, 277307.97, -0.0400479, 0.2609655, -433757.53, -188084.2, 0.0, 9.994185, 10.000639 
2.4247722e+3, 2.8493652e+2, -1032990.4, -216927.95, 145991.17, -0.07948289, 0.3020176, -191596.86, -43941.754, 0.0, 9.992401, 10.003172 
2.4246919e+3, 2.9494068e+2, -1003002.9, -132325.42, 124062.45, -0.15786105, 0.43243834, -114992.86, -65377.89, 0.0, 9.991852, 10.0033455 
2.4246165e+3, 3.049446e+2, -971264.0, 109735.484, 120327.516, 0.19991265, 0.42380482, 122967.34, 122967.34, 0.0, 9.990846, 10.005169 
2.4245337e+3, 3.1494698e+2, -1119317.3, 207237.27, 94616.305, -0.26462054, 0.19124809, 213951.77, 213951.77, 0.0, 9.989132, 10.006649 
2.4360806e+3, 1.2507008e+2, -1532375.1, -1936830.1, -57080.97, -0.06379727, 0.3375937, -1524473.6, 189868.38, 0.49044433, 10.004193, 9.996473 
2.4359979e+3, 1.350674e+2, -1103818.5, -1676612.3, -47094.5, 0.11255775, 0.47250322, -1099972.3, 516404.28, 0.37337264, 10.007575, 9.9959545 
2.4359114e+3, 1.4506349e+2, -782051.2, -1484753.3, -142853.5, 0.09362596, 0.5221084, -754120.44, 764297.9, 0.24696125, 10.0085535, 9.996187 
2.4358225e+3, 1.5505919e+2, -720144.0, -1482268.0, -178627.36, -0.036988728, 0.5055048, -680354.5, 740104.5, 0.13490333, 10.007493, 9.996007 
2.4357359e+3, 1.650539e+2, -635035.56, -1432370.3, -124499.086, -0.049418986, 0.422486, -616047.94, 706459.75, 0.05752995, 10.007, 9.995881 
2.4356511e+3, 1.750479e+2, -492286.44, -1341869.1, -111460.6, 0.04280531, 0.26666468, -477906.8, 746655.4, 0.01785601, 10.007178, 9.995741 
2.435567e+3, 1.8504304e+2, -418615.9, -1276719.8, -48945.05, 0.07840958, 0.2515941, -415833.2, 710774.94, 0.0039505693, 10.007013, 9.99559 
2.4354827e+3, 1.950394e+2, -387890.75, -1221859.3, -15370.614, 0.062128637, 0.36530346, -387607.56, 641037.06, 0.0007277802, 10.006572, 9.995509 
2.4354003e+3, 2.0503475e+2, -380191.0, -1135895.6, 104088.375, 0.06939768, 0.3686999, -366116.3, 564574.0, 0.0000513508, 10.005815, 9.9957905 
2.4353199e+3, 2.150291e+2, -437522.66, -1116685.4, 96982.11, 0.093770035, 0.2579555, -423945.34, 408798.66, 0.000000005844197, 10.004762, 9.995758 
2.4352393e+3, 2.2502495e+2, -479202.03, -971383.56, 117154.77, 0.0699776, 0.25192925, -452738.4, 282046.5, 0.0, 10.003311, 9.9967785 
2.4351586e+3, 2.3502225e+2, -652165.8, -1004742.1, 129214.4, 0.0042299693, 0.3358795, -609881.56, 26932.0, 0.0, 10.001452, 9.996774 
2.4350797e+3, 2.4501966e+2, -631743.56, -741012.7, 190481.95, -0.029075626, 0.34295934, -488215.78, 50624.79, 0.0, 10.00005, 9.998584 
2.4350014e+3, 2.5501725e+2, -667537.25, -706251.1, 172780.08, -0.040009417, 0.2761721, -513033.2, -72168.21, 0.0, 9.9991255, 9.998595 
2.434923e+3, 2.6501727e+2, -651680.3, -326608.28, 134841.34, -0.023859683, 0.30643186, -277956.84, 64907.465, 0.0, 9.997181, 10.001464 
2.434845e+3, 2.7501935e+2, -992530.5, -442597.5, 163832.61, 0.034449082, 0.40168434, -397489.5, -152647.92, 0.0, 9.994178, 10.001444 
2.434765e+3, 2.8502053e+2, -1065369.9, -287404.22, 125001.02, -0.0029053334, 0.3496908, -267812.8, -120984.555, 0.0, 9.992407, 10.002689 
2.4346831e+3, 2.950216e+2, -1041643.44, -228569.25, 106474.984, -0.18387486, 0.21955676, -214857.2, -166040.63, 0.0, 9.991913, 10.002659 
2.4346057e+3, 3.050248e+2, -1123471.5, -222049.4, 56025.563, 0.059093874, 0.29706317, -218580.63, -218580.63, 0.0, 9.99091, 10.002862 
2.4345256e+3, 3.1502536e+2, -1247015.9, -83872.38, -27190.14, 0.018942991, 0.09356532, -83237.12, -83237.12, 0.0, 9.9892235, 10.004616 
2.4460879e+3, 1.2514915e+2, -1132514.4, -1613516.4, -18573.268, 0.014180336, 0.028495366, -1131798.3, 581771.9, 0.4804963, 10.009182, 9.996901 
2.4460045e+3, 1.3514885e+2, -1055597.8, -1591757.1, -17668.324, 0.037134435, 0.34893256, -1055016.1, 560561.3, 0.3611834, 10.007685, 9.996564 
2.445918e+3, 1.451463e+2, -954959.94, -1594451.8, -133056.14, 0.028966825, 0.50220066, -928380.25, 589224.0, 0.23416029, 10.0069, 9.996197 
2.4458298e+3, 1.5514186e+2, -797622.6, -1528493.3, -135335.7, 0.017868659, 0.4737207, -773367.4, 646280.1, 0.123783894, 10.006824, 9.995991 
2.445743e+3, 1.6513671e+2, -651123.44, -1443829.0, -41263.258, 0.014995508, 0.40632328, -648981.4, 672714.94, 0.049830526, 10.006851, 9.995866 
2.4456577e+3, 1.7513117e+2, -505396.1, -1349657.3, -49374.246, 0.019047154, 0.29988778, -502518.38, 721229.06, 0.013793452, 10.007069, 9.995736 
2.445573e+3, 1.851264e+2, -439823.47, -1245305.5, -38110.574, 0.03592341, 0.27676806, -438024.3, 687767.75, 0.0024125944, 10.006684, 9.995962 
2.4454886e+3, 1.9512251e+2, -476597.4, -1221755.3, -29635.893, 0.0636488, 0.32606336, -475420.63, 552408.5, 0.000320924, 10.005785, 9.995885 
2.4454056e+3, 2.0511803e+2, -528027.56, -1196556.6, 81815.36, 0.08925891, 0.3273488, -518160.53, 411712.16, 0.0000075972844, 10.004761, 9.995877 
2.4453239e+3, 2.1511303e+2, -591596.6, -1182091.8, 103571.375, 0.11793502, 0.27318016, -573957.4, 257964.63, 0.0, 10.00367, 9.9958315 
2.4452423e+3, 2.2510915e+2, -556411.8, -969858.75, 134563.36, 0.09654764, 0.27548996, -516473.78, 217486.9, 0.0, 10.002622, 9.997117 
2.4451602e+3, 2.351064e+2, -602236.5, -942859.7, 154445.61, 0.029157111, 0.3233942, -542636.2, 93352.65, 0.0, 10.00164, 9.997103 
2.4450794e+3, 2.4510401e+2, -624799.1, -722282.1, 241506.83, -0.023913583, 0.3295598, -427164.3, 110849.13, 0.0, 10.000037, 9.998716 
2.4449992e+3, 2.55102e+2, -849119.9, -779328.6, 270591.22, -0.065462105, 0.29405025, -541392.25, -101358.2, 0.0, 9.997822, 9.99872 
2.4449192e+3, 2.6510206e+2, -784068.9, -394543.6, 210771.23, -0.056439165, 0.3257444, -302327.16, 39705.563, 0.0, 9.996296, 10.001422 
2.4448392e+3, 2.751038e+2, -818321.4, -362739.88, 173951.06, 0.024153834, 0.39498964, -303916.6, -59904.395, 0.0, 9.9953985, 10.0014 
2.4447583e+3, 2.8510436e+2, -818423.75, -246509.86, 139677.5, 0.02071913, 0.31910947, -214219.77, -68214.59, 0.0, 9.994441, 10.0019865 
2.444676e+3, 2.9510447e+2, -894622.25, -249190.66, 101711.86, -0.121160515, 0.16333048, -233541.58, -185537.14, 0.0, 9.993312, 10.001844 
2.4445961e+3, 3.0510718e+2, -1070130.3, -288522.72, 72513.23, 0.018110137, 0.27931195, -281852.25, -281852.25, 0.0, 9.991679, 10.00203 
2.4445154e+3, 3.1510934e+2, -1190784.9, -95005.57, 94452.18, 0.09079996, 0.31803334, -86923.74, -86923.74, 0.0, 9.989788, 10.004259 
2.4560975e+3, 1.252353e+2, -1122357.4, -1578217.8, -41947.65, 0.08507755, 0.39660028, -1118529.5, 594200.8, 0.47122985, 10.008909, 9.997458 
2.4560098e+3, 1.3523087e+2, -1031080.94, -1538492.4, -47974.44, -0.15216237, 0.24589786, -1026584.94, 588185.94, 0.3502359, 10.007541, 9.997187 
2.4559231e+3, 1.4522727e+2, -925687.4, -1541437.8, -132914.69, -0.13259795, 0.24106075, -898221.75, 618583.44, 0.22305019, 10.006898, 9.996569 
2.4558374e+3, 1.5522462e+2, -758670.4, -1471738.1, -137291.83, 0.14562787, 0.3550818, -733150.0, 685681.9, 0.1145256, 10.006898, 9.996348 
2.455751e+3, 1.6522048e+2, -659881.0, -1483307.1, -33485.133, 0.16598463, 0.38834655, -658521.56, 662351.0, 0.043791708, 10.006894, 9.995577 
2.4556638e+3, 1.7521524e+2, -535436.06, -1398557.8, -40054.215, -0.049822424, 0.34057078, -533581.3, 689342.44, 0.0109050535, 10.006985, 9.995444 
2.4555783e+3, 1.852102e+2, -446219.03, -1239709.9, -68882.54, -0.06050064, 0.30170545, -440283.75, 684688.6, 0.0014934759, 10.00659, 9.99605 
2.4554944e+3, 1.9520558e+2, -478681.72, -1215154.1, -58726.113, 0.11293841, 0.26877132, -474028.3, 552988.3, 0.00013252813, 10.005731, 9.99596 
2.4554104e+3, 2.052017e+2, -496521.94, -1128489.1, 44083.53, 0.13238245, 0.3026293, -493461.66, 435593.0, 0.00000047005116, 10.004745, 9.996354 
2.4553262e+3, 2.1519856e+2, -561555.6, -1115623.5, 66502.2, 0.011190022, 0.38652867, -553685.44, 277401.06, 0.0, 10.003648, 9.996301 
2.4552436e+3, 2.2519504e+2, -526783.5, -908861.7, 99165.83, 0.0047257016, 0.37866753, -502579.03, 230542.11, 0.0, 10.002617, 9.997542 
2.4551624e+3, 2.3519127e+2, -573039.2, -881733.2, 117706.48, 0.10418207, 0.28240713, -533278.5, 101878.95, 0.0, 10.001632, 9.997531 
2.4550803e+3, 2.4518952e+2, -572039.75, -612583.7, 155781.02, 0.10390341, 0.2913172, -435217.22, 101956.84, 0.0, 10.00003, 9.9994755 
2.4549976e+3, 2.551896e+2, -797636.44, -674108.7, 186581.08, -0.00001799696, 0.38909537, -539334.4, -100161.914, 0.0, 9.997821, 9.999446 
2.454915e+3, 2.6518896e+2, -848299.94, -530093.4, 175914.22, -0.07614196, 0.36560288, -452005.44, -110828.125, 0.0, 9.996299, 10.000493 
2.4548332e+3, 2.751877e+2, -878233.0, -496846.16, 142602.25, -0.09299314, 0.22616467, -449423.25, -206235.81, 0.0, 9.995434, 10.000465 
2.4547522e+3, 2.8518796e+2, -874027.0, -376527.44, 95663.18, -0.009617755, 0.21176735, -358766.63, -213579.95, 0.0, 9.994496, 10.001072 
2.454671e+3, 2.9518962e+2, -947191.94, -374105.66, 54914.684, 0.06157855, 0.304917, -368891.03, -321715.4, 0.0, 9.993373, 10.000961 
2.4545878e+3, 3.051917e+2, -1013161.2, -184927.58, -822.7614, 0.03785536, 0.36098787, -184926.75, -184926.75, 0.0, 9.991732, 10.002721 
2.454502e+3, 3.151949e+2, -1060751.1, 172748.14, 63691.28, -0.20433114, 0.43985888, 176028.1, 176028.1, 0.0, 9.989801, 10.006089 
2.4661049e+3, 1.2532185e+2, -1229084.3, -1669285.0, 34536.777, 0.055604942, 0.50671667, -1226391.1, 485492.53, 0.46030205, 10.007673, 9.99686 
2.4660164e+3, 1.3531607e+2, -1100181.9, -1613915.3, -738.9269, -0.17577118, 0.28293136, -1100180.9, 513755.2, 0.33874014, 10.006965, 9.996664 
2.4659292e+3, 1.453117e+2, -901485.44, -1526200.1, -67201.336, -0.16018939, 0.22654296, -894338.3, 621638.6, 0.21236789, 10.007032, 9.99657 
2.465844e+3, 1.553088e+2, -635152.25, -1405071.0, -84736.99, 0.11182523, 0.3149082, -625936.44, 792069.06, 0.10626797, 10.0077915, 9.996364 
2.4657576e+3, 1.6530481e+2, -586273.4, -1426289.4, -13964.632, 0.15050504, 0.3535829, -586041.3, 734003.75, 0.03881348, 10.007312, 9.995764 
2.46567e+3, 1.7530003e+2, -701522.3, -1457261.3, 7394.9575, -0.029783027, 0.33664635, -701450.0, 520642.84, 0.008775349, 10.005734, 9.995639 
2.4655837e+3, 1.8529543e+2, -671124.3, -1318269.4, 13568.365, -0.045122754, 0.3199675, -670839.94, 453297.88, 0.0009387888, 10.004918, 9.996311 
2.465499e+3, 1.9529116e+2, -592127.25, -1241764.8, 31869.588, 0.093961604, 0.29890645, -590567.56, 435611.28, 0.000050380815, 10.004831, 9.996209 
2.4654143e+3, 2.0528744e+2, -540249.56, -1107673.9, 116621.79, 0.11508574, 0.3207905, -517215.53, 410999.4, 0.0000000031066179, 10.00427, 9.996724 
2.4653296e+3, 2.1528435e+2, -585308.9, -1084478.9, 128322.6, 0.02674473, 0.3748277, -554252.9, 275992.63, 0.0, 10.003311, 9.996674 
2.4652456e+3, 2.2528103e+2, -596006.2, -918187.8, 143582.34, 0.018057605, 0.36277196, -541305.1, 190972.66, 0.0, 10.002047, 9.997748 
2.4651629e+3, 2.3527762e+2, -718614.06, -927652.06, 146292.61, 0.09371866, 0.28189126, -643339.44, -9028.552, 0.0, 10.000533, 9.997742 
2.4650796e+3, 2.4527611e+2, -676916.4, -646818.56, 140559.53, 0.10655464, 0.29999053, -520504.63, 15820.349, 0.0, 9.999245, 9.999616 
2.4649955e+3, 2.5527635e+2, -740968.75, -631382.3, 123172.734, 0.044522583, 0.39939138, -551365.2, -113043.69, 0.0, 9.99815, 9.999577 
2.464912e+3, 2.6527536e+2, -772884.8, -534587.3, 137330.03, -0.03503015, 0.35310975, -471923.06, -131592.81, 0.0, 9.996995, 10.000124 
2.4648286e+3, 2.7527338e+2, -856245.6, -528372.75, 145473.42, -0.08124778, 0.17817128, -473134.25, -230785.44, 0.0, 9.995767, 10.000089 
2.4647465e+3, 2.8527397e+2, -849211.2, -360638.06, 154047.73, -0.00037063146, 0.21512951, -316122.56, -171777.22, 0.0, 9.994657, 10.001101 
2.4646641e+3, 2.9527655e+2, -910647.44, -348976.47, 178461.69, 0.06576517, 0.40331227, -297070.1, -250745.08, 0.0, 9.993603, 10.001017 
2.4645786e+3, 3.052781e+2, -976259.5, -179547.42, 98076.65, -0.035370495, 0.41331887, -167651.64, -167651.64, 0.0, 9.992047, 10.002601 
2.4644913e+3, 3.1527942e+2, -1008278.75, 209367.77, 89916.36, -0.23559037, 0.31656557, 215971.77, 215971.77, 0.0, 9.990115, 10.006188 
2.4761114e+3, 1.2540887e+2, -1254187.5, -1820302.8, 16121.804, -0.04748662, 0.45308408, -1253728.8, 457301.5, 0.44628432, 10.00787, 9.995483 
2.4760239e+3, 1.354036e+2, -1132946.4, -1793374.4, -16045.204, -0.093933865, 0.41675597, -1132556.8, 480523.53, 0.32561237, 10.007167, 9.995335 
2.4759366e+3, 1.4539865e+2, -895165.3, -1557253.1, -40509.68, -0.107025474, 0.38034, -892695.94, 622431.3, 0.20134826, 10.007136, 9.996303 
2.4758498e+3, 1.5539412e+2, -655769.5, -1445088.1, -55906.65, -0.049649354, 0.33221674, -651829.4, 765340.6, 0.098481946, 10.007689, 9.996134 
2.4757631e+3, 1.6538969e+2, -564301.56, -1358614.9, -66010.47, 0.010808768, 0.30948362, -558853.2, 760359.8, 0.034522846, 10.007187, 9.996292 
2.4756761e+3, 1.7538552e+2, -664373.94, -1379875.4, -46182.02, 0.0577872, 0.29993674, -661405.44, 559849.3, 0.007149842, 10.005723, 9.996179 
2.4755894e+3, 1.8538187e+2, -640064.1, -1263114.8, 12928.708, 0.052800108, 0.3347935, -639795.94, 483494.38, 0.00060090725, 10.004951, 9.996677 
2.4755026e+3, 1.9537887e+2, -570529.44, -1193844.8, 30442.408, 0.009118772, 0.40312028, -569046.2, 456273.1, 0.000017458817, 10.004812, 9.996551 
2.4754176e+3, 2.0537491e+2, -526978.44, -1073878.8, 80825.555, 0.046240646, 0.3722577, -515283.44, 412073.25, 0.0, 10.004236, 9.996974 
2.4753338e+3, 2.153703e+2, -574299.9, -1052796.4, 92340.3, 0.14575104, 0.25020596, -557098.44, 272301.6, 0.0, 10.003266, 9.996915 
2.4752483e+3, 2.2536717e+2, -598290.7, -920075.4, 86754.164, 0.11777235, 0.24347214, -576391.8, 155038.89, 0.0, 10.002028, 9.997747 
2.4751621e+3, 2.3536539e+2, -719781.5, -930960.1, 90846.555, -0.009530039, 0.32671013, -686079.0, -52629.195, 0.0, 10.00053, 9.997724 
2.4750774e+3, 2.4536368e+2, -709901.9, -718306.06, 97963.555, -0.014015893, 0.35195133, -616050.4, -80583.04, 0.0, 9.999251, 9.999125 
2.4749936e+3, 2.5536212e+2, -771235.94, -699274.8, 81466.92, 0.063513465, 0.32054895, -646196.6, -208713.95, 0.0, 9.998166, 9.999106 
2.4749094e+3, 2.653612e+2, -755589.94, -504336.9, 88160.07, 0.06850745, 0.2911548, -476489.56, -136997.25, 0.0, 9.997012, 10.000328 
2.4748254e+3, 2.7536094e+2, -837277.8, -495456.16, 98924.055, 0.0634034, 0.26791516, -468891.72, -227396.23, 0.0, 9.995787, 10.000309 
2.4747412e+3, 2.8536242e+2, -777931.5, -217739.58, 113318.96, 0.03690902, 0.33528948, -195685.03, -52204.2, 0.0, 9.994671, 10.002079 
2.474655e+3, 2.953652e+2, -833124.5, -196309.83, 138020.84, -0.15743999, 0.44324768, -167682.61, -122229.49, 0.0, 9.993631, 10.002055 
2.4745688e+3, 3.053668e+2, -1043213.9, -318481.6, 23893.988, -0.1859917, 0.45524627, -317694.7, -317694.7, 0.0, 9.992043, 10.001653 
2.4744838e+3, 3.1536573e+2, -1118540.4, -43745.43, 10562.22, 0.055254646, 0.22627139, -43641.645, -43641.645, 0.0, 9.990185, 10.004435 
2.4861199e+3, 1.2549566e+2, -1040663.5, -1660896.1, -4809.996, -0.055678576, 0.41234618, -1040626.2, 669553.25, 0.42875803, 10.010147, 9.995728 
2.4860331e+3, 1.3549058e+2, -887028.06, -1607592.8, 21093.488, 0.030978134, 0.37580928, -886411.1, 725814.1, 0.3104802, 10.009408, 9.995544 
2.4859448e+3, 1.4548564e+2, -783682.4, -1524846.0, 38767.527, -0.0020741436, 0.34624103, -781660.1, 732611.7, 0.18966699, 10.008137, 9.996037 
2.4858563e+3, 1.5548088e+2, -827792.9, -1564724.9, 30758.543, -0.09275758, 0.30630288, -826511.3, 589806.56, 0.09088817, 10.006456, 9.9959 
2.4857685e+3, 1.6547653e+2, -754961.8, -1430684.0, 16679.492, -0.054878153, 0.2939903, -754550.3, 563810.3, 0.030693602, 10.005715, 9.996502 
2.4856816e+3, 1.7547274e+2, -643800.0, -1345917.5, 16659.559, 0.07919996, 0.3019285, -643404.94, 576993.7, 0.005868338, 10.005759, 9.996393 
2.4855945e+3, 1.8546928e+2, -578593.94, -1209292.5, 65697.88, 0.08868472, 0.33641633, -571823.06, 550609.1, 0.0003925234, 10.005275, 9.996888 
2.4855068e+3, 1.9546631e+2, -623340.94, -1193956.5, 70639.9, -0.002854188, 0.38907155, -614726.06, 409734.63, 0.0000054515567, 10.004352, 9.996765 
2.4854207e+3, 2.0546238e+2, -657185.06, -1128317.0, 94309.5, 0.02574971, 0.34813488, -639007.9, 287490.47, 0.0, 10.003313, 9.997042 
2.4853362e+3, 2.1545775e+2, -724647.1, -1115339.4, 91499.945, 0.15769811, 0.21834594, -704279.7, 124263.016, 0.0, 10.002195, 9.996999 
2.4852498e+3, 2.2545493e+2, -667343.5, -907541.8, 96868.56, 0.13582642, 0.21809536, -633146.44, 97423.97, 0.0, 10.001361, 9.998153 
2.4851623e+3, 2.3545375e+2, -660301.4, -859111.4, 126567.23, -0.009179739, 0.32396075, -598769.7, 33813.445, 0.0, 10.00076, 9.998102 
2.4850765e+3, 2.4545214e+2, -658685.4, -703590.8, 155631.86, -0.01669578, 0.34691808, -523895.0, 10704.675, 0.0, 9.999653, 9.999029 
2.4849914e+3, 2.554502e+2, -785937.7, -717014.25, 167822.75, 0.080832824, 0.28934106, -580151.44, -143532.45, 0.0, 9.998117, 9.999005 
2.4849063e+3, 2.654494e+2, -760961.6, -513139.6, 187345.34, 0.081528835, 0.28716844, -412434.88, -73806.89, 0.0, 9.997008, 10.000266 
2.4848208e+3, 2.7544978e+2, -780934.6, -472315.22, 173907.52, 0.04663947, 0.33409235, -394126.94, -153500.33, 0.0, 9.9962, 10.000264 
2.4847354e+3, 2.8545108e+2, -733063.8, -172920.8, 135806.19, 0.017049713, 0.37612993, -141731.38, 881.325, 0.0, 9.994884, 10.002281 
2.4846484e+3, 2.954531e+2, -884875.06, -198026.67, 99103.94, -0.13789205, 0.38754565, -184013.1, -139423.94, 0.0, 9.993178, 10.002261 
2.4845606e+3, 3.054546e+2, -983486.56, -333932.25, -12557.105, -0.19384195, 0.39967325, -333689.6, -333689.6, 0.0, 9.992656, 10.001245 
2.4844755e+3, 3.1545296e+2, -799858.6, 21963.78, 10247.52, 0.10965045, 0.16416173, 22091.537, 22091.537, 0.0, 9.99276, 10.003639 
2.4961302e+3, 1.2558255e+2, -985099.25, -1558692.5, -15759.934, -0.01659619, 0.38689002, -984666.5, 724661.2, 0.40801337, 10.009885, 9.997013 
2.4960437e+3, 1.3557746e+2, -824697.94, -1491550.8, 2269.0369, 0.17445418, 0.21864218, -824690.2, 786677.7, 0.293472, 10.009259, 9.996741 
2.4959539e+3, 1.4557289e+2, -794315.56, -1573155.4, -15863.464, 0.13155076, 0.18768843, -793992.56, 719417.3, 0.17730996, 10.008102, 9.995722 
2.4958625e+3, 1.5556888e+2, -829011.56, -1599294.0, -25068.105, -0.05662399, 0.2507775, -828196.6, 587255.6, 0.083381616, 10.006541, 9.995625 
2.4957737e+3, 1.6556497e+2, -743307.9, -1433705.8, 18274.484, -0.0710553, 0.29854333, -742824.5, 574667.44, 0.027196221, 10.00581, 9.99644 
2.4956867e+3, 1.7556135e+2, -647583.2, -1357269.5, 17751.047, 0.04243301, 0.3334698, -647139.44, 572388.2, 0.0048269993, 10.005762, 9.996317 
2.4955991e+3, 1.8555751e+2, -578030.06, -1201640.3, 31229.318, 0.07424417, 0.32701626, -576470.06, 545094.9, 0.00026058234, 10.00524, 9.99696 
2.4955112e+3, 1.955536e+2, -623656.2, -1185807.8, 36638.22, 0.040546816, 0.27923042, -621278.3, 402323.88, 0.0000014273422, 10.004308, 9.996846 
2.4954239e+3, 2.0554993e+2, -666982.75, -1144698.4, 53214.813, 0.03994125, 0.2646188, -661126.7, 264512.38, 0.0, 10.003289, 9.996944 
2.495337e+3, 2.1554653e+2, -731419.4, -1126319.1, 54033.445, 0.06536838, 0.2692224, -724159.56, 103515.02, 0.0, 10.002175, 9.996937 
2.4952503e+3, 2.2554411e+2, -617165.8, -801859.8, 76185.516, 0.08011479, 0.27296, -589795.6, 139902.86, 0.0, 10.001349, 9.998886 
2.4951635e+3, 2.3554263e+2, -612276.25, -758272.06, 102396.13, 0.08514229, 0.27351782, -559521.75, 72190.01, 0.0, 10.00075, 9.998803 
2.4950767e+3, 2.4554141e+2, -638632.2, -663557.06, 95090.34, 0.08754473, 0.2897967, -555191.1, -21468.498, 0.0, 9.999653, 9.999308 
2.4949892e+3, 2.5554055e+2, -766871.2, -681321.44, 111503.34, 0.0823962, 0.31137165, -604669.8, -168939.27, 0.0, 9.998126, 9.99925 
2.4949022e+3, 2.6554e+2, -784751.4, -566793.6, 156139.67, -0.0076930993, 0.34310642, -485362.44, -147625.05, 0.0, 9.99702, 9.999895 
2.4948147e+3, 2.7553985e+2, -801495.7, -523295.6, 141194.47, -0.14808716, 0.37532988, -464191.97, -224449.52, 0.0, 9.996228, 9.999904 
2.4947293e+3, 2.8553975e+2, -777109.2, -267895.38, 68339.04, -0.061191555, 0.32608965, -258883.44, -117140.8, 0.0, 9.994891, 10.001629 
2.4946441e+3, 2.955399e+2, -936943.0, -305479.94, 39502.25, 0.1458177, 0.21547027, -303018.4, -259281.55, 0.0, 9.99317, 10.001531 
2.4945544e+3, 3.0554107e+2, -978329.75, -337706.44, -5469.273, -0.03576395, 0.23804136, -337659.75, -337659.75, 0.0, 9.992712, 10.001195 
2.4944659e+3, 3.1554228e+2, -771587.06, 40274.434, -24210.406, -0.11087183, 0.2810551, 40995.77, 40995.77, 0.0, 9.992927, 10.003687 
2.506139e+3, 1.2567168e+2, -1114168.8, -1649946.0, 61387.68, -0.005910636, 0.35868672, -1107225.1, 601225.0, 0.38469344, 10.008262, 9.996711 
2.5060514e+3, 1.3566631e+2, -932543.44, -1570104.8, 25762.299, 0.12719385, 0.19169414, -931504.1, 678991.25, 0.27498, 10.008162, 9.996492 
2.5059614e+3, 1.4566182e+2, -803289.44, -1581251.8, -26928.082, 0.11179112, 0.17858545, -802358.5, 710179.25, 0.16443622, 10.007928, 9.995748 
2.50587e+3, 1.5565813e+2, -679160.4, -1519572.8, -20174.178, 0.015553693, 0.27417195, -678676.4, 735900.5, 0.07596194, 10.007609, 9.995653 
2.5057802e+3, 1.6565399e+2, -595463.25, -1357651.9, 42638.18, -0.008554482, 0.29671898, -593085.44, 723532.6, 0.02396428, 10.006827, 9.996468 
2.505692e+3, 1.7564969e+2, -656347.7, -1357442.9, 46221.8, 0.018846069, 0.2612898, -653313.56, 565345.44, 0.00396083, 10.005687, 9.996346 
2.5056034e+3, 1.856459e+2, -665385.1, -1243778.6, 49349.86, 0.050212607, 0.25925538, -661204.75, 459491.56, 0.00017377961, 10.004646, 9.996953 
2.5055152e+3, 1.9564258e+2, -712678.8, -1225758.0, 46538.14, 0.086151674, 0.27223313, -708491.8, 314237.84, 0.00000026299864, 10.003687, 9.996868 
2.5054267e+3, 2.0563944e+2, -722432.75, -1123468.6, 76317.43, 0.08364874, 0.28908563, -708400.44, 216361.75, 0.0, 10.0027075, 9.997367 
2.5053385e+3, 2.1563658e+2, -768860.25, -1097912.6, 109348.26, 0.053558122, 0.3079873, -735836.7, 90955.97, 0.0, 10.001727, 9.997344 
2.505251e+3, 2.2563441e+2, -700712.8, -835080.9, 131660.13, 0.057806093, 0.31635422, -620085.9, 108728.664, 0.0, 10.0007515, 9.998943 
2.5051636e+3, 2.3563285e+2, -748717.44, -814177.8, 110189.27, 0.094626985, 0.30758598, -666500.06, -35671.42, 0.0, 9.999776, 9.998885 
2.5050756e+3, 2.4563159e+2, -700346.9, -658998.44, 77088.09, 0.09666404, 0.2970092, -599860.4, -67020.92, 0.0, 9.999086, 9.999608 
2.504987e+3, 2.5563067e+2, -679353.06, -607260.0, 92265.84, 0.06760493, 0.28510565, -544249.3, -109402.99, 0.0, 9.998596, 9.999529 
2.504899e+3, 2.6563028e+2, -703840.0, -531425.5, 149452.63, -0.015242163, 0.31994545, -445099.34, -108248.2, 0.0, 9.997598, 9.999856 
2.5048107e+3, 2.756303e+2, -808603.8, -532047.25, 156602.73, -0.12580384, 0.37695733, -461410.97, -222556.69, 0.0, 9.996209, 9.999849 
2.5047243e+3, 2.856297e+2, -741943.56, -296807.03, 103326.79, -0.04564981, 0.302559, -273991.8, -133131.97, 0.0, 9.995336, 10.001213 
2.5046378e+3, 2.9562885e+2, -734580.4, -260194.61, 93246.94, 0.15480167, 0.13818, -242523.89, -199659.4, 0.0, 9.994787, 10.001058 
2.504548e+3, 3.0563074e+2, -836630.25, -266438.44, 84798.53, 0.05387796, 0.25480253, -254094.5, -254094.5, 0.0, 9.993673, 10.001218 
2.504458e+3, 3.156326e+2, -900282.5, -7852.393, 28417.281, -0.09269167, 0.3601004, -6948.429, -6948.429, 0.0, 9.991987, 10.003807 
2.5161466e+3, 1.2576243e+2, -1155735.9, -1812924.9, 53074.195, -0.03415273, 0.3278302, -1151477.1, 556077.6, 0.3595698, 10.008193, 9.99539 
2.5160575e+3, 1.3575669e+2, -981489.4, -1736186.5, 22596.773, -0.05514206, 0.25424123, -980813.44, 628797.7, 0.25550586, 10.00813, 9.995266 
2.5159675e+3, 1.4575207e+2, -782759.6, -1550849.5, -36612.54, -0.014102908, 0.27496028, -781018.4, 730638.2, 0.15128541, 10.007886, 9.995981 
2.515878e+3, 1.5574847e+2, -669486.25, -1493673.3, -31299.717, 0.11000403, 0.354165, -668299.3, 745393.56, 0.06868433, 10.007528, 9.995873 
2.5157878e+3, 1.6574359e+2, -598586.0, -1352904.4, 1382.9558, 0.10550889, 0.28886247, -598583.44, 717155.5, 0.020970136, 10.006753, 9.996537 
2.515697e+3, 1.7573793e+2, -655622.25, -1348545.6, 5044.2, -0.0018157255, 0.10865307, -655585.5, 562205.44, 0.0032311017, 10.005646, 9.99643 
2.5156075e+3, 1.8573453e+2, -672612.6, -1259393.1, 14400.461, 0.016203497, 0.14823304, -672259.44, 447565.88, 0.00011459401, 10.004642, 9.996852 
2.515519e+3, 1.9573298e+2, -716670.3, -1234653.6, 14163.103, 0.1266572, 0.34915933, -716283.4, 305561.53, 0.00000002568285, 10.003683, 9.996812 
2.51543e+3, 2.0573063e+2, -663423.7, -1002571.94, 41412.61, 0.14975347, 0.40183288, -658440.1, 265429.9, 0.0, 10.002709, 9.998198 
2.5153404e+3, 2.1572778e+2, -718722.9, -992139.6, 74328.17, 0.105850354, 0.33729988, -699823.25, 126074.914, 0.0, 10.001714, 9.998079 
2.5152513e+3, 2.2572573e+2, -739727.75, -917735.6, 95294.34, 0.0590908, 0.35371065, -698337.25, 29582.373, 0.0, 10.000752, 9.998379 
2.5151622e+3, 2.3572439e+2, -782740.5, -887613.9, 75648.0, 0.013060288, 0.42220595, -743132.5, -113197.71, 0.0, 9.999782, 9.998382 
2.5150734e+3, 2.4572255e+2, -677571.7, -615390.8, 57696.73, 0.011553576, 0.36318767, -580940.94, -48989.68, 0.0, 9.999096, 9.999906 
2.5149852e+3, 2.557205e+2, -656352.44, -564825.5, 71179.4, 0.032825135, 0.20778556, -525967.44, -92000.27, 0.0, 9.998612, 9.999815 
2.514897e+3, 2.6572013e+2, -681752.2, -489840.25, 94405.87, 0.06209217, 0.21472716, -451185.63, -115215.336, 0.0, 9.997609, 10.000139 
2.514809e+3, 2.7572107e+2, -788408.06, -494191.2, 106126.516, 0.11728961, 0.33387303, -459905.75, -221942.66, 0.0, 9.996219, 10.000109 
2.51472e+3, 2.85721e+2, -751239.44, -322524.63, 83436.26, 0.061879814, 0.31541586, -306858.78, -166895.06, 0.0, 9.995357, 10.00103 
2.514629e+3, 2.9572046e+2, -732061.8, -273684.4, 73119.65, -0.14094952, 0.1989889, -262303.06, -220335.13, 0.0, 9.994862, 10.000933 
2.5145411e+3, 3.057238e+2, -807026.7, -218200.75, 25914.836, 0.026519708, 0.44584712, -217062.4, -217062.4, 0.0, 9.993723, 10.001529 
2.5144494e+3, 3.1572232e+2, -909173.44, -5389.4443, -97351.984, -0.1433432, 0.18813396, 4977.994, 4977.994, 0.0, 9.991906, 10.003859 
2.5261548e+3, 1.2585188e+2, -1131442.5, -1786742.4, 16926.627, 0.021048015, 0.28454342, -1131005.6, 575670.56, 0.33340132, 10.008106, 9.995599 
2.5260648e+3, 1.3584664e+2, -972600.4, -1720802.8, 42134.305, -0.053542465, 0.24478614, -970235.1, 638492.9, 0.23554848, 10.007965, 9.995456 
2.5259745e+3, 1.4584233e+2, -816858.6, -1553952.1, 1027.5273, -0.04055466, 0.2743394, -816857.2, 693913.94, 0.13810638, 10.007436, 9.996168 
2.5258845e+3, 1.5583879e+2, -773513.5, -1529826.5, 4045.9158, 0.078440614, 0.34403652, -773491.9, 639314.75, 0.06162092, 10.006644, 9.996046 
2.5257933e+3, 1.6583408e+2, -720282.06, -1418044.3, 23598.525, 0.08944037, 0.2921507, -719484.9, 595366.7, 0.018203622, 10.005911, 9.996493 
2.5257018e+3, 1.7582868e+2, -716016.8, -1376002.9, 18473.07, 0.010664693, 0.14310732, -715500.1, 501402.06, 0.002613142, 10.005225, 9.996441 
2.5256115e+3, 1.8582529e+2, -665417.8, -1206950.0, 44689.74, 0.02627863, 0.16044709, -661754.6, 457181.4, 0.00007364553, 10.004488, 9.997281 
2.525522e+3, 1.9582357e+2, -682531.44, -1170549.1, 75762.43, 0.116059825, 0.30226058, -671040.25, 349915.53, 0.00000000011876218, 10.00372, 9.997231 
2.525432e+3, 2.0582145e+2, -635541.75, -958830.75, 91539.5, 0.13335767, 0.3489805, -611421.8, 311556.06, 0.0, 10.002777, 9.998463 
2.5253415e+3, 2.1581915e+2, -701834.06, -952728.25, 85109.86, 0.09712813, 0.3153779, -675687.44, 149313.19, 0.0, 10.001702, 9.998351 
2.5252515e+3, 2.2581731e+2, -721954.3, -886600.75, 126127.11, 0.05550551, 0.33025333, -653661.6, 73358.32, 0.0, 10.000784, 9.998574 
2.5251615e+3, 2.3581593e+2, -743029.44, -850252.0, 159008.48, 0.01577711, 0.37833804, -628837.7, 197.63841, 0.0, 9.999983, 9.998539 
2.5250724e+3, 2.458142e+2, -690675.25, -652646.2, 148691.06, 0.014053344, 0.34076166, -521758.8, 9293.428, 0.0, 9.999148, 9.999621 
2.5249833e+3, 2.5581232e+2, -721530.94, -621761.44, 116315.61, 0.03256127, 0.23120753, -545084.7, -112015.484, 0.0, 9.998282, 9.999579 
2.5248942e+3, 2.6581192e+2, -672739.9, -452616.06, 108392.945, 0.06992939, 0.23466715, -408202.56, -73130.12, 0.0, 9.997537, 10.000425 
2.5248057e+3, 2.758128e+2, -682661.56, -414248.72, 117975.42, 0.15400933, 0.32004967, -369766.7, -132702.42, 0.0, 9.996826, 10.000361 
2.5247154e+3, 2.858131e+2, -682681.25, -290949.9, 110273.266, 0.074577026, 0.32498756, -262041.11, -122979.69, 0.0, 9.99584, 10.00101 
2.5246227e+3, 2.9581305e+2, -767001.5, -290280.6, 107785.85, -0.2138953, 0.2644364, -267043.1, -225981.67, 0.0, 9.994628, 10.000928 
2.5245345e+3, 3.0581564e+2, -845572.44, -220613.11, 34510.48, 0.033456203, 0.43299618, -218713.2, -218713.2, 0.0, 9.993397, 10.001666 
2.5244415e+3, 3.158148e+2, -824519.7, 58570.984, -119011.51, -0.07326752, 0.22422045, 74328.64, 74328.64, 0.0, 9.992395, 10.004058 
2.5361636e+3, 1.259408e+2, -1035615.4, -1635642.1, 16767.217, 0.11644108, 0.23846033, -1035147.2, 670658.3, 0.30687603, 10.0082655, 9.996768 
2.5360736e+3, 1.3593659e+2, -901291.9, -1575656.0, 36253.74, 0.06631617, 0.18452978, -899348.5, 708495.06, 0.21555601, 10.007924, 9.996528 
2.5359818e+3, 1.4593272e+2, -808911.8, -1542760.0, -28438.87, -0.0071725217, 0.20540074, -807811.4, 702069.9, 0.12513, 10.007354, 9.996289 
2.5358894e+3, 1.5592924e+2, -768305.1, -1519278.4, -24402.877, -0.051301476, 0.26868725, -767513.0, 644404.3, 0.054847863, 10.0065975, 9.996144 
2.535798e+3, 1.6592541e+2, -732897.2, -1442625.8, -281.4373, -0.022674762, 0.30777004, -732897.1, 581059.3, 0.015664553, 10.005882, 9.996341 
2.5357074e+3, 1.7592153e+2, -726535.4, -1389537.8, -2793.725, 0.04521752, 0.3240027, -726523.56, 489472.6, 0.0020911205, 10.005181, 9.996372 
2.535616e+3, 1.8591778e+2, -614716.9, -1091311.8, 19073.48, 0.06553011, 0.26535812, -613954.75, 504076.72, 0.000045839657, 10.004437, 9.998101 
2.535525e+3, 1.9591434e+2, -640267.1, -1068280.3, 47629.89, 0.055054303, 0.15223163, -635030.9, 385031.38, 0.0, 10.003653, 9.997968 
2.5354335e+3, 2.0591205e+2, -657496.6, -996609.75, 50971.71, 0.04416426, 0.16061614, -650000.8, 272084.0, 0.0, 10.002738, 9.998225 
2.535342e+3, 2.1591072e+2, -713801.25, -975932.06, 48362.68, 0.028139878, 0.24699876, -705163.06, 118937.21, 0.0, 10.001689, 9.998202 
2.5352517e+3, 2.2590913e+2, -660846.5, -761705.9, 96633.03, 0.046744503, 0.24754521, -602275.75, 123840.24, 0.0, 10.000786, 9.9994335 
2.535162e+3, 2.3590751e+2, -693083.75, -748534.3, 127893.79, 0.09351145, 0.18552983, -589944.56, 38185.914, 0.0, 9.999984, 9.999239 
2.535072e+3, 2.4590655e+2, -751260.6, -780921.6, 113742.02, 0.09575237, 0.23900943, -651386.3, -121243.58, 0.0, 9.999153, 9.998741 
2.534981e+3, 2.559061e+2, -773240.1, -733744.1, 83855.64, 0.053854506, 0.36207148, -667342.5, -235190.02, 0.0, 9.998297, 9.998807 
2.5348908e+3, 2.6590568e+2, -652707.2, -414962.72, 80854.46, -0.0011743824, 0.38398677, -390071.06, -55913.125, 0.0, 9.997546, 10.000684 
2.5348002e+3, 2.759055e+2, -660789.44, -377651.0, 89844.27, -0.03393275, 0.3379417, -351548.4, -115389.97, 0.0, 9.996857, 10.000602 
2.53471e+3, 2.8590578e+2, -671628.5, -273478.22, 61488.395, -0.019618569, 0.32660112, -264198.53, -126044.33, 0.0, 9.995857, 10.001124 
2.5346184e+3, 2.959064e+2, -760755.44, -278824.4, 59889.18, -0.06660186, 0.31728712, -271493.53, -231346.39, 0.0, 9.994629, 10.00101 
2.5345284e+3, 3.059061e+2, -856407.1, -238717.34, -15059.717, 0.12956132, 0.20360143, -238350.39, -238350.39, 0.0, 9.993369, 10.001558 
2.534435e+3, 3.1590956e+2, -770761.94, 126954.516, 6401.3003, 0.08105413, 0.4326815, 127000.16, 127000.16, 0.0, 9.992546, 10.004473 
2.5461712e+3, 1.2603182e+2, -848235.2, -1559127.6, 57115.24, 0.031551033, 0.23460262, -843675.6, 861237.7, 0.28057313, 10.009833, 9.996718 
2.5460815e+3, 1.3602792e+2, -908311.3, -1582574.3, 27206.826, 0.10355131, 0.2167775, -907215.3, 699734.0, 0.1959053, 10.007694, 9.996567 
2.5459892e+3, 1.4602408e+2, -872546.06, -1534766.4, -29684.37, 0.047804125, 0.21449977, -871218.1, 637768.0, 0.11255203, 10.006582, 9.996712 
2.5458953e+3, 1.5602039e+2, -792573.8, -1484458.6, -11077.674, -0.04914943, 0.21547939, -792396.5, 618626.06, 0.0484313, 10.006186, 9.996577 
2.545803e+3, 1.6601706e+2, -751893.2, -1399353.1, 35639.535, -0.038811017, 0.2599252, -749937.3, 563119.25, 0.013355319, 10.005517, 9.996811 
2.5457117e+3, 1.7601413e+2, -771267.06, -1362128.5, 68426.82, 0.037988, 0.33067918, -763446.1, 451641.2, 0.0016544174, 10.004665, 9.996806 
2.5456196e+3, 1.860108e+2, -716915.8, -1128035.6, 74384.49, 0.06179621, 0.28747883, -703871.2, 413248.38, 0.000027724705, 10.003686, 9.998208 
2.5455275e+3, 1.9600727e+2, -780416.44, -1119525.6, 55713.06, 0.05142041, 0.15770328, -771497.8, 247653.89, 0.0, 10.002625, 9.998108 
2.5454354e+3, 2.0600507e+2, -759236.25, -1014623.75, 67051.695, 0.03265101, 0.15319934, -742702.3, 178470.64, 0.0, 10.001912, 9.998496 
2.545343e+3, 2.1600392e+2, -734140.25, -959149.56, 96040.67, 0.009339606, 0.23372903, -698722.25, 124463.04, 0.0, 10.001441, 9.998433 
2.5452518e+3, 2.2600237e+2, -667804.4, -780469.0, 117044.016, 0.0328305, 0.23663293, -594242.0, 130959.35, 0.0, 10.000813, 9.999288 
2.5451615e+3, 2.3600064e+2, -688862.94, -755749.56, 76158.43, 0.09450557, 0.17885248, -639128.4, -11909.868, 0.0, 10.000062, 9.999146 
2.545071e+3, 2.4599986e+2, -720020.06, -730901.0, 81305.84, 0.097967945, 0.23867732, -643972.9, -114744.1, 0.0, 9.999223, 9.999048 
2.544979e+3, 2.5599986e+2, -757101.5, -696620.5, 136248.78, 0.052902047, 0.37655517, -587296.6, -156063.4, 0.0, 9.998287, 9.9990635 
2.5448874e+3, 2.6599956e+2, -700166.1, -448124.97, 152961.53, -0.016269393, 0.4041506, -375957.72, -42719.92, 0.0, 9.9972725, 10.000585 
2.544796e+3, 2.7599916e+2, -767560.2, -438457.6, 132500.1, -0.07387766, 0.3503339, -391742.72, -156501.78, 0.0, 9.996173, 10.000509 
2.544705e+3, 2.8599927e+2, -718638.56, -297885.97, 91575.91, -0.023426693, 0.32893452, -278818.72, -141580.45, 0.0, 9.995551, 10.001101 
2.544614e+3, 2.9599983e+2, -673563.1, -237861.5, 76324.74, 0.031039312, 0.31659752, -224878.08, -185646.83, 0.0, 9.995238, 10.000994 
2.5445223e+3, 3.0599907e+2, -655086.3, -119975.055, -3608.166, 0.1572394, 0.14913864, -119950.73, -119950.73, 0.0, 9.99467, 10.0017395 
2.5444263e+3, 3.1600356e+2, -708771.3, 79340.31, 135212.5, -0.06649052, 0.46692303, 101892.71, 101892.71, 0.0, 9.993322, 10.003762 
2.5561786e+3, 1.2612441e+2, -892838.5, -1656915.6, 1015.0917, -0.18042535, 0.26200297, -892837.1, 811168.1, 0.2549192, 10.00953, 9.99591 
2.5560886e+3, 1.361204e+2, -942681.75, -1681055.5, -24540.816, 0.078257665, 0.31191948, -941867.0, 664179.5, 0.1768797, 10.007584, 9.995908 
2.555996e+3, 1.4611626e+2, -827696.25, -1453570.6, -34975.777, 0.111433916, 0.2764237, -825747.8, 682337.9, 0.10052032, 10.006559, 9.997325 
2.555902e+3, 1.5611218e+2, -748132.4, -1393637.9, -19313.959, 0.042302888, 0.17716001, -747555.0, 662567.2, 0.042419735, 10.006163, 9.997221 
2.5558087e+3, 1.6610906e+2, -693516.8, -1271833.4, 8031.1587, 0.00944347, 0.16376747, -693405.25, 618746.4, 0.011275909, 10.005479, 9.997709 
2.5557154e+3, 1.7610672e+2, -727322.06, -1257665.4, 36525.195, -0.008975581, 0.20417206, -724818.4, 489356.53, 0.0012937356, 10.004602, 9.997556 
2.5556225e+3, 1.8610434e+2, -754325.5, -1201536.0, 34358.59, 0.023467168, 0.24979751, -751701.1, 364499.5, 0.000016475351, 10.003661, 9.99772 
2.55553e+3, 1.9610207e+2, -802992.56, -1171274.3, 20849.13, 0.0888097, 0.29267675, -801816.0, 216410.4, 0.0, 10.002641, 9.997748 
2.5554374e+3, 2.0610014e+2, -707488.7, -914321.3, 50805.1, 0.08298098, 0.29480824, -695683.06, 224561.75, 0.0, 10.001937, 9.999176 
2.555344e+3, 2.160986e+2, -699975.7, -887525.25, 78985.234, 0.027955761, 0.26818845, -671143.9, 151113.16, 0.0, 10.001433, 9.998932 
2.5552523e+3, 2.2609691e+2, -744291.0, -938472.2, 89407.016, 0.008543178, 0.29558116, -709396.0, 14880.727, 0.0, 10.000805, 9.99821 
2.5551605e+3, 2.3609525e+2, -745690.6, -874522.4, 48965.254, 0.013291705, 0.34885123, -729193.0, -102892.86, 0.0, 10.00006, 9.998336 
2.5550687e+3, 2.4609411e+2, -618205.6, -521698.9, 45720.46, 0.021998147, 0.32979265, -503478.6, 24832.44, 0.0, 9.999226, 10.000486 
2.554977e+3, 2.560935e+2, -668031.9, -516295.16, 101047.04, 0.025332002, 0.2660171, -465804.84, -35492.625, 0.0, 9.998301, 10.0002985 
2.5548849e+3, 2.6609343e+2, -734924.44, -522031.9, 109805.61, 0.02377893, 0.2926213, -475546.56, -143234.11, 0.0, 9.997274, 10.000079 
2.5547928e+3, 2.760938e+2, -798660.06, -505390.7, 93350.234, 0.031061508, 0.3642656, -478197.88, -243886.47, 0.0, 9.996177, 10.0000515 
2.5547013e+3, 2.860935e+2, -730554.5, -325555.63, 79671.445, 0.07220003, 0.33124566, -310446.3, -174132.25, 0.0, 9.995555, 10.000913 
2.5546095e+3, 2.9609317e+2, -677466.7, -255535.31, 66829.53, 0.09031585, 0.24960084, -245203.22, -206887.78, 0.0, 9.995273, 10.000859 
2.5545153e+3, 3.0609486e+2, -627157.2, -81395.37, -41152.37, 0.036458638, 0.31764153, -78309.78, -78309.78, 0.0, 9.994746, 10.001972 
2.554419e+3, 3.160955e+2, -842923.2, -207683.89, 45629.277, -0.06767224, 0.23831534, -204423.06, -204423.06, 0.0, 9.993359, 10.001774 
2.5661865e+3, 1.2621808e+2, -1073385.5, -1780762.4, 27564.857, -0.20840602, 0.26782587, -1072313.0, 630772.4, 0.2302019, 10.007709, 9.995836 
2.5660953e+3, 1.3621359e+2, -1015542.94, -1731096.5, 40826.46, 0.06692705, 0.28133717, -1013221.1, 591911.44, 0.15867288, 10.00687, 9.995909 
2.566002e+3, 1.4620969e+2, -828728.44, -1419819.3, 71459.48, 0.114975296, 0.25029105, -820212.1, 686957.44, 0.089137785, 10.006311, 9.997691 
2.5659078e+3, 1.5620622e+2, -754187.44, -1360154.1, 74955.234, 0.06048825, 0.18032621, -745053.5, 664145.8, 0.036846306, 10.005926, 9.997571 
2.5658134e+3, 1.6620323e+2, -742908.5, -1275693.3, 52205.42, 0.02954652, 0.15628658, -737841.3, 573385.75, 0.009422249, 10.005045, 9.9978895 
2.5657192e+3, 1.762007e+2, -822489.75, -1282206.6, 39180.68, 0.0048131947, 0.16005279, -819174.4, 394077.63, 0.0009990187, 10.003861, 9.997742 
2.5656256e+3, 1.8619859e+2, -805953.06, -1215619.6, 57939.965, 0.026493741, 0.22176392, -797916.1, 317359.6, 0.000009790662, 10.003268, 9.997808 
2.5655323e+3, 1.9619691e+2, -736291.44, -1127755.1, 78854.53, 0.08311047, 0.31742826, -721004.4, 296292.88, 0.0, 10.003057, 9.997844 
2.565439e+3, 2.0619504e+2, -629891.4, -861265.5, 96990.125, 0.07805586, 0.31470126, -594612.94, 324702.47, 0.0, 10.002411, 9.999308 
2.5653455e+3, 2.1619318e+2, -684614.3, -866781.06, 85589.71, 0.031767644, 0.24472351, -650710.56, 170619.48, 0.0, 10.001488, 9.999045 
2.5652522e+3, 2.2619182e+2, -779003.0, -951495.6, 124336.72, -0.010859631, 0.29843318, -713928.3, 9418.788, 0.0, 10.000556, 9.998239 
2.5651595e+3, 2.3619086e+2, -808700.75, -900322.25, 160898.1, -0.04502995, 0.42404345, -687218.9, -61854.33, 0.0, 9.999615, 9.998371 
2.5650668e+3, 2.4618953e+2, -663410.6, -532151.6, 132982.83, -0.01671654, 0.38293505, -449485.25, 77891.68, 0.0, 9.998876, 10.000579 
2.5649747e+3, 2.5618818e+2, -670522.4, -507748.4, 86720.12, 0.046424806, 0.23441504, -470205.9, -40821.81, 0.0, 9.998249, 10.000378 
2.564882e+3, 2.6618794e+2, -700237.25, -517528.06, 70175.33, 0.067697056, 0.24420919, -493686.13, -162300.47, 0.0, 9.997573, 9.999962 
2.5647894e+3, 2.7618843e+2, -712732.6, -475196.9, 81618.18, 0.08020469, 0.34386832, -449856.0, -216472.84, 0.0, 9.996821, 9.999945 
2.564697e+3, 2.8618822e+2, -680875.8, -297867.94, 97528.945, 0.12345243, 0.3210927, -274463.38, -139077.92, 0.0, 9.995888, 10.000939 
2.5646046e+3, 2.961879e+2, -751611.75, -291553.16, 99748.414, 0.14675999, 0.24066909, -270857.06, -233470.13, 0.0, 9.994774, 10.000848 
2.5645086e+3, 3.0618998e+2, -698670.25, -147763.63, -12998.958, -0.050437883, 0.36535862, -147457.08, -147457.08, 0.0, 9.994399, 10.001681 
2.5644144e+3, 3.161893e+2, -653862.7, -167234.08, 10672.048, 0.09732349, 0.18794858, -167000.14, -167000.14, 0.0, 9.994881, 10.001316 
2.5761947e+3, 1.2631255e+2, -1035930.5, -1719117.0, 3404.6943, -0.13083598, 0.2549362, -1035913.5, 666243.25, 0.20667112, 10.007656, 9.99628 
2.5761014e+3, 1.363075e+2, -990863.25, -1680336.8, 20090.54, 0.054945037, 0.167624, -990278.4, 613930.7, 0.14144379, 10.006781, 9.9963 
2.5760072e+3, 1.4630419e+2, -820744.75, -1402356.3, 60041.867, 0.07157772, 0.16961202, -814611.06, 691629.56, 0.07848645, 10.006228, 9.997856 
2.5759128e+3, 1.5630205e+2, -755465.06, -1353207.0, 57538.88, 0.021029372, 0.21603215, -749976.75, 658281.8, 0.03173623, 10.005846, 9.99766 
2.575818e+3, 1.6629909e+2, -772351.4, -1331763.5, 8953.469, 0.02762361, 0.21279566, -772208.06, 538078.94, 0.007788166, 10.005009, 9.997522 
2.5757232e+3, 1.762958e+2, -836821.2, -1316885.6, 3251.7756, 0.058850516, 0.17704009, -836799.2, 375520.97, 0.00076011324, 10.003877, 9.9974985 
2.5756288e+3, 1.862935e+2, -766941.56, -1138623.6, 53262.664, 0.05674637, 0.19868197, -759459.5, 354885.56, 0.000005913051, 10.003281, 9.998334 
2.5755346e+3, 1.9629191e+2, -713324.75, -1070522.5, 70007.125, 0.035567302, 0.25267446, -700094.1, 316269.53, 0.0, 10.00301, 9.998261 
2.5754404e+3, 2.0628989e+2, -660550.1, -918331.4, 62352.84, 0.024594732, 0.23539084, -646260.2, 272123.88, 0.0, 10.002377, 9.998936 
2.5753462e+3, 2.162877e+2, -700959.5, -898487.94, 52540.145, 0.014561325, 0.1700936, -687854.0, 132550.1, 0.0, 10.001472, 9.998837 
2.575252e+3, 2.2628707e+2, -707545.7, -804893.25, 88931.734, -0.028461492, 0.24853536, -654839.06, 67573.445, 0.0, 10.000557, 9.999248 
2.5751582e+3, 2.3628743e+2, -756468.7, -792532.4, 126302.73, -0.0876044, 0.40864247, -646917.1, -22504.299, 0.0, 9.999611, 9.999116 
2.5750655e+3, 2.4628611e+2, -749846.9, -713560.25, 107492.164, -0.022757048, 0.40235552, -622691.0, -96263.516, 0.0, 9.998879, 9.999334 
2.574973e+3, 2.5628385e+2, -740773.75, -659696.56, 62194.586, 0.10578584, 0.28959516, -625995.4, -197546.16, 0.0, 9.99827, 9.999328 
2.5748795e+3, 2.662829e+2, -678779.7, -478679.7, 40437.984, 0.1117519, 0.25861445, -470816.6, -140358.33, 0.0, 9.997589, 10.000226 
2.5747856e+3, 2.7628285e+2, -690435.56, -436633.53, 52726.906, 0.06273439, 0.27696195, -426115.5, -193657.38, 0.0, 9.996848, 10.0002 
2.5746924e+3, 2.8628328e+2, -663146.94, -265757.06, 52709.92, 0.11634898, 0.29917857, -258884.45, -124431.336, 0.0, 9.995902, 10.001156 
2.574599e+3, 2.962842e+2, -742671.0, -275056.0, 58738.773, 0.17472994, 0.31899536, -267790.5, -231346.73, 0.0, 9.994777, 10.000964 
2.5745025e+3, 3.062839e+2, -743604.1, -245589.05, -3722.8098, -0.06346826, 0.23903814, -245561.22, -245561.22, 0.0, 9.994411, 10.001008 
2.574408e+3, 3.1628552e+2, -565955.8, -9988.075, -8240.132, 0.009848217, 0.34661856, -9865.973, -9865.973, 0.0, 9.994981, 10.002352 
2.5862026e+3, 1.2640786e+2, -977681.1, -1668121.3, 27500.58, -0.039901458, 0.20803316, -976587.5, 724634.7, 0.18456078, 10.00783, 9.996602 
2.5861076e+3, 1.3640344e+2, -1030475.06, -1676422.5, 41947.918, 0.05491273, 0.15482621, -1027762.4, 575504.9, 0.12533553, 10.00624, 9.996589 
2.5860125e+3, 1.4640027e+2, -932276.7, -1469271.5, 100815.2, 0.056106668, 0.16594958, -913973.5, 591324.25, 0.06863118, 10.005409, 9.997746 
2.585918e+3, 1.56398e+2, -867487.2, -1414379.1, 80310.586, 0.037345007, 0.20985234, -855937.56, 551380.6, 0.027103439, 10.005063, 9.997603 
2.5858226e+3, 1.6639513e+2, -808009.75, -1321299.6, 37425.5, 0.040067554, 0.20512938, -805295.3, 504050.66, 0.0063652755, 10.00464, 9.997769 
2.5857267e+3, 1.7639206e+2, -778694.44, -1263772.0, 67928.79, 0.049982943, 0.16833135, -769361.44, 442015.28, 0.0005684108, 10.004171, 9.99772 
2.5856313e+3, 1.863898e+2, -755105.0, -1123657.9, 115737.67, 0.034856044, 0.18514846, -721774.0, 391626.53, 0.0000035552432, 10.003327, 9.998412 
2.5855362e+3, 1.963882e+2, -819796.56, -1118453.4, 102102.98, 0.0059487685, 0.2305439, -788227.25, 227191.52, 0.0, 10.002269, 9.998287 
2.5854418e+3, 2.0638613e+2, -787748.5, -1018254.94, 88406.21, -0.003431023, 0.23192224, -757746.94, 159693.52, 0.0, 10.001676, 9.998585 
2.5853473e+3, 2.1638398e+2, -735168.1, -940267.4, 76497.45, -0.0002871402, 0.20287092, -709779.1, 109683.42, 0.0, 10.001354, 9.998604 
2.5852525e+3, 2.2638309e+2, -653152.3, -725554.2, 80886.07, -0.021873398, 0.24127996, -600735.75, 120735.95, 0.0, 10.000711, 9.999713 
2.5851578e+3, 2.363831e+2, -694232.7, -722145.06, 80154.14, -0.05364111, 0.31924108, -626828.8, -3357.2896, 0.0, 9.999871, 9.99947 
2.5850642e+3, 2.4638203e+2, -743927.8, -749797.0, 94574.85, -0.0026558542, 0.34507352, -652242.0, -126757.82, 0.0, 9.999093, 9.99898 
2.584971e+3, 2.563804e+2, -751831.9, -695390.0, 112134.75, 0.09208063, 0.3301512, -607979.5, -180475.94, 0.0, 9.998332, 9.999049 
2.5848767e+3, 2.6637942e+2, -663962.2, -444024.2, 110737.55, 0.100050434, 0.2980899, -397929.13, -68416.05, 0.0, 9.9975815, 10.000463 
2.584782e+3, 2.76379e+2, -687814.94, -415145.16, 117863.68, 0.08238374, 0.25673836, -371260.6, -139745.67, 0.0, 9.996786, 10.000374 
2.584688e+3, 2.8637955e+2, -659391.8, -287221.6, 90435.164, 0.1283865, 0.29533187, -266410.13, -132900.45, 0.0, 9.996034, 10.000942 
2.5845936e+3, 2.9638076e+2, -682193.0, -269706.3, 64865.996, 0.13968387, 0.36917672, -259746.25, -224246.83, 0.0, 9.9952965, 10.000749 
2.5844973e+3, 3.063796e+2, -695147.5, -250567.39, 40993.414, 0.014256387, 0.22629753, -246819.11, -246819.11, 0.0, 9.99487, 10.000751 
2.5844026e+3, 3.163818e+2, -638429.44, 41548.63, 12909.872, 0.053670555, 0.4115361, 41793.645, 41793.645, 0.0, 9.994119, 10.003118 
2.5962108e+3, 1.26504e+2, -958045.44, -1643989.3, -19719.088, 0.043043703, 0.15049224, -957479.0, 742801.8, 0.16400792, 10.007732, 9.996835 
2.5961134e+3, 1.3650094e+2, -994413.8, -1644938.6, -4323.833, 0.05389241, 0.20885555, -994385.06, 607926.44, 0.11043808, 10.006369, 9.99674 
2.5960177e+3, 1.4649756e+2, -934313.06, -1507871.9, 89014.81, 0.05680064, 0.20990756, -920815.8, 583528.56, 0.05961021, 10.005505, 9.997427 
2.595923e+3, 1.5649416e+2, -887820.3, -1444146.3, 70525.52, 0.08476574, 0.1717213, -879019.06, 527357.75, 0.022950364, 10.00498, 9.997442 
2.595827e+3, 1.6649145e+2, -773749.3, -1230213.5, 21700.012, 0.056609493, 0.15234086, -772720.06, 535682.4, 0.0051434897, 10.004542, 9.998447 
2.5957298e+3, 1.7648932e+2, -751345.7, -1193044.4, 45553.2, -0.01157406, 0.14302514, -746696.7, 463726.13, 0.00041746712, 10.0041065, 9.998239 
2.5956336e+3, 1.8648733e+2, -779014.1, -1171599.0, 72707.9, -0.029011264, 0.18101689, -765981.06, 346462.8, 0.0000020172258, 10.003314, 9.998092 
2.5955382e+3, 1.9648555e+2, -838357.56, -1163467.9, 65960.19, -0.017954517, 0.24158984, -825484.9, 188979.28, 0.0, 10.002293, 9.99797 
2.5954428e+3, 2.0648366e+2, -806906.2, -1066779.4, 76793.4, -0.014519147, 0.29170588, -785909.9, 130576.0, 0.0, 10.001707, 9.9982395 
2.5953478e+3, 2.164818e+2, -756706.6, -984110.25, 64505.0, -0.017980438, 0.32914254, -739683.5, 78823.52, 0.0, 10.001345, 9.99831 
2.595253e+3, 2.264798e+2, -658389.7, -735116.9, 50473.74, 0.005083765, 0.27099854, -633354.9, 87170.48, 0.0, 10.000701, 9.999655 
2.5951582e+3, 2.3647787e+2, -693277.06, -721186.0, 49555.2, 0.043055024, 0.15920676, -655749.06, -33208.727, 0.0, 9.99987, 9.99948 
2.5950631e+3, 2.4647737e+2, -708780.9, -679375.1, 64927.63, 0.03597521, 0.2140684, -627506.44, -102959.66, 0.0, 9.999098, 9.999465 
2.5949678e+3, 2.5647777e+2, -718538.0, -630295.0, 83528.805, -0.005473784, 0.35580587, -579950.8, -153403.36, 0.0, 9.9983425, 9.999495 
2.594873e+3, 2.664775e+2, -650611.8, -417695.4, 80256.76, 0.027162604, 0.36452022, -392719.3, -64169.22, 0.0, 9.997582, 10.000646 
2.594779e+3, 2.7647695e+2, -680880.25, -405703.56, 88506.98, 0.13134763, 0.2945594, -379694.72, -149142.14, 0.0, 9.996802, 10.000434 
2.5946838e+3, 2.8647694e+2, -706001.75, -389190.8, 62298.414, 0.16007051, 0.30994904, -377380.56, -244825.23, 0.0, 9.996048, 10.000239 
2.5945875e+3, 2.9647732e+2, -716447.5, -349268.5, 42132.773, 0.03763996, 0.37604505, -344495.94, -309939.78, 0.0, 9.995327, 10.000191 
2.5944933e+3, 3.0647746e+2, -679408.2, -222688.86, 24716.693, 0.17195034, 0.37088144, -221355.14, -221355.14, 0.0, 9.9948845, 10.000939 
2.5943974e+3, 3.1647727e+2, -591125.3, 150177.11, -16754.572, 0.1629743, 0.29762056, 150555.6, 150555.6, 0.0, 9.994069, 10.003891 
2.6062188e+3, 1.2660243e+2, -978452.06, -1696751.9, 36461.83, 0.119310714, 0.18793379, -976605.94, 722711.1, 0.14501567, 10.0076065, 9.996464 
2.6061198e+3, 1.3659896e+2, -828706.94, -1591109.1, 20452.43, 0.0625623, 0.24387364, -828158.7, 773194.06, 0.0967652, 10.007682, 9.996486 
2.6060227e+3, 1.465955e+2, -805801.44, -1427934.0, 95767.195, 0.03068474, 0.23874381, -791393.3, 711993.06, 0.051429752, 10.00632, 9.997601 
2.605927e+3, 1.5659215e+2, -987228.4, -1481310.6, 106949.72, 0.04993448, 0.19316436, -965071.5, 440346.3, 0.019269861, 10.004222, 9.99755 
2.6058304e+3, 1.6658947e+2, -953319.9, -1340198.9, 69765.25, 0.03576095, 0.18383625, -941123.7, 366320.53, 0.0041104206, 10.003407, 9.998236 
2.6057333e+3, 1.765873e+2, -878930.1, -1271733.3, 36749.996, -0.0072076246, 0.19294314, -875521.44, 333944.75, 0.00030153454, 10.003307, 9.998082 
2.6056364e+3, 1.8658517e+2, -794543.4, -1166499.4, 52337.45, -0.019373212, 0.21847457, -787319.3, 324168.63, 0.0000010444409, 10.00316, 9.998198 
2.6055402e+3, 1.9658321e+2, -730314.1, -1099377.4, 70154.27, -0.009523601, 0.25026628, -717428.56, 296079.75, 0.0, 10.002989, 9.998071 
2.6054442e+3, 2.0658141e+2, -720353.25, -1015515.94, 103924.67, -0.013782001, 0.30308717, -687433.7, 228094.4, 0.0, 10.002269, 9.998318 
2.6053485e+3, 2.1657985e+2, -768974.75, -988664.56, 115699.55, -0.026295478, 0.36290523, -719281.9, 98264.22, 0.0, 10.00126, 9.998318 
2.605253e+3, 2.265774e+2, -714455.0, -801540.3, 98040.305, -0.0029422282, 0.28463998, -650722.94, 68845.62, 0.0, 10.00049, 9.999297 
2.6051578e+3, 2.3657466e+2, -714161.56, -755171.44, 75605.72, 0.04679553, 0.12721841, -656329.56, -34737.92, 0.0, 9.999838, 9.999258 
2.6050618e+3, 2.4657421e+2, -688780.7, -622326.44, 78533.72, 0.04334128, 0.17345074, -570280.0, -46683.332, 0.0, 9.999038, 9.999883 
2.6049656e+3, 2.565752e+2, -727332.0, -597086.94, 91165.14, -0.00048405654, 0.3318214, -550173.6, -124583.45, 0.0, 9.998128, 9.999823 
2.6048702e+3, 2.66575e+2, -676737.7, -447736.88, 74815.52, 0.02375609, 0.3463684, -425461.16, -97869.21, 0.0, 9.997484, 10.0004835 
2.6047754e+3, 2.765743e+2, -668365.3, -413955.84, 55996.137, 0.124165565, 0.27438667, -402176.38, -172579.27, 0.0, 9.996956, 10.000299 
2.6046798e+3, 2.865742e+2, -655676.8, -362018.78, 55213.457, 0.1570091, 0.29235095, -351980.7, -220379.86, 0.0, 9.996391, 10.000257 
2.6045826e+3, 2.965747e+2, -661572.94, -319377.38, 87534.8, 0.04589077, 0.36290783, -298285.7, -264683.94, 0.0, 9.995699, 10.000212 
2.604488e+3, 3.0657533e+2, -687705.0, -204885.58, 86885.93, 0.22513396, 0.39994183, -189725.97, -189725.97, 0.0, 9.994747, 10.0011215 
2.6043898e+3, 3.1657466e+2, -539244.94, 236357.97, 20687.408, 0.04803805, 0.26065743, 236909.36, 236909.36, 0.0, 9.994177, 10.004424 
2.6162267e+3, 1.2670241e+2, -1015650.06, -1802911.4, 30450.104, 0.18239763, 0.28115225, -1014474.06, 683863.94, 0.1275193, 10.007542, 9.995761 
2.616127e+3, 1.3669753e+2, -892701.75, -1686029.6, 14157.759, 0.06328761, 0.26422936, -892449.2, 707940.5, 0.0842817, 10.007366, 9.995978 
2.6160282e+3, 1.4669414e+2, -795028.7, -1378682.3, 21301.256, -0.022280235, 0.26074547, -794252.3, 708170.4, 0.044069678, 10.006142, 9.99804 
2.6159295e+3, 1.5669167e+2, -960186.1, -1445805.5, 39152.336, -0.046912562, 0.25921068, -957049.75, 447394.7, 0.016044179, 10.004297, 9.997759 
2.6158327e+3, 1.6668881e+2, -1000029.06, -1463487.0, 66120.086, -0.012149239, 0.2772191, -990780.5, 315693.66, 0.0032500115, 10.00351, 9.997341 
2.6157364e+3, 1.7668591e+2, -923872.56, -1368489.6, 37888.09, 0.04019862, 0.29980168, -920667.06, 287839.44, 0.00021446458, 10.003318, 9.997416 
2.61564e+3, 1.8668339e+2, -765839.0, -1105652.8, 51045.402, 0.04269193, 0.2871782, -758336.8, 352194.47, 0.00000047553752, 10.003149, 9.998624 
2.6155433e+3, 1.966812e+2, -707051.56, -1042476.0, 61857.4, 0.020459129, 0.25575036, -696007.75, 316542.75, 0.0, 10.002947, 9.998485 
2.6154462e+3, 2.0667948e+2, -697151.06, -961806.6, 66097.945, -0.005726315, 0.27471462, -681561.4, 233005.3, 0.0, 10.002239, 9.998703 
2.6153493e+3, 2.1667808e+2, -756483.8, -958959.3, 80277.695, -0.037543446, 0.31526503, -728517.9, 88062.28, 0.0, 10.001239, 9.998534 
2.6152527e+3, 2.2667585e+2, -759362.7, -895916.6, 73642.51, -0.04864516, 0.28675225, -727215.7, -8613.645, 0.0, 10.00049, 9.998652 
2.615156e+3, 2.3667334e+2, -747577.25, -825261.8, 50338.83, -0.04345255, 0.21538402, -722837.1, -102210.24, 0.0, 9.999834, 9.998782 
2.61506e+3, 2.4667244e+2, -665726.6, -574456.75, 43161.023, 0.020806426, 0.21696392, -557279.1, -34644.285, 0.0, 9.999035, 10.000215 
2.6149642e+3, 2.5667256e+2, -712047.25, -569757.7, 58837.773, 0.10112894, 0.2565001, -548579.8, -123947.31, 0.0, 9.998141, 10.000007 
2.614868e+3, 2.666718e+2, -713807.1, -528846.7, 53230.652, 0.08677099, 0.23985383, -514621.28, -187981.48, 0.0, 9.997495, 9.999926 
2.614771e+3, 2.766708e+2, -688958.06, -462187.97, 34915.434, 0.04843566, 0.19140436, -456933.8, -228283.33, 0.0, 9.996973, 9.999964 
2.6146752e+3, 2.8667134e+2, -598381.6, -247594.17, 27545.383, 0.10921254, 0.23794891, -245444.36, -114796.88, 0.0, 9.996405, 10.001038 
2.614579e+3, 2.966728e+2, -612942.0, -227812.81, 55964.805, 0.15445212, 0.3288352, -219845.17, -187208.97, 0.0, 9.995732, 10.000828 
2.614482e+3, 3.0667278e+2, -683063.44, -197633.33, 47044.51, 0.17533563, 0.2836138, -193116.13, -193116.13, 0.0, 9.99475, 10.001174 
2.6143825e+3, 3.1667438e+2, -570753.1, 148730.16, -32626.99, -0.056997586, 0.35969335, 150206.69, 150206.69, 0.0, 9.994235, 10.003813 
2.626233e+3, 1.268013e+2, -989376.2, -1729027.9, -16164.452, 0.14888231, 0.30129573, -989023.06, 708347.94, 0.11146053, 10.007352, 9.996363 
2.6261327e+3, 1.3679658e+2, -1135905.0, -1765394.9, 30660.318, 0.026816636, 0.24420835, -1134415.1, 465004.03, 0.072937965, 10.005274, 9.996442 
2.6260328e+3, 1.4679335e+2, -994074.06, -1496549.5, 58161.203, -0.016294701, 0.25097248, -987429.8, 514020.97, 0.037491374, 10.004788, 9.997841 
2.6259345e+3, 1.5679102e+2, -849260.4, -1407186.6, 38438.85, 0.0242777, 0.28440887, -846624.56, 556847.94, 0.013244697, 10.005134, 9.997617 
2.625837e+3, 1.6678822e+2, -836729.9, -1370714.8, 92828.06, 0.042013373, 0.3083667, -821052.9, 484448.53, 0.0025435544, 10.004583, 9.997457 
2.6257393e+3, 1.7678532e+2, -879393.75, -1337001.1, 124889.16, 0.0401751, 0.3224998, -847528.25, 360004.7, 0.00015045285, 10.00359, 9.997496 
2.6256424e+3, 1.8678269e+2, -819398.7, -1142473.3, 142509.72, 0.036479883, 0.30500025, -765521.7, 344036.97, 0.0000001940375, 10.002839, 9.998517 
2.6255453e+3, 1.9678035e+2, -819397.8, -1105734.1, 114644.8, 0.03362502, 0.27056897, -779152.3, 232427.31, 0.0, 10.002222, 9.998396 
2.6254478e+3, 2.0677818e+2, -776129.0, -1002051.6, 81078.12, 0.006421916, 0.2537486, -750043.9, 163555.31, 0.0, 10.001712, 9.998678 
2.62535e+3, 2.1677628e+2, -755230.75, -957405.06, 67666.734, -0.03305242, 0.24383806, -734673.3, 80943.164, 0.0, 10.001251, 9.998535 
2.6252523e+3, 2.2677447e+2, -752812.0, -887822.5, 81675.81, -0.055967975, 0.25624183, -714355.44, 3279.0496, 0.0, 10.000521, 9.99869 
2.6251552e+3, 2.3677287e+2, -775398.4, -839726.5, 104877.055, -0.062258705, 0.2749712, -697864.06, -78212.46, 0.0, 9.999655, 9.998766 
2.625059e+3, 2.4677159e+2, -668747.44, -601707.4, 91443.445, 0.02413207, 0.25503325, -537833.9, -16170.755, 0.0, 9.999129, 9.999979 
2.624963e+3, 2.5677067e+2, -638351.5, -553377.75, 64164.355, 0.15059014, 0.21286704, -518908.78, -95238.68, 0.0, 9.998735, 9.999829 
2.6248652e+3, 2.6676974e+2, -650240.56, -493842.9, 69408.26, 0.118667245, 0.18620858, -467482.84, -141804.14, 0.0, 9.99792, 9.999957 
2.6247674e+3, 2.76769e+2, -706791.1, -468027.9, 94204.19, 0.030546654, 0.16625229, -435335.88, -207649.19, 0.0, 9.996847, 9.999981 
2.6246706e+3, 2.8676963e+2, -627346.56, -263136.2, 68861.9, 0.07612716, 0.22236899, -250551.2, -120868.63, 0.0, 9.996218, 10.001019 
2.624574e+3, 2.9677102e+2, -598577.56, -219840.23, 32240.227, 0.13718756, 0.3092609, -217115.38, -185444.42, 0.0, 9.9958315, 10.000833 
2.6244766e+3, 3.0677065e+2, -586518.4, -130028.54, -116.23885, 0.1904382, 0.21522546, -130028.51, -130028.51, 0.0, 9.99533, 10.001354 
2.624377e+3, 3.1677306e+2, -623092.1, 3713.648, -4904.9097, 0.0039233644, 0.3620091, 3752.0276, 3752.0276, 0.0, 9.994405, 10.002728 
2.636239e+3, 1.2689976e+2, -940103.4, -1566149.6, -84404.2, 0.043007437, 0.27869022, -928923.5, 767485.25, 0.09679496, 10.006969, 9.997756 
2.6361367e+3, 1.3689622e+2, -1056528.9, -1614825.1, -28999.564, -0.040415637, 0.2036041, -1055026.5, 543414.25, 0.062680714, 10.005334, 9.997446 
2.6360378e+3, 1.4689314e+2, -1019406.75, -1586278.0, 67446.72, 0.027399657, 0.22328098, -1011492.4, 488979.0, 0.03164684, 10.004905, 9.997173 
2.6359412e+3, 1.5689042e+2, -881352.75, -1467520.4, 42735.79, 0.20694989, 0.2813162, -878253.4, 524246.38, 0.010836723, 10.005085, 9.99723 
2.635842e+3, 1.6688783e+2, -788425.3, -1256210.1, 53599.836, 0.16162777, 0.29219702, -782362.3, 522162.78, 0.0019724835, 10.004516, 9.998279 
2.6357418e+3, 1.7688546e+2, -844808.2, -1257636.9, 85775.01, -0.0033172686, 0.27920905, -827695.75, 378851.78, 0.00010496283, 10.003552, 9.998061 
2.635644e+3, 1.8688294e+2, -860724.0, -1226447.5, 115302.08, -0.024647394, 0.28545564, -827407.6, 281164.88, 0.00000008640195, 10.002825, 9.997951 
2.6355472e+3, 1.9688049e+2, -859242.7, -1184951.0, 91783.37, 0.025063517, 0.29546633, -835159.25, 175438.31, 0.0, 10.002202, 9.997865 
2.6354492e+3, 2.0687748e+2, -800699.06, -1056194.4, 64618.32, 0.018329712, 0.23763365, -785286.0, 127340.26, 0.0, 10.001721, 9.998304 
2.635351e+3, 2.168744e+2, -766937.7, -984580.75, 50303.4, -0.019714672, 0.14676693, -755873.6, 58781.336, 0.0, 10.001258, 9.998349 
2.635253e+3, 2.2687328e+2, -708543.6, -797463.9, 49819.51, -0.029922733, 0.19671029, -686230.4, 30435.121, 0.0, 10.000523, 9.999311 
2.6351547e+3, 2.368732e+2, -750713.2, -788290.56, 75717.88, -0.023351878, 0.30892748, -691487.7, -72821.305, 0.0, 9.999648, 9.9991255 
2.6350576e+3, 2.4687159e+2, -724192.9, -719026.8, 76129.766, 0.047079988, 0.28913933, -645436.25, -124754.05, 0.0, 9.999134, 9.999174 
2.634961e+3, 2.5686944e+2, -672120.3, -630043.06, 45004.047, 0.1368101, 0.20342128, -601402.8, -178699.34, 0.0, 9.998758, 9.999295 
2.6348627e+3, 2.668688e+2, -604058.7, -401441.6, 27394.86, 0.116023235, 0.18841644, -397803.0, -73094.32, 0.0, 9.99793, 10.00059 
2.634764e+3, 2.7686906e+2, -680890.0, -418373.56, 57875.426, 0.06645331, 0.20434156, -406180.44, -179475.38, 0.0, 9.996859, 10.0003195 
2.6346663e+3, 2.8686914e+2, -691756.94, -398608.72, 52983.777, 0.055238415, 0.2507528, -389326.3, -260620.27, 0.0, 9.99622, 10.00009 
2.6345676e+3, 2.968694e+2, -646105.2, -319215.3, 17776.94, -0.020815969, 0.31369275, -318251.4, -287544.38, 0.0, 9.99583, 10.000154 
2.6344723e+3, 3.0686873e+2, -557834.44, -83725.26, -29097.56, 0.2559578, 0.19981073, -81946.125, -81946.125, 0.0, 9.995376, 10.001656 
2.6343715e+3, 3.1687063e+2, -708856.0, -182723.14, 115869.09, 0.07665137, 0.28568777, -158335.94, -158335.94, 0.0, 9.994457, 10.001414 
2.6462442e+3, 1.2699972e+2, -1211060.8, -1692845.8, -2587.1458, 0.0484942, 0.26386937, -1211046.9, 484382.94, 0.08345846, 10.004814, 9.997832 
2.646142e+3, 1.3699658e+2, -933846.2, -1550951.3, -17046.547, -0.017397048, 0.22303237, -933375.6, 664081.6, 0.053450517, 10.006158, 9.997504 
2.6460427e+3, 1.4699331e+2, -897381.1, -1534573.8, 62099.863, 0.044466354, 0.22777458, -891385.4, 608104.06, 0.026485752, 10.00579, 9.997096 
2.6459455e+3, 1.5699014e+2, -947641.6, -1505019.4, 64969.816, 0.20906869, 0.2491665, -940168.7, 461353.78, 0.008783777, 10.004646, 9.997179 
2.6458457e+3, 1.6698754e+2, -885761.1, -1296937.1, 48222.7, 0.148144, 0.2584952, -880181.25, 423366.6, 0.0015181776, 10.003825, 9.998326 
2.6457447e+3, 1.7698537e+2, -898377.25, -1277286.4, 34650.3, -0.030442681, 0.26105663, -895234.6, 310333.3, 0.0000738073, 10.003165, 9.998109 
2.645646e+3, 1.8698299e+2, -886480.8, -1238373.4, 79715.21, -0.051979933, 0.27687594, -869264.94, 238327.02, 0.000000036839044, 10.002654, 9.997947 
2.6455486e+3, 1.969806e+2, -854423.7, -1180121.9, 91102.05, 0.0060924897, 0.29395851, -830673.2, 178943.7, 0.0, 10.002233, 9.997879 
2.6454505e+3, 2.0697783e+2, -767434.25, -1030606.9, 101118.64, 0.009857784, 0.25600755, -733068.94, 178574.77, 0.0, 10.001915, 9.9983835 
2.6453522e+3, 2.1697505e+2, -709295.06, -949084.2, 108436.336, -0.011112653, 0.19060926, -667532.1, 146137.66, 0.0, 10.001626, 9.998412 
2.6452535e+3, 2.2697365e+2, -668910.9, -778520.8, 70303.08, 0.007511736, 0.2118528, -634574.94, 81107.51, 0.0, 10.000799, 9.999307 
2.645155e+3, 2.3697305e+2, -743330.0, -785495.4, 58160.188, 0.051221624, 0.27345222, -702549.25, -84862.08, 0.0, 9.999708, 9.999112 
2.6450565e+3, 2.469715e+2, -748766.5, -743301.56, 95949.25, 0.07738923, 0.26507547, -650045.9, -130343.19, 0.0, 9.999023, 9.999058 
2.6449588e+3, 2.569696e+2, -719035.8, -667962.6, 108975.29, 0.08871317, 0.21895313, -581571.9, -159849.67, 0.0, 9.998508, 9.999152 
2.6448599e+3, 2.669689e+2, -618974.56, -436138.3, 49661.746, 0.079466775, 0.22087596, -423520.1, -99791.27, 0.0, 9.99795, 10.00034 
2.644761e+3, 2.7696893e+2, -628876.4, -420723.56, 18602.441, 0.09380528, 0.24048765, -419074.16, -193346.11, 0.0, 9.997335, 10.0000725 
2.6446623e+3, 2.8696874e+2, -596648.75, -384451.5, 43487.164, 0.07352019, 0.28499383, -375885.16, -248153.34, 0.0, 9.997015, 9.999802 
2.644563e+3, 2.9696867e+2, -532547.0, -293291.25, 50894.086, -0.061004363, 0.34355593, -282915.13, -253179.39, 0.0, 9.996739, 9.99989 
2.644467e+3, 3.069677e+2, -517150.53, -97085.8, -28315.693, 0.23885702, 0.22771217, -95185.695, -95185.695, 0.0, 9.995801, 10.001357 
2.6443657e+3, 3.1696895e+2, -664470.3, -180638.77, 140704.11, 0.051019717, 0.2792721, -142695.86, -142695.86, 0.0, 9.994863, 10.001225 
2.6562494e+3, 1.271008e+2, -1224076.4, -1784704.4, 38611.445, 0.11023976, 0.25977468, -1221429.6, 473008.78, 0.07136487, 10.005031, 9.997093 
2.6561484e+3, 1.3709755e+2, -973958.5, -1631992.9, 14962.961, 0.054568637, 0.2789655, -973618.44, 622850.4, 0.045183405, 10.006088, 9.9969635 
2.6560482e+3, 1.4709392e+2, -892916.5, -1502569.0, 20547.115, 0.034230873, 0.2506277, -892224.75, 606279.4, 0.02195823, 10.00566, 9.99738 
2.655948e+3, 1.5709026e+2, -952899.94, -1494434.3, 27803.271, 0.07476443, 0.19593118, -951476.2, 449064.06, 0.007049767, 10.00454, 9.997305 
2.655848e+3, 1.6708748e+2, -928580.56, -1378621.3, 25917.732, 0.037529718, 0.21568815, -927092.94, 375475.4, 0.0011614007, 10.003787, 9.9977865 
2.655747e+3, 1.7708527e+2, -921537.0, -1329167.1, 16077.717, -0.048153024, 0.2661483, -920903.8, 283687.34, 0.000052706146, 10.003177, 9.997749 
2.6556483e+3, 1.8708293e+2, -854144.0, -1177842.6, 66575.79, -0.05733503, 0.27590206, -840986.1, 265628.63, 0.000000014947995, 10.002677, 9.998353 
2.65555e+3, 1.9708067e+2, -826230.75, -1120253.4, 78160.92, -0.029586092, 0.26592883, -806744.5, 201892.61, 0.0, 10.002222, 9.998298 
2.6554516e+3, 2.0707913e+2, -741094.8, -969659.75, 91156.695, -0.018159982, 0.30605167, -709192.4, 201459.86, 0.0, 10.001883, 9.99882 
2.655353e+3, 2.1707797e+2, -702260.25, -920342.44, 92097.66, -0.016049799, 0.36046076, -668571.0, 144092.31, 0.0, 10.00156, 9.998644 
2.655254e+3, 2.270754e+2, -712390.3, -865501.8, 29224.83, 0.052942757, 0.29045567, -707001.7, 7685.3135, 0.0, 10.000782, 9.998719 
2.655155e+3, 2.3707238e+2, -765336.44, -836146.44, 22445.775, 0.15042852, 0.16735224, -758820.94, -142106.58, 0.0, 9.999724, 9.998759 
2.6550555e+3, 2.4707128e+2, -708628.3, -663748.5, 75761.67, 0.10950368, 0.18527617, -607173.3, -88448.836, 0.0, 9.999035, 9.9996 
2.6549557e+3, 2.570711e+2, -702556.94, -638689.6, 88703.12, -0.0044807307, 0.26270026, -576347.06, -155620.95, 0.0, 9.998525, 9.999349 
2.6548567e+3, 2.6707e+2, -701314.3, -609213.6, 25798.168, 0.0059127654, 0.28435904, -602479.7, -279740.1, 0.0, 9.997953, 9.999152 
2.6547578e+3, 2.7706864e+2, -684624.56, -542094.2, -967.39996, 0.10331418, 0.2793273, -542087.6, -317330.9, 0.0, 9.997355, 9.999231 
2.6546597e+3, 2.870684e+2, -561209.44, -320772.4, 33560.64, 0.13271442, 0.32719585, -316175.8, -189415.13, 0.0, 9.997051, 10.000224 
2.6545602e+3, 2.9706883e+2, -510676.63, -263703.63, 31944.883, 0.023779465, 0.40118414, -259638.6, -230881.55, 0.0, 9.996801, 10.000067 
2.6544613e+3, 3.0706778e+2, -577084.75, -229211.63, -74757.555, 0.11967455, 0.3202012, -213826.72, -213826.72, 0.0, 9.995827, 10.000442 
2.6543605e+3, 3.1706756e+2, -573783.1, -4254.839, 50033.313, 0.105133094, 0.29801378, 107.20061, 107.20061, 0.0, 9.994888, 10.002437 
2.666255e+3, 1.2720226e+2, -990153.25, -1671418.1, 42446.754, 0.1375416, 0.30239472, -987518.75, 705925.8, 0.060433824, 10.006709, 9.997074 
2.6661542e+3, 1.3719821e+2, -1029965.56, -1655989.9, 44926.69, 0.11075298, 0.24420613, -1026757.8, 568724.25, 0.037814382, 10.005624, 9.997024 
2.6660526e+3, 1.4719504e+2, -1025419.56, -1536172.1, 38310.637, 0.035230055, 0.24349399, -1022561.94, 474951.13, 0.018013045, 10.004583, 9.997664 
2.665951e+3, 1.571923e+2, -1072219.4, -1531634.6, 49748.723, -0.010323629, 0.257288, -1066893.9, 332646.63, 0.0055977535, 10.003628, 9.997486 
2.6658505e+3, 1.6718926e+2, -997737.8, -1434915.1, 85397.375, -0.0073455586, 0.2560131, -981648.56, 319922.9, 0.00088271726, 10.003417, 9.997575 
2.6657504e+3, 1.7718624e+2, -879832.4, -1324010.6, 89772.38, 0.0037344575, 0.24811384, -862374.75, 341227.5, 0.000037962185, 10.003533, 9.99761 
2.6656508e+3, 1.8718384e+2, -806327.94, -1140332.6, 120993.92, -0.0073720315, 0.25344205, -767103.94, 338521.94, 0.0000000057994387, 10.00295, 9.998476 
2.665552e+3, 1.971819e+2, -841881.25, -1112719.3, 114506.71, -0.02129033, 0.26442796, -799958.56, 207686.08, 0.0, 10.002055, 9.998426 
2.6654527e+3, 2.0718059e+2, -832927.75, -1002242.8, 108863.65, -0.015734302, 0.31738445, -779678.8, 129979.02, 0.0, 10.001208, 9.998918 
2.6653537e+3, 2.1717963e+2, -864903.8, -991275.0, 88199.516, -0.000355403, 0.38254377, -819592.56, -7924.735, 0.0, 10.000419, 9.998702 
2.6652542e+3, 2.2717695e+2, -759263.8, -899675.0, 51396.55, 0.054688796, 0.3083203, -742461.2, -28768.521, 0.0, 10.000516, 9.99861 
2.6651546e+3, 2.3717369e+2, -592063.06, -762915.0, 70694.266, 0.1331252, 0.17162944, -566605.0, 49117.61, 0.0, 10.000965, 9.998662 
2.6650545e+3, 2.4717255e+2, -559353.4, -597528.0, 81881.82, 0.10533265, 0.19505832, -494363.63, 23369.523, 0.0, 10.00009, 9.999545 
2.664954e+3, 2.571725e+2, -697523.0, -645536.2, 56755.74, 0.021501912, 0.28827724, -609104.7, -189370.8, 0.0, 9.998604, 9.999261 
2.6648542e+3, 2.6717126e+2, -705570.06, -639315.0, 48044.766, 0.01653996, 0.3164794, -614083.9, -292334.94, 0.0, 9.998051, 9.998896 
2.664755e+3, 2.771696e+2, -628822.5, -536022.2, 85974.35, 0.08372035, 0.31086963, -484726.1, -260956.75, 0.0, 9.997836, 9.999038 
2.6646563e+3, 2.87169e+2, -562040.9, -314643.66, 113380.34, 0.13049221, 0.33138308, -270543.44, -144767.31, 0.0, 9.997024, 10.000277 
2.6645565e+3, 2.9716912e+2, -634083.44, -326234.25, 82229.64, 0.07245999, 0.368002, -305646.7, -277871.94, 0.0, 9.995972, 10.000035 
2.664456e+3, 3.0716857e+2, -607819.06, -285413.44, -4273.464, 0.07058527, 0.36395356, -285356.8, -285356.8, 0.0, 9.995805, 10.00006 
2.664356e+3, 3.1716773e+2, -465128.5, 95713.445, 78564.37, 0.16709836, 0.3082973, 106511.086, 106511.086, 0.0, 9.995438, 10.002853 
2.676261e+3, 1.2730412e+2, -977912.9, -1620558.6, 3821.5598, 0.13089849, 0.37053794, -977890.2, 714557.44, 0.050601624, 10.006531, 9.997522 
2.67616e+3, 1.3729891e+2, -1008470.56, -1602746.9, 7988.9673, 0.14631478, 0.15204114, -1008363.2, 586131.0, 0.031277444, 10.005558, 9.99742 
2.6760566e+3, 1.4729676e+2, -1003528.6, -1499923.9, -552.6908, 0.037508104, 0.22245097, -1003528.0, 492987.88, 0.014595037, 10.004603, 9.997907 
2.6759535e+3, 1.5729591e+2, -1052717.5, -1503601.5, 19579.564, -0.06569642, 0.40208507, -1051868.9, 346657.9, 0.004389301, 10.003674, 9.99766 
2.6758534e+3, 1.6729243e+2, -989898.94, -1432380.5, 87477.3, -0.0072084256, 0.3521057, -973232.7, 327328.5, 0.0006644062, 10.00347, 9.997569 
2.6757547e+3, 1.7728804e+2, -878569.0, -1325187.9, 85197.77, 0.099785134, 0.20751522, -862868.5, 339735.13, 0.000027206008, 10.003545, 9.997599 
2.6756543e+3, 1.8728563e+2, -815019.9, -1157102.4, 86341.336, 0.08130604, 0.215805, -794462.75, 310164.13, 0.000000001728097, 10.002938, 9.998369 
2.675554e+3, 1.9728418e+2, -856713.6, -1136342.4, 81017.71, 0.014983049, 0.28651223, -834936.1, 171704.7, 0.0, 10.00202, 9.998284 
2.6754537e+3, 2.0728222e+2, -847290.06, -1035339.4, 77631.75, 0.009238496, 0.29352415, -819383.1, 89277.75, 0.0, 10.001218, 9.998688 
2.675354e+3, 2.1728015e+2, -867644.2, -1005001.56, 69181.35, 0.023511736, 0.27131882, -838840.44, -28158.354, 0.0, 10.000447, 9.998597 
2.675254e+3, 2.2727841e+2, -734574.2, -852777.06, 70526.85, 0.011584337, 0.27489832, -701659.25, 11039.4, 0.0, 10.00053, 9.998927 
2.675154e+3, 2.372769e+2, -587326.8, -749830.3, 73055.94, -0.003748273, 0.28435126, -559312.75, 55399.742, 0.0, 10.000945, 9.998763 
2.6750538e+3, 2.472752e+2, -607692.6, -695605.25, 24648.469, 0.06793226, 0.2893879, -601253.44, -84523.89, 0.0, 10.000076, 9.998879 
2.6749536e+3, 2.5727364e+2, -719855.75, -696893.94, 11203.115, 0.15850703, 0.29522172, -692333.6, -273587.47, 0.0, 9.998621, 9.998902 
2.6748526e+3, 2.6727262e+2, -653983.2, -536272.25, 40326.39, 0.10764001, 0.31595233, -523782.2, -203025.06, 0.0, 9.998062, 9.9996 
2.6747516e+3, 2.7727187e+2, -592494.9, -468125.16, 72680.555, 0.024019971, 0.33507857, -434657.4, -211892.22, 0.0, 9.997862, 9.999495 
2.6746517e+3, 2.872706e+2, -587871.4, -368990.63, 71803.67, 0.05641673, 0.28968433, -347538.06, -222760.27, 0.0, 9.997021, 9.9999075 
2.674552e+3, 2.9726937e+2, -656979.9, -367027.5, 54133.605, 0.06623723, 0.23093343, -357250.53, -330461.28, 0.0, 9.995937, 9.999775 
2.6744518e+3, 3.0727005e+2, -596713.1, -264616.1, 4550.686, 0.11192268, 0.34832355, -264553.75, -264553.75, 0.0, 9.995807, 10.000206 
2.6743504e+3, 3.1726944e+2, -529591.8, -44798.535, 11390.756, 0.113598675, 0.3169835, -44531.043, -44531.043, 0.0, 9.995461, 10.00188 
2.686266e+3, 1.2740552e+2, -1093352.1, -1654995.0, 31118.18, 0.080719255, 0.32108954, -1091633.3, 599820.4, 0.041803457, 10.005535, 9.997755 
2.6861647e+3, 1.3740121e+2, -1030987.75, -1594987.9, 18787.566, 0.16288257, 0.1703247, -1030362.56, 563128.8, 0.025503121, 10.005285, 9.997603 
2.6860613e+3, 1.4739893e+2, -982141.1, -1496510.3, -7710.0703, 0.07080251, 0.22761434, -982025.6, 513488.9, 0.011644973, 10.004776, 9.997844 
2.6859573e+3, 1.5739763e+2, -976407.4, -1464166.9, 1254.6642, -0.03676922, 0.36492336, -976404.1, 421126.4, 0.0033864367, 10.00419, 9.997678 
2.6858568e+3, 1.6739456e+2, -915666.44, -1368847.5, 94887.93, 0.011211228, 0.34086296, -896600.75, 402960.06, 0.00049258646, 10.003866, 9.997811 
2.685758e+3, 1.773909e+2, -853654.9, -1295780.1, 97045.305, 0.108989865, 0.24674903, -833291.56, 368304.16, 0.00001910125, 10.003647, 9.997748 
2.6856565e+3, 1.873883e+2, -842344.25, -1191933.1, 69540.0, 0.07400426, 0.24430826, -829019.3, 274601.72, 0.0000000002885943, 10.002852, 9.998167 
2.6855546e+3, 1.9738631e+2, -890545.3, -1165374.0, 61784.348, -0.009043639, 0.279775, -877294.44, 128346.305, 0.0, 10.001849, 9.998163 
2.6854545e+3, 2.0738417e+2, -797990.44, -996640.06, 90569.77, 0.0069263163, 0.26737252, -762896.9, 144764.97, 0.0, 10.001498, 9.998815 
2.6853547e+3, 2.173821e+2, -720625.94, -919171.2, 105317.164, 0.059556726, 0.23356138, -675168.6, 134513.63, 0.0, 10.001399, 9.998724 
2.685254e+3, 2.2738077e+2, -699872.1, -822776.25, 107907.08, 0.012423175, 0.2654371, -637145.7, 74549.66, 0.0, 10.000716, 9.999042 
2.6851532e+3, 2.3737982e+2, -751131.3, -818316.7, 91588.32, -0.06098049, 0.32128793, -687169.44, -73464.945, 0.0, 9.999783, 9.99885 
2.6850525e+3, 2.4737798e+2, -716697.5, -753159.1, 54695.383, 0.03871938, 0.31068864, -677274.6, -161551.2, 0.0, 9.999356, 9.998828 
2.6849523e+3, 2.573759e+2, -650965.3, -663759.1, 87116.24, 0.19752532, 0.27304006, -570011.44, -152266.52, 0.0, 9.999102, 9.998894 
2.6848507e+3, 2.6737496e+2, -566602.8, -475830.63, 112048.8, 0.15120503, 0.29658377, -400324.9, -80570.71, 0.0, 9.99859, 9.999758 
2.6847494e+3, 2.7737457e+2, -575951.06, -448024.16, 99071.89, 0.048000958, 0.33587757, -394061.53, -172303.64, 0.0, 9.997929, 9.9995985 
2.6846483e+3, 2.8737313e+2, -561063.2, -365799.34, 86288.42, 0.03685363, 0.27837622, -333132.8, -209361.47, 0.0, 9.997254, 9.999813 
2.684547e+3, 2.9737157e+2, -573160.8, -328462.0, 96149.03, 0.0038386483, 0.19034521, -295202.88, -269416.5, 0.0, 9.99653, 9.999749 
2.6844484e+3, 3.073722e+2, -518317.4, -198661.19, 86710.945, 0.21309018, 0.2970629, -176654.72, -176654.72, 0.0, 9.99623, 10.00045 
2.6843452e+3, 3.1737217e+2, -519752.75, -92271.766, -16408.578, 0.09719711, 0.30985832, -91642.86, -91642.86, 0.0, 9.995764, 10.001402 
2.6962703e+3, 1.2750691e+2, -1085474.4, -1638935.6, 21160.746, -0.0060285856, 0.20932785, -1084666.5, 605792.56, 0.03396854, 10.0055, 9.997881 
2.6961696e+3, 1.3750477e+2, -1037503.75, -1598450.5, 9939.114, 0.16063309, 0.2656482, -1037327.7, 555149.3, 0.020424673, 10.005213, 9.997616 
2.696066e+3, 1.4750157e+2, -1001009.0, -1538632.0, -27303.324, 0.120153405, 0.2460585, -999625.94, 494883.34, 0.009107661, 10.004769, 9.9975605 
2.6959616e+3, 1.5749815e+2, -976467.44, -1476127.6, -12671.293, 0.042606976, 0.19825393, -976146.3, 420398.97, 0.002556167, 10.004234, 9.997577 
2.6958603e+3, 1.6749614e+2, -885580.06, -1308694.0, 90147.89, 0.03675359, 0.25690758, -867174.0, 431391.53, 0.00035710575, 10.003871, 9.998224 
2.69576e+3, 1.7749473e+2, -850130.1, -1270634.9, 82723.09, 0.046751276, 0.3498207, -834441.9, 366137.38, 0.000012945244, 10.003566, 9.997962 
2.695658e+3, 1.8749176e+2, -869076.75, -1241838.9, 32834.66, -0.01071053, 0.322261, -866206.6, 236402.4, 0.000000000007316074, 10.002824, 9.997841 
2.6955554e+3, 1.9748835e+2, -894880.94, -1181701.4, 36367.914, -0.089113645, 0.24747887, -890341.44, 114301.91, 0.0, 10.001876, 9.99804 
2.695455e+3, 2.0748651e+2, -765376.94, -933179.1, 90618.7, -0.019748041, 0.24103333, -725782.5, 180877.81, 0.0, 10.001513, 9.999247 
2.695356e+3, 2.1748538e+2, -706637.56, -880330.8, 96557.94, 0.09925215, 0.25941873, -663615.94, 145053.58, 0.0, 10.001351, 9.999017 
2.6952547e+3, 2.2748391e+2, -710312.2, -839993.9, 73803.53, 0.05080908, 0.274821, -676912.0, 33771.684, 0.0, 10.000694, 9.998935 
2.6951525e+3, 2.3748244e+2, -745943.4, -810191.2, 63270.56, -0.05540377, 0.2862584, -707108.8, -94410.06, 0.0, 9.999789, 9.998904 
2.695051e+3, 2.4748081e+2, -676530.94, -673391.8, 44894.89, 0.010307654, 0.2612004, -630039.06, -115324.336, 0.0, 9.999367, 9.999373 
2.69495e+3, 2.5747925e+2, -626498.56, -618328.9, 75625.695, 0.12922601, 0.22303495, -546677.75, -129947.79, 0.0, 9.99912, 9.9992 
2.6948488e+3, 2.6747826e+2, -595905.5, -539722.44, 87738.22, 0.14672525, 0.25705475, -475688.34, -156947.98, 0.0, 9.9986, 9.999316 
2.6947474e+3, 2.7747765e+2, -592466.0, -487182.06, 74608.77, 0.14879492, 0.31654686, -448513.3, -227765.8, 0.0, 9.997945, 9.999324 
2.6946455e+3, 2.874767e+2, -546041.2, -339265.63, 58493.707, 0.07320865, 0.304898, -323865.6, -201109.16, 0.0, 9.997268, 9.999992 
2.694542e+3, 2.974757e+2, -550132.06, -292252.38, 74880.555, -0.115683936, 0.26202035, -272086.28, -247321.45, 0.0, 9.9965725, 9.99998 
2.6944453e+3, 3.0747497e+2, -487607.53, -147990.14, 83247.35, 0.3570325, 0.19656657, -128682.164, -128682.164, 0.0, 9.996281, 10.000777 
2.6943398e+3, 3.1747705e+2, -503250.94, -63417.652, -199979.44, 0.03937722, 0.39106357, 13911.565, 13911.565, 0.0, 9.995766, 10.001611 
2.7062753e+3, 1.276103e+2, -1074186.5, -1607115.4, 51285.86, 0.03509475, 0.22277519, -1069295.9, 620150.6, 0.027039306, 10.005422, 9.998142 
2.7061737e+3, 1.3760851e+2, -1093449.6, -1608760.6, 48497.168, 0.109937064, 0.2928919, -1088925.1, 502535.56, 0.01599151, 10.004724, 9.997782 
2.70607e+3, 1.4760518e+2, -1034356.5, -1569733.9, 31714.438, 0.091704436, 0.26323244, -1032484.3, 461010.13, 0.0069425157, 10.004599, 9.997425 
2.705966e+3, 1.5760139e+2, -915522.8, -1453387.1, 47167.035, 0.07997168, 0.19219004, -911417.94, 484116.22, 0.0018742172, 10.0046835, 9.997514 
2.7058637e+3, 1.6759937e+2, -880311.1, -1292634.9, 121630.164, 0.044841476, 0.24807663, -847105.9, 450449.1, 0.0002505566, 10.003852, 9.998341 
2.705762e+3, 1.7759816e+2, -962204.4, -1304526.4, 100597.61, -0.006772719, 0.3502894, -934830.8, 264736.63, 0.000008335715, 10.002713, 9.998137 
2.7056602e+3, 1.8759553e+2, -901110.0, -1220306.4, 87338.96, -0.02301948, 0.3320624, -878775.0, 222818.14, 0.0, 10.002449, 9.998166 
2.7055576e+3, 1.9759248e+2, -790047.25, -1105696.8, 127455.234, -0.020980958, 0.26416156, -745008.75, 258614.06, 0.0, 10.002492, 9.998262 
2.705457e+3, 2.0759058e+2, -744085.6, -937436.7, 158961.0, 0.018930815, 0.25324476, -654710.75, 250929.78, 0.0, 10.001726, 9.999111 
2.7053562e+3, 2.1758924e+2, -806181.8, -928376.4, 128484.84, 0.07512358, 0.26573268, -725007.4, 82644.62, 0.0, 10.000675, 9.999008 
2.7052546e+3, 2.2758782e+2, -747989.0, -823165.25, 120765.55, 0.05378461, 0.2655358, -659097.1, 50568.332, 0.0, 10.00029, 9.999242 
2.7051523e+3, 2.375864e+2, -680638.44, -756928.06, 138736.69, 0.00879389, 0.25666904, -574898.25, 36780.844, 0.0, 10.00015, 9.999093 
2.7050504e+3, 2.475849e+2, -613729.6, -658416.8, 98759.266, 0.021774556, 0.24935356, -534817.94, -21123.713, 0.0, 9.999869, 9.999231 
2.7049482e+3, 2.5758347e+2, -579879.7, -607858.06, 78529.086, 0.054614447, 0.24000244, -514103.5, -98394.64, 0.0, 9.999496, 9.999087 
2.704847e+3, 2.675823e+2, -524082.47, -515264.25, 89131.9, 0.09823866, 0.2633251, -430432.47, -112711.0, 0.0, 9.999144, 9.999219 
2.7047455e+3, 2.7758136e+2, -481197.9, -435975.56, 96058.516, 0.17421408, 0.29853255, -359902.88, -140170.9, 0.0, 9.998729, 9.999293 
2.704643e+3, 2.8758076e+2, -453015.75, -275652.3, 74943.93, 0.11954583, 0.31537408, -248226.16, -126488.92, 0.0, 9.997833, 10.000153 
2.7045387e+3, 2.9758036e+2, -519636.44, -257011.22, 92121.08, -0.07164579, 0.31678146, -227920.3, -204180.61, 0.0, 9.996699, 10.000158 
2.70444e+3, 3.0757907e+2, -550851.5, -156060.45, 105159.9, 0.2708905, 0.17902139, -129796.42, -129796.42, 0.0, 9.995758, 10.00097 
2.7043343e+3, 3.1758174e+2, -523540.1, -48581.246, -199890.67, -0.022320105, 0.41109318, 24346.738, 24346.738, 0.0, 9.995532, 10.00182 
2.7162814e+3, 1.2771504e+2, -1052632.0, -1558243.4, 23767.068, 0.13583998, 0.31192383, -1051517.3, 636904.25, 0.020986775, 10.005377, 9.998499 
2.7161768e+3, 1.3771254e+2, -1068466.5, -1572066.6, 26432.936, 0.017774543, 0.27498305, -1067082.9, 523358.8, 0.012174762, 10.004773, 9.998011 
2.716073e+3, 1.4770962e+2, -1035552.9, -1577297.9, 33063.117, 0.009767225, 0.2836603, -1033542.44, 458928.8, 0.005124773, 10.004606, 9.997374 
2.7159703e+3, 1.5770665e+2, -934511.94, -1471007.5, 41151.992, 0.08333017, 0.30014145, -931373.75, 463129.66, 0.0013244011, 10.004582, 9.997444 
2.7158672e+3, 1.6770388e+2, -896311.2, -1315140.3, 79245.62, 0.036267847, 0.28986692, -881818.75, 414713.72, 0.0001678077, 10.003802, 9.998212 
2.715764e+3, 1.7770138e+2, -948113.1, -1282717.8, 69976.14, -0.06044414, 0.27214906, -934068.44, 264489.9, 0.0000049507566, 10.002742, 9.998276 
2.7156624e+3, 1.8769972e+2, -838530.94, -1097967.5, 89617.21, 0.020540921, 0.29125777, -810584.8, 289988.0, 0.0, 10.002478, 9.998995 
2.7155614e+3, 1.976984e+2, -763696.3, -1045137.5, 116224.23, 0.16011816, 0.31835344, -721905.7, 280677.1, 0.0, 10.002461, 9.998695 
2.715459e+3, 2.0769612e+2, -793524.0, -1034461.44, 116455.9, 0.10452506, 0.29628256, -746437.7, 158167.44, 0.0, 10.0016985, 9.998459 
2.7153555e+3, 2.1769369e+2, -829270.9, -972173.56, 98612.016, -0.017875094, 0.25694066, -778945.25, 27684.764, 0.0, 10.000653, 9.99872 
2.715254e+3, 2.2769241e+2, -698884.7, -722531.56, 115699.88, 0.02522819, 0.24108699, -594405.7, 114235.1, 0.0, 10.000291, 9.999935 
2.7151534e+3, 2.3769166e+2, -662124.1, -718311.56, 130741.82, 0.12214435, 0.233806, -556491.7, 54154.32, 0.0, 10.000144, 9.999364 
2.71505e+3, 2.476902e+2, -672699.06, -781846.8, 85159.68, 0.067037284, 0.2750171, -626127.1, -113464.734, 0.0, 9.99987, 9.998384 
2.7149463e+3, 2.5768864e+2, -613254.9, -684841.56, 65021.99, -0.044472694, 0.33038235, -574825.44, -160143.9, 0.0, 9.999525, 9.998547 
2.7148443e+3, 2.6768705e+2, -503211.56, -477882.9, 73459.414, -0.0014258769, 0.31726477, -416004.16, -99306.24, 0.0, 9.999164, 9.99947 
2.7147433e+3, 2.776856e+2, -459896.22, -401074.66, 74563.28, 0.11664667, 0.27936038, -350331.34, -131619.48, 0.0, 9.998764, 9.999518 
2.7146408e+3, 2.8768528e+2, -441063.44, -256173.5, 31661.654, 0.17512779, 0.30682835, -250901.88, -130187.56, 0.0, 9.99785, 10.000281 
2.7145365e+3, 2.9768553e+2, -509559.9, -238234.6, 51116.664, 0.13016583, 0.36123422, -228923.9, -206213.33, 0.0, 9.996703, 10.000288 
2.7144316e+3, 3.0768475e+2, -550154.4, -146857.95, 71776.234, -0.078109905, 0.26504123, -134464.52, -134464.52, 0.0, 9.995718, 10.001055 
2.7143312e+3, 3.176851e+2, -507901.22, -29080.164, 886.5743, 0.14233305, 0.25389412, -29078.523, -29078.523, 0.0, 9.995586, 10.001926 
2.7262858e+3, 1.2781942e+2, -1093888.1, -1635427.3, 55369.496, 0.09252777, 0.30051365, -1088284.9, 599112.94, 0.01579783, 10.005303, 9.997994 
2.7261814e+3, 1.3781637e+2, -1024112.6, -1569676.1, 10085.439, 0.034238547, 0.25509378, -1023926.25, 565499.94, 0.008958217, 10.005152, 9.997843 
2.7260768e+3, 1.4781398e+2, -1016812.1, -1498997.6, 29553.076, 0.0024126638, 0.2819696, -1015007.6, 476442.9, 0.0036385097, 10.0044365, 9.99799 
2.7259734e+3, 1.5781188e+2, -1050972.6, -1482752.3, 72693.47, 0.030980114, 0.32892635, -1039062.6, 354410.38, 0.0008952348, 10.003594, 9.997836 
2.72587e+3, 1.6780932e+2, -983360.5, -1378850.1, 115465.91, 0.028464291, 0.34123895, -952117.56, 343383.16, 0.00010567381, 10.003305, 9.998011 
2.7257672e+3, 1.7780676e+2, -889156.2, -1265210.0, 101963.51, 0.0040878765, 0.33750194, -863289.06, 334239.56, 0.0000025953589, 10.0032, 9.998172 
2.7256647e+3, 1.8780479e+2, -792731.0, -1064355.9, 93294.29, 0.058922075, 0.32412535, -763774.4, 335771.3, 0.0, 10.002748, 9.999092 
2.7255633e+3, 1.9780315e+2, -795684.4, -1042237.7, 68605.78, 0.14536455, 0.3096261, -777879.9, 223677.72, 0.0, 10.002169, 9.998852 
2.7254593e+3, 2.0780127e+2, -824892.6, -1020168.56, 81938.04, 0.0879821, 0.303325, -795066.8, 108508.836, 0.0, 10.001362, 9.998717 
2.7253553e+3, 2.1779938e+2, -844243.2, -964496.94, 128954.32, -0.018257098, 0.29529673, -762087.06, 43508.098, 0.0, 10.000491, 9.99885 
2.7252537e+3, 2.2779796e+2, -724122.7, -757568.44, 139368.2, 0.02368916, 0.2740559, -600477.7, 107130.18, 0.0, 10.000221, 9.999726 
2.725153e+3, 2.3779683e+2, -665945.4, -727786.25, 93312.945, 0.122878425, 0.24982893, -598563.3, 11053.746, 0.0, 10.000157, 9.999289 
2.7250496e+3, 2.4779548e+2, -628982.8, -734544.2, 86388.914, 0.076133996, 0.2859942, -580526.9, -68894.81, 0.0, 10.000065, 9.998612 
2.7249455e+3, 2.577941e+2, -549233.44, -634683.2, 136528.83, -0.027161432, 0.34256616, -448900.5, -35252.164, 0.0, 9.999891, 9.998712 
2.7248427e+3, 2.6779264e+2, -507480.22, -474183.1, 139604.92, -0.023455344, 0.33399475, -350237.5, -34573.965, 0.0, 9.999118, 9.999513 
2.7247408e+3, 2.7779117e+2, -555427.75, -445930.13, 123661.51, 0.052146137, 0.29389593, -365439.9, -147762.27, 0.0, 9.998109, 9.999522 
2.724638e+3, 2.877906e+2, -474685.72, -286555.3, 60707.426, 0.16456603, 0.30448458, -268666.72, -148983.86, 0.0, 9.997691, 10.000145 
2.724534e+3, 2.977906e+2, -415543.06, -207608.55, 56316.914, 0.198498, 0.34683445, -193335.44, -171653.47, 0.0, 9.997424, 10.000146 
2.724427e+3, 3.0779034e+2, -390604.38, -83692.78, 54963.863, -0.13676797, 0.31895134, -74146.41, -74146.41, 0.0, 9.996882, 10.000922 
2.7243277e+3, 3.177895e+2, -431969.56, 32969.98, 47474.94, 0.27904868, 0.19493903, 37768.125, 37768.125, 0.0, 9.996009, 10.002144 
2.7362892e+3, 1.2792373e+2, -1167567.3, -1782324.1, 45781.418, -0.042515308, 0.23219009, -1164176.6, 522196.94, 0.0114562595, 10.005257, 9.997001 
2.7361867e+3, 1.3792026e+2, -1072728.9, -1639756.9, 3728.598, 0.11590092, 0.23435853, -1072704.3, 515706.84, 0.006326306, 10.005001, 9.997434 
2.7360812e+3, 1.479184e+2, -953506.5, -1355203.6, -653.59247, 0.036633156, 0.2634616, -953505.44, 536924.44, 0.0024678442, 10.004374, 9.999012 
2.7359754e+3, 1.5791719e+2, -999656.06, -1385461.1, 44831.363, -0.06744451, 0.30278888, -994515.06, 397926.47, 0.0005753232, 10.003629, 9.998489 
2.735873e+3, 1.6791558e+2, -997270.44, -1415540.4, 109169.33, 0.021594787, 0.4029541, -970491.5, 323969.34, 0.000061933584, 10.003335, 9.997746 
2.7357712e+3, 1.7791386e+2, -915673.44, -1314431.4, 93354.4, 0.15208162, 0.5094217, -894900.2, 301582.25, 0.0000011486238, 10.003171, 9.997849 
2.7356675e+3, 1.879106e+2, -833164.9, -1139762.1, 74336.6, 0.08532459, 0.41076556, -816092.1, 282420.7, 0.0, 10.0027075, 9.998595 
2.735563e+3, 1.979071e+2, -806986.9, -1054759.3, 47548.176, -0.03734487, 0.2518299, -798175.56, 202368.06, 0.0, 10.002117, 9.998793 
2.7354595e+3, 2.0790622e+2, -754262.4, -872780.9, 49670.316, -0.010909788, 0.28341183, -736198.94, 166351.17, 0.0, 10.001356, 9.999734 
2.735356e+3, 2.1790622e+2, -813233.3, -902473.2, 104616.19, 0.05563518, 0.37257946, -744119.0, 60429.67, 0.0, 10.000498, 9.999274 
2.7352536e+3, 2.2790433e+2, -795867.7, -910724.5, 137758.0, 0.038517885, 0.35620388, -704047.0, 2520.6777, 0.0, 10.0002365, 9.998669 
2.7351514e+3, 2.3790197e+2, -690995.7, -782953.25, 91328.38, 0.002975793, 0.304282, -634725.1, -26133.307, 0.0, 10.000166, 9.998908 
2.735049e+3, 2.4790071e+2, -537696.5, -547855.6, 81166.49, 0.051576205, 0.2817385, -461450.78, 49152.332, 0.0, 10.0000725, 9.999893 
2.7349463e+3, 2.578999e+2, -486918.84, -510718.06, 122693.05, 0.10456122, 0.27455184, -375549.72, 37059.46, 0.0, 9.999909, 9.999556 
2.734842e+3, 2.6789907e+2, -522217.63, -504074.25, 101317.07, 0.029321495, 0.31189495, -411423.53, -96805.38, 0.0, 9.999112, 9.999311 
2.7347374e+3, 2.7789822e+2, -573527.6, -483870.97, 94162.55, -0.041231837, 0.35322535, -424410.44, -207782.66, 0.0, 9.998106, 9.999266 
2.7346343e+3, 2.8789666e+2, -506759.7, -355966.38, 52338.07, 0.07591129, 0.30811164, -339581.06, -220938.23, 0.0, 9.997697, 9.999669 
2.73453e+3, 2.9789522e+2, -442599.84, -276718.28, 43504.027, 0.1256988, 0.25256947, -266001.3, -245344.84, 0.0, 9.997474, 9.99965 
2.734426e+3, 3.0789563e+2, -415397.38, -149944.6, 27114.088, 0.13563974, 0.33746588, -147203.39, -147203.39, 0.0, 9.9969425, 10.00044 
2.734321e+3, 3.178952e+2, -409428.47, 63970.58, -91203.34, 0.06767134, 0.29910412, 80933.66, 80933.66, 0.0, 9.996051, 10.002351 
2.7462935e+3, 1.2802914e+2, -1179508.8, -1739611.0, 39579.535, -0.06573636, 0.2588196, -1176725.6, 508618.06, 0.00793799, 10.004945, 9.997446 
2.7461907e+3, 1.380264e+2, -1212180.4, -1678129.4, 70060.79, 0.11396879, 0.29513493, -1201874.0, 385499.3, 0.0042536487, 10.003907, 9.997697 
2.7460846e+3, 1.4802437e+2, -1053941.3, -1426622.4, 47436.074, 0.02817017, 0.31175902, -1047998.2, 441395.75, 0.0015873525, 10.003787, 9.998798 
2.7459785e+3, 1.5802269e+2, -951255.5, -1362680.6, 23976.477, -0.08791015, 0.32365072, -949862.94, 441547.4, 0.00034892515, 10.003967, 9.998481 
2.7458754e+3, 1.6802111e+2, -943050.3, -1342563.4, 94926.875, 0.01118743, 0.40013817, -921642.25, 371785.47, 0.000033543303, 10.003508, 9.998164 
2.7457738e+3, 1.780196e+2, -944311.25, -1295991.3, 115996.47, 0.16139363, 0.4885849, -909497.75, 285947.5, 0.00000040337267, 10.002839, 9.998134 
2.7456692e+3, 1.8801656e+2, -915604.06, -1186186.3, 121838.016, 0.07965859, 0.4082885, -868828.75, 228645.39, 0.0, 10.002177, 9.998529 
2.745564e+3, 1.9801328e+2, -890832.75, -1093865.0, 120385.93, -0.06773371, 0.278215, -834874.1, 164630.42, 0.0, 10.001543, 9.998799 
2.7454603e+3, 2.0801239e+2, -741255.94, -848189.3, 92673.21, -0.022487212, 0.30081952, -687731.94, 213778.78, 0.0, 10.001372, 9.999892 
2.745357e+3, 2.1801235e+2, -684000.0, -828794.56, 95663.57, 0.084576316, 0.36999094, -636426.94, 167081.89, 0.0, 10.001343, 9.99937 
2.745254e+3, 2.280104e+2, -710802.06, -882227.9, 165745.23, 0.058118455, 0.35375208, -609918.7, 95609.77, 0.0, 10.00088, 9.998551 
2.745151e+3, 2.3800799e+2, -679587.56, -777103.4, 177912.27, -0.0016797767, 0.3086701, -543872.94, 63680.742, 0.0, 10.00025, 9.998906 
2.745048e+3, 2.480069e+2, -601021.7, -545819.5, 125631.0, 0.046991747, 0.286936, -444793.34, 64769.78, 0.0, 9.999504, 10.000177 
2.7449453e+3, 2.580063e+2, -642312.5, -559441.3, 97352.016, 0.11638834, 0.27426276, -495073.7, -83507.25, 0.0, 9.998735, 9.999784 
2.7448404e+3, 2.6800564e+2, -574354.0, -523049.63, 74277.04, 0.040900644, 0.31680086, -470119.9, -156546.5, 0.0, 9.998734, 9.999359 
2.7447355e+3, 2.7800497e+2, -463225.0, -433753.13, 84794.85, -0.033313017, 0.37044573, -362423.3, -146841.97, 0.0, 9.998886, 9.99923 
2.7446315e+3, 2.8800303e+2, -401568.6, -330265.34, 64762.75, 0.058365673, 0.30348504, -291989.63, -174389.45, 0.0, 9.998532, 9.99944 
2.744527e+3, 2.9800093e+2, -394275.03, -288876.72, 71094.14, 0.0767456, 0.21120018, -253079.69, -233459.53, 0.0, 9.997962, 9.99933 
2.7444232e+3, 3.080011e+2, -418904.75, -212337.89, 43021.6, 0.20017019, 0.31646216, -203736.0, -203736.0, 0.0, 9.99718, 9.999898 
2.7443153e+3, 3.1800097e+2, -352363.63, 116441.96, -68599.26, -0.07590269, 0.35222653, 126273.74, 126273.74, 0.0, 9.996344, 10.002565 
2.7562985e+3, 1.2813544e+2, -1086149.8, -1547318.9, 5209.233, -0.029409604, 0.34321472, -1086090.9, 598217.7, 0.0052041835, 10.004943, 9.998771 
2.7561933e+3, 1.3813421e+2, -1158273.8, -1587501.5, 41528.188, 0.04746267, 0.4098328, -1154292.8, 432025.9, 0.002696271, 10.003992, 9.998279 
2.7560875e+3, 1.4813149e+2, -1121611.6, -1578874.4, 54354.8, -0.010741233, 0.40595773, -1115239.4, 373107.22, 0.00095838617, 10.003831, 9.997735 
2.7559823e+3, 1.5812841e+2, -991560.8, -1433048.5, 27539.629, -0.059120648, 0.3753856, -989849.56, 400528.8, 0.000196883, 10.003907, 9.998029 
2.7558783e+3, 1.6812623e+2, -889602.75, -1217341.3, 72820.7, -0.0070016957, 0.34599522, -874151.1, 418247.3, 0.000016382339, 10.003443, 9.999056 
2.7557752e+3, 1.7812441e+2, -903299.1, -1198992.0, 90325.31, 0.060895596, 0.32109854, -877890.75, 316523.03, 0.00000009587778, 10.002785, 9.998828 
2.7556705e+3, 1.8812282e+2, -899885.56, -1151757.9, 95664.68, 0.0499629, 0.34163097, -867671.0, 228758.5, 0.0, 10.002167, 9.998772 
2.7555656e+3, 1.9812132e+2, -889551.4, -1093220.5, 101326.984, 0.016837068, 0.3716253, -847728.56, 150715.98, 0.0, 10.001549, 9.998804 
2.7554613e+3, 2.0811957e+2, -779513.7, -931876.6, 91839.78, 0.03270676, 0.34429818, -736371.44, 164088.6, 0.0, 10.001387, 9.999313 
2.7553573e+3, 2.1811786e+2, -697594.9, -855508.2, 90072.516, 0.06312787, 0.30051845, -656771.7, 145702.67, 0.0, 10.001332, 9.999193 
2.7552545e+3, 2.2811629e+2, -660887.44, -776729.2, 142371.69, 0.08259399, 0.27846393, -565105.56, 139383.52, 0.0, 10.000869, 9.999283 
2.7551517e+3, 2.3811486e+2, -661975.1, -737007.5, 151476.53, 0.094772674, 0.2661884, -543438.1, 63064.992, 0.0, 10.00023, 9.999192 
2.755047e+3, 2.4811396e+2, -652125.2, -651918.4, 95135.664, 0.053278588, 0.3004746, -556886.06, -48373.215, 0.0, 9.9995, 9.999453 
2.7549422e+3, 2.581133e+2, -666214.3, -614761.2, 78648.664, -0.009201131, 0.34582314, -557738.3, -147217.98, 0.0, 9.998756, 9.999396 
2.7548385e+3, 2.681123e+2, -551602.06, -478979.56, 81176.164, 0.011384201, 0.34875628, -426363.47, -113833.56, 0.0, 9.998744, 9.9996605 
2.7547348e+3, 2.7811125e+2, -441318.16, -399147.5, 83112.94, 0.08211305, 0.33599672, -334486.97, -119947.29, 0.0, 9.998929, 9.99945 
2.75463e+3, 2.8810963e+2, -394797.56, -321243.28, 43274.95, 0.11375551, 0.28942966, -301228.88, -184673.77, 0.0, 9.998551, 9.999494 
2.7545238e+3, 2.98108e+2, -400236.28, -303719.0, 49370.56, 0.034340385, 0.23985869, -282938.88, -264368.1, 0.0, 9.997969, 9.999227 
2.754418e+3, 3.0810672e+2, -453634.34, -294719.5, 10816.193, 0.012127264, 0.24298537, -293986.72, -293986.72, 0.0, 9.997214, 9.999321 
2.7543122e+3, 3.1810707e+2, -335023.6, 160093.97, 27395.734, 0.039103366, 0.36524042, 161605.22, 161605.22, 0.0, 9.996341, 10.0028515 
2.766303e+3, 1.2824298e+2, -1102303.8, -1594062.6, 73589.43, 0.022416124, 0.40082967, -1091527.5, 591727.5, 0.0031877607, 10.004989, 9.998427 
2.7661964e+3, 1.3824092e+2, -1074213.5, -1573277.5, 26174.125, -0.012368838, 0.41646287, -1072844.6, 512429.3, 0.0015891218, 10.004683, 9.998044 
2.7660906e+3, 1.4823796e+2, -1103514.9, -1578227.6, 66376.85, -0.039928198, 0.40337616, -1094408.5, 392895.28, 0.00053412875, 10.003992, 9.99766 
2.7659857e+3, 1.5823482e+2, -1091507.5, -1478209.8, 88017.56, -0.012732593, 0.37340793, -1072416.3, 316919.6, 0.00010047921, 10.003211, 9.998053 
2.765881e+3, 1.6823259e+2, -980516.44, -1235507.3, 113146.77, 0.011484369, 0.3265612, -937549.9, 353805.5, 0.000006741736, 10.002716, 9.999277 
2.7657765e+3, 1.7823079e+2, -953130.6, -1196445.3, 93602.77, 0.022177776, 0.2799307, -921288.8, 272080.8, 0.00000000965895, 10.002338, 9.999056 
2.765672e+3, 1.8822944e+2, -900666.25, -1132148.4, 88936.805, 0.03610477, 0.30817002, -870442.44, 224939.94, 0.0, 10.00208, 9.998947 
2.7655673e+3, 1.9822827e+2, -839289.2, -1060916.6, 93912.125, 0.058372363, 0.35465533, -804847.44, 192546.86, 0.0, 10.001861, 9.998873 
2.765463e+3, 2.0822643e+2, -760582.1, -945849.3, 108486.97, 0.0657567, 0.3285215, -710560.9, 188850.64, 0.0, 10.00162, 9.999103 
2.7653584e+3, 2.1822448e+2, -702981.1, -864603.56, 119638.67, 0.067098156, 0.2813982, -639418.3, 162010.89, 0.0, 10.001329, 9.99913 
2.7652547e+3, 2.282232e+2, -698959.0, -764457.94, 133785.23, 0.07956546, 0.27388754, -593973.1, 109468.0, 0.0, 10.000483, 9.99955 
2.765151e+3, 2.3822218e+2, -756602.1, -767214.94, 121071.0, 0.09885925, 0.2787259, -640721.3, -35270.566, 0.0, 9.99952, 9.999324 
2.765046e+3, 2.4822107e+2, -654569.0, -676747.4, 102221.09, 0.040985994, 0.3013875, -562837.4, -55374.67, 0.0, 9.999591, 9.999236 
2.7649406e+3, 2.5822002e+2, -509100.47, -549030.7, 117349.16, -0.040986385, 0.32990947, -410030.16, -555.9159, 0.0, 9.9998865, 9.9993 
2.7648365e+3, 2.6821896e+2, -470678.4, -423303.16, 114403.43, -0.008646501, 0.32127425, -330160.78, -18676.793, 0.0, 9.999231, 9.999806 
2.7647328e+3, 2.782179e+2, -525243.1, -426666.6, 105108.12, 0.0873322, 0.29763559, -359864.2, -146371.16, 0.0, 9.998301, 9.999561 
2.7646282e+3, 2.8821686e+2, -469093.56, -353376.25, 59714.516, 0.13935743, 0.30023962, -328087.75, -212583.66, 0.0, 9.9980345, 9.999517 
2.7645218e+3, 2.9821584e+2, -415657.9, -311126.2, 58921.49, 0.08080017, 0.31106743, -284630.0, -267114.94, 0.0, 9.997873, 9.999217 
2.7644134e+3, 3.082137e+2, -420259.75, -293372.63, 42246.324, -0.118898354, 0.23584318, -280593.9, -280593.9, 0.0, 9.997518, 9.999178 
2.7643088e+3, 3.1821406e+2, -209925.1, 235063.8, 59472.98, 0.08851814, 0.37165874, 242875.27, 242875.27, 0.0, 9.997148, 10.002972 
2.776308e+3, 1.2835142e+2, -1215606.0, -1803542.9, 51108.75, 0.07050314, 0.4453886, -1211196.3, 470992.9, 0.0017924038, 10.00487, 9.997044 
2.7762002e+3, 1.3834701e+2, -1132380.4, -1683909.0, 11285.863, -0.07606362, 0.35264924, -1132149.6, 452084.78, 0.00085342256, 10.004634, 9.997308 
2.7760938e+3, 1.4834413e+2, -1065729.9, -1497300.3, 37546.633, -0.06396749, 0.3348989, -1062487.6, 423775.03, 0.00026741473, 10.003976, 9.998225 
2.775989e+3, 1.5834181e+2, -1073536.9, -1436275.3, 62240.316, 0.042294297, 0.33462366, -1063154.6, 325130.34, 0.00004408745, 10.003189, 9.998352 
2.7758837e+3, 1.6834001e+2, -998751.56, -1275169.1, 98153.875, 0.051812757, 0.3372012, -967443.8, 322857.3, 0.0000020107127, 10.002722, 9.999003 
2.7757785e+3, 1.7833842e+2, -961971.94, -1216653.9, 80763.234, 0.019950714, 0.3370231, -938520.25, 253794.52, 0.00000000000031198744, 10.002344, 9.998918 
2.7756733e+3, 1.8833643e+2, -893947.5, -1116341.0, 81160.0, 0.031233, 0.29659167, -867479.25, 226853.5, 0.0, 10.002068, 9.9990635 
2.7755687e+3, 1.9833443e+2, -838990.44, -1049151.1, 86369.71, 0.05905601, 0.249065, -808050.2, 188300.75, 0.0, 10.001809, 9.99898 
2.7754638e+3, 2.0833312e+2, -759279.6, -936822.0, 99356.336, 0.07794921, 0.26720002, -714814.1, 183549.69, 0.0, 10.001592, 9.999179 
2.7753595e+3, 2.1833208e+2, -707909.7, -867721.56, 100705.77, 0.08500982, 0.30461094, -659259.75, 141114.64, 0.0, 10.001295, 9.999126 
2.7752542e+3, 2.2833101e+2, -711185.4, -789994.0, 95440.984, 0.046745557, 0.32970253, -647334.25, 55051.316, 0.0, 10.00048, 9.999378 
2.775149e+3, 2.3832996e+2, -755148.44, -768270.9, 99877.07, 0.0031582795, 0.34425098, -661617.3, -57220.688, 0.0, 9.999535, 9.999312 
2.775045e+3, 2.4832825e+2, -632958.44, -636143.25, 116123.76, 0.011164436, 0.2899753, -518416.2, -12003.709, 0.0, 9.999605, 9.999511 
2.7749407e+3, 2.583265e+2, -494193.56, -523919.53, 114805.09, 0.01686616, 0.22390287, -393293.34, 15134.896, 0.0, 9.9999075, 9.999464 
2.774835e+3, 2.6832563e+2, -474052.03, -430236.6, 76970.98, -0.026228964, 0.23089026, -372116.34, -61680.297, 0.0, 9.999229, 9.999761 
2.7747294e+3, 2.7832508e+2, -528836.1, -431021.03, 79627.96, -0.039397255, 0.2601068, -386480.4, -174039.45, 0.0, 9.998284, 9.99954 
2.7746254e+3, 2.8832474e+2, -473508.78, -362484.38, 54899.64, 0.1334322, 0.34084266, -339922.4, -225475.2, 0.0, 9.998027, 9.999463 
2.7745202e+3, 2.983245e+2, -400923.22, -291002.44, 47204.72, 0.22254603, 0.42794263, -273513.3, -257059.6, 0.0, 9.997912, 9.999339 
2.7744097e+3, 3.0832222e+2, -394110.5, -237865.38, 28827.367, -0.18933356, 0.3124181, -232716.39, -232716.39, 0.0, 9.997512, 9.999562 
2.7743047e+3, 3.183218e+2, -217253.11, 192096.11, -74022.1, 0.025685212, 0.3475323, 205070.22, 205070.22, 0.0, 9.997212, 10.002673 
2.786311e+3, 1.2845813e+2, -1334136.5, -1855463.4, 18811.568, -0.023847125, 0.39841503, -1333458.5, 347682.72, 0.00090382603, 10.0040245, 9.997096 
2.7862042e+3, 1.3845345e+2, -1176639.6, -1688914.1, 37480.285, -0.044318758, 0.2731357, -1173911.9, 409277.38, 0.00040655935, 10.004256, 9.997456 
2.7860975e+3, 1.484512e+2, -1078431.9, -1469433.8, 50952.39, -0.029575096, 0.29244694, -1071901.3, 413310.44, 0.000115627714, 10.00375, 9.998523 
2.7859914e+3, 1.5844966e+2, -1078687.6, -1422772.5, 67094.83, 0.04915956, 0.34593916, -1066067.3, 321158.84, 0.000015289292, 10.003091, 9.998489 
2.7858856e+3, 1.6844779e+2, -1016821.7, -1312620.5, 109795.05, 0.050540995, 0.3543734, -980522.3, 308721.88, 0.00000031509992, 10.002721, 9.998747 
2.78578e+3, 1.7844589e+2, -955807.6, -1222889.9, 90140.76, 0.020427128, 0.34566692, -928232.06, 263030.38, 0.0, 10.00242, 9.998839 
2.785675e+3, 1.884439e+2, -905000.94, -1090571.5, 95165.75, 0.03472564, 0.2913034, -864874.06, 228405.3, 0.0, 10.001864, 9.999336 
2.7855697e+3, 1.98442e+2, -906331.2, -1061436.5, 112902.65, 0.06441383, 0.2298989, -846911.5, 148383.61, 0.0, 10.001273, 9.999149 
2.7854645e+3, 2.0844068e+2, -842077.6, -985960.75, 126760.15, 0.069717176, 0.24721748, -768266.94, 129041.78, 0.0, 10.001069, 9.999091 
2.7853596e+3, 2.184396e+2, -757501.4, -894224.4, 112696.05, 0.06762368, 0.2879821, -694053.56, 105267.19, 0.0, 10.000969, 9.9991 
2.7852538e+3, 2.2843868e+2, -671395.1, -764878.7, 105170.21, 0.01919182, 0.32539505, -603047.5, 98283.33, 0.0, 10.0007305, 9.999428 
2.7851483e+3, 2.3843779e+2, -619265.1, -694288.75, 130067.94, -0.03030972, 0.35451612, -521407.8, 81932.36, 0.0, 10.000437, 9.999383 
2.7850443e+3, 2.4843624e+2, -569471.7, -594201.5, 152874.75, 0.011143269, 0.30824623, -428462.6, 76891.664, 0.0, 9.999998, 9.999607 
2.7849403e+3, 2.5843456e+2, -552201.4, -548869.4, 130312.71, 0.060868625, 0.24187696, -420212.0, -12843.018, 0.0, 9.999499, 9.999488 
2.7848336e+3, 2.684334e+2, -500697.13, -455173.9, 68967.664, -0.012891216, 0.22426122, -405308.88, -95928.97, 0.0, 9.999106, 9.999644 
2.784727e+3, 2.784325e+2, -472205.13, -403491.63, 71845.09, -0.06822457, 0.23100953, -358211.03, -146822.89, 0.0, 9.998684, 9.999532 
2.784623e+3, 2.8843263e+2, -418132.4, -314953.66, 72873.02, 0.10917021, 0.34336078, -277257.3, -163866.84, 0.0, 9.998325, 9.999642 
2.7845177e+3, 2.984329e+2, -376873.84, -250053.48, 74990.516, 0.21478839, 0.4691215, -215257.61, -199865.83, 0.0, 9.997957, 9.999596 
2.7844068e+3, 3.0843055e+2, -416934.2, -192881.81, 46172.285, -0.12494639, 0.29985306, -183739.75, -183739.75, 0.0, 9.997124, 10.000054 
2.784301e+3, 3.184303e+2, -310150.2, 111046.84, 12321.088, 0.022337267, 0.32103828, 111406.96, 111406.96, 0.0, 9.996739, 10.002341 
2.796313e+3, 1.2856394e+2, -1263948.4, -1714996.9, 33139.57, -0.20369066, 0.2983261, -1261526.5, 418576.4, 0.00039794363, 10.00405, 9.998046 
2.796209e+3, 1.3856034e+2, -1142629.5, -1597632.4, 37635.03, 0.045130786, 0.19064714, -1139537.6, 442600.94, 0.00016627838, 10.004168, 9.998126 
2.7961013e+3, 1.48559e+2, -1071500.0, -1453676.9, 26728.506, 0.034042384, 0.2725518, -1069639.8, 414512.63, 0.000040828676, 10.00374, 9.998637 
2.7959937e+3, 1.5855825e+2, -1070222.9, -1420208.6, 49966.09, 0.009917012, 0.3929581, -1063229.1, 322931.5, 0.0000036815343, 10.003154, 9.998478 
2.7958876e+3, 1.6855592e+2, -1036212.3, -1352458.0, 101401.7, 0.018236184, 0.37270188, -1006491.8, 281693.0, 0.000000010797318, 10.002717, 9.998477 
2.795782e+3, 1.7855328e+2, -972996.6, -1236052.0, 76694.31, 0.021976702, 0.3155332, -952269.44, 237941.92, 0.0, 10.002321, 9.998798 
2.7956763e+3, 1.8855186e+2, -882378.7, -1037438.0, 73288.38, 0.040556632, 0.29360935, -853221.75, 239000.36, 0.0, 10.001836, 9.999715 
2.7955702e+3, 1.985508e+2, -892044.5, -1035973.6, 97229.695, 0.06162457, 0.28088936, -843044.2, 151184.45, 0.0, 10.001288, 9.999318 
2.795465e+3, 2.0854898e+2, -856232.75, -1018095.2, 124519.87, 0.041539796, 0.25874814, -788654.5, 107592.62, 0.0, 10.001077, 9.998868 
2.7953595e+3, 2.185471e+2, -766971.2, -905411.75, 108684.36, 0.009468828, 0.23929453, -707336.0, 90931.25, 0.0, 10.00093, 9.999043 
2.795254e+3, 2.2854625e+2, -656912.3, -732932.25, 95827.3, -0.0045207515, 0.26950753, -591831.9, 108444.21, 0.0, 10.000719, 9.999655 
2.7951482e+3, 2.3854573e+2, -611953.4, -679026.94, 117413.34, -0.00971572, 0.3128717, -523381.16, 78900.25, 0.0, 10.000433, 9.999491 
2.7950436e+3, 2.4854504e+2, -576871.8, -609391.0, 134101.28, 0.035524536, 0.35557836, -458048.0, 46240.523, 0.0, 9.999995, 9.999505 
2.7949396e+3, 2.5854424e+2, -558414.1, -566276.25, 112439.37, 0.07676573, 0.3878241, -449837.13, -43540.69, 0.0, 9.999516, 9.999362 
2.794833e+3, 2.6854223e+2, -514412.53, -486557.25, 52920.12, 0.032931466, 0.30588996, -445762.7, -137447.05, 0.0, 9.999113, 9.999429 
2.794726e+3, 2.7854013e+2, -467586.4, -401527.6, 55904.105, 0.0010882542, 0.20869724, -369624.66, -159289.19, 0.0, 9.998713, 9.999534 
2.79462e+3, 2.885403e+2, -388000.75, -253221.95, 57707.176, 0.05296461, 0.3018316, -231890.16, -119555.42, 0.0, 9.998327, 10.000066 
2.794513e+3, 2.98541e+2, -354285.34, -195736.17, 54647.957, 0.031187003, 0.42413574, -178725.47, -164395.69, 0.0, 9.997922, 9.999987 
2.794406e+3, 3.085382e+2, -383417.25, -121138.85, 6071.602, 0.11161717, 0.16951752, -120998.375, -120998.375, 0.0, 9.997106, 10.000561 
2.7942964e+3, 3.1853995e+2, -353866.8, 22560.58, 216347.58, -0.070632674, 0.35052776, 121105.79, 121105.79, 0.0, 9.996751, 10.001718 
2.8063163e+3, 1.2867182e+2, -1186060.0, -1620673.6, 80507.3, -0.19485812, 0.29705417, -1171626.3, 507419.44, 0.00014871046, 10.00434, 9.998555 
2.8062123e+3, 1.3866892e+2, -1236566.6, -1599047.5, 64502.74, 0.090220876, 0.21302658, -1225430.6, 355643.06, 0.000055979992, 10.003333, 9.998518 
2.806104e+3, 1.4866765e+2, -1108536.3, -1455263.4, 62068.336, 0.047549758, 0.27901495, -1097760.3, 385326.2, 0.000010816192, 10.003417, 9.998782 
2.8059962e+3, 1.5866677e+2, -986109.9, -1373372.6, 73167.01, -0.017673556, 0.3761159, -972747.25, 412348.4, 0.0000004996016, 10.003704, 9.998535 
2.8058895e+3, 1.686644e+2, -1053548.1, -1370952.5, 113214.09, 0.0041756565, 0.35863742, -1017304.7, 269816.13, 0.000000000000026948692, 10.00265, 9.99838 
2.8057835e+3, 1.786618e+2, -1110223.0, -1296652.8, 112402.945, 0.03268943, 0.31138378, -1057412.4, 131735.61, 0.0, 10.00137, 9.998834 
2.8056774e+3, 1.8866064e+2, -923757.75, -1043108.9, 121301.73, 0.048561085, 0.3058353, -848247.2, 242909.56, 0.0, 10.001493, 9.99984 
2.8055716e+3, 1.9865984e+2, -793264.5, -973825.94, 123078.33, 0.067406684, 0.30904177, -730905.5, 262255.56, 0.0, 10.0019, 9.999452 
2.8054655e+3, 2.0865811e+2, -832253.56, -988020.6, 151196.03, 0.040734984, 0.28156993, -740060.44, 155117.61, 0.0, 10.001166, 9.99903 
2.8053594e+3, 2.1865621e+2, -863707.6, -940433.94, 166763.19, 0.002923206, 0.24878328, -730951.8, 66245.484, 0.0, 10.000223, 9.999141 
2.805254e+3, 2.2865508e+2, -705585.75, -760469.94, 161784.9, -0.003054926, 0.25256503, -568932.06, 130276.14, 0.0, 10.000409, 9.999612 
2.8051484e+3, 2.3865426e+2, -564994.3, -663549.8, 154983.67, 0.008500747, 0.27110785, -451642.94, 149573.17, 0.0, 10.000791, 9.999424 
2.8050432e+3, 2.4865362e+2, -573041.06, -621310.4, 144741.88, 0.041054454, 0.33176014, -450435.5, 52787.867, 0.0, 10.000086, 9.999377 
2.804938e+3, 2.5865304e+2, -617352.7, -595569.8, 130040.14, 0.06833457, 0.39460507, -475965.8, -70735.29, 0.0, 9.999123, 9.999347 
2.8048313e+3, 2.686512e+2, -509924.8, -469090.84, 107546.75, 0.039795805, 0.3213683, -380040.22, -72791.96, 0.0, 9.999081, 9.999563 
2.8047246e+3, 2.7864915e+2, -391557.5, -351934.2, 125354.055, 0.027526751, 0.22033912, -244835.86, -35568.523, 0.0, 9.999176, 9.999652 
2.8046176e+3, 2.886492e+2, -369115.03, -230650.61, 98202.586, 0.026251376, 0.289156, -179729.39, -68462.18, 0.0, 9.998401, 10.000184 
2.8045094e+3, 2.9864973e+2, -426986.94, -229871.84, 73940.445, -0.04918701, 0.38519463, -205219.1, -191956.06, 0.0, 9.997425, 9.9999895 
2.8044033e+3, 3.0864698e+2, -332744.7, -117976.21, -10175.834, 0.16626367, 0.15193786, -117495.15, -117495.15, 0.0, 9.997547, 10.000366 
2.8042918e+3, 3.1864932e+2, -337034.56, -16913.588, 180411.16, -0.13905756, 0.4097066, 64205.418, 64205.418, 0.0, 9.997077, 10.001285 
2.8163213e+3, 1.2878115e+2, -1189363.4, -1599967.0, 43515.195, -0.09083739, 0.35796127, -1184802.4, 493173.3, 0.000045692002, 10.004229, 9.998747 
2.8162155e+3, 1.3877869e+2, -1228619.9, -1576694.0, 46449.25, 0.09377969, 0.2984287, -1222528.0, 357470.84, 0.000014816526, 10.003309, 9.998682 
2.816107e+3, 1.4877692e+2, -1109166.5, -1442092.4, 77281.36, 0.026197996, 0.3001423, -1092102.0, 389913.3, 0.0000019360568, 10.00335, 9.998906 
2.815999e+3, 1.5877534e+2, -1000659.6, -1369964.0, 62671.15, -0.03714058, 0.31600884, -990314.1, 393716.03, 0.000000031512783, 10.003557, 9.998631 
2.8158915e+3, 1.687733e+2, -1053544.5, -1364889.9, 62274.188, -0.0024256366, 0.3243889, -1041550.7, 244501.42, 0.0, 10.002623, 9.998436 
2.8157845e+3, 1.7877126e+2, -1096601.6, -1287690.4, 90394.79, 0.03651991, 0.3280531, -1060616.8, 127457.69, 0.0, 10.001451, 9.998858 
2.8156784e+3, 1.8877009e+2, -924208.9, -1053099.4, 143016.7, 0.055350754, 0.32499716, -831788.06, 258296.67, 0.0, 10.00153, 9.999755 
2.815573e+3, 1.9876917e+2, -794728.75, -963236.75, 120970.46, 0.07254889, 0.32087165, -731563.0, 260528.7, 0.0, 10.00184, 9.999555 
2.8154662e+3, 2.08768e+2, -804076.06, -924646.8, 111934.875, 0.060411297, 0.31608456, -737224.7, 156877.13, 0.0, 10.0011425, 9.999478 
2.8153592e+3, 2.1876675e+2, -852139.1, -915142.75, 148687.03, 0.03357371, 0.3065121, -731653.44, 64459.523, 0.0, 10.000216, 9.999319 
2.815254e+3, 2.2876504e+2, -723924.44, -802310.3, 179861.73, 0.01749423, 0.26772532, -579035.0, 119093.71, 0.0, 10.0004225, 9.99932 
2.8151488e+3, 2.3876335e+2, -580818.94, -697731.44, 151951.72, 0.009904564, 0.22790828, -476467.16, 123677.516, 0.0, 10.000793, 9.999189 
2.8150427e+3, 2.4876204e+2, -584979.94, -645640.25, 105571.18, 0.024734015, 0.23823535, -505468.4, -3309.6472, 0.0, 10.00008, 9.999215 
2.8149363e+3, 2.5876093e+2, -610172.2, -582409.06, 108017.08, 0.029073063, 0.26115373, -487385.22, -83214.05, 0.0, 9.999127, 9.999436 
2.8148296e+3, 2.6876026e+2, -474407.0, -397046.38, 115459.62, 0.0016923387, 0.26984096, -313960.16, -7782.6855, 0.0, 9.999086, 10.000056 
2.814723e+3, 2.7875972e+2, -370695.0, -314850.0, 117303.95, -0.0005021716, 0.27375937, -222191.06, -14009.01, 0.0, 9.9992, 9.999896 
2.8146154e+3, 2.8875935e+2, -386098.9, -266970.88, 59354.176, 0.034339063, 0.3071006, -242446.9, -132259.95, 0.0, 9.998401, 9.999938 
2.8145066e+3, 2.98759e+2, -458782.97, -296247.66, 54679.363, -0.026986768, 0.34677693, -279565.0, -267373.06, 0.0, 9.997423, 9.999536 
2.814398e+3, 3.087573e+2, -400537.06, -266233.4, 6527.786, -0.026142629, 0.29837558, -265916.88, -265916.88, 0.0, 9.997578, 9.999335 
2.81429e+3, 3.1875718e+2, -332597.56, -8399.708, -29127.672, 0.0034958748, 0.40053084, -5803.5127, -5803.5127, 0.0, 9.997058, 10.001362 
2.826325e+3, 1.2889041e+2, -1332089.0, -1704762.3, 86349.56, -0.044824157, 0.3106501, -1313053.8, 363849.78, 0.000011731582, 10.003392, 9.998436 
2.8262174e+3, 1.3888852e+2, -1234319.5, -1595048.3, 64882.613, 0.04290546, 0.3374065, -1223004.4, 355918.5, 0.0000031331915, 10.003337, 9.998543 
2.8261092e+3, 1.4888643e+2, -1194145.0, -1475971.0, 96275.055, -0.008776001, 0.3075544, -1164396.5, 316545.47, 0.00000021379067, 10.002744, 9.998963 
2.8260013e+3, 1.5888435e+2, -1192454.8, -1436489.4, 76953.57, -0.028581062, 0.26480764, -1170215.0, 212745.5, 0.0, 10.002133, 9.9988575 
2.8258935e+3, 1.6888265e+2, -1077359.9, -1329031.6, 87924.695, 0.013961337, 0.27254742, -1049685.4, 235292.42, 0.0, 10.002255, 9.998859 
2.825786e+3, 1.7888115e+2, -936652.56, -1197452.1, 136185.42, 0.05393596, 0.2940352, -878503.75, 308490.3, 0.0, 10.002487, 9.998981 
2.8256795e+3, 1.8887995e+2, -897030.6, -1079746.8, 183607.78, 0.048888043, 0.31345874, -783307.94, 305698.44, 0.0, 10.001893, 9.999395 
2.8255734e+3, 1.9887891e+2, -902586.56, -1024487.3, 141286.97, 0.0407786, 0.32873344, -809663.75, 181353.08, 0.0, 10.00115, 9.99946 
2.8254667e+3, 2.0887783e+2, -816053.9, -899679.7, 112819.15, 0.044443615, 0.31634474, -737548.5, 155476.72, 0.0, 10.000935, 9.999746 
2.8253597e+3, 2.188767e+2, -755927.94, -862166.44, 149800.42, 0.048451547, 0.29634434, -650107.5, 144926.23, 0.0, 10.00085, 9.999376 
2.8252542e+3, 2.2887485e+2, -703786.5, -825199.56, 192801.47, 0.03068851, 0.25987375, -562360.2, 134691.42, 0.0, 10.000705, 9.999024 
2.825149e+3, 2.3887293e+2, -630829.44, -729392.5, 149845.6, 0.01641268, 0.2231871, -522369.5, 76701.1, 0.0, 10.000486, 9.999117 
2.825042e+3, 2.4887161e+2, -595131.6, -621587.1, 105127.04, 0.016318288, 0.21822022, -502403.4, -1319.493, 0.0, 9.9998865, 9.999472 
2.8249344e+3, 2.5887054e+2, -586754.94, -556308.8, 146717.56, 0.008449278, 0.2229417, -424026.66, -20931.637, 0.0, 9.999223, 9.999571 
2.824828e+3, 2.688701e+2, -491555.2, -410489.03, 145702.78, -0.012750223, 0.25343484, -299786.44, 5313.2856, 0.0, 9.998995, 10.000007 
2.8247213e+3, 2.788698e+2, -433977.34, -352314.75, 97531.88, 0.0044725123, 0.29005393, -287412.13, -80309.7, 0.0, 9.998806, 9.9998255 
2.8246135e+3, 2.8886914e+2, -378792.75, -284481.38, 21146.99, 0.040834535, 0.3077634, -279956.78, -170846.14, 0.0, 9.998545, 9.999746 
2.8245038e+3, 2.988684e+2, -342040.63, -253972.14, 39381.664, -0.03254789, 0.3252137, -238930.75, -227810.86, 0.0, 9.998283, 9.9994135 
2.824395e+3, 3.0886728e+2, -305817.2, -230459.95, 70048.61, -0.08042623, 0.34353673, -188599.36, -188599.36, 0.0, 9.998272, 9.999246 
2.8242877e+3, 3.1886622e+2, -214285.83, 33443.004, -41633.555, 0.07172226, 0.36267614, 40252.785, 40252.785, 0.0, 9.997945, 10.001218 
2.8363276e+3, 1.2899977e+2, -1389084.1, -1791914.8, 76885.23, -0.038842127, 0.20729345, -1374908.5, 300920.66, 0.0000029040725, 10.003265, 9.997895 
2.8362194e+3, 1.3899857e+2, -1272663.6, -1649144.8, 58149.156, -0.054005634, 0.35212237, -1263886.9, 313957.53, 0.0000006348958, 10.003227, 9.998225 
2.8361106e+3, 1.4899622e+2, -1192116.6, -1474115.5, 74398.28, -0.06240818, 0.30508882, -1173692.3, 306173.53, 0.000000014730344, 10.00275, 9.998974 
2.8360033e+3, 1.5899377e+2, -1161214.1, -1391185.6, 68082.125, -0.01051632, 0.21743958, -1142570.3, 239317.02, 0.0, 10.002216, 9.999129 
2.8358954e+3, 1.6899243e+2, -1028890.56, -1234696.8, 97440.73, 0.04572757, 0.20854618, -990076.56, 293822.25, 0.0, 10.00228, 9.9994955 
2.835788e+3, 1.7899139e+2, -935058.9, -1178688.8, 125745.81, 0.07835975, 0.22480124, -881799.8, 304108.38, 0.0, 10.00242, 9.999143 
2.8356805e+3, 1.8899024e+2, -941978.9, -1164423.1, 150224.23, 0.0269075, 0.27851066, -866284.75, 221637.86, 0.0, 10.001853, 9.998835 
2.8355733e+3, 1.9898905e+2, -926245.06, -1067341.6, 120964.47, -0.033174023, 0.32926613, -856759.56, 133177.84, 0.0, 10.001121, 9.999182 
2.8354663e+3, 2.0898764e+2, -804942.25, -881067.25, 108771.99, -0.0038540768, 0.2853921, -727765.44, 164182.86, 0.0, 10.000952, 9.999867 
2.83536e+3, 2.1898621e+2, -757088.75, -868227.8, 144861.61, 0.03773189, 0.22641447, -657504.0, 136454.61, 0.0, 10.000864, 9.999329 
2.8352544e+3, 2.2898456e+2, -726785.3, -872438.25, 185582.84, 0.03451898, 0.234513, -600251.1, 95725.0, 0.0, 10.0007, 9.998704 
2.835149e+3, 2.3898298e+2, -629984.2, -721673.8, 134117.63, 0.022560148, 0.256719, -534092.4, 63901.375, 0.0, 10.000459, 9.999185 
2.8350413e+3, 2.4898233e+2, -549881.1, -527888.56, 78590.23, 0.012793651, 0.27059457, -459529.06, 40469.953, 0.0, 9.999886, 10.000116 
2.834933e+3, 2.5898188e+2, -571802.0, -531659.4, 129202.19, -0.008959238, 0.28199604, -420978.78, -18976.793, 0.0, 9.999248, 9.999729 
2.8348264e+3, 2.6898062e+2, -534392.4, -502017.66, 138902.94, -0.00549718, 0.272118, -378362.03, -74346.78, 0.0, 9.9990015, 9.999378 
2.83472e+3, 2.7897927e+2, -461232.94, -411199.34, 86969.71, 0.035313115, 0.26008847, -345719.9, -139689.98, 0.0, 9.998814, 9.999419 
2.8346112e+3, 2.8897855e+2, -387997.25, -303718.34, 9336.1455, 0.040765647, 0.29193652, -302696.53, -194657.56, 0.0, 9.998545, 9.999617 
2.8345013e+3, 2.9897797e+2, -314464.1, -202988.86, 35471.703, -0.06668204, 0.331448, -192658.9, -182612.64, 0.0, 9.998307, 9.999754 
2.8343937e+3, 3.0897668e+2, -220598.1, -67750.67, 74143.086, 0.032994792, 0.24488142, -37695.367, -37695.367, 0.0, 9.998326, 10.000341 
2.8342834e+3, 3.1897783e+2, -268202.25, -77522.055, -73297.766, -0.07212172, 0.41182333, -52602.863, -52602.863, 0.0, 9.997959, 10.000439 
2.84633e+3, 1.291104e+2, -1441538.3, -1723983.5, 47400.61, -0.03207246, 0.28907764, -1433795.5, 240951.1, 0.00000088395376, 10.002501, 9.998732 
2.8462222e+3, 1.3910878e+2, -1377690.4, -1648795.0, 91854.49, 0.018195858, 0.31821707, -1349500.0, 227262.27, 0.00000015338662, 10.002287, 9.998681 
2.846113e+3, 1.4910638e+2, -1232775.1, -1510530.3, 117936.17, -0.022838648, 0.26499298, -1189455.3, 289328.84, 0.0000000003731763, 10.002546, 9.998823 
2.8460053e+3, 1.5910397e+2, -1078196.6, -1368704.0, 95476.8, -0.013211611, 0.19814713, -1049627.3, 331178.78, 0.0, 10.002862, 9.998973 
2.845897e+3, 1.691027e+2, -1024253.94, -1250771.9, 81407.26, 0.039886337, 0.2102514, -998032.6, 284785.47, 0.0, 10.002397, 9.999326 
2.8457895e+3, 1.7910168e+2, -1029847.25, -1223696.3, 66056.6, 0.0745106, 0.24014571, -1009477.94, 175350.02, 0.0, 10.001775, 9.99914 
2.8456813e+3, 1.891005e+2, -1011479.2, -1180885.1, 108219.98, 0.004692621, 0.2824281, -958755.25, 128086.336, 0.0, 10.001306, 9.998984 
2.8455734e+3, 1.990993e+2, -953781.94, -1087863.8, 129588.26, -0.06662423, 0.32162172, -874920.1, 113935.75, 0.0, 10.00096, 9.99912 
2.8454667e+3, 2.090976e+2, -778729.8, -909966.1, 116764.48, -0.012860725, 0.27441838, -710408.9, 180461.9, 0.0, 10.00131, 9.999496 
2.8453606e+3, 2.1909586e+2, -649513.94, -832383.3, 110755.04, 0.058886483, 0.21654458, -597327.6, 195557.72, 0.0, 10.001674, 9.999183 
2.8452545e+3, 2.2909448e+2, -701953.06, -841627.2, 149834.06, 0.04555707, 0.24524078, -606479.94, 88420.38, 0.0, 10.0007925, 9.998869 
2.8451484e+3, 2.3909329e+2, -723548.2, -748602.75, 135907.47, 0.022270644, 0.2905546, -599591.9, -2677.7495, 0.0, 9.999741, 9.999345 
2.8450406e+3, 2.490927e+2, -536638.6, -505569.63, 68967.53, 0.0124711655, 0.29506415, -450408.72, 48509.418, 0.0, 9.999911, 10.000256 
2.8449324e+3, 2.590922e+2, -435754.28, -464628.8, 81276.88, -0.00019198179, 0.29162744, -367642.38, 33278.195, 0.0, 10.000182, 9.999736 
2.844825e+3, 2.6909077e+2, -469406.53, -493551.6, 102839.88, 0.0021297524, 0.27251413, -377933.0, -74996.78, 0.0, 9.999549, 9.999171 
2.8447184e+3, 2.7908915e+2, -474677.63, -431440.28, 84553.47, 0.03947692, 0.25127438, -365785.5, -160831.34, 0.0, 9.9987755, 9.999302 
2.844609e+3, 2.8908837e+2, -377330.63, -295203.63, 28687.482, 0.031240277, 0.282246, -286175.38, -179212.11, 0.0, 9.998606, 9.999644 
2.8444988e+3, 2.9908788e+2, -279642.22, -159206.19, 59981.51, -0.079267815, 0.32462147, -134430.14, -125460.81, 0.0, 9.998442, 9.999986 
2.8443915e+3, 3.090871e+2, -258239.72, -28249.611, 60258.266, 0.044867247, 0.2445492, -13418.162, -13418.162, 0.0, 9.997831, 10.000848 
2.84428e+3, 3.190887e+2, -281294.6, -130737.68, -111143.48, -0.16522254, 0.42226562, -71778.59, -71778.59, 0.0, 9.9980755, 10.000016 
2.8563318e+3, 1.2922177e+2, -1314772.9, -1481661.6, 42501.824, -0.044503056, 0.46980357, -1304572.3, 369087.1, 0.0000002684298, 10.002593, 10.000347 
2.8562257e+3, 1.3921915e+2, -1316229.4, -1524815.5, 84862.82, 0.19780262, 0.2508018, -1286065.3, 289611.97, 0.000000029966262, 10.002302, 9.999524 
2.8561163e+3, 1.4921692e+2, -1256165.5, -1550988.8, 125914.48, 0.07762993, 0.20720758, -1209709.5, 267988.25, 0.0, 10.002509, 9.998564 
2.8560072e+3, 1.5921484e+2, -1124190.0, -1440997.3, 91777.44, -0.03703432, 0.2045645, -1099523.1, 280195.38, 0.0, 10.002762, 9.998526 
2.8558987e+3, 1.6921334e+2, -1079081.8, -1357193.0, 59478.297, -0.0005211853, 0.2564459, -1066895.4, 214840.53, 0.0, 10.002362, 9.998612 
2.8557903e+3, 1.7921197e+2, -1035624.0, -1240706.8, 50148.05, 0.03805179, 0.31199273, -1024018.25, 159733.31, 0.0, 10.001795, 9.999015 
2.8556818e+3, 1.8921088e+2, -956616.5, -1079402.3, 94236.15, -0.0186298, 0.31506443, -905539.2, 180222.7, 0.0, 10.001355, 9.99966 
2.8555736e+3, 1.9920975e+2, -943480.06, -1074781.1, 127607.92, -0.07458449, 0.30699557, -865625.25, 122146.766, 0.0, 10.000996, 9.999193 
2.8554678e+3, 2.0920771e+2, -835783.2, -1026080.8, 136726.63, 0.008139216, 0.28149846, -764356.3, 125436.16, 0.0, 10.001299, 9.998705 
2.8553623e+3, 2.1920563e+2, -676479.3, -869673.9, 106149.65, 0.10011617, 0.25737634, -629553.9, 162259.75, 0.0, 10.001592, 9.998967 
2.855255e+3, 2.2920464e+2, -663981.9, -758663.3, 107046.055, 0.05807317, 0.28708065, -594275.56, 99548.516, 0.0, 10.0007715, 9.999451 
2.855147e+3, 2.3920386e+2, -704728.2, -715027.56, 116731.17, -0.0035868508, 0.32244807, -593033.1, 2798.9922, 0.0, 9.999762, 9.999566 
2.8550398e+3, 2.4920273e+2, -559308.56, -555421.56, 84327.9, 0.012057328, 0.29064777, -473014.78, 24826.752, 0.0, 9.999922, 9.99991 
2.8549322e+3, 2.5920156e+2, -440634.94, -481042.0, 76223.73, 0.029747572, 0.2489942, -381982.66, 17868.438, 0.0, 10.000208, 9.999613 
2.8548244e+3, 2.6920044e+2, -453273.94, -462887.72, 70108.22, 0.007702548, 0.25495318, -387808.03, -85945.1, 0.0, 9.999558, 9.999379 
2.8547162e+3, 2.791994e+2, -459278.47, -401132.5, 64182.758, 0.0046645063, 0.26998347, -359745.1, -155870.47, 0.0, 9.998779, 9.999509 
2.8546068e+3, 2.8919858e+2, -364147.22, -268863.25, 26770.455, 0.0053332765, 0.27823302, -261857.11, -155973.56, 0.0, 9.998608, 9.9998255 
2.8544965e+3, 2.9919803e+2, -269802.13, -147878.45, 44575.043, -0.09269561, 0.29670286, -133320.22, -125430.47, 0.0, 9.99848, 10.000045 
2.8543875e+3, 3.0919862e+2, -285797.03, -72270.73, 28650.13, -0.074127264, 0.36895633, -68493.38, -68493.38, 0.0, 9.997776, 10.000573 
2.8542778e+3, 3.1919724e+2, -256628.48, -105279.69, 15201.452, -0.13455589, 0.2755565, -103767.96, -103767.96, 0.0, 9.998155, 10.00017 
2.8663346e+3, 1.2933138e+2, -1271844.8, -1520678.4, 81779.945, -0.016286882, 0.35607353, -1247374.0, 425206.03, 0.00000003603988, 10.0031395, 9.999819 
2.8662273e+3, 1.3932908e+2, -1337726.3, -1549894.1, 33713.742, 0.20389183, 0.21490791, -1332498.0, 242100.2, 0.00000000029145006, 10.002215, 9.999393 
2.8661177e+3, 1.4932755e+2, -1319372.1, -1543426.9, 100044.0, 0.077295765, 0.21885347, -1281203.3, 195409.8, 0.0, 10.001914, 9.998899 
2.866009e+3, 1.593261e+2, -1254017.3, -1484585.9, 94312.94, -0.038056917, 0.25061888, -1220353.9, 158274.25, 0.0, 10.00179, 9.998692 
2.8659e+3, 1.693244e+2, -1155715.0, -1404814.4, 91754.75, -0.00064430706, 0.28532502, -1125566.4, 155081.66, 0.0, 10.0018835, 9.998516 
2.8657916e+3, 1.7932272e+2, -1007711.94, -1234323.9, 111019.8, 0.04278919, 0.31872135, -962387.4, 220280.25, 0.0, 10.002014, 9.998955 
2.865683e+3, 1.893214e+2, -865774.4, -1037315.06, 124848.49, -0.0013249539, 0.30382878, -800072.94, 284606.4, 0.0, 10.001989, 9.99964 
2.865575e+3, 1.993201e+2, -819604.0, -1013851.7, 123168.58, -0.044111285, 0.28062078, -759872.7, 226817.4, 0.0, 10.001845, 9.999199 
2.865469e+3, 2.0931838e+2, -882123.9, -1048945.5, 163946.72, 0.031455275, 0.28774995, -781589.4, 107118.984, 0.0, 10.000989, 9.998694 
2.8653625e+3, 2.1931668e+2, -883284.2, -956857.9, 180166.4, 0.11520481, 0.30115512, -736187.4, 54539.746, 0.0, 10.000122, 9.999075 
2.8652546e+3, 2.2931558e+2, -706613.7, -750735.94, 171341.27, 0.042298578, 0.30267072, -555919.1, 136818.47, 0.0, 10.0003605, 9.9997015 
2.8651464e+3, 2.3931462e+2, -568129.9, -657114.75, 163468.45, -0.042988475, 0.30314183, -443207.1, 151539.44, 0.0, 10.00074, 9.99949 
2.8650394e+3, 2.493133e+2, -516589.2, -597452.6, 119551.75, -0.0058385897, 0.29460028, -430817.34, 65942.68, 0.0, 10.000489, 9.999347 
2.8649318e+3, 2.593119e+2, -477579.44, -516404.88, 83840.05, 0.042425558, 0.28293946, -410934.0, -12160.207, 0.0, 10.000028, 9.999457 
2.8648233e+3, 2.6931107e+2, -468265.34, -426015.78, 67394.414, 0.023922153, 0.2905122, -376512.9, -75730.85, 0.0, 9.999268, 9.999772 
2.864714e+3, 2.7931035e+2, -490572.7, -390879.2, 88348.49, 0.020324288, 0.30310056, -339285.56, -136496.61, 0.0, 9.998466, 9.999726 
2.8646046e+3, 2.8930935e+2, -341046.1, -260527.97, 67295.51, -0.03469406, 0.2920208, -222368.42, -117570.08, 0.0, 9.998786, 9.999795 
2.864494e+3, 2.9930854e+2, -159327.45, -114694.51, 53969.83, -0.17045318, 0.28895554, -78609.21, -71802.61, 0.0, 9.999327, 9.999868 
2.864386e+3, 3.0930895e+2, -91687.96, -24561.914, 6208.6074, 0.01408438, 0.37922272, -23992.5, -23992.5, 0.0, 9.999312, 10.000159 
2.864276e+3, 3.1930637e+2, -159940.17, -70268.414, 91717.39, -0.11357573, 0.19486518, -13014.45, -13014.45, 0.0, 9.998881, 10.000055 
2.8763375e+3, 1.294401e+2, -1431739.5, -1794227.6, 30233.756, 0.030819055, 0.086157635, -1429235.1, 242268.84, 0.0, 10.002892, 9.998057 
2.8762278e+3, 1.3943885e+2, -1397875.6, -1655376.5, 13788.428, 0.083491676, 0.20249695, -1397139.5, 176382.4, 0.0, 10.002133, 9.998708 
2.8761184e+3, 1.4943828e+2, -1274133.8, -1442360.3, 95834.42, 0.0038390206, 0.26946044, -1230735.1, 244793.67, 0.0, 10.00188, 9.999611 
2.87601e+3, 1.5943767e+2, -1223535.3, -1410637.1, 91758.02, -0.028355075, 0.3164628, -1186046.9, 191488.55, 0.0, 10.001743, 9.999223 
2.8759018e+3, 1.6943587e+2, -1138031.4, -1360994.3, 96300.34, 0.028025659, 0.30309516, -1102197.4, 177358.2, 0.0, 10.001851, 9.998834 
2.8757936e+3, 1.7943387e+2, -1016883.75, -1244383.5, 112295.85, 0.075181976, 0.28164816, -970791.9, 210785.39, 0.0, 10.001975, 9.998904 
2.875685e+3, 1.8943207e+2, -904686.2, -1116672.6, 122743.375, 0.04322741, 0.2589436, -848505.1, 235089.13, 0.0, 10.001983, 9.999099 
2.8755766e+3, 1.994304e+2, -824401.2, -1020091.1, 106001.24, 0.006663258, 0.24250609, -777989.8, 207619.63, 0.0, 10.001828, 9.999165 
2.8754693e+3, 2.0942958e+2, -836397.0, -957487.75, 125929.84, 0.05146289, 0.29374045, -757213.8, 130404.93, 0.0, 10.000999, 9.999319 
2.875362e+3, 2.1942884e+2, -857643.56, -905442.3, 165435.05, 0.09203774, 0.34619647, -714390.5, 75237.055, 0.0, 10.000129, 9.999426 
2.8752542e+3, 2.2942726e+2, -707668.06, -755393.56, 188211.61, -0.0005026725, 0.29214898, -541812.5, 149829.45, 0.0, 10.000372, 9.999664 
2.8751463e+3, 2.394256e+2, -594783.44, -711545.1, 166684.88, -0.098235704, 0.23445717, -476551.22, 117106.19, 0.0, 10.000735, 9.999119 
2.8750387e+3, 2.4942443e+2, -572813.5, -717177.9, 104257.805, -0.045623846, 0.3103464, -518188.94, -22515.506, 0.0, 10.000498, 9.998522 
2.874931e+3, 2.594234e+2, -487381.3, -542580.06, 60472.285, 0.017651271, 0.40000618, -448507.97, -50819.81, 0.0, 10.000051, 9.999267 
2.874822e+3, 2.6942268e+2, -428312.78, -340586.4, 33628.29, 0.047504466, 0.38202453, -329178.97, -29485.545, 0.0, 9.999256, 10.000363 
2.8747126e+3, 2.7942196e+2, -470822.8, -356197.0, 77150.125, 0.07687023, 0.3464397, -317401.06, -115704.05, 0.0, 9.998489, 9.999954 
2.8746024e+3, 2.8942078e+2, -357520.34, -301324.06, 91657.484, -0.098180406, 0.3256988, -233554.6, -129847.375, 0.0, 9.99881, 9.999505 
2.8744915e+3, 2.9941946e+2, -185287.55, -176108.78, 65516.027, -0.3182735, 0.30815578, -115021.59, -109302.48, 0.0, 9.999361, 9.999429 
2.8743884e+3, 3.094179e+2, -122492.484, -110467.3, 2589.9353, 0.3527666, 0.26042083, -109933.21, -109933.21, 0.0, 9.999413, 9.999519 
2.8742734e+3, 3.194173e+2, -196283.89, -137594.69, 62946.652, -0.19890393, 0.32820353, -97488.68, -97488.68, 0.0, 9.998865, 9.999591 
2.8863388e+3, 1.2955049e+2, -1679403.6, -1906829.1, -26712.89, 0.040421154, 0.09297188, -1676308.1, -5887.055, 0.0, 10.001156, 9.998125 
2.8862283e+3, 1.3954934e+2, -1481763.6, -1677119.1, 38702.715, 0.027433483, 0.21124773, -1474375.5, 98064.07, 0.0, 10.001475, 9.998877 
2.8861195e+3, 1.4954863e+2, -1336104.8, -1445280.0, 112199.47, 0.0073169437, 0.24174903, -1265918.5, 208528.86, 0.0, 10.001341, 9.99985 
2.8860116e+3, 1.5954794e+2, -1285336.9, -1406799.3, 90647.58, 0.044988025, 0.2557399, -1236956.8, 139496.92, 0.0, 10.001174, 9.999523 
2.885903e+3, 1.6954675e+2, -1184427.4, -1342667.9, 102254.63, 0.047761153, 0.271208, -1134257.1, 144210.1, 0.0, 10.001357, 9.999197 
2.885794e+3, 1.7954537e+2, -1067099.6, -1260479.1, 120554.586, 0.03019555, 0.2813573, -1009250.4, 171232.55, 0.0, 10.001596, 9.998974 
2.8856862e+3, 1.8954347e+2, -957358.0, -1176691.3, 138360.56, 0.023424944, 0.269768, -890473.1, 192029.34, 0.0, 10.001772, 9.998788 
2.885578e+3, 1.9954166e+2, -823907.75, -1026608.4, 117655.086, 0.029160498, 0.2632645, -769969.25, 214551.72, 0.0, 10.00186, 9.999107 
2.88547e+3, 2.0954096e+2, -765212.3, -895767.94, 101076.52, 0.055584177, 0.31349516, -710167.0, 176361.95, 0.0, 10.001371, 9.999564 
2.8853616e+3, 2.1954042e+2, -744412.5, -834045.25, 136454.67, 0.071471855, 0.3632699, -645603.06, 142932.45, 0.0, 10.0008335, 9.999577 
2.885254e+3, 2.295389e+2, -654500.6, -728284.56, 175433.92, -0.010582832, 0.3102729, -512121.63, 178427.58, 0.0, 10.0007305, 9.999678 
2.8851464e+3, 2.3953731e+2, -601049.8, -706266.3, 152718.89, -0.087494336, 0.25502545, -492131.94, 100432.34, 0.0, 10.000656, 9.999193 
2.885039e+3, 2.4953641e+2, -595248.5, -713204.7, 136922.73, -0.03588341, 0.3461143, -505141.9, -10563.629, 0.0, 10.000285, 9.99865 
2.8849307e+3, 2.5953564e+2, -507267.03, -546329.56, 153343.36, 0.02705939, 0.45335698, -372216.1, 24375.064, 0.0, 9.999902, 9.999307 
2.8848207e+3, 2.6953474e+2, -332924.66, -308024.25, 87797.25, 0.03685405, 0.42918086, -231798.84, 66798.76, 0.0, 9.99998, 10.000232 
2.884711e+3, 2.795337e+2, -279888.56, -281745.38, 84799.42, 0.05081087, 0.37758037, -196012.48, 4591.2666, 0.0, 9.99988, 9.999792 
2.8846008e+3, 2.8953212e+2, -275031.75, -303252.9, 112331.68, -0.10587369, 0.34302714, -175927.86, -73310.38, 0.0, 9.999563, 9.9991255 
2.8844902e+3, 2.9953036e+2, -201452.8, -223263.5, 74568.36, -0.29800874, 0.3184846, -136996.58, -132363.23, 0.0, 9.999427, 9.999073 
2.8843874e+3, 3.095282e+2, -193858.48, -199660.72, 16832.678, 0.3842723, 0.24979503, -179678.75, -179678.75, 0.0, 9.999171, 9.999034 
2.884271e+3, 3.1952813e+2, -95074.85, -67210.516, 93455.81, -0.26002303, 0.41525942, 13345.911, 13345.911, 0.0, 9.999458, 9.999811 
2.896339e+3, 1.2966189e+2, -1617853.1, -1746387.6, -12972.662, 0.021077652, 0.25802526, -1616556.9, 52777.285, 0.0, 10.001022, 9.999287 
2.896229e+3, 1.3966037e+2, -1443987.0, -1589504.8, 42352.94, 0.008804156, 0.23358843, -1432557.9, 138794.83, 0.0, 10.001438, 9.999495 
2.8961205e+3, 1.496588e+2, -1337900.6, -1455771.8, 101399.26, 0.060288876, 0.16829133, -1279553.6, 193813.11, 0.0, 10.001369, 9.9997635 
2.8960136e+3, 1.5965742e+2, -1268083.3, -1383085.9, 87661.46, 0.15706162, 0.11575353, -1220747.0, 154631.56, 0.0, 10.001226, 9.999661 
2.895904e+3, 1.6965729e+2, -1152622.4, -1282996.9, 107057.555, 0.05326831, 0.20358483, -1092467.4, 184914.36, 0.0, 10.001384, 9.999594 
2.8957942e+3, 1.7965715e+2, -1062474.1, -1244273.1, 122600.01, -0.08300018, 0.30424154, -1000751.6, 178634.11, 0.0, 10.001567, 9.9991 
2.8956866e+3, 1.8965548e+2, -977017.7, -1203124.6, 142514.89, -0.047014926, 0.3238371, -908160.25, 173245.03, 0.0, 10.001706, 9.998639 
2.8955793e+3, 1.9965367e+2, -847605.56, -1049912.6, 111010.14, 0.020435126, 0.33099157, -798574.94, 184851.19, 0.0, 10.001748, 9.999001 
2.8954706e+3, 2.0965254e+2, -775138.7, -907760.75, 79946.984, 0.044468068, 0.34317887, -737581.2, 147857.73, 0.0, 10.001333, 9.9995 
2.8953615e+3, 2.1965155e+2, -747740.5, -839447.7, 125979.84, 0.047354978, 0.3557757, -659528.9, 127920.77, 0.0, 10.000826, 9.999543 
2.8952545e+3, 2.2965063e+2, -651758.56, -723594.4, 175514.33, 0.004539688, 0.3592858, -508524.66, 180933.86, 0.0, 10.000732, 9.999709 
2.895147e+3, 2.3964976e+2, -566028.1, -632914.94, 143084.14, -0.032785885, 0.36328164, -452530.97, 138935.9, 0.0, 10.000652, 9.9997 
2.895039e+3, 2.496492e+2, -520550.3, -557203.6, 120450.44, 0.020429853, 0.39739585, -417040.28, 76434.44, 0.0, 10.000281, 9.999723 
2.8949302e+3, 2.5964862e+2, -488194.78, -513107.2, 149933.02, 0.062076863, 0.43653783, -350201.44, 45281.31, 0.0, 9.9999275, 9.999522 
2.8948197e+3, 2.696473e+2, -394665.22, -443465.78, 91423.234, -0.0172046, 0.43088263, -324442.13, -26947.797, 0.0, 10.000007, 9.999289 
2.894709e+3, 2.7964565e+2, -310134.72, -361694.47, 70655.73, -0.07476901, 0.3983107, -260702.67, -61193.777, 0.0, 9.9999485, 9.999211 
2.8946003e+3, 2.8964335e+2, -307763.13, -370539.0, 107549.16, -0.04628532, 0.33670998, -227115.23, -125585.0, 0.0, 9.999571, 9.9986515 
2.894491e+3, 2.996411e+2, -213501.02, -246395.05, 66021.34, -0.10954552, 0.30396295, -161908.9, -158358.13, 0.0, 9.999426, 9.99891 
2.8943822e+3, 3.0963954e+2, -217063.17, -232977.39, 4501.0313, 0.012328582, 0.30634993, -215878.34, -215878.34, 0.0, 9.999117, 9.998829 
2.8942716e+3, 3.1963742e+2, -19734.61, 75961.6, 216782.1, -0.12177041, 0.28016242, 250113.31, 250113.31, 0.0, 9.999507, 10.000779 
2.90634e+3, 1.2977225e+2, -1715332.6, -1721459.9, 33837.23, 0.11659046, 0.29198167, -1684420.6, -16165.101, 0.0, 10.000038, 9.999936 
2.9062295e+3, 1.397708e+2, -1478360.0, -1570552.1, 49275.215, -0.004403234, 0.219827, -1456980.9, 113290.14, 0.0, 10.001045, 9.999816 
2.9061213e+3, 1.497697e+2, -1337925.5, -1465537.8, 87217.27, 0.033361014, 0.19670609, -1293666.5, 178614.53, 0.0, 10.001409, 9.999678 
2.906014e+3, 1.5976864e+2, -1221408.4, -1370891.3, 68120.72, 0.13625331, 0.1861728, -1195022.6, 179267.83, 0.0, 10.001588, 9.999571 
2.9059047e+3, 1.6976812e+2, -1145052.5, -1286480.1, 62106.125, 0.037903126, 0.24180897, -1121651.4, 154646.16, 0.0, 10.001465, 9.999531 
2.905795e+3, 1.7976768e+2, -1089596.8, -1223973.6, 54712.91, -0.09067766, 0.30695233, -1070137.6, 108166.805, 0.0, 10.001235, 9.999401 
2.905687e+3, 1.8976663e+2, -1079843.6, -1177564.0, 108142.4, -0.051274274, 0.3291477, -1010035.8, 70281.24, 0.0, 10.000674, 9.999312 
2.9055795e+3, 1.9976547e+2, -1048872.6, -1108994.4, 128955.695, 0.02084609, 0.3425217, -946520.44, 35810.188, 0.0, 10.000198, 9.999343 
2.905471e+3, 2.0976433e+2, -876377.06, -958935.0, 113131.58, 0.040840823, 0.34847414, -797228.9, 87114.836, 0.0, 10.000647, 9.999481 
2.905362e+3, 2.1976326e+2, -704499.7, -823237.56, 157083.52, 0.043788563, 0.35641512, -595940.4, 190415.44, 0.0, 10.0011425, 9.999502 
2.9052547e+3, 2.2976245e+2, -645228.1, -725399.8, 194440.52, 0.012344257, 0.37712538, -486784.38, 201580.06, 0.0, 10.0008, 9.999664 
2.905147e+3, 2.397618e+2, -597326.3, -620025.5, 152787.34, -0.005405306, 0.39989412, -455467.56, 134903.92, 0.0, 10.00032, 9.999947 
2.905039e+3, 2.4976158e+2, -502746.25, -474825.88, 99392.93, 0.04060565, 0.4175372, -388417.53, 103956.59, 0.0, 10.000088, 10.000381 
2.9049298e+3, 2.597614e+2, -474961.94, -467260.38, 116376.375, 0.067104355, 0.43301135, -354671.1, 39705.594, 0.0, 9.999849, 9.999874 
2.904819e+3, 2.6976e+2, -410855.25, -445721.6, 118664.08, -0.031828012, 0.41026676, -308350.63, -11961.713, 0.0, 9.999872, 9.999335 
2.9047084e+3, 2.797583e+2, -302120.22, -340544.78, 157013.53, -0.08341126, 0.3689827, -163147.92, 35256.52, 0.0, 9.999946, 9.999351 
2.904599e+3, 2.897566e+2, -414561.5, -350423.44, 203124.97, -0.015558987, 0.33229473, -176851.6, -76431.18, 0.0, 9.99854, 9.999283 
2.916341e+3, 1.2988205e+2, -1677531.9, -1665760.3, 65211.87, 0.26807362, 0.25674918, -1606169.1, 61011.72, 0.0, 10.000144, 10.000263 
2.9162297e+3, 1.3988093e+2, -1479087.1, -1557094.1, 67758.69, -0.022981644, 0.18671753, -1439908.1, 129284.25, 0.0, 10.000984, 9.999937 
2.9161212e+3, 1.4988106e+2, -1354373.8, -1483488.4, 89312.39, -0.052177843, 0.29055658, -1308729.6, 162462.55, 0.0, 10.001338, 9.99959 
2.916014e+3, 1.5988103e+2, -1251719.4, -1414560.1, 65876.54, 0.017707627, 0.39581963, -1228406.8, 144787.16, 0.0, 10.001504, 9.999311 
2.915905e+3, 1.6987917e+2, -1184600.5, -1348915.0, 58475.297, 0.009403552, 0.35258, -1165915.4, 109299.016, 0.0, 10.001379, 9.999145 
2.915796e+3, 1.7987734e+2, -1073522.3, -1167536.6, 45724.38, -0.02635812, 0.29717982, -1054952.1, 122282.28, 0.0, 10.001136, 9.999836 
2.9156876e+3, 1.8987712e+2, -992210.8, -990716.5, 86124.875, -0.010244996, 0.29610923, -905335.5, 173899.8, 0.0, 10.000651, 10.000607 
2.9155794e+3, 1.9987708e+2, -1001046.75, -1012730.7, 124650.016, 0.019203063, 0.3076247, -882101.9, 99132.74, 0.0, 10.000211, 9.999998 
2.915471e+3, 2.0987634e+2, -874744.3, -957253.7, 133892.4, 0.03869072, 0.33626112, -775895.0, 107348.94, 0.0, 10.000653, 9.99949 
2.9153624e+3, 2.1987547e+2, -714082.94, -835578.2, 159726.73, 0.044018384, 0.3629332, -603942.0, 181313.08, 0.0, 10.001109, 9.999435 
2.9152548e+3, 2.2987433e+2, -654639.5, -741683.6, 174735.63, 0.0117793465, 0.36272496, -518087.38, 169180.36, 0.0, 10.000784, 9.999561 
2.915147e+3, 2.3987338e+2, -598602.6, -621215.6, 138489.44, -0.012207082, 0.3665709, -470958.9, 118319.31, 0.0, 10.000314, 9.999941 
2.9150382e+3, 2.4987361e+2, -488223.72, -442767.44, 91775.65, 0.017829672, 0.41176605, -370947.5, 120328.53, 0.0, 10.000081, 10.000603 
2.9149285e+3, 2.5987387e+2, -434896.9, -393439.06, 109434.4, 0.026583198, 0.4458894, -302787.66, 90485.336, 0.0, 9.999884, 10.000367 
2.9148185e+3, 2.6987278e+2, -333875.03, -292730.44, 120104.46, -0.0072818636, 0.3633176, -191449.14, 103832.664, 0.0, 9.999893, 10.000381 
2.914709e+3, 2.7987167e+2, -242465.98, -219456.33, 154399.34, 0.006441082, 0.28604308, -76133.77, 121156.516, 0.0, 9.999967, 10.000172 
2.9145968e+3, 2.8987202e+2, -295423.16, -105649.14, 104978.516, -0.026173156, 0.33508095, -59029.855, 40256.055, 0.0, 9.998561, 10.000956 
2.9263407e+3, 1.2999155e+2, -1601412.6, -1651282.6, 25979.006, 0.24386318, 0.2730283, -1590338.5, 75771.15, 0.0, 10.000756, 10.000069 
2.9262298e+3, 1.3999102e+2, -1559466.9, -1591771.3, 6490.2344, 0.00035746416, 0.27754363, -1558211.8, 9904.126, 0.0, 10.00041, 9.999978 
2.9261217e+3, 1.4999083e+2, -1445455.6, -1491898.3, 42364.453, -0.039761253, 0.32264516, -1420365.8, 49752.844, 0.0, 10.000556, 9.999911 
2.926014e+3, 1.5999058e+2, -1342224.9, -1409430.9, 35671.426, 0.012416753, 0.36993784, -1326821.6, 45300.355, 0.0, 10.000669, 9.999752 
2.9259053e+3, 1.6998951e+2, -1293341.1, -1339866.4, 69596.016, 0.007059905, 0.35293782, -1243222.9, 30911.29, 0.0, 10.000363, 9.999699 
2.9257962e+3, 1.7998841e+2, -1206246.9, -1196956.5, 101208.734, -0.01722688, 0.3236356, -1100286.4, 75859.77, 0.0, 10.000067, 10.000152 
2.9256874e+3, 1.8998808e+2, -1034182.25, -1002202.9, 87400.64, -0.0018291632, 0.29893225, -929341.3, 148806.98, 0.0, 10.000322, 10.000688 
2.9255792e+3, 1.9998796e+2, -923051.06, -951146.8, 69399.55, 0.02326973, 0.2875939, -866291.9, 113856.65, 0.0, 10.000641, 10.000215 
2.925471e+3, 2.0998773e+2, -851144.2, -909003.6, 92555.28, 0.03158758, 0.33636388, -783102.75, 99049.57, 0.0, 10.000651, 9.999824 
2.925363e+3, 2.1998736e+2, -780913.1, -850750.1, 128551.71, 0.034324355, 0.3850991, -682621.8, 101536.11, 0.0, 10.000572, 9.999592 
2.925255e+3, 2.2998613e+2, -729406.4, -773943.9, 138030.66, 0.017620198, 0.3675334, -611859.7, 74312.17, 0.0, 10.00025, 9.999599 
2.9251468e+3, 2.3998499e+2, -656937.94, -646856.0, 113418.53, 0.0071224845, 0.34836966, -538366.44, 49817.848, 0.0, 9.999896, 9.99997 
2.9250374e+3, 2.4998504e+2, -533835.6, -452755.47, 65139.895, 0.020561114, 0.3697932, -416570.7, 73612.66, 0.0, 9.999709, 10.000717 
2.9249275e+3, 2.5998536e+2, -471333.78, -378731.47, 77364.19, 0.018464068, 0.39073604, -334871.56, 57307.973, 0.0, 9.999484, 10.000667 
2.9248175e+3, 2.699852e+2, -366601.88, -232375.52, 67616.5, 0.005698649, 0.35026, -204219.77, 89959.5, 0.0, 9.999332, 10.00107 
2.924708e+3, 2.799851e+2, -311127.25, -192294.31, 80519.71, 0.051252298, 0.3032713, -151642.1, 44536.18, 0.0, 9.999214, 10.000737 
2.9245958e+3, 2.8998542e+2, -64007.81, 50245.063, -65819.555, -0.0058318363, 0.29793918, 80271.62, 178445.03, 0.0, 9.999931, 10.00139 
2.9363397e+3, 1.3010077e+2, -1627181.8, -1717983.6, 9867.204, 0.10731004, 0.3182317, -1626121.9, 38919.188, 0.0, 10.000823, 9.999574 
2.9362306e+3, 1.4010106e+2, -1571554.6, -1598461.8, 12861.505, 0.047952592, 0.44171274, -1566395.9, 645.29346, 0.0, 10.000334, 9.999967 
2.9361224e+3, 1.5009953e+2, -1417308.0, -1413669.9, 56577.918, 0.03454579, 0.3103241, -1358881.8, 110173.26, 0.0, 10.00047, 10.000489 
2.9360148e+3, 1.6009824e+2, -1293862.5, -1286307.3, 34490.863, 0.07654089, 0.18663204, -1255387.8, 115678.73, 0.0, 10.000571, 10.000645 
2.9359052e+3, 1.7009938e+2, -1215952.0, -1168205.4, 54789.05, 0.017140385, 0.27806407, -1132314.4, 140741.16, 0.0, 10.000315, 10.0009 
2.9357955e+3, 1.8010052e+2, -1198202.9, -1175024.9, 96050.34, -0.0532595, 0.37646672, -1089866.9, 85178.16, 0.0, 10.000044, 10.000314 
2.935687e+3, 1.9009936e+2, -1095226.1, -1125997.9, 99993.01, -0.020948846, 0.32929763, -1009442.2, 67615.59, 0.0, 10.000309, 9.999845 
2.9355794e+3, 2.0009816e+2, -935703.6, -968655.94, 78650.17, 0.020612402, 0.2761663, -871822.3, 107248.625, 0.0, 10.000604, 10.000112 
2.935471e+3, 2.1009856e+2, -810928.44, -820154.3, 91496.19, 0.018930767, 0.3439937, -723929.0, 157138.67, 0.0, 10.0006275, 10.000445 
2.9353625e+3, 2.2009902e+2, -761445.0, -802428.94, 120909.5, 0.011717181, 0.41916704, -659303.25, 123760.68, 0.0, 10.000537, 9.99994 
2.9352543e+3, 2.3009789e+2, -723402.44, -755214.25, 123168.055, 0.023788929, 0.39375776, -615117.5, 69958.805, 0.0, 10.000223, 9.999741 
2.935146e+3, 2.4009658e+2, -653974.9, -640932.94, 102331.04, 0.040074334, 0.34719646, -544915.3, 42174.637, 0.0, 9.999894, 10.000014 
2.9350367e+3, 2.5009584e+2, -530226.6, -450971.4, 58550.996, 0.046757244, 0.28973162, -419898.47, 69197.984, 0.0, 9.999728, 10.000724 
2.9349265e+3, 2.6009578e+2, -455647.38, -354183.44, 69577.2, 0.028169582, 0.2673845, -318806.66, 72289.94, 0.0, 9.999518, 10.000817 
2.9348165e+3, 2.700974e+2, -344252.2, -188049.66, 61033.9, -0.0037829417, 0.380206, -167030.06, 126050.61, 0.0, 9.999344, 10.001365 
2.9347065e+3, 2.8009856e+2, -276831.8, -151930.02, 78452.0, 0.021455446, 0.43248776, -114107.14, 80962.07, 0.0, 9.999331, 10.000966 
2.9345953e+3, 2.90097e+2, -80690.914, -4915.4624, -20081.943, 0.018127218, 0.2538003, 77.625854, 97158.56, 0.0, 10.000016, 10.000971 
2.9463392e+3, 1.3020934e+2, -1520800.6, -1631149.6, -34244.8, 0.01376909, 0.27681103, -1511037.3, 152940.38, 0.0, 10.001385, 9.999908 
2.9462308e+3, 1.4021e+2, -1635943.0, -1589059.3, 40199.57, 0.12730001, 0.4051558, -1565965.9, 7.040722, 0.0, 9.999713, 10.000333 
2.9461223e+3, 1.5020908e+2, -1521224.8, -1430355.8, 102535.24, 0.09203468, 0.30255485, -1363639.6, 104342.19, 0.0, 9.999609, 10.0007925 
2.9460147e+3, 1.6020817e+2, -1402505.3, -1304839.3, 52235.473, 0.09710118, 0.18890911, -1282165.6, 87824.67, 0.0, 9.999676, 10.000951 
2.9459047e+3, 1.7020953e+2, -1269775.9, -1150701.0, 25820.85, 0.03256744, 0.26666266, -1145343.0, 126633.51, 0.0, 9.999753, 10.001294 
2.9457948e+3, 1.8021098e+2, -1215961.4, -1153618.8, 40429.42, -0.04508604, 0.3585252, -1133739.3, 40223.14, 0.0, 9.99979, 10.000586 
2.945687e+3, 1.9021024e+2, -1138449.5, -1135944.4, 98231.14, -0.017449096, 0.3350816, -1038957.8, 37013.574, 0.0, 9.999958, 9.99995 
2.945579e+3, 2.0020933e+2, -997623.06, -999703.0, 118852.25, 0.02759208, 0.30446061, -879806.25, 98175.74, 0.0, 10.000172, 10.000113 
2.9454708e+3, 2.1020934e+2, -893473.2, -873027.94, 86517.195, 0.016885366, 0.3416393, -796131.5, 83851.34, 0.0, 10.000109, 10.000337 
2.945362e+3, 2.2020945e+2, -826183.4, -823176.1, 74734.61, -0.00051232835, 0.38838676, -749930.0, 32052.629, 0.0, 10.000038, 10.000043 
2.9452538e+3, 2.3020887e+2, -734362.8, -719134.9, 80625.48, 0.024066336, 0.38844216, -645764.6, 38224.242, 0.0, 9.999958, 10.00012 
2.9451457e+3, 2.4020815e+2, -653594.6, -619641.5, 80888.195, 0.060942322, 0.36420897, -553967.56, 32029.002, 0.0, 9.999798, 10.000209 
2.945036e+3, 2.5020742e+2, -509538.34, -437954.63, 47805.496, 0.062952414, 0.298662, -414026.94, 73976.14, 0.0, 9.999849, 10.000759 
2.9449257e+3, 2.6020738e+2, -401383.84, -322902.7, 51910.313, 0.03781593, 0.27631083, -297070.22, 92932.64, 0.0, 9.999866, 10.00087 
2.9448152e+3, 2.7020934e+2, -317610.44, -184847.17, 20667.86, 0.005647668, 0.42057252, -181704.13, 110280.53, 0.0, 9.999553, 10.001297 
2.9447052e+3, 2.8021026e+2, -272662.9, -154842.38, 34164.12, 0.024028134, 0.4621291, -145652.67, 48323.105, 0.0, 9.999375, 10.00092 
2.944595e+3, 2.9020852e+2, -1612.3905, 49630.95, -20744.232, 0.021578418, 0.26614448, 56975.824, 152963.61, 0.0, 10.000468, 10.0011215 
2.956339e+3, 1.303175e+2, -1489541.5, -1517780.3, -93796.19, -0.05784187, 0.18621194, -1408808.0, 254109.36, 0.0, 10.0011835, 10.000781 
2.9562306e+3, 1.4031832e+2, -1586629.0, -1502360.8, 20538.64, 0.21591155, 0.24679492, -1497621.4, 67287.08, 0.0, 9.999784, 10.000892 
2.956122e+3, 1.503192e+2, -1504028.5, -1409836.0, 111136.875, 0.13192877, 0.30340442, -1336228.1, 130673.805, 0.0, 9.999674, 10.000903 
2.9560137e+3, 1.6031957e+2, -1409944.6, -1321100.1, 55542.945, 0.08383719, 0.316313, -1294400.3, 74500.37, 0.0, 9.999679, 10.000838 
2.955904e+3, 1.7031978e+2, -1280121.9, -1173053.4, 31186.844, 0.048713937, 0.29377678, -1164631.8, 106266.58, 0.0, 9.999757, 10.001139 
2.9557943e+3, 1.803202e+2, -1192801.4, -1101405.4, 42630.43, -0.015347034, 0.28598744, -1084608.0, 88285.66, 0.0, 9.999773, 10.000952 
2.9556862e+3, 1.903208e+2, -1084378.9, -1016976.44, 104070.414, -0.00007362016, 0.32404512, -941286.5, 133601.44, 0.0, 9.999928, 10.00078 
2.955579e+3, 2.003213e+2, -1002996.8, -998669.8, 118427.836, 0.03971487, 0.3695948, -882385.75, 94497.766, 0.0, 10.000118, 10.000146 
2.95547e+3, 2.1032004e+2, -945683.25, -980292.1, 79353.09, 0.019022636, 0.33521396, -881769.75, -2871.571, 0.0, 10.000102, 9.999605 
2.9553613e+3, 2.2031876e+2, -831697.9, -833657.8, 74064.875, -0.017922673, 0.3022847, -758606.5, 22306.344, 0.0, 10.000033, 9.999973 
2.955253e+3, 2.3031917e+2, -692091.44, -629474.94, 76062.32, 0.017133625, 0.35360137, -578529.44, 104379.73, 0.0, 9.999949, 10.00074 
2.955145e+3, 2.403197e+2, -626654.3, -564747.25, 76281.336, 0.0655316, 0.39880684, -513378.47, 71525.53, 0.0, 9.9998, 10.0005865 
2.9550353e+3, 2.5031978e+2, -502584.8, -424712.47, 50794.77, 0.06363676, 0.39951798, -399647.6, 87255.21, 0.0, 9.999852, 10.00085 
2.954925e+3, 2.6032028e+2, -401743.47, -329272.9, 45656.098, 0.038104318, 0.42440498, -307220.3, 81677.42, 0.0, 9.999888, 10.000816 
2.9548144e+3, 2.7032098e+2, -340916.47, -239555.5, 13741.425, 0.030280448, 0.46750456, -237725.63, 53165.473, 0.0, 9.999581, 10.000908 
2.9547042e+3, 2.8032026e+2, -280245.9, -189691.52, 45887.04, 0.03526122, 0.38402534, -170504.42, 22393.03, 0.0, 9.999449, 10.000649 
2.9545942e+3, 2.9031914e+2, 53811.805, 144522.11, 40354.62, -0.05121139, 0.24826364, 159875.98, 254778.81, 0.0, 10.000551, 10.001737 
2.96634e+3, 1.3042895e+2, -1604399.9, -1586551.9, -3510.7786, -0.003747371, 0.20916632, -1585886.1, 75938.195, 0.0, 10.000457, 10.000656 
2.9662302e+3, 1.404291e+2, -1508982.9, -1502157.5, 65824.52, 0.22713888, 0.22675602, -1439657.3, 124164.23, 0.0, 10.000473, 10.000566 
2.9661205e+3, 1.5043007e+2, -1455060.9, -1419970.4, 130412.65, 0.07594323, 0.32504788, -1305928.0, 159886.83, 0.0, 10.000153, 10.000606 
2.9660115e+3, 1.60431e+2, -1415139.8, -1349664.8, 65925.75, -0.03004367, 0.417975, -1308795.5, 59013.35, 0.0, 9.999748, 10.000613 
2.9659027e+3, 1.7043065e+2, -1314344.4, -1234773.6, 36652.164, -0.0051522036, 0.37435517, -1220464.1, 49348.695, 0.0, 9.999708, 10.000745 
2.9657936e+3, 1.8043032e+2, -1217545.3, -1130464.5, 23905.434, 0.011435242, 0.32641655, -1124333.6, 47482.473, 0.0, 9.999663, 10.000813 
2.9656854e+3, 1.9043097e+2, -1116119.3, -1005404.0, 49958.695, -0.005420099, 0.35411292, -986193.94, 87615.13, 0.0, 9.999585, 10.001031 
2.9655775e+3, 2.0043142e+2, -1069291.8, -1026159.75, 40310.047, -0.015318004, 0.3809612, -1002009.3, -26205.137, 0.0, 9.999638, 10.000192 
2.9654694e+3, 2.1043038e+2, -932420.3, -957369.8, 45833.563, -0.004267806, 0.3558486, -897394.2, -19577.889, 0.0, 10.000116, 9.999759 
2.9653615e+3, 2.2042945e+2, -751296.9, -780325.3, 82840.05, 0.01287803, 0.3378207, -681709.1, 98118.484, 0.0, 10.000519, 10.000108 
2.965253e+3, 2.3042968e+2, -684379.3, -633047.94, 38502.23, 0.04439208, 0.3694069, -612441.06, 69385.15, 0.0, 10.000025, 10.000685 
2.965144e+3, 2.404301e+2, -665906.06, -563480.3, 10388.126, 0.06909948, 0.39933512, -562437.4, 21384.865, 0.0, 9.999431, 10.000781 
2.9650342e+3, 2.5043055e+2, -522381.22, -417169.16, 1253.7878, 0.036409922, 0.4142735, -417154.22, 68662.67, 0.0, 9.999627, 10.0010195 
2.9649237e+3, 2.6043114e+2, -393132.34, -328735.0, -6046.604, 0.0026621092, 0.43963513, -328172.2, 59637.7, 0.0, 9.99995, 10.000797 
2.9648137e+3, 2.7043104e+2, -299825.13, -249255.58, -34391.05, 0.03383104, 0.41544798, -231854.72, 57955.797, 0.0, 9.9999895, 10.000648 
2.9647037e+3, 2.8042966e+2, -232750.52, -203216.02, 22281.373, 0.065991536, 0.29354444, -191252.55, 570.39325, 0.0, 9.99994, 10.000328 
2.964594e+3, 2.9042956e+2, -50854.734, 63086.71, -3801.5437, -0.034993984, 0.30112156, 63213.406, 157035.22, 0.0, 10.000006, 10.001439 
2.976341e+3, 1.3054231e+2, -1696479.6, -1726602.0, -35299.547, 0.106852435, 0.2929362, -1673162.5, -12449.318, 0.0, 10.000239, 9.999799 
2.9762298e+3, 1.4054124e+2, -1540818.0, -1617988.6, 41317.234, 0.18647453, 0.28642657, -1522870.6, 39851.48, 0.0, 10.000691, 9.999664 
2.9761192e+3, 1.5054128e+2, -1452773.3, -1480708.5, 95194.94, -0.041861407, 0.35393655, -1370526.6, 94197.58, 0.0, 10.000438, 10.000051 
2.9760087e+3, 1.6054241e+2, -1404934.6, -1378343.8, 40592.52, -0.21862672, 0.5056288, -1348924.8, 17791.238, 0.0, 9.999967, 10.00031 
2.9759008e+3, 1.7054194e+2, -1335887.3, -1308715.8, 29400.324, -0.10859349, 0.49760768, -1289914.0, -21191.66, 0.0, 9.999836, 10.000174 
2.975793e+3, 1.8054105e+2, -1244258.3, -1205372.1, 17285.9, 0.040999297, 0.45315108, -1198799.1, -28066.785, 0.0, 9.999749, 10.000256 
2.975684e+3, 1.9054069e+2, -1117554.0, -1026574.56, 45470.99, -0.030488247, 0.40938547, -1007745.4, 64989.723, 0.0, 9.999665, 10.000845 
2.9755753e+3, 2.0053987e+2, -1058068.8, -1011393.75, 51781.227, -0.1386163, 0.33461532, -977933.94, -3191.845, 0.0, 9.999675, 10.000276 
2.9754686e+3, 2.1054038e+2, -866557.94, -821767.5, 65246.973, -0.047003724, 0.39196068, -775179.3, 101558.05, 0.0, 10.000121, 10.000688 
2.975362e+3, 2.2054128e+2, -740641.6, -744879.7, 78795.984, 0.08779873, 0.47632223, -663936.2, 114793.05, 0.0, 10.000461, 10.00038 
2.975253e+3, 2.3054036e+2, -734168.25, -731113.94, 13955.559, 0.0994339, 0.43462488, -718602.25, -37862.055, 0.0, 10.0, 10.000024 
2.975143e+3, 2.4053952e+2, -666415.94, -561175.0, 1729.4911, 0.05739523, 0.37856877, -561146.56, 21603.1, 0.0, 9.999415, 10.000804 
2.9750326e+3, 2.5053972e+2, -504653.44, -383393.75, 16485.63, -0.023292894, 0.346874, -381192.44, 103552.41, 0.0, 9.999641, 10.001243 
2.9749227e+3, 2.6054e+2, -384572.13, -319073.2, -1131.4111, -0.077714205, 0.32113132, -319053.66, 67685.805, 0.0, 9.999985, 10.000847 
2.9748127e+3, 2.7053946e+2, -300272.75, -256345.73, -33230.523, 0.0074138516, 0.25783768, -238476.3, 50267.023, 0.0, 10.000014, 10.000588 
2.9747033e+3, 2.8053865e+2, -252692.84, -256454.89, 19303.018, 0.09825878, 0.199942, -235179.4, -44428.254, 0.0, 10.000006, 9.9999275 
2.9745948e+3, 2.9054004e+2, -157249.55, -161045.4, 9042.802, 0.10467084, 0.45017946, -149907.66, -57165.44, 0.0, 10.000048, 9.999866 
2.98634e+3, 1.3065389e+2, -1651432.1, -1720406.5, -101179.18, 0.044086363, 0.5152634, -1579024.1, 80598.52, 0.0, 10.000595, 9.999693 
2.9862294e+3, 1.4064929e+2, -1369711.0, -1533710.9, -71933.7, 0.07682091, 0.15881662, -1342631.0, 219032.44, 0.0, 10.0018635, 9.99968 
2.9861206e+3, 1.5064852e+2, -1361281.6, -1454511.0, -809.6498, 0.06934839, 0.1521897, -1361274.6, 102397.914, 0.0, 10.001163, 9.999873 
2.986012e+3, 1.6064729e+2, -1416733.9, -1388338.3, -63497.1, 0.16950332, 0.08520676, -1337471.1, 28215.72, 0.0, 9.999937, 10.000239 
2.9859027e+3, 1.7064779e+2, -1304738.6, -1256069.6, -9287.105, 0.16433227, 0.15243384, -1254357.8, 13326.042, 0.0, 9.999924, 10.000475 
2.9857928e+3, 1.8064848e+2, -1109962.9, -1115429.4, 44394.516, 0.06167489, 0.23500428, -1068217.5, 101460.68, 0.0, 10.000597, 10.000447 
2.985684e+3, 1.9064835e+2, -1050007.3, -1026127.75, 54302.164, 0.01151053, 0.2337291, -982468.2, 89209.95, 0.0, 10.000289, 10.00054 
2.9855764e+3, 2.0064887e+2, -994127.56, -950205.5, 91520.92, 0.034377795, 0.2951961, -878047.6, 95623.91, 0.0, 9.999994, 10.00054 
2.985469e+3, 2.1064945e+2, -868748.1, -814552.5, 67206.12, 0.06680783, 0.3443365, -769186.9, 106479.08, 0.0, 10.00007, 10.000765 
2.9853612e+3, 2.2064961e+2, -860554.2, -802900.2, -2282.6272, 0.050008696, 0.3574151, -802809.94, -25145.275, 0.0, 9.999629, 10.000388 
2.9852512e+3, 2.3064937e+2, -807309.94, -732861.8, -19632.414, 0.03392219, 0.3620842, -728001.94, -48332.855, 0.0, 9.999356, 10.000323 
2.9851416e+3, 2.4064912e+2, -646899.75, -567448.6, 23723.754, 0.037844494, 0.353748, -560903.94, 20769.031, 0.0, 9.999617, 10.000666 
2.985032e+3, 2.5064892e+2, -485611.47, -411690.47, 6515.1924, -0.0070222407, 0.30713353, -411120.63, 72552.66, 0.0, 9.999931, 10.000912 
2.9849222e+3, 2.606488e+2, -373098.6, -332500.94, -45395.266, -0.0438727, 0.26860967, -303072.78, 82599.94, 0.0, 10.000136, 10.00069 
2.9848126e+3, 2.706486e+2, -254857.25, -243694.61, -85171.28, 0.030288203, 0.24622212, -163921.97, 123751.414, 0.0, 10.000343, 10.000534 
2.984703e+3, 2.8064847e+2, -174283.27, -213865.83, -28105.492, 0.09647286, 0.25428328, -159699.94, 29974.947, 0.0, 10.000518, 10.000005 
2.9845944e+3, 2.9064873e+2, -129804.44, -234185.0, 28106.89, 0.10563432, 0.41838792, -122717.22, -31039.713, 0.0, 10.000541, 9.999218 
2.9963422e+3, 1.3075955e+2, -1575879.1, -1571084.6, -30353.408, 0.2722911, 0.3657736, -1543033.9, 115558.11, 0.0, 10.000672, 10.000656 
2.9962298e+3, 1.4075765e+2, -1402708.6, -1433608.1, -14458.28, -0.0054310677, 0.16308749, -1396998.6, 163603.22, 0.0, 10.001136, 10.000716 
2.9961205e+3, 1.5075988e+2, -1623738.1, -1547894.0, 156539.23, 0.027192077, 0.40529305, -1424749.0, 37830.813, 0.0, 9.999159, 10.000225 
2.9960096e+3, 1.6075909e+2, -1713395.6, -1546519.8, 152615.3, 0.010763521, 0.39060226, -1456022.9, -91434.195, 0.0, 9.997878, 10.000192 
2.995902e+3, 1.7075764e+2, -1350662.3, -1213535.6, 127313.17, 0.16462617, 0.21871792, -1137497.5, 129106.96, 0.0, 9.99924, 10.00114 
2.9957926e+3, 1.807607e+2, -1180964.3, -1107649.0, 13749.86, 0.042150248, 0.45771682, -1105155.1, 63420.156, 0.0, 9.999833, 10.000917 
2.9956827e+3, 1.9075844e+2, -1068027.9, -1100819.4, -14931.852, -0.08672852, 0.26439416, -1062247.5, 8347.792, 0.0, 10.000372, 10.000023 
2.9955745e+3, 2.0075834e+2, -971432.25, -927490.5, 11846.451, -0.08579861, 0.25326568, -924500.25, 48094.027, 0.0, 10.000045, 10.000695 
2.9954684e+3, 2.1075737e+2, -863538.6, -895989.75, -7712.162, 0.04443479, 0.19273399, -861799.06, 12805.275, 0.0, 10.000441, 10.000035 
2.9953593e+3, 2.2075577e+2, -641083.1, -725974.8, -95384.01, -0.03829013, 0.106484845, -579127.06, 197493.88, 0.0, 10.001252, 10.000136 
2.9952496e+3, 2.3075789e+2, -696554.44, -548049.56, -71161.77, -0.027897324, 0.26518843, -519455.4, 159145.92, 0.0, 9.999549, 10.001497 
2.9951406e+3, 2.4075899e+2, -675382.2, -619479.7, 32349.8, 0.039139822, 0.33080631, -604678.4, -24086.555, 0.0, 9.999589, 10.000317 
2.9950324e+3, 2.5075814e+2, -541829.56, -530727.8, 15159.015, 0.085541025, 0.29514277, -520135.34, -37533.555, 0.0, 9.999945, 10.00008 
2.9949233e+3, 2.607576e+2, -402903.88, -395347.5, -37817.746, 0.1021697, 0.28632084, -361119.7, 23489.027, 0.0, 10.000132, 10.000264 
2.994813e+3, 2.707585e+2, -257071.06, -262024.05, -71699.03, 0.089542136, 0.39184573, -187805.77, 98794.42, 0.0, 10.000389, 10.000391 
2.9947022e+3, 2.8075904e+2, -143973.44, -130683.336, -30516.168, 0.02329141, 0.4545853, -106097.1, 82497.89, 0.0, 10.00048, 10.000569 
2.9945922e+3, 2.9075667e+2, -85709.44, -93496.055, 62447.79, -0.09988336, 0.25103214, -27033.713, 63583.668, 0.0, 10.0004015, 10.000221 
