coord_x,coord_y,stress_xx,stress_yy,tau_xy,velocity_x,velocity_y,stress_1,eps,damage,lx,ly
4.9989945e+0, 1.2582466e+2, -1956239.0, -1717257.0, -17362.465, 0.006685868, -0.18849385, -1716002.1, -9102.638, 0.0013143772, 9.997849, 10.001018 
4.999259e+0, 1.3582481e+2, -1874236.1, -1764602.1, -2394.971, 0.00900884, -0.15294756, -1764549.9, -155649.33, 0.0008064585, 9.998334, 9.999786 
4.9993953e+0, 1.4582467e+2, -1680965.1, -1560115.3, -8291.726, 0.0030032797, -0.17143312, -1559549.0, -48647.48, 0.00037918316, 9.998727, 10.000322 
4.9994278e+0, 1.5582469e+2, -1541140.1, -1451168.6, -24199.154, -0.010071197, -0.20571877, -1445072.9, -32173.828, 0.00011767186, 9.999054, 10.00024 
4.9996027e+0, 1.658245e+2, -1465487.9, -1474676.3, -19444.275, -0.008730439, -0.19540858, -1450102.4, -135201.08, 0.000016018055, 9.999378, 9.999251 
4.9998862e+0, 1.7582397e+2, -1315779.1, -1345268.3, -537.5367, 0.0032330109, -0.17821151, -1315769.3, -98860.3, 0.00000013955699, 9.999705, 9.99931 
4.999969e+0, 1.8582366e+2, -1158396.4, -1172999.5, -2522.2021, 0.0010081085, -0.16131724, -1157973.1, -39060.438, 0.0, 9.999917, 9.999719 
4.9999076e+0, 1.9582361e+2, -1043033.0, -1067871.6, -13913.528, -0.01133305, -0.14447014, -1036802.25, -15889.393, 0.0, 10.000041, 9.999707 
5.0000274e+0, 2.0582297e+2, -932006.6, -985369.1, -11412.279, -0.008571755, -0.16782656, -929668.4, -6750.489, 0.0, 10.000225, 9.999512 
5.0002754e+0, 2.1582189e+2, -799488.2, -868475.2, -2381.1736, 0.0049088113, -0.22958946, -799406.1, 25520.566, 0.0, 10.000452, 9.999532 
5.0003815e+0, 2.2582147e+2, -663972.9, -743985.5, -1081.4783, 0.004445115, -0.23007104, -663958.25, 62971.465, 0.0, 10.000673, 9.999607 
5.000383e+0, 2.3582149e+2, -536779.8, -635164.44, -5581.645, -0.006080282, -0.1930471, -536464.2, 92464.48, 0.0, 10.000888, 9.9995775 
5.000483e+0, 2.458207e+2, -444181.28, -593385.7, -10238.434, -0.0058114785, -0.20394608, -443481.97, 87452.92, 0.0, 10.001081, 9.999099 
5.000656e+0, 2.5581932e+2, -325080.78, -494139.1, -14209.957, 0.0023429191, -0.2561823, -323894.7, 109051.875, 0.0, 10.001265, 9.99902 
5.000715e+0, 2.6581788e+2, -273023.97, -526167.9, -6391.117, 0.00078449014, -0.25008625, -272862.72, 62098.375, 0.0, 10.001414, 9.998054 
5.000692e+0, 2.758164e+2, -153594.9, -412852.38, 10334.284, -0.007826764, -0.20690568, -153183.63, 83793.79, 0.0, 10.00154, 9.998098 
5.000802e+0, 2.858145e+2, -24429.96, -278963.63, 7958.2017, -0.0030495208, -0.21808591, -24181.385, 114815.3, 0.000000004221918, 10.001664, 9.998284 
5.0010073e+0, 2.958122e+2, 93871.02, -168185.61, -7849.039, 0.011170452, -0.28181705, 94105.91, 135124.73, 0.0000065845143, 10.00179, 9.998312 
5.0009924e+0, 3.0581188e+2, 156327.97, -118529.266, -4407.426, 0.0038037405, -0.14210749, 156398.63, 156398.63, 0.0000754208, 10.001907, 9.998265 
5.000889e+0, 3.1580913e+2, 155454.83, -143240.86, 12919.185, -0.011522255, -0.23701708, 156012.58, 156012.58, 0.0002698707, 10.002006, 9.998048 
1.4996982e+1, 1.2582403e+2, -1929795.0, -1661728.4, -1793.9259, 0.019923292, -0.18188299, -1661716.4, 45190.188, 0.0012897267, 9.997847, 10.0014 
1.4997777e+1, 1.3582428e+2, -1852332.9, -1718617.8, 15189.719, 0.02707333, -0.17473666, -1716913.9, -108009.47, 0.0007892631, 9.998332, 10.000103 
1.4998186e+1, 1.458242e+2, -1710758.5, -1621239.8, 3572.6687, 0.008983069, -0.1821608, -1621097.4, -110191.63, 0.00036879338, 9.998725, 9.999905 
1.4998282e+1, 1.5582421e+2, -1565450.6, -1501194.6, -12032.498, -0.030188633, -0.17259546, -1499015.4, -86109.61, 0.00011270428, 9.999052, 9.999898 
1.4998809e+1, 1.6582416e+2, -1429455.4, -1399510.3, -7415.4224, -0.026227148, -0.16220684, -1397774.6, -82868.01, 0.000014709239, 9.999376, 9.999768 
1.4999658e+1, 1.7582382e+2, -1284782.8, -1280419.1, 11127.1045, 0.0096944, -0.17587037, -1271261.9, -54352.02, 0.00000010097208, 9.999703, 9.999756 
1.4999907e+1, 1.8582349e+2, -1179965.8, -1217151.9, 1997.4994, 0.0029831766, -0.16667306, -1179858.8, -60944.918, 0.0, 9.999914, 9.999416 
1.4999723e+1, 1.9582321e+2, -1060928.6, -1104814.8, -8886.231, -0.034033436, -0.13923104, -1059197.5, -38280.06, 0.0, 10.000041, 9.999454 
1.5000081e+1, 2.0582272e+2, -915024.1, -949773.56, -3024.4624, -0.025726791, -0.14961223, -914762.9, 8158.4497, 0.0, 10.000223, 9.999757 
1.5000826e+1, 2.1582206e+2, -784765.7, -837407.25, 6221.8364, 0.014736689, -0.19660388, -784040.3, 40885.31, 0.0, 10.00045, 9.999746 
1.5001145e+1, 2.2582148e+2, -671714.3, -759571.94, 6912.1216, 0.013300832, -0.21397631, -671173.8, 55755.69, 0.0, 10.000671, 9.999501 
1.5001151e+1, 2.3582102e+2, -544740.4, -651480.3, 2458.2021, -0.018215014, -0.21354234, -544683.8, 84249.21, 0.0, 10.000887, 9.999467 
1.5001449e+1, 2.4582024e+2, -451717.4, -608802.7, -3506.4316, -0.01749077, -0.2143311, -451639.2, 79300.77, 0.0, 10.0010805, 9.998994 
1.5001969e+1, 2.5581917e+2, -328458.84, -500773.88, -7432.301, 0.0070187217, -0.22359581, -328138.88, 104810.63, 0.0, 10.001264, 9.998975 
1.5002146e+1, 2.658178e+2, -241022.25, -459319.9, -1838.3483, 0.0023466724, -0.23580316, -241006.77, 93955.8, 0.0, 10.001412, 9.998514 
1.5002076e+1, 2.7581617e+2, -128037.27, -359371.28, 15139.826, -0.023471998, -0.25158268, -127050.64, 109927.23, 0.0, 10.001538, 9.9984665 
1.5002406e+1, 2.8581432e+2, -54274.57, -340524.63, 12539.373, -0.009126639, -0.25245258, -53726.33, 85271.01, 0.0000000059189293, 10.001662, 9.997863 
1.5003023e+1, 2.9581216e+2, 70306.83, -216720.34, -2827.1328, 0.033512514, -0.25632462, 70334.67, 111355.17, 0.0000065077284, 10.001789, 9.997979 
1.5002976e+1, 3.0581203e+2, 188700.97, -50781.93, -620.47894, 0.011444216, -0.10809232, 188702.58, 188702.58, 0.000074264535, 10.001906, 9.998732 
1.5002665e+1, 3.158095e+2, 186765.03, -77645.85, 17019.047, -0.034773756, -0.23300041, 187855.98, 187855.98, 0.00026634705, 10.002004, 9.9985 
2.4994954e+1, 1.2582299e+2, -1929348.9, -1644894.6, -10656.197, 0.035789866, -0.18325497, -1644496.0, 62421.117, 0.0012539346, 9.99778, 10.001549 
2.4996027e+1, 1.3582341e+2, -1852049.6, -1704467.8, -10200.598, 0.021460887, -0.17430645, -1703766.1, -94853.6, 0.0007642556, 9.998275, 10.000229 
2.4996811e+1, 1.458233e+2, -1728596.5, -1642065.3, -21538.557, 0.0023671286, -0.18226922, -1637000.5, -126086.43, 0.0003536966, 9.998655, 9.999797 
2.4997348e+1, 1.5582325e+2, -1585020.3, -1520260.3, -14231.922, -0.024573226, -0.17023905, -1517270.6, -104354.6, 0.00010549485, 9.9989605, 9.999812 
2.4998145e+1, 1.6582331e+2, -1443577.9, -1385113.4, -16149.322, -0.02113581, -0.15479085, -1380949.1, -66033.26, 0.000012859098, 9.999188, 9.999958 
2.4999149e+1, 1.7582323e+2, -1322086.1, -1279070.3, -22145.57, 0.0055389395, -0.16141734, -1269707.1, -52791.01, 0.00000006033416, 9.999364, 9.999928 
2.4999684e+1, 1.858229e+2, -1214802.3, -1233319.3, -27119.559, 0.0012766514, -0.15950233, -1195404.4, -76484.61, 0.0, 9.999673, 9.999422 
2.4999872e+1, 1.9582246e+2, -1054135.4, -1100265.4, -15327.728, -0.025400292, -0.1488517, -1049506.8, -28581.78, 0.0, 10.000082, 9.999465 
2.5000376e+1, 2.058221e+2, -900651.3, -935423.5, -12010.933, -0.022018742, -0.15185958, -896905.94, 26021.947, 0.0, 10.00029, 9.999824 
2.50011e+1, 2.1582171e+2, -795728.0, -835788.56, -15990.62, 0.0025018358, -0.17449898, -790128.0, 34801.543, 0.0, 10.000345, 9.999808 
2.500163e+1, 2.2582118e+2, -688488.44, -763319.3, -10254.897, 0.0013589537, -0.1953399, -687108.56, 39824.59, 0.0, 10.000538, 9.99954 
2.5002012e+1, 2.3582055e+2, -549992.0, -650322.0, -4194.2153, -0.018258099, -0.21669805, -549816.94, 79121.01, 0.0, 10.000835, 9.999499 
2.5002477e+1, 2.4581973e+2, -466673.06, -618728.4, -6352.519, -0.018147927, -0.2188449, -466408.16, 64537.082, 0.0, 10.00099, 9.998969 
2.5003013e+1, 2.5581878e+2, -360957.7, -516461.25, -4382.1704, -0.003708201, -0.21561624, -360834.28, 72120.18, 0.0, 10.00104, 9.998975 
2.5003377e+1, 2.658175e+2, -257245.1, -440541.53, -4297.75, -0.004708238, -0.2283367, -257144.39, 77821.57, 0.0, 10.001187, 9.998752 
2.5003624e+1, 2.7581605e+2, -131875.33, -338228.1, -3621.773, -0.016300943, -0.25330514, -131811.78, 105167.016, 0.0, 10.001413, 9.9986725 
2.500412e+1, 2.8581417e+2, -61191.375, -354670.94, 2773.11, -0.004014578, -0.256411, -61165.176, 77833.016, 0.0000000086392555, 10.001661, 9.9977665 
2.500477e+1, 2.9581198e+2, 83415.25, -219115.81, 10939.199, 0.023150908, -0.2569318, 83810.28, 124833.21, 0.0000063841276, 10.001917, 9.997901 
2.500474e+1, 3.05812e+2, 204333.33, -31188.207, 610.9936, -0.005753344, -0.098114245, 204334.92, 204334.92, 0.00007245599, 10.001963, 9.998839 
2.500458e+1, 3.1580964e+2, 173633.56, -70331.266, -8744.024, -0.036347866, -0.21366212, 173946.56, 173946.56, 0.00026087384, 10.001857, 9.998622 
3.499291e+1, 1.2582153e+2, -1935246.1, -1657573.0, 6010.5903, 0.05224033, -0.19320676, -1657442.9, 49488.504, 0.0012062672, 9.997782, 10.001461 
3.4994003e+1, 1.3582219e+2, -1855983.1, -1713336.3, 7921.945, -0.008924282, -0.15167609, -1712897.6, -103972.945, 0.00073077687, 9.998278, 10.000167 
3.499527e+1, 1.4582203e+2, -1714384.9, -1612939.9, -10329.954, -0.017717438, -0.1714604, -1611898.6, -100972.11, 0.00033350204, 9.998656, 9.999996 
3.499662e+1, 1.5582179e+2, -1573477.9, -1495716.6, -3123.053, 0.0061186044, -0.19798079, -1495591.5, -82661.55, 0.000095918134, 9.998958, 9.999982 
3.4997603e+1, 1.6582194e+2, -1453404.3, -1404919.3, -9714.302, 0.0057961666, -0.17307171, -1403045.4, -88116.06, 0.000010539653, 9.9991865, 9.999824 
3.499836e+1, 1.7582217e+2, -1328824.5, -1293154.9, -14719.46, -0.010118459, -0.13522452, -1287865.1, -70937.44, 0.000000028001644, 9.999365, 9.999832 
3.49993e+1, 1.8582192e+2, -1192866.8, -1187726.8, -11769.8955, -0.0049465094, -0.13988079, -1178249.6, -59319.223, 0.0, 9.999673, 9.999735 
3.500035e+1, 1.9582134e+2, -1035138.6, -1060157.4, -736.7758, 0.01418103, -0.17292814, -1035116.94, -14181.663, 0.0, 10.00008, 9.999742 
3.5000908e+1, 2.0582107e+2, -908903.1, -951986.3, -9895.371, 0.0019783897, -0.17451872, -906739.06, 16198.543, 0.0, 10.000288, 9.999711 
3.50011e+1, 2.1582092e+2, -801865.0, -848497.06, -13102.325, -0.03235277, -0.16341585, -798435.75, 26502.688, 0.0, 10.000345, 9.999722 
3.5001835e+1, 2.2582053e+2, -675592.4, -736416.94, 951.66284, -0.03219125, -0.17427644, -675577.5, 51363.152, 0.0, 10.000537, 9.999725 
3.5002965e+1, 2.3582001e+2, -537726.56, -624653.2, 6442.3013, -0.006752539, -0.20238271, -537251.7, 91691.766, 0.0, 10.000834, 9.999677 
3.5003567e+1, 2.4581918e+2, -462750.56, -610146.4, -4569.4023, -0.008430594, -0.21764421, -462609.03, 68341.69, 0.0, 10.000988, 9.999029 
3.5003793e+1, 2.558181e+2, -357787.78, -509336.94, -1900.1798, -0.030233484, -0.23218882, -357763.97, 75197.47, 0.0, 10.001039, 9.999024 
3.50044e+1, 2.6581702e+2, -256432.2, -438594.53, 4049.9832, -0.021002315, -0.227992, -256342.2, 78629.11, 0.0, 10.001186, 9.998766 
3.5005328e+1, 2.75816e+2, -128884.445, -331637.9, 5230.6055, 0.012901194, -0.21203905, -128749.6, 108230.625, 0.0, 10.001412, 9.998718 
3.5005936e+1, 2.8581414e+2, -45440.67, -321314.94, 12323.785, 0.011462926, -0.22992593, -44891.242, 94107.984, 0.000000011844628, 10.001659, 9.997996 
3.5006252e+1, 2.9581165e+2, 95704.75, -192948.78, 19596.883, -0.020538937, -0.28332195, 97029.125, 138055.28, 0.0000061783935, 10.001915, 9.998082 
3.500628e+1, 3.058117e+2, 186637.02, -67693.65, -3454.8716, -0.048133157, -0.112482555, 186683.94, 186683.94, 0.00006980885, 10.001962, 9.998589 
3.5006627e+1, 3.1580958e+2, 159126.47, -100521.664, -12208.759, -0.017786048, -0.17995209, 159699.27, 159699.27, 0.00025299258, 10.001857, 9.998414 
4.4990844e+1, 1.2581977e+2, -1897819.8, -1647726.1, -13562.402, 0.053103752, -0.19126976, -1646992.9, 59955.984, 0.0011480161, 9.998075, 10.0013895 
4.4992232e+1, 1.358204e+2, -1863452.1, -1722119.0, -9120.105, -0.01242383, -0.14585796, -1721533.0, -112590.31, 0.0006895071, 9.99825, 10.000121 
4.4993797e+1, 1.4582032e+2, -1738021.9, -1604274.1, -31587.129, -0.018469056, -0.1676992, -1597189.4, -86245.484, 0.00030865482, 9.998408, 10.000175 
4.499544e+1, 1.5582025e+2, -1619748.6, -1499817.4, -25404.283, 0.011984273, -0.19362742, -1494658.1, -81712.77, 0.00008435172, 9.998563, 10.000145 
4.499671e+1, 1.6582048e+2, -1491892.6, -1423826.5, -22181.113, 0.010679176, -0.16822834, -1417236.3, -102292.26, 0.000007991499, 9.998924, 9.999821 
4.4997752e+1, 1.7582071e+2, -1316242.4, -1285208.3, -17919.059, -0.011526381, -0.13008459, -1277021.5, -60078.71, 0.000000008983813, 9.999444, 9.999849 
4.4998974e+1, 1.8582055e+2, -1179596.1, -1155466.3, -19804.352, -0.0033403425, -0.1369828, -1144341.3, -25397.188, 0.0, 9.999653, 9.999967 
4.5000318e+1, 1.958202e+2, -1085013.4, -1059999.8, -14910.026, 0.02510868, -0.17405581, -1053045.6, -32099.096, 0.0, 9.999633, 9.999959 
4.5001057e+1, 2.0582e+2, -967169.94, -973447.56, -17342.488, 0.0096553825, -0.17811973, -952684.5, -29736.76, 0.0, 9.99986, 9.99977 
4.500136e+1, 2.1581991e+2, -808739.6, -844448.06, -8220.113, -0.036601845, -0.16756874, -806938.25, 18010.186, 0.0, 10.000267, 9.999787 
4.5002252e+1, 2.2581965e+2, -684412.56, -728181.94, 4756.477, -0.038487043, -0.17545857, -683901.6, 43047.867, 0.0, 10.0004225, 9.999837 
4.5003563e+1, 2.358193e+2, -593939.9, -639394.44, 4980.8584, -0.0082684215, -0.19844988, -593400.5, 35550.016, 0.0, 10.000395, 9.999787 
4.5004395e+1, 2.4581853e+2, -510630.2, -623652.7, -3812.2124, -0.00580366, -0.21649472, -510501.75, 20455.344, 0.0, 10.000618, 9.999115 
4.5004886e+1, 2.5581747e+2, -353839.63, -498801.72, 123.3326, -0.024045466, -0.23870014, -353839.53, 79128.3, 0.0, 10.001029, 9.999102 
4.5005652e+1, 2.658165e+2, -245544.61, -430559.28, 5287.419, -0.01760032, -0.22732043, -245393.63, 89583.1, 0.0, 10.001249, 9.998791 
4.5006666e+1, 2.7581567e+2, -138162.83, -331933.6, 7193.2925, 0.009175425, -0.19422613, -137896.17, 99087.79, 0.0, 10.00133, 9.998756 
4.5007437e+1, 2.8581387e+2, -70832.93, -319387.16, 10840.639, 0.007853657, -0.21613987, -70361.016, 68641.305, 0.000000014278152, 10.001425, 9.998123 
4.5007992e+1, 2.958113e+2, 47739.074, -205400.63, 10646.8955, -0.019114034, -0.28864354, 48186.086, 89215.49, 0.0000058442592, 10.00154, 9.998178 
4.500822e+1, 3.0581135e+2, 178007.19, -93594.23, -9014.32, -0.051579036, -0.11565312, 178306.05, 178306.05, 0.000066210356, 10.001996, 9.998395 
4.5008904e+1, 3.15809e+2, 268136.2, -64322.504, -14765.792, -0.016650883, -0.18020372, 268790.7, 268790.7, 0.0002424885, 10.002676, 9.998269 
5.498876e+1, 1.2581776e+2, -1901085.1, -1656063.0, -9717.878, 0.036124174, -0.17501701, -1655678.1, 51290.94, 0.0010818627, 9.998081, 10.001328 
5.499071e+1, 1.3581806e+2, -1865940.9, -1726980.0, -2698.2712, 0.010281646, -0.15642591, -1726927.6, -117961.24, 0.0006423977, 9.998249, 10.000089 
5.4992384e+1, 1.4581811e+2, -1726918.1, -1580676.4, -25771.291, -0.0012770963, -0.1713809, -1576267.8, -65301.305, 0.00028050644, 9.998406, 10.000339 
5.4993796e+1, 1.5581861e+2, -1608137.0, -1476383.8, -18296.463, -0.008991005, -0.15743645, -1473890.1, -60927.86, 0.00007169208, 9.998566, 10.000305 
5.4995453e+1, 1.658189e+2, -1482884.1, -1405281.3, -2604.8198, -0.007721692, -0.14012463, -1405193.9, -90233.875, 0.0000055425044, 9.998925, 9.999947 
5.4997325e+1, 1.7581883e+2, -1307930.8, -1266693.8, 243.63058, 0.0012387625, -0.14525598, -1266692.4, -49731.207, 0.00000000116644, 9.999439, 9.999978 
5.499872e+1, 1.8581884e+2, -1169646.1, -1133842.5, -20487.352, 0.005368158, -0.15050335, -1124537.5, -5576.7485, 0.0, 9.999649, 10.000117 
5.4999757e+1, 1.9581896e+2, -1073795.4, -1036990.3, -14225.114, 0.006047385, -0.15272003, -1032133.25, -11174.582, 0.0, 9.999635, 10.000116 
5.500082e+1, 2.058189e+2, -950765.3, -939439.25, -1969.2555, -0.00014368983, -0.16279612, -939106.6, -16148.37, 0.0, 9.99986, 10.000004 
5.5001885e+1, 2.158187e+2, -793762.75, -813028.56, 6037.082, -0.011168769, -0.18712234, -792027.3, 32932.105, 0.0, 10.000265, 10.000004 
5.5002874e+1, 2.2581851e+2, -681987.2, -722580.75, 3627.9556, -0.01841647, -0.19907491, -681665.5, 45294.176, 0.0, 10.000421, 9.999877 
5.500381e+1, 2.3581837e+2, -590704.75, -632495.5, 5368.9097, -0.02328006, -0.2049397, -590026.0, 38933.137, 0.0, 10.000394, 9.999835 
5.500496e+1, 2.4581777e+2, -503075.06, -607931.5, 11618.578, -0.011134297, -0.2153724, -501803.1, 29161.197, 0.0, 10.000618, 9.999224 
5.500629e+1, 2.5581685e+2, -346837.03, -484050.94, 14693.8125, 0.013486978, -0.2350911, -345281.16, 87692.49, 0.0, 10.001027, 9.999204 
5.5007124e+1, 2.658159e+2, -243021.66, -424770.44, 8246.216, 0.004383908, -0.2264482, -242648.28, 92333.98, 0.0, 10.001247, 9.998832 
5.5007625e+1, 2.7581507e+2, -136016.7, -326860.66, 10230.782, -0.028113795, -0.19958466, -135469.83, 101520.17, 0.0, 10.001328, 9.998792 
5.500863e+1, 2.8581333e+2, -69659.836, -316713.94, 14875.25, -0.015531582, -0.2153859, -68767.414, 70240.1, 0.000000014996283, 10.001424, 9.998141 
5.500999e+1, 2.9581094e+2, 48521.813, -203590.98, 16982.67, 0.026506329, -0.27339515, 49660.645, 90693.414, 0.0000053587105, 10.001539, 9.998191 
5.5010563e+1, 3.058108e+2, 168207.0, -113761.055, 16726.645, -0.01705911, -0.108442284, 169195.77, 169195.77, 0.00006167987, 10.001996, 9.998258 
5.50114e+1, 3.1580794e+2, 262322.97, -76229.375, 9206.69, -0.03492975, -0.21459362, 262573.16, 262573.16, 0.00022941288, 10.002676, 9.998188 
6.498672e+1, 1.2581554e+2, -1927475.0, -1661820.0, -13327.236, 0.03468155, -0.16701809, -1661153.0, 45838.29, 0.0010116006, 9.99787, 10.00139 
6.4988977e+1, 1.3581577e+2, -1878216.8, -1725734.8, 4985.4526, 0.017477127, -0.1632713, -1725571.9, -116582.984, 0.00059264415, 9.998135, 10.000152 
6.499089e+1, 1.4581582e+2, -1718671.8, -1580022.1, -19752.766, 0.0058024703, -0.1777439, -1577263.0, -66273.91, 0.0002512883, 9.998478, 10.000308 
6.499252e+1, 1.5581653e+2, -1561647.8, -1455015.1, -27345.164, -0.009729311, -0.14080092, -1448411.6, -35427.992, 0.000059186506, 9.998889, 10.000296 
6.4994425e+1, 1.6581689e+2, -1454659.1, -1366714.6, -16005.358, -0.007522309, -0.12709706, -1363892.4, -48912.035, 0.0000034805446, 9.999012, 10.00017 
6.4996576e+1, 1.7581682e+2, -1367923.3, -1271908.9, -5871.775, 0.008306592, -0.1554033, -1271551.1, -54570.496, 0.00000000000024211628, 9.998926, 10.00019 
6.4998144e+1, 1.8581693e+2, -1241175.8, -1160727.4, -27155.098, 0.009659709, -0.16246907, -1152419.3, -33440.176, 0.0, 9.9991255, 10.000184 
6.49993e+1, 1.9581726e+2, -1082135.5, -1032464.56, -27169.283, 0.0008643961, -0.15069921, -1020490.1, 485.25833, 0.0, 9.999541, 10.000192 
6.5000594e+1, 2.0581739e+2, -952810.1, -920763.44, -18573.945, -0.0035932912, -0.1576266, -912256.4, 10717.016, 0.0, 9.999762, 10.000179 
6.500199e+1, 2.158173e+2, -844304.75, -818819.7, -15093.689, -0.0052577173, -0.18623693, -811808.94, 13164.027, 0.0, 9.999839, 10.000169 
6.5003186e+1, 2.258172e+2, -729727.94, -739889.75, -21568.14, -0.011208764, -0.19945173, -712650.3, 14322.111, 0.0, 10.000069, 9.9999275 
6.500424e+1, 2.358171e+2, -585016.0, -623377.25, -19057.613, -0.020263456, -0.20524979, -577157.94, 51813.688, 0.0, 10.000406, 9.999892 
6.5005594e+1, 2.458166e+2, -498374.34, -593099.2, -8921.994, -0.008776366, -0.21445881, -497541.3, 33434.39, 0.0, 10.000596, 9.999336 
6.5007186e+1, 2.558158e+2, -389017.6, -491749.7, -5455.7, 0.0176502, -0.23171996, -388728.66, 44254.625, 0.0, 10.000683, 9.999316 
6.5008235e+1, 2.658149e+2, -281288.53, -433735.16, -9986.857, 0.006116042, -0.23054723, -280637.06, 54354.457, 0.0, 10.000943, 9.998917 
6.500892e+1, 2.75814e+2, -130086.055, -316040.03, -4763.909, -0.03167846, -0.21850388, -129964.086, 107035.875, 0.0, 10.001334, 9.998863 
6.501017e+1, 2.8581238e+2, -27605.408, -299062.4, 145.8248, -0.019120557, -0.22659959, -27605.328, 111411.38, 0.000000013847158, 10.001724, 9.998118 
6.5011805e+1, 2.958102e+2, 129068.766, -167406.42, -450.0231, 0.02604842, -0.26041114, 129069.445, 170109.47, 0.0000047556837, 10.002104, 9.998167 
6.5012723e+1, 3.0581003e+2, 206884.03, -106175.8, 4726.3394, -0.015697686, -0.09290002, 206955.38, 206955.38, 0.000056396846, 10.00231, 9.9981575 
6.50141e+1, 3.1580678e+2, 218708.34, -100731.625, -1401.6261, -0.01811604, -0.23145606, 218714.48, 218714.48, 0.00021408794, 10.002391, 9.998156 
7.4984694e+1, 1.2581308e+2, -1913796.8, -1634350.6, -5402.9517, 0.044639252, -0.16949086, -1634246.3, 72769.39, 0.00094218313, 9.997873, 10.001577 
7.4987006e+1, 1.3581349e+2, -1866122.6, -1702086.1, 15729.242, 0.0064522005, -0.16653693, -1700591.5, -91581.164, 0.0005443152, 9.998139, 10.000311 
7.4989325e+1, 1.4581345e+2, -1734298.5, -1613080.1, -4083.5005, 0.000967059, -0.18655756, -1612942.8, -101930.98, 0.00022371147, 9.998481, 10.00008 
7.499159e+1, 1.5581398e+2, -1575153.8, -1482192.5, -13043.382, 0.009280914, -0.14367522, -1480397.1, -67387.78, 0.00004811655, 9.998886, 10.000111 
7.4993616e+1, 1.6581446e+2, -1432325.0, -1319641.1, -19197.887, 0.010024954, -0.12913033, -1316460.3, -1455.209, 0.0000019773436, 9.999009, 10.000494 
7.49955e+1, 1.7581467e+2, -1346750.9, -1228558.4, -7404.367, 0.0076117865, -0.16081846, -1228096.4, -11095.093, 0.0, 9.998928, 10.000485 
7.499725e+1, 1.8581484e+2, -1242119.0, -1162935.1, -11434.886, 0.00790589, -0.1730044, -1161316.9, -42318.06, 0.0, 9.999127, 10.000168 
7.499893e+1, 1.9581512e+2, -1082924.1, -1033340.7, -12301.071, 0.0093915, -0.16767249, -1030456.7, -9460.114, 0.0, 9.999538, 10.000187 
7.500038e+1, 2.058154e+2, -944864.44, -903663.7, -15633.26, -0.00096672156, -0.16246338, -898403.4, 24589.746, 0.0, 9.99976, 10.000298 
7.5001687e+1, 2.1581571e+2, -836281.5, -802098.75, -11207.523, -0.019946788, -0.16505845, -798751.8, 26237.29, 0.0, 9.999839, 10.000283 
7.5003195e+1, 2.2581571e+2, -725432.75, -730949.25, -8782.288, -0.018042907, -0.17670068, -718985.75, 8001.9146, 0.0, 10.000068, 9.9999895 
7.5004846e+1, 2.3581551e+2, -580634.5, -614237.6, -7027.335, -0.0004096613, -0.19953498, -579224.1, 49763.95, 0.0, 10.000405, 9.999955 
7.5006276e+1, 2.4581505e+2, -490158.38, -575716.44, -5802.6167, 0.0003154965, -0.21418402, -489766.63, 41224.754, 0.0, 10.000595, 9.999455 
7.5007576e+1, 2.558144e+2, -380598.06, -473832.8, -1291.6454, -0.012013704, -0.22844969, -380580.2, 52416.59, 0.0, 10.000682, 9.99944 
7.5008994e+1, 2.658135e+2, -272391.2, -414922.72, 4495.0615, -0.012690343, -0.23946759, -272249.56, 62754.97, 0.0, 10.000942, 9.999046 
7.5010544e+1, 2.7581248e+2, -122790.07, -300586.56, 10060.78, -0.0024708835, -0.25137103, -122222.586, 114791.336, 0.0, 10.001333, 9.99897 
7.5012046e+1, 2.8581098e+2, -32101.693, -308135.06, 14350.519, -0.004103042, -0.2499918, -31357.639, 107672.28, 0.000000011324871, 10.001723, 9.998057 
7.5013435e+1, 2.958091e+2, 124987.055, -175602.66, 12816.41, -0.021484151, -0.24943058, 125532.52, 166583.6, 0.000004098041, 10.002103, 9.998112 
7.501471e+1, 3.05809e+2, 202503.0, -114862.49, 7576.2925, -0.048389833, -0.06854454, 202683.77, 202683.77, 0.000050636394, 10.002308, 9.998098 
7.5017e+1, 3.158054e+2, 219869.8, -97556.94, 1276.9686, 0.032180507, -0.23044477, 219874.94, 219874.94, 0.00019707165, 10.002389, 9.9981785 
8.4982675e+1, 1.2581047e+2, -1880786.0, -1619477.9, -17520.266, 0.04342388, -0.16332075, -1618308.4, 88733.3, 0.00087835814, 9.998104, 10.001569 
8.4985137e+1, 1.3581094e+2, -1847418.9, -1691414.8, -9111.039, 0.00030903993, -0.15592946, -1690884.5, -81848.79, 0.0005011039, 9.9982605, 10.000326 
8.498774e+1, 1.4581089e+2, -1745122.6, -1607394.0, -19531.814, 0.00027148976, -0.18366215, -1604677.8, -93640.484, 0.00020010647, 9.99836, 10.000177 
8.499036e+1, 1.5581147e+2, -1635453.5, -1501033.0, -4260.2456, 0.019729253, -0.14358255, -1500898.1, -87863.89, 0.000039437622, 9.998428, 10.000201 
8.499252e+1, 1.6581203e+2, -1485554.0, -1341625.6, -16817.498, 0.019617718, -0.12607005, -1339686.6, -24657.512, 0.0000010481418, 9.998629, 10.000526 
8.499443e+1, 1.7581235e+2, -1343804.9, -1222515.6, -26813.688, 0.008428023, -0.15129411, -1216852.3, 172.35289, 0.0, 9.998929, 10.000527 
8.499639e+1, 1.8581262e+2, -1225515.6, -1137878.9, -26000.83, 0.006542377, -0.16538431, -1130745.4, -11724.178, 0.0, 9.999167, 10.00032 
8.4998375e+1, 1.9581294e+2, -1098839.5, -1024974.75, -14223.197, 0.009815929, -0.16779403, -1022330.6, -1312.9401, 0.0, 9.99936, 10.00033 
8.5000074e+1, 2.0581329e+2, -967209.9, -916225.75, -21723.777, -0.00015108589, -0.16381507, -908225.0, 14788.814, 0.0, 9.999614, 10.000281 
8.500157e+1, 2.158136e+2, -826327.4, -798676.2, -27640.49, -0.01926624, -0.16296914, -781596.4, 43413.605, 0.0, 9.999912, 10.000272 
8.5003304e+1, 2.2581367e+2, -714380.44, -720856.8, -28278.33, -0.01684028, -0.17037757, -689155.5, 37852.76, 0.0, 10.000123, 10.000031 
8.5005206e+1, 2.3581357e+2, -596060.75, -615536.2, -28542.988, 0.001475937, -0.18757108, -575640.1, 53367.79, 0.0, 10.000274, 10.00001 
8.5006785e+1, 2.4581316e+2, -499737.16, -562315.4, -29301.89, -0.0018338861, -0.20831652, -488158.9, 42851.375, 0.0, 10.000451, 9.999617 
8.500814e+1, 2.5581253e+2, -375363.44, -455323.16, -21160.178, -0.02169675, -0.23724526, -370109.0, 62905.566, 0.0, 10.0006485, 9.999584 
8.5009855e+1, 2.6581168e+2, -278123.03, -421726.1, -13908.604, -0.019093923, -0.2480643, -276788.34, 58233.5, 0.0, 10.000919, 9.99901 
8.501189e+1, 2.7581072e+2, -137120.53, -309935.75, -21094.736, 0.0028298208, -0.24882528, -134582.86, 102448.29, 0.0, 10.001245, 9.998949 
8.5013723e+1, 2.8580925e+2, -56503.25, -307973.47, -15765.895, 0.003128928, -0.24944855, -55518.664, 83528.28, 0.000000007967864, 10.001503, 9.998165 
8.501535e+1, 2.9580733e+2, 75500.72, -189839.95, -4336.7964, -0.02099627, -0.25924292, 75571.58, 116639.336, 0.0000034232567, 10.001721, 9.9981985 
8.5016954e+1, 3.0580738e+2, 186160.72, -137541.66, -3417.55, -0.052039966, -0.06516037, 186196.8, 186196.8, 0.00004462947, 10.002258, 9.997967 
8.501976e+1, 3.1580374e+2, 307134.1, -58471.438, -16898.74, 0.0392609, -0.21846837, 307913.53, 307913.53, 0.00017893763, 10.003, 9.998153 
9.498064e+1, 1.2580772e+2, -1895357.5, -1649853.9, -13441.274, 0.028655864, -0.14800921, -1649120.1, 57949.36, 0.00082284986, 9.998105, 10.00136 
9.4983375e+1, 1.3580808e+2, -1856685.5, -1711320.3, -3361.2603, -0.0025428897, -0.1326506, -1711242.6, -102177.22, 0.00046510532, 9.998263, 10.000188 
9.4986117e+1, 1.4580809e+2, -1714480.8, -1544138.0, -16870.738, 0.0015121487, -0.16974255, -1542483.3, -31417.43, 0.00018171112, 9.998362, 10.000611 
9.498879e+1, 1.5580902e+2, -1608886.4, -1446376.8, -630.522, 0.01945066, -0.14044546, -1446374.3, -33315.992, 0.000033543416, 9.99843, 10.000576 
9.499116e+1, 1.6580965e+2, -1504178.5, -1380322.4, -5219.7393, 0.019659737, -0.11813382, -1380102.8, -65049.973, 0.00000057940093, 9.99863, 10.00026 
9.4993377e+1, 1.7580986e+2, -1359453.1, -1254598.8, -15557.726, 0.010363467, -0.1269983, -1252339.1, -35288.184, 0.0, 9.998927, 10.000307 
9.4995534e+1, 1.8581022e+2, -1202672.5, -1090240.8, -18679.328, 0.0047252052, -0.13946982, -1087218.6, 31827.646, 0.0, 9.9991665, 10.0006485 
9.4997644e+1, 1.958108e+2, -1078235.3, -982507.8, -6476.0444, 0.0008485245, -0.15102018, -982071.7, 38967.14, 0.0, 9.999362, 10.000621 
9.499967e+1, 2.0581104e+2, -977839.7, -938432.56, -10458.221, -0.0020678677, -0.1616605, -935829.06, -12793.508, 0.0, 9.999614, 10.000129 
9.500164e+1, 2.1581101e+2, -836152.3, -818944.8, -16688.223, -0.003963459, -0.17990983, -808773.0, 16262.624, 0.0, 9.999911, 10.0001335 
9.500351e+1, 2.258111e+2, -713027.56, -717821.3, -22725.545, -0.008457034, -0.18028152, -692572.9, 34461.33, 0.0, 10.000123, 10.000053 
9.5005316e+1, 2.358113e+2, -593566.75, -609923.56, -22667.986, -0.014730832, -0.16980739, -577646.94, 51384.37, 0.0, 10.000272, 10.000049 
9.5007104e+1, 2.4581094e+2, -485553.3, -532620.5, -22112.002, -0.015560183, -0.1967629, -476794.97, 54237.496, 0.0, 10.00045, 9.999822 
9.500888e+1, 2.5581017e+2, -363869.4, -431469.56, -13334.679, -0.012779362, -0.25857762, -361334.1, 71702.63, 0.0, 10.0006485, 9.999747 
9.501083e+1, 2.6580945e+2, -292459.38, -451437.8, -1733.9426, -0.014193817, -0.2564729, -292440.47, 42602.99, 0.0, 10.000919, 9.998807 
9.501294e+1, 2.7580875e+2, -147970.39, -332161.88, -9284.823, -0.01631364, -0.21072336, -147503.55, 89548.06, 0.0, 10.001244, 9.998796 
9.501522e+1, 2.8580722e+2, -36808.62, -266899.13, -8169.405, 0.0019547327, -0.22473411, -36518.93, 102548.81, 0.0000000042394483, 10.001502, 9.998447 
9.5017546e+1, 2.9580504e+2, 91429.56, -156577.97, 5414.08, 0.026856396, -0.2906631, 91547.695, 132637.77, 0.000002739973, 10.00172, 9.998426 
9.501946e+1, 3.0580518e+2, 171849.92, -166687.03, 24863.54, -0.027411709, -0.08349745, 173666.25, 173666.25, 0.000038513957, 10.002256, 9.9977665 
9.5022374e+1, 3.158018e+2, 301453.56, -69183.914, 8791.239, 0.00060778804, -0.1949337, 301661.94, 301661.94, 0.00016010099, 10.0029955, 9.998081 
1.0497862e+2, 1.2580478e+2, -1885326.8, -1642555.4, -16172.969, 0.013862216, -0.14667541, -1641482.6, 65615.92, 0.0007762847, 9.998164, 10.001381 
1.0498168e+2, 1.3580519e+2, -1874200.4, -1713615.5, 13020.21, 0.008442707, -0.13109666, -1712566.6, -103472.59, 0.00043669788, 9.998117, 10.000242 
1.0498453e+2, 1.4580528e+2, -1723245.3, -1537508.5, -3463.409, 0.012081283, -0.16864389, -1537444.0, -26350.209, 0.00016867174, 9.998254, 10.000709 
1.04987144e+2, 1.5580642e+2, -1589533.6, -1427096.0, -12601.014, 0.008214104, -0.12624244, -1426124.4, -13040.233, 0.000030278157, 9.99852, 10.000666 
1.04989715e+2, 1.6580711e+2, -1483140.6, -1365073.0, -10969.725, 0.0067214603, -0.10470139, -1364062.5, -48984.484, 0.0000004316036, 9.998751, 10.000307 
1.04992315e+2, 1.7580727e+2, -1352210.4, -1246263.8, 2303.5671, 0.010123752, -0.124386854, -1246213.8, -29137.33, 0.0, 9.998956, 10.000351 
1.0499471e+2, 1.8580762e+2, -1211117.4, -1097043.4, -8784.557, 0.007160876, -0.1386669, -1096370.8, 22701.129, 0.0, 9.999121, 10.000624 
1.04996935e+2, 1.9580822e+2, -1094598.8, -992625.6, -23192.941, -0.0010935456, -0.14569655, -987598.44, 33466.035, 0.0, 9.999258, 10.000602 
1.0499921e+2, 2.0580848e+2, -995198.3, -941361.3, -25466.916, -0.002706299, -0.15662327, -931223.5, -8162.5435, 0.0, 9.999472, 10.000177 
1.050015e+2, 2.1580845e+2, -858518.06, -824414.94, -16792.15, 0.00056331645, -0.17893735, -817534.7, 7525.952, 0.0, 9.999737, 10.000179 
1.05003566e+2, 2.2580852e+2, -740855.7, -733798.3, -22470.293, -0.006086876, -0.18223193, -714581.3, 12477.995, 0.0, 9.999943, 10.00003 
1.0500546e+2, 2.3580867e+2, -619332.06, -625247.25, -25455.688, -0.019881427, -0.1736869, -596662.75, 32394.229, 0.0, 10.000107, 10.000024 
1.05007514e+2, 2.4580832e+2, -492098.6, -538167.5, -31001.156, -0.016956853, -0.19872133, -476511.06, 54547.227, 0.0, 10.000415, 9.999801 
1.0500972e+2, 2.5580758e+2, -338702.3, -421017.03, -39902.86, -0.0024336851, -0.25629383, -322534.56, 110527.96, 0.0, 10.000828, 9.999733 
1.0501186e+2, 2.6580688e+2, -275037.22, -441113.2, -29054.168, -0.008677574, -0.25070408, -270101.06, 64967.83, 0.0, 10.00103, 9.998826 
1.0501398e+2, 2.7580622e+2, -171685.16, -342113.22, -19540.87, -0.027670812, -0.20180033, -169473.34, 67603.12, 0.0, 10.001073, 9.998812 
1.05016634e+2, 2.8580466e+2, -51551.8, -276193.44, -18139.357, -0.0024276394, -0.2198936, -50096.51, 88996.53, 0.0000000012344323, 10.00141, 9.998429 
1.05019584e+2, 2.9580235e+2, 124838.0, -142216.47, -26339.0, 0.046939615, -0.29438812, 127410.97, 168527.47, 0.0000020653147, 10.001955, 9.998414 
1.05021894e+2, 3.0580258e+2, 194623.34, -151066.39, 1290.8226, -0.016049514, -0.082669295, 194628.17, 194628.17, 0.00003243676, 10.002391, 9.997811 
1.0502514e+2, 3.1579924e+2, 277227.25, -60768.1, 283.07834, -0.009721211, -0.19589521, 277227.47, 277227.47, 0.00014094144, 10.002741, 9.998262 
1.1497661e+2, 1.2580164e+2, -1867167.5, -1605892.5, -20090.738, -0.0046659675, -0.16127153, -1604356.8, 102772.45, 0.0007384457, 9.998168, 10.001631 
1.1498003e+2, 1.3580228e+2, -1857577.4, -1678252.0, 12422.783, 0.03160479, -0.15123583, -1677395.5, -68273.79, 0.00041537013, 9.998114, 10.000487 
1.1498296e+2, 1.4580244e+2, -1741105.5, -1573633.6, 7030.5806, 0.030207518, -0.18061106, -1573339.0, -62217.723, 0.00016046493, 9.99825, 10.000463 
1.1498543e+2, 1.558037e+2, -1603184.4, -1456392.8, -2358.4253, -0.016058061, -0.10191588, -1456354.9, -43242.9, 0.000029173738, 9.998524, 10.000463 
1.1498819e+2, 1.6580443e+2, -1456454.9, -1310608.4, -3258.018, -0.021004323, -0.08595059, -1310535.6, 4569.106, 0.0000005105562, 9.9987545, 10.000679 
1.1499124e+2, 1.7580459e+2, -1330104.4, -1200593.1, 10058.5, 0.0065546995, -0.14304069, -1199816.6, 17284.596, 0.0, 9.998957, 10.000665 
1.14993885e+2, 1.8580481e+2, -1238057.6, -1152775.3, -3527.616, 0.013037179, -0.16309878, -1152629.5, -33531.332, 0.0, 9.99912, 10.000241 
1.1499625e+2, 1.958052e+2, -1117865.3, -1040919.06, -17504.06, 0.0036257964, -0.15214293, -1037124.3, -16029.586, 0.0, 9.999258, 10.00027 
1.1499868e+2, 2.0580558e+2, -977497.7, -904458.3, -15445.401, -0.0026688797, -0.14889815, -901326.44, 21763.729, 0.0, 9.999471, 10.000432 
1.1500117e+2, 2.1580595e+2, -842343.3, -790783.0, -6978.636, -0.006184774, -0.15996733, -789855.1, 35229.883, 0.0, 9.999736, 10.000411 
1.15003474e+2, 2.2580595e+2, -745573.1, -743533.4, -16423.2, -0.010192299, -0.17635131, -728098.44, -1014.73267, 0.0, 9.999943, 9.999963 
1.1500561e+2, 2.3580572e+2, -625372.8, -637698.0, -18455.32, -0.014793683, -0.19895127, -612078.4, 17006.512, 0.0, 10.000107, 9.999938 
1.15008034e+2, 2.458053e+2, -509793.34, -574749.5, -15470.809, -0.0069225826, -0.21390724, -506296.84, 24790.945, 0.0, 10.000415, 9.99955 
1.15010664e+2, 2.5580472e+2, -353002.0, -450405.2, -25406.535, 0.009123807, -0.23041604, -346773.28, 86318.71, 0.0, 10.000827, 9.999532 
1.15012944e+2, 2.65804e+2, -257682.64, -404993.66, -27842.291, -0.0027193183, -0.23106712, -252595.98, 82502.234, 0.0, 10.001029, 9.999074 
1.15015015e+2, 2.7580318e+2, -158519.06, -315003.2, -16520.947, -0.03210866, -0.22263235, -156793.88, 80311.85, 0.0, 10.001074, 9.998998 
1.1501795e+2, 2.858016e+2, -73943.62, -322505.97, 2432.7998, -0.010816085, -0.23499197, -73919.805, 65202.99, 0.00000000006210851, 10.00141, 9.998112 
1.1502146e+2, 2.9579937e+2, 106655.375, -179286.69, -6110.939, 0.03851296, -0.26995143, 106785.914, 147932.77, 0.0000014487281, 10.001952, 9.998161 
1.15024254e+2, 3.057996e+2, 214663.14, -108905.62, 14371.495, -0.018824453, -0.062000446, 215300.2, 215300.2, 0.000026628812, 10.002388, 9.998102 
1.1502805e+2, 3.1579605e+2, 306969.22, 1433.3567, 11201.574, 0.0067097154, -0.22213767, 307379.34, 307379.34, 0.00012196842, 10.00274, 9.998691 
1.24974646e+2, 1.2579858e+2, -1925210.5, -1635183.3, -3249.074, 0.0015151007, -0.18103695, -1635146.9, 72011.336, 0.000709113, 9.997777, 10.001618 
1.249781e+2, 1.3579942e+2, -1824875.1, -1660159.5, 10198.709, 0.017441744, -0.15227135, -1659530.4, -50381.117, 0.00040043768, 9.998329, 10.000507 
1.2498125e+2, 1.4579956e+2, -1700166.1, -1560040.4, 1179.0011, 0.019071044, -0.18239667, -1560030.4, -48880.984, 0.0001562618, 9.998557, 10.000408 
1.24984026e+2, 1.5580076e+2, -1603022.0, -1461706.6, 6326.8105, -0.009388316, -0.10330018, -1461424.0, -48283.418, 0.000029665673, 9.998548, 10.000415 
1.24986954e+2, 1.6580148e+2, -1472463.6, -1314880.6, -1594.3093, -0.013965156, -0.08896039, -1314864.5, 269.00272, 0.0000007617598, 9.998629, 10.000711 
1.2499005e+2, 1.7580162e+2, -1355429.6, -1210545.5, -14056.268, 0.0012623275, -0.14935562, -1209194.4, 7935.345, 0.0, 9.998772, 10.000686 
1.24992885e+2, 1.8580183e+2, -1258390.3, -1171859.1, -23241.682, 0.005990644, -0.16776632, -1166011.6, -46884.51, 0.0, 9.99902, 10.000159 
1.2499553e+2, 1.958022e+2, -1110995.8, -1045962.06, -14571.959, 0.0024578017, -0.15113635, -1042846.25, -21721.922, 0.0, 9.999341, 10.0001955 
1.249982e+2, 2.0580256e+2, -964800.9, -898202.6, -14687.081, -0.002032483, -0.14639494, -895107.5, 28012.434, 0.0, 9.9995575, 10.000433 
1.2500088e+2, 2.1580291e+2, -847890.0, -793749.25, -25414.604, -0.006917702, -0.15914987, -783688.7, 41425.957, 0.0, 9.999699, 10.000409 
1.2500344e+2, 2.2580285e+2, -736427.9, -741255.4, -37357.67, -0.010624604, -0.17943263, -701406.06, 25707.484, 0.0, 10.000013, 9.999945 
1.250059e+2, 2.3580255e+2, -576169.7, -616469.1, -35955.008, -0.013722092, -0.20770794, -555103.25, 74012.12, 0.0, 10.000456, 9.999916 
1.2500855e+2, 2.458021e+2, -482094.3, -573204.9, -27477.842, -0.008360277, -0.21785371, -474448.9, 56669.855, 0.0, 10.000655, 9.999445 
1.2501135e+2, 2.5580156e+2, -381910.44, -475509.1, -26442.258, 0.0021963841, -0.22101276, -374956.9, 58166.44, 0.0, 10.000676, 9.999433 
1.2501392e+2, 2.6580077e+2, -263417.3, -408321.56, -33104.395, -0.005830115, -0.22155693, -256212.61, 78917.445, 0.0, 10.000992, 9.999069 
1.2501639e+2, 2.7579987e+2, -93994.23, -285449.75, -40934.234, -0.024390498, -0.22331873, -85609.48, 151528.69, 0.0, 10.001523, 9.998985 
1.2501957e+2, 2.857982e+2, -28197.932, -309640.13, -18752.375, -0.0075140167, -0.23898357, -26953.967, 112201.88, 0.0, 10.001761, 9.998031 
1.2502319e+2, 2.9579592e+2, 76060.24, -202175.42, -9705.819, 0.025564574, -0.27125004, 76398.41, 117578.766, 0.00000094519226, 10.001778, 9.998088 
1.250264e+2, 3.057961e+2, 165393.28, -136875.45, 8695.581, -0.027474018, -0.065381795, 165643.22, 165643.22, 0.000021325412, 10.002069, 9.998064 
1.250309e+2, 3.1579238e+2, 289599.7, 8464.312, -21732.512, 0.027180277, -0.23598531, 291269.75, 291269.75, 0.00010374953, 10.002554, 9.998829 
1.3497272e+2, 1.257956e+2, -1946450.0, -1677243.4, 17523.254, 0.031632748, -0.20417053, -1676107.5, 31077.926, 0.0006877832, 9.997768, 10.001334 
1.349759e+2, 1.357966e+2, -1838624.5, -1690675.8, 29757.068, -0.03747859, -0.1342022, -1684915.0, -75738.18, 0.0003909241, 9.998338, 10.000295 
1.3497938e+2, 1.4579661e+2, -1688790.3, -1538405.3, 505.514, -0.024369966, -0.1742116, -1538403.5, -27225.264, 0.00015498626, 9.998565, 10.000553 
1.3498294e+2, 1.5579762e+2, -1595548.5, -1445530.3, 6447.2856, 0.027484762, -0.12997955, -1445253.6, -32083.682, 0.000031126136, 9.998545, 10.000527 
1.34986e+2, 1.6579825e+2, -1495075.0, -1360893.0, 3903.732, 0.027398286, -0.11381523, -1360779.5, -45615.266, 0.0000011270397, 9.998625, 10.000398 
1.3498874e+2, 1.7579837e+2, -1374262.0, -1250213.6, -7988.8735, -0.007161204, -0.14422958, -1249701.3, -32538.967, 0.0, 9.998775, 10.000412 
1.349917e+2, 1.8579867e+2, -1242173.6, -1138817.5, -11054.224, -0.015235709, -0.15307395, -1137648.4, -18489.535, 0.0, 9.999022, 10.000385 
1.3499479e+2, 1.9579922e+2, -1097749.9, -1018893.9, -2781.3784, -0.0052314107, -0.14232288, -1018795.9, 2357.3533, 0.0, 9.999343, 10.0003805 
1.3499777e+2, 2.057994e+2, -982719.8, -935538.5, -9503.394, -0.0014414588, -0.14893207, -933696.25, -10545.951, 0.0, 9.9995575, 10.000176 
1.3500063e+2, 2.1579935e+2, -864555.6, -827924.7, -19110.889, -0.0022021644, -0.17644754, -819769.75, 5379.6885, 0.0, 9.999696, 10.000175 
1.3500348e+2, 2.2579926e+2, -734720.7, -737308.6, -20679.014, -0.008080897, -0.19128305, -715295.2, 11853.772, 0.0, 10.000012, 9.999973 
1.3500634e+2, 2.3579918e+2, -573673.9, -611227.75, -20448.873, -0.01731915, -0.20027255, -564688.8, 64459.71, 0.0, 10.000456, 9.999952 
1.3500908e+2, 2.4579877e+2, -478916.97, -566707.56, -26940.809, -0.02187867, -0.21096852, -471308.84, 59842.473, 0.0, 10.000656, 9.99949 
1.3501176e+2, 2.5579813e+2, -380958.47, -473722.03, -24155.271, -0.023879573, -0.22801538, -375045.44, 58111.113, 0.0, 10.000676, 9.999445 
1.3501479e+2, 2.6579726e+2, -281916.38, -446529.94, -13077.543, -0.018632274, -0.22190553, -280883.94, 54280.36, 0.0, 10.000991, 9.998807 
1.350181e+2, 2.757963e+2, -109274.8, -316772.28, -22147.955, -0.005231853, -0.20370215, -106937.09, 130236.69, 0.0, 10.001521, 9.998771 
1.3502146e+2, 2.8579447e+2, -17250.545, -286584.44, -18479.64, 0.0065959557, -0.23219024, -15988.527, 123203.73, 0.0, 10.0017605, 9.99819 
1.3502479e+2, 2.95792e+2, 83787.04, -186361.75, -7857.8364, 0.007070211, -0.2987285, 84015.41, 125232.49, 0.0000005800232, 10.001779, 9.998197 
1.350283e+2, 3.0579203e+2, 139890.4, -189536.34, 27125.057, -0.042741455, -0.09321798, 142108.95, 142108.95, 0.000016654767, 10.0020685, 9.997703 
1.3503368e+2, 3.1578827e+2, 279101.06, -12058.692, -6230.1963, 0.049789675, -0.23747441, 279234.3, 279234.3, 0.00008670888, 10.002549, 9.99869 
1.4497067e+2, 1.2579256e+2, -1869547.1, -1666527.1, 6187.0845, 0.017981755, -0.21225475, -1666338.8, 40875.1, 0.0006728006, 9.998408, 10.0011 
1.4497405e+2, 1.3579345e+2, -1889493.9, -1733361.0, 22976.934, -0.04010593, -0.13594827, -1730049.9, -120842.18, 0.00038500954, 9.998065, 10.000133 
1.4497773e+2, 1.4579338e+2, -1743139.6, -1552584.0, -3821.5813, -0.024982393, -0.18223986, -1552507.4, -41297.527, 0.00015511648, 9.998139, 10.000661 
1.4498138e+2, 1.5579447e+2, -1595268.4, -1436521.6, -863.11035, 0.018681338, -0.14037493, -1436516.9, -23317.074, 0.00003278088, 9.9985075, 10.0006075 
1.4498465e+2, 1.6579501e+2, -1484111.5, -1378817.0, 775.9859, 0.022164883, -0.12319991, -1378811.4, -63616.367, 0.0000015078091, 9.9988, 10.00019 
1.4498772e+2, 1.7579499e+2, -1349531.4, -1259448.3, -3316.9604, 0.00023913824, -0.14984432, -1259326.3, -42130.656, 0.0, 9.999035, 10.000223 
1.4499089e+2, 1.8579528e+2, -1213825.4, -1120901.5, -10247.481, -0.0060412386, -0.15297407, -1119784.9, -592.50995, 0.0, 9.999197, 10.000424 
1.4499414e+2, 1.9579591e+2, -1101874.3, -1018439.25, -16103.8955, -0.0025250553, -0.13560139, -1015438.94, 5746.2954, 0.0, 9.999303, 10.000403 
1.4499733e+2, 2.0579597e+2, -989199.7, -954924.8, -21701.668, -0.0020640674, -0.14911191, -944409.9, -21226.422, 0.0, 9.999583, 10.000031 
1.4500046e+2, 2.1579559e+2, -831390.0, -827511.5, -22962.693, -0.003484416, -0.1930236, -806406.3, 18779.412, 0.0, 9.999991, 10.000036 
1.4500359e+2, 2.2579546e+2, -715090.9, -737232.9, -26617.582, -0.007282702, -0.20301127, -697333.7, 29852.35, 0.0, 10.000188, 9.999889 
1.4500672e+2, 2.3579548e+2, -611957.2, -638729.3, -35010.03, -0.012629937, -0.19196163, -587861.44, 41323.355, 0.0, 10.000231, 9.999871 
1.4500974e+2, 2.4579503e+2, -493550.38, -575907.94, -46631.6, -0.017569905, -0.20309094, -472518.25, 58669.832, 0.0, 10.000565, 9.999471 
1.4501266e+2, 2.557942e+2, -320012.78, -447569.3, -48780.043, -0.023126854, -0.23492269, -303496.84, 129697.89, 0.0, 10.001109, 9.999416 
1.4501594e+2, 2.657933e+2, -243602.4, -442124.63, -34810.895, -0.017795602, -0.22702877, -237675.28, 97527.82, 0.0, 10.001315, 9.998681 
1.4501953e+2, 2.7579233e+2, -155427.52, -351430.66, -33875.0, -0.0016393414, -0.19570668, -149738.08, 87474.61, 0.0, 10.001259, 9.998658 
1.4502315e+2, 2.857904e+2, -52279.625, -303663.56, -32244.371, 0.010898765, -0.2287419, -48209.617, 91022.26, 0.0, 10.001521, 9.998188 
1.4502671e+2, 2.957878e+2, 117821.19, -172652.94, -33400.824, 0.010242351, -0.31160024, 121612.375, 162870.17, 0.00000034163278, 10.002023, 9.998173 
1.4503051e+2, 3.0578762e+2, 167759.19, -197963.73, 6393.78, -0.04289104, -0.10900001, 167870.94, 167870.94, 0.000012640429, 10.002353, 9.997508 
1.4503622e+2, 3.1578392e+2, 276117.38, -11284.578, -18111.975, 0.050903212, -0.23302954, 277254.28, 277254.28, 0.000071064576, 10.00252, 9.99871 
1.5496847e+2, 1.2578945e+2, -1881276.0, -1692163.3, -8042.415, -0.043906637, -0.20546466, -1691821.9, 15421.668, 0.0006609735, 9.998414, 10.00092 
1.5497263e+2, 1.3578993e+2, -1897681.6, -1748975.6, 11936.465, 0.009192589, -0.15744115, -1748023.5, -138781.64, 0.00037997565, 9.998059, 10.000029 
1.549763e+2, 1.4578983e+2, -1738891.1, -1542417.1, 10154.085, 0.01709141, -0.2064316, -1541893.8, -30649.451, 0.00015479715, 9.998134, 10.000733 
1.5497932e+2, 1.557913e+2, -1591254.3, -1428893.4, 12810.941, -0.038139507, -0.13459904, -1427888.8, -14658.525, 0.000033834087, 9.99851, 10.000658 
1.5498292e+2, 1.6579181e+2, -1490530.5, -1393196.3, 9539.768, -0.03188289, -0.117000826, -1392270.0, -77044.46, 0.0000017896223, 9.998804, 10.000089 
1.5498698e+2, 1.7579146e+2, -1356688.6, -1274414.9, 5312.092, 0.022789666, -0.16568337, -1274073.4, -56843.68, 0.0, 9.999035, 10.00012 
1.5499048e+2, 1.8579164e+2, -1224660.9, -1143086.9, -6328.51, 0.033076204, -0.16724297, -1142598.8, -23371.115, 0.0, 9.999196, 10.000273 
1.5499358e+2, 1.957923e+2, -1111698.1, -1038933.5, -11204.687, 0.00975836, -0.13125977, -1037247.2, -16026.914, 0.0, 9.999303, 10.000263 
1.5499689e+2, 2.0579225e+2, -991512.1, -959706.1, -6357.193, -0.004489876, -0.14734189, -958482.56, -35263.117, 0.0, 9.999582, 9.999999 
1.5500036e+2, 2.1579167e+2, -834419.94, -833926.7, -8481.092, -0.011568126, -0.20898303, -825688.6, -465.1227, 0.0, 9.999991, 9.999992 
1.5500376e+2, 2.2579144e+2, -728784.9, -765750.44, -25138.047, -0.009156188, -0.21467626, -716066.1, 11158.751, 0.0, 10.000188, 9.999693 
1.5500708e+2, 2.3579149e+2, -625416.94, -666577.75, -31855.082, 0.000003873687, -0.18256432, -608072.44, 21151.709, 0.0, 10.000231, 9.9996805 
1.550105e+2, 2.457909e+2, -499770.4, -588553.6, -26069.982, 0.0040143616, -0.19383758, -492681.34, 38547.637, 0.0, 10.000564, 9.999384 
1.5501404e+2, 2.5578982e+2, -325186.94, -458194.5, -29739.469, 0.0033044298, -0.24209687, -318840.28, 114397.69, 0.0, 10.001109, 9.999344 
1.5501739e+2, 2.6578885e+2, -242749.42, -440267.0, -37022.87, -0.004422139, -0.23756894, -236037.88, 99208.71, 0.0, 10.001314, 9.998694 
1.5502065e+2, 2.7578795e+2, -155509.27, -351796.28, -34479.027, -0.01429243, -0.19921814, -149628.97, 87625.98, 0.0, 10.00126, 9.998655 
1.5502462e+2, 2.8578597e+2, -63715.695, -327698.8, -13351.93, 0.0049432954, -0.22842187, -63042.09, 76232.59, 0.0, 10.001522, 9.998022 
1.5502897e+2, 2.9578322e+2, 107159.81, -194877.81, -14734.945, 0.034565024, -0.3101893, 107876.95, 149179.45, 0.00000019535571, 10.002023, 9.99802 
1.55033e+2, 3.057829e+2, 164916.7, -202797.4, 13074.83, -0.02889779, -0.11352623, 165381.02, 165381.02, 0.000009261703, 10.002349, 9.997476 
1.5503849e+2, 3.157793e+2, 287637.88, 13566.659, -13563.47, 0.027257318, -0.22450443, 288307.47, 288307.47, 0.000056915687, 10.002515, 9.998882 
1.6496646e+2, 1.2578586e+2, -1978233.9, -1723363.4, -42098.313, -0.049772892, -0.19683415, -1716589.8, -9310.15, 0.000647907, 9.997681, 10.00106 
1.6497082e+2, 1.3578647e+2, -1858787.0, -1710585.9, 2469.8022, 0.013555126, -0.15570246, -1710544.6, -101269.06, 0.00037279638, 9.99824, 10.000204 
1.649747e+2, 1.4578629e+2, -1692247.3, -1533809.9, 6385.8613, 0.026268398, -0.21439841, -1533553.0, -22274.541, 0.0001524271, 9.998513, 10.000609 
1.6497791e+2, 1.5578762e+2, -1591264.6, -1441744.3, -6185.9253, -0.033638053, -0.14262345, -1441488.8, -28222.947, 0.000033788867, 9.998566, 10.000543 
1.6498168e+2, 1.6578814e+2, -1500048.4, -1393050.5, -8856.801, -0.032258198, -0.12080896, -1392322.4, -77061.28, 0.0000018950186, 9.998718, 10.000132 
1.6498591e+2, 1.757879e+2, -1368883.1, -1277529.5, -2617.047, 0.016996458, -0.16219048, -1277454.5, -60190.63, 0.0, 9.9989395, 10.000145 
1.6498965e+2, 1.8578795e+2, -1228239.4, -1164245.0, -9895.224, 0.027973173, -0.16901231, -1162749.9, -43486.598, 0.0, 9.999255, 10.000099 
1.6499305e+2, 1.957883e+2, -1074264.5, -1039380.44, -16715.709, 0.009947587, -0.14708626, -1032663.9, -11404.935, 0.0, 9.9996395, 10.000098 
1.6499662e+2, 2.057882e+2, -955027.3, -948672.44, -13286.823, -0.0028828664, -0.159039, -938188.4, -14929.549, 0.0, 9.999861, 9.999941 
1.6500035e+2, 2.1578772e+2, -843134.3, -845037.5, -17569.484, -0.011619611, -0.2034183, -826490.7, -1228.6726, 0.0, 9.999961, 9.999931 
1.65004e+2, 2.2578742e+2, -721954.7, -773233.1, -30353.854, -0.00849273, -0.20874979, -707860.75, 19403.39, 0.0, 10.000281, 9.999597 
1.650076e+2, 2.3578724e+2, -555015.3, -644318.0, -29544.908, 0.0033020636, -0.18790221, -546125.56, 83139.72, 0.0, 10.000765, 9.999577 
1.650113e+2, 2.4578653e+2, -458716.13, -590093.8, -25464.238, 0.008056572, -0.19739786, -453953.2, 77318.555, 0.0, 10.000937, 9.999193 
1.6501506e+2, 2.5578538e+2, -370952.63, -499328.9, -37023.5, 0.0064552547, -0.2346374, -361040.44, 72241.6, 0.0, 10.000877, 9.999172 
1.6501863e+2, 2.657843e+2, -263399.5, -449518.13, -47741.906, -0.0048824027, -0.23267975, -251867.6, 83423.99, 0.0, 10.00117, 9.9987 
1.6502209e+2, 2.757833e+2, -88676.36, -320186.84, -46062.098, -0.019990401, -0.20641337, -79848.32, 157452.2, 0.0, 10.001721, 9.99865 
1.6502634e+2, 2.857813e+2, -10800.487, -315136.0, -23683.834, 0.0038602971, -0.2344258, -8968.406, 130352.33, 0.0, 10.001942, 9.997906 
1.6503105e+2, 2.957785e+2, 82535.57, -217843.16, -21693.209, 0.045537714, -0.30468145, 84094.16, 125443.0, 0.00000010392393, 10.001904, 9.997919 
1.6503522e+2, 3.057781e+2, 120047.28, -218008.5, 10109.025, -0.0246402, -0.12089702, 120349.305, 120349.305, 0.0000064948904, 10.002012, 9.997532 
1.6504072e+2, 3.1577456e+2, 261509.47, 28971.691, -13205.263, 0.0127106095, -0.22440827, 262256.97, 262256.97, 0.00004432351, 10.002214, 9.999131 
1.7496465e+2, 1.2578177e+2, -1946575.4, -1656675.1, -20388.32, -0.000035087483, -0.18608521, -1655248.3, 52073.746, 0.0006289189, 9.997677, 10.001519 
1.7496863e+2, 1.3578305e+2, -1825994.6, -1643045.1, 22621.78, -0.029300332, -0.12990582, -1640289.5, -30980.648, 0.00036083558, 9.998242, 10.000666 
1.7497297e+2, 1.4578274e+2, -1714839.3, -1581476.0, 8042.469, 0.00013894998, -0.2054923, -1580992.8, -69680.52, 0.00014701553, 9.998517, 10.00028 
1.7497712e+2, 1.5578344e+2, -1611382.3, -1483559.1, -3759.2485, 0.031406883, -0.16401576, -1483448.8, -70141.99, 0.00003249045, 9.998566, 10.000256 
1.7498092e+2, 1.6578403e+2, -1486910.8, -1365661.0, -664.7533, 0.02083387, -0.1343265, -1365657.4, -50355.78, 0.0000018022155, 9.998717, 10.00032 
1.749845e+2, 1.7578433e+2, -1357962.3, -1254936.3, 6332.0654, -0.018245192, -0.13959187, -1254548.5, -37250.043, 0.0, 9.9989395, 10.0003 
1.749884e+2, 1.8578422e+2, -1242096.6, -1193078.1, 4578.809, -0.022826025, -0.158377, -1192654.1, -73355.06, 0.0, 9.999255, 9.999901 
1.7499255e+2, 1.957839e+2, -1087410.9, -1066863.0, -2883.7947, -0.0026128518, -0.18299878, -1066466.0, -45164.816, 0.0, 9.99964, 9.999909 
1.7499654e+2, 2.0578377e+2, -961115.5, -961292.1, -9597.706, 0.0021325129, -0.18406406, -951605.75, -28304.068, 0.0, 9.999861, 9.999854 
1.7500038e+2, 2.1578373e+2, -848912.2, -856767.0, -12653.771, -0.0043857507, -0.17642322, -839590.4, -14289.166, 0.0, 9.99996, 9.999851 
1.750043e+2, 2.2578336e+2, -721885.56, -772764.75, -12185.657, -0.0059030233, -0.1852362, -719117.7, 8186.1006, 0.0, 10.000279, 9.9996 
1.750083e+2, 2.3578276e+2, -556263.06, -647014.7, -12731.23, -0.0034665172, -0.2084686, -554510.9, 74797.51, 0.0, 10.000765, 9.9995575 
1.750121e+2, 2.4578191e+2, -479402.2, -633111.9, -27863.957, -0.0062479894, -0.21415867, -474507.0, 56809.42, 0.0, 10.000937, 9.998898 
1.7501573e+2, 2.5578085e+2, -389871.34, -538711.25, -37479.195, -0.014193825, -0.21246096, -380966.53, 52360.508, 0.0, 10.000877, 9.998901 
1.7501965e+2, 2.6577964e+2, -263516.97, -449913.44, -26954.934, -0.019237932, -0.21213123, -259697.28, 75640.83, 0.0, 10.001171, 9.998697 
1.7502382e+2, 2.7577832e+2, -89284.5, -321446.38, -26548.313, -0.019456252, -0.21806042, -86287.32, 151062.2, 0.0, 10.001721, 9.998641 
1.7502831e+2, 2.8577623e+2, -16241.422, -325973.8, -25125.287, 0.0064640143, -0.24744436, -14216.513, 125153.625, 0.0, 10.00194, 9.997831 
1.7503291e+2, 2.9577363e+2, 78583.81, -225750.84, -22155.86, 0.041893683, -0.2944983, 80188.32, 121585.21, 0.00000004563321, 10.001902, 9.997866 
1.7503718e+2, 3.0577305e+2, 130295.1, -196872.23, 18165.008, -0.031052243, -0.13008045, 131300.58, 131300.58, 0.000004309572, 10.002012, 9.997678 
1.7504288e+2, 3.1576967e+2, 284730.2, 76764.37, -8388.326, 0.0064714546, -0.23277439, 285068.0, 285068.0, 0.000033325945, 10.002215, 9.999459 
1.8496248e+2, 1.2577753e+2, -1925828.4, -1641484.6, -9296.111, 0.011118748, -0.18538445, -1641181.0, 66182.9, 0.0006001509, 9.997796, 10.001565 
1.8496665e+2, 1.3577907e+2, -1860424.8, -1647838.5, 480.37576, -0.036324184, -0.11372876, -1647837.4, -38489.6, 0.00034227368, 9.997955, 10.0007715 
1.849713e+2, 1.457787e+2, -1760895.8, -1603619.3, -19773.281, -0.0020010327, -0.20097415, -1601171.4, -89819.85, 0.00013807035, 9.9982, 10.000281 
1.849758e+2, 1.5577914e+2, -1620672.8, -1488686.0, -6704.5405, 0.045039773, -0.18459538, -1488346.3, -74998.29, 0.000029920388, 9.998506, 10.00025 
1.8497978e+2, 1.6577972e+2, -1479147.1, -1370718.8, -1844.2124, 0.030542271, -0.1513395, -1370687.4, -55344.246, 0.0000015280342, 9.998809, 10.000241 
1.8498343e+2, 1.7578019e+2, -1338886.6, -1254088.4, -15177.164, -0.026708731, -0.13081816, -1251453.9, -34114.91, 0.0, 9.999106, 10.000226 
1.849876e+2, 1.8578003e+2, -1227440.5, -1186913.8, -15639.651, -0.032811087, -0.15137227, -1181580.1, -62240.277, 0.0, 9.999359, 9.999893 
1.8499218e+2, 1.957795e+2, -1097762.5, -1073551.3, -9050.966, -0.0022501738, -0.19798627, -1070541.8, -49198.26, 0.0, 9.999577, 9.999894 
1.8499644e+2, 2.0577927e+2, -962666.75, -974357.44, -12100.635, 0.0048468607, -0.20180535, -955073.6, -31728.646, 0.0, 9.999903, 9.999744 
1.8500051e+2, 2.1577923e+2, -804829.56, -847413.9, -17139.236, -0.0051203, -0.1823612, -798788.44, 26556.541, 0.0, 10.000314, 9.999745 
1.8500468e+2, 2.2577883e+2, -686039.06, -759327.7, -17675.361, -0.00853138, -0.1867674, -681998.94, 45348.97, 0.0, 10.000543, 9.999566 
1.8500897e+2, 2.357782e+2, -577342.2, -661111.7, -21451.441, -0.0067067943, -0.2108935, -572168.5, 57184.293, 0.0, 10.000637, 9.999522 
1.8501298e+2, 2.4577726e+2, -486893.16, -644755.94, -31796.3, -0.0102277, -0.21808268, -480729.5, 50631.957, 0.0, 10.000921, 9.998825 
1.850168e+2, 2.5577614e+2, -327425.13, -517284.2, -24663.16, -0.018911574, -0.2177791, -324273.63, 109099.32, 0.0, 10.001345, 9.998823 
1.8502101e+2, 2.6577485e+2, -219626.47, -441801.53, -8807.63, -0.01892718, -0.21440804, -219277.86, 116107.06, 0.0, 10.00153, 9.99858 
1.8502554e+2, 2.7577347e+2, -124146.31, -349156.25, -17688.922, -0.00986389, -0.21487737, -122764.2, 114633.14, 0.0, 10.00153, 9.998543 
1.8503015e+2, 2.8577137e+2, -45092.734, -329438.44, -17737.209, 0.009886397, -0.24577028, -43990.58, 95427.24, 0.0, 10.001698, 9.997925 
1.850347e+2, 2.957688e+2, 96232.805, -208115.16, -2682.1333, 0.027764916, -0.29730392, 96256.44, 137699.84, 0.000000013949684, 10.001985, 9.997946 
1.8503907e+2, 3.0576798e+2, 131548.3, -201294.89, 31556.922, -0.042646993, -0.15786128, 134513.78, 134513.78, 0.0000026617806, 10.002044, 9.997632 
1.8504499e+2, 3.1576487e+2, 248911.77, 72975.15, -12428.282, 0.01048839, -0.23471527, 249785.36, 249785.36, 0.00002394661, 10.001912, 9.999578 
1.9496e+2, 1.2577315e+2, -1952265.1, -1696797.5, -2371.9063, -0.018898519, -0.19458613, -1696775.5, 10629.867, 0.000559594, 9.997797, 10.001185 
1.949649e+2, 1.3577454e+2, -1878727.9, -1685968.9, 6850.046, -0.007969665, -0.10707023, -1685725.8, -76333.12, 0.00031629903, 9.997956, 10.00051 
1.9496973e+2, 1.4577416e+2, -1737489.4, -1554972.6, -8266.022, 0.019268138, -0.20057955, -1554599.1, -43202.867, 0.00012542125, 9.998199, 10.000615 
1.9497392e+2, 1.5577473e+2, -1600995.5, -1447888.9, 5125.909, 0.0059936116, -0.20438465, -1447717.5, -34327.863, 0.000026112697, 9.998506, 10.00053 
1.9497824e+2, 1.6577524e+2, -1504009.0, -1422203.9, 9330.366, -0.004461977, -0.17174186, -1421153.3, -105767.55, 0.0000011234973, 9.998808, 9.999888 
1.9498272e+2, 1.7577553e+2, -1360467.0, -1299062.4, -4007.1104, -0.008863886, -0.13570929, -1298802.0, -81416.836, 0.0, 9.999107, 9.999917 
1.9498727e+2, 1.8577538e+2, -1214573.3, -1160187.0, -7495.841, -0.002476145, -0.14778371, -1159172.8, -39787.043, 0.0, 9.999359, 10.000077 
1.9499189e+2, 1.9577506e+2, -1086723.6, -1050526.3, -260.28146, 0.010487747, -0.19208343, -1050524.4, -29138.229, 0.0, 9.999576, 10.000052 
1.9499636e+2, 2.0577468e+2, -972170.8, -993901.6, 3305.4353, 0.004598025, -0.21213003, -971679.2, -48290.355, 0.0, 9.999903, 9.999611 
1.9500074e+2, 2.1577421e+2, -814082.9, -866436.2, -2382.9814, -0.014736455, -0.221488, -813974.7, 11418.662, 0.0, 10.000313, 9.999615 
1.9500515e+2, 2.2577386e+2, -691490.7, -770489.06, -14220.784, -0.017196162, -0.21339685, -689008.75, 38387.813, 0.0, 10.000542, 9.99949 
1.950096e+2, 2.3577355e+2, -581294.06, -669160.9, -16840.0, -0.0070210896, -0.19544269, -578177.2, 51221.4, 0.0, 10.000636, 9.999468 
1.9501396e+2, 2.4577262e+2, -476534.3, -623223.8, -15903.009, -0.0043748566, -0.2090423, -474830.03, 56576.863, 0.0, 10.000921, 9.998973 
1.9501825e+2, 2.557712e+2, -319429.06, -500668.53, -9749.033, -0.008513161, -0.2508899, -318906.16, 114513.68, 0.0, 10.001345, 9.998938 
1.9502269e+2, 2.6576993e+2, -236160.45, -476194.6, -8941.156, -0.004784421, -0.23977603, -235827.86, 99604.266, 0.0, 10.00153, 9.998343 
1.9502725e+2, 2.7576873e+2, -137699.95, -377405.03, -16850.496, 0.0077912863, -0.19655156, -136521.2, 100922.82, 0.0, 10.00153, 9.998348 
1.950319e+2, 2.8576666e+2, -27065.305, -291848.53, -6868.805, 0.01334054, -0.2287529, -26887.238, 112576.61, 0.0, 10.001697, 9.998183 
1.9503646e+2, 2.9576403e+2, 111334.09, -176695.22, 7538.0337, 0.0029228625, -0.31380588, 111531.24, 153019.84, 0.0000000023315327, 10.001985, 9.998162 
1.9504096e+2, 3.057629e+2, 114889.25, -236010.47, 26578.166, -0.059602633, -0.2049579, 116890.94, 116890.94, 0.0000014940416, 10.002044, 9.997394 
1.95047e+2, 3.1576005e+2, 242595.1, 59890.117, -19168.5, 0.022225484, -0.23076095, 244584.48, 244584.48, 0.000016254342, 10.001913, 9.999489 
2.049577e+2, 1.2576821e+2, -1982165.5, -1721735.9, -28185.795, -0.021663336, -0.20916408, -1718720.4, -11267.736, 0.0005079089, 9.99764, 10.00109 
2.04963e+2, 1.3576955e+2, -1880443.6, -1688367.0, 797.68274, 0.0060416376, -0.12489389, -1688363.6, -78922.79, 0.00028337847, 9.997952, 10.000495 
2.0496802e+2, 1.4576924e+2, -1721841.1, -1538743.5, -13331.27, 0.02632299, -0.21437407, -1537778.0, -26334.18, 0.00010934245, 9.99827, 10.000692 
2.0497221e+2, 1.5577002e+2, -1584361.6, -1432465.3, -19578.906, -0.018499577, -0.20659648, -1429982.3, -16547.188, 0.000021261263, 9.998588, 10.000596 
2.0497692e+2, 1.657705e+2, -1495311.6, -1425883.3, -11424.739, -0.023709012, -0.17325823, -1424051.6, -108620.4, 0.00000067965186, 9.998901, 9.999819 
2.0498201e+2, 1.7577066e+2, -1349674.9, -1300788.6, -4086.6958, 0.0038445753, -0.14389238, -1300449.3, -83016.76, 0.0, 9.999211, 9.999855 
2.0498681e+2, 1.8577054e+2, -1199947.9, -1151242.5, -9115.504, 0.011743769, -0.15328006, -1149592.4, -30159.217, 0.0, 9.999452, 10.000093 
2.0499142e+2, 1.9577032e+2, -1076288.9, -1043827.7, -14266.7295, 0.0037785592, -0.18838125, -1038448.75, -17016.525, 0.0, 9.99964, 10.000068 
2.0499612e+2, 2.0576991e+2, -978619.44, -998903.0, -6119.1514, -0.0056398353, -0.20990641, -976916.4, -53481.344, 0.0, 9.9998665, 9.999594 
2.0500094e+2, 2.1576935e+2, -843062.6, -882203.25, -3475.709, -0.015901828, -0.22835286, -842756.4, -17315.725, 0.0, 10.000122, 9.9995985 
2.050056e+2, 2.2576897e+2, -714462.25, -783325.0, -13630.078, -0.018743439, -0.21959274, -711862.56, 15581.457, 0.0, 10.000392, 9.999475 
2.0501016e+2, 2.3576874e+2, -576791.44, -668490.06, -11529.0625, -0.016085178, -0.19411191, -575364.1, 54081.34, 0.0, 10.000674, 9.999454 
2.0501485e+2, 2.4576777e+2, -471916.78, -620354.4, -9356.902, -0.00799858, -0.20925316, -471329.28, 60124.59, 0.0, 10.000951, 9.998979 
2.0501965e+2, 2.5576627e+2, -337157.28, -508690.1, -14637.614, 0.003089711, -0.25914416, -335917.16, 97550.24, 0.0, 10.001221, 9.998942 
2.0502426e+2, 2.6576498e+2, -242008.44, -479243.66, -15422.054, 0.0018579786, -0.25034943, -241010.1, 94469.88, 0.0, 10.00149, 9.998342 
2.0502876e+2, 2.757638e+2, -105191.04, -361620.4, -6258.386, -0.0054033496, -0.20455311, -105038.38, 132453.52, 0.0, 10.001753, 9.99835 
2.0503356e+2, 2.8576186e+2, 2751.5974, -271168.63, 2930.4163, 0.0027239125, -0.2289597, 2782.9436, 142293.58, 0.0, 10.001875, 9.9982395 
2.0503849e+2, 2.9575944e+2, 100811.875, -176177.9, 1680.6439, 0.011833537, -0.30180678, 100822.07, 142355.5, 0.000000000097020676, 10.001888, 9.998212 
2.0504302e+2, 3.0575794e+2, 99547.91, -245506.77, 17898.664, -0.05284084, -0.22599441, 100473.86, 100473.86, 0.00000072960836, 10.001947, 9.9973755 
2.0504878e+2, 3.1575528e+2, 262682.72, 76322.22, -14557.396, 0.003236187, -0.23304242, 263813.0, 263813.0, 0.000010315381, 10.002021, 9.999551 
2.1495557e+2, 1.2576275e+2, -1968989.4, -1694271.4, -14945.686, 0.001461268, -0.22878416, -1693460.6, 14045.053, 0.0004482875, 9.997639, 10.001279 
2.1496093e+2, 1.3576409e+2, -1864073.5, -1654449.0, 13065.56, 0.004964058, -0.1679963, -1653637.9, -44145.152, 0.00024549337, 9.997952, 10.000728 
2.1496622e+2, 1.4576396e+2, -1734738.5, -1565557.6, -1462.4617, 0.018125582, -0.24284248, -1565544.9, -54050.62, 0.00009091261, 9.99827, 10.000509 
2.1497071e+2, 1.5576498e+2, -1594981.1, -1454481.0, -7479.064, -0.028797405, -0.19086875, -1454084.0, -40599.734, 0.000015871614, 9.998588, 10.000446 
2.1497577e+2, 1.6576555e+2, -1480230.9, -1394713.5, 301.83844, -0.02784163, -0.15535201, -1394712.4, -79232.54, 0.00000031009594, 9.998901, 10.000032 
2.1498129e+2, 1.7576562e+2, -1336511.1, -1273719.9, 7394.8423, 0.010692234, -0.15533805, -1272860.8, -55379.7, 0.0, 9.999212, 10.000041 
2.1498625e+2, 1.8576548e+2, -1210380.5, -1172963.1, -2023.3955, 0.00894763, -0.16802193, -1172854.0, -53372.06, 0.0, 9.999452, 9.999945 
2.1499078e+2, 1.9576527e+2, -1085225.0, -1062466.5, -6799.38, -0.022886219, -0.18700108, -1060589.9, -39107.992, 0.0, 9.999641, 9.999939 
2.1499579e+2, 2.0576498e+2, -971719.75, -984462.3, 3532.3347, -0.026499424, -0.19528624, -970806.06, -47322.375, 0.0, 9.9998665, 9.999693 
2.1500112e+2, 2.1576463e+2, -836309.0, -868021.1, 6411.598, -0.00919677, -0.20276286, -835061.75, -9574.684, 0.0, 10.000121, 9.999697 
2.1500604e+2, 2.257642e+2, -711444.1, -776879.9, -3049.0085, -0.013885749, -0.20521672, -711302.4, 16187.985, 0.0, 10.000391, 9.999519 
2.1501066e+2, 2.3576374e+2, -575054.75, -664727.2, -920.2553, -0.034363713, -0.20687975, -575045.3, 54448.117, 0.0, 10.000674, 9.999479 
2.1501568e+2, 2.4576275e+2, -481630.5, -640579.75, 612.68536, -0.02149861, -0.21868299, -481628.13, 49874.246, 0.0, 10.000951, 9.998839 
2.1502098e+2, 2.5576138e+2, -344616.56, -523966.47, -4351.48, 0.015058739, -0.24279076, -344511.03, 89004.61, 0.0, 10.00122, 9.998838 
2.1502572e+2, 2.6576003e+2, -226327.11, -446360.44, -5538.1533, 0.00035578004, -0.24565335, -226187.81, 109340.664, 0.0, 10.001489, 9.998569 
2.1503006e+2, 2.757587e+2, -91761.25, -333741.78, 3057.9114, -0.049624555, -0.23904026, -91722.62, 145818.44, 0.0, 10.001753, 9.998542 
2.1503519e+2, 2.8575692e+2, -7273.0034, -292406.06, 2973.6333, -0.022221934, -0.24675727, -7241.995, 132316.33, 0.0, 10.001876, 9.998094 
2.1504077e+2, 2.957549e+2, 92911.96, -193052.5, 2436.2903, 0.05275487, -0.26133844, 92932.72, 134510.69, 0.0, 10.001889, 9.998096 
2.1504526e+2, 3.0575314e+2, 113391.03, -216223.31, 20879.86, -0.023947982, -0.22034404, 114708.43, 114708.43, 0.0000002906552, 10.001946, 9.997577 
2.1505031e+2, 3.1575054e+2, 277620.38, 107631.21, -14232.846, -0.04759044, -0.24258617, 278803.8, 278803.8, 0.0000060416633, 10.00202, 9.999766 
2.249534e+2, 1.2575734e+2, -1976614.0, -1693199.1, -16269.7705, 0.024384659, -0.21654415, -1692268.3, 15290.712, 0.0003850475, 9.997567, 10.001321 
2.2495878e+2, 1.3575855e+2, -1841966.0, -1632478.9, -2840.8303, -0.013236112, -0.18264407, -1632440.4, -22893.533, 0.00020561775, 9.998056, 10.000829 
2.249644e+2, 1.4575844e+2, -1716701.4, -1558865.6, -19493.477, 0.0020634332, -0.2564625, -1556493.8, -44945.824, 0.00007189719, 9.998403, 10.000492 
2.2496942e+2, 1.5575966e+2, -1585686.3, -1451128.0, -13803.629, -0.018742068, -0.18400152, -1449726.5, -36190.004, 0.000010694928, 9.998656, 10.000436 
2.2497474e+2, 1.6576025e+2, -1485389.6, -1390924.6, -9464.395, -0.018345604, -0.14904697, -1389985.6, -74453.89, 0.000000092361944, 9.998839, 10.000089 
2.2498026e+2, 1.7576022e+2, -1368180.5, -1282962.5, -14075.346, -0.0007099323, -0.16416633, -1280697.9, -63164.418, 0.0, 9.998969, 10.000094 
2.2498547e+2, 1.8576008e+2, -1234715.0, -1182672.8, -17807.64, -0.0066622556, -0.17979704, -1177162.8, -57628.363, 0.0, 9.999276, 9.999963 
2.2499038e+2, 1.9575995e+2, -1072674.3, -1054253.0, -10720.593, -0.030369803, -0.19329493, -1049329.8, -27795.896, 0.0, 9.999718, 9.999959 
2.2499569e+2, 2.0575976e+2, -956249.56, -973465.8, -2824.415, -0.028220085, -0.19384643, -955798.06, -32263.34, 0.0, 9.999957, 9.999724 
2.2500122e+2, 2.1575953e+2, -845211.3, -868830.94, -4667.421, -0.007138117, -0.19168746, -844322.44, -18785.598, 0.0, 10.000046, 9.999727 
2.2500643e+2, 2.2575904e+2, -723087.75, -781912.06, -12006.276, -0.010267742, -0.20294619, -720731.56, 6809.1245, 0.0, 10.000309, 9.999524 
2.2501138e+2, 2.3575836e+2, -570877.3, -662501.75, -13240.04, -0.030825227, -0.22677475, -569002.5, 60543.168, 0.0, 10.000701, 9.999482 
2.2501656e+2, 2.4575743e+2, -486456.28, -640193.8, -11610.173, -0.024352975, -0.2334428, -485584.4, 45969.65, 0.0, 10.000906, 9.998864 
2.2502194e+2, 2.5575635e+2, -379581.56, -537866.5, -4464.1816, 0.0010270721, -0.23197906, -379455.78, 54109.184, 0.0, 10.000967, 9.998864 
2.2502698e+2, 2.6575503e+2, -258125.44, -456580.9, -1642.1719, -0.0115054445, -0.23575486, -258111.84, 77465.81, 0.0, 10.001248, 9.998614 
2.2503178e+2, 2.7575353e+2, -97550.445, -331542.63, -7338.773, -0.049416684, -0.25029027, -97320.51, 140271.38, 0.0, 10.001692, 9.998587 
2.2503708e+2, 2.8575185e+2, -2753.7727, -286294.13, -16857.727, -0.021333637, -0.2496286, -1755.0245, 137853.0, 0.0, 10.00189, 9.99813 
2.250426e+2, 2.957502e+2, 95917.52, -188368.66, -4156.5234, 0.046387076, -0.23263378, 95978.29, 137602.64, 0.0, 10.001896, 9.998126 
2.2504716e+2, 3.0574808e+2, 119469.766, -209954.5, 15806.314, -0.028966144, -0.22985126, 120226.44, 120226.44, 0.000000085825576, 10.001973, 9.997608 
2.250523e+2, 3.1574553e+2, 289418.8, 112823.195, -34753.98, -0.054802522, -0.24987236, 296012.22, 296012.22, 0.0000031779714, 10.002104, 9.999762 
2.3495117e+2, 1.2575202e+2, -1985328.4, -1710706.6, 4613.494, 0.04517535, -0.17092933, -1710629.1, -3016.9553, 0.00032214387, 9.997565, 10.001202 
2.3495646e+2, 1.3575287e+2, -1845280.0, -1638254.8, 14709.844, -0.049319874, -0.16715546, -1637214.8, -27611.615, 0.00016659255, 9.998052, 10.000792 
2.3496255e+2, 1.457527e+2, -1706779.6, -1537946.8, -9969.58, -0.022718096, -0.25407124, -1537360.1, -25755.484, 0.00005400246, 9.998401, 10.000636 
2.3496838e+2, 1.5575401e+2, -1576334.9, -1432423.4, -4443.789, 0.01061644, -0.18626113, -1432286.3, -18694.482, 0.000006396683, 9.998659, 10.000564 
2.349738e+2, 1.6575457e+2, -1492051.4, -1405044.0, -4767.7324, 0.0037713596, -0.1548308, -1404783.5, -89196.34, 0.000000013163342, 9.998841, 9.99999 
2.3497893e+2, 1.7575444e+2, -1373486.5, -1293893.9, -8215.468, -0.030769588, -0.17048447, -1293054.8, -75464.71, 0.0, 9.998968, 10.00002 
2.3498444e+2, 1.8575434e+2, -1222137.1, -1156305.1, -1059.5935, -0.035783406, -0.18847245, -1156288.1, -36697.703, 0.0, 9.999275, 10.000144 
2.3499022e+2, 1.9575433e+2, -1060951.1, -1030057.94, 5042.979, -0.01917999, -0.20694526, -1029255.56, -7667.435, 0.0, 9.999719, 10.000125 
2.349958e+2, 2.0575424e+2, -958607.0, -978334.7, 426.01157, -0.0114175435, -0.20548287, -958597.8, -35009.6, 0.0, 9.999957, 9.999691 
2.3500124e+2, 2.1575406e+2, -847720.06, -873929.7, -396.41745, -0.010340075, -0.19531202, -847714.06, -22123.885, 0.0, 10.000046, 9.999692 
2.3500675e+2, 2.2575346e+2, -725695.9, -787007.25, 2800.071, -0.008650351, -0.21280639, -725568.25, 2026.8192, 0.0, 10.000308, 9.99949 
2.3501232e+2, 2.3575258e+2, -571963.56, -664562.7, 890.93787, -0.0060110386, -0.25367767, -571955.0, 57647.14, 0.0, 10.0007, 9.999469 
2.3501755e+2, 2.4575181e+2, -473931.03, -614177.06, -9359.077, -0.017245876, -0.25348312, -473309.22, 58299.688, 0.0, 10.000906, 9.999043 
2.350225e+2, 2.5575116e+2, -369028.2, -516060.0, -1176.9862, -0.039405774, -0.22675781, -369018.78, 64596.594, 0.0, 10.000967, 9.999014 
2.35028e+2, 2.6574993e+2, -266993.3, -475229.4, 14766.917, -0.034156393, -0.22091848, -265951.34, 69676.32, 0.0, 10.001249, 9.9984865 
2.350339e+2, 2.7574828e+2, -104216.63, -345125.78, 8319.44, -0.0062639997, -0.23850423, -103929.67, 133714.73, 0.0, 10.001691, 9.998494 
2.3503922e+2, 2.857467e+2, 11636.759, -256075.75, -16491.047, 0.004170238, -0.23743056, 12648.778, 152308.48, 0.0, 10.001888, 9.998338 
2.3504396e+2, 2.957453e+2, 108113.47, -163464.94, -3447.3657, -0.007051402, -0.21563643, 108157.23, 149829.88, 0.0, 10.001897, 9.998297 
2.3504874e+2, 3.0574274e+2, 110111.44, -229626.48, 20490.773, -0.06791588, -0.25472766, 111342.84, 111342.84, 0.000000016806371, 10.001974, 9.997473 
2.3505473e+2, 3.1574023e+2, 274078.66, 81468.98, -31606.867, -0.021605643, -0.2564086, 279132.7, 279132.7, 0.0000014346882, 10.002102, 9.999547 
2.4494883e+2, 1.2574607e+2, -1927939.6, -1689698.9, -7887.4824, 0.033881266, -0.15951689, -1689438.0, 18233.338, 0.00026278105, 9.997986, 10.001143 
2.4495445e+2, 1.3574702e+2, -1875273.5, -1651127.9, 3643.098, -0.043832548, -0.14781018, -1651068.6, -41407.41, 0.00013053669, 9.997839, 10.000806 
2.4496087e+2, 1.4574687e+2, -1758497.8, -1555778.8, -15280.898, -0.010208193, -0.23658498, -1554633.4, -42971.05, 0.000038366878, 9.998016, 10.0007 
2.4496698e+2, 1.557481e+2, -1601468.1, -1437557.0, -16327.377, 0.014430353, -0.18349802, -1435946.4, -22296.076, 0.000003303544, 9.998457, 10.000627 
2.4497262e+2, 1.6574864e+2, -1495846.5, -1402552.0, -18890.42, 0.0027060355, -0.15935625, -1398872.3, -83226.516, 0.00000000018007511, 9.998796, 10.00003 
2.449779e+2, 1.7574854e+2, -1357276.8, -1281365.3, -12272.695, -0.034064587, -0.17556995, -1279430.5, -61782.684, 0.0, 9.999061, 10.000062 
2.4498372e+2, 1.8574852e+2, -1217592.0, -1146334.9, -1264.7863, -0.03571052, -0.19187354, -1146312.5, -26665.225, 0.0, 9.999273, 10.000214 
2.4498989e+2, 1.957486e+2, -1094942.4, -1038604.1, -3777.24, -0.011568564, -0.20768218, -1038352.0, -16707.799, 0.0, 9.999453, 10.000194 
2.4499567e+2, 2.0574853e+2, -990249.6, -989475.6, -12048.819, -0.008254986, -0.20838127, -977807.6, -54163.543, 0.0, 9.9997225, 9.999727 
2.450012e+2, 2.1574834e+2, -842817.75, -867673.8, -7709.745, -0.020569952, -0.20334195, -840620.6, -14974.473, 0.0, 10.000062, 9.999728 
2.4500695e+2, 2.2574782e+2, -727519.44, -782206.0, 2982.2322, -0.017583255, -0.21854056, -727357.25, 293.13528, 0.0, 10.00027, 9.999541 
2.450129e+2, 2.3574704e+2, -614794.7, -678954.1, 7379.7446, -0.0027175662, -0.25249138, -613956.8, 15699.396, 0.0, 10.00038, 9.999524 
2.4501841e+2, 2.4574633e+2, -493749.03, -616639.2, -2991.9868, -0.014945278, -0.25422478, -493676.22, 37986.344, 0.0, 10.000739, 9.999106 
2.4502353e+2, 2.5574565e+2, -318518.3, -484873.4, -3444.5056, -0.048069075, -0.235508, -318447.03, 115222.195, 0.0, 10.001285, 9.999076 
2.4502927e+2, 2.6574454e+2, -235322.36, -451865.8, 12204.693, -0.041511446, -0.22669025, -234636.66, 101043.97, 0.0, 10.001432, 9.998558 
2.4503541e+2, 2.7574304e+2, -159496.64, -363536.5, 19958.063, -0.0032948612, -0.23356834, -157562.78, 80132.95, 0.0, 10.001275, 9.998568 
2.450409e+2, 2.8574157e+2, -41717.676, -270687.16, 34.859516, 0.0044862004, -0.23099649, -41717.668, 97992.23, 0.0, 10.001473, 9.998438 
2.4504578e+2, 2.9574022e+2, 121267.03, -147365.19, 4656.094, -0.018422024, -0.21360947, 121347.71, 163069.72, 0.0, 10.001946, 9.9983835 
2.4505079e+2, 3.0573744e+2, 134058.83, -220956.84, 23935.764, -0.070288815, -0.27805978, 135665.34, 135665.34, 0.0000000018495133, 10.0021515, 9.997445 
2.4505693e+2, 3.1573528e+2, 266572.5, 57359.496, -22675.904, -0.012587815, -0.23994268, 269002.06, 269002.06, 0.00000052479436, 10.002138, 9.999364 
2.5494635e+2, 1.2573949e+2, -1926878.6, -1686970.9, -10985.334, -0.011524041, -0.18294427, -1686469.0, 21267.953, 0.00020966213, 9.997983, 10.001164 
2.5495273e+2, 1.3574095e+2, -1869627.4, -1640091.5, -828.19006, 0.0012790642, -0.12572448, -1640088.5, -30367.234, 0.00009902935, 9.997841, 10.000881 
2.5495937e+2, 1.4574094e+2, -1759482.3, -1558092.1, 843.89905, 0.037925955, -0.20461053, -1558088.6, -46367.44, 0.000025643241, 9.998017, 10.000684 
2.5496522e+2, 1.5574192e+2, -1601954.6, -1437865.8, -378.14648, -0.0077797356, -0.17506155, -1437864.9, -24152.783, 0.0000014046367, 9.998454, 10.000626 
2.5497115e+2, 1.6574243e+2, -1484289.6, -1377967.8, -9146.662, -0.022218248, -0.1618872, -1377186.6, -61479.26, 0.0, 9.998795, 10.000199 
2.549772e+2, 1.7574249e+2, -1346121.4, -1258686.9, -2618.4375, -0.0117919305, -0.17913869, -1258608.5, -40901.832, 0.0, 9.999063, 10.0002165 
2.5498325e+2, 1.8574257e+2, -1219851.5, -1151327.5, 5332.6357, -0.007636314, -0.19001988, -1150915.0, -31209.914, 0.0, 9.999274, 10.000178 
2.5498936e+2, 1.9574273e+2, -1096535.6, -1041936.9, 3514.9592, -0.008101903, -0.1957029, -1041711.5, -20009.318, 0.0, 9.999453, 10.000171 
2.549953e+2, 2.0574263e+2, -983111.7, -974403.56, 819.31476, -0.019199116, -0.20269471, -974327.2, -50624.8, 0.0, 9.999722, 9.999831 
2.5500107e+2, 2.1574236e+2, -835463.25, -852149.75, 4639.4873, -0.038346987, -0.21560417, -834260.06, -8555.157, 0.0, 10.000061, 9.999835 
2.5500703e+2, 2.2574207e+2, -718186.5, -762600.75, 7035.416, -0.03766308, -0.22045583, -717098.7, 10608.018, 0.0, 10.000269, 9.999677 
2.5501308e+2, 2.3574175e+2, -606426.8, -661417.7, 12675.469, -0.021658083, -0.22340518, -603645.75, 26062.227, 0.0, 10.000379, 9.999645 
2.550191e+2, 2.4574095e+2, -496782.1, -622859.8, 17402.5, -0.018474853, -0.23572771, -494424.13, 37290.992, 0.0, 10.000738, 9.999064 
2.5502503e+2, 2.557398e+2, -319602.84, -486812.84, 15407.119, -0.025787128, -0.25806883, -318195.03, 115531.41, 0.0, 10.001283, 9.9990635 
2.5503078e+2, 2.657388e+2, -217394.4, -414374.84, 6300.6177, -0.03418321, -0.25301558, -217193.1, 118543.45, 0.0, 10.0014305, 9.9988165 
2.5503632e+2, 2.7573782e+2, -143092.66, -329850.34, 15683.198, -0.040765677, -0.23544729, -141784.8, 95961.16, 0.0, 10.001276, 9.998799 
2.550421e+2, 2.8573647e+2, -41922.43, -271209.56, 17400.059, -0.021056484, -0.23036008, -40609.5, 99149.21, 0.0, 10.001474, 9.998434 
2.55048e+2, 2.9573497e+2, 121437.64, -146429.56, 21185.27, 0.01039434, -0.22648475, 123102.805, 164875.31, 0.0, 10.001945, 9.998391 
2.5505325e+2, 3.0573216e+2, 139330.33, -210129.23, 23656.016, -0.037316456, -0.30037522, 140924.4, 140924.4, 0.000000000039700524, 10.0021515, 9.99752 
2.5505894e+2, 3.157307e+2, 256911.8, 35919.957, -24095.943, -0.028338552, -0.20188639, 259508.6, 259508.6, 0.00000015406697, 10.002143, 9.999215 
2.649443e+2, 1.25733e+2, -1972921.8, -1697501.0, -9916.809, -0.0005875463, -0.1796471, -1697144.4, 10656.825, 0.00016490842, 9.997617, 10.001268 
2.6495078e+2, 1.3573447e+2, -1805031.6, -1593583.4, 1767.9268, 0.0013866766, -0.13854647, -1593568.6, 16215.968, 0.000073287774, 9.998219, 10.001019 
2.6495764e+2, 1.4573453e+2, -1700253.5, -1542802.3, 1780.8331, 0.03806566, -0.20835185, -1542782.1, -30998.238, 0.000016155976, 9.998482, 10.000566 
2.649637e+2, 1.557356e+2, -1601124.4, -1447523.4, -7157.3564, -0.00878433, -0.15911259, -1447190.6, -33415.43, 0.00000046134082, 9.998504, 10.000535 
2.649699e+2, 1.6573617e+2, -1490603.6, -1357933.0, -16232.397, -0.021114165, -0.14670356, -1355975.9, -40206.32, 0.0, 9.998652, 10.000405 
2.6497623e+2, 1.7573628e+2, -1356657.9, -1242939.5, -7595.141, -0.00683117, -0.17933904, -1242434.5, -24667.293, 0.0, 9.998901, 10.000402 
2.6498252e+2, 1.8573642e+2, -1242036.9, -1168985.5, -1076.374, -0.005146573, -0.19061004, -1168969.6, -49204.43, 0.0, 9.999152, 10.000116 
2.6498875e+2, 1.9573662e+2, -1106852.1, -1052674.6, -5251.3457, -0.012993816, -0.18555337, -1052170.3, -30407.49, 0.0, 9.999407, 10.000119 
2.649949e+2, 2.0573659e+2, -996595.56, -969308.94, -8475.177, -0.021359762, -0.1901085, -966890.8, -43128.277, 0.0, 9.999579, 9.999936 
2.6500103e+2, 2.1573637e+2, -881623.06, -862573.1, -4539.9434, -0.030079076, -0.20699808, -861546.5, -35782.484, 0.0, 9.999694, 9.99994 
2.650072e+2, 2.2573614e+2, -749509.6, -766195.25, -1175.7811, -0.031712662, -0.21578582, -749427.2, -21662.21, 0.0, 10.000005, 9.99978 
2.6501343e+2, 2.3573588e+2, -587546.25, -641317.3, 2068.2542, -0.027876807, -0.22241725, -587466.8, 42298.656, 0.0, 10.000461, 9.999744 
2.650197e+2, 2.4573518e+2, -513220.4, -624534.6, 8052.4, -0.022592707, -0.23262246, -512640.9, 19130.744, 0.0, 10.000599, 9.999121 
2.6502603e+2, 2.5573418e+2, -429583.94, -532366.9, 12862.303, -0.016875403, -0.24837409, -427998.78, 5783.121, 0.0, 10.000496, 9.999129 
2.6503196e+2, 2.6573318e+2, -297833.97, -434952.97, 3151.8801, -0.028168, -0.25349697, -297761.56, 38029.902, 0.0, 10.0008, 9.99898 
2.6503757e+2, 2.7573216e+2, -113026.1, -298748.0, 5850.825, -0.049670022, -0.25858513, -112841.96, 124958.82, 0.0, 10.001412, 9.998946 
2.6504362e+2, 2.8573087e+2, -8605.682, -258245.47, 5201.217, -0.029958688, -0.24911359, -8497.362, 131315.33, 0.0, 10.001718, 9.9984045 
2.650499e+2, 2.957296e+2, 96042.54, -160409.36, 6270.772, 0.012743956, -0.21991551, 96195.78, 138020.77, 0.0, 10.001778, 9.998375 
2.650554e+2, 3.0572674e+2, 134397.23, -189826.06, 10922.995, -0.03132158, -0.3062568, 134764.81, 134764.81, 0.0, 10.002021, 9.997723 
2.650611e+2, 3.1572554e+2, 293625.66, 47602.39, -29435.754, -0.03935537, -0.20473075, 297098.5, 297098.5, 0.000000038019415, 10.002423, 9.999159 
2.7494258e+2, 1.2572663e+2, -1960378.9, -1671055.5, 16456.885, 0.06467785, -0.14961845, -1670122.4, 37742.02, 0.00012966055, 9.997616, 10.00145 
2.7494854e+2, 1.3572755e+2, -1791410.0, -1564564.3, 22078.176, -0.04418958, -0.18529455, -1562435.5, 47415.87, 0.00005392466, 9.998215, 10.001219 
2.7495563e+2, 1.4572768e+2, -1716073.4, -1575050.5, 2101.9045, -0.011015854, -0.24712916, -1575019.1, -63168.883, 0.0000098627, 9.998479, 10.000345 
2.7496234e+2, 1.5572914e+2, -1613614.8, -1473632.5, -5968.011, 0.009104469, -0.13566977, -1473378.5, -59539.16, 0.00000011248763, 9.998505, 10.000356 
2.7496877e+2, 1.6572988e+2, -1473534.8, -1322802.1, -7166.455, 0.0039992896, -0.11387781, -1322462.3, -6629.8364, 0.0, 9.998653, 10.000647 
2.74975e+2, 1.7572992e+2, -1341397.8, -1211266.1, 1742.3003, -0.019673955, -0.17589939, -1211242.9, 6586.5645, 0.0, 9.9989, 10.00062 
2.749814e+2, 1.8573004e+2, -1248953.1, -1182887.0, 8406.8, -0.028796325, -0.19338591, -1181834.0, -62006.51, 0.0, 9.999151, 10.000022 
2.74988e+2, 1.9573025e+2, -1112665.8, -1064607.6, 3967.625, -0.027083239, -0.1769594, -1064282.3, -42456.297, 0.0, 9.999406, 10.000038 
2.7499455e+2, 2.0573036e+2, -989203.3, -953870.4, -4245.751, -0.015536703, -0.17061937, -953367.3, -29542.62, 0.0, 9.999578, 10.000042 
2.7500105e+2, 2.1573037e+2, -874289.2, -847406.6, 874.3498, 0.003276953, -0.1777364, -847378.25, -21554.533, 0.0, 9.999694, 10.000045 
2.7500752e+2, 2.2573003e+2, -744465.7, -755515.06, 16057.856, -0.0007436042, -0.20454326, -733008.7, -5183.4155, 0.0, 10.000004, 9.999853 
2.7501398e+2, 2.3572946e+2, -581773.44, -629287.0, 17870.74, -0.021589635, -0.24958383, -575802.3, 54026.35, 0.0, 10.000461, 9.999827 
2.7502027e+2, 2.4572901e+2, -502982.5, -603118.44, 3983.53, -0.027472503, -0.24522115, -502824.28, 29007.953, 0.0, 10.000598, 9.999268 
2.7502647e+2, 2.5572872e+2, -419875.03, -512216.25, 10815.626, -0.022511287, -0.20702758, -418625.16, 15210.577, 0.0, 10.000495, 9.999269 
2.750328e+2, 2.6572764e+2, -292595.56, -423927.7, 25936.7, -0.024868004, -0.22834523, -287658.9, 48186.56, 0.0, 10.000799, 9.999055 
2.750392e+2, 2.75726e+2, -108338.06, -288387.53, 27659.727, -0.03097543, -0.302864, -104184.7, 133675.48, 0.0, 10.00141, 9.999019 
2.7504542e+2, 2.857248e+2, -13350.262, -267299.2, 7428.9946, -0.022840478, -0.28755438, -13133.12, 126738.68, 0.0, 10.001715, 9.998344 
2.7505141e+2, 2.957241e+2, 93347.05, -166281.81, 9246.672, -0.011332017, -0.19417366, 93675.945, 135555.42, 0.0, 10.001779, 9.998335 
2.750572e+2, 3.0572125e+2, 157192.16, -142950.84, 25782.645, -0.052671596, -0.29564738, 159390.81, 159390.81, 0.0, 10.002023, 9.998044 
2.7506346e+2, 3.157198e+2, 295755.34, 52135.09, -16158.306, -0.048058536, -0.24673904, 296822.38, 296822.38, 0.00000000643165, 10.002422, 9.99919 
2.8494066e+2, 1.2572001e+2, -1840093.1, -1635956.9, 38578.043, 0.06919419, -0.15818566, -1628909.6, 79019.29, 0.00010364884, 9.998539, 10.001246 
2.8494674e+2, 1.3572103e+2, -1805247.0, -1587568.5, 8873.809, -0.04336121, -0.17003764, -1587207.4, 22708.602, 0.000040612387, 9.998191, 10.001073 
2.8495398e+2, 1.457211e+2, -1756901.9, -1592213.3, -11816.371, -0.009865121, -0.23038232, -1591369.8, -79454.234, 0.0000062724685, 9.998189, 10.000367 
2.849608e+2, 1.5572233e+2, -1615180.1, -1471742.6, -2438.1924, 0.0050458177, -0.14533745, -1471701.1, -57794.87, 0.000000028346124, 9.998483, 10.00038 
2.8496745e+2, 1.6572306e+2, -1467596.0, -1319911.8, -4938.811, 0.0017815663, -0.124632336, -1319746.8, -3847.6035, 0.0, 9.998694, 10.000647 
2.8497392e+2, 1.7572331e+2, -1349425.1, -1214611.5, -14426.883, -0.014797561, -0.16704175, -1213084.9, 4809.6187, 0.0, 9.998844, 10.000625 
2.8498057e+2, 1.8572347e+2, -1268647.9, -1188448.5, -9585.822, -0.022645982, -0.18213356, -1187318.6, -67426.41, 0.0, 9.999, 10.000056 
2.8498733e+2, 1.9572362e+2, -1145717.8, -1076819.3, -4527.188, -0.023840722, -0.17647442, -1076523.0, -54631.684, 0.0, 9.999164, 10.000071 
2.8499407e+2, 2.057237e+2, -1001811.9, -957266.0, -9755.498, -0.014614381, -0.17306474, -955223.25, -31333.178, 0.0, 9.99948, 10.000067 
2.8500083e+2, 2.1572377e+2, -840841.8, -828405.9, -11149.741, 0.0020879505, -0.17715102, -821857.5, 4031.1042, 0.0, 9.99991, 10.000071 
2.8500757e+2, 2.257235e+2, -735628.7, -746899.9, -3041.8445, 0.0018126712, -0.19879907, -734860.2, -6970.5664, 0.0, 10.000046, 9.999892 
2.8501427e+2, 2.3572306e+2, -651498.6, -657248.8, -3788.4773, -0.010407083, -0.23647743, -649617.8, -19725.498, 0.0, 9.999957, 9.999877 
2.8502077e+2, 2.457227e+2, -539379.6, -600249.3, -15008.648, -0.020824704, -0.23747635, -535880.1, -3985.2358, 0.0, 10.00026, 9.99945 
2.8502703e+2, 2.557224e+2, -355501.84, -462462.97, -5538.792, -0.03036795, -0.21428011, -355215.78, 78681.45, 0.0, 10.000857, 9.999435 
2.8503367e+2, 2.6572144e+2, -260709.69, -409419.47, 6400.625, -0.025627913, -0.23286477, -260434.7, 75471.26, 0.0, 10.001023, 9.999047 
2.8504053e+2, 2.7571994e+2, -188446.95, -326655.44, 1655.1108, -0.008060712, -0.29098982, -188427.14, 49492.594, 0.0, 10.000858, 9.999022 
2.8504696e+2, 2.8571877e+2, -96129.33, -298219.63, -11786.6455, -0.007170022, -0.27545726, -95444.21, 44486.81, 0.0, 10.001108, 9.998424 
2.85053e+2, 2.9571807e+2, 84122.63, -162531.52, 201.90907, -0.025780886, -0.19367611, 84122.8, 126061.69, 0.0, 10.001681, 9.998406 
2.850592e+2, 3.0571526e+2, 181444.34, -119850.79, 13667.0625, -0.06101267, -0.2976394, 182063.03, 182063.03, 0.0, 10.002141, 9.998145 
2.8506598e+2, 3.157139e+2, 292717.84, 30090.398, -45958.656, -0.03927357, -0.2524972, 300528.13, 300528.13, 0.00000000043435586, 10.002491, 9.999007 
2.9493862e+2, 1.2571318e+2, -1880685.6, -1722171.0, 30520.04, 0.0097881965, -0.20554782, -1716497.9, -8503.375, 0.000085497144, 9.998548, 10.000651 
2.9494536e+2, 1.3571489e+2, -1839909.3, -1659777.0, -3468.848, 0.001422263, -0.0920769, -1659710.3, -49731.863, 0.000032281903, 9.998192, 10.000578 
2.9495263e+2, 1.4571483e+2, -1739219.8, -1555233.6, -1042.504, 0.03951173, -0.15717709, -1555227.6, -43248.5, 0.0000046245973, 9.998188, 10.000622 
2.94959e+2, 1.5571517e+2, -1599950.8, -1439919.8, 8201.419, -0.021847898, -0.18751124, -1439500.6, -25524.625, 0.00000001715619, 9.998482, 10.000599 
2.9496583e+2, 1.6571574e+2, -1484910.4, -1355228.6, 366.157, -0.02858319, -0.17860709, -1355227.6, -39257.617, 0.0, 9.9986925, 10.000405 
2.9497296e+2, 1.7571643e+2, -1364720.0, -1245632.9, -8812.867, 0.0062436718, -0.15277395, -1244984.3, -27021.596, 0.0, 9.998841, 10.000413 
2.949799e+2, 1.8571669e+2, -1257752.9, -1165435.1, -3460.1587, 0.012042637, -0.15680383, -1165305.6, -45346.27, 0.0, 9.998998, 10.000216 
2.949867e+2, 1.9571666e+2, -1135557.4, -1055788.4, 2498.3806, -0.0037782227, -0.18407875, -1055710.3, -33751.41, 0.0, 9.999164, 10.000216 
2.949935e+2, 2.0571662e+2, -1006013.0, -965819.3, 6507.3066, -0.018911665, -0.19741252, -964792.0, -40833.332, 0.0, 9.999479, 10.000009 
2.950004e+2, 2.1571659e+2, -844637.8, -836156.3, 3881.5244, -0.034143586, -0.20559041, -834648.1, -8689.297, 0.0, 9.999909, 10.000018 
2.9500735e+2, 2.257166e+2, -735497.3, -746412.3, -6537.147, -0.024507675, -0.19881411, -732439.06, -4481.0166, 0.0, 10.000045, 9.999896 
2.9501438e+2, 2.3571667e+2, -650311.2, -654661.2, -5242.4663, 0.004425712, -0.18352172, -646810.44, -16854.107, 0.0, 9.999957, 9.999896 
2.950212e+2, 2.4571618e+2, -524166.47, -568489.7, 7442.682, -0.0038000508, -0.20934558, -522950.1, 9009.471, 0.0, 10.000259, 9.999668 
2.950278e+2, 2.5571528e+2, -341792.53, -433750.53, 15071.979, -0.04091986, -0.26990828, -339385.25, 94581.11, 0.0, 10.000856, 9.999634 
2.9503465e+2, 2.6571456e+2, -267761.9, -423680.28, -86.13884, -0.030407794, -0.26707703, -267761.84, 68211.06, 0.0, 10.001021, 9.99895 
2.9504165e+2, 2.7571398e+2, -193402.75, -337036.63, -2826.3938, 0.017908925, -0.22419788, -193347.16, 44632.355, 0.0, 10.000859, 9.99895 
2.950483e+2, 2.8571287e+2, -81113.42, -267002.5, 9496.919, 0.015510607, -0.21370767, -80629.49, 59360.96, 0.0, 10.001108, 9.998638 
2.950546e+2, 2.957115e+2, 96320.25, -136489.11, 21354.42, -0.031919412, -0.21798688, 98262.77, 140266.06, 0.0, 10.001678, 9.998587 
2.9506138e+2, 3.057088e+2, 173069.4, -136871.03, 26776.793, -0.05730585, -0.31170702, 175365.73, 175365.73, 0.0, 10.002139, 9.99803 
2.950687e+2, 3.1570777e+2, 266514.88, -26071.59, -32908.113, -0.014673823, -0.22346708, 270170.5, 270170.5, 0.0, 10.002497, 9.998618 
3.0493683e+2, 1.2570657e+2, -1929244.6, -1766471.9, 6007.3096, -0.010488773, -0.19238672, -1766250.5, -58191.004, 0.000073591786, 9.998307, 10.000463 
3.0494383e+2, 1.3570806e+2, -1792308.4, -1652170.8, -4651.876, 0.0070886635, -0.08274412, -1652016.5, -41970.223, 0.000027638554, 9.998586, 10.00044 
3.049512e+2, 1.4570796e+2, -1665481.6, -1516590.8, 7949.7393, 0.053723436, -0.14838514, -1516167.5, -4120.0576, 0.000004191702, 9.998681, 10.000649 
3.049576e+2, 1.5570827e+2, -1574153.8, -1425435.0, 307.28717, -0.018397197, -0.18435445, -1425434.4, -11390.853, 0.000000032166714, 9.9986515, 10.000616 
3.0496457e+2, 1.6570877e+2, -1478630.5, -1362684.5, -6160.706, -0.027850837, -0.17852157, -1362358.1, -46319.94, 0.0, 9.998782, 10.000311 
3.0497193e+2, 1.7570935e+2, -1341624.1, -1244537.3, -5159.1304, 0.009225681, -0.15382458, -1244263.9, -26231.621, 0.0, 9.999043, 10.000323 
3.0497906e+2, 1.8570955e+2, -1220643.8, -1146995.9, -3023.3708, 0.017886998, -0.15975168, -1146871.9, -26842.408, 0.0, 9.99925, 10.00022 
3.0498606e+2, 1.957095e+2, -1098196.3, -1037286.3, -8534.93, 0.005466722, -0.18945329, -1036113.0, -14084.323, 0.0, 9.999419, 10.000219 
3.0499306e+2, 2.0570944e+2, -1003589.0, -972409.8, -7004.701, -0.01300285, -0.20197654, -970908.44, -46879.477, 0.0, 9.999531, 9.999938 
3.0500013e+2, 2.1570936e+2, -894275.4, -867062.5, -10871.107, -0.036528926, -0.20638813, -863252.94, -37222.777, 0.0, 9.9995985, 9.999956 
3.0500722e+2, 2.2570944e+2, -754830.3, -749223.94, -21680.377, -0.03133506, -0.19340406, -730166.25, -2137.3018, 0.0, 9.999884, 9.999954 
3.0501443e+2, 2.3570965e+2, -591832.6, -620278.1, -16321.239, -0.003996753, -0.17053975, -584406.56, 45619.277, 0.0, 10.000332, 9.999951 
3.0502158e+2, 2.4570917e+2, -491715.9, -549634.7, -7393.0137, -0.0031920008, -0.199577, -490787.13, 41241.734, 0.0, 10.000469, 9.999698 
3.050286e+2, 2.557082e+2, -409649.06, -462493.8, -14305.898, -0.0229739, -0.27069455, -406024.78, 28011.52, 0.0, 10.000374, 9.999668 
3.050356e+2, 2.6570755e+2, -319037.78, -439534.66, -30147.844, -0.018030982, -0.26656935, -311915.84, 24126.252, 0.0, 10.000632, 9.999028 
3.0504254e+2, 2.7570716e+2, -144634.33, -305512.4, -19905.125, 0.0073383385, -0.21358842, -142208.1, 95838.88, 0.0, 10.001161, 9.999021 
3.050495e+2, 2.85706e+2, -37920.703, -246600.03, -7568.4136, 0.010662424, -0.20467438, -37646.574, 102411.19, 0.0, 10.001408, 9.998634 
3.050564e+2, 2.9570457e+2, 60065.445, -154291.27, -11307.826, -0.008488845, -0.21901, 60660.31, 102731.91, 0.0, 10.001431, 9.998583 
3.0506364e+2, 3.0570212e+2, 143113.69, -140255.31, 6728.6587, -0.0328654, -0.29277277, 143273.38, 143273.38, 0.0, 10.001885, 9.998128 
3.050712e+2, 3.1570098e+2, 283956.25, -31309.967, -38720.06, -0.025885561, -0.22258975, 288642.1, 288642.1, 0.0, 10.002677, 9.998495 
3.1493533e+2, 1.2570018e+2, -1914508.5, -1735787.3, 23628.701, 0.006180285, -0.11706548, -1732716.1, -24592.262, 0.00006650563, 9.998306, 10.000673 
3.1494206e+2, 1.3570058e+2, -1776195.8, -1620111.1, 5078.7437, -0.028785696, -0.14271557, -1619946.0, -9826.313, 0.000025576577, 9.998591, 10.000657 
3.149497e+2, 1.4570051e+2, -1678890.3, -1545039.8, 6382.54, 0.03045698, -0.2043377, -1544736.1, -32615.865, 0.000004447986, 9.998684, 10.000453 
3.1495658e+2, 1.5570167e+2, -1587006.9, -1451757.1, -7.409381, 0.013327143, -0.13559636, -1451757.1, -37648.09, 0.00000006594377, 9.99865, 10.000437 
3.1496364e+2, 1.6570215e+2, -1476318.4, -1357457.4, 3737.0186, 0.0023138267, -0.124061786, -1357340.0, -41236.44, 0.0, 9.99878, 10.000347 
3.1497082e+2, 1.7570207e+2, -1339931.3, -1241074.6, 4591.2666, -0.0064498703, -0.16998094, -1240861.9, -22758.357, 0.0, 9.999043, 10.000347 
3.149781e+2, 1.8570206e+2, -1231123.4, -1168614.0, 3215.1, -0.0059731887, -0.19075029, -1168449.0, -48346.348, 0.0, 9.999249, 10.0000725 
3.1498545e+2, 1.9570214e+2, -1108287.6, -1057973.0, -2275.9565, 0.0029180245, -0.19283509, -1057870.3, -35769.41, 0.0, 9.999417, 10.000078 
3.1499276e+2, 2.0570216e+2, -1009586.0, -984622.5, -4403.504, 0.0022783824, -0.18690589, -983868.5, -59767.574, 0.0, 9.999529, 9.999855 
3.15e+2, 2.157021e+2, -899424.1, -877484.6, -7102.5215, -0.006020276, -0.17947708, -875386.06, -49283.473, 0.0, 9.999598, 9.999885 
3.1500724e+2, 2.2570206e+2, -747149.8, -733227.2, -4625.111, -0.01935876, -0.18235509, -731830.75, -3728.3508, 0.0, 9.999884, 10.000065 
3.1501445e+2, 2.35702e+2, -585455.75, -607046.0, -755.81525, -0.035992227, -0.1975319, -585429.3, 44671.56, 0.0, 10.000332, 10.000042 
3.1502187e+2, 2.4570166e+2, -503023.28, -573208.56, -11311.63, -0.019322881, -0.20816605, -501245.25, 30857.584, 0.0, 10.000469, 9.999536 
3.150294e+2, 2.5570112e+2, -418532.72, -480908.7, -16336.137, 0.021862524, -0.21770583, -414513.3, 19593.824, 0.0, 10.000373, 9.999542 
3.150365e+2, 2.6570037e+2, -301740.5, -403336.0, -10395.291, 0.010293085, -0.23186325, -300687.78, 35425.8, 0.0, 10.000631, 9.999277 
3.1504324e+2, 2.7569944e+2, -130041.484, -274742.34, -1217.014, -0.039803002, -0.2578439, -130031.25, 108090.77, 0.0, 10.001159, 9.999233 
3.150506e+2, 2.8569832e+2, -53686.773, -279114.28, -7006.04, -0.021588905, -0.24696088, -53469.242, 86663.586, 0.0, 10.001406, 9.998411 
3.1505835e+2, 2.9569724e+2, 47775.02, -180826.63, -8711.725, 0.042610213, -0.1986165, 48106.53, 90250.48, 0.0, 10.001435, 9.9984 
3.1506595e+2, 3.0569518e+2, 164283.97, -96564.45, 36148.617, 0.010867623, -0.24301998, 169200.8, 169200.8, 0.0, 10.001887, 9.998427 
3.150734e+2, 3.1569362e+2, 292166.03, -12533.522, -10621.031, -0.0742746, -0.24633156, 292535.8, 292535.8, 0.0, 10.00267, 9.998628 
3.2493404e+2, 1.256931e+2, -1860902.1, -1708100.5, 26752.105, 0.028665937, -0.104945324, -1703552.1, 4641.445, 0.00006287029, 9.998668, 10.000688 
3.249404e+2, 1.3569333e+2, -1810662.8, -1631868.3, -14972.503, -0.041255582, -0.15149744, -1630623.1, -20432.025, 0.000025189593, 9.998336, 10.000699 
3.249481e+2, 1.4569332e+2, -1717223.1, -1563562.8, -4360.769, 0.018240245, -0.20992798, -1563439.1, -51248.164, 0.0000050024137, 9.998422, 10.000451 
3.2495543e+2, 1.5569459e+2, -1557275.0, -1438102.9, 3293.9932, 0.024371998, -0.12785183, -1438011.9, -23833.787, 0.000000115129794, 9.998857, 10.00043 
3.249627e+2, 1.6569504e+2, -1443645.3, -1353272.6, 5592.891, 0.015910178, -0.11580894, -1352927.9, -36754.56, 0.0, 9.999054, 10.000244 
3.2496986e+2, 1.7569476e+2, -1343148.1, -1253449.3, -3853.8691, -0.0069855805, -0.16982748, -1253284.0, -35108.688, 0.0, 9.999069, 10.000249 
3.2497728e+2, 1.8569465e+2, -1238560.3, -1178163.9, -2838.775, -0.011056309, -0.19338784, -1178030.8, -57855.223, 0.0, 9.999225, 10.000018 
3.249849e+2, 1.9569468e+2, -1101745.0, -1061332.1, -2088.8752, 0.00058134954, -0.19467536, -1061224.5, -39050.42, 0.0, 9.99949, 10.00002 
3.2499242e+2, 2.0569472e+2, -986489.6, -980157.56, -3246.4783, 0.007424556, -0.1809701, -978788.9, -54614.84, 0.0, 9.999716, 9.999796 
3.249999e+2, 2.1569476e+2, -857838.4, -863895.25, -3969.4614, 0.010098951, -0.16007744, -855874.0, -29698.742, 0.0, 9.999911, 9.999826 
3.2500735e+2, 2.2569457e+2, -725170.25, -731387.4, -2840.2852, -0.0052116374, -0.1689689, -724068.06, 4108.4087, 0.0, 10.0000725, 9.999987 
3.2501474e+2, 2.3569421e+2, -608457.4, -626231.7, -13620.921, -0.033685237, -0.20505756, -601080.7, 29096.967, 0.0, 10.000209, 9.9999695 
3.2502228e+2, 2.4569386e+2, -511793.5, -579182.9, -31185.207, -0.023156943, -0.21231076, -499576.88, 32602.914, 0.0, 10.000417, 9.999519 
3.2502988e+2, 2.5569355e+2, -375127.53, -462051.75, -25241.035, 0.016219229, -0.19992696, -368329.66, 65852.64, 0.0, 10.00068, 9.999524 
3.2503724e+2, 2.6569277e+2, -270407.34, -390756.16, -18064.564, 0.008991139, -0.21465471, -267754.28, 68434.65, 0.0, 10.000856, 9.999255 
3.2504436e+2, 2.7569163e+2, -158886.69, -290657.9, -29453.074, -0.031834938, -0.2571799, -152603.08, 85595.93, 0.0, 10.00097, 9.999215 
3.2505193e+2, 2.856904e+2, -76709.836, -291642.66, -37755.3, -0.019355152, -0.25553757, -70270.62, 69940.04, 0.0, 10.001254, 9.998399 
3.2505974e+2, 2.9568928e+2, 80950.08, -166589.23, -24073.15, 0.027634978, -0.2123092, 83269.46, 125491.75, 0.0, 10.001672, 9.9983835 
3.2506785e+2, 3.0568755e+2, 178386.75, -84426.35, 25760.758, 0.0074756555, -0.22312403, 180888.0, 180888.0, 0.0, 10.001962, 9.998475 
3.2507595e+2, 3.1568575e+2, 214765.34, -52384.0, -39682.08, -0.057636302, -0.2527003, 220535.08, 220535.08, 0.0, 10.002149, 9.998605 
3.3493295e+2, 1.2568532e+2, -1873075.3, -1735169.0, 23013.652, 0.05350843, -0.1564581, -1731429.9, -23161.184, 0.000061273975, 9.998675, 10.000499 
3.3493882e+2, 1.3568635e+2, -1820539.1, -1651453.6, -25734.29, -0.03158031, -0.10828189, -1647623.6, -37363.55, 0.000025556885, 9.998331, 10.0005665 
3.349465e+2, 1.4568639e+2, -1705352.1, -1537684.9, 12434.271, 0.015849963, -0.16479377, -1536767.8, -24508.36, 0.0000055599335, 9.998416, 10.000631 
3.349542e+2, 1.5568706e+2, -1546044.8, -1414990.1, 19163.725, 0.0130633535, -0.16152991, -1412245.4, 2005.7534, 0.00000016881297, 9.9988575, 10.000588 
3.349617e+2, 1.6568741e+2, -1460284.5, -1387972.0, 6127.9263, 0.011227389, -0.15391202, -1387456.4, -71209.14, 0.0, 9.999054, 10.000007 
3.3496904e+2, 1.7568743e+2, -1358627.9, -1285404.5, -2332.759, 0.006699598, -0.15344276, -1285330.3, -67082.734, 0.0, 9.999068, 10.0000305 
3.349766e+2, 1.8568733e+2, -1236649.3, -1173839.4, 7275.4453, 0.0017988838, -0.16787763, -1173007.8, -52759.71, 0.0, 9.999223, 10.00005 
3.3498433e+2, 1.9568713e+2, -1100383.1, -1058285.0, 7922.674, -0.0018972689, -0.19504556, -1056843.4, -34595.027, 0.0, 9.999489, 10.000042 
3.349921e+2, 2.0568714e+2, -989162.1, -985314.2, 4216.677, 0.0019437195, -0.18396953, -982603.3, -58354.926, 0.0, 9.999714, 9.999762 
3.3499986e+2, 2.1568729e+2, -861430.94, -871188.2, 3485.1968, 0.011058263, -0.14825875, -860313.94, -34065.66, 0.0, 9.99991, 9.999777 
3.3500758e+2, 2.2568698e+2, -743814.5, -770160.6, 2165.5693, 0.010195077, -0.15313187, -743637.7, -15386.583, 0.0, 10.0000725, 9.999721 
3.3501533e+2, 2.3568633e+2, -624785.44, -660123.2, -8044.147, 0.002081747, -0.19312163, -623040.5, 7215.748, 0.0, 10.000209, 9.999738 
3.3502278e+2, 2.4568582e+2, -503149.0, -561180.94, -21292.453, -0.01522919, -0.21190014, -496174.75, 36084.96, 0.0, 10.000417, 9.999643 
3.3503e+2, 2.5568545e+2, -368896.22, -449015.38, -15699.847, -0.039887078, -0.2169018, -365929.6, 68332.26, 0.0, 10.00068, 9.999614 
3.3503777e+2, 2.6568472e+2, -290796.28, -433180.66, -14114.843, -0.022260748, -0.21455969, -289410.53, 46857.68, 0.0, 10.000857, 9.998963 
3.3504596e+2, 2.756837e+2, -176041.22, -326447.3, -24448.07, 0.028898977, -0.2137651, -172167.05, 66110.99, 0.0, 10.00097, 9.998969 
3.3505356e+2, 2.8568232e+2, -63669.73, -264343.94, -22401.223, 0.015778309, -0.23195486, -61199.492, 79091.86, 0.0, 10.001253, 9.998587 
3.3506063e+2, 2.9568067e+2, 91185.37, -144785.52, -9153.562, -0.05182199, -0.25769967, 91539.914, 133846.31, 0.0, 10.00167, 9.998534 
3.350693e+2, 3.056793e+2, 164281.5, -113663.08, 32559.354, -0.042119276, -0.23122074, 168044.67, 168044.67, 0.0, 10.001961, 9.998275 
3.3507887e+2, 3.1567746e+2, 203327.17, -77215.29, -31479.71, 0.01883431, -0.24375826, 206816.13, 206816.13, 0.0, 10.002152, 9.998432 
3.4493136e+2, 1.2567751e+2, -1917469.5, -1762247.0, 17678.32, 0.041622903, -0.19715519, -1760259.1, -51914.996, 0.000060228966, 9.998394, 10.000449 
3.449374e+2, 1.3567911e+2, -1789552.0, -1638069.6, -29772.088, -0.014982851, -0.09122794, -1632428.4, -22097.693, 0.000025763518, 9.9985485, 10.000554 
3.4494516e+2, 1.4567918e+2, -1677291.5, -1529487.6, 16528.912, 0.03164474, -0.14199297, -1527661.8, -15331.922, 0.000005876301, 9.998631, 10.000585 
3.4495288e+2, 1.5567937e+2, -1575045.8, -1434355.1, 6178.0586, 0.0077550923, -0.1801143, -1434084.4, -19758.506, 0.0000002059256, 9.998682, 10.00054 
3.4496063e+2, 1.6567963e+2, -1482496.5, -1410013.4, -9220.868, 0.004626222, -0.17521939, -1408858.8, -92535.516, 0.0, 9.998951, 9.999905 
3.4496835e+2, 1.7567983e+2, -1317805.8, -1276955.3, -7986.394, 0.012781994, -0.14691004, -1275449.4, -57127.094, 0.0, 9.999395, 9.99993 
3.4497613e+2, 1.8567973e+2, -1180866.1, -1153994.1, 185.32585, 0.011889678, -0.15303552, -1153992.9, -33669.93, 0.0, 9.999636, 9.999987 
3.44984e+2, 1.9567941e+2, -1070977.6, -1050417.4, -5885.5093, 0.006214774, -0.18695302, -1048851.8, -26527.225, 0.0, 9.999719, 9.999985 
3.449919e+2, 2.056793e+2, -969008.1, -979541.06, -11294.526, 0.0027620522, -0.18245336, -961812.56, -37487.047, 0.0, 9.999869, 9.999725 
3.4499973e+2, 2.1567933e+2, -840976.4, -866194.56, -12385.858, 0.0001698945, -0.15341985, -835910.7, -9584.667, 0.0, 10.000072, 9.999734 
3.4500766e+2, 2.2567901e+2, -733206.25, -778773.25, -10863.953, 0.0032585454, -0.15200523, -730748.6, -2419.4731, 0.0, 10.000204, 9.999598 
3.4501562e+2, 2.356784e+2, -622038.5, -672080.94, -10344.311, 0.011024015, -0.17533532, -619984.56, 10349.734, 0.0, 10.000284, 9.999619 
3.450233e+2, 2.4567777e+2, -493637.7, -564817.75, -20427.084, -0.005196889, -0.19854924, -488192.2, 44147.15, 0.0, 10.000517, 9.99957 
3.4503075e+2, 2.556771e+2, -346480.4, -446003.6, -30007.016, -0.039928216, -0.22444203, -338133.16, 96211.1, 0.0, 10.000868, 9.999544 
3.450387e+2, 2.656764e+2, -261936.52, -424464.7, -30765.395, -0.023848802, -0.21280995, -256307.8, 80042.57, 0.0, 10.001078, 9.998918 
3.4504706e+2, 2.7567568e+2, -148873.8, -318838.6, -22888.951, 0.031923, -0.17945567, -145845.33, 92512.23, 0.0, 10.001179, 9.998921 
3.450548e+2, 2.8567412e+2, -56778.555, -265768.78, -16398.795, 0.015575623, -0.20843542, -55499.62, 84872.68, 0.0, 10.00132, 9.998546 
3.4506214e+2, 2.95672e+2, 62949.066, -163210.77, -20140.629, -0.060086712, -0.27949697, 64728.684, 107120.68, 0.0, 10.001495, 9.998492 
3.4507117e+2, 3.056709e+2, 136590.25, -128642.15, 22333.895, -0.040882688, -0.22035341, 138457.73, 138457.73, 0.0, 10.001777, 9.9982605 
3.450811e+2, 3.1566912e+2, 208484.39, -63989.402, -28263.244, 0.027180266, -0.23012859, 211385.2, 211385.2, 0.0, 10.002142, 9.998528 
3.5492924e+2, 1.2566966e+2, -1911930.0, -1748929.0, 33690.59, -0.009671348, -0.2285478, -1742240.0, -33819.85, 0.00005843651, 9.998385, 10.000545 
3.5493618e+2, 1.356716e+2, -1781530.8, -1622050.0, -23944.514, 0.0063326275, -0.10104761, -1618532.5, -8129.773, 0.000025162195, 9.99855, 10.000664 
3.549441e+2, 1.4567167e+2, -1695856.0, -1568742.5, 18280.1, 0.063609615, -0.14179438, -1566165.9, -53763.496, 0.0000057861466, 9.998633, 10.000314 
3.5495156e+2, 1.5567157e+2, -1592972.3, -1471203.3, 9301.313, 0.00769946, -0.18374225, -1470496.9, -56094.3, 0.00000020730299, 9.99868, 10.000288 
3.5495952e+2, 1.6567169e+2, -1480876.3, -1406349.1, 7728.729, -0.00458178, -0.18013497, -1405556.1, -89154.71, 0.0, 9.998949, 9.99993 
3.549677e+2, 1.7567195e+2, -1316765.0, -1275022.6, 8166.85, 0.01016995, -0.15060833, -1273481.8, -55082.06, 0.0, 9.999396, 9.999944 
3.5497582e+2, 1.8567185e+2, -1191396.5, -1175903.4, 3320.1584, 0.018080872, -0.14889269, -1175221.9, -54821.492, 0.0, 9.999636, 9.999837 
3.5498393e+2, 1.956715e+2, -1080526.8, -1070438.6, -2159.11, 0.024133671, -0.1704206, -1069996.0, -47593.195, 0.0, 9.999719, 9.999847 
3.5499182e+2, 2.0567119e+2, -971677.44, -985142.25, -3675.087, 0.009318617, -0.17642333, -970739.7, -46334.156, 0.0, 9.999869, 9.999687 
3.5499957e+2, 2.1567091e+2, -843462.5, -871200.6, -4889.497, -0.022925006, -0.17554119, -842625.9, -16217.305, 0.0, 10.000071, 9.999701 
3.5500753e+2, 2.2567067e+2, -732196.7, -776560.1, -7831.842, -0.026589608, -0.16576515, -730854.6, -2443.9907, 0.0, 10.000204, 9.999613 
3.5501575e+2, 2.3567045e+2, -622554.4, -673211.1, -6636.488, -0.0074478714, -0.15179306, -621699.3, 8712.559, 0.0, 10.000285, 9.999611 
3.5502395e+2, 2.4566968e+2, -512450.28, -603749.1, -7438.933, 0.0059991046, -0.17233257, -511848.16, 20570.535, 0.0, 10.000516, 9.999303 
3.5503218e+2, 2.556685e+2, -362658.34, -479116.94, -17470.316, 0.014567193, -0.22299887, -360094.03, 74335.586, 0.0, 10.000866, 9.999317 
3.5504007e+2, 2.6566786e+2, -248455.72, -396129.84, -27221.355, 0.003423085, -0.20973878, -243597.72, 92837.7, 0.0, 10.001076, 9.999113 
3.550477e+2, 2.7566755e+2, -137889.7, -296181.44, -19048.738, -0.021843476, -0.15306772, -135629.66, 102807.83, 0.0, 10.00118, 9.999077 
3.5505578e+2, 2.856659e+2, -75404.22, -304568.1, -10201.1875, -0.020017438, -0.18446614, -74951.016, 65502.39, 0.0, 10.001321, 9.998279 
3.550642e+2, 2.9566324e+2, 46773.832, -196652.44, -13297.676, -0.0011576271, -0.2803595, 47498.094, 89977.3, 0.0, 10.001494, 9.998263 
3.5507342e+2, 3.0566242e+2, 147740.34, -105287.2, 35563.156, 0.008065826, -0.19237705, 152643.75, 152643.75, 0.0, 10.001776, 9.998422 
3.5508263e+2, 3.1566074e+2, 232958.45, -12885.277, -14418.404, -0.031655237, -0.20969355, 233801.19, 233801.19, 0.0, 10.00214, 9.998879 
3.649274e+2, 1.2566207e+2, -1926522.8, -1753925.0, 29563.018, -0.025830545, -0.20450807, -1749001.8, -40507.82, 0.000055122826, 9.998277, 10.000563 
3.6493474e+2, 1.3566339e+2, -1791349.4, -1622347.4, -44336.355, 0.014393549, -0.14449959, -1611422.3, -940.6262, 0.000023501116, 9.998465, 10.000702 
3.6494288e+2, 1.4566343e+2, -1696883.6, -1592625.0, -1443.8789, 0.07201141, -0.18010479, -1592605.0, -80123.1, 0.00000526637, 9.998727, 10.000105 
3.6495042e+2, 1.5566368e+2, -1549897.3, -1472087.6, -5915.5825, 0.005826641, -0.16523306, -1471640.4, -57160.47, 0.00000017249042, 9.999068, 10.000094 
3.6495855e+2, 1.6566382e+2, -1437169.8, -1384566.4, -3701.6184, -0.0065976754, -0.15354894, -1384307.1, -67828.01, 0.0, 9.999245, 9.999937 
3.649671e+2, 1.7566377e+2, -1330309.6, -1281215.5, -4616.437, 0.01413362, -0.15363635, -1280785.3, -62305.438, 0.0, 9.999302, 9.999947 
3.6497542e+2, 1.8566358e+2, -1215224.3, -1196749.9, -8484.553, 0.021522839, -0.15729499, -1193444.5, -72963.19, 0.0, 9.999512, 9.999753 
3.6498368e+2, 1.9566327e+2, -1068732.3, -1073990.9, -9437.423, 0.022088628, -0.16529757, -1061564.8, -39081.21, 0.0, 9.999839, 9.999765 
3.6499178e+2, 2.0566294e+2, -949478.44, -980688.44, -11103.683, 0.011536734, -0.16907963, -945931.2, -21444.6, 0.0, 10.000049, 9.999633 
3.6499983e+2, 2.1566252e+2, -832956.94, -872060.7, -13840.626, -0.009018374, -0.17508867, -828553.9, -2063.3489, 0.0, 10.000169, 9.999647 
3.650079e+2, 2.2566213e+2, -713699.8, -775449.56, -20327.61, -0.019638216, -0.17373802, -707608.9, 20885.03, 0.0, 10.000364, 9.999543 
3.6501604e+2, 2.3566175e+2, -579239.3, -660588.2, -25523.992, -0.021596652, -0.16895813, -571894.1, 58602.52, 0.0, 10.000618, 9.9995365 
3.6502445e+2, 2.4566098e+2, -490962.7, -606194.06, -22252.695, -0.0053956006, -0.18007763, -486814.72, 45689.008, 0.0, 10.000719, 9.999188 
3.6503306e+2, 2.5565994e+2, -393456.1, -505912.1, -21264.557, 0.023855304, -0.20739156, -389569.44, 44944.668, 0.0, 10.000705, 9.999211 
3.650411e+2, 2.6565918e+2, -275180.63, -408297.72, -32125.38, 0.0100043565, -0.1976473, -267833.28, 68687.45, 0.0, 10.000888, 9.999121 
3.6504877e+2, 2.7565867e+2, -129740.52, -291977.25, -37950.164, -0.0357531, -0.16446944, -121302.18, 117222.43, 0.0, 10.001234, 9.99908 
3.650571e+2, 2.85657e+2, -57085.656, -305683.1, -28732.754, -0.029780272, -0.19218881, -53807.957, 86732.766, 0.0, 10.001489, 9.99819 
3.6506593e+2, 2.9565445e+2, 64487.42, -197989.88, -19067.436, 0.012288713, -0.26586792, 65865.33, 108431.07, 0.0, 10.0016575, 9.998176 
3.650753e+2, 3.0565375e+2, 143704.34, -111478.83, 29281.16, 0.018884692, -0.16196851, 147021.13, 147021.13, 0.0, 10.001765, 9.998384 
3.6508435e+2, 3.1565166e+2, 206366.53, -1709.3588, -34549.793, -0.059227306, -0.21865104, 211953.33, 211953.33, 0.0, 10.001853, 9.999096 
3.7492585e+2, 1.2565479e+2, -1931469.8, -1763025.6, 47358.348, -0.008161253, -0.12248538, -1750623.8, -42058.535, 0.00005010573, 9.998272, 10.000503 
3.7493315e+2, 1.356545e+2, -1794254.4, -1627367.8, -37214.69, 0.008601936, -0.22230141, -1619445.3, -8877.671, 0.000020857056, 9.99846, 10.0006695 
3.7494144e+2, 1.4565444e+2, -1707624.6, -1614620.8, 11337.6, 0.055975184, -0.25817645, -1613258.5, -100689.555, 0.000004428325, 9.998725, 9.999954 
3.7494943e+2, 1.5565573e+2, -1559323.6, -1492196.9, 6358.5967, 0.00047441866, -0.12423431, -1491599.9, -77041.625, 0.00000011962439, 9.99907, 9.999956 
3.7495786e+2, 1.6565596e+2, -1437249.1, -1385231.5, -1810.9375, -0.0028074032, -0.094685115, -1385168.5, -68611.9, 0.0, 9.999247, 9.999932 
3.7496653e+2, 1.756553e+2, -1330487.1, -1281792.9, -1618.9069, 0.024293981, -0.15613002, -1281739.1, -63176.363, 0.0, 9.999302, 9.999943 
3.7497494e+2, 1.8565491e+2, -1216619.4, -1199734.0, 3974.4937, 0.021499114, -0.17867863, -1198845.3, -78279.3, 0.0, 9.999512, 9.999733 
3.7498328e+2, 1.9565473e+2, -1070441.5, -1077688.1, 2581.8308, -0.000579721, -0.17189443, -1069615.8, -47048.94, 0.0, 9.999839, 9.999741 
3.749918e+2, 2.056545e+2, -954554.9, -991199.1, -6543.3604, 0.008691703, -0.16068517, -953421.56, -28852.686, 0.0, 10.000048, 9.99956 
3.7500048e+2, 2.1565416e+2, -838275.8, -882953.94, -8810.023, 0.040838517, -0.15194382, -836601.3, -10029.279, 0.0, 10.000168, 9.999573 
3.750087e+2, 2.256534e+2, -724613.25, -797954.1, -10852.97, 0.023312561, -0.17556967, -723040.94, 5537.962, 0.0, 10.000363, 9.99939 
3.7501654e+2, 2.356523e+2, -589033.94, -680759.8, -16626.74, -0.03174211, -0.22676189, -586113.06, 44475.39, 0.0, 10.000617, 9.999399 
3.7502486e+2, 2.4565166e+2, -488584.88, -601173.8, -22893.902, -0.03977879, -0.22200318, -484107.66, 48486.88, 0.0, 10.000719, 9.999224 
3.7503338e+2, 2.5565135e+2, -391932.94, -503281.78, -21056.773, -0.012074659, -0.1776373, -388084.03, 46513.78, 0.0, 10.000707, 9.9992285 
3.7504187e+2, 2.6565042e+2, -287634.22, -434365.5, -19448.06, -0.0044077374, -0.17654988, -285100.3, 51506.008, 0.0, 10.000889, 9.99894 
3.7505025e+2, 2.75649e+2, -140827.98, -314200.75, -25287.152, -0.0117119495, -0.21384554, -137215.03, 101403.875, 0.0, 10.001231, 9.998928 
3.750587e+2, 2.8564742e+2, -51087.3, -292531.6, -22598.57, -0.0152562605, -0.2314088, -48990.344, 91643.85, 0.0, 10.001485, 9.998282 
3.7506726e+2, 2.956457e+2, 69337.6, -188633.61, -13440.536, -0.018568337, -0.23473738, 70035.98, 112687.39, 0.0, 10.00166, 9.998239 
3.7507677e+2, 3.0564493e+2, 127765.56, -145037.38, 32282.516, -0.007823378, -0.12811741, 131533.72, 131533.72, 0.0, 10.001768, 9.998153 
3.7508622e+2, 3.1564182e+2, 211579.69, 10521.3545, -30331.283, -0.059905864, -0.26103726, 216055.77, 216055.77, 0.0, 10.001847, 9.999183 
3.8492432e+2, 1.2564613e+2, -1930913.4, -1775575.9, 34868.742, 0.007911536, -0.13753472, -1768107.9, -59458.367, 0.00004363311, 9.99833, 10.000387 
3.8493165e+2, 1.3564606e+2, -1788191.5, -1631497.0, -65210.12, 0.0075527737, -0.20877308, -1607909.8, 2740.5366, 0.000017489165, 9.998531, 10.0006075 
3.8494006e+2, 1.4564595e+2, -1706068.6, -1610511.5, -6811.6665, 0.046601832, -0.24696997, -1610028.4, -97376.49, 0.0000034194288, 9.998721, 9.999985 
3.849485e+2, 1.5564694e+2, -1577986.1, -1498828.6, 1531.9238, 0.0059942803, -0.14661965, -1498799.0, -84155.664, 0.00000006772674, 9.998931, 9.999977 
3.8495713e+2, 1.656471e+2, -1453711.8, -1405753.8, -8827.856, 0.0043758578, -0.11947845, -1404180.4, -87537.93, 0.0, 9.999187, 9.99982 
3.8496584e+2, 1.7564656e+2, -1310637.9, -1283258.9, -16709.16, 0.020976413, -0.15814996, -1275347.5, -56699.32, 0.0, 9.999485, 9.999845 
3.8497448e+2, 1.856462e+2, -1185316.3, -1176560.8, -8642.274, 0.016560245, -0.17665768, -1171250.6, -50599.605, 0.0, 9.999692, 9.999805 
3.8498312e+2, 1.9564599e+2, -1067369.9, -1069030.1, -3228.4485, 0.00053928007, -0.18117087, -1064866.5, -42214.906, 0.0, 9.999829, 9.9998045 
3.8499188e+2, 2.0564567e+2, -965627.94, -1005594.9, -11610.402, 0.012706305, -0.17595446, -962499.94, -37845.664, 0.0, 10.000011, 9.999479 
3.850007e+2, 2.1564525e+2, -835842.5, -890822.06, -14751.785, 0.04517515, -0.16770914, -832134.5, -5475.9067, 0.0, 10.000223, 9.999493 
3.8500908e+2, 2.2564447e+2, -729645.44, -808360.25, -13479.443, 0.028971441, -0.18538146, -727401.1, 1264.6926, 0.0, 10.000363, 9.999318 
3.8501716e+2, 2.356434e+2, -618086.5, -702558.75, -13351.504, -0.024082763, -0.22625493, -616026.4, 14648.901, 0.0, 10.000451, 9.99933 
3.850255e+2, 2.4564268e+2, -497048.5, -611821.2, -20758.828, -0.041630544, -0.22292773, -493409.25, 39272.957, 0.0, 10.000689, 9.999165 
3.8503405e+2, 2.556422e+2, -347176.53, -488651.75, -25972.957, -0.03219103, -0.18930112, -342558.97, 92128.13, 0.0, 10.001044, 9.9991665 
3.8504282e+2, 2.6564124e+2, -244810.19, -426210.53, -23141.143, -0.014281584, -0.1860023, -241904.61, 94791.82, 0.0, 10.001237, 9.99883 
3.850517e+2, 2.7563983e+2, -138146.28, -323921.3, -24178.143, 0.010918734, -0.20974107, -135051.13, 103657.984, 0.0, 10.001295, 9.998831 
3.850603e+2, 2.856382e+2, -52335.203, -282723.4, -19388.322, -0.0011426744, -0.2300784, -50714.973, 90009.37, 0.0, 10.0014305, 9.998376 
3.8506863e+2, 2.9563642e+2, 71664.234, -179402.5, -10800.873, -0.04476438, -0.2519551, 72128.02, 114869.75, 0.0, 10.00164, 9.998312 
3.850784e+2, 3.056355e+2, 109089.37, -180439.63, 30511.91, -0.023211908, -0.1499133, 112269.914, 112269.914, 0.0, 10.001753, 9.997917 
3.850882e+2, 3.1563228e+2, 207216.56, 16928.75, -31578.84, -0.040742785, -0.26793975, 212320.28, 212320.28, 0.000000000002787424, 10.0017805, 9.999259 
3.949228e+2, 1.2563604e+2, -1943331.0, -1800809.3, 53010.57, 0.021985937, -0.2533348, -1783254.4, -74507.3, 0.0000362571, 9.998327, 10.0002165 
3.949302e+2, 1.3563807e+2, -1794769.4, -1645222.3, -58349.863, 0.009929654, -0.10162631, -1625149.6, -14419.867, 0.000013744367, 9.99853, 10.000514 
3.9493874e+2, 1.45638e+2, -1691162.5, -1579330.3, 601.96674, 0.042676866, -0.14396383, -1579327.0, -66596.52, 0.0000023661473, 9.998719, 10.0002 
3.9494756e+2, 1.5563731e+2, -1565213.0, -1471896.1, 9616.796, 0.022100862, -0.23377438, -1470915.4, -56179.91, 0.000000028035489, 9.998929, 10.000163 
3.949564e+2, 1.6563721e+2, -1469435.1, -1438195.4, 2362.4805, 0.014564362, -0.22965477, -1438017.8, -121280.75, 0.0, 9.9991865, 9.9995985 
3.9496517e+2, 1.7563754e+2, -1324281.4, -1311705.9, -5745.221, 0.0035674267, -0.15971018, -1309476.4, -90740.21, 0.0, 9.999485, 9.999649 
3.9497408e+2, 1.8563743e+2, -1173747.4, -1152575.3, -3573.5605, 0.0060590296, -0.15083486, -1151988.4, -31251.76, 0.0, 9.999691, 9.99997 
3.9498317e+2, 1.95637e+2, -1056650.8, -1046774.2, 2348.674, 0.024819274, -0.19319919, -1046244.1, -23506.037, 0.0, 9.999828, 9.999957 
3.9499196e+2, 2.0563644e+2, -972023.56, -1018675.6, -3556.8694, 0.023065703, -0.214638, -971753.94, -47011.09, 0.0, 10.0000105, 9.99939 
3.9500052e+2, 2.1563579e+2, -841783.44, -903119.94, -6869.7246, 0.0033985388, -0.22285752, -841023.44, -14273.269, 0.0, 10.000223, 9.999408 
3.9500916e+2, 2.2563533e+2, -729290.0, -807392.06, -10128.792, -0.0034752036, -0.2038239, -727997.8, 756.9724, 0.0, 10.000362, 9.999325 
3.9501786e+2, 2.3563506e+2, -618095.7, -702743.8, -9331.607, 0.0005354067, -0.16773327, -617079.2, 13678.056, 0.0, 10.000451, 9.999328 
3.9502648e+2, 2.4563405e+2, -507798.3, -633992.2, -7525.7227, -0.011655485, -0.18282485, -507351.1, 25415.756, 0.0, 10.000688, 9.999013 
3.9503506e+2, 2.5563252e+2, -357608.75, -509406.75, -13145.841, -0.0374368, -0.24214287, -356478.72, 78303.3, 0.0, 10.00104, 9.999025 
3.9504397e+2, 2.6563156e+2, -248179.25, -432357.25, -21037.658, -0.020542027, -0.22598962, -245806.8, 90984.33, 0.0, 10.001233, 9.99879 
3.950532e+2, 2.756311e+2, -140267.2, -329049.94, -21818.646, 0.031401202, -0.15282638, -137778.31, 101016.97, 0.0, 10.001299, 9.998795 
3.9506185e+2, 2.8562936e+2, -45509.703, -269024.8, -11713.887, 0.011819608, -0.18858065, -44897.484, 95913.66, 0.0, 10.001433, 9.998469 
3.9507005e+2, 2.9562658e+2, 76576.13, -167763.03, -3264.9585, -0.067718916, -0.31655082, 76619.75, 119456.3, 0.0, 10.001635, 9.998395 
3.950801e+2, 3.0562547e+2, 91283.14, -215842.75, 31207.936, -0.028721947, -0.22624956, 94422.19, 94422.19, 0.0, 10.001746, 9.997677 
3.9509037e+2, 3.1562304e+2, 211969.08, 26228.084, -28100.049, -0.0045134556, -0.2440558, 216127.14, 216127.14, 0.000000001718879, 10.001783, 9.999321 
4.0492105e+2, 1.2562668e+2, -1976298.1, -1813862.3, 40181.953, 0.026883516, -0.25109175, -1804465.9, -95626.91, 0.000028702449, 9.99809, 10.000241 
4.0492874e+2, 1.3562869e+2, -1801065.1, -1639768.6, -68548.36, 0.01424678, -0.10708609, -1614572.5, -3750.9983, 0.000010028613, 9.998451, 10.00059 
4.0493745e+2, 1.4562872e+2, -1686734.6, -1568954.4, -11382.476, 0.04022886, -0.14862348, -1567864.5, -55043.29, 0.0000013962007, 9.998714, 10.000274 
4.049466e+2, 1.5562809e+2, -1561297.4, -1462241.5, -13230.443, 0.03194633, -0.23928198, -1460504.8, -45679.574, 0.000000006286357, 9.998922, 10.000233 
4.0495566e+2, 1.6562797e+2, -1472044.6, -1441621.3, -13122.191, 0.021382961, -0.23811172, -1436743.4, -119916.664, 0.0, 9.999178, 9.999578 
4.0496454e+2, 1.7562823e+2, -1326858.0, -1315096.0, -6713.6543, -0.006632688, -0.17252125, -1312051.8, -93225.086, 0.0, 9.999477, 9.99963 
4.0497366e+2, 1.8562816e+2, -1177847.6, -1154003.4, -11011.374, -0.0027678148, -0.16196747, -1149696.3, -28869.137, 0.0, 9.999661, 9.999974 
4.0498307e+2, 1.956278e+2, -1066998.4, -1050726.6, -17195.371, 0.032353237, -0.19781218, -1039839.5, -17011.41, 0.0, 9.999754, 9.999966 
4.0499198e+2, 2.0562726e+2, -977137.3, -1015477.06, -17977.074, 0.025548255, -0.21925208, -970026.75, -45194.254, 0.0, 9.999951, 9.99944 
4.0500054e+2, 2.1562658e+2, -837193.5, -895407.5, -11287.902, -0.01645281, -0.23301867, -835081.4, -8241.639, 0.0, 10.000231, 9.999457 
4.050094e+2, 2.256262e+2, -708811.5, -795341.06, -11838.627, -0.019839484, -0.2103796, -707221.06, 21622.594, 0.0, 10.000494, 9.999345 
4.0501854e+2, 2.3562606e+2, -574903.3, -680181.56, -10218.47, 0.00803276, -0.1634375, -573920.6, 56924.336, 0.0, 10.000741, 9.999343 
4.0502742e+2, 2.4562503e+2, -489306.13, -635269.75, -4620.6685, 0.0022333278, -0.17685767, -489160.0, 43694.957, 0.0, 10.000858, 9.998922 
4.0503606e+2, 2.5562334e+2, -387429.7, -532988.94, -5817.227, -0.030593466, -0.24150504, -387197.56, 47674.07, 0.0, 10.0008745, 9.998943 
4.0504512e+2, 2.6562235e+2, -266897.22, -438323.6, -7165.374, -0.021999914, -0.22936502, -266598.25, 70283.01, 0.0, 10.001091, 9.9988165 
4.0505448e+2, 2.756219e+2, -113065.06, -313900.4, -3393.761, 0.020448688, -0.15934506, -113007.73, 125877.44, 0.0, 10.001476, 9.998813 
4.0506336e+2, 2.8562018e+2, -17513.305, -264584.9, -2182.2163, 0.006977666, -0.18903843, -17494.031, 123406.875, 0.0, 10.001664, 9.998388 
4.0507182e+2, 2.9561743e+2, 78584.14, -174092.56, -7010.7607, -0.053604327, -0.3047911, 78778.516, 121704.875, 0.0, 10.001679, 9.99833 
4.05082e+2, 3.0561605e+2, 82923.32, -221995.53, 29496.01, -0.008008308, -0.23543361, 85750.375, 85750.375, 0.0, 10.0016985, 9.997657 
4.050921e+2, 3.1561384e+2, 222162.98, 56094.883, -12053.646, -0.006568362, -0.23230274, 223033.31, 223033.31, 0.00000001196501, 10.001747, 9.999543 
4.1491908e+2, 1.2561807e+2, -1961428.0, -1781375.8, 64940.21, 0.019963723, -0.12696762, -1760397.8, -51472.676, 0.000021697306, 9.998083, 10.000467 
4.1492724e+2, 1.3561791e+2, -1783555.3, -1603429.9, -55715.32, 0.020268627, -0.22835909, -1587589.4, 23336.557, 0.000006740833, 9.99845, 10.00084 
4.1493613e+2, 1.4561805e+2, -1692096.1, -1579719.0, -3727.925, 0.03856758, -0.2641406, -1579595.4, -66671.1, 0.0000006540361, 9.998713, 10.000201 
4.1494554e+2, 1.5561928e+2, -1564952.9, -1469813.3, -5172.6724, 0.035035215, -0.16157886, -1469532.9, -54620.277, 0.0000000002364484, 9.998922, 10.000181 
4.1495487e+2, 1.6561943e+2, -1459683.8, -1415444.8, -2182.6802, 0.02419345, -0.14261927, -1415337.3, -98425.61, 0.0, 9.999176, 9.99976 
4.14964e+2, 1.7561866e+2, -1315975.6, -1292062.8, 4229.4097, -0.010461845, -0.19668148, -1291336.8, -72417.06, 0.0, 9.9994755, 9.999789 
4.1497323e+2, 1.8561833e+2, -1189048.6, -1176870.1, -7441.4536, -0.010997707, -0.21057837, -1173344.1, -52421.39, 0.0, 9.99966, 9.999818 
4.149827e+2, 1.9561833e+2, -1076692.5, -1070814.3, -13022.612, 0.022741785, -0.1952627, -1060403.3, -37481.426, 0.0, 9.999754, 9.999828 
4.149919e+2, 2.056181e+2, -964156.56, -988372.5, -7436.423, 0.019674933, -0.1901051, -962055.25, -37131.824, 0.0, 9.99995, 9.999627 
4.1500077e+2, 2.1561767e+2, -824640.5, -869299.1, -564.2993, -0.015246971, -0.1980744, -824633.4, 2293.8818, 0.0, 10.000231, 9.999637 
4.150099e+2, 2.256171e+2, -706702.5, -790594.1, -2591.5657, -0.02094001, -0.20478317, -706622.5, 22309.902, 0.0, 10.000492, 9.999378 
4.1501915e+2, 2.3561643e+2, -573034.5, -675844.7, -1360.9451, -0.0021762424, -0.21342586, -573016.44, 57922.12, 0.0, 10.000739, 9.999373 
4.150282e+2, 2.4561562e+2, -491752.5, -639791.4, -4159.075, -0.00063040154, -0.20535597, -491635.75, 41310.88, 0.0, 10.000856, 9.998892 
4.150371e+2, 2.5561473e+2, -388930.22, -536333.25, -4547.652, -0.012816042, -0.18817447, -388790.03, 46166.063, 0.0, 10.000875, 9.99892 
4.1504624e+2, 2.6561353e+2, -260354.4, -424761.44, 7044.874, -0.01953395, -0.19638285, -260053.1, 76913.82, 0.0, 10.001091, 9.99891 
4.1505554e+2, 2.7561215e+2, -108900.34, -303773.13, 10553.582, -0.022085486, -0.22806409, -108330.47, 130648.28, 0.0, 10.001471, 9.998885 
4.1506478e+2, 2.8561062e+2, -35923.355, -301319.8, -1903.955, -0.016129423, -0.23076044, -35909.695, 105083.95, 0.0, 10.001658, 9.998139 
4.15074e+2, 2.956089e+2, 64390.957, -204268.53, -7044.397, -0.0046297046, -0.21883948, 64575.54, 107586.9, 0.0, 10.001683, 9.99812 
4.1508412e+2, 3.0560723e+2, 97155.04, -193579.56, 31119.938, 0.036863353, -0.17921872, 100448.77, 100448.77, 0.0, 10.001703, 9.997849 
4.1509342e+2, 3.156046e+2, 248112.81, 110754.164, -8316.769, -0.048235625, -0.23842743, 248614.55, 248614.55, 0.000000036873733, 10.001743, 9.999921 
4.2491725e+2, 1.2560822e+2, -1936796.5, -1756843.8, 70760.734, 0.025312042, -0.11148486, -1732352.6, -23330.791, 0.000015823704, 9.998201, 10.000578 
4.2492563e+2, 1.3560788e+2, -1831643.9, -1610042.5, -70792.695, 0.034045193, -0.24558416, -1589357.9, 21665.729, 0.0000041887733, 9.998052, 10.000986 
4.249346e+2, 1.4560816e+2, -1751312.9, -1615380.4, -10621.801, 0.033911657, -0.27357796, -1614555.4, -101534.25, 0.00000021832761, 9.998338, 10.000136 
4.2494443e+2, 1.5560958e+2, -1560280.3, -1473287.8, -12527.392, 0.026460886, -0.14436416, -1471519.6, -56511.156, 0.0, 9.9989805, 10.000129 
4.2495406e+2, 1.6560982e+2, -1437615.1, -1388908.0, -20739.623, 0.022794941, -0.12135624, -1381273.6, -64266.84, 0.0, 9.999259, 9.999901 
4.2496347e+2, 1.7560907e+2, -1338418.1, -1288110.0, -17375.635, 0.0007248209, -0.18850003, -1282692.3, -63678.332, 0.0, 9.999258, 9.999921 
4.2497283e+2, 1.8560873e+2, -1220968.0, -1196924.9, -22590.438, -0.007726962, -0.20538692, -1183356.5, -62339.598, 0.0, 9.999461, 9.999776 
4.249823e+2, 1.9560875e+2, -1068541.0, -1070436.5, -19741.715, 0.0028829772, -0.1851367, -1049724.3, -26707.576, 0.0, 9.9998255, 9.999796 
4.2499173e+2, 2.0560858e+2, -937845.6, -960337.3, -12801.711, 0.004908711, -0.17827792, -932051.75, -7034.2773, 0.0, 10.000066, 9.9997635 
4.2500108e+2, 2.1560827e+2, -819198.8, -852068.9, -9881.034, -0.0029882886, -0.18759964, -816457.2, 10561.954, 0.0, 10.000206, 9.999766 
4.250104e+2, 2.2560768e+2, -728806.0, -802979.06, -16119.934, -0.008857409, -0.20237058, -725454.1, 3570.2388, 0.0, 10.000348, 9.999362 
4.2501968e+2, 2.3560686e+2, -609944.56, -694507.2, -19002.54, -0.011519253, -0.22324, -605870.7, 25161.648, 0.0, 10.00049, 9.999366 
4.250289e+2, 2.4560611e+2, -501422.88, -632870.94, -18170.36, -0.011753208, -0.21471754, -498957.38, 34082.223, 0.0, 10.00074, 9.998995 
4.2503813e+2, 2.556054e+2, -352521.9, -508386.47, -8877.547, -0.010383915, -0.18832552, -352017.9, 83028.555, 0.0, 10.0010805, 9.999013 
4.2504746e+2, 2.656042e+2, -239782.67, -419583.25, 2533.752, -0.014381317, -0.20390557, -239746.97, 97310.6, 0.0, 10.001253, 9.998867 
4.2505687e+2, 2.7560258e+2, -138019.17, -321566.4, -4143.0527, -0.022219904, -0.2550859, -137925.69, 101146.195, 0.0, 10.0012865, 9.998852 
4.2506638e+2, 2.8560114e+2, -56276.605, -308112.4, -9026.203, -0.016392233, -0.24638543, -55953.508, 85132.43, 0.0, 10.001505, 9.998166 
4.250758e+2, 2.955998e+2, 95076.6, -186104.47, 5126.419, -0.0012484868, -0.20062819, 95170.04, 138270.44, 0.0, 10.001879, 9.998151 
4.2508608e+2, 3.0559778e+2, 129009.25, -184709.72, 32434.043, 0.04789003, -0.19483945, 132327.38, 132327.38, 0.0, 10.001949, 9.997793 
4.2509517e+2, 3.1559524e+2, 254679.84, 118483.48, -22662.6, -0.04519686, -0.23515867, 258351.81, 258351.81, 0.00000007454206, 10.001767, 9.999963 
4.3491563e+2, 1.2559712e+2, -1938736.6, -1761214.1, 76061.734, 0.041481618, -0.2083143, -1733082.5, -23953.08, 0.0000113764345, 9.998202, 10.000547 
4.349239e+2, 1.3559866e+2, -1829866.9, -1606571.3, -74769.04, 0.054948214, -0.15607293, -1583847.8, 27266.305, 0.0000025044064, 9.998051, 10.001011 
4.3493286e+2, 1.4559902e+2, -1756134.8, -1623980.0, 13597.143, 0.025423924, -0.1735907, -1622595.5, -109484.32, 0.000000047491298, 9.998332, 10.00008 
4.3494317e+2, 1.5559895e+2, -1564192.5, -1481098.8, 10509.145, 0.004803044, -0.18920211, -1479790.3, -64677.15, 0.0, 9.998979, 10.000076 
4.3495324e+2, 1.6559911e+2, -1430706.9, -1374201.4, -20830.852, 0.015493875, -0.1767855, -1367352.3, -50240.082, 0.0, 9.999258, 10.000003 
4.34963e+2, 1.7559943e+2, -1331608.5, -1273710.8, -16299.341, 0.02668696, -0.14804468, -1269437.5, -50328.26, 0.0, 9.999257, 10.00002 
4.3497244e+2, 1.8559937e+2, -1216665.0, -1187189.8, -8930.728, 0.0068815546, -0.14561777, -1184695.0, -63585.223, 0.0, 9.999458, 9.999844 
4.3498182e+2, 1.9559903e+2, -1063782.8, -1060185.3, -6344.7295, -0.02815586, -0.16701233, -1055389.3, -32276.31, 0.0, 9.999825, 9.9998665 
4.3499154e+2, 2.0559871e+2, -931781.75, -947464.75, -7468.0415, -0.019809011, -0.18376496, -928794.5, -3679.8418, 0.0, 10.000065, 9.999852 
4.3500152e+2, 2.155984e+2, -813679.06, -840505.94, -4318.5493, 0.019610057, -0.20210451, -813001.0, 14114.478, 0.0, 10.000206, 9.9998455 
4.3501103e+2, 2.2559795e+2, -733720.9, -812948.75, -10811.859, 0.015775954, -0.20350455, -732271.94, -3152.3433, 0.0, 10.000347, 9.999294 
4.3502006e+2, 2.3559737e+2, -613497.7, -701891.4, -13237.611, -0.020795071, -0.19331105, -611557.8, 19568.393, 0.0, 10.000489, 9.999315 
4.3502945e+2, 2.4559651e+2, -485272.16, -598939.06, -5547.4497, -0.031919334, -0.20504357, -485002.06, 48131.863, 0.0, 10.000738, 9.999229 
4.3503907e+2, 2.5559542e+2, -338365.66, -478142.47, 3311.2078, -0.023932103, -0.24098465, -338287.25, 96855.47, 0.0, 10.001078, 9.999223 
4.3504876e+2, 2.6559424e+2, -252584.05, -445540.9, 3539.0132, -0.0072172233, -0.25124454, -252519.17, 84634.055, 0.0, 10.00125, 9.998691 
4.350586e+2, 2.7559307e+2, -147800.78, -342188.28, -2520.014, 0.017975431, -0.24161725, -147768.13, 91396.586, 0.0, 10.001287, 9.99871 
4.3506804e+2, 2.855917e+2, -35360.793, -264516.66, 4803.344, 0.00412876, -0.23633128, -35260.156, 105917.73, 0.0, 10.001505, 9.998466 
4.3507728e+2, 2.955901e+2, 113285.42, -147364.11, 18036.084, -0.04305842, -0.24771243, 114527.54, 157720.97, 0.0, 10.001875, 9.998419 
4.350878e+2, 3.0558768e+2, 107648.11, -228358.8, 24990.158, 0.025453938, -0.27960643, 109496.555, 109496.555, 0.0, 10.001946, 9.997494 
4.3509743e+2, 3.1558573e+2, 235751.84, 78045.0, -25138.402, -0.0017078612, -0.22950047, 239661.95, 239661.95, 0.0000001100893, 10.001773, 9.999682 
4.4491372e+2, 1.2558636e+2, -1972329.0, -1792218.9, 71158.49, 0.04194474, -0.24226645, -1767498.4, -58264.383, 0.000008277144, 9.998035, 10.000415 
4.4492227e+2, 1.3558835e+2, -1759303.0, -1580608.5, -98361.96, 0.06314077, -0.13761926, -1537072.4, 74143.12, 0.0000015575915, 9.9985695, 10.00094 
4.4493124e+2, 1.4558882e+2, -1697202.5, -1585270.3, -5740.474, 0.013063496, -0.14476687, -1584976.5, -71764.93, 0.000000013935479, 9.9986925, 10.000173 
4.4494182e+2, 1.5558843e+2, -1628154.6, -1501850.9, 2111.285, -0.0023666457, -0.20102233, -1501815.6, -86599.484, 0.0, 9.998498, 10.000166 
4.4495222e+2, 1.6558859e+2, -1502921.4, -1402076.0, -23504.393, 0.013074951, -0.19635932, -1396866.8, -79651.63, 0.0, 9.9987335, 10.000064 
4.4496226e+2, 1.7558916e+2, -1319125.1, -1260774.5, -21926.8, 0.02641765, -0.1483653, -1253453.5, -34243.543, 0.0, 9.999314, 10.000081 
4.4497195e+2, 1.8558925e+2, -1190836.5, -1168513.6, -18780.691, 0.007088387, -0.13784933, -1157828.0, -36618.83, 0.0, 9.999609, 9.999899 
4.4498155e+2, 1.9558895e+2, -1081195.8, -1061841.0, -17642.797, -0.027952675, -0.1607959, -1051395.8, -28183.535, 0.0, 9.999676, 9.999927 
4.4499147e+2, 2.0558865e+2, -962030.2, -949343.75, -20217.953, -0.021547416, -0.18331721, -934497.3, -9283.754, 0.0, 9.999803, 9.999966 
4.4500154e+2, 2.1558838e+2, -840101.4, -841178.56, -15407.986, 0.014079405, -0.2102371, -825222.56, 1990.9766, 0.0, 9.999972, 9.999953 
4.4501123e+2, 2.25588e+2, -756410.56, -822968.3, -16446.756, 0.013087006, -0.20869464, -752568.3, -23351.496, 0.0, 10.000188, 9.999302 
4.4502056e+2, 2.3558754e+2, -620137.94, -703891.44, -13122.872, -0.015342481, -0.18733919, -618129.94, 13092.725, 0.0, 10.000439, 9.999326 
4.450302e+2, 2.455867e+2, -488644.44, -593349.2, -6517.901, -0.024871793, -0.20232129, -488240.25, 44990.02, 0.0, 10.000684, 9.999293 
4.450401e+2, 2.5558552e+2, -355761.38, -478710.9, -10766.493, -0.020575587, -0.2521958, -354825.72, 80413.75, 0.0, 10.000925, 9.999291 
4.4505003e+2, 2.655844e+2, -261049.31, -443420.8, -11242.6045, -0.0025849575, -0.2640318, -260358.84, 76890.49, 0.0, 10.001165, 9.998746 
4.4506e+2, 2.7558336e+2, -126477.56, -326372.63, -189.85237, 0.027983727, -0.24628031, -126477.38, 112782.14, 0.0, 10.00141, 9.998759 
4.4506967e+2, 2.8558207e+2, -15715.958, -253040.89, 7941.97, 0.009064321, -0.23519966, -15450.48, 125821.27, 0.0, 10.00163, 9.998485 
4.4507903e+2, 2.955805e+2, 106935.61, -147430.11, -584.5065, -0.05085167, -0.2418608, 106936.95, 150223.5, 0.0, 10.001818, 9.998446 
4.4508982e+2, 3.055777e+2, 119684.06, -227139.34, 629.4741, 0.027804852, -0.31529897, 119685.2, 119685.2, 0.00000000000009396187, 10.0020485, 9.997454 
4.450996e+2, 3.1557602e+2, 305850.25, 97052.98, -26593.074, 0.010277908, -0.23424162, 309184.0, 309184.0, 0.00000013361628, 10.002318, 9.99955 
4.5491156e+2, 1.2557594e+2, -1988886.1, -1825306.5, 101847.63, 0.024342759, -0.2109763, -1776472.8, -67137.47, 0.0000061456926, 9.99803, 10.000191 
4.5492077e+2, 1.3557687e+2, -1769678.5, -1603524.4, -79356.72, 0.05677846, -0.19358446, -1571713.3, 39614.81, 0.0000010596042, 9.998574, 10.000781 
4.5492974e+2, 1.455775e+2, -1680146.0, -1550577.8, -13164.429, -0.005063543, -0.19113453, -1549253.8, -35930.918, 0.000000007555667, 9.998695, 10.000409 
4.549404e+2, 1.5557803e+2, -1612626.4, -1469086.5, -3360.9526, 0.0042693624, -0.17911953, -1469007.9, -53690.0, 0.0, 9.998495, 10.000392 
4.5495096e+2, 1.6557826e+2, -1501940.0, -1398789.9, -1508.2748, 0.015478308, -0.17834698, -1398767.9, -81452.16, 0.0, 9.998728, 10.000089 
4.5496127e+2, 1.7557827e+2, -1317485.8, -1257039.8, -681.72656, -0.001342489, -0.18977834, -1257032.1, -37716.36, 0.0, 9.999312, 10.000108 
4.549714e+2, 1.8557833e+2, -1188143.0, -1162589.0, -16109.614, -0.008708991, -0.18349883, -1154804.6, -33489.19, 0.0, 9.999608, 9.99994 
4.5498154e+2, 1.9557847e+2, -1078102.6, -1055081.1, -14610.595, 0.0028384998, -0.16722763, -1047991.7, -24676.78, 0.0, 9.999675, 9.999973 
4.5499146e+2, 2.0557842e+2, -952681.2, -929612.56, -13869.957, -0.00055761245, -0.17712116, -923107.56, 2206.5957, 0.0, 9.999801, 10.000101 
4.5500118e+2, 2.1557818e+2, -830793.3, -821760.0, -8730.24, -0.020131761, -0.21163781, -816447.25, 10866.082, 0.0, 9.999972, 10.000087 
4.550111e+2, 2.2557783e+2, -750764.1, -811164.8, -7109.9243, -0.017485999, -0.21774986, -749938.5, -20622.418, 0.0, 10.000187, 9.999383 
4.550212e+2, 2.3557737e+2, -615320.2, -693663.9, -3739.5085, 0.0043226243, -0.20517509, -615142.06, 16179.558, 0.0, 10.000438, 9.999396 
4.5503122e+2, 2.4557665e+2, -496078.25, -608516.06, 2353.6572, 0.008668109, -0.20646937, -496029.0, 37299.637, 0.0, 10.000683, 9.99919 
4.550412e+2, 2.555757e+2, -361164.0, -489623.44, -1855.7493, -0.001516276, -0.22315037, -361137.22, 74199.555, 0.0, 10.000923, 9.999218 
4.550512e+2, 2.655746e+2, -241449.53, -402393.4, -2345.0017, -0.0012944122, -0.24311909, -241415.38, 95930.695, 0.0, 10.0011635, 9.999029 
4.5506123e+2, 2.7557343e+2, -109549.016, -291050.53, 8900.643, 0.0077501866, -0.26859626, -109113.58, 130242.81, 0.0, 10.001409, 9.999002 
4.550712e+2, 2.8557226e+2, -34211.773, -290881.25, 14691.994, -0.0019262682, -0.24252234, -33373.527, 107994.03, 0.0, 10.001628, 9.998225 
4.5508108e+2, 2.9557112e+2, 91979.5, -178527.27, 6208.4023, -0.026852302, -0.18510504, 92121.914, 135501.84, 0.0, 10.001819, 9.998232 
4.550921e+2, 3.0556783e+2, 134482.9, -196139.47, 10481.57, 0.05292033, -0.30400378, 134814.86, 134814.86, 0.00000000000087855477, 10.002048, 9.997666 
4.551017e+2, 3.15566e+2, 306443.63, 99078.51, -12197.0205, -0.010151294, -0.2547465, 307158.56, 307158.56, 0.00000014519496, 10.0023155, 9.999565 
4.649098e+2, 1.2556519e+2, -1954704.4, -1815249.5, 101132.52, 0.03146658, -0.1891301, -1762136.8, -52696.418, 0.000004581255, 9.998293, 10.000133 
4.6491918e+2, 1.3556558e+2, -1826075.6, -1632398.5, -77795.195, 0.057654217, -0.2235957, -1605020.4, 6418.675, 0.0000007444035, 9.998195, 10.000766 
4.649281e+2, 1.4556637e+2, -1721515.1, -1559255.8, -16795.33, -0.02304437, -0.21020553, -1557535.5, -44103.02, 0.0000000034677494, 9.9983635, 10.00051 
4.6493915e+2, 1.555674e+2, -1570905.0, -1438233.9, -16841.814, 0.018737964, -0.15743172, -1436129.3, -20706.846, 0.0, 9.998735, 10.000488 
4.6495e+2, 1.655677e+2, -1466041.5, -1376670.0, -9311.181, 0.033154592, -0.15639444, -1375710.3, -58290.77, 0.0, 9.998954, 10.000132 
4.649604e+2, 1.7556743e+2, -1351955.3, -1268760.0, -7785.1787, -0.006847387, -0.19971864, -1268037.8, -48615.688, 0.0, 9.999055, 10.000152 
4.649707e+2, 1.8556751e+2, -1239385.8, -1178700.6, -28387.127, -0.01891139, -0.19889404, -1167492.0, -46070.258, 0.0, 9.999219, 10.000017 
4.6498108e+2, 1.9556788e+2, -1108161.8, -1060914.6, -23574.902, 0.0036351162, -0.16716059, -1051163.8, -27744.54, 0.0, 9.999431, 10.000051 
4.6499124e+2, 2.0556799e+2, -961545.0, -924049.4, -19969.545, 0.0039163786, -0.1678662, -915406.25, 10010.652, 0.0, 9.999698, 10.00019 
4.650012e+2, 2.155679e+2, -819612.8, -806653.75, -18830.2, -0.018354295, -0.1981386, -793219.44, 34195.26, 0.0, 10.000007, 10.000174 
4.6501136e+2, 2.2556753e+2, -735758.56, -793988.94, -19152.018, -0.015051584, -0.21458364, -730024.1, -606.8923, 0.0, 10.000248, 9.999472 
4.650217e+2, 2.3556694e+2, -609481.6, -680848.5, -15233.81, 0.010149297, -0.22410208, -606365.9, 25057.744, 0.0, 10.000436, 9.999485 
4.6503192e+2, 2.4556635e+2, -496441.88, -604212.1, -1702.3202, 0.0122679295, -0.21586324, -496415.0, 37014.14, 0.0, 10.000661, 9.999229 
4.6504208e+2, 2.5556582e+2, -359545.84, -484818.22, 4278.034, -0.0042680176, -0.19739027, -359399.9, 76034.07, 0.0, 10.0009165, 9.999254 
4.6505228e+2, 2.6556474e+2, -240272.6, -396338.28, -2060.8118, -0.008776536, -0.22212517, -240245.39, 97198.01, 0.0, 10.001147, 9.999079 
4.650625e+2, 2.755632e+2, -113228.734, -287096.2, -8271.921, -0.0032368023, -0.2847781, -112836.07, 126620.46, 0.0, 10.001359, 9.999054 
4.650728e+2, 2.8556216e+2, -27165.818, -285485.44, 4284.0527, -0.005106437, -0.25110582, -27094.791, 114371.81, 0.0, 10.001667, 9.998243 
4.6508315e+2, 2.9556146e+2, 127486.02, -158190.03, 15826.537, -0.01305163, -0.1483909, 128360.15, 171834.75, 0.0, 10.002048, 9.998261 
4.650944e+2, 3.0555797e+2, 164027.22, -174984.7, 17186.404, 0.06810949, -0.2966399, 164896.27, 164896.27, 0.00000000000042122027, 10.00222, 9.99773 
4.6510386e+2, 3.1555605e+2, 277695.5, 62632.195, -11733.445, -0.018972343, -0.26043242, 278333.75, 278333.75, 0.00000014428599, 10.0022135, 9.999365 
4.7490838e+2, 1.2555408e+2, -1948106.9, -1800673.1, 104936.27, 0.060519855, -0.17867264, -1746148.9, -36599.305, 0.0000033199578, 9.998289, 10.000235 
4.7491744e+2, 1.3555449e+2, -1817921.9, -1614716.8, -80246.06, 0.065591, -0.22529817, -1586849.1, 24699.025, 0.00000048107097, 9.99819, 10.00089 
4.7492626e+2, 1.4555544e+2, -1724262.3, -1563998.1, -2323.2383, -0.04153406, -0.19918968, -1563964.4, -50424.195, 0.000000000765976, 9.998359, 10.00048 
4.749381e+2, 1.5555653e+2, -1572315.0, -1441863.0, -2889.2212, 0.039459396, -0.13659093, -1441799.1, -26269.15, 0.0, 9.998738, 10.000462 
4.7494924e+2, 1.6555688e+2, -1461764.1, -1368364.0, -5586.232, 0.0646674, -0.13215299, -1368031.0, -50504.395, 0.0, 9.998956, 10.000188 
4.7495958e+2, 1.7555666e+2, -1348010.5, -1260144.0, -3480.061, 0.009043175, -0.17775543, -1260006.4, -40477.434, 0.0, 9.999053, 10.000212 
4.749699e+2, 1.8555677e+2, -1231431.1, -1161608.5, -20335.693, -0.02428659, -0.18287577, -1156117.5, -34589.25, 0.0, 9.999216, 10.000135 
4.7498024e+2, 1.9555716e+2, -1100268.4, -1044466.4, -15150.358, -0.026176887, -0.16006178, -1040618.4, -17093.05, 0.0, 9.999431, 10.000164 
4.7499081e+2, 2.0555739e+2, -959106.2, -918786.8, -8312.696, -0.008883924, -0.15569387, -917140.2, 8381.573, 0.0, 9.999697, 10.000226 
4.7500154e+2, 2.155575e+2, -816858.4, -800765.9, -7346.229, 0.018505419, -0.16992764, -797916.75, 29600.94, 0.0, 10.000006, 10.000215 
4.7501194e+2, 2.2555707e+2, -729148.56, -780244.8, -12332.234, 0.019585315, -0.19924293, -726327.9, 3192.5457, 0.0, 10.000247, 9.999567 
4.7502205e+2, 2.3555622e+2, -602374.6, -665801.0, -8099.778, 0.0016067456, -0.24440151, -601356.6, 30172.002, 0.0, 10.000434, 9.99959 
4.7503233e+2, 2.4555585e+2, -484177.3, -578473.94, 7532.4175, -0.01430618, -0.23059812, -483579.4, 49952.426, 0.0, 10.00066, 9.999408 
4.7504276e+2, 2.5555584e+2, -349188.88, -463105.25, 13494.835, -0.029118245, -0.17448898, -347612.06, 87919.11, 0.0, 10.000916, 9.999404 
4.7505325e+2, 2.6555473e+2, -253295.4, -423067.94, 5487.9233, -0.025409995, -0.20050472, -253118.2, 84423.1, 0.0, 10.001146, 9.998896 
4.750638e+2, 2.7555266e+2, -123772.6, -308582.88, -194.65388, -0.0061132056, -0.29529878, -123772.39, 115787.625, 0.0, 10.001357, 9.998907 
4.750745e+2, 2.8555173e+2, -6776.6, -242680.75, 18109.617, -0.0015298676, -0.26142982, -5394.4795, 136174.53, 0.0, 10.001665, 9.998539 
4.750852e+2, 2.955516e+2, 146254.75, -118647.45, 29039.867, -0.010082278, -0.13165443, 149400.89, 192971.53, 0.0, 10.002046, 9.998535 
4.7509664e+2, 3.0554804e+2, 157687.19, -187296.63, 16262.28, 0.07301648, -0.29327875, 158452.1, 158452.1, 0.0, 10.002217, 9.997646 
4.7510606e+2, 3.1554607e+2, 249962.08, 4364.4126, -5773.1084, -0.01913177, -0.2560286, 250097.7, 250097.7, 0.00000012581201, 10.002216, 9.998962 
4.8490673e+2, 1.2554266e+2, -1917572.3, -1786904.6, 104484.56, 0.05863424, -0.19901067, -1729008.9, -19347.1, 0.0000022837717, 9.998505, 10.000224 
4.849159e+2, 1.355436e+2, -1795323.4, -1602748.6, -95741.93, 0.08697199, -0.19119172, -1563250.3, 48405.582, 0.0000002759338, 9.998341, 10.0009 
4.8492455e+2, 1.4554468e+2, -1710959.0, -1551274.4, -2262.7412, -0.048785012, -0.15517822, -1551242.3, -37595.703, 0.000000000009128432, 9.998423, 10.000537 
4.8493674e+2, 1.5554531e+2, -1577340.0, -1438272.0, 2918.0889, 0.03521057, -0.14643104, -1438210.8, -22570.203, 0.0, 9.998677, 10.000516 
4.8494816e+2, 1.6554567e+2, -1476416.0, -1370731.3, -5519.9746, 0.06517658, -0.1446631, -1370443.6, -52806.555, 0.0, 9.998835, 10.000231 
4.8495862e+2, 1.7554589e+2, -1365540.9, -1264028.5, -3909.7058, 0.012557972, -0.14988112, -1263878.1, -44242.63, 0.0, 9.998912, 10.000253 
4.8496908e+2, 1.855461e+2, -1240604.0, -1165155.4, -18264.152, -0.019715214, -0.14744626, -1160966.6, -39332.53, 0.0, 9.999149, 10.000144 
4.8497975e+2, 1.955463e+2, -1087690.6, -1037308.75, -21922.828, -0.021071058, -0.144157, -1029105.2, -5472.1465, 0.0, 9.999512, 10.0001745 
4.8499054e+2, 2.055465e+2, -953478.8, -910568.94, -21630.52, -0.005484969, -0.14707634, -901557.6, 24072.148, 0.0, 9.999711, 10.000277 
4.8500144e+2, 2.1554668e+2, -846709.3, -809432.9, -19292.318, 0.018011658, -0.15863569, -801246.1, 26378.436, 0.0, 9.999777, 10.000266 
4.8501205e+2, 2.2554632e+2, -762265.2, -793235.8, -23477.025, 0.019283315, -0.18631703, -749626.4, -19999.797, 0.0, 10.000008, 9.999593 
4.8502246e+2, 2.3554549e+2, -609803.9, -666420.3, -25043.236, 0.0048473254, -0.2302184, -600316.4, 31317.992, 0.0, 10.00037, 9.999617 
4.8503298e+2, 2.4554506e+2, -488497.44, -573739.8, -19494.023, -0.011520489, -0.22649929, -484250.9, 49386.92, 0.0, 10.000601, 9.999469 
4.8504356e+2, 2.5554493e+2, -371948.2, -467115.6, -22047.945, -0.030458145, -0.18984997, -367088.4, 68549.67, 0.0, 10.00073, 9.999466 
4.850543e+2, 2.6554388e+2, -272359.38, -426817.16, -20415.85, -0.025536759, -0.21321459, -269706.4, 67940.86, 0.0, 10.000992, 9.998944 
4.8506525e+2, 2.7554208e+2, -121053.43, -302248.34, -9103.22, -0.00036328053, -0.2876711, -120597.234, 119066.43, 0.0, 10.001354, 9.998952 
4.8507613e+2, 2.8554115e+2, -15107.1875, -243997.52, 4508.17, 0.0012025438, -0.2569115, -15018.431, 126654.266, 0.0, 10.0015955, 9.998564 
4.8508704e+2, 2.9554084e+2, 104733.08, -134157.23, -4562.8955, -0.017819704, -0.147121, 104820.2, 148496.3, 0.0, 10.00174, 9.998576 
4.850988e+2, 3.055374e+2, 165784.2, -161753.83, -11946.293, 0.07175876, -0.30907553, 166219.34, 166219.34, 0.0, 10.002179, 9.997841 
4.851087e+2, 3.155359e+2, 329614.03, 25886.945, -7898.889, -0.0061407746, -0.24242368, 329819.3, 329819.3, 0.00000009052117, 10.002837, 9.998813 
4.9490488e+2, 1.2553085e+2, -1927489.8, -1806205.9, 103148.66, 0.021719873, -0.2500475, -1747193.8, -37416.52, 0.0000015131136, 9.9985, 10.000094 
4.949146e+2, 1.3553289e+2, -1802093.1, -1618108.0, -100655.42, 0.11956434, -0.122044325, -1573740.3, 38021.797, 0.00000014199817, 9.998344, 10.000793 
4.94923e+2, 1.4553408e+2, -1700598.3, -1530251.3, 7240.657, -0.04708958, -0.07859143, -1529944.0, -16192.298, 0.0, 9.998424, 10.000681 
4.9493513e+2, 1.5553367e+2, -1567807.3, -1418341.1, 12084.924, 0.0046029314, -0.18605421, -1417370.4, -1616.0272, 0.0, 9.998676, 10.000653 
4.9494666e+2, 1.6553406e+2, -1473973.9, -1365448.9, -2656.1106, 0.03314408, -0.19305052, -1365383.9, -47632.94, 0.0, 9.998834, 10.000268 
4.9495742e+2, 1.7553511e+2, -1363205.1, -1259585.3, -77.7954, 0.0023153534, -0.11628532, -1259585.1, -39843.277, 0.0, 9.998914, 10.000283 
4.9496838e+2, 1.8553549e+2, -1247924.4, -1180291.3, -4512.439, -0.006205434, -0.092960574, -1179991.5, -58252.125, 0.0, 9.999148, 10.000041 
4.9497962e+2, 1.955353e+2, -1094375.6, -1051047.4, -8623.16, 0.018352097, -0.11938058, -1049394.3, -25651.844, 0.0, 9.999511, 10.00008 
4.9499044e+2, 2.055353e+2, -948852.6, -900947.6, -19354.793, 0.013568447, -0.14173989, -894105.1, 31635.707, 0.0, 9.999711, 10.000342 
4.950008e+2, 2.1553543e+2, -842416.44, -800395.0, -16158.584, -0.02028623, -0.16425064, -794900.06, 32835.36, 0.0, 9.999776, 10.000329 
4.9501172e+2, 2.2553523e+2, -765554.25, -799902.94, -9885.505, -0.01664103, -0.1758992, -762912.44, -33176.625, 0.0, 10.000006, 9.999548 
4.9502298e+2, 2.3553474e+2, -613283.4, -673637.9, -11978.662, 0.019268138, -0.18149097, -610992.9, 20747.906, 0.0, 10.000369, 9.999567 
4.9503386e+2, 2.4553402e+2, -492359.84, -581843.06, -14948.683, 0.019713596, -0.20319152, -489928.63, 43818.457, 0.0, 10.000601, 9.9994135 
4.950445e+2, 2.5553304e+2, -374099.47, -471712.22, -16723.9, -0.009636121, -0.24295115, -371313.7, 64440.867, 0.0, 10.00073, 9.999434 
4.9505544e+2, 2.655322e+2, -252892.56, -386576.5, -7161.056, -0.010290102, -0.26004398, -252510.06, 85251.22, 0.0, 10.000993, 9.99922 
4.950667e+2, 2.755314e+2, -104210.914, -267223.16, 3670.7073, 0.013018571, -0.26279208, -104128.305, 135639.25, 0.0, 10.001354, 9.999193 
4.9507776e+2, 2.855304e+2, -32524.53, -279677.44, 9436.413, 0.0025995683, -0.23775804, -32164.766, 109612.86, 0.0, 10.001594, 9.99832 
4.950886e+2, 2.955292e+2, 91383.84, -161919.22, 1949.2632, -0.03606942, -0.19307901, 91398.84, 135189.47, 0.0, 10.00174, 9.998384 
4.9510092e+2, 3.0552602e+2, 197970.52, -94067.07, 12222.929, 0.06421371, -0.34306875, 198481.19, 198481.19, 0.0, 10.002175, 9.998307 
4.9511176e+2, 3.155255e+2, 334969.3, 39388.547, 21787.52, 0.016098524, -0.22371945, 336566.66, 336566.66, 0.000000050936965, 10.002827, 9.99891 
5.0490314e+2, 1.255196e+2, -1944235.5, -1810300.9, 86363.11, 0.0068284078, -0.226158, -1767983.3, -58094.684, 0.0000009949754, 9.998368, 10.00013 
5.049131e+2, 1.355212e+2, -1789662.1, -1609240.3, -108240.87, 0.13162072, -0.14216386, -1558546.6, 53329.945, 0.000000065122016, 9.998417, 10.00082 
5.049214e+2, 1.4552249e+2, -1686726.1, -1521875.0, 6971.53, -0.059643943, -0.09204109, -1521580.8, -7715.4214, 0.0, 9.998511, 10.000696 
5.049338e+2, 1.555223e+2, -1578788.4, -1421695.1, 1343.6843, 0.00794559, -0.17841986, -1421683.6, -5817.5093, 0.0, 9.998592, 10.000671 
5.049455e+2, 1.6552277e+2, -1480834.9, -1362375.9, -16940.084, 0.040845558, -0.18114927, -1360001.0, -42138.992, 0.0, 9.998757, 10.000326 
5.0495636e+2, 1.755238e+2, -1348478.4, -1246807.4, -12612.175, 0.0025365558, -0.11302773, -1245266.3, -25413.057, 0.0, 9.998989, 10.000335 
5.049676e+2, 1.8552417e+2, -1240384.8, -1183530.6, -9184.696, -0.006332286, -0.090849966, -1182083.6, -60232.758, 0.0, 9.9992285, 9.99998 
5.0497913e+2, 1.9552396e+2, -1104121.9, -1062157.4, -10334.728, 0.023939785, -0.11231682, -1059750.3, -35896.06, 0.0, 9.999471, 10.000024 
5.0499016e+2, 2.0552391e+2, -948637.6, -900266.25, -27372.467, 0.016210657, -0.13613883, -887925.25, 37927.703, 0.0, 9.999709, 10.000348 
5.050006e+2, 2.1552399e+2, -817294.8, -787771.1, -28761.234, -0.027758427, -0.16587573, -770204.6, 57643.305, 0.0, 9.999946, 10.000334 
5.0501174e+2, 2.255238e+2, -740711.9, -789451.5, -17592.682, -0.024847463, -0.1745055, -735025.2, -5177.1357, 0.0, 10.000183, 9.999535 
5.0502336e+2, 2.3552342e+2, -606751.06, -672342.75, -17536.42, 0.017857105, -0.16901778, -602356.94, 29495.408, 0.0, 10.0004225, 9.999551 
5.0503457e+2, 2.455226e+2, -484388.47, -582533.75, -22413.992, 0.02551892, -0.19542259, -479511.97, 54347.383, 0.0, 10.000675, 9.9993725 
5.050454e+2, 2.5552145e+2, -346559.25, -462690.44, -23027.98, 0.0038925065, -0.25178012, -342159.66, 93708.93, 0.0, 10.000937, 9.999396 
5.050566e+2, 2.6552063e+2, -226165.27, -369851.13, -20183.75, 0.0028625838, -0.26511446, -223383.88, 114491.08, 0.0, 10.001161, 9.999254 
5.050681e+2, 2.7552006e+2, -102430.234, -263394.6, -27846.959, 0.018823955, -0.24929164, -97748.84, 142130.5, 0.0, 10.001354, 9.999219 
5.050793e+2, 2.8551897e+2, -32669.473, -287520.88, -23889.764, 0.0028325114, -0.22719681, -30449.387, 111440.66, 0.0, 10.001627, 9.99825 
5.050904e+2, 2.9551753e+2, 118257.875, -154844.88, -18439.307, -0.03897726, -0.19858673, 119497.234, 163402.47, 0.0, 10.001951, 9.998332 
5.0510305e+2, 3.055147e+2, 218492.48, -59419.402, -6476.8286, 0.056750495, -0.32990456, 218643.36, 218643.36, 0.0, 10.002211, 9.998528 
5.0511426e+2, 3.1551427e+2, 268690.44, -2673.4314, -9744.298, 0.00345294, -0.21865132, 269039.9, 269039.9, 0.000000020855737, 10.002416, 9.998818 
5.149016e+2, 1.2550886e+2, -1930492.6, -1780410.6, 88195.29, 0.009345668, -0.123511754, -1739652.0, -29656.5, 0.00000067894854, 9.998363, 10.000338 
5.1491135e+2, 1.3550852e+2, -1777752.0, -1585123.3, -106145.54, 0.12230527, -0.25217703, -1538108.1, 73891.54, 0.000000029496794, 9.998418, 10.000986 
5.149196e+2, 1.4550987e+2, -1695187.0, -1538995.9, 9966.071, -0.08850445, -0.19707112, -1538362.6, -24374.95, 0.0, 9.998509, 10.00058 
5.1493275e+2, 1.5551119e+2, -1585918.3, -1436726.5, 4487.682, 0.043904223, -0.12335287, -1436591.6, -20615.547, 0.0, 9.998593, 10.000567 
5.149448e+2, 1.6551182e+2, -1474911.1, -1350193.6, -8704.991, 0.087784894, -0.10796266, -1349589.0, -31618.428, 0.0, 9.998757, 10.00041 
5.1495546e+2, 1.7551193e+2, -1342891.6, -1235353.9, -3831.448, 0.012910866, -0.13991679, -1235217.5, -15248.159, 0.0, 9.998989, 10.000414 
5.149666e+2, 1.8551208e+2, -1241514.3, -1185797.0, -111.35892, -0.021224873, -0.14137165, -1185796.8, -63828.117, 0.0, 9.9992285, 9.999965 
5.1497835e+2, 1.9551226e+2, -1105458.5, -1064813.6, -1151.85, -0.005181316, -0.12310776, -1064781.0, -40812.555, 0.0, 9.99947, 10.000006 
5.1498973e+2, 2.0551234e+2, -952680.94, -908315.8, -18600.408, 0.0016387926, -0.13046914, -901549.44, 24416.67, 0.0, 9.999708, 10.000294 
5.150008e+2, 2.1551234e+2, -820980.94, -795196.3, -19907.383, -0.005057107, -0.16312243, -784371.2, 43590.95, 0.0, 9.999944, 10.000283 
5.150121e+2, 2.2551204e+2, -739555.4, -787146.4, -8711.705, -0.0060277083, -0.18170172, -738010.75, -8047.3535, 0.0, 10.000183, 9.999551 
5.1502365e+2, 2.3551151e+2, -605695.56, -670223.75, -8455.334, 0.000059881164, -0.19270258, -604606.06, 27362.943, 0.0, 10.0004225, 9.999565 
5.1503503e+2, 2.4551083e+2, -486318.25, -586532.56, -12819.65, 0.005447334, -0.2035709, -484704.3, 49270.293, 0.0, 10.000675, 9.999346 
5.150465e+2, 2.5551006e+2, -349310.6, -468372.5, -13462.547, 0.009838685, -0.2173229, -347807.34, 88172.86, 0.0, 10.0009365, 9.999358 
5.150579e+2, 2.6550916e+2, -240779.72, -400396.88, -13080.799, 0.013774994, -0.22906841, -239714.84, 98273.44, 0.0, 10.001161, 9.999044 
5.150695e+2, 2.7550802e+2, -115335.14, -290729.66, -20262.879, 0.016770054, -0.24627674, -113024.66, 126974.195, 0.0, 10.001355, 9.999031 
5.150809e+2, 2.8550693e+2, -25874.33, -273244.7, -12003.894, 0.0010573268, -0.22478595, -25293.193, 116716.61, 0.0, 10.001626, 9.998348 
5.1509243e+2, 2.9550588e+2, 123326.77, -143140.7, -6646.259, -0.02892569, -0.16643114, 123492.445, 167512.61, 0.0, 10.001946, 9.998414 
5.151052e+2, 3.0550328e+2, 216532.55, -62487.16, 709.26465, 0.04818805, -0.27241167, 216534.34, 216534.34, 0.0, 10.002206, 9.998509 
5.151162e+2, 3.155022e+2, 249460.22, -42312.434, 3353.7336, -0.043113217, -0.226362, 249498.77, 249498.77, 0.0000000053166334, 10.002415, 9.998548 
5.248998e+2, 1.2549718e+2, -1935766.0, -1771441.4, 96796.14, 0.0071532563, -0.11880802, -1726638.6, -16528.209, 0.0000005002885, 9.99828, 10.000438 
5.2491003e+2, 1.354968e+2, -1756212.9, -1568404.9, -106011.87, 0.13991752, -0.25905254, -1520688.0, 91426.63, 0.000000016983103, 9.998539, 10.001042 
5.24918e+2, 1.4549825e+2, -1672013.5, -1532832.3, 4608.238, -0.10311636, -0.19372319, -1532679.9, -18578.355, 0.0, 9.99869, 10.000535 
5.249313e+2, 1.5549953e+2, -1576771.9, -1437078.4, 4358.341, 0.042431988, -0.118717864, -1436942.5, -20851.867, 0.0, 9.998676, 10.0005245 
5.249436e+2, 1.655001e+2, -1462556.1, -1346448.9, -1930.4017, 0.093568906, -0.10528402, -1346416.9, -28331.137, 0.0, 9.998852, 10.000391 
5.249546e+2, 1.7550017e+2, -1315779.5, -1224212.3, -5807.374, 0.017822921, -0.14083327, -1223845.4, -3760.2979, 0.0, 9.999184, 10.000397 
5.249659e+2, 1.8550031e+2, -1224522.3, -1175400.0, -9763.452, -0.021929631, -0.14416972, -1173530.6, -51446.418, 0.0, 9.999335, 9.999986 
5.249777e+2, 1.955005e+2, -1124542.1, -1072522.0, -7986.5034, -0.014304808, -0.12696889, -1071323.5, -47240.16, 0.0, 9.999332, 10.00002 
5.249893e+2, 2.0550048e+2, -980314.06, -933391.06, -18283.613, -0.0040502595, -0.13687757, -927108.1, -1026.311, 0.0, 9.999568, 10.000189 
5.250008e+2, 2.1550035e+2, -819805.2, -805614.1, -23955.764, 0.0016809127, -0.17227331, -787725.1, 40354.55, 0.0, 10.0, 10.000186 
5.250123e+2, 2.2550005e+2, -723959.6, -777072.06, -18881.066, -0.0016127701, -0.1884222, -717931.7, 12149.455, 0.0, 10.000279, 9.999574 
5.2502394e+2, 2.3549959e+2, -601377.8, -665620.3, -17949.695, -0.009662684, -0.19344431, -596702.8, 35382.895, 0.0, 10.000442, 9.999588 
5.2503556e+2, 2.4549896e+2, -481597.38, -585211.2, -17134.441, -0.0072034276, -0.20166767, -478837.4, 55253.465, 0.0, 10.000712, 9.999336 
5.2504736e+2, 2.5549817e+2, -331539.3, -462242.5, -17071.717, 0.0029771114, -0.21512295, -329346.28, 106750.234, 0.0, 10.00107, 9.999335 
5.2505916e+2, 2.6549718e+2, -232980.86, -423438.72, -21522.162, 0.012238342, -0.21938547, -230579.1, 107526.625, 0.0, 10.00133, 9.998804 
5.250709e+2, 2.7549598e+2, -109309.62, -312609.6, -30958.727, 0.020634685, -0.22342137, -104699.72, 135418.53, 0.0, 10.001505, 9.998808 
5.2508265e+2, 2.854947e+2, -12758.796, -260135.34, -22879.871, 0.0044644573, -0.21247938, -10660.435, 131470.36, 0.0, 10.001688, 9.998407 
5.250943e+2, 2.954934e+2, 116339.664, -141386.22, -20521.17, -0.031507067, -0.18195416, 117963.414, 162105.7, 0.0, 10.001876, 9.99846 
5.2510726e+2, 3.0549115e+2, 197635.66, -80782.445, -17398.207, 0.044242334, -0.25146422, 198718.64, 198718.64, 0.0, 10.002116, 9.998426 
5.2511865e+2, 3.1548986e+2, 228955.48, -78331.34, -13887.446, -0.035708163, -0.21808043, 229581.83, 229581.83, 0.00000000056215, 10.002386, 9.998313 
5.348979e+2, 1.2548453e+2, -1938137.9, -1775825.3, 102213.19, -0.0055331076, -0.21674359, -1726467.8, -16234.164, 0.00000041209, 9.998278, 10.000407 
5.34909e+2, 1.3548602e+2, -1760493.5, -1578552.8, -96174.0, 0.18317808, -0.15992185, -1537141.0, 75080.25, 0.000000018082496, 9.998543, 10.000971 
5.349167e+2, 1.4548764e+2, -1669594.9, -1527868.4, 3822.3545, -0.10464423, -0.07770927, -1527765.3, -13558.628, 0.0, 9.99869, 10.000569 
5.349296e+2, 1.5548733e+2, -1574955.0, -1433592.0, 4124.19, 0.0018312469, -0.16497059, -1433471.8, -17261.96, 0.0, 9.998677, 10.000548 
5.349421e+2, 1.6548762e+2, -1471628.6, -1365194.5, 10277.725, 0.055802915, -0.1748469, -1364211.1, -46003.375, 0.0, 9.998852, 10.000262 
5.349537e+2, 1.754885e+2, -1323865.8, -1241254.3, 6153.982, 0.015930163, -0.11558415, -1240798.4, -20598.098, 0.0, 9.999185, 10.000279 
5.3496534e+2, 1.8548882e+2, -1220587.3, -1167127.1, -10162.522, -0.009202352, -0.09844709, -1165260.4, -43062.926, 0.0, 9.999334, 10.000043 
5.349771e+2, 1.9548863e+2, -1121287.0, -1065792.0, -7382.1484, -0.0038514393, -0.123791516, -1064826.8, -40627.836, 0.0, 9.999332, 10.000067 
5.349889e+2, 2.0548835e+2, -991500.0, -956255.0, -2149.2668, -0.0015134687, -0.15515408, -956124.44, -29924.412, 0.0, 9.999567, 10.000033 
5.3500074e+2, 2.1548803e+2, -830482.94, -827369.9, -8239.766, -0.008258387, -0.19366236, -820540.94, 7659.6567, 0.0, 9.999997, 10.000037 
5.350125e+2, 2.2548783e+2, -721935.94, -772701.9, -13032.192, -0.012334672, -0.19529785, -718785.94, 11415.432, 0.0, 10.000278, 9.999604 
5.3502434e+2, 2.3548768e+2, -599221.2, -661310.4, -11557.149, -0.0116354115, -0.1714671, -597139.75, 35062.637, 0.0, 10.000442, 9.999618 
5.3503627e+2, 2.4548697e+2, -481097.84, -584305.1, -3806.597, -0.013035185, -0.18950678, -480957.63, 53250.43, 0.0, 10.000712, 9.999343 
5.3504825e+2, 2.5548577e+2, -332106.56, -463560.3, -4051.0437, -0.017282005, -0.24430984, -331981.84, 104235.64, 0.0, 10.00107, 9.999327 
5.350603e+2, 2.6548478e+2, -252039.7, -462935.78, -15319.107, -0.0023943954, -0.2356483, -250932.77, 87294.48, 0.0, 10.00133, 9.998533 
5.350725e+2, 2.7548385e+2, -127637.1, -350263.8, -24504.193, 0.029018236, -0.18229921, -124971.875, 115265.84, 0.0, 10.001503, 9.99855 
5.350844e+2, 2.8548223e+2, -11565.797, -257252.17, -15952.866, 0.011972047, -0.19100904, -10534.279, 131718.84, 0.0, 10.001686, 9.998429 
5.35096e+2, 2.954802e+2, 117053.05, -140027.22, -13168.934, -0.04581995, -0.24194509, 117725.87, 161997.17, 0.0, 10.001877, 9.998469 
5.351094e+2, 3.0547833e+2, 187036.94, -102138.305, -7740.1294, 0.044403248, -0.26428127, 187243.95, 187243.95, 0.0, 10.002112, 9.9982815 
5.3512156e+2, 3.1547725e+2, 213481.06, -108183.625, 2037.5402, 0.018995112, -0.19492969, 213493.97, 213493.97, 0.0000000000003731001, 10.002376, 9.998113 
5.4489625e+2, 1.2547258e+2, -1927715.8, -1776081.5, 90870.2, -0.010056659, -0.22614102, -1733553.3, -23203.041, 0.00000036785775, 9.998372, 10.0003605 
5.449077e+2, 1.3547412e+2, -1783428.8, -1601425.5, -103267.5, 0.20304678, -0.15549184, -1554784.6, 57553.805, 0.000000024396927, 9.998436, 10.000866 
5.4491514e+2, 1.4547582e+2, -1675364.1, -1519654.1, -5225.2627, -0.11988614, -0.063677795, -1519479.0, -5156.06, 0.0, 9.998603, 10.000668 
5.4492813e+2, 1.5547545e+2, -1551497.9, -1412369.6, -1418.932, -0.012295005, -0.1670983, -1412355.1, 3970.859, 0.0, 9.998796, 10.000637 
5.449408e+2, 1.654757e+2, -1464656.6, -1376637.1, 12337.267, 0.043564837, -0.17848693, -1374940.6, -56616.184, 0.0, 9.998963, 10.00013 
5.4495275e+2, 1.7547655e+2, -1345258.5, -1265626.1, 7475.184, 0.005142808, -0.10823689, -1264930.5, -44612.69, 0.0, 9.9991, 10.000153 
5.449647e+2, 1.854768e+2, -1221403.6, -1168386.9, -14590.808, -0.011955384, -0.0915798, -1164636.6, -42320.938, 0.0, 9.999333, 10.000034 
5.449767e+2, 1.954765e+2, -1076350.3, -1045956.1, -17007.916, 0.007140642, -0.12684834, -1038344.8, -14027.3955, 0.0, 9.999649, 10.00005 
5.4498863e+2, 2.0547615e+2, -960704.44, -960450.9, -10156.213, 0.0066390717, -0.15641159, -950420.6, -24101.213, 0.0, 9.999861, 9.999863 
5.450006e+2, 2.1547575e+2, -843724.2, -851993.06, -17496.145, -0.016752468, -0.18405375, -829880.6, -1559.1858, 0.0, 9.999986, 9.999874 
5.4501265e+2, 2.2547545e+2, -728665.8, -777637.25, -24991.299, -0.023989324, -0.18606448, -718164.2, 12158.94, 0.0, 10.000239, 9.999589 
5.450248e+2, 2.354752e+2, -577445.56, -653131.6, -27169.13, -0.015223613, -0.17171037, -568702.56, 63622.074, 0.0, 10.000602, 9.999597 
5.4503703e+2, 2.4547441e+2, -467665.7, -592194.75, -25937.326, -0.012281975, -0.18969828, -462479.38, 71851.78, 0.0, 10.000868, 9.999213 
5.450493e+2, 2.554732e+2, -342791.25, -482093.0, -36240.383, -0.01533629, -0.23629774, -333927.1, 102414.6, 0.0, 10.001056, 9.999206 
5.450616e+2, 2.654721e+2, -254564.55, -459485.56, -41028.465, -0.0028076796, -0.22920121, -246655.27, 91696.445, 0.0, 10.001293, 9.998573 
5.45074e+2, 2.7547112e+2, -116488.93, -341634.88, -27612.068, 0.023037318, -0.18656571, -113152.02, 127209.805, 0.0, 10.001566, 9.998579 
5.450861e+2, 2.8546935e+2, -11287.097, -278341.44, -18691.979, 0.0068791728, -0.20362456, -9985.133, 132393.89, 0.0, 10.0017805, 9.998238 
5.4509795e+2, 2.9546708e+2, 113508.79, -161707.53, -31781.23, -0.044460554, -0.25800276, 117131.125, 161531.61, 0.0, 10.00194, 9.998289 
5.451115e+2, 3.0546564e+2, 183210.19, -91084.02, -24354.332, 0.04509158, -0.23667763, 185355.8, 185355.8, 0.0, 10.002031, 9.998396 
5.451238e+2, 3.1546435e+2, 179462.78, -106521.195, 9457.236, 0.026120868, -0.19929801, 179775.19, 179775.19, 0.000000000015387011, 10.002065, 9.998274 
5.5489457e+2, 1.254614e+2, -1931134.0, -1783269.3, 84094.72, -0.010433247, -0.14156625, -1745228.9, -34768.715, 0.0000003291145, 9.998373, 10.00031 
5.549061e+2, 1.3546103e+2, -1791933.8, -1620374.5, -100142.14, 0.19760776, -0.24942453, -1574295.9, 38170.508, 0.000000025104656, 9.998441, 10.000734 
5.5491346e+2, 1.4546275e+2, -1664508.4, -1497440.0, 2079.3428, -0.15149204, -0.15632543, -1497414.1, 17036.389, 0.0, 9.998604, 10.00082 
5.5492705e+2, 1.554639e+2, -1541191.4, -1391090.6, 5652.2524, -0.0006431866, -0.123482965, -1390878.1, 25560.963, 0.0, 9.9987955, 10.000783 
5.549399e+2, 1.6546436e+2, -1474558.3, -1396609.6, 17158.646, 0.057088587, -0.11365368, -1392999.6, -74564.16, 0.0, 9.998961, 9.999993 
5.5495167e+2, 1.754643e+2, -1354937.1, -1285510.0, 12881.303, -0.015341009, -0.11918955, -1283197.1, -62759.418, 0.0, 9.999098, 10.000017 
5.549638e+2, 1.8546423e+2, -1226921.9, -1179736.0, -2808.5415, -0.03152094, -0.12471856, -1179569.5, -57130.723, 0.0, 9.999332, 9.999957 
5.5497646e+2, 1.9546409e+2, -1082035.5, -1057883.6, -5388.5854, 0.018101286, -0.136511, -1056735.9, -32297.074, 0.0, 9.999649, 9.999969 
5.549886e+2, 2.0546387e+2, -973767.94, -987576.4, -5640.043, 0.02008964, -0.14111584, -971757.06, -45316.996, 0.0, 9.999861, 9.999677 
5.550005e+2, 2.1546353e+2, -856328.7, -878086.44, -12367.841, -0.024444107, -0.14330545, -850736.0, -22293.805, 0.0, 9.999985, 9.999696 
5.5501276e+2, 2.2546297e+2, -733137.6, -786802.44, -11474.918, -0.037330218, -0.16038774, -730786.94, -340.55496, 0.0, 10.000239, 9.999527 
5.5502534e+2, 2.3546217e+2, -582668.9, -663903.3, -13928.459, -0.021091826, -0.19404444, -580347.06, 52105.367, 0.0, 10.000601, 9.999523 
5.55038e+2, 2.454613e+2, -486056.2, -630356.6, -19106.807, -0.0057815807, -0.20269008, -483569.13, 50891.043, 0.0, 10.000868, 9.998951 
5.550506e+2, 2.5546038e+2, -359194.53, -516087.84, -28880.7, 0.0077527147, -0.19235379, -354047.1, 82422.1, 0.0, 10.001056, 9.998972 
5.5506307e+2, 2.6545924e+2, -230863.88, -409982.38, -30810.584, 0.010154612, -0.20039278, -225712.25, 112766.87, 0.0, 10.001292, 9.998915 
5.550753e+2, 2.7545783e+2, -95294.21, -297465.75, -17658.791, 0.0029240937, -0.23439926, -93763.38, 146727.13, 0.0, 10.001565, 9.998883 
5.550876e+2, 2.85456e+2, -39859.26, -336891.97, -13131.087, -0.011262665, -0.24913308, -39279.902, 103228.62, 0.0, 10.001777, 9.997838 
5.551e+2, 2.9545406e+2, 86297.69, -216394.67, -26007.244, -0.030279847, -0.23266457, 88515.97, 133046.05, 0.0, 10.001931, 9.997917 
5.5511343e+2, 3.05453e+2, 207361.3, -38938.746, -23348.156, 0.04456253, -0.17035937, 209555.06, 209555.06, 0.0, 10.002023, 9.998758 
5.5512553e+2, 3.1545117e+2, 214374.73, -33176.74, 14612.657, -0.012951591, -0.2286524, 215234.31, 215234.31, 0.0000000020600701, 10.002061, 9.998779 
5.648928e+2, 1.2544946e+2, -1957414.1, -1781015.6, 63986.355, -0.011816823, -0.11149577, -1760249.9, -49672.18, 0.00000027083397, 9.998131, 10.000441 
5.649044e+2, 1.3544859e+2, -1810533.9, -1626704.4, -96694.38, 0.19664027, -0.2736325, -1585209.5, 27378.475, 0.000000017878008, 9.998301, 10.000758 
5.649118e+2, 1.454503e+2, -1671521.3, -1511526.4, 6384.265, -0.17650743, -0.17876817, -1511272.0, 3300.3628, 0.0, 9.998603, 10.000723 
5.64926e+2, 1.554517e+2, -1526848.4, -1394361.1, -10155.922, 0.00880843, -0.10866956, -1393587.1, 22971.645, 0.0, 9.9989395, 10.00069 
5.6493914e+2, 1.6545212e+2, -1456321.8, -1393862.5, -10731.4375, 0.07471815, -0.0959947, -1392070.1, -73514.41, 0.0, 9.999113, 9.999938 
5.649508e+2, 1.7545177e+2, -1351477.1, -1290373.9, -9160.828, -0.0135272285, -0.1271481, -1289030.0, -68469.44, 0.0, 9.999151, 9.999958 
5.649631e+2, 1.8545158e+2, -1224404.5, -1189943.6, -12718.397, -0.037222195, -0.1355556, -1185758.0, -63195.38, 0.0, 9.999399, 9.999855 
5.649761e+2, 1.9545151e+2, -1063602.6, -1060531.6, -17882.248, 0.01220891, -0.13136443, -1044119.1, -19556.635, 0.0, 9.9998255, 9.999865 
5.649887e+2, 2.054512e+2, -946815.25, -988794.1, -24808.62, 0.01898583, -0.13017306, -935308.1, -8743.607, 0.0, 10.000107, 9.999549 
5.6500065e+2, 2.1545073e+2, -823847.06, -876505.6, -27105.219, -0.01660095, -0.13488741, -812388.44, 16179.931, 0.0, 10.000269, 9.999569 
5.650132e+2, 2.2545002e+2, -706650.9, -785102.6, -19971.26, -0.030457666, -0.15350936, -701859.5, 28714.469, 0.0, 10.000469, 9.999427 
5.650259e+2, 2.3544912e+2, -574543.9, -670626.5, -25488.72, -0.023658155, -0.18746579, -568200.94, 64379.996, 0.0, 10.000704, 9.999428 
5.6503874e+2, 2.4544823e+2, -485924.16, -632635.0, -27114.357, -0.010586661, -0.19467072, -481073.4, 53515.746, 0.0, 10.000878, 9.99893 
5.6505156e+2, 2.554473e+2, -368481.03, -522757.97, -19108.1, 0.0068709576, -0.18156406, -366149.6, 70448.586, 0.0, 10.001001, 9.998952 
5.6506425e+2, 2.654461e+2, -247984.05, -417624.9, -23294.262, 0.009871202, -0.19260822, -244843.53, 93764.73, 0.0, 10.001173, 9.998919 
5.6507677e+2, 2.7544463e+2, -121273.29, -308834.47, -35302.926, 0.00050546066, -0.23449989, -114848.61, 125771.3, 0.0, 10.001384, 9.998891 
5.650893e+2, 2.8544277e+2, -75211.516, -353015.5, -29838.67, -0.012499152, -0.2539449, -72042.72, 70595.61, 0.0, 10.00153, 9.997846 
5.651018e+2, 2.954408e+2, 39339.563, -239841.6, -13406.204, -0.027641397, -0.2381492, 39981.848, 84642.18, 0.0, 10.001613, 9.99791 
5.651152e+2, 3.0544007e+2, 161611.1, -68169.75, -14471.749, 0.035558153, -0.1425626, 162518.94, 162518.94, 0.0, 10.0017395, 9.998694 
5.651274e+2, 3.15438e+2, 204428.14, -19554.195, -4115.4316, -0.027028956, -0.21945502, 204503.73, 204503.73, 0.000000017271022, 10.001913, 9.998944 
5.7489085e+2, 1.2543675e+2, -1935204.9, -1736334.4, 56701.63, -0.021010412, -0.14121208, -1721303.8, -10600.51, 0.00000019303324, 9.9981365, 10.000745 
5.749028e+2, 1.3543688e+2, -1797801.0, -1600944.1, -89127.92, 0.19983178, -0.22405197, -1566587.3, 46115.45, 0.000000007774616, 9.9983015, 10.000936 
5.749102e+2, 1.4543849e+2, -1697229.4, -1563697.4, 19509.77, -0.19511323, -0.12657225, -1560905.3, -46217.58, 0.0, 9.998598, 10.000367 
5.7492507e+2, 1.5543889e+2, -1550587.4, -1443718.4, 2054.9534, 0.014806285, -0.124322064, -1443678.9, -26993.842, 0.0, 9.99894, 10.000352 
5.749384e+2, 1.6543898e+2, -1454731.0, -1390930.0, -9714.815, 0.09522322, -0.1279125, -1389483.5, -70798.43, 0.0, 9.999114, 9.999958 
5.749502e+2, 1.7543893e+2, -1350280.1, -1288132.1, -7173.473, 0.010563074, -0.13188179, -1287314.9, -66628.46, 0.0, 9.999151, 9.999973 
5.749625e+2, 1.8543884e+2, -1233776.4, -1209193.1, 3241.4387, -0.02922153, -0.123477146, -1208772.9, -86085.555, 0.0, 9.999398, 9.999723 
5.7497567e+2, 1.9543871e+2, -1072746.9, -1079391.4, -2222.9236, -0.011264606, -0.11133569, -1072071.8, -47383.492, 0.0, 9.9998255, 9.999736 
5.749886e+2, 2.0543817e+2, -951879.56, -999136.75, -19002.334, 0.0024431795, -0.123433046, -945186.56, -18493.818, 0.0, 10.000106, 9.999478 
5.750012e+2, 2.1543732e+2, -829179.8, -887376.94, -20964.307, 0.0060922997, -0.1589026, -822414.3, 6285.7515, 0.0, 10.000268, 9.9994955 
5.750139e+2, 2.2543663e+2, -716311.0, -805015.5, -11274.7, -0.003989348, -0.16575302, -714900.4, 15805.391, 0.0, 10.000468, 9.99929 
5.750267e+2, 2.3543608e+2, -582963.75, -688136.8, -16703.648, -0.023215737, -0.15257108, -580374.56, 52335.63, 0.0, 10.000704, 9.999308 
5.750395e+2, 2.4543515e+2, -471049.34, -601788.5, -22609.77, -0.026909912, -0.16572388, -467249.7, 67468.41, 0.0, 10.000878, 9.999142 
5.750523e+2, 2.5543395e+2, -355503.7, -495815.5, -14450.12, -0.018202247, -0.203384, -354031.0, 82697.76, 0.0, 10.001001, 9.999138 
5.7506526e+2, 2.6543278e+2, -270568.2, -464628.3, -15671.911, -0.0041882307, -0.20561057, -269310.72, 69428.51, 0.0, 10.001173, 9.998596 
5.7507825e+2, 2.7543154e+2, -141554.6, -350603.94, -27359.7, 0.014136928, -0.18840973, -138033.16, 102716.92, 0.0, 10.001382, 9.998606 
5.7509094e+2, 2.8542966e+2, -47721.582, -295176.72, -26620.313, 0.0016018874, -0.21876909, -44890.26, 97878.27, 0.0, 10.001527, 9.998244 
5.7510334e+2, 2.954274e+2, 63510.16, -189887.66, -10316.624, -0.036517035, -0.27339026, 63929.49, 108720.875, 0.0, 10.001614, 9.998253 
5.7511675e+2, 3.054268e+2, 128238.625, -137241.03, -8684.318, 0.017404098, -0.15233369, 128522.41, 128522.41, 0.00000000021282408, 10.001738, 9.99822 
5.7512933e+2, 3.154248e+2, 191509.7, -43764.813, 6283.4146, -0.02104195, -0.1765479, 191677.39, 191677.39, 0.0000000699572, 10.001901, 9.998784 
5.8488864e+2, 1.2542383e+2, -1987300.0, -1746414.1, 39633.633, -0.036252197, -0.1624511, -1740060.6, -29230.168, 0.00000011738098, 9.997715, 10.000878 
5.849014e+2, 1.354245e+2, -1761192.3, -1581459.9, -104436.47, 0.21622792, -0.1924462, -1533547.6, 79276.4, 0.0000000014227642, 9.998545, 10.000952 
5.849089e+2, 1.4542602e+2, -1661659.8, -1567107.0, -8041.7935, -0.1997289, -0.095156945, -1566428.0, -51617.984, 0.0, 9.998931, 10.000182 
5.8492386e+2, 1.554258e+2, -1573290.1, -1474143.3, -13691.7705, 0.0096089225, -0.138067, -1472287.1, -55473.297, 0.0, 9.998869, 10.000176 
5.849376e+2, 1.6542573e+2, -1458458.1, -1392869.4, -16366.69, 0.09545901, -0.14827397, -1389012.1, -70196.88, 0.0, 9.99909, 9.999956 
5.849497e+2, 1.7542593e+2, -1292434.9, -1260832.0, -16046.339, 0.020722032, -0.12696348, -1254113.0, -33299.44, 0.0, 9.999552, 9.999968 
5.8496225e+2, 1.8542585e+2, -1194251.4, -1201993.1, -8171.0947, -0.020430835, -0.11278912, -1189080.6, -66266.086, 0.0, 9.999722, 9.999617 
5.849754e+2, 1.9542551e+2, -1106829.6, -1107022.1, -11818.529, -0.013179551, -0.111247756, -1095107.0, -70288.92, 0.0, 9.99964, 9.999635 
5.849885e+2, 2.0542488e+2, -995747.25, -1020241.56, -21044.043, -0.0017639366, -0.12672459, -983646.0, -56822.56, 0.0, 9.999805, 9.999478 
5.850014e+2, 2.1542406e+2, -842113.94, -893554.9, -18042.924, 0.006491819, -0.15956715, -836416.44, -7586.0728, 0.0, 10.000179, 9.9994955 
5.8501434e+2, 2.2542338e+2, -723123.56, -806949.44, -3035.3513, -0.0012048784, -0.16513751, -723013.75, 7821.9146, 0.0, 10.000416, 9.999303 
5.850273e+2, 2.3542283e+2, -606164.2, -697987.25, 2490.3945, -0.019985117, -0.15251406, -606096.7, 26743.14, 0.0, 10.000539, 9.999319 
5.8504033e+2, 2.4542189e+2, -488478.06, -610212.75, -5478.592, -0.025025917, -0.16967273, -488232.0, 46616.004, 0.0, 10.000759, 9.999142 
5.850533e+2, 2.554206e+2, -346755.2, -491486.53, -13206.435, -0.019395117, -0.2141188, -345560.0, 91299.46, 0.0, 10.001061, 9.999138 
5.8506644e+2, 2.654195e+2, -259770.45, -459780.56, -10873.591, -0.0063226307, -0.20669827, -259181.03, 79688.21, 0.0, 10.001248, 9.998593 
5.850796e+2, 2.7541855e+2, -148886.53, -354313.53, 362.57773, 0.013516251, -0.16564654, -148885.89, 91992.31, 0.0, 10.001331, 9.998604 
5.850925e+2, 2.8541663e+2, -51577.047, -294336.1, -2773.3271, 0.001420495, -0.19924802, -51545.367, 91351.41, 0.0, 10.001489, 9.998268 
5.85105e+2, 2.954141e+2, 77915.89, -182161.56, -14342.238, -0.037877187, -0.28095835, 78704.414, 123626.04, 0.0, 10.00171, 9.998259 
5.851184e+2, 3.0541348e+2, 112378.13, -164270.27, -18828.447, 0.0074716583, -0.1545337, 113653.7, 113653.7, 0.000000006848287, 10.001713, 9.998047 
5.85131e+2, 3.154115e+2, 148634.28, -48450.51, 20539.676, -0.024341544, -0.16308345, 150752.11, 150752.11, 0.00000018333391, 10.001538, 9.998926 
5.9488606e+2, 1.2541072e+2, -1990967.1, -1752616.4, 54120.156, -0.06162291, -0.17507987, -1740903.4, -29944.104, 0.000000058921596, 9.997709, 10.000838 
5.949002e+2, 1.3541149e+2, -1770682.5, -1602900.3, -73347.23, 0.24493647, -0.18106686, -1575357.4, 37594.83, 0.000000000010343272, 9.998551, 10.000802 
5.949079e+2, 1.4541289e+2, -1662101.3, -1569025.9, -10355.394, -0.19138728, -0.08708621, -1567887.6, -52948.33, 0.0, 9.998935, 10.000168 
5.9492254e+2, 1.5541245e+2, -1573697.6, -1475295.6, -15322.257, -0.007569824, -0.14942731, -1472965.0, -56019.918, 0.0, 9.99887, 10.000169 
5.9493643e+2, 1.654124e+2, -1460843.8, -1397611.8, 915.1488, 0.074368306, -0.1564835, -1397598.5, -78652.37, 0.0, 9.999089, 9.999925 
5.949491e+2, 1.7541279e+2, -1294452.9, -1265566.8, 594.19196, 0.015858814, -0.11241802, -1265554.5, -44612.305, 0.0, 9.999554, 9.999934 
5.94962e+2, 1.854126e+2, -1199764.9, -1213738.9, -11479.432, -0.011776829, -0.10357161, -1193313.4, -70368.984, 0.0, 9.9997225, 9.999536 
5.9497523e+2, 1.9541188e+2, -1111818.3, -1117779.1, -14270.223, 0.00614654, -0.13119955, -1100220.5, -75268.74, 0.0, 9.999641, 9.99956 
5.9498835e+2, 2.0541133e+2, -990670.75, -1009780.5, -7059.602, 0.006026798, -0.14048894, -988345.7, -61389.008, 0.0, 9.999805, 9.999551 
5.9500134e+2, 2.1541093e+2, -836917.8, -882752.8, -4352.6885, -0.01594617, -0.13705255, -836508.1, -7548.9126, 0.0, 10.000178, 9.99957 
5.950145e+2, 2.254103e+2, -712138.8, -784092.3, 1360.0228, -0.022874167, -0.15171714, -712113.1, 18850.537, 0.0, 10.000416, 9.99946 
5.9502786e+2, 2.3540942e+2, -596485.56, -677721.8, 7251.3574, -0.014797618, -0.1867351, -595843.4, 37126.45, 0.0, 10.000538, 9.999458 
5.950413e+2, 2.454084e+2, -502930.72, -640170.1, 5660.725, -0.0058394866, -0.20618607, -502697.63, 32281.264, 0.0, 10.000759, 9.998937 
5.950546e+2, 2.5540727e+2, -359517.75, -517831.78, -2097.4705, 0.0023414586, -0.21361597, -359489.97, 77500.22, 0.0, 10.0010605, 9.998959 
5.950678e+2, 2.6540637e+2, -238757.31, -415934.44, -7801.4414, 0.0028106477, -0.19567817, -238414.47, 100583.91, 0.0, 10.001247, 9.998895 
5.9508073e+2, 2.754056e+2, -130134.36, -315256.9, 3427.4075, -0.0023048117, -0.16659562, -130070.92, 110933.586, 0.0, 10.00133, 9.998873 
5.950937e+2, 2.8540367e+2, -75460.66, -343482.8, 4879.694, -0.014397579, -0.19601472, -75371.84, 67651.49, 0.0, 10.001487, 9.997932 
5.9510666e+2, 2.9540098e+2, 54423.543, -229265.9, -6855.1396, -0.03309087, -0.26092163, 54589.098, 99640.1, 0.0, 10.001702, 9.997939 
5.951201e+2, 3.0540013e+2, 118843.16, -148893.52, -25265.363, 0.005130633, -0.14739192, 121206.49, 121206.49, 0.000000033052434, 10.001704, 9.998157 
5.951324e+2, 3.15398e+2, 178372.56, 13578.536, 16646.5, -0.038243655, -0.17995965, 180037.28, 180037.28, 0.00000037488923, 10.001537, 9.999353 
6.048837e+2, 1.2539753e+2, -1993119.3, -1741167.3, 31102.129, -0.06624095, -0.14816672, -1737384.6, -26294.988, 0.000000021349177, 9.997643, 10.000947 
6.0489875e+2, 1.3539793e+2, -1804042.1, -1618912.5, -67604.336, 0.25947142, -0.19303153, -1596853.6, 16232.052, 0.0, 9.998323, 10.000802 
6.0490674e+2, 1.4539923e+2, -1680858.3, -1579511.5, -23295.916, -0.19296016, -0.106444076, -1574413.1, -59339.695, 0.0, 9.998814, 10.0001545 
6.049215e+2, 1.5539916e+2, -1542960.1, -1461346.1, -29011.951, -0.009707907, -0.13197337, -1452084.1, -35008.168, 0.0, 9.999085, 10.00016 
6.049355e+2, 1.6539912e+2, -1437437.5, -1385924.6, -5529.008, 0.07055559, -0.13731423, -1385337.9, -66261.28, 0.0, 9.9992485, 9.9999275 
6.0494846e+2, 1.7539921e+2, -1330044.3, -1282484.8, -3885.6462, 0.0099716615, -0.12271428, -1282169.5, -61094.473, 0.0, 9.99931, 9.999935 
6.0496163e+2, 1.8539897e+2, -1230677.0, -1231066.0, -16962.895, -0.013743442, -0.11824305, -1213907.5, -90829.86, 0.0, 9.999521, 9.999514 
6.0497504e+2, 1.953984e+2, -1080457.9, -1104993.1, -15456.095, 0.0127736265, -0.12834524, -1072992.6, -47908.566, 0.0, 9.999867, 9.999539 
6.0498834e+2, 2.053979e+2, -950274.4, -988257.4, -4796.305, 0.01287817, -0.13212891, -949678.06, -22589.588, 0.0, 10.000073, 9.999569 
6.050015e+2, 2.1539748e+2, -838232.25, -881305.0, -6242.8643, -0.015919909, -0.13390487, -837345.7, -8254.467, 0.0, 10.000161, 9.999588 
6.050149e+2, 2.2539683e+2, -720497.7, -783574.8, -8418.239, -0.021115167, -0.15327628, -719393.5, 11702.101, 0.0, 10.000339, 9.9995 
6.0502857e+2, 2.3539595e+2, -585731.56, -668449.25, -11243.319, -0.0038040099, -0.19228302, -584230.56, 48871.152, 0.0, 10.000594, 9.9994955 
6.050421e+2, 2.4539499e+2, -505118.4, -642540.44, -8978.1455, 0.004896017, -0.20702554, -504534.3, 30576.037, 0.0, 10.000749, 9.998925 
6.050556e+2, 2.5539398e+2, -395782.0, -536305.06, -2955.6406, 0.004909513, -0.20211232, -395719.88, 41401.063, 0.0, 10.000815, 9.998949 
6.0506886e+2, 2.6539308e+2, -272586.88, -423988.7, -11811.04, -0.0001424575, -0.18829831, -271671.0, 67458.24, 0.0, 10.000979, 9.998969 
6.05082e+2, 2.7539217e+2, -139970.69, -311667.1, -17095.072, -0.009041361, -0.1774121, -138285.14, 102851.15, 0.0, 10.001227, 9.998948 
6.0509515e+2, 2.8539035e+2, -80694.055, -337435.94, -6197.1157, -0.019300502, -0.2046449, -80544.56, 62609.44, 0.0, 10.001413, 9.99801 
6.051083e+2, 2.9538792e+2, 34590.816, -232174.36, 10708.571, -0.030542057, -0.25020638, 35019.992, 80198.86, 0.00000000003092486, 10.001536, 9.997999 
6.051217e+2, 3.0538687e+2, 92139.664, -174347.55, -12004.14, -0.0027019668, -0.1536157, 92679.31, 92679.31, 0.00000008707832, 10.001575, 9.998044 
6.051338e+2, 3.153847e+2, 193437.39, 37942.83, 15322.453, -0.051060807, -0.18517283, 194932.89, 194932.89, 0.0000006525611, 10.001568, 9.999506 
6.1488146e+2, 1.2538429e+2, -1975436.6, -1704028.5, 36139.0, -0.05444015, -0.082062274, -1699298.9, 11922.686, 0.0000000039655865, 9.997642, 10.001203 
6.148971e+2, 1.353838e+2, -1793707.4, -1597338.1, -41859.168, 0.2588442, -0.22882657, -1588787.5, 24436.94, 0.0, 9.998322, 10.000952 
6.149055e+2, 1.4538507e+2, -1682410.0, -1582349.4, -12794.507, -0.20591319, -0.15419534, -1580739.3, -65526.836, 0.0, 9.998811, 10.000136 
6.1492074e+2, 1.5538591e+2, -1543671.6, -1463284.0, -18971.305, 0.0028014423, -0.08507509, -1459031.8, -41825.492, 0.0, 9.999086, 10.000147 
6.1493486e+2, 1.6538592e+2, -1434707.6, -1380602.1, -3561.9033, 0.08395717, -0.089770414, -1380368.8, -61162.11, 0.0, 9.9992485, 9.999964 
6.149477e+2, 1.753852e+2, -1327203.4, -1276966.6, -1286.8499, 0.0024036833, -0.15843172, -1276933.6, -55721.758, 0.0, 9.9993105, 9.999972 
6.149609e+2, 1.8538494e+2, -1228214.3, -1226230.0, -4175.772, -0.027427671, -0.15776677, -1222930.1, -99715.62, 0.0, 9.999521, 9.999547 
6.149748e+2, 1.9538507e+2, -1078317.6, -1100686.0, -2785.8105, 0.0059447233, -0.10260736, -1077975.9, -52761.08, 0.0, 9.999867, 9.999569 
6.1498845e+2, 2.0538463e+2, -952809.56, -993513.8, -1816.4114, 0.01826603, -0.101146646, -952728.6, -25509.76, 0.0, 10.000073, 9.999533 
6.150019e+2, 2.153837e+2, -840769.06, -886582.0, -2801.9927, 0.005852145, -0.14976235, -840598.3, -11372.134, 0.0, 10.000161, 9.999552 
6.150155e+2, 2.2538297e+2, -725883.1, -794645.4, 1028.7567, 0.003443714, -0.16980259, -725867.75, 5363.827, 0.0, 10.000338, 9.999425 
6.150293e+2, 2.3538242e+2, -590133.25, -677625.1, -1862.3002, 0.01255958, -0.16956744, -590093.6, 43141.797, 0.0, 10.000593, 9.999433 
6.1504287e+2, 2.4538164e+2, -493034.88, -617454.0, -6679.0566, 0.0068213744, -0.1726946, -492677.34, 42564.984, 0.0, 10.000749, 9.999098 
6.150562e+2, 2.553807e+2, -385187.44, -513929.28, -370.48657, -0.012448144, -0.18062401, -385186.38, 52065.395, 0.0, 10.0008135, 9.9991045 
6.150696e+2, 2.6537958e+2, -282823.8, -444868.06, -2766.5764, -0.016123759, -0.1849499, -282776.6, 56485.305, 0.0, 10.0009775, 9.998827 
6.150832e+2, 2.7537832e+2, -148229.88, -327957.3, -7757.1104, -0.0070742187, -0.19611734, -147895.7, 93377.45, 0.0, 10.001223, 9.998838 
6.150966e+2, 2.8537667e+2, -48807.89, -269831.03, -1366.8054, -0.013484331, -0.22301048, -48799.438, 94489.016, 0.0, 10.001407, 9.998477 
6.1510986e+2, 2.953749e+2, 63367.348, -171332.0, 14882.914, -0.032600306, -0.25037163, 64307.348, 109612.89, 0.0000000010306047, 10.001532, 9.998421 
6.1512303e+2, 3.053737e+2, 68321.96, -222541.44, -13051.225, -0.018873276, -0.17529501, 68906.41, 68906.41, 0.00000016756015, 10.00157, 9.997716 
6.1513525e+2, 3.153714e+2, 184294.48, 21077.135, 16471.588, -0.06499755, -0.18168603, 185940.17, 185940.17, 0.000001002472, 10.001558, 9.999394 
6.248795e+2, 1.2537052e+2, -1904827.8, -1679121.6, 44286.87, -0.044279713, -0.08016956, -1670742.9, 40614.18, 0.00000000008306351, 9.998166, 10.001121 
6.248954e+2, 1.3537015e+2, -1781750.4, -1609712.9, -37949.06, 0.25363523, -0.19883803, -1601713.9, 11645.691, 0.0, 9.998481, 10.00079 
6.249041e+2, 1.4537121e+2, -1670663.6, -1574888.8, -24468.52, -0.22170977, -0.13679393, -1568999.8, -53650.375, 0.0, 9.998884, 10.000152 
6.2491995e+2, 1.5537189e+2, -1510697.3, -1445963.9, -29562.748, 0.0027434754, -0.085711285, -1434495.0, -17150.799, 0.0, 9.999308, 10.000159 
6.249343e+2, 1.6537185e+2, -1401521.4, -1370517.1, -28092.205, 0.088055864, -0.090155214, -1353933.6, -34589.04, 0.0, 9.999503, 9.99991 
6.249471e+2, 1.7537126e+2, -1302328.9, -1270615.3, -32826.996, 0.0013778418, -0.14382708, -1250015.9, -28666.527, 0.0, 9.999505, 9.999922 
6.249604e+2, 1.8537101e+2, -1217589.8, -1216351.4, -31032.084, -0.031051856, -0.14136697, -1185932.3, -62580.344, 0.0, 9.999575, 9.999589 
6.2497455e+2, 1.9537109e+2, -1099388.9, -1106182.3, -29422.107, 0.001362282, -0.095942214, -1073168.0, -47815.383, 0.0, 9.999702, 9.99961 
6.249884e+2, 2.0537068e+2, -974769.5, -996399.1, -26359.645, 0.017478002, -0.0960359, -957092.4, -29736.137, 0.0, 9.99989, 9.999601 
6.250021e+2, 2.1536988e+2, -840331.4, -879011.94, -19702.76, 0.013043326, -0.1391231, -832062.9, -2700.5718, 0.0, 10.000133, 9.999618 
6.2501585e+2, 2.2536919e+2, -739263.56, -804083.8, -11216.663, 0.01159847, -0.15739244, -737377.5, -6010.018, 0.0, 10.000258, 9.999398 
6.250298e+2, 2.353686e+2, -637138.3, -702266.75, -10638.146, 0.015210645, -0.158459, -635444.7, -2072.6782, 0.0, 10.000279, 9.999414 
6.2504345e+2, 2.4536785e+2, -530684.1, -617366.56, -13680.191, 0.006138737, -0.16362965, -528576.3, 6801.9214, 0.0, 10.000412, 9.999261 
6.2505686e+2, 2.55367e+2, -399513.84, -503209.16, -7783.4844, -0.0147546735, -0.17543708, -398932.88, 38453.03, 0.0, 10.000639, 9.999262 
6.250706e+2, 2.65366e+2, -305945.3, -450502.9, -1680.01, -0.0177282, -0.18161708, -305925.78, 33469.4, 0.0, 10.000794, 9.998877 
6.250843e+2, 2.7536482e+2, -193595.6, -343582.5, 6486.291, -0.005089758, -0.19094723, -193315.63, 48090.574, 0.0, 10.000884, 9.998895 
6.250978e+2, 2.8536338e+2, -93593.97, -269906.38, 7317.6196, -0.009887952, -0.21234407, -93290.79, 50128.996, 0.0, 10.001006, 9.998669 
6.251112e+2, 2.9536185e+2, 22589.656, -170317.14, 3500.9014, -0.03037112, -0.23456718, 22653.17, 68087.42, 0.000000004235602, 10.001163, 9.998604 
6.251244e+2, 3.0536038e+2, 35534.527, -229721.2, -19479.248, -0.025637206, -0.19307859, 36957.367, 36957.367, 0.000000262113, 10.0013075, 9.997792 
6.2513673e+2, 3.1535846e+2, 181498.66, 41008.477, 38785.76, -0.063770376, -0.17398423, 191495.13, 191495.13, 0.0000013873902, 10.001447, 9.999584 
6.348776e+2, 1.2535617e+2, -1934591.0, -1742616.8, 34334.54, -0.040593795, -0.14962387, -1736660.9, -25164.13, 0.0, 9.998174, 10.000681 
6.348938e+2, 1.3535698e+2, -1815571.0, -1680404.5, -25524.15, 0.24327278, -0.09977498, -1675745.3, -62254.797, 0.0, 9.998483, 10.000304 
6.349028e+2, 1.4535771e+2, -1667580.1, -1568506.5, -8607.425, -0.24114294, -0.050324097, -1567764.3, -52280.293, 0.0, 9.998883, 10.000196 
6.3491905e+2, 1.5535708e+2, -1507526.4, -1440125.1, -14499.011, -0.011642914, -0.13568145, -1437138.5, -19648.807, 0.0, 9.99931, 10.000198 
6.349337e+2, 1.6535698e+2, -1411416.9, -1391924.6, -28629.77, 0.0810159, -0.14096747, -1371427.5, -51936.742, 0.0, 9.999506, 9.999763 
6.3494664e+2, 1.7535739e+2, -1311918.6, -1290846.9, -32874.02, 0.0065680887, -0.07775764, -1266861.6, -45374.23, 0.0, 9.999506, 9.9997835 
6.3496006e+2, 1.853572e+2, -1214440.6, -1209757.3, -26646.932, -0.024722837, -0.06710211, -1185349.4, -61859.48, 0.0, 9.999574, 9.999634 
6.349742e+2, 1.9535644e+2, -1095585.6, -1098573.1, -24616.22, -0.0017487133, -0.10800353, -1072417.9, -46920.375, 0.0, 9.999703, 9.999662 
6.3498825e+2, 2.0535606e+2, -962552.44, -971296.4, -17616.998, 0.009435013, -0.11725432, -948773.0, -21272.479, 0.0, 9.99989, 9.999774 
6.3500214e+2, 2.15356e+2, -828724.4, -854999.2, -10994.322, 0.0051009143, -0.10256602, -824730.94, 4768.561, 0.0, 10.000133, 9.999783 
6.35016e+2, 2.2535543e+2, -737922.94, -801035.44, -10645.95, 0.0027710523, -0.116353735, -736175.56, -4672.221, 0.0, 10.0002575, 9.99942 
6.350299e+2, 2.3535447e+2, -635360.2, -698547.9, -9608.216, 0.003806942, -0.15863878, -633931.44, -419.95233, 0.0, 10.000279, 9.99944 
6.350438e+2, 2.4535367e+2, -519524.94, -594367.6, -5263.85, 0.002095566, -0.1794106, -519156.53, 16361.494, 0.0, 10.000412, 9.999418 
6.350576e+2, 2.5535306e+2, -387913.28, -479142.4, 618.9311, -0.0027921747, -0.18520735, -387909.1, 49613.98, 0.0, 10.000638, 9.999428 
6.350714e+2, 2.653524e+2, -290181.38, -417530.8, 1619.0651, -0.005555257, -0.17758538, -290160.8, 49368.16, 0.0, 10.0007925, 9.999104 
6.3508517e+2, 2.753516e+2, -179212.92, -313047.9, 9880.31, -0.005191598, -0.16444154, -178487.44, 63048.297, 0.0, 10.00088, 9.999106 
6.350988e+2, 2.8535035e+2, -98829.18, -279824.7, 12846.8, -0.010886928, -0.1754665, -97921.88, 45626.387, 0.0, 10.001002, 9.998603 
6.351124e+2, 2.9534873e+2, 19176.354, -176315.56, 9335.477, -0.023416504, -0.20154916, 19621.145, 65185.83, 0.000000008608103, 10.001158, 9.998566 
6.3512576e+2, 3.0534706e+2, 66613.94, -164017.78, -14222.251, -0.022249466, -0.20468333, 67487.664, 67487.664, 0.00000035003856, 10.001302, 9.998246 
6.3513833e+2, 3.153458e+2, 214111.69, 109949.67, 44325.39, -0.052274227, -0.16246782, 230420.53, 230420.53, 0.0000017531552, 10.001441, 10.000061 
6.448759e+2, 1.2534197e+2, -1927689.1, -1745336.4, -10598.025, -0.03701316, -0.14758402, -1744722.5, -33085.953, 0.0, 9.998246, 10.0006275 
6.4489233e+2, 1.3534284e+2, -1751738.1, -1660493.8, -18052.938, 0.22856092, -0.081681065, -1657051.9, -43422.25, 0.0, 9.998966, 10.000208 
6.4490175e+2, 1.453433e+2, -1613388.3, -1551673.3, -3597.4092, -0.25485903, -0.049088307, -1551464.3, -35838.793, 0.0, 9.999296, 10.0001135 
6.449183e+2, 1.5534255e+2, -1522802.9, -1456864.0, -20312.182, -0.0100222975, -0.13897507, -1451109.3, -33476.785, 0.0, 9.999246, 10.000114 
6.4493316e+2, 1.6534244e+2, -1437200.9, -1408455.6, -37123.816, 0.08403593, -0.13862187, -1383019.4, -63385.473, 0.0, 9.999348, 9.999725 
6.449461e+2, 1.7534295e+2, -1303771.4, -1291037.6, -33632.617, 0.0014193417, -0.063178405, -1263174.6, -41544.42, 0.0, 9.99958, 9.999746 
6.449596e+2, 1.8534276e+2, -1190128.0, -1190302.8, -23753.088, -0.028753782, -0.052716225, -1166462.1, -42829.633, 0.0, 9.999708, 9.999703 
6.4497393e+2, 1.9534197e+2, -1084381.3, -1085515.3, -20403.303, 0.002267874, -0.103095904, -1064537.1, -38896.977, 0.0, 9.999748, 9.99973 
6.449881e+2, 2.0534167e+2, -975789.0, -972602.7, -16005.216, 0.012346401, -0.11127374, -958111.56, -30469.102, 0.0, 9.999779, 9.999819 
6.45002e+2, 2.1534173e+2, -874134.2, -871601.0, -18968.783, -0.0007665479, -0.087233976, -853856.56, -24216.271, 0.0, 9.999798, 9.999829 
6.450161e+2, 2.2534126e+2, -771132.3, -798857.2, -16709.475, -0.0048107733, -0.103691004, -763283.6, -31640.377, 0.0, 9.999951, 9.999582 
6.450301e+2, 2.353403e+2, -632346.0, -679463.75, -5325.342, 0.00040739265, -0.1590699, -631751.6, 1898.9879, 0.0, 10.000224, 9.999598 
6.450442e+2, 2.4533959e+2, -516482.0, -586967.94, 452.46765, 0.0018914302, -0.18372703, -516479.1, 19177.17, 0.0, 10.000407, 9.999472 
6.450582e+2, 2.5533906e+2, -402426.38, -479551.34, -2053.0059, -0.0006397503, -0.18497823, -402371.78, 35288.6, 0.0, 10.00051, 9.999486 
6.4507216e+2, 2.6533854e+2, -306752.22, -406219.38, -10023.719, -0.0023717538, -0.17578553, -305752.13, 33912.867, 0.0, 10.000596, 9.999275 
6.4508593e+2, 2.7533796e+2, -198781.36, -303373.2, -5456.0825, -0.0023553323, -0.16382684, -198497.52, 43172.8, 0.0, 10.000665, 9.999276 
6.450998e+2, 2.8533688e+2, -119816.03, -280509.13, 6035.8184, -0.0076277284, -0.16490433, -119589.64, 24091.166, 0.0, 10.000818, 9.998687 
6.451136e+2, 2.953355e+2, 8474.922, -171817.13, 12475.2, -0.018415129, -0.17242375, 9334.042, 55028.86, 0.000000011710588, 10.001042, 9.9986515 
6.4512694e+2, 3.0533364e+2, 62676.426, -147987.86, -20193.56, -0.023417732, -0.2090785, 64594.645, 64594.645, 0.00000040808163, 10.001198, 9.998406 
6.451397e+2, 3.1533268e+2, 200917.03, 113164.2, 16530.281, -0.047361076, -0.1544251, 203927.61, 203927.61, 0.0000020409286, 10.001309, 10.000146 
6.548741e+2, 1.2532793e+2, -1902732.4, -1693814.5, -6170.676, -0.037474863, -0.07027011, -1693632.5, 18143.834, 0.0, 9.998247, 10.000981 
6.5489113e+2, 1.353277e+2, -1728932.5, -1614432.1, 8446.75, 0.20774904, -0.14883503, -1613812.4, -35.409008, 0.0, 9.998972, 10.000522 
6.5490097e+2, 1.4532797e+2, -1628215.5, -1583549.5, -5968.365, -0.26438895, -0.13861728, -1582765.8, -66991.516, 0.0, 9.9993, 9.999893 
6.549177e+2, 1.5532833e+2, -1537461.5, -1487241.1, -22179.666, 0.0077121938, -0.09330857, -1478848.3, -61076.063, 0.0, 9.999245, 9.999907 
6.549327e+2, 1.6532831e+2, -1432703.0, -1398821.4, -28580.08, 0.09716142, -0.07963959, -1382538.5, -62765.168, 0.0, 9.999346, 9.999793 
6.549455e+2, 1.753279e+2, -1298964.3, -1281291.9, -25150.621, -0.015575982, -0.10119515, -1263470.4, -41692.813, 0.0, 9.99958, 9.999813 
6.549592e+2, 1.853277e+2, -1183915.6, -1177587.4, -22750.537, -0.045022756, -0.10012753, -1157782.0, -34002.043, 0.0, 9.999708, 9.99979 
6.549738e+2, 1.953277e+2, -1078713.4, -1073807.6, -19140.059, 0.013196373, -0.08145226, -1056964.0, -31183.695, 0.0, 9.999748, 9.99981 
6.54988e+2, 2.053275e+2, -981760.4, -984863.7, -15527.624, 0.02627701, -0.07773549, -967707.06, -39925.258, 0.0, 9.999778, 9.999735 
6.5500176e+2, 2.153271e+2, -879167.44, -882157.1, -17991.768, -0.0052434634, -0.09268547, -862608.56, -32823.934, 0.0, 9.999798, 9.999757 
6.5501595e+2, 2.2532664e+2, -749947.6, -755005.3, -6673.204, -0.012134387, -0.11910723, -745340.1, -13553.083, 0.0, 9.999951, 9.999884 
6.5503037e+2, 2.3532614e+2, -612099.44, -637499.25, 4617.757, 0.004396589, -0.1598759, -611285.94, 22503.355, 0.0, 10.000224, 9.999886 
6.550446e+2, 2.4532561e+2, -520597.66, -595277.44, 4084.7139, 0.0048611998, -0.17682421, -520374.9, 15418.097, 0.0, 10.000406, 9.999415 
6.550587e+2, 2.5532505e+2, -406206.47, -486979.6, 1748.8253, -0.009219326, -0.17563294, -406168.63, 31629.2, 0.0, 10.000508, 9.999436 
6.550727e+2, 2.6532444e+2, -298357.06, -388314.34, -7537.159, -0.009144372, -0.17675687, -297729.94, 42073.35, 0.0, 10.000594, 9.9994 
6.550867e+2, 2.7532375e+2, -189797.83, -284212.47, -2600.206, 0.0034888892, -0.1870932, -189726.27, 52083.29, 0.0, 10.000662, 9.999409 
6.5510064e+2, 2.85323e+2, -104945.15, -248929.33, 14303.207, -0.0001106007, -0.17811717, -103538.04, 40279.023, 0.0, 10.000814, 9.998905 
6.5511465e+2, 2.953222e+2, 22009.148, -142700.22, 20616.982, -0.017820764, -0.14820208, 24550.6, 70375.414, 0.000000011654482, 10.001038, 9.998855 
6.5512806e+2, 3.0532014e+2, 53559.887, -165642.23, -16384.777, -0.031612754, -0.20856817, 54777.84, 54777.84, 0.00000041978168, 10.001192, 9.998287 
6.55141e+2, 3.1531912e+2, 180774.83, 72214.625, 19994.46, -0.04940501, -0.14625609, 184340.28, 184340.28, 0.000002202322, 10.001306, 9.9998665 
6.648722e+2, 1.2531316e+2, -1828500.4, -1651346.5, -7643.188, -0.06971205, -0.06511173, -1651017.3, 60904.566, 0.0, 9.998729, 10.0010395 
6.648901e+2, 1.3531291e+2, -1728229.1, -1608119.9, 5949.584, 0.21445574, -0.14990291, -1607825.9, 6095.9453, 0.0, 9.998951, 10.000575 
6.6490036e+2, 1.453131e+2, -1647869.4, -1594955.5, -24631.568, -0.24243121, -0.15167399, -1585264.4, -69344.375, 0.0, 9.999175, 9.999874 
6.6491693e+2, 1.5531369e+2, -1519387.4, -1480536.5, -26284.9, -0.004037705, -0.080333486, -1467278.0, -49362.027, 0.0, 9.999378, 9.999887 
6.649319e+2, 1.6531366e+2, -1406750.3, -1378369.1, -23436.41, 0.08084954, -0.06920243, -1365161.9, -45244.895, 0.0, 9.999491, 9.999863 
6.649451e+2, 1.7531306e+2, -1303022.3, -1275463.1, -20284.047, -0.008770713, -0.11896345, -1264720.9, -42797.965, 0.0, 9.999521, 9.999882 
6.649589e+2, 1.8531293e+2, -1195659.9, -1181132.5, -21368.91, -0.036960483, -0.11445858, -1165826.5, -41901.965, 0.0, 9.99962, 9.999807 
6.6497344e+2, 1.9531325e+2, -1072746.4, -1069329.4, -23552.844, 0.0022163342, -0.06440721, -1047423.1, -21500.97, 0.0, 9.999783, 9.999825 
6.6498774e+2, 2.0531309e+2, -963117.75, -971533.75, -19886.852, 0.017725375, -0.06062731, -946998.6, -19075.086, 0.0, 9.999887, 9.999773 
6.6500175e+2, 2.1531245e+2, -855079.25, -866125.94, -13407.033, 0.0077241864, -0.102587834, -846102.4, -16174.116, 0.0, 9.999946, 9.999796 
6.65016e+2, 2.2531202e+2, -745454.25, -751338.7, -5557.8027, 0.001489269, -0.12822585, -742107.94, -10177.39, 0.0, 9.999977, 9.999896 
6.650304e+2, 2.3531178e+2, -646220.3, -651983.56, -15737.795, 0.0002108261, -0.14386658, -633102.5, 828.22375, 0.0, 9.999982, 9.999903 
6.650448e+2, 2.4531136e+2, -557234.5, -595592.1, -17774.512, -0.000996842, -0.15784426, -550264.5, -14331.307, 0.0, 10.00008, 9.99957 
6.650591e+2, 2.553108e+2, -432013.16, -482712.16, -4815.4526, -0.0026130367, -0.17330414, -431559.8, 6377.696, 0.0, 10.000259, 9.999585 
6.650732e+2, 2.6531017e+2, -326131.72, -401151.9, -13472.567, -0.0030344801, -0.18354385, -323785.63, 16157.481, 0.0, 10.0004015, 9.999404 
6.6508716e+2, 2.7530947e+2, -211054.58, -293129.4, -17707.582, -0.0021900458, -0.19534144, -207397.16, 34552.75, 0.0, 10.000511, 9.999419 
6.651013e+2, 2.8530887e+2, -113439.57, -232332.6, -1820.6582, -0.005414656, -0.18049498, -113411.695, 30543.988, 0.0, 10.000669, 9.999089 
6.651156e+2, 2.9530838e+2, 9695.1, -128620.516, 1709.2607, -0.012586978, -0.14046454, 9716.219, 55676.17, 0.000000008469742, 10.000869, 9.999031 
6.651292e+2, 3.053062e+2, 38710.98, -179592.95, -34015.51, -0.031030854, -0.21800072, 43888.395, 43888.395, 0.00000038345433, 10.001121, 9.998226 
6.6514236e+2, 3.153052e+2, 176740.36, 38959.95, 4911.539, -0.048728958, -0.1460707, 176915.22, 176915.22, 0.0000022156387, 10.001413, 9.999585 
6.748703e+2, 1.2529762e+2, -1845330.9, -1688040.1, -20035.703, -0.14010206, -0.14137422, -1685528.1, 26545.627, 0.0, 9.998736, 10.000784 
6.748894e+2, 1.3529858e+2, -1742714.5, -1638888.9, 14284.012, 0.24859126, -0.08085709, -1636959.5, -22895.885, 0.0, 9.998954, 10.000362 
6.749001e+2, 1.4529875e+2, -1635196.5, -1568863.4, -17188.725, -0.1889462, -0.08296336, -1564673.9, -48611.83, 0.0, 9.999175, 10.000053 
6.749159e+2, 1.5529865e+2, -1507234.0, -1455310.6, -18823.682, -0.04749336, -0.101524115, -1449204.5, -31140.764, 0.0, 9.999377, 10.000062 
6.7493093e+2, 1.6529854e+2, -1401903.5, -1368067.4, -22560.549, 0.03246211, -0.109794624, -1356786.1, -36721.242, 0.0, 9.999489, 9.999934 
6.7494494e+2, 1.7529844e+2, -1298171.5, -1265419.5, -19007.168, 0.022025686, -0.11594753, -1256706.8, -34641.074, 0.0, 9.999521, 9.99995 
6.749589e+2, 1.8529847e+2, -1199936.4, -1190038.0, -15448.442, -0.0042221164, -0.09461786, -1178765.4, -54699.42, 0.0, 9.99962, 9.999747 
6.749729e+2, 1.9529866e+2, -1076813.5, -1077574.3, -17685.393, -0.031781543, -0.052076496, -1059504.4, -33438.824, 0.0, 9.999782, 9.999768 
6.7498726e+2, 2.0529844e+2, -952368.7, -949012.6, -18084.629, -0.014754629, -0.060051, -932528.4, -4460.902, 0.0, 9.999886, 9.999928 
6.7500204e+2, 2.152978e+2, -845019.25, -845271.44, -11525.093, 0.037405267, -0.11693886, -833619.56, -3548.3494, 0.0, 9.999946, 9.999939 
6.750163e+2, 2.2529742e+2, -764417.8, -790801.0, -5624.6167, 0.035578195, -0.13103193, -763268.75, -31195.17, 0.0, 9.999976, 9.999625 
6.750303e+2, 2.3529726e+2, -663563.25, -688369.3, -15285.173, -0.012378799, -0.11153353, -656281.94, -22207.191, 0.0, 9.999983, 9.999653 
6.7504466e+2, 2.452969e+2, -532050.3, -543524.94, -11100.35, -0.016327556, -0.12707788, -525292.25, 10784.477, 0.0, 10.000081, 9.999927 
6.750595e+2, 2.5529632e+2, -408296.78, -433128.88, 1766.33, 0.018211083, -0.1775069, -408171.78, 29907.55, 0.0, 10.0002575, 9.999927 
6.750738e+2, 2.6529574e+2, -334573.97, -418118.53, -9654.46, 0.015120404, -0.19534725, -333472.8, 6611.453, 0.0, 10.000399, 9.999289 
6.7508745e+2, 2.752951e+2, -218912.69, -308965.78, -13469.402, -0.020513754, -0.18966763, -216941.2, 25150.166, 0.0, 10.000508, 9.999312 
6.751018e+2, 2.8529453e+2, -103576.08, -210897.44, 5519.7734, -0.024709608, -0.17342333, -103292.93, 40803.742, 0.0, 10.000664, 9.999238 
6.751166e+2, 2.9529405e+2, 19475.484, -107159.91, 9289.63, -0.0028188073, -0.14807151, 20153.318, 66253.27, 0.0000000040864183, 10.000864, 9.999181 
6.751304e+2, 3.052918e+2, 37642.715, -181048.81, -23147.564, -0.021762192, -0.23601286, 40065.934, 40065.934, 0.0000003121116, 10.001117, 9.998218 
6.751437e+2, 3.1529102e+2, 156813.06, -2078.8965, 15156.993, -0.048888415, -0.1445053, 158245.98, 158245.98, 0.0000020914758, 10.001411, 9.999305 
6.848693e+2, 1.2528288e+2, -1794252.5, -1693253.0, -17596.855, -0.14126654, -0.14941679, -1690275.0, 21942.695, 0.0, 9.999216, 10.000518 
6.848883e+2, 1.3528396e+2, -1689312.0, -1637200.1, 35206.547, 0.22412038, -0.05559217, -1619456.4, -5248.6777, 0.0, 9.999425, 10.000148 
6.8489933e+2, 1.4528391e+2, -1593253.6, -1544931.5, -9382.261, -0.19116847, -0.071559235, -1543173.8, -26965.17, 0.0, 9.999448, 10.000086 
6.849153e+2, 1.5528367e+2, -1517019.1, -1456818.9, -22595.45, -0.03676321, -0.104733974, -1449281.6, -31070.863, 0.0, 9.999298, 10.000089 
6.8493044e+2, 1.6528362e+2, -1420595.1, -1376088.9, -29741.416, 0.04136226, -0.11102941, -1361197.0, -40985.625, 0.0, 9.999358, 9.999941 
6.8494445e+2, 1.7528366e+2, -1285076.9, -1258478.6, -31799.844, 0.019069953, -0.102207206, -1237309.0, -15098.258, 0.0, 9.999609, 9.999955 
6.849585e+2, 1.8528368e+2, -1184491.0, -1180915.1, -30093.621, -0.007104945, -0.0845898, -1152556.4, -28345.219, 0.0, 9.99972, 9.999762 
6.8497264e+2, 1.9528368e+2, -1085549.5, -1079714.9, -26531.318, -0.025554353, -0.061977617, -1055941.0, -29728.56, 0.0, 9.999715, 9.999785 
6.849871e+2, 2.0528348e+2, -964839.44, -953519.94, -28510.719, -0.009782578, -0.06849155, -930112.6, -1898.6298, 0.0, 9.999795, 9.999941 
6.850019e+2, 2.1528307e+2, -843377.44, -843394.94, -33124.773, 0.03209284, -0.10488475, -810261.4, 19954.488, 0.0, 9.999952, 9.9999485 
6.850163e+2, 2.2528271e+2, -753978.4, -787091.7, -24945.385, 0.031555623, -0.11667497, -740595.2, -8376.969, 0.0, 10.000054, 9.999614 
6.850304e+2, 2.3528239e+2, -646192.44, -681066.06, -15708.968, -0.004968396, -0.110849686, -640159.8, -5938.8384, 0.0, 10.000107, 9.999643 
6.850449e+2, 2.4528204e+2, -530225.3, -539066.1, -14932.31, -0.009349141, -0.12524855, -519072.88, 17150.002, 0.0, 10.000078, 9.999958 
6.850596e+2, 2.5528166e+2, -446682.25, -447641.3, -26074.287, 0.0141761135, -0.16198827, -421083.1, 17140.926, 0.0, 9.999978, 9.999961 
6.85074e+2, 2.6528114e+2, -370078.25, -424452.2, -33445.39, 0.008642167, -0.18026842, -354163.88, -13935.709, 0.0, 10.00011, 9.999384 
6.85088e+2, 2.7528045e+2, -221342.1, -299816.63, -22241.14, -0.021283483, -0.18765955, -215476.9, 26758.19, 0.0, 10.000448, 9.999404 
6.851024e+2, 2.8527987e+2, -106863.734, -214766.81, -5642.8735, -0.02408059, -0.17412674, -106569.44, 37670.777, 0.0, 10.000652, 9.999217 
6.851173e+2, 2.9527944e+2, 577.3683, -117304.83, -14144.027, -0.0048899623, -0.14219971, 2250.679, 48494.035, 0.0000000009738006, 10.000739, 9.999171 
6.8513143e+2, 3.0527732e+2, 34631.125, -163141.77, -36973.74, -0.0267743, -0.22753897, 41317.34, 41317.34, 0.00000022618863, 10.001013, 9.998391 
6.8514526e+2, 3.1527656e+2, 156440.8, -12062.949, 12294.765, -0.0405157, -0.14922445, 157333.14, 157333.14, 0.0000018666766, 10.0014515, 9.999217 
6.9486916e+2, 1.252691e+2, -1812970.9, -1734989.4, -27214.006, -0.07396867, -0.08365243, -1726431.4, -14078.696, 0.0, 9.9992285, 10.000226 
6.948869e+2, 1.3526909e+2, -1704842.4, -1669950.9, 42995.184, 0.13864045, -0.07651932, -1640996.9, -26643.014, 0.0, 9.999427, 9.999922 
6.948982e+2, 1.4526857e+2, -1601780.8, -1562399.3, -14926.947, -0.25227657, -0.12097453, -1557380.9, -41021.47, 0.0, 9.999447, 9.999967 
6.9491524e+2, 1.5526886e+2, -1525055.1, -1474022.0, -27415.947, 0.028275436, -0.08944064, -1462085.6, -43728.93, 0.0, 9.9993, 9.99997 
6.9493043e+2, 1.6526894e+2, -1425655.0, -1386947.1, -20406.527, 0.10800588, -0.07164799, -1378176.3, -57820.332, 0.0, 9.999359, 9.999866 
6.9494367e+2, 1.7526877e+2, -1290413.3, -1269015.9, -22748.002, -0.019096514, -0.07754117, -1254576.3, -32218.422, 0.0, 9.999606, 9.999884 
6.9495785e+2, 1.8526855e+2, -1178398.8, -1167620.9, -30711.404, -0.047859315, -0.08431022, -1141829.3, -17469.076, 0.0, 9.999716, 9.999854 
6.949728e+2, 1.9526833e+2, -1079402.0, -1066973.9, -26616.82, 0.020725982, -0.09421889, -1045855.3, -19492.781, 0.0, 9.999715, 9.999873 
6.9498736e+2, 2.0526823e+2, -974203.9, -973174.0, -22917.756, 0.033005934, -0.08635586, -950765.4, -22402.285, 0.0, 9.999796, 9.999806 
6.950014e+2, 2.1526825e+2, -852128.0, -861677.94, -27452.777, -0.008606716, -0.06696288, -829038.0, 1324.1353, 0.0, 9.999952, 9.999824 
6.9501585e+2, 2.252679e+2, -737053.6, -752068.3, -23076.875, -0.011521339, -0.08517188, -720293.7, 12070.619, 0.0, 10.000054, 9.999854 
6.9503075e+2, 2.352672e+2, -630511.75, -648554.0, -13985.285, 0.021389555, -0.14092146, -622890.5, 11478.736, 0.0, 10.000107, 9.9998665 
6.9504523e+2, 2.4526685e+2, -550237.2, -580721.06, -18985.852, 0.019292885, -0.15180138, -541132.06, -4760.5166, 0.0, 10.000078, 9.999672 
6.9505924e+2, 2.552668e+2, -465208.03, -486469.53, -29365.008, -0.014791212, -0.1275042, -444608.72, -6237.211, 0.0, 9.999979, 9.999694 
6.950737e+2, 2.6526636e+2, -349361.9, -381233.53, -20787.7, -0.02255316, -0.13931364, -339104.63, 1270.0986, 0.0, 10.000109, 9.999681 
6.9508857e+2, 2.7526557e+2, -202262.47, -259227.86, -9902.325, -0.005582427, -0.18911053, -200590.23, 41790.754, 0.0, 10.000444, 9.999684 
6.951033e+2, 2.8526494e+2, -120309.61, -241859.34, -2662.48, -0.0044576935, -0.18208328, -120251.31, 24134.873, 0.0, 10.000648, 9.999033 
6.951179e+2, 2.952646e+2, -11532.943, -141566.75, -10353.519, -0.019511214, -0.12377063, -10713.739, 35676.277, 0.000000000021633938, 10.000734, 9.999007 
6.951322e+2, 3.052627e+2, 57439.96, -113943.88, -20927.771, -0.04672581, -0.19437633, 59958.453, 59958.453, 0.00000014519733, 10.001005, 9.998733 
6.9514686e+2, 3.1526193e+2, 160494.28, -684.65936, 26455.416, -0.02708329, -0.15047255, 164725.52, 164725.52, 0.0000015881137, 10.001439, 9.999301 
7.0486844e+2, 1.2525448e+2, -1793936.6, -1734326.1, -61485.95, -0.07474171, -0.070377305, -1695802.3, 16693.68, 0.0, 9.999396, 10.000149 
7.048861e+2, 1.3525435e+2, -1709952.4, -1672582.5, 40677.996, 0.12186127, -0.07403142, -1646503.4, -32005.002, 0.0, 9.999393, 9.999919 
7.0489776e+2, 1.4525366e+2, -1601801.0, -1568866.3, -9172.481, -0.24146679, -0.1326426, -1566484.0, -49978.42, 0.0, 9.999476, 9.9999075 
7.049148e+2, 1.5525404e+2, -1476792.5, -1457738.5, -17098.326, 0.039296824, -0.08498123, -1447692.1, -29190.387, 0.0, 9.999662, 9.999907 
7.0493e+2, 1.6525409e+2, -1384417.3, -1378337.5, -7391.2676, 0.11485096, -0.062267236, -1373385.4, -52883.938, 0.0, 9.999692, 9.999764 
7.049433e+2, 1.7525376e+2, -1301373.6, -1285113.5, -11864.727, -0.017694632, -0.07401257, -1278860.6, -56355.445, 0.0, 9.999578, 9.999785 
7.0495754e+2, 1.8525344e+2, -1192988.8, -1179317.3, -24207.354, -0.044004835, -0.08386664, -1160999.0, -36490.65, 0.0, 9.999638, 9.999811 
7.0497274e+2, 1.952532e+2, -1062623.4, -1064097.3, -31002.78, 0.033147756, -0.09373939, -1032348.8, -5837.72, 0.0, 9.999852, 9.999826 
7.049873e+2, 2.0525305e+2, -955816.2, -968348.25, -29834.57, 0.043786336, -0.08621555, -931596.75, -3084.6802, 0.0, 9.999939, 9.99977 
7.0500135e+2, 2.1525301e+2, -860020.8, -869231.94, -27207.994, -0.008036801, -0.06844634, -837031.3, -6519.581, 0.0, 9.999915, 9.999789 
7.050159e+2, 2.2525266e+2, -755785.5, -757386.5, -28658.316, -0.01139828, -0.08596105, -727916.5, 4597.3237, 0.0, 9.99991, 9.9998865 
7.050308e+2, 2.3525202e+2, -655367.6, -657286.94, -35308.563, 0.029341137, -0.1383663, -621005.7, 13512.356, 0.0, 9.999923, 9.999895 
7.050453e+2, 2.4525169e+2, -558704.9, -590996.06, -37307.367, 0.0220958, -0.14763893, -534199.3, 2321.1848, 0.0, 10.000048, 9.999617 
7.050593e+2, 2.5525156e+2, -426089.13, -473754.88, -31175.582, -0.028535884, -0.122987784, -410680.16, 27841.19, 0.0, 10.000274, 9.9996395 
7.0507383e+2, 2.652511e+2, -314858.47, -361228.7, -22958.668, -0.03305417, -0.13446026, -305414.6, 35109.906, 0.0, 10.000331, 9.999712 
7.05089e+2, 2.7525035e+2, -230092.81, -269199.22, -31732.082, 0.0048044827, -0.18366443, -212373.34, 30156.521, 0.0, 10.000239, 9.999715 
7.051039e+2, 2.8524974e+2, -170109.0, -270951.3, -26280.58, 0.0056678904, -0.18010385, -163671.02, -19135.545, 0.0, 10.000328, 9.998987 
7.051185e+2, 2.952492e+2, -36885.348, -158049.75, -24020.08, -0.028431017, -0.12965825, -32297.252, 14243.741, 0.0, 10.000579, 9.998969 
7.05133e+2, 3.0524758e+2, 43689.246, -98527.85, -29402.684, -0.056814, -0.1840335, 49528.363, 49528.363, 0.00000008201181, 10.000815, 9.99893 
7.051482e+2, 3.152467e+2, 103757.04, -26367.064, 4815.99, -0.009897408, -0.16975138, 103935.04, 103935.04, 0.0000012936833, 10.001041, 9.999317 
7.1486706e+2, 1.25239e+2, -1783400.3, -1712960.0, -75617.96, -0.14962791, -0.113137774, -1664762.4, 47885.246, 0.0, 9.999397, 10.000296 
7.14886e+2, 1.352398e+2, -1692954.8, -1638395.1, 41098.027, 0.17275213, -0.04751394, -1616347.1, -1706.3379, 0.0, 9.999398, 10.000152 
7.14898e+2, 1.4523923e+2, -1601632.4, -1569642.4, -2337.6973, -0.15855783, -0.1052583, -1569472.4, -52825.848, 0.0, 9.99948, 9.9999 
7.14914e+2, 1.5523927e+2, -1477901.1, -1460009.1, -9986.121, -0.005091615, -0.091282986, -1455547.9, -36902.23, 0.0, 9.999662, 9.999891 
7.1492916e+2, 1.6523911e+2, -1393168.5, -1396515.9, -11483.379, 0.05957433, -0.083269365, -1383237.5, -62589.996, 0.0, 9.999692, 9.9996395 
7.1494323e+2, 1.7523867e+2, -1309752.1, -1303119.6, -15479.818, 0.022609247, -0.09248046, -1290604.9, -67952.46, 0.0, 9.999581, 9.999661 
7.1495765e+2, 1.8523839e+2, -1206142.3, -1206890.3, -16272.092, 0.004584562, -0.08402832, -1190239.9, -65584.05, 0.0, 9.999638, 9.999621 
7.149724e+2, 1.9523825e+2, -1075719.9, -1091146.9, -23243.719, 0.010977081, -0.060368873, -1058943.3, -32285.375, 0.0, 9.99985, 9.999641 
7.14987e+2, 2.0523791e+2, -951666.75, -959767.2, -31084.602, 0.021257617, -0.067550145, -924369.56, 4291.084, 0.0, 9.999939, 9.999829 
7.1500164e+2, 2.1523735e+2, -856275.3, -861582.06, -28257.164, 0.033001974, -0.10887098, -830547.2, 117.39385, 0.0, 9.999915, 9.999842 
7.150162e+2, 2.2523701e+2, -767803.6, -782522.6, -28526.7, 0.03156894, -0.11893315, -745702.4, -13035.646, 0.0, 9.99991, 9.999715 
7.150306e+2, 2.3523688e+2, -666721.56, -681065.0, -34559.535, 0.018751934, -0.104178205, -638597.44, -3930.1497, 0.0, 9.999923, 9.999732 
7.150451e+2, 2.4523655e+2, -547260.0, -567196.7, -28838.43, -0.0012837013, -0.11312488, -526715.6, 9953.93, 0.0, 10.000048, 9.999781 
7.150595e+2, 2.55236e+2, -415639.03, -451960.03, -23005.97, -0.028072456, -0.14755133, -404489.5, 34183.87, 0.0, 10.000274, 9.999789 
7.150743e+2, 2.6523545e+2, -330737.5, -394310.22, -26672.484, -0.023697918, -0.1649139, -321029.38, 19648.02, 0.0, 10.000332, 9.999485 
7.1508926e+2, 2.7523488e+2, -245342.81, -300690.72, -34790.77, 0.009216925, -0.17191897, -228561.78, 14119.85, 0.0, 10.000238, 9.999499 
7.1510416e+2, 2.8523415e+2, -164669.9, -258868.42, -17109.697, 0.00566746, -0.16864857, -161658.47, -16970.525, 0.0, 10.000325, 9.999072 
7.15119e+2, 2.9523337e+2, -31754.896, -146261.56, -14669.409, -0.032451425, -0.15836272, -29905.475, 16790.586, 0.0, 10.000574, 9.999052 
7.151338e+2, 3.0523196e+2, 47561.227, -89641.98, -20993.75, -0.05786738, -0.19532965, 50701.645, 50701.645, 0.00000004119849, 10.000812, 9.998994 
7.151494e+2, 3.15231e+2, 98338.06, -36117.64, 11301.084, 0.008136184, -0.19575132, 99281.31, 99281.31, 0.0000010048329, 10.001034, 9.999254 
7.248663e+2, 1.2522376e+2, -1798312.0, -1723493.8, -79564.72, -0.16268803, -0.13977374, -1672982.5, 39813.96, 0.0, 9.999309, 10.000266 
7.2488546e+2, 1.3522486e+2, -1686046.5, -1627557.6, 35530.563, 0.17640291, -0.048772726, -1610784.0, 4002.4639, 0.0, 9.9994135, 10.000217 
7.248978e+2, 1.4522433e+2, -1597523.5, -1563205.3, -9201.258, -0.12973756, -0.10894588, -1560894.0, -44102.105, 0.0, 9.999491, 9.999938 
7.2491354e+2, 1.5522432e+2, -1488618.9, -1461501.6, -13506.083, -0.019467603, -0.10339533, -1455922.5, -37131.32, 0.0, 9.999573, 9.999923 
7.249286e+2, 1.652241e+2, -1395384.4, -1405025.6, -14248.437, 0.04026095, -0.09867359, -1385163.1, -64369.77, 0.0, 9.999708, 9.999574 
7.249431e+2, 1.7522362e+2, -1268872.5, -1291189.4, -14097.843, 0.036164474, -0.10540946, -1262051.5, -39252.684, 0.0, 9.999895, 9.999592 
7.2495764e+2, 1.8522327e+2, -1162401.3, -1198125.6, -6798.5605, 0.022975422, -0.09457547, -1161151.1, -36348.164, 0.0, 9.999991, 9.999512 
7.2497225e+2, 1.9522305e+2, -1060446.8, -1095935.0, -7711.9585, 0.0071985233, -0.069427796, -1058843.3, -32037.37, 0.0, 10.000009, 9.999532 
7.249869e+2, 2.0522264e+2, -941916.75, -963000.5, -21392.62, 0.0170315, -0.07364837, -928609.6, 199.991, 0.0, 10.00004, 9.999758 
7.2500175e+2, 2.1522206e+2, -836945.0, -860495.4, -28619.813, 0.04845641, -0.10988918, -817772.7, 13041.39, 0.0, 10.000083, 9.999769 
7.250163e+2, 2.2522165e+2, -750649.56, -784056.0, -31543.404, 0.04284129, -0.11851661, -731659.9, 1157.1145, 0.0, 10.000071, 9.999627 
7.250305e+2, 2.352214e+2, -659934.44, -687576.9, -31539.666, 0.0041677705, -0.10663167, -639320.56, -4501.923, 0.0, 10.000012, 9.999644 
7.25045e+2, 2.4522096e+2, -548538.6, -572772.7, -23225.56, -0.011291829, -0.11963944, -534459.3, 2362.632, 0.0, 10.00006, 9.999737 
7.2506e+2, 2.5522032e+2, -428777.88, -463200.06, -32954.633, -0.0059981747, -0.15875608, -408810.63, 30016.0, 0.0, 10.000205, 9.999745 
7.2507477e+2, 2.6521975e+2, -339502.2, -407006.06, -45265.41, -0.0070531378, -0.1705429, -316790.44, 24040.354, 0.0, 10.000308, 9.999409 
7.250893e+2, 2.7521926e+2, -231471.66, -302752.5, -42677.97, -0.013621194, -0.16293079, -211509.48, 31325.043, 0.0, 10.00037, 9.999422 
7.2510433e+2, 2.8521842e+2, -160378.53, -262013.97, -20190.344, -0.015383117, -0.16754422, -156514.53, -11672.264, 0.0, 10.000376, 9.999026 
7.2511965e+2, 2.9521728e+2, -68455.484, -168399.36, -27230.75, -0.013884276, -0.18504757, -61517.773, -14664.275, 0.0, 10.000341, 9.999012 
7.251347e+2, 3.0521625e+2, 9520.114, -102949.51, -31183.256, -0.04091534, -0.188452, 17587.32, 17587.32, 0.000000018939705, 10.000529, 9.999037 
7.251503e+2, 3.1521526e+2, 82120.3, -42832.227, -3103.7542, -0.0049292636, -0.19350292, 82197.35, 82197.35, 0.0000007295325, 10.00092, 9.999262 
7.34866e+2, 1.2520877e+2, -1814581.4, -1756583.8, -85670.77, -0.11594552, -0.14990163, -1695137.0, 17805.223, 0.0, 9.999305, 10.000041 
7.348844e+2, 1.3520958e+2, -1694405.8, -1643597.4, 39225.043, 0.13190591, -0.07752658, -1622268.5, -7333.2046, 0.0, 9.999409, 10.00011 
7.34897e+2, 1.4520897e+2, -1591551.4, -1550577.3, -6201.6235, -0.1568076, -0.14381726, -1549659.1, -32717.834, 0.0, 9.999489, 10.000026 
7.3491323e+2, 1.552092e+2, -1482363.1, -1449258.9, -9799.059, -0.0059757396, -0.122566596, -1446575.8, -27637.537, 0.0, 9.999576, 10.000006 
7.349285e+2, 1.652091e+2, -1396024.8, -1407162.8, -7340.8823, 0.05590745, -0.10909065, -1392379.5, -71440.41, 0.0, 9.999711, 9.9995575 
7.3494285e+2, 1.7520864e+2, -1269917.1, -1293751.4, -7160.8374, 0.022623109, -0.1121445, -1267931.3, -44987.05, 0.0, 9.999897, 9.999574 
7.3495746e+2, 1.8520813e+2, -1164161.3, -1202066.4, -6389.367, 0.010164269, -0.11507023, -1163113.1, -38163.633, 0.0, 9.999991, 9.999485 
7.3497236e+2, 1.9520757e+2, -1062535.8, -1100583.5, -7069.2583, 0.02112147, -0.12124725, -1061264.8, -34309.473, 0.0, 10.00001, 9.9995 
7.3498714e+2, 2.0520726e+2, -956140.7, -992707.8, -20095.771, 0.030751241, -0.10492745, -947255.75, -18297.059, 0.0, 10.00004, 9.999555 
7.3500174e+2, 2.1520716e+2, -850870.1, -889450.1, -27266.605, 0.0378159, -0.07216495, -836759.94, -5799.893, 0.0, 10.000082, 9.999571 
7.350161e+2, 2.252066e+2, -751245.8, -785477.56, -34023.965, 0.02175846, -0.084893726, -730275.2, 2689.3164, 0.0, 10.000071, 9.999618 
7.350303e+2, 2.3520564e+2, -660763.94, -689785.44, -33686.242, -0.014937928, -0.14461377, -638596.0, -3624.109, 0.0, 10.000013, 9.999629 
7.350451e+2, 2.4520496e+2, -565625.75, -608528.06, -17930.016, -0.008704795, -0.1666606, -559119.1, -22141.74, 0.0, 10.000061, 9.999491 
7.3506063e+2, 2.5520456e+2, -445655.66, -497761.06, -27395.805, 0.0362419, -0.1575249, -433902.63, 5078.387, 0.0, 10.000203, 9.999509 
7.3507524e+2, 2.652041e+2, -334954.6, -397066.13, -42970.71, 0.016063575, -0.15210764, -312992.03, 27992.59, 0.0, 10.000305, 9.999478 
7.350892e+2, 2.7520356e+2, -227082.67, -293949.38, -40438.06, -0.06310494, -0.1558743, -208046.75, 34941.645, 0.0, 10.000371, 9.999482 
7.3510426e+2, 2.8520247e+2, -172058.42, -286695.4, -21545.666, -0.05742342, -0.17604524, -168142.73, -23144.498, 0.0, 10.000378, 9.998856 
7.3512036e+2, 2.9520103e+2, -79955.66, -191794.42, -27750.098, 0.02460569, -0.21060818, -73448.73, -26435.525, 0.0, 10.000339, 9.998853 
7.351355e+2, 3.052004e+2, 10063.7295, -100784.125, -16717.096, -0.008457057, -0.164898, 12529.982, 12529.982, 0.0000000073965225, 10.0005245, 9.999055 
7.351507e+2, 3.1519955e+2, 84554.49, -36239.33, 9103.211, -0.05001182, -0.15646248, 85236.67, 85236.67, 0.0000004773962, 10.000913, 9.999311 
7.448655e+2, 1.251937e+2, -1860084.6, -1773081.5, -95133.83, -0.088610895, -0.14590275, -1711975.1, 1114.4685, 0.0, 9.99897, 10.000089 
7.448836e+2, 1.3519442e+2, -1657312.5, -1609873.5, 55636.984, 0.10510118, -0.09600095, -1573110.9, 41971.566, 0.0, 9.999595, 10.000251 
7.448966e+2, 1.4519379e+2, -1561862.5, -1549701.4, -4263.579, -0.15995209, -0.16759853, -1548355.5, -31266.758, 0.0, 9.99975, 9.999907 
7.4491286e+2, 1.5519407e+2, -1498226.9, -1470502.9, -22767.861, 0.0075154714, -0.12747906, -1457709.1, -38623.277, 0.0, 9.999525, 9.999885 
7.4492824e+2, 1.6519395e+2, -1411024.1, -1415479.1, -14354.379, 0.06623661, -0.111383095, -1398725.4, -77638.21, 0.0, 9.999615, 9.999547 
7.4494267e+2, 1.7519334e+2, -1256898.6, -1289299.4, -14534.288, 0.013950145, -0.12755486, -1251334.4, -28241.092, 0.0, 9.999993, 9.9995575 
7.4495745e+2, 1.8519278e+2, -1141969.4, -1193753.6, -24084.617, 0.0013610681, -0.13406576, -1132499.5, -7400.6206, 0.0, 10.000154, 9.999464 
7.4497247e+2, 1.9519225e+2, -1049312.4, -1097106.9, -24518.484, 0.028685484, -0.1341014, -1038971.7, -11867.659, 0.0, 10.000113, 9.999475 
7.449872e+2, 2.0519188e+2, -965018.5, -1013969.94, -35285.42, 0.03393606, -0.11438431, -946551.0, -17442.795, 0.0, 10.000052, 9.999402 
7.450016e+2, 2.1519162e+2, -876539.44, -918496.06, -38780.64, 0.017424885, -0.08168043, -853426.6, -22314.922, 0.0, 9.999978, 9.999421 
7.4501604e+2, 2.25191e+2, -752008.56, -789438.06, -40064.97, 0.0055611455, -0.09297879, -726502.94, 6614.1343, 0.0, 10.000081, 9.999585 
7.450306e+2, 2.3519003e+2, -615024.0, -671655.0, -41769.26, -0.0013693135, -0.1489551, -592877.25, 42246.953, 0.0, 10.000345, 9.999594 
7.4504554e+2, 2.4518926e+2, -530402.7, -608667.56, -27818.97, 0.011107052, -0.16952112, -521522.16, 15608.4, 0.0, 10.000378, 9.999336 
7.450608e+2, 2.551887e+2, -457840.47, -520995.3, -30915.166, 0.04056466, -0.16156456, -445226.47, -6090.203, 0.0, 10.000194, 9.999354 
7.450755e+2, 2.6518816e+2, -352594.5, -411149.97, -42094.875, 0.015945347, -0.15249708, -330596.84, 10543.969, 0.0, 10.000208, 9.99943 
7.450896e+2, 2.7518764e+2, -224233.83, -297902.28, -48612.598, -0.05727831, -0.14768215, -200076.7, 43067.746, 0.0, 10.000414, 9.999434 
7.451047e+2, 2.8518656e+2, -158153.11, -287563.3, -35640.176, -0.054970015, -0.1681743, -148986.89, -3831.881, 0.0, 10.000506, 9.998788 
7.4512064e+2, 2.951849e+2, -63285.848, -191847.52, -34490.996, 0.014861508, -0.21166644, -54617.01, -7445.4243, 0.0, 10.000487, 9.998781 
7.4513584e+2, 3.0518454e+2, 10263.58, -111389.62, -12541.89, -0.02076042, -0.13385715, 11543.134, 11543.134, 0.0000000015345106, 10.000572, 9.998959 
7.451516e+2, 3.1518346e+2, 65802.5, -41407.703, 2133.3804, -0.049741138, -0.13970631, 65844.94, 65844.94, 0.00000026410652, 10.000768, 9.999345 
7.5486445e+2, 1.2517864e+2, -1839262.8, -1728837.6, -78309.43, -0.08552184, -0.12310361, -1688233.8, 25004.242, 0.0, 9.998964, 10.000396 
7.5488305e+2, 1.3517945e+2, -1629800.9, -1552899.3, 78403.266, 0.09339285, -0.10495592, -1504025.8, 111201.97, 0.0, 9.999596, 10.000642 
7.548965e+2, 1.4517877e+2, -1584637.8, -1597905.3, -13483.399, -0.14081387, -0.18075518, -1576244.6, -59010.54, 0.0, 9.999753, 9.999575 
7.5491256e+2, 1.5517898e+2, -1520904.5, -1517879.4, -30858.434, 0.021276582, -0.11604204, -1488496.5, -69262.805, 0.0, 9.999526, 9.999559 
7.549279e+2, 1.6517866e+2, -1411695.1, -1417085.9, -220.71712, 0.0711629, -0.10409823, -1411686.0, -90448.55, 0.0, 9.999615, 9.9995365 
7.5494266e+2, 1.7517772e+2, -1257512.3, -1291074.1, -459.3816, 0.009114703, -0.15242854, -1257506.0, -34259.88, 0.0, 9.999995, 9.999545 
7.549575e+2, 1.851772e+2, -1143061.5, -1196336.9, -25965.78, -0.004640867, -0.15213126, -1132499.9, -7248.951, 0.0, 10.0001545, 9.999446 
7.549726e+2, 1.951771e+2, -1050565.8, -1100057.4, -26266.686, 0.029459814, -0.10798018, -1039224.25, -11972.231, 0.0, 10.0001135, 9.9994545 
7.549872e+2, 2.0517653e+2, -972176.6, -1029047.2, -38520.36, 0.026184564, -0.1018304, -952733.06, -23475.078, 0.0, 10.000053, 9.999299 
7.5500125e+2, 2.1517548e+2, -883641.44, -933472.44, -41633.85, -0.013292229, -0.13778447, -860037.25, -28768.469, 0.0, 9.999979, 9.999318 
7.5501597e+2, 2.2517484e+2, -755827.8, -797386.75, -30328.354, -0.0066603892, -0.1424653, -739843.2, -6568.729, 0.0, 10.000081, 9.999531 
7.550313e+2, 2.3517461e+2, -619082.4, -679792.75, -32182.531, 0.043742754, -0.120924085, -605197.9, 30077.594, 0.0, 10.000343, 9.999538 
7.5504625e+2, 2.451739e+2, -535146.7, -618565.7, -34770.16, 0.04752229, -0.12902422, -522554.75, 14726.699, 0.0, 10.000377, 9.999269 
7.550607e+2, 2.551728e+2, -462491.78, -531416.6, -37462.266, 0.0074851876, -0.16980498, -446051.53, -6759.3535, 0.0, 10.000196, 9.999281 
7.550755e+2, 2.6517203e+2, -363870.22, -435074.97, -34380.316, -0.0077491812, -0.17074509, -349979.8, -8680.645, 0.0, 10.00021, 9.999264 
7.550906e+2, 2.7517164e+2, -235702.0, -320892.75, -40552.637, 0.00027334486, -0.13964061, -219485.11, 23817.557, 0.0, 10.00041, 9.999278 
7.551057e+2, 2.8517058e+2, -156618.02, -283464.78, -36161.484, -0.010961458, -0.1455494, -147033.33, -1720.7109, 0.0, 10.000502, 9.998818 
7.551205e+2, 2.95169e+2, -61888.324, -189354.28, -34653.48, -0.041352894, -0.1873012, -53076.445, -5748.0024, 0.0, 10.000488, 9.998798 
7.551359e+2, 3.051687e+2, -4041.5264, -141139.02, -4776.491, -0.07674872, -0.09344931, -3875.3145, -3875.3145, 0.00000000001992495, 10.000572, 9.9987545 
7.551527e+2, 3.15167e+2, 63985.082, -42370.62, 8065.612, -0.011024651, -0.13831551, 64593.27, 64593.27, 0.000000109993245, 10.000755, 9.999344 
7.648636e+2, 1.2516329e+2, -1789658.5, -1705879.4, -85039.28, -0.081276506, -0.117765136, -1652972.3, 60416.223, 0.0, 9.999308, 10.000389 
7.648824e+2, 1.3516414e+2, -1711100.9, -1583025.4, 51310.23, 0.09461759, -0.102416426, -1565004.8, 50372.723, 0.0, 9.999, 10.000723 
7.648962e+2, 1.4516349e+2, -1667861.1, -1638740.5, -36234.535, -0.11648539, -0.17985682, -1614250.3, -96866.836, 0.0, 9.9991865, 9.999567 
7.649122e+2, 1.5516363e+2, -1467401.8, -1493849.3, -29343.205, 0.015186461, -0.12137819, -1448440.3, -29056.441, 0.0, 9.9999, 9.999545 
7.649276e+2, 1.6516326e+2, -1340967.8, -1390040.5, 5264.3584, 0.0583832, -0.10835612, -1340409.4, -19021.383, 0.0, 10.000129, 9.999475 
7.6494265e+2, 1.7516236e+2, -1274798.3, -1306082.5, 1180.0259, 0.01323059, -0.1470045, -1274753.9, -51357.504, 0.0, 9.999906, 9.999486 
7.6495767e+2, 1.8516178e+2, -1179790.0, -1219053.9, -26017.06, 0.0003667753, -0.1481274, -1166829.0, -41427.3, 0.0, 9.999925, 9.999401 
7.649726e+2, 1.9516149e+2, -1045246.0, -1102829.3, -28517.578, 0.019631747, -0.11682633, -1033513.44, -6109.158, 0.0, 10.000173, 9.999407 
7.6498723e+2, 2.0516083e+2, -933034.2, -1011300.3, -41984.832, 0.014085952, -0.11756852, -914772.8, 14638.183, 0.0, 10.000327, 9.999289 
7.650014e+2, 2.1515976e+2, -824896.75, -906861.2, -38384.625, -0.015527758, -0.15422337, -809728.06, 21693.623, 0.0, 10.00039, 9.999303 
7.6501626e+2, 2.2515911e+2, -720400.0, -795233.4, -23063.99, -0.005524127, -0.153893, -713862.6, 19565.324, 0.0, 10.000389, 9.999396 
7.6503164e+2, 2.3515883e+2, -630670.6, -700492.1, -31478.574, 0.041677944, -0.12227066, -618574.3, 16855.701, 0.0, 10.000329, 9.999403 
7.650466e+2, 2.451581e+2, -533614.9, -620418.94, -38683.02, 0.04263686, -0.12431243, -518878.16, 18558.332, 0.0, 10.000399, 9.999246 
7.6506096e+2, 2.55157e+2, -406288.88, -506981.88, -38264.105, 0.0003835754, -0.16275549, -393398.4, 46048.754, 0.0, 10.000595, 9.999257 
7.6507586e+2, 2.6515615e+2, -318590.97, -428032.66, -32533.102, -0.009800012, -0.1629653, -309650.44, 31804.523, 0.0, 10.000586, 9.999131 
7.6509106e+2, 2.751556e+2, -249210.28, -342370.2, -36905.64, 0.00987587, -0.13294409, -236361.97, 7098.2075, 0.0, 10.000381, 9.999145 
7.6510614e+2, 2.8515452e+2, -171308.83, -286219.3, -27746.625, -0.0025155994, -0.142335, -164959.84, -19489.043, 0.0, 10.000381, 9.9988575 
7.6512104e+2, 2.951529e+2, -45839.035, -177548.9, -26008.607, -0.045455225, -0.18968982, -40889.168, 6597.159, 0.0, 10.000582, 9.998835 
7.651364e+2, 3.0515262e+2, -7523.19, -152791.58, 5628.3794, -0.08302687, -0.08885366, -7305.447, -7305.447, 0.0, 10.000591, 9.998666 
7.6515335e+2, 3.1515065e+2, 24820.09, -45430.668, 24279.525, -0.006512626, -0.15654516, 32394.682, 32394.682, 0.000000028836135, 10.000417, 9.999487 
7.748629e+2, 1.2514766e+2, -1812976.3, -1753991.8, -100671.75, -0.08154899, -0.12954259, -1678581.3, 34959.777, 0.00000000003061157, 9.999306, 10.00006 
7.748815e+2, 1.3514854e+2, -1728738.8, -1617738.0, 38902.477, 0.1086229, -0.0862184, -1605461.5, 10069.919, 0.0, 9.998992, 10.000487 
7.7489567e+2, 1.4514795e+2, -1645676.1, -1592236.0, -9963.468, -0.08718331, -0.16309072, -1590438.9, -72902.125, 0.0, 9.999184, 9.999888 
7.749118e+2, 1.55148e+2, -1445229.3, -1448841.6, -2720.047, -0.012250669, -0.14484994, -1443770.3, -24234.205, 0.0, 9.999904, 9.999852 
7.7492744e+2, 1.651478e+2, -1348387.3, -1406304.3, -3622.1887, 0.0259777, -0.1250121, -1348161.6, -26623.299, 0.0, 10.000132, 9.999362 
7.7494264e+2, 1.7514731e+2, -1282478.1, -1322051.1, -7113.574, 0.025736418, -0.11057876, -1281238.3, -57694.613, 0.0, 9.999906, 9.999376 
7.749577e+2, 1.8514654e+2, -1185161.3, -1229858.8, -16898.865, 0.016021948, -0.121336, -1179491.5, -53940.473, 0.0, 9.999923, 9.999328 
7.749726e+2, 1.9514549e+2, -1050328.4, -1113505.6, -19348.662, -0.0012817149, -0.1603687, -1044873.7, -17313.008, 0.0, 10.000173, 9.999333 
7.7498734e+2, 2.0514482e+2, -927463.75, -999821.6, -39967.477, -0.0032043033, -0.16172305, -909732.44, 19834.59, 0.0, 10.000327, 9.999368 
7.75002e+2, 2.151445e+2, -820022.94, -896555.94, -36354.605, 0.009921513, -0.13184929, -805507.0, 26063.43, 0.0, 10.000389, 9.999373 
7.750167e+2, 2.251438e+2, -735771.25, -827136.44, -25744.078, 0.008570431, -0.1277107, -729016.7, 4560.6978, 0.0, 10.000389, 9.999178 
7.750315e+2, 2.3514275e+2, -645501.7, -731609.2, -33615.83, -0.0072071664, -0.15183252, -633932.6, 1654.9724, 0.0, 10.00033, 9.999189 
7.750465e+2, 2.4514192e+2, -532217.1, -617555.0, -31373.3, -0.0037588452, -0.15465522, -521924.56, 15670.944, 0.0, 10.000399, 9.999266 
7.750618e+2, 2.5514135e+2, -405291.28, -504356.9, -30927.76, 0.017336586, -0.14200407, -396428.66, 43172.582, 0.0, 10.000592, 9.999276 
7.750766e+2, 2.651406e+2, -326220.7, -443340.22, -40097.66, 0.0086911125, -0.13027589, -313808.16, 27800.1, 0.0, 10.000583, 9.999027 
7.7509105e+2, 2.751397e+2, -256629.55, -358050.66, -43868.92, -0.027108446, -0.12531142, -240287.56, 3329.1492, 0.0, 10.000382, 9.999037 
7.7510625e+2, 2.8513834e+2, -167885.1, -279387.84, -19893.154, -0.029671948, -0.15588644, -164442.27, -18813.006, 0.0, 10.000382, 9.998904 
7.75122e+2, 2.951366e+2, -42853.96, -170544.22, -17964.373, -0.0023971938, -0.21990317, -40374.742, 7270.6074, 0.0, 10.000577, 9.998885 
7.7513736e+2, 3.0513635e+2, -6631.092, -149833.0, -541.0163, -0.043895274, -0.11998454, -6629.048, -6629.048, 0.0, 10.000586, 9.998689 
7.751534e+2, 3.1513438e+2, 44298.38, -5417.7437, 16053.534, -0.037238024, -0.19247882, 49031.52, 49031.52, 0.0000000029769756, 10.000419, 9.999761 
7.848622e+2, 1.2513183e+2, -1896573.0, -1801233.0, -111934.34, -0.051480833, -0.13751161, -1727240.6, -13545.035, 0.0000000009851104, 9.998763, 9.999997 
7.848805e+2, 1.3513274e+2, -1664202.5, -1585810.4, 47116.316, 0.09245319, -0.09208143, -1563718.0, 51968.082, 0.0, 9.999432, 10.000494 
7.8489506e+2, 1.4513221e+2, -1569546.8, -1549030.8, 2841.2417, -0.088891484, -0.16549143, -1548644.6, -30953.97, 0.0, 9.999677, 9.999948 
7.849115e+2, 1.5513225e+2, -1487895.4, -1462685.8, -9027.07, -0.013190331, -0.15560529, -1459786.6, -40096.9, 0.0, 9.999582, 9.999912 
7.849273e+2, 1.6513206e+2, -1410246.1, -1436963.3, -24521.674, 0.022813613, -0.135469, -1395680.4, -73988.69, 0.0, 9.999712, 9.999353 
7.8494257e+2, 1.7513166e+2, -1262008.0, -1313716.1, -20681.842, 0.019299727, -0.11140221, -1254753.6, -31057.078, 0.0, 10.0000515, 9.999363 
7.849577e+2, 1.8513091e+2, -1147368.9, -1211145.5, -22303.307, 0.012452144, -0.1212238, -1140343.1, -14639.237, 0.0, 10.00018, 9.999332 
7.849728e+2, 1.951298e+2, -1058840.0, -1117019.3, -19031.932, 0.0026911874, -0.16755737, -1053167.4, -25453.37, 0.0, 10.000113, 9.999338 
7.849876e+2, 2.0512909e+2, -958510.94, -1022089.6, -41994.03, 0.0017754056, -0.16767225, -937630.9, -7910.21, 0.0, 10.000146, 9.999302 
7.850023e+2, 2.151288e+2, -841290.9, -914359.0, -49494.56, 0.010122889, -0.12797026, -816307.06, 15417.398, 0.0, 10.000276, 9.999306 
7.850171e+2, 2.2512811e+2, -733097.6, -821801.5, -36894.727, 0.0040937155, -0.12078081, -719758.0, 13973.365, 0.0, 10.000391, 9.999212 
7.850318e+2, 2.3512706e+2, -618766.9, -714887.9, -26422.166, -0.01634612, -0.14891852, -611982.7, 23758.74, 0.0, 10.000499, 9.999222 
7.850468e+2, 2.451262e+2, -523772.72, -625066.8, -18746.748, -0.0125772655, -0.1515895, -520414.56, 17335.24, 0.0, 10.000507, 9.999161 
7.850622e+2, 2.5512555e+2, -437603.63, -531744.9, -28108.42, 0.013231164, -0.13421406, -429849.75, 9906.947, 0.0, 10.000422, 9.99917 
7.850771e+2, 2.651248e+2, -342017.06, -445371.0, -39221.234, 0.0045916727, -0.1239499, -328818.66, 12945.361, 0.0, 10.00045, 9.999077 
7.850915e+2, 2.7512383e+2, -223043.89, -336469.38, -32013.65, -0.03495869, -0.1260989, -214632.06, 29139.904, 0.0, 10.000591, 9.9990835 
7.851067e+2, 2.8512242e+2, -144411.98, -275047.03, -4678.683, -0.030224236, -0.16180214, -144244.63, 1540.103, 0.0, 10.000574, 9.998841 
7.851227e+2, 2.951206e+2, -72186.875, -192056.39, -11068.39, 0.014558729, -0.22972448, -71173.42, -23371.598, 0.0, 10.000407, 9.998818 
7.85138e+2, 3.0512023e+2, -35762.953, -172591.92, -1663.5352, -0.027932579, -0.13472162, -35742.73, -35742.73, 0.0, 10.000423, 9.9986105 
7.851539e+2, 3.1511822e+2, 85525.89, 34522.074, 4529.3047, -0.03763516, -0.20097278, 85924.984, 85924.984, 0.0, 10.000616, 9.99994 
7.9486156e+2, 1.2511589e+2, -1883435.8, -1772973.4, -87835.29, 0.0058256504, -0.13750552, -1724447.5, -10595.874, 0.0000000034592607, 9.998757, 10.000195 
7.9487944e+2, 1.3511677e+2, -1646218.6, -1549118.8, 71552.26, 0.04462248, -0.12095053, -1511200.0, 104641.01, 0.0, 9.999434, 10.000745 
7.948944e+2, 1.4511631e+2, -1583344.9, -1578548.6, -1973.0028, -0.12367639, -0.18802132, -1577841.3, -59996.51, 0.0, 9.9996805, 9.999743 
7.949113e+2, 1.551164e+2, -1502040.1, -1491277.3, -12599.666, 0.011722866, -0.15328813, -1482957.9, -63113.293, 0.0, 9.999579, 9.999718 
7.9492724e+2, 1.6511612e+2, -1403857.6, -1423255.1, -11821.366, 0.048744936, -0.1392177, -1398265.5, -76417.54, 0.0, 9.999709, 9.99945 
7.949423e+2, 1.7511547e+2, -1255471.1, -1300630.5, -7919.4287, -0.0064733145, -0.1496507, -1254122.6, -30267.725, 0.0, 10.000052, 9.999453 
7.9495764e+2, 1.851149e+2, -1141660.3, -1199557.6, -25272.92, -0.0115364585, -0.1482567, -1132180.5, -6320.27, 0.0, 10.000181, 9.999412 
7.9497313e+2, 1.951144e+2, -1053744.6, -1106085.8, -21708.67, 0.030891348, -0.13912816, -1045912.8, -18048.727, 0.0, 10.000111, 9.999414 
7.9498804e+2, 2.0511368e+2, -973389.4, -1052847.0, -37583.57, 0.02875495, -0.13553981, -958429.0, -28557.236, 0.0, 10.000145, 9.999091 
7.950024e+2, 2.1511272e+2, -855632.56, -944282.06, -44912.26, -0.015395054, -0.1417414, -836855.9, -4972.515, 0.0, 10.000277, 9.999101 
7.950172e+2, 2.251121e+2, -713237.7, -780857.06, -33171.914, -0.019926114, -0.13285002, -699682.06, 34207.7, 0.0, 10.000392, 9.999494 
7.9503256e+2, 2.3511177e+2, -599668.0, -674998.56, -22543.703, 0.012971619, -0.11469889, -593436.9, 42454.492, 0.0, 10.000497, 9.999496 
7.950476e+2, 2.4511096e+2, -540129.25, -658797.7, -22151.037, 0.0154079385, -0.1156295, -536129.3, 1770.0286, 0.0, 10.000505, 9.99893 
7.9506236e+2, 2.5510967e+2, -453582.25, -564918.75, -30979.494, -0.011902224, -0.13777414, -445542.7, -5629.474, 0.0, 10.000421, 9.998943 
7.950772e+2, 2.6510873e+2, -328337.47, -416942.7, -33917.61, -0.02268592, -0.14268959, -316844.7, 25077.332, 0.0, 10.000449, 9.999273 
7.950922e+2, 2.7510807e+2, -209676.19, -308557.0, -26730.945, -0.016724138, -0.13714701, -202912.53, 41013.645, 0.0, 10.000589, 9.999277 
7.951075e+2, 2.8510678e+2, -156568.56, -299994.13, -10908.538, -0.0064794393, -0.16156371, -155743.64, -9806.191, 0.0, 10.000573, 9.998671 
7.95123e+2, 2.9510492e+2, -84112.0, -217533.67, -16679.266, 0.0061101015, -0.2168809, -82058.5, -34102.953, 0.0, 10.000411, 9.998642 
7.9513836e+2, 3.051043e+2, -47665.61, -198365.97, 5952.879, -0.03545649, -0.13071708, -47430.83, -47430.83, 0.0, 10.000427, 9.998432 
7.9515475e+2, 3.1510213e+2, 90889.94, 45702.9, 10416.185, -0.0142248785, -0.1910539, 93175.41, 93175.41, 0.0, 10.000615, 10.000018 
8.048604e+2, 1.2509957e+2, -1870490.5, -1761517.5, -88606.43, 0.015543567, -0.1463011, -1711985.4, 2025.9058, 0.0000000057252847, 9.998822, 10.000244 
8.048788e+2, 1.3510051e+2, -1680381.0, -1555203.5, 56641.71, 0.050671555, -0.13245833, -1533378.8, 82621.07, 0.0, 9.999156, 10.000838 
8.048941e+2, 1.451002e+2, -1629814.5, -1605260.5, -33532.42, -0.10352548, -0.18824443, -1581828.3, -63825.887, 0.0, 9.999382, 9.999703 
8.049108e+2, 1.5510029e+2, -1506564.1, -1498164.0, -31769.08, -0.001543222, -0.14880037, -1470318.5, -50315.77, 0.0, 9.999568, 9.999676 
8.0492675e+2, 1.6510001e+2, -1395137.8, -1406518.8, -17376.559, 0.029896539, -0.13761713, -1382543.6, -60537.637, 0.0, 9.999715, 9.999561 
8.0494225e+2, 1.7509936e+2, -1279712.4, -1299628.9, -12327.757, -0.0039158966, -0.15741612, -1273823.3, -49811.043, 0.0, 9.999833, 9.999565 
8.0495775e+2, 1.8509886e+2, -1175476.9, -1212545.8, -38941.035, -0.0028375885, -0.15679176, -1150884.4, -24867.592, 0.0, 9.999935, 9.99944 
8.049732e+2, 1.9509847e+2, -1065560.1, -1109019.9, -39133.246, 0.031037236, -0.14040552, -1042528.44, -14508.494, 0.0, 10.000018, 9.999438 
8.049881e+2, 2.0509781e+2, -974727.25, -1051136.9, -43122.254, 0.024226604, -0.13309747, -955320.1, -25292.807, 0.0, 10.000127, 9.999111 
8.0500257e+2, 2.1509686e+2, -855827.06, -942013.06, -33597.14, -0.021489862, -0.13915227, -844277.8, -12238.89, 0.0, 10.000265, 9.999121 
8.0501753e+2, 2.250963e+2, -719156.06, -779716.6, -25984.379, -0.023607835, -0.12683585, -709535.44, 24509.53, 0.0, 10.000335, 9.999529 
8.05033e+2, 2.350961e+2, -620675.0, -681234.9, -33957.96, 0.015992165, -0.10166063, -605457.5, 30588.28, 0.0, 10.000337, 9.999531 
8.050481e+2, 2.4509531e+2, -550493.75, -661343.5, -33438.24, 0.01933725, -0.102165796, -541188.2, -3134.827, 0.0, 10.000425, 9.998951 
8.050629e+2, 2.55094e+2, -426469.47, -549619.9, -24108.734, -0.012244504, -0.1305143, -421918.0, 18149.504, 0.0, 10.000599, 9.998962 
8.0507773e+2, 2.6509303e+2, -306378.25, -410063.94, -27904.055, -0.022904819, -0.13720249, -299345.66, 42731.0, 0.0, 10.000617, 9.999239 
8.0509275e+2, 2.7509233e+2, -226156.31, -320293.3, -37987.887, -0.0134015335, -0.12868929, -212739.08, 31342.238, 0.0, 10.000493, 9.999243 
8.0510813e+2, 2.850911e+2, -148109.34, -293166.2, -19808.623, -0.001703445, -0.14850266, -145452.97, 639.0401, 0.0, 10.000619, 9.998695 
8.0512375e+2, 2.950893e+2, -507.78366, -174875.53, -11939.476, 0.0114540225, -0.19827639, 305.95013, 48414.523, 0.0, 10.000976, 9.998663 
8.051391e+2, 3.0508834e+2, 8772.344, -193512.64, 8326.642, -0.027560724, -0.13447966, 9114.514, 9114.514, 0.0, 10.000912, 9.998232 
8.051554e+2, 3.1508616e+2, 65747.26, 33770.027, 8601.497, -0.0029940682, -0.18344758, 67914.125, 67914.125, 0.0, 10.000442, 10.000019 
8.148588e+2, 1.250829e+2, -1877283.9, -1775531.8, -75182.05, -0.031113153, -0.16267484, -1735629.4, -21455.207, 0.000000004999778, 9.998821, 10.000148 
8.148785e+2, 1.35084e+2, -1686169.6, -1565396.4, 68002.96, 0.11105391, -0.12620248, -1534838.3, 81323.945, 0.0, 9.999149, 10.000771 
8.1489426e+2, 1.4508389e+2, -1621341.3, -1587609.0, -27150.291, -0.027316527, -0.16498226, -1572512.6, -54349.453, 0.0, 9.99938, 9.999826 
8.149098e+2, 1.5508394e+2, -1497890.5, -1481002.6, -24552.871, -0.054123912, -0.14086056, -1463482.3, -43318.496, 0.0, 9.999571, 9.999793 
8.149258e+2, 1.6508377e+2, -1386098.9, -1387997.4, -13391.334, -0.035987847, -0.13019198, -1373623.3, -51457.645, 0.0, 9.999716, 9.999688 
8.1494236e+2, 1.7508341e+2, -1271278.1, -1281164.8, -7933.3086, 0.026387183, -0.13514616, -1266874.0, -42705.71, 0.0, 9.999829, 9.999694 
8.149581e+2, 1.8508284e+2, -1177287.4, -1215737.0, -35991.977, 0.038390074, -0.14673787, -1155707.6, -29534.162, 0.0, 9.999932, 9.99942 
8.149729e+2, 1.9508204e+2, -1066786.0, -1111952.9, -36172.72, 0.0024285677, -0.1704055, -1046725.75, -18544.59, 0.0, 10.000019, 9.999418 
8.1498784e+2, 2.0508151e+2, -957536.75, -1015745.94, -38321.633, -0.0129736625, -0.16017574, -938520.4, -8333.324, 0.0, 10.000128, 9.999354 
8.150029e+2, 2.1508127e+2, -839203.7, -907189.0, -28709.824, -0.008817449, -0.12085989, -828701.94, 3489.1719, 0.0, 10.000264, 9.999361 
8.15018e+2, 2.2508076e+2, -733731.1, -809984.0, -26361.592, -0.0071392446, -0.10284309, -725505.0, 8691.79, 0.0, 10.000334, 9.999321 
8.150331e+2, 2.3508003e+2, -634836.6, -710858.9, -33903.75, -0.007486078, -0.10895317, -621913.4, 14290.845, 0.0, 10.000338, 9.999328 
8.150483e+2, 2.4507926e+2, -532156.5, -623414.3, -27051.053, -0.0016342293, -0.110747874, -524740.56, 13471.196, 0.0, 10.000424, 9.999212 
8.1506366e+2, 2.5507846e+2, -408870.9, -512590.9, -17724.496, 0.010361739, -0.11372931, -405925.63, 34293.93, 0.0, 10.000595, 9.999218 
8.150786e+2, 2.6507762e+2, -325139.25, -448378.8, -32736.852, 0.0027013565, -0.108220436, -316982.97, 25244.98, 0.0, 10.000614, 9.998978 
8.1509316e+2, 2.750767e+2, -244401.06, -357961.97, -42036.125, -0.02489589, -0.09951935, -230534.11, 13703.04, 0.0, 10.000491, 9.998984 
8.151086e+2, 2.8507537e+2, -133638.53, -262801.3, -6228.219, -0.016620604, -0.12195921, -133338.9, 12909.344, 0.0, 10.000617, 9.998905 
8.151248e+2, 2.9507375e+2, 13503.856, -145136.86, 1615.9342, 0.026441565, -0.17693481, 13520.314, 61781.543, 0.0, 10.000972, 9.99887 
8.151402e+2, 3.0507246e+2, -7444.522, -226399.4, -8828.729, -0.0073268106, -0.14768854, -7089.1055, -7089.1055, 0.0, 10.000909, 9.998007 
8.1515574e+2, 3.1507012e+2, 61915.76, 24201.254, -10425.53, -0.0049186805, -0.1848288, 64605.844, 64605.844, 0.0000000016901937, 10.000449, 9.999949 
8.2485795e+2, 1.2506643e+2, -1810222.0, -1756362.4, -71698.484, -0.019749077, -0.15303992, -1706703.1, 7632.651, 0.0000000017683296, 9.999338, 10.00003 
8.248776e+2, 1.3506737e+2, -1688735.4, -1578392.4, 65134.11, 0.10312237, -0.122276336, -1548203.8, 68122.055, 0.0, 9.999183, 10.000664 
8.248936e+2, 1.4506732e+2, -1632509.0, -1581796.8, -25006.137, -0.019659117, -0.15465313, -1571540.5, -53214.152, 0.0, 9.999255, 9.999926 
8.249094e+2, 1.5506744e+2, -1483335.4, -1462294.6, -23662.922, -0.04990854, -0.13423763, -1446918.8, -26592.809, 0.0, 9.999621, 9.999896 
8.2492554e+2, 1.6506732e+2, -1377143.1, -1374678.6, -25018.219, -0.034265902, -0.1275102, -1350862.3, -28535.438, 0.0, 9.999741, 9.999766 
8.249421e+2, 1.7506704e+2, -1296878.9, -1285405.8, -23514.846, 0.027461227, -0.13448118, -1266937.9, -42609.105, 0.0, 9.999619, 9.999766 
8.249579e+2, 1.850665e+2, -1209226.0, -1224882.3, -43818.688, 0.038263883, -0.14666425, -1172541.6, -46208.367, 0.0, 9.999686, 9.9994755 
8.2497287e+2, 1.9506575e+2, -1073057.3, -1108481.5, -38453.215, -0.00026155956, -0.17068267, -1048432.94, -20092.012, 0.0, 9.9999485, 9.9994755 
8.249879e+2, 2.050653e+2, -960126.0, -1003139.4, -47250.883, -0.014096602, -0.16290087, -929717.56, 628.4614, 0.0, 10.000051, 9.999477 
8.250031e+2, 2.1506512e+2, -870559.94, -908633.5, -46575.758, -0.0041109873, -0.12777759, -839280.7, -6932.124, 0.0, 9.99999, 9.999482 
8.250182e+2, 2.2506471e+2, -769559.5, -827539.3, -37562.9, -0.0059775882, -0.10882847, -751100.6, -16746.887, 0.0, 10.000091, 9.999318 
8.250333e+2, 2.3506403e+2, -633864.8, -710757.06, -30387.523, -0.01908022, -0.10874338, -623305.75, 13055.6455, 0.0, 10.000346, 9.999324 
8.250486e+2, 2.4506333e+2, -526644.2, -609943.25, -26077.428, -0.008479813, -0.107679784, -519154.0, 19214.41, 0.0, 10.000417, 9.999309 
8.2506424e+2, 2.550626e+2, -443097.47, -518179.9, -29192.3, 0.024890589, -0.11170096, -433083.1, 7291.854, 0.0, 10.000314, 9.999314 
8.2507926e+2, 2.650618e+2, -358112.63, -471031.3, -40777.86, 0.01936443, -0.10466422, -344926.5, -2543.2905, 0.0, 10.000417, 9.998917 
8.2509375e+2, 2.7506086e+2, -216954.52, -351430.94, -35743.625, -0.023820229, -0.09108895, -208044.3, 36349.01, 0.0, 10.00071, 9.998924 
8.251092e+2, 2.8505963e+2, -102751.0, -228116.38, 5659.9014, -0.020936623, -0.11179594, -102495.99, 43907.465, 0.0, 10.000745, 9.999082 
8.2512563e+2, 2.9505816e+2, -37378.83, -149746.16, 10513.358, 0.026193868, -0.16879143, -36403.637, 12010.134, 0.0, 10.000537, 9.999046 
8.251411e+2, 3.0505657e+2, -50841.59, -265418.72, -879.82733, -0.0018223888, -0.16949053, -50837.98, -50837.98, 0.0, 10.000689, 9.997845 
8.251567e+2, 3.150544e+2, 159691.56, 63085.438, -735.60547, 0.007345668, -0.17415749, 159697.17, 159697.17, 0.000000023716037, 10.001157, 9.999876 
8.34858e+2, 1.2505025e+2, -1819353.9, -1777510.9, -75486.555, 0.04675181, -0.11489309, -1720100.3, -5605.032, 0.000000000051048894, 9.999345, 9.999882 
8.34876e+2, 1.3505068e+2, -1699003.4, -1600728.8, 58736.484, 0.022943761, -0.11951402, -1573286.4, 43204.21, 0.0, 9.9991865, 10.000509 
8.348922e+2, 1.4505056e+2, -1626711.9, -1570322.8, -12161.741, -0.08470779, -0.15734003, -1567811.6, -49319.85, 0.0, 9.999257, 10.000004 
8.349096e+2, 1.5505081e+2, -1477769.0, -1450131.1, -9846.893, 0.012076622, -0.13000205, -1446981.8, -26492.615, 0.0, 9.999619, 9.999982 
8.3492595e+2, 1.6505069e+2, -1375041.1, -1370367.8, -29606.305, 0.0367344, -0.12967744, -1343006.1, -20516.41, 0.0, 9.99974, 9.999797 
8.3494145e+2, 1.7505023e+2, -1295005.4, -1282015.0, -27931.482, -0.0018655318, -0.15478769, -1259833.4, -35340.23, 0.0, 9.9996195, 9.999789 
8.3495706e+2, 1.8504989e+2, -1200374.8, -1206415.5, -34229.613, -0.005523967, -0.15642048, -1169032.5, -42536.246, 0.0, 9.999686, 9.999602 
8.3497304e+2, 1.9504966e+2, -1064369.9, -1089897.3, -28793.15, 0.022605307, -0.14151491, -1045638.2, -17139.19, 0.0, 9.999946, 9.999604 
8.3498836e+2, 2.0504919e+2, -959658.75, -1002231.25, -49958.246, 0.020921888, -0.1410772, -926640.94, 3862.9768, 0.0, 10.000051, 9.999484 
8.350031e+2, 2.150485e+2, -869862.3, -907699.7, -49271.82, -0.008080754, -0.15906528, -836001.94, -3490.8962, 0.0, 9.999991, 9.999488 
8.350181e+2, 2.2504814e+2, -755852.44, -799447.1, -28358.426, -0.02104718, -0.14444207, -741882.1, -7366.673, 0.0, 10.000091, 9.999511 
8.3503366e+2, 2.3504809e+2, -620622.1, -683018.7, -21070.203, -0.019336669, -0.10133514, -614173.5, 22343.727, 0.0, 10.000344, 9.999516 
8.3504915e+2, 2.4504752e+2, -531602.3, -620061.4, -30305.006, -0.0016369026, -0.09280691, -522216.13, 16307.067, 0.0, 10.000415, 9.99924 
8.350646e+2, 2.550465e+2, -447796.88, -527911.44, -32763.848, 0.030820433, -0.12369553, -436104.25, 4429.18, 0.0, 10.000314, 9.9992485 
8.350798e+2, 2.6504558e+2, -349046.53, -452164.44, -29796.613, 0.026181899, -0.12582912, -341055.8, 1486.4258, 0.0, 10.000416, 9.999047 
8.350946e+2, 2.7504486e+2, -208258.84, -333091.75, -24883.908, -0.013087297, -0.10411959, -203481.38, 41068.504, 0.0, 10.000708, 9.999051 
8.3511e+2, 2.8504387e+2, -93429.52, -208414.48, -2209.4524, -0.016658103, -0.11799245, -93387.086, 53170.664, 0.0, 10.000743, 9.999218 
8.35126e+2, 2.9504254e+2, -27686.64, -129670.31, 3086.5737, 0.011778403, -0.17160225, -27593.31, 20972.793, 0.0, 10.000537, 9.999185 
8.351416e+2, 3.0504072e+2, -58122.223, -280190.47, 16786.268, -0.010475362, -0.19834632, -56860.508, -56860.508, 0.0, 10.000687, 9.997745 
8.35158e+2, 3.1503883e+2, 154387.27, 52859.12, 15695.923, 0.026428167, -0.16458489, 156758.42, 156758.42, 0.00000010288848, 10.001153, 9.999807 
8.4485734e+2, 1.2503357e+2, -1858107.3, -1803602.0, -74465.516, 0.06476641, -0.109918736, -1751558.9, -36900.242, 0.0, 9.999112, 9.999814 
8.448751e+2, 1.3503398e+2, -1637931.8, -1579727.0, 60413.65, -0.0004849116, -0.11122244, -1541771.5, 74883.41, 0.0, 9.999644, 10.000431 
8.448916e+2, 1.4503387e+2, -1560220.6, -1536086.9, -16299.835, -0.09287052, -0.14377782, -1527873.4, -9217.469, 0.0, 9.999705, 10.000022 
8.449093e+2, 1.5503404e+2, -1514500.9, -1465477.6, -18151.932, 0.031843733, -0.12681583, -1459488.3, -38834.543, 0.0, 9.999356, 10.000002 
8.449257e+2, 1.650339e+2, -1426590.8, -1387859.3, -34896.863, 0.059531864, -0.13208574, -1367314.8, -44660.598, 0.0, 9.999353, 9.999864 
8.449411e+2, 1.7503351e+2, -1279545.8, -1266669.4, -30496.09, -0.00004781391, -0.15911454, -1241939.3, -17282.098, 0.0, 9.999692, 9.999859 
8.449568e+2, 1.8503326e+2, -1184075.3, -1192855.9, -40089.793, -0.008485118, -0.15696599, -1148136.1, -21476.725, 0.0, 9.999773, 9.999654 
8.4497285e+2, 1.9503318e+2, -1112132.5, -1106982.1, -40141.207, 0.030131679, -0.1318526, -1069333.6, -40672.695, 0.0, 9.999592, 9.999658 
8.449882e+2, 2.050328e+2, -1009037.0, -1010288.25, -56121.246, 0.028423795, -0.13359503, -953537.9, -22872.953, 0.0, 9.999643, 9.999624 
8.4500295e+2, 2.1503209e+2, -869599.0, -892004.8, -45586.69, -0.010678055, -0.16636804, -833858.8, -1187.2971, 0.0, 9.999927, 9.999627 
8.450182e+2, 2.2503175e+2, -758473.25, -798766.75, -25843.754, -0.022160158, -0.15719855, -745851.25, -11175.649, 0.0, 10.000065, 9.999528 
8.4503394e+2, 2.3503174e+2, -660190.25, -700109.2, -32136.248, -0.008002534, -0.110882, -642319.6, -5642.325, 0.0, 10.000065, 9.999532 
8.450495e+2, 2.4503134e+2, -557857.6, -624560.94, -44372.395, 0.00791756, -0.092786364, -535700.3, 2981.8494, 0.0, 10.000201, 9.999312 
8.4506494e+2, 2.550305e+2, -420288.5, -506813.8, -36865.246, 0.025244825, -0.1071401, -406711.88, 33978.5, 0.0, 10.000469, 9.999318 
8.450802e+2, 2.6502964e+2, -319240.25, -427268.7, -28823.291, 0.022438828, -0.11612589, -312030.97, 30667.889, 0.0, 10.000576, 9.99914 
8.4509534e+2, 2.750287e+2, -227714.13, -332158.6, -27157.078, 0.0012468915, -0.12411192, -221074.92, 23632.955, 0.0, 10.00053, 9.999142 
8.451108e+2, 2.8502777e+2, -112698.03, -220161.66, -16115.425, -0.0055521494, -0.13260777, -110333.37, 36381.484, 0.0, 10.000622, 9.999195 
8.451265e+2, 2.9502684e+2, 13089.903, -112465.24, -22780.164, -0.0000045101096, -0.14744179, 17095.26, 65815.51, 0.0, 10.000829, 9.999162 
8.451424e+2, 3.0502474e+2, -9447.123, -242495.05, 3281.371, -0.015321923, -0.20379488, -9400.93, -9400.93, 0.00000000024035085, 10.00096, 9.997871 
8.4515935e+2, 3.1502295e+2, 139825.6, 55755.207, 15724.194, 0.05301227, -0.1741859, 142670.31, 142670.31, 0.00000026211356, 10.00101, 9.999896 
8.548561e+2, 1.2501645e+2, -1857461.9, -1802590.1, -50193.883, 0.023285601, -0.13960315, -1772823.3, -57997.37, 0.0, 9.999111, 9.999823 
8.5487515e+2, 1.3501728e+2, -1638455.4, -1581335.4, 80099.125, 0.03541401, -0.09767737, -1524856.9, 91961.77, 0.0, 9.999646, 10.00042 
8.5489184e+2, 1.450173e+2, -1562178.6, -1541617.8, -30260.428, -0.04140044, -0.113201484, -1519939.1, -1120.5519, 0.0, 9.99971, 9.999982 
8.549084e+2, 1.5501717e+2, -1517078.9, -1471772.0, -31174.291, 0.0063963747, -0.12364472, -1455889.6, -35070.01, 0.0, 9.999359, 9.999958 
8.549248e+2, 1.6501701e+2, -1419274.0, -1372815.6, -22137.523, 0.030249024, -0.13447176, -1363956.5, -41136.195, 0.0, 9.999353, 9.999967 
8.549411e+2, 1.7501685e+2, -1271935.4, -1250882.4, -17650.166, 0.03315229, -0.14726347, -1240858.1, -16037.486, 0.0, 9.999691, 9.999968 
8.54957e+2, 1.8501663e+2, -1185153.0, -1195290.3, -47178.94, 0.03015114, -0.14780162, -1142771.1, -15948.605, 0.0, 9.999773, 9.999638 
8.5497236e+2, 1.9501634e+2, -1113333.8, -1109832.1, -47229.785, 0.021460846, -0.1415014, -1064320.8, -35494.336, 0.0, 9.999593, 9.999638 
8.549877e+2, 2.0501609e+2, -989822.3, -970497.25, -45964.605, 0.007177661, -0.14087196, -933190.56, -2361.7498, 0.0, 9.999643, 9.999898 
8.550029e+2, 2.1501592e+2, -850485.7, -852142.5, -35358.79, -0.012442029, -0.14980054, -815945.6, 16884.111, 0.0, 9.999925, 9.999902 
8.550184e+2, 2.2501557e+2, -769890.8, -822520.1, -26459.385, -0.0100082345, -0.14670742, -758888.44, -24054.625, 0.0, 10.000065, 9.999365 
8.550342e+2, 2.3501505e+2, -671088.1, -723146.25, -32175.229, 0.013871573, -0.136995, -655731.75, -18890.518, 0.0, 10.000066, 9.999373 
8.550498e+2, 2.4501477e+2, -543441.8, -594997.06, -34363.89, 0.01945197, -0.10761287, -526261.75, 12583.357, 0.0, 10.000201, 9.999516 
8.5506517e+2, 2.5501475e+2, -406348.3, -477727.84, -26850.93, 0.0073062456, -0.06291779, -397375.66, 43470.098, 0.0, 10.000467, 9.999519 
8.550806e+2, 2.6501393e+2, -315925.5, -420180.22, -30786.21, 0.007462673, -0.07594504, -307513.2, 35339.863, 0.0, 10.000575, 9.999189 
8.55096e+2, 2.750124e+2, -224237.08, -324744.44, -28660.5, 0.018906215, -0.15020354, -216638.73, 28228.383, 0.0, 10.000529, 9.999193 
8.551116e+2, 2.8501144e+2, -125448.586, -246424.61, -8208.975, 0.011921199, -0.15531008, -124894.09, 21980.543, 0.0, 10.00062, 9.999016 
8.551272e+2, 2.95011e+2, 739.50397, -138068.44, -14692.143, -0.013061249, -0.09861217, 2277.5532, 51153.75, 0.0, 10.000828, 9.998986 
8.551433e+2, 3.050087e+2, 13620.19, -194311.75, 5446.3696, -0.019869685, -0.18767783, 13762.75, 13762.75, 0.0000000059514194, 10.000958, 9.998203 
8.551607e+2, 3.1500667e+2, 156398.83, 90510.336, 16194.959, 0.085658446, -0.21265125, 160164.25, 160164.25, 0.0000005093443, 10.001009, 10.000135 
8.648554e+2, 1.2499936e+2, -1722517.5, -1735863.8, -59595.59, 0.0032009452, -0.15093602, -1669222.6, 45770.83, 0.00000000000000000000885557, 10.000031, 9.999836 
8.6487484e+2, 1.3500026e+2, -1687721.9, -1606659.3, 65137.965, 0.059539117, -0.09912907, -1570472.0, 46513.395, 0.0, 9.999316, 10.000403 
8.648916e+2, 1.4500041e+2, -1633078.6, -1568560.4, -35292.1, -0.006716244, -0.1050449, -1553005.5, -34021.285, 0.0, 9.999193, 10.000047 
8.6490774e+2, 1.5500025e+2, -1463463.4, -1438368.1, -28147.021, -0.013391042, -0.12425139, -1420098.6, 886.6905, 0.0, 9.999695, 10.000026 
8.649241e+2, 1.6500014e+2, -1352812.1, -1339074.3, -19598.791, 0.0033237624, -0.13585007, -1325175.5, -2189.7715, 0.0, 9.999802, 9.999983 
8.649408e+2, 1.7500007e+2, -1296034.1, -1260289.5, -21526.445, 0.04505555, -0.13916722, -1250183.1, -25197.883, 0.0, 9.9995165, 9.999988 
8.6495674e+2, 1.8499993e+2, -1215405.3, -1194121.1, -48139.234, 0.048137408, -0.14158499, -1155461.6, -28475.1, 0.0, 9.999497, 9.999779 
8.6497194e+2, 1.9499964e+2, -1082317.3, -1079259.1, -36411.12, 0.01349847, -0.14936079, -1044345.0, -15355.021, 0.0, 9.999739, 9.999778 
8.6498725e+2, 2.0499949e+2, -964877.4, -960277.44, -36979.21, -0.0040197913, -0.14503977, -925526.75, 5464.7246, 0.0, 9.999822, 9.999883 
8.6500275e+2, 2.1499951e+2, -877778.6, -866907.7, -48393.098, -0.005180644, -0.13196549, -823645.75, 9345.331, 0.0, 9.999744, 9.999887 
8.650184e+2, 2.2499922e+2, -794113.2, -819791.25, -38435.832, 0.001423343, -0.12912074, -766428.75, -31434.143, 0.0, 9.999836, 9.999494 
8.650343e+2, 2.349986e+2, -657964.3, -702417.1, -23104.13, 0.016035737, -0.14226238, -648131.2, -11129.096, 0.0, 10.000094, 9.999502 
8.650501e+2, 2.4499832e+2, -536723.4, -593553.75, -21457.725, 0.021735836, -0.11842586, -529531.56, 9474.307, 0.0, 10.000256, 9.999499 
8.650657e+2, 2.549984e+2, -428481.53, -490379.88, -30577.102, 0.018702736, -0.061932936, -415924.25, 25081.86, 0.0, 10.000325, 9.999501 
8.650812e+2, 2.649977e+2, -334321.9, -421047.1, -46881.957, 0.014153964, -0.06906499, -313823.47, 29189.21, 0.0, 10.000415, 9.99926 
8.6509645e+2, 2.7499622e+2, -220658.0, -315384.25, -43695.836, 0.0075575477, -0.14353317, -203580.52, 41445.152, 0.0, 10.000521, 9.999262 
8.651121e+2, 2.849952e+2, -121470.81, -252054.17, -11776.76, 0.0048963875, -0.1513808, -120417.22, 26616.168, 0.0, 10.00068, 9.998948 
8.651282e+2, 2.9499468e+2, 5390.419, -142872.66, -10904.536, 0.0062588016, -0.100136995, 6188.1396, 55224.523, 0.0, 10.000891, 9.998923 
8.651445e+2, 3.0499214e+2, 29440.285, -182833.97, -2306.765, 0.0008012633, -0.2101134, 29465.35, 29465.35, 0.000000027135602, 10.001051, 9.998237 
8.6516166e+2, 3.1499052e+2, 166196.61, 82424.7, -14852.275, 0.076917455, -0.19863962, 168751.89, 168751.89, 0.00000083365, 10.001131, 10.00002 
8.748554e+2, 1.2498233e+2, -1719211.3, -1732272.6, -83761.484, 0.00044139367, -0.14226605, -1641726.3, 73434.57, 0.0000000055054987, 10.000044, 9.999855 
8.7487423e+2, 1.3498297e+2, -1689401.6, -1609934.1, 36828.555, 0.06834392, -0.11579027, -1595491.1, 21663.791, 0.0, 9.999315, 10.000381 
8.748909e+2, 1.449832e+2, -1621741.6, -1544585.0, -16380.913, 0.007274834, -0.12018459, -1541251.3, -22098.693, 0.0, 9.99919, 10.000213 
8.7490726e+2, 1.5498333e+2, -1450805.3, -1412968.9, -8822.219, -0.027238574, -0.12851955, -1411012.9, 10137.672, 0.0, 9.999698, 10.000198 
8.7492365e+2, 1.649833e+2, -1356577.9, -1348377.3, -31016.563, -0.020546025, -0.13514644, -1321191.1, 1959.2083, 0.0, 9.999806, 9.999917 
8.7494016e+2, 1.7498322e+2, -1300467.4, -1270179.0, -32572.977, 0.033952944, -0.13501082, -1249401.9, -24250.756, 0.0, 9.999518, 9.99992 
8.749562e+2, 1.8498316e+2, -1194516.8, -1150633.0, -39236.234, 0.043440405, -0.13875787, -1127620.1, -468.96548, 0.0, 9.9994955, 10.000078 
8.7497157e+2, 1.949831e+2, -1061052.8, -1035332.0, -27540.871, 0.005582898, -0.15502661, -1017796.8, 11354.364, 0.0, 9.999739, 10.00008 
8.7498707e+2, 2.04983e+2, -986169.1, -1004778.4, -40413.516, -0.00578609, -0.14558068, -954002.94, -22850.328, 0.0, 9.999823, 9.999577 
8.750026e+2, 2.1498291e+2, -899011.2, -911318.6, -51737.51, 0.010131728, -0.112909414, -853062.75, -19907.33, 0.0, 9.999745, 9.999582 
8.7501836e+2, 2.2498272e+2, -765047.7, -759903.1, -29228.3, 0.011586358, -0.10486282, -733134.1, 2023.6244, 0.0, 9.999837, 9.999905 
8.7503415e+2, 2.349824e+2, -629184.3, -642719.3, -13649.148, -0.0013689834, -0.12687282, -620717.06, 16442.748, 0.0, 10.000093, 9.999913 
8.7505025e+2, 2.44982e+2, -553299.44, -627778.75, -19198.729, 0.014160223, -0.1247248, -548641.8, -9477.6, 0.0, 10.000254, 9.999265 
8.750664e+2, 2.5498152e+2, -444740.25, -524279.53, -27854.305, 0.057691555, -0.102836475, -435955.94, 5215.1978, 0.0, 10.000325, 9.999269 
8.7508184e+2, 2.6498085e+2, -328176.8, -408794.84, -42634.848, 0.04160393, -0.094953015, -309812.6, 33364.89, 0.0, 10.000416, 9.999345 
8.750965e+2, 2.749801e+2, -214824.75, -303254.78, -39363.805, -0.033588238, -0.10569524, -199841.16, 45342.355, 0.0, 10.00052, 9.999346 
8.751125e+2, 2.849791e+2, -119857.1, -247971.69, -3995.4307, -0.027961282, -0.12145327, -119732.625, 27458.42, 0.0, 10.000677, 9.998978 
8.7512964e+2, 2.949778e+2, 7704.6743, -137445.53, -2699.9253, 0.056888293, -0.14930488, 7754.878, 56955.45, 0.0, 10.000888, 9.998961 
8.75146e+2, 3.0497506e+2, 11897.664, -218618.56, 1448.3129, 0.046618283, -0.269575, 11906.764, 11906.764, 0.00000006425192, 10.001047, 9.997993 
8.751623e+2, 3.149743e+2, 135906.31, 20385.525, -11314.217, 0.024127513, -0.1473791, 137004.02, 137004.02, 0.0000011924308, 10.001127, 9.999596 
8.8485545e+2, 1.2496557e+2, -1766466.8, -1757018.5, -66690.61, 0.015705576, -0.13201793, -1694884.9, 20440.457, 0.00000006865042, 9.999729, 9.999838 
8.8487375e+2, 1.3496593e+2, -1586857.4, -1566798.6, 45877.95, 0.052039173, -0.12699738, -1529866.6, 87455.06, 0.0, 10.000048, 10.000325 
8.848903e+2, 1.4496613e+2, -1519548.4, -1494860.3, -8103.1895, -0.0027086535, -0.13251743, -1492438.1, 26881.287, 0.0, 9.999889, 10.000217 
8.849069e+2, 1.5496637e+2, -1508581.3, -1439859.1, -12691.661, -0.01334796, -0.12892416, -1437590.1, -16273.719, 0.0, 9.999297, 10.000207 
8.849232e+2, 1.6496643e+2, -1438441.9, -1376309.1, -31198.654, -0.01036163, -0.13421488, -1363347.4, -40031.79, 0.0, 9.999196, 10.000019 
8.849395e+2, 1.7496634e+2, -1285159.6, -1251923.3, -20685.889, 0.013952462, -0.14467657, -1242007.1, -16690.902, 0.0, 9.999577, 10.000017 
8.849556e+2, 1.8496636e+2, -1160429.4, -1131187.5, -29789.766, 0.022514354, -0.1474978, -1112624.0, 14691.579, 0.0, 9.999717, 10.000106 
8.849713e+2, 1.9496645e+2, -1076469.6, -1039396.0, -38986.36, 0.0113839535, -0.15021656, -1014763.94, 14550.173, 0.0, 9.999619, 10.00011 
8.8498694e+2, 2.0496638e+2, -1001472.7, -1008524.3, -48510.184, 0.0065851063, -0.14027429, -956360.4, -25045.139, 0.0, 9.999702, 9.999609 
8.8500243e+2, 2.1496621e+2, -864593.44, -891094.6, -34640.195, 0.009353413, -0.12077288, -840756.0, -7437.1, 0.0, 9.999967, 9.999615 
8.850182e+2, 2.2496602e+2, -736549.3, -748637.44, -16379.65, 0.0077684815, -0.11283274, -725134.2, 10187.07, 0.0, 10.000045, 9.999883 
8.8503426e+2, 2.3496582e+2, -653787.06, -657246.5, -33933.14, 0.0016169823, -0.12091313, -621539.56, 15782.738, 0.0, 9.999937, 9.999889 
8.8505036e+2, 2.449654e+2, -584637.56, -637713.94, -41665.9, 0.017209712, -0.12153563, -561776.1, -22449.42, 0.0, 10.000017, 9.9993105 
8.850666e+2, 2.5496474e+2, -446164.7, -519730.9, -29953.035, 0.0538242, -0.119844645, -435511.72, 5822.8604, 0.0, 10.000293, 9.999314 
8.850823e+2, 2.6496407e+2, -323865.44, -409291.94, -42081.94, 0.039869152, -0.11442026, -306617.75, 36723.234, 0.0, 10.000456, 9.999322 
8.850971e+2, 2.7496347e+2, -219294.0, -308085.2, -47137.887, -0.0239957, -0.10916672, -198936.61, 46409.555, 0.0, 10.000502, 9.999322 
8.851132e+2, 2.8496253e+2, -129866.98, -252999.0, -12296.483, -0.01987569, -0.118314974, -128651.01, 18702.387, 0.0, 10.000609, 9.998975 
8.8513035e+2, 2.9496118e+2, -8576.012, -145518.06, -13785.533, 0.050823584, -0.14902379, -7202.0503, 42161.113, 0.0, 10.000776, 9.99896 
8.851469e+2, 3.0495837e+2, 11115.835, -201848.5, 1215.2854, 0.04171661, -0.28169972, 11122.77, 11122.77, 0.00000010587227, 10.000968, 9.998147 
8.851634e+2, 3.1495792e+2, 138601.06, 16398.484, 15279.845, 0.02847949, -0.14383648, 140482.64, 140482.64, 0.0000015115112, 10.001168, 9.999549 
8.948554e+2, 1.2494913e+2, -1771353.3, -1766073.9, -49875.133, 0.040111307, -0.11908891, -1718768.6, -3282.2922, 0.00000033535434, 9.999723, 9.999779 
8.948734e+2, 1.3494922e+2, -1592665.3, -1581029.8, 58134.14, 0.010144762, -0.13181901, -1528423.0, 89061.984, 0.00000000007521531, 10.000056, 10.000223 
8.948899e+2, 1.4494924e+2, -1528795.0, -1517466.5, -31897.69, -0.036839716, -0.14054704, -1490734.0, 28750.43, 0.0, 9.999903, 10.000056 
8.949066e+2, 1.5494944e+2, -1519386.8, -1462401.6, -35684.957, 0.026887806, -0.12545063, -1445229.6, -23747.168, 0.0, 9.999297, 10.000053 
8.9492285e+2, 1.6494952e+2, -1420540.6, -1338172.6, -16670.262, 0.03262231, -0.13391142, -1334926.8, -11445.578, 0.0, 9.999191, 10.000283 
8.949388e+2, 1.7494948e+2, -1266177.8, -1212967.0, -6163.9453, -0.015619601, -0.16795674, -1212262.4, 13218.01, 0.0, 9.9995775, 10.000284 
8.949549e+2, 1.8494953e+2, -1177343.6, -1167254.1, -34022.594, -0.015996728, -0.16705625, -1137904.3, -10424.869, 0.0, 9.999721, 9.999857 
8.949711e+2, 1.9494972e+2, -1093769.3, -1075657.6, -43217.094, 0.030417629, -0.1350201, -1040557.75, -11079.331, 0.0, 9.9996195, 9.999861 
8.9498687e+2, 2.0494969e+2, -975780.0, -955228.75, -39275.06, 0.03309316, -0.12921613, -924907.3, 6571.7207, 0.0, 9.999702, 9.999975 
8.9500225e+2, 2.149494e+2, -838650.94, -837381.0, -25261.135, -0.007889338, -0.15530007, -812746.9, 20734.488, 0.0, 9.999967, 9.999984 
8.9501804e+2, 2.2494912e+2, -768185.0, -814541.3, -20914.41, -0.011128444, -0.15271145, -760143.94, -24659.186, 0.0, 10.000045, 9.999431 
8.950344e+2, 2.3494886e+2, -685512.2, -723609.75, -38077.02, 0.023652533, -0.12425796, -661984.94, -24495.625, 0.0, 9.999938, 9.999433 
8.950505e+2, 2.4494852e+2, -562398.6, -592332.0, -31424.875, 0.030231094, -0.10905649, -542558.3, -3065.1995, 0.0, 10.00002, 9.999621 
8.9506644e+2, 2.5494808e+2, -424127.34, -474012.72, -19357.945, 0.0077996734, -0.11366089, -417496.8, 23999.559, 0.0, 10.000292, 9.999629 
8.950824e+2, 2.6494735e+2, -333214.7, -428093.56, -40502.348, 0.008777871, -0.12714835, -318276.72, 25226.34, 0.0, 10.000454, 9.999194 
8.950982e+2, 2.749463e+2, -227957.52, -326388.38, -45351.703, 0.03405285, -0.15228167, -210248.1, 35265.25, 0.0, 10.000503, 9.999196 
8.9511424e+2, 2.8494546e+2, -132158.02, -258642.0, -5634.376, 0.027769752, -0.14138514, -131907.52, 15612.663, 0.0, 10.000612, 9.998936 
8.951306e+2, 2.949448e+2, -12000.281, -151644.92, -6754.9414, -0.011410531, -0.10217536, -11674.29, 37849.887, 0.0, 10.000771, 9.99892 
8.951473e+2, 3.049421e+2, 45213.723, -127685.664, 8852.851, -0.014379196, -0.24877049, 45665.83, 45665.83, 0.00000013409642, 10.000954, 9.998663 
8.9516515e+2, 3.1494132e+2, 158543.33, 60985.844, 22160.469, 0.084715664, -0.19420816, 163341.19, 163341.19, 0.0000016978646, 10.001155, 9.999861 
9.048554e+2, 1.2493259e+2, -1684304.3, -1725347.9, -54821.02, 0.03290961, -0.10911064, -1646289.9, 69358.85, 0.0000010631732, 10.000323, 9.999771 
9.048732e+2, 1.3493258e+2, -1652840.9, -1615359.1, 52125.44, 0.01203866, -0.12813643, -1578707.9, 38940.3, 0.000000007369457, 9.999666, 10.000175 
9.0488964e+2, 1.4493252e+2, -1591541.1, -1549452.6, -29585.457, -0.027134854, -0.14118369, -1534190.4, -14542.078, 0.0, 9.999481, 10.00004 
9.0490615e+2, 1.5493263e+2, -1450042.8, -1430887.8, -23187.102, 0.032876607, -0.13378286, -1415378.0, 6269.0205, 0.0, 9.999781, 10.000036 
9.0492237e+2, 1.6493271e+2, -1337549.1, -1300660.0, -2170.889, 0.038705617, -0.14026974, -1300532.6, 23113.059, 0.0, 9.999772, 10.000261 
9.049384e+2, 1.7493275e+2, -1284780.0, -1223978.1, -14018.053, -0.008156542, -0.1617634, -1220901.9, 4742.1353, 0.0, 9.99946, 10.000264 
9.049545e+2, 1.8493278e+2, -1211769.3, -1183250.4, -39819.24, -0.014925997, -0.16462395, -1155214.4, -27571.006, 0.0, 9.999483, 9.999861 
9.049707e+2, 1.9493276e+2, -1061758.5, -1059985.9, -29927.324, 0.018382942, -0.15318151, -1030931.75, -1287.7224, 0.0, 9.999839, 9.999863 
9.0498656e+2, 2.049327e+2, -936560.6, -937253.25, -31749.775, 0.021894706, -0.14797232, -905155.3, 26489.383, 0.0, 9.999976, 9.999967 
9.050022e+2, 2.1493262e+2, -850367.7, -844158.25, -46899.52, -0.00462003, -0.15402134, -800260.8, 33384.51, 0.0, 9.999892, 9.999973 
9.0501815e+2, 2.2493233e+2, -784106.1, -833814.75, -44557.18, -0.004135602, -0.14718504, -757940.06, -22290.875, 0.0, 9.999986, 9.999326 
9.050345e+2, 2.3493183e+2, -645088.44, -715818.2, -35631.293, 0.023181643, -0.13085662, -630251.1, 7405.1387, 0.0, 10.000267, 9.999328 
9.050506e+2, 2.4493143e+2, -508896.97, -556267.0, -24735.32, 0.024452524, -0.119775735, -498335.56, 41324.715, 0.0, 10.000343, 9.999713 
9.0506667e+2, 2.5493115e+2, -430363.13, -466783.34, -29465.629, -0.00056723994, -0.11998303, -413934.66, 27726.79, 0.0, 10.000206, 9.999721 
9.050827e+2, 2.6493043e+2, -362304.25, -453853.1, -52947.703, 0.0053210934, -0.13274802, -338087.56, 5580.482, 0.0, 10.000305, 9.999088 
9.050988e+2, 2.7492923e+2, -214115.27, -331822.88, -56694.207, 0.042504355, -0.16087213, -191250.02, 54430.195, 0.0, 10.00065, 9.999087 
9.05115e+2, 2.8492835e+2, -110394.7, -240386.67, -20855.703, 0.036444366, -0.15221065, -107130.61, 40557.1, 0.0, 10.000728, 9.999005 
9.0513116e+2, 2.9492775e+2, -43436.625, -158446.25, -14514.931, -0.013721947, -0.114637464, -41633.035, 8057.9976, 0.0, 10.00052, 9.998995 
9.05148e+2, 3.0492523e+2, -2314.7876, -126079.805, 4090.9294, -0.0168704, -0.25443986, -2179.7134, -2179.7134, 0.0000001316986, 10.000522, 9.998881 
9.051661e+2, 3.1492487e+2, 97465.9, 32145.6, -5355.0933, 0.08387828, -0.18051548, 97902.01, 97902.01, 0.0000016698094, 10.000732, 9.999867 
9.148552e+2, 1.2491599e+2, -1677226.3, -1715433.0, -76972.44, -0.0149795925, -0.101445206, -1617022.0, 98790.03, 0.0000026057617, 10.000342, 9.999831 
9.148733e+2, 1.3491604e+2, -1652361.9, -1613165.6, 25890.596, 0.05690097, -0.115918934, -1600292.1, 17518.799, 0.00000007607973, 9.9996605, 10.000194 
9.1488963e+2, 1.44916e+2, -1583873.0, -1531963.6, -17816.371, 0.025727838, -0.13490264, -1526437.0, -6626.6714, 0.0, 9.999474, 10.000164 
9.149056e+2, 1.5491597e+2, -1440553.4, -1412735.5, -11207.1045, 0.0031173343, -0.15377063, -1408782.3, 13027.281, 0.0, 9.999787, 10.000158 
9.149218e+2, 1.6491602e+2, -1358672.1, -1347148.5, -14770.131, 0.0059206076, -0.15196177, -1337056.1, -13247.548, 0.0, 9.999783, 9.999938 
9.149383e+2, 1.7491624e+2, -1307051.1, -1270590.0, -26361.89, 0.03630185, -0.12546596, -1256769.0, -30962.256, 0.0, 9.999461, 9.999945 
9.149544e+2, 1.8491611e+2, -1194053.5, -1145953.9, -26840.135, 0.026364641, -0.1401849, -1133965.0, -6157.7515, 0.0, 9.99948, 10.000118 
9.149701e+2, 1.949156e+2, -1043411.1, -1022155.7, -16823.0, -0.025636641, -0.20507881, -1012884.6, 16926.018, 0.0, 9.99984, 10.000122 
9.14986e+2, 2.049155e+2, -963986.2, -994628.7, -35448.44, -0.028888157, -0.19693993, -940689.7, -8877.925, 0.0, 9.999977, 9.999573 
9.1500235e+2, 2.1491587e+2, -878284.9, -902110.2, -50638.55, 0.018407755, -0.11691223, -838176.6, -4366.1523, 0.0, 9.999891, 9.999576 
9.1501844e+2, 2.2491564e+2, -767609.94, -799551.56, -34609.02, 0.028658899, -0.09599459, -745464.5, -9650.348, 0.0, 9.999986, 9.999561 
9.150345e+2, 2.3491476e+2, -628145.6, -680791.75, -25150.059, 0.00047702366, -0.14058115, -618062.2, 19760.664, 0.0, 10.000267, 9.999569 
9.1505075e+2, 2.449142e+2, -517513.88, -574212.8, -29806.152, -0.00064359314, -0.1534907, -504728.22, 35099.76, 0.0, 10.000343, 9.99959 
9.150671e+2, 2.5491393e+2, -439142.13, -485113.75, -34544.332, 0.026729202, -0.13851905, -420635.06, 21194.422, 0.0, 10.000206, 9.999595 
9.150832e+2, 2.649133e+2, -368454.75, -467023.44, -39762.605, 0.028145751, -0.13161568, -354414.44, -10578.778, 0.0, 10.000305, 9.998998 
9.150991e+2, 2.7491224e+2, -220977.84, -345562.94, -42961.246, 0.0022083933, -0.13674623, -207599.86, 38246.87, 0.0, 10.000647, 9.998995 
9.151154e+2, 2.8491116e+2, -99683.055, -216557.05, -28507.023, 0.0062915413, -0.15079084, -93100.57, 54755.227, 0.0, 10.000722, 9.999172 
9.151322e+2, 2.9491004e+2, -31278.16, -132874.38, -22272.064, 0.040711053, -0.18233395, -26610.129, 23253.146, 0.0, 10.000519, 9.999171 
9.15149e+2, 3.0490786e+2, -6437.0273, -134574.89, 12256.928, 0.03181376, -0.2968407, -5275.136, -5275.136, 0.00000009563079, 10.000521, 9.998824 
9.151662e+2, 3.1490847e+2, 77781.2, -6730.8413, 3292.7395, 0.025075825, -0.1185748, 77909.3, 77909.3, 0.0000014046396, 10.000722, 9.999605 
9.248553e+2, 1.2489941e+2, -1727485.0, -1729514.3, -71868.52, -0.020904902, -0.10664187, -1656623.9, 59351.03, 0.000005355975, 9.999956, 9.999919 
9.248732e+2, 1.3489957e+2, -1605912.0, -1585282.6, 29085.402, 0.06597684, -0.11508526, -1564737.1, 53235.227, 0.00000033393198, 9.999958, 10.00024 
9.2488945e+2, 1.4489958e+2, -1522437.0, -1505389.3, -1539.1263, 0.037124265, -0.13012666, -1505251.5, 14719.682, 0.0, 9.99991, 10.000134 
9.249054e+2, 1.5489952e+2, -1435359.6, -1412836.6, -6854.107, 0.0018094626, -0.1497026, -1410914.8, 11055.65, 0.0, 9.999836, 10.000133 
9.249215e+2, 1.6489945e+2, -1365092.3, -1364589.4, -19274.148, 0.0023260466, -0.15146823, -1345565.0, -21594.39, 0.0, 9.999803, 9.999807 
9.249379e+2, 1.7489947e+2, -1267236.8, -1266255.0, -16801.947, 0.04165994, -0.13162345, -1249936.8, -23965.848, 0.0, 9.9998, 9.999811 
9.249541e+2, 1.8489926e+2, -1148598.4, -1127992.9, -7525.3735, 0.032668047, -0.14607231, -1125537.1, 2435.0898, 0.0, 9.99981, 10.000082 
9.249699e+2, 1.9489877e+2, -1045689.1, -1026778.9, -20426.08, -0.027538007, -0.2033206, -1013725.7, 16249.188, 0.0, 9.999841, 10.000089 
9.2498595e+2, 2.0489863e+2, -978933.3, -1018675.25, -46623.207, -0.033297226, -0.19392249, -948123.1, -16146.137, 0.0, 9.9999485, 9.999421 
9.2500234e+2, 2.148988e+2, -853826.3, -907331.25, -43518.02, 0.017471798, -0.119029686, -829495.4, 4483.0522, 0.0, 10.0001335, 9.999423 
9.2501855e+2, 2.248985e+2, -730235.8, -770094.6, -21053.47, 0.027798949, -0.10000431, -721175.06, 14807.375, 0.0, 10.000194, 9.999663 
9.250346e+2, 2.3489773e+2, -642162.44, -675831.8, -22398.83, -0.0035016777, -0.14349271, -630977.25, 7011.8296, 0.0, 10.00012, 9.999673 
9.250509e+2, 2.448972e+2, -556284.56, -605787.9, -36548.336, -0.0032688812, -0.15351419, -536895.25, 3098.55, 0.0, 10.000133, 9.999475 
9.250673e+2, 2.5489688e+2, -442207.1, -499822.06, -41175.723, 0.029385408, -0.13330595, -420762.1, 21234.56, 0.0, 10.000242, 9.999476 
9.250836e+2, 2.6489615e+2, -358205.63, -457319.75, -32169.666, 0.025872685, -0.13173293, -348679.78, -4676.07, 0.0, 10.000356, 9.999041 
9.2509943e+2, 2.7489495e+2, -244309.03, -351825.75, -25795.838, -0.01493336, -0.15360732, -238440.33, 7574.856, 0.0, 10.000465, 9.999039 
9.251159e+2, 2.848939e+2, -132355.98, -243323.84, -26623.074, -0.006629304, -0.1635733, -126299.24, 21725.027, 0.0, 10.0005455, 9.999073 
9.251329e+2, 2.9489294e+2, -26990.41, -141690.28, -40950.305, 0.051686265, -0.16804872, -13870.901, 36160.293, 0.0, 10.000596, 9.999073 
9.251497e+2, 3.0489087e+2, 675.16, -119607.83, -8169.5586, 0.04395613, -0.27165997, 1227.4958, 1227.4958, 0.00000004550982, 10.000521, 9.998927 
9.251665e+2, 3.1489125e+2, 11919.021, -46838.402, -5641.404, 0.0070659234, -0.12757266, 12455.76, 12455.76, 0.0000009683944, 10.000307, 9.999529 
9.348555e+2, 1.24882884e+2, -1721138.0, -1714560.0, -68309.42, 0.008258078, -0.1301545, -1649460.4, 66676.53, 0.000009813605, 9.999948, 10.000026 
9.348728e+2, 1.3488325e+2, -1600013.0, -1574906.3, 29653.072, 0.037282612, -0.12519364, -1555258.8, 62873.008, 0.0000009955157, 9.999967, 10.000307 
9.34889e+2, 1.4488335e+2, -1533901.3, -1532424.6, -5198.4473, 0.00446627, -0.12512365, -1527912.3, -7782.503, 0.00000000002439963, 9.999923, 9.999944 
9.3490547e+2, 1.5488334e+2, -1448276.1, -1439825.3, -9979.932, 0.02857638, -0.12060242, -1433213.1, -11083.914, 0.0, 9.999836, 9.9999485 
9.3492156e+2, 1.6488306e+2, -1361026.4, -1355788.9, -19332.148, 0.02817596, -0.13880713, -1338898.9, -14767.489, 0.0, 9.999801, 9.999869 
9.3493736e+2, 1.748825e+2, -1262715.1, -1257571.5, -16825.246, 0.00635114, -0.18127275, -1243122.6, -16986.557, 0.0, 9.999803, 9.999869 
9.349536e+2, 1.8488228e+2, -1172222.9, -1177850.3, -6973.308, 0.0015314448, -0.18278448, -1167517.0, -39379.168, 0.0, 9.999812, 9.99974 
9.349701e+2, 1.9488238e+2, -1069442.3, -1076486.3, -19795.703, 0.012681671, -0.14714813, -1052857.8, -22721.297, 0.0, 9.999842, 9.999748 
9.3498635e+2, 2.048821e+2, -972505.94, -1005479.44, -40369.29, 0.009460039, -0.13802962, -945386.56, -13246.51, 0.0, 9.9999485, 9.999512 
9.350022e+2, 2.1488138e+2, -847288.1, -893823.75, -37067.555, -0.007978497, -0.16036455, -826790.7, 7358.2334, 0.0, 10.0001335, 9.9995165 
9.3501836e+2, 2.2488095e+2, -732493.94, -775086.2, -24123.928, -0.007995922, -0.15965322, -721611.06, 14542.768, 0.0, 10.000194, 9.999629 
9.350349e+2, 2.3488079e+2, -644713.94, -680959.75, -25339.9, 0.010314727, -0.13972174, -631683.2, 6471.4043, 0.0, 10.000119, 9.999639 
9.350512e+2, 2.4488047e+2, -564103.06, -622197.2, -32671.08, 0.01589956, -0.12002241, -549433.6, -9276.082, 0.0, 10.000133, 9.999362 
9.350673e+2, 2.5487998e+2, -449659.8, -516134.47, -36643.504, 0.0072632665, -0.10533936, -433425.25, 8737.574, 0.0, 10.000245, 9.999364 
9.350836e+2, 2.6487896e+2, -346235.06, -432744.25, -27914.148, -0.0016750677, -0.13318986, -338009.94, 6162.0957, 0.0, 10.000357, 9.999209 
9.350999e+2, 2.748774e+2, -232601.14, -326810.16, -21482.795, -0.010463703, -0.209296, -227933.61, 18251.744, 0.0, 10.000463, 9.999212 
9.3511647e+2, 2.8487656e+2, -157716.98, -295434.03, -24465.285, -0.003767367, -0.19016334, -153499.89, -5306.8794, 0.0, 10.000542, 9.998717 
9.351331e+2, 2.948764e+2, -52535.19, -194470.47, -38215.53, 0.01920561, -0.077894546, -42899.9, 7295.1865, 0.0, 10.000593, 9.998713 
9.351499e+2, 3.0487427e+2, 16531.754, -84470.34, -15716.313, 0.019190295, -0.1832337, 18920.766, 18920.766, 0.000000010385675, 10.000512, 9.999172 
9.35167e+2, 3.148732e+2, 16904.092, -32921.105, -12607.46, 0.024559865, -0.2082849, 19912.553, 19912.553, 0.00000050425, 10.000293, 9.999632 
9.448555e+2, 1.2486663e+2, -1746533.6, -1727158.0, -48803.04, 0.026048863, -0.13332921, -1687090.5, 29205.475, 0.000016619406, 9.999775, 10.000022 
9.4487274e+2, 1.3486698e+2, -1580351.1, -1569471.9, 36489.89, 0.027473392, -0.12617826, -1538018.4, 80272.516, 0.0000023427797, 10.00012, 10.00027 
9.448889e+2, 1.4486699e+2, -1512412.0, -1531263.3, -13301.516, -0.010196945, -0.12919155, -1505535.1, 14754.618, 0.0000000053592455, 10.000113, 9.999859 
9.4490534e+2, 1.5486684e+2, -1468286.4, -1458671.5, -10927.334, 0.03884655, -0.13009581, -1451540.9, -29250.447, 0.0, 9.999741, 9.999865 
9.4492143e+2, 1.648665e+2, -1373770.8, -1367573.9, -4762.627, 0.040755928, -0.1487495, -1364990.5, -40697.285, 0.0, 9.999739, 9.999817 
9.449372e+2, 1.7486593e+2, -1218093.9, -1241353.0, -11120.195, -0.004095407, -0.18677649, -1213632.9, 12665.0625, 0.0, 10.0001335, 9.99982 
9.4495344e+2, 1.8486562e+2, -1122159.8, -1169768.9, -8870.655, -0.01115939, -0.1858962, -1120560.6, 7739.9697, 0.0, 10.000228, 9.999594 
9.449701e+2, 1.948656e+2, -1057083.3, -1086914.0, -6998.043, 0.019856349, -0.14967586, -1055523.1, -25222.146, 0.0, 9.999998, 9.9996 
9.449864e+2, 2.0486526e+2, -966060.3, -1004624.0, -12276.559, 0.020690095, -0.13706133, -962483.9, -30178.594, 0.0, 10.000003, 9.999491 
9.450023e+2, 2.1486461e+2, -830810.1, -887979.25, -17725.166, -0.009465741, -0.15215355, -825760.5, 8552.95, 0.0, 10.000257, 9.999496 
9.450185e+2, 2.248641e+2, -722073.6, -780173.56, -23875.383, -0.014313603, -0.15360738, -713521.3, 22797.646, 0.0, 10.00031, 9.999538 
9.45035e+2, 2.3486371e+2, -645729.06, -691948.4, -29940.24, 0.0072520124, -0.14617294, -631017.06, 7304.6563, 0.0, 10.000158, 9.999544 
9.450513e+2, 2.4486329e+2, -555328.6, -622482.4, -25620.945, 0.013086849, -0.13107835, -546670.0, -6344.247, 0.0, 10.000213, 9.999322 
9.4506764e+2, 2.548628e+2, -418346.75, -505368.4, -24513.066, 0.001954829, -0.112429805, -411916.78, 30414.273, 0.0, 10.00048, 9.999325 
9.45084e+2, 2.6486182e+2, -318836.06, -415660.53, -26332.35, -0.0044341874, -0.13673767, -312138.06, 32201.738, 0.0, 10.000528, 9.999244 
9.451004e+2, 2.7486035e+2, -246054.9, -329280.5, -30451.4, -0.005871141, -0.20927772, -236103.05, 10249.024, 0.0, 10.000353, 9.9992485 
9.4511694e+2, 2.8485948e+2, -189666.05, -317311.97, -22088.69, -0.00038509606, -0.19152509, -185951.77, -37591.563, 0.0, 10.000351, 9.998659 
9.451336e+2, 2.9485917e+2, -67161.64, -207936.78, -14270.359, 0.0130824605, -0.085635975, -65729.625, -15365.346, 0.0, 10.000522, 9.998654 
9.4515026e+2, 3.0485722e+2, 4560.3896, -74883.15, -1872.7523, 0.013297791, -0.17470181, 4604.512, 4604.512, 0.00000000032400083, 10.000363, 9.99931 
9.4516706e+2, 3.1485632e+2, -45287.824, -60909.535, -8198.739, 0.021936191, -0.19951802, -41774.863, -41774.863, 0.00000016973306, 9.999858, 9.999649 
9.548552e+2, 1.24850765e+2, -1753898.5, -1744777.8, -32756.982, 0.019144893, -0.114618905, -1716265.3, 185.84511, 0.000026449812, 9.9997835, 9.999898 
9.548729e+2, 1.3485086e+2, -1590816.0, -1591391.8, 49381.785, 0.03634071, -0.1177621, -1541721.3, 76727.64, 0.0000047469885, 10.000119, 10.000121 
9.5488906e+2, 1.4485057e+2, -1511679.8, -1529632.3, -26826.234, -0.006723009, -0.14329559, -1492367.9, 28082.533, 0.000000046136613, 10.000112, 9.999871 
9.5490503e+2, 1.548501e+2, -1467412.4, -1457136.9, -24817.41, 0.031549893, -0.17938088, -1436931.0, -14477.348, 0.0, 9.999742, 9.999874 
9.549211e+2, 1.6484982e+2, -1385512.6, -1392567.1, 9529.907, 0.038109805, -0.18168232, -1378878.1, -54422.45, 0.0, 9.999741, 9.999645 
9.549375e+2, 1.7484982e+2, -1229361.6, -1265711.9, 3765.6396, 0.010158186, -0.14699773, -1228975.6, -2519.692, 0.0, 10.000136, 9.999652 
9.5495373e+2, 1.8484938e+2, -1118047.8, -1162302.3, -17733.69, -0.0054379087, -0.15407108, -1111818.4, 16641.629, 0.0, 10.000232, 9.999643 
9.5496976e+2, 1.9484845e+2, -1053357.3, -1079612.3, -16138.2295, -0.0070184795, -0.21158282, -1045681.56, -15213.252, 0.0, 10.0, 9.99965 
9.5498616e+2, 2.0484814e+2, -975689.7, -1024721.9, -3669.6094, -0.0011230597, -0.19211005, -975416.56, -42944.266, 0.0, 10.000003, 9.999353 
9.550028e+2, 2.1484847e+2, -840498.3, -908059.3, -8736.317, 0.012368219, -0.094460204, -839386.9, -4915.186, 0.0, 10.000256, 9.99936 
9.5501906e+2, 2.2484796e+2, -732501.06, -802094.75, -30005.729, 0.008574961, -0.08137034, -721350.5, 15126.999, 0.0, 10.000311, 9.999388 
9.550349e+2, 2.3484655e+2, -655619.9, -713496.2, -35675.9, -0.01341727, -0.1629089, -638621.25, -131.02904, 0.0, 10.000162, 9.999395 
9.5505124e+2, 2.4484566e+2, -553366.44, -619095.25, -15740.41, -0.012623615, -0.18643539, -549791.44, -9293.268, 0.0, 10.000216, 9.999344 
9.5506823e+2, 2.5484535e+2, -416975.44, -501642.38, -14236.279, 0.012606753, -0.15307054, -414645.78, 27855.283, 0.0, 10.000475, 9.999352 
9.5508474e+2, 2.648447e+2, -326074.06, -430186.22, -32625.223, 0.016442778, -0.1418246, -316695.28, 27811.496, 0.0, 10.000525, 9.9991455 
9.551008e+2, 2.748437e+2, -252510.53, -343545.97, -36569.707, -0.0030925772, -0.15727441, -239639.84, 6875.6714, 0.0, 10.000356, 9.999149 
9.551172e+2, 2.8484255e+2, -174575.02, -285430.13, -15532.806, 0.0014902027, -0.16947977, -172439.72, -23913.828, 0.0, 10.000348, 9.998879 
9.551343e+2, 2.948413e+2, -53202.586, -175976.81, -7218.008, 0.03137225, -0.18488468, -52779.688, -2241.4165, 0.0, 10.000507, 9.998881 
9.551507e+2, 3.0483982e+2, 4510.662, -71290.35, -20209.031, 0.024558041, -0.24104989, 9561.911, 9561.911, 0.0, 10.000347, 9.999343 
9.5516664e+2, 3.148405e+2, -50352.6, -70295.64, -25967.006, -0.0035584732, -0.11141759, -32508.36, -32508.36, 0.000000027453995, 9.999852, 9.999587 
9.6485525e+2, 1.2483465e+2, -1682890.0, -1713068.5, -37883.223, 0.016278494, -0.109686315, -1657201.5, 59407.4, 0.00003990401, 10.000283, 9.999873 
9.648731e+2, 1.3483468e+2, -1643039.0, -1622442.8, 47830.688, 0.054856423, -0.11494367, -1583814.1, 34793.316, 0.000008636752, 9.999788, 10.000066 
9.648891e+2, 1.4483428e+2, -1560596.6, -1562374.6, -21142.043, 0.0047039934, -0.1445608, -1540324.9, -19714.766, 0.00000019058375, 9.999817, 9.999787 
9.6490496e+2, 1.5483369e+2, -1376819.6, -1422161.4, -26977.076, 0.022824835, -0.18258364, -1364252.3, 58362.066, 0.0, 10.000402, 9.999795 
9.649211e+2, 1.6483332e+2, -1292629.1, -1359858.3, -362.9123, 0.027714299, -0.18493861, -1292627.1, 31990.322, 0.0, 10.000432, 9.999536 
9.6493757e+2, 1.7483324e+2, -1275801.8, -1300129.9, -1768.6057, 0.016090075, -0.14837584, -1275673.9, -49055.26, 0.0, 9.999871, 9.999543 
9.649538e+2, 1.8483278e+2, -1180166.4, -1191379.3, -15201.596, 0.0006978683, -0.15158907, -1169570.3, -40947.46, 0.0, 9.999802, 9.99965 
9.649698e+2, 1.9483192e+2, -1014647.3, -1059673.8, -17012.887, -0.017419433, -0.20277947, -1008942.06, 21688.469, 0.0, 10.000261, 9.9996605 
9.649862e+2, 2.0483156e+2, -925604.75, -1006875.2, -7124.572, -0.0145935165, -0.18662177, -924984.9, 7649.9995, 0.0, 10.000375, 9.999296 
9.6500295e+2, 2.1483168e+2, -864999.7, -926479.2, -6511.518, 0.009913408, -0.10355381, -864317.56, -29681.805, 0.0, 10.000115, 9.9993 
9.650193e+2, 2.248311e+2, -763746.25, -830500.44, -19736.557, 0.011788933, -0.08889629, -758347.56, -21705.182, 0.0, 10.000154, 9.999269 
9.6503526e+2, 2.3482975e+2, -613629.9, -706302.25, -23622.736, -0.010361884, -0.15063363, -607955.7, 30699.354, 0.0, 10.000507, 9.999278 
9.6505165e+2, 2.448288e+2, -508685.63, -598771.56, -9262.426, -0.011165441, -0.17474638, -507743.16, 32920.563, 0.0, 10.000528, 9.999332 
9.650685e+2, 2.5482824e+2, -458503.75, -522697.97, -10840.593, 0.0109940255, -0.16421343, -456722.5, -14054.307, 0.0, 10.0001955, 9.999342 
9.65085e+2, 2.6482755e+2, -379396.9, -458891.78, -23907.748, 0.015694642, -0.15627235, -372760.75, -28086.408, 0.0, 10.000174, 9.999118 
9.651012e+2, 2.748267e+2, -236690.25, -338877.75, -23080.938, 0.0014655167, -0.15443313, -231718.84, 14963.396, 0.0, 10.000479, 9.999123 
9.651177e+2, 2.8482565e+2, -160180.48, -263589.56, -12004.003, 0.0040817233, -0.16434126, -158805.31, -10113.309, 0.0, 10.000383, 9.999012 
9.651344e+2, 2.9482436e+2, -137572.53, -201125.6, -11153.617, 0.024139129, -0.19186537, -135671.9, -84968.07, 0.0, 9.999863, 9.999019 
9.6515065e+2, 3.0482316e+2, -80550.7, -100129.305, -22288.32, 0.016134929, -0.23782364, -65996.63, -65996.63, 0.0, 9.999711, 9.999451 
9.651665e+2, 3.1482393e+2, -33291.785, -56972.883, -22202.664, -0.007070723, -0.10609346, -19969.725, -19969.725, 0.00000000015790982, 9.999948, 9.999634 
9.748554e+2, 1.24818295e+2, -1676627.3, -1701165.0, -53378.375, 0.005496292, -0.12447533, -1634125.9, 82643.57, 0.000057479218, 10.000288, 9.999953 
9.748731e+2, 1.3481848e+2, -1640718.8, -1617480.5, 28996.932, 0.08203769, -0.117917106, -1597861.4, 20904.742, 0.000014404859, 9.999787, 10.0001 
9.748891e+2, 1.4481816e+2, -1573690.9, -1589385.3, 679.2821, 0.02240991, -0.1323654, -1573661.5, -52893.207, 0.0000005546723, 9.999815, 9.999603 
9.7490525e+2, 1.5481772e+2, -1388619.8, -1448262.4, -4490.6973, 0.011802351, -0.138276, -1388283.5, 34488.594, 0.0, 10.000408, 9.999614 
9.749214e+2, 1.6481707e+2, -1295087.3, -1366728.4, -21462.314, 0.008580529, -0.15754193, -1289149.6, 35628.277, 0.0, 10.000439, 9.999485 
9.749374e+2, 1.748162e+2, -1279528.8, -1307870.0, -23415.127, 0.0130039565, -0.19164625, -1266330.1, -39544.48, 0.0, 9.99987, 9.999491 
9.749536e+2, 1.8481585e+2, -1183080.3, -1197089.6, 953.75214, 0.0063272337, -0.1796469, -1183015.6, -54226.727, 0.0, 9.9998, 9.999613 
9.749701e+2, 1.9481605e+2, -1016594.06, -1064457.4, -81.727066, -0.011900849, -0.122738555, -1016593.94, 14193.357, 0.0, 10.000263, 9.999627 
9.749865e+2, 2.0481555e+2, -923619.0, -1003788.06, -17287.945, -0.0202141, -0.11928453, -920049.9, 12742.709, 0.0, 10.000379, 9.999316 
9.7500277e+2, 2.1481428e+2, -863417.75, -923439.4, -16847.383, -0.017654479, -0.17908044, -859012.25, -24206.938, 0.0, 10.000116, 9.999321 
9.750193e+2, 2.2481354e+2, -770390.7, -844167.1, -7386.3467, -0.0057329745, -0.17648107, -769658.44, -32845.176, 0.0, 10.000153, 9.999176 
9.75036e+2, 2.3481339e+2, -620490.0, -720136.6, -10469.203, 0.0161219, -0.10964321, -619401.94, 19414.066, 0.0, 10.000505, 9.999184 
9.750524e+2, 2.4481273e+2, -511889.38, -605572.1, -21521.814, 0.017043237, -0.09654649, -507181.72, 33640.5, 0.0, 10.000528, 9.999286 
9.7506857e+2, 2.5481153e+2, -461105.8, -529058.94, -23086.8, -0.004289076, -0.14751971, -454004.3, -11171.917, 0.0, 10.000198, 9.999297 
9.7508496e+2, 2.6481038e+2, -377000.16, -454041.06, -12329.998, -0.007836309, -0.18083602, -375074.9, -30232.578, 0.0, 10.000174, 9.999152 
9.7510177e+2, 2.748094e+2, -234980.56, -333991.6, -10770.586, 0.0074770767, -0.19826399, -233822.47, 13029.426, 0.0, 10.000472, 9.999159 
9.7511804e+2, 2.8480873e+2, -158000.8, -257982.42, -30608.023, 0.006876062, -0.174754, -149374.78, -516.43866, 0.0, 10.000379, 9.999054 
9.7513384e+2, 2.948084e+2, -133998.13, -194404.64, -30054.252, -0.010194901, -0.11307726, -121592.766, -70731.2, 0.0, 9.999865, 9.999064 
9.7515005e+2, 3.0480713e+2, -68758.055, -74454.89, -13232.47, -0.014102501, -0.1703009, -58070.9, -58070.9, 0.0, 9.999705, 9.999631 
9.7516656e+2, 3.148066e+2, -26453.172, -37739.098, -11609.974, 0.0059998995, -0.18599312, -19187.436, -19187.436, 0.0, 9.999925, 9.999777 
9.848556e+2, 1.2480218e+2, -1721338.1, -1728673.9, -47775.645, 0.009541776, -0.11747952, -1677089.8, 39837.945, 0.00007951568, 10.000007, 9.9999 
9.848732e+2, 1.3480215e+2, -1555606.0, -1585915.1, 20365.123, 0.08276257, -0.12295513, -1545375.6, 73550.836, 0.000022398126, 10.000414, 10.000014 
9.848891e+2, 1.4480175e+2, -1483362.0, -1554532.9, -938.32996, 0.012192674, -0.13626352, -1483349.6, 37579.813, 0.0000013019285, 10.000474, 9.999525 
9.849056e+2, 1.5480152e+2, -1429314.6, -1476082.8, 1767.7192, 0.013440933, -0.11519973, -1429247.9, -6316.157, 0.0, 10.000165, 9.999539 
9.8492163e+2, 1.6480084e+2, -1339117.0, -1389871.5, -20430.71, 0.01057946, -0.13175832, -1331914.8, -6976.9834, 0.0, 10.000145, 9.999468 
9.849374e+2, 1.7479973e+2, -1199503.8, -1270785.4, -20192.623, 0.003285219, -0.19048382, -1194181.0, 32766.541, 0.0, 10.000426, 9.999476 
9.8495364e+2, 1.8479925e+2, -1106140.4, -1173452.9, 10066.715, -0.00060444925, -0.18458977, -1104667.1, 24284.732, 0.0, 10.000386, 9.999492 
9.8497033e+2, 1.9479947e+2, -1063079.8, -1100630.0, 2315.506, -0.0015190374, -0.11394709, -1062937.5, -31987.066, 0.0, 10.000004, 9.999504 
9.8498684e+2, 2.0479889e+2, -979717.5, -1028427.7, -17538.893, -0.008333268, -0.111180276, -974059.5, -41103.402, 0.0, 9.999983, 9.999337 
9.8500293e+2, 2.1479748e+2, -826470.5, -902657.25, -17238.506, -0.021258557, -0.18675013, -822751.5, 12217.916, 0.0, 10.000358, 9.999347 
9.8501945e+2, 2.247967e+2, -733954.44, -833438.4, -6594.7695, -0.013239832, -0.18789564, -733519.2, 3458.631, 0.0, 10.000433, 9.999113 
9.850364e+2, 2.3479655e+2, -672232.44, -752393.5, -8062.9604, 0.017211197, -0.112543285, -671429.5, -32448.645, 0.0, 10.000182, 9.999118 
9.850528e+2, 2.4479596e+2, -563225.94, -623710.06, -18339.57, 0.016828775, -0.0933162, -558099.6, -17112.87, 0.0, 10.000148, 9.999345 
9.850687e+2, 2.5479487e+2, -434771.8, -509183.72, -12766.275, -0.017102191, -0.14023188, -432642.53, 10353.335, 0.0, 10.000349, 9.999361 
9.8508507e+2, 2.6479378e+2, -354117.5, -436018.72, 4725.4194, -0.020399576, -0.1739398, -353845.78, -8840.644, 0.0, 10.000302, 9.999213 
9.8510194e+2, 2.747928e+2, -302013.84, -359154.78, 7538.96, 0.0092497, -0.19650015, -301035.94, -54021.473, 0.0, 9.999983, 9.999221 
9.851182e+2, 2.8479213e+2, -223607.66, -286202.63, -16909.912, 0.0082990555, -0.17607793, -219331.58, -70310.86, 0.0, 9.999914, 9.999083 
9.851337e+2, 2.9479182e+2, -95959.16, -172832.95, -17849.63, -0.024462542, -0.11558163, -92016.766, -40992.945, 0.0, 10.0001135, 9.999092 
9.8514974e+2, 3.047907e+2, -38360.27, -54855.438, -9365.122, -0.0263765, -0.1638998, -34128.746, -34128.746, 0.0, 9.999894, 9.999674 
9.8516613e+2, 3.147902e+2, -128233.336, -84947.57, -18805.982, 0.01218506, -0.18456042, -77918.52, -77918.52, 0.0, 9.999219, 9.999792 
9.9485564e+2, 1.2478635e+2, -1735320.9, -1757098.3, -27549.04, 0.020207277, -0.089186326, -1716586.6, 496.5017, 0.00010622788, 10.000004, 9.999707 
9.9487334e+2, 1.3478574e+2, -1569859.1, -1617164.5, 36297.33, 0.0556907, -0.13040748, -1550188.0, 68899.734, 0.00003292342, 10.000421, 9.999798 
9.9488914e+2, 1.447851e+2, -1480486.0, -1550133.3, -12681.848, -0.027528662, -0.15765338, -1478248.6, 42844.586, 0.0000026281716, 10.00048, 9.999552 
9.949058e+2, 1.5478513e+2, -1427302.5, -1471849.4, -10120.209, 0.026781056, -0.11424701, -1425111.1, -2018.0712, 0.00000000019976186, 10.000164, 9.999569 
9.94922e+2, 1.647847e+2, -1338042.1, -1387538.8, -10229.134, 0.033243738, -0.10821178, -1336011.4, -10914.785, 0.0, 10.000143, 9.999485 
9.9493766e+2, 1.7478383e+2, -1196877.9, -1266960.3, -9605.739, -0.014060666, -0.1440042, -1195585.1, 31518.57, 0.0, 10.000432, 9.9995 
9.949538e+2, 1.8478301e+2, -1119966.9, -1203609.6, -4856.9126, -0.021833345, -0.16539967, -1119685.8, 9425.577, 0.0, 10.000392, 9.999283 
9.9497044e+2, 1.9478217e+2, -1078156.1, -1132052.5, -12916.34, 0.013424632, -0.17691028, -1075220.6, -44100.953, 0.0, 10.000004, 9.999289 
9.949871e+2, 2.0478162e+2, -978421.06, -1025612.8, -4813.032, 0.020920247, -0.16352925, -977935.2, -44809.883, 0.0, 9.999982, 9.999357 
9.9500346e+2, 2.1478134e+2, -824431.25, -898704.25, -3698.6584, -0.0015002706, -0.12723719, -824247.56, 10880.36, 0.0, 10.000359, 9.999374 
9.950199e+2, 2.247806e+2, -736131.44, -838563.6, -16239.908, -0.011547155, -0.12275035, -733618.4, 3517.3093, 0.0, 10.000435, 9.999077 
9.9503624e+2, 2.3477933e+2, -674752.25, -757780.0, -17675.48, -0.00770893, -0.15851691, -671146.0, -31996.799, 0.0, 10.000181, 9.999082 
9.9505264e+2, 2.4477853e+2, -552531.25, -601106.06, -11049.8545, -0.012549263, -0.16427284, -550135.75, -8978.813, 0.0, 10.000146, 9.999501 
9.950689e+2, 2.547783e+2, -423509.56, -485611.44, -4764.6895, -0.027565299, -0.1420039, -423146.13, 20012.174, 0.0, 10.000348, 9.999524 
9.950853e+2, 2.6477775e+2, -348453.44, -424414.75, -6690.3975, -0.022681493, -0.1358121, -347868.7, -2706.0298, 0.0, 10.000301, 9.999293 
9.9510187e+2, 2.7477688e+2, -296642.38, -347685.66, -4040.041, 0.0044002635, -0.15120374, -296324.6, -49154.414, 0.0, 9.99998, 9.999302 
9.95118e+2, 2.8477588e+2, -223287.88, -284186.0, -9043.13, 0.005771305, -0.1692662, -221973.39, -72794.06, 0.0, 9.999908, 9.9991 
9.951339e+2, 2.9477474e+2, -95854.84, -170992.75, -8979.289, -0.020615362, -0.19507779, -94796.69, -43606.453, 0.0, 10.000106, 9.999109 
9.951496e+2, 3.0477387e+2, -45949.453, -69801.35, -33071.918, -0.022634957, -0.21525607, -22718.895, -22718.895, 0.0, 9.999889, 9.999574 
9.9516535e+2, 3.1477448e+2, -136924.02, -102909.08, -42335.055, 0.007962403, -0.112137385, -74292.97, -74292.97, 0.0, 9.999218, 9.99967 
1.0048559e+3, 1.2477014e+2, -1678245.5, -1739184.1, -22978.254, 0.029288772, -0.08783355, -1670552.3, 46689.605, 0.00013782152, 10.000436, 9.999623 
1.00487374e+3, 1.3476951e+2, -1587612.3, -1637332.5, 45218.04, 0.057197, -0.12103761, -1560871.1, 58376.074, 0.000046236724, 10.000348, 9.999695 
1.0048894e+3, 1.4476879e+2, -1498956.6, -1555917.5, -9693.46, -0.040468566, -0.1541677, -1497352.3, 23901.379, 0.00000474816, 10.000339, 9.99958 
1.0049061e+3, 1.547687e+2, -1393012.8, -1451708.3, -7725.628, 0.023433955, -0.123392716, -1392012.9, 31240.898, 0.000000004412824, 10.000383, 9.999601 
1.0049223e+3, 1.6476825e+2, -1309766.4, -1385360.0, -1639.1893, 0.036690496, -0.116178244, -1309730.9, 15526.706, 0.0, 10.000387, 9.999383 
1.0049381e+3, 1.7476745e+2, -1213895.3, -1286847.5, -10713.46, -0.009070484, -0.13522594, -1212354.4, 14910.221, 0.0, 10.000366, 9.999396 
1.0049542e+3, 1.8476658e+2, -1121100.9, -1208066.0, -14823.213, -0.017643474, -0.15462637, -1118643.8, 10629.151, 0.0, 10.0004015, 9.999248 
1.00497074e+3, 1.9476557e+2, -1009608.6, -1102544.3, -9537.651, 0.015510665, -0.18058823, -1008639.94, 22642.5, 0.0, 10.00049, 9.999256 
1.0049873e+3, 2.047649e+2, -921359.6, -1010120.9, 9702.611, 0.026139157, -0.17044897, -920311.44, 12977.54, 0.0, 10.000426, 9.9992485 
1.0050039e+3, 2.1476462e+2, -854946.5, -925931.0, 231.6814, 0.011775642, -0.1250218, -854945.75, -19653.594, 0.0, 10.000203, 9.999262 
1.0050202e+3, 2.247639e+2, -777850.3, -842825.7, -18849.5, -0.0049628816, -0.12016855, -772778.0, -35478.355, 0.0, 10.000081, 9.999218 
1.00503616e+3, 2.3476268e+2, -680413.3, -743514.75, -7350.3345, -0.02394362, -0.16541688, -679568.44, -40256.53, 0.0, 10.000071, 9.999232 
1.0050525e+3, 2.4476193e+2, -574482.1, -612460.2, 6201.989, -0.030022936, -0.17304188, -573495.0, -32175.955, 0.0, 10.0, 9.999493 
1.005069e+3, 2.5476176e+2, -495490.75, -521419.88, -714.6054, -0.022479713, -0.143996, -495471.06, -52150.52, 0.0, 9.99986, 9.999512 
1.0050855e+3, 2.647613e+2, -405483.7, -431816.25, -11470.1455, -0.01709306, -0.13579421, -401188.16, -55864.223, 0.0, 9.999825, 9.999472 
1.00510165e+3, 2.747606e+2, -295231.2, -326367.28, -1714.7106, -0.013722305, -0.15496913, -295137.03, -47807.754, 0.0, 9.999902, 9.999485 
1.00511774e+3, 2.8475967e+2, -231106.61, -283157.88, 1848.132, -0.0101773795, -0.17547983, -231041.06, -81703.734, 0.0, 9.999835, 9.999142 
1.00513384e+3, 2.947586e+2, -165349.3, -199674.53, 2336.803, -0.0058984347, -0.20112538, -165190.94, -113842.74, 0.0, 9.999609, 9.999149 
1.0051495e+3, 3.0475774e+2, -92764.84, -98170.305, -27047.188, -0.00652654, -0.2153385, -68285.68, -68285.68, 0.0, 9.999594, 9.99952 
1.0051647e+3, 3.147582e+2, -56065.87, -71834.42, -32917.363, -0.008027596, -0.12284161, -30101.74, -30101.74, 0.0, 9.999808, 9.999598 
1.0148563e+3, 1.2475353e+2, -1675863.0, -1734089.4, -22651.064, 0.020377135, -0.12275363, -1668089.3, 49315.063, 0.00017450533, 10.000435, 9.999658 
1.01487435e+3, 1.3475354e+2, -1586544.6, -1634885.8, 41868.605, 0.08617786, -0.09410109, -1562370.6, 57033.387, 0.000062540406, 10.000347, 9.999712 
1.0148899e+3, 1.4475286e+2, -1496592.3, -1551281.4, -7694.2007, -0.027001275, -0.124317355, -1495530.4, 25879.328, 0.000007860604, 10.000339, 9.999614 
1.01490624e+3, 1.5475231e+2, -1389808.1, -1445939.0, -6015.1655, 0.0023140733, -0.14285864, -1389170.8, 34242.48, 0.000000028517778, 10.000386, 9.99964 
1.0149225e+3, 1.6475156e+2, -1325581.4, -1418977.5, -3231.5513, 0.01914846, -0.15686719, -1325469.8, -49.586597, 0.0, 10.00039, 9.999151 
1.0149387e+3, 1.7475063e+2, -1230621.1, -1321763.5, -11914.395, 0.01809365, -0.16528025, -1229089.4, -1659.432, 0.0, 10.000366, 9.999156 
1.0149549e+3, 1.8475e+2, -1111029.8, -1187596.1, -12181.94, 0.012412642, -0.15308586, -1109138.4, 20297.734, 0.0, 10.000402, 9.999388 
1.01497106e+3, 1.947497e+2, -998320.0, -1079947.3, -6680.9883, 0.0036336777, -0.12457021, -997776.8, 33661.324, 0.0, 10.000492, 9.999411 
1.01498745e+3, 2.0474884e+2, -937979.75, -1045453.6, 567.8316, 0.0054451544, -0.13074346, -937976.75, -4530.21, 0.0, 10.000429, 9.999005 
1.01500414e+3, 2.1474735e+2, -872871.56, -963067.75, -8823.732, 0.018019825, -0.17952295, -872016.44, -36554.645, 0.0, 10.000202, 9.999007 
1.0150204e+3, 2.247466e+2, -756007.2, -797266.4, -20091.734, 0.0062253964, -0.18034247, -747839.94, -10370.481, 0.0, 10.000079, 9.999533 
1.0150362e+3, 2.347466e+2, -656828.06, -695419.75, -7938.4854, -0.031968098, -0.13419376, -655258.9, -15790.164, 0.0, 10.000073, 9.999561 
1.0150524e+3, 2.4474618e+2, -585988.25, -637379.7, 888.7212, -0.036709014, -0.120025426, -585972.9, -44500.01, 0.0, 10.000004, 9.99932 
1.0150691e+3, 2.5474524e+2, -508731.72, -548441.56, -5673.496, -0.003837531, -0.14567433, -507937.03, -64454.688, 0.0, 9.999857, 9.999328 
1.01508535e+3, 2.6474452e+2, -387245.16, -392898.66, -8141.0464, -0.0049976967, -0.17281134, -381454.1, -35965.402, 0.0, 9.99982, 9.999742 
1.0151012e+3, 2.747439e+2, -275303.78, -285029.44, 2188.6653, -0.045274008, -0.20622541, -274833.94, -27342.469, 0.0, 9.999902, 9.99977 
1.0151173e+3, 2.8474352e+2, -227601.36, -276105.72, -5822.1753, -0.04041146, -0.19440825, -226912.3, -77417.64, 0.0, 9.999835, 9.99919 
1.0151336e+3, 2.947433e+2, -163519.56, -193866.86, -5470.233, 0.016545108, -0.13667384, -162563.64, -111065.555, 0.0, 9.999599, 9.999195 
1.01514935e+3, 3.0474234e+2, -95104.34, -99810.87, -18328.09, 0.019351544, -0.16523145, -78979.06, -78979.06, 0.0, 9.999579, 9.9995165 
1.0151642e+3, 3.1474137e+2, -59250.504, -75431.41, -22390.328, -0.03873833, -0.21615212, -43533.766, -43533.766, 0.0, 9.999796, 9.999578 
1.02485694e+3, 1.24737345e+2, -1612561.5, -1718393.4, -13872.857, 0.022209043, -0.12637231, -1610773.3, 106789.164, 0.0002164286, 10.000935, 9.999524 
1.0248749e+3, 1.3473721e+2, -1559455.3, -1639873.9, 32275.002, 0.09679481, -0.0955354, -1548104.3, 71459.83, 0.00008198819, 10.000611, 9.99955 
1.02489024e+3, 1.4473642e+2, -1472823.5, -1542962.8, -14413.612, -0.026893226, -0.12773687, -1469977.0, 51594.223, 0.000012107449, 10.000516, 9.999585 
1.0249067e+3, 1.547359e+2, -1347835.6, -1428542.1, -17962.291, 0.0025298812, -0.142732, -1344018.5, 79556.13, 0.00000009714164, 10.000687, 9.999615 
1.0249231e+3, 1.6473514e+2, -1282306.8, -1401614.6, -17474.133, 0.019837614, -0.15345806, -1279800.1, 45781.3, 0.0, 10.000702, 9.999119 
1.0249392e+3, 1.7473419e+2, -1209454.9, -1315338.3, -10896.268, 0.02103638, -0.16028346, -1208345.3, 19246.213, 0.0, 10.000527, 9.999123 
1.0249553e+3, 1.8473354e+2, -1110764.0, -1191867.1, -4032.613, 0.01448961, -0.14701079, -1110563.9, 19034.057, 0.0, 10.000423, 9.999348 
1.0249715e+3, 1.947332e+2, -1011216.4, -1090462.4, -13337.184, -0.00020867778, -0.11751019, -1009031.94, 22568.66, 0.0, 10.000423, 9.999372 
1.0249878e+3, 2.0473236e+2, -943312.5, -1035709.75, -9653.244, -0.0028914441, -0.124541804, -942314.75, -8706.241, 0.0, 10.00034, 9.999114 
1.0250042e+3, 2.1473098e+2, -870376.2, -948898.44, 8390.131, 0.007084352, -0.17653827, -869489.7, -33867.3, 0.0, 10.000164, 9.999123 
1.0250204e+3, 2.2473025e+2, -762928.4, -804460.9, 5230.0244, 0.00085866277, -0.17695487, -762279.9, -24650.47, 0.0, 10.00005, 9.999496 
1.0250363e+3, 2.3473029e+2, -669547.8, -706026.56, -10685.845, -0.02320672, -0.125346, -666648.06, -27019.113, 0.0, 10.000007, 9.999519 
1.0250525e+3, 2.4472983e+2, -595360.2, -635333.5, -12724.104, -0.027123978, -0.115231454, -591653.6, -50020.21, 0.0, 9.999911, 9.999377 
1.0250688e+3, 2.547288e+2, -519246.66, -546439.8, -1868.3811, -0.008214473, -0.15593845, -519118.9, -75475.65, 0.0, 9.999755, 9.99939 
1.0250849e+3, 2.6472813e+2, -406022.78, -385891.1, 5495.2236, -0.01402499, -0.18580994, -384488.78, -38840.086, 0.0, 9.999622, 9.999884 
1.0251008e+3, 2.7472782e+2, -321597.66, -290564.53, 5085.637, -0.048473436, -0.20831594, -289752.34, -42103.234, 0.0, 9.999514, 9.999917 
1.0251168e+3, 2.8472754e+2, -278732.56, -292992.72, -11570.067, -0.04485596, -0.19272844, -272272.03, -122621.0, 0.0, 9.999452, 9.999258 
1.02513306e+3, 2.9472733e+2, -181275.6, -195313.58, -9870.733, 0.002978393, -0.13998964, -176182.7, -124528.18, 0.0, 9.999448, 9.999258 
1.0251487e+3, 3.0472654e+2, -111824.71, -88449.72, -9714.465, 0.011626963, -0.16598304, -84939.57, -84939.57, 0.0, 9.999381, 9.999689 
1.0251638e+3, 3.1472567e+2, -129055.734, -91031.13, -1711.0443, -0.025131164, -0.22249879, -90954.3, -90954.3, 0.0, 9.999237, 9.999741 
1.0348579e+3, 1.2472167e+2, -1634730.0, -1765435.8, -21832.459, 0.022516409, -0.09755999, -1631179.6, 86535.586, 0.0002637313, 10.000939, 9.999199 
1.0348754e+3, 1.347206e+2, -1583540.4, -1689963.1, 19843.691, 0.08793965, -0.12729642, -1579960.8, 39766.258, 0.00010469639, 10.000611, 9.999206 
1.0348906e+3, 1.447195e+2, -1479948.1, -1557685.3, -9036.619, -0.041305162, -0.16729257, -1478911.5, 42826.34, 0.000017566988, 10.000515, 9.999485 
1.0349076e+3, 1.5471949e+2, -1353881.1, -1442087.6, -11544.381, 0.023371989, -0.12214686, -1352395.3, 71341.96, 0.00000023822265, 10.00069, 9.99952 
1.03492394e+3, 1.6471905e+2, -1269388.4, -1376285.5, -24199.34, 0.03856123, -0.10419065, -1264165.3, 61575.414, 0.0, 10.000708, 9.999291 
1.03493944e+3, 1.747182e+2, -1196399.9, -1288721.6, -17936.877, -0.0016842698, -0.11920705, -1193037.4, 34711.11, 0.0, 10.000529, 9.999305 
1.03495546e+3, 1.8471722e+2, -1126873.6, -1225654.5, -5332.9375, -0.014061192, -0.13578163, -1126586.5, 3171.4717, 0.0, 10.000424, 9.999116 
1.0349719e+3, 1.9471613e+2, -1028314.94, -1125895.3, -14066.228, 0.003844897, -0.1593724, -1026327.75, 5441.5146, 0.0, 10.0004225, 9.999128 
1.0349882e+3, 2.0471554e+2, -910641.94, -968139.8, -16995.53, 0.0017912794, -0.15233643, -905994.06, 27780.662, 0.0, 10.00034, 9.999578 
1.035004e+3, 2.1471548e+2, -835989.56, -878112.3, 1160.15, -0.02185635, -0.11678877, -835957.6, -184.06696, 0.0, 10.000166, 9.999608 
1.0350201e+3, 2.247149e+2, -789627.7, -860562.25, 2800.4556, -0.022767438, -0.10955661, -789517.25, -51738.145, 0.0, 10.000052, 9.99911 
1.0350365e+3, 2.3471373e+2, -698648.6, -766222.94, -12416.322, 0.0014521541, -0.13801956, -696439.44, -56647.27, 0.0, 10.000005, 9.999107 
1.0350526e+3, 2.4471289e+2, -576101.7, -594963.1, -18407.957, -0.0017835493, -0.15826616, -564849.25, -23048.914, 0.0, 9.999909, 9.999657 
1.03506826e+3, 2.547124e+2, -497552.47, -502604.44, -7260.974, -0.035954375, -0.17520072, -492390.66, -48587.48, 0.0, 9.99976, 9.999689 
1.0350842e+3, 2.6471218e+2, -404716.75, -384080.06, 1728.725, -0.045222353, -0.17550588, -383936.25, -38132.37, 0.0, 9.999625, 9.999895 
1.0351006e+3, 2.7471226e+2, -322238.3, -290250.75, 1476.5272, -0.025673559, -0.16157702, -290182.75, -42380.652, 0.0, 9.999505, 9.999924 
1.0351165e+3, 2.8471178e+2, -274064.97, -280962.38, -11153.833, -0.025121624, -0.16971128, -265838.84, -116032.57, 0.0, 9.999441, 9.999346 
1.03513196e+3, 2.9471076e+2, -174935.95, -181886.7, -8394.166, -0.046433583, -0.20840861, -169326.16, -117509.055, 0.0, 9.999446, 9.9993515 
1.0351477e+3, 3.0471033e+2, -89008.52, -41864.06, -13735.746, -0.030456675, -0.21673852, -38154.047, -38154.047, 0.0, 9.999383, 10.000009 
1.03516355e+3, 3.1471103e+2, -107241.99, -45147.29, -5848.457, 0.027448598, -0.14744197, -44601.246, -44601.246, 0.0, 9.999233, 10.000058 
1.0448589e+3, 1.24705516e+2, -1641166.0, -1778322.1, -38582.45, 0.020249061, -0.09205847, -1631057.6, 86816.22, 0.00031664252, 10.000936, 9.999113 
1.0448762e+3, 1.3470432e+2, -1526924.3, -1674005.3, 16178.527, 0.09099648, -0.12260702, -1525165.6, 94721.234, 0.00013079311, 10.001048, 9.999105 
1.0448913e+3, 1.4470315e+2, -1418821.9, -1538480.0, -343.04382, -0.045855567, -0.16025575, -1418820.9, 103077.914, 0.000024312307, 10.000978, 9.9993925 
1.0449083e+3, 1.5470316e+2, -1362859.0, -1456825.4, -3320.7786, 0.027844306, -0.10314808, -1362741.8, 61156.586, 0.0000004785213, 10.000673, 9.999428 
1.04492456e+3, 1.6470271e+2, -1286818.3, -1378803.4, -18496.717, 0.044619575, -0.08453165, -1283238.1, 42663.87, 0.0, 10.000563, 9.999343 
1.04494005e+3, 1.7470181e+2, -1167508.4, -1268115.4, -22020.604, -0.0044706417, -0.11082611, -1162899.8, 65010.063, 0.0, 10.0007, 9.999364 
1.0449559e+3, 1.847008e+2, -1099312.1, -1217639.9, -11722.084, -0.018023165, -0.13161224, -1098162.1, 31757.334, 0.0, 10.000638, 9.999067 
1.0449724e+3, 1.9469967e+2, -1042561.2, -1138662.6, -6260.8784, 0.008142897, -0.15158148, -1042155.0, -10223.813, 0.0, 10.000351, 9.999075 
1.0449884e+3, 2.0469911e+2, -931395.06, -967480.7, -14433.712, 0.0068793357, -0.14398606, -926332.1, 7604.15, 0.0, 10.000154, 9.999672 
1.0450041e+3, 2.1469915e+2, -843046.9, -870267.1, -26022.127, -0.025280148, -0.11110188, -827290.56, 8643.358, 0.0, 10.000071, 9.999707 
1.04502015e+3, 2.2469859e+2, -803393.5, -865529.1, -24061.852, -0.028584195, -0.10625204, -795165.25, -57226.188, 0.0, 9.99995, 9.999125 
1.0450364e+3, 2.3469742e+2, -729177.4, -779388.8, -8031.699, 0.0003616749, -0.13648279, -727923.94, -87971.53, 0.0, 9.999789, 9.999121 
1.0450523e+3, 2.446966e+2, -594935.4, -586842.4, -866.97705, -0.0025793815, -0.16116455, -586750.56, -44790.555, 0.0, 9.999706, 9.999809 
1.045068e+3, 2.5469622e+2, -493080.56, -482597.7, -765.72125, -0.041766204, -0.18554136, -482542.03, -38580.887, 0.0, 9.999714, 9.999847 
1.04508385e+3, 2.6469606e+2, -418646.3, -397350.13, -5944.1387, -0.049826864, -0.18185523, -395803.34, -49842.184, 0.0, 9.999558, 9.999835 
1.04509994e+3, 2.7469623e+2, -368533.88, -320048.75, -11973.01, -0.021821875, -0.15126096, -317253.28, -69293.58, 0.0, 9.999219, 9.999857 
1.04511574e+3, 2.846959e+2, -308730.38, -268888.34, -11136.232, -0.023182226, -0.15814227, -265986.94, -116023.83, 0.0, 9.999079, 9.999602 
1.0451311e+3, 2.9469496e+2, -197119.17, -162300.78, 3580.2031, -0.058092333, -0.21232174, -161936.45, -109964.625, 0.0, 9.999165, 9.9996195 
1.0451469e+3, 3.046947e+2, -106880.13, -50045.484, -8681.047, -0.0410172, -0.21854617, -48749.094, -48749.094, 0.0, 9.99926, 10.0000105 
1.0451628e+3, 3.1469557e+2, -87699.11, -37386.01, -24693.068, 0.033961028, -0.13346499, -27292.035, -27292.035, 0.0, 9.999376, 10.000042 
1.0548596e+3, 1.24688834e+2, -1630003.0, -1754406.8, -28826.213, 0.004571271, -0.11656236, -1623648.1, 94390.266, 0.0003754383, 10.000932, 9.999279 
1.0548774e+3, 1.3468848e+2, -1514952.8, -1650936.9, 20838.037, 0.104650594, -0.07864024, -1511831.3, 108211.62, 0.00016041061, 10.001055, 9.99926 
1.0548923e+3, 1.4468749e+2, -1423829.3, -1550813.4, -11427.521, -0.041871287, -0.10306216, -1422809.0, 99243.93, 0.000032450233, 10.000986, 9.999305 
1.0549088e+3, 1.54687e+2, -1369526.3, -1470314.6, -15284.992, 0.014971951, -0.08627597, -1367259.3, 56798.227, 0.0000008393984, 10.000671, 9.999336 
1.054925e+3, 1.6468617e+2, -1292551.4, -1390233.1, -14438.693, 0.036141884, -0.095821165, -1290461.9, 35602.92, 0.0, 10.000561, 9.999266 
1.0549409e+3, 1.7468508e+2, -1172462.4, -1278865.3, -17032.072, 0.012377698, -0.13515148, -1169802.5, 58272.28, 0.0, 10.000701, 9.9992895 
1.0549568e+3, 1.846843e+2, -1089343.4, -1197863.5, -22848.422, 0.0029308419, -0.13441548, -1084728.9, 45352.93, 0.0, 10.000641, 9.999202 
1.0549728e+3, 1.9468392e+2, -1032508.4, -1118095.3, -17654.412, 0.011718804, -0.09431092, -1029009.75, 3076.1157, 0.0, 10.000351, 9.999216 
1.05498865e+3, 2.0468317e+2, -951133.5, -1008862.9, -18620.97, 0.01027834, -0.09875846, -945648.3, -11555.541, 0.0, 10.0001545, 9.999388 
1.0550044e+3, 2.1468198e+2, -863858.4, -913599.2, -29686.31, -0.0036255822, -0.15872096, -850001.3, -13898.259, 0.0, 10.000071, 9.99941 
1.0550202e+3, 2.2468135e+2, -774489.44, -805886.9, -30737.049, -0.016454373, -0.16695456, -755674.1, -17565.316, 0.0, 9.999951, 9.999535 
1.0550359e+3, 2.3468135e+2, -698103.5, -715932.7, -14307.372, -0.026941054, -0.12157906, -690160.75, -50051.277, 0.0, 9.999793, 9.999556 
1.05505176e+3, 2.44681e+2, -592576.75, -582716.6, -805.31946, -0.030574776, -0.124250025, -582651.25, -40539.164, 0.0, 9.999709, 9.999837 
1.05506785e+3, 2.5468025e+2, -492556.88, -480647.88, -106.893906, -0.026680676, -0.1862016, -480646.9, -36529.953, 0.0, 9.999709, 9.999865 
1.05508365e+3, 2.6467985e+2, -428497.47, -416719.4, -17879.932, -0.028631076, -0.2040129, -403783.66, -57663.41, 0.0, 9.999554, 9.999705 
1.055099e+3, 2.7467984e+2, -377329.22, -339237.8, -23713.422, -0.0379592, -0.17719848, -327868.63, -79747.01, 0.0, 9.999223, 9.999723 
1.05511464e+3, 2.8467983e+2, -280180.5, -210417.47, -7752.9575, -0.04084991, -0.1587444, -209566.25, -59444.88, 0.0, 9.999082, 10.000003 
1.0551305e+3, 2.9467997e+2, -168870.36, -101891.77, 7335.3506, -0.034249697, -0.15301377, -101097.83, -48978.965, 0.0, 9.999156, 10.000039 
1.0551464e+3, 3.0467963e+2, -128432.125, -92629.02, -4107.178, -0.021509424, -0.17121632, -92163.91, -92163.91, 0.0, 9.99925, 9.999723 
1.0551619e+3, 3.1467932e+2, -108985.85, -82393.81, -18765.969, -0.006348428, -0.17508246, -72691.016, -72691.016, 0.0, 9.999379, 9.999732 
1.06486075e+3, 1.2467245e+2, -1560033.5, -1721837.3, -19001.729, -0.00015198167, -0.1192209, -1557832.0, 160367.42, 0.00044023, 10.001419, 9.999267 
1.0648786e+3, 1.346722e+2, -1512573.9, -1652835.4, 10618.886, 0.11639683, -0.06742459, -1511774.5, 108428.29, 0.0001936281, 10.001085, 9.999233 
1.0648933e+3, 1.4467117e+2, -1439638.3, -1554047.3, -27377.404, -0.04112044, -0.094970964, -1433424.5, 88788.72, 0.00004209593, 10.00086, 9.999343 
1.0649094e+3, 1.5467063e+2, -1353449.9, -1458008.5, -22017.576, 0.005318439, -0.088567965, -1349002.6, 75215.516, 0.0000013547506, 10.000764, 9.999375 
1.0649256e+3, 1.6466983e+2, -1277623.0, -1385426.3, -5051.428, 0.027299931, -0.09687528, -1277386.8, 48838.504, 0.0, 10.000675, 9.999243 
1.0649415e+3, 1.7466882e+2, -1189477.4, -1290144.8, -3919.968, 0.017983153, -0.122675255, -1189324.9, 38909.566, 0.0, 10.000598, 9.999262 
1.0649574e+3, 1.8466805e+2, -1106298.9, -1206160.9, -20070.516, 0.011699619, -0.12255845, -1102416.0, 27825.719, 0.0, 10.000525, 9.9992 
1.0649732e+3, 1.9466749e+2, -1015036.0, -1109488.9, -26261.693, 0.009304808, -0.09885088, -1008225.3, 24021.564, 0.0, 10.000471, 9.999217 
1.06498875e+3, 2.0466669e+2, -933301.75, -1002132.1, -24250.146, 0.00815828, -0.10805725, -925616.2, 8638.103, 0.0, 10.000286, 9.999371 
1.06500454e+3, 2.1466558e+2, -881816.6, -924195.3, -14348.197, 0.0079360325, -0.15897973, -877415.75, -41151.61, 0.0, 9.999956, 9.999392 
1.0650201e+3, 2.2466497e+2, -785942.56, -798128.1, -8762.411, -0.007861726, -0.16747, -781362.9, -43093.46, 0.0, 9.999816, 9.999652 
1.0650356e+3, 2.34665e+2, -674757.5, -690748.6, -16024.466, -0.040758774, -0.13333014, -664844.6, -24575.246, 0.0, 9.999893, 9.99968 
1.0650514e+3, 2.4466479e+2, -588920.6, -574128.75, -21256.727, -0.045882594, -0.13061684, -559018.06, -16747.426, 0.0, 9.999705, 9.999898 
1.06506735e+3, 2.5466436e+2, -560870.6, -506647.75, -18065.111, -0.019526472, -0.1683372, -501180.4, -56907.086, 0.0, 9.99921, 9.999926 
1.065083e+3, 2.6466402e+2, -493653.8, -438826.78, -18761.156, -0.017625777, -0.18393789, -433021.6, -86745.72, 0.0, 9.999066, 9.999788 
1.0650981e+3, 2.7466387e+2, -357031.84, -319727.6, -8788.385, -0.044411086, -0.17955782, -317760.88, -69482.68, 0.0, 9.999321, 9.999809 
1.0651138e+3, 2.8466392e+2, -254730.08, -200355.86, -4183.776, -0.051736128, -0.16508812, -200035.83, -49757.984, 0.0, 9.999267, 9.999983 
1.0651295e+3, 2.9466414e+2, -212885.27, -125872.06, -21713.822, -0.035013583, -0.14259581, -120754.445, -68480.26, 0.0, 9.998865, 10.000014 
1.06514536e+3, 3.046638e+2, -173923.19, -105653.78, -18726.639, -0.022165436, -0.16378261, -100854.375, -100854.375, 0.0, 9.9989, 9.999803 
1.06516115e+3, 3.1466347e+2, -95298.914, -66000.22, -6041.825, -0.01797115, -0.17792897, -64803.207, -64803.207, 0.0, 9.999433, 9.999818 
1.074862e+3, 1.2465643e+2, -1574229.8, -1752070.4, -25805.596, -0.0025907678, -0.09766892, -1570560.9, 147795.08, 0.00051082077, 10.001423, 9.999058 
1.0748798e+3, 1.346555e+2, -1528175.4, -1684616.3, -2507.1377, 0.12633379, -0.09189165, -1528135.1, 92231.31, 0.00023041679, 10.001082, 9.999016 
1.0748941e+3, 1.4465424e+2, -1428792.6, -1530945.5, -31438.727, -0.044417568, -0.13950211, -1419892.5, 102486.68, 0.000053336094, 10.000857, 9.999503 
1.0749102e+3, 1.546541e+2, -1340963.1, -1432653.6, -25521.63, -0.0026773093, -0.109570354, -1334338.0, 90041.67, 0.0000020676762, 10.000766, 9.999548 
1.0749262e+3, 1.6465373e+2, -1275365.9, -1381631.8, -8506.622, 0.01700106, -0.086593, -1274689.1, 51693.684, 0.0000000000166348, 10.000678, 9.999268 
1.0749421e+3, 1.7465314e+2, -1188082.6, -1287389.0, -7077.771, 0.011683022, -0.07332151, -1187580.6, 40807.81, 0.0, 10.000598, 9.999281 
1.0749579e+3, 1.8465208e+2, -1116552.1, -1227505.1, -22875.281, 0.0062273405, -0.095617495, -1112021.0, 18377.639, 0.0, 10.000525, 9.999054 
1.0749735e+3, 1.9465046e+2, -1025502.94, -1131482.9, -28843.787, 0.0004149633, -0.16480868, -1018161.3, 14252.524, 0.0, 10.000472, 9.999065 
1.074989e+3, 2.0464969e+2, -915354.4, -965785.75, -37321.332, 0.0005994258, -0.17228149, -895528.8, 38891.61, 0.0, 10.000289, 9.9996195 
1.0750045e+3, 2.1464993e+2, -863012.4, -885839.44, -27375.504, 0.008315238, -0.11286055, -844766.4, -8349.433, 0.0, 9.999958, 9.999655 
1.07502e+3, 2.2464953e+2, -797834.9, -823048.44, -6931.5557, -0.0045197965, -0.10787631, -796054.94, -57634.613, 0.0, 9.999816, 9.999481 
1.07503556e+3, 2.346484e+2, -688051.06, -718347.25, -13119.363, -0.041412927, -0.170767, -683159.6, -42727.977, 0.0, 9.999892, 9.999491 
1.07505105e+3, 2.4464802e+2, -582670.4, -561252.6, -39086.484, -0.04877728, -0.17977437, -531434.56, 11000.753, 0.0, 9.999704, 9.999987 
1.07506655e+3, 2.546485e+2, -553125.9, -491477.88, -36270.094, -0.021646399, -0.1332057, -474703.16, -30273.102, 0.0, 9.999214, 10.000029 
1.07508205e+3, 2.6464865e+2, -473353.44, -397324.84, -9776.538, -0.01797922, -0.122970335, -396087.8, -49659.805, 0.0, 9.999068, 10.0000725 
1.07509755e+3, 2.746484e+2, -337452.78, -277894.53, 1362.2766, -0.041574553, -0.15833312, -277863.38, -29434.031, 0.0, 9.999314, 10.0001 
1.0751129e+3, 2.8464803e+2, -284985.0, -261689.75, -18258.23, -0.05633158, -0.17629066, -251680.27, -101247.88, 0.0, 9.99926, 9.999565 
1.0751282e+3, 2.9464757e+2, -243268.11, -190159.28, -35636.83, -0.06079922, -0.18007998, -172271.36, -119834.055, 0.0, 9.99887, 9.999571 
1.07514404e+3, 3.0464727e+2, -144748.27, -46330.91, 1267.3649, -0.043938044, -0.19617115, -46314.594, -46314.594, 0.0, 9.998904, 10.000208 
1.0751608e+3, 3.146481e+2, -65301.95, -1815.0812, 14912.762, -0.0041209306, -0.13837981, 1513.355, 1513.355, 0.0, 9.999422, 10.000264 
1.0848636e+3, 1.2464021e+2, -1557716.0, -1739293.8, -30625.885, 0.0026630368, -0.09766625, -1552689.6, 165825.56, 0.0005868495, 10.001518, 9.999098 
1.0848808e+3, 1.3463931e+2, -1533965.5, -1684524.1, 3122.037, 0.12755997, -0.09108481, -1533900.8, 86624.39, 0.00027068684, 10.001032, 9.999041 
1.08489476e+3, 1.4463799e+2, -1441622.1, -1541440.6, -9003.115, -0.05359637, -0.14547837, -1440816.6, 81721.86, 0.00006622561, 10.00079, 9.999462 
1.084911e+3, 1.5463777e+2, -1334139.8, -1434774.0, -20221.797, 0.007885438, -0.11805686, -1330228.4, 94311.35, 0.000003027, 10.000836, 9.999498 
1.084927e+3, 1.6463739e+2, -1259675.5, -1374865.5, -16499.465, 0.027062586, -0.09159188, -1257358.8, 69184.26, 0.000000000186287, 10.00079, 9.99926 
1.0849425e+3, 1.7463692e+2, -1183583.4, -1285564.8, -17463.998, -0.003033061, -0.066867016, -1180675.6, 47872.41, 0.0, 10.000632, 9.999275 
1.0849582e+3, 1.8463589e+2, -1119209.1, -1221515.1, -25476.725, -0.012795152, -0.08789733, -1113215.9, 17341.783, 0.0, 10.000477, 9.999118 
1.0849739e+3, 1.9463421e+2, -1040652.8, -1131640.4, -15131.293, 0.00094178703, -0.16807099, -1038202.44, -5629.6406, 0.0, 10.000338, 9.999129 
1.0849892e+3, 2.0463344e+2, -926173.56, -977426.94, -29405.824, 0.0057064183, -0.1779349, -912794.75, 21784.795, 0.0, 10.000242, 9.999562 
1.0850045e+3, 2.146337e+2, -832442.1, -877726.3, -44576.38, -0.00018582841, -0.111030966, -805087.06, 31489.389, 0.0, 10.000196, 9.999596 
1.0850198e+3, 2.2463337e+2, -771114.8, -796816.25, -27133.799, -0.011380735, -0.103133515, -753942.5, -15363.162, 0.0, 9.999942, 9.9996 
1.0850353e+3, 2.3463234e+2, -743872.44, -730942.3, -10352.853, -0.029303027, -0.16793196, -725201.7, -84612.664, 0.0, 9.999448, 9.999618 
1.0850506e+3, 2.44632e+2, -649945.75, -599232.9, -27141.662, -0.03592524, -0.17663676, -587446.06, -44853.79, 0.0, 9.999267, 9.999936 
1.0850658e+3, 2.5463247e+2, -523329.84, -483264.3, -36429.05, -0.0289613, -0.12758176, -461723.2, -17135.0, 0.0, 9.999445, 9.999973 
1.085081e+3, 2.646326e+2, -431324.16, -367568.1, -22079.014, -0.029447353, -0.11692825, -360668.66, -14082.537, 0.0, 9.999316, 10.000157 
1.0850967e+3, 2.7463245e+2, -401360.06, -298662.75, -26108.695, -0.038806535, -0.15371883, -292406.28, -43820.223, 0.0, 9.998833, 10.00019 
1.08511195e+3, 2.8463212e+2, -355945.8, -295778.16, -33477.254, -0.04938879, -0.1739611, -280853.5, -130264.914, 0.0, 9.998772, 9.999566 
1.0851272e+3, 2.946316e+2, -194621.28, -166834.66, -18931.748, -0.060868267, -0.18178017, -157245.31, -104651.25, 0.0, 9.999205, 9.999569 
1.0851431e+3, 3.0463117e+2, -95651.38, -27124.48, 20459.914, -0.051316854, -0.20976256, -21480.635, -21480.635, 0.0, 9.999261, 10.000168 
1.0851597e+3, 3.1463206e+2, -144929.86, -42585.164, -977.8308, -0.018656513, -0.13982068, -42575.824, -42575.824, 0.0, 9.998886, 10.000242 
1.0948652e+3, 1.24623805e+2, -1537082.4, -1695654.0, -40170.117, 0.012000235, -0.123433195, -1527487.0, 191189.89, 0.00066827383, 10.001514, 9.999399 
1.09488174e+3, 1.3462374e+2, -1514845.8, -1644244.8, -14976.555, 0.1174239, -0.061812736, -1513135.0, 107542.95, 0.00031450897, 10.001029, 9.999318 
1.0948954e+3, 1.446225e+2, -1459997.8, -1579523.9, -7940.377, -0.07076769, -0.10938866, -1459472.5, 63217.543, 0.000080840386, 10.000789, 9.999202 
1.0949122e+3, 1.5462166e+2, -1353984.0, -1476589.3, -18377.072, 0.037668847, -0.11472261, -1351288.8, 73409.055, 0.0000043066148, 10.000838, 9.999211 
1.0949281e+3, 1.6462086e+2, -1262434.1, -1381068.4, -22684.623, 0.057200216, -0.11293266, -1258244.5, 68461.0, 0.0000000006358386, 10.000792, 9.999217 
1.094943e+3, 1.7462021e+2, -1185880.9, -1290627.3, -23774.053, -0.027166422, -0.103472196, -1180737.5, 47975.043, 0.0, 10.000633, 9.999241 
1.0949584e+3, 1.8461953e+2, -1099790.3, -1181944.4, -31683.008, -0.04654034, -0.099771015, -1088991.1, 41727.473, 0.0, 10.00048, 9.999389 
1.09497435e+3, 1.9461887e+2, -1020697.25, -1090587.5, -20930.865, 0.010291181, -0.108759224, -1014908.4, 17815.004, 0.0, 10.000339, 9.999412 
1.0949898e+3, 2.0461799e+2, -952040.06, -1031069.56, -31904.87, 0.02237046, -0.12432736, -940767.6, -6036.5557, 0.0, 10.000241, 9.999194 
1.0950045e+3, 2.1461691e+2, -859643.2, -934773.0, -46750.94, -0.017786184, -0.15286884, -837235.0, -492.7923, 0.0, 10.000198, 9.999204 
1.0950195e+3, 2.2461648e+2, -742306.3, -737860.3, -45931.81, -0.028766079, -0.15324152, -694097.75, 44648.242, 0.0, 9.999945, 10.000005 
1.0950349e+3, 2.346168e+2, -712802.2, -667119.25, -29209.727, -0.005767714, -0.12597989, -652880.5, -12139.234, 0.0, 9.99945, 10.000055 
1.0950502e+3, 2.4461675e+2, -662846.5, -626378.25, -21394.502, -0.008594638, -0.12199163, -616501.75, -73760.234, 0.0, 9.999268, 9.99975 
1.095065e+3, 2.546162e+2, -538291.6, -514139.22, -29259.9, -0.0415541, -0.15033166, -494561.4, -49814.03, 0.0, 9.999444, 9.999763 
1.0950802e+3, 2.6461595e+2, -439572.4, -384338.56, -38955.02, -0.052177154, -0.1642604, -364204.16, -17454.346, 0.0, 9.999314, 10.000043 
1.0950954e+3, 2.7461603e+2, -408595.0, -314228.88, -43497.133, -0.037133284, -0.16548824, -297238.4, -48490.46, 0.0, 9.998835, 10.000082 
1.095111e+3, 2.8461608e+2, -328091.44, -238452.86, -17908.023, -0.032070853, -0.15852506, -235007.61, -84261.38, 0.0, 9.998774, 9.999959 
1.0951266e+3, 2.946162e+2, -166505.39, -107188.06, -1949.7383, -0.037545312, -0.14901067, -107124.05, -54379.414, 0.0, 9.999199, 9.999983 
1.0951424e+3, 3.0461544e+2, -128639.58, -94159.89, 7576.5083, -0.04632771, -0.2054948, -92568.49, -92568.49, 0.0, 9.999253, 9.999712 
1.0951582e+3, 3.1461543e+2, -176762.06, -109320.32, -13642.134, -0.061798945, -0.17786774, -106665.305, -106665.305, 0.0, 9.998888, 9.9997835 
1.1048665e+3, 1.2460793e+2, -1567660.5, -1717601.6, -9093.828, 0.00045267702, -0.1316039, -1567111.0, 151721.31, 0.00075577793, 10.001334, 9.999336 
1.10488296e+3, 1.34608e+2, -1478460.0, -1638189.0, -24578.867, 0.12026071, -0.04517939, -1474763.4, 146069.25, 0.00036234639, 10.001327, 9.999217 
1.1048964e+3, 1.4460672e+2, -1405440.6, -1556956.9, -19075.623, -0.07694561, -0.09093749, -1403076.0, 119769.42, 0.00009737699, 10.00118, 9.999168 
1.104913e+3, 1.5460573e+2, -1352926.8, -1479392.0, -10514.744, 0.030711986, -0.108160116, -1352058.5, 72795.69, 0.0000060098255, 10.000862, 9.999181 
1.10492885e+3, 1.6460483e+2, -1281178.4, -1398101.1, -2879.2754, 0.056040492, -0.11212359, -1281107.5, 45755.383, 0.0000000015512864, 10.0007, 9.999144 
1.10494375e+3, 1.7460409e+2, -1175684.0, -1294370.8, -7257.887, -0.014994676, -0.102184184, -1175241.9, 53629.25, 0.0, 10.000741, 9.999163 
1.10495895e+3, 1.8460345e+2, -1075263.5, -1169549.3, -31239.166, -0.034105066, -0.091897056, -1065852.5, 65024.594, 0.0, 10.000646, 9.999393 
1.1049746e+3, 1.9460294e+2, -1013333.1, -1085675.6, -41750.9, 0.006925935, -0.08674688, -994264.0, 38616.56, 0.0, 10.000384, 9.999422 
1.1049899e+3, 2.046021e+2, -962566.8, -1028116.9, -44981.56, 0.017976843, -0.10158998, -939686.3, -4798.57, 0.0, 10.000135, 9.999266 
1.1050046e+3, 2.1460095e+2, -897109.25, -944600.1, -24854.826, -0.005778474, -0.14492337, -886480.2, -49581.043, 0.0, 9.999907, 9.999276 
1.1050195e+3, 2.2460045e+2, -779232.4, -764500.25, -29429.621, -0.013853028, -0.15203936, -741528.9, -2625.3496, 0.0, 9.99973, 9.999925 
1.1050346e+3, 2.3460072e+2, -694950.7, -668122.2, -52600.688, -0.0037867436, -0.12270181, -627252.25, 13647.474, 0.0, 9.999615, 9.9999695 
1.1050494e+3, 2.4460065e+2, -633531.0, -606359.6, -46879.09, -0.008368371, -0.11608602, -571137.3, -28237.371, 0.0, 9.999444, 9.999803 
1.10506445e+3, 2.5460023e+2, -568289.9, -522118.22, -35100.414, -0.030353084, -0.14070724, -503192.22, -58287.555, 0.0, 9.99921, 9.99982 
1.1050795e+3, 2.6459995e+2, -479630.4, -408952.97, -40682.25, -0.044277653, -0.15762296, -390404.13, -43496.836, 0.0, 9.999063, 9.999994 
1.10509425e+3, 2.7459985e+2, -385514.1, -308935.88, -41676.363, -0.048898928, -0.16993958, -290630.16, -41722.914, 0.0, 9.999019, 10.00003 
1.1051096e+3, 2.8459996e+2, -304103.84, -224967.55, -12707.103, -0.044320364, -0.1570978, -222977.19, -72071.875, 0.0, 9.998931, 9.999976 
1.1051256e+3, 2.946003e+2, -224871.1, -133223.97, -25263.156, -0.027820392, -0.1223837, -126721.38, -73820.06, 0.0, 9.99879, 10.000001 
1.1051415e+3, 3.0459955e+2, -185475.1, -106149.12, -18141.328, -0.040478278, -0.18922797, -102197.195, -102197.195, 0.0, 9.998798, 9.999847 
1.10515684e+3, 3.1459954e+2, -145982.31, -73056.45, 5033.6865, -0.088805355, -0.17394973, -72710.64, -72710.64, 0.0, 9.999009, 9.999973 
1.1148674e+3, 1.2459263e+2, -1599790.0, -1782228.4, 3737.812, -0.036004353, -0.12526846, -1599713.4, 119267.695, 0.00085057894, 10.001325, 9.998897 
1.1148844e+3, 1.3459216e+2, -1513045.4, -1711121.6, -24689.684, 0.13608259, -0.042819146, -1510014.3, 110974.57, 0.00041499882, 10.00133, 9.998715 
1.1148976e+3, 1.4459068e+2, -1390060.9, -1526450.6, -31304.508, -0.071944185, -0.09197785, -1383219.0, 139785.19, 0.00011616446, 10.001185, 9.999375 
1.1149133e+3, 1.5459004e+2, -1336663.8, -1445453.4, -22865.15, -0.015553471, -0.09739777, -1332053.4, 92955.11, 0.000008247579, 10.000861, 9.9994135 
1.1149291e+3, 1.6458936e+2, -1288759.6, -1414087.1, -2357.539, 0.020828467, -0.08783436, -1288715.3, 38299.453, 0.0000000033697685, 10.0007, 9.999034 
1.114945e+3, 1.7458864e+2, -1183950.0, -1312306.1, -5801.951, 0.033510435, -0.062461678, -1183688.3, 45334.734, 0.0, 10.000744, 9.999039 
1.11496024e+3, 1.8458769e+2, -1093755.6, -1208203.8, -41282.035, 0.024674252, -0.063725814, -1080419.1, 50613.605, 0.0, 10.000646, 9.999128 
1.11497484e+3, 1.9458646e+2, -1031796.25, -1124964.0, -52234.195, -0.0097034415, -0.102275275, -1008391.06, 24653.004, 0.0, 10.000387, 9.999151 
1.11498974e+3, 2.0458582e+2, -926376.75, -954093.2, -54685.367, -0.008478873, -0.110536985, -883821.0, 51228.25, 0.0, 10.000139, 9.999772 
1.1150049e+3, 2.1458584e+2, -859094.3, -865863.75, -34073.445, 0.034880318, -0.08791915, -828237.94, 8809.071, 0.0, 9.999907, 9.999818 
1.1150196e+3, 2.2458531e+2, -818868.5, -846519.75, -34508.41, 0.03252425, -0.09976766, -795519.2, -56467.668, 0.0, 9.999729, 9.999363 
1.1150339e+3, 2.3458411e+2, -737235.0, -756515.94, -57002.87, -0.023159718, -0.15702428, -689063.1, -47999.195, 0.0, 9.999617, 9.999362 
1.1150487e+3, 2.4458379e+2, -613877.75, -565846.5, -55420.344, -0.03554979, -0.15829483, -529462.06, 13605.189, 0.0, 9.999445, 10.000081 
1.1150641e+3, 2.545845e+2, -546134.2, -476230.06, -43392.094, 0.0029701446, -0.09988004, -455463.9, -10404.017, 0.0, 9.99921, 10.000135 
1.11507885e+3, 2.6458457e+2, -478362.9, -406779.22, -42420.473, -0.0069493735, -0.09869192, -387068.34, -40009.813, 0.0, 9.9990635, 10.00001 
1.115093e+3, 2.745839e+2, -385411.56, -308936.06, -42780.156, -0.0746288, -0.16778532, -289795.53, -40731.668, 0.0, 9.999019, 10.00003 
1.1151081e+3, 2.8458372e+2, -328243.34, -274953.44, -17398.814, -0.08655723, -0.16947478, -269775.88, -118710.2, 0.0, 9.998929, 9.999634 
1.1151244e+3, 2.9458404e+2, -250104.75, -185542.92, -29289.676, -0.031538524, -0.10046607, -174235.52, -121171.99, 0.0, 9.998789, 9.999641 
1.11514024e+3, 3.045835e+2, -137431.92, -6851.306, -10283.977, -0.033757586, -0.16027486, -6046.3457, -6046.3457, 0.0, 9.998799, 10.00053 
1.1151557e+3, 3.145844e+2, -91216.01, 41419.133, 13130.331, -0.10357126, -0.12516615, 42706.49, 42706.49, 0.0, 9.999004, 10.000763 
1.1248688e+3, 1.2457706e+2, -1579192.8, -1768532.5, -11819.276, -0.046981838, -0.11211282, -1578457.8, 140676.14, 0.00095378526, 10.001452, 9.998929 
1.1248856e+3, 1.3457629e+2, -1548636.5, -1730972.1, -18306.607, 0.13746431, -0.055903208, -1546816.6, 74327.625, 0.00047316175, 10.001099, 9.998691 
1.1248986e+3, 1.4457475e+2, -1425716.8, -1546516.9, -11691.187, -0.07377165, -0.10910716, -1424595.8, 98564.55, 0.00013752929, 10.000955, 9.999349 
1.1249143e+3, 1.5457438e+2, -1308250.1, -1435550.0, -23889.162, -0.01577704, -0.08419282, -1303914.8, 121247.59, 0.00001111389, 10.001072, 9.999381 
1.1249299e+3, 1.6457373e+2, -1248349.1, -1401264.0, -12350.742, 0.023363218, -0.06670242, -1247358.0, 79810.39, 0.0000000061074554, 10.001005, 9.998975 
1.12494566e+3, 1.7457278e+2, -1192178.1, -1322638.3, -11411.448, 0.040014703, -0.05969698, -1191187.4, 37991.375, 0.0, 10.000715, 9.998981 
1.1249608e+3, 1.8457171e+2, -1110644.1, -1216870.8, -35355.92, 0.03249485, -0.069645226, -1099952.6, 31237.027, 0.0, 10.000533, 9.999123 
1.1249753e+3, 1.9457051e+2, -1016903.3, -1118203.6, -26378.928, -0.0038731147, -0.10563854, -1010445.8, 22755.127, 0.0, 10.000492, 9.999147 
1.12499e+3, 2.045699e+2, -894143.9, -939646.3, -39625.242, -0.007364175, -0.107979126, -871202.9, 64002.797, 0.0, 10.000365, 9.999763 
1.1250049e+3, 2.1457003e+2, -826270.75, -850978.94, -61172.96, 0.027633876, -0.07549218, -776216.9, 60985.82, 0.0, 10.000136, 9.999808 
1.1250196e+3, 2.245695e+2, -786765.5, -834316.75, -59530.773, 0.028933188, -0.08539134, -746438.1, -7230.8486, 0.0, 9.999964, 9.999333 
1.1250338e+3, 2.345682e+2, -704328.1, -743675.44, -39423.137, -0.008924352, -0.14923258, -679942.3, -38721.684, 0.0, 9.999857, 9.999334 
1.1250483e+3, 2.4456781e+2, -596505.75, -562415.6, -35711.367, -0.021039147, -0.15224713, -539890.06, 3334.515, 0.0, 9.999587, 10.000035 
1.1250631e+3, 2.5456852e+2, -562562.5, -489275.22, -51326.14, -0.0035015158, -0.09060256, -462854.38, -17637.004, 0.0, 9.999121, 10.000089 
1.12507775e+3, 2.6456857e+2, -499921.44, -429462.8, -53062.035, -0.014724768, -0.08255812, -401000.03, -53783.59, 0.0, 9.99897, 9.999899 
1.1250923e+3, 2.7456793e+2, -368446.75, -313506.97, -61701.137, -0.059829496, -0.1398102, -273437.06, -24214.639, 0.0, 9.999191, 9.999915 
1.1251073e+3, 2.8456765e+2, -303297.53, -259887.11, -42231.26, -0.07541347, -0.14212094, -234109.75, -82884.99, 0.0, 9.999088, 9.9996605 
1.1251228e+3, 2.9456788e+2, -273131.2, -192939.4, -26637.533, -0.055664316, -0.089815274, -184897.6, -131674.48, 0.0, 9.998615, 9.999675 
1.1251387e+3, 3.0456716e+2, -188518.44, -47454.055, -650.18994, -0.06030876, -0.159861, -47451.06, -47451.06, 0.0, 9.998518, 10.000387 
1.1251548e+3, 3.1456834e+2, -116982.24, 20881.215, -39989.426, -0.090457305, -0.086558565, 31641.002, 31641.002, 0.0, 9.998862, 10.00069 
1.13487035e+3, 1.2456126e+2, -1542096.4, -1691384.0, -11677.277, -0.031324573, -0.09235583, -1541188.5, 178102.02, 0.0010657869, 10.001452, 9.999459 
1.1348866e+3, 1.345605e+2, -1516428.3, -1662335.1, -32312.303, 0.12229302, -0.08357185, -1509592.8, 111705.45, 0.00053702114, 10.001091, 9.999166 
1.1348994e+3, 1.4455903e+2, -1445801.4, -1587109.5, -8006.477, -0.08485303, -0.14194402, -1445349.1, 77963.73, 0.00016162105, 10.000949, 9.999073 
1.1349158e+3, 1.5455882e+2, -1329637.3, -1480841.8, -19363.678, 0.030401412, -0.06881454, -1327196.8, 98118.46, 0.000014669085, 10.001076, 9.999068 
1.1349314e+3, 1.6455802e+2, -1248193.4, -1402206.9, -23395.045, 0.06431889, -0.048735913, -1244718.0, 82605.37, 0.000000009421829, 10.00101, 9.998967 
1.13494605e+3, 1.7455655e+2, -1191209.5, -1321572.4, -22946.871, 0.0030858542, -0.09451614, -1187288.3, 42049.76, 0.0, 10.000719, 9.998987 
1.13496095e+3, 1.8455556e+2, -1092269.9, -1179698.5, -38251.76, -0.012957191, -0.11065548, -1077896.9, 53450.53, 0.0, 10.000537, 9.999377 
1.1349761e+3, 1.945551e+2, -998085.06, -1079375.9, -28434.725, 0.023922365, -0.09695914, -989126.2, 44224.44, 0.0, 10.000492, 9.999414 
1.1349906e+3, 2.0455444e+2, -931657.0, -1017231.3, -48634.92, 0.021331225, -0.09345825, -909666.9, 25689.705, 0.0, 10.000363, 9.999231 
1.1350044e+3, 2.1455355e+2, -865545.1, -933385.0, -70256.93, -0.028125005, -0.10726048, -821448.4, 15917.377, 0.0, 10.000139, 9.999242 
1.1350189e+3, 2.2455303e+2, -751947.44, -762559.06, -64491.83, -0.025893027, -0.1090226, -692543.56, 46826.977, 0.0, 9.999966, 9.9998255 
1.13503404e+3, 2.34553e+2, -666348.8, -664819.3, -43645.39, 0.03778488, -0.10082425, -621932.0, 19437.875, 0.0, 9.999856, 9.999876 
1.1350485e+3, 2.4455276e+2, -621889.5, -615236.4, -52866.37, 0.03439515, -0.09927993, -565592.0, -22220.266, 0.0, 9.999587, 9.999673 
1.13506176e+3, 2.5455233e+2, -590359.25, -547630.4, -68485.91, -0.049263947, -0.11164656, -497253.88, -51877.152, 0.0, 9.999124, 9.999687 
1.1350761e+3, 2.6455203e+2, -516263.8, -463596.38, -45116.1, -0.06766124, -0.1075992, -437690.97, -90310.42, 0.0, 9.99897, 9.999664 
1.1350919e+3, 2.7455193e+2, -384210.66, -346341.9, -51936.875, -0.0072633284, -0.086051576, -309995.63, -60613.137, 0.0, 9.999191, 9.99969 
1.1351069e+3, 2.8455186e+2, -276577.25, -205635.84, -58453.27, -0.013697878, -0.07598631, -172732.9, -21350.527, 0.0, 9.999092, 10.000031 
1.135121e+3, 2.945518e+2, -244687.48, -135033.14, -43936.715, -0.10064774, -0.091368, -119600.414, -66220.08, 0.0, 9.998619, 10.000072 
1.13513656e+3, 3.045506e+2, -252196.39, -180168.92, 11810.596, -0.12039063, -0.18737014, -178281.75, -178281.75, 0.0, 9.998519, 9.9994755 
1.1351539e+3, 3.1455144e+2, -178642.3, -106103.63, -24577.803, -0.0537001, -0.046132546, -98560.49, -98560.49, 0.0, 9.998857, 9.999821 
1.1448717e+3, 1.2454564e+2, -1550071.3, -1683859.8, 17394.244, -0.03165972, -0.082679845, -1547846.9, 171597.75, 0.001186206, 10.001349, 9.99956 
1.1448876e+3, 1.3454485e+2, -1511312.3, -1657527.3, -54649.184, 0.117765754, -0.078707024, -1493144.1, 128307.82, 0.00060623896, 10.001115, 9.999188 
1.1449004e+3, 1.4454338e+2, -1438765.4, -1585030.3, -24475.69, -0.08549012, -0.13652755, -1434778.3, 88688.15, 0.00018835878, 10.001003, 9.999062 
1.144917e+3, 1.5454319e+2, -1337056.5, -1485721.8, -13208.758, 0.043537743, -0.060659055, -1335892.0, 89576.92, 0.000018936791, 10.001031, 9.999056 
1.1449325e+3, 1.6454235e+2, -1254529.1, -1406811.8, -15859.385, 0.077124044, -0.044924006, -1252895.0, 74582.59, 0.000000013934886, 10.000974, 9.998953 
1.1449468e+3, 1.7454073e+2, -1176263.5, -1316318.4, -17522.447, -0.0013483769, -0.10403744, -1174104.5, 55388.88, 0.0, 10.000829, 9.998971 
1.1449614e+3, 1.8453975e+2, -1073840.6, -1168477.4, -38607.523, -0.021851443, -0.118030325, -1060088.8, 71413.664, 0.0, 10.000653, 9.999397 
1.14497654e+3, 1.9453953e+2, -1004045.44, -1079467.1, -47711.164, 0.025692888, -0.08323418, -980941.25, 52562.25, 0.0, 10.000441, 9.999438 
1.144991e+3, 2.0453885e+2, -944521.56, -1034102.44, -61087.7, 0.025485199, -0.07891128, -913563.1, 21946.758, 0.0, 10.000322, 9.999134 
1.1450046e+3, 2.145376e+2, -846672.4, -935374.25, -47987.85, -0.031492464, -0.115930036, -825679.3, 11843.21, 0.0, 10.000319, 9.999142 
1.1450189e+3, 2.2453706e+2, -728577.44, -747071.94, -46349.43, -0.031144094, -0.11851317, -690561.8, 48966.016, 0.0, 10.000109, 9.999862 
1.1450338e+3, 2.3453732e+2, -692576.4, -672681.3, -63377.37, 0.03646249, -0.08466261, -618475.56, 23048.605, 0.0, 9.999657, 9.999918 
1.145048e+3, 2.4453714e+2, -643967.8, -637691.6, -78374.99, 0.038515404, -0.075276665, -562391.94, -18866.244, 0.0, 9.999487, 9.999566 
1.14506125e+3, 2.5453645e+2, -520685.5, -526699.4, -73190.164, -0.036700644, -0.100591324, -450440.53, -4907.311, 0.0, 9.999657, 9.999574 
1.14507556e+3, 2.64536e+2, -440236.16, -435401.78, -32837.535, -0.0570302, -0.103988595, -404892.6, -57353.766, 0.0, 9.999529, 9.999589 
1.14509106e+3, 2.745358e+2, -410144.75, -367007.13, -28784.922, -0.012780495, -0.08412103, -352606.72, -103065.0, 0.0, 9.999049, 9.999617 
1.1451058e+3, 2.8453574e+2, -310198.75, -233354.25, -44979.008, -0.019726636, -0.063892476, -212620.94, -61079.348, 0.0, 9.998912, 9.9999275 
1.14512e+3, 2.945358e+2, -169911.66, -111197.72, -67238.46, -0.086739674, -0.055255268, -67186.836, -13648.352, 0.0, 9.999186, 9.999962 
1.1451354e+3, 3.0453432e+2, -187868.0, -167120.06, -6970.7407, -0.11071578, -0.16807629, -164995.61, -164995.61, 0.0, 9.99904, 9.999313 
1.1451524e+3, 3.145347e+2, -247235.84, -142932.52, 13143.278, -0.07593943, -0.056887876, -141301.81, -141301.81, 0.0, 9.998405, 9.999784 
1.1548728e+3, 1.2453026e+2, -1576949.9, -1736373.6, 25270.281, -0.051543243, -0.083800204, -1573040.3, 146554.95, 0.0013141764, 10.001336, 9.999206 
1.1548888e+3, 1.3452941e+2, -1543455.0, -1724110.3, -63757.945, 0.12278921, -0.03990453, -1523219.8, 98385.305, 0.0006802459, 10.001115, 9.998732 
1.15490146e+3, 1.4452791e+2, -1419481.1, -1546632.6, -24871.145, -0.0758757, -0.09044042, -1414789.4, 108830.88, 0.00021757523, 10.001008, 9.999324 
1.1549177e+3, 1.5452759e+2, -1315968.6, -1442604.8, -12665.153, 0.021913655, -0.059110783, -1314714.4, 110908.35, 0.000023929451, 10.001033, 9.9993515 
1.1549332e+3, 1.6452675e+2, -1255700.5, -1409738.6, -21659.117, 0.059411477, -0.055382203, -1252713.0, 74917.52, 0.000000023716384, 10.000976, 9.998932 
1.1549479e+3, 1.7452537e+2, -1178914.3, -1321783.1, -23335.098, 0.026487587, -0.088041425, -1175199.5, 54444.855, 0.0, 10.000829, 9.998934 
1.1549624e+3, 1.8452437e+2, -1089345.3, -1200885.1, -47154.918, 0.0059970804, -0.09101565, -1072081.9, 59572.313, 0.0, 10.000653, 9.999176 
1.1549767e+3, 1.9452384e+2, -1019345.06, -1112471.4, -56323.094, 0.000014920917, -0.064474694, -992830.06, 40829.098, 0.0, 10.000444, 9.99921 
1.1549911e+3, 2.0452315e+2, -920600.56, -985465.3, -62482.066, 0.003044938, -0.064636506, -882635.0, 53030.285, 0.0, 10.000326, 9.999467 
1.1550054e+3, 2.1452227e+2, -821192.0, -882531.1, -48790.203, 0.017223671, -0.10213938, -794232.5, 43440.164, 0.0, 10.000318, 9.999505 
1.1550194e+3, 2.2452162e+2, -757836.25, -807659.94, -63320.92, 0.013416, -0.114218146, -714702.94, 24975.795, 0.0, 10.000108, 9.999447 
1.15503296e+3, 2.3452123e+2, -723927.06, -738493.1, -80539.18, -0.012838133, -0.09965432, -650342.3, -8659.158, 0.0, 9.99966, 9.999465 
1.155047e+3, 2.4452098e+2, -634246.1, -617833.44, -72975.0, -0.009359323, -0.07944831, -552604.8, -8918.888, 0.0, 9.999488, 9.999702 
1.15506165e+3, 2.5452092e+2, -508951.9, -502524.56, -66246.836, 0.0312878, -0.058636375, -439413.5, 6273.227, 0.0, 9.999657, 9.99974 
1.1550758e+3, 2.6452047e+2, -434935.1, -424961.44, -49541.777, 0.014449923, -0.073231526, -380156.13, -32464.842, 0.0, 9.999531, 9.9996605 
1.1550895e+3, 2.7451956e+2, -405228.5, -357362.06, -46351.805, -0.074399896, -0.13258147, -329129.3, -79429.3, 0.0, 9.999051, 9.999682 
1.1551041e+3, 2.8451937e+2, -348593.1, -312821.5, -34925.527, -0.09182448, -0.1036666, -291468.34, -139766.23, 0.0, 9.99891, 9.999383 
1.1551198e+3, 2.9452e+2, -210748.78, -195654.23, -54734.883, -0.019983172, 0.018421246, -147948.73, -94251.69, 0.0, 9.999184, 9.999383 
1.1551351e+3, 3.0451834e+2, -151469.06, -92444.875, -28310.775, -0.037381295, -0.10277049, -81061.2, -81061.2, 0.0, 9.9990425, 9.999826 
1.1551499e+3, 3.145181e+2, -196156.61, -38706.05, -9928.465, -0.15449154, -0.11222275, -38082.453, -38082.453, 0.0, 9.998412, 10.000498 
1.1648741e+3, 1.24514624e+2, -1597571.8, -1741885.5, 21383.104, -0.04949664, -0.08467432, -1594470.0, 125278.92, 0.0014487223, 10.001176, 9.999246 
1.16488986e+3, 1.3451385e+2, -1528840.9, -1720570.1, -52732.055, 0.11917237, -0.030054452, -1515294.9, 106463.44, 0.0007585872, 10.00123, 9.9987 
1.1649026e+3, 1.4451241e+2, -1397537.5, -1536288.3, -6085.1934, -0.07475471, -0.07136389, -1397271.1, 126501.77, 0.00024917058, 10.001161, 9.99932 
1.1649187e+3, 1.5451194e+2, -1328692.1, -1449459.9, -17199.393, 0.0139463525, -0.05390849, -1326290.4, 99486.4, 0.000029664654, 10.000948, 9.999346 
1.1649341e+3, 1.6451116e+2, -1269362.1, -1406400.9, -32994.79, 0.052394982, -0.051356915, -1261831.8, 65952.3, 0.00000004774233, 10.00084, 9.999021 
1.1649487e+3, 1.7450997e+2, -1167538.4, -1305790.4, -25412.736, 0.033215083, -0.071773484, -1163015.1, 66780.445, 0.0, 10.000863, 9.999026 
1.1649632e+3, 1.84509e+2, -1071593.5, -1200552.9, -42072.785, 0.01615284, -0.07453292, -1059081.4, 72723.9, 0.0, 10.000812, 9.999102 
1.1649773e+3, 1.9450825e+2, -990905.0, -1107878.8, -40460.45, -0.00003056996, -0.060926713, -978273.94, 55538.89, 0.0, 10.00068, 9.999128 
1.1649915e+3, 2.0450756e+2, -895470.44, -969852.3, -50342.055, 0.0024603691, -0.059998, -870071.56, 65747.71, 0.0, 10.000484, 9.999497 
1.1650057e+3, 2.1450688e+2, -833365.0, -884410.3, -61536.434, 0.027626105, -0.08036861, -792268.3, 45556.01, 0.0, 10.000217, 9.999539 
1.1650195e+3, 2.245062e+2, -767192.94, -823089.2, -79988.88, 0.019745512, -0.09320945, -710410.2, 29420.553, 0.0, 10.000092, 9.999348 
1.1650327e+3, 2.3450547e+2, -662020.8, -720272.06, -72202.26, -0.027688948, -0.10052077, -613291.0, 28547.549, 0.0, 10.000135, 9.99936 
1.16504654e+3, 2.4450514e+2, -564829.1, -583872.9, -53443.33, -0.024568198, -0.084600836, -520066.1, 23776.275, 0.0, 9.999963, 9.999706 
1.1650613e+3, 2.5450525e+2, -526987.06, -510117.84, -58594.426, 0.038785875, -0.047751397, -459354.06, -13512.6875, 0.0, 9.99953, 9.999749 
1.1650753e+3, 2.6450485e+2, -464666.88, -436010.75, -52639.324, 0.026637627, -0.05873427, -395784.34, -47939.246, 0.0, 9.999313, 9.999688 
1.16508864e+3, 2.745039e+2, -357810.2, -331455.16, -52694.98, -0.0770305, -0.12816373, -290315.03, -40461.11, 0.0, 9.999364, 9.999709 
1.1651032e+3, 2.845036e+2, -312136.38, -315975.9, -23476.236, -0.094980635, -0.100052446, -290501.53, -138644.47, 0.0, 9.99925, 9.999198 
1.165119e+3, 2.9450408e+2, -260441.4, -241431.56, -16221.38, -0.007991869, 0.029910984, -232135.52, -178281.08, 0.0, 9.998938, 9.9991865 
1.16513416e+3, 3.0450234e+2, -190881.5, -95468.95, -828.4741, -0.026369892, -0.096955605, -95461.76, -95461.76, 0.0, 9.998704, 9.999969 
1.1651485e+3, 3.1450233e+2, -150756.78, 19160.297, -11699.411, -0.15929602, -0.10328613, 19962.06, 19962.06, 0.0, 9.998569, 10.000821 
1.1748755e+3, 1.24498785e+2, -1565536.8, -1675437.6, 37963.586, -0.025382783, -0.082817964, -1553698.0, 166207.38, 0.001589411, 10.001175, 9.999703 
1.174891e+3, 1.3449821e+2, -1499627.5, -1660118.1, -51152.62, 0.10563647, -0.05001135, -1484710.4, 137200.73, 0.0008411694, 10.001229, 9.999116 
1.1749036e+3, 1.4449698e+2, -1417390.3, -1577349.3, -14272.322, -0.083664104, -0.08035147, -1416126.8, 107796.84, 0.0002831922, 10.00116, 9.999039 
1.1749197e+3, 1.5449637e+2, -1351009.0, -1495343.9, -25629.762, 0.0193086, -0.045138534, -1346593.0, 79337.42, 0.000036181405, 10.000946, 9.999031 
1.17493495e+3, 1.6449559e+2, -1255669.0, -1378614.6, -33169.383, 0.0556581, -0.032336697, -1247291.3, 80646.76, 0.00000010132158, 10.000841, 9.999211 
1.1749495e+3, 1.7449461e+2, -1151459.0, -1273508.8, -24893.98, 0.017199092, -0.054820582, -1146576.8, 83369.766, 0.0, 10.000866, 9.999248 
1.17496386e+3, 1.8449368e+2, -1065897.5, -1189655.9, -47635.26, 0.006263026, -0.06794716, -1049686.0, 82269.266, 0.0, 10.000815, 9.999175 
1.1749782e+3, 1.9449283e+2, -986111.44, -1098261.1, -45994.094, 0.026216196, -0.07258855, -969661.5, 64302.53, 0.0, 10.000681, 9.999194 
1.1749922e+3, 2.0449209e+2, -914566.8, -1009932.0, -60904.5, 0.024595436, -0.06529898, -884899.6, 51071.734, 0.0, 10.000485, 9.999222 
1.1750057e+3, 2.1449149e+2, -853704.8, -926966.06, -72019.336, -0.0019189784, -0.05074026, -809535.75, 28441.297, 0.0, 10.000218, 9.999248 
1.1750193e+3, 2.2449082e+2, -752825.2, -793588.25, -79484.516, -0.014245313, -0.055383608, -691150.7, 48832.688, 0.0, 10.0000925, 9.999551 
1.1750329e+3, 2.3449008e+2, -645405.1, -686128.06, -70776.125, -0.008961908, -0.08785954, -592119.8, 49870.36, 0.0, 10.000135, 9.999595 
1.17504664e+3, 2.4448961e+2, -573768.3, -602700.06, -69192.805, -0.007700414, -0.091265656, -517545.38, 26449.436, 0.0, 9.999964, 9.9995775 
1.1750603e+3, 2.5448945e+2, -536903.2, -531305.0, -74581.34, -0.012782019, -0.066741645, -459470.25, -13473.338, 0.0, 9.999532, 9.999602 
1.1750742e+3, 2.6448917e+2, -465024.63, -437455.56, -51006.813, -0.019175678, -0.059425216, -398403.47, -50403.617, 0.0, 9.999315, 9.999678 
1.1750885e+3, 2.7448875e+2, -358029.34, -332108.63, -49529.813, -0.026189234, -0.07292663, -293871.6, -43868.316, 0.0, 9.999363, 9.999705 
1.1751029e+3, 2.844884e+2, -302347.13, -295977.6, -33929.965, -0.035537645, -0.055258974, -265083.25, -113076.77, 0.0, 9.99925, 9.999335 
1.1751176e+3, 2.9448813e+2, -249547.05, -220024.84, -27549.002, -0.047859695, -0.018470127, -203531.55, -149520.78, 0.0, 9.998941, 9.999332 
1.1751323e+3, 3.0448636e+2, -202598.83, -120938.5, -5523.6865, -0.074396834, -0.14818396, -120566.56, -120566.56, 0.0, 9.998709, 9.999791 
1.1751476e+3, 3.1448737e+2, -151781.3, 16713.11, -14622.009, -0.10003775, -0.029134594, 17972.6, 17972.6, 0.0, 9.9985695, 10.000805 
1.18487686e+3, 1.24483235e+2, -1536030.8, -1661856.8, 75315.875, -0.019742604, -0.08027539, -1500808.5, 219249.8, 0.0017368259, 10.001382, 9.999695 
1.1848922e+3, 1.3448259e+2, -1518051.6, -1673954.8, -65581.05, 0.11145594, -0.051382083, -1494134.0, 127930.805, 0.00092832, 10.001124, 9.999072 
1.1849049e+3, 1.4448145e+2, -1438077.1, -1587158.8, -35922.84, -0.06441081, -0.07022933, -1429872.6, 94203.79, 0.0003198089, 10.001019, 9.999039 
1.1849207e+3, 1.5448076e+2, -1330627.3, -1484881.4, -23630.066, 0.012916048, -0.042236924, -1327088.6, 98995.41, 0.0000435681, 10.001084, 9.999036 
1.18493564e+3, 1.6447997e+2, -1228268.5, -1356962.4, -24190.316, 0.04038429, -0.034984417, -1223871.8, 104219.85, 0.00000019883093, 10.000994, 9.999286 
1.1849502e+3, 1.7447905e+2, -1167430.8, -1272125.8, -26998.953, 0.01347227, -0.060046524, -1160878.4, 69220.9, 0.0, 10.000718, 9.999328 
1.1849646e+3, 1.8447822e+2, -1103654.1, -1202800.1, -55331.965, 0.009181049, -0.06789834, -1078936.4, 53170.52, 0.0, 10.000535, 9.999219 
1.1849788e+3, 1.9447756e+2, -1014096.3, -1106895.1, -55758.75, 0.029629836, -0.058409326, -987956.44, 46157.992, 0.0, 10.000468, 9.999237 
1.1849926e+3, 2.0447685e+2, -922377.06, -1013926.06, -62740.824, 0.022823093, -0.050473697, -890487.44, 45634.25, 0.0, 10.000433, 9.999219 
1.1850058e+3, 2.1447608e+2, -821660.7, -911709.6, -52653.047, -0.015870053, -0.0513841, -797406.44, 40722.258, 0.0, 10.00044, 9.999245 
1.1850194e+3, 2.244754e+2, -727337.3, -783149.2, -57598.6, -0.023127394, -0.056192692, -691240.56, 48894.527, 0.0, 10.000277, 9.999534 
1.1850332e+3, 2.3447482e+2, -680052.2, -704675.06, -67989.12, 0.007086883, -0.070668094, -623268.8, 18871.943, 0.0, 9.999907, 9.9995775 
1.18504666e+3, 2.4447441e+2, -600633.4, -611490.9, -70009.625, 0.0040522525, -0.070606545, -535842.3, 8302.665, 0.0, 9.999763, 9.999614 
1.1850597e+3, 2.5447416e+2, -480477.22, -499904.53, -62391.5, -0.039654948, -0.0597115, -427047.75, 19099.842, 0.0, 9.999902, 9.9996395 
1.1850735e+3, 2.644738e+2, -397978.53, -415837.78, -35362.797, -0.045959976, -0.05676475, -370435.34, -22284.268, 0.0, 9.999824, 9.999581 
1.18508816e+3, 2.744733e+2, -349529.84, -339359.22, -42246.547, -0.0069556474, -0.06446934, -301893.0, -51737.813, 0.0, 9.999473, 9.999602 
1.1851024e+3, 2.8447297e+2, -308919.78, -295056.06, -37205.723, -0.011772738, -0.045898497, -264141.97, -111983.26, 0.0, 9.999189, 9.999371 
1.1851163e+3, 2.944727e+2, -237688.36, -209675.61, -38242.734, -0.069453776, -0.012650164, -182955.02, -128792.375, 0.0, 9.999003, 9.999373 
1.18513085e+3, 3.0447087e+2, -201948.08, -139313.22, -18650.734, -0.09384088, -0.14092049, -134180.25, -134180.25, 0.0, 9.998795, 9.999623 
1.1851465e+3, 3.1447178e+2, -156671.58, 16140.466, -28535.504, -0.054230835, -0.017054508, 20730.463, 20730.463, 0.0, 9.9985285, 10.000819 
1.1948781e+3, 1.24468036e+2, -1572050.1, -1735729.8, 80846.29, -0.034751568, -0.07999955, -1538851.4, 181355.69, 0.0018922538, 10.001378, 9.999189 
1.1948936e+3, 1.3446702e+2, -1555568.8, -1751553.9, -75848.57, 0.13650486, -0.033093866, -1529643.9, 92574.98, 0.00102056, 10.001123, 9.99854 
1.1949064e+3, 1.4446586e+2, -1418033.3, -1545996.8, -34765.9, -0.017005181, -0.039029285, -1409197.9, 115033.03, 0.0003592124, 10.001019, 9.999322 
1.1949215e+3, 1.5446518e+2, -1306923.8, -1436588.8, -21528.322, -0.006607205, -0.044664364, -1303442.8, 122793.984, 0.00005194898, 10.001087, 9.999366 
1.1949364e+3, 1.6446432e+2, -1231373.3, -1364166.0, -34576.016, 0.0045982297, -0.058659267, -1222909.9, 105334.305, 0.00000035173326, 10.000996, 9.999235 
1.194951e+3, 1.7446329e+2, -1171817.5, -1281813.5, -37910.965, 0.022474479, -0.0881433, -1160017.1, 70236.11, 0.0, 10.00072, 9.999261 
1.19496524e+3, 1.8446265e+2, -1102470.6, -1200920.9, -58939.133, 0.0250337, -0.075752944, -1074904.3, 57355.684, 0.0, 10.000537, 9.999231 
1.194979e+3, 1.9446248e+2, -1012582.0, -1104065.6, -58799.09, 0.008146699, -0.018458802, -983827.9, 50435.824, 0.0, 10.000468, 9.999256 
1.19499266e+3, 2.0446187e+2, -903888.44, -975798.94, -63340.566, -0.005357839, -0.014343427, -867009.56, 69260.23, 0.0, 10.000434, 9.999481 
1.1950064e+3, 2.1446072e+2, -801762.56, -871081.44, -53097.016, -0.013880484, -0.081544995, -773014.06, 65264.758, 0.0, 10.000442, 9.999523 
1.1950198e+3, 2.2445998e+2, -743165.1, -816849.4, -71455.695, -0.0066072983, -0.095540844, -699612.9, 40672.84, 0.0, 10.000278, 9.999301 
1.1950332e+3, 2.3445976e+2, -698062.2, -742579.2, -81982.78, 0.019728143, -0.048923247, -635370.06, 6919.882, 0.0, 9.9999075, 9.999317 
1.1950465e+3, 2.4445955e+2, -587283.2, -584338.44, -65838.875, 0.009742967, -0.022475362, -519955.47, 24337.094, 0.0, 9.9997635, 9.9998 
1.1950596e+3, 2.5445935e+2, -465659.75, -468866.84, -56702.582, -0.044417366, -0.027980827, -410538.03, 35755.313, 0.0, 9.999899, 9.999854 
1.1950731e+3, 2.6445875e+2, -411908.75, -444453.44, -47149.277, -0.056541856, -0.051716186, -378302.8, -30004.08, 0.0, 9.999821, 9.999387 
1.1950874e+3, 2.744576e+2, -363981.3, -370567.94, -54904.973, -0.017633002, -0.10031903, -312270.97, -61961.52, 0.0, 9.999476, 9.999387 
1.19510144e+3, 2.8445727e+2, -311329.3, -301609.13, -43997.63, -0.021704892, -0.06985293, -262203.97, -109890.51, 0.0, 9.999196, 9.999323 
1.1951152e+3, 2.9445776e+2, -241568.84, -216941.97, -43648.49, -0.07865635, 0.04360923, -183903.33, -129593.17, 0.0, 9.999, 9.999325 
1.19512975e+3, 3.0445588e+2, -216204.58, -168401.73, -27181.656, -0.09163641, -0.07854276, -156107.58, -156107.58, 0.0, 9.998791, 9.999426 
1.1951454e+3, 3.1445557e+2, -155299.77, 16010.1, -36910.773, -0.02075054, -0.05633596, 23624.521, 23624.521, 0.0, 9.99854, 10.000813 
1.2048797e+3, 1.24452904e+2, -1530930.8, -1718898.1, 61579.754, -0.01282241, -0.037659828, -1512553.4, 207804.14, 0.0020569195, 10.001675, 9.999162 
1.2048946e+3, 1.3445155e+2, -1521533.1, -1737845.4, -71630.71, 0.12580675, -0.023694156, -1499963.8, 122408.18, 0.0011183886, 10.0013685, 9.998515 
1.20490745e+3, 1.4445034e+2, -1403204.8, -1539926.4, -11961.098, -0.009058699, -0.03362034, -1402166.3, 122217.78, 0.00040151636, 10.001126, 9.9993105 
1.2049226e+3, 1.5444961e+2, -1326516.0, -1446692.6, -24728.818, 0.001942133, -0.04074789, -1321626.5, 104763.68, 0.000061428385, 10.0009575, 9.999358 
1.20493725e+3, 1.6444884e+2, -1253311.3, -1358827.6, -50745.45, 0.011195901, -0.05394206, -1232867.5, 95529.32, 0.00000057087306, 10.000778, 9.999375 
1.2049516e+3, 1.7444797e+2, -1179473.1, -1269231.3, -38476.746, 0.02423846, -0.08163487, -1165237.1, 65166.793, 0.0, 10.000598, 9.999405 
1.2049657e+3, 1.8444741e+2, -1107203.4, -1200918.5, -43946.555, 0.020930156, -0.069930546, -1089819.8, 42590.066, 0.0, 10.000494, 9.999251 
1.20497935e+3, 1.944472e+2, -1010608.94, -1101322.4, -44386.887, -0.0035262157, -0.015626693, -992503.6, 41910.33, 0.0, 10.000475, 9.999271 
1.20499305e+3, 2.0444667e+2, -905400.2, -960199.9, -55717.723, -0.0147050405, -0.012179962, -870709.6, 65709.79, 0.0, 10.000354, 9.999626 
1.2050066e+3, 2.144457e+2, -839934.5, -872329.25, -55101.52, -0.009403898, -0.077419676, -798699.06, 39727.395, 0.0, 10.000106, 9.999676 
1.20502e+3, 2.2444506e+2, -773038.3, -826290.8, -67795.66, -0.001835346, -0.09135584, -726827.7, 13604.472, 0.0, 10.000052, 9.999345 
1.2050332e+3, 2.3444486e+2, -646298.5, -713291.8, -56779.863, 0.008509862, -0.046506636, -613871.1, 28565.033, 0.0, 10.000245, 9.999355 
1.2050464e+3, 2.4444464e+2, -536918.5, -569882.44, -41233.035, 0.0020609226, -0.019262077, -508995.28, 35443.816, 0.0, 10.000153, 9.999711 
1.2050596e+3, 2.5444436e+2, -500906.28, -495969.56, -55669.426, -0.025198914, -0.021940175, -442713.78, 3727.0515, 0.0, 9.9997015, 9.999763 
1.205073e+3, 2.6444373e+2, -460688.3, -469858.13, -50469.37, -0.0404267, -0.04291649, -414596.0, -66149.31, 0.0, 9.999496, 9.999368 
1.2050868e+3, 2.744426e+2, -345760.63, -363202.16, -43351.29, -0.041366056, -0.08798531, -310261.66, -59804.402, 0.0, 9.999609, 9.999373 
1.2051006e+3, 2.844422e+2, -271801.28, -292058.78, -32905.58, -0.04808374, -0.060103785, -247500.84, -95038.95, 0.0, 9.999509, 9.999236 
1.2051145e+3, 2.944425e+2, -230494.19, -221792.47, -37902.87, -0.061419643, 0.042538173, -187991.55, -133531.2, 0.0, 9.999122, 9.999232 
1.2051288e+3, 3.044406e+2, -216935.83, -186420.45, -16692.135, -0.06553913, -0.07117678, -179063.45, -179063.45, 0.0, 9.998863, 9.999266 
1.2051441e+3, 3.1444016e+2, -118490.805, 37928.258, -21971.158, -0.023173839, -0.044198714, 40955.805, 40955.805, 0.0, 9.998777, 10.000849 
1.21488206e+3, 1.2443796e+2, -1498724.3, -1652373.9, 60157.86, 0.04650316, 0.05258168, -1477973.3, 242535.47, 0.0022312584, 10.001676, 9.999619 
1.2148955e+3, 1.3443619e+2, -1485953.4, -1665232.0, -83750.55, 0.076744206, -0.02389874, -1452916.9, 169606.55, 0.0012220372, 10.001373, 9.999012 
1.21490836e+3, 1.4443487e+2, -1424679.9, -1585605.5, -19169.055, -0.044010494, -0.05560976, -1422428.0, 102107.3, 0.0004466493, 10.001129, 9.998996 
1.21492386e+3, 1.5443413e+2, -1351086.9, -1498489.4, -31398.602, 0.038840156, -0.031272914, -1344677.3, 81866.375, 0.00007201624, 10.000959, 9.999002 
1.2149386e+3, 1.6443354e+2, -1230730.6, -1312151.3, -58450.402, 0.06068961, -0.021378083, -1200210.5, 128338.43, 0.0000008702971, 10.000779, 9.999696 
1.2149522e+3, 1.7443313e+2, -1154353.3, -1217175.3, -45603.875, 0.017615104, -0.039443407, -1130389.5, 100161.2, 0.0, 10.000598, 9.999763 
1.21496595e+3, 1.8443254e+2, -1105682.6, -1197808.8, -45549.273, -0.0051434045, -0.048072286, -1086965.0, 45590.766, 0.0, 10.000493, 9.999273 
1.2149799e+3, 1.9443181e+2, -1009568.1, -1100486.9, -45526.473, -0.005209054, -0.04960613, -990690.75, 43874.086, 0.0, 10.00048, 9.999275 
1.2149934e+3, 2.044313e+2, -902518.8, -955683.0, -65510.063, -0.005238499, -0.045331135, -858403.1, 78167.24, 0.0, 10.000359, 9.999655 
1.21500686e+3, 2.1443105e+2, -837740.9, -867649.94, -64942.66, -0.0037490984, -0.039801486, -786053.2, 52518.082, 0.0, 10.000105, 9.999709 
1.21502005e+3, 2.2443068e+2, -751880.5, -782033.3, -62043.74, -0.010143401, -0.04340519, -703107.7, 37466.47, 0.0, 10.000051, 9.99965 
1.2150331e+3, 2.3443016e+2, -623616.1, -666401.7, -49721.97, -0.026690885, -0.0628886, -590880.1, 51699.137, 0.0, 10.000245, 9.999678 
1.2150463e+3, 2.444297e+2, -561739.7, -621927.8, -57021.86, -0.019621052, -0.060522728, -527357.8, 17226.566, 0.0, 10.000154, 9.999354 
1.2150597e+3, 2.5442925e+2, -527952.3, -553225.0, -72171.086, 0.016978407, -0.040065877, -467319.7, -20729.963, 0.0, 9.999705, 9.999369 
1.2150729e+3, 2.644288e+2, -449745.75, -448256.8, -46970.254, 0.0015132716, -0.029361729, -402025.13, -53430.395, 0.0, 9.999499, 9.999515 
1.2150859e+3, 2.744283e+2, -333818.88, -337455.3, -38028.14, -0.08057675, -0.030567322, -297565.5, -46966.75, 0.0, 9.999604, 9.999553 
1.2150996e+3, 2.8442776e+2, -282462.6, -313289.34, -45406.234, -0.093897715, -0.019435005, -249924.97, -97320.66, 0.0, 9.999504, 9.999094 
1.215114e+3, 2.9442692e+2, -240633.38, -244930.95, -51878.902, -0.018890277, -0.012279351, -190858.78, -136245.61, 0.0, 9.999129, 9.99907 
1.21512815e+3, 3.04425e+2, -222339.9, -200198.27, -19864.602, -0.016143542, -0.114992075, -188527.81, -188527.81, 0.0, 9.998874, 9.9991665 
1.2151423e+3, 3.1442556e+2, -112503.98, 50981.758, -22792.947, -0.06546421, 0.019613814, 54100.04, 54100.04, 0.0, 9.998774, 10.00094 
1.224884e+3, 1.24422796e+2, -1501110.8, -1649445.9, 101251.11, 0.083204366, 0.07379412, -1449768.9, 270890.6, 0.002414319, 10.001644, 9.999653 
1.2248968e+3, 1.3442107e+2, -1470963.3, -1649119.0, -85613.055, 0.06286739, -0.007764232, -1436491.8, 186181.64, 0.0013311396, 10.00144, 9.999088 
1.2249096e+3, 1.4441985e+2, -1411906.8, -1572717.8, -23851.395, -0.033243317, -0.035627328, -1408443.8, 116240.05, 0.0004943066, 10.001191, 9.999053 
1.2249251e+3, 1.54419e+2, -1357668.5, -1495509.3, -5553.247, 0.059269413, -0.026095342, -1357445.1, 69247.39, 0.000083587045, 10.000889, 9.999056 
1.22493945e+3, 1.6441841e+2, -1243923.8, -1323180.6, -24673.502, 0.07588213, -0.017879214, -1236870.3, 91827.55, 0.0000012652538, 10.000709, 9.999654 
1.2249528e+3, 1.744181e+2, -1148444.5, -1218811.6, -42761.055, 0.011733369, -0.01931473, -1128253.0, 102446.086, 0.0, 10.000659, 9.999721 
1.2249663e+3, 1.8441762e+2, -1092384.8, -1171682.6, -54026.035, -0.014158088, -0.026330147, -1065019.9, 67683.57, 0.0, 10.000502, 9.999449 
1.2249802e+3, 1.9441688e+2, -1034238.44, -1091240.3, -40310.914, 0.0027284382, -0.045841902, -1013370.6, 21340.908, 0.0, 10.00022, 9.999463 
1.2249938e+3, 2.0441642e+2, -935200.7, -966916.7, -49877.836, 0.0037342953, -0.047649167, -898720.56, 37995.57, 0.0, 10.000115, 9.999695 
1.2250068e+3, 2.1441631e+2, -817486.3, -854018.06, -49763.72, -0.01291168, -0.033548947, -782742.06, 55974.36, 0.0, 10.000228, 9.999743 
1.22502e+3, 2.2441605e+2, -724699.0, -756735.75, -52020.8, -0.024187109, -0.033634696, -686286.25, 54432.17, 0.0, 10.000185, 9.999759 
1.2250331e+3, 2.344156e+2, -659249.75, -670702.4, -55734.848, -0.029282724, -0.055876385, -608947.8, 33774.426, 0.0, 9.999946, 9.999791 
1.2250463e+3, 2.4441515e+2, -610824.2, -649394.9, -66200.945, -0.019457055, -0.056482088, -561156.75, -16429.613, 0.0, 9.999834, 9.999318 
1.2250593e+3, 2.5441465e+2, -502887.0, -545833.94, -56384.973, 0.008054495, -0.038110573, -464024.94, -17291.553, 0.0, 9.999899, 9.999325 
1.2250724e+3, 2.644142e+2, -413210.88, -438782.25, -23168.691, -0.007197343, -0.02301887, -399534.1, -50795.26, 0.0, 9.999786, 9.999441 
1.2250855e+3, 2.7441376e+2, -363799.3, -360177.0, -33819.027, -0.07600704, -0.013372431, -328120.66, -77377.805, 0.0, 9.999435, 9.999476 
1.225099e+3, 2.8441316e+2, -317334.34, -322868.66, -45613.58, -0.08424394, -0.0050775874, -274404.06, -121655.41, 0.0, 9.999235, 9.999156 
1.2251131e+3, 2.944122e+2, -219568.08, -226955.3, -35252.09, -0.016146852, -0.015110236, -187816.63, -133058.84, 0.0, 9.999241, 9.999139 
1.22512706e+3, 3.0441034e+2, -198218.22, -210538.88, 1853.3566, -0.020775482, -0.104503, -197945.45, -197945.45, 0.0, 9.999134, 9.998969 
1.22514114e+3, 3.1441063e+2, -103789.18, 49280.44, -10313.31, -0.068963155, 0.021064842, 49972.19, 49972.19, 0.0, 9.998858, 10.000887 
1.23488575e+3, 1.2440746e+2, -1530131.8, -1709735.9, 100924.17, 0.09287694, 0.019391902, -1484840.9, 235968.22, 0.0026041293, 10.001643, 9.99924 
1.2348984e+3, 1.3440624e+2, -1495733.0, -1701473.4, -93459.14, 0.085168116, 0.024637341, -1459618.0, 163202.88, 0.0014447866, 10.001442, 9.99873 
1.2349112e+3, 1.4440535e+2, -1382131.1, -1511474.4, -36133.652, 0.024807207, 0.028348273, -1372721.3, 152107.13, 0.00054404186, 10.001193, 9.999474 
1.2349259e+3, 1.5440434e+2, -1324735.1, -1427811.1, -17143.65, 0.061939336, -0.024512744, -1321958.6, 104877.39, 0.00009593835, 10.000891, 9.99952 
1.2349399e+3, 1.6440351e+2, -1272557.5, -1382934.5, -27119.662, 0.054228876, -0.043059304, -1266254.1, 62588.85, 0.0000017602412, 10.000709, 9.999245 
1.2349534e+3, 1.7440298e+2, -1179798.1, -1285294.6, -44909.32, 0.0057342555, -0.022434985, -1163270.0, 67579.05, 0.0, 10.000664, 9.999263 
1.2349669e+3, 1.8440263e+2, -1068574.5, -1123550.4, -65316.184, -0.007104757, -0.0069953636, -1025197.9, 107654.875, 0.0, 10.000506, 9.999777 
1.2349806e+3, 1.944025e+2, -1007705.3, -1036349.3, -51487.05, 0.0197503, -0.004262691, -968585.4, 66268.125, 0.0, 10.00022, 9.999841 
1.234994e+3, 2.0440215e+2, -932442.4, -960984.8, -47051.465, 0.011691333, -0.017700737, -897545.44, 39310.906, 0.0, 10.0001135, 9.999737 
1.2350068e+3, 2.144015e+2, -815481.4, -850615.8, -46047.914, -0.037703343, -0.057734113, -783763.5, 55098.055, 0.0, 10.00023, 9.999765 
1.23501986e+3, 2.2440118e+2, -729922.9, -768699.56, -60885.33, -0.045208946, -0.06198643, -685413.44, 55451.23, 0.0, 10.000189, 9.999676 
1.23503335e+3, 2.3440123e+2, -665494.25, -683904.2, -64751.39, -0.00039078866, -0.025893155, -609296.8, 33567.95, 0.0, 9.999946, 9.9997015 
1.23504624e+3, 2.4440105e+2, -591995.1, -610458.3, -64609.832, 0.0016301107, -0.007296824, -535960.7, 8906.341, 0.0, 9.999833, 9.999586 
1.2350586e+3, 2.5440055e+2, -482804.9, -503949.28, -53508.113, -0.05189065, -0.017285421, -438834.56, 8037.365, 0.0, 9.999897, 9.999614 
1.23507164e+3, 2.643999e+2, -433894.94, -481800.75, -34834.67, -0.06668453, -0.024602333, -415572.6, -66693.44, 0.0, 9.999784, 9.999147 
1.23508535e+3, 2.7439892e+2, -386375.38, -408025.47, -46115.047, -0.030144883, -0.03363122, -349831.88, -98942.56, 0.0, 9.999437, 9.999147 
1.2350989e+3, 2.8439838e+2, -298611.84, -285184.53, -45534.73, -0.022260854, -0.014346425, -245871.2, -92976.46, 0.0, 9.999239, 9.9994135 
1.235112e+3, 2.9439828e+2, -199398.81, -184666.3, -33892.35, -0.054135002, 0.030140338, -157348.94, -102454.2, 0.0, 9.999239, 9.999431 
1.2351256e+3, 3.0439657e+2, -220382.97, -255596.02, -6783.8223, -0.0796742, -0.043336444, -219121.27, -219121.27, 0.0, 9.999129, 9.998663 
1.2351403e+3, 3.1439543e+2, -119452.57, 17442.553, -17739.8, -0.037399177, -0.028395528, 19704.037, 19704.037, 0.0, 9.998855, 10.00067 
1.24488756e+3, 1.2439286e+2, -1478766.9, -1693872.8, 108424.43, 0.09534992, 0.020381644, -1433599.5, 287353.3, 0.0027991196, 10.002038, 9.999157 
1.2449e+3, 1.3439165e+2, -1508015.6, -1711237.6, -67824.195, 0.09562441, 0.03191368, -1487459.0, 135505.9, 0.0015621701, 10.001375, 9.998694 
1.2449128e+3, 1.4439084e+2, -1397887.0, -1514001.0, 682.09686, 0.06948402, 0.042909052, -1397883.0, 127088.695, 0.00059554225, 10.001062, 9.999518 
1.24492675e+3, 1.5438986e+2, -1281822.5, -1400510.9, -11367.162, 0.049538255, -0.013800866, -1280743.6, 146234.88, 0.00010892916, 10.001159, 9.9995775 
1.2449405e+3, 1.6438901e+2, -1228914.6, -1365262.6, -28214.93, 0.027146824, -0.038068093, -1223306.8, 105678.945, 0.0000023447426, 10.001024, 9.999212 
1.2449541e+3, 1.7438835e+2, -1189544.9, -1294307.5, -14878.237, 0.017835565, -0.025824768, -1187472.9, 43520.273, 0.0, 10.000616, 9.999224 
1.2449675e+3, 1.8438798e+2, -1080167.6, -1125009.0, -25354.871, 0.015154603, -0.010065759, -1068742.3, 64254.727, 0.0, 10.000409, 9.999813 
1.244981e+3, 1.9438802e+2, -973943.56, -1015056.5, -37072.496, 0.01567426, 0.004303785, -952109.7, 82886.48, 0.0, 10.000431, 9.999885 
1.244994e+3, 2.0438775e+2, -897179.9, -936728.56, -43017.06, 0.0014633542, -0.004351885, -869609.8, 67388.195, 0.0, 10.000325, 9.999801 
1.2450071e+3, 2.1438715e+2, -835894.7, -852784.2, -39072.15, -0.02940156, -0.048373703, -804365.1, 34637.93, 0.0, 10.000058, 9.999833 
1.2450201e+3, 2.2438684e+2, -769979.7, -786025.9, -50354.465, -0.033272754, -0.05445195, -727013.1, 13992.845, 0.0, 9.999907, 9.999692 
1.2450332e+3, 2.3438692e+2, -669637.9, -683773.4, -47294.02, -0.0041988054, -0.017879546, -628886.44, 14119.603, 0.0, 9.999909, 9.99972 
1.245046e+3, 2.4438679e+2, -587438.6, -605647.2, -48670.383, -0.0090986835, 0.0038075643, -547028.3, -2020.4283, 0.0, 9.999854, 9.999609 
1.2450583e+3, 2.543864e+2, -506729.7, -512862.03, -57912.61, -0.057200715, 0.00016187222, -451802.13, -4790.072, 0.0, 9.9997225, 9.999637 
1.2450713e+3, 2.643857e+2, -460098.3, -488334.2, -45198.76, -0.06562895, -0.008502734, -426863.9, -77845.0, 0.0, 9.999579, 9.9992 
1.24508485e+3, 2.743847e+2, -382631.2, -399620.13, -28896.658, -0.023436297, -0.029279815, -361006.34, -109977.29, 0.0, 9.999436, 9.999206 
1.2450983e+3, 2.843841e+2, -291024.6, -287165.72, -17252.857, -0.016022362, -0.016920753, -271734.75, -118699.74, 0.0, 9.999316, 9.999362 
1.2451112e+3, 2.9438397e+2, -207681.89, -195195.38, -32273.865, -0.054720555, 0.030101482, -168566.45, -113530.57, 0.0, 9.99921, 9.999371 
1.24512464e+3, 3.0438253e+2, -241448.66, -256018.25, -16252.432, -0.082536824, -0.017348947, -230923.06, -230923.06, 0.0, 9.998943, 9.998748 
1.245139e+3, 3.1438115e+2, -160822.34, 19083.178, 5435.6016, -0.030356308, -0.034871507, 19247.258, 19247.258, 0.0, 9.998478, 10.000862 
1.2548897e+3, 1.2437914e+2, -1461080.4, -1658966.0, 85890.8, 0.089913644, 0.08247377, -1429000.6, 292088.6, 0.0029989923, 10.002045, 9.999394 
1.2549014e+3, 1.343774e+2, -1487456.9, -1669487.3, -93024.15, 0.09250754, 0.013373097, -1448328.9, 174775.75, 0.001683169, 10.001378, 9.9989805 
1.2549143e+3, 1.443764e+2, -1421354.4, -1562781.4, 2454.6863, 0.09820971, 0.00513425, -1421311.8, 103801.29, 0.0006488858, 10.001061, 9.999185 
1.2549277e+3, 1.5437561e+2, -1306534.3, -1452952.5, -7854.3936, 0.02091294, 0.0047141775, -1306114.1, 121005.38, 0.00012258759, 10.001163, 9.999216 
1.2549412e+3, 1.6437489e+2, -1204138.6, -1315473.8, -43730.84, -0.006291159, -0.0034666732, -1189015.9, 140109.48, 0.0000030126384, 10.00103, 9.999552 
1.254955e+3, 1.7437424e+2, -1162067.8, -1238471.6, -30656.219, 0.047820173, -0.028625268, -1151288.1, 79842.84, 0.0, 10.00062, 9.999605 
1.2549683e+3, 1.8437375e+2, -1098347.3, -1162943.6, -25714.727, 0.05244735, -0.034392156, -1089360.9, 43774.797, 0.0, 10.000409, 9.999554 
1.254981e+3, 1.9437347e+2, -994328.2, -1058399.0, -36670.305, -0.010760558, -0.02056278, -977670.9, 57468.254, 0.0, 10.000435, 9.999586 
1.2549941e+3, 2.0437329e+2, -890586.0, -924204.3, -53365.04, -0.028988896, -0.009107402, -851445.44, 85695.61, 0.0, 10.000329, 9.999886 
1.2550074e+3, 2.1437326e+2, -828009.0, -836838.8, -49598.703, 0.011552158, -0.0058812355, -782629.1, 56511.53, 0.0, 10.000058, 9.999943 
1.2550204e+3, 2.2437307e+2, -762201.75, -769989.3, -51501.977, 0.0115049165, -0.010718125, -714446.56, 26695.55, 0.0, 9.999906, 9.999803 
1.2550327e+3, 2.343727e+2, -661482.7, -667306.8, -47290.984, -0.040958352, -0.031270552, -617014.2, 26131.604, 0.0, 9.99991, 9.999832 
1.2550454e+3, 2.443724e+2, -602436.56, -637510.9, -53275.906, -0.05252249, -0.022983022, -563885.6, -18736.047, 0.0, 9.999856, 9.99939 
1.2550586e+3, 2.5437218e+2, -523347.4, -547894.2, -62238.086, -0.010099448, 0.014982923, -472184.1, -25030.543, 0.0, 9.9997225, 9.999396 
1.2550715e+3, 2.6437175e+2, -432926.6, -432600.25, -50056.848, -0.006633164, 0.02634679, -382706.3, -33548.48, 0.0, 9.999581, 9.999582 
1.255084e+3, 2.743711e+2, -352480.3, -337465.63, -33453.563, -0.055622317, -0.0017397037, -310687.38, -59524.977, 0.0, 9.999436, 9.999632 
1.2550971e+3, 2.843703e+2, -316016.84, -339617.1, -20484.607, -0.06449235, -0.014197317, -304176.7, -151006.86, 0.0, 9.999317, 9.999002 
1.2551108e+3, 2.9436928e+2, -236486.17, -255395.42, -35122.22, -0.020682711, -0.012486889, -209568.28, -154387.17, 0.0, 9.99921, 9.998959 
1.255124e+3, 3.0436823e+2, -209014.39, -188790.05, -32171.895, -0.033755794, -0.023779768, -165178.53, -165178.53, 0.0, 9.998943, 9.99921 
1.2551373e+3, 3.1436783e+2, -120263.14, 103100.33, -9626.483, -0.049909342, 0.0049473247, 103514.445, 103514.445, 0.0, 9.998479, 10.00144 
1.2648918e+3, 1.24365255e+2, -1499505.6, -1679967.9, 104727.12, 0.11288313, 0.093386404, -1451500.0, 269726.7, 0.0032043438, 10.001792, 9.9993725 
1.2649027e+3, 1.343636e+2, -1418325.6, -1635420.6, -95822.36, 0.06447135, 0.03075527, -1382081.9, 241159.34, 0.0018082228, 10.001851, 9.998986 
1.2649155e+3, 1.4436257e+2, -1343713.3, -1529905.8, 1005.9046, 0.101602614, 0.02171511, -1343707.9, 181542.02, 0.0007044779, 10.0016165, 9.999142 
1.2649289e+3, 1.5436162e+2, -1333798.5, -1471853.0, 14058.051, 0.030067192, 0.0110965725, -1332381.6, 94876.09, 0.00013709594, 10.001, 9.999165 
1.2649421e+3, 1.6436087e+2, -1251165.3, -1333433.6, -16995.217, 0.0027876594, 0.0006981728, -1247792.5, 81471.24, 0.0000037895563, 10.000688, 9.999594 
1.2649557e+3, 1.7436035e+2, -1139461.9, -1221653.4, -29378.977, 0.05236364, -0.015973553, -1130040.5, 101227.25, 0.0, 10.000751, 9.999657 
1.2649688e+3, 1.8435988e+2, -1066794.6, -1152765.8, -28953.934, 0.056504484, -0.020880437, -1057952.6, 75319.59, 0.0, 10.0006485, 9.999507 
1.2649816e+3, 1.9435945e+2, -1012508.1, -1072889.1, -21552.805, -0.004021925, -0.01643448, -1005604.25, 29672.963, 0.0, 10.000336, 9.999534 
1.2649944e+3, 2.0435925e+2, -917325.6, -936769.44, -31638.576, -0.0225129, -0.005278577, -893948.94, 43330.676, 0.0, 10.000146, 9.9998865 
1.2650076e+3, 2.1435934e+2, -820574.4, -832485.44, -36501.285, 0.014483362, 0.009006382, -789545.94, 49732.52, 0.0, 10.000108, 9.9999485 
1.2650204e+3, 2.2435924e+2, -742751.25, -754542.2, -42046.246, 0.010219635, 0.009301777, -706189.2, 35090.08, 0.0, 10.000013, 9.999856 
1.2650326e+3, 2.3435889e+2, -666862.4, -663439.0, -42269.574, -0.047225367, -0.0140522765, -622846.5, 20435.854, 0.0, 9.9998455, 9.999889 
1.2650451e+3, 2.4435855e+2, -619029.8, -645897.8, -42861.78, -0.055046927, -0.011353777, -587546.06, -42259.84, 0.0, 9.999744, 9.999386 
1.2650584e+3, 2.5435823e+2, -522503.9, -548150.2, -35488.08, 0.00065760594, 0.018120412, -497593.28, -50302.227, 0.0, 9.999732, 9.99939 
1.2650712e+3, 2.6435784e+2, -425476.63, -427379.3, -31129.729, 0.0028004677, 0.031915486, -395283.72, -45988.594, 0.0, 9.999626, 9.999597 
1.2650833e+3, 2.7435735e+2, -356803.13, -337757.16, -45500.58, -0.064570814, 0.018861191, -300793.7, -49495.49, 0.0, 9.999399, 9.999648 
1.2650962e+3, 2.8435656e+2, -329482.25, -338180.0, -32297.773, -0.075155854, 0.0015904882, -301241.88, -147936.2, 0.0, 9.99919, 9.999072 
1.26511e+3, 2.9435536e+2, -262603.22, -259513.1, -11735.367, -0.013408735, -0.023187747, -249221.52, -193903.02, 0.0, 9.998995, 9.999034 
1.265123e+3, 3.043546e+2, -227336.83, -200226.72, -11053.22, -0.02541399, -0.004195279, -196291.4, -196291.4, 0.0, 9.998829, 9.9991865 
1.2651359e+3, 3.143542e+2, -87099.15, 115354.37, -27866.775, -0.05531513, 0.025647184, 119120.055, 119120.055, 0.0, 9.998722, 10.001406 
1.274894e+3, 1.24351285e+2, -1520598.0, -1722441.3, 102408.11, 0.16269372, 0.05185181, -1477740.0, 243624.48, 0.0034160875, 10.001785, 9.999084 
1.2749039e+3, 1.343503e+2, -1436974.0, -1675605.4, -93230.17, 0.010457818, 0.08497099, -1404869.4, 218504.69, 0.0019378624, 10.001857, 9.998708 
1.2749168e+3, 1.4434943e+2, -1325065.8, -1494219.3, -21875.15, 0.078027286, 0.094992, -1322282.6, 203098.56, 0.0007627392, 10.001627, 9.999383 
1.2749302e+3, 1.5434796e+2, -1314820.5, -1433735.0, -9749.467, 0.07653153, 0.006091111, -1314026.5, 113365.81, 0.0001526722, 10.001004, 9.999425 
1.2749434e+3, 1.64347e+2, -1269705.5, -1371939.8, -16457.0, 0.054480284, -0.026050914, -1267121.6, 62278.504, 0.000004722807, 10.000687, 9.9993305 
1.2749563e+3, 1.7434675e+2, -1159559.1, -1264065.0, -27301.172, 0.030321946, 0.011403578, -1152856.9, 78546.33, 0.0, 10.000753, 9.999366 
1.2749693e+3, 1.8434642e+2, -1054469.0, -1128245.4, -40824.402, 0.025060102, 0.029770603, -1036335.7, 97070.81, 0.0, 10.000652, 9.999674 
1.2749822e+3, 1.9434603e+2, -998156.9, -1043927.2, -33836.473, 0.035855025, 0.0171686, -980193.06, 55216.953, 0.0, 10.000339, 9.999731 
1.274995e+3, 2.0434567e+2, -923464.6, -950036.0, -34258.977, 0.021574536, 0.0076288194, -900005.44, 37407.977, 0.0, 10.000147, 9.999796 
1.2750073e+3, 2.143454e+2, -827994.0, -848407.2, -38377.125, -0.021612646, -0.0034188097, -798489.4, 40926.934, 0.0, 10.000109, 9.999839 
1.27502e+3, 2.2434533e+2, -742698.44, -754849.5, -48670.79, -0.03897708, 0.005345723, -699725.44, 41691.797, 0.0, 10.000014, 9.999855 
1.2750326e+3, 2.343455e+2, -666305.56, -662634.5, -48596.78, -0.023656586, 0.033251457, -615838.6, 27576.824, 0.0, 9.999846, 9.999896 
1.2750453e+3, 2.4434528e+2, -605330.7, -617719.7, -43654.094, -0.017504666, 0.03871016, -567433.8, -22016.227, 0.0, 9.999744, 9.99958 
1.2750578e+3, 2.5434458e+2, -507595.6, -517440.72, -35446.348, -0.024915742, 0.009885809, -476731.63, -29307.045, 0.0, 9.999732, 9.999601 
1.2750705e+3, 2.64344e+2, -449242.97, -477600.56, -38597.207, -0.036763664, 0.008314291, -422302.66, -72871.83, 0.0, 9.999628, 9.999252 
1.2750828e+3, 2.7434352e+2, -383284.03, -393575.3, -52829.805, -0.05170579, 0.033010922, -335349.88, -83913.56, 0.0, 9.999401, 9.999265 
1.2750956e+3, 2.8434286e+2, -295928.0, -268697.75, -38702.273, -0.05070038, 0.03086011, -241285.61, -87843.21, 0.0, 9.99919, 9.99955 
1.2751088e+3, 2.9434213e+2, -225121.77, -181183.1, -18361.324, -0.032857127, -0.0032158361, -174520.45, -119072.02, 0.0, 9.998992, 9.999573 
1.2751216e+3, 3.0434167e+2, -261800.17, -271506.28, -14565.155, -0.05640472, 0.04027358, -251300.84, -251300.84, 0.0, 9.998826, 9.998699 
1.2751347e+3, 3.1434035e+2, -131546.33, 23586.795, -27545.504, -0.049187876, 0.035551757, 28332.604, 28332.604, 0.0, 9.998718, 10.000778 
1.2848961e+3, 1.2433825e+2, -1443895.4, -1692195.3, 113247.08, 0.17263542, 0.07629228, -1400003.3, 321490.53, 0.0036351434, 10.002344, 9.999022 
1.2849055e+3, 1.3433705e+2, -1443452.9, -1684796.1, -59271.844, -0.014750219, 0.09421816, -1429682.0, 193823.34, 0.002072395, 10.001839, 9.998653 
1.2849186e+3, 1.4433612e+2, -1345702.5, -1507372.9, 4566.9795, 0.09168947, 0.10258988, -1345573.6, 179939.33, 0.00082385907, 10.0015, 9.999353 
1.2849316e+3, 1.5433477e+2, -1266146.1, -1413296.9, -6434.757, 0.09449288, 0.026285406, -1265865.3, 161658.02, 0.00016942424, 10.001352, 9.999396 
1.2849443e+3, 1.6433379e+2, -1210328.6, -1350306.1, -8239.93, 0.066716544, -0.0021469041, -1209845.3, 119685.99, 0.00000585612, 10.001125, 9.999267 
1.2849571e+3, 1.7433341e+2, -1158352.8, -1270937.5, -1691.7063, 0.026050556, 0.02963133, -1158327.4, 73208.03, 0.0, 10.000794, 9.999298 
1.2849699e+3, 1.8433301e+2, -1068137.3, -1133401.5, -14720.274, 0.019616833, 0.04239529, -1064970.8, 68568.53, 0.0, 10.000553, 9.999686 
1.2849829e+3, 1.9433257e+2, -984034.94, -1034886.94, -22050.564, 0.04832838, 0.023734888, -975805.2, 59737.58, 0.0, 10.000427, 9.99975 
1.2849954e+3, 2.0433222e+2, -905073.25, -945316.0, -23586.098, 0.034519874, 0.014733995, -894191.8, 43354.313, 0.0, 10.000293, 9.999758 
1.2850073e+3, 2.1433198e+2, -826063.75, -851702.75, -22457.895, -0.03104274, 0.012873366, -813024.06, 26524.947, 0.0, 10.000142, 9.9998 
1.2850198e+3, 2.2433192e+2, -747687.4, -757977.9, -32785.703, -0.050541636, 0.023677113, -719645.6, 21904.498, 0.0, 9.999985, 9.999846 
1.2850326e+3, 2.34332e+2, -670591.2, -665169.4, -34647.33, -0.011751182, 0.04375808, -633127.06, 10421.826, 0.0, 9.99982, 9.99989 
1.2850451e+3, 2.4433175e+2, -611123.25, -616169.25, -31551.318, -0.0026608056, 0.044212155, -581994.25, -36443.164, 0.0, 9.999686, 9.999619 
1.2850575e+3, 2.5433108e+2, -524067.78, -520769.8, -36110.69, -0.033230606, 0.01481681, -486270.47, -38713.082, 0.0, 9.999599, 9.999642 
1.2850699e+3, 2.6433054e+2, -478771.5, -498077.28, -42497.496, -0.0480067, 0.016538022, -444844.4, -95280.94, 0.0, 9.999452, 9.999196 
1.2850823e+3, 2.7433005e+2, -413849.78, -415063.3, -34192.492, -0.04034431, 0.047792394, -380258.7, -128689.02, 0.0, 9.99922, 9.999204 
1.2850949e+3, 2.843294e+2, -307367.56, -261017.52, -16340.479, -0.03699938, 0.04370699, -255836.0, -102260.195, 0.0, 9.999055, 9.999668 
1.2851077e+3, 2.9432875e+2, -217367.84, -162673.3, -26358.467, -0.042824928, 0.0015172998, -152038.44, -96457.77, 0.0, 9.998982, 9.999705 
1.2851201e+3, 3.0432862e+2, -269188.2, -274277.5, -25216.932, -0.07530047, 0.06988171, -246387.84, -246387.84, 0.0, 9.998774, 9.998704 
1.2851332e+3, 3.1432697e+2, -187131.0, -17059.6, 4020.8198, -0.053817373, 0.034991965, -16964.594, -16964.594, 0.0, 9.998397, 10.000653 
1.2948982e+3, 1.24326274e+2, -1431095.3, -1668483.8, 84897.31, 0.13778064, 0.17056426, -1403858.4, 317755.13, 0.0038618036, 10.002356, 9.99918 
1.2949073e+3, 1.3432392e+2, -1431691.8, -1660471.6, -78352.99, -0.011274098, 0.057493083, -1407430.3, 216203.95, 0.0022117733, 10.001838, 9.998821 
1.2949206e+3, 1.4432271e+2, -1367209.0, -1552238.4, -2140.6536, 0.1427196, 0.04219823, -1367184.3, 158460.17, 0.000887706, 10.0015, 9.999046 
1.2949328e+3, 1.5432207e+2, -1288247.4, -1460710.6, -12034.496, 0.0831338, 0.071667895, -1287411.8, 140238.16, 0.0001872894, 10.001358, 9.999069 
1.2949452e+3, 1.643213e+2, -1199974.3, -1330681.8, -21104.465, 0.037639488, 0.07373027, -1196651.1, 133005.27, 0.0000072252774, 10.001132, 9.999398 
1.2949578e+3, 1.743204e+2, -1146544.1, -1247585.0, -14672.346, 0.039006397, 0.038800277, -1144456.8, 87207.16, 0.0, 10.000797, 9.999457 
1.2949705e+3, 1.8431966e+2, -1078411.6, -1155519.1, -20552.432, 0.0400251, 0.01649255, -1073275.6, 60394.645, 0.0, 10.000556, 9.999534 
1.294983e+3, 1.9431911e+2, -995811.3, -1060048.0, -27231.338, 0.032484233, 0.0032348544, -985821.06, 49854.094, 0.0, 10.000429, 9.999577 
1.2949954e+3, 2.043189e+2, -903814.25, -943060.1, -29944.164, 0.014564613, 0.01607456, -887636.1, 50041.395, 0.0, 10.000293, 9.999773 
1.2950076e+3, 2.1431912e+2, -823557.4, -847106.3, -28542.596, -0.013994958, 0.057241354, -804456.0, 35220.31, 0.0, 10.000143, 9.999831 
1.29502e+3, 2.24319e+2, -748850.94, -761117.25, -39378.258, -0.024564797, 0.063768044, -715131.06, 26546.65, 0.0, 9.999987, 9.999825 
1.2950324e+3, 2.3431842e+2, -672000.5, -668563.0, -40787.598, -0.012546083, 0.018426014, -629457.94, 14224.532, 0.0, 9.999821, 9.999867 
1.2950449e+3, 2.4431798e+2, -618973.5, -633173.9, -35042.94, -0.011660888, 0.005923932, -590318.7, -44632.137, 0.0, 9.999687, 9.999502 
1.2950571e+3, 2.5431776e+2, -532494.94, -538995.1, -38784.98, -0.024737166, 0.03258432, -496824.13, -49134.766, 0.0, 9.9996, 9.999517 
1.2950695e+3, 2.6431745e+2, -463350.7, -466572.34, -50057.13, -0.03204952, 0.056128744, -414878.47, -65185.438, 0.0, 9.999454, 9.999412 
1.2950815e+3, 2.7431697e+2, -396637.66, -379210.5, -41959.02, -0.031940114, 0.0633206, -345069.84, -93371.51, 0.0, 9.999219, 9.999452 
1.295094e+3, 2.8431615e+2, -323443.4, -295054.7, -18584.62, -0.03489984, 0.04087166, -285863.84, -132157.83, 0.0, 9.999056, 9.999434 
1.2951066e+3, 2.9431516e+2, -235749.08, -201393.88, -27770.1, -0.044258434, -0.007750995, -185918.02, -130202.91, 0.0, 9.998982, 9.99944 
1.2951188e+3, 3.0431536e+2, -236588.27, -205494.83, -37703.28, -0.08320381, 0.08528622, -180258.73, -180258.73, 0.0, 9.998769, 9.999179 
1.2951313e+3, 3.1431407e+2, -164537.2, 32480.531, -6634.726, -0.07082233, 0.031320125, 32703.709, 32703.709, 0.0, 9.998386, 10.0009985 
1.3049002e+3, 1.24313794e+2, -1453743.6, -1673007.4, 87136.516, 0.12459225, 0.18455184, -1423332.9, 298404.2, 0.004094851, 10.002175, 9.999234 
1.3049093e+3, 1.3431148e+2, -1411732.0, -1645630.9, -75353.02, -0.008953838, 0.07032936, -1389558.4, 234198.7, 0.0023553874, 10.001954, 9.998866 
1.3049226e+3, 1.4431025e+2, -1344597.3, -1555702.0, 8055.038, 0.18404365, 0.057526752, -1344290.3, 181477.17, 0.00095388794, 10.0017185, 9.998917 
1.3049342e+3, 1.5430945e+2, -1286598.3, -1475638.8, 12256.989, 0.08098286, 0.0845115, -1285806.9, 141968.02, 0.0002061118, 10.001438, 9.998927 
1.3049461e+3, 1.6430856e+2, -1196206.6, -1332430.4, 2017.6373, 0.022557521, 0.084704496, -1196176.8, 133605.86, 0.000008878666, 10.001175, 9.999366 
1.3049589e+3, 1.7430764e+2, -1127600.8, -1240652.3, -5775.4624, 0.052611828, 0.048826147, -1127306.5, 104483.42, 0.0, 10.000938, 9.999436 
1.3049713e+3, 1.8430685e+2, -1054838.6, -1149337.6, -10185.12, 0.057468645, 0.024142077, -1053753.4, 80043.195, 0.0, 10.000741, 9.999486 
1.3049833e+3, 1.9430621e+2, -976753.44, -1055807.9, -7522.4863, 0.020023255, 0.0072886054, -976044.0, 59758.207, 0.0, 10.000583, 9.999532 
1.3049956e+3, 2.0430592e+2, -900013.5, -947894.8, -11028.524, -0.0006748918, 0.018769993, -897595.4, 40209.84, 0.0, 10.000349, 9.999713 
1.305008e+3, 2.143061e+2, -846473.8, -864925.56, -17483.494, 0.0033574519, 0.061176274, -835931.3, 3873.2803, 0.0, 10.000016, 9.99977 
1.3050202e+3, 2.2430597e+2, -768471.0, -776368.9, -25637.352, -0.0011583845, 0.071284175, -746480.25, -4673.8594, 0.0, 9.999877, 9.999773 
1.3050322e+3, 2.343054e+2, -650247.7, -663528.06, -29140.146, -0.01795723, 0.03237547, -627000.75, 16810.38, 0.0, 9.999994, 9.999818 
1.3050444e+3, 2.443049e+2, -591518.5, -622794.7, -29199.893, -0.025165597, 0.019557403, -574032.8, -28217.129, 0.0, 9.999889, 9.9994755 
1.3050568e+3, 2.5430456e+2, -550571.56, -550538.7, -26708.605, -0.019353803, 0.0368789, -523846.53, -76026.89, 0.0, 9.99949, 9.999492 
1.3050689e+3, 2.6430425e+2, -483177.16, -469571.2, -33771.188, -0.02195201, 0.06008615, -441924.6, -92101.43, 0.0, 9.9992895, 9.99947 
1.3050808e+3, 2.7430394e+2, -371053.38, -359824.16, -39413.85, -0.035789356, 0.07791925, -325627.03, -73800.36, 0.0, 9.999365, 9.999514 
1.305093e+3, 2.843032e+2, -312966.2, -291993.5, -25547.928, -0.040518574, 0.055155095, -274863.56, -121029.31, 0.0, 9.999138, 9.999416 
1.3051055e+3, 2.9430205e+2, -307423.56, -237974.55, -18299.43, -0.03545852, -0.0058891606, -233447.81, -177602.67, 0.0, 9.9985, 9.999421 
1.3051175e+3, 3.0430248e+2, -303138.4, -214916.66, -18297.654, -0.07564059, 0.102945805, -211272.19, -211272.19, 0.0, 9.998216, 9.999381 
1.3051297e+3, 3.1430128e+2, -159541.75, 33048.57, -7534.482, -0.08568471, 0.037566006, 33342.887, 33342.887, 0.0, 9.998427, 10.000983 
1.3149025e+3, 1.2430089e+2, -1458481.3, -1682467.1, 64798.766, 0.13220754, 0.11703262, -1441086.0, 280777.6, 0.0043321527, 10.002172, 9.999171 
1.3149112e+3, 1.342998e+2, -1416975.3, -1657882.5, -83112.27, -0.008258529, 0.13387063, -1391084.4, 232788.81, 0.0025021203, 10.001959, 9.99878 
1.3149247e+3, 1.4429885e+2, -1340431.3, -1548925.8, -3153.3022, 0.21368475, 0.15123351, -1340383.6, 185497.45, 0.0010219518, 10.001726, 9.9989605 
1.3149357e+3, 1.5429695e+2, -1283559.6, -1469734.1, 1235.7739, 0.08737855, 0.06441202, -1283551.5, 144346.42, 0.000225761, 10.001439, 9.998968 
1.3149473e+3, 1.6429564e+2, -1210005.9, -1361834.9, -7623.665, 0.020842098, 0.02925284, -1209624.1, 120285.195, 0.000010883995, 10.001177, 9.999164 
1.31496e+3, 1.7429517e+2, -1141857.4, -1271512.1, -14944.29, 0.06642209, 0.059558023, -1140157.1, 91755.82, 0.0, 10.000943, 9.999223 
1.3149723e+3, 1.8429458e+2, -1050309.4, -1140685.1, -17018.78, 0.07082298, 0.06613717, -1047210.8, 86706.875, 0.0, 10.000743, 9.999545 
1.3149838e+3, 1.9429389e+2, -970604.94, -1044103.7, -13889.319, 0.010632819, 0.035409153, -968067.75, 67855.734, 0.0, 10.000586, 9.999611 
1.3149957e+3, 2.0429334e+2, -909437.3, -968549.4, -23786.902, -0.011740276, 0.021928845, -901054.25, 36874.688, 0.0, 10.000353, 9.99957 
1.3150081e+3, 2.1429299e+2, -857664.25, -888483.56, -30348.107, 0.019814542, 0.02563467, -839037.7, 895.84576, 0.0, 10.000016, 9.999609 
1.3150203e+3, 2.2429281e+2, -774487.0, -788954.4, -22906.902, 0.018265765, 0.047113214, -757698.75, -15762.9795, 0.0, 9.999877, 9.999687 
1.3150321e+3, 2.3429294e+2, -655641.75, -675207.9, -24713.05, -0.02765733, 0.08456546, -638845.8, 5089.016, 0.0, 9.999995, 9.999738 
1.315044e+3, 2.4429254e+2, -587195.44, -614296.5, -42788.047, -0.04318846, 0.08360549, -555863.56, -9924.954, 0.0, 9.99989, 9.999534 
1.3150561e+3, 2.5429156e+2, -545519.2, -539972.8, -41149.17, -0.01855571, 0.028373903, -501503.5, -53555.34, 0.0, 9.999488, 9.999565 
1.3150683e+3, 2.6429102e+2, -490682.06, -485312.1, -31432.69, -0.01898238, 0.029529393, -456449.9, -106496.18, 0.0, 9.999289, 9.999363 
1.31508e+3, 2.7429104e+2, -379698.6, -377995.44, -35149.13, -0.052055176, 0.09202975, -343687.56, -91732.945, 0.0, 9.999365, 9.999391 
1.3150918e+3, 2.8429046e+2, -300165.9, -265600.44, -46600.86, -0.054367162, 0.08645474, -233180.73, -79220.125, 0.0, 9.999137, 9.9995985 
1.315104e+3, 2.9428932e+2, -292794.63, -207095.52, -41267.75, -0.01849269, 0.006389393, -190454.64, -134483.56, 0.0, 9.998497, 9.999635 
1.3151158e+3, 3.042899e+2, -307711.28, -224201.86, -11454.08, -0.055035096, 0.12207729, -222659.31, -222659.31, 0.0, 9.998213, 9.999319 
1.3151279e+3, 3.1428868e+2, -185759.05, -19507.83, 5621.1064, -0.10125356, 0.06187203, -19317.992, -19317.992, 0.0, 9.998419, 10.0006275 
1.3249049e+3, 1.24288805e+2, -1435170.1, -1684387.4, 66795.68, 0.14154993, 0.10477694, -1418396.4, 303585.75, 0.0045723, 10.002392, 9.999053 
1.3249132e+3, 1.3428773e+2, -1385909.4, -1656616.9, -68799.0, -0.019821122, 0.13728127, -1369428.0, 254564.17, 0.0026508812, 10.002234, 9.998655 
1.3249266e+3, 1.4428689e+2, -1298017.0, -1531573.6, 2500.257, 0.22696838, 0.17120788, -1297990.3, 228009.25, 0.0010914269, 10.002033, 9.99893 
1.3249373e+3, 1.542849e+2, -1239798.3, -1451530.9, 1184.35, 0.09450223, 0.079089925, -1239791.6, 188225.28, 0.00024614425, 10.001754, 9.998941 
1.3249487e+3, 1.6428347e+2, -1176811.5, -1355895.9, -6269.7236, 0.0231155, 0.03676903, -1176592.4, 153437.05, 0.000013287297, 10.001449, 9.999072 
1.324961e+3, 1.7428282e+2, -1125043.1, -1273646.9, -5484.322, 0.06870504, 0.059889205, -1124841.0, 107193.5, 0.0, 10.001104, 9.99913 
1.324973e+3, 1.8428217e+2, -1050789.6, -1154635.5, -5862.185, 0.073716424, 0.06917866, -1050459.8, 83580.3, 0.0, 10.0008, 9.999422 
1.3249844e+3, 1.9428149e+2, -983962.3, -1064240.8, -17978.12, 0.012957082, 0.05289213, -980120.06, 55926.28, 0.0, 10.000554, 9.999488 
1.3249962e+3, 2.0428088e+2, -906988.8, -971771.8, -32644.55, -0.010287432, 0.043776322, -893392.5, 44659.93, 0.0, 10.000389, 9.99953 
1.3250083e+3, 2.1428043e+2, -815211.4, -871207.75, -30299.5, 0.020384474, 0.03959107, -801954.75, 38103.06, 0.0, 10.000323, 9.999578 
1.3250202e+3, 2.2428018e+2, -744377.75, -778286.3, -14249.753, 0.020401651, 0.056373175, -739184.75, 2875.9531, 0.0, 10.000102, 9.999651 
1.325032e+3, 2.3428024e+2, -704870.0, -702817.94, -13051.917, -0.021249069, 0.09260753, -690751.8, -46691.633, 0.0, 9.999675, 9.999702 
1.3250439e+3, 2.4427989e+2, -649951.06, -642704.9, -31701.883, -0.041180167, 0.09579134, -614419.75, -68355.89, 0.0, 9.999453, 9.99955 
1.3250555e+3, 2.5427905e+2, -541607.3, -535292.06, -34990.797, -0.032812346, 0.05206866, -503316.72, -55244.227, 0.0, 9.999505, 9.999588 
1.3250673e+3, 2.6427856e+2, -483730.9, -470239.88, -23183.889, -0.034216035, 0.052423798, -452840.1, -102762.65, 0.0, 9.999289, 9.999466 
1.325079e+3, 2.742785e+2, -467753.7, -408043.72, -10406.4795, -0.047709968, 0.09728303, -406282.0, -154203.78, 0.0, 9.998708, 9.999499 
1.3250908e+3, 2.8427795e+2, -393320.2, -314703.78, -16561.129, -0.045757726, 0.08911346, -311357.5, -157273.47, 0.0, 9.998518, 9.999558 
1.3251026e+3, 2.9427692e+2, -244732.22, -188665.02, -30980.992, -0.02608388, 0.027281309, -174916.98, -118822.85, 0.0, 9.998849, 9.999592 
1.325114e+3, 3.0427772e+2, -230161.25, -155046.98, -8183.1343, -0.06475221, 0.14681745, -154165.83, -154165.83, 0.0, 9.998611, 9.999601 
1.3251258e+3, 3.1427652e+2, -300053.6, -72459.984, 38521.656, -0.099058695, 0.06315725, -66116.74, -66116.74, 0.0, 9.997626, 10.000645 
1.3349074e+3, 1.24277644e+2, -1447215.8, -1711084.1, 43135.27, 0.14870945, 0.15016626, -1440343.4, 281748.28, 0.0048153205, 10.0023985, 9.998866 
1.3349153e+3, 1.3427538e+2, -1398045.4, -1682021.9, -74445.37, -0.043410078, 0.07995313, -1379712.8, 244400.53, 0.0028011485, 10.002234, 9.998482 
1.3349286e+3, 1.442744e+2, -1304999.5, -1546824.3, -8559.861, 0.22271147, 0.1156672, -1304696.9, 221425.4, 0.001161807, 10.002035, 9.998825 
1.3349392e+3, 1.5427336e+2, -1245412.1, -1464888.4, -9663.082, 0.101005845, 0.12835553, -1244987.5, 183143.9, 0.00026710884, 10.00176, 9.998847 
1.3349502e+3, 1.6427211e+2, -1175258.8, -1354163.1, -19725.672, 0.028074047, 0.10879514, -1173109.6, 157032.53, 0.000016044773, 10.001454, 9.999083 
1.3349621e+3, 1.7427066e+2, -1123159.4, -1270934.4, -18965.826, 0.058757603, 0.049818065, -1120764.0, 111389.78, 0.00000000003443261, 10.001108, 9.999147 
1.3349737e+3, 1.842696e+2, -1071626.0, -1198953.3, -16262.648, 0.06475054, 0.03212602, -1069581.8, 64581.64, 0.0, 10.000804, 9.999116 
1.334985e+3, 1.9426905e+2, -1006884.7, -1112663.4, -27689.695, 0.02636256, 0.05985432, -1000074.75, 36095.6, 0.0, 10.000556, 9.999155 
1.3349967e+3, 2.0426863e+2, -902671.94, -963079.2, -36297.523, 0.0030816428, 0.08493925, -885655.1, 52520.26, 0.0, 10.000389, 9.99959 
1.3350084e+3, 2.1426846e+2, -808421.94, -857961.44, -33191.92, 0.0047257384, 0.10215373, -791776.2, 48401.125, 0.0, 10.000325, 9.999669 
1.3350202e+3, 2.2426806e+2, -742873.5, -776131.44, -29842.535, 0.0045180777, 0.097786, -725339.6, 16841.443, 0.0, 10.000105, 9.999665 
1.3350318e+3, 2.3426738e+2, -704273.7, -701763.5, -28928.67, 0.00013720233, 0.05766397, -674062.75, -29875.781, 0.0, 9.999675, 9.99971 
1.3350435e+3, 2.4426699e+2, -652618.2, -648157.5, -30723.574, -0.020378077, 0.057465475, -619583.4, -73392.21, 0.0, 9.999451, 9.999514 
1.3350548e+3, 2.5426704e+2, -544718.3, -541979.4, -32293.467, -0.062438853, 0.10765168, -511026.34, -62833.688, 0.0, 9.999505, 9.999543 
1.3350663e+3, 2.6426685e+2, -461819.03, -425388.13, -42642.344, -0.06809219, 0.12775804, -397233.63, -47039.027, 0.0, 9.9992895, 9.999774 
1.335078e+3, 2.7426636e+2, -443938.8, -358583.78, -31231.053, -0.024208143, 0.0929943, -348377.0, -96179.234, 0.0, 9.998707, 9.999841 
1.3350897e+3, 2.8426564e+2, -412277.06, -353904.3, -5451.543, -0.016403759, 0.063383736, -353399.53, -199194.78, 0.0, 9.998516, 9.999291 
1.3351011e+3, 2.9426485e+2, -267118.63, -234090.25, -16805.604, -0.0592452, 0.05922718, -227042.88, -170828.53, 0.0, 9.998843, 9.999283 
1.3351123e+3, 3.0426577e+2, -188478.8, -67750.09, -40391.586, -0.10603432, 0.17892253, -55482.938, -55482.938, 0.0, 9.998607, 10.000204 
1.3351236e+3, 3.1426474e+2, -274578.4, -18621.297, 5216.0513, -0.0816684, 0.045791406, -18515.045, -18515.045, 0.0, 9.997622, 10.001018 
1.3449098e+3, 1.24266215e+2, -1476193.1, -1722483.5, 29890.398, 0.16686383, 0.17057383, -1472617.4, 249587.13, 0.0050627007, 10.00219, 9.998887 
1.3449174e+3, 1.3426375e+2, -1355140.8, -1654963.5, -52156.84, -0.06128591, 0.07498419, -1346326.6, 277900.9, 0.002953265, 10.002504, 9.998537 
1.3449308e+3, 1.4426278e+2, -1256665.5, -1538812.5, 3700.4907, 0.21607578, 0.11451254, -1256617.0, 269619.44, 0.0012327734, 10.002434, 9.998688 
1.3449411e+3, 1.5426168e+2, -1247714.1, -1482853.5, -4000.0586, 0.10997007, 0.13488778, -1247646.1, 180600.72, 0.00028840025, 10.001819, 9.998695 
1.3449517e+3, 1.6426034e+2, -1175483.1, -1359095.9, -8132.838, 0.037448462, 0.11966643, -1175123.6, 155134.72, 0.00001901083, 10.001474, 9.999039 
1.3449633e+3, 1.7425889e+2, -1067130.0, -1247564.4, -10529.252, 0.04925024, 0.06082506, -1066517.6, 165752.44, 0.0000000014653116, 10.001509, 9.999115 
1.3449746e+3, 1.8425772e+2, -1008786.8, -1183338.5, -12226.635, 0.052452788, 0.041858513, -1007934.56, 126346.09, 0.0, 10.001299, 9.998984 
1.3449858e+3, 1.94257e+2, -988878.06, -1118932.0, -10616.146, 0.03251945, 0.06757184, -988017.1, 48272.36, 0.0, 10.000746, 9.99902 
1.3449971e+3, 2.0425655e+2, -907349.0, -968111.94, -3286.422, 0.015045872, 0.09656501, -907171.75, 31123.451, 0.0, 10.00037, 9.999564 
1.3450086e+3, 2.1425647e+2, -822850.1, -866619.1, -7636.161, 0.004816802, 0.12391301, -821556.2, 18740.084, 0.0, 10.000234, 9.999654 
1.3450201e+3, 2.2425607e+2, -749168.2, -777090.1, -16918.576, -0.0015756603, 0.11843578, -741194.06, 1105.8431, 0.0, 10.000053, 9.999683 
1.3450316e+3, 2.3425525e+2, -682606.75, -688050.25, -16859.389, -0.0045672534, 0.062966235, -668250.8, -23944.084, 0.0, 9.999812, 9.999737 
1.345043e+3, 2.4425484e+2, -643477.06, -640976.25, -10270.403, -0.01905329, 0.06009947, -631880.4, -85569.41, 0.0, 9.999505, 9.999535 
1.3450542e+3, 2.5425506e+2, -600517.0, -566343.44, -7028.1333, -0.048795704, 0.12370214, -564954.5, -116643.19, 0.0, 9.999113, 9.999563 
1.3450654e+3, 2.6425496e+2, -512980.94, -441185.3, -26217.59, -0.05871494, 0.147049, -432630.72, -82318.11, 0.0, 9.998903, 9.999851 
1.3450767e+3, 2.742544e+2, -404127.2, -329705.1, -35104.93, -0.04162017, 0.10280235, -315759.34, -63443.652, 0.0, 9.998941, 9.999925 
1.3450882e+3, 2.8425378e+2, -378722.16, -329420.0, -3364.1038, -0.03447544, 0.073137715, -329191.5, -174869.7, 0.0, 9.9987135, 9.999363 
1.3450998e+3, 2.942532e+2, -365871.0, -272510.3, 13318.564, -0.042589936, 0.07886962, -270647.5, -214317.8, 0.0, 9.998129, 9.999362 
1.3451107e+3, 3.0425408e+2, -295188.4, -98158.14, -22359.53, -0.08218372, 0.18271554, -95652.586, -95652.586, 0.0, 9.997786, 10.00039 
1.3451213e+3, 3.1425336e+2, -260216.61, -19580.871, -10778.578, -0.09837115, 0.06201163, -19099.041, -19099.041, 0.0, 9.997757, 10.000944 
1.3549122e+3, 1.2425457e+2, -1461187.0, -1690482.0, 21505.148, 0.19537432, 0.16447443, -1459187.5, 263132.88, 0.00531726, 10.002186, 9.999111 
1.3549198e+3, 1.3425294e+2, -1333925.9, -1611895.0, -39806.402, -0.07528123, 0.122884706, -1328337.8, 295996.4, 0.003108456, 10.002509, 9.998831 
1.3549331e+3, 1.4425209e+2, -1268260.0, -1564897.5, -17490.021, 0.20411125, 0.1692062, -1267232.3, 259108.7, 0.0013043365, 10.002441, 9.998506 
1.354943e+3, 1.5424986e+2, -1262933.5, -1515120.6, -27862.844, 0.121341884, 0.09910861, -1259891.8, 168470.67, 0.00030973944, 10.00182, 9.998473 
1.3549532e+3, 1.6424823e+2, -1182114.8, -1373336.8, -9564.165, 0.05090416, 0.0682365, -1181637.6, 148739.92, 0.000021994929, 10.001475, 9.99894 
1.3549647e+3, 1.742475e+2, -1072453.6, -1260117.3, -9518.34, 0.039392617, 0.091917686, -1071972.1, 160410.88, 0.0000000068048798, 10.001514, 9.999026 
1.3549758e+3, 1.8424657e+2, -1005187.9, -1177068.0, -32165.55, 0.03580904, 0.0990285, -999365.6, 135025.72, 0.0, 10.001303, 9.999026 
1.3549866e+3, 1.9424543e+2, -984154.06, -1110550.6, -31958.064, 0.030556267, 0.07609626, -976533.25, 59870.168, 0.0, 10.000751, 9.999076 
1.3549978e+3, 2.0424466e+2, -914570.1, -984304.8, -10307.437, 0.024224913, 0.07735527, -913078.5, 25333.178, 0.0, 10.000375, 9.999452 
1.3550091e+3, 2.1424447e+2, -831486.2, -884830.06, -13081.845, 0.020165868, 0.10548611, -828450.75, 11963.497, 0.0, 10.000235, 9.99953 
1.3550203e+3, 2.242442e+2, -748174.8, -774871.7, -26052.244, 0.0019262484, 0.119188, -732250.4, 10166.641, 0.0, 10.0000515, 9.9997 
1.3550311e+3, 2.3424385e+2, -680745.1, -684563.7, -25995.188, -0.035937, 0.107955135, -656589.2, -12169.611, 0.0, 9.999812, 9.999762 
1.3550423e+3, 2.4424347e+2, -637256.9, -628779.0, -24566.605, -0.03847234, 0.102657795, -608088.3, -61664.87, 0.0, 9.999507, 9.999619 
1.3550538e+3, 2.542431e+2, -593868.1, -552888.25, -21102.57, 0.006764709, 0.10064346, -543964.6, -95536.15, 0.0, 9.999114, 9.999656 
1.3550648e+3, 2.6424286e+2, -524628.56, -465492.5, -25068.615, -0.007217422, 0.11102115, -456295.8, -105864.26, 0.0, 9.998902, 9.999685 
1.355075e+3, 2.7424276e+2, -417856.75, -357554.75, -32261.127, -0.101156764, 0.12846522, -343548.5, -91116.49, 0.0, 9.998938, 9.999736 
1.3550861e+3, 2.842424e+2, -351306.16, -272240.78, -22613.018, -0.102054544, 0.120009914, -266230.28, -111794.945, 0.0, 9.998711, 9.999758 
1.3550986e+3, 2.9424185e+2, -334811.56, -208100.72, -7384.416, 0.021857817, 0.084549665, -207671.83, -151230.86, 0.0, 9.998128, 9.999805 
1.3551094e+3, 3.0424255e+2, -309936.75, -129352.23, -23871.79, 0.004672149, 0.15599102, -126249.87, -126249.87, 0.0, 9.9977865, 10.000176 
1.3551185e+3, 3.1424233e+2, -294981.97, -90373.79, -7671.207, -0.15185419, 0.11309201, -90086.58, -90086.58, 0.0, 9.99775, 10.000463 
1.3649146e+3, 1.24243446e+2, -1355092.8, -1650230.6, 28722.639, 0.18021764, 0.17350306, -1352323.5, 370106.53, 0.005582378, 10.002967, 9.999012 
1.3649224e+3, 1.3424174e+2, -1359671.0, -1625934.4, -36875.91, -0.06370138, 0.12835984, -1354658.3, 269786.2, 0.0032685762, 10.00234, 9.998816 
1.3649356e+3, 1.4424096e+2, -1319414.1, -1586348.5, -22661.672, 0.23025572, 0.18041064, -1317503.9, 208946.56, 0.0013768864, 10.002078, 9.998533 
1.364945e+3, 1.5423864e+2, -1189895.5, -1476465.9, -14372.469, 0.11872721, 0.09742793, -1189176.5, 239295.77, 0.00033094976, 10.002308, 9.998504 
1.364955e+3, 1.642369e+2, -1100950.0, -1355463.8, 5616.142, 0.039026562, 0.06414249, -1100826.1, 229662.36, 0.000024852021, 10.002125, 9.998751 
1.3649662e+3, 1.742361e+2, -1107965.6, -1300149.4, -4215.7573, 0.04788389, 0.10046404, -1107873.3, 124622.445, 0.000000016360648, 10.00137, 9.998821 
1.364977e+3, 1.8423516e+2, -1053457.0, -1193934.5, -27552.615, 0.049748924, 0.11392784, -1048246.25, 86258.25, 0.0, 10.000944, 9.999083 
1.3649875e+3, 1.9423404e+2, -945773.1, -1083361.6, -25537.715, 0.027217492, 0.08731935, -941186.0, 95329.57, 0.0, 10.000977, 9.999153 
1.364998e+3, 2.0423324e+2, -861036.5, -963496.44, -3751.3096, 0.012781013, 0.0817824, -860899.3, 77624.51, 0.0, 10.000764, 9.999407 
1.3650092e+3, 2.142329e+2, -838051.75, -893453.1, -2098.968, 0.014120761, 0.10019992, -837972.3, 2555.3345, 0.0, 10.000215, 9.999478 
1.3650201e+3, 2.2423258e+2, -781609.94, -794036.9, -8535.077, 0.0015039643, 0.114127256, -777266.25, -34735.33, 0.0, 9.999838, 9.999669 
1.3650309e+3, 2.3423235e+2, -700683.25, -697677.5, -12613.699, -0.031277742, 0.11568771, -686477.5, -41944.457, 0.0, 9.999692, 9.999729 
1.3650417e+3, 2.4423201e+2, -638243.4, -622085.7, -20012.127, -0.034299016, 0.11502148, -608583.25, -62046.773, 0.0, 9.999472, 9.9996805 
1.3650529e+3, 2.5423163e+2, -583076.6, -539222.9, -19612.443, 0.002960134, 0.105429, -531731.44, -83190.18, 0.0, 9.999154, 9.999729 
1.3650638e+3, 2.642314e+2, -530579.56, -467971.53, -10673.857, -0.008703148, 0.11291328, -466201.78, -115657.42, 0.0, 9.998863, 9.999685 
1.3650739e+3, 2.7423137e+2, -466457.8, -381122.44, -4696.9507, -0.086977705, 0.13633344, -380864.7, -128319.68, 0.0, 9.998609, 9.999731 
1.3650846e+3, 2.8423122e+2, -394336.5, -275071.2, -6984.8174, -0.09402767, 0.13772015, -274663.5, -120116.62, 0.0, 9.998342, 9.999915 
1.3650964e+3, 2.942309e+2, -333598.0, -187255.97, -12748.638, -0.004307976, 0.11063262, -186153.67, -129604.195, 0.0, 9.998052, 9.999984 
1.365107e+3, 3.042314e+2, -308160.6, -123720.0, -21092.082, -0.013004353, 0.15143377, -121338.72, -121338.72, 0.0, 9.99778, 10.000218 
1.3651164e+3, 3.1423154e+2, -336288.03, -123711.01, 17619.807, -0.1198509, 0.14269868, -122260.46, -122260.46, 0.0, 9.997522, 10.000344 
1.374917e+3, 1.242329e+2, -1384059.0, -1712789.9, -14138.458, 0.11586047, 0.19704714, -1383452.1, 339080.7, 0.0058605294, 10.002976, 9.998576 
1.3749251e+3, 1.3423027e+2, -1383519.9, -1674862.4, -60884.195, -0.025159555, 0.09171228, -1371308.3, 253249.5, 0.0034352848, 10.0023365, 9.998482 
1.3749383e+3, 1.4422946e+2, -1303279.8, -1552518.6, -17379.129, 0.29609558, 0.1476093, -1302073.9, 224490.52, 0.0014510443, 10.002075, 9.998768 
1.3749471e+3, 1.5422806e+2, -1168843.3, -1434598.1, -5719.551, 0.100446664, 0.12894124, -1168720.3, 259855.72, 0.0003520353, 10.002315, 9.998789 
1.3749567e+3, 1.6422647e+2, -1119531.8, -1396125.8, -20735.643, -0.0005463049, 0.10783108, -1117985.9, 212604.67, 0.000027536262, 10.002132, 9.998468 
1.3749678e+3, 1.7422476e+2, -1130250.9, -1347514.6, -33376.273, 0.07412271, 0.08705565, -1125239.3, 107368.36, 0.000000027808229, 10.001373, 9.998495 
1.3749784e+3, 1.8422353e+2, -1048684.8, -1184705.6, -29425.877, 0.093341775, 0.0854551, -1042591.9, 92028.06, 0.0, 10.000947, 9.9991455 
1.3749883e+3, 1.9422291e+2, -938566.75, -1069364.6, -24611.445, 0.022388658, 0.10069707, -934089.06, 102536.65, 0.0, 10.00098, 9.9992485 
1.3749985e+3, 2.0422232e+2, -859381.44, -960589.5, -23494.986, -0.019046644, 0.110344164, -854193.1, 84438.195, 0.0, 10.000765, 9.999426 
1.3750091e+3, 2.142218e+2, -836655.56, -891369.06, -23171.94, -0.014513934, 0.107848935, -828160.8, 12475.442, 0.0, 10.000217, 9.999493 
1.3750198e+3, 2.2422126e+2, -786789.7, -805516.44, -15509.957, -0.0050449534, 0.10214724, -778035.94, -35394.42, 0.0, 9.99984, 9.99959 
1.375031e+3, 2.3422074e+2, -706451.75, -710116.7, -17808.828, 0.008994088, 0.086856805, -690381.4, -45734.53, 0.0, 9.999693, 9.999643 
1.3750415e+3, 2.4422051e+2, -636211.6, -618149.06, -31185.404, -0.0063519194, 0.09791466, -594713.5, -48063.57, 0.0, 9.999472, 9.999708 
1.3750516e+3, 2.542207e+2, -581069.25, -534461.44, -30887.945, -0.060845517, 0.13898736, -519072.5, -70422.875, 0.0, 9.99915, 9.9997635 
1.375062e+3, 2.6422063e+2, -520033.03, -445611.06, -19725.283, -0.06495041, 0.15329972, -440706.22, -90054.95, 0.0, 9.99886, 9.999841 
1.3750733e+3, 2.7422023e+2, -454467.94, -356864.66, -12919.882, -0.0015608991, 0.12446685, -355183.4, -102528.14, 0.0, 9.9986105, 9.999897 
1.3750839e+3, 2.8422007e+2, -398897.84, -285563.16, -16634.84, -0.012341957, 0.124635, -283172.0, -128514.94, 0.0, 9.998343, 9.999843 
1.3750933e+3, 2.9422033e+2, -340425.72, -200070.6, -21939.58, -0.12154192, 0.1607957, -196721.06, -140065.84, 0.0, 9.998043, 9.999901 
1.3751034e+3, 3.0422062e+2, -290897.53, -86049.76, -28959.006, -0.13678999, 0.1725919, -82034.57, -82034.57, 0.0, 9.997771, 10.000481 
1.3751149e+3, 3.1422088e+2, -321204.88, -91408.984, 11719.702, -0.008007336, 0.14651017, -90812.82, -90812.82, 0.0, 9.997519, 10.000568 
1.3849197e+3, 1.2422213e+2, -1466647.3, -1765985.0, -26456.555, 0.1196146, 0.19120748, -1464326.9, 258311.33, 0.006152381, 10.002465, 9.998457 
1.3849276e+3, 1.3421948e+2, -1286629.9, -1626953.3, -29006.785, -0.03214018, 0.08437664, -1284175.3, 340488.28, 0.0036092806, 10.003, 9.99849 
1.3849407e+3, 1.4421871e+2, -1172492.1, -1499359.9, 10657.693, 0.28804272, 0.14900345, -1172144.9, 354524.84, 0.0015272575, 10.003017, 9.998679 
1.3849495e+3, 1.5421732e+2, -1176549.3, -1448925.1, -7316.5806, 0.10858709, 0.13905877, -1176352.9, 252328.88, 0.0003731033, 10.002308, 9.998693 
1.3849589e+3, 1.642157e+2, -1162345.8, -1413742.0, -34615.945, 0.012722003, 0.119352594, -1157666.4, 173030.31, 0.000030085705, 10.001826, 9.998494 
1.3849694e+3, 1.7421396e+2, -1082890.6, -1320695.1, -20832.35, 0.07708659, 0.09073882, -1081079.5, 151634.5, 0.000000039188958, 10.001682, 9.998529 
1.3849796e+3, 1.8421267e+2, -988269.44, -1168618.1, 480.66705, 0.092405096, 0.08851424, -988268.2, 146458.63, 0.0, 10.001418, 9.999028 
1.3849893e+3, 1.9421205e+2, -947444.44, -1087781.0, -11418.676, 0.027057424, 0.11387272, -946521.4, 90211.89, 0.0, 10.000981, 9.999121 
1.3849993e+3, 2.0421141e+2, -877439.75, -967326.6, -25943.54, -0.013974983, 0.12521163, -870489.25, 68250.11, 0.0, 10.000635, 9.999442 
1.3850094e+3, 2.1421078e+2, -806482.2, -873745.9, -25542.895, -0.017113041, 0.11142904, -797882.06, 42862.504, 0.0, 10.000412, 9.999519 
1.3850199e+3, 2.2421022e+2, -752667.25, -788603.4, -12333.629, -0.008982158, 0.100689225, -748841.5, -6091.562, 0.0, 10.000073, 9.999594 
1.3850306e+3, 2.3420975e+2, -722394.06, -716613.75, -8662.244, 0.012313014, 0.089083396, -710372.25, -65617.04, 0.0, 9.99958, 9.999652 
1.3850409e+3, 2.4420959e+2, -667783.2, -623992.44, -14527.77, -0.0038762256, 0.10307223, -619611.1, -72853.375, 0.0, 9.999217, 9.999789 
1.3850504e+3, 2.5420988e+2, -592407.2, -529903.75, -10706.549, -0.07060244, 0.14537364, -528120.6, -79364.34, 0.0, 9.999032, 9.999851 
1.3850607e+3, 2.642099e+2, -531768.0, -429057.84, -1465.8534, -0.07712932, 0.15848005, -429036.94, -78280.42, 0.0, 9.998686, 10.000037 
1.3850717e+3, 2.7420968e+2, -511589.28, -361034.34, 7141.594, -0.0026192048, 0.12671125, -360696.34, -107937.836, 0.0, 9.998118, 10.000104 
1.3850819e+3, 2.8420976e+2, -473589.2, -319526.8, 18606.283, -0.012931491, 0.13400304, -317311.56, -162553.02, 0.0, 9.997825, 9.999858 
1.3850912e+3, 2.9421014e+2, -357710.88, -207575.7, 19429.26, -0.13595402, 0.18406418, -205102.08, -148346.11, 0.0, 9.997925, 9.999905 
1.3851012e+3, 3.0421016e+2, -286158.06, -60646.15, 445.89413, -0.14321621, 0.15771587, -60645.266, -60645.266, 0.0, 9.997706, 10.000686 
1.3851124e+3, 3.1421095e+2, -379644.1, -88852.44, 36816.99, 0.0037912414, 0.16312106, -84263.48, -84263.48, 0.0, 9.996989, 10.000838 
1.394923e+3, 1.2421115e+2, -1452898.3, -1736238.6, -25059.338, 0.19491382, 0.15267816, -1450699.0, 272047.2, 0.006457894, 10.00246, 9.998665 
1.39493e+3, 1.3420947e+2, -1260887.3, -1574744.3, -8183.8467, -0.08779894, 0.10673244, -1260674.0, 364086.88, 0.0037909818, 10.003006, 9.998848 
1.394943e+3, 1.4420885e+2, -1200483.9, -1560063.0, -13424.139, 0.20093097, 0.18513632, -1199983.4, 326782.7, 0.0016060187, 10.003028, 9.998258 
1.3949521e+3, 1.5420648e+2, -1210210.0, -1519447.1, -35260.168, 0.14321601, 0.12834962, -1206240.5, 222548.7, 0.00039434384, 10.002309, 9.998209 
1.3949613e+3, 1.6420467e+2, -1138999.4, -1365905.0, -42609.453, 0.07961891, 0.09867699, -1131261.8, 199544.77, 0.000032562886, 10.001828, 9.998823 
1.3949709e+3, 1.7420372e+2, -1053869.6, -1262127.1, -26496.537, 0.05607803, 0.1107834, -1050551.4, 182263.16, 0.00000005013657, 10.001688, 9.99893 
1.3949804e+3, 1.8420266e+2, -1008521.8, -1212020.8, -15804.587, 0.04586144, 0.12306985, -1007301.7, 127523.055, 0.0, 10.001423, 9.998729 
1.3949905e+3, 1.9420145e+2, -972026.7, -1139980.4, -28285.71, 0.039969664, 0.12694076, -967390.94, 69446.95, 0.0, 10.000985, 9.998761 
1.3950002e+3, 2.042005e+2, -876563.06, -966247.0, -35480.805, 0.026015947, 0.12530039, -864223.8, 74623.87, 0.0, 10.000637, 9.999449 
1.3950102e+3, 2.1419992e+2, -803531.7, -868394.25, -34043.938, 0.006272094, 0.11109556, -788944.06, 51908.28, 0.0, 10.000414, 9.999556 
1.3950199e+3, 2.2419949e+2, -746712.5, -776889.1, -30345.664, -0.009672529, 0.11010545, -727911.06, 14945.042, 0.0, 10.000074, 9.999674 
1.3950297e+3, 2.3419936e+2, -716436.0, -704611.7, -27030.951, -0.02209939, 0.122250095, -682853.94, -37995.777, 0.0, 9.99958, 9.999735 
1.3950399e+3, 2.4419923e+2, -658231.8, -604215.3, -22305.912, -0.028928678, 0.12984031, -596195.0, -49334.96, 0.0, 9.999216, 9.999926 
1.39505e+3, 2.5419918e+2, -582258.1, -509398.44, -17006.242, -0.027984474, 0.12409499, -505624.47, -56763.04, 0.0, 9.999033, 9.999992 
1.3950597e+3, 2.6419932e+2, -515016.06, -395460.3, -20753.303, -0.045945473, 0.12834172, -391960.28, -41099.984, 0.0, 9.99869, 10.000267 
1.3950689e+3, 2.7419984e+2, -494968.72, -326107.97, -13050.233, -0.089748114, 0.1456249, -325105.34, -72250.625, 0.0, 9.998115, 10.000347 
1.395079e+3, 2.842002e+2, -468694.56, -308015.25, 21178.018, -0.09708088, 0.16815917, -305270.78, -150419.23, 0.0, 9.997819, 9.99994 
1.3950898e+3, 2.9420024e+2, -354283.5, -199957.86, 24798.223, -0.052919988, 0.17792045, -196070.98, -139218.28, 0.0, 9.997922, 9.999959 
1.3950999e+3, 3.041999e+2, -274032.66, -36422.09, -23140.324, -0.037377745, 0.104880504, -34189.49, -34189.49, 0.0, 9.997707, 10.000853 
1.3951086e+3, 3.1420165e+2, -355173.0, -39424.715, 11416.904, -0.0830842, 0.18835595, -39012.438, -39012.438, 0.0, 9.996992, 10.001178 
1.4049257e+3, 1.2420076e+2, -1376978.5, -1711911.9, -11795.7705, 0.20426314, 0.1496388, -1376563.5, 346284.9, 0.0067786416, 10.003039, 9.998552 
1.404933e+3, 1.3419926e+2, -1263799.8, -1573562.8, -3657.801, -0.08549474, 0.119915046, -1263756.6, 361104.97, 0.0039822184, 10.002975, 9.99887 
1.4049457e+3, 1.4419864e+2, -1243078.0, -1579255.9, -37288.35, 0.19131343, 0.19783415, -1238991.8, 287874.97, 0.0016886669, 10.00273, 9.998269 
1.4049545e+3, 1.541962e+2, -1216892.1, -1521348.6, -24224.445, 0.14281203, 0.12997065, -1214976.8, 213914.06, 0.0004161435, 10.002258, 9.99822 
1.4049631e+3, 1.6419435e+2, -1123682.0, -1358351.8, -6505.4907, 0.08208367, 0.09865519, -1123501.8, 207406.5, 0.000035020938, 10.001933, 9.998823 
1.4049725e+3, 1.7419353e+2, -1036670.9, -1253742.4, -19643.824, 0.055535693, 0.122758366, -1034907.56, 198007.44, 0.00000006103049, 10.001807, 9.99893 
1.404982e+3, 1.8419248e+2, -995299.56, -1208168.4, -27221.275, 0.046394963, 0.13643573, -991873.7, 143051.38, 0.0, 10.001526, 9.998705 
1.4049914e+3, 1.9419111e+2, -965092.1, -1139527.0, -16142.563, 0.044678256, 0.12713379, -963610.9, 73328.69, 0.0, 10.001046, 9.998734 
1.405001e+3, 2.0419009e+2, -877590.9, -969169.94, -3805.87, 0.032005902, 0.12136685, -877433.0, 61516.992, 0.0, 10.000641, 9.999426 
1.4050105e+3, 2.1418957e+2, -814896.1, -875859.6, -6513.4214, 0.010259233, 0.115569636, -814208.0, 26746.377, 0.0, 10.000346, 9.999536 
1.40502e+3, 2.2418922e+2, -753131.4, -777294.3, -13537.884, -0.01031302, 0.12213596, -747067.94, -4110.3706, 0.0, 10.000021, 9.999696 
1.4050293e+3, 2.3418918e+2, -705079.25, -696412.5, -15657.652, -0.031459946, 0.14029439, -684499.6, -39540.83, 0.0, 9.999648, 9.999758 
1.405039e+3, 2.441891e+2, -654154.44, -587537.94, -11799.575, -0.035475906, 0.1459281, -585509.7, -38549.625, 0.0, 9.999181, 10.000057 
1.4050488e+3, 2.5418904e+2, -637530.7, -520323.72, -7011.2173, -0.015730565, 0.12579288, -519905.8, -70944.74, 0.0, 9.998586, 10.000133 
1.4050582e+3, 2.641892e+2, -573797.75, -414890.78, -12419.896, -0.03482283, 0.12196501, -413925.9, -62966.535, 0.0, 9.998248, 10.000345 
1.4050668e+3, 2.7418986e+2, -466290.63, -303492.4, -17946.291, -0.107714534, 0.1428796, -301537.53, -48584.98, 0.0, 9.998276, 10.000423 
1.4050767e+3, 2.8419036e+2, -447933.56, -284183.88, 6164.6016, -0.11585367, 0.17091231, -283952.13, -129004.36, 0.0, 9.997902, 10.000063 
1.4050876e+3, 2.9419056e+2, -485440.28, -249226.42, 14512.727, -0.031793807, 0.18121701, -248338.11, -191390.63, 0.0, 9.996962, 10.000083 
1.4050975e+3, 3.0418992e+2, -414555.5, -108094.7, -20375.805, -0.006503369, 0.07639257, -106745.91, -106745.91, 0.0, 9.99676, 10.000816 
1.4051056e+3, 3.1419197e+2, -255529.03, 29026.14, -3125.194, -0.10734527, 0.19140835, 29060.459, 29060.459, 0.0, 9.997588, 10.001361 
1.4149283e+3, 1.24191016e+2, -1407783.8, -1777109.6, -30673.844, 0.14251547, 0.18171687, -1405253.5, 317690.88, 0.0071187555, 10.003043, 9.998103 
1.4149366e+3, 1.341889e+2, -1286827.8, -1621064.6, -6778.0415, -0.023265544, 0.12433166, -1286690.4, 338274.5, 0.0041865646, 10.002975, 9.998543 
1.4149491e+3, 1.4418817e+2, -1211191.4, -1513918.4, -55121.67, 0.26151994, 0.18742666, -1201467.0, 325504.25, 0.001777482, 10.002733, 9.998717 
1.4149563e+3, 1.5418647e+2, -1179909.5, -1445530.4, -42276.137, 0.10538591, 0.14401087, -1173343.3, 255642.88, 0.00043918352, 10.002261, 9.99874 
1.4149645e+3, 1.6418482e+2, -1146729.4, -1407602.4, -12931.7, 0.017071722, 0.11962616, -1146090.0, 184911.25, 0.000037541082, 10.001938, 9.998484 
1.4149745e+3, 1.7418343e+2, -1064997.6, -1313800.4, -24883.188, 0.074888036, 0.12654747, -1062533.4, 170481.66, 0.00000007226826, 10.001811, 9.998516 
1.414984e+3, 1.8418214e+2, -977394.94, -1172158.0, -45018.965, 0.09320631, 0.1282792, -967492.44, 167535.06, 0.0, 10.00153, 9.998951 
1.4149925e+3, 1.9418104e+2, -943158.8, -1095240.3, -34509.098, 0.041162543, 0.114255525, -935694.6, 101343.23, 0.0, 10.00105, 9.999037 
1.4150013e+3, 2.0418021e+2, -880780.06, -976890.25, -16065.71, 0.004148741, 0.11331303, -878165.6, 60880.336, 0.0, 10.000645, 9.9993725 
1.4150107e+3, 2.1417978e+2, -820550.7, -888253.25, -17725.232, -0.00649966, 0.12449982, -816190.8, 24859.672, 0.0, 10.000347, 9.999451 
1.41502e+3, 2.2417942e+2, -755811.56, -782928.6, -27459.832, -0.013168016, 0.13588911, -738745.3, 4309.1724, 0.0, 10.00002, 9.999659 
1.4150292e+3, 2.3417921e+2, -707083.1, -701356.2, -29344.543, -0.01637377, 0.1432906, -674735.75, -29678.564, 0.0, 9.99965, 9.999724 
1.4150383e+3, 2.441792e+2, -645159.7, -569889.25, -33022.176, -0.023557678, 0.15132603, -557455.8, -10398.071, 0.0, 9.999184, 10.000177 
1.4150472e+3, 2.5417948e+2, -628038.44, -500787.38, -28743.414, -0.034253176, 0.15116452, -494596.06, -45540.88, 0.0, 9.998585, 10.000268 
1.4150564e+3, 2.641796e+2, -579407.44, -426789.13, -12571.355, -0.04545922, 0.13968468, -425760.53, -74706.74, 0.0, 9.998248, 10.000264 
1.4150657e+3, 2.7417973e+2, -473463.78, -319023.53, -15606.899, -0.060725294, 0.11734644, -317462.16, -64409.836, 0.0, 9.998278, 10.000317 
1.4150749e+3, 2.841802e+2, -434462.25, -257360.7, -25314.682, -0.07281076, 0.14161995, -253813.31, -98765.82, 0.0, 9.997906, 10.000247 
1.4150842e+3, 2.9418105e+2, -470341.97, -218970.28, -19544.742, -0.07178991, 0.19543068, -217459.72, -160419.52, 0.0, 9.996964, 10.000291 
1.4150937e+3, 3.0418023e+2, -432870.2, -146219.84, 6814.3667, -0.05019573, 0.07474086, -146057.94, -146057.94, 0.0, 9.99676, 10.000555 
1.4151035e+3, 3.1418177e+2, -257206.88, 27995.475, 29821.773, -0.0759153, 0.16441718, 31080.379, 31080.379, 0.0, 9.997578, 10.001359 
1.4249314e+3, 1.2418154e+2, -1343823.4, -1756520.6, -31063.4, 0.1348642, 0.21027268, -1341498.4, 381540.16, 0.007483504, 10.003532, 9.998009 
1.4249398e+3, 1.341793e+2, -1301954.0, -1626280.8, 32328.826, -0.002446251, 0.13702603, -1298762.9, 326297.53, 0.004407692, 10.002863, 9.998561 
1.4249519e+3, 1.4417839e+2, -1238741.9, -1524243.8, -10239.46, 0.2724047, 0.18180552, -1238375.1, 288693.1, 0.0018747556, 10.002533, 9.998742 
1.4249587e+3, 1.5417686e+2, -1118224.6, -1412845.9, -34359.566, 0.10159379, 0.15232185, -1114270.6, 314810.56, 0.0004643644, 10.002673, 9.998765 
1.4249666e+3, 1.641753e+2, -1075113.3, -1373571.1, -23181.115, 0.009090045, 0.13459712, -1073323.5, 257771.9, 0.000040275583, 10.002434, 9.998478 
1.4249763e+3, 1.7417386e+2, -1083995.6, -1323762.0, -6106.428, 0.07658588, 0.13876761, -1083840.1, 149269.63, 0.00000008454083, 10.001685, 9.9985075 
1.4249854e+3, 1.8417251e+2, -1021450.75, -1185176.4, -11061.006, 0.09816948, 0.13254999, -1020706.9, 114415.64, 0.0, 10.001193, 9.999023 
1.4249936e+3, 1.9417135e+2, -935079.94, -1081813.5, -17135.922, 0.04093389, 0.1034868, -933105.4, 104027.375, 0.0, 10.001066, 9.999121 
1.425002e+3, 2.0417053e+2, -863764.3, -974551.1, -10955.316, 0.00063525036, 0.102618515, -862691.4, 76449.07, 0.0, 10.000788, 9.999318 
1.425011e+3, 2.1417026e+2, -832157.44, -901093.3, -11975.87, -0.011578514, 0.13491443, -830136.2, 11008.01, 0.0, 10.000299, 9.999385 
1.4250198e+3, 2.2416994e+2, -779483.25, -782533.0, -17271.678, -0.016229833, 0.14912966, -763669.25, -20521.314, 0.0, 9.999806, 9.999764 
1.4250287e+3, 2.3416963e+2, -748018.1, -707150.0, -8433.344, -0.012554562, 0.13422751, -705478.1, -60327.082, 0.0, 9.99931, 9.999848 
1.4250374e+3, 2.4416964e+2, -681913.8, -596624.5, -10399.329, -0.022081958, 0.13966142, -595374.8, -48223.324, 0.0, 9.998971, 10.000096 
1.4250457e+3, 2.5417003e+2, -595719.2, -495805.28, -23766.453, -0.048122715, 0.16307367, -490440.06, -41291.996, 0.0, 9.998854, 10.000172 
1.4250545e+3, 2.641702e+2, -541823.0, -402551.56, -11876.142, -0.054487977, 0.15588897, -401546.1, -50399.316, 0.0, 9.99848, 10.0003195 
1.4250639e+3, 2.7417013e+2, -545255.1, -346055.4, -2527.8818, -0.037348725, 0.11218665, -346023.34, -92876.77, 0.0, 9.99775, 10.000385 
1.4250728e+3, 2.841707e+2, -499738.94, -282786.88, -8602.052, -0.050722297, 0.13328765, -282446.34, -127305.08, 0.0, 9.997432, 10.000299 
1.4250812e+3, 2.9417175e+2, -359775.56, -160848.66, -15902.789, -0.096832305, 0.20665276, -159585.36, -102454.08, 0.0, 9.997704, 10.000333 
1.4250906e+3, 3.0417085e+2, -349095.3, -124597.38, 13293.407, -0.07571812, 0.08178009, -123812.97, -123812.97, 0.0, 9.997416, 10.000387 
1.4251006e+3, 3.141721e+2, -429029.38, -37198.727, 44727.254, -0.058028124, 0.1594009, -32157.984, -32157.984, 0.0, 9.996322, 10.001515 
1.4349355e+3, 1.2417239e+2, -1324482.6, -1717560.6, -68278.76, 0.18370898, 0.23308875, -1312960.1, 410170.22, 0.007877122, 10.003538, 9.998275 
1.4349423e+3, 1.341705e+2, -1276133.8, -1572043.0, 6883.061, -0.02603166, 0.15921721, -1275973.8, 349173.38, 0.00464788, 10.00286, 9.998937 
1.4349538e+3, 1.4416939e+2, -1267777.5, -1585310.0, -8194.213, 0.21981296, 0.18169145, -1267566.1, 259590.56, 0.0019819823, 10.002534, 9.9983225 
1.4349617e+3, 1.541674e+2, -1151602.3, -1483371.0, -29501.0, 0.13175017, 0.15466298, -1148999.5, 280176.13, 0.00049257313, 10.002678, 9.99828 
1.4349695e+3, 1.6416578e+2, -1051284.8, -1326221.5, -49841.21, 0.05881104, 0.14401019, -1042528.3, 288662.38, 0.000043431377, 10.002441, 9.998799 
1.4349778e+3, 1.7416486e+2, -1055649.3, -1266275.8, -34957.977, 0.059831575, 0.15935954, -1049998.9, 183200.11, 0.00000010052836, 10.00169, 9.9989 
1.4349861e+3, 1.8416363e+2, -1027969.25, -1199997.0, -18349.328, 0.05978467, 0.14920916, -1026033.8, 109175.98, 0.0, 10.001197, 9.99892 
1.4349946e+3, 1.9416209e+2, -944941.94, -1103292.9, -22122.5, 0.042795423, 0.09471354, -941909.4, 95314.516, 0.0, 10.001069, 9.998972 
1.435003e+3, 2.0416111e+2, -867396.6, -982714.8, -28583.365, 0.019834489, 0.08925653, -860700.6, 78532.555, 0.0, 10.00079, 9.999262 
1.4350113e+3, 2.1416102e+2, -835031.9, -908276.3, -30319.35, -0.005284145, 0.14638436, -824109.94, 17125.389, 0.0, 10.000303, 9.999335 
1.4350197e+3, 2.2416078e+2, -761911.06, -747019.6, -35999.71, -0.019551372, 0.16114901, -717703.7, 25534.209, 0.0, 9.999809, 10.000007 
1.4350279e+3, 2.3416044e+2, -729029.6, -668300.75, -26935.426, -0.020713696, 0.11358319, -658075.56, -12835.107, 0.0, 9.9993105, 10.000115 
1.4350362e+3, 2.4416037e+2, -701206.56, -637118.0, -15730.196, -0.03271252, 0.111213565, -633465.3, -86223.91, 0.0, 9.998971, 9.999819 
1.4350446e+3, 2.5416073e+2, -618776.7, -544077.0, -27320.883, -0.059007138, 0.16118632, -535151.1, -85911.26, 0.0, 9.998854, 9.999842 
1.435053e+3, 2.6416096e+2, -527757.9, -373848.4, -36385.113, -0.062856995, 0.17030688, -365680.25, -14441.813, 0.0, 9.99848, 10.000517 
1.4350617e+3, 2.7416116e+2, -527704.25, -309797.75, -28800.611, -0.03696716, 0.1278125, -306055.44, -52820.12, 0.0, 9.99775, 10.000635 
1.4350703e+3, 2.8416175e+2, -506069.34, -296686.53, -347.35666, -0.05013109, 0.14586335, -296685.97, -141456.75, 0.0, 9.997433, 10.000204 
1.4350787e+3, 2.9416266e+2, -370890.78, -183736.14, -3746.3818, -0.11165183, 0.21320058, -183661.17, -126439.99, 0.0, 9.997701, 10.000177 
1.4350879e+3, 3.0416167e+2, -353568.47, -132949.48, -22952.033, -0.08737429, 0.09712702, -130586.98, -130586.98, 0.0, 9.997411, 10.000332 
1.4350969e+3, 3.141629e+2, -406853.34, 8822.603, 2924.5618, -0.05371552, 0.1739266, 8843.178, 8843.178, 0.0, 9.996322, 10.001832 
1.4449391e+3, 1.24163486e+2, -1372287.5, -1755552.6, -32636.617, 0.20028624, 0.21250734, -1369528.3, 353689.56, 0.008301398, 10.003275, 9.998138 
1.4449455e+3, 1.3416208e+2, -1200093.5, -1543871.9, 18281.295, -0.027712168, 0.19301866, -1199124.0, 426107.06, 0.0049079615, 10.003424, 9.998858 
1.4449565e+3, 1.4416087e+2, -1174399.0, -1539502.5, -2557.7888, 0.1966986, 0.2124404, -1174381.0, 352860.8, 0.0020998851, 10.003177, 9.998326 
1.4449644e+3, 1.5415868e+2, -1189308.4, -1499561.8, 13368.3125, 0.13669975, 0.16134381, -1188733.5, 240528.73, 0.00052445993, 10.002412, 9.998295 
1.4449719e+3, 1.6415699e+2, -1123247.3, -1360041.6, -391.0595, 0.07016171, 0.14225443, -1123246.6, 208031.13, 0.000047180834, 10.001946, 9.998805 
1.4449795e+3, 1.7415619e+2, -1024078.06, -1250465.4, -15712.573, 0.047895618, 0.17056559, -1022992.75, 210292.38, 0.00000012546444, 10.001906, 9.998903 
1.4449874e+3, 1.8415506e+2, -962058.75, -1169549.8, -10064.194, 0.0424567, 0.169397, -961571.75, 173723.53, 0.0, 10.0016575, 9.998906 
1.4449957e+3, 1.9415353e+2, -938409.25, -1101890.1, -4415.8906, 0.04314651, 0.120156266, -938290.06, 99018.8, 0.0, 10.001123, 9.998955 
1.4450037e+3, 2.0415248e+2, -892856.0, -988884.0, -7777.8105, 0.029135028, 0.1053747, -892230.1, 47088.414, 0.0, 10.000589, 9.999316 
1.4450116e+3, 2.1415216e+2, -865929.0, -916127.2, -2411.7195, 0.001199281, 0.13278425, -865813.4, -24491.184, 0.0, 10.000063, 9.999395 
1.4450194e+3, 2.2415188e+2, -791773.0, -771971.06, -11012.339, -0.017068911, 0.14467864, -767063.25, -23738.16, 0.0, 9.999651, 9.999911 
1.4450273e+3, 2.3415177e+2, -724906.3, -678689.75, -30128.36, -0.024430936, 0.13076544, -663828.2, -18501.97, 0.0, 9.9993925, 10.000004 
1.4450352e+3, 2.441517e+2, -686203.4, -620992.6, -19396.662, -0.035651717, 0.13195248, -615659.4, -68332.33, 0.0, 9.999036, 9.999899 
1.4450434e+3, 2.541518e+2, -657240.9, -551782.7, -94.90895, -0.05172718, 0.14388557, -551782.6, -102455.33, 0.0, 9.998542, 9.999938 
1.4450514e+3, 2.64152e+2, -574118.1, -404989.25, -5807.481, -0.05691446, 0.14983667, -404790.1, -53464.22, 0.0, 9.9982, 10.000438 
1.4450595e+3, 2.7415252e+2, -487583.47, -300609.0, -24545.78, -0.048696898, 0.15148042, -297440.38, -44119.94, 0.0, 9.99807, 10.000544 
1.4450677e+3, 2.841532e+2, -461099.72, -263676.03, 4090.0835, -0.06335943, 0.17547362, -263591.34, -108277.31, 0.0, 9.997693, 10.000305 
1.4450762e+3, 2.9415378e+2, -468497.34, -218897.11, 19408.73, -0.10242541, 0.19812538, -217396.92, -160088.61, 0.0, 9.99698, 10.000283 
1.4450851e+3, 3.0415297e+2, -483770.56, -206020.33, -131.58368, -0.07103659, 0.09645403, -206020.27, -206020.27, 0.0, 9.996564, 10.000237 
1.4450933e+3, 3.1415433e+2, -353329.53, 57009.133, 16314.809, -0.070933364, 0.1985805, 57656.777, 57656.777, 0.0, 9.996594, 10.00203 
1.4549421e+3, 1.2415492e+2, -1410928.5, -1836558.0, -37575.125, 0.1813008, 0.14791942, -1407636.8, 315663.38, 0.008755289, 10.003275, 9.997583 
1.4549492e+3, 1.3415405e+2, -1238113.8, -1623726.8, 23369.3, -0.0068716966, 0.23823835, -1236702.6, 388609.16, 0.0051877103, 10.003428, 9.998305 
1.4549597e+3, 1.4415294e+2, -1142990.9, -1476641.3, -30316.563, 0.20376492, 0.27477658, -1140258.6, 387064.34, 0.0022286694, 10.003185, 9.9987545 
1.4549665e+3, 1.5415074e+2, -1152321.6, -1423286.8, -16183.487, 0.11484263, 0.17275524, -1151358.5, 277981.97, 0.0005603208, 10.002414, 9.998818 
1.4549735e+3, 1.6414896e+2, -1145242.1, -1407059.9, -4812.9614, 0.040445227, 0.13018525, -1145153.6, 186202.58, 0.00005156165, 10.00195, 9.998481 
1.4549813e+3, 1.7414789e+2, -1051571.3, -1308978.6, -17424.117, 0.040073536, 0.17236999, -1050397.1, 182970.83, 0.00000016567238, 10.001911, 9.9985 
1.4549892e+3, 1.8414679e+2, -956432.9, -1159257.5, -29358.795, 0.045128472, 0.1936455, -952268.7, 183110.0, 0.0, 10.001662, 9.998976 
1.4549968e+3, 1.9414572e+2, -929679.56, -1085576.9, -24759.027, 0.04161594, 0.17892416, -925841.9, 111545.7, 0.0, 10.001129, 9.999065 
1.4550044e+3, 2.0414466e+2, -881067.56, -965976.56, -28159.281, 0.027895108, 0.14980632, -872577.7, 66818.81, 0.0, 10.000595, 9.999471 
1.4550117e+3, 2.1414368e+2, -854074.25, -892520.0, -22378.197, 0.00670727, 0.09482956, -843796.25, -2391.4575, 0.0, 10.000066, 9.9995575 
1.4550191e+3, 2.2414324e+2, -821909.44, -834762.3, -21568.404, -0.010530714, 0.10044642, -805830.44, -62421.016, 0.0, 9.99965, 9.999481 
1.4550266e+3, 2.3414361e+2, -758501.44, -749248.0, -39183.813, -0.024312327, 0.1847482, -714418.7, -69010.45, 0.0, 9.999394, 9.999519 
1.4550343e+3, 2.4414364e+2, -656053.94, -559111.75, -36681.664, -0.031291083, 0.20024985, -546796.44, 612.14343, 0.0, 9.999038, 10.000323 
1.455042e+3, 2.541432e+2, -621300.3, -477665.2, -17935.658, -0.027111288, 0.11160034, -475459.47, -26049.02, 0.0, 9.998543, 10.000448 
1.4550498e+3, 2.641433e+2, -598807.3, -456682.16, -11029.974, -0.038275898, 0.09537571, -455831.25, -104421.984, 0.0, 9.9982, 10.000083 
1.4550573e+3, 2.741443e+2, -518413.8, -364697.28, -28067.781, -0.07465851, 0.18336765, -359732.63, -106330.49, 0.0, 9.998069, 10.000105 
1.455065e+3, 2.84145e+2, -439387.4, -219212.14, -20051.049, -0.09175116, 0.2219528, -217401.03, -62005.04, 0.0, 9.997694, 10.000611 
1.4550735e+3, 2.9414508e+2, -442760.1, -166180.86, -6525.0215, -0.06983709, 0.16103135, -166027.02, -108634.06, 0.0, 9.996981, 10.000647 
1.455082e+3, 3.0414462e+2, -493399.56, -226759.89, -244.51822, -0.02890452, 0.08066479, -226759.66, -226759.66, 0.0, 9.996566, 10.000094 
1.4550893e+3, 3.1414637e+2, -351379.34, 61581.1, 16238.437, -0.11351817, 0.23584208, 62218.645, 62218.645, 0.0, 9.996592, 10.002064 
1.4649455e+3, 1.241473e+2, -1331065.4, -1805582.5, -35810.59, 0.16808476, 0.15662462, -1328378.1, 394997.44, 0.009235504, 10.003864, 9.997512 
1.4649524e+3, 1.3414636e+2, -1289946.4, -1656834.4, 68087.4, -0.006729643, 0.2447873, -1277718.3, 347670.22, 0.0054858825, 10.003107, 9.998232 
1.4649625e+3, 1.4414512e+2, -1217309.3, -1502301.9, 18250.541, 0.18903707, 0.26905987, -1216145.3, 311255.66, 0.002367959, 10.002633, 9.998842 
1.4649689e+3, 1.5414327e+2, -1120235.9, -1395903.3, 468.98718, 0.104053855, 0.19255702, -1120235.1, 309179.53, 0.0006001031, 10.002584, 9.998923 
1.4649756e+3, 1.6414157e+2, -1093182.0, -1388040.8, 8271.409, 0.032901485, 0.1556948, -1092950.1, 238479.23, 0.00005646771, 10.0023365, 9.998425 
1.4649832e+3, 1.7414023e+2, -1070240.4, -1325591.4, 19971.82, 0.033674527, 0.17657036, -1068687.8, 164756.1, 0.00000022299002, 10.001819, 9.998429 
1.4649905e+3, 1.8413904e+2, -999589.1, -1179659.0, 13573.051, 0.04053705, 0.19139796, -998571.8, 136883.94, 0.0, 10.001366, 9.998977 
1.464998e+3, 1.9413811e+2, -945579.44, -1091951.5, 9861.62, 0.039549567, 0.1906125, -944918.0, 92545.27, 0.0, 10.001018, 9.999074 
1.465005e+3, 2.0413709e+2, -876513.8, -976515.1, -6542.941, 0.026690321, 0.16942212, -876087.5, 63384.43, 0.0, 10.000683, 9.999355 
1.4650118e+3, 2.1413597e+2, -819515.94, -890120.8, -22897.582, 0.0031747725, 0.11505255, -812740.4, 28741.191, 0.0, 10.000366, 9.999429 
1.4650188e+3, 2.2413538e+2, -782982.7, -822687.5, -20968.438, -0.011706985, 0.116421565, -773959.6, -30472.184, 0.0, 9.999947, 9.999421 
1.465026e+3, 2.341356e+2, -763830.6, -757360.6, -7365.453, -0.016759649, 0.18879789, -752551.06, -107063.46, 0.0, 9.999383, 9.999468 
1.4650333e+3, 2.4413554e+2, -670520.06, -571565.7, -1973.1058, -0.023937976, 0.20198083, -571526.4, -24037.945, 0.0, 9.998963, 10.000273 
1.4650406e+3, 2.541352e+2, -596598.0, -471074.6, -24893.936, -0.03244023, 0.12482236, -466317.84, -16828.063, 0.0, 9.998736, 10.000399 
1.465048e+3, 2.6413524e+2, -572040.75, -446152.8, -27805.814, -0.046746206, 0.10993029, -440284.7, -88795.89, 0.0, 9.998395, 10.000061 
1.4650553e+3, 2.7413607e+2, -544737.1, -379481.7, -14853.543, -0.07282762, 0.18253362, -378157.22, -124674.21, 0.0, 9.997897, 10.000085 
1.4650628e+3, 2.8413665e+2, -462793.8, -217604.8, -2806.6167, -0.08870186, 0.20678356, -217572.67, -62095.094, 0.0, 9.9974785, 10.000726 
1.4650704e+3, 2.9413688e+2, -407101.63, -135608.28, -8776.014, -0.07840871, 0.14152965, -135324.89, -77851.38, 0.0, 9.9971695, 10.000764 
1.4650786e+3, 3.0413684e+2, -470829.38, -223547.9, -289.94138, -0.0400044, 0.104658976, -223547.56, -223547.56, 0.0, 9.996753, 10.000026 
1.4650857e+3, 3.141382e+2, -399901.97, 42482.063, 20437.848, -0.12546018, 0.22728397, 43424.27, 43424.27, 0.0, 9.99624, 10.002101 
1.4749493e+3, 1.24140725e+2, -1300428.0, -1743486.3, -70934.85, 0.16219288, 0.24041665, -1289348.3, 434095.1, 0.00973839, 10.003873, 9.997935 
1.4749554e+3, 1.3413903e+2, -1261091.1, -1596457.6, 38621.08, -0.029154537, 0.2128541, -1256701.0, 368759.2, 0.005800612, 10.003106, 9.998648 
1.4749648e+3, 1.4413749e+2, -1235484.0, -1540874.4, 13154.007, 0.14935212, 0.19544299, -1234918.4, 292556.3, 0.0025169705, 10.002636, 9.998577 
1.4749715e+3, 1.5413633e+2, -1142870.0, -1443911.4, -1691.599, 0.10373408, 0.22045617, -1142860.5, 286623.6, 0.000643619, 10.002587, 9.998592 
1.474978e+3, 1.641349e+2, -1077859.5, -1358076.8, -10981.149, 0.047257017, 0.21949679, -1077429.9, 254067.0, 0.00006177202, 10.002342, 9.998628 
1.4749849e+3, 1.7413324e+2, -1051429.0, -1288434.0, -104.10436, 0.028134052, 0.1826671, -1051429.0, 182083.77, 0.0000002932695, 10.001824, 9.998682 
1.4749919e+3, 1.8413179e+2, -1003229.5, -1189031.1, -733.6996, 0.027143456, 0.1620624, -1003226.56, 132299.5, 0.0, 10.001372, 9.99891 
1.4749989e+3, 1.9413072e+2, -951911.25, -1106350.1, -3567.7, 0.036195178, 0.1559213, -951828.9, 85706.68, 0.0, 10.001021, 9.998974 
1.4750056e+3, 2.0412976e+2, -903740.4, -1033512.4, -18942.645, 0.024635945, 0.16522384, -901031.9, 38512.848, 0.0, 10.000683, 9.998965 
1.4750122e+3, 2.1412906e+2, -848415.06, -951488.5, -34598.43, -0.010023546, 0.19161884, -837878.56, 3674.0024, 0.0, 10.00037, 9.999006 
1.4750187e+3, 2.2412834e+2, -761710.06, -779434.06, -41424.242, -0.021290785, 0.19038366, -728210.5, 15348.92, 0.0, 9.999949, 9.999717 
1.4750256e+3, 2.3412773e+2, -737876.44, -704328.4, -28243.414, -0.0024444435, 0.14431447, -688253.4, -42689.25, 0.0, 9.999386, 9.999831 
1.4750324e+3, 2.4412744e+2, -706741.8, -646963.7, -11113.9375, -0.01467175, 0.13862374, -644964.25, -97397.6, 0.0, 9.998963, 9.999756 
1.4750391e+3, 2.541277e+2, -638985.25, -559064.6, -32367.428, -0.068243444, 0.18254714, -547600.44, -98034.94, 0.0, 9.998735, 9.999796 
1.475046e+3, 2.6412782e+2, -550693.3, -402440.25, -44727.438, -0.082294516, 0.19200955, -389991.47, -38426.734, 0.0, 9.998396, 10.000361 
1.4750534e+3, 2.7412787e+2, -517854.94, -323743.97, -32409.156, -0.044479433, 0.1495177, -318475.88, -64912.52, 0.0, 9.997896, 10.00047 
1.4750606e+3, 2.8412822e+2, -468545.1, -229106.55, -14014.15, -0.05682541, 0.13164261, -228289.11, -72730.03, 0.0, 9.997477, 10.000648 
1.4750671e+3, 2.94129e+2, -416712.94, -155613.13, -19290.021, -0.12847625, 0.13935836, -154195.69, -96645.25, 0.0, 9.997169, 10.0006275 
1.4750747e+3, 3.0412957e+2, -468733.03, -220652.53, -18920.799, -0.10325685, 0.16774455, -219217.77, -219217.77, 0.0, 9.9967575, 10.000045 
1.4750822e+3, 3.1412995e+2, -398197.25, 45510.742, -1283.7578, -0.109165356, 0.18486589, 45514.457, 45514.457, 0.0, 9.996241, 10.002123 
1.4849526e+3, 1.2413428e+2, -1384617.0, -1757518.5, -44165.402, 0.14152665, 0.28231013, -1379457.6, 344051.75, 0.010262846, 10.003176, 9.998173 
1.4849585e+3, 1.3413256e+2, -1234313.1, -1561979.1, 52542.254, -0.027808294, 0.2328125, -1226094.0, 399430.56, 0.0061310735, 10.0032, 9.99884 
1.4849675e+3, 1.4413083e+2, -1190112.4, -1528898.8, 27001.865, 0.13731058, 0.19115944, -1187973.8, 339566.5, 0.0026753244, 10.002993, 9.9984865 
1.4849737e+3, 1.541297e+2, -1164216.6, -1466537.8, 28317.555, 0.08309943, 0.2288613, -1161587.0, 267963.25, 0.00069087674, 10.002496, 9.99848 
1.4849801e+3, 1.6412829e+2, -1113250.8, -1371132.9, 17828.463, 0.032146722, 0.23363912, -1112024.0, 219539.03, 0.00006744942, 10.002085, 9.998661 
1.4849868e+3, 1.7412661e+2, -1051144.6, -1282945.1, 12180.633, 0.03723136, 0.19184372, -1050506.3, 183072.13, 0.00000037325287, 10.001805, 9.998728 
1.4849934e+3, 1.8412514e+2, -988706.1, -1190860.6, 4550.857, 0.04055352, 0.16834766, -988603.75, 146988.3, 0.0, 10.001512, 9.99883 
1.4849998e+3, 1.94124e+2, -932020.8, -1106883.0, 1773.2985, 0.025691405, 0.16396579, -932002.9, 105599.74, 0.0, 10.001204, 9.998881 
1.4850062e+3, 2.0412298e+2, -883976.06, -1034560.3, -3809.7532, 0.007910259, 0.17685987, -883879.75, 55732.85, 0.0, 10.000866, 9.998869 
1.4850126e+3, 2.141222e+2, -838301.1, -957278.0, 3964.0664, -0.008420653, 0.20780125, -838169.2, 3451.8809, 0.0, 10.000487, 9.998909 
1.4850187e+3, 2.2412142e+2, -745590.7, -778521.3, -6997.973, -0.012388005, 0.20587683, -744165.25, -536.6706, 0.0, 10.000092, 9.999654 
1.4850251e+3, 2.3412065e+2, -700894.06, -693304.7, -26464.12, -0.001988273, 0.1518249, -670364.6, -24730.432, 0.0, 9.999671, 9.999769 
1.4850314e+3, 2.4412024e+2, -689315.8, -660612.3, -13094.124, -0.017173534, 0.14580692, -655536.56, -107898.53, 0.0, 9.999179, 9.9995575 
1.4850377e+3, 2.5412038e+2, -675595.25, -600491.4, -6425.0728, -0.06566356, 0.20097825, -599945.7, -150306.98, 0.0, 9.998589, 9.999581 
1.4850444e+3, 2.6412046e+2, -585175.44, -412439.3, -10507.273, -0.07714797, 0.2136279, -411802.5, -60163.93, 0.0, 9.998133, 10.00042 
1.4850514e+3, 2.7412048e+2, -516608.53, -313449.97, -20773.543, -0.041412912, 0.15871532, -311347.6, -57711.035, 0.0, 9.997865, 10.000555 
1.4850579e+3, 2.8412074e+2, -468113.06, -239463.94, -14418.264, -0.058290336, 0.13082269, -238558.34, -82925.35, 0.0, 9.997526, 10.000552 
1.4850642e+3, 2.9412147e+2, -437099.63, -178665.58, -20417.613, -0.1366046, 0.14166154, -177062.42, -119436.43, 0.0, 9.9970875, 10.000507 
1.4850713e+3, 3.041224e+2, -476524.84, -206046.52, -17930.275, -0.11126924, 0.2062023, -204863.08, -204863.08, 0.0, 9.996627, 10.000208 
1.4850782e+3, 3.1412232e+2, -405892.03, 49073.285, 6660.9473, -0.1086252, 0.16346401, 49170.785, 49170.785, 0.0, 9.996158, 10.002187 
1.4949554e+3, 1.24128036e+2, -1382274.9, -1752355.5, -47968.97, 0.10457397, 0.28173962, -1376158.3, 347414.53, 0.010811674, 10.003175, 9.99821 
1.494962e+3, 1.3412704e+2, -1237619.0, -1569058.0, 52566.34, -0.0028810669, 0.3053046, -1229481.8, 396099.4, 0.0064788726, 10.0032015, 9.998792 
1.4949706e+3, 1.4412522e+2, -1182963.0, -1516041.6, 8329.775, 0.1532137, 0.2575375, -1182754.8, 344842.16, 0.00284381, 10.003, 9.998572 
1.4949758e+3, 1.5412343e+2, -1156138.6, -1451134.4, 8825.239, 0.041004565, 0.21787284, -1155874.9, 273737.75, 0.00074233697, 10.002501, 9.998585 
1.4949816e+3, 1.6412176e+2, -1122341.9, -1391771.0, 5807.193, -0.014686758, 0.19800653, -1122216.8, 209410.88, 0.000073667885, 10.002091, 9.998517 
1.4949888e+3, 1.741204e+2, -1062725.5, -1308175.9, 1217.3394, 0.06034353, 0.2040982, -1062719.5, 170921.23, 0.00000046463128, 10.001809, 9.998554 
1.4949954e+3, 1.8411908e+2, -995251.3, -1205332.1, -7645.136, 0.08041863, 0.2112625, -994973.44, 140679.8, 0.0, 10.001514, 9.99873 
1.4950009e+3, 1.9411792e+2, -937297.44, -1119731.8, -10034.129, 0.007194763, 0.21367358, -936747.2, 100917.04, 0.0, 10.001209, 9.998792 
1.4950068e+3, 2.041167e+2, -870017.94, -1007015.0, -18137.621, -0.024674961, 0.20251869, -867657.25, 72018.36, 0.0, 10.000871, 9.999056 
1.4950132e+3, 2.1411547e+2, -822507.06, -925579.2, -10338.638, 0.0074709617, 0.16503902, -821480.3, 20206.623, 0.0, 10.00049, 9.9991255 
1.4950192e+3, 2.2411461e+2, -775039.5, -839854.94, -22766.8, 0.014452404, 0.16421376, -767841.8, -24146.848, 0.0, 10.000092, 9.999234 
1.4950247e+3, 2.3411436e+2, -734470.7, -763585.75, -41839.793, -0.016127279, 0.20973384, -704728.25, -59030.414, 0.0, 9.999672, 9.999287 
1.4950304e+3, 2.441139e+2, -682007.25, -646167.1, -34236.027, -0.032198872, 0.22151957, -625444.8, -77742.1, 0.0, 9.999181, 9.999656 
1.4950368e+3, 2.5411326e+2, -664539.44, -578087.94, -27676.516, -0.026029801, 0.18141681, -569986.75, -120277.2, 0.0, 9.9985895, 9.999735 
1.495043e+3, 2.6411316e+2, -597681.75, -438312.78, -20788.27, -0.033153366, 0.17614093, -435645.75, -83935.17, 0.0, 9.998132, 10.000242 
1.495049e+3, 2.7411383e+2, -531228.0, -344217.94, -29577.93, -0.06360933, 0.20861037, -339651.34, -85948.22, 0.0, 9.997866, 10.000343 
1.4950551e+3, 2.841141e+2, -475774.1, -257123.27, -29449.768, -0.092547424, 0.20201482, -253226.17, -97526.3, 0.0, 9.997532, 10.000429 
1.4950615e+3, 2.9411408e+2, -445913.8, -196960.94, -35924.97, -0.10632771, 0.14910196, -191880.5, -134179.94, 0.0, 9.997085, 10.000385 
1.4950684e+3, 3.0411518e+2, -455404.72, -160576.31, -34654.344, -0.06918712, 0.22115201, -156557.78, -156557.78, 0.0, 9.996619, 10.000524 
1.4950743e+3, 3.141154e+2, -399498.3, 62069.72, -13132.649, -0.124600425, 0.17398216, 62443.07, 62443.07, 0.0, 9.99616, 10.0022745 
1.5049586e+3, 1.24122284e+2, -1361626.6, -1740533.4, -20894.16, 0.09293843, 0.2839643, -1360477.9, 363151.8, 0.011389687, 10.003313, 9.998224 
1.5049648e+3, 1.3412128e+2, -1294667.1, -1605765.6, 78974.91, -0.006197288, 0.31447756, -1275766.9, 349871.34, 0.006846775, 10.002849, 9.998707 
1.5049733e+3, 1.441194e+2, -1250951.4, -1550004.9, 28319.84, 0.13894807, 0.26521984, -1248293.3, 279361.75, 0.0030239136, 10.00254, 9.99856 
1.5049782e+3, 1.5411772e+2, -1158104.4, -1452370.9, 20220.71, 0.032954752, 0.23660903, -1156721.4, 272948.4, 0.000798702, 10.002489, 9.998581 
1.5049839e+3, 1.6411602e+2, -1101624.9, -1390962.4, 11398.982, -0.01785776, 0.21875438, -1101176.5, 230508.67, 0.0000807338, 10.002274, 9.998434 
1.5049906e+3, 1.7411445e+2, -1066944.5, -1320158.3, 11866.363, 0.05916442, 0.21344136, -1066389.6, 167310.56, 0.00000057502143, 10.001824, 9.998464 
1.5049969e+3, 1.8411307e+2, -1003481.1, -1209334.6, 13162.798, 0.079856925, 0.21847822, -1002642.9, 133070.6, 0.0, 10.001459, 9.998728 
1.5050021e+3, 1.9411202e+2, -935494.94, -1118115.4, 17682.38, 0.0049332096, 0.23203978, -933798.56, 103924.73, 0.0, 10.00122, 9.998796 
1.5050077e+3, 2.041108e+2, -871395.8, -1011859.1, 106.69258, -0.026348827, 0.22258963, -871395.75, 68338.77, 0.0, 10.00088, 9.999018 
1.5050137e+3, 2.1410942e+2, -839010.9, -938183.9, -12610.285, 0.009503472, 0.17465642, -837432.56, 4314.443, 0.0, 10.000399, 9.999083 
1.5050192e+3, 2.2410843e+2, -797375.4, -867663.7, -23486.805, 0.016455295, 0.16991617, -790249.6, -46493.195, 0.0, 10.000013, 9.99908 
1.5050243e+3, 2.3410806e+2, -733211.4, -781592.56, -19474.176, -0.019130087, 0.21977796, -726346.75, -80585.77, 0.0, 9.999763, 9.999119 
1.5050298e+3, 2.4410754e+2, -641850.0, -621594.44, -6967.865, -0.03223796, 0.23207963, -619429.0, -71662.54, 0.0, 9.999436, 9.9997015 
1.5050356e+3, 2.541069e+2, -600239.44, -539520.2, -8684.817, -0.012941328, 0.187375, -538302.4, -88530.11, 0.0, 9.999001, 9.999802 
1.5050414e+3, 2.6410678e+2, -553067.94, -437997.84, -1644.7216, -0.020328663, 0.18568783, -437974.3, -86200.93, 0.0, 9.998531, 10.0000515 
1.505047e+3, 2.741074e+2, -524864.06, -365322.13, -10869.906, -0.06892904, 0.23086661, -364584.94, -110817.23, 0.0, 9.998015, 10.000125 
1.5050526e+3, 2.8410754e+2, -478192.75, -260459.38, -9588.439, -0.098899715, 0.2235763, -260037.94, -104271.734, 0.0, 9.997526, 10.000408 
1.5050589e+3, 2.9410738e+2, -447480.25, -197130.19, -8833.256, -0.09098037, 0.1588725, -196818.9, -139051.22, 0.0, 9.997073, 10.000388 
1.5050651e+3, 3.0410865e+2, -441479.5, -143590.7, -6910.862, -0.053153902, 0.2431677, -143430.47, -143430.47, 0.0, 9.996672, 10.000615 
1.5050706e+3, 3.1410876e+2, -387721.34, 42554.816, -8588.799, -0.12720999, 0.17569886, 42726.19, 42726.19, 0.0, 9.996349, 10.0020485 
1.514962e+3, 1.2411712e+2, -1361081.9, -1740550.0, -41800.574, 0.10736728, 0.29269847, -1356531.9, 367147.3, 0.012000226, 10.003319, 9.998222 
1.5149674e+3, 1.3411535e+2, -1302926.0, -1622801.1, 60388.29, -0.03917071, 0.2595556, -1291905.3, 333790.22, 0.0072362158, 10.002849, 9.99859 
1.5149753e+3, 1.441134e+2, -1258924.5, -1567683.8, 23939.406, 0.09239148, 0.2141519, -1257079.4, 270634.34, 0.003216304, 10.0025425, 9.998438 
1.5149811e+3, 1.5411259e+2, -1166459.8, -1470872.1, 17942.902, 0.058477882, 0.28532797, -1165405.8, 264315.6, 0.00086027547, 10.002493, 9.998453 
1.5149866e+3, 1.6411112e+2, -1102212.3, -1393806.1, -5102.4434, 0.022496713, 0.29736635, -1102123.0, 229612.06, 0.00008890055, 10.002278, 9.998413 
1.5149921e+3, 1.7410883e+2, -1066669.9, -1321349.3, -5536.2813, 0.03257098, 0.21931258, -1066549.5, 167207.17, 0.00000071310234, 10.00183, 9.998453 
1.5149978e+3, 1.841071e+2, -996523.9, -1196566.9, 2993.725, 0.037063196, 0.18870977, -996479.1, 139293.45, 0.0, 10.001465, 9.998814 
1.5150034e+3, 1.9410633e+2, -928418.9, -1104683.5, 8488.13, 0.018580453, 0.21961622, -928011.1, 109768.35, 0.0, 10.001224, 9.998888 
1.5150088e+3, 2.0410532e+2, -889918.9, -1050948.1, -17627.516, 0.0029429, 0.23834799, -888011.8, 51777.14, 0.0, 10.000882, 9.99875 
1.5150139e+3, 2.1410409e+2, -860126.0, -982835.2, -30721.045, -0.0034235422, 0.23532209, -852864.5, -11063.16, 0.0, 10.0004015, 9.9987755 
1.5150191e+3, 2.2410287e+2, -790143.25, -853252.06, -33539.93, -0.00776131, 0.22103402, -775647.56, -31834.438, 0.0, 10.000015, 9.999179 
1.5150242e+3, 2.3410176e+2, -723048.1, -761341.25, -28346.225, -0.011414107, 0.18341355, -707988.0, -62164.402, 0.0, 9.999764, 9.999257 
1.5150294e+3, 2.4410115e+2, -642677.44, -623577.2, -22379.31, -0.017864402, 0.17861113, -608795.44, -60966.13, 0.0, 9.999436, 9.999688 
1.5150346e+3, 2.5410134e+2, -602045.6, -543646.94, -24353.969, -0.026723018, 0.21733266, -534823.7, -84996.336, 0.0, 9.999001, 9.999773 
1.5150398e+3, 2.6410136e+2, -567542.56, -468561.22, -19929.953, -0.03895778, 0.24085248, -464699.0, -112871.57, 0.0, 9.998532, 9.999842 
1.515045e+3, 2.741011e+2, -541079.1, -399213.8, -28880.451, -0.059260376, 0.22701326, -393559.78, -139729.2, 0.0, 9.998014, 9.999894 
1.5150504e+3, 2.8410095e+2, -472450.13, -248677.17, -26005.041, -0.07990062, 0.19769703, -245694.83, -89862.664, 0.0, 9.997525, 10.00049 
1.5150559e+3, 2.941013e+2, -438242.06, -179854.23, -24945.518, -0.09065419, 0.16982503, -177467.95, -119639.94, 0.0, 9.99708, 10.0005045 
1.5150617e+3, 3.0410272e+2, -448600.47, -161095.5, -18503.432, -0.06326834, 0.26800957, -159909.53, -159909.53, 0.0, 9.996681, 10.000491 
1.5150669e+3, 3.141024e+2, -424905.38, -34395.168, -21889.867, -0.120518446, 0.1783356, -33171.973, -33171.973, 0.0, 9.9963455, 10.001523 
1.5249652e+3, 1.24111734e+2, -1436731.6, -1776525.5, -33478.727, 0.11902435, 0.26726815, -1433464.5, 290266.28, 0.01264397, 10.002793, 9.998228 
1.5249701e+3, 1.3411011e+2, -1274905.6, -1620938.1, 70247.49, -0.06268152, 0.2569844, -1261188.5, 364558.06, 0.007646962, 10.003096, 9.998485 
1.5249777e+3, 1.4410819e+2, -1201752.9, -1547695.8, 25808.88, 0.0564952, 0.22256465, -1199838.1, 327927.3, 0.0034202072, 10.002971, 9.998369 
1.5249835e+3, 1.5410724e+2, -1205182.4, -1496562.4, 23052.355, 0.07348802, 0.28676218, -1203369.9, 226404.6, 0.0009266569, 10.002258, 9.99839 
1.5249889e+3, 1.6410573e+2, -1160025.1, -1418824.4, 10994.657, 0.04698408, 0.29814237, -1159558.9, 172229.83, 0.000098221106, 10.001871, 9.998437 
1.5249938e+3, 1.7410353e+2, -1046394.56, -1308184.3, 13814.653, 0.0058497093, 0.22804989, -1045667.6, 188141.5, 0.0000008739153, 10.001956, 9.998483 
1.5249991e+3, 1.8410185e+2, -962142.44, -1187319.6, 9308.71, 0.0015910009, 0.20149797, -961758.25, 174066.56, 0.0, 10.001734, 9.998748 
1.5250048e+3, 1.9410098e+2, -955083.8, -1126020.6, 866.2272, 0.035003997, 0.23218234, -955079.4, 82753.5, 0.0, 10.001079, 9.998811 
1.5250099e+3, 2.0409991e+2, -926176.75, -1072920.4, -19014.842, 0.033749953, 0.25062734, -923752.9, 16090.425, 0.0, 10.000654, 9.998708 
1.5250143e+3, 2.1409863e+2, -839364.75, -977394.8, -12544.121, -0.011961207, 0.24696255, -838234.0, 3622.0435, 0.0, 10.000565, 9.9987335 
1.525019e+3, 2.2409742e+2, -750903.8, -832519.7, -11685.453, -0.02705489, 0.23296575, -749263.7, -5395.751, 0.0, 10.0002775, 9.999194 
1.525024e+3, 2.3409635e+2, -729702.6, -761991.7, -16461.908, -0.001630421, 0.19681539, -722789.8, -76911.914, 0.0, 9.99971, 9.999279 
1.5250288e+3, 2.440957e+2, -670367.75, -640691.44, -14290.025, -0.00058023847, 0.19048087, -634929.25, -87045.51, 0.0, 9.999265, 9.999653 
1.5250334e+3, 2.540958e+2, -606541.0, -550635.25, -17502.268, -0.032222394, 0.22436287, -545607.94, -95725.59, 0.0, 9.998992, 9.999729 
1.5250382e+3, 2.6409572e+2, -559646.4, -473354.78, -14963.662, -0.050853427, 0.24672693, -470833.63, -118950.484, 0.0, 9.998625, 9.999764 
1.5250431e+3, 2.7409545e+2, -532537.06, -403690.88, -14620.804, -0.05421073, 0.23561552, -402052.63, -148165.47, 0.0, 9.998113, 9.999816 
1.5250482e+3, 2.840953e+2, -452152.38, -246733.03, -4636.0425, -0.06551639, 0.21108587, -246628.45, -90739.28, 0.0, 9.997701, 10.00042 
1.5250532e+3, 2.940956e+2, -390641.9, -163425.23, -16382.666, -0.079632565, 0.19225858, -162250.1, -104365.3, 0.0, 9.997437, 10.000444 
1.5250587e+3, 3.0409694e+2, -390622.9, -125932.3, -14406.237, -0.059539054, 0.27760223, -125150.52, -125150.52, 0.0, 9.99705, 10.000554 
1.5250635e+3, 3.1409678e+2, -427028.72, -63579.09, -4873.92, -0.109709054, 0.19590388, -63513.742, -63513.742, 0.0, 9.996455, 10.001268 
1.5349682e+3, 1.2410621e+2, -1436953.8, -1777246.3, -25122.81, 0.12798163, 0.20843731, -1435109.0, 288674.7, 0.013320751, 10.002794, 9.998223 
1.5349731e+3, 1.341056e+2, -1282143.9, -1636903.5, 80700.96, -0.07771583, 0.3078842, -1264648.8, 361142.44, 0.008079103, 10.003099, 9.998374 
1.5349805e+3, 1.4410378e+2, -1201681.1, -1549449.5, 814.64624, 0.030436035, 0.29195255, -1201679.3, 326130.06, 0.0036348698, 10.002977, 9.998355 
1.5349859e+3, 1.5410167e+2, -1204368.8, -1495966.6, -4571.4883, 0.07697674, 0.24013992, -1204297.1, 225531.89, 0.0009972175, 10.002262, 9.998393 
1.5349907e+3, 1.6409989e+2, -1154991.9, -1410153.8, 10961.925, 0.05398893, 0.22052927, -1154521.8, 177323.83, 0.000108598695, 10.001877, 9.998495 
1.5349954e+3, 1.7409864e+2, -1041455.6, -1299456.5, 17003.656, -0.021380827, 0.24023351, -1040339.8, 193517.23, 0.0000010362653, 10.001961, 9.998542 
1.5350005e+3, 1.8409733e+2, -976933.75, -1219342.9, -13467.958, -0.02685123, 0.25839603, -976187.75, 159682.08, 0.0, 10.001738, 9.998527 
1.535006e+3, 1.9409603e+2, -971899.06, -1162235.9, -24038.855, 0.052762207, 0.26884624, -968910.0, 68973.52, 0.0, 10.001082, 9.998561 
1.535011e+3, 2.0409459e+2, -913620.4, -1048031.56, -24489.021, 0.064109355, 0.2576945, -909297.6, 30599.896, 0.0, 10.000658, 9.998878 
1.5350148e+3, 2.1409309e+2, -824018.1, -946504.06, -15547.896, -0.01641469, 0.21056406, -822075.3, 19835.709, 0.0, 10.000567, 9.998945 
1.535019e+3, 2.2409205e+2, -755599.75, -842787.25, -31537.32, -0.04159116, 0.20698856, -745388.1, -1467.438, 0.0, 10.000278, 9.999124 
1.5350237e+3, 2.3409177e+2, -736527.3, -776876.75, -37380.54, 0.00956037, 0.25857532, -714224.7, -68300.45, 0.0, 9.999712, 9.999176 
1.5350284e+3, 2.4409118e+2, -674447.56, -649672.6, -25018.57, 0.018686464, 0.26625198, -634142.75, -86212.84, 0.0, 9.999265, 9.999592 
1.5350325e+3, 2.540903e+2, -610714.56, -559980.5, -26632.273, -0.03070386, 0.2098625, -548567.6, -98630.2, 0.0, 9.998994, 9.999665 
1.5350367e+3, 2.6408997e+2, -555649.56, -465890.13, -32473.248, -0.05764299, 0.20384564, -455373.97, -103433.28, 0.0, 9.998627, 9.999815 
1.5350413e+3, 2.7409032e+2, -527496.5, -394655.16, -32832.434, -0.054713942, 0.2533844, -386983.5, -133045.45, 0.0, 9.9981165, 9.999876 
1.535046e+3, 2.8409043e+2, -467157.78, -278705.3, -14426.889, -0.056712206, 0.26104033, -277607.25, -121669.37, 0.0, 9.997703, 10.000199 
1.5350509e+3, 2.940904e+2, -407952.28, -199076.3, -24865.246, -0.059453726, 0.22886921, -196157.06, -138218.9, 0.0, 9.997434, 10.000203 
1.535056e+3, 3.0409127e+2, -373513.53, -90480.87, -34053.367, -0.04337448, 0.27346224, -86441.36, -86441.36, 0.0, 9.997048, 10.000799 
1.5350601e+3, 3.140917e+2, -423493.88, -58420.582, -26396.62, -0.0994552, 0.22332783, -56521.848, -56521.848, 0.0, 9.996463, 10.001302 
1.5449709e+3, 1.2410132e+2, -1374161.6, -1734800.8, -32324.375, 0.09658099, 0.2164448, -1371287.3, 352545.0, 0.014032979, 10.003182, 9.998328 
1.5449762e+3, 1.3410065e+2, -1365333.4, -1676498.1, 82027.99, -0.052758854, 0.31091368, -1345033.8, 280805.94, 0.008535393, 10.002522, 9.99838 
1.5449832e+3, 1.4409883e+2, -1312414.3, -1602976.9, 5129.708, 0.056282666, 0.2950992, -1312323.8, 215533.92, 0.0038615032, 10.002217, 9.998353 
1.5449879e+3, 1.5409663e+2, -1177530.5, -1483239.3, -1291.3007, 0.043152977, 0.23361993, -1177525.0, 252353.39, 0.0010719306, 10.002448, 9.99839 
1.5449925e+3, 1.6409488e+2, -1088800.3, -1373474.3, 11815.097, 0.012686989, 0.21465963, -1088310.8, 243584.19, 0.000119982535, 10.002312, 9.998537 
1.5449975e+3, 1.7409383e+2, -1082657.3, -1313933.0, 15840.659, 0.0030048315, 0.24906372, -1081577.3, 152327.34, 0.0000011877057, 10.001656, 9.998589 
1.5450025e+3, 1.8409258e+2, -1049527.0, -1259087.1, -11060.53, 0.013840324, 0.27228355, -1048944.9, 86972.2, 0.0, 10.001262, 9.998483 
1.5450071e+3, 1.9409114e+2, -951673.56, -1158548.9, -7583.3804, 0.038460404, 0.27514687, -951395.94, 86536.38, 0.0, 10.001249, 9.998506 
1.5450114e+3, 2.040897e+2, -857513.44, -1012124.56, -3054.6528, 0.034477636, 0.26257563, -857453.1, 82493.445, 0.0, 10.001006, 9.998956 
1.5450154e+3, 2.1408837e+2, -836763.25, -942397.56, -3699.1306, -0.00532921, 0.2229373, -836633.8, 5324.502, 0.0, 10.000437, 9.999036 
1.5450196e+3, 2.240874e+2, -794485.56, -865018.0, -25354.06, -0.017825058, 0.22422774, -786317.5, -42350.254, 0.0, 10.000029, 9.999091 
1.5450236e+3, 2.340871e+2, -719831.7, -774410.25, -27588.516, 0.0066847214, 0.27733675, -708315.94, -62344.58, 0.0, 9.999851, 9.999126 
1.5450276e+3, 2.4408646e+2, -642179.2, -638819.75, -14423.261, 0.009169867, 0.28491428, -625978.75, -78001.03, 0.0, 9.999508, 9.999549 
1.5450315e+3, 2.5408548e+2, -623852.44, -571143.25, -16049.782, -0.019770153, 0.2247004, -566640.75, -116654.695, 0.0, 9.998926, 9.99962 
1.5450355e+3, 2.6408505e+2, -568989.06, -468606.13, -18192.38, -0.038995396, 0.21155396, -465410.84, -113420.91, 0.0, 9.998521, 9.999846 
1.5450396e+3, 2.740854e+2, -487689.3, -371588.2, -20312.943, -0.045840316, 0.25229114, -368136.88, -114149.64, 0.0, 9.998375, 9.99991 
1.5450439e+3, 2.840855e+2, -431271.28, -274534.22, -4710.1646, -0.053168695, 0.26785707, -274392.8, -118406.164, 0.0, 9.998008, 10.000081 
1.5450484e+3, 2.940856e+2, -433230.8, -224710.0, -8517.209, -0.05530298, 0.2611391, -224362.69, -166376.2, 0.0, 9.997321, 10.00008 
1.5450528e+3, 3.0408615e+2, -389937.22, -93399.0, -13395.349, -0.04082743, 0.2769658, -92795.13, -92795.13, 0.0, 9.996917, 10.000842 
1.5450568e+3, 3.1408697e+2, -367916.38, -39178.72, -22774.084, -0.08035346, 0.2616961, -37608.492, -37608.492, 0.0, 9.996881, 10.001231 
1.5549733e+3, 1.24097124e+2, -1358232.0, -1702308.6, -57954.81, 0.023974404, 0.29460257, -1348732.6, 375143.03, 0.014788676, 10.003187, 9.998551 
1.5549794e+3, 1.3409536e+2, -1356248.3, -1657759.3, 55934.42, 0.011867689, 0.2650749, -1346206.1, 279685.6, 0.009022213, 10.002524, 9.9985075 
1.5549862e+3, 1.4409342e+2, -1311767.4, -1603211.8, 9991.075, 0.13333358, 0.23226176, -1311425.3, 216484.64, 0.0041039125, 10.002222, 9.99835 
1.5549897e+3, 1.540922e+2, -1178069.3, -1485949.0, 7229.7036, -0.029228626, 0.2684187, -1177899.6, 252022.89, 0.0011519974, 10.002454, 9.99837 
1.5549938e+3, 1.6409075e+2, -1086172.1, -1370026.5, -10771.055, -0.0782533, 0.2819359, -1085764.0, 246172.44, 0.00013256267, 10.002318, 9.998558 
1.555e+3, 1.740891e+2, -1080151.3, -1310094.3, -9396.043, 0.077736095, 0.2535932, -1079767.9, 154183.69, 0.0000013544981, 10.00166, 9.998613 
1.5550047e+3, 1.8408759e+2, -1039938.2, -1240404.8, -14048.354, 0.12161112, 0.24254653, -1038958.5, 97007.766, 0.0, 10.001265, 9.99861 
1.5550078e+3, 1.9408634e+2, -941346.3, -1138507.9, -7853.546, -0.0077619166, 0.25201195, -941034.0, 96945.14, 0.0, 10.001253, 9.998642 
1.5550114e+3, 2.0408525e+2, -858519.8, -1015411.75, -22801.156, -0.05483095, 0.26661083, -855273.25, 84717.01, 0.0, 10.00101, 9.998932 
1.555016e+3, 2.1408443e+2, -839502.44, -948554.6, -25210.93, 0.01986259, 0.2830979, -833956.2, 8041.9077, 0.0, 10.000438, 9.998994 
1.5550202e+3, 2.2408345e+2, -794203.06, -864919.1, -33135.664, 0.042291556, 0.28322703, -781103.25, -37095.473, 0.0, 10.000029, 9.999092 
1.5550232e+3, 2.3408231e+2, -719114.0, -773829.3, -33419.992, -0.0108823115, 0.25413907, -703282.1, -57262.793, 0.0, 9.999853, 9.999129 
1.5550268e+3, 2.4408151e+2, -644256.1, -644078.9, -34323.66, -0.030028181, 0.24716227, -609843.7, -61816.547, 0.0, 9.999511, 9.999513 
1.5550306e+3, 2.540813e+2, -626120.9, -576771.7, -37073.582, -0.00008831296, 0.26700237, -556912.2, -106883.445, 0.0, 9.998929, 9.999581 
1.5550344e+3, 2.6408103e+2, -567546.0, -466408.63, -24175.219, 0.004624682, 0.2687351, -460927.03, -108895.76, 0.0, 9.998523, 9.999862 
1.5550381e+3, 2.7408063e+2, -486877.38, -370522.88, -24221.87, -0.028975904, 0.23421042, -365681.94, -111647.16, 0.0, 9.998376, 9.999918 
1.5550418e+3, 2.8408056e+2, -432715.75, -278360.44, -27562.736, -0.056618646, 0.23293988, -273586.3, -117550.68, 0.0, 9.99801, 10.000054 
1.5550455e+3, 2.940812e+2, -434255.25, -228217.72, -33025.105, -0.0705518, 0.2857383, -223053.66, -165023.06, 0.0, 9.997325, 10.000055 
1.5550497e+3, 3.040815e+2, -401575.9, -118473.26, -15668.288, -0.055518985, 0.284194, -117608.74, -117608.74, 0.0, 9.99692, 10.0006695 
1.555054e+3, 3.1408244e+2, -378366.94, -62148.17, -21386.59, -0.053012237, 0.30041647, -60708.305, -60708.305, 0.0, 9.996883, 10.001074 
1.5649764e+3, 1.2409264e+2, -1389705.3, -1702340.1, -54353.305, 0.03776524, 0.3268345, -1380525.3, 343396.25, 0.015601244, 10.002906, 9.998686 
1.564982e+3, 1.3409063e+2, -1306138.3, -1626984.8, 51631.465, 0.0082596, 0.26729357, -1298034.3, 327904.63, 0.009548585, 10.002847, 9.998563 
1.5649885e+3, 1.4408873e+2, -1258068.4, -1573425.5, 10764.785, 0.12552993, 0.23264882, -1257701.4, 270254.97, 0.0043674232, 10.002579, 9.998382 
1.5649919e+3, 1.5408762e+2, -1235050.0, -1509471.0, 12307.007, -0.018175289, 0.27741215, -1234499.3, 195468.55, 0.0012395727, 10.002048, 9.998404 
1.564996e+3, 1.6408624e+2, -1175762.8, -1409043.1, -11227.179, -0.06341468, 0.29333296, -1175223.6, 156757.58, 0.00014677673, 10.001688, 9.998592 
1.5650015e+3, 1.7408456e+2, -1090267.0, -1311489.0, -10946.392, 0.07232885, 0.25959644, -1089726.6, 144270.1, 0.0000015913902, 10.001577, 9.998643 
1.565006e+3, 1.8408306e+2, -1014006.7, -1215421.9, -7806.795, 0.10786147, 0.24291524, -1013704.56, 122306.664, 0.0, 10.00139, 9.99872 
1.5650089e+3, 1.9408187e+2, -956017.5, -1132372.6, -3006.9978, -0.012207974, 0.24690299, -955966.25, 82056.81, 0.0, 10.001098, 9.998758 
1.5650125e+3, 2.0408085e+2, -892140.94, -1031647.8, -28811.975, -0.053338878, 0.26394683, -886424.7, 53608.773, 0.0, 10.00078, 9.998931 
1.5650167e+3, 2.1408015e+2, -841387.5, -951668.5, -30884.748, 0.021872615, 0.2938503, -833327.2, 8713.642, 0.0, 10.000435, 9.998974 
1.5650202e+3, 2.2407927e+2, -775272.2, -842263.75, -26409.09, 0.046323303, 0.2989504, -766113.44, -22063.54, 0.0, 10.000103, 9.999211 
1.5650232e+3, 2.340782e+2, -719502.8, -759309.3, -17888.545, -0.0034867572, 0.26326576, -712645.3, -66584.73, 0.0, 9.999789, 9.999259 
1.5650262e+3, 2.4407747e+2, -651771.5, -649689.8, -20228.504, -0.02416317, 0.2559198, -630475.4, -82407.55, 0.0, 9.999469, 9.999493 
1.5650296e+3, 2.5407732e+2, -597261.44, -566879.5, -23837.986, -0.0025461752, 0.28362343, -553803.6, -103734.336, 0.0, 9.9991455, 9.999545 
1.565033e+3, 2.6407704e+2, -531486.2, -446003.7, -5989.013, 0.0017135649, 0.28640646, -445586.13, -93514.17, 0.0, 9.998759, 9.999887 
1.5650365e+3, 2.7407658e+2, -499949.5, -373479.53, -5541.4116, -0.02006892, 0.2447731, -373237.2, -119161.46, 0.0, 9.998275, 9.999946 
1.5650398e+3, 2.8407654e+2, -455907.6, -292127.97, -13618.88, -0.04421919, 0.2453575, -291003.25, -134927.02, 0.0, 9.997863, 10.00003 
1.565043e+3, 2.9407728e+2, -400712.16, -214534.31, -19469.727, -0.06982676, 0.30838668, -212520.03, -154449.8, 0.0, 9.997568, 10.000031 
1.5650466e+3, 3.0407712e+2, -359719.47, -110888.164, 10477.346, -0.06322598, 0.2696379, -110447.78, -110447.78, 0.0, 9.997261, 10.000557 
1.5650511e+3, 3.1407818e+2, -370054.6, -54420.445, 12314.534, -0.042292904, 0.31039688, -53940.72, -53940.72, 0.0, 9.996925, 10.001106 
1.5749803e+3, 1.2408793e+2, -1387660.5, -1699395.4, -58719.566, 0.13694435, 0.31310824, -1376966.8, 347002.34, 0.016485114, 10.0029125, 9.998705 
1.574984e+3, 1.3408655e+2, -1308687.4, -1633310.1, 48016.38, -0.06533054, 0.3189449, -1301734.0, 324246.63, 0.010123526, 10.002851, 9.998518 
1.5749903e+3, 1.440848e+2, -1252091.9, -1562715.9, -9183.501, 0.031211479, 0.2977936, -1251820.6, 276175.78, 0.004657013, 10.002585, 9.998453 
1.5749949e+3, 1.5408292e+2, -1228440.8, -1497289.9, -8127.615, 0.075919054, 0.26004624, -1228195.3, 201818.8, 0.00133678, 10.002052, 9.998485 
1.574999e+3, 1.6408135e+2, -1171866.0, -1402854.0, -17341.424, 0.056091346, 0.24917966, -1170571.4, 161457.8, 0.00016297578, 10.001695, 9.998632 
1.5750022e+3, 1.7408024e+2, -1087426.6, -1307254.0, -15205.086, -0.013353561, 0.2673971, -1086379.9, 147659.88, 0.0000019381066, 10.001583, 9.99867 
1.575006e+3, 1.8407899e+2, -1007268.75, -1203052.1, -18499.768, -0.027892832, 0.27363893, -1005536.06, 130515.7, 0.0, 10.001396, 9.998803 
1.5750104e+3, 1.9407773e+2, -949515.3, -1119734.5, -14252.991, 0.023231583, 0.25917447, -948330.1, 89734.055, 0.0, 10.0011, 9.998845 
1.575014e+3, 2.0407654e+2, -890956.75, -1029520.8, -41809.11, 0.03668659, 0.25411257, -879319.06, 60757.063, 0.0, 10.00078, 9.998946 
1.5750168e+3, 2.1407557e+2, -840556.56, -950886.44, -43407.973, 0.0004894912, 0.2559944, -825525.9, 16560.578, 0.0, 10.000438, 9.998978 
1.5750198e+3, 2.2407489e+2, -759238.5, -810226.5, -37848.465, -0.005946769, 0.27238312, -739098.6, 4995.054, 0.0, 10.000106, 9.999431 
1.5750232e+3, 2.3407473e+2, -702349.1, -724220.8, -29077.137, 0.028328609, 0.3039356, -682219.4, -36123.957, 0.0, 9.99979, 9.999501 
1.5750262e+3, 2.4407427e+2, -651937.94, -650375.5, -31775.648, 0.026068753, 0.3104851, -619371.5, -71271.4, 0.0, 9.999469, 9.999489 
1.5750286e+3, 2.5407344e+2, -599435.6, -571870.4, -34853.887, -0.028576998, 0.27555442, -548173.0, -98065.01, 0.0, 9.9991455, 9.999511 
1.5750314e+3, 2.64073e+2, -529527.94, -442856.6, -22384.842, -0.049512524, 0.2649233, -437416.63, -85304.32, 0.0, 9.998761, 9.999909 
1.5750349e+3, 2.7407318e+2, -497283.72, -369162.44, -22504.895, -0.020612044, 0.28170314, -365324.38, -111213.56, 0.0, 9.998278, 9.999975 
1.575038e+3, 2.8407335e+2, -456563.94, -294607.53, -24585.27, -0.017639779, 0.3034076, -290957.72, -134848.6, 0.0, 9.997867, 10.000012 
1.5750407e+3, 2.940737e+2, -401852.97, -218686.5, -29263.365, -0.05381437, 0.32913426, -214124.88, -156018.84, 0.0, 9.997573, 10.000002 
1.575044e+3, 3.0407295e+2, -363290.9, -119271.31, -898.609, -0.064710096, 0.2345238, -119268.0, -119268.0, 0.0, 9.997265, 10.000498 
1.5750478e+3, 3.1407395e+2, -354305.22, -21795.592, 4977.4897, -0.05671626, 0.27414423, -21721.098, -21721.098, 0.0, 9.996923, 10.001332 
1.5849835e+3, 1.2408362e+2, -1362148.1, -1695142.8, -35052.664, 0.15015739, 0.3057578, -1358498.3, 365512.94, 0.017450042, 10.003131, 9.998628 
1.5849867e+3, 1.3408226e+2, -1307592.8, -1647497.3, 64457.56, -0.07721922, 0.32650277, -1295780.0, 330243.3, 0.010752754, 10.002927, 9.998382 
1.5849927e+3, 1.440806e+2, -1244962.8, -1548249.1, -8374.398, 0.022139134, 0.31771207, -1244731.8, 283306.66, 0.0049755895, 10.002591, 9.998548 
1.5849972e+3, 1.5407868e+2, -1213538.5, -1477150.5, -7657.8086, 0.0967473, 0.26273727, -1213316.3, 216739.88, 0.0014447373, 10.002102, 9.998598 
1.5850009e+3, 1.6407712e+2, -1155460.6, -1386512.6, -561.48004, 0.079023026, 0.24451183, -1155459.3, 176611.45, 0.00018110967, 10.001774, 9.998706 
1.5850037e+3, 1.7407613e+2, -1068375.0, -1290193.5, 5200.381, -0.028219042, 0.26802847, -1068253.3, 165827.1, 0.000002389593, 10.001683, 9.998737 
1.5850072e+3, 1.84075e+2, -1007314.7, -1196812.6, -10371.449, -0.050632246, 0.27928653, -1006748.75, 129342.56, 0.0, 10.001371, 9.998857 
1.5850115e+3, 1.9407384e+2, -998308.1, -1137798.6, -10728.443, 0.034733426, 0.27075168, -997487.8, 40615.18, 0.0, 10.000743, 9.998892 
1.5850149e+3, 2.0407273e+2, -935047.5, -1034148.1, -23902.986, 0.058064073, 0.26416096, -929583.4, 10530.835, 0.0, 10.000407, 9.999093 
1.5850171e+3, 2.140718e+2, -822336.56, -924456.3, -14385.441, -0.003819367, 0.2538212, -820348.8, 21775.064, 0.0, 10.000488, 9.999134 
1.5850198e+3, 2.240712e+2, -735341.0, -791519.44, -21521.2, -0.019071627, 0.26752022, -728044.25, 16085.889, 0.0, 10.00024, 9.999494 
1.585023e+3, 2.340712e+2, -736409.06, -734447.44, -28055.025, 0.03069006, 0.3098017, -707356.06, -61225.56, 0.0, 9.999531, 9.999555 
1.5850256e+3, 2.4407087e+2, -695100.1, -656239.9, -22036.076, 0.035858244, 0.32131547, -646291.1, -98157.2, 0.0, 9.999111, 9.9996195 
1.5850277e+3, 2.5407016e+2, -596888.8, -555526.0, -12601.462, -0.02382666, 0.28329435, -551989.3, -101848.58, 0.0, 9.999101, 9.999643 
1.5850301e+3, 2.640698e+2, -526687.94, -447927.56, -10422.622, -0.049347438, 0.27431712, -446571.66, -94426.93, 0.0, 9.998811, 9.999849 
1.585033e+3, 2.7406996e+2, -525511.0, -390981.78, -20608.502, -0.023926063, 0.30123985, -387895.6, -133751.98, 0.0, 9.998122, 9.999899 
1.5850358e+3, 2.840702e+2, -472787.16, -298051.2, -9291.822, -0.014881525, 0.32598877, -297558.47, -141416.55, 0.0, 9.997739, 10.000049 
1.5850386e+3, 2.9407045e+2, -369564.75, -197504.55, -8218.271, -0.031890836, 0.34240073, -197112.9, -138974.38, 0.0, 9.997774, 10.000049 
1.5850414e+3, 3.0406952e+2, -345878.72, -128647.164, 4763.54, -0.04409737, 0.2333167, -128542.76, -128542.76, 0.0, 9.997462, 10.000338 
1.5850446e+3, 3.1407037e+2, -378603.97, -17355.244, 5359.0845, -0.06034126, 0.27695486, -17275.76, -17275.76, 0.0, 9.99669, 10.001473 
1.594986e+3, 1.2407983e+2, -1372838.0, -1718557.1, -43403.44, 0.075915135, 0.30929723, -1367472.3, 356574.6, 0.01849943, 10.003139, 9.998462 
1.5949902e+3, 1.3407783e+2, -1322287.6, -1680146.8, 56042.242, -0.027773768, 0.2886218, -1313716.5, 312350.03, 0.011438222, 10.002935, 9.998155 
1.5949962e+3, 1.4407621e+2, -1236644.3, -1533155.1, -27109.744, 0.09758716, 0.29174107, -1234186.0, 293895.97, 0.0053240876, 10.002601, 9.998648 
1.5949988e+3, 1.540749e+2, -1203915.4, -1458432.5, -26708.512, 0.043438934, 0.28555652, -1201142.9, 228950.73, 0.0015636364, 10.002106, 9.998726 
1.5950018e+3, 1.6407357e+2, -1147579.4, -1371682.4, -6071.5083, 0.0043086973, 0.27960187, -1147415.0, 184690.67, 0.0002008773, 10.001779, 9.998806 
1.595006e+3, 1.7407227e+2, -1061069.9, -1276292.0, 1707.4211, 0.026346676, 0.26176652, -1061056.4, 173061.67, 0.000002909139, 10.001687, 9.998832 
1.5950094e+3, 1.840711e+2, -1005109.56, -1193431.9, -32612.309, 0.037813976, 0.26084518, -999621.94, 136507.92, 0.0, 10.001375, 9.9988785 
1.5950121e+3, 1.9407022e+2, -996808.6, -1136417.3, -34204.98, 0.022251597, 0.28139627, -988878.6, 49260.793, 0.0, 10.000749, 9.998899 
1.5950148e+3, 2.0406942e+2, -915778.1, -995883.7, -23055.684, 0.010445048, 0.29351807, -909616.3, 30531.475, 0.0, 10.000413, 9.999353 
1.5950178e+3, 2.1406882e+2, -802138.6, -882714.44, -11012.327, 0.0078235185, 0.28703186, -800660.6, 41492.645, 0.0, 10.000488, 9.999422 
1.5950204e+3, 2.2406818e+2, -741621.1, -804700.9, -45607.324, 0.0057106195, 0.28439355, -717710.2, 26449.404, 0.0, 10.000238, 9.999405 
1.5950222e+3, 2.3406762e+2, -745087.3, -753291.5, -53889.51, 0.0026588002, 0.28152734, -695144.0, -48977.97, 0.0, 9.999533, 9.999425 
1.5950245e+3, 2.4406728e+2, -677353.9, -620627.9, -23895.826, 0.003749364, 0.28934926, -611903.56, -63733.965, 0.0, 9.999114, 9.999864 
1.5950271e+3, 2.5406742e+2, -576506.94, -514223.97, -11771.045, 0.011078009, 0.30636802, -512073.56, -61905.47, 0.0, 9.999104, 9.9999275 
1.5950294e+3, 2.640673e+2, -535946.44, -468388.72, -33222.855, 0.001729414, 0.31439185, -454788.6, -102618.875, 0.0, 9.998814, 9.999708 
1.595031e+3, 2.7406693e+2, -538524.0, -418939.78, -45498.12, -0.031623773, 0.30366683, -403597.53, -149422.83, 0.0, 9.998124, 9.999707 
1.5950333e+3, 2.840669e+2, -466764.88, -286388.28, -9038.774, -0.038115833, 0.3129493, -285936.5, -129761.12, 0.0, 9.997741, 10.000129 
1.5950367e+3, 2.9406744e+2, -361555.6, -182714.42, -5784.0273, -0.0076562464, 0.3465685, -182527.56, -124358.81, 0.0, 9.99778, 10.000149 
1.5950394e+3, 3.0406672e+2, -364206.75, -166972.63, -21890.523, -0.004906152, 0.2667294, -164572.27, -164572.27, 0.0, 9.997462, 10.000074 
1.5950415e+3, 3.140673e+2, -375988.22, -13071.028, -17772.416, -0.05600562, 0.3071106, -12202.772, -12202.772, 0.0, 9.996693, 10.001503 
1.6049892e+3, 1.2407611e+2, -1304205.3, -1687975.9, -40820.67, 0.06381051, 0.29936892, -1299911.3, 424171.56, 0.019635098, 10.003634, 9.998436 
1.6049933e+3, 1.3407405e+2, -1334190.1, -1692714.1, 67269.305, -0.021113798, 0.278568, -1321984.0, 304119.7, 0.012182242, 10.002886, 9.998092 
1.6049987e+3, 1.440725e+2, -1264081.1, -1543354.4, -4942.6235, 0.11044681, 0.2930495, -1263993.8, 264125.0, 0.0057041305, 10.002401, 9.998672 
1.6050008e+3, 1.5407129e+2, -1167569.0, -1436640.6, -10690.68, 0.022985822, 0.29084668, -1167145.0, 262984.66, 0.0016940435, 10.002341, 9.99876 
1.6050035e+3, 1.6407004e+2, -1110078.9, -1341631.4, 705.74243, -0.01917694, 0.28565502, -1110076.8, 222064.2, 0.00022220024, 10.001988, 9.998909 
1.6050075e+3, 1.7406882e+2, -1122774.3, -1293762.5, 7683.7666, 0.0418357, 0.26706105, -1122429.6, 111722.734, 0.000003466771, 10.001213, 9.998939 
1.6050108e+3, 1.8406777e+2, -1076018.4, -1213357.4, -15566.5, 0.062268466, 0.2663649, -1074276.1, 61886.918, 0.0, 10.000829, 9.999004 
1.6050129e+3, 1.9406703e+2, -950379.7, -1099985.5, -8519.156, 0.012294148, 0.28707793, -949896.1, 88275.19, 0.0, 10.00101, 9.9990225 
1.6050152e+3, 2.0406635e+2, -857739.44, -959938.1, -4704.27, -0.008482794, 0.30075803, -857523.3, 82655.164, 0.0, 10.00078, 9.999423 
1.6050181e+3, 2.1406582e+2, -874197.1, -910542.1, -10100.745, 0.016567186, 0.29852474, -871578.6, -29395.62, 0.0, 9.999966, 9.999481 
1.6050203e+3, 2.2406524e+2, -827141.44, -831594.3, -41651.15, 0.021909432, 0.29207307, -787657.25, -43468.582, 0.0, 9.999593, 9.99953 
1.6050218e+3, 2.3406465e+2, -690303.0, -712795.2, -32026.305, -0.0032814879, 0.27427328, -667605.6, -21410.826, 0.0, 9.99985, 9.999549 
1.6050237e+3, 2.4406436e+2, -598930.2, -585078.4, -7477.403, -0.007841582, 0.2803818, -581812.1, -33614.06, 0.0, 9.999663, 9.999843 
1.6050263e+3, 2.5406465e+2, -615957.75, -536623.0, -20189.344, 0.016996413, 0.31515688, -531780.7, -81584.62, 0.0, 9.99885, 9.999894 
1.6050282e+3, 2.6406464e+2, -586333.44, -482747.16, -42457.793, 0.014113112, 0.33141494, -467568.72, -115371.72, 0.0, 9.998429, 9.999792 
1.6050294e+3, 2.7406427e+2, -467173.06, -374417.16, -33984.027, -0.028757568, 0.313837, -363298.78, -109097.39, 0.0, 9.998573, 9.999794 
1.6050312e+3, 2.8406417e+2, -382369.16, -247210.88, 6618.3984, -0.03970804, 0.31257647, -246887.55, -90685.0, 0.0, 9.998328, 10.0001135 
1.6050342e+3, 2.940646e+2, -406001.88, -206469.36, -1825.7418, -0.006218435, 0.33699685, -206452.66, -148255.5, 0.0, 9.997488, 10.000124 
1.6050366e+3, 3.0406418e+2, -444134.53, -227317.48, -17284.395, 0.004439808, 0.29551777, -225948.25, -225948.25, 0.0, 9.997009, 9.999878 
1.6050383e+3, 3.140646e+2, -309079.44, 19217.488, -2608.8857, -0.04766169, 0.34268883, 19238.219, 19238.219, 0.0, 9.997153, 10.001501 
1.6149932e+3, 1.240725e+2, -1296607.5, -1673784.5, -69213.11, 0.11240776, 0.27457052, -1284307.8, 439811.0, 0.02086322, 10.003644, 9.998532 
1.6149957e+3, 1.3407096e+2, -1328063.4, -1680906.5, 37727.824, -0.058350742, 0.2979274, -1324074.4, 302059.94, 0.0129916845, 10.002891, 9.998171 
1.6150007e+3, 1.4406957e+2, -1266387.6, -1549829.3, -10718.934, 0.059706666, 0.32366347, -1265982.9, 262165.2, 0.0061206263, 10.002408, 9.998625 
1.6150033e+3, 1.5406784e+2, -1171219.4, -1445889.3, -12925.059, 0.034025397, 0.27857506, -1170612.5, 259551.38, 0.0018382268, 10.002347, 9.998694 
1.6150057e+3, 1.640665e+2, -1102163.3, -1327139.3, -26630.803, 0.0071146404, 0.2629153, -1099053.9, 233122.44, 0.00024563554, 10.001995, 9.999006 
1.6150086e+3, 1.7406578e+2, -1114257.8, -1277822.4, -21733.748, 0.017812809, 0.28320318, -1111419.1, 122764.08, 0.0000040686878, 10.001219, 9.999046 
1.6150112e+3, 1.84065e+2, -1059952.1, -1181465.4, -12292.335, 0.021961853, 0.29480326, -1058721.0, 77469.805, 0.0, 10.0008335, 9.999221 
1.6150138e+3, 1.9406423e+2, -934217.44, -1067167.4, -1551.3059, 0.0039805654, 0.2886245, -934199.3, 103999.3, 0.0, 10.001012, 9.999248 
1.6150162e+3, 2.0406346e+2, -865920.1, -977648.06, -32290.309, 0.0002927592, 0.28748488, -857259.3, 82947.125, 0.0, 10.000781, 9.999301 
1.6150182e+3, 2.1406282e+2, -884659.56, -933581.6, -40200.76, 0.02127117, 0.28811046, -862062.7, -19849.521, 0.0, 9.9999695, 9.999322 
1.61502e+3, 2.2406238e+2, -804387.5, -785837.0, -35055.465, 0.027775813, 0.29030943, -758850.5, -14633.0, 0.0, 9.999597, 9.999844 
1.6150218e+3, 2.340623e+2, -664807.1, -660385.1, -21442.941, 0.012625028, 0.28808823, -641039.5, 5177.8413, 0.0, 9.99985, 9.999909 
1.6150235e+3, 2.4406208e+2, -618902.7, -627145.75, -34094.188, 0.00091860053, 0.29452655, -588681.8, -40461.906, 0.0, 9.999664, 9.999555 
1.6150248e+3, 2.5406182e+2, -640661.56, -588505.5, -49809.51, -0.007381508, 0.30965802, -558360.3, -108135.25, 0.0, 9.99885, 9.999538 
1.6150263e+3, 2.6406175e+2, -565560.6, -440561.4, -39033.29, -0.014137303, 0.3263004, -429373.84, -77146.734, 0.0, 9.998431, 10.000082 
1.6150281e+3, 2.7406198e+2, -441664.56, -323245.66, -27014.78, -0.016879983, 0.33242133, -317373.94, -63149.53, 0.0, 9.998579, 10.000144 
1.6150297e+3, 2.8406194e+2, -389567.44, -263827.94, -20816.775, -0.021001356, 0.3249469, -260471.22, -104246.9, 0.0, 9.998334, 9.999997 
1.6150315e+3, 2.9406187e+2, -416632.63, -230201.42, -33676.957, -0.028832639, 0.31113166, -224304.55, -166079.58, 0.0, 9.997492, 9.999961 
1.6150334e+3, 3.0406174e+2, -453342.22, -246302.38, -15520.228, -0.017658072, 0.31881008, -245145.4, -245145.4, 0.0, 9.997008, 9.999748 
1.6150355e+3, 3.140623e+2, -314421.84, 7794.1465, 9280.2, -0.042194698, 0.3884448, 8061.206, 8061.206, 0.0, 9.997154, 10.001423 
1.624997e+3, 1.2406987e+2, -1292352.1, -1672950.6, -49627.715, 0.11043249, 0.29577783, -1285987.4, 438159.03, 0.022194505, 10.003687, 9.998516 
1.6249986e+3, 1.340683e+2, -1286206.9, -1663392.9, 47316.64, -0.0665625, 0.31761688, -1280361.8, 345800.13, 0.013876058, 10.003199, 9.998141 
1.6250032e+3, 1.4406689e+2, -1229340.8, -1528156.8, 7187.0347, 0.060850102, 0.3426201, -1229168.0, 299007.5, 0.0065799933, 10.002651, 9.998655 
1.6250055e+3, 1.540651e+2, -1209449.0, -1460087.6, 12460.698, 0.03246774, 0.2887229, -1208831.0, 221360.8, 0.0019995468, 10.0020685, 9.99873 
1.6250075e+3, 1.6406378e+2, -1150743.3, -1344100.6, -4843.007, 0.0016036704, 0.27039254, -1150622.0, 181582.08, 0.00027234203, 10.0016365, 9.999062 
1.6250098e+3, 1.7406318e+2, -1081645.0, -1255860.4, -5029.5815, 0.0062411926, 0.29589933, -1081500.0, 152709.89, 0.0000047643325, 10.001419, 9.9991 
1.6250122e+3, 1.8406247e+2, -1016847.0, -1149049.0, 9297.723, 0.01149979, 0.3071445, -1016196.3, 120020.26, 0.0, 10.001082, 9.999323 
1.6250145e+3, 1.9406173e+2, -991455.5, -1083059.1, 11501.706, 0.0053019277, 0.29399872, -990033.44, 48190.18, 0.0, 10.00057, 9.99935 
1.6250168e+3, 2.0406099e+2, -936616.6, -1002258.5, -26251.545, 0.006767992, 0.28712654, -927409.5, 12821.326, 0.0, 10.000257, 9.999384 
1.6250181e+3, 2.140604e+2, -842599.6, -904730.9, -18891.117, 0.022306718, 0.28337336, -837306.7, 4930.555, 0.0, 10.000223, 9.999397 
1.6250199e+3, 2.2406003e+2, -748070.2, -754333.2, -4869.1084, 0.029261017, 0.28695545, -745412.5, -1171.7542, 0.0, 9.999967, 9.999881 
1.6250215e+3, 2.3406006e+2, -728339.9, -686909.2, -14659.955, 0.022665707, 0.29358292, -682246.56, -36007.26, 0.0, 9.999399, 9.999944 
1.6250229e+3, 2.4405988e+2, -702499.44, -662140.94, -37760.35, 0.0066701863, 0.2988807, -639506.06, -91264.44, 0.0, 9.999071, 9.999598 
1.6250236e+3, 2.5405952e+2, -603406.25, -566135.44, -26076.082, -0.023984827, 0.3015906, -552720.25, -102472.45, 0.0, 9.999089, 9.999576 
1.6250248e+3, 2.6405954e+2, -499790.0, -401721.8, -1329.6907, -0.030298226, 0.32180202, -401703.78, -49454.594, 0.0, 9.998853, 10.000145 
1.6250266e+3, 2.7406007e+2, -486078.2, -336540.2, -10217.441, -0.00095067633, 0.34989315, -335845.3, -81601.49, 0.0, 9.998241, 10.000213 
1.6250281e+3, 2.8406006e+2, -448269.1, -288630.53, -16136.643, -0.002534172, 0.33942652, -287015.72, -130772.15, 0.0, 9.997918, 10.000026 
1.625029e+3, 2.940597e+2, -343715.06, -191693.86, -17676.205, -0.0485951, 0.29726663, -189665.63, -131418.88, 0.0, 9.997981, 9.999988 
1.6250306e+3, 3.0405995e+2, -359248.7, -190409.14, 16228.431, -0.03150863, 0.335753, -188863.45, -188863.45, 0.0, 9.997609, 9.999842 
1.6250326e+3, 3.1406036e+2, -386047.8, -28857.275, 61522.664, -0.030228317, 0.38522768, -18557.578, -18557.578, 0.0, 9.996671, 10.001405 
1.6350001e+3, 1.2406832e+2, -1300392.5, -1690979.8, -66704.34, 0.054401476, 0.3675259, -1289314.9, 434849.8, 0.023638725, 10.003696, 9.998387 
1.635002e+3, 1.3406608e+2, -1295004.8, -1683405.8, 28489.523, -0.047465876, 0.3362002, -1292926.1, 333259.9, 0.014842009, 10.003207, 9.998001 
1.6350064e+3, 1.440645e+2, -1221891.5, -1514567.8, -15723.0, 0.112489775, 0.3487334, -1221049.3, 307151.4, 0.0070861573, 10.002659, 9.998747 
1.6350073e+3, 1.540631e+2, -1200407.3, -1442769.5, -9715.991, 0.01773571, 0.3218031, -1200018.4, 230194.83, 0.00218032, 10.002073, 9.998848 
1.6350088e+3, 1.640619e+2, -1149206.6, -1342353.9, -14705.026, -0.03622504, 0.3086945, -1148093.5, 184130.67, 0.00030356596, 10.00164, 9.999072 
1.6350111e+3, 1.7406102e+2, -1081322.1, -1256686.5, -13160.094, 0.006193226, 0.30560955, -1080340.0, 153892.11, 0.000005612588, 10.001424, 9.999092 
1.6350134e+3, 1.8406017e+2, -1017376.9, -1151456.6, -9099.786, 0.029640783, 0.30442667, -1016762.1, 119477.9, 0.0, 10.001086, 9.999305 
1.6350153e+3, 1.9405952e+2, -992134.8, -1085742.3, -7400.3506, 0.015122382, 0.30246717, -991553.4, 46692.906, 0.0, 10.000574, 9.9993305 
1.635017e+3, 2.0405893e+2, -917384.6, -963584.6, -28924.035, 0.009433105, 0.29836285, -903468.25, 36783.59, 0.0, 10.00026, 9.999649 
1.6350184e+3, 2.1405852e+2, -822054.25, -862733.94, -19762.37, 0.019698793, 0.28525242, -814034.6, 28220.705, 0.0, 10.000224, 9.999685 
1.6350198e+3, 2.2405815e+2, -763833.94, -788012.4, -24328.05, 0.026465913, 0.28375646, -748756.94, -4498.2183, 0.0, 9.999969, 9.99965 
1.635021e+3, 2.340579e+2, -748004.9, -728763.5, -35228.2, 0.025668913, 0.29046646, -701865.94, -55604.805, 0.0, 9.999402, 9.999656 
1.635022e+3, 2.4405771e+2, -677225.9, -610666.4, -38097.28, 0.007587624, 0.29365835, -593360.1, -45096.445, 0.0, 9.999073, 9.999951 
1.6350226e+3, 2.540577e+2, -573890.5, -506081.22, -24000.459, -0.03347242, 0.29134893, -498446.16, -48181.344, 0.0, 9.999092, 9.999988 
1.6350235e+3, 2.6405793e+2, -510703.13, -425792.84, -21372.22, -0.034971558, 0.31763953, -420716.8, -68452.87, 0.0, 9.9988575, 9.999978 
1.6350251e+3, 2.7405843e+2, -501489.38, -369711.3, -32303.39, 0.018308453, 0.36491692, -362218.63, -107958.17, 0.0, 9.998244, 9.999986 
1.6350262e+3, 2.840584e+2, -436814.13, -265310.9, -15101.121, 0.014040621, 0.3558724, -263991.4, -107730.195, 0.0, 9.997918, 10.000187 
1.6350268e+3, 2.9405805e+2, -328762.84, -162183.75, -14836.827, -0.06883537, 0.2972034, -160872.6, -102609.23, 0.0, 9.997986, 10.000189 
1.6350281e+3, 3.0405867e+2, -336010.97, -142776.33, -15998.206, -0.039512057, 0.34714267, -141460.77, -141460.77, 0.0, 9.997611, 10.000169 
1.6350295e+3, 3.1405893e+2, -383727.2, -25435.078, 28414.346, -0.012469354, 0.34688032, -23195.676, -23195.676, 0.0, 9.996675, 10.001428 
1.6450039e+3, 1.2406709e+2, -1268560.6, -1678133.0, -33335.227, 0.052321058, 0.40638554, -1265865.3, 458313.1, 0.025201252, 10.00394, 9.99836 
1.6450052e+3, 1.3406442e+2, -1281140.5, -1679827.3, 66413.47, -0.05715979, 0.33588827, -1270368.3, 355834.8, 0.015891703, 10.003323, 9.99797 
1.645009e+3, 1.4406276e+2, -1216550.9, -1513716.3, 22337.297, 0.118166804, 0.3412571, -1214881.3, 313337.3, 0.007640092, 10.002707, 9.998728 
1.6450097e+3, 1.5406169e+2, -1194324.0, -1442486.3, 17737.969, 0.027841091, 0.3485842, -1193062.5, 237165.89, 0.002381096, 10.002129, 9.998822 
1.6450106e+3, 1.6406055e+2, -1145187.6, -1342319.8, 17492.049, -0.027595824, 0.3430772, -1143647.5, 188591.33, 0.00034007852, 10.0016775, 9.999054 
1.6450126e+3, 1.7405935e+2, -1084144.3, -1260144.1, 18716.127, 0.0043092407, 0.31039175, -1082176.0, 152073.6, 0.000006640927, 10.001414, 9.999072 
1.6450144e+3, 1.8405837e+2, -1013207.6, -1144648.4, 16309.428, 0.024221977, 0.29589814, -1011214.2, 125044.14, 0.0, 10.001096, 9.999346 
1.6450159e+3, 1.9405785e+2, -972615.3, -1071659.3, 20988.002, 0.015168869, 0.30323833, -968351.4, 69911.77, 0.0, 10.0006895, 9.999371 
1.6450173e+3, 2.0405737e+2, -901142.6, -952798.44, 5310.252, 0.011897025, 0.30756742, -900602.4, 39665.203, 0.0, 10.000361, 9.999673 
1.6450186e+3, 2.1405707e+2, -831770.2, -865290.25, -5178.0024, 0.02042235, 0.30223095, -830988.56, 11281.564, 0.0, 10.000151, 9.999702 
1.6450197e+3, 2.2405668e+2, -772376.25, -790083.1, -22906.93, 0.023818761, 0.2965628, -756671.4, -12397.63, 0.0, 9.999904, 9.999665 
1.6450204e+3, 2.3405625e+2, -717298.3, -712761.1, -14184.656, 0.016782036, 0.28251898, -700664.8, -54386.895, 0.0, 9.999608, 9.999665 
1.6450211e+3, 2.4405606e+2, -639682.1, -581391.3, -4942.5425, 0.0050622816, 0.2829928, -580975.2, -32695.123, 0.0, 9.999283, 10.000051 
1.6450219e+3, 2.540564e+2, -592614.2, -502833.78, -13324.82, -0.0120761385, 0.30321634, -500897.9, -50620.16, 0.0, 9.998912, 10.000095 
1.6450226e+3, 2.640567e+2, -558205.7, -455674.06, -29442.361, -0.010628004, 0.33457178, -447821.06, -95544.97, 0.0, 9.998564, 9.999912 
1.6450234e+3, 2.740569e+2, -505477.6, -381372.4, -31392.965, 0.014315625, 0.3630549, -373883.34, -119607.7, 0.0, 9.9982605, 9.999895 
1.6450241e+3, 2.840568e+2, -426494.84, -248489.17, -109.77141, 0.001436927, 0.34970585, -248489.11, -92212.09, 0.0, 9.997939, 10.000291 
1.6450247e+3, 2.9405683e+2, -382328.9, -171966.9, -5171.0547, -0.056327753, 0.30959255, -171839.88, -113563.79, 0.0, 9.997551, 10.00033 
1.645026e+3, 3.040577e+2, -364651.25, -136133.44, -23674.996, -0.007120558, 0.36560062, -133706.42, -133706.42, 0.0, 9.997327, 10.00035 
1.6450262e+3, 3.1405768e+2, -299822.72, -5635.7026, 5188.892, -0.036132358, 0.32528132, -5544.209, -5544.209, 0.0, 9.997342, 10.00124 
1.6550083e+3, 1.2406625e+2, -1263272.9, -1667568.1, -54019.273, 0.101516455, 0.4134572, -1256179.6, 468007.25, 0.026885493, 10.003945, 9.998432 
1.6550082e+3, 1.3406342e+2, -1274981.3, -1668157.5, 42763.113, -0.096288376, 0.31795505, -1270384.0, 355828.78, 0.017026437, 10.003329, 9.998047 
1.6550113e+3, 1.440617e+2, -1225519.0, -1534053.9, -169.75505, 0.07702821, 0.32098538, -1225518.9, 302709.78, 0.008242797, 10.002713, 9.998586 
1.655012e+3, 1.5406087e+2, -1205439.5, -1467616.4, -4099.2905, 0.06097034, 0.3681466, -1205375.4, 224861.86, 0.002602117, 10.002135, 9.998648 
1.6550128e+3, 1.640597e+2, -1147667.5, -1349330.4, 6131.469, 0.025664685, 0.37331656, -1147481.3, 184767.02, 0.00038217273, 10.001683, 9.999004 
1.6550139e+3, 1.7405815e+2, -1085878.9, -1265199.0, 9151.643, 0.000031664054, 0.31046405, -1085413.0, 148848.81, 0.000007868034, 10.001419, 9.999036 
1.6550152e+3, 1.8405706e+2, -1006684.75, -1132339.8, 1515.7007, -0.005724245, 0.2816875, -1006666.44, 129605.0, 0.0, 10.0011, 9.99943 
1.6550165e+3, 1.9405672e+2, -965593.6, -1058205.9, 5842.875, 0.0051973467, 0.29727927, -965226.44, 73047.8, 0.0, 10.000693, 9.999462 
1.6550177e+3, 2.0405634e+2, -915476.0, -984028.2, -3247.5415, 0.013723745, 0.31618002, -915322.5, 24955.416, 0.0, 10.000366, 9.999457 
1.6550188e+3, 2.1405602e+2, -848897.56, -901868.06, -12441.289, 0.022894455, 0.33332786, -846121.0, -3839.1448, 0.0, 10.000154, 9.999452 
1.6550195e+3, 2.2405556e+2, -754594.2, -754299.9, -33274.875, 0.019255074, 0.32423326, -721171.8, 23114.357, 0.0, 9.999907, 9.999911 
1.6550198e+3, 2.3405501e+2, -696381.75, -670337.75, -24335.213, -0.003973345, 0.270307, -655759.5, -9469.373, 0.0, 9.999611, 9.999957 
1.6550203e+3, 2.4405488e+2, -650017.2, -604040.75, -17930.287, -0.0013287743, 0.26773906, -597875.0, -49583.715, 0.0, 9.999287, 9.999895 
1.6550213e+3, 2.540555e+2, -606106.44, -532210.7, -26230.799, 0.03924184, 0.3366638, -523846.3, -73559.23, 0.0, 9.998916, 9.999893 
1.6550216e+3, 2.6405576e+2, -555798.3, -452158.06, -40182.215, 0.0416421, 0.37326112, -438404.3, -86118.19, 0.0, 9.998568, 9.999936 
1.6550213e+3, 2.7405548e+2, -501773.03, -375750.84, -41246.156, -0.015017324, 0.34499186, -363451.63, -109161.625, 0.0, 9.998267, 9.999932 
1.6550215e+3, 2.8405532e+2, -422718.2, -241997.1, -13548.178, -0.042198148, 0.32085136, -240987.08, -84695.25, 0.0, 9.997943, 10.000335 
1.6550227e+3, 2.9405585e+2, -377229.4, -162386.13, -19276.467, -0.011325561, 0.3328481, -160670.28, -102384.336, 0.0, 9.997553, 10.000396 
1.655024e+3, 3.040568e+2, -362628.8, -131553.97, -23595.365, 0.06505591, 0.38748857, -129169.22, -129169.22, 0.0, 9.997324, 10.000383 
1.655023e+3, 3.1405666e+2, -327881.6, -64705.387, 2508.8064, -0.103708915, 0.3399283, -64681.473, -64681.473, 0.0, 9.997345, 10.0008335 
1.6650122e+3, 1.2406555e+2, -1270762.0, -1674668.3, -36920.96, 0.09514528, 0.38969567, -1267414.8, 456778.56, 0.028695665, 10.003917, 9.998396 
1.6650115e+3, 1.3406304e+2, -1275951.6, -1671358.1, 47499.766, -0.09828123, 0.32828158, -1270325.5, 355891.38, 0.018249702, 10.00334, 9.998019 
1.6650143e+3, 1.4406134e+2, -1212944.6, -1530234.9, 8000.198, 0.09272094, 0.33628166, -1212743.0, 315489.88, 0.008897193, 10.002812, 9.998564 
1.6650145e+3, 1.5406029e+2, -1168365.4, -1452092.3, 15910.054, 0.064274624, 0.36402604, -1167476.0, 262767.16, 0.002844578, 10.002402, 9.998625 
1.6650145e+3, 1.6405906e+2, -1102953.5, -1327936.5, 39199.348, 0.022367831, 0.3630036, -1096319.3, 235935.48, 0.00043000115, 10.001992, 9.9990015 
1.6650154e+3, 1.7405765e+2, -1064511.6, -1255717.3, 44224.637, -0.0018748117, 0.3143678, -1054778.1, 179488.81, 0.000009349905, 10.00157, 9.999028 
1.6650164e+3, 1.8405658e+2, -998363.94, -1137798.3, 31849.426, -0.006242342, 0.29312232, -991433.44, 144842.98, 0.0, 10.001198, 9.999344 
1.6650173e+3, 1.9405612e+2, -941161.2, -1057019.5, 21612.021, 0.0059925173, 0.30641064, -937261.0, 101019.625, 0.0, 10.000908, 9.999366 
1.6650182e+3, 2.0405565e+2, -886431.06, -970272.4, 12958.943, 0.01416894, 0.320155, -884473.75, 55811.625, 0.0, 10.000568, 9.999454 
1.665019e+3, 2.1405523e+2, -848872.3, -901496.3, 21694.756, 0.01990377, 0.32737043, -841081.75, 1208.1171, 0.0, 10.000153, 9.999454 
1.6650194e+3, 2.2405477e+2, -769294.3, -764803.0, 3808.745, 0.017658388, 0.32041204, -762627.2, -18333.041, 0.0, 9.999822, 9.999879 
1.6650194e+3, 2.340544e+2, -699395.94, -676054.9, -12465.164, 0.0020715648, 0.28706652, -670649.6, -24352.727, 0.0, 9.99961, 9.999917 
1.6650197e+3, 2.4405427e+2, -644722.1, -606042.6, -19029.89, 0.0061235186, 0.28973442, -598250.06, -49951.973, 0.0, 9.999344, 9.999852 
1.6650203e+3, 2.540547e+2, -595753.75, -532422.8, -17005.504, 0.040342186, 0.34178084, -528145.44, -77849.94, 0.0, 9.99901, 9.999845 
1.6650204e+3, 2.6405478e+2, -528364.25, -434759.2, -20736.623, 0.04474352, 0.36343208, -430371.03, -78075.36, 0.0, 9.998738, 9.999973 
1.6650198e+3, 2.7405444e+2, -458393.56, -349912.72, -21555.898, -0.0007055171, 0.32547376, -345786.38, -91486.53, 0.0, 9.998545, 9.999976 
1.6650198e+3, 2.8405437e+2, -392518.6, -238157.63, -5708.001, -0.029613588, 0.31470057, -237946.84, -81646.12, 0.0, 9.9981985, 10.000237 
1.6650203e+3, 2.940552e+2, -368766.7, -168666.47, -24632.137, -0.013421854, 0.3639715, -165678.88, -107385.71, 0.0, 9.997658, 10.0003 
1.6650215e+3, 3.040558e+2, -345001.13, -110287.84, -17054.273, 0.07263675, 0.38619253, -109055.15, -109055.15, 0.0, 9.997392, 10.000496 
1.6650201e+3, 3.1405592e+2, -335678.8, -84246.89, 9676.795, -0.11868248, 0.35000342, -83875.01, -83875.01, 0.0, 9.997362, 10.000689 
1.6750154e+3, 1.2406505e+2, -1281459.9, -1696000.1, -55545.14, 0.028466845, 0.3359473, -1274146.3, 450051.34, 0.03063352, 10.00392, 9.998245 
1.6750151e+3, 1.340633e+2, -1284944.0, -1691261.6, 25183.2, -0.064668864, 0.36639553, -1283389.1, 342826.3, 0.019565674, 10.003346, 9.997879 
1.6750178e+3, 1.440617e+2, -1205125.5, -1515766.8, -8755.228, 0.16356763, 0.38727134, -1204878.9, 323351.97, 0.009607708, 10.00282, 9.998662 
1.6750164e+3, 1.5406e+2, -1158251.8, -1433045.8, 880.5954, 0.037817392, 0.3364522, -1158248.9, 271997.13, 0.0031109226, 10.002409, 9.998753 
1.675016e+3, 1.6405863e+2, -1099856.5, -1323021.0, 23265.732, -0.03778421, 0.3124015, -1097456.9, 234801.38, 0.00048388963, 10.001997, 9.999034 
1.675017e+3, 1.7405781e+2, -1062714.6, -1253400.6, 28341.832, -0.0028015322, 0.32185715, -1058591.4, 175673.67, 0.0000111741165, 10.001574, 9.999043 
1.6750178e+3, 1.8405694e+2, -1015646.8, -1174928.9, 20364.082, 0.02105992, 0.3300704, -1013084.5, 123188.76, 0.0, 10.001202, 9.999089 
1.6750184e+3, 1.9405608e+2, -960772.3, -1098895.6, 11217.103, 0.016785968, 0.33042207, -959867.25, 78415.15, 0.0, 10.000911, 9.999078 
1.6750187e+3, 2.0405526e+2, -872109.94, -941587.0, -2123.8804, 0.012140773, 0.31937978, -872045.1, 68244.984, 0.0, 10.000571, 9.99965 
1.6750191e+3, 2.1405467e+2, -831467.1, -866182.8, 6667.4673, 0.01151646, 0.2856385, -830230.6, 12063.74, 0.0, 10.000155, 9.999696 
1.6750193e+3, 2.2405429e+2, -790498.9, -809960.1, -4326.7905, 0.018669313, 0.28685042, -789580.25, -45282.473, 0.0, 9.999825, 9.999569 
1.6750194e+3, 2.3405434e+2, -724920.2, -730270.5, -19372.791, 0.033626445, 0.33192036, -708038.75, -61739.914, 0.0, 9.999614, 9.999544 
1.6750193e+3, 2.4405418e+2, -639748.94, -597169.8, -30516.453, 0.026061596, 0.34826747, -581250.5, -32949.527, 0.0, 9.999348, 9.999912 
1.6750187e+3, 2.540539e+2, -588382.0, -518475.28, -28278.531, -0.009439917, 0.31892195, -508468.5, -58165.08, 0.0, 9.999014, 9.999941 
1.6750187e+3, 2.6405367e+2, -524578.9, -428052.97, -27339.865, -0.0021097853, 0.30486497, -420847.2, -68541.77, 0.0, 9.998742, 10.000019 
1.675019e+3, 2.7405375e+2, -454726.44, -343829.63, -27758.908, 0.057082806, 0.30328956, -337269.28, -82963.38, 0.0, 9.9985485, 10.000017 
1.6750187e+3, 2.84054e+2, -409534.28, -274169.75, -24358.25, 0.038662706, 0.3315171, -269920.0, -113615.55, 0.0, 9.998199, 9.99999 
1.6750175e+3, 2.9405478e+2, -387335.3, -207938.92, -42968.805, -0.06566403, 0.4055048, -198178.16, -139879.84, 0.0, 9.997659, 10.000031 
1.6750182e+3, 3.0405465e+2, -332564.1, -85190.9, -17383.588, 0.013054296, 0.36107114, -83975.28, -83975.28, 0.0, 9.997393, 10.0006695 
1.6750179e+3, 3.140553e+2, -325185.56, -63796.56, -1984.6135, -0.07681903, 0.35643008, -63781.49, -63781.49, 0.0, 9.997367, 10.000828 
1.6850194e+3, 1.2406565e+2, -1241744.8, -1680767.8, -40582.37, 0.014500209, 0.34425417, -1238025.0, 486167.72, 0.032695845, 10.00423, 9.998203 
1.6850185e+3, 1.3406399e+2, -1289811.9, -1696298.6, 43120.6, -0.06855242, 0.38517523, -1285287.9, 340921.9, 0.020976465, 10.003329, 9.997853 
1.6850208e+3, 1.4406228e+2, -1211720.4, -1518285.8, 28702.99, 0.17664485, 0.3958025, -1209056.1, 319170.13, 0.010378638, 10.002773, 9.998666 
1.685019e+3, 1.5406044e+2, -1109459.5, -1409394.0, 30103.943, 0.029865697, 0.33059758, -1106467.9, 323774.2, 0.0034044879, 10.002746, 9.998754 
1.6850181e+3, 1.6405903e+2, -1041872.25, -1300651.3, 31687.492, -0.049474794, 0.30560836, -1038048.6, 294205.72, 0.00054462755, 10.002419, 9.998984 
1.6850187e+3, 1.7405832e+2, -1053780.4, -1255154.0, 30082.02, 0.005949097, 0.3322657, -1049382.6, 184877.81, 0.000013478055, 10.001662, 9.998988 
1.6850191e+3, 1.8405741e+2, -1024264.56, -1186690.8, 39054.12, 0.0385502, 0.3438556, -1015362.25, 120906.81, 0.0, 10.001177, 9.99902 
1.6850194e+3, 1.9405632e+2, -942546.44, -1098637.9, 46289.29, 0.025405122, 0.32873017, -929851.7, 108428.44, 0.0, 10.001073, 9.9990015 
1.6850194e+3, 2.040554e+2, -842317.0, -936497.9, 23437.656, 0.013543508, 0.31465498, -836806.75, 103482.08, 0.0, 10.000816, 9.999566 
1.6850191e+3, 2.1405488e+2, -810780.0, -865483.94, 6017.0083, 0.008498006, 0.2960607, -810126.0, 32166.736, 0.0, 10.000339, 9.999611 
1.6850191e+3, 2.2405447e+2, -780143.56, -817381.3, -4581.4116, 0.017925154, 0.303416, -779588.2, -35291.383, 0.0, 9.999951, 9.999455 
1.6850191e+3, 2.3405434e+2, -720954.9, -741581.25, -761.0312, 0.044086795, 0.3423048, -720926.8, -74627.06, 0.0, 9.9997, 9.999424 
1.6850187e+3, 2.4405406e+2, -627815.4, -589922.06, -6391.222, 0.03581013, 0.35202768, -588873.1, -40570.113, 0.0, 9.999425, 9.999924 
1.6850176e+3, 2.5405368e+2, -572361.5, -508236.97, -11027.135, -0.017137578, 0.31281742, -506393.66, -56088.16, 0.0, 9.999114, 9.999962 
1.6850173e+3, 2.6405343e+2, -524944.3, -430039.22, -14942.713, -0.010008418, 0.29454803, -427742.1, -75434.45, 0.0, 9.998748, 10.000002 
1.6850176e+3, 2.740536e+2, -491031.1, -363760.75, -20566.469, 0.072408766, 0.3053621, -360519.8, -106212.14, 0.0, 9.998312, 9.999993 
1.6850169e+3, 2.84054e+2, -444542.94, -291162.8, -13789.754, 0.055405706, 0.3513912, -289932.88, -133627.95, 0.0, 9.99796, 9.999988 
1.685015e+3, 2.9405487e+2, -374592.9, -201416.78, -11160.768, -0.07358299, 0.43124527, -200700.47, -142402.22, 0.0, 9.9977455, 10.000034 
1.6850156e+3, 3.0405414e+2, -322606.72, -77240.87, 22731.566, 0.011005191, 0.32435068, -75152.7, -75152.7, 0.0, 9.997447, 10.000698 
1.6850151e+3, 3.140553e+2, -389074.16, -73258.62, 8998.437, -0.06455102, 0.37040448, -73002.44, -73002.44, 0.0, 9.996837, 10.001019 
1.6950239e+3, 1.24067396e+2, -1238745.1, -1673142.0, -68401.95, 0.048780434, 0.41566584, -1228228.9, 495949.4, 0.03487983, 10.004231, 9.998259 
1.6950214e+3, 1.3406509e+2, -1282809.6, -1682513.5, 9173.2705, -0.11076809, 0.3830761, -1282599.1, 343600.8, 0.022483114, 10.003337, 9.997944 
1.695023e+3, 1.4406306e+2, -1218710.6, -1534457.0, 23970.922, 0.13093813, 0.36041376, -1216901.3, 311317.6, 0.011213223, 10.002781, 9.998552 
1.6950218e+3, 1.5406157e+2, -1118394.5, -1429459.4, 29057.121, 0.038458843, 0.3468163, -1115703.5, 314527.9, 0.0037287846, 10.002751, 9.998613 
1.695021e+3, 1.6406024e+2, -1049763.0, -1318543.5, 5399.1333, -0.014656805, 0.3433584, -1049654.6, 282588.63, 0.0006135235, 10.002424, 9.99886 
1.6950205e+3, 1.7405918e+2, -1061310.0, -1272768.5, 1744.6188, 0.024104366, 0.3453976, -1061295.6, 172957.5, 0.000016459384, 10.001669, 9.998865 
1.6950203e+3, 1.8405803e+2, -1016055.7, -1171158.9, 33068.31, 0.04571114, 0.33469194, -1009299.75, 126964.01, 0.0, 10.001182, 9.999125 
1.6950205e+3, 1.9405688e+2, -933099.44, -1080113.4, 42901.49, 0.031175224, 0.3017517, -921495.8, 116778.016, 0.0, 10.001076, 9.999128 
1.6950202e+3, 2.0405605e+2, -867655.56, -989993.7, 6882.635, 0.0175308, 0.30625308, -867269.56, 73012.19, 0.0, 10.000818, 9.999199 
1.6950196e+3, 2.1405584e+2, -839967.56, -926846.94, -11456.109, 0.009655174, 0.357781, -838482.4, 3802.9995, 0.0, 10.00034, 9.99919 
1.695019e+3, 2.2405525e+2, -774020.4, -805712.6, -14449.696, 0.014148827, 0.36934674, -768421.4, -24129.81, 0.0, 9.999953, 9.999536 
1.6950189e+3, 2.3405436e+2, -711757.9, -723615.75, -9073.03, 0.033663105, 0.31890205, -706848.4, -60548.21, 0.0, 9.999702, 9.999547 
1.6950183e+3, 2.4405387e+2, -630419.25, -596271.06, -16871.486, 0.035307433, 0.30206457, -589341.56, -41036.957, 0.0, 9.999428, 9.999881 
1.6950172e+3, 2.54054e+2, -576250.7, -517433.16, -21513.693, 0.016137151, 0.32324103, -510404.1, -60101.81, 0.0, 9.999117, 9.999898 
1.6950163e+3, 2.64054e+2, -530447.06, -442634.9, -30009.225, 0.019783493, 0.33249292, -433359.25, -81056.2, 0.0, 9.998751, 9.999914 
1.6950156e+3, 2.7405393e+2, -496999.75, -377820.1, -35842.82, 0.04358381, 0.3316427, -367871.06, -113565.22, 0.0, 9.998317, 9.999895 
1.6950145e+3, 2.8405437e+2, -427525.1, -256956.2, -21942.27, 0.019713884, 0.37380087, -254178.73, -97875.734, 0.0, 9.997964, 10.000222 
1.6950132e+3, 2.9405534e+2, -356184.8, -163883.31, -16639.041, -0.037070196, 0.43979844, -162454.23, -104160.234, 0.0, 9.997746, 10.000293 
1.6950136e+3, 3.040541e+2, -331214.4, -95611.836, 3637.38, 0.06454127, 0.27502465, -95555.695, -95555.695, 0.0, 9.997447, 10.000572 
1.6950119e+3, 3.140557e+2, -368958.7, -32322.88, -30299.793, -0.08162413, 0.38360956, -29617.412, -29617.412, 0.0, 9.99684, 10.001298 
1.7050281e+3, 1.2406917e+2, -1332535.6, -1718298.1, -41512.28, 0.072122164, 0.44677535, -1328119.0, 396043.53, 0.03718654, 10.003572, 9.998255 
1.7050248e+3, 1.3406672e+2, -1207978.0, -1641345.4, 25260.662, -0.12860444, 0.39522174, -1206510.6, 419674.38, 0.02408674, 10.003852, 9.997978 
1.7050262e+3, 1.4406447e+2, -1108224.0, -1489205.4, 32460.443, 0.119980134, 0.35467196, -1105478.0, 422727.2, 0.012113362, 10.003588, 9.998476 
1.7050247e+3, 1.5406305e+2, -1149691.5, -1454892.8, 40538.242, 0.05390893, 0.35512903, -1144398.8, 285818.5, 0.0040865135, 10.002582, 9.998521 
1.7050233e+3, 1.6406167e+2, -1109843.1, -1361685.3, 27478.66, 0.008707307, 0.35750055, -1106879.8, 225349.98, 0.000691961, 10.002072, 9.998733 
1.7050225e+3, 1.7406042e+2, -981188.8, -1249476.1, 22670.176, 0.02804507, 0.35533845, -979286.7, 254954.95, 0.000020346932, 10.002285, 9.998729 
1.705022e+3, 1.8405914e+2, -894345.56, -1118616.5, 40101.66, 0.040509783, 0.34094828, -887390.7, 248862.86, 0.0, 10.002044, 9.99907 
1.7050216e+3, 1.9405791e+2, -925660.0, -1081542.5, 35651.21, 0.03143162, 0.3040984, -917893.4, 120370.664, 0.0, 10.001151, 9.999082 
1.705021e+3, 2.0405701e+2, -912403.06, -1027333.3, 7311.2246, 0.021968467, 0.30899027, -911939.8, 28332.93, 0.0, 10.000582, 9.999056 
1.70502e+3, 2.1405667e+2, -831462.3, -940558.6, 8645.476, 0.01540441, 0.36742684, -830781.44, 11496.242, 0.0, 10.000477, 9.999029 
1.7050192e+3, 2.24056e+2, -733065.6, -790406.7, 11100.738, 0.018101508, 0.37968546, -730991.6, 13293.499, 0.0, 10.000257, 9.999494 
1.7050186e+3, 2.3405501e+2, -690552.9, -716791.56, 3156.148, 0.031553067, 0.3221555, -690178.56, -43883.992, 0.0, 9.999865, 9.999515 
1.7050175e+3, 2.4405451e+2, -623265.8, -588721.4, -10091.417, 0.034291625, 0.30507943, -585989.44, -37690.47, 0.0, 9.99946, 9.999915 
1.7050163e+3, 2.5405478e+2, -584546.25, -516522.88, -7445.1255, 0.026240524, 0.3338925, -515717.53, -65422.133, 0.0, 9.9990425, 9.999939 
1.7050152e+3, 2.6405478e+2, -534347.44, -444024.06, -6555.2715, 0.027996743, 0.34382367, -443550.78, -91254.89, 0.0, 9.998725, 9.999916 
1.705014e+3, 2.7405465e+2, -464724.22, -362662.28, -6462.948, 0.03110006, 0.3375995, -362254.66, -107955.24, 0.0, 9.998543, 9.999889 
1.7050123e+3, 2.8405517e+2, -411581.28, -239506.84, -3287.6047, 0.004468163, 0.38454047, -239444.06, -83148.23, 0.0, 9.998033, 10.000308 
1.7050107e+3, 2.940563e+2, -447742.2, -199664.14, -10824.339, -0.028602004, 0.45830742, -199192.73, -140907.67, 0.0, 9.997084, 10.000365 
1.7050108e+3, 3.0405483e+2, -438876.63, -167671.19, 18309.72, 0.0768481, 0.27387622, -166440.64, -166440.64, 0.0, 9.996796, 10.000392 
1.705009e+3, 3.140564e+2, -276765.13, 52633.996, -35925.395, -0.06689659, 0.39229935, 56506.613, 56506.613, 0.0, 9.997301, 10.001658 
1.7150317e+3, 1.2407099e+2, -1337545.9, -1728471.9, -27932.363, 0.07984501, 0.43731353, -1335560.3, 388585.06, 0.039617013, 10.003577, 9.998183 
1.7150287e+3, 1.3406888e+2, -1209608.1, -1645145.1, 34608.04, -0.123066075, 0.424227, -1206875.4, 419289.03, 0.02578764, 10.003859, 9.997951 
1.7150299e+3, 1.4406657e+2, -1110464.6, -1494731.6, -1496.9806, 0.14210336, 0.3812613, -1110458.8, 417726.38, 0.013079771, 10.003593, 9.998437 
1.7150274e+3, 1.5406483e+2, -1151764.3, -1461117.1, 2560.207, 0.07502771, 0.35371903, -1151743.1, 278456.88, 0.0044793175, 10.002589, 9.998475 
1.7150255e+3, 1.6406326e+2, -1118718.3, -1382167.4, 31099.01, 0.019592835, 0.3466312, -1115096.9, 217117.13, 0.0007811272, 10.00208, 9.99859 
1.7150247e+3, 1.7406206e+2, -991311.06, -1272026.6, 30950.324, 0.016860554, 0.36245763, -987939.1, 246286.81, 0.000025375884, 10.00229, 9.998572 
1.7150238e+3, 1.8406072e+2, -909118.3, -1150379.4, 10171.122, 0.021620898, 0.36297154, -908690.25, 227548.27, 0.0, 10.002047, 9.998852 
1.7150228e+3, 1.9405937e+2, -940928.7, -1114360.1, 2161.2424, 0.0255596, 0.3355996, -940901.75, 97349.08, 0.0, 10.001154, 9.998856 
1.7150216e+3, 2.040582e+2, -906611.75, -1016349.6, 1019.3071, 0.026068497, 0.32305732, -906602.25, 33659.656, 0.0, 10.000585, 9.999131 
1.7150207e+3, 2.1405742e+2, -824098.0, -926268.6, 5671.9277, 0.025537712, 0.32556263, -823784.06, 18485.9, 0.0, 10.00048, 9.999127 
1.7150195e+3, 2.2405669e+2, -745097.4, -816272.0, -1942.2043, 0.029249849, 0.33515272, -745044.44, -766.6568, 0.0, 10.000258, 9.999316 
1.7150185e+3, 2.3405623e+2, -704700.2, -746812.2, -10601.292, 0.036608387, 0.35160473, -702182.0, -55898.473, 0.0, 9.999866, 9.99931 
1.715017e+3, 2.4405591e+2, -615331.7, -572685.1, -24914.846, 0.03125007, 0.36007035, -561214.6, -12927.938, 0.0, 9.999461, 10.000026 
1.7150153e+3, 2.540559e+2, -574357.94, -496583.38, -21906.287, 0.012695776, 0.34484854, -490837.66, -40552.18, 0.0, 9.999045, 10.000075 
1.7150138e+3, 2.6405576e+2, -527565.25, -431559.88, -13179.556, 0.01474917, 0.32892683, -429783.47, -77496.58, 0.0, 9.99873, 10.000001 
1.7150125e+3, 2.7405572e+2, -459128.4, -351757.8, -12394.937, 0.033845115, 0.3234997, -350345.5, -96056.32, 0.0, 9.998543, 9.999966 
1.7150104e+3, 2.840564e+2, -416725.56, -249874.7, -35838.168, 0.007698978, 0.3834163, -242502.69, -86218.34, 0.0, 9.998031, 10.000238 
1.7150076e+3, 2.940577e+2, -455429.03, -217584.06, -44113.813, -0.049643356, 0.48585606, -209665.77, -151393.19, 0.0, 9.997091, 10.000239 
1.7150073e+3, 3.0405623e+2, -455123.28, -203814.56, 34059.945, 0.04616428, 0.32315764, -199280.22, -199280.22, 0.0, 9.996803, 10.000141 
1.7150068e+3, 3.1405705e+2, -248925.36, 111279.945, -33396.965, -0.019208483, 0.3868577, 114350.22, 114350.22, 0.0, 9.997296, 10.002064 
1.7250358e+3, 1.2407305e+2, -1246804.4, -1691482.5, -6922.096, 0.08388037, 0.42291528, -1246696.6, 477427.53, 0.042172395, 10.0042715, 9.99811 
1.7250326e+3, 1.3407105e+2, -1261740.3, -1673344.9, 48594.977, -0.11020292, 0.42151472, -1256080.9, 370061.94, 0.027585778, 10.003509, 9.997926 
1.7250335e+3, 1.4406866e+2, -1187584.0, -1535841.0, 6592.05, 0.1692085, 0.37441325, -1187459.3, 340705.25, 0.014112073, 10.0030775, 9.9984 
1.7250304e+3, 1.5406696e+2, -1067671.1, -1425278.3, 9266.847, 0.07844567, 0.3545138, -1067431.1, 362747.75, 0.004907627, 10.003193, 9.998429 
1.725028e+3, 1.640653e+2, -1004970.94, -1341606.0, 43083.24, 0.013617939, 0.34775972, -999544.56, 332649.16, 0.0008819792, 10.002926, 9.998461 
1.725027e+3, 1.7406385e+2, -1029285.5, -1306051.0, 44291.813, 0.021187766, 0.3519459, -1022370.1, 211837.81, 0.000031776486, 10.002098, 9.99843 
1.7250256e+3, 1.8406235e+2, -993236.06, -1210581.6, 18437.273, 0.028447516, 0.35185686, -991683.1, 144539.3, 0.0, 10.001555, 9.998674 
1.725024e+3, 1.94061e+2, -915107.44, -1122940.9, 11751.536, 0.023575565, 0.34194857, -914445.06, 123790.62, 0.0, 10.001422, 9.998668 
1.7250225e+3, 2.0405978e+2, -824613.0, -972292.4, 17722.203, 0.023226384, 0.33444133, -822516.0, 117731.3, 0.0, 10.001129, 9.99917 
1.7250213e+3, 2.1405892e+2, -801602.94, -908425.1, 19015.646, 0.032876607, 0.32363862, -798318.9, 43936.402, 0.0, 10.000607, 9.999187 
1.7250198e+3, 2.2405815e+2, -767906.6, -828625.4, 11171.198, 0.03896238, 0.32664976, -765916.56, -21653.443, 0.0, 10.00011, 9.999301 
1.7250182e+3, 2.340577e+2, -737889.75, -765022.4, 15384.445, 0.03708144, 0.34617335, -730944.44, -84675.41, 0.0, 9.999651, 9.999286 
1.7250164e+3, 2.4405743e+2, -636507.0, -584024.3, 9634.105, 0.026182447, 0.36100787, -582311.7, -34039.504, 0.0, 9.999324, 10.000012 
1.7250143e+3, 2.540575e+2, -555637.9, -489409.13, 694.3724, 0.007242704, 0.35773754, -489401.84, -39131.32, 0.0, 9.999185, 10.000056 
1.7250125e+3, 2.6405743e+2, -516050.66, -414824.3, -4695.924, 0.01097108, 0.3463043, -414606.9, -62335.7, 0.0, 9.998763, 10.000099 
1.7250107e+3, 2.7405745e+2, -539515.94, -378140.47, -3064.6274, 0.03570037, 0.33298054, -378082.28, -123809.81, 0.0, 9.997942, 10.000073 
1.7250083e+3, 2.8405797e+2, -481578.66, -290619.47, -17430.318, 0.014493919, 0.37956247, -289041.53, -132772.97, 0.0, 9.997629, 10.000152 
1.7250052e+3, 2.9405904e+2, -329810.22, -172866.08, -26072.18, -0.04200713, 0.46610495, -168648.22, -110388.32, 0.0, 9.998025, 10.000096 
1.7250045e+3, 3.040579e+2, -353341.44, -176812.63, 43601.203, 0.029769694, 0.35368207, -166630.75, -166630.75, 0.0, 9.997599, 9.999944 
1.7250037e+3, 3.1405824e+2, -424025.94, 55740.926, -37246.938, 0.005889955, 0.38878682, 58615.39, 58615.39, 0.0, 9.995973, 10.00232 
1.73504e+3, 1.2407544e+2, -1254914.9, -1705578.6, -28228.646, 0.078798845, 0.40666947, -1253153.5, 470945.22, 0.044857927, 10.004271, 9.998011 
1.7350362e+3, 1.340732e+2, -1263428.6, -1677001.4, 18917.836, -0.09152553, 0.38492382, -1262565.1, 363555.2, 0.029481817, 10.003514, 9.997897 
1.7350368e+3, 1.4407073e+2, -1190104.1, -1542581.4, 6843.29, 0.19982076, 0.33199564, -1189971.4, 338172.06, 0.015208748, 10.003085, 9.998351 
1.7350334e+3, 1.5406944e+2, -1070231.4, -1432314.3, 13638.047, 0.06357045, 0.35944495, -1069718.5, 360435.5, 0.0053705308, 10.003201, 9.998379 
1.7350307e+3, 1.640678e+2, -1012434.3, -1358623.4, 14971.42, -0.010287717, 0.3633701, -1011788.06, 320380.38, 0.0009949692, 10.002931, 9.998342 
1.7350292e+3, 1.7406578e+2, -1037582.9, -1324769.6, 13142.37, 0.04000373, 0.32354596, -1036982.7, 197204.95, 0.000039781222, 10.002103, 9.9983 
1.7350276e+3, 1.84064e+2, -1003105.8, -1232220.4, 11221.54, 0.059764814, 0.30752435, -1002557.5, 133647.72, 0.0, 10.001558, 9.998526 
1.7350253e+3, 1.9406272e+2, -925254.44, -1145335.4, 7459.707, 0.02483019, 0.32280326, -925001.9, 113216.914, 0.0, 10.001426, 9.998513 
1.7350236e+3, 2.040617e+2, -824735.3, -973470.5, -379.9643, 0.012467143, 0.3427687, -824734.3, 115494.85, 0.0, 10.001131, 9.999162 
1.7350219e+3, 2.1406114e+2, -801054.94, -907847.5, -48.68014, 0.03659174, 0.36154848, -801054.9, 41179.035, 0.0, 10.000607, 9.999192 
1.73502e+3, 2.2406034e+2, -757445.6, -807335.7, -5700.413, 0.04621609, 0.35422087, -756802.56, -12561.02, 0.0, 10.000111, 9.999448 
1.7350179e+3, 2.3405938e+2, -726622.4, -742545.75, -711.14856, 0.032514866, 0.30640027, -726590.7, -80339.125, 0.0, 9.999653, 9.99944 
1.7350157e+3, 2.4405901e+2, -646380.4, -605384.1, 4222.9966, 0.018632794, 0.30878118, -604953.7, -56697.74, 0.0, 9.999326, 9.999866 
1.7350136e+3, 2.5405958e+2, -568270.8, -516074.94, -3299.5022, 0.008791457, 0.37198907, -515867.2, -65615.914, 0.0, 9.999185, 9.999874 
1.7350112e+3, 2.6405978e+2, -509528.5, -401355.94, -32521.387, 0.01500606, 0.39500526, -392331.47, -40081.723, 0.0, 9.998762, 10.000193 
1.7350087e+3, 2.7405974e+2, -529939.25, -360344.5, -33143.277, 0.034674555, 0.36668485, -354097.53, -99847.33, 0.0, 9.99795, 10.000192 
1.735006e+3, 2.8405994e+2, -487087.03, -304763.9, -5947.9277, 0.023819359, 0.37312135, -304570.1, -148320.66, 0.0, 9.997639, 10.000051 
1.7350036e+3, 2.9406023e+2, -340807.22, -197095.75, -9594.825, -0.0064813783, 0.3968274, -196457.98, -138209.7, 0.0, 9.998028, 9.999929 
1.735002e+3, 3.0405968e+2, -364432.38, -198637.48, -10182.417, 0.024372727, 0.3669419, -198014.47, -198014.47, 0.0, 9.997593, 9.999797 
1.7349996e+3, 3.1406012e+2, -420795.72, 62323.33, -108257.01, 0.004840607, 0.41584134, 85472.29, 85472.29, 0.0, 9.995974, 10.002365 
1.7450444e+3, 1.2407786e+2, -1294015.5, -1734779.3, -19454.826, 0.10921188, 0.37260497, -1293158.5, 430914.84, 0.047677614, 10.004048, 9.9979105 
1.74504e+3, 1.3407585e+2, -1211878.0, -1654422.5, 17956.94, -0.09303309, 0.37838373, -1211150.6, 414942.7, 0.031474046, 10.003902, 9.997865 
1.7450403e+3, 1.4407337e+2, -1121564.0, -1519896.6, 14626.107, 0.19565482, 0.32972243, -1121027.6, 407089.47, 0.016366446, 10.003617, 9.99825 
1.7450367e+3, 1.5407197e+2, -1079090.3, -1449141.6, 17285.982, 0.060075972, 0.3581629, -1078284.5, 351844.4, 0.005865922, 10.003197, 9.998264 
1.7450334e+3, 1.6407023e+2, -1039827.8, -1379837.0, 1458.2063, -0.009764963, 0.36076787, -1039821.56, 292322.94, 0.0011198252, 10.002778, 9.998269 
1.7450315e+3, 1.740681e+2, -1004168.6, -1316792.8, 1088.3264, 0.048181575, 0.31772655, -1004164.9, 229999.78, 0.00004956382, 10.002369, 9.998226 
1.7450294e+3, 1.8406628e+2, -951025.4, -1210850.6, 16296.892, 0.072827525, 0.3031222, -950007.2, 186175.47, 0.0000000000000006446772, 10.001934, 9.99849 
1.745027e+3, 1.9406505e+2, -922432.3, -1147722.6, 21891.477, 0.037998866, 0.3253265, -920324.9, 117871.19, 0.0, 10.001465, 9.998476 
1.7450246e+3, 2.04064e+2, -847874.94, -988668.06, 10794.258, 0.017980978, 0.3467866, -847052.2, 93154.65, 0.0, 10.000992, 9.999123 
1.7450224e+3, 2.1406335e+2, -817625.1, -920518.3, 6341.1104, 0.023053685, 0.360226, -817235.8, 24976.906, 0.0, 10.000515, 9.999148 
1.7450199e+3, 2.2406258e+2, -751764.2, -792900.56, 825.71063, 0.027611576, 0.3541694, -751747.6, -7527.6265, 0.0, 10.000101, 9.999551 
1.7450175e+3, 2.3406182e+2, -700808.7, -717249.5, 1950.3904, 0.028867073, 0.31677595, -700580.5, -54352.793, 0.0, 9.999777, 9.999553 
1.7450151e+3, 2.4406153e+2, -645976.5, -606364.6, 9940.088, 0.026640514, 0.32014015, -604010.25, -55778.855, 0.0, 9.999336, 9.999853 
1.7450126e+3, 2.5406194e+2, -637294.1, -552025.0, 13532.978, 0.02196351, 0.37258193, -549928.75, -99700.516, 0.0, 9.998726, 9.999846 
1.7450099e+3, 2.6406214e+2, -566614.0, -432350.53, -13784.203, 0.017383402, 0.39581665, -430949.97, -78722.805, 0.0, 9.998388, 10.000158 
1.7450066e+3, 2.7406216e+2, -462403.16, -331757.97, -26331.143, 0.0075723995, 0.37685147, -326650.66, -72423.53, 0.0, 9.998433, 10.0001545 
1.7450036e+3, 2.8406227e+2, -412804.2, -253667.9, 5860.286, 0.0077808886, 0.37150034, -253452.39, -97225.445, 0.0, 9.998085, 10.000185 
1.7450015e+3, 2.940625e+2, -460824.06, -240582.19, 22097.979, 0.036219336, 0.37320763, -238386.88, -180160.92, 0.0, 9.997146, 10.000054 
1.7449991e+3, 3.040627e+2, -505295.66, -269253.38, 24779.426, 0.03335778, 0.40864378, -266680.1, -266680.1, 0.0, 9.996639, 9.99977 
1.7449962e+3, 3.1406236e+2, -307986.06, 97153.195, -73677.945, 0.0072196014, 0.38672566, 110136.1, 110136.1, 0.0, 9.996833, 10.00219 
1.7550491e+3, 1.2408032e+2, -1302053.5, -1751385.0, -17652.607, 0.16929674, 0.31986943, -1301361.0, 422686.75, 0.05062335, 10.004055, 9.997794 
1.7550436e+3, 1.3407907e+2, -1214313.9, -1659250.3, 11223.001, -0.11524323, 0.40399706, -1214030.9, 412030.28, 0.033555236, 10.003906, 9.99783 
1.7550434e+3, 1.4407663e+2, -1133029.1, -1544300.0, -856.6959, 0.15577628, 0.37024683, -1133027.3, 395057.75, 0.017580096, 10.003621, 9.99808 
1.7550398e+3, 1.5407456e+2, -1091475.3, -1476155.3, 1484.5991, 0.06667986, 0.34938276, -1091469.5, 338634.2, 0.0063910303, 10.0032015, 9.998077 
1.7550366e+3, 1.6407257e+2, -1042098.6, -1385683.4, -14193.55, 0.013705317, 0.33867908, -1041513.25, 290608.84, 0.0012556869, 10.002782, 9.998228 
1.7550339e+3, 1.740708e+2, -1004871.6, -1320050.0, -14154.218, 0.045009214, 0.3342867, -1004237.25, 229901.73, 0.00006111771, 10.002375, 9.998201 
1.7550312e+3, 1.8406919e+2, -945388.9, -1200510.5, -1001.0985, 0.06623014, 0.33857366, -945384.94, 190769.78, 0.0000000010737394, 10.001938, 9.99856 
1.7550287e+3, 1.9406791e+2, -916640.7, -1136879.0, 4824.688, 0.062467173, 0.34989035, -916535.0, 121632.62, 0.0, 10.001468, 9.99855 
1.7550258e+3, 2.0406663e+2, -853084.1, -1000099.75, -6719.5273, 0.039022382, 0.34734485, -852777.6, 87402.89, 0.0, 10.000993, 9.999045 
1.7550224e+3, 2.1406548e+2, -823861.6, -934481.6, -10601.485, -0.008415481, 0.31941655, -822854.75, 19337.232, 0.0, 10.000517, 9.999052 
1.7550196e+3, 2.240648e+2, -747953.06, -785808.94, -11013.305, -0.018072767, 0.3261704, -744982.2, -783.2632, 0.0, 10.000102, 9.999599 
1.7550172e+3, 2.3406498e+2, -696447.5, -709061.9, -9054.357, 0.02551681, 0.37643838, -691720.1, -45522.137, 0.0, 9.999779, 9.999609 
1.7550145e+3, 2.4406491e+2, -637938.6, -590141.75, -11448.412, 0.04927098, 0.39407772, -587541.06, -39341.83, 0.0, 9.999336, 9.999965 
1.7550115e+3, 2.5406462e+2, -628205.4, -534637.44, -8387.893, 0.044889733, 0.36047062, -533891.44, -83689.37, 0.0, 9.998731, 9.999965 
1.7550083e+3, 2.6406446e+2, -577122.3, -455767.44, -13448.533, 0.016388725, 0.3499311, -454294.94, -102090.81, 0.0, 9.998394, 9.999995 
1.7550045e+3, 2.740646e+2, -476103.75, -361027.88, -23098.83, -0.045822933, 0.3620005, -356564.44, -102360.234, 0.0, 9.998434, 9.999953 
1.7550014e+3, 2.8406492e+2, -388130.06, -202705.0, -25429.408, -0.03423614, 0.37363166, -199280.81, -43078.695, 0.0, 9.998085, 10.000536 
1.7549993e+3, 2.9406574e+2, -430776.4, -181354.89, -13685.489, 0.082518496, 0.39630377, -180606.23, -122412.32, 0.0, 9.997157, 10.000457 
1.754996e+3, 3.040667e+2, -496240.3, -252877.72, 27862.66, 0.052662447, 0.47854036, -249728.47, -249728.47, 0.0, 9.996649, 9.999879 
1.7549929e+3, 3.140653e+2, -338579.9, 34317.797, -61422.613, 0.007905691, 0.34449717, 44174.6, 44174.6, 0.0, 9.996827, 10.001761 
1.7650533e+3, 1.2408351e+2, -1264310.4, -1746134.8, -7932.087, 0.17346503, 0.32754844, -1264179.9, 459836.8, 0.053677082, 10.004404, 9.997661 
1.7650476e+3, 1.3408215e+2, -1209043.5, -1662755.0, 7002.477, -0.11155891, 0.40707842, -1208935.4, 417095.66, 0.035715465, 10.003981, 9.99777 
1.7650472e+3, 1.440796e+2, -1148396.5, -1555774.9, -5275.026, 0.16866903, 0.3667932, -1148328.3, 379727.78, 0.018844124, 10.003537, 9.998041 
1.7650431e+3, 1.5407752e+2, -1100931.8, -1484920.5, 7619.526, 0.07225472, 0.34906396, -1100780.6, 329294.3, 0.0069425246, 10.003159, 9.998036 
1.7650393e+3, 1.6407552e+2, -1041027.5, -1386697.0, 131.22263, 0.014742219, 0.3417273, -1041027.5, 291065.88, 0.0014012909, 10.0028, 9.998211 
1.7650363e+3, 1.7407379e+2, -992920.25, -1316083.6, -392.18622, 0.042624157, 0.3419359, -992919.8, 241190.17, 0.0000742067, 10.002468, 9.998182 
1.7650332e+3, 1.8407212e+2, -934004.56, -1195496.8, 4150.614, 0.061968815, 0.34383988, -933938.7, 202187.33, 0.000000009428086, 10.002021, 9.998553 
1.7650302e+3, 1.9407074e+2, -925551.7, -1142078.4, 2309.6624, 0.05915469, 0.3434733, -925527.06, 112612.836, 0.0, 10.001411, 9.998541 
1.7650267e+3, 2.0406947e+2, -865656.75, -1000912.5, -4958.9043, 0.037113383, 0.33925563, -865475.2, 74677.62, 0.0, 10.000885, 9.999091 
1.765023e+3, 2.1406849e+2, -826441.75, -929895.06, 1032.0443, -0.009778667, 0.32445154, -826431.44, 15731.354, 0.0, 10.000477, 9.999102 
1.7650196e+3, 2.240679e+2, -760693.8, -796703.94, 4431.7407, -0.018181916, 0.3391855, -760156.4, -15987.266, 0.0, 10.000038, 9.999555 
1.7650169e+3, 2.34068e+2, -734054.1, -733529.4, -2423.3215, 0.02845073, 0.38830835, -731354.25, -85185.164, 0.0, 9.99955, 9.999551 
1.7650138e+3, 2.4406788e+2, -659100.6, -588945.2, -11042.493, 0.050267383, 0.39864615, -587248.1, -39077.21, 0.0, 9.999143, 10.000066 
1.7650102e+3, 2.5406754e+2, -602501.75, -509470.0, -9154.126, 0.034398813, 0.3525535, -508577.8, -58404.492, 0.0, 9.998854, 10.000078 
1.7650066e+3, 2.640675e+2, -566364.5, -444736.97, -1690.2361, 0.006374979, 0.34585813, -444713.5, -92539.43, 0.0, 9.998444, 10.000046 
1.7650028e+3, 2.7406794e+2, -557106.5, -395027.72, 6907.639, -0.03340204, 0.37911153, -394733.84, -140561.8, 0.0, 9.997859, 9.999996 
1.7649993e+3, 2.8406823e+2, -470343.53, -232017.64, -2339.4722, -0.015414276, 0.38600263, -231994.69, -75824.836, 0.0, 9.997478, 10.000627 
1.7649963e+3, 2.9406887e+2, -393538.44, -151563.97, -15565.502, 0.072705835, 0.3797091, -150566.8, -92403.78, 0.0, 9.997364, 10.000561 
1.7649922e+3, 3.040702e+2, -428694.44, -173938.75, 31684.076, -0.0002470846, 0.47247994, -170057.31, -170057.31, 0.0, 9.996916, 10.000291 
1.76499e+3, 3.140693e+2, -454071.03, -35328.293, -19481.404, 0.057783697, 0.34703258, -34423.902, -34423.902, 0.0, 9.996098, 10.001634 
1.7750572e+3, 1.2408747e+2, -1277871.9, -1772949.6, -13444.113, 0.11752635, 0.39665744, -1277507.0, 446472.3, 0.05682936, 10.004404, 9.997478 
1.775052e+3, 1.340851e+2, -1215983.6, -1677760.3, -9880.411, -0.08369628, 0.38723612, -1215772.3, 410230.38, 0.03795019, 10.003988, 9.9976635 
1.7750512e+3, 1.4408226e+2, -1141780.4, -1542714.8, -20541.277, 0.23178339, 0.3196212, -1140730.8, 387299.13, 0.020155376, 10.003544, 9.998129 
1.7750463e+3, 1.5408085e+2, -1092761.0, -1469199.5, -6438.885, 0.075875215, 0.3576261, -1092650.9, 337391.38, 0.007517709, 10.003164, 9.998142 
1.7750418e+3, 1.6407911e+2, -1040893.4, -1387832.8, -12521.486, -0.007876782, 0.37063435, -1040442.06, 291616.0, 0.0015554583, 10.002805, 9.998201 
1.7750387e+3, 1.7407706e+2, -993875.1, -1319560.3, -12427.153, 0.04041327, 0.34088182, -993401.7, 240676.06, 0.000088497945, 10.002473, 9.9981575 
1.7750353e+3, 1.840751e+2, -940127.6, -1209005.8, -17445.326, 0.059186045, 0.31944662, -939000.44, 197096.23, 0.000000028818846, 10.002022, 9.998461 
1.7750312e+3, 1.9407347e+2, -931702.06, -1156204.6, -19814.82, 0.027494201, 0.30541736, -929966.6, 108146.6, 0.0, 10.001415, 9.998443 
1.7750274e+3, 2.0407242e+2, -854168.4, -978191.0, -20269.115, 0.010826661, 0.32168162, -850939.8, 89184.26, 0.0, 10.000888, 9.999247 
1.7750238e+3, 2.140723e+2, -813421.1, -904155.6, -13311.92, 0.018021625, 0.37513787, -811508.44, 30617.191, 0.0, 10.000481, 9.999278 
1.7750202e+3, 2.2407179e+2, -770094.2, -817051.2, -12933.24, 0.02630529, 0.39340076, -766767.7, -22636.438, 0.0, 10.000039, 9.999415 
1.7750165e+3, 2.3407084e+2, -745367.3, -758274.25, -19513.238, 0.03666088, 0.35280293, -731268.1, -85126.54, 0.0, 9.999553, 9.99938 
1.7750128e+3, 2.4407034e+2, -653050.44, -577301.2, -21546.467, 0.028285872, 0.3340289, -571601.3, -23454.438, 0.0, 9.9991455, 10.000145 
1.7750087e+3, 2.5407073e+2, -595428.25, -495974.63, -18825.17, -0.00937092, 0.34705022, -492530.56, -42387.715, 0.0, 9.998857, 10.00017 
1.7750047e+3, 2.6407126e+2, -547952.6, -407633.56, -21941.11, -0.012872366, 0.38199195, -404282.75, -52144.82, 0.0, 9.998446, 10.0003 
1.7750013e+3, 2.7407208e+2, -536323.6, -354305.03, -14049.457, 0.04048351, 0.42937398, -353226.97, -99095.58, 0.0, 9.997867, 10.000273 
1.7749976e+3, 2.840722e+2, -480701.16, -255584.72, -7648.3677, 0.05998683, 0.40938532, -255325.16, -99194.28, 0.0, 9.997485, 10.000462 
1.7749931e+3, 2.9407185e+2, -406530.9, -179984.52, -19796.164, 0.008311589, 0.3218389, -178267.69, -120133.45, 0.0, 9.997369, 10.000364 
1.7749879e+3, 3.040731e+2, -379251.8, -71030.83, 2731.298, -0.12366552, 0.38620505, -71006.625, -71006.625, 0.0, 9.996914, 10.000999 
1.7749868e+3, 3.1407464e+2, -439481.53, -7427.7134, -27829.965, 0.1429994, 0.42994937, -5642.473, -5642.473, 0.0, 9.996105, 10.001823 
1.7850617e+3, 1.24091215e+2, -1255774.8, -1762919.0, 17907.74, 0.121500984, 0.4030702, -1255143.3, 468799.6, 0.060090307, 10.004588, 9.997457 
1.785056e+3, 1.3408878e+2, -1161309.3, -1644283.6, 19930.31, -0.08156763, 0.38295087, -1160488.1, 465477.97, 0.0402636, 10.004365, 9.997711 
1.7850551e+3, 1.4408591e+2, -1096855.4, -1526445.8, 3635.4875, 0.23719075, 0.31265524, -1096824.6, 431168.84, 0.02151503, 10.003893, 9.99807 
1.7850494e+3, 1.5408447e+2, -1099452.5, -1480568.3, 3412.5205, 0.075387456, 0.35457188, -1099421.9, 330584.66, 0.008116559, 10.003158, 9.998067 
1.7850445e+3, 1.6408272e+2, -1065661.6, -1394209.3, 204.68335, -0.011240892, 0.36721402, -1065661.5, 266361.3, 0.0017178453, 10.002613, 9.998249 
1.7850411e+3, 1.7408064e+2, -1009201.9, -1320497.0, 6391.55, 0.0374733, 0.33078387, -1009070.7, 224971.63, 0.00010376792, 10.002342, 9.998213 
1.785037e+3, 1.8407875e+2, -946435.6, -1206118.3, -71.52166, 0.05478257, 0.3097197, -946435.6, 189625.0, 0.0000000562377, 10.001956, 9.998511 
1.7850326e+3, 1.9407728e+2, -929790.3, -1149547.3, 6560.9004, 0.018266745, 0.30691978, -929594.6, 108481.02, 0.0, 10.001408, 9.998491 
1.7850281e+3, 2.0407625e+2, -857547.1, -991085.1, 8877.27, 0.005011467, 0.32844236, -856959.56, 83126.84, 0.0, 10.000916, 9.999144 
1.7850243e+3, 2.1407597e+2, -818266.8, -920148.44, -6274.844, 0.027200444, 0.378475, -817881.8, 24207.932, 0.0, 10.000507, 9.999154 
1.7850202e+3, 2.2407538e+2, -767829.25, -811387.25, -15989.34, 0.035590928, 0.39219832, -762590.06, -18493.678, 0.0, 10.000035, 9.999455 
1.7850159e+3, 2.3407443e+2, -752977.3, -755139.75, -7173.495, 0.0246156, 0.34589666, -746804.0, -100697.56, 0.0, 9.999474, 9.999439 
1.7850117e+3, 2.4407399e+2, -675993.94, -589161.3, 3583.8538, 0.012895053, 0.33011955, -589013.6, -40902.402, 0.0, 9.998993, 10.000137 
1.7850074e+3, 2.5407448e+2, -631688.2, -515682.03, -1748.4886, -0.0029492637, 0.35720724, -515655.7, -65549.12, 0.0, 9.998618, 10.00015 
1.7850032e+3, 2.6407513e+2, -571869.1, -400986.8, -18749.951, -0.005788326, 0.3951164, -398953.7, -46852.8, 0.0, 9.998204, 10.000463 
1.7849989e+3, 2.74076e+2, -543247.4, -337864.88, -18644.572, 0.020906651, 0.43117782, -336186.06, -82092.9, 0.0, 9.997735, 10.000449 
1.7849949e+3, 2.8407624e+2, -504144.94, -265215.38, -822.1271, 0.044569194, 0.4114263, -265212.56, -109121.17, 0.0, 9.997317, 10.000477 
1.7849904e+3, 2.94076e+2, -466475.5, -205498.36, 1141.0951, 0.032035057, 0.33801267, -205493.38, -147399.88, 0.0, 9.9969425, 10.000394 
1.7849846e+3, 3.0407694e+2, -420469.72, -66854.84, 4893.2695, -0.12826064, 0.35584846, -66787.15, -66787.15, 0.0, 9.996528, 10.001213 
1.784983e+3, 3.140793e+2, -425689.34, -8198.819, -38677.902, 0.12867136, 0.46372375, -4645.7905, -4645.7905, 0.0, 9.996233, 10.001756 
1.7950669e+3, 1.240948e+2, -1248189.8, -1744029.1, 21319.094, 0.17751965, 0.34952658, -1247274.9, 476631.7, 0.06347971, 10.004593, 9.997585 
1.7950602e+3, 1.3409321e+2, -1148503.6, -1615401.6, 10361.404, -0.10495538, 0.39397427, -1148273.8, 477647.56, 0.04266597, 10.004368, 9.997911 
1.7950584e+3, 1.4409058e+2, -1112309.6, -1558680.8, -22958.105, 0.18550652, 0.34530562, -1111131.9, 416814.9, 0.022929061, 10.003894, 9.997849 
1.7950524e+3, 1.540884e+2, -1117107.5, -1518741.8, -23952.598, 0.0698615, 0.34026274, -1115684.1, 314283.8, 0.008742895, 10.003163, 9.997803 
1.7950474e+3, 1.6408633e+2, -1058572.4, -1381066.9, -11273.747, 0.0032383304, 0.33240283, -1058178.8, 273808.75, 0.0018895128, 10.002618, 9.998338 
1.7950433e+3, 1.7408453e+2, -999309.94, -1301751.5, -3225.4626, 0.03308696, 0.3110779, -999275.56, 234728.36, 0.00012002824, 10.002348, 9.99834 
1.795039e+3, 1.8408303e+2, -933141.3, -1179902.0, -19569.277, 0.04711362, 0.3139432, -931599.0, 204419.08, 0.000000085167756, 10.00196, 9.998691 
1.7950341e+3, 1.9408211e+2, -916144.75, -1122959.0, -13445.068, 0.03037601, 0.34812084, -915274.3, 122753.27, 0.0, 10.001412, 9.9986725 
1.7950293e+3, 2.0408092e+2, -882480.56, -1043963.8, -6335.059, 0.018960781, 0.35995695, -882232.44, 57807.703, 0.0, 10.000918, 9.99878 
1.7950247e+3, 2.1407947e+2, -847141.2, -981345.1, -20273.617, 0.017466571, 0.33387515, -844145.4, -2089.7422, 0.0, 10.00051, 9.998734 
1.79502e+3, 2.240786e+2, -752975.75, -781404.94, -35675.43, 0.008857878, 0.33469683, -728787.3, 15277.749, 0.0, 10.000037, 9.999661 
1.795015e+3, 2.340787e+2, -733788.1, -716749.8, -27313.465, -0.008420274, 0.36677456, -696657.75, -50593.32, 0.0, 9.999476, 9.999702 
1.7950106e+3, 2.4407873e+2, -682116.06, -602657.56, -10244.693, 0.0031974427, 0.38643804, -601358.0, -53293.13, 0.0, 9.998994, 10.000045 
1.7950065e+3, 2.540788e+2, -639741.44, -533515.44, -14491.667, 0.051108308, 0.38431236, -531573.9, -81508.85, 0.0, 9.99862, 10.000027 
1.7950018e+3, 2.6407903e+2, -566531.3, -391300.5, -35135.375, 0.025495006, 0.3854329, -384518.06, -32454.584, 0.0, 9.998209, 10.000528 
1.7949957e+3, 2.740796e+2, -537353.8, -328051.13, -34820.965, -0.090427674, 0.3810281, -322410.13, -68351.805, 0.0, 9.997744, 10.000514 
1.794991e+3, 2.8408024e+2, -489880.9, -237451.19, -14388.966, -0.060500547, 0.39031792, -236633.64, -80581.375, 0.0, 9.997324, 10.000665 
1.7949885e+3, 2.9408133e+2, -448939.16, -170321.47, -13489.913, 0.136421, 0.4313859, -169669.84, -111628.586, 0.0, 9.996945, 10.000635 
1.7949821e+3, 3.0408156e+2, -441604.3, -110779.7, -8590.273, -0.0203625, 0.38061598, -110556.8, -110556.8, 0.0, 9.996528, 10.000912 
1.794978e+3, 3.140831e+2, -442500.66, -46683.582, -14927.159, 0.00842101, 0.4402958, -46121.44, -46121.44, 0.0, 9.996244, 10.001487 
1.8050718e+3, 1.2409907e+2, -1146066.1, -1699042.6, 38362.137, 0.18050537, 0.32319945, -1143417.5, 580446.4, 0.06701463, 10.00539, 9.99752 
1.8050644e+3, 1.3409768e+2, -1192731.9, -1639591.4, -4543.2813, -0.11535744, 0.3912135, -1192685.8, 433191.53, 0.04517119, 10.004072, 9.997885 
1.8050618e+3, 1.4409518e+2, -1195261.8, -1598937.1, -23664.78, 0.16921267, 0.35818148, -1193879.1, 334022.44, 0.024407428, 10.003315, 9.99785 
1.8050557e+3, 1.5409292e+2, -1079655.3, -1500508.0, -4020.7864, 0.0652698, 0.34411114, -1079616.9, 350306.84, 0.009402774, 10.003427, 9.9978 
1.8050502e+3, 1.6409081e+2, -985998.06, -1344506.3, 6770.4834, 0.0066637397, 0.32984704, -985870.25, 346073.7, 0.0020725057, 10.003114, 9.998348 
1.8050456e+3, 1.74089e+2, -1019970.56, -1310309.1, 4378.868, 0.03413433, 0.30752432, -1019904.56, 214055.72, 0.00013754408, 10.002203, 9.998349 
1.8050408e+3, 1.8408756e+2, -980026.1, -1200203.4, -12684.379, 0.046877004, 0.31525153, -979297.8, 156676.11, 0.00000010953618, 10.001631, 9.998709 
1.8050355e+3, 1.9408679e+2, -895277.1, -1110902.3, -18566.57, 0.03162248, 0.36206093, -893690.1, 144291.98, 0.0, 10.00155, 9.998688 
1.8050303e+3, 2.0408556e+2, -846485.2, -1032276.75, -17051.094, 0.018588692, 0.37245885, -844933.3, 95061.6, 0.0, 10.001192, 9.998728 
1.8050252e+3, 2.1408385e+2, -861845.7, -994685.56, -6267.7065, 0.009963843, 0.32526585, -861550.6, -19537.797, 0.0, 10.00044, 9.998675 
1.8050198e+3, 2.2408289e+2, -779392.0, -795813.7, -9654.994, -0.0015186823, 0.32063192, -774928.6, -30905.453, 0.0, 9.999866, 9.999645 
1.8050145e+3, 2.3408313e+2, -725564.7, -714765.2, -21706.193, -0.01514218, 0.37016892, -697797.2, -51775.94, 0.0, 9.999542, 9.999684 
1.8050095e+3, 2.4408329e+2, -668235.9, -585468.4, -13820.268, 0.001055136, 0.39977875, -583221.7, -35201.324, 0.0, 9.999043, 10.000139 
1.805005e+3, 2.5408345e+2, -680693.94, -541208.2, -2056.8057, 0.05358419, 0.3955489, -541177.9, -91158.54, 0.0, 9.998289, 10.0001335 
1.8049997e+3, 2.6408362e+2, -626994.7, -417954.3, -6383.9937, 0.025092136, 0.38435575, -417759.53, -65741.44, 0.0, 9.997784, 10.00055 
1.8049932e+3, 2.7408394e+2, -555237.44, -336171.53, -10522.542, -0.10209842, 0.3554803, -335667.25, -81651.945, 0.0, 9.997618, 10.000519 
1.8049882e+3, 2.8408468e+2, -485733.06, -235304.61, -1507.9161, -0.07191349, 0.37628013, -235295.53, -79287.38, 0.0, 9.997351, 10.000667 
1.8049854e+3, 2.9408637e+2, -451462.34, -168689.44, -17734.668, 0.13883321, 0.47151068, -167581.52, -109589.67, 0.0, 9.996918, 10.000659 
1.8049787e+3, 3.040861e+2, -477881.44, -150780.78, -18597.21, -0.012861597, 0.37679124, -149726.84, -149726.84, 0.0, 9.99638, 10.000707 
1.8049738e+3, 3.140873e+2, -478364.75, -49484.523, 23521.588, -0.010753155, 0.43070057, -48198.355, -48198.355, 0.0, 9.995935, 10.001617 
1.8150768e+3, 1.24104045e+2, -1165966.9, -1736624.5, 6861.574, 0.12801616, 0.3237819, -1165884.4, 557930.25, 0.07070794, 10.005389, 9.9972515 
1.8150684e+3, 1.3410224e+2, -1210471.0, -1676881.5, -53069.3, -0.11562418, 0.37498257, -1204508.8, 421324.7, 0.04779384, 10.004075, 9.997629 
1.8150654e+3, 1.4409979e+2, -1180884.3, -1569222.8, -24617.465, 0.18426697, 0.35220563, -1179330.0, 348527.78, 0.025961049, 10.003322, 9.998054 
1.8150592e+3, 1.5409805e+2, -1061981.0, -1464799.5, 528.0093, 0.06093321, 0.36517724, -1061980.3, 367893.75, 0.010102001, 10.003432, 9.998043 
1.8150532e+3, 1.640961e+2, -990739.2, -1355582.4, -24246.21, -0.0016286509, 0.3589758, -989134.94, 342757.25, 0.0022691044, 10.003118, 9.998272 
1.815048e+3, 1.7409402e+2, -1026453.94, -1325713.9, -29588.646, 0.039746895, 0.3205612, -1023556.44, 210355.11, 0.00015675182, 10.00221, 9.998241 
1.8150425e+3, 1.8409231e+2, -989718.0, -1222164.1, -17946.484, 0.05308696, 0.3141731, -988340.56, 147587.66, 0.00000012908751, 10.0016365, 9.998556 
1.815037e+3, 1.9409126e+2, -905417.75, -1133631.9, -20535.05, 0.021717163, 0.34795973, -903584.75, 134354.78, 0.0, 10.0015545, 9.99853 
1.8150313e+3, 2.0409013e+2, -828814.56, -996559.8, -42416.836, 0.002896224, 0.36515433, -818698.9, 121252.27, 0.0, 10.001194, 9.998973 
1.8150255e+3, 2.1408904e+2, -841178.5, -953319.0, -33639.47, 0.003173677, 0.35267442, -831861.56, 10100.274, 0.0, 10.000443, 9.998959 
1.8150198e+3, 2.2408815e+2, -795736.56, -830544.06, -22328.365, 0.0030813578, 0.35025832, -784830.5, -40859.273, 0.0, 9.9998665, 9.999407 
1.8150143e+3, 2.3408768e+2, -745451.75, -757277.94, -32300.775, 0.003921053, 0.35596398, -718527.3, -72549.89, 0.0, 9.999546, 9.999392 
1.8150087e+3, 2.4408762e+2, -648789.56, -546215.7, -39751.742, 0.005964183, 0.36911848, -532613.9, 15364.548, 0.0, 9.999046, 10.000408 
1.8150029e+3, 2.5408834e+2, -657459.3, -494910.94, -29388.016, 0.0040411735, 0.38935676, -489760.88, -39790.516, 0.0, 9.998294, 10.000449 
1.8149972e+3, 2.640888e+2, -627956.5, -420869.0, -13706.0, -0.007563111, 0.391006, -419965.8, -68000.13, 0.0, 9.997786, 10.000529 
1.8149915e+3, 2.74089e+2, -558996.7, -344099.84, -15240.572, -0.017514348, 0.35666788, -343024.34, -89059.734, 0.0, 9.997617, 10.000465 
1.8149865e+3, 2.840896e+2, -497972.4, -262358.44, -15828.867, 0.0066652824, 0.3701407, -261299.78, -105340.08, 0.0, 9.997355, 10.000481 
1.8149813e+3, 2.9409096e+2, -462655.22, -196839.64, -34847.69, 0.0402272, 0.4541221, -192347.14, -134400.69, 0.0, 9.996935, 10.00046 
1.8149742e+3, 3.0409032e+2, -485179.75, -167745.89, -38838.195, -0.10214064, 0.34311762, -163063.1, -163063.1, 0.0, 9.9963875, 10.000586 
1.8149705e+3, 3.1409156e+2, -440850.03, 28760.43, 44014.215, 0.055459116, 0.4063148, 32850.043, 32850.043, 0.0, 9.995932, 10.002158 
1.8250819e+3, 1.2410953e+2, -1223423.5, -1764003.3, 20199.697, 0.11236809, 0.33516052, -1222669.8, 501092.2, 0.074569166, 10.004974, 9.997263 
1.8250726e+3, 1.3410777e+2, -1144726.9, -1641572.9, -36961.156, -0.117274776, 0.39073712, -1141992.4, 483787.8, 0.050543003, 10.004556, 9.997639 
1.825069e+3, 1.4410533e+2, -1092928.1, -1527255.1, 13239.655, 0.17832233, 0.36806053, -1092524.9, 435279.44, 0.027596748, 10.003958, 9.998034 
1.8250625e+3, 1.5410334e+2, -1100009.5, -1486181.0, 20704.168, 0.05892571, 0.35920638, -1098902.6, 330919.9, 0.010844452, 10.003186, 9.9980135 
1.8250562e+3, 1.6410136e+2, -1056556.8, -1386643.8, -19467.658, -0.0029270328, 0.35241038, -1055412.6, 276428.38, 0.0024812517, 10.0026655, 9.998275 
1.8250501e+3, 1.740996e+2, -984890.1, -1305337.8, -18297.826, 0.03195024, 0.34405658, -983848.7, 250009.23, 0.00017806876, 10.002496, 9.998242 
1.8250443e+3, 1.8409793e+2, -930305.8, -1196210.9, 4828.1836, 0.04483963, 0.3425813, -930218.1, 205656.14, 0.00000015151502, 10.002058, 9.99853 
1.8250385e+3, 1.9409654e+2, -953059.1, -1159974.4, 10983.918, 0.021635141, 0.3463635, -952477.7, 85410.72, 0.0, 10.001245, 9.998498 
1.8250324e+3, 2.0409529e+2, -900129.0, -1028409.25, -13904.87, 0.006994763, 0.35285056, -898639.1, 41261.723, 0.0, 10.000696, 9.998993 
1.825026e+3, 2.1409439e+2, -828192.5, -944107.25, -25034.193, 0.0058218935, 0.35696065, -823016.94, 18892.557, 0.0, 10.000523, 9.998982 
1.8250197e+3, 2.2409357e+2, -764859.44, -818450.6, -20415.19, 0.007870188, 0.3621051, -757968.5, -14050.383, 0.0, 10.000092, 9.999381 
1.8250138e+3, 2.34093e+2, -784676.9, -779307.4, -12360.78, 0.014925034, 0.36206135, -769343.1, -123417.97, 0.0, 9.999292, 9.999361 
1.8250075e+3, 2.4409284e+2, -700246.06, -572650.7, -17586.201, 0.010208534, 0.36490083, -570271.2, -22343.963, 0.0, 9.998702, 10.000392 
1.8250011e+3, 2.5409338e+2, -642776.0, -490036.72, -32332.496, -0.014670284, 0.36856428, -483474.38, -33553.973, 0.0, 9.998405, 10.000429 
1.8249948e+3, 2.6409385e+2, -602552.2, -413655.47, -26557.043, -0.019428503, 0.37426934, -409992.8, -58077.234, 0.0, 9.997982, 10.000484 
1.8249893e+3, 2.7409434e+2, -598421.44, -368307.22, -27868.78, 0.014490854, 0.37237158, -364980.16, -111067.68, 0.0, 9.997371, 10.000417 
1.824984e+3, 2.840949e+2, -542668.56, -276983.22, -13834.095, 0.033393003, 0.38471565, -276264.8, -120357.016, 0.0, 9.99702, 10.000542 
1.824978e+3, 2.9409584e+2, -452667.78, -183527.03, -14456.553, 0.0057870476, 0.4221031, -182752.73, -124855.0, 0.0, 9.996967, 10.000535 
1.8249707e+3, 3.0409536e+2, -496330.72, -191190.94, -27991.057, -0.095808774, 0.3272193, -188644.52, -188644.52, 0.0, 9.996391, 10.0004225 
1.824966e+3, 3.140963e+2, -504882.38, 29802.723, 78384.87, 0.053153276, 0.37975588, 41057.063, 41057.063, 0.0, 9.995355, 10.002444 
1.8350868e+3, 1.24115534e+2, -1209105.4, -1725661.5, 18464.746, 0.12225404, 0.35757208, -1208446.3, 515259.47, 0.0786052, 10.004968, 9.997531 
1.8350771e+3, 1.3411431e+2, -1127956.1, -1604264.5, -53074.69, -0.11954404, 0.43789423, -1122113.6, 503603.7, 0.05342283, 10.004561, 9.9979 
1.8350726e+3, 1.4411178e+2, -1109050.1, -1562785.1, -14871.876, 0.15293469, 0.40637285, -1108563.3, 419178.06, 0.029318087, 10.003966, 9.9977865 
1.8350656e+3, 1.5410879e+2, -1119909.9, -1528817.0, -7704.1587, 0.05767469, 0.3267251, -1119764.8, 310004.63, 0.011632793, 10.00319, 9.997721 
1.8350588e+3, 1.6410659e+2, -1051577.8, -1377175.8, -27295.031, 0.00028574085, 0.31046018, -1049305.5, 282484.8, 0.0027105468, 10.002667, 9.998341 
1.8350525e+3, 1.7410569e+2, -977012.8, -1291017.1, -24025.283, 0.010040085, 0.37695518, -975185.2, 258614.4, 0.00020187897, 10.002502, 9.998339 
1.8350461e+3, 1.8410434e+2, -923327.56, -1183572.3, -23437.32, 0.021318672, 0.4000053, -921233.7, 214578.95, 0.00000018976193, 10.002064, 9.998615 
1.8350399e+3, 1.9410259e+2, -946053.6, -1147637.6, -18937.77, 0.030353595, 0.3577056, -944289.94, 93539.234, 0.0, 10.001252, 9.99858 
1.8350331e+3, 2.04101e+2, -913820.94, -1058392.4, -21779.38, 0.029871808, 0.33591843, -910611.2, 29233.297, 0.0, 10.000701, 9.998786 
1.8350266e+3, 2.1409984e+2, -844064.9, -978559.5, -30216.375, 0.01755141, 0.33742142, -837588.2, 4268.2744, 0.0, 10.000526, 9.998745 
1.8350199e+3, 2.2409908e+2, -752270.1, -793061.56, -47495.816, 0.012217928, 0.35493103, -720976.06, 22888.375, 0.0, 10.000093, 9.999555 
1.835013e+3, 2.3409908e+2, -768956.56, -748204.6, -41300.566, 0.016550018, 0.38820875, -715996.56, -70131.34, 0.0, 9.999297, 9.999574 
1.8350063e+3, 2.4409884e+2, -721151.75, -616572.8, -29496.07, 0.01263746, 0.38708493, -608827.25, -60959.72, 0.0, 9.998703, 10.000091 
1.8349995e+3, 2.5409847e+2, -667008.75, -541033.1, -42070.652, -0.0037400422, 0.33336887, -528275.25, -78405.08, 0.0, 9.998406, 10.000079 
1.834993e+3, 2.6409867e+2, -607923.9, -426066.13, -47601.402, -0.011670908, 0.33375955, -414359.94, -62491.33, 0.0, 9.997985, 10.000399 
1.8349865e+3, 2.7409977e+2, -601597.2, -377696.0, -49605.824, -0.0064301873, 0.4014947, -367197.94, -113337.98, 0.0, 9.997379, 10.00035 
1.8349807e+3, 2.841005e+2, -519350.75, -230349.83, -16796.455, 0.007693877, 0.41831326, -229376.9, -73523.32, 0.0, 9.9970255, 10.000859 
1.8349752e+3, 2.9410097e+2, -427708.47, -132109.17, -17565.373, 0.031063, 0.3746704, -131069.05, -73222.33, 0.0, 9.996967, 10.000889 
1.834968e+3, 3.041011e+2, -511307.47, -222896.19, -66937.984, 0.0039182724, 0.33315647, -208117.67, -208117.67, 0.0, 9.996391, 10.000205 
1.8349607e+3, 3.141015e+2, -507438.5, 18829.438, 57832.098, -0.016420905, 0.35679913, 25109.717, 25109.717, 0.0, 9.995375, 10.00236 
1.8450916e+3, 1.2412209e+2, -1222621.4, -1732127.1, 66614.37, 0.10474443, 0.36698323, -1214056.0, 509585.84, 0.08282328, 10.004886, 9.997529 
1.8450819e+3, 1.3412082e+2, -1134673.3, -1609187.6, -38050.566, -0.106522344, 0.44544324, -1131641.5, 494012.63, 0.056440674, 10.004537, 9.997875 
1.8450767e+3, 1.441183e+2, -1103627.4, -1558891.1, -14746.291, 0.14865331, 0.41491717, -1103150.3, 424527.75, 0.031130945, 10.00401, 9.99779 
1.8450688e+3, 1.541153e+2, -1108906.6, -1523191.6, 11435.753, 0.040074382, 0.3348376, -1108591.1, 321114.84, 0.012470454, 10.003269, 9.99772 
1.8450613e+3, 1.6411307e+2, -1050378.6, -1382821.6, 17209.232, -0.014240543, 0.31568205, -1049490.1, 282237.28, 0.0029586433, 10.002705, 9.998282 
1.8450549e+3, 1.7411204e+2, -998205.0, -1308706.5, 9845.968, 0.015628897, 0.37697324, -997893.06, 235844.9, 0.00022870715, 10.002391, 9.998269 
1.8450484e+3, 1.8411064e+2, -932953.06, -1191777.0, -13998.205, 0.03384675, 0.40138152, -932198.2, 203553.27, 0.00000025167606, 10.002016, 9.998581 
1.845041e+3, 1.9410895e+2, -904287.8, -1131182.6, -20563.191, 0.03214395, 0.3694633, -902439.25, 135328.14, 0.0, 10.001556, 9.998545 
1.845034e+3, 2.0410736e+2, -862249.6, -1030818.56, -11886.184, 0.028184902, 0.34686986, -861415.6, 78367.06, 0.0, 10.001045, 9.998809 
1.8450272e+3, 2.1410607e+2, -852257.7, -979614.25, -468.37216, 0.022592233, 0.3325347, -852255.94, -10460.56, 0.0, 10.00046, 9.998769 
1.84502e+3, 2.2410524e+2, -776565.9, -813190.4, -22728.523, 0.019543279, 0.34491748, -765690.4, -21886.578, 0.0, 9.999965, 9.999477 
1.8450126e+3, 2.3410523e+2, -732630.94, -740894.3, -40549.543, 0.01883402, 0.38781103, -696003.1, -50198.375, 0.0, 9.999593, 9.99948 
1.8450053e+3, 2.441049e+2, -674497.2, -608007.0, -32405.283, 0.014523308, 0.38968673, -594826.44, -47018.457, 0.0, 9.999085, 9.999965 
1.844998e+3, 2.5410435e+2, -681277.44, -562066.2, -28942.363, 0.007881119, 0.329806, -555411.06, -105598.38, 0.0, 9.998373, 9.999949 
1.8449911e+3, 2.6410443e+2, -638270.5, -444755.4, -23307.604, 0.0071955533, 0.3293844, -441987.75, -90175.79, 0.0, 9.997797, 10.00036 
1.8449841e+3, 2.7410555e+2, -597060.8, -378874.0, -22609.586, 0.006928701, 0.4018146, -376555.72, -122752.93, 0.0, 9.997427, 10.000318 
1.8449776e+3, 2.8410622e+2, -538758.1, -233687.66, 4183.679, -0.001642838, 0.4128601, -233630.28, -77833.3, 0.0, 9.996868, 10.000912 
1.8449715e+3, 2.9410666e+2, -562257.94, -189931.36, -21491.156, 0.0011983885, 0.35492462, -188694.97, -130903.336, 0.0, 9.9960165, 10.000948 
1.8449646e+3, 3.041075e+2, -614209.56, -255004.11, -68109.91, 0.057897735, 0.37644905, -242523.27, -242523.27, 0.0, 9.995612, 10.00036 
1.844956e+3, 3.141075e+2, -440990.63, 53706.113, 90409.336, -0.045903847, 0.34750596, 69711.24, 69711.24, 0.0, 9.995819, 10.002385 
1.855096e+3, 1.2412925e+2, -1240059.4, -1769358.4, 65654.9, 0.057763655, 0.36669093, -1232037.1, 491533.16, 0.08723187, 10.004897, 9.99727 
1.8550867e+3, 1.3412736e+2, -1156947.6, -1652684.6, -50923.125, -0.08213682, 0.41312256, -1151770.8, 473819.47, 0.059608184, 10.004529, 9.997577 
1.8550807e+3, 1.441249e+2, -1090363.6, -1527125.3, -40549.234, 0.16029869, 0.39261314, -1086630.9, 440983.66, 0.033044614, 10.004001, 9.998014 
1.8550716e+3, 1.5412286e+2, -1089670.0, -1484320.5, -16075.337, 0.005867471, 0.38276997, -1089016.3, 340616.47, 0.01336274, 10.003278, 9.997983 
1.8550637e+3, 1.6412073e+2, -1061255.5, -1408976.0, 3989.2656, -0.046047416, 0.36929235, -1061209.8, 270442.97, 0.0032280337, 10.002718, 9.998097 
1.8550578e+3, 1.7411861e+2, -1012961.1, -1341379.5, -1362.7864, 0.04768248, 0.34508833, -1012955.44, 220717.72, 0.000259364, 10.002398, 9.998043 
1.8550508e+3, 1.8411681e+2, -944268.06, -1216150.0, -30276.4, 0.080401525, 0.34699845, -940937.3, 194753.69, 0.0000003514084, 10.002017, 9.998414 
1.8550426e+3, 1.9411561e+2, -914818.2, -1154857.4, -36898.37, 0.026272137, 0.3809165, -909274.3, 128429.195, 0.0, 10.001563, 9.998381 
1.855035e+3, 2.041143e+2, -844527.06, -995592.7, -32858.703, 0.001585231, 0.38501275, -837689.4, 102026.59, 0.0, 10.00105, 9.999049 
1.8550275e+3, 2.14113e+2, -831942.2, -939001.8, -21340.525, 0.020003563, 0.34220883, -827845.1, 13881.716, 0.0, 10.000464, 9.999047 
1.8550201e+3, 2.2411196e+2, -799992.56, -862449.2, -36541.336, 0.028982796, 0.33209094, -783153.44, -39416.57, 0.0, 9.999966, 9.99914 
1.8550122e+3, 2.3411138e+2, -760284.9, -799582.3, -53115.5, 0.021464689, 0.36044648, -723300.3, -77555.9, 0.0, 9.999597, 9.999077 
1.8550043e+3, 2.4411096e+2, -671519.4, -602686.2, -57177.24, 0.015231874, 0.37180352, -570366.44, -22617.041, 0.0, 9.999087, 10.000001 
1.8549965e+3, 2.5411093e+2, -674839.06, -550348.9, -54838.19, 0.01870489, 0.3577858, -529638.06, -79889.38, 0.0, 9.998378, 10.000029 
1.8549891e+3, 2.641111e+2, -637632.9, -444330.16, -37834.145, 0.0366336, 0.36092588, -437188.9, -85442.336, 0.0, 9.9978, 10.000362 
1.8549821e+3, 2.7411163e+2, -596614.94, -378992.47, -35346.37, 0.053787455, 0.37274292, -373395.44, -119653.41, 0.0, 9.99743, 10.000317 
1.8549745e+3, 2.8411204e+2, -554227.4, -267070.16, -26012.398, 0.0034926077, 0.3679382, -264732.8, -108993.766, 0.0, 9.996871, 10.000682 
1.8549666e+3, 2.9411274e+2, -579015.56, -226910.81, -53662.535, -0.08651276, 0.36329567, -218914.0, -161180.31, 0.0, 9.996023, 10.000693 
1.8549603e+3, 3.0411437e+2, -574374.9, -174859.3, -63328.156, 0.0652557, 0.45504543, -165061.3, -165061.3, 0.0, 9.995622, 10.000906 
1.854952e+3, 3.141149e+2, -436128.88, 61119.582, 80045.48, -0.024420485, 0.41421908, 73687.41, 73687.41, 0.0, 9.995831, 10.002431 
1.865101e+3, 1.24136664e+2, -1221522.4, -1752965.5, 71887.09, 0.057498317, 0.36369872, -1211970.1, 511527.06, 0.09183715, 10.005033, 9.997317 
1.8650909e+3, 1.3413468e+2, -1236180.3, -1689021.6, -34420.168, -0.08245882, 0.39592758, -1233579.0, 391939.38, 0.06293401, 10.003947, 9.997606 
1.8650842e+3, 1.4413221e+2, -1175341.5, -1569384.9, -1806.9178, 0.13111235, 0.37601826, -1175333.3, 352209.6, 0.035067134, 10.003407, 9.99801 
1.8650751e+3, 1.5413052e+2, -1043555.4, -1463144.3, 4328.6953, 0.0066961814, 0.40131414, -1043510.75, 386047.53, 0.0143153975, 10.00361, 9.997968 
1.8650669e+3, 1.6412845e+2, -974930.06, -1371455.0, 5474.371, -0.032708358, 0.39719933, -974854.5, 356723.1, 0.0035219262, 10.003335, 9.998056 
1.86506e+3, 1.7412603e+2, -1014867.6, -1347452.5, 10604.1045, 0.043775104, 0.3461492, -1014529.8, 219070.88, 0.00029482722, 10.002409, 9.997995 
1.8650526e+3, 1.8412402e+2, -983325.7, -1246973.3, 1613.6792, 0.070364125, 0.33548012, -983315.8, 152304.6, 0.00000050835786, 10.001802, 9.998304 
1.8650444e+3, 1.9412279e+2, -911820.25, -1166542.0, -901.67206, 0.026651518, 0.37790135, -911817.06, 125816.43, 0.0, 10.001641, 9.998261 
1.8650362e+3, 2.0412147e+2, -814942.7, -983965.6, -15189.43, 0.0070601585, 0.3902956, -813588.5, 126057.625, 0.0, 10.0012665, 9.999023 
1.8650281e+3, 2.1412024e+2, -814879.1, -932941.56, -28238.393, 0.022704316, 0.35536516, -808472.6, 33183.84, 0.0, 10.000593, 9.999025 
1.8650201e+3, 2.2411916e+2, -794658.9, -859430.06, -36848.336, 0.033073504, 0.34312254, -777987.1, -34320.46, 0.0, 10.000003, 9.999142 
1.8650119e+3, 2.3411845e+2, -770705.25, -804322.8, -23098.39, 0.031165563, 0.35613763, -758947.06, -113271.945, 0.0, 9.999526, 9.999077 
1.8650034e+3, 2.4411796e+2, -688115.3, -625986.4, -22570.398, 0.022034772, 0.3681251, -618652.6, -70971.9, 0.0, 9.999042, 9.999862 
1.864995e+3, 2.54118e+2, -662630.94, -562173.7, -39373.76, 0.015079462, 0.37589452, -548580.6, -98900.41, 0.0, 9.998541, 9.999867 
1.864987e+3, 2.6411808e+2, -612857.6, -429730.66, -29151.525, 0.040686995, 0.3776402, -425202.1, -73523.11, 0.0, 9.99796, 10.000383 
1.8649796e+3, 2.7411833e+2, -619606.06, -384259.5, -23969.498, 0.08094568, 0.35880163, -381843.06, -128167.28, 0.0, 9.997251, 10.000365 
1.8649714e+3, 2.8411868e+2, -595270.7, -295744.3, -10210.462, 0.010789348, 0.35047263, -295396.66, -139723.8, 0.0, 9.996631, 10.000599 
1.8649621e+3, 2.941195e+2, -554853.06, -226884.6, -24174.38, -0.1315806, 0.37016553, -225112.28, -167445.3, 0.0, 9.996243, 10.000586 
1.8649563e+3, 3.041212e+2, -508401.4, -124008.24, -24504.545, 0.08829671, 0.45928922, -122452.41, -122452.41, 0.0, 9.995994, 10.001075 
1.8649477e+3, 3.1412178e+2, -502310.7, 3994.1218, 51957.207, -0.031775583, 0.41219366, 9270.994, 9270.994, 0.0, 9.995489, 10.0022 
1.8751064e+3, 1.24144346e+2, -1205512.4, -1708096.9, 42640.4, 0.09419658, 0.356084, -1201920.4, 521502.16, 0.09664354, 10.005018, 9.997638 
1.8750946e+3, 1.3414274e+2, -1215393.3, -1642145.0, -73121.414, -0.107245654, 0.39533007, -1203212.1, 422226.4, 0.06642296, 10.003955, 9.997929 
1.8750869e+3, 1.441403e+2, -1189113.8, -1601605.8, 1822.2897, 0.061820332, 0.36932945, -1189105.8, 338357.0, 0.03720382, 10.003422, 9.997782 
1.875079e+3, 1.5413831e+2, -1063145.9, -1503862.8, 12401.73, 0.040155135, 0.39045265, -1062797.1, 366685.44, 0.015333298, 10.003609, 9.99769 
1.8750708e+3, 1.6413622e+2, -970277.8, -1360851.0, -25715.756, 0.022278523, 0.39738992, -968591.94, 362910.66, 0.003843571, 10.003329, 9.998134 
1.875062e+3, 1.7413422e+2, -1006390.3, -1332040.5, -23906.352, 0.003670747, 0.37930575, -1004644.7, 228876.3, 0.00033613745, 10.002416, 9.998098 
1.8750536e+3, 1.8413223e+2, -985597.1, -1254431.8, -6391.3706, 0.004061536, 0.3677623, -985445.3, 150094.6, 0.000000733184, 10.001812, 9.99825 
1.8750459e+3, 1.9413045e+2, -916080.75, -1177015.8, -6022.3228, 0.03250482, 0.3607634, -915941.8, 121616.0, 0.0, 10.001646, 9.998189 
1.8750377e+3, 2.0412886e+2, -836002.5, -1028440.0, -38173.207, 0.043214884, 0.36272165, -828706.8, 110866.87, 0.0, 10.001267, 9.998719 
1.8750288e+3, 2.1412773e+2, -837514.25, -981331.9, -52341.758, 0.030065728, 0.37162757, -820481.9, 21103.025, 0.0, 10.000598, 9.9986925 
1.8750201e+3, 2.241268e+2, -770506.06, -810299.8, -54458.188, 0.03104547, 0.37753737, -732423.8, 11169.994, 0.0, 10.000006, 9.999478 
1.8750115e+3, 2.3412633e+2, -741934.3, -745835.8, -39617.9, 0.046701014, 0.3745302, -704219.2, -58621.56, 0.0, 9.999529, 9.999478 
1.8750025e+3, 2.4412583e+2, -710811.1, -674059.06, -40395.16, 0.034306485, 0.37805718, -648056.6, -100453.945, 0.0, 9.999043, 9.999532 
1.8749933e+3, 2.5412542e+2, -690632.75, -622283.6, -57074.78, -0.0038750833, 0.3834708, -589934.3, -140326.17, 0.0, 9.998547, 9.999453 
1.8749848e+3, 2.6412526e+2, -609644.8, -424680.16, -54623.832, 0.01816582, 0.37903485, -409753.25, -58143.086, 0.0, 9.997966, 10.000417 
1.8749769e+3, 2.7412558e+2, -612262.4, -371170.25, -50875.58, 0.08650908, 0.35980347, -360874.13, -107268.98, 0.0, 9.997257, 10.000453 
1.874968e+3, 2.841261e+2, -590327.4, -286616.25, -26779.43, 0.01941201, 0.36121032, -284273.06, -128673.66, 0.0, 9.9966345, 10.000661 
1.8749584e+3, 2.9412696e+2, -551648.06, -221280.88, -34873.93, -0.13355283, 0.3771039, -217639.67, -160047.28, 0.0, 9.996244, 10.000624 
1.8749526e+3, 3.041277e+2, -522581.56, -157331.98, -37814.652, 0.1247558, 0.3832405, -153458.08, -153458.08, 0.0, 9.996006, 10.000842 
1.874943e+3, 3.1412867e+2, -534101.6, -67114.53, -15323.193, -0.05153039, 0.3982414, -66612.27, -66612.27, 0.0, 9.995509, 10.001702 
1.8851109e+3, 1.2415269e+2, -1313851.4, -1758793.9, 58885.574, 0.07874692, 0.37625372, -1306190.1, 417151.7, 0.10165951, 10.004192, 9.997682 
1.8850988e+3, 1.3415109e+2, -1174769.4, -1612462.9, -80292.04, -0.09713284, 0.40897754, -1160505.1, 464852.03, 0.07008004, 10.004231, 9.998 
1.8850903e+3, 1.4414859e+2, -1111132.8, -1554673.6, 1575.3011, 0.04311834, 0.3698783, -1111127.1, 416254.44, 0.03945816, 10.003956, 9.997846 
1.8850824e+3, 1.5414657e+2, -1112983.1, -1521480.8, 35697.984, 0.039339714, 0.38234007, -1109887.0, 319514.38, 0.016419558, 10.003236, 9.997748 
1.885074e+3, 1.6414449e+2, -1051518.6, -1409473.6, -1068.2615, 0.028244706, 0.391057, -1051515.4, 279906.0, 0.004195435, 10.002811, 9.998048 
1.8850645e+3, 1.7414257e+2, -959702.06, -1321176.0, -15711.974, -0.004389685, 0.39069796, -959020.44, 274419.44, 0.00038428378, 10.002789, 9.9979925 
1.8850556e+3, 1.8414058e+2, -895498.56, -1205481.4, -5107.1797, -0.006961035, 0.38311818, -895414.44, 240044.36, 0.0000010250507, 10.002409, 9.998297 
1.8850476e+3, 1.941387e+2, -926843.44, -1175819.8, 3666.805, 0.03460683, 0.36090213, -926789.44, 110687.16, 0.0, 10.001547, 9.998243 
1.8850389e+3, 2.0413701e+2, -892157.44, -1072167.6, -15612.456, 0.050298247, 0.35701677, -890813.44, 48679.836, 0.0, 10.000956, 9.998568 
1.8850295e+3, 2.1413577e+2, -828515.25, -996392.5, -18705.742, 0.030257303, 0.37300074, -826456.2, 15050.364, 0.0, 10.000745, 9.998517 
1.8850203e+3, 2.2413482e+2, -723069.25, -783267.0, -30301.041, 0.028605834, 0.38318825, -710458.7, 33057.473, 0.0, 10.000316, 9.999515 
1.885011e+3, 2.3413442e+2, -730644.75, -734032.4, -42520.164, 0.047594264, 0.3817619, -689784.7, -44266.01, 0.0, 9.999582, 9.999533 
1.8850017e+3, 2.4413392e+2, -721982.7, -677910.94, -41243.902, 0.037748516, 0.38434342, -653185.3, -105662.24, 0.0, 9.998963, 9.999542 
1.884992e+3, 2.5413346e+2, -697116.44, -625233.94, -27129.209, 0.0022409211, 0.38223246, -616144.44, -166615.45, 0.0, 9.998504, 9.999453 
1.8849829e+3, 2.6413316e+2, -603866.4, -434423.6, -15416.57, 0.024895562, 0.37055016, -433032.38, -81500.055, 0.0, 9.998062, 10.000302 
1.8849744e+3, 2.7413335e+2, -567386.6, -363383.9, -29082.545, 0.086947665, 0.35280517, -359318.9, -105790.19, 0.0, 9.997628, 10.000326 
1.8849647e+3, 2.8413397e+2, -548879.25, -260246.89, -19395.54, 0.018180553, 0.36729923, -258949.38, -103427.375, 0.0, 9.996895, 10.000715 
1.8849546e+3, 2.9413497e+2, -608684.25, -244651.8, -22652.086, -0.11632166, 0.39200217, -243247.67, -185734.95, 0.0, 9.995839, 10.000657 
1.8849488e+3, 3.0413502e+2, -598766.5, -211997.25, -2133.3333, 0.14782888, 0.33480984, -211985.48, -211985.48, 0.0, 9.995562, 10.00068 
1.8849386e+3, 3.1413594e+2, -486010.0, -43564.67, -24894.549, -0.055064477, 0.359654, -42168.363, -42168.363, 0.0, 9.995844, 10.0017 
1.8951142e+3, 1.2416172e+2, -1330117.4, -1792103.1, 62049.867, 0.0058984533, 0.4257902, -1321928.6, 401326.06, 0.10689543, 10.004196, 9.997452 
1.8951035e+3, 1.3415971e+2, -1189207.0, -1638741.3, -78235.375, -0.054330364, 0.434968, -1175980.4, 449294.06, 0.07390876, 10.004224, 9.997824 
1.8950947e+3, 1.4415704e+2, -1090327.3, -1507581.3, -22038.566, 0.071453996, 0.37429374, -1089166.5, 438133.2, 0.041830897, 10.003949, 9.998179 
1.8950853e+3, 1.541553e+2, -1086620.9, -1467239.1, 8966.679, 0.003709043, 0.37776437, -1086409.8, 342904.94, 0.017575104, 10.003243, 9.998118 
1.8950763e+3, 1.6415328e+2, -1067786.4, -1445827.5, -3809.88, -0.015229832, 0.38248277, -1067748.0, 263585.9, 0.004578995, 10.002821, 9.997795 
1.8950677e+3, 1.7415103e+2, -981317.3, -1366858.0, -15842.193, 0.018060783, 0.38041088, -980667.44, 252690.16, 0.00044013254, 10.00279, 9.99768 
1.8950586e+3, 1.8414901e+2, -886089.3, -1186196.1, -34569.098, 0.034889497, 0.3798383, -882158.75, 253218.73, 0.0000013628122, 10.002408, 9.998431 
1.895049e+3, 1.9414751e+2, -913766.6, -1150459.5, -27965.555, 0.032375876, 0.3780078, -910507.4, 126882.97, 0.0, 10.001552, 9.998416 
1.8950397e+3, 2.041459e+2, -892118.06, -1073758.4, -24712.615, 0.02801354, 0.3735827, -888815.9, 50589.523, 0.0, 10.000961, 9.998556 
1.8950301e+3, 2.1414432e+2, -830669.06, -1001560.8, -25172.756, 0.022143688, 0.35929826, -827038.2, 14383.876, 0.0, 10.000746, 9.998483 
1.8950205e+3, 2.2414313e+2, -741487.6, -822104.6, -55465.59, 0.024808578, 0.35966465, -713230.8, 30203.67, 0.0, 10.000316, 9.9992485 
1.8950105e+3, 2.3414263e+2, -750735.8, -777356.9, -68950.47, 0.033249293, 0.3781828, -693822.9, -48383.938, 0.0, 9.999587, 9.999233 
1.8950005e+3, 2.441422e+2, -696980.3, -627478.4, -58405.76, 0.03172373, 0.38773394, -594267.1, -46824.684, 0.0, 9.998967, 9.999887 
1.8949907e+3, 2.5414202e+2, -667374.44, -565197.94, -43095.754, 0.032606255, 0.37159562, -549448.7, -100005.01, 0.0, 9.998509, 9.999864 
1.8949813e+3, 2.6414168e+2, -622013.94, -473787.3, -30869.908, 0.060335685, 0.3508115, -467615.28, -116168.94, 0.0, 9.998067, 10.000031 
1.8949719e+3, 2.741416e+2, -590823.0, -414986.38, -45673.184, 0.08008036, 0.33676907, -403830.63, -150383.06, 0.0, 9.997638, 9.999969 
1.8949616e+3, 2.8414223e+2, -544688.94, -253459.33, -57969.645, 0.0059686517, 0.36826184, -242344.58, -86902.86, 0.0, 9.996901, 10.00076 
1.8949509e+3, 2.9414353e+2, -606509.75, -242219.86, -57524.004, -0.07955983, 0.41513076, -233352.27, -175923.22, 0.0, 9.995845, 10.000672 
1.8949443e+3, 3.0414307e+2, -605007.25, -228046.53, 10399.943, 0.15289798, 0.3155522, -227759.83, -227759.83, 0.0, 9.995571, 10.000567 
1.8949346e+3, 3.1414363e+2, -445997.7, 37713.305, -63665.75, -0.034538314, 0.30832738, 45952.61, 45952.61, 0.0, 9.995851, 10.002256 
1.9051182e+3, 1.2417056e+2, -1328829.5, -1784135.0, 74467.055, -0.02785678, 0.43041328, -1316959.6, 406208.6, 0.112344995, 10.004198, 9.997509 
1.9051078e+3, 1.3416861e+2, -1226853.4, -1640877.8, -43431.316, -0.022379458, 0.431262, -1222346.5, 402840.4, 0.077900834, 10.00389, 9.997965 
1.9050986e+3, 1.4416595e+2, -1130398.0, -1525482.6, 5465.6943, 0.07693434, 0.36435646, -1130322.4, 396889.34, 0.044316262, 10.003667, 9.998186 
1.9050886e+3, 1.541642e+2, -1056600.6, -1453523.0, 6814.711, -0.014210854, 0.36736554, -1056483.6, 372743.25, 0.018797748, 10.003463, 9.998105 
1.905079e+3, 1.6416223e+2, -1026055.3, -1419083.3, -6074.6177, -0.031593114, 0.37597218, -1025961.44, 305284.3, 0.004994357, 10.003084, 9.997851 
1.9050704e+3, 1.7416012e+2, -1020942.06, -1379427.4, 8510.483, 0.03271168, 0.38226512, -1020740.1, 212527.98, 0.0005042276, 10.002492, 9.997736 
1.9050609e+3, 1.8415813e+2, -938427.9, -1213395.0, -8070.1157, 0.055739697, 0.38226292, -938191.2, 197096.73, 0.000001731659, 10.002059, 9.998412 
1.9050507e+3, 1.941565e+2, -873674.2, -1134488.6, -18181.35, 0.025687298, 0.37163776, -872412.9, 164889.1, 0.0, 10.001844, 9.998384 
1.9050406e+3, 2.041549e+2, -828242.5, -1034037.6, -20262.197, 0.012825798, 0.3656701, -826266.5, 113050.42, 0.0, 10.001364, 9.998633 
1.9050309e+3, 2.1415348e+2, -857247.06, -1004612.3, -12759.875, 0.02431164, 0.35923448, -856150.4, -14818.662, 0.0, 10.000523, 9.998568 
1.9050208e+3, 2.2415228e+2, -799676.25, -859717.0, -29223.947, 0.032990668, 0.35839945, -787800.75, -44456.71, 0.0, 9.99996, 9.999161 
1.9050102e+3, 2.3415156e+2, -729781.9, -779492.6, -28920.813, 0.031585593, 0.3632336, -716503.25, -71152.15, 0.0, 9.999784, 9.999123 
1.9049996e+3, 2.4415104e+2, -637909.1, -593518.56, -26881.12, 0.028275229, 0.36829036, -580853.75, -33498.324, 0.0, 9.9993515, 9.999935 
1.9049893e+3, 2.54151e+2, -656498.4, -552805.94, -38845.27, 0.038473703, 0.36137018, -539868.0, -90513.086, 0.0, 9.998555, 9.999925 
1.9049793e+3, 2.641508e+2, -647222.06, -484994.28, -25271.348, 0.06534652, 0.3469157, -481148.75, -129792.19, 0.0, 9.997892, 10.000037 
1.9049694e+3, 2.7415067e+2, -624264.0, -431517.1, -14324.011, 0.0735893, 0.33097148, -430458.4, -177100.22, 0.0, 9.997413, 9.999962 
1.9049585e+3, 2.8415123e+2, -542593.5, -254327.8, -25435.21, 0.01011922, 0.35635632, -252100.72, -96747.27, 0.0, 9.996926, 10.000741 
1.9049473e+3, 2.9415247e+2, -530556.6, -214731.45, -31070.416, -0.044277593, 0.4029067, -211703.81, -154362.31, 0.0, 9.996408, 10.000588 
1.9049397e+3, 3.041523e+2, -564929.25, -205245.27, 58042.406, 0.12817286, 0.34049982, -196110.9, -196110.9, 0.0, 9.995832, 10.000598 
1.9049305e+3, 3.1415263e+2, -543775.3, 41309.258, -43813.367, 0.0067361635, 0.29565245, 44571.973, 44571.973, 0.0, 9.994966, 10.002706 
1.9151223e+3, 1.2417918e+2, -1310730.3, -1735928.4, 59609.45, -0.029861141, 0.38814098, -1302531.5, 420551.13, 0.11796415, 10.004196, 9.997841 
1.9151118e+3, 1.3417779e+2, -1198723.3, -1579677.8, -52569.39, -0.003872342, 0.40053615, -1191602.1, 433492.3, 0.08202722, 10.0039, 9.998406 
1.9151019e+3, 1.4417534e+2, -1151379.9, -1571653.6, -1482.0035, 0.05712547, 0.34381345, -1151374.8, 375742.75, 0.04689926, 10.003677, 9.997866 
1.9150919e+3, 1.5417323e+2, -1083739.6, -1510418.6, -557.6508, -0.015387813, 0.350627, -1083738.9, 345399.34, 0.02008164, 10.003464, 9.997716 
1.9150823e+3, 1.641713e+2, -1002261.3, -1369081.9, -26905.928, -0.022218408, 0.36875755, -1000298.3, 330858.88, 0.005439926, 10.003081, 9.998197 
1.915073e+3, 1.7416981e+2, -991494.9, -1319847.4, -13047.874, 0.03868177, 0.39594483, -990977.2, 242194.7, 0.0005767601, 10.002496, 9.998144 
1.915063e+3, 1.8416792e+2, -950504.4, -1239952.4, -16687.066, 0.054186072, 0.3921861, -949545.56, 185644.8, 0.0000021934447, 10.002063, 9.998229 
1.9150525e+3, 1.9416566e+2, -890506.4, -1170000.5, -25375.365, 0.013504031, 0.34264845, -888221.25, 148990.75, 0.0, 10.001844, 9.998142 
1.9150418e+3, 2.0416395e+2, -817111.4, -1011275.9, -49057.75, 0.0038129727, 0.33322468, -805420.3, 133808.08, 0.0, 10.001363, 9.998791 
1.9150315e+3, 2.1416321e+2, -843189.75, -976658.0, -43101.746, 0.0360214, 0.3727626, -830480.8, 10755.246, 0.0, 10.000525, 9.998759 
1.915021e+3, 2.2416222e+2, -793067.1, -847300.25, -36768.77, 0.052303623, 0.37947705, -774497.25, -31251.648, 0.0, 9.999963, 9.999246 
1.91501e+3, 2.3416108e+2, -723967.44, -768533.1, -34055.348, 0.04183228, 0.33615077, -705552.7, -60296.69, 0.0, 9.999787, 9.999198 
1.914999e+3, 2.4416032e+2, -656025.75, -632145.5, -53930.754, 0.026782542, 0.32450232, -588848.94, -41585.953, 0.0, 9.999353, 9.99967 
1.9149877e+3, 2.541603e+2, -676921.56, -597089.94, -67891.805, 0.01756324, 0.35223824, -558249.4, -108985.8, 0.0, 9.998562, 9.999619 
1.914977e+3, 2.641603e+2, -625964.3, -442838.53, -43744.934, 0.03811458, 0.36074612, -432925.4, -81661.77, 0.0, 9.997899, 10.000324 
1.9149667e+3, 2.7416044e+2, -598536.4, -380603.78, -31417.46, 0.067367576, 0.33473107, -376165.0, -122903.34, 0.0, 9.997421, 10.000309 
1.9149555e+3, 2.8416082e+2, -547608.56, -266961.22, -44101.902, 0.030844295, 0.3292388, -260194.06, -104935.805, 0.0, 9.996934, 10.000651 
1.914944e+3, 2.941617e+2, -542112.3, -243298.72, -48098.695, -0.012824399, 0.35172075, -235747.33, -178495.88, 0.0, 9.996426, 10.000386 
1.9149351e+3, 3.0416274e+2, -550990.5, -179970.56, 29755.88, 0.06907069, 0.41410285, -177599.3, -177599.3, 0.0, 9.995845, 10.000767 
1.9149259e+3, 3.14163e+2, -522835.38, 84788.29, -91532.664, 0.05170828, 0.34157595, 98277.35, 98277.35, 0.0, 9.994963, 10.003007 
1.9251266e+3, 1.2418848e+2, -1335134.8, -1749747.9, 91538.72, -0.016618311, 0.35322282, -1315824.1, 407165.28, 0.12366921, 10.004029, 9.997834 
1.9251159e+3, 1.3418724e+2, -1161865.6, -1553072.6, -37845.156, -0.002141577, 0.37222555, -1158238.1, 466761.78, 0.08623792, 10.004156, 9.998483 
1.9251053e+3, 1.44185e+2, -1112593.5, -1553426.4, -2606.763, 0.02059052, 0.3361594, -1112578.1, 414442.94, 0.049554557, 10.003978, 9.997845 
1.9250953e+3, 1.5418293e+2, -1107805.3, -1525940.0, 21018.285, -0.0048710736, 0.34786966, -1106751.5, 322290.9, 0.021415824, 10.003316, 9.99768 
1.9250855e+3, 1.6418096e+2, -1033397.0, -1375668.6, 904.13025, 0.0013257858, 0.3618207, -1033394.6, 297667.1, 0.005912063, 10.002832, 9.998271 
1.9250754e+3, 1.7417942e+2, -972445.7, -1301373.4, -10445.919, 0.024393946, 0.374233, -972114.3, 260962.23, 0.0006577095, 10.00259, 9.998225 
1.9250648e+3, 1.8417759e+2, -935244.56, -1226928.3, -21593.23, 0.028180243, 0.3718718, -933654.7, 201439.53, 0.000002911813, 10.002146, 9.998278 
1.925054e+3, 1.941756e+2, -947832.6, -1193340.5, -10182.812, 0.012462017, 0.3444331, -947411.0, 89703.13, 0.0, 10.001433, 9.9981785 
1.9250432e+3, 2.0417403e+2, -878116.94, -1033363.56, -28277.719, 0.015609077, 0.34232214, -873126.6, 66003.13, 0.0, 10.000915, 9.998854 
1.9250321e+3, 2.1417321e+2, -818895.7, -958014.8, -33597.38, 0.042730983, 0.3703822, -811206.8, 29930.895, 0.0, 10.000666, 9.998818 
1.925021e+3, 2.2417225e+2, -747658.8, -817925.25, -28891.055, 0.055598117, 0.37422448, -737305.4, 5841.4063, 0.0, 10.000245, 9.9993105 
1.9250098e+3, 2.3417124e+2, -748269.75, -773287.5, -26799.645, 0.045849737, 0.33619586, -731203.4, -86047.51, 0.0, 9.999592, 9.999259 
1.9249982e+3, 2.4417047e+2, -705994.2, -661233.4, -46318.742, 0.031566437, 0.32234174, -632171.5, -85008.35, 0.0, 9.999035, 9.999622 
1.9249862e+3, 2.5417036e+2, -675170.9, -603376.25, -43554.574, 0.019384727, 0.34462807, -582832.3, -133666.77, 0.0, 9.998607, 9.999553 
1.9249749e+3, 2.6417047e+2, -596658.0, -415066.75, -15155.32, 0.032240365, 0.36426684, -413810.6, -62646.074, 0.0, 9.998043, 10.000444 
1.924964e+3, 2.7417094e+2, -606768.2, -368876.0, -18459.7, 0.057196457, 0.3596558, -367452.1, -114293.51, 0.0, 9.9973, 10.000447 
1.9249526e+3, 2.8417116e+2, -573074.2, -286229.22, -31639.889, 0.04162046, 0.33526504, -282780.7, -127624.21, 0.0, 9.996792, 10.0005865 
1.924941e+3, 2.9417154e+2, -531543.94, -247362.44, -30306.154, 0.03015273, 0.31468108, -244166.42, -187011.34, 0.0, 9.996541, 10.0003 
1.9249305e+3, 3.0417335e+2, -517186.78, -129987.445, 41544.895, 0.030800974, 0.44295296, -125580.016, -125580.016, 0.0, 9.995935, 10.001065 
1.9249211e+3, 3.1417376e+2, -552155.9, 49947.27, -75972.805, 0.08547982, 0.35407552, 59385.496, 59385.496, 0.0, 9.994852, 10.002821 
1.9351308e+3, 1.241984e+2, -1355996.6, -1796742.3, 86509.19, 0.005033247, 0.31978917, -1339624.8, 383264.34, 0.12937048, 10.004046, 9.997501 
1.93512e+3, 1.3419695e+2, -1182529.8, -1591225.4, -32133.742, -0.017099895, 0.34652764, -1180018.6, 444884.84, 0.09047592, 10.004153, 9.998199 
1.9351089e+3, 1.4419499e+2, -1097367.8, -1517003.3, -23098.904, -0.032620393, 0.34032252, -1096100.1, 430822.56, 0.052250415, 10.00397, 9.998103 
1.9350989e+3, 1.5419327e+2, -1086484.9, -1481431.3, -2857.603, 0.0150047885, 0.35884044, -1086464.1, 342475.38, 0.022785332, 10.003321, 9.997984 
1.9350886e+3, 1.6419123e+2, -1046779.8, -1405622.0, -9062.833, 0.03547955, 0.3570647, -1046551.06, 284408.5, 0.006405909, 10.00284, 9.998063 
1.9350775e+3, 1.7418891e+2, -990087.8, -1338730.0, -18747.156, -0.010544713, 0.31859148, -989082.7, 243899.63, 0.00074702007, 10.002591, 9.997969 
1.9350666e+3, 1.8418713e+2, -916539.3, -1188133.4, -46311.44, -0.02198204, 0.3210631, -908859.56, 226140.44, 0.0000041218373, 10.002144, 9.998546 
1.9350556e+3, 1.9418627e+2, -925128.56, -1147273.5, -35795.203, 0.021761356, 0.3753793, -919503.2, 117505.92, 0.0, 10.001436, 9.998494 
1.9350444e+3, 2.0418502e+2, -881167.25, -1040907.7, -38069.594, 0.046607092, 0.39174733, -872558.4, 66463.336, 0.0, 10.000917, 9.998802 
1.9350329e+3, 2.1418345e+2, -824786.4, -970747.1, -41356.453, 0.043243397, 0.35310417, -813883.0, 27154.32, 0.0, 10.000666, 9.998733 
1.9350211e+3, 2.2418234e+2, -744437.25, -812061.5, -51080.777, 0.042065024, 0.34343085, -716991.7, 26056.52, 0.0, 10.000246, 9.999351 
1.9350092e+3, 2.3418194e+2, -744132.4, -766068.75, -49841.617, 0.042321738, 0.36389935, -704066.4, -59014.91, 0.0, 9.999596, 9.999308 
1.9349973e+3, 2.4418141e+2, -694295.0, -638673.3, -62156.68, 0.041511975, 0.36271504, -598389.44, -51332.74, 0.0, 9.999039, 9.999777 
1.934985e+3, 2.5418097e+2, -662338.3, -578914.1, -58696.484, 0.044127304, 0.33643845, -548618.06, -99556.09, 0.0, 9.998613, 9.99972 
1.934973e+3, 2.6418117e+2, -599837.7, -423046.63, -41755.38, 0.047979377, 0.3550326, -413680.8, -62620.473, 0.0, 9.998048, 10.000388 
1.9349611e+3, 2.741821e+2, -612500.94, -382322.2, -45332.355, 0.039545678, 0.40717918, -373716.03, -120666.09, 0.0, 9.997304, 10.000354 
1.9349493e+3, 2.841822e+2, -574706.7, -292317.2, -41932.766, 0.039032377, 0.3764744, -286222.03, -131172.97, 0.0, 9.996799, 10.000543 
1.9349381e+3, 2.9418188e+2, -525691.9, -241074.36, -39557.652, 0.08462548, 0.29061097, -235678.72, -178624.97, 0.0, 9.996562, 10.000336 
1.9349262e+3, 3.0418402e+2, -484154.5, -64331.96, 3862.775, 0.0149914175, 0.4238511, -64296.42, -64296.42, 0.0, 9.995947, 10.001512 
1.934916e+3, 3.141852e+2, -598438.75, -48869.617, -88677.47, 0.07646914, 0.3772539, -34915.11, -34915.11, 0.0, 9.994861, 10.00214 
1.9451354e+3, 1.2420906e+2, -1222874.1, -1734231.5, 79644.56, 0.0042605116, 0.32247388, -1210756.5, 512027.1, 0.13501634, 10.005178, 9.997383 
1.9451241e+3, 1.3420725e+2, -1225778.6, -1624115.4, -15134.562, 0.0006923401, 0.32529593, -1225204.4, 399597.34, 0.09469896, 10.0039015, 9.998072 
1.9451123e+3, 1.4420542e+2, -1188764.8, -1550264.8, 5762.7227, -0.04339, 0.33389357, -1188672.9, 338146.88, 0.054957904, 10.0032625, 9.998211 
1.9451022e+3, 1.542038e+2, -1072990.0, -1459291.8, 12626.958, 0.009766411, 0.3508732, -1072577.8, 356257.47, 0.024175245, 10.003358, 9.9981165 
1.9450915e+3, 1.6420181e+2, -1015158.1, -1388581.1, -2085.4885, 0.033555333, 0.34592897, -1015146.44, 315708.16, 0.006916625, 10.0030575, 9.998073 
1.94508e+3, 1.7419942e+2, -1041217.56, -1363673.5, 5649.0986, -0.014616393, 0.30113468, -1041118.6, 191759.67, 0.00084444886, 10.002244, 9.997964 
1.9450684e+3, 1.8419768e+2, -975399.7, -1199699.0, -13879.838, -0.024570914, 0.30149683, -974544.06, 160351.61, 0.0000060577904, 10.001669, 9.998693 
1.945057e+3, 1.9419703e+2, -916214.2, -1124769.8, -15619.783, 0.025811661, 0.36071137, -915050.8, 121851.57, 0.0, 10.001422, 9.998654 
1.9450454e+3, 2.0419592e+2, -857730.8, -1025785.7, -18258.451, 0.05284968, 0.38147032, -855770.0, 83143.695, 0.0, 10.001064, 9.998834 
1.9450335e+3, 2.141944e+2, -839179.94, -975984.1, -14440.0625, 0.044857346, 0.3447606, -837672.4, 3257.1265, 0.0, 10.000561, 9.998746 
1.9450213e+3, 2.2419335e+2, -773985.6, -818822.3, -27736.807, 0.039504353, 0.33860672, -760740.1, -17800.006, 0.0, 10.000013, 9.999415 
1.9450088e+3, 2.341931e+2, -766516.4, -769008.6, -26537.285, 0.037438404, 0.36634892, -741196.0, -96253.77, 0.0, 9.999412, 9.999374 
1.9449963e+3, 2.4419269e+2, -708874.5, -636509.1, -32757.719, 0.042376645, 0.3704289, -623883.44, -76937.13, 0.0, 9.998903, 9.999856 
1.9449838e+3, 2.5419232e+2, -670512.8, -574347.9, -34994.086, 0.058759347, 0.34429595, -562961.75, -114010.81, 0.0, 9.998523, 9.999793 
1.9449712e+3, 2.6419246e+2, -594384.0, -419751.34, -28269.123, 0.057371825, 0.35732424, -415289.22, -64339.723, 0.0, 9.998084, 10.000392 
1.9449584e+3, 2.7419332e+2, -579731.4, -367654.16, -27443.123, 0.026215892, 0.39891595, -364160.53, -111220.49, 0.0, 9.997538, 10.00034 
1.9449462e+3, 2.841935e+2, -555515.75, -284358.28, -11859.571, 0.03512033, 0.3747678, -283840.56, -128902.15, 0.0, 9.996941, 10.000528 
1.9449349e+3, 2.9419342e+2, -557921.56, -247186.67, -6948.813, 0.113362834, 0.31791288, -247031.36, -190091.64, 0.0, 9.9963045, 10.000416 
1.944922e+3, 3.0419502e+2, -489556.34, -43735.63, 18642.57, 0.0044990974, 0.37478396, -42957.42, -42957.42, 0.0, 9.995813, 10.001716 
1.944911e+3, 3.141968e+2, -548120.94, -78700.76, -60083.523, 0.08084831, 0.38024232, -71132.375, -71132.375, 0.0, 9.995441, 10.001654 
1.9551402e+3, 1.2422039e+2, -1223402.5, -1724241.8, 25756.3, -0.02559726, 0.35564244, -1222081.4, 500591.78, 0.14060642, 10.005166, 9.997448 
1.9551285e+3, 1.3421811e+2, -1224544.0, -1621497.9, -56448.348, 0.04833833, 0.30844095, -1216672.9, 408022.06, 0.09889721, 10.003915, 9.998089 
1.9551158e+3, 1.4421627e+2, -1190679.6, -1557328.0, 6465.207, -0.015029829, 0.3178032, -1190565.6, 336146.84, 0.057664864, 10.003282, 9.998154 
1.9551052e+3, 1.5421449e+2, -1077046.1, -1467423.8, 16469.658, -0.020642243, 0.32495815, -1076352.5, 352376.84, 0.025577106, 10.003359, 9.99806 
1.9550942e+3, 1.6421266e+2, -1000645.9, -1357230.0, -29533.977, -0.0035239006, 0.32862905, -998216.25, 332531.0, 0.0074404846, 10.003053, 9.998292 
1.9550824e+3, 1.7421088e+2, -1023908.56, -1329023.1, -24165.582, 0.010611007, 0.3199147, -1022006.44, 210758.69, 0.00094927935, 10.002247, 9.998201 
1.9550705e+3, 1.842092e+2, -973355.4, -1196958.3, -23820.44, 0.017059304, 0.312138, -970845.94, 163935.72, 0.000008849083, 10.001674, 9.998712 
1.9550584e+3, 1.9420785e+2, -916073.0, -1125339.0, -23533.465, 0.023293309, 0.30297235, -913459.2, 123335.17, 0.0, 10.001424, 9.998651 
1.9550462e+3, 2.0420669e+2, -850437.25, -1011571.0, -35379.594, 0.034027345, 0.31345874, -843011.25, 95794.86, 0.0, 10.001066, 9.998932 
1.955034e+3, 2.1420595e+2, -831269.7, -960537.25, -31934.209, 0.04677536, 0.34437996, -823811.06, 17004.13, 0.0, 10.000563, 9.998852 
1.9550212e+3, 2.242052e+2, -767775.75, -807106.75, -49034.992, 0.04686343, 0.3584558, -734609.75, 8213.602, 0.0, 10.000015, 9.9994955 
1.955008e+3, 2.3420459e+2, -760597.6, -757833.9, -47838.918, 0.030736586, 0.34357998, -711356.9, -66527.95, 0.0, 9.999414, 9.999451 
1.9549951e+3, 2.442042e+2, -708563.4, -637299.25, -46708.816, 0.033405118, 0.3453838, -614183.06, -67349.984, 0.0, 9.998907, 9.999849 
1.9549823e+3, 2.542043e+2, -671024.2, -577277.6, -48096.06, 0.060595624, 0.36939633, -556991.9, -108158.49, 0.0, 9.9985285, 9.999771 
1.9549692e+3, 2.6420438e+2, -590206.44, -412753.9, -47619.7, 0.058379304, 0.37275666, -400782.66, -49949.844, 0.0, 9.998089, 10.00044 
1.9549558e+3, 2.7420446e+2, -574138.56, -360060.8, -47783.59, 0.017320797, 0.33119577, -349879.4, -97049.01, 0.0, 9.997551, 10.000387 
1.954943e+3, 2.8420484e+2, -552868.1, -281747.56, -36802.16, 0.029645097, 0.32763028, -276840.8, -122014.86, 0.0, 9.996951, 10.000542 
1.954931e+3, 2.942061e+2, -549352.25, -230681.11, -30418.947, 0.11118866, 0.40013105, -227803.44, -170989.53, 0.0, 9.996306, 10.00053 
1.9549179e+3, 3.0420604e+2, -493534.28, -53253.566, 3689.517, -0.0017072998, 0.28930116, -53222.652, -53222.652, 0.0, 9.995817, 10.001649 
1.9549064e+3, 3.1420794e+2, -554623.2, -102858.45, -31741.373, 0.082211465, 0.32026154, -100639.18, -100639.18, 0.0, 9.995482, 10.001471 
1.9651449e+3, 1.2423227e+2, -1321480.5, -1770426.5, 47103.008, -0.036858477, 0.3638636, -1316591.8, 405964.88, 0.14617166, 10.004371, 9.997518 
1.965133e+3, 1.3422975e+2, -1133416.0, -1580965.8, -23334.754, 0.06153241, 0.29904014, -1132202.6, 492377.6, 0.10309084, 10.004655, 9.998037 
1.9651197e+3, 1.4422795e+2, -1052497.1, -1492161.8, 34551.97, -0.016956506, 0.3168569, -1049798.4, 476798.7, 0.060379613, 10.004324, 9.998111 
1.9651084e+3, 1.5422596e+2, -1119756.4, -1494107.4, 43393.47, -0.026659297, 0.30750012, -1114792.3, 313823.78, 0.02699091, 10.003088, 9.998008 
1.9650967e+3, 1.6422413e+2, -1101989.9, -1396357.3, -2740.2522, -0.006716124, 0.31144762, -1101964.4, 228669.61, 0.007974863, 10.002311, 9.99838 
1.9650847e+3, 1.7422268e+2, -1029600.06, -1319872.6, -8286.285, 0.018243833, 0.3244879, -1029363.75, 203285.42, 0.0010600544, 10.002161, 9.998303 
1.9650723e+3, 1.842211e+2, -943365.0, -1171187.3, -8990.797, 0.025551088, 0.31839615, -943010.75, 191653.7, 0.000012480936, 10.001835, 9.998809 
1.9650596e+3, 1.942196e+2, -932432.56, -1122877.4, -2040.3287, 0.01951468, 0.28453287, -932410.7, 104267.27, 0.0, 10.001269, 9.99874 
1.9650471e+3, 2.0421846e+2, -888336.3, -1021050.9, -12204.014, 0.027493633, 0.28714263, -887223.44, 51466.09, 0.0, 10.000771, 9.999007 
1.9650345e+3, 2.1421793e+2, -855168.8, -963469.7, -12206.643, 0.049809065, 0.33217692, -853810.0, -13113.154, 0.0, 10.000365, 9.998925 
1.9650213e+3, 2.2421733e+2, -774352.2, -798299.56, -32858.652, 0.052571923, 0.35320476, -751353.56, -8649.722, 0.0, 9.999923, 9.999599 
1.9650076e+3, 2.342168e+2, -750770.5, -741692.75, -30701.135, 0.030430667, 0.3366694, -715196.8, -70488.08, 0.0, 9.999434, 9.999551 
1.9649939e+3, 2.4421652e+2, -710018.0, -636780.6, -26154.57, 0.028838087, 0.34281978, -628399.44, -81687.46, 0.0, 9.998893, 9.999858 
1.9649807e+3, 2.5421673e+2, -708205.0, -594375.4, -26775.895, 0.053631254, 0.37675232, -588391.56, -139680.3, 0.0, 9.998275, 9.999774 
1.9649671e+3, 2.6421666e+2, -630328.94, -431157.8, -23164.104, 0.054793246, 0.36790046, -428499.25, -77787.36, 0.0, 9.997814, 10.000443 
1.9649535e+3, 2.7421644e+2, -576335.8, -361060.06, -27547.865, 0.02789727, 0.29574886, -357590.78, -104878.11, 0.0, 9.9975395, 10.000384 
1.9649401e+3, 2.8421706e+2, -527101.5, -262290.44, -24855.639, 0.042960953, 0.3148273, -259977.66, -105271.97, 0.0, 9.997099, 10.000603 
1.9649273e+3, 2.9421905e+2, -519115.84, -203830.17, -14221.329, 0.10465451, 0.44944376, -203190.0, -146503.61, 0.0, 9.996466, 10.000636 
1.9649138e+3, 3.0421793e+2, -515051.34, -104653.42, 8712.916, 0.009898585, 0.2414226, -104468.53, -104468.53, 0.0, 9.995848, 10.00128 
1.9649018e+3, 3.1422016e+2, -565534.2, -68420.37, -9100.543, 0.077727504, 0.3481235, -68253.82, -68253.82, 0.0, 9.995239, 10.001823 
1.9751494e+3, 1.2424464e+2, -1316324.0, -1756867.9, 38942.664, -0.033279564, 0.34504208, -1312908.1, 409526.38, 0.15175827, 10.004393, 9.9976 
1.9751373e+3, 1.3424219e+2, -1143148.0, -1595775.3, -12277.639, 0.039668553, 0.2975662, -1142815.3, 481642.3, 0.1073118, 10.00465, 9.997928 
1.9751236e+3, 1.4424047e+2, -1058704.9, -1501202.0, -3581.2144, -0.05077284, 0.33150122, -1058675.9, 467797.88, 0.06311898, 10.004316, 9.998051 
1.9751117e+3, 1.5423818e+2, -1123186.3, -1502972.3, -1229.14, -0.010123754, 0.29824075, -1123182.3, 305313.22, 0.028421484, 10.003097, 9.997943 
1.9750994e+3, 1.6423622e+2, -1103978.5, -1403345.1, -11162.3545, 0.02126015, 0.2948193, -1103562.9, 226952.2, 0.00851848, 10.002321, 9.998328 
1.9750868e+3, 1.742348e+2, -1032440.56, -1327104.6, -12887.689, 0.007613595, 0.31608707, -1031877.94, 200652.67, 0.001174899, 10.002165, 9.998253 
1.9750738e+3, 1.8423337e+2, -931476.6, -1147190.5, -28085.293, 0.0011100429, 0.32074642, -927879.94, 206664.63, 0.000016759132, 10.001836, 9.998974 
1.9750609e+3, 1.9423223e+2, -919009.06, -1096403.4, -22108.28, 0.014029411, 0.3035018, -916295.25, 120258.83, 0.0, 10.001273, 9.998921 
1.975048e+3, 2.0423113e+2, -884460.4, -1014447.0, -26792.09, 0.032077033, 0.30049863, -879154.7, 59410.0, 0.0, 10.000774, 9.999052 
1.9750349e+3, 2.1423027e+2, -852690.94, -959097.6, -25738.166, 0.05295165, 0.3093152, -846792.25, -6217.0547, 0.0, 10.000366, 9.998957 
1.9750212e+3, 2.2422968e+2, -765928.8, -782038.1, -49668.13, 0.0555507, 0.32437956, -723666.5, 18915.701, 0.0, 9.999926, 9.999711 
1.9750069e+3, 2.3422964e+2, -741958.1, -725076.4, -47555.566, 0.034871444, 0.34514704, -685218.4, -40635.84, 0.0, 9.999439, 9.999664 
1.9749928e+3, 2.4422954e+2, -708388.7, -634988.2, -48408.543, 0.027716016, 0.3628039, -610940.6, -64356.71, 0.0, 9.998898, 9.99987 
1.9749787e+3, 2.5422946e+2, -706720.6, -593619.9, -49344.992, 0.037106875, 0.3654498, -575117.75, -126532.08, 0.0, 9.9982815, 9.999777 
1.974965e+3, 2.642292e+2, -632228.4, -437338.84, -34426.45, 0.04563594, 0.34156644, -431436.3, -80848.25, 0.0, 9.997822, 10.000398 
1.9749513e+3, 2.7422917e+2, -579291.06, -369478.47, -38297.164, 0.056123685, 0.2927334, -362706.63, -110118.65, 0.0, 9.997547, 10.000324 
1.9749375e+3, 2.8423008e+2, -519966.66, -248988.39, -48309.902, 0.073472306, 0.33794403, -240633.33, -86054.586, 0.0, 9.997104, 10.000693 
1.9749238e+3, 2.9423207e+2, -510924.0, -192239.77, -37068.438, 0.09059285, 0.46341234, -187984.89, -131425.86, 0.0, 9.996486, 10.000708 
1.9749099e+3, 3.042304e+2, -562205.6, -207294.83, -19120.85, 0.040348783, 0.23387352, -206267.66, -206267.66, 0.0, 9.995866, 10.000567 
1.974897e+3, 3.1423217e+2, -503242.66, 57317.78, -13374.568, 0.06737655, 0.3672921, 57636.707, 57636.707, 0.0, 9.995251, 10.002683 
1.9851542e+3, 1.2425761e+2, -1213248.6, -1700522.0, 58069.52, -0.03509049, 0.31767273, -1206423.9, 515881.47, 0.157416, 10.005262, 9.997589 
1.9851418e+3, 1.3425502e+2, -1191770.3, -1644487.0, 15630.692, 0.038618166, 0.27982256, -1191231.3, 433099.56, 0.111587636, 10.004409, 9.997687 
1.9851276e+3, 1.442533e+2, -1129357.0, -1531471.5, 6448.208, -0.05733292, 0.32547528, -1129253.6, 397093.8, 0.065895356, 10.003792, 9.998084 
1.9851148e+3, 1.5425117e+2, -1082875.3, -1476070.4, 13908.431, -0.014686096, 0.30353013, -1082383.9, 345983.9, 0.029873068, 10.003361, 9.997998 
1.985102e+3, 1.6424926e+2, -1033501.56, -1368547.5, 24373.086, 0.019054634, 0.30026928, -1031737.8, 298649.22, 0.009071207, 10.002815, 9.998325 
1.9850889e+3, 1.7424765e+2, -1038260.94, -1330999.8, 26114.219, 0.008285913, 0.3069623, -1035949.6, 196454.38, 0.0012922568, 10.002133, 9.99824 
1.9850756e+3, 1.8424624e+2, -964388.5, -1157584.4, 6823.515, 0.004240375, 0.31063354, -964147.8, 170270.19, 0.000021359581, 10.001589, 9.999022 
1.9850622e+3, 1.942453e+2, -921882.6, -1091652.8, 2481.073, 0.017961059, 0.30983177, -921846.4, 114579.42, 0.0, 10.00123, 9.998974 
1.9850487e+3, 2.0424435e+2, -875764.1, -995950.8, -6531.1304, 0.030980716, 0.31015843, -875410.25, 63024.945, 0.0, 10.000775, 9.999177 
1.9850351e+3, 2.1424346e+2, -869333.75, -952722.75, 367.88202, 0.039528403, 0.30503893, -869332.1, -28886.965, 0.0, 10.000192, 9.999083 
1.985021e+3, 2.2424287e+2, -802268.44, -803159.25, -22756.834, 0.042806227, 0.31416944, -779952.7, -37500.637, 0.0, 9.999693, 9.999677 
1.9850063e+3, 2.3424284e+2, -765152.25, -740753.6, -32567.75, 0.04044543, 0.34003758, -718175.3, -73722.47, 0.0, 9.999303, 9.9996195 
1.9849919e+3, 2.4424274e+2, -701140.8, -622887.06, -39869.62, 0.037650917, 0.3577777, -606152.5, -59698.23, 0.0, 9.998916, 9.999942 
1.9849771e+3, 2.5424266e+2, -664619.2, -564180.8, -34846.8, 0.032727957, 0.3524316, -553275.0, -104819.46, 0.0, 9.998534, 9.999856 
1.9849628e+3, 2.642425e+2, -608795.1, -435223.47, -17407.81, 0.04188664, 0.33492976, -433494.8, -83037.54, 0.0, 9.998024, 10.000314 
1.9849488e+3, 2.742426e+2, -616572.5, -397853.4, -25687.19, 0.073531866, 0.31476817, -394877.13, -142420.92, 0.0, 9.997341, 10.000226 
1.9849345e+3, 2.842434e+2, -555778.56, -257971.9, -38014.758, 0.082356535, 0.35126194, -253195.95, -98747.61, 0.0, 9.996827, 10.000762 
1.9849198e+3, 2.942449e+2, -514270.25, -191209.36, -29256.541, 0.05623887, 0.41637984, -188581.25, -132147.75, 0.0, 9.996455, 10.000727 
1.984906e+3, 3.0424377e+2, -589872.3, -273751.47, -10596.657, 0.06751343, 0.26994443, -273396.66, -273396.66, 0.0, 9.995906, 10.000092 
1.9848922e+3, 3.1424466e+2, -460925.97, 132192.34, 16436.36, 0.06174479, 0.3528831, 132647.48, 132647.48, 0.0, 9.995308, 10.003169 
1.9951592e+3, 1.24271214e+2, -1227617.0, -1720987.9, 16735.31, -0.0523617, 0.28354472, -1227049.9, 495119.2, 0.16317835, 10.005248, 9.99743 
1.9951464e+3, 1.3426827e+2, -1216882.4, -1701413.5, -10840.415, 0.05605151, 0.24807826, -1216639.9, 407559.84, 0.11593876, 10.00442, 9.997292 
1.9951315e+3, 1.4426647e+2, -1120142.3, -1513859.0, -8914.673, -0.038298983, 0.30199504, -1119940.5, 406277.88, 0.06871928, 10.003808, 9.998204 
1.995118e+3, 1.5426494e+2, -1071324.0, -1451431.3, -1604.437, -0.040299967, 0.32239622, -1071317.3, 356915.97, 0.03134998, 10.003365, 9.998167 
1.9951046e+3, 1.6426319e+2, -1031936.4, -1365211.4, 328.63846, -0.013566408, 0.3267202, -1031936.06, 298314.3, 0.009633983, 10.002814, 9.99835 
1.995091e+3, 1.7426123e+2, -1036821.44, -1329662.3, 1759.8102, 0.019230975, 0.29703766, -1036810.9, 195458.94, 0.0014115352, 10.002138, 9.998248 
1.9950776e+3, 1.8425967e+2, -968548.2, -1167925.4, -6587.608, 0.032822438, 0.2881258, -968330.75, 165954.52, 0.000025947349, 10.001594, 9.998949 
1.9950636e+3, 1.9425882e+2, -926929.25, -1103508.0, -9434.698, 0.03016375, 0.30461025, -926426.56, 109867.016, 0.0, 10.001234, 9.998892 
1.9950494e+3, 2.0425801e+2, -862248.56, -969479.8, -26780.104, 0.023459105, 0.3170897, -855932.5, 82369.1, 0.0, 10.00078, 9.999358 
1.995035e+3, 2.1425742e+2, -854444.56, -923396.9, -20029.943, 0.00855778, 0.31897378, -849048.4, -8740.816, 0.0, 10.000196, 9.999284 
1.9950202e+3, 2.2425677e+2, -813530.2, -828336.94, -36926.297, 0.013766535, 0.32171667, -783272.44, -40958.01, 0.0, 9.999699, 9.999503 
1.9950058e+3, 2.3425628e+2, -779169.56, -771488.2, -45785.918, 0.046667457, 0.32131353, -729382.1, -85061.54, 0.0, 9.999308, 9.999408 
1.994991e+3, 2.44256e+2, -691924.0, -605444.4, -53649.637, 0.05751625, 0.32781494, -579778.7, -33454.74, 0.0, 9.99892, 10.00006 
1.9949757e+3, 2.542562e+2, -652846.0, -542054.06, -48435.707, 0.038814805, 0.33683863, -523865.2, -75543.3, 0.0, 9.998541, 10.000006 
1.9949608e+3, 2.642564e+2, -617664.4, -455847.97, -42553.48, 0.04340907, 0.34899127, -445339.9, -95019.305, 0.0, 9.998031, 10.000171 
1.9949463e+3, 2.7425665e+2, -626577.94, -422701.63, -51241.73, 0.07774918, 0.36277896, -410547.28, -158228.72, 0.0, 9.997355, 10.00005 
1.9949313e+3, 2.8425694e+2, -550918.56, -250548.77, -53681.34, 0.06621241, 0.35296327, -241243.25, -86927.03, 0.0, 9.996837, 10.000809 
1.9949156e+3, 2.9425725e+2, -515293.5, -195647.61, -46241.688, -0.0007759918, 0.3021488, -189092.47, -132780.52, 0.0, 9.996464, 10.000693 
1.9949022e+3, 3.04258e+2, -604959.0, -307191.16, -35868.457, 0.09079529, 0.3562634, -302931.47, -302931.47, 0.0, 9.995913, 9.99986 
1.9948879e+3, 3.1425816e+2, -469973.38, 110817.234, -33416.723, 0.09169898, 0.37749484, 112733.59, 112733.59, 0.0, 9.99532, 10.0030155 
2.0051646e+3, 1.2428547e+2, -1246253.0, -1719250.3, 10347.857, -0.04065769, 0.26921582, -1246026.8, 476002.22, 0.16906172, 10.005075, 9.997527 
2.0051506e+3, 1.3428259e+2, -1204968.6, -1701892.1, 19148.838, 0.032686338, 0.24787022, -1204231.8, 419826.9, 0.12038556, 10.004567, 9.997216 
2.0051353e+3, 1.4428057e+2, -1096290.6, -1510164.9, 31210.012, -0.061245576, 0.287706, -1093950.4, 432129.3, 0.07160684, 10.00404, 9.9981165 
2.0051213e+3, 1.5427907e+2, -1068779.6, -1460983.0, 19195.693, -0.044127833, 0.32139865, -1067842.4, 360252.6, 0.032859605, 10.003436, 9.998065 
2.0051073e+3, 1.6427737e+2, -1019489.5, -1343005.1, 10967.054, -0.011375631, 0.32984713, -1019118.1, 310993.44, 0.010208714, 10.002834, 9.998493 
2.0050932e+3, 1.7427547e+2, -1010299.75, -1298637.9, 22256.607, 0.01170092, 0.28977856, -1008591.94, 223537.47, 0.0015329993, 10.002246, 9.998408 
2.005079e+3, 1.8427391e+2, -954450.3, -1170708.1, 27554.848, 0.023621576, 0.27682993, -950994.6, 183150.05, 0.000030288733, 10.001736, 9.998859 
2.0050648e+3, 1.9427301e+2, -922578.9, -1113635.0, 22478.436, 0.029038547, 0.29957113, -919969.8, 116184.56, 0.0, 10.00132, 9.998779 
2.0050502e+3, 2.0427218e+2, -847472.9, -958997.2, -6745.048, 0.023649735, 0.31554198, -847066.44, 91096.43, 0.0, 10.000869, 9.999386 
2.005035e+3, 2.142716e+2, -826399.56, -905637.44, -13386.944, 0.0012666642, 0.31642693, -824199.0, 15969.121, 0.0, 10.000373, 9.999319 
2.0050201e+3, 2.2427098e+2, -786433.75, -812720.6, -26607.947, 0.0047613843, 0.31688768, -769900.0, -27725.46, 0.0, 9.999876, 9.999523 
2.005005e+3, 2.3427045e+2, -766721.5, -763937.2, -19232.732, 0.04308776, 0.31179127, -746046.3, -101865.41, 0.0, 9.999388, 9.99942 
2.0049898e+3, 2.4427012e+2, -699874.4, -616820.7, -24374.549, 0.059971303, 0.3143249, -610195.75, -64010.75, 0.0, 9.9988985, 9.999992 
2.0049742e+3, 2.5427026e+2, -679938.6, -562581.44, -36330.715, 0.049906287, 0.32477686, -552244.8, -104060.734, 0.0, 9.998391, 9.999935 
2.0049588e+3, 2.642705e+2, -636347.7, -460626.7, -38233.82, 0.055159528, 0.34941995, -452668.13, -102486.19, 0.0, 9.9978895, 10.000203 
2.0049436e+3, 2.7427104e+2, -617534.8, -413506.3, -30414.172, 0.07718396, 0.3800007, -409069.03, -156891.45, 0.0, 9.9974, 10.00009 
2.004928e+3, 2.8427103e+2, -546789.2, -257885.4, -24378.336, 0.055667207, 0.34682104, -255842.75, -101665.13, 0.0, 9.996908, 10.000723 
2.004912e+3, 2.942708e+2, -540230.4, -222399.77, -31146.373, -0.011072745, 0.24962452, -219376.28, -163197.08, 0.0, 9.99636, 10.000557 
2.0048983e+3, 3.0427256e+2, -579339.44, -265559.97, -664.83124, 0.1102934, 0.40264896, -265558.56, -265558.56, 0.0, 9.995964, 10.00012 
2.004883e+3, 3.1427178e+2, -432022.1, 85908.37, -930.8447, 0.06334997, 0.30312967, 85910.04, 85910.04, 0.0, 9.995773, 10.002623 
2.0151699e+3, 1.24300405e+2, -1227072.4, -1674873.4, -18214.695, -0.0073961667, 0.28042606, -1226332.8, 495551.7, 0.1751047, 10.005088, 9.997891 
2.0151545e+3, 1.3429792e+2, -1191512.8, -1664751.9, 3376.3806, -0.030458007, 0.27429965, -1191488.8, 432419.4, 0.12496277, 10.004565, 9.997472 
2.0151387e+3, 1.4429554e+2, -1119238.4, -1557175.4, 11594.531, -0.1259575, 0.27941138, -1118931.6, 407000.3, 0.074582934, 10.004036, 9.997789 
2.0151249e+3, 1.5429357e+2, -1094716.9, -1516917.1, -1609.3088, -0.028673735, 0.30289322, -1094710.8, 333242.3, 0.03441481, 10.00344, 9.997681 
2.0151104e+3, 1.642918e+2, -1001603.75, -1307153.8, -10251.01, 0.022213733, 0.31289726, -1001260.25, 328710.44, 0.010800258, 10.002839, 9.998739 
2.0150952e+3, 1.7429031e+2, -989081.94, -1256016.9, 1170.207, -0.014270107, 0.28484496, -989076.8, 242906.53, 0.0016580658, 10.00225, 9.998699 
2.0150803e+3, 1.8428889e+2, -961841.9, -1187252.0, 12501.879, -0.022843767, 0.27619964, -961150.56, 172846.16, 0.00003433834, 10.001739, 9.998746 
2.015066e+3, 1.942878e+2, -932377.25, -1135478.0, 8177.874, 0.01423669, 0.29514298, -932048.5, 103960.38, 0.0, 10.001324, 9.998629 
2.0150511e+3, 2.0428678e+2, -855794.75, -977915.2, -23836.469, 0.030463673, 0.30517188, -851307.06, 86712.695, 0.0, 10.000874, 9.999255 
2.0150356e+3, 2.14286e+2, -835182.3, -925227.25, -30348.164, 0.016654182, 0.29727215, -825908.94, 14118.523, 0.0, 10.000376, 9.999185 
2.01502e+3, 2.2428541e+2, -771866.2, -784028.1, -43832.08, 0.014524386, 0.3002211, -733695.25, 8337.903, 0.0, 9.999881, 9.99972 
2.0150043e+3, 2.3428527e+2, -750202.1, -731549.3, -36343.598, 0.02820929, 0.31160343, -703354.56, -59319.953, 0.0, 9.999393, 9.999641 
2.0149885e+3, 2.4428496e+2, -717193.94, -654994.06, -42577.46, 0.044413354, 0.31753787, -633367.9, -87329.44, 0.0, 9.998906, 9.999728 
2.0149727e+3, 2.5428468e+2, -700610.4, -608331.4, -55118.46, 0.06489092, 0.316247, -582589.75, -134546.58, 0.0, 9.9984, 9.999619 
2.0149569e+3, 2.642848e+2, -620689.1, -430038.22, -57220.516, 0.07561499, 0.33607665, -414183.06, -64140.523, 0.0, 9.997895, 10.000411 
2.014941e+3, 2.7428553e+2, -597509.0, -375048.38, -48134.473, 0.07011944, 0.36339423, -365080.06, -113045.414, 0.0, 9.997411, 10.00035 
2.0149249e+3, 2.8428558e+2, -562285.25, -292744.25, -45740.887, 0.05130288, 0.33208042, -285193.56, -131159.78, 0.0, 9.996918, 10.000481 
2.0149086e+3, 2.9428536e+2, -556868.25, -260026.19, -54470.906, 0.025545869, 0.26397282, -250346.36, -194310.2, 0.0, 9.996369, 10.000296 
2.0148943e+3, 3.0428723e+2, -523027.6, -151374.34, -8056.681, 0.11908685, 0.40204018, -151199.77, -151199.77, 0.0, 9.995974, 10.000901 
2.0148784e+3, 3.1428707e+2, -473195.66, -2188.922, -55710.105, 0.025054444, 0.28635946, 4310.71, 4310.71, 0.0, 9.995787, 10.00201 
2.025175e+3, 1.2431617e+2, -1236119.1, -1669551.4, -380.72125, -0.01417734, 0.30832142, -1236118.8, 485613.3, 0.1813882, 10.005001, 9.997979 
2.025159e+3, 1.3431387e+2, -1181129.3, -1648263.3, 19065.408, -0.03721392, 0.31290826, -1180352.4, 443400.53, 0.12972414, 10.004625, 9.997557 
2.0251429e+3, 1.4431113e+2, -1109188.8, -1552569.5, 25521.602, -0.10959151, 0.27680016, -1107724.5, 418055.0, 0.07767978, 10.0041275, 9.997777 
2.0251285e+3, 1.5430897e+2, -1098000.5, -1522068.5, 36431.832, -0.020412013, 0.286799, -1094893.4, 332908.44, 0.036033843, 10.003439, 9.997645 
2.0251133e+3, 1.6430716e+2, -1004204.1, -1314543.0, 35730.582, 0.023431525, 0.29772258, -1000143.44, 329676.38, 0.011417583, 10.002853, 9.998678 
2.0250976e+3, 1.7430583e+2, -971795.7, -1254495.5, 21029.97, -0.017087938, 0.29180682, -970239.8, 261591.78, 0.0017896852, 10.002401, 9.998635 
2.025082e+3, 1.8430449e+2, -936523.25, -1171113.4, 24449.967, -0.02980252, 0.29168448, -934002.06, 199842.38, 0.000038280064, 10.001898, 9.998778 
2.0250672e+3, 1.9430333e+2, -929070.06, -1129796.9, 32751.75, 0.0016924818, 0.2995939, -923861.25, 111995.44, 0.0, 10.001331, 9.998663 
2.0250519e+3, 2.0430219e+2, -864545.94, -988061.06, 12084.634, 0.020711523, 0.29949826, -863374.7, 74493.734, 0.0, 10.000841, 9.9992 
2.025036e+3, 2.1430126e+2, -829191.25, -928958.25, 9884.906, 0.020572498, 0.28338662, -828221.25, 11656.483, 0.0, 10.000449, 9.999123 
2.02502e+3, 2.2430067e+2, -753288.75, -773539.5, -8969.206, 0.021877766, 0.28997448, -749887.44, -8004.0933, 0.0, 10.000003, 9.999731 
2.0250037e+3, 2.3430072e+2, -736444.8, -722759.6, -17230.688, 0.026520925, 0.31955567, -711062.56, -67179.914, 0.0, 9.999481, 9.999659 
2.0249875e+3, 2.4430041e+2, -713951.3, -659802.06, -24450.873, 0.03957328, 0.3278919, -650395.44, -104509.02, 0.0, 9.998959, 9.999668 
2.0249712e+3, 2.5429988e+2, -699533.8, -615817.7, -19466.514, 0.0626367, 0.30946815, -611512.56, -163618.77, 0.0, 9.998445, 9.999545 
2.0249549e+3, 2.6429993e+2, -604506.56, -418773.03, -14795.687, 0.07122138, 0.32166988, -417601.78, -67707.46, 0.0, 9.9979925, 10.000442 
2.0249383e+3, 2.7430072e+2, -568530.4, -356433.03, -21909.803, 0.0635477, 0.3541724, -354193.38, -102307.92, 0.0, 9.997592, 10.000389 
2.0249219e+3, 2.8430092e+2, -544265.9, -289843.6, -27903.873, 0.061693043, 0.33886063, -286819.2, -132936.22, 0.0, 9.997068, 10.000425 
2.0249055e+3, 2.9430094e+2, -550780.3, -258370.34, -20656.283, 0.065024525, 0.29889196, -256918.36, -201035.4, 0.0, 9.996421, 10.000281 
2.02489e+3, 3.0430216e+2, -506930.1, -108282.41, 32249.895, 0.09022216, 0.35384527, -105690.3, -105690.3, 0.0, 9.995932, 10.001217 
2.0248741e+3, 3.1430295e+2, -535355.1, -70448.02, -80666.266, 0.025804406, 0.30648655, -56849.34, -56849.34, 0.0, 9.995529, 10.001663 
2.0351794e+3, 1.24332756e+2, -1251330.1, -1695041.6, -17788.453, -0.06315525, 0.35284692, -1250618.1, 470953.7, 0.18799596, 10.005008, 9.997766 
2.0351642e+3, 1.3433042e+2, -1189983.0, -1664474.8, 8488.636, 0.0055023716, 0.3670949, -1189831.1, 433761.78, 0.1347265, 10.004628, 9.997444 
2.035148e+3, 1.443273e+2, -1091403.6, -1512086.4, 3335.9927, -0.020575264, 0.28502604, -1091377.3, 434245.06, 0.08093311, 10.004132, 9.998061 
2.0351319e+3, 1.5432522e+2, -1077037.4, -1477672.3, 12000.797, -0.019781986, 0.27045617, -1076678.3, 350963.75, 0.037738793, 10.003446, 9.997948 
2.0351158e+3, 1.6432337e+2, -1029043.25, -1367833.1, 19327.795, -0.0066435095, 0.28132343, -1027944.1, 301715.72, 0.012072378, 10.002858, 9.998311 
2.0351002e+3, 1.74322e+2, -1000329.4, -1315473.3, 5503.8687, 0.001554548, 0.31069076, -1000233.25, 231441.36, 0.0019321509, 10.002406, 9.998216 
2.0350842e+3, 1.8432061e+2, -924346.0, -1147159.9, 4622.543, -0.00048558984, 0.32339942, -924250.1, 209438.11, 0.000042609576, 10.001902, 9.998942 
2.0350684e+3, 1.9431949e+2, -914056.0, -1100186.6, 12935.489, -0.009462767, 0.3128098, -913161.4, 122537.195, 0.0, 10.001335, 9.998865 
2.0350525e+3, 2.0431831e+2, -863007.3, -986486.8, -2025.6475, -0.0057006795, 0.29881048, -862974.1, 74735.445, 0.0, 10.000846, 9.99921 
2.0350364e+3, 2.143173e+2, -828766.1, -929599.1, -3187.314, 0.012020053, 0.2754252, -828665.5, 11054.241, 0.0, 10.000453, 9.999118 
2.03502e+3, 2.2431669e+2, -764688.5, -799004.25, -27127.533, 0.025884293, 0.28606698, -749748.1, -8022.029, 0.0, 10.000009, 9.999556 
2.0350033e+3, 2.3431672e+2, -748749.1, -750253.75, -35529.973, 0.037612464, 0.33494043, -713963.5, -70237.4, 0.0, 9.999487, 9.999469 
2.0349865e+3, 2.443164e+2, -703884.3, -640661.06, -43363.375, 0.04491982, 0.3453805, -618610.06, -72880.11, 0.0, 9.998964, 9.999799 
2.0349693e+3, 2.543158e+2, -686979.7, -592185.6, -37977.473, 0.04138005, 0.3037632, -578847.44, -131110.4, 0.0, 9.998452, 9.999705 
2.0349525e+3, 2.6431572e+2, -613751.4, -440904.0, -30123.959, 0.04070334, 0.30509245, -435804.4, -86066.055, 0.0, 9.998002, 10.000286 
2.034936e+3, 2.7431652e+2, -580325.2, -384446.8, -37548.867, 0.055533234, 0.35272598, -377495.56, -125764.47, 0.0, 9.997603, 10.000193 
2.0349193e+3, 2.84317e+2, -534241.94, -270893.0, -52997.273, 0.08615893, 0.36944363, -260627.78, -106901.69, 0.0, 9.997075, 10.000554 
2.0349023e+3, 2.9431742e+2, -532783.1, -225111.78, -45023.766, 0.108022764, 0.3546309, -218658.48, -162937.78, 0.0, 9.996436, 10.000504 
2.0348851e+3, 3.0431712e+2, -517421.78, -133207.14, 16286.988, 0.017626967, 0.25089025, -132517.97, -132517.97, 0.0, 9.995942, 10.001042 
2.0348701e+3, 3.1431857e+2, -520368.94, -41143.266, -92810.4, 0.07353912, 0.2980646, -23796.803, -23796.803, 0.0, 9.995532, 10.001865 
2.0451848e+3, 1.243497e+2, -1195884.0, -1681303.1, 10667.62, -0.046364445, 0.34551114, -1195649.8, 525756.1, 0.19496006, 10.005595, 9.997601 
2.0451689e+3, 1.3434751e+2, -1182399.1, -1659582.3, 49756.105, 0.009444236, 0.37678912, -1177266.3, 446159.34, 0.14000109, 10.004711, 9.997442 
2.0451522e+3, 1.4434426e+2, -1104922.9, -1519097.4, 44586.523, 0.0013407277, 0.28212193, -1100177.4, 425278.94, 0.08436921, 10.004051, 9.998047 
2.0451353e+3, 1.5434225e+2, -1049703.3, -1465753.8, 31379.05, -0.01634721, 0.27761975, -1047349.9, 380125.2, 0.039548304, 10.003656, 9.997928 
2.045119e+3, 1.6434038e+2, -991794.06, -1367123.0, 35773.047, -0.010075702, 0.2919783, -988414.94, 341078.6, 0.012775173, 10.003196, 9.998153 
2.0451027e+3, 1.7433876e+2, -975131.7, -1322507.0, 39377.863, 0.008963058, 0.31649846, -970723.8, 260787.02, 0.0020902138, 10.002664, 9.998043 
2.0450863e+3, 1.8433726e+2, -890217.56, -1127290.6, 40842.668, 0.01033069, 0.32478124, -883378.56, 250147.11, 0.00004822457, 10.002122, 9.998972 
2.0450698e+3, 1.9433613e+2, -878429.7, -1077344.4, 36818.28, -0.005798214, 0.3106292, -871833.5, 163701.73, 0.0, 10.001558, 9.998914 
2.0450534e+3, 2.04335e+2, -844008.2, -983486.94, 16748.537, -0.0049444935, 0.29968774, -842025.2, 95520.516, 0.0, 10.001006, 9.999152 
2.0450369e+3, 2.1433403e+2, -830776.2, -938132.7, 10366.196, 0.015116433, 0.28780222, -829784.44, 9771.244, 0.0, 10.000474, 9.999048 
2.04502e+3, 2.2433329e+2, -775351.56, -813067.1, -13828.431, 0.029208727, 0.29374665, -770824.7, -29261.354, 0.0, 9.999976, 9.999473 
2.0450029e+3, 2.3433301e+2, -749139.2, -759416.44, -14796.458, 0.039536063, 0.31778252, -738614.5, -95048.04, 0.0, 9.999525, 9.999386 
2.0449854e+3, 2.4433263e+2, -683400.4, -627985.7, -21003.553, 0.046728145, 0.3269951, -620924.56, -75353.914, 0.0, 9.999094, 9.999823 
2.044968e+3, 2.5433233e+2, -650758.7, -570725.6, -24530.08, 0.043136787, 0.3125184, -563805.56, -116230.766, 0.0, 9.998685, 9.99974 
2.0449506e+3, 2.6433226e+2, -591570.94, -434907.4, -19898.332, 0.034512054, 0.3161778, -432419.56, -82843.664, 0.0, 9.998178, 10.000242 
2.0449333e+3, 2.7433276e+2, -593056.7, -396614.1, -17785.781, 0.038089897, 0.34001216, -395016.78, -143445.13, 0.0, 9.997546, 10.000135 
2.0449165e+3, 2.8433326e+2, -528810.06, -259770.25, -27743.438, 0.086700484, 0.35832882, -256939.14, -103372.734, 0.0, 9.997078, 10.0006275 
2.0448993e+3, 2.94334e+2, -480865.44, -187266.11, -26306.375, 0.14576608, 0.3660594, -184927.69, -129370.09, 0.0, 9.996738, 10.000617 
2.0448808e+3, 3.0433333e+2, -515694.34, -156253.33, 22237.484, -0.016510135, 0.23147753, -154882.78, -154882.78, 0.0, 9.99606, 10.000825 
2.0448658e+3, 3.1433517e+2, -544696.2, -18430.002, -56871.945, 0.11542278, 0.3398772, -12354.174, -12354.174, 0.0, 9.995219, 10.0021715 
2.0551911e+3, 1.24367066e+2, -1206952.3, -1694825.1, -15164.591, 0.024328751, 0.29883975, -1206481.4, 514752.5, 0.2022481, 10.005594, 9.997488 
2.055173e+3, 1.3436508e+2, -1177195.1, -1642260.6, 21880.74, -0.024221389, 0.33916426, -1176168.0, 447084.2, 0.14553772, 10.004722, 9.997553 
2.0551558e+3, 1.4436191e+2, -1124355.1, -1563101.8, 30563.447, -0.040285245, 0.26297677, -1122236.3, 403046.47, 0.08799257, 10.004064, 9.997738 
2.0551391e+3, 1.5436006e+2, -1071894.3, -1514748.0, 18212.357, -0.011870675, 0.3091553, -1071146.6, 356154.9, 0.041471317, 10.003664, 9.997589 
2.0551223e+3, 1.6435811e+2, -989027.94, -1362323.3, 17362.588, 0.008959303, 0.3316719, -988222.1, 341098.88, 0.013533407, 10.0032, 9.998185 
2.0551053e+3, 1.7435607e+2, -970745.25, -1315065.3, 20639.297, 0.0042927396, 0.30946112, -969512.5, 261828.4, 0.002268335, 10.002668, 9.998093 
2.0550884e+3, 1.8435435e+2, -896497.44, -1141743.4, 20836.084, 0.0030298494, 0.29597518, -894739.75, 238617.66, 0.000056267494, 10.002126, 9.998873 
2.0550716e+3, 1.9435322e+2, -885601.06, -1093607.4, 16948.773, 0.011744955, 0.29311958, -884229.06, 151138.44, 0.0, 10.001561, 9.998802 
2.0550548e+3, 2.0435216e+2, -852750.25, -1003316.3, -2191.9507, 0.021421762, 0.30189973, -852718.4, 84659.31, 0.0, 10.001011, 9.999015 
2.0550373e+3, 2.1435136e+2, -840237.75, -959123.75, -7942.9644, 0.029006004, 0.32017478, -839709.4, -322.94928, 0.0, 10.000477, 9.998903 
2.05502e+3, 2.243504e+2, -774485.9, -812858.25, -29741.805, 0.03136371, 0.31295052, -758278.75, -16882.842, 0.0, 9.999981, 9.999474 
2.0550022e+3, 2.3434943e+2, -747604.44, -757858.06, -30432.174, 0.030826394, 0.2684454, -721870.25, -78465.65, 0.0, 9.99953, 9.999395 
2.0549846e+3, 2.4434899e+2, -688885.2, -641201.5, -36051.133, 0.044100866, 0.27293336, -621821.6, -76412.08, 0.0, 9.9991, 9.99973 
2.0549668e+3, 2.5434932e+2, -656478.2, -585111.4, -39695.094, 0.067483656, 0.3355102, -567418.7, -120010.68, 0.0, 9.998693, 9.999638 
2.054949e+3, 2.6434946e+2, -586426.2, -426193.34, -43660.96, 0.052531265, 0.35587692, -415068.75, -65660.86, 0.0, 9.998183, 10.0003 
2.0549305e+3, 2.7434936e+2, -586011.9, -384967.3, -41339.305, 0.009175213, 0.31551912, -376798.9, -125390.57, 0.0, 9.997556, 10.000213 
2.054913e+3, 2.843496e+2, -526061.75, -257474.11, -41478.797, 0.061006475, 0.30198377, -251214.3, -97808.91, 0.0, 9.997089, 10.00064 
2.0548962e+3, 2.943505e+2, -478640.6, -187605.45, -41400.266, 0.17633633, 0.32687843, -181830.77, -126435.3, 0.0, 9.996757, 10.0006075 
2.054877e+3, 3.0435082e+2, -535641.06, -197047.02, -15351.77, -0.008814439, 0.30725732, -196352.39, -196352.39, 0.0, 9.996058, 10.0005455 
2.0548609e+3, 3.1435153e+2, -527030.7, 16393.008, -30152.516, 0.086429715, 0.3305666, 18060.938, 18060.938, 0.0, 9.99522, 10.002413 
2.0651968e+3, 1.24385245e+2, -1226892.3, -1725583.0, 5932.5244, 0.028797287, 0.26955992, -1226821.8, 494232.4, 0.2097881, 10.005585, 9.997236 
2.065178e+3, 1.3438337e+2, -1128401.8, -1620235.3, 29859.256, -0.033603832, 0.3276939, -1126595.6, 496476.7, 0.15129103, 10.005172, 9.997488 
2.0651604e+3, 1.4438027e+2, -1057512.4, -1548244.3, 41552.992, -0.03227372, 0.27069202, -1054018.8, 471084.25, 0.09178369, 10.004676, 9.997545 
2.0651431e+3, 1.5437828e+2, -1023746.0, -1513415.1, 38592.617, -0.0069367816, 0.32421967, -1020723.0, 406400.63, 0.043504454, 10.004116, 9.99738 
2.0651256e+3, 1.6437617e+2, -946229.56, -1338651.5, 38022.336, 0.009664942, 0.34144124, -942579.44, 386565.03, 0.014349492, 10.003489, 9.998208 
2.065108e+3, 1.7437403e+2, -953441.5, -1301664.1, 40384.938, 0.0017705545, 0.30223772, -948819.25, 282345.28, 0.0024691073, 10.002768, 9.9981365 
2.0650905e+3, 1.8437216e+2, -899972.44, -1163812.3, 42673.01, 0.0027221914, 0.28288582, -893242.25, 239939.75, 0.00006770486, 10.0021925, 9.998688 
2.0650733e+3, 1.943709e+2, -864816.56, -1106300.4, 31121.322, 0.018773075, 0.28740233, -860870.25, 174324.0, 0.0, 10.001803, 9.998597 
2.065056e+3, 2.0436978e+2, -806608.2, -981205.6, 10143.431, 0.031167857, 0.3020832, -806020.9, 131184.38, 0.0, 10.00133, 9.999012 
2.0650381e+3, 2.1436901e+2, -800545.25, -938250.2, 14507.095, 0.03698903, 0.32352924, -799033.5, 40179.668, 0.0, 10.000745, 9.998916 
2.0650202e+3, 2.24368e+2, -743329.8, -805129.75, 928.6843, 0.037219252, 0.31370682, -743315.9, -2092.881, 0.0, 10.000229, 9.999406 
2.065002e+3, 2.3436688e+2, -712882.9, -749686.2, -6486.262, 0.033585485, 0.2605087, -711773.2, -68539.82, 0.0, 9.999808, 9.999316 
2.0649837e+3, 2.4436636e+2, -664554.8, -633229.3, -16348.662, 0.047376752, 0.26441982, -626251.4, -81012.41, 0.0, 9.999285, 9.999694 
2.0649655e+3, 2.543668e+2, -669022.4, -594788.0, -15659.763, 0.076885946, 0.33725393, -591619.8, -144382.95, 0.0, 9.998626, 9.999602 
2.064947e+3, 2.643669e+2, -604814.7, -438036.2, -19646.457, 0.06486568, 0.3598067, -435753.1, -86516.31, 0.0, 9.998072, 10.000273 
2.0649283e+3, 2.7436668e+2, -574054.4, -382175.75, -24252.223, 0.019391546, 0.31037968, -379157.9, -127919.69, 0.0, 9.997652, 10.000185 
2.0649101e+3, 2.8436676e+2, -510991.75, -260095.17, -27474.03, 0.058314186, 0.2892263, -257121.9, -103885.18, 0.0, 9.997236, 10.00055 
2.0648928e+3, 2.9436755e+2, -483207.44, -200029.77, -37607.957, 0.15232433, 0.3114413, -195120.28, -139891.69, 0.0, 9.996773, 10.000512 
2.064873e+3, 3.0436844e+2, -532126.9, -175324.55, -18185.428, 0.010332074, 0.34144333, -174400.08, -174400.08, 0.0, 9.996, 10.000721 
2.064856e+3, 3.1436843e+2, -554417.9, 3993.022, 48157.324, 0.0935832, 0.2767937, 8115.6704, 8115.6704, 0.0, 9.995028, 10.002421 
2.0752017e+3, 1.2440419e+2, -1251305.9, -1779498.8, -2245.09, -0.029557796, 0.25582066, -1251296.3, 469570.97, 0.21750472, 10.00559, 9.996864 
2.0751834e+3, 1.344024e+2, -1144478.9, -1652981.1, 17101.926, -0.023272155, 0.34504756, -1143904.4, 478981.8, 0.15720671, 10.0051775, 9.99726 
2.0751655e+3, 1.4439932e+2, -1065211.4, -1563394.0, 22807.877, 0.018040935, 0.3088022, -1064169.4, 460747.72, 0.0957116, 10.004683, 9.997438 
2.0751472e+3, 1.5439683e+2, -1030575.2, -1527854.8, 19247.336, -0.0037608827, 0.321533, -1029831.3, 397110.97, 0.045634497, 10.00412, 9.99728 
2.0751289e+3, 1.643945e+2, -943876.0, -1334671.6, 12670.378, -0.007995825, 0.31978273, -943465.7, 385499.16, 0.015219454, 10.003492, 9.998235 
2.0751105e+3, 1.743925e+2, -949794.6, -1296163.3, 14535.404, 0.00080615614, 0.29404607, -949185.7, 281796.6, 0.0026920678, 10.002774, 9.998173 
2.0750928e+3, 1.8439063e+2, -919116.75, -1205427.9, 28433.045, 0.0076584104, 0.2852853, -916320.44, 216679.5, 0.00008301991, 10.002198, 9.998401 
2.0750749e+3, 1.9438912e+2, -886224.25, -1151963.5, 18128.406, 0.014229189, 0.2944636, -884993.25, 150022.81, 0.0, 10.001806, 9.998283 
2.0750572e+3, 2.0438781e+2, -796993.75, -962473.1, -10039.242, 0.024301225, 0.30074713, -796386.94, 140642.16, 0.0, 10.001333, 9.999141 
2.0750389e+3, 2.1438697e+2, -789435.0, -915989.6, -5938.2163, 0.03814384, 0.2981164, -789156.94, 49879.734, 0.0, 10.000746, 9.999069 
2.0750205e+3, 2.2438605e+2, -753176.7, -827080.44, -14099.288, 0.04575512, 0.29699954, -750578.2, -9532.864, 0.0, 10.000234, 9.999254 
2.0750017e+3, 2.3438525e+2, -724436.9, -775389.6, -20971.633, 0.046982888, 0.2934644, -716915.44, -73861.71, 0.0, 9.999813, 9.999139 
2.0749831e+3, 2.4438468e+2, -662816.5, -631337.8, -40159.797, 0.055902015, 0.30095327, -603943.25, -58883.137, 0.0, 9.9992895, 9.999706 
2.074964e+3, 2.5438455e+2, -666660.44, -591820.56, -40600.633, 0.06947093, 0.3175759, -574025.8, -126963.47, 0.0, 9.9986315, 9.999621 
2.0749453e+3, 2.6438445e+2, -612955.06, -456749.44, -36521.758, 0.071132116, 0.32756194, -448632.25, -99568.52, 0.0, 9.998077, 10.000142 
2.0749262e+3, 2.743846e+2, -582096.25, -401995.78, -39973.67, 0.06989668, 0.32375628, -393522.22, -142459.55, 0.0, 9.997663, 10.000045 
2.0749077e+3, 2.8438467e+2, -524354.56, -290857.16, -46347.457, 0.07747976, 0.32136586, -281993.97, -128932.3, 0.0, 9.997247, 10.000336 
2.0748886e+3, 2.9438505e+2, -495773.63, -229659.31, -58590.21, 0.06573675, 0.3228574, -217330.7, -162272.47, 0.0, 9.996785, 10.000304 
2.0748694e+3, 3.043859e+2, -484404.1, -76444.62, -59145.23, 0.04549293, 0.3271578, -68042.875, -68042.875, 0.0, 9.996001, 10.001399 
2.0748512e+3, 3.1438717e+2, -582083.1, -57613.625, 29889.066, 0.1180876, 0.32095262, -55915.77, -55915.77, 0.0, 9.995042, 10.001994 
2.0852076e+3, 1.2442362e+2, -1215668.1, -1773362.4, -4393.335, -0.03972739, 0.28036636, -1215633.5, 505043.6, 0.22534265, 10.006031, 9.996694 
2.0851885e+3, 1.3442144e+2, -1126680.5, -1651793.1, 13152.733, -0.021318998, 0.3409179, -1126351.3, 496348.75, 0.16324215, 10.005401, 9.997159 
2.0851704e+3, 1.4441845e+2, -1054420.1, -1548301.8, 25800.725, 0.033352874, 0.31368697, -1053075.9, 471654.2, 0.09974443, 10.0047455, 9.997511 
2.0851511e+3, 1.5441592e+2, -1027847.25, -1515609.8, 35850.293, -0.0036228786, 0.31530344, -1025226.4, 401528.28, 0.047840532, 10.004103, 9.997372 
2.0851323e+3, 1.6441353e+2, -937067.2, -1344119.0, 35208.887, -0.012566952, 0.3083983, -934044.2, 394733.34, 0.016132778, 10.003601, 9.998117 
2.0851138e+3, 1.7441145e+2, -887418.25, -1280968.0, 23655.543, 0.0055139777, 0.28846115, -886001.5, 344794.84, 0.002933817, 10.00327, 9.998037 
2.0850952e+3, 1.8440954e+2, -848602.56, -1174717.4, 35901.82, 0.01690423, 0.28356785, -844696.94, 288117.6, 0.00010212097, 10.002697, 9.998371 
2.0850769e+3, 1.94408e+2, -885601.2, -1153733.3, 46091.82, 0.02220775, 0.29312387, -877899.25, 156931.28, 0.0, 10.0018215, 9.998263 
2.0850584e+3, 2.0440662e+2, -820812.94, -983291.0, 28769.336, 0.030084409, 0.29670805, -815869.3, 120975.03, 0.0, 10.001213, 9.999053 
2.0850398e+3, 2.1440561e+2, -767608.3, -915592.2, 14128.91, 0.040451713, 0.2888383, -766271.44, 72582.23, 0.0, 10.000943, 9.998976 
2.0850207e+3, 2.2440468e+2, -721897.1, -814706.5, -4797.1675, 0.048250206, 0.2917236, -721649.8, 19213.008, 0.0, 10.000463, 9.999228 
2.0850018e+3, 2.34404e+2, -740502.9, -785524.94, -1424.4115, 0.05396138, 0.30299968, -740457.9, -97587.44, 0.0, 9.999716, 9.999114 
2.0849824e+3, 2.4440347e+2, -674327.2, -628255.8, -7851.009, 0.061465003, 0.31277817, -626954.7, -82078.49, 0.0, 9.999176, 9.999781 
2.0849629e+3, 2.544033e+2, -622334.0, -561680.44, -3511.5408, 0.07007607, 0.31589103, -561477.8, -114599.78, 0.0, 9.9989, 9.999699 
2.0849437e+3, 2.6440307e+2, -570077.75, -452558.38, -557.0725, 0.07830159, 0.31543162, -452555.75, -103675.14, 0.0, 9.998444, 9.999993 
2.0849243e+3, 2.7440298e+2, -582243.1, -420289.06, -6415.813, 0.089880414, 0.31044307, -420035.3, -169153.22, 0.0, 9.997743, 9.99988 
2.0849048e+3, 2.8440323e+2, -551468.0, -294914.72, -3679.2327, 0.07789427, 0.32670468, -294861.97, -141981.94, 0.0, 9.997022, 10.000416 
2.084885e+3, 2.9440397e+2, -557117.2, -249729.3, 7510.8604, 0.029813461, 0.35834655, -249545.88, -194673.5, 0.0, 9.996323, 10.00039 
2.084866e+3, 3.044041e+2, -492565.75, -67910.38, -6272.899, 0.09637764, 0.28163818, -67817.74, -67817.74, 0.0, 9.995892, 10.001512 
2.0848462e+3, 3.1440595e+2, -536278.2, -85236.38, 22803.89, 0.093404666, 0.32078633, -84086.39, -84086.39, 0.0, 9.995572, 10.001548 
2.0952138e+3, 1.2444351e+2, -1220745.6, -1774903.9, -14817.008, -0.007638684, 0.33992857, -1220349.8, 500134.06, 0.23328294, 10.006036, 9.996682 
2.0951939e+3, 1.3444047e+2, -1132015.4, -1655344.1, -6567.989, -0.029561834, 0.31466585, -1131932.9, 490581.47, 0.16937657, 10.005396, 9.997138 
2.0951748e+3, 1.4443755e+2, -1040293.5, -1512664.1, 4381.2217, 0.014010567, 0.2849574, -1040252.9, 484289.72, 0.103857666, 10.004746, 9.997765 
2.0951553e+3, 1.544355e+2, -1008365.44, -1474046.0, 13700.46, -0.007275188, 0.30650398, -1007962.7, 418598.47, 0.05010049, 10.004114, 9.997653 
2.095136e+3, 1.6443321e+2, -955286.56, -1384677.9, 23261.666, -0.006567325, 0.3086432, -954030.06, 374552.94, 0.017076345, 10.003611, 9.997836 
2.0951171e+3, 1.744308e+2, -909296.3, -1327685.5, 12495.665, 0.013663884, 0.28647158, -908923.44, 321683.53, 0.0031894369, 10.003273, 9.997717 
2.0950982e+3, 1.844288e+2, -832417.4, -1142131.3, 5397.8696, 0.029341184, 0.27795672, -832323.3, 300303.06, 0.00012447778, 10.002698, 9.998595 
2.0950788e+3, 1.9442746e+2, -867379.0, -1117223.0, 14650.863, 0.041861217, 0.28242967, -866522.8, 168115.73, 0.0, 10.001824, 9.998513 
2.0950598e+3, 2.044261e+2, -841667.8, -1028401.7, 18461.012, 0.047343273, 0.29000926, -839860.25, 96791.58, 0.0, 10.001219, 9.998742 
2.0950408e+3, 2.1442488e+2, -791492.9, -966193.4, 5984.5195, 0.042672984, 0.29600796, -791288.1, 47376.727, 0.0, 10.000945, 9.998629 
2.0950213e+3, 2.244238e+2, -715325.4, -802212.44, -30550.355, 0.04431247, 0.2974525, -705658.94, 35017.426, 0.0, 10.000464, 9.999313 
2.0950012e+3, 2.3442304e+2, -732407.3, -769946.6, -28280.723, 0.05339208, 0.28917545, -717234.4, -74549.984, 0.0, 9.999719, 9.999221 
2.0949814e+3, 2.4442264e+2, -664379.4, -609443.44, -19130.463, 0.06332653, 0.30132535, -603438.06, -58749.95, 0.0, 9.999182, 9.999908 
2.0949619e+3, 2.5442287e+2, -611809.4, -542621.4, -13675.615, 0.07733701, 0.33194885, -540016.4, -93331.28, 0.0, 9.99891, 9.9998255 
2.0949422e+3, 2.6442254e+2, -580841.06, -477785.3, -26873.217, 0.084814556, 0.32234594, -471198.72, -122510.1, 0.0, 9.998454, 9.999816 
2.0949219e+3, 2.7442178e+2, -594244.0, -448510.13, -34088.883, 0.07686926, 0.26809722, -440930.56, -190232.7, 0.0, 9.997754, 9.999681 
2.0949017e+3, 2.844223e+2, -524504.25, -239901.31, -31883.654, 0.058884192, 0.3053852, -236373.17, -83680.25, 0.0, 9.997025, 10.000793 
2.0948814e+3, 2.944243e+2, -530233.56, -194484.38, -18109.42, 0.04688843, 0.42081288, -193510.42, -138838.81, 0.0, 9.996323, 10.0007715 
2.0948626e+3, 3.0442286e+2, -528095.8, -143999.44, -16931.047, 0.16079928, 0.19412138, -143254.56, -143254.56, 0.0, 9.995898, 10.000987 
2.0948416e+3, 3.14425e+2, -548304.7, -116349.23, -45030.84, 0.06902261, 0.3177864, -111704.75, -111704.75, 0.0, 9.995599, 10.001321 
2.10522e+3, 1.2446355e+2, -1200484.0, -1740845.8, 8257.413, 0.00015129703, 0.34576535, -1200357.9, 519930.13, 0.24134742, 10.006191, 9.99684 
2.1051992e+3, 1.3446039e+2, -1134109.8, -1647435.9, 15305.308, -0.02266947, 0.30401, -1133653.8, 488665.03, 0.1756054, 10.00538, 9.997199 
2.1051797e+3, 1.4445756e+2, -1035513.75, -1508708.1, 32044.86, 0.013169728, 0.2802724, -1033353.5, 490992.1, 0.108030245, 10.004801, 9.997767 
2.1051596e+3, 1.5445541e+2, -953319.06, -1444210.9, 23247.707, -0.008521117, 0.2896737, -952220.56, 474144.34, 0.052391753, 10.004516, 9.997663 
2.10514e+3, 1.6445312e+2, -905303.8, -1365734.6, 26232.828, -0.00470561, 0.2931926, -903814.0, 424572.9, 0.018035738, 10.003988, 9.997784 
2.1051204e+3, 1.7445083e+2, -927498.06, -1342418.5, 34140.66, 0.023044925, 0.2888031, -924707.7, 305702.84, 0.0034529725, 10.003177, 9.997662 
2.1051009e+3, 1.8444885e+2, -848801.4, -1146130.5, 29415.416, 0.039010406, 0.28436238, -845919.2, 286510.6, 0.00014922666, 10.002572, 9.998627 
2.1050811e+3, 1.944474e+2, -806906.7, -1083832.3, 21574.92, 0.04202073, 0.27619928, -805235.9, 229206.39, 0.0, 10.002224, 9.998549 
2.1050613e+3, 2.04446e+2, -781529.44, -1004425.4, 28196.076, 0.043379225, 0.27895573, -778018.0, 158437.86, 0.0, 10.001655, 9.998696 
2.1050414e+3, 2.1444476e+2, -813936.06, -982836.7, 36717.66, 0.042323243, 0.28868386, -806299.25, 32170.229, 0.0, 10.000817, 9.998575 
2.1050215e+3, 2.2444369e+2, -744061.9, -808471.25, 12768.094, 0.04622859, 0.2922065, -741623.1, -1142.203, 0.0, 10.000237, 9.999378 
2.1050012e+3, 2.3444302e+2, -690282.7, -741449.6, 11869.012, 0.055738073, 0.28560677, -687663.56, -45175.613, 0.0, 9.999976, 9.999291 
2.104981e+3, 2.4444264e+2, -617829.6, -585865.5, 15824.778, 0.06533849, 0.29572865, -579356.44, -34865.145, 0.0, 9.999498, 9.999917 
2.1049607e+3, 2.544428e+2, -635544.25, -553821.6, 11691.379, 0.07897802, 0.32009456, -552181.94, -105693.24, 0.0, 9.998748, 9.9998255 
2.1049404e+3, 2.6444247e+2, -621768.0, -489458.66, 716.48065, 0.08724231, 0.30740267, -489454.78, -140962.61, 0.0, 9.99814, 9.9998865 
2.1049197e+3, 2.7444178e+2, -594626.1, -439959.78, 13037.971, 0.08083315, 0.2520157, -438868.4, -188367.53, 0.0, 9.997715, 9.999759 
2.1048987e+3, 2.8444242e+2, -502217.38, -220083.53, 10087.797, 0.066974, 0.29180825, -219723.3, -67228.3, 0.0, 9.99714, 10.000874 
2.104878e+3, 2.9444462e+2, -519313.13, -183663.73, -842.68365, 0.06708102, 0.4223402, -183661.63, -129189.95, 0.0, 9.996376, 10.000818 
2.1048582e+3, 3.044431e+2, -541174.3, -156085.53, 19435.678, 0.15438952, 0.18827157, -155107.1, -155107.1, 0.0, 9.995834, 10.000935 
2.1048371e+3, 3.1444556e+2, -574136.94, -111900.164, -18032.732, 0.07397735, 0.34888574, -111197.74, -111197.74, 0.0, 9.995353, 10.001469 
2.1152261e+3, 1.2448374e+2, -1190748.5, -1701247.8, -7916.1055, -0.013253616, 0.30463782, -1190625.8, 529464.0, 0.24957044, 10.006177, 9.99716 
2.1152048e+3, 1.344812e+2, -1128553.1, -1626804.1, -8912.228, -0.0041278047, 0.3093686, -1128393.8, 493720.06, 0.18192023, 10.005391, 9.997336 
2.1151845e+3, 1.4447847e+2, -1051036.3, -1542965.5, 22034.902, 0.026751356, 0.29976276, -1050051.3, 474088.38, 0.11223408, 10.004819, 9.997514 
2.1151641e+3, 1.544756e+2, -971390.9, -1483185.8, 13771.645, -0.009514423, 0.26531634, -971020.56, 455145.75, 0.05468818, 10.004521, 9.997395 
2.1151438e+3, 1.6447319e+2, -894125.7, -1341620.3, -1778.3212, -0.007986635, 0.262382, -894118.6, 434071.1, 0.018995542, 10.003988, 9.99795 
2.1151236e+3, 1.7447145e+2, -913419.75, -1314371.1, 5021.2554, 0.03327451, 0.2947112, -913356.9, 316850.7, 0.0037182553, 10.0031805, 9.997853 
2.1151033e+3, 1.8446963e+2, -859546.9, -1170177.4, 16410.299, 0.045009978, 0.30220827, -858682.4, 273543.25, 0.00017539466, 10.002577, 9.998461 
2.115083e+3, 1.944678e+2, -819337.0, -1110808.8, 10095.092, 0.021876717, 0.27538124, -818987.75, 215254.52, 0.00000000000010610821, 10.002227, 9.998364 
2.1150625e+3, 2.0446625e+2, -766546.94, -974705.3, -917.3299, 0.018392652, 0.26391798, -766542.9, 169714.28, 0.0, 10.001658, 9.998899 
2.1150422e+3, 2.1446519e+2, -798131.3, -950601.44, 7036.4326, 0.03856149, 0.2671021, -797807.3, 40461.04, 0.0, 10.000817, 9.998797 
2.1150218e+3, 2.2446431e+2, -741482.6, -804393.56, 3019.2346, 0.052811984, 0.27762586, -741338.06, -1060.7593, 0.0, 10.00024, 9.999406 
2.1150012e+3, 2.3446386e+2, -687640.75, -738045.4, 3254.452, 0.05993212, 0.2920117, -687431.5, -45149.457, 0.0, 9.999982, 9.999313 
2.1149805e+3, 2.4446337e+2, -625392.75, -603225.9, -11284.847, 0.066829346, 0.29401514, -598491.9, -54205.008, 0.0, 9.999504, 9.999796 
2.1149595e+3, 2.54463e+2, -644451.56, -574347.94, -16947.033, 0.07369504, 0.27878135, -570466.06, -124175.94, 0.0, 9.9987545, 9.999682 
2.1149385e+3, 2.644628e+2, -598760.25, -443684.8, -16813.455, 0.085164554, 0.2720057, -441882.8, -93590.53, 0.0, 9.998146, 10.000199 
2.1149175e+3, 2.744629e+2, -567835.8, -387445.06, -3806.424, 0.10040204, 0.26418567, -387364.78, -137072.7, 0.0, 9.9977255, 10.000116 
2.1148962e+3, 2.844634e+2, -517738.7, -254264.98, -19342.715, 0.1011741, 0.28349382, -252852.52, -100564.89, 0.0, 9.997147, 10.000636 
2.1148746e+3, 2.944647e+2, -538758.6, -227932.98, -29429.52, 0.09064441, 0.35225785, -225171.08, -170896.25, 0.0, 9.99639, 10.000509 
2.1148533e+3, 3.0446488e+2, -509849.97, -93118.96, 2951.1963, 0.069006436, 0.28262162, -93098.06, -93098.06, 0.0, 9.995841, 10.001365 
2.114833e+3, 3.1446627e+2, -537660.7, -34905.504, -66692.21, 0.12604375, 0.2874388, -26208.98, -26208.98, 0.0, 9.995346, 10.002001 
2.1252319e+3, 1.2450507e+2, -1225823.4, -1723455.6, 36086.48, -0.016843846, 0.28035796, -1223220.1, 496658.44, 0.2579354, 10.005942, 9.997085 
2.1252105e+3, 1.3450244e+2, -1091658.4, -1626415.0, 12342.74, 0.0010137424, 0.29638404, -1091373.6, 530530.5, 0.18827921, 10.005839, 9.997121 
2.1251898e+3, 1.4449954e+2, -986419.5, -1520851.0, 33617.516, 0.023557661, 0.28861442, -984313.2, 539618.75, 0.11642474, 10.005403, 9.997384 
2.1251687e+3, 1.5449663e+2, -970762.0, -1495520.4, 36153.668, 0.00448365, 0.2599866, -968282.9, 457676.66, 0.056959387, 10.004594, 9.997273 
2.1251477e+3, 1.6449413e+2, -907508.8, -1347960.8, 16864.707, 0.0072307093, 0.2568098, -906864.0, 421119.66, 0.019940784, 10.003901, 9.997947 
2.125127e+3, 1.7449233e+2, -889138.7, -1302145.6, 8715.045, 0.031246642, 0.2815651, -888954.9, 341047.16, 0.0039799227, 10.003349, 9.997854 
2.125106e+3, 1.8449046e+2, -832852.06, -1160102.0, 24728.31, 0.038751975, 0.28908566, -830994.06, 301026.2, 0.00020211155, 10.002774, 9.998434 
2.1250851e+3, 1.9448869e+2, -828394.56, -1118311.9, 29312.768, 0.027066715, 0.27007148, -825460.56, 208576.48, 0.0000000000129771185, 10.00218, 9.998335 
2.1250641e+3, 2.044872e+2, -771042.4, -968299.3, 11317.231, 0.025753012, 0.26179147, -770395.2, 165656.42, 0.0, 10.001593, 9.998974 
2.1250433e+3, 2.144862e+2, -763544.4, -924910.1, 7006.6543, 0.036224443, 0.26482543, -763240.75, 74820.99, 0.0, 10.0010195, 9.998876 
2.125022e+3, 2.244854e+2, -715511.06, -785793.5, 6835.668, 0.047723453, 0.2748517, -714852.44, 25217.447, 0.0, 10.000395, 9.999458 
2.125001e+3, 2.3448494e+2, -723710.75, -749879.44, 9545.984, 0.061978657, 0.285399, -720598.6, -78524.195, 0.0, 9.999713, 9.99936 
2.1249798e+3, 2.4448444e+2, -678816.94, -623915.9, -3005.368, 0.07236197, 0.28071043, -623751.9, -79672.29, 0.0, 9.999118, 9.999839 
2.124958e+3, 2.5448403e+2, -660755.8, -577055.2, 3961.705, 0.07610362, 0.2599392, -576868.06, -130784.78, 0.0, 9.998623, 9.999725 
2.1249366e+3, 2.6448408e+2, -596443.3, -426214.7, 10383.826, 0.080879964, 0.2663553, -425583.63, -77500.305, 0.0, 9.998094, 10.000343 
2.124915e+3, 2.7448457e+2, -589115.06, -381027.88, 8939.829, 0.09218628, 0.2846544, -380644.5, -130565.75, 0.0, 9.997511, 10.000262 
2.1248934e+3, 2.844849e+2, -539912.4, -270966.53, -10858.482, 0.11184039, 0.2791865, -270528.84, -118452.53, 0.0, 9.997023, 10.00058 
2.1248713e+3, 2.9448557e+2, -500921.56, -212466.64, -4195.156, 0.12951201, 0.29153562, -212405.64, -158335.4, 0.0, 9.996666, 10.000481 
2.1248484e+3, 3.0448708e+2, -454333.03, -23924.207, 34709.805, 0.007995826, 0.33718047, -21143.047, -21143.047, 0.0, 9.99604, 10.001743 
2.1248284e+3, 3.1448805e+2, -600075.25, -81892.35, -43063.66, 0.16259325, 0.26647556, -78337.92, -78337.92, 0.0, 9.994991, 10.001848 
2.135238e+3, 1.24527484e+2, -1253049.9, -1788344.0, 34085.367, -0.011759958, 0.27114022, -1250888.3, 468767.25, 0.26633117, 10.005959, 9.99663 
2.1352163e+3, 1.3452408e+2, -1127710.4, -1709985.9, 9158.406, -0.007116799, 0.26721263, -1127566.4, 494123.88, 0.19459642, 10.005843, 9.996546 
2.1351948e+3, 1.4452079e+2, -989220.56, -1521612.1, 8158.476, 0.0044070873, 0.24957585, -989095.56, 534627.25, 0.12054654, 10.005401, 9.99738 
2.1351735e+3, 1.545184e+2, -969908.3, -1492540.8, 7961.275, 0.031533107, 0.2725834, -969787.06, 455958.22, 0.059176866, 10.004597, 9.9972925 
2.135152e+3, 1.6451588e+2, -919518.56, -1374657.6, -3035.4958, 0.03800286, 0.27514425, -919498.3, 408271.25, 0.020860028, 10.003907, 9.997762 
2.1351302e+3, 1.7451338e+2, -901865.06, -1330477.3, -10527.097, 0.015850838, 0.25088355, -901606.6, 328187.66, 0.0042342423, 10.003355, 9.997658 
2.1351087e+3, 1.8451136e+2, -825196.5, -1145874.0, 3867.7483, 0.019970302, 0.24655882, -825149.9, 306664.44, 0.00022873028, 10.002779, 9.99853 
2.1350877e+3, 1.9451004e+2, -820606.8, -1102529.1, 8737.546, 0.056611788, 0.26074514, -820336.3, 213490.98, 0.0000000000136278775, 10.002179, 9.998445 
2.1350661e+3, 2.0450877e+2, -775437.2, -978157.5, -8937.854, 0.06369931, 0.2730931, -775043.9, 160796.06, 0.0, 10.001594, 9.998907 
2.1350442e+3, 2.1450773e+2, -767983.9, -935679.44, -12633.741, 0.03410214, 0.28134415, -767037.4, 70813.14, 0.0, 10.001023, 9.998801 
2.1350223e+3, 2.2450684e+2, -710079.2, -776308.75, -17328.186, 0.030555643, 0.28215986, -705819.5, 34040.25, 0.0, 10.000401, 9.999521 
2.1350007e+3, 2.3450619e+2, -718603.2, -740561.94, -14908.828, 0.06087401, 0.26586822, -711067.1, -69201.11, 0.0, 9.999716, 9.999425 
2.134979e+3, 2.4450576e+2, -664258.0, -595164.44, -21900.84, 0.08108751, 0.2580062, -588807.4, -44937.18, 0.0, 9.999122, 10.000035 
2.1349567e+3, 2.5450587e+2, -644348.06, -545704.94, -14732.674, 0.08474042, 0.26393306, -543551.56, -97682.26, 0.0, 9.998632, 9.999938 
2.1349345e+3, 2.6450616e+2, -597395.8, -430174.56, -12505.32, 0.07270841, 0.28922564, -429244.56, -81377.95, 0.0, 9.9981, 10.000314 
2.1349122e+3, 2.745067e+2, -592311.7, -390242.7, -14471.971, 0.054121755, 0.31158665, -389211.47, -139349.1, 0.0, 9.9975195, 10.0001955 
2.1348901e+3, 2.845067e+2, -531563.44, -256277.17, -26776.295, 0.098434135, 0.2786053, -253696.9, -101834.516, 0.0, 9.997031, 10.000678 
2.1348687e+3, 2.94507e+2, -481152.16, -176266.17, -17742.51, 0.18189915, 0.2391541, -175237.14, -121377.8, 0.0, 9.996682, 10.000723 
2.1348442e+3, 3.0450952e+2, -426883.16, 32406.412, -5049.609, -0.03017755, 0.3480388, 32461.924, 32461.924, 0.0, 9.996043, 10.00213 
2.134823e+3, 3.1451118e+2, -670927.4, -231410.45, -34919.543, 0.12296634, 0.3194964, -228653.4, -228653.4, 0.0, 9.994997, 10.000821 
2.1452443e+3, 1.2454961e+2, -1175493.5, -1740189.4, 13056.157, -0.017460402, 0.24956107, -1175191.8, 544245.1, 0.2745673, 10.006774, 9.996563 
2.1452221e+3, 1.345463e+2, -1114416.5, -1708019.4, 15689.24, 0.003806384, 0.26213866, -1114002.1, 507468.72, 0.2007525, 10.006027, 9.99647 
2.1452002e+3, 1.445428e+2, -1010565.44, -1542629.1, 19507.154, 0.0019902787, 0.23286563, -1009851.2, 513654.63, 0.12453641, 10.005302, 9.99728 
2.1451782e+3, 1.5454039e+2, -973547.3, -1504617.1, 9961.047, 0.035670787, 0.26330075, -973360.5, 452168.6, 0.061312545, 10.004627, 9.997193 
2.145156e+3, 1.6453783e+2, -898192.44, -1359241.4, 9738.672, 0.04622893, 0.26506144, -897986.8, 429566.88, 0.021743156, 10.004042, 9.997801 
2.1451336e+3, 1.7453524e+2, -868650.3, -1309616.5, 19111.68, 0.023588803, 0.22781053, -867823.56, 361755.03, 0.004478461, 10.003568, 9.997698 
2.1451113e+3, 1.8453322e+2, -805798.0, -1139510.8, 30773.652, 0.025616715, 0.22391248, -802983.94, 328614.53, 0.00025483372, 10.002929, 9.9985 
2.1450898e+3, 1.9453204e+2, -834671.6, -1112918.9, 23741.37, 0.058938354, 0.25605202, -832660.44, 200950.55, 0.000000000027357056, 10.002101, 9.998409 
2.1450676e+3, 2.0453084e+2, -791531.1, -976286.75, 13002.749, 0.06459243, 0.27359992, -790620.5, 145002.69, 0.0, 10.001444, 9.998991 
2.1450451e+3, 2.1452978e+2, -766969.06, -925495.75, 20909.47, 0.035714064, 0.26963866, -764257.5, 73376.21, 0.0, 10.00099, 9.998886 
2.1450227e+3, 2.2452888e+2, -709988.8, -773888.2, 13130.212, 0.02892063, 0.26622376, -707395.94, 32246.834, 0.0, 10.000392, 9.999541 
2.1450002e+3, 2.3452832e+2, -731138.1, -744488.4, 10895.441, 0.051689446, 0.2575607, -725035.6, -83386.85, 0.0, 9.999622, 9.999441 
2.1449777e+3, 2.4452806e+2, -674695.8, -586063.4, 9310.992, 0.071721114, 0.2579031, -585095.8, -41444.184, 0.0, 9.998991, 10.00016 
2.1449554e+3, 2.545283e+2, -649834.25, -533006.94, 11577.881, 0.08256444, 0.2697266, -531870.6, -86221.82, 0.0, 9.99853, 10.000073 
2.1449323e+3, 2.645287e+2, -606702.94, -429689.75, 9296.563, 0.06561092, 0.28948444, -429202.84, -81557.17, 0.0, 9.998017, 10.000357 
2.1449094e+3, 2.745291e+2, -606169.3, -393465.4, 12907.018, 0.034016054, 0.29955283, -392685.06, -143042.84, 0.0, 9.997412, 10.000224 
2.144887e+3, 2.8452924e+2, -560236.6, -260009.02, 9183.613, 0.08899811, 0.27105936, -259728.36, -108087.21, 0.0, 9.996794, 10.000766 
2.144865e+3, 2.9452968e+2, -545558.2, -193467.34, 16637.459, 0.1961267, 0.2382979, -192682.92, -139046.55, 0.0, 9.996183, 10.000844 
2.14484e+3, 3.0453208e+2, -481508.13, 2068.8137, -5547.4365, -0.03110443, 0.331482, 2132.4438, 2132.4438, 0.0, 9.995689, 10.0020895 
2.1448182e+3, 3.145337e+2, -614598.56, -208834.06, -1911.4397, 0.123342685, 0.3087359, -208825.06, -208825.06, 0.0, 9.995409, 10.000774 
2.1552509e+3, 1.24571495e+2, -1167954.5, -1704269.6, -9849.9, -0.030743787, 0.21421528, -1167773.8, 551448.7, 0.2824457, 10.006761, 9.996854 
2.1552286e+3, 1.3456908e+2, -1098130.8, -1654279.8, -6909.281, 0.029077731, 0.27921626, -1098044.9, 523201.34, 0.20662226, 10.00602, 9.996843 
2.1552056e+3, 1.4456554e+2, -1025030.25, -1572573.3, -2138.4841, 0.011537056, 0.23669276, -1025021.9, 498259.47, 0.12832813, 10.005302, 9.997076 
2.1551827e+3, 1.5456256e+2, -988245.5, -1537163.6, -12499.667, 0.01761306, 0.23400167, -987961.0, 437350.2, 0.06333694, 10.004634, 9.996968 
2.1551599e+3, 1.6455993e+2, -881620.0, -1324714.4, -6739.62, 0.033242688, 0.2285988, -881517.56, 445818.97, 0.022579968, 10.0040455, 9.998037 
2.1551375e+3, 1.7455782e+2, -850848.4, -1272434.0, 2709.173, 0.05313442, 0.21249238, -850830.94, 378524.6, 0.004710469, 10.003566, 9.997954 
2.1551146e+3, 1.8455596e+2, -817603.75, -1164508.0, 1764.6718, 0.053418037, 0.22046319, -817594.75, 313778.88, 0.00028024003, 10.002928, 9.99833 
2.1550916e+3, 1.9455463e+2, -846773.5, -1139842.9, -5500.578, 0.033554677, 0.25565425, -846670.3, 186718.6, 0.00000000007381513, 10.002106, 9.998223 
2.1550688e+3, 2.0455334e+2, -775086.75, -944167.7, -3201.2273, 0.028785085, 0.26279402, -775026.2, 160376.1, 0.0, 10.001451, 9.999209 
2.1550462e+3, 2.1455222e+2, -750504.9, -891527.5, 5809.456, 0.040596757, 0.23078755, -750266.0, 87146.11, 0.0, 10.000988, 9.999122 
2.1550232e+3, 2.2455145e+2, -712598.44, -779771.6, -13743.746, 0.041821443, 0.22909023, -709895.25, 29524.633, 0.0, 10.000392, 9.999502 
2.1549998e+3, 2.3455124e+2, -733459.75, -751435.8, -17077.52, 0.033332113, 0.2602795, -723149.44, -81725.88, 0.0, 9.999629, 9.999392 
2.1549766e+3, 2.4455115e+2, -670111.06, -578798.3, -8774.422, 0.043348838, 0.278567, -577962.8, -34537.633, 0.0, 9.998998, 10.000208 
2.1549536e+3, 2.5455132e+2, -645063.06, -525623.3, -5854.5703, 0.06788808, 0.27650803, -525337.0, -79914.07, 0.0, 9.998538, 10.000121 
2.1549304e+3, 2.6455146e+2, -597150.25, -412114.2, -13999.859, 0.059078775, 0.2665175, -411060.97, -63639.42, 0.0, 9.998024, 10.000475 
2.1549067e+3, 2.745517e+2, -596309.8, -375529.72, -11250.803, 0.031192435, 0.2455048, -374957.84, -125538.29, 0.0, 9.99742, 10.000344 
2.1548837e+3, 2.8455234e+2, -555506.44, -250764.03, -15708.226, 0.081436716, 0.2577741, -249956.47, -98542.93, 0.0, 9.996794, 10.00083 
2.1548611e+3, 2.9455355e+2, -546785.3, -196675.22, -7324.957, 0.16760208, 0.2972363, -196522.03, -143120.47, 0.0, 9.996184, 10.000823 
2.1548359e+3, 3.045544e+2, -517787.56, -74696.75, -22343.758, 0.0114682065, 0.26838812, -73572.87, -73572.87, 0.0, 9.995692, 10.001562 
2.1548134e+3, 3.1455585e+2, -528074.5, -40090.953, 46894.434, 0.11720276, 0.26656377, -35625.34, -35625.34, 0.0, 9.995448, 10.001919 
2.1652573e+3, 1.245943e+2, -1184898.4, -1699788.6, -652.0434, -0.054303996, 0.20643811, -1184897.5, 534101.44, 0.2898147, 10.006592, 9.996979 
2.1652344e+3, 1.345922e+2, -1107042.0, -1629704.5, 586.34607, 0.028099671, 0.27915332, -1107041.4, 513977.6, 0.21209805, 10.005854, 9.997091 
2.1652107e+3, 1.4458872e+2, -1029118.1, -1564636.8, 16664.893, 0.0044230726, 0.22624981, -1028600.06, 494452.97, 0.13185838, 10.00525, 9.997154 
2.1651873e+3, 1.5458575e+2, -961735.94, -1515516.4, 26899.6, 0.012118408, 0.216319, -960432.4, 464650.5, 0.065220684, 10.004806, 9.997033 
2.165164e+3, 1.6458318e+2, -859752.4, -1309359.3, 34257.445, 0.031516824, 0.21179101, -857157.1, 469950.44, 0.023360642, 10.004185, 9.998077 
2.1651408e+3, 1.7458117e+2, -877371.44, -1280529.0, 27809.559, 0.058499917, 0.20479944, -875462.2, 353663.2, 0.0049284077, 10.003366, 9.997993 
2.1651174e+3, 1.8457934e+2, -852302.75, -1181953.0, 24072.607, 0.05715576, 0.21318522, -850554.1, 280589.16, 0.00030483707, 10.002696, 9.998321 
2.1650937e+3, 1.945779e+2, -833847.7, -1135146.0, 28879.838, 0.024363905, 0.2388434, -831104.5, 202055.1, 0.000000000201105, 10.002204, 9.998207 
2.16507e+3, 2.0457658e+2, -761289.25, -934985.94, 29939.734, 0.018320609, 0.24465169, -756273.44, 178899.84, 0.0, 10.001536, 9.99923 
2.165047e+3, 2.1457557e+2, -796033.25, -910198.56, 21935.762, 0.043166902, 0.22081074, -791963.56, 45218.95, 0.0, 10.000665, 9.999147 
2.1650234e+3, 2.2457491e+2, -765005.8, -795188.8, 1318.631, 0.048886478, 0.22449854, -764948.3, -25759.016, 0.0, 9.999992, 9.999588 
2.1649992e+3, 2.3457481e+2, -737948.9, -743663.3, 8888.508, 0.03493052, 0.25840077, -731469.6, -90278.125, 0.0, 9.9995575, 9.999478 
2.1649754e+3, 2.4457471e+2, -672641.4, -588178.56, 20108.217, 0.03659367, 0.2756121, -583635.75, -40442.46, 0.0, 9.999017, 10.0001335 
2.1649519e+3, 2.5457475e+2, -679136.9, -550553.2, 12971.083, 0.050745428, 0.26623785, -549257.75, -104064.62, 0.0, 9.9983425, 10.000044 
2.1649282e+3, 2.6457486e+2, -637309.94, -417812.3, -1525.0647, 0.04806976, 0.25420204, -417801.72, -70609.875, 0.0, 9.997691, 10.000596 
2.164904e+3, 2.7457532e+2, -634165.9, -379028.4, 2577.6736, 0.04297985, 0.24246769, -379002.38, -129815.21, 0.0, 9.997098, 10.000475 
2.1648803e+3, 2.845761e+2, -564246.9, -256762.02, 2818.6262, 0.076630875, 0.25961426, -256736.17, -105556.29, 0.0, 9.996742, 10.000813 
2.1648566e+3, 2.9457712e+2, -507174.25, -190443.3, 1758.5359, 0.110222094, 0.28516334, -190433.53, -137263.63, 0.0, 9.996513, 10.000706 
2.1648322e+3, 3.0457753e+2, -538675.0, -126653.87, -21715.168, 0.06025617, 0.23905791, -125512.55, -125512.55, 0.0, 9.995733, 10.001184 
2.1648084e+3, 3.1457865e+2, -588362.75, 14469.902, 89886.76, 0.090816125, 0.23481785, 27587.248, 27587.248, 0.0, 9.9946785, 10.002663 
2.1752635e+3, 1.24617904e+2, -1194423.1, -1705806.0, -26247.678, -0.08927866, 0.21586102, -1193079.4, 525688.7, 0.29658124, 10.00657, 9.996932 
2.1752399e+3, 1.3461567e+2, -1103545.6, -1613750.9, -19736.078, 0.0025382566, 0.263438, -1102783.4, 518005.78, 0.21710867, 10.005852, 9.997215 
2.1752156e+3, 1.4461236e+2, -1010439.9, -1517486.3, 2695.1077, -0.018262373, 0.20292932, -1010425.56, 512395.47, 0.1350829, 10.005253, 9.997483 
2.1751921e+3, 1.5460986e+2, -941674.44, -1468303.1, 12244.364, 0.017110255, 0.20980825, -941389.94, 483454.94, 0.0669436, 10.0048, 9.99736 
2.1751682e+3, 1.6460745e+2, -871670.75, -1333228.3, 5841.0566, 0.038436055, 0.21359153, -871596.8, 455270.97, 0.024079276, 10.00418, 9.997914 
2.1751441e+3, 1.7460525e+2, -889214.3, -1306903.6, -1496.7673, 0.04008482, 0.20423983, -889208.94, 339679.88, 0.005131369, 10.003371, 9.997812 
2.1751198e+3, 1.846033e+2, -841567.6, -1161500.8, 6545.1675, 0.03747408, 0.20173259, -841433.75, 289474.28, 0.00032857415, 10.002702, 9.99846 
2.175096e+3, 1.9460177e+2, -823813.0, -1114638.5, 12209.189, 0.030676119, 0.20675988, -823301.4, 209622.34, 0.0000000007393769, 10.002203, 9.998349 
2.1750718e+3, 2.0460053e+2, -774408.44, -962949.44, -633.43506, 0.031925187, 0.22046977, -774406.3, 160530.67, 0.0, 10.001536, 9.99904 
2.1750475e+3, 2.1459974e+2, -809614.56, -940173.44, -9087.876, 0.04206661, 0.23901916, -808985.0, 27961.049, 0.0, 10.0006695, 9.998941 
2.1750234e+3, 2.2459915e+2, -749005.2, -764134.06, -14384.179, 0.04920415, 0.25110134, -740317.7, -1365.492, 0.0, 9.999999, 9.999799 
2.174999e+3, 2.3459895e+2, -721641.8, -711163.94, -6333.937, 0.055447806, 0.2519082, -708183.06, -67229.484, 0.0, 9.99956, 9.9997015 
2.1749747e+3, 2.4459866e+2, -686745.0, -618624.1, -4791.7817, 0.05097606, 0.24943236, -618288.7, -75331.93, 0.0, 9.99902, 9.999925 
2.17495e+3, 2.5459844e+2, -694032.9, -583465.25, -13353.76, 0.029999083, 0.23876274, -581875.3, -136914.81, 0.0, 9.998349, 9.999817 
2.1749255e+3, 2.645988e+2, -627939.3, -399956.78, -25254.607, 0.031567533, 0.25275594, -397192.72, -50235.043, 0.0, 9.997696, 10.000718 
2.1749014e+3, 2.7459988e+2, -621951.6, -356454.84, -18520.996, 0.06757188, 0.29098612, -355169.06, -106223.02, 0.0, 9.9971075, 10.0006275 
2.1748772e+3, 2.8460032e+2, -570635.6, -272749.75, -7319.8027, 0.07302757, 0.27406183, -272569.97, -121628.47, 0.0, 9.996752, 10.0007 
2.1748523e+3, 2.946002e+2, -521779.9, -224270.72, -13292.471, 0.020994259, 0.19548783, -223678.0, -170734.86, 0.0, 9.996526, 10.000469 
2.1748284e+3, 3.0460134e+2, -557156.44, -166209.36, -66409.39, 0.115326956, 0.2553947, -155236.52, -155236.52, 0.0, 9.995735, 10.000913 
2.174803e+3, 3.1460294e+2, -564637.9, 64858.234, 33178.266, 0.08339985, 0.3117251, 66602.1, 66602.1, 0.0, 9.994672, 10.003013 
2.18527e+3, 1.24642596e+2, -1239413.4, -1732766.4, 2165.3816, -0.084951855, 0.23509365, -1239403.9, 479122.44, 0.30270565, 10.006189, 9.996894 
2.1852459e+3, 1.3464004e+2, -1101327.3, -1604435.6, 16901.523, 0.0051406687, 0.24521014, -1100760.1, 519790.16, 0.22162555, 10.005861, 9.997292 
2.185221e+3, 1.4463687e+2, -992656.9, -1491034.9, 33870.805, -0.022026481, 0.18802176, -990365.5, 532214.75, 0.13798328, 10.005326, 9.997656 
2.1851967e+3, 1.5463476e+2, -962586.2, -1459545.4, 34356.133, 0.015048049, 0.21644598, -960222.3, 464377.4, 0.068496585, 10.004572, 9.99753 
2.1851721e+3, 1.6463242e+2, -915318.56, -1365644.4, 23894.84, 0.03303784, 0.22237903, -914054.2, 412567.8, 0.024733327, 10.003925, 9.997813 
2.1851473e+3, 1.7462991e+2, -892454.2, -1320578.1, 21108.629, 0.025623057, 0.193423, -891415.94, 337230.7, 0.0053191404, 10.003404, 9.997702 
2.1851225e+3, 1.8462788e+2, -824118.3, -1141875.3, 31212.418, 0.024131596, 0.18368427, -821081.44, 309585.25, 0.0003514255, 10.002776, 9.998558 
2.185098e+3, 1.9462653e+2, -841956.6, -1110865.8, 32976.59, 0.03021911, 0.19455689, -837971.75, 194708.2, 0.000000002893483, 10.0020275, 9.998459 
2.1850732e+3, 2.0462534e+2, -808503.94, -993918.9, 18187.65, 0.036454238, 0.21517794, -806736.7, 127955.945, 0.0, 10.0013685, 9.998906 
2.1850483e+3, 2.146245e+2, -798243.8, -950380.06, 13670.415, 0.04244251, 0.24334311, -797025.2, 39677.98, 0.0, 10.000818, 9.998797 
2.1850234e+3, 2.2462381e+2, -715773.44, -745683.06, 9774.08, 0.049384966, 0.25303602, -712862.7, 25847.81, 0.0, 10.000219, 9.999819 
2.1849985e+3, 2.3462346e+2, -720286.6, -707300.6, 2675.2244, 0.05987447, 0.23639123, -706771.1, -66058.4, 0.0, 9.999558, 9.999728 
2.1849737e+3, 2.4462317e+2, -702511.44, -624509.6, 1541.6656, 0.052376013, 0.2312447, -624479.2, -81763.445, 0.0, 9.998906, 9.999938 
2.1849482e+3, 2.5462312e+2, -706985.9, -588904.5, 10685.752, 0.022262277, 0.23714706, -587945.25, -143227.23, 0.0, 9.998259, 9.999822 
2.1849233e+3, 2.6462346e+2, -632358.56, -412060.2, 5737.5464, 0.029173138, 0.25766584, -411910.88, -65195.55, 0.0, 9.99771, 10.0006275 
2.1848987e+3, 2.7462435e+2, -604622.8, -358798.1, -4174.5405, 0.082488015, 0.28559697, -358727.22, -110021.35, 0.0, 9.997274, 10.00053 
2.1848738e+3, 2.8462473e+2, -589139.25, -274108.1, 315.4171, 0.068805754, 0.26283678, -274107.75, -123405.875, 0.0, 9.996595, 10.000765 
2.1848479e+3, 2.946248e+2, -643413.5, -272771.8, 6042.169, -0.029361874, 0.19928782, -272673.34, -219972.69, 0.0, 9.99565, 10.000557 
2.1848242e+3, 3.0462563e+2, -625518.3, -215355.84, -15559.05, 0.13898559, 0.22900634, -214766.47, -214766.47, 0.0, 9.995335, 10.00077 
2.1847977e+3, 3.1462735e+2, -466383.97, 63563.62, 40815.78, 0.046460424, 0.31451198, 66688.766, 66688.766, 0.0, 9.995557, 10.002577 
2.1952763e+3, 1.246682e+2, -1245780.8, -1740563.6, -13741.767, -0.050198775, 0.25642285, -1245399.4, 472875.88, 0.30821735, 10.006188, 9.996842 
2.1952519e+3, 1.3466527e+2, -1103569.8, -1601910.1, 8412.17, 0.031202829, 0.22499578, -1103427.8, 516875.06, 0.22567156, 10.005851, 9.99732 
2.1952263e+3, 1.4466225e+2, -993958.06, -1490165.5, 10687.508, -0.010920555, 0.18111834, -993728.0, 528603.25, 0.14057125, 10.0053215, 9.997667 
2.1952012e+3, 1.5466042e+2, -961804.1, -1457612.0, 8941.227, 0.0052730776, 0.23498991, -961642.94, 462705.2, 0.069882736, 10.004576, 9.997542 
2.1951757e+3, 1.6465802e+2, -918030.44, -1372481.6, 5397.2217, 0.015432591, 0.23726979, -917966.4, 408404.56, 0.025323225, 10.003929, 9.997766 
2.1951504e+3, 1.7465511e+2, -896033.6, -1328606.3, 3087.6028, 0.014296195, 0.17329971, -896011.56, 332387.84, 0.0054919836, 10.003405, 9.997647 
2.1951252e+3, 1.8465301e+2, -820583.94, -1135406.1, 4942.7915, 0.015790826, 0.16014047, -820506.4, 309913.34, 0.00037343724, 10.002777, 9.998603 
2.1950999e+3, 1.9465202e+2, -837232.1, -1102596.8, 6354.4893, 0.02194303, 0.20176767, -837080.06, 195349.06, 0.000000010094747, 10.002031, 9.998515 
2.1950744e+3, 2.0465088e+2, -812980.8, -1005148.44, -1710.4274, 0.031397082, 0.22797273, -812965.6, 121475.61, 0.0, 10.001374, 9.998828 
2.1950491e+3, 2.1464974e+2, -804008.6, -963359.75, -5058.6514, 0.043959912, 0.23403123, -803848.2, 32606.658, 0.0, 10.000819, 9.99871 
2.1950237e+3, 2.2464879e+2, -727999.5, -772269.75, -13431.943, 0.049137283, 0.23087186, -724242.94, 14222.086, 0.0, 10.000222, 9.999636 
2.1949981e+3, 2.3464823e+2, -732580.94, -734644.94, -21138.16, 0.046830248, 0.21176137, -712449.6, -71979.74, 0.0, 9.999564, 9.999539 
2.1949722e+3, 2.446481e+2, -685289.75, -590616.25, -23134.281, 0.03954066, 0.22099894, -585265.6, -42794.367, 0.0, 9.998912, 10.000169 
2.1949466e+3, 2.5464866e+2, -689163.2, -554018.2, -14322.06, 0.026122052, 0.2613192, -552517.06, -108050.26, 0.0, 9.998265, 10.00006 
2.1949211e+3, 2.6464882e+2, -653852.0, -458403.13, -12142.8, 0.040505685, 0.2685416, -457651.6, -111185.78, 0.0, 9.997715, 10.000308 
2.194896e+3, 2.7464864e+2, -628714.4, -410612.75, -21791.887, 0.08731193, 0.22568667, -408456.7, -159988.84, 0.0, 9.997279, 10.000174 
2.1948701e+3, 2.8464916e+2, -572662.5, -240965.6, -36863.42, 0.06368683, 0.22547159, -236918.13, -86455.81, 0.0, 9.996596, 10.000994 
2.1948434e+3, 2.9465085e+2, -612452.8, -210557.6, -30431.404, -0.041200045, 0.29517984, -208266.4, -155822.6, 0.0, 9.995655, 10.000983 
2.1948193e+3, 3.0465034e+2, -621691.1, -210190.3, -5468.75, 0.122193426, 0.15712886, -210117.63, -210117.63, 0.0, 9.995345, 10.000801 
2.1947935e+3, 3.1465203e+2, -552794.2, -117953.24, -17378.22, 0.0703306, 0.2652612, -117259.836, -117259.836, 0.0, 9.995568, 10.001324 
2.2052832e+3, 1.2469436e+2, -1219325.9, -1727643.9, 10854.437, -0.010400778, 0.24483562, -1219094.3, 498923.78, 0.31322652, 10.006522, 9.99677 
2.2052579e+3, 1.3469145e+2, -1094195.0, -1604222.9, 36202.938, 0.028662778, 0.22615099, -1091638.1, 528408.0, 0.22932233, 10.006, 9.997229 
2.2052315e+3, 1.446885e+2, -997538.1, -1500235.8, 24746.303, -0.020026427, 0.19828768, -996322.9, 525751.4, 0.1428867, 10.005352, 9.997572 
2.2052059e+3, 1.5468632e+2, -969923.56, -1472504.0, 15643.288, 0.008560163, 0.2263703, -969437.1, 454657.34, 0.071115814, 10.004569, 9.997442 
2.20518e+3, 1.6468383e+2, -918059.4, -1360933.1, 20779.654, 0.02000454, 0.22207022, -917086.5, 409031.2, 0.025850872, 10.003883, 9.997866 
2.2051539e+3, 1.7468119e+2, -902234.6, -1319387.1, 29420.254, 0.007983821, 0.17353494, -900169.94, 327973.38, 0.005649629, 10.003312, 9.997754 
2.2051276e+3, 1.8467912e+2, -840437.3, -1158028.9, 26229.035, 0.007208676, 0.16340654, -838285.7, 291877.66, 0.00039457594, 10.0027, 9.998485 
2.2051018e+3, 1.9467789e+2, -844101.0, -1119411.9, 14018.723, 0.020286229, 0.19459265, -843389.0, 188786.39, 0.000000028477277, 10.002045, 9.998392 
2.2050759e+3, 2.0467666e+2, -804610.06, -996992.9, 7393.3965, 0.032760788, 0.21585089, -804326.4, 129862.02, 0.0, 10.001416, 9.998862 
2.2050498e+3, 2.1467555e+2, -801864.7, -957386.06, 12164.484, 0.04477736, 0.22226396, -800919.0, 35282.117, 0.0, 10.000815, 9.998751 
2.2050236e+3, 2.246746e+2, -741637.06, -787961.94, 8872.786, 0.045510504, 0.22074434, -739995.75, -1784.431, 0.0, 10.00017, 9.999552 
2.2049972e+3, 2.3467398e+2, -751366.6, -752930.75, 9069.836, 0.034374673, 0.20617831, -743045.2, -102828.086, 0.0, 9.999478, 9.999454 
2.204971e+3, 2.4467388e+2, -692843.7, -589460.25, 7030.3403, 0.03173367, 0.22024661, -588984.4, -46765.973, 0.0, 9.998842, 10.00021 
2.2049448e+3, 2.546745e+2, -685528.7, -547089.9, 832.59753, 0.038219787, 0.2636136, -547084.9, -102871.95, 0.0, 9.99827, 10.000104 
2.2049187e+3, 2.646746e+2, -657351.0, -461415.0, 9889.949, 0.049936704, 0.26091003, -460917.06, -114704.46, 0.0, 9.9977, 10.000294 
2.2048931e+3, 2.7467424e+2, -659145.3, -427126.3, 23534.076, 0.07097139, 0.1995657, -424763.28, -176546.58, 0.0, 9.997081, 10.0001545 
2.2048667e+3, 2.8467485e+2, -592351.8, -251608.97, 7547.9355, 0.054039985, 0.21573642, -251441.86, -101232.04, 0.0, 9.996468, 10.000982 
2.2048393e+3, 2.9467693e+2, -559459.7, -178534.75, -4499.577, -0.012159851, 0.32481, -178481.6, -126294.04, 0.0, 9.995994, 10.0010395 
2.2048144e+3, 3.0467594e+2, -593140.2, -191825.94, 18754.482, 0.08945144, 0.131192, -190951.4, -190951.4, 0.0, 9.9955225, 10.000841 
2.2047886e+3, 3.146786e+2, -659981.75, -146661.5, -24898.47, 0.0852462, 0.3405025, -145456.63, -145456.63, 0.0, 9.994739, 10.001524 
2.21529e+3, 1.24721006e+2, -1230757.5, -1747118.5, -8911.891, 0.026695637, 0.20296057, -1230603.8, 487151.53, 0.31789872, 10.0065, 9.996646 
2.2152634e+3, 1.3471854e+2, -1109078.9, -1631250.8, 21852.02, -0.0026027637, 0.24808651, -1108166.0, 511614.78, 0.2326869, 10.005988, 9.99702 
2.2152366e+3, 1.4471556e+2, -1011097.5, -1527329.4, 575.3808, -0.050565045, 0.23858342, -1011096.9, 510713.0, 0.14498885, 10.005351, 9.997363 
2.2152105e+3, 1.5471241e+2, -983624.75, -1503260.8, -10419.136, 0.022960078, 0.1928509, -983415.94, 440423.06, 0.07221935, 10.004572, 9.9972315 
2.2151838e+3, 1.6470985e+2, -902102.8, -1327844.8, 1116.3503, 0.04437485, 0.17970744, -902099.9, 423762.78, 0.026320523, 10.003887, 9.998093 
2.215157e+3, 1.7470807e+2, -884753.2, -1284147.1, 9185.501, 0.005362966, 0.19360894, -884542.0, 343337.22, 0.005791282, 10.003315, 9.997995 
2.2151303e+3, 1.8470608e+2, -859436.1, -1198857.6, 2810.6057, -0.0025652144, 0.19185963, -859412.9, 270485.8, 0.00041450874, 10.002703, 9.998204 
2.215104e+3, 1.9470406e+2, -864823.06, -1163576.1, -8675.32, 0.024451684, 0.17345296, -864571.4, 167348.03, 0.00000006498394, 10.002048, 9.998089 
2.2150774e+3, 2.0470257e+2, -794694.2, -978003.0, -13565.787, 0.040084742, 0.17998378, -793695.7, 140239.06, 0.0, 10.001421, 9.998992 
2.2150508e+3, 2.1470183e+2, -791160.3, -936427.8, -8568.99, 0.043290876, 0.20839942, -790656.6, 45286.285, 0.0, 10.000818, 9.998895 
2.2150236e+3, 2.2470112e+2, -740154.56, -786204.8, -15876.569, 0.037394408, 0.22304255, -735211.44, 2738.8997, 0.0, 10.000174, 9.999564 
2.2149965e+3, 2.3470064e+2, -750244.4, -751890.8, -16187.647, 0.02211217, 0.21976134, -734859.06, -94903.6, 0.0, 9.999481, 9.999461 
2.2149697e+3, 2.4470039e+2, -703728.25, -613527.5, -14863.235, 0.029241618, 0.22860532, -611141.5, -69183.195, 0.0, 9.998846, 10.000044 
2.2149433e+3, 2.5470054e+2, -696301.4, -571707.25, -20766.586, 0.057868265, 0.243279, -568337.2, -124379.67, 0.0, 9.998278, 9.999932 
2.2149165e+3, 2.6470065e+2, -635650.1, -418193.8, -14426.803, 0.055869296, 0.23420165, -417240.88, -71284.07, 0.0, 9.9977045, 10.000589 
2.2148897e+3, 2.7470094e+2, -635318.6, -379886.8, -3130.9905, 0.029137606, 0.2068619, -379848.44, -131895.03, 0.0, 9.9970875, 10.000477 
2.2148629e+3, 2.8470173e+2, -611459.5, -292461.38, -12762.559, 0.038672887, 0.23467526, -291951.6, -142006.27, 0.0, 9.996471, 10.000701 
2.2148362e+3, 2.9470292e+2, -582495.3, -228943.48, -18827.959, 0.06330033, 0.28686213, -227943.66, -176010.31, 0.0, 9.996001, 10.000691 
2.2148094e+3, 3.0470234e+2, -586834.75, -181477.47, -10650.56, 0.036734033, 0.15218958, -181197.83, -181197.83, 0.0, 9.99553, 10.00091 
2.2147831e+3, 3.1470472e+2, -549864.44, 78142.45, -60580.26, 0.05522713, 0.3146778, 83932.9, 83932.9, 0.0, 9.994749, 10.003066 
2.2252963e+3, 1.2474838e+2, -1223688.5, -1747157.4, -6300.722, 0.01608751, 0.1869478, -1223612.6, 493873.53, 0.32238573, 10.006636, 9.996581 
2.2252692e+3, 1.3474602e+2, -1130278.0, -1664420.5, 30959.734, -0.0017688285, 0.26158166, -1128489.5, 491022.3, 0.23586582, 10.005906, 9.996833 
2.225242e+3, 1.44743e+2, -1017322.9, -1523775.0, 18130.213, -0.0336919, 0.25488642, -1016674.7, 504866.88, 0.14693485, 10.005285, 9.997418 
2.2252151e+3, 1.5473962e+2, -948739.6, -1477529.9, 25820.885, 0.016934048, 0.18143381, -947481.75, 476090.28, 0.07321868, 10.004805, 9.997295 
2.2251877e+3, 1.6473705e+2, -872431.06, -1319923.0, 35083.152, 0.032792732, 0.16533618, -869697.25, 455898.66, 0.02673816, 10.004128, 9.998031 
2.2251604e+3, 1.7473544e+2, -900449.1, -1298208.9, 21614.717, 0.008115454, 0.2048914, -899278.0, 328333.38, 0.0059161475, 10.003237, 9.997936 
2.225133e+3, 1.847335e+2, -883231.7, -1206381.1, 20444.275, 0.0066278824, 0.20936055, -881943.44, 247687.1, 0.00043255757, 10.002524, 9.998237 
2.2251059e+3, 1.9473135e+2, -867444.2, -1160596.3, 32312.541, 0.03127726, 0.17496301, -863924.8, 167727.23, 0.000000118630574, 10.002013, 9.998125 
2.2250788e+3, 2.0472978e+2, -795219.25, -977596.7, 33301.652, 0.042747103, 0.17142446, -789328.7, 144339.08, 0.0, 10.001417, 9.998996 
2.2250512e+3, 2.1472901e+2, -803862.5, -941346.56, 27237.322, 0.039629217, 0.19656304, -798663.06, 37012.715, 0.0, 10.00073, 9.998902 
2.225024e+3, 2.2472832e+2, -751971.94, -796430.0, 14084.373, 0.03328551, 0.21480134, -747885.6, -10202.591, 0.0, 10.000115, 9.99952 
2.2249961e+3, 2.3472789e+2, -738999.7, -750924.94, 9786.693, 0.025278209, 0.22331151, -733502.3, -93814.57, 0.0, 9.99958, 9.999417 
2.2249688e+3, 2.4472754e+2, -699150.56, -623211.7, 9776.068, 0.033480562, 0.22885461, -621973.4, -80281.586, 0.0, 9.998933, 9.999934 
2.2249414e+3, 2.5472736e+2, -722300.7, -595306.25, 8843.359, 0.055449557, 0.22258969, -594693.4, -150999.27, 0.0, 9.998151, 9.999829 
2.2249141e+3, 2.6472747e+2, -655166.8, -421955.03, 15064.06, 0.04698586, 0.21836579, -420986.0, -75292.93, 0.0, 9.99755, 10.000636 
2.2248864e+3, 2.7472818e+2, -620086.0, -365553.47, 5446.0615, 0.01786781, 0.2269742, -365437.0, -117751.555, 0.0, 9.997166, 10.000536 
2.2248596e+3, 2.8472883e+2, -580861.8, -278574.9, -6310.94, 0.046355996, 0.23838314, -278443.22, -128764.54, 0.0, 9.996689, 10.0006895 
2.2248325e+3, 2.947292e+2, -587516.3, -241731.31, 9441.928, 0.10281903, 0.21117155, -241473.67, -189798.77, 0.0, 9.9960165, 10.000594 
2.2248045e+3, 3.0472964e+2, -637268.56, -210198.31, 13945.098, 0.012633498, 0.18929958, -209743.44, -209743.44, 0.0, 9.995209, 10.000865 
2.2247778e+3, 3.1473047e+2, -545808.75, 144007.36, -29869.137, 0.08159267, 0.18952641, 145298.28, 145298.28, 0.0, 9.994507, 10.0036335 
2.2353025e+3, 1.2477656e+2, -1230340.1, -1752352.1, -28650.486, -0.04849298, 0.20847563, -1228772.4, 488437.5, 0.32676154, 10.006608, 9.996563 
2.2352757e+3, 1.3477387e+2, -1143281.3, -1689403.4, 10754.037, 0.027389508, 0.26650727, -1143069.5, 476169.9, 0.23892272, 10.005884, 9.996669 
2.2352478e+3, 1.447708e+2, -1002579.7, -1489275.4, 3242.645, 0.025602097, 0.24984829, -1002558.06, 518711.4, 0.14877018, 10.005275, 9.9977 
2.2352195e+3, 1.5476787e+2, -930859.0, -1435373.0, 9683.859, -0.0105493255, 0.19104975, -930673.2, 492621.38, 0.07413892, 10.004797, 9.99759 
2.2351915e+3, 1.647653e+2, -896033.7, -1369204.9, 3748.7554, -0.014814235, 0.17722759, -896004.0, 429314.66, 0.02711319, 10.004124, 9.997696 
2.2351636e+3, 1.7476326e+2, -924519.25, -1349559.9, -10012.701, 0.015112253, 0.20787583, -924283.5, 303056.72, 0.0060258666, 10.003239, 9.997584 
2.2351357e+3, 1.8476132e+2, -859460.8, -1159313.4, 2516.1973, 0.03360788, 0.21691802, -859439.7, 269919.6, 0.00044846584, 10.002532, 9.998558 
2.2351082e+3, 1.947597e+2, -842769.06, -1111197.0, 14557.757, 0.039702296, 0.19900757, -841981.9, 189392.33, 0.0000001807627, 10.002018, 9.998463 
2.23508e+3, 2.0475818e+2, -803384.06, -996007.75, 8627.051, 0.040117618, 0.1898122, -802998.5, 130390.07, 0.0, 10.001421, 9.998869 
2.235052e+3, 2.1475698e+2, -813046.6, -961476.44, 3144.5227, 0.033289038, 0.18658422, -812980.0, 22420.758, 0.0, 10.000731, 9.998765 
2.235024e+3, 2.2475608e+2, -759008.9, -812516.6, -4865.467, 0.03307604, 0.19595821, -758570.06, -21159.854, 0.0, 10.000119, 9.999409 
2.2349958e+3, 2.3475567e+2, -745934.06, -767041.3, -9504.676, 0.042451117, 0.21648704, -742284.94, -102869.92, 0.0, 9.999585, 9.999306 
2.2349678e+3, 2.4475521e+2, -702508.2, -631506.6, -19886.803, 0.043204907, 0.22100179, -626316.0, -84896.02, 0.0, 9.998936, 9.999877 
2.2349392e+3, 2.5475487e+2, -724634.0, -601798.2, -21821.99, 0.029062184, 0.20199513, -598036.6, -154612.86, 0.0, 9.998155, 9.999784 
2.2349113e+3, 2.64755e+2, -670632.0, -455290.2, -1228.9501, 0.022962604, 0.21379255, -455283.2, -109860.625, 0.0, 9.997553, 10.000407 
2.234884e+3, 2.7475584e+2, -634786.1, -398615.06, -9190.174, 0.03927249, 0.2585814, -398257.97, -150843.69, 0.0, 9.997174, 10.000306 
2.2348565e+3, 2.8475603e+2, -560808.44, -239226.0, -33583.152, 0.07676961, 0.22493163, -235756.31, -86344.91, 0.0, 9.9966955, 10.0009575 
2.2348283e+3, 2.9475567e+2, -575412.94, -219105.83, -20919.277, 0.09839852, 0.09688916, -217881.84, -166468.31, 0.0, 9.996023, 10.000748 
2.2347999e+3, 3.0475768e+2, -653606.6, -243481.95, -18593.184, 0.020597728, 0.24051432, -242640.75, -242640.75, 0.0, 9.995204, 10.000639 
2.2347727e+3, 3.1475806e+2, -583593.4, 59284.613, -19344.637, 0.10109953, 0.20586106, 59866.18, 59866.18, 0.0, 9.994525, 10.003046 
2.2453089e+3, 1.2480494e+2, -1236568.5, -1731752.3, -22256.49, -0.06177327, 0.19878633, -1235570.1, 481361.53, 0.3309966, 10.006475, 9.996767 
2.2452812e+3, 1.3480239e+2, -1161014.6, -1681423.9, 34080.43, 0.02266425, 0.25526816, -1158792.3, 460166.8, 0.24186665, 10.005661, 9.996835 
2.2452529e+3, 1.4479929e+2, -1038783.75, -1504586.1, 39149.76, 0.039471727, 0.22633195, -1035516.2, 485473.1, 0.15051931, 10.004986, 9.997714 
2.2452238e+3, 1.5479665e+2, -974224.06, -1456484.3, 29980.715, -0.020518957, 0.1956626, -972367.44, 450644.8, 0.0750004, 10.004475, 9.9976 
2.2451954e+3, 1.6479415e+2, -923123.94, -1384078.5, 17824.908, -0.028192207, 0.19047067, -922435.6, 402600.3, 0.02745613, 10.0039425, 9.99768 
2.245167e+3, 1.7479195e+2, -904873.0, -1341620.1, 26859.318, 0.021108732, 0.20792598, -903227.4, 323831.88, 0.006124547, 10.003385, 9.997567 
2.2451384e+3, 1.8478999e+2, -826669.25, -1140882.9, 44457.395, 0.04323879, 0.21296453, -820500.2, 308578.4, 0.00046284508, 10.0027485, 9.998579 
2.2451098e+3, 1.9478843e+2, -839909.9, -1107061.6, 33137.72, 0.03542103, 0.2012863, -835860.8, 195231.3, 0.0000002419392, 10.002028, 9.998486 
2.2450815e+3, 2.0478691e+2, -811421.5, -1005810.2, 17997.496, 0.033839636, 0.19348094, -809769.25, 123337.03, 0.0, 10.001394, 9.998813 
2.2450528e+3, 2.147856e+2, -799115.2, -961071.0, 17237.965, 0.03843323, 0.18601681, -797300.75, 37818.926, 0.0, 10.000856, 9.998707 
2.2450241e+3, 2.2478457e+2, -750888.3, -822325.8, 11366.843, 0.041055445, 0.19068985, -749123.3, -11992.786, 0.0, 10.0002365, 9.999284 
2.2449954e+3, 2.3478396e+2, -763685.44, -789019.6, 6095.681, 0.044427205, 0.20611748, -762295.06, -123158.086, 0.0, 9.999525, 9.999183 
2.2449666e+3, 2.4478342e+2, -700429.0, -640202.4, -3195.5718, 0.042629592, 0.21217711, -640033.3, -98890.43, 0.0, 9.998995, 9.999786 
2.2449377e+3, 2.547831e+2, -658654.06, -579436.6, -8037.9673, 0.030296946, 0.20399097, -578629.25, -135482.58, 0.0, 9.998652, 9.999696 
2.2449091e+3, 2.6478314e+2, -615362.75, -437120.03, 11514.095, 0.027716652, 0.21532427, -436379.3, -91233.0, 0.0, 9.997973, 10.000327 
2.2448811e+3, 2.747837e+2, -675614.8, -426518.06, 16011.477, 0.049204078, 0.24245143, -425493.1, -178352.75, 0.0, 9.996934, 10.000228 
2.2448531e+3, 2.8478384e+2, -613931.06, -265438.16, -4091.2756, 0.07752637, 0.20734896, -265390.13, -116251.984, 0.0, 9.996338, 10.000948 
2.2448242e+3, 2.9478377e+2, -558201.2, -213474.98, -16317.434, 0.078797996, 0.10961278, -212704.33, -161566.61, 0.0, 9.996158, 10.00072 
2.2447951e+3, 3.047856e+2, -592096.7, -202993.42, -18164.432, 0.029248297, 0.23317677, -202147.3, -202147.3, 0.0, 9.995583, 10.000733 
2.2447674e+3, 3.147858e+2, -593334.75, 9654.79, 23671.076, 0.112458825, 0.16711888, 10582.6, 10582.6, 0.0, 9.994657, 10.00264 
2.2553155e+3, 1.24833755e+2, -1224641.1, -1688202.5, -40531.23, -0.03709468, 0.18398988, -1221124.0, 495525.16, 0.3349843, 10.006427, 9.997183 
2.2552864e+3, 1.3483155e+2, -1141780.1, -1618818.9, 10077.111, -0.01876758, 0.23077781, -1141567.4, 477103.63, 0.24465232, 10.005638, 9.9972725 
2.2552575e+3, 1.448284e+2, -1054958.8, -1538321.6, 22750.262, 0.006377885, 0.1872548, -1053890.3, 466811.28, 0.15217885, 10.004978, 9.99747 
2.2552285e+3, 1.548259e+2, -992075.8, -1494512.6, 13200.275, -0.014705406, 0.19592358, -991729.25, 430996.25, 0.07581398, 10.004467, 9.997343 
2.2551993e+3, 1.6482353e+2, -905532.1, -1345920.1, -1657.2726, -0.009259418, 0.20448586, -905525.94, 419222.5, 0.027775401, 10.003938, 9.997945 
2.2551702e+3, 1.7482145e+2, -885424.4, -1301717.4, 6756.6025, 0.024763616, 0.20537928, -885314.75, 341454.56, 0.006216347, 10.003385, 9.997843 
2.2551411e+3, 1.8481937e+2, -845512.4, -1180832.9, 18374.527, 0.034483816, 0.19874738, -844508.5, 284280.8, 0.0004765749, 10.0027485, 9.998306 
2.2551118e+3, 1.9481748e+2, -858907.2, -1147554.1, 7580.927, 0.01786709, 0.18294495, -858708.25, 172098.27, 0.00000029306102, 10.00203, 9.998208 
2.2550827e+3, 2.0481591e+2, -811141.7, -1007156.75, -712.44916, 0.024000613, 0.18268424, -811139.1, 121682.59, 0.0, 10.001399, 9.998802 
2.2550537e+3, 2.1481478e+2, -798406.44, -961204.44, -1275.084, 0.05399575, 0.19452108, -798396.44, 36436.957, 0.0, 10.00086, 9.998705 
2.2550245e+3, 2.2481367e+2, -760541.06, -843429.25, -14133.592, 0.056260046, 0.19896112, -758197.4, -21352.486, 0.0, 10.000238, 9.99914 
2.2549948e+3, 2.3481269e+2, -773158.06, -810146.2, -20043.375, 0.030296814, 0.19177355, -764380.0, -125525.35, 0.0, 9.999528, 9.999038 
2.2549656e+3, 2.4481206e+2, -709374.4, -660347.1, -16634.496, 0.031556148, 0.20227785, -655236.0, -114374.41, 0.0, 9.999, 9.999647 
2.2549365e+3, 2.5481194e+2, -667130.1, -600326.4, -21947.389, 0.058484826, 0.22845256, -593761.1, -150897.1, 0.0, 9.998664, 9.999548 
2.2549072e+3, 2.6481175e+2, -609377.75, -426934.97, -29224.773, 0.060833093, 0.22258477, -422367.9, -77502.34, 0.0, 9.99798, 10.000395 
2.254878e+3, 2.7481169e+2, -671212.3, -417899.72, -24216.904, 0.04525239, 0.17706479, -415605.34, -168740.45, 0.0, 9.996933, 10.000289 
2.254849e+3, 2.8481212e+2, -636462.4, -312537.8, -12938.096, 0.04620054, 0.18594077, -312021.88, -163161.78, 0.0, 9.996336, 10.0006275 
2.25482e+3, 2.9481342e+2, -572263.06, -247327.95, -26750.408, 0.041672956, 0.25425407, -245140.44, -194291.69, 0.0, 9.996174, 10.000482 
2.2547908e+3, 3.048132e+2, -561160.75, -142424.05, -55887.34, 0.040149707, 0.16155411, -135093.3, -135093.3, 0.0, 9.995597, 10.001143 
2.2547622e+3, 3.1481415e+2, -578188.5, 38015.637, -4380.275, 0.12913561, 0.1429522, 38046.77, 38046.77, 0.0, 9.994665, 10.002832 
2.2653215e+3, 1.24863274e+2, -1327771.3, -1745102.3, -11360.628, -0.011659338, 0.1689547, -1327462.3, 388896.94, 0.33857778, 10.005371, 9.997206 
2.2652915e+3, 1.3486123e+2, -1139981.6, -1604344.3, 23862.973, -0.060817357, 0.22019358, -1138758.5, 479619.97, 0.24719281, 10.005597, 9.997421 
2.2652625e+3, 1.4485802e+2, -1029790.94, -1526293.0, 20473.955, -0.026295163, 0.16262977, -1028948.1, 491461.88, 0.15371491, 10.005204, 9.997441 
2.265233e+3, 1.5485565e+2, -1032977.06, -1518878.1, 24396.555, -0.0024332216, 0.18916307, -1031755.2, 390678.3, 0.076575525, 10.004182, 9.997313 
2.2652031e+3, 1.648534e+2, -958823.06, -1362372.0, 24083.752, 0.011127975, 0.20495707, -957390.9, 367064.88, 0.028073719, 10.003522, 9.998031 
2.2651733e+3, 1.7485134e+2, -898616.75, -1297676.1, 19366.977, 0.014193242, 0.20208417, -897679.0, 328796.38, 0.0063027926, 10.003252, 9.997933 
2.2651435e+3, 1.8484922e+2, -840986.5, -1187537.1, 21858.291, 0.017248195, 0.18856163, -839613.25, 288882.44, 0.0004899323, 10.002822, 9.998223 
2.265114e+3, 1.9484712e+2, -837274.75, -1146304.1, 23457.053, 0.019716965, 0.162267, -835504.4, 195010.55, 0.00000031998934, 10.002221, 9.998123 
2.2650842e+3, 2.0484544e+2, -797378.6, -1015301.3, 18269.346, 0.03389264, 0.16336575, -795857.6, 136673.73, 0.0, 10.001559, 9.998668 
2.2650547e+3, 2.1484435e+2, -811453.56, -981672.25, 7606.82, 0.061008975, 0.19022478, -811114.3, 23429.145, 0.0, 10.000835, 9.998574 
2.2650246e+3, 2.248432e+2, -752972.9, -839093.25, -757.7272, 0.059697047, 0.19822359, -752966.2, -16411.104, 0.0, 10.000291, 9.999143 
2.2649944e+3, 2.3484214e+2, -714247.6, -780977.1, 4871.0977, 0.029260866, 0.18201317, -713893.94, -75328.97, 0.0, 9.999931, 9.9990425 
2.2649646e+3, 2.4484138e+2, -681311.6, -664605.1, 9558.067, 0.034763813, 0.18908, -660264.56, -119691.52, 0.0, 9.999271, 9.999485 
2.2649351e+3, 2.5484112e+2, -733099.1, -650646.56, 2422.0427, 0.07640588, 0.2193105, -650575.5, -207998.05, 0.0, 9.998294, 9.999379 
2.2649053e+3, 2.648409e+2, -653820.4, -449504.38, -9002.26, 0.074070655, 0.21732432, -449108.5, -104528.734, 0.0, 9.997683, 10.000381 
2.264875e+3, 2.7484083e+2, -603048.3, -386495.4, -11144.857, 0.033375658, 0.1736733, -385923.34, -139344.63, 0.0, 9.997412, 10.000272 
2.2648452e+3, 2.848412e+2, -577123.1, -292281.63, 11160.068, 0.02817638, 0.18163677, -291845.06, -143270.5, 0.0, 9.996783, 10.000548 
2.2648162e+3, 2.9484245e+2, -621482.4, -272663.28, 15793.396, 0.04008337, 0.2524559, -271949.66, -221385.52, 0.0, 9.995849, 10.000461 
2.2647864e+3, 3.0484226e+2, -599516.25, -148632.42, -20012.898, 0.05828787, 0.15712549, -147745.86, -147745.86, 0.0, 9.995284, 10.001249 
2.2647569e+3, 3.1484464e+2, -531834.9, 77558.03, 19189.244, 0.12206164, 0.2792039, 78161.69, 78161.69, 0.0, 9.99491, 10.002985 
2.2753268e+3, 1.2489359e+2, -1342127.3, -1786093.8, -1859.5581, 0.0026039255, 0.1713562, -1342119.5, 373941.34, 0.3416259, 10.005375, 9.996922 
2.2752966e+3, 1.3489145e+2, -1148726.4, -1617989.3, 30518.861, -0.10483412, 0.22293395, -1146749.9, 471331.88, 0.24939035, 10.005583, 9.997309 
2.2752671e+3, 1.4488809e+2, -1023633.8, -1507962.8, -11648.245, -0.058496088, 0.15077905, -1023353.8, 496760.8, 0.1550801, 10.005186, 9.997591 
2.275237e+3, 1.5488586e+2, -1023778.6, -1496880.4, -11099.132, 0.013453657, 0.17548236, -1023518.4, 398618.4, 0.07727177, 10.004176, 9.997467 
2.2752067e+3, 1.6488367e+2, -964656.25, -1375379.0, 14609.671, 0.029613195, 0.19360968, -964137.25, 360021.03, 0.028350074, 10.003522, 9.997943 
2.2751765e+3, 1.7488162e+2, -904370.0, -1310172.1, 10785.78, -0.010757083, 0.19851063, -904083.5, 322094.38, 0.00638387, 10.003251, 9.9978485 
2.2751462e+3, 1.8487944e+2, -835768.4, -1177559.3, 791.3246, -0.007763473, 0.18119633, -835766.5, 292431.88, 0.00050285814, 10.002822, 9.998293 
2.2751161e+3, 1.9487725e+2, -832118.56, -1136440.3, 2168.607, 0.03939431, 0.13873763, -832103.06, 198115.16, 0.00000031187102, 10.002222, 9.998193 
2.2750859e+3, 2.0487545e+2, -814974.56, -1052445.5, -7795.758, 0.06172217, 0.13656463, -814718.94, 117517.28, 0.0, 10.001559, 9.998414 
2.2750553e+3, 2.148742e+2, -829168.75, -1019500.6, -17534.6, 0.0585089, 0.17273873, -827566.8, 6683.8516, 0.0, 10.000837, 9.998316 
2.275025e+3, 2.2487305e+2, -743173.2, -819984.6, -12867.846, 0.051004197, 0.18822825, -741074.8, -4812.7324, 0.0, 10.000294, 9.999273 
2.2749944e+3, 2.3487218e+2, -703117.06, -759868.4, -7808.051, 0.03995665, 0.17691512, -702062.4, -63793.48, 0.0, 9.999937, 9.999186 
2.2749639e+3, 2.4487129e+2, -694211.75, -693051.4, -27697.398, 0.051422853, 0.17235038, -665928.06, -125650.0, 0.0, 9.999276, 9.9992895 
2.2749336e+3, 2.5487056e+2, -746343.2, -679812.06, -34856.387, 0.082463756, 0.17460217, -664895.0, -222606.92, 0.0, 9.998299, 9.999179 
2.2749028e+3, 2.6487043e+2, -661594.56, -466648.38, -20797.088, 0.066618055, 0.19928011, -464454.4, -120164.375, 0.0, 9.9976845, 10.000264 
2.274872e+3, 2.7487102e+2, -608577.8, -401981.4, -24001.027, 0.011404693, 0.23612796, -399229.78, -152947.06, 0.0, 9.997426, 10.00016 
2.2748421e+3, 2.8487098e+2, -563776.3, -267545.4, -26968.955, 0.022772409, 0.19408087, -265110.16, -116827.4, 0.0, 9.996793, 10.000715 
2.2748123e+3, 2.9487062e+2, -608198.7, -244562.13, -19468.963, 0.07483119, 0.088771544, -243522.73, -193236.23, 0.0, 9.995843, 10.000658 
2.2747819e+3, 3.0487287e+2, -613303.9, -177412.4, -32768.926, 0.083280146, 0.23684959, -174962.7, -174962.7, 0.0, 9.995281, 10.001055 
2.2747509e+3, 3.1487426e+2, -554850.6, 25569.842, 7143.1147, 0.06522599, 0.28099298, 25657.738, 25657.738, 0.0, 9.994927, 10.002621 
2.2853325e+3, 1.2492425e+2, -1268040.0, -1743123.9, 9387.881, -0.0224506, 0.17622215, -1267854.5, 447905.0, 0.34400985, 10.006219, 9.996809 
2.285302e+3, 1.3492198e+2, -1189183.9, -1632472.9, 46966.45, -0.10417805, 0.20582971, -1184262.4, 433519.06, 0.25115943, 10.005171, 9.997414 
2.2852722e+3, 1.4491872e+2, -1107758.4, -1546695.3, 3800.5657, -0.042046566, 0.13564456, -1107725.5, 412088.16, 0.15622199, 10.004481, 9.997648 
2.2852412e+3, 1.5491675e+2, -1015464.1, -1485744.0, -1452.181, 0.00671502, 0.17984968, -1015459.6, 406374.22, 0.07787895, 10.004214, 9.997522 
2.2852105e+3, 1.6491458e+2, -923281.56, -1349738.5, 32754.822, 0.016824866, 0.19588067, -920780.44, 403074.56, 0.0285981, 10.003798, 9.997985 
2.2851796e+3, 1.7491233e+2, -907007.56, -1306542.5, 37099.605, -0.01129869, 0.17783244, -903591.8, 322283.9, 0.006458756, 10.003216, 9.9978895 
2.285149e+3, 1.8491015e+2, -871549.06, -1199635.8, 19851.164, -0.0020950118, 0.16001444, -870352.4, 257544.0, 0.00051549356, 10.002601, 9.998246 
2.2851184e+3, 1.9490814e+2, -873493.0, -1160627.0, 12132.229, 0.044637077, 0.14016096, -872981.3, 156933.97, 0.00000027835299, 10.00196, 9.99815 
2.2850874e+3, 2.0490634e+2, -825536.94, -1055991.4, 11623.043, 0.06359175, 0.14069559, -824952.25, 106980.94, 0.0, 10.001484, 9.998425 
2.2850564e+3, 2.149049e+2, -779257.1, -994391.94, 20306.336, 0.05362493, 0.15927424, -777357.25, 56591.3, 0.0, 10.001178, 9.9983225 
2.2850254e+3, 2.2490366e+2, -710370.8, -817991.7, 21310.418, 0.05018881, 0.1698907, -706304.7, 29656.238, 0.0, 10.00058, 9.999148 
2.2849944e+3, 2.3490275e+2, -749954.5, -795927.5, 6637.3257, 0.056229834, 0.16775545, -749015.4, -111046.67, 0.0, 9.999678, 9.999062 
2.2849631e+3, 2.449018e+2, -730834.5, -713819.7, -18059.473, 0.064783566, 0.16668351, -702364.1, -162385.63, 0.0, 9.999041, 9.999259 
2.2849318e+3, 2.5490102e+2, -694284.4, -656616.7, -11629.658, 0.071679175, 0.16572188, -653315.44, -211326.69, 0.0, 9.998667, 9.999159 
2.2849007e+3, 2.6490086e+2, -613000.25, -455121.9, 15395.293, 0.055914868, 0.19104147, -453634.66, -109643.37, 0.0, 9.998072, 10.000155 
2.2848697e+3, 2.749014e+2, -641585.44, -430010.5, 11761.51, 0.029504215, 0.23522691, -429358.7, -183373.77, 0.0, 9.997253, 10.000051 
2.2848389e+3, 2.8490123e+2, -588860.4, -268186.94, -2079.9158, 0.03904562, 0.18686222, -268173.47, -120187.836, 0.0, 9.996574, 10.000815 
2.2848079e+3, 2.949007e+2, -581591.25, -221371.66, -1009.13367, 0.05208665, 0.054206505, -221368.83, -171378.5, 0.0, 9.995983, 10.000749 
2.2847773e+3, 3.0490366e+2, -610657.2, -206709.6, -7338.1616, 0.10068049, 0.28105128, -206576.33, -206576.33, 0.0, 9.995434, 10.000779 
2.284746e+3, 3.149028e+2, -544179.94, 4981.186, 29301.82, 0.058643818, 0.12463998, 6540.2295, 6540.2295, 0.0, 9.995118, 10.002383 
2.2953379e+3, 1.24955274e+2, -1268213.8, -1734270.9, -9921.366, -0.09264106, 0.18631849, -1268002.6, 447452.06, 0.34566063, 10.006193, 9.9968815 
2.2953077e+3, 1.3495287e+2, -1177246.6, -1596681.1, 17216.74, -0.06477128, 0.17094111, -1176541.1, 440936.63, 0.2524366, 10.005144, 9.997708 
2.2952771e+3, 1.4494988e+2, -1112455.0, -1555526.9, -5179.183, 0.015654849, 0.1176447, -1112394.5, 407112.78, 0.15708643, 10.004469, 9.997595 
2.2952451e+3, 1.5494826e+2, -1018768.2, -1493110.4, -9917.208, -0.02310577, 0.20083356, -1018560.94, 402964.25, 0.07836155, 10.004212, 9.997475 
2.2952136e+3, 1.6494606e+2, -913864.44, -1329945.0, 12662.048, -0.025492772, 0.20976914, -913479.5, 410066.94, 0.028804332, 10.003797, 9.998122 
2.2951828e+3, 1.7494343e+2, -897757.4, -1286774.1, 16243.284, 0.010344021, 0.14096816, -897080.3, 328489.2, 0.006525448, 10.003211, 9.998029 
2.2951518e+3, 1.8494126e+2, -883329.2, -1224019.3, -3399.0803, 0.031056145, 0.12689745, -883295.25, 244294.88, 0.0005282491, 10.002597, 9.998082 
2.29512e+3, 1.9493969e+2, -884020.44, -1183687.8, -10065.647, 0.03525278, 0.16448908, -883682.75, 145924.06, 0.0000002503307, 10.001963, 9.9979925 
2.2950886e+3, 2.0493802e+2, -807461.06, -1020243.4, 1869.0831, 0.040034264, 0.17322268, -807444.7, 124178.55, 0.0, 10.00149, 9.998669 
2.2950573e+3, 2.149364e+2, -761025.25, -957656.0, 10672.209, 0.04498011, 0.14923862, -760447.7, 73190.336, 0.0, 10.001179, 9.998576 
2.2950259e+3, 2.2493492e+2, -737864.5, -875824.75, -11308.937, 0.056340847, 0.14383276, -736943.6, -1290.9745, 0.0, 10.000581, 9.998753 
2.2949941e+3, 2.3493373e+2, -777578.1, -854824.8, -26797.32, 0.07704142, 0.15346402, -769192.4, -131526.72, 0.0, 9.9996805, 9.998657 
2.2949624e+3, 2.4493285e+2, -720651.5, -693970.06, -32944.44, 0.074285224, 0.17186408, -671767.7, -132092.44, 0.0, 9.999044, 9.999394 
2.2949302e+3, 2.5493243e+2, -681625.6, -633073.6, -26626.291, 0.04106685, 0.19458291, -621317.94, -179637.77, 0.0, 9.998675, 9.999318 
2.2948985e+3, 2.64932e+2, -619041.0, -470327.16, -16847.475, 0.040470093, 0.1923055, -468442.4, -124757.87, 0.0, 9.99808, 10.000049 
2.2948675e+3, 2.7493173e+2, -648145.3, -445712.4, -19683.47, 0.08853055, 0.16454282, -443816.25, -198129.3, 0.0, 9.997259, 9.999941 
2.2948357e+3, 2.84932e+2, -588358.75, -267398.66, -26064.305, 0.07836369, 0.16005354, -265295.8, -117611.695, 0.0, 9.9965725, 10.000823 
2.294803e+3, 2.9493287e+2, -584681.4, -228935.98, -27102.287, -0.033889905, 0.16758627, -226883.05, -177208.08, 0.0, 9.995986, 10.000697 
2.2947727e+3, 3.049343e+2, -634730.7, -259156.5, -24959.773, 0.10531366, 0.26753312, -257505.0, -257505.0, 0.0, 9.99544, 10.000419 
2.2947417e+3, 3.149327e+2, -536376.25, 16212.44, 4452.9575, 0.10971108, 0.0632728, 16248.321, 16248.321, 0.0, 9.995137, 10.002452 
2.3053437e+3, 1.2498665e+2, -1285658.8, -1747910.1, 4250.1235, -0.112132505, 0.15836164, -1285619.6, 429526.4, 0.34650284, 10.006017, 9.996875 
2.3053125e+3, 1.3498454e+2, -1194048.4, -1591354.5, 17400.363, -0.057447895, 0.16118257, -1193287.8, 423878.53, 0.25315005, 10.004918, 9.997864 
2.3052815e+3, 1.44982e+2, -1133469.9, -1560875.8, 22076.98, 0.027972402, 0.1385298, -1132332.5, 386859.3, 0.15760738, 10.004276, 9.997649 
2.3052493e+3, 1.549801e+2, -1026893.94, -1490828.3, 26153.098, -0.031850845, 0.18963143, -1025424.3, 395787.78, 0.07867093, 10.004128, 9.997529 
2.3052172e+3, 1.6497782e+2, -930718.2, -1340416.3, 31168.129, -0.036015406, 0.1898453, -928360.6, 394873.53, 0.028945867, 10.003691, 9.998099 
2.3051861e+3, 1.7497532e+2, -935169.8, -1306433.8, 22967.63, 0.016129294, 0.13684192, -933754.4, 291502.2, 0.0065782, 10.002963, 9.998011 
2.3051544e+3, 1.8497325e+2, -894013.75, -1220836.3, 14434.538, 0.037869215, 0.12962393, -893377.5, 233898.94, 0.00054095313, 10.002493, 9.998152 
2.305122e+3, 1.9497173e+2, -832875.06, -1150892.9, 22859.389, 0.027771316, 0.16589797, -831240.3, 198051.98, 0.00000026008487, 10.002282, 9.998061 
2.3050903e+3, 2.0497003e+2, -768370.3, -1001720.75, 27958.043, 0.033719942, 0.17085002, -765067.4, 166241.23, 0.0, 10.001761, 9.998663 
2.3050585e+3, 2.1496835e+2, -797824.75, -974755.2, 17708.283, 0.056636058, 0.14021024, -796069.75, 37254.195, 0.0, 10.000928, 9.998577 
2.3050264e+3, 2.2496685e+2, -782506.3, -904606.3, -4227.395, 0.0703087, 0.13674898, -782360.1, -47021.16, 0.0, 10.000309, 9.998684 
2.3049939e+3, 2.3496571e+2, -750113.7, -849239.5, 5723.1123, 0.0773772, 0.15871021, -749784.4, -112432.305, 0.0, 9.999905, 9.998587 
2.3049614e+3, 2.4496478e+2, -671778.2, -670552.9, 12963.519, 0.06967221, 0.17672235, -658187.56, -118825.43, 0.0, 9.999381, 9.999392 
2.3049287e+3, 2.5496423e+2, -675372.56, -630018.3, 7641.8086, 0.042156592, 0.1864104, -628765.4, -187397.73, 0.0, 9.99872, 9.999316 
2.3048964e+3, 2.6496372e+2, -631728.7, -481784.97, 3679.645, 0.04939371, 0.17862454, -481694.72, -138321.97, 0.0, 9.998018, 9.999998 
2.3048647e+3, 2.749634e+2, -646380.25, -449625.9, 6154.319, 0.10693786, 0.15207207, -449433.6, -204057.47, 0.0, 9.997294, 9.999896 
2.3048323e+3, 2.849638e+2, -573017.44, -265177.8, 7454.8926, 0.08259556, 0.16495767, -264997.38, -117625.07, 0.0, 9.996702, 10.000774 
2.3047985e+3, 2.9496494e+2, -565332.8, -227885.84, -1154.9235, -0.061512075, 0.20695859, -227881.89, -178521.61, 0.0, 9.996155, 10.000622 
2.3047686e+3, 3.049654e+2, -629905.94, -268898.75, 16046.415, 0.14580616, 0.21813367, -268186.9, -268186.9, 0.0, 9.995524, 10.00031 
2.3047364e+3, 3.149642e+2, -543082.9, 29775.816, 31689.133, 0.075547814, 0.062254254, 31523.45, 31523.45, 0.0, 9.995026, 10.002596 
2.3153499e+3, 1.2501821e+2, -1291571.0, -1757442.5, -17350.053, -0.093328744, 0.08394804, -1290925.8, 423909.22, 0.3463785, 10.005974, 9.996832 
2.3153171e+3, 1.3501702e+2, -1192530.5, -1587992.8, -13237.495, -0.08394485, 0.1754013, -1192087.9, 424759.56, 0.25317413, 10.004916, 9.997895 
2.3152854e+3, 1.4501497e+2, -1124073.1, -1541936.3, 17180.299, -0.0033306791, 0.19374678, -1123368.0, 395500.1, 0.15769148, 10.004291, 9.997773 
2.3152535e+3, 1.5501222e+2, -1019196.44, -1472488.8, 21596.727, -0.02141747, 0.14922409, -1018169.8, 402725.06, 0.07874626, 10.004122, 9.99766 
2.3152211e+3, 1.6500983e+2, -944195.9, -1367398.8, 5338.9077, -0.01821369, 0.13965814, -944128.56, 378789.94, 0.028991947, 10.00368, 9.997921 
2.315189e+3, 1.7500792e+2, -947190.4, -1332518.5, -2952.899, 0.006059632, 0.16198345, -947167.75, 277769.8, 0.00660685, 10.002964, 9.997833 
2.3151565e+3, 1.8500598e+2, -874517.0, -1182408.3, 7825.024, 0.018938992, 0.1645814, -874318.25, 252637.8, 0.000552297, 10.002499, 9.998414 
2.3151243e+3, 1.9500417e+2, -814407.06, -1113039.6, 16227.235, 0.02051413, 0.1460677, -813527.9, 215444.61, 0.0000003305962, 10.002281, 9.998323 
2.3150921e+3, 2.0500235e+2, -786237.8, -1038846.75, -2193.909, 0.043500364, 0.1365918, -786218.75, 144771.3, 0.0, 10.00176, 9.99841 
2.3150596e+3, 2.1500066e+2, -815323.4, -1011431.75, -11859.496, 0.08766344, 0.13032421, -814608.75, 18398.668, 0.0, 10.000927, 9.998327 
2.3150268e+3, 2.2499935e+2, -764932.56, -869139.5, -17933.193, 0.091196135, 0.14722423, -761932.75, -26911.936, 0.0, 10.000311, 9.998928 
2.3149936e+3, 2.3499861e+2, -731435.5, -812228.06, -8627.348, 0.05478468, 0.18369153, -730524.56, -93495.59, 0.0, 9.999909, 9.998839 
2.3149605e+3, 2.4499753e+2, -682048.75, -693807.8, -12378.897, 0.0500125, 0.18129379, -674224.06, -135184.03, 0.0, 9.999387, 9.99923 
2.3149277e+3, 2.549963e+2, -686060.5, -654967.4, -18711.674, 0.07496788, 0.13958682, -646186.56, -205134.22, 0.0, 9.998729, 9.999142 
2.3148948e+3, 2.6499587e+2, -631429.1, -482328.66, -25825.494, 0.08311374, 0.15008041, -477982.16, -134925.19, 0.0, 9.998021, 9.999995 
2.3148619e+3, 2.7499637e+2, -645049.3, -447488.2, -21266.895, 0.07897555, 0.2030131, -445224.78, -200171.77, 0.0, 9.997294, 9.999912 
2.3148286e+3, 2.8499654e+2, -579570.0, -280334.28, -13796.953, 0.047868907, 0.20233148, -279699.47, -132648.38, 0.0, 9.996706, 10.00067 
2.3147951e+3, 2.9499677e+2, -569668.2, -241766.3, -25158.777, -0.024475189, 0.15973364, -239847.19, -190798.88, 0.0, 9.996172, 10.000521 
2.3147649e+3, 3.0499688e+2, -621552.8, -253694.67, -9220.117, 0.22337468, 0.13764162, -253463.73, -253463.73, 0.0, 9.995531, 10.000414 
2.3147307e+3, 3.1499758e+2, -513082.28, 94208.445, -34669.363, 0.030196432, 0.16632734, 96181.26, 96181.26, 0.0, 9.995012, 10.003047 
2.3253554e+3, 1.2505116e+2, -1353123.1, -1793387.5, 1218.6088, -0.09494298, 0.09710203, -1353119.8, 361391.84, 0.34501883, 10.005277, 9.996918 
2.325322e+3, 1.3504952e+2, -1146851.9, -1563265.1, 473.83862, -0.098688625, 0.13953309, -1146851.4, 469676.63, 0.25230435, 10.005313, 9.997931 
2.3252898e+3, 1.450477e+2, -1053862.4, -1496558.5, 28183.906, -0.019164402, 0.17780907, -1052075.3, 466470.38, 0.15720296, 10.004824, 9.997853 
2.3252574e+3, 1.5504499e+2, -1050155.6, -1478509.3, 29911.627, -0.015702171, 0.12715654, -1048077.06, 372494.75, 0.07850983, 10.003851, 9.997746 
2.3252246e+3, 1.6504262e+2, -1001590.0, -1399718.0, 22246.893, -0.008957658, 0.11908451, -1000350.75, 322244.56, 0.028905144, 10.003296, 9.997882 
2.325192e+3, 1.750408e+2, -922956.8, -1324005.3, 23330.705, 0.0011520928, 0.15333892, -921604.1, 303010.2, 0.006598296, 10.003151, 9.997799 
2.3251592e+3, 1.8503888e+2, -839662.7, -1159183.0, 29843.117, 0.012820456, 0.1567879, -836899.25, 289733.7, 0.0005600253, 10.002714, 9.998467 
2.3251265e+3, 1.9503699e+2, -852822.1, -1124615.0, 22550.504, 0.026061146, 0.12698385, -850963.8, 177685.69, 0.000000474156, 10.001991, 9.998381 
2.3250934e+3, 2.050352e+2, -837414.75, -1064376.6, -654.1943, 0.0478933, 0.11828649, -837412.9, 93254.04, 0.0, 10.001415, 9.998399 
2.3250605e+3, 2.1503365e+2, -807585.8, -1008392.94, 6075.3457, 0.07854169, 0.12720847, -807402.1, 25281.496, 0.0, 10.000986, 9.998318 
2.3250271e+3, 2.250324e+2, -731494.06, -845061.94, 8651.326, 0.08332648, 0.14696112, -730838.8, 3857.8203, 0.0, 10.000507, 9.998997 
2.3249936e+3, 2.3503162e+2, -717819.2, -796904.5, 5178.5156, 0.06363379, 0.17315222, -717481.5, -80776.98, 0.0, 9.999969, 9.998915 
2.32496e+3, 2.4503054e+2, -687136.06, -696596.7, -5946.7246, 0.06023095, 0.16720197, -684267.75, -145552.25, 0.0, 9.999357, 9.999224 
2.3249266e+3, 2.5502935e+2, -694684.3, -660163.2, -171.6099, 0.074910656, 0.13076113, -660162.3, -219434.72, 0.0, 9.998678, 9.999129 
2.3248929e+3, 2.6502895e+2, -622895.1, -482093.75, -651.678, 0.084186204, 0.14791292, -482090.75, -139358.72, 0.0, 9.998099, 9.999957 
2.3248592e+3, 2.7502942e+2, -608871.2, -434306.1, -272.0714, 0.086717375, 0.20349512, -434305.7, -189577.38, 0.0, 9.997563, 9.999871 
2.3248254e+3, 2.8502947e+2, -563574.25, -273822.22, 6285.8228, 0.052035753, 0.19047724, -273685.94, -126957.94, 0.0, 9.996824, 10.000656 
2.3247913e+3, 2.9502958e+2, -596594.44, -252801.2, 1248.953, -0.014433938, 0.13807222, -252796.66, -204070.25, 0.0, 9.995985, 10.000532 
2.3247606e+3, 3.0503e+2, -597255.3, -222625.83, 36761.637, 0.2239485, 0.13605624, -219052.56, -219052.56, 0.0, 9.995617, 10.000584 
2.3247258e+3, 3.1503174e+2, -478742.88, 87178.32, -27952.066, 0.02802641, 0.25600824, 88555.58, 88555.58, 0.0, 9.99535, 10.002836 
2.3353603e+3, 1.2508512e+2, -1344906.4, -1770677.8, 7407.7036, -0.12172651, 0.16329986, -1344777.5, 369401.8, 0.3421129, 10.005269, 9.997078 
2.3353274e+3, 1.3508205e+2, -1146492.3, -1560995.5, 1896.8336, -0.10405877, 0.058834236, -1146483.5, 469724.0, 0.25029787, 10.005291, 9.99796 
2.3352946e+3, 1.4508028e+2, -1053446.1, -1495336.1, -2894.9346, -0.022472277, 0.09966675, -1053427.3, 464796.88, 0.15598547, 10.00481, 9.997871 
2.3352613e+3, 1.550783e+2, -1047321.0, -1474482.0, -3742.0996, -0.0160626, 0.12189012, -1047288.25, 372955.2, 0.077880055, 10.003855, 9.997773 
2.3352277e+3, 1.6507612e+2, -994899.25, -1388357.5, 17901.637, -0.0088357385, 0.12527065, -994086.44, 328178.8, 0.028650574, 10.0033045, 9.997956 
2.3351948e+3, 1.750739e+2, -917314.0, -1312749.1, 19166.027, 0.00014854058, 0.114374004, -916387.2, 307900.22, 0.006540823, 10.00315, 9.997878 
2.3351619e+3, 1.8507189e+2, -850600.0, -1181662.8, 3753.8953, 0.018230889, 0.11005546, -850557.5, 275749.94, 0.0005615798, 10.00271, 9.998317 
2.3351286e+3, 1.9507012e+2, -863147.06, -1146498.5, -2963.824, 0.043339845, 0.10605694, -863116.06, 165208.11, 0.0000006857514, 10.00199, 9.998233 
2.335095e+3, 2.0506851e+2, -822472.8, -1034685.56, -15202.059, 0.045996286, 0.11382881, -821389.3, 108950.695, 0.0, 10.001418, 9.998603 
2.335061e+3, 2.1506725e+2, -792818.06, -978943.25, -7785.251, 0.027568512, 0.13130547, -792493.0, 39860.457, 0.0, 10.000988, 9.998521 
2.3350273e+3, 2.2506592e+2, -738707.8, -861363.0, -10520.115, 0.046846017, 0.1373061, -737812.06, -3444.8904, 0.0, 10.000511, 9.998884 
2.334994e+3, 2.3506466e+2, -724696.5, -812848.75, -14947.696, 0.103290536, 0.12630534, -722230.8, -85850.84, 0.0, 9.999972, 9.998804 
2.3349597e+3, 2.4506372e+2, -676541.44, -675959.25, -32529.31, 0.09970556, 0.13394034, -643719.75, -105330.12, 0.0, 9.999361, 9.999366 
2.3349248e+3, 2.550633e+2, -683945.1, -639373.4, -26019.758, 0.0379225, 0.16144979, -627400.1, -187005.86, 0.0, 9.998682, 9.999271 
2.3348907e+3, 2.650629e+2, -628296.7, -494692.44, -22130.436, 0.05068873, 0.17263407, -491122.13, -148723.22, 0.0, 9.998102, 9.99987 
2.3348571e+3, 2.750625e+2, -614038.06, -448804.84, -23772.393, 0.13224964, 0.15010872, -445452.7, -201049.31, 0.0, 9.997577, 9.999767 
2.3348226e+3, 2.8506237e+2, -559606.0, -267958.78, -28644.896, 0.09644644, 0.1257828, -265171.97, -118767.49, 0.0, 9.996832, 10.000694 
2.3347868e+3, 2.950632e+2, -589409.25, -237672.6, -28491.59, -0.04003885, 0.14362568, -235379.66, -186983.81, 0.0, 9.99598, 10.00064 
2.334755e+3, 3.050647e+2, -576196.3, -179571.13, 30453.205, 0.14210494, 0.22508696, -177246.53, -177246.53, 0.0, 9.995617, 10.000881 
2.3347214e+3, 3.1506482e+2, -576706.94, -121495.98, -63828.418, 0.042299725, 0.16064297, -112715.49, -112715.49, 0.0, 9.995368, 10.001396 
2.3453662e+3, 1.2511906e+2, -1283770.5, -1701374.9, 24707.854, -0.09872217, 0.17601603, -1282313.8, 431533.1, 0.33743718, 10.005731, 9.997373 
2.3453322e+3, 1.351159e+2, -1186125.1, -1572428.4, 21098.43, -0.10015429, 0.0531953, -1184976.3, 430898.34, 0.24696977, 10.004863, 9.998058 
2.3452991e+3, 1.4511418e+2, -1118108.1, -1537289.6, 13666.672, -0.035305515, 0.097579114, -1117663.0, 400227.34, 0.15391964, 10.00432, 9.9977865 
2.3452649e+3, 1.5511192e+2, -1017764.4, -1467719.8, 6032.8164, -0.02336141, 0.09877437, -1017683.5, 402229.7, 0.07679878, 10.004112, 9.997693 
2.3452312e+3, 1.6510972e+2, -932548.25, -1338781.1, 32450.607, -0.009729378, 0.09844279, -929972.4, 391962.5, 0.028206153, 10.003667, 9.998121 
2.345198e+3, 1.7510782e+2, -928744.8, -1300000.9, 39176.25, 0.005798525, 0.100096494, -924655.8, 299297.7, 0.006426766, 10.0029955, 9.998038 
2.3451643e+3, 1.8510586e+2, -892455.06, -1204065.8, 24643.352, 0.021200849, 0.09869989, -890518.25, 235454.39, 0.00055449124, 10.002437, 9.998293 
2.3451304e+3, 1.9510402e+2, -866144.44, -1149658.8, 25811.797, 0.035633318, 0.089040585, -863813.6, 164177.38, 0.0000009107791, 10.001982, 9.998214 
2.3450962e+3, 2.0510247e+2, -801226.94, -1011837.3, 19447.354, 0.035554968, 0.098176286, -799446.25, 130560.32, 0.0, 10.001513, 9.998713 
2.3450617e+3, 2.1510139e+2, -779835.94, -959819.1, 19079.34, 0.022534413, 0.12443318, -777835.7, 54182.15, 0.0, 10.001025, 9.998632 
2.3450276e+3, 2.2510011e+2, -745961.0, -864450.56, 12866.798, 0.04373668, 0.13036242, -744579.9, -10548.892, 0.0, 10.000463, 9.998885 
2.3449937e+3, 2.3509876e+2, -745555.9, -822207.94, 17306.668, 0.10030531, 0.11179867, -741829.5, -105784.664, 0.0, 9.99983, 9.998807 
2.344959e+3, 2.4509785e+2, -678314.9, -676065.75, 2001.7847, 0.09814907, 0.11941047, -674894.3, -136839.66, 0.0, 9.999348, 9.99937 
2.3449236e+3, 2.5509748e+2, -638057.6, -615312.9, -1765.493, 0.039758775, 0.15367965, -615176.6, -175117.94, 0.0, 9.998991, 9.999286 
2.3448886e+3, 2.6509714e+2, -588181.8, -469349.44, -4482.0703, 0.050907817, 0.16657174, -469180.63, -127117.81, 0.0, 9.998356, 9.999921 
2.3448545e+3, 2.7509677e+2, -628645.0, -448406.94, 3224.1228, 0.1288453, 0.14293179, -448349.28, -204282.53, 0.0, 9.997449, 9.999829 
2.3448193e+3, 2.8509665e+2, -558434.8, -268231.06, 8213.297, 0.0952756, 0.117776275, -267998.78, -121931.01, 0.0, 9.996846, 10.000684 
2.3447832e+3, 2.950974e+2, -519235.34, -211881.92, 5590.491, -0.035738416, 0.12880608, -211780.27, -163719.9, 0.0, 9.996499, 10.0005665 
2.3447508e+3, 3.0509925e+2, -532017.7, -150146.16, 47170.42, 0.123629145, 0.24702822, -144405.75, -144405.75, 0.0, 9.99589, 10.00095 
2.3447171e+3, 3.1509915e+2, -616045.44, -123011.94, -47716.305, 0.096910425, 0.15094161, -118436.37, -118436.37, 0.0, 9.995031, 10.001544 
2.3553723e+3, 1.251529e+2, -1261744.9, -1661745.4, 5366.2373, -0.040786646, 0.13010728, -1261672.9, 451842.34, 0.3309947, 10.005715, 9.997784 
2.3553371e+3, 1.35151e+2, -1174412.6, -1552698.5, -2908.2852, -0.090608336, 0.11378625, -1174390.3, 441139.88, 0.24230331, 10.004858, 9.998236 
2.355303e+3, 1.4514929e+2, -1128548.5, -1568466.3, 7223.62, -0.05744006, 0.16260858, -1128429.9, 389115.72, 0.15098815, 10.004327, 9.997572 
2.3552687e+3, 1.5514578e+2, -1030380.8, -1497078.3, -348.89383, -0.037527125, 0.05909456, -1030380.56, 389200.63, 0.075257204, 10.004107, 9.997496 
2.3552349e+3, 1.6514345e+2, -917577.4, -1306691.9, 9049.88, -0.012491126, 0.0422394, -917367.0, 404237.06, 0.027568057, 10.003659, 9.998349 
2.355201e+3, 1.7514239e+2, -913301.6, -1268125.6, 15385.975, 0.016337514, 0.10784849, -912635.7, 310977.63, 0.0062531917, 10.002994, 9.998259 
2.3551667e+3, 1.8514073e+2, -886505.1, -1192888.8, 8620.285, 0.020823833, 0.1196942, -886262.75, 239366.72, 0.0005369736, 10.002439, 9.99837 
2.3551321e+3, 1.951386e+2, -860221.2, -1138315.5, 10173.633, 0.002793468, 0.076359615, -859849.5, 167801.33, 0.0000010540285, 10.001983, 9.998292 
2.3550974e+3, 2.05137e+2, -799998.9, -1010304.3, 2398.2615, 0.017093193, 0.073244885, -799971.56, 129695.79, 0.0, 10.001514, 9.998724 
2.3550633e+3, 2.1513599e+2, -779281.2, -958953.0, 2321.5212, 0.061368793, 0.10504486, -779251.2, 52426.656, 0.0, 10.001023, 9.998641 
2.3550284e+3, 2.2513491e+2, -738222.5, -849443.7, -9687.8955, 0.07208072, 0.1252097, -737384.94, -3695.7693, 0.0, 10.000464, 9.998988 
2.354993e+3, 2.351339e+2, -737688.2, -807822.8, -5901.43, 0.051546272, 0.13002492, -737195.06, -101495.17, 0.0, 9.999835, 9.998905 
2.3549578e+3, 2.451328e+2, -687463.4, -696942.1, -12019.609, 0.05487366, 0.12444634, -679282.5, -141571.16, 0.0, 9.999353, 9.999225 
2.3549229e+3, 2.551318e+2, -645213.4, -633500.7, -16553.094, 0.08001059, 0.10654434, -621798.5, -182076.48, 0.0, 9.999003, 9.999157 
2.3548874e+3, 2.6513156e+2, -574794.2, -443581.7, -40871.395, 0.08456336, 0.12826797, -431892.06, -90167.12, 0.0, 9.998363, 10.000095 
2.3548514e+3, 2.7513215e+2, -613368.0, -416828.4, -32009.527, 0.07193824, 0.18337788, -411746.56, -168027.19, 0.0, 9.997447, 10.000048 
2.3548156e+3, 2.851323e+2, -562411.44, -277006.7, -6153.557, 0.045420386, 0.17190224, -276874.1, -131155.75, 0.0, 9.996846, 10.000626 
2.35478e+3, 2.951321e+2, -535474.94, -251143.38, -8816.536, -0.001435943, 0.09840688, -250870.25, -203149.81, 0.0, 9.996519, 10.000289 
2.354747e+3, 3.0513322e+2, -546347.7, -183676.3, 12170.77, 0.17398196, 0.17706798, -183268.31, -183268.31, 0.0, 9.995903, 10.000714 
2.3547117e+3, 3.1513476e+2, -479261.56, 160523.61, -48229.95, 0.053085532, 0.2419862, 164138.97, 164138.97, 0.0, 9.995029, 10.003494 
2.3653781e+3, 1.2518784e+2, -1261273.3, -1665094.6, 31371.342, -0.036487892, 0.11110223, -1258850.6, 454320.66, 0.32303506, 10.005675, 9.997763 
2.3653425e+3, 1.3518584e+2, -1146819.1, -1559753.1, 662.2976, -0.062940255, 0.10693188, -1146818.1, 468370.13, 0.23647064, 10.005184, 9.998011 
2.3653077e+3, 1.4518414e+2, -1087689.1, -1533368.1, 16412.855, -0.04021085, 0.16260573, -1087085.5, 430118.5, 0.14728524, 10.00459, 9.9976845 
2.3652726e+3, 1.5518077e+2, -1046839.25, -1492997.3, 30135.486, -0.039640266, 0.0631179, -1044813.0, 374425.1, 0.073293716, 10.003927, 9.997609 
2.3652382e+3, 1.6517848e+2, -948365.75, -1310939.4, 42559.848, -0.022734122, 0.041031886, -943437.0, 377823.22, 0.026746433, 10.003397, 9.998442 
2.3652038e+3, 1.751774e+2, -908060.25, -1254289.4, 39424.324, 0.0072278343, 0.09357182, -903627.9, 319641.44, 0.006020617, 10.002985, 9.998356 
2.365169e+3, 1.8517582e+2, -874305.4, -1179934.5, 28340.445, 0.01373961, 0.10738577, -871699.6, 253584.92, 0.00050837, 10.002496, 9.99843 
2.3651338e+3, 1.9517393e+2, -863600.06, -1132936.3, 27435.125, -0.0011564341, 0.08161125, -860833.9, 166470.4, 0.0000010408802, 10.001932, 9.998352 
2.3650989e+3, 2.0517239e+2, -815676.94, -1008901.1, 20424.895, 0.017017236, 0.079075515, -813541.5, 115778.68, 0.0, 10.001371, 9.998801 
2.365064e+3, 2.151713e+2, -804919.5, -962019.2, 24422.596, 0.06723372, 0.09570771, -801210.4, 30120.777, 0.0, 10.000811, 9.998721 
2.3650289e+3, 2.2517027e+2, -748176.8, -853824.44, 14286.125, 0.073555976, 0.117264755, -746279.06, -12936.991, 0.0, 10.000398, 9.99899 
2.3649926e+3, 2.3516944e+2, -696219.0, -786535.5, 11101.3955, 0.040155876, 0.13956426, -694874.44, -59522.754, 0.0, 10.000118, 9.998914 
2.364957e+3, 2.451684e+2, -651396.8, -669729.1, 6032.3647, 0.04329162, 0.13496608, -649589.94, -112227.29, 0.0, 9.999562, 9.99931 
2.3649216e+3, 2.5516734e+2, -678510.7, -639324.25, 18494.816, 0.08042258, 0.103138074, -631973.94, -192600.63, 0.0, 9.998734, 9.999245 
2.3648855e+3, 2.6516703e+2, -605548.0, -461813.78, -7010.838, 0.08483893, 0.11719921, -461472.63, -120095.9, 0.0, 9.99817, 10.000061 
2.3648489e+3, 2.7516758e+2, -556776.8, -392729.63, -14206.567, 0.06590303, 0.17055431, -391508.44, -148136.39, 0.0, 9.997854, 10.000015 
2.3648125e+3, 2.851679e+2, -504656.1, -248893.48, 1598.1765, 0.04508302, 0.1791767, -248883.5, -103514.23, 0.0, 9.997247, 10.000623 
2.3647764e+3, 2.951681e+2, -569061.8, -266999.72, 2016.0754, 0.004329428, 0.1444081, -266986.28, -219618.8, 0.0, 9.996294, 10.000286 
2.3647429e+3, 3.051679e+2, -584144.9, -205268.67, 54421.414, 0.1960557, 0.09903141, -197606.58, -197606.58, 0.0, 9.995661, 10.000682 
2.3647061e+3, 3.1516892e+2, -425952.56, 150897.92, 6287.0806, -0.01485588, 0.10806918, 150966.44, 150966.44, 0.0, 9.995551, 10.003176 
2.3753832e+3, 1.2522379e+2, -1279230.6, -1714098.8, 19141.434, -0.0813263, 0.110586055, -1278389.8, 434426.66, 0.31395474, 10.005671, 9.997274 
2.3753479e+3, 1.3522048e+2, -1179056.0, -1634815.9, -12843.338, -0.024164826, 0.042016074, -1178694.4, 436153.78, 0.22975439, 10.005157, 9.997393 
2.3753124e+3, 1.452188e+2, -1062939.3, -1482486.3, -3875.5977, 0.007135848, 0.10881912, -1062903.4, 453961.3, 0.14297368, 10.004578, 9.99808 
2.3752768e+3, 1.5521681e+2, -1020524.44, -1437519.0, 8217.961, -0.031988185, 0.107432686, -1020362.56, 398522.16, 0.070980065, 10.003929, 9.99799 
2.3752415e+3, 1.6521472e+2, -950494.2, -1317024.1, 28400.623, -0.039568827, 0.08821513, -948306.6, 372597.94, 0.025765102, 10.003399, 9.9984 
2.3752065e+3, 1.7521276e+2, -911427.6, -1260637.8, 25220.795, -0.020375406, 0.057140183, -909615.5, 313306.47, 0.0057346774, 10.002979, 9.998317 
2.3751713e+3, 1.852111e+2, -873066.25, -1176773.5, 8420.37, -0.00004776944, 0.064903185, -872833.0, 252105.19, 0.00046961068, 10.002491, 9.998455 
2.375136e+3, 1.9520989e+2, -862502.7, -1130587.1, 7890.119, 0.0208579, 0.10344182, -862270.7, 164681.39, 0.00000087333115, 10.001929, 9.998371 
2.3751004e+3, 2.0520855e+2, -805535.5, -989074.25, 646.7546, 0.033336684, 0.113845594, -805533.25, 123432.8, 0.0, 10.001373, 9.998938 
2.3750645e+3, 2.1520726e+2, -795300.9, -943629.0, 5275.6704, 0.03823786, 0.09606804, -795113.44, 35865.04, 0.0, 10.000814, 9.998847 
2.3750289e+3, 2.2520614e+2, -754387.6, -868725.75, 4784.7915, 0.048495695, 0.10775006, -754187.75, -21197.143, 0.0, 10.000403, 9.998886 
2.3749931e+3, 2.352053e+2, -701894.56, -800262.2, 612.7061, 0.06530067, 0.13982603, -701890.75, -66889.59, 0.0, 10.000123, 9.998818 
2.3749568e+3, 2.4520451e+2, -629316.5, -625083.7, -26098.268, 0.0626677, 0.15068693, -601016.2, -64006.82, 0.0, 9.999565, 9.999616 
2.37492e+3, 2.5520402e+2, -657595.0, -597022.06, -13864.451, 0.037368204, 0.14559668, -593999.44, -154986.11, 0.0, 9.998736, 9.999536 
2.3748833e+3, 2.652035e+2, -623609.06, -500278.25, -20436.686, 0.05035909, 0.13483042, -496979.97, -155961.02, 0.0, 9.998171, 9.999799 
2.3748472e+3, 2.7520287e+2, -576231.94, -436767.3, -26452.826, 0.10999279, 0.10085965, -431918.47, -188892.31, 0.0, 9.997867, 9.999708 
2.3748103e+3, 2.852033e+2, -500801.6, -243580.58, -37028.453, 0.095364235, 0.13446993, -238356.23, -93333.89, 0.0, 9.997256, 10.000656 
2.3747724e+3, 2.9520527e+2, -550034.56, -226006.63, -39126.293, -0.017456723, 0.27076823, -221349.08, -174346.78, 0.0, 9.9962845, 10.000573 
2.3747383e+3, 3.052034e+2, -570881.4, -175228.42, 46147.383, 0.18290417, 0.019306326, -169917.28, -169917.28, 0.0, 9.995647, 10.000896 
2.3747021e+3, 3.1520385e+2, -552257.75, -116300.39, -2918.3135, 0.04177876, -0.015111524, -116280.85, -116280.85, 0.0, 9.995571, 10.001331 
2.3853889e+3, 1.2525998e+2, -1243348.4, -1695831.8, 18647.318, -0.07871131, 0.096994236, -1242581.3, 469879.38, 0.30417728, 10.00594, 9.997317 
2.385353e+3, 1.3525659e+2, -1192963.0, -1653057.3, 20148.438, -0.023989206, 0.025731897, -1192082.4, 422411.34, 0.22245242, 10.00503, 9.99733 
2.385317e+3, 1.452549e+2, -1078373.5, -1484669.4, 44529.723, 0.002734696, 0.09208669, -1073550.3, 442960.34, 0.1382295, 10.004408, 9.998139 
2.3852807e+3, 1.5525325e+2, -1002645.1, -1422244.8, 36823.883, -0.027335718, 0.11973406, -999438.0, 419089.3, 0.06840275, 10.004026, 9.998048 
2.3852448e+3, 1.6525121e+2, -936753.9, -1308529.5, 47712.08, -0.03466766, 0.10295097, -930728.4, 389818.22, 0.02466011, 10.003487, 9.998416 
2.3852092e+3, 1.7524901e+2, -934525.6, -1270093.4, 48299.754, -0.023671327, 0.04870826, -927711.94, 294854.3, 0.0054073776, 10.002814, 9.99833 
2.3851736e+3, 1.8524733e+2, -900756.2, -1180483.6, 37019.457, -0.0030848915, 0.046976, -895939.94, 228642.86, 0.00042333477, 10.002262, 9.998538 
2.385138e+3, 1.9524622e+2, -873639.25, -1126694.6, 39841.77, 0.027096964, 0.08815506, -867514.6, 159080.66, 0.00000061647575, 10.001817, 9.99845 
2.3851018e+3, 2.0524499e+2, -797236.2, -983359.2, 32119.514, 0.036434125, 0.10693172, -791849.2, 136758.98, 0.0, 10.001427, 9.99895 
2.3850654e+3, 2.1524385e+2, -755092.3, -922521.9, 26395.479, 0.026369914, 0.10350611, -751029.6, 79590.086, 0.0, 10.001086, 9.998859 
2.385029e+3, 2.2524273e+2, -733561.4, -847863.06, 25860.053, 0.03624042, 0.111548714, -727982.94, 4648.775, 0.0, 10.000503, 9.9989805 
2.384993e+3, 2.352418e+2, -758979.1, -817160.2, 36861.64, 0.06829156, 0.12563936, -741111.8, -106468.79, 0.0, 9.999688, 9.998911 
2.384956e+3, 2.4524117e+2, -680441.44, -639502.9, 9787.655, 0.063490115, 0.14213134, -637283.2, -100633.37, 0.0, 9.999173, 9.999704 
2.3849185e+3, 2.55241e+2, -624267.75, -571325.9, 5151.903, 0.021241378, 0.16181672, -570829.2, -132178.34, 0.0, 9.998928, 9.999618 
2.3848814e+3, 2.6524046e+2, -589213.9, -482007.06, 909.64795, 0.04017759, 0.14415057, -481999.34, -141342.7, 0.0, 9.998405, 9.999808 
2.384845e+3, 2.7523953e+2, -615886.5, -455626.47, 15516.529, 0.12852348, 0.0790049, -454137.97, -211471.47, 0.0, 9.997598, 9.999706 
2.3848076e+3, 2.8523993e+2, -532194.75, -269685.28, 10663.67, 0.12078634, 0.11743733, -269252.8, -124590.04, 0.0, 9.997092, 10.000553 
2.384769e+3, 2.9524204e+2, -465398.97, -191104.52, -5313.283, -0.0066518667, 0.2790166, -191001.63, -144360.03, 0.0, 9.996897, 10.000516 
2.3847339e+3, 3.0524012e+2, -491228.94, -140379.28, 47851.773, 0.14297955, 0.02457668, -133969.94, -133969.94, 0.0, 9.996211, 10.000863 
2.3846975e+3, 3.152438e+2, -580882.56, -37555.664, -20006.271, 0.05670733, 0.32298633, -36819.992, -36819.992, 0.0, 9.99498, 10.002155 
2.3953952e+3, 1.2529643e+2, -1211669.1, -1639451.9, -6021.7637, -0.04552434, 0.07177587, -1211584.4, 500519.44, 0.29409936, 10.005916, 9.997872 
2.3953576e+3, 1.3529399e+2, -1163997.5, -1594444.3, -4777.6494, -0.05827546, 0.04840997, -1163944.5, 450181.88, 0.21483824, 10.005037, 9.997763 
2.3953208e+3, 1.4529222e+2, -1090549.6, -1519143.3, 32836.457, -0.046604894, 0.10247406, -1088048.5, 428095.1, 0.13321795, 10.00442, 9.997868 
2.3952846e+3, 1.5529002e+2, -1019472.2, -1460649.0, 24216.004, -0.026983075, 0.10176272, -1018147.0, 400019.34, 0.06565076, 10.004017, 9.997789 
2.3952486e+3, 1.6528794e+2, -933742.94, -1301272.8, 24244.775, -0.012353768, 0.09026392, -932150.5, 388035.97, 0.02347387, 10.003475, 9.998473 
2.3952122e+3, 1.7528613e+2, -931388.1, -1263786.6, 24724.693, -0.0064248997, 0.068746254, -929559.1, 292643.6, 0.0050551225, 10.002812, 9.998375 
2.3951758e+3, 1.8528438e+2, -891037.4, -1161577.4, 21329.86, 0.003139462, 0.051828116, -889366.0, 234853.3, 0.00037348678, 10.002265, 9.998668 
2.3951393e+3, 1.9528282e+2, -864766.4, -1109175.4, 24525.248, 0.017363826, 0.035684824, -862329.7, 163905.1, 0.00000034817865, 10.001818, 9.998571 
2.395103e+3, 2.0528166e+2, -805272.9, -1001176.3, 20493.06, 0.026681667, 0.060598243, -803152.1, 125095.08, 0.0, 10.001429, 9.998828 
2.3950665e+3, 2.15281e+2, -763160.3, -939646.2, 15037.873, 0.030260116, 0.11729542, -761888.1, 68367.43, 0.0, 10.001084, 9.998744 
2.3950295e+3, 2.2528e+2, -713449.8, -806815.44, -3599.663, 0.035801776, 0.127913, -713311.25, 18955.201, 0.0, 10.000504, 9.999263 
2.3949924e+3, 2.3527889e+2, -739803.0, -778787.44, 6764.685, 0.04551324, 0.09739267, -738662.56, -104384.53, 0.0, 9.999692, 9.999174 
2.394955e+3, 2.4527827e+2, -689948.0, -660844.8, -435.1238, 0.044871908, 0.10956622, -660838.3, -124553.41, 0.0, 9.999177, 9.9995575 
2.3949175e+3, 2.5527817e+2, -632972.1, -592072.4, -5430.496, 0.03114282, 0.1504052, -591363.6, -153076.75, 0.0, 9.998937, 9.999473 
2.3948799e+3, 2.652778e+2, -568949.75, -441253.06, -31514.105, 0.05406137, 0.14500348, -433899.22, -93608.516, 0.0, 9.998408, 10.000088 
2.3948424e+3, 2.752775e+2, -594410.25, -410953.0, -16775.012, 0.11935493, 0.1117911, -409431.75, -167138.58, 0.0, 9.997596, 10.000015 
2.3948047e+3, 2.8527772e+2, -552363.56, -311560.97, 1721.5767, 0.12073268, 0.1295164, -311548.66, -167257.31, 0.0, 9.997089, 10.000269 
2.3947664e+3, 2.9527807e+2, -495102.9, -256724.97, -13080.451, 0.03624211, 0.14729501, -256009.34, -209720.5, 0.0, 9.99691, 10.00006 
2.3947293e+3, 3.052782e+2, -508277.38, -178829.03, -1935.8312, 0.06514288, 0.13986191, -178817.66, -178817.66, 0.0, 9.996222, 10.000596 
2.3946926e+3, 3.15281e+2, -528339.75, 74291.06, -86404.98, 0.08104902, 0.35732868, 86435.05, 86435.05, 0.0, 9.994963, 10.002934 
2.4054009e+3, 1.2533414e+2, -1230669.6, -1656129.6, 30173.031, -0.051440448, 0.06677338, -1228540.4, 483193.56, 0.28403848, 10.005692, 9.997811 
2.4053627e+3, 1.3533187e+2, -1120359.9, -1583819.0, 6684.285, -0.05814615, 0.06909198, -1120263.5, 493492.03, 0.2071379, 10.005422, 9.997668 
2.4053255e+3, 1.453299e+2, -1033858.1, -1491022.9, 36486.76, -0.047378223, 0.10624593, -1030964.44, 484810.1, 0.12808228, 10.004844, 9.997877 
2.4052885e+3, 1.5532742e+2, -1022632.25, -1462280.9, 46022.74, -0.02422465, 0.07940691, -1017866.25, 399932.8, 0.06280532, 10.003984, 9.997793 
2.405252e+3, 1.6532536e+2, -954854.5, -1314424.6, 55559.53, -0.008274405, 0.07119335, -946465.4, 373353.72, 0.022246106, 10.003338, 9.9984455 
2.405215e+3, 1.7532381e+2, -922114.44, -1262077.1, 50173.777, -0.0027020369, 0.078650214, -914864.1, 306969.56, 0.0046938765, 10.002889, 9.998349 
2.4051782e+3, 1.8532209e+2, -860393.06, -1134466.4, 46472.05, 0.0027778563, 0.06290918, -852727.6, 271122.06, 0.000324155, 10.002425, 9.9987755 
2.4051411e+3, 1.9532043e+2, -839159.25, -1084840.9, 47192.08, 0.008838957, 0.025963264, -830406.2, 195459.17, 0.0000001406684, 10.0019455, 9.998675 
2.4051042e+3, 2.0531926e+2, -809749.25, -998277.06, 47447.78, 0.0222855, 0.042099774, -798481.3, 129396.29, 0.0, 10.00138, 9.99887 
2.4050674e+3, 2.1531864e+2, -811567.4, -958104.25, 52929.18, 0.04275379, 0.09991829, -794449.06, 35436.605, 0.0, 10.000734, 9.998784 
2.4050298e+3, 2.2531772e+2, -744401.56, -811680.06, 29469.611, 0.039144743, 0.11254115, -733318.8, -1422.9686, 0.0, 10.00025, 9.999351 
2.4049917e+3, 2.3531672e+2, -703381.5, -751713.25, 25743.287, 0.017698232, 0.08611151, -692238.6, -58332.51, 0.0, 9.999904, 9.999256 
2.4049541e+3, 2.4531618e+2, -660352.25, -641754.8, 23393.324, 0.026846305, 0.09910079, -625879.9, -89967.41, 0.0, 9.999362, 9.9995985 
2.4049164e+3, 2.5531608e+2, -676397.9, -609137.9, 32332.023, 0.0601529, 0.13547002, -596116.7, -158201.84, 0.0, 9.998624, 9.999505 
2.4048784e+3, 2.6531577e+2, -598928.1, -456273.8, 2098.844, 0.07252016, 0.1362574, -456242.94, -116324.75, 0.0, 9.998208, 10.00008 
2.4048398e+3, 2.7531567e+2, -523067.56, -375891.75, -6492.1255, 0.078076914, 0.12582867, -375605.94, -133687.31, 0.0, 9.998087, 10.000018 
2.4048017e+3, 2.853158e+2, -487887.16, -278915.34, 8495.442, 0.099128954, 0.13566588, -278570.56, -134653.0, 0.0, 9.997529, 10.000279 
2.4047637e+3, 2.953156e+2, -546526.3, -285376.94, 18587.408, 0.10568647, 0.09362762, -284060.63, -238139.64, 0.0, 9.996576, 10.000023 
2.4047248e+3, 3.0531645e+2, -568986.56, -247477.66, 34096.77, 0.025416523, 0.18351181, -243901.39, -243901.39, 0.0, 9.995979, 10.000238 
2.4046883e+3, 3.1531486e+2, -476618.78, 51111.207, -70375.22, 0.12743531, -0.008590432, 60334.855, 60334.855, 0.0, 9.995535, 10.002494 
2.415406e+3, 1.2537284e+2, -1256409.6, -1721482.4, 19689.8, -0.096561104, 0.06502842, -1255577.5, 455776.78, 0.27418223, 10.005669, 9.997226 
2.4153684e+3, 1.3537022e+2, -1149115.1, -1659031.5, -323.50406, -0.030143434, 0.09392615, -1149114.9, 464265.75, 0.1995075, 10.005403, 9.997108 
2.4153306e+3, 1.4536794e+2, -1016516.3, -1459474.5, 9685.466, -0.008546047, 0.11122991, -1016304.7, 499098.06, 0.12293873, 10.004833, 9.99813 
2.4152924e+3, 1.5536541e+2, -1005868.9, -1428536.6, 16952.24, -0.02211298, 0.0536635, -1005190.06, 412235.78, 0.059938964, 10.003984, 9.998025 
2.4152549e+3, 1.6536339e+2, -961751.4, -1331309.4, 39855.656, -0.021404738, 0.04397866, -957501.94, 361943.4, 0.021012615, 10.003341, 9.998329 
2.4152178e+3, 1.7536196e+2, -929806.8, -1278005.4, 34512.66, -0.011436188, 0.0755898, -926419.0, 295041.03, 0.00433748, 10.002885, 9.998243 
2.4151804e+3, 1.8536043e+2, -855928.1, -1124412.6, 29491.053, -0.00452542, 0.07966439, -852726.94, 270747.66, 0.00027860896, 10.002419, 9.998849 
2.4151431e+3, 1.9535899e+2, -835005.8, -1075255.6, 30378.473, -0.00026696315, 0.05788994, -831224.1, 194263.58, 0.00000003428923, 10.001939, 9.998746 
2.4151054e+3, 2.0535772e+2, -796609.75, -971136.44, 24326.46, 0.022433791, 0.050561428, -793282.44, 134217.72, 0.0, 10.001378, 9.999058 
2.4150681e+3, 2.1535671e+2, -799506.1, -933411.8, 30550.27, 0.06101969, 0.051905278, -792865.5, 36645.277, 0.0, 10.000733, 9.998957 
2.41503e+3, 2.2535583e+2, -751738.7, -828626.56, 17575.63, 0.044983193, 0.0671422, -747911.6, -16391.078, 0.0, 10.000255, 9.999233 
2.4149913e+3, 2.3535524e+2, -710010.5, -767928.25, 12812.935, -0.016287854, 0.09179318, -707302.56, -73774.36, 0.0, 9.999911, 9.999143 
2.4149531e+3, 2.4535482e+2, -644274.56, -609455.94, -5496.5527, 0.009568964, 0.11011401, -608608.8, -73075.44, 0.0, 9.999365, 9.99982 
2.4149156e+3, 2.5535464e+2, -661974.1, -579959.6, 3642.1003, 0.10637968, 0.11782475, -579798.25, -142262.89, 0.0, 9.998625, 9.999706 
2.4148767e+3, 2.6535425e+2, -621273.56, -504027.38, -3891.7803, 0.094415955, 0.11777601, -503898.3, -164358.38, 0.0, 9.998211, 9.999753 
2.4148369e+3, 2.753539e+2, -544571.4, -424073.9, -13303.575, -0.00062934356, 0.118677676, -422622.6, -181078.22, 0.0, 9.998099, 9.999682 
2.4147986e+3, 2.8535417e+2, -462578.16, -228305.27, -30415.479, 0.05265105, 0.13555543, -224420.84, -80878.35, 0.0, 9.997536, 10.000625 
2.414761e+3, 2.9535466e+2, -518456.7, -225232.88, -17008.271, 0.2041981, 0.13267273, -224249.63, -178712.7, 0.0, 9.996566, 10.0004425 
2.414721e+3, 3.053546e+2, -612683.2, -337745.75, 20363.555, 0.034649372, 0.13572885, -336245.7, -336245.7, 0.0, 9.995973, 9.999623 
2.4146834e+3, 3.153542e+2, -430601.5, 137390.78, -59011.54, 0.07763969, 0.1385232, 143457.0, 143457.0, 0.0, 9.995568, 10.003075 
2.425412e+3, 1.2541199e+2, -1219519.8, -1695733.0, 5977.503, -0.08605491, 0.10554119, -1219444.6, 491527.78, 0.26457214, 10.005909, 9.997322 
2.4253738e+3, 1.3540912e+2, -1176967.4, -1669918.9, 22827.213, -0.021512706, 0.10205744, -1175912.6, 437087.63, 0.1920193, 10.005092, 9.997186 
2.4253352e+3, 1.454066e+2, -1059514.8, -1483304.5, 40851.348, -0.0044297115, 0.09597467, -1055612.8, 459410.97, 0.11786472, 10.004487, 9.998106 
2.4252966e+3, 1.554042e+2, -992926.1, -1425301.9, 31805.46, -0.020645967, 0.05115524, -990599.0, 426446.66, 0.0571089, 10.004084, 9.997999 
2.4252583e+3, 1.6540217e+2, -931456.75, -1316752.3, 53755.094, -0.023435498, 0.045511894, -924097.6, 394967.34, 0.019803071, 10.003553, 9.998326 
2.4252205e+3, 1.754007e+2, -925622.25, -1275619.3, 56296.51, -0.01771898, 0.073406175, -916789.94, 304290.3, 0.0039967997, 10.002915, 9.998242 
2.4251826e+3, 1.8539926e+2, -868617.6, -1127050.1, 53994.125, -0.008730611, 0.08279244, -857790.25, 265304.13, 0.00023879341, 10.00232, 9.998877 
2.4251448e+3, 1.9539794e+2, -858260.25, -1083383.3, 50459.617, 0.0043479083, 0.07239895, -847467.56, 177638.81, 0.000000003872902, 10.001767, 9.998772 
2.4251069e+3, 2.0539667e+2, -804903.4, -964102.2, 38362.098, 0.02400081, 0.05884097, -796141.5, 130977.06, 0.0, 10.001276, 9.999155 
2.4250689e+3, 2.1539557e+2, -778527.6, -912258.7, 36687.82, 0.04985452, 0.041726805, -769123.94, 60005.473, 0.0, 10.000834, 9.999051 
2.4250303e+3, 2.2539476e+2, -737172.44, -812400.6, 31608.672, 0.038274057, 0.05497269, -725654.8, 5483.517, 0.0, 10.000319, 9.999312 
2.4249913e+3, 2.3539434e+2, -730633.0, -768924.44, 41811.49, -0.0024387632, 0.089897215, -703792.2, -70647.94, 0.0, 9.999735, 9.999219 
2.4249524e+3, 2.4539392e+2, -657963.56, -615083.7, 19647.08, 0.021123217, 0.10621436, -607443.06, -72293.8, 0.0, 9.9992695, 9.9998255 
2.4249141e+3, 2.5539365e+2, -620412.7, -559041.75, 12607.947, 0.09782925, 0.10465767, -556552.56, -119400.555, 0.0, 9.99891, 9.999711 
2.4248748e+3, 2.6539332e+2, -596520.6, -497104.5, 14900.491, 0.083627775, 0.11205746, -494919.25, -155762.9, 0.0, 9.9984045, 9.999705 
2.424835e+3, 2.7539304e+2, -603879.56, -460389.2, 25108.986, 0.0032080205, 0.12285152, -456122.3, -214961.45, 0.0, 9.9977255, 9.999613 
2.4247961e+3, 2.8539306e+2, -514034.75, -259789.5, -7348.831, 0.064948425, 0.12905508, -259577.27, -116416.414, 0.0, 9.997213, 10.000563 
2.4247578e+3, 2.953936e+2, -466717.25, -198373.84, -24340.283, 0.21767876, 0.13184227, -196183.92, -151028.94, 0.0, 9.996918, 10.000455 
2.4247168e+3, 3.053936e+2, -545476.5, -283293.94, 29253.604, 0.011785514, 0.13188922, -280069.56, -280069.56, 0.0, 9.996342, 9.999819 
2.424679e+3, 3.1539407e+2, -443023.66, 161102.38, 29364.256, 0.09417515, 0.20790626, 162526.31, 162526.31, 0.0, 9.995353, 10.003344 
2.4354182e+3, 1.2545162e+2, -1183677.9, -1628278.3, -16788.113, -0.034943406, 0.18891205, -1183044.9, 527542.5, 0.25514716, 10.0058775, 9.997954 
2.4353787e+3, 1.3544843e+2, -1140690.8, -1589268.9, -1678.0492, -0.0344248, 0.08757913, -1140684.5, 471930.7, 0.18467695, 10.005076, 9.997781 
2.4353394e+3, 1.454458e+2, -1073847.5, -1520278.8, 27251.559, -0.032940283, 0.05592463, -1072190.1, 442448.94, 0.11289719, 10.004488, 9.997828 
2.4353005e+3, 1.5544368e+2, -1008476.2, -1463006.6, 18391.48, -0.019901624, 0.069410644, -1007733.25, 408926.1, 0.054351058, 10.004084, 9.997742 
2.4352619e+3, 1.654417e+2, -924686.7, -1303384.4, 31705.242, -0.016471865, 0.075357504, -922050.6, 396627.72, 0.018637402, 10.00355, 9.998423 
2.4352235e+3, 1.7544004e+2, -920280.44, -1263677.3, 33817.13, -0.024437374, 0.07456581, -916981.9, 303712.78, 0.0036784138, 10.002909, 9.998329 
2.4351849e+3, 1.8543853e+2, -871125.1, -1132354.4, 34327.117, -0.011185347, 0.07386939, -866689.6, 256019.89, 0.00020527234, 10.002318, 9.998842 
2.4351467e+3, 1.9543722e+2, -860636.75, -1088831.1, 31375.252, 0.02081721, 0.068657786, -856401.5, 168320.6, 0.0000000002134854, 10.001766, 9.998736 
2.4351081e+3, 2.0543605e+2, -804624.9, -964560.3, 22780.926, 0.025978783, 0.06705637, -801443.25, 125290.25, 0.0, 10.001278, 9.999152 
2.4350691e+3, 2.1543512e+2, -778262.3, -912528.8, 21358.877, 0.008230398, 0.0676124, -774946.5, 53796.05, 0.0, 10.000834, 9.999051 
2.4350303e+3, 2.254344e+2, -718083.25, -773789.2, 10606.31, 0.019546611, 0.07444478, -716132.2, 14617.835, 0.0, 10.00032, 9.9995775 
2.4349914e+3, 2.3543397e+2, -713403.25, -733663.6, 20115.246, 0.057012994, 0.08160396, -701011.4, -68256.31, 0.0, 9.999734, 9.999463 
2.4349521e+3, 2.4543343e+2, -673130.06, -647635.9, 5020.9487, 0.059712425, 0.08868467, -646682.7, -111921.766, 0.0, 9.999272, 9.999602 
2.4349122e+3, 2.5543305e+2, -633496.75, -589175.9, -1854.7051, 0.02946879, 0.09726619, -589098.44, -152332.64, 0.0, 9.99892, 9.9995 
2.4348725e+3, 2.654329e+2, -578801.0, -462065.53, -12540.703, 0.03971009, 0.11970786, -460733.5, -121965.27, 0.0, 9.998409, 9.999946 
2.4348335e+3, 2.7543294e+2, -590095.4, -431686.3, -2835.8901, 0.09630372, 0.14126505, -431635.56, -190867.19, 0.0, 9.997722, 9.999813 
2.434794e+3, 2.854325e+2, -552657.5, -340398.47, -20612.975, 0.13807622, 0.114680104, -338415.22, -195641.5, 0.0, 9.997212, 10.000011 
2.4347539e+3, 2.9543206e+2, -496073.94, -262460.53, -36358.223, 0.1296018, 0.08045304, -256932.75, -212154.69, 0.0, 9.996928, 10.0000105 
2.4347124e+3, 3.054336e+2, -463364.22, -112869.05, -9809.332, -0.042444345, 0.18724746, -112594.734, -112594.734, 0.0, 9.99634, 10.000991 
2.4346748e+3, 3.1543303e+2, -582635.9, -119899.71, -33677.57, 0.16666508, 0.051418703, -117461.53, -117461.53, 0.0, 9.995316, 10.00143 
2.445424e+3, 1.254915e+2, -1212295.6, -1647067.1, 21035.197, -0.00548482, 0.1831021, -1211280.3, 498916.94, 0.24580741, 10.00557, 9.997922 
2.4453835e+3, 1.354884e+2, -1133840.3, -1587587.8, 7065.2275, -0.033131387, 0.09351598, -1133730.3, 478493.78, 0.17744663, 10.005097, 9.997782 
2.4453437e+3, 1.4548582e+2, -1049975.8, -1503387.1, 37798.746, -0.04305964, 0.06484889, -1046846.25, 467401.03, 0.108039886, 10.004633, 9.997878 
2.4453047e+3, 1.554838e+2, -986272.7, -1447612.9, 48236.844, -0.023923125, 0.08326243, -981283.1, 434983.25, 0.051677614, 10.004218, 9.997782 
2.4452654e+3, 1.6548176e+2, -917245.44, -1307277.9, 55520.84, -0.012500908, 0.08361795, -909496.06, 408790.0, 0.017522423, 10.003631, 9.998356 
2.4452263e+3, 1.7547987e+2, -926196.1, -1274497.5, 45919.203, -0.011244433, 0.0679911, -920244.0, 300060.78, 0.0033834113, 10.0029, 9.99826 
2.4451873e+3, 1.8547833e+2, -868184.8, -1127997.9, 50362.508, -0.004301681, 0.06836346, -858764.06, 263555.72, 0.00017744735, 10.002328, 9.998867 
2.4451484e+3, 1.9547722e+2, -841118.94, -1074950.1, 51125.164, 0.0093739405, 0.079516076, -830429.56, 193900.94, 0.00000000008671795, 10.001888, 9.99877 
2.4451092e+3, 2.0547609e+2, -784288.1, -947383.25, 47285.105, 0.01459344, 0.078027986, -771570.7, 154770.63, 0.0, 10.0013895, 9.999214 
2.4450698e+3, 2.1547507e+2, -773571.9, -903537.4, 50255.516, 0.012647482, 0.0642013, -756406.1, 71944.85, 0.0, 10.00084, 9.999108 
2.4450305e+3, 2.2547434e+2, -712864.8, -767914.1, 31225.982, 0.02864719, 0.06860193, -698764.1, 31594.078, 0.0, 10.000344, 9.999605 
2.4449912e+3, 2.3547402e+2, -688485.8, -718041.06, 22997.416, 0.06376751, 0.083671525, -675927.4, -43565.18, 0.0, 9.999893, 9.999492 
2.4449514e+3, 2.4547352e+2, -654859.8, -635707.1, 12953.771, 0.06317064, 0.089962535, -629174.25, -94806.43, 0.0, 9.999386, 9.999629 
2.4449109e+3, 2.5547308e+2, -648427.44, -593112.56, 24659.05, 0.029213017, 0.09047478, -583715.94, -147342.73, 0.0, 9.998805, 9.999529 
2.4448709e+3, 2.6547292e+2, -590543.06, -461114.97, 12018.742, 0.041698057, 0.11099098, -460008.38, -121633.055, 0.0, 9.998302, 10.000003 
2.4448313e+3, 2.7547306e+2, -561711.8, -411129.0, 7702.6147, 0.10821802, 0.13301156, -410736.03, -170361.36, 0.0, 9.997891, 9.999871 
2.4447912e+3, 2.8547257e+2, -522921.3, -330007.66, 10727.401, 0.14107586, 0.10455597, -329412.97, -187032.86, 0.0, 9.997434, 9.999975 
2.4447505e+3, 2.9547215e+2, -513638.9, -278833.0, 32388.111, 0.106337845, 0.07169069, -274447.44, -230062.31, 0.0, 9.996839, 9.999944 
2.4447088e+3, 3.0547392e+2, -456613.4, -83525.555, 23588.809, -0.029355844, 0.20163025, -82040.05, -82040.05, 0.0, 9.996274, 10.0012245 
2.4446703e+3, 3.1547377e+2, -519172.72, -160410.63, -81219.69, 0.16136295, 0.076431006, -142880.03, -142880.03, 0.0, 9.996062, 10.000789 
2.4554297e+3, 1.2553151e+2, -1233155.5, -1702090.5, 7139.0024, 0.0035312362, 0.09654237, -1233046.9, 476756.1, 0.23648189, 10.005569, 9.997419 
2.4553886e+3, 1.3552909e+2, -1157551.3, -1650759.5, -6219.4194, -0.024196044, 0.12426304, -1157472.9, 454353.4, 0.17029437, 10.005091, 9.997315 
2.4553484e+3, 1.455267e+2, -1028878.25, -1466007.5, 25660.049, -0.041290443, 0.122064054, -1027377.1, 486470.94, 0.10328062, 10.004634, 9.998165 
2.4553086e+3, 1.5552449e+2, -968002.94, -1409103.9, 33949.996, -0.03503285, 0.09280323, -965405.25, 450462.06, 0.049083658, 10.0042095, 9.998054 
2.4552691e+3, 1.6552223e+2, -934020.2, -1342064.0, 29274.387, -0.012649713, 0.07056281, -931930.6, 385958.3, 0.01645455, 10.003622, 9.998121 
2.4552295e+3, 1.7552008e+2, -941354.7, -1307313.6, 20132.182, 0.019340178, 0.052145425, -940250.5, 279660.9, 0.0031088777, 10.002902, 9.998035 
2.4551897e+3, 1.8551861e+2, -862127.3, -1117109.3, 34796.99, 0.010437132, 0.06626536, -857463.94, 264461.88, 0.0001540495, 10.002332, 9.998941 
2.4551496e+3, 1.9551785e+2, -835867.44, -1064001.5, 35681.555, -0.030460076, 0.10524986, -830416.8, 193515.38, 0.00000000016280782, 10.001884, 9.998849 
2.4551104e+3, 2.055167e+2, -775989.8, -930256.9, 27773.895, -0.009429159, 0.09184243, -771141.8, 154800.86, 0.0, 10.001388, 9.999334 
2.4550714e+3, 2.1551535e+2, -766761.4, -889271.4, 31577.996, 0.060612503, 0.032407604, -759100.9, 68854.516, 0.0, 10.000836, 9.99921 
2.4550313e+3, 2.2551459e+2, -728573.75, -801680.75, 15605.242, 0.06338097, 0.038871866, -725382.0, 4581.4863, 0.0, 10.000347, 9.999373 
2.4549904e+3, 2.3551443e+2, -702008.75, -749014.75, 6034.545, 0.014224253, 0.09620444, -701246.4, -69279.76, 0.0, 9.999903, 9.999276 
2.4549505e+3, 2.4551405e+2, -634494.3, -595136.5, -10433.251, 0.031615753, 0.10925078, -592541.8, -58570.773, 0.0, 9.999391, 9.999907 
2.4549104e+3, 2.5551364e+2, -629961.0, -555492.2, 1001.598, 0.09878395, 0.08613186, -555478.75, -119503.766, 0.0, 9.998805, 9.999788 
2.4548696e+3, 2.6551333e+2, -600741.4, -482744.63, -5401.05, 0.08924744, 0.08440869, -482497.94, -144519.3, 0.0, 9.9983015, 9.999855 
2.4548283e+3, 2.7551317e+2, -567352.7, -424426.38, -7847.0024, 0.028779916, 0.09277207, -423996.84, -184015.56, 0.0, 9.997895, 9.999779 
2.4547878e+3, 2.8551334e+2, -483548.9, -250353.48, -12402.282, 0.069480896, 0.10283327, -249695.73, -107715.45, 0.0, 9.997438, 10.000523 
2.4547479e+3, 2.9551402e+2, -487992.88, -227456.88, 7037.49, 0.15972632, 0.12910955, -227266.92, -183293.4, 0.0, 9.996843, 10.000296 
2.4547058e+3, 3.0551425e+2, -517161.8, -209866.23, 9572.731, 0.0502529, 0.13772176, -209568.31, -209568.31, 0.0, 9.996274, 10.000358 
2.4546658e+3, 3.1551364e+2, -406733.6, 67823.016, -103567.32, 0.097650774, 0.03808228, 89440.8, 89440.8, 0.0, 9.996082, 10.002348 
2.4654353e+3, 1.255726e+2, -1200112.5, -1699255.8, 17065.676, 0.0017702209, 0.0827614, -1199529.8, 509869.03, 0.22713532, 10.005866, 9.997301 
2.4653938e+3, 1.3557018e+2, -1114606.9, -1640770.4, 21792.621, -0.024752438, 0.12232138, -1113705.9, 497717.38, 0.16318339, 10.005464, 9.997206 
2.465353e+3, 1.4556776e+2, -1004030.2, -1454790.6, 50049.965, -0.03722489, 0.12201457, -998539.8, 514905.97, 0.09858718, 10.004805, 9.998165 
2.4653128e+3, 1.5556547e+2, -1000027.7, -1426164.4, 41292.156, -0.02238075, 0.084982485, -996063.44, 419402.13, 0.04654622, 10.003973, 9.998049 
2.4652724e+3, 1.6556326e+2, -963456.6, -1362062.9, 39839.7, -0.003660794, 0.070493914, -959513.75, 357973.22, 0.015421192, 10.003441, 9.99807 
2.4652322e+3, 1.7556125e+2, -908110.3, -1294196.1, 43471.875, 0.01497305, 0.072186686, -903276.06, 316232.34, 0.0028494168, 10.003149, 9.998003 
2.465192e+3, 1.8555968e+2, -816758.8, -1087984.0, 60454.113, 0.008032614, 0.074395366, -803894.25, 317629.16, 0.00013361072, 10.002615, 9.999003 
2.4651515e+3, 1.9555861e+2, -831471.9, -1056442.4, 59653.766, -0.018839292, 0.076692134, -816632.7, 206899.02, 0.00000000021615258, 10.001889, 9.998899 
2.4651116e+3, 2.055575e+2, -791426.2, -938430.5, 47622.816, -0.0012762301, 0.06600677, -777346.94, 148194.9, 0.0, 10.0012865, 9.999326 
2.4650718e+3, 2.1555647e+2, -774437.6, -891807.1, 40081.484, 0.053189225, 0.040802415, -762056.06, 65496.22, 0.0, 10.000784, 9.999215 
2.4650313e+3, 2.2555578e+2, -732859.2, -793614.94, 35385.324, 0.057794202, 0.048789825, -716600.9, 12958.896, 0.0, 10.0002775, 9.999461 
2.4649905e+3, 2.3555547e+2, -717681.25, -746957.75, 51402.457, 0.024922784, 0.08161553, -678873.4, -47309.754, 0.0, 9.999757, 9.999359 
2.4649496e+3, 2.4555504e+2, -653399.8, -609080.25, 32239.977, 0.04434714, 0.09076279, -592118.8, -58550.52, 0.0, 9.999284, 9.99986 
2.4649091e+3, 2.5555468e+2, -626259.06, -557396.25, 18668.49, 0.10376263, 0.077817954, -552660.94, -117088.58, 0.0, 9.998849, 9.999752 
2.464868e+3, 2.655544e+2, -579426.1, -462523.47, 13626.126, 0.08606946, 0.077876516, -460956.22, -123380.61, 0.0, 9.998405, 9.999944 
2.464826e+3, 2.7555433e+2, -556010.56, -409564.16, 29054.697, 0.018091543, 0.085461326, -404010.38, -164433.2, 0.0, 9.9979315, 9.999865 
2.4647851e+3, 2.8555462e+2, -471052.06, -238724.97, 6407.642, 0.057719056, 0.10369851, -238548.39, -96973.81, 0.0, 9.997502, 10.000571 
2.4647446e+3, 2.9555535e+2, -450067.84, -205814.31, -14903.642, 0.152633, 0.13002689, -204908.3, -161340.97, 0.0, 9.997094, 10.00032 
2.4647026e+3, 3.05555e+2, -499649.6, -242008.72, 5221.144, 0.09160069, 0.09394419, -241902.95, -241902.95, 0.0, 9.996575, 9.999989 
2.4646619e+3, 3.155551e+2, -379780.75, 126345.28, -61795.098, 0.11709718, 0.09827422, 133780.88, 133780.88, 0.0, 9.996073, 10.002754 
2.475441e+3, 1.2561472e+2, -1188399.8, -1683612.6, 6711.664, -0.014831935, 0.13108438, -1188308.8, 520676.75, 0.21771325, 10.005846, 9.997444 
2.4753992e+3, 1.3561165e+2, -1106398.6, -1624020.6, 8529.733, -0.037124027, 0.09109418, -1106258.1, 504757.5, 0.15604237, 10.005434, 9.997334 
2.4753577e+3, 1.4560898e+2, -1017839.94, -1487926.3, 21702.174, -0.03263803, 0.07211057, -1016840.1, 496200.72, 0.09389603, 10.004796, 9.997919 
2.4753168e+3, 1.5560672e+2, -1013390.44, -1460059.5, 13357.831, 0.01044013, 0.06349859, -1012991.4, 402069.97, 0.044024467, 10.003981, 9.997812 
2.4752761e+3, 1.656048e+2, -954215.25, -1345615.5, 30160.734, 0.012003424, 0.08454902, -951904.75, 365175.47, 0.014403341, 10.003448, 9.998181 
2.4752349e+3, 1.7560332e+2, -899773.5, -1276417.8, 32779.645, -0.023286385, 0.12662962, -896941.94, 322154.5, 0.0025988773, 10.003144, 9.998129 
2.4751943e+3, 1.8560144e+2, -815080.1, -1083770.0, 34230.445, -0.010488632, 0.09095048, -810787.8, 310325.56, 0.00011496107, 10.002608, 9.999038 
2.4751541e+3, 1.955994e+2, -830911.9, -1055136.9, 34149.555, 0.040435772, -0.005628624, -825826.25, 197303.4, 0.00000000023303823, 10.001885, 9.998912 
2.4751133e+3, 2.0559841e+2, -802146.5, -961471.44, 29500.22, 0.036059584, 0.0029150704, -796859.75, 128279.56, 0.0, 10.0012865, 9.999168 
2.4750718e+3, 2.1559836e+2, -783239.7, -910494.56, 22300.611, -0.011575964, 0.0900636, -779444.8, 47697.72, 0.0, 10.000783, 9.999089 
2.475031e+3, 2.2559783e+2, -702951.25, -732684.5, 16539.87, 0.013104398, 0.09743334, -695578.6, 33569.28, 0.0, 10.000279, 9.999879 
2.4749908e+3, 2.3559701e+2, -691127.44, -692850.8, 32065.168, 0.09635805, 0.04001758, -659912.4, -28758.682, 0.0, 9.999758, 9.999732 
2.4749495e+3, 2.4559642e+2, -680292.1, -666258.06, 15025.019, 0.100613944, 0.03397169, -656692.3, -123532.02, 0.0, 9.999288, 9.999467 
2.4749072e+3, 2.555961e+2, -649967.06, -609498.6, 1286.2167, 0.037518855, 0.06518875, -609457.75, -174291.52, 0.0, 9.998858, 9.999392 
2.4748658e+3, 2.6559612e+2, -555750.4, -414788.5, -6083.521, 0.030305231, 0.09327147, -414526.44, -77359.38, 0.0, 9.998409, 10.000272 
2.4748245e+3, 2.7559656e+2, -538030.94, -373019.16, 10222.419, 0.0818865, 0.11956825, -372388.28, -133226.14, 0.0, 9.9979315, 10.000116 
2.4747829e+3, 2.8559634e+2, -507545.25, -315718.75, -11557.777, 0.107906595, 0.10332122, -315024.88, -173860.39, 0.0, 9.997504, 10.000043 
2.4747407e+3, 2.9559574e+2, -473489.63, -255812.53, -35141.477, 0.07258838, 0.047946263, -250279.95, -207108.83, 0.0, 9.997098, 9.999977 
2.474699e+3, 3.055964e+2, -483482.78, -207788.42, -18903.7, 0.096801475, 0.11290092, -206498.28, -206498.28, 0.0, 9.996572, 10.000226 
2.4746582e+3, 3.1559697e+2, -425020.0, 20392.426, 4190.397, 0.14028743, 0.16224849, 20431.846, 20431.846, 0.0, 9.996107, 10.002019 
2.4854465e+3, 1.256565e+2, -1180347.4, -1683286.0, 20269.951, -0.035093773, 0.0898665, -1179531.8, 529042.94, 0.20810084, 10.005859, 9.99744 
2.4854046e+3, 1.3565393e+2, -1123344.5, -1635628.0, 16578.658, -0.02152384, 0.10106879, -1122808.5, 487791.94, 0.14875677, 10.0052595, 9.997337 
2.4853626e+3, 1.4565125e+2, -1034019.75, -1507558.3, 27801.076, -0.015571738, 0.08682315, -1032393.2, 480233.1, 0.089119375, 10.00471, 9.9978075 
2.485321e+3, 1.5564857e+2, -984036.6, -1456661.5, 27244.613, 0.004532344, 0.050003216, -982471.25, 432179.63, 0.041468915, 10.004233, 9.997713 
2.4852796e+3, 1.6564663e+2, -918116.5, -1319129.6, 52308.13, 0.005398128, 0.06645718, -911405.75, 405264.44, 0.013381254, 10.003658, 9.998261 
2.485238e+3, 1.7564534e+2, -913758.6, -1275482.4, 51564.754, -0.014207046, 0.12313157, -906551.56, 312132.34, 0.0023520829, 10.003013, 9.9982 
2.4851967e+3, 1.8564351e+2, -847764.8, -1103418.9, 42296.734, 0.0003508905, 0.090337425, -840948.75, 279751.63, 0.00009743898, 10.002403, 9.999001 
2.4851558e+3, 1.9564137e+2, -842297.1, -1063046.0, 36878.156, 0.0438592, -0.014017838, -836299.25, 186418.61, 0.00000000017417703, 10.001824, 9.998883 
2.4851145e+3, 2.0564033e+2, -801618.1, -963375.5, 41867.316, 0.03894739, -0.005946269, -791424.1, 133303.89, 0.0, 10.001304, 9.9991455 
2.4850728e+3, 2.1564032e+2, -778430.2, -909580.0, 44699.688, -0.0045942673, 0.08748966, -764644.4, 62086.81, 0.0, 10.000823, 9.999076 
2.4850312e+3, 2.2563984e+2, -692711.44, -714892.44, 28511.143, 0.018248439, 0.095269136, -673209.7, 55526.19, 0.0, 10.000297, 9.999992 
2.4849905e+3, 2.356391e+2, -687243.75, -678932.3, 20449.264, 0.09767976, 0.033961296, -662220.75, -31480.28, 0.0, 9.999737, 9.999836 
2.4849488e+3, 2.4563853e+2, -679317.94, -668018.44, 15652.937, 0.09862637, 0.027402557, -657026.9, -124280.22, 0.0, 9.999306, 9.999446 
2.484906e+3, 2.556382e+2, -636545.06, -605520.4, 30145.521, 0.03289514, 0.05972712, -587130.1, -152377.27, 0.0, 9.998964, 9.999367 
2.484864e+3, 2.6563817e+2, -542082.5, -414704.66, 14736.239, 0.029385405, 0.08995893, -413022.06, -76267.94, 0.0, 9.998534, 10.00021 
2.4848226e+3, 2.756386e+2, -530892.25, -376287.22, 1066.7479, 0.09213719, 0.120261334, -376279.84, -137530.2, 0.0, 9.9980135, 10.000052 
2.4847806e+3, 2.856382e+2, -507173.13, -326368.28, -8732.091, 0.11192432, 0.09651314, -325947.53, -185194.06, 0.0, 9.997556, 9.999943 
2.4847375e+3, 2.9563728e+2, -463690.16, -257302.33, 90.76559, 0.05397848, 0.017567208, -257302.28, -214539.16, 0.0, 9.997191, 9.999922 
2.4846958e+3, 3.0563852e+2, -422478.66, -170390.13, 12370.32, 0.11310619, 0.13705271, -169784.55, -169784.55, 0.0, 9.99696, 10.000295 
2.484654e+3, 3.156375e+2, -383650.78, 5599.662, 53192.824, 0.111622, 0.03049321, 12737.8, 12737.8, 0.0, 9.996544, 10.001705 
2.4954519e+3, 1.2569803e+2, -1179712.3, -1691096.6, 1920.0995, -0.058649063, -0.01961892, -1179705.0, 528460.4, 0.19816293, 10.005838, 9.997379 
2.4954101e+3, 1.3569699e+2, -1124138.8, -1645537.4, -2202.2107, 0.014041682, 0.1498257, -1124129.5, 486048.72, 0.1412156, 10.005248, 9.997274 
2.4953674e+3, 1.4569448e+2, -1032865.25, -1511459.9, 12233.344, 0.008188373, 0.15804553, -1032552.8, 479650.0, 0.08418391, 10.00471, 9.99778 
2.4953248e+3, 1.55691e+2, -983625.0, -1458365.9, 10485.729, -0.03738837, 0.041931268, -983393.5, 430841.3, 0.038844403, 10.0042305, 9.997704 
2.4952827e+3, 1.6568866e+2, -915429.0, -1314330.3, 29016.438, -0.020808892, 0.018646097, -913329.4, 402927.9, 0.0123440325, 10.003655, 9.998297 
2.4952415e+3, 1.7568733e+2, -913241.44, -1274243.1, 28134.516, 0.03752455, 0.066659145, -911061.94, 307209.1, 0.0021068347, 10.003008, 9.998212 
2.4951994e+3, 1.8568587e+2, -855632.44, -1120387.4, 21105.885, 0.036560323, 0.075869694, -853960.44, 266324.13, 0.00008074701, 10.002402, 9.998885 
2.495157e+3, 1.956844e+2, -847978.2, -1075906.8, 16341.626, -0.007472957, 0.05049421, -846812.5, 175484.39, 0.00000000005180779, 10.001826, 9.9987955 
2.4951153e+3, 2.0568317e+2, -793215.6, -947174.25, 24736.705, 0.009927001, 0.036508743, -789338.8, 134969.95, 0.0, 10.001306, 9.999258 
2.4950743e+3, 2.1568227e+2, -772064.7, -896861.0, 28061.066, 0.07214743, 0.030692903, -766045.4, 60273.54, 0.0, 10.000822, 9.999165 
2.495032e+3, 2.2568174e+2, -707943.1, -747745.25, 8430.036, 0.07059323, 0.04255184, -706231.25, 22093.084, 0.0, 10.000299, 9.999766 
2.4949895e+3, 2.3568164e+2, -700118.7, -707632.2, -394.59738, 0.023806076, 0.06571355, -700098.0, -69773.2, 0.0, 9.999742, 9.999639 
2.4949473e+3, 2.456813e+2, -652897.44, -614650.4, 1221.1837, 0.037737142, 0.07255146, -614611.44, -82283.19, 0.0, 9.99931, 9.999811 
2.4949056e+3, 2.5568092e+2, -614041.2, -560460.2, 15936.687, 0.092421785, 0.063284606, -556078.44, -121745.68, 0.0, 9.998969, 9.999675 
2.494863e+3, 2.6568052e+2, -574988.1, -484949.94, -6363.5913, 0.084521815, 0.06633518, -484502.4, -148164.56, 0.0, 9.998539, 9.999727 
2.4948198e+3, 2.756803e+2, -557543.44, -434186.6, -21156.15, 0.042480685, 0.08257101, -430659.1, -192317.75, 0.0, 9.998022, 9.999653 
2.4947776e+3, 2.856802e+2, -481572.1, -273591.1, -25128.328, 0.06673963, 0.08427673, -270598.13, -130255.69, 0.0, 9.997555, 10.000307 
2.4947351e+3, 2.956801e+2, -448094.34, -223073.55, -11484.067, 0.10242052, 0.05484336, -222488.97, -180146.75, 0.0, 9.997181, 10.000163 
2.4946931e+3, 3.0568102e+2, -433652.56, -197842.08, 1546.0331, 0.13819449, 0.14697532, -197831.94, -197831.94, 0.0, 9.996974, 10.000101 
2.494651e+3, 3.1568038e+2, -419493.8, -71983.836, -42130.68, 0.1394711, 0.085334875, -66949.03, -66949.03, 0.0, 9.996561, 10.001162 
2.5054577e+3, 1.257412e+2, -1180547.0, -1696179.4, 11314.243, -0.050760295, -0.010129148, -1180298.9, 527443.06, 0.18781807, 10.005779, 9.997362 
2.505415e+3, 1.357398e+2, -1124813.8, -1650236.5, 8588.295, 0.0038109678, 0.1257574, -1124673.4, 485084.47, 0.13337094, 10.005215, 9.99726 
2.5053722e+3, 1.4573732e+2, -1029082.44, -1508441.1, 30754.19, -0.0019935945, 0.13586967, -1027117.4, 484664.8, 0.079067625, 10.00471, 9.997801 
2.505329e+3, 1.5573412e+2, -976492.75, -1452917.8, 32134.498, -0.034307815, 0.046555243, -974335.06, 439476.75, 0.036145538, 10.004265, 9.997724 
2.5052863e+3, 1.6573179e+2, -919641.5, -1319109.6, 41311.8, -0.011671307, 0.024197267, -915413.9, 400420.28, 0.011293055, 10.003637, 9.99827 
2.5052443e+3, 1.7573023e+2, -933930.6, -1286636.0, 36655.21, 0.04825271, 0.05253336, -930161.5, 287688.28, 0.0018639815, 10.00288, 9.998185 
2.505202e+3, 1.8572873e+2, -863383.25, -1130137.4, 39590.617, 0.043635778, 0.06308767, -857631.4, 262232.53, 0.00006485423, 10.002378, 9.998829 
2.505159e+3, 1.9572741e+2, -815788.3, -1065570.1, 37590.203, -0.008499371, 0.057656426, -810253.94, 211621.86, 0.0000000000010010511, 10.002069, 9.998749 
2.5051168e+3, 2.0572618e+2, -763703.9, -925314.1, 37692.387, 0.01007716, 0.04379898, -755345.2, 168542.17, 0.0, 10.001478, 9.999324 
2.505075e+3, 2.1572517e+2, -790195.25, -898996.25, 36456.145, 0.08287137, 0.02172668, -779109.4, 46788.1, 0.0, 10.000673, 9.999219 
2.505032e+3, 2.2572458e+2, -730060.9, -775302.4, 28422.13, 0.07579269, 0.032444112, -716356.5, 11547.269, 0.0, 10.000223, 9.999613 
2.504989e+3, 2.357244e+2, -667208.7, -705902.5, 26430.904, 0.010613406, 0.06564738, -653800.5, -23894.748, 0.0, 10.000031, 9.999509 
2.5049466e+3, 2.457241e+2, -605588.94, -574131.0, 17232.363, 0.028127572, 0.07113893, -566528.56, -34619.63, 0.0, 9.999561, 9.999967 
2.5049046e+3, 2.5572377e+2, -619577.2, -547089.6, 15527.755, 0.10650675, 0.05335538, -543903.44, -109991.695, 0.0, 9.998864, 9.999816 
2.5048617e+3, 2.657234e+2, -597656.3, -504771.56, 9005.505, 0.09738997, 0.05878725, -503906.5, -167990.17, 0.0, 9.998425, 9.999645 
2.5048178e+3, 2.757232e+2, -538885.8, -432166.06, 23291.271, 0.03338079, 0.08020951, -427304.3, -189383.47, 0.0, 9.998181, 9.999588 
2.5047752e+3, 2.85723e+2, -455141.63, -255869.42, 13016.56, 0.06657769, 0.075334474, -255022.77, -115099.98, 0.0, 9.997717, 10.000349 
2.5047326e+3, 2.9572293e+2, -463901.16, -230790.92, 4331.234, 0.14118007, 0.04492059, -230710.47, -188788.38, 0.0, 9.997076, 10.000159 
2.5046894e+3, 3.0572388e+2, -463210.0, -210997.22, 29584.13, 0.09916278, 0.14035155, -207573.52, -207573.52, 0.0, 9.996767, 10.000109 
2.504647e+3, 3.1572294e+2, -411481.8, -76945.375, -46776.176, 0.12614596, 0.047691938, -70528.055, -70528.055, 0.0, 9.996662, 10.001075 
2.5154638e+3, 1.2578577e+2, -1179951.8, -1699822.3, -7012.7026, -0.024875421, 0.09418868, -1179857.1, 527449.2, 0.17707926, 10.005733, 9.99735 
2.5154197e+3, 1.3578244e+2, -1121098.3, -1651239.4, -9445.526, -0.04524588, 0.03897263, -1120930.0, 488408.75, 0.12526104, 10.005211, 9.997254 
2.5153762e+3, 1.4577986e+2, -1021034.4, -1500065.9, 15245.757, -0.03956861, 0.03634039, -1020549.7, 490813.97, 0.07380799, 10.004718, 9.997861 
2.5153336e+3, 1.557779e+2, -973129.5, -1446986.5, 15116.343, 0.007154446, 0.06515237, -972647.8, 440734.34, 0.033396095, 10.004255, 9.997769 
2.5152904e+3, 1.657759e+2, -926509.8, -1333371.9, 13361.268, 0.026444536, 0.0778631, -926071.5, 389330.2, 0.010239274, 10.003631, 9.998177 
2.5152472e+3, 1.7577395e+2, -938277.06, -1297375.3, 10208.74, 0.020201705, 0.07673045, -937987.06, 279433.75, 0.0016265179, 10.002884, 9.998111 
2.515204e+3, 1.8577205e+2, -863592.6, -1132233.1, 28979.4, 0.02438544, 0.050743375, -860502.06, 258936.94, 0.000050066847, 10.002382, 9.998815 
2.5151613e+3, 1.9577032e+2, -817887.56, -1069262.0, 25886.938, 0.03701014, 0.0078075696, -815249.4, 206205.53, 0.0, 10.002065, 9.998728 
2.5151184e+3, 2.0576933e+2, -764141.56, -926396.56, 8139.1714, 0.03631689, 0.017936936, -763734.3, 159729.86, 0.0, 10.001476, 9.999318 
2.515075e+3, 2.1576901e+2, -790789.7, -900693.75, 8930.634, 0.026126891, 0.06366742, -790068.7, 35398.64, 0.0, 10.000672, 9.999209 
2.515032e+3, 2.2576828e+2, -734216.2, -785546.2, 22135.78, 0.0351466, 0.06557531, -725988.94, 1485.8175, 0.0, 10.000228, 9.999541 
2.5149894e+3, 2.3576736e+2, -670440.9, -715392.8, 18170.93, 0.05835073, 0.03144573, -664014.4, -34530.348, 0.0, 10.000041, 9.999441 
2.5149462e+3, 2.457668e+2, -610446.0, -586067.2, -9924.412, 0.06948135, 0.020749623, -582538.0, -51048.3, 0.0, 9.999566, 9.999884 
2.514903e+3, 2.557667e+2, -622439.5, -554523.06, -11267.98, 0.06993199, 0.02988641, -552702.4, -119211.49, 0.0, 9.998868, 9.999764 
2.5148597e+3, 2.6576683e+2, -573808.2, -455563.44, -1931.1531, 0.06584373, 0.068393685, -455531.9, -120041.58, 0.0, 9.998423, 9.999985 
2.5148162e+3, 2.7576718e+2, -519158.38, -391395.66, 12406.029, 0.06615841, 0.11671944, -390202.16, -152714.02, 0.0, 9.99818, 9.99987 
2.5147733e+3, 2.8576654e+2, -477096.53, -302194.7, -12191.704, 0.114502914, 0.07060346, -301348.97, -161854.06, 0.0, 9.997717, 10.000033 
2.51473e+3, 2.957656e+2, -481003.53, -268209.0, -18830.955, 0.17296189, -0.014277496, -266555.4, -225051.66, 0.0, 9.99708, 9.999902 
2.5146848e+3, 3.0576685e+2, -447986.97, -179236.47, 24558.809, -0.022798982, 0.10930839, -177010.69, -177010.69, 0.0, 9.996763, 10.00033 
2.5146437e+3, 3.1576544e+2, -342820.2, 67661.09, -41171.71, 0.1386291, -0.05731017, 71749.94, 71749.94, 0.0, 9.996652, 10.002074 
2.5254694e+3, 1.2582998e+2, -1193539.9, -1699475.9, 5048.689, -0.004741176, 0.12932914, -1193489.5, 513384.56, 0.16602983, 10.005506, 9.997462 
2.5254247e+3, 1.3582624e+2, -1092275.6, -1626259.5, 10160.748, -0.05423744, 0.02119313, -1092082.4, 516826.44, 0.1169715, 10.005347, 9.997359 
2.5253808e+3, 1.4582364e+2, -1006910.8, -1496662.0, 25876.275, -0.047219377, 0.013371461, -1005547.4, 505386.16, 0.06846892, 10.004817, 9.997834 
2.5253376e+3, 1.5582198e+2, -1006165.4, -1466191.6, 19035.082, 0.023147088, 0.0735223, -1005379.06, 407570.84, 0.030630905, 10.004025, 9.997746 
2.5252938e+3, 1.6581993e+2, -942383.7, -1334974.5, 23925.482, 0.03692058, 0.082640186, -940930.94, 374038.63, 0.009196672, 10.003493, 9.99823 
2.5252497e+3, 1.7581774e+2, -893934.2, -1269547.9, 30265.06, 0.004286993, 0.052717417, -891511.25, 325479.1, 0.001398367, 10.003164, 9.998166 
2.5252062e+3, 1.8581592e+2, -840432.7, -1123312.5, 50859.38, 0.0145949535, 0.03210265, -831566.5, 287441.6, 0.00003693245, 10.002555, 9.998791 
2.5251633e+3, 1.9581443e+2, -866561.5, -1094924.4, 46539.81, 0.057486918, 0.017535804, -857441.06, 163581.34, 0.0, 10.001743, 9.998704 
2.5251195e+3, 2.0581342e+2, -794569.5, -943250.25, 30264.227, 0.051155843, 0.026880145, -788645.2, 134386.75, 0.0, 10.00128, 9.999295 
2.5250754e+3, 2.1581285e+2, -734657.3, -875654.5, 29307.86, 0.009482204, 0.0516835, -728808.0, 96228.82, 0.0, 10.001069, 9.999189 
2.5250322e+3, 2.2581203e+2, -696680.0, -769685.1, 43482.25, 0.023254884, 0.046867162, -676409.8, 50635.04, 0.0, 10.000499, 9.999518 
2.5249895e+3, 2.3581114e+2, -726855.6, -743983.06, 43251.42, 0.080023475, 0.01701912, -691328.3, -62274.207, 0.0, 9.999663, 9.999424 
2.5249457e+3, 2.4581058e+2, -656109.94, -610024.56, 24153.658, 0.08803407, 0.009013712, -599685.2, -68625.41, 0.0, 9.999265, 9.999863 
2.524902e+3, 2.5581044e+2, -578567.4, -534154.5, 27049.463, 0.058059257, 0.018077394, -521363.78, -88302.47, 0.0, 9.999176, 9.999754 
2.5248578e+3, 2.6581058e+2, -532486.6, -429981.13, 21110.23, 0.054777376, 0.057153743, -425803.88, -90743.29, 0.0, 9.998686, 10.000031 
2.5248143e+3, 2.7581105e+2, -559089.9, -405496.44, 12684.489, 0.080904834, 0.11016686, -404455.94, -167398.45, 0.0, 9.997888, 9.999912 
2.5247708e+3, 2.8581044e+2, -504490.06, -313340.63, -837.7297, 0.12867895, 0.06812252, -313336.97, -174273.25, 0.0, 9.997525, 10.000047 
2.524727e+3, 2.9580945e+2, -424751.13, -239913.77, 17136.209, 0.16906887, -0.024712682, -238338.5, -197265.06, 0.0, 9.997467, 9.999907 
2.5246814e+3, 3.0581057e+2, -433981.38, -182060.88, 50924.33, -0.04175747, 0.093105756, -172156.22, -172156.22, 0.0, 9.996906, 10.000239 
2.5246412e+3, 3.1581137e+2, -382896.53, 117255.65, -15506.072, 0.24415056, 0.15197283, 117735.92, 117735.92, 0.0, 9.996079, 10.002691 
2.5354752e+3, 1.2587401e+2, -1175155.8, -1671547.0, 194.93611, 0.007950269, 0.10952357, -1175155.8, 531287.75, 0.15477858, 10.005488, 9.997694 
2.5354302e+3, 1.3587111e+2, -1078510.3, -1599968.3, 3676.0762, -0.03103043, 0.062836505, -1078484.3, 529984.6, 0.108588, 10.005319, 9.9975605 
2.5353858e+3, 1.4586852e+2, -1014355.5, -1515949.9, -1998.9479, -0.03140276, 0.05511121, -1014347.56, 496145.56, 0.06310864, 10.004802, 9.997704 
2.5353417e+3, 1.558663e+2, -1011818.3, -1480911.3, -8180.9756, 0.015304938, 0.07155205, -1011675.7, 400839.56, 0.0278821, 10.004024, 9.997647 
2.535297e+3, 1.6586393e+2, -929455.1, -1309815.8, 12694.016, 0.022990482, 0.04385777, -929031.94, 385505.53, 0.008178999, 10.003495, 9.998404 
2.5352526e+3, 1.7586164e+2, -883736.8, -1247747.8, 17399.195, -0.001191251, -0.014503372, -882907.06, 333651.2, 0.0011838797, 10.003158, 9.99832 
2.5352088e+3, 1.8586029e+2, -844442.7, -1131229.5, 20921.723, 0.01216176, 0.008812406, -842924.44, 275647.2, 0.000025994234, 10.00255, 9.998739 
2.535165e+3, 1.958597e+2, -869607.1, -1101666.9, 18603.633, 0.052644636, 0.086498804, -868125.2, 152453.61, 0.0, 10.001742, 9.99866 
2.5351208e+3, 2.0585836e+2, -796840.6, -949563.3, 23220.855, 0.055469945, 0.06917397, -793388.06, 129203.37, 0.0, 10.001284, 9.999252 
2.5350767e+3, 2.1585664e+2, -737147.9, -882055.7, 20899.18, 0.030548723, -0.016915211, -734193.94, 90412.64, 0.0, 10.001072, 9.9991455 
2.5350326e+3, 2.2585578e+2, -695992.25, -769426.94, 12773.961, 0.038648225, -0.02363563, -693833.7, 32780.945, 0.0, 10.000501, 9.99952 
2.534989e+3, 2.3585568e+2, -726063.44, -743128.75, 13639.843, 0.07306741, 0.02521845, -718507.25, -89890.96, 0.0, 9.999664, 9.999432 
2.534945e+3, 2.4585536e+2, -652565.1, -603533.3, 20016.367, 0.08320675, 0.037889328, -596399.8, -65780.13, 0.0, 9.999267, 9.9999075 
2.534901e+3, 2.5585496e+2, -575803.7, -531154.5, 21124.736, 0.07049716, 0.018554352, -522744.06, -90120.55, 0.0, 9.999186, 9.999772 
2.5348568e+3, 2.6585466e+2, -551747.2, -471453.44, -10566.36, 0.06477039, 0.023174642, -470086.22, -135458.2, 0.0, 9.998689, 9.999747 
2.534812e+3, 2.7585462e+2, -575658.8, -439870.97, -17134.506, 0.07569988, 0.05695103, -437742.2, -201111.83, 0.0, 9.997884, 9.99968 
2.534768e+3, 2.8585464e+2, -480860.7, -264355.66, -5469.16, 0.10397095, 0.067979254, -264217.56, -125587.16, 0.0, 9.997522, 10.000385 
2.534724e+3, 2.958544e+2, -405876.6, -202366.89, 10079.072, 0.11764358, 0.016892599, -201868.92, -161237.05, 0.0, 9.997472, 10.000163 
2.5346795e+3, 3.058551e+2, -461761.53, -238457.52, 14116.164, 0.072585754, 0.10271222, -237568.69, -237568.69, 0.0, 9.996898, 9.999858 
2.5346366e+3, 3.158561e+2, -413662.44, 46258.395, -6535.729, 0.17824385, 0.22021344, 46351.254, 46351.254, 0.0, 9.996093, 10.002206 
2.54548e+3, 1.2591867e+2, -1154769.6, -1664584.0, 26284.18, -0.00938441, 0.09229057, -1153418.1, 552586.44, 0.1434244, 10.005594, 9.997697 
2.5454357e+3, 1.3591602e+2, -1110338.9, -1617233.6, 16317.331, 0.0077100056, 0.071062006, -1109814.1, 498213.72, 0.10017652, 10.005029, 9.997575 
2.5453907e+3, 1.4591339e+2, -1045375.1, -1524185.5, 5380.379, 0.0025299205, 0.053181056, -1045314.7, 464737.78, 0.057770677, 10.00452, 9.99778 
2.545345e+3, 1.5591088e+2, -997951.6, -1464824.4, 12455.851, 0.0020260555, 0.034499433, -997619.56, 414457.53, 0.025175732, 10.004074, 9.997731 
2.5453004e+3, 1.6590866e+2, -913437.06, -1286828.5, 41951.35, 0.0073713474, 0.01085313, -908781.75, 405315.94, 0.0071985354, 10.003539, 9.99854 
2.5452557e+3, 1.759068e+2, -907937.0, -1246389.5, 42963.586, 0.012537932, -0.0159973, -902568.3, 313545.72, 0.0009868774, 10.002936, 9.998435 
2.5452113e+3, 1.8590547e+2, -871122.6, -1152290.3, 38298.938, 0.024010904, 0.007882061, -865999.1, 252128.3, 0.000017543054, 10.002405, 9.998663 
2.5451666e+3, 1.959046e+2, -846658.8, -1097177.0, 34233.727, 0.041651215, 0.06561523, -842065.0, 178072.61, 0.0, 10.001931, 9.998598 
2.5451222e+3, 2.0590325e+2, -780049.56, -939259.3, 48556.777, 0.048282616, 0.048507202, -766409.1, 155741.48, 0.0, 10.001393, 9.999269 
2.5450775e+3, 2.1590167e+2, -774349.56, -897523.1, 49314.824, 0.046587065, -0.023805877, -757038.4, 67126.02, 0.0, 10.00081, 9.999164 
2.545033e+3, 2.2590083e+2, -709974.25, -777508.25, 37093.0, 0.048873354, -0.029132381, -693580.5, 32591.768, 0.0, 10.000415, 9.999504 
2.5449884e+3, 2.3590064e+2, -657931.9, -712228.9, 37494.76, 0.057171468, 0.013214047, -638788.94, -10614.481, 0.0, 10.000143, 9.999411 
2.5449443e+3, 2.4590027e+2, -613643.75, -593448.94, 42174.598, 0.07126815, 0.027360504, -560179.8, -30001.326, 0.0, 9.999574, 9.999827 
2.5449e+3, 2.5589988e+2, -638906.06, -569009.6, 33171.87, 0.085852355, 0.015413581, -555773.3, -123590.26, 0.0, 9.998788, 9.9997015 
2.5448552e+3, 2.6589948e+2, -588398.4, -486431.97, 10859.413, 0.075986475, 0.017901938, -485288.28, -151100.34, 0.0, 9.998429, 9.999767 
2.54481e+3, 2.7589935e+2, -506381.38, -405129.03, 27480.213, 0.06094581, 0.04076815, -398151.63, -161960.89, 0.0, 9.998357, 9.999689 
2.5447655e+3, 2.858994e+2, -433056.25, -252101.95, 31491.402, 0.08845168, 0.057543647, -246778.14, -108587.24, 0.0, 9.997899, 10.000288 
2.544721e+3, 2.958993e+2, -452272.1, -233229.4, 13207.521, 0.11803482, 0.028959667, -232435.9, -192244.17, 0.0, 9.99719, 10.000088 
2.5446764e+3, 3.058999e+2, -467353.7, -243124.48, 13492.262, 0.093507, 0.10928819, -242315.56, -242315.56, 0.0, 9.996871, 9.999837 
2.5446317e+3, 3.158978e+2, -385145.72, 7252.6045, 29387.504, 0.07046506, -0.07887329, 9441.286, 9441.286, 0.0, 9.996526, 10.001722 
2.5554854e+3, 1.2596396e+2, -1162789.0, -1689197.9, 8318.225, -0.054017384, 0.079916105, -1162657.5, 542900.4, 0.13205737, 10.005565, 9.997509 
2.5554413e+3, 1.3596104e+2, -1119001.1, -1640436.5, -1189.3492, 0.057546113, 0.05095023, -1118998.4, 488586.66, 0.091796674, 10.004998, 9.99743 
2.5553954e+3, 1.4595829e+2, -1028374.56, -1492250.9, -9855.582, 0.05024186, 0.013379503, -1028165.25, 481445.9, 0.05249481, 10.004509, 9.998014 
2.5553492e+3, 1.5595572e+2, -981833.4, -1432662.4, -3867.2395, -0.017561086, -0.032864083, -981800.25, 429835.2, 0.022536011, 10.004069, 9.997956 
2.5553036e+3, 1.6595408e+2, -907418.1, -1274245.0, 19817.867, -0.010507567, -0.015312183, -906350.6, 407300.06, 0.0062662144, 10.003532, 9.998631 
2.5552592e+3, 1.7595318e+2, -904048.94, -1237323.1, 20757.527, 0.042881887, 0.04422409, -902761.06, 312897.47, 0.0008097287, 10.00293, 9.998502 
2.555214e+3, 1.859514e+2, -878698.1, -1168862.9, 20847.428, 0.04852422, 0.026726667, -877208.0, 240468.16, 0.000011470139, 10.002405, 9.99855 
2.5551683e+3, 1.9594914e+2, -852512.0, -1110807.4, 16939.46, 0.023150364, -0.042813733, -851405.8, 168293.13, 0.0, 10.001935, 9.998504 
2.5551233e+3, 2.0594805e+2, -775213.8, -930696.06, 27173.273, 0.029656818, -0.031105252, -770601.6, 151107.92, 0.0, 10.001396, 9.999327 
2.5550786e+3, 2.1594791e+2, -770516.6, -889835.56, 29337.707, 0.056808192, 0.03262735, -763693.4, 60017.324, 0.0, 10.000808, 9.999219 
2.5550336e+3, 2.259471e+2, -712362.06, -783391.9, 27719.74, 0.053311706, 0.029816974, -702824.8, 22893.484, 0.0, 10.000417, 9.999465 
2.5549883e+3, 2.3594593e+2, -660809.56, -720747.3, 25618.5, 0.03011869, -0.021387191, -651352.06, -23622.72, 0.0, 10.000152, 9.999351 
2.5549436e+3, 2.4594523e+2, -628602.75, -625965.25, 11400.337, 0.05210555, -0.024079835, -615807.6, -86070.68, 0.0, 9.999577, 9.999604 
2.554899e+3, 2.5594506e+2, -651376.94, -595085.4, 4586.696, 0.102632225, 0.008574832, -594714.06, -162973.47, 0.0, 9.998786, 9.999525 
2.5548536e+3, 2.659451e+2, -564773.8, -437573.8, 7371.736, 0.08693165, 0.043976195, -437148.0, -103407.32, 0.0, 9.998428, 10.000105 
2.554808e+3, 2.7594534e+2, -486218.3, -366731.72, 21994.17, 0.03387032, 0.06750435, -362811.78, -127073.54, 0.0, 9.998369, 9.9999485 
2.5547633e+3, 2.8594467e+2, -471589.2, -334227.25, 3018.6387, 0.08484229, 0.03415305, -334160.94, -196415.16, 0.0, 9.997905, 9.9997225 
2.554719e+3, 2.9594395e+2, -484504.06, -298003.06, -10758.455, 0.17948064, 0.00007944512, -297384.5, -257629.6, 0.0, 9.997177, 9.999651 
2.554672e+3, 3.0594492e+2, -450592.56, -209842.92, 5858.488, -0.009248698, 0.11999565, -209700.44, -209700.44, 0.0, 9.996875, 10.000066 
2.5546286e+3, 3.1594267e+2, -350232.2, 80875.07, -14178.855, 0.103055686, -0.09518145, 81340.9, 81340.9, 0.0, 9.996526, 10.002227 
2.5654906e+3, 1.2600914e+2, -1151592.9, -1673771.4, 6442.633, -0.046950158, 0.023795493, -1151513.4, 553598.8, 0.120792426, 10.005527, 9.997649 
2.565446e+3, 1.3600665e+2, -1152491.8, -1645348.8, 17899.963, 0.049546294, 0.023479916, -1151842.5, 455293.5, 0.08352629, 10.004649, 9.997565 
2.5653997e+3, 1.4600413e+2, -1068647.9, -1506973.5, 24853.4, 0.04334913, 0.0012924629, -1067243.3, 441917.13, 0.047328852, 10.004176, 9.998067 
2.565353e+3, 1.5600166e+2, -990168.7, -1431798.3, 17625.795, -0.014275028, -0.039078835, -989466.4, 421717.63, 0.01998821, 10.003982, 9.998005 
2.565307e+3, 1.6600004e+2, -920358.6, -1284999.8, 18846.422, -0.0054693683, -0.019307217, -919387.1, 393812.34, 0.0053913146, 10.003462, 9.9985895 
2.5652617e+3, 1.759991e+2, -933755.8, -1253895.1, 11341.681, 0.04458621, 0.040252373, -933354.5, 281853.63, 0.00065313, 10.002736, 9.99848 
2.565216e+3, 1.8599734e+2, -891063.56, -1158556.6, 27689.035, 0.048252493, 0.017236277, -888227.44, 228997.83, 0.000007326987, 10.002253, 9.998694 
2.5651702e+3, 1.9599512e+2, -844264.2, -1093215.3, 40620.79, 0.021853708, -0.061771434, -837803.8, 181443.03, 0.0, 10.001936, 9.998624 
2.5651246e+3, 2.0599405e+2, -779013.0, -947683.3, 42048.84, 0.027115693, -0.04692322, -769111.6, 152145.92, 0.0, 10.001439, 9.999187 
2.5650793e+3, 2.1599388e+2, -777018.0, -906271.4, 29229.484, 0.053374473, 0.030310007, -770715.4, 52544.203, 0.0, 10.000823, 9.999097 
2.5650337e+3, 2.2599307e+2, -729526.6, -787471.1, 32545.912, 0.052031912, 0.031657852, -714925.6, 10341.841, 0.0, 10.000283, 9.9995 
2.564988e+3, 2.359919e+2, -710763.1, -740409.7, 35989.152, 0.034296747, -0.022389717, -686664.06, -59385.656, 0.0, 9.999794, 9.999386 
2.5649428e+3, 2.4599119e+2, -653995.25, -641180.1, 27490.094, 0.051179077, -0.028211437, -619360.7, -90074.41, 0.0, 9.999419, 9.999574 
2.5648975e+3, 2.5599095e+2, -606532.75, -575981.0, 35816.414, 0.08936652, 0.003304737, -552318.9, -121028.54, 0.0, 9.999107, 9.999499 
2.564852e+3, 2.6599103e+2, -528393.7, -418881.94, 38828.92, 0.07850231, 0.040468633, -406511.88, -73221.67, 0.0, 9.998675, 10.0001135 
2.564806e+3, 2.7599123e+2, -517112.94, -381194.84, 26498.078, 0.044599757, 0.06410129, -376211.6, -140924.13, 0.0, 9.998158, 9.999949 
2.564761e+3, 2.859905e+2, -500875.8, -356769.34, 9983.891, 0.09492066, 0.026259547, -356080.94, -218785.05, 0.0, 9.997745, 9.999643 
2.5647157e+3, 2.9598975e+2, -463217.75, -296046.88, 34117.527, 0.17299034, -0.0023870773, -289352.0, -250046.53, 0.0, 9.997366, 9.999571 
2.5646687e+3, 3.0599037e+2, -461972.38, -219405.06, 56994.434, -0.026486428, 0.089602016, -206680.92, -206680.92, 0.0, 9.996818, 10.000027 
2.5646254e+3, 3.1599098e+2, -325598.34, 161402.42, -1172.0144, 0.17164926, 0.16041034, 161405.25, 161405.25, 0.0, 9.996398, 10.002843 
2.5754964e+3, 1.2605426e+2, -1127803.6, -1620997.4, -21726.525, -0.0021348682, -0.070922725, -1126848.3, 577819.06, 0.10978741, 10.005447, 9.998089 
2.5754496e+3, 1.3605285e+2, -1125479.1, -1593755.0, -9443.066, -0.0102803055, -0.006497435, -1125288.8, 481391.9, 0.07547132, 10.004644, 9.997929 
2.5754032e+3, 1.4605086e+2, -1072837.5, -1524088.4, 17967.1, -0.010959938, 0.017066006, -1072123.3, 436577.2, 0.04233374, 10.004185, 9.997947 
2.5753573e+3, 1.5604861e+2, -1000064.4, -1451372.1, 8685.626, 0.009092904, 0.009191829, -999897.25, 410826.28, 0.017560545, 10.0039625, 9.997881 
2.5753108e+3, 1.660465e+2, -933557.75, -1311049.4, -7781.6465, 0.018718475, -0.005701055, -933397.4, 379347.1, 0.004582099, 10.00345, 9.998417 
2.5752643e+3, 1.7604461e+2, -940238.8, -1269564.0, -13479.092, 0.0180718, -0.02438624, -939688.0, 275074.53, 0.0005169369, 10.002743, 9.998371 
2.5752178e+3, 1.8604329e+2, -863642.44, -1103962.5, 16636.98, 0.024906065, -0.016859561, -862496.1, 254278.5, 0.0000045842844, 10.00226, 9.999067 
2.5751722e+3, 1.9604246e+2, -823887.75, -1050453.4, 28230.67, 0.0370217, 0.006216321, -820423.1, 198358.6, 0.0, 10.001931, 9.99892 
2.575126e+3, 2.0604111e+2, -803554.1, -998724.06, 19236.355, 0.039215125, -0.0019882026, -801676.25, 119118.94, 0.0, 10.001437, 9.998839 
2.5750798e+3, 2.1603954e+2, -797828.5, -950573.94, 7529.7817, 0.034136288, -0.032283112, -797458.25, 25353.352, 0.0, 10.000825, 9.998794 
2.575034e+3, 2.2603872e+2, -721551.75, -772554.6, 14907.643, 0.04516186, -0.022306941, -717514.06, 7306.016, 0.0, 10.000287, 9.999602 
2.5749883e+3, 2.3603855e+2, -702674.2, -724663.56, 18076.916, 0.069212765, 0.011310112, -692510.94, -65688.82, 0.0, 9.999796, 9.999495 
2.5749424e+3, 2.4603805e+2, -643111.7, -618707.8, 15026.524, 0.06724775, 0.0161233, -611553.0, -82726.03, 0.0, 9.999419, 9.999729 
2.574896e+3, 2.560375e+2, -597200.6, -558928.1, 22669.602, 0.042427164, -0.00009562598, -548397.75, -117565.164, 0.0, 9.999115, 9.999615 
2.5748503e+3, 2.660371e+2, -552335.75, -470223.94, 17697.768, 0.05099052, 0.004464354, -466571.94, -133734.6, 0.0, 9.998679, 9.999761 
2.5748047e+3, 2.7603692e+2, -537408.8, -422543.63, 6203.8896, 0.095447026, 0.024265243, -422209.53, -187369.48, 0.0, 9.998152, 9.99967 
2.5747588e+3, 2.8603685e+2, -472108.5, -296675.25, -5595.2603, 0.11544907, 0.038297437, -296496.97, -159655.3, 0.0, 9.99774, 10.000059 
2.5747123e+3, 2.9603678e+2, -441302.53, -253697.97, 16614.01, 0.084780894, 0.03833457, -252238.02, -213395.7, 0.0, 9.997376, 9.999858 
2.574666e+3, 3.0603597e+2, -478878.78, -252856.03, 32992.484, 0.068620026, -0.006513008, -248138.6, -248138.6, 0.0, 9.996808, 9.999803 
2.5746214e+3, 3.1603667e+2, -371055.88, 67765.164, -37405.652, 0.15879144, 0.085259706, 70930.836, 70930.836, 0.0, 9.996386, 10.002211 
2.5855017e+3, 1.2610088e+2, -1208135.9, -1669143.5, 26079.303, 0.002819636, -0.10807244, -1206665.3, 497543.16, 0.09920153, 10.00481, 9.998026 
2.585454e+3, 1.3609967e+2, -1092027.1, -1584078.6, 7261.0044, -0.036175333, -0.017148916, -1091920.0, 514300.44, 0.0677419, 10.004883, 9.997885 
2.585407e+3, 1.4609778e+2, -1048037.94, -1511364.5, 20347.857, -0.034831077, 0.017690882, -1047146.06, 461093.9, 0.03757308, 10.004344, 9.997956 
2.5853607e+3, 1.5609556e+2, -1073938.9, -1486091.3, 19955.64, 0.009388373, 0.013023295, -1072974.9, 337288.3, 0.01528112, 10.003435, 9.997895 
2.585314e+3, 1.6609344e+2, -989708.2, -1329213.6, 24220.254, 0.021502612, -0.0067659393, -987989.06, 324295.1, 0.0038456707, 10.003024, 9.998497 
2.5852665e+3, 1.7609152e+2, -907125.9, -1245743.9, 34980.27, 0.009053006, -0.03671547, -903550.06, 310752.0, 0.00040077142, 10.002939, 9.998439 
2.58522e+3, 1.860902e+2, -846526.25, -1105827.5, 45033.418, 0.016836045, -0.027583135, -838927.9, 277386.47, 0.00000279495, 10.002424, 9.998974 
2.5851738e+3, 1.9608939e+2, -872427.2, -1081946.0, 22574.736, 0.038223263, 0.00634898, -870022.44, 148299.19, 0.0, 10.001634, 9.998847 
2.585127e+3, 2.0608802e+2, -836888.5, -1000054.4, 25385.37, 0.042030245, -0.0055169244, -833030.25, 87304.53, 0.0, 10.001147, 9.998969 
2.5850806e+3, 2.1608643e+2, -785422.4, -932172.94, 47704.945, 0.03450917, -0.049106255, -771278.0, 51072.637, 0.0, 10.000862, 9.9989 
2.585034e+3, 2.2608557e+2, -722692.5, -792320.8, 52581.27, 0.04505596, -0.038536668, -694444.7, 29915.213, 0.0, 10.000366, 9.999426 
2.5849882e+3, 2.3608533e+2, -722565.6, -749980.94, 36409.523, 0.07010486, 0.0075490293, -697368.9, -71005.48, 0.0, 9.999729, 9.9993515 
2.5849417e+3, 2.460849e+2, -650018.5, -607132.5, 33321.84, 0.06813716, 0.015807169, -588950.44, -60582.7, 0.0, 9.999309, 9.999861 
2.584895e+3, 2.560844e+2, -602959.8, -548787.9, 37947.01, 0.04412563, -0.00511822, -529251.7, -98879.98, 0.0, 9.999023, 9.999727 
2.584849e+3, 2.6608393e+2, -567730.6, -487871.0, 36252.695, 0.05050681, -0.010313601, -473868.94, -141491.5, 0.0, 9.998621, 9.999666 
2.5848028e+3, 2.7608356e+2, -546648.8, -434958.13, 44935.77, 0.09159719, 0.00055467314, -419124.13, -184741.58, 0.0, 9.998126, 9.999597 
2.5847566e+3, 2.8608364e+2, -460066.28, -276596.28, 33759.32, 0.112673394, 0.03249136, -270581.6, -134199.63, 0.0, 9.997762, 10.000186 
2.5847098e+3, 2.9608393e+2, -418120.88, -230107.05, 31641.684, 0.0885976, 0.05448422, -224924.77, -186546.22, 0.0, 9.997481, 9.9999695 
2.584663e+3, 3.0608252e+2, -447867.5, -219758.67, 46769.754, 0.070533246, -0.0657026, -210541.77, -210541.77, 0.0, 9.996946, 9.999962 
2.5846168e+3, 3.1608236e+2, -458156.84, -26211.816, -4573.2764, 0.08908583, -0.07400799, -26163.402, -26163.402, 0.0, 9.996021, 10.001737 
2.595506e+3, 1.2614885e+2, -1237559.4, -1737239.8, 27143.908, -0.029009502, -0.09325663, -1236089.3, 467647.56, 0.08914118, 10.004783, 9.997542 
2.595459e+3, 1.3614704e+2, -1120576.5, -1645119.4, 5134.8154, -0.034697823, -0.014862541, -1120526.3, 485229.72, 0.060421806, 10.004843, 9.997474 
2.5954112e+3, 1.4614485e+2, -1041312.7, -1497884.9, -13157.211, -0.03391346, 0.0021657397, -1040933.9, 466844.88, 0.03310024, 10.004322, 9.998064 
2.595364e+3, 1.5614256e+2, -1063630.9, -1466455.3, -10300.079, -0.013167394, -0.02170391, -1063367.6, 346434.94, 0.013174457, 10.003434, 9.998033 
2.5953168e+3, 1.661409e+2, -967881.75, -1285039.9, 21367.783, 0.004705777, -0.018869609, -966448.6, 345369.7, 0.003187663, 10.003025, 9.998802 
2.5952697e+3, 1.7613977e+2, -894454.5, -1217473.6, 28838.19, 0.016564135, 0.00067932, -891900.1, 321927.44, 0.00030400298, 10.002928, 9.99864 
2.5952223e+3, 1.8613796e+2, -886514.3, -1187802.3, 15217.228, 0.021693083, -0.016994255, -885747.7, 230097.44, 0.0000016192165, 10.002417, 9.998417 
2.595175e+3, 1.9613582e+2, -901684.56, -1143615.5, -4275.668, 0.023398459, -0.059645463, -901609.06, 116257.66, 0.0, 10.001636, 9.998425 
2.595128e+3, 2.0613477e+2, -794393.94, -914038.1, 15538.724, 0.03572813, -0.05476076, -792408.8, 127467.55, 0.0, 10.001154, 9.999558 
2.5950816e+3, 2.1613453e+2, -752122.25, -863747.5, 36387.59, 0.054270472, -0.021502545, -741308.25, 80568.96, 0.0, 10.000862, 9.999372 
2.5950345e+3, 2.2613354e+2, -755715.5, -860702.2, 28979.307, 0.05070813, -0.017742543, -748247.56, -24360.002, 0.0, 10.000364, 9.998958 
2.5949875e+3, 2.3613222e+2, -750281.8, -808563.5, 13644.739, 0.034165487, -0.03493703, -747245.56, -121342.59, 0.0, 9.999731, 9.998949 
2.5949407e+3, 2.4613163e+2, -642486.1, -592838.1, 21840.328, 0.054264154, -0.030347638, -584598.06, -56688.883, 0.0, 9.999311, 9.999959 
2.5948945e+3, 2.5613162e+2, -595643.56, -535004.5, 25560.977, 0.09495534, -0.012374169, -525667.56, -95759.23, 0.0, 9.999026, 9.999822 
2.5948474e+3, 2.661314e+2, -556415.9, -464010.16, 16480.102, 0.075281225, -0.0016082356, -461159.0, -129248.16, 0.0, 9.998617, 9.999832 
2.5948e+3, 2.7613112e+2, -537494.7, -416612.34, 26345.135, 0.024830952, -0.0018004442, -411120.22, -177205.36, 0.0, 9.998126, 9.999723 
2.5947538e+3, 2.8613088e+2, -472639.47, -303158.75, 22292.068, 0.08823285, 0.004432011, -300275.7, -164358.11, 0.0, 9.997762, 10.000006 
2.5947082e+3, 2.9613104e+2, -423599.16, -240386.11, 19613.172, 0.20147057, 0.031112848, -238310.02, -200393.67, 0.0, 9.997474, 9.999904 
2.5946587e+3, 3.061302e+2, -410463.9, -144288.48, 17465.602, -0.05542985, -0.061953112, -143147.34, -143147.34, 0.0, 9.99695, 10.000482 
2.594613e+3, 3.16131e+2, -413726.25, 66352.48, -14146.528, 0.103050664, -0.022019664, 66768.98, 66768.98, 0.0, 9.996018, 10.002374 
2.6055107e+3, 1.2619714e+2, -1194528.9, -1699530.6, 17917.527, -0.048250347, -0.04004883, -1193894.0, 509370.7, 0.07965333, 10.004985, 9.997707 
2.6054633e+3, 1.3619477e+2, -1175152.5, -1657722.5, 35280.88, -0.028912438, -0.03421574, -1172586.8, 432700.72, 0.053560186, 10.004348, 9.997626 
2.6054153e+3, 1.4619254e+2, -1102738.8, -1531149.0, 18902.87, -0.031447776, -0.02687368, -1101906.4, 405404.16, 0.02895159, 10.003888, 9.998039 
2.605367e+3, 1.561905e+2, -1047057.2, -1460603.3, 12059.259, -0.028283289, -0.02126954, -1046705.8, 362626.66, 0.011258206, 10.003556, 9.998013 
2.6053193e+3, 1.661889e+2, -968232.44, -1286755.0, 32725.97, -0.008677923, -0.012523786, -964904.8, 346443.25, 0.002611356, 10.00303, 9.998786 
2.6052722e+3, 1.7618763e+2, -973769.2, -1255936.4, 16466.06, 0.016246565, -0.0018544549, -972811.56, 240546.8, 0.00022568276, 10.002386, 9.998636 
2.6052245e+3, 1.8618584e+2, -938811.5, -1196672.1, 20686.693, 0.022911277, -0.025156716, -937162.44, 178212.75, 0.00000086705097, 10.001991, 9.998559 
2.605177e+3, 1.961838e+2, -876010.1, -1117593.8, 50736.24, 0.020254826, -0.07223636, -865787.3, 151607.89, 0.0, 10.00176, 9.998541 
2.6051292e+3, 2.0618269e+2, -792069.25, -932751.1, 56085.508, 0.033557575, -0.06773841, -772446.7, 146958.9, 0.0, 10.00126, 9.999377 
2.605082e+3, 2.1618232e+2, -801533.1, -904153.9, 19634.63, 0.056035344, -0.029526994, -797904.7, 23503.717, 0.0, 10.000596, 9.999222 
2.6050347e+3, 2.2618133e+2, -767751.75, -852118.44, 19400.809, 0.050594635, -0.026649276, -763504.2, -40085.63, 0.0, 10.000221, 9.999085 
2.604987e+3, 2.3618007e+2, -701577.25, -773701.06, 48537.12, 0.03045159, -0.049389035, -677171.7, -51739.266, 0.0, 10.000021, 9.999047 
2.60494e+3, 2.461794e+2, -626671.44, -608056.94, 57706.246, 0.05435589, -0.04478915, -558912.2, -31472.555, 0.0, 9.999522, 9.999752 
2.6048934e+3, 2.5617927e+2, -637775.0, -574160.9, 38714.57, 0.104313776, -0.020873649, -555863.0, -126421.9, 0.0, 9.998821, 9.99965 
2.604846e+3, 2.6617905e+2, -579781.56, -463840.28, 21953.572, 0.078381814, -0.0069266693, -459822.6, -128379.12, 0.0, 9.99841, 9.999932 
2.604798e+3, 2.7617884e+2, -525487.56, -400853.9, 26800.264, 0.013951841, -0.00871017, -395335.34, -161889.28, 0.0, 9.998168, 9.99981 
2.6047516e+3, 2.8617853e+2, -457246.84, -298913.4, 30298.338, 0.08570382, -0.012557159, -293313.66, -157864.03, 0.0, 9.997886, 9.999973 
2.6047057e+3, 2.9617855e+2, -410920.28, -232869.22, 36365.203, 0.21751115, 0.0056068236, -225728.38, -188278.39, 0.0, 9.9975605, 9.999912 
2.6046553e+3, 3.0617836e+2, -415927.94, -128981.66, 1000.79346, -0.07918356, -0.029609676, -128978.164, -128978.164, 0.0, 9.996837, 10.00064 
2.6046097e+3, 3.1618005e+2, -393886.34, 103342.53, -14874.489, 0.19805315, 0.08565327, 103787.1, 103787.1, 0.0, 9.99604, 10.002615 
2.6155153e+3, 1.2624574e+2, -1146655.4, -1600368.3, -4707.45, -0.05725217, 0.040220752, -1146606.6, 556185.0, 0.070758395, 10.004944, 9.998457 
2.615468e+3, 1.3624294e+2, -1138057.6, -1571454.3, 12147.902, -0.025393145, -0.071166396, -1137717.4, 467096.94, 0.04718145, 10.00429, 9.998258 
2.6154193e+3, 1.4624086e+2, -1117869.3, -1560209.3, 5027.848, -0.030707387, -0.06545876, -1117812.1, 389022.97, 0.0251454, 10.003857, 9.997858 
2.6153705e+3, 1.5623935e+2, -1061594.0, -1490374.4, -2172.6982, -0.03710985, 0.010624274, -1061583.0, 347270.44, 0.009540182, 10.003546, 9.997815 
2.6153222e+3, 1.6623737e+2, -991199.6, -1334744.6, 8455.716, -0.0199206, 0.009615427, -990991.6, 319882.06, 0.0021165742, 10.003027, 9.99846 
2.6152745e+3, 1.7623518e+2, -986634.56, -1283253.3, -5621.217, 0.0061494536, -0.04062716, -986528.06, 226365.78, 0.00016455278, 10.002386, 9.99845 
2.6152262e+3, 1.8623391e+2, -881854.3, -1080414.5, 12434.654, 0.020367397, -0.050344106, -881078.6, 233825.83, 0.00000042407203, 10.001997, 9.999355 
2.6151785e+3, 1.9623326e+2, -834765.8, -1032709.6, 40035.027, 0.02898551, -0.035878178, -826975.2, 189932.92, 0.0, 10.00176, 9.9991255 
2.6151302e+3, 2.0623171e+2, -858744.06, -1071205.1, 30923.822, 0.034728356, -0.04625769, -854334.56, 64588.81, 0.0, 10.001258, 9.998428 
2.6150823e+3, 2.1622977e+2, -853989.25, -1013052.4, -2264.0046, 0.03708, -0.073117845, -853957.0, -33012.32, 0.0, 10.000593, 9.998477 
2.6150346e+3, 2.2622891e+2, -716977.7, -748218.0, 13003.817, 0.044484425, -0.064466275, -712273.25, 10679.696, 0.0, 10.000225, 9.999799 
2.6149872e+3, 2.3622885e+2, -660859.25, -691601.5, 38945.527, 0.057820763, -0.036661707, -634361.25, -9408.979, 0.0, 10.000029, 9.999609 
2.6149395e+3, 2.4622817e+2, -663913.44, -685407.9, 30160.967, 0.067144185, -0.02705548, -642642.1, -115682.6, 0.0, 9.999521, 9.999222 
2.6148918e+3, 2.5622723e+2, -669692.75, -640787.75, 13252.78, 0.06792941, -0.029998017, -635631.3, -206660.75, 0.0, 9.998821, 9.999194 
2.6148438e+3, 2.6622674e+2, -578432.56, -460887.6, 11737.114, 0.060403336, -0.028012386, -459727.06, -128750.86, 0.0, 9.998407, 9.999955 
2.6147968e+3, 2.762266e+2, -522674.5, -395369.4, 16374.97, 0.06344195, -0.022376228, -393296.88, -160319.66, 0.0, 9.998167, 9.999849 
2.6147494e+3, 2.862265e+2, -449429.97, -283422.75, 16629.521, 0.10222778, -0.015372009, -281773.3, -146794.72, 0.0, 9.997886, 10.00008 
2.6147023e+3, 2.962265e+2, -406220.63, -225183.23, 19479.143, 0.11632343, -0.012247176, -223111.05, -186131.72, 0.0, 9.997566, 9.999963 
2.614653e+3, 3.0622688e+2, -434055.78, -163815.42, -39261.375, 0.030295031, 0.021198638, -158226.97, -158226.97, 0.0, 9.996823, 10.000409 
2.6146054e+3, 3.1622747e+2, -459962.0, -32773.742, 6396.7036, 0.1713997, 0.05154621, -32677.979, -32677.979, 0.0, 9.996031, 10.001688 
2.6255202e+3, 1.2629442e+2, -1190033.4, -1622869.8, 20935.63, -0.037768234, 0.05666592, -1189023.1, 513291.66, 0.062470634, 10.004585, 9.99846 
2.6254717e+3, 1.362914e+2, -1200568.0, -1600460.5, -8286.602, -0.025602551, -0.07628333, -1200396.4, 403943.47, 0.041292492, 10.003811, 9.998279 
2.6254225e+3, 1.4628942e+2, -1169255.1, -1566003.6, -4358.211, -0.032626025, -0.07124997, -1169207.3, 337152.0, 0.021682756, 10.003405, 9.998033 
2.625374e+3, 1.562882e+2, -1095939.0, -1490106.6, 9916.72, -0.027235895, 0.015884908, -1095689.6, 312684.63, 0.00801736, 10.003235, 9.997964 
2.6253253e+3, 1.6628624e+2, -1004976.06, -1342857.5, 34249.402, -0.0155435195, 0.013038502, -1001539.3, 308854.8, 0.0016990976, 10.002943, 9.998442 
2.6252767e+3, 1.7628396e+2, -959169.6, -1270520.6, 41327.094, -0.005306456, -0.047216084, -953777.5, 258638.19, 0.00011854705, 10.002583, 9.99844 
2.6252282e+3, 1.8628268e+2, -872653.44, -1080423.4, 32539.973, 0.01110099, -0.05102452, -867676.4, 246750.06, 0.00000019125741, 10.002084, 9.999311 
2.62518e+3, 1.9628218e+2, -873981.2, -1055465.4, -1102.0111, 0.032732718, -0.018492728, -873974.5, 142454.77, 0.0, 10.001508, 9.999089 
2.6251316e+3, 2.0628059e+2, -864853.44, -1066695.6, 11954.986, 0.0388535, -0.03561391, -864147.8, 54296.742, 0.0, 10.001185, 9.998493 
2.625083e+3, 2.1627846e+2, -789348.1, -975854.7, 51326.977, 0.035295274, -0.085707255, -776155.94, 44310.71, 0.0, 10.001017, 9.998526 
2.625035e+3, 2.2627756e+2, -686658.75, -746779.4, 54809.836, 0.045164324, -0.077373825, -654207.1, 68268.29, 0.0, 10.000493, 9.999677 
2.624987e+3, 2.3627754e+2, -708952.8, -726681.25, 19744.156, 0.06715998, -0.032859948, -696174.3, -71699.75, 0.0, 9.999752, 9.9995 
2.624939e+3, 2.4627681e+2, -684856.7, -700471.8, 12051.286, 0.069847465, -0.022078874, -678304.9, -151822.42, 0.0, 9.9994, 9.999176 
2.6248905e+3, 2.562757e+2, -608066.9, -615955.5, 31208.049, 0.05523206, -0.03509229, -580554.9, -152060.0, 0.0, 9.999267, 9.999148 
2.6248425e+3, 2.6627508e+2, -528135.5, -444527.38, 36793.414, 0.05418367, -0.040345095, -430641.8, -100140.086, 0.0, 9.99879, 9.999882 
2.6247945e+3, 2.7627483e+2, -539159.94, -409538.72, 34417.613, 0.08125716, -0.0385749, -400966.84, -168463.2, 0.0, 9.998085, 9.99979 
2.6247475e+3, 2.8627485e+2, -479619.72, -296246.84, 32784.594, 0.10576091, -0.019369142, -290561.66, -156057.6, 0.0, 9.997674, 10.0000925 
2.6246992e+3, 2.96275e+2, -425328.3, -233409.83, 25304.375, 0.07665354, -0.0013832632, -230129.52, -193626.11, 0.0, 9.997434, 9.999969 
2.6246503e+3, 3.0627498e+2, -403390.72, -145411.72, -39661.76, 0.08130682, -0.0058279317, -139451.8, -139451.8, 0.0, 9.997024, 10.000436 
2.6246008e+3, 3.162748e+2, -419001.47, -65837.555, 73132.73, 0.07675108, -0.05819121, -51292.375, -51292.375, 0.0, 9.996545, 10.001211 
2.6355252e+3, 1.2634332e+2, -1238946.3, -1716281.3, -8398.796, 0.0013876163, 0.023300812, -1238798.5, 463035.1, 0.054797474, 10.004512, 9.997816 
2.635475e+3, 1.3634026e+2, -1233505.5, -1674897.1, -33405.406, -0.0338919, -0.0505983, -1230991.6, 372871.3, 0.035889786, 10.003806, 9.99777 
2.635426e+3, 1.463383e+2, -1133520.1, -1497171.3, -10307.719, -0.038972616, -0.048241723, -1133228.3, 372654.03, 0.018555729, 10.003419, 9.998502 
2.635377e+3, 1.5633713e+2, -1066314.8, -1426545.3, 2227.432, -0.0023171164, -0.0023106216, -1066301.0, 341593.34, 0.006680957, 10.003221, 9.998408 
2.6353282e+3, 1.6633554e+2, -989582.1, -1307797.3, 20241.105, 0.001787686, -0.0009446758, -988299.8, 321609.56, 0.0013522495, 10.002927, 9.998692 
2.6352787e+3, 1.7633383e+2, -952825.2, -1255650.4, 25993.447, -0.01876115, -0.026808135, -950610.2, 261314.69, 0.00008496919, 10.002573, 9.998548 
2.63523e+3, 1.8633215e+2, -933380.75, -1205758.4, 10823.28, -0.0053247507, -0.028819881, -932951.3, 180990.45, 0.00000008629741, 10.002078, 9.998456 
2.6351812e+3, 1.9633059e+2, -917358.44, -1144936.8, -19629.86, 0.029318564, -0.017468885, -915677.7, 100280.59, 0.0, 10.001503, 9.998479 
2.6351327e+3, 2.0632933e+2, -791779.3, -916291.56, 6651.514, 0.04530942, -0.034741912, -791425.0, 126543.92, 0.0, 10.001189, 9.999525 
2.635084e+3, 2.1632834e+2, -734310.7, -863072.8, 42905.215, 0.049233977, -0.07153451, -721323.94, 98651.24, 0.0, 10.00102, 9.9993 
2.6350355e+3, 2.263272e+2, -753857.94, -886333.3, 27000.021, 0.051986635, -0.06671648, -748566.4, -26579.703, 0.0, 10.000492, 9.998721 
2.6349866e+3, 2.3632608e+2, -763319.06, -839440.4, -5485.889, 0.05618151, -0.038186032, -762925.75, -138925.69, 0.0, 9.999749, 9.998729 
2.634938e+3, 2.4632522e+2, -653715.06, -636328.3, 6912.2383, 0.062628634, -0.030296644, -633915.2, -107906.16, 0.0, 9.9994, 9.999617 
2.6348898e+3, 2.5632468e+2, -581037.4, -563250.7, 23253.014, 0.064537406, -0.035305705, -547248.4, -119234.0, 0.0, 9.999279, 9.999506 
2.6348412e+3, 2.6632404e+2, -540708.4, -471958.3, 8767.293, 0.05790874, -0.042839456, -470857.9, -140837.58, 0.0, 9.998793, 9.999693 
2.6347926e+3, 2.763235e+2, -552616.9, -437135.47, 8750.102, 0.061553847, -0.055630255, -436476.25, -204450.4, 0.0, 9.998081, 9.999603 
2.6347446e+3, 2.8632343e+2, -487756.2, -312018.06, 22030.668, 0.09746086, -0.025762346, -309298.38, -175271.36, 0.0, 9.997667, 9.9999895 
2.6346967e+3, 2.9632393e+2, -429512.06, -240661.31, 12888.606, 0.11018438, 0.037159033, -239785.77, -203762.36, 0.0, 9.997425, 9.999926 
2.634647e+3, 3.063226e+2, -380936.72, -101779.26, -59952.797, 0.05177394, -0.115586266, -89448.27, -89448.27, 0.0, 9.997032, 10.000733 
2.6345974e+3, 3.1632364e+2, -388043.4, -11486.282, 94544.32, 0.10086762, -0.07172004, 10918.437, 10918.437, 0.0, 9.99658, 10.001571 
2.645529e+3, 1.263922e+2, -1338058.0, -1765994.3, -6113.811, 0.0067396597, -0.019214436, -1337970.6, 363382.44, 0.047735147, 10.003758, 9.997839 
2.645479e+3, 1.363896e+2, -1192178.1, -1649780.1, 10819.492, -0.03464848, -0.046423838, -1191922.5, 411456.6, 0.03096641, 10.004064, 9.997817 
2.645429e+3, 1.4638779e+2, -1083351.5, -1459023.6, 27335.605, -0.04069583, -0.039651956, -1081372.9, 424024.3, 0.015755199, 10.003705, 9.998627 
2.6453802e+3, 1.5638652e+2, -1092799.5, -1426402.9, 16436.58, -0.0012131549, -0.014646032, -1091991.6, 315417.84, 0.00552089, 10.002983, 9.998522 
2.6453307e+3, 1.6638498e+2, -1047702.25, -1331827.1, 20076.518, 0.005215591, -0.015928172, -1046290.6, 263133.38, 0.0010684335, 10.002513, 9.998724 
2.6452813e+3, 1.763834e+2, -1006200.94, -1278831.9, 9496.072, -0.013293468, -0.031628907, -1005870.56, 205568.0, 0.000061065744, 10.002199, 9.998568 
2.645232e+3, 1.8638171e+2, -961800.4, -1225901.6, 20251.154, -0.003263324, -0.030533254, -960256.5, 153199.27, 0.000000036839044, 10.001915, 9.998393 
2.6451826e+3, 1.9638006e+2, -898914.2, -1140292.5, 45183.645, 0.02548109, -0.02232368, -890733.5, 124740.23, 0.0, 10.001655, 9.998435 
2.6451337e+3, 2.0637883e+2, -779982.2, -904186.75, 50919.65, 0.04144203, -0.036792513, -761775.7, 155708.25, 0.0, 10.001247, 9.999578 
2.645085e+3, 2.1637799e+2, -771118.94, -876552.2, 15056.591, 0.049790543, -0.063497655, -769010.9, 50477.258, 0.0, 10.0007515, 9.999335 
2.6450357e+3, 2.2637673e+2, -769733.4, -906406.1, 6753.3745, 0.049581468, -0.06691191, -769400.5, -47899.797, 0.0, 10.000438, 9.998609 
2.6449862e+3, 2.3637529e+2, -701699.2, -820458.25, 37301.145, 0.047610156, -0.05832773, -690955.2, -67437.87, 0.0, 10.000221, 9.99863 
2.6449376e+3, 2.4637438e+2, -610059.5, -616320.1, 54111.625, 0.05983777, -0.0496941, -558987.75, -33461.043, 0.0, 9.999707, 9.999605 
2.644889e+3, 2.5637394e+2, -622275.2, -584556.44, 36515.625, 0.07726417, -0.04088721, -562317.5, -134787.11, 0.0, 9.999006, 9.999489 
2.64484e+3, 2.6637328e+2, -561085.7, -491398.2, 14141.164, 0.06657193, -0.046127163, -488637.97, -159101.28, 0.0, 9.998696, 9.999605 
2.6447907e+3, 2.7637255e+2, -484239.0, -413176.9, 21390.363, 0.05356746, -0.06644051, -407235.06, -175691.13, 0.0, 9.998591, 9.999521 
2.6447424e+3, 2.8637236e+2, -433812.4, -292776.6, 37552.656, 0.09410053, -0.044128984, -283400.97, -149854.33, 0.0, 9.998071, 9.999926 
2.6446944e+3, 2.9637277e+2, -449440.0, -253943.27, 31810.172, 0.13148427, 0.018217016, -248897.52, -213353.75, 0.0, 9.997308, 9.999888 
2.6446435e+3, 3.063718e+2, -369934.13, -77801.164, -40417.434, 0.031353865, -0.10819879, -72312.42, -72312.42, 0.0, 9.997031, 10.000896 
2.6445946e+3, 3.1637332e+2, -358737.16, -12306.871, 113025.91, 0.16263326, -0.0276545, 21307.24, 21307.24, 0.0, 9.996852, 10.0014305 
2.6555324e+3, 1.2644115e+2, -1292661.8, -1676706.6, 5989.4326, -0.021402577, -0.066594265, -1292568.4, 408303.7, 0.041269463, 10.003774, 9.998449 
2.655483e+3, 1.3643949e+2, -1163226.3, -1580356.6, 16141.008, -0.029420938, -0.06270056, -1162602.6, 440285.8, 0.026511371, 10.004009, 9.998323 
2.6554328e+3, 1.4643787e+2, -1101865.4, -1491129.1, -571.649, -0.038877383, -0.04502552, -1101864.5, 403040.2, 0.013269306, 10.003665, 9.998424 
2.6553828e+3, 1.5643638e+2, -1106588.0, -1455532.0, -8611.294, -0.0236104, -0.021804696, -1106375.6, 300544.2, 0.0045251027, 10.002979, 9.998325 
2.655333e+3, 1.6643459e+2, -1059569.1, -1357901.6, 8816.264, -0.005564058, -0.029871743, -1059308.9, 249628.7, 0.00083937054, 10.002516, 9.998546 
2.6552835e+3, 1.7643274e+2, -1011821.8, -1289463.3, -1133.0146, 0.007819677, -0.05636388, -1011817.2, 199138.44, 0.000044250475, 10.002192, 9.998499 
2.6552337e+3, 1.864314e+2, -915833.7, -1130890.3, 10931.434, 0.014765627, -0.054729097, -915279.44, 197688.9, 0.000000014947995, 10.001914, 9.999047 
2.655184e+3, 1.9643046e+2, -867362.9, -1075802.8, 33967.18, 0.01987824, -0.03805491, -861967.25, 153009.7, 0.0, 10.001656, 9.9988785 
2.6551348e+3, 2.0642903e+2, -842724.56, -1034329.1, 32309.77, 0.027504068, -0.042270232, -837422.94, 79567.48, 0.0, 10.001244, 9.998688 
2.6550853e+3, 2.164274e+2, -819357.44, -974500.1, -990.0763, 0.03538052, -0.06026796, -819351.1, -345.54474, 0.0, 10.000739, 9.99867 
2.655036e+3, 2.2642611e+2, -720138.56, -803472.94, -56.40438, 0.03765598, -0.077186406, -720138.56, 879.0398, 0.0, 10.000437, 9.999316 
2.6549864e+3, 2.3642512e+2, -662085.94, -741119.5, 27008.152, 0.038020536, -0.094116546, -653738.2, -30711.29, 0.0, 10.000232, 9.99917 
2.654937e+3, 2.4642423e+2, -642957.5, -685477.7, 26470.965, 0.06028267, -0.08093179, -630266.1, -105230.25, 0.0, 9.999708, 9.999131 
2.654888e+3, 2.5642353e+2, -650815.4, -643668.6, 12298.623, 0.09164223, -0.051707193, -634434.75, -207391.16, 0.0, 9.999002, 9.999086 
2.6548386e+3, 2.6642275e+2, -560358.0, -489983.34, 10094.293, 0.08172211, -0.05123701, -488564.06, -159512.66, 0.0, 9.998695, 9.999617 
2.6547894e+3, 2.7642205e+2, -480236.72, -408665.47, 13747.409, 0.057701465, -0.06938951, -406115.72, -175057.38, 0.0, 9.998605, 9.999547 
2.6547402e+3, 2.864216e+2, -434438.5, -295991.75, 6804.7656, 0.0923114, -0.074622594, -295658.1, -162594.7, 0.0, 9.9980755, 9.999902 
2.6546913e+3, 2.9642147e+2, -454668.56, -262081.88, 6137.9307, 0.12882887, -0.061881047, -261886.45, -226821.25, 0.0, 9.997293, 9.999841 
2.6546407e+3, 3.064227e+2, -371105.2, -81081.71, -41755.824, 0.03611385, 0.0340267, -75189.664, -75189.664, 0.0, 9.997031, 10.000876 
2.6545912e+3, 3.1642234e+2, -420885.56, -142869.52, 71635.85, 0.15785484, -0.06630619, -125496.82, -125496.82, 0.0, 9.996857, 10.000533 
2.665536e+3, 1.2649098e+2, -1232788.8, -1641892.1, 43034.945, -0.04379999, -0.10005183, -1228310.8, 472071.3, 0.03537817, 10.004148, 9.998519 
2.6654863e+3, 1.3648976e+2, -1270266.9, -1624823.6, 19310.242, -0.032102343, -0.0576331, -1269218.4, 333176.53, 0.02250244, 10.003207, 9.998401 
2.665436e+3, 1.4648825e+2, -1205518.1, -1535516.1, 3680.9385, -0.035896115, -0.03676143, -1205477.0, 298933.28, 0.011076828, 10.002914, 9.998477 
2.6653856e+3, 1.5648663e+2, -1100400.6, -1446915.0, 10989.681, -0.021759834, -0.03168684, -1100052.5, 306374.16, 0.0036766992, 10.002998, 9.998373 
2.6653355e+3, 1.6648482e+2, -1034822.75, -1345191.1, 36768.02, -0.006232476, -0.043031022, -1030526.44, 277918.1, 0.00065566646, 10.0026865, 9.9985485 
2.6652855e+3, 1.76483e+2, -1016817.44, -1289944.0, 39096.793, 0.004613163, -0.06489521, -1011331.1, 199131.31, 0.000032246808, 10.002152, 9.998512 
2.6652357e+3, 1.8648176e+2, -932489.1, -1128636.1, 35785.93, 0.014724269, -0.059679598, -926164.1, 186310.08, 0.0000000057994387, 10.00176, 9.999135 
2.665186e+3, 1.9648097e+2, -891985.8, -1079079.5, 18533.498, 0.026205573, -0.037459813, -890167.56, 124313.57, 0.0, 10.001453, 9.998952 
2.665136e+3, 2.0647946e+2, -866454.4, -1054431.3, 33665.555, 0.030688748, -0.046705652, -860606.94, 55888.305, 0.0, 10.001121, 9.998608 
2.6650858e+3, 2.1647765e+2, -819813.4, -982975.8, 57325.566, 0.031192904, -0.07615283, -801686.44, 16826.271, 0.0, 10.000775, 9.998592 
2.665036e+3, 2.2647637e+2, -730331.9, -810508.9, 49442.977, 0.03650664, -0.08651117, -706767.44, 13757.44, 0.0, 10.000378, 9.999294 
2.6649863e+3, 2.3647551e+2, -704139.3, -761902.75, 23152.998, 0.048314393, -0.08625608, -696004.6, -73471.8, 0.0, 9.9999485, 9.999163 
2.6649368e+3, 2.4647452e+2, -649374.1, -687413.1, 21421.162, 0.06944263, -0.08395042, -639747.4, -115205.09, 0.0, 9.999661, 9.99914 
2.6648873e+3, 2.5647354e+2, -589096.75, -614596.5, 44309.45, 0.09322428, -0.08145984, -555739.25, -129187.484, 0.0, 9.999432, 9.999078 
2.6648375e+3, 2.6647282e+2, -522195.4, -486559.72, 53643.53, 0.08331196, -0.070571385, -447852.3, -119292.59, 0.0, 9.999024, 9.99948 
2.6647878e+3, 2.7647227e+2, -502946.06, -432872.88, 43782.71, 0.06739788, -0.05817828, -411833.75, -181267.86, 0.0, 9.998509, 9.999425 
2.6647383e+3, 2.8647158e+2, -433941.2, -302041.47, 19764.959, 0.093394525, -0.0765885, -299143.4, -166570.4, 0.0, 9.998109, 9.999843 
2.6646885e+3, 2.96471e+2, -397531.72, -244302.72, 18773.496, 0.10808513, -0.104640394, -242036.13, -207457.31, 0.0, 9.997729, 9.999752 
2.664638e+3, 3.0647275e+2, -332709.72, -104808.875, -27337.879, 0.055823106, 0.06917839, -101575.44, -101575.44, 0.0, 9.99748, 10.000496 
2.664588e+3, 3.164713e+2, -360747.94, -142746.66, 23725.508, 0.12690434, -0.10415575, -140194.44, -140194.44, 0.0, 9.997398, 10.000271 
2.6755401e+3, 1.265416e+2, -1265043.6, -1697970.5, 7127.4814, -0.061987627, -0.12289836, -1264926.3, 434958.06, 0.030030094, 10.004081, 9.998149 
2.6754892e+3, 1.3654052e+2, -1289236.4, -1666688.9, -9166.1, -0.046184063, -0.031024007, -1289014.0, 312883.75, 0.018904714, 10.003203, 9.998116 
2.6754388e+3, 1.4653897e+2, -1185681.4, -1497568.5, 7424.5093, -0.03571446, -0.014848338, -1185504.8, 318408.78, 0.009147509, 10.00292, 9.998737 
2.6753888e+3, 1.5653728e+2, -1086530.4, -1413790.4, 10679.923, -0.0000085957445, -0.043593973, -1086182.3, 319747.6, 0.0029549212, 10.002975, 9.998613 
2.675338e+3, 1.6653563e+2, -1027181.06, -1326173.5, 16109.67, 0.0015939325, -0.05724799, -1026315.56, 281630.13, 0.0005076618, 10.00267, 9.998688 
2.6752874e+3, 1.7653412e+2, -1011985.7, -1280700.6, 19528.002, -0.021912772, -0.06248511, -1010573.94, 199386.2, 0.000023462153, 10.002153, 9.998577 
2.675237e+3, 1.8653277e+2, -962228.7, -1191297.6, 24545.266, -0.002105979, -0.04665292, -959628.1, 152345.66, 0.000000001728097, 10.0017605, 9.998706 
2.6751873e+3, 1.965316e+2, -912228.1, -1119330.6, 8081.458, 0.04253313, -0.019459298, -911913.25, 102072.56, 0.0, 10.001443, 9.998682 
2.675137e+3, 2.0653015e+2, -820237.25, -958493.75, 21278.332, 0.048994575, -0.04986128, -817036.56, 98961.78, 0.0, 10.00112, 9.999268 
2.6750866e+3, 2.1652862e+2, -787502.7, -917090.1, 44092.47, 0.032806385, -0.113435954, -773923.1, 44087.285, 0.0, 10.000778, 9.999044 
2.6750365e+3, 2.2652741e+2, -781464.0, -917424.1, 33118.953, 0.045393266, -0.09516784, -773825.56, -53802.355, 0.0, 10.00038, 9.998561 
2.6749867e+3, 2.3652644e+2, -742752.56, -841822.94, 7934.496, 0.07746296, -0.033807695, -742121.1, -120085.625, 0.0, 9.999945, 9.998617 
2.6749367e+3, 2.4652524e+2, -614985.56, -616149.56, 13072.536, 0.08772057, -0.05884895, -602482.06, -78435.74, 0.0, 9.9996605, 9.999629 
2.6748863e+3, 2.5652403e+2, -560233.1, -558573.75, 34087.074, 0.077010095, -0.12915508, -525306.3, -99251.125, 0.0, 9.999446, 9.999456 
2.6748362e+3, 2.6652342e+2, -542233.75, -529817.3, 32905.57, 0.06780306, -0.10373617, -502539.44, -174477.66, 0.0, 9.999028, 9.999182 
2.6747862e+3, 2.765232e+2, -524364.3, -476129.03, 25053.055, 0.079105414, -0.03058074, -465471.44, -235404.67, 0.0, 9.998502, 9.999133 
2.6747364e+3, 2.865223e+2, -441801.25, -319038.03, 5354.404, 0.100423835, -0.048560467, -318804.94, -186729.05, 0.0, 9.998109, 9.999728 
2.6746857e+3, 2.9652134e+2, -404702.63, -264930.16, 3562.6843, 0.075428195, -0.10469057, -264839.4, -230754.66, 0.0, 9.997751, 9.999601 
2.6746354e+3, 3.0652165e+2, -386652.28, -218720.45, -34948.402, 0.07221603, -0.021350196, -211737.67, -211737.67, 0.0, 9.997485, 9.999712 
2.6745853e+3, 3.165212e+2, -319266.88, -60756.957, -6868.721, 0.11043628, -0.023521539, -60574.58, -60574.58, 0.0, 9.997408, 10.000833 
2.6855436e+3, 1.2659279e+2, -1367345.1, -1740062.6, -546.45667, -0.06785281, -0.09375183, -1367344.4, 332038.7, 0.025182068, 10.003298, 9.9982395 
2.6854923e+3, 1.3659136e+2, -1261591.3, -1644491.4, 12896.996, -0.053862423, -0.04548147, -1261157.3, 340241.6, 0.015677588, 10.003349, 9.998198 
2.6854417e+3, 1.4658979e+2, -1174411.3, -1488779.0, 34331.246, -0.04237046, -0.037423447, -1170705.6, 332709.1, 0.0074491277, 10.002981, 9.998767 
2.685391e+3, 1.5658823e+2, -1168583.6, -1448287.0, 22175.44, -0.0037774025, -0.054701723, -1166836.5, 238593.31, 0.0023393945, 10.002389, 9.998657 
2.6853403e+3, 1.6658673e+2, -1094272.8, -1346089.3, 22214.533, 0.0014029281, -0.062027935, -1092328.0, 215116.08, 0.00038708578, 10.002158, 9.998796 
2.6852894e+3, 1.7658536e+2, -1008107.06, -1268074.3, 22931.76, -0.017882843, -0.063064486, -1006099.75, 203357.23, 0.000016815515, 10.002137, 9.99867 
2.6852387e+3, 1.8658394e+2, -954337.1, -1193264.9, 38269.27, -0.0005647871, -0.054812197, -948357.2, 163114.08, 0.0000000002885943, 10.0018425, 9.9986515 
2.6851884e+3, 1.9658257e+2, -922575.0, -1129471.6, 45936.71, 0.038924035, -0.042631567, -912834.4, 100651.08, 0.0, 10.001396, 9.998632 
2.685138e+3, 2.0658118e+2, -830143.5, -958023.6, 42591.516, 0.048242852, -0.06582911, -817256.7, 98240.84, 0.0, 10.001032, 9.999311 
2.6850873e+3, 2.1657991e+2, -794424.2, -915647.6, 22151.023, 0.04102098, -0.108825184, -790503.3, 27004.0, 0.0, 10.000713, 9.9990835 
2.685037e+3, 2.265787e+2, -777979.5, -922084.25, 25986.273, 0.056063797, -0.08763365, -773436.6, -53916.46, 0.0, 10.000433, 9.998502 
2.6849866e+3, 2.365776e+2, -715705.75, -834459.2, 50222.87, 0.088163175, -0.03307983, -697314.0, -75780.08, 0.0, 10.000157, 9.998564 
2.684936e+3, 2.4657632e+2, -600361.7, -614325.06, 48236.793, 0.09200103, -0.05957463, -558603.94, -35058.543, 0.0, 9.999785, 9.99958 
2.6848856e+3, 2.5657508e+2, -577274.06, -572003.56, 28213.533, 0.07396023, -0.12962985, -546302.5, -120747.945, 0.0, 9.999355, 9.999407 
2.684835e+3, 2.6657438e+2, -547819.4, -538052.1, 20407.67, 0.066927984, -0.10639151, -521951.88, -194389.92, 0.0, 9.999017, 9.999129 
2.6847845e+3, 2.7657405e+2, -499492.9, -468577.03, 31860.44, 0.087561384, -0.03813975, -448622.6, -219054.45, 0.0, 9.998694, 9.99909 
2.6847345e+3, 2.8657332e+2, -420032.5, -308769.88, 25999.8, 0.10270162, -0.03910644, -302994.1, -171418.55, 0.0, 9.998262, 9.9997225 
2.6846832e+3, 2.965726e+2, -403920.8, -270784.03, 32885.35, 0.06350362, -0.06933315, -263104.22, -229522.75, 0.0, 9.997788, 9.99954 
2.684633e+3, 3.065714e+2, -397878.72, -270067.66, 21456.47, 0.09944558, -0.116527766, -266561.78, -266561.78, 0.0, 9.997611, 9.999295 
2.6845825e+3, 3.1657162e+2, -288201.97, 14469.221, 25901.406, 0.103900105, -0.008724781, 16669.762, 16669.762, 0.0, 9.997367, 10.001367 
2.6955467e+3, 1.266445e+2, -1336124.0, -1672341.5, 1428.8947, -0.06993838, -0.022872629, -1336118.0, 362760.34, 0.020787977, 10.003278, 9.998715 
2.6954955e+3, 1.3664234e+2, -1237324.9, -1591567.1, 10895.44, -0.056222532, -0.09541236, -1236990.1, 363908.1, 0.012784081, 10.00333, 9.99857 
2.6954442e+3, 1.4664072e+2, -1187261.8, -1515472.9, 11171.633, -0.054363098, -0.09785855, -1186881.9, 316031.97, 0.0059540886, 10.002974, 9.998589 
2.6953933e+3, 1.5663949e+2, -1176545.3, -1466372.1, 2979.3086, -0.03193816, -0.0650731, -1176514.6, 228411.81, 0.001813534, 10.002392, 9.998533 
2.6953423e+3, 1.6663812e+2, -1088221.4, -1333913.0, 22130.822, -0.0067446483, -0.058323424, -1086243.8, 220695.95, 0.0002879219, 10.002156, 9.998881 
2.6952916e+3, 1.7663679e+2, -1003094.6, -1254341.3, 20234.816, 0.012571699, -0.06551847, -1001475.4, 207477.05, 0.000011615146, 10.00212, 9.998774 
2.6952404e+3, 1.8663529e+2, -938342.2, -1158217.1, 21350.53, 0.01594909, -0.08265195, -936288.2, 174678.44, 0.000000000007316074, 10.001832, 9.9988985 
2.6951894e+3, 1.9663379e+2, -913535.75, -1110786.5, 29390.016, 0.013371223, -0.10554633, -909249.8, 103730.99, 0.0, 10.001395, 9.998762 
2.6951388e+3, 2.0663252e+2, -866487.5, -1034327.5, 30570.074, 0.029786266, -0.0932474, -861092.9, 53900.344, 0.0, 10.001033, 9.998788 
2.695088e+3, 2.1663147e+2, -819927.44, -966896.56, 11508.594, 0.054833077, -0.063487776, -819031.7, -2027.9806, 0.0, 10.000704, 9.998737 
2.6950374e+3, 2.2663024e+2, -737345.4, -837684.56, 16847.588, 0.067528814, -0.06511328, -734592.1, -15576.163, 0.0, 10.000432, 9.999082 
2.6949865e+3, 2.3662898e+2, -686198.8, -775663.56, 39068.816, 0.07448079, -0.08341584, -671539.6, -50511.344, 0.0, 10.000166, 9.998963 
2.6949355e+3, 2.4662776e+2, -641617.5, -701252.06, 30689.742, 0.080585144, -0.08542215, -628645.44, -105605.52, 0.0, 9.999789, 9.998983 
2.6948848e+3, 2.5662667e+2, -611727.0, -643590.06, 12084.31, 0.08309945, -0.079085976, -607662.44, -182612.23, 0.0, 9.999352, 9.998918 
2.694834e+3, 2.6662567e+2, -534458.06, -510161.5, 8072.3774, 0.083147176, -0.07856331, -507724.03, -180663.19, 0.0, 9.999015, 9.999323 
2.6947835e+3, 2.7662483e+2, -483287.34, -437634.78, 17687.03, 0.09195895, -0.08125094, -431584.25, -202513.7, 0.0, 9.998704, 9.9993 
2.6947325e+3, 2.866246e+2, -411111.44, -291652.38, 6262.7847, 0.09499503, -0.047566347, -291324.94, -160252.69, 0.0, 9.998265, 9.999841 
2.694681e+3, 2.966248e+2, -403250.25, -267658.8, 17937.7, 0.06243855, 0.0062078694, -265325.94, -232257.25, 0.0, 9.997777, 9.999569 
2.6946312e+3, 3.066218e+2, -400729.13, -277950.06, 19755.05, 0.15965143, -0.21756975, -274849.78, -274849.78, 0.0, 9.997617, 9.999239 
2.6945794e+3, 3.1662244e+2, -263523.06, 64863.4, -63302.773, 0.064315, -0.07075895, 76643.625, 76643.625, 0.0, 9.997362, 10.00172 
2.70555e+3, 1.2669602e+2, -1341950.6, -1661760.0, 35830.656, -0.062149625, -0.02662455, -1337985.5, 360387.9, 0.016818253, 10.003162, 9.998846 
2.7054986e+3, 1.3669394e+2, -1288293.8, -1602292.3, 22555.83, -0.047355205, -0.10208404, -1286681.8, 313709.8, 0.010198947, 10.002908, 9.998699 
2.705447e+3, 1.4669238e+2, -1224775.8, -1527660.5, 16473.084, -0.05213822, -0.10620879, -1223882.5, 278523.94, 0.004642729, 10.002689, 9.998639 
2.7053955e+3, 1.5669121e+2, -1157247.5, -1451703.9, 22747.584, -0.04022303, -0.07422576, -1155500.5, 248918.1, 0.0013659359, 10.002502, 9.998579 
2.7053443e+3, 1.6668983e+2, -1094964.0, -1335169.4, 45800.086, -0.012713566, -0.06987977, -1086527.6, 219904.4, 0.00020647723, 10.002104, 9.998896 
2.7052936e+3, 1.7668848e+2, -1077618.1, -1287214.1, 38402.89, 0.016443152, -0.080647245, -1070803.4, 137641.61, 0.0000075413723, 10.001598, 9.998797 
2.7052423e+3, 1.8668708e+2, -1001132.9, -1178426.3, 31961.535, 0.020342084, -0.09215996, -995547.0, 114911.11, 0.0, 10.001361, 9.998984 
2.7051908e+3, 1.9668579e+2, -927303.06, -1109904.1, 29581.07, 0.013829866, -0.10505984, -922630.5, 89839.85, 0.0, 10.001271, 9.998827 
2.7051395e+3, 2.0668444e+2, -872691.8, -1051139.6, 42952.27, 0.030010527, -0.09697065, -862891.44, 51592.453, 0.0, 10.001053, 9.998662 
2.7050886e+3, 2.1668315e+2, -817670.25, -975869.4, 50190.344, 0.05813759, -0.07676497, -803090.5, 13406.569, 0.0, 10.000765, 9.998645 
2.7050376e+3, 2.2668195e+2, -722847.7, -819218.0, 44143.953, 0.066396296, -0.075064406, -705683.8, 12824.939, 0.0, 10.0004835, 9.999183 
2.7049863e+3, 2.3668088e+2, -676210.25, -764257.5, 31279.295, 0.06746122, -0.08563059, -666229.5, -45710.6, 0.0, 10.00021, 9.99902 
2.7049354e+3, 2.4667959e+2, -639964.06, -723272.1, 25416.604, 0.07663483, -0.08483853, -632822.0, -110290.36, 0.0, 9.999902, 9.998776 
2.7048844e+3, 2.5667828e+2, -594039.9, -651190.56, 36347.82, 0.088365324, -0.0784344, -576379.75, -151834.81, 0.0, 9.999547, 9.998771 
2.7048331e+3, 2.6667732e+2, -521523.1, -491637.13, 37802.074, 0.08951097, -0.07525921, -465931.75, -139376.69, 0.0, 9.999054, 9.99943 
2.704782e+3, 2.766766e+2, -510057.84, -441923.5, 39783.03, 0.09757291, -0.07612644, -423614.5, -195051.92, 0.0, 9.9984865, 9.999373 
2.7047303e+3, 2.8667617e+2, -434413.97, -315385.56, 15405.298, 0.0953024, -0.057140797, -313424.06, -182857.83, 0.0, 9.998162, 9.999725 
2.7046788e+3, 2.966761e+2, -381297.8, -259482.84, 11606.724, 0.054039247, -0.025252571, -258386.8, -225820.23, 0.0, 9.99794, 9.999545 
2.7046287e+3, 3.0667394e+2, -375371.78, -207570.36, 42721.395, 0.16883388, -0.18676959, -197319.88, -197319.88, 0.0, 9.997542, 9.999758 
2.7045763e+3, 3.166749e+2, -304108.1, 35967.637, -10558.989, 0.05341363, -0.05763912, 36295.168, 36295.168, 0.0, 9.997128, 10.001632 
2.715553e+3, 1.2674744e+2, -1349366.3, -1680167.1, 26334.107, -0.04749828, -0.08950131, -1347283.0, 350584.5, 0.013268836, 10.003169, 9.998712 
2.7155018e+3, 1.3674617e+2, -1294531.0, -1613514.0, 14044.641, -0.032629423, -0.07167248, -1293913.9, 305965.38, 0.007913388, 10.002893, 9.99863 
2.7154496e+3, 1.4674477e+2, -1210142.1, -1495681.4, 9719.293, -0.040117793, -0.0713215, -1209811.6, 292080.97, 0.003505921, 10.002676, 9.998867 
2.715398e+3, 1.5674338e+2, -1146920.5, -1427797.1, 13639.995, -0.03230535, -0.08253875, -1146259.8, 257646.6, 0.0009907519, 10.002489, 9.998751 
2.7153462e+3, 1.6674188e+2, -1100542.6, -1345706.3, 26259.365, -0.017757542, -0.09437799, -1097761.5, 208159.36, 0.00014094682, 10.002098, 9.998828 
2.7152947e+3, 1.7674044e+2, -1081220.3, -1295660.6, 21705.271, -0.0053273938, -0.106386654, -1079045.4, 128889.55, 0.0000045032148, 10.0016, 9.998739 
2.715243e+3, 1.8673934e+2, -1003367.5, -1185189.4, 29056.557, 0.014049386, -0.08471751, -998836.94, 111108.95, 0.0, 10.001368, 9.998937 
2.7151918e+3, 1.9673848e+2, -927594.7, -1110137.3, 25515.717, 0.037538834, -0.04776513, -924095.2, 87859.29, 0.0, 10.0012665, 9.998829 
2.7151406e+3, 2.0673686e+2, -857776.56, -1019991.44, 32453.854, 0.046175055, -0.079749, -851524.56, 62445.24, 0.0, 10.00105, 9.998877 
2.715089e+3, 2.1673493e+2, -809308.06, -958637.75, 39499.72, 0.045952313, -0.14501125, -799503.56, 16484.07, 0.0, 10.000764, 9.998764 
2.7150378e+3, 2.2673386e+2, -747291.3, -871389.75, 33585.363, 0.05262497, -0.1148135, -738785.0, -20786.213, 0.0, 10.000488, 9.998823 
2.7149865e+3, 2.3673329e+2, -695905.1, -804999.94, 20595.988, 0.066147536, -0.038489047, -692146.3, -72140.47, 0.0, 10.000206, 9.998743 
2.714935e+3, 2.4673179e+2, -627705.56, -697639.9, 12667.289, 0.0802446, -0.059574217, -625481.8, -103460.86, 0.0, 9.9999, 9.998953 
2.7148837e+3, 2.5672993e+2, -579644.4, -624579.1, 21543.477, 0.085138604, -0.12747194, -570984.56, -146945.63, 0.0, 9.999559, 9.998948 
2.7148318e+3, 2.667293e+2, -519794.44, -489276.88, 14891.342, 0.083050035, -0.0955773, -483214.72, -157170.03, 0.0, 9.999056, 9.999447 
2.7147803e+3, 2.767294e+2, -516607.28, -453603.9, 20427.611, 0.099950075, -0.01733745, -447560.38, -219516.4, 0.0, 9.998476, 9.9993 
2.7147287e+3, 2.86728e+2, -463001.13, -373342.13, 7087.02, 0.107575856, -0.07172973, -372785.38, -242727.06, 0.0, 9.998154, 9.999332 
2.7146766e+3, 2.9672614e+2, -385259.4, -269231.16, 680.31903, 0.046526, -0.177668, -269227.16, -237149.77, 0.0, 9.997944, 9.999478 
2.7146256e+3, 3.067282e+2, -287926.44, -25696.88, 23145.74, 0.09409091, 0.008512055, -23669.592, -23669.592, 0.0, 9.997536, 10.001012 
2.714574e+3, 3.1672806e+2, -359334.34, -70976.75, 63535.527, 0.12435851, -0.080924205, -57598.293, -57598.293, 0.0, 9.997101, 10.000906 
2.725556e+3, 1.2679972e+2, -1307790.9, -1664328.9, 40973.48, -0.0579635, -0.116151065, -1303142.8, 394210.97, 0.0101522105, 10.003464, 9.99868 
2.7255043e+3, 1.3679858e+2, -1327991.0, -1630852.8, 36926.25, -0.027798306, -0.08202493, -1323553.8, 275810.66, 0.0059327926, 10.002662, 9.998621 
2.7254522e+3, 1.4679725e+2, -1268442.6, -1516965.8, 38715.6, -0.03139985, -0.076745234, -1262551.1, 238826.27, 0.0025443747, 10.002246, 9.998926 
2.7254e+3, 1.567959e+2, -1208218.1, -1451203.1, 30462.926, -0.025214873, -0.08925049, -1204457.3, 198933.6, 0.00068596273, 10.002044, 9.998803 
2.7253482e+3, 1.667944e+2, -1131058.1, -1358537.5, 39279.008, -0.017640963, -0.10417248, -1124466.8, 180938.7, 0.000090375084, 10.0018835, 9.998841 
2.725296e+3, 1.7679293e+2, -1059058.1, -1283265.0, 40880.5, -0.014347934, -0.11873315, -1051836.8, 155582.89, 0.0000024128854, 10.001748, 9.998753 
2.7252445e+3, 1.8679187e+2, -983739.44, -1177763.3, 54480.617, 0.006862969, -0.092798635, -969488.4, 139942.14, 0.0, 10.001514, 9.998915 
2.7251932e+3, 1.9679108e+2, -931556.4, -1111112.1, 50886.363, 0.039005868, -0.047802683, -918137.94, 93301.0, 0.0, 10.001239, 9.998833 
2.7251416e+3, 2.0678951e+2, -861626.9, -1008386.5, 51208.727, 0.048940994, -0.0814888, -845525.25, 67928.234, 0.0, 10.000969, 9.998995 
2.7250898e+3, 2.1678759e+2, -813404.6, -950866.9, 52082.21, 0.04750931, -0.15500578, -795900.44, 19569.932, 0.0, 10.000696, 9.99885 
2.7250382e+3, 2.2678646e+2, -763181.5, -889482.9, 55964.473, 0.049752586, -0.12870964, -741951.94, -24469.686, 0.0, 10.000426, 9.998728 
2.7249867e+3, 2.367858e+2, -709261.1, -817875.8, 62094.426, 0.05941195, -0.052708846, -681076.06, -61585.223, 0.0, 10.000146, 9.998682 
2.7249348e+3, 2.4678439e+2, -631263.44, -690616.25, 54757.688, 0.07530899, -0.06545619, -598657.5, -77152.28, 0.0, 9.999842, 9.999028 
2.724883e+3, 2.567827e+2, -582337.9, -619683.1, 53984.184, 0.086588524, -0.122480534, -543888.2, -120366.69, 0.0, 9.999518, 9.999 
2.7248308e+3, 2.6678205e+2, -509718.56, -493496.3, 32896.66, 0.08305019, -0.09360781, -467725.6, -142197.94, 0.0, 9.999169, 9.999361 
2.724779e+3, 2.767819e+2, -478791.1, -444332.6, 32376.46, 0.09789798, -0.028272446, -424886.47, -197357.84, 0.0, 9.998777, 9.999215 
2.7247268e+3, 2.867803e+2, -454556.06, -379101.03, 35144.258, 0.10640513, -0.09136353, -365268.06, -235722.97, 0.0, 9.99826, 9.99924 
2.724674e+3, 2.9677832e+2, -430132.7, -294056.28, 49589.97, 0.043458987, -0.20067538, -277902.06, -246335.9, 0.0, 9.997658, 9.999442 
2.7246225e+3, 3.0678138e+2, -285976.2, -6129.0674, 26359.5, 0.085398145, 0.07506093, -3667.8464, -3667.8464, 0.0, 9.997476, 10.001173 
2.724571e+3, 3.1677994e+2, -309113.06, -84133.42, 8000.3154, 0.11904315, -0.15634409, -83849.29, -83849.29, 0.0, 9.997612, 10.0005665 
2.735559e+3, 1.2685277e+2, -1309060.3, -1658326.0, 10192.631, -0.09262119, -0.11285963, -1308763.1, 388069.5, 0.0074847746, 10.003422, 9.998739 
2.735507e+3, 1.3685118e+2, -1324103.9, -1625866.0, 10662.861, -0.032289192, -0.12683918, -1323727.6, 275119.34, 0.0042681037, 10.002671, 9.9986515 
2.7354544e+3, 1.4684989e+2, -1272303.0, -1530339.1, 30554.49, -0.025748333, -0.115892105, -1268734.3, 232125.84, 0.0017618289, 10.002265, 9.998827 
2.735402e+3, 1.5684877e+2, -1212450.6, -1459974.8, 23114.902, -0.020348772, -0.09463832, -1210310.6, 192561.63, 0.00044961544, 10.002041, 9.998745 
2.7353498e+3, 1.6684736e+2, -1125866.0, -1347698.0, 34599.742, -0.014086696, -0.10130604, -1120594.6, 184291.22, 0.000053713382, 10.001881, 9.998919 
2.7352977e+3, 1.7684594e+2, -1054529.5, -1274071.5, 34857.14, -0.013561387, -0.120277196, -1049128.0, 157771.44, 0.0000011019603, 10.001747, 9.9988165 
2.7352458e+3, 1.8684468e+2, -985192.6, -1180476.9, 44223.9, -0.0022771892, -0.11523813, -975644.56, 133267.52, 0.0, 10.001512, 9.998898 
2.735194e+3, 1.968436e+2, -933066.3, -1113094.4, 40861.08, 0.016928779, -0.09831925, -924226.2, 86697.19, 0.0, 10.001233, 9.998823 
2.7351424e+3, 2.0684236e+2, -858922.06, -1003779.75, 41219.36, 0.039411966, -0.09923252, -848014.44, 64920.332, 0.0, 10.000971, 9.999026 
2.7350906e+3, 2.1684112e+2, -810344.2, -943635.6, 42284.395, 0.060982298, -0.11097884, -798062.0, 16883.725, 0.0, 10.00069, 9.998903 
2.7350384e+3, 2.2683974e+2, -753351.9, -868853.9, 46230.88, 0.05645068, -0.120139055, -737126.7, -20167.232, 0.0, 10.000424, 9.998871 
2.7349862e+3, 2.368384e+2, -699161.06, -799034.0, 51061.48, 0.04187882, -0.12553279, -677676.75, -58703.098, 0.0, 10.000154, 9.998809 
2.7349344e+3, 2.4683742e+2, -632056.44, -693859.94, 41740.04, 0.061107803, -0.09992946, -611024.06, -90039.81, 0.0, 9.9998455, 9.999005 
2.7348822e+3, 2.5683668e+2, -587729.75, -630858.1, 41562.195, 0.09063559, -0.05866996, -562470.56, -139478.17, 0.0, 9.9995165, 9.998925 
2.73483e+3, 2.6683542e+2, -525527.1, -525537.8, 18844.572, 0.09015935, -0.07114763, -506687.9, -181683.66, 0.0, 9.999165, 9.999144 
2.7347773e+3, 2.76834e+2, -485337.56, -460110.47, 16445.205, 0.09086872, -0.113420725, -451998.5, -224981.13, 0.0, 9.998786, 9.9991045 
2.7347246e+3, 2.8683317e+2, -437796.66, -345620.5, 11011.098, 0.08710132, -0.111807786, -344323.4, -215297.16, 0.0, 9.998261, 9.999471 
2.7346715e+3, 2.9683286e+2, -434201.56, -299556.2, 29657.496, 0.03414592, -0.07487756, -293313.2, -262282.4, 0.0, 9.9976425, 9.9994135 
2.734621e+3, 3.0683294e+2, -370131.34, -176347.39, 27760.912, 0.17047027, -0.025113156, -172448.88, -172448.88, 0.0, 9.997457, 10.000012 
2.7345675e+3, 3.1683168e+2, -288292.75, -58301.3, -48236.75, 0.029054042, -0.13477394, -48594.176, -48594.176, 0.0, 9.9976635, 10.000732 
2.745562e+3, 1.2690611e+2, -1386415.9, -1686783.6, 20530.387, -0.079587765, -0.10916872, -1385019.1, 311290.34, 0.005275801, 10.002836, 9.998827 
2.745509e+3, 1.3690442e+2, -1294479.9, -1603842.3, 22577.434, -0.053548504, -0.1425265, -1292840.9, 305483.28, 0.0029236441, 10.00284, 9.99872 
2.7454564e+3, 1.469031e+2, -1243588.9, -1523553.4, 43798.01, -0.046683084, -0.13278057, -1236897.0, 263440.9, 0.0011553855, 10.002496, 9.99876 
2.745404e+3, 1.5690199e+2, -1221060.3, -1466156.0, 39753.5, -0.022792783, -0.103232324, -1214773.6, 187576.69, 0.00027635533, 10.001994, 9.998724 
2.7453515e+3, 1.6690074e+2, -1138828.5, -1339937.4, 61479.895, -0.010583036, -0.10201294, -1121523.0, 182839.63, 0.000029153769, 10.001734, 9.999041 
2.7452993e+3, 1.7689948e+2, -1067904.1, -1268339.0, 63487.906, -0.009817427, -0.115255095, -1049486.6, 156887.61, 0.00000039166414, 10.001605, 9.998922 
2.7452472e+3, 1.8689819e+2, -1002850.44, -1188469.4, 69672.39, 0.0007278998, -0.11811757, -979608.9, 128778.12, 0.0, 10.001391, 9.998899 
2.745195e+3, 1.9689697e+2, -948027.06, -1120006.3, 67850.336, 0.018596249, -0.11403191, -924481.8, 85917.69, 0.0, 10.001131, 9.998824 
2.7451432e+3, 2.0689575e+2, -866782.6, -1008840.44, 67702.58, 0.038267788, -0.112178065, -839685.4, 72725.586, 0.0, 10.000925, 9.999013 
2.745091e+3, 2.168946e+2, -800175.0, -936120.44, 64036.508, 0.058707442, -0.113240756, -774761.6, 39659.715, 0.0, 10.000752, 9.998923 
2.745039e+3, 2.268933e+2, -741209.9, -848934.06, 63460.902, 0.053085662, -0.12024681, -711834.9, 4599.05, 0.0, 10.00045, 9.998994 
2.7449864e+3, 2.3689204e+2, -702958.3, -790644.06, 67374.31, 0.03915299, -0.13019355, -666417.75, -47970.754, 0.0, 10.000086, 9.998898 
2.744934e+3, 2.4689104e+2, -641575.0, -707744.56, 54436.027, 0.05689958, -0.10485019, -610958.25, -90500.35, 0.0, 9.999824, 9.9989195 
2.7448818e+3, 2.5689024e+2, -582370.56, -635085.3, 49666.883, 0.08554844, -0.06200115, -552500.6, -130033.53, 0.0, 9.999585, 9.998861 
2.744829e+3, 2.6688895e+2, -501528.53, -511568.28, 36768.617, 0.08322267, -0.07732847, -469438.7, -144959.28, 0.0, 9.999324, 9.999161 
2.744776e+3, 2.7688748e+2, -448416.16, -440309.78, 49438.305, 0.08258797, -0.12508145, -394758.8, -168266.0, 0.0, 9.999037, 9.999117 
2.744723e+3, 2.8688678e+2, -384741.8, -321420.34, 29667.98, 0.086625434, -0.10799202, -309692.22, -181192.17, 0.0, 9.998636, 9.9994545 
2.7446693e+3, 2.9688665e+2, -363834.53, -278542.06, 34012.766, 0.050455995, -0.049023665, -266639.5, -236137.0, 0.0, 9.998183, 9.999296 
2.744618e+3, 3.068856e+2, -334826.56, -219930.38, 72149.836, 0.1547782, -0.07854174, -185151.13, -185151.13, 0.0, 9.997963, 9.999469 
2.7445653e+3, 3.1688482e+2, -316838.7, -36666.605, -27150.28, 0.029010711, -0.088918135, -34059.84, -34059.84, 0.0, 9.99732, 10.001043 
2.755565e+3, 1.2695974e+2, -1376451.9, -1667571.3, 20468.701, -0.030897407, -0.106315285, -1375019.8, 320764.25, 0.00351885, 10.002841, 9.998956 
2.7555114e+3, 1.3695826e+2, -1291616.4, -1592601.1, 18933.2, -0.092104405, -0.13294357, -1290430.1, 307366.2, 0.0018875385, 10.002813, 9.998812 
2.7554584e+3, 1.4695686e+2, -1249607.6, -1532930.9, 24624.482, -0.09152086, -0.12979564, -1247483.3, 252327.25, 0.00070997025, 10.002479, 9.998705 
2.7554056e+3, 1.5695558e+2, -1220735.1, -1466260.8, 23680.75, -0.032757025, -0.11353279, -1218472.0, 183353.0, 0.0001569409, 10.001995, 9.998723 
2.7553532e+3, 1.6695449e+2, -1127756.3, -1317116.3, 56690.305, -0.0070941406, -0.10681077, -1112081.9, 191753.88, 0.000014099469, 10.001733, 9.999199 
2.7553007e+3, 1.7695352e+2, -1060749.4, -1251142.0, 57518.11, -0.003874867, -0.10548876, -1044722.1, 161122.02, 0.00000009505926, 10.001594, 9.999046 
2.7552485e+3, 1.8695235e+2, -1002879.6, -1188139.0, 59787.28, 0.013855354, -0.10308026, -985260.6, 122595.11, 0.0, 10.0013895, 9.998904 
2.7551964e+3, 1.9695112e+2, -948344.0, -1120679.4, 58298.664, 0.03979287, -0.09914699, -930475.1, 79392.94, 0.0, 10.00113, 9.998821 
2.755144e+3, 2.0694962e+2, -871485.7, -1018864.75, 61277.438, 0.04402688, -0.12175043, -849336.5, 62545.957, 0.0, 10.000925, 9.998944 
2.7550915e+3, 2.1694808e+2, -802387.6, -940529.2, 56332.926, 0.036798578, -0.15567179, -782328.4, 31568.604, 0.0, 10.00075, 9.998895 
2.7550387e+3, 2.2694722e+2, -732518.2, -832680.0, 49568.15, 0.039735384, -0.12557319, -712135.6, 3769.8442, 0.0, 10.000456, 9.999104 
2.7549863e+3, 2.3694675e+2, -699995.06, -784170.6, 54538.016, 0.05016635, -0.066582106, -673193.25, -55282.43, 0.0, 10.000083, 9.998944 
2.7549338e+3, 2.4694523e+2, -654032.8, -732565.4, 46058.703, 0.062104102, -0.08364472, -632774.3, -112847.83, 0.0, 9.999818, 9.998752 
2.754881e+3, 2.5694332e+2, -585803.0, -644494.44, 40230.957, 0.06689448, -0.13355371, -565352.1, -143406.1, 0.0, 9.999594, 9.998794 
2.7548277e+3, 2.6694256e+2, -481968.6, -473074.28, 25358.01, 0.06071372, -0.11036918, -451776.44, -127823.234, 0.0, 9.99933, 9.999424 
2.7547747e+3, 2.7694237e+2, -437187.28, -418105.66, 37428.133, 0.06880202, -0.05548174, -389021.44, -163067.31, 0.0, 9.99904, 9.999269 
2.7547216e+3, 2.8694114e+2, -406200.16, -365430.9, 12359.173, 0.1074968, -0.08219943, -361976.88, -234010.1, 0.0, 9.998634, 9.999153 
2.754668e+3, 2.9693958e+2, -379443.38, -311068.28, 20679.207, 0.1009372, -0.13856971, -305300.63, -275317.4, 0.0, 9.998182, 9.999073 
2.7546147e+3, 3.069395e+2, -321330.56, -199559.67, 66293.695, 0.009768009, -0.06298376, -170434.61, -170434.61, 0.0, 9.99799, 9.9995985 
2.754563e+3, 3.1693852e+2, -293875.63, 31328.084, -150803.14, 0.1074921, -0.11715096, 90494.016, 90494.016, 0.0, 9.99725, 10.001536 
2.765568e+3, 1.2701374e+2, -1357827.8, -1652225.1, 34012.652, -0.056778528, -0.10325567, -1353949.3, 341305.7, 0.0021891766, 10.002935, 9.999017 
2.7655143e+3, 1.3701232e+2, -1364538.8, -1619662.0, 28211.693, -0.07296891, -0.1298962, -1361456.4, 235809.97, 0.0011308764, 10.002276, 9.998884 
2.7654603e+3, 1.47011e+2, -1318389.0, -1556237.9, 40645.527, -0.07785328, -0.1271357, -1311635.0, 187644.84, 0.00040111932, 10.0019655, 9.998792 
2.7654073e+3, 1.5700978e+2, -1239951.5, -1468465.4, 48392.902, -0.044600878, -0.11216687, -1230125.8, 171167.97, 0.000080078404, 10.001834, 9.998785 
2.7653545e+3, 1.6700865e+2, -1139782.6, -1325982.6, 79396.33, -0.017314812, -0.109458536, -1110525.0, 192779.81, 0.000005757098, 10.001668, 9.999168 
2.7653024e+3, 1.7700763e+2, -1076966.3, -1258718.6, 67910.42, -0.0011091967, -0.11098027, -1054395.1, 150918.66, 0.00000000965895, 10.001487, 9.999045 
2.7652496e+3, 1.870065e+2, -1008971.56, -1185357.6, 67191.555, 0.015647579, -0.106640354, -986292.06, 121032.6, 0.0, 10.001325, 9.998953 
2.7651972e+3, 1.9700533e+2, -937609.6, -1109833.6, 67983.01, 0.03681399, -0.102275535, -914008.5, 95327.69, 0.0, 10.00118, 9.99887 
2.7651444e+3, 2.0700386e+2, -869410.44, -1015664.6, 74720.1, 0.04090851, -0.124556124, -837987.7, 73362.61, 0.0, 10.000932, 9.998961 
2.765092e+3, 2.1700233e+2, -819134.5, -947463.1, 75385.55, 0.035392705, -0.15681106, -784303.7, 29061.146, 0.0, 10.000633, 9.998902 
2.7650392e+3, 2.2700147e+2, -737077.56, -840409.06, 61196.367, 0.03905202, -0.12486448, -708653.7, 6719.962, 0.0, 10.000451, 9.999052 
2.7649865e+3, 2.3700096e+2, -668141.7, -770828.9, 54274.734, 0.052254017, -0.064732626, -644773.1, -27393.623, 0.0, 10.000313, 9.998924 
2.7649337e+3, 2.4699944e+2, -627242.0, -709688.75, 52947.49, 0.06239791, -0.08709844, -601362.44, -81967.62, 0.0, 9.999963, 9.998837 
2.7648804e+3, 2.5699753e+2, -593113.3, -639695.56, 65520.7, 0.06528556, -0.1472219, -546867.1, -125453.25, 0.0, 9.999513, 9.998863 
2.764827e+3, 2.6699674e+2, -501618.8, -485856.88, 42706.73, 0.05762738, -0.12642701, -450310.03, -126888.86, 0.0, 9.999212, 9.999391 
2.7647737e+3, 2.7699652e+2, -450097.1, -427261.9, 32883.973, 0.06560947, -0.07011379, -403869.78, -178447.16, 0.0, 9.998966, 9.999241 
2.7647203e+3, 2.869953e+2, -378136.72, -354168.4, 14430.438, 0.10967516, -0.09202796, -347394.72, -219959.6, 0.0, 9.998842, 9.999127 
2.7646664e+3, 2.9699373e+2, -297306.22, -265821.47, 41070.74, 0.11054012, -0.14384942, -237579.44, -208128.14, 0.0, 9.998729, 9.999119 
2.764612e+3, 3.069938e+2, -326961.06, -167919.86, 92302.37, -0.03602869, -0.078800164, -125607.57, -125607.57, 0.0, 9.997807, 9.999903 
2.76456e+3, 3.1699273e+2, -303718.2, 33686.25, -114448.086, 0.10941906, -0.16421616, 68843.8, 68843.8, 0.0, 9.997158, 10.001593 
2.7755696e+3, 1.2706813e+2, -1356610.5, -1651046.4, 10373.421, -0.14235774, -0.09830356, -1356245.5, 338476.56, 0.0012450491, 10.002942, 9.99902 
2.7755168e+3, 1.3706663e+2, -1362918.5, -1613685.9, 8738.911, -0.008788909, -0.13288528, -1362614.4, 234119.77, 0.0006140342, 10.002264, 9.998932 
2.775463e+3, 1.4706548e+2, -1305241.3, -1529236.3, 36218.414, -0.016863214, -0.12691133, -1299530.5, 199215.31, 0.00020190683, 10.001964, 9.99898 
2.775409e+3, 1.5706453e+2, -1231321.6, -1452687.1, 42907.38, -0.057888847, -0.10319943, -1223295.9, 177461.02, 0.00003484893, 10.0018425, 9.998891 
2.775356e+3, 1.6706324e+2, -1152410.9, -1354360.4, 72846.01, -0.04088551, -0.10875121, -1128876.9, 173892.84, 0.0000017161015, 10.001677, 9.99897 
2.7753034e+3, 1.7706186e+2, -1085956.8, -1277795.6, 61337.61, -0.0051074014, -0.1266684, -1068021.8, 136760.69, 0.00000000000031198744, 10.001487, 9.998915 
2.7752507e+3, 1.8706068e+2, -1003288.56, -1173228.1, 62059.207, 0.0065487395, -0.12706892, -983038.5, 123755.05, 0.0, 10.001322, 9.999039 
2.775198e+3, 1.9705962e+2, -932282.75, -1097398.0, 61508.574, 0.01031847, -0.12076104, -911888.6, 96915.02, 0.0, 10.001173, 9.99896 
2.7751452e+3, 2.0705847e+2, -863094.7, -1002646.7, 63424.45, 0.029204939, -0.12006417, -838576.7, 72237.91, 0.0, 10.000932, 9.999052 
2.7750924e+3, 2.1705735e+2, -818101.5, -944312.56, 65221.484, 0.05210146, -0.12069845, -790453.8, 22371.637, 0.0, 10.0006275, 9.998928 
2.7750397e+3, 2.2705603e+2, -752451.9, -872700.06, 56710.094, 0.050044812, -0.121180005, -729926.44, -15087.63, 0.0, 10.000452, 9.998831 
2.7749866e+3, 2.3705472e+2, -674219.0, -784852.7, 46544.836, 0.039840925, -0.12090124, -657242.2, -40389.492, 0.0, 10.000318, 9.998827 
2.7749333e+3, 2.4705368e+2, -602649.3, -659601.9, 35142.35, 0.05748619, -0.11164827, -585894.1, -67031.54, 0.0, 9.999965, 9.999183 
2.77488e+3, 2.5705284e+2, -579307.44, -610553.4, 50050.383, 0.08026833, -0.09856217, -542498.4, -121628.19, 0.0, 9.999509, 9.999066 
2.7748263e+3, 2.670514e+2, -528480.8, -539433.8, 33417.55, 0.07448043, -0.12810405, -500094.0, -177210.25, 0.0, 9.999203, 9.999028 
2.7747723e+3, 2.770498e+2, -466916.38, -460985.97, 24393.215, 0.072491735, -0.17655838, -439378.4, -214479.0, 0.0, 9.9989605, 9.999012 
2.7747187e+3, 2.8704923e+2, -359548.8, -317521.53, 10697.853, 0.0906182, -0.13762227, -314955.16, -188049.55, 0.0, 9.998847, 9.999379 
2.7746645e+3, 2.970493e+2, -267271.22, -210057.34, 27516.303, 0.068941616, -0.052647527, -198971.67, -170065.8, 0.0, 9.9987545, 9.999491 
2.7746102e+3, 3.0704835e+2, -290629.0, -84871.24, 42438.227, 0.032539632, -0.14226143, -76461.91, -76461.91, 0.0, 9.997773, 10.000489 
2.7745563e+3, 3.1704846e+2, -346378.72, -64891.06, 38615.28, 0.057461947, -0.15252396, -59689.813, -59689.813, 0.0, 9.99718, 10.000916 
2.7855724e+3, 1.2712318e+2, -1365020.6, -1650083.5, 23255.875, -0.13105132, -0.089196, -1363135.9, 331046.56, 0.000629846, 10.002858, 9.999068 
2.7855188e+3, 1.371214e+2, -1391228.1, -1623033.4, 31077.088, -0.010273729, -0.15539354, -1387134.1, 209062.81, 0.00029206782, 10.00205, 9.99897 
2.7854645e+3, 1.4712028e+2, -1316963.4, -1539230.4, 73914.875, -0.019970132, -0.14420746, -1294627.6, 203580.66, 0.00008601583, 10.001905, 9.998938 
2.7854106e+3, 1.5711951e+2, -1200585.3, -1441766.5, 63800.266, -0.05677407, -0.09928109, -1184747.9, 215469.75, 0.000011710244, 10.002073, 9.998854 
2.7853575e+3, 1.6711816e+2, -1139876.4, -1359849.9, 82174.47, -0.042667624, -0.101245716, -1112568.8, 189662.27, 0.00000025139548, 10.001812, 9.998867 
2.7853048e+3, 1.7711662e+2, -1108133.5, -1296869.5, 77463.125, -0.010426292, -0.1254839, -1080411.9, 123833.81, 0.0, 10.0013685, 9.998842 
2.785252e+3, 1.8711536e+2, -1016721.44, -1170582.8, 86554.266, 0.0013850458, -0.13604413, -977850.7, 128406.836, 0.0, 10.001194, 9.999118 
2.785199e+3, 1.9711429e+2, -932214.5, -1088415.3, 84294.516, 0.004884326, -0.13815503, -895400.9, 112866.37, 0.0, 10.001142, 9.999034 
2.785146e+3, 2.0711325e+2, -865201.0, -1005195.4, 74712.68, 0.029476421, -0.12776412, -832818.56, 77458.55, 0.0, 10.000927, 9.999036 
2.7850932e+3, 2.1711227e+2, -816277.56, -944031.7, 70649.87, 0.064279445, -0.11279837, -784909.25, 27377.537, 0.0, 10.000643, 9.998921 
2.78504e+3, 2.2711083e+2, -751010.7, -870600.5, 76376.23, 0.057821468, -0.12641461, -713806.9, 494.41104, 0.0, 10.000458, 9.998841 
2.7849865e+3, 2.3710926e+2, -672670.75, -780635.8, 80644.55, 0.037109897, -0.15252064, -629608.7, -13291.3955, 0.0, 10.000317, 9.998854 
2.7849331e+3, 2.4710838e+2, -577984.94, -641264.2, 52359.22, 0.058001034, -0.13174787, -548448.1, -30122.605, 0.0, 10.000109, 9.999238 
2.7848795e+3, 2.5710785e+2, -528113.7, -582892.25, 46586.426, 0.090473674, -0.09054418, -501461.6, -81131.695, 0.0, 9.999848, 9.999092 
2.7848256e+3, 2.671063e+2, -492564.8, -533178.4, 37635.43, 0.0812861, -0.12892605, -470107.22, -147762.45, 0.0, 9.999501, 9.998925 
2.7847716e+3, 2.7710432e+2, -452349.6, -461544.88, 47753.855, 0.074353784, -0.20367298, -408972.56, -184608.66, 0.0, 9.999099, 9.998939 
2.7847174e+3, 2.8710377e+2, -374857.47, -322561.6, 31657.555, 0.08107667, -0.16241458, -307649.63, -181279.4, 0.0, 9.998734, 9.999397 
2.7846625e+3, 2.9710403e+2, -315347.34, -224909.86, 25148.691, 0.04301364, -0.060218222, -218387.02, -190018.19, 0.0, 9.99839, 9.999563 
2.7846083e+3, 3.0710328e+2, -226917.39, -30584.693, -10849.34, 0.07946598, -0.14574714, -29986.979, -29986.979, 0.0, 9.998115, 10.000695 
2.784554e+3, 3.1710383e+2, -286182.47, -53734.066, 78692.305, 0.06432903, -0.1307877, -29599.64, -29599.64, 0.0, 9.997676, 10.0007515 
2.7955762e+3, 1.2717877e+2, -1370139.8, -1640224.9, -8786.874, -0.045846418, -0.07744816, -1369854.1, 323783.0, 0.00027310598, 10.002771, 9.999177 
2.79552e+3, 1.371766e+2, -1380949.3, -1614117.8, 7103.1436, -0.06819797, -0.19248387, -1380733.1, 214921.98, 0.00011560371, 10.002103, 9.999006 
2.795466e+3, 1.4717545e+2, -1325627.5, -1569247.4, 79945.64, -0.07785471, -0.17335117, -1301735.8, 195931.08, 0.00002830601, 10.001956, 9.998709 
2.7954125e+3, 1.5717477e+2, -1214552.1, -1468080.4, 65675.09, -0.048026256, -0.097126596, -1198549.4, 201126.13, 0.000002446046, 10.002061, 9.998679 
2.7953595e+3, 1.6717343e+2, -1145349.5, -1367339.0, 65189.684, -0.02629771, -0.08946022, -1127621.6, 174067.55, 0.0000000042322403, 10.001794, 9.998825 
2.7953058e+3, 1.7717186e+2, -1110009.3, -1299969.0, 63384.47, -0.014794793, -0.11249746, -1090801.8, 112902.76, 0.0, 10.001364, 9.998824 
2.7952528e+3, 1.8717052e+2, -1011203.2, -1159969.4, 84895.04, -0.0009772829, -0.13458195, -972714.6, 133002.17, 0.0, 10.001197, 9.999189 
2.7952e+3, 1.9716935e+2, -930594.44, -1083615.5, 80225.48, 0.015223247, -0.15421535, -896244.75, 111482.336, 0.0, 10.001135, 9.999071 
2.795147e+3, 2.071682e+2, -873382.5, -1022181.06, 64022.984, 0.04033163, -0.14709234, -849627.9, 60109.973, 0.0, 10.000925, 9.99892 
2.7950937e+3, 2.1716715e+2, -819066.75, -949854.8, 61327.844, 0.06787789, -0.12851377, -794808.75, 16939.645, 0.0, 10.000642, 9.998883 
2.7950403e+3, 2.271659e+2, -734519.56, -837197.7, 71393.03, 0.061865173, -0.13817257, -697923.06, 15837.643, 0.0, 10.00046, 9.99907 
2.794987e+3, 2.3716459e+2, -663625.06, -762006.2, 74441.19, 0.043824617, -0.16007861, -623590.06, -7816.7163, 0.0, 10.000316, 9.998983 
2.794933e+3, 2.4716349e+2, -595924.7, -678096.6, 42951.617, 0.063618794, -0.15052149, -577572.44, -59788.28, 0.0, 10.000106, 9.998986 
2.7948794e+3, 2.5716257e+2, -537920.06, -605561.4, 35509.676, 0.09050611, -0.12434732, -522702.2, -102908.766, 0.0, 9.999858, 9.998933 
2.7948248e+3, 2.671614e+2, -480762.2, -510103.8, 21640.566, 0.07677904, -0.12586015, -469288.28, -147484.1, 0.0, 9.999505, 9.9990835 
2.7947703e+3, 2.7716017e+2, -446043.63, -448994.97, 32491.043, 0.0676884, -0.1431713, -414994.78, -191179.27, 0.0, 9.9991, 9.999025 
2.7947158e+3, 2.8715885e+2, -393415.9, -357908.9, 17440.717, 0.080682024, -0.16661753, -350775.34, -224946.08, 0.0, 9.998721, 9.999161 
2.794661e+3, 2.9715773e+2, -341577.56, -271510.6, 12462.667, 0.03755282, -0.17873798, -269359.9, -241518.02, 0.0, 9.998355, 9.99926 
2.7946067e+3, 3.0715853e+2, -251560.42, -82570.78, -23477.092, 0.100540526, -0.072590604, -79369.83, -79369.83, 0.0, 9.998114, 10.0003395 
2.7945516e+3, 3.171578e+2, -247960.38, 26765.398, 43227.32, 0.06353052, -0.16281852, 33406.55, 33406.55, 0.0, 9.997677, 10.0013 
2.8055787e+3, 1.2723427e+2, -1539666.8, -1740631.1, 14338.815, 0.017349806, -0.090181716, -1538648.9, 154443.52, 0.00009545869, 10.001685, 9.999013 
2.805522e+3, 1.3723221e+2, -1295463.1, -1587328.3, 5485.942, -0.108429275, -0.17763755, -1295360.0, 299750.7, 0.0000345017, 10.002752, 9.9988785 
2.8054675e+3, 1.4723095e+2, -1250874.6, -1532328.1, 62347.28, -0.10883885, -0.16282801, -1237681.9, 259441.23, 0.0000060034013, 10.002466, 9.998716 
2.8054145e+3, 1.572301e+2, -1279531.9, -1498686.0, 64255.105, -0.019488508, -0.10483237, -1262082.0, 137050.67, 0.00000016363987, 10.001611, 9.998687 
2.8053612e+3, 1.6722874e+2, -1197777.1, -1386871.4, 81196.99, -0.0016728262, -0.10243593, -1167696.4, 133449.94, 0.0, 10.001413, 9.998874 
2.8053072e+3, 1.7722723e+2, -1085927.1, -1282270.0, 86584.12, -0.02350028, -0.12410505, -1053200.0, 149961.22, 0.0, 10.001511, 9.998872 
2.805254e+3, 1.8722597e+2, -1005156.6, -1167010.9, 99827.68, -0.0052844672, -0.13565525, -957573.94, 147599.25, 0.0, 10.001282, 9.9991 
2.805201e+3, 1.9722483e+2, -964884.75, -1106362.6, 84787.47, 0.035336044, -0.14251374, -925202.2, 81981.42, 0.0, 10.000922, 9.99902 
2.805148e+3, 2.0722365e+2, -879093.06, -1014138.25, 78117.71, 0.05070943, -0.14406656, -843360.25, 65834.266, 0.0, 10.000841, 9.999016 
2.805094e+3, 2.1722251e+2, -780810.44, -922678.3, 87851.63, 0.053499732, -0.14233993, -738830.56, 72374.766, 0.0, 10.000873, 9.998957 
2.8050408e+3, 2.272213e+2, -717097.5, -831267.6, 84253.875, 0.058872867, -0.14824931, -672411.1, 40805.94, 0.0, 10.000593, 9.999045 
2.8049874e+3, 2.3722008e+2, -685066.0, -773608.44, 70753.32, 0.06953807, -0.15779638, -645874.8, -30645.926, 0.0, 10.000175, 9.998971 
2.8049335e+3, 2.4721894e+2, -614399.2, -685942.1, 50147.32, 0.08318939, -0.15394701, -588572.4, -71332.14, 0.0, 9.999977, 9.998994 
2.804879e+3, 2.5721785e+2, -538826.06, -605094.2, 59891.78, 0.091908626, -0.1419222, -503513.88, -84263.1, 0.0, 9.999851, 9.998937 
2.804824e+3, 2.6721677e+2, -454967.4, -501719.63, 38508.117, 0.069434345, -0.13524547, -433295.56, -112034.61, 0.0, 9.9997, 9.999047 
2.8047693e+3, 2.7721563e+2, -387594.4, -426583.4, 34374.01, 0.05645642, -0.13554251, -367571.72, -144300.6, 0.0, 9.999522, 9.998978 
2.8047147e+3, 2.872142e+2, -331859.6, -339483.2, 17723.82, 0.086917035, -0.16520916, -317542.3, -192256.27, 0.0, 9.999193, 9.99906 
2.8046596e+3, 2.972128e+2, -291777.84, -264572.8, 24435.332, 0.06791756, -0.19540086, -250209.02, -222907.81, 0.0, 9.998775, 9.9991045 
2.8046045e+3, 3.0721328e+2, -224782.06, -108571.1, -273.41727, 0.06677037, -0.09209062, -108570.46, -108570.46, 0.0, 9.998465, 9.999993 
2.804549e+3, 3.1721216e+2, -201854.4, 25736.56, 21632.236, 0.04802676, -0.19085485, 27774.43, 27774.43, 0.0, 9.9980955, 10.00109 
2.8155807e+3, 1.2728971e+2, -1557683.8, -1794884.6, 53496.605, 0.055812128, -0.121769816, -1546176.8, 146370.64, 0.000023604834, 10.001761, 9.998602 
2.8155243e+3, 1.3728815e+2, -1321082.6, -1630505.9, 29766.93, -0.13566607, -0.12145934, -1318245.1, 276318.9, 0.0000064184533, 10.002709, 9.998602 
2.8154698e+3, 1.4728677e+2, -1243556.9, -1509140.0, 28599.781, -0.11634515, -0.120931864, -1240512.0, 256065.33, 0.00000052844416, 10.002429, 9.998895 
2.8154165e+3, 1.5728551e+2, -1265908.6, -1472461.0, 38953.082, 0.02761797, -0.120926544, -1258806.8, 139782.2, 0.0000000005064632, 10.001618, 9.998864 
2.8153625e+3, 1.6728415e+2, -1184318.3, -1363335.4, 85308.24, 0.027104372, -0.13561976, -1150177.0, 150425.1, 0.0, 10.001431, 9.999027 
2.8153083e+3, 1.772828e+2, -1080528.6, -1271752.6, 86346.46, -0.04257976, -0.15608932, -1047309.9, 155305.7, 0.0, 10.001513, 9.998943 
2.8152552e+3, 1.872817e+2, -1022758.9, -1203298.6, 85849.77, -0.011832174, -0.13872373, -988454.1, 116172.695, 0.0, 10.001279, 9.998853 
2.8152022e+3, 1.9728072e+2, -974312.2, -1125169.0, 74447.84, 0.06406494, -0.10542519, -943759.8, 62877.04, 0.0, 10.000918, 9.998893 
2.8151488e+3, 2.0727955e+2, -859360.3, -973352.9, 79998.37, 0.059905846, -0.12043505, -818130.75, 90516.586, 0.0, 10.000842, 9.999296 
2.8150946e+3, 2.172783e+2, -771303.3, -900724.3, 85222.95, 0.020407068, -0.15571457, -729007.25, 81650.56, 0.0, 10.000861, 9.999113 
2.815041e+3, 2.2727701e+2, -736376.5, -871399.7, 68438.19, 0.048991602, -0.1573807, -707754.8, 4915.8364, 0.0, 10.000593, 9.998771 
2.8149876e+3, 2.3727578e+2, -694482.2, -794818.25, 57232.58, 0.10778721, -0.14351068, -668542.4, -53858.527, 0.0, 10.000181, 9.998823 
2.8149334e+3, 2.4727473e+2, -595572.56, -647285.6, 45403.473, 0.11593832, -0.14005573, -569179.4, -52485.76, 0.0, 9.999977, 9.99926 
2.8148785e+3, 2.572738e+2, -527813.25, -582413.75, 54812.094, 0.09398491, -0.14097446, -493878.97, -75177.4, 0.0, 9.99985, 9.999094 
2.8148237e+3, 2.6727235e+2, -472671.44, -538585.56, 32258.645, 0.058555085, -0.1592001, -459511.38, -138795.94, 0.0, 9.9997, 9.998795 
2.8147686e+3, 2.7727073e+2, -399342.22, -453386.78, 25783.543, 0.038998898, -0.18463567, -389014.88, -166283.44, 0.0, 9.999532, 9.99879 
2.814714e+3, 2.872698e+2, -328989.6, -335645.8, 1191.7081, 0.100443326, -0.15633065, -328782.66, -204041.94, 0.0, 9.9992, 9.999084 
2.8146586e+3, 2.9726928e+2, -287934.0, -259950.22, 9664.725, 0.13030009, -0.1012125, -256936.81, -230190.77, 0.0, 9.998787, 9.99913 
2.8146017e+3, 3.0726746e+2, -242174.31, -147785.05, -9538.888, -0.03260176, -0.21695486, -146830.7, -146830.7, 0.0, 9.998477, 9.999719 
2.8145474e+3, 3.1726742e+2, -287196.63, -151663.84, -33623.43, 0.099048816, -0.1624059, -143780.92, -143780.92, 0.0, 9.998089, 9.999878 
2.825582e+3, 1.2734488e+2, -1449609.0, -1739473.5, 34598.715, -0.015205289, -0.13654992, -1445536.4, 246469.5, 0.0000033256797, 10.002486, 9.998634 
2.8255275e+3, 1.3734365e+2, -1393476.3, -1655098.9, 32446.418, -0.07874265, -0.10685305, -1389512.3, 204508.0, 0.00000050691085, 10.002169, 9.998694 
2.825472e+3, 1.4734234e+2, -1304894.3, -1510813.4, 21238.3, -0.068005726, -0.11652695, -1302726.6, 193305.8, 0.0000000023756648, 10.001891, 9.999141 
2.825418e+3, 1.5734103e+2, -1244868.4, -1439172.8, 40051.508, 0.013117977, -0.14447024, -1236936.5, 161106.97, 0.0, 10.001666, 9.999068 
2.825364e+3, 1.6733986e+2, -1174329.0, -1362203.8, 91764.17, 0.013065895, -0.14847142, -1136946.6, 163108.81, 0.0, 10.001514, 9.998996 
2.82531e+3, 1.7733875e+2, -1097737.0, -1281173.3, 77735.07, -0.02760865, -0.14087647, -1069226.4, 132840.98, 0.0, 10.001394, 9.998939 
2.8252563e+3, 1.8733767e+2, -1020702.4, -1187944.4, 84975.06, 0.0021460683, -0.12856032, -985104.1, 118974.15, 0.0, 10.001234, 9.998979 
2.8252032e+3, 1.9733664e+2, -945997.7, -1098218.5, 101039.69, 0.06226746, -0.11380674, -895609.8, 110478.516, 0.0, 10.001062, 9.999004 
2.8251493e+3, 2.0733552e+2, -855009.3, -971491.9, 105307.68, 0.062235236, -0.12704143, -792910.44, 115187.86, 0.0, 10.000875, 9.999291 
2.8250954e+3, 2.1733436e+2, -796403.25, -912703.25, 90290.52, 0.03786422, -0.15222926, -747157.7, 62950.41, 0.0, 10.0006895, 9.999114 
2.8250414e+3, 2.2733308e+2, -743088.44, -875667.06, 75377.39, 0.060216658, -0.15365526, -708998.4, 3122.792, 0.0, 10.000552, 9.99876 
2.8249878e+3, 2.373318e+2, -658077.9, -775300.75, 83071.16, 0.10722162, -0.1433168, -615022.6, -887.67255, 0.0, 10.000425, 9.998838 
2.8249332e+3, 2.4733075e+2, -553010.75, -618398.44, 69213.83, 0.114922054, -0.144323, -509157.6, 6986.571, 0.0, 10.000235, 9.999334 
2.8248787e+3, 2.5732982e+2, -501142.53, -566424.6, 64788.617, 0.09615911, -0.15049002, -461237.0, -43085.645, 0.0, 10.000018, 9.999125 
2.8248233e+3, 2.6732838e+2, -455074.63, -540048.5, 46318.38, 0.05963026, -0.16540584, -434708.3, -114542.53, 0.0, 9.999865, 9.998704 
2.824768e+3, 2.7732673e+2, -378288.5, -447755.97, 49517.664, 0.042512424, -0.18423533, -352537.28, -130354.5, 0.0, 9.999702, 9.998744 
2.824713e+3, 2.8732577e+2, -301585.78, -317288.6, 23525.035, 0.113860935, -0.16112627, -284636.56, -160444.55, 0.0, 9.999367, 9.99913 
2.824658e+3, 2.973252e+2, -263550.03, -248900.38, 35245.086, 0.15583736, -0.113983, -220227.02, -194030.23, 0.0, 9.998954, 9.999128 
2.8245997e+3, 3.0732346e+2, -212242.95, -159048.22, 22012.154, -0.07080572, -0.20723078, -151120.89, -151120.89, 0.0, 9.998795, 9.999487 
2.824546e+3, 3.1732324e+2, -214687.08, -129424.15, -32501.023, 0.15956876, -0.14959069, -118448.17, -118448.17, 0.0, 9.998648, 9.999758 
2.8355828e+3, 1.2739982e+2, -1420319.6, -1678066.3, 24651.773, -0.16356172, -0.1354939, -1417983.0, 273483.9, 0.00000016214108, 10.002486, 9.999054 
2.8355306e+3, 1.3739885e+2, -1370013.0, -1598448.6, 22163.986, 0.03859587, -0.12215619, -1367882.4, 225595.75, 0.0000000020979667, 10.002134, 9.999099 
2.835475e+3, 1.4739779e+2, -1284438.8, -1467192.5, 13253.903, 0.015953941, -0.14279959, -1283482.5, 212005.14, 0.0, 10.001884, 9.999445 
2.8354186e+3, 1.5739672e+2, -1228654.4, -1410435.5, 33006.74, -0.05839708, -0.1765005, -1222846.8, 174649.45, 0.0, 10.001686, 9.999257 
2.8353646e+3, 1.6739585e+2, -1188366.0, -1393742.8, 87248.37, -0.034814674, -0.14329623, -1156305.8, 143200.58, 0.0, 10.001523, 9.9987755 
2.8353116e+3, 1.7739506e+2, -1103052.5, -1289709.9, 72462.24, 0.020646634, -0.08298905, -1078224.5, 123292.34, 0.0, 10.001384, 9.998885 
2.8352576e+3, 1.8739389e+2, -987402.75, -1118773.5, 78669.914, 0.032286186, -0.10746706, -950601.44, 152926.13, 0.0, 10.001233, 9.9994545 
2.8352037e+3, 1.9739258e+2, -925494.0, -1054663.1, 93873.75, 0.028100995, -0.16537765, -876133.6, 129404.49, 0.0, 10.001058, 9.999307 
2.83515e+3, 2.0739159e+2, -873770.7, -1010753.44, 98039.64, 0.05809401, -0.16108239, -822667.56, 84879.83, 0.0, 10.000875, 9.9990225 
2.8350967e+3, 2.1739073e+2, -806973.44, -933792.2, 84031.91, 0.09840979, -0.13200594, -765111.2, 44444.82, 0.0, 10.000685, 9.998972 
2.8350422e+3, 2.273895e+2, -726608.5, -841060.2, 71171.31, 0.09053678, -0.13748011, -692509.94, 19058.543, 0.0, 10.000549, 9.999 
2.8349876e+3, 2.3738813e+2, -648068.75, -753596.5, 77440.33, 0.06817813, -0.1569744, -607125.5, 6456.6436, 0.0, 10.000421, 9.99899 
2.834933e+3, 2.4738698e+2, -562806.25, -639362.6, 60975.047, 0.07917471, -0.16728134, -529090.2, -13497.899, 0.0, 10.0002365, 9.999189 
2.8348786e+3, 2.5738597e+2, -505566.0, -578842.0, 56676.332, 0.09183843, -0.16960368, -474716.6, -57116.17, 0.0, 10.0000305, 9.999034 
2.834823e+3, 2.6738486e+2, -448401.97, -527072.0, 40174.76, 0.07266468, -0.15162975, -431511.94, -111900.07, 0.0, 9.9998665, 9.998795 
2.8347677e+3, 2.773837e+2, -369644.56, -431000.97, 41574.93, 0.0654369, -0.1312969, -348654.3, -127029.61, 0.0, 9.999706, 9.9988575 
2.8347126e+3, 2.8738207e+2, -296040.16, -305666.66, 8521.494, 0.12458251, -0.18200567, -291066.5, -167426.72, 0.0, 9.999366, 9.999211 
2.8346565e+3, 2.9738054e+2, -266855.66, -254377.52, 23330.998, 0.1422077, -0.24177834, -236465.78, -210812.03, 0.0, 9.998946, 9.999096 
2.834599e+3, 3.0738154e+2, -229976.1, -193986.9, 20306.926, -0.03403886, -0.04179369, -184848.92, -184848.92, 0.0, 9.998786, 9.999252 
2.8345448e+3, 3.1737903e+2, -129220.62, 44485.414, -72912.81, 0.16037016, -0.21093719, 71033.125, 71033.125, 0.0, 9.998661, 10.000948 
2.8455853e+3, 1.274551e+2, -1394263.9, -1654615.5, 42206.688, -0.17306696, -0.1806542, -1387592.5, 303330.34, 0.00000000032983427, 10.002615, 9.999155 
2.845532e+3, 1.3745445e+2, -1486177.5, -1639839.0, 28109.96, 0.049400613, -0.14386596, -1481196.8, 111734.766, 0.0, 10.001272, 9.999231 
2.8454763e+3, 1.474536e+2, -1356202.6, -1482469.5, 40257.855, 0.018979369, -0.15815495, -1344459.4, 150479.73, 0.0, 10.001308, 9.999618 
2.8454202e+3, 1.5745272e+2, -1188581.1, -1377140.5, 46995.12, -0.07434476, -0.19035314, -1177517.6, 219428.58, 0.0, 10.001901, 9.999382 
2.8453663e+3, 1.6745193e+2, -1163438.1, -1379787.5, 94241.78, -0.035640955, -0.15335874, -1128144.1, 170811.44, 0.0, 10.00169, 9.998789 
2.845313e+3, 1.774512e+2, -1129764.8, -1294866.5, 98297.05, 0.04579131, -0.0919073, -1083953.0, 117012.82, 0.0, 10.001172, 9.998948 
2.8452587e+3, 1.8745008e+2, -1011864.56, -1118051.9, 97372.086, 0.044488993, -0.119230345, -954051.75, 148924.22, 0.0, 10.001012, 9.999566 
2.8452045e+3, 1.9744886e+2, -926524.8, -1044188.7, 87065.17, 0.016389703, -0.1792376, -880278.0, 124707.63, 0.0, 10.001, 9.999408 
2.8451505e+3, 2.0744798e+2, -873867.6, -1003099.7, 97383.305, 0.05190858, -0.17190863, -821613.06, 85380.86, 0.0, 10.000842, 9.999091 
2.8450972e+3, 2.1744725e+2, -810794.56, -928080.5, 107510.0, 0.10957356, -0.1366557, -746973.7, 62027.777, 0.0, 10.000628, 9.999037 
2.8450426e+3, 2.274461e+2, -724164.56, -835880.06, 93756.58, 0.09662577, -0.13990271, -670887.6, 40125.887, 0.0, 10.000551, 9.999034 
2.8449878e+3, 2.3744474e+2, -631161.8, -740793.2, 85247.83, 0.06070392, -0.15939926, -584626.9, 28400.186, 0.0, 10.000517, 9.999031 
2.844933e+3, 2.4744359e+2, -540234.75, -623784.06, 70490.24, 0.074028365, -0.17514737, -500070.44, 14966.547, 0.0, 10.000372, 9.999231 
2.8448784e+3, 2.5744253e+2, -488835.38, -567015.25, 79468.03, 0.10115409, -0.18466194, -439363.5, -22318.46, 0.0, 10.0001335, 9.999064 
2.844823e+3, 2.6744148e+2, -451337.22, -531531.44, 60816.703, 0.07895016, -0.16081993, -418588.97, -99532.68, 0.0, 9.999859, 9.998769 
2.8447673e+3, 2.774404e+2, -389045.22, -442095.72, 52914.625, 0.06174211, -0.12958479, -356379.72, -135310.8, 0.0, 9.999574, 9.99885 
2.8447118e+3, 2.8743884e+2, -259392.84, -283822.94, 16018.589, 0.12669268, -0.17724003, -251463.34, -128380.15, 0.0, 9.9995985, 9.99925 
2.8446558e+3, 2.9743725e+2, -156158.8, -202233.56, 24603.717, 0.15106879, -0.24135862, -145490.63, -120393.945, 0.0, 9.99972, 9.999078 
2.8445974e+3, 3.0743763e+2, -217995.84, -214503.05, 11235.847, -0.045014285, -0.093390614, -204878.69, -204878.69, 0.0, 9.998985, 9.999015 
2.844543e+3, 3.1743532e+2, -139966.17, 100143.39, -27728.762, 0.15177976, -0.2229986, 103304.01, 103304.01, 0.0, 9.998324, 10.001493 
2.8555885e+3, 1.2751064e+2, -1418473.8, -1685441.4, -10208.666, -0.09259395, -0.26342708, -1418084.0, 272290.9, 0.0, 10.002536, 9.998979 
2.8555325e+3, 1.375104e+2, -1485659.5, -1650870.9, -4598.392, -0.022276282, -0.17065825, -1485531.6, 106849.4, 0.0, 10.001326, 9.999129 
2.855477e+3, 1.475098e+2, -1345198.9, -1470506.3, 63895.656, -0.03664451, -0.16145864, -1318364.4, 176022.78, 0.0, 10.001354, 9.999679 
2.8554225e+3, 1.5750906e+2, -1184062.8, -1363571.8, 59029.52, -0.042913005, -0.18470582, -1166391.3, 230001.83, 0.0, 10.001882, 9.999485 
2.855368e+3, 1.6750816e+2, -1148170.3, -1345956.4, 73973.21, -0.0025027464, -0.17900573, -1123564.9, 174838.06, 0.0, 10.001679, 9.999026 
2.855314e+3, 1.7750718e+2, -1119550.6, -1275547.8, 83200.84, 0.044005148, -0.16353832, -1083504.6, 116909.625, 0.0, 10.001179, 9.999079 
2.8552595e+3, 1.8750629e+2, -1027337.4, -1151838.3, 97369.12, 0.040956832, -0.1594334, -974020.25, 128403.06, 0.0, 10.001018, 9.999332 
2.8552052e+3, 1.9750546e+2, -933408.4, -1056126.3, 84846.664, 0.023709754, -0.15879558, -890058.75, 114372.35, 0.0, 10.00099, 9.9993305 
2.8551513e+3, 2.0750469e+2, -847425.4, -947748.0, 89388.74, 0.042911604, -0.16190474, -795085.44, 111352.51, 0.0, 10.00084, 9.999472 
2.8550974e+3, 2.1750392e+2, -795280.06, -893332.94, 100778.29, 0.073215924, -0.16576254, -732235.75, 76208.73, 0.0, 10.000616, 9.999281 
2.855043e+3, 2.2750284e+2, -736114.3, -861505.06, 92917.484, 0.07818357, -0.15919751, -686718.8, 23737.512, 0.0, 10.000554, 9.9988575 
2.8549886e+3, 2.3750165e+2, -633355.6, -748977.75, 82504.94, 0.07493054, -0.14932394, -590423.56, 22046.293, 0.0, 10.000531, 9.998968 
2.8549337e+3, 2.4750058e+2, -522697.97, -587492.3, 61972.75, 0.09934838, -0.16802508, -485165.2, 29313.195, 0.0, 10.000371, 9.999481 
2.8548786e+3, 2.5749958e+2, -478005.34, -545349.25, 70355.125, 0.1256804, -0.19689184, -433679.6, -17194.51, 0.0, 10.000135, 9.999212 
2.8548226e+3, 2.6749822e+2, -463879.84, -557489.25, 49983.76, 0.07683827, -0.19520514, -442207.84, -123708.69, 0.0, 9.999857, 9.998592 
2.8547662e+3, 2.774968e+2, -399074.88, -462629.4, 44666.434, 0.02560322, -0.18044499, -376035.3, -155519.7, 0.0, 9.99957, 9.998711 
2.854711e+3, 2.8749606e+2, -261481.69, -287535.28, 21808.684, 0.120505095, -0.1415478, -249105.4, -126583.5, 0.0, 9.999595, 9.999227 
2.8546554e+3, 2.974955e+2, -152074.05, -198879.58, 19488.713, 0.18114994, -0.100055404, -145021.94, -120497.2, 0.0, 9.9997425, 9.99909 
2.8545955e+3, 3.074912e+2, -230198.33, -240706.03, -32165.45, -0.13112743, -0.4096512, -202860.48, -202860.48, 0.0, 9.998988, 9.998835 
2.8545415e+3, 3.1749338e+2, -166882.45, 53280.766, 119677.94, 0.17808087, -0.07379622, 105805.336, 105805.336, 0.0, 9.99829, 10.001187 
2.8655908e+3, 1.2756728e+2, -1553281.8, -1744793.5, 5865.755, -0.049940817, -0.28005758, -1553102.3, 136716.02, 0.0, 10.001579, 9.999035 
2.8655335e+3, 1.3756697e+2, -1389488.9, -1605186.6, 29852.057, -0.06868806, -0.19783497, -1385433.6, 206390.7, 0.0, 10.001987, 9.999124 
2.865478e+3, 1.4756632e+2, -1299995.5, -1474948.5, 98911.97, -0.070598446, -0.17903018, -1255427.6, 238403.95, 0.0, 10.00178, 9.99944 
2.865424e+3, 1.575655e+2, -1269669.6, -1415343.0, 72439.47, -0.024058485, -0.18686493, -1239780.1, 156059.22, 0.0, 10.001342, 9.999388 
2.8653693e+3, 1.6756463e+2, -1195388.8, -1337953.4, 74902.805, 0.007315444, -0.19180506, -1163270.9, 134577.6, 0.0, 10.001224, 9.999301 
2.8653148e+3, 1.7756376e+2, -1098718.3, -1245636.4, 86885.945, 0.025166793, -0.19281505, -1058399.5, 141458.45, 0.0, 10.001235, 9.999258 
2.8652605e+3, 1.8756297e+2, -1022472.44, -1159623.3, 112487.445, 0.03505934, -0.17860533, -959305.6, 142560.69, 0.0, 10.001096, 9.999241 
2.8652063e+3, 1.9756225e+2, -946532.44, -1063260.6, 109853.98, 0.042758226, -0.15972209, -880500.94, 123373.195, 0.0, 10.000906, 9.99932 
2.865152e+3, 2.0756154e+2, -846759.8, -927914.5, 103823.484, 0.05031551, -0.16587576, -775865.94, 130014.35, 0.0, 10.000763, 9.999644 
2.8650975e+3, 2.1756086e+2, -780650.4, -868675.9, 102411.42, 0.05916866, -0.17947972, -713194.6, 94691.14, 0.0, 10.000642, 9.999438 
2.8650433e+3, 2.275599e+2, -739098.06, -852472.25, 107041.305, 0.06765768, -0.17153867, -674660.1, 35236.23, 0.0, 10.000488, 9.998951 
2.8649887e+3, 2.3755886e+2, -657028.7, -748790.7, 115872.21, 0.081637084, -0.15429303, -578284.5, 33623.996, 0.0, 10.000322, 9.99907 
2.864934e+3, 2.4755797e+2, -526798.56, -581433.2, 90050.18, 0.106404886, -0.16368821, -460013.4, 53902.29, 0.0, 10.00031, 9.999552 
2.8648788e+3, 2.575571e+2, -446072.8, -523646.66, 84727.49, 0.12472426, -0.18430963, -391676.2, 24245.11, 0.0, 10.000326, 9.99927 
2.8648224e+3, 2.6755556e+2, -397098.22, -520308.7, 69763.61, 0.07991521, -0.20695397, -365632.7, -47695.785, 0.0, 10.000295, 9.998635 
2.864766e+3, 2.7755386e+2, -307465.25, -414557.28, 80907.76, 0.042239662, -0.22496024, -263989.4, -44033.867, 0.0, 10.00019, 9.998739 
2.8647107e+3, 2.875535e+2, -219206.58, -273112.97, 66646.8, 0.10702131, -0.14473519, -174269.1, -52310.797, 0.0, 9.999914, 9.999171 
2.8646547e+3, 2.975535e+2, -180294.02, -224133.92, 56327.35, 0.12796342, -0.04272158, -141771.81, -117815.3, 0.0, 9.999597, 9.99899 
2.8645954e+3, 3.0754742e+2, -132293.98, -231037.98, -14486.6045, -0.07267286, -0.5045115, -130212.55, -130212.55, 0.0, 9.9998255, 9.998499 
2.8645402e+3, 3.1755072e+2, 6088.912, 75582.086, 113725.984, 0.17533755, -0.019293597, 159751.13, 159751.13, 0.0, 9.999749, 10.000632 
2.8755924e+3, 1.2762484e+2, -1533809.4, -1703536.0, 18905.617, -0.032696605, -0.24117419, -1531729.0, 157525.14, 0.0, 10.00158, 9.999315 
2.875535e+3, 1.376241e+2, -1384469.4, -1593927.0, 35576.418, -0.10216673, -0.22725388, -1378591.6, 212670.27, 0.0, 10.001985, 9.999202 
2.8754795e+3, 1.4762312e+2, -1334778.9, -1547278.4, 80326.805, -0.094785385, -0.21252719, -1307831.8, 185441.17, 0.0, 10.00178, 9.998945 
2.875425e+3, 1.5762205e+2, -1290341.8, -1457882.6, 60109.23, -0.020399109, -0.19904463, -1271007.4, 124277.66, 0.0, 10.00134, 9.999097 
2.8753704e+3, 1.6762139e+2, -1175907.6, -1297199.6, 75972.66, -0.00079660723, -0.19095789, -1139343.6, 157948.42, 0.0, 10.001221, 9.999582 
2.8753155e+3, 1.7762087e+2, -1084790.8, -1214136.4, 84879.88, -0.0067178686, -0.18179443, -1042752.94, 156544.0, 0.0, 10.0012245, 9.999479 
2.8752613e+3, 1.8762009e+2, -1019410.7, -1153087.1, 104921.445, 0.025419416, -0.18007307, -961846.94, 139458.36, 0.0, 10.001095, 9.999286 
2.8752074e+3, 1.9761918e+2, -945477.06, -1059126.3, 103068.29, 0.06913579, -0.18268771, -884606.7, 118708.11, 0.0, 10.000897, 9.999353 
2.8751528e+3, 2.0761855e+2, -848697.56, -932249.0, 99393.24, 0.07146549, -0.1822837, -782657.56, 122663.3, 0.0, 10.000762, 9.999617 
2.8750983e+3, 2.17618e+2, -776604.1, -858093.5, 97247.445, 0.057966508, -0.18015794, -711910.7, 95414.84, 0.0, 10.000632, 9.999516 
2.8750435e+3, 2.2761723e+2, -713871.5, -799235.94, 100880.4, 0.06511868, -0.17843206, -647015.44, 62318.293, 0.0, 10.000485, 9.999317 
2.874989e+3, 2.376164e+2, -639532.75, -712587.0, 111877.484, 0.08363757, -0.1762845, -558370.44, 52972.71, 0.0, 10.000321, 9.999319 
2.8749338e+3, 2.4761577e+2, -535989.0, -602010.8, 91362.09, 0.092390865, -0.16089448, -471856.97, 41491.875, 0.0, 10.000315, 9.999409 
2.8748783e+3, 2.5761518e+2, -445998.34, -527484.2, 84342.78, 0.08616786, -0.14213851, -393073.28, 22280.219, 0.0, 10.000342, 9.999236 
2.8748226e+3, 2.6761353e+2, -376205.47, -477620.56, 66701.72, 0.08854921, -0.19414112, -343125.34, -25755.992, 0.0, 10.0002985, 9.998926 
2.874767e+3, 2.7761155e+2, -288844.0, -381454.53, 75027.19, 0.11409297, -0.26663148, -246983.19, -27594.658, 0.0, 10.000212, 9.998957 
2.8747103e+3, 2.8761116e+2, -223257.25, -285552.88, 55454.016, 0.077809945, -0.19396387, -190802.13, -69409.56, 0.0, 9.9999275, 9.999081 
2.8746524e+3, 2.9761118e+2, -197562.63, -257936.53, 48829.133, -0.02737516, -0.07741564, -170342.81, -146950.44, 0.0, 9.999591, 9.99876 
2.8745973e+3, 3.0760688e+2, -172938.27, -313949.6, 7367.5493, 0.18516296, -0.31662595, -172554.38, -172554.38, 0.0, 9.999827, 9.997925 
2.8745383e+3, 3.1760606e+2, -47784.016, -49322.277, -113869.13, 0.027836453, -0.1866455, 65318.582, 65318.582, 0.0, 9.999788, 9.999764 
2.8855935e+3, 1.2768187e+2, -1552326.3, -1696695.3, 13606.348, -0.047566276, -0.21469605, -1551055.0, 137640.7, 0.0, 10.00138, 9.999462 
2.8855368e+3, 1.3768098e+2, -1401306.3, -1587751.0, 13637.48, -0.096586436, -0.2301546, -1400314.0, 190389.9, 0.0, 10.001807, 9.999329 
2.8854808e+3, 1.4767998e+2, -1366136.8, -1560558.8, 53556.848, -0.085751474, -0.22366121, -1352359.9, 140355.02, 0.0, 10.001558, 9.998959 
2.8854263e+3, 1.5767896e+2, -1326825.6, -1472346.1, 69849.49, -0.013701697, -0.20862933, -1298724.6, 96002.07, 0.0, 10.001076, 9.999125 
2.8853714e+3, 1.6767834e+2, -1205037.9, -1304705.4, 98260.875, 0.003306708, -0.19737557, -1144696.3, 152036.53, 0.0, 10.000993, 9.99964 
2.8853163e+3, 1.776779e+2, -1104735.4, -1214659.6, 91138.805, -0.008275919, -0.18810043, -1053268.6, 145468.33, 0.0, 10.001048, 9.999559 
2.885262e+3, 1.8767717e+2, -1039061.2, -1148794.0, 102793.04, 0.019254066, -0.19045137, -977408.4, 123336.22, 0.0, 10.000902, 9.999407 
2.885208e+3, 1.9767638e+2, -969214.25, -1060635.6, 106744.8, 0.064622186, -0.19532321, -898804.6, 103948.64, 0.0, 10.00069, 9.999443 
2.8851533e+3, 2.076758e+2, -875546.56, -945156.8, 108778.43, 0.07074648, -0.19094782, -796140.7, 108618.36, 0.0, 10.000577, 9.999618 
2.8850988e+3, 2.1767534e+2, -789566.0, -855651.1, 108741.95, 0.061374344, -0.18198998, -708957.25, 97806.31, 0.0, 10.000506, 9.999594 
2.885044e+3, 2.2767477e+2, -704399.06, -763184.6, 106123.12, 0.06738309, -0.18044405, -623673.5, 85096.055, 0.0, 10.000416, 9.9995985 
2.884989e+3, 2.3767419e+2, -625576.8, -680920.7, 113176.414, 0.08323037, -0.18057024, -536738.56, 74037.47, 0.0, 10.00031, 9.999541 
2.884934e+3, 2.4767368e+2, -544021.0, -603174.56, 102651.44, 0.08398157, -0.16318257, -466770.3, 46010.742, 0.0, 10.00025, 9.999432 
2.8848785e+3, 2.5767314e+2, -458015.7, -518452.47, 108187.68, 0.07536638, -0.13905177, -375905.4, 38880.363, 0.0, 10.000203, 9.999361 
2.8848228e+3, 2.6767182e+2, -379498.28, -439309.28, 92902.586, 0.08358805, -0.187474, -311806.5, 4991.8057, 0.0, 10.000109, 9.999278 
2.8847668e+3, 2.776702e+2, -321501.84, -365858.75, 102325.4, 0.11597447, -0.25963423, -238978.97, -20165.492, 0.0, 9.999853, 9.999234 
2.8847098e+3, 2.876699e+2, -226289.83, -302411.47, 95834.71, 0.078695916, -0.18097898, -161234.61, -40417.383, 0.0, 9.999978, 9.998939 
2.8846523e+3, 2.976699e+2, -75656.71, -207249.11, 87450.52, -0.022703346, -0.051815912, -32014.646, -9196.157, 0.0, 10.000469, 9.998685 
2.8845978e+3, 3.0766588e+2, -91405.56, -264871.75, 81282.28, 0.22033043, -0.26481336, -59271.34, -59271.34, 0.0, 10.000356, 9.998014 
2.884537e+3, 3.176646e+2, -39826.023, -27903.06, -90479.484, -0.056203276, -0.18678384, 56811.125, 56811.125, 0.0, 9.999762, 9.99994 
2.8955942e+3, 1.2773849e+2, -1548956.1, -1689871.9, 30966.746, -0.09117783, -0.20154604, -1542451.4, 145690.48, 0.0, 10.001387, 9.999502 
2.8955388e+3, 1.3773775e+2, -1397111.0, -1568554.9, 21725.906, -0.06032556, -0.20913869, -1394400.8, 195747.86, 0.0, 10.001763, 9.999481 
2.8954828e+3, 1.4773697e+2, -1339683.6, -1501298.5, 34189.305, -0.047783345, -0.21299393, -1332748.5, 159407.89, 0.0, 10.001537, 9.999376 
2.8954273e+3, 1.577362e+2, -1305137.6, -1430373.3, 56481.066, -0.0029767072, -0.2134421, -1283428.1, 110736.41, 0.0, 10.001088, 9.999407 
2.8953722e+3, 1.6773549e+2, -1212474.9, -1322674.8, 100418.31, 0.014606851, -0.2140004, -1153033.0, 143138.5, 0.0, 10.001003, 9.999513 
2.8953177e+3, 1.7773484e+2, -1109916.0, -1223014.8, 90381.32, 0.010877408, -0.21450466, -1059851.0, 138326.92, 0.0, 10.001038, 9.999507 
2.8952628e+3, 1.8773428e+2, -1027635.9, -1123776.3, 94683.586, 0.015283831, -0.2084919, -969518.8, 130665.21, 0.0, 10.000894, 9.999583 
2.895208e+3, 1.9773379e+2, -961765.5, -1041810.4, 99701.0, 0.028316977, -0.19886793, -894353.9, 107835.81, 0.0, 10.000676, 9.999579 
2.8951535e+3, 2.077333e+2, -873724.5, -940575.1, 106094.96, 0.04984711, -0.19258027, -795914.06, 108280.97, 0.0, 10.000574, 9.99965 
2.8950992e+3, 2.1773285e+2, -786084.56, -846430.06, 105789.63, 0.0692061, -0.18698497, -706248.94, 99951.016, 0.0, 10.000497, 9.999661 
2.895044e+3, 2.2773252e+2, -691280.5, -735744.4, 102634.13, 0.071004234, -0.1763075, -608498.0, 99705.625, 0.0, 10.000413, 9.999788 
2.8949893e+3, 2.3773223e+2, -611478.75, -652542.06, 108987.82, 0.06943876, -0.1660248, -521105.5, 89101.46, 0.0, 10.000314, 9.999736 
2.894934e+3, 2.4773167e+2, -531256.25, -575528.9, 100583.09, 0.082483634, -0.17213073, -450402.4, 61810.17, 0.0, 10.000247, 9.999623 
2.8948787e+3, 2.5773105e+2, -436719.56, -476594.6, 107591.6, 0.09254998, -0.1800225, -347233.78, 66984.82, 0.0, 10.000213, 9.999644 
2.8948227e+3, 2.677305e+2, -351018.78, -380738.34, 85175.55, 0.060066834, -0.18606922, -279416.5, 36807.15, 0.0, 10.000109, 9.99968 
2.8947657e+3, 2.777299e+2, -297075.06, -316958.3, 91605.86, 0.03593716, -0.19679572, -214872.94, 3356.5833, 0.0, 9.999859, 9.999568 
2.8947103e+3, 2.8772983e+2, -243255.67, -330565.2, 115427.55, 0.118899874, -0.099636786, -163503.55, -43271.953, 0.0, 9.999956, 9.99875 
2.8946546e+3, 2.977297e+2, -65024.54, -184174.69, 102836.73, 0.16285042, 0.032055683, -5752.7295, 16481.73, 0.0, 10.000467, 9.998842 
2.8945953e+3, 3.0772388e+2, -27910.486, -134809.05, 65326.99, -0.04042417, -0.42844298, 3046.6372, 3046.6372, 0.0, 10.000366, 9.998904 
2.8945383e+3, 3.1772754e+2, 47491.277, 168114.9, -31405.076, 0.10994658, 0.05888797, 175801.56, 175801.56, 0.0, 9.999712, 10.001307 
2.9055956e+3, 1.2779504e+2, -1542388.6, -1682638.6, 36053.3, -0.0941478, -0.21111493, -1533663.4, 153923.98, 0.0, 10.001408, 9.999544 
2.9055402e+3, 1.377944e+2, -1524770.6, -1617737.0, 28251.033, -0.026371017, -0.21273173, -1516858.9, 72734.59, 0.0, 10.000832, 9.999595 
2.905484e+3, 1.4779387e+2, -1406618.0, -1502391.9, 35903.46, -0.029721148, -0.21428677, -1394653.4, 96945.16, 0.0, 10.000943, 9.999655 
2.905428e+3, 1.5779333e+2, -1265995.6, -1389992.9, 47447.063, -0.019094447, -0.21649542, -1249923.5, 143680.13, 0.0, 10.001264, 9.999599 
2.905373e+3, 1.6779263e+2, -1205838.6, -1320630.8, 89670.88, 0.0019974548, -0.22422694, -1156767.9, 138842.69, 0.0, 10.001054, 9.999501 
2.9053184e+3, 1.777919e+2, -1162355.4, -1245325.0, 87944.43, 0.017593628, -0.23172008, -1106602.3, 91015.734, 0.0, 10.000664, 9.999536 
2.9052633e+3, 1.8779153e+2, -1075709.4, -1134594.8, 91902.9, 0.022588355, -0.21626726, -1008648.06, 90974.5, 0.0, 10.000509, 9.999696 
2.9052085e+3, 1.9779128e+2, -988373.94, -1042316.56, 93771.69, 0.027709989, -0.1932375, -917771.75, 83854.18, 0.0, 10.000438, 9.999692 
2.905154e+3, 2.0779085e+2, -900797.5, -940018.6, 104225.73, 0.04661778, -0.19271825, -814353.5, 89277.09, 0.0, 10.000329, 9.999773 
2.905099e+3, 2.1779041e+2, -818728.06, -848529.44, 110574.54, 0.06714974, -0.1973289, -722054.75, 83580.414, 0.0, 10.000213, 9.999785 
2.9050443e+3, 2.2779024e+2, -724086.6, -735158.3, 106192.195, 0.06293987, -0.18507244, -623286.1, 84351.39, 0.0, 10.000116, 9.999936 
2.904989e+3, 2.3779018e+2, -641899.44, -648386.5, 110611.93, 0.05844657, -0.16795142, -534483.5, 75155.42, 0.0, 10.000026, 9.999902 
2.904934e+3, 2.4778983e+2, -545118.6, -548389.25, 107067.63, 0.08091281, -0.17523795, -439673.84, 71968.32, 0.0, 10.000007, 9.999925 
2.9048786e+3, 2.5778946e+2, -457403.56, -454038.0, 120715.445, 0.10043283, -0.1868839, -334993.6, 78651.766, 0.0, 9.99993, 9.999934 
2.904822e+3, 2.6778927e+2, -377948.34, -365232.6, 83880.27, 0.04390515, -0.18441507, -287469.6, 28177.973, 0.0, 9.999801, 9.999933 
2.904765e+3, 2.777891e+2, -284597.03, -274743.16, 85694.67, -0.0006172584, -0.17975938, -193833.89, 23816.234, 0.0, 9.999799, 9.999882 
2.9047096e+3, 2.877895e+2, -277932.44, -252684.55, 127469.37, 0.12277001, -0.09059748, -137215.55, -17568.97, 0.0, 9.999314, 9.999594 
2.915597e+3, 1.2785158e+2, -1542671.0, -1675472.9, 13754.1045, -0.06725128, -0.23507209, -1541261.5, 145770.81, 0.0, 10.00138, 9.999604 
2.9155412e+3, 1.3785101e+2, -1516049.4, -1603761.0, 17618.814, 0.0024891226, -0.23633017, -1512642.5, 76395.805, 0.0, 10.000851, 9.9996805 
2.915485e+3, 1.478507e+2, -1393602.0, -1479128.9, 49872.277, -0.03129425, -0.22792435, -1370669.5, 120371.766, 0.0, 10.000958, 9.999808 
2.915429e+3, 1.5785041e+2, -1259500.3, -1373315.1, 53176.008, -0.061304223, -0.21918993, -1238522.3, 154521.45, 0.0, 10.001249, 9.999722 
2.9153734e+3, 1.6784981e+2, -1200646.8, -1308895.9, 75100.17, -0.029906034, -0.22706111, -1162199.6, 132850.17, 0.0, 10.001048, 9.999586 
2.915319e+3, 1.7784911e+2, -1156735.6, -1233628.5, 76455.31, 0.013393062, -0.23836286, -1109604.3, 87452.59, 0.0, 10.000664, 9.999616 
2.9152638e+3, 1.878489e+2, -1071284.9, -1126575.9, 89287.375, 0.038652387, -0.2155196, -1005461.06, 93599.266, 0.0, 10.000513, 9.999749 
2.915209e+3, 1.978488e+2, -982908.0, -1029865.8, 90443.12, 0.057469968, -0.18207169, -912945.94, 88116.414, 0.0, 10.000432, 9.99978 
2.915154e+3, 2.0784844e+2, -886498.8, -910414.25, 99556.4, 0.05735013, -0.19105132, -798184.56, 104881.16, 0.0, 10.000327, 9.999977 
2.9150993e+3, 2.1784802e+2, -808228.2, -824447.9, 106005.97, 0.048402146, -0.21349274, -710022.3, 95046.91, 0.0, 10.000202, 9.999955 
2.9150438e+3, 2.2784792e+2, -716432.6, -719247.3, 102660.93, 0.044820055, -0.20684668, -615169.4, 91901.78, 0.0, 10.000116, 10.000046 
2.9149887e+3, 2.3784798e+2, -631112.6, -627454.94, 108338.12, 0.04852566, -0.18790662, -520930.2, 88141.81, 0.0, 10.000032, 10.000042 
2.914934e+3, 2.4784818e+2, -517346.06, -489012.6, 106706.13, 0.07471548, -0.1703874, -395536.88, 115532.64, 0.0, 10.0, 10.000333 
2.9148784e+3, 2.5784847e+2, -437248.7, -416779.34, 114598.26, 0.08987414, -0.15682778, -311959.63, 101106.19, 0.0, 9.999947, 10.000184 
2.9148215e+3, 2.6784807e+2, -373958.72, -359578.78, 77695.99, 0.034302626, -0.18343863, -288740.78, 26329.957, 0.0, 9.999806, 9.999972 
2.9147646e+3, 2.778476e+2, -269672.0, -241466.34, 94532.82, -0.006439463, -0.21323605, -159990.19, 57086.785, 0.0, 9.999798, 10.00011 
2.9147086e+3, 2.8784874e+2, -147607.34, 16855.527, 71344.02, 0.082487844, -0.16168131, 43490.887, 162554.61, 0.0, 9.999335, 10.001432 
2.9255983e+3, 1.2790863e+2, -1595299.1, -1703270.5, 31998.396, -0.04196169, -0.2464502, -1586528.5, 99943.164, 0.0, 10.00103, 9.999581 
2.9255417e+3, 1.3790801e+2, -1480725.0, -1587669.6, 32949.54, -0.023379259, -0.2512103, -1471388.4, 117090.555, 0.0, 10.001095, 9.999674 
2.9254857e+3, 1.479078e+2, -1385685.1, -1467573.4, 66386.38, -0.045716263, -0.23890308, -1348632.0, 141849.06, 0.0, 10.000979, 9.999878 
2.92543e+3, 1.5790765e+2, -1322030.6, -1398043.4, 62333.566, -0.042682257, -0.22089356, -1287030.4, 105451.4, 0.0, 10.000794, 9.999772 
2.9253745e+3, 1.6790712e+2, -1245249.8, -1328554.1, 71389.32, -0.01545234, -0.22454381, -1204250.0, 90237.63, 0.0, 10.0007305, 9.999605 
2.9253194e+3, 1.7790648e+2, -1151581.8, -1228948.8, 69069.26, 0.012291802, -0.23288704, -1111101.0, 85393.74, 0.0, 10.000684, 9.9996395 
2.9252642e+3, 1.8790628e+2, -1060539.4, -1113655.1, 83784.016, 0.035774264, -0.2116655, -999204.75, 99293.14, 0.0, 10.000552, 9.99982 
2.9252094e+3, 1.9790624e+2, -981324.1, -1018929.56, 87107.17, 0.05818985, -0.18197834, -911013.4, 89485.914, 0.0, 10.000398, 9.999872 
2.9251543e+3, 2.0790592e+2, -885369.9, -894419.06, 92453.61, 0.058209304, -0.19913056, -797330.25, 105171.67, 0.0, 10.000267, 10.000116 
2.925099e+3, 2.1790557e+2, -809132.6, -813155.25, 95948.92, 0.05109024, -0.22900498, -715173.94, 89330.38, 0.0, 10.000144, 10.000061 
2.925044e+3, 2.279056e+2, -725216.9, -717734.2, 87774.62, 0.047591943, -0.21497205, -633621.25, 72883.945, 0.0, 10.00003, 10.000098 
2.924989e+3, 2.379058e+2, -640460.06, -622753.06, 90552.59, 0.04903484, -0.18503064, -540622.2, 67882.664, 0.0, 9.999925, 10.000129 
2.9249337e+3, 2.4790609e+2, -522559.72, -461867.16, 79740.18, 0.07024428, -0.1811538, -406894.06, 103607.52, 0.0, 9.999832, 10.000604 
2.924878e+3, 2.5790647e+2, -460543.63, -404051.03, 77619.38, 0.084852315, -0.18393861, -349698.16, 62798.266, 0.0, 9.999676, 10.000406 
2.9248214e+3, 2.6790655e+2, -380553.56, -328333.22, 55257.156, 0.04118282, -0.1891303, -293327.97, 21168.787, 0.0, 9.999609, 10.000284 
2.9247645e+3, 2.7790657e+2, -279910.88, -220318.11, 98963.07, 0.018264296, -0.20126604, -146763.08, 69735.195, 0.0, 9.999598, 10.000366 
2.9247075e+3, 2.87907e+2, -56050.652, 80602.875, -25294.361, 0.06035005, -0.24078684, 85134.55, 203625.86, 0.0, 9.999866, 10.001629 
2.9355994e+3, 1.279661e+2, -1605149.0, -1717954.5, 33929.98, -0.020660585, -0.2512265, -1595730.0, 90177.16, 0.0, 10.00101, 9.999488 
2.935542e+3, 1.379653e+2, -1486219.9, -1598911.3, 33406.805, -0.09507652, -0.26153913, -1477061.0, 110855.34, 0.0, 10.001096, 9.999596 
2.935486e+3, 1.4796506e+2, -1385256.8, -1468244.6, 58669.594, -0.070227265, -0.24941988, -1354890.6, 135027.95, 0.0, 10.000984, 9.999871 
2.935431e+3, 1.57965e+2, -1324539.1, -1401785.9, 56541.313, 0.026191948, -0.22312267, -1294688.5, 97229.914, 0.0, 10.000788, 9.999749 
2.935376e+3, 1.6796449e+2, -1249509.5, -1336034.4, 69808.375, 0.035883162, -0.21984915, -1210644.9, 83279.79, 0.0, 10.000725, 9.999557 
2.9353198e+3, 1.7796391e+2, -1153682.8, -1231625.5, 65870.1, 0.011623673, -0.21824266, -1116118.9, 79813.26, 0.0, 10.000676, 9.999625 
2.9352644e+3, 1.8796368e+2, -1054095.5, -1100918.3, 77709.53, 0.014187229, -0.2050579, -996347.3, 101587.96, 0.0, 10.000553, 9.9999075 
2.9352093e+3, 1.9796357e+2, -975912.4, -1006054.3, 81422.016, 0.026651198, -0.19359222, -908178.3, 91758.664, 0.0, 10.000391, 9.999964 
2.9351544e+3, 2.0796326e+2, -879262.2, -881280.5, 87572.29, 0.05059748, -0.21724892, -792693.25, 109245.86, 0.0, 10.000265, 10.000208 
2.9350993e+3, 2.17963e+2, -806952.4, -807084.4, 91495.07, 0.07457127, -0.2458595, -715523.3, 88417.21, 0.0, 10.000137, 10.000106 
2.935044e+3, 2.2796327e+2, -727570.56, -719687.94, 83313.61, 0.067258984, -0.2077208, -640222.44, 65716.81, 0.0, 10.000018, 10.00009 
2.9349884e+3, 2.379637e+2, -638770.1, -620485.9, 86874.01, 0.05494017, -0.15772596, -542274.3, 65663.164, 0.0, 9.9999275, 10.000144 
2.934933e+3, 2.4796349e+2, -512157.56, -444052.6, 75651.92, 0.06857539, -0.2081727, -395142.53, 114796.125, 0.0, 9.999845, 10.000723 
2.9348776e+3, 2.5796345e+2, -439723.0, -365607.7, 71707.836, 0.077097476, -0.26921478, -321948.03, 89989.41, 0.0, 9.999698, 10.000658 
2.9348207e+3, 2.6796475e+2, -337795.78, -240815.8, 54408.914, 0.060758524, -0.19898912, -216425.0, 97499.984, 0.0, 9.999618, 10.000876 
2.9347643e+3, 2.7796593e+2, -251067.55, -184096.39, 95327.09, 0.061466906, -0.14028068, -116544.66, 99369.35, 0.0, 9.999687, 10.000577 
2.934707e+3, 2.8796473e+2, -132585.78, -86336.92, -5387.091, 0.041093163, -0.28472733, -85717.72, 32207.541, 0.0, 9.999893, 10.000471 
2.9456002e+3, 1.2802333e+2, -1654449.1, -1751231.3, 20993.008, -0.007972876, -0.24901374, -1650091.8, 35253.76, 0.0, 10.000704, 9.999414 
2.945543e+3, 1.3802241e+2, -1494727.1, -1604951.4, 20974.34, -0.08492685, -0.26684034, -1490870.9, 96485.22, 0.0, 10.001044, 9.99958 
2.945487e+3, 1.4802207e+2, -1399420.1, -1479540.4, 30068.605, -0.07069195, -0.26217008, -1389391.0, 99968.49, 0.0, 10.000904, 9.999833 
2.9454318e+3, 1.5802181e+2, -1357081.4, -1420465.3, 28690.936, 0.01302799, -0.25186256, -1346023.5, 45337.9, 0.0, 10.000575, 9.999725 
2.945376e+3, 1.6802146e+2, -1275580.9, -1336299.9, 55243.26, 0.018301915, -0.23976247, -1242904.5, 50461.52, 0.0, 10.00049, 9.99967 
2.94532e+3, 1.7802109e+2, -1183876.5, -1236044.5, 60644.355, -0.011670312, -0.22686288, -1143944.5, 51426.875, 0.0, 10.000423, 9.999718 
2.9452646e+3, 1.880209e+2, -1079303.6, -1108223.1, 71228.82, -0.006898394, -0.2148452, -1021081.6, 76292.18, 0.0, 10.000354, 9.999955 
2.9452094e+3, 1.9802082e+2, -985014.5, -1004677.6, 73361.37, 0.015285801, -0.20566566, -920828.8, 78546.02, 0.0, 10.000296, 10.000023 
2.9451543e+3, 2.0802055e+2, -889436.94, -885450.8, 73750.086, 0.04705012, -0.22838949, -813666.9, 87709.914, 0.0, 10.000186, 10.00022 
2.9450995e+3, 2.1802035e+2, -811033.8, -808761.25, 73441.7, 0.075575836, -0.2512457, -736447.06, 66930.82, 0.0, 10.000101, 10.000116 
2.945044e+3, 2.2802071e+2, -719034.56, -707060.2, 67770.05, 0.072510004, -0.21140954, -645013.4, 60362.402, 0.0, 10.000032, 10.000174 
2.9449883e+3, 2.3802114e+2, -639766.75, -617163.56, 79869.33, 0.0677058, -0.16789606, -547800.2, 59573.344, 0.0, 9.999901, 10.00018 
2.944933e+3, 2.4802089e+2, -517445.75, -452217.3, 62599.02, 0.07668961, -0.22247222, -414245.97, 95129.586, 0.0, 9.999829, 10.000675 
2.944877e+3, 2.580209e+2, -418609.56, -346127.5, 45220.92, 0.07804963, -0.2760221, -324417.3, 86956.86, 0.0, 9.999804, 10.000743 
2.9448205e+3, 2.6802248e+2, -289729.6, -196337.67, 9282.587, 0.07092298, -0.19382611, -195423.98, 117934.77, 0.0, 9.999847, 10.001079 
2.9447642e+3, 2.7802357e+2, -218513.27, -171138.47, 26393.512, 0.07712448, -0.15872797, -159361.66, 55987.24, 0.0, 9.999924, 10.0005455 
2.9447073e+3, 2.8802285e+2, -42560.477, -55500.87, -21063.633, 0.043557886, -0.23228195, -26995.7, 90359.55, 0.0, 10.000556, 10.000355 
2.955601e+3, 1.2808043e+2, -1657026.4, -1752983.8, 32143.484, -0.006702022, -0.23126996, -1647254.3, 37531.46, 0.0, 10.000693, 9.999404 
2.9555446e+3, 1.3807945e+2, -1499050.6, -1604325.4, 28469.725, -0.009994049, -0.25684437, -1491844.6, 94952.37, 0.0, 10.001005, 9.999602 
2.9554877e+3, 1.480789e+2, -1408169.6, -1492176.1, 17154.033, -0.052665077, -0.26898995, -1404801.9, 84000.69, 0.0, 10.00088, 9.999759 
2.955431e+3, 1.5807816e+2, -1358590.0, -1422670.3, 21010.99, -0.06932366, -0.2961909, -1352315.1, 38493.973, 0.0, 10.00057, 9.999713 
2.9553756e+3, 1.6807804e+2, -1256381.5, -1297773.5, 54734.42, -0.058899168, -0.27994105, -1218561.0, 74250.18, 0.0, 10.000495, 9.999933 
2.95532e+3, 1.78078e+2, -1172996.9, -1212351.3, 55786.7, -0.057549648, -0.258228, -1133518.8, 61293.777, 0.0, 10.00042, 9.999883 
2.9552647e+3, 1.8807796e+2, -1079317.1, -1106208.3, 68366.72, -0.02584805, -0.23934957, -1023086.4, 73727.04, 0.0, 10.000345, 9.999973 
2.9552096e+3, 1.9807805e+2, -984909.5, -1001238.6, 70233.63, 0.02555463, -0.2149325, -922367.5, 76445.055, 0.0, 10.000281, 10.000053 
2.9551542e+3, 2.0807783e+2, -895584.25, -897257.3, 68300.91, 0.044749178, -0.22891451, -828114.75, 72699.79, 0.0, 10.00018, 10.000142 
2.9550987e+3, 2.1807763e+2, -814447.0, -812984.5, 70859.484, 0.047070876, -0.24477269, -742852.5, 59964.004, 0.0, 10.000089, 10.0000925 
2.9550436e+3, 2.280779e+2, -706888.9, -680459.75, 64015.82, 0.064361684, -0.22647803, -628308.8, 76505.9, 0.0, 10.000027, 10.000358 
2.9549882e+3, 2.3807818e+2, -631931.94, -603484.5, 74496.85, 0.086704545, -0.21491593, -541865.6, 64947.215, 0.0, 9.99991, 10.00027 
2.9549327e+3, 2.480783e+2, -530316.44, -479327.03, 60724.11, 0.091000475, -0.22135973, -438962.8, 69849.01, 0.0, 9.999829, 10.00049 
2.9548767e+3, 2.5807893e+2, -423659.38, -359998.0, 45757.81, 0.08362695, -0.19708927, -336088.47, 74717.39, 0.0, 9.999817, 10.000642 
2.9548204e+3, 2.6807985e+2, -297907.9, -219079.8, 17143.463, 0.06805427, -0.173188, -215512.86, 97284.94, 0.0, 9.999872, 10.000911 
2.9547638e+3, 2.7807945e+2, -227039.56, -203427.64, 31455.494, 0.04648646, -0.25964263, -181635.56, 33166.957, 0.0, 9.999978, 10.000301 
2.9547074e+3, 2.880805e+2, 22163.043, 65077.67, 17320.734, 0.031952236, -0.17099677, 71196.15, 187986.36, 0.0, 10.00061, 10.00116 
2.9656005e+3, 1.2813674e+2, -1597189.3, -1689585.8, -5489.041, -0.08419173, -0.2500976, -1596864.4, 87369.19, 0.0, 10.000956, 9.999712 
2.9655454e+3, 1.3813639e+2, -1575370.4, -1624694.0, 10719.544, 0.010824195, -0.23660564, -1573141.4, 13096.938, 0.0, 10.000406, 9.999755 
2.9654884e+3, 1.4813599e+2, -1465332.4, -1504797.3, 10802.017, -0.02025681, -0.2461731, -1462569.3, 25673.07, 0.0, 10.0004225, 9.999894 
2.9654318e+3, 1.5813561e+2, -1352351.3, -1406392.8, 33628.016, -0.044983547, -0.25623947, -1336233.1, 54012.74, 0.0, 10.000553, 9.999835 
2.965376e+3, 1.6813529e+2, -1269025.4, -1318840.5, 50862.598, -0.02286869, -0.2538338, -1237299.1, 54950.676, 0.0, 10.000468, 9.999804 
2.9653206e+3, 1.7813504e+2, -1198720.3, -1231165.5, 27206.533, 0.006459208, -0.24152242, -1183266.9, 10986.284, 0.0, 10.000263, 9.999832 
2.9652652e+3, 1.8813491e+2, -1097927.5, -1108741.9, 39067.04, 0.026694046, -0.23557754, -1063895.3, 32359.574, 0.0, 10.000187, 10.000034 
2.9652098e+3, 1.9813475e+2, -1008463.94, -1018902.75, 37196.605, 0.043013882, -0.23607689, -976122.3, 22133.824, 0.0, 10.000146, 9.999998 
2.9651543e+3, 2.0813462e+2, -903873.25, -903840.5, 36010.48, 0.04489997, -0.23821187, -867846.4, 32411.217, 0.0, 10.0001335, 10.000121 
2.965099e+3, 2.1813463e+2, -799503.6, -805919.2, 48081.586, 0.046980046, -0.23276024, -754522.94, 47735.09, 0.0, 10.000189, 10.000094 
2.9650438e+3, 2.2813477e+2, -683682.44, -675373.5, 28315.473, 0.063495286, -0.22467424, -650909.3, 53347.895, 0.0, 10.000206, 10.000311 
2.964988e+3, 2.3813489e+2, -595347.0, -579634.4, 21085.459, 0.08106821, -0.22831456, -564989.2, 41267.31, 0.0, 10.000127, 10.000337 
2.9649323e+3, 2.481352e+2, -512418.72, -464470.9, 19493.643, 0.0893852, -0.22636749, -457545.78, 50707.906, 0.0, 9.999914, 10.000558 
2.9648766e+3, 2.5813594e+2, -433726.53, -370828.75, 26964.197, 0.09638767, -0.1915551, -360851.8, 49394.516, 0.0, 9.999766, 10.000597 
2.96482e+3, 2.6813662e+2, -301098.8, -257396.2, -78.580124, 0.080921255, -0.16963384, -257396.06, 54844.848, 0.0, 10.0000105, 10.000582 
2.9647636e+3, 2.7813593e+2, -199101.6, -208131.13, 5721.027, 0.04392406, -0.25921628, -196328.47, 17920.797, 0.0, 10.000259, 10.000138 
2.9647076e+3, 2.8813693e+2, -74971.5, 45056.44, -18866.271, 0.01647249, -0.17317769, 47952.03, 164189.27, 0.0, 9.999858, 10.001387 
2.9756e+3, 1.2819211e+2, -1587124.0, -1631381.8, -34884.14, -0.21764387, -0.32650962, -1567942.0, 115748.516, 0.0, 10.000798, 10.000185 
2.9755455e+3, 1.3819286e+2, -1561059.4, -1587323.0, -1891.9564, -0.014376594, -0.24102376, -1560923.9, 24759.85, 0.0, 10.000376, 10.000026 
2.9754892e+3, 1.4819303e+2, -1426864.1, -1448872.0, 13181.305, 0.020703154, -0.22312362, -1420697.4, 66984.59, 0.0, 10.000526, 10.000228 
2.9754335e+3, 1.5819375e+2, -1314623.4, -1362465.3, 32164.617, 0.06253968, -0.16245, -1298459.8, 91215.164, 0.0, 10.000703, 10.000064 
2.9753777e+3, 1.6819304e+2, -1287325.6, -1379026.8, 41841.63, 0.10737863, -0.17633432, -1271103.8, 20579.617, 0.0, 10.000564, 9.999344 
2.9753223e+3, 1.7819224e+2, -1207850.4, -1262659.0, 21182.0, 0.16614878, -0.17813067, -1200618.4, -6925.6675, 0.0, 10.000318, 9.99959 
2.9752663e+3, 1.8819171e+2, -1088612.3, -1097062.5, 37815.01, 0.13570362, -0.20944595, -1054787.0, 40911.094, 0.0, 10.000219, 10.000098 
2.97521e+3, 1.9819084e+2, -1016401.5, -1037904.56, 34656.445, 0.05522458, -0.2775744, -990867.1, 6839.269, 0.0, 10.000157, 9.999862 
2.9751542e+3, 2.081909e+2, -898432.6, -893358.6, 36209.98, 0.047842775, -0.26068985, -859596.9, 40109.242, 0.0, 10.000136, 10.000191 
2.9750994e+3, 2.1819137e+2, -798403.3, -802110.06, 51208.79, 0.0782611, -0.21676874, -749014.4, 52687.7, 0.0, 10.000182, 10.000125 
2.9750437e+3, 2.2819142e+2, -702586.3, -714576.06, 27842.426, 0.06829312, -0.20127475, -680100.7, 23601.797, 0.0, 10.000203, 10.000043 
2.974988e+3, 2.3819143e+2, -594964.9, -576753.25, 14638.071, 0.044276692, -0.20025904, -568619.9, 37083.586, 0.0, 10.000117, 10.0003605 
2.9749322e+3, 2.481916e+2, -490650.75, -420266.13, 12572.581, 0.07062299, -0.23510465, -418087.75, 89613.08, 0.0, 9.999919, 10.000859 
2.9748765e+3, 2.5819197e+2, -429393.16, -365204.28, 26664.688, 0.1132254, -0.2600169, -355572.72, 54122.75, 0.0, 9.999781, 10.000628 
2.9748204e+3, 2.6819295e+2, -331768.5, -324451.03, 14486.324, 0.10584957, -0.18385091, -313168.56, -1480.5879, 0.0, 10.000023, 10.000116 
2.9747638e+3, 2.7819324e+2, -200422.13, -215932.73, 1538.9359, 0.060071513, -0.13996166, -200270.9, 13416.369, 0.0, 10.000295, 10.000065 
2.9747072e+3, 2.881923e+2, -119554.79, -42067.906, -33077.68, 0.02455332, -0.23744062, -29868.367, 85826.53, 0.0, 9.999862, 10.000775 
2.985603e+3, 1.2824944e+2, -1657251.3, -1685451.6, -3906.0579, 0.05150818, -0.270992, -1656720.3, 26408.004, 0.0, 10.000401, 10.000014 
2.9855454e+3, 1.3824815e+2, -1587954.8, -1589931.0, 29491.688, -0.033376563, -0.38442245, -1559434.6, 25706.014, 0.0, 10.000152, 10.000114 
2.9854882e+3, 1.4824833e+2, -1423146.5, -1469871.9, 21984.393, -0.124292515, -0.35794798, -1414429.1, 72709.93, 0.0, 10.000657, 10.000017 
2.9854316e+3, 1.5824807e+2, -1336448.1, -1402949.1, -29152.68, -0.17398667, -0.36685514, -1325477.9, 63664.543, 0.0, 10.000694, 9.999784 
2.9853758e+3, 1.6824813e+2, -1271683.5, -1356999.5, -10694.588, -0.13984865, -0.2993436, -1270363.3, 20779.633, 0.0, 10.000621, 9.999462 
2.9853198e+3, 1.7824787e+2, -1167108.9, -1242673.5, 1262.2948, -0.122670434, -0.26079795, -1167087.8, 26059.426, 0.0, 10.000606, 9.999582 
2.985264e+3, 1.8824744e+2, -1081336.1, -1113700.8, 8511.415, -0.104240276, -0.2661296, -1079234.3, 15917.432, 0.0, 10.00036, 9.999916 
2.985209e+3, 1.982474e+2, -1000477.94, -1023552.3, 16814.754, -0.05115867, -0.2451669, -991622.94, 5529.2075, 0.0, 10.000236, 9.9999275 
2.9851544e+3, 2.0824753e+2, -877048.0, -887213.7, 17638.732, 0.02676968, -0.22214133, -863774.4, 35377.086, 0.0, 10.000298, 10.00016 
2.9850993e+3, 2.1824777e+2, -806491.5, -807639.56, 16603.566, 0.0905163, -0.19529441, -790452.0, 10697.717, 0.0, 10.00013, 10.000114 
2.9850438e+3, 2.2824778e+2, -727240.9, -708260.2, 15966.041, 0.09455698, -0.19543831, -699176.8, 3973.413, 0.0, 9.999956, 10.000207 
2.984988e+3, 2.3824774e+2, -616982.44, -585922.5, 25936.688, 0.0761195, -0.20765533, -571221.8, 33929.195, 0.0, 9.999961, 10.000372 
2.9849318e+3, 2.4824789e+2, -467020.38, -422653.3, 3225.1772, 0.07204741, -0.23689851, -422420.1, 84728.336, 0.0, 10.000141, 10.000735 
2.984876e+3, 2.5824818e+2, -351169.34, -341969.6, -7787.242, 0.088583946, -0.26208445, -337525.16, 71619.234, 0.0, 10.000372, 10.000509 
2.9848203e+3, 2.6824877e+2, -325166.72, -333624.94, -8358.895, 0.10678249, -0.21131857, -320028.0, -8888.206, 0.0, 10.000106, 10.000025 
2.984764e+3, 2.7824926e+2, -271792.3, -245196.31, 2567.8171, 0.07496506, -0.14931196, -244950.67, -31813.85, 0.0, 9.99978, 10.000135 
2.9847077e+3, 2.882478e+2, -56425.844, -114953.38, -24043.234, 0.044170428, -0.26616865, -47815.543, 67335.44, 0.0, 10.000676, 9.999962 
2.9956028e+3, 1.2830669e+2, -1649472.3, -1738701.0, -41371.78, -0.028927507, -0.27139017, -1633242.0, 49324.664, 0.0, 10.000701, 9.999504 
2.995544e+3, 1.3830586e+2, -1518889.3, -1563966.3, 7929.217, -0.1470998, -0.31540376, -1517535.1, 67038.42, 0.0, 10.000648, 10.000059 
2.9954904e+3, 1.4830677e+2, -1483748.5, -1581874.4, 26722.012, 0.05434145, -0.17211471, -1476943.4, 9622.2, 0.0, 10.000571, 9.999303 
2.995434e+3, 1.583049e+2, -1508720.5, -1565715.4, 57561.113, 0.032682296, -0.2502303, -1472988.8, -84403.234, 0.0, 9.999825, 9.999101 
2.995378e+3, 1.6830385e+2, -1308374.3, -1321829.9, 59390.984, 0.04788698, -0.30708084, -1255331.3, 35265.465, 0.0, 10.0001135, 9.99996 
2.9953215e+3, 1.7830446e+2, -1176127.9, -1232889.5, -3607.158, 0.011892117, -0.22273448, -1175899.6, 16691.637, 0.0, 10.000459, 9.999733 
2.9952645e+3, 1.88303e+2, -1081091.3, -1153744.9, 5980.511, -0.057711154, -0.31185204, -1080602.3, 14004.172, 0.0, 10.000511, 9.999578 
2.99521e+3, 1.9830394e+2, -1033932.0, -1022385.2, 16347.586, 0.049530685, -0.19286285, -1010821.44, -14223.188, 0.0, 9.999915, 10.000096 
2.9951552e+3, 2.0830357e+2, -929578.1, -930752.8, 11621.9, 0.12943144, -0.21568811, -918528.75, -19925.898, 0.0, 10.000008, 10.000002 
2.9950988e+3, 2.1830308e+2, -771760.6, -796596.6, -19014.365, 0.044951122, -0.24306998, -761468.44, 39140.004, 0.0, 10.000392, 10.000063 
2.9950434e+3, 2.2830349e+2, -723687.56, -639057.44, -37692.797, 0.06740454, -0.24061821, -624704.06, 77899.664, 0.0, 9.999691, 10.000808 
2.9949886e+3, 2.3830362e+2, -604542.2, -577980.94, 4109.042, 0.15328225, -0.27771464, -577359.8, 27241.756, 0.0, 10.00004, 10.000385 
2.9949322e+3, 2.4830416e+2, -493885.03, -493650.97, 11199.639, 0.08967732, -0.23543504, -482567.75, 24028.488, 0.0, 10.00021, 10.000209 
2.9948756e+3, 2.583046e+2, -366128.72, -382423.34, -4404.6763, 0.023367997, -0.19464026, -365014.28, 43577.797, 0.0, 10.000403, 10.00022 
2.99482e+3, 2.6830414e+2, -302785.16, -298011.8, -21074.594, 0.07634868, -0.25435296, -279189.2, 31407.29, 0.0, 10.000136, 10.000263 
2.9947636e+3, 2.783038e+2, -272353.3, -218753.06, 5138.297, 0.067428716, -0.30850834, -218264.94, -5665.362, 0.0, 9.999704, 10.000331 
2.994708e+3, 2.8830484e+2, -116861.414, -195878.4, 46807.656, 0.0552351, -0.16518545, -95117.336, 19475.027, 0.0, 10.000545, 9.999442 
